
#######################################################################
#
#                 Cambridge Crystallographic Data Centre
#                                CCDC
#
#######################################################################
#
# If this CIF has been generated from an entry in the Cambridge
# Structural Database, then it will include bibliographic, chemical,
# crystal, experimental, refinement or atomic coordinate data resulting
# from the CCDC's data processing and validation procedures.
#
#######################################################################

data_CSD_CIF_SAVTOA
_audit_creation_date 2012-07-19
_audit_creation_method CSD-ConQuest-V1
_database_code_CSD SAVTOA
_database_code_depnum_ccdc_archive 'CCDC 829051'
_chemical_formula_sum 'C19 H14 N4 O3'
_chemical_formula_moiety
;
C19 H14 N4 O3
;
_journal_coden_Cambridge 16
_journal_volume 68
_journal_year 2012
_journal_page_first 2532
_journal_name_full 'Tetrahedron '
loop_
_publ_author_name
"V.O.Iaroshenko"
"S.Mkrtchyan"
"A.Gevorgyan"
"M.Vilches-Herrera"
"D.V.Sevenard"
"A.Villinger"
"T.V.Ghochikyan"
"A.Saghiyan"
"V.Ya.Sosnovskikh"
"P.Langer"
_chemical_name_systematic
;
2-(3-Methyl-5-nitro-1-phenyl-1H-pyrazolo[3,4-b]pyridin-6-yl)phenol
;
_cell_volume   1639.410
_exptl_crystal_colour 'colorless'
_exptl_crystal_density_diffrn 1.403
_exptl_crystal_description 'block'
_diffrn_ambient_temperature 173
#These two values have been output from a single CSD field.
_refine_ls_R_factor_gt 0.0429
_refine_ls_wR_factor_gt 0.0429
_symmetry_cell_setting monoclinic
_symmetry_space_group_name_H-M 'P 21/n'
_symmetry_Int_Tables_number 14
loop_
_symmetry_equiv_pos_site_id
_symmetry_equiv_pos_as_xyz
1 x,y,z
2 1/2-x,1/2+y,1/2-z
3 -x,-y,-z
4 -1/2+x,-1/2-y,-1/2+z
_cell_length_a 11.1798(3)
_cell_length_b 8.3934(3)
_cell_length_c 17.7153(5)
_cell_angle_alpha 90
_cell_angle_beta 99.528(2)
_cell_angle_gamma 90
_cell_formula_units_Z 4
loop_
_atom_type_symbol
_atom_type_radius_bond
C 0.68
H 0.23
N 0.68
O 0.68
loop_
_atom_site_label
_atom_site_type_symbol
_atom_site_fract_x
_atom_site_fract_y
_atom_site_fract_z
N1 N 0.62727(9) 0.61185(12) 0.34796(5)
N2 N 0.60988(9) 0.65551(12) 0.42095(5)
N3 N 0.50211(9) 0.57791(11) 0.22471(5)
N4 N 0.16980(9) 0.66925(12) 0.18375(6)
O1 O 0.12657(8) 0.55700(11) 0.14368(5)
O2 O 0.11363(8) 0.79067(11) 0.19425(6)
O3 O 0.27151(9) 0.76288(10) 0.05518(5)
C1 C 0.51972(10) 0.62073(13) 0.29854(6)
C2 C 0.43172(11) 0.67621(14) 0.34037(6)
C3 C 0.49429(12) 0.69461(14) 0.41714(7)
C4 C 0.31472(11) 0.69875(14) 0.30059(7)
H1 H 0.25180 0.74170 0.32450
C5 C 0.29521(10) 0.65523(13) 0.22438(6)
C6 C 0.38831(10) 0.59133(13) 0.18723(6)
C7 C 0.44364(13) 0.74782(19) 0.48600(7)
H2 H 0.38660 0.66750 0.49890
H3 H 0.40120 0.84950 0.47500
H4 H 0.50990 0.76130 0.52930
C8 C 0.74465(11) 0.57417(14) 0.33204(7)
C9 C 0.77476(12) 0.61577(19) 0.26116(8)
H5 H 0.71840 0.67220 0.22470
C10 C 0.88746(13) 0.5742(2) 0.24432(8)
H6 H 0.90750 0.59960 0.19570
C11 C 0.97121(12) 0.49555(17) 0.29825(8)
H7 H 1.04820 0.46660 0.28650
C12 C 0.94202(12) 0.45947(15) 0.36938(8)
H8 H 1.00010 0.40820 0.40670
C13 C 0.82855(11) 0.49756(15) 0.38657(7)
H9 H 0.80860 0.47140 0.43520
C14 C 0.36991(10) 0.52784(13) 0.10772(6)
C15 C 0.41940(11) 0.37795(14) 0.09714(7)
H10 H 0.46090 0.32150 0.14010
C16 C 0.40866(12) 0.31074(15) 0.02482(7)
H11 H 0.44060 0.20770 0.01840
C17 C 0.35081(12) 0.39547(16) -0.03811(7)
H12 H 0.34400 0.35040 -0.08780
C18 C 0.30288(12) 0.54530(15) -0.02901(7)
H13 H 0.26350 0.60240 -0.07240
C19 C 0.31232(11) 0.61239(14) 0.04374(6)
H14 H 0.2274(18) 0.793(2) 0.0138(12)
#END
