
#######################################################################
#
#                 Cambridge Crystallographic Data Centre
#                                CCDC
#
#######################################################################
#
# If this CIF has been generated from an entry in the Cambridge
# Structural Database, then it will include bibliographic, chemical,
# crystal, experimental, refinement or atomic coordinate data resulting
# from the CCDC's data processing and validation procedures.
#
#######################################################################

data_CSD_CIF_SAWBUN
_audit_creation_date 1990-02-14
_audit_creation_method CSD-ConQuest-V1
_database_code_CSD SAWBUN
_chemical_formula_sum 'C7 H3 N3 O8'
_chemical_formula_moiety
;
C7 H3 N3 O8
;
_journal_coden_Cambridge 582
_journal_volume 19
_journal_year 1989
_journal_page_first 25
_journal_name_full 'J.Crystallogr.Spectrosc.Res. '
loop_
_publ_author_name
"A.L.Rheingold"
"C.J.Baldacchini"
"C.W.Grote"
_chemical_name_systematic
;
2,4,6-Trinitrobenzoic acid
;
_cell_volume    956.334
_exptl_crystal_colour 'pale yellow'
_exptl_crystal_density_diffrn 1.785
_diffrn_ambient_temperature ?
_diffrn_special_details
;
The study was carried out at room temperature,in the range 283-303K

;
#These two values have been output from a single CSD field.
_refine_ls_R_factor_gt 0.045
_refine_ls_wR_factor_gt 0.045
_symmetry_cell_setting orthorhombic
_symmetry_space_group_name_H-M 'P 21 21 21'
_symmetry_Int_Tables_number 19
loop_
_symmetry_equiv_pos_site_id
_symmetry_equiv_pos_as_xyz
1 x,y,z
2 1/2+x,1/2-y,-z
3 -x,1/2+y,1/2-z
4 1/2-x,-y,1/2+z
_cell_length_a 6.553(1)
_cell_length_b 11.405(2)
_cell_length_c 12.796(2)
_cell_angle_alpha 90
_cell_angle_beta 90
_cell_angle_gamma 90
_cell_formula_units_Z 4
loop_
_atom_type_symbol
_atom_type_radius_bond
C 0.68
H 0.23
N 0.68
O 0.68
loop_
_atom_site_label
_atom_site_type_symbol
_atom_site_fract_x
_atom_site_fract_y
_atom_site_fract_z
C1 C 0.6481(5) 0.1626(3) 0.6581(3)
C2 C 0.7890(6) 0.0743(3) 0.6373(3)
C3 C 0.9491(6) 0.0467(3) 0.7024(3)
C4 C 0.9728(6) 0.1139(3) 0.7917(3)
C5 C 0.8400(6) 0.2019(3) 0.8184(3)
C6 C 0.6795(6) 0.2228(3) 0.7517(3)
C7 C 0.4850(5) 0.1988(3) 0.5808(3)
N1 N 0.7732(5) 0.0061(3) 0.5395(3)
N2 N 1.1505(6) 0.0899(4) 0.8595(3)
N3 N 0.5313(5) 0.3148(3) 0.7836(2)
O1 O 0.5104(4) 0.2804(2) 0.5219(2)
O2 O 0.3197(4) 0.1353(3) 0.5869(2)
O3 O 0.6551(5) 0.0410(3) 0.4733(2)
O4 O 0.8808(5) -0.0795(3) 0.5301(3)
O5 O 1.2450(5) 0.0002(4) 0.8444(3)
O6 O 1.1883(6) 0.1607(4) 0.9277(3)
O7 O 0.5818(6) 0.3818(3) 0.8524(3)
O8 O 0.3684(5) 0.3180(3) 0.7392(3)
H1 H 0.2409(94) 0.1486(43) 0.5318(41)
H2 H 1.0727(66) -0.0137(35) 0.6899(30)
H3 H 0.8421(60) 0.2452(33) 0.8820(26)
#END
