
#######################################################################
#
#                 Cambridge Crystallographic Data Centre
#                                CCDC
#
#######################################################################
#
# If this CIF has been generated from an entry in the Cambridge
# Structural Database, then it will include bibliographic, chemical,
# crystal, experimental, refinement or atomic coordinate data resulting
# from the CCDC's data processing and validation procedures.
#
#######################################################################

data_CSD_CIF_SAWBOH
_audit_creation_date 1990-02-14
_audit_creation_method CSD-ConQuest-V1
_database_code_CSD SAWBOH
_chemical_formula_sum 'C7 H4 N4 O7'
_chemical_formula_moiety
;
C7 H4 N4 O7
;
_journal_coden_Cambridge 582
_journal_volume 19
_journal_year 1989
_journal_page_first 25
_journal_name_full 'J.Crystallogr.Spectrosc.Res. '
loop_
_publ_author_name
"A.L.Rheingold"
"C.J.Baldacchini"
"C.W.Grote"
_chemical_name_systematic
;
2,4,6-Trinitrobenzamide
;
_cell_volume   1958.346
_exptl_crystal_colour 'pale yellow'
_exptl_crystal_density_diffrn 1.737
_diffrn_ambient_temperature ?
_diffrn_special_details
;
The study was carried out at room temperature,in the range 283-303K

;
#These two values have been output from a single CSD field.
_refine_ls_R_factor_gt 0.073
_refine_ls_wR_factor_gt 0.073
_symmetry_cell_setting orthorhombic
_symmetry_space_group_name_H-M 'P b c a'
_symmetry_Int_Tables_number 61
loop_
_symmetry_equiv_pos_site_id
_symmetry_equiv_pos_as_xyz
1 x,y,z
2 1/2-x,1/2+y,z
3 x,1/2-y,1/2+z
4 1/2-x,-y,1/2+z
5 -x,-y,-z
6 -1/2+x,-1/2-y,-z
7 -x,-1/2+y,-1/2-z
8 -1/2+x,y,-1/2-z
_cell_length_a 9.248(3)
_cell_length_b 14.377(6)
_cell_length_c 14.729
_cell_angle_alpha 90
_cell_angle_beta 90
_cell_angle_gamma 90
_cell_formula_units_Z 8
loop_
_atom_type_symbol
_atom_type_radius_bond
C 0.68
H 0.23
N 0.68
O 0.68
loop_
_atom_site_label
_atom_site_type_symbol
_atom_site_fract_x
_atom_site_fract_y
_atom_site_fract_z
C1 C 0.1771(2) 0.6429(1) 0.1920(1)
C2 C 0.14230 0.60810 0.10640
C3 C 0.08070 0.66640 0.04130
C4 C 0.05390 0.75950 0.06190
C5 C 0.08880 0.79430 0.14760
C6 C 0.15040 0.73600 0.21260
C7 C 0.2479(4) 0.5781(3) 0.2636(3)
N1 N 0.1656(3) 0.5128(2) 0.0812(3)
N2 N -0.0178(4) 0.8178(3) -0.0042(3)
N3 N 0.1868(4) 0.7786(3) 0.2980(3)
N4 N 0.1576(4) 0.5438(3) 0.3250(3)
O1 O 0.1632(3) 0.4930(2) 0.0004(2)
O2 O 0.1828(4) 0.4564(2) 0.1405(3)
O3 O -0.0377(4) 0.8984(2) 0.0151(3)
O4 O -0.0545(4) 0.7826(3) -0.0756(2)
O5 O 0.3786(3) 0.5657(2) 0.2606(2)
O6 O 0.2636(4) 0.7372(3) 0.3497(3)
O7 O 0.1333(6) 0.8537(2) 0.3142(3)
H1 H 0.0594(36) 0.6442(25) -0.0148(23)
H2 H 0.0774(43) 0.8614(31) 0.1628(29)
H3 H 0.0622(52) 0.5524(31) 0.3192(29)
H4 H 0.192(5) 0.5092(34) 0.3684(36)
#END
