
#######################################################################
#
#                 Cambridge Crystallographic Data Centre
#                                CCDC
#
#######################################################################
#
# If this CIF has been generated from an entry in the Cambridge
# Structural Database, then it will include bibliographic, chemical,
# crystal, experimental, refinement or atomic coordinate data resulting
# from the CCDC's data processing and validation procedures.
#
#######################################################################

data_CSD_CIF_SAWDUP
_audit_creation_date 1990-02-14
_audit_creation_method CSD-ConQuest-V1
_database_code_CSD SAWDUP
_chemical_formula_sum 'C28 H20 N6 O5'
_chemical_formula_moiety
;
C28 H20 N6 O5
;
_journal_coden_Cambridge 423
_journal_volume 62
_journal_year 1989
_journal_page_first 523
_journal_name_full 'J.Chem.Res. '
loop_
_publ_author_name
"R.N.Butler"
"A.M.Gillan"
"J.P.James"
"P.McArdle"
"D.Cunningham"
_chemical_name_systematic
;
2-p-Nitroanilino-3-(2-p-nitrophenyl-1,2-dihydrophthalazin-1-yl)isoindolin-1-on
e
;
_chemical_melting_point 578.15
_cell_volume   1250.813
_exptl_special_details
;
Melting point range 578.15-579.15K

;
_diffrn_ambient_temperature ?
_diffrn_special_details
;
The study was carried out at room temperature,in the range 283-303K

;
#These two values have been output from a single CSD field.
_refine_ls_R_factor_gt 0.0958
_refine_ls_wR_factor_gt 0.0958
_symmetry_cell_setting triclinic
_symmetry_space_group_name_H-M 'P -1'
_symmetry_Int_Tables_number 2
loop_
_symmetry_equiv_pos_site_id
_symmetry_equiv_pos_as_xyz
1 x,y,z
2 -x,-y,-z
_cell_length_a 8.078(2)
_cell_length_b 10.966(3)
_cell_length_c 15.082(3)
_cell_angle_alpha 71.05(2)
_cell_angle_beta 82.41(2)
_cell_angle_gamma 84.72(2)
_cell_formula_units_Z 2
loop_
_atom_type_symbol
_atom_type_radius_bond
C 0.68
H 0.23
N 0.68
O 0.68
loop_
_atom_site_label
_atom_site_type_symbol
_atom_site_fract_x
_atom_site_fract_y
_atom_site_fract_z
O1 O -0.2498(14) 0.9422(11) 0.5757(3)
O2 O -0.3775(13) 0.7686(11) 0.6505(3)
O3 O 0.0060(12) 0.7745(11) 0.9915(3)
O4 O 0.0337(13) 0.6417(1) 1.1311(3)
N1 N 0.3486(9) 0.4016(7) 0.6493(5)
N2 N 0.3490(11) 0.5388(8) 0.6134(5)
N3 N 0.5192(12) 0.2212(9) 0.9551(5)
N4 N 0.4744(11) 0.3390(8) 0.8902(6)
N5 N -0.2557(20) 0.8286(16) 0.6133(10)
N6 N 0.0630(19) 0.6758(14) 1.0457(11)
O5 O 0.3734(9) 0.3577(6) 0.5089(5)
C1 C 0.3626(13) 0.3215(9) 0.5985(7)
C2 C 0.3553(12) 0.1902(8) 0.6631(6)
C3 C 0.3617(13) 0.0719(10) 0.6482(3)
C4 C 0.3441(14) -0.0364(11) 0.7249(8)
C5 C 0.3139(14) -0.02756(10) 0.8147(3)
C6 C 0.3041(13) 0.0905(9) 0.8316(7)
C7 C 0.3319(12) 0.1981(9) 0.7538(6)
C8 C 0.3424(12) 0.3360(8) 0.7511(6)
C9 C 0.5018(12) 0.3637(9) 0.7869(6)
C10 C 0.6560(13) 0.2883(9) 0.7605(7)
C11 C 0.7377(14) 0.3231(10) 0.6706(7)
C12 C 0.8691(15) 0.2410(11) 0.6480(9)
C13 C 0.9143(17) 0.1316(12) 0.7131(9)
C14 C 0.8390(15) 0.0966(12) 0.8020(9)
C15 C 0.7074(15) 0.1733(10) 0.8290(8)
C16 C 0.6236(15) 0.1507(12) 0.9231(8)
C17 C 0.3700(14) 0.4241(10) 0.9259(7)
C18 C 0.3037(14) 0.5396(10) 0.8694(8)
C19 C 0.2001(15) 0.6236(12) 0.9082(3)
C20 C 0.1725(17) 0.5864(12) 1.0058(9)
C21 C 0.2311(15) 0.4769(11) 1.0610(9)
C22 C 0.3331(14) 0.3902(11) 1.0258(8)
C23 C 0.1975(14) 0.6057(10) 0.6159(7)
C24 C 0.0479(14) 0.546(1) 0.6465(7)
C25 C -0.1004(15) 0.6217(10) 0.6486(7)
C26 C -0.0914(15) 0.7520(11) 0.6135(7)
C27 C 0.0552(14) 0.8128(11) 0.5877(7)
C28 C 0.2034(15) 0.7401(10) 0.5872(7)
H1 H 0.47900 0.51000 0.60200
H2 H 0.38000 0.06500 0.57800
H3 H 0.35400 -0.13000 0.71500
H4 H 0.29700 -0.11500 0.87400
H5 H 0.27600 0.09700 0.90200
H6 H 0.24200 0.36500 0.79600
H7 H 0.52500 0.46400 0.75200
H8 H 0.70200 0.41200 0.61800
H9 H 0.93400 0.26700 0.57800
H10 H 1.01400 0.07000 0.69400
H11 H 0.88100 0.00800 0.85300
H12 H 0.65600 0.05900 0.97300
H13 H 0.33200 0.56600 0.79400
H14 H 0.14500 0.71300 0.86400
H15 H 0.19900 0.45300 1.13600
H16 H 0.33300 0.30100 1.07200
H17 H 0.04600 0.44200 0.66800
H18 H -0.21900 0.57800 0.67400
H19 H 0.05500 0.91700 0.56400
H20 H 0.32100 0.78600 0.56500
#END
