
#######################################################################
#
#                 Cambridge Crystallographic Data Centre
#                                CCDC
#
#######################################################################
#
# If this CIF has been generated from an entry in the Cambridge
# Structural Database, then it will include bibliographic, chemical,
# crystal, experimental, refinement or atomic coordinate data resulting
# from the CCDC's data processing and validation procedures.
#
#######################################################################

data_CSD_CIF_SAWFUS
_audit_creation_date 2006-02-24
_audit_creation_method CSD-ConQuest-V1
_database_code_CSD SAWFUS
_database_code_depnum_ccdc_archive 'CCDC 238734'
_chemical_formula_sum 'C15 H12 N2 O4'
_chemical_formula_moiety
;
C15 H12 N2 O4
;
_journal_coden_Cambridge 1088
_journal_volume 2005
_journal_year 2005
_journal_page_first 2498
_journal_name_full 'Synlett '
loop_
_publ_author_name
"Haoxi Huang"
"Yuanhua Wang"
"Zhiyong Chen"
"W.H.Hu"
_chemical_name_systematic
;
Methyl (2E)-((4-nitrophenyl)imino)(phenyl)acetate
;
_chemical_melting_point 366.25
_cell_volume   1388.686
_exptl_crystal_colour 'yellow'
_exptl_crystal_density_diffrn 1.36
_exptl_special_details
;
Melting point range 366.25-367.25K

;
_exptl_crystal_preparation 'hexane/ethyl acetate'
_diffrn_ambient_temperature 290
#These two values have been output from a single CSD field.
_refine_ls_R_factor_gt 0.036
_refine_ls_wR_factor_gt 0.036
_symmetry_cell_setting monoclinic
_symmetry_space_group_name_H-M 'P 21/n'
_symmetry_Int_Tables_number 14
loop_
_symmetry_equiv_pos_site_id
_symmetry_equiv_pos_as_xyz
1 x,y,z
2 1/2-x,1/2+y,1/2-z
3 -x,-y,-z
4 -1/2+x,-1/2-y,-1/2+z
_cell_length_a 11.073(1)
_cell_length_b 7.647(1)
_cell_length_c 16.643(2)
_cell_angle_alpha 90
_cell_angle_beta 99.80(1)
_cell_angle_gamma 90
_cell_formula_units_Z 4
loop_
_atom_type_symbol
_atom_type_radius_bond
C 0.68
H 0.23
N 0.68
O 0.68
loop_
_atom_site_label
_atom_site_type_symbol
_atom_site_fract_x
_atom_site_fract_y
_atom_site_fract_z
O1 O 0.85464(10) 0.18006(16) 0.05854(7)
O2 O 0.78124(11) 0.41017(16) 0.11844(8)
O3 O 1.27068(11) 0.03615(18) 0.36829(9)
O4 O 1.29102(12) -0.1666(2) 0.28232(9)
N1 N 0.73036(11) 0.00180(17) 0.17643(8)
N2 N 1.22905(13) -0.0592(2) 0.31153(10)
C1 C 0.51912(14) 0.2569(2) 0.03077(10)
H1 H 0.57540 0.32260 0.00800
C2 C 0.39573(16) 0.2701(2) -0.00066(11)
H2 H 0.36910 0.34340 -0.04470
C3 C 0.31255(16) 0.1741(2) 0.03368(11)
H3 H 0.22940 0.18260 0.01260
C4 C 0.35140(15) 0.0654(2) 0.09895(11)
H4 H 0.29470 0.00100 0.12190
C5 C 0.47437(14) 0.0526(2) 0.13008(10)
H5 H 0.50040 -0.02000 0.17450
C6 C 0.55995(13) 0.14686(19) 0.09588(9)
C7 C 0.69195(13) 0.12625(19) 0.12785(9)
C8 C 0.77960(14) 0.2580(2) 0.10129(10)
C9 C 0.95062(17) 0.2888(3) 0.03570(13)
H6 H 0.91490 0.39150 0.00820
H7 H 0.99390 0.22440 0.00000
H8 H 1.00660 0.32240 0.08380
C10 C 0.85602(13) -0.0123(2) 0.21034(9)
C11 C 0.91046(14) 0.1065(2) 0.26781(10)
H9 H 0.86480 0.19840 0.28370
C12 C 1.03247(14) 0.0890(2) 0.30173(10)
H10 H 1.06910 0.16770 0.34110
C13 C 1.09896(13) -0.0452(2) 0.27698(9)
C14 C 1.04596(15) -0.1666(2) 0.22064(10)
H11 H 1.09250 -0.25710 0.20450
C15 C 0.92314(14) -0.1522(2) 0.18853(10)
H12 H 0.88540 -0.23610 0.15230
#END
