
#######################################################################
#
#                 Cambridge Crystallographic Data Centre
#                                CCDC
#
#######################################################################
#
# If this CIF has been generated from an entry in the Cambridge
# Structural Database, then it will include bibliographic, chemical,
# crystal, experimental, refinement or atomic coordinate data resulting
# from the CCDC's data processing and validation procedures.
#
#######################################################################

data_CSD_CIF_SAWFUT
_audit_creation_date 2012-07-19
_audit_creation_method CSD-ConQuest-V1
_database_code_CSD SAWFUT
_database_code_depnum_ccdc_archive 'CCDC 822440'
_chemical_formula_sum 'C15 H20 N2 O3'
_chemical_formula_moiety
;
C15 H20 N2 O3
;
_journal_coden_Cambridge 16
_journal_volume 68
_journal_year 2012
_journal_page_first 3117
_journal_name_full 'Tetrahedron '
loop_
_publ_author_name
"M.Buchlovic"
"S.Man"
"M.Potacek"
_chemical_name_systematic
;
5-Methoxy-6,6,7a-trimethyl-1-phenyltetrahydropyrrolo[1,2-b][1,2,4]oxadiazol-2(
1H)-one
;
_cell_volume    716.015
_exptl_crystal_density_diffrn 1.282
_diffrn_ambient_temperature 120
#These two values have been output from a single CSD field.
_refine_ls_R_factor_gt 0.037
_refine_ls_wR_factor_gt 0.037
_symmetry_cell_setting triclinic
_symmetry_space_group_name_H-M 'P -1'
_symmetry_Int_Tables_number 2
loop_
_symmetry_equiv_pos_site_id
_symmetry_equiv_pos_as_xyz
1 x,y,z
2 -x,-y,-z
_cell_length_a 8.1087(6)
_cell_length_b 9.4194(7)
_cell_length_c 9.7461(7)
_cell_angle_alpha 98.462(6)
_cell_angle_beta 102.921(6)
_cell_angle_gamma 91.843(6)
_cell_formula_units_Z 2
loop_
_atom_type_symbol
_atom_type_radius_bond
C 0.68
H 0.23
N 0.68
O 0.68
loop_
_atom_site_label
_atom_site_type_symbol
_atom_site_fract_x
_atom_site_fract_y
_atom_site_fract_z
N1 N 0.26312(15) 0.21625(13) 0.77607(12)
O1 O 0.31859(13) 0.26428(11) 0.93019(10)
C1 C 0.29984(18) 0.40950(16) 0.95726(15)
N2 N 0.21852(15) 0.45318(13) 0.83579(12)
C2 C 0.15434(19) 0.32912(16) 0.72180(15)
C3 C 0.1983(2) 0.34565(17) 0.57944(15)
H1 H 0.24730 0.44410 0.58300
H2 H 0.09560 0.32680 0.50050
C4 C 0.3284(2) 0.23421(16) 0.55793(15)
C5 C 0.41270(19) 0.22283(16) 0.71229(15)
H3 H 0.48880 0.31070 0.75820
O2 O 0.34798(13) 0.47687(11) 1.0761(1)
C6 C 0.17411(19) 0.59781(16) 0.83025(15)
C7 C 0.2797(2) 0.69320(17) 0.78937(16)
H4 H 0.38020 0.66190 0.76320
C8 C 0.2388(2) 0.83463(17) 0.78657(16)
H5 H 0.30970 0.89970 0.75610
C9 C 0.0945(2) 0.88109(17) 0.82830(16)
H6 H 0.06850 0.97880 0.82930
C10 C -0.0116(2) 0.78558(18) 0.86845(16)
H7 H -0.11100 0.81750 0.89620
C11 C 0.02650(19) 0.64348(17) 0.86837(15)
H8 H -0.04760 0.57730 0.89420
C12 C -0.0319(2) 0.29048(19) 0.71058(18)
H9 H -0.04950 0.28190 0.80530
H10 H -0.06630 0.19870 0.64690
H11 H -0.09990 0.36590 0.67230
C13 C 0.4558(2) 0.28474(19) 0.47923(17)
H12 H 0.53570 0.21040 0.46820
H13 H 0.51800 0.37360 0.53380
H14 H 0.39590 0.30280 0.38500
C14 C 0.2408(2) 0.08886(17) 0.47998(16)
H15 H 0.32670 0.02020 0.46780
H16 H 0.17270 0.10080 0.38630
H17 H 0.16700 0.05260 0.53600
O3 O 0.50291(13) 0.09912(11) 0.71923(10)
C15 C 0.6168(2) 0.09670(19) 0.85373(16)
H18 H 0.67490 0.00710 0.85020
H19 H 0.55290 0.10240 0.92840
H20 H 0.70060 0.17890 0.87480
#END
