
#######################################################################
#
#                 Cambridge Crystallographic Data Centre
#                                CCDC
#
#######################################################################
#
# If this CIF has been generated from an entry in the Cambridge
# Structural Database, then it will include bibliographic, chemical,
# crystal, experimental, refinement or atomic coordinate data resulting
# from the CCDC's data processing and validation procedures.
#
#######################################################################

data_CSD_CIF_SAWMOU
_audit_creation_date 2012-08-03
_audit_creation_method CSD-ConQuest-V1
_database_code_CSD SAWMOU
_database_code_depnum_ccdc_archive 'CCDC 820549'
_chemical_formula_sum 'C6 H8 N2 O2'
_chemical_formula_moiety
;
C6 H8 N2 O2
;
_journal_coden_Cambridge 24
_journal_volume 53
_journal_year 2012
_journal_page_first 1472
_journal_name_full 'Tetrahedron Lett. '
loop_
_publ_author_name
"E.B.Averina"
"Y.V.Samoilichenko"
"Y.A.Volkova"
"Y.K.Grishin"
"V.B.Rybakov"
"A.G.Kutateladze"
"M.E.Elyashberg"
"T.S.Kuznetsova"
"N.S.Zefirov"
_chemical_name_systematic
;
1-(5-Amino-1,2-oxazol-3-yl)propan-1-one
;
_cell_volume    676.610
_exptl_crystal_colour 'colorless'
_exptl_crystal_density_diffrn 1.376
_exptl_crystal_description 'prism'
_diffrn_ambient_temperature 295
#These two values have been output from a single CSD field.
_refine_ls_R_factor_gt 0.0328
_refine_ls_wR_factor_gt 0.0328
_symmetry_cell_setting monoclinic
_symmetry_space_group_name_H-M 'P 21/n'
_symmetry_Int_Tables_number 14
loop_
_symmetry_equiv_pos_site_id
_symmetry_equiv_pos_as_xyz
1 x,y,z
2 1/2-x,1/2+y,1/2-z
3 -x,-y,-z
4 -1/2+x,-1/2-y,-1/2+z
_cell_length_a 7.8092(17)
_cell_length_b 10.3885(19)
_cell_length_c 8.3766(18)
_cell_angle_alpha 90
_cell_angle_beta 95.34(2)
_cell_angle_gamma 90
_cell_formula_units_Z 4
loop_
_atom_type_symbol
_atom_type_radius_bond
C 0.68
H 0.23
N 0.68
O 0.68
loop_
_atom_site_label
_atom_site_type_symbol
_atom_site_fract_x
_atom_site_fract_y
_atom_site_fract_z
O1 O 0.0110(3) 0.7619(2) 0.3458(3)
N1 N 0.0201(4) 0.6944(3) 0.4909(4)
C1 C 0.1698(4) 0.6368(3) 0.4988(4)
C2 C 0.2327(5) 0.5575(3) 0.6433(4)
O2 O 0.3624(3) 0.4958(3) 0.6363(3)
C3 C 0.1394(4) 0.5672(3) 0.7873(4)
H1 H 0.02180 0.53880 0.76110
H2 H 0.13610 0.65670 0.81980
C4 C 0.2198(4) 0.4878(4) 0.9268(4)
H3 H 0.21230 0.39800 0.89960
H4 H 0.15960 0.50350 1.01970
H5 H 0.33840 0.51160 0.94930
C5 C 0.2613(4) 0.6613(3) 0.3655(4)
H6 H 0.36830 0.62930 0.34520
C6 C 0.1576(4) 0.7428(4) 0.2725(4)
N2 N 0.1677(4) 0.8010(4) 0.1332(4)
H7 H 0.269(3) 0.800(4) 0.082(4)
H8 H 0.085(4) 0.859(3) 0.088(4)
#END
