
#######################################################################
#
#                 Cambridge Crystallographic Data Centre
#                                CCDC
#
#######################################################################
#
# If this CIF has been generated from an entry in the Cambridge
# Structural Database, then it will include bibliographic, chemical,
# crystal, experimental, refinement or atomic coordinate data resulting
# from the CCDC's data processing and validation procedures.
#
#######################################################################

data_CSD_CIF_SAWNEL
_audit_creation_date 2012-08-03
_audit_creation_method CSD-ConQuest-V1
_database_code_CSD SAWNEL
_database_code_depnum_ccdc_archive 'CCDC 820552'
_chemical_formula_sum 'C11 H8 N2 O5'
_chemical_formula_moiety
;
C11 H8 N2 O5
;
_journal_coden_Cambridge 24
_journal_volume 53
_journal_year 2012
_journal_page_first 1472
_journal_name_full 'Tetrahedron Lett. '
loop_
_publ_author_name
"E.B.Averina"
"Y.V.Samoilichenko"
"Y.A.Volkova"
"Y.K.Grishin"
"V.B.Rybakov"
"A.G.Kutateladze"
"M.E.Elyashberg"
"T.S.Kuznetsova"
"N.S.Zefirov"
_chemical_name_systematic
;
Benzyl 5-nitro-1,2-oxazole-3-carboxylate
;
_cell_volume   2276.416
_exptl_crystal_colour 'colorless'
_exptl_crystal_density_diffrn 1.448
_exptl_crystal_description 'prism'
_diffrn_ambient_temperature 295
#These two values have been output from a single CSD field.
_refine_ls_R_factor_gt 0.0506
_refine_ls_wR_factor_gt 0.0506
_symmetry_cell_setting orthorhombic
_symmetry_space_group_name_H-M 'P b c a'
_symmetry_Int_Tables_number 61
loop_
_symmetry_equiv_pos_site_id
_symmetry_equiv_pos_as_xyz
1 x,y,z
2 1/2-x,-y,1/2+z
3 1/2+x,1/2-y,-z
4 -x,1/2+y,1/2-z
5 -x,-y,-z
6 -1/2+x,y,-1/2-z
7 -1/2-x,-1/2+y,z
8 x,-1/2-y,-1/2+z
_cell_length_a 8.144(2)
_cell_length_b 17.117(5)
_cell_length_c 16.330(5)
_cell_angle_alpha 90
_cell_angle_beta 90
_cell_angle_gamma 90
_cell_formula_units_Z 8
loop_
_atom_type_symbol
_atom_type_radius_bond
C 0.68
H 0.23
N 0.68
O 0.68
loop_
_atom_site_label
_atom_site_type_symbol
_atom_site_fract_x
_atom_site_fract_y
_atom_site_fract_z
O1 O 0.0674(4) 0.57470(16) 0.22386(19)
N1 N 0.1779(5) 0.5160(2) 0.2469(2)
C1 C 0.1671(5) 0.4645(2) 0.1879(3)
C2 C 0.0592(5) 0.4858(2) 0.1259(2)
H1 H 0.03370 0.45930 0.07790
C3 C 0.0026(6) 0.5529(3) 0.1524(3)
N2 N -0.1197(6) 0.6049(2) 0.1195(3)
O2 O -0.1743(4) 0.5874(2) 0.0520(2)
O3 O -0.1556(4) 0.66292(17) 0.15802(19)
C4 C 0.2670(6) 0.3931(3) 0.1979(3)
O4 O 0.3706(4) 0.38294(18) 0.2490(2)
O5 O 0.2254(4) 0.33819(17) 0.14438(17)
C5 C 0.3136(6) 0.2648(2) 0.1518(3)
H2 H 0.29310 0.24170 0.20500
H3 H 0.43080 0.27390 0.14650
C6 C 0.2566(7) 0.2114(3) 0.0863(3)
C7 C 0.1366(6) 0.1561(3) 0.1024(3)
H4 H 0.08670 0.15390 0.15360
C8 C 0.0921(7) 0.1044(3) 0.0416(5)
H5 H 0.01430 0.06600 0.05250
C9 C 0.1609(8) 0.1089(4) -0.0344(4)
H6 H 0.12900 0.07440 -0.07550
C10 C 0.2760(8) 0.1640(4) -0.0496(4)
H7 H 0.32360 0.16690 -0.10120
C11 C 0.3231(6) 0.2152(3) 0.0095(4)
H8 H 0.40130 0.25310 -0.00240
#END
