
#######################################################################
#
#                 Cambridge Crystallographic Data Centre
#                                CCDC
#
#######################################################################
#
# If this CIF has been generated from an entry in the Cambridge
# Structural Database, then it will include bibliographic, chemical,
# crystal, experimental, refinement or atomic coordinate data resulting
# from the CCDC's data processing and validation procedures.
#
#######################################################################

data_CSD_CIF_SAWNIP
_audit_creation_date 2012-08-03
_audit_creation_method CSD-ConQuest-V1
_database_code_CSD SAWNIP
_database_code_depnum_ccdc_archive 'CCDC 823614'
_chemical_formula_sum 'C6 H6 N2 O4'
_chemical_formula_moiety
;
C6 H6 N2 O4
;
_journal_coden_Cambridge 24
_journal_volume 53
_journal_year 2012
_journal_page_first 1472
_journal_name_full 'Tetrahedron Lett. '
loop_
_publ_author_name
"E.B.Averina"
"Y.V.Samoilichenko"
"Y.A.Volkova"
"Y.K.Grishin"
"V.B.Rybakov"
"A.G.Kutateladze"
"M.E.Elyashberg"
"T.S.Kuznetsova"
"N.S.Zefirov"
_chemical_name_systematic
;
1-(5-Nitro-1,2-oxazol-3-yl)propan-1-one
;
_cell_volume    756.638
_exptl_crystal_colour 'light yellow'
_exptl_crystal_density_diffrn 1.493
_exptl_crystal_description 'plate'
_diffrn_ambient_temperature 100
#These two values have been output from a single CSD field.
_refine_ls_R_factor_gt 0.0388
_refine_ls_wR_factor_gt 0.0388
_symmetry_cell_setting monoclinic
_symmetry_space_group_name_H-M 'P 21/c'
_symmetry_Int_Tables_number 14
loop_
_symmetry_equiv_pos_site_id
_symmetry_equiv_pos_as_xyz
1 x,y,z
2 -x,1/2+y,1/2-z
3 -x,-y,-z
4 x,-1/2-y,-1/2+z
_cell_length_a 9.8485(7)
_cell_length_b 14.8601(10)
_cell_length_c 5.1876(3)
_cell_angle_alpha 90
_cell_angle_beta 94.712(1)
_cell_angle_gamma 90
_cell_formula_units_Z 4
loop_
_atom_type_symbol
_atom_type_radius_bond
C 0.68
H 0.23
N 0.68
O 0.68
loop_
_atom_site_label
_atom_site_type_symbol
_atom_site_fract_x
_atom_site_fract_y
_atom_site_fract_z
O1 O -0.01678(7) 0.18415(5) 1.23756(13)
N1 N 0.10560(8) 0.17211(5) 1.12325(15)
C1 C 0.07591(9) 0.12152(6) 0.91768(17)
C2 C 0.18515(9) 0.09351(6) 0.74946(17)
O2 O 0.15918(8) 0.03299(5) 0.59633(14)
C3 C 0.31829(10) 0.14225(7) 0.78034(19)
H1 H 0.35920 0.13360 0.95940
H2 H 0.30140 0.20740 0.75470
C4 C 0.41871(12) 0.11139(10) 0.5941(2)
H3 H 0.44290 0.04830 0.62920
H4 H 0.50090 0.14870 0.61580
H5 H 0.37750 0.11710 0.41640
C5 C -0.06454(9) 0.09831(6) 0.88599(17)
H6 H -0.11170 0.06280 0.75520
C6 C -0.11291(9) 0.13973(6) 1.08950(17)
N2 N -0.24851(8) 0.14378(6) 1.17578(16)
O3 O -0.26498(8) 0.18822(5) 1.36971(16)
O4 O -0.33626(8) 0.10153(6) 1.04638(16)
#END
