
#######################################################################
#
#                 Cambridge Crystallographic Data Centre
#                                CCDC
#
#######################################################################
#
# If this CIF has been generated from an entry in the Cambridge
# Structural Database, then it will include bibliographic, chemical,
# crystal, experimental, refinement or atomic coordinate data resulting
# from the CCDC's data processing and validation procedures.
#
#######################################################################

data_CSD_CIF_SAWVAO
_audit_creation_date 2006-02-24
_audit_creation_method CSD-ConQuest-V1
_database_code_CSD SAWVAO
_database_code_depnum_ccdc_archive 'CCDC 283656'
_chemical_formula_sum 'C16 H13 N1 O4'
_chemical_formula_moiety
;
C16 H13 N1 O4
;
_journal_coden_Cambridge 1078
_journal_year 2005
_journal_name_full 'CSD Communication(Private Communication) '
loop_
_publ_author_name
"W.Clegg"
_chemical_name_systematic
;
6-Methoxy-2-(2-methoxyphenyl)-1-oxy-3H-indol-3-one
;
_chemical_name_common
;
6-Methoxy-2-(2-methoxyphenyl)isatogen
;
_cell_volume    658.889
_exptl_crystal_colour 'orange-red'
_exptl_crystal_density_diffrn 1.428
_exptl_special_details
;
contribution from School of Natural Sciences (Chemistry), University of 
Newcastle, Newcastle upon Tyne NE1 7RU, UK
;
_exptl_crystal_description 'block'
_diffrn_ambient_temperature 160
#These two values have been output from a single CSD field.
_refine_ls_R_factor_gt 0.0242
_refine_ls_wR_factor_gt 0.0242
_symmetry_cell_setting monoclinic
_symmetry_space_group_name_H-M 'P 21'
_symmetry_Int_Tables_number 4
loop_
_symmetry_equiv_pos_site_id
_symmetry_equiv_pos_as_xyz
1 x,y,z
2 -x,1/2+y,-z
_cell_length_a 7.200(2)
_cell_length_b 10.968(4)
_cell_length_c 8.361(3)
_cell_angle_alpha 90
_cell_angle_beta 93.70(3)
_cell_angle_gamma 90
_cell_formula_units_Z 2
loop_
_atom_type_symbol
_atom_type_radius_bond
C 0.68
H 0.23
N 0.68
O 0.68
loop_
_atom_site_label
_atom_site_type_symbol
_atom_site_fract_x
_atom_site_fract_y
_atom_site_fract_z
N1 N 0.6462(2) 0.46466(15) 0.71225(18)
O1 O 0.52807(19) 0.50427(14) 0.60549(15)
C1 C 0.8150(3) 0.50732(19) 0.7552(2)
C2 C 0.9036(3) 0.42196(19) 0.8761(2)
O2 O 1.06086(19) 0.43176(15) 0.93809(17)
C3 C 0.7678(3) 0.21978(19) 0.9903(2)
H1 H 0.87330 0.19890 1.05900
C4 C 0.6125(3) 0.14565(19) 0.9788(2)
H2 H 0.61140 0.07310 1.04070
C5 C 0.4567(3) 0.1753(2) 0.8779(2)
C6 C 0.4532(3) 0.28175(19) 0.7833(2)
H3 H 0.34930 0.30300 0.71310
C7 C 0.6105(3) 0.35245(18) 0.7999(2)
C8 C 0.7661(3) 0.32547(19) 0.8989(2)
C9 C 0.9035(3) 0.61271(19) 0.6865(2)
C10 C 0.8189(3) 0.72856(19) 0.6799(2)
C11 C 0.9141(3) 0.82653(19) 0.6179(2)
H4 H 0.85700 0.90460 0.61060
C12 C 1.0921(3) 0.8106(2) 0.5667(2)
H5 H 1.15590 0.87830 0.52530
C13 C 1.1781(3) 0.6976(2) 0.5749(2)
H6 H 1.29990 0.68750 0.53950
C14 C 1.0837(3) 0.5997(2) 0.6356(2)
H7 H 1.14250 0.52220 0.64280
O3 O 0.31356(19) 0.09539(13) 0.87782(16)
C15 C 0.1557(3) 0.1171(2) 0.7700(3)
H8 H 0.06270 0.05330 0.78300
H9 H 0.19400 0.11630 0.65960
H10 H 0.10200 0.19680 0.79310
O4 O 0.65020(19) 0.73731(13) 0.74136(18)
C16 C 0.5758(3) 0.8574(2) 0.7595(3)
H11 H 0.45820 0.85220 0.81200
H12 H 0.55360 0.89520 0.65380
H13 H 0.66470 0.90690 0.82510
#END
