
#######################################################################
#
#                 Cambridge Crystallographic Data Centre
#                                CCDC
#
#######################################################################
#
# If this CIF has been generated from an entry in the Cambridge
# Structural Database, then it will include bibliographic, chemical,
# crystal, experimental, refinement or atomic coordinate data resulting
# from the CCDC's data processing and validation procedures.
#
#######################################################################

data_CSD_CIF_SAWXEU
_audit_creation_date 2006-02-24
_audit_creation_method CSD-ConQuest-V1
_database_code_CSD SAWXEU
_database_code_depnum_ccdc_archive 'CCDC 284708'
_chemical_formula_sum 'C13 H8 N2 O2'
_chemical_formula_moiety
;
C13 H8 N2 O2
;
_journal_coden_Cambridge 1078
_journal_year 2005
_journal_name_full 'CSD Communication(Private Communication) '
loop_
_publ_author_name
"W.Clegg"
_chemical_name_systematic
;
1-Oxy-2-(pyrid-3-yl)-3H-indol-3-one
;
_chemical_name_common
;
2-(Pyrid-3-yl)isatogen
;
_cell_volume   2098.565
_exptl_crystal_colour 'orange'
_exptl_crystal_density_diffrn 1.419
_exptl_special_details
;
contribution from School of Natural Sciences (Chemistry), University of 
Newcastle, Newcastle upon Tyne NE1 7RU, UK
;
_exptl_crystal_description 'block'
_diffrn_ambient_temperature 295
_refine_special_details
;
The NO and CO groups are disordered in the ratio 0.70:0.30.

;
#These two values have been output from a single CSD field.
_refine_ls_R_factor_gt 0.0458
_refine_ls_wR_factor_gt 0.0458
_symmetry_cell_setting orthorhombic
_symmetry_space_group_name_H-M 'P b c a'
_symmetry_Int_Tables_number 61
loop_
_symmetry_equiv_pos_site_id
_symmetry_equiv_pos_as_xyz
1 x,y,z
2 1/2+x,1/2-y,-z
3 -x,1/2+y,1/2-z
4 1/2-x,-y,1/2+z
5 -x,-y,-z
6 -1/2-x,-1/2+y,z
7 x,-1/2-y,-1/2+z
8 -1/2+x,y,-1/2-z
_cell_length_a 23.0934(9)
_cell_length_b 11.5150(8)
_cell_length_c 7.8917(5)
_cell_angle_alpha 90
_cell_angle_beta 90
_cell_angle_gamma 90
_cell_formula_units_Z 8
loop_
_atom_type_symbol
_atom_type_radius_bond
C 0.68
H 0.23
N 0.68
O 0.68
loop_
_atom_site_label
_atom_site_type_symbol
_atom_site_fract_x
_atom_site_fract_y
_atom_site_fract_z
N1 N 0.43695(8) 0.68170(13) 0.9410(2)
C1? C 0.43695(8) 0.68170(13) 0.9410(2)
O1 O 0.43237(8) 0.76701(13) 1.0402(2)
C2 C 0.39383(9) 0.61453(15) 0.8754(2)
C3 C 0.42180(9) 0.52713(15) 0.7722(2)
N2? N 0.42180(9) 0.52713(15) 0.7722(2)
O2 O 0.39818(7) 0.44964(13) 0.6901(2)
C4 C 0.53065(11) 0.49005(18) 0.7087(3)
H1 H 0.52510 0.42610 0.63860
C5 C 0.58579(11) 0.5316(2) 0.7442(3)
H2 H 0.61790 0.49450 0.69810
C6 C 0.59349(11) 0.6268(2) 0.8463(3)
H3 H 0.63080 0.65350 0.86690
C7 C 0.54688(10) 0.6844(2) 0.9200(3)
H4 H 0.55200 0.74850 0.99020
C8 C 0.49342(9) 0.64158(16) 0.8837(2)
C9 C 0.48480(9) 0.54670(15) 0.7809(2)
C10 C 0.33254(10) 0.63001(17) 0.9073(2)
C11 C 0.31044(12) 0.7302(2) 0.9811(4)
H5 H 0.33500 0.79080 1.01090
C12 C 0.25195(14) 0.7389(3) 1.0097(4)
H6 H 0.23650 0.80530 1.05940
C13 C 0.21674(13) 0.6489(3) 0.9642(4)
H7 H 0.17740 0.65490 0.98740
N3 N 0.23572(10) 0.5543(2) 0.8892(4)
C14 C 0.29264(12) 0.5461(2) 0.8615(4)
H8 H 0.30630 0.47960 0.80790
#END
