
#######################################################################
#
#                 Cambridge Crystallographic Data Centre
#                                CCDC
#
#######################################################################
#
# If this CIF has been generated from an entry in the Cambridge
# Structural Database, then it will include bibliographic, chemical,
# crystal, experimental, refinement or atomic coordinate data resulting
# from the CCDC's data processing and validation procedures.
#
#######################################################################

data_CSD_CIF_SAXBUR
_audit_creation_date 2017-06-29
_audit_creation_method CSD-ConQuest-V1
_database_code_CSD SAXBUR
_database_code_depnum_ccdc_archive 'CCDC 1516780'
_chemical_formula_sum 'C15 H10 N2 O3'
_chemical_formula_moiety
;
C15 H10 N2 O3
;
_journal_coden_Cambridge 1078
_journal_year 2017
_journal_name_full 'CSD Communication(Private Communication) '
loop_
_publ_author_name
"E.B.Averina"
"D.A.Vasilenko"
"V.B.Rybakov"
"T.S.Kuznetsova"
"N.S.Zefirov"
_chemical_name_systematic
;
4-nitro-3,5-diphenyl-1,2-oxazole
;
_chemical_name_common
;
4-nitro-3,5-diphenylisoxazole
;
_cell_volume   1235.779
_exptl_crystal_colour 'colorless'
_exptl_crystal_density_diffrn 1.431
_exptl_special_details
;
petroleum ether---ethyl acetate

;
_exptl_crystal_description 'prism'
_diffrn_ambient_temperature 295
#These two values have been output from a single CSD field.
_refine_ls_R_factor_gt 0.0432
_refine_ls_wR_factor_gt 0.0432
_symmetry_cell_setting monoclinic
_symmetry_space_group_name_H-M 'C 2'
_symmetry_Int_Tables_number 5
loop_
_symmetry_equiv_pos_site_id
_symmetry_equiv_pos_as_xyz
1 x,y,z
2 -x,y,-z
3 1/2+x,1/2+y,z
4 1/2-x,1/2+y,-z
_cell_length_a 18.6157(13)
_cell_length_b 5.7807(3)
_cell_length_c 11.6531(8)
_cell_angle_alpha 90
_cell_angle_beta 99.782(6)
_cell_angle_gamma 90
_cell_formula_units_Z 4
loop_
_atom_type_symbol
_atom_type_radius_bond
C 0.68
H 0.23
N 0.68
O 0.68
loop_
_atom_site_label
_atom_site_type_symbol
_atom_site_fract_x
_atom_site_fract_y
_atom_site_fract_z
O1 O 0.17724(14) 0.5797(5) -0.0053(2)
O2 O 0.15185(14) 1.1698(5) 0.2328(2)
O3 O 0.07692(16) 1.1857(5) 0.0669(2)
N1 N 0.22798(14) 0.5751(6) 0.1024(2)
N2 N 0.12768(16) 1.0999(5) 0.1344(3)
C1 C 0.21733(18) 0.7662(7) 0.1605(3)
C2 C 0.16166(18) 0.8925(6) 0.0966(3)
C3 C 0.13562(6) 0.7871(2) 0.00092(9)
C4 C 0.26314(6) 0.7992(2) 0.27594(9)
C5 C 0.30852(6) 0.9908(2) 0.29776(9)
H1 H 0.30740 1.10570 0.24160
C6 C 0.35557(6) 1.0108(2) 0.40354(9)
H2 H 0.38590 1.13900 0.41810
C7 C 0.35724(6) 0.8391(2) 0.48750(9)
H3 H 0.38870 0.85240 0.55830
C8 C 0.31185(6) 0.6474(2) 0.46568(9)
H4 H 0.31300 0.53250 0.52180
C9 C 0.26480(6) 0.6275(2) 0.35990(9)
H5 H 0.23440 0.49930 0.34530
C10 C 0.08172(6) 0.8041(2) -0.11141(9)
C11 C 0.03061(6) 0.6304(2) -0.14352(9)
H6 H 0.03060 0.49930 -0.09730
C12 C -0.02049(6) 0.6527(2) -0.24481(9)
H7 H -0.05470 0.53650 -0.26630
C13 C -0.02047(6) 0.8486(2) -0.31398(9)
H8 H -0.05470 0.86350 -0.38170
C14 C 0.03064(6) 1.0224(2) -0.28187(9)
H9 H 0.03070 1.15340 -0.32810
C15 C 0.08174(6) 1.0001(2) -0.18059(9)
H10 H 0.11590 1.11630 -0.15910
#END
