
#######################################################################
#
#                 Cambridge Crystallographic Data Centre
#                                CCDC
#
#######################################################################
#
# If this CIF has been generated from an entry in the Cambridge
# Structural Database, then it will include bibliographic, chemical,
# crystal, experimental, refinement or atomic coordinate data resulting
# from the CCDC's data processing and validation procedures.
#
#######################################################################

data_CSD_CIF_SAXHUX
_audit_creation_date 2017-06-29
_audit_creation_method CSD-ConQuest-V1
_database_code_CSD SAXHUX
_database_code_depnum_ccdc_archive 'CCDC 1521296'
_chemical_formula_sum 'C13 H12 N4 O2'
_chemical_formula_moiety
;
C13 H12 N4 O2
;
_journal_coden_Cambridge 1094
_journal_volume 28
_journal_year 2017
_journal_page_first 1229
_journal_name_full 'Struct.Chem. '
loop_
_publ_author_name
"M.Lukomska-Rogala"
"A.J.Rybarczyk-Pirek"
"K.Ejsmont"
"M.Jasinski"
"M.Palusiak"
_chemical_name_systematic
;
N-(4-cyanophenyl)-1,5-dimethyl-3-oxo-1H-imidazole-4-carboxamide
;
_cell_volume   1193.284
_exptl_crystal_colour 'yellow'
_exptl_crystal_density_diffrn 1.426
_exptl_crystal_description 'plate'
_diffrn_ambient_temperature 100
#These two values have been output from a single CSD field.
_refine_ls_R_factor_gt 0.031
_refine_ls_wR_factor_gt 0.031
_symmetry_cell_setting monoclinic
_symmetry_space_group_name_H-M 'P 21/c'
_symmetry_Int_Tables_number 14
loop_
_symmetry_equiv_pos_site_id
_symmetry_equiv_pos_as_xyz
1 x,y,z
2 -x,1/2+y,1/2-z
3 -x,-y,-z
4 x,-1/2-y,-1/2+z
_cell_length_a 9.6748(2)
_cell_length_b 9.6231(2)
_cell_length_c 12.8210(3)
_cell_angle_alpha 90
_cell_angle_beta 91.428(2)
_cell_angle_gamma 90
_cell_formula_units_Z 4
loop_
_atom_type_symbol
_atom_type_radius_bond
C 0.68
H 0.23
N 0.68
O 0.68
loop_
_atom_site_label
_atom_site_type_symbol
_atom_site_fract_x
_atom_site_fract_y
_atom_site_fract_z
O1 O 0.62863(9) 0.07865(9) 0.64413(6)
O2 O 0.82152(8) -0.03519(9) 0.36211(6)
N1 N 0.6431(1) 0.11647(10) 0.46741(7)
C1 C 0.67974(12) 0.05426(12) 0.55961(8)
N2 N 0.85353(9) -0.08558(9) 0.45709(7)
N3 N 0.95148(10) -0.20573(10) 0.58157(7)
C2 C 0.36237(11) 0.37264(12) 0.50559(8)
H1 H 0.30370 0.40600 0.55840
N4 N 0.17479(11) 0.62521(11) 0.36932(8)
C3 C 0.25385(12) 0.53765(12) 0.38415(9)
C4 C 0.35174(11) 0.42864(12) 0.40576(9)
C5 C 0.53360(12) 0.27811(12) 0.35102(8)
H2 H 0.59300 0.24600 0.29830
C6 C 0.43847(12) 0.38042(12) 0.32783(9)
H3 H 0.43170 0.41810 0.25940
C7 C 0.54416(11) 0.22072(12) 0.45104(8)
C8 C 0.45702(12) 0.26924(12) 0.52896(8)
H4 H 0.46310 0.23120 0.59730
C9 C 0.94999(12) -0.17986(12) 0.47765(9)
H5 H 1.00810 -0.22210 0.42810
C10 C 0.79108(12) -0.04874(12) 0.55040(8)
C11 C 0.85439(11) -0.12568(11) 0.62824(9)
C12 C 1.04827(13) -0.29927(13) 0.63641(9)
H6 H 1.11100 -0.24480 0.68150
H7 H 1.10200 -0.35080 0.58540
H8 H 0.99650 -0.36480 0.67900
C13 C 0.83276(13) -0.13034(13) 0.74250(8)
H9 H 0.91850 -0.10400 0.77970
H10 H 0.80640 -0.22470 0.76280
H11 H 0.75910 -0.06540 0.76040
H12 H 0.6916(14) 0.0836(14) 0.4130(11)
#END
