
#######################################################################
#
#                 Cambridge Crystallographic Data Centre
#                                CCDC
#
#######################################################################
#
# If this CIF has been generated from an entry in the Cambridge
# Structural Database, then it will include bibliographic, chemical,
# crystal, experimental, refinement or atomic coordinate data resulting
# from the CCDC's data processing and validation procedures.
#
#######################################################################

data_CSD_CIF_SAYVEV
_audit_creation_date 2012-06-01
_audit_creation_method CSD-ConQuest-V1
_database_code_CSD SAYVEV
_database_code_depnum_ccdc_archive 'CCDC 869480'
_chemical_formula_sum 'C22 H20 N2 O4'
_chemical_formula_moiety
;
C22 H20 N2 O4
;
_journal_coden_Cambridge 182
_journal_volume 48
_journal_year 2012
_journal_page_first 4893
_journal_name_full 'Chem.Commun. '
loop_
_publ_author_name
"P.R.Girling"
"A.S.Batsanov"
"H.C.Shen"
"A.Whiting"
_chemical_name_systematic
;
1,1'-(1-Benzyl-4-(4-nitrophenyl)-1,4-dihydropyridine-3,5-diyl)diethanone
;
_chemical_melting_point 457.7
_cell_volume   3629.284
_exptl_crystal_colour 'light yellow'
_exptl_crystal_density_diffrn 1.378
_exptl_special_details
;
polymorph I

;
_exptl_crystal_description 'blade'
_diffrn_ambient_temperature 120
#These two values have been output from a single CSD field.
_refine_ls_R_factor_gt 0.0413
_refine_ls_wR_factor_gt 0.0413
_symmetry_cell_setting monoclinic
_symmetry_space_group_name_H-M 'C 2/c'
_symmetry_Int_Tables_number 15
loop_
_symmetry_equiv_pos_site_id
_symmetry_equiv_pos_as_xyz
1 x,y,z
2 -x,y,1/2-z
3 1/2+x,1/2+y,z
4 1/2-x,1/2+y,1/2-z
5 -x,-y,-z
6 x,-y,-1/2+z
7 -1/2-x,-1/2-y,-z
8 -1/2+x,-1/2-y,-1/2+z
_cell_length_a 12.4631(6)
_cell_length_b 11.0700(5)
_cell_length_c 26.6746(12)
_cell_angle_alpha 90
_cell_angle_beta 99.542(7)
_cell_angle_gamma 90
_cell_formula_units_Z 8
loop_
_atom_type_symbol
_atom_type_radius_bond
C 0.68
H 0.23
N 0.68
O 0.68
loop_
_atom_site_label
_atom_site_type_symbol
_atom_site_fract_x
_atom_site_fract_y
_atom_site_fract_z
O1 O 0.52556(7) 0.85770(8) 0.15981(4)
O2 O 0.20944(7) 0.71730(7) 0.24057(3)
O3 O 0.07826(8) 0.92277(9) -0.01962(3)
O4 O 0.05834(7) 0.73271(9) -0.03836(3)
N1 N 0.45053(8) 0.44403(8) 0.18088(4)
N2 N 0.09369(8) 0.81525(10) -0.00953(4)
C1 C 0.48622(10) 0.31877(10) 0.17698(4)
H1 H 0.45900 0.27010 0.20340
H2 H 0.56670 0.31650 0.18420
C2 C 0.50935(9) 0.53772(11) 0.16459(4)
H3 H 0.57500 0.51920 0.15250
C3 C 0.47801(9) 0.65415(10) 0.16504(4)
C4 C 0.36839(8) 0.68875(9) 0.17893(4)
H4 H 0.37870 0.76030 0.20210
C5 C 0.32447(9) 0.58473(9) 0.20647(4)
C6 C 0.36253(9) 0.47065(10) 0.20385(4)
H5 H 0.32710 0.40680 0.21840
C7 C 0.54872(9) 0.75230(11) 0.15228(4)
C8 C 0.64983(10) 0.72309(13) 0.12995(5)
H6 H 0.68110 0.79800 0.11910
H7 H 0.63060 0.66950 0.10060
H8 H 0.70320 0.68300 0.15570
C9 C 0.23686(9) 0.61167(10) 0.23526(4)
C10 C 0.17839(10) 0.51044(11) 0.25741(5)
H9 H 0.13490 0.54380 0.28160
H10 H 0.23180 0.45330 0.27500
H11 H 0.13050 0.46860 0.23000
C11 C 0.44826(9) 0.26093(10) 0.12575(4)
C12 C 0.45818(10) 0.13584(10) 0.12143(5)
H12 H 0.48650 0.08940 0.15060
C13 C 0.42705(10) 0.07886(11) 0.07498(5)
H13 H 0.43400 -0.00630 0.07240
C14 C 0.38579(10) 0.14647(12) 0.03235(5)
H14 H 0.36380 0.10760 0.00060
C15 C 0.37665(10) 0.27095(11) 0.03615(5)
H15 H 0.34900 0.31720 0.00690
C16 C 0.40779(9) 0.32822(10) 0.08268(4)
H16 H 0.40140 0.41350 0.08510
C17 C 0.28977(8) 0.72312(9) 0.13074(4)
C18 C 0.23893(9) 0.63361(10) 0.09832(4)
H17 H 0.24890 0.55110 0.10780
C19 C 0.17411(9) 0.66313(10) 0.05246(4)
H18 H 0.14060 0.60180 0.03030
C20 C 0.15946(8) 0.78378(10) 0.03978(4)
C21 C 0.20593(9) 0.8755(1) 0.07145(4)
H19 H 0.19320 0.95790 0.06240
C22 C 0.27162(9) 0.84403(10) 0.11688(4)
H20 H 0.30470 0.90580 0.13890
#END
