
#######################################################################
#
#                 Cambridge Crystallographic Data Centre
#                                CCDC
#
#######################################################################
#
# If this CIF has been generated from an entry in the Cambridge
# Structural Database, then it will include bibliographic, chemical,
# crystal, experimental, refinement or atomic coordinate data resulting
# from the CCDC's data processing and validation procedures.
#
#######################################################################

data_CSD_CIF_SAYWAS
_audit_creation_date 2012-06-01
_audit_creation_method CSD-ConQuest-V1
_database_code_CSD SAYWAS
_database_code_depnum_ccdc_archive 'CCDC 869484'
_chemical_formula_sum 'C21 H18 N2 O4'
_chemical_formula_moiety
;
C21 H18 N2 O4
;
_journal_coden_Cambridge 182
_journal_volume 48
_journal_year 2012
_journal_page_first 4893
_journal_name_full 'Chem.Commun. '
loop_
_publ_author_name
"P.R.Girling"
"A.S.Batsanov"
"H.C.Shen"
"A.Whiting"
_chemical_name_systematic
;
1,1'-(4-(4-Nitrophenyl)-1-phenyl-1,4-dihydropyridine-3,5-diyl)diethanone
;
_chemical_melting_point 490.7
_cell_volume    875.722
_exptl_crystal_colour 'yellow'
_exptl_crystal_density_diffrn 1.374
_exptl_crystal_description 'block'
_diffrn_ambient_temperature 120
#These two values have been output from a single CSD field.
_refine_ls_R_factor_gt 0.0433
_refine_ls_wR_factor_gt 0.0433
_symmetry_cell_setting triclinic
_symmetry_space_group_name_H-M 'P -1'
_symmetry_Int_Tables_number 2
loop_
_symmetry_equiv_pos_site_id
_symmetry_equiv_pos_as_xyz
1 x,y,z
2 -x,-y,-z
_cell_length_a 8.7082(6)
_cell_length_b 10.1835(5)
_cell_length_c 11.0221(8)
_cell_angle_alpha 100.666(5)
_cell_angle_beta 110.831(6)
_cell_angle_gamma 97.843(5)
_cell_formula_units_Z 2
loop_
_atom_type_symbol
_atom_type_radius_bond
C 0.68
H 0.23
N 0.68
O 0.68
loop_
_atom_site_label
_atom_site_type_symbol
_atom_site_fract_x
_atom_site_fract_y
_atom_site_fract_z
O1 O -0.21993(10) 0.62625(9) 0.05998(9)
O2 O 0.28329(11) 0.89269(9) 0.01918(9)
O3 O 0.02725(13) 1.2983(1) 0.42371(11)
O4 O 0.16388(13) 1.22826(10) 0.59682(10)
N1 N 0.32403(12) 0.53927(10) 0.24433(10)
N2 N 0.09641(13) 1.2133(1) 0.47522(11)
C1 C 0.15395(14) 0.51809(11) 0.21897(11)
H1 H 0.10480 0.44240 0.24220
C2 C 0.05442(14) 0.59894(11) 0.16321(11)
C3 C 0.12363(13) 0.72634(11) 0.12949(11)
H2 H 0.05380 0.72260 0.03410
C4 C 0.30416(14) 0.72960(11) 0.14353(11)
C5 C 0.39249(14) 0.64217(11) 0.20010(11)
H3 H 0.50670 0.65170 0.21000
C6 C -0.12855(14) 0.56451(11) 0.12937(11)
C7 C -0.19979(15) 0.45489(13) 0.18170(12)
H4 H -0.15610 0.48400 0.27980
H5 H -0.16670 0.36960 0.15440
H6 H -0.32290 0.43960 0.14490
C8 C 0.37580(14) 0.82886(11) 0.08573(11)
C9 C 0.55939(15) 0.85129(13) 0.10756(14)
H7 H 0.58000 0.76920 0.05900
H8 H 0.62840 0.86950 0.20360
H9 H 0.58910 0.92970 0.07420
C10 C 0.41590(14) 0.43794(12) 0.28544(11)
C11 C 0.34430(16) 0.29996(13) 0.22275(12)
H10 H 0.23360 0.27260 0.15500
C12 C 0.43636(19) 0.20259(14) 0.26025(14)
H11 H 0.38770 0.10800 0.21910
C13 C 0.59882(18) 0.24290(14) 0.35739(13)
H12 H 0.66280 0.17620 0.38030
C14 C 0.66835(16) 0.38042(14) 0.42139(12)
H13 H 0.77900 0.40750 0.48920
C15 C 0.57655(14) 0.47849(13) 0.38651(12)
H14 H 0.62310 0.57260 0.43130
C16 C 0.11351(14) 0.85577(11) 0.21921(11)
C17 C 0.21641(16) 0.89260(13) 0.35567(12)
H15 H 0.29160 0.83700 0.39100
C18 C 0.21054(16) 1.00922(13) 0.44060(12)
H16 H 0.28000 1.03380 0.53360
C19 C 0.10079(14) 1.08858(11) 0.38586(12)
C20 C -0.00213(14) 1.05635(12) 0.25099(12)
H17 H -0.07540 1.11340 0.21590
C21 C 0.00442(14) 0.93824(12) 0.16814(12)
H18 H -0.06650 0.91350 0.07540
#END
