
#######################################################################
#
#                 Cambridge Crystallographic Data Centre
#                                CCDC
#
#######################################################################
#
# If this CIF has been generated from an entry in the Cambridge
# Structural Database, then it will include bibliographic, chemical,
# crystal, experimental, refinement or atomic coordinate data resulting
# from the CCDC's data processing and validation procedures.
#
#######################################################################

data_CSD_CIF_SAZGUX
_audit_creation_date 2012-05-31
_audit_creation_method CSD-ConQuest-V1
_database_code_CSD SAZGUX
_database_code_depnum_ccdc_archive 'CCDC 870478'
_chemical_formula_sum 'C13 H13 N1 O4'
_chemical_formula_moiety
;
C13 H13 N1 O4
;
_journal_coden_Cambridge 182
_journal_volume 48
_journal_year 2012
_journal_page_first 5193
_journal_name_full 'Chem.Commun. '
loop_
_publ_author_name
"M.S.Manna"
"V.Kumar"
"S.Mukherjee"
_chemical_name_systematic
;
5-Methyl-5-(2-nitro-1-phenylethyl)furan-2(5H)-one
;
_cell_volume   1269.001
_exptl_crystal_colour 'colorless'
_exptl_crystal_density_diffrn 1.294
_exptl_crystal_description 'block'
_diffrn_ambient_temperature 296.1
#These two values have been output from a single CSD field.
_refine_ls_R_factor_gt 0.0416
_refine_ls_wR_factor_gt 0.0416
_symmetry_cell_setting monoclinic
_symmetry_space_group_name_H-M 'C 2'
_symmetry_Int_Tables_number 5
loop_
_symmetry_equiv_pos_site_id
_symmetry_equiv_pos_as_xyz
1 x,y,z
2 -x,y,-z
3 1/2+x,1/2+y,z
4 1/2-x,1/2+y,-z
_cell_length_a 14.8379(12)
_cell_length_b 6.4738(6)
_cell_length_c 13.3730(11)
_cell_angle_alpha 90
_cell_angle_beta 98.932(6)
_cell_angle_gamma 90
_cell_formula_units_Z 4
loop_
_atom_type_symbol
_atom_type_radius_bond
C 0.68
H 0.23
N 0.68
O 0.68
loop_
_atom_site_label
_atom_site_type_symbol
_atom_site_fract_x
_atom_site_fract_y
_atom_site_fract_z
O1 O -0.3489(2) -1.3055(4) -0.2549(2)
O2 O -0.29514(14) -1.0275(3) -0.16645(17)
C1 C -0.4049(2) -0.9651(5) -0.3020(3)
O3 O -0.0696(3) -0.4329(8) -0.1267(3)
C2 C -0.3080(2) -0.8044(5) -0.1750(2)
C3 C -0.3509(2) -1.1209(6) -0.2437(3)
C4 C -0.2164(2) -0.7049(5) -0.1907(2)
H1 H -0.22670 -0.55540 -0.19470
C5 C -0.1843(2) -0.7682(5) -0.2883(2)
C6 C -0.1923(3) -0.6285(7) -0.3675(3)
H2 H -0.21800 -0.49960 -0.35960
C7 C -0.1633(3) -0.6754(10) -0.4572(3)
H3 H -0.17110 -0.58060 -0.51010
C8 C -0.1235(3) -0.8594(11) -0.4687(4)
H4 H -0.10190 -0.88880 -0.52880
C9 C -0.3796(2) -0.7843(5) -0.2651(2)
H5 H -0.40330 -0.65940 -0.29160
C10 C -0.1436(2) -0.7421(7) -0.1004(3)
H6 H -0.16550 -0.69970 -0.03880
H7 H -0.12870 -0.88800 -0.09500
N1 N -0.0598(3) -0.6193(9) -0.1135(2)
O4 O 0.0104(2) -0.7087(8) -0.1105(2)
C11 C -0.1146(3) -1.0039(9) -0.3923(4)
H8 H -0.08840 -1.13190 -0.40130
C12 C -0.1449(3) -0.9572(7) -0.3013(3)
H9 H -0.13860 -1.05380 -0.24920
C13 C -0.3419(2) -0.7242(6) -0.0807(3)
H10 H -0.40010 -0.78460 -0.07590
H11 H -0.34780 -0.57670 -0.08470
H12 H -0.29910 -0.76080 -0.02200
H13 H -0.451(3) -0.998(6) -0.358(3)
#END
