
#######################################################################
#
#                 Cambridge Crystallographic Data Centre
#                                CCDC
#
#######################################################################
#
# If this CIF has been generated from an entry in the Cambridge
# Structural Database, then it will include bibliographic, chemical,
# crystal, experimental, refinement or atomic coordinate data resulting
# from the CCDC's data processing and validation procedures.
#
#######################################################################

data_CSD_CIF_SAZHEH
_audit_creation_date 2006-02-24
_audit_creation_method CSD-ConQuest-V1
_database_code_CSD SAZHEH
_database_code_depnum_ccdc_archive 'CCDC 296683'
_chemical_formula_sum 'C22 H17 N1 O3'
_chemical_formula_moiety
;
C22 H17 N1 O3
;
_journal_coeditor_code "IUCr SU6261"
_journal_coden_Cambridge 1370
_journal_volume 62
_journal_year 2006
_journal_page_first o329
_journal_name_full 'Acta Crystallogr.,Sect.E:Struct.Rep.Online '
loop_
_publ_author_name
"J.-C.Daran"
"R.Fihi"
"C.Roussel"
"N.Laghrib"
"M.Azrour"
"K.Ciamala"
"J.Vebreld"
_chemical_name_systematic
;
2',3'-Diphenyl-3(H)-spiro(2-benzofuran-1,5'-isoxazolidine)-3-one
;
_cell_volume   1706.418
_exptl_crystal_colour 'colorless'
_exptl_crystal_density_diffrn 1.337
_exptl_crystal_description 'block'
_exptl_crystal_preparation 'ethanol'
_diffrn_ambient_temperature 180
#These two values have been output from a single CSD field.
_refine_ls_R_factor_gt 0.0479
_refine_ls_wR_factor_gt 0.0479
_symmetry_cell_setting monoclinic
_symmetry_space_group_name_H-M 'P 21/n'
_symmetry_Int_Tables_number 14
loop_
_symmetry_equiv_pos_site_id
_symmetry_equiv_pos_as_xyz
1 x,y,z
2 1/2-x,1/2+y,1/2-z
3 -x,-y,-z
4 -1/2+x,-1/2-y,-1/2+z
_cell_length_a 5.1476(6)
_cell_length_b 15.3139(18)
_cell_length_c 21.653(3)
_cell_angle_alpha 90
_cell_angle_beta 91.365(10)
_cell_angle_gamma 90
_cell_formula_units_Z 4
loop_
_atom_type_symbol
_atom_type_radius_bond
C 0.68
H 0.23
N 0.68
O 0.68
loop_
_atom_site_label
_atom_site_type_symbol
_atom_site_fract_x
_atom_site_fract_y
_atom_site_fract_z
C1 C 0.1354(3) 0.26085(9) 0.07689(6)
C2 C 0.0393(3) 0.30234(9) 0.13496(6)
C3 C -0.1528(3) 0.36359(10) 0.14395(7)
H1 H -0.24740 0.38840 0.11010
C4 C -0.2027(3) 0.38754(11) 0.20446(7)
H2 H -0.33430 0.42950 0.21190
C5 C -0.0655(3) 0.35187(11) 0.25406(7)
H3 H -0.10520 0.36920 0.29490
C6 C 0.1272(3) 0.29168(11) 0.24486(6)
H4 H 0.22430 0.26770 0.27860
C7 C 0.1752(3) 0.26721(9) 0.18465(6)
C8 C 0.3625(3) 0.20312(10) 0.16154(7)
C9 C -0.0587(3) 0.21464(11) 0.03401(6)
H5 H -0.23540 0.23900 0.03850
H6 H -0.06330 0.15120 0.04280
C10 C 0.0429(3) 0.23208(9) -0.03141(6)
H7 H -0.07930 0.27180 -0.05440
C11 C 0.3874(3) 0.33815(9) -0.06237(6)
C12 C 0.5636(3) 0.4023(1) -0.04347(7)
H8 H 0.60230 0.41040 -0.00070
C13 C 0.6825(3) 0.45418(10) -0.08675(8)
H9 H 0.80280 0.49770 -0.07350
C14 C 0.6279(3) 0.44331(11) -0.14907(8)
H10 H 0.71470 0.47760 -0.17870
C15 C 0.4469(4) 0.38237(12) -0.16760(7)
H11 H 0.40380 0.37630 -0.21030
C16 C 0.3259(3) 0.32945(10) -0.12489(7)
H12 H 0.20140 0.28740 -0.13840
C17 C 0.0813(3) 0.14899(9) -0.06793(6)
C18 C -0.1008(3) 0.12601(10) -0.11306(6)
H13 H -0.24180 0.16420 -0.12240
C19 C -0.0796(3) 0.04775(10) -0.14489(7)
H14 H -0.20590 0.03260 -0.17580
C20 C 0.1243(3) -0.00802(10) -0.13176(7)
H15 H 0.13870 -0.06170 -0.15340
C21 C 0.3073(3) 0.01452(10) -0.08701(7)
H16 H 0.44920 -0.02350 -0.07830
C22 C 0.2859(3) 0.09213(10) -0.05472(7)
H17 H 0.41120 0.10660 -0.02350
N1 N 0.2925(2) 0.27746(8) -0.01877(5)
O1 O 0.25479(18) 0.32378(6) 0.04003(4)
O2 O 0.33314(19) 0.19889(7) 0.09869(4)
O3 O 0.5164(2) 0.15885(9) 0.18940(5)
#END
