
#######################################################################
#
#                 Cambridge Crystallographic Data Centre
#                                CCDC
#
#######################################################################
#
# If this CIF has been generated from an entry in the Cambridge
# Structural Database, then it will include bibliographic, chemical,
# crystal, experimental, refinement or atomic coordinate data resulting
# from the CCDC's data processing and validation procedures.
#
#######################################################################

data_CSD_CIF_SAZLIP
_audit_creation_date 2006-02-24
_audit_creation_method CSD-ConQuest-V1
_database_code_CSD SAZLIP
_database_code_depnum_ccdc_archive 'CCDC 296705'
_chemical_formula_sum 'C25 H25 N5 O6'
_chemical_formula_moiety
;
C25 H25 N5 O6
;
_journal_coeditor_code "IUCr WW6455"
_journal_coden_Cambridge 1370
_journal_volume 62
_journal_year 2006
_journal_page_first o72
_journal_name_full 'Acta Crystallogr.,Sect.E:Struct.Rep.Online '
loop_
_publ_author_name
"Bao-Shu Liu"
"Feng-Xia Sun"
"Li-Na Zhou"
"Hua Sun"
"Jing-Kang Wang"
_chemical_name_systematic
;
3-Benzotriazol-1-yl 5-t-butyl 
2,6-dimethyl-4-(3-nitrophenyl)-1,4-dihydropyridine-3,5-dicarboxylate
;
_chemical_melting_point 458.5
_cell_volume   2507.840
_exptl_crystal_colour 'yellow'
_exptl_crystal_density_diffrn 1.302
_exptl_crystal_description 'rod'
_exptl_crystal_preparation 'methanol'
_diffrn_ambient_temperature 293
#These two values have been output from a single CSD field.
_refine_ls_R_factor_gt 0.0482
_refine_ls_wR_factor_gt 0.0482
_symmetry_cell_setting monoclinic
_symmetry_space_group_name_H-M 'P 21/n'
_symmetry_Int_Tables_number 14
loop_
_symmetry_equiv_pos_site_id
_symmetry_equiv_pos_as_xyz
1 x,y,z
2 1/2-x,1/2+y,1/2-z
3 -x,-y,-z
4 -1/2+x,-1/2-y,-1/2+z
_cell_length_a 10.332(2)
_cell_length_b 15.163(3)
_cell_length_c 16.010(3)
_cell_angle_alpha 90
_cell_angle_beta 90.96(3)
_cell_angle_gamma 90
_cell_formula_units_Z 4
loop_
_atom_type_symbol
_atom_type_radius_bond
C 0.68
H 0.23
N 0.68
O 0.68
loop_
_atom_site_label
_atom_site_type_symbol
_atom_site_fract_x
_atom_site_fract_y
_atom_site_fract_z
O1 O 0.21060(13) 0.82239(9) 0.03233(10)
O2 O 0.01379(15) 0.88373(12) 0.01864(15)
O3 O 0.59163(18) 0.73312(19) 0.32341(14)
O4 O 0.60069(18) 0.6879(3) 0.19826(16)
O5 O 0.13680(15) 0.42128(10) 0.10564(12)
O6 O 0.28262(12) 0.52457(9) 0.06732(9)
C1 C 0.2502(3) 0.9710(2) 0.0842(3)
H1 H 0.16160 0.98910 0.07750
H2 H 0.30570 1.02150 0.07920
H3 H 0.26280 0.94470 0.13820
C2 C 0.4217(2) 0.87458(18) 0.0260(3)
H4 H 0.43970 0.83270 -0.01730
H5 H 0.43530 0.84730 0.07960
H6 H 0.47850 0.92440 0.02100
C3 C 0.2523(3) 0.9399(2) -0.0684(2)
H7 H 0.27470 0.89630 -0.10920
H8 H 0.30150 0.99260 -0.07770
H9 H 0.16160 0.95300 -0.07320
C4 C 0.2824(2) 0.90503(15) 0.01778(18)
C5 C 0.08078(19) 0.82103(14) 0.03572(14)
C6 C 0.03497(17) 0.73447(12) 0.06462(11)
C7 C -0.09284(17) 0.71889(13) 0.07393(12)
C8 C -0.20410(18) 0.77928(15) 0.05539(14)
H10 H -0.17200 0.83460 0.03510
H11 H -0.25200 0.78900 0.10540
H12 H -0.25970 0.75300 0.01370
C9 C -0.05415(17) 0.56482(13) 0.10834(12)
C10 C -0.1234(2) 0.48118(15) 0.12917(16)
H13 H -0.21400 0.49310 0.13520
H14 H -0.08880 0.45770 0.18060
H15 H -0.11170 0.43910 0.08510
C11 C 0.07512(16) 0.57427(12) 0.09479(11)
C12 C 0.13589(16) 0.66574(11) 0.08816(11)
H16 H 0.20050 0.66410 0.04410
C13 C 0.20542(16) 0.68733(12) 0.17079(11)
C14 C 0.13566(18) 0.69983(15) 0.24284(13)
H17 H 0.04580 0.69660 0.24030
C15 C 0.1969(2) 0.71708(18) 0.31872(15)
H18 H 0.14790 0.72550 0.36620
C16 C 0.3304(2) 0.72190(16) 0.32439(14)
H19 H 0.37250 0.73400 0.37490
C17 C 0.39835(18) 0.70814(14) 0.25279(13)
C18 C 0.33990(17) 0.69122(13) 0.17594(12)
H20 H 0.38960 0.68260 0.12870
C19 C 0.15671(18) 0.49738(13) 0.09263(13)
C20 C 0.45053(17) 0.43242(13) 0.12995(12)
C21 C 0.4629(2) 0.45512(16) 0.21367(15)
H21 H 0.41040 0.49730 0.23820
C22 C 0.5578(2) 0.41114(19) 0.25773(16)
H22 H 0.56960 0.42350 0.31420
C23 C 0.6377(2) 0.34806(17) 0.22041(17)
H23 H 0.70130 0.32040 0.25280
C24 C 0.62516(18) 0.32625(15) 0.13851(15)
H24 H 0.67860 0.28440 0.11440
C25 C 0.52793(17) 0.36951(13) 0.09160(14)
N1 N -0.13211(14) 0.63705(11) 0.10347(11)
H25 H -0.21070 0.63180 0.11970
N2 N 0.54023(19) 0.71073(17) 0.25835(15)
N3 N 0.37061(14) 0.45709(10) 0.06648(10)
N4 N 0.39499(15) 0.41572(11) -0.00536(11)
N5 N 0.49052(15) 0.36102(12) 0.00933(11)
#END
