
#######################################################################
#
#                 Cambridge Crystallographic Data Centre
#                                CCDC
#
#######################################################################
#
# If this CIF has been generated from an entry in the Cambridge
# Structural Database, then it will include bibliographic, chemical,
# crystal, experimental, refinement or atomic coordinate data resulting
# from the CCDC's data processing and validation procedures.
#
#######################################################################

data_CSD_CIF_SECSOK
_audit_creation_date 2013-02-01
_audit_creation_method CSD-ConQuest-V1
_database_code_CSD SECSOK
_database_code_depnum_ccdc_archive 'CCDC 909846'
_chemical_formula_sum 'C13 H16 N4 O2'
_chemical_formula_moiety
;
C13 H16 N4 O2
;
_journal_coeditor_code "IUCr BT6847"
_journal_coden_Cambridge 1370
_journal_volume 68
_journal_year 2012
_journal_page_first o3171
_journal_name_full 'Acta Crystallogr.,Sect.E:Struct.Rep.Online '
loop_
_publ_author_name
"S.Hernandez-Ortega"
"F.Cuenu-Cabezas"
"R.Abonia-Gonzalez"
"A.Cabrera-Ortiz"
_chemical_name_systematic
;
3-t-Butyl-1-(3-nitrophenyl)-1H-pyrazol-5-amine
;
_chemical_melting_point 375
_cell_volume   1352.649
_exptl_crystal_colour 'orange'
_exptl_crystal_density_diffrn 1.278
_exptl_crystal_description 'prism'
_diffrn_ambient_temperature 298
#These two values have been output from a single CSD field.
_refine_ls_R_factor_gt 0.0403
_refine_ls_wR_factor_gt 0.0403
_symmetry_cell_setting monoclinic
_symmetry_space_group_name_H-M 'P 21/c'
_symmetry_Int_Tables_number 14
loop_
_symmetry_equiv_pos_site_id
_symmetry_equiv_pos_as_xyz
1 x,y,z
2 -x,1/2+y,1/2-z
3 -x,-y,-z
4 x,-1/2-y,-1/2+z
_cell_length_a 11.9421(14)
_cell_length_b 9.6419(11)
_cell_length_c 11.7694(13)
_cell_angle_alpha 90
_cell_angle_beta 93.504(2)
_cell_angle_gamma 90
_cell_formula_units_Z 4
loop_
_atom_type_symbol
_atom_type_radius_bond
C 0.68
H 0.23
N 0.68
O 0.68
loop_
_atom_site_label
_atom_site_type_symbol
_atom_site_fract_x
_atom_site_fract_y
_atom_site_fract_z
O1 O 0.61664(14) -0.30475(15) 0.45577(16)
O2 O 0.76468(15) -0.18160(16) 0.45837(14)
N1 N 0.71780(9) 0.17992(11) 0.75434(9)
N2 N 0.78018(9) 0.26705(11) 0.68907(9)
N3 N 0.67228(15) -0.20551(15) 0.48900(13)
N4 N 0.68987(11) 0.12825(14) 0.94996(10)
H1 H 0.7163(13) 0.1491(17) 1.0213(9)
H2 H 0.6699(13) 0.0411(11) 0.9321(14)
C1 C 0.84041(11) 0.34268(13) 0.76494(11)
C2 C 0.81984(11) 0.30418(14) 0.87650(11)
H3 H 0.85230 0.34210 0.94330
C3 C 0.74255(11) 0.19985(13) 0.86760(11)
C4 C 0.91855(12) 0.45492(15) 0.72699(13)
C5 C 0.99208(17) 0.3989(2) 0.63582(17)
H4 H 1.03740 0.32410 0.66690
H5 H 1.03980 0.47160 0.61100
H6 H 0.94530 0.36570 0.57230
C6 C 0.85048(16) 0.57837(16) 0.67990(16)
H7 H 0.80510 0.55000 0.61380
H8 H 0.90050 0.65090 0.65940
H9 H 0.80300 0.61190 0.73680
C7 C 0.99367(15) 0.50386(18) 0.82913(16)
H10 H 0.94830 0.54540 0.88450
H11 H 1.04640 0.57090 0.80440
H12 H 1.03340 0.42600 0.86260
C8 C 0.64947(11) 0.07495(13) 0.70143(11)
C9 C 0.69297(12) -0.00946(14) 0.62034(12)
H13 H 0.76580 0.00270 0.59850
C10 C 0.62517(13) -0.11245(14) 0.57271(12)
C11 C 0.51684(14) -0.13283(15) 0.60126(14)
H14 H 0.47270 -0.20230 0.56680
C12 C 0.47534(14) -0.04795(17) 0.68205(15)
H15 H 0.40220 -0.06030 0.70320
C13 C 0.54076(12) 0.05548(16) 0.73219(13)
H16 H 0.51170 0.11240 0.78690
#END
