
#######################################################################
#
#                 Cambridge Crystallographic Data Centre
#                                CCDC
#
#######################################################################
#
# If this CIF has been generated from an entry in the Cambridge
# Structural Database, then it will include bibliographic, chemical,
# crystal, experimental, refinement or atomic coordinate data resulting
# from the CCDC's data processing and validation procedures.
#
#######################################################################

data_CSD_CIF_SECVON
_audit_creation_date 2012-12-11
_audit_creation_method CSD-ConQuest-V1
_database_code_CSD SECVON
_database_code_depnum_ccdc_archive 'CCDC 909856'
_chemical_formula_sum 'C12 H8 N2 O6'
_chemical_formula_moiety
;
C12 H8 N2 O6
;
_journal_coeditor_code "IUCr HB6968"
_journal_coden_Cambridge 1370
_journal_volume 68
_journal_year 2012
_journal_page_first o3184
_journal_name_full 'Acta Crystallogr.,Sect.E:Struct.Rep.Online '
loop_
_publ_author_name
"M.Bakthadoss"
"A.Devaraj"
"D.Lakshmanan"
"S.Murugavel"
_chemical_name_systematic
;
Methyl (E)-2-cyano-3-(6-nitro-1,3-benzodioxol-5-yl)acrylate
;
_cell_volume   1220.471
_exptl_crystal_colour 'colorless'
_exptl_crystal_density_diffrn 1.503
_exptl_crystal_description 'block'
_diffrn_ambient_temperature 293
#These two values have been output from a single CSD field.
_refine_ls_R_factor_gt 0.0455
_refine_ls_wR_factor_gt 0.0455
_symmetry_cell_setting monoclinic
_symmetry_space_group_name_H-M 'P 21/n'
_symmetry_Int_Tables_number 14
loop_
_symmetry_equiv_pos_site_id
_symmetry_equiv_pos_as_xyz
1 x,y,z
2 1/2-x,1/2+y,1/2-z
3 -x,-y,-z
4 -1/2+x,-1/2-y,-1/2+z
_cell_length_a 10.8191(9)
_cell_length_b 7.3220(6)
_cell_length_c 15.4133(13)
_cell_angle_alpha 90
_cell_angle_beta 91.691(2)
_cell_angle_gamma 90
_cell_formula_units_Z 4
loop_
_atom_type_symbol
_atom_type_radius_bond
C 0.68
H 0.23
N 0.68
O 0.68
loop_
_atom_site_label
_atom_site_type_symbol
_atom_site_fract_x
_atom_site_fract_y
_atom_site_fract_z
C1 C 0.34825(14) 0.0705(2) 0.14286(9)
H1 H 0.31940 0.01630 0.19290
C2 C 0.44834(14) 0.1836(2) 0.14611(9)
C3 C 0.60882(16) 0.3581(3) 0.18676(11)
H2 H 0.59740 0.47740 0.21260
H3 H 0.69120 0.31490 0.20260
C4 C 0.49334(13) 0.26561(19) 0.07304(10)
C5 C 0.43953(14) 0.2399(2) -0.00694(9)
H4 H 0.46970 0.29550 -0.05630
C6 C 0.33678(13) 0.12542(19) -0.01065(8)
C7 C 0.28993(13) 0.03817(19) 0.06181(9)
C8 C 0.18022(14) -0.0796(2) 0.05853(9)
H5 H 0.11150 -0.03840 0.02660
C9 C 0.17142(13) -0.2415(2) 0.09786(9)
C10 C 0.05270(16) -0.3443(2) 0.09545(10)
C11 C -0.0446(2) -0.6111(3) 0.14488(14)
H6 H -0.09370 -0.56370 0.19060
H7 H -0.02150 -0.73490 0.15790
H8 H -0.09170 -0.60770 0.09110
C12 C 0.27569(16) -0.3259(2) 0.14154(11)
N1 N 0.35768(15) -0.3935(2) 0.17628(12)
N2 N 0.28260(12) 0.09294(19) -0.09677(8)
O1 O 0.51784(12) 0.23313(16) 0.21683(7)
O2 O 0.59385(11) 0.36932(17) 0.09442(7)
O3 O 0.21209(14) -0.03492(18) -0.10801(8)
O4 O 0.31029(14) 0.1961(2) -0.15503(8)
O5 O -0.03967(12) -0.2902(2) 0.06023(9)
O6 O 0.06541(12) -0.50122(16) 0.13725(8)
#END
