
#######################################################################
#
#                 Cambridge Crystallographic Data Centre
#                                CCDC
#
#######################################################################
#
# If this CIF has been generated from an entry in the Cambridge
# Structural Database, then it will include bibliographic, chemical,
# crystal, experimental, refinement or atomic coordinate data resulting
# from the CCDC's data processing and validation procedures.
#
#######################################################################

data_CSD_CIF_SECZIK
_audit_creation_date 2006-05-18
_audit_creation_method CSD-ConQuest-V1
_database_code_CSD SECZIK
_database_code_depnum_ccdc_archive 'CCDC 600113'
_chemical_formula_sum 'C22 H19 N3 O3'
_chemical_formula_moiety
;
C22 H19 N3 O3
;
_journal_coden_Cambridge 1336
_journal_volume 7
_journal_year 2005
_journal_page_first 5293
_journal_name_full 'Org.Lett. '
loop_
_publ_author_name
"Dong Xue"
"Ying-Chun Chen"
"Qi-Wei Wang"
"Ling-Feng Cun"
"Jin Zhu"
"Jin-Gen Deng"
_chemical_name_systematic
;
anti-2-(2-(1-(4-Methoxyphenyl)-2-nitroethyl)-3,4-dihydro-2H-naphthalen-1-ylide
ne)malononitrile
;
_chemical_melting_point 454.15
_cell_volume   1975.531
_exptl_crystal_density_diffrn 1.255
_exptl_special_details
;
Melting point range 454.15-456.15K

;
_diffrn_ambient_temperature 287
#These two values have been output from a single CSD field.
_refine_ls_R_factor_gt 0.0416
_refine_ls_wR_factor_gt 0.0416
_symmetry_cell_setting monoclinic
_symmetry_space_group_name_H-M 'P 21/c'
_symmetry_Int_Tables_number 14
loop_
_symmetry_equiv_pos_site_id
_symmetry_equiv_pos_as_xyz
1 x,y,z
2 -x,1/2+y,1/2-z
3 -x,-y,-z
4 x,-1/2-y,-1/2+z
_cell_length_a 7.074(1)
_cell_length_b 15.601(2)
_cell_length_c 17.909(3)
_cell_angle_alpha 90
_cell_angle_beta 91.76(2)
_cell_angle_gamma 90
_cell_formula_units_Z 4
loop_
_atom_type_symbol
_atom_type_radius_bond
C 0.68
H 0.23
N 0.68
O 0.68
loop_
_atom_site_label
_atom_site_type_symbol
_atom_site_fract_x
_atom_site_fract_y
_atom_site_fract_z
O1 O 0.5964(3) 0.62401(12) 0.56824(11)
O2 O 0.7244(2) 0.67760(13) 0.47274(13)
O3 O 0.10776(18) 0.94919(9) 0.57933(8)
N1 N 0.1970(3) 0.34199(13) 0.25165(12)
N2 N -0.1210(3) 0.47666(14) 0.41600(11)
N3 N 0.6019(3) 0.63730(12) 0.50203(13)
C1 C 0.4112(2) 0.56105(13) 0.26274(9)
C2 C 0.5392(3) 0.49390(14) 0.25453(11)
H1 H 0.52530 0.44390 0.28200
C3 C 0.6844(3) 0.5008(2) 0.20665(16)
H2 H 0.77000 0.45610 0.20170
C4 C 0.7031(4) 0.5747(3) 0.16571(16)
H3 H 0.79900 0.57850 0.13150
C5 C 0.5838(4) 0.64280(19) 0.17411(13)
H4 H 0.60090 0.69260 0.14660
C6 C 0.4359(3) 0.63767(14) 0.22412(10)
C7 C 0.3147(4) 0.71442(15) 0.23624(11)
H5 H 0.26390 0.73370 0.18820
H6 H 0.39340 0.76010 0.25680
C8 C 0.1504(3) 0.69954(13) 0.28812(11)
H7 H 0.04340 0.67680 0.25940
H8 H 0.11260 0.75390 0.30930
C9 C 0.2028(2) 0.63725(11) 0.35159(9)
H9 H 0.09110 0.62750 0.38150
C10 C 0.2547(2) 0.55505(11) 0.31434(9)
C11 C 0.3641(2) 0.67341(10) 0.40306(9)
H10 H 0.46500 0.69380 0.37120
C12 C 0.2973(2) 0.74833(11) 0.44835(9)
C13 C 0.3747(2) 0.82850(12) 0.4416(1)
H11 H 0.46910 0.83680 0.40730
C14 C 0.3171(3) 0.89763(12) 0.48407(10)
H12 H 0.37270 0.95120 0.47840
C15 C 0.1772(2) 0.88594(12) 0.53454(10)
C16 C 0.0962(2) 0.80634(13) 0.54187(11)
H13 H 0.00100 0.79830 0.57580
C17 C 0.1549(2) 0.73876(12) 0.49949(10)
H14 H 0.09830 0.68540 0.50510
C18 C 0.1544(2) 0.48259(12) 0.32515(9)
C19 C 0.1815(3) 0.40404(15) 0.28422(12)
C20 C 0.0028(3) 0.47968(14) 0.37646(12)
C21 C 0.4457(2) 0.60304(11) 0.45328(9)
H15 H 0.34700 0.58010 0.48400
H16 H 0.49290 0.55680 0.42280
C22 C 0.1993(3) 1.02999(13) 0.57997(12)
H17 H 0.32760 1.02330 0.59810
H18 H 0.13390 1.06850 0.61200
H19 H 0.19860 1.05290 0.53020
#END
