
#######################################################################
#
#                 Cambridge Crystallographic Data Centre
#                                CCDC
#
#######################################################################
#
# If this CIF has been generated from an entry in the Cambridge
# Structural Database, then it will include bibliographic, chemical,
# crystal, experimental, refinement or atomic coordinate data resulting
# from the CCDC's data processing and validation procedures.
#
#######################################################################

data_CSD_CIF_SEDROI
_audit_creation_date 1990-05-24
_audit_creation_method CSD-ConQuest-V1
_database_code_CSD SEDROI
_database_code_depnum_ccdc_fiz 'CSD 53752'
_chemical_formula_sum 'C18 H15 N1 O4'
_chemical_formula_moiety
;
C18 H15 N1 O4
;
_journal_coden_Cambridge 179
_journal_volume 28
_journal_year 1989
_journal_page_first 1239
_journal_name_full 'Angew.Chem.,Int.Ed. '
loop_
_publ_author_name
"O.Ermer"
"P.Bell"
"S.A.Mason"
_chemical_name_systematic
;
p-Nitrophenyl 5,6-benzonobornane-2-carboxylate
;
_cell_volume    755.141
_exptl_crystal_density_diffrn 1.362
_diffrn_ambient_temperature ?
_diffrn_special_details
;
The study was carried out at room temperature,in the range 283-303K

;
#These two values have been output from a single CSD field.
_refine_ls_R_factor_gt 0.079
_refine_ls_wR_factor_gt 0.079
_symmetry_cell_setting triclinic
_symmetry_space_group_name_H-M 'P -1'
_symmetry_Int_Tables_number 2
loop_
_symmetry_equiv_pos_site_id
_symmetry_equiv_pos_as_xyz
1 x,y,z
2 -x,-y,-z
_cell_length_a 8.393(2)
_cell_length_b 9.535(4)
_cell_length_c 10.758(5)
_cell_angle_alpha 78.14(3)
_cell_angle_beta 68.02(3)
_cell_angle_gamma 71.95(2)
_cell_formula_units_Z 2
loop_
_atom_type_symbol
_atom_type_radius_bond
C 0.68
H 0.23
N 0.68
O 0.68
loop_
_atom_site_label
_atom_site_type_symbol
_atom_site_fract_x
_atom_site_fract_y
_atom_site_fract_z
C1 C 0.0612(4) 0.6801(4) -0.0187(4)
C2 C 0.1508(4) 0.7718(4) 0.0279(3)
C3 C 0.2773(4) 0.8266(4) -0.1054(4)
C4 C 0.2498(5) 0.7615(5) -0.2134(4)
C5 C 0.0641(4) 0.8400(4) -0.2163(3)
C6 C 0.0021(5) 0.9448(5) -0.3069(4)
C7 C -0.1833(5) 0.9974(4) -0.2742(4)
C8 C -0.2946(5) 0.9493(5) -0.1594(4)
C9 C -0.2338(4) 0.8454(4) -0.0634(4)
C10 C -0.0498(4) 0.7911(4) -0.0966(3)
C11 C 0.2185(5) 0.6122(4) -0.1369(4)
C12 C 0.2450(4) 0.6761(4) 0.1226(4)
C13 C 0.1944(4) 0.5238(4) 0.3288(4)
C14 C 0.2119(5) 0.3763(5) 0.3287(4)
C15 C 0.2657(5) 0.2759(5) 0.4252(4)
C16 C 0.3004(4) 0.3238(4) 0.5198(3)
C17 C 0.2850(6) 0.4725(5) 0.5190(4)
C18 C 0.2300(6) 0.5695(5) 0.4228(4)
N1 N 0.3566(4) 0.2220(4) 0.6222(3)
O1 O 0.3985(3) 0.6444(3) 0.1057(3)
O2 O 0.1276(3) 0.6248(3) 0.2353(3)
O3 O 0.3683(6) 0.0917(4) 0.6236(4)
O4 O 0.3935(5) 0.2625(5) 0.7034(3)
H1 H -0.001(4) 0.621(3) 0.056(3)
H2 H 0.061(4) 0.850(4) 0.089(3)
H3 H 0.252(4) 0.940(4) -0.126(3)
H4 H 0.388(5) 0.769(4) -0.098(4)
H5 H 0.345(4) 0.758(3) -0.309(3)
H6 H 0.091(4) 0.964(4) -0.394(3)
H7 H -0.224(5) 1.062(4) -0.353(4)
H8 H -0.411(5) 0.991(4) -0.147(4)
H9 H -0.321(5) 0.805(4) 0.043(4)
H10 H 0.309(4) 0.556(4) -0.102(3)
H11 H 0.182(4) 0.555(4) -0.196(4)
H12 H 0.176(5) 0.343(5) 0.276(4)
H13 H 0.265(6) 0.155(6) 0.455(5)
H14 H 0.297(5) 0.492(5) 0.600(4)
H15 H 0.202(6) 0.663(5) 0.430(4)
#END
