
#######################################################################
#
#                 Cambridge Crystallographic Data Centre
#                                CCDC
#
#######################################################################
#
# If this CIF has been generated from an entry in the Cambridge
# Structural Database, then it will include bibliographic, chemical,
# crystal, experimental, refinement or atomic coordinate data resulting
# from the CCDC's data processing and validation procedures.
#
#######################################################################

data_CSD_CIF_SEDTUQ05
_audit_creation_date 2007-04-27
_audit_creation_method CSD-ConQuest-V1
_database_code_CSD SEDTUQ05
_database_code_depnum_ccdc_archive 'CCDC 616840'
_chemical_formula_sum 'C2 H4 N4 O4'
_chemical_formula_moiety
;
C2 H4 N4 O4
;
_journal_coden_Cambridge 9
_journal_volume 45
_journal_year 2006
_journal_page_first 4996
_journal_name_full 'Inorg.Chem. '
loop_
_publ_author_name
"J.Evers"
"T.M.Klapotke"
"P.Mayer"
"G.Oehlinger"
"J.Welch"
_chemical_name_systematic
;
1,1-Diamino-2,2-dinitroethylene
;
_chemical_name_common
;
FOX-7
;
_cell_volume    527.369
_exptl_crystal_colour 'yellow'
_exptl_crystal_density_diffrn 1.865
_exptl_special_details
;
explosive
alpha polymorph
phase transitions at 389 K and 446 K

;
_exptl_crystal_description 'block'
_diffrn_ambient_temperature 373
_diffrn_special_details
;
twin

;
#These two values have been output from a single CSD field.
_refine_ls_R_factor_gt 0.0542
_refine_ls_wR_factor_gt 0.0542
_symmetry_cell_setting monoclinic
_symmetry_space_group_name_H-M 'P 21/n'
_symmetry_Int_Tables_number 14
loop_
_symmetry_equiv_pos_site_id
_symmetry_equiv_pos_as_xyz
1 x,y,z
2 1/2-x,1/2+y,1/2-z
3 -x,-y,-z
4 -1/2+x,-1/2-y,-1/2+z
_cell_length_a 6.9467(7)
_cell_length_b 6.6887(9)
_cell_length_c 11.3500(13)
_cell_angle_alpha 90
_cell_angle_beta 90.143(13)
_cell_angle_gamma 90
_cell_formula_units_Z 4
loop_
_atom_type_symbol
_atom_type_radius_bond
C 0.68
H 0.23
N 0.68
O 0.68
loop_
_atom_site_label
_atom_site_type_symbol
_atom_site_fract_x
_atom_site_fract_y
_atom_site_fract_z
O1 O 0.0244(3) 0.0658(3) 0.74947(18)
O2 O 0.0814(4) 0.2042(4) 0.5815(2)
O3 O -0.5159(4) 0.0658(3) 0.71276(15)
O4 O -0.3002(4) 0.1696(4) 0.83443(17)
N1 N -0.0348(4) 0.1491(3) 0.65798(17)
N2 N -0.3532(4) 0.1331(3) 0.73293(16)
N3 N -0.2004(5) 0.2983(4) 0.4398(2)
H1 H -0.244(8) 0.338(6) 0.369(4)
H2 H -0.065(9) 0.297(5) 0.455(4)
N4 N -0.4992(4) 0.2537(3) 0.51034(19)
H3 H -0.551(10) 0.296(6) 0.446(5)
H4 H -0.595(7) 0.208(5) 0.561(4)
C1 C -0.2313(4) 0.1730(3) 0.6373(2)
C2 C -0.3118(4) 0.2414(3) 0.52572(18)
#END
