
#######################################################################
#
#                 Cambridge Crystallographic Data Centre
#                                CCDC
#
#######################################################################
#
# If this CIF has been generated from an entry in the Cambridge
# Structural Database, then it will include bibliographic, chemical,
# crystal, experimental, refinement or atomic coordinate data resulting
# from the CCDC's data processing and validation procedures.
#
#######################################################################

data_CSD_CIF_SEDTUQ11
_audit_creation_date 2016-10-28
_audit_creation_method CSD-ConQuest-V1
_database_code_CSD SEDTUQ11
_database_code_depnum_ccdc_archive 'CCDC 1423844'
_chemical_formula_sum 'C2 H4 N4 O4'
_chemical_formula_moiety
;
C2 H4 N4 O4
;
_journal_coden_Cambridge 1870
_journal_volume 2
_journal_year 2016
_journal_page_first e1600192
_journal_name_full 'Sci. Adv. '
loop_
_publ_author_name
"M.Woinska"
"S.Grabowsky"
"P.M.Dominiak"
"K.Wozniak"
"D.Jayatilaka"
_chemical_name_systematic
;
1,1-Diamino-2,2-dinitroethylene
;
_chemical_name_common
;
2,2-dinitroethene-1,1-diamine; FOX-7
;
_cell_volume    506.771
_exptl_special_details
;
alpha polymorph

;
_exptl_crystal_description 'prismatic'
_diffrn_ambient_temperature 100
_diffrn_radiation_probe x-ray
_diffrn_source synchrotron
_refine_special_details
;
Hirshfeld atom refinement (HAR)

;
#These two values have been output from a single CSD field.
_refine_ls_R_factor_gt 0.0214
_refine_ls_wR_factor_gt 0.0214
loop_
_citation_database_id_CSD
_citation_special_details
SEDTUQ09 "is reinterpreted by this entry"
_symmetry_cell_setting monoclinic
_symmetry_space_group_name_H-M 'P 21/n'
_symmetry_Int_Tables_number 14
loop_
_symmetry_equiv_pos_site_id
_symmetry_equiv_pos_as_xyz
1 x,y,z
2 1/2-x,1/2+y,1/2-z
3 -x,-y,-z
4 -1/2+x,-1/2-y,-1/2+z
_cell_length_a 6.922(1)
_cell_length_b 6.501(1)
_cell_length_c 11.262(1)
_cell_angle_alpha 90
_cell_angle_beta 90.485(1)
_cell_angle_gamma 90
_cell_formula_units_Z 4
loop_
_atom_type_symbol
_atom_type_radius_bond
C 0.68
H 0.23
N 0.68
O 0.68
loop_
_atom_site_label
_atom_site_type_symbol
_atom_site_fract_x
_atom_site_fract_y
_atom_site_fract_z
O1 O 0.19469(2) 0.33579(3) 0.33697(1)
O2 O -0.02030(2) 0.44645(2) 0.21287(1)
O3 O 0.58058(2) 0.30097(3) 0.08106(1)
O4 O 0.52176(2) 0.44500(2) 0.25067(1)
N1 N 0.14216(2) 0.37539(2) 0.23431(1)
N2 N 0.46437(2) 0.35837(2) 0.15831(1)
N3 N -0.00503(2) 0.24529(2) 0.01013(1)
N4 N 0.29809(2) 0.19873(3) -0.06180(1)
C1 C 0.26645(2) 0.33330(3) 0.13720(1)
C2 C 0.18521(2) 0.25990(3) 0.02558(1)
H1 H -0.0551(8) 0.1944(7) -0.0679(5)
H2 H -0.0996(8) 0.3042(7) 0.0697(5)
H3 H 0.2387(8) 0.1489(9) -0.1381(5)
H4 H 0.4431(8) 0.2004(8) -0.0500(5)
#END
