
#######################################################################
#
#                 Cambridge Crystallographic Data Centre
#                                CCDC
#
#######################################################################
#
# If this CIF has been generated from an entry in the Cambridge
# Structural Database, then it will include bibliographic, chemical,
# crystal, experimental, refinement or atomic coordinate data resulting
# from the CCDC's data processing and validation procedures.
#
#######################################################################

data_CSD_CIF_SEDTUQ04
_audit_creation_date 2007-04-27
_audit_creation_method CSD-ConQuest-V1
_database_code_CSD SEDTUQ04
_database_code_depnum_ccdc_archive 'CCDC 616839'
_chemical_formula_sum 'C2 H4 N4 O4'
_chemical_formula_moiety
;
C2 H4 N4 O4
;
_journal_coden_Cambridge 9
_journal_volume 45
_journal_year 2006
_journal_page_first 4996
_journal_name_full 'Inorg.Chem. '
loop_
_publ_author_name
"J.Evers"
"T.M.Klapotke"
"P.Mayer"
"G.Oehlinger"
"J.Welch"
_chemical_name_systematic
;
1,1-Diamino-2,2-dinitroethylene
;
_chemical_name_common
;
FOX-7
;
_cell_volume    523.337
_exptl_crystal_colour 'yellow'
_exptl_crystal_density_diffrn 1.879
_exptl_special_details
;
explosive
alpha polymorph
phase transitions at 389 K and 446 K

;
_exptl_crystal_description 'block'
_diffrn_ambient_temperature 333
_diffrn_special_details
;
twin

;
#These two values have been output from a single CSD field.
_refine_ls_R_factor_gt 0.041
_refine_ls_wR_factor_gt 0.041
_symmetry_cell_setting monoclinic
_symmetry_space_group_name_H-M 'P 21/n'
_symmetry_Int_Tables_number 14
loop_
_symmetry_equiv_pos_site_id
_symmetry_equiv_pos_as_xyz
1 x,y,z
2 1/2-x,1/2+y,1/2-z
3 -x,-y,-z
4 -1/2+x,-1/2-y,-1/2+z
_cell_length_a 6.9414(7)
_cell_length_b 6.6534(9)
_cell_length_c 11.3316(13)
_cell_angle_alpha 90
_cell_angle_beta 90.082(13)
_cell_angle_gamma 90
_cell_formula_units_Z 4
loop_
_atom_type_symbol
_atom_type_radius_bond
C 0.68
H 0.23
N 0.68
O 0.68
loop_
_atom_site_label
_atom_site_type_symbol
_atom_site_fract_x
_atom_site_fract_y
_atom_site_fract_z
O1 O 0.0238(2) 0.0636(2) 0.74970(12)
O2 O 0.0813(3) 0.2035(3) 0.58148(14)
O3 O -0.5167(3) 0.0637(2) 0.71266(11)
O4 O -0.3011(3) 0.1686(2) 0.83497(12)
N1 N -0.0349(3) 0.1478(2) 0.65792(12)
N2 N -0.3543(3) 0.13162(19) 0.73335(12)
N3 N -0.2005(3) 0.2985(3) 0.43950(14)
H1 H -0.247(5) 0.343(4) 0.370(3)
H2 H -0.069(6) 0.300(4) 0.454(3)
N4 N -0.5002(3) 0.2540(2) 0.51029(14)
H3 H -0.539(6) 0.298(4) 0.446(3)
H4 H -0.580(5) 0.207(3) 0.561(2)
C1 C -0.2313(3) 0.1719(2) 0.63709(15)
C2 C -0.3126(3) 0.2411(2) 0.52573(13)
#END
