
#######################################################################
#
#                 Cambridge Crystallographic Data Centre
#                                CCDC
#
#######################################################################
#
# If this CIF has been generated from an entry in the Cambridge
# Structural Database, then it will include bibliographic, chemical,
# crystal, experimental, refinement or atomic coordinate data resulting
# from the CCDC's data processing and validation procedures.
#
#######################################################################

data_CSD_CIF_SEDTUQ03
_audit_creation_date 2007-04-27
_audit_creation_method CSD-ConQuest-V1
_database_code_CSD SEDTUQ03
_database_code_depnum_ccdc_archive 'CCDC 616838'
_chemical_formula_sum 'C2 H4 N4 O4'
_chemical_formula_moiety
;
C2 H4 N4 O4
;
_journal_coden_Cambridge 9
_journal_volume 45
_journal_year 2006
_journal_page_first 4996
_journal_name_full 'Inorg.Chem. '
loop_
_publ_author_name
"J.Evers"
"T.M.Klapotke"
"P.Mayer"
"G.Oehlinger"
"J.Welch"
_chemical_name_systematic
;
1,1-Diamino-2,2-dinitroethylene
;
_chemical_name_common
;
FOX-7
;
_cell_volume    519.470
_exptl_crystal_colour 'yellow'
_exptl_crystal_density_diffrn 1.893
_exptl_special_details
;
explosive
alpha polymorph
phase transitions at 389 K and 446 K

;
_exptl_crystal_description 'block'
_diffrn_ambient_temperature 298
_diffrn_special_details
;
twin

;
#These two values have been output from a single CSD field.
_refine_ls_R_factor_gt 0.0402
_refine_ls_wR_factor_gt 0.0402
_symmetry_cell_setting monoclinic
_symmetry_space_group_name_H-M 'P 21/n'
_symmetry_Int_Tables_number 14
loop_
_symmetry_equiv_pos_site_id
_symmetry_equiv_pos_as_xyz
1 x,y,z
2 1/2-x,1/2+y,1/2-z
3 -x,-y,-z
4 -1/2+x,-1/2-y,-1/2+z
_cell_length_a 6.9340(7)
_cell_length_b 6.6228(8)
_cell_length_c 11.3119(13)
_cell_angle_alpha 90
_cell_angle_beta 90.065(13)
_cell_angle_gamma 90
_cell_formula_units_Z 4
loop_
_atom_type_symbol
_atom_type_radius_bond
C 0.68
H 0.23
N 0.68
O 0.68
loop_
_atom_site_label
_atom_site_type_symbol
_atom_site_fract_x
_atom_site_fract_y
_atom_site_fract_z
O1 O 0.0233(2) 0.0619(2) 0.74999(12)
O2 O 0.0813(3) 0.2026(3) 0.58134(13)
O3 O -0.5174(2) 0.0619(2) 0.71255(10)
O4 O -0.3018(3) 0.1677(2) 0.83548(12)
N1 N -0.0351(2) 0.14690(19) 0.65802(12)
N2 N -0.3552(2) 0.13025(19) 0.73365(12)
N3 N -0.2005(3) 0.2991(3) 0.43933(13)
H1 H -0.249(6) 0.340(4) 0.365(3)
H2 H -0.067(6) 0.304(4) 0.455(3)
N4 N -0.5008(3) 0.2538(2) 0.51035(13)
H3 H -0.546(7) 0.298(5) 0.440(4)
H4 H -0.583(5) 0.211(3) 0.560(2)
C1 C -0.2311(3) 0.1707(2) 0.63705(14)
C2 C -0.3131(3) 0.2409(2) 0.52561(13)
#END
