
#######################################################################
#
#                 Cambridge Crystallographic Data Centre
#                                CCDC
#
#######################################################################
#
# If this CIF has been generated from an entry in the Cambridge
# Structural Database, then it will include bibliographic, chemical,
# crystal, experimental, refinement or atomic coordinate data resulting
# from the CCDC's data processing and validation procedures.
#
#######################################################################

data_CSD_CIF_SEFGAL
_audit_creation_date 1990-06-07
_audit_creation_method CSD-ConQuest-V1
_database_code_CSD SEFGAL
_chemical_formula_sum 'C20 H19 N1 O8'
_chemical_formula_moiety
;
C20 H19 N1 O8
;
_journal_coden_Cambridge 4
_journal_volume 111
_journal_year 1989
_journal_page_first 7612
_journal_name_full 'J.Am.Chem.Soc. '
loop_
_publ_author_name
"W.H.Bunnelle"
"L.A.Meyer"
"E.O.Schlemper"
_chemical_name_systematic
;
2,4-Dimethyl-2,4-epidioxy-5-(p-nitrobenzoyloxy)-7-phenyl-1,3-dioxepane
;
_cell_volume    958.241
_diffrn_ambient_temperature ?
_diffrn_special_details
;
The study was carried out at room temperature,in the range 283-303K

;
#These two values have been output from a single CSD field.
_refine_ls_R_factor_gt 0.037
_refine_ls_wR_factor_gt 0.037
_symmetry_cell_setting triclinic
_symmetry_space_group_name_H-M 'P -1'
_symmetry_Int_Tables_number 2
loop_
_symmetry_equiv_pos_site_id
_symmetry_equiv_pos_as_xyz
1 x,y,z
2 -x,-y,-z
_cell_length_a 8.83(2)
_cell_length_b 9.33(2)
_cell_length_c 12.30(2)
_cell_angle_alpha 91.83
_cell_angle_beta 104.56
_cell_angle_gamma 101.3
_cell_formula_units_Z 2
loop_
_atom_type_symbol
_atom_type_radius_bond
C 0.68
H 0.23
N 0.68
O 0.68
loop_
_atom_site_label
_atom_site_type_symbol
_atom_site_fract_x
_atom_site_fract_y
_atom_site_fract_z
O1 O 0.8568(2) 0.2544(2) 0.0035(1)
O2 O 0.9506(2) 0.1633(2) 0.2658(2)
O3 O 0.9145(2) 0.1116(2) 0.1483(2)
O4 O 1.0399(2) 0.3489(2) 0.1749(1)
O5 O 0.6825(2) 0.2555(2) 0.2630(1)
O6 O 0.7047(2) 0.3653(2) 0.4315(2)
O7 O 0.0275(3) -0.1464(3) 0.4449(2)
O8 O 0.0410(2) -0.2608(3) 0.2954(2)
N1 N 0.0900(3) -0.1601(3) 0.3683(2)
C1 C 0.9799(3) 0.2322(3) 0.0910(2)
C2 C 0.7098(3) 0.2725(3) 0.0304(2)
C3 C 0.7403(3) 0.4011(3) 0.1178(2)
C4 C 0.8056(3) 0.3682(3) 0.2390(2)
C5 C 0.9668(3) 0.3179(3) 0.2643(2)
C6 C 1.1116(3) 0.2009(3) 0.0428(3)
C7 C 1.0799(3) 0.3876(3) 0.3742(3)
C8 C 0.5974(3) 0.2909(3) -0.0792(2)
C9 C 0.6437(3) 0.3896(3) -0.1529(2)
C10 C 0.5358(3) 0.4046(3) -0.2529(2)
C11 C 0.3813(3) 0.3210(3) -0.2809(3)
C12 C 0.3361(3) 0.2235(3) -0.2085(3)
C13 C 0.4419(3) 0.2089(3) -0.1090(2)
C14 C 0.6384(3) 0.2705(3) 0.3579(2)
C15 C 0.4951(3) 0.1561(3) 0.3596(2)
C16 C 0.4283(3) 0.1633(3) 0.4494(2)
C17 C 0.2935(3) 0.0598(3) 0.4525(2)
C18 C 0.2318(3) -0.0481(3) 0.3666(2)
C19 C 0.2954(3) -0.0581(3) 0.2765(2)
C20 C 0.4293(3) 0.0460(3) 0.2738(2)
H1 H 0.66390 0.18940 0.06500
H2 H 0.64450 0.43500 0.11120
H3 H 0.81860 0.47880 0.10060
H4 H 0.82550 0.45810 0.28540
H5 H 1.19330 0.16600 0.10930
H6 H 1.16370 0.28830 0.01690
H7 H 1.07080 0.12770 -0.01800
H8 H 1.10930 0.50000 0.35930
H9 H 1.17270 0.34590 0.39340
H10 H 1.02860 0.37550 0.43460
H11 H 0.75120 0.45000 -0.13310
H12 H 0.57320 0.47740 -0.30230
H13 H 0.30590 0.33330 -0.35110
H14 H 0.23090 0.16480 -0.22550
H15 H 0.40770 0.13950 -0.05870
H16 H 0.47590 0.24160 0.50990
H17 H 0.24530 0.06510 0.51420
H18 H 0.24720 -0.13540 0.21610
H19 H 0.48040 0.04010 0.21330
#END
