
#######################################################################
#
#                 Cambridge Crystallographic Data Centre
#                                CCDC
#
#######################################################################
#
# If this CIF has been generated from an entry in the Cambridge
# Structural Database, then it will include bibliographic, chemical,
# crystal, experimental, refinement or atomic coordinate data resulting
# from the CCDC's data processing and validation procedures.
#
#######################################################################

data_CSD_CIF_SEFJEU
_audit_creation_date 2013-02-22
_audit_creation_method CSD-ConQuest-V1
_database_code_CSD SEFJEU
_database_code_depnum_ccdc_archive 'CCDC 853941'
_chemical_formula_sum 'C14 H13 N3 O2'
_chemical_formula_moiety
;
C14 H13 N3 O2
;
_journal_coden_Cambridge 119
_journal_volume 1027
_journal_year 2012
_journal_page_first 175
_journal_name_full 'J.Mol.Struct. '
loop_
_publ_author_name
"A.Manimekalai"
"R.Balachander"
_chemical_name_systematic
;
2-((Hydroxyimino)methyl)-4-((4-methylphenyl)diazenyl)phenol
;
_cell_volume   1213.006
_exptl_crystal_colour 'brown'
_exptl_crystal_density_diffrn 1.398
_exptl_crystal_description 'block'
_diffrn_ambient_temperature 293
#These two values have been output from a single CSD field.
_refine_ls_R_factor_gt 0.0489
_refine_ls_wR_factor_gt 0.0489
_symmetry_cell_setting monoclinic
_symmetry_space_group_name_H-M 'P 21/n'
_symmetry_Int_Tables_number 14
loop_
_symmetry_equiv_pos_site_id
_symmetry_equiv_pos_as_xyz
1 x,y,z
2 1/2-x,1/2+y,1/2-z
3 -x,-y,-z
4 -1/2+x,-1/2-y,-1/2+z
_cell_length_a 13.7543(7)
_cell_length_b 4.6276(2)
_cell_length_c 19.0577(10)
_cell_angle_alpha 90
_cell_angle_beta 90.170(2)
_cell_angle_gamma 90
_cell_formula_units_Z 4
loop_
_atom_type_symbol
_atom_type_radius_bond
C 0.68
H 0.23
N 0.68
O 0.68
loop_
_atom_site_label
_atom_site_type_symbol
_atom_site_fract_x
_atom_site_fract_y
_atom_site_fract_z
C1 C 0.68692(12) -0.4763(4) 0.17636(10)
H1 H 0.74470 -0.37570 0.19070
H2 H 0.69820 -0.57070 0.13230
H3 H 0.67030 -0.61780 0.21120
C2 C 0.60493(10) -0.2646(3) 0.16853(8)
C3 C 0.55049(12) -0.1847(3) 0.22657(8)
H4 H 0.56430 -0.26670 0.27000
C4 C 0.47625(11) 0.0145(3) 0.22084(8)
H5 H 0.44030 0.06450 0.26030
C5 C 0.45492(10) 0.1404(3) 0.15679(8)
C6 C 0.50798(11) 0.0601(3) 0.09763(8)
H6 H 0.49390 0.14180 0.05420
C7 C 0.58175(11) -0.1419(3) 0.10398(8)
H7 H 0.61650 -0.19660 0.06430
C8 C 0.28132(10) 0.6556(3) 0.09844(8)
C9 C 0.25362(10) 0.7571(3) 0.03337(8)
H8 H 0.28460 0.68620 -0.00640
C10 C 0.18035(10) 0.9631(3) 0.02554(7)
C11 C 0.13571(9) 1.0713(3) 0.08643(8)
C12 C 0.16306(10) 0.9696(3) 0.15211(8)
H9 H 0.13270 1.04070 0.19210
C13 C 0.23496(10) 0.7637(3) 0.15829(8)
H10 H 0.25280 0.69610 0.20250
C14 C 0.15284(11) 1.0569(3) -0.04462(8)
H11 H 0.18240 0.97290 -0.08340
N1 N 0.37819(9) 0.3484(3) 0.15728(7)
N2 N 0.35733(9) 0.4457(3) 0.09814(7)
N3 N 0.08900(9) 1.2519(3) -0.05378(7)
O1 O 0.07228(9) 1.3084(3) -0.12469(6)
H12 H 0.03090 1.43500 -0.12850
O2 O 0.06514(8) 1.2764(2) 0.08272(6)
H13 H 0.05510 1.31820 0.04150
#END
