
#######################################################################
#
#                 Cambridge Crystallographic Data Centre
#                                CCDC
#
#######################################################################
#
# If this CIF has been generated from an entry in the Cambridge
# Structural Database, then it will include bibliographic, chemical,
# crystal, experimental, refinement or atomic coordinate data resulting
# from the CCDC's data processing and validation procedures.
#
#######################################################################

data_CSD_CIF_SEFPEY
_audit_creation_date 1990-06-07
_audit_creation_method CSD-ConQuest-V1
_database_code_CSD SEFPEY
_chemical_formula_sum 'C16 H17 N3 O3'
_chemical_formula_moiety
;
C16 H17 N3 O3
;
_journal_coeditor_code "IUCr PA0100"
_journal_coden_Cambridge 591
_journal_volume 46
_journal_year 1990
_journal_page_first 154
_journal_name_full 'Acta Crystallogr.,Sect.C:Cryst.Struct.Commun. '
loop_
_publ_author_name
"N.Rodier"
"J.-M.Robert"
"G.Le Baut"
_chemical_name_systematic
;
N-(4,6-Dimethyl-2-pyridyl)-2-(4-nitrophenyl)propionamide
;
_cell_volume   1509.754
_exptl_crystal_density_diffrn 1.317
_exptl_special_details
;
antiinflammatory agent

;
_diffrn_ambient_temperature ?
_diffrn_special_details
;
The study was carried out at room temperature,in the range 283-303K

;
#These two values have been output from a single CSD field.
_refine_ls_R_factor_gt 0.041
_refine_ls_wR_factor_gt 0.041
_symmetry_cell_setting monoclinic
_symmetry_space_group_name_H-M 'P 21/n'
_symmetry_Int_Tables_number 14
loop_
_symmetry_equiv_pos_site_id
_symmetry_equiv_pos_as_xyz
1 x,y,z
2 1/2-x,1/2+y,1/2-z
3 -x,-y,-z
4 -1/2+x,-1/2-y,-1/2+z
_cell_length_a 10.015(3)
_cell_length_b 11.531(3)
_cell_length_c 13.681(2)
_cell_angle_alpha 90
_cell_angle_beta 107.14(2)
_cell_angle_gamma 90
_cell_formula_units_Z 4
loop_
_atom_type_symbol
_atom_type_radius_bond
C 0.68
H 0.23
N 0.68
O 0.68
loop_
_atom_site_label
_atom_site_type_symbol
_atom_site_fract_x
_atom_site_fract_y
_atom_site_fract_z
N1 N 0.4136(3) 0.4976(3) 0.823(2)
C1 C 0.3998(4) 0.4000(4) 0.8729(3)
C2 C 0.3321(4) 0.3919(4) 0.9476(3)
C3 C 0.2756(4) 0.4922(4) 0.9741(3)
C4 C 0.2896(4) 0.5934(4) 0.9247(3)
C5 C 0.3593(4) 0.5944(4) 0.8518(3)
N2 N 0.4669(3) 0.3058(3) 0.8401(2)
C6 C 0.4750(4) 0.1935(4) 0.8712(3)
C7 C 0.5715(4) 0.1180(4) 0.8283(3)
C8 C 0.7188(4) 0.1252(3) 0.9017(3)
C9 C 0.7472(4) 0.0763(4) 0.9993(3)
C10 C 0.8778(4) 0.0845(4) 1.0680(3)
C11 C 0.9803(4) 0.1424(3) 1.0381(3)
C12 C 0.9580(4) 0.1889(4) 0.9438(3)
C13 C 0.8262(4) 0.1800(4) 0.8755(3)
C14 C 0.3817(5) 0.7036(4) 0.8002(4)
C15 C 0.2095(5) 0.4896(5) 1.0587(3)
O1 O 0.4173(3) 0.1546(3) 0.9302(2)
C16 C 0.5164(5) -0.0040(4) 0.8077(4)
N3 N 1.1208(3) 0.1537(3) 1.1118(3)
O2 O 1.1391(3) 0.1191(3) 1.1985(2)
O3 O 1.2121(3) 0.1963(3) 1.0833(3)
H1 H 0.32700 0.32500 0.97700
H2 H 0.25500 0.66300 0.94100
H3 H 0.54500 0.32800 0.80100
H4 H 0.57300 0.15200 0.76200
H5 H 0.67500 0.03700 1.01600
H6 H 0.89800 0.05900 1.13800
H7 H 1.04200 0.22300 0.92200
H8 H 0.80300 0.21000 0.80300
H9 H 0.32700 0.75800 0.81300
H10 H 0.35300 0.70400 0.72100
H11 H 0.46800 0.70900 0.80400
H12 H 0.13400 0.43600 1.03900
H13 H 0.16700 0.55900 1.07100
H14 H 0.28200 0.48400 1.13200
H15 H 0.50900 -0.04100 0.87300
H16 H 0.42500 0.00000 0.75700
H17 H 0.58000 -0.05700 0.77600
#END
