
#######################################################################
#
#                 Cambridge Crystallographic Data Centre
#                                CCDC
#
#######################################################################
#
# If this CIF has been generated from an entry in the Cambridge
# Structural Database, then it will include bibliographic, chemical,
# crystal, experimental, refinement or atomic coordinate data resulting
# from the CCDC's data processing and validation procedures.
#
#######################################################################

data_CSD_CIF_SEFQAX
_audit_creation_date 2013-02-22
_audit_creation_method CSD-ConQuest-V1
_database_code_CSD SEFQAX
_database_code_depnum_ccdc_archive 'CCDC 882549'
_chemical_formula_sum 'C21 H16 N2 O4'
_chemical_formula_moiety
;
C21 H16 N2 O4
;
_journal_coden_Cambridge 1200
_journal_volume 20
_journal_year 2012
_journal_page_first 6482
_journal_name_full 'Bioorg.Med.Chem. '
loop_
_publ_author_name
"K.C.G.Moura"
"P.F.Carneiro"
"M.do C.F.R.Pinto"
"J.A.da Silva"
"V.R.S.Malta"
"C.A.de Simone"
"G.G.Dias"
"G.A.M.Jardim"
"J.Cantos"
"T.S.Coelho"
"P.E.A.da Silva"
"E.N.da Silva Junior"
_chemical_name_systematic
;
5,5-Dimethyl-2-(4-nitrophenyl)-4,5-dihydrofuro[3',2':3,4]naphtho[1,2-d][1,3]ox
azole
;
_cell_volume    854.810
_exptl_crystal_density_diffrn 1.4
_exptl_special_details
;
tested for antimycobacterial activity

;
_diffrn_ambient_temperature 295
#These two values have been output from a single CSD field.
_refine_ls_R_factor_gt 0.0587
_refine_ls_wR_factor_gt 0.0587
_symmetry_cell_setting triclinic
_symmetry_space_group_name_H-M 'P -1'
_symmetry_Int_Tables_number 2
loop_
_symmetry_equiv_pos_site_id
_symmetry_equiv_pos_as_xyz
1 x,y,z
2 -x,-y,-z
_cell_length_a 9.7120(2)
_cell_length_b 9.9580(3)
_cell_length_c 11.0160(3)
_cell_angle_alpha 71.494(2)
_cell_angle_beta 66.509(2)
_cell_angle_gamma 62.478(2)
_cell_formula_units_Z 2
loop_
_atom_type_symbol
_atom_type_radius_bond
C 0.68
H 0.23
N 0.68
O 0.68
loop_
_atom_site_label
_atom_site_type_symbol
_atom_site_fract_x
_atom_site_fract_y
_atom_site_fract_z
O1 O 0.14591(11) 0.60090(11) 0.53324(9)
O2 O 0.49208(13) 0.84891(11) 0.20740(11)
N1 N 0.32878(14) 0.36012(13) 0.50352(12)
O3 O -0.42930(16) 0.32265(18) 1.00745(15)
O4 O -0.24285(17) 0.09709(16) 1.02603(15)
N2 N -0.28882(16) 0.23277(16) 0.97504(13)
C1 C 0.06002(16) 0.39330(15) 0.67250(13)
C2 C -0.09886(17) 0.49520(16) 0.71946(14)
H1 H -0.12770 0.59920 0.68420
C3 C 0.39655(15) 0.46458(15) 0.41761(12)
C4 C 0.18418(16) 0.44435(15) 0.56826(13)
C5 C 0.55294(15) 0.43924(14) 0.32182(12)
C6 C 0.28472(15) 0.61183(15) 0.43608(12)
C7 C 0.46702(16) 0.71820(15) 0.27401(13)
C8 C 0.67312(17) 0.29178(16) 0.29803(14)
H2 H 0.65080 0.20480 0.34520
C9 C 0.74302(17) 0.55101(17) 0.15167(14)
H3 H 0.76710 0.63640 0.10170
C10 C -0.16787(17) 0.28898(17) 0.86942(14)
C11 C 0.22140(18) 0.91198(16) 0.36352(17)
H4 H 0.17940 0.93830 0.45250
H5 H 0.13170 0.94810 0.32760
C12 C 0.58904(16) 0.57057(15) 0.24761(12)
C13 C 0.35135(17) 0.97954(15) 0.26902(15)
C14 C 0.10341(19) 0.23722(17) 0.72677(17)
H6 H 0.20970 0.16840 0.69590
C15 C 0.2981(2) 1.10148(19) 0.15513(17)
H7 H 0.26160 1.06290 0.10920
H8 H 0.38810 1.12810 0.09350
H9 H 0.21080 1.19090 0.19030
C16 C -0.01075(19) 0.18514(17) 0.82570(17)
H10 H 0.01760 0.08160 0.86250
C17 C 0.31599(16) 0.74291(15) 0.36603(13)
C18 C 0.82185(19) 0.27699(18) 0.20591(16)
H11 H 0.90080 0.17960 0.19210
C19 C 0.85702(18) 0.40648(19) 0.13208(16)
H12 H 0.95860 0.39430 0.06920
C20 C 0.4116(2) 1.0324(2) 0.34497(19)
H13 H 0.44470 0.95150 0.41570
H14 H 0.32580 1.12090 0.38260
H15 H 0.50250 1.05840 0.28490
C21 C -0.21489(17) 0.44366(17) 0.81835(15)
H16 H -0.32160 0.51160 0.84940
#END
