
#######################################################################
#
#                 Cambridge Crystallographic Data Centre
#                                CCDC
#
#######################################################################
#
# If this CIF has been generated from an entry in the Cambridge
# Structural Database, then it will include bibliographic, chemical,
# crystal, experimental, refinement or atomic coordinate data resulting
# from the CCDC's data processing and validation procedures.
#
#######################################################################

data_CSD_CIF_SEFTOP
_audit_creation_date 2017-10-30
_audit_creation_method CSD-ConQuest-V1
_database_code_CSD SEFTOP
_database_code_depnum_ccdc_archive 'CCDC 1568210'
_chemical_formula_sum 'C22 H20 N2 O4'
_chemical_formula_moiety
;
C22 H20 N2 O4
;
_journal_coden_Cambridge 1336
_journal_volume 19
_journal_year 2017
_journal_page_first 5681
_journal_name_full 'Org.Lett. '
loop_
_publ_author_name
"A.N.Baumann"
"M.Eisold"
"A.Music"
"G.Haas"
"Yu Min Kiw"
"D.Didier"
_chemical_name_systematic
;
t-butyl 4-(3-nitrophenyl)-3-(phenylethynyl)azete-1(2H)-carboxylate
;
_cell_volume   3884.182
_exptl_crystal_colour 'yellow'
_exptl_crystal_density_diffrn 1.287
_exptl_crystal_description 'platelet'
_diffrn_ambient_temperature 293
#These two values have been output from a single CSD field.
_refine_ls_R_factor_gt 0.0526
_refine_ls_wR_factor_gt 0.0526
_symmetry_cell_setting monoclinic
_symmetry_space_group_name_H-M 'C 2/c'
_symmetry_Int_Tables_number 15
loop_
_symmetry_equiv_pos_site_id
_symmetry_equiv_pos_as_xyz
1 x,y,z
2 -x,y,1/2-z
3 1/2+x,1/2+y,z
4 1/2-x,1/2+y,1/2-z
5 -x,-y,-z
6 x,-y,-1/2+z
7 -1/2-x,-1/2-y,-z
8 -1/2+x,-1/2-y,-1/2+z
_cell_length_a 26.9517(18)
_cell_length_b 5.8568(4)
_cell_length_c 24.9143(16)
_cell_angle_alpha 90
_cell_angle_beta 99.013(2)
_cell_angle_gamma 90
_cell_formula_units_Z 8
loop_
_atom_type_symbol
_atom_type_radius_bond
C 0.68
H 0.23
N 0.68
O 0.68
loop_
_atom_site_label
_atom_site_type_symbol
_atom_site_fract_x
_atom_site_fract_y
_atom_site_fract_z
O1 O 0.12067(6) 0.5587(3) 0.38299(7)
O2 O 0.15737(7) 0.6985(4) 0.31348(8)
O3 O 0.41438(8) 0.2088(4) 0.32387(10)
O4 O 0.44039(8) 0.5022(4) 0.28481(10)
N1 N 0.19998(8) 0.4899(4) 0.38265(9)
N2 N 0.40813(9) 0.4004(5) 0.30435(10)
C1 C 0.15843(9) 0.5924(5) 0.35522(10)
C2 C 0.20094(10) 0.2951(5) 0.42090(11)
H1 H 0.17550 0.18000 0.41000
H2 H 0.20200 0.33890 0.45860
C3 C 0.25165(9) 0.2416(4) 0.40537(10)
C4 C 0.24762(8) 0.4210(4) 0.37000(9)
C5 C 0.28074(9) 0.5246(4) 0.33630(9)
C6 C 0.32587(9) 0.4140(4) 0.33318(10)
H3 H 0.33310 0.27420 0.35030
C7 C 0.35971(9) 0.5135(4) 0.30447(10)
C8 C 0.35068(10) 0.7194(5) 0.27817(11)
H4 H 0.37430 0.78390 0.25920
C9 C 0.30584(10) 0.8272(5) 0.28065(11)
H5 H 0.29880 0.96560 0.26280
C10 C 0.27105(10) 0.7325(4) 0.30937(10)
H6 H 0.24090 0.80800 0.31080
C11 C 0.28859(10) 0.0785(5) 0.42352(10)
C12 C 0.32048(10) -0.0631(5) 0.43714(10)
C13 C 0.35900(9) -0.2303(4) 0.44932(10)
C14 C 0.35263(10) -0.4185(4) 0.48151(11)
H7 H 0.32350 -0.43290 0.49690
C15 C 0.38918(10) -0.5833(5) 0.49075(11)
H8 H 0.38460 -0.70920 0.51220
C16 C 0.43233(11) -0.5635(5) 0.46861(12)
H9 H 0.45700 -0.67550 0.47510
C17 C 0.43917(11) -0.3790(5) 0.43702(12)
H10 H 0.46860 -0.36630 0.42210
C18 C 0.40304(10) -0.2118(5) 0.42702(11)
H11 H 0.40800 -0.08690 0.40540
C19 C 0.06939(9) 0.6442(4) 0.36297(10)
C20 C 0.04116(11) 0.5671(6) 0.40766(12)
H12 H 0.00650 0.61120 0.39880
H13 H 0.05560 0.63710 0.44130
H14 H 0.04340 0.40410 0.41120
C21 C 0.04896(11) 0.5312(5) 0.30989(11)
H15 H 0.01420 0.57140 0.29960
H16 H 0.05190 0.36850 0.31390
H17 H 0.06770 0.58140 0.28230
C22 C 0.07004(11) 0.9020(5) 0.35889(13)
H18 H 0.03620 0.95790 0.35110
H19 H 0.08810 0.94650 0.33030
H20 H 0.08620 0.96510 0.39270
#END
