
#######################################################################
#
#                 Cambridge Crystallographic Data Centre
#                                CCDC
#
#######################################################################
#
# If this CIF has been generated from an entry in the Cambridge
# Structural Database, then it will include bibliographic, chemical,
# crystal, experimental, refinement or atomic coordinate data resulting
# from the CCDC's data processing and validation procedures.
#
#######################################################################

data_CSD_CIF_SEHYOV
_audit_creation_date 2013-02-22
_audit_creation_method CSD-ConQuest-V1
_database_code_CSD SEHYOV
_database_code_depnum_ccdc_archive 'CCDC 896684'
_chemical_formula_sum 'C11 H9 N1 O3'
_chemical_formula_moiety
;
C11 H9 N1 O3
;
_journal_coden_Cambridge 1475
_journal_volume 3
_journal_year 2012
_journal_page_first 3436
_journal_name_full 'Chemical Science '
loop_
_publ_author_name
"R.T.McBurney"
"A.D.Harper"
"A.M.Z.Slawin"
"J.C.Walton"
_chemical_name_systematic
;
((Benzylideneamino)oxy)(prop-2-yn-1-yloxy)methanone
;
_cell_volume   1003.735
_exptl_crystal_colour 'colorless'
_exptl_crystal_density_diffrn 1.345
_exptl_crystal_description 'prism'
_diffrn_ambient_temperature 93
#These two values have been output from a single CSD field.
_refine_ls_R_factor_gt 0.1057
_refine_ls_wR_factor_gt 0.1057
_symmetry_cell_setting orthorhombic
_symmetry_space_group_name_H-M 'P n m a'
_symmetry_Int_Tables_number 62
loop_
_symmetry_equiv_pos_site_id
_symmetry_equiv_pos_as_xyz
1 x,y,z
2 1/2-x,-y,1/2+z
3 1/2+x,1/2-y,1/2-z
4 -x,1/2+y,-z
5 -x,-y,-z
6 -1/2+x,y,-1/2-z
7 -1/2-x,-1/2+y,-1/2+z
8 x,-1/2-y,z
_cell_length_a 19.168(13)
_cell_length_b 6.189(5)
_cell_length_c 8.461(5)
_cell_angle_alpha 90
_cell_angle_beta 90
_cell_angle_gamma 90
_cell_formula_units_Z 4
loop_
_atom_type_symbol
_atom_type_radius_bond
C 0.68
H 0.23
N 0.68
O 0.68
loop_
_atom_site_label
_atom_site_type_symbol
_atom_site_fract_x
_atom_site_fract_y
_atom_site_fract_z
O1 O 0.59412(14) 0.75000 -0.0557(3)
O2 O 0.47705(12) 0.75000 0.0015(3)
O3 O 0.52096(12) 0.75000 -0.2473(3)
N1 N 0.60559(16) 0.75000 0.1130(4)
C1 C 0.70018(19) 0.75000 0.2963(5)
C2 C 0.6579(2) 0.75000 0.4311(5)
C3 C 0.6880(2) 0.75000 0.5792(4)
C4 C 0.7600(2) 0.75000 0.5963(5)
C5 C 0.8029(2) 0.75000 0.4647(5)
C6 C 0.77310(19) 0.75000 0.3141(5)
C7 C 0.6708(2) 0.75000 0.1354(4)
C8 C 0.52486(19) 0.75000 -0.0884(5)
C9 C 0.4499(2) 0.75000 -0.3060(4)
C10 C 0.45361(19) 0.75000 -0.4797(4)
C11 C 0.45514(19) 0.75000 -0.6208(5)
H1 H 0.60850 0.75000 0.42070
H2 H 0.65910 0.75000 0.67050
H3 H 0.78000 0.75000 0.69900
H4 H 0.85210 0.75000 0.47670
H5 H 0.80220 0.75000 0.22330
H6 H 0.70140 0.75000 0.04700
H7 H 0.42470 0.87980 -0.26820
H8 H 0.45640 0.75000 -0.73300
H7G H 0.42470 0.62020 -0.26820
#END
