
#######################################################################
#
#                 Cambridge Crystallographic Data Centre
#                                CCDC
#
#######################################################################
#
# If this CIF has been generated from an entry in the Cambridge
# Structural Database, then it will include bibliographic, chemical,
# crystal, experimental, refinement or atomic coordinate data resulting
# from the CCDC's data processing and validation procedures.
#
#######################################################################

data_CSD_CIF_SEJCUG
_audit_creation_date 2006-10-10
_audit_creation_method CSD-ConQuest-V1
_database_code_CSD SEJCUG
_database_code_depnum_ccdc_archive 'CCDC 261171'
_chemical_formula_sum 'C19 H18 N2 O2'
_chemical_formula_moiety
;
C19 H18 N2 O2
;
_journal_coden_Cambridge 35
_journal_volume 71
_journal_year 2006
_journal_page_first 3221
_journal_name_full 'J.Org.Chem. '
loop_
_publ_author_name
"C.K.Y.Lee"
"A.J.Herlt"
"G.W.Simpson"
"A.C.Willis"
"C.J.Easton"
_chemical_name_systematic
;
5-Phenyl-3-(2,4,6-trimethylphenyl)isoxazole-4-carboxamide
;
_chemical_melting_point 465.15
_cell_volume   1632.176
_exptl_crystal_colour 'colorless'
_exptl_crystal_density_diffrn 1.247
_exptl_special_details
;
Melting point range 465.15-466.15K

;
_exptl_crystal_description 'block'
_exptl_crystal_preparation 'acetone/hexanes'
_diffrn_ambient_temperature 200.0
#These two values have been output from a single CSD field.
_refine_ls_R_factor_gt 0.0444
_refine_ls_wR_factor_gt 0.0444
_symmetry_cell_setting monoclinic
_symmetry_space_group_name_H-M 'P 21/n'
_symmetry_Int_Tables_number 14
loop_
_symmetry_equiv_pos_site_id
_symmetry_equiv_pos_as_xyz
1 x,y,z
2 1/2-x,1/2+y,1/2-z
3 -x,-y,-z
4 -1/2+x,-1/2-y,-1/2+z
_cell_length_a 14.4024(3)
_cell_length_b 6.3863(1)
_cell_length_c 18.4534(5)
_cell_angle_alpha 90
_cell_angle_beta 105.924(1)
_cell_angle_gamma 90
_cell_formula_units_Z 4
loop_
_atom_type_symbol
_atom_type_radius_bond
C 0.68
H 0.23
N 0.68
O 0.68
loop_
_atom_site_label
_atom_site_type_symbol
_atom_site_fract_x
_atom_site_fract_y
_atom_site_fract_z
O1 O 0.5225(1) 0.7070(2) 0.1913(1)
O2 O 0.5622(1) 0.2348(2) 0.0432(1)
N1 N 0.4263(1) 0.6539(3) 0.1891(1)
N2 N 0.4265(2) 0.0986(3) 0.0594(1)
C1 C 0.4074(2) 0.4826(3) 0.1489(1)
C2 C 0.4880(1) 0.4184(3) 0.1230(1)
C3 C 0.5571(2) 0.5639(3) 0.1515(1)
C4 C 0.3100(2) 0.3875(3) 0.1359(1)
C5 C 0.2965(2) 0.2217(3) 0.1820(1)
C6 C 0.2049(2) 0.1362(3) 0.1684(1)
C7 C 0.1276(2) 0.2080(4) 0.1120(1)
C8 C 0.1433(2) 0.3710(4) 0.0676(1)
C9 C 0.2332(2) 0.4647(4) 0.0784(1)
C10 C 0.4947(2) 0.2435(3) 0.0719(1)
C11 C 0.6574(2) 0.6018(3) 0.1499(1)
C12 C 0.7266(2) 0.4480(4) 0.1718(1)
C13 C 0.8213(2) 0.4905(5) 0.1725(2)
C14 C 0.8457(2) 0.6836(5) 0.1502(2)
C15 C 0.7769(2) 0.8352(5) 0.1283(2)
C16 C 0.6832(2) 0.7958(4) 0.1289(2)
C17 C 0.3782(2) 0.1395(4) 0.2451(2)
C18 C 0.0282(2) 0.1155(5) 0.1009(2)
C19 C 0.2471(2) 0.6472(4) 0.0302(2)
H1 H 0.427(2) -0.007(4) 0.027(2)
H2 H 0.377(2) 0.111(4) 0.076(2)
H3 H 0.19510 0.02370 0.19920
H4 H 0.09060 0.42100 0.02820
H5 H 0.41450 0.25360 0.27160
H6 H 0.41880 0.05340 0.22500
H7 H 0.35280 0.05970 0.27870
H8 H 0.03030 -0.03060 0.09180
H9 H 0.00740 0.13820 0.14480
H10 H -0.01570 0.18070 0.05890
H11 H 0.19060 0.66500 -0.01040
H12 H 0.25880 0.77090 0.05990
H13 H 0.30070 0.62030 0.01090
H14 H 0.70960 0.31380 0.18630
H15 H 0.86950 0.38590 0.18840
H16 H 0.91040 0.71140 0.15000
H17 H 0.79370 0.96810 0.11250
H18 H 0.63590 0.90290 0.11470
#END
