
#######################################################################
#
#                 Cambridge Crystallographic Data Centre
#                                CCDC
#
#######################################################################
#
# If this CIF has been generated from an entry in the Cambridge
# Structural Database, then it will include bibliographic, chemical,
# crystal, experimental, refinement or atomic coordinate data resulting
# from the CCDC's data processing and validation procedures.
#
#######################################################################

data_CSD_CIF_SEJDIV
_audit_creation_date 2006-10-10
_audit_creation_method CSD-ConQuest-V1
_database_code_CSD SEJDIV
_database_code_depnum_ccdc_archive 'CCDC 261174'
_chemical_formula_sum 'C29 H37 N1 O3'
_chemical_formula_moiety
;
C29 H37 N1 O3
;
_journal_coden_Cambridge 35
_journal_volume 71
_journal_year 2006
_journal_page_first 3221
_journal_name_full 'J.Org.Chem. '
loop_
_publ_author_name
"C.K.Y.Lee"
"A.J.Herlt"
"G.W.Simpson"
"A.C.Willis"
"C.J.Easton"
_chemical_name_systematic
;
(-)-(1R,2S)-2-Phenylcyclohexyl 
(4R,5R)-5-t-butyl-3-(2,4,6-trimethylphenyl)-\D^2^-isoxazoline-4-carboxylate
;
_chemical_melting_point 365.15
_cell_volume   2648.921
_exptl_crystal_colour 'colorless'
_exptl_crystal_density_diffrn 1.122
_exptl_special_details
;
Melting point range 365.15-366.15K

;
_exptl_crystal_description 'block'
_exptl_crystal_preparation 'hexanes/diethyl ether'
_diffrn_ambient_temperature 200
#These two values have been output from a single CSD field.
_refine_ls_R_factor_gt 0.0353
_refine_ls_wR_factor_gt 0.0353
_symmetry_cell_setting orthorhombic
_symmetry_space_group_name_H-M 'P 21 21 21'
_symmetry_Int_Tables_number 19
loop_
_symmetry_equiv_pos_site_id
_symmetry_equiv_pos_as_xyz
1 x,y,z
2 1/2+x,1/2-y,-z
3 -x,1/2+y,1/2-z
4 1/2-x,-y,1/2+z
_cell_length_a 7.6385(1)
_cell_length_b 11.8594(1)
_cell_length_c 29.2414(4)
_cell_angle_alpha 90
_cell_angle_beta 90
_cell_angle_gamma 90
_cell_formula_units_Z 4
loop_
_atom_type_symbol
_atom_type_radius_bond
C 0.68
H 0.23
N 0.68
O 0.68
loop_
_atom_site_label
_atom_site_type_symbol
_atom_site_fract_x
_atom_site_fract_y
_atom_site_fract_z
O1 O 0.5332(3) 0.58447(16) 0.30467(7)
O2 O 0.3003(2) 0.73449(18) 0.40802(6)
O3 O 0.0386(2) 0.74534(15) 0.37274(5)
N1 N 0.4354(3) 0.4971(2) 0.32537(8)
C1 C 0.2909(3) 0.5371(2) 0.34093(8)
C2 C 0.2697(3) 0.6627(2) 0.33166(8)
C3 C 0.4559(4) 0.6926(2) 0.31712(9)
C4 C 0.1679(4) 0.4688(2) 0.36760(9)
C5 C 0.0004(4) 0.4448(2) 0.35024(11)
C6 C -0.1163(5) 0.3835(3) 0.37820(14)
C7 C -0.0699(6) 0.3482(3) 0.42083(15)
C8 C 0.0949(5) 0.3733(3) 0.43770(13)
C9 C 0.2159(5) 0.4324(2) 0.4116(1)
C10 C 0.2096(3) 0.7201(2) 0.37527(8)
C11 C -0.0471(3) 0.7863(2) 0.41448(8)
C12 C -0.1857(4) 0.7008(2) 0.42760(9)
C13 C -0.2865(4) 0.7404(3) 0.46950(9)
C14 C -0.3638(4) 0.8577(3) 0.46230(11)
C15 C -0.2229(4) 0.9418(3) 0.4476(1)
C16 C -0.1250(4) 0.9012(2) 0.40464(9)
C17 C 0.0086(4) 0.9879(2) 0.3891(1)
C18 C 0.4767(4) 0.7754(2) 0.27748(8)
C19 C -0.0526(4) 0.4819(3) 0.30297(12)
C20 C -0.1973(7) 0.2818(4) 0.4506(2)
C21 C 0.3951(5) 0.4562(4) 0.43089(11)
C22 C -0.0186(6) 1.0495(3) 0.34959(13)
C23 C 0.0982(8) 1.1313(4) 0.33583(18)
C24 C 0.2446(8) 1.1524(3) 0.3602(2)
C25 C 0.2789(6) 1.0920(3) 0.39993(18)
C26 C 0.1595(4) 1.0088(3) 0.41456(13)
C27 C 0.6751(4) 0.7894(3) 0.26833(11)
C28 C 0.3880(4) 0.7342(3) 0.23396(9)
C29 C 0.4011(5) 0.8889(2) 0.29267(11)
H1 H 0.1811(3) 0.6855(2) 0.30825(8)
H2 H 0.5130(4) 0.7338(2) 0.34297(9)
H3 H -0.2356(5) 0.3649(3) 0.36633(14)
H4 H 0.1279(5) 0.3481(3) 0.46918(13)
H5 H 0.0366(3) 0.7945(2) 0.44055(8)
H6 H -0.1284(4) 0.6268(2) 0.43442(9)
H7 H -0.2692(4) 0.6914(2) 0.40152(9)
H8 H -0.2050(4) 0.7425(3) 0.49626(9)
H9 H -0.3837(4) 0.6861(3) 0.47584(9)
H10 H -0.4179(4) 0.8841(3) 0.49155(11)
H11 H -0.4556(4) 0.8537(3) 0.43797(11)
H12 H -0.1368(4) 0.9510(3) 0.4731(1)
H13 H -0.2794(4) 1.0161(3) 0.4409(1)
H14 H -0.2075(4) 0.8930(2) 0.37831(9)
H15 H -0.1756(4) 0.4573(3) 0.29681(12)
H16 H -0.0451(4) 0.5659(3) 0.30080(12)
H17 H 0.0275(4) 0.4470(3) 0.27992(12)
H18 H -0.1409(7) 0.2637(4) 0.4805(2)
H19 H -0.3051(7) 0.3278(4) 0.4560(2)
H20 H -0.2297(7) 0.2102(4) 0.4346(2)
H21 H 0.4040(5) 0.4239(4) 0.46240(11)
H22 H 0.4144(5) 0.5395(4) 0.43221(11)
H23 H 0.4859(5) 0.4209(4) 0.41083(11)
H24 H -0.1242(6) 1.0342(3) 0.33034(13)
H25 H 0.0744(8) 1.1760(4) 0.30752(18)
H26 H 0.3290(8) 1.2115(3) 0.3498(2)
H27 H 0.3877(6) 1.1067(3) 0.41800(18)
H28 H 0.1822(4) 0.9654(3) 0.44327(13)
H29 H 0.4131(5) 0.9445(2) 0.26716(11)
H30 H 0.4665(5) 0.9168(2) 0.32006(11)
H31 H 0.2745(5) 0.8797(2) 0.30058(11)
H32 H 0.4056(4) 0.7912(3) 0.20918(9)
H33 H 0.2599(4) 0.7239(3) 0.23958(9)
H34 H 0.4408(4) 0.6607(3) 0.22445(9)
H35 H 0.6922(4) 0.8431(3) 0.24237(11)
H36 H 0.7337(4) 0.8197(3) 0.29633(11)
H37 H 0.7275(4) 0.7147(3) 0.26026(11)
#END
