
#######################################################################
#
#                 Cambridge Crystallographic Data Centre
#                                CCDC
#
#######################################################################
#
# If this CIF has been generated from an entry in the Cambridge
# Structural Database, then it will include bibliographic, chemical,
# crystal, experimental, refinement or atomic coordinate data resulting
# from the CCDC's data processing and validation procedures.
#
#######################################################################

data_CSD_CIF_SEKBUI
_audit_creation_date 2017-10-31
_audit_creation_method CSD-ConQuest-V1
_database_code_CSD SEKBUI
_database_code_depnum_ccdc_archive 'CCDC 1056834'
_chemical_formula_sum 'C23 H20 N2 O6'
_chemical_formula_moiety
;
C23 H20 N2 O6
;
_journal_coden_Cambridge 1291
_journal_year 2017
_journal_page_first 3461
_journal_name_full 'Eur.J.Org.Chem. '
loop_
_publ_author_name
"P.Ramaraju"
"N.A.Mir"
"Deepika Singh"
"P.Sharma"
"R.Kant"
"I.Kumar"
_chemical_name_systematic
;
(E)-ethyl 
3-(4-formyl-1-(4-methoxyphenyl)-5-(4-nitrophenyl)-1H-pyrrol-2-yl)acrylate
;
_cell_volume   1051.389
_exptl_crystal_colour 'yellow'
_exptl_crystal_density_diffrn 1.328
_exptl_crystal_description 'Block'
_diffrn_ambient_temperature 293
#These two values have been output from a single CSD field.
_refine_ls_R_factor_gt 0.0572
_refine_ls_wR_factor_gt 0.0572
_symmetry_cell_setting triclinic
_symmetry_space_group_name_H-M 'P -1'
_symmetry_Int_Tables_number 2
loop_
_symmetry_equiv_pos_site_id
_symmetry_equiv_pos_as_xyz
1 x,y,z
2 -x,-y,-z
_cell_length_a 7.8222(6)
_cell_length_b 9.7322(8)
_cell_length_c 14.2060(11)
_cell_angle_alpha 80.178(7)
_cell_angle_beta 85.746(7)
_cell_angle_gamma 81.055(7)
_cell_formula_units_Z 2
loop_
_atom_type_symbol
_atom_type_radius_bond
C 0.68
H 0.23
N 0.68
O 0.68
loop_
_atom_site_label
_atom_site_type_symbol
_atom_site_fract_x
_atom_site_fract_y
_atom_site_fract_z
O1 O 1.6696(3) -0.1191(3) 0.39935(15)
N1 N 0.9868(3) 0.4770(2) 0.29425(12)
C1 C 0.8243(3) 0.5532(3) 0.31309(17)
C2 C 0.7682(3) 0.4997(3) 0.40295(16)
H1 H 0.66480 0.53170 0.43430
O2 O 0.3555(2) 0.89342(19) 0.18564(11)
C3 C 1.0289(3) 0.3756(3) 0.37107(15)
O3 O 1.3206(3) 0.5442(3) -0.06507(13)
C4 C 1.1945(3) 0.2798(3) 0.37261(15)
C5 C 1.0867(3) 0.3948(3) 0.14477(17)
H2 H 1.03320 0.31520 0.16490
C6 C 1.0826(3) 0.4936(3) 0.20369(16)
C7 C 1.5039(3) 0.1016(3) 0.37493(16)
C8 C 1.3499(3) 0.3334(3) 0.36479(16)
H3 H 1.34920 0.43010 0.35880
C9 C 1.1977(3) 0.1355(3) 0.38172(16)
H4 H 1.09390 0.09870 0.38720
O4 O 0.7701(3) 0.3147(2) 0.59307(13)
C10 C 1.3537(4) 0.0450(3) 0.38280(16)
H5 H 1.35560 -0.05190 0.38870
C11 C 1.5057(3) 0.2444(3) 0.36585(17)
H6 H 1.61010 0.28030 0.36050
N2 N 1.6707(4) 0.0072(4) 0.37665(18)
C12 C 0.8942(3) 0.3871(3) 0.44033(16)
C13 C 1.2460(3) 0.5337(4) 0.02522(18)
C14 C 0.5234(4) 0.8499(3) 0.17491(19)
C15 C 1.2447(3) 0.6312(3) 0.08456(19)
H7 H 1.29800 0.71090 0.06440
C16 C 0.5844(3) 0.7292(3) 0.24614(16)
H8 H 0.50760 0.69600 0.29480
C17 C 0.7455(3) 0.6662(3) 0.24311(16)
H9 H 0.81590 0.69760 0.19070
C18 C 1.1634(3) 0.6100(3) 0.17472(17)
H10 H 1.16370 0.67500 0.21570
C19 C 1.1697(4) 0.4139(3) 0.05623(18)
H11 H 1.17490 0.34610 0.01680
C20 C 0.8913(4) 0.3035(3) 0.53450(18)
H12 H 0.98750 0.23710 0.55150
O5 O 0.6107(3) 0.9036(3) 0.11195(19)
O6 O 1.8016(3) 0.0599(3) 0.3570(2)
C21 C 0.2795(4) 1.0146(3) 0.1208(2)
H13 H 0.32380 1.00830 0.05590
H14 H 0.30840 1.10030 0.13800
C22 C 0.0883(4) 1.0172(3) 0.1278(2)
H15 H 0.06080 0.93350 0.10880
H16 H 0.03470 1.09860 0.08650
H17 H 0.04600 1.02130 0.19260
C23 C 1.3800(4) 0.6730(4) -0.1057(2)
H18 H 1.28530 0.74890 -0.10690
H19 H 1.42590 0.66750 -0.16970
H20 H 1.46910 0.68990 -0.06780
#END
