
#######################################################################
#
#                 Cambridge Crystallographic Data Centre
#                                CCDC
#
#######################################################################
#
# If this CIF has been generated from an entry in the Cambridge
# Structural Database, then it will include bibliographic, chemical,
# crystal, experimental, refinement or atomic coordinate data resulting
# from the CCDC's data processing and validation procedures.
#
#######################################################################

data_CSD_CIF_SEKFOE
_audit_creation_date 2006-10-10
_audit_creation_method CSD-ConQuest-V1
_database_code_CSD SEKFOE
_database_code_depnum_ccdc_archive 'CCDC 294868'
_chemical_formula_sum 'C14 H18 N3 O3'
_chemical_formula_moiety
;
C14 H18 N3 O3
;
_journal_coden_Cambridge 1220
_journal_volume 12
_journal_year 2006
_journal_page_first 5134
_journal_name_full 'Chem.-Eur.J. '
loop_
_publ_author_name
"P.Brough"
"J.Pecaut"
"A.Rassat"
"P.Rey"
_chemical_name_systematic
;
2-(p-Nitrophenyl)-4,4,6,6-tetramethyl-1,4,5,6-tetrahydropyrimidine-1-oxyl
;
_chemical_melting_point 394.15
_cell_volume   1414.913
_exptl_crystal_density_diffrn 1.297
_diffrn_ambient_temperature 298
#These two values have been output from a single CSD field.
_refine_ls_R_factor_gt 0.0407
_refine_ls_wR_factor_gt 0.0407
_symmetry_cell_setting monoclinic
_symmetry_space_group_name_H-M 'P 21/n'
_symmetry_Int_Tables_number 14
loop_
_symmetry_equiv_pos_site_id
_symmetry_equiv_pos_as_xyz
1 x,y,z
2 1/2-x,1/2+y,1/2-z
3 -x,-y,-z
4 -1/2+x,-1/2-y,-1/2+z
_cell_length_a 12.2972(16)
_cell_length_b 8.9307(12)
_cell_length_c 12.9327(18)
_cell_angle_alpha 90
_cell_angle_beta 94.993(3)
_cell_angle_gamma 90
_cell_formula_units_Z 4
loop_
_atom_type_symbol
_atom_type_radius_bond
C 0.68
H 0.23
N 0.68
O 0.68
loop_
_atom_site_label
_atom_site_type_symbol
_atom_site_fract_x
_atom_site_fract_y
_atom_site_fract_z
N1 N 0.20997(12) 0.26124(16) 0.51725(12)
N2 N 0.22285(11) 0.08534(17) 0.65585(12)
N3 N -0.28769(13) 0.1702(2) 0.65651(14)
O1 O 0.14673(11) 0.32603(16) 0.44735(12)
O2 O -0.32755(11) 0.05342(18) 0.68380(13)
O3 O -0.33924(12) 0.28631(19) 0.64464(16)
C1 C 0.16593(13) 0.16927(19) 0.59243(14)
C2 C 0.32974(14) 0.29127(19) 0.52176(15)
C3 C 0.38614(17) 0.1463(2) 0.56085(17)
H1 H 0.3783(14) 0.074(2) 0.5002(15)
H2 H 0.4648(17) 0.167(2) 0.5708(15)
C4 C 0.34250(14) 0.0732(2) 0.65529(14)
C5 C 0.3597(2) 0.3247(3) 0.4130(2)
H3 H 0.440(2) 0.333(2) 0.4173(16)
H4 H 0.3239(16) 0.417(2) 0.3841(16)
H5 H 0.3362(17) 0.240(3) 0.3629(18)
C6 C 0.3539(2) 0.4278(3) 0.5912(2)
H6 H 0.3304(15) 0.419(2) 0.6540(15)
H7 H 0.442(2) 0.438(3) 0.6001(18)
H8 H 0.3253(16) 0.519(3) 0.5515(17)
C7 C 0.3683(2) -0.0943(3) 0.6528(2)
H9 H 0.3364(16) -0.147(2) 0.5826(17)
H10 H 0.3467(16) -0.140(2) 0.7056(17)
H11 H 0.4579(18) -0.115(2) 0.6530(16)
C8 C 0.3916(2) 0.1382(4) 0.75873(19)
H12 H 0.3670(16) 0.086(2) 0.8117(17)
H13 H 0.3784(18) 0.250(3) 0.7617(18)
H14 H 0.477(2) 0.130(2) 0.7627(17)
C9 C 0.04546(13) 0.17320(19) 0.59976(13)
C10 C -0.00468(15) 0.0417(2) 0.62858(14)
H15 H 0.0362(13) -0.0488(19) 0.6358(12)
C11 C -0.11397(15) 0.0389(2) 0.64693(15)
H16 H -0.1499(15) -0.053(2) 0.6679(14)
C12 C -0.17214(13) 0.1705(2) 0.63574(14)
C13 C -0.12550(15) 0.3033(2) 0.60810(16)
H17 H -0.1727(16) 0.395(2) 0.6065(16)
C14 C -0.01666(16) 0.3032(2) 0.58934(16)
H18 H 0.0172(14) 0.390(2) 0.5718(14)
#END
