
#######################################################################
#
#                 Cambridge Crystallographic Data Centre
#                                CCDC
#
#######################################################################
#
# If this CIF has been generated from an entry in the Cambridge
# Structural Database, then it will include bibliographic, chemical,
# crystal, experimental, refinement or atomic coordinate data resulting
# from the CCDC's data processing and validation procedures.
#
#######################################################################

data_CSD_CIF_SEKGEV
_audit_creation_date 2006-10-10
_audit_creation_method CSD-ConQuest-V1
_database_code_CSD SEKGEV
_database_code_depnum_ccdc_archive 'CCDC 294870'
_chemical_formula_sum 'C14 H18 N3 O4'
_chemical_formula_moiety
;
C14 H18 N3 O4
;
_journal_coden_Cambridge 1220
_journal_volume 12
_journal_year 2006
_journal_page_first 5134
_journal_name_full 'Chem.-Eur.J. '
loop_
_publ_author_name
"P.Brough"
"J.Pecaut"
"A.Rassat"
"P.Rey"
_chemical_name_systematic
;
2-(p-Nitrophenyl)-4,4,6,6-tetramethyl-1,4,5,6-tetrahydropyrimidine-3-oxide-1-o
xyl
;
_chemical_melting_point 464.15
_cell_volume   1469.733
_exptl_crystal_density_diffrn 1.321
_diffrn_ambient_temperature 298
#These two values have been output from a single CSD field.
_refine_ls_R_factor_gt 0.0619
_refine_ls_wR_factor_gt 0.0619
_symmetry_cell_setting monoclinic
_symmetry_space_group_name_H-M 'P 21/n'
_symmetry_Int_Tables_number 14
loop_
_symmetry_equiv_pos_site_id
_symmetry_equiv_pos_as_xyz
1 x,y,z
2 1/2-x,1/2+y,1/2-z
3 -x,-y,-z
4 -1/2+x,-1/2-y,-1/2+z
_cell_length_a 8.4281(9)
_cell_length_b 8.8158(9)
_cell_length_c 20.090(2)
_cell_angle_alpha 90
_cell_angle_beta 100.063(2)
_cell_angle_gamma 90
_cell_formula_units_Z 4
loop_
_atom_type_symbol
_atom_type_radius_bond
C 0.68
H 0.23
N 0.68
O 0.68
loop_
_atom_site_label
_atom_site_type_symbol
_atom_site_fract_x
_atom_site_fract_y
_atom_site_fract_z
O1 O 0.8727(2) 0.5186(2) 0.1590(1)
O2 O 1.2198(2) 0.8519(2) 0.08569(11)
O3 O 0.5067(3) 1.1553(3) 0.17144(11)
O4 O 0.5076(3) 1.1958(3) 0.06666(12)
N1 N 1.0145(2) 0.5476(2) 0.14704(10)
N2 N 1.1890(2) 0.7171(2) 0.1035(1)
N3 N 0.5623(3) 1.1347(3) 0.12005(13)
C1 C 1.0488(3) 0.6865(3) 0.12536(12)
C2 C 1.1359(3) 0.4219(3) 0.16117(13)
C3 C 1.3021(3) 0.4844(3) 0.15321(14)
H1 H 1.34840 0.53450 0.19510
H2 H 1.37110 0.39890 0.14760
C4 C 1.3081(3) 0.5941(3) 0.09572(13)
C5 C 1.1477(4) 0.3778(4) 0.23454(16)
H3 H 1.04630 0.33760 0.24170
H4 H 1.17440 0.46560 0.26250
H5 H 1.23010 0.30230 0.24600
C6 C 1.0765(4) 0.2893(4) 0.11587(19)
H6 H 0.97300 0.25760 0.12440
H7 H 1.15150 0.20680 0.12500
H8 H 1.06740 0.31940 0.06940
C7 C 1.4764(4) 0.6639(4) 0.10687(19)
H9 H 1.50270 0.70160 0.15230
H10 H 1.47890 0.74580 0.07560
H11 H 1.55350 0.58810 0.09970
C8 C 1.2649(4) 0.5344(4) 0.02422(14)
H12 H 1.15900 0.49050 0.01770
H13 H 1.34150 0.45850 0.01680
H14 H 1.26660 0.61620 -0.00720
C9 C 0.9274(3) 0.8091(3) 0.12401(12)
C10 C 0.8672(3) 0.8831(3) 0.06417(13)
H15 H 0.90700 0.86010 0.02500
C11 C 0.7474(3) 0.9915(3) 0.06273(13)
H16 H 0.70450 1.04080 0.02270
C12 C 0.6938(3) 1.0245(3) 0.12177(12)
C13 C 0.7547(3) 0.9571(3) 0.18227(13)
H17 H 0.71890 0.98490 0.22180
C14 C 0.8711(3) 0.8465(3) 0.18268(12)
H18 H 0.91210 0.79670 0.22280
#END
