
#######################################################################
#
#                 Cambridge Crystallographic Data Centre
#                                CCDC
#
#######################################################################
#
# If this CIF has been generated from an entry in the Cambridge
# Structural Database, then it will include bibliographic, chemical,
# crystal, experimental, refinement or atomic coordinate data resulting
# from the CCDC's data processing and validation procedures.
#
#######################################################################

data_CSD_CIF_SEKGOF
_audit_creation_date 2006-10-10
_audit_creation_method CSD-ConQuest-V1
_database_code_CSD SEKGOF
_database_code_depnum_ccdc_archive 'CCDC 294872'
_chemical_formula_sum 'C13 H18 N3 O2'
_chemical_formula_moiety
;
C13 H18 N3 O2
;
_journal_coden_Cambridge 1220
_journal_volume 12
_journal_year 2006
_journal_page_first 5134
_journal_name_full 'Chem.-Eur.J. '
loop_
_publ_author_name
"P.Brough"
"J.Pecaut"
"A.Rassat"
"P.Rey"
_chemical_name_systematic
;
2-(3-Pyridyl)-4,4,6,6-tetramethyl-1,4,5,6-tetrahydropyrimidine-3-oxide-1-oxyl
;
_chemical_melting_point 424.15
_cell_volume   1283.525
_exptl_crystal_density_diffrn 1.285
_diffrn_ambient_temperature 298
#These two values have been output from a single CSD field.
_refine_ls_R_factor_gt 0.0596
_refine_ls_wR_factor_gt 0.0596
_symmetry_cell_setting monoclinic
_symmetry_space_group_name_H-M 'P 21/n'
_symmetry_Int_Tables_number 14
loop_
_symmetry_equiv_pos_site_id
_symmetry_equiv_pos_as_xyz
1 x,y,z
2 1/2-x,1/2+y,1/2-z
3 -x,-y,-z
4 -1/2+x,-1/2-y,-1/2+z
_cell_length_a 6.1511(6)
_cell_length_b 21.372(2)
_cell_length_c 9.8026(9)
_cell_angle_alpha 90
_cell_angle_beta 95.118(2)
_cell_angle_gamma 90
_cell_formula_units_Z 4
loop_
_atom_type_symbol
_atom_type_radius_bond
C 0.68
H 0.23
N 0.68
O 0.68
loop_
_atom_site_label
_atom_site_type_symbol
_atom_site_fract_x
_atom_site_fract_y
_atom_site_fract_z
O1 O 0.2183(2) 0.04271(6) 0.15288(13)
O2 O 0.6682(3) 0.21171(7) 0.21322(16)
N1 N 0.2995(2) 0.09240(6) 0.10245(14)
N2 N 0.5208(3) 0.18165(7) 0.13807(15)
N3 N 0.4389(3) 0.08456(8) 0.54820(16)
C1 C 0.4514(3) 0.12545(8) 0.17962(16)
C2 C 0.2240(3) 0.10691(8) -0.04388(17)
C3 C 0.3514(3) 0.16338(8) -0.08985(18)
H1 H 0.488(3) 0.1494(8) -0.1256(18)
H2 H 0.266(3) 0.1825(9) -0.164(2)
C4 C 0.4099(3) 0.21443(8) 0.01562(18)
C5 C 0.2779(5) 0.04952(11) -0.1275(2)
H3 H 0.207(4) 0.0110(12) -0.103(3)
H4 H 0.439(4) 0.0402(11) -0.118(2)
H5 H 0.255(4) 0.0602(11) -0.227(3)
C6 C -0.0215(4) 0.11649(12) -0.0531(3)
H6 H -0.070(4) 0.1269(12) -0.144(3)
H7 H -0.062(4) 0.1516(13) 0.009(3)
H8 H -0.090(4) 0.0758(12) -0.040(3)
C7 C 0.2164(4) 0.24984(11) 0.0652(3)
H9 H 0.277(4) 0.2827(12) 0.125(3)
H10 H 0.113(4) 0.2241(11) 0.116(2)
H11 H 0.137(4) 0.2696(12) -0.010(3)
C8 C 0.5690(4) 0.26030(11) -0.0393(2)
H12 H 0.700(5) 0.2389(11) -0.078(3)
H13 H 0.497(4) 0.2817(11) -0.121(3)
H14 H 0.614(4) 0.2925(12) 0.025(3)
C9 C 0.5297(3) 0.10291(7) 0.31877(17)
C10 C 0.7435(3) 0.08540(9) 0.3535(2)
H15 H 0.845(3) 0.0845(8) 0.287(2)
C11 C 0.8014(4) 0.06757(9) 0.4881(2)
H16 H 0.940(4) 0.0553(10) 0.515(2)
C12 C 0.6458(4) 0.06737(10) 0.5789(2)
H17 H 0.679(4) 0.0530(13) 0.672(3)
C13 C 0.3866(4) 0.10164(9) 0.4184(2)
H18 H 0.240(4) 0.1158(9) 0.399(2)
#END
