
#######################################################################
#
#                 Cambridge Crystallographic Data Centre
#                                CCDC
#
#######################################################################
#
# If this CIF has been generated from an entry in the Cambridge
# Structural Database, then it will include bibliographic, chemical,
# crystal, experimental, refinement or atomic coordinate data resulting
# from the CCDC's data processing and validation procedures.
#
#######################################################################

data_CSD_CIF_SEKHEW
_audit_creation_date 2006-10-10
_audit_creation_method CSD-ConQuest-V1
_database_code_CSD SEKHEW
_database_code_depnum_ccdc_archive 'CCDC 294875'
_chemical_formula_sum 'C8 H14 N2 O2'
_chemical_formula_moiety
;
C8 H14 N2 O2
;
_journal_coden_Cambridge 1220
_journal_volume 12
_journal_year 2006
_journal_page_first 5134
_journal_name_full 'Chem.-Eur.J. '
loop_
_publ_author_name
"P.Brough"
"J.Pecaut"
"A.Rassat"
"P.Rey"
_chemical_name_systematic
;
2-Isocyano-2,4-dimethyl-4-nitropentane
;
_chemical_melting_point 346.15
_cell_volume    492.204
_exptl_crystal_density_diffrn 1.148
_exptl_crystal_preparation 'sublimation'
_diffrn_ambient_temperature 298
#These two values have been output from a single CSD field.
_refine_ls_R_factor_gt 0.1129
_refine_ls_wR_factor_gt 0.1129
_symmetry_cell_setting triclinic
_symmetry_space_group_name_H-M 'P -1'
_symmetry_Int_Tables_number 2
loop_
_symmetry_equiv_pos_site_id
_symmetry_equiv_pos_as_xyz
1 x,y,z
2 -x,-y,-z
_cell_length_a 5.889(1)
_cell_length_b 6.1396(10)
_cell_length_c 14.642(2)
_cell_angle_alpha 86.771(3)
_cell_angle_beta 84.658(3)
_cell_angle_gamma 69.081(3)
_cell_formula_units_Z 2
loop_
_atom_type_symbol
_atom_type_radius_bond
C 0.68
H 0.23
N 0.68
O 0.68
loop_
_atom_site_label
_atom_site_type_symbol
_atom_site_fract_x
_atom_site_fract_y
_atom_site_fract_z
N1 N -0.0405(4) 0.0237(4) -0.14737(16)
C1 C 0.1182(6) -0.1427(6) -0.1330(2)
N2 N -0.2039(5) 0.5323(4) -0.35140(17)
C2 C -0.1727(6) 0.4414(5) -0.1422(2)
H1 H -0.160(8) 0.465(8) -0.077(3)
H2 H -0.312(6) 0.591(6) -0.153(2)
H3 H -0.010(6) 0.440(6) -0.189(2)
C3 C 0.0782(5) 0.1165(6) -0.3495(2)
H4 H 0.134(5) 0.186(5) -0.302(2)
H5 H 0.152(5) 0.141(5) -0.405(2)
H6 H 0.099(6) -0.059(7) -0.335(3)
C4 C -0.4518(6) 0.2284(6) -0.0893(2)
H7 H -0.495(4) 0.117(4) -0.1027(13)
H8 H -0.579(5) 0.333(5) -0.0988(19)
H9 H -0.416(6) 0.260(6) -0.021(3)
C5 C -0.3092(5) 0.2438(6) -0.42626(19)
H10 H -0.319(6) 0.086(7) -0.427(2)
H11 H -0.232(4) 0.291(4) -0.4764(15)
H12 H -0.459(4) 0.312(4) -0.4230(15)
O1 O -0.3988(5) 0.6839(4) -0.3402(2)
C6 C -0.2513(4) 0.2403(5) -0.15968(18)
C7 C -0.1888(5) 0.2776(5) -0.34234(18)
C8 C -0.3330(4) 0.2421(5) -0.25669(18)
H13 H -0.373(3) 0.129(3) -0.2618(10)
H14 H -0.472(3) 0.327(2) -0.2601(9)
O2 O -0.0141(5) 0.5719(4) -0.3709(2)
#END
