
#######################################################################
#
#                 Cambridge Crystallographic Data Centre
#                                CCDC
#
#######################################################################
#
# If this CIF has been generated from an entry in the Cambridge
# Structural Database, then it will include bibliographic, chemical,
# crystal, experimental, refinement or atomic coordinate data resulting
# from the CCDC's data processing and validation procedures.
#
#######################################################################

data_CSD_CIF_SEKHAR01
_audit_creation_date 2001-11-07
_audit_creation_method CSD-ConQuest-V1
_database_code_CSD SEKHAR01
_database_code_depnum_ccdc_archive 'CCDC 107976; CCDC 402606'
_database_code_depnum_ccdc_fiz 'CSD 402606'
_chemical_formula_sum 'C7 H13 N1 O7'
_chemical_formula_moiety
;
C7 H13 N1 O7
;
_journal_coden_Cambridge 1078
_journal_year 2000
_journal_name_full 'CSD Communication(Private Communication) '
loop_
_publ_author_name
"S.Henkel"
"P.van de Weghe"
"V.Jaeger"
_chemical_name_systematic
;
2,6-Anhydro-1-deoxy-1-nitro-D-glycero-D-gulo-heptitol
;
_cell_volume    953.170
_exptl_crystal_density_diffrn 1.555
_exptl_special_details
;
contribution from Universitat Stuttgart, Pfaffenwaldring 55, 70569 Stuttgart, 
Germany
;
_diffrn_ambient_temperature ?
_diffrn_special_details
;
The study was carried out at room temperature,in the range 283-303K

;
#These two values have been output from a single CSD field.
_refine_ls_R_factor_gt 0.0312
_refine_ls_wR_factor_gt 0.0312
_symmetry_cell_setting tetragonal
_symmetry_space_group_name_H-M 'P 43'
_symmetry_Int_Tables_number 78
loop_
_symmetry_equiv_pos_site_id
_symmetry_equiv_pos_as_xyz
1 x,y,z
2 -y,x,3/4+z
3 -x,-y,1/2+z
4 y,-x,1/4+z
_cell_length_a 11.334(2)
_cell_length_b 11.334(2)
_cell_length_c 7.420(2)
_cell_angle_alpha 90
_cell_angle_beta 90
_cell_angle_gamma 90
_cell_formula_units_Z 4
loop_
_atom_type_symbol
_atom_type_radius_bond
C 0.68
H 0.23
N 0.68
O 0.68
loop_
_atom_site_label
_atom_site_type_symbol
_atom_site_fract_x
_atom_site_fract_y
_atom_site_fract_z
C1 C 0.8707(1) 0.6857(1) 0.4503(2)
O1 O 0.8451(1) 0.7016(1) 0.6357(2)
C2 C 0.7925(1) 0.5868(1) 0.3799(2)
O2 O 0.8264(2) 0.4765(1) 0.4557(2)
C3 C 0.8055(1) 0.5766(1) 0.1763(2)
O3 O 0.7742(1) 0.6859(1) 0.0952(2)
C4 C 0.8544(1) 0.7785(1) 0.1433(2)
C5 C 0.8497(1) 0.8002(1) 0.3468(2)
O4 O 0.9404(1) 0.8837(1) 0.3885(2)
C6 C 0.7212(2) 0.4851(2) 0.1018(2)
N1 N 0.7439(2) 0.4683(1) -0.0956(2)
O5 O 0.6638(2) 0.4867(2) -0.2005(2)
O6 O 0.8421(2) 0.4381(2) -0.1434(3)
C7 C 0.8226(1) 0.8847(1) 0.0275(2)
O7 O 0.7185(1) 0.9454(1) 0.0813(2)
H1 H 0.9536(1) 0.6625(1) 0.4372(2)
H2 H 0.91080 0.69890 0.69880
H3 H 0.7100(1) 0.6034(1) 0.4103(2)
H4 H 0.81210 0.47940 0.56630
H5 H 0.8869(1) 0.5558(1) 0.1451(2)
H6 H 0.9345(1) 0.7534(1) 0.1118(2)
H7 H 0.7726(1) 0.8330(1) 0.3796(2)
H8 H 0.92120 0.92490 0.47590
H9 H 0.7321(2) 0.4109(2) 0.1647(2)
H10 H 0.6405(2) 0.5108(2) 0.1202(2)
H11 H 0.8881(1) 0.9398(1) 0.0296(2)
H12 H 0.8127(1) 0.8584(1) -0.0960(2)
H13 H 0.66060 0.90100 0.10590
#END
