
#######################################################################
#
#                 Cambridge Crystallographic Data Centre
#                                CCDC
#
#######################################################################
#
# If this CIF has been generated from an entry in the Cambridge
# Structural Database, then it will include bibliographic, chemical,
# crystal, experimental, refinement or atomic coordinate data resulting
# from the CCDC's data processing and validation procedures.
#
#######################################################################

data_CSD_CIF_SEKJEX
_audit_creation_date 1990-08-28
_audit_creation_method CSD-ConQuest-V1
_database_code_CSD SEKJEX
_chemical_formula_sum 'C12 H17 N1 O9'
_chemical_formula_moiety
;
C12 H17 N1 O9
;
_journal_coden_Cambridge 156
_journal_volume 186
_journal_year 1989
_journal_page_first 1
_journal_name_full 'Carbohydr.Res. '
loop_
_publ_author_name
"J.Kopf"
"C.Topf"
"P.Koll"
_chemical_name_systematic
;
3,4,5-Tri-O-acetyl-2,6-anhydro-1-deoxy-1-nitro-D-altro-hexitol
;
_chemical_melting_point 426.15
_cell_volume   1582.720
_exptl_crystal_density_diffrn 1.34
_exptl_special_details
;
Melting point range 426.15-427.15K
z(C41) is .6263 not .6223

;
_diffrn_ambient_temperature ?
_diffrn_special_details
;
The study was carried out at room temperature,in the range 283-303K

;
#These two values have been output from a single CSD field.
_refine_ls_R_factor_gt 0.034
_refine_ls_wR_factor_gt 0.034
_symmetry_cell_setting orthorhombic
_symmetry_space_group_name_H-M 'P 21 21 21'
_symmetry_Int_Tables_number 19
loop_
_symmetry_equiv_pos_site_id
_symmetry_equiv_pos_as_xyz
1 x,y,z
2 1/2+x,1/2-y,-z
3 -x,1/2+y,1/2-z
4 1/2-x,-y,1/2+z
_cell_length_a 8.955(4)
_cell_length_b 13.061(4)
_cell_length_c 13.532(4)
_cell_angle_alpha 90
_cell_angle_beta 90
_cell_angle_gamma 90
_cell_formula_units_Z 4
loop_
_atom_type_symbol
_atom_type_radius_bond
C 0.68
H 0.23
N 0.68
O 0.68
loop_
_atom_site_label
_atom_site_type_symbol
_atom_site_fract_x
_atom_site_fract_y
_atom_site_fract_z
O1 O 0.5366(3) 0.3238(2) 0.6839(3)
O2 O 0.3598(4) 0.4248(2) 0.7211(3)
O3 O 0.3154(2) 0.1838(2) 0.7978(2)
O4 O 0.0540(2) 0.1386(2) 0.6816(2)
O5 O 0.0889(3) -0.0711(2) 0.7014(2)
O6 O 0.0876(3) 0.0478(2) 0.8704(2)
O7 O -0.0372(3) 0.0849(2) 0.5365(2)
O8 O 0.2171(4) -0.1531(2) 0.5858(2)
O9 O 0.0601(4) -0.0916(2) 0.9643(2)
N1 N 0.4054(4) 0.3459(3) 0.6877(3)
C1 C 0.2945(4) 0.2721(3) 0.6477(3)
C2 C 0.3168(4) 0.1692(3) 0.6936(2)
C3 C 0.1980(3) 0.0924(2) 0.6622(2)
C4 C 0.2132(4) -0.0057(2) 0.7206(2)
C5 C 0.2286(4) 0.0111(3) 0.8303(3)
C6 C 0.3450(4) 0.0922(3) 0.8496(2)
C7 C -0.0554(4) 0.1255(3) 0.6145(3)
C8 C -0.1976(4) 0.1699(3) 0.6535(3)
C9 C 0.1023(5) -0.1394(3) 0.6263(3)
C10 C -0.0428(5) -0.1897(3) 0.6030(3)
C11 C 0.0179(4) -0.0095(3) 0.9391(3)
C12 C -0.1169(5) 0.0466(3) 0.9751(3)
H1 H 0.30800 0.26650 0.57680
H2 H 0.19490 0.29520 0.66080
H3 H 0.40930 0.14000 0.67500
H4 H 0.20910 0.07860 0.59290
H5 H 0.30440 -0.03810 0.69810
H6 H 0.25480 -0.05290 0.86080
H7 H 0.34200 0.10820 0.91870
H8 H 0.43790 0.06700 0.83030
H9 H -0.28090 0.15340 0.60990
H10 H -0.18920 0.24440 0.65490
H11 H -0.22220 0.14690 0.71890
H12 H -0.06680 -0.22120 0.54130
H13 H -0.11410 -0.12680 0.60560
H14 H -0.08530 -0.23310 0.65590
H15 H -0.16670 -0.00890 1.00800
H16 H -0.17220 0.05470 0.90980
H17 H -0.13800 0.10940 1.01040
#END
