
#######################################################################
#
#                 Cambridge Crystallographic Data Centre
#                                CCDC
#
#######################################################################
#
# If this CIF has been generated from an entry in the Cambridge
# Structural Database, then it will include bibliographic, chemical,
# crystal, experimental, refinement or atomic coordinate data resulting
# from the CCDC's data processing and validation procedures.
#
#######################################################################

data_CSD_CIF_SEKKIC
_audit_creation_date 1990-08-28
_audit_creation_method CSD-ConQuest-V1
_database_code_CSD SEKKIC
_chemical_formula_sum 'C11 H17 N1 O1'
_chemical_formula_moiety
;
C11 H17 N1 O1
;
_journal_coden_Cambridge 207
_journal_year 1990
_journal_page_first 11
_journal_name_full 'J.Chem.Soc.,Perkin Trans.1 '
loop_
_publ_author_name
"T.J.Grattan"
"J.S.Whitehouse"
_chemical_name_systematic
;
2-(Buta-1,2-dienyl)-2-methylcyclohexanone oxime
;
_chemical_melting_point 350.15
_cell_volume   2120.909
_exptl_crystal_density_diffrn 1.12
_exptl_special_details
;
z(O1) is .52738 not .57238

;
_diffrn_ambient_temperature ?
_diffrn_special_details
;
The study was carried out at room temperature,in the range 283-303K

;
#These two values have been output from a single CSD field.
_refine_ls_R_factor_gt 0.048
_refine_ls_wR_factor_gt 0.048
_symmetry_cell_setting orthorhombic
_symmetry_space_group_name_H-M 'P b c a'
_symmetry_Int_Tables_number 61
loop_
_symmetry_equiv_pos_site_id
_symmetry_equiv_pos_as_xyz
1 x,y,z
2 1/2-x,1/2+y,z
3 x,1/2-y,1/2+z
4 1/2-x,-y,1/2+z
5 -x,-y,-z
6 -1/2+x,-1/2-y,-z
7 -x,-1/2+y,-1/2-z
8 -1/2+x,y,-1/2-z
_cell_length_a 8.147(1)
_cell_length_b 11.685(1)
_cell_length_c 22.279(3)
_cell_angle_alpha 90
_cell_angle_beta 90
_cell_angle_gamma 90
_cell_formula_units_Z 8
loop_
_atom_type_symbol
_atom_type_radius_bond
C 0.68
H 0.23
N 0.68
O 0.68
loop_
_atom_site_label
_atom_site_type_symbol
_atom_site_fract_x
_atom_site_fract_y
_atom_site_fract_z
O1 O 0.8323(2) 0.4519(2) 0.52738(8)
N1 N 0.8787(3) 0.4225(2) 0.46823(8)
C1 C 0.7799(3) 0.3549(2) 0.4423(1)
C2 C 0.8235(3) 0.3199(2) 0.3785(1)
C3 C 0.6703(3) 0.3417(2) 0.3393(1)
C4 C 0.5135(3) 0.2897(3) 0.3637(1)
C5 C 0.4808(3) 0.3325(3) 0.4271(2)
C6 C 0.6255(3) 0.3084(2) 0.4686(1)
C7 C 0.9680(3) 0.3887(2) 0.3531(1)
C8 C 0.8643(3) 0.1933(2) 0.3782(1)
C9 C 1.0031(3) 0.1502(2) 0.3600(1)
C10 C 1.1426(3) 0.1083(2) 0.3428(1)
C11 C 1.1807(4) 0.0723(3) 0.2806(1)
H1 H 0.93470 0.50060 0.54400
H2 H 0.65410 0.42620 0.33580
H3 H 0.69090 0.30860 0.29860
H4 H 0.52440 0.20450 0.36440
H5 H 0.41960 0.31180 0.33720
H6 H 0.46090 0.41690 0.42580
H7 H 0.38120 0.29310 0.44330
H8 H 0.60520 0.34540 0.50840
H9 H 0.63710 0.22390 0.47410
H10 H 1.06770 0.37500 0.37830
H11 H 0.94020 0.47210 0.35360
H12 H 0.99020 0.36390 0.31090
H13 H 0.77850 0.13900 0.39300
H14 H 1.23080 0.09960 0.37370
H15 H 1.28090 0.11550 0.26350
H16 H 1.20470 -0.01160 0.28040
H17 H 1.08330 0.08810 0.25460
#END
