
#######################################################################
#
#                 Cambridge Crystallographic Data Centre
#                                CCDC
#
#######################################################################
#
# If this CIF has been generated from an entry in the Cambridge
# Structural Database, then it will include bibliographic, chemical,
# crystal, experimental, refinement or atomic coordinate data resulting
# from the CCDC's data processing and validation procedures.
#
#######################################################################

data_CSD_CIF_SEKLID
_audit_creation_date 1990-08-28
_audit_creation_method CSD-ConQuest-V1
_database_code_CSD SEKLID
_chemical_formula_sum 'C22 H18 N2 O4'
_chemical_formula_moiety
;
C22 H18 N2 O4
;
_journal_coden_Cambridge 188
_journal_year 1990
_journal_page_first 185
_journal_name_full 'J.Chem.Soc.,Perkin Trans.2 '
loop_
_publ_author_name
"P.Carloni"
"L.Greci"
"P.Stipa"
"A.Alberti"
"C.Rizzoli"
"P.Sgarabotto"
"F.Ugozzoli"
_chemical_name_systematic
;
4-(p-Methoxyphenylamino)-2-methyl-3,5-dioxo-2-phenyl-3,5-dihydro-2H-indole
;
_chemical_melting_point 446.15
_cell_volume    913.619
_exptl_crystal_colour 'dark red'
_exptl_crystal_density_diffrn 1.36
_exptl_special_details
;
Melting point range 446.15-447.15K

;
_diffrn_ambient_temperature ?
_diffrn_special_details
;
The study was carried out at room temperature,in the range 283-303K

;
#These two values have been output from a single CSD field.
_refine_ls_R_factor_gt 0.031
_refine_ls_wR_factor_gt 0.031
_symmetry_cell_setting monoclinic
_symmetry_space_group_name_H-M 'P 21'
_symmetry_Int_Tables_number 4
loop_
_symmetry_equiv_pos_site_id
_symmetry_equiv_pos_as_xyz
1 x,y,z
2 -x,1/2+y,-z
_cell_length_a 11.084(3)
_cell_length_b 13.524(3)
_cell_length_c 6.304(3)
_cell_angle_alpha 90
_cell_angle_beta 104.8(1)
_cell_angle_gamma 90
_cell_formula_units_Z 2
loop_
_atom_type_symbol
_atom_type_radius_bond
C 0.68
H 0.23
N 0.68
O 0.68
loop_
_atom_site_label
_atom_site_type_symbol
_atom_site_fract_x
_atom_site_fract_y
_atom_site_fract_z
O1 O 0.2558(2) 0.57740 0.6277(4)
O2 O 0.2938(2) 0.7528(3) 0.0095(4)
O3 O 0.7183(2) 0.8456(3) 0.6386(4)
O4 O 0.2783(3) 1.0850(3) -0.4523(5)
N1 N 0.2925(2) 0.6418(3) 0.5110(5)
N2 N 0.5464(3) 0.8804(3) 0.2778(5)
C1 C 0.2143(3) 0.6709(3) 0.2895(5)
C2 C 0.3091(3) 0.7315(3) 0.2004(5)
C3 C 0.4142(3) 0.7534(3) 0.3863(5)
C4 C 0.5189(3) 0.8114(3) 0.4129(5)
C5 C 0.6206(3) 0.7980(3) 0.6180(6)
C6 C 0.6003(3) 0.7320(3) 0.7850(6)
C7 C 0.4942(3) 0.6812(3) 0.7632(6)
C8 C 0.4010(3) 0.6906(3) 0.5634(5)
C9 C 0.1679(4) 0.5789(4) 0.1553(8)
C10 C 0.1114(3) 0.7427(3) 0.3119(5)
C11 C 0.0246(3) 0.7711(4) 0.1209(6)
C12 C -0.0651(4) 0.8405(4) 0.1317(7)
C13 C -0.0702(4) 0.8814(4) 0.3297(8)
C14 C 0.0156(4) 0.8526(4) 0.5176(7)
C15 C 0.1070(3) 0.7832(3) 0.5087(6)
C16 C 0.4708(3) 0.9293(3) 0.0948(6)
C17 C 0.3482(4) 0.9559(3) 0.0802(7)
C18 C 0.2801(4) 1.0086(3) -0.1023(7)
C19 C 0.3357(4) 1.0340(4) -0.2671(7)
C20 C 0.4590(4) 1.0089(3) -0.2504(7)
C21 C 0.5256(4) 0.9567(3) -0.0713(6)
C22 C 0.1525(7) 1.1170(6) -0.4813(14)
H1 H 0.624(4) 0.904(3) 0.334(6)
H2 H 0.668(3) 0.728(3) 0.916(7)
H3 H 0.488(4) 0.641(3) 0.883(7)
H4 H 0.137(5) 0.593(4) 0.007(9)
H5 H 0.090(5) 0.551(5) 0.214(9)
H6 H 0.233(6) 0.531(5) 0.156(9)
H7 H 0.024(32) 0.742(3) -0.017(7)
H8 H -0.117(4) 0.866(4) -0.002(7)
H9 H -0.137(4) 0.928(3) 0.340(6)
H10 H 0.013(4) 0.882(4) 0.671(8)
H11 H 0.166(3) 0.770(3) 0.638(6)
H12 H 0.310(3) 0.940(3) 0.197(6)
H13 H 0.196(45) 1.028(4) -0.108(8)
H14 H 0.496(4) 1.025(3) -0.373(7)
H15 H 0.619(5) 0.948(4) -0.043(8)
H16 H 0.128(7) 1.153(6) -0.627(12)
H17 H 0.116(8) 1.075(8) -0.436(14)
H18 H 0.156(8) 1.160(9) -0.331(15)
#END
