
#######################################################################
#
#                 Cambridge Crystallographic Data Centre
#                                CCDC
#
#######################################################################
#
# If this CIF has been generated from an entry in the Cambridge
# Structural Database, then it will include bibliographic, chemical,
# crystal, experimental, refinement or atomic coordinate data resulting
# from the CCDC's data processing and validation procedures.
#
#######################################################################

data_CSD_CIF_SEKVAF
_audit_creation_date 1990-08-28
_audit_creation_method CSD-ConQuest-V1
_database_code_CSD SEKVAF
_database_code_depnum_ccdc_archive 'CCDC 1256915'
_chemical_formula_sum 'C18 H19 N1 O2'
_chemical_formula_moiety
;
C18 H19 N1 O2
;
_journal_coden_Cambridge 182
_journal_year 1990
_journal_page_first 123
_journal_name_full 'Chem.Commun. '
loop_
_publ_author_name
"D.Armesto"
"J.C.Barnes"
"W.H.Horspool"
"F.Langa"
_chemical_name_systematic
;
4,4-Dimethyl-5-(diphenylhydroxymethyl)-4,5-dihydroisoxazole
;
_chemical_melting_point 465.15
_cell_volume    746.243
_exptl_crystal_colour 'colorless'
_exptl_crystal_density_diffrn 1.25
_exptl_special_details
;
Melting point range 465.15-467.15K

;
_diffrn_ambient_temperature ?
_diffrn_special_details
;
The study was carried out at room temperature,in the range 283-303K

;
#These two values have been output from a single CSD field.
_refine_ls_R_factor_gt 0.088
_refine_ls_wR_factor_gt 0.088
_symmetry_cell_setting triclinic
_symmetry_space_group_name_H-M 'P -1'
_symmetry_Int_Tables_number 2
loop_
_symmetry_equiv_pos_site_id
_symmetry_equiv_pos_as_xyz
1 x,y,z
2 -x,-y,-z
_cell_length_a 6.128(5)
_cell_length_b 9.521(6)
_cell_length_c 13.514(7)
_cell_angle_alpha 94.93(5)
_cell_angle_beta 96.23(5)
_cell_angle_gamma 106.41(5)
_cell_formula_units_Z 2
loop_
_atom_type_symbol
_atom_type_radius_bond
C 0.68
H 0.23
N 0.68
O 0.68
loop_
_atom_site_label
_atom_site_type_symbol
_atom_site_fract_x
_atom_site_fract_y
_atom_site_fract_z
O1 O 0.7969(7) 1.0055(3) 0.0532(2)
N1 N 0.6611(9) 0.9127(4) -0.0314(3)
C1 C 0.6255(12) 0.7806(5) -0.0138(3)
C2 C 0.7353(9) 0.7562(5) 0.0852(3)
C3 C 0.8287(10) 0.9199(4) 0.1342(3)
C4 C 0.9360(12) 0.6965(6) 0.0695(4)
C5 C 0.5628(12) 0.6447(5) 0.1364(4)
C6 C 0.7054(9) 0.9734(5) 0.2197(3)
O2 O 0.4711(7) 0.9379(3) 0.1892(2)
C7 C 0.7502(6) 0.8981(3) 0.3137(2)
C8 C 0.5625(6) 0.8231(3) 0.3577(2)
C9 C 0.5966(6) 0.7528(3) 0.4420(2)
C10 C 0.8184(6) 0.7575(3) 0.4822(2)
C11 C 1.0062(6) 0.8326(3) 0.4381(2)
C12 C 0.9721(6) 0.9029(3) 0.3539(2)
C13 C 0.8106(6) 1.1431(2) 0.2495(2)
C14 C 1.0260(6) 1.2236(2) 0.2293(2)
C15 C 1.1061(6) 1.3755(2) 0.2581(2)
C16 C 0.9710(6) 1.4470(2) 0.3070(2)
C17 C 0.7556(6) 1.3665(2) 0.3272(2)
C18 C 0.6755(6) 1.2145(2) 0.2984(2)
H1 H 0.51910 0.68980 -0.06730
H2 H 1.00080 0.93280 0.16990
H3 H 1.01630 0.67930 0.14080
H4 H 1.06020 0.77420 0.03480
H5 H 0.87300 0.59290 0.02130
H6 H 0.41990 0.68620 0.14860
H7 H 0.64620 0.62920 0.20750
H8 H 0.50100 0.54050 0.08880
H9 H 0.43550 0.99120 0.12900
H10 H 0.39070 0.81940 0.32660
H11 H 0.45120 0.69470 0.47610
H12 H 0.84480 0.70310 0.54740
H13 H 1.17790 0.83630 0.46920
H14 H 1.11740 0.96100 0.31980
H15 H 1.13070 1.16830 0.19150
H16 H 1.27290 1.43790 0.24240
H17 H 1.03300 1.56470 0.32920
H18 H 0.65100 1.42180 0.36500
H19 H 0.50870 1.15220 0.31410
#END
