
#######################################################################
#
#                 Cambridge Crystallographic Data Centre
#                                CCDC
#
#######################################################################
#
# If this CIF has been generated from an entry in the Cambridge
# Structural Database, then it will include bibliographic, chemical,
# crystal, experimental, refinement or atomic coordinate data resulting
# from the CCDC's data processing and validation procedures.
#
#######################################################################

data_CSD_CIF_SELGUN
_audit_creation_date 2013-02-22
_audit_creation_method CSD-ConQuest-V1
_database_code_CSD SELGUN
_database_code_depnum_ccdc_archive 'CCDC 910252'
_chemical_formula_sum 'C14 H21 N1 O6'
_chemical_formula_moiety
;
C14 H21 N1 O6
;
_journal_coden_Cambridge 35
_journal_volume 77
_journal_year 2012
_journal_page_first 2236
_journal_name_full 'J.Org.Chem. '
loop_
_publ_author_name
"A.Kamimura"
"R.Takeuchi"
"K.Ikeda"
"T.Moriyama"
"M.Sumimoto"
_chemical_name_systematic
;
Dimethyl 2-butyl-1-nitrobicyclo[3.1.0]hexane-3,3-dicarboxylate
;
_cell_volume    755.583
_exptl_crystal_colour 'colorless'
_exptl_crystal_density_diffrn 1.316
_exptl_crystal_description 'block'
_diffrn_ambient_temperature 100
#These two values have been output from a single CSD field.
_refine_ls_R_factor_gt 0.0317
_refine_ls_wR_factor_gt 0.0317
_symmetry_cell_setting monoclinic
_symmetry_space_group_name_H-M 'P 21'
_symmetry_Int_Tables_number 4
loop_
_symmetry_equiv_pos_site_id
_symmetry_equiv_pos_as_xyz
1 x,y,z
2 -x,1/2+y,-z
_cell_length_a 7.717(2)
_cell_length_b 10.035(3)
_cell_length_c 9.992(3)
_cell_angle_alpha 90
_cell_angle_beta 102.451(8)
_cell_angle_gamma 90
_cell_formula_units_Z 2
loop_
_atom_type_symbol
_atom_type_radius_bond
C 0.68
H 0.23
N 0.68
O 0.68
loop_
_atom_site_label
_atom_site_type_symbol
_atom_site_fract_x
_atom_site_fract_y
_atom_site_fract_z
O1 O 0.35407(19) -0.00083(16) 0.96840(13)
O2 O 0.3652(2) 0.20781(15) 0.91570(15)
O3 O 0.65370(16) 0.00957(13) 0.40820(12)
O4 O 0.44883(17) 0.15114(14) 0.45261(12)
O5 O 0.85975(17) 0.24306(15) 0.56723(14)
O6 O 1.00898(16) 0.07708(15) 0.69129(13)
N1 N 0.3944(2) 0.08952(17) 0.89811(15)
C1 C 0.4768(2) 0.05445(18) 0.78294(17)
C2 C 0.5944(2) 0.15852(19) 0.73658(16)
H1 H 0.5209(18) 0.2276(17) 0.6841(13)
C3 C 0.6865(2) 0.07522(18) 0.63955(17)
C4 C 0.6969(2) -0.07026(18) 0.69481(17)
H2 H 0.6831(3) -0.1343(10) 0.6190(12)
H3 H 0.8114(19) -0.0863(3) 0.7578(10)
C5 C 0.5460(2) -0.08407(18) 0.76904(19)
H4 H 0.5558(4) -0.1437(15) 0.8410(18)
C6 C 0.3665(2) -0.04657(19) 0.68757(19)
H5 H 0.2606(17) -0.0855(6) 0.7157(4)
H6 H 0.3529(3) -0.0333(3) 0.5867(16)
C7 C 0.7266(2) 0.22222(19) 0.85816(17)
H7 H 0.8135(14) 0.2742(8) 0.8209(6)
H8 H 0.6605(10) 0.2854(10) 0.9037(7)
C8 C 0.8288(2) 0.12765(19) 0.96716(18)
H9 H 0.7391(14) 0.0727(9) 1.0088(6)
H10 H 0.9017(11) 0.0613(10) 0.9212(7)
C9 C 0.9541(3) 0.2017(2) 1.0817(2)
H11 H 1.0472(15) 0.2510(9) 1.0417(7)
H12 H 0.8838(12) 0.2710(12) 1.1228(7)
C10 C 1.0469(3) 0.1084(2) 1.1941(2)
H13 H 0.9574(13) 0.0667(14) 1.2395(13)
H14 H 1.134(2) 0.1597(8) 1.2631(14)
H15 H 1.110(2) 0.0375(14) 1.1536(6)
C11 C 0.5797(2) 0.08526(19) 0.49117(17)
C12 C 0.5657(3) 0.0160(2) 0.26434(18)
H16 H 0.439(2) -0.0028(16) 0.2546(3)
H17 H 0.6180(16) -0.0500(14) 0.2127(8)
H18 H 0.5806(18) 0.1052(14) 0.2288(7)
C13 C 0.8714(2) 0.12859(18) 0.63703(18)
C14 C 1.0293(3) 0.3037(2) 0.5622(2)
H19 H 1.0956(14) 0.3219(16) 0.6556(15)
H20 H 1.0090(4) 0.3874(16) 0.5105(17)
H21 H 1.0978(15) 0.2427(12) 0.5170(17)
#END
