
#######################################################################
#
#                 Cambridge Crystallographic Data Centre
#                                CCDC
#
#######################################################################
#
# If this CIF has been generated from an entry in the Cambridge
# Structural Database, then it will include bibliographic, chemical,
# crystal, experimental, refinement or atomic coordinate data resulting
# from the CCDC's data processing and validation procedures.
#
#######################################################################

data_CSD_CIF_SELGEX
_audit_creation_date 2013-02-22
_audit_creation_method CSD-ConQuest-V1
_database_code_CSD SELGEX
_database_code_depnum_ccdc_archive 'CCDC 910249'
_chemical_formula_sum 'C23 H35 N1 O8'
_chemical_formula_moiety
;
C23 H35 N1 O8
;
_journal_coden_Cambridge 35
_journal_volume 77
_journal_year 2012
_journal_page_first 2236
_journal_name_full 'J.Org.Chem. '
loop_
_publ_author_name
"A.Kamimura"
"R.Takeuchi"
"K.Ikeda"
"T.Moriyama"
"M.Sumimoto"
_chemical_name_systematic
;
2-t-Butyl 5,5-dimethyl 
4-cyclohexyltetrahydro-4H-cyclopenta[c][1,2]oxazolo[2,3-b][1,2]oxazole-2,5,5(6
H)-tricarboxylate
;
_cell_volume   1173.424
_exptl_crystal_colour 'colorless'
_exptl_crystal_density_diffrn 1.284
_exptl_crystal_description 'block'
_diffrn_ambient_temperature 296
#These two values have been output from a single CSD field.
_refine_ls_R_factor_gt 0.0552
_refine_ls_wR_factor_gt 0.0552
loop_
_citation_database_id_CSD
_citation_special_details
SELHEY "is a stereoisomer of this entry"
_symmetry_cell_setting triclinic
_symmetry_space_group_name_H-M 'P -1'
_symmetry_Int_Tables_number 2
loop_
_symmetry_equiv_pos_site_id
_symmetry_equiv_pos_as_xyz
1 x,y,z
2 -x,-y,-z
_cell_length_a 8.3584(10)
_cell_length_b 10.8267(14)
_cell_length_c 14.0001(18)
_cell_angle_alpha 69.264(3)
_cell_angle_beta 85.675(3)
_cell_angle_gamma 82.217(3)
_cell_formula_units_Z 2
loop_
_atom_type_symbol
_atom_type_radius_bond
C 0.68
H 0.23
N 0.68
O 0.68
loop_
_atom_site_label
_atom_site_type_symbol
_atom_site_fract_x
_atom_site_fract_y
_atom_site_fract_z
O1 O 0.12589(17) 0.58353(15) 0.34161(12)
O2 O -0.0721(3) 0.58319(19) 0.24056(15)
O3 O -0.28616(17) 0.70991(14) 0.34781(14)
O4 O -0.46373(17) 0.85947(15) 0.23656(13)
O5 O -0.41797(18) 1.32831(16) 0.10998(13)
O6 O -0.16753(18) 1.38513(14) 0.07037(12)
O7 O 0.0470(3) 1.1428(3) 0.04089(17)
O8 O 0.07075(16) 1.14317(18) 0.19564(11)
N1 N -0.35793(18) 0.85081(16) 0.31245(13)
C1 C 0.2850(5) 0.6165(4) 0.1841(3)
C2 C 0.2339(4) 0.3862(3) 0.3004(4)
C3 C 0.4036(4) 0.5196(4) 0.3550(3)
C4 C 0.2625(3) 0.5244(3) 0.2922(2)
C5 C -0.0227(3) 0.61443(19) 0.30544(16)
C6 C -0.1177(3) 0.70204(19) 0.35942(16)
C7 C -0.0720(3) 0.84530(18) 0.31409(17)
C8 C -0.2208(2) 0.92652(17) 0.25621(14)
C9 C -0.2293(3) 0.9325(2) 0.14367(16)
C10 C -0.3652(4) 0.8499(3) 0.1496(2)
C11 C -0.2672(3) 1.0792(2) 0.08048(15)
C12 C -0.1967(2) 1.15380(18) 0.14069(14)
C13 C -0.25500(19) 1.07354(17) 0.25176(13)
C14 C -0.2050(2) 1.10416(18) 0.34424(13)
C15 C -0.3025(3) 1.0296(3) 0.43984(15)
C16 C -0.2622(3) 1.0565(3) 0.53479(16)
C17 C -0.2853(3) 1.2033(3) 0.51798(17)
C18 C -0.1891(3) 1.2786(3) 0.42471(18)
C19 C -0.2292(3) 1.2526(2) 0.32906(15)
C20 C -0.2750(3) 1.29807(19) 0.10590(14)
C21 C -0.2308(4) 1.5249(3) 0.0404(3)
C22 C -0.0140(3) 1.1458(2) 0.11936(15)
C23 C 0.2449(3) 1.1291(3) 0.1800(2)
H1 H 0.19620 0.61650 0.14440
H2 H 0.38410 0.58690 0.15520
H3 H 0.28910 0.70490 0.18360
H4 H 0.21350 0.33430 0.37060
H5 H 0.32760 0.34480 0.27460
H6 H 0.14220 0.39160 0.26100
H7 H 0.41780 0.60820 0.35000
H8 H 0.49980 0.48040 0.32980
H9 H 0.38320 0.46720 0.42510
H10 H -0.09400 0.66530 0.43230
H11 H -0.04910 0.87690 0.36780
H12 H 0.02180 0.85000 0.26830
H13 H -0.12720 0.89420 0.12060
H14 H -0.42680 0.88560 0.08770
H15 H -0.32330 0.75820 0.15980
H16 H -0.38290 1.10370 0.07370
H17 H -0.21670 1.09920 0.01280
H18 H -0.37300 1.09280 0.25120
H19 H -0.09030 1.07180 0.35580
H20 H -0.41680 1.05590 0.42720
H21 H -0.28110 0.93490 0.45260
H22 H -0.33110 1.01090 0.59180
H23 H -0.15100 1.02130 0.55220
H24 H -0.25070 1.21750 0.57750
H25 H -0.39900 1.23660 0.50910
H26 H -0.07480 1.25260 0.43740
H27 H -0.21120 1.37310 0.41280
H28 H -0.16080 1.29930 0.27220
H29 H -0.34060 1.28760 0.31200
H30 H -0.31700 1.54330 -0.00610
H31 H -0.14630 1.57860 0.00750
H32 H -0.27100 1.54510 0.09990
H33 H 0.28030 1.04410 0.17370
H34 H 0.29530 1.13540 0.23730
H35 H 0.27440 1.19840 0.11880
#END
