
#######################################################################
#
#                 Cambridge Crystallographic Data Centre
#                                CCDC
#
#######################################################################
#
# If this CIF has been generated from an entry in the Cambridge
# Structural Database, then it will include bibliographic, chemical,
# crystal, experimental, refinement or atomic coordinate data resulting
# from the CCDC's data processing and validation procedures.
#
#######################################################################

data_CSD_CIF_SELHIC
_audit_creation_date 2013-02-22
_audit_creation_method CSD-ConQuest-V1
_database_code_CSD SELHIC
_database_code_depnum_ccdc_archive 'CCDC 910255'
_chemical_formula_sum 'C24 H29 N1 O6'
_chemical_formula_moiety
;
C24 H29 N1 O6
;
_journal_coden_Cambridge 35
_journal_volume 77
_journal_year 2012
_journal_page_first 2236
_journal_name_full 'J.Org.Chem. '
loop_
_publ_author_name
"A.Kamimura"
"R.Takeuchi"
"K.Ikeda"
"T.Moriyama"
"M.Sumimoto"
_chemical_name_systematic
;
Dimethyl 
1-benzoyl-7-cyclohexyldihydro-4H-azireno[1,2-b]cyclopenta[c][1,2]oxazole-6,6(7
H)-dicarboxylate
;
_cell_volume   2242.267
_exptl_crystal_colour 'colorless'
_exptl_crystal_density_diffrn 1.266
_exptl_crystal_description 'block'
_diffrn_ambient_temperature 296
#These two values have been output from a single CSD field.
_refine_ls_R_factor_gt 0.0945
_refine_ls_wR_factor_gt 0.0945
_symmetry_cell_setting monoclinic
_symmetry_space_group_name_H-M 'P 21/c'
_symmetry_Int_Tables_number 14
loop_
_symmetry_equiv_pos_site_id
_symmetry_equiv_pos_as_xyz
1 x,y,z
2 -x,1/2+y,1/2-z
3 -x,-y,-z
4 x,-1/2-y,-1/2+z
_cell_length_a 6.0984(4)
_cell_length_b 21.6451(13)
_cell_length_c 17.4041(11)
_cell_angle_alpha 90
_cell_angle_beta 102.5719(18)
_cell_angle_gamma 90
_cell_formula_units_Z 4
loop_
_atom_type_symbol
_atom_type_radius_bond
C 0.68
H 0.23
N 0.68
O 0.68
loop_
_atom_site_label
_atom_site_type_symbol
_atom_site_fract_x
_atom_site_fract_y
_atom_site_fract_z
O1 O 1.2546(6) 0.09742(17) 1.3253(3)
O2 O 0.9301(5) 0.01538(12) 1.18288(16)
O3 O 0.4253(5) 0.09176(12) 1.04201(16)
O4 O 0.6114(5) 0.10930(12) 0.94666(15)
O5 O 0.7883(5) 0.26386(13) 0.99629(19)
O6 O 0.4372(5) 0.23530(12) 0.99818(16)
N1 N 0.7542(5) 0.05847(14) 1.19609(18)
C1 C 1.0277(14) -0.0925(3) 1.4507(4)
C2 C 1.2255(14) -0.0643(3) 1.4567(4)
C3 C 1.2406(10) -0.0112(3) 1.4137(4)
C4 C 1.0532(8) 0.01286(19) 1.3632(3)
C5 C 0.8506(9) -0.0167(3) 1.3571(3)
C6 C 0.8391(12) -0.0697(3) 1.4017(4)
C7 C 1.0755(8) 0.07066(19) 1.3181(3)
C8 C 0.8653(7) 0.09559(17) 1.2666(3)
C9 C 0.8551(6) 0.12165(16) 1.1870(2)
C10 C 1.0424(6) 0.11266(17) 1.1426(3)
C11 C 1.0360(9) 0.0437(2) 1.1267(3)
C12 C 0.9758(6) 0.15313(18) 1.0692(3)
C13 C 0.7254(6) 0.16876(15) 1.0625(2)
C14 C 0.6965(6) 0.17220(16) 1.1492(2)
C15 C 0.6601(7) 0.22804(16) 1.0152(2)
C16 C 0.3503(9) 0.2897(2) 0.9529(4)
C17 C 0.5686(6) 0.11843(15) 1.0180(2)
C18 C 0.4647(8) 0.06603(18) 0.8966(3)
C19 C 0.7438(7) 0.23555(19) 1.1907(3)
C20 C 0.9756(9) 0.2559(3) 1.2141(5)
C21 C 1.0010(12) 0.3176(4) 1.2576(7)
C22 C 0.8692(12) 0.3337(4) 1.3060(5)
C23 C 0.6327(12) 0.3141(5) 1.2782(7)
C24 C 0.6135(14) 0.2521(7) 1.2376(11)
H1 H 1.01830 -0.12790 1.48010
H2 H 1.35330 -0.08030 1.48990
H3 H 1.37860 0.00840 1.41880
H4 H 0.72200 -0.00150 1.32360
H5 H 0.70210 -0.08960 1.39800
H6 H 0.76110 0.11470 1.29520
H7 H 1.18810 0.12520 1.17480
H8 H 0.95190 0.03520 1.07370
H9 H 1.18720 0.02770 1.13200
H10 H 0.99670 0.13100 1.02290
H11 H 1.06560 0.19050 1.07480
H12 H 0.54270 0.15980 1.15030
H13 H 0.38170 0.28690 0.90130
H14 H 0.42090 0.32590 0.97900
H15 H 0.19090 0.29220 0.94850
H16 H 0.31170 0.07950 0.88990
H17 H 0.48070 0.02590 0.92060
H18 H 0.50430 0.06400 0.84630
H19 H 0.68920 0.26330 1.14610
H20 H 1.03790 0.25970 1.16760
H21 H 1.06170 0.22480 1.24790
H22 H 1.15450 0.31950 1.28800
H23 H 0.98630 0.34970 1.21790
H24 H 0.87380 0.37830 1.31220
H25 H 0.92800 0.31560 1.35740
H26 H 0.55350 0.34480 1.24190
H27 H 0.56110 0.31190 1.32270
H28 H 0.63090 0.22100 1.27870
H29 H 0.46020 0.24880 1.20750
#END
