
#######################################################################
#
#                 Cambridge Crystallographic Data Centre
#                                CCDC
#
#######################################################################
#
# If this CIF has been generated from an entry in the Cambridge
# Structural Database, then it will include bibliographic, chemical,
# crystal, experimental, refinement or atomic coordinate data resulting
# from the CCDC's data processing and validation procedures.
#
#######################################################################

data_CSD_CIF_SELXIS
_audit_creation_date 2013-02-22
_audit_creation_method CSD-ConQuest-V1
_database_code_CSD SELXIS
_database_code_depnum_ccdc_archive 'CCDC 881632'
_chemical_formula_sum 'C11 H16 N2 O1'
_chemical_formula_moiety
;
C11 H16 N2 O1
;
_journal_coden_Cambridge 177
_journal_volume 10
_journal_year 2012
_journal_page_first 8963
_journal_name_full 'Org.Biomol.Chem. '
loop_
_publ_author_name
"A.J.Hodges"
"J.P.Adams"
"A.D.Bond"
"A.B.Holmes"
"N.J.Press"
"S.D.Roughley"
"J.H.Ryan"
"S.Saubern"
"C.J.Smith"
"M.D.Turnbull"
"A.F.Newton"
_chemical_name_systematic
;
(1R*,5R*,6R*)-6-Cyano-8-aza-7-oxatricyclo[6.4.0.01,5]dodecane
;
_chemical_name_common
;
Octahydro-1H-cyclopenta[3,4][1,2]oxazolo[2,3-a]pyridine-4-carbonitrile
;
_cell_volume   1018.137
_exptl_crystal_colour 'colorless'
_exptl_crystal_density_diffrn 1.254
_exptl_crystal_description 'needle'
_diffrn_ambient_temperature 180
#These two values have been output from a single CSD field.
_refine_ls_R_factor_gt 0.0401
_refine_ls_wR_factor_gt 0.0401
_symmetry_cell_setting orthorhombic
_symmetry_space_group_name_H-M 'P c a 21'
_symmetry_Int_Tables_number 29
loop_
_symmetry_equiv_pos_site_id
_symmetry_equiv_pos_as_xyz
1 x,y,z
2 -x,-y,1/2+z
3 1/2-x,y,1/2+z
4 1/2+x,-y,z
_cell_length_a 9.6609(9)
_cell_length_b 11.5354(11)
_cell_length_c 9.1360(5)
_cell_angle_alpha 90
_cell_angle_beta 90
_cell_angle_gamma 90
_cell_formula_units_Z 4
loop_
_atom_type_symbol
_atom_type_radius_bond
C 0.68
H 0.23
N 0.68
O 0.68
loop_
_atom_site_label
_atom_site_type_symbol
_atom_site_fract_x
_atom_site_fract_y
_atom_site_fract_z
O1 O 0.64750(17) 0.13179(13) 0.26238(16)
N1 N 0.5821(2) 0.18605(18) 0.13256(19)
N2 N 0.9405(3) 0.28558(19) 0.1993(3)
C1 C 0.4924(3) 0.2753(2) 0.2033(3)
C2 C 0.3616(3) 0.2249(2) 0.2736(3)
H1 H 0.38760 0.18380 0.36470
H2 H 0.29890 0.28930 0.30060
C3 C 0.2848(3) 0.1416(2) 0.1742(3)
H3 H 0.25110 0.18310 0.08630
H4 H 0.20390 0.10890 0.22630
C4 C 0.3834(3) 0.0441(2) 0.1289(3)
H5 H 0.41260 0.00000 0.21650
H6 H 0.33520 -0.00980 0.06180
C5 C 0.5091(2) 0.0941(2) 0.0535(3)
H7 H 0.57520 0.03020 0.03480
H8 H 0.47990 0.12510 -0.04270
C6 C 0.4699(3) 0.3720(2) 0.0898(3)
H9 H 0.45530 0.33910 -0.00910
H10 H 0.38900 0.42040 0.11600
C7 C 0.6035(3) 0.4429(2) 0.0955(3)
H11 H 0.67840 0.40460 0.03960
H12 H 0.58900 0.52200 0.05620
C8 C 0.6371(3) 0.4463(2) 0.2590(3)
H13 H 0.58470 0.50890 0.30830
H14 H 0.73730 0.45920 0.27490
C9 C 0.5931(3) 0.3271(2) 0.3170(2)
H15 H 0.54500 0.33620 0.41330
C10 C 0.7061(3) 0.2317(2) 0.3290(2)
H16 H 0.72540 0.21520 0.43460
C11 C 0.8375(3) 0.2628(2) 0.2536(3)
#END
