
#######################################################################
#
#                 Cambridge Crystallographic Data Centre
#                                CCDC
#
#######################################################################
#
# If this CIF has been generated from an entry in the Cambridge
# Structural Database, then it will include bibliographic, chemical,
# crystal, experimental, refinement or atomic coordinate data resulting
# from the CCDC's data processing and validation procedures.
#
#######################################################################

data_CSD_CIF_SEMTAG
_audit_creation_date 2006-10-09
_audit_creation_method CSD-ConQuest-V1
_database_code_CSD SEMTAG
_database_code_depnum_ccdc_archive 'CCDC 611044'
_chemical_formula_sum 'C18 H12 N2 O2'
_chemical_formula_moiety
;
C18 H12 N2 O2
;
_journal_coden_Cambridge 1078
_journal_year 2006
_journal_name_full 'CSD Communication(Private Communication) '
loop_
_publ_author_name
"S.Parsons"
"L.Crawford"
"H.McNab"
"A.Dawson"
"R.Johnstone"
_chemical_name_systematic
;
9-(2-nitrophenyl)-9H-carbazole
;
_chemical_melting_point 427.15
_cell_volume   2900.671
_exptl_crystal_colour 'yellow'
_exptl_crystal_density_diffrn 1.32
_exptl_special_details
;
contribution from School of Chemistry, The University of Edinburgh King's 
Buildings, West Mains Road, Edinburgh, Scotland EH9 3JJ
;
_exptl_crystal_description 'block'
_exptl_crystal_preparation 'chloroform'
_diffrn_ambient_temperature 150
#These two values have been output from a single CSD field.
_refine_ls_R_factor_gt 0.0284
_refine_ls_wR_factor_gt 0.0284
_symmetry_cell_setting orthorhombic
_symmetry_space_group_name_H-M 'I b a 2'
_symmetry_Int_Tables_number 45
loop_
_symmetry_equiv_pos_site_id
_symmetry_equiv_pos_as_xyz
1 x,y,z
2 -x,-y,z
3 1/2+x,1/2-y,z
4 1/2-x,1/2+y,z
5 1/2+x,1/2+y,1/2+z
6 1/2-x,1/2-y,1/2+z
7 x,-y,1/2+z
8 -x,y,1/2+z
_cell_length_a 14.333(9)
_cell_length_b 25.751(16)
_cell_length_c 7.859(5)
_cell_angle_alpha 90
_cell_angle_beta 90
_cell_angle_gamma 90
_cell_formula_units_Z 8
loop_
_atom_type_symbol
_atom_type_radius_bond
C 0.68
H 0.23
N 0.68
O 0.68
loop_
_atom_site_label
_atom_site_type_symbol
_atom_site_fract_x
_atom_site_fract_y
_atom_site_fract_z
N1 N 0.12389(8) 0.08718(5) 0.89300(15)
O1 O 0.12808(8) 0.12522(4) 0.98549(14)
O2 O 0.08675(8) 0.04614(4) 0.93281(15)
N2 N 0.30280(7) 0.13633(4) 0.82709(14)
C1 C 0.33299(8) 0.18766(5) 0.84511(17)
C2 C 0.31136(10) 0.23089(5) 0.7461(2)
H1 H 0.2686(11) 0.2282(5) 0.6488(19)
C3 C 0.35242(11) 0.27747(6) 0.7922(2)
H2 H 0.3368(10) 0.3092(6) 0.725(2)
C4 C 0.41226(11) 0.28109(6) 0.9319(2)
H3 H 0.4414(10) 0.3148(6) 0.958(2)
C5 C 0.43266(10) 0.23838(5) 1.0296(2)
H4 H 0.4744(11) 0.2412(5) 1.128(2)
C6 C 0.39252(8) 0.19051(5) 0.98678(16)
C7 C 0.39927(9) 0.13876(5) 1.05717(16)
C8 C 0.44944(9) 0.11677(6) 1.19157(18)
H5 H 0.4856(11) 0.1402(5) 1.2601(18)
C9 C 0.44258(10) 0.06418(6) 1.22149(18)
H6 H 0.4755(10) 0.0484(5) 1.318(2)
C10 C 0.38678(9) 0.03258(6) 1.11815(17)
H7 H 0.3821(9) -0.0043(7) 1.1403(19)
C11 C 0.33585(9) 0.05306(5) 0.98345(17)
H8 H 0.2977(8) 0.0296(5) 0.9144(17)
C12 C 0.34301(8) 0.10631(5) 0.95529(16)
C13 C 0.24729(9) 0.11674(5) 0.69213(16)
C14 C 0.16346(9) 0.09098(5) 0.72043(16)
C15 C 0.11354(10) 0.06817(6) 0.58986(19)
H9 H 0.053(1) 0.0506(5) 0.6125(18)
C16 C 0.14571(11) 0.07298(5) 0.42529(19)
H10 H 0.1131(11) 0.0578(6) 0.334(3)
C17 C 0.22838(10) 0.09905(5) 0.39341(18)
H11 H 0.2536(10) 0.1036(6) 0.277(2)
C18 C 0.27942(9) 0.12017(5) 0.52585(18)
H12 H 0.3387(10) 0.1385(5) 0.5064(19)
#END
