
#######################################################################
#
#                 Cambridge Crystallographic Data Centre
#                                CCDC
#
#######################################################################
#
# If this CIF has been generated from an entry in the Cambridge
# Structural Database, then it will include bibliographic, chemical,
# crystal, experimental, refinement or atomic coordinate data resulting
# from the CCDC's data processing and validation procedures.
#
#######################################################################

data_CSD_CIF_SEMTAF01
_audit_creation_date 2006-08-21
_audit_creation_method CSD-ConQuest-V1
_database_code_CSD SEMTAF01
_database_code_depnum_ccdc_archive 'CCDC 295160'
_chemical_formula_sum 'C8 H7 N1 O4'
_chemical_formula_moiety
;
C8 H7 N1 O4
;
_journal_coden_Cambridge 1078
_journal_year 2006
_journal_name_full 'CSD Communication(Private Communication) '
loop_
_publ_author_name
"M.A.Jackisch"
"L.G.Butler"
"F.R.Fronczek"
_chemical_name_systematic
;
p-Nitrophenylacetic acid
;
_cell_volume   1668.351
_exptl_crystal_colour 'yellow'
_exptl_crystal_density_diffrn 1.442
_exptl_special_details
;
orthorhombic Pbca polymorph
contribution from Department of Chemistry, Louisiana State University, Baton 
Rouge, LA 70803-1804, USA
;
_exptl_crystal_description 'plate'
_diffrn_ambient_temperature 110
#These two values have been output from a single CSD field.
_refine_ls_R_factor_gt 0.041
_refine_ls_wR_factor_gt 0.041
_symmetry_cell_setting orthorhombic
_symmetry_space_group_name_H-M 'P b c a'
_symmetry_Int_Tables_number 61
loop_
_symmetry_equiv_pos_site_id
_symmetry_equiv_pos_as_xyz
1 x,y,z
2 1/2-x,-y,1/2+z
3 1/2+x,1/2-y,-z
4 -x,1/2+y,1/2-z
5 -x,-y,-z
6 -1/2+x,y,-1/2-z
7 -1/2-x,-1/2+y,z
8 x,-1/2-y,-1/2+z
_cell_length_a 14.982(3)
_cell_length_b 7.0102(15)
_cell_length_c 15.885(3)
_cell_angle_alpha 90
_cell_angle_beta 90
_cell_angle_gamma 90
_cell_formula_units_Z 8
loop_
_atom_type_symbol
_atom_type_radius_bond
C 0.68
H 0.23
N 0.68
O 0.68
loop_
_atom_site_label
_atom_site_type_symbol
_atom_site_fract_x
_atom_site_fract_y
_atom_site_fract_z
O1 O 0.55819(7) 0.43165(15) 0.58425(6)
O2 O 0.52665(7) 0.26653(16) 0.46769(6)
H1 H 0.4979(12) 0.380(3) 0.4527(11)
O3 O 0.89189(8) 0.1633(2) 0.87054(7)
O4 O 0.77497(9) 0.2577(2) 0.93699(7)
N1 N 0.81224(9) 0.20082(19) 0.87331(8)
C1 C 0.56108(9) 0.2834(2) 0.54312(8)
C2 C 0.60323(10) 0.1026(2) 0.57449(9)
H2 H 0.64210 0.05030 0.52970
H3 H 0.55560 0.00800 0.58560
C3 C 0.65791(9) 0.12801(19) 0.65355(9)
C4 C 0.75054(10) 0.11883(19) 0.64981(8)
H4 H 0.77900 0.09720 0.59720
C5 C 0.80194(10) 0.1408(2) 0.72178(9)
H5 H 0.86520 0.13240 0.71950
C6 C 0.75839(10) 0.1752(2) 0.79679(8)
C7 C 0.66637(10) 0.1858(2) 0.80295(9)
H6 H 0.63830 0.21010 0.85550
C8 C 0.61638(10) 0.1603(2) 0.73073(9)
H7 H 0.55310 0.16470 0.73370
#END
