
#######################################################################
#
#                 Cambridge Crystallographic Data Centre
#                                CCDC
#
#######################################################################
#
# If this CIF has been generated from an entry in the Cambridge
# Structural Database, then it will include bibliographic, chemical,
# crystal, experimental, refinement or atomic coordinate data resulting
# from the CCDC's data processing and validation procedures.
#
#######################################################################

data_CSD_CIF_SEMXUE
_audit_creation_date 2006-10-10
_audit_creation_method CSD-ConQuest-V1
_database_code_CSD SEMXUE
_database_code_depnum_ccdc_archive 'CCDC 611733'
_chemical_formula_sum 'C12 H10 N2 O5'
_chemical_formula_moiety
;
C12 H10 N2 O5
;
_journal_coden_Cambridge 1078
_journal_year 2006
_journal_name_full 'CSD Communication(Private Communication) '
loop_
_publ_author_name
"S.Parsons"
"G.Brown"
"G.Tennant"
"R.Johnstone"
_chemical_name_systematic
;
ethyl 2-cyano-3-hydroxy-3-(2-nitrophenyl)acrylate
;
_chemical_melting_point 365.15
_cell_volume   1228.323
_exptl_crystal_colour 'colorless'
_exptl_crystal_density_diffrn 1.418
_exptl_special_details
;
contribution from School of Chemistry, The University of Edinburgh King's 
Buildings, West Mains Road, Edinburgh, Scotland EH9 3JJ
;
_exptl_crystal_description 'block'
_exptl_crystal_preparation 'ethanol/petroleum'
_diffrn_ambient_temperature 150
#These two values have been output from a single CSD field.
_refine_ls_R_factor_gt 0.0391
_refine_ls_wR_factor_gt 0.0391
_symmetry_cell_setting monoclinic
_symmetry_space_group_name_H-M 'P 21/c'
_symmetry_Int_Tables_number 14
loop_
_symmetry_equiv_pos_site_id
_symmetry_equiv_pos_as_xyz
1 x,y,z
2 -x,1/2+y,1/2-z
3 -x,-y,-z
4 x,-1/2-y,-1/2+z
_cell_length_a 10.9451(15)
_cell_length_b 8.0999(11)
_cell_length_c 14.0396(19)
_cell_angle_alpha 90
_cell_angle_beta 99.296(2)
_cell_angle_gamma 90
_cell_formula_units_Z 4
loop_
_atom_type_symbol
_atom_type_radius_bond
C 0.68
H 0.23
N 0.68
O 0.68
loop_
_atom_site_label
_atom_site_type_symbol
_atom_site_fract_x
_atom_site_fract_y
_atom_site_fract_z
O1 O 0.50628(9) 0.13747(12) 0.56309(8)
C1 C 0.57544(13) 0.21382(16) 0.62541(10)
C2 C 0.70092(12) 0.26064(15) 0.6131(1)
O2 O 0.68559(9) 0.11361(12) 0.46618(7)
H1 H 0.6055(18) 0.098(3) 0.4830(15)
C3 C 0.74761(12) 0.20871(15) 0.53381(10)
C4 C 0.87622(12) 0.24087(15) 0.51797(10)
C5 C 0.97313(12) 0.17145(16) 0.58102(10)
H2 H 0.95690 0.11690 0.63750
C6 C 1.09336(13) 0.18090(17) 0.56241(11)
H3 H 1.15910 0.13370 0.60650
C7 C 1.11812(14) 0.25852(18) 0.48018(12)
H4 H 1.20050 0.26210 0.46700
C8 C 1.02353(14) 0.33121(18) 0.41680(11)
H5 H 1.04040 0.38610 0.36050
C9 C 0.90466(13) 0.32266(16) 0.43666(10)
N1 N 0.80666(12) 0.41335(14) 0.37259(9)
O3 O 0.82870(12) 0.45858(13) 0.29430(8)
O4 O 0.71085(10) 0.44367(12) 0.40346(8)
O5 O 0.54423(8) 0.25833(11) 0.70857(7)
C10 C 0.41958(12) 0.20799(18) 0.72320(11)
H6 H 0.40750 0.08850 0.71030
H7 H 0.35610 0.26950 0.67880
C11 C 0.40859(15) 0.2453(2) 0.82518(12)
H8 H 0.32610 0.21320 0.83730
H9 H 0.42070 0.36390 0.83710
H10 H 0.47170 0.18350 0.86840
C12 C 0.77356(12) 0.36196(16) 0.68396(11)
N2 N 0.83086(11) 0.44441(15) 0.74059(9)
#END
