
#######################################################################
#
#                 Cambridge Crystallographic Data Centre
#                                CCDC
#
#######################################################################
#
# If this CIF has been generated from an entry in the Cambridge
# Structural Database, then it will include bibliographic, chemical,
# crystal, experimental, refinement or atomic coordinate data resulting
# from the CCDC's data processing and validation procedures.
#
#######################################################################

data_CSD_CIF_SEMYIT01
_audit_creation_date 2006-10-10
_audit_creation_method CSD-ConQuest-V1
_database_code_CSD SEMYIT01
_database_code_depnum_ccdc_archive 'CCDC 611737'
_chemical_formula_sum 'C12 H10 N2 O5'
_chemical_formula_moiety
;
C12 H10 N2 O5
;
_journal_coden_Cambridge 1078
_journal_year 2006
_journal_name_full 'CSD Communication(Private Communication) '
loop_
_publ_author_name
"S.Parsons"
"G.Brown"
"G.Tennant"
"R.Johnstone"
_chemical_name_systematic
;
methyl 2-cyano-3-methoxy-3-(2-nitrophenyl)acrylate
;
_chemical_melting_point 409.15
_cell_volume   1212.587
_exptl_crystal_colour 'colorless'
_exptl_crystal_density_diffrn 1.436
_exptl_special_details
;
monoclinic polymorph
contribution from School of Chemistry, The University of Edinburgh King's 
Buildings, West Mains Road, Edinburgh, Scotland EH9 3JJ
;
_exptl_crystal_description 'block'
_exptl_crystal_preparation 'ethanol/petroleum'
_diffrn_ambient_temperature 150
#These two values have been output from a single CSD field.
_refine_ls_R_factor_gt 0.044
_refine_ls_wR_factor_gt 0.044
loop_
_citation_database_id_CSD
_citation_special_details
SENREJ "is a stereoisomer of this entry"
_symmetry_cell_setting monoclinic
_symmetry_space_group_name_H-M 'P 21/c'
_symmetry_Int_Tables_number 14
loop_
_symmetry_equiv_pos_site_id
_symmetry_equiv_pos_as_xyz
1 x,y,z
2 -x,1/2+y,1/2-z
3 -x,-y,-z
4 x,-1/2-y,-1/2+z
_cell_length_a 15.159(3)
_cell_length_b 10.641(2)
_cell_length_c 7.7233(17)
_cell_angle_alpha 90
_cell_angle_beta 103.264(3)
_cell_angle_gamma 90
_cell_formula_units_Z 4
loop_
_atom_type_symbol
_atom_type_radius_bond
C 0.68
H 0.23
N 0.68
O 0.68
loop_
_atom_site_label
_atom_site_type_symbol
_atom_site_fract_x
_atom_site_fract_y
_atom_site_fract_z
N1 N 0.14121(8) -0.27736(12) 0.11864(17)
C1 C 0.20853(9) -0.22549(12) 0.16744(18)
C2 C 0.29241(9) -0.16057(13) 0.22872(17)
C3 C 0.28869(9) -0.03492(13) 0.25857(18)
C4 C 0.19858(8) 0.02833(11) 0.22903(17)
C5 C 0.15435(9) 0.02927(13) 0.36804(18)
H1 H 0.18310 -0.00590 0.47980
C6 C 0.06856(10) 0.08118(13) 0.3445(2)
H2 H 0.03960 0.08290 0.44130
C7 C 0.02485(9) 0.13020(13) 0.1831(2)
H3 H -0.03420 0.16470 0.16830
C8 C 0.06688(9) 0.12925(13) 0.04225(18)
H4 H 0.03690 0.16190 -0.07040
C9 C 0.15307(9) 0.08007(11) 0.06777(16)
N2 N 0.19777(10) 0.08566(11) -0.08184(16)
O1 O 0.15137(10) 0.10400(13) -0.23026(14)
O2 O 0.28033(8) 0.07438(11) -0.04825(15)
O3 O 0.36366(6) 0.02845(9) 0.32674(15)
C10 C 0.35740(11) 0.16195(15) 0.3590(3)
H5 H 0.41820 0.19590 0.40710
H6 H 0.31960 0.17570 0.44460
H7 H 0.33020 0.20460 0.24700
C11 C 0.37711(9) -0.23448(14) 0.2571(2)
O4 O 0.45262(7) -0.19299(11) 0.29365(18)
O5 O 0.35745(6) -0.35660(9) 0.23394(15)
C12 C 0.43389(10) -0.44154(15) 0.2582(3)
H8 H 0.41300 -0.52800 0.26690
H9 H 0.47830 -0.41960 0.36760
H10 H 0.46220 -0.43460 0.15650
#END
