
#######################################################################
#
#                 Cambridge Crystallographic Data Centre
#                                CCDC
#
#######################################################################
#
# If this CIF has been generated from an entry in the Cambridge
# Structural Database, then it will include bibliographic, chemical,
# crystal, experimental, refinement or atomic coordinate data resulting
# from the CCDC's data processing and validation procedures.
#
#######################################################################

data_CSD_CIF_SEMYUF
_audit_creation_date 2006-10-10
_audit_creation_method CSD-ConQuest-V1
_database_code_CSD SEMYUF
_database_code_depnum_ccdc_archive 'CCDC 611740'
_chemical_formula_sum 'C18 H11 N3 O8'
_chemical_formula_moiety
;
C18 H11 N3 O8
;
_journal_coden_Cambridge 1078
_journal_year 2006
_journal_name_full 'CSD Communication(Private Communication) '
loop_
_publ_author_name
"S.Parsons"
"G.Brown"
"G.Tennant"
"R.Johnstone"
_chemical_name_systematic
;
2-cyano-3-methoxy-1-(2-nitrophenyl)-3-oxoprop-1-enyl 2-nitrobenzoate
;
_chemical_melting_point 421.15
_cell_volume    878.781
_exptl_crystal_colour 'colorless'
_exptl_crystal_density_diffrn 1.501
_exptl_special_details
;
contribution from School of Chemistry, The University of Edinburgh King's 
Buildings, West Mains Road, Edinburgh, Scotland EH9 3JJ
;
_exptl_crystal_description 'block'
_exptl_crystal_preparation 'ethyl acetate'
_diffrn_ambient_temperature 150
#These two values have been output from a single CSD field.
_refine_ls_R_factor_gt 0.0387
_refine_ls_wR_factor_gt 0.0387
_symmetry_cell_setting triclinic
_symmetry_space_group_name_H-M 'P -1'
_symmetry_Int_Tables_number 2
loop_
_symmetry_equiv_pos_site_id
_symmetry_equiv_pos_as_xyz
1 x,y,z
2 -x,-y,-z
_cell_length_a 6.9838(5)
_cell_length_b 7.9368(6)
_cell_length_c 16.2542(13)
_cell_angle_alpha 94.827(1)
_cell_angle_beta 101.641(1)
_cell_angle_gamma 90.935(1)
_cell_formula_units_Z 2
loop_
_atom_type_symbol
_atom_type_radius_bond
C 0.68
H 0.23
N 0.68
O 0.68
loop_
_atom_site_label
_atom_site_type_symbol
_atom_site_fract_x
_atom_site_fract_y
_atom_site_fract_z
N1 N 0.22676(19) 0.57350(16) 0.52257(7)
C1 C 0.27216(19) 0.60987(16) 0.59365(9)
C2 C 0.33276(19) 0.65797(16) 0.68267(8)
O1 O 0.51156(13) 0.84314(11) 0.79166(5)
C3 C 0.46832(19) 0.78347(16) 0.70729(8)
C4 C 0.57219(18) 0.86590(16) 0.64961(8)
C5 C 0.6914(2) 0.76842(17) 0.60671(8)
H1 H 0.70250 0.65140 0.61440
C6 C 0.7943(2) 0.84028(18) 0.55287(9)
H2 H 0.87310 0.77190 0.52320
C7 C 0.7820(2) 1.01074(19) 0.54244(9)
H3 H 0.85410 1.05960 0.50620
C8 C 0.6655(2) 1.11120(17) 0.58438(9)
H4 H 0.65700 1.22870 0.57740
C9 C 0.56199(19) 1.03744(16) 0.63650(8)
N2 N 0.42512(17) 1.14488(14) 0.67326(7)
O2 O 0.45427(16) 1.29790(13) 0.67845(7)
O3 O 0.28709(15) 1.07574(13) 0.69446(7)
O4 O 0.30566(15) 0.56067(13) 0.81555(6)
C10 C 0.2371(2) 0.56797(16) 0.74192(8)
O5 O 0.06667(13) 0.49881(12) 0.70063(6)
C11 C -0.0383(2) 0.39797(19) 0.74879(9)
H5 H 0.01620 0.28510 0.75150
H6 H -0.17700 0.38780 0.72140
H7 H -0.02500 0.45300 0.80600
O6 O 0.82007(17) 0.75484(16) 0.80253(7)
C12 C 0.6986(2) 0.82219(17) 0.83430(9)
C13 C 0.71977(19) 0.87450(17) 0.92613(8)
C14 C 0.7169(2) 0.74550(19) 0.97842(9)
H8 H 0.69930 0.63120 0.95490
C15 C 0.7396(2) 0.7825(2) 1.06476(10)
H9 H 0.73630 0.69360 1.10010
C16 C 0.7670(2) 0.9482(2) 1.09962(9)
H10 H 0.78450 0.97220 1.15900
C17 C 0.7691(2) 1.07934(19) 1.04878(9)
H11 H 0.78680 1.19340 1.07250
C18 C 0.74492(19) 1.04053(17) 0.96265(8)
N3 N 0.75083(17) 1.17906(15) 0.90888(8)
O7 O 0.7607(2) 1.32347(14) 0.94075(9)
O8 O 0.74849(17) 1.14133(14) 0.83380(7)
#END
