
#######################################################################
#
#                 Cambridge Crystallographic Data Centre
#                                CCDC
#
#######################################################################
#
# If this CIF has been generated from an entry in the Cambridge
# Structural Database, then it will include bibliographic, chemical,
# crystal, experimental, refinement or atomic coordinate data resulting
# from the CCDC's data processing and validation procedures.
#
#######################################################################

data_CSD_CIF_SEMYAL
_audit_creation_date 2006-10-10
_audit_creation_method CSD-ConQuest-V1
_database_code_CSD SEMYAL
_database_code_depnum_ccdc_archive 'CCDC 611734'
_chemical_formula_sum 'C8 H5 N3 O6'
_chemical_formula_moiety
;
C8 H5 N3 O6
;
_journal_coden_Cambridge 1078
_journal_year 2006
_journal_name_full 'CSD Communication(Private Communication) '
loop_
_publ_author_name
"S.Parsons"
"G.Brown"
"G.Tennant"
"R.Johnstone"
_chemical_name_systematic
;
(2,4-dinitrophenyl)(hydroxyimino)acetaldehyde
;
_chemical_melting_point 425.15
_cell_volume   1980.783
_exptl_crystal_colour 'colorless'
_exptl_crystal_density_diffrn 1.604
_exptl_special_details
;
contribution from School of Chemistry, The University of Edinburgh King's 
Buildings, West Mains Road, Edinburgh, Scotland EH9 3JJ
;
_exptl_crystal_description 'wedge'
_exptl_crystal_preparation 'toluene'
_diffrn_ambient_temperature 150
#These two values have been output from a single CSD field.
_refine_ls_R_factor_gt 0.0432
_refine_ls_wR_factor_gt 0.0432
_symmetry_cell_setting orthorhombic
_symmetry_space_group_name_H-M 'P b c a'
_symmetry_Int_Tables_number 61
loop_
_symmetry_equiv_pos_site_id
_symmetry_equiv_pos_as_xyz
1 x,y,z
2 1/2-x,-y,1/2+z
3 -x,1/2+y,1/2-z
4 1/2+x,1/2-y,-z
5 -x,-y,-z
6 -1/2+x,y,-1/2-z
7 x,-1/2-y,-1/2+z
8 -1/2-x,-1/2+y,z
_cell_length_a 13.1419(5)
_cell_length_b 8.3156(3)
_cell_length_c 18.1253(5)
_cell_angle_alpha 90
_cell_angle_beta 90
_cell_angle_gamma 90
_cell_formula_units_Z 8
loop_
_atom_type_symbol
_atom_type_radius_bond
C 0.68
H 0.23
N 0.68
O 0.68
loop_
_atom_site_label
_atom_site_type_symbol
_atom_site_fract_x
_atom_site_fract_y
_atom_site_fract_z
O1 O 0.25016(13) 0.0024(3) 0.28173(9)
C1 C 0.33552(19) -0.0198(3) 0.26090(12)
H1 H 0.351(2) -0.080(3) 0.2169(15)
C2 C 0.42460(15) 0.0321(3) 0.30391(10)
C3 C 0.40945(14) 0.1062(2) 0.37778(10)
C4 C 0.41442(16) 0.2720(3) 0.38396(11)
H2 H 0.43060 0.33460 0.34170
C5 C 0.39622(17) 0.3480(3) 0.45062(12)
H3 H 0.39970 0.46180 0.45440
C6 C 0.37309(15) 0.2557(3) 0.51109(10)
C7 C 0.36781(15) 0.0914(3) 0.50842(10)
H4 H 0.35200 0.02980 0.55110
C8 C 0.38631(14) 0.0190(2) 0.4414(1)
N1 N 0.38264(13) -0.1577(2) 0.43956(10)
O2 O 0.35874(16) -0.2273(2) 0.49552(10)
O3 O 0.4073(2) -0.2274(2) 0.38455(10)
N2 N 0.35148(18) 0.3361(3) 0.58179(10)
O4 O 0.3658(2) 0.4781(3) 0.58538(12)
O5 O 0.3183(2) 0.2561(3) 0.63208(10)
N3 N 0.50928(13) 0.0153(2) 0.27028(9)
O6 O 0.59042(12) 0.0690(2) 0.31137(10)
H5 H 0.645(3) 0.042(4) 0.2852(19)
#END
