
#######################################################################
#
#                 Cambridge Crystallographic Data Centre
#                                CCDC
#
#######################################################################
#
# If this CIF has been generated from an entry in the Cambridge
# Structural Database, then it will include bibliographic, chemical,
# crystal, experimental, refinement or atomic coordinate data resulting
# from the CCDC's data processing and validation procedures.
#
#######################################################################

data_CSD_CIF_SEMZAM
_audit_creation_date 2006-10-10
_audit_creation_method CSD-ConQuest-V1
_database_code_CSD SEMZAM
_database_code_depnum_ccdc_archive 'CCDC 611742'
_chemical_formula_sum 'C11 H9 N5 O2'
_chemical_formula_moiety
;
C11 H9 N5 O2
;
_journal_coden_Cambridge 1078
_journal_year 2006
_journal_name_full 'CSD Communication(Private Communication) '
loop_
_publ_author_name
"S.Parsons"
"G.Brown"
"G.Tennant"
"R.Johnstone"
_chemical_name_systematic
;
3-amino-1-methyl-5-(2-nitrophenyl)-1H-pyrazole-4-carbonitrile
;
_chemical_melting_point 445.15
_cell_volume   1100.128
_exptl_crystal_colour 'yellow'
_exptl_crystal_density_diffrn 1.469
_exptl_special_details
;
contribution from School of Chemistry, The University of Edinburgh King's 
Buildings, West Mains Road, Edinburgh, Scotland EH9 3JJ
;
_exptl_crystal_description 'block'
_exptl_crystal_preparation 'ethyl acetate'
_diffrn_ambient_temperature 150
#These two values have been output from a single CSD field.
_refine_ls_R_factor_gt 0.0475
_refine_ls_wR_factor_gt 0.0475
_symmetry_cell_setting monoclinic
_symmetry_space_group_name_H-M 'P 21/n'
_symmetry_Int_Tables_number 14
loop_
_symmetry_equiv_pos_site_id
_symmetry_equiv_pos_as_xyz
1 x,y,z
2 1/2-x,1/2+y,1/2-z
3 -x,-y,-z
4 -1/2+x,-1/2-y,-1/2+z
_cell_length_a 8.456(3)
_cell_length_b 14.269(4)
_cell_length_c 9.188(3)
_cell_angle_alpha 90
_cell_angle_beta 97.093(4)
_cell_angle_gamma 90
_cell_formula_units_Z 4
loop_
_atom_type_symbol
_atom_type_radius_bond
C 0.68
H 0.23
N 0.68
O 0.68
loop_
_atom_site_label
_atom_site_type_symbol
_atom_site_fract_x
_atom_site_fract_y
_atom_site_fract_z
N1 N 0.18651(14) 0.25453(8) 0.13398(12)
N2 N 0.18498(14) 0.20062(8) 0.00982(12)
C1 C 0.25611(16) 0.24258(9) -0.09554(14)
C2 C 0.30970(16) 0.32927(9) -0.03858(14)
C3 C 0.26203(16) 0.33296(10) 0.10456(14)
C4 C 0.27534(16) 0.19957(9) -0.23886(14)
C5 C 0.22642(16) 0.24325(9) -0.37395(14)
C6 C 0.25365(17) 0.20466(10) -0.50728(15)
H1 H 0.22040 0.23650 -0.59660
C7 C 0.33014(18) 0.11891(11) -0.50783(16)
H2 H 0.34880 0.09120 -0.59820
C8 C 0.37960(18) 0.0734(1) -0.37682(17)
H3 H 0.43120 0.01430 -0.37790
C9 C 0.35420(17) 0.11364(10) -0.24392(16)
H4 H 0.39100 0.08230 -0.15500
C10 C 0.1127(2) 0.10791(10) 0.00983(16)
H5 H 0.09780 0.08310 -0.09040
H6 H 0.00910 0.11240 0.04680
H7 H 0.18250 0.06590 0.07300
C11 C 0.39028(16) 0.39831(9) -0.11330(14)
N3 N 0.45348(15) 0.45335(9) -0.17603(13)
N4 N 0.28063(16) 0.40623(9) 0.20226(13)
H8 H 0.257(2) 0.3956(12) 0.288(2)
H9 H 0.360(2) 0.4475(14) 0.193(2)
N5 N 0.13569(15) 0.33186(8) -0.38084(12)
O1 O 0.16186(15) 0.38944(8) -0.47538(12)
O2 O 0.03738(13) 0.34339(8) -0.29498(11)
#END
