
#######################################################################
#
#                 Cambridge Crystallographic Data Centre
#                                CCDC
#
#######################################################################
#
# If this CIF has been generated from an entry in the Cambridge
# Structural Database, then it will include bibliographic, chemical,
# crystal, experimental, refinement or atomic coordinate data resulting
# from the CCDC's data processing and validation procedures.
#
#######################################################################

data_CSD_CIF_SENVUE
_audit_creation_date 2013-05-13
_audit_creation_method CSD-ConQuest-V1
_database_code_CSD SENVUE
_database_code_depnum_ccdc_archive 'CCDC 895840'
_chemical_formula_sum 'C25 H28 N2 O8'
_chemical_formula_moiety
;
C25 H28 N2 O8
;
_journal_coden_Cambridge 1336
_journal_volume 15
_journal_year 2013
_journal_page_first 812
_journal_name_full 'Org.Lett. '
loop_
_publ_author_name
"Shouliang Yang"
"Yumeng Xi"
"Rong Zhu"
"Lin Wang"
"Jiahua Chen"
"Zhen Yang"
_chemical_name_systematic
;
4-Benzyl-3-(5-(2,5-dimethoxy-3-nitrophenyl)-5-hydroxy-2,4-dimethylpent-2-enoyl
)-1,3-oxazolidin-2-one
;
_cell_volume   2491.857
_exptl_crystal_colour 'colorless'
_exptl_crystal_density_diffrn 1.291
_exptl_crystal_description 'block'
_diffrn_ambient_temperature 173
#These two values have been output from a single CSD field.
_refine_ls_R_factor_gt 0.0545
_refine_ls_wR_factor_gt 0.0545
_symmetry_cell_setting orthorhombic
_symmetry_space_group_name_H-M 'P 21 21 21'
_symmetry_Int_Tables_number 19
loop_
_symmetry_equiv_pos_site_id
_symmetry_equiv_pos_as_xyz
1 x,y,z
2 1/2-x,-y,1/2+z
3 -x,1/2+y,1/2-z
4 1/2+x,1/2-y,-z
_cell_length_a 8.0877(16)
_cell_length_b 8.3009(17)
_cell_length_c 37.117(7)
_cell_angle_alpha 90
_cell_angle_beta 90
_cell_angle_gamma 90
_cell_formula_units_Z 4
loop_
_atom_type_symbol
_atom_type_radius_bond
C 0.68
H 0.23
N 0.68
O 0.68
loop_
_atom_site_label
_atom_site_type_symbol
_atom_site_fract_x
_atom_site_fract_y
_atom_site_fract_z
O1 O 0.7269(3) 0.7921(2) 0.99706(6)
O2 O 0.7133(4) 0.6912(3) 0.94127(6)
O3 O 0.5102(3) 1.1373(2) 0.92147(5)
O4 O 0.3333(3) 0.4214(3) 0.90531(5)
H1 H 0.37590 0.33670 0.91190
O5 O 0.0563(3) 0.0748(3) 0.81725(7)
O6 O 0.6059(3) 0.4718(3) 0.80678(6)
N1 N 0.5300(5) 0.2743(4) 0.74883(8)
O7 O 0.6719(5) 0.2359(6) 0.75026(10)
O8 O 0.4640(6) 0.3187(4) 0.72157(7)
N2 N 0.5698(3) 0.9265(3) 0.95750(6)
C1 C 0.3908(4) 1.1931(4) 1.06555(8)
H2 H 0.34440 1.09130 1.07140
C2 C 0.4131(4) 1.3059(4) 1.09234(9)
H3 H 0.37960 1.28250 1.11630
C3 C 0.4839(4) 1.4523(4) 1.08445(10)
H4 H 0.50110 1.52910 1.10300
C4 C 0.5300(4) 1.4877(4) 1.04951(10)
H5 H 0.57900 1.58890 1.04410
C5 C 0.5048(4) 1.3755(3) 1.02240(9)
H6 H 0.53520 1.40070 0.99830
C6 C 0.4353(3) 1.2262(3) 1.03018(7)
C7 C 0.4120(3) 1.1032(3) 1.00043(7)
H7 H 0.35720 1.15450 0.97950
H8 H 0.34030 1.01460 1.00910
C8 C 0.5794(4) 1.0357(3) 0.98899(7)
H9 H 0.65790 1.12590 0.98390
C9 C 0.6532(4) 0.9231(4) 1.01723(8)
H10 H 0.73790 0.97980 1.03170
H11 H 0.56610 0.88230 1.03360
C10 C 0.6730(4) 0.7921(4) 0.96264(8)
C11 C 0.5300(3) 0.9914(3) 0.92378(7)
C12 C 0.5060(4) 0.8830(3) 0.89234(7)
C13 C 0.5869(6) 0.9416(5) 0.85837(9)
H12 H 0.69730 0.89380 0.85620
H13 H 0.59660 1.05920 0.85910
H14 H 0.51980 0.91000 0.83760
C14 C 0.4049(4) 0.7579(3) 0.89536(7)
H15 H 0.36230 0.73580 0.91870
C15 C 0.3511(4) 0.6475(4) 0.86529(8)
H16 H 0.40440 0.68480 0.84250
C16 C 0.1633(5) 0.6555(5) 0.86042(11)
H17 H 0.13070 0.76650 0.85490
H18 H 0.10890 0.62070 0.88270
H19 H 0.13020 0.58460 0.84060
C17 C 0.4114(4) 0.4750(3) 0.87323(7)
H20 H 0.53350 0.47800 0.87740
C18 C 0.3762(4) 0.3631(3) 0.84152(7)
C19 C 0.2401(4) 0.2620(4) 0.84231(8)
H21 H 0.17470 0.25730 0.86350
C20 C 0.1961(4) 0.1668(4) 0.81284(9)
C21 C 0.2902(4) 0.1719(4) 0.78160(8)
H22 H 0.26040 0.11100 0.76090
C22 C 0.4293(4) 0.2693(4) 0.78175(7)
C23 C 0.4752(4) 0.3663(3) 0.81052(7)
C24 C 0.0007(6) -0.0164(5) 0.78668(11)
H23 H -0.10470 -0.06860 0.79240
H24 H 0.08320 -0.09880 0.78070
H25 H -0.01410 0.05580 0.76600
C25 C 0.7604(5) 0.4172(7) 0.82142(12)
H26 H 0.75220 0.41150 0.84770
H27 H 0.84830 0.49280 0.81470
H28 H 0.78620 0.31020 0.81180
#END
