
#######################################################################
#
#                 Cambridge Crystallographic Data Centre
#                                CCDC
#
#######################################################################
#
# If this CIF has been generated from an entry in the Cambridge
# Structural Database, then it will include bibliographic, chemical,
# crystal, experimental, refinement or atomic coordinate data resulting
# from the CCDC's data processing and validation procedures.
#
#######################################################################

data_CSD_CIF_SENZUH
_audit_creation_date 2007-02-08
_audit_creation_method CSD-ConQuest-V1
_database_code_CSD SENZUH
_database_code_depnum_ccdc_archive 'CCDC 625348'
_chemical_formula_sum 'C21 H26 N2 O4'
_chemical_formula_moiety
;
C21 H26 N2 O4
;
_journal_coden_Cambridge 388
_journal_volume 41
_journal_year 2005
_journal_page_first 1824
_journal_name_full 'Zh.Org.Khim.(Russ.)(Russ.J.Org.Chem.) '
loop_
_publ_author_name
"A.P.Avdeenko"
"I.L.Marchenko"
"A.L.Yusina"
"S.A.Konovalova"
"O.N.Ludchenko"
_chemical_name_systematic
;
N-(4-Nitrobenzoyl)-2,6-di-t-butyl-4-aminophenol
;
_cell_volume   1024.369
_exptl_crystal_colour 'yellow'
_exptl_crystal_density_diffrn 1.194
_exptl_crystal_description 'block'
_diffrn_ambient_temperature 295
#These two values have been output from a single CSD field.
_refine_ls_R_factor_gt 0.0539
_refine_ls_wR_factor_gt 0.0539
_symmetry_cell_setting monoclinic
_symmetry_space_group_name_H-M 'P c'
_symmetry_Int_Tables_number 7
loop_
_symmetry_equiv_pos_site_id
_symmetry_equiv_pos_as_xyz
1 x,y,z
2 x,-y,1/2+z
_cell_length_a 8.605(3)
_cell_length_b 12.872(4)
_cell_length_c 9.541(4)
_cell_angle_alpha 90
_cell_angle_beta 104.23(2)
_cell_angle_gamma 90
_cell_formula_units_Z 2
loop_
_atom_type_symbol
_atom_type_radius_bond
C 0.68
H 0.23
N 0.68
O 0.68
loop_
_atom_site_label
_atom_site_type_symbol
_atom_site_fract_x
_atom_site_fract_y
_atom_site_fract_z
O1 O -0.3156(6) -0.3246(4) 0.4328(6)
O2 O 0.1329(5) 0.0695(3) 0.5643(4)
O3 O 0.5016(9) 0.4831(5) 0.3298(7)
O4 O 0.3687(8) 0.4569(4) 0.1155(7)
N1 N 0.0634(5) 0.0034(3) 0.3383(5)
N2 N 0.4063(7) 0.4350(4) 0.2431(8)
C1 C -0.2199(7) -0.2450(4) 0.4070(6)
C2 C -0.1014(6) -0.2630(4) 0.3307(6)
C3 C -0.0078(6) -0.1773(3) 0.3134(5)
H1 H 0.0775(6) -0.1862(3) 0.2658(5)
C4 C -0.0305(5) -0.0818(3) 0.3682(5)
C5 C -0.1481(6) -0.0663(4) 0.4401(5)
H2 H -0.1604(6) 0.0013(4) 0.4787(5)
C6 C -0.2485(6) -0.1478(4) 0.4605(5)
C7 C -0.0779(7) -0.3668(4) 0.2597(7)
C8 C -0.3819(7) -0.1285(5) 0.5379(6)
C9 C -0.0428(12) -0.4565(5) 0.3714(10)
H3 H -0.0837(12) -0.5236(5) 0.3234(10)
H4 H -0.0979(12) -0.4415(5) 0.450(1)
H5 H 0.0749(12) -0.4626(5) 0.4156(10)
C10 C -0.2273(9) -0.3928(6) 0.1452(9)
H6 H -0.2398(9) -0.3440(6) 0.0616(9)
H7 H -0.3226(9) -0.3861(6) 0.1870(9)
H8 H -0.2226(9) -0.4656(6) 0.1097(9)
C11 C 0.0618(10) -0.3644(5) 0.1908(10)
H9 H 0.1585(10) -0.3429(5) 0.2671(10)
H10 H 0.047(1) -0.3134(5) 0.1096(10)
H11 H 0.0832(10) -0.4349(5) 0.1556(10)
C12 C -0.3490(9) -0.1899(6) 0.6785(8)
H12 H -0.4281(9) -0.1681(6) 0.7340(8)
H13 H -0.2389(9) -0.1739(6) 0.7383(8)
H14 H -0.3595(9) -0.2666(6) 0.6621(8)
C13 C -0.3968(8) -0.0128(6) 0.5732(8)
H15 H -0.3011(8) 0.0035(6) 0.6535(8)
H16 H -0.4959(8) 0.0012(6) 0.6071(8)
H17 H -0.3962(8) 0.0337(6) 0.4894(8)
C14 C -0.5444(8) -0.1589(6) 0.4396(8)
H18 H -0.6325(8) -0.1358(6) 0.4839(8)
H19 H -0.5497(8) -0.2360(6) 0.4264(8)
H20 H -0.5585(8) -0.1257(6) 0.3425(8)
C15 C 0.1326(6) 0.0746(3) 0.4372(5)
C16 C 0.2048(6) 0.1677(3) 0.3800(5)
C17 C 0.1653(7) 0.1941(4) 0.2349(5)
H21 H 0.0936(7) 0.1514(4) 0.1654(5)
C18 C 0.2321(7) 0.2827(4) 0.1893(6)
H22 H 0.2078(7) 0.3018(4) 0.0890(6)
C19 C 0.3328(6) 0.3418(4) 0.2906(6)
C20 C 0.3735(7) 0.3178(4) 0.4340(7)
H23 H 0.4474(7) 0.3606(4) 0.5014(7)
C21 C 0.3065(7) 0.2294(4) 0.4781(6)
H24 H 0.3300(7) 0.2118(4) 0.5789(6)
H25 H 0.0716(66) 0.0042(39) 0.2526(65)
H26 H -0.332(11) -0.3661(68) 0.3513(97)
#END
