
#######################################################################
#
#                 Cambridge Crystallographic Data Centre
#                                CCDC
#
#######################################################################
#
# If this CIF has been generated from an entry in the Cambridge
# Structural Database, then it will include bibliographic, chemical,
# crystal, experimental, refinement or atomic coordinate data resulting
# from the CCDC's data processing and validation procedures.
#
#######################################################################

data_CSD_CIF_SEPFAW
_audit_creation_date 2013-05-13
_audit_creation_method CSD-ConQuest-V1
_database_code_CSD SEPFAW
_database_code_depnum_ccdc_archive 'CCDC 938138'
_chemical_formula_sum 'C18 H19 N3 O4'
_chemical_formula_moiety
;
C18 H19 N3 O4
;
_journal_coden_Cambridge 35
_journal_volume 77
_journal_year 2012
_journal_page_first 6186
_journal_name_full 'J.Org.Chem. '
loop_
_publ_author_name
"J.C.Anderson"
"L.R.Horsfall"
"A.S.Kalogirou"
"M.R.Mills"
"G.J.Stepney"
"G.J.Tizzard"
_chemical_name_systematic
;
(3S*,4S*,5S*)-3-Ethyl-1-(4-methoxyphenyl)-4-nitro-5-(pyridin-2-yl)pyrrolidin-2
-one
;
_chemical_melting_point 388.15
_cell_volume   1707.194
_exptl_crystal_colour 'colorless'
_exptl_crystal_density_diffrn 1.328
_exptl_special_details
;
Melting point range 388.15-390.15K

;
_exptl_crystal_description 'Plate'
_diffrn_ambient_temperature 100
#These two values have been output from a single CSD field.
_refine_ls_R_factor_gt 0.0739
_refine_ls_wR_factor_gt 0.0739
_symmetry_cell_setting monoclinic
_symmetry_space_group_name_H-M 'P 21/c'
_symmetry_Int_Tables_number 14
loop_
_symmetry_equiv_pos_site_id
_symmetry_equiv_pos_as_xyz
1 x,y,z
2 -x,1/2+y,1/2-z
3 -x,-y,-z
4 x,-1/2-y,-1/2+z
_cell_length_a 12.6533(8)
_cell_length_b 15.8418(2)
_cell_length_c 8.8587(1)
_cell_angle_alpha 90
_cell_angle_beta 105.971(8)
_cell_angle_gamma 90
_cell_formula_units_Z 4
loop_
_atom_type_symbol
_atom_type_radius_bond
C 0.68
H 0.23
N 0.68
O 0.68
loop_
_atom_site_label
_atom_site_type_symbol
_atom_site_fract_x
_atom_site_fract_y
_atom_site_fract_z
C1 C 0.7786(2) 0.85065(16) 0.1048(3)
C2 C 0.8971(2) 0.85858(17) 0.2008(3)
H1 H 0.92930 0.80060 0.22000
C3 C 0.8854(2) 0.89320(18) 0.3558(3)
H2 H 0.88780 0.95630 0.35340
C4 C 0.7717(2) 0.86459(17) 0.3672(3)
H3 H 0.77770 0.80780 0.41810
C5 C 0.5945(2) 0.84417(16) 0.1519(3)
C6 C 0.5470(2) 0.78528(16) 0.2293(3)
H4 H 0.59140 0.75350 0.31420
C7 C 0.4347(2) 0.77342(18) 0.1815(3)
H5 H 0.40180 0.73430 0.23610
C8 C 0.3690(2) 0.81762(17) 0.0551(3)
C9 C 0.4156(2) 0.87739(17) -0.0202(3)
H6 H 0.37110 0.90910 -0.10510
C10 C 0.5290(2) 0.89066(17) 0.0300(3)
H7 H 0.56150 0.93220 -0.02040
C11 C 0.1892(2) 0.8387(2) -0.1169(4)
H8 H 0.19270 0.90000 -0.10100
H9 H 0.11350 0.81940 -0.13120
H10 H 0.21270 0.82470 -0.21040
C12 C 0.9679(2) 0.91072(19) 0.1219(4)
H11 H 0.96070 0.88780 0.01560
H12 H 0.94030 0.96950 0.10980
C13 C 1.0887(2) 0.9112(2) 0.2136(4)
H13 H 1.09650 0.93440 0.31860
H14 H 1.13010 0.94610 0.15840
H15 H 1.11720 0.85330 0.22280
C14 C 0.7192(2) 0.92619(18) 0.4553(3)
C15 C 0.6931(3) 0.9014(2) 0.5894(4)
H16 H 0.70640 0.84520 0.62700
C16 C 0.6472(3) 0.9595(3) 0.6681(4)
H17 H 0.62950 0.94450 0.76210
C17 C 0.6278(3) 1.0391(3) 0.6084(4)
H18 H 0.59430 1.08020 0.65840
C18 C 0.6580(3) 1.0591(2) 0.4733(4)
H19 H 0.64610 1.11520 0.43440
N1 N 0.71159(18) 0.85744(14) 0.2007(3)
N2 N 0.9711(2) 0.86168(16) 0.4986(3)
N3 N 0.7024(2) 1.00408(15) 0.3956(3)
O1 O 0.74755(16) 0.83815(13) -0.0373(2)
O2 O 0.25975(15) 0.79821(13) 0.0168(2)
O3 O 1.00190(18) 0.78854(14) 0.5029(3)
O4 O 0.9999(2) 0.91179(14) 0.6087(2)
#END
