
#######################################################################
#
#                 Cambridge Crystallographic Data Centre
#                                CCDC
#
#######################################################################
#
# If this CIF has been generated from an entry in the Cambridge
# Structural Database, then it will include bibliographic, chemical,
# crystal, experimental, refinement or atomic coordinate data resulting
# from the CCDC's data processing and validation procedures.
#
#######################################################################

data_CSD_CIF_SEPGIF
_audit_creation_date 2013-05-13
_audit_creation_method CSD-ConQuest-V1
_database_code_CSD SEPGIF
_database_code_depnum_ccdc_archive 'CCDC 938152'
_chemical_formula_sum 'C20 H17 N5 O5'
_chemical_formula_moiety
;
C20 H17 N5 O5
;
_journal_coden_Cambridge 35
_journal_volume 77
_journal_year 2012
_journal_page_first 6574
_journal_name_full 'J.Org.Chem. '
loop_
_publ_author_name
"D.J.Clausen"
"P.E.Floreancig"
_chemical_name_systematic
;
(+-)-(R)-2-((R,E)-4-((2,4-Dinitrophenyl)hydrazono)butan-2-yl)-2H-chromene-6-ca
rbonitrile
;
_chemical_melting_point 411.15
_cell_volume    957.787
_exptl_crystal_colour 'yellow'
_exptl_crystal_density_diffrn 1.413
_exptl_special_details
;
Melting point range 411.15-414.15K

;
_exptl_crystal_description 'needle'
_exptl_crystal_preparation 'diethyl ether/hexanes'
_diffrn_ambient_temperature 100
#These two values have been output from a single CSD field.
_refine_ls_R_factor_gt 0.1007
_refine_ls_wR_factor_gt 0.1007
_symmetry_cell_setting triclinic
_symmetry_space_group_name_H-M 'P -1'
_symmetry_Int_Tables_number 2
loop_
_symmetry_equiv_pos_site_id
_symmetry_equiv_pos_as_xyz
1 x,y,z
2 -x,-y,-z
_cell_length_a 5.651(2)
_cell_length_b 11.880(7)
_cell_length_c 15.389(8)
_cell_angle_alpha 109.06(3)
_cell_angle_beta 100.31(4)
_cell_angle_gamma 90.81(3)
_cell_formula_units_Z 2
loop_
_atom_type_symbol
_atom_type_radius_bond
C 0.68
H 0.23
N 0.68
O 0.68
loop_
_atom_site_label
_atom_site_type_symbol
_atom_site_fract_x
_atom_site_fract_y
_atom_site_fract_z
O1 O 0.2151(13) 0.3125(6) 1.4110(4)
C1 C 0.0788(18) 0.2728(10) 1.4623(7)
N1 N -0.5042(19) 0.1510(11) 1.6608(7)
O2 O 0.3887(11) 0.5854(5) 0.9840(4)
N2 N 0.1159(13) 0.4833(7) 1.1687(5)
C2 C 0.025(2) 0.3565(11) 1.5383(7)
H1 H 0.08390 0.43730 1.55390
O3 O 0.3492(11) 0.7514(5) 0.9544(4)
N3 N 0.1787(15) 0.5422(7) 1.1107(5)
H2 H 0.302(12) 0.517(6) 1.077(5)
C3 C -0.115(2) 0.3258(10) 1.5942(7)
H3 H -0.14230 0.38380 1.65010
N4 N -0.2801(16) 0.9573(7) 1.1112(6)
O4 O -0.2030(13) 1.0246(6) 1.0739(5)
C4 C -0.216(2) 0.2078(11) 1.5665(7)
N5 N 0.2989(13) 0.6813(7) 0.9951(5)
O5 O -0.4540(13) 0.9779(6) 1.1501(5)
C5 C -0.1653(17) 0.1245(9) 1.4874(7)
H4 H -0.23180 0.04440 1.46860
C6 C -0.0180(18) 0.1567(10) 1.4349(7)
C7 C 0.0297(19) 0.0757(10) 1.3456(7)
H5 H -0.05570 -0.00090 1.31800
C8 C 0.1870(19) 0.1070(9) 1.3035(7)
H6 H 0.21140 0.05330 1.24520
C9 C 0.327(2) 0.2230(11) 1.3439(8)
H7 H 0.48350 0.20950 1.37970
C10 C -0.380(2) 0.1765(11) 1.6186(8)
C11 C 0.3902(17) 0.2820(9) 1.2755(7)
H8 H 0.46940 0.22260 1.22920
C12 C 0.5616(19) 0.3896(11) 1.3224(8)
H9 H 0.71090 0.36740 1.35390
H10 H 0.48900 0.44920 1.36870
H11 H 0.59810 0.42320 1.27560
C13 C 0.1599(16) 0.3126(8) 1.2213(7)
H12 H 0.06380 0.23750 1.18090
H13 H 0.06220 0.35810 1.26640
C14 C 0.2087(17) 0.3836(9) 1.1622(6)
H14 H 0.31110 0.35450 1.11830
C15 C 0.0724(16) 0.6435(8) 1.1073(6)
C16 C 0.1265(15) 0.7142(8) 1.0572(6)
C17 C 0.0163(16) 0.8187(8) 1.0584(6)
H15 H 0.06020 0.86590 1.02350
C18 C -0.1563(17) 0.8508(8) 1.1111(6)
C19 C -0.2195(18) 0.7828(9) 1.1633(6)
H16 H -0.34040 0.80710 1.19980
C20 C -0.1095(16) 0.6825(8) 1.1621(6)
H17 H -0.15340 0.63700 1.19810
#END
