
#######################################################################
#
#                 Cambridge Crystallographic Data Centre
#                                CCDC
#
#######################################################################
#
# If this CIF has been generated from an entry in the Cambridge
# Structural Database, then it will include bibliographic, chemical,
# crystal, experimental, refinement or atomic coordinate data resulting
# from the CCDC's data processing and validation procedures.
#
#######################################################################

data_CSD_CIF_SEPROV
_audit_creation_date 2007-02-08
_audit_creation_method CSD-ConQuest-V1
_database_code_CSD SEPROV
_database_code_depnum_ccdc_archive 'CCDC 613026'
_chemical_formula_sum 'C35 H33 N5 O8'
_chemical_formula_moiety
;
C35 H33 N5 O8
;
_journal_coden_Cambridge 1336
_journal_volume 8
_journal_year 2006
_journal_page_first 4565
_journal_name_full 'Org.Lett. '
loop_
_publ_author_name
"I.Nowak"
"J.F.Cannon"
"M.J.Robins"
_chemical_name_systematic
;
5-Amino-1-(2,3,5-tri-O-(4-methylbenzoyl)-\b-D-ribofuranosyl)-4-(5-methyl-1,2,4
-oxadiazol-3-yl)imidazole
;
_chemical_melting_point 492.15
_cell_volume   1648.226
_exptl_crystal_colour 'colorless'
_exptl_crystal_density_diffrn 1.313
_exptl_special_details
;
Melting point range 492.15-494.15K

;
_exptl_crystal_description 'block'
_exptl_crystal_preparation 'methanol'
_diffrn_ambient_temperature 297
#These two values have been output from a single CSD field.
_refine_ls_R_factor_gt 0.0357
_refine_ls_wR_factor_gt 0.0357
_symmetry_cell_setting monoclinic
_symmetry_space_group_name_H-M 'P 21'
_symmetry_Int_Tables_number 4
loop_
_symmetry_equiv_pos_site_id
_symmetry_equiv_pos_as_xyz
1 x,y,z
2 -x,1/2+y,-z
_cell_length_a 10.9634(5)
_cell_length_b 6.2492(3)
_cell_length_c 24.2770(17)
_cell_angle_alpha 90
_cell_angle_beta 97.714(3)
_cell_angle_gamma 90
_cell_formula_units_Z 2
loop_
_atom_type_symbol
_atom_type_radius_bond
C 0.68
H 0.23
N 0.68
O 0.68
loop_
_atom_site_label
_atom_site_type_symbol
_atom_site_fract_x
_atom_site_fract_y
_atom_site_fract_z
C1 C 0.44475(19) 0.6864(3) 0.75125(9)
H1 H 0.38210 0.75600 0.76650
C2 C 0.60125(19) 0.6240(3) 0.70957(8)
C3 C 0.56292(18) 0.4277(3) 0.72564(8)
C4 C 0.3274(2) 0.1713(4) 0.89004(9)
C5 C 0.2776(2) -0.0076(4) 0.91929(8)
C6 C 0.3448(2) -0.0876(5) 0.96702(9)
H2 H 0.42070 -0.02780 0.98040
C7 C 0.2995(2) -0.2563(5) 0.99501(10)
H3 H 0.34590 -0.30910 1.02700
C8 C 0.1872(3) -0.3481(5) 0.97658(10)
C9 C 0.1212(2) -0.2669(5) 0.92903(10)
H4 H 0.04510 -0.32650 0.91590
C10 C 0.1651(2) -0.0989(4) 0.90030(9)
H5 H 0.11890 -0.04730 0.86810
C11 C 0.1374(3) -0.5316(7) 1.00702(14)
H6 H 0.19380 -0.64970 1.00880
H7 H 0.05920 -0.57500 0.98760
H8 H 0.12730 -0.48720 1.04400
C12 C 0.0143(2) 0.6388(4) 0.77617(9)
C13 C -0.09575(19) 0.6526(4) 0.80439(9)
C14 C -0.1394(2) 0.4821(4) 0.83268(10)
H9 H -0.10110 0.34930 0.83270
C15 C -0.2396(2) 0.5099(4) 0.86072(11)
H10 H -0.26750 0.39480 0.87990
C16 C -0.2997(2) 0.7041(4) 0.86116(9)
C17 C -0.2565(2) 0.8713(4) 0.8323(1)
H11 H -0.29590 1.00330 0.83170
C18 C -0.1559(2) 0.8471(4) 0.80424(10)
H12 H -0.12840 0.96250 0.78510
C19 C -0.4087(2) 0.7319(6) 0.89223(12)
H13 H -0.38050 0.77080 0.93010
H14 H -0.45380 0.60010 0.89150
H15 H -0.46120 0.84260 0.87490
C20 C 0.1571(2) 0.5260(5) 0.59434(9)
C21 C 0.2230(2) 0.7160(5) 0.57703(9)
C22 C 0.3328(3) 0.7857(5) 0.60638(11)
H16 H 0.36590 0.71360 0.63840
C23 C 0.3934(3) 0.9598(6) 0.58884(12)
H17 H 0.46700 1.00430 0.60920
C24 C 0.3461(3) 1.0700(6) 0.54112(13)
C25 C 0.2359(4) 0.9995(7) 0.51263(13)
H18 H 0.20200 1.07240 0.48080
C26 C 0.1743(3) 0.8239(6) 0.52990(11)
H19 H 0.10050 0.77930 0.50980
C27 C 0.4143(4) 1.2611(7) 0.52242(17)
H20 H 0.50100 1.23120 0.52710
H21 H 0.39900 1.38360 0.54430
H22 H 0.38630 1.28980 0.48390
C28 C 0.38982(19) 0.3011(3) 0.77429(9)
H23 H 0.44520 0.20410 0.79750
C29 C 0.29454(19) 0.3886(4) 0.80864(9)
H24 H 0.32210 0.51670 0.83000
C30 C 0.18837(17) 0.4305(4) 0.76282(8)
H25 H 0.20450 0.56130 0.74270
C31 C 0.1939(2) 0.2379(4) 0.72508(9)
H26 H 0.14870 0.11980 0.73960
C32 C 0.1435(2) 0.2723(5) 0.66512(11)
H27 H 0.15930 0.14770 0.64330
H28 H 0.05520 0.29490 0.66140
C33 C 0.70142(19) 0.6655(3) 0.67824(8)
C34 C 0.8180(2) 0.8249(4) 0.63110(11)
C35 C 0.8828(3) 0.9739(6) 0.59773(14)
H29 H 0.85890 1.11810 0.60460
H30 H 0.86160 0.94140 0.55900
H31 H 0.97010 0.95890 0.60790
N1 N 0.46201(14) 0.4670(3) 0.75274(7)
N2 N 0.52630(15) 0.7840(3) 0.72611(7)
N3 N 0.61013(18) 0.2304(3) 0.72095(8)
H32 H 0.67570 0.21380 0.70560
H33 H 0.57460 0.12110 0.73330
N4 N 0.7760(2) 0.5141(3) 0.66691(9)
N5 N 0.72540(17) 0.8636(3) 0.65736(8)
O1 O 0.42219(17) 0.2639(3) 0.90476(8)
O2 O 0.05126(18) 0.7803(3) 0.74999(10)
O3 O 0.07218(18) 0.4386(4) 0.56701(8)
O4 O 0.25516(13) 0.2192(3) 0.84209(6)
O5 O 0.07291(13) 0.4484(2) 0.78325(6)
O6 O 0.32217(13) 0.1817(2) 0.73071(7)
O7 O 0.20335(15) 0.4585(3) 0.64546(6)
O8 O 0.85603(16) 0.6218(3) 0.63463(8)
#END
