
#######################################################################
#
#                 Cambridge Crystallographic Data Centre
#                                CCDC
#
#######################################################################
#
# If this CIF has been generated from an entry in the Cambridge
# Structural Database, then it will include bibliographic, chemical,
# crystal, experimental, refinement or atomic coordinate data resulting
# from the CCDC's data processing and validation procedures.
#
#######################################################################

data_CSD_CIF_SEPRIP
_audit_creation_date 2007-02-08
_audit_creation_method CSD-ConQuest-V1
_database_code_CSD SEPRIP
_database_code_depnum_ccdc_archive 'CCDC 613025'
_chemical_formula_sum 'C11 H15 N5 O5'
_chemical_formula_moiety
;
C11 H15 N5 O5
;
_journal_coden_Cambridge 1336
_journal_volume 8
_journal_year 2006
_journal_page_first 4565
_journal_name_full 'Org.Lett. '
loop_
_publ_author_name
"I.Nowak"
"J.F.Cannon"
"M.J.Robins"
_chemical_name_systematic
;
5-Amino-1-(\b-D-ribofuranosyl)-4-(5-methyl-1,2,4-oxadiazol-3-yl)imidazole
;
_chemical_melting_point 458.15
_cell_volume   1268.478
_exptl_crystal_colour 'colorless'
_exptl_crystal_density_diffrn 1.557
_exptl_special_details
;
Melting point range 458.15-460.15K

;
_exptl_crystal_description 'block'
_diffrn_ambient_temperature 296
_refine_special_details
;
The hydroxymethyl subsitituent on the ribofuranosyl ring is disordered over 
two sites with occupancy 0.669:0.331.
;
#These two values have been output from a single CSD field.
_refine_ls_R_factor_gt 0.0312
_refine_ls_wR_factor_gt 0.0312
_symmetry_cell_setting orthorhombic
_symmetry_space_group_name_H-M 'P 21 21 21'
_symmetry_Int_Tables_number 19
loop_
_symmetry_equiv_pos_site_id
_symmetry_equiv_pos_as_xyz
1 x,y,z
2 1/2-x,-y,1/2+z
3 -x,1/2+y,1/2-z
4 1/2+x,1/2-y,-z
_cell_length_a 6.1879(6)
_cell_length_b 6.6386(6)
_cell_length_c 30.879(3)
_cell_angle_alpha 90
_cell_angle_beta 90
_cell_angle_gamma 90
_cell_formula_units_Z 4
loop_
_atom_type_symbol
_atom_type_radius_bond
C 0.68
H 0.23
N 0.68
O 0.68
loop_
_atom_site_label
_atom_site_type_symbol
_atom_site_fract_x
_atom_site_fract_y
_atom_site_fract_z
C1 C 0.5604(4) 0.5342(4) 0.90582(8)
C2 C 0.7601(4) 0.4581(4) 0.89656(8)
C3 C 0.9141(4) -0.0239(4) 0.85236(9)
H1 H 0.85530 -0.05820 0.88090
C4 C 0.5062(4) 0.2974(5) 0.86041(9)
H2 H 0.43950 0.20600 0.84190
C5 C 0.5154(4) 0.7075(4) 0.93239(8)
C6 C 0.8896(4) 0.1990(4) 0.84209(8)
H3 H 1.02920 0.26550 0.84660
C7 C 0.3518(5) 0.9521(5) 0.96049(9)
C8 C 0.2018(6) 1.1119(5) 0.97481(10)
H4 H 0.05550 1.06810 0.97050
H5 H 0.22730 1.23190 0.95820
H6 H 0.22510 1.13960 1.00500
C9 C 0.7875(5) -0.1219(4) 0.81579(9)
H7 H 0.63280 -0.11710 0.82250
O1 O 0.8326(3) 0.2144(3) 0.79722(5)
O2 O 1.1354(3) -0.0760(3) 0.84858(6)
H8 H 1.17070 -0.14690 0.86910
O3 O 0.8500(4) -0.3240(3) 0.80839(7)
H9 H 0.74700 -0.38740 0.79870
O4 O 0.5539(3) 0.9594(3) 0.97510(6)
N1 N 0.7254(3) 0.3058(3) 0.86687(7)
N2 N 0.9556(3) 0.5077(4) 0.91206(7)
H10 H 0.96770 0.60180 0.93100
H11 H 1.06880 0.44540 0.90300
N3 N 0.6648(4) 0.7934(4) 0.95640(8)
N4 N 0.3186(4) 0.8033(4) 0.93436(7)
N5 N 0.4019(4) 0.4308(4) 0.88290(8)
C10 C 0.8346(6) 0.0169(4) 0.77818(10)
C11 C 0.681(2) 0.0087(12) 0.7422(5)
H12 H 0.72370 0.11080 0.72140
H13 H 0.69880 -0.12080 0.72810
O5 O 0.4754(6) 0.0327(6) 0.74983(13)
H14 H 0.44000 -0.03730 0.77050
C12? C 0.8346(6) 0.0169(4) 0.77818(10)
O6? O 0.6619(12) 0.1610(11) 0.7148(3)
H15? H 0.77910 0.21850 0.71410
C13? C 0.675(6) 0.009(5) 0.7393(10)
H16? H 0.71330 -0.10580 0.72160
H17? H 0.53140 -0.01660 0.75080
H18 H 0.972(5) 0.002(4) 0.7698(8)
#END
