
#######################################################################
#
#                 Cambridge Crystallographic Data Centre
#                                CCDC
#
#######################################################################
#
# If this CIF has been generated from an entry in the Cambridge
# Structural Database, then it will include bibliographic, chemical,
# crystal, experimental, refinement or atomic coordinate data resulting
# from the CCDC's data processing and validation procedures.
#
#######################################################################

data_CSD_CIF_SEPSIS
_audit_creation_date 2017-11-01
_audit_creation_method CSD-ConQuest-V1
_database_code_CSD SEPSIS
_database_code_depnum_ccdc_archive 'CCDC 1540300'
_chemical_formula_sum 'C32 H30 N2 O4'
_chemical_formula_moiety
;
C32 H30 N2 O4
;
_journal_coden_Cambridge 177
_journal_volume 15
_journal_year 2017
_journal_page_first 9389
_journal_name_full 'Org.Biomol.Chem. '
loop_
_publ_author_name
"P.Sharma"
"P.D.Jadhav"
"M.Skaria"
"Rai-Shung Liu"
_chemical_name_systematic
;
ethyl 1,6,8,9-tetraphenyl-2,7-dioxa-1,8-diazaspiro[4.4]nonane-3-carboxylate
;
_cell_volume   1343.373
_exptl_crystal_colour 'colorless'
_exptl_crystal_density_diffrn 1.252
_exptl_crystal_description 'prism'
_diffrn_ambient_temperature 200
#These two values have been output from a single CSD field.
_refine_ls_R_factor_gt 0.0385
_refine_ls_wR_factor_gt 0.0385
_symmetry_cell_setting triclinic
_symmetry_space_group_name_H-M 'P -1'
_symmetry_Int_Tables_number 2
loop_
_symmetry_equiv_pos_site_id
_symmetry_equiv_pos_as_xyz
1 x,y,z
2 -x,-y,-z
_cell_length_a 9.2140(3)
_cell_length_b 10.2240(3)
_cell_length_c 14.5971(5)
_cell_angle_alpha 100.117(1)
_cell_angle_beta 95.021(1)
_cell_angle_gamma 94.031(1)
_cell_formula_units_Z 2
loop_
_atom_type_symbol
_atom_type_radius_bond
C 0.68
H 0.23
N 0.68
O 0.68
loop_
_atom_site_label
_atom_site_type_symbol
_atom_site_fract_x
_atom_site_fract_y
_atom_site_fract_z
C1 C 1.02047(16) 0.25692(15) 0.25866(10)
C2 C 0.9946(2) 0.12402(17) 0.26644(12)
H1 H 0.90700 0.07400 0.23700
C3 C 1.0966(3) 0.0646(2) 0.31705(14)
H2 H 1.07840 -0.02640 0.32200
C4 C 1.2233(3) 0.1351(3) 0.35995(15)
H3 H 1.29110 0.09420 0.39630
C5 C 1.2522(2) 0.2655(3) 0.35010(14)
H4 H 1.34110 0.31410 0.37880
C6 C 1.15196(17) 0.3270(2) 0.29839(12)
H5 H 1.17350 0.41630 0.29040
C7 C 0.80491(14) 0.39075(13) 0.26139(9)
C8 C 0.85735(15) 0.46259(13) 0.36367(9)
H6 H 0.96670 0.47420 0.37060
C9 C 0.80880(15) 0.39110(14) 0.43965(9)
C10 C 0.89906(17) 0.30643(15) 0.47642(10)
H7 H 0.99390 0.29730 0.45650
C11 C 0.8517(2) 0.23490(17) 0.54216(11)
H8 H 0.91370 0.17590 0.56640
C12 C 0.7155(2) 0.24876(18) 0.57253(11)
H9 H 0.68340 0.19950 0.61760
C13 C 0.6264(2) 0.33422(19) 0.53736(12)
H10 H 0.53260 0.34470 0.55870
C14 C 0.67217(17) 0.40526(17) 0.47097(11)
H11 H 0.60960 0.46390 0.44680
C15 C 0.64402(15) 0.71072(14) 0.29088(10)
C16 C 0.68347(18) 0.81940(15) 0.36210(11)
H12 H 0.74830 0.81110 0.41460
C17 C 0.6275(2) 0.94084(16) 0.35614(13)
H13 H 0.65420 1.01520 0.40510
C18 C 0.53395(18) 0.95492(16) 0.28038(12)
H14 H 0.49580 1.03810 0.27720
C19 C 0.49623(17) 0.84714(16) 0.20928(12)
H15 H 0.43250 0.85640 0.15650
C20 C 0.55018(17) 0.72563(16) 0.21403(11)
H16 H 0.52310 0.65180 0.16460
C21 C 0.74836(15) 0.50600(13) 0.21547(9)
H17 H 0.66570 0.46790 0.16700
C22 C 0.85963(16) 0.58160(13) 0.16996(10)
C23 C 0.98592(19) 0.65037(17) 0.21874(12)
H18 H 1.00310 0.65410 0.28430
C24 C 1.0875(2) 0.71383(19) 0.17278(14)
H19 H 1.17370 0.76070 0.20700
C25 C 1.0639(2) 0.70915(17) 0.07792(13)
H20 H 1.13380 0.75220 0.04650
C26 C 0.9394(2) 0.64226(18) 0.02910(12)
H21 H 0.92280 0.63920 -0.03640
C27 C 0.83693(18) 0.57865(16) 0.07467(11)
H22 H 0.75060 0.53270 0.04010
C28 C 0.68531(15) 0.27642(14) 0.25333(10)
H23 H 0.70290 0.22350 0.30330
H24 H 0.58740 0.31020 0.25640
C29 C 0.69946(16) 0.19405(14) 0.15702(10)
H25 H 0.69770 0.09750 0.16150
C30 C 0.58061(17) 0.21302(14) 0.0833(1)
C31 C 0.3308(2) 0.1549(2) 0.03174(15)
H26 H 0.34910 0.13270 -0.03480
H27 H 0.30550 0.24840 0.04490
C32 C 0.2095(2) 0.0641(2) 0.05099(16)
H28 H 0.12060 0.07340 0.01140
H29 H 0.19220 0.08700 0.11700
H30 H 0.23530 -0.02820 0.03730
N1 N 0.92083(12) 0.32871(11) 0.20905(8)
N2 N 0.68679(12) 0.58174(11) 0.29669(8)
O1 O 0.83903(11) 0.23801(10) 0.13113(7)
O2 O 0.80376(10) 0.59240(9) 0.37268(6)
O3 O 0.59046(14) 0.28399(13) 0.02684(8)
O4 O 0.46014(12) 0.13869(11) 0.09157(8)
#END
