
#######################################################################
#
#                 Cambridge Crystallographic Data Centre
#                                CCDC
#
#######################################################################
#
# If this CIF has been generated from an entry in the Cambridge
# Structural Database, then it will include bibliographic, chemical,
# crystal, experimental, refinement or atomic coordinate data resulting
# from the CCDC's data processing and validation procedures.
#
#######################################################################

data_CSD_CIF_SEPSEO
_audit_creation_date 2017-11-01
_audit_creation_method CSD-ConQuest-V1
_database_code_CSD SEPSEO
_database_code_depnum_ccdc_archive 'CCDC 1540298'
_chemical_formula_sum 'C36 H32 N2 O3'
_chemical_formula_moiety
;
C36 H32 N2 O3
;
_journal_coden_Cambridge 177
_journal_volume 15
_journal_year 2017
_journal_page_first 9389
_journal_name_full 'Org.Biomol.Chem. '
loop_
_publ_author_name
"P.Sharma"
"P.D.Jadhav"
"M.Skaria"
"Rai-Shung Liu"
_chemical_name_systematic
;
diphenyl(1,6,8-triphenyl-2,7-dioxa-1,8-diazaspiro[4.4]nonan-3-yl)methanol
;
_cell_volume   1382.217
_exptl_crystal_colour 'colorless'
_exptl_crystal_density_diffrn 1.299
_diffrn_ambient_temperature 99
#These two values have been output from a single CSD field.
_refine_ls_R_factor_gt 0.0371
_refine_ls_wR_factor_gt 0.0371
_symmetry_cell_setting triclinic
_symmetry_space_group_name_H-M 'P -1'
_symmetry_Int_Tables_number 2
loop_
_symmetry_equiv_pos_site_id
_symmetry_equiv_pos_as_xyz
1 x,y,z
2 -x,-y,-z
_cell_length_a 9.6369(10)
_cell_length_b 12.1697(13)
_cell_length_c 12.3161(12)
_cell_angle_alpha 86.914(3)
_cell_angle_beta 73.831(3)
_cell_angle_gamma 85.494(3)
_cell_formula_units_Z 2
loop_
_atom_type_symbol
_atom_type_radius_bond
C 0.68
H 0.23
N 0.68
O 0.68
loop_
_atom_site_label
_atom_site_type_symbol
_atom_site_fract_x
_atom_site_fract_y
_atom_site_fract_z
C1 C 0.71909(12) 0.56459(10) 0.33215(10)
C2 C 0.73115(13) 0.68797(10) 0.33765(10)
H1 H 0.68900 0.71330 0.41570
H2 H 0.83350 0.70680 0.31130
C3 C 0.64577(13) 0.73919(10) 0.25934(10)
H3 H 0.71250 0.74920 0.18170
C4 C 0.74065(13) 0.50244(10) 0.43856(10)
H4 H 0.79770 0.54430 0.47570
H5 H 0.64650 0.48810 0.49340
C5 C 0.83747(13) 0.5037(1) 0.23535(10)
H6 H 0.78870 0.45420 0.19740
C6 C 0.56395(12) 0.85005(10) 0.29781(10)
C7 C 0.67437(12) 0.93546(10) 0.29035(10)
C8 C 0.76612(13) 0.96333(11) 0.18507(10)
H7 H 0.76270 0.92590 0.12020
C9 C 0.86211(14) 1.04464(11) 0.17361(11)
H8 H 0.92410 1.06280 0.10130
C10 C 0.86776(13) 1.09973(11) 0.26781(11)
H9 H 0.93230 1.15660 0.26010
C11 C 0.77896(13) 1.07140(11) 0.37304(11)
H10 H 0.78390 1.10810 0.43790
C12 C 0.68241(13) 0.98952(10) 0.38452(10)
H11 H 0.62180 0.97060 0.45710
C13 C 0.46254(13) 0.89239(10) 0.22619(10)
C14 C 0.47047(13) 0.85386(11) 0.12025(10)
H12 H 0.54290 0.79840 0.08790
C15 C 0.37317(14) 0.89594(11) 0.06129(11)
H13 H 0.37990 0.86940 -0.01130
C16 C 0.26654(14) 0.97627(11) 0.10787(11)
H14 H 0.19870 1.00360 0.06830
C17 C 0.25916(14) 1.01661(11) 0.21235(12)
H15 H 0.18690 1.07240 0.24420
C18 C 0.35685(13) 0.97578(10) 0.27043(11)
H16 H 0.35210 1.00480 0.34150
C19 C 0.52333(13) 0.47109(10) 0.27636(10)
C20 C 0.46335(16) 0.48394(12) 0.18601(12)
H17 H 0.45520 0.55470 0.15100
C21 C 0.41518(19) 0.39322(13) 0.14676(13)
H18 H 0.37470 0.40270 0.08460
C22 C 0.42506(16) 0.28989(12) 0.19625(13)
H19 H 0.39220 0.22840 0.16850
C23 C 0.48352(15) 0.27715(12) 0.28685(14)
H20 H 0.49150 0.20610 0.32130
C24 C 0.53061(15) 0.36652(11) 0.32817(13)
H21 H 0.56800 0.35680 0.39200
C25 C 0.88742(13) 0.33223(10) 0.46362(10)
C26 C 0.81013(13) 0.31334(10) 0.57655(10)
H22 H 0.72070 0.35400 0.60750
C27 C 0.86392(13) 0.23549(11) 0.64303(11)
H23 H 0.81080 0.22260 0.71950
C28 C 0.99489(14) 0.17592(11) 0.59905(11)
H24 H 1.02980 0.12060 0.64410
C29 C 1.07395(14) 0.19838(11) 0.48857(11)
H25 H 1.16520 0.15970 0.45900
C30 C 1.02219(13) 0.27624(10) 0.42039(10)
H26 H 1.07790 0.29130 0.34500
C31 C 0.93560(13) 0.57322(10) 0.1464(1)
C32 C 1.07225(14) 0.59602(11) 0.15310(11)
H27 H 1.10410 0.57010 0.21680
C33 C 1.16193(15) 0.65660(12) 0.06665(12)
H28 H 1.25550 0.67110 0.07120
C34 C 1.11647(16) 0.69588(11) -0.02580(12)
H29 H 1.17840 0.73730 -0.08460
C35 C 0.98005(16) 0.67454(11) -0.03240(11)
H30 H 0.94770 0.70240 -0.09530
C36 C 0.89049(14) 0.61262(11) 0.05264(10)
H31 H 0.79780 0.59700 0.04690
N1 N 0.56731(11) 0.56224(8) 0.32401(8)
N2 N 0.81982(10) 0.39956(8) 0.39438(8)
O1 O 0.54211(9) 0.66096(7) 0.25674(8)
O2 O 0.92557(9) 0.43706(7) 0.29342(7)
O3 O 0.48154(9) 0.83857(7) 0.41315(7)
H32 H 0.41360 0.79770 0.41780
#END
