
#######################################################################
#
#                 Cambridge Crystallographic Data Centre
#                                CCDC
#
#######################################################################
#
# If this CIF has been generated from an entry in the Cambridge
# Structural Database, then it will include bibliographic, chemical,
# crystal, experimental, refinement or atomic coordinate data resulting
# from the CCDC's data processing and validation procedures.
#
#######################################################################

data_CSD_CIF_SEPTAL
_audit_creation_date 2017-11-01
_audit_creation_method CSD-ConQuest-V1
_database_code_CSD SEPTAL
_database_code_depnum_ccdc_archive 'CCDC 1541215'
_chemical_formula_sum 'C24 H22 N2 O2'
_chemical_formula_moiety
;
C24 H22 N2 O2
;
_journal_coden_Cambridge 177
_journal_volume 15
_journal_year 2017
_journal_page_first 9389
_journal_name_full 'Org.Biomol.Chem. '
loop_
_publ_author_name
"P.Sharma"
"P.D.Jadhav"
"M.Skaria"
"Rai-Shung Liu"
_chemical_name_systematic
;
3-methyl-2,4-diphenyl-2,3,6a,10b-tetrahydro-4H,6H-indeno[2,1-c:2,3-d']bis[1,2]
oxazole
;
_cell_volume   1911.226
_exptl_crystal_colour 'pale orange'
_exptl_crystal_density_diffrn 1.287
_exptl_crystal_description 'Tabular'
_diffrn_ambient_temperature 100
_refine_special_details
;
O1' and O1 disordered over two sites with occupancies 0.694:0.306.

;
#These two values have been output from a single CSD field.
_refine_ls_R_factor_gt 0.0607
_refine_ls_wR_factor_gt 0.0607
_symmetry_cell_setting monoclinic
_symmetry_space_group_name_H-M 'P 21/n'
_symmetry_Int_Tables_number 14
loop_
_symmetry_equiv_pos_site_id
_symmetry_equiv_pos_as_xyz
1 x,y,z
2 1/2-x,1/2+y,1/2-z
3 -x,-y,-z
4 -1/2+x,-1/2-y,-1/2+z
_cell_length_a 13.7372(10)
_cell_length_b 7.3706(5)
_cell_length_c 19.7024(14)
_cell_angle_alpha 90
_cell_angle_beta 106.653(4)
_cell_angle_gamma 90
_cell_formula_units_Z 4
loop_
_atom_type_symbol
_atom_type_radius_bond
C 0.68
H 0.23
N 0.68
O 0.68
loop_
_atom_site_label
_atom_site_type_symbol
_atom_site_fract_x
_atom_site_fract_y
_atom_site_fract_z
N1 N 0.4388(2) 0.5212(4) 0.77715(13)
N2 N 0.39940(16) 0.8542(3) 0.65928(12)
O1 O 0.50299(13) 0.8259(3) 0.65381(10)
C1 C 0.4731(3) 0.2493(5) 0.73805(19)
H1 H 0.43810 0.13620 0.71960
H2 H 0.54120 0.21640 0.76570
C2 C 0.4746(2) 0.3769(4) 0.67833(15)
H3 H 0.42140 0.34370 0.63370
C3 C 0.5773(2) 0.4002(4) 0.66567(15)
C4 C 0.6320(2) 0.2694(5) 0.64053(16)
H4 H 0.60450 0.15200 0.62740
C5 C 0.7275(3) 0.3155(6) 0.63533(18)
H5 H 0.76570 0.22880 0.61810
C6 C 0.7679(2) 0.4866(6) 0.65494(17)
H6 H 0.83370 0.51490 0.65140
C7 C 0.7135(2) 0.6170(5) 0.67970(15)
H7 H 0.74160 0.73370 0.69370
C8 C 0.6167(2) 0.5718(4) 0.68337(14)
C9 C 0.54397(19) 0.6899(4) 0.70697(15)
H8 H 0.57560 0.74440 0.75470
C10 C 0.45253(19) 0.5648(4) 0.70634(14)
C11 C 0.3619(2) 0.6643(4) 0.65535(16)
H9 H 0.35270 0.61750 0.60630
C12 C 0.2612(2) 0.6495(5) 0.6727(2)
H10 H 0.26760 0.70560 0.71890
H11 H 0.24290 0.52140 0.67420
H12 H 0.20820 0.71210 0.63620
C13 C 0.4796(2) 0.6346(4) 0.83688(14)
C14 C 0.4591(2) 0.8198(4) 0.83216(15)
H13 H 0.41810 0.87010 0.78900
C15 C 0.4985(2) 0.9309(4) 0.89024(15)
H14 H 0.48540 1.05760 0.88630
C16 C 0.5566(2) 0.8594(5) 0.95381(16)
H15 H 0.58410 0.93630 0.99340
C17 C 0.5743(2) 0.6758(5) 0.95912(16)
H16 H 0.61320 0.62580 1.00290
C18 C 0.5360(2) 0.5624(4) 0.90150(16)
H17 H 0.54830 0.43550 0.90610
C19 C 0.34799(19) 0.9721(4) 0.60224(14)
C20 C 0.3820(2) 1.0035(4) 0.54312(15)
H18 H 0.43840 0.93770 0.53700
C21 C 0.3335(2) 1.1307(4) 0.49336(16)
H19 H 0.35700 1.15280 0.45320
C22 C 0.2505(2) 1.2264(4) 0.50161(16)
H20 H 0.21810 1.31510 0.46770
C23 C 0.2151(2) 1.1923(4) 0.55920(16)
H21 H 0.15700 1.25470 0.56400
C24 C 0.2640(2) 1.0677(4) 0.61008(15)
H22 H 0.24040 1.04710 0.65030
O2 O 0.5023(2) 0.3422(4) 0.79736(15)
O3? O 0.4180(5) 0.3497(8) 0.7816(3)
#END
