
#######################################################################
#
#                 Cambridge Crystallographic Data Centre
#                                CCDC
#
#######################################################################
#
# If this CIF has been generated from an entry in the Cambridge
# Structural Database, then it will include bibliographic, chemical,
# crystal, experimental, refinement or atomic coordinate data resulting
# from the CCDC's data processing and validation procedures.
#
#######################################################################

data_CSD_CIF_SERVOA
_audit_creation_date 1990-12-10
_audit_creation_method CSD-ConQuest-V1
_database_code_CSD SERVOA
_database_code_depnum_ccdc_archive 'CCDC 1257636'
_chemical_formula_sum 'C9 H9 N1 O7'
_chemical_formula_moiety
;
C9 H9 N1 O7
;
_journal_coden_Cambridge 1103
_journal_volume 6
_journal_year 1986
_journal_page_first 29
_journal_name_full 'Linchan Huaxue Yu Gongye(Chin.)(Chem.Ind.Forest Prod.) '
loop_
_publ_author_name
"Wang Huizheng"
"Song Shiying"
"Song Disheng"
"Yang Zhemin"
_chemical_name_systematic
;
5-Nitrofurfural diacetate
;
_cell_volume    565.160
_diffrn_ambient_temperature ?
_diffrn_special_details
;
The study was carried out at room temperature,in the range 283-303K

;
#These two values have been output from a single CSD field.
_refine_ls_R_factor_gt 0.0756
_refine_ls_wR_factor_gt 0.0756
_symmetry_cell_setting monoclinic
_symmetry_space_group_name_H-M 'P c'
_symmetry_Int_Tables_number 7
loop_
_symmetry_equiv_pos_site_id
_symmetry_equiv_pos_as_xyz
1 x,y,z
2 x,-y,1/2+z
_cell_length_a 8.926
_cell_length_b 9.581
_cell_length_c 7.153
_cell_angle_alpha 90
_cell_angle_beta 112.5
_cell_angle_gamma 90
_cell_formula_units_Z 2
loop_
_atom_type_symbol
_atom_type_radius_bond
C 0.68
H 0.23
N 0.68
O 0.68
loop_
_atom_site_label
_atom_site_type_symbol
_atom_site_fract_x
_atom_site_fract_y
_atom_site_fract_z
O1 O 0.73860 0.82640 0.2115(5)
O2 O 0.42490 0.70210 0.0388(9)
O3 O 0.5163(1) 0.7894(2) -0.1917(5)
O4 O 0.2456(5) 0.58390 -0.2159(11)
O5 O 1.0895(10) 0.9251(3) 0.6077(8)
O6 O 0.8748(1) 1.0453(1) 0.4258(2)
O7 O 0.5904(1) 0.6535(6) -0.3896(3)
N1 N 0.95310 0.9388(1) 0.4695(2)
C1 C 0.7088(7) 0.6964(2) 0.1215(2)
C2 C 0.5444(1) 0.6782(2) -0.0460(12)
C3 C 0.9541(8) 0.6825(1) 0.36150
C4 C 0.2711(8) 0.6530(4) -0.0716(3)
C5 C 0.8880(3) 0.8141(2) 0.35380
C6 C 0.4889(2) 0.88560 -0.5022(2)
C7 C 0.5350(3) 0.7659(2) -0.3681(12)
C8 C 0.1587(10) 0.6946(2) 0.0168(1)
C9 C 0.83220 0.60950 0.2058(8)
H1 H 1.10693 0.65500 0.43990
H2 H 0.82390 0.49420 0.14540
H3 H 0.54870 0.56970 -0.11340
H4 H 0.60080 0.92480 -0.47340
H5 H 0.40800 0.95070 -0.42850
H6 H 0.44780 0.88440 -0.65130
H7 H 0.14510 0.59200 0.01200
H8 H 0.06150 0.75630 -0.07840
H9 H 0.22690 0.76780 0.15850
#END
