
#######################################################################
#
#                 Cambridge Crystallographic Data Centre
#                                CCDC
#
#######################################################################
#
# If this CIF has been generated from an entry in the Cambridge
# Structural Database, then it will include bibliographic, chemical,
# crystal, experimental, refinement or atomic coordinate data resulting
# from the CCDC's data processing and validation procedures.
#
#######################################################################

data_CSD_CIF_SERZAS
_audit_creation_date 2013-05-14
_audit_creation_method CSD-ConQuest-V1
_database_code_CSD SERZAS
_database_code_depnum_ccdc_archive 'CCDC 923686'
_chemical_formula_sum 'C17 H15 N1 O5'
_chemical_formula_moiety
;
C17 H15 N1 O5
;
_journal_coden_Cambridge 177
_journal_volume 11
_journal_year 2013
_journal_page_first 3151
_journal_name_full 'Org.Biomol.Chem. '
loop_
_publ_author_name
"B.Harris"
"G.Paul Savage"
"J.M.White"
_chemical_name_systematic
;
Methyl 4-((4-nitrophenoxy)methyl)cubane-1-carboxylate
;
_cell_volume    721.993
_exptl_crystal_colour 'colorless'
_exptl_crystal_density_diffrn 1.441
_exptl_crystal_description 'block'
_diffrn_ambient_temperature 130
#These two values have been output from a single CSD field.
_refine_ls_R_factor_gt 0.0425
_refine_ls_wR_factor_gt 0.0425
_symmetry_cell_setting triclinic
_symmetry_space_group_name_H-M 'P -1'
_symmetry_Int_Tables_number 2
loop_
_symmetry_equiv_pos_site_id
_symmetry_equiv_pos_as_xyz
1 x,y,z
2 -x,-y,-z
_cell_length_a 6.9852(10)
_cell_length_b 10.5113(15)
_cell_length_c 10.8498(11)
_cell_angle_alpha 68.415(11)
_cell_angle_beta 78.65(1)
_cell_angle_gamma 80.137(12)
_cell_formula_units_Z 2
loop_
_atom_type_symbol
_atom_type_radius_bond
C 0.68
H 0.23
N 0.68
O 0.68
loop_
_atom_site_label
_atom_site_type_symbol
_atom_site_fract_x
_atom_site_fract_y
_atom_site_fract_z
C1 C 0.2341(2) 0.72803(14) 0.37789(14)
C2 C 0.1946(2) 0.87867(14) 0.37971(14)
H1 H 0.17380 0.96180 0.30190
C3 C 0.0438(2) 0.83035(14) 0.51007(14)
H2 H -0.08600 0.87890 0.52710
C4 C 0.2147(2) 0.79794(14) 0.59713(13)
C5 C 0.3637(2) 0.84699(14) 0.46570(14)
H3 H 0.46520 0.90730 0.45010
C6 C 0.4031(2) 0.69586(14) 0.46419(14)
H4 H 0.53280 0.64730 0.44730
C7 C 0.2518(2) 0.64746(14) 0.59489(14)
H5 H 0.27230 0.56400 0.67250
C8 C 0.0829(2) 0.67981(14) 0.50876(14)
H6 H -0.01860 0.61970 0.52390
C9 C 0.2442(2) 0.68968(14) 0.25724(14)
H7 H 0.11790 0.71310 0.22550
H8 H 0.34160 0.73750 0.18570
C10 C 0.1918(2) 0.83609(14) 0.71847(14)
C11 C 0.29508(19) 0.47750(14) 0.21349(14)
C12 C 0.3437(2) 0.33487(15) 0.26322(14)
H9 H 0.37920 0.29260 0.34850
C13 C 0.3392(2) 0.25680(15) 0.18603(15)
H10 H 0.37030 0.16180 0.21860
C14 C 0.2876(2) 0.32256(15) 0.05902(14)
C15 C 0.2421(2) 0.46344(15) 0.00715(14)
H11 H 0.20910 0.50520 -0.07880
C16 C 0.2462(2) 0.54202(14) 0.08501(14)
H12 H 0.21650 0.63710 0.05150
C17 C 0.2326(3) 1.00676(17) 0.80216(17)
H13 H 0.28580 1.09320 0.77270
H14 H 0.29900 0.94110 0.87300
H15 H 0.09500 1.01890 0.83440
N1 N 0.27304(18) 0.23980(13) -0.02039(13)
O1 O 0.29838(15) 0.54352(10) 0.29936(10)
O2 O 0.3073(2) 0.11398(12) 0.02861(13)
O3 O 0.22708(18) 0.29888(12) -0.13338(11)
O4 O 0.11639(16) 0.76969(11) 0.8282(1)
O5 O 0.26000(16) 0.95701(10) 0.69104(10)
#END
