
#######################################################################
#
#                 Cambridge Crystallographic Data Centre
#                                CCDC
#
#######################################################################
#
# If this CIF has been generated from an entry in the Cambridge
# Structural Database, then it will include bibliographic, chemical,
# crystal, experimental, refinement or atomic coordinate data resulting
# from the CCDC's data processing and validation procedures.
#
#######################################################################

data_CSD_CIF_SESHIH
_audit_creation_date 1990-12-10
_audit_creation_method CSD-ConQuest-V1
_database_code_CSD SESHIH
_database_code_depnum_ccdc_archive 'CCDC 1257694'
_chemical_formula_sum 'C16 H18 N4 O4'
_chemical_formula_moiety
;
C16 H18 N4 O4
;
_journal_coden_Cambridge 1111
_journal_volume 59
_journal_year 1989
_journal_page_first 389
_journal_name_full 'Textile Research Journal '
loop_
_publ_author_name
"S.A.McIntosh"
"H.S.Freeman"
"P.Singh"
_chemical_name_systematic
;
2-Nitro-4'-(N,N-bis(\b-hydroxyethyl)amino)azobenzene
;
_cell_volume    803.411
_exptl_crystal_colour 'orange-red'
_diffrn_ambient_temperature ?
_diffrn_special_details
;
The study was carried out at room temperature,in the range 283-303K

;
#These two values have been output from a single CSD field.
_refine_ls_R_factor_gt 0.0486
_refine_ls_wR_factor_gt 0.0486
_symmetry_cell_setting triclinic
_symmetry_space_group_name_H-M 'P -1'
_symmetry_Int_Tables_number 2
loop_
_symmetry_equiv_pos_site_id
_symmetry_equiv_pos_as_xyz
1 x,y,z
2 -x,-y,-z
_cell_length_a 9.210(9)
_cell_length_b 9.591(7)
_cell_length_c 10.284(7)
_cell_angle_alpha 98.45(6)
_cell_angle_beta 101.49(6)
_cell_angle_gamma 111.56(7)
_cell_formula_units_Z 2
loop_
_atom_type_symbol
_atom_type_radius_bond
C 0.68
H 0.23
N 0.68
O 0.68
loop_
_atom_site_label
_atom_site_type_symbol
_atom_site_fract_x
_atom_site_fract_y
_atom_site_fract_z
C1 C 0.0039(2) -0.2415(2) 0.3068(2)
C2 C 0.0704(2) -0.3136(2) 0.2217(2)
C3 C 0.1663(2) -0.3867(2) 0.2687(2)
C4 C 0.1971(3) -0.3919(3) 0.4047(2)
C5 C 0.1324(3) -0.3225(3) 0.4904(2)
C6 C 0.0371(2) -0.2478(2) 0.4428(2)
C7 C -0.2856(2) -0.0785(2) 0.2683(2)
C8 C -0.4193(2) -0.0946(2) 0.3198(2)
C9 C -0.5106(2) -0.0128(2) 0.2911(2)
C10 C -0.4749(2) 0.0905(2) 0.2066(2)
C11 C -0.3397(2) 0.1073(2) 0.1553(2)
C12 C -0.2473(2) 0.0251(2) 0.1855(2)
C13 C -0.5199(2) 0.2916(2) 0.0997(2)
C14 C -0.3805(3) 0.4398(2) 0.1846(2)
C15 C -0.7307(2) 0.1265(2) 0.1955(2)
C16 C -0.7541(3) 0.2416(4) 0.2931(3)
N1 N 0.0350(2) -0.3167(2) 0.0760(2)
N2 N -0.2022(2) -0.1700(2) 0.3041(1)
N3 N -0.0805(2) -0.1525(2) 0.2588(2)
N4 N -0.5687(2) 0.1713(2) 0.1740(1)
O1 O -0.4248(2) 0.4983(2) 0.2970(2)
O2 O -0.6350(2) 0.2999(2) 0.4213(2)
O3 O 0.1332(2) -0.3290(2) 0.0158(2)
O4 O -0.0930(3) -0.3122(3) 0.0207(2)
H1 H 0.2111(24) -0.4379(24) 0.2112(21)
H2 H 0.2671(26) -0.4394(27) 0.4402(23)
H3 H 0.1651(28) -0.3321(27) 0.5818(26)
H4 H 0.0028(22) -0.2000(22) 0.5033(19)
H5 H -0.1636(19) 0.035(2) 0.1480(17)
H6 H -0.3175(23) 0.1761(24) 0.0962(21)
H7 H -0.4429(22) -0.1591(22) 0.3789(19)
H8 H -0.6097(23) 0.3079(21) 0.0663(19)
H9 H -0.4883(21) 0.2502(22) 0.0218(18)
H10 H -0.2630(24) 0.4255(25) 0.2199(21)
H11 H -0.3651(27) 0.5134(27) 0.1317(23)
H12 H -0.8126(31) 0.1123(31) 0.1135(28)
H13 H -0.7624(26) 0.0148(26) 0.2144(23)
H14 H -0.8609(27) 0.1838(29) 0.3063(25)
H15 H -0.7471(38) 0.3507(40) 0.2601(35)
#END
