
#######################################################################
#
#                 Cambridge Crystallographic Data Centre
#                                CCDC
#
#######################################################################
#
# If this CIF has been generated from an entry in the Cambridge
# Structural Database, then it will include bibliographic, chemical,
# crystal, experimental, refinement or atomic coordinate data resulting
# from the CCDC's data processing and validation procedures.
#
#######################################################################

data_CSD_CIF_SESKAD
_audit_creation_date 2007-02-08
_audit_creation_method CSD-ConQuest-V1
_database_code_CSD SESKAD
_database_code_depnum_ccdc_archive 'CCDC 629471'
_chemical_formula_sum 'C35 H34 N2 O2'
_chemical_formula_moiety
;
C35 H34 N2 O2
;
_journal_coeditor_code "IUCr CI2198"
_journal_coden_Cambridge 1370
_journal_volume 62
_journal_year 2006
_journal_page_first o5356
_journal_name_full 'Acta Crystallogr.,Sect.E:Struct.Rep.Online '
loop_
_publ_author_name
"J.Suresh"
"R.R.Kumar"
"S.Perumal"
"A.Mostad"
"S.Natarajan"
_chemical_name_systematic
;
7-Methyl-9-(4-methylbenzylidene)-1-(4-methylphenyl)-3,4-diphenyl-2-oxa-3,7-dia
zaspiro(4.5)decan-10-one
;
_chemical_melting_point 447
_cell_volume   2811.209
_exptl_crystal_colour 'colorless'
_exptl_crystal_density_diffrn 1.216
_exptl_special_details
;
Melting point range 447-448K

;
_exptl_crystal_description 'block'
_exptl_crystal_preparation 'ethanol'
_diffrn_ambient_temperature 105
#These two values have been output from a single CSD field.
_refine_ls_R_factor_gt 0.0428
_refine_ls_wR_factor_gt 0.0428
_symmetry_cell_setting monoclinic
_symmetry_space_group_name_H-M 'P 21/c'
_symmetry_Int_Tables_number 14
loop_
_symmetry_equiv_pos_site_id
_symmetry_equiv_pos_as_xyz
1 x,y,z
2 -x,1/2+y,1/2-z
3 -x,-y,-z
4 x,-1/2-y,-1/2+z
_cell_length_a 11.131(2)
_cell_length_b 14.206(3)
_cell_length_c 18.016(4)
_cell_angle_alpha 90
_cell_angle_beta 99.32(3)
_cell_angle_gamma 90
_cell_formula_units_Z 4
loop_
_atom_type_symbol
_atom_type_radius_bond
C 0.68
H 0.23
N 0.68
O 0.68
loop_
_atom_site_label
_atom_site_type_symbol
_atom_site_fract_x
_atom_site_fract_y
_atom_site_fract_z
O1 O 0.32369(8) 0.82023(7) 0.20978(5)
O2 O 0.05782(8) 0.86894(7) 0.33444(5)
N1 N -0.00201(9) 0.80207(8) 0.27919(6)
C1 C 0.24542(11) 0.87691(9) 0.18391(7)
C2 C 0.13931(11) 0.89912(9) 0.22568(7)
N2 N 0.06201(10) 1.00894(7) 0.12564(6)
C3 C -0.12679(11) 0.79680(9) 0.28583(7)
C4 C 0.17386(11) 0.88006(9) 0.31111(7)
H1 H 0.21870 0.82060 0.31870
C5 C 0.17454(12) 1.01490(9) 0.09385(7)
H2 H 0.22190 1.06860 0.11510
H3 H 0.15530 1.02370 0.03980
C6 C 0.24531(12) 0.95591(9) 0.35725(7)
C7 C 0.24804(11) 0.92590(9) 0.11089(7)
C8 C 0.33588(12) 0.84233(11) -0.06718(8)
H4 H 0.32200 0.77970 -0.05620
C9 C 0.05843(12) 0.74278(10) 0.16058(7)
C10 C 0.09229(11) 0.99924(9) 0.20741(7)
H5 H 0.02060 1.01080 0.23040
H6 H 0.15420 1.04470 0.22720
C11 C 0.26023(14) 1.09798(10) 0.43162(8)
H7 H 0.22230 1.14480 0.45550
C12 C 0.02966(11) 0.82878(9) 0.20442(7)
H8 H -0.03910 0.86250 0.17530
C13 C 0.38611(14) 1.10021(11) 0.43519(7)
C14 C 0.31009(12) 0.8820(1) 0.06275(7)
H9 H 0.34540 0.82490 0.07950
C15 C -0.16914(12) 0.82827(10) 0.35023(8)
H10 H -0.11640 0.85830 0.38820
C16 C 0.32986(11) 0.91157(11) -0.01237(7)
C17 C -0.01648(13) 1.08994(10) 0.10382(8)
H11 H 0.02480 1.14650 0.12270
H12 H -0.09040 1.08350 0.12440
H13 H -0.03540 1.09310 0.05000
C18 C 0.11060(13) 0.66206(10) 0.19573(8)
H14 H 0.12270 0.65780 0.24790
C19 C -0.32764(13) 0.73860(11) 0.23774(9)
H15 H -0.38070 0.70830 0.20010
C20 C 0.19015(12) 1.02686(10) 0.39286(7)
H16 H 0.10610 1.02690 0.39080
C21 C 0.44065(13) 1.02798(12) 0.40097(8)
H17 H 0.52480 1.02750 0.40380
C22 C 0.03987(14) 0.74736(11) 0.08213(8)
H18 H 0.00310 0.80020 0.05770
C23 C -0.36989(14) 0.76974(12) 0.30169(10)
H19 H -0.45080 0.76060 0.30710
C24 C -0.20716(12) 0.75213(10) 0.22917(8)
H20 H -0.18000 0.73150 0.18580
C25 C 0.37183(12) 0.95632(11) 0.36250(8)
H21 H 0.41030 0.90840 0.34010
C26 C 0.07629(16) 0.67295(14) 0.04009(9)
H22 H 0.06500 0.67680 -0.01210
C27 C 0.34941(13) 1.00517(12) -0.03120(9)
H23 H 0.34380 1.05270 0.00360
C28 C -0.29025(14) 0.81466(12) 0.35740(9)
H24 H -0.31820 0.83610 0.40030
C29 C 0.36218(13) 0.86589(13) -0.13744(8)
H25 H 0.36350 0.81910 -0.17340
C30 C 0.38664(13) 0.95835(14) -0.15476(8)
C31 C 0.14489(15) 0.58769(11) 0.15353(10)
H26 H 0.17860 0.53370 0.17760
C32 C 0.46215(18) 1.17979(13) 0.47355(9)
H27 H 0.50390 1.15880 0.52150
H28 H 0.41030 1.23190 0.48060
H29 H 0.52060 1.19920 0.44290
C33 C 0.12911(16) 0.59357(13) 0.07599(10)
H30 H 0.15390 0.54430 0.04800
C34 C 0.37721(14) 1.02768(13) -0.10159(9)
H31 H 0.38970 1.09030 -0.11330
C35 C 0.42881(18) 0.98211(18) -0.22851(10)
H32 H 0.51580 0.98850 -0.22030
H33 H 0.39220 1.04020 -0.24770
H34 H 0.40510 0.93270 -0.26420
#END
