
#######################################################################
#
#                 Cambridge Crystallographic Data Centre
#                                CCDC
#
#######################################################################
#
# If this CIF has been generated from an entry in the Cambridge
# Structural Database, then it will include bibliographic, chemical,
# crystal, experimental, refinement or atomic coordinate data resulting
# from the CCDC's data processing and validation procedures.
#
#######################################################################

data_CSD_CIF_SESSIT
_audit_creation_date 2007-02-08
_audit_creation_method CSD-ConQuest-V1
_database_code_CSD SESSIT
_database_code_depnum_ccdc_archive 'CCDC 629646'
_chemical_formula_sum 'C14 H13 N3 O3'
_chemical_formula_moiety
;
C14 H13 N3 O3
;
_journal_coeditor_code "IUCr DN2085"
_journal_coden_Cambridge 1370
_journal_volume 62
_journal_year 2006
_journal_page_first o5508
_journal_name_full 'Acta Crystallogr.,Sect.E:Struct.Rep.Online '
loop_
_publ_author_name
"Zhi-Gang Yin"
"Pei-Yuan Xu"
"Heng-Yu Qian"
"Na Zhou"
"Sheng-Min Liu"
_chemical_name_systematic
;
5-(2-Furyl)-3-methyl-1-(4-nitrophenyl)-2-pyrazoline
;
_cell_volume    662.053
_exptl_crystal_colour 'brown'
_exptl_crystal_density_diffrn 1.361
_exptl_crystal_description 'block'
_exptl_crystal_preparation 'dichloromethane'
_diffrn_ambient_temperature 298
#These two values have been output from a single CSD field.
_refine_ls_R_factor_gt 0.0361
_refine_ls_wR_factor_gt 0.0361
_symmetry_cell_setting monoclinic
_symmetry_space_group_name_H-M 'P 21'
_symmetry_Int_Tables_number 4
loop_
_symmetry_equiv_pos_site_id
_symmetry_equiv_pos_as_xyz
1 x,y,z
2 -x,1/2+y,-z
_cell_length_a 8.1504(13)
_cell_length_b 8.4608(14)
_cell_length_c 9.6959(16)
_cell_angle_alpha 90
_cell_angle_beta 98.036(2)
_cell_angle_gamma 90
_cell_formula_units_Z 2
loop_
_atom_type_symbol
_atom_type_radius_bond
C 0.68
H 0.23
N 0.68
O 0.68
loop_
_atom_site_label
_atom_site_type_symbol
_atom_site_fract_x
_atom_site_fract_y
_atom_site_fract_z
O1 O 0.5650(3) 0.1026(3) 0.6998(2)
O2 O 0.0242(3) 0.8511(3) 0.7828(3)
O3 O -0.0340(4) 0.6890(3) 0.9423(2)
N1 N 0.0164(3) 0.7168(3) 0.8302(3)
N2 N 0.2498(3) 0.2093(3) 0.5444(2)
N3 N 0.3052(3) 0.2307(3) 0.4153(2)
C1 C 0.0679(3) 0.5841(3) 0.7517(3)
C2 C 0.0706(3) 0.4349(3) 0.8086(3)
H1 H 0.03400 0.41910 0.89430
C3 C 0.1272(3) 0.3094(3) 0.7391(3)
H2 H 0.12690 0.20840 0.77680
C4 C 0.1861(3) 0.3332(3) 0.6101(3)
C5 C 0.1759(3) 0.4849(3) 0.5516(3)
H3 H 0.20790 0.50150 0.46440
C6 C 0.1184(3) 0.6096(4) 0.6229(3)
H4 H 0.11360 0.71060 0.58470
C7 C 0.3484(3) 0.0957(4) 0.3743(3)
C8 C 0.4114(4) 0.0739(5) 0.2378(3)
H5 H 0.41290 0.17410 0.19140
H6 H 0.34010 0.00230 0.18070
H7 H 0.52170 0.03140 0.25370
C9 C 0.3254(4) -0.0376(4) 0.4704(3)
H8 H 0.42630 -0.09890 0.49190
H9 H 0.23630 -0.10680 0.43080
C10 C 0.2817(3) 0.0480(3) 0.6003(3)
H10 H 0.17960 0.00360 0.62690
C11 C 0.4144(4) 0.0454(4) 0.7218(3)
C12 C 0.4213(4) -0.0061(5) 0.8515(3)
H11 H 0.33460 -0.04930 0.89200
C13 C 0.5876(4) 0.0175(6) 0.9171(4)
H12 H 0.63110 -0.00850 1.00810
C14 C 0.6670(4) 0.0834(6) 0.8226(4)
H13 H 0.77800 0.11300 0.83770
#END
