
#######################################################################
#
#                 Cambridge Crystallographic Data Centre
#                                CCDC
#
#######################################################################
#
# If this CIF has been generated from an entry in the Cambridge
# Structural Database, then it will include bibliographic, chemical,
# crystal, experimental, refinement or atomic coordinate data resulting
# from the CCDC's data processing and validation procedures.
#
#######################################################################

data_CSD_CIF_SESSIV
_audit_creation_date 2018-03-15
_audit_creation_method CSD-ConQuest-V1
_database_code_CSD SESSIV
_database_code_depnum_ccdc_archive 'CCDC 1588229'
_chemical_formula_sum 'C26 H26 N2 O5'
_chemical_formula_moiety
;
C26 H26 N2 O5
;
_journal_coden_Cambridge 1220
_journal_volume 24
_journal_year 2018
_journal_page_first 3893
_journal_name_full 'Chem.-Eur.J. '
loop_
_publ_author_name
"I.Olaizola"
"T.E.Campano"
"I.Iriarte"
"S.Vera"
"A.Mielgo"
"J.M.Garcia"
"J.M.Odriozola"
"M.Oiarbide"
"C.Palomo"
_chemical_name_systematic
;
2^2^,2^4^-dinitro-2^6^-(2-phenylethyl)-2^1^,2^2^,2^3^,2^4^,2^5^,2^6^-hexahydro
[1^1^,2^1^:2^3^,3^1^-terphenyl]-2^5^-ol
;
_cell_volume   2261.599
_exptl_crystal_colour 'colorless'
_exptl_crystal_density_diffrn 1.311
_exptl_crystal_description 'prism'
_diffrn_ambient_temperature 150
#These two values have been output from a single CSD field.
_refine_ls_R_factor_gt 0.0341
_refine_ls_wR_factor_gt 0.0341
_symmetry_cell_setting orthorhombic
_symmetry_space_group_name_H-M 'P 21 21 21'
_symmetry_Int_Tables_number 19
loop_
_symmetry_equiv_pos_site_id
_symmetry_equiv_pos_as_xyz
1 x,y,z
2 1/2-x,-y,1/2+z
3 -x,1/2+y,1/2-z
4 1/2+x,1/2-y,-z
_cell_length_a 5.7978(1)
_cell_length_b 12.8288(2)
_cell_length_c 30.4065(5)
_cell_angle_alpha 90
_cell_angle_beta 90
_cell_angle_gamma 90
_cell_formula_units_Z 4
loop_
_atom_type_symbol
_atom_type_radius_bond
C 0.68
H 0.23
N 0.68
O 0.68
loop_
_atom_site_label
_atom_site_type_symbol
_atom_site_fract_x
_atom_site_fract_y
_atom_site_fract_z
O1 O 1.1084(3) 0.27149(13) 0.05960(5)
H1 H 1.16175 0.30242 0.03748
O2 O 0.6812(4) 0.11188(15) 0.01899(5)
O3 O 0.9451(4) 0.04734(14) 0.06131(6)
O4 O 0.4235(3) 0.27711(14) 0.15329(6)
O5 O 0.5554(4) 0.25803(14) 0.21914(5)
N1 N 0.7978(4) 0.11156(15) 0.05293(6)
N2 N 0.5822(3) 0.26839(14) 0.17951(6)
C1 C 0.8697(4) 0.29682(17) 0.06453(6)
H2 H 0.80173 0.31082 0.03488
C2 C 0.7529(4) 0.20040(16) 0.08450(6)
H3 H 0.58297 0.21297 0.08635
C3 C 0.8437(4) 0.17217(16) 0.13006(6)
H4 H 1.01174 0.15663 0.12665
C4 C 0.8247(3) 0.26577(17) 0.16197(6)
H5 H 0.92764 0.24998 0.18750
C5 C 0.9126(3) 0.36841(16) 0.14161(6)
H6 H 1.08178 0.35542 0.13822
C6 C 0.8343(3) 0.39253(16) 0.09382(6)
H7 H 0.94608 0.44568 0.08268
C7 C 0.7327(4) 0.07514(16) 0.15010(7)
C8 C 0.5236(4) 0.03493(19) 0.13605(8)
H8 H 0.44498 0.06672 0.11214
C9 C 0.4273(5) -0.0521(2) 0.15679(9)
H9 H 0.28490 -0.07975 0.14668
C10 C 0.5389(6) -0.0977(2) 0.19186(9)
H10 H 0.47309 -0.15651 0.20609
C11 C 0.7449(7) -0.0579(2) 0.20615(8)
H11 H 0.82074 -0.08895 0.23055
C12 C 0.8439(5) 0.02747(19) 0.18528(8)
H12 H 0.98850 0.05342 0.19511
C13 C 0.9052(4) 0.46506(17) 0.17049(7)
C14 C 0.7251(5) 0.4928(2) 0.19790(8)
H13 H 0.59744 0.44693 0.20101
C15 C 0.7270(5) 0.5863(2) 0.22101(9)
H14 H 0.60095 0.60368 0.23958
C16 C 0.9096(5) 0.6536(2) 0.21715(9)
H15 H 0.91124 0.71751 0.23291
C17 C 1.0900(6) 0.6271(3) 0.19017(12)
H16 H 1.21684 0.67338 0.18703
C18 C 1.0888(5) 0.5337(2) 0.16749(11)
H17 H 1.21683 0.51621 0.14945
C19 C 0.5952(4) 0.44221(17) 0.08797(7)
H18 H 0.55491 0.48147 0.11492
H19 H 0.47900 0.38643 0.08405
C20 C 0.5859(4) 0.51618(18) 0.04826(8)
H20 H 0.63077 0.47724 0.02149
H21 H 0.42531 0.54060 0.04425
C21 C 0.7420(4) 0.60955(17) 0.05322(7)
C22 C 0.6904(4) 0.6886(2) 0.08280(9)
H22 H 0.55409 0.68408 0.10002
C23 C 0.8345(5) 0.7740(2) 0.08762(9)
H23 H 0.79633 0.82749 0.10798
C24 C 1.0341(5) 0.7816(2) 0.06277(10)
H24 H 1.13264 0.84030 0.06592
C25 C 1.0888(4) 0.7036(2) 0.03351(9)
H25 H 1.22650 0.70792 0.01666
C26 C 0.9426(4) 0.61841(18) 0.02859(7)
H26 H 0.98062 0.56540 0.00801
#END
