
#######################################################################
#
#                 Cambridge Crystallographic Data Centre
#                                CCDC
#
#######################################################################
#
# If this CIF has been generated from an entry in the Cambridge
# Structural Database, then it will include bibliographic, chemical,
# crystal, experimental, refinement or atomic coordinate data resulting
# from the CCDC's data processing and validation procedures.
#
#######################################################################

data_CSD_CIF_SESVIW
_audit_creation_date 2007-02-08
_audit_creation_method CSD-ConQuest-V1
_database_code_CSD SESVIW
_database_code_depnum_ccdc_archive 'CCDC 617295'
_chemical_formula_sum 'C27 H24 N2 O4'
_chemical_formula_moiety
;
C27 H24 N2 O4
;
_journal_coeditor_code "IUCr EZ2046"
_journal_coden_Cambridge 1370
_journal_volume 62
_journal_year 2006
_journal_page_first o5582
_journal_name_full 'Acta Crystallogr.,Sect.E:Struct.Rep.Online '
loop_
_publ_author_name
"Zi-Qiang Tang"
"Bo Jiang"
"Run-Hong Jia"
_chemical_name_systematic
;
5-Cyclopropyl-7,7-dimethyl-10-(4-nitrophenyl)-7,8-dihydro-5H-indeno(1,2-b)quin
oline-9,11(6H,10H)-dione
;
_chemical_melting_point 541
_cell_volume   4339.224
_exptl_crystal_colour 'red'
_exptl_crystal_density_diffrn 1.349
_exptl_special_details
;
Melting point range 541-543K

;
_exptl_crystal_description 'block'
_diffrn_ambient_temperature ?
_diffrn_special_details
;
The study was carried out at room temperature,in the range 283-303K

;
#These two values have been output from a single CSD field.
_refine_ls_R_factor_gt 0.062
_refine_ls_wR_factor_gt 0.062
_symmetry_cell_setting monoclinic
_symmetry_space_group_name_H-M 'C 2/c'
_symmetry_Int_Tables_number 15
loop_
_symmetry_equiv_pos_site_id
_symmetry_equiv_pos_as_xyz
1 x,y,z
2 1/2+x,1/2+y,z
3 -x,y,1/2-z
4 1/2-x,1/2+y,1/2-z
5 -x,-y,-z
6 -1/2-x,-1/2-y,-z
7 x,-y,-1/2+z
8 -1/2+x,-1/2-y,-1/2+z
_cell_length_a 28.768(5)
_cell_length_b 8.9966(12)
_cell_length_c 17.703(3)
_cell_angle_alpha 90
_cell_angle_beta 108.727(4)
_cell_angle_gamma 90
_cell_formula_units_Z 8
loop_
_atom_type_symbol
_atom_type_radius_bond
C 0.68
H 0.23
N 0.68
O 0.68
loop_
_atom_site_label
_atom_site_type_symbol
_atom_site_fract_x
_atom_site_fract_y
_atom_site_fract_z
O1 O 0.59592(6) 0.89038(17) 0.38693(10)
O2 O 0.50781(6) 0.60749(19) 0.10337(10)
O3 O 0.77112(7) 0.9309(2) 0.19556(11)
O4 O 0.71474(7) 0.9855(2) 0.08579(11)
N1 N 0.60501(6) 0.37340(18) 0.34188(10)
N2 N 0.72809(8) 0.9310(2) 0.15266(12)
C1 C 0.61193(8) 0.4984(2) 0.39193(12)
C2 C 0.60067(8) 0.6369(2) 0.36130(12)
C3 C 0.58334(8) 0.6692(2) 0.27249(13)
H1 H 0.55580 0.74240 0.26150
C4 C 0.56294(8) 0.5270(2) 0.23072(12)
C5 C 0.57513(8) 0.3912(2) 0.26412(12)
C6 C 0.60369(8) 0.7636(2) 0.41412(14)
C7 C 0.61557(9) 0.7348(3) 0.50178(13)
H2 H 0.58460 0.71630 0.51340
H3 H 0.63080 0.82510 0.53150
C8 C 0.64990(8) 0.6036(2) 0.53201(12)
C9 C 0.62795(8) 0.4685(2) 0.48033(12)
H4 H 0.65260 0.38770 0.49280
H5 H 0.59930 0.43300 0.49460
C10 C 0.52819(8) 0.5094(3) 0.15078(13)
C11 C 0.52123(8) 0.3458(3) 0.13754(13)
C12 C 0.49206(8) 0.2698(3) 0.07211(14)
H6 H 0.47480 0.32080 0.02430
C13 C 0.48846(9) 0.1159(3) 0.07775(15)
H7 H 0.46840 0.06080 0.03340
C14 C 0.51376(9) 0.0436(3) 0.14703(14)
H8 H 0.50990 -0.06080 0.15050
C15 C 0.54519(8) 0.1200(3) 0.21289(14)
H9 H 0.56330 0.06830 0.25990
C16 C 0.54902(8) 0.2722(2) 0.20733(12)
C17 C 0.62256(8) 0.7353(2) 0.24130(13)
C18 C 0.67197(8) 0.7356(2) 0.28623(13)
H10 H 0.68210 0.69210 0.33790
C19 C 0.70670(9) 0.7981(3) 0.25718(13)
H11 H 0.74050 0.79750 0.28820
C20 C 0.69137(9) 0.8613(2) 0.18234(13)
C21 C 0.64292(9) 0.8606(2) 0.13516(14)
H12 H 0.63320 0.90280 0.08320
C22 C 0.60887(9) 0.7973(2) 0.16510(14)
H13 H 0.57530 0.79590 0.13310
C23 C 0.70126(8) 0.6371(3) 0.52797(14)
H14 H 0.69950 0.65150 0.47220
H15 H 0.72320 0.55360 0.55070
H16 H 0.71400 0.72760 0.55840
C24 C 0.65375(9) 0.5700(3) 0.61857(13)
H17 H 0.66650 0.65750 0.65170
H18 H 0.67600 0.48590 0.63800
H19 H 0.62120 0.54520 0.62140
C25 C 0.62573(8) 0.2288(2) 0.37083(12)
H20 H 0.60550 0.16270 0.39330
C26 C 0.65556(8) 0.1540(3) 0.32669(13)
H21 H 0.66000 0.20680 0.28040
H22 H 0.65320 0.04450 0.32140
C27 C 0.68037(9) 0.2170(3) 0.40780(14)
H23 H 0.70000 0.30860 0.41150
H24 H 0.69330 0.14640 0.45250
#END
