
#######################################################################
#
#                 Cambridge Crystallographic Data Centre
#                                CCDC
#
#######################################################################
#
# If this CIF has been generated from an entry in the Cambridge
# Structural Database, then it will include bibliographic, chemical,
# crystal, experimental, refinement or atomic coordinate data resulting
# from the CCDC's data processing and validation procedures.
#
#######################################################################

data_CSD_CIF_SESWUJ
_audit_creation_date 2007-02-08
_audit_creation_method CSD-ConQuest-V1
_database_code_CSD SESWUJ
_database_code_depnum_ccdc_archive 'CCDC 629662'
_chemical_formula_sum 'C13 H13 N3 O2'
_chemical_formula_moiety
;
C13 H13 N3 O2
;
_journal_coeditor_code "IUCr FB2032"
_journal_coden_Cambridge 1370
_journal_volume 62
_journal_year 2006
_journal_page_first o5944
_journal_name_full 'Acta Crystallogr.,Sect.E:Struct.Rep.Online '
loop_
_publ_author_name
"J.D.Silversides"
"A.E.Sparke"
"S.J.Archibald"
_chemical_name_systematic
;
N-(4-Nitrobenzyl)benzene-1,2-diamine
;
_cell_volume   1162.224
_exptl_crystal_colour 'brown'
_exptl_crystal_density_diffrn 1.39
_exptl_crystal_description 'block'
_exptl_crystal_preparation 'dichloromethane/diethyl ether'
_diffrn_ambient_temperature 150
#These two values have been output from a single CSD field.
_refine_ls_R_factor_gt 0.0593
_refine_ls_wR_factor_gt 0.0593
_symmetry_cell_setting monoclinic
_symmetry_space_group_name_H-M 'P 21/c'
_symmetry_Int_Tables_number 14
loop_
_symmetry_equiv_pos_site_id
_symmetry_equiv_pos_as_xyz
1 x,y,z
2 -x,1/2+y,1/2-z
3 -x,-y,-z
4 x,-1/2-y,-1/2+z
_cell_length_a 10.503(2)
_cell_length_b 6.7427(9)
_cell_length_c 16.452(3)
_cell_angle_alpha 90
_cell_angle_beta 94.032(15)
_cell_angle_gamma 90
_cell_formula_units_Z 4
loop_
_atom_type_symbol
_atom_type_radius_bond
C 0.68
H 0.23
N 0.68
O 0.68
loop_
_atom_site_label
_atom_site_type_symbol
_atom_site_fract_x
_atom_site_fract_y
_atom_site_fract_z
C1 C 0.18885(13) 0.8146(2) 0.28361(8)
C2 C 0.12405(13) 0.9926(2) 0.29923(8)
C3 C 0.04788(14) 1.0000(2) 0.36524(9)
H1 H 0.00390 1.11910 0.37620
C4 C 0.03528(15) 0.8356(3) 0.41534(9)
H2 H -0.01620 0.84340 0.46050
C5 C 0.09761(15) 0.6615(3) 0.39931(9)
H3 H 0.08840 0.54880 0.43300
C6 C 0.17421(14) 0.6508(2) 0.33352(8)
H4 H 0.21680 0.53040 0.32270
C7 C 0.34034(15) 0.6369(2) 0.20229(8)
H5 H 0.28560 0.51900 0.19130
H6 H 0.39750 0.61030 0.25150
C8 C 0.41860(14) 0.6762(2) 0.13054(8)
C9 C 0.55079(14) 0.6911(2) 0.14095(8)
H7 H 0.59250 0.67380 0.19360
C10 C 0.62238(14) 0.7311(2) 0.07518(8)
H8 H 0.71280 0.74020 0.08190
C11 C 0.55830(14) 0.7574(2) -0.00059(8)
C12 C 0.42726(14) 0.7436(2) -0.01328(8)
H9 H 0.38610 0.76160 -0.06610
C13 C 0.35743(14) 0.7027(2) 0.05303(8)
H10 H 0.26710 0.69250 0.04580
N1 N 0.26129(12) 0.80980(19) 0.21567(7)
H11 H 0.3008(18) 0.929(3) 0.2064(10)
N2 N 0.14345(13) 1.1597(2) 0.25113(8)
H12 H 0.147(2) 1.127(3) 0.1976(12)
H13 H 0.0876(19) 1.262(4) 0.2564(12)
N3 N 0.63296(13) 0.80231(19) -0.07045(7)
O1 O 0.57547(12) 0.82773(19) -0.13715(6)
O2 O 0.74923(12) 0.8135(2) -0.05944(8)
#END
