
#######################################################################
#
#                 Cambridge Crystallographic Data Centre
#                                CCDC
#
#######################################################################
#
# If this CIF has been generated from an entry in the Cambridge
# Structural Database, then it will include bibliographic, chemical,
# crystal, experimental, refinement or atomic coordinate data resulting
# from the CCDC's data processing and validation procedures.
#
#######################################################################

data_CSD_CIF_SETLOU
_audit_creation_date 2013-05-16
_audit_creation_method CSD-ConQuest-V1
_database_code_CSD SETLOU
_database_code_depnum_ccdc_archive 'CCDC 923753'
_chemical_formula_sum 'C19 H19 N1 O6'
_chemical_formula_moiety
;
C19 H19 N1 O6
;
_journal_coden_Cambridge 179
_journal_volume 52
_journal_year 2013
_journal_page_first 6658
_journal_name_full 'Angew.Chem.,Int.Ed. '
loop_
_publ_author_name
"Yu.Yamashita"
"Y.Hirano"
"A.Takada"
"H.Takikawa"
"K.Suzuki"
_chemical_name_systematic
;
Ethyl 
5a-hydroxy-10-methoxy-4-methyl-6-oxo-4,5,5a,6-tetrahydro-3H-anthra[9,1-cd][1,2
]oxazole-5-carboxylate
;
_cell_volume    835.480
_exptl_crystal_density_diffrn 1.42
_exptl_special_details
;
polymorph II

;
_exptl_crystal_description 'block'
_diffrn_ambient_temperature 185
#These two values have been output from a single CSD field.
_refine_ls_R_factor_gt 0.0382
_refine_ls_wR_factor_gt 0.0382
_symmetry_cell_setting triclinic
_symmetry_space_group_name_H-M 'P -1'
_symmetry_Int_Tables_number 2
loop_
_symmetry_equiv_pos_site_id
_symmetry_equiv_pos_as_xyz
1 x,y,z
2 -x,-y,-z
_cell_length_a 7.5464(2)
_cell_length_b 10.2786(3)
_cell_length_c 11.5220(4)
_cell_angle_alpha 77.907(1)
_cell_angle_beta 73.266(1)
_cell_angle_gamma 89.646(1)
_cell_formula_units_Z 2
loop_
_atom_type_symbol
_atom_type_radius_bond
C 0.68
H 0.23
N 0.68
O 0.68
loop_
_atom_site_label
_atom_site_type_symbol
_atom_site_fract_x
_atom_site_fract_y
_atom_site_fract_z
O1 O 0.25089(13) 1.09643(9) 0.52511(8)
O2 O 0.63543(14) 0.79856(9) 0.82442(10)
O3 O 0.61792(14) 1.36929(9) 0.58576(10)
O4 O 0.22348(14) 0.63616(9) 0.98025(8)
O5 O 0.37773(14) 0.53191(8) 0.83071(9)
O6 O 0.24113(13) 0.91161(9) 0.90503(8)
H1 H 0.22460 0.84200 0.96110
N1 N 0.39109(15) 1.18134(10) 0.53949(10)
C1 C 0.68061(17) 1.26996(12) 0.65942(12)
C2 C 0.58842(16) 1.14348(11) 0.68565(11)
C3 C 0.43729(16) 1.11378(11) 0.63615(11)
C4 C 0.33243(16) 0.99087(11) 0.68735(11)
C5 C 0.22359(17) 0.98353(12) 0.61490(11)
C6 C 0.10414(17) 0.86526(12) 0.62423(12)
H2 H 0.15290 0.82670 0.55010
H3 H -0.02340 0.89190 0.62800
C7 C 0.10154(16) 0.76004(11) 0.74331(11)
H4 H 0.01450 0.78870 0.81580
C8 C 0.29687(16) 0.75102(11) 0.76489(11)
H5 H 0.38890 0.73530 0.68790
C9 C 0.35345(16) 0.88463(11) 0.78988(10)
C10 C 0.55514(17) 0.89631(12) 0.79282(11)
C11 C 0.64575(16) 1.03513(12) 0.76164(11)
C12 C 0.79292(18) 1.05307(13) 0.80845(12)
H6 H 0.83200 0.97990 0.85880
C13 C 0.88166(19) 1.17802(14) 0.78110(13)
H7 H 0.98210 1.18990 0.81280
C14 C 0.82615(18) 1.28598(13) 0.70817(13)
H8 H 0.88750 1.37130 0.69130
C15 C 0.6941(2) 1.50259(12) 0.56656(15)
H9 H 0.67400 1.52710 0.64690
H10 H 0.63280 1.56460 0.51550
H11 H 0.82730 1.50700 0.52410
C16 C 0.0249(2) 0.62565(13) 0.73520(14)
H12 H -0.09270 0.63750 0.71530
H13 H 0.00450 0.56250 0.81510
H14 H 0.11400 0.59090 0.67010
C17 C 0.29524(16) 0.63514(11) 0.87174(11)
C18 C 0.3768(2) 0.40750(12) 0.92040(14)
H15 H 0.32900 0.42160 1.00610
H16 H 0.50440 0.37720 0.90830
C19 C 0.2551(2) 0.30478(15) 0.90059(15)
H17 H 0.12540 0.32720 0.92790
H18 H 0.27050 0.21700 0.94870
H19 H 0.28980 0.30290 0.81220
#END
