
#######################################################################
#
#                 Cambridge Crystallographic Data Centre
#                                CCDC
#
#######################################################################
#
# If this CIF has been generated from an entry in the Cambridge
# Structural Database, then it will include bibliographic, chemical,
# crystal, experimental, refinement or atomic coordinate data resulting
# from the CCDC's data processing and validation procedures.
#
#######################################################################

data_CSD_CIF_SETPOW
_audit_creation_date 1991-01-07
_audit_creation_method CSD-ConQuest-V1
_database_code_CSD SETPOW
_database_code_depnum_ccdc_archive 'CCDC 1257855'
_database_code_depnum_ccdc_fiz 'CSD 54153'
_chemical_formula_sum 'C17 H22 N4 O5'
_chemical_formula_moiety
;
C17 H22 N4 O5
;
_journal_coden_Cambridge 48
_journal_volume 123
_journal_year 1990
_journal_page_first 901
_journal_name_full 'Chem.Ber. '
loop_
_publ_author_name
"K.Weinges"
"W.Maurer"
"H.Reichert"
"G.Schilling"
"T.Oeser"
"H.Irngartinger"
_chemical_name_systematic
;
(1R,2S,5R,6R)-(-)-6-Methoxy-2,6-dimethylbicyclo(3.2.1)octan-3-one 
2,4-dinitrophenylhydrazone
;
_chemical_melting_point 435.15
_cell_volume   1826.119
_exptl_crystal_colour 'yellow-orange'
_exptl_crystal_density_diffrn 1.32
_diffrn_ambient_temperature ?
_diffrn_special_details
;
The study was carried out at room temperature,in the range 283-303K

;
#These two values have been output from a single CSD field.
_refine_ls_R_factor_gt 0.043
_refine_ls_wR_factor_gt 0.043
loop_
_citation_database_id_CSD
_citation_special_details
SETPUC "is a stereoisomer of this entry"
_symmetry_cell_setting orthorhombic
_symmetry_space_group_name_H-M 'P 21 21 21'
_symmetry_Int_Tables_number 19
loop_
_symmetry_equiv_pos_site_id
_symmetry_equiv_pos_as_xyz
1 x,y,z
2 1/2+x,1/2-y,-z
3 -x,1/2+y,1/2-z
4 1/2-x,-y,1/2+z
_cell_length_a 6.601(2)
_cell_length_b 11.292(3)
_cell_length_c 24.499(9)
_cell_angle_alpha 90
_cell_angle_beta 90
_cell_angle_gamma 90
_cell_formula_units_Z 4
loop_
_atom_type_symbol
_atom_type_radius_bond
C 0.68
H 0.23
N 0.68
O 0.68
loop_
_atom_site_label
_atom_site_type_symbol
_atom_site_fract_x
_atom_site_fract_y
_atom_site_fract_z
O1 O 0.2264(4) -0.1270(2) 0.4692(1)
O2 O 0.3661(4) -0.3882(2) 0.3753(1)
O3 O 0.2547(4) -0.5641(2) 0.3617(1)
O4 O -0.3605(4) -0.6441(2) 0.2737(1)
O5 O -0.5556(4) -0.5019(2) 0.2461(1)
N1 N 0.1041(4) -0.0848(2) 0.3421(1)
N2 N 0.1574(4) -0.2035(2) 0.3448(1)
N3 N 0.2367(4) -0.4563(2) 0.3576(1)
N4 N -0.4009(4) -0.5389(2) 0.2679(1)
C1 C 0.2065(7) 0.1646(3) 0.4208(2)
C2 C 0.1691(6) 0.1178(3) 0.3626(1)
C3 C 0.2325(5) -0.0106(3) 0.3617(1)
C4 C 0.4363(5) -0.0368(3) 0.3872(1)
C5 C 0.4549(6) 0.0256(3) 0.4426(2)
C6 C 0.2767(6) -0.0062(3) 0.4807(1)
C7 C 0.1071(7) 0.0813(3) 0.4633(1)
C8 C 0.4269(8) 0.1586(3) 0.4348(2)
C9 C -0.0451(7) 0.1390(3) 0.3425(2)
C10 C 0.3331(9) 0.0072(4) 0.5407(2)
C11 C 0.0555(8) -0.1748(4) 0.4960(2)
C12 C 0.0259(5) -0.2850(2) 0.3261(1)
C13 C 0.0581(5) -0.4087(2) 0.3308(1)
C14 C -0.0801(5) -0.4907(2) 0.3113(1)
C15 C -0.2531(5) -0.4514(3) 0.2875(1)
C16 C -0.2951(5) -0.3308(3) 0.2816(1)
C17 C -0.1572(5) -0.2504(3) 0.3001(1)
H1 H 0.14800 0.24500 0.42300
H2 H 0.28300 -0.22600 0.35900
H3 H 0.25100 0.16200 0.33700
H4 H 0.54300 -0.00900 0.36300
H5 H 0.44900 -0.12300 0.39300
H6 H 0.58600 0.00200 0.45800
H7 H -0.00700 0.03900 0.44700
H8 H 0.05900 0.12700 0.49500
H9 H 0.46100 0.20300 0.46800
H10 H 0.51100 0.18800 0.40400
H11 H -0.07600 0.22400 0.34400
H12 H -0.05700 0.11200 0.30400
H13 H -0.14200 0.09500 0.36500
H14 H 0.44100 -0.05400 0.54900
H15 H 0.38600 0.08500 0.54800
H16 H 0.21600 -0.01100 0.56400
H17 H 0.03900 -0.25700 0.48500
H18 H 0.08000 -0.17000 0.53600
H19 H -0.06300 -0.12800 0.48700
H20 H -0.05100 -0.57500 0.31400
H21 H -0.42100 -0.30500 0.26400
H22 H -0.18500 -0.16500 0.29500
#END
