
#######################################################################
#
#                 Cambridge Crystallographic Data Centre
#                                CCDC
#
#######################################################################
#
# If this CIF has been generated from an entry in the Cambridge
# Structural Database, then it will include bibliographic, chemical,
# crystal, experimental, refinement or atomic coordinate data resulting
# from the CCDC's data processing and validation procedures.
#
#######################################################################

data_CSD_CIF_SETPUC
_audit_creation_date 1991-01-07
_audit_creation_method CSD-ConQuest-V1
_database_code_CSD SETPUC
_database_code_depnum_ccdc_archive 'CCDC 1257856'
_database_code_depnum_ccdc_fiz 'CSD 54153'
_chemical_formula_sum 'C17 H22 N4 O5'
_chemical_formula_moiety
;
C17 H22 N4 O5
;
_journal_coden_Cambridge 48
_journal_volume 123
_journal_year 1990
_journal_page_first 901
_journal_name_full 'Chem.Ber. '
loop_
_publ_author_name
"K.Weinges"
"W.Maurer"
"H.Reichert"
"G.Schilling"
"T.Oeser"
"H.Irngartinger"
_chemical_name_systematic
;
(1R,2S,5R,6S)-(+)-6-Methoxy-2,6-dimethylbicyclo(3.2.1)octan-3-one 
2,4-dinitrophenylhydrazone
;
_chemical_melting_point 438.15
_cell_volume    908.323
_exptl_crystal_colour 'red-orange'
_exptl_crystal_density_diffrn 1.33
_diffrn_ambient_temperature ?
_diffrn_special_details
;
The study was carried out at room temperature,in the range 283-303K

;
#These two values have been output from a single CSD field.
_refine_ls_R_factor_gt 0.036
_refine_ls_wR_factor_gt 0.036
loop_
_citation_database_id_CSD
_citation_special_details
SETPOW "is a stereoisomer of this entry"
_symmetry_cell_setting monoclinic
_symmetry_space_group_name_H-M 'P 21'
_symmetry_Int_Tables_number 4
loop_
_symmetry_equiv_pos_site_id
_symmetry_equiv_pos_as_xyz
1 x,y,z
2 -x,1/2+y,-z
_cell_length_a 8.165(1)
_cell_length_b 6.662(1)
_cell_length_c 16.971(3)
_cell_angle_alpha 90
_cell_angle_beta 100.28(1)
_cell_angle_gamma 90
_cell_formula_units_Z 2
loop_
_atom_type_symbol
_atom_type_radius_bond
C 0.68
H 0.23
N 0.68
O 0.68
loop_
_atom_site_label
_atom_site_type_symbol
_atom_site_fract_x
_atom_site_fract_y
_atom_site_fract_z
O1 O 0.3231(2) 0.99000 0.5927(1)
O2 O 0.5498(2) 0.4088(4) 0.9123(1)
O3 O 0.6102(2) 0.4083(5) 1.0398(1)
O4 O 0.2089(2) 0.4337(6) 1.2073(1)
O5 O -0.0491(2) 0.4343(6) 1.1583(1)
N1 N 0.1084(2) 0.4309(3) 0.7756(1)
N2 N 0.2385(2) 0.4202(3) 0.8404(1)
N3 N 0.5078(2) 0.4103(4) 0.9786(1)
N4 N 0.0953(2) 0.4302(4) 1.1509(1)
C1 C 0.0424(2) 0.6343(4) 0.5801(1)
C2 C 0.0058(2) 0.4620(4) 0.6351(1)
C3 C 0.1478(2) 0.4521(3) 0.7063(1)
C4 C 0.3214(2) 0.4688(3) 0.6868(1)
C5 C 0.3330(2) 0.6296(3) 0.6228(1)
C6 C 0.2802(2) 0.8396(3) 0.6478(1)
C7 C 0.0862(2) 0.8303(4) 0.6276(1)
C8 C 0.2027(2) 0.5868(4) 0.5482(1)
C9 C -0.1661(2) 0.4775(5) 0.6583(1)
C10 C 0.3465(2) 0.9005(4) 0.7338(1)
C11 C 0.4941(3) 1.0149(5) 0.5902(2)
C12 C 0.2054(2) 0.4200(4) 0.9153(1)
C13 C 0.3327(2) 0.4153(4) 0.9842(1)
C14 C 0.2962(2) 0.4190(4) 1.0611(1)
C15 C 0.1330(2) 0.4255(4) 1.0701(1)
C16 C 0.0039(2) 0.4286(4) 1.0046(1)
C17 C 0.0389(2) 0.4263(4) 0.9291(1)
H1 H 0.338(2) 0.410(4) 0.834(1)
H2 H -0.054(2) 0.656(4) 0.537(1)
H3 H 0.019(2) 0.329(3) 0.607(1)
H4 H 0.340(2) 0.342(4) 0.662(1)
H5 H 0.406(2) 0.502(4) 0.734(1)
H6 H 0.448(2) 0.637(4) 0.615(1)
H7 H 0.042(2) 0.833(4) 0.674(14)
H8 H 0.046(2) 0.944(4) 0.596(1)
H9 H 0.212(3) 0.685(4) 0.505(1)
H10 H 0.209(2) 0.455(4) 0.530(1)
H11 H -0.249(2) 0.483(4) 0.614(1)
H12 H -0.183(3) 0.375(4) 0.689(1)
H13 H -0.181(2) 0.596(4) 0.687(1)
H14 H 0.477(3) 0.884(4) 0.750(1)
H15 H 0.298(3) 1.030(5) 0.741(2)
H16 H 0.308(2) 0.807(4) 0.768(1)
H17 H 0.509(3) 1.142(6) 0.561(2)
H18 H 0.547(4) 1.034(5) 0.639(2)
H19 H 0.541(3) 0.906(6) 0.567(2)
H20 H 0.371(2) 0.410(4) 1.104(1)
H21 H -0.098(2) 0.432(4) 1.013(1)
H22 H -0.041(2) 0.422(4) 0.889(1)
#END
