
#######################################################################
#
#                 Cambridge Crystallographic Data Centre
#                                CCDC
#
#######################################################################
#
# If this CIF has been generated from an entry in the Cambridge
# Structural Database, then it will include bibliographic, chemical,
# crystal, experimental, refinement or atomic coordinate data resulting
# from the CCDC's data processing and validation procedures.
#
#######################################################################

data_CSD_CIF_SEVTIY
_audit_creation_date 2013-05-17
_audit_creation_method CSD-ConQuest-V1
_database_code_CSD SEVTIY
_database_code_depnum_ccdc_archive 'CCDC 927358'
_chemical_formula_sum 'C8 H6 N10 O10'
_chemical_formula_moiety
;
C8 H6 N10 O10
;
_journal_coden_Cambridge 1220
_journal_volume 19
_journal_year 2013
_journal_page_first 8929
_journal_name_full 'Chem.-Eur.J. '
loop_
_publ_author_name
"Jiaheng Zhang"
"Chunlin He"
"D.A.Parrish"
"J.M.Shreeve"
_chemical_name_systematic
;
1-(3,5-Dinitro-1H-pyrazol-1-yl)-N-((3,5-dinitro-1H-pyrazol-1-yl)methyl)-N-nitr
omethanamine
;
_chemical_name_common
;
N,N-bis((3,5-Dinitro-1H-pyrazol-1-yl)methyl)nitramide
;
_cell_volume   1493.724
_exptl_crystal_colour 'colorless'
_exptl_crystal_density_diffrn 1.789
_exptl_crystal_description 'plate'
_diffrn_ambient_temperature 150
#These two values have been output from a single CSD field.
_refine_ls_R_factor_gt 0.0305
_refine_ls_wR_factor_gt 0.0305
_symmetry_cell_setting monoclinic
_symmetry_space_group_name_H-M 'P 21/c'
_symmetry_Int_Tables_number 14
loop_
_symmetry_equiv_pos_site_id
_symmetry_equiv_pos_as_xyz
1 x,y,z
2 -x,1/2+y,1/2-z
3 -x,-y,-z
4 x,-1/2-y,-1/2+z
_cell_length_a 13.9710(15)
_cell_length_b 9.8731(11)
_cell_length_c 11.0431(12)
_cell_angle_alpha 90
_cell_angle_beta 101.300(1)
_cell_angle_gamma 90
_cell_formula_units_Z 4
loop_
_atom_type_symbol
_atom_type_radius_bond
C 0.68
H 0.23
N 0.68
O 0.68
loop_
_atom_site_label
_atom_site_type_symbol
_atom_site_fract_x
_atom_site_fract_y
_atom_site_fract_z
N1 N 0.23879(7) 0.34623(10) 0.75991(9)
N2 N 0.27529(7) 0.25802(10) 0.84864(9)
C1 C 0.36472(9) 0.30442(13) 0.89285(11)
C2 C 0.38897(9) 0.42107(13) 0.83580(12)
H1 H 0.44790 0.47180 0.85200
C3 C 0.30559(9) 0.44368(12) 0.75011(11)
C4 C 0.13957(9) 0.32108(13) 0.68347(11)
H2 H 0.09710 0.40030 0.68880
H3 H 0.14460 0.30900 0.59600
N3 N 0.09737(7) 0.20292(11) 0.72591(9)
C5 C 0.09072(9) 0.07126(12) 0.66735(10)
H4 H 0.10450 0.08110 0.58320
H5 H 0.02320 0.03700 0.65910
N4 N 0.15848(7) -0.02855(10) 0.73587(9)
N5 N 0.12142(7) -0.12338(10) 0.80094(9)
C6 C 0.19889(9) -0.19401(12) 0.85444(10)
C7 C 0.28694(9) -0.14984(13) 0.82796(11)
H6 H 0.35090 -0.18440 0.85620
C8 C 0.25728(8) -0.04373(12) 0.7506(1)
N6 N 0.42669(8) 0.23135(12) 0.99201(10)
O1 O 0.39749(7) 0.12385(11) 1.02579(9)
O2 O 0.50528(7) 0.28388(12) 1.03485(10)
N7 N 0.28639(9) 0.55261(11) 0.66251(10)
O3 O 0.35272(8) 0.63155(10) 0.65879(10)
O4 O 0.20435(8) 0.55972(12) 0.59869(11)
N8 N 0.05874(7) 0.21702(11) 0.83110(9)
O5 O 0.07278(7) 0.32632(10) 0.88468(8)
O6 O 0.01537(8) 0.12075(11) 0.86286(9)
N9 N 0.18630(8) -0.30681(11) 0.93359(9)
O7 O 0.10579(7) -0.32817(11) 0.95743(9)
O8 O 0.25978(8) -0.37364(11) 0.9727(1)
N10 N 0.31784(8) 0.03890(11) 0.68944(10)
O9 O 0.40525(7) 0.01706(12) 0.71593(11)
O10 O 0.27917(7) 0.12501(9) 0.61577(8)
#END
