
#######################################################################
#
#                 Cambridge Crystallographic Data Centre
#                                CCDC
#
#######################################################################
#
# If this CIF has been generated from an entry in the Cambridge
# Structural Database, then it will include bibliographic, chemical,
# crystal, experimental, refinement or atomic coordinate data resulting
# from the CCDC's data processing and validation procedures.
#
#######################################################################

data_CSD_CIF_SEWQES
_audit_creation_date 2013-05-17
_audit_creation_method CSD-ConQuest-V1
_database_code_CSD SEWQES
_database_code_depnum_ccdc_archive 'CCDC 921433'
_chemical_formula_sum 'C25 H32 N2 O3'
_chemical_formula_moiety
;
C25 H32 N2 O3
;
_journal_coden_Cambridge 182
_journal_volume 49
_journal_year 2013
_journal_page_first 4024
_journal_name_full 'Chem.Commun. '
loop_
_publ_author_name
"Hua Lin"
"Yu Tan"
"Wen-Jie Liu"
"Zhi-Cheng Zhang"
"Xing-Wen Sun"
"Guo-Qiang Lin"
_chemical_name_systematic
;
(2S,3R,4R)-2-Isobutyl-5-isopropyl-1-(4-methoxyphenyl)-3-nitro-4-phenyl-1,2,3,4
-tetrahydropyridine
;
_cell_volume   2312.824
_exptl_crystal_density_diffrn 1.173
_diffrn_ambient_temperature 296
#These two values have been output from a single CSD field.
_refine_ls_R_factor_gt 0.0592
_refine_ls_wR_factor_gt 0.0592
_symmetry_cell_setting monoclinic
_symmetry_space_group_name_H-M 'P 21/c'
_symmetry_Int_Tables_number 14
loop_
_symmetry_equiv_pos_site_id
_symmetry_equiv_pos_as_xyz
1 x,y,z
2 -x,1/2+y,1/2-z
3 -x,-y,-z
4 x,-1/2-y,-1/2+z
_cell_length_a 11.4633(15)
_cell_length_b 17.645(2)
_cell_length_c 12.4407(17)
_cell_angle_alpha 90
_cell_angle_beta 113.204(2)
_cell_angle_gamma 90
_cell_formula_units_Z 4
loop_
_atom_type_symbol
_atom_type_radius_bond
C 0.68
H 0.23
N 0.68
O 0.68
loop_
_atom_site_label
_atom_site_type_symbol
_atom_site_fract_x
_atom_site_fract_y
_atom_site_fract_z
C1 C -0.1210(4) 0.9842(2) -0.4124(4)
H1 H -0.16920 1.01450 -0.38050
H2 H -0.14860 0.93250 -0.41820
H3 H -0.13360 1.00280 -0.48880
C2 C 0.0432(3) 0.95906(14) -0.2320(2)
C3 C -0.0326(2) 0.93642(15) -0.1762(2)
H4 H -0.12030 0.94020 -0.21420
C4 C 0.0206(2) 0.90795(14) -0.0633(2)
H5 H -0.03170 0.89340 -0.02580
C5 C 0.15074(19) 0.90094(11) -0.00602(17)
C6 C 0.2254(2) 0.92459(12) -0.06443(19)
H6 H 0.31320 0.92070 -0.02750
C7 C 0.1722(3) 0.95362(14) -0.1757(2)
H7 H 0.22410 0.96960 -0.21290
C8 C 0.33000(19) 0.89213(11) 0.17973(17)
H8 H 0.35870 0.93870 0.16510
C9 C 0.41073(19) 0.85137(11) 0.26661(16)
C10 C 0.37246(18) 0.77423(11) 0.29532(16)
H9 H 0.35340 0.78210 0.36470
C11 C 0.24779(18) 0.74509(10) 0.19961(16)
H10 H 0.21030 0.70870 0.23640
C12 C 0.14954(18) 0.80798(11) 0.14465(18)
H11 H 0.08250 0.78710 0.07440
C13 C 0.0882(2) 0.83349(12) 0.2280(2)
H12 H 0.15520 0.84790 0.30170
H13 H 0.03800 0.87850 0.19540
C14 C 0.0034(2) 0.77548(14) 0.2531(2)
H14 H 0.05720 0.73310 0.29550
C15 C -0.0986(3) 0.7440(2) 0.1433(3)
H15 H -0.14690 0.78490 0.09570
H16 H -0.15370 0.71150 0.16400
H17 H -0.05990 0.71540 0.10040
C16 C -0.0547(3) 0.81068(19) 0.3325(3)
H18 H -0.10180 0.77280 0.35390
H19 H -0.11050 0.85120 0.29190
H20 H 0.01160 0.83010 0.40180
C17 C 0.5365(2) 0.88311(13) 0.35075(19)
H21 H 0.60150 0.84520 0.35750
C18 C 0.5361(4) 0.8928(2) 0.4720(2)
H22 H 0.47160 0.92860 0.46860
H23 H 0.61740 0.91110 0.52460
H24 H 0.51900 0.84490 0.49930
C19 C 0.5753(3) 0.9558(2) 0.3097(3)
H25 H 0.51760 0.99560 0.30830
H26 H 0.57350 0.94870 0.23260
H27 H 0.65970 0.96940 0.36230
C20 C 0.47764(19) 0.71554(11) 0.33109(17)
C21 C 0.5031(2) 0.67190(12) 0.4305(2)
H28 H 0.45520 0.67880 0.47510
C22 C 0.5985(2) 0.61836(14) 0.4641(2)
H29 H 0.61380 0.58940 0.53070
C23 C 0.6706(2) 0.60744(14) 0.4005(2)
H30 H 0.73450 0.57100 0.42320
C24 C 0.6479(2) 0.65095(15) 0.3021(2)
H31 H 0.69710 0.64420 0.25860
C25 C 0.5528(2) 0.70430(14) 0.2681(2)
H32 H 0.53860 0.73340 0.20180
N1 N 0.20664(16) 0.87193(9) 0.10854(14)
N2 N 0.27086(16) 0.70412(10) 0.10388(16)
O1 O 0.0013(3) 0.98835(14) -0.34308(19)
O2 O 0.30296(19) 0.74077(10) 0.03780(15)
O3 O 0.2551(2) 0.63661(10) 0.09660(19)
#END
