
#######################################################################
#
#                 Cambridge Crystallographic Data Centre
#                                CCDC
#
#######################################################################
#
# If this CIF has been generated from an entry in the Cambridge
# Structural Database, then it will include bibliographic, chemical,
# crystal, experimental, refinement or atomic coordinate data resulting
# from the CCDC's data processing and validation procedures.
#
#######################################################################

data_CSD_CIF_SEYPAQ
_audit_creation_date 2018-03-19
_audit_creation_method CSD-ConQuest-V1
_database_code_CSD SEYPAQ
_database_code_depnum_ccdc_archive 'CCDC 1581501'
_chemical_formula_sum 'C22 H21 N3 O2'
_chemical_formula_moiety
;
C22 H21 N3 O2
;
_journal_coden_Cambridge 1678
_journal_volume 54
_journal_year 2018
_journal_page_first 38
_journal_name_full 'Chemistry of Heterocyclic Compounds '
loop_
_publ_author_name
"E.A.Filatova"
"A.V.Gulevskaya"
"A.F.Pozharskii"
_chemical_name_systematic
;
N,N,1,3-tetramethyl-2-(4-nitrophenyl)-1H-benzo[g]indol-9-amine
;
_chemical_melting_point 444
_cell_volume   1821.582
_exptl_crystal_colour 'red'
_exptl_crystal_density_diffrn 1.311
_exptl_special_details
;
Melting point range 444-446K

;
_exptl_crystal_description 'plate'
_exptl_crystal_preparation 'Re-crystallisation from solvent'
_diffrn_ambient_temperature 120
#These two values have been output from a single CSD field.
_refine_ls_R_factor_gt 0.0898
_refine_ls_wR_factor_gt 0.0898
_symmetry_cell_setting monoclinic
_symmetry_space_group_name_H-M 'P 21/c'
_symmetry_Int_Tables_number 14
loop_
_symmetry_equiv_pos_site_id
_symmetry_equiv_pos_as_xyz
1 x,y,z
2 -x,1/2+y,1/2-z
3 -x,-y,-z
4 x,-1/2-y,-1/2+z
_cell_length_a 8.9652(12)
_cell_length_b 12.2960(16)
_cell_length_c 16.6383(19)
_cell_angle_alpha 90
_cell_angle_beta 96.709(3)
_cell_angle_gamma 90
_cell_formula_units_Z 4
loop_
_atom_type_symbol
_atom_type_radius_bond
C 0.68
H 0.23
N 0.68
O 0.68
loop_
_atom_site_label
_atom_site_type_symbol
_atom_site_fract_x
_atom_site_fract_y
_atom_site_fract_z
N1 N 0.7614(4) 0.7757(3) 0.23536(19)
N2 N 0.6029(4) 0.5683(3) 0.1787(2)
N3 N 0.6731(5) 1.2339(3) 0.0404(2)
O1 O 0.7740(4) 1.2994(3) 0.0335(2)
O2 O 0.5482(4) 1.2380(3) 0.0018(2)
C1 C 0.7748(4) 0.7076(4) 0.3032(2)
C2 C 0.7528(4) 0.5929(4) 0.3088(3)
C3 C 0.6869(5) 0.5217(4) 0.2465(3)
C4 C 0.7067(5) 0.4110(4) 0.2554(3)
H1 H 0.67460 0.36400 0.21150
C5 C 0.7733(5) 0.3673(4) 0.3282(3)
H2 H 0.79070 0.29120 0.33230
C6 C 0.8140(5) 0.4324(4) 0.3938(3)
H3 H 0.84970 0.40060 0.44440
C7 C 0.8033(5) 0.5463(4) 0.3864(3)
C8 C 0.8455(5) 0.6150(4) 0.4548(3)
H4 H 0.87250 0.58260 0.50630
C9 C 0.8482(5) 0.7244(4) 0.4484(3)
H5 H 0.87110 0.76830 0.49520
C10 C 0.8164(5) 0.7730(4) 0.3709(3)
C11 C 0.8281(5) 0.8828(4) 0.3453(2)
C12 C 0.7919(4) 0.8822(3) 0.2621(3)
C13 C 0.7662(4) 0.9719(3) 0.2044(2)
C14 C 0.6347(5) 0.9732(3) 0.1495(2)
H6 H 0.56660 0.91390 0.14850
C15 C 0.6028(5) 1.0592(4) 0.0969(2)
H7 H 0.51270 1.06040 0.06060
C16 C 0.7048(5) 1.1432(4) 0.0981(3)
C17 C 0.8354(5) 1.1452(4) 0.1511(3)
H8 H 0.90360 1.20430 0.15120
C18 C 0.8644(5) 1.0587(4) 0.2041(3)
H9 H 0.95370 1.05900 0.24090
C19 C 0.7971(5) 0.7427(3) 0.1549(2)
H10 H 0.84010 0.66930 0.15800
H11 H 0.86990 0.79370 0.13640
H12 H 0.70530 0.74310 0.11670
C20 C 0.4785(5) 0.6405(4) 0.1924(3)
H13 H 0.50260 0.67880 0.24390
H14 H 0.38690 0.59750 0.19420
H15 H 0.46260 0.69360 0.14830
C21 C 0.5642(6) 0.4997(4) 0.1075(3)
H16 H 0.65520 0.46450 0.09260
H17 H 0.51940 0.54460 0.06230
H18 H 0.49210 0.44400 0.11990
C22 C 0.8711(5) 0.9781(4) 0.3997(3)
H19 H 0.85440 1.04580 0.36890
H20 H 0.97740 0.97240 0.42110
H21 H 0.80960 0.97830 0.44470
#END
