
#######################################################################
#
#                 Cambridge Crystallographic Data Centre
#                                CCDC
#
#######################################################################
#
# If this CIF has been generated from an entry in the Cambridge
# Structural Database, then it will include bibliographic, chemical,
# crystal, experimental, refinement or atomic coordinate data resulting
# from the CCDC's data processing and validation procedures.
#
#######################################################################

data_CSD_CIF_SEZMOA
_audit_creation_date 2007-05-01
_audit_creation_method CSD-ConQuest-V1
_database_code_CSD SEZMOA
_database_code_depnum_ccdc_archive 'CCDC 640332'
_chemical_formula_sum 'C14 H12 N2 O3'
_chemical_formula_moiety
;
C14 H12 N2 O3
;
_journal_coeditor_code "IUCr GG3072"
_journal_coden_Cambridge 1370
_journal_volume 63
_journal_year 2007
_journal_page_first o1082
_journal_name_full 'Acta Crystallogr.,Sect.E:Struct.Rep.Online '
loop_
_publ_author_name
"Zong-Sheng Li"
"Jian-She Chai"
_chemical_name_systematic
;
1-(4-Aminophenyl)-2-(4-nitrophenyl)ethanone
;
_cell_volume   1213.796
_exptl_crystal_colour 'yellow'
_exptl_crystal_density_diffrn 1.402
_exptl_crystal_description 'plate'
_diffrn_ambient_temperature 150.0
#These two values have been output from a single CSD field.
_refine_ls_R_factor_gt 0.0415
_refine_ls_wR_factor_gt 0.0415
_symmetry_cell_setting orthorhombic
_symmetry_space_group_name_H-M 'P n a 21'
_symmetry_Int_Tables_number 33
loop_
_symmetry_equiv_pos_site_id
_symmetry_equiv_pos_as_xyz
1 x,y,z
2 -x,-y,1/2+z
3 1/2+x,1/2-y,z
4 1/2-x,1/2+y,1/2+z
_cell_length_a 10.1889(16)
_cell_length_b 8.0102(11)
_cell_length_c 14.8722(17)
_cell_angle_alpha 90
_cell_angle_beta 90
_cell_angle_gamma 90
_cell_formula_units_Z 4
loop_
_atom_type_symbol
_atom_type_radius_bond
C 0.68
H 0.23
N 0.68
O 0.68
loop_
_atom_site_label
_atom_site_type_symbol
_atom_site_fract_x
_atom_site_fract_y
_atom_site_fract_z
N1 N 0.0756(3) 0.3352(3) -0.42269(19)
N2 N 0.1920(3) 0.1364(4) 0.37986(16)
O1 O 0.0466(2) 0.3696(3) 0.00411(16)
O2 O 0.2625(2) 0.2349(3) 0.42155(15)
O3 O 0.1210(2) 0.0341(3) 0.41780(15)
C1 C 0.0882(3) 0.3255(3) -0.33199(19)
C2 C 0.0141(3) 0.4293(4) -0.27441(18)
H1 H -0.04240 0.50850 -0.29880
C3 C 0.0248(3) 0.4145(3) -0.1834(2)
H2 H -0.02460 0.48470 -0.14680
C4 C 0.1078(3) 0.2970(4) -0.14350(19)
C5 C 0.1828(3) 0.1966(3) -0.20056(19)
H3 H 0.24030 0.11900 -0.17580
C6 C 0.1733(3) 0.2099(4) -0.2926(2)
H4 H 0.22420 0.14120 -0.32890
C7 C 0.1129(3) 0.2811(4) -0.0444(2)
C8 C 0.2037(3) 0.1504(4) -0.0042(2)
H5 H 0.17890 0.04120 -0.02670
H6 H 0.29290 0.17260 -0.02360
C9 C 0.1995(3) 0.1483(4) 0.09631(19)
C10 C 0.1173(3) 0.0388(4) 0.14149(19)
H7 H 0.06320 -0.03220 0.10870
C11 C 0.1143(3) 0.0332(4) 0.2345(2)
H8 H 0.06010 -0.04180 0.26440
C12 C 0.1940(3) 0.1421(4) 0.2816(2)
C13 C 0.2772(3) 0.2536(4) 0.2391(2)
H9 H 0.33020 0.32560 0.27210
C14 C 0.2793(3) 0.2547(4) 0.14641(19)
H10 H 0.33520 0.32810 0.11670
H11 H 0.031(3) 0.428(4) -0.449(2)
H12 H 0.125(3) 0.279(4) -0.455(2)
#END
