
#######################################################################
#
#                 Cambridge Crystallographic Data Centre
#                                CCDC
#
#######################################################################
#
# If this CIF has been generated from an entry in the Cambridge
# Structural Database, then it will include bibliographic, chemical,
# crystal, experimental, refinement or atomic coordinate data resulting
# from the CCDC's data processing and validation procedures.
#
#######################################################################

data_CSD_CIF_SEZVEZ
_audit_creation_date 2007-05-01
_audit_creation_method CSD-ConQuest-V1
_database_code_CSD SEZVEZ
_database_code_depnum_ccdc_archive 'CCDC 640510'
_chemical_formula_sum 'C17 H16 N2 O5'
_chemical_formula_moiety
;
C17 H16 N2 O5
;
_journal_coeditor_code "IUCr WK2047"
_journal_coden_Cambridge 1370
_journal_volume 63
_journal_year 2007
_journal_page_first o1131
_journal_name_full 'Acta Crystallogr.,Sect.E:Struct.Rep.Online '
loop_
_publ_author_name
"Cun-Kuan Wang"
_chemical_name_systematic
;
4-Nitrobenzyl 2-(anilinocarbonyl)propionate
;
_cell_volume   1604.990
_exptl_crystal_colour 'colorless'
_exptl_crystal_density_diffrn 1.359
_exptl_crystal_description 'prism'
_exptl_crystal_preparation 'ethyl acetate'
_diffrn_ambient_temperature 298
#These two values have been output from a single CSD field.
_refine_ls_R_factor_gt 0.0445
_refine_ls_wR_factor_gt 0.0445
_symmetry_cell_setting monoclinic
_symmetry_space_group_name_H-M 'P 21/c'
_symmetry_Int_Tables_number 14
loop_
_symmetry_equiv_pos_site_id
_symmetry_equiv_pos_as_xyz
1 x,y,z
2 -x,1/2+y,1/2-z
3 -x,-y,-z
4 x,-1/2-y,-1/2+z
_cell_length_a 15.867(3)
_cell_length_b 4.882(1)
_cell_length_c 21.141(4)
_cell_angle_alpha 90
_cell_angle_beta 101.46(3)
_cell_angle_gamma 90
_cell_formula_units_Z 4
loop_
_atom_type_symbol
_atom_type_radius_bond
C 0.68
H 0.23
N 0.68
O 0.68
loop_
_atom_site_label
_atom_site_type_symbol
_atom_site_fract_x
_atom_site_fract_y
_atom_site_fract_z
O1 O 0.24105(11) 1.6471(4) 0.25813(8)
O2 O 0.09811(9) 0.3825(3) -0.04763(8)
O3 O 0.11207(11) 1.6151(3) 0.27158(7)
O4 O 0.32665(8) 0.1317(2) -0.00692(7)
O5 O 0.17035(7) 0.7053(2) 0.01411(6)
N1 N 0.16959(12) 1.5506(3) 0.24452(7)
N2 N 0.36103(9) 0.5625(3) 0.02744(7)
H1 H 0.3453(12) 0.731(4) 0.0201(9)
C1 C 0.51264(18) 0.6251(6) 0.18205(14)
H2 H 0.5213(19) 0.726(6) 0.2171(15)
C2 C 0.57218(17) 0.4293(6) 0.17718(14)
H3 H 0.6235(17) 0.402(5) 0.2110(12)
C3 C 0.56214(15) 0.2728(5) 0.12302(14)
H4 H 0.6021(17) 0.145(5) 0.1176(11)
C4 C 0.49247(13) 0.3088(4) 0.07293(12)
H5 H 0.4856(15) 0.205(4) 0.0357(12)
C5 C 0.22312(18) 0.3249(4) -0.12244(10)
H6 H 0.2029(15) 0.150(5) -0.1140(11)
H7 H 0.2752(17) 0.308(5) -0.1400(12)
H8 H 0.1801(15) 0.418(5) -0.1529(11)
C6 C 0.44238(15) 0.6638(4) 0.13313(11)
H9 H 0.4005(16) 0.803(5) 0.1349(11)
C7 C 0.07285(12) 1.2211(3) 0.17932(9)
H10 H 0.0328(15) 1.275(4) 0.2034(11)
C8 C 0.21633(12) 1.2734(4) 0.16072(9)
H11 H 0.2689(14) 1.360(4) 0.1683(9)
C9 C 0.43183(10) 0.5063(3) 0.07821(8)
C10 C 0.31405(10) 0.3788(3) -0.01104(8)
C11 C 0.09743(11) 0.7475(4) 0.04406(9)
H12 H 0.0780(12) 0.574(4) 0.0611(9)
H13 H 0.0501(14) 0.803(4) 0.0127(10)
C12 C 0.15250(11) 1.3410(3) 0.19336(8)
C13 C 0.05670(12) 1.0289(4) 0.13072(9)
H14 H 0.0014(12) 0.946(3) 0.1212(8)
C14 C 0.16123(11) 0.5175(3) -0.03237(8)
C15 C 0.19936(11) 1.0819(3) 0.11216(9)
H15 H 0.2407(14) 1.038(4) 0.0900(9)
C16 C 0.24070(11) 0.4961(3) -0.06151(8)
H16 H 0.2571(11) 0.683(3) -0.0707(8)
C17 C 0.11946(10) 0.9570(3) 0.09643(8)
#END
