
#######################################################################
#
#                 Cambridge Crystallographic Data Centre
#                                CCDC
#
#######################################################################
#
# If this CIF has been generated from an entry in the Cambridge
# Structural Database, then it will include bibliographic, chemical,
# crystal, experimental, refinement or atomic coordinate data resulting
# from the CCDC's data processing and validation procedures.
#
#######################################################################

data_CSD_CIF_SEZWIE
_audit_creation_date 2007-05-01
_audit_creation_method CSD-ConQuest-V1
_database_code_CSD SEZWIE
_database_code_depnum_ccdc_archive 'CCDC 640503'
_chemical_formula_sum 'C15 H11 N1 O7'
_chemical_formula_moiety
;
C15 H11 N1 O7
;
_journal_coeditor_code "IUCr TK2127"
_journal_coden_Cambridge 1370
_journal_volume 63
_journal_year 2007
_journal_page_first o1513
_journal_name_full 'Acta Crystallogr.,Sect.E:Struct.Rep.Online '
loop_
_publ_author_name
"G.R.Bardajee"
"M.A.Winnik"
"A.J.Lough"
_chemical_name_systematic
;
Succinimidyl 7-methoxy-2-oxo-2H-chromene-3-carboxylate
;
_cell_volume   1394.296
_exptl_crystal_colour 'colorless'
_exptl_crystal_density_diffrn 1.511
_exptl_crystal_description 'block'
_exptl_crystal_preparation 'chloroform'
_diffrn_ambient_temperature 150.0
#These two values have been output from a single CSD field.
_refine_ls_R_factor_gt 0.055
_refine_ls_wR_factor_gt 0.055
_symmetry_cell_setting monoclinic
_symmetry_space_group_name_H-M 'P 21/c'
_symmetry_Int_Tables_number 14
loop_
_symmetry_equiv_pos_site_id
_symmetry_equiv_pos_as_xyz
1 x,y,z
2 -x,1/2+y,1/2-z
3 -x,-y,-z
4 x,-1/2-y,-1/2+z
_cell_length_a 8.4164(6)
_cell_length_b 19.4304(13)
_cell_length_c 8.5521(6)
_cell_angle_alpha 90
_cell_angle_beta 94.475(4)
_cell_angle_gamma 90
_cell_formula_units_Z 4
loop_
_atom_type_symbol
_atom_type_radius_bond
C 0.68
H 0.23
N 0.68
O 0.68
loop_
_atom_site_label
_atom_site_type_symbol
_atom_site_fract_x
_atom_site_fract_y
_atom_site_fract_z
O1 O 0.29798(16) 0.47164(6) 0.55790(15)
O2 O 0.46859(18) 0.52232(7) 0.72952(17)
O3 O 0.5366(2) 0.66221(7) 0.68084(18)
O4 O 0.43240(19) 0.70287(7) 0.44688(17)
O5 O -0.10188(19) 0.35835(9) 0.2271(2)
O6 O 0.3065(2) 0.82010(9) 0.57949(19)
O7 O 0.7516(2) 0.72553(8) 0.39624(19)
N1 N 0.5167(2) 0.76237(9) 0.4866(2)
C1 C 0.3819(2) 0.52968(10) 0.6121(2)
C2 C 0.3568(2) 0.59169(10) 0.5172(2)
C3 C 0.2502(2) 0.59193(10) 0.3891(2)
H1 H 0.23710 0.63250 0.32750
C4 C 0.1582(2) 0.53282(11) 0.3457(2)
C5 C 0.0391(3) 0.53177(13) 0.2209(3)
H2 H 0.01780 0.57200 0.15980
C6 C -0.0459(3) 0.47319(13) 0.1873(3)
H3 H -0.12850 0.47320 0.10500
C7 C -0.0120(3) 0.41317(12) 0.2736(3)
C8 C 0.1059(2) 0.41212(11) 0.3971(2)
H4 H 0.12980 0.37130 0.45550
C9 C 0.1870(2) 0.4727(1) 0.4316(2)
C10 C -0.0664(3) 0.29387(14) 0.3013(3)
H5 H -0.14160 0.25900 0.25800
H6 H -0.07570 0.29820 0.41440
H7 H 0.04240 0.28010 0.28250
C11 C 0.4519(3) 0.65274(10) 0.5645(3)
C12 C 0.4437(4) 0.81928(12) 0.5463(3)
C13 C 0.5670(4) 0.87500(12) 0.5562(3)
H8 H 0.58230 0.89340 0.66420
H9 H 0.53510 0.91320 0.48370
C14 C 0.7199(3) 0.84069(12) 0.5089(3)
H10 H 0.76530 0.86710 0.42390
H11 H 0.80020 0.83840 0.59970
C15 C 0.6744(3) 0.76976(12) 0.4535(3)
#END
