
#######################################################################
#
#                 Cambridge Crystallographic Data Centre
#                                CCDC
#
#######################################################################
#
# If this CIF has been generated from an entry in the Cambridge
# Structural Database, then it will include bibliographic, chemical,
# crystal, experimental, refinement or atomic coordinate data resulting
# from the CCDC's data processing and validation procedures.
#
#######################################################################

data_CSD_CIF_SIBFOZ
_audit_creation_date 2007-05-01
_audit_creation_method CSD-ConQuest-V1
_database_code_CSD SIBFOZ
_database_code_depnum_ccdc_archive 'CCDC 606452'
_chemical_formula_sum 'C17 H30 N2 O3'
_chemical_formula_moiety
;
C17 H30 N2 O3
;
_journal_coeditor_code "IUCr FB2035"
_journal_coden_Cambridge 1370
_journal_volume 63
_journal_year 2007
_journal_page_first o1324
_journal_name_full 'Acta Crystallogr.,Sect.E:Struct.Rep.Online '
loop_
_publ_author_name
"K.Aouadi"
"E.Jeanneau"
"J.-P.Praly"
_chemical_name_systematic
;
(1S,2R,2'S,3'aS,5R)-2'-((1R)-1-Hydroxyethyl)-2-isopropyl-5,5'-dimethyl-3',3'a-
dihydro-2'H-spiro(cyclohexane-1,6'-imidazo(1,5-b)isoxazol)-4'(5'H)-one
;
_cell_volume   1736.550
_exptl_crystal_colour 'colorless'
_exptl_crystal_density_diffrn 1.187
_exptl_crystal_description 'block'
_diffrn_ambient_temperature 293
#These two values have been output from a single CSD field.
_refine_ls_R_factor_gt 0.0454
_refine_ls_wR_factor_gt 0.0454
loop_
_citation_database_id_CSD
_citation_special_details
SIBKAQ "is a stereoisomer of this entry"
_symmetry_cell_setting tetragonal
_symmetry_space_group_name_H-M 'P 43'
_symmetry_Int_Tables_number 78
loop_
_symmetry_equiv_pos_site_id
_symmetry_equiv_pos_as_xyz
1 x,y,z
2 -y,x,3/4+z
3 -x,-y,1/2+z
4 y,-x,1/4+z
_cell_length_a 10.1670(2)
_cell_length_b 10.1670(2)
_cell_length_c 16.7997(5)
_cell_angle_alpha 90
_cell_angle_beta 90
_cell_angle_gamma 90
_cell_formula_units_Z 4
loop_
_atom_type_symbol
_atom_type_radius_bond
C 0.68
H 0.23
N 0.68
O 0.68
loop_
_atom_site_label
_atom_site_type_symbol
_atom_site_fract_x
_atom_site_fract_y
_atom_site_fract_z
C1 C 0.8500(3) 0.2965(3) 0.46161(16)
C2 C 0.8562(3) 0.1500(3) 0.47992(17)
H1 H 0.91250 0.10770 0.44100
H2 H 0.76870 0.11300 0.47440
C3 C 0.9078(3) 0.1189(3) 0.56328(17)
H3 H 0.99820 0.15170 0.56750
C4 C 0.8235(3) 0.1897(3) 0.62491(17)
H4 H 0.73500 0.15400 0.62370
H5 H 0.85950 0.17430 0.67760
C5 C 0.8181(3) 0.3368(3) 0.60912(18)
H6 H 0.90570 0.37350 0.61450
H7 H 0.76220 0.37830 0.64860
C6 C 0.7650(3) 0.3678(3) 0.52548(17)
H8 H 0.67820 0.32610 0.52290
C7 C 0.9089(3) -0.0298(3) 0.57835(19)
H9 H 0.82080 -0.06320 0.57490
H10 H 0.94370 -0.04700 0.63040
H11 H 0.96280 -0.07220 0.53910
C8 C 0.7400(3) 0.5157(3) 0.51269(19)
H12 H 0.74380 0.53260 0.45530
C9 C 0.8411(4) 0.6059(3) 0.5530(2)
H13 H 0.82760 0.69480 0.53570
H14 H 0.92830 0.57820 0.53870
H15 H 0.83080 0.60100 0.60970
C10 C 0.6008(4) 0.5510(4) 0.5411(3)
H16 H 0.59130 0.52710 0.59610
H17 H 0.53730 0.50400 0.50980
H18 H 0.58690 0.64380 0.53520
C11 C 0.6660(3) 0.2706(3) 0.3555(2)
H19 H 0.67740 0.20310 0.31620
H20 H 0.61630 0.34190 0.33310
H21 H 0.61970 0.23530 0.40050
C12 C 0.8609(3) 0.4083(3) 0.33933(17)
C13 C 0.9820(3) 0.4484(3) 0.38719(17)
H22 H 0.97650 0.54070 0.40350
C14 C 1.1095(3) 0.4217(3) 0.34251(18)
H23 H 1.10060 0.44030 0.28610
H24 H 1.18190 0.47270 0.36410
C15 C 1.1276(3) 0.2765(3) 0.35767(18)
H25 H 1.07110 0.22570 0.32180
C16 C 1.2691(3) 0.2271(3) 0.35197(18)
H26 H 1.27310 0.13800 0.37410
C17 C 1.3146(3) 0.2225(4) 0.2660(2)
H27 H 1.25510 0.16930 0.23550
H28 H 1.40130 0.18540 0.26350
H29 H 1.31620 0.31010 0.24450
O1 O 0.8323(2) 0.4530(2) 0.27319(12)
O2 O 1.08450(19) 0.2598(2) 0.43861(13)
O3 O 1.35480(19) 0.3087(2) 0.39579(15)
H30 H 1.37580 0.27170 0.43720
N1 N 0.7950(2) 0.3189(2) 0.38108(14)
N2 N 0.9836(2) 0.3599(2) 0.45768(14)
#END
