
#######################################################################
#
#                 Cambridge Crystallographic Data Centre
#                                CCDC
#
#######################################################################
#
# If this CIF has been generated from an entry in the Cambridge
# Structural Database, then it will include bibliographic, chemical,
# crystal, experimental, refinement or atomic coordinate data resulting
# from the CCDC's data processing and validation procedures.
#
#######################################################################

data_CSD_CIF_SIBGIU
_audit_creation_date 2007-05-01
_audit_creation_method CSD-ConQuest-V1
_database_code_CSD SIBGIU
_database_code_depnum_ccdc_archive 'CCDC 636747'
_chemical_formula_sum 'C20 H22 N2 O2'
_chemical_formula_moiety
;
C20 H22 N2 O2
;
_journal_coeditor_code "IUCr LH2292"
_journal_coden_Cambridge 1370
_journal_volume 63
_journal_year 2007
_journal_page_first o877
_journal_name_full 'Acta Crystallogr.,Sect.E:Struct.Rep.Online '
loop_
_publ_author_name
"M.Parvez"
"M.Mehrdad"
"H.Sureni"
"A.Heydari"
"K.Jadidi"
_chemical_name_systematic
;
1-(3,3,5-Trimethyl-2-phenyl-1,2-oxazolidin-5-yl)-1H-indol-2(3H)-one
;
_cell_volume   1677.557
_exptl_crystal_colour 'colorless'
_exptl_crystal_density_diffrn 1.277
_exptl_crystal_description 'prism'
_exptl_crystal_preparation 'petroleum ether'
_diffrn_ambient_temperature 173
#These two values have been output from a single CSD field.
_refine_ls_R_factor_gt 0.042
_refine_ls_wR_factor_gt 0.042
_symmetry_cell_setting monoclinic
_symmetry_space_group_name_H-M 'P 21/c'
_symmetry_Int_Tables_number 14
loop_
_symmetry_equiv_pos_site_id
_symmetry_equiv_pos_as_xyz
1 x,y,z
2 -x,1/2+y,1/2-z
3 -x,-y,-z
4 x,-1/2-y,-1/2+z
_cell_length_a 10.321(3)
_cell_length_b 14.446(4)
_cell_length_c 11.378(4)
_cell_angle_alpha 90
_cell_angle_beta 98.554(12)
_cell_angle_gamma 90
_cell_formula_units_Z 4
loop_
_atom_type_symbol
_atom_type_radius_bond
C 0.68
H 0.23
N 0.68
O 0.68
loop_
_atom_site_label
_atom_site_type_symbol
_atom_site_fract_x
_atom_site_fract_y
_atom_site_fract_z
O1 O 0.32076(8) 0.06343(6) -0.02365(7)
O2 O 0.11403(9) 0.04877(7) -0.37098(8)
N1 N 0.20768(9) 0.06345(7) 0.04153(9)
N2 N 0.22364(10) -0.01500(8) -0.19824(9)
C1 C 0.26463(12) 0.07637(9) -0.14353(11)
C2 C 0.14409(12) 0.13848(10) -0.13813(12)
H1 H 0.15440 0.19890 -0.17670
H2 H 0.06330 0.10830 -0.17820
C3 C 0.13877(12) 0.15100(9) -0.00516(11)
C4 C 0.37133(12) 0.11751(10) -0.20610(12)
H3 H 0.33980 0.12190 -0.29150
H4 H 0.44910 0.07780 -0.19290
H5 H 0.39390 0.17940 -0.17430
C5 C -0.00048(12) 0.15053(10) 0.02358(13)
H6 H -0.05020 0.20140 -0.01870
H7 H 0.00150 0.15850 0.10940
H8 H -0.04250 0.09150 -0.00140
C6 C 0.21117(13) 0.23798(10) 0.04388(13)
H9 H 0.16660 0.29270 0.00640
H10 H 0.30140 0.23610 0.02670
H11 H 0.21200 0.24100 0.13000
C7 C 0.25868(12) 0.06192(9) 0.16572(11)
C8 C 0.17162(13) 0.0357(1) 0.24268(12)
H12 H 0.08450 0.01820 0.21140
C9 C 0.21170(15) 0.03505(10) 0.36421(13)
H13 H 0.15120 0.01950 0.41630
C10 C 0.33994(15) 0.05701(11) 0.41012(13)
H14 H 0.36780 0.05610 0.49350
C11 C 0.42687(14) 0.08027(10) 0.33391(13)
H15 H 0.51520 0.09410 0.36530
C12 C 0.38697(13) 0.08371(10) 0.21185(12)
H16 H 0.44730 0.10090 0.16030
C13 C 0.15714(12) -0.01865(10) -0.31306(12)
C14 C 0.14893(14) -0.11871(10) -0.35257(13)
H17 H 0.05700 -0.14050 -0.36620
H18 H 0.18770 -0.12730 -0.42640
C15 C 0.22670(13) -0.16867(10) -0.25062(12)
C16 C 0.25781(14) -0.26120(11) -0.23552(14)
H19 H 0.22920 -0.30460 -0.29670
C17 C 0.33152(15) -0.29019(11) -0.12971(15)
H20 H 0.35460 -0.35360 -0.11870
C18 C 0.37126(14) -0.22708(11) -0.04071(14)
H21 H 0.42080 -0.24810 0.03140
C19 C 0.34072(12) -0.13343(10) -0.05376(13)
H22 H 0.36800 -0.09060 0.00830
C20 C 0.26919(11) -0.10490(9) -0.16041(11)
#END
