
#######################################################################
#
#                 Cambridge Crystallographic Data Centre
#                                CCDC
#
#######################################################################
#
# If this CIF has been generated from an entry in the Cambridge
# Structural Database, then it will include bibliographic, chemical,
# crystal, experimental, refinement or atomic coordinate data resulting
# from the CCDC's data processing and validation procedures.
#
#######################################################################

data_CSD_CIF_SIBTUT
_audit_creation_date 2007-08-28
_audit_creation_method CSD-ConQuest-V1
_database_code_CSD SIBTUT
_database_code_depnum_ccdc_archive 'CCDC 610275'
_chemical_formula_sum 'C20 H20 N2 O8'
_chemical_formula_moiety
;
C20 H20 N2 O8
;
_journal_coden_Cambridge 1037
_journal_volume 8
_journal_year 2007
_journal_page_first 285-4
_journal_name_full 'ARKIVOC '
loop_
_publ_author_name
"B.Alcaide"
"P.Almendros"
"A.Luna"
"M.P.de Arriba"
"M.R.Torres"
_chemical_name_systematic
;
syn-(+)-2-(1-Hydroxy-2-nitroethyl)-1-(4-methoxyphenyl)-4-oxoazetidin-3-yl 
4-methoxybenzoate
;
_chemical_melting_point 426.15
_cell_volume   2016.022
_exptl_crystal_colour 'colorless'
_exptl_crystal_density_diffrn 1.372
_exptl_special_details
;
Melting point range 426.15-428.15K

;
_exptl_crystal_description 'prismatic'
_exptl_crystal_preparation 'ethyl acetate/n-hexane'
_diffrn_ambient_temperature 293
#These two values have been output from a single CSD field.
_refine_ls_R_factor_gt 0.0534
_refine_ls_wR_factor_gt 0.0534
_symmetry_cell_setting orthorhombic
_symmetry_space_group_name_H-M 'P 21 21 21'
_symmetry_Int_Tables_number 19
loop_
_symmetry_equiv_pos_site_id
_symmetry_equiv_pos_as_xyz
1 x,y,z
2 1/2-x,-y,1/2+z
3 -x,1/2+y,1/2-z
4 1/2+x,1/2-y,-z
_cell_length_a 7.2996(15)
_cell_length_b 14.392(3)
_cell_length_c 19.190(4)
_cell_angle_alpha 90
_cell_angle_beta 90
_cell_angle_gamma 90
_cell_formula_units_Z 4
loop_
_atom_type_symbol
_atom_type_radius_bond
C 0.68
H 0.23
N 0.68
O 0.68
loop_
_atom_site_label
_atom_site_type_symbol
_atom_site_fract_x
_atom_site_fract_y
_atom_site_fract_z
C1 C 0.7332(11) 0.2770(5) 0.3195(3)
C2 C 0.9033(10) 0.3022(4) 0.2803(3)
H1 H 0.949(9) 0.367(5) 0.284(3)
C3 C 1.0054(8) 0.2349(4) 0.3298(3)
H2 H 1.086(9) 0.268(5) 0.357(3)
C4 C 1.0894(9) 0.1479(4) 0.3000(3)
H3 H 0.987(8) 0.103(5) 0.277(3)
C5 C 1.2538(9) 0.1750(5) 0.2544(3)
H4 H 1.21240 0.20990 0.21420
H5 H 1.33760 0.21370 0.28080
C6 C 0.9207(9) 0.3390(5) 0.1596(3)
C7 C 0.9152(9) 0.3007(5) 0.0881(3)
C8 C 0.9161(9) 0.2071(5) 0.0746(3)
H6 H 0.91730 0.16480 0.11120
C9 C 0.9152(9) 0.1759(5) 0.0070(3)
H7 H 0.91360 0.11230 -0.00170
C10 C 0.9167(10) 0.2363(6) -0.0477(3)
C11 C 0.9166(11) 0.3302(5) -0.0340(3)
H8 H 0.91480 0.37210 -0.07090
C12 C 0.9191(10) 0.3631(4) 0.0326(3)
H9 H 0.92340 0.42670 0.04090
C13 C 0.9276(10) 0.1158(5) -0.1340(3)
H10 H 1.03650 0.09000 -0.11380
H11 H 0.93270 0.10940 -0.18380
H12 H 0.82230 0.08340 -0.11650
C14 C 0.7711(9) 0.1738(4) 0.4263(3)
C15 C 0.9025(10) 0.1581(4) 0.4784(3)
H13 H 1.02330 0.17730 0.47280
C16 C 0.8451(10) 0.1126(4) 0.5390(3)
H14 H 0.93000 0.10040 0.57400
C17 C 0.6722(10) 0.0866(4) 0.5477(3)
C18 C 0.5429(9) 0.1005(4) 0.4952(3)
H15 H 0.42290 0.08020 0.50080
C19 C 0.5972(10) 0.1453(4) 0.4342(3)
H16 H 0.51250 0.15550 0.39880
C20 C 0.7392(10) 0.0194(4) 0.6583(3)
H17 H 0.82590 -0.02300 0.63820
H18 H 0.68100 -0.00950 0.69760
H19 H 0.80160 0.07460 0.67320
N1 N 0.8273(7) 0.2212(3) 0.3638(2)
N2 N 1.3480(11) 0.0893(6) 0.2316(4)
O1 O 0.5701(7) 0.2981(3) 0.3160(2)
O2 O 0.9024(6) 0.2731(2) 0.20858(17)
O3 O 0.9146(7) 0.2117(4) -0.11621(19)
O4 O 1.1583(7) 0.0957(3) 0.3575(2)
H20 H 1.13660 0.04040 0.35140
O5 O 0.6020(6) 0.0434(3) 0.6068(2)
O6 O 0.9379(8) 0.4187(3) 0.1750(2)
O7 O 1.4964(11) 0.0742(6) 0.2566(4)
O8 O 1.2728(9) 0.0394(4) 0.1907(3)
#END
