
#######################################################################
#
#                 Cambridge Crystallographic Data Centre
#                                CCDC
#
#######################################################################
#
# If this CIF has been generated from an entry in the Cambridge
# Structural Database, then it will include bibliographic, chemical,
# crystal, experimental, refinement or atomic coordinate data resulting
# from the CCDC's data processing and validation procedures.
#
#######################################################################

data_CSD_CIF_SIBZUB
_audit_creation_date 2018-03-20
_audit_creation_method CSD-ConQuest-V1
_database_code_CSD SIBZUB
_database_code_depnum_ccdc_archive 'CCDC 1824334'
_chemical_formula_sum 'C19 H15 N1 O2'
_chemical_formula_moiety
;
C19 H15 N1 O2
;
_journal_coden_Cambridge 1336
_journal_volume 20
_journal_year 2018
_journal_page_first 2028
_journal_name_full 'Org.Lett. '
loop_
_publ_author_name
"Deng-Yuan Li"
"Zheng-Lu Huang"
"Pei-Nian Liu"
_chemical_name_systematic
;
exo-8-(1,2,3,4-tetrahydro-1,4-epoxynaphthalen-2-yl)quinoline-1-oxide
;
_cell_volume   1374.787
_exptl_crystal_colour 'colorless'
_exptl_crystal_density_diffrn 1.398
_exptl_crystal_description 'prismatic'
_diffrn_ambient_temperature 293
#These two values have been output from a single CSD field.
_refine_ls_R_factor_gt 0.0657
_refine_ls_wR_factor_gt 0.0657
_symmetry_cell_setting monoclinic
_symmetry_space_group_name_H-M 'P 21/n'
_symmetry_Int_Tables_number 14
loop_
_symmetry_equiv_pos_site_id
_symmetry_equiv_pos_as_xyz
1 x,y,z
2 1/2-x,1/2+y,1/2-z
3 -x,-y,-z
4 -1/2+x,-1/2-y,-1/2+z
_cell_length_a 9.382(3)
_cell_length_b 9.839(3)
_cell_length_c 15.406(5)
_cell_angle_alpha 90
_cell_angle_beta 104.824(7)
_cell_angle_gamma 90
_cell_formula_units_Z 4
loop_
_atom_type_symbol
_atom_type_radius_bond
C 0.68
H 0.23
N 0.68
O 0.68
loop_
_atom_site_label
_atom_site_type_symbol
_atom_site_fract_x
_atom_site_fract_y
_atom_site_fract_z
N1 N 0.0077(3) 0.8066(2) 1.05375(15)
O1 O 0.1237(2) 0.7318(2) 1.07428(12)
O2 O 0.0929(2) 0.5754(2) 0.76236(12)
C1 C -0.0392(4) 0.8617(3) 1.12064(19)
H1 H 0.01450 0.84610 1.17950
C2 C -0.1637(4) 0.9408(3) 1.1057(2)
H2 H -0.19410 0.97660 1.15390
C3 C -0.2415(4) 0.9662(3) 1.0211(2)
H3 H -0.32570 1.01980 1.01080
C4 C -0.1963(3) 0.9123(3) 0.9488(2)
C5 C -0.2752(3) 0.9382(3) 0.8605(2)
H4 H -0.35630 0.99600 0.84960
C6 C -0.2361(3) 0.8811(3) 0.7914(2)
H5 H -0.29110 0.89750 0.73300
C7 C -0.1135(3) 0.7975(3) 0.80683(19)
H6 H -0.09020 0.75720 0.75760
C8 C -0.0245(3) 0.7709(3) 0.89062(17)
C9 C -0.0695(3) 0.8282(3) 0.96376(17)
C10 C 0.1118(3) 0.6858(3) 0.89924(17)
H7 H 0.18880 0.71600 0.95140
C11 C 0.0839(3) 0.5317(3) 0.90747(19)
H8 H 0.13970 0.49620 0.96480
H9 H -0.02000 0.51270 0.90010
C12 C 0.1384(3) 0.4737(3) 0.83058(18)
H10 H 0.10220 0.38210 0.81210
C13 C 0.1731(3) 0.6847(3) 0.81532(18)
H11 H 0.16660 0.77210 0.78390
C14 C 0.3247(3) 0.6256(3) 0.84320(17)
C15 C 0.3027(3) 0.4882(3) 0.85287(17)
C16 C 0.4188(4) 0.4009(3) 0.88163(19)
H12 H 0.40390 0.30920 0.89100
C17 C 0.5601(4) 0.4551(4) 0.8963(2)
H13 H 0.64130 0.39770 0.91300
C18 C 0.5814(4) 0.5900(4) 0.8865(2)
H14 H 0.67690 0.62340 0.89680
C19 C 0.4637(3) 0.6785(3) 0.86161(19)
H15 H 0.47880 0.77150 0.85750
#END
