
#######################################################################
#
#                 Cambridge Crystallographic Data Centre
#                                CCDC
#
#######################################################################
#
# If this CIF has been generated from an entry in the Cambridge
# Structural Database, then it will include bibliographic, chemical,
# crystal, experimental, refinement or atomic coordinate data resulting
# from the CCDC's data processing and validation procedures.
#
#######################################################################

data_CSD_CIF_SICBOY
_audit_creation_date 2018-03-21
_audit_creation_method CSD-ConQuest-V1
_database_code_CSD SICBOY
_database_code_depnum_ccdc_archive 'CCDC 1583744'
_chemical_formula_sum 'C15 H15 N1 O3'
_chemical_formula_moiety
;
C15 H15 N1 O3
;
_journal_coden_Cambridge 177
_journal_volume 16
_journal_year 2018
_journal_page_first 2456
_journal_name_full 'Org.Biomol.Chem. '
loop_
_publ_author_name
"Ting Wang"
"Xushun Qing"
"Chenlu Dai"
"Zhenjie Su"
"Cunde Wang"
_chemical_name_systematic
;
2-(hydroxyimino)-3-(3-methylphenyl)-3,5,6,7-tetrahydro-1-benzofuran-4(2H)-one
;
_cell_volume   1290.698
_exptl_crystal_colour 'yellow'
_exptl_crystal_density_diffrn 1.324
_exptl_crystal_description 'block'
_diffrn_ambient_temperature 296
#These two values have been output from a single CSD field.
_refine_ls_R_factor_gt 0.0595
_refine_ls_wR_factor_gt 0.0595
_symmetry_cell_setting monoclinic
_symmetry_space_group_name_H-M 'P 21/c'
_symmetry_Int_Tables_number 14
loop_
_symmetry_equiv_pos_site_id
_symmetry_equiv_pos_as_xyz
1 x,y,z
2 -x,1/2+y,1/2-z
3 -x,-y,-z
4 x,-1/2-y,-1/2+z
_cell_length_a 12.836(7)
_cell_length_b 8.234(3)
_cell_length_c 13.79(1)
_cell_angle_alpha 90
_cell_angle_beta 117.679(17)
_cell_angle_gamma 90
_cell_formula_units_Z 4
loop_
_atom_type_symbol
_atom_type_radius_bond
C 0.68
H 0.23
N 0.68
O 0.68
loop_
_atom_site_label
_atom_site_type_symbol
_atom_site_fract_x
_atom_site_fract_y
_atom_site_fract_z
O1 O 0.3407(2) -0.0397(3) 0.14320(17)
O2 O 0.3528(2) -0.0850(3) 0.48158(16)
O3 O 0.2796(2) 0.3173(3) 0.47251(19)
H1 H 0.27920 0.38070 0.51810
C1 C 0.3648(3) -0.1620(4) 0.3992(2)
C2 C 0.3574(2) -0.1250(4) 0.2222(2)
C3 C 0.3369(2) -0.0677(4) 0.3111(2)
N1 N 0.3149(3) 0.1657(4) 0.5195(2)
C4 C 0.1593(3) 0.1129(3) 0.2483(2)
C5 C 0.1231(3) 0.1947(4) 0.1500(2)
H2 H 0.17870 0.24610 0.13540
C6 C 0.3175(3) 0.0710(4) 0.4460(2)
C7 C 0.4049(3) -0.3319(4) 0.4160(3)
H3 H 0.36630 -0.39220 0.45060
H4 H 0.48920 -0.33650 0.46310
C8 C 0.3748(3) -0.4055(4) 0.3051(3)
H5 H 0.29100 -0.42760 0.26620
H6 H 0.41600 -0.50790 0.31560
C9 C 0.0754(3) 0.0392(4) 0.2697(3)
H7 H 0.09840 -0.01640 0.33520
C10 C 0.0039(3) 0.2014(4) 0.0723(2)
C11 C 0.2905(3) 0.0931(4) 0.3271(2)
H8 H 0.33590 0.18350 0.31960
C12 C -0.0424(3) 0.0473(5) 0.1945(3)
H9 H -0.09840 -0.00160 0.20980
C13 C 0.4083(3) -0.2929(4) 0.2361(3)
H10 H 0.49330 -0.28460 0.27010
H11 H 0.38190 -0.34120 0.16430
C14 C -0.0766(3) 0.1272(5) 0.0975(3)
H12 H -0.15610 0.13150 0.04750
C15 C -0.0347(4) 0.2813(6) -0.0381(3)
H13 H -0.06620 0.20050 -0.09470
H14 H 0.03160 0.33300 -0.03950
H15 H -0.09410 0.36100 -0.05010
#END
