
#######################################################################
#
#                 Cambridge Crystallographic Data Centre
#                                CCDC
#
#######################################################################
#
# If this CIF has been generated from an entry in the Cambridge
# Structural Database, then it will include bibliographic, chemical,
# crystal, experimental, refinement or atomic coordinate data resulting
# from the CCDC's data processing and validation procedures.
#
#######################################################################

data_CSD_CIF_SIFDIV
_audit_creation_date 2007-08-28
_audit_creation_method CSD-ConQuest-V1
_database_code_CSD SIFDIV
_database_code_depnum_ccdc_archive 'CCDC 623589'
_chemical_formula_sum 'C14 H21 N3 O6'
_chemical_formula_moiety
;
C14 H21 N3 O6
;
_journal_coden_Cambridge 1291
_journal_year 2007
_journal_page_first 2511
_journal_name_full 'Eur.J.Org.Chem. '
loop_
_publ_author_name
"L.Fischer"
"V.Semetey"
"J.-M.Lozano"
"A.-P.Schaffner"
"J.-P.Briand"
"C.Didierjean"
"G.Guichard"
_chemical_name_systematic
;
t-butyl 
2-(2-((2,5-dioxopyrrolidin-1-yl)oxy)-2-oxoethyl)pyrrolidine-1-carboxylate
;
_chemical_melting_point 387.15
_cell_volume    837.782
_exptl_crystal_colour 'colorless'
_exptl_crystal_density_diffrn 1.298
_exptl_crystal_description 'prism'
_exptl_crystal_preparation 'toluene'
_diffrn_ambient_temperature 293
#These two values have been output from a single CSD field.
_refine_ls_R_factor_gt 0.0385
_refine_ls_wR_factor_gt 0.0385
_symmetry_cell_setting monoclinic
_symmetry_space_group_name_H-M 'P 21'
_symmetry_Int_Tables_number 4
loop_
_symmetry_equiv_pos_site_id
_symmetry_equiv_pos_as_xyz
1 x,y,z
2 -x,1/2+y,-z
_cell_length_a 8.2844(3)
_cell_length_b 8.5651(4)
_cell_length_c 12.2094(6)
_cell_angle_alpha 90
_cell_angle_beta 104.752(2)
_cell_angle_gamma 90
_cell_formula_units_Z 2
loop_
_atom_type_symbol
_atom_type_radius_bond
C 0.68
H 0.23
N 0.68
O 0.68
loop_
_atom_site_label
_atom_site_type_symbol
_atom_site_fract_x
_atom_site_fract_y
_atom_site_fract_z
C1 C 0.5098(4) -0.2486(4) 0.6907(2)
C2 C 0.4019(4) -0.1837(5) 0.5813(2)
H1 H 0.31230 -0.25500 0.55080
H2 H 0.46810 -0.17010 0.52790
H3 H 0.35680 -0.08480 0.59570
C3 C 0.6523(5) -0.1408(6) 0.7401(3)
H4 H 0.71990 -0.18500 0.80890
H5 H 0.60960 -0.04160 0.75610
H6 H 0.71890 -0.12690 0.68690
C4 C 0.5649(5) -0.4122(5) 0.6727(3)
H7 H 0.63430 -0.45160 0.74250
H8 H 0.62680 -0.41120 0.61610
H9 H 0.46860 -0.47800 0.64810
O1 O 0.3925(2) -0.2489(3) 0.76468(14)
C5 C 0.4396(4) -0.3047(4) 0.8717(2)
O2 O 0.5660(3) -0.3793(3) 0.91062(16)
N1 N 0.3270(3) -0.2688(3) 0.93006(18)
C6 C 0.3431(4) -0.3344(4) 1.0434(2)
H10 H 0.45180 -0.31160 1.09330
H11 H 0.32600 -0.44660 1.04000
C7 C 0.2068(4) -0.2527(5) 1.0817(3)
H12 H 0.15940 -0.32110 1.12870
H13 H 0.24950 -0.15980 1.12490
C8 C 0.0796(4) -0.2108(4) 0.9768(3)
H14 H 0.01670 -0.11990 0.98910
H15 H 0.00270 -0.29670 0.95200
C9 C 0.1769(4) -0.1761(4) 0.8894(2)
H16 H 0.11460 -0.21260 0.81450
N2 N 0.2208(3) -0.0112(3) 0.88419(18)
H17 H 0.28880 0.03150 0.94140
C10 C 0.1570(4) 0.0728(3) 0.7924(2)
O3 O 0.0496(3) 0.0403(3) 0.70998(18)
O4 O 0.2372(3) 0.2196(2) 0.80504(17)
N3 N 0.1721(3) 0.3164(3) 0.7148(2)
C11 C 0.2090(4) 0.2999(4) 0.6115(3)
O5 O 0.3008(4) 0.2050(3) 0.5899(3)
C12 C 0.1099(5) 0.4253(4) 0.5382(3)
H18 H 0.02580 0.37960 0.47640
H19 H 0.18240 0.49080 0.50670
C13 C 0.0289(5) 0.5199(4) 0.6138(3)
H20 H 0.07430 0.62490 0.62320
H21 H -0.09070 0.52640 0.58160
C14 C 0.0659(4) 0.4378(4) 0.7237(3)
O6 O 0.0214(4) 0.4670(3) 0.8074(2)
#END
