
#######################################################################
#
#                 Cambridge Crystallographic Data Centre
#                                CCDC
#
#######################################################################
#
# If this CIF has been generated from an entry in the Cambridge
# Structural Database, then it will include bibliographic, chemical,
# crystal, experimental, refinement or atomic coordinate data resulting
# from the CCDC's data processing and validation procedures.
#
#######################################################################

data_CSD_CIF_SIFDUH
_audit_creation_date 2007-08-28
_audit_creation_method CSD-ConQuest-V1
_database_code_CSD SIFDUH
_database_code_depnum_ccdc_archive 'CCDC 290852'
_chemical_formula_sum 'C13 H13 N1 O5'
_chemical_formula_moiety
;
C13 H13 N1 O5
;
_journal_coden_Cambridge 1291
_journal_year 2007
_journal_page_first 2352
_journal_name_full 'Eur.J.Org.Chem. '
loop_
_publ_author_name
"R.Herrera"
"J.A.Mendoza"
"M.A.Morales"
"F.Mendez"
"H.A.Jimenez-Vazquez"
"F.Delgado"
"J.Tamariz"
_chemical_name_systematic
;
(Z)-4-(p-Nitrobenzoyloxy)-4-hexen-3-one
;
_chemical_melting_point 371
_cell_volume   1302.689
_exptl_crystal_colour 'yellow'
_exptl_crystal_density_diffrn 1.342
_exptl_special_details
;
Melting point range 371-373K

;
_exptl_crystal_description 'Prism'
_exptl_crystal_preparation 'hexane/ethyl acetate'
_diffrn_ambient_temperature 293
#These two values have been output from a single CSD field.
_refine_ls_R_factor_gt 0.037
_refine_ls_wR_factor_gt 0.037
_symmetry_cell_setting monoclinic
_symmetry_space_group_name_H-M 'P 21/n'
_symmetry_Int_Tables_number 14
loop_
_symmetry_equiv_pos_site_id
_symmetry_equiv_pos_as_xyz
1 x,y,z
2 1/2-x,1/2+y,1/2-z
3 -x,-y,-z
4 -1/2+x,-1/2-y,-1/2+z
_cell_length_a 8.1617(9)
_cell_length_b 14.0618(9)
_cell_length_c 11.7048(12)
_cell_angle_alpha 90
_cell_angle_beta 104.131(8)
_cell_angle_gamma 90
_cell_formula_units_Z 4
loop_
_atom_type_symbol
_atom_type_radius_bond
C 0.68
H 0.23
N 0.68
O 0.68
loop_
_atom_site_label
_atom_site_type_symbol
_atom_site_fract_x
_atom_site_fract_y
_atom_site_fract_z
O1 O 0.0336(2) 0.94736(10) 0.23167(11)
O2 O -0.1284(2) 0.84420(13) 0.30063(13)
C1 C -0.2248(2) 0.90322(13) 0.1050(2)
C2 C -0.4647(3) 0.8430(2) -0.0377(2)
H1 H -0.5506(3) 0.7985(2) -0.0611(2)
C3 C -0.1049(3) 0.89332(15) 0.2226(2)
C4 C 0.1658(2) 0.9334(2) 0.3335(2)
C5 C -0.4456(2) 0.9154(2) -0.1107(2)
C6 C -0.3216(2) 0.9831(2) -0.0802(2)
H2 H -0.3132(2) 1.0323(2) -0.1315(2)
N1 N -0.5650(3) 0.9224(2) -0.2280(2)
C7 C -0.3533(3) 0.83731(15) 0.0718(2)
H3 H -0.3648(3) 0.78892(15) 0.1234(2)
C8 C -0.2094(2) 0.97619(14) 0.0292(2)
H4 H -0.1234(2) 1.02075(14) 0.0517(2)
O3 O 0.2259(2) 0.79415(14) 0.2459(2)
O4 O -0.6863(3) 0.8716(2) -0.2492(2)
C9 C 0.4087(3) 0.8231(2) 0.4340(2)
H5 H 0.3650(3) 0.8141(2) 0.5032(2)
H6 H 0.4845(3) 0.8773(2) 0.4488(2)
O5 O -0.5401(3) 0.9830(2) -0.2950(2)
C10 C 0.1996(3) 1.0020(2) 0.4127(2)
H7 H 0.2905(3) 0.9923(2) 0.4772(2)
C11 C 0.2637(3) 0.8457(2) 0.3309(2)
C12 C 0.5080(3) 0.7362(2) 0.4175(2)
H8 H 0.5872(17) 0.7210(8) 0.4904(5)
H9 H 0.5679(19) 0.7485(5) 0.3579(12)
H10 H 0.4322(4) 0.6837(4) 0.3936(16)
C13 C 0.1061(3) 1.0935(2) 0.4087(2)
H11 H 0.0903(21) 1.1076(7) 0.4856(4)
H12 H -0.002(1) 1.0882(5) 0.3537(12)
H13 H 0.1698(11) 1.1437(3) 0.3843(16)
#END
