
#######################################################################
#
#                 Cambridge Crystallographic Data Centre
#                                CCDC
#
#######################################################################
#
# If this CIF has been generated from an entry in the Cambridge
# Structural Database, then it will include bibliographic, chemical,
# crystal, experimental, refinement or atomic coordinate data resulting
# from the CCDC's data processing and validation procedures.
#
#######################################################################

data_CSD_CIF_SIFFAP
_audit_creation_date 2007-08-28
_audit_creation_method CSD-ConQuest-V1
_database_code_CSD SIFFAP
_database_code_depnum_ccdc_archive 'CCDC 290853'
_chemical_formula_sum 'C25 H22 N2 O6'
_chemical_formula_moiety
;
C25 H22 N2 O6
;
_journal_coden_Cambridge 1291
_journal_year 2007
_journal_page_first 2352
_journal_name_full 'Eur.J.Org.Chem. '
loop_
_publ_author_name
"R.Herrera"
"J.A.Mendoza"
"M.A.Morales"
"F.Mendez"
"H.A.Jimenez-Vazquez"
"F.Delgado"
"J.Tamariz"
_chemical_name_systematic
;
(3R*,4S*,5S*)-4-Acetyl-5-methyl-4-(p-nitrobenzoyloxy)-2,3-diphenylisoxazolidin
e
;
_chemical_melting_point 419
_cell_volume   1116.015
_exptl_crystal_colour 'yellow-green'
_exptl_crystal_density_diffrn 1.329
_exptl_special_details
;
Melting point range 419-420K

;
_exptl_crystal_description 'prism'
_exptl_crystal_preparation 'hexane/ethyl acetate'
_diffrn_ambient_temperature 293
#These two values have been output from a single CSD field.
_refine_ls_R_factor_gt 0.0881
_refine_ls_wR_factor_gt 0.0881
_symmetry_cell_setting triclinic
_symmetry_space_group_name_H-M 'P -1'
_symmetry_Int_Tables_number 2
loop_
_symmetry_equiv_pos_site_id
_symmetry_equiv_pos_as_xyz
1 x,y,z
2 -x,-y,-z
_cell_length_a 8.0780(5)
_cell_length_b 12.2879(8)
_cell_length_c 12.4725(6)
_cell_angle_alpha 67.057(5)
_cell_angle_beta 87.978(4)
_cell_angle_gamma 78.508(6)
_cell_formula_units_Z 2
loop_
_atom_type_symbol
_atom_type_radius_bond
C 0.68
H 0.23
N 0.68
O 0.68
loop_
_atom_site_label
_atom_site_type_symbol
_atom_site_fract_x
_atom_site_fract_y
_atom_site_fract_z
O1 O 0.0246(2) 0.1666(2) 0.7386(2)
O2 O 0.1838(3) -0.1053(2) 0.8589(2)
N1 N 0.3321(3) -0.0866(2) 0.7940(2)
O3 O 0.0912(3) 0.3112(2) 0.5765(2)
O4 O 0.1301(3) 0.0841(2) 0.5023(2)
C1 C 0.0409(3) 0.2805(3) 0.6737(2)
C2 C -0.0137(3) 0.3620(2) 0.7357(2)
C3 C 0.3874(3) -0.1748(3) 0.7461(2)
C4 C 0.5172(4) -0.1602(3) 0.6687(3)
H1 H 0.5608(4) -0.0903(3) 0.6439(3)
C5 C -0.1123(4) 0.5178(3) 0.8427(3)
C6 C 0.0113(4) 0.4794(3) 0.6846(3)
H2 H 0.0611(4) 0.5051(3) 0.6130(3)
C7 C 0.3250(4) -0.2801(3) 0.7821(3)
H3 H 0.2380(4) -0.2906(3) 0.8337(3)
C8 C -0.0904(4) 0.3236(3) 0.8417(3)
H4 H -0.1070(4) 0.2448(3) 0.8764(3)
C9 C 0.2956(3) 0.0423(2) 0.7147(2)
H5 H 0.3458(3) 0.0506(2) 0.6399(2)
C10 C 0.0991(3) 0.0751(2) 0.6961(2)
C11 C 0.3905(4) -0.3695(3) 0.7425(3)
H6 H 0.3480(4) -0.4399(3) 0.7676(3)
C12 C 0.3690(3) 0.1180(3) 0.7642(2)
C13 C 0.0358(4) 0.1096(3) 0.5693(3)
C14 C 0.0438(4) -0.0426(3) 0.7766(3)
H7 H 0.0304(4) -0.0899(3) 0.7310(3)
C15 C 0.5203(4) -0.3538(3) 0.6647(3)
H8 H 0.5652(4) -0.4135(3) 0.6375(3)
C16 C -0.0364(5) 0.5580(3) 0.7385(3)
H9 H -0.0179(5) 0.6364(3) 0.7053(3)
N2 N -0.1677(5) 0.6021(3) 0.9015(3)
C17 C -0.1420(5) 0.4037(3) 0.8956(3)
H10 H -0.1954(5) 0.3802(3) 0.9660(3)
C18 C 0.5813(4) -0.2493(3) 0.6286(3)
H11 H 0.6673(4) -0.2383(3) 0.5763(3)
O5 O -0.1268(5) 0.7002(3) 0.8596(3)
O6 O -0.2451(6) 0.5696(3) 0.9879(3)
C19 C 0.3542(4) 0.1032(3) 0.8796(3)
H12 H 0.3022(4) 0.0425(3) 0.9296(3)
C20 C 0.4491(4) 0.2073(3) 0.6924(3)
H13 H 0.4627(4) 0.2182(3) 0.6147(3)
C21 C -0.1469(4) 0.1627(4) 0.5383(3)
H14 H -0.1641(7) 0.2002(23) 0.4551(3)
H15 H -0.1833(10) 0.2219(19) 0.5711(22)
H16 H -0.2111(6) 0.1001(6) 0.5688(22)
C22 C 0.4904(5) 0.2655(4) 0.8502(4)
H17 H 0.5292(5) 0.3160(4) 0.8786(4)
C23 C 0.4147(5) 0.1763(4) 0.9219(4)
H18 H 0.4037(5) 0.1646(4) 0.9999(4)
C24 C -0.1133(5) -0.0303(3) 0.8440(4)
H19 H -0.1295(22) -0.1089(3) 0.895(2)
H20 H -0.2096(7) 0.0103(25) 0.7905(4)
H21 H -0.1005(16) 0.0157(24) 0.8891(21)
C25 C 0.5098(5) 0.2812(4) 0.7358(4)
H22 H 0.5637(5) 0.3414(4) 0.6871(4)
#END
