
#######################################################################
#
#                 Cambridge Crystallographic Data Centre
#                                CCDC
#
#######################################################################
#
# If this CIF has been generated from an entry in the Cambridge
# Structural Database, then it will include bibliographic, chemical,
# crystal, experimental, refinement or atomic coordinate data resulting
# from the CCDC's data processing and validation procedures.
#
#######################################################################

data_CSD_CIF_SIFSEG
_audit_creation_date 2007-08-28
_audit_creation_method CSD-ConQuest-V1
_database_code_CSD SIFSEG
_database_code_depnum_ccdc_archive 'CCDC 624122'
_chemical_formula_sum 'C14 H12 N2 O5'
_chemical_formula_moiety
;
C14 H12 N2 O5
;
_journal_coden_Cambridge 1088
_journal_year 2007
_journal_page_first 1235
_journal_name_full 'Synlett '
loop_
_publ_author_name
"A.V.Stepakov"
"I.A.Galkin"
"R.R.Kostikov"
"G.L.Starova"
"Z.A.Starikova"
"A.P.Molchanov"
_chemical_name_systematic
;
Ethyl 
5-phenyl-4,6-dioxo-4,5,6,6a-tetrahydro-3aH-pyrrolo(3,4-d)isoxazole-3-carboxyla
te
;
_cell_volume   1317.688
_exptl_crystal_colour 'colorless'
_exptl_crystal_density_diffrn 1.453
_exptl_crystal_description 'needle'
_diffrn_ambient_temperature 293
#These two values have been output from a single CSD field.
_refine_ls_R_factor_gt 0.0376
_refine_ls_wR_factor_gt 0.0376
_symmetry_cell_setting monoclinic
_symmetry_space_group_name_H-M 'P 21/c'
_symmetry_Int_Tables_number 14
loop_
_symmetry_equiv_pos_site_id
_symmetry_equiv_pos_as_xyz
1 x,y,z
2 -x,1/2+y,1/2-z
3 -x,-y,-z
4 x,-1/2-y,-1/2+z
_cell_length_a 11.8488(8)
_cell_length_b 11.1803(8)
_cell_length_c 10.7099(8)
_cell_angle_alpha 90
_cell_angle_beta 111.759(1)
_cell_angle_gamma 90
_cell_formula_units_Z 4
loop_
_atom_type_symbol
_atom_type_radius_bond
C 0.68
H 0.23
N 0.68
O 0.68
loop_
_atom_site_label
_atom_site_type_symbol
_atom_site_fract_x
_atom_site_fract_y
_atom_site_fract_z
O1 O 0.33531(9) 0.22157(9) 0.02216(10)
O2 O 0.15236(9) 0.29260(9) 0.13882(13)
O3 O 0.49956(8) 0.50963(9) 0.32739(9)
O4 O 0.61508(10) 0.4153(1) -0.02385(10)
O5 O 0.68479(8) 0.42500(8) 0.2012(1)
N1 N 0.42552(11) 0.27860(11) -0.00942(12)
N2 N 0.30963(9) 0.42558(9) 0.23238(10)
C1 C 0.47353(11) 0.31325(11) 0.21982(12)
H1 H 0.53850 0.27160 0.29150
C2 C 0.50174(12) 0.32881(11) 0.09488(13)
C3 C 0.60567(13) 0.39416(12) 0.08152(14)
C4 C 0.23985(11) 0.52235(11) 0.25618(13)
C5 C 0.43552(11) 0.42939(12) 0.26844(12)
C6 C 0.25846(12) 0.31796(12) 0.17472(14)
C7 C 0.20120(15) 0.66015(14) 0.40423(17)
H2 H 0.22200 0.69320 0.48950
C8 C 0.35856(11) 0.23962(12) 0.16415(13)
H3 H 0.36550 0.16380 0.21230
C9 C 0.27088(13) 0.56884(12) 0.38312(15)
H4 H 0.33770 0.53940 0.45390
C10 C 0.14152(12) 0.56558(13) 0.15025(15)
H5 H 0.12240 0.53460 0.06430
C11 C 0.10154(15) 0.70238(14) 0.2999(2)
H6 H 0.05420 0.76280 0.31520
C12 C 0.79205(13) 0.49020(13) 0.20354(16)
H7 H 0.76990 0.57070 0.16940
H8 H 0.82880 0.45000 0.14780
C13 C 0.87888(14) 0.49421(15) 0.34561(17)
H9 H 0.84200 0.53520 0.39960
H10 H 0.95120 0.53590 0.35030
H11 H 0.89950 0.41420 0.37860
C14 C 0.07179(14) 0.65549(14) 0.17337(19)
H12 H 0.00440 0.68440 0.10290
#END
