
#######################################################################
#
#                 Cambridge Crystallographic Data Centre
#                                CCDC
#
#######################################################################
#
# If this CIF has been generated from an entry in the Cambridge
# Structural Database, then it will include bibliographic, chemical,
# crystal, experimental, refinement or atomic coordinate data resulting
# from the CCDC's data processing and validation procedures.
#
#######################################################################

data_CSD_CIF_SIFWEK
_audit_creation_date 2007-08-28
_audit_creation_method CSD-ConQuest-V1
_database_code_CSD SIFWEK
_database_code_depnum_ccdc_archive 'CCDC 618726'
_chemical_formula_sum 'C14 H11 N1 O7'
_chemical_formula_moiety
;
C14 H11 N1 O7
;
_journal_coden_Cambridge 471
_journal_volume 23
_journal_year 2007
_journal_page_first x97
_journal_name_full 'Anal.Sci.:X-Ray Struct.Anal.Online '
loop_
_publ_author_name
"L.Youseftabar-Miri"
"A.Ramazani"
"E.Ahmadi"
"A.Morsali"
_chemical_name_systematic
;
Dimethyl 2-((1,3-dioxo-1,3-dihydro-2H-isoindol-2-yl)oxy)-2-butenedioate
;
_chemical_melting_point 401.15
_cell_volume   1378.010
_exptl_crystal_colour 'colorless'
_exptl_crystal_density_diffrn 1.471
_exptl_special_details
;
Melting point range 401.15-403.15K

;
_exptl_crystal_description 'plate'
_exptl_crystal_preparation 'petroleum ether/ethyl acetate'
_diffrn_ambient_temperature 293
#These two values have been output from a single CSD field.
_refine_ls_R_factor_gt 0.0567
_refine_ls_wR_factor_gt 0.0567
_symmetry_cell_setting monoclinic
_symmetry_space_group_name_H-M 'P 21/c'
_symmetry_Int_Tables_number 14
loop_
_symmetry_equiv_pos_site_id
_symmetry_equiv_pos_as_xyz
1 x,y,z
2 -x,1/2+y,1/2-z
3 -x,-y,-z
4 x,-1/2-y,-1/2+z
_cell_length_a 7.9785(16)
_cell_length_b 24.801(6)
_cell_length_c 7.9550(16)
_cell_angle_alpha 90
_cell_angle_beta 118.904(13)
_cell_angle_gamma 90
_cell_formula_units_Z 4
loop_
_atom_type_symbol
_atom_type_radius_bond
C 0.68
H 0.23
N 0.68
O 0.68
loop_
_atom_site_label
_atom_site_type_symbol
_atom_site_fract_x
_atom_site_fract_y
_atom_site_fract_z
O1 O 0.1184(2) 0.15127(6) 0.6182(2)
O2 O 0.6409(2) 0.06317(7) 0.6636(2)
O3 O 0.4602(2) 0.16437(6) 0.5945(2)
O4 O 0.2416(2) 0.11011(6) 0.2409(2)
O5 O 0.0649(2) 0.18428(6) 0.1262(2)
O6 O 0.4776(3) 0.32928(7) 0.5264(3)
O7 O 0.6222(2) 0.25942(6) 0.7118(2)
N1 N 0.3887(2) 0.11682(6) 0.6257(3)
C1 C 0.2259(3) 0.11412(8) 0.6470(3)
C2 C 0.2209(3) 0.05730(7) 0.7021(3)
C3 C 0.0893(3) 0.03173(9) 0.7375(3)
H1 H -0.01670 0.04990 0.72840
C4 C 0.1200(4) -0.02231(9) 0.7875(4)
H2 H 0.03380 -0.04070 0.81370
C5 C 0.2769(4) -0.04921(9) 0.7989(4)
H3 H 0.29420 -0.08540 0.83340
C6 C 0.4087(3) -0.02364(8) 0.7604(3)
H4 H 0.51310 -0.04200 0.76640
C7 C 0.3783(3) 0.03057(8) 0.7125(3)
C8 C 0.4932(3) 0.06877(8) 0.6658(3)
C9 C 0.3377(3) 0.19062(8) 0.4254(3)
C10 C 0.2099(3) 0.15630(8) 0.2557(3)
C11 C -0.0592(4) 0.15585(10) -0.0523(3)
H5 H -0.16030 0.17940 -0.13700
H6 H -0.11320 0.12470 -0.02450
H7 H 0.01430 0.14470 -0.11250
C12 C 0.3542(3) 0.24345(8) 0.4102(3)
H8 H 0.26820 0.25840 0.29240
C13 C 0.4886(3) 0.28185(8) 0.5527(3)
C14 C 0.7609(3) 0.29584(10) 0.8537(4)
H9 H 0.85100 0.27550 0.96290
H10 H 0.69600 0.32120 0.89330
H11 H 0.82750 0.31490 0.79860
#END
