
#######################################################################
#
#                 Cambridge Crystallographic Data Centre
#                                CCDC
#
#######################################################################
#
# If this CIF has been generated from an entry in the Cambridge
# Structural Database, then it will include bibliographic, chemical,
# crystal, experimental, refinement or atomic coordinate data resulting
# from the CCDC's data processing and validation procedures.
#
#######################################################################

data_CSD_CIF_SIHCIW
_audit_creation_date 2007-08-28
_audit_creation_method CSD-ConQuest-V1
_database_code_CSD SIHCIW
_database_code_depnum_ccdc_archive 'CCDC 655003'
_chemical_formula_sum 'C11 H13 N1 O5'
_chemical_formula_moiety
;
C11 H13 N1 O5
;
_journal_coeditor_code "IUCr LH2422"
_journal_coden_Cambridge 1370
_journal_volume 63
_journal_year 2007
_journal_page_first o3269
_journal_name_full 'Acta Crystallogr.,Sect.E:Struct.Rep.Online '
loop_
_publ_author_name
"Sheng-Yin Zhao"
"Shi-Wei Mou"
"Shu-Hui Zhao"
"Wei-Min Qin"
_chemical_name_systematic
;
Methyl 3-nitro-4-propoxybenzoate
;
_chemical_melting_point 333
_cell_volume   1175.198
_exptl_crystal_colour 'colorless'
_exptl_crystal_density_diffrn 1.352
_exptl_crystal_description 'plate'
_exptl_crystal_preparation 'ethyl acetate'
_diffrn_ambient_temperature 298
#These two values have been output from a single CSD field.
_refine_ls_R_factor_gt 0.0519
_refine_ls_wR_factor_gt 0.0519
_symmetry_cell_setting orthorhombic
_symmetry_space_group_name_H-M 'P 21 21 21'
_symmetry_Int_Tables_number 19
loop_
_symmetry_equiv_pos_site_id
_symmetry_equiv_pos_as_xyz
1 x,y,z
2 1/2-x,-y,1/2+z
3 1/2+x,1/2-y,-z
4 -x,1/2+y,1/2-z
_cell_length_a 6.9732(6)
_cell_length_b 12.3149(11)
_cell_length_c 13.6851(13)
_cell_angle_alpha 90
_cell_angle_beta 90
_cell_angle_gamma 90
_cell_formula_units_Z 4
loop_
_atom_type_symbol
_atom_type_radius_bond
C 0.68
H 0.23
N 0.68
O 0.68
loop_
_atom_site_label
_atom_site_type_symbol
_atom_site_fract_x
_atom_site_fract_y
_atom_site_fract_z
O1 O 0.7410(4) -0.02317(14) 0.42026(13)
O2 O 0.8326(5) 0.2167(2) 0.23616(17)
O3 O 0.6856(5) 0.0646(2) 0.24957(17)
O4 O 0.7253(6) 0.48616(18) 0.4980(2)
O5 O 0.6959(4) 0.41751(17) 0.64755(19)
N1 N 0.7515(5) 0.1465(2) 0.28476(18)
C1 C 0.6287(8) -0.2330(3) 0.3518(3)
H1 H 0.66090 -0.29820 0.31690
H2 H 0.63130 -0.17240 0.30780
H3 H 0.50260 -0.24010 0.37930
C2 C 0.7691(7) -0.2153(2) 0.4310(3)
H4 H 0.89670 -0.21270 0.40290
H5 H 0.76460 -0.27670 0.47540
C3 C 0.7354(7) -0.1120(2) 0.4890(2)
H6 H 0.61170 -0.11470 0.52140
H7 H 0.83420 -0.10310 0.53820
C4 C 0.7267(5) 0.0781(2) 0.4549(2)
C5 C 0.7335(5) 0.1646(2) 0.3898(2)
C6 C 0.7278(5) 0.2716(2) 0.4213(2)
H8 H 0.73490 0.32780 0.37600
C7 C 0.7119(5) 0.2947(2) 0.5191(2)
C8 C 0.7027(5) 0.2091(2) 0.5844(2)
H9 H 0.69130 0.22370 0.65090
C9 C 0.7099(5) 0.1033(2) 0.5538(2)
H10 H 0.70350 0.04750 0.59960
C10 C 0.7133(5) 0.4097(2) 0.5509(3)
C11 C 0.7040(8) 0.5248(3) 0.6906(3)
H11 H 0.68820 0.51920 0.76010
H12 H 0.60320 0.56890 0.66390
H13 H 0.82580 0.55740 0.67630
#END
