
#######################################################################
#
#                 Cambridge Crystallographic Data Centre
#                                CCDC
#
#######################################################################
#
# If this CIF has been generated from an entry in the Cambridge
# Structural Database, then it will include bibliographic, chemical,
# crystal, experimental, refinement or atomic coordinate data resulting
# from the CCDC's data processing and validation procedures.
#
#######################################################################

data_CSD_CIF_SIHDIX
_audit_creation_date 2007-08-28
_audit_creation_method CSD-ConQuest-V1
_database_code_CSD SIHDIX
_database_code_depnum_ccdc_archive 'CCDC 655008'
_chemical_formula_sum 'C9 H12 N2 O3'
_chemical_formula_moiety
;
C9 H12 N2 O3
;
_journal_coeditor_code "IUCr HK2275"
_journal_coden_Cambridge 1370
_journal_volume 63
_journal_year 2007
_journal_page_first o3279
_journal_name_full 'Acta Crystallogr.,Sect.E:Struct.Rep.Online '
loop_
_publ_author_name
"Si-Shun Kang"
"Hai-Bo Wang"
"Hai-Su Zeng"
"Hai-Lin Li"
_chemical_name_systematic
;
3,5-Dimethoxybenzamide oxime
;
_cell_volume    482.329
_exptl_crystal_colour 'colorless'
_exptl_crystal_density_diffrn 1.351
_exptl_crystal_description 'block'
_exptl_crystal_preparation 'ethanol'
_diffrn_ambient_temperature 294
#These two values have been output from a single CSD field.
_refine_ls_R_factor_gt 0.0566
_refine_ls_wR_factor_gt 0.0566
_symmetry_cell_setting triclinic
_symmetry_space_group_name_H-M 'P -1'
_symmetry_Int_Tables_number 2
loop_
_symmetry_equiv_pos_site_id
_symmetry_equiv_pos_as_xyz
1 x,y,z
2 -x,-y,-z
_cell_length_a 6.4390(13)
_cell_length_b 8.0840(16)
_cell_length_c 10.188(2)
_cell_angle_alpha 71.29(3)
_cell_angle_beta 81.60(3)
_cell_angle_gamma 74.21(3)
_cell_formula_units_Z 2
loop_
_atom_type_symbol
_atom_type_radius_bond
C 0.68
H 0.23
N 0.68
O 0.68
loop_
_atom_site_label
_atom_site_type_symbol
_atom_site_fract_x
_atom_site_fract_y
_atom_site_fract_z
N1 N 1.0788(4) 0.1642(4) 0.9438(3)
O1 O 1.0049(5) 0.8092(4) 0.4557(3)
C1 C 1.2181(7) 0.7582(6) 0.3939(4)
H1 H 1.23310 0.84330 0.30440
H2 H 1.24070 0.64060 0.38340
H3 H 1.32310 0.75650 0.45240
O2 O 0.4585(4) 0.7003(3) 0.8199(3)
C2 C 0.9512(5) 0.7037(4) 0.5843(3)
N2 N 1.3735(4) 0.2953(4) 0.8772(3)
H4 H 1.46080 0.20160 0.92510
H5 H 1.41980 0.38870 0.82960
O3 O 1.2317(4) 0.0190(3) 1.0254(3)
H6 H 1.17360 -0.06350 1.06740
C3 C 1.0923(5) 0.5541(4) 0.6617(3)
H7 H 1.23410 0.51810 0.62780
C4 C 1.0177(5) 0.4578(4) 0.7923(3)
C5 C 0.8059(5) 0.5116(4) 0.8431(3)
H8 H 0.75750 0.44780 0.93030
C6 C 0.6679(5) 0.6608(4) 0.7627(3)
C7 C 0.7402(6) 0.7582(5) 0.6338(4)
H9 H 0.64730 0.85970 0.58090
C8 C 0.3158(6) 0.8628(5) 0.7501(4)
H10 H 0.17690 0.87400 0.80040
H11 H 0.30060 0.86160 0.65810
H12 H 0.37310 0.96290 0.74470
C9 C 1.1641(5) 0.2958(4) 0.8768(3)
#END
