
#######################################################################
#
#                 Cambridge Crystallographic Data Centre
#                                CCDC
#
#######################################################################
#
# If this CIF has been generated from an entry in the Cambridge
# Structural Database, then it will include bibliographic, chemical,
# crystal, experimental, refinement or atomic coordinate data resulting
# from the CCDC's data processing and validation procedures.
#
#######################################################################

data_CSD_CIF_SIJYOB
_audit_creation_date 2013-07-29
_audit_creation_method CSD-ConQuest-V1
_database_code_CSD SIJYOB
_database_code_depnum_ccdc_archive 'CCDC 846714'
_chemical_formula_sum 'C18 H16 N2 O6'
_chemical_formula_moiety
;
C18 H16 N2 O6
;
_journal_coden_Cambridge 1241
_journal_volume 23
_journal_year 2012
_journal_page_first 1771
_journal_name_full 'J.Braz.Chem.Soc. '
loop_
_publ_author_name
"Pengfei Zhang"
"Bingqin Yang"
"Xianwen Fang"
"Zhao Cheng"
"Meipan Yang"
_chemical_name_systematic
;
5-(3-Nitrophenyl)-4,5,6,7-tetrahydro-3H-2,8,5-benzodioxazacycloundecine-1,9-di
one
;
_cell_volume   1659.325
_exptl_crystal_density_diffrn 1.426
_diffrn_ambient_temperature 296
#These two values have been output from a single CSD field.
_refine_ls_R_factor_gt 0.0499
_refine_ls_wR_factor_gt 0.0499
_symmetry_cell_setting monoclinic
_symmetry_space_group_name_H-M 'P 21/n'
_symmetry_Int_Tables_number 14
loop_
_symmetry_equiv_pos_site_id
_symmetry_equiv_pos_as_xyz
1 x,y,z
2 1/2-x,1/2+y,1/2-z
3 -x,-y,-z
4 -1/2+x,-1/2-y,-1/2+z
_cell_length_a 7.925(2)
_cell_length_b 15.854(4)
_cell_length_c 13.208(3)
_cell_angle_alpha 90
_cell_angle_beta 90.813(4)
_cell_angle_gamma 90
_cell_formula_units_Z 4
loop_
_atom_type_symbol
_atom_type_radius_bond
C 0.68
H 0.23
N 0.68
O 0.68
loop_
_atom_site_label
_atom_site_type_symbol
_atom_site_fract_x
_atom_site_fract_y
_atom_site_fract_z
N1 N 0.8964(2) 0.77746(12) 0.72258(13)
N2 N 0.4735(3) 0.90525(12) 0.93755(16)
O1 O 1.3464(3) 0.92049(18) 0.60128(16)
O2 O 1.1829(2) 0.80810(11) 0.57909(11)
O3 O 0.8803(2) 0.88273(11) 0.52987(12)
O4 O 0.8371(3) 0.78967(14) 0.40455(14)
O5 O 0.4246(2) 0.91346(11) 1.02504(13)
O6 O 0.3831(2) 0.91879(13) 0.86322(14)
C1 C 1.2220(3) 0.89844(15) 0.44050(18)
C2 C 1.3537(4) 0.93247(17) 0.3856(2)
H1 H 1.45750 0.94150 0.41750
C3 C 1.3337(5) 0.95298(18) 0.2851(2)
H2 H 1.42420 0.97430 0.24910
C4 C 1.1810(5) 0.94196(19) 0.2385(2)
H3 H 1.16590 0.95780 0.17120
C5 C 1.0488(5) 0.90734(19) 0.2910(2)
H4 H 0.94550 0.89910 0.25820
C6 C 1.0671(4) 0.88458(15) 0.39214(17)
C7 C 0.9175(3) 0.84679(17) 0.44180(18)
C8 C 0.7363(3) 0.84872(18) 0.58272(19)
H5 H 0.64630 0.83780 0.53400
H6 H 0.69600 0.89070 0.63000
C9 C 0.7746(3) 0.76858(15) 0.63978(17)
H7 H 0.67020 0.74680 0.66680
H8 H 0.81700 0.72720 0.59240
C10 C 1.0570(3) 0.73310(16) 0.71543(18)
H9 H 1.04430 0.68770 0.66660
H10 H 1.08310 0.70770 0.78060
C11 C 1.2031(3) 0.78682(17) 0.68509(18)
H11 H 1.20660 0.83780 0.72570
H12 H 1.30800 0.75640 0.69600
C12 C 1.2558(3) 0.87829(18) 0.54826(19)
C13 C 0.8515(3) 0.81561(14) 0.81218(16)
C14 C 0.6868(3) 0.84244(14) 0.83026(16)
H13 H 0.60310 0.83550 0.78090
C15 C 0.6492(3) 0.87922(14) 0.92147(16)
C16 C 0.7647(3) 0.89381(16) 0.99762(17)
H14 H 0.73500 0.91940 1.05810
C17 C 0.9274(3) 0.86831(18) 0.97933(18)
H15 H 1.01020 0.87730 1.02880
C18 C 0.9713(3) 0.82990(16) 0.89019(17)
H16 H 1.08250 0.81300 0.88120
#END
