
#######################################################################
#
#                 Cambridge Crystallographic Data Centre
#                                CCDC
#
#######################################################################
#
# If this CIF has been generated from an entry in the Cambridge
# Structural Database, then it will include bibliographic, chemical,
# crystal, experimental, refinement or atomic coordinate data resulting
# from the CCDC's data processing and validation procedures.
#
#######################################################################

data_CSD_CIF_SIJZIW
_audit_creation_date 2013-07-29
_audit_creation_method CSD-ConQuest-V1
_database_code_CSD SIJZIW
_database_code_depnum_ccdc_archive 'CCDC 953080'
_chemical_formula_sum 'C13 H14 N2 O3'
_chemical_formula_moiety
;
C13 H14 N2 O3
;
_journal_coden_Cambridge 4
_journal_volume 135
_journal_year 2013
_journal_page_first 10630
_journal_name_full 'J.Am.Chem.Soc. '
loop_
_publ_author_name
"Tian-Jun Gong"
"Bin Xiao"
"Wan-Min Cheng"
"Wei Su"
"Jun Xu"
"Zhao-Jing Liu"
"Lei Liu"
"Yao Fu"
_chemical_name_systematic
;
2-(N-Methoxyethanimidoyl)-5-(oxiran-2-ylmethoxy)benzonitrile
;
_cell_volume   1246.218
_exptl_crystal_density_diffrn 1.313
_diffrn_ambient_temperature 290
#These two values have been output from a single CSD field.
_refine_ls_R_factor_gt 0.0397
_refine_ls_wR_factor_gt 0.0397
_symmetry_cell_setting monoclinic
_symmetry_space_group_name_H-M 'P 21/c'
_symmetry_Int_Tables_number 14
loop_
_symmetry_equiv_pos_site_id
_symmetry_equiv_pos_as_xyz
1 x,y,z
2 -x,1/2+y,1/2-z
3 -x,-y,-z
4 x,-1/2-y,-1/2+z
_cell_length_a 12.4072(2)
_cell_length_b 13.2641(2)
_cell_length_c 7.6196(1)
_cell_angle_alpha 90
_cell_angle_beta 96.370(1)
_cell_angle_gamma 90
_cell_formula_units_Z 4
loop_
_atom_type_symbol
_atom_type_radius_bond
C 0.68
H 0.23
N 0.68
O 0.68
loop_
_atom_site_label
_atom_site_type_symbol
_atom_site_fract_x
_atom_site_fract_y
_atom_site_fract_z
O1 O 0.36068(8) 0.54812(9) -0.01200(16)
O2 O -0.19509(9) 0.73892(9) 0.17169(18)
O3 O -0.42415(10) 0.82358(12) 0.02377(18)
N1 N 0.25129(10) 0.57409(10) -0.00409(17)
N2 N 0.20846(14) 0.93140(13) 0.0252(2)
C1 C 0.24296(12) 0.65383(12) 0.08860(19)
C2 C 0.09079(12) 0.78104(11) 0.10287(19)
C3 C -0.01717(13) 0.80381(12) 0.1242(2)
H1 H -0.04060 0.87050 0.12110
C4 C 0.15862(13) 0.86424(13) 0.0628(2)
C5 C 0.36430(14) 0.45745(13) -0.1118(2)
H2 H 0.43830 0.43670 -0.11300
H3 H 0.33230 0.46910 -0.23060
H4 H 0.32470 0.40550 -0.05890
C6 C 0.33813(13) 0.71047(14) 0.1788(2)
H5 H 0.31270 0.76640 0.24260
H6 H 0.38230 0.73480 0.09200
H7 H 0.38030 0.66640 0.25930
C7 C 0.05378(12) 0.60645(12) 0.1334(2)
H8 H 0.07650 0.53960 0.13670
C8 C 0.12885(12) 0.68201(11) 0.10834(18)
C9 C -0.42873(16) 0.90896(17) 0.1354(3)
H9 H -0.49250 0.91700 0.19700
H10 H -0.39710 0.97140 0.09910
C10 C -0.05237(12) 0.62758(12) 0.1534(2)
H11 H -0.10030 0.57530 0.16930
C11 C -0.08873(12) 0.72698(12) 0.1498(2)
C12 C -0.23853(14) 0.83818(13) 0.1756(3)
H12 H -0.22620 0.87460 0.06920
H13 H -0.20430 0.87490 0.27690
C13 C -0.35678(14) 0.82721(14) 0.1875(2)
H14 H -0.37760 0.78340 0.28170
#END
