
#######################################################################
#
#                 Cambridge Crystallographic Data Centre
#                                CCDC
#
#######################################################################
#
# If this CIF has been generated from an entry in the Cambridge
# Structural Database, then it will include bibliographic, chemical,
# crystal, experimental, refinement or atomic coordinate data resulting
# from the CCDC's data processing and validation procedures.
#
#######################################################################

data_CSD_CIF_SIKTIP
_audit_creation_date 1991-07-10
_audit_creation_method CSD-ConQuest-V1
_database_code_CSD SIKTIP
_chemical_formula_sum 'C18 H18 N2 O5'
_chemical_formula_moiety
;
C18 H18 N2 O5
;
_journal_coden_Cambridge 16
_journal_volume 46
_journal_year 1990
_journal_page_first 6799
_journal_name_full 'Tetrahedron '
loop_
_publ_author_name
"B.Alcaide"
"J.Rodriguez-Lopez"
"A.Monge"
"V.Perez-Garcia"
_chemical_name_systematic
;
(3R*,4R*,5S*)-4-Hydroxy-3-methyl-5-methoxy-1-(p-nitrophenyl)-4-phenylpyrrolin-
2-one
;
_chemical_melting_point 441.15
_cell_volume   1728.409
_exptl_crystal_colour 'colorless'
_exptl_crystal_density_diffrn 1.32
_exptl_special_details
;
Melting point range 441.15-443.15K

;
_diffrn_ambient_temperature ?
_diffrn_special_details
;
The study was carried out at room temperature,in the range 283-303K

;
#These two values have been output from a single CSD field.
_refine_ls_R_factor_gt 0.039
_refine_ls_wR_factor_gt 0.039
_symmetry_cell_setting orthorhombic
_symmetry_space_group_name_H-M 'P n a 21'
_symmetry_Int_Tables_number 33
loop_
_symmetry_equiv_pos_site_id
_symmetry_equiv_pos_as_xyz
1 x,y,z
2 1/2-x,1/2+y,1/2+z
3 1/2+x,1/2-y,z
4 -x,-y,1/2+z
_cell_length_a 11.323(6)
_cell_length_b 18.552(2)
_cell_length_c 8.228(5)
_cell_angle_alpha 90
_cell_angle_beta 90
_cell_angle_gamma 90
_cell_formula_units_Z 4
loop_
_atom_type_symbol
_atom_type_radius_bond
C 0.68
H 0.23
N 0.68
O 0.68
loop_
_atom_site_label
_atom_site_type_symbol
_atom_site_fract_x
_atom_site_fract_y
_atom_site_fract_z
H1 H 0.6074(75) -0.2353(46) 0.363(11)
H2 H 0.4402(74) -0.2835(45) 0.732(13)
H3 H 0.3208(51) -0.2268(30) 0.4353(92)
H4 H 0.52700 -0.04020 0.71780
H5 H 0.44990 0.08050 0.69730
H6 H 0.19040 0.01000 0.37470
H7 H 0.26360 -0.11190 0.39970
H8 H 0.69630 -0.27560 0.70070
H9 H 0.62950 -0.35270 0.72640
H10 H 0.63350 -0.29420 0.87280
H11 H 0.29680 -0.19710 0.17440
H12 H 0.39260 -0.26190 0.14950
H13 H 0.40690 -0.18680 0.04990
H14 H 0.57470 -0.37380 0.26420
H15 H 0.48990 -0.49210 0.20310
H16 H 0.31250 -0.53040 0.33190
H17 H 0.22130 -0.45860 0.53670
H18 H 0.30100 -0.34240 0.59940
N1 N 0.4439(4) -0.15700(22) 0.56840
N2 N 0.26710(45) 0.12640(25) 0.52930(84)
O1 O 0.53900(46) -0.15290(21) 0.81570(77)
O2 O 0.61060(31) -0.26550(21) 0.41990(79)
O3 O 0.45060(33) -0.18090(18) 0.29380(72)
O4 O 0.30920(38) 0.1714(2) 0.6204(8)
O5 O 0.18740(42) 0.13810(23) 0.43270(84)
C1 C 0.50470(56) -0.18630(29) 0.69980(93)
C2 C 0.51140(54) -0.26710(27) 0.67690(94)
C3 C 0.4986(5) -0.27610(26) 0.49100(94)
C4 C 0.41730(43) -0.21180(25) 0.4441(9)
C5 C 0.40090(46) -0.08550(27) 0.55790(91)
C6 C 0.45610(47) -0.02980(27) 0.64550(91)
C7 C 0.41110(47) 0.03940(28) 0.6341(9)
C8 C 0.31540(48) 0.05270(28) 0.53610(89)
C9 C 0.26050(46) -0.00150(31) 0.4491(10)
C10 C 0.30420(48) -0.07120(28) 0.46080(94)
C11 C 0.61990(66) -0.30100(33) 0.7522(11)
C12 C 0.38580(66) -0.20680(38) 0.1553(10)
C13 C 0.44660(48) -0.34950(27) 0.44230(96)
C14 C 0.49850(56) -0.39230(36) 0.3264(11)
C15 C 0.45040(68) -0.45930(42) 0.2880(13)
C16 C 0.35060(82) -0.48220(38) 0.3616(13)
C17 C 0.29590(76) -0.44090(37) 0.4762(12)
C18 C 0.34260(63) -0.37370(33) 0.51730(97)
#END
