
#######################################################################
#
#                 Cambridge Crystallographic Data Centre
#                                CCDC
#
#######################################################################
#
# If this CIF has been generated from an entry in the Cambridge
# Structural Database, then it will include bibliographic, chemical,
# crystal, experimental, refinement or atomic coordinate data resulting
# from the CCDC's data processing and validation procedures.
#
#######################################################################

data_CSD_CIF_SILGUQ
_audit_creation_date 2007-12-12
_audit_creation_method CSD-ConQuest-V1
_database_code_CSD SILGUQ
_database_code_depnum_ccdc_archive 'CCDC 663682'
_chemical_formula_sum 'C7 H5 N1 O5'
_chemical_formula_moiety
;
C7 H5 N1 O5
;
_journal_coeditor_code "IUCr RT2012"
_journal_coden_Cambridge 1370
_journal_volume 63
_journal_year 2007
_journal_page_first o3950
_journal_name_full 'Acta Crystallogr.,Sect.E:Struct.Rep.Online '
loop_
_publ_author_name
"Hai-Ping Li"
"Wen-Shi Wu"
"Guo-Dong Yang"
"Guo-Xiang Liu"
_chemical_name_systematic
;
Pyridine-2,4-dicarboxylic acid N-oxide
;
_cell_volume    711.765
_exptl_crystal_colour 'colorless'
_exptl_crystal_density_diffrn 1.709
_exptl_crystal_description 'prism'
_exptl_crystal_preparation 'methanol/dichloromethane'
_diffrn_ambient_temperature 293
#These two values have been output from a single CSD field.
_refine_ls_R_factor_gt 0.0346
_refine_ls_wR_factor_gt 0.0346
_symmetry_cell_setting monoclinic
_symmetry_space_group_name_H-M 'P 21/n'
_symmetry_Int_Tables_number 14
loop_
_symmetry_equiv_pos_site_id
_symmetry_equiv_pos_as_xyz
1 x,y,z
2 1/2-x,1/2+y,1/2-z
3 -x,-y,-z
4 -1/2+x,-1/2-y,-1/2+z
_cell_length_a 7.323(3)
_cell_length_b 6.985(3)
_cell_length_c 13.982(6)
_cell_angle_alpha 90
_cell_angle_beta 95.614(4)
_cell_angle_gamma 90
_cell_formula_units_Z 4
loop_
_atom_type_symbol
_atom_type_radius_bond
C 0.68
H 0.23
N 0.68
O 0.68
loop_
_atom_site_label
_atom_site_type_symbol
_atom_site_fract_x
_atom_site_fract_y
_atom_site_fract_z
N1 N 0.48719(13) 0.26168(14) 0.73729(7)
O1 O 0.41895(14) 0.39139(13) 0.79298(7)
O2 O 0.31826(15) 0.13474(15) 0.89520(7)
H1 H 0.33470 0.24060 0.87210
O3 O 0.40768(15) -0.16328(14) 0.86771(7)
O4 O 0.79194(13) -0.07382(13) 0.48418(6)
H2 H 0.838(2) -0.169(3) 0.4549(13)
O5 O 0.72985(14) -0.31254(13) 0.58244(7)
C1 C 0.48397(15) 0.07171(16) 0.75937(8)
C2 C 0.56127(15) -0.05789(16) 0.70098(8)
H3 H 0.55800 -0.18780 0.71520
C3 C 0.64396(14) 0.00290(16) 0.62119(7)
C4 C 0.64456(16) 0.19734(17) 0.60040(8)
H4 H 0.69930 0.24160 0.54730
C5 C 0.56388(17) 0.32411(17) 0.65864(9)
H5 H 0.56190 0.45400 0.64390
C6 C 0.39838(16) 0.00556(18) 0.84741(8)
C7 C 0.72671(15) -0.14509(16) 0.56115(8)
#END
