
#######################################################################
#
#                 Cambridge Crystallographic Data Centre
#                                CCDC
#
#######################################################################
#
# If this CIF has been generated from an entry in the Cambridge
# Structural Database, then it will include bibliographic, chemical,
# crystal, experimental, refinement or atomic coordinate data resulting
# from the CCDC's data processing and validation procedures.
#
#######################################################################

data_CSD_CIF_SILRUB
_audit_creation_date 2007-12-12
_audit_creation_method CSD-ConQuest-V1
_database_code_CSD SILRUB
_database_code_depnum_ccdc_archive 'CCDC 642734'
_chemical_formula_sum 'C13 H11 N1 O3'
_chemical_formula_moiety
;
C13 H11 N1 O3
;
_journal_coeditor_code "IUCr LW2030"
_journal_coden_Cambridge 1370
_journal_volume 63
_journal_year 2007
_journal_page_first o4087
_journal_name_full 'Acta Crystallogr.,Sect.E:Struct.Rep.Online '
loop_
_publ_author_name
"A.Ilangovan"
"R.G.Kumar"
"H.Liang"
"K.Balasubramani"
"P.T.Muthiah"
_chemical_name_systematic
;
1-Benzyloxy-4-nitrobenzene
;
_cell_volume   1134.841
_exptl_crystal_colour 'colorless'
_exptl_crystal_density_diffrn 1.342
_exptl_crystal_description 'sheet'
_exptl_crystal_preparation 'ethyl alcohol'
_diffrn_ambient_temperature 120
#These two values have been output from a single CSD field.
_refine_ls_R_factor_gt 0.0463
_refine_ls_wR_factor_gt 0.0463
_symmetry_cell_setting monoclinic
_symmetry_space_group_name_H-M 'P 21/c'
_symmetry_Int_Tables_number 14
loop_
_symmetry_equiv_pos_site_id
_symmetry_equiv_pos_as_xyz
1 x,y,z
2 -x,1/2+y,1/2-z
3 -x,-y,-z
4 x,-1/2-y,-1/2+z
_cell_length_a 14.0913(18)
_cell_length_b 10.7640(14)
_cell_length_c 7.6056(10)
_cell_angle_alpha 90
_cell_angle_beta 100.349(2)
_cell_angle_gamma 90
_cell_formula_units_Z 4
loop_
_atom_type_symbol
_atom_type_radius_bond
C 0.68
H 0.23
N 0.68
O 0.68
loop_
_atom_site_label
_atom_site_type_symbol
_atom_site_fract_x
_atom_site_fract_y
_atom_site_fract_z
O1 O -0.04574(11) 0.20677(18) 0.4021(3)
O2 O -0.05990(11) 0.02631(18) 0.2800(3)
O3 O 0.37607(8) 0.13805(10) 0.28478(15)
N1 N -0.01246(12) 0.11769(19) 0.3344(3)
C1 C 0.08975(12) 0.12064(18) 0.3181(3)
C2 C 0.14322(13) 0.22473(17) 0.3745(3)
C3 C 0.23923(12) 0.22642(16) 0.3611(2)
C4 C 0.28081(11) 0.12556(14) 0.2906(2)
C5 C 0.22564(12) 0.02160(16) 0.2337(2)
C6 C 0.12917(13) 0.01972(17) 0.2477(3)
C7 C 0.42374(11) 0.03767(15) 0.2114(2)
C8 C 0.52496(11) 0.07715(14) 0.2045(2)
C9 C 0.54179(11) 0.18143(14) 0.1078(2)
C10 C 0.63458(12) 0.21673(16) 0.0975(2)
C11 C 0.71203(12) 0.14829(17) 0.1832(2)
C12 C 0.69640(12) 0.04353(17) 0.2779(2)
C13 C 0.60320(12) 0.00838(15) 0.2882(2)
H1 H 0.11500 0.29260 0.42080
H2 H 0.27660 0.29580 0.39960
H3 H 0.25330 -0.04630 0.18640
H4 H 0.09130 -0.04930 0.20970
H5 H 0.38980 0.01780 0.09210
H6 H 0.42430 -0.03570 0.28550
H7 H 0.49000 0.22800 0.04950
H8 H 0.64510 0.28700 0.03250
H9 H 0.77460 0.17280 0.17690
H10 H 0.74840 -0.00340 0.33470
H11 H 0.59290 -0.06240 0.35230
#END
