
#######################################################################
#
#                 Cambridge Crystallographic Data Centre
#                                CCDC
#
#######################################################################
#
# If this CIF has been generated from an entry in the Cambridge
# Structural Database, then it will include bibliographic, chemical,
# crystal, experimental, refinement or atomic coordinate data resulting
# from the CCDC's data processing and validation procedures.
#
#######################################################################

data_CSD_CIF_SILTOW
_audit_creation_date 1991-07-10
_audit_creation_method CSD-ConQuest-V1
_database_code_CSD SILTOW
_chemical_formula_sum 'C13 H10 N4 O5'
_chemical_formula_moiety
;
C13 H10 N4 O5
;
_journal_coden_Cambridge 4
_journal_volume 112
_journal_year 1990
_journal_page_first 8415
_journal_name_full 'J.Am.Chem.Soc. '
loop_
_publ_author_name
"M.C.Etter"
"Z.Urbanczyk-Lipkowska"
"M.Zia-Ebrahimi"
"T.W.Panunto"
_chemical_name_systematic
;
1,3-bis(m-Nitrophenyl)urea
;
_chemical_melting_point 529.15
_cell_volume   1318.535
_exptl_crystal_colour 'yellow'
_exptl_crystal_density_diffrn 1.52
_exptl_special_details
;
Melting point range 529.15-531.15K
alpha polymorph

;
_diffrn_ambient_temperature ?
_diffrn_special_details
;
The study was carried out at room temperature,in the range 283-303K

;
#These two values have been output from a single CSD field.
_refine_ls_R_factor_gt 0.05
_refine_ls_wR_factor_gt 0.05
_symmetry_cell_setting monoclinic
_symmetry_space_group_name_H-M 'P 21/c'
_symmetry_Int_Tables_number 14
loop_
_symmetry_equiv_pos_site_id
_symmetry_equiv_pos_as_xyz
1 x,y,z
2 -x,1/2+y,1/2-z
3 -x,-y,-z
4 x,-1/2-y,-1/2+z
_cell_length_a 11.495(4)
_cell_length_b 13.816(5)
_cell_length_c 8.307(4)
_cell_angle_alpha 90
_cell_angle_beta 91.92(3)
_cell_angle_gamma 90
_cell_formula_units_Z 4
loop_
_atom_type_symbol
_atom_type_radius_bond
C 0.68
H 0.23
N 0.68
O 0.68
loop_
_atom_site_label
_atom_site_type_symbol
_atom_site_fract_x
_atom_site_fract_y
_atom_site_fract_z
C1 C 0.7380(2) 0.1846(2) 1.0485(3)
O1 O 0.6971(2) 0.1503(1) 1.1685(2)
N1 N 0.807(2) 0.1330(2) 0.9473(3)
C2 C 0.8303(2) 0.0337(2) 0.9499(3)
C3 C 0.9042(2) -0.0027(2) 0.8350(3)
C4 C 0.9275(2) -0.1001(2) 0.8346(3)
C5 C 0.8799(3) -0.1650(2) 0.9394(4)
C6 C 0.8071(3) -0.1276(2) 1.0518(4)
C7 C 0.7819(2) -0.0302(2) 1.0591(3)
N2 N 1.0089(2) -0.1380(2) 0.7171(3)
O2 O 1.0449(2) -0.0836(2) 0.6162(3)
O3 O 1.0385(2) -0.2231(2) 0.7275(3)
N3 N 0.7221(2) 0.2775(2) 1.0027(3)
C8 C 0.6599(2) 0.3497(2) 1.0819(3)
C9 C 0.6896(2) 0.4451(2) 1.0522(3)
C10 C 0.6311(2) 0.5179(2) 1.1282(3)
C11 C 0.5434(3) 0.4998(2) 1.2339(4)
C12 C 0.5141(3) 0.4046(2) 1.2608(4)
C13 C 0.5703(2) 0.3299(2) 1.1857(4)
N4 N 0.6654(2) 0.6172(2) 1.0968(3)
O4 O 0.7420(2) 0.6325(2) 1.0024(3)
O5 O 0.6163(2) 0.6827(2) 1.1651(4)
H1 H 0.839(2) 0.166(2) 0.876(3)
H2 H 0.748(2) 0.294(2) 0.922(3)
H3 H 0.93800 0.03900 0.75800
H4 H 0.89700 -0.23200 0.93500
H5 H 0.77300 -0.17000 1.12600
H6 H 0.73200 -0.00700 1.13900
H7 H 0.75000 0.46000 0.98000
H8 H 0.50500 0.55100 1.28600
H9 H 0.45400 0.39000 1.33300
H10 H 0.54800 0.26500 1.20500
#END
