
#######################################################################
#
#                 Cambridge Crystallographic Data Centre
#                                CCDC
#
#######################################################################
#
# If this CIF has been generated from an entry in the Cambridge
# Structural Database, then it will include bibliographic, chemical,
# crystal, experimental, refinement or atomic coordinate data resulting
# from the CCDC's data processing and validation procedures.
#
#######################################################################

data_CSD_CIF_SIMFAW
_audit_creation_date 2007-12-12
_audit_creation_method CSD-ConQuest-V1
_database_code_CSD SIMFAW
_database_code_depnum_ccdc_archive 'CCDC 667287'
_chemical_formula_sum 'C14 H8 N2 O4'
_chemical_formula_moiety
;
C14 H8 N2 O4
;
_journal_coeditor_code "IUCr WW2096"
_journal_coden_Cambridge 1370
_journal_volume 63
_journal_year 2007
_journal_page_first o4226
_journal_name_full 'Acta Crystallogr.,Sect.E:Struct.Rep.Online '
loop_
_publ_author_name
"Z.A.Khan"
"K.M.Khan"
"S.Anjum"
_chemical_name_systematic
;
7-Nitro-2-phenyl-4H-3,1-benzoxazin-4-one
;
_chemical_melting_point 430
_cell_volume   1211.853
_exptl_crystal_colour 'yellow'
_exptl_crystal_density_diffrn 1.47
_exptl_special_details
;
potential biological activity

;
_exptl_crystal_description 'plate'
_exptl_crystal_preparation 'ethanol'
_diffrn_ambient_temperature 293
#These two values have been output from a single CSD field.
_refine_ls_R_factor_gt 0.0567
_refine_ls_wR_factor_gt 0.0567
_symmetry_cell_setting monoclinic
_symmetry_space_group_name_H-M 'P 21/c'
_symmetry_Int_Tables_number 14
loop_
_symmetry_equiv_pos_site_id
_symmetry_equiv_pos_as_xyz
1 x,y,z
2 -x,1/2+y,1/2-z
3 -x,-y,-z
4 x,-1/2-y,-1/2+z
_cell_length_a 7.6403(14)
_cell_length_b 7.4693(13)
_cell_length_c 22.047(4)
_cell_angle_alpha 90
_cell_angle_beta 105.595(6)
_cell_angle_gamma 90
_cell_formula_units_Z 4
loop_
_atom_type_symbol
_atom_type_radius_bond
C 0.68
H 0.23
N 0.68
O 0.68
loop_
_atom_site_label
_atom_site_type_symbol
_atom_site_fract_x
_atom_site_fract_y
_atom_site_fract_z
O1 O 0.6749(3) 0.2424(3) -0.15791(9)
O2 O 0.7645(3) 0.1864(2) -0.05594(8)
O3 O 0.3710(3) -0.6371(3) -0.09118(9)
O4 O 0.2699(3) -0.6007(3) -0.1910(1)
N1 N 0.7048(3) -0.0810(3) -0.01017(9)
N2 N 0.3523(3) -0.5488(3) -0.13872(11)
C1 C 0.6737(4) 0.1380(4) -0.11668(12)
C2 C 0.7748(3) 0.0731(3) -0.00586(11)
C3 C 0.5316(4) -0.3121(3) -0.07507(11)
H1 H 0.54500 -0.38480 -0.03990
C4 C 0.4358(3) -0.3700(3) -0.13323(11)
C5 C 0.4115(3) -0.2681(4) -0.18714(11)
H2 H 0.34440 -0.31140 -0.22600
C6 C 0.4892(4) -0.1012(4) -0.18178(11)
H3 H 0.47600 -0.03060 -0.21750
C7 C 0.5873(3) -0.0367(3) -0.12344(11)
C8 C 0.6090(3) -0.1414(3) -0.06941(11)
C9 C 0.8768(3) 0.1498(3) 0.05463(12)
C10 C 0.9067(3) 0.0449(4) 0.10843(12)
H4 H 0.86320 -0.07190 0.10580
C11 C 1.0012(4) 0.1145(4) 0.16582(13)
H5 H 1.02040 0.04430 0.20190
C12 C 1.0670(4) 0.2860(5) 0.17032(15)
H6 H 1.13140 0.33130 0.20920
C13 C 1.0377(4) 0.3911(5) 0.11741(16)
H7 H 1.08200 0.50770 0.12060
C14 C 0.9423(4) 0.3238(4) 0.05931(14)
H8 H 0.92230 0.39520 0.02350
#END
