
#######################################################################
#
#                 Cambridge Crystallographic Data Centre
#                                CCDC
#
#######################################################################
#
# If this CIF has been generated from an entry in the Cambridge
# Structural Database, then it will include bibliographic, chemical,
# crystal, experimental, refinement or atomic coordinate data resulting
# from the CCDC's data processing and validation procedures.
#
#######################################################################

data_CSD_CIF_SIMGUR
_audit_creation_date 2007-12-12
_audit_creation_method CSD-ConQuest-V1
_database_code_CSD SIMGUR
_database_code_depnum_ccdc_archive 'CCDC 667296'
_chemical_formula_sum 'C12 H14 N4 O3'
_chemical_formula_moiety
;
C12 H14 N4 O3
;
_journal_coeditor_code "IUCr HG2297"
_journal_coden_Cambridge 1370
_journal_volume 63
_journal_year 2007
_journal_page_first o4242
_journal_name_full 'Acta Crystallogr.,Sect.E:Struct.Rep.Online '
loop_
_publ_author_name
"Haibo Yu"
"Bingnan Zhang"
"Jianxin Fang"
_chemical_name_systematic
;
(E)-3-(2-Nitriminoimidazolidin-1-yl)-1-phenylpropan-1-one
;
_chemical_name_common
;
(E)-N-(1-(3-Oxo-3-phenylpropyl)imidazolidin-2-ylidene)nitramide
;
_cell_volume   1259.768
_exptl_crystal_colour 'colorless'
_exptl_crystal_density_diffrn 1.383
_exptl_crystal_description 'block'
_exptl_crystal_preparation 'ethanol'
_diffrn_ambient_temperature 294
#These two values have been output from a single CSD field.
_refine_ls_R_factor_gt 0.0444
_refine_ls_wR_factor_gt 0.0444
_symmetry_cell_setting monoclinic
_symmetry_space_group_name_H-M 'P 21/c'
_symmetry_Int_Tables_number 14
loop_
_symmetry_equiv_pos_site_id
_symmetry_equiv_pos_as_xyz
1 x,y,z
2 -x,1/2+y,1/2-z
3 -x,-y,-z
4 x,-1/2-y,-1/2+z
_cell_length_a 15.346(4)
_cell_length_b 6.0908(15)
_cell_length_c 13.784(3)
_cell_angle_alpha 90
_cell_angle_beta 102.098(4)
_cell_angle_gamma 90
_cell_formula_units_Z 4
loop_
_atom_type_symbol
_atom_type_radius_bond
C 0.68
H 0.23
N 0.68
O 0.68
loop_
_atom_site_label
_atom_site_type_symbol
_atom_site_fract_x
_atom_site_fract_y
_atom_site_fract_z
O1 O 0.89456(9) 0.4085(3) 0.57018(12)
O2 O 0.62133(12) 0.2316(4) 0.85036(15)
O3 O 0.54319(14) -0.0283(4) 0.77931(16)
N1 N 0.68641(11) -0.0235(3) 0.57030(13)
N2 N 0.58391(13) -0.2046(4) 0.62248(17)
H1 H 0.54930 -0.24370 0.66110
N3 N 0.65419(10) 0.1137(3) 0.71315(13)
N4 N 0.60406(13) 0.1005(4) 0.78249(15)
C1 C 1.07620(13) 0.3262(3) 0.62309(14)
H2 H 1.05770 0.46680 0.60180
C2 C 1.16612(14) 0.2813(4) 0.65379(16)
H3 H 1.20780 0.39200 0.65330
C3 C 1.19427(14) 0.0738(4) 0.68500(15)
H4 H 1.25470 0.04480 0.70690
C4 C 1.13284(14) -0.0900(4) 0.68366(16)
H5 H 1.15190 -0.23130 0.70310
C5 C 1.04285(14) -0.0474(4) 0.65363(15)
H6 H 1.00180 -0.15970 0.65340
C6 C 1.01342(12) 0.1622(3) 0.62384(12)
C7 C 0.91721(13) 0.2204(3) 0.59318(13)
C8 C 0.84777(12) 0.0457(3) 0.59221(14)
H7 H 0.85640 -0.02120 0.65740
H8 H 0.85500 -0.06760 0.54510
C9 C 0.75451(12) 0.1381(4) 0.56442(15)
H9 H 0.74910 0.25950 0.60830
H10 H 0.74460 0.19510 0.49730
C10 C 0.66626(17) -0.2033(5) 0.5001(2)
H11 H 0.71670 -0.30170 0.50550
H12 H 0.64960 -0.14940 0.43260
C11 C 0.58803(18) -0.3171(5) 0.5314(2)
H13 H 0.53340 -0.29810 0.48210
H14 H 0.59940 -0.47270 0.54270
C12 C 0.63860(12) -0.0357(4) 0.64033(16)
#END
