
#######################################################################
#
#                 Cambridge Crystallographic Data Centre
#                                CCDC
#
#######################################################################
#
# If this CIF has been generated from an entry in the Cambridge
# Structural Database, then it will include bibliographic, chemical,
# crystal, experimental, refinement or atomic coordinate data resulting
# from the CCDC's data processing and validation procedures.
#
#######################################################################

data_CSD_CIF_SIMJOQ
_audit_creation_date 2018-08-16
_audit_creation_method CSD-ConQuest-V1
_database_code_CSD SIMJOQ
_database_code_depnum_ccdc_archive 'CCDC 1856648'
_chemical_formula_sum 'C18 H21 N1 O5'
_chemical_formula_moiety
;
C18 H21 N1 O5
;
_journal_coden_Cambridge 1336
_journal_volume 20
_journal_year 2018
_journal_page_first 5327
_journal_name_full 'Org.Lett. '
loop_
_publ_author_name
"K.Tanveer"
"Seung-Joon Kim"
"M.S.Taylor"
_chemical_name_systematic
;
(1R,2R,4R)-(-)-2-acetyl-2-methyl-4-(prop-1-en-2-yl)cyclopentyl 4-nitrobenzoate
;
_cell_volume   1697.780
_exptl_crystal_colour 'colorless'
_exptl_crystal_density_diffrn 1.296
_exptl_crystal_description 'needle'
_exptl_crystal_preparation 'cyclohexane'
_diffrn_ambient_temperature 149
#These two values have been output from a single CSD field.
_refine_ls_R_factor_gt 0.0391
_refine_ls_wR_factor_gt 0.0391
_symmetry_cell_setting orthorhombic
_symmetry_space_group_name_H-M 'P 21 21 21'
_symmetry_Int_Tables_number 19
loop_
_symmetry_equiv_pos_site_id
_symmetry_equiv_pos_as_xyz
1 x,y,z
2 1/2-x,-y,1/2+z
3 -x,1/2+y,1/2-z
4 1/2+x,1/2-y,-z
_cell_length_a 5.8561(3)
_cell_length_b 9.2176(5)
_cell_length_c 31.4525(18)
_cell_angle_alpha 90
_cell_angle_beta 90
_cell_angle_gamma 90
_cell_formula_units_Z 4
loop_
_atom_type_symbol
_atom_type_radius_bond
C 0.68
H 0.23
N 0.68
O 0.68
loop_
_atom_site_label
_atom_site_type_symbol
_atom_site_fract_x
_atom_site_fract_y
_atom_site_fract_z
O1 O 0.6234(3) 0.5155(2) 0.25365(5)
O2 O 0.4033(3) 0.39074(18) 0.36957(5)
O3 O 0.7583(3) 0.3207(3) 0.38530(7)
O4 O -0.0225(4) -0.0371(2) 0.52879(7)
O5 O 0.2683(3) -0.1793(2) 0.52159(7)
N1 N 0.1637(4) -0.0680(2) 0.51340(7)
C1 C 0.4874(4) 0.4828(2) 0.33525(7)
H1 H 0.63658 0.44669 0.32397
C2 C 0.5066(4) 0.6398(3) 0.35090(8)
H2 H 0.65078 0.68401 0.34078
H3 H 0.50473 0.64296 0.38236
C3 C 0.2976(4) 0.7232(2) 0.33252(7)
H4 H 0.35112 0.78062 0.30746
C4 C 0.1404(4) 0.6025(2) 0.31616(8)
H5 H 0.04306 0.63828 0.29266
H6 H 0.04109 0.56576 0.33924
C5 C 0.3027(4) 0.4834(2) 0.30048(7)
C6 C 0.1831(4) 0.8265(3) 0.36316(7)
C7 C 0.1616(5) 0.9654(3) 0.35356(8)
H7 H 0.08815 1.02954 0.37285
H8 H 0.21961 1.00115 0.32737
C8 C 0.0941(5) 0.7652(3) 0.40417(8)
H9 H 0.00833 0.84019 0.41943
H10 H 0.22246 0.73261 0.42173
H11 H -0.00655 0.68283 0.39811
C9 C 0.1814(4) 0.3388(3) 0.29344(8)
H12 H 0.07074 0.34877 0.27024
H13 H 0.10154 0.31040 0.31953
H14 H 0.29392 0.26427 0.28602
C10 C 0.4177(4) 0.5246(3) 0.25839(8)
C11 C 0.2716(5) 0.5733(4) 0.22201(9)
H15 H 0.33731 0.53835 0.19525
H16 H 0.26463 0.67951 0.22160
H17 H 0.11721 0.53389 0.22538
C12 C 0.5572(4) 0.3140(3) 0.39104(8)
C13 C 0.4486(4) 0.2176(2) 0.42328(7)
C14 C 0.5692(4) 0.0956(3) 0.43630(8)
H18 H 0.71626 0.07705 0.42475
C15 C 0.4780(4) 0.0008(3) 0.46587(8)
H19 H 0.55872 -0.08348 0.47458
C16 C 0.2654(4) 0.0332(3) 0.48227(7)
C17 C 0.1424(4) 0.1541(3) 0.47054(8)
H20 H -0.00212 0.17377 0.48300
C18 C 0.2336(4) 0.2464(3) 0.44017(7)
H21 H 0.14986 0.32886 0.43093
#END
