
#######################################################################
#
#                 Cambridge Crystallographic Data Centre
#                                CCDC
#
#######################################################################
#
# If this CIF has been generated from an entry in the Cambridge
# Structural Database, then it will include bibliographic, chemical,
# crystal, experimental, refinement or atomic coordinate data resulting
# from the CCDC's data processing and validation procedures.
#
#######################################################################

data_CSD_CIF_SIMXAO
_audit_creation_date 2007-12-12
_audit_creation_method CSD-ConQuest-V1
_database_code_CSD SIMXAO
_database_code_depnum_ccdc_archive 'CCDC 667413'
_chemical_formula_sum 'C19 H18 N6 O10'
_chemical_formula_moiety
;
C19 H18 N6 O10
;
_journal_coeditor_code "IUCr BV2074"
_journal_coden_Cambridge 1370
_journal_volume 63
_journal_year 2007
_journal_page_first o4393
_journal_name_full 'Acta Crystallogr.,Sect.E:Struct.Rep.Online '
loop_
_publ_author_name
"M.D.H.Bhuiyan"
"P.Jensen"
"A.C.Try"
_chemical_name_systematic
;
2,8-Dimethoxy-4,10-dimethyl-1,3,7,9-tetranitro-6H,12H-5,11-methanodibenzo(b,f)
(1,5)diazocine
;
_chemical_name_common
;
2,8-Dimethoxy-4,10-dimethyl-1,3,7,9-tetranitro-Troger's base
;
_chemical_melting_point 509
_cell_volume   2092.196
_exptl_crystal_colour 'pale yellow'
_exptl_crystal_density_diffrn 1.557
_exptl_crystal_description 'plate'
_exptl_crystal_preparation 'dichloromethane'
_diffrn_ambient_temperature 150
#These two values have been output from a single CSD field.
_refine_ls_R_factor_gt 0.0312
_refine_ls_wR_factor_gt 0.0312
_symmetry_cell_setting orthorhombic
_symmetry_space_group_name_H-M 'P 21 21 21'
_symmetry_Int_Tables_number 19
loop_
_symmetry_equiv_pos_site_id
_symmetry_equiv_pos_as_xyz
1 x,y,z
2 1/2-x,-y,1/2+z
3 1/2+x,1/2-y,-z
4 -x,1/2+y,1/2-z
_cell_length_a 8.629(2)
_cell_length_b 9.155(2)
_cell_length_c 26.484(5)
_cell_angle_alpha 90
_cell_angle_beta 90
_cell_angle_gamma 90
_cell_formula_units_Z 4
loop_
_atom_type_symbol
_atom_type_radius_bond
C 0.68
H 0.23
N 0.68
O 0.68
loop_
_atom_site_label
_atom_site_type_symbol
_atom_site_fract_x
_atom_site_fract_y
_atom_site_fract_z
O1 O -0.24794(17) 0.33842(19) 0.07709(8)
O2 O -0.08837(18) 0.48777(15) 0.04288(6)
O3 O -0.16534(14) 0.11061(15) 0.01060(4)
O4 O 0.0242(2) -0.11653(17) -0.02943(5)
O5 O 0.0452(3) -0.23330(16) 0.04133(7)
O6 O -0.03451(19) 0.5055(2) 0.31937(6)
O7 O 0.1945(2) 0.5605(2) 0.34557(6)
O8 O 0.16799(16) 0.21859(15) 0.34025(4)
O9 O 0.42213(18) -0.03735(17) 0.25715(6)
O10 O 0.1932(2) -0.04848(15) 0.29035(6)
N1 N -0.12096(16) 0.36974(16) 0.06071(5)
N2 N 0.04626(19) -0.12154(16) 0.01626(6)
N3 N 0.30705(16) 0.42473(15) 0.14649(5)
N4 N 0.38756(16) 0.18709(16) 0.11780(5)
N5 N 0.10563(19) 0.49762(18) 0.31727(5)
N6 N 0.29756(19) 0.01726(17) 0.26895(5)
C1 C -0.00005(17) 0.25689(17) 0.06230(6)
C2 C -0.03352(19) 0.12601(18) 0.03837(6)
C3 C -0.2842(2) 0.0221(3) 0.03419(7)
H1 H -0.23840 -0.06950 0.04620
H2 H -0.36570 0.00050 0.00950
H3 H -0.32880 0.07540 0.06280
C4 C 0.0768(2) 0.01678(18) 0.04267(6)
C5 C 0.21390(19) 0.03065(17) 0.06985(6)
C6 C 0.3289(2) -0.09185(19) 0.07389(7)
H4 H 0.29390 -0.16170 0.09950
H5 H 0.43020 -0.05250 0.08360
H6 H 0.33760 -0.14140 0.04120
C7 C 0.24331(18) 0.16794(17) 0.09196(5)
C8 C 0.13757(18) 0.28300(17) 0.08822(5)
C9 C 0.17197(19) 0.43057(17) 0.11245(6)
H7 H 0.19170 0.50340 0.08560
H8 H 0.08000 0.46310 0.13180
C10 C 0.42902(19) 0.34144(19) 0.12147(6)
H9 H 0.52680 0.35140 0.14070
H10 H 0.44630 0.38130 0.08720
C11 C 0.38882(19) 0.12370(18) 0.16884(6)
H11 H 0.49750 0.10730 0.17940
H12 H 0.33610 0.02770 0.16800
C12 C 0.30895(18) 0.22120(17) 0.20748(6)
C13 C 0.27142(18) 0.36599(17) 0.19513(6)
C14 C 0.20377(19) 0.46122(18) 0.23053(6)
C15 C 0.1778(2) 0.61959(19) 0.21860(6)
H13 H 0.08930 0.62920 0.19570
H14 H 0.27070 0.65990 0.20250
H15 H 0.15660 0.67320 0.24990
C16 C 0.17340(19) 0.40371(19) 0.27790(6)
C17 C 0.20533(19) 0.26139(18) 0.29235(6)
C18 C 0.2990(3) 0.1949(2) 0.37300(6)
H16 H 0.36330 0.11590 0.35940
H17 H 0.26230 0.16790 0.40680
H18 H 0.36050 0.28470 0.37510
C19 C 0.27199(19) 0.17181(18) 0.25601(6)
#END
