
#######################################################################
#
#                 Cambridge Crystallographic Data Centre
#                                CCDC
#
#######################################################################
#
# If this CIF has been generated from an entry in the Cambridge
# Structural Database, then it will include bibliographic, chemical,
# crystal, experimental, refinement or atomic coordinate data resulting
# from the CCDC's data processing and validation procedures.
#
#######################################################################

data_CSD_CIF_SINZEW
_audit_creation_date 2013-12-16
_audit_creation_method CSD-ConQuest-V1
_database_code_CSD SINZEW
_database_code_depnum_ccdc_archive 'CCDC 890251'
_chemical_formula_sum 'C14 H11 N3 O5'
_chemical_formula_moiety
;
C14 H11 N3 O5
;
_journal_coden_Cambridge 603
_journal_volume 32
_journal_year 2013
_journal_page_first 1523
_journal_name_full 'Jiegou Huaxue(Chin.)(Chin.J.Struct.Chem.) '
loop_
_publ_author_name
"Jian-Jun Ji"
"Shan-Shan Huang"
"Hou-Li Zhang"
"Yuan Lin"
"Kun Li"
"Yun-Peng Diao"
_chemical_name_systematic
;
3,5-dihydroxy-N'-(4-nitrobenzylidene)benzohydrazide
;
_cell_volume   1300.880
_exptl_crystal_colour 'yellow'
_exptl_crystal_density_diffrn 1.538
_exptl_crystal_description 'block'
_diffrn_ambient_temperature 296
#These two values have been output from a single CSD field.
_refine_ls_R_factor_gt 0.0418
_refine_ls_wR_factor_gt 0.0418
_symmetry_cell_setting monoclinic
_symmetry_space_group_name_H-M 'P 21/c'
_symmetry_Int_Tables_number 14
loop_
_symmetry_equiv_pos_site_id
_symmetry_equiv_pos_as_xyz
1 x,y,z
2 -x,1/2+y,1/2-z
3 -x,-y,-z
4 x,-1/2-y,-1/2+z
_cell_length_a 9.632(12)
_cell_length_b 12.256(15)
_cell_length_c 11.425(14)
_cell_angle_alpha 90
_cell_angle_beta 105.306(11)
_cell_angle_gamma 90
_cell_formula_units_Z 4
loop_
_atom_type_symbol
_atom_type_radius_bond
C 0.68
H 0.23
N 0.68
O 0.68
loop_
_atom_site_label
_atom_site_type_symbol
_atom_site_fract_x
_atom_site_fract_y
_atom_site_fract_z
O1 O 1.06908(19) 0.48474(16) 0.19262(16)
O2 O 1.0724(2) 0.65424(17) 0.14838(16)
O3 O 0.54787(17) 0.47173(11) 0.72054(14)
O4 O 0.30675(17) 0.86167(11) 0.91653(14)
H1 H 0.351(3) 0.907(2) 0.876(2)
O5 O 0.24343(17) 0.48985(11) 1.00498(14)
H2 H 0.197(3) 0.521(2) 1.051(2)
N1 N 1.03679(19) 0.57978(19) 0.20443(16)
N2 N 0.65689(17) 0.60834(13) 0.58717(14)
N3 N 0.57752(19) 0.64356(14) 0.66374(15)
H3 H 0.556(2) 0.7159(19) 0.6665(19)
C1 C 0.9512(2) 0.60555(17) 0.28926(17)
C2 C 0.9263(2) 0.71281(17) 0.31005(18)
H4 H 0.96330 0.76810 0.27130
C3 C 0.8451(2) 0.73712(16) 0.38978(18)
H5 H 0.82720 0.80950 0.40530
C4 C 0.7902(2) 0.65427(15) 0.44666(16)
C5 C 0.8179(2) 0.54620(15) 0.42375(17)
H6 H 0.78130 0.49040 0.46190
C6 C 0.8992(2) 0.52142(17) 0.34491(17)
H7 H 0.91870 0.44930 0.32960
C7 C 0.7045(2) 0.68283(16) 0.53060(17)
H8 H 0.68470 0.75560 0.54260
C8 C 0.5248(2) 0.56907(15) 0.72756(17)
C9 C 0.43808(19) 0.61181(15) 0.80787(16)
C10 C 0.4143(2) 0.72239(15) 0.82035(17)
H9 H 0.45190 0.77370 0.77710
C11 C 0.3337(2) 0.75522(15) 0.89831(17)
C12 C 0.2777(2) 0.67887(15) 0.96254(17)
H10 H 0.22520 0.70140 1.01580
C13 C 0.2998(2) 0.56961(15) 0.94738(17)
C14 C 0.3817(2) 0.53500(15) 0.87119(16)
H11 H 0.39840 0.46110 0.86280
#END
