
#######################################################################
#
#                 Cambridge Crystallographic Data Centre
#                                CCDC
#
#######################################################################
#
# If this CIF has been generated from an entry in the Cambridge
# Structural Database, then it will include bibliographic, chemical,
# crystal, experimental, refinement or atomic coordinate data resulting
# from the CCDC's data processing and validation procedures.
#
#######################################################################

data_CSD_CIF_SIQKOS
_audit_creation_date 1999-02-18
_audit_creation_method CSD-ConQuest-V1
_database_code_CSD SIQKOS
_chemical_formula_sum 'C26 H32 N5 O4'
_chemical_formula_moiety
;
C26 H32 N5 O4
;
_journal_coden_Cambridge 4
_journal_volume 120
_journal_year 1998
_journal_page_first 7168
_journal_name_full 'J.Am.Chem.Soc. '
loop_
_publ_author_name
"M.Tanaka"
"K.Matsuda"
"T.Itoh"
"H.Iwamura"
_chemical_name_systematic
;
p-(1-Oxy-4,4,5,5-tetramethylimidazolin-2-yl)-phenyl-p-(1-oxyl-3-oxide-4,4,5,5-
tetramethylimidazolin-2-yl)phenyl nitroxide
;
_chemical_melting_point 464.15
_cell_volume   2468.358
_exptl_crystal_colour 'dark brown'
_exptl_crystal_density_diffrn 1.288
_exptl_special_details
;
Melting point range 464.15-465.15K

;
_exptl_crystal_description 'needle'
_diffrn_ambient_temperature 123.2
#These two values have been output from a single CSD field.
_refine_ls_R_factor_gt 0.0657
_refine_ls_wR_factor_gt 0.0657
_symmetry_cell_setting orthorhombic
_symmetry_space_group_name_H-M 'P n a 21'
_symmetry_Int_Tables_number 33
loop_
_symmetry_equiv_pos_site_id
_symmetry_equiv_pos_as_xyz
1 x,y,z
2 -x,-y,1/2+z
3 1/2-x,1/2+y,1/2+z
4 1/2+x,1/2-y,z
_cell_length_a 21.211(4)
_cell_length_b 6.1216(8)
_cell_length_c 19.01(1)
_cell_angle_alpha 90
_cell_angle_beta 90
_cell_angle_gamma 90
_cell_formula_units_Z 4
loop_
_atom_type_symbol
_atom_type_radius_bond
C 0.68
H 0.23
N 0.68
O 0.68
loop_
_atom_site_label
_atom_site_type_symbol
_atom_site_fract_x
_atom_site_fract_y
_atom_site_fract_z
O1 O 0.1281(2) 0.4677(4) 0.5051(7)
O2 O 0.4193(2) 0.0104(6) 0.4428(7)
O3 O 0.2880(2) -0.4023(6) 0.3014(7)
O4 O -0.1650(2) 0.0469(6) 0.5774(7)
N1 N 0.1258(2) 0.2573(5) 0.5059(7)
N2 N 0.3980(2) -0.1172(5) 0.3959(7)
N3 N 0.3361(2) -0.3145(6) 0.3283(7)
N4 N -0.1462(2) -0.0832(6) 0.6263(7)
N5 N -0.0793(2) -0.2787(6) 0.6920(7)
C1 C 0.1776(2) 0.1457(6) 0.4760(7)
C2 C 0.2361(2) 0.2515(6) 0.4726(7)
C3 C 0.2872(2) 0.1532(6) 0.4416(7)
C4 C 0.2823(2) -0.0555(6) 0.4117(7)
C5 C 0.2222(2) -0.1615(6) 0.4140(7)
C6 C 0.1712(2) -0.0649(6) 0.4459(7)
C7 C 0.3377(2) -0.1605(6) 0.3796(7)
C8 C 0.4438(2) -0.2751(7) 0.3597(7)
C9 C 0.4010(2) -0.3583(6) 0.2987(7)
C10 C 0.5012(2) -0.1603(8) 0.3390(7)
C11 C 0.4568(3) -0.4487(8) 0.4153(7)
C12 C 0.4043(3) -0.2212(7) 0.2322(7)
C13 C 0.4071(3) -0.5975(7) 0.2816(7)
C14 C 0.0737(2) 0.1531(6) 0.5402(7)
C15 C 0.0177(2) 0.2729(6) 0.5441(7)
C16 C -0.0340(2) 0.1806(6) 0.5767(7)
C17 C -0.0301(2) -0.0294(6) 0.6070(7)
C18 C 0.0267(2) -0.1433(6) 0.6037(7)
C19 C 0.0789(2) -0.0537(6) 0.5705(7)
C20 C -0.0841(2) -0.1312(6) 0.6425(7)
C21 C -0.1888(2) -0.2385(6) 0.6634(7)
C22 C -0.1446(2) -0.3328(7) 0.7202(7)
C23 C -0.2474(2) -0.1115(8) 0.6918(7)
C24 C -0.2119(3) -0.4054(8) 0.6085(7)
C25 C -0.1492(3) -0.2176(8) 0.7920(7)
C26 C -0.1497(2) -0.5791(7) 0.7306(7)
H1 H 0.24030 0.39350 0.49150
H2 H 0.32640 0.22770 0.43960
H3 H 0.21760 -0.30150 0.39260
H4 H 0.13190 -0.13840 0.44690
H5 H 0.01530 0.41590 0.52400
H6 H -0.07270 0.25890 0.57790
H7 H 0.02970 -0.28420 0.62370
H8 H 0.11760 -0.13220 0.56760
H9 H 0.52920 -0.25970 0.31610
H10 H 0.49090 -0.04600 0.30650
H11 H 0.52080 -0.10050 0.37890
H12 H 0.41840 -0.51820 0.42730
H13 H 0.48510 -0.55470 0.39610
H14 H 0.47500 -0.38240 0.45490
H15 H 0.44440 -0.23980 0.20990
H16 H 0.37230 -0.26720 0.19980
H17 H 0.39830 -0.07200 0.24300
H18 H 0.40090 -0.68100 0.32240
H19 H 0.37600 -0.63650 0.24710
H20 H 0.44770 -0.62590 0.26230
H21 H -0.23410 -0.00470 0.72410
H22 H -0.26850 -0.04220 0.65320
H23 H -0.27530 -0.21130 0.71350
H24 H -0.23980 -0.50630 0.62970
H25 H -0.23360 -0.33120 0.57110
H26 H -0.17700 -0.48170 0.58870
H27 H -0.11780 -0.27510 0.82200
H28 H -0.14250 -0.06540 0.78530
H29 H -0.18960 -0.24200 0.81100
H30 H -0.19060 -0.61440 0.74700
H31 H -0.14330 -0.65080 0.68590
H32 H -0.11890 -0.62640 0.76240
#END
