
#######################################################################
#
#                 Cambridge Crystallographic Data Centre
#                                CCDC
#
#######################################################################
#
# If this CIF has been generated from an entry in the Cambridge
# Structural Database, then it will include bibliographic, chemical,
# crystal, experimental, refinement or atomic coordinate data resulting
# from the CCDC's data processing and validation procedures.
#
#######################################################################

data_CSD_CIF_SIQLEL
_audit_creation_date 2013-12-16
_audit_creation_method CSD-ConQuest-V1
_database_code_CSD SIQLEL
_database_code_depnum_ccdc_archive 'CCDC 879767'
_chemical_formula_sum 'C21 H16 N2 O5'
_chemical_formula_moiety
;
C21 H16 N2 O5
;
_journal_coden_Cambridge 603
_journal_volume 32
_journal_year 2013
_journal_page_first 1749
_journal_name_full 'Jiegou Huaxue(Chin.)(Chin.J.Struct.Chem.) '
loop_
_publ_author_name
"Jing Ma"
"Xiu-Xiao Shi"
"Dian He"
_chemical_name_systematic
;
N-(2-(2-nitrophenyl)acetoxy)-N-phenylbenzamide
;
_cell_volume   3735.003
_exptl_crystal_colour 'yellow'
_exptl_crystal_density_diffrn 1.339
_exptl_crystal_description 'block'
_diffrn_ambient_temperature 296
#These two values have been output from a single CSD field.
_refine_ls_R_factor_gt 0.0506
_refine_ls_wR_factor_gt 0.0506
_symmetry_cell_setting monoclinic
_symmetry_space_group_name_H-M 'C 2/c'
_symmetry_Int_Tables_number 15
loop_
_symmetry_equiv_pos_site_id
_symmetry_equiv_pos_as_xyz
1 x,y,z
2 -x,y,1/2-z
3 1/2+x,1/2+y,z
4 1/2-x,1/2+y,1/2-z
5 -x,-y,-z
6 x,-y,-1/2+z
7 -1/2-x,-1/2-y,-z
8 -1/2+x,-1/2-y,-1/2+z
_cell_length_a 32.30(2)
_cell_length_b 8.400(5)
_cell_length_c 15.099(9)
_cell_angle_alpha 90
_cell_angle_beta 114.256(10)
_cell_angle_gamma 90
_cell_formula_units_Z 8
loop_
_atom_type_symbol
_atom_type_radius_bond
C 0.68
H 0.23
N 0.68
O 0.68
loop_
_atom_site_label
_atom_site_type_symbol
_atom_site_fract_x
_atom_site_fract_y
_atom_site_fract_z
C1 C 0.11321(8) 0.5545(3) 0.87233(18)
H1 H 0.08870 0.49020 0.86610
C2 C 0.10684(10) 0.7146(3) 0.85048(19)
H2 H 0.07800 0.75860 0.83040
C3 C 0.14279(10) 0.8092(3) 0.85820(18)
H3 H 0.13830 0.91710 0.84380
C4 C 0.18527(9) 0.7445(3) 0.88718(18)
H4 H 0.20940 0.80820 0.89060
C5 C 0.19251(8) 0.5847(3) 0.91151(16)
H5 H 0.22150 0.54150 0.93300
C6 C 0.15625(7) 0.4911(2) 0.90346(15)
C7 C 0.12374(8) 0.2082(3) 1.01415(19)
C8 C 0.12471(8) 0.1879(3) 1.11350(18)
H6 H 0.13620 0.28500 1.15020
H7 H 0.14560 0.10270 1.14660
C9 C 0.07875(8) 0.1503(3) 1.11239(16)
C10 C 0.06898(9) -0.0049(3) 1.12772(19)
H8 H 0.09040 -0.08410 1.13580
C11 C 0.02808(10) -0.0452(3) 1.1314(2)
H9 H 0.02230 -0.15070 1.14120
C12 C -0.00371(10) 0.0689(3) 1.1206(2)
H10 H -0.03110 0.04130 1.12280
C13 C 0.00497(9) 0.2237(3) 1.10657(19)
H11 H -0.01640 0.30240 1.09970
C14 C 0.04582(8) 0.2626(3) 1.10265(17)
C15 C 0.19068(7) 0.2166(2) 0.91774(16)
C16 C 0.19524(7) 0.2218(2) 0.82306(15)
C17 C 0.16392(8) 0.2919(3) 0.73898(16)
H12 H 0.13940 0.34790 0.74070
C18 C 0.16892(9) 0.2789(3) 0.65291(17)
H13 H 0.14820 0.32770 0.59700
C19 C 0.20469(10) 0.1931(3) 0.6501(2)
H14 H 0.20770 0.18240 0.59170
C20 C 0.23566(9) 0.1241(3) 0.7318(2)
H15 H 0.25990 0.06730 0.72930
C21 C 0.23125(8) 0.1381(3) 0.81863(17)
H16 H 0.25260 0.09100 0.87450
N1 N 0.16258(6) 0.3271(2) 0.93138(13)
N2 N 0.05307(8) 0.4305(3) 1.08863(17)
O1 O 0.20803(6) 0.11161(18) 0.97654(11)
O2 O 0.15869(5) 0.30706(17) 1.02170(11)
O3 O 0.09872(7) 0.1490(2) 0.94113(14)
O4 O 0.07760(7) 0.4659(2) 1.04823(17)
O5 O 0.03355(8) 0.5295(2) 1.11614(18)
#END
