
#######################################################################
#
#                 Cambridge Crystallographic Data Centre
#                                CCDC
#
#######################################################################
#
# If this CIF has been generated from an entry in the Cambridge
# Structural Database, then it will include bibliographic, chemical,
# crystal, experimental, refinement or atomic coordinate data resulting
# from the CCDC's data processing and validation procedures.
#
#######################################################################

data_CSD_CIF_SIRXAS
_audit_creation_date 1991-08-16
_audit_creation_method CSD-ConQuest-V1
_database_code_CSD SIRXAS
_chemical_formula_sum 'C13 H12 N4 O8'
_chemical_formula_moiety
;
C13 H12 N4 O8
;
_journal_coden_Cambridge 188
_journal_year 1991
_journal_page_first 1
_journal_name_full 'J.Chem.Soc.,Perkin Trans.2 '
loop_
_publ_author_name
"S.Sankararaman"
"J.K.Kochi"
_chemical_name_systematic
;
trans-1,4-Dimethyl-1-nitro-4-trinitromethyl-1,4-dihydronaphthalene
;
_cell_volume   1526.120
_exptl_crystal_colour 'colorless'
_exptl_crystal_density_diffrn 1.53
_diffrn_ambient_temperature ?
_diffrn_special_details
;
The study was carried out at room temperature,in the range 283-303K

;
#These two values have been output from a single CSD field.
_refine_ls_R_factor_gt 0.051
_refine_ls_wR_factor_gt 0.051
_symmetry_cell_setting monoclinic
_symmetry_space_group_name_H-M 'P 21/c'
_symmetry_Int_Tables_number 14
loop_
_symmetry_equiv_pos_site_id
_symmetry_equiv_pos_as_xyz
1 x,y,z
2 -x,1/2+y,1/2-z
3 -x,-y,-z
4 x,-1/2-y,-1/2+z
_cell_length_a 14.890(6)
_cell_length_b 8.802(5)
_cell_length_c 12.247(7)
_cell_angle_alpha 90
_cell_angle_beta 108.05(4)
_cell_angle_gamma 90
_cell_formula_units_Z 4
loop_
_atom_type_symbol
_atom_type_radius_bond
C 0.68
H 0.23
N 0.68
O 0.68
loop_
_atom_site_label
_atom_site_type_symbol
_atom_site_fract_x
_atom_site_fract_y
_atom_site_fract_z
O1 O 0.1218(3) 0.8591(4) 0.6632(4)
O2 O 0.1452(2) 0.8184(4) 0.4992(3)
O3 O 0.3667(2) 0.3560(4) 0.7660(3)
O4 O 0.4951(3) 0.3728(5) 0.7200(3)
O5 O 0.3336(3) 0.0718(4) 0.6788(3)
O6 O 0.2943(3) 0.0654(4) 0.4924(3)
O7 O 0.4842(2) 0.1546(4) 0.5492(3)
O8 O 0.4452(2) 0.3631(4) 0.4529(3)
N1 N 0.1601(3) 0.7943(5) 0.6011(4)
N2 N 0.4124(3) 0.3421(4) 0.6999(3)
N3 N 0.3257(3) 0.1248(4) 0.5869(3)
N4 N 0.4361(3) 0.2682(5) 0.5200(3)
C1 C 0.2769(3) 0.4047(5) 0.5204(4)
C2 C 0.3256(3) 0.5602(5) 0.5374(4)
C3 C 0.3046(3) 0.6720(5) 0.5960(4)
C4 C 0.2348(3) 0.6666(5) 0.6586(4)
C5 C 0.1790(3) 0.5176(5) 0.6405(4)
C6 C 0.1056(3) 0.5041(6) 0.6875(4)
C7 C 0.0513(3) 0.3745(7) 0.6737(5)
C8 C 0.0698(3) 0.2566(6) 0.6100(5)
C9 C 0.1413(3) 0.2678(6) 0.5622(4)
C10 C 0.1995(3) 0.3967(5) 0.5775(4)
C11 C 0.3595(3) 0.2905(5) 0.5788(4)
C12 C 0.2344(4) 0.3754(6) 0.3914(4)
C13 C 0.2782(4) 0.7076(6) 0.7835(4)
H1 H 0.37650 0.57740 0.50140
H2 H 0.33930 0.76980 0.59840
H3 H 0.09160 0.59090 0.73840
H4 H -0.00040 0.36630 0.70940
H5 H 0.03080 0.16190 0.59870
H6 H 0.15230 0.18160 0.51470
H7 H 0.18240 0.44990 0.35750
H8 H 0.28450 0.38730 0.35320
H9 H 0.20840 0.26980 0.37840
H10 H 0.32580 0.62870 0.82230
H11 H 0.30990 0.80870 0.78970
H12 H 0.22760 0.71220 0.82150
#END
