
#######################################################################
#
#                 Cambridge Crystallographic Data Centre
#                                CCDC
#
#######################################################################
#
# If this CIF has been generated from an entry in the Cambridge
# Structural Database, then it will include bibliographic, chemical,
# crystal, experimental, refinement or atomic coordinate data resulting
# from the CCDC's data processing and validation procedures.
#
#######################################################################

data_CSD_CIF_SISGUW
_audit_creation_date 1991-09-04
_audit_creation_method CSD-ConQuest-V1
_database_code_CSD SISGUW
_chemical_formula_sum 'C19 H25 N1 O6'
_chemical_formula_moiety
;
C19 H25 N1 O6
;
_journal_coden_Cambridge 4
_journal_volume 112
_journal_year 1990
_journal_page_first 7625
_journal_name_full 'J.Am.Chem.Soc. '
loop_
_publ_author_name
"D.Seebach"
"M.Missbach"
"G.Calderari"
"M.Eberle"
_chemical_name_systematic
;
(1S,1'R,2'S,3'R)-5-Methoxy-1-(3'-methoxymethoxy-2'-nitrocyclohexyl)-2-tetralon
e
;
_chemical_melting_point 407.15
_cell_volume    930.218
_exptl_crystal_colour 'colorless'
_exptl_crystal_density_diffrn 1.3
_exptl_special_details
;
Melting point range 407.15-409.15K

;
_diffrn_ambient_temperature ?
_diffrn_special_details
;
The study was carried out at room temperature,in the range 283-303K

;
#These two values have been output from a single CSD field.
_refine_ls_R_factor_gt 0.079
_refine_ls_wR_factor_gt 0.079
_symmetry_cell_setting monoclinic
_symmetry_space_group_name_H-M 'P 21'
_symmetry_Int_Tables_number 4
loop_
_symmetry_equiv_pos_site_id
_symmetry_equiv_pos_as_xyz
1 x,y,z
2 -x,1/2+y,-z
_cell_length_a 10.162(2)
_cell_length_b 7.717(1)
_cell_length_c 12.471(7)
_cell_angle_alpha 90
_cell_angle_beta 107.98(3)
_cell_angle_gamma 90
_cell_formula_units_Z 2
loop_
_atom_type_symbol
_atom_type_radius_bond
C 0.68
H 0.23
N 0.68
O 0.68
loop_
_atom_site_label
_atom_site_type_symbol
_atom_site_fract_x
_atom_site_fract_y
_atom_site_fract_z
C1 C 0.0899(2) 0.10310 0.8638(2)
C2 C 0.0729(3) 0.2576(6) 0.9347(2)
C3 C 0.1896(3) 0.3854(7) 0.9731(3)
C4 C 0.2710(3) 0.4075(6) 0.8894(3)
C5 C 0.4457(3) 0.2169(6) 0.8411(2)
C6 C 0.4924(3) 0.0561(7) 0.8208(3)
C7 C 0.4129(3) -0.0878(7) 0.8178(3)
C8 C 0.2833(3) -0.0745(6) 0.8322(3)
C9 C 0.2337(3) 0.0872(6) 0.8507(2)
C10 C 0.3157(3) 0.2336(6) 0.8587(2)
C11 C 0.6522(3) 0.3628(9) 0.8373(4)
C12 C -0.1730(3) -0.0398(6) 0.5723(2)
C13 C -0.0530(3) -0.0534(5) 0.6817(2)
C14 C -0.0314(3) 0.1122(5) 0.7518(2)
C15 C -0.0158(3) 0.2651(6) 0.6776(2)
C16 C -0.1364(3) 0.2760(6) 0.5674(3)
C17 C -0.1490(3) 0.1084(6) 0.5019(3)
C18 C -0.3032(3) -0.2347(7) 0.4310(3)
C19 C -0.4306(5) -0.3770(9) 0.5325(6)
N1 N -0.0880(3) -0.2011(6) 0.7486(2)
O1 O -0.0318(2) 0.2741(5) 0.9601(2)
O2 O 0.5148(2) 0.3684(6) 0.8433(2)
O3 O -0.1794(2) -0.2059(5) 0.5195(2)
O4 O -0.0088(3) -0.3245(5) 0.7702(3)
O5 O -0.1935(3) -0.1888(6) 0.7744(2)
O6 O -0.4186(2) -0.2320(6) 0.4667(3)
H1 H 0.0834(2) -0.0170(7) 0.9064(2)
H2 H 0.1478(3) 0.5095(7) 0.9860(3)
H3 H 0.2601(3) 0.3400(7) 1.0519(3)
H4 H 0.3615(3) 0.4863(8) 0.9265(3)
H5 H 0.2056(3) 0.4703(6) 0.8144(3)
H6 H 0.5927(3) 0.0801(7) 0.8107(3)
H7 H 0.4246(3) -0.2245(7) 0.8044(3)
H8 H 0.2025(3) -0.1645(6) 0.8338(3)
H9 H 0.6924(3) 0.4928(9) 0.8403(4)
H10 H 0.6517(3) 0.3017(9) 0.7592(4)
H11 H 0.7167(3) 0.2890(9) 0.9075(4)
H12 H -0.2711(3) -0.0108(6) 0.5849(2)
H13 H 0.0422(3) -0.0755(5) 0.6624(2)
H14 H -0.1226(3) 0.1319(5) 0.7774(2)
H15 H -0.0113(3) 0.3843(6) 0.7240(2)
H16 H 0.0795(3) 0.2485(6) 0.6575(2)
H17 H -0.1183(3) 0.3813(6) 0.5167(3)
H18 H -0.2314(3) 0.2992(6) 0.5869(3)
H19 H -0.2347(3) 0.1174(6) 0.4251(3)
H20 H -0.0545(3) 0.0857(6) 0.4816(3)
H21 H -0.2970(3) -0.3588(7) 0.3929(3)
H22 H -0.3143(3) -0.1335(7) 0.3690(3)
H23 H -0.5231(5) -0.3631(9) 0.5570(6)
H24 H -0.3411(5) -0.3773(9) 0.6068(6)
H25 H -0.4350(5) -0.4975(9) 0.4874(6)
#END
