
#######################################################################
#
#                 Cambridge Crystallographic Data Centre
#                                CCDC
#
#######################################################################
#
# If this CIF has been generated from an entry in the Cambridge
# Structural Database, then it will include bibliographic, chemical,
# crystal, experimental, refinement or atomic coordinate data resulting
# from the CCDC's data processing and validation procedures.
#
#######################################################################

data_CSD_CIF_SITPIW
_audit_creation_date 2013-12-18
_audit_creation_method CSD-ConQuest-V1
_database_code_CSD SITPIW
_database_code_depnum_ccdc_archive 'CCDC 917514'
_chemical_formula_sum 'C7 H3 N9 O4'
_chemical_formula_moiety
;
C7 H3 N9 O4
;
_journal_coden_Cambridge 920
_journal_volume 9
_journal_year 2014
_journal_page_first 166
_journal_name_full 'Chem.Asian J. '
loop_
_publ_author_name
"N.Kommu"
"V.D.Ghule"
"A.Sudheer Kumar"
"A.K.Sahoo"
_chemical_name_systematic
;
2-(3-Azido-1H-1,2,4-triazol-1-yl)-3,5-dinitropyridine
;
_cell_volume   1074.974
_exptl_crystal_density_diffrn 1.713
_diffrn_ambient_temperature 293
#These two values have been output from a single CSD field.
_refine_ls_R_factor_gt 0.0358
_refine_ls_wR_factor_gt 0.0358
_symmetry_cell_setting monoclinic
_symmetry_space_group_name_H-M 'P 21/c'
_symmetry_Int_Tables_number 14
loop_
_symmetry_equiv_pos_site_id
_symmetry_equiv_pos_as_xyz
1 x,y,z
2 -x,1/2+y,1/2-z
3 -x,-y,-z
4 x,-1/2-y,-1/2+z
_cell_length_a 8.7224(7)
_cell_length_b 11.0778(7)
_cell_length_c 11.2959(8)
_cell_angle_alpha 90
_cell_angle_beta 99.973(7)
_cell_angle_gamma 90
_cell_formula_units_Z 4
loop_
_atom_type_symbol
_atom_type_radius_bond
C 0.68
H 0.23
N 0.68
O 0.68
loop_
_atom_site_label
_atom_site_type_symbol
_atom_site_fract_x
_atom_site_fract_y
_atom_site_fract_z
N1 N 0.72174(14) 0.10345(10) 0.76907(10)
N2 N 0.61298(13) 0.19755(9) 0.59481(10)
N3 N 0.54772(14) 0.19752(10) 0.47464(10)
C1 C 0.70324(15) 0.10217(11) 0.65011(12)
N4 N 0.28637(15) 0.41584(11) 0.36305(10)
O1 O 0.83141(15) 0.09639(11) 0.41804(10)
N5 N 0.76233(14) 0.01494(11) 0.45669(11)
C2 C 0.85350(16) -0.08367(12) 0.77273(13)
C3 C 0.83910(16) -0.08572(12) 0.64926(13)
H1 H 0.87760 -0.14960 0.60970
C4 C 0.76542(15) 0.01063(12) 0.58728(12)
O2 O 0.93680(17) -0.17912(11) 0.95363(12)
N6 N 0.46255(16) 0.35697(11) 0.57262(11)
N7 N 0.92781(16) -0.18442(11) 0.84466(13)
N8 N 0.37123(16) 0.32582(11) 0.35782(11)
C5 C 0.46077(17) 0.29448(12) 0.46798(12)
C6 C 0.55758(18) 0.29292(12) 0.64982(13)
H2 H 0.58380 0.31020 0.73140
C7 C 0.79779(17) 0.01296(13) 0.82999(13)
H3 H 0.81400 0.01460 0.91350
O3 O 0.6958(2) -0.06572(13) 0.39674(11)
N9 N 0.20398(17) 0.49408(13) 0.35428(12)
O4 O 0.97641(17) -0.26842(11) 0.79120(13)
#END
