
#######################################################################
#
#                 Cambridge Crystallographic Data Centre
#                                CCDC
#
#######################################################################
#
# If this CIF has been generated from an entry in the Cambridge
# Structural Database, then it will include bibliographic, chemical,
# crystal, experimental, refinement or atomic coordinate data resulting
# from the CCDC's data processing and validation procedures.
#
#######################################################################

data_CSD_CIF_SITPOC
_audit_creation_date 2013-12-18
_audit_creation_method CSD-ConQuest-V1
_database_code_CSD SITPOC
_database_code_depnum_ccdc_archive 'CCDC 917513'
_chemical_formula_sum 'C8 H6 N6 O4'
_chemical_formula_moiety
;
C8 H6 N6 O4
;
_journal_coden_Cambridge 920
_journal_volume 9
_journal_year 2014
_journal_page_first 166
_journal_name_full 'Chem.Asian J. '
loop_
_publ_author_name
"N.Kommu"
"V.D.Ghule"
"A.Sudheer Kumar"
"A.K.Sahoo"
_chemical_name_systematic
;
2,4-Dinitro-6-(1H-1,2,4-triazol-1-yl)aniline
;
_cell_volume   2006.800
_exptl_crystal_density_diffrn 1.424
_diffrn_ambient_temperature 273
#These two values have been output from a single CSD field.
_refine_ls_R_factor_gt 0.0431
_refine_ls_wR_factor_gt 0.0431
_symmetry_cell_setting orthorhombic
_symmetry_space_group_name_H-M 'P b c n'
_symmetry_Int_Tables_number 60
loop_
_symmetry_equiv_pos_site_id
_symmetry_equiv_pos_as_xyz
1 x,y,z
2 1/2-x,1/2-y,1/2+z
3 -x,y,1/2-z
4 1/2+x,1/2-y,-z
5 -x,-y,-z
6 -1/2+x,-1/2+y,-1/2-z
7 x,-y,-1/2+z
8 -1/2-x,-1/2+y,z
_cell_length_a 17.034(2)
_cell_length_b 7.6578(9)
_cell_length_c 15.3845(19)
_cell_angle_alpha 90
_cell_angle_beta 90
_cell_angle_gamma 90
_cell_formula_units_Z 8
loop_
_atom_type_symbol
_atom_type_radius_bond
C 0.68
H 0.23
N 0.68
O 0.68
loop_
_atom_site_label
_atom_site_type_symbol
_atom_site_fract_x
_atom_site_fract_y
_atom_site_fract_z
N1 N 0.63535(7) 0.84670(17) 0.72066(8)
N2 N 0.57907(8) 0.7355(2) 0.55941(9)
H1 H 0.56030 0.69930 0.51080
H2 H 0.54790 0.76730 0.60040
N3 N 0.90256(8) 0.8005(2) 0.61336(10)
O1 O 0.94732(8) 0.7333(3) 0.56101(10)
C1 C 0.76669(9) 0.8216(2) 0.66533(10)
H3 H 0.78520 0.86390 0.71820
C2 C 0.68833(9) 0.8013(2) 0.65171(10)
N4 N 0.62170(8) 1.01693(19) 0.74029(10)
O2 O 0.92437(8) 0.8824(2) 0.67671(9)
N5 N 0.69053(9) 0.6188(2) 0.42533(9)
N6 N 0.55971(9) 0.8408(2) 0.83458(9)
C3 C 0.81877(9) 0.7784(2) 0.59916(10)
C4 C 0.79314(10) 0.7113(2) 0.52221(10)
H4 H 0.82890 0.67810 0.47960
O3 O 0.74127(9) 0.5672(3) 0.37608(9)
O4 O 0.62088(8) 0.6062(2) 0.40710(9)
C5 C 0.71327(10) 0.6931(2) 0.50802(10)
C6 C 0.59844(11) 0.7451(2) 0.77813(11)
H5 H 0.59990 0.62370 0.77820
C7 C 0.65594(9) 0.7422(2) 0.57112(10)
C8 C 0.5761(1) 1.0048(3) 0.80856(12)
H6 H 0.55640 1.10250 0.83710
#END
