
#######################################################################
#
#                 Cambridge Crystallographic Data Centre
#                                CCDC
#
#######################################################################
#
# If this CIF has been generated from an entry in the Cambridge
# Structural Database, then it will include bibliographic, chemical,
# crystal, experimental, refinement or atomic coordinate data resulting
# from the CCDC's data processing and validation procedures.
#
#######################################################################

data_CSD_CIF_SITQUJ
_audit_creation_date 2013-12-18
_audit_creation_method CSD-ConQuest-V1
_database_code_CSD SITQUJ
_database_code_depnum_ccdc_archive 'CCDC 902992'
_chemical_formula_sum 'C9 H7 N5 O5'
_chemical_formula_moiety
;
C9 H7 N5 O5
;
_journal_coden_Cambridge 920
_journal_volume 9
_journal_year 2014
_journal_page_first 166
_journal_name_full 'Chem.Asian J. '
loop_
_publ_author_name
"N.Kommu"
"V.D.Ghule"
"A.Sudheer Kumar"
"A.K.Sahoo"
_chemical_name_systematic
;
1-(2-Methoxy-3,5-dinitrophenyl)-1H-1,2,4-triazole
;
_cell_volume    553.511
_exptl_crystal_density_diffrn 1.591
_diffrn_ambient_temperature 293
#These two values have been output from a single CSD field.
_refine_ls_R_factor_gt 0.0423
_refine_ls_wR_factor_gt 0.0423
_symmetry_cell_setting triclinic
_symmetry_space_group_name_H-M 'P -1'
_symmetry_Int_Tables_number 2
loop_
_symmetry_equiv_pos_site_id
_symmetry_equiv_pos_as_xyz
1 x,y,z
2 -x,-y,-z
_cell_length_a 7.6629(8)
_cell_length_b 8.7248(9)
_cell_length_c 9.0375(10)
_cell_angle_alpha 66.998(10)
_cell_angle_beta 85.000(9)
_cell_angle_gamma 85.696(9)
_cell_formula_units_Z 2
loop_
_atom_type_symbol
_atom_type_radius_bond
C 0.68
H 0.23
N 0.68
O 0.68
loop_
_atom_site_label
_atom_site_type_symbol
_atom_site_fract_x
_atom_site_fract_y
_atom_site_fract_z
O1 O 0.36635(15) 0.55058(14) 0.14513(15)
N1 N 0.09080(18) 1.13243(18) -0.32678(18)
N2 N 0.34976(17) 0.85757(17) 0.18855(16)
C1 C 0.2157(2) 0.9873(2) -0.06488(19)
H1 H 0.20780 1.08770 -0.05090
O2 O 0.07113(18) 1.13013(17) -0.45899(15)
C2 C 0.1663(2) 0.8323(2) -0.2277(2)
H2 H 0.12960 0.82960 -0.32200
C3 C 0.2313(2) 0.6900(2) -0.1076(2)
C4 C 0.15826(19) 0.97830(19) -0.20159(19)
O3 O 0.06031(19) 1.25375(16) -0.29204(17)
C5 C 0.2856(2) 0.8434(2) 0.05173(19)
N3 N 0.4957(2) 0.8355(2) 0.39509(18)
C6 C 0.2912(2) 0.6898(2) 0.0339(2)
N4 N 0.2365(2) 0.5355(2) -0.1393(2)
O4 O 0.2655(2) 0.55018(19) -0.27908(19)
C7 C 0.3838(2) 0.9710(3) 0.3484(2)
H3 H 0.37190 1.04460 0.40070
N5 N 0.2937(2) 0.9918(2) 0.2256(2)
O5 O 0.2114(3) 0.4045(2) -0.0273(2)
C8 C 0.4706(2) 0.7675(2) 0.2922(2)
H4 H 0.52850 0.67030 0.29120
C9 C 0.2534(3) 0.4553(3) 0.2831(2)
H5 H 0.17120 0.39890 0.25000
H6 H 0.19090 0.52910 0.32690
H7 H 0.32330 0.37480 0.36360
#END
