
#######################################################################
#
#                 Cambridge Crystallographic Data Centre
#                                CCDC
#
#######################################################################
#
# If this CIF has been generated from an entry in the Cambridge
# Structural Database, then it will include bibliographic, chemical,
# crystal, experimental, refinement or atomic coordinate data resulting
# from the CCDC's data processing and validation procedures.
#
#######################################################################

data_CSD_CIF_SITQET
_audit_creation_date 2013-12-18
_audit_creation_method CSD-ConQuest-V1
_database_code_CSD SITQET
_database_code_depnum_ccdc_archive 'CCDC 902995'
_chemical_formula_sum 'C9 H7 N5 O4'
_chemical_formula_moiety
;
C9 H7 N5 O4
;
_journal_coden_Cambridge 920
_journal_volume 9
_journal_year 2014
_journal_page_first 166
_journal_name_full 'Chem.Asian J. '
loop_
_publ_author_name
"N.Kommu"
"V.D.Ghule"
"A.Sudheer Kumar"
"A.K.Sahoo"
_chemical_name_systematic
;
1-(5-Methyl-2,4-dinitrophenyl)-1H-1,2,4-triazole
;
_cell_volume   2189.274
_exptl_crystal_density_diffrn 1.512
_diffrn_ambient_temperature 273
#These two values have been output from a single CSD field.
_refine_ls_R_factor_gt 0.0831
_refine_ls_wR_factor_gt 0.0831
_symmetry_cell_setting orthorhombic
_symmetry_space_group_name_H-M 'P b c a'
_symmetry_Int_Tables_number 61
loop_
_symmetry_equiv_pos_site_id
_symmetry_equiv_pos_as_xyz
1 x,y,z
2 1/2-x,-y,1/2+z
3 -x,1/2+y,1/2-z
4 1/2+x,1/2-y,-z
5 -x,-y,-z
6 -1/2+x,y,-1/2-z
7 x,-1/2-y,-1/2+z
8 -1/2-x,-1/2+y,z
_cell_length_a 14.161(3)
_cell_length_b 10.7817(19)
_cell_length_c 14.339(3)
_cell_angle_alpha 90
_cell_angle_beta 90
_cell_angle_gamma 90
_cell_formula_units_Z 8
loop_
_atom_type_symbol
_atom_type_radius_bond
C 0.68
H 0.23
N 0.68
O 0.68
loop_
_atom_site_label
_atom_site_type_symbol
_atom_site_fract_x
_atom_site_fract_y
_atom_site_fract_z
N1 N 0.43742(19) -0.0051(3) 0.6899(2)
N2 N 0.6224(2) -0.1159(3) 0.6725(2)
C1 C 0.6631(2) 0.0512(3) 0.5672(2)
H1 H 0.72060 0.01190 0.55690
N3 N 0.7206(2) 0.2160(3) 0.4686(2)
C2 C 0.6438(2) 0.1637(3) 0.5263(2)
C3 C 0.5963(2) -0.0019(3) 0.6230(2)
C4 C 0.4209(2) -0.1278(3) 0.6863(2)
H2 H 0.45030 -0.18690 0.64900
C5 C 0.5575(3) 0.2250(3) 0.5380(3)
C6 C 0.5083(2) 0.0530(3) 0.6357(2)
C7 C 0.4903(2) 0.1645(3) 0.5917(3)
H3 H 0.43090 0.20030 0.59820
N4 N 0.3537(3) -0.1444(4) 0.7472(3)
C8 C 0.3260(3) -0.0409(4) 0.7902(3)
H4 H 0.27980 -0.03210 0.83590
N5 N 0.3788(3) 0.0450(5) 0.7533(4)
O1 O 0.6577(2) -0.1990(2) 0.6274(2)
O2 O 0.6092(2) -0.1195(3) 0.7563(2)
O3 O 0.7176(2) 0.3233(3) 0.4457(2)
O4 O 0.7839(2) 0.1465(3) 0.4463(2)
C9 C 0.5314(4) 0.3469(3) 0.4949(4)
H5 H 0.46900 0.36990 0.51440
H6 H 0.53310 0.33970 0.42820
H7 H 0.57550 0.40930 0.51460
#END
