
#######################################################################
#
#                 Cambridge Crystallographic Data Centre
#                                CCDC
#
#######################################################################
#
# If this CIF has been generated from an entry in the Cambridge
# Structural Database, then it will include bibliographic, chemical,
# crystal, experimental, refinement or atomic coordinate data resulting
# from the CCDC's data processing and validation procedures.
#
#######################################################################

data_CSD_CIF_SIVKOZ
_audit_creation_date 2013-12-20
_audit_creation_method CSD-ConQuest-V1
_database_code_CSD SIVKOZ
_database_code_depnum_ccdc_archive 'CCDC 940233'
_chemical_formula_sum 'C24 H32 N4 O8'
_chemical_formula_moiety
;
C24 H32 N4 O8
;
_journal_coden_Cambridge 580
_journal_volume 68
_journal_year 2014
_journal_page_first 191
_journal_name_full 'Polyhedron '
loop_
_publ_author_name
"L.Boubekeur-Lecaque"
"C.Souffrin"
"G.Gontard"
"K.Boubekeur"
"C.Amatore"
_chemical_name_systematic
;
7,16-bis(2-nitrophenyl)-1,4,10,13-tetraoxa-7,16-diazacyclooctadecane
;
_cell_volume   1241.270
_exptl_crystal_colour 'yellow'
_exptl_crystal_density_diffrn 1.35
_exptl_crystal_description 'block'
_diffrn_ambient_temperature 200
#These two values have been output from a single CSD field.
_refine_ls_R_factor_gt 0.0431
_refine_ls_wR_factor_gt 0.0431
_symmetry_cell_setting monoclinic
_symmetry_space_group_name_H-M 'P 21/c'
_symmetry_Int_Tables_number 14
loop_
_symmetry_equiv_pos_site_id
_symmetry_equiv_pos_as_xyz
1 x,y,z
2 -x,1/2+y,1/2-z
3 -x,-y,-z
4 x,-1/2-y,-1/2+z
_cell_length_a 7.8791(6)
_cell_length_b 8.7413(7)
_cell_length_c 18.0281(14)
_cell_angle_alpha 90
_cell_angle_beta 91.436(3)
_cell_angle_gamma 90
_cell_formula_units_Z 2
loop_
_atom_type_symbol
_atom_type_radius_bond
C 0.68
H 0.23
N 0.68
O 0.68
loop_
_atom_site_label
_atom_site_type_symbol
_atom_site_fract_x
_atom_site_fract_y
_atom_site_fract_z
O1 O 0.01286(11) -0.05825(10) -0.15423(5)
O2 O 0.26792(11) 0.15053(10) -0.09296(5)
O3 O 0.58656(17) 0.39206(17) 0.20739(7)
O4 O 0.64205(15) 0.42379(18) 0.09149(10)
N1 N 0.29471(12) 0.22277(11) 0.10898(5)
N2 N 0.54799(14) 0.43092(13) 0.14410(8)
C1 C -0.27099(15) -0.14155(14) -0.17928(7)
H1 H -0.31280 -0.03790 -0.17350
H2 H -0.34200 -0.19060 -0.21700
C2 C -0.09269(16) -0.13243(15) -0.20795(7)
H3 H -0.05000 -0.23450 -0.21730
H4 H -0.09280 -0.07560 -0.25420
C3 C 0.18484(15) -0.05148(16) -0.17524(7)
H5 H 0.19780 0.02330 -0.21440
H6 H 0.22060 -0.15040 -0.19360
C4 C 0.29149(16) -0.00714(16) -0.10866(7)
H7 H 0.25950 -0.06800 -0.06630
H8 H 0.41020 -0.02670 -0.11810
C5 C 0.34023(14) 0.19561(15) -0.02345(7)
H9 H 0.34960 0.30620 -0.02220
H10 H 0.45390 0.15350 -0.01840
C6 C 0.23601(15) 0.14265(14) 0.04176(7)
H11 H 0.11680 0.16450 0.03210
H12 H 0.24880 0.03310 0.04840
C7 C 0.25011(14) 0.38091(13) 0.11141(6)
C8 C 0.08754(15) 0.43737(15) 0.09660(7)
H13 H 0.00030 0.37030 0.08340
C9 C 0.05459(17) 0.59303(16) 0.10136(8)
H14 H -0.05460 0.62900 0.09110
C10 C 0.18125(19) 0.69508(15) 0.12111(8)
H15 H 0.15680 0.79890 0.12460
C11 C 0.34494(18) 0.64319(14) 0.13572(8)
H16 H 0.43180 0.71070 0.14890
C12 C 0.37484(14) 0.48776(14) 0.13000(7)
O1B O -0.01286(11) 0.05825(10) 0.15423(5)
O2B O -0.26792(11) -0.15053(10) 0.09296(5)
O3B O -0.58656(17) -0.39206(17) -0.20739(7)
O4B O -0.64205(15) -0.42379(18) -0.09149(10)
N1B N -0.29471(12) -0.22277(11) -0.10898(5)
N2B N -0.54799(14) -0.43092(13) -0.14410(8)
C1B C 0.27099(15) 0.14155(14) 0.17928(7)
H1B H 0.31280 0.03790 0.17350
H2B H 0.34200 0.19060 0.21700
C2B C 0.09269(16) 0.13243(15) 0.20795(7)
H3B H 0.05000 0.23450 0.21730
H4B H 0.09280 0.07560 0.25420
C3B C -0.18484(15) 0.05148(16) 0.17524(7)
H5B H -0.19780 -0.02330 0.21440
H6B H -0.22060 0.15040 0.19360
C4B C -0.29149(16) 0.00714(16) 0.10866(7)
H7B H -0.25950 0.06800 0.06630
H8B H -0.41020 0.02670 0.11810
C5B C -0.34023(14) -0.19561(15) 0.02345(7)
H9B H -0.34960 -0.30620 0.02220
H10B H -0.45390 -0.15350 0.01840
C6B C -0.23601(15) -0.14265(14) -0.04176(7)
H11B H -0.11680 -0.16450 -0.03210
H12B H -0.24880 -0.03310 -0.04840
C7B C -0.25011(14) -0.38091(13) -0.11141(6)
C8B C -0.08754(15) -0.43737(15) -0.09660(7)
H13B H -0.00030 -0.37030 -0.08340
C9B C -0.05459(17) -0.59303(16) -0.10136(8)
H14B H 0.05460 -0.62900 -0.09110
C10B C -0.18125(19) -0.69508(15) -0.12111(8)
H15B H -0.15680 -0.79890 -0.12460
C11B C -0.34494(18) -0.64319(14) -0.13572(8)
H16B H -0.43180 -0.71070 -0.14890
C12B C -0.37484(14) -0.48776(14) -0.13000(7)
#END
