
#######################################################################
#
#                 Cambridge Crystallographic Data Centre
#                                CCDC
#
#######################################################################
#
# If this CIF has been generated from an entry in the Cambridge
# Structural Database, then it will include bibliographic, chemical,
# crystal, experimental, refinement or atomic coordinate data resulting
# from the CCDC's data processing and validation procedures.
#
#######################################################################

data_CSD_CIF_SIVNAO
_audit_creation_date 2013-12-20
_audit_creation_method CSD-ConQuest-V1
_database_code_CSD SIVNAO
_database_code_depnum_ccdc_archive 'CCDC 946298'
_chemical_formula_sum 'C26 H17 N1 O5'
_chemical_formula_moiety
;
C26 H17 N1 O5
;
_journal_coden_Cambridge 1048
_journal_volume 16
_journal_year 2014
_journal_page_first 1426
_journal_name_full 'Green Chemistry '
loop_
_publ_author_name
"P.Das"
"A.Dutta"
"A.Bhaumik"
"C.Mukhopadhyay"
_chemical_name_systematic
;
7a-Hydroxy-13-(4-nitrophenyl)-12a,13-dihydrobenzo[f]indeno[1,2-b]chromen-12(7a
H)-one
;
_cell_volume    986.364
_exptl_crystal_density_diffrn 1.426
_diffrn_ambient_temperature 296
#These two values have been output from a single CSD field.
_refine_ls_R_factor_gt 0.0635
_refine_ls_wR_factor_gt 0.0635
_symmetry_cell_setting triclinic
_symmetry_space_group_name_H-M 'P -1'
_symmetry_Int_Tables_number 2
loop_
_symmetry_equiv_pos_site_id
_symmetry_equiv_pos_as_xyz
1 x,y,z
2 -x,-y,-z
_cell_length_a 6.937(5)
_cell_length_b 11.638(9)
_cell_length_c 13.019(10)
_cell_angle_alpha 75.535(8)
_cell_angle_beta 89.874(9)
_cell_angle_gamma 76.165(8)
_cell_formula_units_Z 2
loop_
_atom_type_symbol
_atom_type_radius_bond
C 0.68
H 0.23
N 0.68
O 0.68
loop_
_atom_site_label
_atom_site_type_symbol
_atom_site_fract_x
_atom_site_fract_y
_atom_site_fract_z
O1 O -0.0536(8) 1.0095(4) 0.6188(4)
O2 O -0.3101(9) 0.9407(4) 0.5975(4)
O3 O -0.0949(3) 0.3918(2) 0.9546(2)
H1 H -0.18200 0.35410 0.96340
O4 O 0.0425(3) 0.2915(2) 0.83508(18)
O5 O 0.5898(4) 0.2877(3) 1.0013(2)
C1 C 0.0795(5) 0.3172(3) 0.9344(3)
N1 N -0.142(1) 0.9278(4) 0.6290(4)
C2 C -0.0285(8) 0.8028(4) 0.6831(3)
C3 C -0.1167(7) 0.7085(4) 0.6940(3)
H2 H -0.24850 0.72270 0.66990
C4 C -0.0082(6) 0.5917(4) 0.7411(3)
H3 H -0.06720 0.52650 0.74810
C5 C 0.1861(5) 0.5695(3) 0.7782(3)
C6 C 0.3108(5) 0.4420(3) 0.8259(3)
H4 H 0.44680 0.44910 0.83650
C7 C 0.2492(5) 0.3803(3) 0.9339(3)
H5 H 0.21140 0.44200 0.97440
C8 C 0.4208(5) 0.2794(4) 0.9956(3)
C9 C 0.3458(5) 0.1748(3) 1.0468(3)
C10 C 0.4457(6) 0.0669(4) 1.1176(3)
H6 H 0.57930 0.05320 1.13820
C11 C 0.3409(7) -0.0188(4) 1.1563(4)
H7 H 0.40340 -0.09230 1.20410
C12 C 0.1851(5) 0.2887(3) 0.7631(3)
C13 C 0.1803(6) 0.2124(3) 0.6954(3)
H8 H 0.08610 0.16640 0.70230
C14 C 0.3135(6) 0.2067(4) 0.6203(3)
H9 H 0.31100 0.15530 0.57610
C15 C 0.4559(6) 0.2759(3) 0.6068(3)
C16 C 0.5970(7) 0.2688(4) 0.5298(3)
H10 H 0.59710 0.21630 0.48630
C17 C 0.7319(6) 0.3361(4) 0.5173(3)
H11 H 0.82400 0.33010 0.46570
C18 C 0.7334(6) 0.4147(4) 0.5819(3)
H12 H 0.82590 0.46200 0.57270
C19 C 0.6018(5) 0.4231(4) 0.6578(3)
H13 H 0.60570 0.47580 0.70060
C20 C 0.4586(5) 0.3536(3) 0.6736(3)
C21 C 0.3192(5) 0.3592(3) 0.7527(3)
C22 C 0.1496(5) 0.1962(3) 1.0161(3)
C23 C 0.0454(6) 0.1099(4) 1.0557(3)
H14 H -0.08860 0.12370 1.03590
C24 C 0.1449(7) 0.0031(4) 1.1250(3)
H15 H 0.07670 -0.05670 1.15180
C25 C 0.2678(7) 0.6689(4) 0.7670(3)
H16 H 0.39840 0.65620 0.79240
C26 C 0.1618(8) 0.7853(4) 0.7195(4)
H17 H 0.21910 0.85120 0.71240
#END
