
#######################################################################
#
#                 Cambridge Crystallographic Data Centre
#                                CCDC
#
#######################################################################
#
# If this CIF has been generated from an entry in the Cambridge
# Structural Database, then it will include bibliographic, chemical,
# crystal, experimental, refinement or atomic coordinate data resulting
# from the CCDC's data processing and validation procedures.
#
#######################################################################

data_CSD_CIF_SIVREU
_audit_creation_date 1991-10-23
_audit_creation_method CSD-ConQuest-V1
_database_code_CSD SIVREU
_chemical_formula_sum 'C14 H15 N1 O3'
_chemical_formula_moiety
;
C14 H15 N1 O3
;
_journal_coden_Cambridge 35
_journal_volume 56
_journal_year 1991
_journal_page_first 703
_journal_name_full 'J.Org.Chem. '
loop_
_publ_author_name
"C.M.Moorhoff"
"L.A.Paquette"
_chemical_name_systematic
;
1-(Norborn-4-en-2-on-1-yl)-1-hydroxynorborn-4-en-2-one oxime
;
_chemical_melting_point 432.15
_cell_volume   2403.514
_exptl_crystal_colour 'yellow'
_exptl_crystal_density_diffrn 1.35
_exptl_special_details
;
Melting point range 432.15-434.15K

;
_diffrn_ambient_temperature ?
_diffrn_special_details
;
The study was carried out at room temperature,in the range 283-303K

;
#These two values have been output from a single CSD field.
_refine_ls_R_factor_gt 0.048
_refine_ls_wR_factor_gt 0.048
_symmetry_cell_setting monoclinic
_symmetry_space_group_name_H-M 'C 2/c'
_symmetry_Int_Tables_number 15
loop_
_symmetry_equiv_pos_site_id
_symmetry_equiv_pos_as_xyz
1 x,y,z
2 1/2+x,1/2+y,z
3 -x,y,1/2-z
4 1/2-x,1/2+y,1/2-z
5 -x,-y,-z
6 -1/2-x,-1/2-y,-z
7 x,-y,-1/2+z
8 -1/2+x,-1/2-y,-1/2+z
_cell_length_a 18.165(2)
_cell_length_b 6.091(2)
_cell_length_c 22.264(2)
_cell_angle_alpha 90
_cell_angle_beta 102.655(7)
_cell_angle_gamma 90
_cell_formula_units_Z 8
loop_
_atom_type_symbol
_atom_type_radius_bond
C 0.68
H 0.23
N 0.68
O 0.68
loop_
_atom_site_label
_atom_site_type_symbol
_atom_site_fract_x
_atom_site_fract_y
_atom_site_fract_z
O1 O 0.7456(1) -0.0905(4) 0.1765(1)
O2 O 0.8263(1) -0.0856(5) 0.0105(1)
O3 O 0.6390(1) 0.2414(5) 0.2227(1)
N1 N 0.7749(1) -0.0745(5) 0.0507(1)
C1 C 0.7507(2) 0.1063(5) 0.1434(1)
C2 C 0.7943(2) 0.0709(6) 0.0920(1)
C3 C 0.8608(2) 0.2279(6) 0.1047(2)
C4 C 0.9108(2) 0.1432(6) 0.1643(2)
C5 C 0.8760(2) 0.1816(6) 0.2087(2)
C6 C 0.8012(2) 0.2888(6) 0.1815(1)
C7 C 0.8241(2) 0.4233(6) 0.1302(2)
C8 C 0.6690(2) 0.1879(5) 0.1205(1)
C9 C 0.6240(2) 0.1642(6) 0.1718(2)
C10 C 0.5547(2) 0.0271(7) 0.1443(2)
C11 C 0.5093(2) 0.1809(7) 0.0971(2)
C12 C 0.5448(2) 0.2033(7) 0.0526(2)
C13 C 0.6156(2) 0.0634(7) 0.0674(1)
C14 C 0.5875(2) -0.1254(6) 0.1023(2)
H1 H 0.787(2) -0.125(7) 0.201(2)
H2 H 0.805(2) -0.191(7) -0.014(2)
H3 H 0.88500 0.25800 0.07100
H4 H 0.96000 0.07300 0.16900
H5 H 0.89500 0.14600 0.25200
H6 H 0.77800 0.37200 0.21000
H7 H 0.86000 0.54100 0.14600
H8 H 0.78100 0.48400 0.10100
H9 H 0.67000 0.34300 0.10900
H10 H 0.52800 -0.04200 0.17300
H11 H 0.46200 0.25200 0.10000
H12 H 0.52900 0.29500 0.01600
H13 H 0.63700 0.02100 0.03200
H14 H 0.62800 -0.21900 0.12500
H15 H 0.54900 -0.21700 0.07600
#END
