
#######################################################################
#
#                 Cambridge Crystallographic Data Centre
#                                CCDC
#
#######################################################################
#
# If this CIF has been generated from an entry in the Cambridge
# Structural Database, then it will include bibliographic, chemical,
# crystal, experimental, refinement or atomic coordinate data resulting
# from the CCDC's data processing and validation procedures.
#
#######################################################################

data_CSD_CIF_SIVWEZ
_audit_creation_date 1991-10-23
_audit_creation_method CSD-ConQuest-V1
_database_code_CSD SIVWEZ
_chemical_formula_sum 'C15 H16 N2 O6'
_chemical_formula_moiety
;
C15 H16 N2 O6
;
_journal_coden_Cambridge 35
_journal_volume 56
_journal_year 1991
_journal_page_first 1293
_journal_name_full 'J.Org.Chem. '
loop_
_publ_author_name
"M.A.Williams"
"M.J.Miller"
"N.P.Rath"
_chemical_name_systematic
;
1-Methoxycarbonylmethyl-6-(anilidocarbonyl)-2,7-dioxa-6-azabicyclo(3.2.1)octan
-3-one
;
_chemical_melting_point 401.15
_cell_volume    730.604
_exptl_crystal_colour 'colorless'
_exptl_crystal_density_diffrn 1.456
_exptl_special_details
;
Melting point range 401.15-403.15K

;
_diffrn_ambient_temperature 118
#These two values have been output from a single CSD field.
_refine_ls_R_factor_gt 0.05
_refine_ls_wR_factor_gt 0.05
_symmetry_cell_setting triclinic
_symmetry_space_group_name_H-M 'P -1'
_symmetry_Int_Tables_number 2
loop_
_symmetry_equiv_pos_site_id
_symmetry_equiv_pos_as_xyz
1 x,y,z
2 -x,-y,-z
_cell_length_a 8.7407(4)
_cell_length_b 9.6890(5)
_cell_length_c 10.0086(5)
_cell_angle_alpha 114.117(4)
_cell_angle_beta 94.840(4)
_cell_angle_gamma 104.810(4)
_cell_formula_units_Z 2
loop_
_atom_type_symbol
_atom_type_radius_bond
C 0.68
H 0.23
N 0.68
O 0.68
loop_
_atom_site_label
_atom_site_type_symbol
_atom_site_fract_x
_atom_site_fract_y
_atom_site_fract_z
O1 O 0.53045(19) 0.05284(18) -0.12642(17)
O2 O 1.13033(19) 0.43511(20) 0.38851(19)
O3 O 1.00436(16) 0.54174(16) 0.27810(15)
O4 O 0.85845(15) 0.40951(15) 0.03147(15)
O5 O 0.67301(20) 0.59934(19) -0.02337(21)
O6 O 0.86271(18) 0.83465(17) 0.05593(17)
N1 N 0.61833(21) 0.24814(21) -0.19983(19)
N2 N 0.76118(19) 0.25247(18) 0.01293(18)
C1 C 0.49493(24) 0.19589(24) -0.32753(21)
C2 C 0.5130(3) 0.28671(29) -0.40589(26)
C3 C 0.3947(4) 0.2436(4) -0.52951(29)
C4 C 0.2600(4) 0.1115(4) -0.5763(3)
C5 C 0.2441(3) 0.0203(3) -0.50007(28)
C6 C 0.36046(28) 0.06127(28) -0.37546(26)
C7 C 0.62403(24) 0.17780(23) -0.10941(22)
C8 C 0.71885(26) 0.28179(25) 0.16038(23)
C9 C 0.8555(3) 0.28076(29) 0.26398(29)
C10 C 1.00764(26) 0.42140(26) 0.31431(24)
C11 C 0.86097(23) 0.52355(23) 0.17748(21)
C12 C 0.70955(26) 0.44974(26) 0.21795(25)
C13 C 0.89548(27) 0.68756(25) 0.18362(25)
C14 C 0.79540(25) 0.69733(24) 0.05966(24)
C15 C 0.7779(4) 0.8612(4) -0.0583(3)
H1 H 0.6790(26) 0.3403(26) -0.1688(24)
H2 H 0.6079(29) 0.385(3) -0.3662(27)
H3 H 0.413(3) 0.317(3) -0.577(3)
H4 H 0.184(3) 0.085(3) -0.665(3)
H5 H 0.148(3) -0.079(3) -0.5317(29)
H6 H 0.3478(28) -0.0072(28) -0.3198(26)
H7 H 0.6210(25) 0.1987(26) 0.1429(23)
H8 H 0.8823(28) 0.185(3) 0.2165(26)
H9 H 0.8215(26) 0.2834(26) 0.3548(26)
H10 H 0.7136(24) 0.5019(24) 0.3248(25)
H11 H 0.6151(25) 0.4507(24) 0.1651(23)
H12 H 0.8761(27) 0.7601(27) 0.2806(26)
H13 H 1.0045(28) 0.7282(26) 0.1879(24)
H14 H 0.677(4) 0.882(4) -0.031(4)
H15 H 0.753(3) 0.770(3) -0.154(3)
H16 H 0.850(3) 0.958(3) -0.0556(27)
#END
