
#######################################################################
#
#                 Cambridge Crystallographic Data Centre
#                                CCDC
#
#######################################################################
#
# If this CIF has been generated from an entry in the Cambridge
# Structural Database, then it will include bibliographic, chemical,
# crystal, experimental, refinement or atomic coordinate data resulting
# from the CCDC's data processing and validation procedures.
#
#######################################################################

data_CSD_CIF_SIYWIH
_audit_creation_date 2008-06-20
_audit_creation_method CSD-ConQuest-V1
_database_code_CSD SIYWIH
_database_code_depnum_ccdc_archive 'CCDC 688936'
_chemical_formula_sum 'C6 H6 N4 O4'
_chemical_formula_moiety
;
C6 H6 N4 O4
;
_journal_coeditor_code "IUCr HB2712"
_journal_coden_Cambridge 1370
_journal_volume 64
_journal_year 2008
_journal_page_first o840
_journal_name_full 'Acta Crystallogr.,Sect.E:Struct.Rep.Online '
loop_
_publ_author_name
"Tian Zhou"
"De-Fu Han"
"Yong-Jun Hu"
_chemical_name_systematic
;
4,6-Dinitrobenzene-1,3-diamine
;
_cell_volume    378.296
_exptl_crystal_colour 'colorless'
_exptl_crystal_density_diffrn 1.74
_exptl_crystal_description 'block'
_diffrn_ambient_temperature 295
#These two values have been output from a single CSD field.
_refine_ls_R_factor_gt 0.0511
_refine_ls_wR_factor_gt 0.0511
_symmetry_cell_setting triclinic
_symmetry_space_group_name_H-M 'P -1'
_symmetry_Int_Tables_number 2
loop_
_symmetry_equiv_pos_site_id
_symmetry_equiv_pos_as_xyz
1 x,y,z
2 -x,-y,-z
_cell_length_a 7.1294(6)
_cell_length_b 7.1770(9)
_cell_length_c 9.1289(8)
_cell_angle_alpha 67.710(6)
_cell_angle_beta 86.692(6)
_cell_angle_gamma 62.214(5)
_cell_formula_units_Z 2
loop_
_atom_type_symbol
_atom_type_radius_bond
C 0.68
H 0.23
N 0.68
O 0.68
loop_
_atom_site_label
_atom_site_type_symbol
_atom_site_fract_x
_atom_site_fract_y
_atom_site_fract_z
C1 C 0.2508(3) 0.6981(4) 0.8212(2)
C2 C 0.2639(3) 0.8653(4) 0.6845(2)
H1 H 0.27230 0.98440 0.69650
C3 C 0.2654(3) 0.8654(3) 0.5319(2)
C4 C 0.2464(3) 0.6832(3) 0.5162(2)
C5 C 0.2400(3) 0.5121(3) 0.6491(2)
H2 H 0.23170 0.39320 0.63690
C6 C 0.2457(3) 0.5127(3) 0.7994(2)
N1 N 0.2441(3) 0.7171(3) 0.9615(2)
H3 H 0.24780 0.83190 0.96780
H4 H 0.23600 0.61460 1.04550
N2 N 0.2856(3) 1.0298(3) 0.4091(2)
H5 H 0.29770 1.13470 0.42480
H6 H 0.28650 1.03000 0.31480
N3 N 0.2326(3) 0.6701(3) 0.3643(2)
N4 N 0.2487(3) 0.3197(3) 0.9290(2)
O1 O 0.2415(3) 0.8172(3) 0.24312(17)
O2 O 0.2106(3) 0.5129(3) 0.35769(19)
O3 O 0.2537(4) 0.1638(3) 0.9013(2)
O4 O 0.2458(3) 0.3152(3) 1.06588(18)
#END
