
#######################################################################
#
#                 Cambridge Crystallographic Data Centre
#                                CCDC
#
#######################################################################
#
# If this CIF has been generated from an entry in the Cambridge
# Structural Database, then it will include bibliographic, chemical,
# crystal, experimental, refinement or atomic coordinate data resulting
# from the CCDC's data processing and validation procedures.
#
#######################################################################

data_CSD_CIF_SIYYUU
_audit_creation_date 1991-10-31
_audit_creation_method CSD-ConQuest-V1
_database_code_CSD SIYYUU
_database_code_depnum_ccdc_fiz 'CSD 320179'
_chemical_formula_sum 'C17 H25 N1 O11'
_chemical_formula_moiety
;
C17 H25 N1 O11
;
_journal_coden_Cambridge 643
_journal_volume 195
_journal_year 1991
_journal_page_first 132
_journal_name_full 'Z.Krist.Cryst.Mater. '
loop_
_publ_author_name
"G.Bernardinelli"
"J.M.J.Tronchet"
"F.Buchholzer"
_chemical_name_systematic
;
N-Acetoxy-2,3,5,6-tetra-O-acetyl-N-methyl-\a-D-mannofuranosylamine
;
_cell_volume   2125.333
_exptl_crystal_colour 'colorless'
_diffrn_ambient_temperature ?
_diffrn_special_details
;
The study was carried out at room temperature,in the range 283-303K

;
#These two values have been output from a single CSD field.
_refine_ls_R_factor_gt 0.05
_refine_ls_wR_factor_gt 0.05
_symmetry_cell_setting orthorhombic
_symmetry_space_group_name_H-M 'P 21 21 21'
_symmetry_Int_Tables_number 19
loop_
_symmetry_equiv_pos_site_id
_symmetry_equiv_pos_as_xyz
1 x,y,z
2 1/2+x,1/2-y,-z
3 -x,1/2+y,1/2-z
4 1/2-x,-y,1/2+z
_cell_length_a 9.744(1)
_cell_length_b 11.068(2)
_cell_length_c 19.707(3)
_cell_angle_alpha 90
_cell_angle_beta 90
_cell_angle_gamma 90
_cell_formula_units_Z 4
loop_
_atom_type_symbol
_atom_type_radius_bond
C 0.68
H 0.23
N 0.68
O 0.68
loop_
_atom_site_label
_atom_site_type_symbol
_atom_site_fract_x
_atom_site_fract_y
_atom_site_fract_z
O1 O 0.37168(66) 0.45103(53) 0.39066(29)
O2 O 0.38149(71) 0.59804(62) 0.28108(33)
O3 O 0.45080(94) 0.77766(77) 0.30687(44)
O4 O 0.23299(72) 0.21398(59) 0.29371(34)
O5 O 0.00786(99) 0.1897(11) 0.28962(59)
O6 O 0.35298(62) 0.19642(55) 0.41700(32)
O7 O 0.21050(88) 0.04648(69) 0.44098(60)
O8 O 0.26958(62) 0.34406(53) 0.55744(31)
O9 O 0.40739(72) 0.18247(65) 0.57387(36)
O10 O 0.29115(69) 0.59558(58) 0.53625(33)
O11 O 0.42320(95) 0.74195(77) 0.57716(59)
N1 N 0.26879(83) 0.51081(65) 0.28775(38)
C1 C 0.33064(96) 0.40899(84) 0.32555(47)
C2 C 0.21774(97) 0.31285(88) 0.33930(48)
C3 C 0.23823(91) 0.27918(79) 0.41270(47)
C4 C 0.28361(97) 0.40032(77) 0.44247(48)
C5 C 0.36636(99) 0.39577(82) 0.50824(44)
C6 C 0.40943(96) 0.51947(87) 0.53271(51)
C7 C 0.3606(14) 0.7066(11) 0.31339(54)
C8 C 0.2269(12) 0.7239(10) 0.35122(56)
C9 C 0.2405(13) 0.47297(92) 0.21862(49)
C10 C 0.1163(15) 0.1556(12) 0.27332(64)
C11 C 0.1494(14) 0.0523(11) 0.23057(64)
C12 C 0.3257(11) 0.08029(95) 0.43137(65)
C13 C 0.4520(11) 0.00491(92) 0.43326(61)
C14 C 0.303(1) 0.23432(93) 0.58593(50)
C15 C 0.1906(12) 0.1938(10) 0.63262(48)
C16 C 0.3159(12) 0.70724(95) 0.56050(61)
C17 C 0.1826(12) 0.78378(90) 0.55990(61)
H1 H 0.41600 0.37260 0.29630
H2 H 0.11310 0.34460 0.33100
H3 H 0.14950 0.23790 0.43720
H4 H 0.19140 0.45130 0.45550
H5 H 0.46100 0.34470 0.50140
H6 H 0.45560 0.51190 0.58290
H7 H 0.48360 0.55800 0.49750
H8 H 0.14410 0.71230 0.31480
H9 H 0.22110 0.65330 0.38970
H10 H 0.21060 0.81000 0.37680
H11 H 0.33550 0.44550 0.19410
H12 H 0.16900 0.39710 0.21930
H13 H 0.19470 0.54800 0.19080
H14 H 0.20470 0.08390 0.18610
H15 H 0.21340 -0.01020 0.25920
H16 H 0.05630 0.00570 0.21440
H17 H 0.50210 0.00940 0.38390
H18 H 0.52070 0.04050 0.47200
H19 H 0.43000 -0.08960 0.44490
H20 H 0.17740 0.26080 0.67260
H21 H 0.09580 0.18500 0.60390
H22 H 0.21730 0.10710 0.65510
H23 H 0.14460 0.79070 0.50810
H24 H 0.10560 0.73990 0.59160
H25 H 0.20270 0.87420 0.57960
#END
