
#######################################################################
#
#                 Cambridge Crystallographic Data Centre
#                                CCDC
#
#######################################################################
#
# If this CIF has been generated from an entry in the Cambridge
# Structural Database, then it will include bibliographic, chemical,
# crystal, experimental, refinement or atomic coordinate data resulting
# from the CCDC's data processing and validation procedures.
#
#######################################################################

data_CSD_CIF_SIYZAB
_audit_creation_date 1991-10-31
_audit_creation_method CSD-ConQuest-V1
_database_code_CSD SIYZAB
_database_code_depnum_ccdc_fiz 'CSD 320180'
_chemical_formula_sum 'C35 H41 N1 O14'
_chemical_formula_moiety
;
C35 H41 N1 O14
;
_journal_coden_Cambridge 643
_journal_volume 195
_journal_year 1991
_journal_page_first 135
_journal_name_full 'Z.Krist.Cryst.Mater. '
loop_
_publ_author_name
"G.Bernardinelli"
"J.M.J.Tronchet"
"N.Bizzozero"
_chemical_name_systematic
;
Methyl 
2-(N-acetyl-6-deoxy-1,2,3,4-di-O-isopropylidene-\a-D-galactopyranos-6-yloxyami
no)-3,6-di-O-benzoyl-\a-D-lyxo-hexopyranos-4-uloside
;
_cell_volume   1749.120
_exptl_crystal_colour 'colorless'
_diffrn_ambient_temperature ?
_diffrn_special_details
;
The study was carried out at room temperature,in the range 283-303K

;
#These two values have been output from a single CSD field.
_refine_ls_R_factor_gt 0.039
_refine_ls_wR_factor_gt 0.039
_symmetry_cell_setting monoclinic
_symmetry_space_group_name_H-M 'P 21'
_symmetry_Int_Tables_number 4
loop_
_symmetry_equiv_pos_site_id
_symmetry_equiv_pos_as_xyz
1 x,y,z
2 -x,1/2+y,-z
_cell_length_a 11.012(2)
_cell_length_b 14.192(2)
_cell_length_c 11.242(1)
_cell_angle_alpha 90
_cell_angle_beta 95.403(7)
_cell_angle_gamma 90
_cell_formula_units_Z 2
loop_
_atom_type_symbol
_atom_type_radius_bond
C 0.68
H 0.23
N 0.68
O 0.68
loop_
_atom_site_label
_atom_site_type_symbol
_atom_site_fract_x
_atom_site_fract_y
_atom_site_fract_z
O1 O 0.28313(54) 0.66076 0.49186(55)
O2 O 0.31998(56) 0.65362(70) 0.28952(55)
O3 O 0.10164(59) 0.85691(70) 0.52018(64)
O4 O 0.46065(58) 0.80071(73) 0.62465(56)
O5 O 0.45587(66) 0.87057(90) 0.79966(72)
O6 O -0.02986(57) 0.78385(68) 0.33014(57)
O7 O -0.02344(61) 0.78950(67) 0.12973(55)
O8 O -0.09813(60) 0.56773(72) 0.22690(61)
O9 O 0.01800(53) 0.63373(66) 0.51504(56)
O10 O -0.00966(61) 0.49389(69) 0.77683(56)
O11 O 0.17387(56) 0.65146(71) 0.79792(50)
O12 O 0.11069(59) 0.62528(71) 0.98191(52)
O13 O -0.20804(58) 0.63208(67) 0.87738(56)
O14 O -0.21104(65) 0.47739(71) 0.82065(57)
N1 N 0.02281(71) 0.60225(78) 0.39631(74)
C1 C 0.24375(92) 0.62298(88) 0.37723(97)
C2 C 0.11413(83) 0.65385(88) 0.33121(76)
C3 C 0.09617(89) 0.75994(87) 0.34201(84)
C4 C 0.15132(96) 0.79951(93) 0.46361(94)
C5 C 0.28213(91) 0.76108(74) 0.49560(88)
C6 C 0.32677(95) 0.79057(93) 0.62096(92)
C7 C 0.5120(11) 0.844(1) 0.7247(12)
C8 C 0.64659(97) 0.85434(88) 0.72075(95)
C9 C 0.70997(93) 0.81900(83) 0.62884(89)
C10 C 0.83733(95) 0.83589(89) 0.63085(94)
C11 C 0.89323(96) 0.88761(97) 0.72609(97)
C12 C 0.83230(99) 0.92191(91) 0.8174(10)
C13 C 0.7087(10) 0.90345(98) 0.8174(10)
C14 C 0.4430(11) 0.61807(98) 0.3135(10)
C15 C -0.09168(98) 0.58329(96) 0.3318(10)
C16 C -0.19790(92) 0.57794(92) 0.40579(85)
C17 C -0.0813(10) 0.79480(95) 0.2146(11)
C18 C -0.21306(96) 0.81100(84) 0.21062(95)
C19 C -0.285(1) 0.78887(98) 0.10394(94)
C20 C -0.4116(10) 0.80524(99) 0.10312(98)
C21 C -0.4654(11) 0.8382(10) 0.1984(11)
C22 C -0.3929(11) 0.85880(99) 0.3024(10)
C23 C -0.26596(94) 0.84739(89) 0.30857(91)
C24 C 0.05092(85) 0.55626(91) 0.59755(94)
C25 C -0.01380(81) 0.58017(91) 0.70712(84)
C26 C 0.04296(88) 0.66042(91) 0.78240(85)
C27 C 0.00539(93) 0.65920(92) 0.91291(86)
C28 C -0.09643(92) 0.59127(86) 0.93154(83)
C29 C -0.0884(10) 0.49455(93) 0.87038(93)
C30 C 0.2132(11) 0.6595(11) 0.9262(10)
C31 C 0.3158(11) 0.594(1) 0.9523(10)
C32 C 0.2409(11) 0.7606(10) 0.9572(10)
C33 C -0.2888(10) 0.5538(10) 0.8546(11)
C34 C -0.34700(92) 0.52892(92) 0.97197(93)
C35 C -0.37717(93) 0.57877(95) 0.74929(98)
H1 H 0.24650 0.54680 0.39040
H2 H 0.10070 0.63600 0.23640
H3 H 0.14320 0.79070 0.27030
H4 H 0.34010 0.79030 0.43120
H5 H 0.28560 0.85720 0.64350
H6 H 0.30380 0.73660 0.68450
H7 H 0.66190 0.77840 0.55660
H8 H 0.88940 0.80890 0.56030
H9 H 0.99060 0.90150 0.72830
H10 H 0.87940 0.96410 0.88840
H11 H 0.65960 0.92580 0.89240
H12 H 0.48100 0.64240 0.40090
H13 H 0.44010 0.54060 0.31360
H14 H 0.50160 0.64080 0.24630
H15 H -0.17940 0.52230 0.47160
H16 H -0.20460 0.64530 0.45050
H17 H -0.28540 0.56310 0.35570
H18 H -0.24520 0.75970 0.02660
H19 H -0.46910 0.79200 0.02050
H20 H -0.56390 0.84740 0.19340
H21 H -0.43540 0.88460 0.37970
H22 H -0.20930 0.86630 0.38990
H23 H 0.01990 0.48900 0.55920
H24 H 0.14990 0.55360 0.61960
H25 H -0.10560 0.60450 0.67860
H26 H 0.01090 0.72400 0.73540
H27 H -0.02610 0.72880 0.93700
H28 H -0.09170 0.57940 1.02770
H29 H -0.05070 0.44140 0.93330
H30 H 0.38990 0.61630 0.90130
H31 H 0.34490 0.59780 1.04740
H32 H 0.29600 0.52000 0.93030
H33 H 0.26980 0.76500 1.05190
H34 H 0.31490 0.78350 0.90580
H35 H 0.16480 0.80950 0.93760
H36 H -0.40070 0.58900 0.99670
H37 H -0.40780 0.46840 0.95330
H38 H -0.28330 0.51060 1.04860
H39 H -0.43760 0.51850 0.73030
H40 H -0.43050 0.63910 0.77370
H41 H -0.33630 0.59620 0.66740
#END
