
#######################################################################
#
#                 Cambridge Crystallographic Data Centre
#                                CCDC
#
#######################################################################
#
# If this CIF has been generated from an entry in the Cambridge
# Structural Database, then it will include bibliographic, chemical,
# crystal, experimental, refinement or atomic coordinate data resulting
# from the CCDC's data processing and validation procedures.
#
#######################################################################

data_CSD_CIF_SIZDAI
_audit_creation_date 2014-05-28
_audit_creation_method CSD-ConQuest-V1
_database_code_CSD SIZDAI
_database_code_depnum_ccdc_archive 'CCDC 954985'
_chemical_formula_sum 'C17 H18 N2 O6'
_chemical_formula_moiety
;
C17 H18 N2 O6
;
_journal_coden_Cambridge 702
_journal_volume 30
_journal_year 2014
_journal_page_first 710
_journal_name_full 'Wuji Huaxue Xuebao(Chin.)(Chin.J.Inorg.Chem.) '
loop_
_publ_author_name
"Wen-Kui Dong"
"Xin-Ying Zhang"
"Meng-Meng Zhao"
"Gang Li"
"Xiu-Yan Dong"
_chemical_name_systematic
;
3-(8-(2-Hydroxy-4-methoxyphenyl)-3,6-dioxa-2,7-diazaocta-1,7-dien-1-yl)benzene
-1,2-diol
;
_cell_volume   1648.408
_exptl_crystal_colour 'colorless'
_exptl_crystal_density_diffrn 1.396
_exptl_crystal_description 'prism'
_diffrn_ambient_temperature 298
#These two values have been output from a single CSD field.
_refine_ls_R_factor_gt 0.0557
_refine_ls_wR_factor_gt 0.0557
_symmetry_cell_setting monoclinic
_symmetry_space_group_name_H-M 'P 21/n'
_symmetry_Int_Tables_number 14
loop_
_symmetry_equiv_pos_site_id
_symmetry_equiv_pos_as_xyz
1 x,y,z
2 1/2-x,1/2+y,1/2-z
3 -x,-y,-z
4 -1/2+x,-1/2-y,-1/2+z
_cell_length_a 4.8429(4)
_cell_length_b 10.2315(8)
_cell_length_c 33.291(3)
_cell_angle_alpha 90
_cell_angle_beta 92.154(1)
_cell_angle_gamma 90
_cell_formula_units_Z 4
loop_
_atom_type_symbol
_atom_type_radius_bond
C 0.68
H 0.23
N 0.68
O 0.68
loop_
_atom_site_label
_atom_site_type_symbol
_atom_site_fract_x
_atom_site_fract_y
_atom_site_fract_z
N1 N 0.8379(7) 0.7719(3) 0.50825(8)
N2 N 0.6357(7) 0.6638(3) 0.37850(8)
O1 O 1.0245(5) 0.8150(2) 0.47952(7)
O2 O 0.8516(5) 0.7208(2) 0.40178(7)
O3 O 0.5751(5) 0.6156(2) 0.55636(7)
H1 H 0.67870 0.63500 0.53840
O4 O -0.0071(6) 0.7978(2) 0.64857(8)
O5 O 0.2595(5) 0.4919(2) 0.35288(6)
H2 H 0.38230 0.52000 0.36820
O6 O -0.1286(6) 0.4294(3) 0.29820(8)
H3 H -0.06970 0.39120 0.31840
C1 C 1.1372(8) 0.7035(3) 0.46011(10)
H4 H 1.20760 0.64300 0.48050
H5 H 1.29160 0.73130 0.44450
C2 C 0.9333(8) 0.6340(3) 0.43319(9)
H6 H 1.01630 0.55620 0.42220
H7 H 0.77410 0.60810 0.44810
C3 C 0.7219(8) 0.8673(3) 0.52501(10)
H8 H 0.76520 0.95180 0.51710
C4 C 0.5268(8) 0.8496(3) 0.5557(1)
C5 C 0.4603(8) 0.7262(3) 0.57125(10)
C6 C 0.2797(8) 0.7131(3) 0.60145(11)
H9 H 0.23830 0.63050 0.61120
C7 C 0.1594(8) 0.8214(4) 0.61736(11)
C8 C 0.2091(8) 0.9445(3) 0.60205(11)
H10 H 0.12010 1.01770 0.61190
C9 C 0.3927(8) 0.9555(3) 0.57205(10)
H11 H 0.42950 1.03840 0.56210
C10 C -0.1410(9) 0.9040(4) 0.66657(11)
H12 H -0.00620 0.95870 0.68010
H13 H -0.26870 0.87180 0.68560
H14 H -0.23940 0.95380 0.64620
C11 C 0.5689(9) 0.7315(3) 0.34751(11)
H15 H 0.66590 0.80830 0.34310
C12 C 0.3538(9) 0.6960(4) 0.31926(10)
C13 C 0.2093(8) 0.5792(4) 0.32265(10)
C14 C 0.0055(9) 0.5458(4) 0.29477(12)
C15 C -0.0667(9) 0.6290(5) 0.26402(12)
H16 H -0.20870 0.60720 0.24570
C16 C 0.0733(11) 0.7457(5) 0.26051(12)
H17 H 0.02420 0.80240 0.23960
C17 C 0.2852(9) 0.7798(4) 0.28748(11)
H18 H 0.38080 0.85770 0.28440
#END
