
#######################################################################
#
#                 Cambridge Crystallographic Data Centre
#                                CCDC
#
#######################################################################
#
# If this CIF has been generated from an entry in the Cambridge
# Structural Database, then it will include bibliographic, chemical,
# crystal, experimental, refinement or atomic coordinate data resulting
# from the CCDC's data processing and validation procedures.
#
#######################################################################

data_CSD_CIF_SIZFOY
_audit_creation_date 2014-05-28
_audit_creation_method CSD-ConQuest-V1
_database_code_CSD SIZFOY
_database_code_depnum_ccdc_archive 'CCDC 995312'
_chemical_formula_sum 'C34 H25 N3 O5'
_chemical_formula_moiety
;
C34 H25 N3 O5
;
_journal_coden_Cambridge 1606
_journal_volume 3
_journal_year 2014
_journal_page_first 877
_journal_name_full 'Asian J.Org.Chem '
loop_
_publ_author_name
"Rongshun Chen"
"Xia Fan"
"Junyu Gong"
"Zhengjie He"
_chemical_name_systematic
;
1-benzoyl-4-nitro-4-(2-nitro-3-phenylprop-2-en-1-yl)-2,5-diphenylcyclopent-2-e
ne-1-carbonitrile
;
_cell_volume   2720.907
_exptl_crystal_colour 'colorless'
_exptl_crystal_density_diffrn 1.356
_exptl_crystal_description 'Prism'
_diffrn_ambient_temperature 113
#These two values have been output from a single CSD field.
_refine_ls_R_factor_gt 0.043
_refine_ls_wR_factor_gt 0.043
_symmetry_cell_setting monoclinic
_symmetry_space_group_name_H-M 'P 21/n'
_symmetry_Int_Tables_number 14
loop_
_symmetry_equiv_pos_site_id
_symmetry_equiv_pos_as_xyz
1 x,y,z
2 1/2-x,1/2+y,1/2-z
3 -x,-y,-z
4 -1/2+x,-1/2-y,-1/2+z
_cell_length_a 16.477(4)
_cell_length_b 10.953(3)
_cell_length_c 16.499(4)
_cell_angle_alpha 90
_cell_angle_beta 113.966(6)
_cell_angle_gamma 90
_cell_formula_units_Z 4
loop_
_atom_type_symbol
_atom_type_radius_bond
C 0.68
H 0.23
N 0.68
O 0.68
loop_
_atom_site_label
_atom_site_type_symbol
_atom_site_fract_x
_atom_site_fract_y
_atom_site_fract_z
O1 O 0.50364(6) 0.45003(8) 0.11182(6)
O2 O 0.47651(7) 0.02425(9) 0.30101(6)
O3 O 0.51088(7) 0.13270(9) 0.42015(6)
O4 O 0.76730(7) 0.37221(12) 0.27719(7)
O5 O 0.75851(7) 0.20754(10) 0.34617(7)
N1 N 0.29634(8) 0.14494(10) 0.07266(7)
N2 N 0.50815(8) 0.11539(10) 0.34579(7)
N3 N 0.73519(8) 0.31260(13) 0.32034(8)
C1 C 0.35788(9) 0.20449(12) 0.10753(8)
C2 C 0.43930(9) 0.27895(11) 0.14986(8)
C3 C 0.46492(8) 0.30689(11) 0.25128(8)
H1 H 0.49430 0.38870 0.26100
C4 C 0.54193(9) 0.21672(11) 0.30330(8)
C5 C 0.56677(9) 0.16348(12) 0.23359(8)
H2 H 0.61340 0.10590 0.24630
C6 C 0.51814(8) 0.20328(11) 0.15188(8)
C7 C 0.53276(9) 0.17629(11) 0.07118(8)
C8 C 0.46743(9) 0.19579(13) -0.01340(9)
H3 H 0.41260 0.23180 -0.02020
C9 C 0.48143(10) 0.16337(13) -0.08775(9)
H4 H 0.43580 0.17580 -0.14520
C10 C 0.56123(10) 0.11318(13) -0.07886(9)
H5 H 0.57030 0.08940 -0.12990
C11 C 0.6278(1) 0.09763(13) 0.00441(9)
H6 H 0.68360 0.06540 0.01070
C12 C 0.61365(9) 0.12868(12) 0.07867(9)
H7 H 0.65990 0.11730 0.13580
C13 C 0.61838(9) 0.28244(12) 0.37988(8)
H8 H 0.59370 0.32760 0.41670
H9 H 0.66080 0.22100 0.41800
C14 C 0.66648(9) 0.36966(13) 0.34485(8)
C15 C 0.65467(9) 0.48907(13) 0.32895(8)
H10 H 0.68770 0.52540 0.29970
C16 C 0.59631(9) 0.57082(12) 0.35163(9)
C17 C 0.59486(10) 0.57185(12) 0.43572(9)
H11 H 0.63150 0.51700 0.48010
C18 C 0.5402(1) 0.65256(13) 0.45474(9)
H12 H 0.54020 0.65350 0.51230
C19 C 0.48563(10) 0.73173(13) 0.39040(9)
H13 H 0.44750 0.78590 0.40340
C20 C 0.48677(10) 0.73186(12) 0.30688(9)
H14 H 0.44920 0.78610 0.26260
C21 C 0.54229(9) 0.65335(12) 0.28780(9)
H15 H 0.54380 0.65540 0.23090
C22 C 0.38957(9) 0.32381(11) 0.28049(8)
C23 C 0.37655(9) 0.44078(12) 0.30658(8)
H16 H 0.41550 0.50490 0.30690
C24 C 0.30795(9) 0.46454(13) 0.33186(8)
H17 H 0.29970 0.54480 0.34900
C25 C 0.25138(9) 0.37199(13) 0.33225(9)
H18 H 0.20440 0.38830 0.35010
C26 C 0.26317(9) 0.25516(13) 0.30662(8)
H19 H 0.22410 0.19140 0.30670
C27 C 0.33177(9) 0.23119(12) 0.28083(8)
H20 H 0.33950 0.15100 0.26320
C28 C 0.43316(9) 0.40443(12) 0.10225(8)
C29 C 0.34713(9) 0.46503(12) 0.05114(8)
C30 C 0.34231(10) 0.54198(13) -0.01776(9)
H21 H 0.39270 0.55290 -0.03120
C31 C 0.26386(11) 0.60246(14) -0.06663(10)
H22 H 0.25990 0.65290 -0.11490
C32 C 0.19170(11) 0.59006(14) -0.04571(10)
H23 H 0.13830 0.63270 -0.07930
C33 C 0.19593(10) 0.51618(13) 0.02377(9)
H24 H 0.14620 0.50950 0.03880
C34 C 0.27314(9) 0.45188(12) 0.07139(8)
H25 H 0.27570 0.39880 0.11790
#END
