
#######################################################################
#
#                 Cambridge Crystallographic Data Centre
#                                CCDC
#
#######################################################################
#
# If this CIF has been generated from an entry in the Cambridge
# Structural Database, then it will include bibliographic, chemical,
# crystal, experimental, refinement or atomic coordinate data resulting
# from the CCDC's data processing and validation procedures.
#
#######################################################################

data_CSD_CIF_SNQUOX
_audit_creation_date 1979-05-11
_audit_creation_method CSD-ConQuest-V1
_database_code_CSD SNQUOX
_database_code_depnum_ccdc_archive 'CCDC 1260793'
_chemical_formula_sum 'C10 H7 N1 O2'
_chemical_formula_moiety
;
C10 H7 N1 O2
;
_journal_coden_Cambridge 274
_journal_year 1978
_journal_page_first 223
_journal_name_full 'Finn.Chem.Lett. '
loop_
_publ_author_name
"H.Saarinen"
"J.Korvenranta"
_chemical_name_systematic
;
syn-1,2-Naphthoquinone-1-oxime
;
_chemical_melting_point 383.15
_cell_volume    790.695
_exptl_crystal_density_diffrn 1.46
_exptl_special_details
;
Melting point range 383.15-384.15K

;
_diffrn_ambient_temperature ?
_diffrn_special_details
;
The study was carried out at room temperature,in the range 283-303K

;
#These two values have been output from a single CSD field.
_refine_ls_R_factor_gt 0.047
_refine_ls_wR_factor_gt 0.047
_symmetry_cell_setting monoclinic
_symmetry_space_group_name_H-M 'P 21/n'
_symmetry_Int_Tables_number 14
loop_
_symmetry_equiv_pos_site_id
_symmetry_equiv_pos_as_xyz
1 x,y,z
2 1/2-x,1/2+y,1/2-z
3 -x,-y,-z
4 -1/2+x,-1/2-y,-1/2+z
_cell_length_a 5.544(3)
_cell_length_b 9.268(4)
_cell_length_c 15.529(4)
_cell_angle_alpha 90
_cell_angle_beta 97.71(4)
_cell_angle_gamma 90
_cell_formula_units_Z 4
loop_
_atom_type_symbol
_atom_type_radius_bond
C 0.68
H 0.23
N 0.68
O 0.68
loop_
_atom_site_label
_atom_site_type_symbol
_atom_site_fract_x
_atom_site_fract_y
_atom_site_fract_z
C1 C 0.54810 0.73000 0.01050
C2 C 0.34040 0.83200 0.00560
C3 C 0.20960 0.84070 0.07970
C4 C 0.26970 0.75820 0.14910
C5 C 0.52100 0.56990 0.23150
C6 C 0.70740 0.47080 0.23800
C7 C 0.84490 0.45330 0.16990
C8 C 0.79340 0.53690 0.09590
C9 C 0.60660 0.63780 0.08800
C10 C 0.46610 0.65380 0.15670
N1 N 0.69120 0.71540 -0.04980
O1 O 0.63850 0.79720 -0.12280
O2 O 0.28740 0.90830 -0.06050
H1 H 0.09500 0.90300 0.07500
H2 H 0.18000 0.76500 0.19600
H3 H 0.42100 0.58500 0.27800
H4 H 0.73800 0.41000 0.28600
H5 H 0.98900 0.38000 0.17800
H6 H 0.88200 0.52600 0.04900
H7 H 0.54100 0.84700 -0.12100
#END
