
#######################################################################
#
#                 Cambridge Crystallographic Data Centre
#                                CCDC
#
#######################################################################
#
# If this CIF has been generated from an entry in the Cambridge
# Structural Database, then it will include bibliographic, chemical,
# crystal, experimental, refinement or atomic coordinate data resulting
# from the CCDC's data processing and validation procedures.
#
#######################################################################

data_CSD_CIF_SOBCIW
_audit_creation_date 2008-10-28
_audit_creation_method CSD-ConQuest-V1
_database_code_CSD SOBCIW
_database_code_depnum_ccdc_archive 'CCDC 665884'
_chemical_formula_sum 'C22 H28 N2 O11'
_chemical_formula_moiety
;
C22 H28 N2 O11
;
_journal_coden_Cambridge 16
_journal_volume 64
_journal_year 2008
_journal_page_first 6377
_journal_name_full 'Tetrahedron '
loop_
_publ_author_name
"R.F.Martinez"
"M.Avalos"
"R.Babiano"
"P.Cintas"
"J.L.Jimenez"
"M.E.Light"
"J.C.Palacios"
"E.M.S.Perez"
_chemical_name_systematic
;
(2S,5S)-3-methyl-2-(4-nitrophenyl)-5-(1,2,3,4-tetra-O-acetyl-D-arabino-1,2,3,4
-tetrahydroxybutyl)oxazolidine
;
_chemical_melting_point 392.15
_cell_volume   2426.145
_exptl_crystal_colour 'colorless'
_exptl_crystal_density_diffrn 1.359
_exptl_special_details
;
Melting point range 392.15-393.15K

;
_exptl_crystal_preparation 'ethanol'
_diffrn_ambient_temperature 120
#These two values have been output from a single CSD field.
_refine_ls_R_factor_gt 0.0452
_refine_ls_wR_factor_gt 0.0452
_symmetry_cell_setting orthorhombic
_symmetry_space_group_name_H-M 'P 21 21 21'
_symmetry_Int_Tables_number 19
loop_
_symmetry_equiv_pos_site_id
_symmetry_equiv_pos_as_xyz
1 x,y,z
2 1/2-x,-y,1/2+z
3 -x,1/2+y,1/2-z
4 1/2+x,1/2-y,-z
_cell_length_a 7.4430(1)
_cell_length_b 15.7931(2)
_cell_length_c 20.6396(3)
_cell_angle_alpha 90
_cell_angle_beta 90
_cell_angle_gamma 90
_cell_formula_units_Z 4
loop_
_atom_type_symbol
_atom_type_radius_bond
C 0.68
H 0.23
N 0.68
O 0.68
loop_
_atom_site_label
_atom_site_type_symbol
_atom_site_fract_x
_atom_site_fract_y
_atom_site_fract_z
O1 O 0.2278(3) 0.02047(13) -0.10262(10)
O2 O 0.1657(3) 0.00443(12) -0.00116(10)
O3 O 0.2991(3) 0.42688(10) 0.05016(8)
O4 O 0.2954(3) 0.48121(11) 0.17262(8)
O5 O 0.0765(3) 0.38326(14) 0.18324(12)
O6 O 0.3738(3) 0.65279(11) 0.14617(8)
O7 O 0.3243(3) 0.71743(13) 0.05003(9)
O8 O -0.0641(3) 0.60954(11) 0.21200(8)
O9 O -0.0652(3) 0.58672(15) 0.31947(9)
O10 O 0.0377(3) 0.77979(11) 0.18723(9)
O11 O 0.2818(3) 0.86189(14) 0.17367(12)
N1 N 0.1998(3) 0.04912(14) -0.04826(11)
N2 N 0.0779(3) 0.45625(14) -0.02131(10)
C1 C 0.2558(4) 0.27861(17) -0.08319(13)
H1 H 0.28380 0.31440 -0.11880
C2 C 0.2461(4) 0.19160(17) -0.09215(13)
H2 H 0.26570 0.16720 -0.13360
C3 C 0.2071(4) 0.14144(16) -0.03920(13)
C4 C 0.1756(4) 0.17415(17) 0.02194(13)
H3 H 0.14910 0.13800 0.05750
C5 C 0.1840(4) 0.26158(17) 0.02980(12)
H4 H 0.16170 0.28580 0.07120
C6 C 0.2246(4) 0.31355(16) -0.02225(13)
C7 C 0.2444(4) 0.40833(16) -0.01431(12)
H5 H 0.33610 0.43010 -0.04560
C8 C 0.0156(4) 0.46205(18) -0.08818(12)
H6 H 0.11210 0.48450 -0.11550
H7 H -0.08860 0.49990 -0.09040
H8 H -0.01870 0.40560 -0.10360
C9 C 0.1289(4) 0.53938(16) 0.00543(12)
H9 H 0.02310 0.56940 0.02320
H10 H 0.18650 0.57530 -0.02790
C10 C 0.2629(4) 0.51588(15) 0.05950(12)
H11 H 0.37610 0.54930 0.05440
C11 C 0.1866(4) 0.52836(15) 0.12738(11)
H12 H 0.06020 0.50700 0.12880
C12 C 0.2277(4) 0.40589(17) 0.19294(13)
C13 C 0.3671(5) 0.3562(2) 0.22774(18)
H13 H 0.31050 0.30830 0.25000
H14 H 0.42710 0.39250 0.25960
H15 H 0.45580 0.33500 0.19660
C14 C 0.1901(4) 0.62162(15) 0.14653(12)
H16 H 0.11680 0.65500 0.11490
C15 C 0.4251(4) 0.70010(16) 0.09362(13)
C16 C 0.6185(5) 0.7242(2) 0.09898(15)
H17 H 0.65970 0.74770 0.05760
H18 H 0.68990 0.67400 0.10970
H19 H 0.63290 0.76680 0.13310
C17 C 0.1202(4) 0.63751(16) 0.21494(12)
H20 H 0.18840 0.60180 0.24650
C18 C -0.1416(4) 0.58458(18) 0.26795(12)
C19 C -0.3313(5) 0.5570(2) 0.25678(15)
H21 H -0.36630 0.51630 0.29030
H22 H -0.34100 0.53040 0.21400
H23 H -0.41090 0.60640 0.25870
C20 C 0.1296(4) 0.72922(16) 0.23512(12)
H24 H 0.07210 0.73670 0.27800
H25 H 0.25660 0.74730 0.23850
C21 C 0.1284(5) 0.84516(18) 0.16042(14)
C22 C 0.0144(5) 0.8894(2) 0.11153(18)
H26 H 0.04800 0.94940 0.10970
H27 H -0.11230 0.88440 0.12390
H28 H 0.03260 0.86350 0.06890
#END
