
#######################################################################
#
#                 Cambridge Crystallographic Data Centre
#                                CCDC
#
#######################################################################
#
# If this CIF has been generated from an entry in the Cambridge
# Structural Database, then it will include bibliographic, chemical,
# crystal, experimental, refinement or atomic coordinate data resulting
# from the CCDC's data processing and validation procedures.
#
#######################################################################

data_CSD_CIF_SOBFOE
_audit_creation_date 1991-11-25
_audit_creation_method CSD-ConQuest-V1
_database_code_CSD SOBFOE
_chemical_formula_sum 'C6 H6 N10 O10'
_chemical_formula_moiety
;
C6 H6 N10 O10
;
_journal_coden_Cambridge 35
_journal_volume 56
_journal_year 1991
_journal_page_first 3413
_journal_name_full 'J.Org.Chem. '
loop_
_publ_author_name
"M.Vedachalam"
"V.T.Ramakrishnan"
"J.H.Boyer"
"I.J.Dagley"
"K.A.Nelson"
"H.G.Adolph"
"R.Gilardi"
"C.George"
"J.L.Flippen-Anderson"
_chemical_name_systematic
;
cis-syn-cis-2,6-Dioxo-1,4,5,8-tetranitrodecahydro-1H,5H-di-imidazo(4,5-b:4',5'
-e)pyrazine
;
_chemical_melting_point 511.15
_cell_volume   5099.405
_exptl_crystal_colour 'colorless'
_exptl_crystal_density_diffrn 1.97
_exptl_special_details
;
Melts with decomposition.

;
_diffrn_ambient_temperature ?
_diffrn_special_details
;
The study was carried out at room temperature,in the range 283-303K

;
#These two values have been output from a single CSD field.
_refine_ls_R_factor_gt 0.043
_refine_ls_wR_factor_gt 0.043
_symmetry_cell_setting orthorhombic
_symmetry_space_group_name_H-M 'F 2 d d'
_symmetry_Int_Tables_number 43
loop_
_symmetry_equiv_pos_site_id
_symmetry_equiv_pos_as_xyz
1 x,y,z
2 x,1/2+y,1/2+z
3 1/2+x,y,1/2+z
4 1/2+x,1/2+y,z
5 1/4+x,1/4-y,1/4+z
6 1/4+x,3/4-y,3/4+z
7 3/4+x,1/4-y,3/4+z
8 3/4+x,3/4-y,1/4+z
9 1/4+x,1/4+y,1/4-z
10 1/4+x,3/4+y,3/4-z
11 3/4+x,1/4+y,3/4-z
12 3/4+x,3/4+y,1/4-z
13 1/2+x,1/2-y,-z
14 1/2+x,-y,1/2-z
15 x,1/2-y,1/2-z
16 x,-y,-z
_cell_length_a 15.5895(15)
_cell_length_b 16.754(2)
_cell_length_c 19.524(2)
_cell_angle_alpha 90
_cell_angle_beta 90
_cell_angle_gamma 90
_cell_formula_units_Z 16
loop_
_atom_type_symbol
_atom_type_radius_bond
C 0.68
H 0.23
N 0.68
O 0.68
loop_
_atom_site_label
_atom_site_type_symbol
_atom_site_fract_x
_atom_site_fract_y
_atom_site_fract_z
N1 N 0.28970 0.0276(3) 0.2899(3)
N2 N 0.3799(5) 0.0309(4) 0.2841(3)
O1 O 0.4115(5) 0.0976(3) 0.2828(3)
O2 O 0.4176(5) -0.0316(3) 0.2825(3)
C1 C 0.2474(6) -0.0353(4) 0.2522(3)
N3 N 0.2153(5) -0.0110(4) 0.1841(3)
N4 N 0.2771(7) -0.0035(4) 0.1305(3)
O3 O 0.2505(6) -0.0009(4) 0.0733(3)
O4 O 0.3503(6) 0.0037(4) 0.1494(3)
C2 C 0.1335(7) -0.0437(5) 0.1707(4)
O5 O 0.0966(6) -0.0426(4) 0.1175(3)
N5 N 0.1072(6) -0.0731(5) 0.2318(4)
C3 C 0.1626(6) -0.0572(4) 0.2882(4)
N6 N 0.1352(5) 0.0075(3) 0.3327(3)
N7 N 0.0758(6) -0.0104(4) 0.3839(3)
O6 O 0.0485(5) -0.0784(3) 0.3820(3)
O7 O 0.0576(5) 0.0401(3) 0.4248(3)
C4 C 0.1524(6) 0.0909(4) 0.3186(3)
N8 N 0.1097(5) 0.1202(3) 0.2571(3)
N9 N 0.0237(6) 0.1480(4) 0.2651(3)
O8 O -0.0079(6) 0.1384(3) 0.3210(3)
O9 O -0.0094(5) 0.1760(3) 0.2143(3)
C5 C 0.1666(7) 0.1706(4) 0.2172(4)
O10 O 0.1454(5) 0.2160(3) 0.1730(3)
N10 N 0.2448(6) 0.1550(4) 0.2423(3)
C6 C 0.2492(6) 0.1045(4) 0.3009(3)
H1 H 0.28990 -0.07660 0.24920
H2 H 0.0648(54) -0.0867(55) 0.2372(46)
H3 H 0.16530 -0.10210 0.31870
H4 H 0.13310 0.11780 0.35920
H5 H 0.2786(52) 0.1707(48) 0.2245(39)
H6 H 0.28350 0.12890 0.33600
#END
