
#######################################################################
#
#                 Cambridge Crystallographic Data Centre
#                                CCDC
#
#######################################################################
#
# If this CIF has been generated from an entry in the Cambridge
# Structural Database, then it will include bibliographic, chemical,
# crystal, experimental, refinement or atomic coordinate data resulting
# from the CCDC's data processing and validation procedures.
#
#######################################################################

data_CSD_CIF_SOBGIA
_audit_creation_date 2008-10-28
_audit_creation_method CSD-ConQuest-V1
_database_code_CSD SOBGIA
_database_code_depnum_ccdc_archive 'CCDC 682620'
_chemical_formula_sum 'C16 H16 N4 O5'
_chemical_formula_moiety
;
C16 H16 N4 O5
;
_journal_coden_Cambridge 16
_journal_volume 64
_journal_year 2008
_journal_page_first 6252
_journal_name_full 'Tetrahedron '
loop_
_publ_author_name
"D.Didier"
"B.Tylleman"
"N.Lambert"
"C.M.L.V.Velde"
"F.Blockhuys"
"A.Collas"
"S.Sergeyev"
_chemical_name_systematic
;
N-(4-Methyl-2-(((4-methyl-2-nitrophenyl)amino)methyl)-6-nitrophenyl)formamide
;
_chemical_melting_point 465
_cell_volume   1624.338
_exptl_crystal_colour 'orange'
_exptl_crystal_density_diffrn 1.408
_exptl_special_details
;
Melting point range 465-466K

;
_exptl_crystal_description 'block'
_diffrn_ambient_temperature 290
#These two values have been output from a single CSD field.
_refine_ls_R_factor_gt 0.0394
_refine_ls_wR_factor_gt 0.0394
_symmetry_cell_setting monoclinic
_symmetry_space_group_name_H-M 'P 21/c'
_symmetry_Int_Tables_number 14
loop_
_symmetry_equiv_pos_site_id
_symmetry_equiv_pos_as_xyz
1 x,y,z
2 -x,1/2+y,1/2-z
3 -x,-y,-z
4 x,-1/2-y,-1/2+z
_cell_length_a 13.101(5)
_cell_length_b 14.951(4)
_cell_length_c 8.316(3)
_cell_angle_alpha 90
_cell_angle_beta 94.28(3)
_cell_angle_gamma 90
_cell_formula_units_Z 4
loop_
_atom_type_symbol
_atom_type_radius_bond
C 0.68
H 0.23
N 0.68
O 0.68
loop_
_atom_site_label
_atom_site_type_symbol
_atom_site_fract_x
_atom_site_fract_y
_atom_site_fract_z
C1 C 0.17320(16) -0.21589(14) 0.0058(2)
H1 H 0.1851(3) -0.2806(16) -0.0276(9)
O1 O 0.15851(12) -0.20250(9) 0.14658(17)
N1 N 0.17518(13) -0.15315(11) -0.1100(2)
O2 O 0.07553(14) -0.11137(11) -0.40240(19)
N2 N 0.56159(14) 0.11174(14) 0.2953(3)
C2 C 0.39085(14) 0.04561(13) 0.3353(2)
C3 C 0.30225(15) -0.05739(15) 0.1359(2)
H2 H 0.2732(4) -0.0841(4) 0.2301(13)
H3 H 0.3312(4) -0.1059(7) 0.0743(9)
N3 N 0.02993(13) -0.05839(12) -0.3215(2)
N4 N 0.38357(13) 0.00287(12) 0.1908(2)
H4 H 0.4303(14) 0.0123(3) 0.1282(18)
C4 C 0.15975(13) -0.06085(12) -0.0884(2)
O3 O 0.56211(14) 0.07633(15) 0.1607(2)
C5 C 0.47648(14) 0.09799(13) 0.3917(2)
C6 C 0.19723(15) 0.07789(14) 0.0480(2)
H5 H 0.2378(9) 0.1113(8) 0.1323(19)
C7 C 0.48137(17) 0.13861(14) 0.5428(3)
H6 H 0.5392(15) 0.1721(9) 0.5763(9)
O4 O -0.05983(12) -0.03837(14) -0.3522(2)
C8 C 0.31174(15) 0.04080(15) 0.4396(2)
H7 H 0.2511(15) 0.0080(8) 0.4065(8)
C9 C 0.21649(14) -0.01274(13) 0.0310(2)
C10 C 0.12353(16) 0.12351(14) -0.0481(3)
C11 C 0.31863(17) 0.08153(15) 0.5868(3)
H8 H 0.2650(14) 0.0762(2) 0.6509(17)
C12 C 0.08704(14) -0.01361(13) -0.1870(2)
C13 C 0.40419(17) 0.13091(14) 0.6434(3)
C14 C 0.4101(2) 0.17386(19) 0.8077(3)
H9 H 0.47410 0.20490 0.82590
H10 H 0.40520 0.12860 0.88860
H11 H 0.35470 0.21550 0.81340
H12? H 0.34860 0.16110 0.85940
H13? H 0.41740 0.23740 0.79660
H14? H 0.46800 0.15040 0.87190
O5 O 0.63277(14) 0.15911(15) 0.3501(3)
C15 C 0.06760(15) 0.07627(14) -0.1664(2)
H15 H 0.0161(12) 0.1052(7) -0.2333(16)
C16 C 0.1075(2) 0.22249(15) -0.0248(3)
H16 H 0.05480 0.24340 -0.10210
H17 H 0.17010 0.25380 -0.03960
H18 H 0.08740 0.23320 0.08220
H19? H 0.15340 0.24350 0.06250
H20? H 0.03810 0.23310 -0.00010
H21? H 0.12080 0.25370 -0.12180
H22 H 0.1747(16) -0.1722(15) -0.203(3)
#END
