
#######################################################################
#
#                 Cambridge Crystallographic Data Centre
#                                CCDC
#
#######################################################################
#
# If this CIF has been generated from an entry in the Cambridge
# Structural Database, then it will include bibliographic, chemical,
# crystal, experimental, refinement or atomic coordinate data resulting
# from the CCDC's data processing and validation procedures.
#
#######################################################################

data_CSD_CIF_SOBWEM
_audit_creation_date 2008-10-28
_audit_creation_method CSD-ConQuest-V1
_database_code_CSD SOBWEM
_database_code_depnum_ccdc_archive 'CCDC 608815'
_chemical_formula_sum 'C17 H14 N2 O4'
_chemical_formula_moiety
;
C17 H14 N2 O4
;
_journal_coden_Cambridge 781
_journal_volume 4
_journal_year 2007
_journal_page_first 268
_journal_name_full 'Lett.Org.Chem. '
loop_
_publ_author_name
"L.Bianchi"
"G.Giorgi"
"M.Maccagno"
"G.Petrillo"
"E.Rizzato"
"D.Spinelli"
"M.Stenta"
"C.Tavani"
_chemical_name_systematic
;
3-(E)-(2-Nitro-2-phenylvinyl)-5-phenyl-4,5-dihydro-isoxazole 2-oxide
;
_chemical_melting_point 423.15
_cell_volume   1491.654
_exptl_crystal_colour 'yellow'
_exptl_crystal_density_diffrn 1.382
_exptl_special_details
;
Melting point range 423.15-424.15K

;
_exptl_crystal_description 'prism'
_exptl_crystal_preparation 'dimethylsulfoxide'
_diffrn_ambient_temperature 293
#These two values have been output from a single CSD field.
_refine_ls_R_factor_gt 0.0661
_refine_ls_wR_factor_gt 0.0661
_symmetry_cell_setting monoclinic
_symmetry_space_group_name_H-M 'P 21/n'
_symmetry_Int_Tables_number 14
loop_
_symmetry_equiv_pos_site_id
_symmetry_equiv_pos_as_xyz
1 x,y,z
2 1/2-x,1/2+y,1/2-z
3 -x,-y,-z
4 -1/2+x,-1/2-y,-1/2+z
_cell_length_a 11.472(4)
_cell_length_b 9.297(2)
_cell_length_c 14.002(4)
_cell_angle_alpha 90
_cell_angle_beta 92.76(3)
_cell_angle_gamma 90
_cell_formula_units_Z 4
loop_
_atom_type_symbol
_atom_type_radius_bond
C 0.68
H 0.23
N 0.68
O 0.68
loop_
_atom_site_label
_atom_site_type_symbol
_atom_site_fract_x
_atom_site_fract_y
_atom_site_fract_z
C1 C 0.1503(3) 0.0707(3) 0.11783(19)
C2 C 0.1786(3) 0.0416(3) 0.0250(2)
H1 H 0.22490 -0.03760 0.01220
C3 C 0.1382(4) 0.1298(4) -0.0492(2)
H2 H 0.15850 0.11120 -0.11150
C4 C 0.0688(4) 0.2437(3) -0.0303(2)
H3 H 0.04010 0.30220 -0.07990
C5 C 0.0409(4) 0.2725(3) 0.0617(3)
H4 H -0.00610 0.35120 0.07410
C6 C 0.0812(3) 0.1870(3) 0.1358(2)
H5 H 0.06170 0.20780 0.19800
C7 C 0.1969(3) -0.0251(3) 0.1975(2)
H6 H 0.24550 -0.10090 0.17130
C8 C 0.1044(3) -0.0937(3) 0.26137(19)
H7 H 0.03010 -0.04430 0.25370
H8 H 0.09320 -0.19480 0.24670
C9 C 0.1572(3) -0.0736(2) 0.35868(19)
N1 N 0.2467(2) 0.0172(2) 0.35754(17)
O1 O 0.2682(2) 0.0643(2) 0.26462(14)
O2 O 0.3100(2) 0.0709(2) 0.42115(16)
C10 C 0.1225(3) -0.1189(2) 0.45100(18)
H9 H 0.16920 -0.08920 0.50350
C11 C 0.0292(2) -0.2001(2) 0.46926(17)
N2 N 0.0070(2) -0.2163(2) 0.57178(15)
O3 O 0.0718(2) -0.1607(2) 0.63266(14)
O4 O -0.0804(2) -0.2835(2) 0.59138(14)
C12 C -0.0504(2) -0.2753(2) 0.40147(17)
C13 C -0.0098(3) -0.3944(3) 0.3541(2)
H10 H 0.06570 -0.42740 0.36790
C14 C -0.0801(3) -0.4643(3) 0.2867(2)
H11 H -0.05220 -0.54460 0.25540
C15 C -0.1898(3) -0.4166(3) 0.2658(2)
H12 H -0.23610 -0.46240 0.21870
C16 C -0.2334(3) -0.3004(3) 0.3140(2)
H13 H -0.30930 -0.26900 0.30040
C17 C -0.1639(3) -0.2319(3) 0.3820(2)
H14 H -0.19380 -0.15500 0.41550
#END
