
#######################################################################
#
#                 Cambridge Crystallographic Data Centre
#                                CCDC
#
#######################################################################
#
# If this CIF has been generated from an entry in the Cambridge
# Structural Database, then it will include bibliographic, chemical,
# crystal, experimental, refinement or atomic coordinate data resulting
# from the CCDC's data processing and validation procedures.
#
#######################################################################

data_CSD_CIF_SOBXEO
_audit_creation_date 2014-05-29
_audit_creation_method CSD-ConQuest-V1
_database_code_CSD SOBXEO
_database_code_depnum_ccdc_archive 'CCDC 963296'
_chemical_formula_sum 'C21 H23 N1 O4'
_chemical_formula_moiety
;
C21 H23 N1 O4
;
_journal_coden_Cambridge 182
_journal_volume 50
_journal_year 2014
_journal_page_first 7336
_journal_name_full 'Chem.Commun. '
loop_
_publ_author_name
"I.A.O'Neil"
"M.McConville"
"K.Zhou"
"C.Brooke"
"C.M.Robertson"
"N.G.Berry"
_chemical_name_systematic
;
(1R,2S)-2-(Hydroxydiphenylmethyl)-1-((E)-3-methoxy-3-oxoprop-1-en-1-yl)pyrroli
dine 1-oxide
;
_cell_volume   1842.256
_exptl_crystal_colour 'colorless'
_exptl_crystal_density_diffrn 1.274
_exptl_crystal_description 'needle'
_diffrn_ambient_temperature 296.1
#These two values have been output from a single CSD field.
_refine_ls_R_factor_gt 0.0291
_refine_ls_wR_factor_gt 0.0291
_symmetry_cell_setting orthorhombic
_symmetry_space_group_name_H-M 'P 21 21 21'
_symmetry_Int_Tables_number 19
loop_
_symmetry_equiv_pos_site_id
_symmetry_equiv_pos_as_xyz
1 x,y,z
2 1/2-x,-y,1/2+z
3 -x,1/2+y,1/2-z
4 1/2+x,1/2-y,-z
_cell_length_a 8.8244(7)
_cell_length_b 10.0482(8)
_cell_length_c 20.7767(16)
_cell_angle_alpha 90
_cell_angle_beta 90
_cell_angle_gamma 90
_cell_formula_units_Z 4
loop_
_atom_type_symbol
_atom_type_radius_bond
C 0.68
H 0.23
N 0.68
O 0.68
loop_
_atom_site_label
_atom_site_type_symbol
_atom_site_fract_x
_atom_site_fract_y
_atom_site_fract_z
O1 O -0.0055(4) 0.9698(3) 0.24457(16)
O2 O 0.1954(4) 0.9430(3) 0.15401(16)
N1 N -0.0190(4) 0.8327(4) 0.25245(19)
C1 C 0.3148(5) 0.8051(4) 0.2361(2)
C2 C 0.3448(5) 0.6846(5) 0.2670(2)
H1 H 0.31070 0.60540 0.24900
C3 C 0.4768(5) 0.8004(5) 0.3517(2)
H2 H 0.52730 0.79940 0.39100
C4 C 0.3733(5) 0.9219(5) 0.2619(2)
H3 H 0.35950 1.00200 0.24020
C5 C 0.2097(5) 0.8099(4) 0.1770(2)
C6 C 0.0370(5) 0.7870(4) 0.3155(2)
H4 H 0.03770 0.69630 0.32430
C7 C 0.2774(5) 0.7272(5) 0.1221(2)
C8 C 0.4253(5) 0.6823(5) 0.3246(2)
H5 H 0.44460 0.60160 0.34490
C9 C 0.4523(5) 0.9203(5) 0.3198(2)
H6 H 0.48880 0.99940 0.33720
C10 C 0.2269(6) 0.5999(5) 0.1063(2)
H7 H 0.14920 0.56110 0.12990
C11 C 0.4100(7) 0.5848(5) 0.0207(2)
H8 H 0.45320 0.53810 -0.01330
C12 C 0.3981(6) 0.7813(5) 0.0873(2)
H9 H 0.43470 0.86530 0.09770
C13 C -0.2197(6) 0.8101(6) 0.1766(3)
H10 H -0.24840 0.90100 0.16680
H11 H -0.30120 0.75110 0.16370
C14 C 0.0504(5) 0.7566(4) 0.1951(2)
H12 H 0.05870 0.66220 0.20650
C15 C -0.1850(5) 0.7942(5) 0.2475(3)
H13 H -0.20080 0.70310 0.26130
H14 H -0.24780 0.85280 0.27330
C16 C 0.2919(6) 0.5300(5) 0.0552(2)
H15 H 0.25540 0.44620 0.04430
C17 C 0.4641(7) 0.7104(6) 0.0371(2)
H16 H 0.54470 0.74710 0.01440
C18 C -0.0707(5) 0.7727(5) 0.1424(2)
H17 H -0.08280 0.69020 0.11880
H18 H -0.04140 0.84210 0.11250
O3 O 0.1885(4) 0.9267(4) 0.45788(16)
O4 O 0.1267(5) 0.7116(4) 0.44294(17)
C19 C 0.2443(7) 0.8939(7) 0.5213(2)
H19 H 0.16530 0.85170 0.54560
H20 H 0.27560 0.97380 0.54290
H21 H 0.32900 0.83450 0.51760
C20 C 0.1342(5) 0.8254(5) 0.4231(2)
C21 C 0.0861(5) 0.8706(4) 0.3598(2)
H22 H 0.09010 0.96100 0.35030
H23 H 0.127(8) 0.979(7) 0.183(3)
#END
