
#######################################################################
#
#                 Cambridge Crystallographic Data Centre
#                                CCDC
#
#######################################################################
#
# If this CIF has been generated from an entry in the Cambridge
# Structural Database, then it will include bibliographic, chemical,
# crystal, experimental, refinement or atomic coordinate data resulting
# from the CCDC's data processing and validation procedures.
#
#######################################################################

data_CSD_CIF_SOCBOC
_audit_creation_date 2008-10-28
_audit_creation_method CSD-ConQuest-V1
_database_code_CSD SOCBOC
_database_code_depnum_ccdc_archive 'CCDC 675043'
_chemical_formula_sum 'C16 H17 N3 O4'
_chemical_formula_moiety
;
C16 H17 N3 O4
;
_journal_coden_Cambridge 179
_journal_volume 47
_journal_year 2008
_journal_page_first 4687
_journal_name_full 'Angew.Chem.,Int.Ed. '
loop_
_publ_author_name
"T.B.Poulsen"
"G.Dickmeiss"
"J.Overgaard"
"K.A.Jorgensen"
_chemical_name_systematic
;
(3aR,6R,6aS)-Ethyl 
2-benzyl-6-cyano-4-oxohexahydro-2H-pyrrolo[3,4-d]isoxazole-6-carboxylate
;
_cell_volume    744.612
_exptl_crystal_colour 'colorless'
_exptl_crystal_density_diffrn 1.406
_exptl_crystal_description 'block'
_diffrn_ambient_temperature 100
#These two values have been output from a single CSD field.
_refine_ls_R_factor_gt 0.0318
_refine_ls_wR_factor_gt 0.0318
_symmetry_cell_setting monoclinic
_symmetry_space_group_name_H-M 'P 21'
_symmetry_Int_Tables_number 4
loop_
_symmetry_equiv_pos_site_id
_symmetry_equiv_pos_as_xyz
1 x,y,z
2 -x,1/2+y,-z
_cell_length_a 8.3361(2)
_cell_length_b 6.4595(2)
_cell_length_c 13.8621(4)
_cell_angle_alpha 90
_cell_angle_beta 94.003(1)
_cell_angle_gamma 90
_cell_formula_units_Z 2
loop_
_atom_type_symbol
_atom_type_radius_bond
C 0.68
H 0.23
N 0.68
O 0.68
loop_
_atom_site_label
_atom_site_type_symbol
_atom_site_fract_x
_atom_site_fract_y
_atom_site_fract_z
C1 C 0.21433(18) 0.0514(2) 0.90311(11)
H1 H 0.17110 0.07790 0.83910
C2 C 0.33127(16) -0.3081(2) 0.62393(9)
C3 C 0.09595(17) -0.5175(2) 0.6595(1)
H2 H 0.08340 -0.66350 0.63630
C4 C 0.26862(17) -0.4683(2) 0.69862(9)
H3 H 0.33630 -0.59630 0.70130
C5 C 0.33813(18) -0.0202(3) 1.09095(11)
H4 H 0.37880 -0.04400 1.15570
C6 C 0.05707(17) -0.3607(2) 0.57978(10)
C7 C 0.44727(16) -0.4183(2) 0.56565(10)
C8 C 0.06852(17) -0.2923(2) 0.89881(10)
H5 H 0.09190 -0.42920 0.92870
H6 H -0.04530 -0.25840 0.90770
C9 C 0.41530(17) -0.1261(2) 0.67739(10)
C10 C 0.00070(17) -0.4735(2) 0.74755(10)
H7 H -0.11080 -0.43040 0.72790
H8 H -0.00210 -0.59620 0.79020
C11 C 0.23740(18) -0.1649(2) 1.04401(11)
H9 H 0.21040 -0.28800 1.07670
C12 C 0.66598(19) -0.0267(3) 0.75486(11)
H10 H 0.74550 -0.09030 0.80230
H11 H 0.60110 0.07350 0.78960
C13 C 0.17527(16) -0.1313(2) 0.94907(10)
C14 C 0.37972(18) 0.1594(3) 1.04346(11)
H12 H 0.45130 0.25640 1.07490
C15 C 0.31621(18) 0.1960(3) 0.95012(11)
H13 H 0.34220 0.32020 0.91800
C16 C 0.7520(2) 0.0842(3) 0.67814(14)
H14 H 0.80250 -0.01740 0.63740
H15 H 0.83480 0.17490 0.70890
H16 H 0.67470 0.16740 0.63820
N1 N 0.09219(14) -0.3037(2) 0.79518(8)
N2 N 0.53461(16) -0.5141(2) 0.52432(9)
N3 N 0.18928(14) -0.24496(19) 0.56686(9)
H17 H 0.18830 -0.13940 0.52670
O1 O 0.25964(11) -0.38243(16) 0.79208(7)
O2 O -0.07389(12) -0.34142(19) 0.53477(8)
O3 O 0.35524(13) 0.03974(17) 0.68741(7)
O4 O 0.56189(12) -0.18608(16) 0.71093(7)
#END
