
#######################################################################
#
#                 Cambridge Crystallographic Data Centre
#                                CCDC
#
#######################################################################
#
# If this CIF has been generated from an entry in the Cambridge
# Structural Database, then it will include bibliographic, chemical,
# crystal, experimental, refinement or atomic coordinate data resulting
# from the CCDC's data processing and validation procedures.
#
#######################################################################

data_CSD_CIF_SODHUP
_audit_creation_date 2008-10-28
_audit_creation_method CSD-ConQuest-V1
_database_code_CSD SODHUP
_database_code_depnum_ccdc_archive 'CCDC 693254'
_chemical_formula_sum 'C24 H30 N2 O6'
_chemical_formula_moiety
;
C24 H30 N2 O6
;
_journal_coden_Cambridge 179
_journal_volume 47
_journal_year 2008
_journal_page_first 4432
_journal_name_full 'Angew.Chem.,Int.Ed. '
loop_
_publ_author_name
"S.Barluenga"
"Cuihua Wang"
"J.-G.Fontaine"
"K.Aouadi"
"K.Beebe"
"S.Tsutsumi"
"L.Neckers"
"N.Winssinger"
_chemical_name_systematic
;
1^4^,1^6^-Dihydroxy-3-oxa-1(1,2)benzenacyclotridecaphane-6,10-diene-2,12-dione
 12-O-(piperidinoylmethyl)oxime
;
_cell_volume   2230.260
_exptl_crystal_colour 'colorless'
_exptl_crystal_density_diffrn 1.318
_exptl_special_details
;
potent inhibitor of the heat-shock protein 90 (HSP90); potential anti-cancer 
agent
;
_exptl_crystal_description 'needle'
_diffrn_ambient_temperature 173
#These two values have been output from a single CSD field.
_refine_ls_R_factor_gt 0.1059
_refine_ls_wR_factor_gt 0.1059
_symmetry_cell_setting monoclinic
_symmetry_space_group_name_H-M 'P 21/c'
_symmetry_Int_Tables_number 14
loop_
_symmetry_equiv_pos_site_id
_symmetry_equiv_pos_as_xyz
1 x,y,z
2 -x,1/2+y,1/2-z
3 -x,-y,-z
4 x,-1/2-y,-1/2+z
_cell_length_a 16.9270(15)
_cell_length_b 5.5090(3)
_cell_length_c 28.817(2)
_cell_angle_alpha 90
_cell_angle_beta 123.906(3)
_cell_angle_gamma 90
_cell_formula_units_Z 4
loop_
_atom_type_symbol
_atom_type_radius_bond
C 0.68
H 0.23
N 0.68
O 0.68
loop_
_atom_site_label
_atom_site_type_symbol
_atom_site_fract_x
_atom_site_fract_y
_atom_site_fract_z
C1 C 0.8165(5) 1.1215(11) -0.2275(3)
H1 H 0.76940 1.13020 -0.21740
H2 H 0.85950 1.26300 -0.21040
C2 C 0.7676(5) 1.1336(13) -0.2872(3)
H3 H 0.73580 1.29350 -0.30010
H4 H 0.71740 1.00730 -0.30420
C3 C 0.8313(4) 1.0992(10) -0.3080(2)
H5 H 0.87370 1.24160 -0.29760
H6 H 0.79220 1.08450 -0.34920
C4 C 0.8908(5) 0.8701(11) -0.2819(2)
H7 H 0.84870 0.72670 -0.29830
H8 H 0.93840 0.86030 -0.29160
C5 C 0.9414(4) 0.8604(12) -0.2199(2)
H9 H 0.97310 0.70100 -0.20590
H10 H 0.99080 0.98840 -0.20250
C6 C 0.8780(3) 0.7611(9) -0.1648(2)
C7 C 0.8144(4) 0.8299(9) -0.1453(2)
H11 H 0.82870 0.99910 -0.13140
H12 H 0.74730 0.82430 -0.17770
C8 C 0.7582(3) 0.3571(8) -0.09088(17)
C9 C 0.6901(3) 0.1552(8) -0.11187(18)
H13 H 0.70330 0.02610 -0.08670
C10 C 0.6127(3) 0.1376(9) -0.16245(18)
H14 H 0.60050 0.26470 -0.18790
C11 C 0.5424(3) -0.0641(9) -0.1834(2)
H15 H 0.56740 -0.19410 -0.15490
H16 H 0.53400 -0.13300 -0.21760
C12 C 0.4454(3) 0.0198(10) -0.1967(2)
H17 H 0.42100 0.15300 -0.22450
H18 H 0.39960 -0.11650 -0.21340
C13 C 0.4524(3) 0.1067(10) -0.1451(2)
H19 H 0.44540 -0.01170 -0.12370
C14 C 0.4672(4) 0.3303(11) -0.1272(2)
H20 H 0.46680 0.45030 -0.15100
C15 C 0.4848(4) 0.4177(11) -0.0726(2)
H21 H 0.43090 0.52190 -0.08060
H22 H 0.48620 0.27550 -0.05110
C16 C 0.5759(4) 0.5582(10) -0.0368(2)
H23 H 0.57140 0.71160 -0.05600
H24 H 0.58370 0.60050 -0.00110
C17 C 0.6949(4) 0.2602(9) 0.0166(2)
C18 C 0.7819(3) 0.1412(8) 0.02974(17)
C19 C 0.8141(3) -0.0619(9) 0.06712(18)
C20 C 0.8936(3) -0.1946(9) 0.08167(18)
H25 H 0.91240 -0.33050 0.10590
C21 C 0.9454(3) -0.1253(9) 0.06013(18)
C22 C 0.9187(3) 0.0753(8) 0.02487(19)
H26 H 0.95660 0.12210 0.01150
C23 C 0.8374(3) 0.2079(8) 0.00903(18)
C24 C 0.8196(3) 0.4171(9) -0.02911(19)
H27 H 0.88170 0.47870 -0.02000
H28 H 0.78870 0.54940 -0.02150
O1 O 0.9321(2) 0.5886(7) -0.14450(14)
O2 O 0.8250(2) 0.6778(6) -0.10286(13)
O3 O 0.6600(2) 0.4246(6) -0.02470(13)
O4 O 0.6533(3) 0.2147(7) 0.04011(14)
O5 O 0.7655(2) -0.1379(6) 0.08943(13)
H29 H 0.71830 -0.04690 0.07840
O6 O 1.0239(2) -0.2468(7) 0.07076(14)
H30 H 1.03440 -0.36570 0.09170
N1 N 0.8721(3) 0.8971(8) -0.20463(19)
N2 N 0.7604(3) 0.4798(7) -0.12798(15)
#END
