
#######################################################################
#
#                 Cambridge Crystallographic Data Centre
#                                CCDC
#
#######################################################################
#
# If this CIF has been generated from an entry in the Cambridge
# Structural Database, then it will include bibliographic, chemical,
# crystal, experimental, refinement or atomic coordinate data resulting
# from the CCDC's data processing and validation procedures.
#
#######################################################################

data_CSD_CIF_SOFKOO
_audit_creation_date 2008-10-28
_audit_creation_method CSD-ConQuest-V1
_database_code_CSD SOFKOO
_database_code_depnum_ccdc_archive 'CCDC 684633'
_chemical_formula_sum 'C16 H15 N1 O5'
_chemical_formula_moiety
;
C16 H15 N1 O5
;
_journal_coden_Cambridge 24
_journal_volume 49
_journal_year 2008
_journal_page_first 4467
_journal_name_full 'Tetrahedron Lett. '
loop_
_publ_author_name
"M.A.Yawer"
"I.Hussain"
"I.Iqbal"
"A.Spannenberg"
"P.Langer"
_chemical_name_systematic
;
Methyl 3-hydroxy-4,5-dimethyl-4'-nitro-2-biphenylcarboxylate
;
_cell_volume   1416.957
_exptl_crystal_colour 'colorless'
_exptl_crystal_density_diffrn 1.412
_exptl_crystal_description 'prism'
_diffrn_ambient_temperature 200
#These two values have been output from a single CSD field.
_refine_ls_R_factor_gt 0.0453
_refine_ls_wR_factor_gt 0.0453
_symmetry_cell_setting monoclinic
_symmetry_space_group_name_H-M 'P 21/n'
_symmetry_Int_Tables_number 14
loop_
_symmetry_equiv_pos_site_id
_symmetry_equiv_pos_as_xyz
1 x,y,z
2 1/2-x,1/2+y,1/2-z
3 -x,-y,-z
4 -1/2+x,-1/2-y,-1/2+z
_cell_length_a 13.539(3)
_cell_length_b 7.6294(15)
_cell_length_c 13.870(3)
_cell_angle_alpha 90
_cell_angle_beta 98.50(3)
_cell_angle_gamma 90
_cell_formula_units_Z 4
loop_
_atom_type_symbol
_atom_type_radius_bond
C 0.68
H 0.23
N 0.68
O 0.68
loop_
_atom_site_label
_atom_site_type_symbol
_atom_site_fract_x
_atom_site_fract_y
_atom_site_fract_z
C1 C 0.61316(14) 0.3566(3) 0.58019(13)
C2 C 0.62141(14) 0.3600(3) 0.48013(14)
C3 C 0.70157(15) 0.4408(3) 0.44432(14)
C4 C 0.77536(14) 0.5178(3) 0.51044(15)
C5 C 0.76700(14) 0.5183(3) 0.60986(14)
H1 H 0.81810 0.57240 0.65420
C6 C 0.68695(14) 0.4430(2) 0.64575(13)
C7 C 0.68009(13) 0.4747(2) 0.75056(13)
C8 C 0.75989(14) 0.4357(2) 0.82231(14)
H2 H 0.81830 0.38390 0.80430
C9 C 0.75593(15) 0.4710(3) 0.91967(14)
H3 H 0.81020 0.44210 0.96870
C10 C 0.67118(15) 0.5489(3) 0.94317(13)
C11 C 0.59110(15) 0.5934(3) 0.87393(14)
H4 H 0.53390 0.64910 0.89220
C12 C 0.59597(14) 0.5553(3) 0.77766(14)
H5 H 0.54130 0.58420 0.72910
C13 C 0.53142(14) 0.2511(3) 0.60933(14)
C14 C 0.46318(18) 0.1048(3) 0.73358(17)
H6 H 0.47890 0.08030 0.80350
H7 H 0.45650 -0.00590 0.69730
H8 H 0.40030 0.17030 0.72070
C15 C 0.70428(19) 0.4417(3) 0.33634(16)
H9 H 0.76450 0.50280 0.32300
H10 H 0.64500 0.50200 0.30300
H11 H 0.70510 0.32080 0.31260
C16 C 0.86470(17) 0.6051(3) 0.47733(18)
H12 H 0.86030 0.59360 0.40650
H13 H 0.92600 0.54880 0.50910
H14 H 0.86570 0.72960 0.49490
N1 N 0.66451(14) 0.5818(2) 1.04649(12)
O1 O 0.54258(10) 0.2077(2) 0.70282(10)
O2 O 0.46029(12) 0.2002(3) 0.55299(11)
O3 O 0.55209(13) 0.2834(2) 0.41293(10)
O4 O 0.73119(14) 0.5272(2) 1.10754(11)
O5 O 0.59184(13) 0.6626(2) 1.06602(12)
H15 H 0.503(3) 0.243(5) 0.440(3)
#END
