
#######################################################################
#
#                 Cambridge Crystallographic Data Centre
#                                CCDC
#
#######################################################################
#
# If this CIF has been generated from an entry in the Cambridge
# Structural Database, then it will include bibliographic, chemical,
# crystal, experimental, refinement or atomic coordinate data resulting
# from the CCDC's data processing and validation procedures.
#
#######################################################################

data_CSD_CIF_SOGDAU
_audit_creation_date 2008-10-28
_audit_creation_method CSD-ConQuest-V1
_database_code_CSD SOGDAU
_database_code_depnum_ccdc_archive 'CCDC 696538'
_chemical_formula_sum 'C12 H11 N5 O2'
_chemical_formula_moiety
;
C12 H11 N5 O2
;
_journal_coeditor_code "IUCr SG2248"
_journal_coden_Cambridge 1370
_journal_volume 64
_journal_year 2008
_journal_page_first o1265
_journal_name_full 'Acta Crystallogr.,Sect.E:Struct.Rep.Online '
loop_
_publ_author_name
"Shang Shan"
"Yu-Liang Tian"
"Shan-Heng Wang"
"Wen-Long Wang"
"Ying-Li Xu"
_chemical_name_systematic
;
(E)-2-Acetylpyrazine 4-nitrophenylhydrazone
;
_chemical_melting_point 498
_cell_volume   1204.511
_exptl_crystal_colour 'yellow'
_exptl_crystal_density_diffrn 1.419
_exptl_crystal_description 'prism'
_exptl_crystal_preparation 'absolute ethanol'
_diffrn_ambient_temperature 295
#These two values have been output from a single CSD field.
_refine_ls_R_factor_gt 0.0421
_refine_ls_wR_factor_gt 0.0421
_symmetry_cell_setting monoclinic
_symmetry_space_group_name_H-M 'P 21/n'
_symmetry_Int_Tables_number 14
loop_
_symmetry_equiv_pos_site_id
_symmetry_equiv_pos_as_xyz
1 x,y,z
2 1/2-x,1/2+y,1/2-z
3 -x,-y,-z
4 -1/2+x,-1/2-y,-1/2+z
_cell_length_a 8.0101(6)
_cell_length_b 12.5154(11)
_cell_length_c 12.1506(12)
_cell_angle_alpha 90
_cell_angle_beta 98.564(2)
_cell_angle_gamma 90
_cell_formula_units_Z 4
loop_
_atom_type_symbol
_atom_type_radius_bond
C 0.68
H 0.23
N 0.68
O 0.68
loop_
_atom_site_label
_atom_site_type_symbol
_atom_site_fract_x
_atom_site_fract_y
_atom_site_fract_z
N1 N 0.9003(3) 0.68785(16) 0.3418(2)
N2 N 0.6332(2) 0.36085(12) 0.57394(13)
H1 H 0.64700 0.36520 0.64960
N3 N 0.5365(2) 0.28334(12) 0.51838(13)
N4 N 0.3197(2) 0.04376(14) 0.55830(14)
N5 N 0.2175(2) 0.07812(15) 0.33069(14)
O1 O 0.9806(3) 0.75846(16) 0.3955(2)
O2 O 0.8729(3) 0.68826(16) 0.2397(2)
C1 C 0.6976(2) 0.43994(15) 0.51344(16)
C2 C 0.7855(3) 0.52394(16) 0.57162(17)
H2 H 0.79890 0.52510 0.64900
C3 C 0.8519(3) 0.60439(16) 0.51558(18)
H3 H 0.91090 0.66010 0.55440
C4 C 0.8306(3) 0.60198(15) 0.40117(18)
C5 C 0.7461(3) 0.51920(17) 0.34168(17)
H4 H 0.73390 0.51870 0.26440
C6 C 0.6803(3) 0.43744(17) 0.39758(16)
H5 H 0.62460 0.38090 0.35830
C7 C 0.4778(2) 0.20837(14) 0.57459(15)
C8 C 0.5120(3) 0.19727(18) 0.69835(17)
H6 H 0.63170 0.19390 0.72220
H7 H 0.46020 0.13310 0.72020
H8 H 0.46630 0.25780 0.73220
C9 C 0.3700(2) 0.13023(15) 0.50718(15)
C10 C 0.3179(3) 0.14575(16) 0.39353(16)
H9 H 0.35530 0.20630 0.36020
C11 C 0.1699(3) -0.00860(18) 0.38283(19)
H10 H 0.10020 -0.05870 0.34240
C12 C 0.2214(3) -0.02519(17) 0.49398(19)
H11 H 0.18650 -0.08710 0.52630
#END
