
#######################################################################
#
#                 Cambridge Crystallographic Data Centre
#                                CCDC
#
#######################################################################
#
# If this CIF has been generated from an entry in the Cambridge
# Structural Database, then it will include bibliographic, chemical,
# crystal, experimental, refinement or atomic coordinate data resulting
# from the CCDC's data processing and validation procedures.
#
#######################################################################

data_CSD_CIF_SOGYIX
_audit_creation_date 2009-03-18
_audit_creation_method CSD-ConQuest-V1
_database_code_CSD SOGYIX
_database_code_depnum_ccdc_archive 'CCDC 707630'
_chemical_formula_sum 'C16 H12 N4 O4'
_chemical_formula_moiety
;
C16 H12 N4 O4
;
_journal_coden_Cambridge 388
_journal_volume 44
_journal_year 2008
_journal_page_first 442
_journal_name_full 'Zh.Org.Khim.(Russ.)(Russ.J.Org.Chem.) '
loop_
_publ_author_name
"V.V.Mel'nikov"
"I.G.Il'ina"
"I.V.Fedyanin"
"B.N.Tarasevich"
_chemical_name_systematic
;
8-(p-Tolylamino)-5,7-dinitroquinoline
;
_cell_volume   1432.443
_exptl_crystal_colour 'reddish-orange'
_exptl_crystal_density_diffrn 1.504
_exptl_crystal_description 'needle'
_diffrn_ambient_temperature 98
#These two values have been output from a single CSD field.
_refine_ls_R_factor_gt 0.0524
_refine_ls_wR_factor_gt 0.0524
_symmetry_cell_setting monoclinic
_symmetry_space_group_name_H-M 'P 21/c'
_symmetry_Int_Tables_number 14
loop_
_symmetry_equiv_pos_site_id
_symmetry_equiv_pos_as_xyz
1 x,y,z
2 -x,1/2+y,1/2-z
3 -x,-y,-z
4 x,-1/2-y,-1/2+z
_cell_length_a 4.6669(9)
_cell_length_b 22.465(4)
_cell_length_c 13.784(3)
_cell_angle_alpha 90
_cell_angle_beta 97.601(5)
_cell_angle_gamma 90
_cell_formula_units_Z 4
loop_
_atom_type_symbol
_atom_type_radius_bond
C 0.68
H 0.23
N 0.68
O 0.68
loop_
_atom_site_label
_atom_site_type_symbol
_atom_site_fract_x
_atom_site_fract_y
_atom_site_fract_z
O1 O 0.1878(5) 0.48589(10) 0.38255(15)
O2 O 0.4221(5) 0.46627(10) 0.26515(15)
O3 O 0.9389(4) 0.29396(8) 0.24123(12)
O4 O 1.2025(4) 0.26229(7) 0.37336(12)
N1 N 0.5295(4) 0.31452(9) 0.62564(13)
N2 N 0.3566(5) 0.45493(9) 0.34570(16)
N3 N 0.9915(4) 0.28928(9) 0.33149(15)
N4 N 0.8637(4) 0.25003(9) 0.53239(14)
H1 H 0.82770 0.24900 0.59270
C1 C 0.3550(5) 0.34423(12) 0.67651(18)
H2 H 0.32080 0.32880 0.73810
C2 C 0.2202(5) 0.39672(12) 0.64395(17)
H3 H 0.10060 0.41720 0.68370
C3 C 0.2593(5) 0.41903(11) 0.55470(17)
H4 H 0.16860 0.45530 0.53240
C4 C 0.4349(5) 0.38820(11) 0.49536(17)
C5 C 0.4863(5) 0.40330(11) 0.39781(17)
C6 C 0.6594(5) 0.36894(11) 0.34892(17)
H5 H 0.68670 0.37980 0.28420
C7 C 0.7980(5) 0.31840(11) 0.39036(16)
C8 C 0.7574(5) 0.29875(11) 0.48430(16)
C9 C 0.5711(5) 0.33582(11) 0.53644(16)
C10 C 0.9528(5) 0.1947(1) 0.49594(16)
C11 C 0.8068(5) 0.17016(11) 0.41205(17)
H6 H 0.65050 0.19110 0.37600
C12 C 0.8884(5) 0.11484(11) 0.38028(18)
H7 H 0.78850 0.09840 0.32190
C13 C 1.1140(5) 0.08314(11) 0.43256(18)
C14 C 1.2561(6) 0.10864(11) 0.51770(18)
H8 H 1.41000 0.08760 0.55470
C15 C 1.1777(5) 0.16393(11) 0.54943(17)
H9 H 1.27750 0.18070 0.60760
C16 C 1.2024(6) 0.02287(11) 0.39798(19)
H10 H 1.21600 -0.00550 0.45240
H11 H 1.39080 0.02610 0.37430
H12 H 1.05790 0.00890 0.34480
#END
