
#######################################################################
#
#                 Cambridge Crystallographic Data Centre
#                                CCDC
#
#######################################################################
#
# If this CIF has been generated from an entry in the Cambridge
# Structural Database, then it will include bibliographic, chemical,
# crystal, experimental, refinement or atomic coordinate data resulting
# from the CCDC's data processing and validation procedures.
#
#######################################################################

data_CSD_CIF_SOHXOD
_audit_creation_date 2009-03-18
_audit_creation_method CSD-ConQuest-V1
_database_code_CSD SOHXOD
_database_code_depnum_ccdc_archive 'CCDC 683752'
_chemical_formula_sum 'C18 H21 N3 O3'
_chemical_formula_moiety
;
C18 H21 N3 O3
;
_journal_coden_Cambridge 579
_journal_volume 27
_journal_year 2008
_journal_page_first 4711
_journal_name_full 'Organometallics '
loop_
_publ_author_name
"M.Brasse"
"J.Campora"
"P.Palma"
"E.Alvarez"
_chemical_name_systematic
;
4-Nitro-2-[1-(2,6-di-isopropylphenylimino)methyl]pyridine N-oxide
;
_chemical_melting_point 396.25
_cell_volume    854.032
_exptl_crystal_colour 'yellow'
_exptl_crystal_density_diffrn 1.273
_exptl_crystal_description 'prism'
_exptl_crystal_preparation 'diethyl ether/hexane'
_diffrn_ambient_temperature 100
#These two values have been output from a single CSD field.
_refine_ls_R_factor_gt 0.0286
_refine_ls_wR_factor_gt 0.0286
_symmetry_cell_setting monoclinic
_symmetry_space_group_name_H-M 'P 21'
_symmetry_Int_Tables_number 4
loop_
_symmetry_equiv_pos_site_id
_symmetry_equiv_pos_as_xyz
1 x,y,z
2 -x,1/2+y,-z
_cell_length_a 9.0486(7)
_cell_length_b 6.0887(5)
_cell_length_c 15.6974(11)
_cell_angle_alpha 90
_cell_angle_beta 99.066(3)
_cell_angle_gamma 90
_cell_formula_units_Z 2
loop_
_atom_type_symbol
_atom_type_radius_bond
C 0.68
H 0.23
N 0.68
O 0.68
loop_
_atom_site_label
_atom_site_type_symbol
_atom_site_fract_x
_atom_site_fract_y
_atom_site_fract_z
O1 O 0.40997(13) 0.8010(2) 0.48453(8)
O2 O 0.09601(14) -0.0827(2) 0.38784(8)
O3 O 0.09999(13) -0.0836(2) 0.52655(8)
N1 N 0.41745(16) 0.4776(3) 0.26691(9)
N2 N 0.34873(15) 0.6092(3) 0.47840(9)
N3 N 0.13087(16) -0.0013(3) 0.46003(10)
C1 C 0.39590(18) 0.5942(3) 0.33048(11)
H1 H 0.41950 0.74640 0.33180
C2 C 0.33423(18) 0.4932(3) 0.40227(10)
C3 C 0.26359(18) 0.2915(3) 0.39611(11)
H2 H 0.25110 0.21190 0.34340
C4 C 0.21152(18) 0.2070(3) 0.46701(11)
C5 C 0.23072(18) 0.3205(3) 0.54448(11)
H3 H 0.19660 0.26050 0.59380
C6 C 0.29952(19) 0.5201(3) 0.54842(11)
H4 H 0.31350 0.59900 0.60130
C7 C 0.4717(2) 0.5862(3) 0.19700(11)
C8 C 0.3729(2) 0.7040(4) 0.13601(12)
C9 C 0.4296(2) 0.8028(4) 0.06787(12)
H5 H 0.36430 0.88410 0.02610
C10 C 0.5783(2) 0.7847(4) 0.06002(12)
H6 H 0.61550 0.85460 0.01360
C11 C 0.6741(2) 0.6637(3) 0.12031(12)
H7 H 0.77660 0.65150 0.11430
C12 C 0.6237(2) 0.5605(3) 0.18897(11)
C13 C 0.2065(2) 0.7242(4) 0.14036(13)
H8 H 0.18510 0.63700 0.19100
C14 C 0.1624(3) 0.9619(5) 0.15355(17)
H9 H 0.17950 1.04990 0.10370
H10 H 0.22310 1.02010 0.20590
H11 H 0.05630 0.96850 0.15950
C15 C 0.1137(2) 0.6284(5) 0.05938(15)
H12 H 0.13720 0.70610 0.00850
H13 H 0.00710 0.64540 0.06270
H14 H 0.13730 0.47210 0.05490
C16 C 0.7269(2) 0.4169(4) 0.25193(11)
H15 H 0.69740 0.43480 0.31030
C17 C 0.8929(2) 0.4769(5) 0.25915(13)
H16 H 0.90600 0.63380 0.27210
H17 H 0.92770 0.44440 0.20450
H18 H 0.95110 0.39100 0.30550
C18 C 0.7032(3) 0.1753(4) 0.22548(13)
H19 H 0.72620 0.15480 0.16710
H20 H 0.59870 0.13430 0.22670
H21 H 0.76930 0.08230 0.26580
#END
