
#######################################################################
#
#                 Cambridge Crystallographic Data Centre
#                                CCDC
#
#######################################################################
#
# If this CIF has been generated from an entry in the Cambridge
# Structural Database, then it will include bibliographic, chemical,
# crystal, experimental, refinement or atomic coordinate data resulting
# from the CCDC's data processing and validation procedures.
#
#######################################################################

data_CSD_CIF_SOJHII
_audit_creation_date 1992-03-02
_audit_creation_method CSD-ConQuest-V1
_database_code_CSD SOJHII
_chemical_formula_sum 'C14 H19 N1 O5'
_chemical_formula_moiety
;
C14 H19 N1 O5
;
_journal_coden_Cambridge 156
_journal_volume 212
_journal_year 1991
_journal_page_first 65
_journal_name_full 'Carbohydr.Res. '
loop_
_publ_author_name
"J.M.J.Tronchet"
"N.Bizzozero"
"M.Zsely"
"F.Barbalat-Rey"
"N.Dolatshahi"
"G.Bernardinelli"
"M.Geoffroy"
_chemical_name_systematic
;
Ethyl 2,3-dideoxy-2-(N-hydroxy-N-phenylamino)-\a-D-hexopyranos-4-ulose
;
_chemical_melting_point 401.15
_cell_volume    716.310
_exptl_crystal_density_diffrn 1.3
_exptl_special_details
;
Melting point range 401.15-402.15K

;
_diffrn_ambient_temperature ?
_diffrn_special_details
;
The study was carried out at room temperature,in the range 283-303K

;
#These two values have been output from a single CSD field.
_refine_ls_R_factor_gt 0.042
_refine_ls_wR_factor_gt 0.042
_symmetry_cell_setting monoclinic
_symmetry_space_group_name_H-M 'P 21'
_symmetry_Int_Tables_number 4
loop_
_symmetry_equiv_pos_site_id
_symmetry_equiv_pos_as_xyz
1 x,y,z
2 -x,1/2+y,-z
_cell_length_a 9.8476(6)
_cell_length_b 7.4861(6)
_cell_length_c 10.3660(7)
_cell_angle_alpha 90
_cell_angle_beta 110.388(5)
_cell_angle_gamma 90
_cell_formula_units_Z 2
loop_
_atom_type_symbol
_atom_type_radius_bond
C 0.68
H 0.23
N 0.68
O 0.68
loop_
_atom_site_label
_atom_site_type_symbol
_atom_site_fract_x
_atom_site_fract_y
_atom_site_fract_z
O1 O 0.3591(2) 0.00000 0.1416(2)
O2 O 0.3860(3) 0.3056(4) 0.1923(2)
O3 O 0.4268(3) 0.1940(5) -0.1656(3)
O4 O -0.0031(3) -0.0957(5) -0.0682(3)
O5 O 0.2707(3) -0.3403(5) 0.1159(3)
N1 N 0.3418(3) 0.3224(5) -0.1238(3)
C1 C 0.3848(3) 0.1717(5) 0.0956(3)
C2 C 0.2703(3) 0.2242(6) -0.0431(3)
C3 C 0.1886(3) 0.0554(6) -0.1173(3)
C4 C 0.1183(3) -0.0335(6) -0.0270(3)
C5 C 0.2113(4) -0.0374(6) 0.1258(4)
C6 C 0.5169(5) 0.2991(7) 0.3122(4)
C7 C 0.5110(5) 0.4363(8) 0.4127(4)
C8 C 0.2107(4) -0.2208(6) 0.1879(4)
C9 C 0.2469(3) 0.4156(6) -0.2419(3)
C10 C 0.2572(4) 0.3963(6) -0.3719(4)
C11 C 0.1711(4) 0.5028(8) -0.4798(4)
C12 C 0.0753(4) 0.6250(7) -0.4616(4)
C13 C 0.0634(4) 0.6413(7) -0.3328(4)
C14 C 0.1503(4) 0.5392(6) -0.2223(4)
H1 H 0.289(4) -0.450(5) 0.163(3)
H2 H 0.513(4) 0.238(6) -0.141(3)
H3 H 0.49020 0.16200 0.08350
H4 H 0.18860 0.31190 -0.02840
H5 H 0.10610 0.09350 -0.21470
H6 H 0.26490 -0.03680 -0.13710
H7 H 0.16640 0.06130 0.17720
H8 H 0.52670 0.16720 0.35940
H9 H 0.61010 0.32370 0.28130
H10 H 0.50100 0.56800 0.36550
H11 H 0.41750 0.41140 0.44360
H12 H 0.60950 0.43120 0.50310
H13 H 0.27630 -0.21970 0.29700
H14 H 0.10030 -0.26030 0.17510
H15 H 0.33170 0.29900 -0.38900
H16 H 0.17970 0.48830 -0.58140
H17 H 0.01010 0.70810 -0.54720
H18 H -0.01500 0.73450 -0.31780
H19 H 0.14280 0.55660 -0.12060
#END
