
#######################################################################
#
#                 Cambridge Crystallographic Data Centre
#                                CCDC
#
#######################################################################
#
# If this CIF has been generated from an entry in the Cambridge
# Structural Database, then it will include bibliographic, chemical,
# crystal, experimental, refinement or atomic coordinate data resulting
# from the CCDC's data processing and validation procedures.
#
#######################################################################

data_CSD_CIF_SOKGUU
_audit_creation_date 1992-03-26
_audit_creation_method CSD-ConQuest-V1
_database_code_CSD SOKGUU
_chemical_formula_sum 'C7 H13 N1 O7'
_chemical_formula_moiety
;
C7 H13 N1 O7
;
_journal_coden_Cambridge 156
_journal_volume 208
_journal_year 1990
_journal_page_first 1
_journal_name_full 'Carbohydr.Res. '
loop_
_publ_author_name
"J.Kopf"
"M.Morf"
"B.Zimmer"
"O.Jarchow"
"H.Brandenburg"
"P.Koll"
_chemical_name_systematic
;
2,6-Anhydro-7-deoxy-7-nitro-D-glycero-L-gulo-heptitol
;
_chemical_name_common
;
alpha-D-Glucopyranosylnitromethane
;
_cell_volume    938.795
_exptl_crystal_density_diffrn 1.579
_diffrn_ambient_temperature ?
_diffrn_special_details
;
The study was carried out at room temperature,in the range 283-303K

;
#These two values have been output from a single CSD field.
_refine_ls_R_factor_gt 0.03
_refine_ls_wR_factor_gt 0.03
_symmetry_cell_setting orthorhombic
_symmetry_space_group_name_H-M 'P 21 21 21'
_symmetry_Int_Tables_number 19
loop_
_symmetry_equiv_pos_site_id
_symmetry_equiv_pos_as_xyz
1 x,y,z
2 1/2+x,1/2-y,-z
3 -x,1/2+y,1/2-z
4 1/2-x,-y,1/2+z
_cell_length_a 6.111(1)
_cell_length_b 10.533(1)
_cell_length_c 14.585(1)
_cell_angle_alpha 90
_cell_angle_beta 90
_cell_angle_gamma 90
_cell_formula_units_Z 4
loop_
_atom_type_symbol
_atom_type_radius_bond
C 0.68
H 0.23
N 0.68
O 0.68
loop_
_atom_site_label
_atom_site_type_symbol
_atom_site_fract_x
_atom_site_fract_y
_atom_site_fract_z
O1 O 0.5665(3) 0.4266(2) 0.0623(1)
O2 O 0.4613(2) 0.4331(1) 0.2433(1)
O3 O -0.0154(3) 0.3629(1) 0.1032(1)
O4 O -0.1570(3) 0.5865(1) 0.2133(1)
O5 O 0.0673(3) 0.6060(1) 0.3844(1)
O6 O 0.6323(5) 0.3684(2) 0.4753(2)
O7 O 0.5691(4) 0.2132(2) 0.3850(2)
N1 N 0.5201(4) 0.3132(2) 0.4201(1)
C1 C 0.4563(4) 0.3214(2) 0.1030(1)
C2 C 0.3184(3) 0.3633(2) 0.1836(1)
C3 C 0.1235(3) 0.4442(2) 0.1561(1)
C4 C 0.0036(3) 0.4957(2) 0.2400(1)
C5 C 0.1652(3) 0.5638(2) 0.3015(1)
C6 C 0.3634(4) 0.4799(2) 0.3251(1)
C7 C 0.3095(4) 0.3728(2) 0.3925(1)
H1 H 0.585(5) 0.265(2) 0.125(2)
H2 H 0.365(4) 0.278(2) 0.056(2)
H3 H 0.272(5) 0.286(3) 0.216(2)
H4 H 0.166(4) 0.518(2) 0.117(2)
H5 H -0.077(4) 0.424(2) 0.275(2)
H6 H 0.219(4) 0.638(2) 0.268(1)
H7 H 0.474(5) 0.535(2) 0.353(2)
H8 H 0.236(6) 0.406(3) 0.447(2)
H9 H 0.204(5) 0.308(3) 0.368(2)
H10 H 0.550(5) 0.426(3) 0.005(2)
H11 H -0.133(6) 0.403(3) 0.081(2)
H12 H -0.273(6) 0.547(3) 0.203(3)
H13 H 0.042(6) 0.684(3) 0.384(2)
#END
