
#######################################################################
#
#                 Cambridge Crystallographic Data Centre
#                                CCDC
#
#######################################################################
#
# If this CIF has been generated from an entry in the Cambridge
# Structural Database, then it will include bibliographic, chemical,
# crystal, experimental, refinement or atomic coordinate data resulting
# from the CCDC's data processing and validation procedures.
#
#######################################################################

data_CSD_CIF_SOKGEE
_audit_creation_date 1992-03-26
_audit_creation_method CSD-ConQuest-V1
_database_code_CSD SOKGEE
_chemical_formula_sum 'C14 H14 N2 O6'
_chemical_formula_moiety
;
C14 H14 N2 O6
;
_journal_coden_Cambridge 533
_journal_volume 24
_journal_year 1990
_journal_page_first 80
_journal_name_full 'Khim.-Farm.Zh.(Russ.)(Chem.Pharm.J.) '
loop_
_publ_author_name
"G.G.Dvoryantseva"
"S.V.Lindeman"
"M.S.Aleksanyan"
"Yu.T.Struchkov"
"K.P.Teten'chuk"
"L.S.Khabarova"
"A.S.Elina"
_chemical_name_systematic
;
2,3-bis(Acetoxymethyl)quinoxaline 1,4-di-N-oxide
;
_chemical_name_common
;
Quinoxidine
;
_cell_volume   1361.487
_exptl_crystal_density_diffrn 1.5
_exptl_special_details
;
antibacterial activity

;
_diffrn_ambient_temperature 153
#These two values have been output from a single CSD field.
_refine_ls_R_factor_gt 0.044
_refine_ls_wR_factor_gt 0.044
_symmetry_cell_setting orthorhombic
_symmetry_space_group_name_H-M 'P n a 21'
_symmetry_Int_Tables_number 33
loop_
_symmetry_equiv_pos_site_id
_symmetry_equiv_pos_as_xyz
1 x,y,z
2 1/2-x,1/2+y,1/2+z
3 1/2+x,1/2-y,z
4 -x,-y,1/2+z
_cell_length_a 7.208(2)
_cell_length_b 27.921(1)
_cell_length_c 6.765(3)
_cell_angle_alpha 90
_cell_angle_beta 90
_cell_angle_gamma 90
_cell_formula_units_Z 4
loop_
_atom_type_symbol
_atom_type_radius_bond
C 0.68
H 0.23
N 0.68
O 0.68
loop_
_atom_site_label
_atom_site_type_symbol
_atom_site_fract_x
_atom_site_fract_y
_atom_site_fract_z
N1 N 0.2387(3) 0.6972(1) 0.4244(4)
C1 C 0.2098(3) 0.6500(1) 0.4657(4)
C2 C 0.1386(3) 0.6359(1) 0.6483(4)
N2 N 0.0870(3) 0.6683(1) 0.7861(3)
C3 C 0.0574(4) 0.7507(1) 0.8879(5)
C4 C 0.0786(4) 0.7985(1) 0.8434(6)
C5 C 0.1501(4) 0.8132(1) 0.6611(6)
C6 C 0.2032(4) 0.7805(1) 0.5205(6)
C7 C 0.1842(4) 0.7313(1) 0.5642(5)
C8 C 0.1102(4) 0.7171(1) 0.7460(4)
O1 O 0.3151(3) 0.7105(1) 0.2624(4)
O2 O 0.0133(3) 0.6555(1) 0.9516(3)
C9 C 0.2588(4) 0.6158(1) 0.3052(5)
O3 O 0.4557(3) 0.6055(1) 0.3243(3)
C10 C 0.5439(4) 0.5937(1) 0.1551(4)
C11 C 0.7453(4) 0.5861(1) 0.1889(5)
O4 O 0.4646(3) 0.5901(1) -0.0015(3)
C12 C 0.1146(4) 0.5844(1) 0.7055(5)
O5 O -0.0768(3) 0.5726(1) 0.6625(3)
C13 C -0.1337(4) 0.5298(1) 0.7326(5)
C14 C -0.3279(5) 0.5194(1) 0.6696(6)
O6 O -0.0377(3) 0.5040(1) 0.830(4)
H1 H 0.010(6) 0.740(1) 1.026(7)
H2 H 0.038(5) 0.821(2) 0.955(7)
H3 H 0.150(5) 0.846(1) 0.623(7)
H4 H 0.268(6) 0.791(1) 0.390(8)
H5 H 0.238(6) 0.635(2) 0.166(7)
H6 H 0.186(5) 0.584(1) 0.336(7)
H7 H 0.803(5) 0.594(1) 0.098(7)
H8 H 0.769(6) 0.555(1) 0.183(7)
H9 H 0.791(5) 0.600(1) 0.315(8)
H10 H 0.143(5) 0.580(1) 0.861(7)
H11 H 0.202(5) 0.562(1) 0.613(7)
H12 H -0.380(5) 0.500(1) 0.771(8)
H13 H -0.310(6) 0.499(1) 0.562(7)
H14 H -0.396(5) 0.543(1) 0.661(7)
#END
