
#######################################################################
#
#                 Cambridge Crystallographic Data Centre
#                                CCDC
#
#######################################################################
#
# If this CIF has been generated from an entry in the Cambridge
# Structural Database, then it will include bibliographic, chemical,
# crystal, experimental, refinement or atomic coordinate data resulting
# from the CCDC's data processing and validation procedures.
#
#######################################################################

data_CSD_CIF_SOKHEF
_audit_creation_date 1992-03-26
_audit_creation_method CSD-ConQuest-V1
_database_code_CSD SOKHEF
_chemical_formula_sum 'C12 H17 N1 O9'
_chemical_formula_moiety
;
C12 H17 N1 O9
;
_journal_coden_Cambridge 156
_journal_volume 208
_journal_year 1990
_journal_page_first 1
_journal_name_full 'Carbohydr.Res. '
loop_
_publ_author_name
"J.Kopf"
"M.Morf"
"B.Zimmer"
"O.Jarchow"
"H.Brandenburg"
"P.Koll"
_chemical_name_systematic
;
3,4,5-Tri-O-acetyl-2,6-anhydro-1-deoxy-1-nitro-D-ido-hexitol
;
_chemical_name_common
;
alpha-D-Xylopyranosylnitromethane triacetate
;
_cell_volume   1501.930
_exptl_crystal_density_diffrn 1.412
_diffrn_ambient_temperature ?
_diffrn_special_details
;
The study was carried out at room temperature,in the range 283-303K

;
#These two values have been output from a single CSD field.
_refine_ls_R_factor_gt 0.036
_refine_ls_wR_factor_gt 0.036
_symmetry_cell_setting orthorhombic
_symmetry_space_group_name_H-M 'P 21 21 21'
_symmetry_Int_Tables_number 19
loop_
_symmetry_equiv_pos_site_id
_symmetry_equiv_pos_as_xyz
1 x,y,z
2 1/2+x,1/2-y,-z
3 -x,1/2+y,1/2-z
4 1/2-x,-y,1/2+z
_cell_length_a 7.659(2)
_cell_length_b 13.697(1)
_cell_length_c 14.317(2)
_cell_angle_alpha 90
_cell_angle_beta 90
_cell_angle_gamma 90
_cell_formula_units_Z 4
loop_
_atom_type_symbol
_atom_type_radius_bond
C 0.68
H 0.23
N 0.68
O 0.68
loop_
_atom_site_label
_atom_site_type_symbol
_atom_site_fract_x
_atom_site_fract_y
_atom_site_fract_z
O1 O -0.5438(4) 0.6075(2) 0.6482(2)
O2 O -0.6674(3) 0.6166(2) 0.7813(2)
O3 O -0.3613(2) 0.7792(1) 0.7591(1)
O4 O -0.0975(3) 0.7087(1) 0.8913(1)
O5 O 0.0565(3) 0.7824(1) 0.6655(1)
O6 O -0.1520(3) 0.9129(1) 0.8589(1)
O7 O -0.0322(4) 0.5501(2) 0.9061(2)
O8 O 0.2929(3) 0.8782(2) 0.6815(2)
O9 O 0.0740(3) 1.0159(2) 0.8652(2)
N1 N -0.5390(3) 0.6115(2) 0.7313(2)
C1 C -0.3642(4) 0.6099(2) 0.7794(2)
C2 C -0.2587(3) 0.6947(2) 0.7441(2)
C3 C -0.0802(3) 0.7036(2) 0.7918(2)
C4 C 0.0082(4) 0.7985(2) 0.7614(2)
C5 C -0.1118(4) 0.8871(2) 0.7640(2)
C6 C -0.2856(4) 0.8632(2) 0.7188(2)
C7 C -0.0648(4) 0.6268(2) 0.9416(2)
C8 C -0.0771(6) 0.6462(3) 1.0427(2)
C9 C 0.2032(4) 0.8278(2) 0.6335(2)
C10 C 0.2303(5) 0.8061(3) 0.5329(3)
C11 C -0.0502(4) 0.9792(2) 0.9013(2)
C12 C -0.1132(5) 0.9999(3) 0.9969(3)
H1 H -0.315(4) 0.543(2) 0.764(2)
H2 H -0.377(3) 0.617(2) 0.848(2)
H3 H -0.237(3) 0.685(2) 0.675(1)
H4 H -0.010(3) 0.648(1) 0.777(1)
H5 H 0.098(4) 0.810(2) 0.800(2)
H6 H -0.059(3) 0.941(2) 0.734(2)
H7 H -0.268(3) 0.855(2) 0.648(2)
H8 H -0.372(4) 0.918(2) 0.729(2)
H9 H -0.089(6) 0.586(3) 1.076(3)
H10 H -0.159(6) 0.684(3) 1.061(3)
H11 H 0.011(6) 0.680(3) 1.063(3)
H12 H 0.334(6) 0.835(3) 0.509(3)
H13 H 0.147(6) 0.840(4) 0.497(3)
H14 H 0.213(6) 0.740(3) 0.516(3)
H15 H -0.030(6) 1.043(3) 1.033(3)
H16 H -0.122(5) 0.942(3) 1.030(2)
H17 H -0.203(5) 1.028(3) 0.991(2)
#END
