
#######################################################################
#
#                 Cambridge Crystallographic Data Centre
#                                CCDC
#
#######################################################################
#
# If this CIF has been generated from an entry in the Cambridge
# Structural Database, then it will include bibliographic, chemical,
# crystal, experimental, refinement or atomic coordinate data resulting
# from the CCDC's data processing and validation procedures.
#
#######################################################################

data_CSD_CIF_SOKHAB
_audit_creation_date 1992-03-26
_audit_creation_method CSD-ConQuest-V1
_database_code_CSD SOKHAB
_chemical_formula_sum 'C15 H21 N1 O11'
_chemical_formula_moiety
;
C15 H21 N1 O11
;
_journal_coden_Cambridge 156
_journal_volume 208
_journal_year 1990
_journal_page_first 1
_journal_name_full 'Carbohydr.Res. '
loop_
_publ_author_name
"J.Kopf"
"M.Morf"
"B.Zimmer"
"O.Jarchow"
"H.Brandenburg"
"P.Koll"
_chemical_name_systematic
;
1,3,4,5-Tetra-O-acetyl-2,6-anhydro-7-deoxy-7-nitro-D-glycero-D-manno-heptitol
;
_chemical_name_common
;
alpha-D-Mannopyranosylnitromethane tetra-acetate
;
_cell_volume   1923.899
_exptl_crystal_density_diffrn 1.351
_diffrn_ambient_temperature ?
_diffrn_special_details
;
The study was carried out at room temperature,in the range 283-303K

;
#These two values have been output from a single CSD field.
_refine_ls_R_factor_gt 0.043
_refine_ls_wR_factor_gt 0.043
_symmetry_cell_setting orthorhombic
_symmetry_space_group_name_H-M 'P 21 21 21'
_symmetry_Int_Tables_number 19
loop_
_symmetry_equiv_pos_site_id
_symmetry_equiv_pos_as_xyz
1 x,y,z
2 1/2+x,1/2-y,-z
3 -x,1/2+y,1/2-z
4 1/2-x,-y,1/2+z
_cell_length_a 9.590(1)
_cell_length_b 9.823(1)
_cell_length_c 20.423(1)
_cell_angle_alpha 90
_cell_angle_beta 90
_cell_angle_gamma 90
_cell_formula_units_Z 4
loop_
_atom_type_symbol
_atom_type_radius_bond
C 0.68
H 0.23
N 0.68
O 0.68
loop_
_atom_site_label
_atom_site_type_symbol
_atom_site_fract_x
_atom_site_fract_y
_atom_site_fract_z
O1 O 0.7367(3) -0.0065(3) 0.7390(1)
O2 O 0.6755(2) -0.0510(2) 0.8719(1)
O3 O 0.3892(3) -0.1234(2) 0.7587(1)
O4 O 0.2563(2) 0.0354(2) 0.8551(1)
O5 O 0.4763(3) 0.1575(2) 0.9164(1)
O6 O 0.8104(3) -0.1758(3) 1.0196(2)
O7 O 0.7921(3) -0.3264(4) 0.9434(2)
O8 O 0.9146(5) -0.0918(4) 0.6939(3)
O9 O 0.3722(5) 0.0538(3) 0.6929(2)
O10 O 0.1330(1) -0.0877(3) 0.9262(1)
O11 O 0.3147(5) 0.2044(3) 0.9920(2)
N1 N 0.7457(4) -0.2336(3) 0.9757(2)
C1 C 0.7006(4) -0.1378(4) 0.7645(2)
C2 C 0.6013(4) -0.1220(4) 0.8210(2)
C3 C 0.4656(4) -0.0462(3) 0.8068(2)
C4 C 0.3793(3) -0.0444(4) 0.8686(2)
C5 C 0.4572(4) 0.0135(4) 0.9265(2)
C6 C 0.6034(4) -0.0481(4) 0.9323(2)
C7 C 0.5997(4) -0.1881(4) 0.9645(2)
C8 C 0.8476(5) 0.0037(5) 0.7045(2)
C9 C 0.8771(6) 0.1392(5) 0.6785(2)
C10 C 0.3445(4) -0.0608(4) 0.7046(2)
C11 C 0.2543(5) -0.1503(5) 0.6638(2)
C12 C 0.1395(4) 0.0029(4) 0.8871(2)
C13 C 0.0228(4) 0.0952(5) 0.8689(2)
C14 C 0.4023(6) 0.2423(5) 0.9543(2)
C15 C 0.4342(6) 0.3853(5) 0.9400(3)
H1 H 0.654(2) -0.189(2) 0.731(1)
H2 H 0.785(1) -0.185(1) 0.776(1)
H3 H 0.577(1) -0.211(1) 0.836(1)
H4 H 0.483(1) 0.045(1) 0.787(1)
H5 H 0.357(1) -0.136(1) 0.879(1)
H6 H 0.407(1) -0.003(1) 0.963(1)
H7 H 0.657(1) 0.014(1) 0.961(1)
H8 H 0.552(1) -0.184(1) 1.005(1)
H9 H 0.552(1) -0.250(1) 0.936(1)
H10 H 0.803(2) 0.204(2) 0.688(1)
H11 H 0.892(2) 0.140(2) 0.635(1)
H12 H 0.959(2) 0.169(2) 0.701(1)
H13 H 0.236(2) -0.110(2) 0.621(1)
H14 H 0.170(2) -0.173(2) 0.685(1)
H15 H 0.310(2) -0.231(2) 0.657(1)
H16 H -0.053(2) 0.064(2) 0.894(1)
H17 H -0.005(1) 0.101(2) 0.826(1)
H18 H 0.047(2) 0.184(2) 0.888(1)
H19 H 0.390(2) 0.433(2) 0.974(1)
H20 H 0.407(2) 0.417(2) 0.897(1)
H21 H 0.538(2) 0.406(2) 0.943(1)
#END
