
#######################################################################
#
#                 Cambridge Crystallographic Data Centre
#                                CCDC
#
#######################################################################
#
# If this CIF has been generated from an entry in the Cambridge
# Structural Database, then it will include bibliographic, chemical,
# crystal, experimental, refinement or atomic coordinate data resulting
# from the CCDC's data processing and validation procedures.
#
#######################################################################

data_CSD_CIF_SOLFOP
_audit_creation_date 2009-03-18
_audit_creation_method CSD-ConQuest-V1
_database_code_CSD SOLFOP
_database_code_depnum_ccdc_archive 'CCDC 702225'
_chemical_formula_sum 'C30 H46 N2 O6'
_chemical_formula_moiety
;
C30 H46 N2 O6
;
_journal_coden_Cambridge 1078
_journal_year 2008
_journal_name_full 'CSD Communication(Private Communication) '
loop_
_publ_author_name
"J.R.Hanson"
"S.Zerbo"
"P.B.Hitchcock"
_chemical_name_systematic
;
3-Acetoxy-3-hydroxy-N-methyl-N-nitrospirostan-23-en-23-amine
;
_cell_volume   1481.865
_exptl_crystal_colour 'colorless'
_exptl_crystal_density_diffrn 1.189
_exptl_special_details
;
contribution from Chemistry Department, Sussex University, Brighton

;
_exptl_crystal_description 'prism'
_diffrn_ambient_temperature 173
#These two values have been output from a single CSD field.
_refine_ls_R_factor_gt 0.0744
_refine_ls_wR_factor_gt 0.0744
_symmetry_cell_setting monoclinic
_symmetry_space_group_name_H-M 'P 21'
_symmetry_Int_Tables_number 4
loop_
_symmetry_equiv_pos_site_id
_symmetry_equiv_pos_as_xyz
1 x,y,z
2 -x,1/2+y,-z
_cell_length_a 11.7343(13)
_cell_length_b 9.8297(12)
_cell_length_c 13.5735(17)
_cell_angle_alpha 90
_cell_angle_beta 108.827(9)
_cell_angle_gamma 90
_cell_formula_units_Z 2
loop_
_atom_type_symbol
_atom_type_radius_bond
C 0.68
H 0.23
N 0.68
O 0.68
loop_
_atom_site_label
_atom_site_type_symbol
_atom_site_fract_x
_atom_site_fract_y
_atom_site_fract_z
O1 O 0.4002(4) 0.7444(4) 0.2054(3)
O2 O 0.2608(4) 0.7249(4) 0.2956(3)
O3 O 0.2794(4) -0.1643(4) 0.7324(3)
O4 O 0.4106(6) -0.3357(5) 0.7621(5)
O5 O -0.1064(5) 0.7156(5) -0.0001(4)
O6 O 0.0556(5) 0.6692(5) -0.0378(4)
N1 N 0.0684(5) 0.7843(5) 0.1054(4)
N2 N 0.0028(5) 0.7205(6) 0.0180(4)
C1 C 0.2121(6) -0.0844(6) 0.5145(5)
H1 H 0.15860 -0.14650 0.53670
H2 H 0.20320 -0.10600 0.44110
C2 C 0.3410(6) -0.1118(6) 0.5807(5)
H3 H 0.36080 -0.20850 0.57390
H4 H 0.39610 -0.05510 0.55600
C3 C 0.3585(6) -0.0802(6) 0.6920(5)
H5 H 0.44440 -0.09690 0.73440
C4 C 0.3266(6) 0.0669(6) 0.7041(5)
H6 H 0.38410 0.12690 0.68520
H7 H 0.33490 0.08440 0.77790
C5 C 0.1984(6) 0.1021(6) 0.6360(4)
H8 H 0.14300 0.04700 0.66270
C6 C 0.1715(6) 0.2530(6) 0.6513(5)
H9 H 0.08360 0.26890 0.62270
H10 H 0.19770 0.27420 0.72660
C7 C 0.2363(6) 0.3473(6) 0.5971(5)
H11 H 0.21460 0.44290 0.60580
H12 H 0.32440 0.33750 0.63010
C8 C 0.2027(6) 0.3147(6) 0.4822(4)
H13 H 0.11390 0.32760 0.44960
C9 C 0.2340(6) 0.1649(5) 0.4645(4)
H14 H 0.32270 0.15400 0.49960
C10 C 0.1698(5) 0.0646(6) 0.5202(4)
C11 C 0.2097(7) 0.1328(6) 0.3500(5)
H15 H 0.12160 0.13240 0.31450
H16 H 0.24010 0.04030 0.34400
C12 C 0.2682(6) 0.2341(6) 0.2931(5)
H17 H 0.35690 0.22550 0.32090
H18 H 0.24210 0.21220 0.21790
C13 C 0.2317(6) 0.3802(6) 0.3081(4)
C14 C 0.2675(6) 0.4078(5) 0.4263(4)
H19 H 0.35520 0.38570 0.45590
C15 C 0.2577(7) 0.5619(6) 0.4337(5)
H20 H 0.17270 0.59200 0.41290
H21 H 0.30100 0.59540 0.50470
C16 C 0.3180(6) 0.6080(6) 0.3564(4)
H22 H 0.40470 0.62890 0.39390
C17 C 0.3090(6) 0.4922(6) 0.2780(4)
H23 H 0.39150 0.45510 0.28860
C18 C 0.0974(6) 0.4015(7) 0.2525(5)
H24 H 0.07550 0.49530 0.26320
H25 H 0.05110 0.33840 0.28070
H26 H 0.07920 0.38460 0.17790
C19 C 0.0338(6) 0.0658(7) 0.4664(5)
H27 H 0.01590 0.04190 0.39280
H28 H 0.00220 0.15670 0.47180
H29 H -0.00400 -0.00060 0.49990
C20 C 0.2629(6) 0.5593(6) 0.1704(4)
H30 H 0.17440 0.54200 0.14060
C21 C 0.3220(8) 0.5105(7) 0.0926(5)
H31 H 0.28530 0.55670 0.02590
H32 H 0.31070 0.41200 0.08290
H33 H 0.40830 0.53120 0.11880
C22 C 0.2823(6) 0.7150(6) 0.1976(4)
C23 C 0.1922(6) 0.8081(6) 0.1232(4)
C24 C 0.2282(6) 0.9176(6) 0.0823(5)
H34 H 0.16930 0.97270 0.03460
C25 C 0.3562(7) 0.9554(7) 0.1090(5)
H35 H 0.36220 1.05620 0.11930
C26 C 0.4268(7) 0.8897(6) 0.2108(5)
H36 H 0.51410 0.90390 0.22440
H37 H 0.40460 0.93150 0.26840
C27 C 0.4078(7) 0.9204(9) 0.0216(6)
H38 H 0.49270 0.94740 0.04250
H39 H 0.36260 0.96920 -0.04190
H40 H 0.40120 0.82220 0.00840
C28 C 0.0036(7) 0.8498(8) 0.1679(5)
H41 H -0.08070 0.82010 0.14380
H42 H 0.00710 0.94880 0.16070
H43 H 0.04070 0.82450 0.24110
C29 C 0.3177(7) -0.2930(7) 0.7636(5)
C30 C 0.2260(8) -0.3635(7) 0.7995(5)
H44 H 0.25150 -0.45760 0.81830
H45 H 0.14850 -0.36330 0.74350
H46 H 0.21780 -0.31620 0.86040
#END
