
#######################################################################
#
#                 Cambridge Crystallographic Data Centre
#                                CCDC
#
#######################################################################
#
# If this CIF has been generated from an entry in the Cambridge
# Structural Database, then it will include bibliographic, chemical,
# crystal, experimental, refinement or atomic coordinate data resulting
# from the CCDC's data processing and validation procedures.
#
#######################################################################

data_CSD_CIF_SOLZOJ
_audit_creation_date 2009-03-18
_audit_creation_method CSD-ConQuest-V1
_database_code_CSD SOLZOJ
_database_code_depnum_ccdc_archive 'CCDC 722947'
_chemical_formula_sum 'C10 H9 N3 O3'
_chemical_formula_moiety
;
C10 H9 N3 O3
;
_journal_coeditor_code "IUCr RK2130"
_journal_coden_Cambridge 1370
_journal_volume 65
_journal_year 2009
_journal_page_first o554
_journal_name_full 'Acta Crystallogr.,Sect.E:Struct.Rep.Online '
loop_
_publ_author_name
"D.A.Grossie"
"K.Turnbull"
"S.Felix-Balderrama"
"S.Raghavapuram"
_chemical_name_systematic
;
3-(2-Acetamidophenyl)sydnone
;
_chemical_melting_point 349
_cell_volume    986.097
_exptl_crystal_colour 'white'
_exptl_crystal_density_diffrn 1.477
_exptl_special_details
;
Melting point range 349-351K

;
_exptl_crystal_description 'Block'
_exptl_crystal_preparation 'dichloromethane/petroleum ether'
_diffrn_ambient_temperature 173
#These two values have been output from a single CSD field.
_refine_ls_R_factor_gt 0.0383
_refine_ls_wR_factor_gt 0.0383
_symmetry_cell_setting monoclinic
_symmetry_space_group_name_H-M 'P 21/c'
_symmetry_Int_Tables_number 14
loop_
_symmetry_equiv_pos_site_id
_symmetry_equiv_pos_as_xyz
1 x,y,z
2 -x,1/2+y,1/2-z
3 -x,-y,-z
4 x,-1/2-y,-1/2+z
_cell_length_a 7.7348(4)
_cell_length_b 13.7212(7)
_cell_length_c 9.6698(5)
_cell_angle_alpha 90
_cell_angle_beta 106.083(1)
_cell_angle_gamma 90
_cell_formula_units_Z 4
loop_
_atom_type_symbol
_atom_type_radius_bond
C 0.68
H 0.23
N 0.68
O 0.68
loop_
_atom_site_label
_atom_site_type_symbol
_atom_site_fract_x
_atom_site_fract_y
_atom_site_fract_z
O1 O 0.84105(9) 0.07745(5) 0.51445(7)
N1 N 0.82573(10) 0.08267(6) 0.29241(8)
N2 N 0.76980(11) 0.03010(6) 0.38528(9)
C1 C 0.92672(12) 0.16064(7) 0.34726(10)
H1 H 0.97910 0.20670 0.29590
C2 C 0.94005(12) 0.16089(7) 0.49604(10)
O2 O 1.01261(10) 0.21147(6) 0.59934(8)
C3 C 0.78190(12) 0.04762(7) 0.14601(9)
C4 C 0.67371(12) 0.10348(7) 0.03402(10)
N3 N 0.59485(11) 0.19068(6) 0.06408(8)
H2 H 0.579(2) 0.1987(11) 0.1492(16)
C5 C 0.63770(14) 0.06464(8) -0.10516(10)
H3 H 0.56440 0.10050 -0.18530
C6 C 0.70713(15) -0.02531(8) -0.12794(11)
H4 H 0.68200 -0.05030 -0.22420
C7 C 0.81211(14) -0.08014(8) -0.01474(11)
H5 H 0.85820 -0.14250 -0.03220
C8 C 0.84924(13) -0.04322(7) 0.12408(11)
H6 H 0.92070 -0.08000 0.20400
C9 C 0.52287(12) 0.26254(7) -0.03227(10)
O3 O 0.53832(10) 0.26491(6) -0.15559(7)
C10 C 0.42424(13) 0.34120(8) 0.02328(10)
H7 H 0.50420 0.39720 0.05440
H8 H 0.38580 0.31620 0.10500
H9 H 0.31840 0.36150 -0.05340
#END
