
#######################################################################
#
#                 Cambridge Crystallographic Data Centre
#                                CCDC
#
#######################################################################
#
# If this CIF has been generated from an entry in the Cambridge
# Structural Database, then it will include bibliographic, chemical,
# crystal, experimental, refinement or atomic coordinate data resulting
# from the CCDC's data processing and validation procedures.
#
#######################################################################

data_CSD_CIF_SOMKOU
_audit_creation_date 1992-05-18
_audit_creation_method CSD-ConQuest-V1
_database_code_CSD SOMKOU
_database_code_depnum_ccdc_archive 'CCDC 1261858'
_chemical_formula_sum 'C12 H13 N1 O3'
_chemical_formula_moiety
;
C12 H13 N1 O3
;
_journal_coden_Cambridge 15
_journal_volume 69
_journal_year 1991
_journal_page_first 673
_journal_name_full 'Can.J.Chem. '
loop_
_publ_author_name
"W.Kliegel"
"M.Tajerbashi"
"S.J.Rettig"
"J.Trotter"
_chemical_name_systematic
;
2,3-Dihydro-3-hydroxy-2,2-tetramethylene-1,3(4H)-benzoxazin-4-one
;
_cell_volume    539.716
_exptl_crystal_density_diffrn 1.35
_exptl_special_details
;
triclinic polymorph

;
_diffrn_ambient_temperature ?
_diffrn_special_details
;
The study was carried out at room temperature,in the range 283-303K

;
#These two values have been output from a single CSD field.
_refine_ls_R_factor_gt 0.046
_refine_ls_wR_factor_gt 0.046
_symmetry_cell_setting triclinic
_symmetry_space_group_name_H-M 'P -1'
_symmetry_Int_Tables_number 2
loop_
_symmetry_equiv_pos_site_id
_symmetry_equiv_pos_as_xyz
1 x,y,z
2 -x,-y,-z
_cell_length_a 8.551(1)
_cell_length_b 9.331(3)
_cell_length_c 7.236(1)
_cell_angle_alpha 103.38(2)
_cell_angle_beta 104.68(1)
_cell_angle_gamma 80.37(2)
_cell_formula_units_Z 2
loop_
_atom_type_symbol
_atom_type_radius_bond
C 0.68
H 0.23
N 0.68
O 0.68
loop_
_atom_site_label
_atom_site_type_symbol
_atom_site_fract_x
_atom_site_fract_y
_atom_site_fract_z
O1 O 0.4062(1) 0.2679(1) 0.2386(2)
O2 O 0.0017(1) 0.3178(2) 0.3190(2)
O3 O 0.1720(2) 0.4208(1) 0.6774(2)
N1 N 0.1695(2) 0.3218(2) 0.3601(2)
C1 C 0.2487(2) 0.2223(2) 0.2124(2)
C2 C 0.2455(2) 0.3605(2) 0.5478(3)
C3 C 0.4243(2) 0.3343(2) 0.5836(2)
C4 C 0.5207(2) 0.3627(2) 0.7711(3)
C5 C 0.6869(2) 0.3526(2) 0.7993(3)
C6 C 0.7588(2) 0.3137(2) 0.6401(3)
C7 C 0.6658(2) 0.2826(2) 0.4534(3)
C8 C 0.4983(2) 0.2919(2) 0.4255(2)
C9 C 0.1602(3) 0.2326(3) 0.0054(3)
C10 C 0.2257(4) 0.0917(3) -0.1161(3)
C11 C 0.2661(3) -0.0237(3) 0.0103(3)
C12 C 0.2626(3) 0.0583(2) 0.2184(3)
H1 H -0.046(3) 0.415(3) 0.324(3)
H2 H 0.468(2) 0.388(2) 0.874(3)
H3 H 0.751(2) 0.377(2) 0.921(3)
H4 H 0.870(3) 0.308(2) 0.666(3)
H5 H 0.716(2) 0.259(2) 0.340(3)
H6 H 0.045(3) 0.230(3) -0.012(3)
H7 H 0.168(3) 0.322(3) -0.030(3)
H8 H 0.145(3) 0.070(3) -0.237(4)
H9 H 0.343(4) 0.109(4) -0.149(5)
H10 H 0.188(4) -0.098(3) -0.031(4)
H11 H 0.376(4) -0.091(3) 0.008(4)
H12 H 0.356(3) 0.031(2) 0.311(3)
H13 H 0.165(3) 0.040(2) 0.255(3)
#END
