
#######################################################################
#
#                 Cambridge Crystallographic Data Centre
#                                CCDC
#
#######################################################################
#
# If this CIF has been generated from an entry in the Cambridge
# Structural Database, then it will include bibliographic, chemical,
# crystal, experimental, refinement or atomic coordinate data resulting
# from the CCDC's data processing and validation procedures.
#
#######################################################################

data_CSD_CIF_SOMZAW
_audit_creation_date 2009-07-30
_audit_creation_method CSD-ConQuest-V1
_database_code_CSD SOMZAW
_database_code_depnum_ccdc_archive 'CCDC 690240'
_chemical_formula_sum 'C27 H25 N1 O5'
_chemical_formula_moiety
;
C27 H25 N1 O5
;
_journal_coden_Cambridge 1220
_journal_volume 15
_journal_year 2009
_journal_page_first 324
_journal_name_full 'Chem.-Eur.J. '
loop_
_publ_author_name
"Bao Hu"
"Jianlin Zhu"
"Siyang Xing"
"Jie Fang"
"Ding Du"
"Zhongwen Wang"
_chemical_name_systematic
;
Dimethyl 5-benzylidene-2,3-diphenyl-1,2-oxazinane-4,4-dicarboxylate
;
_chemical_melting_point 410.15
_cell_volume   1125.650
_exptl_crystal_colour 'white'
_exptl_crystal_density_diffrn 1.308
_exptl_special_details
;
Melting point range 410.15-411.15K

;
_diffrn_ambient_temperature 113
#These two values have been output from a single CSD field.
_refine_ls_R_factor_gt 0.0516
_refine_ls_wR_factor_gt 0.0516
_symmetry_cell_setting triclinic
_symmetry_space_group_name_H-M 'P -1'
_symmetry_Int_Tables_number 2
loop_
_symmetry_equiv_pos_site_id
_symmetry_equiv_pos_as_xyz
1 x,y,z
2 -x,-y,-z
_cell_length_a 9.4825(19)
_cell_length_b 11.438(2)
_cell_length_c 11.959(2)
_cell_angle_alpha 65.33(3)
_cell_angle_beta 84.61(3)
_cell_angle_gamma 72.85(3)
_cell_formula_units_Z 2
loop_
_atom_type_symbol
_atom_type_radius_bond
C 0.68
H 0.23
N 0.68
O 0.68
loop_
_atom_site_label
_atom_site_type_symbol
_atom_site_fract_x
_atom_site_fract_y
_atom_site_fract_z
O1 O 0.66116(13) 0.53157(11) 0.09024(12)
O2 O 0.83764(14) 0.48583(13) 0.42608(13)
O3 O 0.98317(13) 0.53218(11) 0.26338(12)
O4 O 0.57241(14) 0.85086(13) 0.26286(15)
O5 O 0.81572(14) 0.79384(13) 0.29335(14)
N1 N 0.65697(16) 0.47842(13) 0.22255(14)
C1 C 0.59860(18) 0.59335(16) 0.25837(17)
H1 H 0.59220 0.55450 0.34820
C2 C 0.72755(18) 0.65892(16) 0.22940(17)
C3 C 0.77088(18) 0.69500(16) 0.09620(17)
C4 C 0.7880(2) 0.58255(16) 0.05600(18)
H2 H 0.79790 0.61550 -0.03250
H3 H 0.87660 0.51100 0.09470
C5 C 0.57990(18) 0.37919(16) 0.26483(18)
C6 C 0.5258(2) 0.33953(17) 0.18651(19)
H4 H 0.53240 0.38300 0.10170
C7 C 0.4619(2) 0.23472(17) 0.2355(2)
H5 H 0.42650 0.20770 0.18300
C8 C 0.4501(2) 0.17019(17) 0.3607(2)
H6 H 0.40630 0.10050 0.39260
C9 C 0.5037(2) 0.20975(18) 0.4389(2)
H7 H 0.49580 0.16670 0.52360
C10 C 0.5690(2) 0.31291(17) 0.39149(18)
H8 H 0.60590 0.33830 0.44450
C11 C 0.44347(19) 0.67763(16) 0.20736(18)
C12 C 0.3294(2) 0.66234(17) 0.2895(2)
H9 H 0.35190 0.60770 0.37250
C13 C 0.1836(2) 0.72650(18) 0.2505(2)
H10 H 0.10890 0.71630 0.30700
C14 C 0.1491(2) 0.80604(19) 0.1269(2)
H11 H 0.05100 0.84810 0.09980
C15 C 0.2609(2) 0.82280(19) 0.0439(2)
H12 H 0.23790 0.87660 -0.03920
C16 C 0.4082(2) 0.75944(17) 0.08416(19)
H13 H 0.48300 0.77220 0.02800
C17 C 0.69244(19) 0.77866(17) 0.26377(18)
C18 C 0.8000(2) 0.90486(19) 0.3265(2)
H14 H 0.73210 0.98380 0.26930
H15 H 0.89440 0.92080 0.32410
H16 H 0.76320 0.88380 0.40810
C19 C 0.85562(19) 0.54827(17) 0.31865(18)
C20 C 1.1082(2) 0.42864(18) 0.3408(2)
H17 H 1.12080 0.44680 0.41010
H18 H 1.19610 0.42830 0.29390
H19 H 1.09000 0.34270 0.36940
C21 C 0.78857(19) 0.81401(17) 0.02062(18)
H20 H 0.76210 0.88210 0.04850
C22 C 0.84706(19) 0.84532(16) -0.10373(17)
C23 C 0.7752(2) 0.95863(17) -0.20551(18)
H21 H 0.68990 1.01860 -0.19530
C24 C 0.8307(2) 0.98215(18) -0.3221(2)
H22 H 0.78160 1.05720 -0.38990
C25 C 0.9589(2) 0.89423(19) -0.3380(2)
H23 H 0.99440 0.90900 -0.41650
C26 C 1.0335(2) 0.78503(18) -0.2375(2)
H24 H 1.12120 0.72740 -0.24770
C27 C 0.9784(2) 0.76103(17) -0.12145(19)
H25 H 1.02980 0.68720 -0.05390
#END
