
#######################################################################
#
#                 Cambridge Crystallographic Data Centre
#                                CCDC
#
#######################################################################
#
# If this CIF has been generated from an entry in the Cambridge
# Structural Database, then it will include bibliographic, chemical,
# crystal, experimental, refinement or atomic coordinate data resulting
# from the CCDC's data processing and validation procedures.
#
#######################################################################

data_CSD_CIF_SOPFIM
_audit_creation_date 1992-05-19
_audit_creation_method CSD-ConQuest-V1
_database_code_CSD SOPFIM
_chemical_formula_sum 'C23 H25 N1 O5'
_chemical_formula_moiety
;
C23 H25 N1 O5
;
_journal_coden_Cambridge 156
_journal_volume 216
_journal_year 1991
_journal_page_first 461
_journal_name_full 'Carbohydr.Res. '
loop_
_publ_author_name
"A.J.Blake"
"R.O.Gould"
"K.E.McGhie"
"R.M.Paton"
"D.Reed"
"I.H.Sadler"
"A.A.Young"
_chemical_name_systematic
;
(5R)-3-Phenyl-5-(3-O-benzyl-5,6-dideoxy-1,2-O-isopropylidene-\a-D-xylo-tetrofu
ranos-4-yl)-2-isoxazoline
;
_cell_volume   2108.427
_exptl_crystal_colour 'colorless'
_exptl_crystal_density_diffrn 1.246
_diffrn_ambient_temperature ?
_diffrn_special_details
;
The study was carried out at room temperature,in the range 283-303K

;
#These two values have been output from a single CSD field.
_refine_ls_R_factor_gt 0.024
_refine_ls_wR_factor_gt 0.024
_symmetry_cell_setting orthorhombic
_symmetry_space_group_name_H-M 'P 21 21 21'
_symmetry_Int_Tables_number 19
loop_
_symmetry_equiv_pos_site_id
_symmetry_equiv_pos_as_xyz
1 x,y,z
2 1/2+x,1/2-y,-z
3 -x,1/2+y,1/2-z
4 1/2-x,-y,1/2+z
_cell_length_a 10.295(4)
_cell_length_b 38.649(15)
_cell_length_c 5.299(4)
_cell_angle_alpha 90
_cell_angle_beta 90
_cell_angle_gamma 90
_cell_formula_units_Z 4
loop_
_atom_type_symbol
_atom_type_radius_bond
C 0.68
H 0.23
N 0.68
O 0.68
loop_
_atom_site_label
_atom_site_type_symbol
_atom_site_fract_x
_atom_site_fract_y
_atom_site_fract_z
C1 C -0.5777(10) -0.04989(25) -0.6866(21)
C2 C -0.6812(8) -0.04246(23) -0.4826(22)
C3 C -0.7204(8) -0.07848(23) -0.3877(18)
C4 C -0.5979(9) -0.09988(25) -0.4544(22)
O1 O -0.5549(5) -0.08582(18) -0.6872(13)
O2 O -0.4660(6) -0.03199(15) -0.6117(14)
C5 C -0.4961(10) -0.0100(3) -0.4040(23)
C6 C -0.5274(8) 0.02579(19) -0.5020(19)
C7 C -0.3868(8) -0.01092(22) -0.2243(18)
O3 O -0.6092(6) -0.02551(15) -0.2912(11)
O4 O -0.8280(6) -0.08750(14) -0.5483(12)
C8 C -0.9246(10) -0.10843(23) -0.4227(20)
C9 C -1.0265(8) -0.1181(3) -0.6124(13)
C10 C -1.0058(8) -0.1471(3) -0.7637(13)
C11 C -1.0957(8) -0.1558(3) -0.9501(13)
C12 C -1.2063(8) -0.1355(3) -0.9851(13)
C13 C -1.2270(8) -0.1065(3) -0.8339(13)
C14 C -1.1371(8) -0.0978(3) -0.6475(13)
C15 C -0.6179(11) -0.13844(25) -0.4987(22)
C16 C -0.4907(9) -0.15660(23) -0.5531(20)
C17 C -0.4889(11) -0.18238(25) -0.3478(24)
N1 N -0.5805(9) -0.18016(20) -0.1837(17)
O5 O -0.6633(6) -0.15255(18) -0.2526(16)
C18 C -0.3872(7) -0.21008(16) -0.3247(18)
C19 C -0.2835(7) -0.21135(16) -0.4939(18)
C20 C -0.1902(7) -0.23737(16) -0.4725(18)
C21 C -0.2007(7) -0.26211(16) -0.2819(18)
C22 C -0.3044(7) -0.26084(16) -0.1127(18)
C23 C -0.3976(7) -0.23482(16) -0.1341(18)
H1 H -0.60690 -0.04190 -0.87340
H2 H -0.76480 -0.02770 -0.54160
H3 H -0.74750 -0.08160 -0.19200
H4 H -0.53240 -0.09820 -0.29570
H5 H -0.55040 0.04260 -0.34540
H6 H -0.60980 0.02440 -0.62780
H7 H -0.44460 0.03600 -0.60270
H8 H -0.40820 0.00560 -0.06550
H9 H -0.29960 -0.00200 -0.31680
H10 H -0.37250 -0.03710 -0.15890
H11 H -0.87990 -0.13150 -0.34780
H12 H -0.96820 -0.09390 -0.27070
H13 H -0.92020 -0.16280 -0.73660
H14 H -1.07970 -0.17830 -1.06720
H15 H -1.27600 -0.14230 -1.12940
H16 H -1.31260 -0.09080 -0.86100
H17 H -1.15310 -0.07530 -0.53040
H18 H -0.68360 -0.14220 -0.65500
H19 H -0.40920 -0.13910 -0.54060
H20 H -0.49130 -0.16880 -0.73650
H21 H -0.27540 -0.19220 -0.64140
H22 H -0.10990 -0.23840 -0.60350
H23 H -0.12850 -0.28230 -0.26540
H24 H -0.31240 -0.28000 0.03480
H25 H -0.47790 -0.23380 -0.00320
#END
