
#######################################################################
#
#                 Cambridge Crystallographic Data Centre
#                                CCDC
#
#######################################################################
#
# If this CIF has been generated from an entry in the Cambridge
# Structural Database, then it will include bibliographic, chemical,
# crystal, experimental, refinement or atomic coordinate data resulting
# from the CCDC's data processing and validation procedures.
#
#######################################################################

data_CSD_CIF_SOPFEI
_audit_creation_date 1992-05-19
_audit_creation_method CSD-ConQuest-V1
_database_code_CSD SOPFEI
_chemical_formula_sum 'C23 H25 N1 O5'
_chemical_formula_moiety
;
C23 H25 N1 O5
;
_journal_coden_Cambridge 156
_journal_volume 216
_journal_year 1991
_journal_page_first 461
_journal_name_full 'Carbohydr.Res. '
loop_
_publ_author_name
"A.J.Blake"
"R.O.Gould"
"K.E.McGhie"
"R.M.Paton"
"D.Reed"
"I.H.Sadler"
"A.A.Young"
_chemical_name_systematic
;
(5R)-3-Phenyl-5-(3-O-benzyl-5,6-dideoxy-1,2-O-isopropylidene-\a-D-ribo-tetrofu
ranos-4-yl)-2-isoxazoline
;
_cell_volume   1977.404
_exptl_crystal_colour 'colorless'
_exptl_crystal_density_diffrn 1.328
_diffrn_ambient_temperature ?
_diffrn_special_details
;
The study was carried out at room temperature,in the range 283-303K

;
#These two values have been output from a single CSD field.
_refine_ls_R_factor_gt 0.07
_refine_ls_wR_factor_gt 0.07
_symmetry_cell_setting orthorhombic
_symmetry_space_group_name_H-M 'P 21 21 21'
_symmetry_Int_Tables_number 19
loop_
_symmetry_equiv_pos_site_id
_symmetry_equiv_pos_as_xyz
1 x,y,z
2 1/2+x,1/2-y,-z
3 -x,1/2+y,1/2-z
4 1/2-x,-y,1/2+z
_cell_length_a 19.264(7)
_cell_length_b 11.505(4)
_cell_length_c 8.922(8)
_cell_angle_alpha 90
_cell_angle_beta 90
_cell_angle_gamma 90
_cell_formula_units_Z 4
loop_
_atom_type_symbol
_atom_type_radius_bond
C 0.68
H 0.23
N 0.68
O 0.68
loop_
_atom_site_label
_atom_site_type_symbol
_atom_site_fract_x
_atom_site_fract_y
_atom_site_fract_z
C1 C 0.7258(4) 0.0492(6) -0.0601(8)
C2 C 0.7498(4) 0.1631(6) -0.1178(7)
C3 C 0.6948(3) 0.2458(5) -0.0602(7)
C4 C 0.6629(3) 0.1834(5) 0.0616(8)
O1 O 0.66311(23) 0.0673(4) 0.0124(6)
C5 C 0.5891(4) 0.2165(7) 0.1005(9)
C6 C 0.5850(4) 0.3340(7) 0.1636(7)
C7 C 0.5644(3) 0.4008(7) 0.0377(7)
N1 N 0.5448(3) 0.3405(6) -0.0732(7)
O2 O 0.54959(23) 0.2226(4) -0.0340(7)
O3 O 0.77588(23) 0.0162(4) 0.0425(6)
C8 C 0.8376(3) 0.0791(7) 0.0074(7)
C9 C 0.8734(4) 0.0987(8) 0.1536(10)
C10 C 0.8784(4) 0.017(7) -0.1034(9)
O4 O 0.81299(23) 0.1839(4) -0.0474(7)
O5 O 0.72197(23) 0.3513(4) -0.0082(4)
C11 C 0.7402(4) 0.4279(6) -0.1257(8)
C12 C 0.7794(3) 0.5235(6) -0.0616(7)
C13 C 0.8416(4) 0.5030(7) 0.0064(7)
C14 C 0.8790(5) 0.5943(9) 0.0619(9)
C15 C 0.8552(6) 0.7031(10) 0.0508(10)
C16 C 0.7952(6) 0.7227(7) -0.0126(10)
C17 C 0.7552(4) 0.6319(6) -0.0702(9)
C18 C 0.5626(3) 0.5263(7) 0.0255(8)
C19 C 0.5850(4) 0.5872(8) 0.1471(10)
C20 C 0.5854(5) 0.7082(8) 0.1384(12)
C21 C 0.5636(4) 0.7610(9) 0.0172(14)
C22 C 0.5404(4) 0.6995(8) -0.1017(11)
C23 C 0.5410(4) 0.5825(7) -0.0990(8)
H1 H 0.71880 -0.01580 -0.14610
H2 H 0.75640 0.17000 -0.23770
H3 H 0.65930 0.26980 -0.14870
H4 H 0.69160 0.20200 0.16280
H5 H 0.57040 0.15260 0.17930
H6 H 0.63480 0.36210 0.20580
H7 H 0.54690 0.33870 0.25230
H8 H 0.92090 0.14640 0.13490
H9 H 0.88520 0.01590 0.20460
H10 H 0.83990 0.14800 0.22700
H11 H 0.89650 -0.06330 -0.05650
H12 H 0.92230 0.07040 -0.13560
H13 H 0.84670 0.00020 -0.20070
H14 H 0.77150 0.38270 -0.20750
H15 H 0.69380 0.46070 -0.17900
H16 H 0.86110 0.41530 0.01640
H17 H 0.92830 0.57830 0.11550
H18 H 0.88560 0.77460 0.09410
H19 H 0.77620 0.81080 -0.02060
H20 H 0.70540 0.64920 -0.12100
H21 H 0.60200 0.54310 0.24730
H22 H 0.60370 0.75870 0.23240
H23 H 0.56430 0.85480 0.01230
H24 H 0.52110 0.74440 -0.19950
H25 H 0.52430 0.53390 -0.19610
#END
