
#######################################################################
#
#                 Cambridge Crystallographic Data Centre
#                                CCDC
#
#######################################################################
#
# If this CIF has been generated from an entry in the Cambridge
# Structural Database, then it will include bibliographic, chemical,
# crystal, experimental, refinement or atomic coordinate data resulting
# from the CCDC's data processing and validation procedures.
#
#######################################################################

data_CSD_CIF_SOPZOM
_audit_creation_date 1992-05-28
_audit_creation_method CSD-ConQuest-V1
_database_code_CSD SOPZOM
_chemical_formula_sum 'C11 H11 N3 O2'
_chemical_formula_moiety
;
C11 H11 N3 O2
;
_journal_coeditor_code "IUCr CD0022"
_journal_coden_Cambridge 591
_journal_volume 48
_journal_year 1992
_journal_page_first 184
_journal_name_full 'Acta Crystallogr.,Sect.C:Cryst.Struct.Commun. '
loop_
_publ_author_name
"M.Ishihara"
"M.Tonogaki"
"S.Ohba"
"Y.Saito"
"M.Okazaki"
"T.Katoh"
"K.Kamiyama"
_chemical_name_systematic
;
2,4-Dimethyl-1-(4-nitrophenyl)imidazole
;
_cell_volume   1045.077
_exptl_crystal_colour 'pale-yellow'
_exptl_crystal_density_diffrn 1.38
_diffrn_ambient_temperature ?
_diffrn_special_details
;
The study was carried out at room temperature,in the range 283-303K

;
#These two values have been output from a single CSD field.
_refine_ls_R_factor_gt 0.064
_refine_ls_wR_factor_gt 0.064
_symmetry_cell_setting orthorhombic
_symmetry_space_group_name_H-M 'P 21 a b'
_symmetry_Int_Tables_number 29
loop_
_symmetry_equiv_pos_site_id
_symmetry_equiv_pos_as_xyz
1 x,y,z
2 1/2+x,1/2-y,z
3 x,1/2+y,-z
4 1/2+x,-y,-z
_cell_length_a 11.808(3)
_cell_length_b 22.132(7)
_cell_length_c 3.999(1)
_cell_angle_alpha 90
_cell_angle_beta 90
_cell_angle_gamma 90
_cell_formula_units_Z 4
loop_
_atom_type_symbol
_atom_type_radius_bond
C 0.68
H 0.23
N 0.68
O 0.68
loop_
_atom_site_label
_atom_site_type_symbol
_atom_site_fract_x
_atom_site_fract_y
_atom_site_fract_z
O1 O 0.4422(8) 0.2449(4) -0.3525(23)
O2 O 0.2970(8) 0.1893(3) -0.2369(26)
N1 N 0.3466(8) 0.2357(4) -0.2396(23)
N2 N 0.1312(5) 0.4431(3) 0.2911(18)
N3 N 0.00000 0.5133(3) 0.3818(20)
C1 C 0.2941(8) 0.2930(4) -0.0792(28)
C2 C 0.1903(8) 0.2858(4) 0.0606(29)
C3 C 0.1360(8) 0.3325(3) 0.2037(26)
C4 C 0.1881(8) 0.3930(4) 0.1643(24)
C5 C 0.2938(7) 0.3979(4) 0.0283(27)
C6 C 0.3479(7) 0.3450(4) -0.1055(28)
C7 C 0.1843(8) 0.4922(4) 0.4371(25)
C8 C 0.1032(8) 0.5348(3) 0.4869(25)
C9 C 0.0190(8) 0.4572(4) 0.2503(26)
C10 C 0.1115(8) 0.5941(4) 0.6550(27)
C11 C -0.0669(9) 0.4216(4) 0.0943(28)
H1 H 0.149(5) 0.242(3) 0.065(18)
H2 H 0.059(6) 0.323(3) 0.332(18)
H3 H 0.334(6) 0.442(3) 0.023(19)
H4 H 0.429(7) 0.343(3) -0.218(18)
H5 H 0.273(5) 0.495(3) 0.496(22)
H6 H 0.196(7) 0.602(3) 0.714(20)
H7 H 0.082(7) 0.628(3) 0.48(2)
H8 H 0.060(7) 0.593(3) 0.874(21)
H9 H -0.147(6) 0.446(3) 0.104(21)
H10 H -0.046(7) 0.415(3) -0.167(20)
H11 H -0.078(8) 0.379(3) 0.216(20)
#END
