
#######################################################################
#
#                 Cambridge Crystallographic Data Centre
#                                CCDC
#
#######################################################################
#
# If this CIF has been generated from an entry in the Cambridge
# Structural Database, then it will include bibliographic, chemical,
# crystal, experimental, refinement or atomic coordinate data resulting
# from the CCDC's data processing and validation procedures.
#
#######################################################################

data_CSD_CIF_SOPZUS
_audit_creation_date 1992-05-28
_audit_creation_method CSD-ConQuest-V1
_database_code_CSD SOPZUS
_chemical_formula_sum 'C11 H11 N3 O2'
_chemical_formula_moiety
;
C11 H11 N3 O2
;
_journal_coeditor_code "IUCr CD0022"
_journal_coden_Cambridge 591
_journal_volume 48
_journal_year 1992
_journal_page_first 184
_journal_name_full 'Acta Crystallogr.,Sect.C:Cryst.Struct.Commun. '
loop_
_publ_author_name
"M.Ishihara"
"M.Tonogaki"
"S.Ohba"
"Y.Saito"
"M.Okazaki"
"T.Katoh"
"K.Kamiyama"
_chemical_name_systematic
;
2-Ethyl-1-(4-nitrophenyl)imidazole
;
_cell_volume   1038.444
_exptl_crystal_colour 'pale-yellow'
_exptl_crystal_density_diffrn 1.39
_diffrn_ambient_temperature ?
_diffrn_special_details
;
The study was carried out at room temperature,in the range 283-303K

;
#These two values have been output from a single CSD field.
_refine_ls_R_factor_gt 0.039
_refine_ls_wR_factor_gt 0.039
_symmetry_cell_setting orthorhombic
_symmetry_space_group_name_H-M 'P c a 21'
_symmetry_Int_Tables_number 29
loop_
_symmetry_equiv_pos_site_id
_symmetry_equiv_pos_as_xyz
1 x,y,z
2 1/2-x,y,1/2+z
3 1/2+x,-y,z
4 -x,-y,1/2+z
_cell_length_a 24.159(5)
_cell_length_b 4.033(1)
_cell_length_c 10.658(2)
_cell_angle_alpha 90
_cell_angle_beta 90
_cell_angle_gamma 90
_cell_formula_units_Z 4
loop_
_atom_type_symbol
_atom_type_radius_bond
C 0.68
H 0.23
N 0.68
O 0.68
loop_
_atom_site_label
_atom_site_type_symbol
_atom_site_fract_x
_atom_site_fract_y
_atom_site_fract_z
O1 O 0.6990(1) 0.8949(7) 0.6212(3)
O2 O 0.7673(1) 0.7739(8) 0.5033(3)
N1 N 0.7182(1) 0.7684(8) 0.5272(3)
N2 N 0.5713(1) 0.2034(6) 0.1766(2)
N3 N 0.5290(1) 0.0635(7) 0.00000
C1 C 0.6806(1) 0.6072(8) 0.4376(3)
C2 C 0.6243(1) 0.6180(8) 0.4611(3)
C3 C 0.5887(1) 0.4848(8) 0.3728(3)
C4 C 0.6092(1) 0.3374(7) 0.2651(3)
C5 C 0.6663(1) 0.3204(8) 0.2455(3)
C6 C 0.7021(1) 0.4596(8) 0.3319(3)
C7 C 0.5216(1) 0.0526(8) 0.2096(3)
C8 C 0.4972(1) -0.0301(8) 0.1020(3)
C9 C 0.5734(1) 0.2033(7) 0.0465(3)
C10 C 0.6192(1) 0.3537(8) -0.0282(3)
C11 C 0.6043(1) 0.3892(10) -0.1661(3)
H1 H 0.610(1) 0.724(7) 0.537(3)
H2 H 0.548(1) 0.489(7) 0.393(3)
H3 H 0.680(1) 0.221(7) 0.170(3)
H4 H 0.741(1) 0.459(6) 0.313(3)
H5 H 0.508(1) 0.028(6) 0.297(2)
H6 H 0.464(1) -0.140(6) 0.088(2)
H7 H 0.652(1) 0.200(8) -0.025(3)
H8 H 0.629(1) 0.567(7) 0.009(3)
H9 H 0.634(1) 0.497(8) -0.210(4)
H10 H 0.600(1) 0.165(10) -0.202(4)
H11 H 0.566(1) 0.534(10) -0.175(3)
#END
