
#######################################################################
#
#                 Cambridge Crystallographic Data Centre
#                                CCDC
#
#######################################################################
#
# If this CIF has been generated from an entry in the Cambridge
# Structural Database, then it will include bibliographic, chemical,
# crystal, experimental, refinement or atomic coordinate data resulting
# from the CCDC's data processing and validation procedures.
#
#######################################################################

data_CSD_CIF_SOQVEZ01
_audit_creation_date 2001-01-15
_audit_creation_method CSD-ConQuest-V1
_database_code_CSD SOQVEZ01
_database_code_depnum_ccdc_archive 'CCDC 150882'
_chemical_formula_sum 'C15 H22 N2 O3'
_chemical_formula_moiety
;
C15 H22 N2 O3
;
_journal_coden_Cambridge 16
_journal_volume 56
_journal_year 2000
_journal_page_first 6181
_journal_name_full 'Tetrahedron '
loop_
_publ_author_name
"D.Clark"
_chemical_name_systematic
;
(-)-Brevioxime
;
_chemical_melting_point 406.15
_cell_volume   1513.916
_exptl_crystal_colour 'colorless'
_exptl_crystal_density_diffrn 1.221
_exptl_special_details
;
Melts with decomposition.
inhibiting agent for juvenile hormone biosynthesis

;
_exptl_crystal_description 'needle'
_exptl_crystal_preparation 'diethyl ether'
_diffrn_ambient_temperature 100
#These two values have been output from a single CSD field.
_refine_ls_R_factor_gt 0.0639
_refine_ls_wR_factor_gt 0.0639
_symmetry_cell_setting orthorhombic
_symmetry_space_group_name_H-M 'P 21 21 21'
_symmetry_Int_Tables_number 19
loop_
_symmetry_equiv_pos_site_id
_symmetry_equiv_pos_as_xyz
1 x,y,z
2 1/2-x,-y,1/2+z
3 1/2+x,1/2-y,-z
4 -x,1/2+y,1/2-z
_cell_length_a 5.9978(10)
_cell_length_b 9.195(2)
_cell_length_c 27.451(5)
_cell_angle_alpha 90
_cell_angle_beta 90
_cell_angle_gamma 90
_cell_formula_units_Z 4
loop_
_atom_type_symbol
_atom_type_radius_bond
C 0.68
H 0.23
N 0.68
O 0.68
loop_
_atom_site_label
_atom_site_type_symbol
_atom_site_fract_x
_atom_site_fract_y
_atom_site_fract_z
O1 O 0.4188(8) 0.6939(6) 0.1379(2)
O2 O 0.6595(9) 0.3290(6) 0.1988(2)
O3 O 0.7421(9) 1.0517(6) 0.2055(2)
N1 N 0.6176(9) 0.5741(7) 0.1997(2)
N2 N 0.5715(10) 0.9516(7) 0.1913(2)
C1 C 0.3282(12) 0.5599(10) 0.1253(2)
C2 C 0.3688(12) 0.4367(9) 0.1499(3)
C3 C 0.5555(13) 0.4399(10) 0.1861(3)
C4 C 0.4865(13) 0.6982(8) 0.1883(3)
C5 C 0.8235(13) 0.6063(9) 0.2266(3)
C6 C 0.8519(13) 0.7684(9) 0.2204(3)
C7 C 0.6345(13) 0.8237(9) 0.2000(3)
C8 C 0.2666(14) 0.2938(9) 0.1378(3)
C9 C 0.1935(11) 0.5729(10) 0.0791(2)
C10 C -0.0467(13) 0.6214(9) 0.0876(3)
C11 C -0.1834(14) 0.6286(9) 0.0402(3)
C12 C -0.2322(14) 0.4792(9) 0.0188(3)
C13 C -0.3573(15) 0.4871(10) -0.0297(3)
C14 C -0.5581(14) 0.4281(11) -0.0372(3)
C15 C -0.6858(15) 0.4395(12) -0.0839(3)
H1 H 0.35430 0.70070 0.20930
H2 H 0.94910 0.55390 0.21300
H3 H 0.80850 0.58080 0.26080
H4 H 0.97340 0.78920 0.19810
H5 H 0.88390 0.81420 0.25140
H6 H 0.15050 0.30760 0.11410
H7 H 0.20470 0.25140 0.16670
H8 H 0.37840 0.23030 0.12470
H9 H 0.19230 0.47940 0.06270
H10 H 0.26570 0.64220 0.05770
H11 H -0.04620 0.71660 0.10280
H12 H -0.11800 0.55400 0.10990
H13 H -0.32330 0.67780 0.04670
H14 H -0.10210 0.68580 0.01640
H15 H -0.32040 0.42390 0.04180
H16 H -0.09270 0.42790 0.01390
H17 H -0.28970 0.53560 -0.05550
H18 H -0.62280 0.37670 -0.01160
H19 H -0.82500 0.38880 -0.08070
H20 H -0.60040 0.39690 -0.10980
H21 H -0.71390 0.54000 -0.09110
H22 H 0.65(1) 1.167(7) 0.195(2)
#END
