
#######################################################################
#
#                 Cambridge Crystallographic Data Centre
#                                CCDC
#
#######################################################################
#
# If this CIF has been generated from an entry in the Cambridge
# Structural Database, then it will include bibliographic, chemical,
# crystal, experimental, refinement or atomic coordinate data resulting
# from the CCDC's data processing and validation procedures.
#
#######################################################################

data_CSD_CIF_SORBUW
_audit_creation_date 1992-05-28
_audit_creation_method CSD-ConQuest-V1
_database_code_CSD SORBUW
_chemical_formula_sum 'C10 H8 N2 O2'
_chemical_formula_moiety
;
C10 H8 N2 O2
;
_journal_coeditor_code "IUCr CD0022"
_journal_coden_Cambridge 591
_journal_volume 48
_journal_year 1992
_journal_page_first 184
_journal_name_full 'Acta Crystallogr.,Sect.C:Cryst.Struct.Commun. '
loop_
_publ_author_name
"M.Ishihara"
"M.Tonogaki"
"S.Ohba"
"Y.Saito"
"M.Okazaki"
"T.Katoh"
"K.Kamiyama"
_chemical_name_systematic
;
1-(4-Nitrophenyl)pyrrole
;
_cell_volume   1748.837
_exptl_crystal_colour 'pale yellow'
_exptl_crystal_density_diffrn 1.43
_diffrn_ambient_temperature ?
_diffrn_special_details
;
The study was carried out at room temperature,in the range 283-303K

;
#These two values have been output from a single CSD field.
_refine_ls_R_factor_gt 0.04
_refine_ls_wR_factor_gt 0.04
_symmetry_cell_setting orthorhombic
_symmetry_space_group_name_H-M 'F d d 2'
_symmetry_Int_Tables_number 43
loop_
_symmetry_equiv_pos_site_id
_symmetry_equiv_pos_as_xyz
1 x,y,z
2 x,1/2+y,1/2+z
3 1/2+x,y,1/2+z
4 1/2+x,1/2+y,z
5 1/4-x,1/4+y,1/4+z
6 1/4-x,3/4+y,3/4+z
7 3/4-x,1/4+y,3/4+z
8 3/4-x,3/4+y,1/4+z
9 1/4+x,1/4-y,1/4+z
10 1/4+x,3/4-y,3/4+z
11 3/4+x,1/4-y,3/4+z
12 3/4+x,3/4-y,1/4+z
13 1/2-x,-y,1/2+z
14 1/2-x,1/2-y,z
15 -x,-y,z
16 -x,1/2-y,1/2+z
_cell_length_a 13.651(2)
_cell_length_b 10.930(2)
_cell_length_c 11.721(2)
_cell_angle_alpha 90
_cell_angle_beta 90
_cell_angle_gamma 90
_cell_formula_units_Z 8
loop_
_atom_type_symbol
_atom_type_radius_bond
C 0.68
H 0.23
N 0.68
O 0.68
loop_
_atom_site_label
_atom_site_type_symbol
_atom_site_fract_x
_atom_site_fract_y
_atom_site_fract_z
O1 O 0.0210(3) 0.5942(3) 0.7079(3)
N1 N 0.00000 0.50000 0.6591(4)
N2 N 0.00000 0.50000 0.1791(3)
C1 C 0.00000 0.50000 0.5344(4)
C2 C 0.0220(3) 0.6064(3) 0.4765(3)
C3 C 0.0218(3) 0.6061(3) 0.3601(3)
C4 C 0.00000 0.50000 0.3006(4)
C5 C 0.0399(3) 0.5889(3) 0.1094(3)
C6 C 0.0259(3) 0.5560(3) 0.00000
H1 H 0.034(3) 0.677(3) 0.520(3)
H2 H 0.037(2) 0.683(3) 0.320(3)
H3 H 0.077(2) 0.656(3) 0.140(3)
H4 H 0.044(2) 0.604(3) -0.071(4)
O1N O -0.0210(3) 0.4058(3) 0.7079(3)
C2N C -0.0220(3) 0.3936(3) 0.4765(3)
C3N C -0.0218(3) 0.3939(3) 0.3601(3)
C5N C -0.0399(3) 0.4111(3) 0.1094(3)
C6N C -0.0259(3) 0.4440(3) 0.00000
H1N H -0.034(3) 0.323(3) 0.520(3)
H2N H -0.037(2) 0.317(3) 0.320(3)
H3N H -0.077(2) 0.344(3) 0.140(3)
H4N H -0.044(2) 0.396(3) -0.071(4)
#END
