
#######################################################################
#
#                 Cambridge Crystallographic Data Centre
#                                CCDC
#
#######################################################################
#
# If this CIF has been generated from an entry in the Cambridge
# Structural Database, then it will include bibliographic, chemical,
# crystal, experimental, refinement or atomic coordinate data resulting
# from the CCDC's data processing and validation procedures.
#
#######################################################################

data_CSD_CIF_SORBEG01
_audit_creation_date 2017-12-18
_audit_creation_method CSD-ConQuest-V1
_database_code_CSD SORBEG01
_database_code_depnum_ccdc_archive 'CCDC 1812082'
_chemical_formula_sum 'C9 H7 N3 O2'
_chemical_formula_moiety
;
C9 H7 N3 O2
;
_journal_coden_Cambridge 1078
_journal_year 2017
_journal_name_full 'CSD Communication(Private Communication) '
loop_
_publ_author_name
"Low"
"J.Nicolson"
"Wardell"
"James"
_chemical_name_systematic
;
1-(4-nitrophenyl)-1H-pyrazole
;
_cell_volume    814.446
_exptl_crystal_colour 'brown'
_exptl_crystal_density_diffrn 1.543
_exptl_crystal_description 'plate'
_diffrn_ambient_temperature 120
#These two values have been output from a single CSD field.
_refine_ls_R_factor_gt 0.0484
_refine_ls_wR_factor_gt 0.0484
_symmetry_cell_setting monoclinic
_symmetry_space_group_name_H-M 'P 21/n'
_symmetry_Int_Tables_number 14
loop_
_symmetry_equiv_pos_site_id
_symmetry_equiv_pos_as_xyz
1 x,y,z
2 1/2-x,1/2+y,1/2-z
3 -x,-y,-z
4 -1/2+x,-1/2-y,-1/2+z
_cell_length_a 6.9199(2)
_cell_length_b 10.2568(4)
_cell_length_c 11.5010(4)
_cell_angle_alpha 90
_cell_angle_beta 93.857(2)
_cell_angle_gamma 90
_cell_formula_units_Z 4
loop_
_atom_type_symbol
_atom_type_radius_bond
C 0.68
H 0.23
N 0.68
O 0.68
loop_
_atom_site_label
_atom_site_type_symbol
_atom_site_fract_x
_atom_site_fract_y
_atom_site_fract_z
O1 O 0.39681(19) 0.25971(12) 0.81659(10)
O2 O 0.22650(19) 0.43754(13) 0.81544(11)
N1 N 0.33592(19) 0.38693(13) 0.27878(11)
N2 N 0.4169(2) 0.28987(14) 0.21638(12)
N3 N 0.3143(2) 0.35168(14) 0.76572(12)
C1 C 0.4026(2) 0.33327(17) 0.10737(14)
H1 H 0.44712 0.28634 0.04316
C2 C 0.3144(2) 0.45610(17) 0.09775(15)
H2 H 0.28902 0.50641 0.02907
C3 C 0.2731(2) 0.48767(16) 0.20858(14)
H3 H 0.21201 0.56524 0.23241
C4 C 0.3302(2) 0.37644(15) 0.40103(14)
C5 C 0.4119(2) 0.26890(16) 0.45964(14)
H4 H 0.47111 0.20180 0.41758
C6 C 0.4063(2) 0.26020(16) 0.57981(14)
H5 H 0.45980 0.18674 0.62069
C7 C 0.3215(2) 0.36034(16) 0.63920(14)
C8 C 0.2422(2) 0.46858(16) 0.58253(14)
H6 H 0.18602 0.53647 0.62517
C9 C 0.2462(2) 0.47632(16) 0.46257(14)
H7 H 0.19172 0.54977 0.42214
#END
