
#######################################################################
#
#                 Cambridge Crystallographic Data Centre
#                                CCDC
#
#######################################################################
#
# If this CIF has been generated from an entry in the Cambridge
# Structural Database, then it will include bibliographic, chemical,
# crystal, experimental, refinement or atomic coordinate data resulting
# from the CCDC's data processing and validation procedures.
#
#######################################################################

data_CSD_CIF_SORYEE
_audit_creation_date 2009-07-30
_audit_creation_method CSD-ConQuest-V1
_database_code_CSD SORYEE
_database_code_depnum_ccdc_archive 'CCDC 701235'
_chemical_formula_sum 'C14 H16 N4 O4'
_chemical_formula_moiety
;
C14 H16 N4 O4
;
_journal_coden_Cambridge 1291
_journal_year 2009
_journal_page_first 1241
_journal_name_full 'Eur.J.Org.Chem. '
loop_
_publ_author_name
"V.A.Ozeryanskii"
"A.F.Pozharskii"
"A.K.Artaryan"
"N.V.Vistorobskii"
"Z.A.Starikova"
_chemical_name_systematic
;
1,8-bis(Dimethylamino)-4,5-dinitronaphthalene
;
_cell_volume   1372.731
_exptl_crystal_colour 'red'
_exptl_crystal_density_diffrn 1.472
_exptl_crystal_description 'plate'
_exptl_crystal_preparation 'chloroform'
_diffrn_ambient_temperature 100
#These two values have been output from a single CSD field.
_refine_ls_R_factor_gt 0.0574
_refine_ls_wR_factor_gt 0.0574
_symmetry_cell_setting orthorhombic
_symmetry_space_group_name_H-M 'P c c n'
_symmetry_Int_Tables_number 56
loop_
_symmetry_equiv_pos_site_id
_symmetry_equiv_pos_as_xyz
1 x,y,z
2 1/2-x,1/2-y,z
3 -x,1/2+y,1/2-z
4 1/2+x,-y,1/2-z
5 -x,-y,-z
6 -1/2+x,-1/2+y,-z
7 x,-1/2-y,-1/2+z
8 -1/2-x,y,-1/2+z
_cell_length_a 6.9145(10)
_cell_length_b 9.6280(14)
_cell_length_c 20.620(3)
_cell_angle_alpha 90
_cell_angle_beta 90
_cell_angle_gamma 90
_cell_formula_units_Z 4
loop_
_atom_type_symbol
_atom_type_radius_bond
C 0.68
H 0.23
N 0.68
O 0.68
loop_
_atom_site_label
_atom_site_type_symbol
_atom_site_fract_x
_atom_site_fract_y
_atom_site_fract_z
O1 O 0.0646(3) 0.7942(2) -0.12657(9)
O2 O 0.1926(3) 0.9996(2) -0.13283(8)
N1 N 0.3497(3) 0.8835(2) 0.16111(10)
N2 N 0.1601(3) 0.8904(2) -0.10314(10)
C1 C 0.2926(3) 0.8799(3) 0.09767(11)
C2 C 0.2788(4) 1.0040(3) 0.06288(11)
H1 H 0.29700 1.08810 0.08430
C3 C 0.2386(4) 1.0040(3) -0.00266(11)
H2 H 0.21960 1.08770 -0.02430
C4 C 0.2263(4) 0.8802(3) -0.03641(10)
C5 C 0.25000 0.75000 -0.00534(15)
C6 C 0.25000 0.75000 0.06463(16)
C7 C 0.4792(4) 0.7788(3) 0.18870(13)
H3 H 0.47380 0.69590 0.16290
H4 H 0.43950 0.75780 0.23220
H5 H 0.60910 0.81380 0.18910
C8 C 0.3458(4) 1.0123(3) 0.19676(12)
H6 H 0.25810 1.07580 0.17610
H7 H 0.47320 1.05200 0.19750
H8 H 0.30360 0.99500 0.24040
O1A O 0.4354(3) 0.7058(2) -0.12657(9)
O2A O 0.3074(3) 0.5004(2) -0.13283(8)
N1A N 0.1503(3) 0.6165(2) 0.16111(10)
N2A N 0.3399(3) 0.6096(2) -0.10314(10)
C1A C 0.2074(3) 0.6201(3) 0.09767(11)
C2A C 0.2212(4) 0.4960(3) 0.06288(11)
H1A H 0.20300 0.41190 0.08430
C3A C 0.2614(4) 0.4960(3) -0.00266(11)
H2A H 0.28040 0.41230 -0.02430
C4A C 0.2737(4) 0.6198(3) -0.03641(10)
C7A C 0.0208(4) 0.7212(3) 0.18870(13)
H3A H 0.02620 0.80410 0.16290
H4A H 0.06050 0.74220 0.23220
H5A H -0.10910 0.68620 0.18910
C8A C 0.1542(4) 0.4877(3) 0.19676(12)
H6A H 0.24190 0.42420 0.17610
H7A H 0.02680 0.44800 0.19750
H8A H 0.19640 0.50500 0.24040
#END
