
#######################################################################
#
#                 Cambridge Crystallographic Data Centre
#                                CCDC
#
#######################################################################
#
# If this CIF has been generated from an entry in the Cambridge
# Structural Database, then it will include bibliographic, chemical,
# crystal, experimental, refinement or atomic coordinate data resulting
# from the CCDC's data processing and validation procedures.
#
#######################################################################

data_CSD_CIF_SORYII
_audit_creation_date 2009-07-30
_audit_creation_method CSD-ConQuest-V1
_database_code_CSD SORYII
_database_code_depnum_ccdc_archive 'CCDC 701237'
_chemical_formula_sum 'C18 H24 N4 O4'
_chemical_formula_moiety
;
C18 H24 N4 O4
;
_journal_coden_Cambridge 1291
_journal_year 2009
_journal_page_first 1241
_journal_name_full 'Eur.J.Org.Chem. '
loop_
_publ_author_name
"V.A.Ozeryanskii"
"A.F.Pozharskii"
"A.K.Artaryan"
"N.V.Vistorobskii"
"Z.A.Starikova"
_chemical_name_systematic
;
1,8-bis(Diethylamino)-4,5-dinitronaphthalene
;
_cell_volume   1798.752
_exptl_crystal_colour 'red'
_exptl_crystal_density_diffrn 1.331
_exptl_crystal_description 'plate'
_exptl_crystal_preparation 'ethanol'
_diffrn_ambient_temperature 120
#These two values have been output from a single CSD field.
_refine_ls_R_factor_gt 0.0575
_refine_ls_wR_factor_gt 0.0575
_symmetry_cell_setting monoclinic
_symmetry_space_group_name_H-M 'P 21/n'
_symmetry_Int_Tables_number 14
loop_
_symmetry_equiv_pos_site_id
_symmetry_equiv_pos_as_xyz
1 x,y,z
2 1/2-x,1/2+y,1/2-z
3 -x,-y,-z
4 -1/2+x,-1/2-y,-1/2+z
_cell_length_a 7.4837(5)
_cell_length_b 14.1303(10)
_cell_length_c 17.1124(12)
_cell_angle_alpha 90
_cell_angle_beta 96.272(2)
_cell_angle_gamma 90
_cell_formula_units_Z 4
loop_
_atom_type_symbol
_atom_type_radius_bond
C 0.68
H 0.23
N 0.68
O 0.68
loop_
_atom_site_label
_atom_site_type_symbol
_atom_site_fract_x
_atom_site_fract_y
_atom_site_fract_z
O1 O 0.52353(19) 0.94076(11) 0.16333(8)
O2 O 0.6173(2) 0.84389(11) 0.07836(9)
O3 O 0.8586(2) 0.89010(11) 0.23375(9)
O4 O 0.7595(2) 0.96593(12) 0.33079(9)
N1 N 0.9045(2) 1.24580(12) -0.00658(10)
N2 N 1.1250(2) 1.27199(12) 0.13857(10)
N3 N 0.6222(2) 0.92008(13) 0.11289(10)
N4 N 0.8143(2) 0.96396(14) 0.26490(11)
C1 C 0.8734(3) 1.15843(14) 0.02581(11)
C2 C 0.8108(3) 1.08394(14) -0.02239(12)
H1 H 0.81300 1.08880 -0.07760
C3 C 0.7452(3) 1.00264(14) 0.00927(12)
H2 H 0.70150 0.95250 -0.02460
C4 C 0.7423(3) 0.99346(14) 0.08847(12)
C5 C 0.8273(3) 1.05965(14) 0.14182(12)
C6 C 0.8380(3) 1.05301(15) 0.22561(12)
C7 C 0.8938(3) 1.12804(15) 0.27267(12)
H3 H 0.87720 1.12620 0.32690
C8 C 0.9734(3) 1.20616(15) 0.24290(12)
H4 H 1.00780 1.25830 0.27620
C9 C 1.0036(3) 1.20876(14) 0.16418(12)
C10 C 0.9049(3) 1.14260(14) 0.11055(11)
C11 C 0.9280(3) 1.24955(15) -0.09025(12)
H5 H 0.80830 1.24940 -0.12130
H6 H 0.99290 1.19210 -0.10450
C12 C 1.0311(3) 1.33635(17) -0.11186(14)
H7 H 1.04250 1.33560 -0.16840
H8 H 1.15090 1.33610 -0.08240
H9 H 0.96630 1.39350 -0.09880
C13 C 0.8223(3) 1.33047(15) 0.02616(12)
H10 H 0.90730 1.38420 0.02600
H11 H 0.80260 1.31760 0.08150
C14 C 0.6453(3) 1.35856(16) -0.01917(13)
H12 H 0.59830 1.41510 0.00480
H13 H 0.55900 1.30660 -0.01780
H14 H 0.66390 1.37220 -0.07380
C15 C 1.1839(3) 1.35158(15) 0.18973(12)
H15 H 1.27360 1.32880 0.23240
H16 H 1.07960 1.37640 0.21430
C16 C 1.2655(3) 1.43091(15) 0.14634(13)
H17 H 1.30250 1.48220 0.18320
H18 H 1.17640 1.45490 0.10480
H19 H 1.37050 1.40720 0.12290
C17 C 1.2558(3) 1.23731(15) 0.08742(12)
H20 H 1.28650 1.28940 0.05260
H21 H 1.19990 1.18600 0.05380
C18 C 1.4289(3) 1.20000(16) 0.13325(14)
H22 H 1.51140 1.17850 0.09630
H23 H 1.40000 1.14700 0.16660
H24 H 1.48580 1.25070 0.16620
#END
