
#######################################################################
#
#                 Cambridge Crystallographic Data Centre
#                                CCDC
#
#######################################################################
#
# If this CIF has been generated from an entry in the Cambridge
# Structural Database, then it will include bibliographic, chemical,
# crystal, experimental, refinement or atomic coordinate data resulting
# from the CCDC's data processing and validation procedures.
#
#######################################################################

data_CSD_CIF_SOVGIT
_audit_creation_date 1992-08-17
_audit_creation_method CSD-ConQuest-V1
_database_code_CSD SOVGIT
_database_code_depnum_ccdc_archive 'CCDC 1262653'
_chemical_formula_sum 'C12 H19 N3 O3'
_chemical_formula_moiety
;
C12 H19 N3 O3
;
_journal_coden_Cambridge 392
_journal_volume 32
_journal_year 1991
_journal_page_first 1913
_journal_name_full 'Heterocycles '
loop_
_publ_author_name
"R.Nesi"
"G.Giomi"
"S.Papaleo"
"S.Turchi"
"P.Dapporto"
"P.Paoli"
_chemical_name_systematic
;
3-((Z)-1-(Acetoxyimino)ethyl)-5-diethylamino-4-methylisoxazole
;
_chemical_melting_point 340.15
_cell_volume   1373.060
_exptl_crystal_colour 'colorless'
_exptl_crystal_density_diffrn 1.22
_exptl_special_details
;
Melting point range 340.15-341.15K

;
_diffrn_ambient_temperature ?
_diffrn_special_details
;
The study was carried out at room temperature,in the range 283-303K

;
#These two values have been output from a single CSD field.
_refine_ls_R_factor_gt 0.063
_refine_ls_wR_factor_gt 0.063
_symmetry_cell_setting monoclinic
_symmetry_space_group_name_H-M 'P 21/n'
_symmetry_Int_Tables_number 14
loop_
_symmetry_equiv_pos_site_id
_symmetry_equiv_pos_as_xyz
1 x,y,z
2 1/2-x,1/2+y,1/2-z
3 -x,-y,-z
4 -1/2+x,-1/2-y,-1/2+z
_cell_length_a 6.749(6)
_cell_length_b 21.574(5)
_cell_length_c 9.799(3)
_cell_angle_alpha 90
_cell_angle_beta 105.77(5)
_cell_angle_gamma 90
_cell_formula_units_Z 4
loop_
_atom_type_symbol
_atom_type_radius_bond
C 0.68
H 0.23
N 0.68
O 0.68
loop_
_atom_site_label
_atom_site_type_symbol
_atom_site_fract_x
_atom_site_fract_y
_atom_site_fract_z
O1 O 0.2156(3) 0.1700(1) 0.6968(3)
N1 N 0.1715(4) 0.2315(1) 0.7324(3)
C1 C 0.3534(4) 0.2541(1) 0.7976(3)
C2 C 0.5155(4) 0.2120(1) 0.8129(3)
C3 C 0.4211(5) 0.1597(2) 0.7456(3)
C4 C 0.7394(5) 0.2253(2) 0.8882(4)
C5 C 0.3597(5) 0.3183(2) 0.8518(3)
C6 C 0.2413(7) 0.3341(2) 0.9550(5)
N2 N 0.4641(4) 0.3624(1) 0.8183(3)
O2 O 0.5615(3) 0.3410(1) 0.7136(2)
C7 C 0.7116(5) 0.3796(2) 0.6962(4)
O3 O 0.7638(5) 0.4248(1) 0.7654(3)
C8 C 0.7969(8) 0.3558(3) 0.5806(5)
N3 N 0.4826(4) 0.1031(1) 0.7170(3)
C9 C 0.3372(9) 0.0586(2) 0.6296(6)
C10 C 0.2285(12) 0.0231(3) 0.7187(9)
C11 C 0.6954(7) 0.0833(2) 0.7749(4)
C12 C 0.7388(9) 0.0588(3) 0.9270(6)
H1 H 0.743(5) 0.264(2) 0.954(4)
H2 H 0.832(6) 0.226(2) 0.810(4)
H3 H 0.793(6) 0.194(2) 0.967(5)
H4 H 0.087(7) 0.323(2) 0.910(4)
H5 H 0.252(6) 0.379(2) 0.964(4)
H6 H 0.277(6) 0.311(2) 1.029(5)
H7 H 0.887(7) 0.390(2) 0.552(5)
H8 H 0.684(7) 0.343(2) 0.479(5)
H9 H 0.835(7) 0.321(2) 0.608(5)
H10 H 0.403(6) 0.024(2) 0.584(5)
H11 H 0.247(6) 0.081(2) 0.545(5)
H12 H 0.356(7) -0.011(2) 0.760(5)
H13 H 0.180(7) 0.003(2) 0.629(6)
H14 H 0.169(7) 0.069(2) 0.759(5)
H15 H 0.788(5) 0.128(2) 0.766(4)
H16 H 0.712(5) 0.046(2) 0.704(4)
H17 H 0.745(6) 0.099(2) 1.007(5)
H18 H 0.893(6) 0.044(2) 0.956(4)
H19 H 0.652(6) 0.022(2) 0.936(5)
#END
