
#######################################################################
#
#                 Cambridge Crystallographic Data Centre
#                                CCDC
#
#######################################################################
#
# If this CIF has been generated from an entry in the Cambridge
# Structural Database, then it will include bibliographic, chemical,
# crystal, experimental, refinement or atomic coordinate data resulting
# from the CCDC's data processing and validation procedures.
#
#######################################################################

data_CSD_CIF_SOVJIY
_audit_creation_date 2014-11-04
_audit_creation_method CSD-ConQuest-V1
_database_code_CSD SOVJIY
_database_code_depnum_ccdc_archive 'CCDC 968709'
_chemical_formula_sum 'C12 H12 N2 O1'
_chemical_formula_moiety
;
C12 H12 N2 O1
;
_journal_coden_Cambridge 1336
_journal_volume 15
_journal_year 2013
_journal_page_first 6306
_journal_name_full 'Org.Lett. '
loop_
_publ_author_name
"S.J.Markey"
"W.Lewis"
"C.J.Moody"
_chemical_name_systematic
;
(1Z,2E)-3-(1H-Indol-3-yl)acrylaldehyde O-methyl oxime
;
_chemical_name_common
;
(1Z,2E)-3-(1H-Indol-3-yl)-N-methoxyprop-2-en-1-imine
;
_cell_volume   1034.486
_exptl_crystal_colour 'colorless'
_exptl_crystal_density_diffrn 1.286
_exptl_crystal_description 'plate'
_diffrn_ambient_temperature 90
#These two values have been output from a single CSD field.
_refine_ls_R_factor_gt 0.0658
_refine_ls_wR_factor_gt 0.0658
_symmetry_cell_setting orthorhombic
_symmetry_space_group_name_H-M 'P c a 21'
_symmetry_Int_Tables_number 29
loop_
_symmetry_equiv_pos_site_id
_symmetry_equiv_pos_as_xyz
1 x,y,z
2 -x,-y,1/2+z
3 1/2-x,y,1/2+z
4 1/2+x,-y,z
_cell_length_a 14.893(15)
_cell_length_b 8.972(9)
_cell_length_c 7.742(8)
_cell_angle_alpha 90
_cell_angle_beta 90
_cell_angle_gamma 90
_cell_formula_units_Z 4
loop_
_atom_type_symbol
_atom_type_radius_bond
C 0.68
H 0.23
N 0.68
O 0.68
loop_
_atom_site_label
_atom_site_type_symbol
_atom_site_fract_x
_atom_site_fract_y
_atom_site_fract_z
N1 N 0.2928(2) 0.6655(4) 0.5973(5)
H1 H 0.26870 0.74220 0.65090
C1 C 0.2527(3) 0.5310(4) 0.5728(6)
H2 H 0.19410 0.50570 0.61140
C2 C 0.3910(3) 0.5193(4) 0.4507(5)
C3 C 0.3094(3) 0.4362(4) 0.4836(5)
C4 C 0.4725(3) 0.4890(4) 0.3700(6)
H3 H 0.48320 0.39440 0.31880
C5 C 0.5371(3) 0.5974(5) 0.3656(6)
H4 H 0.59300 0.57720 0.31130
C6 C 0.5220(3) 0.7392(4) 0.4404(6)
H5 H 0.56810 0.81220 0.43560
C7 C 0.3769(3) 0.6624(4) 0.5251(6)
C8 C 0.4423(3) 0.7731(4) 0.5195(6)
H6 H 0.43210 0.86850 0.56880
C9 C 0.2830(3) 0.2857(4) 0.4392(6)
H7 H 0.22740 0.25390 0.48660
C10 C 0.3254(3) 0.1842(4) 0.3410(6)
H8 H 0.38230 0.20660 0.29240
C11 C 0.2843(3) 0.0415(4) 0.3094(6)
H9 H 0.22970 0.02540 0.37040
N2 N 0.3084(3) -0.0671(4) 0.2137(5)
O1 O 0.3901(2) -0.0330(3) 0.1302(5)
C12 C 0.4209(4) -0.1622(5) 0.0371(8)
H10 H 0.37670 -0.18910 -0.05130
H11 H 0.42860 -0.24560 0.11750
H12 H 0.47850 -0.13980 -0.01840
#END
