
#######################################################################
#
#                 Cambridge Crystallographic Data Centre
#                                CCDC
#
#######################################################################
#
# If this CIF has been generated from an entry in the Cambridge
# Structural Database, then it will include bibliographic, chemical,
# crystal, experimental, refinement or atomic coordinate data resulting
# from the CCDC's data processing and validation procedures.
#
#######################################################################

data_CSD_CIF_SOWXUX
_audit_creation_date 1992-11-02
_audit_creation_method CSD-ConQuest-V1
_database_code_CSD SOWXUX
_database_code_depnum_ccdc_fiz 'CSD 54735'
_chemical_formula_sum 'C12 H7 N5 O5'
_chemical_formula_moiety
;
C12 H7 N5 O5
;
_journal_coden_Cambridge 180
_journal_volume 332
_journal_year 1990
_journal_page_first 1005
_journal_name_full 'J.Prakt.Chem.-Chem.-Zeitung '
loop_
_publ_author_name
"H.-J.Niclas"
"B.Gohrmann"
"M.Ramm"
"B.Schulz"
_chemical_name_systematic
;
4-Anilino-5,7-dinitrobenzofurazan
;
_chemical_melting_point 518.15
_cell_volume   1231.007
_exptl_crystal_colour 'red-orange'
_exptl_crystal_density_diffrn 1.625
_exptl_special_details
;
CSD 54735 contains no further data

;
_diffrn_ambient_temperature ?
_diffrn_special_details
;
The study was carried out at room temperature,in the range 283-303K

;
#These two values have been output from a single CSD field.
_refine_ls_R_factor_gt 0.049
_refine_ls_wR_factor_gt 0.049
_symmetry_cell_setting monoclinic
_symmetry_space_group_name_H-M 'P 21/n'
_symmetry_Int_Tables_number 14
loop_
_symmetry_equiv_pos_site_id
_symmetry_equiv_pos_as_xyz
1 x,y,z
2 1/2-x,1/2+y,1/2-z
3 -x,-y,-z
4 -1/2+x,-1/2-y,-1/2+z
_cell_length_a 7.668(3)
_cell_length_b 12.192(8)
_cell_length_c 13.218(6)
_cell_angle_alpha 90
_cell_angle_beta 95.01(3)
_cell_angle_gamma 90
_cell_formula_units_Z 4
loop_
_atom_type_symbol
_atom_type_radius_bond
C 0.68
H 0.23
N 0.68
O 0.68
loop_
_atom_site_label
_atom_site_type_symbol
_atom_site_fract_x
_atom_site_fract_y
_atom_site_fract_z
O1 O 0.7498(3) 0.4685(2) 0.7586(2)
O2 O 0.3472(3) 0.0157(2) 0.7255(2)
O3 O 0.3542(3) 0.0182(2) 0.5640(2)
O4 O 0.6628(3) 0.4471(2) 0.4454(2)
O5 O 0.5299(4) 0.3071(2) 0.3769(2)
N1 N 0.4849(3) 0.1756(2) 0.8351(2)
N2 N 0.6806(3) 0.3821(2) 0.8080(2)
N3 N 0.7213(3) 0.4610(2) 0.6543(2)
N4 N 0.3855(3) 0.0603(2) 0.6470(2)
N5 N 0.5876(3) 0.3584(2) 0.4510(2)
C1 C 0.5014(3) 0.2235(3) 0.9336(2)
C2 C 0.4266(4) 0.3240(2) 0.9519(2)
C3 C 0.4343(4) 0.3636(3) 1.0490(2)
C4 C 0.5121(4) 0.3027(3) 1.1286(2)
C5 C 0.5819(4) 0.2021(3) 1.1099(2)
C6 C 0.5795(4) 0.1615(3) 1.0126(2)
C7 C 0.5154(3) 0.2171(2) 0.7461(2)
C8 C 0.6062(3) 0.3216(2) 0.7347(2)
C9 C 0.6315(3) 0.3690(2) 0.6394(2)
C10 C 0.5685(3) 0.3145(2) 0.5494(2)
C11 C 0.4935(3) 0.2147(2) 0.5580(2)
C12 C 0.4693(3) 0.1663(2) 0.6522(2)
H1 H 0.443(4) 0.105(3) 0.826(2)
H2 H 0.374(4) 0.365(2) 0.898(2)
H3 H 0.377(5) 0.432(3) 1.067(3)
H4 H 0.520(4) 0.332(3) 1.201(2)
H5 H 0.630(4) 0.160(3) 1.153(2)
H6 H 0.620(4) 0.086(2) 0.994(2)
H7 H 0.454(4) 0.178(2) 0.495(2)
#END
