
#######################################################################
#
#                 Cambridge Crystallographic Data Centre
#                                CCDC
#
#######################################################################
#
# If this CIF has been generated from an entry in the Cambridge
# Structural Database, then it will include bibliographic, chemical,
# crystal, experimental, refinement or atomic coordinate data resulting
# from the CCDC's data processing and validation procedures.
#
#######################################################################

data_CSD_CIF_SOXBOW
_audit_creation_date 1992-10-02
_audit_creation_method CSD-ConQuest-V1
_database_code_CSD SOXBOW
_chemical_formula_sum 'C12 H13 N1 O1'
_chemical_formula_moiety
;
C12 H13 N1 O1
;
_journal_coeditor_code "IUCr NA0005"
_journal_coden_Cambridge 622
_journal_volume 48
_journal_year 1992
_journal_page_first 234
_journal_name_full 'Acta Crystallogr.,Sect.B:Struct.Sci. '
loop_
_publ_author_name
"P.Dapporto"
"P.Paoli"
"A.Brandi"
"F.De Sarlo"
"A.Goti"
"A.Guarna"
_chemical_name_systematic
;
3-Phenyl-4,5-dihydroisoxazole-5-spirocyclobutane
;
_cell_volume    999.205
_exptl_crystal_colour 'colorless'
_exptl_crystal_density_diffrn 1.24
_diffrn_ambient_temperature ?
_diffrn_special_details
;
The study was carried out at room temperature,in the range 283-303K

;
#These two values have been output from a single CSD field.
_refine_ls_R_factor_gt 0.048
_refine_ls_wR_factor_gt 0.048
_symmetry_cell_setting orthorhombic
_symmetry_space_group_name_H-M 'P 21 21 21'
_symmetry_Int_Tables_number 19
loop_
_symmetry_equiv_pos_site_id
_symmetry_equiv_pos_as_xyz
1 x,y,z
2 1/2+x,1/2-y,-z
3 -x,1/2+y,1/2-z
4 1/2-x,-y,1/2+z
_cell_length_a 5.845(2)
_cell_length_b 8.887(2)
_cell_length_c 19.236(5)
_cell_angle_alpha 90
_cell_angle_beta 90
_cell_angle_gamma 90
_cell_formula_units_Z 4
loop_
_atom_type_symbol
_atom_type_radius_bond
C 0.68
H 0.23
N 0.68
O 0.68
loop_
_atom_site_label
_atom_site_type_symbol
_atom_site_fract_x
_atom_site_fract_y
_atom_site_fract_z
O1 O 0.0896(6) 0.3238(5) 0.7800(2)
N1 N 0.1723(8) 0.2584(5) 0.8418(3)
C1 C 0.0638(5) 0.0871(4) 0.9317(2)
C2 C -0.0963(5) -0.0162(4) 0.9564(2)
C3 C -0.0549(5) -0.0941(4) 1.0181(2)
C4 C 0.1467(5) -0.0685(4) 1.0551(2)
C5 C 0.3069(5) 0.0348(4) 1.0304(2)
C6 C 0.2654(5) 0.1126(4) 0.9687(2)
C7 C 0.0213(9) 0.1686(7) 0.8666(3)
C8 C -0.1927(12) 0.1582(8) 0.8233(3)
C9 C -0.1463(10) 0.2726(6) 0.7662(3)
C10 C -0.1830(12) 0.2236(9) 0.6910(3)
C11 C -0.4005(14) 0.3200(9) 0.6911(4)
C12 C -0.3200(12) 0.3998(8) 0.7565(4)
H1 H -0.252(1) -0.036(1) 0.928(1)
H2 H -0.179(1) -0.174(1) 1.037(1)
H3 H 0.179(1) -0.129(1) 1.103(1)
H4 H 0.463(1) 0.055(1) 1.059(1)
H5 H 0.389(1) 0.193(1) 0.950(1)
H6 H -0.197(7) 0.058(5) 0.806(2)
H7 H -0.324(7) 0.195(5) 0.852(2)
H8 H -0.226(8) 0.108(5) 0.679(2)
H9 H -0.058(8) 0.265(5) 0.657(2)
H10 H -0.422(8) 0.375(5) 0.647(3)
H11 H -0.529(9) 0.249(6) 0.696(3)
H12 H -0.434(8) 0.420(6) 0.804(2)
H13 H -0.261(8) 0.491(6) 0.749(2)
#END
