
#######################################################################
#
#                 Cambridge Crystallographic Data Centre
#                                CCDC
#
#######################################################################
#
# If this CIF has been generated from an entry in the Cambridge
# Structural Database, then it will include bibliographic, chemical,
# crystal, experimental, refinement or atomic coordinate data resulting
# from the CCDC's data processing and validation procedures.
#
#######################################################################

data_CSD_CIF_SOXBUC
_audit_creation_date 1992-10-01
_audit_creation_method CSD-ConQuest-V1
_database_code_CSD SOXBUC
_chemical_formula_sum 'C13 H15 N1 O1'
_chemical_formula_moiety
;
C13 H15 N1 O1
;
_journal_coeditor_code "IUCr NA0005"
_journal_coden_Cambridge 622
_journal_volume 48
_journal_year 1992
_journal_page_first 234
_journal_name_full 'Acta Crystallogr.,Sect.B:Struct.Sci. '
loop_
_publ_author_name
"P.Dapporto"
"P.Paoli"
"A.Brandi"
"F.De Sarlo"
"A.Goti"
"A.Guarna"
_chemical_name_systematic
;
3-Phenyl-4,5-dihydroisoxazole-5-spirocyclopentane
;
_cell_volume   1102.451
_exptl_crystal_colour 'colorless'
_exptl_crystal_density_diffrn 1.21
_diffrn_ambient_temperature ?
_diffrn_special_details
;
The study was carried out at room temperature,in the range 283-303K

;
#These two values have been output from a single CSD field.
_refine_ls_R_factor_gt 0.057
_refine_ls_wR_factor_gt 0.057
_symmetry_cell_setting orthorhombic
_symmetry_space_group_name_H-M 'P 21 21 21'
_symmetry_Int_Tables_number 19
loop_
_symmetry_equiv_pos_site_id
_symmetry_equiv_pos_as_xyz
1 x,y,z
2 1/2+x,1/2-y,-z
3 -x,1/2+y,1/2-z
4 1/2-x,-y,1/2+z
_cell_length_a 8.057(10)
_cell_length_b 11.169(5)
_cell_length_c 12.251(9)
_cell_angle_alpha 90
_cell_angle_beta 90
_cell_angle_gamma 90
_cell_formula_units_Z 4
loop_
_atom_type_symbol
_atom_type_radius_bond
C 0.68
H 0.23
N 0.68
O 0.68
loop_
_atom_site_label
_atom_site_type_symbol
_atom_site_fract_x
_atom_site_fract_y
_atom_site_fract_z
O1 O 0.3665(10) 0.1538(6) 0.8044(5)
N1 N 0.3973(12) 0.2757(7) 0.8274(7)
C1 C 0.2933(8) 0.4345(5) 0.9381(5)
C2 C 0.2086(8) 0.4647(5) 1.0336(5)
C3 C 0.2053(8) 0.5833(5) 1.0691(5)
C4 C 0.2868(8) 0.6718(5) 1.0092(5)
C5 C 0.3715(8) 0.6417(5) 0.9137(5)
C6 C 0.3747(8) 0.5230(5) 0.8782(5)
C7 C 0.2946(14) 0.3099(9) 0.8996(8)
C8 C 0.1841(14) 0.2133(9) 0.9398(7)
C9 C 0.2026(15) 0.1186(9) 0.8525(8)
C10 C 0.2217(14) -0.0120(8) 0.8895(8)
C11 C 0.1854(15) -0.0817(10) 0.7839(8)
C12 C 0.1139(16) 0.0007(9) 0.7036(8)
C13 C 0.0762(12) 0.1154(10) 0.7614(8)
H1 H 0.146(1) 0.396(1) 1.080(1)
H2 H 0.140(1) 0.607(1) 1.143(1)
H3 H 0.284(1) 0.764(1) 1.037(1)
H4 H 0.435(1) 0.710(1) 0.867(1)
H5 H 0.440(1) 0.500(1) 0.804(1)
H6 H 0.225(1) 0.180(1) 1.018(1)
H7 H 0.057(1) 0.243(1) 0.946(1)
H8 H 0.135(1) -0.034(1) 0.954(1)
H9 H 0.347(1) -0.028(1) 0.918(1)
H10 H 0.100(1) -0.154(1) 0.802(1)
H11 H 0.299(1) -0.119(1) 0.752(1)
H12 H 0.198(2) 0.014(1) 0.636(1)
H13 H -0.001(2) -0.037(1) 0.674(1)
H14 H -0.049(1) 0.119(1) 0.793(1)
H15 H 0.096(1) 0.190(1) 0.706(1)
#END
