
#######################################################################
#
#                 Cambridge Crystallographic Data Centre
#                                CCDC
#
#######################################################################
#
# If this CIF has been generated from an entry in the Cambridge
# Structural Database, then it will include bibliographic, chemical,
# crystal, experimental, refinement or atomic coordinate data resulting
# from the CCDC's data processing and validation procedures.
#
#######################################################################

data_CSD_CIF_SOYVIN
_audit_creation_date 2015-03-20
_audit_creation_method CSD-ConQuest-V1
_database_code_CSD SOYVIN
_database_code_depnum_ccdc_archive 'CCDC 983924'
_chemical_formula_sum 'C7 H11 N3 O2'
_chemical_formula_moiety
;
C7 H11 N3 O2
;
_journal_coden_Cambridge 9
_journal_volume 54
_journal_year 2015
_journal_page_first 1890
_journal_name_full 'Inorg.Chem. '
loop_
_publ_author_name
"D.R.Klaus"
"M.Keene"
"S.Silchenko"
"M.Berezin"
"N.Gerasimchuk"
_chemical_name_systematic
;
2-Cyano-N,N-diethyl-2-(hydroxyimino)acetamide
;
_chemical_melting_point 360
_cell_volume    891.193
_exptl_crystal_colour 'colorless'
_exptl_crystal_density_diffrn 1.261
_exptl_special_details
;
Melting point range 360-363K

;
_exptl_crystal_description 'plate'
_exptl_crystal_preparation 'ether/acetonitrile'
_diffrn_ambient_temperature 120
#These two values have been output from a single CSD field.
_refine_ls_R_factor_gt 0.0404
_refine_ls_wR_factor_gt 0.0404
_symmetry_cell_setting monoclinic
_symmetry_space_group_name_H-M 'P 21/c'
_symmetry_Int_Tables_number 14
loop_
_symmetry_equiv_pos_site_id
_symmetry_equiv_pos_as_xyz
1 x,y,z
2 -x,1/2+y,1/2-z
3 -x,-y,-z
4 x,-1/2-y,-1/2+z
_cell_length_a 8.5424(10)
_cell_length_b 7.9608(10)
_cell_length_c 13.2705(16)
_cell_angle_alpha 90
_cell_angle_beta 99.060(2)
_cell_angle_gamma 90
_cell_formula_units_Z 4
loop_
_atom_type_symbol
_atom_type_radius_bond
C 0.68
H 0.23
N 0.68
O 0.68
loop_
_atom_site_label
_atom_site_type_symbol
_atom_site_fract_x
_atom_site_fract_y
_atom_site_fract_z
C1 C 0.47032(16) 0.37600(16) 0.78025(10)
C2 C 0.31299(17) 0.44315(17) 0.74893(10)
C3 C 0.56449(16) 0.33762(16) 0.69644(10)
C4 C 0.79221(17) 0.50403(18) 0.7835(1)
H1 H 0.71060 0.56380 0.81510
H2 H 0.85330 0.58920 0.75160
C5 C 0.90323(19) 0.4126(2) 0.86616(11)
H3 H 0.84130 0.34060 0.90500
H4 H 0.96270 0.49480 0.91210
H5 H 0.97730 0.34360 0.83470
C6 C 0.80379(17) 0.34386(18) 0.62212(10)
H6 H 0.76710 0.23310 0.59390
H7 H 0.91750 0.33380 0.65120
C7 C 0.78429(19) 0.4727(2) 0.53723(11)
H8 H 0.67280 0.47770 0.50550
H9 H 0.84970 0.44070 0.48590
H10 H 0.81780 0.58320 0.56530
N1 N 0.52113(14) 0.32909(15) 0.87220(8)
N2 N 0.18901(15) 0.49757(17) 0.72350(9)
N3 N 0.71314(13) 0.39054(14) 0.70370(8)
O1 O 0.40970(11) 0.35491(13) 0.93459(7)
H11 H 0.44560 0.32210 0.99390
O2 O 0.49369(11) 0.25474(12) 0.62412(7)
#END
