
#######################################################################
#
#                 Cambridge Crystallographic Data Centre
#                                CCDC
#
#######################################################################
#
# If this CIF has been generated from an entry in the Cambridge
# Structural Database, then it will include bibliographic, chemical,
# crystal, experimental, refinement or atomic coordinate data resulting
# from the CCDC's data processing and validation procedures.
#
#######################################################################

data_CSD_CIF_SOZFIY
_audit_creation_date 2015-03-20
_audit_creation_method CSD-ConQuest-V1
_database_code_CSD SOZFIY
_database_code_depnum_ccdc_archive 'CCDC 978882'
_chemical_formula_sum 'C18 H17 N3 O1'
_chemical_formula_moiety
;
C18 H17 N3 O1
;
_journal_coden_Cambridge 35
_journal_volume 80
_journal_year 2015
_journal_page_first 1689
_journal_name_full 'J.Org.Chem. '
loop_
_publ_author_name
"J.E.Diaz"
"N.Vanthuyne"
"H.Rispaud"
"C.Roussel"
"D.Vega"
"L.R.Orelli"
_chemical_name_systematic
;
5-(2-methylphenyl)-2,3-dihydro-1H-pyrimido[1,2-a]quinoxaline 6-oxide
;
_chemical_melting_point 470
_cell_volume   1432.901
_exptl_crystal_colour 'colorless'
_exptl_crystal_density_diffrn 1.351
_exptl_special_details
;
Melting point range 470-473K

;
_exptl_crystal_description 'prism'
_diffrn_ambient_temperature 293
_diffrn_special_details
;
twin

;
#These two values have been output from a single CSD field.
_refine_ls_R_factor_gt 0.077
_refine_ls_wR_factor_gt 0.077
_symmetry_cell_setting monoclinic
_symmetry_space_group_name_H-M 'P 21/c'
_symmetry_Int_Tables_number 14
loop_
_symmetry_equiv_pos_site_id
_symmetry_equiv_pos_as_xyz
1 x,y,z
2 -x,1/2+y,1/2-z
3 -x,-y,-z
4 x,-1/2-y,-1/2+z
_cell_length_a 12.5837(18)
_cell_length_b 7.4112(9)
_cell_length_c 15.4940(14)
_cell_angle_alpha 90
_cell_angle_beta 97.412(10)
_cell_angle_gamma 90
_cell_formula_units_Z 4
loop_
_atom_type_symbol
_atom_type_radius_bond
C 0.68
H 0.23
N 0.68
O 0.68
loop_
_atom_site_label
_atom_site_type_symbol
_atom_site_fract_x
_atom_site_fract_y
_atom_site_fract_z
C1 C 0.1567(3) 0.6717(4) 0.37303(18)
H1 H 0.22570 0.66210 0.40730
H2 H 0.11090 0.74660 0.40270
H3 H 0.16470 0.72420 0.31760
C2 C 0.1102(3) 0.4955(5) 0.36020(16)
C3 C 0.0079(3) 0.4662(6) 0.38874(18)
H4 H -0.02750 0.55800 0.41450
C4 C -0.0354(3) 0.2994(7) 0.3768(2)
H5 H -0.10110 0.27790 0.39620
C5 C 0.0121(3) 0.1602(5) 0.33753(19)
H6 H -0.02170 0.04860 0.33020
C6 C 0.1098(2) 0.1871(5) 0.30926(15)
H7 H 0.14370 0.09500 0.28250
C7 C 0.1574(2) 0.3600(4) 0.32220(14)
C8 C 0.2651(2) 0.3846(3) 0.29072(15)
C9 C 0.2725(3) 0.3805(3) 0.19707(15)
N1 N 0.1858(2) 0.3590(3) 0.14684(13)
C10 C 0.1924(3) 0.3562(4) 0.05289(15)
H8 H 0.12540 0.39980 0.02200
H9 H 0.20230 0.23280 0.03460
C11 C 0.2826(3) 0.4699(4) 0.02911(17)
H10 H 0.28720 0.45750 -0.03260
H11 H 0.26860 0.59570 0.04080
C12 C 0.3858(3) 0.4147(4) 0.07968(16)
H12 H 0.40800 0.29910 0.05870
H13 H 0.44070 0.50280 0.07180
N2 N 0.3735(2) 0.4009(3) 0.17241(12)
C13 C 0.4648(3) 0.4032(3) 0.23316(17)
C14 C 0.5687(3) 0.4003(4) 0.2097(2)
H14 H 0.57910 0.39350 0.15150
C15 C 0.6559(3) 0.4075(4) 0.2741(3)
H15 H 0.72470 0.40560 0.25820
C16 C 0.6437(3) 0.4172(4) 0.3589(2)
H16 H 0.70350 0.42550 0.40080
C17 C 0.5437(3) 0.4148(3) 0.38324(18)
H17 H 0.53510 0.41880 0.44190
C18 C 0.4551(2) 0.4063(3) 0.32096(15)
N3 N 0.35080(19) 0.4010(3) 0.34763(12)
O1 O 0.34634(16) 0.4092(3) 0.43013(10)
#END
