
#######################################################################
#
#                 Cambridge Crystallographic Data Centre
#                                CCDC
#
#######################################################################
#
# If this CIF has been generated from an entry in the Cambridge
# Structural Database, then it will include bibliographic, chemical,
# crystal, experimental, refinement or atomic coordinate data resulting
# from the CCDC's data processing and validation procedures.
#
#######################################################################

data_CSD_CIF_SPHMXO
_audit_creation_date 1975-02-18
_audit_creation_method CSD-ConQuest-V1
_database_code_CSD SPHMXO
_chemical_formula_sum 'C10 H18 N1 O2'
_chemical_formula_moiety
;
C10 H18 N1 O2
;
_journal_coeditor_code "IUCr A11229"
_journal_coden_Cambridge 107
_journal_volume 30
_journal_year 1974
_journal_page_first 2130
_journal_name_full 'Acta Crystallogr.,Sect.B:Struct.Crystallogr.Cryst.Chem. '
loop_
_publ_author_name
"D.Bordeaux"
"J.Lajzerowicz-Bonneteau"
_chemical_name_systematic
;
Spiro(cyclohexane-1,2'-(4',4'-dimethyloxazolidine-N-oxyl))
;
_cell_volume   1070.456
_diffrn_ambient_temperature ?
_diffrn_special_details
;
The study was carried out at room temperature,in the range 283-303K

;
#These two values have been output from a single CSD field.
_refine_ls_R_factor_gt 0.068
_refine_ls_wR_factor_gt 0.068
_symmetry_cell_setting orthorhombic
_symmetry_space_group_name_H-M 'P n m a'
_symmetry_Int_Tables_number 62
loop_
_symmetry_equiv_pos_site_id
_symmetry_equiv_pos_as_xyz
1 x,y,z
2 1/2-x,1/2+y,1/2+z
3 x,1/2-y,z
4 1/2-x,-y,1/2+z
5 -x,-y,-z
6 -1/2+x,-1/2-y,-1/2-z
7 -x,-1/2+y,-z
8 -1/2+x,y,-1/2-z
_cell_length_a 12.224(6)
_cell_length_b 9.967(5)
_cell_length_c 8.786(3)
_cell_angle_alpha 90
_cell_angle_beta 90
_cell_angle_gamma 90
_cell_formula_units_Z 4
loop_
_atom_type_symbol
_atom_type_radius_bond
C 0.68
H 0.20
N 0.68
O 0.68
loop_
_atom_site_label
_atom_site_type_symbol
_atom_site_fract_x
_atom_site_fract_y
_atom_site_fract_z
C1 C 0.24280 0.25000 0.19340
C2 C 0.29750 0.12580 0.25550
C3 C 0.29600 0.12540 0.42950
C4 C 0.34670 0.25000 0.49340
C5 C 0.51910 0.25000 0.59360
C6 C 0.44860 0.25000 0.73420
C7 C 0.46030 0.12370 0.82980
H1 H 0.24100 0.25000 0.08000
H2 H 0.16400 0.25000 0.23400
H3 H 0.26200 0.03800 0.21800
H4 H 0.37700 0.13300 0.21700
H5 H 0.33700 0.04600 0.46900
H6 H 0.21100 0.12700 0.46700
H7 H 0.58600 0.17100 0.59400
H8 H 0.54900 0.11300 0.87800
H9 H 0.40300 0.12700 0.90900
H10 H 0.46500 0.03500 0.74700
N1 N 0.34010 0.25000 0.66040
O1 O 0.25100 0.25000 0.73240
O2 O 0.45930 0.25000 0.46810
C2B C 0.29750 0.37420 0.25550
C3B C 0.29600 0.37460 0.42950
C7B C 0.46030 0.37630 0.82980
H7B H 0.58600 0.32900 0.59400
H3B H 0.26200 0.46200 0.21800
H4B H 0.37700 0.36700 0.21700
H5B H 0.33700 0.45400 0.46900
H6B H 0.21100 0.37300 0.46700
H8B H 0.54900 0.38700 0.87800
H9B H 0.40300 0.37300 0.90900
H10B H 0.46500 0.46500 0.74700
#END
