
#######################################################################
#
#                 Cambridge Crystallographic Data Centre
#                                CCDC
#
#######################################################################
#
# If this CIF has been generated from an entry in the Cambridge
# Structural Database, then it will include bibliographic, chemical,
# crystal, experimental, refinement or atomic coordinate data resulting
# from the CCDC's data processing and validation procedures.
#
#######################################################################

data_CSD_CIF_SPZXAN
_audit_creation_date 1979-02-14
_audit_creation_method CSD-ConQuest-V1
_database_code_CSD SPZXAN
_database_code_depnum_ccdc_archive 'CCDC 1263211'
_chemical_formula_sum 'C36 H44 N2 O4'
_chemical_formula_moiety
;
C36 H44 N2 O4
;
_journal_coden_Cambridge 16
_journal_volume 34
_journal_year 1978
_journal_page_first 2967
_journal_name_full 'Tetrahedron '
loop_
_publ_author_name
"S.Colombi"
"G.Vecchio"
"G.Gottarelli"
"B.Samori"
"A.M.M.Lanfredi"
"A.Tiripicchio"
_chemical_name_systematic
;
3(R)-Spiro-8'-(3',6'(R)-diphenyl-1',5'-dioxa-2',4'-diazabicyclo(3.3.0)oct-3'-e
ne)-5\a-androstan-17\b-yl acetate
;
_cell_volume   3117.446
_exptl_crystal_density_diffrn 1.21
_diffrn_ambient_temperature ?
_diffrn_special_details
;
The study was carried out at room temperature,in the range 283-303K

;
#These two values have been output from a single CSD field.
_refine_ls_R_factor_gt 0.054
_refine_ls_wR_factor_gt 0.054
_symmetry_cell_setting orthorhombic
_symmetry_space_group_name_H-M 'P 21 21 21'
_symmetry_Int_Tables_number 19
loop_
_symmetry_equiv_pos_site_id
_symmetry_equiv_pos_as_xyz
1 x,y,z
2 1/2+x,1/2-y,-z
3 -x,1/2+y,1/2-z
4 1/2-x,-y,1/2+z
_cell_length_a 12.694(8)
_cell_length_b 40.883(17)
_cell_length_c 6.007(5)
_cell_angle_alpha 90
_cell_angle_beta 90
_cell_angle_gamma 90
_cell_formula_units_Z 4
loop_
_atom_type_symbol
_atom_type_radius_bond
C 0.68
H 0.23
N 0.68
O 0.68
loop_
_atom_site_label
_atom_site_type_symbol
_atom_site_fract_x
_atom_site_fract_y
_atom_site_fract_z
O1 O 0.40730 0.34860 0.05760
O2 O 0.27600 0.29860 0.41570
O3 O 1.06150 0.47440 -0.11260
O4 O 1.17500 0.45000 -0.34870
N1 N 0.35540 0.31780 0.09670
N2 N 0.37330 0.28170 0.38610
C1 C 1.01580 0.44240 -0.05830
C2 C 1.08340 0.42180 0.10090
C3 C 1.00420 0.40320 0.24760
C4 C 0.89730 0.41140 0.14640
C5 C 0.91080 0.44720 0.06340
C6 C 0.81720 0.45580 -0.08530
C7 C 0.71190 0.45050 0.03550
C8 C 0.69950 0.41590 0.13320
C9 C 0.79660 0.40650 0.28120
C10 C 0.78810 0.37140 0.36690
C11 C 0.68210 0.36450 0.47600
C12 C 0.59180 0.37340 0.32500
C13 C 0.59320 0.40970 0.24920
C14 C 0.50350 0.41420 0.08270
C15 C 0.39470 0.40380 0.17350
C16 C 0.39460 0.36890 0.25920
C17 C 0.48400 0.36320 0.42240
C18 C 0.28630 0.35840 0.34880
C19 C 0.26620 0.32410 0.25080
C20 C 0.41790 0.29460 0.21490
C21 C 1.13920 0.47430 -0.26490
C22 C 1.17160 0.50890 -0.31000
C23 C 0.92280 0.47210 0.25210
C24 C 0.57770 0.43320 0.44850
C25 C 0.52300 0.28440 0.13480
C26 C 0.58630 0.26620 0.27500
C27 C 0.68630 0.25650 0.20450
C28 C 0.72140 0.26520 -0.00230
C29 C 0.65960 0.28280 -0.14300
C30 C 0.55950 0.29290 -0.07510
C31 C 0.16050 0.32080 0.13640
C32 C 0.07690 0.30490 0.23660
C33 C -0.01980 0.30380 0.12910
C34 C -0.03350 0.31800 -0.07880
C35 C 0.04980 0.33390 -0.17450
C36 C 0.14690 0.33540 -0.06390
H1 H 0.99800 0.43000 -0.21800
H2 H 1.12500 0.43400 0.16200
H3 H 1.13200 0.40700 0.02800
H4 H 1.01200 0.41100 0.40800
H5 H 1.01900 0.38000 0.25800
H6 H 0.88600 0.39700 0.00500
H7 H 0.81800 0.48000 -0.12800
H8 H 0.81400 0.44200 -0.22900
H9 H 0.64800 0.45800 -0.07600
H10 H 0.70900 0.46600 0.14600
H11 H 0.70500 0.40000 -0.00500
H12 H 0.79900 0.42200 0.41500
H13 H 0.79600 0.35700 0.23500
H14 H 0.85200 0.36300 0.47200
H15 H 0.67500 0.37800 0.61100
H16 H 0.68000 0.34000 0.51200
H17 H 0.60300 0.36000 0.18800
H18 H 0.51500 0.40100 -0.07900
H19 H 0.50000 0.43700 0.02800
H20 H 0.37400 0.41800 0.29200
H21 H 0.34000 0.40600 0.03600
H22 H 0.49100 0.34100 0.46200
H23 H 0.46600 0.37800 0.56500
H24 H 0.22700 0.37400 0.30100
H25 H 0.29100 0.36000 0.51100
H26 H 1.23400 0.50900 -0.41100
H27 H 1.19500 0.52100 -0.17700
H28 H 1.11400 0.52300 -0.37700
H29 H 0.85700 0.47800 0.32900
H30 H 0.94000 0.49400 0.18400
H31 H 0.98000 0.46700 0.33900
H32 H 0.57900 0.45800 0.39600
H33 H 0.50600 0.43400 0.53000
H34 H 0.62500 0.43300 0.53300
H35 H 0.56600 0.25900 0.44300
H36 H 0.73300 0.24400 0.30200
H37 H 0.78900 0.26000 -0.05100
H38 H 0.68600 0.29100 -0.28400
H39 H 0.51900 0.30200 -0.17300
H40 H 0.08600 0.29600 0.37300
H41 H -0.08700 0.29100 0.20200
H42 H -0.10500 0.31700 -0.16500
H43 H 0.04100 0.34700 -0.34400
H44 H 0.21600 0.34700 -0.15700
#END
