
#######################################################################
#
#                 Cambridge Crystallographic Data Centre
#                                CCDC
#
#######################################################################
#
# If this CIF has been generated from an entry in the Cambridge
# Structural Database, then it will include bibliographic, chemical,
# crystal, experimental, refinement or atomic coordinate data resulting
# from the CCDC's data processing and validation procedures.
#
#######################################################################

data_CSD_CIF_SUDFOM
_audit_creation_date 1992-11-16
_audit_creation_method CSD-ConQuest-V1
_database_code_CSD SUDFOM
_chemical_formula_sum 'C12 H9 N3 O4'
_chemical_formula_moiety
;
C12 H9 N3 O4
;
_journal_coden_Cambridge 16
_journal_volume 48
_journal_year 1992
_journal_page_first 3069
_journal_name_full 'Tetrahedron '
loop_
_publ_author_name
"D.Dauzonne"
"A.Adam-Launay"
_chemical_name_systematic
;
5,6-Dihydro-6-nitro-5-phenylfuro(2,3-d)pyrimidin-4(3H)-one
;
_chemical_melting_point 497.15
_cell_volume   1147.399
_exptl_crystal_density_diffrn 1.5
_exptl_special_details
;
Melting point range 497.15-498.15K

;
_diffrn_ambient_temperature ?
_diffrn_special_details
;
The study was carried out at room temperature,in the range 283-303K

;
#These two values have been output from a single CSD field.
_refine_ls_R_factor_gt 0.05
_refine_ls_wR_factor_gt 0.05
_symmetry_cell_setting monoclinic
_symmetry_space_group_name_H-M 'P 21/c'
_symmetry_Int_Tables_number 14
loop_
_symmetry_equiv_pos_site_id
_symmetry_equiv_pos_as_xyz
1 x,y,z
2 -x,1/2+y,1/2-z
3 -x,-y,-z
4 x,-1/2-y,-1/2+z
_cell_length_a 13.241(5)
_cell_length_b 13.789(6)
_cell_length_c 6.483(3)
_cell_angle_alpha 90
_cell_angle_beta 104.22(3)
_cell_angle_gamma 90
_cell_formula_units_Z 4
loop_
_atom_type_symbol
_atom_type_radius_bond
C 0.68
H 0.23
N 0.68
O 0.68
loop_
_atom_site_label
_atom_site_type_symbol
_atom_site_fract_x
_atom_site_fract_y
_atom_site_fract_z
N1 N 0.8541(3) -0.0098(3) 0.4350(5)
N2 N 0.9522(3) 0.1482(3) -0.0296(6)
N3 N 0.7918(3) -0.1536(2) 0.2490(5)
O1 O 0.7377(2) -0.1655(2) -0.1143(4)
O2 O 0.9583(3) 0.1804(3) -0.2001(6)
O3 O 1.0232(3) 0.1157(3) 0.1060(6)
O4 O 0.8514(2) 0.1270(2) 0.2245(4)
C1 C 0.8307(4) -0.1024(3) 0.4266(6)
C2 C 0.7718(3) -0.1138(3) 0.0421(6)
C3 C 0.7972(63) -0.0130(3) 0.0492(6)
C4 C 0.7814(3) 0.0610(3) -0.1248(6)
C5 C 0.8423(3) 0.1458(3) 0.0079(6)
C6 C 0.6684(3) 0.0882(3) -0.2282(6)
C7 C 0.8338(3) 0.0294(3) 0.2403(6)
C8 C 0.6426(4) 0.1172(4) -0.4371(7)
C9 C 0.5402(5) 0.1431(4) -0.5343(8)
C10 C 0.4646(4) 0.1400(4) -0.4223(9)
C11 C 0.4906(4) 0.1133(5) -0.215(1)
C12 C 0.5926(3) 0.0867(4) -0.1183(8)
H1 H 0.84250 -0.13960 0.55390
H2 H 0.76780 -0.22210 0.26290
H3 H 0.81610 0.04030 -0.22820
H4 H 0.81390 0.21030 -0.03280
H5 H 0.69170 0.12350 -0.51770
H6 H 0.52360 0.16180 -0.67230
H7 H 0.39190 0.16440 -0.49110
H8 H 0.42830 0.10940 -0.13440
H9 H 0.61540 0.05790 0.03350
#END
