
#######################################################################
#
#                 Cambridge Crystallographic Data Centre
#                                CCDC
#
#######################################################################
#
# If this CIF has been generated from an entry in the Cambridge
# Structural Database, then it will include bibliographic, chemical,
# crystal, experimental, refinement or atomic coordinate data resulting
# from the CCDC's data processing and validation procedures.
#
#######################################################################

data_CSD_CIF_SUFZOI01
_audit_creation_date 2016-03-08
_audit_creation_method CSD-ConQuest-V1
_database_code_CSD SUFZOI01
_database_code_depnum_ccdc_archive 'CCDC 1425256'
_chemical_formula_sum 'C14 H18 N2 O9'
_chemical_formula_moiety
;
C14 H18 N2 O9
;
_journal_coden_Cambridge 222
_journal_volume 45
_journal_year 2016
_journal_page_first 6481
_journal_name_full 'Dalton Trans. '
loop_
_publ_author_name
"T.Makela"
"K.Rissanen"
_chemical_name_systematic
;
15,16-Dinitro-2,3,5,6,8,9,11,12-octahydro-1,4,7,10,13-benzopentaoxacyclopentad
ecine
;
_chemical_name_common
;
Dinitrobenzo-15-crown-5
;
_cell_volume   1615.373
_exptl_crystal_colour 'yellow'
_exptl_crystal_density_diffrn 1.473
_exptl_crystal_description 'block'
_diffrn_ambient_temperature 173
#These two values have been output from a single CSD field.
_refine_ls_R_factor_gt 0.0369
_refine_ls_wR_factor_gt 0.0369
_symmetry_cell_setting monoclinic
_symmetry_space_group_name_H-M 'P 21/c'
_symmetry_Int_Tables_number 14
loop_
_symmetry_equiv_pos_site_id
_symmetry_equiv_pos_as_xyz
1 x,y,z
2 -x,1/2+y,1/2-z
3 -x,-y,-z
4 x,-1/2-y,-1/2+z
_cell_length_a 11.6177(4)
_cell_length_b 8.5331(3)
_cell_length_c 17.2925(6)
_cell_angle_alpha 90
_cell_angle_beta 109.559(2)
_cell_angle_gamma 90
_cell_formula_units_Z 4
loop_
_atom_type_symbol
_atom_type_radius_bond
C 0.68
H 0.23
N 0.68
O 0.68
loop_
_atom_site_label
_atom_site_type_symbol
_atom_site_fract_x
_atom_site_fract_y
_atom_site_fract_z
O1 O 0.3820(1) 0.41576(12) 0.37269(7)
O2 O 0.56905(10) 0.17565(14) 0.42247(7)
O3 O 0.74699(10) 0.41633(13) 0.42199(7)
O4 O 0.6675(1) 0.68663(13) 0.30963(7)
O5 O 0.43347(10) 0.68068(13) 0.32449(7)
O6 O -0.04547(11) 0.29497(15) 0.17544(8)
O7 O -0.12106(12) 0.52851(18) 0.16454(11)
O8 O -0.01143(18) 0.6572(2) 0.05455(10)
O9 O 0.01118(11) 0.86595(15) 0.12891(8)
N1 N -0.03483(13) 0.43735(19) 0.18189(9)
N2 N 0.03169(14) 0.72849(19) 0.11872(10)
C1 C 0.28964(14) 0.48378(18) 0.31248(10)
C2 C 0.31859(14) 0.63079(19) 0.28592(10)
C3 C 0.23214(15) 0.7101(2) 0.22345(10)
H1 H 0.25070 0.80640 0.20530
C4 C 0.11759(15) 0.6444(2) 0.1882(1)
C5 C 0.08858(14) 0.50237(19) 0.21448(10)
C6 C 0.17478(14) 0.42018(19) 0.27648(10)
H2 H 0.15540 0.32340 0.29360
C7 C 0.36489(15) 0.25899(18) 0.39679(11)
H3 H 0.34660 0.18850 0.35020
H4 H 0.29800 0.25520 0.41850
C8 C 0.48223(16) 0.2133(2) 0.46137(11)
H5 H 0.51230 0.29920 0.49950
H6 H 0.46920 0.12340 0.49180
C9 C 0.69292(16) 0.1800(2) 0.47622(12)
H7 H 0.74300 0.12100 0.45150
H8 H 0.69800 0.12850 0.52730
C10 C 0.74412(18) 0.3424(2) 0.49502(11)
H9 H 0.69400 0.40330 0.51890
H10 H 0.82610 0.33740 0.53460
C11 C 0.79768(17) 0.5694(2) 0.43932(11)
H11 H 0.88260 0.56170 0.47390
H12 H 0.75430 0.62790 0.46910
C12 C 0.78919(16) 0.6547(2) 0.36210(12)
H13 H 0.83280 0.75310 0.37650
H14 H 0.82990 0.59290 0.33180
C13 C 0.61325(15) 0.81590(19) 0.33569(11)
H15 H 0.64770 0.91310 0.32420
H16 H 0.62900 0.80970 0.39430
C14 C 0.47868(15) 0.81207(19) 0.29056(11)
H17 H 0.44060 0.90870 0.29900
H18 H 0.46220 0.79780 0.23220
#END
