
#######################################################################
#
#                 Cambridge Crystallographic Data Centre
#                                CCDC
#
#######################################################################
#
# If this CIF has been generated from an entry in the Cambridge
# Structural Database, then it will include bibliographic, chemical,
# crystal, experimental, refinement or atomic coordinate data resulting
# from the CCDC's data processing and validation procedures.
#
#######################################################################

data_CSD_CIF_SUFZIC
_audit_creation_date 1993-08-06
_audit_creation_method CSD-ConQuest-V1
_database_code_CSD SUFZIC
_chemical_formula_sum 'C14 H19 N1 O7'
_chemical_formula_moiety
;
C14 H19 N1 O7
;
_journal_coden_Cambridge 632
_journal_volume 13
_journal_year 1992
_journal_page_first 219
_journal_name_full 'J.Inclusion Phenom.Mol.Recog.Chem. '
loop_
_publ_author_name
"R.D.Rogers"
"R.F.Henry"
"A.N.Rollins"
_chemical_name_systematic
;
Nitrobenzo-15-crown-5
;
_cell_volume   1487.811
_exptl_crystal_colour 'yellow'
_exptl_crystal_density_diffrn 1.4
_diffrn_ambient_temperature ?
_diffrn_special_details
;
The study was carried out at room temperature,in the range 283-303K

;
_refine_special_details
;
Ethylene linkage C5-C6 is disordered over two sets of positions with 
occupancies of 0.68:0.32.
;
#These two values have been output from a single CSD field.
_refine_ls_R_factor_gt 0.043
_refine_ls_wR_factor_gt 0.043
_symmetry_cell_setting orthorhombic
_symmetry_space_group_name_H-M 'P c a 21'
_symmetry_Int_Tables_number 29
loop_
_symmetry_equiv_pos_site_id
_symmetry_equiv_pos_as_xyz
1 x,y,z
2 1/2-x,y,1/2+z
3 1/2+x,-y,z
4 -x,-y,1/2+z
_cell_length_a 15.367(2)
_cell_length_b 4.8499(8)
_cell_length_c 19.963(5)
_cell_angle_alpha 90
_cell_angle_beta 90
_cell_angle_gamma 90
_cell_formula_units_Z 4
loop_
_atom_type_symbol
_atom_type_radius_bond
C 0.68
N 0.68
O 0.68
loop_
_atom_site_label
_atom_site_type_symbol
_atom_site_fract_x
_atom_site_fract_y
_atom_site_fract_z
O1 O 0.8346(3) 0.096(1) 0.50000
O2 O 0.8740(3) -0.069(1) 0.6323(3)
O3 O 1.0230(4) 0.292(2) 0.6656(4)
O4 O 1.1037(3) 0.528(2) 0.5095(4)
O5 O 0.9472(3) 0.372(1) 0.4374(3)
O6 O 0.6981(4) -0.533(1) 0.3291(4)
O7 O 0.7682(4) -0.444(1) 0.2374(3)
N1 N 0.7528(4) -0.405(1) 0.2974(4)
C1 C 0.7770(4) -0.071(2) 0.5406(4)
C2 C 0.7926(6) 0.022(2) 0.6115(4)
C3 C 0.8987(6) 0.039(2) 0.6972(4)
C4 C 0.9425(6) 0.305(2) 0.6935(5)
C5 C 1.0195(8) 0.352(3) 0.5987(6)
C6 C 1.0835(7) 0.531(3) 0.5776(6)
C7? C 1.068(2) 0.456(8) 0.629(2)
C8? C 1.030(2) 0.490(8) 0.556(1)
C9 C 1.0591(5) 0.689(2) 0.4621(5)
C10 C 1.0194(4) 0.513(2) 0.4079(5)
C11 C 0.9026(4) 0.191(1) 0.3985(4)
C12 C 0.8408(4) 0.039(1) 0.4337(4)
C13 C 0.7911(4) -0.158(2) 0.4004(4)
C14 C 0.8044(4) -0.193(2) 0.3323(4)
C15 C 0.8668(5) -0.045(2) 0.2974(4)
C16 C 0.9151(4) 0.150(2) 0.3304(4)
#END
