
#######################################################################
#
#                 Cambridge Crystallographic Data Centre
#                                CCDC
#
#######################################################################
#
# If this CIF has been generated from an entry in the Cambridge
# Structural Database, then it will include bibliographic, chemical,
# crystal, experimental, refinement or atomic coordinate data resulting
# from the CCDC's data processing and validation procedures.
#
#######################################################################

data_CSD_CIF_SUGBAZ
_audit_creation_date 2015-03-25
_audit_creation_method CSD-ConQuest-V1
_database_code_CSD SUGBAZ
_database_code_depnum_ccdc_archive 'CCDC 1055656'
_chemical_formula_sum 'C20 H18 N2 O4'
_chemical_formula_moiety
;
C20 H18 N2 O4
;
_journal_coden_Cambridge 35
_journal_volume 79
_journal_year 2014
_journal_page_first 10956
_journal_name_full 'J.Org.Chem. '
loop_
_publ_author_name
"O.A.Mukhina"
"N.N.Bhuvan Kumar"
"T.M.Cowger"
"A.G.Kutateladze"
_chemical_name_systematic
;
8-(nitromethyl)-21-oxa-17-azapentacyclo[16.2.1.0^1,10^.0^2,7^.0^11,16^]henicos
a-2,4,6,11,13,15,19-heptaen-10-ol
;
_chemical_name_common
;
systematicname; commonname
;
_cell_volume   1653.508
_exptl_crystal_colour 'colorless'
_exptl_crystal_density_diffrn 1.407
_exptl_crystal_description 'rectangular'
_diffrn_ambient_temperature 296
#These two values have been output from a single CSD field.
_refine_ls_R_factor_gt 0.0407
_refine_ls_wR_factor_gt 0.0407
_symmetry_cell_setting monoclinic
_symmetry_space_group_name_H-M 'P 21/c'
_symmetry_Int_Tables_number 14
loop_
_symmetry_equiv_pos_site_id
_symmetry_equiv_pos_as_xyz
1 x,y,z
2 -x,1/2+y,1/2-z
3 -x,-y,-z
4 x,-1/2-y,-1/2+z
_cell_length_a 13.7987(16)
_cell_length_b 11.0811(13)
_cell_length_c 10.9368(12)
_cell_angle_alpha 90
_cell_angle_beta 98.595(5)
_cell_angle_gamma 90
_cell_formula_units_Z 4
loop_
_atom_type_symbol
_atom_type_radius_bond
C 0.68
H 0.23
N 0.68
O 0.68
loop_
_atom_site_label
_atom_site_type_symbol
_atom_site_fract_x
_atom_site_fract_y
_atom_site_fract_z
C1 C 0.82751(9) 0.89558(11) 0.98328(12)
H1 H 0.83900 0.85280 0.90940
H2 H 0.89040 0.92310 1.02570
O1 O 0.75477(12) 1.24863(17) 0.7432(2)
O2 O 0.71304(7) 0.67984(8) 0.89535(8)
O3 O 0.75202(7) 0.88301(8) 1.16221(8)
H3 H 0.74080 0.84010 1.21960
C2 C 0.78190(9) 0.80945(11) 1.06723(11)
C3 C 0.76201(9) 1.00492(11) 0.94601(11)
H4 H 0.76410 1.05710 1.01870
C4 C 1.02964(11) 0.59351(14) 1.23359(15)
H5 H 1.08630 0.55280 1.26730
C5 C 1.00919(11) 0.70590(14) 1.27709(15)
H6 H 1.05070 0.74120 1.34220
C6 C 0.92621(10) 0.76499(13) 1.22238(13)
H7 H 0.91300 0.84070 1.25260
C7 C 0.86042(9) 0.71802(11) 1.12379(11)
C8 C 0.80826(11) 1.07394(13) 0.84836(14)
H8 H 0.87880 1.06400 0.86540
H9 H 0.78590 1.03850 0.76800
N1 N 0.78534(12) 1.20482(15) 0.84278(19)
C9 C 0.96566(10) 0.54231(13) 1.14023(14)
H10 H 0.97930 0.46540 1.11320
C10 C 0.88021(10) 0.60097(11) 1.08332(12)
O4 O 0.8000(2) 1.26182(14) 0.9358(2)
C11 C 0.65592(9) 0.96900(12) 0.90447(11)
C12 C 0.58938(11) 1.05204(14) 0.84393(14)
H11 H 0.61130 1.12880 0.82710
C13 C 0.49225(11) 1.02357(15) 0.80854(15)
H12 H 0.44940 1.08060 0.76830
C14 C 0.45865(11) 0.91039(16) 0.83278(15)
H13 H 0.39310 0.89050 0.80900
C15 C 0.52298(10) 0.82660(14) 0.89268(14)
H14 H 0.50020 0.75000 0.90850
C16 C 0.62143(9) 0.85466(12) 0.92981(11)
C17 C 0.68766(9) 0.75664(11) 0.99280(11)
C18 C 0.72419(11) 0.55960(12) 0.94301(12)
H15 H 0.70010 0.50130 0.87810
C19 C 0.65970(11) 0.55865(14) 1.04183(13)
H16 H 0.63680 0.48960 1.07650
C20 C 0.64027(10) 0.66945(13) 1.07214(12)
H17 H 0.60310 0.69110 1.13300
N2 N 0.82500(9) 0.53701(11) 0.98825(11)
H18 H 0.85350 0.47980 0.95420
#END
