
#######################################################################
#
#                 Cambridge Crystallographic Data Centre
#                                CCDC
#
#######################################################################
#
# If this CIF has been generated from an entry in the Cambridge
# Structural Database, then it will include bibliographic, chemical,
# crystal, experimental, refinement or atomic coordinate data resulting
# from the CCDC's data processing and validation procedures.
#
#######################################################################

data_CSD_CIF_SUKBOP
_audit_creation_date 1993-10-28
_audit_creation_method CSD-ConQuest-V1
_database_code_CSD SUKBOP
_chemical_formula_sum 'C20 H28 N4 O4'
_chemical_formula_moiety
;
C20 H28 N4 O4
;
_journal_coden_Cambridge 9
_journal_volume 32
_journal_year 1993
_journal_page_first 1445
_journal_name_full 'Inorg.Chem. '
loop_
_publ_author_name
"A.Caneschi"
"P.Chiesi"
"L.David"
"F.Ferraro"
"D.Gatteschi"
"R.Sessoli"
_chemical_name_systematic
;
1,3-bis(1'-Oxyl-3'-oxido-4',4',5',5'-tetramethyl-4,'5'-dihydro-1H-imidazol-2'-
yl)benzene
;
_cell_volume   2095.170
_exptl_crystal_density_diffrn 1.231
_diffrn_ambient_temperature ?
_diffrn_special_details
;
The study was carried out at room temperature,in the range 283-303K

;
_refine_special_details
;
One five-membered ring is disordered; C16, C17, C18, C20, N4 and O4 have two 
positions with occupancies of 0.55:45 for A:B.
;
#These two values have been output from a single CSD field.
_refine_ls_R_factor_gt 0.091
_refine_ls_wR_factor_gt 0.091
_symmetry_cell_setting monoclinic
_symmetry_space_group_name_H-M 'P 21/n'
_symmetry_Int_Tables_number 14
loop_
_symmetry_equiv_pos_site_id
_symmetry_equiv_pos_as_xyz
1 x,y,z
2 1/2-x,1/2+y,1/2-z
3 -x,-y,-z
4 -1/2+x,-1/2-y,-1/2+z
_cell_length_a 7.318(2)
_cell_length_b 25.368(3)
_cell_length_c 11.669(2)
_cell_angle_alpha 90
_cell_angle_beta 104.72(2)
_cell_angle_gamma 90
_cell_formula_units_Z 4
loop_
_atom_type_symbol
_atom_type_radius_bond
C 0.68
H 0.23
N 0.68
O 0.68
loop_
_atom_site_label
_atom_site_type_symbol
_atom_site_fract_x
_atom_site_fract_y
_atom_site_fract_z
C1 C 0.2775(5) 0.4106(2) 0.4936(3)
C2 C 0.4075(5) 0.3809(1) 0.5755(3)
C3 C 0.3605(5) 0.3605(2) 0.6748(4)
C4 C 0.1796(6) 0.3712(2) 0.6908(4)
C5 C 0.0514(6) 0.3995(2) 0.6083(4)
C6 C 0.0972(5) 0.4195(2) 0.5094(4)
C7 C 0.3262(5) 0.4307(1) 0.3876(3)
C8 C 0.5088(5) 0.4525(2) 0.2552(3)
C9 C 0.2941(5) 0.4636(2) 0.1952(3)
C10 C 0.5778(6) 0.4002(2) 0.2199(5)
C11 C 0.6402(6) 0.4965(2) 0.2434(4)
C12 C 0.2203(7) 0.4411(2) 0.0714(4)
C13 C 0.2395(7) 0.5206(2) 0.2014(5)
C14 C 0.4927(6) 0.3277(2) 0.7598(4)
C15 C 0.7273(7) 0.2652(2) 0.8439(4)
C16 C 0.5944(11) 0.2712(3) 0.9294(7)
C17? C 0.6967(14) 0.2965(4) 0.9377(9)
C18 C 0.7866(25) 0.2147(6) 0.8172(13)
C19? C 0.9159(23) 0.2452(7) 0.8345(12)
C20 C 0.9109(17) 0.3025(8) 0.8894(20)
C21? C 0.5940(26) 0.2105(5) 0.8227(4)
C22 C 0.667(1) 0.2754(3) 1.0539(5)
C23 C 0.4627(16) 0.2235(5) 0.9127(12)
C24? C 0.8770(18) 0.3345(6) 0.9753(16)
N1 N 0.4995(4) 0.4462(1) 0.3810(3)
N2 N 0.2060(4) 0.4351(1) 0.2795(3)
N3 N 0.6199(5) 0.2947(2) 0.7357(3)
N4 N 0.4802(22) 0.3157(5) 0.8772(15)
N5? N 0.5324(29) 0.3328(6) 0.8728(19)
O1 O 0.6473(3) 0.4502(1) 0.4681(2)
O2 O 0.0324(4) 0.4201(2) 0.2485(3)
O3 O 0.6485(6) 0.2862(2) 0.6326(3)
O4 O 0.3685(18) 0.3407(6) 0.930(1)
O5? O 0.456(2) 0.3621(7) 0.9345(13)
H1 H 0.5259(59) 0.3742(16) 0.5600(34)
H2 H 0.1462(6) 0.3582(2) 0.7620(4)
H3 H -0.0569(84) 0.4072(24) 0.6262(51)
H4 H 0.0010(56) 0.4398(16) 0.4550(36)
H5 H 0.5859(6) 0.4019(2) 0.1365(5)
H6 H 0.4882(6) 0.3723(2) 0.2263(5)
H7 H 0.7021(6) 0.3920(2) 0.2717(5)
H8 H 0.6433(7) 0.4999(2) 0.1598(4)
H9 H 0.7676(7) 0.4888(2) 0.2926(4)
H10 H 0.5957(7) 0.5296(2) 0.2697(4)
H11 H 0.2776(7) 0.4606(2) 0.0162(4)
H12 H 0.0823(7) 0.4462(2) 0.0456(4)
H13 H 0.2509(7) 0.4043(2) 0.0709(4)
H14 H 0.2934(7) 0.5418(2) 0.1474(5)
H15 H 0.2880(7) 0.5339(2) 0.2830(5)
H16 H 0.1015(7) 0.5243(2) 0.1775(5)
#END
