
#######################################################################
#
#                 Cambridge Crystallographic Data Centre
#                                CCDC
#
#######################################################################
#
# If this CIF has been generated from an entry in the Cambridge
# Structural Database, then it will include bibliographic, chemical,
# crystal, experimental, refinement or atomic coordinate data resulting
# from the CCDC's data processing and validation procedures.
#
#######################################################################

data_CSD_CIF_SUKBIJ
_audit_creation_date 1993-10-27
_audit_creation_method CSD-ConQuest-V1
_database_code_CSD SUKBIJ
_chemical_formula_sum 'C20 H28 N4 O4'
_chemical_formula_moiety
;
C20 H28 N4 O4
;
_journal_coden_Cambridge 9
_journal_volume 32
_journal_year 1993
_journal_page_first 1445
_journal_name_full 'Inorg.Chem. '
loop_
_publ_author_name
"A.Caneschi"
"P.Chiesi"
"L.David"
"F.Ferraro"
"D.Gatteschi"
"R.Sessoli"
_chemical_name_systematic
;
1,4-bis(1'-Oxyl-3'-oxido-4',4',5',5'-tetramethyl-4,'5'-dihydro-1H-imidazol-2'-
yl)benzene
;
_cell_volume   1016.559
_exptl_crystal_density_diffrn 1.269
_diffrn_ambient_temperature ?
_diffrn_special_details
;
The study was carried out at room temperature,in the range 283-303K

;
#These two values have been output from a single CSD field.
_refine_ls_R_factor_gt 0.0637
_refine_ls_wR_factor_gt 0.0637
_symmetry_cell_setting monoclinic
_symmetry_space_group_name_H-M 'P 21/c'
_symmetry_Int_Tables_number 14
loop_
_symmetry_equiv_pos_site_id
_symmetry_equiv_pos_as_xyz
1 x,y,z
2 -x,1/2+y,1/2-z
3 -x,-y,-z
4 x,-1/2-y,-1/2+z
_cell_length_a 6.266(3)
_cell_length_b 11.790(3)
_cell_length_c 13.781(4)
_cell_angle_alpha 90
_cell_angle_beta 93.14(3)
_cell_angle_gamma 90
_cell_formula_units_Z 2
loop_
_atom_type_symbol
_atom_type_radius_bond
C 0.68
H 0.23
N 0.68
O 0.68
loop_
_atom_site_label
_atom_site_type_symbol
_atom_site_fract_x
_atom_site_fract_y
_atom_site_fract_z
C1 C 0.8475(5) 0.1907(2) 0.8880(2)
C2 C 0.9280(5) 0.0929(3) 0.9449(2)
C3 C 1.1372(5) 0.0883(3) 0.9817(2)
C4 C 0.7908(5) 0.0043(3) 0.9635(2)
C5 C 0.6599(6) 0.2995(3) 0.7675(2)
C6 C 0.7766(8) 0.2839(4) 0.6725(3)
C7 C 0.7779(5) 0.3800(3) 0.8410(2)
C8 C 0.4273(8) 0.3217(4) 0.7465(4)
C9 C 0.9059(7) 0.4745(3) 0.7981(4)
C10 C 0.6335(7) 0.4297(3) 0.9152(3)
N1 N 0.6879(4) 0.1879(2) 0.8203(2)
N2 N 0.9230(4) 0.2982(2) 0.8960(2)
O1 O 0.5777(5) 0.1023(2) 0.7927(2)
O2 O 1.0748(4) 0.3321(2) 0.9538(2)
H1 H 1.2394(41) 0.1474(27) 0.9713(22)
H2 H 0.6555(40) 0.0052(21) 0.9409(20)
H3 H 0.7647(8) 0.3552(4) 0.6333(3)
H4 H 0.7099(8) 0.2198(4) 0.6342(3)
H5 H 0.9308(8) 0.2666(4) 0.6886(3)
H6 H 0.3301(8) 0.3135(4) 0.8048(4)
H7 H 0.3626(8) 0.2616(4) 0.7031(4)
H8 H 0.4034(8) 0.3963(4) 0.7229(4)
H9 H 1.0207(7) 0.4507(3) 0.7604(4)
H10 H 0.9915(7) 0.5191(3) 0.8482(4)
H11 H 0.7921(7) 0.5219(3) 0.7637(4)
H12 H 0.5327(7) 0.4852(3) 0.8824(3)
H13 H 0.7225(7) 0.4692(3) 0.9673(3)
H14 H 0.5502(7) 0.3674(3) 0.9446(3)
C4B C 1.2092(5) -0.0043(3) 1.0365(2)
C3B C 0.8628(5) -0.0883(3) 1.0183(2)
C2B C 1.0720(5) -0.0929(3) 1.0551(2)
H2B H 1.3445(40) -0.0052(21) 1.0591(20)
H1B H 0.7606(41) -0.1474(27) 1.0287(22)
C1B C 1.1525(5) -0.1907(2) 1.1120(2)
N1B N 1.3121(4) -0.1879(2) 1.1797(2)
N2B N 1.0770(4) -0.2982(2) 1.1040(2)
C5B C 1.3401(6) -0.2995(3) 1.2325(2)
O1B O 1.4223(5) -0.1023(2) 1.2073(2)
C7B C 1.2221(5) -0.3800(3) 1.1590(2)
O2B O 0.9252(4) -0.3321(2) 1.0462(2)
C6B C 1.2234(8) -0.2839(4) 1.3275(3)
C8B C 1.5727(8) -0.3217(4) 1.2535(4)
C9B C 1.0941(7) -0.4745(3) 1.2019(4)
C10B C 1.3665(7) -0.4297(3) 1.0848(3)
H3B H 1.2353(8) -0.3552(4) 1.3667(3)
H4B H 1.2901(8) -0.2198(4) 1.3658(3)
H5B H 1.0692(8) -0.2666(4) 1.3114(3)
H6B H 1.6699(8) -0.3135(4) 1.1952(4)
H7B H 1.6374(8) -0.2616(4) 1.2969(4)
H8B H 1.5966(8) -0.3963(4) 1.2771(4)
H9B H 0.9793(7) -0.4507(3) 1.2396(4)
H10B H 1.0085(7) -0.5191(3) 1.1518(4)
H11B H 1.2079(7) -0.5219(3) 1.2363(4)
H12B H 1.4673(7) -0.4852(3) 1.1176(3)
H13B H 1.2775(7) -0.4692(3) 1.0327(3)
H14B H 1.4498(7) -0.3674(3) 1.0554(3)
#END
