
#######################################################################
#
#                 Cambridge Crystallographic Data Centre
#                                CCDC
#
#######################################################################
#
# If this CIF has been generated from an entry in the Cambridge
# Structural Database, then it will include bibliographic, chemical,
# crystal, experimental, refinement or atomic coordinate data resulting
# from the CCDC's data processing and validation procedures.
#
#######################################################################

data_CSD_CIF_SULSID
_audit_creation_date 2015-08-27
_audit_creation_method CSD-ConQuest-V1
_database_code_CSD SULSID
_database_code_depnum_ccdc_archive 'CCDC 1062281'
_chemical_formula_sum 'C16 H14 N2 O5'
_chemical_formula_moiety
;
C16 H14 N2 O5
;
_journal_coden_Cambridge 35
_journal_volume 80
_journal_year 2015
_journal_page_first 7971
_journal_name_full 'J.Org.Chem. '
loop_
_publ_author_name
"R.I.Stock"
"L.G.Nandi"
"C.R.Nicoleti"
"A.D.S.Schramm"
"S.L.Meller"
"R.S.Heying"
"D.F.Coimbra"
"K.F.Andriani"
"G.F.Caramori"
"A.J.Bortoluzzi"
"V.G.Machado"
_chemical_name_systematic
;
4-(2-(2,4-dinitrophenyl)vinyl)-2,6-dimethylphenol
;
_chemical_name_common
;
(E)-2-6,-dimethyl-4-(2,4-dinitrostyryl)phenol
;
_cell_volume    732.762
_exptl_crystal_colour 'orange'
_exptl_crystal_density_diffrn 1.424
_exptl_crystal_description 'Prism-like'
_exptl_crystal_preparation 'Re-crystallisation from solvent'
_diffrn_ambient_temperature 293
#These two values have been output from a single CSD field.
_refine_ls_R_factor_gt 0.0561
_refine_ls_wR_factor_gt 0.0561
_symmetry_cell_setting triclinic
_symmetry_space_group_name_H-M 'P -1'
_symmetry_Int_Tables_number 2
loop_
_symmetry_equiv_pos_site_id
_symmetry_equiv_pos_as_xyz
1 x,y,z
2 -x,-y,-z
_cell_length_a 6.9348(2)
_cell_length_b 7.8591(2)
_cell_length_c 15.3115(3)
_cell_angle_alpha 81.896(1)
_cell_angle_beta 77.827(1)
_cell_angle_gamma 64.116(1)
_cell_formula_units_Z 2
loop_
_atom_type_symbol
_atom_type_radius_bond
C 0.68
H 0.23
N 0.68
O 0.68
loop_
_atom_site_label
_atom_site_type_symbol
_atom_site_fract_x
_atom_site_fract_y
_atom_site_fract_z
C1 C 0.74555(17) 0.50344(15) 1.03455(7)
C2 C 0.81238(18) 0.37429(15) 1.10676(7)
C3 C 0.79372(19) 0.42393(16) 1.19209(7)
H1 H 0.84350 0.33270 1.23770
C4 C 0.69821(19) 0.61447(17) 1.20690(7)
C5 C 0.6267(2) 0.75143(17) 1.13925(8)
H2 H 0.56290 0.87930 1.15060
C6 C 0.6515(2) 0.69528(17) 1.05448(8)
H3 H 0.60430 0.78760 1.00900
C7 C 0.77626(19) 0.44249(17) 0.94515(7)
H4 H 0.83460 0.31300 0.93790
C8 C 0.72637(19) 0.55977(17) 0.87257(7)
H5 H 0.66990 0.68870 0.88090
C9 C 0.75122(19) 0.50668(16) 0.78218(7)
C10 C 0.6794(2) 0.64967(17) 0.71543(7)
H6 H 0.62050 0.77550 0.72980
C11 C 0.6934(2) 0.60920(18) 0.62827(8)
C12 C 0.7833(2) 0.41972(18) 0.60785(8)
C13 C 0.8591(2) 0.27213(18) 0.67239(8)
C14 C 0.8418(2) 0.31850(17) 0.75856(7)
H7 H 0.89190 0.22170 0.80200
C15 C 0.6133(3) 0.7652(2) 0.55760(9)
H8 H 0.55740 0.88580 0.58320
H9 H 0.50010 0.75480 0.53500
H10 H 0.73130 0.75460 0.50960
C16 C 0.9566(3) 0.0694(2) 0.64769(11)
H11 H 0.93800 0.06500 0.58780
H12 H 0.88520 0.00170 0.68830
H13 H 1.10880 0.01190 0.65120
N1 N 0.67388(19) 0.67018(17) 1.29697(7)
N2 N 0.9125(2) 0.16892(14) 1.09517(7)
O1 O 1.1003(2) 0.07984(16) 1.10643(10)
O2 O 0.8039(2) 0.09851(17) 1.07574(10)
O3 O 0.7334(2) 0.54455(18) 1.35521(6)
O4 O 0.5967(2) 0.83865(18) 1.30951(9)
O5 O 0.8019(2) 0.36678(16) 0.52446(7)
H14 H 0.76570 0.45660 0.49360
#END
