
#######################################################################
#
#                 Cambridge Crystallographic Data Centre
#                                CCDC
#
#######################################################################
#
# If this CIF has been generated from an entry in the Cambridge
# Structural Database, then it will include bibliographic, chemical,
# crystal, experimental, refinement or atomic coordinate data resulting
# from the CCDC's data processing and validation procedures.
#
#######################################################################

data_CSD_CIF_SUMJIU
_audit_creation_date 2010-09-15
_audit_creation_method CSD-ConQuest-V1
_database_code_CSD SUMJIU
_database_code_depnum_ccdc_archive 'CCDC 749328'
_chemical_formula_sum 'C22 H32 N4 O4'
_chemical_formula_moiety
;
C22 H32 N4 O4
;
_journal_coden_Cambridge 702
_journal_volume 25
_journal_year 2009
_journal_page_first 2137
_journal_name_full 'Wuji Huaxue Xuebao(Chin.)(Chin.J.Inorg.Chem.) '
loop_
_publ_author_name
"Xiao-Feng Wang"
"Chang-Ming Nie"
"Bi-Bo Liao"
"Yan-Fei Wang"
"Jian-Nan Peng"
"Qi-Hua Zhao"
"Rui-Bin Fang"
_chemical_name_systematic
;
2,5-Dimethyl-1,4-bis(nitronyl nitroxide)benzene biradical
;
_chemical_name_common
;
2,5-Dimethyl-1,4-bis(1-oxyl-3-oxide-4,4,5,5-tetramethylimidazolin-2-yl)benzene
 biradical
;
_cell_volume   1133.717
_exptl_crystal_colour 'purple'
_exptl_crystal_density_diffrn 1.232
_exptl_crystal_description 'block'
_diffrn_ambient_temperature 273
#These two values have been output from a single CSD field.
_refine_ls_R_factor_gt 0.0596
_refine_ls_wR_factor_gt 0.0596
_symmetry_cell_setting monoclinic
_symmetry_space_group_name_H-M 'P 21/c'
_symmetry_Int_Tables_number 14
loop_
_symmetry_equiv_pos_site_id
_symmetry_equiv_pos_as_xyz
1 x,y,z
2 -x,1/2+y,1/2-z
3 -x,-y,-z
4 x,-1/2-y,-1/2+z
_cell_length_a 6.137(4)
_cell_length_b 17.662(11)
_cell_length_c 11.809(6)
_cell_angle_alpha 90
_cell_angle_beta 117.66(3)
_cell_angle_gamma 90
_cell_formula_units_Z 2
loop_
_atom_type_symbol
_atom_type_radius_bond
C 0.68
H 0.23
N 0.68
O 0.68
loop_
_atom_site_label
_atom_site_type_symbol
_atom_site_fract_x
_atom_site_fract_y
_atom_site_fract_z
O1 O -0.5847(5) -0.00140(13) 0.3147(2)
O2 O -0.4910(5) -0.20999(13) 0.1103(2)
N1 N -0.5255(5) -0.16911(14) 0.1890(2)
N2 N -0.5649(5) -0.06970(14) 0.2876(2)
C1 C -0.9348(7) -0.0957(2) -0.0771(3)
H1 H -1.04240 -0.08830 -0.16660
H2 H -1.01750 -0.08080 -0.02880
H3 H -0.88970 -0.14820 -0.06130
C2 C -0.7069(6) -0.04834(17) -0.0373(3)
C3 C -0.5212(6) -0.04518(16) 0.0901(3)
C4 C -0.3221(6) 0.00269(17) 0.1254(3)
H4 H -0.20370 0.00450 0.21070
C5 C -0.5374(5) -0.09332(16) 0.1874(3)
C6 C -0.5500(6) -0.13331(16) 0.3755(3)
C7 C -0.3010(6) -0.12613(18) 0.4929(3)
H5 H -0.28540 -0.07660 0.52920
H6 H -0.17300 -0.13370 0.46890
H7 H -0.28710 -0.16360 0.55480
C8 C -0.7514(7) -0.1239(2) 0.4150(4)
H8 H -0.90920 -0.12520 0.34050
H9 H -0.73110 -0.07630 0.45800
H10 H -0.74120 -0.16430 0.47160
C9 C -0.5795(6) -0.20358(16) 0.2901(3)
C10 C -0.8409(7) -0.2333(2) 0.2179(4)
H11 H -0.85180 -0.26810 0.15290
H12 H -0.95170 -0.19180 0.17880
H13 H -0.88450 -0.25890 0.27620
C11 C -0.4016(8) -0.2681(2) 0.3536(4)
H14 H -0.23590 -0.24990 0.38630
H15 H -0.43020 -0.30740 0.29220
H16 H -0.42600 -0.28780 0.42270
O1B O -0.4153(5) 0.00140(13) -0.3147(2)
O2B O -0.5090(5) 0.20999(13) -0.1103(2)
N1B N -0.4745(5) 0.16911(14) -0.1890(2)
N2B N -0.4351(5) 0.06970(14) -0.2876(2)
C1B C -0.0652(7) 0.0957(2) 0.0771(3)
H1B H 0.04240 0.08830 0.16660
H2B H 0.01750 0.08080 0.02880
H3B H -0.11030 0.14820 0.06130
C2B C -0.2931(6) 0.04834(17) 0.0373(3)
C3B C -0.4788(6) 0.04518(16) -0.0901(3)
C4B C -0.6779(6) -0.00269(17) -0.1254(3)
H4B H -0.79630 -0.00450 -0.21070
C5B C -0.4626(5) 0.09332(16) -0.1874(3)
C6B C -0.4500(6) 0.13331(16) -0.3755(3)
C7B C -0.6990(6) 0.12613(18) -0.4929(3)
H5B H -0.71460 0.07660 -0.52920
H6B H -0.82700 0.13370 -0.46890
H7B H -0.71290 0.16360 -0.55480
C8B C -0.2486(7) 0.1239(2) -0.4150(4)
H8B H -0.09080 0.12520 -0.34050
H9B H -0.26890 0.07630 -0.45800
H10B H -0.25880 0.16430 -0.47160
C9B C -0.4205(6) 0.20358(16) -0.2901(3)
C10B C -0.1591(7) 0.2333(2) -0.2179(4)
H11B H -0.14820 0.26810 -0.15290
H12B H -0.04830 0.19180 -0.17880
H13B H -0.11550 0.25890 -0.27620
C11B C -0.5984(8) 0.2681(2) -0.3536(4)
H14B H -0.76410 0.24990 -0.38630
H15B H -0.56980 0.30740 -0.29220
H16B H -0.57400 0.28780 -0.42270
#END
