
#######################################################################
#
#                 Cambridge Crystallographic Data Centre
#                                CCDC
#
#######################################################################
#
# If this CIF has been generated from an entry in the Cambridge
# Structural Database, then it will include bibliographic, chemical,
# crystal, experimental, refinement or atomic coordinate data resulting
# from the CCDC's data processing and validation procedures.
#
#######################################################################

data_CSD_CIF_SUMZEF
_audit_creation_date 1994-09-21
_audit_creation_method CSD-ConQuest-V1
_database_code_CSD SUMZEF
_database_code_depnum_ccdc_archive 'CCDC 124539'
_chemical_formula_sum 'C26 H28 N2 O8'
_chemical_formula_moiety
;
C26 H28 N2 O8
;
_journal_coden_Cambridge 1003
_journal_volume 24
_journal_year 1994
_journal_page_first 175
_journal_name_full 'J.Chem.Cryst. '
loop_
_publ_author_name
"R.Shankar"
"A.I.Scott"
"J.H.Reibenspies"
_chemical_name_systematic
;
t-Butyl (E)-5-p-nitrobenzyloxycarbonylmethylene-N-benzyloxycarbonyl-L-proline
;
_chemical_melting_point 378.15
_cell_volume   2515.316
_exptl_crystal_colour 'colorless'
_exptl_crystal_density_diffrn 1.311
_diffrn_ambient_temperature ?
_diffrn_special_details
;
The study was carried out at room temperature,in the range 283-303K

;
#These two values have been output from a single CSD field.
_refine_ls_R_factor_gt 0.07
_refine_ls_wR_factor_gt 0.07
_symmetry_cell_setting orthorhombic
_symmetry_space_group_name_H-M 'P 21 21 21'
_symmetry_Int_Tables_number 19
loop_
_symmetry_equiv_pos_site_id
_symmetry_equiv_pos_as_xyz
1 x,y,z
2 1/2+x,1/2-y,-z
3 -x,1/2+y,1/2-z
4 1/2-x,-y,1/2+z
_cell_length_a 5.768(7)
_cell_length_b 13.622(8)
_cell_length_c 32.013(4)
_cell_angle_alpha 90
_cell_angle_beta 90
_cell_angle_gamma 90
_cell_formula_units_Z 4
loop_
_atom_type_symbol
_atom_type_radius_bond
C 0.68
H 0.23
N 0.68
O 0.68
loop_
_atom_site_label
_atom_site_type_symbol
_atom_site_fract_x
_atom_site_fract_y
_atom_site_fract_z
O1 O -0.1298(24) 0.6064(9) 0.1965(4)
O2 O -0.0599(23) 0.7544(8) 0.1701(3)
O3 O -0.0336(33) 1.2463(11) 0.2072(5)
O4 O -0.3331(25) 1.239(1) 0.2454(4)
O5 O 0.5963(22) 0.6559(9) 0.0992(3)
O6 O 0.7591(22) 0.5100(8) 0.0813(4)
O7 O 0.2991(22) 0.3788(8) 0.0720(4)
O8 O 0.4729(21) 0.2518(8) 0.1044(3)
N1 N 0.4785(25) 0.5111(9) 0.1283(4)
N2 N -0.1981(38) 1.2025(12) 0.2224(6)
C1 C 0.2884(31) 0.5424(12) 0.1520(5)
C2 C 0.2015(32) 0.4548(12) 0.1750(5)
C3 C 0.4024(31) 0.3843(12) 0.1768(5)
C4 C 0.5233(34) 0.4041(11) 0.1353(5)
C5 C 0.1949(31) 0.6323(12) 0.1517(5)
C6 C -0.0134(35) 0.6581(13) 0.1748(6)
C7 C -0.2641(37) 0.7892(12) 0.1899(5)
C8 C -0.2388(34) 0.8996(12) 0.1957(5)
C9 C -0.4264(34) 0.9478(12) 0.2153(5)
C10 C -0.4097(35) 1.0463(13) 0.2244(5)
C11 C -0.2110(35) 1.0956(12) 0.2121(6)
C12 C -0.0300(38) 1.0514(13) 0.1913(5)
C13 C -0.0479(38) 0.9511(13) 0.1841(5)
C14 C 0.6145(35) 0.5704(13) 0.1032(6)
C15 C 0.9003(32) 0.5645(12) 0.0525(5)
C16 C 0.5554(37) 0.5470(12) 0.0018(6)
C17 C 0.4371(37) 0.5717(12) -0.0349(6)
C18 C 0.5447(39) 0.6396(14) -0.0602(6)
C19 C 0.7517(38) 0.6782(12) -0.0530(6)
C20 C 0.8632(34) 0.6557(12) -0.0161(5)
C21 C 0.7704(34) 0.5877(11) 0.0115(5)
C22 C 0.4156(34) 0.3458(14) 0.0991(6)
C23 C 0.3702(38) 0.1741(15) 0.0764(7)
C24 C 0.1060(32) 0.1785(13) 0.0822(6)
C25 C 0.4524(33) 0.0797(11) 0.0986(5)
C26 C 0.4488(34) 0.1842(11) 0.0340(5)
H1 H 0.07410 0.42540 0.16030
H2 H 0.15220 0.47020 0.20290
H3 H 0.35220 0.31740 0.17940
H4 H 0.50290 0.39950 0.19980
H5 H 0.68680 0.39280 0.13830
H6 H 0.26760 0.68150 0.13460
H7 H -0.27400 0.76050 0.21730
H8 H -0.40120 0.77240 0.17450
H9 H -0.56870 0.91310 0.22010
H10 H -0.52610 1.08170 0.23960
H11 H 0.09530 1.09010 0.18040
H12 H 0.07650 0.91420 0.17180
H13 H 1.03430 0.52610 0.04550
H14 H 0.95080 0.62550 0.06450
H15 H 0.47800 0.50670 0.02210
H16 H 0.28840 0.54500 -0.04210
H17 H 0.47340 0.65430 -0.08660
H18 H 0.80990 0.72330 -0.07350
H19 H 1.00760 0.68740 -0.00970
H20 H 0.02460 0.12690 0.06800
H21 H 0.05550 0.18140 0.11070
H22 H 0.07420 0.24000 0.06870
H23 H 0.61730 0.07570 0.09490
H24 H 0.41810 0.08870 0.12770
H25 H 0.38160 0.02010 0.08900
H26 H 0.61240 0.17280 0.03140
H27 H 0.36720 0.14520 0.01380
H28 H 0.41670 0.25250 0.02920
#END
