
#######################################################################
#
#                 Cambridge Crystallographic Data Centre
#                                CCDC
#
#######################################################################
#
# If this CIF has been generated from an entry in the Cambridge
# Structural Database, then it will include bibliographic, chemical,
# crystal, experimental, refinement or atomic coordinate data resulting
# from the CCDC's data processing and validation procedures.
#
#######################################################################

data_CSD_CIF_SUNRUP
_audit_creation_date 2010-03-10
_audit_creation_method CSD-ConQuest-V1
_database_code_CSD SUNRUP
_database_code_depnum_ccdc_archive 'CCDC 701852'
_chemical_formula_sum 'C17 H23 N1 O3'
_chemical_formula_moiety
;
C17 H23 N1 O3
;
_journal_coden_Cambridge 16
_journal_volume 65
_journal_year 2009
_journal_page_first 4578
_journal_name_full 'Tetrahedron '
loop_
_publ_author_name
"A.A.Tabolin"
"A.V.Lesiv"
"Y.A.Khomutova"
"Y.V.Nelyubina"
"S.L.Ioffe"
_chemical_name_systematic
;
rel-(1R)-1-((4S,4aR,8aR)-4-(4-Methoxyphenyl)-4a,5,6,7,8,8a-hexahydro-4H-1,2-be
nzoxazin-3-yl)ethanol
;
_chemical_melting_point 389.15
_cell_volume   2974.274
_exptl_crystal_colour 'colorless'
_exptl_crystal_density_diffrn 1.292
_exptl_special_details
;
Melting point range 389.15-393.15K

;
_exptl_crystal_description 'prism'
_diffrn_ambient_temperature 273
#These two values have been output from a single CSD field.
_refine_ls_R_factor_gt 0.0539
_refine_ls_wR_factor_gt 0.0539
_symmetry_cell_setting monoclinic
_symmetry_space_group_name_H-M 'C 2/c'
_symmetry_Int_Tables_number 15
loop_
_symmetry_equiv_pos_site_id
_symmetry_equiv_pos_as_xyz
1 x,y,z
2 -x,y,1/2-z
3 1/2+x,1/2+y,z
4 1/2-x,1/2+y,1/2-z
5 -x,-y,-z
6 x,-y,-1/2+z
7 -1/2-x,-1/2-y,-z
8 -1/2+x,-1/2-y,-1/2+z
_cell_length_a 25.013(3)
_cell_length_b 5.7385(8)
_cell_length_c 22.086(3)
_cell_angle_alpha 90
_cell_angle_beta 110.247(6)
_cell_angle_gamma 90
_cell_formula_units_Z 8
loop_
_atom_type_symbol
_atom_type_radius_bond
C 0.68
H 0.23
N 0.68
O 0.68
loop_
_atom_site_label
_atom_site_type_symbol
_atom_site_fract_x
_atom_site_fract_y
_atom_site_fract_z
N1 N 0.12100(7) 0.7544(3) 0.15540(8)
O1 O 0.06483(6) 0.7880(2) 0.15374(7)
O2 O 0.24470(6) 0.4382(3) 0.22384(7)
H1 H 0.25250 0.57350 0.25210
O3 O 0.18125(6) 0.2940(2) 0.47064(7)
C1 C 0.03710(8) 0.6069(4) 0.17835(10)
H2 H 0.04710 0.62710 0.22500
C2 C -0.02623(9) 0.6499(4) 0.14567(10)
H3 H -0.03450 0.81190 0.15140
H4 H -0.04710 0.55440 0.16610
C3 C -0.04647(9) 0.5938(4) 0.07352(11)
H5 H -0.08760 0.60810 0.05540
H6 H -0.03010 0.70490 0.05180
C4 C -0.02904(9) 0.3478(4) 0.06219(10)
H7 H -0.04090 0.31840 0.01620
H8 H -0.04810 0.23620 0.08070
C5 C 0.03550(8) 0.3152(3) 0.09265(10)
H9 H 0.04540 0.15650 0.08570
H10 H 0.05460 0.41940 0.07220
C6 C 0.05546(8) 0.3659(3) 0.16504(9)
H11 H 0.03820 0.25070 0.18540
C7 C 0.12055(8) 0.3521(3) 0.19758(9)
H12 H 0.13370 0.21050 0.18230
C8 C 0.14581(8) 0.5593(3) 0.17492(9)
C9 C 0.13849(8) 0.3372(3) 0.27080(9)
C10 C 0.12643(8) 0.1337(3) 0.29815(10)
H13 H 0.10870 0.01060 0.27130
C11 C 0.14031(8) 0.1101(3) 0.36457(10)
H14 H 0.13210 -0.02750 0.38180
C12 C 0.16651(8) 0.2937(3) 0.40491(10)
C13 C 0.17888(8) 0.4968(4) 0.3783(1)
H15 H 0.19670 0.61970 0.40510
C14 C 0.16501(8) 0.5182(3) 0.31211(10)
H16 H 0.17360 0.65570 0.29510
C15 C 0.20351(8) 0.5392(4) 0.16738(10)
H17 H 0.21650 0.69470 0.16040
C16 C 0.20041(9) 0.3844(4) 0.11057(11)
H18 H 0.23660 0.38510 0.10450
H19 H 0.17160 0.44210 0.07230
H20 H 0.19110 0.22820 0.11900
C17 C 0.17691(10) 0.0804(4) 0.50107(11)
H21 H 0.19130 0.10090 0.54700
H22 H 0.19880 -0.03700 0.48930
H23 H 0.13770 0.03300 0.48740
#END
