
#######################################################################
#
#                 Cambridge Crystallographic Data Centre
#                                CCDC
#
#######################################################################
#
# If this CIF has been generated from an entry in the Cambridge
# Structural Database, then it will include bibliographic, chemical,
# crystal, experimental, refinement or atomic coordinate data resulting
# from the CCDC's data processing and validation procedures.
#
#######################################################################

data_CSD_CIF_SUNREZ
_audit_creation_date 2010-03-10
_audit_creation_method CSD-ConQuest-V1
_database_code_CSD SUNREZ
_database_code_depnum_ccdc_archive 'CCDC 701849'
_chemical_formula_sum 'C16 H23 N1 O4'
_chemical_formula_moiety
;
C16 H23 N1 O4
;
_journal_coden_Cambridge 16
_journal_volume 65
_journal_year 2009
_journal_page_first 4578
_journal_name_full 'Tetrahedron '
loop_
_publ_author_name
"A.A.Tabolin"
"A.V.Lesiv"
"Y.A.Khomutova"
"Y.V.Nelyubina"
"S.L.Ioffe"
_chemical_name_systematic
;
rel-(1R)-1-((4S,6S)-6-Methoxy-4-(4-methoxyphenyl)-6-methyl-5,6-dihydro-4H-1,2-
oxazin-3-yl)propan-1-ol
;
_chemical_melting_point 365.15
_cell_volume   1576.648
_exptl_crystal_colour 'colorless'
_exptl_crystal_density_diffrn 1.236
_exptl_special_details
;
Melting point range 365.15-366.15K

;
_exptl_crystal_description 'prism'
_diffrn_ambient_temperature 293
#These two values have been output from a single CSD field.
_refine_ls_R_factor_gt 0.053
_refine_ls_wR_factor_gt 0.053
_symmetry_cell_setting monoclinic
_symmetry_space_group_name_H-M 'C c'
_symmetry_Int_Tables_number 9
loop_
_symmetry_equiv_pos_site_id
_symmetry_equiv_pos_as_xyz
1 x,y,z
2 x,-y,1/2+z
3 1/2+x,1/2+y,z
4 1/2+x,1/2-y,1/2+z
_cell_length_a 15.996(3)
_cell_length_b 11.742(2)
_cell_length_c 10.667(2)
_cell_angle_alpha 90
_cell_angle_beta 128.10(3)
_cell_angle_gamma 90
_cell_formula_units_Z 4
loop_
_atom_type_symbol
_atom_type_radius_bond
C 0.68
H 0.23
N 0.68
O 0.68
loop_
_atom_site_label
_atom_site_type_symbol
_atom_site_fract_x
_atom_site_fract_y
_atom_site_fract_z
O1 O 0.7921(2) 0.0830(2) 1.0278(3)
N1 N 0.6252(2) 0.37313(18) 0.2635(3)
C1 C 0.3660(3) 0.2895(4) -0.0932(4)
H1 H 0.30610 0.33150 -0.11740
H2 H 0.34160 0.23000 -0.17040
H3 H 0.41210 0.33970 -0.09620
O2 O 0.59224(17) 0.28687(18) 0.1473(2)
C2 C 0.7988(4) 0.5555(4) 0.5063(7)
H4 H 0.81620 0.62960 0.49030
H5 H 0.79820 0.50150 0.43810
H6 H 0.85100 0.53320 0.61540
O3 O 0.5737(2) 0.46556(19) 0.5058(3)
C3 C 0.9001(3) 0.0605(4) 1.1276(4)
H7 H 0.92180 0.03650 1.22980
H8 H 0.93820 0.12820 1.13990
H9 H 0.91520 0.00120 1.08220
O4 O 0.42290(17) 0.2405(2) 0.0625(2)
C4 C 0.5254(4) 0.1109(3) 0.0241(4)
H10 H 0.50400 0.14690 -0.07240
H11 H 0.47710 0.05010 -0.00120
H12 H 0.59590 0.08080 0.08000
C5 C 0.6922(3) 0.5590(3) 0.4676(4)
H13 H 0.63990 0.57840 0.35590
H14 H 0.69180 0.61910 0.52960
C6 C 0.6586(2) 0.4478(2) 0.4995(3)
H15 H 0.71940 0.41910 0.60360
C7 C 0.6411(3) 0.1531(3) 0.7877(4)
H16 H 0.60550 0.14530 0.83070
C8 C 0.7999(2) 0.1351(2) 0.8134(3)
H17 H 0.87110 0.11520 0.87280
C9 C 0.5875(2) 0.1942(2) 0.6351(3)
H18 H 0.51620 0.21390 0.57640
C10 C 0.5242(2) 0.1978(2) 0.1287(3)
C11 C 0.7460(2) 0.1238(2) 0.8768(3)
C12 C 0.5677(2) 0.1508(2) 0.2907(3)
H19 H 0.63710 0.11740 0.34050
H20 H 0.52090 0.09160 0.27870
C13 C 0.7446(2) 0.1770(2) 0.6592(3)
H21 H 0.78040 0.18540 0.61650
C14 C 0.6210(2) 0.3527(2) 0.3774(3)
C15 C 0.5767(2) 0.24596(19) 0.3959(3)
H22 H 0.50450 0.26370 0.35740
C16 C 0.6388(2) 0.2065(2) 0.5675(3)
H23 H 0.608(5) 0.497(6) 0.584(8)
#END
