
#######################################################################
#
#                 Cambridge Crystallographic Data Centre
#                                CCDC
#
#######################################################################
#
# If this CIF has been generated from an entry in the Cambridge
# Structural Database, then it will include bibliographic, chemical,
# crystal, experimental, refinement or atomic coordinate data resulting
# from the CCDC's data processing and validation procedures.
#
#######################################################################

data_CSD_CIF_SUQGIV
_audit_creation_date 2010-03-10
_audit_creation_method CSD-ConQuest-V1
_database_code_CSD SUQGIV
_database_code_depnum_ccdc_archive 'CCDC 691283'
_chemical_formula_sum 'C25 H20 N2 O7'
_chemical_formula_moiety
;
C25 H20 N2 O7
;
_journal_coden_Cambridge 177
_journal_volume 7
_journal_year 2009
_journal_page_first 2458
_journal_name_full 'Org.Biomol.Chem. '
loop_
_publ_author_name
"P.Prabhakaran"
"V.G.Puranik"
"J.N.Chandran"
"P.R.Rajamohanan"
"H.-J.Hofmann"
"G.J.Sanjayan"
_chemical_name_systematic
;
Methyl 3-methoxy-4-((3-methoxy-4-nitro-2-naphthoyl)amino)-2-naphthoate
;
_chemical_melting_point 450.15
_cell_volume   2141.737
_exptl_crystal_colour 'yellow'
_exptl_crystal_density_diffrn 1.428
_exptl_special_details
;
Melting point range 450.15-451.15K

;
_exptl_crystal_description 'needle'
_exptl_crystal_preparation 'ethyl acetate/petroleum ether'
_diffrn_ambient_temperature 293
#These two values have been output from a single CSD field.
_refine_ls_R_factor_gt 0.035
_refine_ls_wR_factor_gt 0.035
_symmetry_cell_setting orthorhombic
_symmetry_space_group_name_H-M 'P n a 21'
_symmetry_Int_Tables_number 33
loop_
_symmetry_equiv_pos_site_id
_symmetry_equiv_pos_as_xyz
1 x,y,z
2 -x,-y,1/2+z
3 1/2+x,1/2-y,z
4 1/2-x,1/2+y,1/2+z
_cell_length_a 27.786(2)
_cell_length_b 4.5194(8)
_cell_length_c 17.0553(4)
_cell_angle_alpha 90
_cell_angle_beta 90
_cell_angle_gamma 90
_cell_formula_units_Z 4
loop_
_atom_type_symbol
_atom_type_radius_bond
C 0.68
H 0.23
N 0.68
O 0.68
loop_
_atom_site_label
_atom_site_type_symbol
_atom_site_fract_x
_atom_site_fract_y
_atom_site_fract_z
O1 O 0.19298(6) -0.3503(4) 0.42956(11)
O2 O 0.27006(6) -0.4372(4) 0.45033(12)
O3 O 0.33469(5) -0.1079(3) 0.36186(8)
O4 O 0.37770(5) -0.0492(4) 0.19399(9)
O5 O 0.44626(5) 0.3002(3) 0.09077(8)
O6 O 0.52254(8) 0.7316(6) 0.05457(14)
O7 O 0.57040(7) 0.4164(6) 0.10177(14)
N1 N 0.34534(5) 0.3423(4) 0.25717(10)
H1 H 0.35020 0.52230 0.27150
N2 N 0.53423(7) 0.5610(5) 0.10493(13)
C1 C 0.18199(10) -0.5503(7) 0.49236(18)
H2 H 0.19720 -0.73750 0.48270
H3 H 0.14780 -0.57730 0.49550
H4 H 0.19360 -0.46990 0.54090
C2 C 0.23963(8) -0.3116(5) 0.41379(13)
C3 C 0.24696(7) -0.0989(5) 0.34896(12)
C4 C 0.20805(7) 0.0043(5) 0.30689(12)
H5 H 0.17750 -0.06330 0.31990
C5 C 0.21288(7) 0.2071(5) 0.24524(12)
C6 C 0.17289(8) 0.3017(5) 0.20056(13)
H6 H 0.14260 0.22420 0.21130
C7 C 0.17804(8) 0.5037(6) 0.14233(13)
H7 H 0.15130 0.56560 0.11390
C8 C 0.22386(8) 0.6195(5) 0.12496(14)
H8 H 0.22710 0.75880 0.08520
C9 C 0.26324(7) 0.5313(5) 0.16527(13)
H9 H 0.29330 0.60900 0.15270
C10 C 0.25904(7) 0.3205(5) 0.22675(12)
C11 C 0.29872(7) 0.2184(5) 0.27053(12)
C12 C 0.29358(7) 0.0077(5) 0.32804(13)
C13 C 0.34965(9) 0.0182(7) 0.43427(16)
H10 H 0.35110 0.22960 0.42920
H11 H 0.38090 -0.05620 0.44780
H12 H 0.32710 -0.03350 0.47460
C14 C 0.38228(7) 0.1954(5) 0.22356(12)
C15 C 0.42920(7) 0.3530(5) 0.22943(13)
C16 C 0.44355(7) 0.4617(5) 0.30122(14)
H13 H 0.42370 0.43290 0.34440
C17 C 0.48751(7) 0.6158(5) 0.31158(13)
C18 C 0.50029(9) 0.7446(6) 0.38353(14)
H14 H 0.47990 0.72480 0.42650
C19 C 0.54203(9) 0.8978(6) 0.39113(17)
H15 H 0.54990 0.98390 0.43900
C20 C 0.57306(9) 0.9265(7) 0.32783(17)
H16 H 0.60160 1.03160 0.33380
C21 C 0.56245(8) 0.8040(6) 0.25739(16)
H17 H 0.58390 0.82400 0.21580
C22 C 0.51889(7) 0.6454(5) 0.24668(13)
C23 C 0.50307(7) 0.5281(5) 0.17419(13)
C24 C 0.45980(7) 0.3927(5) 0.16453(13)
C25 C 0.41110(8) 0.4917(6) 0.05617(14)
H18 H 0.38090 0.46690 0.08260
H19 H 0.40740 0.44290 0.00170
H20 H 0.42150 0.69340 0.06100
#END
