
#######################################################################
#
#                 Cambridge Crystallographic Data Centre
#                                CCDC
#
#######################################################################
#
# If this CIF has been generated from an entry in the Cambridge
# Structural Database, then it will include bibliographic, chemical,
# crystal, experimental, refinement or atomic coordinate data resulting
# from the CCDC's data processing and validation procedures.
#
#######################################################################

data_CSD_CIF_SURDUG
_audit_creation_date 2015-08-29
_audit_creation_method CSD-ConQuest-V1
_database_code_CSD SURDUG
_database_code_depnum_ccdc_archive 'CCDC 1421230'
_chemical_formula_sum 'C12 H9 N1 O5'
_chemical_formula_moiety
;
C12 H9 N1 O5
;
_journal_coden_Cambridge 1500
_journal_volume 5
_journal_year 2015
_journal_page_first 88133
_journal_name_full 'RSC Advances '
loop_
_publ_author_name
"L.-Y.Cui"
"Y.-H.Wang"
"S.-R.Chen"
"Y.-M.Wang"
"Z.-H.Zhou"
_chemical_name_systematic
;
9-(Nitromethyl)-3,9-dihydro-1H-furo[3,4-b]chromen-1-one
;
_cell_volume    533.005
_exptl_crystal_colour 'colorless'
_exptl_crystal_density_diffrn 1.54
_exptl_special_details
;
Absolute configuration

;
_exptl_crystal_description 'prism'
_diffrn_ambient_temperature 173
#These two values have been output from a single CSD field.
_refine_ls_R_factor_gt 0.0284
_refine_ls_wR_factor_gt 0.0284
_symmetry_cell_setting monoclinic
_symmetry_space_group_name_H-M 'P 21'
_symmetry_Int_Tables_number 4
loop_
_symmetry_equiv_pos_site_id
_symmetry_equiv_pos_as_xyz
1 x,y,z
2 -x,1/2+y,-z
_cell_length_a 7.201(3)
_cell_length_b 10.323(4)
_cell_length_c 7.211(2)
_cell_angle_alpha 90
_cell_angle_beta 96.096(7)
_cell_angle_gamma 90
_cell_formula_units_Z 2
loop_
_atom_type_symbol
_atom_type_radius_bond
C 0.68
H 0.23
N 0.68
O 0.68
loop_
_atom_site_label
_atom_site_type_symbol
_atom_site_fract_x
_atom_site_fract_y
_atom_site_fract_z
O1 O 0.53829(18) 0.37900(14) 0.26942(17)
O2 O 0.83478(18) 0.36313(16) 0.40371(19)
O3 O 0.37874(15) 0.05265(13) 0.19362(17)
O4 O 0.9888(2) 0.18655(17) 0.0270(2)
O5 O 0.9009(3) -0.01243(19) -0.0065(2)
N1 N 0.95286(18) 0.08043(17) 0.0893(2)
C1 C 0.6935(2) 0.3088(2) 0.3368(2)
C2 C 0.6538(2) 0.17086(19) 0.3133(2)
C3 C 0.4760(2) 0.16145(19) 0.2357(2)
C4 C 0.3893(2) 0.29141(19) 0.2016(2)
H1 H 0.35070 0.30530 0.06710
H2 H 0.27930 0.30220 0.27170
C5 C 0.7750(2) 0.0566(2) 0.3693(2)
H3 H 0.79630 0.05680 0.50860
C6 C 0.6652(2) -0.0665(2) 0.3119(2)
C7 C 0.4779(2) -0.06343(19) 0.2340(2)
C8 C 0.3752(2) -0.1756(2) 0.1904(2)
H4 H 0.24870 -0.17010 0.13790
C9 C 0.4589(3) -0.2956(2) 0.2241(2)
H5 H 0.38960 -0.37280 0.19650
C10 C 0.6472(3) -0.3024(2) 0.2995(3)
H6 H 0.70620 -0.38420 0.32110
C11 C 0.7458(3) -0.1895(2) 0.3419(2)
H7 H 0.87270 -0.19530 0.39310
C12 C 0.9693(2) 0.0647(2) 0.2965(2)
H8 H 1.03920 0.13910 0.35590
H9 H 1.04070 -0.01510 0.33180
#END
