
#######################################################################
#
#                 Cambridge Crystallographic Data Centre
#                                CCDC
#
#######################################################################
#
# If this CIF has been generated from an entry in the Cambridge
# Structural Database, then it will include bibliographic, chemical,
# crystal, experimental, refinement or atomic coordinate data resulting
# from the CCDC's data processing and validation procedures.
#
#######################################################################

data_CSD_CIF_SURSOP
_audit_creation_date 2015-08-31
_audit_creation_method CSD-ConQuest-V1
_database_code_CSD SURSOP
_database_code_depnum_ccdc_archive 'CCDC 1421451'
_chemical_formula_sum 'C28 H28 N4 O5'
_chemical_formula_moiety
;
C28 H28 N4 O5
;
_journal_coden_Cambridge 35
_journal_volume 73
_journal_year 2008
_journal_page_first 6421
_journal_name_full 'J.Org.Chem. '
loop_
_publ_author_name
"Chenliang Su"
"Xian Huang"
"Qingyang Liu"
_chemical_name_systematic
;
1-(2,4-Dinitrophenyl)-2-(1-(2-methoxycyclohexyl)-3,3-diphenylprop-2-en-1-ylide
ne)hydrazine
;
_cell_volume   1254.078
_exptl_crystal_colour 'yellow'
_exptl_crystal_density_diffrn 1.326
_exptl_crystal_description 'prismatic'
_diffrn_ambient_temperature 293
#These two values have been output from a single CSD field.
_refine_ls_R_factor_gt 0.0659
_refine_ls_wR_factor_gt 0.0659
_symmetry_cell_setting triclinic
_symmetry_space_group_name_H-M 'P -1'
_symmetry_Int_Tables_number 2
loop_
_symmetry_equiv_pos_site_id
_symmetry_equiv_pos_as_xyz
1 x,y,z
2 -x,-y,-z
_cell_length_a 8.3847(10)
_cell_length_b 11.1611(14)
_cell_length_c 14.8806(18)
_cell_angle_alpha 103.655(3)
_cell_angle_beta 98.201(3)
_cell_angle_gamma 107.701(3)
_cell_formula_units_Z 2
loop_
_atom_type_symbol
_atom_type_radius_bond
C 0.68
H 0.23
N 0.68
O 0.68
loop_
_atom_site_label
_atom_site_type_symbol
_atom_site_fract_x
_atom_site_fract_y
_atom_site_fract_z
N1 N 0.9799(5) -0.0110(4) 0.1599(3)
N2 N 0.8208(5) -0.0700(4) 0.0942(3)
N3 N 0.5338(5) -0.1960(4) -0.0759(3)
N4 N 0.6827(6) 0.2173(5) -0.1505(3)
O1 O 0.8026(5) -0.3135(3) 0.1130(2)
O2 O 0.5579(5) -0.2654(4) -0.0256(3)
O3 O 0.4168(5) -0.2394(4) -0.1467(3)
O4 O 0.5627(5) 0.1630(4) -0.2206(3)
O5 O 0.7756(6) 0.3331(5) -0.1302(3)
C1 C 0.9983(6) -0.0521(4) 0.2334(3)
C2 C 1.1707(6) 0.0135(5) 0.2988(3)
H1 H 1.21930 -0.04090 0.32220
C3 C 1.2646(5) 0.1423(5) 0.3281(3)
C4 C 0.8605(6) -0.1529(5) 0.2610(3)
H2 H 0.75150 -0.14140 0.23970
C5 C 0.8892(7) -0.1257(5) 0.3681(3)
H3 H 0.99420 -0.13890 0.39230
H4 H 0.90320 -0.03450 0.39720
C6 C 0.7438(8) -0.2125(6) 0.3951(4)
H5 H 0.64000 -0.19490 0.37530
H6 H 0.76790 -0.19440 0.46360
C7 C 0.7158(8) -0.3566(6) 0.3484(4)
H7 H 0.61560 -0.41230 0.36320
H8 H 0.81480 -0.37660 0.37340
C8 C 0.6896(7) -0.3859(5) 0.2409(4)
H9 H 0.67970 -0.47640 0.21320
H10 H 0.58280 -0.37610 0.21520
C9 C 0.8340(7) -0.2966(5) 0.2136(3)
H11 H 0.93980 -0.31320 0.23370
C10 C 0.7854(6) -0.0056(5) 0.0321(3)
C11 C 0.8862(6) 0.1274(5) 0.0500(3)
H12 H 0.97810 0.16770 0.10290
C12 C 0.8527(7) 0.1986(5) -0.0079(3)
H13 H 0.92110 0.28660 0.00610
C13 C 0.7165(6) 0.1405(5) -0.0882(3)
C14 C 0.6149(6) 0.0108(5) -0.1085(3)
H14 H 0.52380 -0.02800 -0.16180
C15 C 0.6477(6) -0.0617(5) -0.0498(3)
C16 C 1.1933(6) 0.2415(4) 0.3024(3)
C17 C 1.0426(6) 0.2503(5) 0.3263(3)
H15 H 0.98740 0.19560 0.35940
C18 C 0.9732(7) 0.3380(6) 0.3022(4)
H16 H 0.87050 0.34080 0.31770
C19 C 1.0535(9) 0.4207(6) 0.2559(4)
H17 H 1.00640 0.48030 0.23970
C20 C 1.2054(8) 0.4159(6) 0.2329(4)
H18 H 1.26050 0.47230 0.20090
C21 C 1.2764(7) 0.3282(5) 0.2571(3)
H19 H 1.38050 0.32730 0.24280
C22 C 1.4399(6) 0.1933(5) 0.3919(3)
C23 C 1.5162(6) 0.3260(5) 0.4445(3)
H20 H 1.45980 0.38400 0.43620
C24 C 1.6728(7) 0.3730(6) 0.5082(4)
H21 H 1.72090 0.46180 0.54260
C25 C 1.7579(7) 0.2892(7) 0.5210(4)
H22 H 1.86400 0.32130 0.56400
C26 C 1.6875(7) 0.1577(7) 0.4706(4)
H23 H 1.74500 0.10070 0.48000
C27 C 1.5312(7) 0.1110(6) 0.4062(4)
H24 H 1.48530 0.02240 0.37140
C28 C 0.7782(8) -0.4412(5) 0.0543(4)
H25 H 0.86570 -0.47120 0.07960
H26 H 0.78570 -0.43770 -0.00890
H27 H 0.66700 -0.50100 0.05240
H28 H 0.771(11) -0.151(3) 0.087(6)
#END
