
#######################################################################
#
#                 Cambridge Crystallographic Data Centre
#                                CCDC
#
#######################################################################
#
# If this CIF has been generated from an entry in the Cambridge
# Structural Database, then it will include bibliographic, chemical,
# crystal, experimental, refinement or atomic coordinate data resulting
# from the CCDC's data processing and validation procedures.
#
#######################################################################

data_CSD_CIF_SUSDIV
_audit_creation_date 2015-08-31
_audit_creation_method CSD-ConQuest-V1
_database_code_CSD SUSDIV
_database_code_depnum_ccdc_archive 'CCDC 1421434'
_chemical_formula_sum 'C38 H26 N2 O6'
_chemical_formula_moiety
;
C38 H26 N2 O6
;
_journal_coden_Cambridge 35
_journal_volume 76
_journal_year 2011
_journal_page_first 9344
_journal_name_full 'J.Org.Chem. '
loop_
_publ_author_name
"A.F.Khlebnikov"
"M.S.Novikov"
"V.V.Pakalnis"
"D.S.Yufit"
_chemical_name_systematic
;
6-(4-Nitrophenyl)-3,4,8,9-tetraphenyl-5,7-dioxa-1-azabicyclo[4.4.1]undeca-3,8-
diene-2,10-dione
;
_cell_volume   2920.560
_exptl_crystal_colour 'colorless'
_exptl_crystal_density_diffrn 1.38
_exptl_crystal_description 'prism'
_diffrn_ambient_temperature 120
_refine_special_details
;
O5A,O6B and O5B,O6A disordered over two sites with occupancies 0.50:0.50.

;
#These two values have been output from a single CSD field.
_refine_ls_R_factor_gt 0.053
_refine_ls_wR_factor_gt 0.053
_symmetry_cell_setting monoclinic
_symmetry_space_group_name_H-M 'P 21/n'
_symmetry_Int_Tables_number 14
loop_
_symmetry_equiv_pos_site_id
_symmetry_equiv_pos_as_xyz
1 x,y,z
2 1/2-x,1/2+y,1/2-z
3 -x,-y,-z
4 -1/2+x,-1/2-y,-1/2+z
_cell_length_a 9.5212(3)
_cell_length_b 10.8122(4)
_cell_length_c 28.4537(11)
_cell_angle_alpha 90
_cell_angle_beta 94.394(10)
_cell_angle_gamma 90
_cell_formula_units_Z 4
loop_
_atom_type_symbol
_atom_type_radius_bond
C 0.68
H 0.23
N 0.68
O 0.68
loop_
_atom_site_label
_atom_site_type_symbol
_atom_site_fract_x
_atom_site_fract_y
_atom_site_fract_z
O1 O 0.55541(11) 0.94633(11) 0.69919(4)
O2 O 0.41826(10) 0.86987(10) 0.63845(4)
O3 O 0.13655(15) 0.66541(13) 0.69482(4)
O4 O 0.29926(17) 0.70017(15) 0.77529(5)
O5 O 0.3569(3) 1.5064(3) 0.57747(13)
O6 O 0.5861(4) 1.4780(4) 0.57307(14)
N1 N 0.27493(13) 0.83483(12) 0.71394(4)
N2 N 0.46280(18) 1.44480(16) 0.58197(6)
C1 C 0.34539(17) 0.78685(15) 0.75465(5)
C2 C 0.48165(16) 0.84568(14) 0.77147(5)
C3 C 0.57059(15) 0.90920(14) 0.74562(5)
C4 C 0.42618(14) 0.97017(13) 0.67244(5)
C5 C 0.28973(15) 0.85206(14) 0.61249(5)
C6 C 0.17870(16) 0.80164(14) 0.63225(5)
C7 C 0.19150(16) 0.76017(14) 0.68275(5)
C8 C 0.30169(15) 0.96281(14) 0.70203(5)
C9 C 0.52300(15) 0.81382(14) 0.82196(5)
C10 C 0.55586(16) 0.69186(15) 0.83442(6)
C11 C 0.57939(17) 0.65862(15) 0.88157(6)
C12 C 0.57271(18) 0.74742(16) 0.91665(6)
C13 C 0.54229(18) 0.86914(16) 0.90444(6)
C14 C 0.51596(17) 0.90283(15) 0.85720(6)
C15 C 0.71601(15) 0.94489(14) 0.76428(5)
C16 C 0.74062(18) 1.05132(16) 0.79114(7)
C17 C 0.8780(2) 1.08517(19) 0.80586(7)
C18 C 0.99012(18) 1.01242(19) 0.79461(6)
C19 C 0.96598(18) 0.9056(2) 0.76866(7)
C20 C 0.82902(17) 0.87217(18) 0.75309(6)
C21 C 0.29540(16) 0.88437(14) 0.56205(5)
C22 C 0.40401(17) 0.83642(17) 0.53729(6)
C23 C 0.41436(19) 0.8697(2) 0.49039(6)
C24 C 0.31848(19) 0.95163(19) 0.46866(6)
C25 C 0.20960(19) 0.99861(17) 0.49285(6)
C26 C 0.19686(17) 0.96410(15) 0.53934(6)
C27 C 0.04506(16) 0.76625(14) 0.60486(5)
C28 C 0.04534(18) 0.69926(15) 0.56283(6)
C29 C -0.08169(19) 0.66740(16) 0.53813(6)
C30 C -0.20884(19) 0.69981(18) 0.55528(7)
C31 C -0.21031(18) 0.76520(19) 0.59729(7)
C32 C -0.08374(17) 0.79823(17) 0.62202(6)
C33 C 0.43886(15) 1.09543(14) 0.64825(5)
C34 C 0.56787(17) 1.15590(16) 0.64776(6)
C35 C 0.57738(18) 1.27056(17) 0.62588(6)
C36 C 0.45573(19) 1.32237(15) 0.60494(6)
C37 C 0.32618(18) 1.26553(16) 0.60480(6)
C38 C 0.31845(17) 1.15120(15) 0.62660(6)
H1 H 0.2141(19) 0.9962(17) 0.6852(7)
H2 H 0.318(2) 1.0120(19) 0.7317(7)
H3 H 0.561(2) 0.6293(19) 0.8116(7)
H4 H 0.601(2) 0.574(2) 0.8900(7)
H5 H 0.586(2) 0.725(2) 0.9486(7)
H6 H 0.535(2) 0.931(2) 0.9288(8)
H7 H 0.491(2) 0.988(2) 0.8491(7)
H8 H 0.659(2) 1.104(2) 0.7990(8)
H9 H 0.895(2) 1.161(2) 0.8243(8)
H10 H 1.088(3) 1.039(2) 0.8050(8)
H11 H 1.041(3) 0.854(2) 0.7600(9)
H12 H 0.813(2) 0.794(2) 0.7362(8)
H13 H 0.471(2) 0.779(2) 0.5522(7)
H14 H 0.495(3) 0.840(2) 0.4737(9)
H15 H 0.330(2) 0.979(2) 0.4372(8)
H16 H 0.142(2) 1.060(2) 0.4770(8)
H17 H 0.122(2) 0.9995(19) 0.5562(7)
H18 H 0.136(2) 0.673(2) 0.5510(7)
H19 H -0.083(2) 0.622(2) 0.5086(8)
H20 H -0.298(2) 0.676(2) 0.5367(8)
H21 H -0.299(3) 0.788(2) 0.6088(8)
H22 H -0.087(2) 0.845(2) 0.6522(7)
H23 H 0.655(2) 1.1178(19) 0.6627(7)
H24 H 0.665(2) 1.316(2) 0.6248(8)
H25 H 0.241(2) 1.308(2) 0.5899(8)
H26 H 0.227(2) 1.1136(18) 0.6275(7)
O7? O 0.3511(3) 1.4814(3) 0.55796(12)
O8? O 0.5691(3) 1.5040(3) 0.58500(12)
#END
