
#######################################################################
#
#                 Cambridge Crystallographic Data Centre
#                                CCDC
#
#######################################################################
#
# If this CIF has been generated from an entry in the Cambridge
# Structural Database, then it will include bibliographic, chemical,
# crystal, experimental, refinement or atomic coordinate data resulting
# from the CCDC's data processing and validation procedures.
#
#######################################################################

data_CSD_CIF_SUSDUG
_audit_creation_date 2010-03-10
_audit_creation_method CSD-ConQuest-V1
_database_code_CSD SUSDUG
_database_code_depnum_ccdc_archive 'CCDC 679944'
_chemical_formula_sum 'C30 H28 N4 O4'
_chemical_formula_moiety
;
C30 H28 N4 O4
;
_journal_coden_Cambridge 416
_journal_volume 19
_journal_year 2009
_journal_page_first 533
_journal_name_full 'J.Fluorescence '
loop_
_publ_author_name
"Fang Gao"
"Jianchao Wang"
"XiaoJiao Liu"
"Long Yang"
"Nvdan Hu"
"Ting Xie"
"Hongru Li"
"Shengtao Zhang"
_chemical_name_systematic
;
(4-((2-(Ethyl(4-((4-nitrophenyl)diazenyl)phenyl)amino)ethoxy)methyl)phenyl)(ph
enyl)methanone
;
_cell_volume   2626.003
_exptl_crystal_colour 'red'
_exptl_crystal_density_diffrn 1.286
_exptl_special_details
;
fluorescent

;
_exptl_crystal_description 'block'
_exptl_crystal_preparation 'benzene'
_diffrn_ambient_temperature 298
#These two values have been output from a single CSD field.
_refine_ls_R_factor_gt 0.048
_refine_ls_wR_factor_gt 0.048
_symmetry_cell_setting monoclinic
_symmetry_space_group_name_H-M 'P 21/c'
_symmetry_Int_Tables_number 14
loop_
_symmetry_equiv_pos_site_id
_symmetry_equiv_pos_as_xyz
1 x,y,z
2 -x,1/2+y,1/2-z
3 -x,-y,-z
4 x,-1/2-y,-1/2+z
_cell_length_a 18.180(17)
_cell_length_b 7.739(7)
_cell_length_c 20.67(2)
_cell_angle_alpha 90
_cell_angle_beta 115.448(12)
_cell_angle_gamma 90
_cell_formula_units_Z 4
loop_
_atom_type_symbol
_atom_type_radius_bond
C 0.68
H 0.23
N 0.68
O 0.68
loop_
_atom_site_label
_atom_site_type_symbol
_atom_site_fract_x
_atom_site_fract_y
_atom_site_fract_z
N1 N 0.81635(14) 0.3405(3) 0.46684(14)
N2 N 0.48243(14) 0.3126(3) 0.29056(13)
N3 N 0.43492(14) 0.3856(3) 0.31236(13)
N4 N 0.09901(17) 0.3130(4) 0.14058(19)
O1 O 0.87756(12) 0.3044(3) 0.35644(12)
O2 O 0.76882(16) 0.6135(4) -0.00580(15)
O3 O 0.07588(14) 0.2327(5) 0.08474(17)
O4 O 0.05243(15) 0.3798(4) 0.16132(17)
C1 C 0.87156(17) 0.2067(4) 0.46376(18)
H1 H 0.83950 0.10870 0.43720
H2 H 0.90570 0.16780 0.51210
C2 C 0.92561(18) 0.2651(5) 0.42929(18)
H3 H 0.95620 0.36650 0.45390
H4 H 0.96410 0.17430 0.43310
C3 C 0.92451(19) 0.3646(5) 0.32166(19)
H5 H 0.95800 0.27100 0.31810
H6 H 0.96050 0.45590 0.35010
C4 C 0.87227(18) 0.4317(4) 0.24854(18)
C5 C 0.78857(18) 0.4157(4) 0.21793(19)
H7 H 0.76310 0.36470 0.24370
C6 C 0.74244(19) 0.4753(4) 0.14920(18)
H8 H 0.68600 0.46510 0.12940
C7 C 0.7790(2) 0.5503(4) 0.10908(18)
C8 C 0.8635(2) 0.5663(5) 0.1406(2)
H9 H 0.88940 0.61590 0.11500
C9 C 0.9085(2) 0.5095(5) 0.2090(2)
H10 H 0.96480 0.52330 0.22950
C10 C 0.7325(2) 0.6003(4) 0.0322(2)
C11 C 0.6433(2) 0.6341(4) 0.00085(19)
C12 C 0.6067(2) 0.7162(4) 0.03904(19)
H11 H 0.63760 0.74530 0.08680
C13 C 0.5245(3) 0.7551(5) 0.0066(3)
H12 H 0.50030 0.81210 0.03210
C14 C 0.4794(3) 0.7095(6) -0.0628(3)
H13 H 0.42410 0.73570 -0.08460
C15 C 0.5143(3) 0.6247(6) -0.1015(2)
H14 H 0.48260 0.59200 -0.14870
C16 C 0.5962(3) 0.5893(5) -0.0696(2)
H15 H 0.62020 0.53450 -0.09570
C17 C 0.73494(16) 0.3408(4) 0.42248(16)
C18 C 0.68033(17) 0.4425(4) 0.43859(16)
H16 H 0.70060 0.51360 0.47880
C19 C 0.59819(17) 0.4383(4) 0.39625(17)
H17 H 0.56360 0.50570 0.40840
C20 C 0.56546(16) 0.3346(4) 0.33514(16)
C21 C 0.61947(17) 0.2419(4) 0.31712(17)
H18 H 0.59910 0.17700 0.27520
C22 C 0.70192(16) 0.2433(4) 0.35928(16)
H19 H 0.73620 0.17890 0.34570
C23 C 0.35111(16) 0.3578(4) 0.26629(16)
C24 C 0.29672(18) 0.4467(4) 0.28494(17)
H20 H 0.31640 0.51690 0.32540
C25 C 0.21399(18) 0.4323(4) 0.24426(18)
H21 H 0.17750 0.49230 0.25660
C26 C 0.18665(16) 0.3274(4) 0.18506(17)
C27 C 0.23937(18) 0.2385(4) 0.16512(18)
H22 H 0.21930 0.17000 0.12420
C28 C 0.32205(18) 0.2519(4) 0.20639(17)
H23 H 0.35820 0.19020 0.19420
C29 C 0.85209(19) 0.4639(4) 0.52579(17)
H24 H 0.82340 0.57300 0.51100
H25 H 0.90840 0.48380 0.53490
C30 C 0.8495(2) 0.4068(6) 0.59532(19)
H26 H 0.79410 0.38530 0.58680
H27 H 0.87190 0.49610 0.63070
H28 H 0.88090 0.30300 0.61230
#END
