
#######################################################################
#
#                 Cambridge Crystallographic Data Centre
#                                CCDC
#
#######################################################################
#
# If this CIF has been generated from an entry in the Cambridge
# Structural Database, then it will include bibliographic, chemical,
# crystal, experimental, refinement or atomic coordinate data resulting
# from the CCDC's data processing and validation procedures.
#
#######################################################################

data_CSD_CIF_SUTLUP
_audit_creation_date 2011-01-12
_audit_creation_method CSD-ConQuest-V1
_database_code_CSD SUTLUP
_database_code_depnum_ccdc_archive 'CCDC 768559'
_chemical_formula_sum 'C30 H27 N3 O4'
_chemical_formula_moiety
;
C30 H27 N3 O4
;
_journal_coden_Cambridge 16
_journal_volume 66
_journal_year 2010
_journal_page_first 6936
_journal_name_full 'Tetrahedron '
loop_
_publ_author_name
"L.Chabaud"
"J.Clayden"
"M.Helliwell"
"A.Page"
"J.Raftery"
"L.Vallverdu"
_chemical_name_systematic
;
N-Benzyl-2-methyl-3-(methyl(2-methyl-3-nitrobenzoyl)amino)-N-phenylbenzamide
;
_cell_volume   1260.144
_exptl_crystal_colour 'colorless'
_exptl_crystal_density_diffrn 1.301
_exptl_crystal_description 'plate'
_diffrn_ambient_temperature 100
#These two values have been output from a single CSD field.
_refine_ls_R_factor_gt 0.0468
_refine_ls_wR_factor_gt 0.0468
_symmetry_cell_setting triclinic
_symmetry_space_group_name_H-M 'P -1'
_symmetry_Int_Tables_number 2
loop_
_symmetry_equiv_pos_site_id
_symmetry_equiv_pos_as_xyz
1 x,y,z
2 -x,-y,-z
_cell_length_a 8.8288(15)
_cell_length_b 12.694(2)
_cell_length_c 12.934(2)
_cell_angle_alpha 118.794(3)
_cell_angle_beta 91.381(3)
_cell_angle_gamma 95.571(3)
_cell_formula_units_Z 2
loop_
_atom_type_symbol
_atom_type_radius_bond
C 0.68
H 0.23
N 0.68
O 0.68
loop_
_atom_site_label
_atom_site_type_symbol
_atom_site_fract_x
_atom_site_fract_y
_atom_site_fract_z
O1 O 0.42670(16) 0.75364(15) 0.60836(13)
O2 O 0.93946(16) 0.95998(15) 0.27605(14)
O3 O 1.31504(19) 0.49220(16) 0.08062(15)
O4 O 1.3043(2) 0.62042(17) 0.01630(15)
N1 N 0.63816(18) 0.70619(16) 0.67214(14)
N2 N 0.75636(19) 0.84434(16) 0.30754(15)
N3 N 1.2804(2) 0.58826(19) 0.09070(17)
C1 C 0.6458(2) 0.8685(2) 0.87913(18)
C2 C 0.7550(2) 0.8897(2) 0.96897(18)
H1 H 0.78610 0.82330 0.97520
C3 C 0.8184(3) 1.0061(2) 1.04887(19)
H2 H 0.89330 1.01930 1.10920
C4 C 0.7736(3) 1.1032(2) 1.04138(19)
H3 H 0.81670 1.18330 1.09680
C5 C 0.6648(3) 1.0836(2) 0.95228(19)
H4 H 0.63500 1.15030 0.94590
C6 C 0.6003(2) 0.9675(2) 0.87336(18)
H5 H 0.52380 0.95490 0.81430
C7 C 0.5793(2) 0.7420(2) 0.78965(17)
H6 H 0.60560 0.68490 0.81700
H7 H 0.46660 0.73740 0.78250
C8 C 0.7951(2) 0.6827(2) 0.66193(17)
C9 C 0.9083(2) 0.7714(2) 0.67072(17)
H8 H 0.88280 0.84640 0.68030
C10 C 1.0593(2) 0.7487(2) 0.66524(17)
H9 H 1.13770 0.80810 0.67000
C11 C 1.0964(2) 0.6400(2) 0.65281(18)
H10 H 1.20000 0.62490 0.64860
C12 C 0.9836(2) 0.5533(2) 0.6465(2)
H11 H 1.00930 0.47940 0.63980
C13 C 0.8324(2) 0.5754(2) 0.65013(19)
H12 H 0.75400 0.51550 0.64440
C14 C 0.5544(2) 0.7199(2) 0.59133(18)
C15 C 0.6198(2) 0.6895(2) 0.47451(18)
C16 C 0.6673(2) 0.78303(19) 0.45085(18)
C17 C 0.7093(2) 0.75052(19) 0.33622(18)
C18 C 0.7019(2) 0.6304(2) 0.24966(19)
H13 H 0.72760 0.61070 0.17200
C19 C 0.6572(2) 0.5389(2) 0.27568(19)
H14 H 0.65440 0.45640 0.21690
C20 C 0.6166(2) 0.5691(2) 0.38906(19)
H15 H 0.58640 0.50690 0.40800
C21 C 0.6764(2) 0.91354(19) 0.54365(18)
H16 H 0.59680 0.95130 0.52420
H17 H 0.77690 0.95560 0.54660
H18 H 0.66140 0.91910 0.62090
C22 C 0.6412(2) 0.9139(2) 0.2941(2)
H19 H 0.66150 0.99850 0.35700
H20 H 0.53940 0.87940 0.29960
H21 H 0.64580 0.91020 0.21680
C23 C 0.9030(2) 0.8739(2) 0.29247(18)
C24 C 1.0226(2) 0.79776(19) 0.29442(18)
C25 C 1.0841(2) 0.7241(2) 0.18820(18)
C26 C 1.2077(2) 0.6676(2) 0.19693(18)
C27 C 1.2694(2) 0.6819(2) 0.30304(19)
H22 H 1.35440 0.64200 0.30460
C28 C 1.2059(2) 0.7548(2) 0.40661(19)
H23 H 1.24680 0.76550 0.48010
C29 C 1.0820(2) 0.8124(2) 0.40242(19)
H24 H 1.03720 0.86200 0.47330
C30 C 1.0131(2) 0.7052(2) 0.07141(19)
H25 H 1.06100 0.76760 0.05450
H26 H 0.90340 0.71070 0.07660
H27 H 1.02930 0.62500 0.00780
#END
