
#######################################################################
#
#                 Cambridge Crystallographic Data Centre
#                                CCDC
#
#######################################################################
#
# If this CIF has been generated from an entry in the Cambridge
# Structural Database, then it will include bibliographic, chemical,
# crystal, experimental, refinement or atomic coordinate data resulting
# from the CCDC's data processing and validation procedures.
#
#######################################################################

data_CSD_CIF_SUVGUN
_audit_creation_date 2015-09-01
_audit_creation_method CSD-ConQuest-V1
_database_code_CSD SUVGUN
_database_code_depnum_ccdc_archive 'CCDC 1421739'
_chemical_formula_sum 'C17 H17 N1 O1'
_chemical_formula_moiety
;
C17 H17 N1 O1
;
_journal_coden_Cambridge 35
_journal_volume 74
_journal_year 2009
_journal_page_first 9359
_journal_name_full 'J.Org.Chem. '
loop_
_publ_author_name
"K.Parthasarathy"
"Chien-Hong Cheng"
_chemical_name_systematic
;
N-hydroxy-1-(2-(1-phenylprop-1-en-2-yl)phenyl)ethanimine
;
_cell_volume   1428.757
_exptl_crystal_colour 'colorless'
_exptl_crystal_density_diffrn 1.168
_diffrn_ambient_temperature 295
#These two values have been output from a single CSD field.
_refine_ls_R_factor_gt 0.0516
_refine_ls_wR_factor_gt 0.0516
_symmetry_cell_setting monoclinic
_symmetry_space_group_name_H-M 'P 21/n'
_symmetry_Int_Tables_number 14
loop_
_symmetry_equiv_pos_site_id
_symmetry_equiv_pos_as_xyz
1 x,y,z
2 1/2-x,1/2+y,1/2-z
3 -x,-y,-z
4 -1/2+x,-1/2-y,-1/2+z
_cell_length_a 8.2926(13)
_cell_length_b 10.0449(17)
_cell_length_c 17.180(3)
_cell_angle_alpha 90
_cell_angle_beta 93.255(2)
_cell_angle_gamma 90
_cell_formula_units_Z 4
loop_
_atom_type_symbol
_atom_type_radius_bond
C 0.68
H 0.23
N 0.68
O 0.68
loop_
_atom_site_label
_atom_site_type_symbol
_atom_site_fract_x
_atom_site_fract_y
_atom_site_fract_z
C1 C -0.02024(18) 0.94077(15) 0.34932(8)
C2 C -0.0908(2) 0.8245(2) 0.37391(11)
H1 H -0.05850 0.74300 0.35440
C3 C -0.2093(2) 0.8290(3) 0.42752(13)
H2 H -0.25650 0.75060 0.44390
C4 C -0.2573(3) 0.9501(3) 0.45662(12)
H3 H -0.33570 0.95300 0.49320
C5 C -0.1903(2) 1.0650(3) 0.43189(12)
H4 H -0.22290 1.14630 0.45160
C6 C -0.0746(2) 1.06112(18) 0.37801(10)
H5 H -0.03180 1.14040 0.36030
C7 C 0.10710(17) 0.94282(14) 0.29245(8)
H6 H 0.09340 1.00420 0.25210
C8 C 0.23911(17) 0.86730(14) 0.29203(7)
C9 C 0.35580(16) 0.88691(14) 0.22994(8)
C10 C 0.30888(15) 0.88392(13) 0.15007(7)
C11 C 0.42306(17) 0.91178(16) 0.09574(9)
H7 H 0.39200 0.91060 0.04290
C12 C 0.58108(19) 0.94097(18) 0.11884(11)
H8 H 0.65530 0.96020 0.08190
C13 C 0.62810(19) 0.94141(19) 0.19673(12)
H9 H 0.73480 0.95980 0.21260
C14 C 0.51721(19) 0.91461(17) 0.25132(10)
H10 H 0.55080 0.91500 0.30390
C15 C 0.2854(2) 0.7661(2) 0.35415(10)
H11 H 0.22530 0.78250 0.39930
H12 H 0.39880 0.77310 0.36800
H13 H 0.26150 0.67830 0.33470
C16 C 0.14410(15) 0.84310(14) 0.11998(7)
C17 C 0.0674(2) 0.71902(16) 0.14869(9)
H14 H -0.03480 0.74060 0.16910
H15 H 0.13660 0.67960 0.18900
H16 H 0.05100 0.65720 0.10640
N1 N 0.08154(13) 0.91418(12) 0.06444(6)
O1 O -0.06619(12) 0.86112(12) 0.03327(6)
H17 H -0.10350 0.91000 -0.00150
#END
