
#######################################################################
#
#                 Cambridge Crystallographic Data Centre
#                                CCDC
#
#######################################################################
#
# If this CIF has been generated from an entry in the Cambridge
# Structural Database, then it will include bibliographic, chemical,
# crystal, experimental, refinement or atomic coordinate data resulting
# from the CCDC's data processing and validation procedures.
#
#######################################################################

data_CSD_CIF_SUVPIK
_audit_creation_date 2015-12-21
_audit_creation_method CSD-ConQuest-V1
_database_code_CSD SUVPIK
_database_code_depnum_ccdc_archive 'CCDC 1434523'
_chemical_formula_sum 'C24 H19 N3 O6'
_chemical_formula_moiety
;
C24 H19 N3 O6
;
_journal_coden_Cambridge 1500
_journal_volume 6
_journal_year 2016
_journal_page_first 132
_journal_name_full 'RSC Advances '
loop_
_publ_author_name
"P.Mukherjee"
"A.R.Das"
_chemical_name_systematic
;
7a-cyano-7-(4-nitrophenyl)-6-oxo-3,4,5,6,7,7a-hexahydrochromeno[2,3-b]aziren-1
a(1H)-yl phenylacetate
;
_cell_volume   1103.971
_exptl_crystal_colour 'colorless'
_exptl_crystal_density_diffrn 1.343
_exptl_crystal_description 'granular'
_diffrn_ambient_temperature 296
#These two values have been output from a single CSD field.
_refine_ls_R_factor_gt 0.0515
_refine_ls_wR_factor_gt 0.0515
_symmetry_cell_setting triclinic
_symmetry_space_group_name_H-M 'P -1'
_symmetry_Int_Tables_number 2
loop_
_symmetry_equiv_pos_site_id
_symmetry_equiv_pos_as_xyz
1 x,y,z
2 -x,-y,-z
_cell_length_a 7.8756(12)
_cell_length_b 12.1142(18)
_cell_length_c 12.4328(19)
_cell_angle_alpha 86.913(7)
_cell_angle_beta 76.478(7)
_cell_angle_gamma 73.204(7)
_cell_formula_units_Z 2
loop_
_atom_type_symbol
_atom_type_radius_bond
C 0.68
H 0.23
N 0.68
O 0.68
loop_
_atom_site_label
_atom_site_type_symbol
_atom_site_fract_x
_atom_site_fract_y
_atom_site_fract_z
O1 O 0.10484(16) 0.18085(12) 0.30728(10)
O2 O 0.7999(4) -0.50771(17) 0.03026(18)
N1 N 0.3020(2) 0.01227(14) 0.20597(12)
O3 O 0.95319(15) -0.02788(11) 0.21693(11)
O4 O 0.36542(16) 0.19462(11) 0.1914(1)
O5 O 0.2108(2) 0.24402(14) 0.43756(13)
C1 C 0.2802(2) 0.11887(16) 0.25467(14)
C2 C 0.5914(2) -0.02028(14) 0.27571(12)
H1 H 0.62990 -0.01850 0.34490
C3 C 0.6631(2) -0.14359(14) 0.23198(13)
C4 C -0.2868(6) 0.4320(4) 0.7734(3)
H2 H -0.32500 0.45790 0.84660
C5 C -0.2968(7) 0.5079(3) 0.6886(3)
H3 H -0.34500 0.58650 0.70410
C6 C -0.2361(6) 0.4694(3) 0.5799(3)
H4 H -0.24210 0.52250 0.52300
C7 C -0.1678(3) 0.3548(2) 0.55515(17)
C8 C -0.1125(3) 0.3097(2) 0.43816(18)
H5 H -0.14130 0.37420 0.38940
H6 H -0.18500 0.25910 0.43110
C9 C 0.0853(3) 0.24513(16) 0.39990(15)
C10 C 0.3844(2) 0.01386(15) 0.30296(13)
C11 C 0.7011(3) -0.23293(18) 0.30486(16)
H7 H 0.69100 -0.21660 0.37870
C12 C 0.7538(4) -0.3459(2) 0.26858(19)
H8 H 0.77890 -0.40590 0.31770
C13 C 0.7690(3) -0.36907(16) 0.15958(17)
N2 N 0.8174(4) -0.48921(17) 0.12148(19)
C14 C -0.1581(5) 0.2803(2) 0.6412(2)
H9 H -0.10800 0.20170 0.62620
C15 C -0.2199(6) 0.3179(3) 0.7486(2)
H10 H -0.21600 0.26460 0.80540
O6 O 0.8691(5) -0.56548(17) 0.1828(2)
C16 C 0.7362(3) -0.28243(16) 0.08401(15)
H11 H 0.74990 -0.29950 0.00990
C17 C 0.6824(2) -0.16935(15) 0.12152(13)
H12 H 0.65890 -0.10970 0.07200
C18 C 0.6587(2) 0.06698(14) 0.19938(12)
C19 C 0.5510(2) 0.16269(15) 0.16401(14)
C20 C 0.6198(3) 0.25015(17) 0.09102(16)
H13 H 0.61700 0.31390 0.13610
H14 H 0.54070 0.28020 0.04060
C21 C 0.8119(3) 0.19819(19) 0.02546(16)
H15 H 0.81170 0.14440 -0.02950
H16 H 0.85950 0.25860 -0.01290
C22 C 0.9312(3) 0.13674(18) 0.10061(17)
H17 H 0.94810 0.19330 0.14630
H18 H 1.04980 0.09660 0.05600
C23 C 0.8555(2) 0.05098(14) 0.17481(13)
C24 C 0.2996(3) -0.02190(17) 0.41041(15)
N3 N 0.2407(3) -0.0511(2) 0.49575(16)
H19 H 0.214(3) -0.006(2) 0.2241(19)
#END
