
#######################################################################
#
#                 Cambridge Crystallographic Data Centre
#                                CCDC
#
#######################################################################
#
# If this CIF has been generated from an entry in the Cambridge
# Structural Database, then it will include bibliographic, chemical,
# crystal, experimental, refinement or atomic coordinate data resulting
# from the CCDC's data processing and validation procedures.
#
#######################################################################

data_CSD_CIF_SUWXIS
_audit_creation_date 2011-01-20
_audit_creation_method CSD-ConQuest-V1
_database_code_CSD SUWXIS
_database_code_depnum_ccdc_archive 'CCDC 782312'
_chemical_formula_sum 'C28 H30 N2 O3'
_chemical_formula_moiety
;
C28 H30 N2 O3
;
_journal_coden_Cambridge 1220
_journal_volume 16
_journal_year 2010
_journal_page_first 9442
_journal_name_full 'Chem.-Eur.J. '
loop_
_publ_author_name
"A.Kadlcikova"
"I.Valterova"
"L.Duchackova"
"J.Roithova"
"M.Kotora"
_chemical_name_systematic
;
(R,R)-3-Phenyl-3'-(tetrahydrofuran-2-yl)-5,5',6,6',7,7',8,8'-octahydro-1,1'-bi
-isoquinoline-2,2'-dioxide
;
_cell_volume   2294.050
_exptl_crystal_colour 'yellow'
_exptl_crystal_density_diffrn 1.281
_exptl_crystal_description 'prism'
_diffrn_ambient_temperature 150
_refine_special_details
;
C8,C9 and C82,C92 disordered over two sites with occupancies 0.681:0.319; 
C8',C9' and C82',C92' disordered over two sites with occupancies 0.625:0.375.
;
#These two values have been output from a single CSD field.
_refine_ls_R_factor_gt 0.0408
_refine_ls_wR_factor_gt 0.0408
_symmetry_cell_setting orthorhombic
_symmetry_space_group_name_H-M 'P 21 21 21'
_symmetry_Int_Tables_number 19
loop_
_symmetry_equiv_pos_site_id
_symmetry_equiv_pos_as_xyz
1 x,y,z
2 1/2-x,-y,1/2+z
3 1/2+x,1/2-y,-z
4 -x,1/2+y,1/2-z
_cell_length_a 9.1086(1)
_cell_length_b 15.3138(2)
_cell_length_c 16.4463(2)
_cell_angle_alpha 90
_cell_angle_beta 90
_cell_angle_gamma 90
_cell_formula_units_Z 4
loop_
_atom_type_symbol
_atom_type_radius_bond
C 0.68
H 0.23
N 0.68
O 0.68
loop_
_atom_site_label
_atom_site_type_symbol
_atom_site_fract_x
_atom_site_fract_y
_atom_site_fract_z
N1 N 0.68594(14) 1.11818(8) 0.11491(8)
O1 O 0.61871(13) 1.10928(8) 0.18456(7)
O2 O 0.83126(14) 1.33755(8) 0.14303(9)
C1 C 0.67796(16) 1.05451(9) 0.05731(9)
C2 C 0.75105(17) 1.06179(10) -0.01647(10)
C3 C 0.83090(17) 1.13763(11) -0.03305(10)
C4 C 0.83587(17) 1.2021(1) 0.02684(11)
H1 H 0.88890 1.25430 0.01630
C5 C 0.76653(17) 1.19258(10) 0.10064(10)
C6 C 0.7448(2) 0.98717(12) -0.07697(11)
H2 H 0.65000 0.98960 -0.10630
H3 H 0.74780 0.93140 -0.04660
C7 C 0.8659(3) 0.98807(19) -0.13796(17)
H4 H 0.84600 0.94410 -0.18070
H5 H 0.95960 0.97260 -0.11110
C8 C 0.8784(4) 1.0777(2) -0.17603(18)
H6 H 0.78490 1.09220 -0.20360
H7 H 0.95680 1.07670 -0.21770
C9 C 0.9142(2) 1.15055(14) -0.11159(11)
H8 H 0.88850 1.20830 -0.13450
H9 H 1.02080 1.15040 -0.10000
C10 C 0.77635(18) 1.25505(10) 0.17105(10)
H10 H 0.67760 1.26270 0.19660
C11 C 0.9781(2) 1.35024(13) 0.17217(13)
H11 H 0.97950 1.39510 0.21550
H12 H 1.04280 1.36980 0.12730
C12 C 1.0299(2) 1.26371(14) 0.20513(13)
H13 H 1.10020 1.27180 0.25040
H14 H 1.07650 1.22800 0.16210
C13 C 0.8875(2) 1.22241(11) 0.23460(11)
H15 H 0.86160 1.24290 0.28990
H16 H 0.89400 1.15790 0.23460
N2 N 0.65967(14) 0.90448(9) 0.10147(8)
O3 O 0.80218(12) 0.90807(8) 0.10806(9)
C14 C 0.58505(17) 0.97829(10) 0.07968(9)
C15 C 0.43220(17) 0.98109(10) 0.07728(9)
C16 C 0.35334(17) 0.90552(11) 0.09574(10)
C17 C 0.43281(18) 0.83017(10) 0.11384(10)
H17 H 0.38050 0.77790 0.12510
C18 C 0.58488(17) 0.82831(10) 0.11615(9)
C19 C 0.35783(18) 1.06532(11) 0.05337(11)
H18 H 0.39980 1.11380 0.08570
H19 H 0.37730 1.07750 -0.00480
C20 C 0.1888(5) 1.0606(3) 0.0683(2)
H20 H 0.16880 1.06930 0.12700
H21 H 0.14010 1.10840 0.03810
C21 C 0.1253(3) 0.97440(19) 0.04172(19)
H22 H 0.01700 0.97560 0.04720
H23 H 0.14980 0.96350 -0.01600
C22 C 0.18689(19) 0.90447(13) 0.09303(13)
H24 H 0.14810 0.91120 0.14890
H25 H 0.15310 0.84730 0.07200
C23 C 0.66884(18) 0.74729(10) 0.13392(10)
C24 C 0.61437(19) 0.68907(11) 0.19153(11)
H26 H 0.52720 0.70290 0.22050
C25 C 0.6866(2) 0.61066(11) 0.20710(12)
H27 H 0.64880 0.57130 0.24650
C26 C 0.8130(2) 0.59046(12) 0.16509(12)
H28 H 0.86220 0.53690 0.17550
C27 C 0.8689(2) 0.64814(12) 0.10749(12)
H29 H 0.95630 0.63400 0.07890
C28 C 0.7974(2) 0.72616(11) 0.09183(11)
H30 H 0.83570 0.76540 0.05240
C29? C 0.8090(7) 1.0203(4) -0.1637(4)
C30? C 0.1982(9) 1.0604(6) 0.0351(4)
C31? C 0.9445(8) 1.0761(5) -0.1560(4)
C32? C 0.1227(5) 1.0028(3) 0.0970(3)
H31? H 0.83230 0.96870 -0.19760
H32? H 0.73190 1.05410 -0.19210
H33? H 0.18340 1.03630 -0.02010
H34? H 0.15500 1.11970 0.03670
H35? H 1.02320 1.04240 -0.12880
H36? H 0.97980 1.09270 -0.21080
H37? H 0.01580 1.00190 0.08600
H38? H 0.13800 1.02700 0.15210
#END
