
#######################################################################
#
#                 Cambridge Crystallographic Data Centre
#                                CCDC
#
#######################################################################
#
# If this CIF has been generated from an entry in the Cambridge
# Structural Database, then it will include bibliographic, chemical,
# crystal, experimental, refinement or atomic coordinate data resulting
# from the CCDC's data processing and validation procedures.
#
#######################################################################

data_CSD_CIF_SUWXUD
_audit_creation_date 2001-11-29
_audit_creation_method CSD-ConQuest-V1
_database_code_CSD SUWXUD
_database_code_depnum_ccdc_archive 'CCDC 162155'
_chemical_formula_sum 'C18 H12 N2 O4'
_chemical_formula_moiety
;
C18 H12 N2 O4
;
_journal_coden_Cambridge 1291
_journal_year 2001
_journal_page_first 3147
_journal_name_full 'Eur.J.Org.Chem. '
loop_
_publ_author_name
"L.Greci"
"G.Tommasi"
"P.Bruni"
"P.Sgarabotto"
"L.Righi"
_chemical_name_systematic
;
endo-3a,10,10a,10b-Tetrahydro-10a-phenyl-1H-pyrrolo[3',4':4,5]isoxazolo[2,3-a]
indole-1,3,10-trione
;
_chemical_melting_point 470.15
_cell_volume    697.495
_exptl_crystal_density_diffrn 1.525
_exptl_crystal_preparation 'ethanol'
_diffrn_ambient_temperature 298
#These two values have been output from a single CSD field.
_refine_ls_R_factor_gt 0.052
_refine_ls_wR_factor_gt 0.052
_symmetry_cell_setting triclinic
_symmetry_space_group_name_H-M 'P -1'
_symmetry_Int_Tables_number 2
loop_
_symmetry_equiv_pos_site_id
_symmetry_equiv_pos_as_xyz
1 x,y,z
2 -x,-y,-z
_cell_length_a 8.477(3)
_cell_length_b 11.882(7)
_cell_length_c 7.297(3)
_cell_angle_alpha 106.00(6)
_cell_angle_beta 99.00(5)
_cell_angle_gamma 85.89(5)
_cell_formula_units_Z 2
loop_
_atom_type_symbol
_atom_type_radius_bond
C 0.68
H 0.23
N 0.68
O 0.68
loop_
_atom_site_label
_atom_site_type_symbol
_atom_site_fract_x
_atom_site_fract_y
_atom_site_fract_z
O1 O 0.6388(3) 0.3971(2) 0.2479(3)
O2 O 0.8260(3) 0.1434(2) -0.2792(3)
O3 O 0.5542(3) 0.2512(3) -0.4989(4)
O4 O 0.7588(4) 0.5433(2) 0.0165(4)
N1 N 0.7764(3) 0.1485(2) -0.0958(3)
N2 N 0.6263(4) 0.4154(3) -0.2497(4)
C1 C 0.8135(3) 0.2660(3) 0.0380(4)
C2 C 0.6534(3) 0.3071(2) 0.1225(4)
C3 C 0.5378(3) 0.2184(2) 0.0225(4)
C4 C 0.3766(4) 0.2113(3) 0.0396(5)
C5 C 0.2921(4) 0.1202(3) -0.0833(5)
C6 C 0.3652(4) 0.0353(3) -0.2226(5)
C7 C 0.5248(4) 0.0400(3) -0.2382(4)
C8 C 0.6088(3) 0.1331(3) -0.1138(4)
C9 C 0.8146(4) 0.2615(3) -0.2935(5)
C10 C 0.6466(4) 0.3028(3) -0.3665(5)
C11 C 0.7451(4) 0.4480(3) -0.0954(5)
C12 C 0.8544(4) 0.3413(3) -0.0944(5)
C13 C 0.9468(3) 0.2596(3) 0.1993(4)
C14 C 1.0230(4) 0.3609(3) 0.3113(5)
C15 C 1.1393(4) 0.3572(3) 0.4646(5)
C16 C 1.1815(4) 0.2516(3) 0.5097(5)
C17 C 1.1074(4) 0.1508(3) 0.4002(5)
C18 C 0.9907(4) 0.1542(3) 0.2454(5)
H1 H 0.3368(39) 0.2753(28) 0.1442(45)
H2 H 0.1776(48) 0.1057(33) -0.0756(55)
H3 H 0.3084(46) -0.0263(32) -0.3067(53)
H4 H 0.5650(45) -0.0261(33) -0.3428(56)
H5 H 0.8881(45) 0.2662(32) -0.3871(53)
H6 H 0.5509(54) 0.4612(38) -0.2781(59)
H7 H 0.9614(40) 0.3638(27) -0.0529(43)
H8 H 0.9882(43) 0.4317(31) 0.2909(49)
H9 H 1.1796(46) 0.4295(33) 0.5584(54)
H10 H 1.2716(47) 0.2481(32) 0.6269(54)
H11 H 1.1278(50) 0.0732(36) 0.4300(59)
H12 H 0.9417(35) 0.0855(26) 0.1651(40)
#END
