
#######################################################################
#
#                 Cambridge Crystallographic Data Centre
#                                CCDC
#
#######################################################################
#
# If this CIF has been generated from an entry in the Cambridge
# Structural Database, then it will include bibliographic, chemical,
# crystal, experimental, refinement or atomic coordinate data resulting
# from the CCDC's data processing and validation procedures.
#
#######################################################################

data_CSD_CIF_SUYMEE
_audit_creation_date 2001-11-29
_audit_creation_method CSD-ConQuest-V1
_database_code_CSD SUYMEE
_database_code_depnum_ccdc_archive 'CCDC 163627'
_chemical_formula_sum 'C38 H31 N1 O1'
_chemical_formula_moiety
;
C38 H31 N1 O1
;
_journal_coden_Cambridge 188
_journal_year 2001
_journal_page_first 1742
_journal_name_full 'J.Chem.Soc.,Perkin Trans.2 '
loop_
_publ_author_name
"M.Canle"
"L.W.Clegg"
"I.Demirtas"
"M.R.J.Elsegood"
"J.Haider"
"H.Maskill"
"P.C.Miatt"
_chemical_name_systematic
;
N,O-Ditritylhydroxylamine
;
_chemical_melting_point 472.15
_cell_volume    686.903
_exptl_crystal_colour 'colorless'
_exptl_crystal_density_diffrn 1.251
_exptl_special_details
;
Melting point range 472.15-473.15K

;
_exptl_crystal_description 'triangular prism'
_exptl_crystal_preparation 'ethyl acetate/petrol'
_diffrn_ambient_temperature 160
_refine_special_details
;
The molecule lies on an inversion centre and so is disordered, with the 
oxygen and nitrogen atoms effectively superimposed.
;
#These two values have been output from a single CSD field.
_refine_ls_R_factor_gt 0.037
_refine_ls_wR_factor_gt 0.037
_symmetry_cell_setting triclinic
_symmetry_space_group_name_H-M 'P -1'
_symmetry_Int_Tables_number 2
loop_
_symmetry_equiv_pos_site_id
_symmetry_equiv_pos_as_xyz
1 x,y,z
2 -x,-y,-z
_cell_length_a 8.677(6)
_cell_length_b 9.042(6)
_cell_length_c 10.769(7)
_cell_angle_alpha 113.29(4)
_cell_angle_beta 90.24(4)
_cell_angle_gamma 115.20(3)
_cell_formula_units_Z 1
loop_
_atom_type_symbol
_atom_type_radius_bond
C 0.68
H 0.23
N 0.68
O 0.68
loop_
_atom_site_label
_atom_site_type_symbol
_atom_site_fract_x
_atom_site_fract_y
_atom_site_fract_z
N1 N 0.41604(13) 0.41996(13) 0.47468(12)
H1? H 0.344(4) 0.455(5) 0.516(4)
O1 O 0.58396(13) 0.58004(13) 0.52532(12)
C1 C 0.34475(16) 0.37154(17) 0.33209(14)
C2 C 0.17401(16) 0.19470(17) 0.29424(14)
C3 C 0.0709(2) 0.1759(2) 0.39102(17)
H2 H 0.10630 0.27280 0.48130
C4 C -0.0832(2) 0.0168(2) 0.35717(18)
H3 H -0.15210 0.00580 0.42450
C5 C -0.13663(18) -0.1247(2) 0.22664(18)
H4 H -0.24170 -0.23350 0.20380
C6 C -0.03688(18) -0.10755(19) 0.12961(17)
H5 H -0.07350 -0.20460 0.03930
C7 C 0.11785(17) 0.05155(18) 0.16302(15)
H6 H 0.18560 0.06200 0.09500
C8 C 0.46990(16) 0.33176(16) 0.24073(15)
C9 C 0.48733(18) 0.36352(18) 0.12418(16)
H7 H 0.42490 0.41780 0.10270
C10 C 0.5949(2) 0.3170(2) 0.03863(19)
H8 H 0.60600 0.34030 -0.04040
C11 C 0.6853(2) 0.2373(2) 0.0680(2)
H9 H 0.75950 0.20640 0.00990
C12 C 0.66759(19) 0.2025(2) 0.1823(2)
H10 H 0.72870 0.14610 0.20220
C13 C 0.56093(18) 0.24942(19) 0.26841(19)
H11 H 0.54990 0.22520 0.34700
C14 C 0.30965(16) 0.52119(17) 0.32392(14)
C15 C 0.14238(18) 0.49515(19) 0.29152(17)
H12 H 0.04570 0.38210 0.27440
C16 C 0.1135(2) 0.6315(2) 0.28366(19)
H13 H -0.00210 0.61080 0.26140
C17 C 0.2524(2) 0.7970(2) 0.30804(17)
H14 H 0.23300 0.89030 0.30280
C18 C 0.41921(19) 0.82461(19) 0.34008(16)
H15 H 0.51520 0.93820 0.35740
C19 C 0.44895(18) 0.68933(18) 0.34738(15)
H16 H 0.56510 0.71060 0.36850
C1A C 0.65525(16) 0.62846(17) 0.66791(14)
C2A C 0.82599(16) 0.80530(17) 0.70576(14)
C3A C 0.9291(2) 0.8241(2) 0.60898(17)
H2A H 0.89370 0.72720 0.51870
C4A C 1.0832(2) 0.9832(2) 0.64283(18)
H3A H 1.15210 0.99420 0.57550
C5A C 1.13663(18) 1.1247(2) 0.77336(18)
H4A H 1.24170 1.23350 0.79620
C6A C 1.03688(18) 1.10755(19) 0.87039(17)
H5A H 1.07350 1.20460 0.96070
C7A C 0.88215(17) 0.94845(18) 0.83698(15)
H6A H 0.81440 0.93800 0.90500
C8A C 0.53010(16) 0.66824(16) 0.75927(15)
C9A C 0.51267(18) 0.63648(18) 0.87582(16)
H7A H 0.57510 0.58220 0.89730
C10A C 0.4051(2) 0.6830(2) 0.96137(19)
H8A H 0.39400 0.65970 1.04040
C11A C 0.3147(2) 0.7627(2) 0.9320(2)
H9A H 0.24050 0.79360 0.99010
C12A C 0.33241(19) 0.7975(2) 0.8177(2)
H10A H 0.27130 0.85390 0.79780
C13A C 0.43907(18) 0.75058(19) 0.73159(19)
H11A H 0.45010 0.77480 0.65300
C14A C 0.69035(16) 0.47881(17) 0.67608(14)
C15A C 0.85762(18) 0.50485(19) 0.70848(17)
H12A H 0.95430 0.61790 0.72560
C16A C 0.8865(2) 0.3685(2) 0.71634(19)
H13A H 1.00210 0.38920 0.73860
C17A C 0.7476(2) 0.2030(2) 0.69196(17)
H14A H 0.76700 0.10970 0.69720
C18A C 0.58079(19) 0.17539(19) 0.65992(16)
H15A H 0.48480 0.06180 0.64260
C19A C 0.55105(18) 0.31067(18) 0.65262(15)
H16A H 0.43490 0.28940 0.63150
#END
