
#######################################################################
#
#                 Cambridge Crystallographic Data Centre
#                                CCDC
#
#######################################################################
#
# If this CIF has been generated from an entry in the Cambridge
# Structural Database, then it will include bibliographic, chemical,
# crystal, experimental, refinement or atomic coordinate data resulting
# from the CCDC's data processing and validation procedures.
#
#######################################################################

data_CSD_CIF_SUYWEQ
_audit_creation_date 2015-12-24
_audit_creation_method CSD-ConQuest-V1
_database_code_CSD SUYWEQ
_database_code_depnum_ccdc_archive 'CCDC 1409554'
_chemical_formula_sum 'C4 H8 N2 O2'
_chemical_formula_moiety
;
C4 H8 N2 O2
;
_journal_coden_Cambridge 119
_journal_volume 1108
_journal_year 2016
_journal_page_first 590
_journal_name_full 'J.Mol.Struct. '
loop_
_publ_author_name
"K.Gajda"
"K.Ejsmont"
"Z.Daszkiewicz"
"C.G.Gianopoulos"
"B.Zarychta"
_chemical_name_systematic
;
1-nitropyrrolidine
;
_cell_volume    559.277
_exptl_crystal_colour 'colorless'
_exptl_crystal_density_diffrn 1.379
_exptl_crystal_description 'irregular'
_exptl_crystal_preparation 'Re-crystallisation from solvent'
_diffrn_ambient_temperature 150
_refine_special_details
;
C2,N3 disordered by symmetry over two configurations with occupancy 0.5.

;
#These two values have been output from a single CSD field.
_refine_ls_R_factor_gt 0.033
_refine_ls_wR_factor_gt 0.033
_symmetry_cell_setting orthorhombic
_symmetry_space_group_name_H-M 'C m c m'
_symmetry_Int_Tables_number 63
loop_
_symmetry_equiv_pos_site_id
_symmetry_equiv_pos_as_xyz
1 x,y,z
2 -x,-y,1/2+z
3 x,-y,-z
4 -x,y,1/2-z
5 1/2+x,1/2+y,z
6 1/2-x,1/2-y,1/2+z
7 1/2+x,1/2-y,-z
8 1/2-x,1/2+y,1/2-z
9 -x,-y,-z
10 x,y,-1/2-z
11 -x,y,z
12 x,-y,-1/2+z
13 -1/2-x,-1/2-y,-z
14 -1/2+x,-1/2+y,-1/2-z
15 -1/2-x,-1/2+y,z
16 -1/2+x,-1/2-y,-1/2+z
_cell_length_a 10.3292(3)
_cell_length_b 7.8385(3)
_cell_length_c 6.9076(3)
_cell_angle_alpha 90
_cell_angle_beta 90
_cell_angle_gamma 90
_cell_formula_units_Z 4
loop_
_atom_type_symbol
_atom_type_radius_bond
C 0.68
H 0.23
N 0.68
O 0.68
loop_
_atom_site_label
_atom_site_type_symbol
_atom_site_fract_x
_atom_site_fract_y
_atom_site_fract_z
O1 O 0.39426(11) 0.66238(13) 0.25000
N1 N 0.50000 0.5895(2) 0.25000
N2 N 0.50000 0.4209(3) 0.231(7)
C1 C 0.38058(14) 0.32147(18) 0.25000
H1 H 0.3282(13) 0.3519(14) 0.1395(18)
C2 C 0.4335(2) 0.1443(3) 0.2041(4)
H2 H 0.3811(16) 0.060(3) 0.25000
H3 H 0.441(2) 0.131(3) 0.070(6)
O1C O 0.60574(11) 0.66238(13) 0.25000
N2C N 0.50000 0.4209(3) 0.269(7)
C1C C 0.61942(14) 0.32147(18) 0.25000
H1C H 0.6718(13) 0.3519(14) 0.3605(18)
C2C C 0.5665(2) 0.1443(3) 0.2959(4)
H2C H 0.6189(16) 0.060(3) 0.25000
H3C H 0.559(2) 0.131(3) 0.430(6)
H1I H 0.3282(13) 0.3519(14) 0.3605(18)
C2I C 0.4335(2) 0.1443(3) 0.2959(4)
H3I H 0.441(2) 0.131(3) 0.430(6)
H1J H 0.6718(13) 0.3519(14) 0.1395(18)
C2J C 0.5665(2) 0.1443(3) 0.2041(4)
H3J H 0.559(2) 0.131(3) 0.070(6)
#END
