
#######################################################################
#
#                 Cambridge Crystallographic Data Centre
#                                CCDC
#
#######################################################################
#
# If this CIF has been generated from an entry in the Cambridge
# Structural Database, then it will include bibliographic, chemical,
# crystal, experimental, refinement or atomic coordinate data resulting
# from the CCDC's data processing and validation procedures.
#
#######################################################################

data_CSD_CIF_SUZKON
_audit_creation_date 2001-11-29
_audit_creation_method CSD-ConQuest-V1
_database_code_CSD SUZKON
_database_code_depnum_ccdc_archive 'CCDC 160714'
_chemical_formula_sum 'C23 H37 N3 O4'
_chemical_formula_moiety
;
C23 H37 N3 O4
;
_journal_coden_Cambridge 1127
_journal_volume 11
_journal_year 2001
_journal_page_first 2585
_journal_name_full 'Bioorg.Med.Chem.Lett. '
loop_
_publ_author_name
"L.M.Pratt"
"R.P.Beckett"
"S.J.Davies"
"S.B.Launchbury"
"A.Miller"
"Z.M.Spavold"
"R.S.Todd"
"M.Whittaker"
_chemical_name_systematic
;
N-((2R)-2-(N-Formyl-N-(benzyloxy)aminomethyl)hexanoyl)-(S)-pseudo-leucine 
N',N'-dimethylamide
;
_cell_volume   2406.068
_exptl_crystal_colour 'colorless'
_exptl_crystal_density_diffrn 1.158
_exptl_crystal_description 'needle'
_diffrn_ambient_temperature 160
#These two values have been output from a single CSD field.
_refine_ls_R_factor_gt 0.0362
_refine_ls_wR_factor_gt 0.0362
_symmetry_cell_setting orthorhombic
_symmetry_space_group_name_H-M 'P 21 21 21'
_symmetry_Int_Tables_number 19
loop_
_symmetry_equiv_pos_site_id
_symmetry_equiv_pos_as_xyz
1 x,y,z
2 1/2-x,-y,1/2+z
3 -x,1/2+y,1/2-z
4 1/2+x,1/2-y,-z
_cell_length_a 10.2470(7)
_cell_length_b 12.0867(8)
_cell_length_c 19.4269(13)
_cell_angle_alpha 90
_cell_angle_beta 90
_cell_angle_gamma 90
_cell_formula_units_Z 4
loop_
_atom_type_symbol
_atom_type_radius_bond
C 0.68
H 0.23
N 0.68
O 0.68
loop_
_atom_site_label
_atom_site_type_symbol
_atom_site_fract_x
_atom_site_fract_y
_atom_site_fract_z
C1 C 0.63385(12) 0.79073(11) 1.06719(6)
H1 H 0.54020 0.76800 1.06400
C2 C 0.70518(12) 0.75472(10) 1.00197(6)
O1 O 0.82536(9) 0.75826(8) 0.99796(5)
N1 N 0.6284(1) 0.71661(9) 0.95087(5)
H2 H 0.54320 0.72030 0.95620
C3 C 0.67979(12) 0.66954(11) 0.88711(6)
H3 H 0.77710 0.67550 0.88810
C4 C 0.62905(13) 0.73739(11) 0.82625(6)
O2 O 0.51462(9) 0.76926(8) 0.82697(5)
N2 N 0.70949(11) 0.75815(10) 0.77294(6)
C5 C 0.84764(15) 0.72895(15) 0.76759(8)
H4 H 0.85860 0.67030 0.73320
H5 H 0.87910 0.70270 0.81230
H6 H 0.89780 0.79420 0.75360
C6 C 0.65773(17) 0.81211(14) 0.71154(7)
H7 H 0.56650 0.83290 0.71940
H8 H 0.66280 0.76110 0.67240
H9 H 0.70910 0.87860 0.70150
C7 C 0.64241(13) 0.54449(11) 0.87967(7)
C8 C 0.67663(16) 0.50222(12) 0.80732(8)
H10 H 0.65240 0.42400 0.80340
H11 H 0.77060 0.51030 0.79950
H12 H 0.62870 0.54540 0.77290
C9 C 0.72138(16) 0.47932(13) 0.93289(8)
H13 H 0.81440 0.48420 0.92170
H14 H 0.69400 0.40160 0.93230
H15 H 0.70620 0.51040 0.97880
C10 C 0.49635(14) 0.52637(12) 0.89161(7)
H16 H 0.47240 0.55430 0.93730
H17 H 0.47660 0.44720 0.88890
H18 H 0.44650 0.56610 0.85630
C11 C 0.69725(13) 0.73287(11) 1.12871(6)
H19 H 0.79080 0.75310 1.13020
H20 H 0.65620 0.76050 1.17150
N3 N 0.68629(12) 0.61327(10) 1.12701(6)
C12 C 0.78799(15) 0.54205(13) 1.12588(7)
H21 H 0.87220 0.57200 1.11740
O3 O 0.78015(14) 0.44301(10) 1.13484(6)
O4 O 0.56651(10) 0.57149(9) 1.15135(5)
C13 C 0.49424(16) 0.51905(14) 1.09565(7)
H22 H 0.55200 0.46970 1.06870
H23 H 0.45710 0.57550 1.06440
C14 C 0.38763(13) 0.45392(11) 1.12958(7)
C15 C 0.26943(16) 0.50246(13) 1.14538(8)
H24 H 0.25290 0.57690 1.13220
C16 C 0.17485(18) 0.44278(19) 1.18041(9)
H25 H 0.09350 0.47630 1.19120
C17 C 0.19864(19) 0.33491(18) 1.19958(8)
H26 H 0.13450 0.29460 1.22440
C18 C 0.31511(19) 0.28584(14) 1.18273(8)
H27 H 0.33090 0.21100 1.19520
C19 C 0.40934(15) 0.34500(12) 1.14774(7)
H28 H 0.48970 0.31050 1.13610
C20 C 0.64163(14) 0.91662(12) 1.07798(8)
H29 H 0.59590 0.93520 1.12140
H30 H 0.73440 0.93730 1.08380
C21 C 0.58450(16) 0.98640(12) 1.02081(8)
H31 H 0.49430 0.96120 1.01140
H32 H 0.63650 0.97520 0.97840
C22 C 0.5822(2) 1.10951(14) 1.03817(10)
H33 H 0.53170 1.11990 1.08110
H34 H 0.67270 1.13420 1.04720
C23 C 0.5250(3) 1.18171(18) 0.98380(12)
H35 H 0.43290 1.16250 0.97710
H36 H 0.57250 1.17080 0.94060
H37 H 0.53180 1.25930 0.99800
#END
