
#######################################################################
#
#                 Cambridge Crystallographic Data Centre
#                                CCDC
#
#######################################################################
#
# If this CIF has been generated from an entry in the Cambridge
# Structural Database, then it will include bibliographic, chemical,
# crystal, experimental, refinement or atomic coordinate data resulting
# from the CCDC's data processing and validation procedures.
#
#######################################################################

data_CSD_CIF_SUZNAC
_audit_creation_date 2001-11-29
_audit_creation_method CSD-ConQuest-V1
_database_code_CSD SUZNAC
_database_code_depnum_ccdc_archive 'CCDC 102776'
_chemical_formula_sum 'C24 H31 N3 O2'
_chemical_formula_moiety
;
C24 H31 N3 O2
;
_journal_coden_Cambridge 392
_journal_volume 50
_journal_year 1999
_journal_page_first 995
_journal_name_full 'Heterocycles '
loop_
_publ_author_name
"D.Enders"
"I.Meyer"
"J.Runsink"
"G.Raabe"
_chemical_name_systematic
;
(5S)-(-)-5-Ethyl-4-((2S)-2-(1-methoxy-1-methylethyl)-tetrahydro-1H-pyrrol-1-yl
)-3,5-diphenyl-4,5-dihydro-1,2,4-oxadiazole
;
_chemical_melting_point 373.15
_cell_volume   2248.115
_exptl_crystal_colour 'colorless'
_exptl_crystal_density_diffrn 1.163
_exptl_special_details
;
Melting point range 373.15-375.15K
Absolute configuration
The structure is compound 7g from the paper, not compound 7k as stated in the 
paper
;
_exptl_crystal_preparation 'diethyl ether'
_diffrn_ambient_temperature 298
#These two values have been output from a single CSD field.
_refine_ls_R_factor_gt 0.062
_refine_ls_wR_factor_gt 0.062
_symmetry_cell_setting orthorhombic
_symmetry_space_group_name_H-M 'P 21 21 21'
_symmetry_Int_Tables_number 19
loop_
_symmetry_equiv_pos_site_id
_symmetry_equiv_pos_as_xyz
1 x,y,z
2 1/2-x,-y,1/2+z
3 1/2+x,1/2-y,-z
4 -x,1/2+y,1/2-z
_cell_length_a 8.264(2)
_cell_length_b 10.4678(5)
_cell_length_c 25.988(2)
_cell_angle_alpha 90
_cell_angle_beta 90
_cell_angle_gamma 90
_cell_formula_units_Z 4
loop_
_atom_type_symbol
_atom_type_radius_bond
C 0.68
H 0.23
N 0.68
O 0.68
loop_
_atom_site_label
_atom_site_type_symbol
_atom_site_fract_x
_atom_site_fract_y
_atom_site_fract_z
O1 O 0.1751(7) 0.3904(5) 0.3099(2)
O2 O -0.1211(6) 0.5938(5) 0.4562(2)
N1 N 0.2591(8) 0.5000(8) 0.2950(2)
N2 N 0.0903(8) 0.5582(5) 0.3604(2)
N3 N -0.0625(8) 0.6078(6) 0.3500(2)
C1 C 0.108(1) 0.4174(7) 0.3604(3)
C2 C 0.2359(9) 0.3816(7) 0.3997(3)
C3 C 0.366(2) 0.2967(7) 0.3875(4)
C4 C 0.475(1) 0.262(1) 0.4264(6)
C5 C 0.460(1) 0.305(1) 0.4754(4)
C6 C 0.332(1) 0.3889(8) 0.4874(3)
C7 C 0.2271(9) 0.4265(6) 0.4494(3)
C8 C 0.2095(9) 0.5939(8) 0.3238(3)
C9 C -0.042(1) 0.3456(8) 0.3671(3)
C10 C -0.025(1) 0.2013(7) 0.3626(3)
C11 C 0.2801(9) 0.8071(8) 0.3572(3)
C12 C 0.335(1) 0.9294(8) 0.3512(4)
C13 C 0.397(1) 0.9652(8) 0.3014(5)
C14 C 0.390(1) 0.880(1) 0.2614(4)
C15 C 0.327(1) 0.7616(8) 0.2687(3)
C16 C 0.2730(9) 0.7246(8) 0.3165(3)
C17 C -0.105(1) 0.6265(9) 0.2943(3)
C18 C -0.243(1) 0.720(1) 0.2964(4)
C19 C -0.201(1) 0.8065(9) 0.3417(4)
C20 C -0.113(1) 0.7175(7) 0.3807(3)
C21 C -0.2232(9) 0.6760(7) 0.4264(3)
C22 C -0.266(1) 0.7955(8) 0.4579(3)
C23 C -0.377(1) 0.6071(8) 0.4099(3)
C24 C -0.190(1) 0.5391(8) 0.5008(3)
H1 H -0.16420 0.83230 0.47310
H2 H -0.31960 0.86190 0.43610
H3 H -0.34120 0.77040 0.48680
H4 H -0.44090 0.66460 0.38730
H5 H -0.34540 0.52860 0.39260
H6 H -0.45410 0.58170 0.43970
H7 H -0.22820 0.61050 0.52440
H8 H -0.29410 0.48960 0.49070
H9 H -0.12280 0.48030 0.52070
H10 H 0.01710 0.17610 0.32880
H11 H 0.05010 0.17090 0.39070
H12 H -0.13280 0.15210 0.36840
H13 H -0.01230 0.76430 0.39540
H14 H -0.30720 0.84470 0.35300
H15 H -0.13550 0.87570 0.32450
H16 H -0.34850 0.65950 0.30380
H17 H -0.26500 0.75350 0.26120
H18 H -0.12310 0.54290 0.27780
H19 H -0.00910 0.67020 0.27670
H20 H -0.09880 0.36780 0.40140
H21 H -0.13180 0.37290 0.33950
H22 H 0.24540 0.77600 0.39390
H23 H 0.33570 0.98980 0.37930
H24 H 0.44490 1.06110 0.29840
H25 H 0.43420 0.91370 0.22830
H26 H 0.32430 0.70740 0.23850
H27 H 0.36780 0.25930 0.34990
H28 H 0.57370 0.20460 0.41530
H29 H 0.54070 0.26760 0.49960
H30 H 0.32020 0.42260 0.52570
H31 H 0.13710 0.49290 0.45920
#END
