
#######################################################################
#
#                 Cambridge Crystallographic Data Centre
#                                CCDC
#
#######################################################################
#
# If this CIF has been generated from an entry in the Cambridge
# Structural Database, then it will include bibliographic, chemical,
# crystal, experimental, refinement or atomic coordinate data resulting
# from the CCDC's data processing and validation procedures.
#
#######################################################################

data_CSD_CIF_SUZRAH
_audit_creation_date 2010-09-21
_audit_creation_method CSD-ConQuest-V1
_database_code_CSD SUZRAH
_database_code_depnum_ccdc_archive 'CCDC 792443'
_chemical_formula_sum 'C9 H15 N3 O4'
_chemical_formula_moiety
;
C9 H15 N3 O4
;
_journal_coeditor_code "IUCr HB5607"
_journal_coden_Cambridge 1370
_journal_volume 66
_journal_year 2010
_journal_page_first o2359
_journal_name_full 'Acta Crystallogr.,Sect.E:Struct.Rep.Online '
loop_
_publ_author_name
"Zhongzhen Tian"
"Haijun Dong"
"Dongmei Li"
"Gaolei Wang"
_chemical_name_systematic
;
(E)-1-[(1,3-Dioxan-4-yl)methyl]-2-(nitromethylidene)imidazolidine
;
_cell_volume   1068.032
_exptl_crystal_colour 'colorless'
_exptl_crystal_density_diffrn 1.426
_exptl_crystal_description 'prism'
_exptl_crystal_preparation 'dichloromethane/ethyl acetate'
_diffrn_ambient_temperature 296
#These two values have been output from a single CSD field.
_refine_ls_R_factor_gt 0.0535
_refine_ls_wR_factor_gt 0.0535
_symmetry_cell_setting monoclinic
_symmetry_space_group_name_H-M 'P 21/n'
_symmetry_Int_Tables_number 14
loop_
_symmetry_equiv_pos_site_id
_symmetry_equiv_pos_as_xyz
1 x,y,z
2 1/2-x,1/2+y,1/2-z
3 -x,-y,-z
4 -1/2+x,-1/2-y,-1/2+z
_cell_length_a 5.0138(4)
_cell_length_b 9.8092(9)
_cell_length_c 21.7162(18)
_cell_angle_alpha 90
_cell_angle_beta 90
_cell_angle_gamma 90
_cell_formula_units_Z 4
loop_
_atom_type_symbol
_atom_type_radius_bond
C 0.68
H 0.23
N 0.68
O 0.68
loop_
_atom_site_label
_atom_site_type_symbol
_atom_site_fract_x
_atom_site_fract_y
_atom_site_fract_z
O1 O 0.7955(3) 0.71286(16) 0.23056(8)
N1 N 0.7422(4) 0.58813(19) 0.22961(9)
C1 C 0.3945(4) 0.6124(2) 0.30617(10)
O2 O 0.2691(4) 0.39753(16) 0.44986(7)
N2 N 0.4042(4) 0.74655(19) 0.31417(9)
H1 H 0.50380 0.80030 0.29300
C2 C 0.5501(4) 0.5344(2) 0.26581(10)
H2 H 0.51960 0.44090 0.26380
N3 N 0.2104(4) 0.55718(19) 0.34370(8)
O3 O 0.8720(4) 0.51016(18) 0.19406(9)
C3 C 0.1287(5) 0.4153(2) 0.34624(11)
H3 H 0.15140 0.37530 0.30570
H4 H -0.05970 0.41150 0.35630
C4 C 0.2786(5) 0.3314(2) 0.39185(10)
H5 H 0.46530 0.32680 0.37870
O4 O 0.2921(5) 0.1954(2) 0.50513(9)
C5 C 0.1743(5) 0.1882(2) 0.39737(11)
H6 H 0.21090 0.13870 0.35960
H7 H -0.01750 0.19040 0.40320
C6 C 0.0734(5) 0.6627(3) 0.37948(11)
H8 H 0.08350 0.64380 0.42330
H9 H -0.11250 0.66990 0.36750
C7 C 0.2257(5) 0.7920(2) 0.36326(11)
H10 H 0.10610 0.86290 0.34880
H11 H 0.32550 0.82580 0.39840
C8 C 0.4109(7) 0.3220(3) 0.49462(13)
H12 H 0.59300 0.30860 0.48080
H13 H 0.41630 0.37310 0.53280
C9 C 0.3037(7) 0.1152(3) 0.45115(13)
H14 H 0.21320 0.02930 0.45830
H15 H 0.48850 0.09560 0.44130
#END
