
#######################################################################
#
#                 Cambridge Crystallographic Data Centre
#                                CCDC
#
#######################################################################
#
# If this CIF has been generated from an entry in the Cambridge
# Structural Database, then it will include bibliographic, chemical,
# crystal, experimental, refinement or atomic coordinate data resulting
# from the CCDC's data processing and validation procedures.
#
#######################################################################

data_CSD_CIF_SUZSIQ
_audit_creation_date 2010-09-21
_audit_creation_method CSD-ConQuest-V1
_database_code_CSD SUZSIQ
_database_code_depnum_ccdc_archive 'CCDC 792450'
_chemical_formula_sum 'C24 H20 N2 O7'
_chemical_formula_moiety
;
C24 H20 N2 O7
;
_journal_coeditor_code "IUCr CI5156"
_journal_coden_Cambridge 1370
_journal_volume 66
_journal_year 2010
_journal_page_first o2367
_journal_name_full 'Acta Crystallogr.,Sect.E:Struct.Rep.Online '
loop_
_publ_author_name
"H.-K.Fun"
"W.-S.Loh"
"Nithinchandra"
"B.Kalluraya"
"S.P.Nayak"
_chemical_name_systematic
;
4-[4-Ethoxycarbonyl-5-(3,4-methylenedioxyphenyl)-3-oxocyclohex-1-en-1-yl]-3-ph
enylsydnone
;
_cell_volume   1028.444
_exptl_crystal_colour 'colorless'
_exptl_crystal_density_diffrn 1.448
_exptl_crystal_description 'needle'
_exptl_crystal_preparation 'ethanol'
_diffrn_ambient_temperature 100
#These two values have been output from a single CSD field.
_refine_ls_R_factor_gt 0.0478
_refine_ls_wR_factor_gt 0.0478
_symmetry_cell_setting triclinic
_symmetry_space_group_name_H-M 'P -1'
_symmetry_Int_Tables_number 2
loop_
_symmetry_equiv_pos_site_id
_symmetry_equiv_pos_as_xyz
1 x,y,z
2 -x,-y,-z
_cell_length_a 8.8026(2)
_cell_length_b 11.5133(2)
_cell_length_c 11.6981(2)
_cell_angle_alpha 66.860(1)
_cell_angle_beta 86.545(1)
_cell_angle_gamma 71.115(1)
_cell_formula_units_Z 2
loop_
_atom_type_symbol
_atom_type_radius_bond
C 0.68
H 0.23
N 0.68
O 0.68
loop_
_atom_site_label
_atom_site_type_symbol
_atom_site_fract_x
_atom_site_fract_y
_atom_site_fract_z
O1 O 0.54796(15) -0.47982(12) 0.24568(11)
O2 O 0.09931(15) 0.43102(12) 0.42387(11)
O3 O 0.34786(15) 0.29504(13) 0.53026(11)
O4 O 0.73361(16) 0.19987(13) 0.20782(12)
O5 O 0.63381(15) 0.31720(12) 0.00796(11)
O6 O 0.73888(15) -0.39479(12) 0.14030(12)
O7 O 0.79429(16) 0.03513(13) 0.01666(12)
N1 N 0.39657(17) -0.31654(14) 0.28604(13)
N2 N 0.41071(19) -0.43911(14) 0.30166(14)
C1 C 0.2822(2) -0.29087(18) 0.47181(16)
H1 H 0.37680 -0.35420 0.51750
C2 C 0.1577(2) -0.23095(19) 0.52984(17)
H2 H 0.16800 -0.25360 0.61520
C3 C 0.0177(2) -0.13688(19) 0.45938(19)
H3 H -0.06580 -0.09630 0.49800
C4 C 0.0010(2) -0.10279(19) 0.33208(18)
H4 H -0.09350 -0.03950 0.28610
C5 C 0.1236(2) -0.16201(18) 0.27268(16)
H5 H 0.11290 -0.14040 0.18750
C6 C 0.2628(2) -0.25450(16) 0.34455(15)
C7 C 0.6164(2) -0.37744(16) 0.19344(15)
C8 C 0.5132(2) -0.26951(16) 0.22242(15)
C9 C 0.5348(2) -0.14190(16) 0.19358(14)
C10 C 0.4237(2) -0.03949(16) 0.23803(15)
H6 H 0.39240 -0.08530 0.32020
H7 H 0.32690 0.00990 0.18190
C11 C 0.5027(2) 0.05872(17) 0.24418(16)
H8 H 0.59490 0.00750 0.30640
C12 C 0.5672(2) 0.12241(17) 0.11849(16)
H9 H 0.47630 0.17280 0.05500
C13 C 0.6849(2) 0.01333(18) 0.08194(16)
C14 C 0.6583(2) -0.11497(17) 0.12458(15)
H10 H 0.72940 -0.18190 0.10350
C15 C 0.3878(2) 0.16253(17) 0.28630(16)
C16 C 0.2380(2) 0.24512(18) 0.22215(16)
H11 H 0.20900 0.23700 0.15120
C17 C 0.1295(2) 0.34015(17) 0.26119(16)
H12 H 0.02980 0.39470 0.21830
C18 C 0.1795(2) 0.34732(16) 0.36599(15)
C19 C 0.1948(2) 0.38560(18) 0.53747(17)
H13 H 0.14180 0.34070 0.60800
H14 H 0.20930 0.46080 0.54820
C20 C 0.3280(2) 0.26646(17) 0.42936(16)
C21 C 0.4350(2) 0.17364(17) 0.39255(16)
H15 H 0.53460 0.12040 0.43620
C22 C 0.6534(2) 0.21628(17) 0.11888(16)
C23 C 0.7312(2) 0.40341(18) -0.00653(18)
H16 H 0.73490 0.41770 0.06950
H17 H 0.68250 0.48960 -0.07400
C24 C 0.8997(2) 0.3393(2) -0.0344(2)
H18 H 0.96490 0.39290 -0.03740
H19 H 0.89650 0.33250 -0.11340
H20 H 0.94500 0.25160 0.02980
#END
