
#######################################################################
#
#                 Cambridge Crystallographic Data Centre
#                                CCDC
#
#######################################################################
#
# If this CIF has been generated from an entry in the Cambridge
# Structural Database, then it will include bibliographic, chemical,
# crystal, experimental, refinement or atomic coordinate data resulting
# from the CCDC's data processing and validation procedures.
#
#######################################################################

data_CSD_CIF_TABFAD
_audit_creation_date 1991-04-30
_audit_creation_method CSD-ConQuest-V1
_database_code_CSD TABFAD
_chemical_formula_sum 'C9 H14 N2 O10'
_chemical_formula_moiety
;
C9 H14 N2 O10
;
_journal_coden_Cambridge 41
_journal_volume 34
_journal_year 1989
_journal_page_first 632
_journal_name_full 'Kristallografiya(Russ.)(Crystallogr.Rep.) '
loop_
_publ_author_name
"A.A.Gazikasheva"
"L.F.Chertanova"
"Yu.T.Struchkov"
"V.F.Sopin"
"G.N.Marchenko"
"R.G.Zhbankov"
"N.V.Ivanova"
"T.E.Kolosova"
"L.K.Prikhodchenko"
_chemical_name_systematic
;
2,3-Dinitro-4,6-O-ethylidene-methyl-\a-D-glucoside
;
_cell_volume   1340.205
_exptl_crystal_density_diffrn 1.539
_diffrn_ambient_temperature ?
_diffrn_special_details
;
The study was carried out at room temperature,in the range 283-303K

;
#These two values have been output from a single CSD field.
_refine_ls_R_factor_gt 0.036
_refine_ls_wR_factor_gt 0.036
loop_
_citation_database_id_CSD
_citation_special_details
ROGTOY "is a stereoisomer of this entry"
_symmetry_cell_setting orthorhombic
_symmetry_space_group_name_H-M 'P 21 21 21'
_symmetry_Int_Tables_number 19
loop_
_symmetry_equiv_pos_site_id
_symmetry_equiv_pos_as_xyz
1 x,y,z
2 1/2+x,1/2-y,-z
3 -x,1/2+y,1/2-z
4 1/2-x,-y,1/2+z
_cell_length_a 7.657(3)
_cell_length_b 9.119(3)
_cell_length_c 19.194(8)
_cell_angle_alpha 90
_cell_angle_beta 90
_cell_angle_gamma 90
_cell_formula_units_Z 4
loop_
_atom_type_symbol
_atom_type_radius_bond
C 0.68
N 0.68
O 0.68
loop_
_atom_site_label
_atom_site_type_symbol
_atom_site_fract_x
_atom_site_fract_y
_atom_site_fract_z
O1 O 0.3280(3) 0.5188(3) 0.5486(14)
O2 O 0.2680(3) 0.7025(3) 0.6565(1)
O3 O 0.5623(3) 0.6407(3) 0.7436(1)
O4 O 0.7915(3) 0.4220(3) 0.6825(1)
O5 O 0.6112(3) 0.6079(3) 0.5307(1)
O6 O 0.9395(3) 0.3443(3) 0.5821(2)
O7 O 0.2820(4) 0.9366(3) 0.6209(2)
O8 O 0.0342(4) 0.8347(4) 0.6443(2)
O9 O 0.4781(5) 0.6720(4) 0.8493(2)
O10 O 0.3502(5) 0.5020(4) 0.7887(2)
N1 N 0.1881(4) 0.8389(3) 0.6383(2)
N2 N 0.4509(5) 0.6009(4) 0.7978(2)
C1 C 0.4401(5) 0.6374(4) 0.5539(2)
C2 C 0.4447(5) 0.6843(4) 0.6297(2)
C3 C 0.5307(5) 0.5712(4) 0.6760(2)
C4 C 0.7105(5) 0.5379(4) 0.6451(2)
C5 C 0.6848(5) 0.4916(4) 0.5696(2)
C6 C 0.8658(5) 0.4555(5) 0.5398(2)
C7 C 0.9591(5) 0.3891(5) 0.6521(2)
C8 C 1.0411(6) 0.2677(7) 0.6904(2)
C9 C 0.2929(6) 0.4752(5) 0.4781(2)
#END
