
#######################################################################
#
#                 Cambridge Crystallographic Data Centre
#                                CCDC
#
#######################################################################
#
# If this CIF has been generated from an entry in the Cambridge
# Structural Database, then it will include bibliographic, chemical,
# crystal, experimental, refinement or atomic coordinate data resulting
# from the CCDC's data processing and validation procedures.
#
#######################################################################

data_CSD_CIF_TABMOB
_audit_creation_date 2016-02-09
_audit_creation_method CSD-ConQuest-V1
_database_code_CSD TABMOB
_database_code_depnum_ccdc_archive 'CCDC 1417451'
_chemical_formula_sum 'C23 H18 N2 O5'
_chemical_formula_moiety
;
C23 H18 N2 O5
;
_journal_coden_Cambridge 1748
_journal_volume 3
_journal_year 2016
_journal_page_first 470
_journal_name_full 'Org.Chem.Front. '
loop_
_publ_author_name
"Lihui Jiao"
"Xiaowei Zhao"
"Huixin Liu"
"Xinyi Ye"
"Yun Li"
"Zhiyong Jiang"
_chemical_name_systematic
;
5-(2-nitro-1-phenylethyl)-3,5-diphenyl-1,3-oxazolidine-2,4-dione
;
_cell_volume   1011.322
_exptl_crystal_density_diffrn 1.321
_diffrn_ambient_temperature 291.1
#These two values have been output from a single CSD field.
_refine_ls_R_factor_gt 0.0395
_refine_ls_wR_factor_gt 0.0395
_symmetry_cell_setting monoclinic
_symmetry_space_group_name_H-M 'P 21'
_symmetry_Int_Tables_number 4
loop_
_symmetry_equiv_pos_site_id
_symmetry_equiv_pos_as_xyz
1 x,y,z
2 -x,1/2+y,-z
_cell_length_a 7.6839(2)
_cell_length_b 11.0556(3)
_cell_length_c 12.4153(4)
_cell_angle_alpha 90
_cell_angle_beta 106.486(4)
_cell_angle_gamma 90
_cell_formula_units_Z 2
loop_
_atom_type_symbol
_atom_type_radius_bond
C 0.68
H 0.23
N 0.68
O 0.68
loop_
_atom_site_label
_atom_site_type_symbol
_atom_site_fract_x
_atom_site_fract_y
_atom_site_fract_z
O1 O 0.5688(2) 0.18853(19) 0.63091(19)
O2 O 1.0368(2) 0.45550(15) 0.73068(16)
O3 O 0.8488(2) 0.18176(14) 0.61183(14)
N1 N 0.7714(3) 0.34676(17) 0.68939(18)
N2 N 1.3753(4) 0.0149(3) 0.7652(4)
C1 C 0.7125(3) 0.2344(2) 0.6434(2)
C2 C 0.9489(3) 0.3678(2) 0.6935(2)
C3 C 1.0102(3) 0.25569(19) 0.6421(2)
C4 C 1.0681(3) 0.2851(2) 0.5379(2)
C5 C 1.2048(3) 0.3702(2) 0.5440(2)
H1 H 1.25420 0.41260 0.61040
C6 C 1.2667(4) 0.3915(3) 0.4518(3)
H2 H 1.35740 0.44850 0.45610
C7 C 1.1951(5) 0.3290(3) 0.3541(3)
H3 H 1.23810 0.34300 0.29230
C8 C 1.0614(6) 0.2468(3) 0.3474(3)
H4 H 1.01330 0.20500 0.28050
C9 C 0.9951(4) 0.2239(3) 0.4380(2)
H5 H 0.90240 0.16800 0.43180
C10 C 1.1606(3) 0.1904(2) 0.7347(2)
H6 H 1.26610 0.24430 0.75570
C11 C 1.2178(4) 0.0764(2) 0.6845(2)
H7 H 1.11610 0.02080 0.66360
H8 H 1.25050 0.09750 0.61700
C12 C 1.1014(3) 0.1680(2) 0.8392(2)
C13 C 0.9819(4) 0.0766(3) 0.8452(3)
H9 H 0.93720 0.02580 0.78380
C14 C 0.9276(5) 0.0595(3) 0.9419(3)
H10 H 0.84600 -0.00200 0.94390
C15 C 0.9914(6) 0.1303(4) 1.0320(3)
H11 H 0.95610 0.11760 1.09680
C16 C 1.1076(7) 0.2204(4) 1.0275(3)
H12 H 1.15120 0.27030 1.08960
C17 C 1.1633(5) 0.2401(3) 0.9318(2)
H13 H 1.24340 0.30290 0.93060
C18 C 0.6654(3) 0.4249(2) 0.7389(3)
C19 C 0.6329(5) 0.3915(3) 0.8382(3)
H14 H 0.67550 0.31820 0.87230
C20 C 0.5348(6) 0.4703(5) 0.8864(5)
H15 H 0.51230 0.45050 0.95400
C21 C 0.4715(6) 0.5770(5) 0.8336(6)
H16 H 0.40330 0.62830 0.86500
C22 C 0.5061(5) 0.6088(4) 0.7374(6)
H17 H 0.46310 0.68230 0.70370
C23 C 0.6051(4) 0.5333(3) 0.6881(4)
H18 H 0.63030 0.55560 0.62180
O4 O 1.4689(4) 0.0710(4) 0.8443(3)
O5 O 1.4052(6) -0.0855(3) 0.7421(5)
#END
