
#######################################################################
#
#                 Cambridge Crystallographic Data Centre
#                                CCDC
#
#######################################################################
#
# If this CIF has been generated from an entry in the Cambridge
# Structural Database, then it will include bibliographic, chemical,
# crystal, experimental, refinement or atomic coordinate data resulting
# from the CCDC's data processing and validation procedures.
#
#######################################################################

data_CSD_CIF_TABRET
_audit_creation_date 1996-07-16
_audit_creation_method CSD-ConQuest-V1
_database_code_CSD TABRET
_database_code_depnum_ccdc_archive 'CCDC 126706'
_chemical_formula_sum 'C7 H5 N5 O3'
_chemical_formula_moiety
;
C7 H5 N5 O3
;
_journal_coeditor_code "IUCr CR1142"
_journal_coden_Cambridge 591
_journal_volume 52
_journal_year 1996
_journal_page_first 1281
_journal_name_full 'Acta Crystallogr.,Sect.C:Cryst.Struct.Commun. '
loop_
_publ_author_name
"I.Caracelli"
"F.M.L.G.Stamato"
"B.Mester"
"M.Paulino"
"H.Cerecetto"
_chemical_name_systematic
;
1-(((5-Nitro-2-furyl)methylene)amino)-1,2,4-triazole
;
_cell_volume    875.287
_exptl_crystal_colour 'deep yellow'
_exptl_crystal_density_diffrn 1.572
_exptl_special_details
;
drug activity against Tripanosoma cruzi

;
_diffrn_ambient_temperature ?
_diffrn_special_details
;
The study was carried out at room temperature,in the range 283-303K

;
#These two values have been output from a single CSD field.
_refine_ls_R_factor_gt 0.0417
_refine_ls_wR_factor_gt 0.0417
_symmetry_cell_setting orthorhombic
_symmetry_space_group_name_H-M 'P n m a'
_symmetry_Int_Tables_number 62
loop_
_symmetry_equiv_pos_site_id
_symmetry_equiv_pos_as_xyz
1 x,y,z
2 1/2-x,-y,1/2+z
3 1/2+x,1/2-y,1/2-z
4 -x,1/2+y,-z
5 -x,-y,-z
6 -1/2+x,y,-1/2-z
7 -1/2-x,-1/2+y,-1/2+z
8 x,-1/2-y,z
_cell_length_a 11.952(2)
_cell_length_b 6.255(1)
_cell_length_c 11.708(2)
_cell_angle_alpha 90
_cell_angle_beta 90
_cell_angle_gamma 90
_cell_formula_units_Z 4
loop_
_atom_type_symbol
_atom_type_radius_bond
C 0.68
H 0.23
N 0.68
O 0.68
loop_
_atom_site_label
_atom_site_type_symbol
_atom_site_fract_x
_atom_site_fract_y
_atom_site_fract_z
O1 O 0.4421(2) 0.25000 0.1122(2)
O2 O 0.2731(2) 0.25000 0.0469(2)
O3 O 0.3725(1) 0.25000 0.3227(1)
N1 N 0.3408(2) 0.25000 0.1247(2)
N2 N 0.4677(2) 0.25000 0.5401(2)
N3 N 0.5048(2) 0.25000 0.6525(2)
N4 N 0.4365(2) 0.25000 0.7451(2)
N5 N 0.6190(2) 0.25000 0.7968(2)
C1 C 0.2966(2) 0.25000 0.2374(2)
C2 C 0.1908(2) 0.25000 0.2736(2)
C3 C 0.1992(2) 0.25000 0.3934(2)
C4 C 0.3090(2) 0.25000 0.4203(2)
C5 C 0.3618(2) 0.25000 0.5299(2)
C6 C 0.5100(3) 0.25000 0.8280(2)
C7 C 0.6117(2) 0.25000 0.6850(2)
H1 H 0.12740 0.25000 0.21690
H2 H 0.13880 0.25000 0.45100
H3 H 0.30440 0.25000 0.58760
H4 H 0.48480 0.25000 0.90390
H5 H 0.67360 0.25000 0.63210
#END
