
#######################################################################
#
#                 Cambridge Crystallographic Data Centre
#                                CCDC
#
#######################################################################
#
# If this CIF has been generated from an entry in the Cambridge
# Structural Database, then it will include bibliographic, chemical,
# crystal, experimental, refinement or atomic coordinate data resulting
# from the CCDC's data processing and validation procedures.
#
#######################################################################

data_CSD_CIF_TABZII
_audit_creation_date 2016-02-09
_audit_creation_method CSD-ConQuest-V1
_database_code_CSD TABZII
_database_code_depnum_ccdc_archive 'CCDC 814973'
_chemical_formula_sum 'C17 H15 N3 O4'
_chemical_formula_moiety
;
C17 H15 N3 O4
;
_journal_coden_Cambridge 493
_journal_volume 112
_journal_year 2016
_journal_page_first 231
_journal_name_full 'Eur.J.Med.Chem. '
loop_
_publ_author_name
"Yang Wang"
"Fei Xiong Cheng"
"Xiao Long Yuan"
"Wen Jian Tang"
"Jing Bo Shi"
"Chen Zhong Liao"
"Xin Hua Liu"
_chemical_name_systematic
;
(5-(2-hydroxyphenyl)-3-methyl-4,5-dihydro-1H-pyrazol-1-yl)(4-nitrophenyl)metha
none
;
_cell_volume   1617.525
_exptl_crystal_colour 'colorless'
_exptl_crystal_density_diffrn 1.336
_exptl_crystal_description 'block'
_diffrn_ambient_temperature 296
#These two values have been output from a single CSD field.
_refine_ls_R_factor_gt 0.053
_refine_ls_wR_factor_gt 0.053
_symmetry_cell_setting monoclinic
_symmetry_space_group_name_H-M 'P 21/n'
_symmetry_Int_Tables_number 14
loop_
_symmetry_equiv_pos_site_id
_symmetry_equiv_pos_as_xyz
1 x,y,z
2 1/2-x,1/2+y,1/2-z
3 -x,-y,-z
4 -1/2+x,-1/2-y,-1/2+z
_cell_length_a 11.24(3)
_cell_length_b 11.35(3)
_cell_length_c 13.43(3)
_cell_angle_alpha 90
_cell_angle_beta 109.25(2)
_cell_angle_gamma 90
_cell_formula_units_Z 4
loop_
_atom_type_symbol
_atom_type_radius_bond
C 0.68
H 0.23
N 0.68
O 0.68
loop_
_atom_site_label
_atom_site_type_symbol
_atom_site_fract_x
_atom_site_fract_y
_atom_site_fract_z
N1 N 0.46369(16) 0.69835(15) 0.13783(16)
N2 N 0.48522(17) 0.61112(16) 0.21682(16)
O1 O 0.40421(15) 0.74806(14) -0.03427(15)
O2 O 0.57585(15) 1.03853(14) 0.11918(15)
H1 H 0.57750 1.10390 0.09370
C1 C 0.40256(19) 0.67611(19) 0.0350(2)
C2 C 0.32689(19) 0.56502(18) 0.0032(2)
C3 C 0.5302(2) 0.81103(18) 0.1774(2)
H2 H 0.58830 0.82990 0.13900
C4 C 0.43609(19) 0.91079(18) 0.16553(19)
C5 C 0.3288(2) 0.50878(19) -0.0883(2)
H3 H 0.38250 0.53550 -0.12330
C6 C 0.5622(2) 0.6542(2) 0.3023(2)
C7 C 0.4629(2) 1.02335(19) 0.1365(2)
C8 C 0.1701(2) 0.3762(2) -0.0754(2)
C9 C 0.2449(2) 0.5258(2) 0.0550(2)
H4 H 0.24330 0.56340 0.11610
C10 C 0.3221(2) 0.8925(2) 0.1861(2)
H5 H 0.30380 0.81810 0.20600
C11 C 0.2506(2) 0.4126(2) -0.1278(2)
H6 H 0.25250 0.37370 -0.18820
C12 C 0.2367(2) 0.9836(3) 0.1771(2)
H7 H 0.16190 0.97050 0.19090
N3 N 0.0855(3) 0.2748(2) -0.1188(3)
C13 C 0.3765(3) 1.1150(2) 0.1272(2)
H8 H 0.39400 1.18980 0.10750
C14 C 0.6048(2) 0.7779(2) 0.2924(2)
H9 H 0.69480 0.78070 0.30510
H10 H 0.58440 0.83030 0.34150
C15 C 0.2645(3) 1.0945(2) 0.1473(2)
H11 H 0.20760 1.15590 0.14070
C16 C 0.6075(3) 0.5844(2) 0.4022(2)
H12 H 0.56860 0.50810 0.39080
H13 H 0.58570 0.62470 0.45660
H14 H 0.69740 0.57560 0.42320
C17 C 0.1657(3) 0.4303(3) 0.0151(3)
H15 H 0.11070 0.40360 0.04900
O3 O 0.1034(3) 0.2173(2) -0.1898(3)
O4 O 0.0004(3) 0.2553(2) -0.0821(3)
#END
