
#######################################################################
#
#                 Cambridge Crystallographic Data Centre
#                                CCDC
#
#######################################################################
#
# If this CIF has been generated from an entry in the Cambridge
# Structural Database, then it will include bibliographic, chemical,
# crystal, experimental, refinement or atomic coordinate data resulting
# from the CCDC's data processing and validation procedures.
#
#######################################################################

data_CSD_CIF_TACGIN
_audit_creation_date 1991-05-01
_audit_creation_method CSD-ConQuest-V1
_database_code_CSD TACGIN
_chemical_formula_sum 'C7 H6 N6 O4'
_chemical_formula_moiety
;
C7 H6 N6 O4
;
_journal_coden_Cambridge 582
_journal_volume 20
_journal_year 1990
_journal_page_first 233
_journal_name_full 'J.Crystallogr.Spectrosc.Res. '
loop_
_publ_author_name
"F.Bonati"
"B.Bovio"
_chemical_name_systematic
;
bis(4-Nitropyrazol-1-yl)methane
;
_cell_volume   1007.874
_exptl_crystal_colour 'colorless'
_exptl_crystal_density_diffrn 1.57
_diffrn_ambient_temperature ?
_diffrn_special_details
;
The study was carried out at room temperature,in the range 283-303K

;
#These two values have been output from a single CSD field.
_refine_ls_R_factor_gt 0.028
_refine_ls_wR_factor_gt 0.028
_symmetry_cell_setting monoclinic
_symmetry_space_group_name_H-M 'P 21/a'
_symmetry_Int_Tables_number 14
loop_
_symmetry_equiv_pos_site_id
_symmetry_equiv_pos_as_xyz
1 x,y,z
2 1/2-x,1/2+y,-z
3 -x,-y,-z
4 -1/2+x,-1/2-y,z
_cell_length_a 14.491(2)
_cell_length_b 5.969(1)
_cell_length_c 11.725(2)
_cell_angle_alpha 90
_cell_angle_beta 96.39(1)
_cell_angle_gamma 90
_cell_formula_units_Z 4
loop_
_atom_type_symbol
_atom_type_radius_bond
C 0.68
H 0.23
N 0.68
O 0.68
loop_
_atom_site_label
_atom_site_type_symbol
_atom_site_fract_x
_atom_site_fract_y
_atom_site_fract_z
N1 N 0.2226(1) 0.4363(2) 0.1611(1)
N2 N 0.2683(1) 0.2363(3) 0.1707(2)
C1 C 0.3538(1) 0.2859(2) 0.1501(2)
C2 C 0.3611(1) 0.5135(2) 0.1259(1)
C3 C 0.2761(1) 0.6068(2) 0.1349(1)
N3 N 0.4429(1) 0.6304(2) 0.1040(1)
O1 O 0.4341(1) 0.8201(2) 0.0635(1)
O2 O 0.5183(1) 0.5368(3) 0.1278(2)
N4 N 0.1278(1) 0.4489(3) 0.3147(1)
N5 N 0.1488(2) 0.6433(3) 0.3725(2)
C4 C 0.1407(2) 0.5949(3) 0.4804(2)
C5 C 0.1144(1) 0.3720(3) 0.4912(1)
C6 C 0.1071(1) 0.2829(3) 0.3836(1)
N6 N 0.0939(2) 0.2631(3) 0.5939(1)
O3 O 0.0874(1) 0.3793(3) 0.6784(1)
O4 O 0.0833(1) 0.0601(3) 0.5929(2)
C7 C 0.1281(1) 0.4460(3) 0.1916(1)
H1 H 0.4020(8) 0.180(2) 0.167(1)
H2 H 0.2544(8) 0.753(2) 0.121(1)
H3 H 0.1590(9) 0.692(2) 0.542(1)
H4 H 0.0902(8) 0.142(2) 0.352(1)
H5 H 0.0963(8) 0.572(2) 0.159(1)
H6 H 0.0924(8) 0.324(2) 0.158(1)
#END
