
#######################################################################
#
#                 Cambridge Crystallographic Data Centre
#                                CCDC
#
#######################################################################
#
# If this CIF has been generated from an entry in the Cambridge
# Structural Database, then it will include bibliographic, chemical,
# crystal, experimental, refinement or atomic coordinate data resulting
# from the CCDC's data processing and validation procedures.
#
#######################################################################

data_CSD_CIF_TACHOU
_audit_creation_date 1991-05-01
_audit_creation_method CSD-ConQuest-V1
_database_code_CSD TACHOU
_chemical_formula_sum 'C20 H24 N2 O2'
_chemical_formula_moiety
;
C20 H24 N2 O2
;
_journal_coden_Cambridge 582
_journal_volume 20
_journal_year 1990
_journal_page_first 291
_journal_name_full 'J.Crystallogr.Spectrosc.Res. '
loop_
_publ_author_name
"T.Taga"
"A.Uchiyama"
"K.Machida"
"T.Miyasaka"
_chemical_name_systematic
;
(E)-O-Octanoyl-phenyl-2-pyridyl ketone oxime
;
_cell_volume   1801.633
_exptl_crystal_density_diffrn 1.196
_exptl_special_details
;
Isomorphous with the myristoyl and palmitoyl derivatives
Correct H atom coordinates have been supplied by the author
;
_diffrn_ambient_temperature ?
_diffrn_special_details
;
The study was carried out at room temperature,in the range 283-303K

;
#These two values have been output from a single CSD field.
_refine_ls_R_factor_gt 0.049
_refine_ls_wR_factor_gt 0.049
_symmetry_cell_setting monoclinic
_symmetry_space_group_name_H-M 'P 21/n'
_symmetry_Int_Tables_number 14
loop_
_symmetry_equiv_pos_site_id
_symmetry_equiv_pos_as_xyz
1 x,y,z
2 1/2-x,1/2+y,1/2-z
3 -x,-y,-z
4 -1/2+x,-1/2-y,-1/2+z
_cell_length_a 8.160(2)
_cell_length_b 38.559(6)
_cell_length_c 5.775(1)
_cell_angle_alpha 90
_cell_angle_beta 97.47(1)
_cell_angle_gamma 90
_cell_formula_units_Z 4
loop_
_atom_type_symbol
_atom_type_radius_bond
C 0.68
H 0.23
N 0.68
O 0.68
loop_
_atom_site_label
_atom_site_type_symbol
_atom_site_fract_x
_atom_site_fract_y
_atom_site_fract_z
N1 N 1.0244(2) 0.3700(1) 0.9387(3)
C1 C 1.0161(2) 0.3440(1) 1.0738(3)
C2 C 1.1582(2) 0.3421(1) 1.2642(3)
C3 C 1.2994(2) 0.3620(1) 1.2526(4)
C4 C 1.4274(2) 0.3595(1) 1.4326(4)
C5 C 1.4137(2) 0.3381(1) 1.6157(4)
C6 C 1.2702(3) 0.3194(1) 1.6152(4)
N2 N 1.1431(2) 0.3209(1) 1.4420(3)
C7 C 0.8836(2) 0.3169(1) 1.0470(3)
C8 C 0.7739(2) 0.3138(1) 1.2069(4)
C9 C 0.6501(3) 0.2887(1) 1.1745(4)
C10 C 0.6398(2) 0.2668(1) 0.9884(4)
C11 C 0.7492(3) 0.2695(1) 0.8297(4)
C12 C 0.8718(2) 0.2949(1) 0.8586(4)
O1 O 0.8882(1) 0.3709(1) 0.7575(2)
C13 C 0.9051(2) 0.3960(1) 0.5947(4)
O2 O 0.7936(2) 0.3982(1) 0.4407(3)
C14 C 1.0584(2) 0.4180(1) 0.6175(4)
C15 C 1.0572(2) 0.4426(1) 0.4146(4)
C16 C 1.2062(2) 0.4666(1) 0.4327(4)
C17 C 1.1965(2) 0.4922(1) 0.2316(4)
C18 C 1.3376(2) 0.5184(1) 0.2482(4)
C19 C 1.3220(2) 0.5436(1) 0.0458(4)
C20 C 1.4583(3) 0.5701(1) 0.0581(5)
H1 H 1.315(3) 0.376(1) 1.109(4)
H2 H 1.515(3) 0.374(1) 1.422(4)
H3 H 1.512(2) 0.336(1) 1.748(4)
H4 H 1.250(3) 0.302(1) 1.751(4)
H5 H 0.949(2) 0.299(1) 0.742(4)
H6 H 0.742(3) 0.251(1) 0.682(5)
H7 H 0.542(3) 0.250(1) 0.962(5)
H8 H 0.577(3) 0.288(1) 1.286(4)
H9 H 0.775(3) 0.331(1) 1.340(5)
H10 H 1.067(2) 0.430(1) 0.775(4)
H11 H 1.151(2) 0.402(1) 0.613(3)
H12 H 1.048(3) 0.427(1) 0.261(5)
H13 H 0.954(3) 0.458(1) 0.394(4)
H14 H 1.212(3) 0.479(1) 0.598(4)
H15 H 1.321(3) 0.452(1) 0.443(4)
H16 H 1.187(3) 0.479(1) 0.066(4)
H17 H 1.100(2) 0.503(1) 0.230(4)
H18 H 1.335(3) 0.530(1) 0.400(4)
H19 H 1.448(2) 0.507(1) 0.249(4)
H20 H 1.326(3) 0.530(1) -0.104(4)
H21 H 1.216(2) 0.555(1) 0.040(4)
H22 H 1.459(3) 0.585(1) 0.208(5)
H23 H 1.559(3) 0.561(1) 0.048(4)
H24 H 1.454(3) 0.583(1) -0.097(5)
#END
