
#######################################################################
#
#                 Cambridge Crystallographic Data Centre
#                                CCDC
#
#######################################################################
#
# If this CIF has been generated from an entry in the Cambridge
# Structural Database, then it will include bibliographic, chemical,
# crystal, experimental, refinement or atomic coordinate data resulting
# from the CCDC's data processing and validation procedures.
#
#######################################################################

data_CSD_CIF_TACKUD
_audit_creation_date 1991-05-01
_audit_creation_method CSD-ConQuest-V1
_database_code_CSD TACKUD
_database_code_depnum_ccdc_fiz 'CSD 54111'
_chemical_formula_sum 'C24 H38 N2 O4'
_chemical_formula_moiety
;
C24 H38 N2 O4
;
_journal_coden_Cambridge 643
_journal_volume 191
_journal_year 1990
_journal_page_first 15
_journal_name_full 'Z.Krist.Cryst.Mater. '
loop_
_publ_author_name
"V.E.Shklover"
"I.A.Zamaev"
"Yu.E.Ovchinnikov"
"Yu.T.Struchkov"
"Yu.N.Bubnov"
"M.E.Gursky"
"A.B.Shapiro"
"O.L.Lazareva"
"G.A.Vinogradov"
"A.N.Schegolikhin"
"A.A.Ovchinnikov"
_chemical_name_systematic
;
1,6-bis(1-Oxyl-2,2,6,6-tetramethyl-4-hydroxypiperidine-4-yl)-hexa-2,4-diyne
;
_cell_volume   1224.592
_exptl_crystal_colour 'pale yellow'
_exptl_crystal_density_diffrn 1.14
_exptl_special_details
;
y and z (C9) are -0.1620 and 0.0014, not 0.1620 and -0.0014

;
_diffrn_ambient_temperature ?
_diffrn_special_details
;
The study was carried out at room temperature,in the range 283-303K

;
#These two values have been output from a single CSD field.
_refine_ls_R_factor_gt 0.031
_refine_ls_wR_factor_gt 0.031
_symmetry_cell_setting triclinic
_symmetry_space_group_name_H-M 'P -1'
_symmetry_Int_Tables_number 2
loop_
_symmetry_equiv_pos_site_id
_symmetry_equiv_pos_as_xyz
1 x,y,z
2 -x,-y,-z
_cell_length_a 7.968(3)
_cell_length_b 12.380(5)
_cell_length_c 13.891(3)
_cell_angle_alpha 64.25(3)
_cell_angle_beta 83.26(2)
_cell_angle_gamma 89.22(3)
_cell_formula_units_Z 2
loop_
_atom_type_symbol
_atom_type_radius_bond
C 0.68
H 0.23
N 0.68
O 0.68
loop_
_atom_site_label
_atom_site_type_symbol
_atom_site_fract_x
_atom_site_fract_y
_atom_site_fract_z
O1 O 1.0798(2) -0.1264(1) -0.1653(1)
O2 O 0.6504(3) 0.2978(2) 0.5057(1)
O3 O 0.6200(2) 0.0756(1) -0.3064(1)
O4 O 0.9066(2) 0.3484(1) 0.1888(1)
N1 N 0.9642(2) -0.0486(1) -0.1815(1)
N2 N 0.6733(3) 0.3452(2) 0.4020(1)
C1 C 0.9976(2) 0.0642(2) -0.2829(1)
C2 C 0.5785(3) 0.2863(2) 0.3516(1)
C3 C 0.8759(2) 0.1588(2) -0.2788(1)
C4 C 0.6008(3) 0.3563(2) 0.2290(2)
C5 C 0.6940(2) 0.1164(2) -0.2386(1)
C6 C 0.7673(2) 0.4242(2) 0.1760(1)
C7 C 0.6855(3) 0.0126(2) -0.1270(2)
C8 C 0.7984(3) 0.5055(2) 0.2288(2)
C9 C 0.7969(3) -0.0926(2) -0.1165(2)
C10 C 0.8027(3) 0.4446(2) 0.3500(2)
C11 C 0.9829(3) 0.0373(2) -0.3791(2)
C12 C 0.6476(5) 0.1603(2) 0.3849(2)
C13 C 1.1781(3) 0.1085(2) -0.2884(2)
C14 C 0.3936(4) 0.2745(4) 0.3956(2)
C15 C 0.7165(4) -0.1790(2) -0.1521(2)
C16 C 0.9759(3) 0.3940(3) 0.3785(2)
C17 C 0.8309(4) -0.1620(2) 0.0014(2)
C18 C 0.7604(5) 0.5346(2) 0.3973(2)
C19 C 0.5854(3) 0.2204(2) -0.2361(2)
C20 C 0.7593(3) 0.5035(2) 0.0554(2)
C21 C 0.6349(3) 0.2754(2) -0.1695(2)
C22 C 0.7314(3) 0.4361(2) -0.0054(2)
C23 C 0.6710(3) 0.3231(2) -0.1161(2)
C24 C 0.7062(3) 0.3816(2) -0.0553(2)
H1 H 0.617(3) 0.135(2) -0.366(2)
H2 H 0.879(3) 0.299(2) 0.166(2)
H3 H 0.917(2) 0.192(2) -0.233(1)
H4 H 0.570(3) 0.310(2) 0.198(2)
H5 H 0.890(2) 0.229(2) -0.352(1)
H6 H 0.512(4) 0.413(2) 0.211(2)
H7 H 0.719(3) 0.045(2) -0.078(2)
H8 H 0.902(3) 0.545(2) 0.200(2)
H9 H 0.568(3) -0.018(2) -0.103(2)
H10 H 0.707(3) 0.563(2) 0.211(2)
H11 H 0.863(3) 0.006(2) -0.378(2)
H12 H 0.627(4) 0.111(3) 0.462(2)
H13 H 1.008(4) 0.110(3) -0.448(3)
H14 H 0.800(8) 0.165(6) 0.356(5)
H15 H 0.600(6) 0.107(4) 0.361(3)
H16 H 1.050(4) -0.019(2) -0.377(2)
H17 H 0.372(4) 0.220(3) 0.482(2)
H18 H 1.209(3) 0.188(2) -0.356(2)
H19 H 0.390(3) 0.364(2) 0.372(2)
H20 H 1.251(3) 0.057(2) -0.290(2)
H21 H 0.327(5) 0.246(3) 0.347(3)
H22 H 1.193(3) 0.122(2) -0.226(2)
H23 H 0.980(4) 0.365(2) 0.451(2)
H24 H 0.608(3) -0.211(2) -0.109(2)
H25 H 1.076(4) 0.455(3) 0.348(2)
H26 H 0.677(3) -0.142(2) -0.221(2)
H27 H 0.996(4) 0.348(2) 0.345(2)
H28 H 0.805(4) -0.238(3) -0.152(2)
H29 H 0.629(4) 0.553(3) 0.378(2)
H30 H 0.878(3) -0.098(2) 0.023(2)
H31 H 0.829(4) 0.608(3) 0.357(2)
H32 H 0.715(3) -0.186(2) 0.044(2)
H33 H 0.769(4) 0.508(3) 0.473(2)
H34 H 0.905(5) -0.226(3) 0.010(3)
H35 H 0.667(3) 0.566(2) 0.047(2)
H36 H 0.476(3) 0.178(2) -0.207(2)
H37 H 0.867(3) 0.550(2) 0.026(2)
H38 H 0.591(3) 0.279(2) -0.313(2)
#END
