
#######################################################################
#
#                 Cambridge Crystallographic Data Centre
#                                CCDC
#
#######################################################################
#
# If this CIF has been generated from an entry in the Cambridge
# Structural Database, then it will include bibliographic, chemical,
# crystal, experimental, refinement or atomic coordinate data resulting
# from the CCDC's data processing and validation procedures.
#
#######################################################################

data_CSD_CIF_TACWID
_audit_creation_date 1991-05-01
_audit_creation_method CSD-ConQuest-V1
_database_code_CSD TACWID
_chemical_formula_sum 'C14 H19 N5 O5'
_chemical_formula_moiety
;
C14 H19 N5 O5
;
_journal_coden_Cambridge 10
_journal_volume 73
_journal_year 1990
_journal_page_first 959
_journal_name_full 'Helv.Chim.Acta '
loop_
_publ_author_name
"J.M.Villalgordo"
"B.R.Vincent"
"H.Heimgartner"
_chemical_name_systematic
;
1-Amino-N-(2-(dimethylamino)-3,5-dinitrophenyl) cyclopentanecarboxamide
;
_chemical_melting_point 415.45
_cell_volume   3210.116
_exptl_crystal_colour 'yellow'
_exptl_crystal_density_diffrn 1.393
_exptl_special_details
;
Melting point range 415.45-416.25K

;
_diffrn_ambient_temperature ?
_diffrn_special_details
;
The study was carried out at room temperature,in the range 283-303K

;
#These two values have been output from a single CSD field.
_refine_ls_R_factor_gt 0.043
_refine_ls_wR_factor_gt 0.043
_symmetry_cell_setting monoclinic
_symmetry_space_group_name_H-M 'C 2/c'
_symmetry_Int_Tables_number 15
loop_
_symmetry_equiv_pos_site_id
_symmetry_equiv_pos_as_xyz
1 x,y,z
2 1/2+x,1/2+y,z
3 -x,y,1/2-z
4 1/2-x,1/2+y,1/2-z
5 -x,-y,-z
6 -1/2-x,-1/2-y,-z
7 x,-y,-1/2+z
8 -1/2+x,-1/2-y,-1/2+z
_cell_length_a 19.059(4)
_cell_length_b 10.967(3)
_cell_length_c 19.010(3)
_cell_angle_alpha 90
_cell_angle_beta 126.11(1)
_cell_angle_gamma 90
_cell_formula_units_Z 8
loop_
_atom_type_symbol
_atom_type_radius_bond
C 0.68
H 0.23
N 0.68
O 0.68
loop_
_atom_site_label
_atom_site_type_symbol
_atom_site_fract_x
_atom_site_fract_y
_atom_site_fract_z
C1 C 0.1131(1) -0.2240(2) 0.8429(1)
C2 C 0.1042(1) -0.3147(2) 0.8904(1)
C3 C 0.0757(1) -0.2752(2) 0.9391(1)
C4 C 0.0530(2) -0.1564(2) 0.9410(2)
C5 C 0.0638(2) -0.0725(2) 0.8944(2)
C6 C 0.0945(2) -0.1025(2) 0.8463(2)
C7 C 0.1681(2) -0.1997(2) 0.7526(2)
C8 C 0.2071(2) -0.2792(2) 0.7176(2)
C9 C 0.1879(2) -0.2305(3) 0.6326(2)
C10 C 0.2603(2) -0.2844(3) 0.6316(2)
C11 C 0.3394(2) -0.2710(4) 0.7245(2)
C12 C 0.3067(2) -0.2708(3) 0.7803(2)
C13 C 0.0656(2) -0.5335(3) 0.8756(2)
C14 C 0.2134(2) -0.4686(3) 0.9305(1)
N1 N 0.1216(1) -0.4362(2) 0.8819(1)
N2 N 0.0786(2) -0.3593(2) 1.0015(1)
N3 N 0.0448(1) 0.0562(2) 0.8982(2)
N4 N 0.1390(1) -0.2646(2) 0.7916(1)
N5 N 0.1795(2) -0.4069(2) 0.7107(2)
O1 O 0.1449(1) -0.4178(2) 1.0492(1)
O2 O 0.0174(1) -0.3609(2) 1.0054(1)
O3 O 0.0091(2) 0.0814(2) 0.9320(1)
O4 O 0.0634(2) 0.1314(2) 0.8656(2)
O5 O 0.1676(1) -0.0884(2) 0.7495(1)
H1 H 0.141(1) -0.340(2) 0.786(1)
H2 H 0.221(2) -0.456(3) 0.724(2)
H3 H 0.134(2) -0.422(2) 0.658(2)
H4 H 0.03080 -0.13350 0.97320
H5 H 0.10270 -0.04080 0.81600
H6 H 0.18970 -0.14300 0.63280
H7 H 0.13230 -0.25790 0.58340
H8 H 0.26730 -0.24000 0.59250
H9 H 0.24920 -0.36860 0.61470
H10 H 0.37830 -0.33810 0.74010
H11 H 0.36870 -0.19590 0.73160
H12 H 0.32970 -0.33950 0.81900
H13 H 0.32370 -0.19690 0.81360
H14 H 0.08570 -0.61080 0.87030
H15 H 0.00720 -0.52010 0.82540
H16 H 0.06720 -0.53350 0.92700
H17 H 0.21860 -0.55280 0.92060
H18 H 0.24140 -0.45550 0.99160
H19 H 0.24050 -0.41870 0.91130
#END
