
#######################################################################
#
#                 Cambridge Crystallographic Data Centre
#                                CCDC
#
#######################################################################
#
# If this CIF has been generated from an entry in the Cambridge
# Structural Database, then it will include bibliographic, chemical,
# crystal, experimental, refinement or atomic coordinate data resulting
# from the CCDC's data processing and validation procedures.
#
#######################################################################

data_CSD_CIF_TACWOJ
_audit_creation_date 1991-05-01
_audit_creation_method CSD-ConQuest-V1
_database_code_CSD TACWOJ
_chemical_formula_sum 'C14 H17 N5 O4'
_chemical_formula_moiety
;
C14 H17 N5 O4
;
_journal_coden_Cambridge 10
_journal_volume 73
_journal_year 1990
_journal_page_first 959
_journal_name_full 'Helv.Chim.Acta '
loop_
_publ_author_name
"J.M.Villalgordo"
"B.R.Vincent"
"H.Heimgartner"
_chemical_name_systematic
;
2'-(Dimethylamino)-3',4'-dihydro-5',7'-dinitrospiro(cyclopentane-1,3'-quinazol
ine)
;
_chemical_melting_point 438.55
_cell_volume    748.615
_exptl_crystal_colour 'red'
_exptl_crystal_density_diffrn 1.416
_exptl_special_details
;
Melting point range 438.55-439.55K

;
_diffrn_ambient_temperature ?
_diffrn_special_details
;
The study was carried out at room temperature,in the range 283-303K

;
#These two values have been output from a single CSD field.
_refine_ls_R_factor_gt 0.059
_refine_ls_wR_factor_gt 0.059
_symmetry_cell_setting triclinic
_symmetry_space_group_name_H-M 'P -1'
_symmetry_Int_Tables_number 2
loop_
_symmetry_equiv_pos_site_id
_symmetry_equiv_pos_as_xyz
1 x,y,z
2 -x,-y,-z
_cell_length_a 8.867(4)
_cell_length_b 11.413(5)
_cell_length_c 8.214(4)
_cell_angle_alpha 105.37(3)
_cell_angle_beta 107.18(4)
_cell_angle_gamma 74.21(5)
_cell_formula_units_Z 2
loop_
_atom_type_symbol
_atom_type_radius_bond
C 0.68
H 0.23
N 0.68
O 0.68
loop_
_atom_site_label
_atom_site_type_symbol
_atom_site_fract_x
_atom_site_fract_y
_atom_site_fract_z
C1 C 0.3785(3) -0.2099(2) 0.7252(3)
N1 N 0.3193(3) -0.0975(2) 0.6487(3)
C2 C 0.1952(3) -0.0077(2) 0.6852(3)
C3 C 0.1605(3) 0.1167(2) 0.6657(3)
C4 C 0.0284(3) 0.2032(2) 0.7056(3)
C5 C -0.0727(3) 0.1651(2) 0.7649(3)
C6 C -0.0479(3) 0.0429(2) 0.7845(3)
C7 C 0.0840(3) -0.0432(2) 0.7449(3)
N2 N 0.1000(2) -0.1666(2) 0.7527(3)
C8 C 0.2314(3) -0.2466(2) 0.7371(3)
C9 C 0.4953(3) -0.1824(3) 0.9041(3)
C10 C 0.6532(3) -0.2042(3) 0.8573(4)
C11 C 0.6539(3) -0.3214(3) 0.7186(4)
C12 C 0.4830(3) -0.3052(2) 0.6071(4)
N3 N 0.2657(3) 0.1612(2) 0.6041(3)
O1 O 0.3670(3) 0.0855(2) 0.5364(3)
O2 O 0.2493(3) 0.2736(2) 0.6215(4)
N4 N -0.2154(3) 0.2543(2) 0.8014(3)
O3 O -0.3168(3) 0.2159(2) 0.8301(3)
O4 O -0.2291(3) 0.3636(2) 0.8008(3)
N5 N 0.2344(2) -0.3666(2) 0.7319(2)
C13 C 0.0851(4) -0.3973(3) 0.7279(5)
C14 C 0.3758(3) -0.4585(2) 0.7925(4)
H1 H 0.377(3) -0.074(2) 0.607(3)
H2 H 0.00850 0.28730 0.69200
H3 H -0.12380 0.01970 0.82570
H4 H 0.49960 -0.23830 0.97440
H5 H 0.46510 -0.09780 0.96520
H6 H 0.74190 -0.21500 0.95640
H7 H 0.72960 -0.33000 0.65110
H8 H 0.68020 -0.39300 0.76880
H9 H 0.47640 -0.27420 0.50750
H10 H 0.44830 -0.38330 0.56860
H11 H 0.10300 -0.48470 0.72480
H12 H 0.00520 -0.37820 0.62580
H13 H 0.04820 -0.34940 0.83050
H14 H 0.47160 -0.43470 0.79250
H15 H 0.36950 -0.53890 0.71620
H16 H 0.37920 -0.46230 0.90890
#END
