
#######################################################################
#
#                 Cambridge Crystallographic Data Centre
#                                CCDC
#
#######################################################################
#
# If this CIF has been generated from an entry in the Cambridge
# Structural Database, then it will include bibliographic, chemical,
# crystal, experimental, refinement or atomic coordinate data resulting
# from the CCDC's data processing and validation procedures.
#
#######################################################################

data_CSD_CIF_TADVEA
_audit_creation_date 2003-08-14
_audit_creation_method CSD-ConQuest-V1
_database_code_CSD TADVEA
_database_code_depnum_ccdc_archive 'CCDC 214841'
_chemical_formula_sum 'C9 H13 N1 O5'
_chemical_formula_moiety
;
C9 H13 N1 O5
;
_journal_coeditor_code "IUCr DN6072"
_journal_coden_Cambridge 1370
_journal_volume 59
_journal_year 2003
_journal_page_first o841
_journal_name_full 'Acta Crystallogr.,Sect.E:Struct.Rep.Online '
loop_
_publ_author_name
"A.J.Blake"
"H.McNab"
"K.Withell"
_chemical_name_systematic
;
2,2-Dimethyl-5-(N-methyl-N-methoxyaminomethylene)-1,3-dioxane-4,6-dione
;
_cell_volume    518.353
_exptl_crystal_colour 'colorless'
_exptl_crystal_density_diffrn 1.379
_exptl_crystal_description 'cube'
_exptl_crystal_preparation 'ethanol'
_diffrn_ambient_temperature 150
#These two values have been output from a single CSD field.
_refine_ls_R_factor_gt 0.0435
_refine_ls_wR_factor_gt 0.0435
_symmetry_cell_setting triclinic
_symmetry_space_group_name_H-M 'P -1'
_symmetry_Int_Tables_number 2
loop_
_symmetry_equiv_pos_site_id
_symmetry_equiv_pos_as_xyz
1 x,y,z
2 -x,-y,-z
_cell_length_a 6.477(5)
_cell_length_b 7.769(5)
_cell_length_c 11.675(12)
_cell_angle_alpha 98.04(7)
_cell_angle_beta 100.50(7)
_cell_angle_gamma 112.71(5)
_cell_formula_units_Z 2
loop_
_atom_type_symbol
_atom_type_radius_bond
C 0.68
H 0.23
N 0.68
O 0.68
loop_
_atom_site_label
_atom_site_type_symbol
_atom_site_fract_x
_atom_site_fract_y
_atom_site_fract_z
O1 O -0.0150(3) 1.2135(2) 0.23415(15)
C1 C -0.0116(5) 1.1785(3) 0.3508(2)
C2 C 0.2275(5) 1.2909(4) 0.4349(2)
H1 H 0.22450 1.26760 0.51340
H2 H 0.27430 1.42530 0.43890
H3 H 0.33550 1.25120 0.40600
C3 C -0.1916(5) 1.2329(4) 0.3897(3)
H4 H -0.19410 1.21580 0.46940
H5 H -0.34100 1.15280 0.33600
H6 H -0.15450 1.36470 0.38860
O2 O -0.0887(3) 0.9764(2) 0.34389(16)
C4 C 0.0039(4) 0.8786(4) 0.2788(2)
O3 O -0.0448(3) 0.7140(2) 0.28763(17)
C5 C 0.1327(4) 0.9775(3) 0.2019(2)
C6 C 0.0990(4) 1.1398(3) 0.1683(2)
O4 O 0.1558(3) 1.2128(2) 0.08764(16)
C7 C 0.2555(4) 0.9123(3) 0.1341(2)
H7 H 0.28310 0.97020 0.07060
N1 N 0.3388(4) 0.7853(3) 0.14329(19)
C8 C 0.3595(5) 0.6835(4) 0.2379(3)
H8 H 0.23180 0.55900 0.21640
H9 H 0.35800 0.75510 0.31160
H10 H 0.50230 0.66960 0.24800
O5 O 0.4618(3) 0.7640(2) 0.05947(17)
C9 C 0.3105(5) 0.6064(4) -0.0407(2)
H11 H 0.39580 0.59150 -0.09760
H12 H 0.18420 0.63220 -0.07810
H13 H 0.25100 0.49060 -0.01300
#END
