
#######################################################################
#
#                 Cambridge Crystallographic Data Centre
#                                CCDC
#
#######################################################################
#
# If this CIF has been generated from an entry in the Cambridge
# Structural Database, then it will include bibliographic, chemical,
# crystal, experimental, refinement or atomic coordinate data resulting
# from the CCDC's data processing and validation procedures.
#
#######################################################################

data_CSD_CIF_TAFCEI
_audit_creation_date 1991-05-01
_audit_creation_method CSD-ConQuest-V1
_database_code_CSD TAFCEI
_chemical_formula_sum 'C18 H12 N4 O6'
_chemical_formula_moiety
;
C18 H12 N4 O6
;
_journal_coden_Cambridge 41
_journal_volume 34
_journal_year 1989
_journal_page_first 87
_journal_name_full 'Kristallografiya(Russ.)(Crystallogr.Rep.) '
loop_
_publ_author_name
"G.V.Gridunova"
"V.E.Shklover"
"Yu.T.Struchkov"
"I.G.Il'ina"
"O.V.Mikhalev"
"V.I.Potapov"
_chemical_name_systematic
;
N-Picryl-(4-phenyl)-aniline
;
_cell_volume   1652.894
_exptl_crystal_colour 'dark red'
_exptl_crystal_density_diffrn 1.53
_exptl_special_details
;
z(C6) is 0.0988, not 0.0098

;
_diffrn_ambient_temperature ?
_diffrn_special_details
;
The study was carried out at room temperature,in the range 283-303K

;
#These two values have been output from a single CSD field.
_refine_ls_R_factor_gt 0.054
_refine_ls_wR_factor_gt 0.054
_symmetry_cell_setting monoclinic
_symmetry_space_group_name_H-M 'P 21/c'
_symmetry_Int_Tables_number 14
loop_
_symmetry_equiv_pos_site_id
_symmetry_equiv_pos_as_xyz
1 x,y,z
2 -x,1/2+y,1/2-z
3 -x,-y,-z
4 x,-1/2-y,-1/2+z
_cell_length_a 15.499(1)
_cell_length_b 8.370(1)
_cell_length_c 13.391(1)
_cell_angle_alpha 90
_cell_angle_beta 107.92(3)
_cell_angle_gamma 90
_cell_formula_units_Z 4
loop_
_atom_type_symbol
_atom_type_radius_bond
C 0.68
H 0.23
N 0.68
O 0.68
loop_
_atom_site_label
_atom_site_type_symbol
_atom_site_fract_x
_atom_site_fract_y
_atom_site_fract_z
O1 O 0.3797(2) 0.3169(3) 0.0064(3)
O2 O 0.5108(2) 0.3743(4) 0.1184(3)
O3 O 0.6829(2) -0.2701(4) 0.2657(3)
O4 O 0.7305(2) -0.0447(4) 0.2237(3)
O5 O 0.3517(2) -0.3980(3) 0.1197(3)
O6 O 0.3156(2) -0.2921(4) -0.0354(2)
N1 N 0.3066(2) 0.0406(4) 0.0388(3)
N2 N 0.4518(2) 0.2785(4) 0.0738(3)
N3 N 0.6699(2) -0.1383(4) 0.2238(3)
N4 N 0.3574(2) -0.2941(4) 0.0584(3)
C1 C 0.3934(3) 0.0002(5) 0.0757(3)
C2 C 0.4679(3) 0.1084(5) 0.0998(3)
C3 C 0.5562(3) 0.0663(5) 0.1460(3)
C4 C 0.5762(3) -0.0930(5) 0.1718(3)
H1 H 0.294(3) 0.134(5) 0.012(4)
H2 H 0.610(3) 0.136(5) 0.161(4)
H3 H 0.520(3) -0.335(5) 0.152(4)
H4 H 0.159(3) -0.009(5) -0.096(3)
H5 H 0.025(3) -0.135(5) -0.066(3)
H6 H 0.172(3) -0.227(5) 0.236(4)
C5 C 0.5097(3) -0.2091(5) 0.1477(3)
C6 C 0.4220(3) -0.1622(5) 0.0988(3)
C7 C 0.2305(3) -0.0446(5) 0.0530(3)
C8 C 0.1526(3) -0.0568(6) -0.0294(3)
C9 C 0.0776(3) -0.1306(6) -0.0156(4)
C10 C 0.0785(3) -0.1961(5) 0.0815(4)
C11 C 0.1610(3) -0.1837(5) 0.1641(4)
C12 C 0.2349(3) -0.1085(5) 0.1502(3)
C13 C -0.0038(3) -0.2679(5) 0.0960(4)
C14 C -0.0222(3) -0.2546(6) 0.1927(4)
C15 C -0.1004(3) -0.3175(6) 0.2041(1)
C16 C -0.1639(3) -0.3928(6) 0.1212(4)
C17 C -0.1455(3) -0.4074(6) 0.0268(4)
C18 C -0.0666(3) -0.3468(6) 0.0136(4)
H7 H 0.293(3) -0.092(5) 0.209(3)
H8 H 0.029(3) -0.202(5) 0.254(4)
H9 H -0.112(3) -0.294(5) 0.268(4)
H10 H -0.221(3) -0.435(5) 0.129(3)
H11 H -0.192(3) -0.456(5) -0.028(3)
H12 H -0.061(3) -0.364(5) -0.056(4)
#END
