
#######################################################################
#
#                 Cambridge Crystallographic Data Centre
#                                CCDC
#
#######################################################################
#
# If this CIF has been generated from an entry in the Cambridge
# Structural Database, then it will include bibliographic, chemical,
# crystal, experimental, refinement or atomic coordinate data resulting
# from the CCDC's data processing and validation procedures.
#
#######################################################################

data_CSD_CIF_TAFCAE
_audit_creation_date 1991-04-30
_audit_creation_method CSD-ConQuest-V1
_database_code_CSD TAFCAE
_database_code_depnum_ccdc_archive 'CCDC 1265342'
_chemical_formula_sum 'C24 H17 N5 O6'
_chemical_formula_moiety
;
C24 H17 N5 O6
;
_journal_coden_Cambridge 41
_journal_volume 34
_journal_year 1989
_journal_page_first 87
_journal_name_full 'Kristallografiya(Russ.)(Crystallogr.Rep.) '
loop_
_publ_author_name
"G.V.Gridunova"
"V.E.Shklover"
"Yu.T.Struchkov"
"I.G.Il'ina"
"O.V.Mikhalev"
"V.I.Potapov"
_chemical_name_systematic
;
N-Picryl-(4-diphenylamino)-aniline
;
_cell_volume   1078.383
_exptl_crystal_colour 'claret red'
_exptl_crystal_density_diffrn 1.45
_diffrn_ambient_temperature ?
_diffrn_special_details
;
The study was carried out at room temperature,in the range 283-303K

;
#These two values have been output from a single CSD field.
_refine_ls_R_factor_gt 0.04
_refine_ls_wR_factor_gt 0.04
_symmetry_cell_setting triclinic
_symmetry_space_group_name_H-M 'P -1'
_symmetry_Int_Tables_number 2
loop_
_symmetry_equiv_pos_site_id
_symmetry_equiv_pos_as_xyz
1 x,y,z
2 -x,-y,-z
_cell_length_a 8.704(1)
_cell_length_b 10.153(1)
_cell_length_c 12.743(2)
_cell_angle_alpha 96.02(1)
_cell_angle_beta 97.93(1)
_cell_angle_gamma 102.48(1)
_cell_formula_units_Z 2
loop_
_atom_type_symbol
_atom_type_radius_bond
C 0.68
H 0.23
N 0.68
O 0.68
loop_
_atom_site_label
_atom_site_type_symbol
_atom_site_fract_x
_atom_site_fract_y
_atom_site_fract_z
O1 O 0.4757(3) 0.4583(3) 0.8736(2)
O2 O 0.5029(3) 0.6746(3) 0.9141(2)
O3 O 1.2252(3) 0.8854(4) 1.0363(3)
O4 O 1.0175(4) 0.9303(3) 1.0920(2)
O5 O 1.1514(3) 0.5106(3) 0.7395(2)
O6 O 1.0236(3) 0.3383(3) 0.8044(2)
N1 N 0.7009(3) 0.3920(3) 0.7710(2)
N2 N 0.5575(4) 0.5754(3) 0.8945(2)
N3 N 1.0835(4) 0.8622(4) 1.0369(3)
N4 N 1.0516(3) 0.4575(3) 0.7907(2)
N5 N 0.8959(3) 0.1710(3) 0.4042(2)
C1 C 0.7932(4) 0.5049(3) 0.8339(3)
C2 C 0.7299(4) 0.5973(4) 0.8973(3)
C3 C 0.8212(4) 0.7135(4) 0.9617(3)
C4 C 0.9828(4) 0.7427(4) 0.9647(3)
C5 C 1.0543(4) 0.6616(4) 0.9042(3)
C6 C 0.9618(4) 0.5459(4) 0.8429(3)
C7 C 0.7375(4) 0.3327(4) 0.6731(3)
H1 H 0.602(4) 0.360(3) 0.788(3)
H2 H 0.765(4) 0.770(3) 0.997(3)
H3 H 1.167(4) 0.681(3) 0.910(3)
H4 H 0.677(4) 0.134(3) 0.697(3)
H5 H 0.744(4) 0.044(3) 0.544(3)
H6 H 0.882(4) 0.416(3) 0.467(3)
H7 H 0.797(4) 0.513(3) 0.617(3)
H8 H 1.124(4) 0.285(3) 0.563(3)
H9 H 1.391(4) 0.349(3) 0.569(3)
C8 C 0.7142(5) 0.1937(4) 0.6500(3)
C9 C 0.7614(5) 0.1386(4) 0.5589(3)
C10 C 0.8296(4) 0.2233(3) 0.4917(3)
C11 C 0.8396(4) 0.3611(4) 0.5113(3)
C12 C 0.7941(4) 0.4167(3) 0.6026(3)
C13 C 1.0621(4) 0.2050(4) 0.4068(3)
C14 C 1.1651(4) 0.2688(4) 0.5001(3)
C15 C 1.3277(4) 0.3011(4) 0.5013(3)
C16 C 1.3897(4) 0.2701(5) 0.4122(4)
C17 C 1.2901(5) 0.2071(4) 0.3193(3)
C18 C 1.1259(4) 0.1736(4) 0.3156(3)
C19 C 0.7908(4) 0.0768(4) 0.3199(3)
C20 C 0.8062(4) -0.0549(4) 0.3001(3)
C21 C 0.7033(4) -0.1449(4) 0.2185(3)
C22 C 0.5868(4) -0.1034(4) 0.1573(3)
C23 C 0.5720(4) 0.0282(4) 0.1757(3)
C24 C 0.6735(4) 0.1177(4) 0.2570(3)
H10 H 1.490(4) 0.296(3) 0.412(3)
H11 H 1.331(4) 0.184(3) 0.256(3)
H12 H 1.062(4) 0.132(3) 0.252(3)
H13 H 0.878(4) -0.079(3) 0.343(3)
H14 H 0.715(4) -0.228(3) 0.208(3)
H15 H 0.516(4) -0.163(3) 0.102(3)
H16 H 0.498(4) 0.057(3) 0.133(3)
H17 H 0.664(4) 0.206(3) 0.270(3)
#END
