
#######################################################################
#
#                 Cambridge Crystallographic Data Centre
#                                CCDC
#
#######################################################################
#
# If this CIF has been generated from an entry in the Cambridge
# Structural Database, then it will include bibliographic, chemical,
# crystal, experimental, refinement or atomic coordinate data resulting
# from the CCDC's data processing and validation procedures.
#
#######################################################################

data_CSD_CIF_TAFFUE
_audit_creation_date 2016-02-10
_audit_creation_method CSD-ConQuest-V1
_database_code_CSD TAFFUE
_database_code_depnum_ccdc_archive 'CCDC 1418733'
_chemical_formula_sum 'C19 H20 N2 O4'
_chemical_formula_moiety
;
C19 H20 N2 O4
;
_journal_coden_Cambridge 1336
_journal_volume 18
_journal_year 2016
_journal_page_first 412
_journal_name_full 'Org.Lett. '
loop_
_publ_author_name
"P.Sharma"
"Rai-Shung Liu"
_chemical_name_systematic
;
ethyl 4-(5-hydroxy-5-methyl-3-(phenylimino)-1,2-oxazolidin-2-yl)benzoate
;
_cell_volume    925.519
_exptl_crystal_colour 'colorless'
_exptl_crystal_density_diffrn 1.221
_exptl_crystal_description 'Tabular'
_diffrn_ambient_temperature 296
#These two values have been output from a single CSD field.
_refine_ls_R_factor_gt 0.048
_refine_ls_wR_factor_gt 0.048
_symmetry_cell_setting triclinic
_symmetry_space_group_name_H-M 'P -1'
_symmetry_Int_Tables_number 2
loop_
_symmetry_equiv_pos_site_id
_symmetry_equiv_pos_as_xyz
1 x,y,z
2 -x,-y,-z
_cell_length_a 8.649(4)
_cell_length_b 10.568(5)
_cell_length_c 10.973(5)
_cell_angle_alpha 68.729(8)
_cell_angle_beta 83.120(8)
_cell_angle_gamma 83.699(8)
_cell_formula_units_Z 2
loop_
_atom_type_symbol
_atom_type_radius_bond
C 0.68
H 0.23
N 0.68
O 0.68
loop_
_atom_site_label
_atom_site_type_symbol
_atom_site_fract_x
_atom_site_fract_y
_atom_site_fract_z
C1 C 0.2579(2) 0.2058(2) 0.5824(2)
C2 C 0.2504(4) 0.0705(3) 0.6522(3)
H1 H 0.26150 0.03770 0.74190
C3 C 0.2266(4) -0.0190(3) 0.5917(3)
H2 H 0.22480 -0.11150 0.64070
C4 C 0.2059(3) 0.0257(3) 0.4634(3)
H3 H 0.18880 -0.03470 0.42320
C5 C 0.2103(4) 0.1597(3) 0.3940(3)
H4 H 0.19590 0.19180 0.30490
C6 C 0.2360(3) 0.2503(2) 0.4523(2)
H5 H 0.23830 0.34250 0.40240
C7 C 0.4134(2) 0.32900(18) 0.64970(18)
C8 C 0.5699(2) 0.2774(2) 0.6021(2)
H6 H 0.57190 0.18110 0.61650
H7 H 0.59540 0.32720 0.50960
C9 C 0.6803(2) 0.3036(2) 0.6854(2)
C10 C 0.8447(3) 0.3358(2) 0.6270(3)
H8 H 0.90070 0.35360 0.68880
H9 H 0.84160 0.41460 0.54800
H10 H 0.89640 0.25970 0.60690
C11 C 0.3500(2) 0.49647(17) 0.77067(17)
C12 C 0.4176(3) 0.5660(2) 0.8344(2)
H11 H 0.52550 0.55980 0.83610
C13 C 0.3236(3) 0.6441(2) 0.8951(2)
H12 H 0.36980 0.68870 0.93890
C14 C 0.1629(2) 0.65800(18) 0.89272(18)
C15 C 0.0974(2) 0.58803(19) 0.82855(18)
H13 H -0.01040 0.59520 0.82630
C16 C 0.1880(2) 0.5083(2) 0.76809(19)
H14 H 0.14130 0.46250 0.72570
C17 C 0.0691(3) 0.7461(2) 0.95638(19)
C18 C -0.1828(3) 0.8508(2) 0.9919(2)
H15 H -0.15150 0.94350 0.95830
H16 H -0.17720 0.81470 1.08620
C19 C -0.3438(3) 0.8482(3) 0.9602(3)
H17 H -0.35170 0.89610 0.86800
H18 H -0.41590 0.89130 1.00930
H19 H -0.36820 0.75560 0.98270
N1 N 0.2752(2) 0.30048(17) 0.64387(17)
N2 N 0.44452(19) 0.41813(16) 0.70852(16)
O1 O 0.67367(19) 0.19507(14) 0.80478(15)
H20 H 0.73120 0.20640 0.85360
O2 O 0.60817(16) 0.42756(13) 0.70433(14)
O3 O 0.1196(2) 0.79816(18) 1.02365(18)
O4 O -0.07972(17) 0.76675(13) 0.93039(13)
#END
