
#######################################################################
#
#                 Cambridge Crystallographic Data Centre
#                                CCDC
#
#######################################################################
#
# If this CIF has been generated from an entry in the Cambridge
# Structural Database, then it will include bibliographic, chemical,
# crystal, experimental, refinement or atomic coordinate data resulting
# from the CCDC's data processing and validation procedures.
#
#######################################################################

data_CSD_CIF_TAFFEL
_audit_creation_date 1991-05-01
_audit_creation_method CSD-ConQuest-V1
_database_code_CSD TAFFEL
_chemical_formula_sum 'C14 H10 N2 O4'
_chemical_formula_moiety
;
C14 H10 N2 O4
;
_journal_coden_Cambridge 35
_journal_volume 55
_journal_year 1990
_journal_page_first 4322
_journal_name_full 'J.Org.Chem. '
loop_
_publ_author_name
"G.L.Squadrito"
"F.R.Fronczek"
"S.F.Watkins"
"D.F.Church"
"W.A.Pryor"
_chemical_name_systematic
;
cis-9,10-Dinitro-9,10-dihydroanthracene
;
_cell_volume   1212.508
_exptl_crystal_colour 'colorless'
_exptl_crystal_density_diffrn 1.48
_diffrn_ambient_temperature ?
_diffrn_special_details
;
The study was carried out at room temperature,in the range 283-303K

;
_refine_special_details
;
One of the nitrate groups is equally disordered over two positions.

;
#These two values have been output from a single CSD field.
_refine_ls_R_factor_gt 0.06
_refine_ls_wR_factor_gt 0.06
loop_
_citation_database_id_CSD
_citation_special_details
TAFFIP "is a stereoisomer of this entry"
_symmetry_cell_setting orthorhombic
_symmetry_space_group_name_H-M 'P n m a'
_symmetry_Int_Tables_number 62
loop_
_symmetry_equiv_pos_site_id
_symmetry_equiv_pos_as_xyz
1 x,y,z
2 1/2-x,1/2+y,1/2+z
3 x,1/2-y,z
4 1/2-x,-y,1/2+z
5 -x,-y,-z
6 -1/2+x,-1/2-y,-1/2-z
7 -x,-1/2+y,-z
8 -1/2+x,y,-1/2-z
_cell_length_a 7.368(1)
_cell_length_b 15.163(1)
_cell_length_c 10.853(1)
_cell_angle_alpha 90
_cell_angle_beta 90
_cell_angle_gamma 90
_cell_formula_units_Z 4
loop_
_atom_type_symbol
_atom_type_radius_bond
C 0.68
H 0.23
N 0.68
O 0.38
loop_
_atom_site_label
_atom_site_type_symbol
_atom_site_fract_x
_atom_site_fract_y
_atom_site_fract_z
O1? O 0.3459(4) 0.2772(4) 0.1071(3)
O2 O 0.2164(4) 0.2147(3) -0.0415(3)
O3 O -0.0839(3) 0.3202(1) -0.2296(2)
N1 N 0.2170(3) 0.25000 0.0608(2)
N2 N -0.1169(4) 0.25000 -0.1828(2)
C1 C 0.0374(4) 0.25000 0.1346(2)
C2 C -0.0648(2) 0.3328(1) 0.1047(2)
C3 C -0.1920(3) 0.3324(1) 0.0098(2)
C4 C -0.2292(4) 0.25000 -0.0605(2)
C5 C -0.0343(3) 0.4103(2) 0.1711(2)
C6 C -0.1289(3) 0.4864(2) 0.1412(2)
C7 C -0.2518(4) 0.4865(2) 0.0485(2)
C8 C -0.2863(3) 0.4101(2) -0.0175(2)
H1 H 0.092(4) 0.25000 0.216(3)
H2 H -0.353(5) 0.25000 -0.096(3)
H3 H 0.050(3) 0.407(2) 0.237(3)
H4 H -0.121(4) 0.533(1) 0.183(2)
H5 H -0.308(3) 0.534(1) 0.021(2)
H6 H -0.377(3) 0.415(1) -0.083(2)
O2B O 0.2164(4) 0.2853(3) -0.0415(3)
C2B C -0.0648(2) 0.1672(1) 0.1047(2)
C3B C -0.1920(3) 0.1676(1) 0.0098(2)
O3B O -0.0839(3) 0.1798(1) -0.2296(2)
C5B C -0.0343(3) 0.0897(2) 0.1711(2)
C8B C -0.2863(3) 0.0899(2) -0.0175(2)
C6B C -0.1289(3) 0.0136(2) 0.1412(2)
H3B H 0.050(3) 0.093(2) 0.237(3)
C7B C -0.2518(4) 0.0135(2) 0.0485(2)
H6B H -0.377(3) 0.085(1) -0.083(2)
H4B H -0.121(4) -0.033(1) 0.183(2)
H5B H -0.308(3) -0.034(1) 0.021(2)
#END
