
#######################################################################
#
#                 Cambridge Crystallographic Data Centre
#                                CCDC
#
#######################################################################
#
# If this CIF has been generated from an entry in the Cambridge
# Structural Database, then it will include bibliographic, chemical,
# crystal, experimental, refinement or atomic coordinate data resulting
# from the CCDC's data processing and validation procedures.
#
#######################################################################

data_CSD_CIF_TAFKET01
_audit_creation_date 2016-02-10
_audit_creation_method CSD-ConQuest-V1
_database_code_CSD TAFKET01
_database_code_depnum_ccdc_archive 'CCDC 1452768'
_chemical_formula_sum 'C22 H30 N2 O2'
_chemical_formula_moiety
;
C22 H30 N2 O2
;
_journal_coden_Cambridge 1078
_journal_year 2016
_journal_name_full 'CSD Communication(Private Communication) '
loop_
_publ_author_name
"T.Y.K.Ishida"
_chemical_name_systematic
;
N,N'-di-t-butyl-2',5'-dimethylbiphenyl-3,5-diamine N,N'-dioxide
;
_chemical_melting_point 382
_cell_volume   4039.313
_exptl_crystal_colour 'red'
_exptl_crystal_density_diffrn 1.166
_exptl_special_details
;
Magnetic properties
beta polymorph

;
_exptl_crystal_description 'prism'
_exptl_crystal_preparation 'Re-crystallisation from solvent'
_diffrn_ambient_temperature 100
#These two values have been output from a single CSD field.
_refine_ls_R_factor_gt 0.0621
_refine_ls_wR_factor_gt 0.0621
_symmetry_cell_setting monoclinic
_symmetry_space_group_name_H-M 'C 2/c'
_symmetry_Int_Tables_number 15
loop_
_symmetry_equiv_pos_site_id
_symmetry_equiv_pos_as_xyz
1 x,y,z
2 -x,y,1/2-z
3 1/2+x,1/2+y,z
4 1/2-x,1/2+y,1/2-z
5 -x,-y,-z
6 x,-y,-1/2+z
7 -1/2-x,-1/2-y,-z
8 -1/2+x,-1/2-y,-1/2+z
_cell_length_a 33.255(8)
_cell_length_b 5.9206(11)
_cell_length_c 22.178(5)
_cell_angle_alpha 90
_cell_angle_beta 112.325(11)
_cell_angle_gamma 90
_cell_formula_units_Z 8
loop_
_atom_type_symbol
_atom_type_radius_bond
C 0.68
H 0.23
N 0.68
O 0.68
loop_
_atom_site_label
_atom_site_type_symbol
_atom_site_fract_x
_atom_site_fract_y
_atom_site_fract_z
O1 O 0.55312(4) 0.3198(2) -0.08950(6)
O2 O 0.59994(4) 0.0953(2) 0.19899(6)
N1 N 0.58527(5) 0.1815(2) -0.07560(7)
N2 N 0.58346(4) 0.1842(2) 0.14149(7)
C1 C 0.60685(6) 0.1232(3) -0.00901(8)
C2 C 0.58478(6) 0.1752(3) 0.03158(9)
C3 C 0.60421(6) 0.1352(3) 0.09806(8)
C4 C 0.64608(6) 0.0398(3) 0.12404(9)
C5 C 0.66810(6) -0.0115(3) 0.08375(9)
C6 C 0.64850(6) 0.0283(3) 0.01690(9)
C7 C 0.71353(6) -0.1017(3) 0.11430(8)
C8 C 0.72721(6) -0.2991(3) 0.09288(9)
C9 C 0.76936(6) -0.3745(4) 0.12772(9)
C10 C 0.79768(6) -0.2610(3) 0.18162(9)
C11 C 0.78482(6) -0.0636(3) 0.20302(9)
C12 C 0.74255(6) 0.0127(3) 0.16872(9)
C13 C 0.69815(8) -0.4356(4) 0.03526(12)
C14 C 0.81504(8) 0.0625(4) 0.26153(11)
C15 C 0.59651(6) 0.0997(3) -0.13178(8)
C16 C 0.55725(7) 0.1477(4) -0.19385(9)
C17 C 0.63561(7) 0.2320(4) -0.13257(11)
C18 C 0.60451(8) -0.1549(3) -0.12700(11)
C19 C 0.54436(6) 0.3364(3) 0.12653(8)
C20 C 0.53935(8) 0.3867(4) 0.19085(10)
C21 C 0.50354(6) 0.2140(4) 0.0810(1)
C22 C 0.55244(7) 0.5611(3) 0.09880(11)
H1 H 0.5560(5) 0.243(3) 0.0116(7)
H2 H 0.6574(5) 0.012(3) 0.1711(9)
H3 H 0.6647(5) 0.004(2) -0.0113(8)
H4 H 0.7787(6) -0.510(3) 0.1156(9)
H5 H 0.8278(6) -0.324(3) 0.2059(8)
H6 H 0.7326(5) 0.148(3) 0.1833(8)
H7 H 0.6674(7) -0.435(3) 0.0331(10)
H8 H 0.7000(7) -0.372(4) -0.0069(11)
H9 H 0.7075(6) -0.593(4) 0.0403(10)
H10 H 0.8224(8) 0.206(5) 0.2526(13)
H11 H 0.8045(10) 0.079(5) 0.2951(15)
H12 H 0.8448(10) -0.026(5) 0.2862(14)
H13 H 0.5505(5) 0.308(3) -0.1980(8)
H14 H 0.5647(6) 0.097(3) -0.2315(9)
H15 H 0.5314(6) 0.057(3) -0.1945(9)
H16 H 0.6297(5) 0.390(3) -0.1375(8)
H17 H 0.6629(6) 0.207(3) -0.0917(9)
H18 H 0.6416(6) 0.180(3) -0.1719(10)
H19 H 0.5808(7) -0.236(3) -0.1208(9)
H20 H 0.6052(6) -0.205(3) -0.1674(9)
H21 H 0.6310(6) -0.201(3) -0.0924(9)
H22 H 0.5324(6) 0.251(3) 0.2095(9)
H23 H 0.5137(6) 0.494(3) 0.1791(8)
H24 H 0.5672(7) 0.462(3) 0.2223(11)
H25 H 0.4993(6) 0.073(3) 0.0988(9)
H26 H 0.4772(6) 0.316(3) 0.0727(8)
H27 H 0.5044(6) 0.182(3) 0.0368(10)
H28 H 0.5554(6) 0.549(3) 0.0553(11)
H29 H 0.5260(6) 0.663(3) 0.0927(8)
H30 H 0.5797(7) 0.641(3) 0.1295(10)
#END
