
#######################################################################
#
#                 Cambridge Crystallographic Data Centre
#                                CCDC
#
#######################################################################
#
# If this CIF has been generated from an entry in the Cambridge
# Structural Database, then it will include bibliographic, chemical,
# crystal, experimental, refinement or atomic coordinate data resulting
# from the CCDC's data processing and validation procedures.
#
#######################################################################

data_CSD_CIF_TAFKAM
_audit_creation_date 1991-05-01
_audit_creation_method CSD-ConQuest-V1
_database_code_CSD TAFKAM
_chemical_formula_sum 'C4 H6 N4 O1'
_chemical_formula_moiety
;
C4 H6 N4 O1
;
_journal_coeditor_code "IUCr HH0259"
_journal_coden_Cambridge 591
_journal_volume 46
_journal_year 1990
_journal_page_first 1853
_journal_name_full 'Acta Crystallogr.,Sect.C:Cryst.Struct.Commun. '
loop_
_publ_author_name
"C.K.Lowe-Ma"
"J.W.Fischer"
"R.L.Willer"
_chemical_name_systematic
;
4,5,6,7-Tetrahydro-1,2,5-oxadiazolo(3,4,-b)pyrazine
;
_cell_volume    541.375
_exptl_crystal_colour 'colorless'
_exptl_crystal_density_diffrn 1.55
_diffrn_ambient_temperature ?
_diffrn_special_details
;
The study was carried out at room temperature,in the range 283-303K

;
#These two values have been output from a single CSD field.
_refine_ls_R_factor_gt 0.04
_refine_ls_wR_factor_gt 0.04
_symmetry_cell_setting monoclinic
_symmetry_space_group_name_H-M 'P 21/n'
_symmetry_Int_Tables_number 14
loop_
_symmetry_equiv_pos_site_id
_symmetry_equiv_pos_as_xyz
1 x,y,z
2 1/2-x,1/2+y,1/2-z
3 -x,-y,-z
4 -1/2+x,-1/2-y,-1/2+z
_cell_length_a 6.584(1)
_cell_length_b 7.105(1)
_cell_length_c 11.784(2)
_cell_angle_alpha 90
_cell_angle_beta 100.86(1)
_cell_angle_gamma 90
_cell_formula_units_Z 4
loop_
_atom_type_symbol
_atom_type_radius_bond
C 0.68
H 0.23
N 0.68
O 0.68
loop_
_atom_site_label
_atom_site_type_symbol
_atom_site_fract_x
_atom_site_fract_y
_atom_site_fract_z
C1 C 0.2637(1) 0.8329(1) 0.8443(1)
C2 C 0.4632(1) 0.7925(2) 0.9142(1)
C3 C 0.4232(2) 0.8483(2) 0.6788(1)
C4 C 0.6197(2) 0.9024(2) 0.7607(1)
N1 N 0.2433(1) 0.8876(2) 0.7321(1)
N2 N 0.6374(1) 0.7970(2) 0.8686(1)
N3 N 0.4403(2) 0.7479(2) 1.0183(1)
N4 N 0.1213(1) 0.8147(2) 0.9062(1)
O1 O 0.2269(1) 0.7605(1) 1.0163(1)
H1 H 0.4329(24) 0.7136(23) 0.6594(14)
H2 H 0.4071(22) 0.9259(23) 0.6049(12)
H3 H 0.6190(21) 1.0407(22) 0.7775(12)
H4 H 0.7394(23) 0.8750(26) 0.7291(14)
H5 H 0.1166(25) 0.8708(22) 0.6886(12)
H6 H 0.7557(24) 0.7970(22) 0.9216(13)
#END
