
#######################################################################
#
#                 Cambridge Crystallographic Data Centre
#                                CCDC
#
#######################################################################
#
# If this CIF has been generated from an entry in the Cambridge
# Structural Database, then it will include bibliographic, chemical,
# crystal, experimental, refinement or atomic coordinate data resulting
# from the CCDC's data processing and validation procedures.
#
#######################################################################

data_CSD_CIF_TAFMIZ
_audit_creation_date 2016-02-10
_audit_creation_method CSD-ConQuest-V1
_database_code_CSD TAFMIZ
_database_code_depnum_ccdc_archive 'CCDC 1429989'
_chemical_formula_sum 'C10 H8 N6 O5'
_chemical_formula_moiety
;
C10 H8 N6 O5
;
_journal_coden_Cambridge 1037
_journal_volume 17
_journal_year 2016
_journal_page_first 99-3
_journal_name_full 'ARKIVOC '
loop_
_publ_author_name
"Hong Zhang"
"Zuoquan Wang"
"F.Jabeen"
"G.Gopinathan-Pillai"
"Justin Yeung"
"A.J.Sibble"
"M.Mathelier"
"H.M.Berman"
"Wenfeng Zhou"
"P.J.Steel"
"C.D.Hall"
"A.R.Katritzky"
_chemical_name_systematic
;
(2,4-Dinitrobenzoyl)(1-methyl-1H-1,2,4-triazol-4-ium-4-yl)azanide
;
_cell_volume    581.356
_exptl_crystal_colour 'colorless'
_exptl_crystal_density_diffrn 1.669
_exptl_crystal_description 'block'
_diffrn_ambient_temperature 120.0
#These two values have been output from a single CSD field.
_refine_ls_R_factor_gt 0.0361
_refine_ls_wR_factor_gt 0.0361
_symmetry_cell_setting triclinic
_symmetry_space_group_name_H-M 'P -1'
_symmetry_Int_Tables_number 2
loop_
_symmetry_equiv_pos_site_id
_symmetry_equiv_pos_as_xyz
1 x,y,z
2 -x,-y,-z
_cell_length_a 7.1633(4)
_cell_length_b 8.0803(5)
_cell_length_c 11.2680(7)
_cell_angle_alpha 69.534(6)
_cell_angle_beta 72.136(5)
_cell_angle_gamma 85.275(5)
_cell_formula_units_Z 2
loop_
_atom_type_symbol
_atom_type_radius_bond
C 0.68
H 0.23
N 0.68
O 0.68
loop_
_atom_site_label
_atom_site_type_symbol
_atom_site_fract_x
_atom_site_fract_y
_atom_site_fract_z
O1 O 0.64856(16) 0.31628(15) 0.98528(11)
O2 O 0.84551(16) 0.54501(15) 0.89719(11)
O3 O 0.12493(16) 0.29353(14) 0.81433(10)
O4 O 0.13846(16) 0.45692(14) 0.61340(11)
O5 O 0.15246(14) 0.83819(13) 0.55670(9)
N1 N 0.71190(17) 0.45841(16) 0.89851(12)
N2 N 0.19506(17) 0.41698(15) 0.71153(12)
N3 N 0.40859(16) 0.80003(15) 0.38217(11)
N4 N 0.30418(16) 0.89979(14) 0.29449(11)
N5 N 0.27364(17) 1.05664(16) 0.09745(11)
N6 N 0.09666(16) 1.02824(15) 0.19235(11)
C1 C 0.6186(2) 0.53052(18) 0.79233(13)
C2 C 0.45029(19) 0.44558(17) 0.80407(13)
H1 H 0.39930 0.34360 0.87540
C3 C 0.36143(19) 0.51877(17) 0.70533(13)
C4 C 0.42838(19) 0.67628(17) 0.60048(13)
C5 C 0.6018(2) 0.75336(18) 0.59233(14)
H2 H 0.65240 0.85630 0.52190
C6 C 0.7002(2) 0.68056(18) 0.68630(14)
H3 H 0.81750 0.73100 0.67840
C7 C 0.31244(19) 0.77860(17) 0.50741(13)
C8 C 0.1128(2) 0.93406(18) 0.31073(13)
H4 H 0.01150 0.89830 0.39000
C9 C 0.3968(2) 0.97713(19) 0.16276(14)
H5 H 0.53120 0.97380 0.12390
C10 C -0.0803(2) 1.10187(19) 0.15697(14)
H6 H -0.06520 1.22820 0.11800
H7 H -0.19130 1.07100 0.23530
H8 H -0.10040 1.05480 0.09440
#END
