
#######################################################################
#
#                 Cambridge Crystallographic Data Centre
#                                CCDC
#
#######################################################################
#
# If this CIF has been generated from an entry in the Cambridge
# Structural Database, then it will include bibliographic, chemical,
# crystal, experimental, refinement or atomic coordinate data resulting
# from the CCDC's data processing and validation procedures.
#
#######################################################################

data_CSD_CIF_TAFTOJ
_audit_creation_date 1991-04-30
_audit_creation_method CSD-ConQuest-V1
_database_code_CSD TAFTOJ
_database_code_depnum_ccdc_archive 'CCDC 1265420'
_chemical_formula_sum 'C6 H5 N3 O5'
_chemical_formula_moiety
;
C6 H5 N3 O5
;
_journal_coden_Cambridge 15
_journal_volume 68
_journal_year 1990
_journal_page_first 298
_journal_name_full 'Can.J.Chem. '
loop_
_publ_author_name
"G.Punte"
"B.E.Rivero"
"S.Cerdeira"
"N.S.Nudelman"
_chemical_name_systematic
;
2-Methoxy-3,5-dinitropyridine
;
_chemical_melting_point 362.15
_cell_volume    815.187
_exptl_crystal_colour 'white'
_exptl_crystal_density_diffrn 1.622
_exptl_special_details
;
Melting point range 362.15-364.15K

;
_diffrn_ambient_temperature ?
_diffrn_special_details
;
The study was carried out at room temperature,in the range 283-303K

;
#These two values have been output from a single CSD field.
_refine_ls_R_factor_gt 0.0499
_refine_ls_wR_factor_gt 0.0499
_symmetry_cell_setting monoclinic
_symmetry_space_group_name_H-M 'P 21/n'
_symmetry_Int_Tables_number 14
loop_
_symmetry_equiv_pos_site_id
_symmetry_equiv_pos_as_xyz
1 x,y,z
2 1/2-x,1/2+y,1/2-z
3 -x,-y,-z
4 -1/2+x,-1/2-y,-1/2+z
_cell_length_a 7.496(5)
_cell_length_b 18.38(1)
_cell_length_c 6.068(2)
_cell_angle_alpha 90
_cell_angle_beta 77.18(4)
_cell_angle_gamma 90
_cell_formula_units_Z 4
loop_
_atom_type_symbol
_atom_type_radius_bond
C 0.68
H 0.23
N 0.68
O 0.68
loop_
_atom_site_label
_atom_site_type_symbol
_atom_site_fract_x
_atom_site_fract_y
_atom_site_fract_z
N1 N 0.1000(4) 0.0738(2) 0.7814(6)
N2 N 0.3571(5) 0.2349(2) 0.4989(8)
N3 N 0.4472(6) 0.0835(2) 1.1248(7)
O1 O 0.0492(4) 0.1449(1) 0.4927(5)
O2 O 0.2992(5) 0.2399(2) 0.3276(7)
O3 O 0.4599(6) 0.2783(2) 0.5516(7)
O4 O 0.5844(5) 0.1187(2) 1.1302(7)
O5 O 0.3925(4) 0.0340(2) 1.2562(6)
C1 C 0.1469(5) 0.1298(2) 0.6414(8)
C2 C 0.2997(5) 0.1736(2) 0.6524(7)
C3 C 0.3986(5) 0.1603(2) 0.8117(7)
C4 C 0.3453(5) 0.1023(2) 0.9551(7)
C5 C 0.1976(5) 0.0600(2) 0.9335(8)
C6 C -0.1184(5) 0.1047(3) 0.5030(9)
H1 H 0.5133(5) 0.1957(2) 0.8134(7)
H2 H 0.1685(5) 0.0163(2) 1.0551(8)
H3 H -0.1764(5) 0.1283(3) 0.3717(9)
H4 H -0.2111(5) 0.1127(3) 0.6649(9)
H5 H -0.0967(5) 0.0472(3) 0.4718(9)
#END
