
#######################################################################
#
#                 Cambridge Crystallographic Data Centre
#                                CCDC
#
#######################################################################
#
# If this CIF has been generated from an entry in the Cambridge
# Structural Database, then it will include bibliographic, chemical,
# crystal, experimental, refinement or atomic coordinate data resulting
# from the CCDC's data processing and validation procedures.
#
#######################################################################

data_CSD_CIF_TAGYUY
_audit_creation_date 2016-02-11
_audit_creation_method CSD-ConQuest-V1
_database_code_CSD TAGYUY
_database_code_depnum_ccdc_archive 'CCDC 1422378'
_chemical_formula_sum 'C15 H19 N1 O3'
_chemical_formula_moiety
;
C15 H19 N1 O3
;
_journal_coden_Cambridge 1088
_journal_volume 27
_journal_year 2016
_journal_page_first 447
_journal_name_full 'Synlett '
loop_
_publ_author_name
"Z.T.I.Alkayar"
"H.Adams"
"I.Coldham"
_chemical_name_systematic
;
methyl 1-methyl-6-phenylhexahydro-1H-cyclopenta[c][1,2]oxazole-6-carboxylate
;
_cell_volume   1393.798
_exptl_crystal_colour 'colorless'
_exptl_crystal_density_diffrn 1.245
_exptl_crystal_description 'BLOCK'
_diffrn_ambient_temperature 97
#These two values have been output from a single CSD field.
_refine_ls_R_factor_gt 0.0419
_refine_ls_wR_factor_gt 0.0419
loop_
_citation_database_id_CSD
_citation_special_details
TAGZAF "is a stereoisomer of this entry"
_symmetry_cell_setting orthorhombic
_symmetry_space_group_name_H-M 'P n a 21'
_symmetry_Int_Tables_number 33
loop_
_symmetry_equiv_pos_site_id
_symmetry_equiv_pos_as_xyz
1 x,y,z
2 -x,-y,1/2+z
3 1/2+x,1/2-y,z
4 1/2-x,1/2+y,1/2+z
_cell_length_a 13.3032(15)
_cell_length_b 15.4042(17)
_cell_length_c 6.8015(7)
_cell_angle_alpha 90
_cell_angle_beta 90
_cell_angle_gamma 90
_cell_formula_units_Z 4
loop_
_atom_type_symbol
_atom_type_radius_bond
C 0.68
H 0.23
N 0.68
O 0.68
loop_
_atom_site_label
_atom_site_type_symbol
_atom_site_fract_x
_atom_site_fract_y
_atom_site_fract_z
O1 O 0.57589(13) 0.11666(11) 0.8116(3)
O2 O 0.69294(12) 0.16907(11) 0.2381(3)
O3 O 0.82209(12) 0.19521(12) 0.4414(3)
N1 N 0.58649(16) 0.12396(13) 0.5997(3)
C1 C 0.5013(2) 0.17858(16) 0.8684(4)
H1 H 0.50740 0.19290 1.00980
H2 H 0.43290 0.15580 0.84310
C2 C 0.52186(18) 0.25763(15) 0.7429(4)
H3 H 0.45900 0.29150 0.71730
C3 C 0.60705(19) 0.31649(16) 0.8194(4)
H4 H 0.59230 0.37820 0.79030
H5 H 0.61520 0.30960 0.96320
C4 C 0.70142(18) 0.28728(16) 0.7122(4)
H6 H 0.73180 0.23600 0.77680
H7 H 0.75180 0.33450 0.70670
C5 C 0.66239(17) 0.26435(15) 0.5042(3)
C6 C 0.56350(17) 0.21605(15) 0.5512(3)
H8 H 0.51430 0.22060 0.44060
C7 C 0.64757(16) 0.34700(15) 0.3823(3)
C8 C 0.73201(18) 0.39162(16) 0.3150(4)
H9 H 0.79700 0.36900 0.34200
C9 C 0.72310(18) 0.46812(16) 0.2098(4)
H10 H 0.78170 0.49770 0.16610
C10 C 0.62900(18) 0.50163(16) 0.1683(4)
H11 H 0.62260 0.55420 0.09630
C11 C 0.54444(17) 0.45800(15) 0.2326(4)
H12 H 0.47960 0.48060 0.20380
C12 C 0.55331(17) 0.38122(14) 0.3390(4)
H13 H 0.49450 0.35190 0.38250
C13 C 0.73523(18) 0.20636(16) 0.3961(4)
C14 C 0.7569(2) 0.1094(2) 0.1311(4)
H14 H 0.81790 0.13970 0.08850
H15 H 0.72080 0.08740 0.01580
H16 H 0.77530 0.06070 0.21670
C15 C 0.5146(2) 0.06386(17) 0.5109(5)
H17 H 0.53000 0.00450 0.55320
H18 H 0.51940 0.06750 0.36730
H19 H 0.44640 0.07920 0.55250
#END
