
#######################################################################
#
#                 Cambridge Crystallographic Data Centre
#                                CCDC
#
#######################################################################
#
# If this CIF has been generated from an entry in the Cambridge
# Structural Database, then it will include bibliographic, chemical,
# crystal, experimental, refinement or atomic coordinate data resulting
# from the CCDC's data processing and validation procedures.
#
#######################################################################

data_CSD_CIF_TAGZIN
_audit_creation_date 2016-02-11
_audit_creation_method CSD-ConQuest-V1
_database_code_CSD TAGZIN
_database_code_depnum_ccdc_archive 'CCDC 1422381'
_chemical_formula_sum 'C18 H23 N1 O5'
_chemical_formula_moiety
;
C18 H23 N1 O5
;
_journal_coden_Cambridge 1088
_journal_volume 27
_journal_year 2016
_journal_page_first 447
_journal_name_full 'Synlett '
loop_
_publ_author_name
"Z.T.I.Alkayar"
"H.Adams"
"I.Coldham"
_chemical_name_systematic
;
dimethyl 1-methyl-7-phenyloctahydro-2,1-benzoxazole-3,7-dicarboxylate
;
_cell_volume    844.992
_exptl_crystal_colour 'colorless'
_exptl_crystal_density_diffrn 1.31
_exptl_crystal_description 'BLOCK'
_diffrn_ambient_temperature 100
#These two values have been output from a single CSD field.
_refine_ls_R_factor_gt 0.0359
_refine_ls_wR_factor_gt 0.0359
_symmetry_cell_setting triclinic
_symmetry_space_group_name_H-M 'P -1'
_symmetry_Int_Tables_number 2
loop_
_symmetry_equiv_pos_site_id
_symmetry_equiv_pos_as_xyz
1 x,y,z
2 -x,-y,-z
_cell_length_a 8.0628(3)
_cell_length_b 10.3241(4)
_cell_length_c 11.8540(4)
_cell_angle_alpha 65.456(1)
_cell_angle_beta 71.9819(10)
_cell_angle_gamma 75.4771(11)
_cell_formula_units_Z 2
loop_
_atom_type_symbol
_atom_type_radius_bond
C 0.68
H 0.23
N 0.68
O 0.68
loop_
_atom_site_label
_atom_site_type_symbol
_atom_site_fract_x
_atom_site_fract_y
_atom_site_fract_z
O1 O 1.00898(10) 0.32244(8) 0.52904(7)
O2 O 0.82913(11) 0.45619(9) 0.78395(8)
O3 O 1.11289(11) 0.40178(9) 0.69205(8)
O4 O 0.77134(10) -0.21113(8) 0.94984(7)
O5 O 0.78970(12) -0.00874(9) 0.96887(7)
N1 N 1.06117(12) 0.16277(10) 0.58109(9)
C1 C 0.87868(15) 0.36221(12) 0.62572(11)
H1 H 0.78870 0.44110 0.58700
C2 C 0.79440(14) 0.22632(12) 0.71135(10)
H2 H 0.73300 0.22880 0.79790
C3 C 0.66855(15) 0.20384(13) 0.64891(11)
H3 H 0.55410 0.26480 0.66410
H4 H 0.71780 0.23570 0.55560
C4 C 0.63737(15) 0.04763(13) 0.69939(11)
H5 H 0.56490 0.03820 0.65000
H6 H 0.57130 0.01980 0.78970
C5 C 0.81093(14) -0.05364(12) 0.68939(10)
H7 H 0.87470 -0.02880 0.59880
H8 H 0.78640 -0.15380 0.72260
C6 C 0.92691(14) -0.04240(12) 0.7657(1)
C7 C 0.96176(14) 0.11541(12) 0.71608(10)
H9 H 1.02930 0.12420 0.76990
C8 C 1.10047(14) -0.14588(12) 0.76655(10)
C9 C 1.15866(15) -0.22999(12) 0.69144(10)
H10 H 1.08900 -0.22500 0.63780
C10 C 1.31779(16) -0.32091(13) 0.69469(11)
H11 H 1.35540 -0.37840 0.64380
C11 C 1.42232(16) -0.32885(13) 0.77119(12)
H12 H 1.53160 -0.39080 0.77250
C12 C 1.36544(16) -0.24499(13) 0.84627(11)
H13 H 1.43630 -0.24940 0.89890
C13 C 1.20623(15) -0.15550(13) 0.84436(11)
H14 H 1.16800 -0.09960 0.89670
C14 C 0.95872(15) 0.40956(12) 0.70092(11)
C15 C 0.88390(18) 0.49293(14) 0.87115(12)
H15 H 0.94120 0.40600 0.92850
H16 H 0.78060 0.53470 0.92140
H17 H 0.96690 0.56290 0.82260
C16 C 0.82315(14) -0.08171(12) 0.90557(10)
C17 C 0.66142(16) -0.25377(13) 1.07836(11)
H18 H 0.72520 -0.25520 1.13720
H19 H 0.63180 -0.35000 1.10360
H20 H 0.55290 -0.18500 1.08120
C18 C 1.25215(15) 0.14586(13) 0.56316(11)
H21 H 1.27880 0.18720 0.61550
H22 H 1.30580 0.19570 0.47310
H23 H 1.29980 0.04340 0.58890
#END
