
#######################################################################
#
#                 Cambridge Crystallographic Data Centre
#                                CCDC
#
#######################################################################
#
# If this CIF has been generated from an entry in the Cambridge
# Structural Database, then it will include bibliographic, chemical,
# crystal, experimental, refinement or atomic coordinate data resulting
# from the CCDC's data processing and validation procedures.
#
#######################################################################

data_CSD_CIF_TAJFAL
_audit_creation_date 1991-08-13
_audit_creation_method CSD-ConQuest-V1
_database_code_CSD TAJFAL
_chemical_formula_sum 'C20 H21 N1 O4'
_chemical_formula_moiety
;
C20 H21 N1 O4
;
_journal_coeditor_code "IUCr AN0347"
_journal_coden_Cambridge 591
_journal_volume 47
_journal_year 1991
_journal_page_first 392
_journal_name_full 'Acta Crystallogr.,Sect.C:Cryst.Struct.Commun. '
loop_
_publ_author_name
"J.M.Coxon"
"S.J.van Eyk"
"P.J.Steel"
_chemical_name_systematic
;
(3RS,4RS)-2-Methyl-4-phenyl-5-hexen-3-yl-4-nitrobenzoate
;
_cell_volume   1801.601
_exptl_crystal_density_diffrn 1.25
_diffrn_ambient_temperature 170
#These two values have been output from a single CSD field.
_refine_ls_R_factor_gt 0.044
_refine_ls_wR_factor_gt 0.044
_symmetry_cell_setting monoclinic
_symmetry_space_group_name_H-M 'P 21/c'
_symmetry_Int_Tables_number 14
loop_
_symmetry_equiv_pos_site_id
_symmetry_equiv_pos_as_xyz
1 x,y,z
2 -x,1/2+y,1/2-z
3 -x,-y,-z
4 x,-1/2-y,-1/2+z
_cell_length_a 19.521(6)
_cell_length_b 6.014(2)
_cell_length_c 15.454(5)
_cell_angle_alpha 90
_cell_angle_beta 96.78(3)
_cell_angle_gamma 90
_cell_formula_units_Z 4
loop_
_atom_type_symbol
_atom_type_radius_bond
C 0.68
H 0.23
N 0.68
O 0.68
loop_
_atom_site_label
_atom_site_type_symbol
_atom_site_fract_x
_atom_site_fract_y
_atom_site_fract_z
C1 C 0.2706(2) 0.9888(8) 0.1050(3)
C2 C 0.3262(2) 0.6163(8) 0.0937(3)
C3 C 0.3086(2) 0.8005(7) 0.1546(3)
C4 C 0.2694(2) 0.7182(7) 0.2288(3)
C5 C 0.3035(2) 0.5329(7) 0.2871(3)
C6 C 0.2625(2) 0.4938(8) 0.3616(3)
C7 C 0.2283(2) 0.3137(8) 0.3757(3)
C8 C 0.3781(2) 0.5820(8) 0.3210(3)
C9 C 0.3977(2) 0.7782(8) 0.3634(3)
C10 C 0.4663(3) 0.8119(11) 0.3974(3)
C11 C 0.5145(3) 0.6516(11) 0.3887(3)
C12 C 0.4953(2) 0.4554(10) 0.3475(4)
C13 C 0.4274(2) 0.4230(9) 0.3127(3)
O1 O 0.2038(1) 0.6240(5) 0.1896(2)
O2 O 0.1430(1) 0.9001(5) 0.2429(2)
C14 C 0.1457(2) 0.7273(7) 0.2048(3)
C15 C 0.0833(2) 0.6002(7) 0.1668(2)
C16 C 0.0190(2) 0.7005(7) 0.1686(2)
C17 C -0.0403(2) 0.5962(7) 0.1330(2)
C18 C -0.0346(2) 0.3920(7) 0.0964(2)
C19 C 0.0279(2) 0.2843(7) 0.0939(2)
C20 C 0.0873(2) 0.3928(7) 0.1296(2)
N1 N -0.0976(2) 0.2789(6) 0.0556(2)
O3 O -0.1511(1) 0.3856(5) 0.0448(2)
O4 O -0.0935(1) 0.0844(5) 0.0333(2)
H1 H 0.29600 1.03620 0.05870
H2 H 0.26600 1.11110 0.14380
H3 H 0.22560 0.93880 0.08090
H4 H 0.35110 0.50100 0.12690
H5 H 0.35420 0.67530 0.05210
H6 H 0.28440 0.55610 0.06370
H7 H 0.35200 0.85650 0.18160
H8 H 0.26640 0.84650 0.26510
H9 H 0.30390 0.40160 0.25190
H10 H 0.26120 0.61250 0.40290
H11 H 0.22800 0.19040 0.33630
H12 H 0.20340 0.30440 0.42560
H13 H 0.36400 0.89160 0.36960
H14 H 0.47960 0.94830 0.42690
H15 H 0.56190 0.67610 0.41150
H16 H 0.52890 0.34080 0.34280
H17 H 0.41460 0.28730 0.28230
H18 H 0.01630 0.84420 0.19490
H19 H -0.08450 0.66530 0.13390
H20 H 0.03000 0.13930 0.06840
H21 H 0.13140 0.32320 0.12830
#END
