
#######################################################################
#
#                 Cambridge Crystallographic Data Centre
#                                CCDC
#
#######################################################################
#
# If this CIF has been generated from an entry in the Cambridge
# Structural Database, then it will include bibliographic, chemical,
# crystal, experimental, refinement or atomic coordinate data resulting
# from the CCDC's data processing and validation procedures.
#
#######################################################################

data_CSD_CIF_TAJFER
_audit_creation_date 2011-03-21
_audit_creation_method CSD-ConQuest-V1
_database_code_CSD TAJFER
_database_code_depnum_ccdc_archive 'CCDC 780295'
_chemical_formula_sum 'C20 H28 N2 O14'
_chemical_formula_moiety
;
C20 H28 N2 O14
;
_journal_coden_Cambridge 24
_journal_volume 51
_journal_year 2010
_journal_page_first 5713
_journal_name_full 'Tetrahedron Lett. '
loop_
_publ_author_name
"K.J.V.Paul"
"L.Sahoo"
"D.Loganathan"
_chemical_name_systematic
;
N-(2',3',4',6'-Tetra-O-acetyl-\b-D-glucopyranosyl)-4-ethoxy-3-nitro-4-oxobutan
amide
;
_chemical_melting_point 443.15
_cell_volume   2544.105
_exptl_crystal_colour 'colorless'
_exptl_crystal_density_diffrn 1.359
_exptl_crystal_description 'needle'
_diffrn_ambient_temperature 293
#These two values have been output from a single CSD field.
_refine_ls_R_factor_gt 0.065
_refine_ls_wR_factor_gt 0.065
_symmetry_cell_setting orthorhombic
_symmetry_space_group_name_H-M 'P 21 21 21'
_symmetry_Int_Tables_number 19
loop_
_symmetry_equiv_pos_site_id
_symmetry_equiv_pos_as_xyz
1 x,y,z
2 1/2-x,-y,1/2+z
3 1/2+x,1/2-y,-z
4 -x,1/2+y,1/2-z
_cell_length_a 8.1416(3)
_cell_length_b 11.5681(6)
_cell_length_c 27.0124(15)
_cell_angle_alpha 90
_cell_angle_beta 90
_cell_angle_gamma 90
_cell_formula_units_Z 4
loop_
_atom_type_symbol
_atom_type_radius_bond
C 0.68
H 0.23
N 0.68
O 0.68
loop_
_atom_site_label
_atom_site_type_symbol
_atom_site_fract_x
_atom_site_fract_y
_atom_site_fract_z
C1 C 0.4988(5) 0.9463(4) 0.59136(18)
H1 H 0.56810 0.90410 0.56780
C2 C 0.5774(5) 1.0620(4) 0.60235(17)
H2 H 0.50950 1.10680 0.62540
C3 C 0.7463(5) 1.0423(4) 0.62346(18)
H3 H 0.81590 1.00620 0.59820
C4 C 0.7362(6) 0.9639(4) 0.66794(19)
H4 H 0.68110 1.00360 0.69530
C5 C 0.6455(6) 0.8533(4) 0.6552(2)
H5 H 0.70740 0.81200 0.62960
C6 C 0.6205(7) 0.7736(5) 0.6984(2)
H6 H 0.54700 0.71130 0.68910
H7 H 0.72470 0.74020 0.70820
C7 C 0.2830(6) 0.8985(4) 0.5322(2)
C8 C 0.1068(6) 0.9198(4) 0.5189(2)
H8 H 0.03760 0.87460 0.54080
H9 H 0.08180 1.00070 0.52450
C9 C 0.0649(6) 0.8904(4) 0.4668(2)
H10 H 0.08440 0.80770 0.46140
C10 C -0.1126(8) 0.9169(5) 0.4559(3)
C11 C -0.3246(9) 0.9055(8) 0.3965(4)
H11 H -0.39220 0.89510 0.42570
H12 H -0.34210 0.98360 0.38450
C12 C -0.3717(11) 0.8335(10) 0.3629(4)
H13 H -0.48600 0.84550 0.35590
H14 H -0.35550 0.75590 0.37450
H15 H -0.30860 0.84540 0.33330
C13 C 0.4856(6) 1.2044(4) 0.5439(2)
C14 C 0.5012(6) 1.2407(5) 0.4917(2)
H16 H 0.59120 1.20050 0.47660
H17 H 0.52080 1.32250 0.49020
H18 H 0.40150 1.22290 0.47430
C15 C 0.9771(6) 1.1699(5) 0.6298(2)
C16 C 1.0297(7) 1.2845(5) 0.6464(2)
H19 H 0.93700 1.32590 0.65930
H20 H 1.07550 1.32630 0.61900
H21 H 1.11120 1.27630 0.67190
C17 C 0.972(1) 0.983(1) 0.7207(3)
C18 C 1.1440(9) 0.9394(8) 0.7289(3)
H22 H 1.17040 0.88290 0.70410
H23 H 1.15160 0.90460 0.76110
H24 H 1.21980 1.00280 0.72670
C19 C 0.5375(6) 0.7862(6) 0.7814(2)
C20 C 0.4757(8) 0.8654(6) 0.8201(2)
H25 H 0.45800 0.94060 0.80610
H26 H 0.55490 0.87080 0.84630
H27 H 0.37400 0.83620 0.83310
N1 N 0.3378(5) 0.9573(4) 0.57111(18)
N2 N 0.1689(5) 0.9579(5) 0.4315(2)
O1 O 0.5964(4) 1.1224(3) 0.55622(12)
O2 O 0.8149(4) 1.1529(3) 0.63693(12)
O3 O 0.9001(4) 0.9304(3) 0.68238(14)
O4 O 0.4871(4) 0.8813(3) 0.63603(12)
O5 O 0.5524(5) 0.8369(3) 0.73835(16)
O6 O 0.3848(5) 1.2391(3) 0.57261(14)
O7 O 1.0633(4) 1.0970(3) 0.61204(14)
O8 O 0.9014(10) 1.0533(9) 0.7446(2)
O9 O 0.5741(7) 0.6868(5) 0.7871(2)
O10 O 0.3691(4) 0.8315(3) 0.50880(14)
O11 O -0.2071(5) 0.9485(5) 0.4874(2)
O12 O -0.1496(5) 0.8922(4) 0.4105(2)
O13 O 0.2031(5) 1.0567(4) 0.44144(17)
O14 O 0.2163(6) 0.9098(5) 0.39457(19)
H28 H 0.277(5) 0.997(3) 0.5845(14)
#END
