
#######################################################################
#
#                 Cambridge Crystallographic Data Centre
#                                CCDC
#
#######################################################################
#
# If this CIF has been generated from an entry in the Cambridge
# Structural Database, then it will include bibliographic, chemical,
# crystal, experimental, refinement or atomic coordinate data resulting
# from the CCDC's data processing and validation procedures.
#
#######################################################################

data_CSD_CIF_TAJKEU
_audit_creation_date 1991-09-04
_audit_creation_method CSD-ConQuest-V1
_database_code_CSD TAJKEU
_chemical_formula_sum 'C22 H28 N2 O4'
_chemical_formula_moiety
;
C22 H28 N2 O4
;
_journal_coden_Cambridge 35
_journal_volume 56
_journal_year 1991
_journal_page_first 602
_journal_name_full 'J.Org.Chem. '
loop_
_publ_author_name
"P.Maslak"
"J.N.Narvaez"
"M.Parvez"
_chemical_name_systematic
;
3,4-Diethyl-3,4-bis(4'-nitrophenyl)hexane
;
_chemical_melting_point 378.15
_cell_volume   2039.574
_exptl_crystal_density_diffrn 1.258
_exptl_special_details
;
Melting point range 378.15-379.15K

;
_diffrn_ambient_temperature ?
_diffrn_special_details
;
The study was carried out at room temperature,in the range 283-303K

;
#These two values have been output from a single CSD field.
_refine_ls_R_factor_gt 0.046
_refine_ls_wR_factor_gt 0.046
_symmetry_cell_setting monoclinic
_symmetry_space_group_name_H-M 'C 2/c'
_symmetry_Int_Tables_number 15
loop_
_symmetry_equiv_pos_site_id
_symmetry_equiv_pos_as_xyz
1 x,y,z
2 1/2+x,1/2+y,z
3 -x,y,1/2-z
4 1/2-x,1/2+y,1/2-z
5 -x,-y,-z
6 -1/2-x,-1/2-y,-z
7 x,-y,-1/2+z
8 -1/2+x,-1/2-y,-1/2+z
_cell_length_a 21.115(5)
_cell_length_b 10.277(2)
_cell_length_c 10.648(4)
_cell_angle_alpha 90
_cell_angle_beta 118.03(2)
_cell_angle_gamma 90
_cell_formula_units_Z 4
loop_
_atom_type_symbol
_atom_type_radius_bond
C 0.68
H 0.23
N 0.68
O 0.68
loop_
_atom_site_label
_atom_site_type_symbol
_atom_site_fract_x
_atom_site_fract_y
_atom_site_fract_z
O1 O 0.22927(6) 0.1691(2) 0.1954(2)
O2 O 0.29252(6) 0.3080(1) 0.1523(1)
N1 N 0.27985(7) 0.1969(2) 0.1763(1)
C1 C 0.32757(7) 0.0913(2) 0.1806(1)
C2 C 0.37568(7) 0.1143(2) 0.1296(2)
C3 C 0.41872(7) 0.0131(2) 0.1301(1)
C4 C 0.41567(6) -0.1111(1) 0.1813(1)
C5 C 0.36687(7) -0.1270(2) 0.2346(2)
C6 C 0.32285(6) -0.0281(2) 0.2339(1)
C7 C 0.46210(6) -0.2252(1) 0.1765(1)
C8 C 0.47137(7) -0.2038(2) 0.0399(1)
C9 C 0.49658(9) -0.3146(2) -0.0216(2)
C10 C 0.42221(7) -0.3562(2) 0.1590(2)
C11 C 0.34828(9) -0.3663(2) 0.0283(2)
H1 H 0.3767(7) 0.199(2) 0.092(1)
H2 H 0.4538(7) 0.027(2) 0.099(2)
H3 H 0.3617(7) -0.206(2) 0.270(1)
H4 H 0.2904(7) -0.040(2) 0.268(2)
H5 H 0.5038(8) -0.135(2) 0.054(2)
H6 H 0.4228(8) -0.174(2) -0.035(2)
H7 H 0.5501(8) -0.335(2) 0.039(2)
H8 H 0.4890(8) -0.288(2) -0.116(2)
H9 H 0.4685(7) -0.390(2) -0.033(1)
H10 H 0.4165(7) -0.375(2) 0.243(2)
H11 H 0.4524(8) -0.424(2) 0.156(2)
H12 H 0.3186(7) -0.297(2) 0.027(1)
H13 H 0.3521(8) -0.366(2) -0.060(2)
H14 H 0.3299(7) -0.444(2) 0.030(1)
C7B C 0.53790(6) -0.2252(1) 0.3235(1)
C4B C 0.58433(6) -0.1111(1) 0.3187(1)
C8B C 0.52863(7) -0.2038(2) 0.4601(1)
C10B C 0.57779(7) -0.3562(2) 0.3410(2)
C3B C 0.58128(7) 0.0131(2) 0.3699(1)
C5B C 0.63313(7) -0.1270(2) 0.2654(2)
C9B C 0.50342(9) -0.3146(2) 0.5216(2)
H5B H 0.4962(8) -0.135(2) 0.446(2)
H6B H 0.5772(8) -0.174(2) 0.535(2)
C11B C 0.65172(9) -0.3663(2) 0.4717(2)
H10B H 0.5835(7) -0.375(2) 0.257(2)
H11B H 0.5476(8) -0.424(2) 0.344(2)
C2B C 0.62432(7) 0.1143(2) 0.3704(2)
H2B H 0.5462(7) 0.027(2) 0.401(2)
C6B C 0.67715(6) -0.0281(2) 0.2661(1)
H3B H 0.6383(7) -0.206(2) 0.230(1)
H7B H 0.4499(8) -0.335(2) 0.461(2)
H8B H 0.5110(8) -0.288(2) 0.616(2)
H9B H 0.5315(7) -0.390(2) 0.533(1)
H12B H 0.6814(7) -0.297(2) 0.473(1)
H13B H 0.6479(8) -0.366(2) 0.560(2)
H14B H 0.6701(7) -0.444(2) 0.470(1)
C1B C 0.67243(7) 0.0913(2) 0.3194(1)
H1B H 0.6233(7) 0.199(2) 0.408(1)
H4B H 0.7096(7) -0.040(2) 0.232(2)
N1B N 0.72015(7) 0.1969(2) 0.3237(1)
O1B O 0.77073(6) 0.1691(2) 0.3046(2)
O2B O 0.70748(6) 0.3080(1) 0.3477(1)
#END
