
#######################################################################
#
#                 Cambridge Crystallographic Data Centre
#                                CCDC
#
#######################################################################
#
# If this CIF has been generated from an entry in the Cambridge
# Structural Database, then it will include bibliographic, chemical,
# crystal, experimental, refinement or atomic coordinate data resulting
# from the CCDC's data processing and validation procedures.
#
#######################################################################

data_CSD_CIF_TAJSIG
_audit_creation_date 1991-09-27
_audit_creation_method CSD-ConQuest-V1
_database_code_CSD TAJSIG
_chemical_formula_sum 'C18 H12 N4 O8'
_chemical_formula_moiety
;
C18 H12 N4 O8
;
_journal_coeditor_code "IUCr PA0169"
_journal_coden_Cambridge 591
_journal_volume 47
_journal_year 1991
_journal_page_first 1107
_journal_name_full 'Acta Crystallogr.,Sect.C:Cryst.Struct.Commun. '
loop_
_publ_author_name
"K.Boubekeur"
"D.Grandjean"
"C.Florac"
"A.Robert"
_chemical_name_systematic
;
Methyl N-(3,4-bis(4-nitrophenyl)-2,5-dioxo-2,5-dihydro-1-pyrrolyl)carbamate
;
_chemical_name_common
;
N-Methoxycarbonylamino-3,4-bis(4-nitrophenyl)maleimide
;
_cell_volume    920.426
_exptl_crystal_colour 'yellow'
_exptl_crystal_density_diffrn 1.49
_diffrn_ambient_temperature 140
#These two values have been output from a single CSD field.
_refine_ls_R_factor_gt 0.031
_refine_ls_wR_factor_gt 0.031
_symmetry_cell_setting monoclinic
_symmetry_space_group_name_H-M 'P 21'
_symmetry_Int_Tables_number 4
loop_
_symmetry_equiv_pos_site_id
_symmetry_equiv_pos_as_xyz
1 x,y,z
2 -x,1/2+y,-z
_cell_length_a 8.171(3)
_cell_length_b 10.351(2)
_cell_length_c 10.965(3)
_cell_angle_alpha 90
_cell_angle_beta 97.03(3)
_cell_angle_gamma 90
_cell_formula_units_Z 2
loop_
_atom_type_symbol
_atom_type_radius_bond
C 0.68
H 0.23
N 0.68
O 0.68
loop_
_atom_site_label
_atom_site_type_symbol
_atom_site_fract_x
_atom_site_fract_y
_atom_site_fract_z
O1 O 0.0778(2) 0.49900 0.4943(2)
O2 O 0.3472(2) 0.8829(2) 0.5022(2)
O3 O 0.3706(3) 0.0376(2) 0.1112(2)
O4 O 0.4261(4) 0.1707(3) -0.0277(2)
O5 O 0.9752(3) 0.9620(3) 0.1649(3)
O6 O 1.0926(3) 0.7802(3) 0.2151(2)
O7 O 0.0810(2) 0.8396(2) 0.7825(2)
O8 O 0.2873(2) 0.7020(2) 0.7553(2)
N1 N 0.1813(3) 0.7060(2) 0.5137(2)
N2 N 0.0872(2) 0.7547(2) 0.5997(2)
N3 N 0.3843(3) 0.1468(3) 0.0730(2)
N4 N 0.9744(3) 0.8529(3) 0.2080(2)
C1 C 0.1742(3) 0.5807(3) 0.4703(2)
C2 C 0.3077(3) 0.5714(3) 0.3869(2)
C3 C 0.3919(3) 0.6831(3) 0.3926(2)
C4 C 0.3127(3) 0.7743(3) 0.4745(2)
C5 C 0.3217(3) 0.4594(3) 0.3073(2)
C6 C 0.3037(3) 0.3335(3) 0.3479(2)
C7 C 0.3203(3) 0.2307(3) 0.2711(2)
C8 C 0.3556(3) 0.2557(3) 0.1534(2)
C9 C 0.3706(3) 0.3785(3) 0.1092(2)
C10 C 0.3533(3) 0.4814(3) 0.1861(2)
C11 C 0.5394(3) 0.7235(3) 0.3384(2)
C12 C 0.5506(3) 0.8491(3) 0.2954(2)
C13 C 0.6930(3) 0.8915(3) 0.2516(3)
C14 C 0.8222(3) 0.8069(3) 0.2510(2)
C15 C 0.8133(3) 0.6805(3) 0.2903(2)
C16 C 0.6716(3) 0.6389(3) 0.3338(2)
C17 C 0.1656(3) 0.7602(3) 0.7181(2)
C18 C 0.1398(5) 0.8480(5) 0.9116(3)
H1 H 0.024(5) 0.824(5) 0.581(4)
H2 H 0.281(5) 0.315(5) 0.428(4)
H3 H 0.313(5) 0.144(5) 0.300(4)
H4 H 0.395(5) 0.393(5) 0.026(3)
H5 H 0.364(5) 0.584(5) 0.161(4)
H6 H 0.458(5) 0.914(5) 0.293(4)
H7 H 0.703(5) 0.975(5) 0.227(4)
H8 H 0.904(5) 0.628(4) 0.285(4)
H9 H 0.663(5) 0.544(5) 0.371(4)
H10 H 0.258(5) 0.881(5) 0.923(4)
H11 H 0.162(5) 0.748(5) 0.948(4)
H12 H 0.065(5) 0.897(5) 0.951(3)
#END
