
#######################################################################
#
#                 Cambridge Crystallographic Data Centre
#                                CCDC
#
#######################################################################
#
# If this CIF has been generated from an entry in the Cambridge
# Structural Database, then it will include bibliographic, chemical,
# crystal, experimental, refinement or atomic coordinate data resulting
# from the CCDC's data processing and validation procedures.
#
#######################################################################

data_CSD_CIF_TAJZIQ
_audit_creation_date 2016-02-11
_audit_creation_method CSD-ConQuest-V1
_database_code_CSD TAJZIQ
_database_code_depnum_ccdc_archive 'CCDC 1421529'
_chemical_formula_sum 'C35 H36 N4 O5'
_chemical_formula_moiety
;
C35 H36 N4 O5
;
_journal_coden_Cambridge 1500
_journal_volume 6
_journal_year 2016
_journal_page_first 17995
_journal_name_full 'RSC Advances '
loop_
_publ_author_name
"N.Chatterjee"
"S.B.Maity"
"A.Samadder"
"P.Mukherjee"
"A.R.Khuda-Bukhsh"
"P.K.Bharadwaj"
_chemical_name_systematic
;
3',6'-bis(Diethylamino)-2-(2-methoxy-4-nitrophenyl)spiro[isoindole-1,9'-xanthe
n]-3(2H)-one
;
_cell_volume   1513.236
_exptl_crystal_colour 'yellow'
_exptl_crystal_density_diffrn 1.301
_exptl_crystal_description 'block'
_diffrn_ambient_temperature 100
#These two values have been output from a single CSD field.
_refine_ls_R_factor_gt 0.0602
_refine_ls_wR_factor_gt 0.0602
_symmetry_cell_setting triclinic
_symmetry_space_group_name_H-M 'P -1'
_symmetry_Int_Tables_number 2
loop_
_symmetry_equiv_pos_site_id
_symmetry_equiv_pos_as_xyz
1 x,y,z
2 -x,-y,-z
_cell_length_a 9.376(3)
_cell_length_b 12.051(4)
_cell_length_c 14.783(5)
_cell_angle_alpha 70.869(6)
_cell_angle_beta 74.940(5)
_cell_angle_gamma 78.883(6)
_cell_formula_units_Z 2
loop_
_atom_type_symbol
_atom_type_radius_bond
C 0.68
H 0.23
N 0.68
O 0.68
loop_
_atom_site_label
_atom_site_type_symbol
_atom_site_fract_x
_atom_site_fract_y
_atom_site_fract_z
O1 O 0.64339(19) 0.95814(16) 0.08787(13)
O2 O 0.4803(2) 0.44742(15) 0.31023(13)
O3 O 0.43020(19) 0.62928(16) 0.41559(13)
N1 N 0.5424(2) 0.63560(18) 0.22572(15)
N2 N 0.2931(2) 1.12675(19) 0.31724(16)
O4 O 0.8781(2) 0.60916(19) 0.55251(15)
N3 N 1.0146(2) 0.8380(2) -0.15948(16)
N4 N 0.9185(3) 0.6478(2) 0.46392(18)
C1 C 0.6227(3) 0.7740(2) 0.06054(18)
C2 C 0.4670(3) 1.0372(2) 0.20104(19)
H1 H 0.52110 1.10140 0.17910
C3 C 0.4376(3) 0.8470(2) 0.18811(19)
C4 C 0.4954(3) 0.7433(2) 0.14736(18)
C5 C 0.6847(3) 0.6983(2) 0.00240(19)
H2 H 0.63970 0.63110 0.01400
C6 C 0.6930(3) 0.8738(2) 0.03867(18)
C7 C 0.6709(3) 0.6367(2) 0.4437(2)
H3 H 0.63420 0.63100 0.50970
C8 C 0.5137(3) 0.9443(2) 0.15965(18)
C9 C 0.3395(3) 1.0342(2) 0.27509(19)
C10 C 0.2604(3) 0.9359(2) 0.30472(19)
H4 H 0.17490 0.93110 0.35400
C11 C 0.3546(3) 0.5814(2) 0.18408(19)
C12 C 0.6379(3) 0.6400(2) 0.28559(19)
C13 C 0.3091(3) 0.8464(2) 0.26103(19)
H5 H 0.25380 0.78300 0.28110
O5 O 1.0366(2) 0.6885(2) 0.42361(16)
C14 C 0.5784(3) 0.6364(2) 0.3835(2)
C15 C 0.8092(3) 0.7192(2) -0.0711(2)
H6 H 0.84480 0.66740 -0.10890
C16 C 0.8199(3) 0.8973(2) -0.03446(19)
H7 H 0.86270 0.96570 -0.04660
C17 C 0.8199(3) 0.6460(2) 0.4006(2)
C18 C 0.7882(3) 0.6475(2) 0.2468(2)
H8 H 0.82690 0.64930 0.18170
C19 C 0.4624(3) 0.5430(2) 0.24917(19)
C20 C 0.1571(3) 0.5787(2) 0.1118(2)
H9 H 0.08380 0.54030 0.10660
C21 C 0.8820(3) 0.6521(2) 0.3044(2)
H10 H 0.98260 0.65910 0.27870
C22 C 0.2824(3) 0.7539(2) 0.05872(19)
H11 H 0.29370 0.83080 0.01900
C23 C 0.8846(3) 0.8186(2) -0.09041(19)
C24 C 0.1751(3) 0.6934(2) 0.0532(2)
H12 H 0.11360 0.73070 0.00900
C25 C 0.3728(3) 0.6960(2) 0.12570(19)
C26 C 1.0776(3) 0.7603(3) -0.2219(2)
H13 H 1.13650 0.80500 -0.28260
H14 H 0.99660 0.73640 -0.23820
C27 C 0.2477(3) 0.5207(2) 0.17807(19)
H15 H 0.23690 0.44340 0.21730
C28 C 0.3970(3) 1.2076(2) 0.3074(2)
H16 H 0.34260 1.27140 0.33340
H17 H 0.43710 1.24190 0.23830
C29 C 1.1120(3) 0.9184(2) -0.1591(2)
H18 H 1.21440 0.88510 -0.17690
H19 H 1.09580 0.92350 -0.09300
C30 C 0.3570(3) 0.6666(3) 0.5003(2)
H20 H 0.25320 0.65730 0.51540
H21 H 0.36800 0.74830 0.48760
H22 H 0.40050 0.61930 0.55480
C31 C 0.5256(3) 1.1522(3) 0.3586(2)
H23 H 0.58820 1.21140 0.34840
H24 H 0.58250 1.09030 0.33210
H25 H 0.48760 1.11980 0.42750
C32 C 1.1741(3) 0.6502(3) -0.1767(2)
H26 H 1.21070 0.60420 -0.22190
H27 H 1.11630 0.60400 -0.11740
H28 H 1.25650 0.67260 -0.16210
C33 C 0.1800(4) 1.0563(3) 0.4965(2)
H29 H 0.08640 1.05930 0.54200
H30 H 0.24990 1.09100 0.51300
H31 H 0.21700 0.97540 0.49940
C34 C 1.0906(4) 1.0421(3) -0.2275(2)
H32 H 1.15870 1.08920 -0.22290
H33 H 0.99040 1.07710 -0.20950
H34 H 1.10920 1.03870 -0.29360
C35 C 0.1589(3) 1.1244(3) 0.3936(2)
H35 H 0.08590 1.08980 0.37860
H36 H 0.11850 1.20520 0.39220
#END
