
#######################################################################
#
#                 Cambridge Crystallographic Data Centre
#                                CCDC
#
#######################################################################
#
# If this CIF has been generated from an entry in the Cambridge
# Structural Database, then it will include bibliographic, chemical,
# crystal, experimental, refinement or atomic coordinate data resulting
# from the CCDC's data processing and validation procedures.
#
#######################################################################

data_CSD_CIF_TAKMUQ
_audit_creation_date 2016-02-11
_audit_creation_method CSD-ConQuest-V1
_database_code_CSD TAKMUQ
_database_code_depnum_ccdc_archive 'CCDC 1049360'
_chemical_formula_sum 'C18 H19 N1 O6'
_chemical_formula_moiety
;
C18 H19 N1 O6
;
_journal_coden_Cambridge 1003
_journal_volume 46
_journal_year 2016
_journal_page_first 105
_journal_name_full 'J.Chem.Cryst. '
loop_
_publ_author_name
"M.S.Gerova"
"G.R.Encheva"
"R.P.Nikolova"
"C.D.Chanev"
"B.L.Shivachev"
"M.D.Apostolova"
"O.I.Petrov"
_chemical_name_systematic
;
1,2,3-trimethoxy-5-(2-(4-methoxy-3-nitrophenyl)vinyl)benzene
;
_cell_volume   1734.195
_exptl_crystal_colour 'colorless'
_exptl_crystal_density_diffrn 1.323
_exptl_crystal_description 'prism'
_diffrn_ambient_temperature 290
#These two values have been output from a single CSD field.
_refine_ls_R_factor_gt 0.0886
_refine_ls_wR_factor_gt 0.0886
_symmetry_cell_setting monoclinic
_symmetry_space_group_name_H-M 'P 21/c'
_symmetry_Int_Tables_number 14
loop_
_symmetry_equiv_pos_site_id
_symmetry_equiv_pos_as_xyz
1 x,y,z
2 -x,1/2+y,1/2-z
3 -x,-y,-z
4 x,-1/2-y,-1/2+z
_cell_length_a 15.2043(11)
_cell_length_b 7.4417(5)
_cell_length_c 15.3356(11)
_cell_angle_alpha 90
_cell_angle_beta 91.910(6)
_cell_angle_gamma 90
_cell_formula_units_Z 4
loop_
_atom_type_symbol
_atom_type_radius_bond
C 0.68
H 0.23
N 0.68
O 0.68
loop_
_atom_site_label
_atom_site_type_symbol
_atom_site_fract_x
_atom_site_fract_y
_atom_site_fract_z
O1 O 0.1635(2) 0.2135(4) 0.90189(19)
O2 O 0.54820(18) -0.2394(4) 0.47927(19)
O3 O 0.04062(16) -0.0396(4) 0.89508(18)
N1 N 0.4267(2) -0.2875(5) 0.3463(2)
C1 C 0.4001(3) -0.2764(4) 0.4364(2)
C2 C 0.3458(3) -0.2499(5) 0.6024(3)
H1 H 0.32780 -0.23970 0.65950
C3 C 0.4632(3) -0.2492(4) 0.5030(2)
O4 O 0.2695(2) 0.2700(4) 0.7666(2)
C4 C 0.2815(3) -0.2777(5) 0.5362(3)
C5 C 0.0934(2) -0.0278(5) 0.8248(2)
C6 C 0.3123(3) -0.2924(5) 0.4523(2)
H2 H 0.27270 -0.31370 0.40590
C7 C 0.4338(3) -0.2372(5) 0.5870(2)
H3 H 0.47400 -0.22040 0.63330
C8 C 0.0893(2) -0.1420(5) 0.7530(3)
H4 H 0.04810 -0.23440 0.75120
C9 C 0.2106(2) 0.1334(5) 0.7575(3)
C10 C 0.1551(2) 0.1090(5) 0.8281(3)
C11 C 0.1449(2) -0.1217(5) 0.6844(3)
C12 C 0.2051(2) 0.0187(5) 0.6871(3)
H5 H 0.24210 0.03550 0.64070
C13 C 0.1336(3) -0.2461(6) 0.6100(3)
H6 H 0.07720 -0.29350 0.60370
O5 O 0.4603(3) -0.1592(6) 0.3136(3)
C14 C 0.6144(3) -0.2177(6) 0.5459(3)
H7 H 0.67140 -0.22340 0.52080
H8 H 0.60940 -0.31180 0.58830
H9 H 0.60740 -0.10330 0.57380
C15 C 0.1881(3) -0.3039(6) 0.5504(3)
H10 H 0.16070 -0.37710 0.50850
O6 O 0.4134(4) -0.4184(6) 0.3054(2)
C16 C -0.0239(3) -0.1789(6) 0.8959(3)
H11 H -0.06380 -0.16540 0.84650
H12 H -0.05590 -0.17140 0.94860
H13 H 0.00470 -0.29370 0.89310
C17 C 0.3296(4) 0.2971(7) 0.6991(4)
H14 H 0.29780 0.33020 0.64640
H15 H 0.36170 0.18820 0.68960
H16 H 0.36990 0.39140 0.71560
C18 C 0.1344(4) 0.3906(7) 0.8932(4)
H17 H 0.16700 0.45020 0.84910
H18 H 0.14310 0.45230 0.94780
H19 H 0.07290 0.39140 0.87670
#END
