
#######################################################################
#
#                 Cambridge Crystallographic Data Centre
#                                CCDC
#
#######################################################################
#
# If this CIF has been generated from an entry in the Cambridge
# Structural Database, then it will include bibliographic, chemical,
# crystal, experimental, refinement or atomic coordinate data resulting
# from the CCDC's data processing and validation procedures.
#
#######################################################################

data_CSD_CIF_TAKQOM
_audit_creation_date 2003-10-23
_audit_creation_method CSD-ConQuest-V1
_database_code_CSD TAKQOM
_database_code_depnum_ccdc_archive 'CCDC 220581'
_chemical_formula_sum 'C15 H21 N3 O5'
_chemical_formula_moiety
;
C15 H21 N3 O5
;
_journal_coden_Cambridge 95
_journal_year 2003
_journal_page_first 670
_journal_name_full 'Izv.Akad.Nauk SSSR,Ser.Khim.(Russ.)(Russ.Chem.Bull.) '
loop_
_publ_author_name
"L.Yu.Ukhin"
"L.V.Belousova"
"V.N.Khrustalev"
_chemical_name_systematic
;
(2-Hydroxy-5-nitrophenyl)dimorpholinomethane
;
_cell_volume   1534.227
_exptl_crystal_colour 'colorless'
_exptl_crystal_density_diffrn 1.4
_exptl_crystal_description 'prism'
_diffrn_ambient_temperature 295
#These two values have been output from a single CSD field.
_refine_ls_R_factor_gt 0.0553
_refine_ls_wR_factor_gt 0.0553
_symmetry_cell_setting monoclinic
_symmetry_space_group_name_H-M 'P 21/n'
_symmetry_Int_Tables_number 14
loop_
_symmetry_equiv_pos_site_id
_symmetry_equiv_pos_as_xyz
1 x,y,z
2 1/2+x,1/2-y,1/2+z
3 -x,-y,-z
4 -1/2-x,-1/2+y,-1/2-z
_cell_length_a 10.652(2)
_cell_length_b 10.598(2)
_cell_length_c 13.658(3)
_cell_angle_alpha 90
_cell_angle_beta 95.70(3)
_cell_angle_gamma 90
_cell_formula_units_Z 4
loop_
_atom_type_symbol
_atom_type_radius_bond
C 0.68
H 0.23
N 0.68
O 0.68
loop_
_atom_site_label
_atom_site_type_symbol
_atom_site_fract_x
_atom_site_fract_y
_atom_site_fract_z
O1 O 0.5182(2) 0.1544(2) 0.49988(16)
O2 O 0.6503(3) 0.6603(2) 0.71899(19)
O3 O 0.4516(3) 0.6451(2) 0.74046(19)
O4 O 0.10344(19) 0.0394(2) 0.39649(14)
O5 O 0.5207(2) 0.0189(2) 0.88774(15)
N1 N 0.5477(3) 0.6047(3) 0.70860(19)
N2 N 0.2900(2) 0.1244(2) 0.54821(16)
N3 N 0.3690(2) 0.1105(2) 0.72004(16)
C1 C 0.5246(3) 0.2611(3) 0.5540(2)
C2 C 0.6260(3) 0.3423(3) 0.5463(2)
C3 C 0.6370(3) 0.4529(3) 0.5986(2)
C4 C 0.5422(3) 0.4843(3) 0.6565(2)
C5 C 0.4405(3) 0.4059(3) 0.6655(2)
C6 C 0.4315(3) 0.2911(3) 0.61717(19)
C7 C 0.3297(3) 0.1963(3) 0.6388(2)
C8 C 0.2243(3) 0.2102(3) 0.4739(2)
C9 C 0.1882(4) 0.1387(4) 0.3802(2)
C10 C 0.1651(4) -0.0450(4) 0.4666(2)
C11 C 0.2045(3) 0.0187(3) 0.5639(2)
C12 C 0.4880(3) 0.0438(3) 0.7118(2)
C13 C 0.5130(5) -0.0463(4) 0.7965(3)
C14 C 0.4036(4) 0.0796(4) 0.8972(2)
C15 C 0.3705(4) 0.1725(3) 0.8159(2)
H1 H 0.435(4) 0.121(4) 0.508(3)
H2 H 0.693(3) 0.315(3) 0.503(2)
H3 H 0.702(3) 0.511(3) 0.591(2)
H4 H 0.378(3) 0.433(2) 0.7061(19)
H5 H 0.257(2) 0.242(3) 0.6611(18)
H6 H 0.286(3) 0.277(3) 0.4603(18)
H7 H 0.146(3) 0.245(3) 0.502(2)
H8 H 0.140(2) 0.195(2) 0.3308(19)
H9 H 0.268(3) 0.101(3) 0.358(2)
H10 H 0.105(3) -0.109(3) 0.476(2)
H11 H 0.240(3) -0.084(3) 0.435(2)
H12 H 0.250(3) -0.039(3) 0.607(2)
H13 H 0.130(3) 0.049(3) 0.596(2)
H14 H 0.480(3) -0.003(3) 0.652(2)
H15 H 0.564(3) 0.106(3) 0.712(2)
H16 H 0.441(3) -0.114(3) 0.793(3)
H17 H 0.585(3) -0.093(3) 0.791(2)
H18 H 0.415(3) 0.122(3) 0.964(2)
H19 H 0.340(3) 0.015(3) 0.897(2)
H20 H 0.286(3) 0.212(2) 0.8179(17)
H21 H 0.433(3) 0.241(3) 0.824(2)
#END
