
#######################################################################
#
#                 Cambridge Crystallographic Data Centre
#                                CCDC
#
#######################################################################
#
# If this CIF has been generated from an entry in the Cambridge
# Structural Database, then it will include bibliographic, chemical,
# crystal, experimental, refinement or atomic coordinate data resulting
# from the CCDC's data processing and validation procedures.
#
#######################################################################

data_CSD_CIF_TAKRON
_audit_creation_date 2003-10-23
_audit_creation_method CSD-ConQuest-V1
_database_code_CSD TAKRON
_database_code_depnum_ccdc_archive 'CCDC 220586'
_chemical_formula_sum 'C15 H11 N1 O4'
_chemical_formula_moiety
;
C15 H11 N1 O4
;
_journal_coden_Cambridge 41
_journal_volume 48
_journal_year 2003
_journal_page_first 78
_journal_name_full 'Kristallografiya(Russ.)(Crystallogr.Rep.) '
loop_
_publ_author_name
"L.N.Kuleshova"
"V.N.Khrustalev"
"K.Yu.Suponitsky"
"M.Yu.Antipin"
"D.V.Gusev"
"E.S.Bobrikova"
_chemical_name_systematic
;
3-(4-Nitrophenyl)-2-phenylacrylic acid
;
_chemical_melting_point 487.15
_cell_volume   1226.167
_exptl_crystal_colour 'light yellow'
_exptl_crystal_density_diffrn 1.458
_exptl_crystal_description 'needle'
_exptl_crystal_preparation 'isopropanol'
_diffrn_ambient_temperature 110
#These two values have been output from a single CSD field.
_refine_ls_R_factor_gt 0.0625
_refine_ls_wR_factor_gt 0.0625
_symmetry_cell_setting monoclinic
_symmetry_space_group_name_H-M 'P 21/c'
_symmetry_Int_Tables_number 14
loop_
_symmetry_equiv_pos_site_id
_symmetry_equiv_pos_as_xyz
1 x,y,z
2 x,1/2-y,1/2+z
3 -x,-y,-z
4 -x,-1/2+y,-1/2-z
_cell_length_a 11.475(6)
_cell_length_b 5.641(3)
_cell_length_c 19.15(1)
_cell_angle_alpha 90
_cell_angle_beta 98.439(11)
_cell_angle_gamma 90
_cell_formula_units_Z 4
loop_
_atom_type_symbol
_atom_type_radius_bond
C 0.68
H 0.23
N 0.68
O 0.68
loop_
_atom_site_label
_atom_site_type_symbol
_atom_site_fract_x
_atom_site_fract_y
_atom_site_fract_z
O1 O 0.91525(17) 0.7595(4) 0.02286(10)
O2 O 0.96948(16) 0.6251(3) -0.07742(10)
O3 O 0.40157(18) 1.8383(4) -0.19387(12)
O4 O 0.40135(18) 1.9321(4) -0.08409(11)
N1 N 0.4356(2) 1.8112(4) -0.13035(14)
C1 C 0.9138(2) 0.7664(5) -0.04670(15)
C2 C 0.8390(2) 0.9536(5) -0.08460(15)
C3 C 0.7778(2) 1.0974(5) -0.04689(17)
C4 C 0.6905(2) 1.2790(5) -0.07172(15)
C5 C 0.6716(2) 1.4607(5) -0.02459(16)
C6 C 0.5885(2) 1.6358(5) -0.04296(16)
C7 C 0.5235(2) 1.6266(5) -0.10931(15)
C8 C 0.5372(2) 1.4471(5) -0.15714(17)
C9 C 0.6215(2) 1.2762(5) -0.13789(16)
C10 C 0.8385(2) 0.9684(5) -0.16255(15)
C11 C 0.8868(2) 1.1655(5) -0.19130(15)
C12 C 0.8883(3) 1.1787(5) -0.26388(16)
C13 C 0.8392(2) 1.0010(5) -0.30726(16)
C14 C 0.7902(3) 0.8047(5) -0.27929(16)
C15 C 0.7907(2) 0.7876(5) -0.20734(16)
H1 H 0.960(3) 0.635(6) 0.0403(16)
H2 H 0.798(3) 1.086(5) 0.0032(17)
H3 H 0.720(3) 1.468(6) 0.0228(17)
H4 H 0.576(2) 1.771(5) -0.0112(14)
H5 H 0.486(3) 1.445(5) -0.2017(16)
H6 H 0.635(2) 1.148(5) -0.1685(14)
H7 H 0.919(2) 1.295(5) -0.1603(14)
H8 H 0.922(3) 1.313(6) -0.2823(15)
H9 H 0.842(2) 0.999(5) -0.3575(16)
H10 H 0.754(3) 0.683(6) -0.3108(16)
H11 H 0.752(2) 0.658(5) -0.1895(14)
#END
