
#######################################################################
#
#                 Cambridge Crystallographic Data Centre
#                                CCDC
#
#######################################################################
#
# If this CIF has been generated from an entry in the Cambridge
# Structural Database, then it will include bibliographic, chemical,
# crystal, experimental, refinement or atomic coordinate data resulting
# from the CCDC's data processing and validation procedures.
#
#######################################################################

data_CSD_CIF_TALBIU
_audit_creation_date 2016-02-12
_audit_creation_method CSD-ConQuest-V1
_database_code_CSD TALBIU
_database_code_depnum_ccdc_archive 'CCDC 1429440'
_chemical_formula_sum 'C6 H6 N4 O8'
_chemical_formula_moiety
;
C6 H6 N4 O8
;
_journal_coden_Cambridge 29
_journal_volume 642
_journal_year 2016
_journal_page_first 211
_journal_name_full 'Z.Anorg.Allg.Chem. '
loop_
_publ_author_name
"Q.J.Axthammer"
"T.M.Klapotke"
"B.Krumm"
_chemical_name_systematic
;
But-2-yne-1,4-diyl bis(nitrocarbamate)
;
_cell_volume    516.063
_exptl_crystal_colour 'colorless'
_exptl_crystal_density_diffrn 1.687
_exptl_crystal_description 'plate'
_diffrn_ambient_temperature 294
#These two values have been output from a single CSD field.
_refine_ls_R_factor_gt 0.0388
_refine_ls_wR_factor_gt 0.0388
_symmetry_cell_setting monoclinic
_symmetry_space_group_name_H-M 'P 21/n'
_symmetry_Int_Tables_number 14
loop_
_symmetry_equiv_pos_site_id
_symmetry_equiv_pos_as_xyz
1 x,y,z
2 1/2-x,1/2+y,1/2-z
3 -x,-y,-z
4 -1/2+x,-1/2-y,-1/2+z
_cell_length_a 4.3479(5)
_cell_length_b 14.8725(13)
_cell_length_c 7.9973(7)
_cell_angle_alpha 90
_cell_angle_beta 93.696(10)
_cell_angle_gamma 90
_cell_formula_units_Z 2
loop_
_atom_type_symbol
_atom_type_radius_bond
C 0.68
H 0.23
N 0.68
O 0.68
loop_
_atom_site_label
_atom_site_type_symbol
_atom_site_fract_x
_atom_site_fract_y
_atom_site_fract_z
C1 C -0.0427(4) 0.30184(11) 0.2904(2)
C2 C 0.2338(5) 0.43794(11) 0.3133(2)
C3 C 0.4230(4) 0.48251(11) 0.4457(2)
N1 N -0.2728(4) 0.15419(10) 0.32747(19)
N2 N -0.0894(4) 0.22517(10) 0.3829(2)
O1 O -0.2081(4) 0.08253(8) 0.39410(17)
O2 O -0.4819(3) 0.16851(10) 0.22420(17)
O3 O -0.1691(3) 0.32250(8) 0.16000(16)
O4 O 0.1729(3) 0.34853(7) 0.37603(15)
H1 H 0.032(5) 0.2112(12) 0.463(3)
H2 H 0.039(4) 0.4671(13) 0.289(2)
H3 H 0.351(5) 0.4303(14) 0.211(3)
C1B C 1.0427(4) 0.69816(11) 0.7096(2)
C2B C 0.7662(5) 0.56206(11) 0.6867(2)
C3B C 0.5770(4) 0.51749(11) 0.5543(2)
N1B N 1.2728(4) 0.84581(10) 0.67253(19)
N2B N 1.0894(4) 0.77483(10) 0.6171(2)
O1B O 1.2081(4) 0.91747(8) 0.60590(17)
O2B O 1.4819(3) 0.83149(10) 0.77580(17)
O3B O 1.1691(3) 0.67750(8) 0.84000(16)
O4B O 0.8271(3) 0.65147(7) 0.62397(15)
H1B H 0.968(5) 0.7888(12) 0.537(3)
H2B H 0.961(4) 0.5329(13) 0.711(2)
H3B H 0.649(5) 0.5697(14) 0.789(3)
#END
