
#######################################################################
#
#                 Cambridge Crystallographic Data Centre
#                                CCDC
#
#######################################################################
#
# If this CIF has been generated from an entry in the Cambridge
# Structural Database, then it will include bibliographic, chemical,
# crystal, experimental, refinement or atomic coordinate data resulting
# from the CCDC's data processing and validation procedures.
#
#######################################################################

data_CSD_CIF_TAMQEG
_audit_creation_date 2017-03-26
_audit_creation_method CSD-ConQuest-V1
_database_code_CSD TAMQEG
_database_code_depnum_ccdc_archive 'CCDC 1540267'
_chemical_formula_sum 'C18 H23 N1 O3'
_chemical_formula_moiety
;
C18 H23 N1 O3
;
_journal_coden_Cambridge 1078
_journal_year 2017
_journal_name_full 'CSD Communication(Private Communication) '
loop_
_publ_author_name
"J.W.Bats"
"A.Stephen K.Hashmi"
_chemical_name_systematic
;
1-methoxy-2-nitro-3-[(4,6,6-trimethyl-2-methylidenecyclohex-3-en-1-yl)methyl]b
enzene
;
_chemical_name_common
;
1-(2-nitro-3-methoxybenzyl)-2-methylidene-4,6,6-trimethylcyclohex-3-ene
;
_cell_volume   1668.717
_exptl_crystal_colour 'colorless'
_exptl_crystal_density_diffrn 1.2
_exptl_crystal_description 'plate'
_diffrn_ambient_temperature 155
#These two values have been output from a single CSD field.
_refine_ls_R_factor_gt 0.0507
_refine_ls_wR_factor_gt 0.0507
_symmetry_cell_setting monoclinic
_symmetry_space_group_name_H-M 'P 21/n'
_symmetry_Int_Tables_number 14
loop_
_symmetry_equiv_pos_site_id
_symmetry_equiv_pos_as_xyz
1 x,y,z
2 1/2-x,1/2+y,1/2-z
3 -x,-y,-z
4 -1/2+x,-1/2-y,-1/2+z
_cell_length_a 7.8310(13)
_cell_length_b 30.571(4)
_cell_length_c 7.9209(11)
_cell_angle_alpha 90
_cell_angle_beta 118.358(12)
_cell_angle_gamma 90
_cell_formula_units_Z 4
loop_
_atom_type_symbol
_atom_type_radius_bond
C 0.68
H 0.23
N 0.68
O 0.68
loop_
_atom_site_label
_atom_site_type_symbol
_atom_site_fract_x
_atom_site_fract_y
_atom_site_fract_z
O1 O 0.13316(14) 0.03456(3) 0.41833(14)
C1 C 0.71505(17) 0.15065(4) 0.86453(16)
H1 H 0.58096 0.15314 0.84885
N1 N 0.36775(18) 0.06973(4) 0.75342(17)
C2 C 0.75467(18) 0.10182(4) 0.84252(17)
H2 H 0.88880 0.09898 0.86211
H3 H 0.74633 0.08477 0.94462
C3 C 0.85956(18) 0.16905(4) 1.06432(17)
C4 C 0.61693(18) 0.08218(4) 0.65060(17)
C5 C 0.30420(19) 0.04841(4) 0.43242(18)
C6 C 0.72443(19) 0.17726(4) 0.70868(17)
C7 C 0.43390(19) 0.06747(4) 0.60757(16)
O2 O 0.24917(19) 0.09735(5) 0.7351(2)
C8 C 0.0033(2) 0.01133(5) 0.2485(2)
H4 H -0.03304 0.03007 0.13617
H5 H -0.11348 0.00311 0.25682
H6 H 0.06737 -0.01510 0.23625
O3 O 0.4351(2) 0.04298(5) 0.88315(16)
C9 C 0.3622(2) 0.04464(4) 0.29281(19)
H7 H 0.27834 0.03182 0.17211
C10 C 0.8013(2) 0.21629(5) 1.0787(2)
H8 H 0.89296 0.22854 1.20371
H9 H 0.67024 0.21658 1.06527
H10 H 0.80341 0.23392 0.97641
C11 C 0.9193(2) 0.18872(4) 0.7432(2)
H11 H 0.932(2) 0.2004(5) 0.636(2)
C12 C 1.06442(18) 0.16884(5) 1.08558(18)
H12 H 1.14897 0.18740 1.19656
H13 H 1.11586 0.13863 1.11459
C13 C 0.5434(2) 0.05972(5) 0.3310(2)
H14 H 0.58234 0.05738 0.23467
C14 C 0.6693(2) 0.07813(4) 0.50597(19)
H15 H 0.79305 0.08813 0.52784
C15 C 1.2775(2) 0.19528(6) 0.9463(3)
H16 H 1.27217 0.20363 0.82439
H17 H 1.36095 0.16954 0.99853
H18 H 1.33051 0.21957 1.03742
C16 C 1.07681(19) 0.18470(4) 0.9133(2)
C17 C 0.8568(3) 0.14255(6) 1.2270(2)
H19 H 0.93993 0.15680 1.35004
H20 H 0.90510 0.11294 1.22764
H21 H 0.72369 0.14093 1.20756
C18 C 0.5662(3) 0.18807(5) 0.5473(2)
H22 H 0.572(3) 0.2060(7) 0.443(3)
H23 H 0.440(3) 0.1797(6) 0.531(3)
#END
