
#######################################################################
#
#                 Cambridge Crystallographic Data Centre
#                                CCDC
#
#######################################################################
#
# If this CIF has been generated from an entry in the Cambridge
# Structural Database, then it will include bibliographic, chemical,
# crystal, experimental, refinement or atomic coordinate data resulting
# from the CCDC's data processing and validation procedures.
#
#######################################################################

data_CSD_CIF_TAMTUW
_audit_creation_date 1992-03-02
_audit_creation_method CSD-ConQuest-V1
_database_code_CSD TAMTUW
_chemical_formula_sum 'C15 H20 N2 O4'
_chemical_formula_moiety
;
C15 H20 N2 O4
;
_journal_coden_Cambridge 35
_journal_volume 56
_journal_year 1991
_journal_page_first 4706
_journal_name_full 'J.Org.Chem. '
loop_
_publ_author_name
"R.R.Webb II"
"M.C.Venuti"
"C.Eigenbrot"
_chemical_name_systematic
;
1,2,3,4-Tetrahydro-1,1,4,4,6-pentamethyl-5,7-dinitronaphthalene
;
_chemical_melting_point 383.15
_cell_volume   1497.691
_exptl_crystal_density_diffrn 1.297
_exptl_special_details
;
Melting point range 383.15-384.15K

;
_diffrn_ambient_temperature ?
_diffrn_special_details
;
The study was carried out at room temperature,in the range 283-303K

;
#These two values have been output from a single CSD field.
_refine_ls_R_factor_gt 0.057
_refine_ls_wR_factor_gt 0.057
_symmetry_cell_setting monoclinic
_symmetry_space_group_name_H-M 'P 21/c'
_symmetry_Int_Tables_number 14
loop_
_symmetry_equiv_pos_site_id
_symmetry_equiv_pos_as_xyz
1 x,y,z
2 -x,1/2+y,1/2-z
3 -x,-y,-z
4 x,-1/2-y,-1/2+z
_cell_length_a 13.828(2)
_cell_length_b 9.743(1)
_cell_length_c 11.394(1)
_cell_angle_alpha 90
_cell_angle_beta 102.67(1)
_cell_angle_gamma 90
_cell_formula_units_Z 4
loop_
_atom_type_symbol
_atom_type_radius_bond
C 0.68
H 0.23
N 0.68
O 0.68
loop_
_atom_site_label
_atom_site_type_symbol
_atom_site_fract_x
_atom_site_fract_y
_atom_site_fract_z
O1 O 0.1457(1) 0.4680(2) 0.6571(2)
O2 O 0.2622(1) 0.4735(2) 0.8179(2)
O3 O 0.5301(1) 0.1395(2) 0.5483(2)
O4 O 0.4503(1) 0.3048(2) 0.4408(2)
N1 N 0.2195(1) 0.4215(2) 0.7234(2)
N2 N 0.4601(1) 0.2191(2) 0.5210(2)
C1 C 0.2630(1) 0.2954(2) 0.6838(1)
C2 C 0.3420(1) 0.3240(2) 0.6298(2)
C3 C 0.3813(1) 0.2076(2) 0.5883(2)
C4 C 0.3490(1) 0.0769(2) 0.6035(2)
C5 C 0.2700(1) 0.0533(2) 0.6582(1)
C6 C 0.2231(1) 0.1665(2) 0.6996(1)
C7 C 0.1316(1) 0.1451(2) 0.7542(2)
C8 C 0.1359(1) -0.0017(2) 0.8060(2)
C9 C 0.1459(1) -0.1103(2) 0.7151(2)
C10 C 0.2425(1) -0.0974(2) 0.6721(2)
C11 C 0.3816(2) 0.4674(2) 0.6222(2)
C12 C 0.1251(1) 0.2411(3) 0.8594(2)
C13 C 0.0383(1) 0.1629(3) 0.6547(2)
C14 C 0.3277(2) -0.1630(2) 0.7645(2)
C15 C 0.2295(2) -0.1741(2) 0.5526(2)
H1 H 0.38120 0.00110 0.57610
H2 H 0.07670 -0.01820 0.83310
H3 H 0.19120 -0.00790 0.87200
H4 H 0.09180 -0.10190 0.64760
H5 H 0.14390 -0.19800 0.75090
H6 H 0.43500 0.46480 0.58220
H7 H 0.33030 0.52430 0.57840
H8 H 0.40410 0.50310 0.70090
H9 H 0.18280 0.23060 0.92160
H10 H 0.12020 0.33340 0.83210
H11 H 0.06810 0.21830 0.88940
H12 H 0.04170 0.10390 0.58930
H13 H -0.01840 0.14030 0.68510
H14 H 0.03350 0.25550 0.62790
H15 H 0.33590 -0.11550 0.83880
H16 H 0.31250 -0.25650 0.77560
H17 H 0.38710 -0.15730 0.73590
H18 H 0.17680 -0.13380 0.49520
H19 H 0.28910 -0.16840 0.52430
H20 H 0.21450 -0.26760 0.56400
#END
