
#######################################################################
#
#                 Cambridge Crystallographic Data Centre
#                                CCDC
#
#######################################################################
#
# If this CIF has been generated from an entry in the Cambridge
# Structural Database, then it will include bibliographic, chemical,
# crystal, experimental, refinement or atomic coordinate data resulting
# from the CCDC's data processing and validation procedures.
#
#######################################################################

data_CSD_CIF_TANDIY
_audit_creation_date 2017-03-27
_audit_creation_method CSD-ConQuest-V1
_database_code_CSD TANDIY
_database_code_depnum_ccdc_archive 'CCDC 1508157'
_chemical_formula_sum 'C34 H40 N4 O7'
_chemical_formula_moiety
;
C34 H40 N4 O7
;
_journal_coden_Cambridge 1220
_journal_volume 23
_journal_year 2017
_journal_page_first 3699
_journal_name_full 'Chem.-Eur.J. '
loop_
_publ_author_name
"V.Krieger"
"E.Ciglia"
"R.Thoma"
"V.Vasylyeva"
"B.Frieg"
"N.de S.Amadeu"
"T.Kurz"
"C.Janiak"
"H.Gohlke"
"F.K.Hansen"
_chemical_name_systematic
;
N-benzyl-N-(2-(benzyl(2-oxo-2-(piperidin-1-yl)ethoxy)amino)-2-oxoethoxy)-2-((N
-benzylacetamido)oxy)acetamide
;
_chemical_name_common
;
N,4,8-tribenzyl-5,9-dioxo-N-(2-oxo-2-(piperidin-1-yl)ethoxy)-3,7-dioxa-4,8-dia
zadecan-1-amide
;
_cell_volume   1545.522
_exptl_crystal_colour 'colorless'
_exptl_crystal_density_diffrn 1.325
_exptl_crystal_description 'needle'
_exptl_crystal_preparation 'deuterochloroform'
_diffrn_ambient_temperature 95
#These two values have been output from a single CSD field.
_refine_ls_R_factor_gt 0.0391
_refine_ls_wR_factor_gt 0.0391
_symmetry_cell_setting triclinic
_symmetry_space_group_name_H-M 'P -1'
_symmetry_Int_Tables_number 2
loop_
_symmetry_equiv_pos_site_id
_symmetry_equiv_pos_as_xyz
1 x,y,z
2 -x,-y,-z
_cell_length_a 8.4756(8)
_cell_length_b 11.6611(10)
_cell_length_c 16.0272(14)
_cell_angle_alpha 93.316(4)
_cell_angle_beta 95.378(4)
_cell_angle_gamma 100.613(4)
_cell_formula_units_Z 2
loop_
_atom_type_symbol
_atom_type_radius_bond
C 0.68
H 0.23
N 0.68
O 0.68
loop_
_atom_site_label
_atom_site_type_symbol
_atom_site_fract_x
_atom_site_fract_y
_atom_site_fract_z
O1 O 1.07887(13) 1.39281(8) 0.10859(6)
C1 C 0.95014(17) 1.33043(11) 0.07985(8)
N1 N 0.89987(14) 1.22683(9) 0.11142(6)
O2 O 0.74867(12) 1.16159(8) 0.07916(5)
C2 C 0.83689(18) 1.36327(12) 0.01137(8)
H1 H 0.89190 1.43150 -0.01460
H2 H 0.74180 1.38230 0.03530
H3 H 0.80310 1.29740 -0.03130
N2 N 0.63688(15) 0.94164(9) -0.09588(6)
O3 O 0.92291(12) 0.83479(9) 0.06613(6)
C3 C 0.84632(17) 1.30089(11) 0.28232(8)
H4 H 0.81270 1.34340 0.23730
O4 O 0.61698(12) 0.58956(8) 0.06089(5)
C4 C 0.81101(17) 1.32810(12) 0.36344(9)
H5 H 0.75360 1.38940 0.37350
O5 O 0.56793(12) 1.11709(8) -0.07240(6)
C5 C 0.98344(18) 1.18237(12) 0.18212(8)
H6 H 1.10050 1.21380 0.18360
H7 H 0.96740 1.09620 0.17250
N3 N 0.75209(15) 0.67414(10) 0.09252(7)
O6 O 0.75196(12) 0.87283(8) -0.07361(5)
C6 C 0.93053(17) 1.21187(11) 0.26725(8)
N4 N 0.40423(14) 0.49507(10) 0.24197(7)
O7 O 0.58689(12) 0.42245(8) 0.17009(6)
C7 C 0.85894(18) 1.26652(13) 0.42939(8)
H8 H 0.83490 1.28540 0.48470
C8 C 0.9422(2) 1.17718(14) 0.41421(9)
H9 H 0.97500 1.13430 0.45920
C9 C 0.9780(2) 1.15016(13) 0.33378(9)
H10 H 1.03540 1.08890 0.32390
C10 C 0.80774(19) 1.08982(12) -0.31994(9)
H11 H 0.89880 1.15180 -0.31620
C11 C 0.75161(17) 1.04638(11) -0.24699(8)
H12 H 0.80450 1.07860 -0.19360
C12 C 0.61863(17) 0.95616(11) -0.25212(8)
C13 C 0.54057(18) 0.91022(11) -0.17630(8)
H13 H 0.43830 0.93930 -0.17390
H14 H 0.51270 0.82380 -0.18470
C14 C 0.64918(17) 1.04497(11) -0.05049(8)
C15 C 0.76868(17) 1.06052(11) 0.02792(8)
H15 H 0.74930 0.99000 0.05990
H16 H 0.88030 1.07140 0.01200
C16 C 0.7313(2) 1.04307(13) -0.39812(9)
H17 H 0.76920 1.07360 -0.44780
C17 C 0.60031(19) 0.95237(13) -0.40356(8)
H18 H 0.54880 0.91950 -0.45700
C18 C 0.54377(18) 0.90913(12) -0.33094(8)
H19 H 0.45310 0.84680 -0.33500
C19 C 0.68194(18) 0.77209(11) -0.03186(8)
H20 H 0.66750 0.70020 -0.06990
H21 H 0.57520 0.78110 -0.01500
C20 C 0.79787(17) 0.76442(11) 0.04544(8)
C21 C 0.85598(18) 0.64720(12) 0.16364(8)
H22 H 0.96950 0.68170 0.15710
H23 H 0.84690 0.56130 0.16310
C22 C 0.81423(17) 0.69290(12) 0.24774(8)
C23 C 0.7178(2) 0.83540(14) 0.33504(10)
H24 H 0.67190 0.90360 0.34050
C24 C 0.7537(2) 0.77749(15) 0.40549(9)
H25 H 0.73350 0.80640 0.45930
C25 C 0.8190(2) 0.67744(14) 0.39719(9)
H26 H 0.84330 0.63760 0.44540
C26 C 0.84898(18) 0.63536(12) 0.31867(9)
H27 H 0.89360 0.56660 0.31340
C27 C 0.48893(17) 0.58479(11) 0.11418(8)
H28 H 0.38350 0.56380 0.07930
H29 H 0.49540 0.66290 0.14340
C28 C 0.49975(16) 0.49481(11) 0.17924(8)
C29 C 0.28758(19) 0.57244(13) 0.25319(9)
H30 H 0.17690 0.52880 0.23490
H31 H 0.31010 0.63920 0.21790
C30 C 0.29886(19) 0.61784(13) 0.34497(9)
H32 H 0.21460 0.66510 0.35220
H33 H 0.40540 0.66910 0.36120
C31 C 0.2771(2) 0.51739(14) 0.40219(9)
H34 H 0.16670 0.47030 0.39010
H35 H 0.29160 0.54900 0.46170
C32 C 0.40088(19) 0.44008(13) 0.38783(9)
H36 H 0.51100 0.48520 0.40540
H37 H 0.38220 0.37230 0.42250
C33 C 0.38773(19) 0.39700(12) 0.29578(8)
H38 H 0.47310 0.35130 0.28700
H39 H 0.28180 0.34470 0.27990
C34 C 0.74898(19) 0.79367(13) 0.25663(9)
H40 H 0.72570 0.83410 0.20860
#END
