
#######################################################################
#
#                 Cambridge Crystallographic Data Centre
#                                CCDC
#
#######################################################################
#
# If this CIF has been generated from an entry in the Cambridge
# Structural Database, then it will include bibliographic, chemical,
# crystal, experimental, refinement or atomic coordinate data resulting
# from the CCDC's data processing and validation procedures.
#
#######################################################################

data_CSD_CIF_TANHAR
_audit_creation_date 1992-03-26
_audit_creation_method CSD-ConQuest-V1
_database_code_CSD TANHAR
_chemical_formula_sum 'C10 H6 N2 O2'
_chemical_formula_moiety
;
C10 H6 N2 O2
;
_journal_coden_Cambridge 1094
_journal_volume 2
_journal_year 1991
_journal_page_first 133
_journal_name_full 'Struct.Chem. '
loop_
_publ_author_name
"P.E.O'Bannon"
"P.J.Carroll"
"W.P.Dailey"
_chemical_name_systematic
;
1-Nitro-2-phenylcycloprop-2-ene-carbonitrile
;
_cell_volume    904.579
_exptl_crystal_density_diffrn 1.37
_diffrn_ambient_temperature ?
_diffrn_special_details
;
The study was carried out at room temperature,in the range 283-303K

;
#These two values have been output from a single CSD field.
_refine_ls_R_factor_gt 0.046
_refine_ls_wR_factor_gt 0.046
_symmetry_cell_setting monoclinic
_symmetry_space_group_name_H-M 'P 21/n'
_symmetry_Int_Tables_number 14
loop_
_symmetry_equiv_pos_site_id
_symmetry_equiv_pos_as_xyz
1 x,y,z
2 1/2-x,1/2+y,1/2-z
3 -x,-y,-z
4 -1/2+x,-1/2-y,-1/2+z
_cell_length_a 11.649(1)
_cell_length_b 5.069(1)
_cell_length_c 15.389(1)
_cell_angle_alpha 90
_cell_angle_beta 95.46(1)
_cell_angle_gamma 90
_cell_formula_units_Z 4
loop_
_atom_type_symbol
_atom_type_radius_bond
C 0.68
H 0.23
N 0.68
O 0.68
loop_
_atom_site_label
_atom_site_type_symbol
_atom_site_fract_x
_atom_site_fract_y
_atom_site_fract_z
C1 C 0.8041(1) 0.3119(3) 1.1073(1)
C2 C 0.7173(1) 0.2455(3) 1.0333(1)
C3 C 0.6847(2) 0.4049(4) 1.0909(1)
C4 C 0.9033(1) 0.4806(4) 1.1018(1)
C5 C 0.6996(1) 0.0812(3) 0.9563(1)
C6 C 0.7879(1) -0.0719(4) 0.9293(1)
C7 C 0.7658(2) -0.2358(4) 0.8577(1)
C8 C 0.6582(2) -0.2442(4) 0.8128(1)
C9 C 0.5712(2) -0.0899(4) 0.8390(1)
C10 C 0.5906(2) 0.0733(4) 0.9108(1)
N1 N 0.9765(2) 0.6256(4) 1.0953(1)
N2 N 0.8287(1) 0.1059(3) 1.17732(8)
O1 O 0.7535(1) -0.0555(3) 1.18618(8)
O2 O 0.9208(1) 0.1147(3) 1.22126(8)
H1 H 0.62380 0.51120 1.11090
H2 H 0.86320 -0.06230 0.95960
H3 H 0.82610 -0.34560 0.84000
H4 H 0.64280 -0.35680 0.76290
H5 H 0.49580 -0.09380 0.80760
H6 H 0.53000 0.18250 0.92860
#END
