
#######################################################################
#
#                 Cambridge Crystallographic Data Centre
#                                CCDC
#
#######################################################################
#
# If this CIF has been generated from an entry in the Cambridge
# Structural Database, then it will include bibliographic, chemical,
# crystal, experimental, refinement or atomic coordinate data resulting
# from the CCDC's data processing and validation procedures.
#
#######################################################################

data_CSD_CIF_TAPDUJ
_audit_creation_date 1992-04-27
_audit_creation_method CSD-ConQuest-V1
_database_code_CSD TAPDUJ
_database_code_depnum_ccdc_archive 'CCDC 1266346'
_chemical_formula_sum 'C6 H8 N2 O2'
_chemical_formula_moiety
;
C6 H8 N2 O2
;
_journal_coeditor_code "IUCr HE0025"
_journal_coden_Cambridge 591
_journal_volume 48
_journal_year 1992
_journal_page_first 307
_journal_name_full 'Acta Crystallogr.,Sect.C:Cryst.Struct.Commun. '
loop_
_publ_author_name
"D.A.Peters"
"R.L.Beddoes"
"J.A.Joule"
_chemical_name_systematic
;
3-Methoxy-5-methylpyrazine 1-oxide
;
_chemical_melting_point 403
_cell_volume    680.533
_exptl_crystal_colour 'colorless'
_exptl_crystal_density_diffrn 1.368
_exptl_special_details
;
Melting point range 403-405K

;
_diffrn_ambient_temperature ?
_diffrn_special_details
;
The study was carried out at room temperature,in the range 283-303K

;
#These two values have been output from a single CSD field.
_refine_ls_R_factor_gt 0.027
_refine_ls_wR_factor_gt 0.027
_symmetry_cell_setting orthorhombic
_symmetry_space_group_name_H-M 'P n a 21'
_symmetry_Int_Tables_number 33
loop_
_symmetry_equiv_pos_site_id
_symmetry_equiv_pos_as_xyz
1 x,y,z
2 1/2-x,1/2+y,1/2+z
3 1/2+x,1/2-y,z
4 -x,-y,1/2+z
_cell_length_a 8.0056(5)
_cell_length_b 12.7140(6)
_cell_length_c 6.6861(9)
_cell_angle_alpha 90
_cell_angle_beta 90
_cell_angle_gamma 90
_cell_formula_units_Z 4
loop_
_atom_type_symbol
_atom_type_radius_bond
C 0.68
H 0.23
N 0.68
O 0.68
loop_
_atom_site_label
_atom_site_type_symbol
_atom_site_fract_x
_atom_site_fract_y
_atom_site_fract_z
O1 O 0.5041(2) 0.76059(12) -0.00630
O2 O 0.2396(3) 0.44027(13) -0.005(3)
N1 N 0.5088(3) 0.6589(1) 0.006(4)
N2 N 0.5294(3) 0.4416(2) -0.004(4)
C1 C 0.6655(4) 0.5033(2) 0.004(4)
C2 C 0.6599(4) 0.6091(2) -0.010(4)
C3 C 0.3690(4) 0.6015(2) -0.016(4)
C4 C 0.3872(4) 0.4929(2) -0.007(4)
C5 C 0.8327(5) 0.4484(5) 0.005(4)
C6 C 0.2453(5) 0.3262(3) -0.0202(4)
H1 H 0.760(3) 0.657(2) -0.039(11)
H2 H 0.263(3) 0.644(2) 0.038(7)
H3 H 0.844(7) 0.427(5) 0.12(2)
H4 H 0.828(5) 0.383(3) -0.093(11)
H5 H 0.930(4) 0.500(2) -0.106(7)
H6 H 0.140(4) 0.300(2) 0.075(9)
H7 H 0.327(6) 0.313(3) -0.173(8)
H8 H 0.312(5) 0.291(2) 0.01(3)
#END
