
#######################################################################
#
#                 Cambridge Crystallographic Data Centre
#                                CCDC
#
#######################################################################
#
# If this CIF has been generated from an entry in the Cambridge
# Structural Database, then it will include bibliographic, chemical,
# crystal, experimental, refinement or atomic coordinate data resulting
# from the CCDC's data processing and validation procedures.
#
#######################################################################

data_CSD_CIF_TAPJUP
_audit_creation_date 1992-04-28
_audit_creation_method CSD-ConQuest-V1
_database_code_CSD TAPJUP
_chemical_formula_sum 'C10 H8 N2 O3'
_chemical_formula_moiety
;
C10 H8 N2 O3
;
_journal_coeditor_code "IUCr ST0533"
_journal_coden_Cambridge 591
_journal_volume 48
_journal_year 1992
_journal_page_first 377
_journal_name_full 'Acta Crystallogr.,Sect.C:Cryst.Struct.Commun. '
loop_
_publ_author_name
"D.A.Grossie"
"K.Turnbull"
_chemical_name_systematic
;
5-Hydroxy-5-methylsydno(3,4-a)indole
;
_cell_volume    923.124
_exptl_crystal_colour 'colorless'
_exptl_crystal_density_diffrn 1.47
_diffrn_ambient_temperature ?
_diffrn_special_details
;
The study was carried out at room temperature,in the range 283-303K

;
#These two values have been output from a single CSD field.
_refine_ls_R_factor_gt 0.047
_refine_ls_wR_factor_gt 0.047
_symmetry_cell_setting monoclinic
_symmetry_space_group_name_H-M 'P 21/a'
_symmetry_Int_Tables_number 14
loop_
_symmetry_equiv_pos_site_id
_symmetry_equiv_pos_as_xyz
1 x,y,z
2 1/2-x,1/2+y,-z
3 -x,-y,-z
4 -1/2+x,-1/2-y,z
_cell_length_a 8.702(4)
_cell_length_b 12.063(2)
_cell_length_c 9.711(4)
_cell_angle_alpha 90
_cell_angle_beta 115.10(2)
_cell_angle_gamma 90
_cell_formula_units_Z 4
loop_
_atom_type_symbol
_atom_type_radius_bond
C 0.68
H 0.23
N 0.68
O 0.68
loop_
_atom_site_label
_atom_site_type_symbol
_atom_site_fract_x
_atom_site_fract_y
_atom_site_fract_z
C1 C -0.2091(2) 0.5227(1) 0.0432(2)
C2 C -0.2940(2) 0.4247(2) 0.0415(2)
C3 C -0.2163(2) 0.3408(2) 0.1457(2)
C4 C -0.0497(2) 0.3509(1) 0.2558(2)
C5 C 0.0371(2) 0.4479(1) 0.2597(2)
C6 C 0.2187(2) 0.4819(1) 0.3676(2)
C7 C 0.2243(2) 0.5949(1) 0.3012(2)
C8 C 0.3253(2) 0.6887(1) 0.3179(2)
O1 O 0.4684(2) 0.7190(1) 0.4010(2)
O2 O 0.2185(2) 0.7601(1) 0.2006(1)
N1 N 0.0599(2) 0.7134(1) 0.1182(2)
N2 N 0.0749(2) 0.6181(1) 0.1843(2)
C9 C -0.0448(2) 0.5299(1) 0.1541(2)
O3 O 0.3381(2) 0.4096(1) 0.3505(1)
C10 C 0.2430(2) 0.4900(2) 0.5320(2)
H1 H -0.25360 0.58330 -0.03240
H2 H -0.40970 0.41840 -0.03400
H3 H -0.28390 0.27480 0.13670
H4 H -0.00120 0.29110 0.33120
H5 H 0.22160 0.41880 0.56950
H6 H 0.16780 0.53490 0.54360
H7 H 0.35670 0.51050 0.59700
H8 H 0.39440 0.37540 0.44520
#END
