
#######################################################################
#
#                 Cambridge Crystallographic Data Centre
#                                CCDC
#
#######################################################################
#
# If this CIF has been generated from an entry in the Cambridge
# Structural Database, then it will include bibliographic, chemical,
# crystal, experimental, refinement or atomic coordinate data resulting
# from the CCDC's data processing and validation procedures.
#
#######################################################################

data_CSD_CIF_TAPLUU
_audit_creation_date 2017-03-28
_audit_creation_method CSD-ConQuest-V1
_database_code_CSD TAPLUU
_database_code_depnum_ccdc_archive 'CCDC 1540659'
_chemical_formula_sum 'C23 H18 N2 O4'
_chemical_formula_moiety
;
C23 H18 N2 O4
;
_journal_coden_Cambridge 1078
_journal_year 2017
_journal_name_full 'CSD Communication(Private Communication) '
loop_
_publ_author_name
"Liping Song"
_chemical_name_systematic
;
5-((3-methylphenoxy)methyl)-3-(4-nitrophenyl)-4-phenyl-1,2-oxazole
;
_cell_volume   1944.548
_exptl_crystal_density_diffrn 1.32
_diffrn_ambient_temperature 296
#These two values have been output from a single CSD field.
_refine_ls_R_factor_gt 0.0348
_refine_ls_wR_factor_gt 0.0348
_symmetry_cell_setting orthorhombic
_symmetry_space_group_name_H-M 'P 21 21 21'
_symmetry_Int_Tables_number 19
loop_
_symmetry_equiv_pos_site_id
_symmetry_equiv_pos_as_xyz
1 x,y,z
2 1/2-x,-y,1/2+z
3 -x,1/2+y,1/2-z
4 1/2+x,1/2-y,-z
_cell_length_a 9.761(4)
_cell_length_b 12.512(5)
_cell_length_c 15.922(7)
_cell_angle_alpha 90
_cell_angle_beta 90
_cell_angle_gamma 90
_cell_formula_units_Z 4
loop_
_atom_type_symbol
_atom_type_radius_bond
C 0.68
H 0.23
N 0.68
O 0.68
loop_
_atom_site_label
_atom_site_type_symbol
_atom_site_fract_x
_atom_site_fract_y
_atom_site_fract_z
C1 C 0.7222(2) 0.59472(13) 0.96581(12)
C2 C 0.5918(2) 0.61794(14) 0.94068(13)
H1 H 0.55570 0.68600 0.94830
C3 C 0.5147(2) 0.53849(14) 0.90380(13)
H2 H 0.42550 0.55300 0.88680
C4 C 0.56870(18) 0.43742(14) 0.89179(11)
C5 C 0.70144(19) 0.41654(14) 0.91830(13)
H3 H 0.73830 0.34860 0.91100
C6 C 0.7791(2) 0.49530(14) 0.95523(13)
H4 H 0.86830 0.48150 0.97270
C7 C 0.48847(19) 0.35251(14) 0.85029(12)
C8 C 0.39201(19) 0.20195(15) 0.81419(12)
C9 C 0.47745(19) 0.24248(13) 0.87233(11)
C10 C 0.53854(17) 0.18767(13) 0.94530(12)
C11 C 0.5227(2) 0.22926(15) 1.02532(12)
H5 H 0.47520 0.29300 1.03260
C12 C 0.5763(2) 0.17782(18) 1.09429(14)
H6 H 0.56500 0.20680 1.14760
C13 C 0.6465(2) 0.08356(18) 1.08416(17)
H7 H 0.68210 0.04840 1.13080
C14 C 0.6643(2) 0.04126(16) 1.00583(18)
H8 H 0.71170 -0.02270 0.99940
C15 C 0.61231(19) 0.09279(14) 0.93614(14)
H9 H 0.62650 0.06420 0.88290
C16 C 0.3360(2) 0.09289(16) 0.80102(14)
H10 H 0.34660 0.07250 0.74260
H11 H 0.38600 0.04200 0.83530
C17 C 0.1332(2) -0.00661(15) 0.82179(13)
C18 C -0.0049(2) -0.00640(18) 0.84218(14)
H12 H -0.04910 0.05720 0.85550
C19 C -0.0751(3) -0.1010(2) 0.84249(15)
H13 H -0.16810 -0.10110 0.85510
C20 C -0.0104(3) -0.19572(19) 0.82449(14)
H14 H -0.05970 -0.25930 0.82530
C21 C 0.1265(2) -0.19704(16) 0.80536(13)
C22 C 0.1981(2) -0.10144(16) 0.80306(12)
H15 H 0.29050 -0.10130 0.78880
C23 C 0.2011(3) -0.29985(18) 0.78526(18)
H16 H 0.21440 -0.30520 0.72570
H17 H 0.14770 -0.35950 0.80440
H18 H 0.28840 -0.30010 0.81290
N1 N 0.41704(17) 0.37514(13) 0.78260(11)
N2 N 0.8052(2) 0.67826(13) 1.00601(12)
O1 O 0.35447(15) 0.27879(11) 0.75876(9)
O2 O 0.19664(14) 0.0914(1) 0.82295(10)
O3 O 0.76110(18) 0.76901(11) 1.00652(11)
O4 O 0.91334(19) 0.65234(13) 1.03831(13)
#END
