
#######################################################################
#
#                 Cambridge Crystallographic Data Centre
#                                CCDC
#
#######################################################################
#
# If this CIF has been generated from an entry in the Cambridge
# Structural Database, then it will include bibliographic, chemical,
# crystal, experimental, refinement or atomic coordinate data resulting
# from the CCDC's data processing and validation procedures.
#
#######################################################################

data_CSD_CIF_TAPMIH
_audit_creation_date 2005-09-14
_audit_creation_method CSD-ConQuest-V1
_database_code_CSD TAPMIH
_database_code_depnum_ccdc_archive 'CCDC 264997'
_chemical_formula_sum 'C12 H9 N1 O4'
_chemical_formula_moiety
;
C12 H9 N1 O4
;
_journal_coden_Cambridge 182
_journal_year 2005
_journal_page_first 2486
_journal_name_full 'Chem.Commun. '
loop_
_publ_author_name
"A.Dey"
"G.R.Desiraju"
_chemical_name_systematic
;
4-(4-Nitrophenoxy)phenol
;
_chemical_melting_point 446
_cell_volume   1051.086
_exptl_crystal_colour 'yellow'
_exptl_crystal_density_diffrn 1.461
_exptl_crystal_description 'block'
_exptl_crystal_preparation 'ethyl acetate/hexane'
_diffrn_ambient_temperature 298
#These two values have been output from a single CSD field.
_refine_ls_R_factor_gt 0.0382
_refine_ls_wR_factor_gt 0.0382
_symmetry_cell_setting monoclinic
_symmetry_space_group_name_H-M 'P 21/n'
_symmetry_Int_Tables_number 14
loop_
_symmetry_equiv_pos_site_id
_symmetry_equiv_pos_as_xyz
1 x,y,z
2 1/2-x,1/2+y,1/2-z
3 -x,-y,-z
4 -1/2+x,-1/2-y,-1/2+z
_cell_length_a 11.2437(17)
_cell_length_b 5.3306(8)
_cell_length_c 17.601(3)
_cell_angle_alpha 90
_cell_angle_beta 94.891(13)
_cell_angle_gamma 90
_cell_formula_units_Z 4
loop_
_atom_type_symbol
_atom_type_radius_bond
C 0.68
H 0.23
N 0.68
O 0.68
loop_
_atom_site_label
_atom_site_type_symbol
_atom_site_fract_x
_atom_site_fract_y
_atom_site_fract_z
O1 O 0.35730(11) 0.0552(2) 0.47781(6)
O2 O 0.45006(11) 0.1721(3) 0.17658(6)
O3 O 0.03329(13) 0.8973(3) 0.59670(8)
N1 N 0.10683(13) 0.7627(3) 0.63167(9)
O4 O 0.13143(13) 0.7812(3) 0.70042(8)
C1 C 0.43045(13) 0.1506(3) 0.25207(8)
C2 C 0.36184(16) -0.0480(3) 0.27277(9)
H1 H 0.33290 -0.16390 0.23630
C3 C 0.33592(15) -0.0756(3) 0.34765(9)
H2 H 0.28880 -0.20860 0.36150
C4 C 0.37978(14) 0.0933(3) 0.40139(9)
C5 C 0.45016(15) 0.2893(3) 0.38179(9)
H3 H 0.48100 0.40170 0.41880
C6 C 0.47500(14) 0.3186(3) 0.30663(9)
H4 H 0.52190 0.45220 0.29300
C7 C 0.29204(13) 0.2314(3) 0.51215(8)
C8 C 0.30300(14) 0.2306(3) 0.59133(9)
H5 H 0.35220 0.11410 0.61780
C9 C 0.24074(14) 0.4029(4) 0.63030(9)
H6 H 0.24730 0.40400 0.68330
C10 C 0.16852(13) 0.5740(3) 0.59010(8)
C11 C 0.15394(14) 0.5732(3) 0.51148(8)
H7 H 0.10310 0.68740 0.48530
C12 C 0.21624(14) 0.3998(3) 0.47247(8)
H8 H 0.20740 0.39580 0.41950
H9 H 0.480(2) 0.311(5) 0.1683(13)
#END
