
#######################################################################
#
#                 Cambridge Crystallographic Data Centre
#                                CCDC
#
#######################################################################
#
# If this CIF has been generated from an entry in the Cambridge
# Structural Database, then it will include bibliographic, chemical,
# crystal, experimental, refinement or atomic coordinate data resulting
# from the CCDC's data processing and validation procedures.
#
#######################################################################

data_CSD_CIF_TAPPOQ
_audit_creation_date 2005-09-13
_audit_creation_method CSD-ConQuest-V1
_database_code_CSD TAPPOQ
_database_code_depnum_ccdc_archive 'CCDC 265009'
_chemical_formula_sum 'C13 H11 N1 O3'
_chemical_formula_moiety
;
C13 H11 N1 O3
;
_journal_coden_Cambridge 182
_journal_year 2005
_journal_page_first 2486
_journal_name_full 'Chem.Commun. '
loop_
_publ_author_name
"A.Dey"
"G.R.Desiraju"
_chemical_name_systematic
;
4-Methyl-4'-nitrodiphenyl ether
;
_chemical_melting_point 343
_cell_volume   1105.446
_exptl_crystal_colour 'colorless'
_exptl_crystal_density_diffrn 1.377
_exptl_crystal_description 'block'
_exptl_crystal_preparation 'ethyl acetate/hexane'
_diffrn_ambient_temperature 100
#These two values have been output from a single CSD field.
_refine_ls_R_factor_gt 0.0379
_refine_ls_wR_factor_gt 0.0379
_symmetry_cell_setting monoclinic
_symmetry_space_group_name_H-M 'P 21/c'
_symmetry_Int_Tables_number 14
loop_
_symmetry_equiv_pos_site_id
_symmetry_equiv_pos_as_xyz
1 x,y,z
2 -x,1/2+y,1/2-z
3 -x,-y,-z
4 x,-1/2-y,-1/2+z
_cell_length_a 7.6100(11)
_cell_length_b 8.8817(13)
_cell_length_c 16.410(2)
_cell_angle_alpha 90
_cell_angle_beta 94.682(2)
_cell_angle_gamma 90
_cell_formula_units_Z 4
loop_
_atom_type_symbol
_atom_type_radius_bond
C 0.68
H 0.23
N 0.68
O 0.68
loop_
_atom_site_label
_atom_site_type_symbol
_atom_site_fract_x
_atom_site_fract_y
_atom_site_fract_z
O1 O -0.01054(12) 0.34879(10) 0.27199(5)
O2 O -0.37284(12) 0.70250(11) 0.53948(6)
N1 N -0.22452(13) 0.72289(12) 0.51641(6)
O3 O -0.12343(12) 0.82071(11) 0.54548(6)
C1 C -0.00342(16) 0.65278(14) 0.42371(7)
H1 H 0.06810 0.73330 0.44540
C2 C -0.05360(16) 0.44486(14) 0.33221(7)
C3 C -0.16575(16) 0.62609(14) 0.45238(7)
C4 C 0.16296(17) 0.47904(15) 0.17745(8)
H2 H 0.06930 0.54790 0.16460
C5 C 0.14860(16) 0.36902(14) 0.23597(7)
C6 C 0.43493(17) 0.27703(15) 0.21493(8)
H3 H 0.52750 0.20710 0.22780
C7 C -0.21663(16) 0.41854(15) 0.36229(8)
H4 H -0.28830 0.33770 0.34120
C8 C 0.28355(16) 0.26820(15) 0.25571(7)
H5 H 0.27240 0.19400 0.29670
C9 C 0.45511(17) 0.38590(14) 0.15544(7)
C10 C 0.31711(17) 0.48704(14) 0.13779(8)
H6 H 0.32880 0.56300 0.09780
C11 C 0.05450(16) 0.56139(14) 0.36315(7)
H7 H 0.16640 0.57790 0.34300
C12 C -0.27390(16) 0.50949(15) 0.42243(7)
H8 H -0.38530 0.49290 0.44310
C13 C 0.61945(18) 0.39063(17) 0.11033(9)
H9 H 0.72320 0.37990 0.14940
H10 H 0.62530 0.48700 0.08160
H11 H 0.61680 0.30810 0.07060
#END
