
#######################################################################
#
#                 Cambridge Crystallographic Data Centre
#                                CCDC
#
#######################################################################
#
# If this CIF has been generated from an entry in the Cambridge
# Structural Database, then it will include bibliographic, chemical,
# crystal, experimental, refinement or atomic coordinate data resulting
# from the CCDC's data processing and validation procedures.
#
#######################################################################

data_CSD_CIF_TAPSAH
_audit_creation_date 2017-03-28
_audit_creation_method CSD-ConQuest-V1
_database_code_CSD TAPSAH
_database_code_depnum_ccdc_archive 'CCDC 1528304'
_chemical_formula_sum 'C19 H19 N1 O6'
_chemical_formula_moiety
;
C19 H19 N1 O6
;
_journal_coden_Cambridge 1267
_journal_volume 232
_journal_year 2017
_journal_page_first 283
_journal_name_full 'Z.Kristallogr.-New Cryst.Struct. '
loop_
_publ_author_name
"Jiangtao Li"
_chemical_name_systematic
;
4a-hydroxy-9-(2-nitrophenyl)-3,4,4a,5,6,7,9,9a-octahydro-1H-xanthene-1,8(2H)-d
ione
;
_cell_volume    805.567
_exptl_crystal_colour 'colorless'
_exptl_crystal_density_diffrn 1.473
_exptl_crystal_description 'block'
_diffrn_ambient_temperature 296
#These two values have been output from a single CSD field.
_refine_ls_R_factor_gt 0.052
_refine_ls_wR_factor_gt 0.052
_symmetry_cell_setting triclinic
_symmetry_space_group_name_H-M 'P -1'
_symmetry_Int_Tables_number 2
loop_
_symmetry_equiv_pos_site_id
_symmetry_equiv_pos_as_xyz
1 x,y,z
2 -x,-y,-z
_cell_length_a 7.009(3)
_cell_length_b 8.081(3)
_cell_length_c 15.218(8)
_cell_angle_alpha 101.973(9)
_cell_angle_beta 99.137(10)
_cell_angle_gamma 102.164(7)
_cell_formula_units_Z 2
loop_
_atom_type_symbol
_atom_type_radius_bond
C 0.68
H 0.23
N 0.68
O 0.68
loop_
_atom_site_label
_atom_site_type_symbol
_atom_site_fract_x
_atom_site_fract_y
_atom_site_fract_z
N1 N 0.2619(3) 0.2025(2) 0.03365(13)
O1 O 0.0038(2) 0.39301(19) 0.35661(10)
O2 O -0.1200(2) 0.4203(2) 0.21191(11)
O3 O 0.3066(2) 0.0937(2) 0.30759(11)
O4 O 0.6635(2) 0.59710(19) 0.32322(11)
O5 O 0.1659(3) 0.1179(2) -0.04237(12)
O6 O 0.3628(3) 0.1421(2) 0.08635(11)
C1 C 0.1884(3) 0.5045(3) 0.37956(15)
C2 C 0.2187(3) 0.6304(3) 0.47093(16)
H1 H 0.24970 0.57340 0.51960
H2 H 0.09650 0.66620 0.47650
C3 C 0.3874(3) 0.7901(3) 0.48140(16)
H3 H 0.34540 0.86030 0.44110
H4 H 0.41960 0.86080 0.54420
C4 C 0.5707(3) 0.7358(3) 0.45769(16)
H5 H 0.67210 0.83920 0.45920
H6 H 0.62370 0.68150 0.50400
C5 C 0.5285(3) 0.6100(3) 0.36444(16)
C6 C 0.3243(3) 0.5011(3) 0.32663(15)
C7 C 0.2817(3) 0.3763(3) 0.23290(15)
H7 H 0.39350 0.32130 0.23120
C8 C 0.0935(3) 0.2295(3) 0.22259(15)
H8 H 0.04260 0.17410 0.15690
C9 C -0.0707(3) 0.3002(3) 0.26035(15)
C10 C -0.2514(3) 0.1578(3) 0.25860(16)
H9 H -0.31660 0.09960 0.19520
H10 H -0.34550 0.21040 0.28750
C11 C -0.1976(3) 0.0229(3) 0.30786(16)
H11 H -0.31630 -0.06960 0.30120
H12 H -0.14740 0.07760 0.37290
C12 C -0.0388(3) -0.0554(3) 0.26848(16)
H13 H 0.00250 -0.13280 0.30440
H14 H -0.09460 -0.12350 0.20570
C13 C 0.1393(3) 0.0882(3) 0.27051(15)
C14 C 0.2738(3) 0.4696(3) 0.15464(15)
C15 C 0.2769(3) 0.6461(3) 0.17247(16)
H15 H 0.28150 0.70600 0.23230
C16 C 0.2734(4) 0.7359(3) 0.10385(17)
H16 H 0.28040 0.85500 0.11880
C17 C 0.2596(3) 0.6507(3) 0.01414(17)
H17 H 0.25550 0.71120 -0.03160
C18 C 0.2520(3) 0.4746(3) -0.00753(16)
H18 H 0.24060 0.41440 -0.06800
C19 C 0.2616(3) 0.3883(3) 0.06288(16)
H19 H -0.211(4) 0.463(4) 0.244(2)
#END
