
#######################################################################
#
#                 Cambridge Crystallographic Data Centre
#                                CCDC
#
#######################################################################
#
# If this CIF has been generated from an entry in the Cambridge
# Structural Database, then it will include bibliographic, chemical,
# crystal, experimental, refinement or atomic coordinate data resulting
# from the CCDC's data processing and validation procedures.
#
#######################################################################

data_CSD_CIF_TARCOH
_audit_creation_date 2017-03-29
_audit_creation_method CSD-ConQuest-V1
_database_code_CSD TARCOH
_database_code_depnum_ccdc_archive 'CCDC 1533695'
_chemical_formula_sum 'C6 H13 N1 O1'
_chemical_formula_moiety
;
C6 H13 N1 O1
;
_journal_coden_Cambridge 1695
_journal_volume 5
_journal_year 2017
_journal_page_first 3699
_journal_name_full 'J.Mater.Chem.C '
loop_
_publ_author_name
"Qin Zhang"
"Qiuyun Mao"
"Cong Shang"
"Ya-Nan Chen"
"Xin Peng"
"Hongwei Tan"
"Huiliang Wang"
_chemical_name_systematic
;
N-hydroxyhexan-1-imine
;
_cell_volume    708.136
_exptl_crystal_colour 'colorless'
_exptl_crystal_density_diffrn 1.08
_exptl_crystal_description 'plate'
_diffrn_ambient_temperature 100
#These two values have been output from a single CSD field.
_refine_ls_R_factor_gt 0.0337
_refine_ls_wR_factor_gt 0.0337
_symmetry_cell_setting monoclinic
_symmetry_space_group_name_H-M 'P 21/c'
_symmetry_Int_Tables_number 14
loop_
_symmetry_equiv_pos_site_id
_symmetry_equiv_pos_as_xyz
1 x,y,z
2 -x,1/2+y,1/2-z
3 -x,-y,-z
4 x,-1/2-y,-1/2+z
_cell_length_a 5.55642(18)
_cell_length_b 4.79489(14)
_cell_length_c 26.6236(9)
_cell_angle_alpha 90
_cell_angle_beta 93.307(3)
_cell_angle_gamma 90
_cell_formula_units_Z 4
loop_
_atom_type_symbol
_atom_type_radius_bond
C 0.68
H 0.23
N 0.68
O 0.68
loop_
_atom_site_label
_atom_site_type_symbol
_atom_site_fract_x
_atom_site_fract_y
_atom_site_fract_z
O1 O 0.18747(11) 0.40353(14) 0.28095(2)
H1 H 0.07000 0.34530 0.26400
N1 N 0.20300(13) 0.69374(17) 0.27557(3)
C1 C 0.38769(16) 0.7933(2) 0.30006(3)
H2 H 0.41060 0.98500 0.29810
C2 C 0.57075(16) 0.6328(2) 0.33158(3)
H3 H 0.66530 0.51980 0.30980
H4 H 0.48830 0.50780 0.35350
C3 C 0.73991(16) 0.8210(2) 0.36357(3)
H5 H 0.82410 0.94410 0.34160
H6 H 0.64520 0.93580 0.38500
C4 C 0.92426(16) 0.6566(2) 0.39625(3)
H7 H 0.83980 0.53210 0.41790
H8 H 1.01960 0.54300 0.37470
C5 C 1.09249(19) 0.8423(2) 0.42866(4)
H9 H 0.99720 0.95620 0.45020
H10 H 1.17740 0.96640 0.40700
C6 C 1.27629(19) 0.6771(3) 0.46139(4)
H11 H 1.37530 0.56920 0.44030
H12 H 1.19350 0.55460 0.48310
H13 H 1.37570 0.80360 0.48140
#END
