
#######################################################################
#
#                 Cambridge Crystallographic Data Centre
#                                CCDC
#
#######################################################################
#
# If this CIF has been generated from an entry in the Cambridge
# Structural Database, then it will include bibliographic, chemical,
# crystal, experimental, refinement or atomic coordinate data resulting
# from the CCDC's data processing and validation procedures.
#
#######################################################################

data_CSD_CIF_TARDIC
_audit_creation_date 2017-03-29
_audit_creation_method CSD-ConQuest-V1
_database_code_CSD TARDIC
_database_code_depnum_ccdc_archive 'CCDC 1054704'
_chemical_formula_sum 'C17 H22 N2 O4'
_chemical_formula_moiety
;
C17 H22 N2 O4
;
_journal_coden_Cambridge 1268
_journal_volume 21
_journal_year 2016
_journal_page_first 1257
_journal_name_full 'Molecules '
loop_
_publ_author_name
"E.Martinand-Lurin"
"A.Dos Santos"
"E.Robineau"
"P.Retailleau"
"P.Dauban"
"L.Grimaud"
"L.El Kaim"
_chemical_name_systematic
;
4-cyclohexyl-2-isopropyl-7-nitro-2H-1,4-benzoxazin-3(4H)-one
;
_cell_volume   3342.237
_exptl_crystal_colour 'yellow'
_exptl_crystal_density_diffrn 1.265
_exptl_crystal_description 'stick'
_exptl_crystal_preparation 'diisopropyl ether'
_diffrn_ambient_temperature 293
#These two values have been output from a single CSD field.
_refine_ls_R_factor_gt 0.0662
_refine_ls_wR_factor_gt 0.0662
_symmetry_cell_setting monoclinic
_symmetry_space_group_name_H-M 'C 2/c'
_symmetry_Int_Tables_number 15
loop_
_symmetry_equiv_pos_site_id
_symmetry_equiv_pos_as_xyz
1 x,y,z
2 -x,y,1/2-z
3 1/2+x,1/2+y,z
4 1/2-x,1/2+y,1/2-z
5 -x,-y,-z
6 x,-y,-1/2+z
7 -1/2-x,-1/2-y,-z
8 -1/2+x,-1/2-y,-1/2+z
_cell_length_a 29.153(2)
_cell_length_b 9.0210(7)
_cell_length_c 12.7261(9)
_cell_angle_alpha 90
_cell_angle_beta 93.001(7)
_cell_angle_gamma 90
_cell_formula_units_Z 8
loop_
_atom_type_symbol
_atom_type_radius_bond
C 0.68
H 0.23
N 0.68
O 0.68
loop_
_atom_site_label
_atom_site_type_symbol
_atom_site_fract_x
_atom_site_fract_y
_atom_site_fract_z
O1 O 0.43678(9) 0.9489(3) 0.4402(2)
N1 N 0.37514(11) 0.7223(4) 0.3965(2)
C1 C 0.42256(12) 0.6951(5) 0.3925(2)
C2 C 0.49974(13) 0.7886(4) 0.4205(3)
H1 H 0.52000 0.86570 0.43760
O2 O 0.57961(9) 0.5002(4) 0.3804(2)
C3 C 0.45275(14) 0.8104(5) 0.4163(3)
N2 N 0.56529(13) 0.6217(5) 0.4053(3)
O3 O 0.31857(10) 0.8992(3) 0.3863(2)
C4 C 0.34243(12) 0.5977(4) 0.4050(3)
H2 H 0.36140 0.50960 0.41900
C5 C 0.51555(13) 0.6490(5) 0.3986(3)
O4 O 0.59085(11) 0.7225(4) 0.4356(3)
C6 C 0.48688(13) 0.5332(4) 0.3716(2)
H3 H 0.49870 0.44020 0.35670
C7 C 0.44023(12) 0.5574(4) 0.3669(2)
H4 H 0.42030 0.48090 0.34640
C8 C 0.39499(14) 0.9863(5) 0.3776(3)
H5 H 0.38280 1.07780 0.40690
C9 C 0.31228(13) 0.6107(5) 0.4977(3)
H6 H 0.29240 0.69640 0.48850
H7 H 0.33130 0.62440 0.56180
C10 C 0.35907(16) 0.8662(6) 0.3893(3)
C11 C 0.40565(16) 1.0189(5) 0.2629(4)
H8 H 0.42170 0.93270 0.23570
C12 C 0.25552(15) 0.4394(6) 0.4060(4)
H9 H 0.23920 0.34660 0.41330
H10 H 0.23300 0.51730 0.39320
C13 C 0.28349(15) 0.4720(5) 0.5065(3)
H11 H 0.30350 0.38850 0.52350
H12 H 0.26300 0.48400 0.56360
C14 C 0.28580(16) 0.4292(6) 0.3139(4)
H13 H 0.26670 0.41600 0.24980
H14 H 0.30550 0.34300 0.32250
C15 C 0.31532(14) 0.5662(5) 0.3032(3)
H15 H 0.33620 0.55130 0.24740
H16 H 0.29590 0.65050 0.28460
C16 C 0.36314(19) 1.0433(7) 0.1942(4)
H17 H 0.34600 1.12440 0.22130
H18 H 0.34460 0.95520 0.19330
H19 H 0.37150 1.06600 0.12400
C17 C 0.4374(2) 1.1515(7) 0.2578(5)
H20 H 0.44330 1.17180 0.18570
H21 H 0.46570 1.13040 0.29650
H22 H 0.42310 1.23620 0.28790
#END
