
#######################################################################
#
#                 Cambridge Crystallographic Data Centre
#                                CCDC
#
#######################################################################
#
# If this CIF has been generated from an entry in the Cambridge
# Structural Database, then it will include bibliographic, chemical,
# crystal, experimental, refinement or atomic coordinate data resulting
# from the CCDC's data processing and validation procedures.
#
#######################################################################

data_CSD_CIF_TARLOQ
_audit_creation_date 2017-03-29
_audit_creation_method CSD-ConQuest-V1
_database_code_CSD TARLOQ
_database_code_depnum_ccdc_archive 'CCDC 1054700'
_chemical_formula_sum 'C21 H26 N2 O5'
_chemical_formula_moiety
;
C21 H26 N2 O5
;
_journal_coden_Cambridge 1268
_journal_volume 21
_journal_year 2016
_journal_page_first 1257
_journal_name_full 'Molecules '
loop_
_publ_author_name
"E.Martinand-Lurin"
"A.Dos Santos"
"E.Robineau"
"P.Retailleau"
"P.Dauban"
"L.Grimaud"
"L.El Kaim"
_chemical_name_systematic
;
2-(4-methoxy-2-nitrophenoxy)-3,3-dimethyl-N-(2-phenylethyl)butanamide
;
_cell_volume   1053.263
_exptl_crystal_colour 'yellow'
_exptl_crystal_density_diffrn 1.218
_exptl_crystal_description 'prism'
_diffrn_ambient_temperature 293
#These two values have been output from a single CSD field.
_refine_ls_R_factor_gt 0.0465
_refine_ls_wR_factor_gt 0.0465
_symmetry_cell_setting triclinic
_symmetry_space_group_name_H-M 'P -1'
_symmetry_Int_Tables_number 2
loop_
_symmetry_equiv_pos_site_id
_symmetry_equiv_pos_as_xyz
1 x,y,z
2 -x,-y,-z
_cell_length_a 9.248(2)
_cell_length_b 10.596(2)
_cell_length_c 11.804(4)
_cell_angle_alpha 91.001(2)
_cell_angle_beta 109.887(2)
_cell_angle_gamma 103.196(4)
_cell_formula_units_Z 2
loop_
_atom_type_symbol
_atom_type_radius_bond
C 0.68
H 0.23
N 0.68
O 0.68
loop_
_atom_site_label
_atom_site_type_symbol
_atom_site_fract_x
_atom_site_fract_y
_atom_site_fract_z
O1 O 0.03488(12) 0.28689(9) 0.88914(9)
O2 O 0.24814(14) 0.07154(12) 1.05882(11)
O3 O 0.20355(15) 0.45123(12) 0.78609(12)
O4 O 0.04326(17) 0.53699(12) 0.65134(11)
O5 O -0.38700(17) 0.14645(14) 0.41940(11)
N1 N 0.31090(17) 0.23272(16) 0.94901(14)
H1 H 0.278(2) 0.294(2) 0.9058(19)
N2 N 0.07364(17) 0.44571(13) 0.70953(12)
C1 C 0.05968(17) 0.19778(14) 0.98083(13)
H2 H -0.02680 0.11840 0.95230
C2 C 0.21555(18) 0.16185(15) 0.99937(13)
C3 C 0.4590(2) 0.2042(2) 0.95303(19)
H3 H 0.49780 0.15860 1.02330
H4 H 0.53780 0.28530 0.96160
C4 C 0.4379(3) 0.1215(2) 0.8396(2)
H5 H 0.53750 0.10040 0.84800
H6 H 0.35920 0.04040 0.83140
C5 C 0.3864(2) 0.1888(2) 0.72681(19)
C6 C 0.2374(3) 0.1487(3) 0.6407(2)
H7 H 0.16690 0.07490 0.64960
C7 C 0.1896(4) 0.2167(4) 0.5398(2)
H8 H 0.08770 0.18860 0.48260
C8 C 0.2912(5) 0.3230(4) 0.5252(3)
H9 H 0.25960 0.36810 0.45790
C9 C 0.4403(4) 0.3642(3) 0.6091(3)
H10 H 0.51040 0.43780 0.59940
C10 C 0.4873(3) 0.2972(2) 0.7082(2)
H11 H 0.59000 0.32570 0.76430
C11 C 0.04943(19) 0.26429(16) 1.09463(14)
C12 C -0.1161(2) 0.2888(2) 1.0588(2)
H12 H -0.12970 0.32420 1.12890
H13 H -0.19480 0.20820 1.02600
H14 H -0.12790 0.34960 0.99880
C13 C 0.1781(3) 0.39061(19) 1.14014(18)
H15 H 0.16740 0.43240 1.20870
H16 H 0.16770 0.44730 1.07680
H17 H 0.28050 0.37200 1.16370
C14 C 0.0657(3) 0.1732(2) 1.19426(16)
H18 H 0.17110 0.16030 1.22230
H19 H -0.00990 0.09080 1.16290
H20 H 0.04610 0.21100 1.26040
C15 C -0.06424(17) 0.24527(14) 0.77297(13)
C16 C -0.05313(18) 0.32592(14) 0.68325(14)
C17 C -0.15897(19) 0.29848(16) 0.56458(14)
H21 H -0.15010 0.35620 0.50740
C18 C -0.2765(2) 0.18520(18) 0.53304(15)
C19 C -0.2882(2) 0.10174(18) 0.62031(16)
H22 H -0.36670 0.02400 0.59860
C20 C -0.18603(19) 0.13171(16) 0.73835(15)
H23 H -0.19840 0.07540 0.79580
C21 C -0.3888(3) 0.2316(2) 0.32960(18)
H24 H -0.39840 0.31410 0.35710
H25 H -0.47730 0.19530 0.25690
H26 H -0.29190 0.24390 0.31330
#END
