
#######################################################################
#
#                 Cambridge Crystallographic Data Centre
#                                CCDC
#
#######################################################################
#
# If this CIF has been generated from an entry in the Cambridge
# Structural Database, then it will include bibliographic, chemical,
# crystal, experimental, refinement or atomic coordinate data resulting
# from the CCDC's data processing and validation procedures.
#
#######################################################################

data_CSD_CIF_TARZUJ
_audit_creation_date 2012-04-25
_audit_creation_method CSD-ConQuest-V1
_database_code_CSD TARZUJ
_database_code_depnum_ccdc_archive 'CCDC 790348'
_chemical_formula_sum 'C10 H12 N4 O2'
_chemical_formula_moiety
;
C10 H12 N4 O2
;
_journal_coden_Cambridge 155
_journal_volume 371
_journal_year 2011
_journal_page_first 100
_journal_name_full 'Inorg.Chim.Acta '
loop_
_publ_author_name
"S.Naskar"
"S.Naskar"
"S.Mondal"
"P.K.Majhi"
"M.G.B.Drew"
"S.K.Chattopadhyay"
_chemical_name_systematic
;
N'-(3-(Hydroxyimino)butan-2-ylidene)isonicotinohydrazide
;
_cell_volume   1064.448
_exptl_crystal_colour 'black'
_exptl_crystal_density_diffrn 1.374
_exptl_crystal_description 'needle'
_diffrn_ambient_temperature 150
#These two values have been output from a single CSD field.
_refine_ls_R_factor_gt 0.0606
_refine_ls_wR_factor_gt 0.0606
_symmetry_cell_setting monoclinic
_symmetry_space_group_name_H-M 'P 21/c'
_symmetry_Int_Tables_number 14
loop_
_symmetry_equiv_pos_site_id
_symmetry_equiv_pos_as_xyz
1 x,y,z
2 -x,1/2+y,1/2-z
3 -x,-y,-z
4 x,-1/2-y,-1/2+z
_cell_length_a 3.8556(3)
_cell_length_b 14.8655(12)
_cell_length_c 18.5879(14)
_cell_angle_alpha 90
_cell_angle_beta 92.388(8)
_cell_angle_gamma 90
_cell_formula_units_Z 4
loop_
_atom_type_symbol
_atom_type_radius_bond
C 0.68
H 0.23
N 0.68
O 0.68
loop_
_atom_site_label
_atom_site_type_symbol
_atom_site_fract_x
_atom_site_fract_y
_atom_site_fract_z
N1 N 0.1545(4) 0.07394(11) 0.42045(8)
H1 H 0.15020 0.01720 0.42930
N2 N 0.2654(4) 0.10449(11) 0.35517(8)
C1 C 0.4859(5) 0.08471(13) 0.24112(10)
O1 O -0.0379(4) 0.10742(10) 0.53004(7)
O2 O 0.7222(4) 0.0702(1) 0.13461(7)
H2 H 0.802(6) 0.0235(12) 0.1117(11)
N3 N 0.0568(4) 0.41703(11) 0.43004(9)
N4 N 0.6333(4) 0.02902(11) 0.19892(8)
C2 C -0.0933(5) 0.36012(14) 0.38207(10)
H3 H -0.19860 0.38400 0.34040
C3 C 0.0536(5) 0.23196(13) 0.45377(9)
C4 C 0.0523(5) 0.13346(13) 0.47079(10)
C5 C -0.0994(5) 0.26818(13) 0.39149(10)
H4 H -0.20430 0.23110 0.35670
C6 C 0.3811(5) 0.04645(13) 0.31052(10)
C7 C 0.4119(5) 0.18102(13) 0.22175(11)
H5 H 0.62520 0.21110 0.21190
H6 H 0.30470 0.21030 0.26110
H7 H 0.25830 0.18330 0.17980
C8 C 0.1989(5) 0.38151(13) 0.49023(10)
H8 H 0.30250 0.42010 0.52420
C9 C 0.1999(5) 0.29035(13) 0.50478(10)
H9 H 0.29690 0.26850 0.54800
C10 C 0.4133(6) -0.05287(13) 0.32439(11)
H10 H 0.53500 -0.06260 0.36980
H11 H 0.53950 -0.08030 0.28670
H12 H 0.18610 -0.07910 0.32550
#END
