
#######################################################################
#
#                 Cambridge Crystallographic Data Centre
#                                CCDC
#
#######################################################################
#
# If this CIF has been generated from an entry in the Cambridge
# Structural Database, then it will include bibliographic, chemical,
# crystal, experimental, refinement or atomic coordinate data resulting
# from the CCDC's data processing and validation procedures.
#
#######################################################################

data_CSD_CIF_TASRUA
_audit_creation_date 1996-12-16
_audit_creation_method CSD-ConQuest-V1
_database_code_CSD TASRUA
_chemical_formula_sum 'C17 H19 N1 O3'
_chemical_formula_moiety
;
C17 H19 N1 O3
;
_journal_coden_Cambridge 24
_journal_volume 37
_journal_year 1996
_journal_page_first 3055
_journal_name_full 'Tetrahedron Lett. '
loop_
_publ_author_name
"M.Ayerbe"
"I.Morao"
"A.Arrieta"
"A.Linden"
"F.P.Cossio"
_chemical_name_systematic
;
2-Benzoyl-4-nitro-3-phenylbutane
;
_chemical_melting_point 371.15
_cell_volume   1545.094
_exptl_crystal_colour 'colorless'
_exptl_crystal_density_diffrn 1.227
_exptl_special_details
;
Melting point range 371.15-373.15K

;
_diffrn_ambient_temperature 173
#These two values have been output from a single CSD field.
_refine_ls_R_factor_gt 0.0353
_refine_ls_wR_factor_gt 0.0353
_symmetry_cell_setting orthorhombic
_symmetry_space_group_name_H-M 'P 21 21 21'
_symmetry_Int_Tables_number 19
loop_
_symmetry_equiv_pos_site_id
_symmetry_equiv_pos_as_xyz
1 x,y,z
2 1/2-x,-y,1/2+z
3 1/2+x,1/2-y,-z
4 -x,1/2+y,1/2-z
_cell_length_a 10.283(2)
_cell_length_b 19.244(1)
_cell_length_c 7.808(2)
_cell_angle_alpha 90
_cell_angle_beta 90
_cell_angle_gamma 90
_cell_formula_units_Z 4
loop_
_atom_type_symbol
_atom_type_radius_bond
C 0.68
H 0.23
N 0.68
O 0.68
loop_
_atom_site_label
_atom_site_type_symbol
_atom_site_fract_x
_atom_site_fract_y
_atom_site_fract_z
O1 O 0.3627(2) 0.66349(8) 0.0880(3)
O2 O 0.2015(2) 0.71410(9) -0.0369(3)
O3 O 0.4188(1) 0.90970(8) -0.1188(2)
N1 N 0.3089(2) 0.7150(1) 0.0306(3)
C1 C 0.3815(2) 0.7826(1) 0.0381(4)
C2 C 0.2926(2) 0.8440(1) 0.0756(3)
C3 C 0.3717(2) 0.9114(1) 0.0539(3)
C4 C 0.2896(3) 0.9759(1) 0.0856(4)
C5 C 0.2294(2) 0.8381(1) 0.2502(3)
C6 C 0.3029(2) 0.8378(1) 0.3994(3)
C7 C 0.2448(3) 0.8345(1) 0.5584(3)
C8 C 0.1112(3) 0.8303(1) 0.5732(4)
C9 C 0.0362(3) 0.8299(1) 0.4273(4)
C10 C 0.0940(2) 0.8340(1) 0.2654(3)
C11 C 0.5267(3) 0.9549(2) -0.1502(4)
C12 C 0.5769(2) 0.9417(1) -0.3280(3)
C13 C 0.5871(2) 0.9952(1) -0.4461(3)
C14 C 0.6382(2) 0.9837(1) -0.6079(3)
C15 C 0.6777(2) 0.9172(1) -0.6541(3)
C16 C 0.6663(2) 0.8634(1) -0.5391(4)
C17 C 0.6171(2) 0.8753(1) -0.3762(3)
H1 H 0.232(2) 0.8444(9) -0.013(2)
H2 H 0.454(2) 0.910(1) 0.134(3)
H3 H 0.395(2) 0.844(1) 0.396(3)
H4 H 0.300(2) 0.833(1) 0.659(3)
H5 H 0.065(2) 0.827(1) 0.685(3)
H6 H -0.052(2) 0.827(1) 0.429(3)
H7 H 0.039(2) 0.834(1) 0.159(3)
H8 H 0.422(2) 0.785(1) -0.080(3)
H9 H 0.443(2) 0.776(1) 0.124(3)
H10 H 0.563(2) 1.041(1) -0.413(3)
H11 H 0.644(2) 1.025(1) -0.694(3)
H12 H 0.715(2) 0.910(1) -0.762(3)
H13 H 0.688(2) 0.815(1) -0.572(3)
H14 H 0.618(2) 0.837(1) -0.295(3)
H15 H 0.337(2) 1.021(1) 0.061(4)
H16 H 0.259(3) 0.977(1) 0.198(4)
H17 H 0.207(2) 0.973(1) 0.012(4)
H18 H 0.494(2) 1.003(1) -0.132(3)
H19 H 0.587(2) 0.944(1) -0.063(4)
#END
