
#######################################################################
#
#                 Cambridge Crystallographic Data Centre
#                                CCDC
#
#######################################################################
#
# If this CIF has been generated from an entry in the Cambridge
# Structural Database, then it will include bibliographic, chemical,
# crystal, experimental, refinement or atomic coordinate data resulting
# from the CCDC's data processing and validation procedures.
#
#######################################################################

data_CSD_CIF_TATGAW
_audit_creation_date 1997-01-09
_audit_creation_method CSD-ConQuest-V1
_database_code_CSD TATGAW
_chemical_formula_sum 'C17 H21 N1 O3'
_chemical_formula_moiety
;
C17 H21 N1 O3
;
_journal_coden_Cambridge 24
_journal_volume 37
_journal_year 1996
_journal_page_first 633
_journal_name_full 'Tetrahedron Lett. '
loop_
_publ_author_name
"M.Sato"
"F.Uehara"
"K.Aizawa"
"C.Kaneko"
"S.Satoh"
"T.Furuya"
_chemical_name_systematic
;
9-Aza-3,8-dioxa-10-mesityl-4-methylbicyclo(5.3.0)dec-9-en-2-one
;
_cell_volume   3018.826
_exptl_crystal_colour 'colorless'
_exptl_crystal_density_diffrn 1.264
_diffrn_ambient_temperature ?
_diffrn_special_details
;
The study was carried out at room temperature,in the range 283-303K

;
#These two values have been output from a single CSD field.
_refine_ls_R_factor_gt 0.045
_refine_ls_wR_factor_gt 0.045
_symmetry_cell_setting orthorhombic
_symmetry_space_group_name_H-M 'P b c a'
_symmetry_Int_Tables_number 61
loop_
_symmetry_equiv_pos_site_id
_symmetry_equiv_pos_as_xyz
1 x,y,z
2 1/2-x,-y,1/2+z
3 1/2+x,1/2-y,-z
4 -x,1/2+y,1/2-z
5 -x,-y,-z
6 -1/2+x,y,-1/2-z
7 -1/2-x,-1/2+y,z
8 x,-1/2-y,-1/2+z
_cell_length_a 21.408(3)
_cell_length_b 12.911(2)
_cell_length_c 10.922(2)
_cell_angle_alpha 90
_cell_angle_beta 90
_cell_angle_gamma 90
_cell_formula_units_Z 8
loop_
_atom_type_symbol
_atom_type_radius_bond
C 0.68
H 0.23
N 0.68
O 0.68
loop_
_atom_site_label
_atom_site_type_symbol
_atom_site_fract_x
_atom_site_fract_y
_atom_site_fract_z
O1 O -0.3476(1) -0.4228(2) 0.1603(3)
O2 O -0.2688(1) -0.5314(3) 0.1438(3)
O3 O -0.3882(1) -0.3975(2) -0.1718(3)
N1 N -0.4064(2) -0.5028(3) -0.1623(3)
C1 C -0.3086(2) -0.4824(4) 0.0927(5)
C2 C -0.3991(2) -0.3660(4) 0.1033(4)
C3 C -0.3757(3) -0.2686(4) 0.0448(5)
C4 C -0.3228(3) -0.2844(4) -0.0462(5)
C5 C -0.3258(2) -0.3853(3) -0.1167(5)
C6 C -0.3153(2) -0.4863(3) -0.0471(4)
C7 C -0.3687(2) -0.5518(3) -0.0936(4)
C8 C -0.3768(2) -0.6645(3) -0.0717(4)
C9 C -0.4169(2) -0.7012(3) 0.0207(4)
C10 C -0.4218(2) -0.8073(4) 0.0382(5)
C11 C -0.3886(2) -0.8776(3) -0.0308(5)
C12 C -0.3500(2) -0.8400(4) -0.1217(5)
C13 C -0.3434(2) -0.7344(3) -0.1437(4)
C14 C -0.4534(3) -0.6292(4) 0.1003(6)
C15 C -0.3020(3) -0.6991(4) -0.2468(5)
C16 C -0.3938(4) -0.9916(5) -0.0065(6)
C17 C -0.4456(3) -0.3465(4) 0.2060(5)
H1 H -0.363(2) -0.220(3) 0.109(4)
H2 H -0.409(2) -0.235(3) 0.005(4)
H3 H -0.479(2) -0.302(3) 0.175(4)
H4 H -0.425(2) -0.308(3) 0.272(4)
H5 H -0.456(2) -0.415(3) 0.237(4)
H6 H -0.421(3) -0.417(3) 0.042(4)
H7 H -0.297(2) -0.384(3) -0.192(4)
H8 H -0.326(2) -0.226(3) -0.103(4)
H9 H -0.278(2) -0.514(3) -0.071(4)
H10 H -0.320(2) -0.646(4) -0.301(4)
H11 H -0.270(2) -0.647(3) -0.218(4)
H12 H -0.286(2) -0.752(4) -0.292(4)
H13 H -0.323(2) -0.883(3) -0.173(4)
H14 H -0.447(2) -0.830(4) 0.093(4)
H15 H -0.479(2) -0.662(3) 0.152(4)
H16 H -0.425(2) -0.592(3) 0.156(4)
H17 H -0.471(2) -0.573(3) 0.062(4)
H18 H -0.434(2) -1.016(4) -0.007(5)
H19 H -0.368(2) -1.006(4) 0.058(4)
H20 H -0.379(2) -1.037(4) -0.070(4)
H21 H -0.282(2) -0.283(3) -0.005(4)
#END
