
#######################################################################
#
#                 Cambridge Crystallographic Data Centre
#                                CCDC
#
#######################################################################
#
# If this CIF has been generated from an entry in the Cambridge
# Structural Database, then it will include bibliographic, chemical,
# crystal, experimental, refinement or atomic coordinate data resulting
# from the CCDC's data processing and validation procedures.
#
#######################################################################

data_CSD_CIF_TATMUX
_audit_creation_date 2005-12-15
_audit_creation_method CSD-ConQuest-V1
_database_code_CSD TATMUX
_database_code_depnum_ccdc_archive 'CCDC 284190'
_chemical_formula_sum 'C17 H25 N1 O9'
_chemical_formula_moiety
;
C17 H25 N1 O9
;
_journal_coden_Cambridge 1336
_journal_volume 7
_journal_year 2005
_journal_page_first 3167
_journal_name_full 'Org.Lett. '
loop_
_publ_author_name
"S.Grecian"
"A.D.Wrobleski"
"J.Aube"
_chemical_name_systematic
;
Methyl 
5,5-diethoxy-6-(3-ethoxy-1-nitro-3-oxopropyl)-2-hydroxycyclohexa-1,3-dienecarb
oxylate
;
_cell_volume    932.981
_exptl_crystal_colour 'colorless'
_exptl_crystal_density_diffrn 1.379
_exptl_crystal_description 'plate'
_exptl_crystal_preparation 'diethyl ether/hexane'
_diffrn_ambient_temperature 100
#These two values have been output from a single CSD field.
_refine_ls_R_factor_gt 0.0415
_refine_ls_wR_factor_gt 0.0415
_symmetry_cell_setting triclinic
_symmetry_space_group_name_H-M 'P -1'
_symmetry_Int_Tables_number 2
loop_
_symmetry_equiv_pos_site_id
_symmetry_equiv_pos_as_xyz
1 x,y,z
2 -x,-y,-z
_cell_length_a 7.724(3)
_cell_length_b 8.590(3)
_cell_length_c 14.830(5)
_cell_angle_alpha 82.446(8)
_cell_angle_beta 77.047(7)
_cell_angle_gamma 77.608(7)
_cell_formula_units_Z 2
loop_
_atom_type_symbol
_atom_type_radius_bond
C 0.68
H 0.23
N 0.68
O 0.68
loop_
_atom_site_label
_atom_site_type_symbol
_atom_site_fract_x
_atom_site_fract_y
_atom_site_fract_z
C1 C 0.82282(18) 0.87834(17) 0.14507(10)
C2 C 0.73623(19) 0.88962(18) 0.06569(10)
H1 H 0.76960 0.95850 0.01190
C3 C 0.61131(19) 0.80385(18) 0.06877(9)
H2 H 0.55060 0.81490 0.01860
C4 C 0.56568(18) 0.68787(17) 0.15298(9)
C5 C 0.57267(18) 0.75599(17) 0.24296(9)
H3 H 0.57840 0.66330 0.29140
C6 C 0.74720(18) 0.81583(17) 0.23097(9)
O1 O 0.97814(13) 0.93099(13) 0.12453(7)
H4 H 1.02000 0.91760 0.17570
O2 O 0.39494(13) 0.65676(12) 0.15150(7)
C7 C 0.3347(2) 0.53427(19) 0.22109(10)
H5 H 0.28840 0.57850 0.28220
H6 H 0.43660 0.44390 0.22680
C8 C 0.1881(2) 0.4783(2) 0.19128(11)
H7 H 0.14010 0.39950 0.23900
H8 H 0.23720 0.42890 0.13260
H9 H 0.09080 0.56960 0.18260
O3 O 0.69885(13) 0.54570(12) 0.15041(7)
C9 C 0.7416(2) 0.47121(19) 0.06466(10)
H10 H 0.82010 0.53030 0.01640
H11 H 0.62920 0.47240 0.04280
C10 C 0.8372(2) 0.3025(2) 0.08186(11)
H12 H 0.87050 0.25040 0.02380
H13 H 0.75710 0.24410 0.12830
H14 H 0.94680 0.30250 0.10480
C11 C 0.39895(18) 0.87677(17) 0.27908(9)
H15 H 0.29260 0.82620 0.28150
N1 N 0.38072(15) 1.02896(14) 0.21451(8)
O4 O 0.27419(14) 1.04712(13) 0.16251(7)
O5 O 0.47382(14) 1.12637(13) 0.21747(7)
C12 C 0.38683(19) 0.92746(18) 0.37571(9)
H16 H 0.49770 0.96710 0.37650
H17 H 0.28220 1.01640 0.38930
C13 C 0.36579(18) 0.79109(19) 0.45037(9)
O6 O 0.33228(14) 0.66505(13) 0.44018(7)
O7 O 0.38695(15) 0.83161(13) 0.53064(7)
C14 C 0.3689(2) 0.7113(2) 0.6098(1)
H18 H 0.43370 0.73220 0.65610
H19 H 0.42540 0.60400 0.58870
C15 C 0.1735(2) 0.7135(2) 0.65451(11)
H20 H 0.16590 0.63900 0.71070
H21 H 0.11220 0.68100 0.61090
H22 H 0.11490 0.82180 0.67110
C16 C 0.84202(18) 0.80080(17) 0.30609(10)
O8 O 0.98004(13) 0.85227(13) 0.30195(7)
O9 O 0.76535(13) 0.72039(13) 0.38430(7)
C17 C 0.8553(2) 0.7013(2) 0.46141(11)
H23 H 0.79550 0.63470 0.51270
H24 H 0.84930 0.80650 0.48200
H25 H 0.98220 0.64980 0.44200
#END
