
#######################################################################
#
#                 Cambridge Crystallographic Data Centre
#                                CCDC
#
#######################################################################
#
# If this CIF has been generated from an entry in the Cambridge
# Structural Database, then it will include bibliographic, chemical,
# crystal, experimental, refinement or atomic coordinate data resulting
# from the CCDC's data processing and validation procedures.
#
#######################################################################

data_CSD_CIF_TAVVUJ
_audit_creation_date 2012-05-09
_audit_creation_method CSD-ConQuest-V1
_database_code_CSD TAVVUJ
_database_code_depnum_ccdc_archive 'CCDC 871362'
_chemical_formula_sum 'C27 H36 N2 O7'
_chemical_formula_moiety
;
C27 H36 N2 O7
;
_journal_coden_Cambridge 35
_journal_volume 76
_journal_year 2011
_journal_page_first 7497
_journal_name_full 'J.Org.Chem. '
loop_
_publ_author_name
"M.Michalak"
"K.Michalak"
"Z.Urbanczyk-Lipkowska"
"J.Wicha"
_chemical_name_systematic
;
(1,8-Dimethyl-8-(4-methylpent-3-en-1-yl)-7-oxodecahydro-1H-cyclopenta[8]annule
n-4-yl)methyl 3,5-dinitrobenzoate
;
_cell_volume   2593.702
_exptl_crystal_colour 'colorless'
_exptl_crystal_density_diffrn 1.282
_exptl_crystal_description 'planar'
_diffrn_ambient_temperature 100
#These two values have been output from a single CSD field.
_refine_ls_R_factor_gt 0.0336
_refine_ls_wR_factor_gt 0.0336
_symmetry_cell_setting monoclinic
_symmetry_space_group_name_H-M 'P 21/c'
_symmetry_Int_Tables_number 14
loop_
_symmetry_equiv_pos_site_id
_symmetry_equiv_pos_as_xyz
1 x,y,z
2 -x,1/2+y,1/2-z
3 -x,-y,-z
4 x,-1/2-y,-1/2+z
_cell_length_a 27.836(4)
_cell_length_b 8.7210(6)
_cell_length_c 10.6844(11)
_cell_angle_alpha 90
_cell_angle_beta 90.219(10)
_cell_angle_gamma 90
_cell_formula_units_Z 4
loop_
_atom_type_symbol
_atom_type_radius_bond
C 0.68
H 0.23
N 0.68
O 0.68
loop_
_atom_site_label
_atom_site_type_symbol
_atom_site_fract_x
_atom_site_fract_y
_atom_site_fract_z
C1 C 0.71210(7) 0.7071(2) 0.5477(2)
H1 H 0.70010 0.67130 0.63080
C2 C 0.76202(7) 0.7663(3) 0.5672(2)
H2 H 0.76400 0.83220 0.64250
H3 H 0.77320 0.82500 0.49360
C3 C 0.79107(7) 0.6190(2) 0.5845(2)
H4 H 0.78520 0.57300 0.66770
H5 H 0.82590 0.63880 0.57520
C4 C 0.77233(7) 0.5145(2) 0.47925(19)
H6 H 0.78890 0.54890 0.40120
C5 C 0.78559(6) 0.3433(2) 0.49621(19)
H7 H 0.76440 0.30050 0.56310
C6 C 0.77846(6) 0.2445(2) 0.3779(2)
H8 H 0.78890 0.30510 0.30450
H9 H 0.79990 0.15430 0.38410
C7 C 0.72741(6) 0.1872(2) 0.3528(2)
H10 H 0.72890 0.09880 0.29480
H11 H 0.71340 0.15060 0.43250
C8 C 0.69462(7) 0.3082(2) 0.2973(2)
C9 C 0.65408(6) 0.3698(2) 0.37651(19)
C10 C 0.67825(7) 0.4455(2) 0.49271(19)
H12 H 0.65300 0.49690 0.54250
H13 H 0.69230 0.36340 0.54550
C11 C 0.71781(7) 0.5631(2) 0.4637(2)
H14 H 0.71320 0.59680 0.37500
C12 C 0.67538(8) 0.8213(2) 0.4966(2)
H15 H 0.64380 0.77210 0.49160
H16 H 0.68520 0.85480 0.41290
H17 H 0.67360 0.91030 0.55240
C13 C 0.83735(6) 0.3251(2) 0.53963(19)
H18 H 0.84250 0.37990 0.61970
H19 H 0.84500 0.21530 0.55230
C14 C 0.91467(7) 0.3677(2) 0.45211(19)
C15 C 0.94067(7) 0.4374(2) 0.34486(19)
C16 C 0.91642(6) 0.5028(3) 0.2432(2)
H20 H 0.88230 0.50380 0.24050
C17 C 0.94252(7) 0.5654(2) 0.14743(19)
C18 C 0.99246(7) 0.5692(2) 0.14807(19)
H21 H 1.01000 0.61610 0.08230
C19 C 1.01520(6) 0.5017(2) 0.2486(2)
C20 C 0.99070(7) 0.4361(2) 0.34690(19)
H22 H 1.00760 0.39090 0.41490
C21 C 0.62142(7) 0.2361(2) 0.42109(19)
H23 H 0.63880 0.17810 0.48670
H24 H 0.59240 0.28050 0.46010
C22 C 0.60558(7) 0.1241(2) 0.3196(2)
H25 H 0.59140 0.18240 0.24900
H26 H 0.63410 0.06880 0.28780
C23 C 0.56951(8) 0.0095(3) 0.3653(2)
H27 H 0.56480 0.00480 0.45330
C24 C 0.54338(8) -0.0867(2) 0.2958(2)
C25 C 0.54698(9) -0.0975(3) 0.1567(3)
H28 H 0.56270 -0.19390 0.13400
H29 H 0.56590 -0.01100 0.12510
H30 H 0.51470 -0.09450 0.11990
C26 C 0.50797(8) -0.1952(3) 0.3537(3)
H31 H 0.51770 -0.30100 0.33620
H32 H 0.47600 -0.17650 0.31830
H33 H 0.50720 -0.17880 0.44440
C27 C 0.62416(7) 0.4871(2) 0.3039(2)
H34 H 0.59810 0.52490 0.35710
H35 H 0.61050 0.43840 0.22910
H36 H 0.64470 0.57300 0.27890
N1 N 0.91690(6) 0.63109(19) 0.03910(16)
N2 N 1.06806(5) 0.4993(2) 0.25194(18)
O1 O 0.70255(5) 0.35863(15) 0.19295(14)
O2 O 0.86768(5) 0.38981(15) 0.44228(12)
O3 O 0.93455(5) 0.29893(14) 0.53641(13)
O4 O 0.87332(5) 0.61007(16) 0.03136(13)
O5 O 0.94067(5) 0.70142(15) -0.03940(13)
O6 O 1.08965(5) 0.58677(16) 0.18283(13)
O7 O 1.08770(4) 0.40816(16) 0.32429(13)
#END
