
#######################################################################
#
#                 Cambridge Crystallographic Data Centre
#                                CCDC
#
#######################################################################
#
# If this CIF has been generated from an entry in the Cambridge
# Structural Database, then it will include bibliographic, chemical,
# crystal, experimental, refinement or atomic coordinate data resulting
# from the CCDC's data processing and validation procedures.
#
#######################################################################

data_CSD_CIF_TAWCOL
_audit_creation_date 2012-05-09
_audit_creation_method CSD-ConQuest-V1
_database_code_CSD TAWCOL
_database_code_depnum_ccdc_archive 'CCDC 871391'
_chemical_formula_sum 'C21 H20 N2 O8'
_chemical_formula_moiety
;
C21 H20 N2 O8
;
_journal_coden_Cambridge 35
_journal_volume 76
_journal_year 2011
_journal_page_first 9733
_journal_name_full 'J.Org.Chem. '
loop_
_publ_author_name
"D.F.Taber"
"Sha Bai"
"Weiwei Tian"
_chemical_name_systematic
;
cis-(2-Methyl-5-((4-nitrobenzoyl)oxy)cyclopentyl)methyl 4-nitrobenzoate
;
_chemical_melting_point 401.15
_cell_volume   1978.379
_exptl_crystal_colour 'colorless'
_exptl_crystal_density_diffrn 1.438
_exptl_special_details
;
Melting point range 401.15-402.15K

;
_exptl_crystal_description 'plate'
_diffrn_ambient_temperature 200
#These two values have been output from a single CSD field.
_refine_ls_R_factor_gt 0.0494
_refine_ls_wR_factor_gt 0.0494
_symmetry_cell_setting orthorhombic
_symmetry_space_group_name_H-M 'P 21 21 21'
_symmetry_Int_Tables_number 19
loop_
_symmetry_equiv_pos_site_id
_symmetry_equiv_pos_as_xyz
1 x,y,z
2 1/2-x,-y,1/2+z
3 -x,1/2+y,1/2-z
4 1/2+x,1/2-y,-z
_cell_length_a 6.903(2)
_cell_length_b 12.849(4)
_cell_length_c 22.305(7)
_cell_angle_alpha 90
_cell_angle_beta 90
_cell_angle_gamma 90
_cell_formula_units_Z 4
loop_
_atom_type_symbol
_atom_type_radius_bond
C 0.68
H 0.23
N 0.68
O 0.68
loop_
_atom_site_label
_atom_site_type_symbol
_atom_site_fract_x
_atom_site_fract_y
_atom_site_fract_z
C1 C 0.3574(3) 0.00493(19) 0.05991(10)
H1 H 0.49090 0.03510 0.06040
C2 C 0.3623(4) -0.1131(2) 0.05579(12)
H2 H 0.48500 -0.13650 0.03720
H3 H 0.35230 -0.14430 0.09620
C3 C 0.1930(5) -0.1450(3) 0.01794(18)
H4 H 0.10250 -0.18800 0.04180
H5 H 0.23810 -0.18670 -0.01670
C4 C 0.0898(3) -0.0465(2) -0.00421(10)
H6 H 0.06370 -0.05420 -0.04810
C5 C 0.2454(3) 0.03855(18) 0.00439(9)
H7 H 0.33670 0.03240 -0.03030
C6 C 0.1756(4) 0.1502(2) 0.0054(1)
H8 H 0.09670 0.16240 0.04180
H9 H 0.28810 0.19800 0.00650
C7 C -0.1015(4) -0.0265(3) 0.02761(11)
H10 H -0.16030 0.03730 0.01180
H11 H -0.07820 -0.01850 0.07070
H12 H -0.18910 -0.08530 0.02080
C8 C 0.0047(3) 0.07056(16) 0.20739(10)
H13 H -0.04690 0.07270 0.16790
C9 C -0.1162(3) 0.08320(16) 0.25583(9)
H14 H -0.25120 0.09380 0.25040
C10 C -0.0367(3) 0.08013(16) 0.31264(9)
C11 C 0.1580(3) 0.06424(17) 0.32274(9)
H15 H 0.20860 0.06250 0.36230
C12 C 0.2775(3) 0.05086(17) 0.27374(9)
H16 H 0.41210 0.03900 0.27960
C13 C 0.2025(3) 0.05454(16) 0.21590(9)
C14 C 0.3386(3) 0.03873(17) 0.16496(9)
C15 C 0.0994(3) 0.20278(17) -0.20824(10)
H17 H 0.23480 0.21390 -0.21220
C16 C -0.0155(4) 0.20107(17) -0.2587(1)
H18 H 0.03890 0.21070 -0.29740
C17 C -0.2112(3) 0.18497(16) -0.25147(10)
C18 C -0.2950(3) 0.17094(17) -0.19611(10)
H19 H -0.43060 0.16030 -0.19250
C19 C -0.1784(3) 0.17267(17) -0.14595(10)
H20 H -0.23360 0.16300 -0.10730
C20 C 0.0201(3) 0.18853(16) -0.15181(10)
C21 C 0.1548(3) 0.18701(18) -0.09921(10)
N1 N -0.1656(3) 0.09447(16) 0.36452(9)
N2 N -0.3355(3) 0.18479(15) -0.30521(9)
O1 O 0.2459(2) 0.03728(13) 0.11229(6)
O2 O 0.5103(2) 0.02697(14) 0.17055(7)
O3 O -0.3356(3) 0.11412(18) 0.35548(8)
O4 O -0.0965(3) 0.0870(2) 0.41431(8)
O5 O 0.0596(2) 0.17105(13) -0.04801(7)
O6 O 0.3271(2) 0.19768(17) -0.10300(8)
O7 O -0.5110(3) 0.17529(14) -0.29808(9)
O8 O -0.2590(3) 0.19692(16) -0.35405(8)
#END
