
#######################################################################
#
#                 Cambridge Crystallographic Data Centre
#                                CCDC
#
#######################################################################
#
# If this CIF has been generated from an entry in the Cambridge
# Structural Database, then it will include bibliographic, chemical,
# crystal, experimental, refinement or atomic coordinate data resulting
# from the CCDC's data processing and validation procedures.
#
#######################################################################

data_CSD_CIF_TAWDEC
_audit_creation_date 2012-05-09
_audit_creation_method CSD-ConQuest-V1
_database_code_CSD TAWDEC
_database_code_depnum_ccdc_archive 'CCDC 871395'
_chemical_formula_sum 'C10 H12 N2 O5'
_chemical_formula_moiety
;
C10 H12 N2 O5
;
_journal_coden_Cambridge 35
_journal_volume 76
_journal_year 2011
_journal_page_first 9757
_journal_name_full 'J.Org.Chem. '
loop_
_publ_author_name
"S.A.Glover"
"J.M.White"
"A.A.Rosser"
"K.M.Digianantonio"
_chemical_name_systematic
;
N-Ethoxy-N-methoxy-4-nitrobenzamide
;
_cell_volume   1131.167
_exptl_crystal_colour 'colorless'
_exptl_crystal_density_diffrn 1.411
_exptl_crystal_description 'block'
_diffrn_ambient_temperature 130
#These two values have been output from a single CSD field.
_refine_ls_R_factor_gt 0.049
_refine_ls_wR_factor_gt 0.049
_symmetry_cell_setting orthorhombic
_symmetry_space_group_name_H-M 'P c a 21'
_symmetry_Int_Tables_number 29
loop_
_symmetry_equiv_pos_site_id
_symmetry_equiv_pos_as_xyz
1 x,y,z
2 -x,-y,1/2+z
3 1/2-x,y,1/2+z
4 1/2+x,-y,z
_cell_length_a 12.2038(7)
_cell_length_b 4.1403(3)
_cell_length_c 22.3872(16)
_cell_angle_alpha 90
_cell_angle_beta 90
_cell_angle_gamma 90
_cell_formula_units_Z 4
loop_
_atom_type_symbol
_atom_type_radius_bond
C 0.68
H 0.23
N 0.68
O 0.68
loop_
_atom_site_label
_atom_site_type_symbol
_atom_site_fract_x
_atom_site_fract_y
_atom_site_fract_z
O1 O 0.40795(17) 1.0115(5) 0.80094(9)
O2 O 0.26762(17) 0.7704(5) 0.85253(10)
O3 O 0.20522(17) 0.5224(7) 0.75037(11)
C1 C 0.5311(3) 0.6680(8) 0.64323(14)
H1 H 0.60320 0.59820 0.63980
C2 C 0.3626(2) 0.7076(7) 0.69853(13)
N1 N 0.34469(19) 0.7262(6) 0.80736(11)
C3 C 0.4808(3) 0.8327(8) 0.59674(14)
O4 O 0.5041(2) 1.0854(8) 0.50534(12)
C4 C 0.2947(2) 0.6457(8) 0.75260(15)
C5 C 0.4720(3) 0.6098(7) 0.69456(14)
H2 H 0.50500 0.50530 0.72660
C6 C 0.3723(2) 0.9307(8) 0.59948(15)
H3 H 0.34000 1.03960 0.56770
C7 C 0.3137(2) 0.8627(8) 0.65044(14)
H4 H 0.24030 0.92140 0.65270
O5 O 0.6395(2) 0.8086(8) 0.54060(12)
N2 N 0.5458(2) 0.9132(8) 0.54358(13)
C8 C 0.5080(3) 0.9823(9) 0.83458(17)
H5 H 0.55060 1.17580 0.83000
H6 H 0.54920 0.80100 0.82010
H7 H 0.49100 0.95070 0.87600
C9 C 0.2891(3) 0.5611(8) 0.90275(14)
H8 H 0.35850 0.61650 0.92120
H9 H 0.29200 0.33750 0.88990
C10 C 0.1973(3) 0.6105(9) 0.94559(16)
H10 H 0.20800 0.47530 0.97990
H11 H 0.12930 0.55540 0.92660
H12 H 0.19540 0.83270 0.95780
#END
