
#######################################################################
#
#                 Cambridge Crystallographic Data Centre
#                                CCDC
#
#######################################################################
#
# If this CIF has been generated from an entry in the Cambridge
# Structural Database, then it will include bibliographic, chemical,
# crystal, experimental, refinement or atomic coordinate data resulting
# from the CCDC's data processing and validation procedures.
#
#######################################################################

data_CSD_CIF_TAWSAM
_audit_creation_date 2005-12-15
_audit_creation_method CSD-ConQuest-V1
_database_code_CSD TAWSAM
_database_code_depnum_ccdc_archive 'CCDC 270921'
_chemical_formula_sum 'C14 H14 N2 O2'
_chemical_formula_moiety
;
C14 H14 N2 O2
;
_journal_coden_Cambridge 177
_journal_volume 3
_journal_year 2005
_journal_page_first 3273
_journal_name_full 'Org.Biomol.Chem. '
loop_
_publ_author_name
"J.O'Leary"
"X.Formosa"
"W.Skranc"
"J.D.Wallis"
_chemical_name_systematic
;
1-(8-(Dimethylamino)naphthyl)-2-nitroethene
;
_chemical_melting_point 412
_cell_volume   2456.732
_exptl_crystal_colour 'orange'
_exptl_crystal_density_diffrn 1.31
_exptl_special_details
;
Melting point range 412-413K

;
_exptl_crystal_description 'block'
_exptl_crystal_preparation 'ethyl acetate/hexane (1'
_diffrn_ambient_temperature 120
#These two values have been output from a single CSD field.
_refine_ls_R_factor_gt 0.0482
_refine_ls_wR_factor_gt 0.0482
_symmetry_cell_setting monoclinic
_symmetry_space_group_name_H-M 'C 2/c'
_symmetry_Int_Tables_number 15
loop_
_symmetry_equiv_pos_site_id
_symmetry_equiv_pos_as_xyz
1 x,y,z
2 1/2+x,1/2+y,z
3 -x,y,1/2-z
4 1/2-x,1/2+y,1/2-z
5 -x,-y,-z
6 -1/2-x,-1/2-y,-z
7 x,-y,-1/2+z
8 -1/2+x,-1/2-y,-1/2+z
_cell_length_a 15.8700(3)
_cell_length_b 5.4817(1)
_cell_length_c 28.7715(8)
_cell_angle_alpha 90
_cell_angle_beta 101.0295(8)
_cell_angle_gamma 90
_cell_formula_units_Z 8
loop_
_atom_type_symbol
_atom_type_radius_bond
C 0.68
H 0.23
N 0.68
O 0.68
loop_
_atom_site_label
_atom_site_type_symbol
_atom_site_fract_x
_atom_site_fract_y
_atom_site_fract_z
O1 O 0.38016(7) -0.13116(19) 0.52339(4)
O2 O 0.30145(7) -0.36159(16) 0.55869(4)
N1 N 0.10002(6) 0.04749(19) 0.58929(4)
N2 N 0.33271(7) -0.1631(2) 0.55204(4)
C1 C 0.09660(8) 0.1944(2) 0.62935(5)
C2 C 0.02211(9) 0.2394(3) 0.64582(5)
C3 C 0.02086(10) 0.4059(3) 0.68296(6)
C4 C 0.09251(9) 0.5324(3) 0.70250(5)
C5 C 0.24792(10) 0.6069(3) 0.70955(6)
C6 C 0.32502(10) 0.5477(3) 0.69847(6)
C7 C 0.33000(9) 0.3606(2) 0.66577(5)
C8 C 0.25783(8) 0.2362(2) 0.64340(5)
C9 C 0.17181(9) 0.4852(2) 0.68812(5)
C10 C 0.17528(8) 0.3035(2) 0.65305(5)
C11 C 0.26917(8) 0.0284(2) 0.61265(5)
C12 C 0.31551(8) 0.0466(2) 0.57913(5)
C13 C 0.03413(10) -0.1405(3) 0.57808(6)
C14 C 0.10644(10) 0.1917(3) 0.54698(5)
H1 H -0.0314(10) 0.155(3) 0.6308(6)
H2 H -0.0338(10) 0.431(3) 0.6937(6)
H3 H 0.0898(10) 0.652(3) 0.7263(6)
H4 H 0.2445(9) 0.732(3) 0.7317(6)
H5 H 0.3745(11) 0.627(3) 0.7144(6)
H6 H 0.388(1) 0.310(3) 0.6591(5)
H7 H 0.2448(9) -0.130(3) 0.6184(5)
H8 H 0.3405(9) 0.185(3) 0.5695(5)
H9 H -0.0247(10) -0.070(3) 0.5668(6)
H10 H 0.0334(8) -0.238(3) 0.6056(6)
H11 H 0.0497(9) -0.247(3) 0.5542(6)
H12 H 0.0501(10) 0.267(3) 0.5335(6)
H13 H 0.1492(9) 0.321(3) 0.5548(5)
H14 H 0.1233(9) 0.080(3) 0.5238(6)
#END
