
#######################################################################
#
#                 Cambridge Crystallographic Data Centre
#                                CCDC
#
#######################################################################
#
# If this CIF has been generated from an entry in the Cambridge
# Structural Database, then it will include bibliographic, chemical,
# crystal, experimental, refinement or atomic coordinate data resulting
# from the CCDC's data processing and validation procedures.
#
#######################################################################

data_CSD_CIF_TAWSIU
_audit_creation_date 2005-12-15
_audit_creation_method CSD-ConQuest-V1
_database_code_CSD TAWSIU
_database_code_depnum_ccdc_archive 'CCDC 270923'
_chemical_formula_sum 'C21 H18 N2 O3'
_chemical_formula_moiety
;
C21 H18 N2 O3
;
_journal_coden_Cambridge 177
_journal_volume 3
_journal_year 2005
_journal_page_first 3273
_journal_name_full 'Org.Biomol.Chem. '
loop_
_publ_author_name
"J.O'Leary"
"X.Formosa"
"W.Skranc"
"J.D.Wallis"
_chemical_name_systematic
;
1,1-Dimethylbenzo(cd)indolium-2-benzoylnitromethide
;
_chemical_melting_point 434
_cell_volume   1655.627
_exptl_crystal_colour 'brown'
_exptl_crystal_density_diffrn 1.39
_exptl_special_details
;
Melting point range 434-435K

;
_exptl_crystal_description 'block'
_exptl_crystal_preparation 'acetonitrile'
_diffrn_ambient_temperature 120
#These two values have been output from a single CSD field.
_refine_ls_R_factor_gt 0.0471
_refine_ls_wR_factor_gt 0.0471
_symmetry_cell_setting monoclinic
_symmetry_space_group_name_H-M 'P 21/c'
_symmetry_Int_Tables_number 14
loop_
_symmetry_equiv_pos_site_id
_symmetry_equiv_pos_as_xyz
1 x,y,z
2 -x,1/2+y,1/2-z
3 -x,-y,-z
4 x,-1/2-y,-1/2+z
_cell_length_a 7.7283(2)
_cell_length_b 13.6696(4)
_cell_length_c 15.7465(6)
_cell_angle_alpha 90
_cell_angle_beta 95.5779(12)
_cell_angle_gamma 90
_cell_formula_units_Z 4
loop_
_atom_type_symbol
_atom_type_radius_bond
C 0.68
H 0.23
N 0.68
O 0.68
loop_
_atom_site_label
_atom_site_type_symbol
_atom_site_fract_x
_atom_site_fract_y
_atom_site_fract_z
O1 O 0.68623(12) 0.29362(8) 0.12973(7)
O2 O 0.39982(13) 0.00178(7) 0.09591(6)
O3 O 0.31488(13) 0.13105(8) 0.02060(6)
N1 N 0.81456(14) 0.04652(8) 0.17050(7)
N2 N 0.41032(15) 0.09305(9) 0.08141(7)
C1 C 0.95563(17) 0.07795(10) 0.23539(8)
C2 C 1.12527(18) 0.04820(11) 0.24517(9)
C3 C 1.23214(18) 0.09104(11) 0.31351(9)
C4 C 1.17256(18) 0.15949(11) 0.36792(9)
C5 C 0.91039(19) 0.25533(11) 0.40916(9)
C6 C 0.7356(2) 0.27413(11) 0.39107(9)
C7 C 0.63330(19) 0.22823(11) 0.32229(9)
C8 C 0.71225(17) 0.16335(10) 0.27220(8)
C9 C 0.99579(17) 0.18896(10) 0.35787(8)
C10 C 0.89035(17) 0.14548(10) 0.29016(8)
C11 C 0.63904(17) 0.09972(10) 0.19901(8)
C12 C 0.52863(16) 0.14909(10) 0.13078(8)
C13 C 0.54155(16) 0.25464(10) 0.11872(8)
C14 C 0.7910(2) -0.06253(11) 0.17186(10)
C15 C 0.8543(2) 0.07922(12) 0.08340(8)
C16 C 0.38416(16) 0.31805(10) 0.10475(8)
C17 C 0.40373(18) 0.41375(11) 0.07567(9)
C18 C 0.26257(19) 0.47691(11) 0.06712(9)
C19 C 0.10154(19) 0.44499(11) 0.08826(9)
C20 C 0.08147(18) 0.35122(11) 0.11878(9)
C21 C 0.22224(18) 0.28777(11) 0.12729(9)
H1 H 1.168(2) 0.0011(13) 0.2098(10)
H2 H 1.351(2) 0.0720(12) 0.3217(10)
H3 H 1.249(2) 0.1904(12) 0.4143(10)
H4 H 0.978(2) 0.2899(12) 0.4554(10)
H5 H 0.677(2) 0.3182(12) 0.4254(11)
H6 H 0.510(2) 0.2432(12) 0.3111(10)
H7 H 0.5750(18) 0.0439(11) 0.2205(9)
H8 H 0.694(2) -0.0808(12) 0.1296(11)
H9 H 0.760(2) -0.0808(13) 0.2299(12)
H10 H 0.895(2) -0.0948(14) 0.1576(11)
H11 H 0.972(2) 0.0534(12) 0.0746(11)
H12 H 0.761(2) 0.0540(11) 0.0395(10)
H13 H 0.859(2) 0.1512(12) 0.0816(10)
H14 H 0.517(2) 0.4321(12) 0.0626(10)
H15 H 0.278(2) 0.5446(13) 0.0491(11)
H16 H -0.002(2) 0.4884(14) 0.0833(11)
H17 H -0.031(2) 0.3299(12) 0.1346(10)
H18 H 0.2125(19) 0.2213(11) 0.1510(9)
#END
