
#######################################################################
#
#                 Cambridge Crystallographic Data Centre
#                                CCDC
#
#######################################################################
#
# If this CIF has been generated from an entry in the Cambridge
# Structural Database, then it will include bibliographic, chemical,
# crystal, experimental, refinement or atomic coordinate data resulting
# from the CCDC's data processing and validation procedures.
#
#######################################################################

data_CSD_CIF_TAXDUU
_audit_creation_date 2017-04-01
_audit_creation_method CSD-ConQuest-V1
_database_code_CSD TAXDUU
_database_code_depnum_ccdc_archive 'CCDC 1540757'
_chemical_formula_sum 'C8 H6 N4 O8'
_chemical_formula_moiety
;
C8 H6 N4 O8
;
_journal_coeditor_code "pk2599"
_journal_coden_Cambridge 1828
_journal_volume 73
_journal_year 2017
_journal_page_first 644
_journal_name_full 'Acta Crystallogr.,Sect.E:Cryst.Commun. '
loop_
_publ_author_name
"R.C.Sausa"
"R.A.Pesce-Rodriguez"
"L.A.Wingard"
"P.E.Guzman"
"J.J.Sabatini"
_chemical_name_systematic
;
(3,3'-biisoxazole-5,5'-diyl)bis(methylene) dinitrate
;
_cell_volume    590.647
_exptl_crystal_colour 'colorless'
_exptl_crystal_density_diffrn 1.609
_exptl_crystal_description 'irregular'
_diffrn_ambient_temperature 296.9
#These two values have been output from a single CSD field.
_refine_ls_R_factor_gt 0.0406
_refine_ls_wR_factor_gt 0.0406
_symmetry_cell_setting monoclinic
_symmetry_space_group_name_H-M 'P 21/n'
_symmetry_Int_Tables_number 14
loop_
_symmetry_equiv_pos_site_id
_symmetry_equiv_pos_as_xyz
1 x,y,z
2 1/2-x,1/2+y,1/2-z
3 -x,-y,-z
4 -1/2+x,-1/2-y,-1/2+z
_cell_length_a 6.1917(5)
_cell_length_b 5.5299(5)
_cell_length_c 17.4769(12)
_cell_angle_alpha 90
_cell_angle_beta 99.233(7)
_cell_angle_gamma 90
_cell_formula_units_Z 2
loop_
_atom_type_symbol
_atom_type_radius_bond
C 0.68
H 0.23
N 0.68
O 0.68
loop_
_atom_site_label
_atom_site_type_symbol
_atom_site_fract_x
_atom_site_fract_y
_atom_site_fract_z
C1 C 0.5869(4) 0.8027(4) 0.63740(11)
H1 H 0.71456 0.78017 0.61247
H2 H 0.55319 0.97412 0.63645
C2 C 0.1082(3) 0.5201(3) 0.52299(9)
C3 C 0.3989(3) 0.6693(3) 0.59298(10)
C4 C 0.1987(3) 0.7337(3) 0.55899(10)
H3 H 0.13341 0.88517 0.55901
N1 N 0.2447(3) 0.3392(3) 0.53455(9)
N2 N 0.5082(3) 0.8284(4) 0.76635(11)
O1 O 0.6372(2) 0.7230(3) 0.71689(8)
O2 O 0.4340(2) 0.4322(2) 0.57971(8)
O3 O 0.3714(3) 0.9669(4) 0.73937(12)
O4 O 0.5589(3) 0.7599(4) 0.83151(10)
C1B C -0.5869(4) 0.1973(4) 0.36260(11)
H1B H -0.71456 0.21983 0.38753
H2B H -0.55319 0.02588 0.36355
C2B C -0.1082(3) 0.4799(3) 0.47701(9)
C3B C -0.3989(3) 0.3307(3) 0.40702(10)
C4B C -0.1987(3) 0.2663(3) 0.44101(10)
H3B H -0.13341 0.11483 0.44099
N1B N -0.2447(3) 0.6608(3) 0.46545(9)
N2B N -0.5082(3) 0.1716(4) 0.23365(11)
O1B O -0.6372(2) 0.2770(3) 0.28311(8)
O2B O -0.4340(2) 0.5678(2) 0.42029(8)
O3B O -0.3714(3) 0.0331(4) 0.26063(12)
O4B O -0.5589(3) 0.2401(4) 0.16849(10)
#END
