
#######################################################################
#
#                 Cambridge Crystallographic Data Centre
#                                CCDC
#
#######################################################################
#
# If this CIF has been generated from an entry in the Cambridge
# Structural Database, then it will include bibliographic, chemical,
# crystal, experimental, refinement or atomic coordinate data resulting
# from the CCDC's data processing and validation procedures.
#
#######################################################################

data_CSD_CIF_TAXDUU01
_audit_creation_date 2018-02-17
_audit_creation_method CSD-ConQuest-V1
_database_code_CSD TAXDUU01
_database_code_depnum_ccdc_archive 'CCDC 1811400; not CCDC 811400 as published'
_chemical_formula_sum 'C8 H6 N4 O8'
_chemical_formula_moiety
;
C8 H6 N4 O8
;
_journal_coden_Cambridge 119
_journal_volume 1162
_journal_year 2018
_journal_page_first 45
_journal_name_full 'J.Mol.Struct. '
loop_
_publ_author_name
"D.E.Taylor"
"R.C.Sausa"
_chemical_name_systematic
;
([3,3'-bi-1,2-oxazole]-5,5'-diyl)bis(methylene) dinitrate
;
_chemical_name_common
;
3,3-bis-isoxazole-5,5'-bis-methylene dinitrate
;
_cell_volume    565.507
_exptl_crystal_colour 'light colorless'
_exptl_crystal_density_diffrn 1.681
_exptl_crystal_description 'irregular'
_diffrn_ambient_temperature 100
#These two values have been output from a single CSD field.
_refine_ls_R_factor_gt 0.0331
_refine_ls_wR_factor_gt 0.0331
_symmetry_cell_setting monoclinic
_symmetry_space_group_name_H-M 'P 21/n'
_symmetry_Int_Tables_number 14
loop_
_symmetry_equiv_pos_site_id
_symmetry_equiv_pos_as_xyz
1 x,y,z
2 1/2-x,1/2+y,1/2-z
3 -x,-y,-z
4 -1/2+x,-1/2-y,-1/2+z
_cell_length_a 5.9328(2)
_cell_length_b 5.4860(1)
_cell_length_c 17.5620(5)
_cell_angle_alpha 90
_cell_angle_beta 98.371(3)
_cell_angle_gamma 90
_cell_formula_units_Z 2
loop_
_atom_type_symbol
_atom_type_radius_bond
C 0.68
H 0.23
N 0.68
O 0.68
loop_
_atom_site_label
_atom_site_type_symbol
_atom_site_fract_x
_atom_site_fract_y
_atom_site_fract_z
O1 O 0.64968(15) 0.73078(17) 0.71716(5)
O2 O 0.44664(16) 0.42880(16) 0.58096(5)
O3 O 0.35941(17) 0.97741(19) 0.73343(6)
O4 O 0.55105(18) 0.7842(2) 0.83012(6)
N1 N 0.25205(19) 0.3350(2) 0.53571(6)
N2 N 0.50481(19) 0.8428(2) 0.76373(7)
C1 C 0.4114(2) 0.6690(2) 0.59339(7)
C2 C 0.1115(2) 0.5197(2) 0.52325(7)
C3 C 0.2036(2) 0.7370(2) 0.55882(7)
H1 H 0.13630 0.89023 0.55835
C4 C 0.6053(2) 0.8043(3) 0.63717(7)
H2 H 0.74086 0.77668 0.61346
H3 H 0.57212 0.97749 0.63444
O1B O -0.64968(15) 0.26922(17) 0.28284(5)
O2B O -0.44664(16) 0.57120(16) 0.41904(5)
O3B O -0.35941(17) 0.02259(19) 0.26657(6)
O4B O -0.55105(18) 0.2158(2) 0.16988(6)
N1B N -0.25205(19) 0.6650(2) 0.46429(6)
N2B N -0.50481(19) 0.1572(2) 0.23627(7)
C1B C -0.4114(2) 0.3310(2) 0.40661(7)
C2B C -0.1115(2) 0.4803(2) 0.47675(7)
C3B C -0.2036(2) 0.2630(2) 0.44118(7)
H1B H -0.13630 0.10977 0.44165
C4B C -0.6053(2) 0.1957(3) 0.36283(7)
H2B H -0.74086 0.22332 0.38654
H3B H -0.57212 0.02251 0.36556
#END
