
#######################################################################
#
#                 Cambridge Crystallographic Data Centre
#                                CCDC
#
#######################################################################
#
# If this CIF has been generated from an entry in the Cambridge
# Structural Database, then it will include bibliographic, chemical,
# crystal, experimental, refinement or atomic coordinate data resulting
# from the CCDC's data processing and validation procedures.
#
#######################################################################

data_CSD_CIF_TAXSOB
_audit_creation_date 2006-03-27
_audit_creation_method CSD-ConQuest-V1
_database_code_CSD TAXSOB
_database_code_depnum_ccdc_archive 'CCDC 291963'
_database_code_depnum_ccdc_journal 1267/1495
_chemical_formula_sum 'C12 H15 N3 O6'
_chemical_formula_moiety
;
C12 H15 N3 O6
;
_journal_coden_Cambridge 1267
_journal_volume 220
_journal_year 2005
_journal_page_first 217
_journal_name_full 'Z.Kristallogr.-New Cryst.Struct. '
loop_
_publ_author_name
"M.D.Crozet"
"M.Giorgi"
"T.Terme"
"P.Vanelle"
_chemical_name_systematic
;
Diethyl 2-(1-methyl-5-nitro-1H-imidazol-4-ylmethylene)malonate
;
_cell_volume   1454.389
_exptl_crystal_colour 'colorless'
_exptl_crystal_density_diffrn 1.358
_exptl_crystal_description 'prism'
_diffrn_ambient_temperature 293
#These two values have been output from a single CSD field.
_refine_ls_R_factor_gt 0.0453
_refine_ls_wR_factor_gt 0.0453
_symmetry_cell_setting monoclinic
_symmetry_space_group_name_H-M 'P 21/c'
_symmetry_Int_Tables_number 14
loop_
_symmetry_equiv_pos_site_id
_symmetry_equiv_pos_as_xyz
1 x,y,z
2 -x,1/2+y,1/2-z
3 -x,-y,-z
4 x,-1/2-y,-1/2+z
_cell_length_a 14.7940(7)
_cell_length_b 5.4610(1)
_cell_length_c 18.0420(9)
_cell_angle_alpha 90
_cell_angle_beta 93.812(1)
_cell_angle_gamma 90
_cell_formula_units_Z 4
loop_
_atom_type_symbol
_atom_type_radius_bond
C 0.68
H 0.23
N 0.68
O 0.68
loop_
_atom_site_label
_atom_site_type_symbol
_atom_site_fract_x
_atom_site_fract_y
_atom_site_fract_z
O1 O 0.44994(9) -0.2344(3) 0.76944(7)
O2 O 0.33564(10) -0.0029(3) 0.73796(7)
O3 O 0.30392(8) 0.8386(2) 0.96799(7)
O4 O 0.22277(8) 0.5023(2) 0.99027(6)
O5 O 0.14402(10) 0.6481(3) 0.76165(8)
O6 O 0.12951(8) 0.8636(3) 0.86533(7)
N1 N 0.42245(9) 0.3833(3) 0.92898(7)
N2 N 0.49909(8) 0.0655(2) 0.88783(7)
N3 N 0.40212(10) -0.0552(3) 0.77891(7)
C1 C 0.37683(10) 0.2976(3) 0.86602(8)
C2 C 0.49444(10) 0.2424(3) 0.93948(8)
H1 H 0.54100 0.25380 0.97900
C3 C 0.57559(12) -0.1035(3) 0.88404(10)
H2 H 0.56410 -0.21200 0.84270
H3 H 0.58240 -0.19720 0.92910
H4 H 0.63010 -0.01280 0.87780
C4 C 0.42397(10) 0.1002(3) 0.84041(8)
C5 C 0.2960(1) 0.4162(3) 0.83377(9)
H5 H 0.27450 0.37830 0.78370
C6 C 0.24685(10) 0.5819(3) 0.86736(9)
C7 C 0.26311(10) 0.6595(3) 0.94678(9)
C8 C 0.22934(13) 0.5520(4) 1.0694(1)
H6 H 0.29210 0.55170 1.08680
H7 H 0.20360 0.71000 1.07810
C9 C 0.17818(17) 0.3570(5) 1.10560(13)
H8 H 0.18030 0.37980 1.15840
H9 H 0.20480 0.20200 1.09460
H10 H 0.11630 0.36030 1.08590
C10 C 0.16864(11) 0.6984(4) 0.82421(10)
C11 C 0.05505(14) 1.0032(5) 0.83011(13)
H11 H 0.07660 1.09300 0.78910
H12 H 0.00880 0.89060 0.81220
C12 C 0.02142(16) 1.1700(5) 0.88523(15)
H13 H -0.02840 1.26590 0.86450
H14 H 0.06980 1.27670 0.90270
H15 H 0.00200 1.07430 0.92590
H16? H 0.61710 -0.05280 0.93160
H17? H 0.60510 -0.06910 0.83200
H18? H 0.55260 -0.29790 0.88860
#END
