
#######################################################################
#
#                 Cambridge Crystallographic Data Centre
#                                CCDC
#
#######################################################################
#
# If this CIF has been generated from an entry in the Cambridge
# Structural Database, then it will include bibliographic, chemical,
# crystal, experimental, refinement or atomic coordinate data resulting
# from the CCDC's data processing and validation procedures.
#
#######################################################################

data_CSD_CIF_TAXWUM
_audit_creation_date 2012-10-16
_audit_creation_method CSD-ConQuest-V1
_database_code_CSD TAXWUM
_database_code_depnum_ccdc_archive 'CCDC 778648'
_chemical_formula_sum 'C21 H26 N2 O4'
_chemical_formula_moiety
;
C21 H26 N2 O4
;
_journal_coden_Cambridge 1366
_journal_volume 354
_journal_year 2012
_journal_page_first 1731
_journal_name_full 'Adv.Synth.Catal. '
loop_
_publ_author_name
"I.de Miguel"
"B.Herradon"
"E.Mann"
_chemical_name_systematic
;
(1-Hydroxy-10-azatetracyclo[6.5.2.0^4,15^.0^9,13^]pentadec-10-yl)(3-nitropheny
l)methanone
;
_cell_volume   1776.181
_exptl_crystal_colour 'colorless'
_exptl_crystal_density_diffrn 1.385
_exptl_crystal_description 'prismatic'
_diffrn_ambient_temperature 100
#These two values have been output from a single CSD field.
_refine_ls_R_factor_gt 0.0397
_refine_ls_wR_factor_gt 0.0397
_symmetry_cell_setting monoclinic
_symmetry_space_group_name_H-M 'P 21/c'
_symmetry_Int_Tables_number 14
loop_
_symmetry_equiv_pos_site_id
_symmetry_equiv_pos_as_xyz
1 x,y,z
2 -x,1/2+y,1/2-z
3 -x,-y,-z
4 x,-1/2-y,-1/2+z
_cell_length_a 11.7373(2)
_cell_length_b 11.2429(2)
_cell_length_c 13.9114(3)
_cell_angle_alpha 90
_cell_angle_beta 104.638(1)
_cell_angle_gamma 90
_cell_formula_units_Z 4
loop_
_atom_type_symbol
_atom_type_radius_bond
C 0.68
H 0.23
N 0.68
O 0.68
loop_
_atom_site_label
_atom_site_type_symbol
_atom_site_fract_x
_atom_site_fract_y
_atom_site_fract_z
C1 C 0.88394(12) 0.83184(12) 0.32121(11)
C2 C 0.85592(13) 0.88084(13) 0.40354(11)
C3 C 0.79320(13) 0.81167(13) 0.45467(11)
C4 C 0.76213(12) 0.69618(12) 0.42438(11)
C5 C 0.79485(12) 0.64651(12) 0.34349(10)
C6 C 0.85599(12) 0.71601(12) 0.29023(11)
C7 C 0.76195(11) 0.52152(12) 0.30779(10)
C8 C 0.84245(12) 0.44578(12) 0.47808(10)
C9 C 0.90397(12) 0.32543(13) 0.49158(11)
C10 C 0.81209(12) 0.23759(12) 0.43486(10)
C11 C 0.73900(12) 0.31060(12) 0.34552(10)
C12 C 0.61092(12) 0.26394(12) 0.30197(10)
C13 C 0.51985(12) 0.35315(13) 0.24303(10)
C14 C 0.46384(13) 0.43056(13) 0.30865(11)
C15 C 0.40975(13) 0.35566(13) 0.37763(11)
C16 C 0.49860(12) 0.26848(13) 0.43994(10)
C17 C 0.55408(12) 0.19176(12) 0.37267(10)
C18 C 0.64250(12) 0.10473(12) 0.43485(10)
C19 C 0.74341(12) 0.17396(12) 0.50097(10)
C20 C 0.69436(13) 0.25292(12) 0.57096(10)
C21 C 0.59288(13) 0.33364(13) 0.51846(10)
N1 N 0.94555(12) 0.90720(11) 0.26367(10)
N2 N 0.75914(10) 0.4381(1) 0.37779(8)
O1 O 0.98978(12) 0.85848(11) 0.20316(10)
O2 O 0.94913(12) 1.01426(10) 0.27873(10)
O3 O 0.73539(9) 0.50166(9) 0.21776(7)
O4 O 0.82961(9) 0.09467(9) 0.56029(7)
H1 H 0.8810(15) 0.9600(16) 0.4258(13)
H2 H 0.7717(16) 0.8428(16) 0.5096(14)
H3 H 0.7203(15) 0.6493(15) 0.4588(13)
H4 H 0.8009(18) 0.0668(18) 0.6053(16)
H5 H 0.8782(15) 0.6836(16) 0.2363(14)
H6 H 0.8012(14) 0.4601(13) 0.5294(12)
H7 H 0.8970(15) 0.5141(15) 0.4794(12)
H8 H 0.9295(15) 0.3039(15) 0.5602(13)
H9 H 0.9699(15) 0.3251(15) 0.4620(13)
H10 H 0.8504(14) 0.1722(15) 0.4087(12)
H11 H 0.7788(14) 0.3022(14) 0.2906(12)
H12 H 0.6233(14) 0.2035(14) 0.2529(12)
H13 H 0.5538(14) 0.4025(14) 0.2007(12)
H14 H 0.4590(15) 0.3027(15) 0.1995(13)
H15 H 0.5268(15) 0.4871(15) 0.3475(12)
H16 H 0.4022(15) 0.4808(15) 0.2661(13)
H17 H 0.3774(15) 0.4102(16) 0.4207(13)
H18 H 0.3449(17) 0.3085(17) 0.3371(14)
H19 H 0.4566(15) 0.2112(15) 0.4748(12)
H20 H 0.4891(15) 0.1435(15) 0.3302(12)
H21 H 0.6029(15) 0.0560(16) 0.4770(13)
H22 H 0.6750(15) 0.0485(16) 0.3926(13)
H23 H 0.6658(14) 0.1990(15) 0.6134(12)
H24 H 0.7597(15) 0.3022(15) 0.6150(12)
H25 H 0.5583(15) 0.3694(15) 0.5677(13)
H26 H 0.6218(14) 0.4011(15) 0.4864(12)
#END
