
#######################################################################
#
#                 Cambridge Crystallographic Data Centre
#                                CCDC
#
#######################################################################
#
# If this CIF has been generated from an entry in the Cambridge
# Structural Database, then it will include bibliographic, chemical,
# crystal, experimental, refinement or atomic coordinate data resulting
# from the CCDC's data processing and validation procedures.
#
#######################################################################

data_CSD_CIF_TAYBIG
_audit_creation_date 2012-10-16
_audit_creation_method CSD-ConQuest-V1
_database_code_CSD TAYBIG
_database_code_depnum_ccdc_archive 'CCDC 885740'
_chemical_formula_sum 'C17 H15 N1 O5'
_chemical_formula_moiety
;
C17 H15 N1 O5
;
_journal_coden_Cambridge 1336
_journal_volume 14
_journal_year 2012
_journal_page_first 3260
_journal_name_full 'Org.Lett. '
loop_
_publ_author_name
"G.K.S.Prakash"
"Fang Wang"
"Zhe Zhang"
"Chuanfa Ni"
"R.Haiges"
"G.A.Olah"
_chemical_name_systematic
;
Methyl 2-(4-nitrophenyl)-4-oxo-4-phenylbutanoate
;
_cell_volume    719.075
_exptl_crystal_colour 'colorless'
_exptl_crystal_density_diffrn 1.447
_exptl_special_details
;
Absolute configuration

;
_exptl_crystal_description 'prism'
_exptl_crystal_preparation 'ethanol/water'
_diffrn_ambient_temperature 100
_diffrn_radiation_source 'Mo radiation'
#These two values have been output from a single CSD field.
_refine_ls_R_factor_gt 0.0408
_refine_ls_wR_factor_gt 0.0408
_symmetry_cell_setting monoclinic
_symmetry_space_group_name_H-M 'P 21'
_symmetry_Int_Tables_number 4
loop_
_symmetry_equiv_pos_site_id
_symmetry_equiv_pos_as_xyz
1 x,y,z
2 -x,1/2+y,-z
_cell_length_a 7.4205(4)
_cell_length_b 12.6395(7)
_cell_length_c 7.9161(5)
_cell_angle_alpha 90
_cell_angle_beta 104.419(1)
_cell_angle_gamma 90
_cell_formula_units_Z 2
loop_
_atom_type_symbol
_atom_type_radius_bond
C 0.68
H 0.23
N 0.68
O 0.68
loop_
_atom_site_label
_atom_site_type_symbol
_atom_site_fract_x
_atom_site_fract_y
_atom_site_fract_z
C1 C 0.9446(2) 0.14730(12) 1.54350(19)
H1 H 0.97350 0.07450 1.53560
C2 C 0.9974(2) 0.19928(13) 1.7027(2)
H2 H 1.06240 0.16180 1.80360
C3 C 0.9559(2) 0.30570(13) 1.71548(19)
H3 H 0.99330 0.34090 1.82460
C4 C 0.8596(2) 0.36071(13) 1.5683(2)
H4 H 0.83030 0.43330 1.57700
C5 C 0.8063(2) 0.30918(12) 1.40820(18)
H5 H 0.74080 0.34690 1.30780
C6 C 0.84845(19) 0.20242(12) 1.39425(19)
C7 C 0.7870(2) 0.14311(12) 1.22593(19)
C8 C 0.6823(2) 0.20317(12) 1.06613(18)
H6 H 0.76420 0.25890 1.03840
H7 H 0.57320 0.23840 1.09230
C9 C 0.6163(2) 0.13171(12) 0.90730(18)
H8 H 0.72860 0.09780 0.88210
C10 C 0.51266(19) 0.19057(12) 0.74268(18)
C11 C 0.4368(2) 0.29102(12) 0.74726(19)
H9 H 0.45080 0.32580 0.85610
C12 C 0.3406(2) 0.34121(12) 0.59480(18)
H10 H 0.29170 0.41040 0.59800
C13 C 0.3182(2) 0.28756(13) 0.43856(18)
C14 C 0.3911(2) 0.18696(13) 0.42905(19)
H11 H 0.37350 0.15160 0.32020
C15 C 0.4899(2) 0.13951(12) 0.58173(19)
H12 H 0.54290 0.07150 0.57730
C16 C 0.4870(2) 0.04369(12) 0.93763(18)
C17 C 0.2267(2) 0.00422(13) 1.0500(2)
H13 H 0.16190 -0.02460 0.93610
H14 H 0.13690 0.04010 1.10260
H15 H 0.28630 -0.05350 1.12640
N1 N 0.20819(18) 0.33706(11) 0.27780(16)
O1 O 0.81741(16) 0.04865(9) 1.21790(14)
O2 O 0.16377(16) 0.43054(9) 0.28311(14)
O3 O 0.16182(18) 0.28179(10) 0.14623(15)
O4 O 0.36731(14) 0.07933(8) 1.02778(14)
O5 O 0.48425(15) -0.04523(9) 0.88186(14)
#END
