
#######################################################################
#
#                 Cambridge Crystallographic Data Centre
#                                CCDC
#
#######################################################################
#
# If this CIF has been generated from an entry in the Cambridge
# Structural Database, then it will include bibliographic, chemical,
# crystal, experimental, refinement or atomic coordinate data resulting
# from the CCDC's data processing and validation procedures.
#
#######################################################################

data_CSD_CIF_TAYHOR
_audit_creation_date 2006-03-28
_audit_creation_method CSD-ConQuest-V1
_database_code_CSD TAYHOR
_database_code_depnum_ccdc_archive 'CCDC 277007'
_chemical_formula_sum 'C11 H2 N10 O6'
_chemical_formula_moiety
;
C11 H2 N10 O6
;
_journal_coden_Cambridge 179
_journal_volume 44
_journal_year 2005
_journal_page_first 7089
_journal_name_full 'Angew.Chem.,Int.Ed. '
loop_
_publ_author_name
"M.H.V.Huynh"
"M.A.Hiskey"
"D.E.Chavez"
"R.D.Gilardi"
_chemical_name_systematic
;
5-(4,6-dinitrobenzotriazolyl)-1,2,5-oxadiazolo(3,4-d)-1,2,5-oxadiazolo-(3,4-b)
pyridine
;
_cell_volume   1354.027
_exptl_crystal_colour 'dark red'
_exptl_crystal_density_diffrn 1.816
_exptl_crystal_description 'rod'
_diffrn_ambient_temperature 103
#These two values have been output from a single CSD field.
_refine_ls_R_factor_gt 0.048
_refine_ls_wR_factor_gt 0.048
_symmetry_cell_setting orthorhombic
_symmetry_space_group_name_H-M 'P n a 21'
_symmetry_Int_Tables_number 33
loop_
_symmetry_equiv_pos_site_id
_symmetry_equiv_pos_as_xyz
1 x,y,z
2 -x,-y,1/2+z
3 1/2+x,1/2-y,z
4 1/2-x,1/2+y,1/2+z
_cell_length_a 11.2315(16)
_cell_length_b 12.0192(18)
_cell_length_c 10.0303(15)
_cell_angle_alpha 90
_cell_angle_beta 90
_cell_angle_gamma 90
_cell_formula_units_Z 4
loop_
_atom_type_symbol
_atom_type_radius_bond
C 0.68
H 0.23
N 0.68
O 0.68
loop_
_atom_site_label
_atom_site_type_symbol
_atom_site_fract_x
_atom_site_fract_y
_atom_site_fract_z
N1 N 0.1707(2) 0.7831(2) 0.1882(2)
C1 C 0.2016(3) 0.6735(3) 0.1568(3)
N2 N 0.3017(2) 0.6461(2) 0.1010(3)
O1 O 0.2957(2) 0.53105(18) 0.0897(3)
N3 N 0.1890(3) 0.4897(2) 0.1404(3)
C2 C 0.1317(3) 0.5777(2) 0.1800(3)
C3 C 0.0207(3) 0.5943(2) 0.2469(4)
N4 N -0.0617(2) 0.5256(2) 0.2879(3)
O2 O -0.14182(18) 0.59369(18) 0.3549(3)
N5 N -0.1084(2) 0.7046(2) 0.3539(3)
C4 C -0.0082(2) 0.7051(2) 0.2864(3)
C5 C 0.0720(2) 0.7973(2) 0.2506(3)
N6 N 0.04209(19) 0.90777(19) 0.2835(3)
N7 N -0.0434(2) 0.9297(2) 0.3781(3)
N8 N -0.0457(2) 1.0349(2) 0.4003(3)
C6 C 0.0403(2) 1.0850(3) 0.3217(3)
C7 C 0.0795(3) 1.1956(2) 0.3139(3)
N9 N 0.0235(3) 1.2831(2) 0.3963(3)
O3 O 0.0887(3) 1.3575(2) 0.4377(2)
O4 O -0.0823(3) 1.2733(2) 0.4180(4)
C8 C 0.1702(3) 1.2235(2) 0.2317(3)
H1 H 0.199(3) 1.297(3) 0.232(4)
C9 C 0.2204(3) 1.1398(2) 0.1523(4)
N10 N 0.3146(3) 1.1716(3) 0.0596(3)
O5 O 0.3514(4) 1.1006(2) -0.0162(4)
O6 O 0.3517(2) 1.26745(19) 0.0605(3)
C10 C 0.1877(3) 1.0296(3) 0.1551(3)
H2 H 0.237(3) 0.980(2) 0.099(3)
C11 C 0.0972(2) 1.0051(2) 0.2465(3)
#END
