
#######################################################################
#
#                 Cambridge Crystallographic Data Centre
#                                CCDC
#
#######################################################################
#
# If this CIF has been generated from an entry in the Cambridge
# Structural Database, then it will include bibliographic, chemical,
# crystal, experimental, refinement or atomic coordinate data resulting
# from the CCDC's data processing and validation procedures.
#
#######################################################################

data_CSD_CIF_TAYHUX
_audit_creation_date 2006-03-28
_audit_creation_method CSD-ConQuest-V1
_database_code_CSD TAYHUX
_database_code_depnum_ccdc_archive 'CCDC 277008'
_chemical_formula_sum 'C11 H3 N9 O8'
_chemical_formula_moiety
;
C11 H3 N9 O8
;
_journal_coden_Cambridge 179
_journal_volume 44
_journal_year 2005
_journal_page_first 7089
_journal_name_full 'Angew.Chem.,Int.Ed. '
loop_
_publ_author_name
"M.H.V.Huynh"
"M.A.Hiskey"
"D.E.Chavez"
"R.D.Gilardi"
_chemical_name_systematic
;
2,4,8,10-tetranitro-5H-pyrido(3,2:4,5)(1,2,3)triazolo(1,2-a) 
-benzotriazol-6-ium-7-ide
;
_cell_volume   1384.239
_exptl_crystal_colour 'bright yellow'
_exptl_crystal_density_diffrn 1.868
_exptl_crystal_description 'thin plate'
_exptl_crystal_preparation 'nitromethane'
_diffrn_ambient_temperature 294
#These two values have been output from a single CSD field.
_refine_ls_R_factor_gt 0.0834
_refine_ls_wR_factor_gt 0.0834
_symmetry_cell_setting orthorhombic
_symmetry_space_group_name_H-M 'P 21 21 21'
_symmetry_Int_Tables_number 19
loop_
_symmetry_equiv_pos_site_id
_symmetry_equiv_pos_as_xyz
1 x,y,z
2 1/2-x,-y,1/2+z
3 -x,1/2+y,1/2-z
4 1/2+x,1/2-y,-z
_cell_length_a 6.4193(14)
_cell_length_b 9.7768(12)
_cell_length_c 22.056(7)
_cell_angle_alpha 90
_cell_angle_beta 90
_cell_angle_gamma 90
_cell_formula_units_Z 4
loop_
_atom_type_symbol
_atom_type_radius_bond
C 0.68
H 0.23
N 0.68
O 0.68
loop_
_atom_site_label
_atom_site_type_symbol
_atom_site_fract_x
_atom_site_fract_y
_atom_site_fract_z
N1 N 0.664(2) 0.6557(10) 0.3815(4)
N2 N 0.847(2) 0.7096(11) 0.4025(5)
N3 N 0.8911(19) 0.6774(11) 0.4599(4)
C1 C 0.717(2) 0.5976(13) 0.4761(6)
C2 C 0.667(2) 0.5284(13) 0.5294(5)
N4 N 0.809(2) 0.5277(12) 0.5814(5)
O1 O 0.9494(19) 0.6113(10) 0.5824(5)
O2 O 0.7738(17) 0.4403(9) 0.6204(4)
C3 C 0.482(2) 0.4568(12) 0.5326(5)
H1 H 0.44130 0.41140 0.56780
C4 C 0.357(2) 0.4559(13) 0.4803(5)
N5 N 0.163(2) 0.3793(11) 0.4811(5)
O3 O 0.1005(16) 0.3345(9) 0.5304(4)
O4 O 0.0718(19) 0.3602(11) 0.4339(5)
N6 N 0.396(2) 0.5162(11) 0.4268(5)
C5 C 0.575(3) 0.5830(13) 0.4268(6)
N7 N 0.9484(18) 0.7864(11) 0.3621(5)
C6 C 0.815(3) 0.7802(13) 0.3120(5)
C7 C 0.834(2) 0.8429(12) 0.2552(6)
N8 N 1.011(2) 0.9277(13) 0.2386(5)
O5 O 1.1677(18) 0.9259(10) 0.2696(4)
O6 O 0.9902(17) 1.0022(10) 0.1936(4)
C8 C 0.680(2) 0.8211(13) 0.2123(5)
H2 H 0.68860 0.86110 0.17410
C9 C 0.512(2) 0.7387(13) 0.2273(5)
N9 N 0.3492(19) 0.7239(11) 0.1811(5)
O7 O 0.3449(17) 0.8054(10) 0.1394(4)
O8 O 0.2193(16) 0.6335(10) 0.1881(4)
C10 C 0.485(2) 0.6757(13) 0.2809(5)
H3 H 0.37060 0.62080 0.28940
C11 C 0.638(2) 0.6987(12) 0.3212(5)
#END
