
#######################################################################
#
#                 Cambridge Crystallographic Data Centre
#                                CCDC
#
#######################################################################
#
# If this CIF has been generated from an entry in the Cambridge
# Structural Database, then it will include bibliographic, chemical,
# crystal, experimental, refinement or atomic coordinate data resulting
# from the CCDC's data processing and validation procedures.
#
#######################################################################

data_CSD_CIF_TAYNIS
_audit_creation_date 2012-10-16
_audit_creation_method CSD-ConQuest-V1
_database_code_CSD TAYNIS
_database_code_depnum_ccdc_archive 'CCDC 895191'
_chemical_formula_sum 'C21 H26 N2 O4'
_chemical_formula_moiety
;
C21 H26 N2 O4
;
_journal_coden_Cambridge 1336
_journal_volume 14
_journal_year 2012
_journal_page_first 3506
_journal_name_full 'Org.Lett. '
loop_
_publ_author_name
"Liang Li"
"Mi-Na Zhao"
"Zhi-Hui Ren"
"Jian-Li Li"
"Zheng-Hui Guan"
_chemical_name_systematic
;
Methyl 
2-(cyclohexylamino)-4-methyl-6-(4-nitrophenyl)cyclohexa-1,3-diene-1-carboxylat
e
;
_cell_volume   4013.415
_exptl_crystal_density_diffrn 1.223
_diffrn_ambient_temperature 296
#These two values have been output from a single CSD field.
_refine_ls_R_factor_gt 0.0568
_refine_ls_wR_factor_gt 0.0568
_symmetry_cell_setting orthorhombic
_symmetry_space_group_name_H-M 'P b c a'
_symmetry_Int_Tables_number 61
loop_
_symmetry_equiv_pos_site_id
_symmetry_equiv_pos_as_xyz
1 x,y,z
2 1/2-x,-y,1/2+z
3 -x,1/2+y,1/2-z
4 1/2+x,1/2-y,-z
5 -x,-y,-z
6 -1/2+x,y,-1/2-z
7 x,-1/2-y,-1/2+z
8 -1/2-x,-1/2+y,z
_cell_length_a 12.321(4)
_cell_length_b 14.075(5)
_cell_length_c 23.143(8)
_cell_angle_alpha 90
_cell_angle_beta 90
_cell_angle_gamma 90
_cell_formula_units_Z 8
loop_
_atom_type_symbol
_atom_type_radius_bond
C 0.68
H 0.23
N 0.68
O 0.68
loop_
_atom_site_label
_atom_site_type_symbol
_atom_site_fract_x
_atom_site_fract_y
_atom_site_fract_z
N1 N -0.2549(2) 0.10646(17) 0.27378(12)
N2 N 0.31989(17) 0.28748(15) 0.39994(9)
O1 O -0.2160(2) 0.07286(19) 0.22968(11)
O2 O -0.35276(18) 0.11318(17) 0.28226(11)
O3 O 0.29126(15) 0.12874(13) 0.46052(8)
O4 O 0.11970(15) 0.09344(14) 0.48540(8)
C1 C -0.1814(2) 0.14203(17) 0.31875(12)
C2 C -0.0708(2) 0.14186(17) 0.30864(11)
H1 H -0.04280 0.11780 0.27430
C3 C -0.0027(2) 0.17841(18) 0.35089(11)
H2 H 0.07190 0.17810 0.34470
C4 C -0.0430(2) 0.21533(17) 0.40201(10)
C5 C -0.1549(2) 0.2116(2) 0.41103(12)
H3 H -0.18330 0.23410 0.44570
C6 C -0.2246(2) 0.1754(2) 0.36974(12)
H4 H -0.29900 0.17360 0.37630
C7 C 0.0292(2) 0.26024(19) 0.44864(11)
H5 H 0.00720 0.23300 0.48580
C8 C 0.0095(2) 0.3676(2) 0.45217(12)
H6 H -0.06790 0.37990 0.44980
H7 H 0.03490 0.39090 0.48920
C9 C 0.0663(2) 0.42045(19) 0.40471(11)
C10 C 0.1613(2) 0.38850(18) 0.38571(11)
H8 H 0.19650 0.42160 0.35640
C11 C 0.2129(2) 0.30277(18) 0.40929(10)
C12 C 0.14959(19) 0.23976(19) 0.44123(10)
C13 C 0.1953(2) 0.1526(2) 0.46204(11)
C14 C 0.1594(3) 0.0051(2) 0.50834(14)
H9 H 0.19740 -0.02890 0.47860
H10 H 0.09940 -0.03230 0.52180
H11 H 0.20790 0.01770 0.53990
C15 C 0.0150(2) 0.5105(2) 0.38319(13)
H12 H 0.05870 0.53700 0.35290
H13 H 0.00960 0.55530 0.41440
H14 H -0.05630 0.49690 0.36850
C16 C 0.38970(19) 0.34464(18) 0.36207(11)
H15 H 0.37310 0.41200 0.36820
C17 C 0.3725(2) 0.3211(2) 0.29847(11)
H16 H 0.38570 0.25390 0.29220
H17 H 0.29780 0.33430 0.28800
C18 C 0.4480(3) 0.3788(2) 0.26018(13)
H18 H 0.43740 0.36050 0.22020
H19 H 0.43040 0.44570 0.26380
C19 C 0.5657(3) 0.3632(2) 0.27685(15)
H20 H 0.58580 0.29810 0.26830
H21 H 0.61150 0.40470 0.25390
C20 C 0.5854(2) 0.3828(2) 0.34041(15)
H22 H 0.57640 0.45020 0.34780
H23 H 0.65950 0.36580 0.35010
C21 C 0.5073(2) 0.3268(2) 0.37877(13)
H24 H 0.52300 0.25950 0.37540
H25 H 0.51820 0.34510 0.41880
#END
