
#######################################################################
#
#                 Cambridge Crystallographic Data Centre
#                                CCDC
#
#######################################################################
#
# If this CIF has been generated from an entry in the Cambridge
# Structural Database, then it will include bibliographic, chemical,
# crystal, experimental, refinement or atomic coordinate data resulting
# from the CCDC's data processing and validation procedures.
#
#######################################################################

data_CSD_CIF_TAYTIY
_audit_creation_date 2012-10-16
_audit_creation_method CSD-ConQuest-V1
_database_code_CSD TAYTIY
_database_code_depnum_ccdc_archive 'CCDC 808111'
_chemical_formula_sum 'C22 H28 N2 O6'
_chemical_formula_moiety
;
C22 H28 N2 O6
;
_journal_coden_Cambridge 920
_journal_volume 7
_journal_year 2012
_journal_page_first 676
_journal_name_full 'Chem.Asian J. '
loop_
_publ_author_name
"M.K.Sharma"
"M.G.Banwell"
"A.C.Willis"
"A.D.Rae"
_chemical_name_systematic
;
2,6,6,7-Tetramethyltricyclo[5.2.2.0^1,5^]undec-8-yl 3,5-dinitrobenzoate
;
_cell_volume   2119.591
_exptl_crystal_colour 'colorless'
_exptl_crystal_density_diffrn 1.305
_exptl_crystal_description 'needle'
_diffrn_ambient_temperature 200
#These two values have been output from a single CSD field.
_refine_ls_R_factor_gt 0.0442
_refine_ls_wR_factor_gt 0.0442
_symmetry_cell_setting orthorhombic
_symmetry_space_group_name_H-M 'P 21 21 21'
_symmetry_Int_Tables_number 19
loop_
_symmetry_equiv_pos_site_id
_symmetry_equiv_pos_as_xyz
1 x,y,z
2 1/2+x,1/2-y,-z
3 -x,1/2+y,1/2-z
4 1/2-x,-y,1/2+z
_cell_length_a 6.7304(1)
_cell_length_b 11.9936(3)
_cell_length_c 26.2580(5)
_cell_angle_alpha 90
_cell_angle_beta 90
_cell_angle_gamma 90
_cell_formula_units_Z 4
loop_
_atom_type_symbol
_atom_type_radius_bond
C 0.68
H 0.23
N 0.68
O 0.68
loop_
_atom_site_label
_atom_site_type_symbol
_atom_site_fract_x
_atom_site_fract_y
_atom_site_fract_z
O1 O 0.6286(3) 0.46714(14) 0.38778(7)
O2 O 0.3940(3) 0.37752(16) 0.43282(8)
O3 O 1.2254(3) 0.2752(2) 0.33815(8)
O4 O 1.3180(4) 0.1254(2) 0.37779(10)
O5 O 0.8490(5) -0.06106(19) 0.48864(8)
O6 O 0.5656(5) 0.0175(2) 0.50501(10)
N1 N 1.2000(4) 0.2013(2) 0.36948(10)
N2 N 0.7287(6) 0.0156(2) 0.4851(1)
C1 C 0.3049(6) 0.8470(3) 0.29219(13)
C2 C 0.2086(6) 0.7863(3) 0.24829(13)
C3 C 0.3128(4) 0.6699(3) 0.24425(11)
C4 C 0.4307(4) 0.6567(3) 0.29483(9)
C5 C 0.6545(4) 0.6721(3) 0.28487(11)
C6 C 0.7713(4) 0.6622(3) 0.33504(10)
C7 C 0.6303(4) 0.6679(2) 0.38103(10)
C8 C 0.4984(4) 0.5638(2) 0.37775(10)
C9 C 0.4067(4) 0.5484(2) 0.32483(11)
C10 C 0.4939(4) 0.7731(2) 0.37532(10)
C11 C 0.3553(4) 0.7518(2) 0.32894(10)
C12 C 0.3647(5) 0.7928(3) 0.42314(11)
C13 C 0.6210(5) 0.8783(2) 0.36811(12)
C14 C 0.7490(5) 0.6681(3) 0.43095(10)
C15 C 0.1621(5) 0.5783(3) 0.23293(13)
C16 C 0.5587(4) 0.3829(2) 0.41481(9)
C17 C 0.7083(4) 0.2913(2) 0.42015(9)
C18 C 0.8891(4) 0.2930(2) 0.39468(9)
C19 C 1.0134(4) 0.2024(2) 0.39915(10)
C20 C 0.9683(5) 0.1108(2) 0.42907(10)
C21 C 0.7876(5) 0.1131(2) 0.45391(10)
C22 C 0.6571(5) 0.2010(2) 0.45013(9)
H1 H 0.21880 0.90350 0.30780
H2 H 0.42840 0.88300 0.28050
H3 H 0.22460 0.82680 0.21630
H4 H 0.06610 0.77500 0.25450
H5 H 0.40650 0.67210 0.21620
H6 H 0.67500 0.74610 0.26960
H7 H 0.69630 0.61380 0.26080
H8 H 0.87100 0.72260 0.33780
H9 H 0.83930 0.58970 0.33610
H10 H 0.39240 0.56700 0.40400
H11 H 0.26800 0.53050 0.32790
H12 H 0.47230 0.48680 0.30640
H13 H 0.22560 0.72740 0.34300
H14 H 0.27360 0.85390 0.41780
H15 H 0.44420 0.81180 0.45320
H16 H 0.28820 0.72650 0.43110
H17 H 0.53730 0.94390 0.36810
H18 H 0.71790 0.88480 0.39560
H19 H 0.69370 0.87470 0.33670
H20 H 0.66190 0.65800 0.45970
H21 H 0.81940 0.73800 0.43480
H22 H 0.84380 0.60680 0.43160
H23 H 0.22730 0.50590 0.23260
H24 H 0.06010 0.57680 0.25850
H25 H 0.09750 0.58820 0.20030
H26 H 0.92540 0.35510 0.37450
H27 H 1.05720 0.05080 0.43130
H28 H 0.53120 0.19870 0.46680
#END
