
#######################################################################
#
#                 Cambridge Crystallographic Data Centre
#                                CCDC
#
#######################################################################
#
# If this CIF has been generated from an entry in the Cambridge
# Structural Database, then it will include bibliographic, chemical,
# crystal, experimental, refinement or atomic coordinate data resulting
# from the CCDC's data processing and validation procedures.
#
#######################################################################

data_CSD_CIF_TAYVUK
_audit_creation_date 1997-02-10
_audit_creation_method CSD-ConQuest-V1
_database_code_CSD TAYVUK
_database_code_depnum_ccdc_archive 'CCDC 1267311'
_chemical_formula_sum 'C22 H21 N1 O2'
_chemical_formula_moiety
;
C22 H21 N1 O2
;
_journal_coden_Cambridge 1090
_journal_volume 7
_journal_year 1996
_journal_page_first 797
_journal_name_full 'Tetrahedron:Asymm. '
loop_
_publ_author_name
"G.Broggini"
"F.Folcio"
"N.Sardone"
"M.Sonzogni"
"G.Zecchi"
_chemical_name_systematic
;
(+)-(\aR,3aR,11cS)-1-(\a-Phenylethyl)-1,3a,4,11c-tetrahydro-3H-naphtho(1',2':5
,6)pyrano(4,3-c)isoxazole
;
_chemical_melting_point 471.15
_cell_volume   1747.147
_exptl_crystal_colour 'colorless'
_exptl_crystal_density_diffrn 1.26
_exptl_special_details
;
Melting point range 471.15-473.15K

;
_diffrn_ambient_temperature ?
_diffrn_special_details
;
The study was carried out at room temperature,in the range 283-303K

;
#These two values have been output from a single CSD field.
_refine_ls_R_factor_gt 0.051
_refine_ls_wR_factor_gt 0.051
_symmetry_cell_setting orthorhombic
_symmetry_space_group_name_H-M 'P 21 21 21'
_symmetry_Int_Tables_number 19
loop_
_symmetry_equiv_pos_site_id
_symmetry_equiv_pos_as_xyz
1 x,y,z
2 1/2-x,-y,1/2+z
3 1/2+x,1/2-y,-z
4 -x,1/2+y,1/2-z
_cell_length_a 9.478(1)
_cell_length_b 10.463(1)
_cell_length_c 17.618(1)
_cell_angle_alpha 90
_cell_angle_beta 90
_cell_angle_gamma 90
_cell_formula_units_Z 4
loop_
_atom_type_symbol
_atom_type_radius_bond
C 0.68
H 0.23
N 0.68
O 0.68
loop_
_atom_site_label
_atom_site_type_symbol
_atom_site_fract_x
_atom_site_fract_y
_atom_site_fract_z
O1 O 1.0964(3) 0.9827(2) 0.2718(1)
O2 O 0.7555(3) 0.8743(3) 0.3385(1)
N1 N 1.0663(3) 0.9477(3) 0.1942(2)
C1 C 1.0658(4) 0.8730(4) 0.3187(2)
C2 C 0.9645(4) 0.7911(3) 0.2746(2)
C3 C 0.9359(4) 0.8726(3) 0.2037(2)
C4 C 1.1848(4) 0.8639(3) 0.1663(2)
C5 C 1.3259(4) 0.9284(4) 0.1823(3)
C6 C 1.1642(4) 0.8382(3) 0.0823(2)
C7 C 1.1215(5) 0.7157(4) 0.0592(2)
C8 C 1.1049(6) 0.6870(5) -0.0168(3)
C9 C 1.1359(6) 0.7795(6) -0.0716(3)
C10 C 1.1777(6) 0.9027(6) -0.0487(3)
C11 C 1.1909(5) 0.9300(4) 0.0277(2)
C12 C 0.8093(3) 0.9603(3) 0.2145(2)
C13 C 0.7652(3) 1.0468(3) 0.1563(2)
C14 C 0.6491(3) 1.1282(3) 0.1690(2)
C15 C 0.5820(4) 1.1281(4) 0.2406(2)
C16 C 0.6224(4) 1.0453(4) 0.2951(2)
C17 C 0.7327(4) 0.9591(3) 0.2807(2)
C18 C 0.8285(5) 0.7604(4) 0.3154(2)
C19 C 0.8325(4) 1.0510(4) 0.0844(2)
C20 C 0.7825(5) 1.1301(4) 0.0270(2)
C21 C 0.6643(5) 1.2089(5) 0.0406(2)
C22 C 0.6008(4) 1.2096(4) 0.1102(2)
H1 H 1.16790 0.86130 0.34570
H2 H 1.02920 0.91600 0.36520
H3 H 1.00000 0.69330 0.26360
H4 H 0.92830 0.82450 0.16530
H5 H 1.19130 0.76370 0.19350
H6 H 1.33390 0.94530 0.22850
H7 H 1.33390 1.00000 0.16010
H8 H 1.41790 0.89060 0.16010
H9 H 1.11130 0.64060 0.10930
H10 H 1.07280 0.60250 -0.03260
H11 H 1.12970 0.76000 -0.12520
H12 H 1.19600 0.96920 -0.08620
H13 H 1.21750 1.01380 0.04300
H14 H 0.48370 1.19130 0.24460
H15 H 0.55660 1.02730 0.34760
H16 H 0.83390 0.69330 0.34760
H17 H 0.75000 0.72070 0.28120
H18 H 0.91200 0.97720 0.08080
H19 H 0.80480 1.10050 -0.03060
H20 H 0.61000 1.24710 0.00010
H21 H 0.52330 1.25460 0.12670
#END
