
#######################################################################
#
#                 Cambridge Crystallographic Data Centre
#                                CCDC
#
#######################################################################
#
# If this CIF has been generated from an entry in the Cambridge
# Structural Database, then it will include bibliographic, chemical,
# crystal, experimental, refinement or atomic coordinate data resulting
# from the CCDC's data processing and validation procedures.
#
#######################################################################

data_CSD_CIF_TAYVOE
_audit_creation_date 1997-02-10
_audit_creation_method CSD-ConQuest-V1
_database_code_CSD TAYVOE
_chemical_formula_sum 'C14 H16 N2 O4'
_chemical_formula_moiety
;
C14 H16 N2 O4
;
_journal_coden_Cambridge 1090
_journal_volume 7
_journal_year 1996
_journal_page_first 729
_journal_name_full 'Tetrahedron:Asymm. '
loop_
_publ_author_name
"T.Kolasa"
"A.O.Stewart"
"C.D.W.Brooks"
_chemical_name_systematic
;
(R)-N-(3-Butyn-2-yl)-N-carbamoyl-O-(S)-\a-methoxyphenylacetylhydroxylamine
;
_chemical_melting_point 417.15
_cell_volume   1445.998
_exptl_crystal_density_diffrn 1.27
_exptl_special_details
;
Melting point range 417.15-418.15K

;
_diffrn_ambient_temperature 203.15
#These two values have been output from a single CSD field.
_refine_ls_R_factor_gt 0.052
_refine_ls_wR_factor_gt 0.052
_symmetry_cell_setting monoclinic
_symmetry_space_group_name_H-M 'C 2'
_symmetry_Int_Tables_number 5
loop_
_symmetry_equiv_pos_site_id
_symmetry_equiv_pos_as_xyz
1 x,y,z
2 -x,y,-z
3 1/2+x,1/2+y,z
4 1/2-x,1/2+y,-z
_cell_length_a 12.202(2)
_cell_length_b 10.207(1)
_cell_length_c 12.458(2)
_cell_angle_alpha 90
_cell_angle_beta 111.26
_cell_angle_gamma 90
_cell_formula_units_Z 4
loop_
_atom_type_symbol
_atom_type_radius_bond
C 0.68
H 0.23
N 0.68
O 0.68
loop_
_atom_site_label
_atom_site_type_symbol
_atom_site_fract_x
_atom_site_fract_y
_atom_site_fract_z
O1 O -0.5956(2) -0.413(1) -0.3598(2)
O2 O -0.5110(2) -0.092(1) -0.2656(2)
O3 O -0.6647(2) -0.282(1) -0.2494(2)
O4 O -0.7898(2) -0.667(1) -0.4709(2)
N1 N -0.7811(3) -0.466(1) -0.5403(3)
N2 N -0.6709(2) -0.516(1) -0.3492(2)
C1 C -0.5976(3) -0.305(1) -0.2963(3)
C2 C -0.3801(2) -0.282(1) -0.1974(3)
C3 C -0.7502(3) -0.556(1) -0.4584(3)
C4 C -0.4907(3) -0.222(1) -0.2903(3)
C5 C -0.3106(3) -0.368(1) -0.2285(3)
C6 C -0.5968(3) -0.621(1) -0.2767(3)
C7 C -0.3536(3) -0.252(1) -0.0830(3)
C8 C -0.2570(4) -0.307(1) -0.0002(4)
C9 C -0.5494(3) -0.580(1) -0.1521(3)
C10 C -0.4273(4) -0.004(1) -0.2771(4)
C11 C -0.5034(3) -0.661(1) -0.3185(4)
C12 C -0.2138(3) -0.427(1) -0.1452(4)
C13 C -0.1864(3) -0.392(1) -0.0325(3)
C14 C -0.4298(4) -0.687(1) -0.3545(6)
H1 H -0.48050 -0.22920 -0.36360
H2 H -0.33240 -0.39590 -0.30910
H3 H -0.64510 -0.69840 -0.28270
H4 H -0.40180 -0.19770 -0.06190
H5 H -0.23650 -0.29100 0.07890
H6 H -0.50300 -0.65560 -0.10680
H7 H -0.61300 -0.56860 -0.12710
H8 H -0.50190 -0.50970 -0.14150
H9 H -0.42800 -0.01240 -0.35620
H10 H -0.34950 -0.03170 -0.22770
H11 H -0.44310 0.07870 -0.26290
H12 H -0.16650 -0.49140 -0.16600
H13 H -0.11770 -0.42940 0.02370
H14 H -0.37250 -0.71510 -0.38000
H15 H -0.83380 -0.49300 -0.61580
H16 H -0.75210 -0.38340 -0.52500
#END
