
#######################################################################
#
#                 Cambridge Crystallographic Data Centre
#                                CCDC
#
#######################################################################
#
# If this CIF has been generated from an entry in the Cambridge
# Structural Database, then it will include bibliographic, chemical,
# crystal, experimental, refinement or atomic coordinate data resulting
# from the CCDC's data processing and validation procedures.
#
#######################################################################

data_CSD_CIF_TAZVAS
_audit_creation_date 2006-03-27
_audit_creation_method CSD-ConQuest-V1
_database_code_CSD TAZVAS
_database_code_depnum_ccdc_archive 'CCDC 293311'
_database_code_depnum_ccdc_journal 1267/1562
_chemical_formula_sum 'C17 H12 N2 O2'
_chemical_formula_moiety
;
C17 H12 N2 O2
;
_journal_coden_Cambridge 1267
_journal_volume 220
_journal_year 2005
_journal_page_first 397
_journal_name_full 'Z.Kristallogr.-New Cryst.Struct. '
loop_
_publ_author_name
"P.-H.Wen"
_chemical_name_systematic
;
Naphthalen-1-yl(4-nitro-benzylidene)amine
;
_cell_volume   1356.779
_exptl_crystal_colour 'yellow'
_exptl_crystal_density_diffrn 1.353
_exptl_crystal_description 'prism'
_diffrn_ambient_temperature 273
#These two values have been output from a single CSD field.
_refine_ls_R_factor_gt 0.0457
_refine_ls_wR_factor_gt 0.0457
_symmetry_cell_setting orthorhombic
_symmetry_space_group_name_H-M 'P 21 21 21'
_symmetry_Int_Tables_number 19
loop_
_symmetry_equiv_pos_site_id
_symmetry_equiv_pos_as_xyz
1 x,y,z
2 1/2-x,-y,1/2+z
3 -x,1/2+y,1/2-z
4 1/2+x,1/2-y,-z
_cell_length_a 7.2528(8)
_cell_length_b 12.3005(10)
_cell_length_c 15.2083(12)
_cell_angle_alpha 90
_cell_angle_beta 90
_cell_angle_gamma 90
_cell_formula_units_Z 4
loop_
_atom_type_symbol
_atom_type_radius_bond
C 0.68
H 0.23
N 0.68
O 0.68
loop_
_atom_site_label
_atom_site_type_symbol
_atom_site_fract_x
_atom_site_fract_y
_atom_site_fract_z
C1 C 0.1199(3) 0.49212(19) 0.67029(15)
C2 C 0.0665(3) 0.3861(2) 0.68538(16)
H1 H 0.02770 0.36410 0.74090
C3 C 0.0718(3) 0.31347(19) 0.61669(15)
H2 H 0.03670 0.24160 0.62570
C4 C 0.1291(4) 0.34709(18) 0.53414(14)
C5 C 0.1790(4) 0.45469(19) 0.52116(15)
H3 H 0.21540 0.47780 0.46560
C6 C 0.1753(4) 0.52780(19) 0.58985(16)
H4 H 0.20980 0.59980 0.58140
C7 C 0.1417(4) 0.27053(19) 0.46026(14)
H5 H 0.18530 0.29530 0.40640
C8 C 0.1053(3) 0.10271(19) 0.39316(15)
C9 C 0.0666(4) 0.1366(2) 0.30990(17)
H6 H 0.03390 0.20880 0.30020
C10 C 0.0754(4) 0.0641(2) 0.23833(16)
H7 H 0.04630 0.08810 0.18200
C11 C 0.1262(4) -0.0402(2) 0.25152(17)
H8 H 0.13630 -0.08660 0.20350
C12 C 0.1641(4) -0.08035(19) 0.33606(16)
C13 C 0.2163(4) -0.1886(2) 0.35148(19)
H9 H 0.22830 -0.23590 0.30410
C14 C 0.2495(5) -0.2256(2) 0.4334(2)
H10 H 0.28430 -0.29760 0.44180
C15 C 0.2318(5) -0.1556(2) 0.5061(2)
H11 H 0.25200 -0.18190 0.56260
C16 C 0.1853(4) -0.0500(2) 0.49401(16)
H12 H 0.17570 -0.00400 0.54230
C17 C 0.1513(3) -0.00879(18) 0.40870(15)
N1 N 0.1226(3) 0.5685(2) 0.74491(16)
N2 N 0.0947(3) 0.17178(16) 0.46776(12)
O1 O 0.1633(4) 0.66313(17) 0.72992(14)
O2 O 0.0873(4) 0.5339(2) 0.81795(14)
#END
