
#######################################################################
#
#                 Cambridge Crystallographic Data Centre
#                                CCDC
#
#######################################################################
#
# If this CIF has been generated from an entry in the Cambridge
# Structural Database, then it will include bibliographic, chemical,
# crystal, experimental, refinement or atomic coordinate data resulting
# from the CCDC's data processing and validation procedures.
#
#######################################################################

data_CSD_CIF_TAZWIC
_audit_creation_date 2012-10-16
_audit_creation_method CSD-ConQuest-V1
_database_code_CSD TAZWIC
_database_code_depnum_ccdc_archive 'CCDC 861578'
_chemical_formula_sum 'C16 H17 N1 O6'
_chemical_formula_moiety
;
C16 H17 N1 O6
;
_journal_coden_Cambridge 36
_journal_volume 714
_journal_year 2012
_journal_page_first 53
_journal_name_full 'J.Organomet.Chem. '
loop_
_publ_author_name
"C.Kammerer-Pentier"
"A.D.Martinez"
"J.Oble"
"G.Prestat"
"P.Merino"
"G.Poli"
_chemical_name_systematic
;
trans-Methyl 
4-(2-methyl-1-(4-nitrophenyl)prop-1-en-1-yl)-2-oxotetrahydrofuran-3-carboxylat
e
;
_cell_volume   1628.036
_exptl_crystal_colour 'colorless'
_exptl_crystal_density_diffrn 1.303
_exptl_crystal_description 'parallelepiped'
_diffrn_ambient_temperature 250
#These two values have been output from a single CSD field.
_refine_ls_R_factor_gt 0.0404
_refine_ls_wR_factor_gt 0.0404
_symmetry_cell_setting monoclinic
_symmetry_space_group_name_H-M 'P 21/n'
_symmetry_Int_Tables_number 14
loop_
_symmetry_equiv_pos_site_id
_symmetry_equiv_pos_as_xyz
1 x,y,z
2 1/2-x,1/2+y,1/2-z
3 -x,-y,-z
4 -1/2+x,-1/2-y,-1/2+z
_cell_length_a 7.3215(7)
_cell_length_b 16.3290(19)
_cell_length_c 13.6581(19)
_cell_angle_alpha 90
_cell_angle_beta 94.407(10)
_cell_angle_gamma 90
_cell_formula_units_Z 4
loop_
_atom_type_symbol
_atom_type_radius_bond
C 0.68
H 0.23
N 0.68
O 0.68
loop_
_atom_site_label
_atom_site_type_symbol
_atom_site_fract_x
_atom_site_fract_y
_atom_site_fract_z
C1 C 1.3149(3) 0.86306(14) 0.67856(16)
C2 C 1.1155(2) 0.84388(11) 0.69904(13)
C3 C 1.1342(3) 0.76029(12) 0.75118(15)
C4 C 1.3262(3) 0.76858(18) 0.80470(19)
C5 C 0.9883(2) 0.84336(11) 0.60578(13)
C6 C 0.7938(3) 0.92443(15) 0.49734(18)
C7 C 0.9829(2) 0.73630(11) 0.81709(13)
C8 C 0.8970(3) 0.66346(11) 0.80991(14)
C9 C 0.7528(3) 0.63897(14) 0.87769(18)
C10 C 0.9378(4) 0.59685(14) 0.7365(2)
C11 C 0.9387(2) 0.79815(11) 0.89407(13)
C12 C 1.0255(3) 0.79360(13) 0.98916(16)
C13 C 0.9872(3) 0.84960(14) 1.06181(15)
C14 C 0.8604(3) 0.91111(12) 1.03803(15)
C15 C 0.7702(3) 0.91770(12) 0.94510(16)
C16 C 0.8105(3) 0.86092(12) 0.87325(15)
O1 O 1.3702(2) 0.91028(12) 0.61985(13)
O2 O 1.4297(2) 0.81769(12) 0.73864(12)
O3 O 0.9557(2) 0.78320(9) 0.55610(12)
O4 O 0.9176(2) 0.91697(9) 0.58604(11)
O5 O 0.8974(3) 0.96244(12) 1.19820(14)
O6 O 0.7167(3) 1.02825(11) 1.09267(15)
N1 N 0.8223(3) 0.97179(11) 1.11505(15)
H1 H 1.07660 0.88610 0.74320
H2 H 1.14150 0.71750 0.69990
H3 H 1.32350 0.79830 0.86790
H4 H 1.38550 0.71570 0.81590
H5 H 0.78400 0.98080 0.47940
H6 H 0.83880 0.89360 0.44280
H7 H 0.67450 0.90390 0.50880
H8 H 0.70320 0.68420 0.91180
H9 H 0.65220 0.61290 0.84180
H10 H 0.80440 0.60060 0.92410
H11 H 0.83780 0.55860 0.72940
H12 H 1.04400 0.56590 0.75980
H13 H 0.95920 0.61890 0.67260
H14 H 1.11230 0.75130 1.00290
H15 H 1.04770 0.84590 1.12640
H16 H 0.68210 0.95880 0.93090
H17 H 0.75100 0.86410 0.80930
#END
