
#######################################################################
#
#                 Cambridge Crystallographic Data Centre
#                                CCDC
#
#######################################################################
#
# If this CIF has been generated from an entry in the Cambridge
# Structural Database, then it will include bibliographic, chemical,
# crystal, experimental, refinement or atomic coordinate data resulting
# from the CCDC's data processing and validation procedures.
#
#######################################################################

data_CSD_CIF_TEBKEQ
_audit_creation_date 1996-12-16
_audit_creation_method CSD-ConQuest-V1
_database_code_CSD TEBKEQ
_database_code_depnum_ccdc_archive 'CCDC 125226'
_database_code_depnum_ccdc_journal 182/95
_chemical_formula_sum 'C48 H54 N2 O8'
_chemical_formula_moiety
;
C48 H54 N2 O8
;
_journal_coden_Cambridge 182
_journal_year 1996
_journal_page_first 1517
_journal_name_full 'Chem.Commun. '
loop_
_publ_author_name
"O.Struck"
"J.P.M.van Duynhoven"
"W.Verboom"
"S.Harkema"
"D.N.Reinhoudt"
_chemical_name_systematic
;
5-(2-Methylbenzyl)-11,23-dinitro-25,26,27,28-tetrakis(propoxy)calix(4)arene
;
_chemical_melting_point 477
_cell_volume   4223.349
_exptl_crystal_colour 'light yellow'
_exptl_crystal_density_diffrn 1.238
_exptl_special_details
;
Melting point range 477-478K

;
_diffrn_ambient_temperature 165
#These two values have been output from a single CSD field.
_refine_ls_R_factor_gt 0.074
_refine_ls_wR_factor_gt 0.074
_symmetry_cell_setting monoclinic
_symmetry_space_group_name_H-M 'P 21/c'
_symmetry_Int_Tables_number 14
loop_
_symmetry_equiv_pos_site_id
_symmetry_equiv_pos_as_xyz
1 x,y,z
2 -x,1/2+y,1/2-z
3 -x,-y,-z
4 x,-1/2-y,-1/2+z
_cell_length_a 13.409(6)
_cell_length_b 15.287(7)
_cell_length_c 21.021(7)
_cell_angle_alpha 90
_cell_angle_beta 101.44(6)
_cell_angle_gamma 90
_cell_formula_units_Z 4
loop_
_atom_type_symbol
_atom_type_radius_bond
C 0.68
H 0.23
N 0.68
O 0.68
loop_
_atom_site_label
_atom_site_type_symbol
_atom_site_fract_x
_atom_site_fract_y
_atom_site_fract_z
O1 O 0.6200(5) 0.2243(4) 0.4185(3)
O2 O 0.4645(5) 0.2335(4) 0.2726(3)
O3 O 0.8676(6) 0.0486(5) 0.2425(3)
O4 O 0.8548(6) 0.1436(5) 0.1665(3)
O5 O 0.6536(5) 0.3878(4) 0.3178(3)
O6 O 0.7818(5) 0.4068(4) 0.4670(3)
O7 O 1.0406(6) 0.1261(5) 0.3601(3)
O8 O 1.0459(6) 0.2255(5) 0.2924(4)
N1 N 0.8226(7) 0.1090(5) 0.2113(4)
N2 N 1.0168(7) 0.1971(5) 0.3396(4)
C1 C 0.6698(7) 0.1460(6) 0.4356(4)
C2 C 0.7532(8) 0.1435(7) 0.4834(4)
C3 C 0.8012(8) 0.0617(7) 0.4997(5)
C4 C 0.7604(9) -0.0144(7) 0.4691(5)
C5 C 0.6788(8) -0.0061(7) 0.4183(5)
C6 C 0.6290(8) 0.0718(6) 0.4001(4)
C7 C 0.5531(9) 0.0791(7) 0.3404(4)
C8 C 0.523(1) 0.2355(9) 0.4437(6)
C9 C 0.544(1) 0.267(1) 0.5041(6)
C10 C 0.432(1) 0.277(1) 0.5245(7)
C11 C 0.815(1) -0.1020(7) 0.4837(6)
C12 C 0.8772(9) -0.1304(6) 0.4324(6)
C13 C 0.897(1) -0.218(1) 0.4206(6)
C14 C 0.9511(9) -0.2430(9) 0.3764(5)
C15 C 0.995(1) -0.1779(8) 0.3439(6)
C16 C 0.978(1) -0.0914(9) 0.3523(6)
C17 C 0.921(1) -0.065(1) 0.3988(5)
C18 C 0.856(1) -0.2866(9) 0.4516(7)
C19 C 0.5543(8) 0.2008(6) 0.2570(4)
C20 C 0.6024(7) 0.2514(6) 0.2152(4)
C21 C 0.6903(8) 0.2168(6) 0.2003(4)
C22 C 0.7314(7) 0.1418(6) 0.2288(4)
C23 C 0.6853(8) 0.0958(6) 0.2727(4)
C24 C 0.5991(8) 0.1257(6) 0.2890(4)
C25 C 0.5613(8) 0.3390(6) 0.1894(4)
C26 C 0.3740(7) 0.1966(6) 0.2340(5)
C27 C 0.2839(9) 0.2376(7) 0.2566(5)
C28 C 0.2740(9) 0.3343(7) 0.2461(5)
C29 C 0.6933(7) 0.4247(5) 0.2678(4)
C30 C 0.7790(7) 0.4727(6) 0.2823(4)
C31 C 0.8175(9) 0.5092(6) 0.2322(5)
C32 C 0.7685(8) 0.4991(6) 0.1687(5)
C33 C 0.6843(8) 0.4460(6) 0.1548(5)
C34 C 0.6437(7) 0.4072(6) 0.2038(4)
C35 C 0.8375(9) 0.4769(6) 0.3515(5)
C36 C 0.5602(8) 0.4244(7) 0.3283(4)
C37 C 0.5678(9) 0.4840(8) 0.3818(6)
C38 C 0.4669(9) 0.5108(8) 0.3961(5)
C39 C 0.8392(8) 0.3531(6) 0.4343(5)
C40 C 0.8590(8) 0.2678(6) 0.4548(4)
C41 C 0.9171(7) 0.2163(6) 0.4221(4)
C42 C 0.9525(7) 0.2521(6) 0.3711(4)
C43 C 0.9296(8) 0.3350(6) 0.3489(5)
C44 C 0.8713(8) 0.3878(6) 0.3796(5)
C45 C 0.8078(9) 0.2266(7) 0.5075(5)
C46 C 0.8459(8) 0.4556(6) 0.5186(4)
C47 C 0.7713(9) 0.5137(7) 0.5473(5)
C48 C 0.829(1) 0.5722(8) 0.5993(5)
H1 H 0.85920 0.05860 0.53390
H2 H 0.65580 -0.06030 0.39860
H3 H 0.49770 0.11250 0.34930
H4 H 0.52950 0.02330 0.32420
H5 H 0.49030 0.18040 0.44330
H6 H 0.47940 0.27540 0.41700
H7 H 0.57740 0.32180 0.50550
H8 H 0.58610 0.22680 0.53190
H9 H 0.44030 0.29820 0.56750
H10 H 0.39160 0.31590 0.49540
H11 H 0.40030 0.22090 0.52180
H12 H 0.76490 -0.14530 0.48650
H13 H 0.86020 -0.09710 0.52440
H14 H 0.95920 -0.30280 0.36630
H15 H 1.04100 -0.19400 0.31690
H16 H 1.00330 -0.04800 0.32710
H17 H 0.91140 -0.00450 0.40700
H18 H 0.81860 -0.26300 0.48160
H19 H 0.81190 -0.32120 0.42040
H20 H 0.90980 -0.32190 0.47410
H21 H 0.71700 0.24280 0.16620
H22 H 0.70570 0.03720 0.28320
H23 H 0.54210 0.33330 0.14360
H24 H 0.50370 0.35550 0.20670
H25 H 0.37440 0.13470 0.23840
H26 H 0.37020 0.21150 0.18970
H27 H 0.29160 0.22570 0.30160
H28 H 0.22330 0.21080 0.23380
H29 H 0.21680 0.35580 0.26180
H30 H 0.33400 0.36180 0.26900
H31 H 0.26580 0.34680 0.20110
H32 H 0.87720 0.54400 0.24280
H33 H 0.79680 0.52880 0.13670
H34 H 0.65590 0.43550 0.11040
H35 H 0.79600 0.50480 0.37720
H36 H 0.89540 0.51230 0.35030
H37 H 0.52890 0.45420 0.28990
H38 H 0.51810 0.37720 0.33610
H39 H 0.60730 0.45740 0.41930
H40 H 0.60110 0.53550 0.37160
H41 H 0.47510 0.55040 0.43160
H42 H 0.42720 0.53760 0.35880
H43 H 0.43340 0.45950 0.40650
H44 H 0.93150 0.15730 0.43470
H45 H 0.94080 0.35160 0.30730
H46 H 0.86170 0.20560 0.54030
H47 H 0.76690 0.26590 0.52620
H48 H 0.89180 0.49130 0.50130
H49 H 0.88300 0.41820 0.55100
H50 H 0.72640 0.47720 0.56510
H51 H 0.73310 0.54930 0.51410
H52 H 0.86710 0.53510 0.63140
H53 H 0.78630 0.60900 0.61880
H54 H 0.87380 0.60720 0.58040
#END
