
#######################################################################
#
#                 Cambridge Crystallographic Data Centre
#                                CCDC
#
#######################################################################
#
# If this CIF has been generated from an entry in the Cambridge
# Structural Database, then it will include bibliographic, chemical,
# crystal, experimental, refinement or atomic coordinate data resulting
# from the CCDC's data processing and validation procedures.
#
#######################################################################

data_CSD_CIF_TEBXEE
_audit_creation_date 2006-03-28
_audit_creation_method CSD-ConQuest-V1
_database_code_CSD TEBXEE
_database_code_depnum_ccdc_archive 'CCDC 294911'
_chemical_formula_sum 'C16 H22 N3 O3'
_chemical_formula_moiety
;
C16 H22 N3 O3
;
_journal_coden_Cambridge 35
_journal_volume 70
_journal_year 2005
_journal_page_first 9702
_journal_name_full 'J.Org.Chem. '
loop_
_publ_author_name
"M.A.Voinov"
"J.F.Polienko"
"T.Schanding"
"A.A.Bobko"
"V.V.Khramtsov"
"Yu.V.Gatilov"
"T.V.Rybalova"
"A.I.Smirnov"
"I.A.Grigor'ev"
_chemical_name_systematic
;
(N-(2,2,5,5-Tetramethyl-3-imidazolin-1-oxyl-4-yl)-N-phenylamino) acetic acid 
methyl ester
;
_chemical_melting_point 359
_cell_volume   1710.104
_exptl_crystal_colour 'yellow'
_exptl_crystal_density_diffrn 1.182
_exptl_special_details
;
Melting point range 359-361K

;
_exptl_crystal_description 'irregular prism'
_diffrn_ambient_temperature 296
#These two values have been output from a single CSD field.
_refine_ls_R_factor_gt 0.0456
_refine_ls_wR_factor_gt 0.0456
_symmetry_cell_setting monoclinic
_symmetry_space_group_name_H-M 'P 21/c'
_symmetry_Int_Tables_number 14
loop_
_symmetry_equiv_pos_site_id
_symmetry_equiv_pos_as_xyz
1 x,y,z
2 -x,1/2+y,1/2-z
3 -x,-y,-z
4 x,-1/2-y,-1/2+z
_cell_length_a 17.431(3)
_cell_length_b 9.0482(13)
_cell_length_c 11.2508(16)
_cell_angle_alpha 90
_cell_angle_beta 105.479(11)
_cell_angle_gamma 90
_cell_formula_units_Z 4
loop_
_atom_type_symbol
_atom_type_radius_bond
C 0.68
H 0.23
N 0.68
O 0.68
loop_
_atom_site_label
_atom_site_type_symbol
_atom_site_fract_x
_atom_site_fract_y
_atom_site_fract_z
O1 O 0.18172(9) 0.14715(15) -0.04309(13)
N1 N 0.21734(9) 0.24586(14) 0.03126(13)
O2 O 0.33807(8) 0.70919(19) 0.05653(13)
C1 C 0.30159(10) 0.23553(18) 0.10286(15)
N2 N 0.31379(7) 0.37229(13) 0.17287(11)
O3 O 0.43974(7) 0.74879(19) 0.22158(16)
C2 C 0.24922(8) 0.44673(15) 0.15127(12)
C3 C 0.17678(8) 0.37802(15) 0.06147(13)
C4 C 0.35552(17) 0.2300(4) 0.0165(3)
H1 H 0.4162(18) 0.216(3) 0.067(3)
H2 H 0.3443(17) 0.320(3) -0.036(3)
H3 H 0.3403(18) 0.146(4) -0.039(3)
C5 C 0.31184(18) 0.1007(2) 0.1862(2)
H4 H 0.3661(18) 0.096(3) 0.233(3)
H5 H 0.2986(14) 0.007(3) 0.135(2)
H6 H 0.2777(18) 0.110(3) 0.240(3)
C6 C 0.14429(14) 0.4677(2) -0.05532(17)
H7 H 0.1891(12) 0.504(2) -0.0840(17)
H8 H 0.1134(14) 0.551(3) -0.039(2)
H9 H 0.1141(13) 0.401(3) -0.118(2)
C7 C 0.11012(12) 0.3273(2) 0.1170(2)
H10 H 0.0767(12) 0.257(2) 0.0606(18)
H11 H 0.1342(14) 0.280(3) 0.194(2)
H12 H 0.0719(14) 0.412(3) 0.121(2)
N3 N 0.24826(6) 0.58434(13) 0.20149(11)
C8 C 0.17783(8) 0.67076(14) 0.19172(12)
C9 C 0.16048(10) 0.78937(17) 0.11102(15)
H13 H 0.1938(11) 0.814(2) 0.0626(16)
C10 C 0.09274(11) 0.87316(18) 0.10432(16)
H14 H 0.0835(12) 0.951(3) 0.0469(19)
C11 C 0.04272(10) 0.83839(19) 0.17608(16)
H15 H -0.0068(12) 0.894(2) 0.1682(18)
C12 C 0.06095(10) 0.72217(19) 0.25780(16)
H16 H 0.0241(13) 0.700(2) 0.3087(19)
C13 C 0.12904(9) 0.63888(17) 0.26748(14)
H17 H 0.1445(10) 0.560(2) 0.3264(17)
C14 C 0.32452(9) 0.65087(19) 0.25927(15)
H18 H 0.3595(12) 0.582(2) 0.3135(17)
H19 H 0.3157(12) 0.735(2) 0.3068(18)
C15 C 0.36669(9) 0.70364(18) 0.16460(17)
C16 C 0.48480(17) 0.8074(5) 0.1400(4)
H20 H 0.534(2) 0.833(4) 0.188(3)
H21 H 0.454(2) 0.884(4) 0.082(4)
H22 H 0.484(2) 0.697(5) 0.078(4)
#END
