
#######################################################################
#
#                 Cambridge Crystallographic Data Centre
#                                CCDC
#
#######################################################################
#
# If this CIF has been generated from an entry in the Cambridge
# Structural Database, then it will include bibliographic, chemical,
# crystal, experimental, refinement or atomic coordinate data resulting
# from the CCDC's data processing and validation procedures.
#
#######################################################################

data_CSD_CIF_TECDAJ
_audit_creation_date 2017-08-10
_audit_creation_method CSD-ConQuest-V1
_database_code_CSD TECDAJ
_database_code_depnum_ccdc_archive 'CCDC 1568137'
_chemical_formula_sum 'C22 H25 N3 O6'
_chemical_formula_moiety
;
C22 H25 N3 O6
;
_journal_coden_Cambridge 4
_journal_volume 139
_journal_year 2017
_journal_page_first 5998
_journal_name_full 'J.Am.Chem.Soc. '
loop_
_publ_author_name
"Xiaoshen Ma"
"Hester Dang"
"J.A.Rose"
"P.Rablen"
"S.B.Herzon"
_chemical_name_systematic
;
2-[4-methyl-4-(pyridin-4-yl)cyclohexyl]propan-2-yl 3,5-dinitrobenzoate
;
_cell_volume   2074.704
_exptl_crystal_colour 'colorless'
_exptl_crystal_density_diffrn 1.368
_exptl_crystal_description 'Plate'
_diffrn_ambient_temperature 93
#These two values have been output from a single CSD field.
_refine_ls_R_factor_gt 0.0303
_refine_ls_wR_factor_gt 0.0303
_symmetry_cell_setting monoclinic
_symmetry_space_group_name_H-M 'P 21/c'
_symmetry_Int_Tables_number 14
loop_
_symmetry_equiv_pos_site_id
_symmetry_equiv_pos_as_xyz
1 x,y,z
2 -x,1/2+y,1/2-z
3 -x,-y,-z
4 x,-1/2-y,-1/2+z
_cell_length_a 17.4243(12)
_cell_length_b 9.9387(7)
_cell_length_c 11.9804(8)
_cell_angle_alpha 90
_cell_angle_beta 90.039(2)
_cell_angle_gamma 90
_cell_formula_units_Z 4
loop_
_atom_type_symbol
_atom_type_radius_bond
C 0.68
H 0.23
N 0.68
O 0.68
loop_
_atom_site_label
_atom_site_type_symbol
_atom_site_fract_x
_atom_site_fract_y
_atom_site_fract_z
O1 O 0.68216(4) 0.31401(7) 0.59546(6)
O2 O 0.61401(4) 0.14760(8) 0.68022(6)
O3 O 0.56827(4) 0.59189(7) 0.31888(6)
O4 O 0.46183(4) 0.53544(8) 0.23658(6)
O5 O 0.32036(4) 0.14943(8) 0.37306(7)
O6 O 0.36128(4) 0.04340(8) 0.52033(7)
N1 N 0.99265(6) 0.94796(11) 0.31775(10)
N2 N 0.51353(5) 0.51618(9) 0.30488(7)
N3 N 0.36799(5) 0.12862(9) 0.44650(7)
C1 C 0.80608(6) 0.41081(10) 0.61957(9)
H1 H 0.85550 0.40350 0.66150
C2 C 0.82480(6) 0.38743(11) 0.49583(9)
H2 H 0.85110 0.29960 0.48810
H3 H 0.77620 0.38240 0.45330
C3 C 0.87545(6) 0.49710(11) 0.44462(9)
H4 H 0.88180 0.47860 0.36400
H5 H 0.92690 0.49320 0.47960
C4 C 0.84268(6) 0.63973(10) 0.45921(8)
C5 C 0.82911(6) 0.66051(10) 0.58510(9)
H6 H 0.87920 0.65840 0.62410
H7 H 0.80640 0.75070 0.59700
C6 C 0.77632(6) 0.55464(10) 0.63690(9)
H8 H 0.72460 0.56260 0.60330
H9 H 0.77150 0.57230 0.71790
C7 C 0.75149(6) 0.30243(11) 0.66785(9)
C8 C 0.72896(7) 0.33331(12) 0.78835(9)
H10 H 0.69630 0.41350 0.79010
H11 H 0.77530 0.34950 0.83270
H12 H 0.70080 0.25670 0.81960
C9 C 0.78441(6) 0.16076(11) 0.65495(11)
H13 H 0.75210 0.09660 0.69560
H14 H 0.83660 0.15840 0.68530
H15 H 0.78560 0.13650 0.57570
C10 C 0.62175(6) 0.23324(10) 0.60947(8)
C11 C 0.56100(5) 0.26324(10) 0.52415(8)
C12 C 0.49493(6) 0.18367(10) 0.52335(8)
H16 H 0.48940 0.11110 0.57430
C13 C 0.43777(5) 0.21254(10) 0.44696(8)
C14 C 0.44241(6) 0.31834(10) 0.37169(8)
H17 H 0.40270 0.33620 0.31940
C15 C 0.50802(6) 0.39633(10) 0.37706(8)
C16 C 0.56784(6) 0.37051(10) 0.45016(8)
H18 H 0.61270 0.42490 0.44980
C17 C 0.89789(6) 0.74587(11) 0.41361(9)
C18 C 0.89101(8) 0.88151(12) 0.44275(12)
H19 H 0.85370 0.90880 0.49580
C19 C 0.93889(9) 0.97596(14) 0.39393(13)
H20 H 0.93310 1.06710 0.41620
C20 C 0.99836(7) 0.81887(13) 0.28975(10)
H21 H 1.03550 0.79510 0.23520
C21 C 0.95393(6) 0.71633(12) 0.33460(9)
H22 H 0.96180 0.62600 0.31130
C22 C 0.76752(6) 0.65623(12) 0.39213(9)
H23 H 0.74760 0.74760 0.40250
H24 H 0.72960 0.59090 0.41860
H25 H 0.77780 0.64070 0.31270
#END
