
#######################################################################
#
#                 Cambridge Crystallographic Data Centre
#                                CCDC
#
#######################################################################
#
# If this CIF has been generated from an entry in the Cambridge
# Structural Database, then it will include bibliographic, chemical,
# crystal, experimental, refinement or atomic coordinate data resulting
# from the CCDC's data processing and validation procedures.
#
#######################################################################

data_CSD_CIF_TECLUI
_audit_creation_date 1996-12-16
_audit_creation_method CSD-ConQuest-V1
_database_code_CSD TECLUI
_database_code_depnum_ccdc_archive 'CCDC 1268463'
_chemical_formula_sum 'C20 H15 N1 O2'
_chemical_formula_moiety
;
C20 H15 N1 O2
;
_journal_coden_Cambridge 392
_journal_volume 43
_journal_year 1996
_journal_page_first 633
_journal_name_full 'Heterocycles '
loop_
_publ_author_name
"K.Uto"
"T.Sakamoto"
"K.Matsumoto"
"Y.Kikugawa"
_chemical_name_systematic
;
2-Hydroxy-3,3-diphenyl-2,3-dihydroisoindol-1-one
;
_chemical_melting_point 479.15
_cell_volume    756.303
_exptl_crystal_density_diffrn 1.32
_exptl_special_details
;
Melting point range 479.15-481.15K

;
_diffrn_ambient_temperature ?
_diffrn_special_details
;
The study was carried out at room temperature,in the range 283-303K

;
#These two values have been output from a single CSD field.
_refine_ls_R_factor_gt 0.042
_refine_ls_wR_factor_gt 0.042
_symmetry_cell_setting triclinic
_symmetry_space_group_name_H-M 'P -1'
_symmetry_Int_Tables_number 2
loop_
_symmetry_equiv_pos_site_id
_symmetry_equiv_pos_as_xyz
1 x,y,z
2 -x,-y,-z
_cell_length_a 9.584(3)
_cell_length_b 9.704(4)
_cell_length_c 9.254(2)
_cell_angle_alpha 117.64(2)
_cell_angle_beta 92.47(2)
_cell_angle_gamma 94.90(3)
_cell_formula_units_Z 2
loop_
_atom_type_symbol
_atom_type_radius_bond
C 0.68
H 0.23
N 0.68
O 0.68
loop_
_atom_site_label
_atom_site_type_symbol
_atom_site_fract_x
_atom_site_fract_y
_atom_site_fract_z
C1 C 0.4371(2) -0.1123(2) -0.2088(2)
C2 C 0.5722(2) -0.0663(2) -0.2291(2)
C3 C 0.6098(2) 0.0844(2) -0.2049(2)
C4 C 0.5132(2) 0.1933(2) -0.1600(2)
C5 C 0.3784(1) 0.1468(2) -0.1396(2)
C6 C 0.2512(1) 0.2377(2) -0.0982(2)
N1 N 0.1469(1) 0.1153(1) -0.0989(1)
O1 O 0.0059(1) 0.1351(1) -0.0958(1)
C7 C 0.1919(2) -0.0247(2) -0.1406(2)
O2 O 0.1202(1) -0.1429(1) -0.1552(1)
C8 C 0.3416(2) -0.0041(2) -0.1641(2)
C9 C 0.2104(1) 0.2747(2) -0.2385(2)
C10 C 0.1604(2) 0.1522(2) -0.3920(2)
C11 C 0.1290(2) 0.1802(2) -0.5225(2)
C12 C 0.1468(2) 0.3303(2) -0.5029(2)
C13 C 0.1968(2) 0.4528(2) -0.3519(2)
C14 C 0.2292(2) 0.4248(2) -0.2205(2)
C15 C 0.2651(1) 0.3810(2) 0.0720(2)
C16 C 0.3847(2) 0.4261(2) 0.1802(2)
C17 C 0.3922(2) 0.5560(2) 0.3337(2)
C18 C 0.2808(2) 0.6426(2) 0.3794(2)
C19 C 0.1610(2) 0.5991(2) 0.2743(2)
C20 C 0.1523(2) 0.4683(2) 0.1218(2)
H1 H 0.407(2) -0.217(3) -0.221(2)
H2 H 0.641(2) -0.140(3) -0.261(2)
H3 H 0.706(2) 0.115(2) -0.218(3)
H4 H 0.541(2) 0.303(3) -0.142(2)
H5 H -0.020(2) 0.141(2) 0.008(3)
H6 H 0.141(2) 0.044(2) -0.407(2)
H7 H 0.092(2) 0.089(3) -0.629(3)
H8 H 0.125(2) 0.352(3) -0.588(3)
H9 H 0.212(2) 0.567(3) -0.332(3)
H10 H 0.263(2) 0.510(2) -0.117(2)
H11 H 0.463(2) 0.369(2) 0.148(2)
H12 H 0.476(2) 0.587(3) 0.406(3)
H13 H 0.287(2) 0.739(3) 0.488(3)
H14 H 0.081(2) 0.661(3) 0.309(3)
H15 H 0.066(2) 0.433(2) 0.040(2)
#END
