
#######################################################################
#
#                 Cambridge Crystallographic Data Centre
#                                CCDC
#
#######################################################################
#
# If this CIF has been generated from an entry in the Cambridge
# Structural Database, then it will include bibliographic, chemical,
# crystal, experimental, refinement or atomic coordinate data resulting
# from the CCDC's data processing and validation procedures.
#
#######################################################################

data_CSD_CIF_TECSEB
_audit_creation_date 2012-11-07
_audit_creation_method CSD-ConQuest-V1
_database_code_CSD TECSEB
_database_code_depnum_ccdc_archive 'CCDC 832991'
_chemical_formula_sum 'C8 H11 N3 O3'
_chemical_formula_moiety
;
C8 H11 N3 O3
;
_journal_coden_Cambridge 1286
_journal_volume 59
_journal_year 2012
_journal_page_first 59
_journal_name_full 'Vibrational Spectroscopy '
loop_
_publ_author_name
"J.Lorenc"
"J.Hanuza"
"J.Janczak"
_chemical_name_systematic
;
2-(ethylamino)-4-nitro-3-methylpyridine 1-oxide
;
_cell_volume    941.342
_exptl_crystal_colour 'orange'
_exptl_crystal_density_diffrn 1.391
_exptl_crystal_description 'parallelepiped'
_diffrn_ambient_temperature 295
#These two values have been output from a single CSD field.
_refine_ls_R_factor_gt 0.0584
_refine_ls_wR_factor_gt 0.0584
_symmetry_cell_setting monoclinic
_symmetry_space_group_name_H-M 'P 21/n'
_symmetry_Int_Tables_number 14
loop_
_symmetry_equiv_pos_site_id
_symmetry_equiv_pos_as_xyz
1 x,y,z
2 1/2-x,1/2+y,1/2-z
3 -x,-y,-z
4 -1/2+x,-1/2-y,-1/2+z
_cell_length_a 6.8340(14)
_cell_length_b 12.435(3)
_cell_length_c 11.087(2)
_cell_angle_alpha 90
_cell_angle_beta 92.42(2)
_cell_angle_gamma 90
_cell_formula_units_Z 4
loop_
_atom_type_symbol
_atom_type_radius_bond
C 0.68
H 0.23
N 0.68
O 0.68
loop_
_atom_site_label
_atom_site_type_symbol
_atom_site_fract_x
_atom_site_fract_y
_atom_site_fract_z
O1 O 0.2721(2) 0.15718(12) 0.61749(14)
N1 N 0.2623(2) 0.07171(12) 0.54982(14)
C1 C 0.2371(3) -0.02716(14) 0.60557(16)
C2 C 0.2194(3) -0.12045(15) 0.53328(17)
C3 C 0.2383(3) -0.10713(15) 0.41059(17)
C4 C 0.2642(3) -0.01064(16) 0.35835(17)
H1 H 0.27360 -0.00550 0.27510
C5 C 0.2768(3) 0.07997(16) 0.42870(19)
H2 H 0.29520 0.14690 0.39340
N2 N 0.2300(3) -0.01676(14) 0.72477(16)
H3 H 0.20800 0.04720 0.75040
C6 C 0.2538(5) -0.0969(2) 0.8153(2)
H4 H 0.38310 -0.12810 0.80950
H5 H 0.15920 -0.15350 0.79770
C7 C 0.2325(6) -0.0629(3) 0.9375(3)
H6 H 0.35540 -0.03570 0.96970
H7 H 0.19260 -0.12280 0.98510
H8 H 0.13530 -0.00730 0.93960
N3 N 0.2232(3) -0.19937(18) 0.3286(2)
O2 O 0.2512(3) -0.28908(17) 0.36394(18)
O3 O 0.1832(4) -0.1830(2) 0.2256(2)
C8 C 0.1573(5) -0.2283(2) 0.5933(3)
H9 H 0.27210 -0.26650 0.62200
H10 H 0.08560 -0.27150 0.53490
H11 H 0.07620 -0.21300 0.65980
#END
