
#######################################################################
#
#                 Cambridge Crystallographic Data Centre
#                                CCDC
#
#######################################################################
#
# If this CIF has been generated from an entry in the Cambridge
# Structural Database, then it will include bibliographic, chemical,
# crystal, experimental, refinement or atomic coordinate data resulting
# from the CCDC's data processing and validation procedures.
#
#######################################################################

data_CSD_CIF_TECSUQ
_audit_creation_date 2006-03-28
_audit_creation_method CSD-ConQuest-V1
_database_code_CSD TECSUQ
_database_code_depnum_ccdc_archive 'CCDC 298521'
_chemical_formula_sum 'C18 H16 N4 O3'
_chemical_formula_moiety
;
C18 H16 N4 O3
;
_journal_coeditor_code "IUCr RN6070"
_journal_coden_Cambridge 1370
_journal_volume 62
_journal_year 2006
_journal_page_first o755
_journal_name_full 'Acta Crystallogr.,Sect.E:Struct.Rep.Online '
loop_
_publ_author_name
"Chun-Sheng Zheng"
"Mei Li"
"Nan Yang"
"Zuo-Liang Jing"
_chemical_name_systematic
;
1,5-Dimethyl-4-(3-nitrobenzylideneamino)-2-phenyl-1,2-dihydropyrazol-3-one
;
_cell_volume   1682.019
_exptl_crystal_colour 'yellow'
_exptl_crystal_density_diffrn 1.328
_exptl_crystal_description 'block'
_exptl_crystal_preparation 'ethanol'
_diffrn_ambient_temperature 294
#These two values have been output from a single CSD field.
_refine_ls_R_factor_gt 0.0618
_refine_ls_wR_factor_gt 0.0618
_symmetry_cell_setting monoclinic
_symmetry_space_group_name_H-M 'P 21/c'
_symmetry_Int_Tables_number 14
loop_
_symmetry_equiv_pos_site_id
_symmetry_equiv_pos_as_xyz
1 x,y,z
2 -x,1/2+y,1/2-z
3 -x,-y,-z
4 x,-1/2-y,-1/2+z
_cell_length_a 7.645(11)
_cell_length_b 7.839(11)
_cell_length_c 28.24(4)
_cell_angle_alpha 90
_cell_angle_beta 96.349(19)
_cell_angle_gamma 90
_cell_formula_units_Z 4
loop_
_atom_type_symbol
_atom_type_radius_bond
C 0.68
H 0.23
N 0.68
O 0.68
loop_
_atom_site_label
_atom_site_type_symbol
_atom_site_fract_x
_atom_site_fract_y
_atom_site_fract_z
O1 O -0.0706(3) -0.3117(4) 0.37073(10)
O2 O 0.0851(4) -0.4100(4) 0.43196(10)
O3 O 0.5298(2) 0.0113(3) 0.62512(7)
N1 N 0.3568(3) 0.2501(3) 0.54245(8)
N2 N 0.5883(3) 0.4478(3) 0.64409(8)
N3 N 0.6268(3) 0.2768(3) 0.65602(8)
N4 N 0.0214(3) -0.2920(4) 0.40760(11)
C1 C 0.1226(3) 0.2042(4) 0.45898(10)
H1 H 0.14210 0.31450 0.47050
C2 C 0.0073(3) 0.1791(4) 0.41846(10)
H2 H -0.04830 0.27200 0.40280
C3 C -0.0260(3) 0.0154(4) 0.40105(10)
H3 H -0.10440 -0.00390 0.37400
C4 C 0.0608(3) -0.1174(4) 0.42522(10)
C5 C 0.1783(3) -0.0957(4) 0.46550(9)
H4 H 0.23470 -0.18930 0.48060
C6 C 0.2113(3) 0.0686(3) 0.48331(9)
C7 C 0.3291(3) 0.0975(4) 0.52683(9)
H5 H 0.38410 0.00570 0.54320
C8 C 0.4610(3) 0.2837(4) 0.58478(9)
C9 C 0.5375(3) 0.1684(4) 0.62124(9)
C10 C 0.4976(3) 0.4477(4) 0.59996(10)
C11 C 0.7171(4) 0.5779(4) 0.66175(11)
H6 H 0.82920 0.55140 0.65130
H7 H 0.72780 0.58010 0.69590
H8 H 0.67850 0.68760 0.64960
C12 C 0.4502(4) 0.6105(4) 0.57326(11)
H9 H 0.42870 0.69880 0.59540
H10 H 0.34620 0.59270 0.55150
H11 H 0.54550 0.64380 0.55580
C13 C 0.6757(3) 0.2279(4) 0.70437(10)
C14 C 0.7889(3) 0.0909(4) 0.71342(11)
H12 H 0.83340 0.03410 0.68840
C15 C 0.8350(4) 0.0397(5) 0.75975(12)
H13 H 0.90710 -0.05510 0.76590
C16 C 0.7746(4) 0.1288(5) 0.79758(12)
H14 H 0.80840 0.09540 0.82890
C17 C 0.6643(4) 0.2667(4) 0.78813(11)
H15 H 0.62460 0.32700 0.81320
C18 C 0.6126(3) 0.3158(4) 0.74208(10)
H16 H 0.53580 0.40720 0.73600
#END
