
#######################################################################
#
#                 Cambridge Crystallographic Data Centre
#                                CCDC
#
#######################################################################
#
# If this CIF has been generated from an entry in the Cambridge
# Structural Database, then it will include bibliographic, chemical,
# crystal, experimental, refinement or atomic coordinate data resulting
# from the CCDC's data processing and validation procedures.
#
#######################################################################

data_CSD_CIF_TECXAD
_audit_creation_date 2017-08-10
_audit_creation_method CSD-ConQuest-V1
_database_code_CSD TECXAD
_database_code_depnum_ccdc_archive 'CCDC 1501332'
_chemical_formula_sum 'C32 H36 N4 O4'
_chemical_formula_moiety
;
C32 H36 N4 O4
;
_journal_coden_Cambridge 35
_journal_volume 82
_journal_year 2017
_journal_page_first 7764
_journal_name_full 'J.Org.Chem. '
loop_
_publ_author_name
"K.Kolanji"
"P.Ravat"
"A.S.Bogomyakov"
"V.I.Ovcharenko"
"D.Schollmeyer"
"M.Baumgarten"
_chemical_name_systematic
;
2-(4''-(1,3-dioxy-4,4,5,5-tetramethyl-4,5-dihydro-1H-3\l^5^-imidazol-2-yl)-1,1
':4',1''-terphenyl-4-yl)-4,4,5,5-tetramethyl-4,5-dihydro-1H-3\l^5^-imidazole-1
,3-diolate di-radical
;
_cell_volume   1366.250
_exptl_crystal_colour 'blue'
_exptl_crystal_density_diffrn 1.314
_exptl_crystal_description 'plate'
_exptl_crystal_preparation 'dichloromethane'
_diffrn_ambient_temperature 120
#These two values have been output from a single CSD field.
_refine_ls_R_factor_gt 0.0963
_refine_ls_wR_factor_gt 0.0963
_symmetry_cell_setting monoclinic
_symmetry_space_group_name_H-M 'P 21/n'
_symmetry_Int_Tables_number 14
loop_
_symmetry_equiv_pos_site_id
_symmetry_equiv_pos_as_xyz
1 x,y,z
2 1/2-x,1/2+y,1/2-z
3 -x,-y,-z
4 -1/2+x,-1/2-y,-1/2+z
_cell_length_a 11.5064(9)
_cell_length_b 9.9143(10)
_cell_length_c 12.9226(12)
_cell_angle_alpha 90
_cell_angle_beta 112.061(7)
_cell_angle_gamma 90
_cell_formula_units_Z 2
loop_
_atom_type_symbol
_atom_type_radius_bond
C 0.68
H 0.23
N 0.68
O 0.68
loop_
_atom_site_label
_atom_site_type_symbol
_atom_site_fract_x
_atom_site_fract_y
_atom_site_fract_z
C1 C 0.5263(4) 0.6151(5) 0.5646(4)
H1 H 0.54600 0.69420 0.60940
C2 C 0.4145(4) 0.6091(5) 0.4710(4)
C3 C 0.3909(4) 0.4930(5) 0.4069(4)
H2 H 0.31640 0.48720 0.34190
C4 C 0.3250(4) 0.7241(5) 0.4409(4)
C5 C 0.3639(5) 0.8569(5) 0.4703(4)
H3 H 0.45020 0.87440 0.51150
C6 C 0.2804(4) 0.9635(5) 0.4412(4)
H4 H 0.30990 1.05340 0.45860
C7 C 0.1509(4) 0.9377(5) 0.3853(4)
C8 C 0.1107(5) 0.8059(5) 0.3583(4)
H5 H 0.02380 0.78760 0.32110
C9 C 0.1957(4) 0.7013(5) 0.3850(4)
H6 H 0.16630 0.61170 0.36520
C10 C 0.0634(4) 1.0494(5) 0.3530(4)
N1 N 0.0870(4) 1.1757(4) 0.3263(4)
C11 C -0.0228(4) 1.2689(5) 0.3058(4)
C12 C -0.1311(4) 1.1659(5) 0.2798(4)
N2 N -0.0611(4) 1.0431(4) 0.3393(3)
O1 O 0.1921(3) 1.2206(4) 0.3271(4)
C13 C 0.0049(5) 1.3456(5) 0.4159(4)
H7 H 0.08260 1.39740 0.43400
H8 H 0.01450 1.28100 0.47600
H9 H -0.06460 1.40710 0.40800
C14 C -0.0341(5) 1.3649(5) 0.2123(4)
H10 H -0.03920 1.31360 0.14590
H11 H 0.03940 1.42410 0.23510
H12 H -0.11010 1.41950 0.19510
C15 C -0.2320(5) 1.2010(6) 0.3226(5)
H13 H -0.27320 1.28480 0.28750
H14 H -0.19460 1.21300 0.40380
H15 H -0.29390 1.12800 0.30450
C16 C -0.1894(5) 1.1277(6) 0.1566(4)
H16 H -0.24200 1.20210 0.11420
H17 H -0.24080 1.04660 0.14780
H18 H -0.12270 1.11000 0.12840
O2 O -0.1161(3) 0.9417(4) 0.3639(3)
C1B C 0.4737(4) 0.3849(5) 0.4354(4)
H1B H 0.45400 0.30580 0.39060
C2B C 0.5855(4) 0.3909(5) 0.5290(4)
C3B C 0.6091(4) 0.5070(5) 0.5931(4)
H2B H 0.68360 0.51280 0.65810
C4B C 0.6750(4) 0.2759(5) 0.5591(4)
C5B C 0.6361(5) 0.1431(5) 0.5297(4)
H3B H 0.54980 0.12560 0.48850
C6B C 0.7196(4) 0.0365(5) 0.5588(4)
H4B H 0.69010 -0.05340 0.54140
C7B C 0.8491(4) 0.0623(5) 0.6147(4)
C8B C 0.8893(5) 0.1941(5) 0.6417(4)
H5B H 0.97620 0.21240 0.67890
C9B C 0.8043(4) 0.2987(5) 0.6150(4)
H6B H 0.83370 0.38830 0.63480
C10B C 0.9366(4) -0.0494(5) 0.6470(4)
N1B N 0.9130(4) -0.1757(4) 0.6737(4)
C11B C 1.0228(4) -0.2689(5) 0.6942(4)
C12B C 1.1311(4) -0.1659(5) 0.7202(4)
N2B N 1.0611(4) -0.0431(4) 0.6607(3)
O1B O 0.8079(3) -0.2206(4) 0.6729(4)
C13B C 0.9951(5) -0.3456(5) 0.5841(4)
H7B H 0.91740 -0.39740 0.56600
H8B H 0.98550 -0.28100 0.52400
H9B H 1.06460 -0.40710 0.59200
C14B C 1.0341(5) -0.3649(5) 0.7877(4)
H10B H 1.03920 -0.31360 0.85410
H11B H 0.96060 -0.42410 0.76490
H12B H 1.11010 -0.41950 0.80490
C15B C 1.2320(5) -0.2010(6) 0.6774(5)
H13B H 1.27320 -0.28480 0.71250
H14B H 1.19460 -0.21300 0.59620
H15B H 1.29390 -0.12800 0.69550
C16B C 1.1894(5) -0.1277(6) 0.8434(4)
H16B H 1.24200 -0.20210 0.88580
H17B H 1.24080 -0.04660 0.85220
H18B H 1.12270 -0.11000 0.87160
O2B O 1.1161(3) 0.0583(4) 0.6361(3)
#END
