
#######################################################################
#
#                 Cambridge Crystallographic Data Centre
#                                CCDC
#
#######################################################################
#
# If this CIF has been generated from an entry in the Cambridge
# Structural Database, then it will include bibliographic, chemical,
# crystal, experimental, refinement or atomic coordinate data resulting
# from the CCDC's data processing and validation procedures.
#
#######################################################################

data_CSD_CIF_TEDXUV
_audit_creation_date 1997-01-09
_audit_creation_method CSD-ConQuest-V1
_database_code_CSD TEDXUV
_chemical_formula_sum 'C15 H14 N2 O2'
_chemical_formula_moiety
;
C15 H14 N2 O2
;
_journal_coden_Cambridge 122
_journal_year 1995
_journal_page_first 1543
_journal_name_full 'Khim.Get.Soedin.,SSSR(Russ.)(Chem.Heterocycl.Compd.) '
loop_
_publ_author_name
"M.A.Yurovskaya"
"I.G.Khamlova"
"V.N.Nesterov"
"O.V.Shishkin"
"Yu.T.Struchkov"
_chemical_name_systematic
;
4,6-Dimethyl-5-nitro-2-styrylpyridine
;
_chemical_melting_point 370.15
_cell_volume   1270.404
_exptl_crystal_colour 'yellow'
_diffrn_ambient_temperature ?
_diffrn_special_details
;
The study was carried out at room temperature,in the range 283-303K

;
#These two values have been output from a single CSD field.
_refine_ls_R_factor_gt 0.052
_refine_ls_wR_factor_gt 0.052
_symmetry_cell_setting monoclinic
_symmetry_space_group_name_H-M 'P 21/c'
_symmetry_Int_Tables_number 14
loop_
_symmetry_equiv_pos_site_id
_symmetry_equiv_pos_as_xyz
1 x,y,z
2 -x,1/2+y,1/2-z
3 -x,-y,-z
4 x,-1/2-y,-1/2+z
_cell_length_a 13.652(5)
_cell_length_b 12.610(5)
_cell_length_c 7.453(5)
_cell_angle_alpha 90
_cell_angle_beta 98.05(1)
_cell_angle_gamma 90
_cell_formula_units_Z 4
loop_
_atom_type_symbol
_atom_type_radius_bond
C 0.68
N 0.68
O 0.68
loop_
_atom_site_label
_atom_site_type_symbol
_atom_site_fract_x
_atom_site_fract_y
_atom_site_fract_z
O1 O 0.4232(3) -0.0092(3) 0.3038(6)
O2 O 0.3751(3) -0.0294(3) 0.0175(6)
N1 N 0.2283(3) 0.2578(3) 0.0346(6)
N2 N 0.3860(4) 0.0242(4) 0.1561(7)
C1 C 0.2576(4) 0.1585(5) 0.0583(8)
C2 C 0.3538(4) 0.1358(4) 0.1386(8)
C3 C 0.4202(4) 0.2133(5) 0.2059(7)
C4 C 0.3870(4) 0.3161(5) 0.1764(8)
C5 C 0.2924(4) 0.3370(4) 0.0868(8)
C6 C 0.1825(4) 0.0735(4) 0.0025(8)
C7 C 0.5258(4) 0.1918(5) 0.2939(8)
C8 C 0.2616(4) 0.4459(4) 0.0500(8)
C9 C 0.1753(4) 0.4778(4) -0.0433(7)
C10 C 0.1470(4) 0.5871(4) -0.0857(7)
C11 C 0.2137(4) 0.6698(5) -0.0703(9)
C12 C 0.1831(5) 0.7734(5) -0.1041(9)
C13 C 0.0838(4) 0.7951(5) -0.1637(8)
C14 C 0.0170(4) 0.7132(5) -0.1869(8)
C15 C 0.0480(4) 0.6096(5) -0.1490(8)
#END
