
#######################################################################
#
#                 Cambridge Crystallographic Data Centre
#                                CCDC
#
#######################################################################
#
# If this CIF has been generated from an entry in the Cambridge
# Structural Database, then it will include bibliographic, chemical,
# crystal, experimental, refinement or atomic coordinate data resulting
# from the CCDC's data processing and validation procedures.
#
#######################################################################

data_CSD_CIF_TEFMOG
_audit_creation_date 1997-02-10
_audit_creation_method CSD-ConQuest-V1
_database_code_CSD TEFMOG
_database_code_depnum_ccdc_fiz 'CSD 57846'
_chemical_formula_sum 'C14 H18 N2 O1'
_chemical_formula_moiety
;
C14 H18 N2 O1
;
_journal_coden_Cambridge 214
_journal_volume 125
_journal_year 1994
_journal_page_first 553
_journal_name_full 'Monatsh.Chem. '
loop_
_publ_author_name
"L.Fisera"
"F.Sauter"
"J.Frohlich"
"Y.Feng"
"P.Ertl"
"K.Mereiter"
_chemical_name_systematic
;
3-Phenyl-8-methyl-1-oxa-2,8-diazaspiro(4,5)dec-2-ene
;
_chemical_melting_point 340.15
_cell_volume   1267.794
_exptl_crystal_colour 'colorless'
_exptl_crystal_density_diffrn 1.207
_exptl_special_details
;
Melting point range 340.15-343.15K
Cell parameter c is 10.393 not 11.393

;
_diffrn_ambient_temperature ?
_diffrn_special_details
;
The study was carried out at room temperature,in the range 283-303K

;
#These two values have been output from a single CSD field.
_refine_ls_R_factor_gt 0.037
_refine_ls_wR_factor_gt 0.037
_symmetry_cell_setting monoclinic
_symmetry_space_group_name_H-M 'P 21/c'
_symmetry_Int_Tables_number 14
loop_
_symmetry_equiv_pos_site_id
_symmetry_equiv_pos_as_xyz
1 x,y,z
2 -x,1/2+y,1/2-z
3 -x,-y,-z
4 x,-1/2-y,-1/2+z
_cell_length_a 10.891(4)
_cell_length_b 11.298(3)
_cell_length_c 10.393(2)
_cell_angle_alpha 90
_cell_angle_beta 97.53(1)
_cell_angle_gamma 90
_cell_formula_units_Z 4
loop_
_atom_type_symbol
_atom_type_radius_bond
C 0.68
H 0.23
N 0.68
O 0.68
loop_
_atom_site_label
_atom_site_type_symbol
_atom_site_fract_x
_atom_site_fract_y
_atom_site_fract_z
O1 O 0.2370(1) 0.4119(1) 0.6159(1)
N1 N 0.3364(2) 0.4192(2) 0.7176(2)
C1 C 0.4212(2) 0.3458(2) 0.6967(2)
C2 C 0.3884(2) 0.2748(2) 0.5760(2)
C3 C 0.2777(2) 0.3429(2) 0.5090(2)
C4 C 0.1704(2) 0.2666(2) 0.4504(2)
C5 C 0.0655(2) 0.3384(2) 0.3779(2)
N2 N 0.1098(2) 0.4138(2) 0.2802(2)
C6 C 0.2006(2) 0.4962(2) 0.3428(2)
C7 C 0.3122(2) 0.4310(2) 0.4094(2)
C8 C 0.5344(2) 0.3328(2) 0.7878(2)
C9 C 0.5716(2) 0.4184(2) 0.8815(2)
C10 C 0.6762(2) 0.4023(2) 0.9697(2)
C11 C 0.7461(2) 0.3008(2) 0.9652(2)
C12 C 0.7119(2) 0.2163(2) 0.8730(2)
C13 C 0.6069(2) 0.2320(2) 0.7847(2)
C14 C 0.0069(3) 0.4775(3) 0.2066(2)
H1 H 0.45520 0.27330 0.52420
H2 H 0.36610 0.19520 0.59560
H3 H 0.20000 0.21180 0.39100
H4 H 0.13910 0.22380 0.51890
H5 H 0.02940 0.38710 0.43870
H6 H 0.00900 0.28530 0.33620
H7 H 0.22630 0.54850 0.27860
H8 H 0.16390 0.54140 0.40600
H9 H 0.35100 0.38920 0.34510
H10 H 0.36940 0.48750 0.45230
H11 H 0.52360 0.48940 0.88450
H12 H 0.70050 0.46170 1.03410
H13 H 0.81880 0.28940 1.02690
H14 H 0.76090 0.14600 0.86980
H15 H 0.58370 0.17250 0.72010
H16 H -0.05240 0.42180 0.16580
H17 H 0.03750 0.52540 0.14140
H18 H -0.03210 0.52730 0.26430
#END
