
#######################################################################
#
#                 Cambridge Crystallographic Data Centre
#                                CCDC
#
#######################################################################
#
# If this CIF has been generated from an entry in the Cambridge
# Structural Database, then it will include bibliographic, chemical,
# crystal, experimental, refinement or atomic coordinate data resulting
# from the CCDC's data processing and validation procedures.
#
#######################################################################

data_CSD_CIF_TEGDIT
_audit_creation_date 2006-07-20
_audit_creation_method CSD-ConQuest-V1
_database_code_CSD TEGDIT
_database_code_depnum_ccdc_archive 'CCDC 277845'
_chemical_formula_sum 'C16 H27 N1 O4'
_chemical_formula_moiety
;
C16 H27 N1 O4
;
_journal_coden_Cambridge 1291
_journal_year 2006
_journal_page_first 1978
_journal_name_full 'Eur.J.Org.Chem. '
loop_
_publ_author_name
"K.Griesbaum"
"A.Frank"
"K.J.McCullough"
_chemical_name_systematic
;
anti-2-O-Methyloxime-16,17,18-trioxatricyclo(10.3.2.1)octadecane
;
_chemical_melting_point 355.15
_cell_volume   3215.102
_exptl_crystal_colour 'colorless'
_exptl_crystal_density_diffrn 1.229
_exptl_crystal_description 'blocks'
_exptl_crystal_preparation 'dichloromethane/ethanol'
_diffrn_ambient_temperature 160
#These two values have been output from a single CSD field.
_refine_ls_R_factor_gt 0.0399
_refine_ls_wR_factor_gt 0.0399
loop_
_citation_database_id_CSD
_citation_special_details
TEJYUD "is a stereoisomer of this entry"
_symmetry_cell_setting monoclinic
_symmetry_space_group_name_H-M 'C 2/c'
_symmetry_Int_Tables_number 15
loop_
_symmetry_equiv_pos_site_id
_symmetry_equiv_pos_as_xyz
1 x,y,z
2 1/2+x,1/2+y,z
3 -x,y,1/2-z
4 1/2-x,1/2+y,1/2-z
5 -x,-y,-z
6 -1/2-x,-1/2-y,-z
7 x,-y,-1/2+z
8 -1/2+x,-1/2-y,-1/2+z
_cell_length_a 31.464(3)
_cell_length_b 5.823(1)
_cell_length_c 17.949(1)
_cell_angle_alpha 90
_cell_angle_beta 102.130(5)
_cell_angle_gamma 90
_cell_formula_units_Z 8
loop_
_atom_type_symbol
_atom_type_radius_bond
C 0.68
H 0.23
N 0.68
O 0.68
loop_
_atom_site_label
_atom_site_type_symbol
_atom_site_fract_x
_atom_site_fract_y
_atom_site_fract_z
O1 O 0.34767(3) 0.38271(19) 0.50417(6)
N1 N 0.45264(4) 0.2268(3) 0.55363(10)
C1 C 0.37690(5) 0.1989(3) 0.53923(8)
O2 O 0.30620(3) 0.33740(18) 0.52829(6)
C2 C 0.41969(5) 0.3135(3) 0.57430(9)
O3 O 0.35736(3) 0.11720(18) 0.59851(5)
C3 C 0.42003(5) 0.5106(3) 0.62821(9)
H1 H 0.39020 0.57400 0.62110
H2 H 0.43910 0.63310 0.61530
O4 O 0.49109(4) 0.3407(3) 0.58879(10)
C4 C 0.43581(5) 0.4443(3) 0.71212(10)
H3 H 0.46570 0.38190 0.71970
H4 H 0.41680 0.32220 0.72540
C5 C 0.43560(6) 0.6503(3) 0.7654(1)
H5 H 0.45120 0.60720 0.81730
H6 H 0.45170 0.77850 0.74800
C6 C 0.39003(5) 0.7337(3) 0.76909(9)
H7 H 0.37370 0.76490 0.71660
H8 H 0.39260 0.88040 0.79750
C7 C 0.36381(5) 0.5644(3) 0.80692(9)
H9 H 0.37310 0.40600 0.79800
H10 H 0.37060 0.59150 0.86260
C8 C 0.31467(5) 0.5837(3) 0.77756(9)
H11 H 0.30640 0.74790 0.77570
H12 H 0.29980 0.50600 0.81400
C9 C 0.29876(5) 0.4781(3) 0.69810(9)
H13 H 0.26840 0.52740 0.67780
H14 H 0.31690 0.53710 0.66340
C10 C 0.30067(5) 0.2173(3) 0.69897(8)
H15 H 0.28360 0.16060 0.73570
H16 H 0.33120 0.17010 0.71810
C11 C 0.28384(5) 0.0988(3) 0.62241(9)
H17 H 0.27920 -0.06550 0.63240
H18 H 0.25510 0.16530 0.59960
C12 C 0.31227(5) 0.1134(3) 0.56358(8)
C13 C 0.30315(5) -0.0763(3) 0.50419(9)
H19 H 0.27200 -0.07290 0.47910
H20 H 0.30930 -0.22680 0.52980
C14 C 0.33060(5) -0.0520(3) 0.44371(9)
H21 H 0.31790 0.06790 0.40660
H22 H 0.33030 -0.19890 0.41580
C15 C 0.37753(5) 0.0124(3) 0.48033(9)
H23 H 0.39320 -0.12410 0.50500
H24 H 0.39270 0.06850 0.44090
C16 C 0.52680(7) 0.2314(6) 0.56370(19)
H25 H 0.52820 0.06920 0.57860
H26 H 0.55410 0.30770 0.58730
H27 H 0.52240 0.24290 0.50810
#END
