
#######################################################################
#
#                 Cambridge Crystallographic Data Centre
#                                CCDC
#
#######################################################################
#
# If this CIF has been generated from an entry in the Cambridge
# Structural Database, then it will include bibliographic, chemical,
# crystal, experimental, refinement or atomic coordinate data resulting
# from the CCDC's data processing and validation procedures.
#
#######################################################################

data_CSD_CIF_TEGXIP
_audit_creation_date 2017-08-14
_audit_creation_method CSD-ConQuest-V1
_database_code_CSD TEGXIP
_database_code_depnum_ccdc_archive 'CCDC 1557048'
_chemical_formula_sum 'C12 H23 N2 O1'
_chemical_formula_moiety
;
C12 H23 N2 O1
;
_journal_coden_Cambridge 1147
_journal_volume 17
_journal_year 2017
_journal_page_first 4893
_journal_name_full 'Cryst.Growth Des. '
loop_
_publ_author_name
"Yan-Li Gao"
"K.Yu.Maryunina"
"S.Hatano"
"S.Nishihara"
"K.Inoue"
"M.Kurmoo"
_chemical_name_systematic
;
2,2-pentamethylene-4,4,5,5-tetramethylimidazolidine-1-oxyl radical
;
_cell_volume   2486.157
_exptl_crystal_colour 'orange'
_exptl_crystal_density_diffrn 1.129
_exptl_special_details
;
Magnetic properties
Moisture-sensitive

;
_exptl_crystal_description 'needle'
_exptl_crystal_preparation 'hexane'
_diffrn_ambient_temperature 296
#These two values have been output from a single CSD field.
_refine_ls_R_factor_gt 0.0568
_refine_ls_wR_factor_gt 0.0568
_symmetry_cell_setting orthorhombic
_symmetry_space_group_name_H-M 'P b c a'
_symmetry_Int_Tables_number 61
loop_
_symmetry_equiv_pos_site_id
_symmetry_equiv_pos_as_xyz
1 x,y,z
2 1/2-x,-y,1/2+z
3 1/2+x,1/2-y,-z
4 -x,1/2+y,1/2-z
5 -x,-y,-z
6 -1/2+x,y,-1/2-z
7 -1/2-x,-1/2+y,z
8 x,-1/2-y,-1/2+z
_cell_length_a 9.0510(4)
_cell_length_b 11.0589(4)
_cell_length_c 24.8382(10)
_cell_angle_alpha 90
_cell_angle_beta 90
_cell_angle_gamma 90
_cell_formula_units_Z 8
loop_
_atom_type_symbol
_atom_type_radius_bond
C 0.68
H 0.23
N 0.68
O 0.68
loop_
_atom_site_label
_atom_site_type_symbol
_atom_site_fract_x
_atom_site_fract_y
_atom_site_fract_z
N1 N 0.12534(12) 0.70928(10) 0.10702(5)
H1 H 0.13690 0.77890 0.09220
C1 C 0.23676(15) 0.61400(11) 0.10893(5)
N2 N 0.17857(14) 0.53304(10) 0.15160(5)
C2 C -0.11055(19) 0.59995(18) 0.09475(8)
H2 H -0.12540 0.64880 0.06320
H3 H -0.20420 0.58350 0.11140
H4 H -0.06440 0.52510 0.08470
C3 C -0.01101(15) 0.66772(13) 0.13458(6)
C4 C 0.24929(18) 0.54499(13) 0.05554(6)
H5 H 0.30940 0.47330 0.06080
H6 H 0.15180 0.51920 0.04410
C5 C 0.31815(19) 0.62348(16) 0.01190(7)
H7 H 0.32580 0.57720 -0.02120
H8 H 0.25480 0.69250 0.00510
C6 C 0.47059(19) 0.66747(18) 0.02835(8)
H9 H 0.53650 0.59890 0.03230
H10 H 0.51020 0.71970 0.00050
C7 C -0.0946(2) 0.77831(16) 0.15496(8)
H11 H -0.02990 0.82700 0.17660
H12 H -0.17740 0.75270 0.17620
H13 H -0.12910 0.82490 0.12490
C8 C 0.46230(18) 0.73585(15) 0.08081(9)
H14 H 0.40630 0.80970 0.07540
H15 H 0.56130 0.75820 0.09200
C9 C 0.38952(16) 0.66113(14) 0.12514(7)
H16 H 0.37990 0.71050 0.15720
H17 H 0.45270 0.59300 0.13380
C10 C 0.04763(18) 0.58312(14) 0.17962(6)
C11 C -0.0520(3) 0.47921(19) 0.19652(10)
H18 H -0.07620 0.43110 0.16560
H19 H -0.14110 0.51090 0.21210
H20 H -0.00180 0.43000 0.22260
C12 C 0.1015(3) 0.6532(2) 0.22937(7)
H21 H 0.16240 0.60150 0.25110
H22 H 0.01790 0.67960 0.25010
H23 H 0.15780 0.72220 0.21810
O1 O 0.24957(15) 0.44166(10) 0.16860(5)
#END
