
#######################################################################
#
#                 Cambridge Crystallographic Data Centre
#                                CCDC
#
#######################################################################
#
# If this CIF has been generated from an entry in the Cambridge
# Structural Database, then it will include bibliographic, chemical,
# crystal, experimental, refinement or atomic coordinate data resulting
# from the CCDC's data processing and validation procedures.
#
#######################################################################

data_CSD_CIF_TEHFER
_audit_creation_date 1996-10-31
_audit_creation_method CSD-ConQuest-V1
_database_code_CSD TEHFER
_database_code_depnum_ccdc_archive 'CCDC 127140'
_chemical_formula_sum 'C17 H18 N2 O6'
_chemical_formula_moiety
;
C17 H18 N2 O6
;
_journal_coeditor_code "IUCr TA1029"
_journal_coden_Cambridge 591
_journal_volume 52
_journal_year 1996
_journal_page_first 2058
_journal_name_full 'Acta Crystallogr.,Sect.C:Cryst.Struct.Commun. '
loop_
_publ_author_name
"Whanchul Shin"
"Chong Hak Chae"
"Sung Eun Yoo"
_chemical_name_systematic
;
2-(1,3-Dioxolan-2-yl)-2-methyl-6-nitro 
-4-(2-oxopyrrolidin-1-yl)-2H-1-benzopyran
;
_cell_volume   1659.848
_exptl_crystal_colour 'orange'
_exptl_crystal_density_diffrn 1.386
_exptl_special_details
;
Absolute configuration
exhibits highly potent potassium-channel activator activity
;
_diffrn_ambient_temperature ?
_diffrn_special_details
;
The study was carried out at room temperature,in the range 283-303K

;
#These two values have been output from a single CSD field.
_refine_ls_R_factor_gt 0.0341
_refine_ls_wR_factor_gt 0.0341
_symmetry_cell_setting orthorhombic
_symmetry_space_group_name_H-M 'P 21 21 21'
_symmetry_Int_Tables_number 19
loop_
_symmetry_equiv_pos_site_id
_symmetry_equiv_pos_as_xyz
1 x,y,z
2 1/2-x,-y,1/2+z
3 1/2+x,1/2-y,-z
4 -x,1/2+y,1/2-z
_cell_length_a 10.563(2)
_cell_length_b 16.902(2)
_cell_length_c 9.297(2)
_cell_angle_alpha 90
_cell_angle_beta 90
_cell_angle_gamma 90
_cell_formula_units_Z 4
loop_
_atom_type_symbol
_atom_type_radius_bond
C 0.68
H 0.23
N 0.68
O 0.68
loop_
_atom_site_label
_atom_site_type_symbol
_atom_site_fract_x
_atom_site_fract_y
_atom_site_fract_z
O1 O 0.6427(2) 0.11895(11) 0.0148(2)
C1 C 0.5966(2) 0.0750(2) -0.1090(3)
C2 C 0.4550(2) 0.08059(15) -0.1239(3)
C3 C 0.3815(2) 0.10121(13) -0.0166(2)
C4 C 0.3645(2) 0.14447(14) 0.2419(3)
C5 C 0.4240(2) 0.16765(13) 0.3658(3)
C6 C 0.5551(3) 0.17085(14) 0.3767(3)
C7 C 0.6265(2) 0.15212(15) 0.2578(3)
C8 C 0.5681(2) 0.12983(13) 0.1314(3)
C9 C 0.4348(2) 0.12464(13) 0.1215(3)
C10 C 0.6653(3) 0.1097(3) -0.2382(4)
C11 C 0.6380(2) -0.0112(2) -0.0824(4)
O2 O 0.5966(2) -0.06084(14) -0.1941(3)
C12 C 0.4899(4) -0.1047(2) -0.1385(4)
C13 C 0.5046(5) -0.1025(2) 0.0195(5)
O3 O 0.5887(2) -0.03895(13) 0.0477(2)
N1 N 0.2464(2) 0.10444(11) -0.0324(2)
C14 C 0.1694(2) 0.0433(2) 0.0011(3)
O4 O 0.2018(2) -0.01711(12) 0.0593(3)
C15 C 0.0373(3) 0.0654(2) -0.0486(4)
C16 C 0.0441(3) 0.1535(2) -0.0763(5)
C17 C 0.1835(3) 0.1697(2) -0.1057(5)
N2 N 0.3493(2) 0.19198(13) 0.4888(3)
O5 O 0.2352(2) 0.19964(15) 0.4717(3)
O6 O 0.4021(3) 0.20504(14) 0.6034(2)
H1 H 0.4242(30) 0.0649(19) -0.2129(37)
H2 H 0.2795(36) 0.1409(19) 0.2405(33)
H3 H 0.5954(29) 0.1861(17) 0.4663(34)
H4 H 0.7147(34) 0.1546(18) 0.2514(32)
H5 H 0.6413(37) 0.1740(27) -0.2614(43)
H6 H 0.7429(46) 0.1070(28) -0.2219(46)
H7 H 0.6307(35) 0.0786(24) -0.3284(43)
H8 H 0.7296(40) -0.0113(23) -0.0790(39)
H9 H 0.4959(39) -0.1565(26) -0.1740(43)
H10 H 0.3952(42) -0.0714(26) -0.1654(45)
H11 H 0.5501(46) -0.1476(33) 0.0725(51)
H12 H 0.4243(60) -0.0889(39) 0.0744(62)
H13 H 0.0346(42) 0.0365(28) -0.1390(51)
H14 H -0.0266(42) 0.0541(26) 0.0348(46)
H15 H 0.0248(40) 0.1845(26) 0.0202(49)
H16 H -0.0028(41) 0.1723(24) -0.1580(42)
H17 H 0.2226(34) 0.2249(22) -0.0801(37)
H18 H 0.1982(48) 0.1642(32) -0.1997(54)
#END
