
#######################################################################
#
#                 Cambridge Crystallographic Data Centre
#                                CCDC
#
#######################################################################
#
# If this CIF has been generated from an entry in the Cambridge
# Structural Database, then it will include bibliographic, chemical,
# crystal, experimental, refinement or atomic coordinate data resulting
# from the CCDC's data processing and validation procedures.
#
#######################################################################

data_CSD_CIF_TEHLOH
_audit_creation_date 1996-10-31
_audit_creation_method CSD-ConQuest-V1
_database_code_CSD TEHLOH
_database_code_depnum_ccdc_archive 'CCDC 127114'
_chemical_formula_sum 'C20 H22 N4 O5'
_chemical_formula_moiety
;
C20 H22 N4 O5
;
_journal_coeditor_code "IUCr KH1094"
_journal_coden_Cambridge 591
_journal_volume 52
_journal_year 1996
_journal_page_first 2118
_journal_name_full 'Acta Crystallogr.,Sect.C:Cryst.Struct.Commun. '
loop_
_publ_author_name
"S.Ohba"
_chemical_name_systematic
;
(1R*,2R*)-2-((S*)-1-Benzyloxyethyl)-1-cyclopropyl methyl ketone 
(Z)-2,4-dinitrophenylhydrazone
;
_cell_volume   2007.947
_exptl_crystal_colour 'yellow'
_exptl_crystal_density_diffrn 1.318
_diffrn_ambient_temperature ?
_diffrn_special_details
;
The study was carried out at room temperature,in the range 283-303K

;
#These two values have been output from a single CSD field.
_refine_ls_R_factor_gt 0.0541
_refine_ls_wR_factor_gt 0.0541
_symmetry_cell_setting monoclinic
_symmetry_space_group_name_H-M 'P 21/c'
_symmetry_Int_Tables_number 14
loop_
_symmetry_equiv_pos_site_id
_symmetry_equiv_pos_as_xyz
1 x,y,z
2 -x,1/2+y,1/2-z
3 -x,-y,-z
4 x,-1/2-y,-1/2+z
_cell_length_a 10.845(1)
_cell_length_b 7.773(1)
_cell_length_c 24.018(1)
_cell_angle_alpha 90
_cell_angle_beta 97.37(1)
_cell_angle_gamma 90
_cell_formula_units_Z 4
loop_
_atom_type_symbol
_atom_type_radius_bond
C 0.68
H 0.23
N 0.68
O 0.68
loop_
_atom_site_label
_atom_site_type_symbol
_atom_site_fract_x
_atom_site_fract_y
_atom_site_fract_z
O1 O 0.1584(2) 0.0805(3) 0.1942(1)
O2 O -0.0358(3) 0.4174(4) 0.1262(1)
O3 O -0.2320(3) 0.4592(6) 0.1139(1)
O4 O -0.4770(3) 0.3910(5) -0.0612(1)
O5 O -0.3975(3) 0.2834(4) -0.1319(2)
N1 N 0.1732(3) 0.2069(4) 0.0228(1)
N2 N 0.0739(3) 0.2696(4) 0.0478(1)
N3 N -0.1373(3) 0.4137(5) 0.0966(1)
N4 N -0.3908(3) 0.3294(4) -0.0825(2)
C1 C 0.0712(4) 0.1231(7) 0.2313(2)
C2 C -0.0572(3) 0.0724(5) 0.2065(2)
C3 C -0.1578(4) 0.1251(6) 0.2323(2)
C4 C -0.2776(5) 0.0751(8) 0.2104(3)
C5 C -0.2969(5) -0.0247(8) 0.1642(3)
C6 C -0.1996(5) -0.0751(8) 0.1387(3)
C7 C -0.0807(4) -0.0251(7) 0.1591(2)
C8 C 0.3522(5) 0.0595(9) 0.2582(2)
C9 C 0.2792(3) 0.1536(5) 0.2098(2)
C10 C 0.3425(3) 0.1477(5) 0.1584(2)
C11 C 0.4290(4) 0.2857(6) 0.1448(2)
C12 C 0.3016(3) 0.2727(5) 0.1115(2)
C13 C 0.2790(3) 0.2096(5) 0.0536(2)
C14 C 0.3848(4) 0.1356(8) 0.0262(2)
C15 C -0.0395(3) 0.2844(4) 0.0175(1)
C16 C -0.1445(3) 0.3515(5) 0.0394(1)
C17 C -0.2577(3) 0.3652(5) 0.0067(2)
C18 C -0.2705(3) 0.3147(5) -0.0476(2)
C19 C -0.1704(4) 0.2469(5) -0.0708(2)
C20 C -0.0577(4) 0.2330(6) -0.0392(2)
H1 H 0.076(3) 0.295(4) 0.082(1)
H2 H 0.097(3) 0.070(5) 0.267(2)
H3 H 0.073(3) 0.248(6) 0.237(2)
H4 H -0.139(4) 0.178(5) 0.268(2)
H5 H -0.333(4) 0.110(6) 0.231(2)
H6 H -0.378(4) -0.058(6) 0.148(2)
H7 H -0.210(4) -0.132(6) 0.104(2)
H8 H -0.012(4) -0.056(6) 0.141(2)
H9 H 0.365(4) -0.064(6) 0.249(2)
H10 H 0.431(4) 0.120(6) 0.269(2)
H11 H 0.311(4) 0.061(6) 0.289(2)
H12 H 0.270(3) 0.272(4) 0.219(1)
H13 H 0.361(3) 0.040(4) 0.145(1)
H14 H 0.497(3) 0.255(5) 0.127(1)
H15 H 0.437(3) 0.380(4) 0.170(1)
H16 H 0.248(3) 0.354(4) 0.121(1)
H17 H 0.433(4) 0.045(6) 0.053(2)
H18 H 0.446(4) 0.218(6) 0.025(2)
H19 H 0.360(4) 0.088(7) -0.007(2)
H20 H -0.325(3) 0.409(5) 0.024(1)
H21 H -0.178(3) 0.215(5) -0.108(2)
H22 H 0.010(3) 0.191(4) -0.053(1)
#END
