
#######################################################################
#
#                 Cambridge Crystallographic Data Centre
#                                CCDC
#
#######################################################################
#
# If this CIF has been generated from an entry in the Cambridge
# Structural Database, then it will include bibliographic, chemical,
# crystal, experimental, refinement or atomic coordinate data resulting
# from the CCDC's data processing and validation procedures.
#
#######################################################################

data_CSD_CIF_TEHXOT
_audit_creation_date 1996-10-31
_audit_creation_method CSD-ConQuest-V1
_database_code_CSD TEHXOT
_database_code_depnum_ccdc_archive 'CCDC 127254'
_chemical_formula_sum 'C23 H30 N2 O6'
_chemical_formula_moiety
;
C23 H30 N2 O6
;
_journal_coeditor_code "IUCr PA1223"
_journal_coden_Cambridge 591
_journal_volume 52
_journal_year 1996
_journal_page_first 2207
_journal_name_full 'Acta Crystallogr.,Sect.C:Cryst.Struct.Commun. '
loop_
_publ_author_name
"K.R.Rowan"
"E.M.Holt"
_chemical_name_systematic
;
Di-isobutyl 
2,6-dimethyl-4-(3-nitrophenyl)-1,4-dihydropyridine-3,5-dicarboxylate
;
_chemical_melting_point 414.15
_cell_volume   1144.245
_exptl_crystal_colour 'yellow'
_exptl_crystal_density_diffrn 1.249
_exptl_special_details
;
possible calcium antagonistic activity

;
_diffrn_ambient_temperature ?
_diffrn_special_details
;
The study was carried out at room temperature,in the range 283-303K

;
_refine_special_details
;
Carbon atom C18 is equally disordered over two sites and the hydrogens 
attached to C2' are equally disordered over two sites.
;
#These two values have been output from a single CSD field.
_refine_ls_R_factor_gt 0.0574
_refine_ls_wR_factor_gt 0.0574
_symmetry_cell_setting triclinic
_symmetry_space_group_name_H-M 'P -1'
_symmetry_Int_Tables_number 2
loop_
_symmetry_equiv_pos_site_id
_symmetry_equiv_pos_as_xyz
1 x,y,z
2 -x,-y,-z
_cell_length_a 9.715(1)
_cell_length_b 10.932(1)
_cell_length_c 12.501(1)
_cell_angle_alpha 99.29(1)
_cell_angle_beta 97.27(1)
_cell_angle_gamma 116.35(1)
_cell_formula_units_Z 2
loop_
_atom_type_symbol
_atom_type_radius_bond
C 0.68
H 0.23
N 0.68
O 0.68
loop_
_atom_site_label
_atom_site_type_symbol
_atom_site_fract_x
_atom_site_fract_y
_atom_site_fract_z
N1 N 0.1571(4) 1.3679(3) 0.7555(3)
H1 H 0.23070 1.46110 0.76080
C1 C 0.0591(4) 1.3042(4) 0.6512(3)
C2 C 0.0753(5) 1.4042(4) 0.5777(4)
H2 H 0.00480 1.35440 0.50620
H3 H 0.05070 1.47460 0.61250
H4 H 0.18190 1.44840 0.56870
H5? H 0.11460 1.37480 0.50390
H6? H -0.03110 1.39510 0.54680
H7? H 0.13230 1.49420 0.62760
C3 C -0.0388(4) 1.1638(4) 0.6240(3)
C4 C -0.1340(5) 1.0906(5) 0.5124(4)
C5 C -0.3525(6) 0.8808(5) 0.4012(4)
H8 H -0.29390 0.85700 0.35310
H9 H -0.39270 0.93570 0.36900
O1 O -0.1169(4) 1.1333(4) 0.4300(3)
O2 O -0.2489(3) 0.9624(3) 0.5082(2)
C6 C -0.0529(4) 1.0797(4) 0.7123(3)
H10 H -0.06560 0.98950 0.67680
C7 C 0.0995(4) 1.1536(4) 0.8032(3)
C8 C 0.1406(5) 1.0687(4) 0.8656(3)
C9 C 0.0532(5) 0.8416(4) 0.9004(4)
H11 H 0.05960 0.86910 0.97850
H12 H 0.15050 0.84370 0.89030
O3 O 0.2639(4) 1.1076(3) 0.9309(3)
O4 O 0.0256(3) 0.9368(3) 0.8438(2)
C10 C 0.1930(4) 1.2933(4) 0.8231(3)
C11 C 0.3382(5) 1.3819(4) 0.9120(4)
H13 H 0.35580 1.32370 0.95600
H14 H 0.42680 1.42530 0.87940
H15 H 0.32560 1.45350 0.95850
C12 C -0.1957(4) 1.0546(4) 0.7612(3)
C13 C -0.2981(4) 0.9218(4) 0.7678(3)
H16 H -0.28020 0.84400 0.74080
C14 C -0.4266(4) 0.9001(4) 0.8146(3)
C15 C -0.4573(5) 1.0072(5) 0.8554(3)
H17 H -0.54700 0.98980 0.88750
C16 C -0.3535(5) 1.1411(4) 0.8491(3)
H18 H -0.36880 1.21990 0.87810
C17 C -0.2262(5) 1.1634(4) 0.8022(3)
H19 H -0.15580 1.25640 0.79690
C18 C -0.4830(6) 0.7517(5) 0.4119(4)
H20 H -0.54680 0.70370 0.33810
C19 C -0.5874(6) 0.7760(6) 0.4794(5)
H21 H -0.66970 0.68790 0.48470
H22 H -0.52590 0.83150 0.55260
H23 H -0.63310 0.82590 0.44500
C20 C -0.4303(9) 0.6617(8) 0.4486(7)
H24 H -0.51900 0.57900 0.45560
H25 H -0.37840 0.63510 0.39600
H26 H -0.35780 0.70940 0.51960
C21 C -0.0779(6) 0.6970(4) 0.8513(4)
H27 H -0.17300 0.69800 0.86360
C22 C -0.0544(7) 0.5961(5) 0.9142(4)
H28 H -0.02030 0.64770 1.00420
H29 H -0.11970 0.52090 0.90020
H30 H 0.06260 0.61110 0.91370
C23 C -0.063(3) 0.661(3) 0.734(4)
H31 H -0.07730 0.72200 0.69180
H32 H 0.03360 0.65950 0.72760
H33 H -0.14970 0.56750 0.70640
C24? C -0.139(3) 0.637(3) 0.729(3)
H34? H -0.15000 0.70880 0.69960
H35? H -0.06080 0.61950 0.70170
H36? H -0.23860 0.55230 0.70820
N2 N -0.5339(5) 0.7577(5) 0.8197(4)
O5 O -0.6409(5) 0.7386(4) 0.8662(4)
O6 O -0.5118(5) 0.6613(4) 0.7774(4)
#END
