
#######################################################################
#
#                 Cambridge Crystallographic Data Centre
#                                CCDC
#
#######################################################################
#
# If this CIF has been generated from an entry in the Cambridge
# Structural Database, then it will include bibliographic, chemical,
# crystal, experimental, refinement or atomic coordinate data resulting
# from the CCDC's data processing and validation procedures.
#
#######################################################################

data_CSD_CIF_TEHXIN
_audit_creation_date 1996-10-31
_audit_creation_method CSD-ConQuest-V1
_database_code_CSD TEHXIN
_database_code_depnum_ccdc_archive 'CCDC 127253'
_chemical_formula_sum 'C23 H30 N2 O6'
_chemical_formula_moiety
;
C23 H30 N2 O6
;
_journal_coeditor_code "IUCr PA1223"
_journal_coden_Cambridge 591
_journal_volume 52
_journal_year 1996
_journal_page_first 2207
_journal_name_full 'Acta Crystallogr.,Sect.C:Cryst.Struct.Commun. '
loop_
_publ_author_name
"K.R.Rowan"
"E.M.Holt"
_chemical_name_systematic
;
Di-n-butyl 
2,6-dimethyl-4-(3-nitrophenyl)-1,4-dihydropyridine-3,5-dicarboxylate
;
_chemical_melting_point 365.15
_cell_volume   2365.280
_exptl_crystal_colour 'yellow'
_exptl_crystal_density_diffrn 1.209
_exptl_special_details
;
possible calcium antagonistic activity

;
_diffrn_ambient_temperature ?
_diffrn_special_details
;
The study was carried out at room temperature,in the range 283-303K

;
_refine_special_details
;
Carbon atoms C18 and C19 are equally disordered over two sites and the 
hydrogens attached to C2'and C6' are equally disordered over two sites.
;
#These two values have been output from a single CSD field.
_refine_ls_R_factor_gt 0.056
_refine_ls_wR_factor_gt 0.056
_symmetry_cell_setting monoclinic
_symmetry_space_group_name_H-M 'P 21/c'
_symmetry_Int_Tables_number 14
loop_
_symmetry_equiv_pos_site_id
_symmetry_equiv_pos_as_xyz
1 x,y,z
2 -x,1/2+y,1/2-z
3 -x,-y,-z
4 x,-1/2-y,-1/2+z
_cell_length_a 11.358(4)
_cell_length_b 16.352(6)
_cell_length_c 12.999(5)
_cell_angle_alpha 90
_cell_angle_beta 101.56(1)
_cell_angle_gamma 90
_cell_formula_units_Z 4
loop_
_atom_type_symbol
_atom_type_radius_bond
C 0.68
H 0.23
N 0.68
O 0.68
loop_
_atom_site_label
_atom_site_type_symbol
_atom_site_fract_x
_atom_site_fract_y
_atom_site_fract_z
N1 N 0.8738(4) 0.1670(3) 0.3466(3)
H1 H 0.83890 0.13700 0.39030
N2 N 1.0175(5) 0.0910(4) -0.1728(4)
O1 O 0.9788(4) 0.0460(3) -0.2493(4)
O2 O 1.1108(5) 0.1320(3) -0.1632(3)
C1 C 0.8040(4) 0.2257(4) 0.2851(4)
H2 H 0.64860 0.29050 0.28360
H3 H 0.64300 0.20140 0.32670
H4 H 0.71490 0.26930 0.39820
H5? H 0.70050 0.30690 0.38220
H6? H 0.69210 0.20590 0.42210
H7? H 0.62770 0.24340 0.28800
C2 C 0.6925(4) 0.2491(3) 0.3277(4)
C3 C 0.8420(4) 0.2573(3) 0.2001(4)
C4 C 0.7863(4) 0.3253(3) 0.1353(4)
O3 O 0.8149(3) 0.3487(2) 0.0536(3)
O4 O 0.6984(3) 0.3675(2) 0.1724(3)
C5 C 0.9526(4) 0.2196(3) 0.1650(4)
H8 H 0.99580 0.26320 0.13970
C6 C 1.0376(4) 0.1813(3) 0.2584(4)
C7 C 1.1678(6) 0.1713(4) 0.2552(5)
O5 O 1.2451(4) 0.1392(3) 0.3204(4)
O6 O 1.1933(3) 0.2067(3) 0.1678(3)
C8 C 0.9943(5) 0.1510(3) 0.3422(4)
H9 H 1.14250 0.09540 0.42730
H10 H 1.06020 0.13380 0.49810
H11 H 1.02240 0.05200 0.43770
H12? H 1.09040 0.04270 0.43810
H13? H 1.13980 0.13910 0.49690
H14? H 1.01460 0.08610 0.51380
C9 C 1.0610(5) 0.1039(4) 0.4347(4)
C10 C 0.9177(4) 0.1577(3) 0.0747(3)
C11 C 0.9775(4) 0.1547(3) -0.0105(4)
H15 H 1.03900 0.19390 -0.01540
C12 C 0.9469(5) 0.0949(4) -0.0870(4)
C13 C 0.8570(5) 0.0368(4) -0.0860(4)
H16 H 0.83640 -0.00220 -0.14200
C14 C 0.7992(5) 0.0403(4) -0.0008(5)
H17 H 0.73870 0.00030 0.00400
C15 C 0.8293(5) 0.0991(4) 0.0781(4)
H18 H 0.78840 0.09940 0.13590
C16 C 0.6497(5) 0.4405(4) 0.1144(5)
H19 H 0.61040 0.42530 0.04460
H20 H 0.71330 0.47810 0.10970
C17 C 0.5579(6) 0.4803(5) 0.1673(6)
H21 H 0.53840 0.53430 0.13990
H22 H 0.59410 0.48540 0.24030
C18 C 0.4467(7) 0.4379(5) 0.1638(7)
H23 H 0.46370 0.38670 0.20000
H24 H 0.41550 0.42660 0.09100
C19 C 0.3473(7) 0.4826(5) 0.2065(8)
H25 H 0.27490 0.45110 0.19950
H26 H 0.37860 0.49330 0.27950
H27 H 0.33020 0.53350 0.16970
C20 C 1.3171(5) 0.2006(5) 0.1532(6)
H28 H 1.34600 0.14610 0.17060
H29 H 1.36670 0.23830 0.19920
C21 C 1.3232(9) 0.227(1) 0.042(9)
H30 H 1.29300 0.28130 0.02750
H31 H 1.26970 0.19000 -0.00140
C22? C 1.341(2) 0.175(3) 0.078(3)
H32? H 1.28980 0.19730 0.01690
H33? H 1.31840 0.11870 0.08250
C23 C 1.445(1) 0.218(1) 0.013(1)
H34 H 1.50550 0.22940 0.07520
H35 H 1.45200 0.26010 -0.03720
C24? C 1.462(3) 0.169(3) 0.061(3)
H36? H 1.49020 0.22480 0.06650
H37? H 1.51230 0.13910 0.11680
C25 C 1.4820(9) 0.1439(8) -0.0166(10)
H38 H 1.56110 0.14500 -0.03230
H39 H 1.47810 0.10180 0.03410
H40 H 1.42400 0.13290 -0.07960
#END
