
#######################################################################
#
#                 Cambridge Crystallographic Data Centre
#                                CCDC
#
#######################################################################
#
# If this CIF has been generated from an entry in the Cambridge
# Structural Database, then it will include bibliographic, chemical,
# crystal, experimental, refinement or atomic coordinate data resulting
# from the CCDC's data processing and validation procedures.
#
#######################################################################

data_CSD_CIF_TEHXUZ
_audit_creation_date 1996-10-31
_audit_creation_method CSD-ConQuest-V1
_database_code_CSD TEHXUZ
_database_code_depnum_ccdc_archive 'CCDC 127255'
_chemical_formula_sum 'C23 H30 N2 O6'
_chemical_formula_moiety
;
C23 H30 N2 O6
;
_journal_coeditor_code "IUCr PA1223"
_journal_coden_Cambridge 591
_journal_volume 52
_journal_year 1996
_journal_page_first 2207
_journal_name_full 'Acta Crystallogr.,Sect.C:Cryst.Struct.Commun. '
loop_
_publ_author_name
"K.R.Rowan"
"E.M.Holt"
_chemical_name_systematic
;
Di-t-butyl 
2,6-dimethyl-4-(3-nitrophenyl)-1,4-dihydropyridine-3,5-dicarboxylate
;
_chemical_melting_point 450.15
_cell_volume   2356.117
_exptl_crystal_colour 'yellow'
_exptl_crystal_density_diffrn 1.214
_exptl_special_details
;
possible calcium antagonistic activity

;
_diffrn_ambient_temperature ?
_diffrn_special_details
;
The study was carried out at room temperature,in the range 283-303K

;
_refine_special_details
;
The hydrogen atoms attached to C2' and C6' are equally disordered over two 
sites.
;
#These two values have been output from a single CSD field.
_refine_ls_R_factor_gt 0.0542
_refine_ls_wR_factor_gt 0.0542
_symmetry_cell_setting monoclinic
_symmetry_space_group_name_H-M 'P 21/n'
_symmetry_Int_Tables_number 14
loop_
_symmetry_equiv_pos_site_id
_symmetry_equiv_pos_as_xyz
1 x,y,z
2 1/2-x,1/2+y,1/2-z
3 -x,-y,-z
4 -1/2+x,-1/2-y,-1/2+z
_cell_length_a 11.142(1)
_cell_length_b 16.803(2)
_cell_length_c 13.384(1)
_cell_angle_alpha 90
_cell_angle_beta 109.90(1)
_cell_angle_gamma 90
_cell_formula_units_Z 4
loop_
_atom_type_symbol
_atom_type_radius_bond
C 0.68
H 0.23
N 0.68
O 0.68
loop_
_atom_site_label
_atom_site_type_symbol
_atom_site_fract_x
_atom_site_fract_y
_atom_site_fract_z
N1 N 0.2005(3) 0.2790(2) 0.2687(3)
H1 H 0.29480 0.28020 0.32430
C1 C 0.1253(5) 0.3456(3) 0.2626(4)
C2 C 0.1766(5) 0.4011(3) 0.3560(4)
H2 H 0.12140 0.44630 0.34800
H3 H 0.18230 0.37300 0.41990
H4 H 0.26000 0.41870 0.36000
H5? H 0.10010 0.39560 0.40120
H6? H 0.20370 0.46520 0.36140
H7? H 0.25760 0.36400 0.39860
C3 C 0.0222(4) 0.3576(3) 0.1770(3)
C4 C -0.0543(4) 0.4308(3) 0.1659(4)
C5 C -0.2107(5) 0.5140(3) 0.0333(4)
O1 O -0.0569(3) 0.4730(2) 0.2389(3)
O2 O -0.1237(3) 0.4454(2) 0.0645(3)
C6 C -0.0235(4) 0.2945(3) 0.0902(3)
H8 H -0.05820 0.32390 0.00430
C7 C 0.0825(4) 0.2369(3) 0.0938(3)
C8 C 0.0597(5) 0.1938(3) -0.0061(4)
C9 C 0.1547(5) 0.1038(3) -0.1047(4)
O3 O -0.0373(3) 0.2026(2) -0.0818(3)
O4 O 0.1557(3) 0.1459(2) -0.0080(2)
C10 C 0.1864(4) 0.2291(3) 0.1830(4)
C11 C 0.2957(4) 0.1705(3) 0.2042(4)
H9 H 0.28150 0.13670 0.14340
H10 H 0.37380 0.19960 0.21720
H11 H 0.30170 0.13860 0.26520
H12? H 0.32950 0.18420 0.13870
H13? H 0.24440 0.11230 0.17860
H14? H 0.35230 0.18190 0.27870
C12 C -0.1419(4) 0.2523(3) 0.0980(3)
C13 C -0.2622(5) 0.2790(3) 0.0382(4)
H15 H -0.27260 0.32110 -0.01240
C14 C -0.3679(5) 0.2456(3) 0.0524(4)
C15 C -0.3596(5) 0.1851(4) 0.1233(5)
H16 H -0.43490 0.16340 0.13260
C16 C -0.2408(6) 0.1568(3) 0.1795(5)
H17 H -0.23240 0.11230 0.22640
C17 C -0.1328(5) 0.1909(3) 0.1701(4)
H18 H -0.04960 0.17310 0.21390
C18 C -0.2619(6) 0.5080(4) -0.0860(4)
H19 H -0.30850 0.45900 -0.10500
H20 H -0.31720 0.55190 -0.11700
H21 H -0.19140 0.50760 -0.11190
C19 C -0.3173(5) 0.5039(3) 0.0776(5)
H22 H -0.36120 0.45500 0.05120
H23 H -0.28140 0.50170 0.15370
H24 H -0.37640 0.54750 0.05690
C20 C -0.1387(5) 0.5911(3) 0.0685(5)
H25 H -0.07340 0.59520 0.03700
H26 H -0.19500 0.63600 0.04770
H27 H -0.10010 0.59020 0.14450
C21 C 0.1405(6) 0.1618(4) -0.1936(4)
H28 H 0.05670 0.18490 -0.21610
H29 H 0.20320 0.20300 -0.16790
H30 H 0.15360 0.13530 -0.25260
C22 C 0.0516(6) 0.0426(4) -0.1351(5)
H31 H -0.02980 0.06880 -0.15780
H32 H 0.05880 0.01040 -0.19200
H33 H 0.05900 0.00960 -0.07480
C23 C 0.2851(5) 0.0652(3) -0.0693(5)
H34 H 0.29170 0.02770 -0.01350
H35 H 0.29870 0.03830 -0.12780
H36 H 0.34830 0.10600 -0.04310
N2 N -0.4927(4) 0.2780(3) -0.0067(5)
O5 O -0.5837(3) 0.2592(3) 0.0187(4)
O6 O -0.5019(4) 0.3253(3) -0.0779(4)
#END
