
#######################################################################
#
#                 Cambridge Crystallographic Data Centre
#                                CCDC
#
#######################################################################
#
# If this CIF has been generated from an entry in the Cambridge
# Structural Database, then it will include bibliographic, chemical,
# crystal, experimental, refinement or atomic coordinate data resulting
# from the CCDC's data processing and validation procedures.
#
#######################################################################

data_CSD_CIF_TEJJIB
_audit_creation_date 1996-10-31
_audit_creation_method CSD-ConQuest-V1
_database_code_CSD TEJJIB
_database_code_depnum_ccdc_archive 'CCDC 127177'
_chemical_formula_sum 'C12 H10 N2 O1'
_chemical_formula_moiety
;
C12 H10 N2 O1
;
_journal_coeditor_code "IUCr BM1078"
_journal_coden_Cambridge 591
_journal_volume 52
_journal_year 1996
_journal_page_first 2294
_journal_name_full 'Acta Crystallogr.,Sect.C:Cryst.Struct.Commun. '
loop_
_publ_author_name
"N.Kumar"
"S.Mukherjee"
"V.S.Parmar"
"W.Errington"
_chemical_name_systematic
;
(3-(4-Methylphenyl)-5-isoxazolyl)acetonitrile
;
_chemical_melting_point 370
_cell_volume   1013.907
_exptl_crystal_colour 'orange'
_exptl_crystal_density_diffrn 1.299
_exptl_special_details
;
Melting point range 370-371K

;
_diffrn_ambient_temperature 240
#These two values have been output from a single CSD field.
_refine_ls_R_factor_gt 0.0501
_refine_ls_wR_factor_gt 0.0501
_symmetry_cell_setting monoclinic
_symmetry_space_group_name_H-M 'P 21/c'
_symmetry_Int_Tables_number 14
loop_
_symmetry_equiv_pos_site_id
_symmetry_equiv_pos_as_xyz
1 x,y,z
2 -x,1/2+y,1/2-z
3 -x,-y,-z
4 x,-1/2-y,-1/2+z
_cell_length_a 11.609(8)
_cell_length_b 5.717(3)
_cell_length_c 15.293(8)
_cell_angle_alpha 90
_cell_angle_beta 92.63(5)
_cell_angle_gamma 90
_cell_formula_units_Z 4
loop_
_atom_type_symbol
_atom_type_radius_bond
C 0.68
H 0.23
N 0.68
O 0.68
loop_
_atom_site_label
_atom_site_type_symbol
_atom_site_fract_x
_atom_site_fract_y
_atom_site_fract_z
O1 O 0.17055(11) 0.1514(2) 0.97028(8)
N1 N 0.22494(14) 0.1519(3) 1.05450(9)
N2 N -0.00673(15) -0.5137(3) 0.83885(10)
C1 C 0.38383(13) -0.2369(3) 1.33066(10)
C2 C 0.38406(15) -0.3931(3) 1.26054(12)
H1 H 0.42236(15) -0.5372(3) 1.26769(12)
C3 C 0.32939(14) -0.3408(3) 1.18107(10)
H2 H 0.32920(14) -0.4507(3) 1.13534(10)
C4 C 0.27458(13) -0.1270(3) 1.16806(10)
C5 C 0.27231(15) 0.0285(3) 1.23787(11)
H3 H 0.23394(15) 0.1724(3) 1.23059(11)
C6 C 0.32584(15) -0.0263(3) 1.31783(11)
H4 H 0.32295(15) 0.0808(3) 1.36432(11)
C7 C 0.22228(13) -0.0651(3) 1.08119(10)
C8 C 0.16821(13) -0.2139(3) 1.0173(1)
H5 H 0.15629(13) -0.3762(3) 1.02073(10)
C9 C 0.13807(13) -0.0699(3) 0.95103(10)
C10 C 0.08036(15) -0.0987(3) 0.86229(11)
H6 H 0.01903(15) 0.0183(3) 0.85448(11)
H7 H 0.13670(15) -0.0704(3) 0.81767(11)
C11 C 0.03111(15) -0.3314(3) 0.84962(10)
C12 C 0.4452(2) -0.2944(4) 1.41627(13)
H8 H 0.5274(2) -0.3045(29) 1.4082(3)
H9 H 0.4175(11) -0.4431(15) 1.4375(6)
H10 H 0.4304(12) -0.1728(15) 1.4585(3)
#END
