
#######################################################################
#
#                 Cambridge Crystallographic Data Centre
#                                CCDC
#
#######################################################################
#
# If this CIF has been generated from an entry in the Cambridge
# Structural Database, then it will include bibliographic, chemical,
# crystal, experimental, refinement or atomic coordinate data resulting
# from the CCDC's data processing and validation procedures.
#
#######################################################################

data_CSD_CIF_TEJQII
_audit_creation_date 1996-10-31
_audit_creation_method CSD-ConQuest-V1
_database_code_CSD TEJQII
_database_code_depnum_ccdc_archive 'CCDC 127244'
_chemical_formula_sum 'C20 H22 N2 O5'
_chemical_formula_moiety
;
C20 H22 N2 O5
;
_journal_coeditor_code "IUCr NA1225"
_journal_coden_Cambridge 591
_journal_volume 52
_journal_year 1996
_journal_page_first 2356
_journal_name_full 'Acta Crystallogr.,Sect.C:Cryst.Struct.Commun. '
loop_
_publ_author_name
"A.D.Morales"
"S.Garcia-Granda"
"M.S.Navarro"
"A.M.Diviu"
"R.E.Perez-Barquero"
_chemical_name_systematic
;
Methyl 
2,7,7-trimethyl-4-(3-nitrophenyl)-5-oxo-1,4,5,6,7,8-hexahydroquinoline-3-carbo
xylate
;
_chemical_melting_point 496
_cell_volume   3587.341
_exptl_crystal_colour 'colorless'
_exptl_crystal_density_diffrn 1.372
_exptl_special_details
;
Melting point range 496-497K

;
_diffrn_ambient_temperature ?
_diffrn_special_details
;
The study was carried out at room temperature,in the range 283-303K

;
#These two values have been output from a single CSD field.
_refine_ls_R_factor_gt 0.0502
_refine_ls_wR_factor_gt 0.0502
_symmetry_cell_setting orthorhombic
_symmetry_space_group_name_H-M 'P b c a'
_symmetry_Int_Tables_number 61
loop_
_symmetry_equiv_pos_site_id
_symmetry_equiv_pos_as_xyz
1 x,y,z
2 1/2-x,-y,1/2+z
3 1/2+x,1/2-y,-z
4 -x,1/2+y,1/2-z
5 -x,-y,-z
6 -1/2+x,y,-1/2-z
7 -1/2-x,-1/2+y,z
8 x,-1/2-y,-1/2+z
_cell_length_a 11.130(4)
_cell_length_b 13.028(4)
_cell_length_c 24.74(2)
_cell_angle_alpha 90
_cell_angle_beta 90
_cell_angle_gamma 90
_cell_formula_units_Z 8
loop_
_atom_type_symbol
_atom_type_radius_bond
C 0.68
H 0.23
N 0.68
O 0.68
loop_
_atom_site_label
_atom_site_type_symbol
_atom_site_fract_x
_atom_site_fract_y
_atom_site_fract_z
N1 N 0.1731(3) 0.8641(2) 0.31419(12)
H1 H 0.2283(31) 0.9044(27) 0.3018(13)
C1 C 0.1738(3) 0.7618(3) 0.29830(12)
C2 C 0.0867(3) 0.6979(2) 0.31661(12)
C3 C -0.0077(3) 0.7347(2) 0.35685(12)
H2 H -0.0852(3) 0.7055(2) 0.34602(12)
C4 C -0.0187(3) 0.8509(2) 0.35470(13)
C5 C -0.1305(3) 0.8980(3) 0.37088(13)
C6 C -0.1396(3) 1.0131(3) 0.36613(15)
H3 H -0.1988(3) 1.0375(3) 0.39190(15)
H4 H -0.1685(3) 1.0301(3) 0.33022(15)
C7 C -0.0211(3) 1.0703(2) 0.37600(14)
C8 C 0.0746(3) 1.0242(2) 0.33878(14)
H5 H 0.0622(3) 1.0500(2) 0.30243(14)
H6 H 0.1532(3) 1.0472(2) 0.35073(14)
C9 C 0.0737(3) 0.9092(3) 0.33724(13)
C10 C 0.2736(3) 0.7383(3) 0.25927(13)
H7 H 0.3216(3) 0.7987(3) 0.25388(13)
H8 H 0.2401(3) 0.7169(3) 0.22535(13)
H9 H 0.3229(3) 0.6844(3) 0.27365(13)
C11 C 0.0840(3) 0.5883(3) 0.30197(13)
O1 O 0.1612(2) 0.5386(2) 0.27901(10)
O2 O -0.0196(2) 0.5454(2) 0.31794(10)
C12 C -0.0308(4) 0.4353(3) 0.3108(2)
H10 H -0.1081(4) 0.4132(3) 0.3235(2)
H11 H 0.0311(4) 0.4011(3) 0.3310(2)
H12 H -0.0229(4) 0.4187(3) 0.2732(2)
C13 C 0.0185(3) 0.6993(2) 0.41442(13)
C14 C -0.0736(3) 0.6621(2) 0.44640(13)
H13 H -0.1512(3) 0.6573(2) 0.43271(13)
C15 C -0.0496(3) 0.6323(3) 0.49869(14)
C16 C 0.0631(4) 0.6370(3) 0.52096(14)
H14 H 0.0770(4) 0.6161(3) 0.55638(14)
C17 C 0.1548(4) 0.6734(3) 0.48907(15)
H15 H 0.2324(4) 0.6774(3) 0.50291(15)
C18 C 0.1324(3) 0.7042(3) 0.43663(14)
H16 H 0.1955(3) 0.7289(3) 0.41570(14)
N2 N -0.1503(3) 0.5931(2) 0.53163(13)
O3 O -0.2461(3) 0.5781(2) 0.51023(12)
O4 O -0.1326(3) 0.5761(3) 0.57949(12)
O5 O -0.2172(2) 0.8464(2) 0.38520(11)
C19 C -0.0367(4) 1.1843(3) 0.3626(2)
H17 H -0.0967(4) 1.2135(3) 0.3859(2)
H18 H -0.0615(4) 1.1914(3) 0.3256(2)
H19 H 0.0382(4) 1.2194(3) 0.3679(2)
C20 C 0.0170(4) 1.0592(3) 0.43530(14)
H20 H 0.0269(4) 0.9878(3) 0.44382(14)
H21 H -0.0437(4) 1.0883(3) 0.45823(14)
H22 H 0.0917(4) 1.0945(3) 0.44096(14)
#END
