
#######################################################################
#
#                 Cambridge Crystallographic Data Centre
#                                CCDC
#
#######################################################################
#
# If this CIF has been generated from an entry in the Cambridge
# Structural Database, then it will include bibliographic, chemical,
# crystal, experimental, refinement or atomic coordinate data resulting
# from the CCDC's data processing and validation procedures.
#
#######################################################################

data_CSD_CIF_TEJSUX
_audit_creation_date 2006-07-20
_audit_creation_method CSD-ConQuest-V1
_database_code_CSD TEJSUX
_database_code_depnum_ccdc_archive 'CCDC 610705'
_chemical_formula_sum 'C11 H14 N2 O5'
_chemical_formula_moiety
;
C11 H14 N2 O5
;
_journal_coeditor_code "IUCr BT2065"
_journal_coden_Cambridge 1370
_journal_volume 62
_journal_year 2006
_journal_page_first o2285
_journal_name_full 'Acta Crystallogr.,Sect.E:Struct.Rep.Online '
loop_
_publ_author_name
"N.Roque-Rosell"
"P.Cironi"
"X.Solans"
"F.Albericio"
"M.Alvarez"
_chemical_name_systematic
;
1-Hydroxy-6,7-dimethoxy-8-nitro-1,2,3,4-tetrahydroisoquinoline
;
_cell_volume    577.353
_exptl_crystal_colour 'colorless'
_exptl_crystal_density_diffrn 1.462
_exptl_crystal_description 'prism'
_exptl_crystal_preparation 'dichloromethane'
_diffrn_ambient_temperature 293
#These two values have been output from a single CSD field.
_refine_ls_R_factor_gt 0.0397
_refine_ls_wR_factor_gt 0.0397
_symmetry_cell_setting triclinic
_symmetry_space_group_name_H-M 'P -1'
_symmetry_Int_Tables_number 2
loop_
_symmetry_equiv_pos_site_id
_symmetry_equiv_pos_as_xyz
1 x,y,z
2 -x,-y,-z
_cell_length_a 8.587(7)
_cell_length_b 8.636(5)
_cell_length_c 8.746(14)
_cell_angle_alpha 80.04(9)
_cell_angle_beta 64.67(8)
_cell_angle_gamma 85.18(6)
_cell_formula_units_Z 2
loop_
_atom_type_symbol
_atom_type_radius_bond
C 0.68
H 0.23
N 0.68
O 0.68
loop_
_atom_site_label
_atom_site_type_symbol
_atom_site_fract_x
_atom_site_fract_y
_atom_site_fract_z
O1 O 0.4941(2) 0.28513(18) -0.00715(17)
O2 O 0.37603(17) 0.06798(18) 0.13553(15)
O3 O 0.22759(11) 0.38794(12) 0.64649(12)
O4 O 0.19553(11) 0.32718(12) 0.36703(12)
O5 O 0.85478(15) 0.19743(13) 0.00296(13)
N1 N 0.44888(14) 0.18835(16) 0.11867(14)
N2 N 0.88701(13) 0.00174(13) 0.20820(13)
H1 H 0.8327(15) -0.0867(9) 0.2887(14)
C1 C 0.47871(15) 0.21569(14) 0.26640(15)
C2 C 0.63061(14) 0.16565(14) 0.28067(15)
C3 C 0.64549(15) 0.19049(14) 0.42675(15)
C4 C 0.51163(15) 0.26338(15) 0.55289(15)
H2 H 0.52290 0.27760 0.65070
C5 C 0.36255(15) 0.31454(15) 0.53348(15)
C6 C 0.34426(14) 0.28961(15) 0.38693(15)
C7 C 0.77265(16) 0.08480(16) 0.14437(16)
H3 H 0.71950 0.00900 0.11030
C8 C 0.94764(17) 0.0979(2) 0.29013(19)
H4 H 0.99460 0.19440 0.21320
H5 H 1.03920 0.04260 0.31510
C9 C 0.80529(16) 0.13640(18) 0.45218(17)
H6 H 0.84230 0.21850 0.49180
H7 H 0.77910 0.04410 0.53940
C10 C 0.1826(2) 0.4874(2) 0.2966(2)
H8 H 0.28130 0.51300 0.18980
H9 H 0.17800 0.55480 0.37490
H10 H 0.07980 0.50190 0.27760
C11 C 0.2369(2) 0.41194(18) 0.79995(17)
H11 H 0.23110 0.31240 0.87070
H12 H 0.14230 0.47770 0.86060
H13 H 0.34360 0.46190 0.77160
H14 H 0.937(2) 0.154(2) -0.069(2)
#END
