
#######################################################################
#
#                 Cambridge Crystallographic Data Centre
#                                CCDC
#
#######################################################################
#
# If this CIF has been generated from an entry in the Cambridge
# Structural Database, then it will include bibliographic, chemical,
# crystal, experimental, refinement or atomic coordinate data resulting
# from the CCDC's data processing and validation procedures.
#
#######################################################################

data_CSD_CIF_TEJYUD
_audit_creation_date 2006-07-20
_audit_creation_method CSD-ConQuest-V1
_database_code_CSD TEJYUD
_database_code_depnum_ccdc_archive 'CCDC 277846'
_chemical_formula_sum 'C16 H27 N1 O4'
_chemical_formula_moiety
;
C16 H27 N1 O4
;
_journal_coden_Cambridge 1291
_journal_year 2006
_journal_page_first 1978
_journal_name_full 'Eur.J.Org.Chem. '
loop_
_publ_author_name
"K.Griesbaum"
"A.Frank"
"K.J.McCullough"
_chemical_name_systematic
;
syn-2-O-Methyloxime-16,17,18-trioxatricyclo(10.3.2.1)octadecane
;
_chemical_melting_point 340.15
_cell_volume   1589.484
_exptl_crystal_colour 'colorless'
_exptl_crystal_density_diffrn 1.243
_exptl_crystal_description 'blocks'
_exptl_crystal_preparation 'dichloromethane/ethanol'
_diffrn_ambient_temperature 160
#These two values have been output from a single CSD field.
_refine_ls_R_factor_gt 0.0628
_refine_ls_wR_factor_gt 0.0628
loop_
_citation_database_id_CSD
_citation_special_details
TEGDIT "is a stereoisomer of this entry"
_symmetry_cell_setting monoclinic
_symmetry_space_group_name_H-M 'P 21/c'
_symmetry_Int_Tables_number 14
loop_
_symmetry_equiv_pos_site_id
_symmetry_equiv_pos_as_xyz
1 x,y,z
2 -x,1/2+y,1/2-z
3 -x,-y,-z
4 x,-1/2-y,-1/2+z
_cell_length_a 13.500(2)
_cell_length_b 5.981(1)
_cell_length_c 20.162(3)
_cell_angle_alpha 90
_cell_angle_beta 102.48(1)
_cell_angle_gamma 90
_cell_formula_units_Z 4
loop_
_atom_type_symbol
_atom_type_radius_bond
C 0.68
H 0.23
N 0.68
O 0.68
loop_
_atom_site_label
_atom_site_type_symbol
_atom_site_fract_x
_atom_site_fract_y
_atom_site_fract_z
O1 O 0.31613(16) 0.6521(4) 0.23669(11)
O2 O 0.40849(17) 0.7262(4) 0.28613(11)
N1 N 0.0969(2) 0.5485(5) 0.19333(14)
C1 C 0.2362(2) 0.7982(6) 0.24929(15)
C2 C 0.1415(2) 0.6570(6) 0.24590(16)
O3 O 0.27382(16) 0.8731(4) 0.3171(1)
C3 C 0.0967(3) 0.6287(7) 0.30794(16)
H1 H 0.02210 0.61210 0.29370
H2 H 0.11110 0.76350 0.33690
O4 O 0.14735(18) 0.5675(4) 0.13885(11)
C4 C 0.1417(3) 0.4221(6) 0.34874(17)
H3 H 0.21650 0.43650 0.36060
H4 H 0.12490 0.28770 0.31980
C5 C 0.1025(3) 0.3892(7) 0.41433(17)
H5 H 0.02790 0.40860 0.40380
H6 H 0.11730 0.23410 0.43060
C6 C 0.1491(3) 0.5504(7) 0.47109(17)
H7 H 0.10780 0.54850 0.50610
H8 H 0.14660 0.70370 0.45230
C7 C 0.2597(3) 0.4930(7) 0.50477(18)
H9 H 0.25970 0.38290 0.54140
H10 H 0.29210 0.42160 0.47060
C8 C 0.3232(3) 0.6953(7) 0.53472(16)
H11 H 0.38820 0.64210 0.56300
H12 H 0.28670 0.77770 0.56470
C9 C 0.3455(3) 0.8555(7) 0.48059(17)
H13 H 0.28090 0.89320 0.44890
H14 H 0.37390 0.99570 0.50310
C10 C 0.4189(3) 0.7638(7) 0.43991(17)
H15 H 0.38900 0.62850 0.41510
H16 H 0.48250 0.71910 0.47150
C11 C 0.4437(3) 0.9334(7) 0.38886(17)
H17 H 0.43820 1.08560 0.40700
H18 H 0.51510 0.91130 0.38550
C12 C 0.3771(3) 0.9219(6) 0.31762(16)
C13 C 0.3847(3) 1.1326(7) 0.27680(16)
H19 H 0.45690 1.16390 0.27730
H20 H 0.35720 1.26100 0.29800
C14 C 0.3258(3) 1.1065(6) 0.20333(17)
H21 H 0.31590 1.25500 0.18120
H22 H 0.36520 1.01260 0.17780
C15 C 0.2229(3) 0.9984(6) 0.20154(17)
H23 H 0.17670 1.10860 0.21560
H24 H 0.19240 0.94930 0.15470
C16 C 0.0935(3) 0.4353(7) 0.08375(17)
H25 H 0.09370 0.27860 0.09800
H26 H 0.12660 0.44780 0.04510
H27 H 0.02340 0.48870 0.07030
#END
