
#######################################################################
#
#                 Cambridge Crystallographic Data Centre
#                                CCDC
#
#######################################################################
#
# If this CIF has been generated from an entry in the Cambridge
# Structural Database, then it will include bibliographic, chemical,
# crystal, experimental, refinement or atomic coordinate data resulting
# from the CCDC's data processing and validation procedures.
#
#######################################################################

data_CSD_CIF_TEKJIC
_audit_creation_date 1997-01-23
_audit_creation_method CSD-ConQuest-V1
_database_code_CSD TEKJIC
_database_code_depnum_ccdc_archive 'CCDC 127976'
_chemical_formula_sum 'C21 H17 N1 O3'
_chemical_formula_moiety
;
C21 H17 N1 O3
;
_journal_coeditor_code "IUCr BK1222"
_journal_coden_Cambridge 591
_journal_volume 52
_journal_year 1996
_journal_page_first 2513
_journal_name_full 'Acta Crystallogr.,Sect.C:Cryst.Struct.Commun. '
loop_
_publ_author_name
"M.D.Mosher"
"N.R.Natale"
"A.Vij"
_chemical_name_systematic
;
Ethyl 3-(9-anthryl)-5-methyl-4-isoxazolecarboxylate
;
_cell_volume   1711.873
_exptl_crystal_colour 'colorless'
_exptl_crystal_density_diffrn 1.286
_diffrn_ambient_temperature ?
_diffrn_special_details
;
The study was carried out at room temperature,in the range 283-303K

;
#These two values have been output from a single CSD field.
_refine_ls_R_factor_gt 0.047
_refine_ls_wR_factor_gt 0.047
_symmetry_cell_setting monoclinic
_symmetry_space_group_name_H-M 'P 21/n'
_symmetry_Int_Tables_number 14
loop_
_symmetry_equiv_pos_site_id
_symmetry_equiv_pos_as_xyz
1 x,y,z
2 1/2-x,1/2+y,1/2-z
3 -x,-y,-z
4 -1/2+x,-1/2-y,-1/2+z
_cell_length_a 10.2743(1)
_cell_length_b 9.6211(2)
_cell_length_c 17.3827(4)
_cell_angle_alpha 90
_cell_angle_beta 94.950(1)
_cell_angle_gamma 90
_cell_formula_units_Z 4
loop_
_atom_type_symbol
_atom_type_radius_bond
C 0.68
H 0.23
N 0.68
O 0.68
loop_
_atom_site_label
_atom_site_type_symbol
_atom_site_fract_x
_atom_site_fract_y
_atom_site_fract_z
O1 O 0.22814(13) 0.5969(2) 0.31699(9)
O2 O 0.34404(14) 0.1845(2) 0.37676(10)
O3 O 0.13194(14) 0.14641(15) 0.34434(10)
N1 N 0.0936(2) 0.5666(2) 0.29924(10)
C1 C 0.0829(2) 0.4325(2) 0.30851(11)
C2 C 0.2063(2) 0.3707(2) 0.33265(11)
C3 C 0.2916(2) 0.4784(2) 0.33683(12)
C4 C 0.4344(3) 0.4912(4) 0.3584(3)
H1 H 0.4734(34) 0.4071(43) 0.3481(21)
H2 H 0.4683(39) 0.5561(47) 0.3278(25)
H3 H 0.4485(45) 0.5068(48) 0.4081(29)
C5 C 0.2378(2) 0.2258(2) 0.35330(12)
C6 C 0.1431(3) 0.0036(3) 0.3708(2)
H4 H 0.2023(32) -0.0449(37) 0.3419(19)
H5 H 0.1908(33) 0.0079(33) 0.4260(21)
C7 C 0.0101(5) -0.0499(5) 0.3702(5)
H6 H 0.0129(39) -0.1333(53) 0.3848(25)
H7 H -0.0495(54) -0.0251(58) 0.3319(33)
H8 H 0.0206(38) 0.0045(40) 0.4324(22)
C8 C -0.0474(2) 0.3649(2) 0.29457(11)
C9 C -0.0960(2) 0.3308(2) 0.21868(12)
C10 C -0.0335(2) 0.3707(2) 0.15184(13)
H9 H 0.0433(21) 0.4267(23) 0.1592(12)
C11 C -0.0842(3) 0.3325(3) 0.08003(15)
H10 H -0.0401(23) 0.3665(26) 0.0355(15)
C12 C -0.1978(3) 0.2492(3) 0.0703(2)
H11 H -0.2292(26) 0.2186(29) 0.0187(17)
C13 C -0.2604(3) 0.2103(3) 0.1314(2)
H12 H -0.3382(25) 0.1565(26) 0.1268(14)
C14 C -0.2149(2) 0.2515(2) 0.20774(13)
C15 C -0.2826(2) 0.2179(2) 0.27087(14)
H13 H -0.3666(24) 0.1681(24) 0.2632(13)
C16 C -0.2382(2) 0.2572(2) 0.34538(13)
C17 C -0.3089(2) 0.2259(3) 0.4109(2)
H14 H -0.3899(24) 0.1803(25) 0.4004(13)
C18 C -0.2626(2) 0.2627(3) 0.4829(2)
H15 H -0.3108(24) 0.2415(27) 0.5273(15)
C19 C -0.1416(2) 0.3325(3) 0.49531(15)
H16 H -0.1108(22) 0.3546(24) 0.5467(14)
C20 C -0.0712(2) 0.3641(2) 0.43541(12)
H17 H 0.0129(20) 0.4075(22) 0.4451(11)
C21 C -0.1166(2) 0.3299(2) 0.35788(12)
#END
