
#######################################################################
#
#                 Cambridge Crystallographic Data Centre
#                                CCDC
#
#######################################################################
#
# If this CIF has been generated from an entry in the Cambridge
# Structural Database, then it will include bibliographic, chemical,
# crystal, experimental, refinement or atomic coordinate data resulting
# from the CCDC's data processing and validation procedures.
#
#######################################################################

data_CSD_CIF_TEKNOM
_audit_creation_date 1997-01-23
_audit_creation_method CSD-ConQuest-V1
_database_code_CSD TEKNOM
_database_code_depnum_ccdc_archive 'CCDC 127981'
_chemical_formula_sum 'C26 H31 N1 O3'
_chemical_formula_moiety
;
C26 H31 N1 O3
;
_journal_coeditor_code "IUCr BK1243"
_journal_coden_Cambridge 591
_journal_volume 52
_journal_year 1996
_journal_page_first 2561
_journal_name_full 'Acta Crystallogr.,Sect.C:Cryst.Struct.Commun. '
loop_
_publ_author_name
"J.A.Dixon"
"K.A.Swiss"
"S.E.Denmark"
_chemical_name_systematic
;
rel-(1R,6S,7S,8R,9S)-9-Methyl-8-phenyl-6-((1S,2R)-(2-phenylcyclohexyl)oxy)-4-a
za-3,5-dioxatricyclo(5.2.1.0^4,9^)decane
;
_chemical_melting_point 414
_cell_volume   1082.961
_exptl_crystal_colour 'colorless'
_exptl_crystal_density_diffrn 1.244
_exptl_special_details
;
Melting point range 414-415K

;
_diffrn_ambient_temperature 198
#These two values have been output from a single CSD field.
_refine_ls_R_factor_gt 0.049
_refine_ls_wR_factor_gt 0.049
_symmetry_cell_setting triclinic
_symmetry_space_group_name_H-M 'P -1'
_symmetry_Int_Tables_number 2
loop_
_symmetry_equiv_pos_site_id
_symmetry_equiv_pos_as_xyz
1 x,y,z
2 -x,-y,-z
_cell_length_a 9.8583(3)
_cell_length_b 10.7631(1)
_cell_length_c 11.3841(3)
_cell_angle_alpha 64.636(2)
_cell_angle_beta 84.154(2)
_cell_angle_gamma 83.762(2)
_cell_formula_units_Z 2
loop_
_atom_type_symbol
_atom_type_radius_bond
C 0.68
H 0.23
N 0.68
O 0.68
loop_
_atom_site_label
_atom_site_type_symbol
_atom_site_fract_x
_atom_site_fract_y
_atom_site_fract_z
N1 N -0.1928(2) -0.9614(2) -0.18496(14)
O1 O -0.09332(14) -1.06328(14) -0.11524(12)
O2 O -0.18825(12) -0.86268(14) -0.12362(11)
O3 O -0.34653(11) -0.67515(13) -0.23103(11)
C1 C -0.1260(2) -0.9053(2) -0.3214(2)
C2 C 0.0428(2) -1.0128(2) -0.1654(2)
H1 H 0.1067(2) -1.0864(2) -0.1739(2)
H2 H 0.0803(2) -0.9810(2) -0.1063(2)
C3 C 0.0220(2) -0.8936(2) -0.2978(2)
H3 H 0.0875(2) -0.9047(2) -0.3663(2)
C4 C 0.0213(2) -0.7475(2) -0.3035(2)
H4 H 0.0875(2) -0.6923(2) -0.3731(2)
H5 H 0.0458(2) -0.7524(2) -0.2194(2)
C5 C -0.1262(2) -0.6825(2) -0.3331(2)
H6 H -0.1291(2) -0.5806(2) -0.3867(2)
C6 C -0.1849(2) -0.7582(2) -0.4017(2)
H7 H -0.2867(2) -0.7548(2) -0.3861(2)
C7 C -0.2086(2) -0.7209(2) -0.2039(2)
H8 H -0.1759(2) -0.6691(2) -0.1586(2)
C8 C -0.1478(2) -1.0105(2) -0.3721(2)
H9 H -0.1118(11) -0.9785(6) -0.4629(4)
H10 H -0.2458(2) -1.0222(9) -0.3669(11)
H11 H -0.0999(10) -1.0989(4) -0.3191(7)
C9 C -0.1498(2) -0.7084(2) -0.5469(2)
C10 C -0.2441(2) -0.7189(2) -0.6238(2)
H12 H -0.3298(2) -0.7540(2) -0.5851(2)
C11 C -0.2158(2) -0.6794(3) -0.7557(2)
H13 H -0.2818(2) -0.6887(3) -0.8062(2)
C12 C -0.0936(3) -0.6268(2) -0.8147(2)
H14 H -0.0745(3) -0.6001(2) -0.9054(2)
C13 C 0.0007(2) -0.6132(2) -0.7413(2)
H15 H 0.0853(2) -0.5760(2) -0.7813(2)
C14 C -0.0272(2) -0.6538(2) -0.6086(2)
H16 H 0.0392(2) -0.6439(2) -0.5588(2)
C15 C -0.4478(2) -0.7309(2) -0.1256(2)
H17 H -0.4383(2) -0.8338(2) -0.0900(2)
C16 C -0.5853(2) -0.6788(2) -0.1869(2)
H18 H -0.5898(2) -0.5758(2) -0.2272(2)
C17 C -0.7023(2) -0.7240(2) -0.0812(2)
H19 H -0.7902(2) -0.6824(2) -0.1212(2)
H20 H -0.7046(2) -0.8255(2) -0.0445(2)
C18 C -0.6873(2) -0.6818(2) 0.0287(2)
H21 H -0.6957(2) -0.5800(2) -0.0057(2)
H22 H -0.7616(2) -0.7182(2) 0.0969(2)
C19 C -0.5507(2) -0.7362(2) 0.0877(2)
H23 H -0.5460(2) -0.8382(2) 0.1303(2)
H24 H -0.5413(2) -0.7030(2) 0.1551(2)
C20 C -0.4333(2) -0.6884(2) -0.0168(2)
H25 H -0.4326(2) -0.5868(2) -0.0532(2)
H26 H -0.3452(2) -0.7290(2) 0.0233(2)
C21 C -0.5993(2) -0.7238(2) -0.2942(2)
C22 C -0.6178(2) -0.6277(2) -0.4212(2)
H27 H -0.6224(2) -0.5323(2) -0.4409(2)
C23 C -0.6299(2) -0.6678(2) -0.5198(2)
H28 H -0.6425(2) -0.6000(2) -0.6060(2)
C24 C -0.6237(2) -0.8054(2) -0.4934(2)
H29 H -0.6315(2) -0.8330(2) -0.5612(2)
C25 C -0.6062(2) -0.9034(2) -0.3676(2)
H30 H -0.6022(2) -0.9987(2) -0.3485(2)
C26 C -0.5944(2) -0.8622(2) -0.2693(2)
H31 H -0.5828(2) -0.9302(2) -0.1830(2)
#END
