
#######################################################################
#
#                 Cambridge Crystallographic Data Centre
#                                CCDC
#
#######################################################################
#
# If this CIF has been generated from an entry in the Cambridge
# Structural Database, then it will include bibliographic, chemical,
# crystal, experimental, refinement or atomic coordinate data resulting
# from the CCDC's data processing and validation procedures.
#
#######################################################################

data_CSD_CIF_TELNUT
_audit_creation_date 1996-12-16
_audit_creation_method CSD-ConQuest-V1
_database_code_CSD TELNUT
_database_code_depnum_ccdc_archive 'CCDC 128072'
_chemical_formula_sum 'C23 H26 N2 O4'
_chemical_formula_moiety
;
C23 H26 N2 O4
;
_journal_coeditor_code "IUCr AB1390"
_journal_coden_Cambridge 591
_journal_volume 52
_journal_year 1996
_journal_page_first 2811
_journal_name_full 'Acta Crystallogr.,Sect.C:Cryst.Struct.Commun. '
loop_
_publ_author_name
"M.Brito-Arias"
"G.Ramirez"
"R.E.Rivas"
"E.Molins"
"W.Maniukiewicz"
_chemical_name_systematic
;
3,3,6,6-Tetramethyl-9-(2-nitrophenyl)-3,4,5,6,9,10-hexahydroacridine-1,8(2H,7H
)-dione
;
_cell_volume   4092.767
_exptl_crystal_colour 'colorless'
_exptl_crystal_density_diffrn 1.28
_exptl_special_details
;
potential acetylcholinesterase inhibitory drug

;
_diffrn_ambient_temperature ?
_diffrn_special_details
;
The study was carried out at room temperature,in the range 283-303K

;
#These two values have been output from a single CSD field.
_refine_ls_R_factor_gt 0.0625
_refine_ls_wR_factor_gt 0.0625
_symmetry_cell_setting monoclinic
_symmetry_space_group_name_H-M 'C 2/c'
_symmetry_Int_Tables_number 15
loop_
_symmetry_equiv_pos_site_id
_symmetry_equiv_pos_as_xyz
1 x,y,z
2 -x,y,1/2-z
3 1/2+x,1/2+y,z
4 1/2-x,1/2+y,1/2-z
5 -x,-y,-z
6 x,-y,-1/2+z
7 -1/2-x,-1/2-y,-z
8 -1/2+x,-1/2-y,-1/2+z
_cell_length_a 26.542(4)
_cell_length_b 10.089(1)
_cell_length_c 20.922(3)
_cell_angle_alpha 90
_cell_angle_beta 133.07(2)
_cell_angle_gamma 90
_cell_formula_units_Z 8
loop_
_atom_type_symbol
_atom_type_radius_bond
C 0.68
H 0.23
N 0.68
O 0.68
loop_
_atom_site_label
_atom_site_type_symbol
_atom_site_fract_x
_atom_site_fract_y
_atom_site_fract_z
O1 O 0.27280(5) 0.79254(12) -0.13038(6)
O2 O 0.15884(6) 0.5656(2) -0.19088(8)
O3 O 0.16826(8) 0.5629(2) -0.28462(7)
O4 O 0.21588(5) 0.40519(13) -0.01950(7)
N1 N 0.19143(7) 0.54248(14) -0.21117(7)
N2 N 0.40824(5) 0.68628(11) 0.16619(5)
H1 H 0.44472(5) 0.70476(11) 0.21941(5)
C1 C 0.32343(6) 0.81284(14) -0.05321(7)
C2 C 0.37179(7) 0.9261(2) -0.02492(9)
H2 H 0.35277(7) 1.0061(2) -0.02265(9)
H3 H 0.37389(7) 0.9393(2) -0.06897(9)
C3 C 0.44488(6) 0.90732(15) 0.06343(8)
C4 C 0.48206(8) 0.7981(2) 0.05830(12)
H4 H 0.5279(3) 0.7872(11) 0.1146(3)
H5 H 0.4845(7) 0.8223(8) 0.0161(8)
H6 H 0.4571(5) 0.7164(4) 0.041(1)
C5 C 0.48544(8) 1.0370(2) 0.09296(11)
H7 H 0.5308(3) 1.0249(5) 0.1497(4)
H8 H 0.4620(4) 1.1056(4) 0.0959(9)
H9 H 0.4890(7) 1.0618(8) 0.0518(5)
C6 C 0.44040(7) 0.8688(2) 0.12999(8)
H10 H 0.48577(7) 0.8428(2) 0.18429(8)
H11 H 0.42575(7) 0.9451(2) 0.14202(8)
C7 C 0.39132(6) 0.75805(14) 0.09809(7)
C8 C 0.36573(6) 0.58449(14) 0.14760(7)
C9 C 0.38781(7) 0.5265(2) 0.22900(8)
H12 H 0.36798(7) 0.5779(2) 0.24644(8)
H13 H 0.43761(7) 0.5321(2) 0.27564(8)
C10 C 0.36542(6) 0.3810(2) 0.21646(8)
C11 C 0.40640(8) 0.2917(2) 0.20701(11)
H14 H 0.45457(11) 0.2974(11) 0.2590(4)
H15 H 0.3993(6) 0.3197(9) 0.1575(6)
H16 H 0.3912(5) 0.2017(3) 0.1986(10)
C12 C 0.37747(8) 0.3357(2) 0.29575(10)
H17 H 0.4246(2) 0.3520(13) 0.34822(12)
H18 H 0.3678(7) 0.2427(4) 0.2909(5)
H19 H 0.3475(5) 0.3841(10) 0.2979(5)
C13 C 0.28885(7) 0.3733(2) 0.13395(9)
H20 H 0.27544(7) 0.2807(2) 0.12092(9)
H21 H 0.26303(7) 0.4149(2) 0.14585(9)
C14 C 0.26834(6) 0.43757(15) 0.05385(8)
C15 C 0.31186(6) 0.54523(13) 0.06640(7)
C16 C 0.29276(5) 0.60729(13) -0.01366(7)
C17 C 0.33771(5) 0.72772(13) 0.01457(7)
H22 H 0.24416(5) 0.63393(13) -0.05511(7)
C18 C 0.30496(6) 0.50982(13) -0.05780(7)
C19 C 0.26017(6) 0.48387(14) -0.14736(8)
C20 C 0.27833(8) 0.4007(2) -0.18217(9)
H23 H 0.24765(8) 0.3866(2) -0.24223(9)
C21 C 0.34165(8) 0.3398(2) -0.12745(11)
H24 H 0.35349(8) 0.2821(2) -0.15009(11)
C22 C 0.38741(8) 0.3644(2) -0.03918(12)
H25 H 0.43073(8) 0.3248(2) -0.00198(12)
C23 C 0.36894(7) 0.4484(2) -0.00549(9)
H26 H 0.40066(7) 0.4641(2) 0.05445(9)
#END
