
#######################################################################
#
#                 Cambridge Crystallographic Data Centre
#                                CCDC
#
#######################################################################
#
# If this CIF has been generated from an entry in the Cambridge
# Structural Database, then it will include bibliographic, chemical,
# crystal, experimental, refinement or atomic coordinate data resulting
# from the CCDC's data processing and validation procedures.
#
#######################################################################

data_CSD_CIF_TELWIQ
_audit_creation_date 1996-12-16
_audit_creation_method CSD-ConQuest-V1
_database_code_CSD TELWIQ
_database_code_depnum_ccdc_archive 'CCDC 128180'
_chemical_formula_sum 'C13 H15 N3 O4'
_chemical_formula_moiety
;
C13 H15 N3 O4
;
_journal_coeditor_code "IUCr SK1016"
_journal_coden_Cambridge 591
_journal_volume 52
_journal_year 1996
_journal_page_first 2880
_journal_name_full 'Acta Crystallogr.,Sect.C:Cryst.Struct.Commun. '
loop_
_publ_author_name
"D.Tranqui"
"H.Elfrom"
"H.Pera"
"G.Leclerc"
_chemical_name_systematic
;
(Z)-3-(4-Nitrobenzyloximino)hexahydroazepin-2-one
;
_cell_volume   2711.314
_exptl_crystal_colour 'colorless'
_exptl_crystal_density_diffrn 1.359
_exptl_special_details
;
potent relaxant activity with promising anticonvulsant activity

;
_diffrn_ambient_temperature ?
_diffrn_special_details
;
The study was carried out at room temperature,in the range 283-303K

;
#These two values have been output from a single CSD field.
_refine_ls_R_factor_gt 0.0406
_refine_ls_wR_factor_gt 0.0406
loop_
_citation_database_id_CSD
_citation_special_details
RIMTAI "is a stereoisomer of this entry"
_symmetry_cell_setting monoclinic
_symmetry_space_group_name_H-M 'C 2/c'
_symmetry_Int_Tables_number 15
loop_
_symmetry_equiv_pos_site_id
_symmetry_equiv_pos_as_xyz
1 x,y,z
2 -x,y,1/2-z
3 1/2+x,1/2+y,z
4 1/2-x,1/2+y,1/2-z
5 -x,-y,-z
6 x,-y,-1/2+z
7 -1/2-x,-1/2-y,-z
8 -1/2+x,-1/2-y,-1/2+z
_cell_length_a 21.141(5)
_cell_length_b 9.610(3)
_cell_length_c 13.980(4)
_cell_angle_alpha 90
_cell_angle_beta 107.33(8)
_cell_angle_gamma 90
_cell_formula_units_Z 8
loop_
_atom_type_symbol
_atom_type_radius_bond
C 0.68
H 0.23
N 0.68
O 0.68
loop_
_atom_site_label
_atom_site_type_symbol
_atom_site_fract_x
_atom_site_fract_y
_atom_site_fract_z
O1 O -0.1296(2) -0.0324(4) 0.3175(3)
O2 O -0.1035(2) 0.1815(5) 0.3265(4)
O3 O 0.2229(2) 0.0128(4) 0.4318(3)
O4 O 0.4306(2) 0.0298(4) 0.5503(3)
N1 N -0.0881(2) 0.0613(6) 0.3355(3)
N2 N 0.2906(2) -0.0249(4) 0.4644(3)
N3 N 0.4237(2) 0.0182(4) 0.3871(3)
H1 H 0.4662(2) 0.0197(4) 0.4017(3)
C1 C -0.0175(2) 0.0228(5) 0.3681(3)
C2 C 0.0002(2) -0.1129(5) 0.3859(4)
H2 H -0.0321(2) -0.1814(5) 0.3773(4)
C3 C 0.0657(2) -0.1476(5) 0.4167(3)
H3 H 0.0780(2) -0.2405(5) 0.4279(3)
C4 C 0.1145(2) -0.0450(5) 0.4316(3)
C5 C 0.0952(3) 0.0907(5) 0.4121(4)
H4 H 0.1272(3) 0.1598(5) 0.4199(4)
C6 C 0.0291(3) 0.1265(5) 0.3810(3)
H5 H 0.0163(3) 0.2190(5) 0.3689(3)
C7 C 0.1859(2) -0.0846(6) 0.4697(4)
H6 H 0.2005(2) -0.0833(6) 0.5424(4)
H7 H 0.1923(2) -0.1777(6) 0.4475(4)
C8 C 0.3252(2) 0.0633(5) 0.4322(3)
C9 C 0.3983(2) 0.0329(5) 0.4619(4)
C10 C 0.3863(3) -0.0005(7) 0.2816(4)
H8 H 0.3550(3) -0.0759(7) 0.2770(4)
H9 H 0.4169(3) -0.0294(7) 0.2458(4)
C11 C 0.3494(3) 0.1221(7) 0.2298(4)
H10 H 0.3373(3) 0.1058(7) 0.1581(4)
H11 H 0.3787(3) 0.2020(7) 0.2444(4)
C12 C 0.2868(2) 0.1581(6) 0.2573(4)
H12 H 0.2558(2) 0.0812(6) 0.2386(4)
H13 H 0.2661(2) 0.2391(6) 0.2192(4)
C13 C 0.3004(3) 0.1883(5) 0.3688(4)
H14 H 0.3331(3) 0.2621(5) 0.3883(4)
H15 H 0.2600(3) 0.2206(5) 0.3807(4)
#END
