
#######################################################################
#
#                 Cambridge Crystallographic Data Centre
#                                CCDC
#
#######################################################################
#
# If this CIF has been generated from an entry in the Cambridge
# Structural Database, then it will include bibliographic, chemical,
# crystal, experimental, refinement or atomic coordinate data resulting
# from the CCDC's data processing and validation procedures.
#
#######################################################################

data_CSD_CIF_TELYIS
_audit_creation_date 1996-12-16
_audit_creation_method CSD-ConQuest-V1
_database_code_CSD TELYIS
_database_code_depnum_ccdc_archive 'CCDC 128138'
_chemical_formula_sum 'C28 H37 N1 O3'
_chemical_formula_moiety
;
C28 H37 N1 O3
;
_journal_coeditor_code "IUCr KA1197"
_journal_coden_Cambridge 591
_journal_volume 52
_journal_year 1996
_journal_page_first 2899
_journal_name_full 'Acta Crystallogr.,Sect.C:Cryst.Struct.Commun. '
loop_
_publ_author_name
"Z.Bocskei"
"T.Gerczei"
"A.Bodor"
"R.Schwartz"
"G.Naray-Szabo"
_chemical_name_systematic
;
anti-3-Benzyloxyimino-4-androsten-17\b-yl acetate
;
_chemical_melting_point 379
_cell_volume   2490.680
_exptl_crystal_density_diffrn 1.162
_exptl_special_details
;
Melting point range 379-382K

;
_diffrn_ambient_temperature ?
_diffrn_special_details
;
The study was carried out at room temperature,in the range 283-303K

;
#These two values have been output from a single CSD field.
_refine_ls_R_factor_gt 0.052
_refine_ls_wR_factor_gt 0.052
loop_
_citation_database_id_CSD
_citation_special_details
TELYOY "is a stereoisomer of this entry"
_symmetry_cell_setting orthorhombic
_symmetry_space_group_name_H-M 'P 21 21 21'
_symmetry_Int_Tables_number 19
loop_
_symmetry_equiv_pos_site_id
_symmetry_equiv_pos_as_xyz
1 x,y,z
2 1/2-x,-y,1/2+z
3 1/2+x,1/2-y,-z
4 -x,1/2+y,1/2-z
_cell_length_a 10.207(5)
_cell_length_b 40.174(7)
_cell_length_c 6.074(13)
_cell_angle_alpha 90
_cell_angle_beta 90
_cell_angle_gamma 90
_cell_formula_units_Z 4
loop_
_atom_type_symbol
_atom_type_radius_bond
C 0.68
H 0.23
N 0.68
O 0.68
loop_
_atom_site_label
_atom_site_type_symbol
_atom_site_fract_x
_atom_site_fract_y
_atom_site_fract_z
O1 O 0.3490(5) 0.81429(10) 0.8803(9)
O2 O 0.0704(5) 0.54522(11) 0.3830(9)
O3 O -0.0311(10) 0.5138(2) 0.6270(15)
N1 N 0.4325(6) 0.78668(13) 0.9160(11)
C1 C 0.2309(7) 0.72631(14) 0.6098(14)
H1 H 0.1885(7) 0.72002(14) 0.7464(14)
H2 H 0.1647(7) 0.72646(14) 0.4952(14)
C2 C 0.2872(7) 0.76176(15) 0.6344(14)
H3 H 0.3175(7) 0.76964(15) 0.4924(14)
H4 H 0.2189(7) 0.77669(15) 0.6851(14)
C3 C 0.3981(7) 0.7621(2) 0.7943(13)
C4 C 0.4776(7) 0.73215(14) 0.8101(12)
H5 H 0.5504(7) 0.73253(14) 0.9023(12)
C5 C 0.4522(6) 0.70412(15) 0.6996(11)
C6 C 0.5453(6) 0.67513(14) 0.7193(14)
H6 H 0.6063(6) 0.67930(14) 0.8386(14)
H7 H 0.5954(6) 0.67310(14) 0.5843(14)
C7 C 0.4728(7) 0.64256(14) 0.7628(14)
H8 H 0.5352(7) 0.62434(14) 0.7632(14)
H9 H 0.4323(7) 0.64352(14) 0.9071(14)
C8 C 0.3692(6) 0.63589(14) 0.5926(11)
H10 H 0.4119(6) 0.63437(14) 0.4484(11)
C9 C 0.2704(7) 0.66482(14) 0.5849(11)
H11 H 0.2304(7) 0.66541(14) 0.7315(11)
C10 C 0.3346(7) 0.70016(15) 0.5528(11)
C11 C 0.1587(7) 0.6580(2) 0.4276(15)
H12 H 0.1915(7) 0.6587(2) 0.2778(15)
H13 H 0.0933(7) 0.6754(2) 0.4431(15)
C12 C 0.0941(7) 0.62397(15) 0.4688(14)
H14 H 0.0508(7) 0.62425(15) 0.6110(14)
H15 H 0.0280(7) 0.62003(15) 0.3571(14)
C13 C 0.1918(7) 0.59626(15) 0.4642(11)
C14 C 0.2976(6) 0.60366(13) 0.6343(11)
H16 H 0.2512(6) 0.60679(13) 0.7740(11)
C15 C 0.3701(7) 0.57073(14) 0.6565(15)
H17 H 0.4372(7) 0.56868(14) 0.5442(15)
H18 H 0.4110(7) 0.56891(14) 0.8002(15)
C16 C 0.2652(7) 0.5441(2) 0.6273(15)
H19 H 0.2489(7) 0.5327(2) 0.7652(15)
H20 H 0.2920(7) 0.5279(2) 0.5179(15)
C17 C 0.1419(7) 0.5628(2) 0.5509(13)
H21 H 0.0845(7) 0.5666(2) 0.6776(13)
C18 C 0.2463(9) 0.5904(2) 0.2333(13)
H22 H 0.3085(9) 0.5725(2) 0.2371(13)
H23 H 0.2887(9) 0.6103(2) 0.1823(13)
H24 H 0.1759(9) 0.5848(2) 0.1352(13)
C19 C 0.3807(9) 0.7042(2) 0.3094(12)
H25 H 0.3070(9) 0.7018(2) 0.2125(12)
H26 H 0.4449(9) 0.6875(2) 0.2758(12)
H27 H 0.4186(9) 0.7259(2) 0.2900(12)
C20 C 0.3870(7) 0.83998(14) 1.0270(12)
H28 H 0.4800(7) 0.84436(14) 1.0119(12)
H29 H 0.3701(7) 0.83324(14) 1.1777(12)
C21 C 0.3103(7) 0.8708(2) 0.9737(13)
C22 C 0.2469(7) 0.8744(2) 0.7785(15)
H30 H 0.2486(7) 0.8573(2) 0.6754(15)
C23 C 0.1799(9) 0.9035(2) 0.7330(16)
H31 H 0.1369(9) 0.9058(2) 0.5987(16)
C24 C 0.1754(8) 0.9290(2) 0.8806(16)
H32 H 0.1306(8) 0.9485(2) 0.8481(16)
C25 C 0.2378(8) 0.9252(2) 1.0763(17)
H33 H 0.2356(8) 0.9423(2) 1.1799(17)
C26 C 0.3042(7) 0.8962(2) 1.1216(14)
H34 H 0.3461(7) 0.8939(2) 1.2567(14)
C27 C -0.0148(9) 0.5222(2) 0.4394(20)
C28 C -0.0798(8) 0.5072(2) 0.2445(19)
H35 H -0.0505(8) 0.5183(2) 0.1134(19)
H36 H -0.1730(8) 0.5096(2) 0.2581(19)
H37 H -0.0579(8) 0.4840(2) 0.2361(19)
#END
