
#######################################################################
#
#                 Cambridge Crystallographic Data Centre
#                                CCDC
#
#######################################################################
#
# If this CIF has been generated from an entry in the Cambridge
# Structural Database, then it will include bibliographic, chemical,
# crystal, experimental, refinement or atomic coordinate data resulting
# from the CCDC's data processing and validation procedures.
#
#######################################################################

data_CSD_CIF_TEMWUD
_audit_creation_date 1997-02-21
_audit_creation_method CSD-ConQuest-V1
_database_code_CSD TEMWUD
_chemical_formula_sum 'C6 H5 N1 O4'
_chemical_formula_moiety
;
C6 H5 N1 O4
;
_journal_coden_Cambridge 1003
_journal_volume 26
_journal_year 1996
_journal_page_first 191
_journal_name_full 'J.Chem.Cryst. '
loop_
_publ_author_name
"C.R.Ojala"
"W.H.Ojala"
"D.Britton"
_chemical_name_systematic
;
2-Nitroresorcinol
;
_cell_volume    320.747
_exptl_crystal_colour 'orange'
_exptl_crystal_density_diffrn 1.606
_exptl_special_details
;
Intramolecular hydrogen bonding between the hydroxy and nitro groups

;
_diffrn_ambient_temperature 173.15
#These two values have been output from a single CSD field.
_refine_ls_R_factor_gt 0.036
_refine_ls_wR_factor_gt 0.036
_symmetry_cell_setting triclinic
_symmetry_space_group_name_H-M 'P -1'
_symmetry_Int_Tables_number 2
loop_
_symmetry_equiv_pos_site_id
_symmetry_equiv_pos_as_xyz
1 x,y,z
2 -x,-y,-z
_cell_length_a 7.083(2)
_cell_length_b 7.696(2)
_cell_length_c 6.607(2)
_cell_angle_alpha 74.61(2)
_cell_angle_beta 77.81(2)
_cell_angle_gamma 68.64(2)
_cell_formula_units_Z 2
loop_
_atom_type_symbol
_atom_type_radius_bond
C 0.68
H 0.23
N 0.68
O 0.68
loop_
_atom_site_label
_atom_site_type_symbol
_atom_site_fract_x
_atom_site_fract_y
_atom_site_fract_z
O1 O 0.1621(1) 0.4516(1) -0.1643(2)
O2 O 0.7440(2) 0.6847(2) -0.3575(2)
O3 O 0.1169(1) 0.8079(1) -0.2512(2)
O4 O 0.3733(2) 0.9115(1) -0.3405(2)
N1 N 0.3039(2) 0.7768(2) -0.2850(2)
C1 C 0.4407(2) 0.5852(2) -0.2620(2)
C2 C 0.3616(2) 0.4314(2) -0.2023(2)
C3 C 0.4962(2) 0.2461(2) -0.1814(2)
C4 C 0.7050(2) 0.2131(2) -0.2187(2)
C5 C 0.7851(2) 0.3607(2) -0.2775(2)
C6 C 0.6560(2) 0.5483(2) -0.2999(2)
H1 H 0.101(3) 0.568(3) -0.182(4)
H2 H 0.650(4) 0.796(4) -0.373(4)
#END
