
#######################################################################
#
#                 Cambridge Crystallographic Data Centre
#                                CCDC
#
#######################################################################
#
# If this CIF has been generated from an entry in the Cambridge
# Structural Database, then it will include bibliographic, chemical,
# crystal, experimental, refinement or atomic coordinate data resulting
# from the CCDC's data processing and validation procedures.
#
#######################################################################

data_CSD_CIF_TEQNIO
_audit_creation_date 2013-04-24
_audit_creation_method CSD-ConQuest-V1
_database_code_CSD TEQNIO
_database_code_depnum_ccdc_archive 'CCDC 876970'
_chemical_formula_sum 'C21 H23 N1 O8'
_chemical_formula_moiety
;
C21 H23 N1 O8
;
_journal_coden_Cambridge 182
_journal_volume 49
_journal_year 2013
_journal_page_first 1124
_journal_name_full 'Chem.Commun. '
loop_
_publ_author_name
"Jindian Duan"
"Fangyi Cao"
"Xiaoqin Wang"
"Cheng Ma"
_chemical_name_systematic
;
6-Ethyl 9-methyl 
6-hydroxy-8-(3-nitrophenyl)-1-oxospiro[4.5]dec-9-ene-6,9-dicarboxylate
;
_cell_volume   1006.504
_exptl_crystal_colour 'colorless'
_exptl_crystal_density_diffrn 1.377
_exptl_crystal_description 'block'
_diffrn_ambient_temperature 293
#These two values have been output from a single CSD field.
_refine_ls_R_factor_gt 0.0447
_refine_ls_wR_factor_gt 0.0447
_symmetry_cell_setting triclinic
_symmetry_space_group_name_H-M 'P -1'
_symmetry_Int_Tables_number 2
loop_
_symmetry_equiv_pos_site_id
_symmetry_equiv_pos_as_xyz
1 x,y,z
2 -x,-y,-z
_cell_length_a 6.2700(7)
_cell_length_b 13.0333(7)
_cell_length_c 13.3502(8)
_cell_angle_alpha 104.013(5)
_cell_angle_beta 97.803(7)
_cell_angle_gamma 103.712(7)
_cell_formula_units_Z 2
loop_
_atom_type_symbol
_atom_type_radius_bond
C 0.68
H 0.23
N 0.68
O 0.68
loop_
_atom_site_label
_atom_site_type_symbol
_atom_site_fract_x
_atom_site_fract_y
_atom_site_fract_z
O1 O -0.1527(3) 0.58957(11) 0.92941(13)
O2 O -0.4307(2) 0.81998(11) 0.60478(11)
O3 O -0.4230(3) 0.64581(11) 0.57051(13)
O4 O 0.3435(3) 0.93659(11) 1.08229(11)
O5 O 0.3117(2) 0.75683(10) 1.04322(11)
O6 O -0.1283(2) 0.80814(10) 0.96197(11)
H1 H -0.18000 0.74520 0.96500
O7 O -0.1759(4) 1.23266(16) 0.6754(2)
O8 O 0.0768(3) 1.27563(15) 0.59034(18)
N1 N -0.0207(3) 1.21555(15) 0.63604(16)
C1 C 0.2913(3) 0.70005(15) 0.80970(16)
H2 H 0.30990 0.72950 0.75030
H3 H 0.41730 0.74060 0.86770
C2 C 0.2753(4) 0.57748(19) 0.7792(2)
H4 H 0.20570 0.54330 0.70530
H5 H 0.42330 0.56660 0.79140
C3 C 0.1339(4) 0.52870(17) 0.8480(2)
H6 H 0.03740 0.45590 0.80880
H7 H 0.22830 0.52260 0.90890
C4 C -0.0036(3) 0.60547(15) 0.88185(16)
C5 C 0.0679(3) 0.70821(13) 0.84296(14)
C6 C 0.0780(3) 0.81617(14) 0.92583(14)
C7 C 0.1151(3) 0.91040(14) 0.87634(14)
H8 H 0.25760 0.91920 0.85400
H9 H 0.12430 0.97790 0.92930
C8 C -0.0702(3) 0.89383(13) 0.78118(14)
H10 H -0.19150 0.92030 0.80760
C9 C -0.1668(3) 0.77420(13) 0.71872(14)
C10 C -0.1060(3) 0.69279(14) 0.74666(14)
H11 H -0.17530 0.62130 0.70400
C11 C -0.3501(3) 0.75114(15) 0.62626(15)
C12 C -0.6080(5) 0.6188(2) 0.4821(2)
H12 H -0.55580 0.64770 0.42740
H13 H -0.72280 0.65070 0.50470
H14 H -0.66810 0.54030 0.45560
C13 C 0.2610(3) 0.84523(15) 1.02492(15)
C14 C 0.4841(4) 0.77642(17) 1.13538(17)
H15 H 0.43710 0.80970 1.19870
H16 H 0.62220 0.82620 1.13090
C15 C 0.5203(4) 0.66915(19) 1.1392(2)
H17 H 0.57190 0.63820 1.07740
H18 H 0.38190 0.61990 1.14180
H19 H 0.63070 0.67980 1.20100
C16 C 0.0238(3) 0.96425(14) 0.71257(14)
C17 C 0.1910(3) 0.94021(15) 0.66093(16)
H20 H 0.23800 0.87870 0.66570
C18 C 0.2898(3) 1.00510(17) 0.60269(16)
H21 H 0.40210 0.98720 0.56900
C19 C 0.2221(3) 1.09635(17) 0.59437(16)
H22 H 0.28760 1.14120 0.55580
C20 C 0.0545(3) 1.11880(14) 0.64498(15)
C21 C -0.0463(3) 1.05528(14) 0.70417(14)
H23 H -0.15870 1.07340 0.73760
#END
