
#######################################################################
#
#                 Cambridge Crystallographic Data Centre
#                                CCDC
#
#######################################################################
#
# If this CIF has been generated from an entry in the Cambridge
# Structural Database, then it will include bibliographic, chemical,
# crystal, experimental, refinement or atomic coordinate data resulting
# from the CCDC's data processing and validation procedures.
#
#######################################################################

data_CSD_CIF_TEQZEU
_audit_creation_date 1997-02-21
_audit_creation_method CSD-ConQuest-V1
_database_code_CSD TEQZEU
_database_code_depnum_ccdc_journal 207/20
_chemical_formula_sum 'C15 H16 N6 O2'
_chemical_formula_moiety
;
C15 H16 N6 O2
;
_journal_coden_Cambridge 207
_journal_year 1996
_journal_page_first 1545
_journal_name_full 'J.Chem.Soc.,Perkin Trans.1 '
loop_
_publ_author_name
"U.Hanefeld"
"C.W.Rees"
"A.J.P.White"
"D.J.Williams"
_chemical_name_systematic
;
4-Amino-1-t-butyl-3-(p-nitrophenyl)pyrazolo(3,4-d)pyrimidine
;
_chemical_melting_point 495.15
_cell_volume   1558.899
_exptl_crystal_colour 'yellow'
_exptl_crystal_density_diffrn 1.331
_diffrn_ambient_temperature ?
_diffrn_special_details
;
The study was carried out at room temperature,in the range 283-303K

;
#These two values have been output from a single CSD field.
_refine_ls_R_factor_gt 0.0535
_refine_ls_wR_factor_gt 0.0535
_symmetry_cell_setting monoclinic
_symmetry_space_group_name_H-M 'P 21/c'
_symmetry_Int_Tables_number 14
loop_
_symmetry_equiv_pos_site_id
_symmetry_equiv_pos_as_xyz
1 x,y,z
2 -x,1/2+y,1/2-z
3 -x,-y,-z
4 x,-1/2-y,-1/2+z
_cell_length_a 10.545(2)
_cell_length_b 10.993(2)
_cell_length_c 13.695(2)
_cell_angle_alpha 90
_cell_angle_beta 100.90(2)
_cell_angle_gamma 90
_cell_formula_units_Z 4
loop_
_atom_type_symbol
_atom_type_radius_bond
C 0.68
H 0.23
N 0.68
O 0.68
loop_
_atom_site_label
_atom_site_type_symbol
_atom_site_fract_x
_atom_site_fract_y
_atom_site_fract_z
N1 N 0.4576(2) 0.1834(2) 0.2341(2)
N2 N 0.4056(2) 0.1831(2) 0.3185(2)
C1 C 0.2866(2) 0.1429(2) 0.2939(2)
C2 C 0.2556(2) 0.1147(2) 0.1902(2)
C3 C 0.1541(3) 0.0653(2) 0.1199(2)
N3 N 0.1686(2) 0.0575(2) 0.0243(1)
C4 C 0.2821(3) 0.0921(3) 0.0025(2)
N4 N 0.3869(2) 0.1319(2) 0.0611(2)
C5 C 0.3677(3) 0.1425(2) 0.1558(2)
C6 C 0.5888(3) 0.2320(3) 0.2350(2)
C7 C 0.5783(3) 0.3407(3) 0.1653(3)
C8 C 0.6685(3) 0.1329(3) 0.1988(3)
C9 C 0.6484(3) 0.2712(4) 0.3399(3)
C10 C 0.2094(2) 0.1351(2) 0.3732(2)
C11 C 0.2714(3) 0.0953(3) 0.4672(2)
C12 C 0.2077(3) 0.0951(3) 0.5455(2)
C13 C 0.0832(3) 0.1339(3) 0.5303(2)
C14 C 0.0173(3) 0.1734(2) 0.4388(2)
C15 C 0.0831(3) 0.1731(2) 0.3602(2)
N5 N 0.0150(4) 0.1329(3) 0.6146(2)
O1 O 0.0746(3) 0.0953(3) 0.6952(2)
O2 O -0.0946(4) 0.1684(3) 0.6016(2)
N6 N 0.0432(2) 0.0256(2) 0.1409(2)
H1 H 0.28740 0.08660 -0.06660
H2 H 0.54130 0.31580 0.09890
H3 H 0.52390 0.40080 0.18730
H4 H 0.66240 0.37470 0.16630
H5 H 0.67470 0.06470 0.24320
H6 H 0.62740 0.10790 0.13320
H7 H 0.75350 0.16300 0.19700
H8 H 0.65570 0.20200 0.38330
H9 H 0.73250 0.30520 0.34090
H10 H 0.59390 0.33130 0.36190
H11 H 0.35910 0.06730 0.47610
H12 H 0.24910 0.06780 0.61030
H13 H -0.07080 0.19970 0.43070
H14 H 0.04070 0.19950 0.29540
H15 H -0.0265(17) -0.0062(22) 0.0923(15)
H16 H 0.0263(28) 0.0079(28) 0.2056(10)
#END
