
#######################################################################
#
#                 Cambridge Crystallographic Data Centre
#                                CCDC
#
#######################################################################
#
# If this CIF has been generated from an entry in the Cambridge
# Structural Database, then it will include bibliographic, chemical,
# crystal, experimental, refinement or atomic coordinate data resulting
# from the CCDC's data processing and validation procedures.
#
#######################################################################

data_CSD_CIF_TERDOJ
_audit_creation_date 1997-02-21
_audit_creation_method CSD-ConQuest-V1
_database_code_CSD TERDOJ
_database_code_depnum_ccdc_journal 188/7
_chemical_formula_sum 'C20 H14 N4 O2'
_chemical_formula_moiety
;
C20 H14 N4 O2
;
_journal_coden_Cambridge 188
_journal_year 1996
_journal_page_first 1297
_journal_name_full 'J.Chem.Soc.,Perkin Trans.2 '
loop_
_publ_author_name
"P.Carloni"
"L.Eberson"
"L.Greci"
"P.Sgarabotto"
"P.Stipa"
_chemical_name_systematic
;
(Z)-\a-Phenyl-\a-benzotriazolyl-O-benzoyl formaldehyde oxime
;
_chemical_melting_point 441.15
_cell_volume   1688.103
_exptl_crystal_colour 'colorless'
_exptl_crystal_density_diffrn 1.35
_exptl_special_details
;
Melting point range 441.15-443.15K

;
_diffrn_ambient_temperature ?
_diffrn_special_details
;
The study was carried out at room temperature,in the range 283-303K

;
#These two values have been output from a single CSD field.
_refine_ls_R_factor_gt 0.046
_refine_ls_wR_factor_gt 0.046
loop_
_citation_database_id_CSD
_citation_special_details
TERDID "is a stereoisomer of this entry"
_symmetry_cell_setting monoclinic
_symmetry_space_group_name_H-M 'P 21/c'
_symmetry_Int_Tables_number 14
loop_
_symmetry_equiv_pos_site_id
_symmetry_equiv_pos_as_xyz
1 x,y,z
2 -x,1/2+y,1/2-z
3 -x,-y,-z
4 x,-1/2-y,-1/2+z
_cell_length_a 9.835(3)
_cell_length_b 7.444(2)
_cell_length_c 23.207(4)
_cell_angle_alpha 90
_cell_angle_beta 96.5(1)
_cell_angle_gamma 90
_cell_formula_units_Z 4
loop_
_atom_type_symbol
_atom_type_radius_bond
C 0.68
H 0.23
N 0.68
O 0.68
loop_
_atom_site_label
_atom_site_type_symbol
_atom_site_fract_x
_atom_site_fract_y
_atom_site_fract_z
O1 O 0.2559(6) 0.3644(9) 0.0034(3)
O2 O 0.0875(7) 0.3074(7) 0.0600(3)
N1 N -0.1479(7) 0.2115(10) 0.0788(3)
N2 N -0.1770(8) 0.045(1) 0.1009(4)
N3 N -0.1843(8) 0.0624(11) 0.1562(3)
N4 N -0.0008(9) 0.277(1) 0.0081(3)
C1 C -0.117(1) 0.2241(11) 0.0211(4)
C2 C 0.2198(10) 0.3528(13) 0.0510(4)
C3 C -0.1587(8) 0.2395(12) 0.1722(4)
C4 C -0.1534(9) 0.3238(15) 0.2255(4)
C5 C -0.1266(10) 0.5030(16) 0.2280(4)
C6 C -0.1072(10) 0.6015(15) 0.1778(5)
C7 C -0.1107(8) 0.5220(14) 0.1240(4)
C8 C -0.1361(8) 0.3348(13) 0.1230(4)
C9 C -0.2257(10) 0.1742(11) -0.0257(4)
C10 C -0.3616(11) 0.1785(12) -0.0151(4)
C11 C -0.4641(13) 0.1334(13) -0.0605(5)
C12 C -0.4303(14) 0.0898(15) -0.1133(5)
C13 C -0.2956(13) 0.0890(14) -0.1236(4)
C14 C -0.1909(12) 0.1295(12) -0.0808(5)
C15 C 0.3019(11) 0.3875(11) 0.1075(4)
C16 C 0.2492(12) 0.3754(13) 0.1596(4)
C17 C 0.3313(14) 0.4089(14) 0.2112(5)
C18 C 0.4673(14) 0.4569(16) 0.2079(6)
C19 C 0.5185(12) 0.4669(16) 0.1558(5)
C20 C 0.4370(11) 0.4364(14) 0.1054(5)
H1 H -0.171(6) 0.253(9) 0.256(3)
H2 H -0.108(9) 0.562(13) 0.258(4)
H3 H -0.092(7) 0.723(11) 0.185(3)
H4 H -0.094(7) 0.592(10) 0.081(3)
H5 H -0.386(7) 0.217(9) 0.021(3)
H6 H -0.558(10) 0.155(13) -0.043(4)
H7 H -0.503(8) 0.061(11) -0.150(3)
H8 H -0.272(7) 0.061(10) -0.159(3)
H9 H -0.086(8) 0.152(10) -0.085(3)
H10 H 0.154(8) 0.339(10) 0.165(3)
H11 H 0.287(8) 0.391(12) 0.251(4)
H12 H 0.516(1) 0.473(16) 0.239(5)
H13 H 0.612(9) 0.497(11) 0.156(3)
H14 H 0.472(8) 0.429(11) 0.068(4)
#END
