
#######################################################################
#
#                 Cambridge Crystallographic Data Centre
#                                CCDC
#
#######################################################################
#
# If this CIF has been generated from an entry in the Cambridge
# Structural Database, then it will include bibliographic, chemical,
# crystal, experimental, refinement or atomic coordinate data resulting
# from the CCDC's data processing and validation procedures.
#
#######################################################################

data_CSD_CIF_TERKOR
_audit_creation_date 2007-02-21
_audit_creation_method CSD-ConQuest-V1
_database_code_CSD TERKOR
_database_code_depnum_ccdc_archive 'CCDC 630034'
_chemical_formula_sum 'C15 H17 N1 O2'
_chemical_formula_moiety
;
C15 H17 N1 O2
;
_journal_coeditor_code "IUCr JH2044"
_journal_coden_Cambridge 1370
_journal_volume 62
_journal_year 2006
_journal_page_first o5920
_journal_name_full 'Acta Crystallogr.,Sect.E:Struct.Rep.Online '
loop_
_publ_author_name
"M.Periasamy"
"J.C.Jebaraj"
"J.Suresh"
"A.Ponnuswamy"
"S.Natarajan"
_chemical_name_systematic
;
3-Acetyl-2-(4-methylphenyl)cyclohex-2-en-1-one oxime
;
_cell_volume   1372.778
_exptl_crystal_colour 'colorless'
_exptl_crystal_density_diffrn 1.177
_exptl_crystal_description 'block'
_exptl_crystal_preparation 'alcohol'
_diffrn_ambient_temperature 293
#These two values have been output from a single CSD field.
_refine_ls_R_factor_gt 0.0631
_refine_ls_wR_factor_gt 0.0631
_symmetry_cell_setting monoclinic
_symmetry_space_group_name_H-M 'P 21/a'
_symmetry_Int_Tables_number 14
loop_
_symmetry_equiv_pos_site_id
_symmetry_equiv_pos_as_xyz
1 x,y,z
2 1/2-x,1/2+y,-z
3 -x,-y,-z
4 -1/2+x,-1/2-y,z
_cell_length_a 9.205(4)
_cell_length_b 11.311(4)
_cell_length_c 13.489(5)
_cell_angle_alpha 90
_cell_angle_beta 102.19(3)
_cell_angle_gamma 90
_cell_formula_units_Z 4
loop_
_atom_type_symbol
_atom_type_radius_bond
C 0.68
H 0.23
N 0.68
O 0.68
loop_
_atom_site_label
_atom_site_type_symbol
_atom_site_fract_x
_atom_site_fract_y
_atom_site_fract_z
N1 N 0.1030(2) 0.4053(2) 0.04749(15)
C1 C 0.2607(3) 0.3455(2) 0.19911(18)
O1 O 0.0330(2) 0.37410(19) -0.05194(13)
H1 H -0.01510 0.43050 -0.07960
C2 C 0.2546(3) 0.4685(2) 0.23871(17)
C3 C 0.1805(3) 0.3206(2) 0.09463(18)
C4 C 0.1909(3) 0.4909(2) 0.32113(18)
H2 H 0.14970 0.42900 0.35130
C5 C 0.3336(3) 0.2569(2) 0.25651(18)
C6 C 0.4228(3) 0.2741(3) 0.36149(19)
C7 C 0.3145(3) 0.5632(3) 0.1951(2)
H3 H 0.35620 0.55060 0.13890
O2 O 0.4185(3) 0.1986(2) 0.42448(15)
C8 C 0.3272(3) 0.1304(2) 0.2196(2)
H4 H 0.41930 0.11180 0.19890
H5 H 0.31920 0.07830 0.27530
C9 C 0.1881(3) 0.6046(3) 0.3591(2)
H6 H 0.14460 0.61800 0.41440
C10 C 0.3125(4) 0.6755(3) 0.2341(2)
H7 H 0.35490 0.73730 0.20460
C11 C 0.1907(4) 0.1999(3) 0.0509(2)
H8 H 0.27810 0.19540 0.02150
H9 H 0.10390 0.18550 -0.00250
C12 C 0.2489(3) 0.6983(3) 0.3160(2)
C13 C 0.5295(3) 0.3751(3) 0.3876(2)
H10 H 0.57550 0.37180 0.45840
H11 H 0.47690 0.44850 0.37310
H12 H 0.60450 0.36970 0.34800
C14 C 0.2002(4) 0.1069(3) 0.1328(2)
H13 H 0.10820 0.10620 0.15700
H14 H 0.21250 0.02960 0.10450
C15 C 0.2448(5) 0.8223(3) 0.3580(3)
H15 H 0.19590 0.82100 0.41420
H16 H 0.19150 0.87350 0.30610
H17 H 0.34450 0.85110 0.38040
#END
