
#######################################################################
#
#                 Cambridge Crystallographic Data Centre
#                                CCDC
#
#######################################################################
#
# If this CIF has been generated from an entry in the Cambridge
# Structural Database, then it will include bibliographic, chemical,
# crystal, experimental, refinement or atomic coordinate data resulting
# from the CCDC's data processing and validation procedures.
#
#######################################################################

data_CSD_CIF_TERWIW
_audit_creation_date 1997-02-21
_audit_creation_method CSD-ConQuest-V1
_database_code_CSD TERWIW
_database_code_depnum_ccdc_archive 'CCDC 128377'
_chemical_formula_sum 'C20 H23 N1 O12'
_chemical_formula_moiety
;
C20 H23 N1 O12
;
_journal_coeditor_code "IUCr FR1003"
_journal_coden_Cambridge 591
_journal_volume 53
_journal_year 1997
_journal_page_first 118
_journal_name_full 'Acta Crystallogr.,Sect.C:Cryst.Struct.Commun. '
loop_
_publ_author_name
"K.A.Abboud"
"S.S.Toporek"
"B.A.Horenstein"
_chemical_name_systematic
;
p-Nitrophenyl 2,3,4,6-tetra-O-acetyl-\b-D-glucopyranoside
;
_cell_volume   1153.063
_exptl_crystal_colour 'colorless'
_exptl_crystal_density_diffrn 1.352
_diffrn_ambient_temperature 173
#These two values have been output from a single CSD field.
_refine_ls_R_factor_gt 0.0344
_refine_ls_wR_factor_gt 0.0344
_symmetry_cell_setting monoclinic
_symmetry_space_group_name_H-M 'P 21'
_symmetry_Int_Tables_number 4
loop_
_symmetry_equiv_pos_site_id
_symmetry_equiv_pos_as_xyz
1 x,y,z
2 -x,1/2+y,-z
_cell_length_a 5.5920(1)
_cell_length_b 21.3403(5)
_cell_length_c 9.7192(2)
_cell_angle_alpha 90
_cell_angle_beta 96.197(1)
_cell_angle_gamma 90
_cell_formula_units_Z 2
loop_
_atom_type_symbol
_atom_type_radius_bond
C 0.68
H 0.23
N 0.68
O 0.68
loop_
_atom_site_label
_atom_site_type_symbol
_atom_site_fract_x
_atom_site_fract_y
_atom_site_fract_z
O1 O -0.6589(3) -0.00728(8) -0.1738(2)
O2 O -0.6236(3) -0.13955(7) -0.12414(14)
O3 O -0.2208(3) -0.13569(11) -0.1110(2)
O4 O -0.5313(3) -0.16167(8) 0.1727(2)
O5 O -0.7451(4) -0.24971(10) 0.1225(3)
O6 O -0.9185(3) -0.10309(9) 0.3114(2)
O7 O -0.6211(3) -0.08687(12) 0.4822(2)
O8 O -0.8058(3) 0.00410(8) 0.03510(15)
O9 O -1.1694(4) 0.06966(9) 0.1410(2)
O10 O -1.4129(4) 0.08060(12) 0.3058(2)
O11 O -1.0094(4) 0.19195(11) -0.6208(2)
O12 O -1.2716(5) 0.20739(12) -0.4773(2)
N1 N -1.0978(4) 0.18006(11) -0.5134(2)
C1 C -0.7830(4) -0.03823(11) -0.0751(2)
H1 H -0.9434(45) -0.0510(13) -0.1186(25)
C2 C -0.6268(4) -0.09263(11) -0.0183(2)
H2 H -0.4677(47) -0.0777(13) 0.0003(24)
C3 C -0.7215(4) -0.12261(11) 0.1071(2)
H3 H -0.8627(39) -0.1485(11) 0.0813(20)
C4 C -0.7836(4) -0.07350(11) 0.2113(2)
H4 H -0.6432(49) -0.0541(13) 0.2567(27)
C5 C -0.9420(4) -0.02342(12) 0.1362(2)
H5 H -1.0891(43) -0.0402(12) 0.0900(23)
C6 C -1.0138(5) 0.02815(13) 0.2277(3)
H6 H -0.8780(53) 0.0509(14) 0.2657(28)
H7 H -1.0949(50) 0.0117(14) 0.3019(29)
C7 C -0.7822(4) 0.03804(11) -0.2548(2)
C8 C -0.6768(4) 0.05472(12) -0.3723(2)
H8 H -0.5417(47) 0.0332(13) -0.3982(25)
C9 C -0.7810(4) 0.10179(12) -0.4581(2)
H9 H -0.7059(47) 0.1113(14) -0.5385(27)
C10 C -0.9881(4) 0.12977(11) -0.4244(2)
C11 C -1.0943(4) 0.11376(12) -0.3082(2)
H10 H -1.2411(44) 0.1340(13) -0.2829(23)
C12 C -0.9911(4) 0.06695(12) -0.2215(2)
H11 H -1.0575(48) 0.0566(14) -0.1407(28)
C13 C -0.4077(4) -0.15751(11) -0.1616(2)
C14 C -0.4360(5) -0.20610(13) -0.2718(3)
H12 H -0.4664(56) -0.1837(16) -0.3584(32)
H13 H -0.5814(58) -0.2330(16) -0.2567(29)
H14 H -0.2805(61) -0.2254(17) -0.2755(31)
C15 C -0.5627(5) -0.22424(13) 0.1711(3)
C16 C -0.3440(6) -0.2568(2) 0.2377(4)
H15 H -0.1880(99) -0.2450(26) 0.2039(46)
H16 H -0.34(1) -0.2547(30) 0.3370(54)
H17 H -0.3692(96) -0.3028(29) 0.2220(51)
C17 C -0.8198(5) -0.10493(12) 0.4451(2)
C18 C -0.9923(6) -0.1325(2) 0.5351(3)
H18 H -0.9303(69) -0.1239(20) 0.6316(39)
H19 H -0.9927(81) -0.1780(26) 0.5188(43)
H20 H -1.1511(70) -0.1208(20) 0.5068(35)
C19 C -1.3617(5) 0.09302(12) 0.1932(3)
C20 C -1.4994(7) 0.1358(2) 0.0920(4)
H21 H -1.6471(70) 0.1534(20) 0.1302(35)
H22 H -1.3850(82) 0.1673(25) 0.0565(43)
H23 H -1.5425(78) 0.1162(24) 0.0090(46)
#END
