
#######################################################################
#
#                 Cambridge Crystallographic Data Centre
#                                CCDC
#
#######################################################################
#
# If this CIF has been generated from an entry in the Cambridge
# Structural Database, then it will include bibliographic, chemical,
# crystal, experimental, refinement or atomic coordinate data resulting
# from the CCDC's data processing and validation procedures.
#
#######################################################################

data_CSD_CIF_TESJOT
_audit_creation_date 2017-12-13
_audit_creation_method CSD-ConQuest-V1
_database_code_CSD TESJOT
_database_code_depnum_ccdc_archive 'CCDC 1810989'
_chemical_formula_sum 'C18 H13 N3 O2'
_chemical_formula_moiety
;
C18 H13 N3 O2
;
_journal_coden_Cambridge 1078
_journal_year 2017
_journal_name_full 'CSD Communication(Private Communication) '
loop_
_publ_author_name
"R.D.Rogers"
"M.P.Cava"
_chemical_name_systematic
;
(1-methylquinolin-4(1H)-ylidene)(4-nitrophenyl)acetonitrile
;
_cell_volume   1422.735
_exptl_crystal_colour 'violet'
_exptl_crystal_density_diffrn 1.416
_diffrn_ambient_temperature 173
#These two values have been output from a single CSD field.
_refine_ls_R_factor_gt 0.0568
_refine_ls_wR_factor_gt 0.0568
_symmetry_cell_setting orthorhombic
_symmetry_space_group_name_H-M 'P 21 21 21'
_symmetry_Int_Tables_number 19
loop_
_symmetry_equiv_pos_site_id
_symmetry_equiv_pos_as_xyz
1 x,y,z
2 1/2-x,-y,1/2+z
3 -x,1/2+y,1/2-z
4 1/2+x,1/2-y,-z
_cell_length_a 7.3645(2)
_cell_length_b 7.4987(1)
_cell_length_c 25.7629(1)
_cell_angle_alpha 90
_cell_angle_beta 90
_cell_angle_gamma 90
_cell_formula_units_Z 4
loop_
_atom_type_symbol
_atom_type_radius_bond
C 0.68
H 0.23
N 0.68
O 0.68
loop_
_atom_site_label
_atom_site_type_symbol
_atom_site_fract_x
_atom_site_fract_y
_atom_site_fract_z
N1 N -0.8472(2) -0.7766(2) -0.1178(1)
C1 C -0.7554(2) -0.7603(2) -0.1628(1)
C2 C -0.8276(2) -0.7945(2) -0.2102(1)
C3 C -1.0128(2) -0.8447(2) -0.2155(1)
C4 C -1.1072(2) -0.8826(2) -0.1668(1)
C5 C -1.2774(2) -0.9677(2) -0.1651(1)
C6 C -1.3657(2) -1.0001(2) -0.1191(1)
C7 C -1.2863(3) -0.9493(3) -0.0724(1)
C8 C -1.1170(3) -0.8740(2) -0.0717(1)
C9 C -1.0235(2) -0.8430(2) -0.1184(1)
C10 C -1.0988(2) -0.8450(2) -0.2644(1)
C11 C -1.0063(2) -0.8575(2) -0.3145(1)
C12 C -1.0912(2) -0.7945(2) -0.3602(1)
C13 C -1.0107(2) -0.8115(3) -0.4083(1)
C14 C -0.8426(2) -0.8933(2) -0.4115(1)
C15 C -0.7542(2) -0.9581(2) -0.3679(1)
C16 C -0.8371(2) -0.9418(2) -0.3201(1)
C17 C -0.7596(3) -0.7278(3) -0.0688(1)
N2 N -0.7570(2) -0.9144(2) -0.4620(1)
O1 O -0.6017(2) -0.9735(2) -0.4640(1)
O2 O -0.8436(2) -0.8738(2) -0.5012(1)
C18 C -1.2886(2) -0.8090(3) -0.2678(1)
N3 N -1.4386(2) -0.7710(3) -0.2733(1)
H1 H -0.6324(2) -0.7225(2) -0.1612(1)
H2 H -0.7535(2) -0.7849(2) -0.2402(1)
H3 H -1.3328(2) -1.0040(2) -0.1967(1)
H4 H -1.4809(2) -1.0571(2) -0.1191(1)
H5 H -1.3500(3) -0.9670(3) -0.0408(1)
H6 H -1.0625(3) -0.8426(2) -0.0395(1)
H7 H -1.2069(2) -0.7390(2) -0.3577(1)
H8 H -1.0694(2) -0.7680(3) -0.4386(1)
H9 H -0.6384(2) -1.0129(2) -0.3708(1)
H10 H -0.7784(2) -0.9886(2) -0.2902(1)
H11 H -0.6379(8) -0.6809(17) -0.0758(1)
H12 H -0.7501(16) -0.8334(5) -0.0465(2)
H13 H -0.8321(10) -0.6365(13) -0.0511(3)
#END
