
#######################################################################
#
#                 Cambridge Crystallographic Data Centre
#                                CCDC
#
#######################################################################
#
# If this CIF has been generated from an entry in the Cambridge
# Structural Database, then it will include bibliographic, chemical,
# crystal, experimental, refinement or atomic coordinate data resulting
# from the CCDC's data processing and validation procedures.
#
#######################################################################

data_CSD_CIF_TESKOR
_audit_creation_date 1997-03-05
_audit_creation_method CSD-ConQuest-V1
_database_code_CSD TESKOR
_database_code_depnum_ccdc_archive 'CCDC 1269449'
_chemical_formula_sum 'C15 H10 N4 O8'
_chemical_formula_moiety
;
C15 H10 N4 O8
;
_journal_coden_Cambridge 154
_journal_volume 49
_journal_year 1996
_journal_page_first 469
_journal_name_full 'Aust.J.Chem. '
loop_
_publ_author_name
"C.P.Butts"
"L.Eberson"
"K.L.Fulton"
"M.P.Hartshorn"
"W.T.Robinson"
_chemical_name_systematic
;
trans-9-Nitro-10-trinitromethyl-9,10-dihydrophenanthrene
;
_chemical_melting_point 374.15
_cell_volume   3093.127
_exptl_crystal_colour 'colorless'
_exptl_crystal_density_diffrn 1.607
_exptl_special_details
;
Melts with decomposition.
Poor quality crystals

;
_diffrn_ambient_temperature 158
#These two values have been output from a single CSD field.
_refine_ls_R_factor_gt 0.0484
_refine_ls_wR_factor_gt 0.0484
_symmetry_cell_setting orthorhombic
_symmetry_space_group_name_H-M 'P b c a'
_symmetry_Int_Tables_number 61
loop_
_symmetry_equiv_pos_site_id
_symmetry_equiv_pos_as_xyz
1 x,y,z
2 1/2-x,-y,1/2+z
3 1/2+x,1/2-y,-z
4 -x,1/2+y,1/2-z
5 -x,-y,-z
6 -1/2+x,y,-1/2-z
7 -1/2-x,-1/2+y,z
8 x,-1/2-y,-1/2+z
_cell_length_a 7.763(3)
_cell_length_b 14.554(5)
_cell_length_c 27.377(7)
_cell_angle_alpha 90
_cell_angle_beta 90
_cell_angle_gamma 90
_cell_formula_units_Z 8
loop_
_atom_type_symbol
_atom_type_radius_bond
C 0.68
H 0.23
N 0.68
O 0.68
loop_
_atom_site_label
_atom_site_type_symbol
_atom_site_fract_x
_atom_site_fract_y
_atom_site_fract_z
O1 O 0.5763(8) 0.3528(4) 0.1360(2)
O2 O 0.5821(8) 0.2950(4) 0.0629(2)
O3 O 0.0608(8) -0.0052(5) 0.0645(2)
O4 O 0.2089(8) 0.0666(4) 0.0102(2)
O5 O 0.0630(8) 0.0813(4) 0.1507(2)
O6 O -0.0952(7) 0.1958(4) 0.1288(2)
O7 O -0.1157(7) 0.1729(4) 0.0256(2)
O8 O 0.0531(8) 0.2941(3) 0.0355(2)
N1 N 0.5138(9) 0.3111(5) 0.1019(3)
N2 N 0.1295(10) 0.0642(4) 0.0487(3)
N3 N 0.0226(10) 0.1376(5) 0.1234(3)
N4 N 0.0110(9) 0.2144(6) 0.0428(2)
C1 C 0.5138(10) 0.0491(5) 0.0838(3)
C2 C 0.4224(11) 0.1224(6) 0.1100(3)
C3 C 0.621(1) -0.0065(5) 0.1069(3)
C4 C 0.6371(10) -0.0033(5) 0.1570(3)
C5 C 0.5465(10) 0.0604(5) 0.1830(3)
C6 C 0.4394(11) 0.1263(6) 0.1609(3)
C7 C 0.3197(10) 0.1934(5) 0.2387(3)
C8 C 0.3446(10) 0.1969(5) 0.1881(3)
C9 C 0.2370(11) 0.2659(5) 0.2626(3)
C10 C 0.1825(11) 0.3390(5) 0.2369(3)
C11 C 0.2071(11) 0.3453(5) 0.1868(3)
C12 C 0.2855(11) 0.2701(6) 0.1632(3)
C13 C 0.3186(10) 0.2806(5) 0.1093(3)
C14 C 0.3136(9) 0.1895(4) 0.0823(3)
C15 C 0.125(1) 0.1521(5) 0.0772(3)
H1 H 0.4961(10) 0.0417(5) 0.0504(3)
H2 H 0.6864(10) -0.0484(5) 0.0892(3)
H3 H 0.7094(10) -0.0444(5) 0.1731(3)
H4 H 0.556(1) 0.0602(5) 0.2168(3)
H5 H 0.3581(10) 0.1428(5) 0.2564(3)
H6 H 0.2197(11) 0.2635(5) 0.2962(3)
H7 H 0.1268(11) 0.3867(5) 0.2531(3)
H8 H 0.1732(11) 0.3972(5) 0.1695(3)
H9 H 0.2393(10) 0.3251(5) 0.0946(3)
H10 H 0.3627(9) 0.1980(4) 0.0496(3)
#END
