
#######################################################################
#
#                 Cambridge Crystallographic Data Centre
#                                CCDC
#
#######################################################################
#
# If this CIF has been generated from an entry in the Cambridge
# Structural Database, then it will include bibliographic, chemical,
# crystal, experimental, refinement or atomic coordinate data resulting
# from the CCDC's data processing and validation procedures.
#
#######################################################################

data_CSD_CIF_TETNOW
_audit_creation_date 2007-02-21
_audit_creation_method CSD-ConQuest-V1
_database_code_CSD TETNOW
_database_code_depnum_ccdc_archive 'CCDC 631290'
_chemical_formula_sum 'C37 H52 N2 O7'
_chemical_formula_moiety
;
C37 H52 N2 O7
;
_journal_coden_Cambridge 1336
_journal_volume 8
_journal_year 2006
_journal_page_first 5589
_journal_name_full 'Org.Lett. '
loop_
_publ_author_name
"T.Kushiro"
"M.Hoshino"
"T.Tsutsumi"
"K.Kawai"
"M.Shiro"
"M.Shibuya"
"Y.Ebizuka"
_chemical_name_systematic
;
(20S)-20,29-epoxylupan-3-yl 3,5-dinitrobenzoate
;
_cell_volume   1622.817
_exptl_crystal_colour 'colorless'
_exptl_crystal_density_diffrn 1.303
_exptl_crystal_description 'platelet'
_exptl_crystal_preparation 'acetone'
_diffrn_ambient_temperature 93.1
#These two values have been output from a single CSD field.
_refine_ls_R_factor_gt 0.053
_refine_ls_wR_factor_gt 0.053
_symmetry_cell_setting monoclinic
_symmetry_space_group_name_H-M 'P 21'
_symmetry_Int_Tables_number 4
loop_
_symmetry_equiv_pos_site_id
_symmetry_equiv_pos_as_xyz
1 x,y,z
2 -x,1/2+y,-z
_cell_length_a 7.942(5)
_cell_length_b 10.334(6)
_cell_length_c 19.787(12)
_cell_angle_alpha 90
_cell_angle_beta 92.16(5)
_cell_angle_gamma 90
_cell_formula_units_Z 2
loop_
_atom_type_symbol
_atom_type_radius_bond
C 0.68
H 0.23
N 0.68
O 0.68
loop_
_atom_site_label
_atom_site_type_symbol
_atom_site_fract_x
_atom_site_fract_y
_atom_site_fract_z
O1 O 1.1589(2) 0.0474(2) 0.86057(10)
O2 O 0.7693(2) 0.9171(2) 0.44407(11)
O3 O 1.4069(2) 0.1302(2) 0.90144(11)
O4 O 1.8498(2) -0.1974(2) 0.95493(11)
O5 O 1.7812(2) -0.4000(2) 0.96915(12)
O6 O 1.2047(2) -0.5351(2) 0.92490(12)
O7 O 1.0432(2) -0.4046(2) 0.86461(12)
N1 N 1.7471(3) -0.2858(2) 0.95672(12)
N2 N 1.1697(3) -0.4290(2) 0.90047(12)
C1 C 1.0783(3) 0.3160(3) 0.73166(16)
C2 C 1.1520(3) 0.1925(3) 0.76477(16)
C3 C 1.0971(3) 0.1751(3) 0.83663(14)
C4 C 0.9044(3) 0.1751(3) 0.84457(14)
C5 C 0.8353(3) 0.2994(3) 0.80907(14)
C6 C 0.6466(3) 0.3207(3) 0.81820(16)
C7 C 0.5934(3) 0.4571(3) 0.79721(14)
C8 C 0.6341(3) 0.4948(3) 0.72473(13)
C9 C 0.8236(3) 0.4612(3) 0.71304(14)
C10 C 0.8817(3) 0.3212(2) 0.73471(14)
C11 C 0.8716(3) 0.5006(3) 0.64123(14)
C12 C 0.8262(3) 0.6412(3) 0.62224(14)
C13 C 0.6427(3) 0.6755(2) 0.63713(13)
C14 C 0.6070(3) 0.6457(3) 0.71269(13)
C15 C 0.4264(3) 0.6884(3) 0.73073(16)
C16 C 0.3792(3) 0.8259(3) 0.70725(16)
C17 C 0.4056(3) 0.8449(3) 0.63216(16)
C18 C 0.5913(3) 0.8149(3) 0.61708(14)
C19 C 0.6037(3) 0.8597(3) 0.54239(16)
C20 C 0.7766(3) 0.8880(3) 0.51651(14)
C21 C 0.4878(3) 0.9830(3) 0.53938(17)
C22 C 0.3912(3) 0.9841(3) 0.60641(16)
C23 C 0.8716(3) 0.1823(3) 0.92091(14)
C24 C 0.8264(3) 0.0476(3) 0.81708(16)
C25 C 0.8115(3) 0.2173(3) 0.68396(14)
C26 C 0.5127(3) 0.4169(3) 0.67660(16)
C27 C 0.7277(3) 0.7275(3) 0.75970(16)
C28 C 0.2796(3) 0.7596(3) 0.59055(16)
C29 C 0.8477(3) 0.8002(3) 0.46730(14)
C30 C 0.8921(3) 0.9776(3) 0.55528(16)
C31 C 1.3135(3) 0.0403(3) 0.89008(14)
C32 C 1.3576(3) -0.0978(3) 0.90644(16)
C33 C 1.5247(3) -0.1263(3) 0.92793(14)
C34 C 1.5661(3) -0.2532(3) 0.94054(14)
C35 C 1.4530(3) -0.3548(3) 0.93499(14)
C36 C 1.2919(3) -0.3220(3) 0.91295(14)
C37 C 1.2414(3) -0.1978(3) 0.89858(16)
H1 H 1.12440 0.38930 0.75470
H2 H 1.10840 0.31830 0.68570
H3 H 1.27140 0.19770 0.76520
H4 H 1.11560 0.11980 0.73870
H5 H 1.14650 0.24120 0.86420
H6 H 0.88850 0.36860 0.83320
H7 H 0.58490 0.25990 0.79110
H8 H 0.64880 0.51650 0.82720
H9 H 0.62250 0.30780 0.86440
H10 H 0.47500 0.46400 0.80150
H11 H 0.88630 0.51780 0.74230
H12 H 0.98970 0.48970 0.63760
H13 H 0.81380 0.44480 0.61010
H14 H 0.84220 0.65300 0.57530
H15 H 0.89900 0.69770 0.64740
H16 H 0.57290 0.61900 0.61050
H17 H 0.34830 0.62960 0.71000
H18 H 0.41810 0.68440 0.77850
H19 H 0.44750 0.88620 0.73200
H20 H 0.26400 0.84110 0.71590
H21 H 0.65930 0.87200 0.64410
H22 H 0.55260 0.79530 0.51420
H23 H 0.55440 1.05890 0.53610
H24 H 0.41070 0.97830 0.50160
H25 H 0.27660 1.00750 0.59810
H26 H 0.44200 1.04260 0.63810
H27 H 0.92510 0.11140 0.94350
H28 H 0.91560 0.26110 0.93880
H29 H 0.75370 0.17880 0.92730
H30 H 0.73110 0.06660 0.78830
H31 H 0.90750 0.00190 0.79230
H32 H 0.79250 -0.00420 0.85390
H33 H 0.88810 0.14680 0.68230
H34 H 0.70570 0.18710 0.69840
H35 H 0.79760 0.25460 0.64020
H36 H 0.55690 0.41410 0.63270
H37 H 0.50140 0.33120 0.69330
H38 H 0.40540 0.45770 0.67440
H39 H 0.71070 0.81690 0.75060
H40 H 0.70490 0.71010 0.80560
H41 H 0.84110 0.70510 0.75150
H42 H 0.16820 0.77750 0.60370
H43 H 0.28850 0.77770 0.54370
H44 H 0.30480 0.67100 0.59870
H45 H 0.79490 0.71930 0.45800
H46 H 0.96640 0.79070 0.46550
H47 H 0.83640 1.05760 0.56230
H48 H 0.92290 0.93990 0.59780
H49 H 0.99030 0.99210 0.53040
H50 H 1.60630 -0.05950 0.93350
H51 H 1.48430 -0.44140 0.94570
H52 H 1.12870 -0.18020 0.88350
#END
