
#######################################################################
#
#                 Cambridge Crystallographic Data Centre
#                                CCDC
#
#######################################################################
#
# If this CIF has been generated from an entry in the Cambridge
# Structural Database, then it will include bibliographic, chemical,
# crystal, experimental, refinement or atomic coordinate data resulting
# from the CCDC's data processing and validation procedures.
#
#######################################################################

data_CSD_CIF_TEVBAA
_audit_creation_date 2017-12-14
_audit_creation_method CSD-ConQuest-V1
_database_code_CSD TEVBAA
_database_code_depnum_ccdc_archive 'CCDC 1584350'
_chemical_formula_sum 'C13 H13 N3 O4'
_chemical_formula_moiety
;
C13 H13 N3 O4
;
_journal_coden_Cambridge 493
_journal_volume 144
_journal_year 2018
_journal_page_first 41
_journal_name_full 'Eur.J.Med.Chem. '
loop_
_publ_author_name
"Shuyue Zhao"
"Ke Li"
"Yi Jin"
"Jun Lin"
_chemical_name_systematic
;
1-[(hydroxyimino)(4-methoxyphenyl)methyl]-6-methylpyrimidine-2,4(1H,3H)-dione
;
_chemical_melting_point 516.15
_cell_volume   1455.780
_exptl_crystal_colour 'colorless'
_exptl_crystal_density_diffrn 1.256
_exptl_special_details
;
Melting point range 516.15-517.15K
thymidine phosphorylase inhibitory activity
;
_exptl_crystal_description 'block'
_diffrn_ambient_temperature 293
#These two values have been output from a single CSD field.
_refine_ls_R_factor_gt 0.045
_refine_ls_wR_factor_gt 0.045
_symmetry_cell_setting monoclinic
_symmetry_space_group_name_H-M 'P 21/c'
_symmetry_Int_Tables_number 14
loop_
_symmetry_equiv_pos_site_id
_symmetry_equiv_pos_as_xyz
1 x,y,z
2 -x,1/2+y,1/2-z
3 -x,-y,-z
4 x,-1/2-y,-1/2+z
_cell_length_a 10.261(5)
_cell_length_b 10.270(5)
_cell_length_c 14.236(7)
_cell_angle_alpha 90
_cell_angle_beta 103.977(5)
_cell_angle_gamma 90
_cell_formula_units_Z 4
loop_
_atom_type_symbol
_atom_type_radius_bond
C 0.68
H 0.23
N 0.68
O 0.68
loop_
_atom_site_label
_atom_site_type_symbol
_atom_site_fract_x
_atom_site_fract_y
_atom_site_fract_z
N1 N 0.50078(16) 0.78363(15) 0.10136(11)
N2 N 0.47464(14) 0.65158(14) 0.23281(10)
C1 C 0.29515(19) 0.54640(19) 0.27826(13)
H1 H 0.21440 0.50110 0.26150
O1 O 0.99890(14) 0.40835(17) 0.12606(13)
O2 O 0.38966(15) 0.84733(14) 0.1196(1)
H2 H 0.35590 0.89420 0.07350
O3 O 0.63998(14) 0.74701(16) 0.34803(10)
C2 C 0.2980(2) 0.5524(2) 0.10408(13)
H3 H 0.21960 0.49890 0.09760
H4 H 0.36390 0.50660 0.07910
H5 H 0.27400 0.63170 0.06840
C3 C 1.0211(3) 0.2794(3) 0.1610(3)
H6 H 1.02860 0.27850 0.22960
H7 H 1.10260 0.24670 0.14800
H8 H 0.94720 0.22540 0.12930
C4 C 0.88713(18) 0.4716(2) 0.13790(14)
C5 C 0.86763(19) 0.5970(2) 0.10018(14)
H9 H 0.92990 0.63290 0.06980
C6 C 0.75749(19) 0.6680(2) 0.10740(14)
H10 H 0.74550 0.75160 0.08150
C7 C 0.66298(18) 0.61638(19) 0.15322(12)
C8 C 0.6846(2) 0.4917(2) 0.19165(15)
H11 H 0.62340 0.45620 0.22320
C9 C 0.7958(2) 0.4190(2) 0.18399(16)
H12 H 0.80840 0.33550 0.20980
C10 C 0.54386(18) 0.69022(18) 0.16013(12)
C11 C 0.53698(18) 0.68576(18) 0.32753(12)
N3 N 0.47015(14) 0.64445(14) 0.3949(1)
H13 H 0.50570 0.66430 0.45420
C12 C 0.35279(18) 0.57486(18) 0.37739(13)
O4 O 0.30485(15) 0.54162(15) 0.44568(10)
C13 C 0.35453(18) 0.58344(17) 0.20840(12)
#END
