
#######################################################################
#
#                 Cambridge Crystallographic Data Centre
#                                CCDC
#
#######################################################################
#
# If this CIF has been generated from an entry in the Cambridge
# Structural Database, then it will include bibliographic, chemical,
# crystal, experimental, refinement or atomic coordinate data resulting
# from the CCDC's data processing and validation procedures.
#
#######################################################################

data_CSD_CIF_TEVBUS
_audit_creation_date 2007-02-21
_audit_creation_method CSD-ConQuest-V1
_database_code_CSD TEVBUS
_database_code_depnum_ccdc_archive 'CCDC 618907'
_chemical_formula_sum 'C27 H31 N1 O8'
_chemical_formula_moiety
;
C27 H31 N1 O8
;
_journal_coden_Cambridge 4
_journal_volume 128
_journal_year 2006
_journal_page_first 14042
_journal_name_full 'J.Am.Chem.Soc. '
loop_
_publ_author_name
"I.Larrosa"
"M.I.Da Silva"
"P.M.Gomez"
"P.Hannen"
"Eunjung Ko"
"S.R.Lenger"
"S.R.Linke"
"A.J.P.White"
"D.Wilton"
"A.G.M.Barrett"
_chemical_name_systematic
;
1-(2-(2-Methylprop-2-enyl)-3,6-dimethoxyphenyl)-1-hydroxy-2,3-epoxy-hept-6-en-
3-ylmethyl 4-nitrobenzoate
;
_cell_volume   1247.920
_exptl_crystal_colour 'pale yellow'
_exptl_crystal_density_diffrn 1.324
_exptl_crystal_description 'shards'
_diffrn_ambient_temperature 173
#These two values have been output from a single CSD field.
_refine_ls_R_factor_gt 0.0416
_refine_ls_wR_factor_gt 0.0416
_symmetry_cell_setting triclinic
_symmetry_space_group_name_H-M 'P -1'
_symmetry_Int_Tables_number 2
loop_
_symmetry_equiv_pos_site_id
_symmetry_equiv_pos_as_xyz
1 x,y,z
2 -x,-y,-z
_cell_length_a 10.976(2)
_cell_length_b 11.368(2)
_cell_length_c 11.4464(18)
_cell_angle_alpha 90.079(14)
_cell_angle_beta 116.397(17)
_cell_angle_gamma 101.338(15)
_cell_formula_units_Z 2
loop_
_atom_type_symbol
_atom_type_radius_bond
C 0.68
H 0.23
N 0.68
O 0.68
loop_
_atom_site_label
_atom_site_type_symbol
_atom_site_fract_x
_atom_site_fract_y
_atom_site_fract_z
C1 C 0.16281(10) 0.20542(9) 0.16572(9)
H1 H 0.16490 0.28880 0.13780
C2 C 0.07981(10) 0.18807(9) 0.24312(9)
H2 H 0.06380 0.10490 0.26960
O1 O 0.11320(8) 0.28351(7) 0.34257(7)
C3 C -0.02498(10) 0.25631(9) 0.23220(9)
C4 C -0.13861(12) 0.2029(1) 0.26968(11)
H3 H -0.15340 0.26750 0.31680
H4 H -0.10640 0.14170 0.33110
C5 C -0.27788(13) 0.14419(12) 0.15420(13)
H5 H -0.34820 0.11870 0.18640
H6 H -0.30970 0.20440 0.09130
C6 C -0.26899(14) 0.03819(13) 0.08540(13)
H7 H -0.20190 0.04990 0.05290
C7 C -0.34678(18) -0.07108(15) 0.06574(17)
H8 H -0.41500 -0.08650 0.09670
H9 H -0.33470 -0.13450 0.02060
O2 O 0.09097(8) 0.12259(7) 0.04998(7)
H10 H 0.1093(19) 0.0500(8) 0.0729(18)
C8 C 0.31259(10) 0.19623(8) 0.25233(9)
C9 C 0.34879(10) 0.08374(9) 0.27588(10)
C10 C 0.48511(11) 0.07541(9) 0.35291(10)
H11 H 0.50810 -0.00140 0.36700
C11 C 0.58867(11) 0.17997(10) 0.40982(10)
H12 H 0.68280 0.17480 0.46190
C12 C 0.55432(10) 0.29133(9) 0.39039(10)
C13 C 0.41608(10) 0.30094(8) 0.31271(9)
O3 O 0.23990(8) -0.01598(6) 0.21856(8)
C14 C 0.27542(14) -0.13013(9) 0.22013(12)
H13 H 0.19000 -0.19320 0.17670
H14 H 0.32860 -0.14640 0.31100
H15 H 0.33210 -0.12930 0.17370
O4 O 0.64938(8) 0.39941(7) 0.44211(8)
C15 C 0.78507(12) 0.39619(12) 0.53911(12)
H16 H 0.84200 0.47850 0.56750
H17 H 0.82780 0.34860 0.50260
H18 H 0.77940 0.35930 0.61440
C16 C 0.38448(11) 0.42470(9) 0.29612(10)
H19 H 0.45450 0.47960 0.37440
H20 H 0.29210 0.42020 0.29310
C17 C 0.38359(11) 0.47914(10) 0.17573(11)
C18 C 0.40267(14) 0.42234(13) 0.08709(12)
H21 H 0.39910 0.46020 0.01200
H22 H 0.42000 0.34350 0.09810
C19 C 0.35572(15) 0.60386(12) 0.16419(16)
H23 H 0.36380 0.63590 0.08790
H24 H 0.42380 0.65630 0.24370
H25 H 0.26140 0.60070 0.15350
C20 C -0.05347(12) 0.35240(9) 0.13931(10)
H26 H 0.03330 0.39330 0.13620
H27 H -0.12300 0.31640 0.04980
O5 O -0.10668(8) 0.43772(7) 0.18784(8)
C21 C -0.06856(11) 0.55445(9) 0.17523(10)
O6 O 0.00166(10) 0.59218(8) 0.12156(9)
C22 C -0.11976(10) 0.63196(9) 0.24069(10)
C23 C -0.06646(13) 0.75562(10) 0.25866(12)
H28 H -0.00250 0.78870 0.22610
C24 C -0.10651(13) 0.8306(1) 0.32397(12)
H29 H -0.06790 0.91490 0.34020
C25 C -0.20399(11) 0.77963(9) 0.36481(10)
C26 C -0.25974(11) 0.65770(9) 0.34717(11)
H30 H -0.32700 0.62560 0.37630
C27 C -0.21542(11) 0.58303(9) 0.28588(10)
H31 H -0.25040 0.49830 0.27470
N1 N -0.25309(11) 0.85927(9) 0.42760(9)
O7 O -0.18185(11) 0.96138(8) 0.47209(10)
O8 O -0.36276(10) 0.82046(8) 0.43174(10)
#END
