
#######################################################################
#
#                 Cambridge Crystallographic Data Centre
#                                CCDC
#
#######################################################################
#
# If this CIF has been generated from an entry in the Cambridge
# Structural Database, then it will include bibliographic, chemical,
# crystal, experimental, refinement or atomic coordinate data resulting
# from the CCDC's data processing and validation procedures.
#
#######################################################################

data_CSD_CIF_TEVDOQ
_audit_creation_date 2017-12-14
_audit_creation_method CSD-ConQuest-V1
_database_code_CSD TEVDOQ
_database_code_depnum_ccdc_archive 'CCDC 1522487'
_chemical_formula_sum 'C6 H2 N8 O6'
_chemical_formula_moiety
;
C6 H2 N8 O6
;
_journal_coden_Cambridge 34
_journal_volume 54
_journal_year 2017
_journal_page_first 3087
_journal_name_full 'J.Heterocycl.Chem. '
loop_
_publ_author_name
"R.Duddu"
"J.Hoare"
"Peggy Sanchez"
"R.Damavarapu"
"D.Parrish"
_chemical_name_systematic
;
4-[4-(4-nitro-1,2,5-oxadiazol-3-yl)-2-oxo-1,2\l^5^,5-oxadiazol-3-yl]-1,2,5-oxa
diazol-3-amine
;
_cell_volume   1011.509
_exptl_crystal_colour 'colorless'
_exptl_crystal_density_diffrn 1.853
_exptl_crystal_description 'prism'
_diffrn_ambient_temperature 296
#These two values have been output from a single CSD field.
_refine_ls_R_factor_gt 0.0325
_refine_ls_wR_factor_gt 0.0325
_symmetry_cell_setting monoclinic
_symmetry_space_group_name_H-M 'P 21/n'
_symmetry_Int_Tables_number 14
loop_
_symmetry_equiv_pos_site_id
_symmetry_equiv_pos_as_xyz
1 x,y,z
2 1/2-x,1/2+y,1/2-z
3 -x,-y,-z
4 -1/2+x,-1/2-y,-1/2+z
_cell_length_a 7.6896(6)
_cell_length_b 13.1271(11)
_cell_length_c 10.3101(8)
_cell_angle_alpha 90
_cell_angle_beta 103.608(2)
_cell_angle_gamma 90
_cell_formula_units_Z 4
loop_
_atom_type_symbol
_atom_type_radius_bond
C 0.68
H 0.23
N 0.68
O 0.68
loop_
_atom_site_label
_atom_site_type_symbol
_atom_site_fract_x
_atom_site_fract_y
_atom_site_fract_z
N1 N 0.56511(16) 0.98743(9) 0.33812(12)
H1 H 0.677(3) 1.0002(14) 0.3446(18)
H2 H 0.479(2) 1.0127(14) 0.2725(18)
C1 C 0.52252(16) 0.90544(9) 0.40165(12)
N2 N 0.63915(14) 0.85530(9) 0.49210(11)
O1 O 0.54054(12) 0.78053(8) 0.54061(10)
N3 N 0.36395(14) 0.78621(9) 0.47795(12)
C2 C 0.34869(15) 0.86060(9) 0.39286(12)
C3 C 0.17132(16) 0.88137(9) 0.31071(11)
N4 N 0.13221(14) 0.94973(9) 0.21353(10)
O2 O -0.05805(12) 0.94166(8) 0.15475(9)
N5 N -0.12580(14) 0.86753(9) 0.22133(11)
C4 C 0.00757(16) 0.83204(10) 0.31322(12)
C5 C -0.02532(15) 0.74965(10) 0.40066(12)
N6 N -0.07848(16) 0.66015(9) 0.35331(13)
O3 O -0.10604(15) 0.60433(8) 0.46069(11)
N7 N -0.06992(15) 0.66048(8) 0.57502(12)
C6 C -0.02053(15) 0.74795(9) 0.53870(12)
N8 N 0.02462(13) 0.83038(8) 0.6338(1)
O4 O 0.06297(12) 0.91136(7) 0.58841(9)
O5 O 0.01961(15) 0.81419(8) 0.74870(9)
O6 O 0.21519(13) 1.01359(8) 0.16576(10)
#END
