
#######################################################################
#
#                 Cambridge Crystallographic Data Centre
#                                CCDC
#
#######################################################################
#
# If this CIF has been generated from an entry in the Cambridge
# Structural Database, then it will include bibliographic, chemical,
# crystal, experimental, refinement or atomic coordinate data resulting
# from the CCDC's data processing and validation procedures.
#
#######################################################################

data_CSD_CIF_TEVGUZ
_audit_creation_date 2017-12-14
_audit_creation_method CSD-ConQuest-V1
_database_code_CSD TEVGUZ
_database_code_depnum_ccdc_archive 'CCDC 1526428'
_chemical_formula_sum 'C26 H22 N2 O4'
_chemical_formula_moiety
;
C26 H22 N2 O4
;
_journal_coden_Cambridge 34
_journal_volume 54
_journal_year 2017
_journal_page_first 3403
_journal_name_full 'J.Heterocycl.Chem. '
loop_
_publ_author_name
"Jing Wei"
"Lei Liu"
"Dan-Ni Tang"
"Cui-Ping Wu"
"Xiao-Juan Zhao"
"Wen-Juan Hao"
"Bo Jiang"
_chemical_name_systematic
;
3-hydroxy-5,5-dimethyl-2-(2-(4-nitrophenyl)-3H-benzo[e]indol-1-yl)cyclohex-2-e
n-1-one
;
_cell_volume   2170.702
_exptl_crystal_colour 'orange'
_exptl_crystal_density_diffrn 1.305
_exptl_crystal_description 'block'
_diffrn_ambient_temperature 298
#These two values have been output from a single CSD field.
_refine_ls_R_factor_gt 0.0492
_refine_ls_wR_factor_gt 0.0492
_symmetry_cell_setting orthorhombic
_symmetry_space_group_name_H-M 'P 21 21 21'
_symmetry_Int_Tables_number 19
loop_
_symmetry_equiv_pos_site_id
_symmetry_equiv_pos_as_xyz
1 x,y,z
2 1/2-x,-y,1/2+z
3 -x,1/2+y,1/2-z
4 1/2+x,1/2-y,-z
_cell_length_a 6.9733(5)
_cell_length_b 12.1954(9)
_cell_length_c 25.525(2)
_cell_angle_alpha 90
_cell_angle_beta 90
_cell_angle_gamma 90
_cell_formula_units_Z 4
loop_
_atom_type_symbol
_atom_type_radius_bond
C 0.68
H 0.23
N 0.68
O 0.68
loop_
_atom_site_label
_atom_site_type_symbol
_atom_site_fract_x
_atom_site_fract_y
_atom_site_fract_z
N1 N 0.3651(4) 0.2670(2) 1.01376(10)
H1 H 0.39320 0.20600 1.02880
N2 N 0.3118(6) -0.0893(3) 0.82466(17)
O1 O 0.2672(6) -0.1777(3) 0.84387(14)
O2 O 0.3373(6) -0.0764(3) 0.77728(13)
O3 O -0.0832(3) 0.42523(19) 0.91532(8)
H2 H -0.18590 0.44230 0.90200
O4 O 0.5697(3) 0.4696(2) 0.88051(8)
C1 C 0.3379(5) 0.2809(3) 0.96023(12)
C2 C 0.2916(5) 0.3899(3) 0.95165(12)
C3 C 0.2927(5) 0.4443(3) 1.00172(13)
C4 C 0.3406(5) 0.3647(3) 1.03878(13)
C5 C 0.3603(6) 0.3862(3) 1.09310(13)
H3 H 0.39330 0.33130 1.11670
C6 C 0.3286(6) 0.4906(4) 1.10899(13)
H4 H 0.34080 0.50660 1.14440
C7 C 0.2770(5) 0.5779(4) 1.07387(14)
C8 C 0.2552(5) 0.5547(3) 1.01930(13)
C9 C 0.1909(5) 0.6410(3) 0.98709(13)
H5 H 0.17370 0.62790 0.95150
C10 C 0.1529(6) 0.7436(3) 1.00633(17)
H6 H 0.10820 0.79830 0.98410
C11 C 0.1818(6) 0.7661(4) 1.06024(16)
H7 H 0.15950 0.83610 1.07340
C12 C 0.2429(6) 0.6839(4) 1.09285(16)
H8 H 0.26200 0.69870 1.12820
C13 C 0.3435(5) 0.1857(3) 0.92568(13)
C14 C 0.3703(5) 0.1973(3) 0.87146(13)
H9 H 0.39410 0.26660 0.85770
C15 C 0.3623(6) 0.1081(3) 0.83795(14)
H10 H 0.37770 0.11700 0.80200
C16 C 0.3309(6) 0.0061(3) 0.85921(16)
C17 C 0.3154(6) -0.0107(3) 0.91221(16)
H11 H 0.30210 -0.08110 0.92570
C18 C 0.3199(5) 0.0807(3) 0.94552(14)
H12 H 0.30690 0.07070 0.98150
C19 C 0.2449(5) 0.4431(3) 0.90009(13)
C20 C 0.0623(6) 0.4616(3) 0.88485(12)
C21 C 0.0066(4) 0.5235(3) 0.83636(11)
H13 H -0.02270 0.59860 0.84590
H14 H -0.10900 0.49110 0.82190
C22 C 0.1631(5) 0.5238(3) 0.79392(12)
C23 C 0.3548(5) 0.5516(3) 0.82024(11)
H15 H 0.45650 0.54200 0.79470
H16 H 0.35310 0.62830 0.83020
C24 C 0.4025(5) 0.4837(3) 0.86829(13)
C25 C 0.1149(6) 0.6116(3) 0.75264(10)
H17 H 0.11310 0.68250 0.76890
H18 H -0.00860 0.59640 0.73770
H19 H 0.21030 0.61050 0.72550
C26 C 0.1704(6) 0.4108(3) 0.76687(12)
H20 H 0.27120 0.41040 0.74130
H21 H 0.05000 0.39660 0.75000
H22 H 0.19460 0.35500 0.79260
#END
