
#######################################################################
#
#                 Cambridge Crystallographic Data Centre
#                                CCDC
#
#######################################################################
#
# If this CIF has been generated from an entry in the Cambridge
# Structural Database, then it will include bibliographic, chemical,
# crystal, experimental, refinement or atomic coordinate data resulting
# from the CCDC's data processing and validation procedures.
#
#######################################################################

data_CSD_CIF_TEVHEH01
_audit_creation_date 2016-10-01
_audit_creation_method CSD-ConQuest-V1
_database_code_CSD TEVHEH01
_database_code_depnum_ccdc_archive 'CCDC 1507710'
_chemical_formula_sum 'C3 H2 N4 O4'
_chemical_formula_moiety
;
C3 H2 N4 O4
;
_journal_coden_Cambridge 24
_journal_volume 51
_journal_year 2010
_journal_page_first 399
_journal_name_full 'Tetrahedron Lett. '
loop_
_publ_author_name
"R.Dudda"
"P.R.Dave"
"R.Damavarapu"
"N.Gelber"
"D.Parrish"
_chemical_name_systematic
;
2,4-dinitro-1H-imidazole
;
_cell_volume   1173.188
_exptl_crystal_colour 'colorless'
_exptl_crystal_density_diffrn 1.79
_exptl_crystal_description 'block'
_diffrn_ambient_temperature 296.1
#These two values have been output from a single CSD field.
_refine_ls_R_factor_gt 0.0451
_refine_ls_wR_factor_gt 0.0451
_symmetry_cell_setting orthorhombic
_symmetry_space_group_name_H-M 'P b c a'
_symmetry_Int_Tables_number 61
loop_
_symmetry_equiv_pos_site_id
_symmetry_equiv_pos_as_xyz
1 x,y,z
2 1/2+x,1/2-y,-z
3 -x,1/2+y,1/2-z
4 1/2-x,-y,1/2+z
5 -x,-y,-z
6 -1/2-x,-1/2+y,z
7 x,-1/2-y,-1/2+z
8 -1/2+x,y,-1/2-z
_cell_length_a 6.3001(12)
_cell_length_b 10.0898(19)
_cell_length_c 18.456(4)
_cell_angle_alpha 90
_cell_angle_beta 90
_cell_angle_gamma 90
_cell_formula_units_Z 8
loop_
_atom_type_symbol
_atom_type_radius_bond
C 0.68
H 0.23
N 0.68
O 0.68
loop_
_atom_site_label
_atom_site_type_symbol
_atom_site_fract_x
_atom_site_fract_y
_atom_site_fract_z
O1 O 0.4256(2) 0.31903(15) 0.04786(8)
O2 O 0.4056(2) 0.10479(16) 0.04504(8)
O3 O 1.1101(2) 0.43786(14) 0.18876(8)
O4 O 1.2941(2) 0.26050(16) 0.20412(8)
N1 N 0.8036(2) 0.30000(13) 0.11873(7)
N2 N 0.7814(2) 0.08136(15) 0.11334(9)
H1 H 0.733(3) 0.002(2) 0.1058(11)
N3 N 0.4936(3) 0.20837(17) 0.06050(8)
N4 N 1.1368(3) 0.31904(16) 0.18291(8)
C1 C 0.6932(3) 0.19850(16) 0.09778(9)
C2 C 0.9655(3) 0.10810(18) 0.14713(11)
H2 H 1.054(3) 0.0417(19) 0.1654(11)
C3 C 0.9739(3) 0.24190(16) 0.14958(9)
#END
