
#######################################################################
#
#                 Cambridge Crystallographic Data Centre
#                                CCDC
#
#######################################################################
#
# If this CIF has been generated from an entry in the Cambridge
# Structural Database, then it will include bibliographic, chemical,
# crystal, experimental, refinement or atomic coordinate data resulting
# from the CCDC's data processing and validation procedures.
#
#######################################################################

data_CSD_CIF_TEVMUF
_audit_creation_date 2018-05-01
_audit_creation_method CSD-ConQuest-V1
_database_code_CSD TEVMUF
_database_code_depnum_ccdc_archive 'CCDC 1840743'
_chemical_formula_sum 'C17 H30 N4 O6'
_chemical_formula_moiety
;
C17 H30 N4 O6
;
_journal_coden_Cambridge 179
_journal_volume 53
_journal_year 2014
_journal_page_first 4994
_journal_name_full 'Angew.Chem.,Int.Ed. '
loop_
_publ_author_name
"T.Bottcher"
"J.Clardy"
_chemical_name_systematic
;
1,11-dihydroxy-1,6,11,16-tetraazacyclohenicosane-2,5,12,15-tetrone
;
_chemical_name_common
;
avaroferrin
;
_cell_volume    963.654
_exptl_crystal_colour 'colorless'
_exptl_crystal_density_diffrn 1.332
_exptl_special_details
;
inhibitor of bacterial swarming

;
_exptl_crystal_description 'block'
_exptl_crystal_preparation 'methanol'
_diffrn_ambient_temperature 100
_refine_special_details
;
C13,C14,C15,C16,C17,C5,C6,C7,C8 and C13A,C14A,C15A,C16A,C17A,C5A,C6A,C7A,C8A 
disordered over two sites with occupancies 0.6999:0.3001.
;
#These two values have been output from a single CSD field.
_refine_ls_R_factor_gt 0.0338
_refine_ls_wR_factor_gt 0.0338
_chemical_compound_source
;
Shewanella algae B516
;
_symmetry_cell_setting monoclinic
_symmetry_space_group_name_H-M 'P c'
_symmetry_Int_Tables_number 7
loop_
_symmetry_equiv_pos_site_id
_symmetry_equiv_pos_as_xyz
1 x,y,z
2 x,-y,1/2+z
_cell_length_a 9.0012(2)
_cell_length_b 11.5094(2)
_cell_length_c 9.4906(2)
_cell_angle_alpha 90
_cell_angle_beta 101.447(1)
_cell_angle_gamma 90
_cell_formula_units_Z 2
loop_
_atom_type_symbol
_atom_type_radius_bond
C 0.68
H 0.23
N 0.68
O 0.68
loop_
_atom_site_label
_atom_site_type_symbol
_atom_site_fract_x
_atom_site_fract_y
_atom_site_fract_z
C1 C 0.5355(3) -0.0274(2) 0.2115(2)
C2 C 0.4191(3) -0.12006(18) 0.2208(3)
H1 H 0.39510 -0.11890 0.31820
H2 H 0.46250 -0.19720 0.20640
C3 C 0.2735(3) -0.10328(18) 0.1099(2)
H3 H 0.29810 -0.09560 0.01320
H4 H 0.20790 -0.17230 0.10940
C4 C 0.1895(3) 0.00392(19) 0.1431(2)
C5 C 0.0870(5) 0.1921(4) 0.0676(5)
H5 H -0.00660 0.17700 0.10460
H6 H 0.05690 0.23380 -0.02480
C6 C 0.1881(4) 0.2730(3) 0.1738(4)
H7 H 0.22890 0.23040 0.26370
H8 H 0.27470 0.29950 0.13200
C7 C 0.0972(4) 0.3782(3) 0.2072(3)
H9 H -0.00520 0.35150 0.21560
H10 H 0.08500 0.43250 0.12490
C8 C 0.1675(7) 0.4454(5) 0.3457(8)
H11 H 0.08960 0.49790 0.37080
H12 H 0.19550 0.38900 0.42530
C9 C 0.4236(3) 0.5216(2) 0.4436(2)
C10 C 0.5384(2) 0.61390(18) 0.4303(2)
H13 H 0.49420 0.69130 0.44170
H14 H 0.56250 0.61020 0.33310
C11 C 0.6846(2) 0.59964(18) 0.5429(2)
H15 H 0.74880 0.66950 0.54260
H16 H 0.65950 0.59260 0.63950
C12 C 0.7712(2) 0.49348(18) 0.5124(2)
C13 C 0.9118(3) 0.3185(3) 0.6176(4)
H17 H 0.99360 0.31530 0.70430
H18 H 0.95910 0.32170 0.53200
C14 C 0.8127(3) 0.2110(2) 0.6107(3)
H19 H 0.76820 0.20810 0.69800
H20 H 0.87690 0.14120 0.61090
C15 C 0.6839(4) 0.2070(3) 0.4775(3)
H21 H 0.61040 0.14650 0.49240
H22 H 0.63030 0.28260 0.46850
C16 C 0.7358(4) 0.1818(3) 0.3372(3)
H23 H 0.65220 0.20180 0.25620
H24 H 0.82220 0.23350 0.33120
C17 C 0.7833(10) 0.0578(7) 0.3181(10)
H25 H 0.81990 0.05060 0.22670
H26 H 0.86750 0.03640 0.39780
N1 N 0.6561(2) -0.02053(15) 0.3164(2)
N2 N 0.1512(2) 0.08118(16) 0.03898(19)
H27 H 0.16480 0.06510 -0.04820
N3 N 0.3013(2) 0.51426(16) 0.3352(2)
N4 N 0.8179(2) 0.42236(16) 0.6228(2)
H28 H 0.79070 0.43860 0.70470
O1 O 0.68104(17) -0.10953(13) 0.42045(15)
H29 H 0.63240 -0.09490 0.48530
O2 O 0.51891(19) 0.04111(15) 0.10736(16)
O3 O 0.15874(18) 0.01771(14) 0.26419(15)
O4 O 0.27617(17) 0.60567(13) 0.23628(15)
H30 H 0.31710 0.59020 0.16630
O5 O 0.44084(18) 0.45312(15) 0.54651(17)
O6 O 0.79923(16) 0.47538(14) 0.39245(15)
C18? C 0.8647(11) 0.3036(8) 0.5936(13)
H31? H 0.87970 0.26150 0.68630
H32? H 0.96600 0.31060 0.56860
C19? C 0.7719(9) 0.2225(6) 0.4807(8)
H33? H 0.68300 0.19330 0.51680
H34? H 0.73420 0.26690 0.39140
C20? C 0.8649(8) 0.1208(6) 0.4471(8)
H35? H 0.88310 0.06750 0.53070
H36? H 0.96460 0.14970 0.43350
C21? C 0.791(2) 0.0525(18) 0.314(2)
H37? H 0.76250 0.10900 0.23420
H38? H 0.86970 0.00130 0.28750
C22? C 0.0467(11) 0.1805(8) 0.0442(14)
H39? H 0.00360 0.17760 0.13240
H40? H -0.03730 0.18050 -0.04080
C23? C 0.1479(8) 0.2873(6) 0.0445(7)
H41? H 0.19260 0.28550 -0.04280
H42? H 0.08460 0.35800 0.03960
C24? C 0.2751(9) 0.2951(6) 0.1760(7)
H43? H 0.34350 0.35940 0.16140
H44? H 0.33460 0.22220 0.18340
C25? C 0.2239(9) 0.3148(6) 0.3179(7)
H45? H 0.13990 0.26090 0.32480
H46? H 0.30900 0.29810 0.39880
C26? C 0.1711(18) 0.4394(11) 0.329(2)
H47? H 0.09150 0.45920 0.24470
H48? H 0.12850 0.44920 0.41700
H49? H 0.19010 0.07330 -0.03850
H50? H 0.82080 0.44580 0.71160
#END
