
#######################################################################
#
#                 Cambridge Crystallographic Data Centre
#                                CCDC
#
#######################################################################
#
# If this CIF has been generated from an entry in the Cambridge
# Structural Database, then it will include bibliographic, chemical,
# crystal, experimental, refinement or atomic coordinate data resulting
# from the CCDC's data processing and validation procedures.
#
#######################################################################

data_CSD_CIF_TEVSET01
_audit_creation_date 2007-03-22
_audit_creation_method CSD-ConQuest-V1
_database_code_CSD TEVSET01
_database_code_depnum_ccdc_archive 'CCDC 600124'
_chemical_formula_sum 'C18 H16 N4 O4'
_chemical_formula_moiety
;
C18 H16 N4 O4
;
_journal_coden_Cambridge 1094
_journal_volume 17
_journal_year 2006
_journal_page_first 655
_journal_name_full 'Struct.Chem. '
loop_
_publ_author_name
"Yu-Xi Sun"
"Ran Zhang"
"De-Jun Ding"
"Shu Liu"
"Bao-Lin Wang"
"Yan-Li Wang"
"Yong-Xiang Lin"
_chemical_name_systematic
;
4-(2-Hydroxy-5-nitrobenzylideneamino)-1,2-dihydro-1,5-dimethyl-2-phenylpyrazol
-3-one
;
_chemical_melting_point 478.45
_cell_volume   1700.748
_exptl_crystal_colour 'yellow'
_exptl_crystal_density_diffrn 1.376
_exptl_special_details
;
Melting point range 478.45-479.05K

;
_exptl_crystal_description 'needle'
_exptl_crystal_preparation 'methanol'
_diffrn_ambient_temperature 291
#These two values have been output from a single CSD field.
_refine_ls_R_factor_gt 0.0735
_refine_ls_wR_factor_gt 0.0735
_symmetry_cell_setting monoclinic
_symmetry_space_group_name_H-M 'P 21/n'
_symmetry_Int_Tables_number 14
loop_
_symmetry_equiv_pos_site_id
_symmetry_equiv_pos_as_xyz
1 x,y,z
2 1/2-x,1/2+y,1/2-z
3 -x,-y,-z
4 -1/2+x,-1/2-y,-1/2+z
_cell_length_a 6.5897(8)
_cell_length_b 22.345(2)
_cell_length_c 11.6230(13)
_cell_angle_alpha 90
_cell_angle_beta 96.411(1)
_cell_angle_gamma 90
_cell_formula_units_Z 4
loop_
_atom_type_symbol
_atom_type_radius_bond
C 0.68
H 0.23
N 0.68
O 0.68
loop_
_atom_site_label
_atom_site_type_symbol
_atom_site_fract_x
_atom_site_fract_y
_atom_site_fract_z
O1 O 0.1929(5) -0.05126(12) 0.8122(3)
H1 H 0.17710 -0.01580 0.79520
O2 O 0.3707(5) -0.13108(15) 1.3258(3)
O3 O 0.3536(6) -0.03526(19) 1.3506(3)
O4 O 0.1814(4) 0.18949(12) 0.9528(2)
N1 N 0.3461(5) -0.0799(2) 1.2877(4)
N2 N 0.1921(4) 0.06181(14) 0.8422(3)
N3 N 0.1350(5) 0.21763(14) 0.7592(3)
N4 N 0.1000(5) 0.18663(15) 0.6530(2)
C1 C 0.2348(6) -0.05670(19) 0.9275(4)
C2 C 0.2614(6) -0.11342(19) 0.9741(4)
H2 H 0.25310 -0.14660 0.92550
C3 C 0.2998(6) -0.12104(19) 1.0910(5)
H3 H 0.31850 -0.15930 1.12200
C4 C 0.3107(6) -0.0722(2) 1.1625(4)
C5 C 0.2890(5) -0.01511(17) 1.1179(4)
H4 H 0.30080 0.01750 1.16790
C6 C 0.2497(5) -0.00565(17) 0.9997(4)
C7 C 0.2276(5) 0.05390(17) 0.9528(4)
H5 H 0.23890 0.08680 1.00220
C8 C 0.1683(5) 0.11863(17) 0.7931(3)
C9 C 0.1681(6) 0.17577(18) 0.8497(4)
C10 C 0.1343(6) 0.12764(17) 0.6767(3)
C11 C 0.1283(7) 0.08320(18) 0.5811(3)
H6 H 0.01000 0.09030 0.52680
H7 H 0.12190 0.04350 0.61230
H8 H 0.24910 0.08710 0.54260
C12 C 0.1598(7) 0.21751(18) 0.5516(3)
H9 H 0.29960 0.23010 0.56640
H10 H 0.07410 0.25190 0.53520
H11 H 0.14500 0.19090 0.48630
C13 C 0.0262(7) 0.27230(17) 0.7724(3)
C14 C 0.1153(8) 0.3156(2) 0.8435(4)
H12 H 0.24610 0.31000 0.88110
C15 C 0.0104(11) 0.3679(2) 0.8596(5)
H13 H 0.06960 0.39770 0.90810
C16 C -0.1810(12) 0.3754(3) 0.8035(5)
H14 H -0.25250 0.41040 0.81470
C17 C -0.2686(9) 0.3327(3) 0.7316(4)
H15 H -0.39860 0.33860 0.69330
C18 C -0.1646(8) 0.2802(2) 0.7155(4)
H16 H -0.22380 0.25070 0.66630
#END
