
#######################################################################
#
#                 Cambridge Crystallographic Data Centre
#                                CCDC
#
#######################################################################
#
# If this CIF has been generated from an entry in the Cambridge
# Structural Database, then it will include bibliographic, chemical,
# crystal, experimental, refinement or atomic coordinate data resulting
# from the CCDC's data processing and validation procedures.
#
#######################################################################

data_CSD_CIF_TEWJOU
_audit_creation_date 1997-03-05
_audit_creation_method CSD-ConQuest-V1
_database_code_CSD TEWJOU
_database_code_depnum_ccdc_archive 'CCDC 1269818'
_database_code_depnum_ccdc_fiz 'CSD 405039'
_chemical_formula_sum 'C11 H14 N6 O6'
_chemical_formula_moiety
;
C11 H14 N6 O6
;
_journal_coden_Cambridge 167
_journal_year 1996
_journal_page_first 1175
_journal_name_full 'Liebigs Ann. '
loop_
_publ_author_name
"J.J.Wolff"
"F.Gredel"
"D.Hillenbrand"
"H.Irngartinger"
_chemical_name_systematic
;
1,3-Diamino-2,4,6-trinitro-5-piperidinobenzene
;
_chemical_melting_point 505.15
_cell_volume   1343.987
_exptl_crystal_colour 'orange'
_exptl_crystal_density_diffrn 1.61
_exptl_special_details
;
Melts with decomposition.

;
_diffrn_ambient_temperature ?
_diffrn_special_details
;
The study was carried out at room temperature,in the range 283-303K

;
#These two values have been output from a single CSD field.
_refine_ls_R_factor_gt 0.039
_refine_ls_wR_factor_gt 0.039
_symmetry_cell_setting monoclinic
_symmetry_space_group_name_H-M 'P 21/n'
_symmetry_Int_Tables_number 14
loop_
_symmetry_equiv_pos_site_id
_symmetry_equiv_pos_as_xyz
1 x,y,z
2 1/2-x,1/2+y,1/2-z
3 -x,-y,-z
4 -1/2+x,-1/2-y,-1/2+z
_cell_length_a 12.312(2)
_cell_length_b 8.916(1)
_cell_length_c 13.644(2)
_cell_angle_alpha 90
_cell_angle_beta 116.19(1)
_cell_angle_gamma 90
_cell_formula_units_Z 4
loop_
_atom_type_symbol
_atom_type_radius_bond
C 0.68
H 0.23
N 0.68
O 0.68
loop_
_atom_site_label
_atom_site_type_symbol
_atom_site_fract_x
_atom_site_fract_y
_atom_site_fract_z
O1 O 0.7011(1) 0.6770(2) 1.2086(1)
O2 O 0.6131(1) 0.8651(2) 1.1076(1)
O3 O 0.6964(2) 0.1736(2) 1.0111(1)
O4 O 0.7843(1) 0.2614(2) 0.9173(1)
O5 O 0.3790(1) 0.5862(2) 0.66295(9)
O6 O 0.4579(2) 0.8073(2) 0.6935(1)
N1 N 0.6489(1) 0.7329(2) 1.1164(1)
N2 N 0.7083(1) 0.4215(2) 1.1305(1)
N3 N 0.7115(1) 0.2721(2) 0.9554(1)
N4 N 0.5776(1) 0.3907(2) 0.74447(9)
N5 N 0.4575(1) 0.6744(2) 0.7203(1)
N6 N 0.5498(2) 0.8624(2) 0.9032(1)
C1 C 0.6291(1) 0.6473(2) 1.0221(1)
C2 C 0.6601(1) 0.4903(2) 1.0340(1)
C3 C 0.6437(1) 0.4117(2) 0.9384(1)
C4 C 0.5886(1) 0.4724(2) 0.8328(1)
C5 C 0.5501(1) 0.6232(2) 0.8246(1)
C6 C 0.5775(1) 0.7170(2) 0.9165(1)
C7 C 0.5292(2) 0.2371(2) 0.7241(1)
C8 C 0.5973(2) 0.1356(2) 0.6810(2)
C9 C 0.6091(2) 0.2052(3) 0.5849(1)
C10 C 0.6608(2) 0.3616(2) 0.6138(1)
C11 C 0.5820(1) 0.4584(2) 0.6486(1)
H1 H 0.726(2) 0.476(2) 1.187(2)
H2 H 0.717(2) 0.319(2) 1.131(1)
H3 H 0.566(2) 0.912(3) 0.967(2)
H4 H 0.520(2) 0.900(3) 0.829(2)
H5 H 0.445(2) 0.248(2) 0.667(1)
H6 H 0.526(1) 0.199(2) 0.791(1)
H7 H 0.678(2) 0.117(2) 0.740(1)
H8 H 0.552(2) 0.046(2) 0.656(1)
H9 H 0.530(2) 0.215(2) 0.521(1)
H10 H 0.660(2) 0.142(2) 0.557(2)
H11 H 0.740(2) 0.361(2) 0.677(1)
H12 H 0.668(1) 0.412(2) 0.551(1)
H13 H 0.612(1) 0.558(2) 0.667(1)
H14 H 0.496(2) 0.460(2) 0.582(1)
#END
