
#######################################################################
#
#                 Cambridge Crystallographic Data Centre
#                                CCDC
#
#######################################################################
#
# If this CIF has been generated from an entry in the Cambridge
# Structural Database, then it will include bibliographic, chemical,
# crystal, experimental, refinement or atomic coordinate data resulting
# from the CCDC's data processing and validation procedures.
#
#######################################################################

data_CSD_CIF_TEWNAN
_audit_creation_date 2018-05-02
_audit_creation_method CSD-ConQuest-V1
_database_code_CSD TEWNAN
_database_code_depnum_ccdc_archive 'CCDC 1588797'
_chemical_formula_sum 'C33 H36 N2 O4'
_chemical_formula_moiety
;
C33 H36 N2 O4
;
_journal_coden_Cambridge 1182
_journal_year 2018
_journal_name_full 'Chin.Chem.Lett. '
loop_
_publ_author_name
"Wei Sun"
"Feng Jiang"
"Honglei Liu"
"Xing Gao"
"Hao Jia"
"Cheng Zhang"
"Hongchao Guo"
_chemical_name_systematic
;
ethyl 
6-benzyl-3,9-bis(2,4,6-trimethylphenyl)-1,7-dioxa-2,8-diazaspiro[4.4]nona-2,8-
diene-6-carboxylate
;
_cell_volume   2869.301
_exptl_crystal_colour 'colorless'
_exptl_crystal_density_diffrn 1.215
_exptl_crystal_description 'block'
_diffrn_ambient_temperature 173
#These two values have been output from a single CSD field.
_refine_ls_R_factor_gt 0.1003
_refine_ls_wR_factor_gt 0.1003
_symmetry_cell_setting monoclinic
_symmetry_space_group_name_H-M 'P 21/c'
_symmetry_Int_Tables_number 14
loop_
_symmetry_equiv_pos_site_id
_symmetry_equiv_pos_as_xyz
1 x,y,z
2 -x,1/2+y,1/2-z
3 -x,-y,-z
4 x,-1/2-y,-1/2+z
_cell_length_a 11.988(4)
_cell_length_b 11.280(4)
_cell_length_c 21.220(7)
_cell_angle_alpha 90
_cell_angle_beta 90.616(6)
_cell_angle_gamma 90
_cell_formula_units_Z 4
loop_
_atom_type_symbol
_atom_type_radius_bond
C 0.68
H 0.23
N 0.68
O 0.68
loop_
_atom_site_label
_atom_site_type_symbol
_atom_site_fract_x
_atom_site_fract_y
_atom_site_fract_z
O1 O 0.61282(19) 0.1402(2) 0.62937(11)
O2 O 0.3872(2) 0.0519(2) 0.67690(11)
O3 O 0.4271(2) 0.2297(2) 0.53999(12)
O4 O 0.3779(2) 0.0395(2) 0.55819(11)
N1 N 0.6976(2) 0.2251(3) 0.61460(13)
N2 N 0.4534(3) 0.0456(3) 0.73262(14)
C1 C 0.5301(3) 0.1950(3) 0.67056(15)
C2 C 0.4119(3) 0.1639(3) 0.64606(16)
C3 C 0.5301(3) 0.1241(3) 0.73142(16)
C4 C 0.5655(3) 0.3244(3) 0.67500(17)
H1 H 0.50984 0.37717 0.65462
H2 H 0.57661 0.34911 0.71938
C5 C 0.6729(3) 0.3243(3) 0.64009(15)
C6 C 0.7441(3) 0.4316(3) 0.63460(16)
C7 C 0.7180(3) 0.5176(3) 0.58938(17)
C8 C 0.7806(3) 0.6218(3) 0.58843(18)
H3 H 0.76409 0.68014 0.55743
C9 C 0.8666(3) 0.6425(3) 0.63171(18)
C10 C 0.8907(3) 0.5551(3) 0.67548(18)
H4 H 0.94951 0.56788 0.70506
C11 C 0.8317(3) 0.4492(3) 0.67760(17)
C12 C 0.6197(3) 0.5034(4) 0.54428(19)
H5 H 0.61003 0.41934 0.53390
H6 H 0.63383 0.54832 0.50565
H7 H 0.55195 0.53334 0.56418
C13 C 0.9274(3) 0.7605(4) 0.6326(2)
H8 H 0.93612 0.78915 0.58934
H9 H 1.00114 0.75032 0.65228
H10 H 0.88430 0.81825 0.65678
C14 C 0.8599(4) 0.3579(4) 0.7274(2)
H11 H 0.79539 0.34615 0.75471
H12 H 0.92355 0.38554 0.75274
H13 H 0.87897 0.28265 0.70706
C15 C 0.4079(3) 0.1484(3) 0.57493(17)
C16 C 0.3547(4) 0.0178(4) 0.49142(19)
H14 H 0.37972 -0.06303 0.48005
H15 H 0.39657 0.07527 0.46553
C17 C 0.2339(4) 0.0297(4) 0.4782(2)
H16 H 0.21927 0.01447 0.43339
H17 H 0.20970 0.11023 0.48872
H18 H 0.19274 -0.02761 0.50368
C18 C 0.3222(3) 0.2552(3) 0.66540(18)
H19 H 0.31743 0.25642 0.71194
H20 H 0.34612 0.33495 0.65155
C19 C 0.2073(3) 0.2301(4) 0.63815(17)
C20 C 0.1624(3) 0.3057(4) 0.5938(2)
H21 H 0.20555 0.37097 0.57969
C21 C 0.0559(3) 0.2892(4) 0.5690(2)
H22 H 0.02645 0.34327 0.53883
C22 C -0.0064(4) 0.1947(5) 0.5884(2)
H23 H -0.07968 0.18276 0.57220
C23 C 0.0386(4) 0.1172(5) 0.6318(3)
H24 H -0.00366 0.05036 0.64458
C24 C 0.1443(3) 0.1347(4) 0.6571(2)
H25 H 0.17335 0.08088 0.68758
C25 C 0.6083(3) 0.1367(3) 0.78632(16)
C26 C 0.7131(3) 0.0820(3) 0.78788(17)
C27 C 0.7791(3) 0.0969(4) 0.84211(19)
H26 H 0.85031 0.06000 0.84361
C28 C 0.7459(4) 0.1626(4) 0.89350(19)
C29 C 0.6425(4) 0.2164(4) 0.89014(19)
H27 H 0.61823 0.26234 0.92491
C30 C 0.5731(3) 0.2058(4) 0.83788(17)
C31 C 0.7560(3) 0.0087(3) 0.73421(18)
H28 H 0.69360 -0.03278 0.71370
H29 H 0.80990 -0.04945 0.75037
H30 H 0.79244 0.06044 0.70359
C32 C 0.8207(4) 0.1738(5) 0.9517(2)
H31 H 0.86753 0.10293 0.95563
H32 H 0.77446 0.18180 0.98921
H33 H 0.86831 0.24398 0.94754
C33 C 0.4606(4) 0.2656(4) 0.83788(19)
H34 H 0.45687 0.32378 0.80363
H35 H 0.44987 0.30584 0.87829
H36 H 0.40199 0.20602 0.83173
#END
