
#######################################################################
#
#                 Cambridge Crystallographic Data Centre
#                                CCDC
#
#######################################################################
#
# If this CIF has been generated from an entry in the Cambridge
# Structural Database, then it will include bibliographic, chemical,
# crystal, experimental, refinement or atomic coordinate data resulting
# from the CCDC's data processing and validation procedures.
#
#######################################################################

data_CSD_CIF_TEWXOK
_audit_creation_date 2013-05-24
_audit_creation_method CSD-ConQuest-V1
_database_code_CSD TEWXOK
_database_code_depnum_ccdc_archive 'CCDC 857521'
_chemical_formula_sum 'C18 H29 N3 O11'
_chemical_formula_moiety
;
C18 H29 N3 O11
;
_journal_coden_Cambridge 1003
_journal_volume 43
_journal_year 2013
_journal_page_first 123
_journal_name_full 'J.Chem.Cryst. '
loop_
_publ_author_name
"J.R.Deschamps"
"J.E.Saavedra"
"Zhao Cao"
"L.K.Keefer"
"H.Chakrapani"
_chemical_name_systematic
;
2-(Acetoxymethyl)-6-(((2,2-diethyl-1-oxido-1\l^5^-diazan-1-ylidene)amino)oxy)t
etrahydro-2H-pyran-3,4,5-triyl triacetate
;
_cell_volume   1235.739
_exptl_crystal_colour 'colorless'
_exptl_crystal_density_diffrn 1.246
_exptl_crystal_description 'prism'
_diffrn_ambient_temperature 153
#These two values have been output from a single CSD field.
_refine_ls_R_factor_gt 0.0348
_refine_ls_wR_factor_gt 0.0348
loop_
_citation_database_id_CSD
_citation_special_details
BOWXOB "is a stereoisomer of this entry"
_symmetry_cell_setting monoclinic
_symmetry_space_group_name_H-M 'P 21'
_symmetry_Int_Tables_number 4
loop_
_symmetry_equiv_pos_site_id
_symmetry_equiv_pos_as_xyz
1 x,y,z
2 -x,1/2+y,-z
_cell_length_a 6.8046(4)
_cell_length_b 18.0754(17)
_cell_length_c 10.0662(10)
_cell_angle_alpha 90
_cell_angle_beta 93.540(6)
_cell_angle_gamma 90
_cell_formula_units_Z 2
loop_
_atom_type_symbol
_atom_type_radius_bond
C 0.68
H 0.23
N 0.68
O 0.68
loop_
_atom_site_label
_atom_site_type_symbol
_atom_site_fract_x
_atom_site_fract_y
_atom_site_fract_z
N1 N 0.3901(4) 1.11101(16) 0.5872(3)
C1 C 0.6061(6) 1.1144(3) 0.5891(5)
H1 H 0.64580 1.16370 0.56380
H2 H 0.65220 1.07980 0.52420
C2 C 0.7004(8) 1.0962(4) 0.7233(6)
H3 H 0.84100 1.09680 0.71940
H4 H 0.65900 1.04790 0.74970
H5 H 0.66170 1.13210 0.78690
C3 C 0.2991(6) 1.1284(3) 0.4528(4)
H6 H 0.35350 1.09570 0.38810
H7 H 0.33200 1.17880 0.42960
C4 C 0.0784(8) 1.1200(4) 0.4459(7)
H8 H 0.02510 1.13490 0.35950
H9 H 0.02440 1.15040 0.51270
H10 H 0.04510 1.06920 0.46100
N2 N 0.3377(4) 1.03629(14) 0.6175(2)
O1 O 0.3767(4) 0.98408(14) 0.5447(2)
N3 N 0.2537(4) 1.03458(14) 0.7270(2)
O2 O 0.2129(3) 0.96060(11) 0.7532(2)
C5 C 0.1551(4) 0.95706(17) 0.8857(3)
H11 H 0.06250 0.99690 0.90350
O3 O 0.3271(3) 0.96297(12) 0.9689(2)
C6 C 0.2872(4) 0.96162(18) 1.1069(3)
H12 H 0.19050 0.99980 1.12530
C7 C 0.4788(5) 0.9776(2) 1.1829(4)
H13 H 0.47010 0.96450 1.27580
H14 H 0.58350 0.94860 1.14720
O4 O 0.5204(3) 1.05567(13) 1.1708(3)
C8 C 0.6910(5) 1.0769(2) 1.1283(4)
O5 O 0.8137(4) 1.0354(2) 1.0955(4)
C9 C 0.7067(6) 1.1592(2) 1.1230(5)
H15 H 0.84230 1.17350 1.13680
H16 H 0.63220 1.18060 1.19130
H17 H 0.65560 1.17650 1.03750
C10 C 0.2060(4) 0.88565(19) 1.1377(3)
H18 H 0.30800 0.84780 1.13060
O6 O 0.1375(4) 0.88674(15) 1.2705(2)
C11 C 0.2147(8) 0.8378(3) 1.3616(4)
O7 O 0.3565(9) 0.8031(3) 1.3445(4)
C12 C 0.0999(10) 0.8382(3) 1.4824(5)
H19 H 0.14700 0.79960 1.54170
H20 H -0.03680 0.83000 1.45720
H21 H 0.11520 0.88510 1.52630
C13 C 0.0279(4) 0.86734(17) 1.0461(3)
H22 H -0.08470 0.89660 1.07220
O8 O -0.0126(3) 0.79024(12) 1.0652(2)
C14 C -0.2009(5) 0.7680(2) 1.0700(4)
O9 O -0.3381(4) 0.80793(19) 1.0537(4)
C15 C -0.2099(7) 0.6872(3) 1.0940(6)
H23 H -0.24610 0.66220 1.01190
H24 H -0.30620 0.67700 1.15730
H25 H -0.08330 0.66990 1.12820
C16 C 0.0605(4) 0.88187(17) 0.9009(3)
H26 H 0.14300 0.84300 0.86540
O10 O -0.1254(3) 0.88584(11) 0.8258(2)
C17 C -0.1939(5) 0.8246(2) 0.7613(3)
O11 O -0.1051(4) 0.76804(14) 0.7601(3)
C18 C -0.3932(6) 0.8380(3) 0.6983(5)
H27 H -0.45110 0.79180 0.66980
H28 H -0.38370 0.87000 0.62280
H29 H -0.47390 0.86100 0.76150
#END
