
#######################################################################
#
#                 Cambridge Crystallographic Data Centre
#                                CCDC
#
#######################################################################
#
# If this CIF has been generated from an entry in the Cambridge
# Structural Database, then it will include bibliographic, chemical,
# crystal, experimental, refinement or atomic coordinate data resulting
# from the CCDC's data processing and validation procedures.
#
#######################################################################

data_CSD_CIF_TEYHOV
_audit_creation_date 2007-05-24
_audit_creation_method CSD-ConQuest-V1
_database_code_CSD TEYHOV
_database_code_depnum_ccdc_archive 'CCDC 641583'
_chemical_formula_sum 'C9 H9 N1 O1'
_chemical_formula_moiety
;
C9 H9 N1 O1
;
_journal_coden_Cambridge 4
_journal_volume 129
_journal_year 2007
_journal_page_first 2713
_journal_name_full 'J.Am.Chem.Soc. '
loop_
_publ_author_name
"D.L.J.Clive"
"M.P.Pham"
"R.Subedi"
_chemical_name_systematic
;
indan-1-one oxime
;
_chemical_name_common
;
2,3-dihydro-1H-inden-1-one oxime
;
_chemical_melting_point 421.15
_cell_volume   2992.469
_exptl_crystal_colour 'colorless'
_exptl_crystal_density_diffrn 1.307
_exptl_special_details
;
Melting point range 421.15-423.15K

;
_exptl_crystal_description 'rod'
_exptl_crystal_preparation 'isopropanol/hexane'
_diffrn_ambient_temperature 193
#These two values have been output from a single CSD field.
_refine_ls_R_factor_gt 0.0444
_refine_ls_wR_factor_gt 0.0444
_symmetry_cell_setting tetragonal
_symmetry_space_group_name_H-M 'I 41/a'
_symmetry_Int_Tables_number 88
loop_
_symmetry_equiv_pos_site_id
_symmetry_equiv_pos_as_xyz
1 x,y,z
2 3/4-y,1/4+x,1/4+z
3 1/2+x,1/2+y,1/2+z
4 1/4-y,3/4+x,3/4+z
5 1/4+y,1/4-x,1/4+z
6 1/2-x,-y,1/2+z
7 3/4+y,3/4-x,3/4+z
8 -x,1/2-y,z
9 -x,-y,-z
10 -3/4+y,-1/4-x,-1/4-z
11 -1/2-x,-1/2-y,-1/2-z
12 -1/4+y,-3/4-x,-3/4-z
13 -1/4-y,-1/4+x,-1/4-z
14 -1/2+x,y,-1/2-z
15 -3/4-y,-3/4+x,-3/4-z
16 x,-1/2+y,-z
_cell_length_a 22.498(2)
_cell_length_b 22.498(2)
_cell_length_c 5.9121(11)
_cell_angle_alpha 90
_cell_angle_beta 90
_cell_angle_gamma 90
_cell_formula_units_Z 16
loop_
_atom_type_symbol
_atom_type_radius_bond
C 0.68
H 0.23
N 0.68
O 0.68
loop_
_atom_site_label
_atom_site_type_symbol
_atom_site_fract_x
_atom_site_fract_y
_atom_site_fract_z
O1 O 0.06105(6) 0.31078(6) 0.4194(2)
H1 H 0.04000 0.31930 0.53230
N1 N 0.09102(7) 0.25702(7) 0.4591(3)
C1 C 0.12765(8) 0.24643(8) 0.2980(3)
C2 C 0.13848(8) 0.28385(8) 0.0930(3)
H2 H 0.15050 0.32460 0.13680
H3 H 0.10220 0.28620 -0.00150
C3 C 0.18912(8) 0.25240(9) -0.0365(3)
H4 H 0.17630 0.24180 -0.19160
H5 H 0.22470 0.27820 -0.04600
C4 C 0.20215(8) 0.19733(8) 0.1002(3)
C5 C 0.24410(9) 0.15332(9) 0.0583(4)
H6 H 0.26850 0.15510 -0.07270
C6 C 0.24976(10) 0.10705(10) 0.2099(4)
H7 H 0.27850 0.07690 0.18320
C7 C 0.21392(9) 0.10386(9) 0.4011(4)
H8 H 0.21850 0.07160 0.50340
C8 C 0.17198(9) 0.14686(8) 0.4435(3)
H9 H 0.14730 0.14460 0.57370
C9 C 0.16639(8) 0.19380(8) 0.2919(3)
#END
