
#######################################################################
#
#                 Cambridge Crystallographic Data Centre
#                                CCDC
#
#######################################################################
#
# If this CIF has been generated from an entry in the Cambridge
# Structural Database, then it will include bibliographic, chemical,
# crystal, experimental, refinement or atomic coordinate data resulting
# from the CCDC's data processing and validation procedures.
#
#######################################################################

data_CSD_CIF_TEZRIA
_audit_creation_date 2007-05-24
_audit_creation_method CSD-ConQuest-V1
_database_code_CSD TEZRIA
_database_code_depnum_ccdc_archive 'CCDC 625419'
_chemical_formula_sum 'C31 H30 N1 O1'
_chemical_formula_moiety
;
C31 H30 N1 O1
;
_journal_coden_Cambridge 1145
_journal_volume 17
_journal_year 2007
_journal_page_first 1209
_journal_name_full 'J.Mater.Chem. '
loop_
_publ_author_name
"H.Oka"
"H.Kouno"
"H.Tanaka"
_chemical_name_systematic
;
9,9-di-n-propyl-9,10-dihydroacridin-10-yloxyl
;
_chemical_melting_point 421.15
_cell_volume   2458.251
_exptl_crystal_colour 'red'
_exptl_crystal_density_diffrn 1.169
_exptl_special_details
;
Melting point range 421.15-423.15K

;
_exptl_crystal_description 'prism'
_exptl_crystal_preparation 'methanol'
_diffrn_ambient_temperature 296
#These two values have been output from a single CSD field.
_refine_ls_R_factor_gt 0.0451
_refine_ls_wR_factor_gt 0.0451
_symmetry_cell_setting monoclinic
_symmetry_space_group_name_H-M 'C c'
_symmetry_Int_Tables_number 9
loop_
_symmetry_equiv_pos_site_id
_symmetry_equiv_pos_as_xyz
1 x,y,z
2 x,-y,1/2+z
3 1/2+x,1/2+y,z
4 1/2+x,1/2-y,1/2+z
_cell_length_a 11.0586(6)
_cell_length_b 25.0054(11)
_cell_length_c 9.3633(7)
_cell_angle_alpha 90
_cell_angle_beta 108.299(2)
_cell_angle_gamma 90
_cell_formula_units_Z 4
loop_
_atom_type_symbol
_atom_type_radius_bond
C 0.68
H 0.23
N 0.68
O 0.68
loop_
_atom_site_label
_atom_site_type_symbol
_atom_site_fract_x
_atom_site_fract_y
_atom_site_fract_z
C1 C 0.0172(3) 0.89821(10) 1.0203(3)
C2 C 0.1336(3) 0.86191(10) 1.0591(3)
C3 C 0.1658(3) 0.83060(11) 0.9523(3)
C4 C 0.2726(3) 0.79753(13) 0.9933(4)
H1 H 0.29230 0.77710 0.92060
C5 C 0.3489(3) 0.79505(13) 1.1400(4)
H2 H 0.42070 0.77330 1.16560
C6 C 0.3204(3) 0.82476(11) 1.2523(3)
C7 C 0.2132(3) 0.85784(11) 1.2069(3)
H3 H 0.19390 0.87830 1.27980
C8 C 0.3986(3) 0.82139(10) 1.4127(3)
C9 C 0.5280(3) 0.80908(14) 1.4565(4)
H4 H 0.56670 0.80180 1.38360
C10 C 0.5994(4) 0.80761(16) 1.6068(5)
H5 H 0.68550 0.79910 1.63400
C11 C 0.5451(4) 0.81844(18) 1.7163(5)
H6 H 0.59430 0.81790 1.81710
C12 C 0.4176(4) 0.83008(15) 1.6763(4)
H7 H 0.38010 0.83720 1.75040
C13 C 0.3447(3) 0.83125(12) 1.5267(4)
H8 H 0.25810 0.83870 1.50130
C14 C -0.0530(3) 0.89886(11) 0.8510(3)
C15 C -0.0167(3) 0.86571(12) 0.7504(3)
C16 C -0.0840(3) 0.86638(13) 0.5971(3)
H9 H -0.06020 0.84370 0.53190
C17 C -0.1858(3) 0.90062(13) 0.5416(3)
H10 H -0.22920 0.90130 0.43900
C18 C -0.2244(3) 0.93428(12) 0.6381(3)
C19 C -0.1568(3) 0.93213(11) 0.7909(3)
H11 H -0.18260 0.95410 0.85600
C20 C -0.3316(3) 0.97185(12) 0.5781(3)
C21 C -0.4377(4) 0.95728(17) 0.4589(5)
H12 H -0.44320 0.92290 0.41950
C22 C -0.5344(5) 0.9931(2) 0.3988(6)
H13 H -0.60420 0.98280 0.31840
C23 C -0.5298(4) 1.04374(18) 0.4549(5)
H14 H -0.59510 1.06790 0.41220
C24 C -0.4282(4) 1.05844(16) 0.5747(6)
H15 H -0.42550 1.09240 0.61620
C25 C -0.3290(4) 1.02290(14) 0.6347(4)
H16 H -0.25930 1.03370 0.71460
C26 C 0.0581(3) 0.95585(11) 1.0739(3)
H17 H -0.01760 0.97800 1.05050
H18 H 0.09590 0.95540 1.18240
C27 C 0.1512(3) 0.98157(12) 1.0067(4)
H19 H 0.11700 0.97950 0.89790
H20 H 0.23020 0.96150 1.03780
C28 C 0.1796(4) 1.03957(13) 1.0518(5)
H21 H 0.20960 1.04230 1.15950
H22 H 0.10350 1.06040 1.01280
H23 H 0.24380 1.05270 1.01170
C29 C -0.0750(3) 0.87836(11) 1.1034(3)
H24 H -0.03160 0.88050 1.21080
H25 H -0.14700 0.90260 1.08060
C30 C -0.1257(3) 0.82195(13) 1.0669(4)
H26 H -0.05470 0.79720 1.09130
H27 H -0.16980 0.81930 0.95980
C31 C -0.2162(4) 0.80589(17) 1.1524(5)
H28 H -0.28520 0.83100 1.13160
H29 H -0.17120 0.80570 1.25830
H30 H -0.24930 0.77080 1.12120
N1 N 0.0877(2) 0.83116(10) 0.8011(3)
O1 O 0.1143(3) 0.79972(11) 0.7067(3)
#END
