
#######################################################################
#
#                 Cambridge Crystallographic Data Centre
#                                CCDC
#
#######################################################################
#
# If this CIF has been generated from an entry in the Cambridge
# Structural Database, then it will include bibliographic, chemical,
# crystal, experimental, refinement or atomic coordinate data resulting
# from the CCDC's data processing and validation procedures.
#
#######################################################################

data_CSD_CIF_TEZXOM
_audit_creation_date 2007-05-24
_audit_creation_method CSD-ConQuest-V1
_database_code_CSD TEZXOM
_database_code_depnum_ccdc_archive 'CCDC 642912'
_chemical_formula_sum 'C24 H16 N2 O6'
_chemical_formula_moiety
;
C24 H16 N2 O6
;
_journal_coeditor_code "IUCr BH2083"
_journal_coden_Cambridge 1370
_journal_volume 63
_journal_year 2007
_journal_page_first o1710
_journal_name_full 'Acta Crystallogr.,Sect.E:Struct.Rep.Online '
loop_
_publ_author_name
"S.Sajid"
"Z.Akhter"
"M.Bolte"
"H.M.Siddiqi"
_chemical_name_systematic
;
4,4'-bis(4-Nitrophenoxy)biphenyl
;
_chemical_melting_point 418
_cell_volume    996.047
_exptl_crystal_colour 'light brown'
_exptl_crystal_density_diffrn 1.428
_exptl_crystal_description 'block'
_exptl_crystal_preparation 'ethanol'
_diffrn_ambient_temperature 173
#These two values have been output from a single CSD field.
_refine_ls_R_factor_gt 0.0244
_refine_ls_wR_factor_gt 0.0244
_symmetry_cell_setting monoclinic
_symmetry_space_group_name_H-M 'P 21/c'
_symmetry_Int_Tables_number 14
loop_
_symmetry_equiv_pos_site_id
_symmetry_equiv_pos_as_xyz
1 x,y,z
2 -x,1/2+y,1/2-z
3 -x,-y,-z
4 x,-1/2-y,-1/2+z
_cell_length_a 10.6245(17)
_cell_length_b 9.0387(14)
_cell_length_c 10.4509(16)
_cell_angle_alpha 90
_cell_angle_beta 97.042(13)
_cell_angle_gamma 90
_cell_formula_units_Z 2
loop_
_atom_type_symbol
_atom_type_radius_bond
C 0.68
H 0.23
N 0.68
O 0.68
loop_
_atom_site_label
_atom_site_type_symbol
_atom_site_fract_x
_atom_site_fract_y
_atom_site_fract_z
O1 O 0.74680(6) 0.27835(4) 0.67480(5)
N1 N 0.88059(7) 0.57912(5) 0.24384(6)
O2 O 0.82727(6) 0.69709(4) 0.21113(5)
O3 O 0.96227(7) 0.52261(5) 0.18511(6)
C1 C 0.67598(9) 0.34822(6) 0.76328(7)
C2 C 0.56139(9) 0.28363(6) 0.78233(7)
H1 H 0.52990 0.20010 0.73330
C3 C 0.49339(9) 0.34526(6) 0.87603(7)
H2 H 0.41430 0.30250 0.88920
C4 C 0.53699(7) 0.46618(5) 0.95022(6)
C5 C 0.65561(9) 0.52604(6) 0.92945(7)
H3 H 0.68930 0.60750 0.98000
C6 C 0.72385(9) 0.46709(6) 0.83579(8)
H4 H 0.80310 0.50880 0.82210
C7 C 0.77757(8) 0.36068(6) 0.57130(6)
C8 C 0.70996(9) 0.48531(5) 0.52442(7)
H5 H 0.64120 0.52080 0.56590
C9 C 0.74410(9) 0.55714(6) 0.41632(7)
H6 H 0.69940 0.64250 0.38280
C10 C 0.84550(8) 0.50122(6) 0.35796(6)
C11 C 0.91284(8) 0.37689(5) 0.40397(6)
H7 H 0.98130 0.34130 0.36210
C12 C 0.87901(8) 0.30550(5) 0.51147(6)
H8 H 0.92390 0.22010 0.54450
O1B O 0.25320(6) 0.72165(4) 1.32520(5)
N1B N 0.11941(7) 0.42088(5) 1.75616(6)
O2B O 0.17273(6) 0.30291(4) 1.78887(5)
O3B O 0.03773(7) 0.47739(5) 1.81489(6)
C1B C 0.32402(9) 0.65178(6) 1.23672(7)
C2B C 0.43861(9) 0.71637(6) 1.21767(7)
H1B H 0.47010 0.79990 1.26670
C3B C 0.50661(9) 0.65474(6) 1.12397(7)
H2B H 0.58570 0.69750 1.11080
C4B C 0.46301(7) 0.53382(5) 1.04978(6)
C5B C 0.34439(9) 0.47396(6) 1.07055(7)
H3B H 0.31070 0.39250 1.02000
C6B C 0.27615(9) 0.53291(6) 1.16421(8)
H4B H 0.19690 0.49120 1.17790
C7B C 0.22243(8) 0.63932(6) 1.42870(6)
C8B C 0.29004(9) 0.51469(5) 1.47558(7)
H5B H 0.35880 0.47920 1.43410
C9B C 0.25590(9) 0.44286(6) 1.58368(7)
H6B H 0.30060 0.35750 1.61720
C10B C 0.15450(8) 0.49878(6) 1.64204(6)
C11B C 0.08716(8) 0.62311(5) 1.59603(6)
H7B H 0.01870 0.65870 1.63790
C12B C 0.12099(8) 0.69450(5) 1.48853(6)
H8B H 0.07610 0.77990 1.45550
#END
