
#######################################################################
#
#                 Cambridge Crystallographic Data Centre
#                                CCDC
#
#######################################################################
#
# If this CIF has been generated from an entry in the Cambridge
# Structural Database, then it will include bibliographic, chemical,
# crystal, experimental, refinement or atomic coordinate data resulting
# from the CCDC's data processing and validation procedures.
#
#######################################################################

data_CSD_CIF_TIBDIS
_audit_creation_date 2007-05-24
_audit_creation_method CSD-ConQuest-V1
_database_code_CSD TIBDIS
_database_code_depnum_ccdc_archive 'CCDC 642919'
_chemical_formula_sum 'C17 H13 N1 O2'
_chemical_formula_moiety
;
C17 H13 N1 O2
;
_journal_coeditor_code "IUCr BQ2003"
_journal_coden_Cambridge 1370
_journal_volume 63
_journal_year 2007
_journal_page_first o1942
_journal_name_full 'Acta Crystallogr.,Sect.E:Struct.Rep.Online '
loop_
_publ_author_name
"K.Kubo"
"T.Matsumoto"
"K.Yuhi"
"J.Kubo"
"T.Sakurai"
_chemical_name_systematic
;
N-Hydroxy-N-phenylnaphthalene-2-carboxamide
;
_cell_volume   1244.551
_exptl_crystal_colour 'silver'
_exptl_crystal_density_diffrn 1.405
_exptl_crystal_description 'prism'
_exptl_crystal_preparation 'chloroform'
_diffrn_ambient_temperature 123.1
#These two values have been output from a single CSD field.
_refine_ls_R_factor_gt 0.0513
_refine_ls_wR_factor_gt 0.0513
_symmetry_cell_setting monoclinic
_symmetry_space_group_name_H-M 'P 21/c'
_symmetry_Int_Tables_number 14
loop_
_symmetry_equiv_pos_site_id
_symmetry_equiv_pos_as_xyz
1 x,y,z
2 -x,1/2+y,1/2-z
3 -x,-y,-z
4 x,-1/2-y,-1/2+z
_cell_length_a 27.643(15)
_cell_length_b 5.638(3)
_cell_length_c 8.018(4)
_cell_angle_alpha 90
_cell_angle_beta 95.1601(18)
_cell_angle_gamma 90
_cell_formula_units_Z 4
loop_
_atom_type_symbol
_atom_type_radius_bond
C 0.68
H 0.23
N 0.68
O 0.68
loop_
_atom_site_label
_atom_site_type_symbol
_atom_site_fract_x
_atom_site_fract_y
_atom_site_fract_z
O1 O 0.70302(4) 0.2416(2) 0.10352(16)
O2 O 0.72152(4) 0.8111(2) -0.04283(17)
N1 N 0.69303(5) 0.4406(2) 0.00038(17)
C1 C 0.64310(6) 0.4731(2) -0.0571(2)
C2 C 0.60908(6) 0.3149(2) -0.0036(2)
C3 C 0.56045(6) 0.3380(3) -0.0632(2)
C4 C 0.54540(6) 0.5166(3) -0.1743(2)
C5 C 0.57958(6) 0.6729(3) -0.2276(2)
C6 C 0.62841(6) 0.6523(2) -0.1709(2)
C7 C 0.72925(6) 0.6046(2) 0.0020(2)
C8 C 0.80907(5) 0.6742(2) 0.15485(19)
C9 C 0.77979(6) 0.5226(2) 0.0568(2)
C10 C 0.79874(6) 0.3050(2) 0.0010(2)
C11 C 0.84592(6) 0.2435(2) 0.04807(19)
C12 C 0.87658(6) 0.3946(2) 0.15196(19)
C13 C 0.92557(6) 0.3349(2) 0.2030(2)
C14 C 0.95426(6) 0.4847(2) 0.3033(2)
C15 C 0.93555(6) 0.7027(2) 0.3568(2)
C16 C 0.88868(6) 0.7662(2) 0.3081(2)
C17 C 0.85793(5) 0.6139(2) 0.20544(19)
H1 H 0.705(1) 0.112(4) 0.027(3)
H2 H 0.61900 0.19200 0.07310
H3 H 0.53730 0.22950 -0.02710
H4 H 0.51210 0.53210 -0.21360
H5 H 0.56950 0.79580 -0.30390
H6 H 0.65160 0.75910 -0.20920
H7 H 0.79640 0.82120 0.18910
H8 H 0.77870 0.20220 -0.06900
H9 H 0.85830 0.09750 0.01060
H10 H 0.93860 0.18950 0.16720
H11 H 0.98690 0.44210 0.33720
H12 H 0.95570 0.80530 0.42680
H13 H 0.87660 0.91380 0.34350
#END
