
#######################################################################
#
#                 Cambridge Crystallographic Data Centre
#                                CCDC
#
#######################################################################
#
# If this CIF has been generated from an entry in the Cambridge
# Structural Database, then it will include bibliographic, chemical,
# crystal, experimental, refinement or atomic coordinate data resulting
# from the CCDC's data processing and validation procedures.
#
#######################################################################

data_CSD_CIF_TIBHES
_audit_creation_date 2007-05-24
_audit_creation_method CSD-ConQuest-V1
_database_code_CSD TIBHES
_database_code_depnum_ccdc_archive 'CCDC 642954'
_chemical_formula_sum 'C9 H9 N3 O6'
_chemical_formula_moiety
;
C9 H9 N3 O6
;
_journal_coeditor_code "IUCr CV2200"
_journal_coden_Cambridge 1370
_journal_volume 63
_journal_year 2007
_journal_page_first o1790
_journal_name_full 'Acta Crystallogr.,Sect.E:Struct.Rep.Online '
loop_
_publ_author_name
"E.Perez-Mayoral"
"E.Soriano"
"J.Pacheco-Torres"
"P.Ballesteros"
_chemical_name_systematic
;
Dimethyl (2E)-2-(4-nitro-1H-imidazol-1-yl)but-2-enedioate
;
_chemical_melting_point 375
_cell_volume    530.829
_exptl_crystal_colour 'colorless'
_exptl_crystal_density_diffrn 1.597
_exptl_special_details
;
Melting point range 375-377K

;
_exptl_crystal_description 'prism'
_exptl_crystal_preparation 'hexane'
_diffrn_ambient_temperature 100
#These two values have been output from a single CSD field.
_refine_ls_R_factor_gt 0.0282
_refine_ls_wR_factor_gt 0.0282
_symmetry_cell_setting triclinic
_symmetry_space_group_name_H-M 'P -1'
_symmetry_Int_Tables_number 2
loop_
_symmetry_equiv_pos_site_id
_symmetry_equiv_pos_as_xyz
1 x,y,z
2 -x,-y,-z
_cell_length_a 4.7704(1)
_cell_length_b 10.5020(1)
_cell_length_c 11.2873(1)
_cell_angle_alpha 104.931(1)
_cell_angle_beta 96.330(1)
_cell_angle_gamma 100.034(1)
_cell_formula_units_Z 2
loop_
_atom_type_symbol
_atom_type_radius_bond
C 0.68
H 0.23
N 0.68
O 0.68
loop_
_atom_site_label
_atom_site_type_symbol
_atom_site_fract_x
_atom_site_fract_y
_atom_site_fract_z
C1 C 0.1700(2) 0.38551(11) 0.19217(10)
C2 C 0.3147(2) 0.50023(11) 0.17376(10)
C3 C 0.5335(3) 0.44767(11) 0.33258(11)
C4 C 0.7794(2) 0.65440(11) 0.28152(10)
C5 C 0.8180(2) 0.71553(11) 0.19278(10)
C6 C 1.0720(2) 0.82595(11) 0.20908(10)
C7 C 1.2768(3) 1.00387(12) 0.13513(12)
C8 C 0.9775(2) 0.69715(11) 0.40549(10)
C9 C 1.1740(3) 0.87724(14) 0.58268(12)
N1 N -0.0990(2) 0.30561(9) 0.11932(9)
N2 N 0.3031(2) 0.35152(10) 0.28957(9)
N3 N 0.5529(2) 0.54118(9) 0.26479(8)
O1 O -0.21413(19) 0.34984(9) 0.03896(8)
O2 O -0.20049(19) 0.19975(8) 0.13956(8)
O3 O 1.03086(18) 0.89764(8) 0.12910(7)
O4 O 1.29029(18) 0.84583(9) 0.28240(8)
O5 O 0.96040(18) 0.81862(8) 0.47006(7)
O6 O 1.12434(18) 0.62581(8) 0.43763(7)
H1 H 0.271(3) 0.5458(15) 0.1152(14)
H2 H 0.676(3) 0.4536(14) 0.4001(14)
H3 H 0.685(3) 0.6901(14) 0.1131(14)
H4 H 1.296(3) 1.0735(16) 0.2121(15)
H5 H 1.444(4) 0.9654(16) 0.1266(15)
H6 H 1.227(3) 1.0362(15) 0.0662(14)
H7 H 1.139(4) 0.8318(18) 0.6427(17)
H8 H 1.159(4) 0.9681(18) 0.6085(16)
H9 H 1.365(4) 0.8709(17) 0.5631(16)
#END
