
#######################################################################
#
#                 Cambridge Crystallographic Data Centre
#                                CCDC
#
#######################################################################
#
# If this CIF has been generated from an entry in the Cambridge
# Structural Database, then it will include bibliographic, chemical,
# crystal, experimental, refinement or atomic coordinate data resulting
# from the CCDC's data processing and validation procedures.
#
#######################################################################

data_CSD_CIF_TIBKOE
_audit_creation_date 1997-03-12
_audit_creation_method CSD-ConQuest-V1
_database_code_CSD TIBKOE
_chemical_formula_sum 'C15 H16 N2 O6'
_chemical_formula_moiety
;
C15 H16 N2 O6
;
_journal_coden_Cambridge 95
_journal_year 1996
_journal_page_first 1222
_journal_name_full 'Izv.Akad.Nauk SSSR,Ser.Khim.(Russ.)(Russ.Chem.Bull.) '
loop_
_publ_author_name
"L.Yu.Ukhin"
"Zh.I.Orlova"
"O.V.Shishkin"
"Yu.T.Struchkov"
_chemical_name_systematic
;
3-Methoxycarbonyl-2-morpholino-6-nitro-2H-chromene
;
_chemical_melting_point 458
_cell_volume   1507.806
_exptl_crystal_colour 'colorless'
_exptl_special_details
;
Melting point range 458-459K

;
_diffrn_ambient_temperature ?
_diffrn_special_details
;
The study was carried out at room temperature,in the range 283-303K

;
#These two values have been output from a single CSD field.
_refine_ls_R_factor_gt 0.067
_refine_ls_wR_factor_gt 0.067
_symmetry_cell_setting monoclinic
_symmetry_space_group_name_H-M 'P 21/n'
_symmetry_Int_Tables_number 14
loop_
_symmetry_equiv_pos_site_id
_symmetry_equiv_pos_as_xyz
1 x,y,z
2 1/2-x,1/2+y,1/2-z
3 -x,-y,-z
4 -1/2+x,-1/2-y,-1/2+z
_cell_length_a 8.422(2)
_cell_length_b 16.825(4)
_cell_length_c 11.087(3)
_cell_angle_alpha 90
_cell_angle_beta 106.31
_cell_angle_gamma 90
_cell_formula_units_Z 4
loop_
_atom_type_symbol
_atom_type_radius_bond
C 0.68
H 0.23
N 0.68
O 0.68
loop_
_atom_site_label
_atom_site_type_symbol
_atom_site_fract_x
_atom_site_fract_y
_atom_site_fract_z
N1 N -0.08019(66) 0.48499(41) 0.14728(54)
N2 N 0.42893(47) 0.31155(29) 0.71075(38)
O1 O 0.25498(45) 0.42529(25) 0.64670(38)
O2 O -0.16929(73) 0.43439(41) 0.08774(50)
O3 O -0.07009(70) 0.55171(39) 0.10612(51)
O4 O 0.15162(50) 0.21336(31) 0.81374(43)
O5 O -0.00229(46) 0.16959(26) 0.62738(40)
C1 C -0.01057(61) 0.39527(36) 0.32678(53)
H1 H -0.08653(61) 0.35749(36) 0.27675(53)
C2 C 0.01698(68) 0.46597(40) 0.27552(54)
C3 C 0.12590(72) 0.52309(40) 0.34472(65)
H2 H 0.14349(72) 0.57238(40) 0.30678(65)
C4 C 0.20935(73) 0.50713(36) 0.46734(67)
H3 H 0.28565(73) 0.54533(36) 0.51590(67)
C5 C 0.18212(60) 0.43594(36) 0.52173(55)
C6 C 0.27013(59) 0.34494(35) 0.70165(53)
H4 H 0.26095(59) 0.35028(35) 0.78564(53)
C7 C 0.13055(59) 0.29172(35) 0.63156(51)
C8 C 0.04159(58) 0.30824(35) 0.51477(51)
H5 H -0.04482(58) 0.27264(35) 0.47164(51)
C9 C 0.07168(57) 0.37832(36) 0.45203(51)
C10 C 0.46629(63) 0.29753(43) 0.59272(52)
H6 H 0.47554(63) 0.34737(43) 0.55309(52)
H7 H 0.37770(63) 0.26797(43) 0.53757(52)
C11 C 0.62653(68) 0.25365(44) 0.61328(59)
H8 H 0.64978(68) 0.24513(44) 0.53432(59)
H9 H 0.61611(68) 0.20272(44) 0.64934(59)
O6 O 0.75894(41) 0.29682(27) 0.69680(39)
C12 C 0.72312(65) 0.30936(44) 0.81244(55)
H10 H 0.81283(65) 0.33727(44) 0.86934(55)
H11 H 0.71212(65) 0.25864(44) 0.84893(55)
C13 C 0.56641(62) 0.35519(40) 0.79680(54)
H12 H 0.54400(62) 0.3623(4) 0.87637(54)
H13 H 0.57802(62) 0.40672(40) 0.76307(54)
C14 C 0.09529(61) 0.22241(38) 0.70161(60)
C15 C -0.04545(98) 0.10071(52) 0.68700(86)
H14 H -0.11567(98) 0.06777(52) 0.62325(86)
H15 H 0.05240(98) 0.07165(52) 0.72942(86)
H16 H -0.10354(98) 0.11605(52) 0.74646(86)
#END
