
#######################################################################
#
#                 Cambridge Crystallographic Data Centre
#                                CCDC
#
#######################################################################
#
# If this CIF has been generated from an entry in the Cambridge
# Structural Database, then it will include bibliographic, chemical,
# crystal, experimental, refinement or atomic coordinate data resulting
# from the CCDC's data processing and validation procedures.
#
#######################################################################

data_CSD_CIF_TIBMOG
_audit_creation_date 1997-03-12
_audit_creation_method CSD-ConQuest-V1
_database_code_CSD TIBMOG
_database_code_depnum_ccdc_archive 'CCDC 1270763'
_chemical_formula_sum 'C5 H6 N6 O5'
_chemical_formula_moiety
;
C5 H6 N6 O5
;
_journal_coden_Cambridge 34
_journal_volume 33
_journal_year 1996
_journal_page_first 895
_journal_name_full 'J.Heterocycl.Chem. '
loop_
_publ_author_name
"R.A.Hollins"
"L.H.Merwin"
"R.A.Nissan"
"W.S.Wilson"
"R.Gilardi"
_chemical_name_systematic
;
3,5-Dinitro-2,4,6-triaminopyridine-1-oxide
;
_chemical_melting_point 581.15
_cell_volume    814.768
_exptl_crystal_colour 'black'
_exptl_crystal_density_diffrn 1.876
_exptl_special_details
;
Melts with decomposition.

;
_diffrn_ambient_temperature ?
_diffrn_special_details
;
The study was carried out at room temperature,in the range 283-303K

;
#These two values have been output from a single CSD field.
_refine_ls_R_factor_gt 0.0431
_refine_ls_wR_factor_gt 0.0431
_symmetry_cell_setting monoclinic
_symmetry_space_group_name_H-M 'P 21/c'
_symmetry_Int_Tables_number 14
loop_
_symmetry_equiv_pos_site_id
_symmetry_equiv_pos_as_xyz
1 x,y,z
2 -x,1/2+y,1/2-z
3 -x,-y,-z
4 x,-1/2-y,-1/2+z
_cell_length_a 8.515(2)
_cell_length_b 8.983(2)
_cell_length_c 10.731(2)
_cell_angle_alpha 90
_cell_angle_beta 96.96(1)
_cell_angle_gamma 90
_cell_formula_units_Z 4
loop_
_atom_type_symbol
_atom_type_radius_bond
C 0.68
H 0.23
N 0.68
O 0.68
loop_
_atom_site_label
_atom_site_type_symbol
_atom_site_fract_x
_atom_site_fract_y
_atom_site_fract_z
N1 N 0.1574(2) 0.3234(2) 0.60267(15)
O1 O 0.0846(2) 0.2450(2) 0.68552(14)
C1 C 0.1542(2) 0.4750(2) 0.6112(2)
N2 N 0.0773(2) 0.5230(2) 0.7024(2)
H1 H 0.0605(36) 0.6246(40) 0.724(3)
H2 H 0.0463(31) 0.4571(33) 0.7409(26)
C2 C 0.2283(2) 0.5592(2) 0.5223(2)
N3 N 0.2206(2) 0.7162(2) 0.52922(15)
O2 O 0.2920(2) 0.7942(2) 0.4590(2)
O3 O 0.1432(2) 0.7757(2) 0.60668(14)
C3 C 0.3089(2) 0.4869(2) 0.4295(2)
N4 N 0.3744(2) 0.5629(2) 0.3445(2)
H3 H 0.4249(29) 0.5159(29) 0.2908(23)
H4 H 0.3696(29) 0.6594(34) 0.3487(22)
C4 C 0.3151(2) 0.3274(2) 0.4329(2)
N5 N 0.3989(2) 0.2465(2) 0.35003(15)
O4 O 0.4751(2) 0.3132(2) 0.27480(14)
O5 O 0.3988(2) 0.1084(2) 0.35228(14)
C5 C 0.2336(2) 0.2463(2) 0.5185(2)
N6 N 0.2211(2) 0.1010(2) 0.5284(2)
H5 H 0.2692(29) 0.0335(36) 0.4785(24)
H6 H 0.1671(28) 0.0735(30) 0.5863(24)
#END
