
#######################################################################
#
#                 Cambridge Crystallographic Data Centre
#                                CCDC
#
#######################################################################
#
# If this CIF has been generated from an entry in the Cambridge
# Structural Database, then it will include bibliographic, chemical,
# crystal, experimental, refinement or atomic coordinate data resulting
# from the CCDC's data processing and validation procedures.
#
#######################################################################

data_CSD_CIF_TICDAN
_audit_creation_date 2018-05-06
_audit_creation_method CSD-ConQuest-V1
_database_code_CSD TICDAN
_database_code_depnum_ccdc_archive 'CCDC 1841639'
_chemical_formula_sum 'C15 H11 N1 O5'
_chemical_formula_moiety
;
C15 H11 N1 O5
;
_journal_coden_Cambridge 1078
_journal_year 2018
_journal_name_full 'CSD Communication(Private Communication) '
loop_
_publ_author_name
"F.Friedrich"
"A.Heckel"
"J.W.Bats"
_chemical_name_systematic
;
2-(1,3-dioxolan-2-yl)-3-nitrodibenzo[b,d]furan
;
_cell_volume   1246.246
_exptl_crystal_colour 'pale yellow'
_exptl_crystal_density_diffrn 1.52
_exptl_special_details
;
Institut fur Organische Chemie, Universitat Frankfurt, Marie-Curie-Strasse 
11, D-60439 Frankfurt am Main, Germany
;
_exptl_crystal_description 'plate'
_diffrn_ambient_temperature 172
#These two values have been output from a single CSD field.
_refine_ls_R_factor_gt 0.0408
_refine_ls_wR_factor_gt 0.0408
_symmetry_cell_setting orthorhombic
_symmetry_space_group_name_H-M 'P c a 21'
_symmetry_Int_Tables_number 29
loop_
_symmetry_equiv_pos_site_id
_symmetry_equiv_pos_as_xyz
1 x,y,z
2 -x,-y,1/2+z
3 1/2+x,-y,z
4 1/2-x,y,1/2+z
_cell_length_a 7.2689(4)
_cell_length_b 14.4662(8)
_cell_length_c 11.8517(6)
_cell_angle_alpha 90
_cell_angle_beta 90
_cell_angle_gamma 90
_cell_formula_units_Z 4
loop_
_atom_type_symbol
_atom_type_radius_bond
C 0.68
H 0.23
N 0.68
O 0.68
loop_
_atom_site_label
_atom_site_type_symbol
_atom_site_fract_x
_atom_site_fract_y
_atom_site_fract_z
O1 O 0.7078(3) 0.51738(11) 0.38906(15)
C1 C 0.6722(3) 0.59820(17) 0.4470(2)
O2 O 0.4027(3) 0.88272(13) 0.59719(16)
C2 C 0.6929(4) 0.68542(18) 0.4019(2)
H1 H 0.73297 0.69505 0.32655
C3 C 0.6056(4) 0.48220(17) 0.5684(2)
O3 O 0.4554(3) 0.80279(12) 0.75805(16)
O4 O 0.6210(3) 0.86588(14) 0.3312(2)
C4 C 0.6641(3) 0.44717(18) 0.4644(2)
C5 C 0.5874(4) 0.74679(18) 0.5846(2)
O5 O 0.7673(4) 0.90700(14) 0.4818(2)
C6 C 0.5648(3) 0.65715(17) 0.6249(2)
H2 H 0.51897 0.64704 0.69893
C7 C 0.6763(4) 0.35394(18) 0.4402(3)
H3 H 0.71645 0.33221 0.36871
C8 C 0.6520(4) 0.75764(17) 0.4732(2)
C9 C 0.6097(4) 0.58200(17) 0.5560(2)
C10 C 0.5580(4) 0.42041(17) 0.6540(2)
H4 H 0.51844 0.44205 0.72564
C11 C 0.5702(4) 0.32672(19) 0.6315(3)
H5 H 0.53922 0.28368 0.68901
C12 C 0.5358(4) 0.82954(18) 0.6548(2)
H6 H 0.64749 0.86804 0.66959
C13 C 0.3529(4) 0.8831(2) 0.7925(3)
H7 H 0.43033 0.92534 0.83788
H8 H 0.24353 0.86532 0.83729
C14 C 0.6270(4) 0.29400(18) 0.5259(3)
H9 H 0.63181 0.22924 0.51287
N1 N 0.6812(3) 0.85111(16) 0.4267(2)
C15 C 0.2966(5) 0.9280(2) 0.6820(3)
H10 H 0.16346 0.91935 0.66808
H11 H 0.32381 0.99508 0.68327
#END
