
#######################################################################
#
#                 Cambridge Crystallographic Data Centre
#                                CCDC
#
#######################################################################
#
# If this CIF has been generated from an entry in the Cambridge
# Structural Database, then it will include bibliographic, chemical,
# crystal, experimental, refinement or atomic coordinate data resulting
# from the CCDC's data processing and validation procedures.
#
#######################################################################

data_CSD_CIF_TICGOB
_audit_creation_date 1997-03-12
_audit_creation_method CSD-ConQuest-V1
_database_code_CSD TICGOB
_database_code_depnum_ccdc_archive 'CCDC 128266'
_chemical_formula_sum 'C22 H31 N1 O12'
_chemical_formula_moiety
;
C22 H31 N1 O12
;
_journal_coeditor_code "IUCr BM1111"
_journal_coden_Cambridge 591
_journal_volume 52
_journal_year 1996
_journal_page_first 3067
_journal_name_full 'Acta Crystallogr.,Sect.C:Cryst.Struct.Commun. '
loop_
_publ_author_name
"W.J.Ferguson"
"S.Parsons"
"R.M.Paton"
_chemical_name_systematic
;
(5R)-5-(2,3-O-Isopropylidene-1-O-methyl-\a-D-lyxo-tetrafuranos-4-yl)-(2,3,4-tr
i-O-acetyl-\b-D-xylopyranos-2-yl)-4,5-dihydroisoxazole
;
_chemical_melting_point 466.5
_cell_volume   2426.493
_exptl_crystal_colour 'colorless'
_exptl_crystal_density_diffrn 1.373
_diffrn_ambient_temperature 150.0
#These two values have been output from a single CSD field.
_refine_ls_R_factor_gt 0.0569
_refine_ls_wR_factor_gt 0.0569
_symmetry_cell_setting orthorhombic
_symmetry_space_group_name_H-M 'P 21 21 21'
_symmetry_Int_Tables_number 19
loop_
_symmetry_equiv_pos_site_id
_symmetry_equiv_pos_as_xyz
1 x,y,z
2 1/2-x,-y,1/2+z
3 1/2+x,1/2-y,-z
4 -x,1/2+y,1/2-z
_cell_length_a 8.518(2)
_cell_length_b 16.514(3)
_cell_length_c 17.250(3)
_cell_angle_alpha 90
_cell_angle_beta 90
_cell_angle_gamma 90
_cell_formula_units_Z 4
loop_
_atom_type_symbol
_atom_type_radius_bond
C 0.68
H 0.23
N 0.68
O 0.68
loop_
_atom_site_label
_atom_site_type_symbol
_atom_site_fract_x
_atom_site_fract_y
_atom_site_fract_z
C1 C 0.7293(6) 0.0198(3) 0.6515(3)
H1 H 0.7628(6) -0.0062(3) 0.7011(3)
O1 O 0.8587(4) 0.0308(2) 0.6018(2)
C2 C 0.9767(6) 0.0823(4) 0.6349(3)
H2 H 0.9394(17) 0.1385(5) 0.6348(18)
H3 H 1.0732(14) 0.0784(16) 0.6042(12)
H4 H 0.9981(29) 0.0653(13) 0.6882(7)
C3 C 0.6128(5) -0.0340(3) 0.6082(3)
H5 H 0.6646(5) -0.0704(3) 0.5695(3)
O2 O 0.5201(4) -0.0774(2) 0.6636(2)
O3 O 0.3463(4) 0.0033(2) 0.6009(2)
C4 C 0.4965(5) 0.0256(3) 0.5708(3)
H6 H 0.4993(5) 0.0224(3) 0.5129(3)
C5 C 0.5487(5) 0.1085(3) 0.6000(3)
H7 H 0.6094(5) 0.1372(3) 0.5586(3)
O4 O 0.6485(4) 0.0932(2) 0.6660(2)
O5 O 0.3082(4) 0.1772(2) 0.5658(2)
C6 C 0.4173(6) 0.1627(3) 0.6295(3)
H8 H 0.3615(6) 0.1358(3) 0.6736(3)
C7 C 0.4728(6) 0.2472(3) 0.6540(3)
H9 H 0.4274(6) 0.2634(3) 0.7045(3)
H10 H 0.5888(6) 0.2503(3) 0.6569(3)
N1 N 0.3214(5) 0.2588(2) 0.5412(2)
C8 C 0.4095(5) 0.2974(3) 0.5890(3)
C9 C 0.4332(5) 0.3855(3) 0.5766(3)
H11 H 0.4134(5) 0.3990(3) 0.5209(3)
O6 O 0.5930(4) 0.4038(2) 0.5955(2)
C10 C 0.3265(6) 0.4378(3) 0.6285(3)
H12 H 0.3479(6) 0.4273(3) 0.6846(3)
O7 O 0.1658(4) 0.4187(2) 0.6092(2)
C11 C 0.0933(6) 0.3641(3) 0.6567(3)
O8 O 0.1453(5) 0.3438(2) 0.7182(2)
C12 C -0.0534(6) 0.3330(3) 0.6212(3)
H13 H -0.0275(6) 0.2915(15) 0.5826(14)
H14 H -0.1095(20) 0.3776(5) 0.5959(17)
H15 H -0.1201(19) 0.3093(19) 0.6615(4)
C13 C 0.3552(5) 0.5259(3) 0.6086(3)
H16 H 0.3287(5) 0.5371(3) 0.5531(3)
O9 O 0.2645(4) 0.5768(2) 0.6598(2)
C14 C 0.1817(6) 0.6392(3) 0.6284(3)
O10 O 0.1625(5) 0.6464(2) 0.5598(2)
C15 C 0.1209(6) 0.6939(3) 0.6888(3)
H17 H 0.1988(17) 0.6992(15) 0.7303(9)
H18 H 0.0234(21) 0.6717(10) 0.7101(13)
H19 H 0.1001(35) 0.7473(6) 0.6662(5)
C16 C 0.5280(6) 0.5428(3) 0.6245(3)
H20 H 0.5510(6) 0.5355(3) 0.6809(3)
O11 O 0.5600(4) 0.6253(2) 0.6014(2)
C17 C 0.6844(7) 0.6608(3) 0.6385(3)
O12 O 0.7590(4) 0.6255(2) 0.6878(2)
C18 C 0.7137(7) 0.7446(3) 0.6104(4)
H21 H 0.6747(38) 0.7835(3) 0.6487(10)
H22 H 0.6590(35) 0.7529(8) 0.5610(11)
H23 H 0.8267(8) 0.7526(8) 0.6029(20)
C19 C 0.6293(6) 0.4864(3) 0.5769(3)
H24 H 0.6105(6) 0.4960(3) 0.5210(3)
H25 H 0.7415(6) 0.4972(3) 0.5878(3)
C20 C 0.3617(6) -0.0751(3) 0.6354(3)
C21 C 0.2519(7) -0.0814(3) 0.7034(3)
H26 H 0.2787(29) -0.1294(13) 0.7341(12)
H27 H 0.1437(8) -0.0861(23) 0.6846(3)
H28 H 0.2618(33) -0.0329(11) 0.7357(12)
C22 C 0.3356(7) -0.1399(3) 0.5744(3)
H29 H 0.3463(41) -0.1935(3) 0.5982(5)
H30 H 0.4137(27) -0.1339(14) 0.5331(11)
H31 H 0.2300(16) -0.1342(13) 0.5526(15)
#END
