
#######################################################################
#
#                 Cambridge Crystallographic Data Centre
#                                CCDC
#
#######################################################################
#
# If this CIF has been generated from an entry in the Cambridge
# Structural Database, then it will include bibliographic, chemical,
# crystal, experimental, refinement or atomic coordinate data resulting
# from the CCDC's data processing and validation procedures.
#
#######################################################################

data_CSD_CIF_TICJUN
_audit_creation_date 2018-05-07
_audit_creation_method CSD-ConQuest-V1
_database_code_CSD TICJUN
_database_code_depnum_ccdc_archive 'CCDC 1567097'
_chemical_formula_sum 'C5 H2 N10 O8'
_chemical_formula_moiety
;
C5 H2 N10 O8
;
_journal_coden_Cambridge 920
_journal_volume 13
_journal_year 2018
_journal_page_first 1165
_journal_name_full 'Chem.Asian J. '
loop_
_publ_author_name
"I.L.Dalinger"
"A.V.Kormanov"
"K.Yu.Suponitsky"
"N.V.Muravyev"
"A.B.Sheremetev"
_chemical_name_systematic
;
1-[4-nitro-1-(trinitromethyl)-1H-pyrazol-3-yl]-1H-tetrazole
;
_cell_volume    590.588
_exptl_crystal_colour 'pale yellow'
_exptl_crystal_density_diffrn 1.857
_exptl_crystal_description 'prism'
_diffrn_ambient_temperature 100
#These two values have been output from a single CSD field.
_refine_ls_R_factor_gt 0.0222
_refine_ls_wR_factor_gt 0.0222
_symmetry_cell_setting monoclinic
_symmetry_space_group_name_H-M 'P 21'
_symmetry_Int_Tables_number 4
loop_
_symmetry_equiv_pos_site_id
_symmetry_equiv_pos_as_xyz
1 x,y,z
2 -x,1/2+y,-z
_cell_length_a 6.8649(4)
_cell_length_b 9.5315(5)
_cell_length_c 9.0263(5)
_cell_angle_alpha 90
_cell_angle_beta 90.559(1)
_cell_angle_gamma 90
_cell_formula_units_Z 2
loop_
_atom_type_symbol
_atom_type_radius_bond
C 0.68
H 0.23
N 0.68
O 0.68
loop_
_atom_site_label
_atom_site_type_symbol
_atom_site_fract_x
_atom_site_fract_y
_atom_site_fract_z
O1 O 0.43288(16) 0.38629(13) 1.08250(11)
O2 O 0.24473(17) 0.20363(12) 1.11694(11)
O3 O 0.18398(19) 0.60634(12) 0.94576(15)
O4 O 0.33992(17) 0.49818(12) 0.76967(12)
O5 O -0.18110(15) 0.38757(12) 0.91413(12)
O6 O -0.04333(18) 0.41631(14) 1.13081(12)
O7 O -0.05905(14) 0.19274(12) 0.39984(11)
O8 O 0.15417(14) 0.02385(11) 0.39676(10)
N1 N 0.15458(15) 0.25802(12) 0.81904(12)
N2 N 0.32225(15) 0.17931(12) 0.80850(12)
N3 N 0.29301(17) 0.31154(13) 1.05726(12)
N4 N 0.23369(18) 0.50427(13) 0.87576(13)
N5 N -0.04456(16) 0.38988(13) 0.99931(13)
N6 N 0.07033(15) 0.12167(12) 0.45729(11)
N7 N 0.45143(15) 0.02611(12) 0.63204(11)
N8 N 0.64032(15) 0.06882(14) 0.62706(14)
N9 N 0.73835(17) -0.03922(14) 0.58569(14)
N10 N 0.62067(16) -0.15371(14) 0.56477(12)
C1 C 0.30368(16) 0.11675(13) 0.67962(13)
C2 C 0.12988(16) 0.15650(13) 0.60544(13)
C3 C 0.03735(17) 0.24915(13) 0.69547(13)
C4 C 0.15537(18) 0.36041(13) 0.93169(14)
C5 C 0.44362(19) -0.11066(14) 0.59388(14)
H1 H -0.074(3) 0.301(2) 0.683(2)
H2 H 0.331(3) -0.161(3) 0.591(2)
#END
