
#######################################################################
#
#                 Cambridge Crystallographic Data Centre
#                                CCDC
#
#######################################################################
#
# If this CIF has been generated from an entry in the Cambridge
# Structural Database, then it will include bibliographic, chemical,
# crystal, experimental, refinement or atomic coordinate data resulting
# from the CCDC's data processing and validation procedures.
#
#######################################################################

data_CSD_CIF_TICTOO
_audit_creation_date 1997-03-12
_audit_creation_method CSD-ConQuest-V1
_database_code_CSD TICTOO
_database_code_depnum_ccdc_archive 'CCDC 128285'
_chemical_formula_sum 'C16 H14 N2 O5'
_chemical_formula_moiety
;
C16 H14 N2 O5
;
_journal_coeditor_code "IUCr FG1226"
_journal_coden_Cambridge 591
_journal_volume 52
_journal_year 1996
_journal_page_first 3190
_journal_name_full 'Acta Crystallogr.,Sect.C:Cryst.Struct.Commun. '
loop_
_publ_author_name
"A.W.Roszak"
"V.E.Williams"
"R.P.Lemieux"
_chemical_name_systematic
;
(+-)-1,11-Dimethyl-3,9-dinitro-5,7-dihydrodibenz(c,e)oxepine
;
_cell_volume   1475.597
_exptl_crystal_colour 'pale yellow'
_exptl_crystal_density_diffrn 1.415
_diffrn_ambient_temperature ?
_diffrn_special_details
;
The study was carried out at room temperature,in the range 283-303K

;
#These two values have been output from a single CSD field.
_refine_ls_R_factor_gt 0.0498
_refine_ls_wR_factor_gt 0.0498
_symmetry_cell_setting monoclinic
_symmetry_space_group_name_H-M 'P 21/c'
_symmetry_Int_Tables_number 14
loop_
_symmetry_equiv_pos_site_id
_symmetry_equiv_pos_as_xyz
1 x,y,z
2 -x,1/2+y,1/2-z
3 -x,-y,-z
4 x,-1/2-y,-1/2+z
_cell_length_a 8.1693(5)
_cell_length_b 21.7076(12)
_cell_length_c 8.3750(8)
_cell_angle_alpha 90
_cell_angle_beta 96.515(9)
_cell_angle_gamma 90
_cell_formula_units_Z 4
loop_
_atom_type_symbol
_atom_type_radius_bond
C 0.68
H 0.23
N 0.68
O 0.68
loop_
_atom_site_label
_atom_site_type_symbol
_atom_site_fract_x
_atom_site_fract_y
_atom_site_fract_z
C1 C 0.7635(2) 0.70857(9) 0.7407(3)
C2 C 0.6683(3) 0.76044(9) 0.6998(3)
H1 H 0.703(3) 0.7991(12) 0.744(3)
C3 C 0.5268(2) 0.75562(9) 0.5961(3)
N1 N 0.4296(2) 0.81140(9) 0.5515(3)
O1 O 0.4591(3) 0.85762(8) 0.6311(3)
O2 O 0.3271(3) 0.80893(9) 0.4349(3)
C4 C 0.4705(3) 0.69976(9) 0.5310(3)
H2 H 0.369(3) 0.6983(11) 0.468(3)
C5 C 0.5024(3) 0.58556(9) 0.5113(3)
H3 H 0.410(3) 0.5904(11) 0.428(3)
H4 H 0.591(3) 0.5640(11) 0.477(3)
O3 O 0.4386(2) 0.55000(7) 0.6356(2)
C6 C 0.5405(3) 0.54971(11) 0.7887(3)
H5 H 0.495(3) 0.5142(12) 0.846(3)
H6 H 0.524(3) 0.5883(12) 0.852(3)
C7 C 0.8008(3) 0.48758(10) 0.8030(3)
H7 H 0.745(3) 0.4573(13) 0.843(3)
C8 C 0.9632(3) 0.48207(10) 0.7751(3)
N2 N 1.0469(3) 0.42275(10) 0.8064(3)
O4 O 0.9644(4) 0.37834(10) 0.8330(4)
O5 O 1.1930(3) 0.41951(11) 0.7969(5)
C9 C 1.0477(3) 0.52928(10) 0.7114(3)
H8 H 1.163(4) 0.5253(12) 0.693(3)
C10 C 0.9690(2) 0.58540(9) 0.6757(3)
C11 C 1.0630(3) 0.63358(12) 0.5949(4)
H9 H 0.998(5) 0.660(2) 0.537(5)
H10 H 1.122(4) 0.6193(14) 0.505(4)
H11 H 1.099(5) 0.668(2) 0.666(5)
C12 C 0.9144(3) 0.71632(12) 0.8596(4)
H12 H 0.958(4) 0.6810(15) 0.894(4)
H13 H 0.881(5) 0.740(2) 0.952(5)
H14 H 1.014(4) 0.7373(15) 0.803(4)
C13 C 0.5633(2) 0.64753(9) 0.5714(2)
C14 C 0.7122(2) 0.65162(8) 0.6734(2)
C15 C 0.8059(2) 0.59294(8) 0.7094(2)
C16 C 0.7209(3) 0.54321(9) 0.7696(3)
#END
