
#######################################################################
#
#                 Cambridge Crystallographic Data Centre
#                                CCDC
#
#######################################################################
#
# If this CIF has been generated from an entry in the Cambridge
# Structural Database, then it will include bibliographic, chemical,
# crystal, experimental, refinement or atomic coordinate data resulting
# from the CCDC's data processing and validation procedures.
#
#######################################################################

data_CSD_CIF_TICVEG
_audit_creation_date 1997-03-12
_audit_creation_method CSD-ConQuest-V1
_database_code_CSD TICVEG
_database_code_depnum_ccdc_archive 'CCDC 128276'
_chemical_formula_sum 'C22 H29 N1 O6'
_chemical_formula_moiety
;
C22 H29 N1 O6
;
_journal_coeditor_code "IUCr CF1124"
_journal_coden_Cambridge 591
_journal_volume 52
_journal_year 1996
_journal_page_first 3197
_journal_name_full 'Acta Crystallogr.,Sect.C:Cryst.Struct.Commun. '
loop_
_publ_author_name
"P.Merino"
"F.Junquera"
"F.L.Merchan"
"T.Tejero"
_chemical_name_systematic
;
1-(N-Benzyl-N-hydroxyamino)-1-deoxy-1-(2-furyl)-2,3:4,5-di-O-isopropylidene-L-
manno-pentitol
;
_chemical_melting_point 353
_cell_volume   1062.491
_exptl_crystal_colour 'colorless'
_exptl_crystal_density_diffrn 1.261
_diffrn_ambient_temperature 205
#These two values have been output from a single CSD field.
_refine_ls_R_factor_gt 0.0732
_refine_ls_wR_factor_gt 0.0732
_symmetry_cell_setting monoclinic
_symmetry_space_group_name_H-M 'P 21'
_symmetry_Int_Tables_number 4
loop_
_symmetry_equiv_pos_site_id
_symmetry_equiv_pos_as_xyz
1 x,y,z
2 -x,1/2+y,-z
_cell_length_a 9.747(2)
_cell_length_b 5.747(1)
_cell_length_c 18.971(4)
_cell_angle_alpha 90
_cell_angle_beta 91.08(3)
_cell_angle_gamma 90
_cell_formula_units_Z 2
loop_
_atom_type_symbol
_atom_type_radius_bond
C 0.68
H 0.23
N 0.68
O 0.68
loop_
_atom_site_label
_atom_site_type_symbol
_atom_site_fract_x
_atom_site_fract_y
_atom_site_fract_z
N1 N 0.4376(4) -0.0164(10) 0.8034(2)
O1 O 0.4865(4) 0.2142(8) 0.7889(2)
H1 H 0.5504(43) 0.2070(11) 0.7606(25)
O2 O 0.0904(4) 0.0167(9) 0.8340(2)
O3 O 0.1852(3) -0.1113(12) 0.6636(2)
O4 O 0.3448(4) -0.3199(15) 0.6076(3)
O5 O 0.6247(3) 0.0538(10) 0.6714(2)
O6 O 0.7628(4) -0.1386(13) 0.5973(2)
C1 C 0.0046(6) 0.1950(17) 0.8521(3)
H2 H -0.0756(6) 0.1777(17) 0.8783(3)
C2 C 0.0497(8) 0.3912(16) 0.8278(4)
H3 H 0.0104(8) 0.5391(16) 0.8337(4)
C3 C 0.1697(7) 0.3374(13) 0.7907(4)
H4 H 0.2239(7) 0.4440(13) 0.7660(4)
C4 C 0.1928(6) 0.1146(12) 0.7966(3)
C5 C 0.3012(5) -0.0411(12) 0.7708(3)
H5 H 0.2708(5) -0.2017(12) 0.7809(3)
C6 C 0.3125(5) -0.0239(15) 0.6907(3)
H6 H 0.3278(5) 0.1387(15) 0.6756(3)
C7 C 0.4196(5) -0.1896(16) 0.6590(3)
H7 H 0.4577(5) -0.2942(16) 0.6960(3)
C8 C 0.5349(5) -0.063(2) 0.6221(3)
H8 H 0.4960(5) 0.0504(21) 0.5879(3)
C9 C 0.6304(6) -0.227(3) 0.5851(5)
H9 H 0.6225(6) -0.3849(27) 0.6043(5)
H10 H 0.6088(6) -0.2323(27) 0.5344(5)
C10 C 0.4304(6) -0.0371(16) 0.8801(3)
H11 H 0.3679(6) -0.1643(16) 0.8919(3)
H12 H 0.3930(6) 0.1071(16) 0.8995(3)
C11 C 0.7622(5) -0.0371(15) 0.6643(3)
C12 C 0.8603(6) 0.1614(14) 0.6659(3)
H13 H 0.8605(6) 0.2327(14) 0.7123(3)
H14 H 0.8325(6) 0.2754(14) 0.6308(3)
H15 H 0.9517(6) 0.1053(14) 0.6558(3)
C13 C 0.7900(7) -0.2062(16) 0.7214(4)
H16 H 0.7885(7) -0.1271(16) 0.7665(4)
H17 H 0.8795(7) -0.2759(16) 0.7150(4)
H18 H 0.7203(7) -0.3266(16) 0.7201(4)
C14 C 0.2096(5) -0.2341(12) 0.6016(3)
C15 C 0.1157(8) -0.4349(16) 0.5967(5)
H19 H 0.1326(8) -0.5202(16) 0.5536(5)
H20 H 0.0215(8) -0.3803(16) 0.5963(5)
H21 H 0.1312(8) -0.5363(16) 0.6369(5)
C16 C 0.1926(12) -0.0820(19) 0.5401(4)
H22 H 0.2099(12) -0.1700(19) 0.4975(4)
H23 H 0.2570(12) 0.0463(19) 0.5437(4)
H24 H 0.0996(12) -0.0217(19) 0.5382(4)
C17 C 0.5691(6) -0.0835(13) 0.9133(3)
C18 C 0.6348(7) -0.2910(16) 0.9001(3)
H25 H 0.5949(7) -0.3983(16) 0.8684(3)
C19 C 0.7588(7) -0.3425(16) 0.9330(4)
H26 H 0.8034(7) -0.4840(16) 0.9237(4)
C20 C 0.8161(7) -0.1857(18) 0.9792(4)
H27 H 0.9009(7) -0.2193(18) 1.0013(4)
C21 C 0.7523(7) 0.0156(17) 0.9931(3)
H28 H 0.7921(7) 0.1205(17) 1.0256(3)
C22 C 0.6291(6) 0.0699(14) 0.9603(3)
H29 H 0.5858(6) 0.2122(14) 0.9701(3)
#END
