
#######################################################################
#
#                 Cambridge Crystallographic Data Centre
#                                CCDC
#
#######################################################################
#
# If this CIF has been generated from an entry in the Cambridge
# Structural Database, then it will include bibliographic, chemical,
# crystal, experimental, refinement or atomic coordinate data resulting
# from the CCDC's data processing and validation procedures.
#
#######################################################################

data_CSD_CIF_TICWUY
_audit_creation_date 2007-09-25
_audit_creation_method CSD-ConQuest-V1
_database_code_CSD TICWUY
_database_code_depnum_ccdc_archive 'CCDC 619976'
_chemical_formula_sum 'C18 H26 N3 O4'
_chemical_formula_moiety
;
C18 H26 N3 O4
;
_journal_coden_Cambridge 580
_journal_volume 26
_journal_year 2007
_journal_page_first 1959
_journal_name_full 'Polyhedron '
loop_
_publ_author_name
"S.Aboaku"
"P.M.Lahti"
_chemical_name_systematic
;
2-(4-(N-t-Butyloxycarbonylamino)phenyl)-4,4,5,5-tetramethyl-4,5-dihydro-1H-imi
dazole-3-oxide-1-oxyl
;
_chemical_melting_point 488.15
_cell_volume   1892.249
_exptl_crystal_colour 'dark blue'
_exptl_crystal_density_diffrn 1.223
_exptl_special_details
;
Melting point range 488.15-491.15K
magnetic properties

;
_exptl_crystal_description 'pyramidal prism'
_exptl_crystal_preparation 'dichloromethane/ether'
_diffrn_ambient_temperature 293
#These two values have been output from a single CSD field.
_refine_ls_R_factor_gt 0.049
_refine_ls_wR_factor_gt 0.049
_symmetry_cell_setting monoclinic
_symmetry_space_group_name_H-M 'P 21/n'
_symmetry_Int_Tables_number 14
loop_
_symmetry_equiv_pos_site_id
_symmetry_equiv_pos_as_xyz
1 x,y,z
2 1/2-x,1/2+y,1/2-z
3 -x,-y,-z
4 -1/2+x,-1/2-y,-1/2+z
_cell_length_a 12.0543(3)
_cell_length_b 9.9704(4)
_cell_length_c 16.3448(7)
_cell_angle_alpha 90
_cell_angle_beta 105.579(3)
_cell_angle_gamma 90
_cell_formula_units_Z 4
loop_
_atom_type_symbol
_atom_type_radius_bond
C 0.68
H 0.23
N 0.68
O 0.68
loop_
_atom_site_label
_atom_site_type_symbol
_atom_site_fract_x
_atom_site_fract_y
_atom_site_fract_z
C1 C 0.7690(2) -0.7202(2) 0.62839(17)
C2 C 0.8389(2) -0.5826(2) 0.76210(16)
C3 C 0.64184(19) -0.6823(2) 0.72409(17)
C4 C 0.73678(14) -0.62421(17) 0.68988(12)
C5 C 0.73608(13) -0.42297(16) 0.60327(11)
C6 C 0.68770(12) -0.21016(16) 0.5228(1)
C7 C 0.59423(13) -0.13684(17) 0.47459(11)
C8 C 0.60992(13) -0.01910(18) 0.43647(11)
C9 C 0.79803(14) -0.16226(18) 0.52942(12)
C10 C 0.81343(14) -0.04371(18) 0.49011(12)
C11 C 0.72017(12) 0.03090(17) 0.44361(10)
C12 C 0.73439(12) 0.15826(16) 0.40383(11)
C13 C 0.68551(14) 0.36546(18) 0.33284(12)
C14 C 0.6112(2) 0.3289(3) 0.24405(17)
C15 C 0.6553(2) 0.5031(2) 0.3598(2)
C16 C 0.81580(14) 0.33902(17) 0.34571(12)
C17 C 0.8599(2) 0.3568(3) 0.26797(17)
C18 C 0.89308(18) 0.4156(2) 0.42048(16)
N1 N 0.66237(12) -0.32422(14) 0.56487(9)
N2 N 0.65901(11) 0.26107(14) 0.3909(1)
N3 N 0.82242(11) 0.19413(14) 0.37194(9)
O1 O 0.67995(9) -0.50402(12) 0.64411(8)
O2 O 0.83473(10) -0.43456(12) 0.60069(9)
O3 O 0.56824(10) 0.26731(13) 0.41721(10)
O4 O 0.90993(11) 0.12185(13) 0.3713(1)
H1 H 0.7984(19) -0.811(3) 0.6599(16)
H2 H 0.698(2) -0.735(3) 0.5773(18)
H3 H 0.8359(17) -0.686(2) 0.6110(14)
H4 H 0.8708(16) -0.657(2) 0.7955(15)
H5 H 0.8969(18) -0.537(2) 0.7395(15)
H6 H 0.8127(18) -0.516(3) 0.8034(16)
H7 H 0.5719(19) -0.706(2) 0.6759(15)
H8 H 0.667(2) -0.768(3) 0.7565(17)
H9 H 0.6205(16) -0.613(2) 0.7648(14)
H10 H 0.5935(15) -0.3322(18) 0.5701(11)
H11 H 0.5198(15) -0.1711(17) 0.4713(11)
H12 H 0.5463(13) 0.0275(18) 0.4048(11)
H13 H 0.8623(15) -0.2106(19) 0.5636(12)
H14 H 0.8875(15) -0.0122(19) 0.4946(12)
H15 H 0.631(2) 0.233(3) 0.2311(19)
H16 H 0.535(2) 0.330(2) 0.2465(14)
H17 H 0.6200(16) 0.397(2) 0.2041(15)
H18 H 0.575(2) 0.509(2) 0.3562(15)
H19 H 0.6722(18) 0.568(3) 0.3247(16)
H20 H 0.698(2) 0.529(3) 0.4225(19)
H21 H 0.8100(19) 0.303(3) 0.2209(16)
H22 H 0.8516(19) 0.452(3) 0.2499(16)
H23 H 0.943(2) 0.337(2) 0.2785(16)
H24 H 0.8664(17) 0.409(2) 0.4734(15)
H25 H 0.8939(16) 0.512(2) 0.4050(14)
H26 H 0.9735(19) 0.379(2) 0.4353(14)
#END
