
#######################################################################
#
#                 Cambridge Crystallographic Data Centre
#                                CCDC
#
#######################################################################
#
# If this CIF has been generated from an entry in the Cambridge
# Structural Database, then it will include bibliographic, chemical,
# crystal, experimental, refinement or atomic coordinate data resulting
# from the CCDC's data processing and validation procedures.
#
#######################################################################

data_CSD_CIF_TICYEJ
_audit_creation_date 1997-03-12
_audit_creation_method CSD-ConQuest-V1
_database_code_CSD TICYEJ
_database_code_depnum_ccdc_archive 'CCDC 128344'
_chemical_formula_sum 'C16 H11 N1 O2'
_chemical_formula_moiety
;
C16 H11 N1 O2
;
_journal_coeditor_code "IUCr TA1091"
_journal_coden_Cambridge 591
_journal_volume 52
_journal_year 1996
_journal_page_first 3222
_journal_name_full 'Acta Crystallogr.,Sect.C:Cryst.Struct.Commun. '
loop_
_publ_author_name
"D.C.R.Hockless"
"I.R.Whittall"
"M.G.Humphrey"
_chemical_name_systematic
;
(E)-4-Ethynyl-4'-nitrostilbene
;
_cell_volume   1234.799
_exptl_crystal_colour 'pale yellow'
_exptl_crystal_density_diffrn 1.341
_diffrn_ambient_temperature 213
#These two values have been output from a single CSD field.
_refine_ls_R_factor_gt 0.0358
_refine_ls_wR_factor_gt 0.0358
loop_
_citation_database_id_CSD
_citation_special_details
TICYIN "is a stereoisomer of this entry"
_symmetry_cell_setting monoclinic
_symmetry_space_group_name_H-M 'P 21/n'
_symmetry_Int_Tables_number 14
loop_
_symmetry_equiv_pos_site_id
_symmetry_equiv_pos_as_xyz
1 x,y,z
2 1/2-x,1/2+y,1/2-z
3 -x,-y,-z
4 -1/2+x,-1/2-y,-1/2+z
_cell_length_a 6.853(2)
_cell_length_b 17.675(2)
_cell_length_c 10.203(2)
_cell_angle_alpha 90
_cell_angle_beta 92.37(2)
_cell_angle_gamma 90
_cell_formula_units_Z 4
loop_
_atom_type_symbol
_atom_type_radius_bond
C 0.68
H 0.23
N 0.68
O 0.68
loop_
_atom_site_label
_atom_site_type_symbol
_atom_site_fract_x
_atom_site_fract_y
_atom_site_fract_z
O1 O -0.2899(2) 0.17555(9) 1.3090(2)
O2 O -0.2964(2) 0.05697(9) 1.2617(1)
N1 N -0.2226(2) 0.11992(10) 1.2553(2)
C1 C 1.2934(3) 0.1331(1) 0.4667(2)
C2 C 1.1649(3) 0.1261(1) 0.5384(2)
C3 C 1.0042(3) 0.1188(1) 0.6251(2)
C4 C 0.8451(3) 0.0729(1) 0.5918(2)
C5 C 0.6883(3) 0.0685(1) 0.6730(2)
C6 C 0.6849(3) 0.1109(1) 0.7884(2)
C7 C 0.8468(3) 0.1556(1) 0.8223(2)
C8 C 1.0042(3) 0.1594(1) 0.7420(2)
C9 C 0.2883(3) 0.1451(1) 1.0407(2)
C10 C 0.2127(3) 0.0734(1) 1.0668(2)
C11 C 0.0461(3) 0.0649(1) 1.1367(2)
C12 C -0.0454(3) 0.1290(1) 1.1816(2)
C13 C 0.0260(3) 0.2007(1) 1.1607(2)
C14 C 0.1929(3) 0.2083(1) 1.0896(2)
C15 C 0.5143(3) 0.1058(1) 0.8704(2)
C16 C 0.4617(3) 0.1542(1) 0.9621(2)
H1 H 1.398(3) 0.138(1) 0.411(2)
H2 H 0.841(3) 0.0436(10) 0.512(2)
H3 H 0.574(3) 0.0357(10) 0.648(2)
H4 H 0.851(3) 0.186(1) 0.904(2)
H5 H 1.115(3) 0.191(1) 0.767(2)
H6 H 0.280(3) 0.029(1) 1.037(2)
H7 H -0.006(3) 0.016(1) 1.154(2)
H8 H -0.040(3) 0.245(1) 1.195(2)
H9 H 0.243(2) 0.259(1) 1.072(2)
H10 H 0.430(3) 0.063(1) 0.848(2)
H11 H 0.537(3) 0.199(1) 0.977(2)
#END
