
#######################################################################
#
#                 Cambridge Crystallographic Data Centre
#                                CCDC
#
#######################################################################
#
# If this CIF has been generated from an entry in the Cambridge
# Structural Database, then it will include bibliographic, chemical,
# crystal, experimental, refinement or atomic coordinate data resulting
# from the CCDC's data processing and validation procedures.
#
#######################################################################

data_CSD_CIF_TICYIN
_audit_creation_date 1997-03-12
_audit_creation_method CSD-ConQuest-V1
_database_code_CSD TICYIN
_database_code_depnum_ccdc_archive 'CCDC 128345'
_chemical_formula_sum 'C16 H11 N1 O2'
_chemical_formula_moiety
;
C16 H11 N1 O2
;
_journal_coeditor_code "IUCr TA1091"
_journal_coden_Cambridge 591
_journal_volume 52
_journal_year 1996
_journal_page_first 3222
_journal_name_full 'Acta Crystallogr.,Sect.C:Cryst.Struct.Commun. '
loop_
_publ_author_name
"D.C.R.Hockless"
"I.R.Whittall"
"M.G.Humphrey"
_chemical_name_systematic
;
(Z)-4-Ethynyl-4'-nitrostilbene
;
_cell_volume   1279.611
_exptl_crystal_colour 'yellow'
_exptl_crystal_density_diffrn 1.294
_diffrn_ambient_temperature ?
_diffrn_special_details
;
The study was carried out at room temperature,in the range 283-303K

;
#These two values have been output from a single CSD field.
_refine_ls_R_factor_gt 0.0377
_refine_ls_wR_factor_gt 0.0377
loop_
_citation_database_id_CSD
_citation_special_details
TICYEJ "is a stereoisomer of this entry"
_symmetry_cell_setting monoclinic
_symmetry_space_group_name_H-M 'P 21/a'
_symmetry_Int_Tables_number 14
loop_
_symmetry_equiv_pos_site_id
_symmetry_equiv_pos_as_xyz
1 x,y,z
2 1/2-x,1/2+y,-z
3 -x,-y,-z
4 -1/2+x,-1/2-y,z
_cell_length_a 10.027(1)
_cell_length_b 11.037(2)
_cell_length_c 12.472(1)
_cell_angle_alpha 90
_cell_angle_beta 112.015(9)
_cell_angle_gamma 90
_cell_formula_units_Z 4
loop_
_atom_type_symbol
_atom_type_radius_bond
C 0.68
H 0.23
N 0.68
O 0.68
loop_
_atom_site_label
_atom_site_type_symbol
_atom_site_fract_x
_atom_site_fract_y
_atom_site_fract_z
O1 O 0.7801(2) -0.1640(2) 0.5044(2)
O2 O 0.6370(2) -0.2927(2) 0.5346(2)
N1 N 0.6889(2) -0.1913(2) 0.5434(2)
C1 C -0.1103(3) -0.2088(3) 0.8619(3)
C2 C -0.0219(3) -0.1435(2) 0.8559(2)
C3 C 0.0889(2) -0.0635(2) 0.8508(2)
C4 C 0.1902(3) -0.0164(3) 0.9517(2)
C5 C 0.2981(3) 0.0599(3) 0.9477(2)
C6 C 0.3103(2) 0.0882(2) 0.8433(2)
C7 C 0.2080(3) 0.0417(2) 0.7425(2)
C8 C 0.0987(3) -0.0327(2) 0.7456(2)
C9 C 0.5518(2) 0.0750(2) 0.7235(2)
C10 C 0.6423(3) 0.1042(2) 0.6654(2)
C11 C 0.6876(3) 0.0186(3) 0.6060(2)
C12 C 0.6401(2) -0.0981(2) 0.6046(2)
C13 C 0.5502(3) -0.1316(2) 0.6599(2)
C14 C 0.5074(3) -0.0452(2) 0.7200(2)
C15 C 0.4222(3) 0.1748(2) 0.8423(2)
C16 C 0.5155(3) 0.1711(2) 0.7901(2)
H1 H -0.180(3) -0.263(2) 0.862(2)
H2 H 0.181(3) -0.034(2) 1.023(2)
H3 H 0.373(2) 0.093(2) 1.023(2)
H4 H 0.216(2) 0.062(2) 0.671(2)
H5 H 0.024(2) -0.062(2) 0.672(2)
H6 H 0.676(3) 0.186(2) 0.666(2)
H7 H 0.756(2) 0.038(2) 0.569(2)
H8 H 0.512(3) -0.213(2) 0.649(2)
H9 H 0.440(2) -0.067(2) 0.757(2)
H10 H 0.426(3) 0.243(2) 0.891(2)
H11 H 0.578(2) 0.244(2) 0.803(2)
#END
