
#######################################################################
#
#                 Cambridge Crystallographic Data Centre
#                                CCDC
#
#######################################################################
#
# If this CIF has been generated from an entry in the Cambridge
# Structural Database, then it will include bibliographic, chemical,
# crystal, experimental, refinement or atomic coordinate data resulting
# from the CCDC's data processing and validation procedures.
#
#######################################################################

data_CSD_CIF_TICYAG
_audit_creation_date 2007-09-25
_audit_creation_method CSD-ConQuest-V1
_database_code_CSD TICYAG
_database_code_depnum_ccdc_archive 'CCDC 617391'
_chemical_formula_sum 'C20 H28 N4 O4'
_chemical_formula_moiety
;
C20 H28 N4 O4
;
_journal_coden_Cambridge 580
_journal_volume 26
_journal_year 2007
_journal_page_first 2021
_journal_name_full 'Polyhedron '
loop_
_publ_author_name
"K.Tanaka"
"K.Furuichi"
"M.Kozaki"
"S.Suzuki"
"D.Shiomi"
"K.Sato"
"T.Takui"
"K.Okada"
_chemical_name_systematic
;
1,3-Dihydroxy-4,6-bis(4,4,5,5-tetramethylimidazoline-1-oxyl-2-yl)benzene
;
_cell_volume   2073.088
_exptl_crystal_colour 'red'
_exptl_crystal_density_diffrn 1.245
_exptl_special_details
;
magnetic properties

;
_exptl_crystal_description 'block'
_exptl_crystal_preparation 'ether/hexane'
_diffrn_ambient_temperature 173.1
#These two values have been output from a single CSD field.
_refine_ls_R_factor_gt 0.044
_refine_ls_wR_factor_gt 0.044
_symmetry_cell_setting monoclinic
_symmetry_space_group_name_H-M 'P 21/c'
_symmetry_Int_Tables_number 14
loop_
_symmetry_equiv_pos_site_id
_symmetry_equiv_pos_as_xyz
1 x,y,z
2 -x,1/2+y,1/2-z
3 -x,-y,-z
4 x,-1/2-y,-1/2+z
_cell_length_a 10.6195(11)
_cell_length_b 11.0214(9)
_cell_length_c 18.4224(18)
_cell_angle_alpha 90
_cell_angle_beta 105.959(4)
_cell_angle_gamma 90
_cell_formula_units_Z 4
loop_
_atom_type_symbol
_atom_type_radius_bond
C 0.68
H 0.23
N 0.68
O 0.68
loop_
_atom_site_label
_atom_site_type_symbol
_atom_site_fract_x
_atom_site_fract_y
_atom_site_fract_z
O1 O -0.10540 0.22920 -0.07530
O2 O 0.22410 -0.05720 -0.05700
O3 O 0.12810 0.31320 0.20320
O4 O 0.34940 0.04920 0.22560
N1 N -0.13120 0.33900 0.04300
N2 N 0.02280 0.33940 0.15320
N3 N 0.38950 -0.01300 0.17830
N4 N 0.39390 -0.09810 0.06920
C1 C 0.06490 0.09100 -0.06340
C2 C 0.00280 0.17630 -0.03060
C3 C 0.05130 0.20410 0.04730
C4 C 0.16130 0.14140 0.08920
C5 C 0.22310 0.05290 0.05710
C6 C 0.17250 0.02810 -0.02110
C7 C -0.01980 0.29300 0.07960
C8 C -0.17200 0.43400 0.08900
C9 C -0.08510 0.41080 0.17060
C10 C -0.14400 0.55520 0.05590
C11 C -0.31840 0.42390 0.08020
C12 C -0.02890 0.52290 0.21600
C13 C -0.14640 0.32660 0.21720
C14 C 0.33460 -0.01880 0.09990
C15 C 0.51680 -0.08150 0.19840
C16 C 0.48970 -0.16710 0.12890
C17 C 0.62400 0.01170 0.19960
C18 C 0.53860 -0.14060 0.27510
C19 C 0.42100 -0.28430 0.14080
C20 C 0.61070 -0.19780 0.10330
H1 H 0.03320 0.07510 -0.11590
H2 H 0.19560 0.15960 0.14140
H3 H -0.17680 0.55260 0.00250
H4 H -0.36430 0.42210 0.02810
H5 H -0.21650 0.36680 0.22990
H6 H 0.03190 0.49850 0.26180
H7 H 0.01440 0.57180 0.18780
H8 H -0.09770 0.56810 0.22690
H9 H 0.67330 -0.23690 0.14330
H10 H 0.34940 -0.26510 0.16030
H11 H -0.05220 0.56920 0.06940
H12 H -0.18580 0.61890 0.07510
H13 H 0.70670 -0.02780 0.21270
H14 H 0.60920 0.04750 0.15100
H15 H 0.62310 0.07290 0.23570
H16 H -0.17870 0.25630 0.18820
H17 H -0.08220 0.30350 0.26210
H18 H 0.46920 -0.19570 0.27370
H19 H 0.61950 -0.18330 0.28750
H20 H 0.54070 -0.08010 0.31210
H21 H 0.58710 -0.25040 0.06080
H22 H 0.38970 -0.32530 0.09390
H23 H 0.48080 -0.33520 0.17540
H24 H -0.34680 0.49180 0.10340
H25 H -0.33570 0.35140 0.10370
H26 H 0.64730 -0.12530 0.08990
H27 H 0.28560 -0.08330 -0.02140
H28 H -0.13680 0.26860 -0.04750
#END
