
#######################################################################
#
#                 Cambridge Crystallographic Data Centre
#                                CCDC
#
#######################################################################
#
# If this CIF has been generated from an entry in the Cambridge
# Structural Database, then it will include bibliographic, chemical,
# crystal, experimental, refinement or atomic coordinate data resulting
# from the CCDC's data processing and validation procedures.
#
#######################################################################

data_CSD_CIF_TIDBUG
_audit_creation_date 2018-05-07
_audit_creation_method CSD-ConQuest-V1
_database_code_CSD TIDBUG
_database_code_depnum_ccdc_archive 'CCDC 1580400'
_chemical_formula_sum 'C11 H11 N1 O3'
_chemical_formula_moiety
;
C11 H11 N1 O3
;
_journal_coden_Cambridge 35
_journal_volume 83
_journal_year 2018
_journal_page_first 4905
_journal_name_full 'J.Org.Chem. '
loop_
_publ_author_name
"A.N.Baumann"
"F.Schuppel"
"M.Eisold"
"A.Kreppel"
"R.de Vivie-Riedle"
"D.Didier"
_chemical_name_systematic
;
1-[1-(3-nitrophenyl)cyclopropyl]ethan-1-one
;
_cell_volume    993.984
_exptl_crystal_colour 'colorless'
_exptl_crystal_density_diffrn 1.371
_exptl_crystal_description 'block'
_diffrn_ambient_temperature 103
_diffrn_special_details
;
twin

;
#These two values have been output from a single CSD field.
_refine_ls_R_factor_gt 0.0363
_refine_ls_wR_factor_gt 0.0363
_symmetry_cell_setting monoclinic
_symmetry_space_group_name_H-M 'P 21/n'
_symmetry_Int_Tables_number 14
loop_
_symmetry_equiv_pos_site_id
_symmetry_equiv_pos_as_xyz
1 x,y,z
2 1/2-x,1/2+y,1/2-z
3 -x,-y,-z
4 -1/2+x,-1/2-y,-1/2+z
_cell_length_a 7.3288(4)
_cell_length_b 16.8413(8)
_cell_length_c 8.2232(5)
_cell_angle_alpha 90
_cell_angle_beta 101.669(2)
_cell_angle_gamma 90
_cell_formula_units_Z 4
loop_
_atom_type_symbol
_atom_type_radius_bond
C 0.68
H 0.23
N 0.68
O 0.68
loop_
_atom_site_label
_atom_site_type_symbol
_atom_site_fract_x
_atom_site_fract_y
_atom_site_fract_z
O1 O 0.25777(16) 0.22210(6) 0.96420(13)
O2 O 0.28401(19) 0.38469(7) 0.20841(13)
O3 O 0.20925(19) 0.50878(7) 0.17741(14)
N1 N 0.25251(19) 0.44984(8) 0.26412(16)
C1 C 0.0337(2) 0.31859(10) 0.8489(2)
H1 H 0.03820 0.37310 0.89110
H2 H -0.04900 0.28670 0.90280
H3 H -0.01370 0.31880 0.72860
C2 C 0.2252(2) 0.28369(8) 0.88595(17)
C3 C 0.3777(2) 0.32563(8) 0.82307(17)
C4 C 0.5649(2) 0.32462(9) 0.94459(19)
H4 H 0.64750 0.37120 0.94580
H5 H 0.57020 0.29930 1.05410
C5 C 0.5355(2) 0.27222(9) 0.79584(19)
H6 H 0.52300 0.21450 0.81350
H7 H 0.60030 0.28630 0.70520
C6 C 0.3304(2) 0.39718(8) 0.71366(17)
C7 C 0.3120(2) 0.39058(9) 0.54251(17)
H8 H 0.32910 0.34080 0.49330
C8 C 0.2684(2) 0.45784(9) 0.44441(17)
C9 C 0.2417(2) 0.53155(9) 0.50927(19)
H9 H 0.21200 0.57660 0.43930
C10 C 0.2598(2) 0.53769(9) 0.67981(19)
H10 H 0.24180 0.58760 0.72790
C11 C 0.3039(2) 0.47161(9) 0.78110(18)
H11 H 0.31630 0.47700 0.89780
#END
