
#######################################################################
#
#                 Cambridge Crystallographic Data Centre
#                                CCDC
#
#######################################################################
#
# If this CIF has been generated from an entry in the Cambridge
# Structural Database, then it will include bibliographic, chemical,
# crystal, experimental, refinement or atomic coordinate data resulting
# from the CCDC's data processing and validation procedures.
#
#######################################################################

data_CSD_CIF_TIDKIC
_audit_creation_date 2013-05-25
_audit_creation_method CSD-ConQuest-V1
_database_code_CSD TIDKIC
_database_code_depnum_ccdc_archive 'CCDC 846436'
_chemical_formula_sum 'C19 H15 N7 O2'
_chemical_formula_moiety
;
C19 H15 N7 O2
;
_journal_coden_Cambridge 1200
_journal_volume 21
_journal_year 2013
_journal_page_first 2186
_journal_name_full 'Bioorg.Med.Chem. '
loop_
_publ_author_name
"G.Guerrini"
"G.Ciciani"
"A.Costanzo"
"S.Daniele"
"C.Martini"
"C.Ghelardini"
"L.Di C.Mannelli"
"S.Ciattini"
_chemical_name_systematic
;
8-(Benzyloxy)-3-(1-methyl-1H-1,2,4-triazol-5-yl)pyrazolo[5,1-c][1,2,4]benzotri
azine 5-oxide
;
_cell_volume    852.760
_exptl_crystal_colour 'colorless'
_exptl_crystal_density_diffrn 1.454
_exptl_crystal_description 'prismatic'
_diffrn_ambient_temperature 150
#These two values have been output from a single CSD field.
_refine_ls_R_factor_gt 0.0475
_refine_ls_wR_factor_gt 0.0475
_symmetry_cell_setting triclinic
_symmetry_space_group_name_H-M 'P -1'
_symmetry_Int_Tables_number 2
loop_
_symmetry_equiv_pos_site_id
_symmetry_equiv_pos_as_xyz
1 x,y,z
2 -x,-y,-z
_cell_length_a 6.575(1)
_cell_length_b 9.436(1)
_cell_length_c 14.067(1)
_cell_angle_alpha 95.93(1)
_cell_angle_beta 100.56(1)
_cell_angle_gamma 91.03(1)
_cell_formula_units_Z 2
loop_
_atom_type_symbol
_atom_type_radius_bond
C 0.68
H 0.23
N 0.68
O 0.68
loop_
_atom_site_label
_atom_site_type_symbol
_atom_site_fract_x
_atom_site_fract_y
_atom_site_fract_z
C1 C 0.2354(5) 1.2301(4) 0.1216(2)
H1 H 0.222(4) 0.744(3) 0.4839(18)
H2 H 0.627(4) 0.447(3) 0.700(2)
H3 H 0.355(4) 1.220(3) 0.6329(19)
H4 H 0.411(4) 0.593(3) 0.593(2)
H5 H 0.408(4) 1.025(3) 0.729(2)
H6 H 0.166(5) 0.609(3) 0.601(2)
H7 H 0.438(5) 0.345(3) 0.953(2)
H8 H 0.096(5) 0.610(3) 0.775(2)
H9 H 0.240(6) 1.331(4) 0.119(3)
H10 H 0.148(5) 0.492(3) 0.919(2)
H11 H -0.390(5) 1.121(3) -0.046(2)
H12 H 0.676(5) 0.325(4) 0.842(2)
H13 H 0.297(6) 1.210(4) 0.186(3)
H14 H 0.324(6) 1.193(4) 0.077(3)
H15 H -0.037(4) 0.776(3) 0.168(2)
O1 O 0.3611(3) 0.76837(17) 0.67720(12)
N1 N 0.1464(3) 0.9364(2) 0.36279(14)
N2 N 0.1488(3) 1.1894(2) 0.35154(14)
O2 O 0.2617(3) 1.33447(18) 0.48515(13)
C2 C 0.2598(3) 1.0950(2) 0.50415(17)
C3 C 0.2526(4) 0.8395(3) 0.51664(17)
N3 N 0.2225(3) 1.2088(2) 0.44511(14)
C4 C 0.3653(4) 1.0110(3) 0.65901(18)
C5 C 0.2208(4) 0.9545(3) 0.46192(17)
N4 N 0.0895(3) 0.8097(2) 0.30846(15)
C6 C 0.1082(4) 1.0517(3) 0.31095(17)
C7 C 0.3151(5) 0.6192(3) 0.6383(2)
C8 C 0.3247(4) 0.8686(3) 0.61560(17)
N5 N -0.2549(3) 1.0322(2) 0.07891(15)
N6 N 0.0263(3) 1.1678(2) 0.09354(14)
C9 C 0.3516(4) 0.5369(3) 0.72484(18)
N7 N -0.1004(4) 1.2034(2) 0.01203(15)
C10 C 0.3317(4) 1.1227(3) 0.60418(18)
C11 C 0.0218(4) 0.9964(3) 0.21674(17)
C12 C 0.0152(4) 0.8487(3) 0.22068(19)
C13 C 0.2143(5) 0.5488(3) 0.7895(2)
C14 C -0.0673(4) 1.0669(3) 0.13212(17)
C15 C -0.2647(4) 1.1189(3) 0.00748(19)
C16 C 0.4206(5) 0.3983(3) 0.8921(2)
C17 C 0.5229(4) 0.4543(3) 0.7443(2)
C18 C 0.5566(5) 0.3844(3) 0.8281(2)
C19 C 0.2485(5) 0.4809(3) 0.8731(2)
#END
