
#######################################################################
#
#                 Cambridge Crystallographic Data Centre
#                                CCDC
#
#######################################################################
#
# If this CIF has been generated from an entry in the Cambridge
# Structural Database, then it will include bibliographic, chemical,
# crystal, experimental, refinement or atomic coordinate data resulting
# from the CCDC's data processing and validation procedures.
#
#######################################################################

data_CSD_CIF_TIDPAX
_audit_creation_date 1997-03-12
_audit_creation_method CSD-ConQuest-V1
_database_code_CSD TIDPAX
_database_code_depnum_ccdc_archive 'CCDC 1270826'
_chemical_formula_sum 'C13 H15 N1 O2'
_chemical_formula_moiety
;
C13 H15 N1 O2
;
_journal_coden_Cambridge 25
_journal_volume 133
_journal_year 1996
_journal_page_first 987
_journal_name_full 'Bull.Soc.Chim.Fr. '
loop_
_publ_author_name
"H.Audrain"
"C.Riche"
"A.Chiaroni"
"D.S.Grierson"
_chemical_name_systematic
;
1-Hydroxy-9-oxa-10-aza-bicyclo(9.2.2)pentadec-10-ene-2,6-diyne
;
_cell_volume    569.983
_exptl_crystal_colour 'colorless'
_exptl_crystal_density_diffrn 1.27
_diffrn_ambient_temperature ?
_diffrn_special_details
;
The study was carried out at room temperature,in the range 283-303K

;
#These two values have been output from a single CSD field.
_refine_ls_R_factor_gt 0.0404
_refine_ls_wR_factor_gt 0.0404
_symmetry_cell_setting monoclinic
_symmetry_space_group_name_H-M 'P 21'
_symmetry_Int_Tables_number 4
loop_
_symmetry_equiv_pos_site_id
_symmetry_equiv_pos_as_xyz
1 x,y,z
2 -x,1/2+y,-z
_cell_length_a 7.224(5)
_cell_length_b 6.968(4)
_cell_length_c 11.372(8)
_cell_angle_alpha 90
_cell_angle_beta 95.30(3)
_cell_angle_gamma 90
_cell_formula_units_Z 2
loop_
_atom_type_symbol
_atom_type_radius_bond
C 0.68
H 0.23
N 0.68
O 0.68
loop_
_atom_site_label
_atom_site_type_symbol
_atom_site_fract_x
_atom_site_fract_y
_atom_site_fract_z
C1 C 0.0720(3) 0.40590 0.2094(2)
C2 C 0.1038(3) 0.5481(5) 0.3054(2)
C3 C 0.1298(3) 0.6704(5) 0.3799(2)
C4 C 0.1580(5) 0.8285(6) 0.4654(3)
C5 C 0.3584(6) 0.8569(6) 0.5123(2)
C6 C 0.4851(5) 0.8681(5) 0.4192(2)
C7 C 0.5817(4) 0.8701(5) 0.3416(2)
C8 C 0.6948(3) 0.8583(5) 0.2422(3)
O1 O 0.5969(2) 0.7669(4) 0.1436(2)
N1 N 0.5828(2) 0.5676(4) 0.1716(2)
C9 C 0.4211(3) 0.5022(5) 0.1376(2)
C10 C 0.3911(3) 0.2917(5) 0.1547(2)
C11 C 0.2208(3) 0.2477(5) 0.2221(2)
C12 C 0.0773(3) 0.5071(5) 0.0901(2)
C13 C 0.2594(3) 0.6173(5) 0.0838(2)
O2 O -0.1031(2) 0.3111(4) 0.2166(2)
H1 H 0.08384 0.80107 0.53348
H2 H 0.11192 0.94993 0.42597
H3 H 0.39713 0.74675 0.56535
H4 H 0.36844 0.97870 0.55891
H5 H 0.81008 0.78340 0.26664
H6 H 0.73008 0.99083 0.21909
H7 H 0.50413 0.23688 0.19995
H8 H 0.37319 0.22890 0.07536
H9 H 0.16366 0.12483 0.19132
H10 H 0.26338 0.23229 0.30779
H11 H -0.02911 0.59909 0.07877
H12 H 0.06511 0.40909 0.02560
H13 H 0.27731 0.64486 -0.00069
H14 H 0.25280 0.74117 0.12759
H15 H -0.20593 0.40423 0.19502
#END
