
#######################################################################
#
#                 Cambridge Crystallographic Data Centre
#                                CCDC
#
#######################################################################
#
# If this CIF has been generated from an entry in the Cambridge
# Structural Database, then it will include bibliographic, chemical,
# crystal, experimental, refinement or atomic coordinate data resulting
# from the CCDC's data processing and validation procedures.
#
#######################################################################

data_CSD_CIF_TIFKID
_audit_creation_date 2007-09-25
_audit_creation_method CSD-ConQuest-V1
_database_code_CSD TIFKID
_database_code_depnum_ccdc_archive 'CCDC 634284'
_chemical_formula_sum 'C15 H21 N1 O7'
_chemical_formula_moiety
;
C15 H21 N1 O7
;
_journal_coden_Cambridge 1090
_journal_volume 18
_journal_year 2007
_journal_page_first 1085
_journal_name_full 'Tetrahedron:Asymm. '
loop_
_publ_author_name
"S.Stecko"
"K.Pasniczek"
"M.Jurczak"
"Z.Urbanczyk-Lipkowska"
"M.Chmielewski"
_chemical_name_systematic
;
(3aR,6aR,8S,10aR,10bS,10cS)-8-(Acetoxymethyl)-2,2-dimethyloctahydro-10H-(1,3)d
ioxolo(3,4)pyrrolo(1,2-b)pyrano(3,4-d)isoxazol-10-one
;
_chemical_melting_point 373.15
_cell_volume    781.504
_exptl_crystal_colour 'colorless'
_exptl_crystal_density_diffrn 1.391
_exptl_special_details
;
Melting point range 373.15-375.15K

;
_diffrn_ambient_temperature 293
#These two values have been output from a single CSD field.
_refine_ls_R_factor_gt 0.0516
_refine_ls_wR_factor_gt 0.0516
_symmetry_cell_setting monoclinic
_symmetry_space_group_name_H-M 'P 21'
_symmetry_Int_Tables_number 4
loop_
_symmetry_equiv_pos_site_id
_symmetry_equiv_pos_as_xyz
1 x,y,z
2 -x,1/2+y,-z
_cell_length_a 9.896(2)
_cell_length_b 6.0350(12)
_cell_length_c 13.571(3)
_cell_angle_alpha 90
_cell_angle_beta 105.37(3)
_cell_angle_gamma 90
_cell_formula_units_Z 2
loop_
_atom_type_symbol
_atom_type_radius_bond
C 0.68
H 0.23
N 0.68
O 0.68
loop_
_atom_site_label
_atom_site_type_symbol
_atom_site_fract_x
_atom_site_fract_y
_atom_site_fract_z
C1 C 0.2118(4) 0.4060(7) 0.5938(3)
C2 C 0.1860(4) 0.5311(7) 0.4946(3)
C3 C 0.2736(4) 0.7364(7) 0.4940(3)
C4 C 0.3544(4) 0.8109(8) 0.5990(3)
C5 C 0.4231(4) 0.6179(8) 0.6597(3)
C6 C 0.5048(5) 0.6785(11) 0.7674(3)
C7 C 0.4625(5) 0.9787(9) 0.8679(4)
C8 C 0.3550(6) 1.0868(15) 0.9087(5)
H1 H 0.36290 1.03440 0.97680
H2 H 0.26360 1.05180 0.86590
H3 H 0.36850 1.24440 0.91000
C9 C 0.2194(4) 0.3837(7) 0.4108(3)
C10 C 0.0912(5) 0.3250(7) 0.3272(3)
C11 C 0.0630(5) 0.5235(7) 0.2565(3)
C12 C 0.2046(5) 0.6370(8) 0.2741(4)
C13 C 0.0375(5) 0.2002(7) 0.1615(3)
C14 C -0.0991(6) 0.0793(12) 0.1427(6)
C15 C 0.1192(6) 0.1391(12) 0.0871(4)
N1 N 0.3037(3) 0.5208(6) 0.3606(2)
O1 O 0.3196(3) 0.4532(5) 0.6718(2)
O2 O 0.1336(3) 0.2590(6) 0.6041(2)
O3 O 0.3724(3) 0.6763(5) 0.4383(2)
O4 O 0.4145(3) 0.7943(7) 0.8167(2)
O5 O 0.5779(4) 1.0386(10) 0.8814(4)
O6 O 0.1234(3) 0.1578(5) 0.2638(2)
O7 O 0.0131(4) 0.4334(5) 0.1579(2)
H4 H 0.090(4) 0.558(8) 0.472(3)
H5 H 0.216(5) 0.856(9) 0.459(3)
H6 H 0.430(4) 0.913(7) 0.595(3)
H7 H 0.292(4) 0.887(8) 0.633(3)
H8 H 0.490(5) 0.549(10) 0.627(4)
H9 H 0.533(4) 0.536(8) 0.805(3)
H10 H 0.584(6) 0.776(10) 0.768(4)
H11 H 0.262(4) 0.249(8) 0.441(3)
H12 H 0.016(3) 0.280(6) 0.347(2)
H13 H 0.003(4) 0.626(9) 0.271(3)
H14 H 0.240(4) 0.622(9) 0.212(4)
H15 H 0.199(6) 0.779(13) 0.293(5)
H16 H -0.149(6) 0.137(13) 0.194(5)
H17 H -0.096(5) -0.090(12) 0.143(4)
H18 H -0.156(6) 0.112(11) 0.085(5)
H19 H 0.144(5) -0.016(12) 0.104(4)
H20 H 0.059(4) 0.136(10) 0.015(4)
H21 H 0.205(8) 0.245(15) 0.091(6)
#END
