
#######################################################################
#
#                 Cambridge Crystallographic Data Centre
#                                CCDC
#
#######################################################################
#
# If this CIF has been generated from an entry in the Cambridge
# Structural Database, then it will include bibliographic, chemical,
# crystal, experimental, refinement or atomic coordinate data resulting
# from the CCDC's data processing and validation procedures.
#
#######################################################################

data_CSD_CIF_TIGZIT
_audit_creation_date 2007-09-25
_audit_creation_method CSD-ConQuest-V1
_database_code_CSD TIGZIT
_database_code_depnum_ccdc_archive 'CCDC 657792'
_chemical_formula_sum 'C14 H15 N1 O5'
_chemical_formula_moiety
;
C14 H15 N1 O5
;
_journal_coeditor_code "IUCr HB2448"
_journal_coden_Cambridge 1370
_journal_volume 63
_journal_year 2007
_journal_page_first o3532
_journal_name_full 'Acta Crystallogr.,Sect.E:Struct.Rep.Online '
loop_
_publ_author_name
"Peng-Fei Deng"
"Guo-Bing Chen"
"Ya-Qing Feng"
"Jian Song"
_chemical_name_systematic
;
Isopropyl 2-(3-nitrobenzylidene)acetoacetate
;
_chemical_melting_point 365
_cell_volume    689.715
_exptl_crystal_colour 'colorless'
_exptl_crystal_density_diffrn 1.335
_exptl_crystal_description 'block'
_exptl_crystal_preparation 'isopropanol'
_diffrn_ambient_temperature 294
#These two values have been output from a single CSD field.
_refine_ls_R_factor_gt 0.0585
_refine_ls_wR_factor_gt 0.0585
_symmetry_cell_setting triclinic
_symmetry_space_group_name_H-M 'P -1'
_symmetry_Int_Tables_number 2
loop_
_symmetry_equiv_pos_site_id
_symmetry_equiv_pos_as_xyz
1 x,y,z
2 -x,-y,-z
_cell_length_a 7.545(4)
_cell_length_b 9.240(5)
_cell_length_c 11.055(6)
_cell_angle_alpha 103.598(8)
_cell_angle_beta 101.898(8)
_cell_angle_gamma 105.876(8)
_cell_formula_units_Z 2
loop_
_atom_type_symbol
_atom_type_radius_bond
C 0.68
H 0.23
N 0.68
O 0.68
loop_
_atom_site_label
_atom_site_type_symbol
_atom_site_fract_x
_atom_site_fract_y
_atom_site_fract_z
O1 O -0.2135(3) 0.4164(3) 0.0034(2)
O2 O -0.1935(4) 0.6589(3) 0.0411(2)
O3 O 0.0432(3) 1.1048(2) 0.30423(18)
O4 O 0.3410(3) 1.1135(2) 0.29935(16)
O5 O 0.3443(3) 1.3493(3) 0.5663(2)
N1 N -0.1550(4) 0.5522(4) 0.0740(2)
C1 C 0.0380(4) 0.7413(3) 0.2841(2)
H1 H 0.00550 0.81950 0.25430
C2 C -0.0298(4) 0.5891(3) 0.2048(3)
C3 C 0.0137(4) 0.4697(3) 0.2429(3)
H2 H -0.03290 0.36680 0.18640
C4 C 0.1277(5) 0.5056(4) 0.3664(3)
H3 H 0.15840 0.42620 0.39510
C5 C 0.1969(4) 0.6570(3) 0.4482(3)
H4 H 0.27360 0.67890 0.53220
C6 C 0.1554(4) 0.7794(3) 0.4089(2)
C7 C 0.2365(4) 0.9379(3) 0.5013(2)
H5 H 0.28070 0.94200 0.58750
C8 C 0.2577(3) 1.0773(3) 0.4828(2)
C9 C 0.1986(4) 1.0990(3) 0.3518(2)
C10 C 0.3134(4) 1.1453(3) 0.1732(3)
H6 H 0.21630 1.19690 0.16260
C11 C 0.2471(6) 0.9911(4) 0.0685(3)
H7 H 0.34490 0.94300 0.07720
H8 H 0.22240 1.00830 -0.01470
H9 H 0.13110 0.92250 0.07560
C12 C 0.5033(5) 1.2548(5) 0.1801(4)
H10 H 0.53700 1.35120 0.24960
H11 H 0.49620 1.27800 0.09930
H12 H 0.59940 1.20610 0.19580
C13 C 0.3435(4) 1.2283(4) 0.5895(3)
C14 C 0.4305(5) 1.2290(4) 0.7243(3)
H13 H 0.48290 1.33580 0.78160
H14 H 0.53110 1.18410 0.72410
H15 H 0.33320 1.16750 0.75340
#END
