
#######################################################################
#
#                 Cambridge Crystallographic Data Centre
#                                CCDC
#
#######################################################################
#
# If this CIF has been generated from an entry in the Cambridge
# Structural Database, then it will include bibliographic, chemical,
# crystal, experimental, refinement or atomic coordinate data resulting
# from the CCDC's data processing and validation procedures.
#
#######################################################################

data_CSD_CIF_TIHBES
_audit_creation_date 2007-09-25
_audit_creation_method CSD-ConQuest-V1
_database_code_CSD TIHBES
_database_code_depnum_ccdc_archive 'CCDC 657799'
_chemical_formula_sum 'C16 H14 N4 O4'
_chemical_formula_moiety
;
C16 H14 N4 O4
;
_journal_coeditor_code "IUCr BI2210"
_journal_coden_Cambridge 1370
_journal_volume 63
_journal_year 2007
_journal_page_first o3541
_journal_name_full 'Acta Crystallogr.,Sect.E:Struct.Rep.Online '
loop_
_publ_author_name
"Zuo-Liang Jing"
"Ming Yu"
"Chen Shen"
_chemical_name_systematic
;
(4E)-1,5-Dimethyl-4-((5-nitrofuran-2-yl)methyleneamino)-2-phenyl-1H-pyrazol-3(
2H)-one
;
_cell_volume   1542.094
_exptl_crystal_colour 'red'
_exptl_crystal_density_diffrn 1.406
_exptl_crystal_description 'block'
_exptl_crystal_preparation 'ethanol'
_diffrn_ambient_temperature 293
#These two values have been output from a single CSD field.
_refine_ls_R_factor_gt 0.055
_refine_ls_wR_factor_gt 0.055
_symmetry_cell_setting monoclinic
_symmetry_space_group_name_H-M 'P 21/n'
_symmetry_Int_Tables_number 14
loop_
_symmetry_equiv_pos_site_id
_symmetry_equiv_pos_as_xyz
1 x,y,z
2 1/2-x,1/2+y,1/2-z
3 -x,-y,-z
4 -1/2+x,-1/2-y,-1/2+z
_cell_length_a 7.0722(14)
_cell_length_b 7.8143(16)
_cell_length_c 27.917(6)
_cell_angle_alpha 90
_cell_angle_beta 91.75(3)
_cell_angle_gamma 90
_cell_formula_units_Z 4
loop_
_atom_type_symbol
_atom_type_radius_bond
C 0.68
H 0.23
N 0.68
O 0.68
loop_
_atom_site_label
_atom_site_type_symbol
_atom_site_fract_x
_atom_site_fract_y
_atom_site_fract_z
O1 O 0.6509(3) 0.9463(2) 1.07595(9)
O2 O 0.5483(3) 0.8358(3) 1.14189(8)
O3 O 0.7068(2) 0.64324(18) 1.03917(6)
O4 O 0.8983(3) 0.4723(2) 0.88083(6)
N1 N 0.6087(3) 0.8236(3) 1.10124(9)
N2 N 0.7851(3) 0.2637(2) 0.97211(6)
N3 N 0.9515(3) 0.1961(2) 0.85268(7)
N4 N 0.9140(3) 0.0287(2) 0.86905(7)
C1 C 0.6319(3) 0.6556(3) 1.08303(8)
C2 C 0.5889(4) 0.5012(3) 1.10137(9)
H1 H 0.53680 0.47910 1.13090
C3 C 0.6386(4) 0.3810(3) 1.06675(8)
H2 H 0.62530 0.26290 1.06880
C4 C 0.7105(3) 0.4706(3) 1.02929(8)
C5 C 0.7813(3) 0.4231(3) 0.98341(8)
H3 H 0.82350 0.50600 0.96240
C6 C 0.8485(3) 0.2121(3) 0.92785(8)
C7 C 0.8621(3) 0.0419(3) 0.91528(8)
C8 C 0.8995(3) 0.3150(3) 0.88740(8)
C9 C 0.8329(4) -0.1113(3) 0.94581(10)
H4 H 0.77070 -0.19910 0.92710
H5 H 0.75610 -0.08100 0.97230
H6 H 0.95320 -0.15280 0.95770
C10 C 1.0214(4) -0.1151(3) 0.84999(10)
H7 H 1.15410 -0.09660 0.85620
H8 H 0.99730 -0.12370 0.81600
H9 H 0.98330 -0.21920 0.86520
C11 C 0.9627(3) 0.2297(3) 0.80267(8)
C12 C 0.8539(4) 0.1400(3) 0.76909(9)
H10 H 0.76890 0.05720 0.77890
C13 C 0.8724(4) 0.1746(3) 0.72060(9)
H11 H 0.80210 0.11260 0.69790
C14 C 0.9938(4) 0.2999(3) 0.70615(10)
H12 H 1.00570 0.32260 0.67370
C15 C 1.0986(4) 0.3926(3) 0.73983(10)
H13 H 1.17810 0.47970 0.72990
C16 C 1.0858(4) 0.3564(3) 0.78811(9)
H14 H 1.15910 0.41660 0.81060
#END
