
#######################################################################
#
#                 Cambridge Crystallographic Data Centre
#                                CCDC
#
#######################################################################
#
# If this CIF has been generated from an entry in the Cambridge
# Structural Database, then it will include bibliographic, chemical,
# crystal, experimental, refinement or atomic coordinate data resulting
# from the CCDC's data processing and validation procedures.
#
#######################################################################

data_CSD_CIF_TIHHIC
_audit_creation_date 2007-09-25
_audit_creation_method CSD-ConQuest-V1
_database_code_CSD TIHHIC
_database_code_depnum_ccdc_archive 'CCDC 657826'
_chemical_formula_sum 'C11 H11 N3 O3'
_chemical_formula_moiety
;
C11 H11 N3 O3
;
_journal_coeditor_code "IUCr KJ2062"
_journal_coden_Cambridge 1370
_journal_volume 63
_journal_year 2007
_journal_page_first o3587
_journal_name_full 'Acta Crystallogr.,Sect.E:Struct.Rep.Online '
loop_
_publ_author_name
"P.Wagner"
"M.Kubicki"
_chemical_name_systematic
;
5-Methoxy-2-methyl-4-nitro-1-phenyl-1H-imidazole
;
_cell_volume   1142.563
_exptl_crystal_colour 'colorless'
_exptl_crystal_density_diffrn 1.356
_exptl_crystal_description 'block'
_exptl_crystal_preparation 'methanol'
_diffrn_ambient_temperature 100.0
#These two values have been output from a single CSD field.
_refine_ls_R_factor_gt 0.0341
_refine_ls_wR_factor_gt 0.0341
_symmetry_cell_setting orthorhombic
_symmetry_space_group_name_H-M 'P 21 21 21'
_symmetry_Int_Tables_number 19
loop_
_symmetry_equiv_pos_site_id
_symmetry_equiv_pos_as_xyz
1 x,y,z
2 1/2-x,-y,1/2+z
3 -x,1/2+y,1/2-z
4 1/2+x,1/2-y,-z
_cell_length_a 6.6179(4)
_cell_length_b 7.4711(5)
_cell_length_c 23.1087(15)
_cell_angle_alpha 90
_cell_angle_beta 90
_cell_angle_gamma 90
_cell_formula_units_Z 4
loop_
_atom_type_symbol
_atom_type_radius_bond
C 0.68
H 0.23
N 0.68
O 0.68
loop_
_atom_site_label
_atom_site_type_symbol
_atom_site_fract_x
_atom_site_fract_y
_atom_site_fract_z
N1 N 0.7905(3) 0.35064(19) 0.09665(6)
C1 C 0.7920(3) 0.4361(2) 0.15235(8)
C2 C 0.6282(4) 0.4126(3) 0.18903(9)
H1 H 0.522(3) 0.343(2) 0.1755(8)
C3 C 0.6299(4) 0.4964(4) 0.24273(10)
H2 H 0.509(4) 0.471(3) 0.2681(9)
C4 C 0.7895(4) 0.6040(3) 0.25869(9)
H3 H 0.788(3) 0.660(3) 0.2980(9)
C5 C 0.9515(4) 0.6282(3) 0.22155(9)
H4 H 1.071(3) 0.715(3) 0.2320(8)
C6 C 0.9536(4) 0.5429(3) 0.16797(9)
H5 H 1.063(3) 0.558(2) 0.1431(9)
C7 C 0.7919(3) 0.1686(2) 0.08417(7)
C8 C 0.7984(4) 0.0271(3) 0.12882(9)
H6 H 0.859(4) -0.080(3) 0.1163(10)
H7 H 0.662(3) 0.001(3) 0.1402(10)
H8 H 0.862(3) 0.059(3) 0.1615(10)
N2 N 0.7887(3) 0.14035(18) 0.02801(6)
C9 C 0.7847(3) 0.3083(2) 0.00357(8)
N3 N 0.7881(3) 0.3282(2) -0.05751(6)
O1 O 0.7858(2) 0.19203(18) -0.08821(5)
O2 O 0.7943(2) 0.48142(18) -0.07788(5)
C10 C 0.7861(3) 0.4404(2) 0.04442(8)
O3 O 0.7854(2) 0.61860(15) 0.04423(5)
C11 C 0.6031(4) 0.7009(3) 0.02080(12)
H9 H 0.572(4) 0.647(3) -0.0184(10)
H10 H 0.635(3) 0.829(3) 0.0222(9)
H11 H 0.502(4) 0.678(3) 0.0476(10)
#END
