
#######################################################################
#
#                 Cambridge Crystallographic Data Centre
#                                CCDC
#
#######################################################################
#
# If this CIF has been generated from an entry in the Cambridge
# Structural Database, then it will include bibliographic, chemical,
# crystal, experimental, refinement or atomic coordinate data resulting
# from the CCDC's data processing and validation procedures.
#
#######################################################################

data_CSD_CIF_TIHXOZ
_audit_creation_date 2013-10-08
_audit_creation_method CSD-ConQuest-V1
_database_code_CSD TIHXOZ
_database_code_depnum_ccdc_archive 'CCDC 965378'
_chemical_formula_sum 'C31 H33 N3 O9'
_chemical_formula_moiety
;
C31 H33 N3 O9
;
_journal_coden_Cambridge 35
_journal_volume 77
_journal_year 2012
_journal_page_first 9458
_journal_name_full 'J.Org.Chem. '
loop_
_publ_author_name
"S.Hanessian"
"R.R.Vakiti"
"S.Dorich"
"S.Banerjee"
"B.Deschenes-Simard"
_chemical_name_systematic
;
7-Anilino-8-hydroxy-8-(hydroxymethyl)-9-(methoxymethoxy)-4,9-dimethyl-2-phenyl
-3-oxa-1-azaspiro[4.4]non-1-en-6-yl 4-nitrobenzoate
;
_cell_volume   3101.350
_exptl_crystal_colour 'colorless'
_exptl_crystal_density_diffrn 1.267
_exptl_special_details
;
Absolute configuration

;
_exptl_crystal_description 'plate'
_diffrn_ambient_temperature 100
_refine_special_details
;
The structure is disordered.

;
#These two values have been output from a single CSD field.
_refine_ls_R_factor_gt 0.0951
_refine_ls_wR_factor_gt 0.0951
_symmetry_cell_setting monoclinic
_symmetry_space_group_name_H-M 'C 2'
_symmetry_Int_Tables_number 5
loop_
_symmetry_equiv_pos_site_id
_symmetry_equiv_pos_as_xyz
1 x,y,z
2 -x,y,-z
3 1/2+x,1/2+y,z
4 1/2-x,1/2+y,-z
_cell_length_a 29.813(4)
_cell_length_b 9.5757(16)
_cell_length_c 11.6715(18)
_cell_angle_alpha 90
_cell_angle_beta 111.443(8)
_cell_angle_gamma 90
_cell_formula_units_Z 4
loop_
_atom_type_symbol
_atom_type_radius_bond
C 0.68
H 0.23
N 0.68
O 0.68
loop_
_atom_site_label
_atom_site_type_symbol
_atom_site_fract_x
_atom_site_fract_y
_atom_site_fract_z
O1 O 0.55355(15) 0.7692(8) 0.4217(4)
O2 O 0.63373(16) 1.1253(7) 0.2631(4)
H1 H 0.60640 1.09840 0.25900
O3 O 0.70645(16) 1.2571(7) 0.4550(5)
H2 H 0.73190 1.30470 0.47710
O4 O 0.69252(13) 0.9204(6) 0.5450(4)
O5 O 0.69947(15) 0.9686(6) 0.7464(4)
N1 N 0.5764(2) 0.8982(8) 0.2911(5)
N2 N 0.72664(17) 0.8718(7) 0.2963(5)
H3 H 0.74300 0.81390 0.35530
C1 C 0.6224(2) 0.8521(10) 0.3892(6)
C2 C 0.6545(2) 0.7879(9) 0.3280(6)
H4 H 0.67970 0.72900 0.38920
C3 C 0.6788(2) 0.9084(10) 0.2859(6)
H5 H 0.66000 0.92200 0.19620
C4 C 0.6705(2) 1.0398(9) 0.3514(6)
C5 C 0.6522(2) 0.9841(9) 0.4495(6)
C6 C 0.6240(2) 1.0854(10) 0.4986(7)
H6 H 0.64370 1.16820 0.53230
H7 H 0.61590 1.03970 0.56360
H8 H 0.59430 1.11330 0.43150
C7 C 0.7133(2) 1.1325(10) 0.3978(6)
H9 H 0.74020 1.07950 0.45770
H10 H 0.72300 1.15790 0.32800
C8 C 0.7169(2) 0.9923(9) 0.6545(7)
H11 H 0.75130 0.96500 0.68460
H12 H 0.71510 1.09360 0.63670
C9 C 0.7138(3) 0.8321(9) 0.8023(7)
H13 H 0.74880 0.82180 0.82790
H14 H 0.69770 0.75920 0.74240
H15 H 0.70450 0.82340 0.87430
C10 C 0.6059(2) 0.7644(10) 0.4790(6)
H16 H 0.61590 0.81400 0.55990
C11 C 0.6219(3) 0.6192(12) 0.5012(8)
H17 H 0.61030 0.56760 0.42330
H18 H 0.60890 0.57650 0.55900
H19 H 0.65720 0.61620 0.53620
C12 C 0.5424(2) 0.8477(10) 0.3192(7)
C13 C 0.4899(3) 0.8500(13) 0.2442(11)
C14 C 0.4561(3) 0.7781(16) 0.2853(10)
H20 H 0.46640 0.72540 0.35940
C15 C 0.4088(4) 0.7890(18) 0.2135(11)
H21 H 0.38580 0.74260 0.23880
C16 C 0.3926(4) 0.8645(19) 0.1053(11)
H22 H 0.35910 0.86840 0.05720
C17 C 0.4261(3) 0.936(3) 0.0664(13)
H23 H 0.41520 0.99100 -0.00640
C18 C 0.4738(4) 0.926(3) 0.1340(14)
H24 H 0.49650 0.97040 0.10640
C19 C 0.7489(2) 0.9222(10) 0.2190(6)
C20 C 0.7262(3) 1.0123(10) 0.1208(7)
H25 H 0.69480 1.04680 0.10810
C21 C 0.7493(3) 1.0519(12) 0.0411(7)
H26 H 0.73240 1.10520 -0.03030
C22 C 0.7954(4) 1.0149(13) 0.0649(9)
H27 H 0.81190 1.04770 0.01410
C23 C 0.8189(3) 0.9275(14) 0.1654(11)
H28 H 0.85110 0.89880 0.18100
C24 C 0.7966(3) 0.8842(11) 0.2396(8)
H29 H 0.81350 0.82620 0.30790
O6 O 0.6246(7) 0.700(3) 0.227(2)
O7 O 0.6648(7) 0.492(4) 0.287(2)
O8 O 0.4730(6) 0.431(2) -0.3220(16)
O9 O 0.5104(6) 0.231(2) -0.2672(17)
N3 N 0.5040(5) 0.348(2) -0.2521(14)
C25 C 0.6338(6) 0.564(3) 0.2134(18)
C26 C 0.5995(6) 0.509(2) 0.0912(17)
C27 C 0.5654(7) 0.586(3) 0.0088(19)
H30 H 0.56240 0.68130 0.02770
C28 C 0.5344(7) 0.535(3) -0.102(2)
H31 H 0.51050 0.59350 -0.15660
C29 C 0.5380(5) 0.409(2) -0.1295(13)
C30 C 0.5710(6) 0.321(2) -0.0540(16)
H32 H 0.57340 0.22630 -0.07560
C31 C 0.6018(6) 0.378(2) 0.0593(16)
H33 H 0.62540 0.31890 0.11510
H34? H 0.67920 0.72560 0.38690
H35? H 0.67970 0.72890 0.38910
H36? H 0.67940 0.72710 0.38790
C32? C 0.4933(6) 0.905(4) 0.254(3)
C33? C 0.4559(7) 0.887(3) 0.304(2)
H37? H 0.46310 0.86000 0.38690
C34? C 0.4101(7) 0.911(4) 0.226(2)
H38? H 0.38410 0.89870 0.25410
C35? C 0.401(1) 0.954(4) 0.107(2)
H39? H 0.36880 0.97760 0.05660
C36? C 0.4373(12) 0.966(7) 0.057(3)
H40? H 0.42940 0.98680 -0.02770
C37? C 0.4839(11) 0.946(7) 0.132(3)
H41? H 0.50950 0.95920 0.10330
O10? O 0.6357(6) 0.725(2) 0.2039(13)
O11? O 0.6655(7) 0.511(4) 0.286(2)
O12? O 0.4515(7) 0.427(3) -0.2746(18)
O13? O 0.4763(9) 0.221(3) -0.205(2)
N4? N 0.4793(6) 0.344(3) -0.2000(15)
C38? C 0.6363(6) 0.583(2) 0.2076(16)
C39? C 0.5950(6) 0.522(2) 0.1006(16)
C40? C 0.5625(7) 0.599(3) 0.0132(18)
H42? H 0.56520 0.69780 0.01750
C41? C 0.5255(8) 0.539(3) -0.082(2)
H43? H 0.50320 0.59750 -0.14210
C42? C 0.5206(5) 0.407(2) -0.0925(13)
C43? C 0.5520(6) 0.321(3) -0.0095(16)
H44? H 0.54900 0.22200 -0.01650
C44? C 0.5896(6) 0.385(2) 0.0884(16)
H45? H 0.61210 0.32750 0.14830
O14? O 0.6202(10) 0.698(4) 0.236(4)
O15? O 0.6691(9) 0.505(5) 0.288(3)
O16? O 0.4997(8) 0.417(3) -0.337(3)
O17? O 0.5463(9) 0.230(3) -0.289(3)
N5? N 0.5335(8) 0.340(3) -0.2669(19)
C45? C 0.6360(9) 0.571(4) 0.215(3)
C46? C 0.6081(8) 0.515(3) 0.088(2)
C47? C 0.5715(10) 0.578(3) 0.000(3)
H46? H 0.56170 0.66710 0.01880
C48? C 0.547(1) 0.523(3) -0.114(3)
H47? H 0.52110 0.57290 -0.17290
C49? C 0.5596(7) 0.405(3) -0.1408(18)
C50? C 0.5963(9) 0.331(3) -0.060(2)
H48? H 0.60540 0.24240 -0.08050
C51? C 0.6206(8) 0.391(3) 0.058(2)
H49? H 0.64650 0.34200 0.11630
O18? O 0.6255(7) 0.706(2) 0.2209(17)
O19? O 0.6562(7) 0.505(3) 0.3227(19)
O20? O 0.4458(8) 0.409(4) -0.248(2)
O21? O 0.4676(9) 0.202(3) -0.169(2)
N6? N 0.4720(6) 0.324(3) -0.1686(17)
C52? C 0.6270(6) 0.566(3) 0.2369(17)
C53? C 0.5864(6) 0.501(2) 0.1309(17)
C54? C 0.5560(7) 0.579(3) 0.0404(19)
H50? H 0.56020 0.67770 0.04340
C55? C 0.5190(8) 0.521(3) -0.056(2)
H51? H 0.49810 0.57980 -0.11890
C56? C 0.5127(6) 0.390(3) -0.0626(15)
C57? C 0.5416(7) 0.302(3) 0.0249(17)
H52? H 0.53660 0.20380 0.02000
C58? C 0.5795(7) 0.364(3) 0.1238(17)
H53? H 0.60050 0.30560 0.18660
#END
