
#######################################################################
#
#                 Cambridge Crystallographic Data Centre
#                                CCDC
#
#######################################################################
#
# If this CIF has been generated from an entry in the Cambridge
# Structural Database, then it will include bibliographic, chemical,
# crystal, experimental, refinement or atomic coordinate data resulting
# from the CCDC's data processing and validation procedures.
#
#######################################################################

data_CSD_CIF_TIJPAE
_audit_creation_date 2008-01-10
_audit_creation_method CSD-ConQuest-V1
_database_code_CSD TIJPAE
_database_code_depnum_ccdc_archive 'CCDC 213692'
_chemical_formula_sum 'C12 H7 N3 O3'
_chemical_formula_moiety
;
C12 H7 N3 O3
;
_journal_coden_Cambridge 1137
_journal_volume 17
_journal_year 2004
_journal_page_first 865
_journal_name_full 'J.Phys.Org.Chem. '
loop_
_publ_author_name
"P.Naumov"
"Y.Ohashi"
_chemical_name_systematic
;
6-Nitro-3-(2'-pyridyl)-2,1-benzisoxazole
;
_cell_volume   1012.941
_exptl_crystal_colour 'yellow'
_exptl_crystal_density_diffrn 1.582
_exptl_special_details
;
irradiated product

;
_exptl_crystal_description 'prism'
_diffrn_ambient_temperature 95
#These two values have been output from a single CSD field.
_refine_ls_R_factor_gt 0.0467
_refine_ls_wR_factor_gt 0.0467
_symmetry_cell_setting monoclinic
_symmetry_space_group_name_H-M 'P 21/n'
_symmetry_Int_Tables_number 14
loop_
_symmetry_equiv_pos_site_id
_symmetry_equiv_pos_as_xyz
1 x,y,z
2 1/2-x,1/2+y,1/2-z
3 -x,-y,-z
4 -1/2+x,-1/2-y,-1/2+z
_cell_length_a 10.7816(2)
_cell_length_b 3.766
_cell_length_c 25.2394(6)
_cell_angle_alpha 90
_cell_angle_beta 98.728(1)
_cell_angle_gamma 90
_cell_formula_units_Z 4
loop_
_atom_type_symbol
_atom_type_radius_bond
C 0.68
H 0.23
N 0.68
O 0.68
loop_
_atom_site_label
_atom_site_type_symbol
_atom_site_fract_x
_atom_site_fract_y
_atom_site_fract_z
O1 O 1.06334(11) 0.3126(3) 0.13308(5)
O2 O 0.69244(15) 0.0603(4) -0.07878(5)
O3 O 0.56837(13) -0.2763(4) -0.04147(5)
N1 N 0.88882(14) -0.0637(4) 0.22970(6)
N2 N 1.03232(14) 0.3446(4) 0.07719(6)
N3 N 0.66066(15) -0.0828(4) -0.03966(6)
C1 C 0.89942(18) -0.1190(5) 0.28242(7)
H1 H 0.83050 -0.22480 0.29580
C2 C 1.00494(19) -0.0316(5) 0.31899(7)
H2 H 1.00760 -0.07540 0.35620
C3 C 1.10617(18) 0.1214(5) 0.29958(8)
H3 H 1.17990 0.18410 0.32340
C4 C 1.09831(17) 0.1814(5) 0.24514(7)
H4 H 1.16640 0.28510 0.23080
C5 C 0.98820(17) 0.0862(5) 0.21168(7)
C6 C 0.97087(16) 0.1438(5) 0.15405(7)
C7 C 0.87613(16) 0.0577(5) 0.11298(7)
C8 C 0.92007(17) 0.1890(5) 0.06627(7)
C9 C 0.84885(17) 0.1486(5) 0.01435(7)
H5 H 0.87680 0.23500 -0.01720
C10 C 0.73728(17) -0.0239(5) 0.01335(7)
C11 C 0.68951(17) -0.1575(5) 0.05931(7)
H6 H 0.61050 -0.27400 0.05520
C12 C 0.75759(17) -0.1170(5) 0.10876(7)
H7 H 0.72710 -0.20270 0.13980
#END
