
#######################################################################
#
#                 Cambridge Crystallographic Data Centre
#                                CCDC
#
#######################################################################
#
# If this CIF has been generated from an entry in the Cambridge
# Structural Database, then it will include bibliographic, chemical,
# crystal, experimental, refinement or atomic coordinate data resulting
# from the CCDC's data processing and validation procedures.
#
#######################################################################

data_CSD_CIF_TIKRIP
_audit_creation_date 2008-01-10
_audit_creation_method CSD-ConQuest-V1
_database_code_CSD TIKRIP
_database_code_depnum_ccdc_archive 'CCDC 651068'
_chemical_formula_sum 'C18 H17 N1 O3'
_chemical_formula_moiety
;
C18 H17 N1 O3
;
_journal_coden_Cambridge 34
_journal_volume 43
_journal_year 2006
_journal_page_first 315
_journal_name_full 'J.Heterocycl.Chem. '
loop_
_publ_author_name
"J.H.Vella"
"N.S.Patel"
"M.A.Meierhoefer"
"E.J.Hilton"
"C.L.Sober"
"B.J.Grant"
"C.R.Kramp"
"J.D.Knight"
"C.R.Metz"
"C.F.Beam"
"W.T.Pennington"
"D.G.VanDerveer"
_chemical_name_systematic
;
3-(4-Hydroxy-3-methoxyphenyl)-3,3a,4,5-tetrahydronaphth(1,2-c)isoxazole
;
_chemical_melting_point 462.15
_cell_volume   1432.480
_exptl_crystal_density_diffrn 1.369
_exptl_special_details
;
Melting point range 462.15-464.15K

;
_exptl_crystal_preparation 'benzene'
_diffrn_ambient_temperature 173
#These two values have been output from a single CSD field.
_refine_ls_R_factor_gt 0.0827
_refine_ls_wR_factor_gt 0.0827
_symmetry_cell_setting monoclinic
_symmetry_space_group_name_H-M 'P 21/c'
_symmetry_Int_Tables_number 14
loop_
_symmetry_equiv_pos_site_id
_symmetry_equiv_pos_as_xyz
1 x,y,z
2 -x,1/2+y,1/2-z
3 -x,-y,-z
4 x,-1/2-y,-1/2+z
_cell_length_a 11.792(2)
_cell_length_b 14.362(3)
_cell_length_c 8.465(2)
_cell_angle_alpha 90
_cell_angle_beta 92.27(3)
_cell_angle_gamma 90
_cell_formula_units_Z 4
loop_
_atom_type_symbol
_atom_type_radius_bond
C 0.68
N 0.68
O 0.68
loop_
_atom_site_label
_atom_site_type_symbol
_atom_site_fract_x
_atom_site_fract_y
_atom_site_fract_z
O1 O 0.3496(2) 0.2013(2) -0.2318(3)
O2 O 0.6595(2) 0.4114(2) 0.0859(3)
O3 O 0.7515(2) 0.4908(2) -0.1558(4)
N1 N 0.2418(2) 0.1629(2) -0.1955(4)
C1 C 0.3321(3) 0.3028(2) -0.2538(4)
C2 C 0.2367(3) 0.3227(2) -0.1452(4)
C3 C 0.1522(3) 0.3991(3) -0.1896(5)
C4 C 0.0530(3) 0.3950(3) -0.0821(6)
C5 C 0.0016(3) 0.2990(3) -0.0645(5)
C6 C 0.0616(3) 0.2183(3) -0.1038(4)
C7 C 0.1787(3) 0.2295(2) -0.1494(4)
C8 C 0.0090(3) 0.1310(3) -0.0923(5)
C9 C -0.0975(4) 0.1238(3) -0.0367(5)
C10 C -0.1562(4) 0.2035(3) 0.0075(6)
C11 C -0.1072(3) 0.2897(3) -0.0085(6)
C12 C 0.4440(3) 0.3518(2) -0.2278(4)
C13 C 0.4979(3) 0.3565(3) -0.0759(4)
C14 C 0.6007(3) 0.4022(2) -0.0554(4)
C15 C 0.6518(3) 0.4454(2) -0.1842(4)
C16 C 0.5988(3) 0.4389(3) -0.3317(5)
C17 C 0.4952(3) 0.3920(3) -0.3546(4)
C18 C 0.6125(3) 0.3693(3) 0.2209(5)
#END
