
#######################################################################
#
#                 Cambridge Crystallographic Data Centre
#                                CCDC
#
#######################################################################
#
# If this CIF has been generated from an entry in the Cambridge
# Structural Database, then it will include bibliographic, chemical,
# crystal, experimental, refinement or atomic coordinate data resulting
# from the CCDC's data processing and validation procedures.
#
#######################################################################

data_CSD_CIF_TIMKIL
_audit_creation_date 2013-10-09
_audit_creation_method CSD-ConQuest-V1
_database_code_CSD TIMKIL
_database_code_depnum_ccdc_archive 'CCDC 934931'
_chemical_formula_sum 'C14 H17 N3 O3'
_chemical_formula_moiety
;
C14 H17 N3 O3
;
_journal_coden_Cambridge 1336
_journal_volume 15
_journal_year 2013
_journal_page_first 4524
_journal_name_full 'Org.Lett. '
loop_
_publ_author_name
"Wenbin Wu"
"Xiaoqian Yuan"
"Juan Hu"
"Xinxin Wu"
"Yuan Wei"
"Zunwu Liu"
"Junzhu Lu"
"Jinxing Ye"
_chemical_name_systematic
;
2-Methyl-4-(3-nitrophenyl)-2,3-diazabicyclo[3.3.1]non-3-en-1-ol
;
_cell_volume    662.105
_exptl_crystal_colour 'green'
_exptl_crystal_density_diffrn 1.381
_exptl_crystal_description 'prismatic'
_diffrn_ambient_temperature 293
#These two values have been output from a single CSD field.
_refine_ls_R_factor_gt 0.0485
_refine_ls_wR_factor_gt 0.0485
_symmetry_cell_setting triclinic
_symmetry_space_group_name_H-M 'P -1'
_symmetry_Int_Tables_number 2
loop_
_symmetry_equiv_pos_site_id
_symmetry_equiv_pos_as_xyz
1 x,y,z
2 -x,-y,-z
_cell_length_a 7.3334(9)
_cell_length_b 9.7725(12)
_cell_length_c 10.3443(12)
_cell_angle_alpha 67.448(2)
_cell_angle_beta 76.539(2)
_cell_angle_gamma 79.385(2)
_cell_formula_units_Z 2
loop_
_atom_type_symbol
_atom_type_radius_bond
C 0.68
H 0.23
N 0.68
O 0.68
loop_
_atom_site_label
_atom_site_type_symbol
_atom_site_fract_x
_atom_site_fract_y
_atom_site_fract_z
N1 N -0.03001(18) 0.83400(13) 0.38567(13)
N2 N -0.01165(18) 0.70193(13) 0.50138(13)
N3 N -0.3374(2) 1.28435(16) 0.03893(16)
O1 O 0.16030(17) 0.47870(11) 0.61823(11)
H1 H 0.12590 0.43510 0.57590
O2 O -0.4614(2) 1.23594(18) 0.14110(18)
O3 O -0.3676(2) 1.38596(18) -0.06920(15)
C1 C 0.1797(2) 0.62821(16) 0.52859(16)
C2 C 0.2704(2) 0.69473(17) 0.60619(17)
H2 H 0.38770 0.63470 0.62860
H3 H 0.18740 0.69100 0.69520
C3 C 0.3104(3) 0.85545(18) 0.51951(18)
H4 H 0.19230 0.91950 0.51580
H5 H 0.38680 0.88630 0.56630
C4 C 0.4123(2) 0.87433(19) 0.36881(19)
H6 H 0.54020 0.82630 0.37120
H7 H 0.41870 0.97950 0.31340
C5 C 0.3109(2) 0.80640(17) 0.29695(17)
H8 H 0.38100 0.81800 0.20100
C6 C 0.2992(2) 0.64137(17) 0.38458(17)
H9 H 0.24270 0.59600 0.33700
H10 H 0.42440 0.59060 0.39580
C7 C 0.1128(2) 0.88081(16) 0.28848(15)
C8 C 0.0747(2) 1.02098(16) 0.16878(16)
C9 C 0.2197(3) 1.0948(2) 0.06738(19)
H11 H 0.34390 1.05400 0.07290
C10 C 0.1833(3) 1.2274(2) -0.0414(2)
H12 H 0.28310 1.27420 -0.10800
C11 C 0.0020(3) 1.2908(2) -0.05232(19)
H13 H -0.02340 1.38000 -0.12530
C12 C -0.1413(3) 1.21774(18) 0.04864(17)
C13 C -0.1100(2) 1.08483(17) 0.15731(16)
H14 H -0.21080 1.03810 0.22240
C14 C -0.1505(2) 0.71293(18) 0.62487(17)
H15 H -0.12180 0.78830 0.65290
H16 H -0.14680 0.61890 0.70210
H17 H -0.27420 0.73880 0.60060
#END
