
#######################################################################
#
#                 Cambridge Crystallographic Data Centre
#                                CCDC
#
#######################################################################
#
# If this CIF has been generated from an entry in the Cambridge
# Structural Database, then it will include bibliographic, chemical,
# crystal, experimental, refinement or atomic coordinate data resulting
# from the CCDC's data processing and validation procedures.
#
#######################################################################

data_CSD_CIF_TIMTAK
_audit_creation_date 1997-03-26
_audit_creation_method CSD-ConQuest-V1
_database_code_CSD TIMTAK
_chemical_formula_sum 'C25 H26 N2 O7'
_chemical_formula_moiety
;
C25 H26 N2 O7
;
_journal_coden_Cambridge 16
_journal_volume 52
_journal_year 1996
_journal_page_first 4883
_journal_name_full 'Tetrahedron '
loop_
_publ_author_name
"H.Corlay"
"W.B.Motherwell"
"A.M.K.Pennell"
"M.Shipman"
"A.M.Z.Slawin"
"D.J.Williams"
"P.Binger"
"M.Stepp"
_chemical_name_systematic
;
(1\a,3a\a,6\b,6a\b-Octahydro-3a-methyl-3-methylene-6-(phenylmethoxy)-1-pentale
nyl)methyl 3,5-dinitrobenzoate
;
_chemical_melting_point 399.15
_cell_volume   1178.159
_exptl_special_details
;
Melting point range 399.15-401.15K

;
_diffrn_ambient_temperature ?
_diffrn_special_details
;
The study was carried out at room temperature,in the range 283-303K

;
#These two values have been output from a single CSD field.
_refine_ls_R_factor_gt 0.056
_refine_ls_wR_factor_gt 0.056
_symmetry_cell_setting triclinic
_symmetry_space_group_name_H-M 'P -1'
_symmetry_Int_Tables_number 2
loop_
_symmetry_equiv_pos_site_id
_symmetry_equiv_pos_as_xyz
1 x,y,z
2 -x,-y,-z
_cell_length_a 8.773(2)
_cell_length_b 10.938(2)
_cell_length_c 12.588(5)
_cell_angle_alpha 79.03(3)
_cell_angle_beta 83.88(3)
_cell_angle_gamma 86.60(2)
_cell_formula_units_Z 2
loop_
_atom_type_symbol
_atom_type_radius_bond
C 0.68
H 0.23
N 0.68
O 0.68
loop_
_atom_site_label
_atom_site_type_symbol
_atom_site_fract_x
_atom_site_fract_y
_atom_site_fract_z
C1 C 0.8625(4) 0.1061(3) 0.8408(3)
C2 C 0.9161(4) 0.1387(3) 0.9310(3)
C3 C 1.0262(4) 0.2260(3) 0.9159(3)
C4 C 1.0838(4) 0.2844(3) 0.8145(3)
C5 C 1.0267(4) 0.2517(3) 0.7268(3)
C6 C 0.9181(4) 0.1644(3) 0.7375(3)
N1 N 1.0828(4) 0.2611(3) 1.0110(3)
O1 O 1.0410(3) 0.2028(3) 1.1006(2)
O2 O 1.1715(4) 0.3445(3) 0.9953(2)
N2 N 1.0843(4) 0.3152(3) 0.6173(2)
O3 O 1.0249(3) 0.2959(3) 0.5402(2)
O4 O 1.1878(4) 0.3845(4) 0.6103(2)
C7 C 0.7450(4) 0.0098(3) 0.8592(3)
O5 O 0.6887(3) -0.0365(2) 0.9481(2)
O6 O 0.7156(3) -0.0202(2) 0.7655(2)
C8 C 0.6171(4) -0.1258(3) 0.7729(3)
C9 C 0.4508(4) -0.0826(3) 0.7756(3)
C10 C 0.4068(4) 0.0089(3) 0.6713(3)
C11 C 0.2952(4) -0.0566(4) 0.6183(3)
C12 C 0.2010(4) -0.0017(4) 0.5470(3)
C13 C 0.3120(4) -0.1923(3) 0.6637(2)
C14 C 0.4477(4) -0.2471(3) 0.5968(3)
C15 C 0.1805(4) -0.2814(4) 0.6843(3)
C16 C 0.2277(4) -0.3803(3) 0.7801(3)
C17 C 0.3480(4) -0.3226(3) 0.8355(3)
C18 C 0.3399(4) -0.1881(3) 0.7813(2)
O7 O 0.3047(3) -0.3454(2) 0.9502(2)
C19 C 0.4208(4) -0.3231(4) 1.0104(3)
C20 C 0.3811(4) -0.3680(3) 1.1305(3)
C21 C 0.2743(4) -0.4566(3) 1.1701(3)
C22 C 0.2438(5) -0.4961(4) 1.2825(3)
C23 C 0.3223(5) -0.4457(4) 1.3527(3)
C24 C 0.4293(5) -0.3598(4) 1.3113(3)
C25 C 0.4578(4) -0.3214(4) 1.2023(3)
H1 H 0.87680 0.10060 1.00300
H2 H 1.16080 0.34540 0.80520
H3 H 0.88080 0.14380 0.67430
H4 H 0.64380 -0.16480 0.71090
H5 H 0.63270 -0.18490 0.83810
H6 H 0.4366(30) -0.0452(23) 0.8409(13)
H7 H 0.49700 0.02900 0.62210
H8 H 0.35890 0.08390 0.69050
H9 H 0.13330 -0.05060 0.51860
H10 H 0.20030 0.08710 0.52350
H11 H 0.47580 -0.32990 0.63200
H12 H 0.53570 -0.19620 0.58510
H13 H 0.41110 -0.25000 0.52820
H14 H 0.08500 -0.23960 0.70320
H15 H 0.17200 -0.31790 0.62180
H16 H 0.13980 -0.40270 0.83100
H17 H 0.27160 -0.45310 0.75440
H18 H 0.4523(14) -0.3585(23) 0.8249(22)
H19 H 0.2403(14) -0.158(2) 0.8116(17)
H20 H 0.51360 -0.36590 0.98750
H21 H 0.43620 -0.23510 0.99750
H22 H 0.22080 -0.49140 1.12090
H23 H 0.16910 -0.55770 1.31070
H24 H 0.30110 -0.47100 1.42990
H25 H 0.48550 -0.32620 1.35970
H26 H 0.53340 -0.26030 1.17500
#END
