
#######################################################################
#
#                 Cambridge Crystallographic Data Centre
#                                CCDC
#
#######################################################################
#
# If this CIF has been generated from an entry in the Cambridge
# Structural Database, then it will include bibliographic, chemical,
# crystal, experimental, refinement or atomic coordinate data resulting
# from the CCDC's data processing and validation procedures.
#
#######################################################################

data_CSD_CIF_TIMYUL
_audit_creation_date 2013-10-10
_audit_creation_method CSD-ConQuest-V1
_database_code_CSD TIMYUL
_database_code_depnum_ccdc_archive 'CCDC 965863'
_chemical_formula_sum 'C21 H24 N2 O5'
_chemical_formula_moiety
;
C21 H24 N2 O5
;
_journal_coden_Cambridge 1336
_journal_volume 15
_journal_year 2013
_journal_page_first 4842
_journal_name_full 'Org.Lett. '
loop_
_publ_author_name
"Li-Chao Fang"
"R.P.Hsung"
"Zhi-Xiong Ma"
"W.R.Presser"
_chemical_name_systematic
;
4-Isopropyl-3-(5-(4-nitrobenzoyl)bicyclo[2.2.2]oct-2-en-2-yl)-1,3-oxazolidin-2
-one
;
_cell_volume   1878.518
_exptl_crystal_colour 'colorless'
_exptl_crystal_density_diffrn 1.359
_exptl_special_details
;
Absolute configuration

;
_exptl_crystal_description 'Plate'
_diffrn_ambient_temperature 100
#These two values have been output from a single CSD field.
_refine_ls_R_factor_gt 0.0302
_refine_ls_wR_factor_gt 0.0302
_symmetry_cell_setting orthorhombic
_symmetry_space_group_name_H-M 'P 21 21 2'
_symmetry_Int_Tables_number 18
loop_
_symmetry_equiv_pos_site_id
_symmetry_equiv_pos_as_xyz
1 x,y,z
2 -x,-y,z
3 1/2-x,1/2+y,-z
4 1/2+x,1/2-y,-z
_cell_length_a 11.3046(7)
_cell_length_b 26.6589(16)
_cell_length_c 6.2333(4)
_cell_angle_alpha 90
_cell_angle_beta 90
_cell_angle_gamma 90
_cell_formula_units_Z 4
loop_
_atom_type_symbol
_atom_type_radius_bond
C 0.68
H 0.23
N 0.68
O 0.68
loop_
_atom_site_label
_atom_site_type_symbol
_atom_site_fract_x
_atom_site_fract_y
_atom_site_fract_z
O1 O 0.71161(13) 0.17486(6) 0.4116(3)
O2 O 0.76320(12) 0.11981(6) 0.1562(3)
O3 O 0.51655(13) 0.33187(6) -0.0488(2)
O4 O 0.76813(17) 0.51159(7) 0.5984(3)
O5 O 0.64693(15) 0.49349(6) 0.8532(3)
N1 N 0.58882(14) 0.15756(6) 0.1240(3)
N2 N 0.68501(17) 0.48776(7) 0.6710(3)
C1 C 0.68821(18) 0.15323(8) 0.2466(3)
C2 C 0.70857(19) 0.09772(8) -0.0311(4)
H1 H 0.68380 0.06280 -0.00130
H2 H 0.76420 0.09760 -0.15370
C3 C 0.60074(18) 0.13076(7) -0.0801(3)
H3 H 0.62120 0.15510 -0.19630
C4 C 0.48957(19) 0.10128(8) -0.1442(3)
H4 H 0.42710 0.12610 -0.18430
C5 C 0.5176(2) 0.06999(8) -0.3435(4)
H5 H 0.44480 0.05440 -0.39680
H6 H 0.57500 0.04380 -0.30650
H7 H 0.55090 0.09170 -0.45500
C6 C 0.4417(2) 0.06964(8) 0.0410(4)
H8 H 0.37590 0.04890 -0.01030
H9 H 0.41380 0.09180 0.15580
H10 H 0.50470 0.04790 0.09610
C7 C 0.50257(18) 0.19552(7) 0.1571(3)
C8 C 0.45248(19) 0.22147(8) 0.0002(3)
H11 H 0.47440 0.21800 -0.14610
C9 C 0.35750(18) 0.25703(8) 0.0754(4)
H12 H 0.32180 0.27540 -0.04850
C10 C 0.40968(18) 0.29402(7) 0.2408(3)
H13 H 0.34240 0.31190 0.31150
C11 C 0.47716(19) 0.26386(7) 0.4168(3)
H14 H 0.56280 0.27150 0.40990
H15 H 0.44780 0.27340 0.56080
C12 C 0.45677(19) 0.20742(8) 0.3787(3)
H16 H 0.49830 0.18690 0.48980
C13 C 0.32230(19) 0.19768(8) 0.3834(4)
H17 H 0.28890 0.20960 0.52110
H18 H 0.30670 0.16120 0.37120
C14 C 0.26298(19) 0.22574(8) 0.1946(4)
H19 H 0.22660 0.20130 0.09470
H20 H 0.19990 0.24810 0.24950
C15 C 0.48897(18) 0.33293(8) 0.1404(3)
C16 C 0.53601(17) 0.37405(8) 0.2832(3)
C17 C 0.49069(19) 0.38355(8) 0.4870(3)
H21 H 0.42690 0.36390 0.53950
C18 C 0.53724(19) 0.42123(8) 0.6141(4)
H22 H 0.50630 0.42770 0.75310
C19 C 0.62999(19) 0.44929(8) 0.5336(4)
C20 C 0.6754(2) 0.44165(9) 0.3298(4)
H23 H 0.73760 0.46210 0.27660
C21 C 0.62843(19) 0.40388(8) 0.2058(4)
H24 H 0.65910 0.39800 0.06620
#END
