
#######################################################################
#
#                 Cambridge Crystallographic Data Centre
#                                CCDC
#
#######################################################################
#
# If this CIF has been generated from an entry in the Cambridge
# Structural Database, then it will include bibliographic, chemical,
# crystal, experimental, refinement or atomic coordinate data resulting
# from the CCDC's data processing and validation procedures.
#
#######################################################################

data_CSD_CIF_TIMZAQ02
_audit_creation_date 2002-11-27
_audit_creation_method CSD-ConQuest-V1
_database_code_CSD TIMZAQ02
_database_code_depnum_ccdc_archive 'CCDC 196686'
_chemical_formula_sum 'C13 H10 N4 O3'
_chemical_formula_moiety
;
C13 H10 N4 O3
;
_journal_coden_Cambridge 95
_journal_year 2002
_journal_page_first 96
_journal_name_full 'Izv.Akad.Nauk SSSR,Ser.Khim.(Russ.)(Russ.Chem.Bull.) '
loop_
_publ_author_name
"E.G.Atovmyan"
"L.A.Nikonova"
"O.S.Filipenko"
"T.N.Fedotova"
"S.M.Aldoshin"
_chemical_name_systematic
;
Isonicotinic acid (o-nitrobenzylidene)hydrazide
;
_chemical_melting_point 508.15
_cell_volume   1263.434
_exptl_crystal_density_diffrn 1.421
_exptl_special_details
;
Melting point range 508.15-509.15K

;
_exptl_crystal_preparation 'ethanol/water'
_diffrn_ambient_temperature 293
#These two values have been output from a single CSD field.
_refine_ls_R_factor_gt 0.0403
_refine_ls_wR_factor_gt 0.0403
_symmetry_cell_setting monoclinic
_symmetry_space_group_name_H-M 'P 21/c'
_symmetry_Int_Tables_number 14
loop_
_symmetry_equiv_pos_site_id
_symmetry_equiv_pos_as_xyz
1 x,y,z
2 x,1/2-y,1/2+z
3 -x,-y,-z
4 -x,-1/2+y,-1/2-z
_cell_length_a 7.510(2)
_cell_length_b 10.910(2)
_cell_length_c 15.476(3)
_cell_angle_alpha 90
_cell_angle_beta 94.87(3)
_cell_angle_gamma 90
_cell_formula_units_Z 4
loop_
_atom_type_symbol
_atom_type_radius_bond
C 0.68
H 0.23
N 0.68
O 0.68
loop_
_atom_site_label
_atom_site_type_symbol
_atom_site_fract_x
_atom_site_fract_y
_atom_site_fract_z
O1 O 0.5779(2) 0.28244(13) -0.51852(8)
O2 O 1.0055(3) -0.20414(16) -0.36018(9)
O3 O 0.9450(4) -0.38821(15) -0.39951(12)
N1 N 0.6365(2) 0.12621(12) -0.42377(9)
N2 N 0.70544(19) 0.05577(13) -0.48661(8)
N3 N 0.4219(2) 0.47491(13) -0.24110(9)
N4 N 0.9604(3) -0.27966(16) -0.41518(11)
C1 C 0.5813(3) 0.24143(15) -0.44523(10)
C2 C 0.5263(2) 0.31909(13) -0.37164(10)
C3 C 0.5683(3) 0.29237(16) -0.28427(11)
C4 C 0.5129(3) 0.37141(16) -0.22225(11)
C5 C 0.3846(3) 0.49994(18) -0.32528(12)
C6 C 0.4337(3) 0.42611(16) -0.39162(11)
C7 C 0.7664(2) -0.04823(15) -0.46199(10)
C8 C 0.8435(2) -0.12791(15) -0.52568(10)
C9 C 0.9271(2) -0.23973(15) -0.50531(10)
C10 C 0.9878(3) -0.31777(18) -0.56718(13)
C11 C 0.9708(3) -0.2822(2) -0.65252(13)
C12 C 0.8938(3) -0.1707(2) -0.67531(12)
C13 C 0.8287(3) -0.09539(19) -0.61338(11)
H1 H 0.630(3) 0.097(2) -0.3731(14)
H2 H 0.757(3) -0.0746(19) -0.4074(13)
H3 H 0.408(3) 0.4466(18) -0.4523(13)
H4 H 0.324(3) 0.578(2) -0.3354(13)
H5 H 0.548(3) 0.354(2) -0.1597(14)
H6 H 0.632(3) 0.221(2) -0.2647(14)
H7 H 1.049(3) -0.391(2) -0.5462(15)
H8 H 1.012(3) -0.333(2) -0.6966(15)
H9 H 0.887(3) -0.142(2) -0.7325(14)
H10 H 0.763(3) -0.021(2) -0.6318(14)
#END
