
#######################################################################
#
#                 Cambridge Crystallographic Data Centre
#                                CCDC
#
#######################################################################
#
# If this CIF has been generated from an entry in the Cambridge
# Structural Database, then it will include bibliographic, chemical,
# crystal, experimental, refinement or atomic coordinate data resulting
# from the CCDC's data processing and validation procedures.
#
#######################################################################

data_CSD_CIF_TIMZAQ01
_audit_creation_date 1999-01-22
_audit_creation_method CSD-ConQuest-V1
_database_code_CSD TIMZAQ01
_database_code_depnum_ccdc_archive 'CCDC 130825'
_chemical_formula_sum 'C13 H10 N4 O3'
_chemical_formula_moiety
;
C13 H10 N4 O3
;
_journal_coeditor_code "IUCr TA1206"
_journal_coden_Cambridge 591
_journal_volume 54
_journal_year 1998
_journal_page_first 1919
_journal_name_full 'Acta Crystallogr.,Sect.C:Cryst.Struct.Commun. '
loop_
_publ_author_name
"Shu-Hua Liu"
"Xiao-Feng Chen"
"Yao-Hua Xu"
"Xiao-Zeng You"
"Wei Chen"
"Z.Arifin"
_chemical_name_systematic
;
o-Nitrobenzaldehyde isonicotinoylhydrazone
;
_cell_volume   1255.262
_exptl_crystal_colour 'pale orange'
_exptl_crystal_density_diffrn 1.43
_exptl_crystal_description 'parallelepiped'
_exptl_crystal_preparation 'ethanol'
_diffrn_ambient_temperature ?
_diffrn_special_details
;
The study was carried out at room temperature,in the range 283-303K

;
#These two values have been output from a single CSD field.
_refine_ls_R_factor_gt 0.055
_refine_ls_wR_factor_gt 0.055
_symmetry_cell_setting monoclinic
_symmetry_space_group_name_H-M 'P 21/c'
_symmetry_Int_Tables_number 14
loop_
_symmetry_equiv_pos_site_id
_symmetry_equiv_pos_as_xyz
1 x,y,z
2 -x,1/2+y,1/2-z
3 -x,-y,-z
4 x,-1/2-y,-1/2+z
_cell_length_a 7.4860(4)
_cell_length_b 10.889(1)
_cell_length_c 15.456(1)
_cell_angle_alpha 90
_cell_angle_beta 94.916(6)
_cell_angle_gamma 90
_cell_formula_units_Z 4
loop_
_atom_type_symbol
_atom_type_radius_bond
C 0.68
H 0.23
N 0.68
O 0.68
loop_
_atom_site_label
_atom_site_type_symbol
_atom_site_fract_x
_atom_site_fract_y
_atom_site_fract_z
O1 O 0.9447(4) -0.3879(2) 0.60028(15)
O2 O 1.0055(3) -0.2044(2) 0.63989(12)
O3 O 0.5781(3) 0.2826(2) 0.48166(11)
N1 N 0.9602(4) -0.2802(2) 0.58451(15)
N2 N 0.7059(3) 0.0558(2) 0.51330(12)
N3 N 0.6365(3) 0.1264(2) 0.57598(13)
N4 N 0.4225(3) 0.4747(2) 0.75907(13)
C1 C 0.9264(3) -0.2396(2) 0.49446(15)
C2 C 0.9877(4) -0.3173(3) 0.4329(2)
C3 C 0.9705(4) -0.2819(3) 0.3478(2)
C4 C 0.8935(4) -0.1709(3) 0.3249(2)
C5 C 0.8293(4) -0.0962(3) 0.3870(2)
C6 C 0.8432(3) -0.1281(2) 0.47409(14)
C7 C 0.7662(3) -0.0481(2) 0.5376(2)
C8 C 0.5817(3) 0.2418(2) 0.55474(15)
C9 C 0.5263(3) 0.3189(2) 0.62853(14)
C10 C 0.5675(4) 0.2928(2) 0.7156(2)
C11 C 0.5129(4) 0.3715(2) 0.7771(2)
C12 C 0.3841(4) 0.4996(3) 0.6750(2)
C13 C 0.4343(4) 0.4261(2) 0.6084(2)
H1 H 1.0416(39) -0.3894(28) 0.4513(17)
H2 H 1.0120(39) -0.3337(28) 0.3052(17)
H3 H 0.6258(30) 0.1010(21) 0.6251(15)
H4 H 0.8895(37) -0.1452(26) 0.2661(18)
H5 H 0.7757(38) -0.0235(26) 0.3701(17)
H6 H 0.7621(29) -0.0764(21) 0.5939(14)
H7 H 0.6202(36) 0.2215(26) 0.7358(16)
H8 H 0.5415(34) 0.3549(25) 0.8359(17)
H9 H 0.3321(37) 0.5793(27) 0.6613(16)
H10 H 0.4020(33) 0.4452(23) 0.5472(16)
#END
