
#######################################################################
#
#                 Cambridge Crystallographic Data Centre
#                                CCDC
#
#######################################################################
#
# If this CIF has been generated from an entry in the Cambridge
# Structural Database, then it will include bibliographic, chemical,
# crystal, experimental, refinement or atomic coordinate data resulting
# from the CCDC's data processing and validation procedures.
#
#######################################################################

data_CSD_CIF_TIPMIQ
_audit_creation_date 2013-10-10
_audit_creation_method CSD-ConQuest-V1
_database_code_CSD TIPMIQ
_database_code_depnum_ccdc_archive 'CCDC 916798'
_chemical_formula_sum 'C4 H5 N5 O10'
_chemical_formula_moiety
;
C4 H5 N5 O10
;
_journal_coden_Cambridge 1220
_journal_volume 19
_journal_year 2013
_journal_page_first 15627
_journal_name_full 'Chem.-Eur.J. '
loop_
_publ_author_name
"A.Baumann"
"A.Erbacher"
"C.Evangelisti"
"T.M.Klapotke"
"B.Krumm"
"S.F.Rest"
"M.Reynders"
"V.Sproll"
_chemical_name_systematic
;
2-(nitro(2,2,2-trinitroethyl)amino)acetic acid
;
_cell_volume   1002.461
_exptl_crystal_colour 'colorless'
_exptl_crystal_density_diffrn 1.876
_exptl_crystal_description 'platelet'
_diffrn_ambient_temperature 173
#These two values have been output from a single CSD field.
_refine_ls_R_factor_gt 0.0316
_refine_ls_wR_factor_gt 0.0316
_symmetry_cell_setting monoclinic
_symmetry_space_group_name_H-M 'P 21/c'
_symmetry_Int_Tables_number 14
loop_
_symmetry_equiv_pos_site_id
_symmetry_equiv_pos_as_xyz
1 x,y,z
2 -x,1/2+y,1/2-z
3 -x,-y,-z
4 x,-1/2-y,-1/2+z
_cell_length_a 10.9200(4)
_cell_length_b 6.3120(2)
_cell_length_c 14.9880(5)
_cell_angle_alpha 90
_cell_angle_beta 103.984(4)
_cell_angle_gamma 90
_cell_formula_units_Z 4
loop_
_atom_type_symbol
_atom_type_radius_bond
C 0.68
H 0.23
N 0.68
O 0.68
loop_
_atom_site_label
_atom_site_type_symbol
_atom_site_fract_x
_atom_site_fract_y
_atom_site_fract_z
O1 O 0.91318(8) -0.06340(14) 0.88290(6)
O2 O 0.60534(9) -0.10557(16) 0.87562(6)
N1 N 0.60673(9) -0.10891(17) 0.79472(7)
O3 O 0.78013(10) -0.10551(16) 0.47528(6)
O4 O 0.90832(9) 0.16354(17) 0.68754(7)
C1 C 0.74529(11) -0.06679(19) 0.62233(8)
O5 O 0.54371(9) -0.22724(16) 0.73594(6)
O6 O 0.61913(9) 0.08179(17) 0.48928(6)
O7 O 0.65413(11) -0.39316(17) 0.57605(7)
O8 O 0.87951(8) 0.16855(15) 0.98727(6)
N2 N 0.68827(9) 0.02706(16) 0.76711(7)
C2 C 0.66288(12) 0.0662(2) 0.66916(8)
C3 C 0.74715(12) 0.1830(2) 0.83581(8)
O9 O 0.78965(11) -0.37346(16) 0.70878(7)
N3 N 0.71193(11) -0.02671(17) 0.51848(7)
N4 N 0.88539(10) -0.01133(19) 0.65472(7)
C4 C 0.85323(11) 0.0920(2) 0.91053(8)
N5 N 0.72989(11) -0.30178(17) 0.63614(8)
O10 O 0.96032(10) -0.14115(19) 0.64137(8)
H1 H 0.6818(12) 0.208(2) 0.6592(8)
H2 H 0.5771(13) 0.034(2) 0.6410(9)
H3 H 0.6868(13) 0.246(2) 0.8641(9)
H4 H 0.7848(13) 0.294(2) 0.8031(9)
H5 H 0.9769(17) -0.098(3) 0.9257(12)
#END
