
#######################################################################
#
#                 Cambridge Crystallographic Data Centre
#                                CCDC
#
#######################################################################
#
# If this CIF has been generated from an entry in the Cambridge
# Structural Database, then it will include bibliographic, chemical,
# crystal, experimental, refinement or atomic coordinate data resulting
# from the CCDC's data processing and validation procedures.
#
#######################################################################

data_CSD_CIF_TIPMUC
_audit_creation_date 2013-10-10
_audit_creation_method CSD-ConQuest-V1
_database_code_CSD TIPMUC
_database_code_depnum_ccdc_archive 'CCDC 916796'
_chemical_formula_sum 'C4 H4 N8 O9'
_chemical_formula_moiety
;
C4 H4 N8 O9
;
_journal_coden_Cambridge 1220
_journal_volume 19
_journal_year 2013
_journal_page_first 15627
_journal_name_full 'Chem.-Eur.J. '
loop_
_publ_author_name
"A.Baumann"
"A.Erbacher"
"C.Evangelisti"
"T.M.Klapotke"
"B.Krumm"
"S.F.Rest"
"M.Reynders"
"V.Sproll"
_chemical_name_systematic
;
2-(nitro(2,2,2-trinitroethyl)amino)acetyl azide
;
_cell_volume   1114.890
_exptl_crystal_colour 'colorless'
_exptl_crystal_density_diffrn 1.836
_exptl_crystal_description 'block'
_diffrn_ambient_temperature 173
#These two values have been output from a single CSD field.
_refine_ls_R_factor_gt 0.0368
_refine_ls_wR_factor_gt 0.0368
_symmetry_cell_setting monoclinic
_symmetry_space_group_name_H-M 'P 21/n'
_symmetry_Int_Tables_number 14
loop_
_symmetry_equiv_pos_site_id
_symmetry_equiv_pos_as_xyz
1 x,y,z
2 1/2-x,1/2+y,1/2-z
3 -x,-y,-z
4 -1/2+x,-1/2-y,-1/2+z
_cell_length_a 9.9618(7)
_cell_length_b 5.9327(4)
_cell_length_c 19.1585(11)
_cell_angle_alpha 90
_cell_angle_beta 100.053(6)
_cell_angle_gamma 90
_cell_formula_units_Z 4
loop_
_atom_type_symbol
_atom_type_radius_bond
C 0.68
H 0.23
N 0.68
O 0.68
loop_
_atom_site_label
_atom_site_type_symbol
_atom_site_fract_x
_atom_site_fract_y
_atom_site_fract_z
O1 O -0.18905(15) 0.3972(3) 0.07902(8)
O2 O -0.04482(17) 0.4148(3) 0.26219(8)
N1 N 0.16960(16) 0.0512(3) 0.12372(8)
O3 O 0.06035(16) -0.2741(3) 0.09759(10)
O4 O 0.28160(16) -0.2667(3) 0.11103(9)
O5 O 0.02535(16) -0.0624(3) 0.25335(8)
O6 O 0.13977(17) 0.4143(3) 0.21799(8)
N2 N -0.0586(2) -0.0269(3) 0.20088(9)
O7 O -0.27303(17) 0.2563(4) 0.16613(9)
N3 N 0.0238(2) 0.3575(3) 0.21992(9)
O8 O -0.14922(19) -0.1497(3) 0.17359(9)
N4 N 0.42628(18) 0.2668(4) -0.04406(11)
O9 O 0.21879(16) 0.0784(3) -0.00967(8)
N5 N 0.1701(2) -0.1778(3) 0.10892(10)
N6 N -0.18306(19) 0.2891(4) 0.1332(1)
C1 C 0.0385(2) 0.1612(4) 0.10258(11)
C2 C 0.3030(2) 0.1657(4) 0.03504(11)
N7 N 0.42092(19) 0.2649(4) 0.0213(1)
C3 C 0.2925(2) 0.1677(4) 0.11239(11)
N8 N 0.4367(2) 0.2799(4) -0.10083(12)
C4 C -0.0417(2) 0.1931(4) 0.16214(10)
H1 H -0.0183(18) 0.074(3) 0.0686(9)
H2 H 0.0539(18) 0.307(4) 0.0865(9)
H3 H 0.371(2) 0.094(3) 0.1416(10)
H4 H 0.290(2) 0.313(4) 0.1257(10)
#END
