
#######################################################################
#
#                 Cambridge Crystallographic Data Centre
#                                CCDC
#
#######################################################################
#
# If this CIF has been generated from an entry in the Cambridge
# Structural Database, then it will include bibliographic, chemical,
# crystal, experimental, refinement or atomic coordinate data resulting
# from the CCDC's data processing and validation procedures.
#
#######################################################################

data_CSD_CIF_TIPVAR
_audit_creation_date 2013-10-10
_audit_creation_method CSD-ConQuest-V1
_database_code_CSD TIPVAR
_database_code_depnum_ccdc_archive 'CCDC 914963'
_chemical_formula_sum 'C8 H7 N3 O2'
_chemical_formula_moiety
;
C8 H7 N3 O2
;
_journal_coden_Cambridge 1229
_journal_volume 17
_journal_year 2013
_journal_page_first 712
_journal_name_full 'J.Porphyrins Phthalocyanines '
loop_
_publ_author_name
"J.T.Engle"
"A.N.Allison"
"J.M.Standard"
"Ingrid-Suzy Tamgho"
"C.J.Ziegler"
_chemical_name_systematic
;
N,N'-Dihydroxy-1H-isoindole-1,3(2H)-diimine
;
_chemical_name_common
;
1,3-bis(Hydroxyimino)isoindoline
;
_cell_volume    795.951
_exptl_crystal_density_diffrn 1.478
_exptl_crystal_description 'rod'
_diffrn_ambient_temperature 100
#These two values have been output from a single CSD field.
_refine_ls_R_factor_gt 0.0415
_refine_ls_wR_factor_gt 0.0415
_symmetry_cell_setting orthorhombic
_symmetry_space_group_name_H-M 'P n m a'
_symmetry_Int_Tables_number 62
loop_
_symmetry_equiv_pos_site_id
_symmetry_equiv_pos_as_xyz
1 x,y,z
2 1/2+x,1/2-y,1/2-z
3 -x,1/2+y,-z
4 1/2-x,-y,1/2+z
5 -x,-y,-z
6 -1/2-x,-1/2+y,-1/2+z
7 x,-1/2-y,z
8 -1/2+x,y,-1/2-z
_cell_length_a 12.214(3)
_cell_length_b 14.172(4)
_cell_length_c 4.5983(12)
_cell_angle_alpha 90
_cell_angle_beta 90
_cell_angle_gamma 90
_cell_formula_units_Z 4
loop_
_atom_type_symbol
_atom_type_radius_bond
C 0.68
H 0.23
N 0.68
O 0.68
loop_
_atom_site_label
_atom_site_type_symbol
_atom_site_fract_x
_atom_site_fract_y
_atom_site_fract_z
O1 O 0.80877(9) 0.41694(7) 0.0280(2)
H1 H 0.80590 0.46660 -0.06340
N1 N 0.72614(10) 0.41629(8) 0.2431(3)
N2 N 0.74986(14) 0.25000 0.1959(4)
H2 H 0.80080 0.25000 0.06670
C1 C 0.70357(11) 0.33057(10) 0.3134(3)
C2 C 0.62290(11) 0.29961(10) 0.5300(3)
C3 C 0.55233(12) 0.35004(11) 0.7080(3)
H3 H 0.55210 0.41570 0.70740
C4 C 0.48180(12) 0.29938(11) 0.8875(3)
H4 H 0.43390 0.33170 1.00930
O1F O 0.80877(9) 0.08306(7) 0.0280(2)
H1F H 0.80590 0.03340 -0.06340
N1F N 0.72614(10) 0.08371(8) 0.2431(3)
C1F C 0.70357(11) 0.16943(10) 0.3134(3)
C2F C 0.62290(11) 0.20039(10) 0.5300(3)
C3F C 0.55233(12) 0.14996(11) 0.7080(3)
H3F H 0.55210 0.08430 0.70740
C4F C 0.48180(12) 0.20062(11) 0.8875(3)
H4F H 0.43390 0.16830 1.00930
#END
