
#######################################################################
#
#                 Cambridge Crystallographic Data Centre
#                                CCDC
#
#######################################################################
#
# If this CIF has been generated from an entry in the Cambridge
# Structural Database, then it will include bibliographic, chemical,
# crystal, experimental, refinement or atomic coordinate data resulting
# from the CCDC's data processing and validation procedures.
#
#######################################################################

data_CSD_CIF_TIQHOQ
_audit_creation_date 1997-03-26
_audit_creation_method CSD-ConQuest-V1
_database_code_CSD TIQHOQ
_database_code_depnum_ccdc_archive 'CCDC 128456'
_chemical_formula_sum 'C25 H32 N2 O6'
_chemical_formula_moiety
;
C25 H32 N2 O6
;
_journal_coeditor_code "IUCr PA1238"
_journal_coden_Cambridge 591
_journal_volume 53
_journal_year 1997
_journal_page_first 257
_journal_name_full 'Acta Crystallogr.,Sect.C:Cryst.Struct.Commun. '
loop_
_publ_author_name
"K.R.Rowan"
"E.M.Holt"
_chemical_name_systematic
;
Dineopentyl 2,6-dimethyl-4-(3-nitrophenyl)pyridine-3,5-dicarboxylate
;
_cell_volume   2556.770
_exptl_crystal_colour 'colorless'
_exptl_crystal_density_diffrn 1.186
_diffrn_ambient_temperature ?
_diffrn_special_details
;
The study was carried out at room temperature,in the range 283-303K

;
_refine_special_details
;
Methyl hydrogens of C2 and C6 are all disordered over two sites.

;
#These two values have been output from a single CSD field.
_refine_ls_R_factor_gt 0.0578
_refine_ls_wR_factor_gt 0.0578
_symmetry_cell_setting monoclinic
_symmetry_space_group_name_H-M 'P 21/c'
_symmetry_Int_Tables_number 14
loop_
_symmetry_equiv_pos_site_id
_symmetry_equiv_pos_as_xyz
1 x,y,z
2 -x,1/2+y,1/2-z
3 -x,-y,-z
4 x,-1/2-y,-1/2+z
_cell_length_a 17.736(3)
_cell_length_b 6.139(1)
_cell_length_c 24.756(4)
_cell_angle_alpha 90
_cell_angle_beta 108.46(1)
_cell_angle_gamma 90
_cell_formula_units_Z 4
loop_
_atom_type_symbol
_atom_type_radius_bond
C 0.68
H 0.23
N 0.68
O 0.68
loop_
_atom_site_label
_atom_site_type_symbol
_atom_site_fract_x
_atom_site_fract_y
_atom_site_fract_z
N1 N -0.4538(3) -0.7460(9) -0.0410(2)
C1 C -0.4123(4) -0.6532(13) 0.0086(2)
C2 C -0.4275(4) -0.7494(12) 0.0604(2)
H1 H -0.46850 -0.85760 0.04810
H2 H -0.37990 -0.81560 0.08490
H3 H -0.44450 -0.63640 0.08070
H4? H -0.41880 -0.92890 0.07030
H5? H -0.40670 -0.63610 0.10040
H6? H -0.49970 -0.73370 0.04920
C3 C -0.3556(3) -0.4936(12) 0.0128(2)
C4 C -0.3081(4) -0.4038(12) 0.0694(2)
O1 O -0.3347(3) -0.3028(10) 0.1001(2)
O2 O -0.2318(2) -0.4535(8) 0.0816(2)
C5 C -0.3413(3) -0.4190(11) -0.0376(2)
C6 C -0.3865(3) -0.5164(12) -0.0887(2)
C7 C -0.3776(4) -0.4328(15) -0.1436(3)
O3 O -0.4000(3) -0.260(1) -0.1634(2)
O4 O -0.3408(2) -0.5791(8) -0.1659(2)
C8 C -0.4413(3) -0.6755(13) -0.0888(2)
C9 C -0.4919(3) -0.7858(12) -0.1424(2)
H7 H -0.52590 -0.89330 -0.13400
H8 H -0.52380 -0.67730 -0.16720
H9 H -0.45770 -0.85430 -0.16060
H10? H -0.48320 -0.70850 -0.17340
H11? H -0.54100 -0.81100 -0.14170
H12? H -0.46850 -0.92680 -0.14230
C10 C -0.2802(3) -0.2546(12) -0.0354(2)
C11 C -0.2790(4) -0.0554(14) -0.0098(3)
H13 H -0.31960 -0.02410 0.00720
C12 C -0.2209(4) 0.0976(13) -0.0073(3)
H14 H -0.22100 0.23390 0.01170
C13 C -0.1618(4) 0.0541(14) -0.0308(3)
H15 H -0.12090 0.15760 -0.03020
C14 C -0.1651(4) -0.1436(15) -0.0574(3)
C15 C -0.2208(4) -0.3006(12) -0.0600(2)
H16 H -0.21990 -0.43730 -0.07860
C16 C -0.1795(3) -0.3568(13) 0.1335(3)
H17 H -0.19550 -0.40120 0.16540
H18 H -0.18210 -0.20080 0.13080
C17 C -0.0951(4) -0.4321(16) 0.1418(3)
C18 C -0.0708(4) -0.3632(16) 0.0905(3)
H19 H -0.10210 -0.43650 0.05650
H20 H -0.07920 -0.20890 0.08590
H21 H -0.01560 -0.39520 0.09730
C19 C -0.0886(4) -0.6705(16) 0.1480(3)
H22 H -0.12090 -0.73870 0.11350
H23 H -0.03430 -0.71590 0.15600
H24 H -0.10720 -0.71220 0.17890
C20 C -0.0430(4) -0.3178(16) 0.1950(3)
H25 H -0.05810 -0.36590 0.22700
H26 H 0.01220 -0.34980 0.20150
H27 H -0.05140 -0.16360 0.19010
C21 C -0.3222(4) -0.5042(13) -0.2165(3)
H28 H -0.28140 -0.39500 -0.20610
H29 H -0.36860 -0.44320 -0.24390
C22 C -0.2935(4) -0.6968(14) -0.2422(3)
C23 C -0.3606(5) -0.8528(15) -0.2663(3)
H30 H -0.37720 -0.91550 -0.23640
H31 H -0.40400 -0.77360 -0.29190
H32 H -0.34430 -0.96660 -0.28680
C24 C -0.2261(5) -0.8104(16) -0.2000(3)
H33 H -0.24370 -0.87020 -0.17020
H34 H -0.20650 -0.92530 -0.21820
H35 H -0.18440 -0.70690 -0.18400
C25 C -0.2661(5) -0.6019(15) -0.2908(3)
H36 H -0.22230 -0.50420 -0.27520
H37 H -0.25010 -0.71650 -0.31120
H38 H -0.30980 -0.52350 -0.31630
N2 N -0.1021(5) -0.1908(18) -0.0836(4)
O5 O -0.0501(4) -0.0649(13) -0.0779(3)
O6 O -0.1133(4) -0.3450(16) -0.1143(4)
#END
