
#######################################################################
#
#                 Cambridge Crystallographic Data Centre
#                                CCDC
#
#######################################################################
#
# If this CIF has been generated from an entry in the Cambridge
# Structural Database, then it will include bibliographic, chemical,
# crystal, experimental, refinement or atomic coordinate data resulting
# from the CCDC's data processing and validation procedures.
#
#######################################################################

data_CSD_CIF_TIQQAM
_audit_creation_date 2008-03-24
_audit_creation_method CSD-ConQuest-V1
_database_code_CSD TIQQAM
_database_code_depnum_ccdc_archive 'CCDC 293549'
_chemical_formula_sum 'C26 H25 N1 O2'
_chemical_formula_moiety
;
C26 H25 N1 O2
;
_journal_coden_Cambridge 119
_journal_volume 872
_journal_year 2008
_journal_page_first 30
_journal_name_full 'J.Mol.Struct. '
loop_
_publ_author_name
"S.A.Popov"
"G.V.Romanenko"
"V.A.Reznikov"
_chemical_name_systematic
;
(2-t-Butyl-3,5-diphenyl-2,3-dihydroisoxazol-4-yl)(phenyl)methanone
;
_chemical_melting_point 404.15
_cell_volume   2101.287
_exptl_crystal_density_diffrn 1.212
_exptl_special_details
;
Melting point range 404.15-405.15K

;
_exptl_crystal_preparation 'hexane/ethyl acetate'
_diffrn_ambient_temperature 298
#These two values have been output from a single CSD field.
_refine_ls_R_factor_gt 0.0816
_refine_ls_wR_factor_gt 0.0816
_symmetry_cell_setting monoclinic
_symmetry_space_group_name_H-M 'P 21/n'
_symmetry_Int_Tables_number 14
loop_
_symmetry_equiv_pos_site_id
_symmetry_equiv_pos_as_xyz
1 x,y,z
2 1/2-x,1/2+y,1/2-z
3 -x,-y,-z
4 -1/2+x,-1/2-y,-1/2+z
_cell_length_a 5.9027(14)
_cell_length_b 10.500(3)
_cell_length_c 33.907(8)
_cell_angle_alpha 90
_cell_angle_beta 90.816(5)
_cell_angle_gamma 90
_cell_formula_units_Z 4
loop_
_atom_type_symbol
_atom_type_radius_bond
C 0.68
H 0.23
N 0.68
O 0.68
loop_
_atom_site_label
_atom_site_type_symbol
_atom_site_fract_x
_atom_site_fract_y
_atom_site_fract_z
C1 C 0.2171(7) 0.9749(4) 0.14745(13)
C2 C 0.1172(7) 1.1041(4) 0.14942(12)
C3 C 0.2374(10) 1.2108(5) 0.13655(14)
H1 H 0.396(8) 1.203(4) 0.1268(14)
C4 C 0.1400(12) 1.3313(6) 0.14063(16)
H2 H 0.215(8) 1.402(5) 0.1328(15)
C5 C -0.0663(12) 1.3468(7) 0.15674(17)
H3 H -0.130(11) 1.424(7) 0.161(2)
C6 C -0.1848(10) 1.2425(7) 0.16949(17)
H4 H -0.333(10) 1.251(5) 0.1798(16)
C7 C -0.0943(8) 1.1214(5) 0.16626(14)
H5 H -0.174(7) 1.041(5) 0.1739(14)
C8 C 0.3832(7) 0.9187(4) 0.12722(12)
C9 C 0.5437(8) 0.9648(4) 0.09829(13)
O1 O 0.7332(6) 0.9181(3) 0.09786(10)
C10 C 0.4792(8) 1.0561(4) 0.06620(13)
C11 C 0.2701(10) 1.0531(5) 0.04826(15)
H6 H 0.158(7) 0.997(4) 0.0589(12)
C12 C 0.2312(13) 1.1271(6) 0.01523(17)
H7 H 0.083(7) 1.118(4) 0.0055(12)
C13 C 0.3957(15) 1.2040(6) 0.0008(2)
H8 H 0.367(9) 1.258(5) -0.0199(18)
C14 C 0.6017(15) 1.2125(6) 0.0194(2)
H9 H 0.731(8) 1.263(4) 0.0135(14)
C15 C 0.6492(10) 1.1369(5) 0.05202(16)
H10 H 0.808(10) 1.141(5) 0.0674(18)
C16 C 0.4090(8) 0.7840(4) 0.14200(13)
H11 H 0.559(7) 0.771(3) 0.1514(10)
O2 O 0.1231(5) 0.8964(3) 0.17469(9)
C17 C 0.3636(8) 0.6863(4) 0.10975(14)
C18 C 0.5293(10) 0.5992(5) 0.09933(16)
H12 H 0.690(8) 0.606(4) 0.1167(15)
C19 C 0.4869(13) 0.5103(6) 0.06990(19)
H13 H 0.599(10) 0.455(6) 0.0600(19)
C20 C 0.2849(13) 0.5082(6) 0.0506(2)
H14 H 0.235(10) 0.460(6) 0.030(2)
C21 C 0.1176(11) 0.5948(6) 0.06031(17)
H15 H -0.035(9) 0.601(5) 0.0447(17)
C22 C 0.1589(10) 0.6834(5) 0.09003(15)
H16 H 0.048(9) 0.738(5) 0.0950(16)
N1 N 0.2418(6) 0.7721(3) 0.17400(11)
C23 C 0.3445(8) 0.7552(5) 0.21437(13)
C24 C 0.4569(14) 0.6240(6) 0.2143(2)
H17 H 0.326(10) 0.559(6) 0.2110(18)
H18 H 0.530(11) 0.603(7) 0.242(2)
H19 H 0.592(8) 0.628(4) 0.1984(15)
C25 C 0.5092(11) 0.8605(6) 0.2260(2)
H20 H 0.428(8) 0.948(5) 0.2249(14)
H21 H 0.641(8) 0.860(4) 0.2089(15)
H22 H 0.559(9) 0.838(6) 0.252(2)
C26 C 0.1480(12) 0.7511(7) 0.24303(19)
H23 H 0.013(10) 0.686(6) 0.2335(18)
H24 H 0.076(9) 0.836(6) 0.2414(16)
H25 H 0.203(8) 0.730(5) 0.2692(18)
#END
