
#######################################################################
#
#                 Cambridge Crystallographic Data Centre
#                                CCDC
#
#######################################################################
#
# If this CIF has been generated from an entry in the Cambridge
# Structural Database, then it will include bibliographic, chemical,
# crystal, experimental, refinement or atomic coordinate data resulting
# from the CCDC's data processing and validation procedures.
#
#######################################################################

data_CSD_CIF_TISJUB01
_audit_creation_date 2008-03-24
_audit_creation_method CSD-ConQuest-V1
_database_code_CSD TISJUB01
_database_code_depnum_ccdc_archive 'CCDC 618074'
_chemical_formula_sum 'C6 H4 N2 O5'
_chemical_formula_moiety
;
C6 H4 N2 O5
;
_journal_coden_Cambridge 1147
_journal_volume 7
_journal_year 2007
_journal_page_first 2316
_journal_name_full 'Cryst.Growth Des. '
loop_
_publ_author_name
"Wenshi Wu"
"Dongsheng Wu"
"Wendan Cheng"
"Hao Zhang"
"Jincao Dai"
_chemical_name_systematic
;
2-Carboxy-4-nitropyridine-1-oxide
;
_chemical_melting_point 428.65
_cell_volume    722.101
_exptl_crystal_colour 'colorless'
_exptl_crystal_density_diffrn 1.694
_exptl_special_details
;
Melting point range 428.65-429.65K

;
_exptl_crystal_description 'needle'
_diffrn_ambient_temperature 293
#These two values have been output from a single CSD field.
_refine_ls_R_factor_gt 0.0482
_refine_ls_wR_factor_gt 0.0482
_symmetry_cell_setting orthorhombic
_symmetry_space_group_name_H-M 'P 21 21 21'
_symmetry_Int_Tables_number 19
loop_
_symmetry_equiv_pos_site_id
_symmetry_equiv_pos_as_xyz
1 x,y,z
2 1/2-x,-y,1/2+z
3 -x,1/2+y,1/2-z
4 1/2+x,1/2-y,-z
_cell_length_a 5.5509(3)
_cell_length_b 9.8139(7)
_cell_length_c 13.2554(3)
_cell_angle_alpha 90
_cell_angle_beta 90
_cell_angle_gamma 90
_cell_formula_units_Z 4
loop_
_atom_type_symbol
_atom_type_radius_bond
C 0.68
H 0.23
N 0.68
O 0.68
loop_
_atom_site_label
_atom_site_type_symbol
_atom_site_fract_x
_atom_site_fract_y
_atom_site_fract_z
C1 C 0.1347(6) 0.6230(3) 0.6408(2)
C2 C 0.3218(6) 0.6939(3) 0.6812(2)
H1 H 0.43640 0.73310 0.63910
C3 C 0.3422(6) 0.7077(3) 0.7838(2)
C4 C 0.1793(7) 0.6463(3) 0.8469(2)
H2 H 0.19470 0.65340 0.91660
C5 C -0.0055(7) 0.5748(3) 0.8051(3)
H3 H -0.11680 0.53200 0.84690
C6 C 0.1156(7) 0.6033(3) 0.5285(3)
N1 N -0.0299(5) 0.5649(2) 0.7039(2)
N2 N 0.5432(6) 0.7868(3) 0.8263(2)
O1 O -0.2174(5) 0.4985(3) 0.6678(2)
O2 O -0.0680(6) 0.5334(3) 0.4950(2)
H4 H -0.162(8) 0.509(5) 0.547(3)
O3 O 0.2680(6) 0.6505(3) 0.47389(19)
O4 O 0.6906(5) 0.8338(3) 0.7680(2)
O5 O 0.5494(7) 0.8019(3) 0.9177(2)
#END
