
#######################################################################
#
#                 Cambridge Crystallographic Data Centre
#                                CCDC
#
#######################################################################
#
# If this CIF has been generated from an entry in the Cambridge
# Structural Database, then it will include bibliographic, chemical,
# crystal, experimental, refinement or atomic coordinate data resulting
# from the CCDC's data processing and validation procedures.
#
#######################################################################

data_CSD_CIF_TISJUB
_audit_creation_date 2008-03-24
_audit_creation_method CSD-ConQuest-V1
_database_code_CSD TISJUB
_database_code_depnum_ccdc_archive 'CCDC 618073'
_chemical_formula_sum 'C6 H4 N2 O5'
_chemical_formula_moiety
;
C6 H4 N2 O5
;
_journal_coden_Cambridge 1147
_journal_volume 7
_journal_year 2007
_journal_page_first 2316
_journal_name_full 'Cryst.Growth Des. '
loop_
_publ_author_name
"Wenshi Wu"
"Dongsheng Wu"
"Wendan Cheng"
"Hao Zhang"
"Jincao Dai"
_chemical_name_systematic
;
2-Carboxy-4-nitropyridine-1-oxide
;
_chemical_melting_point 420.65
_cell_volume    718.814
_exptl_crystal_colour 'colorless'
_exptl_crystal_density_diffrn 1.701
_exptl_special_details
;
Melting point range 420.65-421.65K

;
_exptl_crystal_description 'prism'
_exptl_crystal_preparation 'methanol/dichloromethane'
_diffrn_ambient_temperature 293
#These two values have been output from a single CSD field.
_refine_ls_R_factor_gt 0.0301
_refine_ls_wR_factor_gt 0.0301
_symmetry_cell_setting orthorhombic
_symmetry_space_group_name_H-M 'P 21 21 21'
_symmetry_Int_Tables_number 19
loop_
_symmetry_equiv_pos_site_id
_symmetry_equiv_pos_as_xyz
1 x,y,z
2 1/2-x,-y,1/2+z
3 -x,1/2+y,1/2-z
4 1/2+x,1/2-y,-z
_cell_length_a 13.2440(7)
_cell_length_b 5.9984(3)
_cell_length_c 9.0482(2)
_cell_angle_alpha 90
_cell_angle_beta 90
_cell_angle_gamma 90
_cell_formula_units_Z 4
loop_
_atom_type_symbol
_atom_type_radius_bond
C 0.68
H 0.23
N 0.68
O 0.68
loop_
_atom_site_label
_atom_site_type_symbol
_atom_site_fract_x
_atom_site_fract_y
_atom_site_fract_z
C1 C 0.67701(13) 0.4309(3) 0.5312(2)
C2 C 0.65383(14) 0.6322(3) 0.5959(2)
H1 H 0.69810 0.69750 0.66290
C3 C 0.56478(15) 0.7350(3) 0.5606(2)
C4 C 0.49784(14) 0.6421(4) 0.4620(2)
H2 H 0.43700 0.71220 0.44000
C5 C 0.52314(14) 0.4439(4) 0.3972(2)
H3 H 0.47910 0.37830 0.33000
C6 C 0.77083(15) 0.3051(4) 0.5767(3)
N1 N 0.61150(11) 0.3423(3) 0.43006(18)
N2 N 0.53837(17) 0.9460(3) 0.6335(2)
O1 O 0.63216(12) 0.1513(2) 0.36342(17)
O2 O 0.78976(12) 0.1203(3) 0.5058(2)
H4 H 0.725(3) 0.101(3) 0.435(4)
O3 O 0.82282(13) 0.3772(4) 0.6747(2)
O4 O 0.45519(15) 1.0246(3) 0.6097(2)
O5 O 0.60158(15) 1.0319(3) 0.7134(2)
#END
