
#######################################################################
#
#                 Cambridge Crystallographic Data Centre
#                                CCDC
#
#######################################################################
#
# If this CIF has been generated from an entry in the Cambridge
# Structural Database, then it will include bibliographic, chemical,
# crystal, experimental, refinement or atomic coordinate data resulting
# from the CCDC's data processing and validation procedures.
#
#######################################################################

data_CSD_CIF_TITKUC
_audit_creation_date 1997-04-03
_audit_creation_method CSD-ConQuest-V1
_database_code_CSD TITKUC
_database_code_depnum_ccdc_journal 207/15
_chemical_formula_sum 'C9 H14 N2 O2'
_chemical_formula_moiety
;
C9 H14 N2 O2
;
_journal_coden_Cambridge 207
_journal_year 1996
_journal_page_first 1905
_journal_name_full 'J.Chem.Soc.,Perkin Trans.1 '
loop_
_publ_author_name
"N.Ono"
"K.Matsumoto"
"T.Ogawa"
"H.Tani"
"H.Uno"
_chemical_name_systematic
;
4-Nitro-1-(N-pyrrolidinyl)-1,3-pentadiene
;
_chemical_melting_point 395.15
_cell_volume    973.966
_exptl_crystal_colour 'orange'
_exptl_crystal_density_diffrn 1.242
_exptl_special_details
;
Melting point range 395.15-396.15K

;
_diffrn_ambient_temperature ?
_diffrn_special_details
;
The study was carried out at room temperature,in the range 283-303K

;
#These two values have been output from a single CSD field.
_refine_ls_R_factor_gt 0.038
_refine_ls_wR_factor_gt 0.038
_symmetry_cell_setting orthorhombic
_symmetry_space_group_name_H-M 'P n a 21'
_symmetry_Int_Tables_number 33
loop_
_symmetry_equiv_pos_site_id
_symmetry_equiv_pos_as_xyz
1 x,y,z
2 -x,-y,1/2+z
3 1/2-x,1/2+y,1/2+z
4 1/2+x,1/2-y,z
_cell_length_a 12.34(1)
_cell_length_b 7.587(6)
_cell_length_c 10.403(7)
_cell_angle_alpha 90
_cell_angle_beta 90
_cell_angle_gamma 90
_cell_formula_units_Z 4
loop_
_atom_type_symbol
_atom_type_radius_bond
C 0.68
H 0.23
N 0.68
O 0.68
loop_
_atom_site_label
_atom_site_type_symbol
_atom_site_fract_x
_atom_site_fract_y
_atom_site_fract_z
O1 O 0.4691(6) 0.112(2) 1.00000
O2 O 0.5437(5) 0.123(1) 0.808(1)
N1 N 0.4636(8) 0.123(2) 0.879(1)
N2 N 0.1850(5) 0.120(1) 0.4032(9)
C1 C 0.3577(7) 0.119(2) 0.825(1)
C2 C 0.3498(6) 0.115(1) 0.697(1)
C3 C 0.2555(6) 0.120(2) 0.619(1)
C4 C 0.2646(6) 0.113(2) 0.488(1)
C5 C 0.0707(6) 0.136(2) 0.437(1)
C6 C 0.0137(7) 0.153(2) 0.306(1)
C7 C 0.0921(8) 0.093(1) 0.210(1)
C8 C 0.2048(7) 0.117(2) 0.263(1)
C9 C 0.2662(8) 0.132(2) 0.917(1)
H1 H 0.41650 0.10810 0.65150
H2 H 0.18610 0.12880 0.65840
H3 H 0.33590 0.10190 0.45490
H4 H 0.05830 0.23680 0.48880
H5 H 0.04630 0.03350 0.48140
H6 H -0.00550 0.27280 0.29050
H7 H -0.04950 0.08210 0.30350
H8 H 0.08430 0.16110 0.13400
H9 H 0.07970 -0.02740 0.19160
H10 H 0.25020 0.02070 0.24000
H11 H 0.23640 0.22370 0.23450
H12 H 0.27180 0.23860 0.96420
H13 H 0.26830 0.03470 0.97410
H14 H 0.19980 0.13080 0.87060
#END
