
#######################################################################
#
#                 Cambridge Crystallographic Data Centre
#                                CCDC
#
#######################################################################
#
# If this CIF has been generated from an entry in the Cambridge
# Structural Database, then it will include bibliographic, chemical,
# crystal, experimental, refinement or atomic coordinate data resulting
# from the CCDC's data processing and validation procedures.
#
#######################################################################

data_CSD_CIF_TITXAW
_audit_creation_date 2008-03-24
_audit_creation_method CSD-ConQuest-V1
_database_code_CSD TITXAW
_database_code_depnum_ccdc_archive 'CCDC 679970'
_chemical_formula_sum 'C12 H10 N4 O3'
_chemical_formula_moiety
;
C12 H10 N4 O3
;
_journal_coeditor_code "IUCr BM5049"
_journal_coden_Cambridge 622
_journal_volume 64
_journal_year 2008
_journal_page_first 84
_journal_name_full 'Acta Crystallogr.,Sect.B:Struct.Sci. '
loop_
_publ_author_name
"S.M.S.V.Wardell"
"M.V.N.de Souza"
"T.R.A.Vasconcelos"
"M.de L.Ferreira"
"J.L.Wardell"
"J.N.Low"
"C.Glidewell"
_chemical_name_systematic
;
N-(2-Methyl-5-nitrophenyl)pyrazine-2-carboxamide
;
_chemical_melting_point 438
_cell_volume   1177.189
_exptl_crystal_colour 'colorless'
_exptl_crystal_density_diffrn 1.457
_exptl_special_details
;
Melting point range 438-439K

;
_exptl_crystal_description 'plate'
_exptl_crystal_preparation 'ethanol'
_diffrn_ambient_temperature 120
#These two values have been output from a single CSD field.
_refine_ls_R_factor_gt 0.0577
_refine_ls_wR_factor_gt 0.0577
_symmetry_cell_setting monoclinic
_symmetry_space_group_name_H-M 'P 21/c'
_symmetry_Int_Tables_number 14
loop_
_symmetry_equiv_pos_site_id
_symmetry_equiv_pos_as_xyz
1 x,y,z
2 -x,1/2+y,1/2-z
3 -x,-y,-z
4 x,-1/2-y,-1/2+z
_cell_length_a 10.4767(5)
_cell_length_b 14.5930(6)
_cell_length_c 7.7136(3)
_cell_angle_alpha 90
_cell_angle_beta 93.433(3)
_cell_angle_gamma 90
_cell_formula_units_Z 4
loop_
_atom_type_symbol
_atom_type_radius_bond
C 0.68
H 0.23
N 0.68
O 0.68
loop_
_atom_site_label
_atom_site_type_symbol
_atom_site_fract_x
_atom_site_fract_y
_atom_site_fract_z
N1 N 0.44260(18) 0.25515(13) 0.6088(2)
C1 C 0.3756(2) 0.18393(14) 0.5420(3)
C2 C 0.4112(2) 0.09426(17) 0.5781(3)
N2 N 0.5132(2) 0.07421(15) 0.6834(3)
C3 C 0.5794(2) 0.14576(19) 0.7478(3)
C4 C 0.5447(2) 0.23544(18) 0.7107(3)
C5 C 0.2592(2) 0.20506(14) 0.4266(3)
O1 O 0.19677(15) 0.14521(10) 0.3492(2)
N3 N 0.23298(16) 0.29586(11) 0.4201(2)
C6 C 0.1330(2) 0.34329(14) 0.3318(3)
C7 C 0.1307(2) 0.43932(14) 0.3521(3)
C8 C 0.2343(2) 0.48820(15) 0.4598(3)
C9 C 0.0320(2) 0.48825(15) 0.2678(3)
C10 C -0.0629(2) 0.44588(15) 0.1633(3)
C11 C -0.0564(2) 0.35240(15) 0.1465(3)
N4 N -0.15470(17) 0.30635(14) 0.0344(2)
O2 O -0.22843(17) 0.35439(12) -0.0560(2)
O3 O -0.15942(16) 0.22235(12) 0.0363(2)
C12 C 0.03822(19) 0.29911(15) 0.2284(3)
H1 H 0.36180 0.04570 0.52660
H2 H 0.65340 0.13470 0.82220
H3 H 0.59550 0.28390 0.75960
H4 H 0.28910 0.32640 0.48700
H5 H 0.21710 0.55420 0.45840
H6 H 0.31720 0.47650 0.41150
H7 H 0.23600 0.46570 0.57960
H8 H 0.02930 0.55290 0.28220
H9 H -0.12970 0.48020 0.10560
H10 H 0.03860 0.23440 0.21470
#END
