
#######################################################################
#
#                 Cambridge Crystallographic Data Centre
#                                CCDC
#
#######################################################################
#
# If this CIF has been generated from an entry in the Cambridge
# Structural Database, then it will include bibliographic, chemical,
# crystal, experimental, refinement or atomic coordinate data resulting
# from the CCDC's data processing and validation procedures.
#
#######################################################################

data_CSD_CIF_TIVQEV
_audit_creation_date 2008-07-29
_audit_creation_method CSD-ConQuest-V1
_database_code_CSD TIVQEV
_database_code_depnum_ccdc_archive 'CCDC 676850'
_chemical_formula_sum 'C14 H13 N3 O3'
_chemical_formula_moiety
;
C14 H13 N3 O3
;
_journal_coden_Cambridge 1147
_journal_volume 7
_journal_year 2007
_journal_page_first 2675
_journal_name_full 'Cryst.Growth Des. '
loop_
_publ_author_name
"L.S.Reddy"
"S.K.Chandran"
"S.George"
"N.J.Babu"
"A.Nangia"
_chemical_name_systematic
;
N-(4-Methylphenyl)-4'-(4-nitrophenyl)-urea
;
_chemical_melting_point 511.15
_cell_volume   5171.497
_exptl_crystal_colour 'white'
_exptl_crystal_density_diffrn 1.394
_exptl_crystal_description 'block'
_exptl_crystal_preparation 'DMSO'
_diffrn_ambient_temperature 298
#These two values have been output from a single CSD field.
_refine_ls_R_factor_gt 0.0404
_refine_ls_wR_factor_gt 0.0404
_symmetry_cell_setting orthorhombic
_symmetry_space_group_name_H-M 'F d d 2'
_symmetry_Int_Tables_number 43
loop_
_symmetry_equiv_pos_site_id
_symmetry_equiv_pos_as_xyz
1 x,y,z
2 -x,-y,z
3 1/4+x,1/4-y,1/4+z
4 1/4-x,1/4+y,1/4+z
5 x,1/2+y,1/2+z
6 -x,1/2-y,1/2+z
7 1/4+x,3/4-y,3/4+z
8 1/4-x,3/4+y,3/4+z
9 1/2+x,y,1/2+z
10 1/2-x,-y,1/2+z
11 3/4+x,1/4-y,3/4+z
12 3/4-x,1/4+y,3/4+z
13 1/2+x,1/2+y,z
14 1/2-x,1/2-y,z
15 3/4+x,3/4-y,1/4+z
16 3/4-x,3/4+y,1/4+z
_cell_length_a 9.851(3)
_cell_length_b 56.994(18)
_cell_length_c 9.211(3)
_cell_angle_alpha 90
_cell_angle_beta 90
_cell_angle_gamma 90
_cell_formula_units_Z 16
loop_
_atom_type_symbol
_atom_type_radius_bond
C 0.68
H 0.23
N 0.68
O 0.68
loop_
_atom_site_label
_atom_site_type_symbol
_atom_site_fract_x
_atom_site_fract_y
_atom_site_fract_z
O1 O 0.2567(2) 0.99930(4) 0.4249(3)
C1 C 0.2659(3) 0.99880(5) 0.5578(3)
N1 N 0.3220(3) 1.01660(4) 0.6372(3)
C2 C 0.2000(3) 0.93876(5) 0.6061(3)
H1 H 0.28310 0.93680 0.65260
N2 N 0.2218(3) 0.98082(4) 0.6377(3)
C3 C 0.5045(3) 1.05816(5) 0.3994(3)
H2 H 0.55400 1.05840 0.31350
C4 C 0.3767(3) 1.03739(5) 0.5793(3)
C5 C 0.0042(3) 0.92182(5) 0.4920(4)
C6 C 0.1273(4) 0.91939(5) 0.5620(4)
H3 H 0.16160 0.90450 0.57960
C7 C 0.1504(3) 0.96092(5) 0.5817(3)
N3 N 0.5439(4) 1.10040(5) 0.4230(4)
C8 C 0.3583(3) 1.05809(5) 0.6554(3)
H4 H 0.30970 1.05800 0.74200
C9 C 0.0292(3) 0.96359(5) 0.5103(3)
H5 H -0.00410 0.97860 0.49150
C10 C 0.4518(3) 1.03747(5) 0.4506(3)
H6 H 0.46590 1.02360 0.39980
C11 C -0.0437(3) 0.94410(5) 0.4663(4)
H7 H -0.12610 0.94610 0.41870
C12 C 0.4837(3) 1.07856(5) 0.4763(4)
C13 C 0.4112(3) 1.07878(5) 0.6044(4)
H8 H 0.39830 1.09270 0.65520
C14 C -0.0774(4) 0.90050(6) 0.4447(5)
H9 H -0.17170 0.90300 0.46590
H10 H -0.04590 0.88690 0.49610
H11 H -0.06610 0.89810 0.34220
O2 O 0.6143(4) 1.09974(5) 0.3152(4)
O3 O 0.5266(5) 1.11797(4) 0.4935(6)
H12 H 0.313(3) 1.0152(6) 0.725(5)
H13 H 0.244(4) 0.9815(6) 0.723(6)
#END
