
#######################################################################
#
#                 Cambridge Crystallographic Data Centre
#                                CCDC
#
#######################################################################
#
# If this CIF has been generated from an entry in the Cambridge
# Structural Database, then it will include bibliographic, chemical,
# crystal, experimental, refinement or atomic coordinate data resulting
# from the CCDC's data processing and validation procedures.
#
#######################################################################

data_CSD_CIF_TIVWOK
_audit_creation_date 1997-04-03
_audit_creation_method CSD-ConQuest-V1
_database_code_CSD TIVWOK
_chemical_formula_sum 'C20 H30 N2 O1'
_chemical_formula_moiety
;
C20 H30 N2 O1
;
_journal_coden_Cambridge 35
_journal_volume 61
_journal_year 1996
_journal_page_first 3177
_journal_name_full 'J.Org.Chem. '
loop_
_publ_author_name
"H.Sarker"
"M.L.Greer"
"S.C.Blackstock"
_chemical_name_systematic
;
Di-1-adamantylnitrosamine
;
_chemical_melting_point 463.15
_cell_volume   1697.195
_exptl_crystal_colour 'pale yellow'
_exptl_crystal_density_diffrn 1.231
_exptl_special_details
;
Melting point range 463.15-465.15K

;
_diffrn_ambient_temperature ?
_diffrn_special_details
;
The study was carried out at room temperature,in the range 283-303K

;
#These two values have been output from a single CSD field.
_refine_ls_R_factor_gt 0.036
_refine_ls_wR_factor_gt 0.036
_symmetry_cell_setting monoclinic
_symmetry_space_group_name_H-M 'P 21/n'
_symmetry_Int_Tables_number 14
loop_
_symmetry_equiv_pos_site_id
_symmetry_equiv_pos_as_xyz
1 x,y,z
2 1/2-x,1/2+y,1/2-z
3 -x,-y,-z
4 -1/2+x,-1/2-y,-1/2+z
_cell_length_a 6.731(1)
_cell_length_b 22.710(2)
_cell_length_c 11.118(1)
_cell_angle_alpha 90
_cell_angle_beta 92.99(1)
_cell_angle_gamma 90
_cell_formula_units_Z 4
loop_
_atom_type_symbol
_atom_type_radius_bond
C 0.68
H 0.23
N 0.68
O 0.68
loop_
_atom_site_label
_atom_site_type_symbol
_atom_site_fract_x
_atom_site_fract_y
_atom_site_fract_z
O1 O 0.8901(2) 0.24602(7) 0.5999(1)
N1 N 0.8015(2) 0.29093(8) 0.6325(2)
N2 N 0.6347(2) 0.28373(7) 0.6892(1)
C1 C 0.5539(3) 0.22221(8) 0.7147(2)
C2 C 0.3644(3) 0.22122(9) 0.7856(2)
C3 C 0.2972(3) 0.15716(8) 0.8053(2)
C4 C 0.2544(3) 0.1273(1) 0.6843(2)
C5 C 0.4420(4) 0.1280(1) 0.6155(2)
C6 C 0.6087(4) 0.0955(1) 0.6870(2)
C7 C 0.6462(3) 0.1250(1) 0.8096(2)
C8 C 0.7134(3) 0.1886(1) 0.7919(2)
C9 C 0.5057(4) 0.1915(1) 0.5931(2)
C10 C 0.4586(3) 0.1240(1) 0.8784(2)
C11 C 0.5440(2) 0.34309(8) 0.7185(2)
C12 C 0.6792(3) 0.3932(1) 0.6751(2)
C13 C 0.5922(3) 0.45392(9) 0.7034(2)
C14 C 0.3895(4) 0.4600(1) 0.6384(2)
C15 C 0.2547(3) 0.4117(1) 0.6812(2)
C16 C 0.3413(3) 0.35096(9) 0.6513(2)
C17 C 0.5291(4) 0.3509(1) 0.8539(2)
C18 C 0.4392(4) 0.4116(1) 0.8809(2)
C19 C 0.5747(4) 0.4601(1) 0.8381(2)
C20 C 0.2356(4) 0.4163(1) 0.8157(2)
H1 H 0.840(3) 0.1899(9) 0.753(2)
H2 H 0.393(3) 0.213(1) 0.551(2)
H3 H 0.392(3) 0.239(1) 0.872(2)
H4 H 0.259(3) 0.2421(9) 0.743(2)
H5 H 0.425(3) 0.110(1) 0.537(2)
H6 H 0.733(3) 0.0955(9) 0.641(2)
H7 H 0.481(3) 0.1422(9) 0.958(2)
H8 H 0.143(3) 0.149(1) 0.641(2)
H9 H 0.209(3) 0.087(1) 0.698(2)
H10 H 0.414(3) 0.083(1) 0.893(2)
H11 H 0.664(3) 0.347(1) 0.890(2)
H12 H 0.367(3) 0.3488(9) 0.563(2)
H13 H 0.690(3) 0.388(1) 0.582(2)
H14 H 0.684(3) 0.484(1) 0.673(2)
H15 H 0.407(3) 0.456(1) 0.550(2)
H16 H 0.331(3) 0.499(1) 0.656(2)
H17 H 0.170(3) 0.455(1) 0.836(2)
H18 H 0.147(3) 0.386(1) 0.845(2)
H19 H 0.124(3) 0.415(1) 0.642(2)
H20 H 0.518(3) 0.500(1) 0.855(2)
H21 H 0.752(3) 0.104(1) 0.856(2)
H22 H 0.722(3) 0.2078(9) 0.871(2)
H23 H 0.626(3) 0.1921(8) 0.543(2)
H24 H 0.567(3) 0.055(1) 0.701(2)
H25 H 0.180(3) 0.1583(8) 0.850(2)
H26 H 0.244(3) 0.3198(9) 0.676(2)
H27 H 0.440(3) 0.320(1) 0.888(2)
H28 H 0.809(4) 0.388(1) 0.716(2)
H29 H 0.707(4) 0.457(1) 0.876(2)
H30 H 0.423(3) 0.414(1) 0.968(2)
#END
