
#######################################################################
#
#                 Cambridge Crystallographic Data Centre
#                                CCDC
#
#######################################################################
#
# If this CIF has been generated from an entry in the Cambridge
# Structural Database, then it will include bibliographic, chemical,
# crystal, experimental, refinement or atomic coordinate data resulting
# from the CCDC's data processing and validation procedures.
#
#######################################################################

data_CSD_CIF_TIXPIZ
_audit_creation_date 1997-04-16
_audit_creation_method CSD-ConQuest-V1
_database_code_CSD TIXPIZ
_database_code_depnum_ccdc_archive 'CCDC 1271891; CCDC 403037'
_database_code_depnum_ccdc_fiz 'CSD 403037'
_chemical_formula_sum 'C11 H12 N4 O1'
_chemical_formula_moiety
;
C11 H12 N4 O1
;
_journal_coden_Cambridge 643
_journal_volume 211
_journal_year 1996
_journal_page_first 539
_journal_name_full 'Z.Krist.Cryst.Mater. '
loop_
_publ_author_name
"M.Ramm"
"P.Luger"
"K.Kirschke"
"E.Wolff"
_chemical_name_systematic
;
(Z)-5-Amino-3-methyl-1-(benzohydroximoyl)-1H-pyrazole
;
_chemical_melting_point 446.15
_cell_volume    552.669
_exptl_crystal_colour 'colorless'
_exptl_crystal_density_diffrn 1.299
_exptl_special_details
;
Melting point range 446.15-448.15K

;
_diffrn_ambient_temperature ?
_diffrn_special_details
;
The study was carried out at room temperature,in the range 283-303K

;
#These two values have been output from a single CSD field.
_refine_ls_R_factor_gt 0.0251
_refine_ls_wR_factor_gt 0.0251
_symmetry_cell_setting monoclinic
_symmetry_space_group_name_H-M 'P c'
_symmetry_Int_Tables_number 7
loop_
_symmetry_equiv_pos_site_id
_symmetry_equiv_pos_as_xyz
1 x,y,z
2 x,-y,1/2+z
_cell_length_a 8.377(2)
_cell_length_b 6.5119(7)
_cell_length_c 10.734(2)
_cell_angle_alpha 90
_cell_angle_beta 109.29(2)
_cell_angle_gamma 90
_cell_formula_units_Z 2
loop_
_atom_type_symbol
_atom_type_radius_bond
C 0.68
H 0.23
N 0.68
O 0.68
loop_
_atom_site_label
_atom_site_type_symbol
_atom_site_fract_x
_atom_site_fract_y
_atom_site_fract_z
O1 O 0.5013(2) 0.4660(2) 0.17973(14)
N1 N 0.5677(2) 0.2567(2) 0.39430(15)
N2 N 0.4640(2) 0.2633(2) 0.4711(2)
N3 N 0.6637(3) 0.0319(3) 0.2614(2)
N4 N 0.6395(2) 0.5365(2) 0.2825(2)
C1 C 0.3929(2) 0.0787(3) 0.4558(2)
C2 C 0.4492(3) -0.0460(3) 0.3730(2)
C3 C 0.5611(2) 0.0732(3) 0.3349(2)
C4 C 0.2645(3) 0.0277(5) 0.5191(3)
C5 C 0.6677(2) 0.4300(3) 0.3881(2)
C6 C 0.8091(2) 0.4786(3) 0.5093(2)
C7 C 0.8745(3) 0.6767(4) 0.5371(3)
C8 C 1.0059(3) 0.7141(5) 0.6516(3)
C9 C 1.0767(3) 0.5570(5) 0.7393(3)
C10 C 1.0127(3) 0.3608(5) 0.7124(3)
C11 C 0.8792(3) 0.3215(4) 0.5985(2)
H1 H 0.4957(51) 0.5515(65) 0.1064(45)
H2 H 0.4198(33) -0.1896(44) 0.3502(27)
H3 H 0.8188(42) 0.7825(47) 0.4686(35)
H4 H 1.0623(49) 0.8556(68) 0.6834(39)
H5 H 1.1623(48) 0.5941(56) 0.8143(40)
H6 H 1.0615(76) 0.2389(70) 0.7661(56)
H7 H 0.8332(31) 0.1836(44) 0.5784(25)
H8 H 0.6559(32) -0.0917(46) 0.2355(27)
H9 H 0.6582(51) 0.1247(70) 0.2024(45)
H10 H 0.2571(46) 0.1360(71) 0.5797(42)
H11 H 0.2889(55) -0.0942(82) 0.5721(46)
H12 H 0.1434(56) 0.0334(59) 0.4519(47)
#END
