
#######################################################################
#
#                 Cambridge Crystallographic Data Centre
#                                CCDC
#
#######################################################################
#
# If this CIF has been generated from an entry in the Cambridge
# Structural Database, then it will include bibliographic, chemical,
# crystal, experimental, refinement or atomic coordinate data resulting
# from the CCDC's data processing and validation procedures.
#
#######################################################################

data_CSD_CIF_TIZTOL
_audit_creation_date 1997-04-15
_audit_creation_method CSD-ConQuest-V1
_database_code_CSD TIZTOL
_database_code_depnum_ccdc_archive 'CCDC 120525'
_chemical_formula_sum 'C29 H49 N1 O4'
_chemical_formula_moiety
;
C29 H49 N1 O4
;
_journal_coden_Cambridge 241
_journal_year 1996
_journal_page_first 217
_journal_name_full 'Chem.Lett. '
loop_
_publ_author_name
"K.Kinbara"
"H.Takezaki"
"A.Kai"
"K.Saigo"
_chemical_name_systematic
;
6\b-Nitroso-oxy-5\a-cholestan-3\b-yl acetate
;
_cell_volume   1358.026
_exptl_crystal_density_diffrn 1.16
_diffrn_ambient_temperature ?
_diffrn_special_details
;
The study was carried out at room temperature,in the range 283-303K

;
#These two values have been output from a single CSD field.
_refine_ls_R_factor_gt 0.082
_refine_ls_wR_factor_gt 0.082
_symmetry_cell_setting monoclinic
_symmetry_space_group_name_H-M 'P 21'
_symmetry_Int_Tables_number 4
loop_
_symmetry_equiv_pos_site_id
_symmetry_equiv_pos_as_xyz
1 x,y,z
2 -x,1/2+y,-z
_cell_length_a 13.89(1)
_cell_length_b 7.663(5)
_cell_length_c 12.976(9)
_cell_angle_alpha 90
_cell_angle_beta 100.50(6)
_cell_angle_gamma 90
_cell_formula_units_Z 2
loop_
_atom_type_symbol
_atom_type_radius_bond
C 0.68
H 0.23
N 0.68
O 0.68
loop_
_atom_site_label
_atom_site_type_symbol
_atom_site_fract_x
_atom_site_fract_y
_atom_site_fract_z
O1 O 0.8410(4) -0.07400 0.5646(4)
O2 O 0.8933(3) 0.3093(12) 0.9056(4)
C1 C 0.8227(6) 0.1301(17) 0.7560(7)
C2 C 0.5689(5) 0.0949(16) 0.3464(6)
N1 N 0.8931(5) -0.2121(14) 0.6211(6)
C3 C 0.7469(6) -0.0489(16) 0.5977(6)
C4 C 0.6395(5) 0.2548(17) 0.2032(6)
C5 C 0.6666(6) -0.0594(16) 0.5001(7)
O3 O 0.9673(4) -0.2379(14) 0.5907(5)
C6 C 0.5560(5) 0.2447(16) 0.2669(6)
C7 C 0.6575(5) 0.2693(16) 0.4934(6)
C8 C 0.8104(5) 0.2906(18) 0.8198(6)
C9 C 0.7458(5) 0.1234(17) 0.6566(6)
C10 C 0.6602(6) 0.1029(16) 0.4300(6)
C11 C 0.7452(5) 0.2854(16) 0.5848(6)
C12 C 0.3265(5) 0.2077(16) 0.0351(6)
C13 C 0.4589(6) 0.1930(16) 0.1949(6)
C14 C 0.5535(6) 0.4151(16) 0.3305(7)
C15 C 0.6418(6) 0.4307(16) 0.4219(7)
C16 C 0.8412(6) 0.3109(14) 0.5445(6)
C17 C 0.7302(6) 0.4442(15) 0.6542(7)
C18 C 0.2964(5) 0.2620(17) -0.0799(6)
C19 C 0.5494(6) -0.0698(15) 0.2779(6)
C20 C 0.1738(6) 0.2107(17) -0.2513(7)
C21 C 0.4737(6) -0.0087(16) 0.1804(7)
C22 C 0.8079(6) 0.4553(16) 0.7556(7)
C23 C 0.2048(6) 0.1642(16) -0.1357(7)
O4 O 0.8183(6) 0.1454(17) 1.0092(5)
C24 C 0.4173(6) 0.4834(17) 0.1014(7)
C25 C 0.4254(5) 0.2819(18) 0.0889(6)
C26 C 0.8867(7) 0.2258(16) 0.9971(7)
C27 C 0.1019(7) 0.0748(19) -0.3056(7)
C28 C 0.9788(7) 0.2558(21) 1.0769(7)
C29 C 0.1285(7) 0.3929(19) -0.2670(8)
H1 H 0.97439 0.19735 1.14128
H2 H 0.98899 0.37835 1.09008
H3 H 1.03309 0.20975 1.04928
H4 H 0.75135 0.28050 0.84799
H5 H 0.87110 0.47284 0.73730
H6 H 0.79340 0.55234 0.79700
H7 H 0.66749 0.43024 0.67427
H8 H 0.72979 0.54944 0.61397
H9 H 0.89658 0.32212 0.60028
H10 H 0.83548 0.41472 0.50238
H11 H 0.85108 0.21272 0.50168
H12 H 0.68213 0.14147 0.67362
H13 H 0.73739 -0.13997 0.64557
H14 H 0.60403 -0.07407 0.52037
H15 H 0.67973 -0.15907 0.45997
H16 H 0.59875 0.26645 0.52262
H17 H 0.71623 0.10533 0.39627
H18 H 0.51397 0.09774 0.38176
H19 H 0.52300 -0.16151 0.31479
H20 H 0.60900 -0.10981 0.25829
H21 H 0.49858 -0.02987 0.11720
H22 H 0.41268 -0.06947 0.17660
H23 H 0.69979 0.44773 0.39260
H24 H 0.63259 0.53023 0.46400
H25 H 0.63197 0.34832 0.15312
H26 H 0.64087 0.14652 0.16632
H27 H 0.70067 0.26972 0.25042
H28 H 0.47955 0.53099 0.13315
H29 H 0.37005 0.50729 0.14515
H30 H 0.39595 0.53699 0.03415
H31 H 0.47274 0.26006 0.04491
H32 H 0.32957 0.08257 0.03786
H33 H 0.27717 0.24697 0.07286
H34 H 0.35010 0.24028 -0.11536
H35 H 0.28180 0.38458 -0.08296
H36 H 0.15174 0.18548 -0.09925
H37 H 0.22004 0.04188 -0.13235
H38 H 0.23009 0.21648 -0.28447
H39 H 0.10939 0.42729 -0.33896
H40 H 0.17629 0.47449 -0.23266
H41 H 0.07890 0.39709 -0.23416
H42 H 0.08285 0.10917 -0.37758
H43 H 0.04565 0.06897 -0.27238
H44 H 0.13295 -0.03763 -0.30118
H45 H 0.81730 0.02777 0.79718
H46 H 0.88650 0.13237 0.73738
H47 H 0.49419 0.41691 0.35874
H48 H 0.55369 0.51311 0.28454
#END
