
#######################################################################
#
#                 Cambridge Crystallographic Data Centre
#                                CCDC
#
#######################################################################
#
# If this CIF has been generated from an entry in the Cambridge
# Structural Database, then it will include bibliographic, chemical,
# crystal, experimental, refinement or atomic coordinate data resulting
# from the CCDC's data processing and validation procedures.
#
#######################################################################

data_CSD_CIF_TIZXAD
_audit_creation_date 2014-02-19
_audit_creation_method CSD-ConQuest-V1
_database_code_CSD TIZXAD
_database_code_depnum_ccdc_archive 'CCDC 925361'
_chemical_formula_sum 'C19 H33 N5 O3'
_chemical_formula_moiety
;
C19 H33 N5 O3
;
_journal_coden_Cambridge 1220
_journal_volume 20
_journal_year 2014
_journal_page_first 2793
_journal_name_full 'Chem.-Eur.J. '
loop_
_publ_author_name
"S.Tolstikov"
"E.Tretyakov"
"S.Fokin"
"E.Suturina"
"G.Romanenko"
"A.Bogomyakov"
"D.Stass"
"A.Maryasov"
"M.Fedin"
"N.Gritsan"
"V.Ovcharenko"
_chemical_name_systematic
;
2,2'-((t-butyl(oxido)-\l^5^-azanylidene)methylene)bis(4,4,5,5-tetramethyl-4,5-
dihydro-1H-imidazol-1-ol)
;
_cell_volume   2167.525
_exptl_crystal_colour 'red'
_exptl_crystal_density_diffrn 1.163
_exptl_crystal_description 'needle'
_diffrn_ambient_temperature 240
#These two values have been output from a single CSD field.
_refine_ls_R_factor_gt 0.0507
_refine_ls_wR_factor_gt 0.0507
_symmetry_cell_setting monoclinic
_symmetry_space_group_name_H-M 'P 21/n'
_symmetry_Int_Tables_number 14
loop_
_symmetry_equiv_pos_site_id
_symmetry_equiv_pos_as_xyz
1 x,y,z
2 1/2-x,1/2+y,1/2-z
3 -x,-y,-z
4 -1/2+x,-1/2-y,-1/2+z
_cell_length_a 10.593(2)
_cell_length_b 11.391(2)
_cell_length_c 18.011(4)
_cell_angle_alpha 90
_cell_angle_beta 94.176(5)
_cell_angle_gamma 90
_cell_formula_units_Z 4
loop_
_atom_type_symbol
_atom_type_radius_bond
C 0.68
H 0.23
N 0.68
O 0.68
loop_
_atom_site_label
_atom_site_type_symbol
_atom_site_fract_x
_atom_site_fract_y
_atom_site_fract_z
C1 C 0.7309(2) 0.6531(2) 0.17301(13)
C2 C 0.8553(3) 0.7200(3) 0.17288(18)
H1 H 0.91970 0.66950 0.15440
H2 H 0.88150 0.74490 0.22320
H3 H 0.84400 0.78840 0.14100
C3 C 0.7444(3) 0.5418(2) 0.21946(15)
H4 H 0.80580 0.49020 0.19890
H5 H 0.66320 0.50230 0.21880
H6 H 0.77270 0.56190 0.27030
C4 C 0.6790(3) 0.6218(3) 0.09479(15)
H7 H 0.73620 0.56750 0.07290
H8 H 0.67120 0.69250 0.06480
H9 H 0.59650 0.58550 0.09670
N1 N 0.63382(17) 0.73866(15) 0.2028(1)
O1 O 0.58546(15) 0.81114(14) 0.15489(8)
C5 C 0.5972(2) 0.73769(17) 0.27147(11)
C6 C 0.6759(2) 0.69835(18) 0.33677(11)
N2 N 0.78535(18) 0.74072(15) 0.35849(10)
C7 C 0.8285(2) 0.6862(2) 0.43116(12)
C8 C 0.9373(3) 0.6051(2) 0.41462(16)
H10 H 1.00710 0.65130 0.39840
H11 H 0.90900 0.55030 0.37570
H12 H 0.96510 0.56190 0.45930
C9 C 0.8785(3) 0.7847(2) 0.48271(14)
H13 H 0.95200 0.82020 0.46270
H14 H 0.90220 0.75280 0.53170
H15 H 0.81320 0.84360 0.48650
C10 C 0.7097(2) 0.62105(19) 0.45822(12)
C11 C 0.6364(3) 0.6914(2) 0.51353(13)
H16 H 0.56430 0.64600 0.52740
H17 H 0.60700 0.76440 0.49060
H18 H 0.69140 0.70840 0.55760
C12 C 0.7316(3) 0.4967(2) 0.48667(15)
H19 H 0.65270 0.46460 0.50200
H20 H 0.79400 0.49760 0.52890
H21 H 0.76210 0.44840 0.44740
N3 N 0.62888(18) 0.61942(15) 0.38696(10)
O2 O 0.52401(18) 0.56467(15) 0.37677(9)
C13 C 0.4837(2) 0.80321(17) 0.28824(11)
N4 N 0.47756(17) 0.86286(15) 0.34901(9)
C14 C 0.3413(2) 0.89684(18) 0.35320(12)
C15 C 0.3348(3) 1.0176(2) 0.38924(14)
H22 H 0.37280 1.01400 0.43980
H23 H 0.24710 1.04170 0.38990
H24 H 0.38040 1.07390 0.36090
C16 C 0.2868(3) 0.8043(2) 0.40347(14)
H25 H 0.32570 0.81230 0.45360
H26 H 0.30400 0.72660 0.38460
H27 H 0.19610 0.81540 0.40400
C17 C 0.2837(2) 0.88983(18) 0.27153(13)
C18 C 0.1466(2) 0.8504(2) 0.26005(16)
H28 H 0.12090 0.84940 0.20720
H29 H 0.09310 0.90440 0.28520
H30 H 0.13820 0.77210 0.28040
C19 C 0.3043(3) 1.0014(2) 0.22643(14)
H31 H 0.26620 0.99160 0.17620
H32 H 0.39430 1.01560 0.22480
H33 H 0.26540 1.06760 0.24980
N5 N 0.37083(17) 0.79907(15) 0.24388(10)
O3 O 0.34716(15) 0.73698(13) 0.18610(8)
#END
