
#######################################################################
#
#                 Cambridge Crystallographic Data Centre
#                                CCDC
#
#######################################################################
#
# If this CIF has been generated from an entry in the Cambridge
# Structural Database, then it will include bibliographic, chemical,
# crystal, experimental, refinement or atomic coordinate data resulting
# from the CCDC's data processing and validation procedures.
#
#######################################################################

data_CSD_CIF_TMPDAC
_audit_creation_date 1976-08-18
_audit_creation_method CSD-ConQuest-V1
_database_code_CSD TMPDAC
_chemical_formula_sum 'C22 H30 N2 O2'
_chemical_formula_moiety
;
C22 H30 N2 O2
;
_journal_coden_Cambridge 82
_journal_volume 16
_journal_year 1975
_journal_page_first 258
_journal_name_full 'Zh.Strukt.Khim.(Russ.)(J.Struct.Chem.) '
loop_
_publ_author_name
"R.P.Shibaeva"
"L.P.Rozenberg"
_chemical_name_systematic
;
1,4-bis(2,2,6,6-Tetramethyl-2,5,6-trihydropyridine N-oxyl-4-yl)buta-1,3-diyne
;
_cell_volume   1030.157
_exptl_crystal_density_diffrn 1.15
_diffrn_ambient_temperature ?
_diffrn_special_details
;
The study was carried out at room temperature,in the range 283-303K

;
#These two values have been output from a single CSD field.
_refine_ls_R_factor_gt 0.12
_refine_ls_wR_factor_gt 0.12
_symmetry_cell_setting monoclinic
_symmetry_space_group_name_H-M 'P 1 1 21/b'
_symmetry_Int_Tables_number 14
loop_
_symmetry_equiv_pos_site_id
_symmetry_equiv_pos_as_xyz
1 x,y,z
2 -x,1/2-y,1/2+z
3 -x,-y,-z
4 x,-1/2+y,-1/2-z
_cell_length_a 11.714(2)
_cell_length_b 10.404(2)
_cell_length_c 8.458(1)
_cell_angle_alpha 90
_cell_angle_beta 90
_cell_angle_gamma 92.02(3)
_cell_formula_units_Z 2
loop_
_atom_type_symbol
_atom_type_radius_bond
C 0.68
H 0.23
N 0.68
O 0.68
loop_
_atom_site_label
_atom_site_type_symbol
_atom_site_fract_x
_atom_site_fract_y
_atom_site_fract_z
C1 C 0.08290 0.34640 0.48300
C10 C 0.14240 -0.08420 0.57440
C11 C 0.35850 0.09910 0.16570
C2 C 0.02920 0.44420 0.49370
C3 C 0.15840 0.15390 0.58530
C4 C 0.22810 0.03290 0.57570
C5 C 0.14900 0.23650 0.46800
C6 C 0.20830 0.21550 0.31300
C7 C 0.41290 0.23050 0.40670
C8 C 0.31840 0.14460 0.33190
C9 C 0.30720 0.02850 0.72230
H101 H 0.08700 -0.07700 0.65300
H102 H 0.18400 -0.17000 0.53500
H103 H 0.09600 -0.06500 0.48700
H111 H 0.30200 0.02200 0.11800
H112 H 0.44400 0.05700 0.18000
H113 H 0.36500 0.17800 0.09700
H3 H 0.11900 0.15800 0.69700
H61 H 0.22700 0.29000 0.24300
H62 H 0.16700 0.17700 0.25500
H71 H 0.44900 0.29700 0.33500
H72 H 0.39300 0.25300 0.49400
H73 H 0.47400 0.15700 0.44500
H91 H 0.34500 -0.06900 0.70900
H92 H 0.25400 0.05100 0.82500
H93 H 0.38000 0.09700 0.72300
N1 N 0.29230 0.03250 0.42970
O1 O 0.36170 -0.06440 0.41630
C2B C -0.02920 0.55580 0.50630
C1B C -0.08290 0.65360 0.51700
C5B C -0.14900 0.76350 0.53200
C3B C -0.15840 0.84610 0.41470
C6B C -0.20830 0.78450 0.68700
C4B C -0.22810 0.96710 0.42430
H3B H -0.11900 0.84200 0.30300
C8B C -0.31840 0.85540 0.66810
H61B H -0.22700 0.71000 0.75700
H62B H -0.16700 0.82300 0.74500
C10B C -0.14240 1.08420 0.42560
C9B C -0.30720 0.97150 0.27770
N1B N -0.29230 0.96750 0.57030
C11B C -0.35850 0.90090 0.83430
C7B C -0.41290 0.76950 0.59330
H101B H -0.08700 1.07700 0.34700
H102B H -0.18400 1.17000 0.46500
H103B H -0.09600 1.06500 0.51300
H91B H -0.34500 1.06900 0.29100
H92B H -0.25400 0.94900 0.17500
H93B H -0.38000 0.90300 0.27700
O1B O -0.36170 1.06440 0.58370
H111B H -0.30200 0.97800 0.88200
H112B H -0.44400 0.94300 0.82000
H113B H -0.36500 0.82200 0.90300
H71B H -0.44900 0.70300 0.66500
H72B H -0.39300 0.74700 0.50600
H73B H -0.47400 0.84300 0.55500
#END
