
#######################################################################
#
#                 Cambridge Crystallographic Data Centre
#                                CCDC
#
#######################################################################
#
# If this CIF has been generated from an entry in the Cambridge
# Structural Database, then it will include bibliographic, chemical,
# crystal, experimental, refinement or atomic coordinate data resulting
# from the CCDC's data processing and validation procedures.
#
#######################################################################

data_CSD_CIF_TMPPIO01
_audit_creation_date 1975-02-01
_audit_creation_method CSD-ConQuest-V1
_database_code_CSD TMPPIO01
_chemical_formula_sum 'C9 H18 N1 O1'
_chemical_formula_moiety
;
C9 H18 N1 O1
;
_journal_coden_Cambridge 321
_journal_volume 5
_journal_year 1973
_journal_page_first 47
_journal_name_full 'Org.Magn.Reson. '
loop_
_publ_author_name
"D.Bordeaux"
"J.Lajzerowicz-Bonneteau"
"R.Briere"
"H.Lemaire"
"A.Rassat"
_chemical_name_systematic
;
2,2,6,6-Tetramethyl-piperidine-1-oxyl
;
_cell_volume    488.325
_exptl_special_details
;
monoclinic polymorph
ATOM COORDINATES FROM ACTA CRYST.(B),30,2160,1974

;
_diffrn_ambient_temperature ?
_diffrn_special_details
;
The study was carried out at room temperature,in the range 283-303K

;
#These two values have been output from a single CSD field.
_refine_ls_R_factor_gt 0.085
_refine_ls_wR_factor_gt 0.085
_symmetry_cell_setting monoclinic
_symmetry_space_group_name_H-M 'C m'
_symmetry_Int_Tables_number 8
loop_
_symmetry_equiv_pos_site_id
_symmetry_equiv_pos_as_xyz
1 x,y,z
2 1/2+x,1/2+y,z
3 x,-y,z
4 1/2+x,1/2-y,z
_cell_length_a 6.618(1)
_cell_length_b 14.36(2)
_cell_length_c 5.879(1)
_cell_angle_alpha 90
_cell_angle_beta 119.07(1)
_cell_angle_gamma 90
_cell_formula_units_Z 2
loop_
_atom_type_symbol
_atom_type_radius_bond
C 0.68
H 0.20
N 0.68
O 0.68
loop_
_atom_site_label
_atom_site_type_symbol
_atom_site_fract_x
_atom_site_fract_y
_atom_site_fract_z
C1 C 0.17200 0.00000 -0.06890
C2 C 0.17460 0.08440 -0.21810
C3 C 0.38890 0.09170 -0.25060
C4 C 0.60050 0.12160 0.00420
C5 C 0.34420 0.16130 -0.46700
H1 H 0.30300 0.00000 0.10600
H2 H 0.04800 0.00000 -0.03700
H3 H 0.05400 0.08500 -0.38400
H4 H 0.17500 0.13200 -0.13400
H5 H 0.55200 0.17900 0.02300
H6 H 0.70600 0.12700 -0.01400
H7 H 0.62900 0.08300 0.16600
H8 H 0.20900 0.13700 -0.63200
H9 H 0.45200 0.16400 -0.51300
H10 H 0.29900 0.21200 -0.42800
N1 N 0.43620 0.00000 -0.33030
O1 O 0.58950 0.00000 -0.40710
C2B C 0.17460 -0.08440 -0.21810
C3B C 0.38890 -0.09170 -0.25060
H3B H 0.05400 -0.08500 -0.38400
H4B H 0.17500 -0.13200 -0.13400
C4B C 0.60050 -0.12160 0.00420
C5B C 0.34420 -0.16130 -0.46700
H5B H 0.55200 -0.17900 0.02300
H6B H 0.70600 -0.12700 -0.01400
H7B H 0.62900 -0.08300 0.16600
H8B H 0.20900 -0.13700 -0.63200
H9B H 0.45200 -0.16400 -0.51300
H10B H 0.29900 -0.21200 -0.42800
#END
