
#######################################################################
#
#                 Cambridge Crystallographic Data Centre
#                                CCDC
#
#######################################################################
#
# If this CIF has been generated from an entry in the Cambridge
# Structural Database, then it will include bibliographic, chemical,
# crystal, experimental, refinement or atomic coordinate data resulting
# from the CCDC's data processing and validation procedures.
#
#######################################################################

data_CSD_CIF_TMXPYP
_audit_creation_date 1978-10-27
_audit_creation_method CSD-ConQuest-V1
_database_code_CSD TMXPYP
_database_code_depnum_ccdc_archive 'CCDC 1272790'
_chemical_formula_sum 'C9 H18 N1 O2'
_chemical_formula_moiety
;
C9 H18 N1 O2
;
_journal_coden_Cambridge 189
_journal_volume 7
_journal_year 1978
_journal_page_first 395
_journal_name_full 'Cryst.Struct.Commun. '
loop_
_publ_author_name
"B.Chion"
_chemical_name_systematic
;
D-(+)-2,2,5,5-Tetramethyl-3-hydroxymethylpyrrolidine-1-oxyl
;
_cell_volume    496.968
_diffrn_ambient_temperature ?
_diffrn_special_details
;
The study was carried out at room temperature,in the range 283-303K

;
#These two values have been output from a single CSD field.
_refine_ls_R_factor_gt 0.05
_refine_ls_wR_factor_gt 0.05
loop_
_citation_database_id_CSD
_citation_special_details
KEFJOX "is a stereoisomer of this entry"
RHMPYO "is a racemate of this entry"
_symmetry_cell_setting monoclinic
_symmetry_space_group_name_H-M 'P 21'
_symmetry_Int_Tables_number 4
loop_
_symmetry_equiv_pos_site_id
_symmetry_equiv_pos_as_xyz
1 x,y,z
2 -x,1/2+y,-z
_cell_length_a 6.766(2)
_cell_length_b 9.949(3)
_cell_length_c 8.121(3)
_cell_angle_alpha 90
_cell_angle_beta 114.62(1)
_cell_angle_gamma 90
_cell_formula_units_Z 2
loop_
_atom_type_symbol
_atom_type_radius_bond
C 0.68
H 0.23
N 0.68
O 0.68
loop_
_atom_site_label
_atom_site_type_symbol
_atom_site_fract_x
_atom_site_fract_y
_atom_site_fract_z
N1 N 0.95120 0.23300 0.33950
C1 C 0.84910 0.23010 0.13770
C2 C 1.04960 0.20360 0.09960
C3 C 1.23700 0.27110 0.25850
C4 C 1.18920 0.24380 0.42200
O1 O 0.83650 0.23280 0.43070
C5 C 0.68260 0.11670 0.07380
C6 C 0.74370 0.36680 0.07410
C7 C 1.03680 0.24950 -0.08210
O2 O 0.87550 0.17470 -0.22050
C8 C 1.26090 0.35940 0.55830
C9 C 1.28380 0.10990 0.51340
H1 H 1.22790 0.34200 0.67920
H2 H 1.43920 0.37010 0.62340
H3 H 1.18540 0.45540 0.49550
H4 H 1.25110 0.08740 0.62960
H5 H 1.46100 0.11440 0.57410
H6 H 1.23390 0.02460 0.41710
H7 H 0.53460 0.13380 0.09890
H8 H 0.60380 0.11100 -0.07580
H9 H 0.75340 0.01580 0.11740
H10 H 0.59720 0.38900 0.10020
H11 H 0.66640 0.36620 -0.07450
H12 H 0.86030 0.45160 0.11960
H13 H 1.08250 0.09300 0.11190
H14 H 1.39350 0.22660 0.27710
H15 H 1.23010 0.38010 0.23150
#END
