
#######################################################################
#
#                 Cambridge Crystallographic Data Centre
#                                CCDC
#
#######################################################################
#
# If this CIF has been generated from an entry in the Cambridge
# Structural Database, then it will include bibliographic, chemical,
# crystal, experimental, refinement or atomic coordinate data resulting
# from the CCDC's data processing and validation procedures.
#
#######################################################################

data_CSD_CIF_TNBENZ13
_audit_creation_date 2004-07-08
_audit_creation_method CSD-ConQuest-V1
_database_code_CSD TNBENZ13
_database_code_depnum_ccdc_archive 'CCDC 213312'
_chemical_formula_sum 'C6 H3 N3 O6'
_chemical_formula_moiety
;
C6 H3 N3 O6
;
_journal_coden_Cambridge 179
_journal_volume 43
_journal_year 2004
_journal_page_first 1149
_journal_name_full 'Angew.Chem.,Int.Ed. '
loop_
_publ_author_name
"P.K.Thallapally"
"R.K.R.Jetti"
"A.K.Katz"
"H.L.Carrel"
"K.Singh"
"K.Lahiri"
"S.Kotha"
"R.Boese"
"G.R.Desiraju"
_chemical_name_systematic
;
1,3,5-trinitrobenzene
;
_chemical_melting_point 396
_cell_volume    824.528
_exptl_crystal_colour 'yellow'
_exptl_crystal_density_diffrn 1.717
_exptl_special_details
;
Polymorphism induced by trisindane additive
polymorph III

;
_exptl_crystal_description 'plate'
_diffrn_ambient_temperature 183
#These two values have been output from a single CSD field.
_refine_ls_R_factor_gt 0.0609
_refine_ls_wR_factor_gt 0.0609
_symmetry_cell_setting monoclinic
_symmetry_space_group_name_H-M 'P 21/c'
_symmetry_Int_Tables_number 14
loop_
_symmetry_equiv_pos_site_id
_symmetry_equiv_pos_as_xyz
1 x,y,z
2 x,1/2-y,1/2+z
3 -x,-y,-z
4 -x,-1/2+y,-1/2-z
_cell_length_a 12.896(5)
_cell_length_b 5.723(2)
_cell_length_c 11.287(5)
_cell_angle_alpha 90
_cell_angle_beta 98.190(8)
_cell_angle_gamma 90
_cell_formula_units_Z 4
loop_
_atom_type_symbol
_atom_type_radius_bond
C 0.68
H 0.23
N 0.68
O 0.68
loop_
_atom_site_label
_atom_site_type_symbol
_atom_site_fract_x
_atom_site_fract_y
_atom_site_fract_z
O1 O 1.02322(13) -0.0077(4) 0.3097(2)
O2 O 1.01779(13) -0.2806(4) 0.43832(17)
O3 O 0.68386(13) -0.5087(3) 0.55141(14)
O4 O 0.55458(13) -0.2649(3) 0.52147(15)
O5 O 0.72272(12) 0.4791(3) 0.19820(14)
O6 O 0.57490(12) 0.3912(3) 0.25434(15)
N1 N 0.97646(15) -0.1289(4) 0.37271(18)
N2 N 0.64222(15) -0.3271(3) 0.50986(14)
N3 N 0.66704(13) 0.3546(3) 0.24973(14)
C1 C 0.86421(15) -0.0845(4) 0.37383(17)
C2 C 0.80889(16) -0.2279(4) 0.44005(17)
H1 H 0.84130 -0.35680 0.48370
C3 C 0.70424(15) -0.1767(3) 0.44055(15)
C4 C 0.65534(14) 0.0120(3) 0.37947(15)
H2 H 0.58360 0.04620 0.38210
C5 C 0.71529(14) 0.1483(3) 0.31467(15)
C6 C 0.81965(15) 0.1059(4) 0.30915(17)
H3 H 0.85920 0.20190 0.26350
#END
