
#######################################################################
#
#                 Cambridge Crystallographic Data Centre
#                                CCDC
#
#######################################################################
#
# If this CIF has been generated from an entry in the Cambridge
# Structural Database, then it will include bibliographic, chemical,
# crystal, experimental, refinement or atomic coordinate data resulting
# from the CCDC's data processing and validation procedures.
#
#######################################################################

data_CSD_CIF_TNBMAN10
_audit_creation_date 1976-05-03
_audit_creation_method CSD-ConQuest-V1
_database_code_CSD TNBMAN10
_chemical_formula_sum 'C15 H14 N4 O7'
_chemical_formula_moiety
;
C15 H14 N4 O7
;
_journal_coden_Cambridge 82
_journal_volume 16
_journal_year 1975
_journal_page_first 98
_journal_name_full 'Zh.Strukt.Khim.(Russ.)(J.Struct.Chem.) '
loop_
_publ_author_name
"A.E.Shvets"
"Ya.Ya.Bleidelis"
"Ya.F.Freimanis"
_chemical_name_systematic
;
N-(2,4,6-Trinitrobenzyl)-N-methyl-p-anisidine
;
_cell_volume   1622.678
_exptl_crystal_density_diffrn 1.49
_diffrn_ambient_temperature ?
_diffrn_special_details
;
The study was carried out at room temperature,in the range 283-303K

;
#These two values have been output from a single CSD field.
_refine_ls_R_factor_gt 0.147
_refine_ls_wR_factor_gt 0.147
_symmetry_cell_setting monoclinic
_symmetry_space_group_name_H-M 'P 21/c'
_symmetry_Int_Tables_number 14
loop_
_symmetry_equiv_pos_site_id
_symmetry_equiv_pos_as_xyz
1 x,y,z
2 -x,1/2+y,1/2-z
3 -x,-y,-z
4 x,-1/2-y,-1/2+z
_cell_length_a 6.18(2)
_cell_length_b 16.68(5)
_cell_length_c 15.78(5)
_cell_angle_alpha 90
_cell_angle_beta 94(1)
_cell_angle_gamma 90
_cell_formula_units_Z 4
loop_
_atom_type_symbol
_atom_type_radius_bond
C 0.68
N 0.68
O 0.68
loop_
_atom_site_label
_atom_site_type_symbol
_atom_site_fract_x
_atom_site_fract_y
_atom_site_fract_z
C1 C -0.22600 0.01900 -0.22800
C2 C 0.31500 -0.22600 -0.24900
C3 C 0.29800 -0.20600 -0.33700
C4 C 0.12800 -0.15700 -0.36900
C5 C -0.34400 -0.04200 -0.28900
C6 C 0.55100 -0.27600 -0.13500
C7 C -0.26900 -0.07900 -0.43600
C8 C -0.27300 0.02600 -0.14300
C9 C -0.16700 0.07700 -0.08300
C10 C -0.00400 0.12400 -0.11300
C11 C 0.06500 0.12200 -0.19700
C12 C -0.06000 0.06800 -0.25300
C13 C -0.02900 -0.12800 -0.31500
C14 C -0.00500 -0.15200 -0.22800
C15 C 0.16300 -0.19800 -0.19700
N1 N -0.45100 -0.02400 -0.11100
N2 N 0.11600 0.17800 -0.05500
N3 N 0.00400 0.07100 -0.34000
N4 N -0.19100 -0.07500 -0.34700
O1 O 0.49700 -0.27200 -0.22400
O2 O -0.39700 -0.06500 -0.04900
O3 O -0.62400 -0.01800 -0.14300
O4 O 0.28900 0.20500 -0.07400
O5 O 0.03200 0.19600 0.01100
O6 O 0.18600 0.05100 -0.35400
O7 O -0.13200 0.09500 -0.39300
#END
