
#######################################################################
#
#                 Cambridge Crystallographic Data Centre
#                                CCDC
#
#######################################################################
#
# If this CIF has been generated from an entry in the Cambridge
# Structural Database, then it will include bibliographic, chemical,
# crystal, experimental, refinement or atomic coordinate data resulting
# from the CCDC's data processing and validation procedures.
#
#######################################################################

data_CSD_CIF_TNDPAM02
_audit_creation_date 2014-07-11
_audit_creation_method CSD-ConQuest-V1
_database_code_CSD TNDPAM02
_database_code_depnum_ccdc_archive 'CCDC 813593'
_chemical_formula_sum 'C12 H8 N4 O6'
_chemical_formula_moiety
;
C12 H8 N4 O6
;
_journal_coden_Cambridge 1078
_journal_year 2011
_journal_name_full 'CSD Communication(Private Communication) '
loop_
_publ_author_name
"J.W.Quail"
"M.Moafi"
"J.A.Weil"
_chemical_name_systematic
;
2,4,6-Trinitro-N-phenylaniline
;
_cell_volume   1264.672
_exptl_crystal_density_diffrn 1.598
_exptl_crystal_description 'parallelepiped'
_diffrn_ambient_temperature 173
#These two values have been output from a single CSD field.
_refine_ls_R_factor_gt 0.0375
_refine_ls_wR_factor_gt 0.0375
_symmetry_cell_setting monoclinic
_symmetry_space_group_name_H-M 'P 21/c'
_symmetry_Int_Tables_number 14
loop_
_symmetry_equiv_pos_site_id
_symmetry_equiv_pos_as_xyz
1 x,y,z
2 -x,1/2+y,1/2-z
3 -x,-y,-z
4 x,-1/2-y,-1/2+z
_cell_length_a 11.324(2)
_cell_length_b 7.6400(15)
_cell_length_c 16.344(6)
_cell_angle_alpha 90
_cell_angle_beta 116.57(2)
_cell_angle_gamma 90
_cell_formula_units_Z 4
loop_
_atom_type_symbol
_atom_type_radius_bond
C 0.68
H 0.23
N 0.68
O 0.68
loop_
_atom_site_label
_atom_site_type_symbol
_atom_site_fract_x
_atom_site_fract_y
_atom_site_fract_z
N1 N 0.21407(9) 0.77301(11) 0.23030(6)
N2 N 0.37074(9) 1.04511(12) 0.20194(6)
N3 N 0.41357(8) 0.68463(11) -0.02742(5)
N4 N 0.12906(8) 0.47384(12) 0.09986(5)
O1 O 0.30564(10) 1.09397(10) 0.24124(6)
O2 O 0.49361(9) 0.79191(11) -0.02773(6)
O3 O 0.14890(9) 0.32099(11) 0.08619(6)
O4 O 0.46419(11) 1.12822(14) 0.20405(8)
O5 O 0.37566(8) 0.55699(10) -0.07896(5)
O6 O 0.02929(7) 0.52580(12) 0.10423(5)
C1 C 0.25480(9) 0.75314(12) 0.16491(6)
H1 H 0.2305(17) 0.882(2) 0.2539(12)
C2 C 0.33387(10) 0.88274(12) 0.14920(6)
C3 C 0.38629(9) 0.86118(12) 0.08821(6)
H2 H 0.43940 0.95010 0.08080
C4 C 0.36031(9) 0.70797(12) 0.03803(6)
C5 C 0.28070(9) 0.57920(12) 0.04640(6)
H3 H 0.26280 0.47510 0.01110
C6 C 0.22767(9) 0.60400(12) 0.10661(6)
C7 C 0.18416(9) 0.64396(13) 0.28085(6)
C8 C 0.24609(9) 0.48124(13) 0.30142(6)
H4 H 0.30630 0.44940 0.27810
C9 C 0.21872(10) 0.36586(14) 0.35653(7)
H5 H 0.25960 0.25390 0.37000
C10 C 0.13224(11) 0.41256(15) 0.39206(7)
H6 H 0.11420 0.33310 0.42980
C11 C 0.07246(11) 0.57576(15) 0.37210(8)
H7 H 0.01390 0.60840 0.39670
C12 C 0.09759(10) 0.69179(14) 0.31637(7)
H8 H 0.05600 0.80320 0.30250
#END
