
#######################################################################
#
#                 Cambridge Crystallographic Data Centre
#                                CCDC
#
#######################################################################
#
# If this CIF has been generated from an entry in the Cambridge
# Structural Database, then it will include bibliographic, chemical,
# crystal, experimental, refinement or atomic coordinate data resulting
# from the CCDC's data processing and validation procedures.
#
#######################################################################

data_CSD_CIF_TNFLUO01
_audit_creation_date 2005-11-15
_audit_creation_method CSD-ConQuest-V1
_database_code_CSD TNFLUO01
_chemical_formula_sum 'C13 H5 N3 O7'
_chemical_formula_moiety
;
C13 H5 N3 O7
;
_journal_coden_Cambridge 41
_journal_volume 50
_journal_year 2005
_journal_page_first 79
_journal_name_full 'Kristallografiya(Russ.)(Crystallogr.Rep.) '
loop_
_publ_author_name
"L.Kh.Minacheva"
"V.S.Sergienko"
"S.B.Strashnova"
"O.V.Avramenko"
"O.V.Koval'chukova"
"O.A.Egorova"
"B.E.Zaitsev"
_chemical_name_systematic
;
2,4,7-Trinitro-9-fluorenone
;
_chemical_melting_point 199
_cell_volume   1223.771
_exptl_crystal_colour 'yellow'
_exptl_crystal_density_diffrn 1.711
_exptl_special_details
;
Melting point range 199-201K
monoclinic P21/c polymorph
y(C9) and z(C9) are -0.089 and 0.0238, not 0.089 and -0.0238
;
_exptl_crystal_preparation 'acetone'
_diffrn_ambient_temperature 295
_refine_special_details
;
One oxygen atom of one nitrato group is disordered over 2 sites with 
occupancies 0.64:0.36.
;
#These two values have been output from a single CSD field.
_refine_ls_R_factor_gt 0.064
_refine_ls_wR_factor_gt 0.064
_symmetry_cell_setting monoclinic
_symmetry_space_group_name_H-M 'P 21/c'
_symmetry_Int_Tables_number 14
loop_
_symmetry_equiv_pos_site_id
_symmetry_equiv_pos_as_xyz
1 x,y,z
2 -x,1/2+y,1/2-z
3 -x,-y,-z
4 x,-1/2-y,-1/2+z
_cell_length_a 4.024(1)
_cell_length_b 16.763(3)
_cell_length_c 18.250(4)
_cell_angle_alpha 90
_cell_angle_beta 96.23(3)
_cell_angle_gamma 90
_cell_formula_units_Z 4
loop_
_atom_type_symbol
_atom_type_radius_bond
C 0.68
H 0.23
N 0.68
O 0.68
loop_
_atom_site_label
_atom_site_type_symbol
_atom_site_fract_x
_atom_site_fract_y
_atom_site_fract_z
N1 N 0.035(2) 0.4133(5) -0.0686(5)
N2 N -0.026(3) -0.0703(5) 0.2240(5)
N3 N 0.428(2) 0.1972(5) 0.2598(5)
O1 O -0.174(2) 0.4053(5) -0.1199(4)
O2 O 0.211(2) 0.4711(4) -0.0609(4)
O3 O 0.127(2) -0.0854(4) 0.2854(4)
O4 O -0.222(3) -0.1114(8) 0.1963(7)
O5? O -0.117(5) -0.124(1) 0.170(1)
O6 O 0.340(2) 0.2005(4) 0.3230(4)
O7 O 0.656(2) 0.2389(5) 0.2381(4)
O8 O -0.315(2) 0.1005(3) -0.0282(3)
C1 C 0.162(2) 0.2317(5) 0.0927(4)
C2 C -0.017(2) 0.2168(4) 0.0236(4)
C3 C -0.059(2) 0.2746(5) -0.0308(4)
H1 H -0.17400 0.26400 -0.07600
C4 C 0.079(2) 0.3480(5) -0.0129(5)
C5 C 0.252(2) 0.3650(5) 0.0532(5)
H2 H 0.33900 0.41600 0.06200
C6 C 0.300(2) 0.3063(5) 0.1070(4)
H3 H 0.42200 0.31700 0.15200
C7 C 0.154(2) 0.1581(4) 0.1375(4)
C8 C -0.027(2) 0.0998(5) 0.0947(4)
C9 C -0.089(2) 0.0238(5) 0.1213(5)
H4 H -0.20900 -0.01400 0.09200
C10 C 0.034(2) 0.0082(4) 0.1917(4)
C11 C 0.205(2) 0.0632(5) 0.2363(4)
H5 H 0.28200 0.05000 0.28500
C12 C 0.262(2) 0.1377(4) 0.2087(4)
C13 C -0.147(2) 0.1324(4) 0.0210(4)
#END
