
#######################################################################
#
#                 Cambridge Crystallographic Data Centre
#                                CCDC
#
#######################################################################
#
# If this CIF has been generated from an entry in the Cambridge
# Structural Database, then it will include bibliographic, chemical,
# crystal, experimental, refinement or atomic coordinate data resulting
# from the CCDC's data processing and validation procedures.
#
#######################################################################

data_CSD_CIF_TNITAN
_audit_creation_date 1971-12-31
_audit_creation_method CSD-ConQuest-V1
_database_code_CSD TNITAN
_chemical_formula_sum 'C6 H3 N5 O8'
_chemical_formula_moiety
;
C6 H3 N5 O8
;
_journal_coeditor_code "IUCr A05313"
_journal_coden_Cambridge 1
_journal_volume 21
_journal_year 1966
_journal_page_first 663
_journal_name_full 'Acta Crystallogr. '
loop_
_publ_author_name
"C.Dickinson"
"J.M.Stewart"
"J.R.Holden"
_chemical_name_systematic
;
2,3,4,6-Tetranitroaniline
;
_cell_volume    974.970
_exptl_crystal_density_diffrn 1.86
_diffrn_ambient_temperature ?
_diffrn_special_details
;
The study was carried out at room temperature,in the range 283-303K

;
#These two values have been output from a single CSD field.
_refine_ls_R_factor_gt 0.08
_refine_ls_wR_factor_gt 0.08
_symmetry_cell_setting monoclinic
_symmetry_space_group_name_H-M 'P 21/c'
_symmetry_Int_Tables_number 14
loop_
_symmetry_equiv_pos_site_id
_symmetry_equiv_pos_as_xyz
1 x,y,z
2 -x,1/2+y,1/2-z
3 -x,-y,-z
4 x,-1/2-y,-1/2+z
_cell_length_a 7.27(1)
_cell_length_b 11.06(2)
_cell_length_c 12.27(2)
_cell_angle_alpha 90
_cell_angle_beta 98.8(3)
_cell_angle_gamma 90
_cell_formula_units_Z 4
loop_
_atom_type_symbol
_atom_type_radius_bond
C 0.68
H 0.20
N 0.68
O 0.68
loop_
_atom_site_label
_atom_site_type_symbol
_atom_site_fract_x
_atom_site_fract_y
_atom_site_fract_z
C1 C -0.24680 0.33570 0.22080
C2 C -0.41070 0.40940 0.20040
C3 C -0.55470 0.38340 0.11920
C4 C -0.54590 0.28410 0.05150
C5 C -0.38730 0.21430 0.06230
C6 C -0.24130 0.24010 0.14310
H1 H -0.00810 0.30280 0.31570
H2 H -0.12790 0.41940 0.35550
H3 H -0.38750 0.14310 0.00980
N1 N -0.11330 0.35770 0.30310
N2 N -0.41630 0.52090 0.26460
N3 N -0.71850 0.46550 0.10390
N4 N -0.70470 0.24340 -0.02540
N5 N -0.08130 0.15910 0.14890
O1 O -0.36360 0.51700 0.36360
O2 O -0.47380 0.61180 0.21460
O3 O -0.80970 0.46820 0.17860
O4 O -0.74490 0.52150 0.01850
O5 O -0.85810 0.28260 -0.01500
O6 O -0.67750 0.17180 -0.09770
O7 O -0.08670 0.07940 0.07950
O8 O 0.05040 0.17520 0.22110
#END
