
#######################################################################
#
#                 Cambridge Crystallographic Data Centre
#                                CCDC
#
#######################################################################
#
# If this CIF has been generated from an entry in the Cambridge
# Structural Database, then it will include bibliographic, chemical,
# crystal, experimental, refinement or atomic coordinate data resulting
# from the CCDC's data processing and validation procedures.
#
#######################################################################

data_CSD_CIF_TNOXYL01
_audit_creation_date 2008-03-04
_audit_creation_method CSD-ConQuest-V1
_database_code_CSD TNOXYL01
_database_code_depnum_ccdc_archive 'CCDC 291789'
_chemical_formula_sum 'C8 H7 N3 O6'
_chemical_formula_moiety
;
C8 H7 N3 O6
;
_journal_coden_Cambridge 774
_journal_volume 29
_journal_year 2006
_journal_page_first 58-2
_journal_name_full 'Huozhayao Xuebao(Chin.)(Chin.J.Explosives Propellants) '
loop_
_publ_author_name
"Jin-Yu Guo"
"Tong-Lai Zhang"
"Jian-Guo Zhang"
"Yan-Hong Liu"
_chemical_name_systematic
;
2,4,6-Trinitro-m-xylene
;
_cell_volume    987.143
_exptl_crystal_colour 'colorless'
_exptl_crystal_density_diffrn 1.623
_exptl_crystal_description 'block'
_exptl_crystal_preparation 'acetic acid'
_diffrn_ambient_temperature 293
#These two values have been output from a single CSD field.
_refine_ls_R_factor_gt 0.0359
_refine_ls_wR_factor_gt 0.0359
_symmetry_cell_setting orthorhombic
_symmetry_space_group_name_H-M 'P b c n'
_symmetry_Int_Tables_number 60
loop_
_symmetry_equiv_pos_site_id
_symmetry_equiv_pos_as_xyz
1 x,y,z
2 1/2-x,1/2-y,1/2+z
3 -x,y,1/2-z
4 1/2+x,1/2-y,-z
5 -x,-y,-z
6 -1/2+x,-1/2+y,-1/2-z
7 x,-y,-1/2+z
8 -1/2-x,-1/2+y,z
_cell_length_a 5.7487(11)
_cell_length_b 15.043(3)
_cell_length_c 11.415(2)
_cell_angle_alpha 90
_cell_angle_beta 90
_cell_angle_gamma 90
_cell_formula_units_Z 4
loop_
_atom_type_symbol
_atom_type_radius_bond
C 0.68
H 0.23
N 0.68
O 0.68
loop_
_atom_site_label
_atom_site_type_symbol
_atom_site_fract_x
_atom_site_fract_y
_atom_site_fract_z
O1 O 0.24978(18) 0.13792(6) 0.42775(10)
O2 O -0.01456(18) 0.23834(7) 0.40188(10)
O3 O 0.6597(2) 0.53223(7) 0.29956(11)
N1 N 0.1826(2) 0.20910(7) 0.38935(10)
N2 N 0.50000 0.49511(10) 0.25000
C1 C 0.50000 0.21575(11) 0.25000
H1 H 0.50000 0.15390 0.25000
C2 C 0.3479(2) 0.26255(8) 0.32016(11)
C3 C 0.3431(2) 0.35538(8) 0.32562(11)
C4 C 0.50000 0.39600(11) 0.25000
C5 C 0.1942(3) 0.40869(9) 0.40784(14)
H2 H 0.26820 0.46460 0.42370
H3 H 0.17430 0.37650 0.47980
H4 H 0.04500 0.41900 0.37260
O1B O 0.75022(18) 0.13792(6) 0.07225(10)
O2B O 1.01456(18) 0.23834(7) 0.09812(10)
O3B O 0.3403(2) 0.53223(7) 0.20044(11)
N1B N 0.8174(2) 0.20910(7) 0.11065(10)
C2B C 0.6521(2) 0.26255(8) 0.17984(11)
C3B C 0.6569(2) 0.35538(8) 0.17438(11)
C5B C 0.8058(3) 0.40869(9) 0.09216(14)
H2B H 0.73180 0.46460 0.07630
H3B H 0.82570 0.37650 0.02020
H4B H 0.95500 0.41900 0.12740
#END
