
#######################################################################
#
#                 Cambridge Crystallographic Data Centre
#                                CCDC
#
#######################################################################
#
# If this CIF has been generated from an entry in the Cambridge
# Structural Database, then it will include bibliographic, chemical,
# crystal, experimental, refinement or atomic coordinate data resulting
# from the CCDC's data processing and validation procedures.
#
#######################################################################

data_CSD_CIF_TNPHNT
_audit_creation_date 1971-12-31
_audit_creation_method CSD-ConQuest-V1
_database_code_CSD TNPHNT
_chemical_formula_sum 'C8 H7 N3 O7'
_chemical_formula_moiety
;
C8 H7 N3 O7
;
_journal_coeditor_code "IUCr A06020"
_journal_coden_Cambridge 107
_journal_volume 24
_journal_year 1968
_journal_page_first 129
_journal_name_full 'Acta Crystallogr.,Sect.B:Struct.Crystallogr.Cryst.Chem. '
loop_
_publ_author_name
"C.M.Gramaccioli"
"R.Destro"
"M.Simonetta"
_chemical_name_systematic
;
2,4,6-Trinitrophenetole
;
_cell_volume   1096.263
_exptl_crystal_density_diffrn 1.557
_diffrn_ambient_temperature ?
_diffrn_special_details
;
The study was carried out at room temperature,in the range 283-303K

;
#These two values have been output from a single CSD field.
_refine_ls_R_factor_gt 0.059
_refine_ls_wR_factor_gt 0.059
_symmetry_cell_setting orthorhombic
_symmetry_space_group_name_H-M 'P c a 21'
_symmetry_Int_Tables_number 29
loop_
_symmetry_equiv_pos_site_id
_symmetry_equiv_pos_as_xyz
1 x,y,z
2 1/2-x,y,1/2+z
3 1/2+x,-y,z
4 -x,-y,1/2+z
_cell_length_a 23.785(1)
_cell_length_b 7.358(1)
_cell_length_c 6.264
_cell_angle_alpha 90
_cell_angle_beta 90
_cell_angle_gamma 90
_cell_formula_units_Z 4
loop_
_atom_type_symbol
_atom_type_radius_bond
C 0.68
H 0.20
N 0.68
O 0.68
loop_
_atom_site_label
_atom_site_type_symbol
_atom_site_fract_x
_atom_site_fract_y
_atom_site_fract_z
C1 C 0.12160 0.22670 0.00000
C2 C 0.15360 0.08830 -0.08750
C3 C 0.13930 0.00730 -0.28030
C4 C 0.09270 0.06860 -0.38640
C5 C 0.05820 0.20050 -0.30130
C6 C 0.07350 0.27550 -0.11150
C7 C 0.16780 0.45810 0.21380
C8 C 0.17620 0.49680 0.44320
H1 H 0.16310 -0.09600 -0.33370
H2 H 0.02230 0.23300 -0.37930
H3 H 0.20800 0.45200 0.13670
H4 H 0.15100 0.57100 0.14070
H5 H 0.19400 0.39000 0.51270
H6 H 0.20500 0.61000 0.49070
H7 H 0.13890 0.53020 0.52570
N1 N 0.20290 0.01550 0.02300
N2 N 0.07830 -0.00840 -0.59540
N3 N 0.03600 0.41600 -0.02110
O1 O 0.13140 0.29580 0.19940
O2 O 0.23070 0.11490 0.13360
O3 O 0.21370 -0.14690 -0.00420
O4 O 0.11050 -0.11980 -0.67260
O5 O 0.03540 0.04420 -0.68120
O6 O -0.01220 0.37600 0.00960
O7 O 0.05430 0.56700 -0.00150
#END
