
#######################################################################
#
#                 Cambridge Crystallographic Data Centre
#                                CCDC
#
#######################################################################
#
# If this CIF has been generated from an entry in the Cambridge
# Structural Database, then it will include bibliographic, chemical,
# crystal, experimental, refinement or atomic coordinate data resulting
# from the CCDC's data processing and validation procedures.
#
#######################################################################

data_CSD_CIF_TOBJAX
_audit_creation_date 2014-02-20
_audit_creation_method CSD-ConQuest-V1
_database_code_CSD TOBJAX
_database_code_depnum_ccdc_archive 'CCDC 963259'
_chemical_formula_sum 'C17 H14 N2 O4'
_chemical_formula_moiety
;
C17 H14 N2 O4
;
_journal_coden_Cambridge 440
_journal_volume 38
_journal_year 2014
_journal_page_first 1655
_journal_name_full 'New J.Chem. '
loop_
_publ_author_name
"M.Parveen"
"A.M.Malla"
"M.Alam"
"M.Ahmad"
"S.Rafiq"
_chemical_name_systematic
;
3-(2,3-Dimethoxyphenyl)-2-(4-nitrophenyl)acrylonitrile
;
_cell_volume   1444.893
_exptl_crystal_colour 'yellow'
_exptl_crystal_density_diffrn 1.426
_exptl_crystal_description 'block'
_diffrn_ambient_temperature 100
#These two values have been output from a single CSD field.
_refine_ls_R_factor_gt 0.0494
_refine_ls_wR_factor_gt 0.0494
_symmetry_cell_setting monoclinic
_symmetry_space_group_name_H-M 'P 21/c'
_symmetry_Int_Tables_number 14
loop_
_symmetry_equiv_pos_site_id
_symmetry_equiv_pos_as_xyz
1 x,y,z
2 -x,1/2+y,1/2-z
3 -x,-y,-z
4 x,-1/2-y,-1/2+z
_cell_length_a 15.634(5)
_cell_length_b 4.720(2)
_cell_length_c 19.585(5)
_cell_angle_alpha 90
_cell_angle_beta 91.229(5)
_cell_angle_gamma 90
_cell_formula_units_Z 4
loop_
_atom_type_symbol
_atom_type_radius_bond
C 0.68
H 0.23
N 0.68
O 0.68
loop_
_atom_site_label
_atom_site_type_symbol
_atom_site_fract_x
_atom_site_fract_y
_atom_site_fract_z
O1 O 0.5428(1) 0.9396(3) -0.09562(8)
O2 O 0.52041(10) 0.7527(4) -0.19561(8)
O3 O 0.28884(9) -0.3785(3) 0.14144(7)
O4 O 0.17731(9) -0.6959(3) 0.21140(7)
N1 N 0.50461(11) 0.7763(4) -0.13512(9)
N2 N 0.14188(12) -0.1587(4) -0.11881(10)
C1 C 0.43624(12) 0.5978(4) -0.10778(10)
C2 C 0.41673(12) 0.6227(4) -0.03905(10)
H1 H 0.44580 0.75160 -0.01110
C3 C 0.35335(12) 0.4520(4) -0.01312(10)
H2 H 0.34010 0.46430 0.03290
C4 C 0.30884(12) 0.2607(4) -0.05537(10)
C5 C 0.32911(13) 0.2457(4) -0.12461(10)
H3 H 0.29890 0.12250 -0.15330
C6 C 0.39342(13) 0.4116(5) -0.15091(10)
H4 H 0.40760 0.39810 -0.19670
C7 C 0.24232(12) 0.0715(4) -0.02731(10)
C8 C 0.23874(13) -0.0021(4) 0.03915(11)
C9 C 0.17555(13) -0.1879(4) 0.07124(10)
C10 C 0.20251(12) -0.3617(4) 0.12543(10)
C11 C 0.14393(13) -0.5347(4) 0.15952(10)
C12 C 0.05860(13) -0.5343(5) 0.13846(11)
H5 H 0.01930 -0.64870 0.16040
C13 C 0.03215(13) -0.3614(5) 0.08433(11)
H6 H -0.02510 -0.36210 0.07030
C14 C 0.08898(13) -0.1900(5) 0.05136(11)
H7 H 0.06990 -0.07470 0.01570
C15 C 0.31439(13) -0.2475(5) 0.20518(11)
H8 H 0.37500 -0.26880 0.21220
H9 H 0.28500 -0.33680 0.24200
H10 H 0.30020 -0.04970 0.20380
C16 C 0.11783(15) -0.8559(5) 0.25061(12)
H11 H 0.14830 -0.96060 0.28540
H12 H 0.08720 -0.98500 0.22110
H13 H 0.07810 -0.72920 0.27150
C17 C 0.18470(13) -0.0583(5) -0.07710(11)
H14 H 0.2825(13) 0.073(5) 0.0689(11)
#END
