
#######################################################################
#
#                 Cambridge Crystallographic Data Centre
#                                CCDC
#
#######################################################################
#
# If this CIF has been generated from an entry in the Cambridge
# Structural Database, then it will include bibliographic, chemical,
# crystal, experimental, refinement or atomic coordinate data resulting
# from the CCDC's data processing and validation procedures.
#
#######################################################################

data_CSD_CIF_TOCGIB
_audit_creation_date 1997-04-16
_audit_creation_method CSD-ConQuest-V1
_database_code_CSD TOCGIB
_chemical_formula_sum 'C18 H22 N2 O6'
_chemical_formula_moiety
;
C18 H22 N2 O6
;
_journal_coden_Cambridge 35
_journal_volume 61
_journal_year 1996
_journal_page_first 9028
_journal_name_full 'J.Org.Chem. '
loop_
_publ_author_name
"P.Merino"
"A.Lanaspa"
"F.L.Merchan"
"T.Tejero"
_chemical_name_systematic
;
anti-3-O-Acetyl-N-benzyl-5-cyano-5-deoxy-5-(hydroxyamino)-1,2-O-isopropylidene
-\a-D-gluco-1,4-pentofuranoside
;
_chemical_melting_point 409
_cell_volume   1838.380
_exptl_crystal_colour 'colorless'
_exptl_crystal_density_diffrn 1.309
_diffrn_ambient_temperature 173
#These two values have been output from a single CSD field.
_refine_ls_R_factor_gt 0.0505
_refine_ls_wR_factor_gt 0.0505
_symmetry_cell_setting orthorhombic
_symmetry_space_group_name_H-M 'P 21 21 21'
_symmetry_Int_Tables_number 19
loop_
_symmetry_equiv_pos_site_id
_symmetry_equiv_pos_as_xyz
1 x,y,z
2 1/2-x,-y,1/2+z
3 1/2+x,1/2-y,-z
4 -x,1/2+y,1/2-z
_cell_length_a 8.202(2)
_cell_length_b 13.692(3)
_cell_length_c 16.370(3)
_cell_angle_alpha 90
_cell_angle_beta 90
_cell_angle_gamma 90
_cell_formula_units_Z 4
loop_
_atom_type_symbol
_atom_type_radius_bond
C 0.68
H 0.23
N 0.68
O 0.68
loop_
_atom_site_label
_atom_site_type_symbol
_atom_site_fract_x
_atom_site_fract_y
_atom_site_fract_z
O1 O 0.0441(3) 0.4854(2) 0.52630(14)
O2 O -0.4286(3) 0.3765(2) 0.4775(2)
H1 H -0.4120(49) 0.3279(10) 0.5077(18)
O3 O 0.1147(3) 0.3449(2) 0.28905(14)
O4 O 0.1775(4) 0.3939(2) 0.6175(2)
O5 O -0.0170(3) 0.4737(2) 0.35271(14)
O6 O 0.1469(4) 0.2683(2) 0.41027(15)
N1 N -0.3385(4) 0.4599(2) 0.5086(2)
C1 C -0.3861(5) 0.6197(3) 0.5760(2)
C2 C -0.2462(5) 0.4974(3) 0.4385(2)
H2 H -0.1931(5) 0.5601(3) 0.4550(2)
C3 C -0.4621(5) 0.5306(3) 0.5374(2)
H3 H -0.5339(5) 0.4983(3) 0.5778(2)
H4 H -0.5305(5) 0.5512(3) 0.4907(2)
C4 C -0.3531(5) 0.5172(3) 0.3664(2)
C5 C 0.0084(4) 0.3990(2) 0.4797(2)
H5 H -0.0313(4) 0.3443(2) 0.5150(2)
C6 C -0.2991(5) 0.6124(3) 0.6482(3)
H6 H -0.2852(5) 0.5501(3) 0.6729(3)
C7 C -0.1140(4) 0.4260(3) 0.4141(2)
H7 H -0.1643(4) 0.3655(3) 0.3909(2)
C8 C 0.1760(5) 0.2563(3) 0.3238(2)
C9 C -0.4033(6) 0.7109(3) 0.5401(3)
H8 H -0.4606(6) 0.7173(3) 0.4900(3)
C10 C 0.1307(5) 0.4220(3) 0.3462(2)
H9 H 0.2238(5) 0.4661(3) 0.3323(2)
C11 C -0.3369(7) 0.7930(3) 0.5772(3)
H10 H -0.3514(7) 0.8555(3) 0.5531(3)
N2 N -0.4410(5) 0.5291(3) 0.3130(2)
C12 C 0.1316(5) 0.4729(3) 0.5959(2)
C13 C -0.2506(6) 0.7843(3) 0.6487(3)
H11 H -0.2034(6) 0.8404(3) 0.6734(3)
C14 C 0.0770(6) 0.1725(3) 0.2936(3)
H12 H 0.1185(6) 0.1117(3) 0.3173(3)
H13 H 0.0843(6) 0.1692(3) 0.2339(3)
H14 H -0.0371(6) 0.1816(3) 0.3097(3)
C15 C 0.1571(5) 0.3697(3) 0.4294(2)
H15 H 0.2624(5) 0.3879(3) 0.4561(2)
C16 C 0.3565(5) 0.2475(3) 0.3076(3)
H16 H 0.3973(5) 0.1867(3) 0.3317(3)
H17 H 0.4134(5) 0.3032(3) 0.3322(3)
H18 H 0.3759(5) 0.2469(3) 0.2486(3)
C17 C -0.2325(5) 0.6935(3) 0.6848(3)
H19 H -0.1743(5) 0.6872(3) 0.7347(3)
C18 C 0.1561(6) 0.5658(4) 0.6407(3)
H20 H 0.1070(6) 0.6195(4) 0.6097(3)
H21 H 0.2731(6) 0.5779(4) 0.6474(3)
H22 H 0.1044(6) 0.5614(4) 0.6945(3)
#END
