
#######################################################################
#
#                 Cambridge Crystallographic Data Centre
#                                CCDC
#
#######################################################################
#
# If this CIF has been generated from an entry in the Cambridge
# Structural Database, then it will include bibliographic, chemical,
# crystal, experimental, refinement or atomic coordinate data resulting
# from the CCDC's data processing and validation procedures.
#
#######################################################################

data_CSD_CIF_TOCGOH
_audit_creation_date 1997-04-16
_audit_creation_method CSD-ConQuest-V1
_database_code_CSD TOCGOH
_chemical_formula_sum 'C19 H27 N3 O4'
_chemical_formula_moiety
;
C19 H27 N3 O4
;
_journal_coden_Cambridge 35
_journal_volume 61
_journal_year 1996
_journal_page_first 9028
_journal_name_full 'J.Org.Chem. '
loop_
_publ_author_name
"P.Merino"
"A.Lanaspa"
"F.L.Merchan"
"T.Tejero"
_chemical_name_systematic
;
syn-1,1-Dimethylethyl 
(R-(R))-4-(1-(N-benzylhydroxyamino)cyanomethyl)-2,2-dimethyl-3-oxazolidinecarb
oxylate
;
_chemical_melting_point 427
_cell_volume   1993.700
_exptl_crystal_colour 'colorless'
_exptl_crystal_density_diffrn 1.204
_diffrn_ambient_temperature 175
#These two values have been output from a single CSD field.
_refine_ls_R_factor_gt 0.0524
_refine_ls_wR_factor_gt 0.0524
_symmetry_cell_setting orthorhombic
_symmetry_space_group_name_H-M 'P 21 21 21'
_symmetry_Int_Tables_number 19
loop_
_symmetry_equiv_pos_site_id
_symmetry_equiv_pos_as_xyz
1 x,y,z
2 1/2-x,-y,1/2+z
3 1/2+x,1/2-y,-z
4 -x,1/2+y,1/2-z
_cell_length_a 8.988(3)
_cell_length_b 11.605(4)
_cell_length_c 19.114(8)
_cell_angle_alpha 90
_cell_angle_beta 90
_cell_angle_gamma 90
_cell_formula_units_Z 4
loop_
_atom_type_symbol
_atom_type_radius_bond
C 0.68
H 0.23
N 0.68
O 0.68
loop_
_atom_site_label
_atom_site_type_symbol
_atom_site_fract_x
_atom_site_fract_y
_atom_site_fract_z
O1 O 0.0233(3) 0.1720(2) 0.89501(10)
O2 O -0.1814(2) 0.0769(2) 0.93413(10)
N1 N 0.0135(3) -0.0181(2) 0.88366(12)
O3 O 0.1650(3) -0.1424(2) 0.82589(11)
N2 N -0.0743(3) -0.1203(2) 1.01856(11)
O4 O -0.2346(2) -0.1152(2) 1.01466(11)
H1 H -0.2607(3) -0.0499(11) 1.0002(19)
C1 C 0.1485(4) -0.0206(2) 0.83726(15)
C2 C -0.0652(3) -0.0813(3) 1.14494(13)
C3 C -0.0593(4) 0.0779(2) 0.90687(13)
C4 C -0.0923(4) -0.3071(3) 0.9588(2)
C5 C -0.0224(4) -0.1906(2) 0.96010(14)
H2 H 0.0877(4) -0.2005(2) 0.96468(14)
N3 N -0.1521(4) -0.3945(2) 0.9569(2)
C6 C -0.0216(4) 0.0323(3) 1.1363(2)
H3 H 0.0222(4) 0.0558(3) 1.0934(2)
C7 C -0.0392(4) -0.1689(3) 1.08775(14)
H4 H 0.0662(4) -0.1939(3) 1.08863(14)
H5 H -0.1022(4) -0.2374(3) 1.09628(14)
C8 C -0.0311(4) 0.2891(2) 0.91467(14)
C9 C -0.0548(4) -0.1315(2) 0.88900(13)
H6 H -0.1645(4) -0.1264(2) 0.88073(13)
C10 C -0.1059(4) 0.0788(3) 1.2527(2)
H7 H -0.1193(4) 0.1332(3) 1.2893(2)
C11 C -0.1735(4) 0.3149(3) 0.8761(2)
H8 H -0.2526(4) 0.2640(3) 0.8932(2)
H9 H -0.1587(4) 0.3022(3) 0.8259(2)
H10 H -0.2019(4) 0.3953(3) 0.8842(2)
C12 C 0.1201(5) 0.0411(3) 0.7675(2)
H11 H 0.1091(5) 0.1240(3) 0.7759(2)
H12 H 0.0290(5) 0.0109(3) 0.7462(2)
H13 H 0.2043(5) 0.0278(3) 0.7360(2)
C13 C -0.1504(4) -0.0331(3) 1.2618(2)
H14 H -0.1950(4) -0.0560(3) 1.3047(2)
C14 C 0.0216(4) -0.1940(3) 0.8282(2)
H15 H 0.0289(4) -0.2778(3) 0.8374(2)
H16 H -0.0328(4) -0.1817(3) 0.7838(2)
C15 C -0.1306(4) -0.1138(3) 1.20830(15)
H17 H -0.1619(4) -0.1912(3) 1.21502(15)
C16 C 0.2875(4) 0.0206(3) 0.8734(2)
H18 H 0.2801(4) 0.1036(3) 0.8821(2)
H19 H 0.3740(4) 0.0049(3) 0.8437(2)
H20 H 0.2988(4) -0.0200(3) 0.9181(2)
C17 C -0.0465(5) 0.2953(3) 0.9939(2)
H21 H 0.0495(5) 0.2777(3) 1.0157(2)
H22 H -0.1209(5) 0.2392(3) 1.0095(2)
H23 H -0.0780(5) 0.3730(3) 1.0075(2)
C18 C -0.0411(4) 0.1128(3) 1.1900(2)
H24 H -0.0102(4) 0.1904(3) 1.1835(2)
C19 C 0.0945(4) 0.3659(3) 0.8901(2)
H25 H 0.1853(4) 0.3470(3) 0.9161(2)
H26 H 0.0682(4) 0.4467(3) 0.8983(2)
H27 H 0.1115(4) 0.3536(3) 0.8400(2)
#END
