
#######################################################################
#
#                 Cambridge Crystallographic Data Centre
#                                CCDC
#
#######################################################################
#
# If this CIF has been generated from an entry in the Cambridge
# Structural Database, then it will include bibliographic, chemical,
# crystal, experimental, refinement or atomic coordinate data resulting
# from the CCDC's data processing and validation procedures.
#
#######################################################################

data_CSD_CIF_TOCNEG
_audit_creation_date 2014-02-21
_audit_creation_method CSD-ConQuest-V1
_database_code_CSD TOCNEG
_database_code_depnum_ccdc_archive 'CCDC 961461'
_chemical_formula_sum 'C35 H35 N5 O4'
_chemical_formula_moiety
;
C35 H35 N5 O4
;
_journal_coden_Cambridge 91
_journal_volume 139
_journal_year 2014
_journal_page_first 1628
_journal_name_full 'The Analyst '
loop_
_publ_author_name
"S.Pal"
"B.Sen"
"M.Mukherjee"
"K.Dhara"
"Ennio Zangrando"
"S.K.Mandal"
"A.R.Khuda-Bukhsh"
"P.Chattopadhyay"
_chemical_name_systematic
;
3',6'-bis(diethylamino)-2-((4-nitrobenzylidene)amino)spiro[isoindole-1,9'-xant
hen]-3(2H)-one
;
_cell_volume   3070.308
_exptl_crystal_density_diffrn 1.276
_diffrn_ambient_temperature 293
#These two values have been output from a single CSD field.
_refine_ls_R_factor_gt 0.061
_refine_ls_wR_factor_gt 0.061
_symmetry_cell_setting orthorhombic
_symmetry_space_group_name_H-M 'P n a 21'
_symmetry_Int_Tables_number 33
loop_
_symmetry_equiv_pos_site_id
_symmetry_equiv_pos_as_xyz
1 x,y,z
2 -x,-y,1/2+z
3 1/2-x,1/2+y,1/2+z
4 1/2+x,1/2-y,z
_cell_length_a 9.1305(6)
_cell_length_b 16.6442(12)
_cell_length_c 20.2034(13)
_cell_angle_alpha 90
_cell_angle_beta 90
_cell_angle_gamma 90
_cell_formula_units_Z 4
loop_
_atom_type_symbol
_atom_type_radius_bond
C 0.68
H 0.23
N 0.68
O 0.68
loop_
_atom_site_label
_atom_site_type_symbol
_atom_site_fract_x
_atom_site_fract_y
_atom_site_fract_z
O1 O 0.4226(5) 0.6645(3) 0.4187(2)
O2 O 0.2082(5) 0.4560(3) 0.67020(19)
O3 O -0.4916(7) 0.5339(4) 0.2942(3)
O4 O -0.4697(6) 0.6540(4) 0.2549(3)
N1 N 0.2925(6) 0.5917(3) 0.4968(2)
N2 N 0.1562(6) 0.5818(3) 0.4682(3)
N3 N 0.2873(8) 0.2078(4) 0.5619(3)
N4 N -0.0466(6) 0.6723(3) 0.7701(3)
N5 N -0.4256(8) 0.5971(5) 0.2882(3)
C1 C 0.4145(8) 0.6297(4) 0.4713(4)
C2 C 0.5302(8) 0.6194(4) 0.5214(3)
C3 C 0.6761(9) 0.6436(4) 0.5198(4)
H1 H 0.71100 0.67340 0.48410
C4 C 0.7675(8) 0.6236(5) 0.5702(5)
H2 H 0.86580 0.63820 0.56890
C5 C 0.7118(9) 0.5812(4) 0.6233(4)
H3 H 0.77400 0.56930 0.65840
C6 C 0.5663(8) 0.5555(4) 0.6267(3)
H4 H 0.53080 0.52690 0.66280
C7 C 0.4776(7) 0.5750(4) 0.5732(4)
C8 C 0.3171(6) 0.5518(4) 0.5622(3)
C9 C 0.2158(6) 0.5837(4) 0.6140(3)
C10 C 0.1683(7) 0.6622(4) 0.6149(3)
H5 H 0.19670 0.69610 0.58060
C11 C 0.0805(7) 0.6924(4) 0.6643(3)
H6 H 0.04890 0.74550 0.66220
C12 C 0.0385(7) 0.6440(4) 0.7176(4)
C13 C 0.0867(7) 0.5644(4) 0.7188(3)
H7 H 0.06310 0.53070 0.75400
C14 C 0.1707(7) 0.5371(4) 0.6662(3)
C15 C 0.2541(7) 0.4184(4) 0.6120(3)
C16 C 0.2477(7) 0.3357(4) 0.6138(4)
H8 H 0.21140 0.31010 0.65120
C17 C 0.2948(8) 0.2905(4) 0.5605(4)
C18 C 0.3438(8) 0.3329(4) 0.5052(4)
H9 H 0.37280 0.30450 0.46780
C19 C 0.3504(7) 0.4151(4) 0.5043(3)
H10 H 0.38680 0.44100 0.46700
C20 C 0.3038(6) 0.4604(4) 0.5579(3)
C21 C -0.1311(7) 0.7467(4) 0.7642(4)
H11 H -0.22330 0.74000 0.78740
H12 H -0.15340 0.75580 0.71780
C22 C -0.0559(10) 0.8188(4) 0.7908(5)
H13 H -0.11720 0.86510 0.78490
H14 H 0.03480 0.82670 0.76760
H15 H -0.03640 0.81130 0.83710
C23 C -0.0722(10) 0.6249(5) 0.8292(4)
H16 H -0.09210 0.66110 0.86570
H17 H 0.01660 0.59560 0.83970
C24 C -0.1973(11) 0.5656(6) 0.8237(4)
H18 H -0.20720 0.53690 0.86470
H19 H -0.17760 0.52830 0.78860
H20 H -0.28650 0.59400 0.81450
C25 C 0.3791(16) 0.1587(5) 0.5092(4)
H21 H 0.46230 0.18860 0.49240
H22 H 0.41080 0.10680 0.52580
C26 C 0.2626(12) 0.1523(6) 0.4618(8)
H23 H 0.29610 0.12270 0.42400
H24 H 0.23260 0.20510 0.44830
H25 H 0.18110 0.12480 0.48150
C27 C 0.2179(10) 0.1645(4) 0.6167(4)
H26 H 0.17680 0.11470 0.60010
H27 H 0.13790 0.19670 0.63390
C28 C 0.3215(9) 0.1459(4) 0.6717(4)
H28 H 0.26990 0.11890 0.70660
H29 H 0.36300 0.19490 0.68830
H30 H 0.39840 0.11180 0.65550
C29 C 0.1207(8) 0.6269(4) 0.4200(3)
H31 H 0.18570 0.66600 0.40520
C30 C -0.0203(7) 0.6179(4) 0.3879(3)
C31 C -0.0625(8) 0.6748(4) 0.3411(3)
H32 H -0.00040 0.71720 0.33070
C32 C -0.1972(9) 0.6681(4) 0.3101(3)
H33 H -0.22700 0.70710 0.28000
C33 C -0.2855(9) 0.6049(5) 0.3236(3)
C34 C -0.2461(8) 0.5480(4) 0.3694(4)
H34 H -0.30850 0.50520 0.37830
C35 C -0.1130(8) 0.5541(4) 0.4026(3)
H35 H -0.08650 0.51610 0.43410
#END
