
#######################################################################
#
#                 Cambridge Crystallographic Data Centre
#                                CCDC
#
#######################################################################
#
# If this CIF has been generated from an entry in the Cambridge
# Structural Database, then it will include bibliographic, chemical,
# crystal, experimental, refinement or atomic coordinate data resulting
# from the CCDC's data processing and validation procedures.
#
#######################################################################

data_CSD_CIF_TOCTEM
_audit_creation_date 2014-02-21
_audit_creation_method CSD-ConQuest-V1
_database_code_CSD TOCTEM
_database_code_depnum_ccdc_archive 'CCDC 961658'
_chemical_formula_sum 'C20 H23 N1 O1'
_chemical_formula_moiety
;
C20 H23 N1 O1
;
_journal_coden_Cambridge 179
_journal_volume 53
_journal_year 2014
_journal_page_first 1959
_journal_name_full 'Angew.Chem.,Int.Ed. '
loop_
_publ_author_name
"X.Peng"
"B.M.K.Tong"
"H.Hirao"
"S.Chiba"
_chemical_name_systematic
;
2-Benzyl-4,4-dimethyl-5-(2-methylphenyl)-3,4-dihydro-2H-pyrrole 1-oxide
;
_cell_volume   1604.192
_exptl_crystal_colour 'colorless'
_exptl_crystal_density_diffrn 1.215
_exptl_crystal_description 'block'
_diffrn_ambient_temperature 103
#These two values have been output from a single CSD field.
_refine_ls_R_factor_gt 0.0487
_refine_ls_wR_factor_gt 0.0487
_symmetry_cell_setting monoclinic
_symmetry_space_group_name_H-M 'P 21/n'
_symmetry_Int_Tables_number 14
loop_
_symmetry_equiv_pos_site_id
_symmetry_equiv_pos_as_xyz
1 x,y,z
2 1/2-x,1/2+y,1/2-z
3 -x,-y,-z
4 -1/2+x,-1/2-y,-1/2+z
_cell_length_a 11.7175(16)
_cell_length_b 6.8808(8)
_cell_length_c 20.226(3)
_cell_angle_alpha 90
_cell_angle_beta 100.352(4)
_cell_angle_gamma 90
_cell_formula_units_Z 4
loop_
_atom_type_symbol
_atom_type_radius_bond
C 0.68
H 0.23
N 0.68
O 0.68
loop_
_atom_site_label
_atom_site_type_symbol
_atom_site_fract_x
_atom_site_fract_y
_atom_site_fract_z
C1 C 0.31340(13) 0.4888(2) 0.12962(7)
C2 C 0.35622(14) 0.6952(2) 0.12748(8)
C3 C 0.41979(14) 0.7297(2) 0.20054(8)
H1 H 0.50280 0.75800 0.20120
H2 H 0.38500 0.84130 0.22060
C4 C 0.40690(13) 0.5437(2) 0.24030(7)
H3 H 0.36270 0.57340 0.27700
C5 C 0.24531(14) 0.3796(2) 0.07294(7)
C6 C 0.12690(14) 0.3450(2) 0.06989(8)
C7 C 0.06333(14) 0.4146(3) 0.12353(8)
H4 H 0.11930 0.44590 0.16420
H5 H 0.01080 0.31230 0.13360
H6 H 0.01830 0.53090 0.10780
C8 C 0.06745(16) 0.2427(2) 0.01469(9)
H7 H -0.01300 0.21750 0.01180
C9 C 0.12300(18) 0.1770(3) -0.03603(9)
H8 H 0.08070 0.10750 -0.07310
C10 C 0.23919(18) 0.2124(3) -0.03281(9)
H9 H 0.27730 0.16800 -0.06760
C11 C 0.30062(16) 0.3131(2) 0.02138(8)
H10 H 0.38100 0.33720 0.02360
C12 C 0.25201(16) 0.8311(2) 0.10908(9)
H11 H 0.21060 0.79990 0.06380
H12 H 0.27900 0.96600 0.11020
H13 H 0.19970 0.81430 0.14140
C13 C 0.43833(17) 0.7207(3) 0.07679(9)
H14 H 0.50500 0.63340 0.08870
H15 H 0.46550 0.85550 0.07780
H16 H 0.39690 0.68930 0.03150
C14 C 0.51988(13) 0.4368(2) 0.26992(7)
H17 H 0.56440 0.51730 0.30620
H18 H 0.50010 0.31330 0.29030
C15 C 0.59575(13) 0.3928(2) 0.21879(7)
C16 C 0.56536(13) 0.2476(2) 0.17038(8)
H19 H 0.49820 0.17060 0.17090
C17 C 0.63264(14) 0.2153(2) 0.12162(8)
H20 H 0.61060 0.11790 0.08850
C18 C 0.73194(15) 0.3243(3) 0.12091(8)
H21 H 0.77760 0.30200 0.08730
C19 C 0.76418(14) 0.4653(3) 0.16920(8)
H22 H 0.83290 0.53870 0.16930
C20 C 0.69624(14) 0.5000(2) 0.21773(8)
H23 H 0.71870 0.59810 0.25050
N1 N 0.33608(11) 0.41517(18) 0.18978(6)
O1 O 0.30701(9) 0.24496(15) 0.20868(5)
#END
