
#######################################################################
#
#                 Cambridge Crystallographic Data Centre
#                                CCDC
#
#######################################################################
#
# If this CIF has been generated from an entry in the Cambridge
# Structural Database, then it will include bibliographic, chemical,
# crystal, experimental, refinement or atomic coordinate data resulting
# from the CCDC's data processing and validation procedures.
#
#######################################################################

data_CSD_CIF_TODCEW
_audit_creation_date 2014-02-21
_audit_creation_method CSD-ConQuest-V1
_database_code_CSD TODCEW
_database_code_depnum_ccdc_archive 'CCDC 987296'
_chemical_formula_sum 'C8 H3 N3 O2'
_chemical_formula_moiety
;
C8 H3 N3 O2
;
_journal_coeditor_code "wm5005"
_journal_coden_Cambridge 1370
_journal_volume 70
_journal_year 2014
_journal_page_first o323
_journal_name_full 'Acta Crystallogr.,Sect.E:Struct.Rep.Online '
loop_
_publ_author_name
"C.Y.Jan"
"N.B.H.Shamsudin"
"A.L.Tan"
"D.J.Young"
"S.W.Ng"
"E.R.T.Tiekink"
_chemical_name_systematic
;
4-Nitrophthalonitrile
;
_cell_volume   1569.291
_exptl_crystal_colour 'colorless'
_exptl_crystal_density_diffrn 1.466
_exptl_crystal_description 'prism'
_diffrn_ambient_temperature 100
#These two values have been output from a single CSD field.
_refine_ls_R_factor_gt 0.0298
_refine_ls_wR_factor_gt 0.0298
_symmetry_cell_setting orthorhombic
_symmetry_space_group_name_H-M 'P b c a'
_symmetry_Int_Tables_number 61
loop_
_symmetry_equiv_pos_site_id
_symmetry_equiv_pos_as_xyz
1 x,y,z
2 1/2-x,-y,1/2+z
3 -x,1/2+y,1/2-z
4 1/2+x,1/2-y,-z
5 -x,-y,-z
6 -1/2+x,y,-1/2-z
7 x,-1/2-y,-1/2+z
8 -1/2-x,-1/2+y,z
_cell_length_a 12.8642(3)
_cell_length_b 9.2013(2)
_cell_length_c 13.2578(3)
_cell_angle_alpha 90
_cell_angle_beta 90
_cell_angle_gamma 90
_cell_formula_units_Z 8
loop_
_atom_type_symbol
_atom_type_radius_bond
C 0.68
H 0.23
N 0.68
O 0.68
loop_
_atom_site_label
_atom_site_type_symbol
_atom_site_fract_x
_atom_site_fract_y
_atom_site_fract_z
O1 O 0.55783(6) 0.56540(8) 0.23140(6)
O2 O 0.41285(6) 0.62811(9) 0.16017(6)
N1 N 0.46305(7) 0.56035(9) 0.22296(6)
N2 N 0.49465(7) 0.20831(10) 0.59515(7)
N3 N 0.20184(7) 0.1085(1) 0.54001(7)
C1 C 0.40488(7) 0.4661(1) 0.29308(7)
C2 C 0.30038(8) 0.44112(11) 0.27448(7)
C3 C 0.24639(7) 0.34933(11) 0.33907(7)
C4 C 0.29752(7) 0.28688(10) 0.42094(7)
C5 C 0.40307(7) 0.31687(10) 0.43884(7)
C6 C 0.45807(7) 0.40675(10) 0.37365(7)
C7 C 0.45469(7) 0.25464(10) 0.52497(7)
C8 C 0.24319(7) 0.1889(1) 0.48760(7)
H1 H 0.2670(11) 0.4827(16) 0.2163(10)
H2 H 0.1745(11) 0.3317(13) 0.3282(9)
H3 H 0.5294(10) 0.4254(13) 0.3839(9)
#END
