
#######################################################################
#
#                 Cambridge Crystallographic Data Centre
#                                CCDC
#
#######################################################################
#
# If this CIF has been generated from an entry in the Cambridge
# Structural Database, then it will include bibliographic, chemical,
# crystal, experimental, refinement or atomic coordinate data resulting
# from the CCDC's data processing and validation procedures.
#
#######################################################################

data_CSD_CIF_TOGWIX
_audit_creation_date 2014-07-18
_audit_creation_method CSD-ConQuest-V1
_database_code_CSD TOGWIX
_database_code_depnum_ccdc_archive 'CCDC 1014727'
_chemical_formula_sum 'C14 H16 N2 O5'
_chemical_formula_moiety
;
C14 H16 N2 O5
;
_journal_coden_Cambridge 1078
_journal_year 2014
_journal_name_full 'CSD Communication(Private Communication) '
loop_
_publ_author_name
"J.Gabriel Garcia"
"F.R.Fronczek"
_chemical_name_systematic
;
6,6-dimethyl-1,3-dinitro-7,8,9,10-tetrahydrobenzo[8]annulen-5(6H)-one
;
_chemical_melting_point 361
_cell_volume   2779.013
_exptl_crystal_colour 'pale yellow'
_exptl_crystal_density_diffrn 1.397
_exptl_special_details
;
Melting point range 361-362K

;
_exptl_crystal_description 'plate'
_exptl_crystal_preparation 'Re-crystallisation from solvent'
_diffrn_ambient_temperature 294
_refine_special_details
;
O4,O5 and O4A,O5A disordered over two sites with occupancies 0.815:0.185.

;
#These two values have been output from a single CSD field.
_refine_ls_R_factor_gt 0.0575
_refine_ls_wR_factor_gt 0.0575
_symmetry_cell_setting orthorhombic
_symmetry_space_group_name_H-M 'P b c a'
_symmetry_Int_Tables_number 61
loop_
_symmetry_equiv_pos_site_id
_symmetry_equiv_pos_as_xyz
1 x,y,z
2 1/2-x,-y,1/2+z
3 1/2+x,1/2-y,-z
4 -x,1/2+y,1/2-z
5 -x,-y,-z
6 -1/2+x,y,-1/2-z
7 -1/2-x,-1/2+y,z
8 x,-1/2-y,-1/2+z
_cell_length_a 7.1271(5)
_cell_length_b 19.5631(9)
_cell_length_c 19.9315(13)
_cell_angle_alpha 90
_cell_angle_beta 90
_cell_angle_gamma 90
_cell_formula_units_Z 8
loop_
_atom_type_symbol
_atom_type_radius_bond
C 0.68
H 0.23
N 0.68
O 0.68
loop_
_atom_site_label
_atom_site_type_symbol
_atom_site_fract_x
_atom_site_fract_y
_atom_site_fract_z
O1 O 0.6448(3) 0.87108(8) 0.65316(12)
O2 O 0.7683(2) 0.78482(9) 0.70241(11)
O3 O 0.2428(2) 0.58804(7) 0.74323(7)
O4 O 0.0632(4) 0.85683(14) 0.5500(3)
O5 O -0.0936(6) 0.76508(13) 0.5375(2)
N1 N 0.6426(3) 0.81176(8) 0.67123(9)
N2 N 0.0397(2) 0.79599(8) 0.55945(9)
C1 C 0.4778(2) 0.77018(9) 0.65328(9)
C2 C 0.4701(2) 0.70247(8) 0.67328(9)
H1 H 0.56900 0.68280 0.69680
C3 C 0.3116(2) 0.66474(8) 0.65749(8)
C4 C 0.2980(2) 0.59288(8) 0.68621(8)
C5 C 0.3561(2) 0.53048(8) 0.64494(9)
C6 C 0.2079(3) 0.51428(9) 0.59016(10)
H2 H 0.24350 0.47150 0.56910
H3 H 0.08890 0.50660 0.61250
C7 C 0.1748(3) 0.56654(9) 0.53433(9)
H4 H 0.28350 0.59630 0.53170
H5 H 0.16550 0.54230 0.49200
C8 C 0.0003(3) 0.6108(1) 0.54274(10)
H6 H -0.10980 0.58200 0.53820
H7 H -0.00300 0.64420 0.50670
C9 C -0.0108(2) 0.64859(9) 0.60983(10)
H8 H -0.12230 0.67700 0.61030
H9 H -0.02210 0.61550 0.64580
C10 C 0.1593(2) 0.69277(8) 0.62221(8)
C11 C 0.1813(2) 0.76081(8) 0.60144(8)
C12 C 0.3363(3) 0.80002(8) 0.61702(9)
H10 H 0.34450 0.84540 0.60330
C13 C 0.3701(3) 0.46879(9) 0.69225(11)
H11 H 0.45130 0.47980 0.72910
H12 H 0.42010 0.43040 0.66820
H13 H 0.24750 0.45760 0.70900
C14 C 0.5478(3) 0.54314(10) 0.6122(1)
H14 H 0.54100 0.58290 0.58410
H15 H 0.58200 0.50420 0.58550
H16 H 0.64050 0.55020 0.64650
O6? O 0.0884(13) 0.8302(6) 0.5142(5)
O7? O -0.1196(14) 0.7797(7) 0.5613(6)
#END
