
#######################################################################
#
#                 Cambridge Crystallographic Data Centre
#                                CCDC
#
#######################################################################
#
# If this CIF has been generated from an entry in the Cambridge
# Structural Database, then it will include bibliographic, chemical,
# crystal, experimental, refinement or atomic coordinate data resulting
# from the CCDC's data processing and validation procedures.
#
#######################################################################

data_CSD_CIF_TOGZAS
_audit_creation_date 2014-07-18
_audit_creation_method CSD-ConQuest-V1
_database_code_CSD TOGZAS
_database_code_depnum_ccdc_archive 'CCDC 964466'
_chemical_formula_sum 'C19 H18 N4 O4'
_chemical_formula_moiety
;
C19 H18 N4 O4
;
_journal_coden_Cambridge 1291
_journal_year 2014
_journal_page_first 5281
_journal_name_full 'Eur.J.Org.Chem. '
loop_
_publ_author_name
"Shunsuke Sueki"
"Ryo Takei"
"Y.Zaitsu"
"Junya Abe"
"A.Fukuda"
"K.Seto"
"Y.Furukawa"
"Isao Shimizu"
_chemical_name_systematic
;
4-(3,5-Dinitro-4-phenylpyridin-1(4H)-yl)-N,N-dimethylaniline
;
_cell_volume   1751.110
_exptl_crystal_colour 'black'
_exptl_crystal_density_diffrn 1.39
_exptl_crystal_description 'platelet'
_diffrn_ambient_temperature 173
#These two values have been output from a single CSD field.
_refine_ls_R_factor_gt 0.0428
_refine_ls_wR_factor_gt 0.0428
_symmetry_cell_setting orthorhombic
_symmetry_space_group_name_H-M 'P n a 21'
_symmetry_Int_Tables_number 33
loop_
_symmetry_equiv_pos_site_id
_symmetry_equiv_pos_as_xyz
1 x,y,z
2 1/2-x,1/2+y,1/2+z
3 1/2+x,1/2-y,z
4 -x,-y,1/2+z
_cell_length_a 13.4337(3)
_cell_length_b 22.6936(5)
_cell_length_c 5.7440(1)
_cell_angle_alpha 90
_cell_angle_beta 90
_cell_angle_gamma 90
_cell_formula_units_Z 4
loop_
_atom_type_symbol
_atom_type_radius_bond
C 0.68
H 0.23
N 0.68
O 0.68
loop_
_atom_site_label
_atom_site_type_symbol
_atom_site_fract_x
_atom_site_fract_y
_atom_site_fract_z
O1 O 0.73216(10) 0.24596(6) 0.9349(4)
O2 O 0.81105(11) 0.30662(6) 1.1620(4)
O3 O 1.13927(10) 0.38465(7) 0.8885(4)
O4 O 1.19338(11) 0.35474(7) 0.5523(4)
N1 N 0.96807(12) 0.23769(7) 0.4951(4)
N2 N 0.80461(13) 0.27759(7) 0.9799(4)
N3 N 1.13112(12) 0.35456(7) 0.7108(4)
N4 N 0.98100(14) 0.06741(9) -0.2210(5)
C1 C 0.88414(15) 0.16906(8) 0.2269(5)
C2 C 0.91812(15) 0.39084(9) 0.8397(5)
C3 C 0.97145(15) 0.19367(9) 0.3140(5)
C4 C 0.97751(16) 0.10934(9) -0.0477(5)
C5 C 1.04361(14) 0.27791(8) 0.5208(5)
C6 C 1.04399(14) 0.31825(8) 0.6921(5)
C7 C 0.89102(15) 0.24027(9) 0.6527(5)
C8 C 0.88720(15) 0.12779(9) 0.0518(5)
C9 C 0.92994(17) 0.43234(9) 1.0138(5)
C10 C 1.06456(16) 0.13448(9) 0.0433(5)
C11 C 0.88693(14) 0.28107(9) 0.8200(5)
C12 C 1.0728(2) 0.05690(11) -0.3449(6)
C13 C 0.86783(17) 0.40626(10) 0.6370(5)
C14 C 0.96210(14) 0.32877(8) 0.8662(5)
C15 C 0.83008(18) 0.46272(10) 0.6108(5)
C16 C 1.06153(16) 0.17512(9) 0.2221(5)
C17 C 0.89256(18) 0.48859(11) 0.9862(6)
C18 C 0.89045(19) 0.04761(10) -0.3345(6)
C19 C 0.84218(19) 0.50387(10) 0.7838(6)
H1 H 0.82170 0.18090 0.28900
H2 H 1.09750 0.27720 0.41370
H3 H 0.83900 0.21210 0.64210
H4 H 0.82660 0.11130 -0.00340
H5 H 0.96390 0.42210 1.15300
H6 H 1.12720 0.12330 -0.01970
H7 H 1.12530 0.04650 -0.23380
H8 H 1.09200 0.09260 -0.42980
H9 H 1.06350 0.02450 -0.45530
H10 H 0.85930 0.37810 0.51630
H11 H 0.98920 0.32400 1.02720
H12 H 0.79560 0.47300 0.47220
H13 H 1.12190 0.19050 0.28280
H14 H 0.90130 0.51700 1.10610
H15 H 0.84050 0.03790 -0.21640
H16 H 0.90480 0.01260 -0.42850
H17 H 0.86490 0.07900 -0.43530
H18 H 0.81630 0.54250 0.76520
#END
