
#######################################################################
#
#                 Cambridge Crystallographic Data Centre
#                                CCDC
#
#######################################################################
#
# If this CIF has been generated from an entry in the Cambridge
# Structural Database, then it will include bibliographic, chemical,
# crystal, experimental, refinement or atomic coordinate data resulting
# from the CCDC's data processing and validation procedures.
#
#######################################################################

data_CSD_CIF_TOHWIW
_audit_creation_date 1997-04-29
_audit_creation_method CSD-ConQuest-V1
_database_code_CSD TOHWIW
_database_code_depnum_ccdc_journal 188/12
_chemical_formula_sum 'C6 H12 N2 O2'
_chemical_formula_moiety
;
C6 H12 N2 O2
;
_journal_coden_Cambridge 188
_journal_year 1996
_journal_page_first 1907
_journal_name_full 'J.Chem.Soc.,Perkin Trans.2 '
loop_
_publ_author_name
"G.V.Shustov"
"M.Parvez"
"A.Rauk"
_chemical_name_systematic
;
(2R,5R)-2,5-Dimethyl-1-nitropyrrolidine
;
_chemical_melting_point 330.15
_cell_volume    756.187
_exptl_crystal_colour 'colorless'
_exptl_crystal_density_diffrn 1.27
_exptl_special_details
;
Melting point range 330.15-331.15K

;
_diffrn_ambient_temperature 200
#These two values have been output from a single CSD field.
_refine_ls_R_factor_gt 0.022
_refine_ls_wR_factor_gt 0.022
_symmetry_cell_setting tetragonal
_symmetry_space_group_name_H-M 'P 41'
_symmetry_Int_Tables_number 76
loop_
_symmetry_equiv_pos_site_id
_symmetry_equiv_pos_as_xyz
1 x,y,z
2 -y,x,1/4+z
3 -x,-y,1/2+z
4 y,-x,3/4+z
_cell_length_a 6.434(1)
_cell_length_b 6.434(1)
_cell_length_c 18.267(3)
_cell_angle_alpha 90
_cell_angle_beta 90
_cell_angle_gamma 90
_cell_formula_units_Z 4
loop_
_atom_type_symbol
_atom_type_radius_bond
C 0.68
H 0.23
N 0.68
O 0.68
loop_
_atom_site_label
_atom_site_type_symbol
_atom_site_fract_x
_atom_site_fract_y
_atom_site_fract_z
O1 O 0.2585(5) -0.2043(5) 0.97120
O2 O 0.1263(5) 0.0953(5) 1.0067(3)
N1 N 0.3543(5) 0.0844(5) 0.9157(3)
N2 N 0.2405(6) -0.0113(6) 0.9664(3)
C1 C 0.3355(6) 0.3092(6) 0.9024(3)
C2 C 0.5276(8) 0.3420(6) 0.8551(3)
C3 C 0.5491(7) 0.1384(7) 0.8118(3)
C4 C 0.4975(7) -0.0284(6) 0.8673(3)
C5 C 0.1333(7) 0.3616(7) 0.8647(4)
C6 C 0.6863(7) -0.1117(7) 0.9082(3)
H1 H 0.34780 0.38420 0.94700
H2 H 0.50860 0.45650 0.82290
H3 H 0.64680 0.36540 0.88460
H4 H 0.45420 0.13510 0.77200
H5 H 0.68670 0.12200 0.79400
H6 H 0.42630 -0.13960 0.84400
H7 H 0.12580 0.50740 0.85680
H8 H 0.12670 0.29140 0.81900
H9 H 0.02030 0.31900 0.89460
H10 H 0.64180 -0.20530 0.94530
H11 H 0.77490 -0.18260 0.87490
H12 H 0.75960 0.00050 0.92990
#END
