
#######################################################################
#
#                 Cambridge Crystallographic Data Centre
#                                CCDC
#
#######################################################################
#
# If this CIF has been generated from an entry in the Cambridge
# Structural Database, then it will include bibliographic, chemical,
# crystal, experimental, refinement or atomic coordinate data resulting
# from the CCDC's data processing and validation procedures.
#
#######################################################################

data_CSD_CIF_TOHYUK
_audit_creation_date 1997-04-29
_audit_creation_method CSD-ConQuest-V1
_database_code_CSD TOHYUK
_chemical_formula_sum 'C8 H8 N4 O4'
_chemical_formula_moiety
;
C8 H8 N4 O4
;
_journal_coden_Cambridge 1003
_journal_volume 26
_journal_year 1996
_journal_page_first 381
_journal_name_full 'J.Chem.Cryst. '
loop_
_publ_author_name
"R.J.Butcher"
"R.D.Gilardi"
"C.George"
"J.Flippen-Anderson"
_chemical_name_systematic
;
N,N'-Dinitro-1,4-diaminocubane
;
_cell_volume    438.328
_exptl_crystal_colour 'colorless'
_exptl_crystal_density_diffrn 1.699
_exptl_special_details
;
possible pharmacological activity

;
_diffrn_ambient_temperature ?
_diffrn_special_details
;
The study was carried out at room temperature,in the range 283-303K

;
#These two values have been output from a single CSD field.
_refine_ls_R_factor_gt 0.044
_refine_ls_wR_factor_gt 0.044
_symmetry_cell_setting monoclinic
_symmetry_space_group_name_H-M 'P 21/a'
_symmetry_Int_Tables_number 14
loop_
_symmetry_equiv_pos_site_id
_symmetry_equiv_pos_as_xyz
1 x,y,z
2 1/2-x,1/2+y,-z
3 -x,-y,-z
4 -1/2+x,-1/2-y,z
_cell_length_a 6.5451(9)
_cell_length_b 9.3309(12)
_cell_length_c 7.4589(8)
_cell_angle_alpha 90
_cell_angle_beta 105.795(10)
_cell_angle_gamma 90
_cell_formula_units_Z 2
loop_
_atom_type_symbol
_atom_type_radius_bond
C 0.68
N 0.68
O 0.68
loop_
_atom_site_label
_atom_site_type_symbol
_atom_site_fract_x
_atom_site_fract_y
_atom_site_fract_z
C1 C 0.4147(4) -0.0062(2) 1.3156(3)
N1 N 0.3274(3) -0.0227(2) 1.1205(3)
N2 N 0.2492(3) 0.0909(2) 1.0163(3)
O1 O 0.1576(4) 0.0712(2) 0.8513(3)
O2 O 0.2783(3) 0.2096(2) 1.0927(3)
C2 C 0.2939(4) 0.0430(3) 1.4600(3)
C3 C 0.6100(4) 0.0872(3) 1.4145(3)
C4 C 0.5104(4) -0.1360(3) 1.4407(3)
C3B C 0.3900(4) -0.0872(3) 1.5855(3)
C1B C 0.5853(4) 0.0062(2) 1.6844(3)
N1B N 0.6726(3) 0.0227(2) 1.8795(3)
N2B N 0.7508(3) -0.0909(2) 1.9837(3)
O1B O 0.8424(4) -0.0712(2) 2.1487(3)
O2B O 0.7217(3) -0.2096(2) 1.9073(3)
C2B C 0.7061(4) -0.0430(3) 1.5400(3)
C4B C 0.4896(4) 0.1360(3) 1.5593(3)
#END
