
#######################################################################
#
#                 Cambridge Crystallographic Data Centre
#                                CCDC
#
#######################################################################
#
# If this CIF has been generated from an entry in the Cambridge
# Structural Database, then it will include bibliographic, chemical,
# crystal, experimental, refinement or atomic coordinate data resulting
# from the CCDC's data processing and validation procedures.
#
#######################################################################

data_CSD_CIF_TOJBOJ
_audit_creation_date 1997-04-28
_audit_creation_method CSD-ConQuest-V1
_database_code_CSD TOJBOJ
_database_code_depnum_ccdc_archive 'CCDC 1273423'
_chemical_formula_sum 'C15 H13 N1 O2'
_chemical_formula_moiety
;
C15 H13 N1 O2
;
_journal_coden_Cambridge 34
_journal_volume 33
_journal_year 1996
_journal_page_first 81
_journal_name_full 'J.Heterocycl.Chem. '
loop_
_publ_author_name
"P.Carloni"
"L.Greci"
"P.Stipa"
"D.Cauzzi"
"C.Rizzoli"
"P.Sgarabotto"
_chemical_name_systematic
;
1-Hydroxy-2-methyl-2-phenylindolin-3-one
;
_cell_volume   2507.631
_exptl_crystal_colour 'dark yellow'
_exptl_crystal_density_diffrn 1.27
_diffrn_ambient_temperature ?
_diffrn_special_details
;
The study was carried out at room temperature,in the range 283-303K

;
#These two values have been output from a single CSD field.
_refine_ls_R_factor_gt 0.048
_refine_ls_wR_factor_gt 0.048
_symmetry_cell_setting orthorhombic
_symmetry_space_group_name_H-M 'P b c a'
_symmetry_Int_Tables_number 61
loop_
_symmetry_equiv_pos_site_id
_symmetry_equiv_pos_as_xyz
1 x,y,z
2 1/2-x,-y,1/2+z
3 1/2+x,1/2-y,-z
4 -x,1/2+y,1/2-z
5 -x,-y,-z
6 -1/2+x,y,-1/2-z
7 -1/2-x,-1/2+y,z
8 x,-1/2-y,-1/2+z
_cell_length_a 20.952(4)
_cell_length_b 9.160(2)
_cell_length_c 13.066(3)
_cell_angle_alpha 90
_cell_angle_beta 90
_cell_angle_gamma 90
_cell_formula_units_Z 8
loop_
_atom_type_symbol
_atom_type_radius_bond
C 0.68
H 0.23
N 0.68
O 0.68
loop_
_atom_site_label
_atom_site_type_symbol
_atom_site_fract_x
_atom_site_fract_y
_atom_site_fract_z
O1 O 0.3886(1) 0.1036(2) 0.5232(1)
O2 O 0.4396(1) 0.2720(2) 0.1917(1)
N1 N 0.4005(1) 0.2154(2) 0.4510(1)
C1 C 0.4434(1) 0.1752(2) 0.3656(1)
C2 C 0.4144(1) 0.2616(2) 0.2758(1)
C3 C 0.3539(1) 0.3219(2) 0.3104(1)
C4 C 0.3072(1) 0.4030(2) 0.2591(2)
C5 C 0.2530(1) 0.4414(3) 0.3125(2)
C6 C 0.2452(1) 0.3978(3) 0.4149(2)
C7 C 0.2905(1) 0.3181(3) 0.4657(2)
C8 C 0.3464(1) 0.2821(2) 0.4129(1)
C9 C 0.4387(1) 0.0120(2) 0.3398(2)
C10 C 0.5118(1) 0.2248(2) 0.3853(1)
C11 C 0.5267(1) 0.3116(2) 0.4692(2)
C12 C 0.5893(1) 0.3608(3) 0.4840(2)
C13 C 0.6363(1) 0.3255(3) 0.4148(2)
C14 C 0.6222(1) 0.2395(3) 0.3321(2)
C15 C 0.5600(1) 0.1882(2) 0.3170(2)
H1 H 0.408(1) 0.145(3) 0.594(2)
H2 H 0.314(1) 0.430(2) 0.190(2)
H3 H 0.220(1) 0.498(3) 0.277(2)
H4 H 0.212(2) 0.406(4) 0.454(2)
H5 H 0.283(1) 0.284(3) 0.542(2)
H6 H 0.393(1) -0.013(3) 0.329(2)
H7 H 0.453(1) -0.046(3) 0.399(2)
H8 H 0.462(1) -0.004(3) 0.277(2)
H9 H 0.493(1) 0.346(3) 0.524(2)
H10 H 0.596(1) 0.420(4) 0.551(2)
H11 H 0.683(1) 0.370(3) 0.429(2)
H12 H 0.657(2) 0.219(3) 0.282(2)
H13 H 0.549(1) 0.131(3) 0.254(2)
#END
