
#######################################################################
#
#                 Cambridge Crystallographic Data Centre
#                                CCDC
#
#######################################################################
#
# If this CIF has been generated from an entry in the Cambridge
# Structural Database, then it will include bibliographic, chemical,
# crystal, experimental, refinement or atomic coordinate data resulting
# from the CCDC's data processing and validation procedures.
#
#######################################################################

data_CSD_CIF_TOKFOO
_audit_creation_date 1997-04-29
_audit_creation_method CSD-ConQuest-V1
_database_code_CSD TOKFOO
_database_code_depnum_ccdc_journal 182/212
_chemical_formula_sum 'C22 H23 N1 O1'
_chemical_formula_moiety
;
C22 H23 N1 O1
;
_journal_coden_Cambridge 182
_journal_year 1996
_journal_page_first 2269
_journal_name_full 'Chem.Commun. '
loop_
_publ_author_name
"D.R.Boyd"
"T.A.Evans"
"W.B.Jennings"
"J.F.Malone"
"W.O'Sullivan"
"A.Smith"
_chemical_name_systematic
;
1-Naphthylpropylidene(1-methyl-2-phenylethyl)nitrone
;
_cell_volume   1818.372
_exptl_crystal_density_diffrn 1.16
_diffrn_ambient_temperature ?
_diffrn_special_details
;
The study was carried out at room temperature,in the range 283-303K

;
_refine_special_details
;
The ethyl group C12 and C13 is disordered with occupancies 0.69:0.31.

;
#These two values have been output from a single CSD field.
_refine_ls_R_factor_gt 0.062
_refine_ls_wR_factor_gt 0.062
_symmetry_cell_setting orthorhombic
_symmetry_space_group_name_H-M 'P 21 21 21'
_symmetry_Int_Tables_number 19
loop_
_symmetry_equiv_pos_site_id
_symmetry_equiv_pos_as_xyz
1 x,y,z
2 1/2-x,-y,1/2+z
3 1/2+x,1/2-y,-z
4 -x,1/2+y,1/2-z
_cell_length_a 7.691(5)
_cell_length_b 14.329(9)
_cell_length_c 16.500(8)
_cell_angle_alpha 90
_cell_angle_beta 90
_cell_angle_gamma 90
_cell_formula_units_Z 4
loop_
_atom_type_symbol
_atom_type_radius_bond
C 0.68
H 0.23
N 0.68
O 0.68
loop_
_atom_site_label
_atom_site_type_symbol
_atom_site_fract_x
_atom_site_fract_y
_atom_site_fract_z
C1 C 0.2147(7) 0.1380(4) 0.1024(3)
C2 C 0.2435(8) 0.2109(4) 0.1581(4)
C3 C 0.1882(10) 0.3003(5) 0.1410(4)
C4 C 0.0991(10) 0.3178(4) 0.0683(5)
C5 C 0.0667(9) 0.2498(5) 0.0139(4)
C6 C 0.1276(7) 0.1579(4) 0.0290(3)
C7 C 0.1007(8) 0.0865(5) -0.0286(3)
C8 C 0.1605(9) -0.0019(5) -0.0134(4)
C9 C 0.2479(8) -0.0229(4) 0.0592(4)
C10 C 0.2734(7) 0.0452(4) 0.1164(3)
C11 C 0.3501(9) 0.0181(4) 0.1955(3)
C12 C 0.2291(9) -0.0215(8) 0.2603(4)
C13 C 0.11690 0.02850 0.30230
C14? C 0.21120 -0.11846 0.25510
C15 C 0.6410(8) 0.0645(4) 0.1547(4)
C16 C 0.7289(10) 0.1498(5) 0.1922(4)
C17 C 0.7728(8) -0.0119(4) 0.1324(4)
C18 C 0.6947(8) -0.0913(5) 0.0855(4)
C19 C 0.6858(10) -0.0866(5) 0.0010(5)
C20 C 0.6029(11) -0.1606(6) -0.0415(5)
C21 C 0.5370(12) -0.2336(6) 0.0018(8)
C22 C 0.5479(12) -0.2393(5) 0.0824(7)
C23 C 0.6241(10) -0.1682(5) 0.1248(5)
O1 O 0.5790(6) 0.0005(4) 0.2816(3)
N1 N 0.5144(7) 0.0262(4) 0.2126(3)
H1 H 0.30700 0.19700 0.21500
H2 H 0.21400 0.35600 0.18300
H3 H 0.05500 0.38800 0.05600
H4 H -0.00300 0.26500 -0.04100
H5 H 0.03300 0.10100 -0.08400
H6 H 0.14000 -0.05600 -0.05800
H7 H 0.29400 -0.09300 0.07000
H8 H 0.31300 -0.05400 0.30400
H9 H 0.15300 -0.07400 0.23000
H10? H 0.10200 0.01000 0.25300
H11? H 0.29100 -0.00400 0.31900
H12 H 0.04800 -0.01700 0.34400
H13 H 0.02500 0.06600 0.26200
H14 H 0.18500 0.08200 0.33600
H15? H 0.12500 -0.14200 0.30200
H16? H 0.33700 -0.15100 0.30200
H17? H 0.15800 -0.13700 0.19700
H18 H 0.57700 0.08700 0.10000
H19 H 0.82300 0.17800 0.15000
H20 H 0.79400 0.13000 0.24800
H21 H 0.63200 0.20200 0.20500
H22 H 0.82900 -0.03900 0.18700
H23 H 0.87400 0.01900 0.09600
H24 H 0.74000 -0.02800 -0.03100
H25 H 0.59300 -0.15900 -0.10700
H26 H 0.47300 -0.28900 -0.03100
H27 H 0.49700 -0.29900 0.11400
H28 H 0.63100 -0.17200 0.19000
#END
