
#######################################################################
#
#                 Cambridge Crystallographic Data Centre
#                                CCDC
#
#######################################################################
#
# If this CIF has been generated from an entry in the Cambridge
# Structural Database, then it will include bibliographic, chemical,
# crystal, experimental, refinement or atomic coordinate data resulting
# from the CCDC's data processing and validation procedures.
#
#######################################################################

data_CSD_CIF_TOLCUU
_audit_creation_date 2014-07-21
_audit_creation_method CSD-ConQuest-V1
_database_code_CSD TOLCUU
_database_code_depnum_ccdc_archive 'CCDC 916465'
_chemical_formula_sum 'C15 H15 N3 O4'
_chemical_formula_moiety
;
C15 H15 N3 O4
;
_journal_coden_Cambridge 34
_journal_volume 51
_journal_year 2014
_journal_page_first 835
_journal_name_full 'J.Heterocycl.Chem. '
loop_
_publ_author_name
"F.Bendrath"
"A.Falodun"
"Z.A.Abilov"
"A.Villinger"
"P.Langer"
_chemical_name_systematic
;
Methyl 1-(3-methyl-1-(4-nitrophenyl)-1H-pyrazol-5-yl)cyclopropanecarboxylate
;
_cell_volume    720.820
_exptl_crystal_colour 'colorless'
_exptl_crystal_density_diffrn 1.388
_exptl_crystal_description 'block'
_diffrn_ambient_temperature 173
#These two values have been output from a single CSD field.
_refine_ls_R_factor_gt 0.0407
_refine_ls_wR_factor_gt 0.0407
_symmetry_cell_setting triclinic
_symmetry_space_group_name_H-M 'P -1'
_symmetry_Int_Tables_number 2
loop_
_symmetry_equiv_pos_site_id
_symmetry_equiv_pos_as_xyz
1 x,y,z
2 -x,-y,-z
_cell_length_a 8.5148(8)
_cell_length_b 9.4180(4)
_cell_length_c 10.3767(5)
_cell_angle_alpha 112.023(2)
_cell_angle_beta 103.897(3)
_cell_angle_gamma 98.846(3)
_cell_formula_units_Z 2
loop_
_atom_type_symbol
_atom_type_radius_bond
C 0.68
H 0.23
N 0.68
O 0.68
loop_
_atom_site_label
_atom_site_type_symbol
_atom_site_fract_x
_atom_site_fract_y
_atom_site_fract_z
N1 N 0.16593(11) 0.76097(11) 0.66831(10)
N2 N 0.07043(12) 0.71068(11) 0.74071(10)
N3 N -0.18553(14) 0.79222(15) 0.14997(12)
O1 O 0.55660(11) 0.79142(10) 0.47016(10)
O2 O 0.35658(9) 0.60015(9) 0.46374(8)
O3 O -0.12486(16) 0.89786(15) 0.12045(13)
O4 O -0.32062(14) 0.69300(17) 0.07271(14)
C1 C 0.18026(14) 0.70405(13) 0.85178(12)
C2 C 0.34652(14) 0.74701(14) 0.85119(12)
H1 H 0.44620 0.75050 0.91890
C3 C 0.33482(12) 0.78257(12) 0.73319(11)
C4 C 0.08071(12) 0.77013(13) 0.53761(12)
C5 C -0.08220(13) 0.67145(14) 0.45647(13)
H2 H -0.13290 0.59970 0.48860
C6 C -0.16937(14) 0.67870(14) 0.32901(13)
H3 H -0.28050 0.61280 0.27330
C7 C -0.09227(14) 0.78321(14) 0.28410(12)
C8 C 0.06831(14) 0.88321(14) 0.36347(13)
H4 H 0.11800 0.95470 0.33060
C9 C 0.15535(13) 0.87713(13) 0.49180(12)
H5 H 0.26530 0.94540 0.54840
C10 C 0.12254(17) 0.65394(17) 0.95745(14)
H6 H 0.12420 0.74820 1.04170
H7 H 0.19770 0.59720 0.99170
H8 H 0.00790 0.58360 0.90820
C11 C 0.47110(12) 0.83679(13) 0.68223(12)
C12 C 0.64857(14) 0.91286(15) 0.79446(13)
H9 H 0.66350 0.92280 0.89540
H10 H 0.74410 0.89120 0.75880
C13 C 0.55472(14) 1.01505(13) 0.74645(13)
H11 H 0.59240 1.05670 0.68120
H12 H 0.51190 1.08820 0.81780
C14 C 0.46803(12) 0.74370(13) 0.52886(12)
C15 C 0.34224(16) 0.50476(15) 0.31282(13)
H13 H 0.32000 0.56590 0.25530
H14 H 0.24960 0.40790 0.27140
H15 H 0.44740 0.47580 0.30950
#END
