
#######################################################################
#
#                 Cambridge Crystallographic Data Centre
#                                CCDC
#
#######################################################################
#
# If this CIF has been generated from an entry in the Cambridge
# Structural Database, then it will include bibliographic, chemical,
# crystal, experimental, refinement or atomic coordinate data resulting
# from the CCDC's data processing and validation procedures.
#
#######################################################################

data_CSD_CIF_TOPPAP
_audit_creation_date 1997-05-05
_audit_creation_method CSD-ConQuest-V1
_database_code_CSD TOPPAP
_chemical_formula_sum 'C20 H34 N3 O5'
_chemical_formula_moiety
;
C20 H34 N3 O5
;
_journal_coden_Cambridge 4
_journal_volume 118
_journal_year 1996
_journal_page_first 9347
_journal_name_full 'J.Am.Chem.Soc. '
loop_
_publ_author_name
"J.Fujita"
"M.Tanaka"
"H.Suemune"
"N.Koga"
"K.Matsuda"
"H.Iwamura"
_chemical_name_systematic
;
2,4-Dimethoxy-1,4,5-benzenetriyl-tris(N-t-butyl nitroxide triradical)
;
_cell_volume   2304.864
_exptl_crystal_colour 'orange'
_exptl_crystal_density_diffrn 1.143
_diffrn_ambient_temperature ?
_diffrn_special_details
;
The study was carried out at room temperature,in the range 283-303K

;
#These two values have been output from a single CSD field.
_refine_ls_R_factor_gt 0.055
_refine_ls_wR_factor_gt 0.055
_symmetry_cell_setting orthorhombic
_symmetry_space_group_name_H-M 'P n m a'
_symmetry_Int_Tables_number 62
loop_
_symmetry_equiv_pos_site_id
_symmetry_equiv_pos_as_xyz
1 x,y,z
2 1/2-x,-y,1/2+z
3 1/2+x,1/2-y,1/2-z
4 -x,1/2+y,-z
5 -x,-y,-z
6 -1/2+x,y,-1/2-z
7 -1/2-x,-1/2+y,-1/2+z
8 x,-1/2-y,z
_cell_length_a 18.200(3)
_cell_length_b 19.018(3)
_cell_length_c 6.659(5)
_cell_angle_alpha 90
_cell_angle_beta 90
_cell_angle_gamma 90
_cell_formula_units_Z 4
loop_
_atom_type_symbol
_atom_type_radius_bond
C 0.68
H 0.23
N 0.68
O 0.68
loop_
_atom_site_label
_atom_site_type_symbol
_atom_site_fract_x
_atom_site_fract_y
_atom_site_fract_z
O1 O 0.6172(5) 0.5999(5) 0.495(1)
O2 O 0.4659(4) 0.6244(4) 0.179(1)
O3 O 0.3418(7) 0.75000 0.236(2)
N1 N 0.6122(5) 0.6224(6) 0.320(2)
N2 N 0.3949(10) 0.75000 0.110(2)
C1 C 0.6094(9) 0.75000 0.327(3)
C2 C 0.5755(7) 0.6875(7) 0.292(2)
C3 C 0.5039(7) 0.6846(6) 0.221(1)
C4 C 0.469(1) 0.75000 0.188(2)
C5 C 0.6514(7) 0.5824(7) 0.160(2)
C6 C 0.637(1) 0.612(1) -0.030(2)
C7 C 0.7276(8) 0.577(1) 0.206(3)
C8 C 0.6198(9) 0.5096(6) 0.157(3)
C9 C 0.4360(7) 0.5871(6) 0.350(2)
C10 C 0.3728(10) 0.75000 -0.111(3)
C11 C 0.443(1) 0.75000 -0.232(2)
C12 C 0.3292(7) 0.6840(6) -0.155(2)
H1 H 0.65830 0.75000 0.37740
H2 H 0.65610 0.65840 -0.03500
H3 H 0.65990 0.58420 -0.13110
H4 H 0.58550 0.61310 -0.05280
H5 H 0.74880 0.62270 0.20750
H6 H 0.75130 0.54900 0.10780
H7 H 0.73340 0.55590 0.33470
H8 H 0.64510 0.48210 0.05940
H9 H 0.62550 0.48860 0.28540
H10 H 0.56920 0.51180 0.12360
H11 H 0.47460 0.57510 0.43950
H12 H 0.41240 0.54540 0.30490
H13 H 0.40140 0.61610 0.41690
H14 H 0.35860 0.64390 -0.12740
H15 H 0.28660 0.68300 -0.07210
H16 H 0.31480 0.68360 -0.29190
H17 H 0.47020 0.70920 -0.20080
H18 H 0.43060 0.75000 -0.37120
C2G C 0.5755(7) 0.8125(7) 0.292(2)
N1G N 0.6122(5) 0.8776(6) 0.320(2)
O1G O 0.6172(5) 0.9001(5) 0.495(1)
C5G C 0.6514(7) 0.9176(7) 0.160(2)
C6G C 0.637(1) 0.888(1) -0.030(2)
H2G H 0.65610 0.84160 -0.03500
H3G H 0.65990 0.91580 -0.13110
H4G H 0.58550 0.88690 -0.05280
C7G C 0.7276(8) 0.923(1) 0.206(3)
H5G H 0.74880 0.87730 0.20750
H6G H 0.75130 0.95100 0.10780
H7G H 0.73340 0.94410 0.33470
C8G C 0.6198(9) 0.9904(6) 0.157(3)
H8G H 0.64510 1.01790 0.05940
H9G H 0.62550 1.01140 0.28540
H10G H 0.56920 0.98820 0.12360
C3G C 0.5039(7) 0.8154(6) 0.221(1)
O2G O 0.4659(4) 0.8756(4) 0.179(1)
C9G C 0.4360(7) 0.9129(6) 0.350(2)
H11G H 0.47460 0.92490 0.43950
H12G H 0.41240 0.95460 0.30490
H13G H 0.40140 0.88390 0.41690
H17G H 0.47020 0.79080 -0.20080
C12G C 0.3292(7) 0.8160(6) -0.155(2)
H14G H 0.35860 0.85610 -0.12740
H15G H 0.28660 0.81700 -0.07210
H16G H 0.31480 0.81640 -0.29190
#END
