
#######################################################################
#
#                 Cambridge Crystallographic Data Centre
#                                CCDC
#
#######################################################################
#
# If this CIF has been generated from an entry in the Cambridge
# Structural Database, then it will include bibliographic, chemical,
# crystal, experimental, refinement or atomic coordinate data resulting
# from the CCDC's data processing and validation procedures.
#
#######################################################################

data_CSD_CIF_TOSCAF
_audit_creation_date 1997-05-05
_audit_creation_method CSD-ConQuest-V1
_database_code_CSD TOSCAF
_chemical_formula_sum 'C24 H35 N1 O6'
_chemical_formula_moiety
;
C24 H35 N1 O6
;
_journal_coden_Cambridge 16
_journal_volume 52
_journal_year 1996
_journal_page_first 11995
_journal_name_full 'Tetrahedron '
loop_
_publ_author_name
"M.Lj.Mihailovic"
"M.M.Rajkovic"
"L.B.Lorenc"
"V.D.Pavlovic"
"A.Z.Milovanovic"
"B.Tinant"
"J.-P.Declercq"
_chemical_name_systematic
;
N-Acetyl-1\a,5-epoxyimino-19-nor-5\a-androstane-3\b,17\b-diyl diacetate
;
_chemical_melting_point 484.15
_cell_volume   1164.161
_exptl_crystal_density_diffrn 1.24
_diffrn_ambient_temperature ?
_diffrn_special_details
;
The study was carried out at room temperature,in the range 283-303K

;
#These two values have been output from a single CSD field.
_refine_ls_R_factor_gt 0.071
_refine_ls_wR_factor_gt 0.071
_symmetry_cell_setting monoclinic
_symmetry_space_group_name_H-M 'P 21'
_symmetry_Int_Tables_number 4
loop_
_symmetry_equiv_pos_site_id
_symmetry_equiv_pos_as_xyz
1 x,y,z
2 -x,1/2+y,-z
_cell_length_a 13.344(2)
_cell_length_b 7.486(1)
_cell_length_c 13.116(2)
_cell_angle_alpha 90
_cell_angle_beta 117.31(1)
_cell_angle_gamma 90
_cell_formula_units_Z 2
loop_
_atom_type_symbol
_atom_type_radius_bond
C 0.68
H 0.23
N 0.68
O 0.68
loop_
_atom_site_label
_atom_site_type_symbol
_atom_site_fract_x
_atom_site_fract_y
_atom_site_fract_z
C1 C 0.2318(3) 0.45860 0.4381(4)
C2 C 0.1466(4) 0.4943(8) 0.3150(4)
C3 C 0.1041(3) 0.3176(9) 0.2517(4)
C4 C 0.0741(4) 0.1856(9) 0.3197(5)
C5 C 0.1668(3) 0.1718(8) 0.4442(4)
C6 C 0.1429(4) 0.0205(8) 0.5073(4)
C7 C 0.2183(4) 0.0200(8) 0.6363(4)
C8 C 0.2164(3) 0.2012(8) 0.6885(4)
C9 C 0.2560(3) 0.3475(7) 0.6324(3)
C10 C 0.1806(3) 0.3543(7) 0.5029(4)
C11 C 0.2680(4) 0.5330(8) 0.6894(4)
C12 C 0.3387(4) 0.5263(8) 0.8176(4)
C13 C 0.2924(3) 0.3852(8) 0.8722(4)
C14 C 0.2906(3) 0.2043(7) 0.8184(4)
C15 C 0.2678(4) 0.0746(9) 0.8950(4)
C16 C 0.3270(4) 0.1556(9) 1.0156(4)
C17 C 0.3689(4) 0.3401(9) 0.9976(4)
C18 C 0.1765(4) 0.4428(10) 0.8577(4)
O1 O 0.0001(3) 0.3496(8) 0.1450(3)
C19 C -0.0021(5) 0.3183(10) 0.0461(5)
O2 O 0.0802(5) 0.2701(17) 0.0425(4)
C20 C -0.1135(5) 0.3343(12) -0.0534(4)
O3 O 0.3200(2) 0.3377(7) 0.4440(3)
N1 N 0.2797(3) 0.1580(7) 0.4474(3)
C21 C 0.3193(3) 0.0293(8) 0.4052(4)
O4 O 0.2769(3) -0.1178(7) 0.3866(3)
C22 C 0.4221(4) 0.0737(9) 0.3903(5)
O5 O 0.3632(3) 0.4771(7) 1.0727(3)
C23 C 0.4373(4) 0.4651(10) 1.1837(5)
O6 O 0.5061(3) 0.3508(9) 1.2223(3)
C24 C 0.4199(5) 0.6129(13) 1.2509(5)
H1 H 0.2623(5) 0.58900 0.4742(4)
H2 H 0.0766(4) 0.5686(8) 0.3134(4)
H3 H 0.1860(4) 0.5711(8) 0.2734(4)
H4 H 0.1546(4) -0.1047(8) 0.4732(4)
H5 H 0.0563(4) 0.0315(8) 0.4916(4)
H6 H 0.1885(4) -0.0807(8) 0.6748(4)
H7 H 0.3037(4) -0.0105(8) 0.6537(4)
H8 H 0.1850(4) 0.5814(8) 0.6701(4)
H9 H 0.3071(4) 0.6238(8) 0.6542(4)
H10 H 0.4241(4) 0.4910(8) 0.8372(4)
H11 H 0.3381(4) 0.6559(8) 0.8535(4)
H12 H 0.3013(4) -0.0562(9) 0.8936(4)
H13 H 0.1782(4) 0.0646(9) 0.8672(4)
H14 H 0.2692(4) 0.1701(9) 1.0518(4)
H15 H 0.3972(4) 0.0730(9) 1.0712(4)
H16 H 0.1218(4) 0.4742(10) 0.7688(4)
H17 H 0.1863(4) 0.5595(10) 0.9099(4)
H18 H 0.1399(4) 0.3357(10) 0.8849(4)
H19 H -0.1744(5) 0.3822(12) -0.0271(4)
H20 H -0.1394(5) 0.2050(12) -0.0935(4)
H21 H -0.1082(5) 0.4271(12) -0.1138(4)
H22 H 0.4444(4) 0.2122(9) 0.4119(5)
H23 H 0.4049(4) 0.0504(9) 0.3025(5)
H24 H 0.4912(4) -0.0103(9) 0.4467(5)
H25 H 0.4810(5) 0.5996(13) 1.3400(5)
H26 H 0.3358(5) 0.6045(13) 1.2430(5)
H27 H 0.4308(5) 0.7406(13) 1.2188(5)
H28 H 0.1601(46) 0.2835(88) 0.2312(40)
H29 H -0.0117(47) 0.2191(93) 0.3146(46)
H30 H 0.0775(44) 0.0431(88) 0.2873(47)
H31 H 0.1284(50) 0.2071(85) 0.6725(44)
H32 H 0.3244(48) 0.2973(85) 0.6402(44)
H33 H 0.1111(50) 0.4177(85) 0.4795(46)
H34 H 0.3906(48) 0.2039(83) 0.8390(43)
H35 H 0.4489(48) 0.3118(92) 1.0029(45)
#END
