
#######################################################################
#
#                 Cambridge Crystallographic Data Centre
#                                CCDC
#
#######################################################################
#
# If this CIF has been generated from an entry in the Cambridge
# Structural Database, then it will include bibliographic, chemical,
# crystal, experimental, refinement or atomic coordinate data resulting
# from the CCDC's data processing and validation procedures.
#
#######################################################################

data_CSD_CIF_TOSDAG
_audit_creation_date 1997-05-05
_audit_creation_method CSD-ConQuest-V1
_database_code_CSD TOSDAG
_chemical_formula_sum 'C21 H23 N1 O2'
_chemical_formula_moiety
;
C21 H23 N1 O2
;
_journal_coden_Cambridge 16
_journal_volume 52
_journal_year 1996
_journal_page_first 11849
_journal_name_full 'Tetrahedron '
loop_
_publ_author_name
"G.Broggini"
"F.Folcio"
"M.Sardone"
"G.Zecchi"
_chemical_name_systematic
;
(+)-(\aR,2aS,5aR,10bS,10cR)-1,2a,3,4,5,5a,10b,10c-Octahydro-1-(\a-phenylethyl)
xantheno(9,1-cd)isoxazole
;
_chemical_melting_point 392.15
_cell_volume   1712.061
_exptl_crystal_colour 'colorless'
_exptl_crystal_density_diffrn 1.247
_exptl_special_details
;
Melting point range 392.15-393.15K

;
_diffrn_ambient_temperature ?
_diffrn_special_details
;
The study was carried out at room temperature,in the range 283-303K

;
#These two values have been output from a single CSD field.
_refine_ls_R_factor_gt 0.057
_refine_ls_wR_factor_gt 0.057
loop_
_citation_database_id_CSD
_citation_special_details
TOSDEK "is a stereoisomer of this entry"
_symmetry_cell_setting orthorhombic
_symmetry_space_group_name_H-M 'P 21 21 21'
_symmetry_Int_Tables_number 19
loop_
_symmetry_equiv_pos_site_id
_symmetry_equiv_pos_as_xyz
1 x,y,z
2 1/2-x,-y,1/2+z
3 1/2+x,1/2-y,-z
4 -x,1/2+y,1/2-z
_cell_length_a 9.487(3)
_cell_length_b 10.390(2)
_cell_length_c 17.369(6)
_cell_angle_alpha 90
_cell_angle_beta 90
_cell_angle_gamma 90
_cell_formula_units_Z 4
loop_
_atom_type_symbol
_atom_type_radius_bond
C 0.68
H 0.23
N 0.68
O 0.68
loop_
_atom_site_label
_atom_site_type_symbol
_atom_site_fract_x
_atom_site_fract_y
_atom_site_fract_z
O1 O 0.3918(3) 0.0662(3) 0.7619(2)
O2 O 0.7506(4) 0.0019(4) 0.6947(2)
N1 N 0.4244(4) 0.0149(3) 0.8383(2)
C1 C 0.4239(5) -0.0312(5) 0.7063(3)
C2 C 0.5400(5) -0.1101(4) 0.7426(3)
C3 C 0.4674(6) 0.0320(5) 0.6318(3)
C4 C 0.5576(5) -0.0522(4) 0.8232(2)
C5 C 0.3078(5) -0.0700(5) 0.8620(3)
C6 C 0.1700(6) -0.0024(6) 0.8563(4)
C7 C 0.3349(5) -0.1159(5) 0.9424(3)
C8 C 0.2975(6) -0.2460(5) 0.9622(3)
C9 C 0.3163(7) -0.2871(5) 1.0371(3)
C10 C 0.3749(7) -0.2123(6) 1.0918(3)
C11 C 0.4096(7) -0.0825(6) 1.0736(3)
C12 C 0.3907(6) -0.0406(5) 0.9990(3)
C13 C 0.6766(5) 0.0419(4) 0.8258(2)
C14 C 0.7007(5) 0.1127(5) 0.8920(3)
C15 C 0.8078(6) 0.2058(5) 0.8958(3)
C16 C 0.8917(5) 0.2269(5) 0.8317(4)
C17 C 0.8705(5) 0.1548(6) 0.7650(3)
C18 C 0.7641(5) 0.0621(5) 0.7638(3)
C19 C 0.6736(6) -0.1181(5) 0.6962(3)
C20 C 0.6447(7) -0.1459(5) 0.6109(3)
C21 C 0.5270(7) -0.0660(6) 0.5763(3)
H1 H 0.32900 -0.06000 0.68900
H2 H 0.51900 -0.17800 0.74900
H3 H 0.54100 0.08600 0.64100
H4 H 0.38000 0.07100 0.60700
H5 H 0.55800 -0.09600 0.87100
H6 H 0.31200 -0.11700 0.83200
H7 H 0.15500 0.02800 0.80100
H8 H 0.09900 -0.05600 0.87300
H9 H 0.16400 0.06400 0.89000
H10 H 0.22700 -0.29700 0.91600
H11 H 0.28500 -0.37000 1.05000
H12 H 0.37000 -0.24100 1.15200
H13 H 0.44400 -0.02500 1.11200
H14 H 0.43000 0.02200 0.98400
H15 H 0.64300 0.09800 0.93700
H16 H 0.82500 0.23700 0.94200
H17 H 0.97900 0.28000 0.83100
H18 H 0.93600 0.16400 0.71600
H19 H 0.74200 -0.17400 0.71500
H20 H 0.61700 -0.23000 0.60300
H21 H 0.73200 -0.13100 0.57400
H22 H 0.44800 -0.10700 0.56300
H23 H 0.56200 -0.02400 0.52600
#END
