
#######################################################################
#
#                 Cambridge Crystallographic Data Centre
#                                CCDC
#
#######################################################################
#
# If this CIF has been generated from an entry in the Cambridge
# Structural Database, then it will include bibliographic, chemical,
# crystal, experimental, refinement or atomic coordinate data resulting
# from the CCDC's data processing and validation procedures.
#
#######################################################################

data_CSD_CIF_TOTDAH
_audit_creation_date 1997-05-19
_audit_creation_method CSD-ConQuest-V1
_database_code_CSD TOTDAH
_chemical_formula_sum 'C8 H15 N3 O2'
_chemical_formula_moiety
;
C8 H15 N3 O2
;
_journal_coden_Cambridge 24
_journal_volume 37
_journal_year 1996
_journal_page_first 5997
_journal_name_full 'Tetrahedron Lett. '
loop_
_publ_author_name
"V.K.Khlestkin"
"D.G.Mazhukin"
"A.Ya.Tikhonov"
"I.Yu.Bagryanskaya"
"Y.V.Gatilov"
"D.I.Utepbergenov"
"V.V.Khramtsov"
"L.B.Volodarsky"
_chemical_name_systematic
;
3a,5,6,7,8,8a-Hexahydro-1-methoxy-4H-cyclohept(d)-1,2,3-triazole-2-oxide
;
_chemical_melting_point 323.15
_cell_volume    983.987
_exptl_crystal_colour 'colorless'
_exptl_crystal_density_diffrn 1.25
_exptl_special_details
;
Melting point range 323.15-324.15K

;
_diffrn_ambient_temperature ?
_diffrn_special_details
;
The study was carried out at room temperature,in the range 283-303K

;
#These two values have been output from a single CSD field.
_refine_ls_R_factor_gt 0.07
_refine_ls_wR_factor_gt 0.07
_symmetry_cell_setting monoclinic
_symmetry_space_group_name_H-M 'P 21/c'
_symmetry_Int_Tables_number 14
loop_
_symmetry_equiv_pos_site_id
_symmetry_equiv_pos_as_xyz
1 x,y,z
2 -x,1/2+y,1/2-z
3 -x,-y,-z
4 x,-1/2-y,-1/2+z
_cell_length_a 7.978(4)
_cell_length_b 9.476(4)
_cell_length_c 13.039(4)
_cell_angle_alpha 90
_cell_angle_beta 93.42(3)
_cell_angle_gamma 90
_cell_formula_units_Z 4
loop_
_atom_type_symbol
_atom_type_radius_bond
C 0.68
H 0.23
N 0.68
O 0.68
loop_
_atom_site_label
_atom_site_type_symbol
_atom_site_fract_x
_atom_site_fract_y
_atom_site_fract_z
N1 N 0.2330(6) 0.0394(5) 0.8620(4)
N2 N 0.2124(6) 0.0960(6) 0.7578(4)
N3 N 0.2014(6) 0.0059(5) 0.6866(4)
C1 C 0.3504(8) -0.2199(6) 0.7186(5)
C2 C 0.3227(11) -0.3780(6) 0.7345(6)
C3 C 0.3303(11) -0.4231(7) 0.8457(6)
C4 C 0.1979(11) -0.3586(6) 0.9098(6)
C5 C 0.2276(10) -0.2008(6) 0.9313(5)
C6 C 0.1577(8) -0.1032(6) 0.8477(4)
C7 C 0.1928(8) -0.1359(6) 0.7369(4)
C8 C 0.2471(12) 0.2018(10) 0.9927(7)
O1 O 0.1366(5) 0.1226(4) 0.9247(3)
O2 O 0.2201(5) 0.2266(4) 0.7468(3)
H1 H 0.44140 -0.18760 0.76540
H2 H 0.38260 -0.20350 0.64900
H3 H 0.21380 -0.40370 0.70290
H4 H 0.40720 -0.42970 0.69940
H5 H 0.44010 -0.39890 0.87670
H6 H 0.31960 -0.52500 0.84830
H7 H 0.19690 -0.40870 0.97470
H8 H 0.08860 -0.37070 0.87420
H9 H 0.17740 -0.17660 0.99500
H10 H 0.34750 -0.18450 0.94140
H11 H 0.03590 -0.09570 0.85280
H12 H 0.09610 -0.18690 0.70530
H13 H 0.18250 0.25950 1.03620
H14 H 0.31710 0.26090 0.95340
H15 H 0.31610 0.13840 1.03420
#END
