
#######################################################################
#
#                 Cambridge Crystallographic Data Centre
#                                CCDC
#
#######################################################################
#
# If this CIF has been generated from an entry in the Cambridge
# Structural Database, then it will include bibliographic, chemical,
# crystal, experimental, refinement or atomic coordinate data resulting
# from the CCDC's data processing and validation procedures.
#
#######################################################################

data_CSD_CIF_TOTDEL
_audit_creation_date 1997-05-19
_audit_creation_method CSD-ConQuest-V1
_database_code_CSD TOTDEL
_chemical_formula_sum 'C7 H13 N3 O2'
_chemical_formula_moiety
;
C7 H13 N3 O2
;
_journal_coden_Cambridge 24
_journal_volume 37
_journal_year 1996
_journal_page_first 5997
_journal_name_full 'Tetrahedron Lett. '
loop_
_publ_author_name
"V.K.Khlestkin"
"D.G.Mazhukin"
"A.Ya.Tikhonov"
"I.Yu.Bagryanskaya"
"Y.V.Gatilov"
"D.I.Utepbergenov"
"V.V.Khramtsov"
"L.B.Volodarsky"
_chemical_name_systematic
;
3a,4,5,6,7,7a-Hexahydro-1-methoxy-cyclohexa(d)[1,2,3]triazole-2-oxide
;
_chemical_melting_point 323.15
_cell_volume    861.312
_exptl_crystal_colour 'colorless'
_exptl_crystal_density_diffrn 1.32
_exptl_special_details
;
Melting point range 323.15-331.15K

;
_diffrn_ambient_temperature ?
_diffrn_special_details
;
The study was carried out at room temperature,in the range 283-303K

;
#These two values have been output from a single CSD field.
_refine_ls_R_factor_gt 0.0428
_refine_ls_wR_factor_gt 0.0428
_symmetry_cell_setting monoclinic
_symmetry_space_group_name_H-M 'P 21/n'
_symmetry_Int_Tables_number 14
loop_
_symmetry_equiv_pos_site_id
_symmetry_equiv_pos_as_xyz
1 x,y,z
2 1/2-x,1/2+y,1/2-z
3 -x,-y,-z
4 -1/2+x,-1/2-y,-1/2+z
_cell_length_a 10.899(2)
_cell_length_b 6.489(1)
_cell_length_c 12.506(2)
_cell_angle_alpha 90
_cell_angle_beta 103.14(2)
_cell_angle_gamma 90
_cell_formula_units_Z 4
loop_
_atom_type_symbol
_atom_type_radius_bond
C 0.68
H 0.23
N 0.68
O 0.68
loop_
_atom_site_label
_atom_site_type_symbol
_atom_site_fract_x
_atom_site_fract_y
_atom_site_fract_z
O1 O 0.1809(1) -0.0258(2) 0.6047(1)
O2 O 0.1834(1) 0.3086(2) 0.4841(1)
N1 N 0.2982(1) 0.0566(2) 0.5987(1)
N2 N 0.2764(1) 0.2737(2) 0.5593(1)
N3 N 0.3613(2) 0.3972(2) 0.6046(1)
C1 C 0.5641(2) 0.2142(3) 0.6389(2)
C2 C 0.6398(2) 0.0401(3) 0.7036(2)
C3 C 0.5570(2) -0.1463(3) 0.7061(2)
C4 C 0.4495(2) -0.0941(3) 0.7593(1)
C5 C 0.3745(2) 0.0928(3) 0.7099(1)
C6 C 0.4520(2) 0.2757(3) 0.6862(2)
C7 C 0.1387(2) -0.1649(3) 0.5147(2)
H1 H 0.5312(19) 0.1630(32) 0.5626(18)
H2 H 0.6138(23) 0.3304(41) 0.6384(19)
H3 H 0.7064(21) 0.0023(35) 0.6723(18)
H4 H 0.6829(21) 0.0879(34) 0.7772(19)
H5 H 0.5253(20) -0.1898(31) 0.6348(19)
H6 H 0.6052(21) -0.2581(35) 0.7469(18)
H7 H 0.3934(19) -0.2078(32) 0.7576(16)
H8 H 0.4830(19) -0.0706(30) 0.8365(17)
H9 H 0.3187(18) 0.1359(31) 0.7541(15)
H10 H 0.4768(18) 0.3580(33) 0.7481(17)
H11 H 0.0621(25) -0.2230(39) 0.5277(20)
H12 H 0.1985(21) -0.2705(38) 0.5153(17)
H13 H 0.1204(21) -0.0858(38) 0.4441(20)
#END
