
#######################################################################
#
#                 Cambridge Crystallographic Data Centre
#                                CCDC
#
#######################################################################
#
# If this CIF has been generated from an entry in the Cambridge
# Structural Database, then it will include bibliographic, chemical,
# crystal, experimental, refinement or atomic coordinate data resulting
# from the CCDC's data processing and validation procedures.
#
#######################################################################

data_CSD_CIF_TOTWOQ
_audit_creation_date 2014-12-22
_audit_creation_method CSD-ConQuest-V1
_database_code_CSD TOTWOQ
_database_code_depnum_ccdc_archive 'CCDC 919178'
_chemical_formula_sum 'C18 H11 N3 O4'
_chemical_formula_moiety
;
C18 H11 N3 O4
;
_journal_coden_Cambridge 416
_journal_volume 24
_journal_year 2014
_journal_page_first 649
_journal_name_full 'J.Fluorescence '
loop_
_publ_author_name
"J.K.Nath"
"J.B.Baruah"
_chemical_name_systematic
;
5-Nitro-2-(pyridin-2-ylmethyl)-1H-benzo[de]isoquinoline-1,3(2H)-dione
;
_cell_volume   1506.203
_exptl_crystal_colour 'brown'
_exptl_crystal_density_diffrn 1.47
_exptl_crystal_description 'needle'
_diffrn_ambient_temperature 298
#These two values have been output from a single CSD field.
_refine_ls_R_factor_gt 0.0599
_refine_ls_wR_factor_gt 0.0599
_symmetry_cell_setting monoclinic
_symmetry_space_group_name_H-M 'P 21/c'
_symmetry_Int_Tables_number 14
loop_
_symmetry_equiv_pos_site_id
_symmetry_equiv_pos_as_xyz
1 x,y,z
2 -x,1/2+y,1/2-z
3 -x,-y,-z
4 x,-1/2-y,-1/2+z
_cell_length_a 11.0481(4)
_cell_length_b 8.6239(4)
_cell_length_c 15.8686(7)
_cell_angle_alpha 90
_cell_angle_beta 94.986(4)
_cell_angle_gamma 90
_cell_formula_units_Z 4
loop_
_atom_type_symbol
_atom_type_radius_bond
C 0.68
H 0.23
N 0.68
O 0.68
loop_
_atom_site_label
_atom_site_type_symbol
_atom_site_fract_x
_atom_site_fract_y
_atom_site_fract_z
O1 O 0.9199(2) 0.5968(3) 0.36985(15)
O2 O 0.5801(2) 0.8792(4) 0.39918(17)
N1 N 0.7481(2) 0.7360(3) 0.38600(16)
O3 O 1.2743(2) 0.6581(4) 0.57752(18)
O4 O 1.2582(3) 0.7811(4) 0.6940(2)
N2 N 1.2180(3) 0.7396(4) 0.6233(2)
N3 N 0.7803(2) 0.8607(3) 0.22480(19)
C1 C 0.6830(3) 0.8474(4) 0.4268(2)
C2 C 0.8625(3) 0.8755(3) 0.53308(18)
C3 C 0.9246(3) 0.7620(3) 0.48905(18)
C4 C 0.8672(3) 0.6914(4) 0.4105(2)
C5 C 0.6817(3) 0.7760(4) 0.2343(2)
C6 C 0.9193(3) 0.9443(4) 0.60795(19)
C7 C 0.7437(3) 0.9216(4) 0.50320(19)
C8 C 1.0932(3) 0.7866(4) 0.5930(2)
C9 C 1.0401(3) 0.7190(4) 0.51878(19)
H1 H 1.08240 0.64590 0.48990
C10 C 0.8544(3) 1.0581(4) 0.6499(2)
H2 H 0.89040 1.10450 0.69870
C11 C 0.6851(3) 1.0324(4) 0.5469(2)
H3 H 0.60690 1.06230 0.52710
C12 C 1.0372(3) 0.8958(4) 0.6369(2)
H4 H 1.07620 0.93840 0.68580
C13 C 0.7400(3) 1.1008(4) 0.6199(2)
H5 H 0.69850 1.17580 0.64820
C14 C 0.6867(3) 0.6675(4) 0.3089(2)
H6 H 0.60450 0.63900 0.31970
H7 H 0.72910 0.57360 0.29510
C15 C 0.5800(3) 0.7825(5) 0.1772(2)
H8 H 0.51200 0.72260 0.18530
C16 C 0.7772(4) 0.9527(5) 0.1566(2)
H9 H 0.84570 1.01220 0.14920
C17 C 0.6817(4) 0.9652(5) 0.0980(2)
H10 H 0.68470 1.03100 0.05180
C18 C 0.5810(4) 0.8793(5) 0.1082(2)
H11 H 0.51350 0.88580 0.06900
#END
