
#######################################################################
#
#                 Cambridge Crystallographic Data Centre
#                                CCDC
#
#######################################################################
#
# If this CIF has been generated from an entry in the Cambridge
# Structural Database, then it will include bibliographic, chemical,
# crystal, experimental, refinement or atomic coordinate data resulting
# from the CCDC's data processing and validation procedures.
#
#######################################################################

data_CSD_CIF_TOVLUN
_audit_creation_date 2014-12-22
_audit_creation_method CSD-ConQuest-V1
_database_code_CSD TOVLUN
_database_code_depnum_ccdc_archive 'CCDC 1026082'
_chemical_formula_sum 'C17 H17 N1 O5'
_chemical_formula_moiety
;
C17 H17 N1 O5
;
_journal_coden_Cambridge 1490
_journal_volume 5
_journal_year 2014
_journal_page_first 5707
_journal_name_full 'Nat.Commun. '
loop_
_publ_author_name
"Rong Long"
"Jun Huang"
"Wenbin Shao"
"Song Liu"
"Yu Lan"
"Jianxian Gong"
"Zhen Yang"
_chemical_name_systematic
;
(6a-formyl-2,3,6,6a-tetrahydropentalen-3a(1H)-yl)methyl 4-nitrobenzoate
;
_cell_volume   3107.165
_exptl_crystal_colour 'colorless'
_exptl_crystal_density_diffrn 1.348
_exptl_crystal_description 'plate'
_diffrn_ambient_temperature 293
#These two values have been output from a single CSD field.
_refine_ls_R_factor_gt 0.0717
_refine_ls_wR_factor_gt 0.0717
_symmetry_cell_setting monoclinic
_symmetry_space_group_name_H-M 'C 2/c'
_symmetry_Int_Tables_number 15
loop_
_symmetry_equiv_pos_site_id
_symmetry_equiv_pos_as_xyz
1 x,y,z
2 -x,y,1/2-z
3 1/2+x,1/2+y,z
4 1/2-x,1/2+y,1/2-z
5 -x,-y,-z
6 x,-y,-1/2+z
7 -1/2-x,-1/2-y,-z
8 -1/2+x,-1/2-y,-1/2+z
_cell_length_a 8.0475(2)
_cell_length_b 11.3888(3)
_cell_length_c 34.121(2)
_cell_angle_alpha 90
_cell_angle_beta 96.495(6)
_cell_angle_gamma 90
_cell_formula_units_Z 8
loop_
_atom_type_symbol
_atom_type_radius_bond
C 0.68
H 0.23
N 0.68
O 0.68
loop_
_atom_site_label
_atom_site_type_symbol
_atom_site_fract_x
_atom_site_fract_y
_atom_site_fract_z
O1 O 0.2315(2) -0.08053(15) 0.09731(5)
O2 O 0.2401(3) 0.1196(2) -0.10116(6)
C1 C 0.1800(7) 0.0442(4) 0.21774(11)
H1 H 0.23710 0.10510 0.23400
H2 H 0.06040 0.05640 0.21700
O3 O 0.0937(2) -0.21832(16) 0.05982(5)
O4 O 0.4231(3) 0.2191(2) -0.06474(6)
N1 N 0.3186(3) 0.1418(2) -0.06942(6)
O5 O -0.0497(3) 0.1014(3) 0.15109(13)
C2 C 0.0897(4) 0.0927(3) 0.14688(11)
H3 H 0.11930 0.11520 0.12240
C3 C 0.2312(3) 0.0489(2) 0.17653(8)
C4 C 0.2895(3) -0.0813(2) 0.16780(7)
C5 C 0.1981(3) -0.1431(2) 0.13266(7)
H4 H 0.23650 -0.22370 0.13160
H5 H 0.07890 -0.14390 0.13480
C6 C 0.1740(3) -0.1292(2) 0.06288(7)
C7 C 0.2189(3) -0.05807(19) 0.02886(7)
C8 C 0.1662(3) -0.0977(2) -0.00907(7)
H6 H 0.10820 -0.16820 -0.01260
C9 C 0.1993(3) -0.0333(2) -0.04135(7)
H7 H 0.16330 -0.05880 -0.06680
C10 C 0.2873(3) 0.0701(2) -0.03506(7)
C11 C 0.2253(7) -0.0704(5) 0.23383(12)
H8 H 0.32270 -0.06300 0.25320
H9 H 0.13410 -0.10080 0.24720
C12 C 0.2596(4) -0.1484(3) 0.20516(9)
H10 H 0.16650 -0.20210 0.19940
H11 H 0.35820 -0.19390 0.21440
C13 C 0.4728(3) -0.0664(3) 0.16376(9)
H12 H 0.54530 -0.12800 0.16000
C14 C 0.5179(4) 0.0460(4) 0.16620(14)
H13 H 0.62640 0.07120 0.16410
C15 C 0.3849(4) 0.1245(3) 0.17239(15)
H14 H 0.36320 0.17770 0.15020
H15 H 0.41390 0.17050 0.19610
C16 C 0.3442(3) 0.1108(2) 0.00209(7)
H16 H 0.40410 0.18060 0.00540
C17 C 0.3099(3) 0.0452(2) 0.03432(7)
H17 H 0.34790 0.07040 0.05970
#END
