
#######################################################################
#
#                 Cambridge Crystallographic Data Centre
#                                CCDC
#
#######################################################################
#
# If this CIF has been generated from an entry in the Cambridge
# Structural Database, then it will include bibliographic, chemical,
# crystal, experimental, refinement or atomic coordinate data resulting
# from the CCDC's data processing and validation procedures.
#
#######################################################################

data_CSD_CIF_TOWSIJ
_audit_creation_date 2014-12-22
_audit_creation_method CSD-ConQuest-V1
_database_code_CSD TOWSIJ
_database_code_depnum_ccdc_archive 'CCDC 796265'
_chemical_formula_sum 'C37 H29 N5 O6'
_chemical_formula_moiety
;
C37 H29 N5 O6
;
_journal_coden_Cambridge 119
_journal_volume 1084
_journal_year 2015
_journal_page_first 177
_journal_name_full 'J.Mol.Struct. '
loop_
_publ_author_name
"O.Korolev"
"T.Yegorova"
"I.Levkov"
"V.Malytskyy"
"Oleg Shishkin"
"R.Zubatyuk"
"G.Palamarchuk"
"M.Vedrenne"
"M.Baltas"
"Z.Voitenko"
_chemical_name_systematic
;
3,3'-((2-(1-methyl-5-nitro-1H-benzimidazol-2-yl)phenyl)methylylidene)bis(1-(4-
methylphenyl)pyrrolidine-2,5-dione) unknown solvate
;
_cell_volume   3583.646
_exptl_crystal_colour 'colorless'
_exptl_crystal_density_diffrn 1.186
_exptl_crystal_description 'block'
_diffrn_ambient_temperature 293
_refine_special_details
;
Disordered solvent molecules were not modelled and the disordered density was 
taken into account using the SQUEEZE/PLATON procedure.
;
#These two values have been output from a single CSD field.
_refine_ls_R_factor_gt 0.0756
_refine_ls_wR_factor_gt 0.0756
_symmetry_cell_setting monoclinic
_symmetry_space_group_name_H-M 'P 2/n'
_symmetry_Int_Tables_number 13
loop_
_symmetry_equiv_pos_site_id
_symmetry_equiv_pos_as_xyz
1 x,y,z
2 1/2-x,y,1/2-z
3 -x,-y,-z
4 -1/2+x,-y,-1/2+z
_cell_length_a 16.5718(7)
_cell_length_b 11.7394(4)
_cell_length_c 18.7097(6)
_cell_angle_alpha 90
_cell_angle_beta 100.081(4)
_cell_angle_gamma 90
_cell_formula_units_Z 4
loop_
_atom_type_symbol
_atom_type_radius_bond
C 0.68
H 0.23
N 0.68
O 0.68
loop_
_atom_site_label
_atom_site_type_symbol
_atom_site_fract_x
_atom_site_fract_y
_atom_site_fract_z
N1 N 0.38734(15) 0.2575(2) 0.55752(14)
N2 N 0.55708(16) 0.6398(2) 0.85161(13)
N3 N 0.46390(16) 0.5029(2) 0.82466(13)
N4 N 0.67172(14) 0.41411(19) 0.63844(12)
N5 N 0.5832(4) 0.2776(4) 1.0401(2)
O1 O 0.3927(2) 0.1125(3) 0.64009(15)
O2 O 0.39841(17) 0.4307(2) 0.50398(12)
O3 O 0.6445(3) 0.2678(4) 1.0886(2)
O4 O 0.5269(4) 0.2112(4) 1.0319(2)
O5 O 0.75751(15) 0.5687(2) 0.66308(14)
O6 O 0.55783(13) 0.29797(18) 0.61917(13)
C1 C 0.3746(3) -0.0192(4) 0.3045(2)
H1 H 0.38660 -0.09630 0.31990
H2 H 0.41460 0.00640 0.27660
H3 H 0.32100 -0.01580 0.27500
C2 C 0.3771(3) 0.0560(3) 0.36983(19)
C3 C 0.3111(3) 0.1013(4) 0.3887(3)
H4 H 0.26090 0.08890 0.35880
C4 C 0.3124(2) 0.1665(3) 0.4507(2)
H5 H 0.26370 0.19470 0.46200
C5 C 0.38314(19) 0.1887(3) 0.49394(17)
C6 C 0.4506(3) 0.1473(8) 0.4753(3)
H6 H 0.50100 0.16210 0.50430
C7 C 0.4473(3) 0.0820(7) 0.4129(3)
H7 H 0.49600 0.05540 0.40090
C8 C 0.3956(2) 0.2129(3) 0.62769(19)
C9 C 0.4078(2) 0.3097(3) 0.68042(18)
H8 H 0.46080 0.30400 0.71180
H9 H 0.36550 0.30960 0.71030
C10 C 0.40292(19) 0.4179(3) 0.63462(16)
H10 H 0.35030 0.45410 0.63730
C11 C 0.39747(19) 0.3732(3) 0.55716(17)
C12 C 0.46822(19) 0.5068(3) 0.65556(14)
C13 C 0.4362(2) 0.6207(3) 0.67234(16)
C14 C 0.3915(3) 0.6833(4) 0.6167(2)
H11 H 0.38090 0.65180 0.57030
C15 C 0.3626(4) 0.7887(5) 0.6268(2)
H12 H 0.33330 0.82890 0.58790
C16 C 0.3765(4) 0.8363(4) 0.6950(3)
H13 H 0.35690 0.90900 0.70210
C17 C 0.4191(3) 0.7772(3) 0.7524(2)
H14 H 0.42840 0.80980 0.79850
C18 C 0.4488(2) 0.6676(3) 0.74221(17)
C19 C 0.48960(19) 0.6022(3) 0.80555(15)
C20 C 0.5173(2) 0.4742(3) 0.88744(15)
C21 C 0.5763(2) 0.5594(3) 0.90488(15)
C22 C 0.6376(2) 0.5522(4) 0.96446(19)
H15 H 0.67660 0.60940 0.97510
C23 C 0.6391(3) 0.4578(5) 1.00755(19)
H16 H 0.68020 0.44980 1.04800
C24 C 0.5806(3) 0.3754(4) 0.99142(19)
C25 C 0.5180(2) 0.3800(3) 0.93247(19)
H17 H 0.47840 0.32320 0.92330
C26 C 0.6014(3) 0.7452(3) 0.8487(2)
H18 H 0.65920 0.73040 0.85950
H19 H 0.58680 0.79760 0.88370
H20 H 0.58760 0.77740 0.80100
C27 C 0.54824(18) 0.4956(2) 0.65439(14)
C28 C 0.61282(19) 0.5848(2) 0.66944(16)
H21 H 0.61850 0.61140 0.71920
H22 H 0.59960 0.64920 0.63700
C29 C 0.6897(2) 0.5282(3) 0.65679(15)
C30 C 0.58828(18) 0.3898(2) 0.63505(15)
C31 C 0.73113(18) 0.3301(2) 0.62797(15)
C32 C 0.80502(19) 0.3240(3) 0.67534(17)
H23 H 0.81730 0.37690 0.71270
C33 C 0.8601(2) 0.2403(3) 0.6674(2)
H24 H 0.90970 0.23780 0.69960
C34 C 0.8453(2) 0.1610(3) 0.6144(2)
C35 C 0.7717(3) 0.1675(3) 0.5673(2)
H25 H 0.76010 0.11440 0.53000
C36 C 0.7144(2) 0.2505(3) 0.57396(18)
H26 H 0.66470 0.25230 0.54190
C37 C 0.9071(3) 0.0691(4) 0.6068(3)
H27 H 0.94780 0.09900 0.58120
H28 H 0.87980 0.00600 0.58030
H29 H 0.93300 0.04400 0.65410
#END
