
#######################################################################
#
#                 Cambridge Crystallographic Data Centre
#                                CCDC
#
#######################################################################
#
# If this CIF has been generated from an entry in the Cambridge
# Structural Database, then it will include bibliographic, chemical,
# crystal, experimental, refinement or atomic coordinate data resulting
# from the CCDC's data processing and validation procedures.
#
#######################################################################

data_CSD_CIF_TOXCNB
_audit_creation_date 1976-12-25
_audit_creation_method CSD-ConQuest-V1
_database_code_CSD TOXCNB
_database_code_depnum_ccdc_archive 'CCDC 1274772'
_chemical_formula_sum 'C34 H46 N2 O6'
_chemical_formula_moiety
;
C34 H46 N2 O6
;
_journal_coeditor_code "IUCr A13615"
_journal_coden_Cambridge 107
_journal_volume 32
_journal_year 1976
_journal_page_first 2492
_journal_name_full 'Acta Crystallogr.,Sect.B:Struct.Crystallogr.Cryst.Chem. '
loop_
_publ_author_name
"A.J.de Kok"
"F.Boomsma"
"C.Romers"
_chemical_name_systematic
;
Toxisterol C~1~ 3,5-dinitrobenzoate
;
_cell_volume   1603.742
_diffrn_ambient_temperature 103.15
#These two values have been output from a single CSD field.
_refine_ls_R_factor_gt 0.0354
_refine_ls_wR_factor_gt 0.0354
_symmetry_cell_setting monoclinic
_symmetry_space_group_name_H-M 'P 21'
_symmetry_Int_Tables_number 4
loop_
_symmetry_equiv_pos_site_id
_symmetry_equiv_pos_as_xyz
1 x,y,z
2 -x,1/2+y,-z
_cell_length_a 8.912(3)
_cell_length_b 7.316(3)
_cell_length_c 24.899(5)
_cell_angle_alpha 90
_cell_angle_beta 98.93(5)
_cell_angle_gamma 90
_cell_formula_units_Z 2
loop_
_atom_type_symbol
_atom_type_radius_bond
C 0.68
H 0.23
N 0.68
O 0.68
loop_
_atom_site_label
_atom_site_type_symbol
_atom_site_fract_x
_atom_site_fract_y
_atom_site_fract_z
C1 C -0.48670 0.67220 0.17870
C2 C -0.37240 0.53370 0.20780
C3 C 0.08090 0.47870 0.24100
C4 C 0.18270 0.31900 0.26370
C5 C 0.13590 0.23060 0.31490
C6 C -0.03400 0.17890 0.30110
C7 C -0.06560 0.06210 0.34850
C8 C 0.08460 -0.04530 0.36460
C9 C 0.20310 0.03920 0.33190
C10 C 0.16230 0.36370 0.36320
C11 C -0.42120 0.34000 0.19290
C12 C -0.42370 0.86400 0.17400
C13 C 0.36690 0.02390 0.36260
C14 C 0.48320 0.10590 0.33040
C15 C 0.40620 -0.17600 0.37670
C16 C 0.55500 -0.21040 0.41500
C17 C 0.57800 -0.40970 0.42930
C18 C 0.71460 -0.46270 0.47150
C19 C 0.86320 -0.38470 0.45890
C20 C 0.72650 -0.66740 0.47850
C21 C -0.26970 0.85910 0.15470
C22 C -0.22300 0.63270 0.02480
C23 C -0.28530 0.46320 0.03400
C24 C -0.29720 0.33310 -0.00650
C25 C -0.25220 0.36640 -0.05670
C26 C -0.19210 0.53680 -0.06430
C27 C -0.17540 0.66920 -0.02500
C28 C -0.20470 0.77730 0.06720
C29 C -0.15120 0.76290 0.19580
C30 C -0.20270 0.58680 0.21870
C31 C -0.29880 0.58150 0.26560
C32 C -0.23780 0.43040 0.30120
C33 C -0.12740 0.33860 0.28120
C34 C -0.08950 0.42910 0.23060
H1 H 0.10900 0.51300 0.20400
H2 H 0.09800 0.59000 0.27100
H3 H -0.52100 0.62100 0.13900
H4 H 0.17200 0.22300 0.23100
H5 H 0.29200 0.36800 0.27200
H6 H -0.04700 0.10400 0.27000
H7 H -0.08100 0.14100 0.37700
H8 H -0.15000 -0.03200 0.33700
H9 H 0.12300 -0.03600 0.40600
H10 H 0.07000 -0.17300 0.35800
H11 H 0.19100 -0.02800 0.29700
H12 H 0.15300 0.29700 0.39800
H13 H 0.09600 0.48200 0.35500
H14 H 0.26300 0.40500 0.36900
H15 H -0.35900 0.25000 0.21800
H16 H -0.42300 0.31900 0.15600
H17 H -0.53100 0.33700 0.19800
H18 H 0.37500 0.09400 0.40000
H19 H -0.49300 0.92600 0.14800
H20 H 0.46900 0.04600 0.29500
H21 H 0.46500 0.23700 0.32700
H22 H 0.58500 0.07900 0.35100
H23 H -0.41700 0.91500 0.21000
H24 H 0.40000 -0.23800 0.34200
H25 H 0.31800 -0.22800 0.39200
H26 H 0.64100 -0.16100 0.39900
H27 H 0.55900 -0.14300 0.45100
H28 H 0.48800 -0.46000 0.44100
H29 H 0.57800 -0.48500 0.39400
H30 H 0.70300 -0.39300 0.51000
H31 H 0.95600 -0.42500 0.49000
H32 H 0.88300 -0.42100 0.41800
H33 H 0.86500 -0.23100 0.46000
H34 H 0.80400 -0.69100 0.50800
H35 H 0.62000 -0.71500 0.48400
H36 H 0.73900 -0.72300 0.44100
H37 H -0.23600 0.98600 0.14400
H38 H -0.31000 0.44700 0.06700
H39 H -0.26100 0.27100 -0.08400
H40 H -0.13600 0.79300 -0.03300
H41 H -0.06300 0.73900 0.17500
H42 H -0.11500 0.84000 0.22700
H43 H -0.32400 0.69700 0.28100
H44 H -0.27900 0.39000 0.33500
H45 H -0.09900 0.34600 0.19900
N1 N -0.36590 0.15400 0.00300
N2 N -0.14590 0.57650 -0.11740
O1 O -0.36790 0.03640 -0.03210
O2 O -0.41630 0.13430 0.04600
O3 O -0.29180 0.74650 0.10540
O4 O -0.12000 0.90780 0.06690
O5 O -0.17030 0.46040 -0.15330
O6 O -0.08410 0.72320 -0.12260
#END
