
#######################################################################
#
#                 Cambridge Crystallographic Data Centre
#                                CCDC
#
#######################################################################
#
# If this CIF has been generated from an entry in the Cambridge
# Structural Database, then it will include bibliographic, chemical,
# crystal, experimental, refinement or atomic coordinate data resulting
# from the CCDC's data processing and validation procedures.
#
#######################################################################

data_CSD_CIF_TOXDUH
_audit_creation_date 2014-12-23
_audit_creation_method CSD-ConQuest-V1
_database_code_CSD TOXDUH
_database_code_depnum_ccdc_archive 'CCDC 1029168'
_chemical_formula_sum 'C19 H17 N1 O3'
_chemical_formula_moiety
;
C19 H17 N1 O3
;
_journal_coden_Cambridge 179
_journal_volume 54
_journal_year 2015
_journal_page_first 2788
_journal_name_full 'Angew.Chem.,Int.Ed. '
loop_
_publ_author_name
"T.Hellmuth"
"Wolfgang Frey"
"R.Peters"
_chemical_name_systematic
;
4-(3-oxobutyl)-3,4-diphenyl-1,2-oxazol-5(4H)-one
;
_cell_volume   1581.800
_exptl_crystal_colour 'colorless'
_exptl_crystal_density_diffrn 1.291
_exptl_special_details
;
Absolute configuration

;
_exptl_crystal_description 'block'
_diffrn_ambient_temperature 100
#These two values have been output from a single CSD field.
_refine_ls_R_factor_gt 0.0331
_refine_ls_wR_factor_gt 0.0331
_symmetry_cell_setting orthorhombic
_symmetry_space_group_name_H-M 'P 21 21 21'
_symmetry_Int_Tables_number 19
loop_
_symmetry_equiv_pos_site_id
_symmetry_equiv_pos_as_xyz
1 x,y,z
2 1/2-x,-y,1/2+z
3 -x,1/2+y,1/2-z
4 1/2+x,1/2-y,-z
_cell_length_a 8.3642(6)
_cell_length_b 8.8725(7)
_cell_length_c 21.3148(16)
_cell_angle_alpha 90
_cell_angle_beta 90
_cell_angle_gamma 90
_cell_formula_units_Z 4
loop_
_atom_type_symbol
_atom_type_radius_bond
C 0.68
H 0.23
N 0.68
O 0.68
loop_
_atom_site_label
_atom_site_type_symbol
_atom_site_fract_x
_atom_site_fract_y
_atom_site_fract_z
O1 O 0.61990(12) 0.55720(11) 0.88795(4)
N1 N 0.75648(14) 0.82494(13) 0.99136(5)
C1 C 0.66530(15) 0.67024(15) 0.91263(6)
O2 O 0.68599(12) 0.68049(11) 0.97615(4)
C2 C 0.71176(15) 0.82066(15) 0.88282(6)
O3 O 1.07399(13) 0.65743(14) 0.75810(4)
C3 C 0.77333(16) 0.90091(15) 0.94037(5)
C4 C 0.85008(16) 1.04963(14) 0.94197(6)
C5 C 0.92915(17) 1.09606(15) 0.99649(6)
H1 H 0.92850 1.03330 1.03260
C6 C 1.00802(18) 1.23247(17) 0.99812(6)
H2 H 1.06240 1.26280 1.03510
C7 C 1.00814(19) 1.32580(16) 0.94568(7)
H3 H 1.06250 1.41970 0.94690
C8 C 0.92890(18) 1.28158(16) 0.89176(6)
H4 H 0.92860 1.34570 0.85610
C9 C 0.84957(16) 1.14360(15) 0.88945(6)
H5 H 0.79540 1.11360 0.85230
C10 C 0.84106(15) 0.78875(15) 0.83319(6)
H6 H 0.79760 0.71840 0.80140
H7 H 0.86890 0.88400 0.81160
C11 C 0.99131(17) 0.72117(16) 0.86159(6)
H8 H 1.04740 0.80010 0.88600
H9 H 0.96010 0.64030 0.89120
C12 C 1.10580(16) 0.65664(15) 0.81367(6)
C13 C 1.25697(17) 0.58913(16) 0.83837(7)
H10 H 1.24180 0.48070 0.84490
H11 H 1.28480 0.63710 0.87830
H12 H 1.34340 0.60530 0.80810
C14 C 0.55863(17) 0.89448(14) 0.85791(6)
C15 C 0.44592(17) 0.95041(16) 0.90006(6)
H13 H 0.46580 0.94340 0.94380
C16 C 0.30555(17) 1.01592(16) 0.87921(7)
H14 H 0.23110 1.05520 0.90860
C17 C 0.27331(18) 1.02429(17) 0.81537(7)
H15 H 0.17720 1.06940 0.80080
C18 C 0.38342(19) 0.96588(18) 0.77319(6)
H16 H 0.36150 0.96970 0.72950
C19 C 0.52486(18) 0.90211(16) 0.79398(6)
H17 H 0.59940 0.86330 0.76450
#END
