
#######################################################################
#
#                 Cambridge Crystallographic Data Centre
#                                CCDC
#
#######################################################################
#
# If this CIF has been generated from an entry in the Cambridge
# Structural Database, then it will include bibliographic, chemical,
# crystal, experimental, refinement or atomic coordinate data resulting
# from the CCDC's data processing and validation procedures.
#
#######################################################################

data_CSD_CIF_TOXDOB
_audit_creation_date 2014-12-23
_audit_creation_method CSD-ConQuest-V1
_database_code_CSD TOXDOB
_database_code_depnum_ccdc_archive 'CCDC 1029165'
_chemical_formula_sum 'C15 H17 N1 O3'
_chemical_formula_moiety
;
C15 H17 N1 O3
;
_journal_coden_Cambridge 179
_journal_volume 54
_journal_year 2015
_journal_page_first 2788
_journal_name_full 'Angew.Chem.,Int.Ed. '
loop_
_publ_author_name
"T.Hellmuth"
"Wolfgang Frey"
"R.Peters"
_chemical_name_systematic
;
4-benzyl-3-methyl-4-(3-oxobutyl)-1,2-oxazol-5(4H)-one
;
_cell_volume   1357.146
_exptl_crystal_colour 'colorless'
_exptl_crystal_density_diffrn 1.269
_exptl_special_details
;
Absolute configuration

;
_exptl_crystal_description 'irregular'
_diffrn_ambient_temperature 100
#These two values have been output from a single CSD field.
_refine_ls_R_factor_gt 0.0254
_refine_ls_wR_factor_gt 0.0254
_symmetry_cell_setting orthorhombic
_symmetry_space_group_name_H-M 'P 21 21 21'
_symmetry_Int_Tables_number 19
loop_
_symmetry_equiv_pos_site_id
_symmetry_equiv_pos_as_xyz
1 x,y,z
2 1/2-x,-y,1/2+z
3 -x,1/2+y,1/2-z
4 1/2+x,1/2-y,-z
_cell_length_a 8.3521(9)
_cell_length_b 10.0009(11)
_cell_length_c 16.2477(17)
_cell_angle_alpha 90
_cell_angle_beta 90
_cell_angle_gamma 90
_cell_formula_units_Z 4
loop_
_atom_type_symbol
_atom_type_radius_bond
C 0.68
H 0.23
N 0.68
O 0.68
loop_
_atom_site_label
_atom_site_type_symbol
_atom_site_fract_x
_atom_site_fract_y
_atom_site_fract_z
O1 O 0.58964(12) 0.31327(10) 0.49273(6)
C1 C 0.52871(15) 0.32596(13) 0.42631(8)
N1 N 0.39736(14) 0.26542(11) 0.30728(7)
O2 O 0.47239(13) 0.21886(9) 0.38332(6)
C2 C 0.50092(14) 0.45106(11) 0.37605(7)
O3 O 0.23391(11) 0.68861(9) 0.54660(5)
C3 C 0.41156(14) 0.39195(12) 0.30465(7)
C4 C 0.34021(15) 0.46948(15) 0.23576(7)
H1 H 0.29730 0.40770 0.19450
H2 H 0.42270 0.52580 0.21050
H3 H 0.25360 0.52600 0.25690
C5 C 0.40404(15) 0.55440(11) 0.42523(7)
H4 H 0.46580 0.57940 0.47490
H5 H 0.39150 0.63590 0.39120
C6 C 0.23883(15) 0.50704(12) 0.45190(7)
H6 H 0.17010 0.49750 0.40260
H7 H 0.24880 0.41780 0.47780
C7 C 0.15903(15) 0.60132(11) 0.51180(7)
C8 C -0.01639(14) 0.58184(12) 0.52585(7)
H8 H -0.04510 0.61540 0.58060
H9 H -0.04220 0.48640 0.52230
H10 H -0.07680 0.63090 0.48390
C9 C 0.66385(14) 0.51255(12) 0.35013(7)
H11 H 0.64260 0.59240 0.31580
H12 H 0.72020 0.54310 0.40030
C10 C 0.77449(13) 0.42048(12) 0.30296(7)
C11 C 0.78344(14) 0.42798(12) 0.21712(7)
H13 H 0.71880 0.49070 0.18840
C12 C 0.88593(15) 0.34458(13) 0.17353(8)
H14 H 0.89070 0.35040 0.11520
C13 C 0.98112(15) 0.25304(13) 0.21466(8)
H15 H 1.05120 0.19610 0.18470
C14 C 0.97366(16) 0.24486(13) 0.29990(8)
H16 H 1.03880 0.18220 0.32840
C15 C 0.87138(14) 0.32787(13) 0.34346(7)
H17 H 0.86720 0.32160 0.40180
#END
