
#######################################################################
#
#                 Cambridge Crystallographic Data Centre
#                                CCDC
#
#######################################################################
#
# If this CIF has been generated from an entry in the Cambridge
# Structural Database, then it will include bibliographic, chemical,
# crystal, experimental, refinement or atomic coordinate data resulting
# from the CCDC's data processing and validation procedures.
#
#######################################################################

data_CSD_CIF_TOYBAK
_audit_creation_date 1997-05-19
_audit_creation_method CSD-ConQuest-V1
_database_code_CSD TOYBAK
_database_code_depnum_ccdc_journal 1003/5030
_chemical_formula_sum 'C12 H14 N2 O3'
_chemical_formula_moiety
;
C12 H14 N2 O3
;
_journal_coden_Cambridge 1003
_journal_volume 26
_journal_year 1996
_journal_page_first 407
_journal_name_full 'J.Chem.Cryst. '
loop_
_publ_author_name
"R.P.Sharma"
"P.Singh"
"K.K.Bhasin"
"M.Quiros"
"J.M.Salas"
"J.F.Hansen"
_chemical_name_systematic
;
(EZ)-4-p-Methoxyphenylimino-3-hydroxyimino-2-pentanone
;
_chemical_melting_point 428.15
_cell_volume   1223.878
_exptl_crystal_colour 'greenish-white'
_exptl_crystal_density_diffrn 1.271
_exptl_special_details
;
Melting point range 428.15-430.15K

;
_diffrn_ambient_temperature ?
_diffrn_special_details
;
The study was carried out at room temperature,in the range 283-303K

;
#These two values have been output from a single CSD field.
_refine_ls_R_factor_gt 0.051
_refine_ls_wR_factor_gt 0.051
_symmetry_cell_setting orthorhombic
_symmetry_space_group_name_H-M 'P 21 21 21'
_symmetry_Int_Tables_number 19
loop_
_symmetry_equiv_pos_site_id
_symmetry_equiv_pos_as_xyz
1 x,y,z
2 1/2-x,-y,1/2+z
3 1/2+x,1/2-y,-z
4 -x,1/2+y,1/2-z
_cell_length_a 7.2294(7)
_cell_length_b 11.540(1)
_cell_length_c 14.670(2)
_cell_angle_alpha 90
_cell_angle_beta 90
_cell_angle_gamma 90
_cell_formula_units_Z 4
loop_
_atom_type_symbol
_atom_type_radius_bond
C 0.68
N 0.68
O 0.68
loop_
_atom_site_label
_atom_site_type_symbol
_atom_site_fract_x
_atom_site_fract_y
_atom_site_fract_z
C1 C 0.6370(6) 0.4545(4) 0.1540(3)
C2 C 0.4539(5) 0.4915(3) 0.1921(3)
N1 N 0.3868(4) 0.4425(2) 0.2630(2)
O1 O -0.2915(4) 0.5646(3) 0.4165(2)
C3 C 0.3528(5) 0.5831(3) 0.1388(2)
N2 N 0.3913(4) 0.6914(2) 0.1395(2)
O2 O 0.5338(4) 0.7156(2) 0.2002(2)
C4 C 0.1998(6) 0.5436(3) 0.0782(3)
O3 O 0.1660(6) 0.4403(3) 0.0752(3)
C5 C 0.0968(7) 0.6293(4) 0.0231(3)
C6 C 0.2165(5) 0.4797(3) 0.3009(3)
C7 C 0.0815(6) 0.3968(3) 0.3204(3)
C8 C -0.0841(6) 0.4273(3) 0.3590(3)
C9 C -0.1217(5) 0.5435(3) 0.3794(3)
C10 C 0.0117(6) 0.6269(3) 0.3618(3)
C11 C 0.1789(6) 0.5950(3) 0.3235(2)
C12 C -0.3425(7) 0.6811(3) 0.4330(3)
#END
