
#######################################################################
#
#                 Cambridge Crystallographic Data Centre
#                                CCDC
#
#######################################################################
#
# If this CIF has been generated from an entry in the Cambridge
# Structural Database, then it will include bibliographic, chemical,
# crystal, experimental, refinement or atomic coordinate data resulting
# from the CCDC's data processing and validation procedures.
#
#######################################################################

data_CSD_CIF_TOYHIA
_audit_creation_date 2014-12-23
_audit_creation_method CSD-ConQuest-V1
_database_code_CSD TOYHIA
_database_code_depnum_ccdc_archive 'CCDC 1032943'
_chemical_formula_sum 'C13 H17 N1 O4'
_chemical_formula_moiety
;
C13 H17 N1 O4
;
_journal_coden_Cambridge 177
_journal_volume 13
_journal_year 2015
_journal_page_first 1643
_journal_name_full 'Org.Biomol.Chem. '
loop_
_publ_author_name
"Jun Xuan"
"Saiyong Pan"
"Yuanbao Zhang"
"Bin Ye"
"Hanfeng Ding"
_chemical_name_systematic
;
6-(methoxymethoxy)-4,5,5a,6,9,9b-hexahydro-2-oxa-1-azabenzo[cd]azulen-3(2aH)-o
ne
;
_cell_volume   1271.074
_exptl_crystal_colour 'yellow'
_exptl_crystal_density_diffrn 1.313
_exptl_crystal_description 'platelet'
_diffrn_ambient_temperature 296
#These two values have been output from a single CSD field.
_refine_ls_R_factor_gt 0.062
_refine_ls_wR_factor_gt 0.062
_symmetry_cell_setting monoclinic
_symmetry_space_group_name_H-M 'C c'
_symmetry_Int_Tables_number 9
loop_
_symmetry_equiv_pos_site_id
_symmetry_equiv_pos_as_xyz
1 x,y,z
2 x,-y,1/2+z
3 1/2+x,1/2+y,z
4 1/2+x,1/2-y,1/2+z
_cell_length_a 7.4735(6)
_cell_length_b 23.4154(11)
_cell_length_c 7.4325(7)
_cell_angle_alpha 90
_cell_angle_beta 102.242(3)
_cell_angle_gamma 90
_cell_formula_units_Z 4
loop_
_atom_type_symbol
_atom_type_radius_bond
C 0.68
H 0.23
N 0.68
O 0.68
loop_
_atom_site_label
_atom_site_type_symbol
_atom_site_fract_x
_atom_site_fract_y
_atom_site_fract_z
C1 C 0.4657(7) 0.29586(19) 0.7727(8)
C2 C 0.2873(8) 0.3255(2) 0.7584(8)
H1 H 0.27510 0.33930 0.87820
H2 H 0.18690 0.29950 0.71210
C3 C 0.2854(7) 0.37560(19) 0.6246(6)
H3 H 0.17600 0.39830 0.62010
H4 H 0.39090 0.39980 0.66860
C4 C 0.2894(5) 0.35419(16) 0.4321(6)
H5 H 0.17540 0.33280 0.39020
C5 C 0.2865(5) 0.40304(18) 0.2923(5)
H6 H 0.30310 0.38680 0.17540
C6 C 0.4327(8) 0.4466(2) 0.3562(7)
H7 H 0.39810 0.48250 0.39080
C7 C 0.610(1) 0.4366(4) 0.3659(10)
H8 H 0.69200 0.46640 0.40190
C8 C 0.6854(8) 0.3800(4) 0.3221(10)
H9 H 0.63960 0.37170 0.19270
H10 H 0.81760 0.38280 0.34280
C9 C 0.6376(6) 0.3320(3) 0.4322(7)
C10 C 0.4470(6) 0.3114(2) 0.4293(6)
H11 H 0.40980 0.28830 0.31760
C11 C 0.4914(8) 0.2696(2) 0.5911(9)
H12 H 0.41300 0.23580 0.56320
C12 C 0.0639(9) 0.46524(19) 0.1152(7)
H13 H 0.15710 0.49470 0.12800
H14 H -0.05190 0.48370 0.11660
C13 C -0.0977(9) 0.3996(3) -0.0990(9)
H15 H -0.09920 0.38220 -0.21630
H16 H -0.20980 0.42020 -0.10430
H17 H -0.08570 0.37050 -0.00620
N1 N 0.7622(7) 0.2998(4) 0.5214(8)
O1 O 0.5871(6) 0.29369(19) 0.9087(6)
O2 O 0.6761(7) 0.2537(3) 0.5998(8)
O3 O 0.1072(4) 0.42780(12) 0.2657(4)
O4 O 0.0512(6) 0.43754(15) -0.0554(5)
#END
