
#######################################################################
#
#                 Cambridge Crystallographic Data Centre
#                                CCDC
#
#######################################################################
#
# If this CIF has been generated from an entry in the Cambridge
# Structural Database, then it will include bibliographic, chemical,
# crystal, experimental, refinement or atomic coordinate data resulting
# from the CCDC's data processing and validation procedures.
#
#######################################################################

data_CSD_CIF_TOYYAH
_audit_creation_date 1997-05-19
_audit_creation_method CSD-ConQuest-V1
_database_code_CSD TOYYAH
_database_code_depnum_ccdc_archive 'CCDC 131624'
_chemical_formula_sum 'C13 H11 N3 O4'
_chemical_formula_moiety
;
C13 H11 N3 O4
;
_journal_coeditor_code "IUCr DE0002"
_journal_coden_Cambridge 622
_journal_volume 53
_journal_year 1997
_journal_page_first 306
_journal_name_full 'Acta Crystallogr.,Sect.B:Struct.Sci. '
loop_
_publ_author_name
"S.Khatib"
"M.Botoshansky"
"Y.Eichen"
_chemical_name_systematic
;
2-(2,4-Dinitrobenzyl)-4-methylpyridine
;
_cell_volume   1283.711
_exptl_crystal_colour 'colorless'
_exptl_crystal_density_diffrn 1.414
_diffrn_ambient_temperature ?
_diffrn_special_details
;
The study was carried out at room temperature,in the range 283-303K

;
#These two values have been output from a single CSD field.
_refine_ls_R_factor_gt 0.0566
_refine_ls_wR_factor_gt 0.0566
_symmetry_cell_setting monoclinic
_symmetry_space_group_name_H-M 'P 21/c'
_symmetry_Int_Tables_number 14
loop_
_symmetry_equiv_pos_site_id
_symmetry_equiv_pos_as_xyz
1 x,y,z
2 -x,1/2+y,1/2-z
3 -x,-y,-z
4 x,-1/2-y,-1/2+z
_cell_length_a 11.210(3)
_cell_length_b 15.181(4)
_cell_length_c 7.734(2)
_cell_angle_alpha 90
_cell_angle_beta 102.75(3)
_cell_angle_gamma 90
_cell_formula_units_Z 4
loop_
_atom_type_symbol
_atom_type_radius_bond
C 0.68
H 0.23
N 0.68
O 0.68
loop_
_atom_site_label
_atom_site_type_symbol
_atom_site_fract_x
_atom_site_fract_y
_atom_site_fract_z
C1 C 0.2951(4) 0.5585(3) 0.4277(5)
C2 C 0.3437(4) 0.4916(3) 0.5374(5)
C3 C 0.3610(3) 0.4101(3) 0.4675(5)
C4 C 0.3284(3) 0.4030(3) 0.2848(5)
C5 C 0.2816(3) 0.4737(2) 0.1820(5)
C6 C 0.2501(4) 0.4639(3) -0.0177(5)
C7 C 0.1793(3) 0.5377(2) -0.1216(4)
C8 C 0.0617(4) 0.5209(3) -0.2231(5)
C9 C -0.0066(4) 0.5845(3) -0.3265(5)
C10 C 0.0401(3) 0.6679(2) -0.3263(5)
C11 C 0.1528(3) 0.6899(2) -0.2251(5)
C12 C 0.2203(3) 0.6243(2) -0.1276(4)
C13 C 0.4117(6) 0.3343(4) 0.5848(8)
N1 N 0.2620(3) 0.5516(2) 0.2499(4)
N2 N 0.3423(3) 0.6502(2) -0.0277(4)
N3 N -0.0319(3) 0.7365(3) -0.4355(5)
O1 O 0.3525(3) 0.7219(2) 0.0468(4)
O2 O 0.4273(3) 0.6001(2) -0.0256(4)
O3 O 0.0004(3) 0.8125(2) -0.4087(5)
O4 O -0.1179(4) 0.7132(3) -0.5517(6)
H1 H 0.2820(39) 0.6123(29) 0.4684(58)
H2 H 0.3723(35) 0.5039(25) 0.6592(58)
H3 H 0.3367(38) 0.3460(29) 0.2314(54)
H4 H 0.3290(45) 0.4621(28) -0.0542(60)
H5 H 0.2085(36) 0.4101(27) -0.0501(51)
H6 H 0.0322(37) 0.4606(29) -0.2225(51)
H7 H -0.0847(46) 0.5738(29) -0.3919(64)
H8 H 0.1882(35) 0.7496(28) -0.2243(51)
H9 H 0.3553(71) 0.3146(43) 0.669(10)
H10 H 0.4858(71) 0.3324(46) 0.6137(95)
H11 H 0.4158(61) 0.2818(46) 0.5177(94)
#END
