
#######################################################################
#
#                 Cambridge Crystallographic Data Centre
#                                CCDC
#
#######################################################################
#
# If this CIF has been generated from an entry in the Cambridge
# Structural Database, then it will include bibliographic, chemical,
# crystal, experimental, refinement or atomic coordinate data resulting
# from the CCDC's data processing and validation procedures.
#
#######################################################################

data_CSD_CIF_TOZYUE
_audit_creation_date 2014-12-29
_audit_creation_method CSD-ConQuest-V1
_database_code_CSD TOZYUE
_database_code_depnum_ccdc_archive 'CCDC 948980'
_chemical_formula_sum 'C19 H14 N2 O6'
_chemical_formula_moiety
;
C19 H14 N2 O6
;
_journal_coden_Cambridge 261
_journal_volume 18
_journal_year 2015
_journal_page_first 391
_journal_name_full 'Comptes Rendus Chimie '
loop_
_publ_author_name
"H.A.Rudbari"
"M.R.Farsani"
"S.Lanza"
"G.Bruno"
"B.Yadollahi"
_chemical_name_systematic
;
4-Methyl-1,2-bis(2-nitrophenoxy)benzene
;
_cell_volume   1755.146
_exptl_crystal_colour 'white'
_exptl_crystal_density_diffrn 1.386
_exptl_crystal_description 'irregular'
_diffrn_ambient_temperature 298
#These two values have been output from a single CSD field.
_refine_ls_R_factor_gt 0.09
_refine_ls_wR_factor_gt 0.09
_symmetry_cell_setting monoclinic
_symmetry_space_group_name_H-M 'P 21/n'
_symmetry_Int_Tables_number 14
loop_
_symmetry_equiv_pos_site_id
_symmetry_equiv_pos_as_xyz
1 x,y,z
2 1/2-x,1/2+y,1/2-z
3 -x,-y,-z
4 -1/2+x,-1/2-y,-1/2+z
_cell_length_a 8.1781(4)
_cell_length_b 15.7816(8)
_cell_length_c 13.7018(7)
_cell_angle_alpha 90
_cell_angle_beta 97.020(2)
_cell_angle_gamma 90
_cell_formula_units_Z 4
loop_
_atom_type_symbol
_atom_type_radius_bond
C 0.68
H 0.23
N 0.68
O 0.68
loop_
_atom_site_label
_atom_site_type_symbol
_atom_site_fract_x
_atom_site_fract_y
_atom_site_fract_z
O1 O 0.0050(3) 0.2756(2) 0.2067(3)
O2 O -0.0275(4) 0.3127(2) 0.0079(3)
O3 O 0.2161(5) 0.1022(3) -0.0307(5)
O4 O 0.2121(5) 0.2311(3) -0.0622(4)
O5 O -0.0052(8) 0.1080(3) 0.1903(4)
N1 N 0.1432(5) 0.1670(3) -0.0441(3)
O6 O 0.1868(7) 0.0544(3) 0.2843(4)
C1 C 0.5078(7) 0.2386(5) 0.2161(4)
H1 H 0.62040 0.22950 0.21760
C2 C 0.4063(8) 0.1733(4) 0.2325(4)
H2 H 0.45000 0.11990 0.24790
C3 C 0.2377(6) 0.1863(3) 0.2263(3)
C4 C 0.1706(5) 0.2659(3) 0.2070(3)
C5 C -0.0659(5) 0.3512(3) 0.1729(3)
C6 C -0.0895(5) 0.3682(3) 0.0731(4)
C7 C -0.1142(5) 0.2382(3) -0.0117(3)
C8 C -0.0345(5) 0.1678(3) -0.0397(3)
C9 C -0.1170(6) 0.0913(3) -0.0600(4)
H3 H -0.06110 0.04350 -0.07780
C10 C -0.2840(7) 0.0885(4) -0.0530(4)
H4 H -0.34210 0.03840 -0.06710
C11 C -0.3626(6) 0.1575(4) -0.0259(4)
H5 H -0.47490 0.15440 -0.02110
C12 C -0.2817(5) 0.2328(4) -0.0053(4)
H6 H -0.33900 0.27990 0.01300
N2 N 0.1369(8) 0.1129(3) 0.2384(4)
C13 C 0.4428(6) 0.3186(4) 0.1972(4)
H7 H 0.51250 0.36330 0.18620
C14 C 0.2755(5) 0.3330(3) 0.1943(4)
H8 H 0.23350 0.38740 0.18390
C15 C -0.1237(5) 0.4070(3) 0.2382(4)
H9 H -0.10950 0.39490 0.30520
C16 C -0.2023(6) 0.4803(3) 0.2046(4)
H10 H -0.24000 0.51780 0.24920
C17 C -0.2253(6) 0.4985(3) 0.1065(5)
C18 C -0.1685(6) 0.4425(3) 0.0396(4)
H11 H -0.18330 0.45490 -0.02720
C19 C -0.3182(10) 0.5776(5) 0.0681(7)
H12 H -0.38060 0.59920 0.11750
H13 H -0.39150 0.56370 0.01010
H14 H -0.24100 0.61980 0.05230
#END
