
#######################################################################
#
#                 Cambridge Crystallographic Data Centre
#                                CCDC
#
#######################################################################
#
# If this CIF has been generated from an entry in the Cambridge
# Structural Database, then it will include bibliographic, chemical,
# crystal, experimental, refinement or atomic coordinate data resulting
# from the CCDC's data processing and validation procedures.
#
#######################################################################

data_CSD_CIF_TPIFCB
_audit_creation_date 1977-07-22
_audit_creation_method CSD-ConQuest-V1
_database_code_CSD TPIFCB
_chemical_formula_sum 'C19 H34 N2 O5'
_chemical_formula_moiety
;
C19 H34 N2 O5
;
_journal_coden_Cambridge 82
_journal_volume 17
_journal_year 1976
_journal_page_first 876
_journal_name_full 'Zh.Strukt.Khim.(Russ.)(J.Struct.Chem.) '
loop_
_publ_author_name
"R.P.Shibaeva"
"R.M.Lobkovskaya"
"L.P.Rozenberg"
_chemical_name_systematic
;
Carbonic acid di(4-hydroxy-2,2,6,6-tetramethylpiperidin-1-oxyl) ester
;
_cell_volume   4244.235
_exptl_crystal_density_diffrn 1.17
_diffrn_ambient_temperature ?
_diffrn_special_details
;
The study was carried out at room temperature,in the range 283-303K

;
#These two values have been output from a single CSD field.
_refine_ls_R_factor_gt 0.047
_refine_ls_wR_factor_gt 0.047
_symmetry_cell_setting orthorhombic
_symmetry_space_group_name_H-M 'P b c a'
_symmetry_Int_Tables_number 61
loop_
_symmetry_equiv_pos_site_id
_symmetry_equiv_pos_as_xyz
1 x,y,z
2 1/2-x,1/2+y,z
3 x,1/2-y,1/2+z
4 1/2-x,-y,1/2+z
5 -x,-y,-z
6 -1/2+x,-1/2-y,-z
7 -x,-1/2+y,-1/2-z
8 -1/2+x,y,-1/2-z
_cell_length_a 22.703(6)
_cell_length_b 16.259(7)
_cell_length_c 11.498(2)
_cell_angle_alpha 90
_cell_angle_beta 90
_cell_angle_gamma 90
_cell_formula_units_Z 8
loop_
_atom_type_symbol
_atom_type_radius_bond
C 0.68
H 0.23
N 0.68
O 0.68
loop_
_atom_site_label
_atom_site_type_symbol
_atom_site_fract_x
_atom_site_fract_y
_atom_site_fract_z
O1 O 0.14330 0.14240 0.42840
O2 O 0.04890 0.10190 0.42520
O3 O 0.10380 0.06950 0.28170
O4 O -0.04690 0.17270 0.84870
O5 O 0.27260 0.03780 -0.05430
N1 N -0.02390 0.15580 0.74930
N2 N 0.23250 0.04670 0.02430
C1 C 0.10330 0.10800 0.38300
C2 C 0.03700 0.13920 0.53880
C3 C 0.04690 0.07650 0.63210
C4 C 0.03280 0.10990 0.75360
C5 C -0.04670 0.20540 0.64930
C6 C -0.02610 0.16510 0.53470
C7 C 0.02450 0.03860 0.83990
C8 C 0.08170 0.16720 0.79880
C9 C -0.11230 0.20880 0.65440
C10 C -0.01870 0.29410 0.66040
C11 C 0.16130 0.06060 0.22490
C12 C 0.15440 -0.01160 0.14490
C13 C 0.20980 -0.03050 0.07560
C14 C 0.22950 0.12870 0.07870
C15 C 0.17330 0.13510 0.15140
C16 C 0.25800 -0.06980 0.15270
C17 C 0.19490 -0.08980 -0.02270
C18 C 0.28500 0.14380 0.15450
C19 C 0.22820 0.19340 -0.01890
H2 H 0.06200 0.18300 0.54400
H3 H 0.01500 0.03000 0.61600
H31 H 0.09200 0.06100 0.63300
H6 H -0.04900 0.11500 0.52800
H61 H -0.03100 0.20200 0.46600
H7 H 0.00200 0.00300 0.80600
H71 H 0.02000 0.05500 0.91900
H72 H 0.06500 0.01600 0.83100
H8 H 0.06400 0.18800 0.87700
H81 H 0.11400 0.13400 0.79100
H82 H 0.08700 0.21300 0.74800
H9 H -0.12100 0.23200 0.73000
H91 H -0.12800 0.15400 0.64700
H92 H -0.11500 0.24400 0.59800
H10 H 0.02200 0.28800 0.65400
H101 H -0.03400 0.32500 0.59300
H102 H -0.03800 0.31600 0.73300
H11 H 0.19800 0.06200 0.28300
H12 H 0.12200 0.00100 0.09100
H121 H 0.14600 -0.05600 0.18900
H15 H 0.14200 0.14600 0.09200
H151 H 0.17600 0.18000 0.20200
H16 H 0.23800 -0.12300 0.15600
H161 H 0.29600 -0.07500 0.10100
H162 H 0.26500 -0.03300 0.21500
H17 H 0.17000 -0.06000 -0.07000
H171 H 0.22900 -0.10400 -0.05900
H172 H 0.17500 -0.13700 0.01300
H18 H 0.31300 0.12800 0.10700
H181 H 0.28100 0.19800 0.17800
H182 H 0.28800 0.09600 0.21600
H19 H 0.22800 0.24400 0.03000
H191 H 0.26800 0.18700 -0.05400
H192 H 0.19800 0.17800 -0.07300
#END
