
#######################################################################
#
#                 Cambridge Crystallographic Data Centre
#                                CCDC
#
#######################################################################
#
# If this CIF has been generated from an entry in the Cambridge
# Structural Database, then it will include bibliographic, chemical,
# crystal, experimental, refinement or atomic coordinate data resulting
# from the CCDC's data processing and validation procedures.
#
#######################################################################

data_CSD_CIF_TUBFEB
_audit_creation_date 1997-05-29
_audit_creation_method CSD-ConQuest-V1
_database_code_CSD TUBFEB
_database_code_depnum_ccdc_journal 179/91
_chemical_formula_sum 'C14 H20 N2 O4'
_chemical_formula_moiety
;
C14 H20 N2 O4
;
_journal_coden_Cambridge 179
_journal_volume 35
_journal_year 1996
_journal_page_first 2388
_journal_name_full 'Angew.Chem.,Int.Ed. '
loop_
_publ_author_name
"D.Enders"
"A.Haertwig"
"G.Raabe"
"J.Runsink"
_chemical_name_systematic
;
(R,S,R)-O-(1-Nitrobut-2-yl)-N-formylnorephedrine
;
_cell_volume    776.040
_exptl_crystal_colour 'colorless'
_exptl_crystal_density_diffrn 1.2
_diffrn_ambient_temperature ?
_diffrn_special_details
;
The study was carried out at room temperature,in the range 283-303K

;
#These two values have been output from a single CSD field.
_refine_ls_R_factor_gt 0.034
_refine_ls_wR_factor_gt 0.034
_symmetry_cell_setting monoclinic
_symmetry_space_group_name_H-M 'P 21'
_symmetry_Int_Tables_number 4
loop_
_symmetry_equiv_pos_site_id
_symmetry_equiv_pos_as_xyz
1 x,y,z
2 -x,1/2+y,-z
_cell_length_a 7.392(1)
_cell_length_b 8.984(6)
_cell_length_c 12.202(1)
_cell_angle_alpha 90
_cell_angle_beta 106.728(6)
_cell_angle_gamma 90
_cell_formula_units_Z 2
loop_
_atom_type_symbol
_atom_type_radius_bond
C 0.68
H 0.23
N 0.68
O 0.68
loop_
_atom_site_label
_atom_site_type_symbol
_atom_site_fract_x
_atom_site_fract_y
_atom_site_fract_z
O1 O 0.3845(2) 0.45633 0.7644(1)
O2 O -0.0611(4) 0.2469(4) 0.5213(3)
O3 O 0.6906(4) 0.4233(4) 1.0219(2)
O4 O 0.7474(4) 0.6359(4) 0.9601(3)
N1 N 0.6403(4) 0.5428(5) 0.9772(2)
N2 N 0.1378(4) 0.4420(4) 0.5292(2)
C1 C 0.4364(4) 0.5781(5) 0.9410(2)
C2 C 0.3234(4) 0.4580(5) 0.8657(2)
C3 C 0.3416(4) 0.3199(4) 0.7005(2)
C4 C 0.3118(5) 0.3584(5) 0.5745(2)
C5 C -0.0320(6) 0.3798(6) 0.5079(3)
C6 C 0.1116(4) 0.4875(6) 0.8382(3)
C7 C 0.0488(5) 0.6366(7) 0.7819(4)
C8 C 0.4741(5) 0.4442(7) 0.5531(3)
C9 C 0.4904(5) 0.2030(5) 0.7435(3)
C10 C 0.6793(5) 0.2362(5) 0.7883(3)
C11 C 0.8120(6) 0.1248(7) 0.8226(4)
C12 C 0.7577(8) -0.0225(7) 0.8148(4)
C13 C 0.5717(8) -0.0575(6) 0.7724(3)
C14 C 0.4357(5) 0.0540(5) 0.7380(3)
H1 H 0.31070 0.25820 0.53610
H2 H 0.21300 0.27490 0.70810
H3 H 0.35120 0.35420 0.90280
H4 H -0.14850 0.44770 0.47550
H5 H 0.28850 0.02600 0.70760
H6 H 0.52790 -0.16850 0.76500
H7 H 0.85640 -0.10300 0.83830
H8 H 0.95580 0.15180 0.86250
H9 H 0.72030 0.34640 0.78960
H10 H 0.03970 0.40910 0.78540
H11 H 0.07570 0.48630 0.91110
H12 H 0.40720 0.67520 0.89490
H13 H 0.38130 0.59170 1.00830
H14 H 0.14240 0.52340 0.59050
H15 H 0.49530 0.54430 0.59550
H16 H 0.60130 0.38900 0.58160
H17 H 0.46970 0.47370 0.47010
H18 H 0.12230 0.71800 0.83330
H19 H 0.08630 0.64080 0.70760
H20 H -0.08670 0.66080 0.76310
#END
