
#######################################################################
#
#                 Cambridge Crystallographic Data Centre
#                                CCDC
#
#######################################################################
#
# If this CIF has been generated from an entry in the Cambridge
# Structural Database, then it will include bibliographic, chemical,
# crystal, experimental, refinement or atomic coordinate data resulting
# from the CCDC's data processing and validation procedures.
#
#######################################################################

data_CSD_CIF_TUBSOA
_audit_creation_date 2014-12-30
_audit_creation_method CSD-ConQuest-V1
_database_code_CSD TUBSOA
_database_code_depnum_ccdc_archive 'CCDC 1018673'
_chemical_formula_sum 'C11 H12 N2 O6'
_chemical_formula_moiety
;
C11 H12 N2 O6
;
_journal_coden_Cambridge 315
_journal_volume 138
_journal_year 2015
_journal_page_first 569
_journal_name_full 'Spectrochim.Acta,Part A '
loop_
_publ_author_name
"M.Sirajuddin"
"Saqib Ali"
"V.McKee"
"H.Ullah"
_chemical_name_systematic
;
4-((4-methoxy-2-nitrophenyl)amino)-4-oxobutanoic acid
;
_cell_volume    581.351
_exptl_crystal_colour 'yellow'
_exptl_crystal_density_diffrn 1.532
_exptl_crystal_description 'plate'
_diffrn_ambient_temperature 150
#These two values have been output from a single CSD field.
_refine_ls_R_factor_gt 0.0473
_refine_ls_wR_factor_gt 0.0473
_symmetry_cell_setting triclinic
_symmetry_space_group_name_H-M 'P -1'
_symmetry_Int_Tables_number 2
loop_
_symmetry_equiv_pos_site_id
_symmetry_equiv_pos_as_xyz
1 x,y,z
2 -x,-y,-z
_cell_length_a 6.2331(17)
_cell_length_b 10.040(3)
_cell_length_c 10.283(3)
_cell_angle_alpha 71.388(4)
_cell_angle_beta 75.309(4)
_cell_angle_gamma 76.312(4)
_cell_formula_units_Z 2
loop_
_atom_type_symbol
_atom_type_radius_bond
C 0.68
H 0.23
N 0.68
O 0.68
loop_
_atom_site_label
_atom_site_type_symbol
_atom_site_fract_x
_atom_site_fract_y
_atom_site_fract_z
C1 C 0.2094(3) 1.00756(18) -0.37984(18)
O1 O 0.2773(2) 1.13119(13) -0.43983(14)
H1 H 0.1844(2) 1.19464(13) -0.40863(14)
O2 O 0.3150(2) 0.89769(13) -0.40704(14)
C2 C -0.0102(3) 1.01202(19) -0.27748(18)
H2 H -0.0358(3) 1.09583(19) -0.24114(18)
H3 H -0.1343(3) 1.02313(19) -0.32608(18)
C3 C -0.0134(3) 0.87751(19) -0.15589(18)
H4 H -0.1619(3) 0.88312(19) -0.09225(18)
H5 H 0.0086(3) 0.79380(19) -0.19185(18)
C4 C 0.1699(3) 0.85824(18) -0.07527(18)
O3 O 0.2736(2) 0.95337(13) -0.09217(13)
N1 N 0.2037(2) 0.72512(15) 0.01632(15)
H6 H 0.1163(2) 0.66646(15) 0.01952(15)
C5 C 0.3600(3) 0.67053(18) 0.10570(17)
C6 C 0.4861(3) 0.75910(18) 0.12630(18)
H7 H 0.4650(3) 0.85785(18) 0.07838(18)
C7 C 0.6389(3) 0.70629(19) 0.21393(19)
H8 H 0.7217(3) 0.76895(19) 0.22485(19)
C8 C 0.6743(3) 0.56245(19) 0.28689(18)
C9 C 0.5563(3) 0.47144(18) 0.26939(17)
H9 H 0.5801(3) 0.37281(18) 0.31752(17)
C10 C 0.4007(3) 0.52583(18) 0.17977(17)
O4 O 0.8279(2) 0.52226(13) 0.37248(14)
C11 C 0.8557(3) 0.37754(19) 0.4566(2)
H10 H 0.9695(3) 0.36217(19) 0.5128(2)
H11 H 0.7122(3) 0.35766(19) 0.5186(2)
H12 H 0.9044(3) 0.31358(19) 0.3959(2)
N2 N 0.2837(2) 0.41974(15) 0.16992(15)
O5 O 0.1384(2) 0.45829(13) 0.09599(14)
O6 O 0.3341(2) 0.29523(13) 0.23445(15)
#END
