
#######################################################################
#
#                 Cambridge Crystallographic Data Centre
#                                CCDC
#
#######################################################################
#
# If this CIF has been generated from an entry in the Cambridge
# Structural Database, then it will include bibliographic, chemical,
# crystal, experimental, refinement or atomic coordinate data resulting
# from the CCDC's data processing and validation procedures.
#
#######################################################################

data_CSD_CIF_TUBYIY
_audit_creation_date 1997-05-29
_audit_creation_method CSD-ConQuest-V1
_database_code_CSD TUBYIY
_chemical_formula_sum 'C3 H6 N2 O6'
_chemical_formula_moiety
;
C3 H6 N2 O6
;
_journal_coden_Cambridge 95
_journal_year 1996
_journal_page_first 1217
_journal_name_full 'Izv.Akad.Nauk SSSR,Ser.Khim.(Russ.)(Russ.Chem.Bull.) '
loop_
_publ_author_name
"B.S.Fedorov"
"N.I.Golovina"
"V.V.Arakcheeva"
"R.F.Trofimova"
"L.O.Atovmyan"
_chemical_name_systematic
;
2,2-Dintropropane-1,3-diol
;
_chemical_melting_point 412.15
_cell_volume    667.801
_exptl_crystal_density_diffrn 1.651
_exptl_special_details
;
Melting point range 412.15-413.15K
orthorhombic polymorph

;
_diffrn_ambient_temperature ?
_diffrn_special_details
;
The study was carried out at room temperature,in the range 283-303K

;
#These two values have been output from a single CSD field.
_refine_ls_R_factor_gt 0.058
_refine_ls_wR_factor_gt 0.058
_symmetry_cell_setting orthorhombic
_symmetry_space_group_name_H-M 'P 21 21 21'
_symmetry_Int_Tables_number 19
loop_
_symmetry_equiv_pos_site_id
_symmetry_equiv_pos_as_xyz
1 x,y,z
2 1/2-x,-y,1/2+z
3 1/2+x,1/2-y,-z
4 -x,1/2+y,1/2-z
_cell_length_a 9.767(2)
_cell_length_b 11.253(3)
_cell_length_c 6.076(2)
_cell_angle_alpha 90
_cell_angle_beta 90
_cell_angle_gamma 90
_cell_formula_units_Z 4
loop_
_atom_type_symbol
_atom_type_radius_bond
C 0.68
H 0.23
N 0.68
O 0.68
loop_
_atom_site_label
_atom_site_type_symbol
_atom_site_fract_x
_atom_site_fract_y
_atom_site_fract_z
O1 O 0.3841(2) 0.4228(2) 0.5509(3)
O2 O 0.3477(2) 0.4522(2) 1.1219(3)
O3 O 0.5939(3) 0.2824(3) 1.1988(5)
O4 O 0.4696(6) 0.1715(2) 1.0009(6)
O5 O 0.6975(4) 0.2881(4) 0.6927(7)
O6 O 0.6910(3) 0.4773(4) 0.7498(7)
N1 N 0.5273(3) 0.2633(3) 1.0382(5)
N2 N 0.6457(3) 0.3785(4) 0.7646(5)
C1 C 0.4026(3) 0.3295(3) 0.6993(5)
C2 C 0.5060(3) 0.3650(3) 0.8760(5)
C3 C 0.4704(3) 0.4750(2) 1.0022(5)
H1 H 0.4529(35) 0.5410(27) 0.9052(30)
H2 H 0.3747(35) 0.4333(35) 1.2714(98)
H3 H 0.4331(39) 0.2574(26) 0.6211(40)
H4 H 0.5431(40) 0.5027(22) 1.1076(94)
H5 H 0.3515(35) 0.4725(22) 0.5943(54)
H6 H 0.3090(35) 0.3190(22) 0.7800(55)
#END
