
#######################################################################
#
#                 Cambridge Crystallographic Data Centre
#                                CCDC
#
#######################################################################
#
# If this CIF has been generated from an entry in the Cambridge
# Structural Database, then it will include bibliographic, chemical,
# crystal, experimental, refinement or atomic coordinate data resulting
# from the CCDC's data processing and validation procedures.
#
#######################################################################

data_CSD_CIF_TUBYIY01
_audit_creation_date 2002-10-24
_audit_creation_method CSD-ConQuest-V1
_database_code_CSD TUBYIY01
_chemical_formula_sum 'C3 H6 N2 O6'
_chemical_formula_moiety
;
C3 H6 N2 O6
;
_journal_coden_Cambridge 208
_journal_volume 157
_journal_year 2001
_journal_page_first 296
_journal_name_full 'J.Solid State Chem. '
loop_
_publ_author_name
"N.I.Golovina"
"A.V.Raevskii"
"B.S.Fedorov"
"I.G.Gusakovskaya"
"R.F.Trofimova"
"N.V.Chukanov"
"S.A.Vozchikova"
"G.V.Shilov"
"V.P.Tarasov"
"L.N.Erofeev"
"L.O.Atovmyan"
_chemical_name_systematic
;
2,2-Dinitropropane-1,3-diol
;
_chemical_melting_point 410.5
_cell_volume    649.731
_exptl_crystal_colour 'colorless'
_exptl_crystal_density_diffrn 1.697
_exptl_special_details
;
Melting point range 410.5-412K
monoclinic polymorph
phase transition at 309K and 340K
;
_exptl_crystal_description 'needle'
_diffrn_ambient_temperature ?
_diffrn_special_details
;
The study was carried out at room temperature,in the range 283-303K

;
#These two values have been output from a single CSD field.
_refine_ls_R_factor_gt 0.064
_refine_ls_wR_factor_gt 0.064
_symmetry_cell_setting monoclinic
_symmetry_space_group_name_H-M 'P 21/n'
_symmetry_Int_Tables_number 14
loop_
_symmetry_equiv_pos_site_id
_symmetry_equiv_pos_as_xyz
1 x,y,z
2 1/2-x,1/2+y,1/2-z
3 -x,-y,-z
4 -1/2+x,-1/2-y,-1/2+z
_cell_length_a 11.774(5)
_cell_length_b 9.568(4)
_cell_length_c 5.802(2)
_cell_angle_alpha 90
_cell_angle_beta 96.25(7)
_cell_angle_gamma 90
_cell_formula_units_Z 4
loop_
_atom_type_symbol
_atom_type_radius_bond
C 0.68
H 0.23
N 0.68
O 0.68
loop_
_atom_site_label
_atom_site_type_symbol
_atom_site_fract_x
_atom_site_fract_y
_atom_site_fract_z
O1 O 0.8892(2) 0.4059(2) 0.6916(3)
O2 O 0.7208(2) 0.4234(2) 0.5094(4)
O3 O 0.7342(2) 0.2842(2) 0.0473(3)
O4 O 0.6621(2) 0.1446(3) 0.2810(5)
O5 O 0.9669(2) 0.1620(2) 0.1401(3)
O6 O 0.9611(2) 0.1001(2) 0.6831(3)
N1 N 0.8134(2) 0.3683(2) 0.5471(3)
N2 N 0.7365(2) 0.2226(2) 0.2295(4)
C1 C 0.9459(2) 0.2731(2) 0.2852(4)
C2 C 0.8406(2) 0.2417(2) 0.4072(4)
C3 C 0.8523(2) 0.1112(2) 0.5633(3)
H1 H 0.9881(30) 0.0909(30) 0.2227(70)
H2 H 0.9583(30) 0.1206(40) 0.8253(60)
H3 H 0.9333(30) 0.3574(40) 0.1954(40)
H4 H 1.0107(20) 0.2882(20) 0.3982(60)
H5 H 0.7961(20) 0.1149(30) 0.6725(50)
H6 H 0.8363(30) 0.0287(30) 0.4695(40)
#END
