
#######################################################################
#
#                 Cambridge Crystallographic Data Centre
#                                CCDC
#
#######################################################################
#
# If this CIF has been generated from an entry in the Cambridge
# Structural Database, then it will include bibliographic, chemical,
# crystal, experimental, refinement or atomic coordinate data resulting
# from the CCDC's data processing and validation procedures.
#
#######################################################################

data_CSD_CIF_TUCBOI
_audit_creation_date 1997-05-29
_audit_creation_method CSD-ConQuest-V1
_database_code_CSD TUCBOI
_chemical_formula_sum 'C13 H23 N1 O5'
_chemical_formula_moiety
;
C13 H23 N1 O5
;
_journal_coden_Cambridge 35
_journal_volume 61
_journal_year 1996
_journal_page_first 8578
_journal_name_full 'J.Org.Chem. '
loop_
_publ_author_name
"F.Busque"
"P.de March"
"M.Figueredo"
"J.Font"
"M.Monsalvatje"
"A.Virgili"
"A.Alvarez-Larena"
"J.F.Piniella"
_chemical_name_systematic
;
Methyl 
(2RS,3RS,3aRS)-2-((1RS)-1-hydroxy-3-methoxypropyl)-hexahydro-2H-isoxazolo(2,3-
a)pyridine-3-carboxylate
;
_chemical_melting_point 324.15
_cell_volume   2912.456
_exptl_crystal_colour 'colorless'
_exptl_crystal_density_diffrn 1.247
_exptl_special_details
;
Melting point range 324.15-325.15K

;
_diffrn_ambient_temperature ?
_diffrn_special_details
;
The study was carried out at room temperature,in the range 283-303K

;
#These two values have been output from a single CSD field.
_refine_ls_R_factor_gt 0.0518
_refine_ls_wR_factor_gt 0.0518
_symmetry_cell_setting monoclinic
_symmetry_space_group_name_H-M 'C 2/c'
_symmetry_Int_Tables_number 15
loop_
_symmetry_equiv_pos_site_id
_symmetry_equiv_pos_as_xyz
1 x,y,z
2 1/2+x,1/2+y,z
3 x,-y,1/2+z
4 1/2+x,1/2-y,1/2+z
5 -x,-y,-z
6 -1/2-x,-1/2-y,-z
7 -x,y,-1/2-z
8 -1/2-x,-1/2+y,-1/2-z
_cell_length_a 16.667(4)
_cell_length_b 10.325(3)
_cell_length_c 17.856(7)
_cell_angle_alpha 90
_cell_angle_beta 108.59(2)
_cell_angle_gamma 90
_cell_formula_units_Z 8
loop_
_atom_type_symbol
_atom_type_radius_bond
C 0.68
H 0.23
N 0.68
O 0.68
loop_
_atom_site_label
_atom_site_type_symbol
_atom_site_fract_x
_atom_site_fract_y
_atom_site_fract_z
C1 C 0.5892(2) 0.2717(2) 0.65633(14)
H1 H 0.6441(2) 0.2362(2) 0.65740(14)
O1 O 0.54290(11) 0.1726(2) 0.68094(9)
N1 N 0.45583(12) 0.1876(2) 0.62868(10)
C2 C 0.4108(2) 0.0673(2) 0.63098(14)
H2 H 0.4059(2) 0.0542(2) 0.68316(14)
H3 H 0.4409(2) -0.0057(2) 0.61853(14)
C3 C 0.3241(2) 0.0796(3) 0.5703(2)
H4 H 0.2930(2) 0.1475(3) 0.5866(2)
H5 H 0.2935(2) -0.0009(3) 0.5683(2)
C4 C 0.3279(2) 0.1106(3) 0.4885(2)
H6 H 0.2714(2) 0.1291(3) 0.4535(2)
H7 H 0.3491(2) 0.0357(3) 0.4678(2)
C5 C 0.3850(2) 0.2261(3) 0.49025(15)
H8 H 0.3926(2) 0.2374(3) 0.43899(15)
H9 H 0.3598(2) 0.3043(3) 0.50296(15)
C6 C 0.46933(15) 0.2006(2) 0.55241(13)
H10 H 0.49252(15) 0.1192(2) 0.53991(13)
C7 C 0.53785(14) 0.3038(2) 0.57018(13)
H11 H 0.51208(14) 0.3897(2) 0.56773(13)
C8 C 0.60458(15) 0.3889(2) 0.71001(14)
H12 H 0.55056(15) 0.4318(2) 0.70465(14)
O2 O 0.64383(13) 0.3520(2) 0.78992(11)
H13 H 0.6050(23) 0.3248(36) 0.8064(22)
C9 C 0.6629(2) 0.4825(3) 0.6870(2)
H14 H 0.7176(2) 0.4412(3) 0.6971(2)
H15 H 0.6401(2) 0.4981(3) 0.6306(2)
C10 C 0.6760(2) 0.6107(3) 0.7286(2)
H16 H 0.6947(2) 0.5975(3) 0.7854(2)
H17 H 0.7192(2) 0.6597(3) 0.7152(2)
O3 O 0.59962(13) 0.6786(2) 0.70522(13)
C11 C 0.6093(3) 0.8098(3) 0.7268(2)
H18 H 0.5556(4) 0.8527(7) 0.7073(15)
H19 H 0.6486(14) 0.8496(7) 0.7046(14)
H20 H 0.6304(17) 0.8168(3) 0.7834(2)
C12 C 0.5877(2) 0.2981(3) 0.5140(2)
O4 O 0.6317(2) 0.2122(3) 0.5096(2)
O5 O 0.57864(13) 0.3979(2) 0.46943(11)
C13 C 0.6209(2) 0.3957(4) 0.4097(2)
H21 H 0.6271(14) 0.4827(4) 0.3934(11)
H22 H 0.5877(8) 0.3463(20) 0.3650(6)
H23 H 0.6757(7) 0.3568(22) 0.4314(5)
#END
