
#######################################################################
#
#                 Cambridge Crystallographic Data Centre
#                                CCDC
#
#######################################################################
#
# If this CIF has been generated from an entry in the Cambridge
# Structural Database, then it will include bibliographic, chemical,
# crystal, experimental, refinement or atomic coordinate data resulting
# from the CCDC's data processing and validation procedures.
#
#######################################################################

data_CSD_CIF_TUCJOS
_audit_creation_date 2015-05-08
_audit_creation_method CSD-ConQuest-V1
_database_code_CSD TUCJOS
_database_code_depnum_ccdc_archive 'CCDC 927348'
_chemical_formula_sum 'C8 H5 N3 O4'
_chemical_formula_moiety
;
C8 H5 N3 O4
;
_journal_coden_Cambridge 448
_journal_volume 58
_journal_year 2013
_journal_page_first 1817
_journal_name_full 'J.Chil.Chem.Soc. '
loop_
_publ_author_name
"V.Kesternich"
"M.Perez-Fehrmann"
"S.Ortiz"
"F.Verdugo"
"I.Brito"
"M.Bolte"
"A.Cardenas"
_chemical_name_systematic
;
6-nitroquinazoline-2,4(1H,3H)-dione
;
_cell_volume    826.436
_exptl_crystal_colour 'colorless'
_exptl_crystal_density_diffrn 1.665
_exptl_crystal_description 'plate'
_diffrn_ambient_temperature 173
#These two values have been output from a single CSD field.
_refine_ls_R_factor_gt 0.0393
_refine_ls_wR_factor_gt 0.0393
_symmetry_cell_setting monoclinic
_symmetry_space_group_name_H-M 'P 21/c'
_symmetry_Int_Tables_number 14
loop_
_symmetry_equiv_pos_site_id
_symmetry_equiv_pos_as_xyz
1 x,y,z
2 -x,1/2+y,1/2-z
3 -x,-y,-z
4 x,-1/2-y,-1/2+z
_cell_length_a 10.9071(8)
_cell_length_b 6.5758(6)
_cell_length_c 12.4614(9)
_cell_angle_alpha 90
_cell_angle_beta 112.382(5)
_cell_angle_gamma 90
_cell_formula_units_Z 4
loop_
_atom_type_symbol
_atom_type_radius_bond
C 0.68
H 0.23
N 0.68
O 0.68
loop_
_atom_site_label
_atom_site_type_symbol
_atom_site_fract_x
_atom_site_fract_y
_atom_site_fract_z
N1 N 0.1518(1) 0.75860(16) 0.75533(9)
H1 H 0.1449(16) 0.814(3) 0.8177(15)
N2 N 0.09115(10) 0.76924(15) 0.55502(8)
H2 H 0.0487(19) 0.842(3) 0.4846(18)
N3 N 0.40329(11) 0.00993(17) 0.77501(10)
O1 O 0.02421(9) 1.01473(14) 0.64907(7)
O2 O 0.15749(10) 0.53203(14) 0.45753(8)
O3 O 0.38947(10) -0.07374(15) 0.68299(9)
O4 O 0.46539(12) -0.06533(18) 0.86999(9)
C1 C 0.08494(11) 0.85578(19) 0.65372(10)
C2 C 0.15482(11) 0.59228(18) 0.54979(10)
C3 C 0.21679(11) 0.48570(18) 0.6605(1)
C4 C 0.27830(11) 0.29871(19) 0.6648(1)
H3 H 0.27760 0.23580 0.59600
C5 C 0.34000(11) 0.20742(19) 0.77102(11)
C6 C 0.34477(12) 0.2965(2) 0.87405(11)
H4 H 0.39040 0.23100 0.94630
C7 C 0.28269(13) 0.4803(2) 0.87002(10)
H5 H 0.28470 0.54250 0.93950
C8 C 0.21631(11) 0.57536(18) 0.76234(10)
#END
