
#######################################################################
#
#                 Cambridge Crystallographic Data Centre
#                                CCDC
#
#######################################################################
#
# If this CIF has been generated from an entry in the Cambridge
# Structural Database, then it will include bibliographic, chemical,
# crystal, experimental, refinement or atomic coordinate data resulting
# from the CCDC's data processing and validation procedures.
#
#######################################################################

data_CSD_CIF_TUCNUC
_audit_creation_date 2015-05-08
_audit_creation_method CSD-ConQuest-V1
_database_code_CSD TUCNUC
_database_code_depnum_ccdc_archive 'CCDC 1043010'
_chemical_formula_sum 'C28 H35 N1 O7'
_chemical_formula_moiety
;
C28 H35 N1 O7
;
_journal_coden_Cambridge 24
_journal_volume 56
_journal_year 2015
_journal_page_first 2102
_journal_name_full 'Tetrahedron Lett. '
loop_
_publ_author_name
"A.A.Tabolin"
"R.A.Novikov"
"Y.A.Khomutova"
"A.A.Zharov"
"G.A.Stashina"
"Y.V.Nelyubina"
"Y.V.Tomilov"
"S.L.Ioffe"
_chemical_name_systematic
;
Dimethyl 
(rel)-(2S,4aR,5S,7R)-5-(4-methoxyphenyl)-4a-methyl-2-phenyl-7propylhexahydro-4
H-[1,2]oxazino[2,3-b][1,2]oxazine-4,4-dicarboxylate
;
_cell_volume   1287.291
_exptl_crystal_colour 'colorless'
_exptl_crystal_density_diffrn 1.284
_exptl_crystal_description 'plate'
_diffrn_ambient_temperature 120
#These two values have been output from a single CSD field.
_refine_ls_R_factor_gt 0.0427
_refine_ls_wR_factor_gt 0.0427
_symmetry_cell_setting triclinic
_symmetry_space_group_name_H-M 'P -1'
_symmetry_Int_Tables_number 2
loop_
_symmetry_equiv_pos_site_id
_symmetry_equiv_pos_as_xyz
1 x,y,z
2 -x,-y,-z
_cell_length_a 9.9769(7)
_cell_length_b 10.2057(7)
_cell_length_c 13.3210(9)
_cell_angle_alpha 102.338(1)
_cell_angle_beta 92.703(1)
_cell_angle_gamma 102.521(1)
_cell_formula_units_Z 2
loop_
_atom_type_symbol
_atom_type_radius_bond
C 0.68
H 0.23
N 0.68
O 0.68
loop_
_atom_site_label
_atom_site_type_symbol
_atom_site_fract_x
_atom_site_fract_y
_atom_site_fract_z
N1 N -0.12128(10) 0.53211(10) 0.36856(7)
O1 O 0.00436(8) 0.60709(8) 0.33686(6)
O2 O -0.15976(8) 0.40846(8) 0.29094(6)
O3 O -0.16267(9) 0.88314(8) 0.27078(6)
O4 O -0.07856(9) 0.72812(9) 0.16156(7)
O5 O -0.44392(9) 0.69285(9) 0.16602(7)
O6 O -0.44369(9) 0.75522(10) 0.33790(7)
O7 O -0.33704(9) 0.69481(9) 0.85257(6)
C1 C -0.22662(11) 0.61645(11) 0.37153(8)
C2 C -0.16618(11) 0.75050(11) 0.45861(8)
H1 H -0.21310 0.82190 0.44270
C3 C -0.00921(11) 0.81111(11) 0.45808(9)
H2 H 0.00310 0.87240 0.40910
H3 H 0.02750 0.86840 0.52770
C4 C 0.07563(11) 0.70410(12) 0.42856(9)
H4 H 0.08470 0.65620 0.48580
C5 C -0.17543(12) 0.43209(12) 0.18765(9)
H5 H -0.08650 0.48770 0.17220
C6 C -0.28929(12) 0.50866(12) 0.17952(9)
H6 H -0.37880 0.44880 0.18730
H7 H -0.29510 0.52880 0.11020
C7 C -0.26334(11) 0.64560(11) 0.26279(8)
C8 C -0.20323(11) 0.73389(11) 0.56549(8)
C9 C -0.30886(12) 0.79135(12) 0.60715(9)
H8 H -0.35420 0.84020 0.56860
C10 C -0.34922(12) 0.77888(12) 0.70343(9)
H9 H -0.42080 0.81970 0.73050
C11 C -0.28476(12) 0.70634(12) 0.76046(9)
C12 C -0.17790(13) 0.65026(13) 0.72158(9)
H10 H -0.13190 0.60260 0.76080
C13 C -0.13814(12) 0.66413(12) 0.62469(9)
H11 H -0.06500 0.62520 0.59850
C14 C 0.21718(12) 0.76343(13) 0.39795(9)
H12 H 0.20500 0.79550 0.33380
H13 H 0.26760 0.68910 0.38270
C15 C 0.30484(12) 0.88313(12) 0.48031(10)
H14 H 0.39300 0.91780 0.45320
H15 H 0.25610 0.95900 0.49350
C16 C 0.33612(14) 0.84574(14) 0.58183(11)
H16 H 0.39200 0.92720 0.63080
H17 H 0.38700 0.77270 0.57000
H18 H 0.24950 0.81320 0.61020
C17 C -0.20876(12) 0.29154(12) 0.11547(9)
C18 C -0.30690(13) 0.18351(13) 0.13609(10)
H19 H -0.35280 0.19790 0.19700
C19 C -0.33811(15) 0.05492(14) 0.06826(11)
H20 H -0.40440 -0.01860 0.08340
C20 C -0.27293(15) 0.03318(14) -0.02146(11)
H21 H -0.29470 -0.05480 -0.06790
C21 C -0.17632(14) 0.14013(14) -0.04286(10)
H22 H -0.13210 0.12590 -0.10460
C22 C -0.14341(12) 0.26857(13) 0.02546(10)
H23 H -0.07580 0.34130 0.01060
C23 C -0.15429(12) 0.75411(12) 0.22630(9)
C24 C -0.07014(13) 0.99258(13) 0.23728(10)
H24 H -0.09330 1.08080 0.26570
H25 H -0.07990 0.97400 0.16170
H26 H 0.02520 0.99680 0.26180
C25 C -0.39361(12) 0.70404(12) 0.26382(9)
C26 C -0.56427(14) 0.74804(16) 0.15581(11)
H27 H -0.58970 0.74160 0.08260
H28 H -0.54370 0.84490 0.19340
H29 H -0.64110 0.69510 0.18440
C27 C -0.35517(12) 0.52679(12) 0.40364(9)
H30 H -0.40030 0.45310 0.34420
H31 H -0.41960 0.58410 0.42780
H32 H -0.32740 0.48620 0.45930
C28 C -0.25494(18) 0.65493(19) 0.92552(11)
H33 H -0.29800 0.66090 0.99050
H34 H -0.16260 0.71650 0.93790
H35 H -0.24760 0.55990 0.89850
#END
