
#######################################################################
#
#                 Cambridge Crystallographic Data Centre
#                                CCDC
#
#######################################################################
#
# If this CIF has been generated from an entry in the Cambridge
# Structural Database, then it will include bibliographic, chemical,
# crystal, experimental, refinement or atomic coordinate data resulting
# from the CCDC's data processing and validation procedures.
#
#######################################################################

data_CSD_CIF_TUCNOW
_audit_creation_date 2015-05-08
_audit_creation_method CSD-ConQuest-V1
_database_code_CSD TUCNOW
_database_code_depnum_ccdc_archive 'CCDC 1043009'
_chemical_formula_sum 'C27 H33 N1 O7'
_chemical_formula_moiety
;
C27 H33 N1 O7
;
_journal_coden_Cambridge 24
_journal_volume 56
_journal_year 2015
_journal_page_first 2102
_journal_name_full 'Tetrahedron Lett. '
loop_
_publ_author_name
"A.A.Tabolin"
"R.A.Novikov"
"Y.A.Khomutova"
"A.A.Zharov"
"G.A.Stashina"
"Y.V.Nelyubina"
"Y.V.Tomilov"
"S.L.Ioffe"
_chemical_name_systematic
;
Dimethyl 
(rel)-(2S,4aR,5S)-5-(4-methoxyphenyl)-4a,7,7-trimethyl-2-phenylhexahydro-4H-[1
,2]oxazino[2,3-b][1,2]oxazine-4,4-dicarboxylate
;
_cell_volume   2482.410
_exptl_crystal_colour 'colorless'
_exptl_crystal_density_diffrn 1.294
_exptl_crystal_description 'prism'
_diffrn_ambient_temperature 120
#These two values have been output from a single CSD field.
_refine_ls_R_factor_gt 0.0484
_refine_ls_wR_factor_gt 0.0484
_symmetry_cell_setting monoclinic
_symmetry_space_group_name_H-M 'P 21/c'
_symmetry_Int_Tables_number 14
loop_
_symmetry_equiv_pos_site_id
_symmetry_equiv_pos_as_xyz
1 x,y,z
2 -x,1/2+y,1/2-z
3 -x,-y,-z
4 x,-1/2-y,-1/2+z
_cell_length_a 10.3806(10)
_cell_length_b 27.145(3)
_cell_length_c 9.2307(9)
_cell_angle_alpha 90
_cell_angle_beta 107.371(2)
_cell_angle_gamma 90
_cell_formula_units_Z 4
loop_
_atom_type_symbol
_atom_type_radius_bond
C 0.68
H 0.23
N 0.68
O 0.68
loop_
_atom_site_label
_atom_site_type_symbol
_atom_site_fract_x
_atom_site_fract_y
_atom_site_fract_z
N1 N 0.04066(13) 0.11069(5) 0.99596(14)
O1 O -0.01162(11) 0.14039(4) 1.09491(12)
O2 O -0.08059(10) 0.11067(4) 0.86678(12)
C1 C 0.14901(15) 0.13927(5) 0.95138(17)
C2 C 0.26415(15) 0.14993(5) 1.10283(17)
H1 H 0.30290 0.11730 1.14410
C3 C 0.20675(16) 0.17324(6) 1.22241(18)
H2 H 0.27890 0.17510 1.32060
H3 H 0.17680 0.20730 1.19100
C4 C 0.08825(16) 0.14395(6) 1.24327(17)
C5 C -0.06153(15) 0.07471(5) 0.76015(17)
H4 H -0.04580 0.04150 0.80890
C6 C 0.05949(15) 0.08963(6) 0.70845(17)
H5 H 0.03670 0.11980 0.64550
H6 H 0.07910 0.06310 0.64450
C7 C 0.18749(15) 0.09947(5) 0.84445(17)
C8 C 0.37990(15) 0.18033(6) 1.07997(17)
C9 C 0.49326(15) 0.15675(6) 1.06170(17)
H7 H 0.49710 0.12180 1.06550
C10 C 0.60116(16) 0.18259(6) 1.03802(19)
H8 H 0.67680 0.16550 1.02490
C11 C 0.59619(17) 0.23381(6) 1.0338(2)
C12 C 0.48697(18) 0.25827(6) 1.0578(2)
H9 H 0.48530 0.29330 1.05870
C13 C 0.38034(16) 0.23196(6) 1.08047(19)
H10 H 0.30620 0.24920 1.09660
C14 C 0.12794(17) 0.09299(6) 1.31203(18)
H11 H 0.17180 0.07450 1.24880
H12 H 0.04700 0.07530 1.31680
H13 H 0.19050 0.09650 1.41460
C15 C 0.01513(18) 0.17304(6) 1.33567(19)
H14 H -0.01440 0.20470 1.28610
H15 H 0.07640 0.17880 1.43790
H16 H -0.06360 0.15440 1.34250
C16 C -0.18917(15) 0.07424(6) 0.62822(17)
C17 C -0.24805(16) 0.11790(6) 0.55966(18)
H17 H -0.21040 0.14870 0.59970
C18 C -0.36179(17) 0.11653(6) 0.43292(19)
H18 H -0.40150 0.14640 0.38680
C19 C -0.41719(17) 0.07169(7) 0.37394(19)
H19 H -0.49480 0.07080 0.28750
C20 C -0.35932(19) 0.02830(7) 0.4411(2)
H20 H -0.39710 -0.00240 0.40060
C21 C -0.24570(18) 0.02959(6) 0.5680(2)
H21 H -0.20650 -0.00040 0.61390
O3 O 0.19396(12) 0.01137(4) 0.84047(14)
O4 O 0.31628(13) 0.04646(4) 1.05493(14)
C22 C 0.24004(15) 0.05051(5) 0.92840(18)
C23 C 0.2445(2) -0.03593(6) 0.9061(2)
H22 H 0.21140 -0.06190 0.83050
H23 H 0.21290 -0.04220 0.99440
H24 H 0.34340 -0.03560 0.93800
O5 O 0.39528(12) 0.08599(4) 0.79002(14)
O6 O 0.28033(12) 0.15455(4) 0.69303(13)
C24 C 0.29311(15) 0.11802(6) 0.76996(17)
C25 C 0.49594(19) 0.09954(7) 0.7168(2)
H25 H 0.56540 0.07390 0.73540
H26 H 0.53760 0.13090 0.75820
H27 H 0.45280 0.10290 0.60730
C26 C 0.09496(16) 0.18766(6) 0.86960(18)
H28 H 0.06970 0.21000 0.94010
H29 H 0.01560 0.18080 0.78290
H30 H 0.16510 0.20310 0.83360
O7 O 0.69550(13) 0.26322(5) 1.00998(18)
C27 C 0.7904(2) 0.24041(7) 0.9480(3)
H31 H 0.85220 0.26540 0.93010
H32 H 0.74260 0.22440 0.85180
H33 H 0.84200 0.21570 1.01940
#END
