
#######################################################################
#
#                 Cambridge Crystallographic Data Centre
#                                CCDC
#
#######################################################################
#
# If this CIF has been generated from an entry in the Cambridge
# Structural Database, then it will include bibliographic, chemical,
# crystal, experimental, refinement or atomic coordinate data resulting
# from the CCDC's data processing and validation procedures.
#
#######################################################################

data_CSD_CIF_TUDXOH
_audit_creation_date 2015-05-09
_audit_creation_method CSD-ConQuest-V1
_database_code_CSD TUDXOH
_database_code_depnum_ccdc_archive 'CCDC 1063243'
_chemical_formula_sum 'C13 H9 N3 O5'
_chemical_formula_moiety
;
C13 H9 N3 O5
;
_journal_coeditor_code "hb7415"
_journal_coden_Cambridge 1828
_journal_volume 71
_journal_year 2015
_journal_page_first o389
_journal_name_full 'Acta Crystallogr.,Sect.E:Cryst.Commun. '
loop_
_publ_author_name
"R.Moreno-Fuquen"
"A.Azcarate"
"A.R.Kennedy"
_chemical_name_systematic
;
2-nitro-N-(2-nitrophenyl)benzamide
;
_chemical_melting_point 431
_cell_volume   1215.453
_exptl_crystal_colour 'yellow'
_exptl_crystal_density_diffrn 1.57
_exptl_crystal_description 'needle'
_diffrn_ambient_temperature 123
#These two values have been output from a single CSD field.
_refine_ls_R_factor_gt 0.0335
_refine_ls_wR_factor_gt 0.0335
_symmetry_cell_setting orthorhombic
_symmetry_space_group_name_H-M 'P 21 21 21'
_symmetry_Int_Tables_number 19
loop_
_symmetry_equiv_pos_site_id
_symmetry_equiv_pos_as_xyz
1 x,y,z
2 1/2-x,-y,1/2+z
3 1/2+x,1/2-y,-z
4 -x,1/2+y,1/2-z
_cell_length_a 7.7564(2)
_cell_length_b 12.1142(4)
_cell_length_c 12.9355(4)
_cell_angle_alpha 90
_cell_angle_beta 90
_cell_angle_gamma 90
_cell_formula_units_Z 4
loop_
_atom_type_symbol
_atom_type_radius_bond
C 0.68
H 0.23
N 0.68
O 0.68
loop_
_atom_site_label
_atom_site_type_symbol
_atom_site_fract_x
_atom_site_fract_y
_atom_site_fract_z
O1 O 0.8757(2) 0.69891(13) 0.59755(12)
O2 O 0.6495(2) 0.70531(14) 0.25441(12)
O3 O 0.4638(3) 0.58573(16) 0.20009(14)
O4 O 0.5324(2) 0.71871(14) 0.68775(13)
O5 O 0.5249(3) 0.84234(16) 0.80856(13)
N1 N 0.6852(2) 0.69018(17) 0.46280(14)
N2 N 0.5754(2) 0.61585(17) 0.26036(15)
N3 N 0.5572(2) 0.81237(17) 0.71999(15)
C1 C 0.7127(3) 0.85927(19) 0.55862(17)
C2 C 0.6264(3) 0.89486(19) 0.64730(17)
C3 C 0.5993(3) 1.0050(2) 0.66891(18)
H1 H 0.54100 1.02650 0.73030
C4 C 0.6585(3) 1.0837(2) 0.5998(2)
H2 H 0.64180 1.16000 0.61360
C5 C 0.7424(3) 1.0505(2) 0.51017(19)
H3 H 0.78180 1.10450 0.46230
C6 C 0.7695(3) 0.9394(2) 0.48978(18)
H4 H 0.82730 0.91800 0.42820
H5 H 0.607(4) 0.734(2) 0.427(2)
C7 C 0.7639(3) 0.74034(19) 0.54308(17)
C8 C 0.6909(3) 0.57706(19) 0.43817(18)
C9 C 0.6276(3) 0.5389(2) 0.34294(17)
C10 C 0.6114(3) 0.4274(2) 0.32093(19)
H6 H 0.56330 0.40420 0.25700
C11 C 0.6657(3) 0.3505(2) 0.3926(2)
H7 H 0.65740 0.27380 0.37800
C12 C 0.7325(3) 0.3865(2) 0.4863(2)
H8 H 0.77110 0.33380 0.53560
C13 C 0.7437(3) 0.4977(2) 0.50897(18)
H9 H 0.78820 0.52030 0.57400
#END
