
#######################################################################
#
#                 Cambridge Crystallographic Data Centre
#                                CCDC
#
#######################################################################
#
# If this CIF has been generated from an entry in the Cambridge
# Structural Database, then it will include bibliographic, chemical,
# crystal, experimental, refinement or atomic coordinate data resulting
# from the CCDC's data processing and validation procedures.
#
#######################################################################

data_CSD_CIF_TUDZOI
_audit_creation_date 2010-06-03
_audit_creation_method CSD-ConQuest-V1
_database_code_CSD TUDZOI
_database_code_depnum_ccdc_archive 'CCDC 718714'
_chemical_formula_sum 'C18 H29 N3 O11'
_chemical_formula_moiety
;
C18 H29 N3 O11
;
_journal_coden_Cambridge 24
_journal_volume 50
_journal_year 2009
_journal_page_first 5917
_journal_name_full 'Tetrahedron Lett. '
loop_
_publ_author_name
"D.S.Bohle"
"L.K.Keefer"
"J.E.Saavedra"
_chemical_name_systematic
;
2-(Acetoxymethyl)-6-(((isopropyl-NNO-azoxy)(methyl)amino)oxy)tetrahydro-2H-pyr
an-3,4,5-triyl triacetate
;
_cell_volume   2330.036
_exptl_crystal_colour 'colorless'
_exptl_crystal_density_diffrn 1.321
_exptl_crystal_description 'prism'
_diffrn_ambient_temperature 100
#These two values have been output from a single CSD field.
_refine_ls_R_factor_gt 0.0436
_refine_ls_wR_factor_gt 0.0436
_symmetry_cell_setting orthorhombic
_symmetry_space_group_name_H-M 'P 21 21 21'
_symmetry_Int_Tables_number 19
loop_
_symmetry_equiv_pos_site_id
_symmetry_equiv_pos_as_xyz
1 x,y,z
2 1/2-x,-y,1/2+z
3 -x,1/2+y,1/2-z
4 1/2+x,1/2-y,-z
_cell_length_a 5.6078(8)
_cell_length_b 13.766(2)
_cell_length_c 30.183(4)
_cell_angle_alpha 90
_cell_angle_beta 90
_cell_angle_gamma 90
_cell_formula_units_Z 4
loop_
_atom_type_symbol
_atom_type_radius_bond
C 0.68
H 0.23
N 0.68
O 0.68
loop_
_atom_site_label
_atom_site_type_symbol
_atom_site_fract_x
_atom_site_fract_y
_atom_site_fract_z
C1 C -1.1527(5) -0.7946(2) -0.07705(9)
H1 H -1.09260 -0.80060 -0.10740
C2 C -1.3214(6) -0.8785(2) -0.06728(11)
H2 H -1.45110 -0.87760 -0.08800
H3 H -1.38280 -0.87220 -0.03770
H4 H -1.23670 -0.93890 -0.06990
C3 C -0.9429(5) -0.7932(2) -0.04489(10)
H5 H -0.83950 -0.73980 -0.05200
H6 H -0.85590 -0.85310 -0.04730
H7 H -1.00110 -0.78590 -0.01520
N1 N -1.2889(4) -0.70275(16) -0.07277(7)
N2 N -1.1923(4) -0.63375(15) -0.09352(6)
O1 O -1.0118(3) -0.63452(14) -0.11751(6)
N3 N -1.2913(4) -0.53667(15) -0.08515(6)
C4 C -1.5366(5) -0.5402(2) -0.06857(9)
H8 H -1.59330 -0.47530 -0.06360
H9 H -1.54070 -0.57580 -0.04120
H10 H -1.63650 -0.57190 -0.09000
O2 O -1.3023(3) -0.49349(12) -0.12783(5)
C5 C -1.1557(4) -0.41100(17) -0.13016(7)
H11 H -1.01970 -0.41710 -0.11000
O3 O -1.2996(3) -0.32988(12) -0.11858(5)
C6 C -1.0722(4) -0.40209(17) -0.17781(7)
H12 H -1.20590 -0.40950 -0.19840
C7 C -0.9447(4) -0.30674(17) -0.18528(7)
H13 H -0.78730 -0.30910 -0.17120
C8 C -1.0827(4) -0.21988(17) -0.16753(8)
H14 H -1.21500 -0.20330 -0.18730
C9 C -1.1738(4) -0.23943(17) -0.12048(8)
H15 H -1.03870 -0.24120 -0.09990
O4 O -0.8946(3) -0.47524(11) -0.18532(5)
C10 C -0.9541(4) -0.55579(17) -0.20924(8)
O5 O -1.1469(3) -0.56706(13) -0.22568(5)
C11 C -0.7473(4) -0.62268(18) -0.21087(8)
H16 H -0.78830 -0.67920 -0.22790
H17 H -0.70500 -0.64190 -0.18130
H18 H -0.61440 -0.59030 -0.22450
O6 O -0.9166(3) -0.29608(12) -0.23237(5)
C12 C -0.6923(4) -0.29552(17) -0.24912(7)
O7 O -0.5160(3) -0.29723(15) -0.22661(6)
C13 C -0.6987(4) -0.29510(19) -0.29849(7)
H19 H -0.53870 -0.29470 -0.30980
H20 H -0.78130 -0.23820 -0.30860
H21 H -0.78010 -0.35210 -0.30880
O8 O -0.9106(3) -0.14226(11) -0.16602(5)
C14 C -0.9799(4) -0.05190(17) -0.17890(8)
O9 O -1.1813(3) -0.03257(13) -0.18869(6)
C15 C -0.7749(5) 0.01672(19) -0.17754(9)
H22 H -0.82690 0.08000 -0.18680
H23 H -0.65180 -0.00580 -0.19710
H24 H -0.71390 0.02030 -0.14790
C16 C -1.3468(5) -0.1624(2) -0.10605(8)
H25 H -1.28080 -0.09850 -0.11170
H26 H -1.49480 -0.16860 -0.12250
O10 O -1.3909(4) -0.17429(14) -0.05948(6)
C17 C -1.5739(7) -0.1224(2) -0.04273(10)
O11 O -1.7001(4) -0.07080(19) -0.06488(8)
C18 C -1.5924(9) -0.1378(3) 0.00639(11)
H27 H -1.72340 -0.10060 0.01780
H28 H -1.44720 -0.11710 0.02040
H29 H -1.61830 -0.20540 0.01240
#END
