
#######################################################################
#
#                 Cambridge Crystallographic Data Centre
#                                CCDC
#
#######################################################################
#
# If this CIF has been generated from an entry in the Cambridge
# Structural Database, then it will include bibliographic, chemical,
# crystal, experimental, refinement or atomic coordinate data resulting
# from the CCDC's data processing and validation procedures.
#
#######################################################################

data_CSD_CIF_TUGHOS
_audit_creation_date 1997-06-19
_audit_creation_method CSD-ConQuest-V1
_database_code_CSD TUGHOS
_chemical_formula_sum 'C16 H18 N2 O4'
_chemical_formula_moiety
;
C16 H18 N2 O4
;
_journal_coden_Cambridge 35
_journal_volume 59
_journal_year 1994
_journal_page_first 4602
_journal_name_full 'J.Org.Chem. '
loop_
_publ_author_name
"A.R.Ritter"
"M.J.Miller"
_chemical_name_systematic
;
(1S,4R)-N-(N-(Carbobenzyloxy)-D-alanyl)-2,3-oxazabicyclo(2.2.1)hept-5-ene
;
_chemical_melting_point 391.15
_cell_volume    795.722
_exptl_crystal_colour 'colorless'
_exptl_crystal_density_diffrn 1.26
_exptl_special_details
;
Melting point range 391.15-393.15K

;
_diffrn_ambient_temperature ?
_diffrn_special_details
;
The study was carried out at room temperature,in the range 283-303K

;
#These two values have been output from a single CSD field.
_refine_ls_R_factor_gt 0.107
_refine_ls_wR_factor_gt 0.107
_symmetry_cell_setting monoclinic
_symmetry_space_group_name_H-M 'P 21'
_symmetry_Int_Tables_number 4
loop_
_symmetry_equiv_pos_site_id
_symmetry_equiv_pos_as_xyz
1 x,y,z
2 -x,1/2+y,-z
_cell_length_a 9.486(2)
_cell_length_b 8.202(2)
_cell_length_c 10.266(2)
_cell_angle_alpha 90
_cell_angle_beta 94.98(2)
_cell_angle_gamma 90
_cell_formula_units_Z 2
loop_
_atom_type_symbol
_atom_type_radius_bond
C 0.68
H 0.23
N 0.68
O 0.68
loop_
_atom_site_label
_atom_site_type_symbol
_atom_site_fract_x
_atom_site_fract_y
_atom_site_fract_z
C1 C 0.475(1) -0.25000 0.1256(8)
C2 C 0.4757(9) -0.192(1) 0.2699(7)
C3 C 0.327(1) -0.217(1) 0.2937(7)
C4 C 0.248(1) -0.186(1) 0.1809(9)
C5 C 0.350(1) -0.146(1) 0.0845(7)
O1 O 0.4071(7) 0.0165(8) 0.1203(4)
N1 N 0.4880(7) -0.0170(8) 0.2426(5)
C6 C 0.5083(9) 0.107(1) 0.3270(6)
O2 O 0.5665(6) 0.0759(8) 0.4391(4)
C7 C 0.457(1) 0.274(1) 0.2867(7)
C8 C 0.306(1) 0.295(1) 0.3161(9)
N2 N 0.5487(8) 0.3984(8) 0.3510(5)
C9 C 0.679(1) 0.415(1) 0.3292(7)
O3 O 0.7375(7) 0.3393(8) 0.2429(5)
O4 O 0.7488(7) 0.5281(8) 0.4043(5)
C10 C 0.886(1) 0.572(1) 0.3755(9)
C11 C 0.879(1) 0.697(1) 0.2653(9)
C12 C 0.889(1) 0.644(1) 0.1343(8)
C13 C 0.879(1) 0.757(2) 0.035(1)
C14 C 0.855(1) 0.911(2) 0.058(1)
C15 C 0.844(1) 0.971(2) 0.182(1)
C16 C 0.860(1) 0.857(1) 0.288(1)
H1 H 0.45700 -0.36700 0.11400
H2 H 0.56100 -0.22000 0.08400
H3 H 0.54300 -0.23900 0.33800
H4 H 0.29200 -0.24900 0.37700
H5 H 0.14500 -0.19000 0.16600
H6 H 0.30900 -0.15600 -0.00600
H7 H 0.46100 0.28700 0.19200
H8 H 0.51300 0.46500 0.40800
H9 H 0.93600 0.47500 0.34900
H10 H 0.93700 0.61900 0.45400
H11 H 0.90400 0.52900 0.11500
H12 H 0.89100 0.72200 -0.05500
H13 H 0.84300 0.98600 -0.01600
H14 H 0.82700 1.08700 0.19800
H15 H 0.85600 0.89600 0.37800
H16 H 0.25100 0.19900 0.28400
H17 H 0.26600 0.39200 0.27200
H18 H 0.30100 0.30500 0.41100
#END
