
#######################################################################
#
#                 Cambridge Crystallographic Data Centre
#                                CCDC
#
#######################################################################
#
# If this CIF has been generated from an entry in the Cambridge
# Structural Database, then it will include bibliographic, chemical,
# crystal, experimental, refinement or atomic coordinate data resulting
# from the CCDC's data processing and validation procedures.
#
#######################################################################

data_CSD_CIF_TUGXEZ
_audit_creation_date 2010-06-03
_audit_creation_method CSD-ConQuest-V1
_database_code_CSD TUGXEZ
_database_code_depnum_ccdc_archive 'CCDC 715149'
_chemical_formula_sum 'C34 H31 N1 O2'
_chemical_formula_moiety
;
C34 H31 N1 O2
;
_journal_coden_Cambridge 1220
_journal_volume 15
_journal_year 2009
_journal_page_first 8975
_journal_name_full 'Chem.-Eur.J. '
loop_
_publ_author_name
"Yu Bai"
"Jie Fang"
"Jun Ren"
"Zhongwen Wang"
_chemical_name_systematic
;
6-Methyl-1,2-bis(4-methylphenyl)-4,8-diphenyl-1,2,4,5-tetrahydrofuro[3,4-d][1,
2]oxazepine
;
_cell_volume   1323.478
_exptl_crystal_density_diffrn 1.219
_diffrn_ambient_temperature 113
#These two values have been output from a single CSD field.
_refine_ls_R_factor_gt 0.0399
_refine_ls_wR_factor_gt 0.0399
_symmetry_cell_setting triclinic
_symmetry_space_group_name_H-M 'P -1'
_symmetry_Int_Tables_number 2
loop_
_symmetry_equiv_pos_site_id
_symmetry_equiv_pos_as_xyz
1 x,y,z
2 -x,-y,-z
_cell_length_a 10.481(2)
_cell_length_b 10.617(2)
_cell_length_c 12.383(3)
_cell_angle_alpha 92.80(3)
_cell_angle_beta 100.69(3)
_cell_angle_gamma 101.12(3)
_cell_formula_units_Z 2
loop_
_atom_type_symbol
_atom_type_radius_bond
C 0.68
H 0.23
N 0.68
O 0.68
loop_
_atom_site_label
_atom_site_type_symbol
_atom_site_fract_x
_atom_site_fract_y
_atom_site_fract_z
O1 O 0.12173(9) 0.16950(9) 0.57440(7)
O2 O 0.60481(9) 0.36249(9) 0.63489(7)
N1 N 0.52251(11) 0.44361(10) 0.67006(9)
C1 C 0.17750(14) 0.32239(14) 0.85510(11)
H1 H 0.26740 0.32440 0.87920
C2 C 0.10360(15) 0.35711(16) 0.92885(12)
H2 H 0.14470 0.38510 1.00150
C3 C -0.03081(15) 0.35052(15) 0.89534(12)
H3 H -0.08020 0.37310 0.94550
C4 C -0.09177(14) 0.31042(14) 0.78726(11)
H4 H -0.18260 0.30450 0.76490
C5 C -0.01811(13) 0.27910(13) 0.71226(11)
H5 H -0.05950 0.25420 0.63910
C6 C 0.11857(13) 0.28445(13) 0.74508(11)
C7 C 0.19474(13) 0.24890(13) 0.66509(10)
C8 C 0.20834(13) 0.14457(13) 0.50969(11)
C9 C 0.33397(13) 0.20469(13) 0.55718(10)
C10 C 0.45423(13) 0.19143(13) 0.51239(11)
H6 H 0.42640 0.15710 0.43570
H7 H 0.49680 0.12960 0.55260
C11 C 0.55488(13) 0.31638(13) 0.51946(10)
H8 H 0.51090 0.38050 0.48230
C12 C 0.43437(13) 0.36766(13) 0.73586(10)
H9 H 0.39150 0.42900 0.76990
C13 C 0.32485(13) 0.27468(13) 0.6577(1)
C14 C 0.14825(14) 0.06046(14) 0.40675(11)
H10 H 0.21720 0.04110 0.37140
H11 H 0.09210 0.10390 0.35810
H12 H 0.09650 -0.01810 0.42400
C15 C 0.50963(13) 0.30765(13) 0.83017(10)
C16 C 0.50881(15) 0.17698(14) 0.82703(12)
H13 H 0.46070 0.12310 0.76550
C17 C 0.57840(17) 0.12539(16) 0.91395(12)
H14 H 0.57610 0.03730 0.90980
C18 C 0.65158(15) 0.20201(16) 1.00714(12)
C19 C 0.65179(14) 0.33250(15) 1.01055(11)
H15 H 0.70010 0.38630 1.07200
C20 C 0.58169(14) 0.38430(14) 0.92452(11)
H16 H 0.58250 0.47220 0.92960
C21 C 0.72899(18) 0.14584(18) 1.10135(13)
H17 H 0.82170 0.16650 1.09910
H18 H 0.69910 0.05390 1.09480
H19 H 0.71540 0.18140 1.17010
C22 C 0.60646(13) 0.56024(13) 0.72578(10)
C23 C 0.54779(15) 0.65327(14) 0.76877(11)
H20 H 0.45600 0.63850 0.76100
C24 C 0.62469(15) 0.76713(15) 0.82280(12)
H21 H 0.58360 0.82710 0.85220
C25 C 0.76237(15) 0.79469(14) 0.83448(11)
C26 C 0.81796(14) 0.70231(14) 0.78845(11)
H22 H 0.90940 0.71840 0.79380
C27 C 0.74288(13) 0.58680(14) 0.73479(11)
H23 H 0.78400 0.52720 0.70490
C28 C 0.84740(17) 0.91755(16) 0.89568(14)
H24 H 0.85910 0.90990 0.97370
H25 H 0.80480 0.98830 0.87770
H26 H 0.93240 0.93270 0.87460
C29 C 0.67510(13) 0.30649(13) 0.47134(10)
C30 C 0.70995(13) 0.19042(14) 0.44523(10)
H27 H 0.65710 0.11330 0.45700
C31 C 0.82185(14) 0.18806(15) 0.40215(11)
H28 H 0.84400 0.10970 0.38520
C32 C 0.90094(15) 0.30191(15) 0.38422(11)
H29 H 0.97710 0.30030 0.35620
C33 C 0.86708(15) 0.41794(15) 0.40775(11)
H30 H 0.91930 0.49450 0.39420
C34 C 0.75533(14) 0.42022(14) 0.45147(11)
H31 H 0.73340 0.49880 0.46790
#END
