
#######################################################################
#
#                 Cambridge Crystallographic Data Centre
#                                CCDC
#
#######################################################################
#
# If this CIF has been generated from an entry in the Cambridge
# Structural Database, then it will include bibliographic, chemical,
# crystal, experimental, refinement or atomic coordinate data resulting
# from the CCDC's data processing and validation procedures.
#
#######################################################################

data_CSD_CIF_TUHNAN
_audit_creation_date 2015-05-12
_audit_creation_method CSD-ConQuest-V1
_database_code_CSD TUHNAN
_database_code_depnum_ccdc_archive 'CCDC 960092'
_chemical_formula_sum 'C27 H29 N3 O6'
_chemical_formula_moiety
;
C27 H29 N3 O6
;
_journal_coden_Cambridge 757
_journal_volume 19
_journal_year 2015
_journal_page_first 43
_journal_name_full 'Mol.Diversity '
loop_
_publ_author_name
"Juan Yao"
"Lanxiang Zhou"
"Chen Tan"
"Cunde Wang"
_chemical_name_systematic
;
diethyl 
2-amino-3-cyano-4,6-bis(4-methylphenyl)-5-nitrocyclohex-1-ene-1,3-dicarboxylat
e
;
_cell_volume   2645.512
_exptl_crystal_density_diffrn 1.234
_diffrn_ambient_temperature 296
#These two values have been output from a single CSD field.
_refine_ls_R_factor_gt 0.062
_refine_ls_wR_factor_gt 0.062
_symmetry_cell_setting monoclinic
_symmetry_space_group_name_H-M 'P 21/c'
_symmetry_Int_Tables_number 14
loop_
_symmetry_equiv_pos_site_id
_symmetry_equiv_pos_as_xyz
1 x,y,z
2 -x,1/2+y,1/2-z
3 -x,-y,-z
4 x,-1/2-y,-1/2+z
_cell_length_a 8.8799(17)
_cell_length_b 15.072(3)
_cell_length_c 19.778(4)
_cell_angle_alpha 90
_cell_angle_beta 91.950(6)
_cell_angle_gamma 90
_cell_formula_units_Z 4
loop_
_atom_type_symbol
_atom_type_radius_bond
C 0.68
H 0.23
N 0.68
O 0.68
loop_
_atom_site_label
_atom_site_type_symbol
_atom_site_fract_x
_atom_site_fract_y
_atom_site_fract_z
C1 C 0.1137(4) -0.2400(2) 0.73927(19)
H1 H 0.10770 -0.29110 0.76810
H2 H 0.17050 -0.25460 0.70040
H3 H 0.01390 -0.22200 0.72490
C2 C 0.1897(3) -0.1659(2) 0.77730(17)
C3 C 0.2288(4) -0.1724(2) 0.84451(19)
H4 H 0.21300 -0.22590 0.86660
C4 C 0.2908(3) -0.10283(19) 0.88057(15)
H5 H 0.31530 -0.10990 0.92630
C5 C 0.3171(2) -0.02250(16) 0.84955(12)
C6 C 0.2787(3) -0.01598(19) 0.78112(13)
H6 H 0.29480 0.03720 0.75860
C7 C 0.2174(3) -0.0866(2) 0.74603(15)
H7 H 0.19430 -0.08060 0.70010
C8 C 0.2612(3) 0.29696(16) 0.91608(12)
C9 C 0.1322(3) 0.32724(19) 0.94526(14)
H8 H 0.08770 0.29350 0.97850
C10 C 0.0684(3) 0.4071(2) 0.92564(18)
H9 H -0.01980 0.42590 0.94520
C11 C 0.1329(4) 0.4590(2) 0.8779(2)
C12 C 0.0681(5) 0.5497(2) 0.8584(2)
H10 H -0.03980 0.54760 0.85930
H11 H 0.09800 0.56490 0.81360
H12 H 0.10550 0.59360 0.88990
C13 C 0.2590(4) 0.4282(2) 0.84808(16)
H13 H 0.30270 0.46220 0.81470
C14 C 0.3231(3) 0.34803(18) 0.86615(14)
H14 H 0.40840 0.32820 0.84470
C15 C 0.3320(2) 0.20835(15) 0.93693(11)
H15 H 0.29020 0.19090 0.98020
C16 C 0.2865(2) 0.13815(14) 0.88482(11)
H16 H 0.29680 0.16300 0.83940
C17 C 0.3784(2) 0.05369(14) 0.89059(11)
H17 H 0.37920 0.03540 0.93820
C18 C 0.5431(2) 0.07906(16) 0.87406(10)
C19 C 0.5991(3) 0.15723(18) 0.91741(11)
C20 C 0.5020(2) 0.21331(16) 0.94674(11)
C21 C 0.5553(3) 0.10610(17) 0.80278(14)
C22 C 0.5628(3) 0.28118(18) 0.99279(13)
C23 C 0.5050(4) 0.3916(2) 1.07331(15)
H18 H 0.57310 0.43080 1.05030
H19 H 0.55770 0.36790 1.11310
C24 C 0.3718(4) 0.4404(3) 1.09299(18)
H20 H 0.32200 0.46500 1.05340
H21 H 0.40130 0.48740 1.12340
H22 H 0.30440 0.40090 1.11510
C25 C 0.6415(3) -0.00267(18) 0.89053(13)
C26 C 0.8327(4) -0.0977(3) 0.8538(2)
H23 H 0.91800 -0.09260 0.82470
H24 H 0.87050 -0.09620 0.90030
C27 C 0.7560(6) -0.1820(3) 0.8406(2)
H25 H 0.68560 -0.19300 0.87550
H26 H 0.82880 -0.22900 0.84030
H27 H 0.70310 -0.17940 0.79760
N1 N 0.7508(2) 0.16340(17) 0.92362(11)
H28 H 0.79160 0.20520 0.94750
H29 H 0.80650 0.12560 0.90370
N2 N 0.1221(2) 0.11344(14) 0.89414(13)
N3 N 0.5616(3) 0.13109(17) 0.74875(13)
O1 O 0.0390(2) 0.11715(14) 0.84493(11)
O2 O 0.0842(2) 0.08939(15) 0.94865(12)
O3 O 0.6337(2) -0.04161(15) 0.94253(10)
O4 O 0.7306(2) -0.02265(13) 0.84149(9)
O5 O 0.6959(2) 0.30164(14) 0.99956(10)
O6 O 0.45771(19) 0.31980(12) 1.02874(8)
#END
