
#######################################################################
#
#                 Cambridge Crystallographic Data Centre
#                                CCDC
#
#######################################################################
#
# If this CIF has been generated from an entry in the Cambridge
# Structural Database, then it will include bibliographic, chemical,
# crystal, experimental, refinement or atomic coordinate data resulting
# from the CCDC's data processing and validation procedures.
#
#######################################################################

data_CSD_CIF_TUJDOS
_audit_creation_date 2010-06-03
_audit_creation_method CSD-ConQuest-V1
_database_code_CSD TUJDOS
_database_code_depnum_ccdc_archive 'CCDC 748944'
_chemical_formula_sum 'C30 H46 N2 O6'
_chemical_formula_moiety
;
C30 H46 N2 O6
;
_journal_coden_Cambridge 4
_journal_volume 131
_journal_year 2009
_journal_page_first 10092
_journal_name_full 'J.Am.Chem.Soc. '
loop_
_publ_author_name
"C.Riplinger"
"J.P.Y.Kao"
"G.M.Rosen"
"V.Kathirvelu"
"G.R.Eaton"
"S.S.Eaton"
"A.Kutateladze"
"F.Neese"
_chemical_name_systematic
;
2,2',5,5'-Tetra-t-butyl-4,4'-bis(ethoxycarbonyl)-3,3'-bipyrrolyl-1,1'-dioxyl
;
_cell_volume  12660.853
_exptl_crystal_colour 'reddish black'
_exptl_crystal_density_diffrn 1.114
_exptl_crystal_description 'prism'
_diffrn_ambient_temperature 220
_refine_special_details
;
One ethoxycarbonyl group is disordered over two sites with occupancies 
0.592:0.408.
;
#These two values have been output from a single CSD field.
_refine_ls_R_factor_gt 0.0542
_refine_ls_wR_factor_gt 0.0542
_symmetry_cell_setting tetragonal
_symmetry_space_group_name_H-M 'I 41/a'
_symmetry_Int_Tables_number 88
loop_
_symmetry_equiv_pos_site_id
_symmetry_equiv_pos_as_xyz
1 x,y,z
2 1/2-x,-y,1/2+z
3 3/4-y,1/4+x,1/4+z
4 3/4+y,3/4-x,3/4+z
5 1/2+x,1/2+y,1/2+z
6 -x,1/2-y,z
7 1/4-y,3/4+x,3/4+z
8 1/4+y,1/4-x,1/4+z
9 -x,-y,-z
10 -1/2+x,y,-1/2-z
11 -3/4+y,-1/4-x,-1/4-z
12 -3/4-y,-3/4+x,-3/4-z
13 -1/2-x,-1/2-y,-1/2-z
14 x,-1/2+y,-z
15 -1/4+y,-3/4-x,-3/4-z
16 -1/4-y,-1/4+x,-1/4-z
_cell_length_a 18.5020(12)
_cell_length_b 18.5020(12)
_cell_length_c 36.985(5)
_cell_angle_alpha 90
_cell_angle_beta 90
_cell_angle_gamma 90
_cell_formula_units_Z 16
loop_
_atom_type_symbol
_atom_type_radius_bond
C 0.68
H 0.23
N 0.68
O 0.68
loop_
_atom_site_label
_atom_site_type_symbol
_atom_site_fract_x
_atom_site_fract_y
_atom_site_fract_z
O1 O 0.04830(18) 0.15538(18) 0.49796(8)
N1 N 0.1134(2) 0.13210(18) 0.49816(9)
C1 C 0.1553(2) 0.1257(2) 0.53014(11)
C2 C 0.1242(2) 0.1435(2) 0.56689(11)
C3 C 0.1804(3) 0.1293(3) 0.59606(11)
H1 H 0.15990 0.14020 0.61960
H2 H 0.22230 0.15960 0.59190
H3 H 0.19470 0.07890 0.59530
C4 C 0.0583(3) 0.0955(3) 0.57389(13)
H4 H 0.04150 0.10280 0.59850
H5 H 0.07160 0.04520 0.57060
H6 H 0.02010 0.10800 0.55710
C5 C 0.1028(3) 0.2241(2) 0.56837(12)
H7 H 0.08020 0.23450 0.59150
H8 H 0.06900 0.23470 0.54900
H9 H 0.14560 0.25380 0.56560
C6 C 0.2189(2) 0.0985(2) 0.51848(11)
C7 C 0.2860(3) 0.0809(3) 0.53926(11)
O2 O 0.29190(19) 0.0117(2) 0.54433(10)
O3 O 0.32970(19) 0.1244(2) 0.54902(10)
C8 C 0.3619(3) -0.0127(4) 0.5590(2)
H10 H 0.40100 0.00210 0.54270
H11 H 0.37030 0.00970 0.58260
C9 C 0.3617(4) -0.0838(4) 0.5624(3)
H12 H 0.32180 -0.09840 0.57780
H13 H 0.40690 -0.09950 0.57310
H14 H 0.35620 -0.10590 0.53870
C10 C 0.2174(2) 0.0883(2) 0.47911(11)
C11 C 0.1515(2) 0.1096(2) 0.46689(11)
C12 C 0.1158(3) 0.1148(3) 0.43000(11)
C13 C 0.0519(3) 0.0619(3) 0.42803(13)
H15 H 0.01670 0.07420 0.44650
H16 H 0.06920 0.01310 0.43200
H17 H 0.02950 0.06510 0.40440
C14 C 0.1701(3) 0.0937(3) 0.40055(11)
H18 H 0.18510 0.04400 0.40410
H19 H 0.21200 0.12510 0.40200
H20 H 0.14770 0.09870 0.37700
C15 C 0.0911(3) 0.1925(3) 0.42296(14)
H21 H 0.13270 0.22450 0.42340
H22 H 0.05710 0.20700 0.44150
H23 H 0.06800 0.19530 0.39950
O4 O 0.4440(2) 0.0306(2) 0.42031(12)
N2 N 0.3805(2) 0.0253(3) 0.43379(11)
C16 C 0.3412(3) -0.0405(3) 0.43500(12)
C17 C 0.3732(3) -0.1100(3) 0.42095(16)
C18 C 0.3848(3) -0.1033(3) 0.37980(16)
H24 H 0.42020 -0.06580 0.37500
H25 H 0.33940 -0.09090 0.36820
H26 H 0.40220 -0.14890 0.37030
C19 C 0.3209(3) -0.1729(3) 0.42724(17)
H27 H 0.34290 -0.21750 0.41890
H28 H 0.27660 -0.16440 0.41390
H29 H 0.31020 -0.17680 0.45280
C20 C 0.4445(4) -0.1271(4) 0.4400(2)
H30 H 0.43800 -0.12290 0.46590
H31 H 0.48130 -0.09340 0.43210
H32 H 0.45930 -0.17600 0.43410
C21 C 0.2785(2) -0.0227(2) 0.45100(11)
C22 C 0.2144(3) -0.0684(3) 0.45874(14)
O5 O 0.2222(7) -0.0986(7) 0.49122(18)
O6 O 0.1670(9) -0.0868(10) 0.4387(4)
C23 C 0.1594(12) -0.1396(9) 0.5044(4)
H33 H 0.12310 -0.14300 0.48520
H34 H 0.17440 -0.18870 0.51080
C24 C 0.1299(10) -0.1072(11) 0.5336(6)
H35 H 0.16670 -0.10070 0.55200
H36 H 0.09130 -0.13720 0.54310
H37 H 0.11060 -0.06050 0.52660
C25 C 0.2783(2) 0.0547(2) 0.45958(10)
C26 C 0.3410(3) 0.0840(3) 0.44870(13)
C27 C 0.3742(3) 0.1590(3) 0.44923(17)
C28 C 0.3191(3) 0.2127(3) 0.46447(15)
H38 H 0.33970 0.26100 0.46430
H39 H 0.30690 0.19930 0.48910
H40 H 0.27580 0.21200 0.44970
C29 C 0.3923(4) 0.1828(3) 0.41034(17)
H41 H 0.42710 0.14960 0.39990
H42 H 0.41250 0.23110 0.41070
H43 H 0.34860 0.18260 0.39590
C30 C 0.4422(3) 0.1587(4) 0.4740(2)
H44 H 0.42870 0.14310 0.49810
H45 H 0.46240 0.20700 0.47510
H46 H 0.47790 0.12570 0.46420
C31? C 0.2144(3) -0.0684(3) 0.45874(14)
C32? C 0.1256(7) -0.0998(8) 0.5031(5)
C33? C 0.1385(12) -0.1606(9) 0.5225(7)
H47? H 0.09700 -0.06610 0.51770
H48? H 0.09770 -0.11210 0.48150
H49? H 0.15210 -0.19950 0.50630
H50? H 0.09520 -0.17410 0.53560
H51? H 0.17750 -0.15180 0.53950
O7? O 0.1936(7) -0.0652(7) 0.4924(2)
O8? O 0.1760(14) -0.0840(17) 0.4339(5)
#END
