
#######################################################################
#
#                 Cambridge Crystallographic Data Centre
#                                CCDC
#
#######################################################################
#
# If this CIF has been generated from an entry in the Cambridge
# Structural Database, then it will include bibliographic, chemical,
# crystal, experimental, refinement or atomic coordinate data resulting
# from the CCDC's data processing and validation procedures.
#
#######################################################################

data_CSD_CIF_TUJPUL
_audit_creation_date 2015-05-13
_audit_creation_method CSD-ConQuest-V1
_database_code_CSD TUJPUL
_database_code_depnum_ccdc_archive 'CCDC 1063364'
_chemical_formula_sum 'C9 H10 N2 O4'
_chemical_formula_moiety
;
C9 H10 N2 O4
;
_journal_coeditor_code "pk2548"
_journal_coden_Cambridge 1828
_journal_volume 71
_journal_year 2015
_journal_page_first 606
_journal_name_full 'Acta Crystallogr.,Sect.E:Cryst.Commun. '
loop_
_publ_author_name
"B.Quillian"
"J.Hendricks"
"M.Trivitayakhun"
"C.W.Padgett"
_chemical_name_systematic
;
3-Amino-4-nitrobenzyl acetate
;
_cell_volume   1937.926
_exptl_crystal_colour 'yellow'
_exptl_crystal_density_diffrn 1.441
_exptl_special_details
;
Fiber

;
_exptl_crystal_description 'Prism'
_diffrn_ambient_temperature 173
#These two values have been output from a single CSD field.
_refine_ls_R_factor_gt 0.0367
_refine_ls_wR_factor_gt 0.0367
_symmetry_cell_setting monoclinic
_symmetry_space_group_name_H-M 'C 2/c'
_symmetry_Int_Tables_number 15
loop_
_symmetry_equiv_pos_site_id
_symmetry_equiv_pos_as_xyz
1 x,y,z
2 -x,y,1/2-z
3 1/2+x,1/2+y,z
4 1/2-x,1/2+y,1/2-z
5 -x,-y,-z
6 x,-y,-1/2+z
7 -1/2-x,-1/2-y,-z
8 -1/2+x,-1/2-y,-1/2+z
_cell_length_a 14.4803(15)
_cell_length_b 11.4054(11)
_cell_length_c 13.0936(13)
_cell_angle_alpha 90
_cell_angle_beta 116.341(8)
_cell_angle_gamma 90
_cell_formula_units_Z 8
loop_
_atom_type_symbol
_atom_type_radius_bond
C 0.68
H 0.23
N 0.68
O 0.68
loop_
_atom_site_label
_atom_site_type_symbol
_atom_site_fract_x
_atom_site_fract_y
_atom_site_fract_z
O1 O 0.74138(8) 0.43515(9) 0.74195(10)
O2 O 0.23008(8) 0.61948(10) 0.50492(11)
O3 O 0.18245(8) 0.43814(10) 0.46692(11)
O4 O 0.86707(9) 0.30050(11) 0.79735(12)
N1 N 0.25141(9) 0.51321(11) 0.50551(11)
N2 N 0.42892(12) 0.67596(12) 0.60612(12)
H1 H 0.4821(16) 0.7166(16) 0.6337(16)
H2 H 0.3700(16) 0.7046(15) 0.5821(16)
C1 C 0.43920(11) 0.55950(12) 0.60073(12)
C2 C 0.35704(10) 0.47782(13) 0.55271(12)
C3 C 0.55919(11) 0.39372(13) 0.64720(12)
C4 C 0.54112(10) 0.51152(13) 0.64747(11)
H3 H 0.5978(13) 0.5675(14) 0.6814(13)
C5 C 0.37680(12) 0.35678(14) 0.54982(13)
H4 H 0.3212(13) 0.3041(14) 0.5154(15)
C6 C 0.47512(12) 0.31496(14) 0.59587(14)
H5 H 0.4895(13) 0.2318(16) 0.5930(15)
C7 C 0.66619(11) 0.34199(14) 0.69873(14)
H6 H 0.6780(14) 0.2874(16) 0.7620(16)
H7 H 0.6772(12) 0.2957(14) 0.6407(15)
C8 C 0.84105(11) 0.40198(15) 0.79024(13)
C9 C 0.91100(13) 0.50537(18) 0.83137(18)
H8 H 0.8961(16) 0.5562(19) 0.7680(19)
H9 H 0.9809(17) 0.4806(16) 0.8703(17)
H10 H 0.8934(17) 0.554(2) 0.881(2)
#END
