
#######################################################################
#
#                 Cambridge Crystallographic Data Centre
#                                CCDC
#
#######################################################################
#
# If this CIF has been generated from an entry in the Cambridge
# Structural Database, then it will include bibliographic, chemical,
# crystal, experimental, refinement or atomic coordinate data resulting
# from the CCDC's data processing and validation procedures.
#
#######################################################################

data_CSD_CIF_TUJVUR
_audit_creation_date 2015-05-13
_audit_creation_method CSD-ConQuest-V1
_database_code_CSD TUJVUR
_database_code_depnum_ccdc_archive 'CCDC 982247'
_chemical_formula_sum 'C18 H13 N3 O4'
_chemical_formula_moiety
;
C18 H13 N3 O4
;
_journal_coden_Cambridge 1268
_journal_volume 19
_journal_year 2014
_journal_page_first 2637
_journal_name_full 'Molecules '
loop_
_publ_author_name
"H.M.Ibrahim"
"H.Behbehani"
_chemical_name_systematic
;
6-acetyl-4-(4-nitrophenyl)-2-phenylpyridazin-3(2H)-one
;
_cell_volume   3163.923
_exptl_crystal_colour 'colorless'
_exptl_crystal_density_diffrn 1.408
_exptl_crystal_description 'Platelet'
_diffrn_ambient_temperature 293
#These two values have been output from a single CSD field.
_refine_ls_R_factor_gt 0.0818
_refine_ls_wR_factor_gt 0.0818
_symmetry_cell_setting monoclinic
_symmetry_space_group_name_H-M 'C 2/c'
_symmetry_Int_Tables_number 15
loop_
_symmetry_equiv_pos_site_id
_symmetry_equiv_pos_as_xyz
1 x,y,z
2 -x,y,1/2-z
3 1/2+x,1/2+y,z
4 1/2-x,1/2+y,1/2-z
5 -x,-y,-z
6 x,-y,-1/2+z
7 -1/2-x,-1/2-y,-z
8 -1/2+x,-1/2-y,-1/2+z
_cell_length_a 25.68(3)
_cell_length_b 3.848(4)
_cell_length_c 32.02(3)
_cell_angle_alpha 90
_cell_angle_beta 90.621(16)
_cell_angle_gamma 90
_cell_formula_units_Z 8
loop_
_atom_type_symbol
_atom_type_radius_bond
C 0.68
H 0.23
N 0.68
O 0.68
loop_
_atom_site_label
_atom_site_type_symbol
_atom_site_fract_x
_atom_site_fract_y
_atom_site_fract_z
O1 O 0.31579(16) 0.8800(14) 0.01704(12)
O2 O 0.00538(19) -0.1744(19) 0.0592(3)
O3 O -0.0084(2) -0.017(3) 0.1215(2)
O4 O 0.24195(14) 0.0989(13) 0.17364(12)
N1 N 0.31060(16) 0.4024(13) 0.14827(13)
N2 N 0.33600(16) 0.5670(14) 0.11737(14)
N3 N 0.0190(3) -0.048(2) 0.0920(3)
C1 C 0.31026(19) 0.6231(16) 0.08270(16)
C2 C 0.2571(2) 0.5294(16) 0.07693(17)
C3 C 0.23105(18) 0.3712(16) 0.10794(16)
C4 C 0.2593(2) 0.2786(17) 0.14562(17)
C5 C 0.3421(2) 0.3455(16) 0.18535(17)
C6 C 0.3229(3) 0.4166(17) 0.22417(18)
C7 C 0.3532(3) 0.3676(19) 0.25912(18)
C8 C 0.4031(3) 0.241(2) 0.2549(2)
C9 C 0.4222(3) 0.1653(19) 0.2161(2)
C10 C 0.3912(3) 0.2124(17) 0.18108(17)
C11 C 0.3387(2) 0.8021(16) 0.04871(18)
C12 C 0.3954(2) 0.8774(18) 0.05456(18)
C13 C 0.17556(19) 0.2685(16) 0.10373(17)
C14 C 0.1565(2) 0.1425(16) 0.06616(18)
C15 C 0.1048(3) 0.0441(18) 0.0626(2)
C16 C 0.0732(3) 0.076(2) 0.0958(3)
C17 C 0.0905(3) 0.2049(19) 0.1324(2)
C18 C 0.1423(3) 0.3058(18) 0.13716(19)
H1 H 0.24020 0.57740 0.05170
H2 H 0.28900 0.49880 0.22680
H3 H 0.34020 0.41920 0.28540
H4 H 0.42390 0.20660 0.27850
H5 H 0.45600 0.08220 0.21340
H6 H 0.40360 0.15420 0.15480
H7 H 0.41420 0.66280 0.05720
H8 H 0.40050 1.01350 0.07940
H9 H 0.40790 1.00420 0.03090
H10 H 0.17830 0.12390 0.04330
H11 H 0.09190 -0.04350 0.03750
H12 H 0.06780 0.22690 0.15470
H13 H 0.15440 0.39680 0.16240
#END
