
#######################################################################
#
#                 Cambridge Crystallographic Data Centre
#                                CCDC
#
#######################################################################
#
# If this CIF has been generated from an entry in the Cambridge
# Structural Database, then it will include bibliographic, chemical,
# crystal, experimental, refinement or atomic coordinate data resulting
# from the CCDC's data processing and validation procedures.
#
#######################################################################

data_CSD_CIF_TUJYII
_audit_creation_date 2015-05-13
_audit_creation_method CSD-ConQuest-V1
_database_code_CSD TUJYII
_database_code_depnum_ccdc_archive 'CCDC 1037965'
_chemical_formula_sum 'C18 H12 N2 O2'
_chemical_formula_moiety
;
C18 H12 N2 O2
;
_journal_coden_Cambridge 182
_journal_volume 51
_journal_year 2015
_journal_page_first 9507
_journal_name_full 'Chem.Commun. '
loop_
_publ_author_name
"D.E.Stephens"
"J.Lakey-Beitia"
"G.Chavez"
"C.Ilie"
"H.D.Arman"
"O.V.Larionov"
_chemical_name_systematic
;
8,8'-biquinoline 1,1'-dioxide
;
_cell_volume   1326.680
_exptl_crystal_colour 'gold'
_exptl_crystal_density_diffrn 1.443
_exptl_crystal_description 'platelet'
_exptl_crystal_preparation 'benzene/ethanol'
_diffrn_ambient_temperature 98
#These two values have been output from a single CSD field.
_refine_ls_R_factor_gt 0.0483
_refine_ls_wR_factor_gt 0.0483
_symmetry_cell_setting monoclinic
_symmetry_space_group_name_H-M 'P 21/n'
_symmetry_Int_Tables_number 14
loop_
_symmetry_equiv_pos_site_id
_symmetry_equiv_pos_as_xyz
1 x,y,z
2 1/2-x,1/2+y,1/2-z
3 -x,-y,-z
4 -1/2+x,-1/2-y,-1/2+z
_cell_length_a 7.720(5)
_cell_length_b 21.073(12)
_cell_length_c 8.161(5)
_cell_angle_alpha 90
_cell_angle_beta 92.202(10)
_cell_angle_gamma 90
_cell_formula_units_Z 4
loop_
_atom_type_symbol
_atom_type_radius_bond
C 0.68
H 0.23
N 0.68
O 0.68
loop_
_atom_site_label
_atom_site_type_symbol
_atom_site_fract_x
_atom_site_fract_y
_atom_site_fract_z
N1 N 0.33714(19) 0.17530(7) 0.65901(18)
O1 O 0.26749(17) 0.13087(6) 0.56563(15)
N2 N -0.0737(2) 0.11989(7) 0.76078(19)
C1 C 0.3543(2) 0.16577(8) 0.8281(2)
O2 O -0.00136(18) 0.17001(6) 0.82593(18)
C2 C 0.2919(2) 0.10954(9) 0.9029(2)
C3 C 0.1900(2) 0.05690(9) 0.8219(2)
C4 C 0.0167(2) 0.06195(9) 0.7584(2)
C5 C -0.0728(2) 0.00814(9) 0.6938(2)
C6 C 0.4392(2) 0.21371(9) 0.9239(2)
C7 C -0.2364(3) 0.12438(10) 0.6986(3)
C8 C 0.1753(3) -0.05721(9) 0.7661(3)
C9 C 0.0121(3) -0.05170(9) 0.6983(2)
C10 C 0.3946(2) 0.22913(9) 0.5913(2)
C11 C 0.2634(3) -0.00302(9) 0.8265(3)
C12 C 0.4750(3) 0.27702(9) 0.6845(3)
C13 C 0.3295(2) 0.10174(9) 1.0675(2)
C14 C 0.4973(3) 0.26994(9) 0.8492(3)
C15 C -0.2446(3) 0.01404(10) 0.6282(2)
C16 C 0.4151(3) 0.1484(1) 1.1637(2)
C17 C -0.3249(3) 0.07174(10) 0.6319(3)
C18 C 0.4659(3) 0.20369(10) 1.0947(2)
H1 H 0.377(3) 0.2324(10) 0.473(3)
H2 H 0.285(3) 0.0617(11) 1.122(3)
H3 H 0.517(3) 0.3118(11) 0.628(3)
H4 H -0.052(3) -0.0864(11) 0.645(3)
H5 H -0.283(3) 0.1707(11) 0.708(3)
H6 H -0.441(3) 0.0771(11) 0.592(3)
H7 H 0.427(3) 0.1423(10) 1.276(3)
H8 H -0.303(3) -0.0197(11) 0.574(3)
H9 H 0.557(3) 0.3007(11) 0.917(3)
H10 H 0.369(3) -0.0072(11) 0.867(3)
H11 H 0.522(3) 0.2382(11) 1.161(3)
H12 H 0.235(3) -0.0973(11) 0.767(3)
#END
