
#######################################################################
#
#                 Cambridge Crystallographic Data Centre
#                                CCDC
#
#######################################################################
#
# If this CIF has been generated from an entry in the Cambridge
# Structural Database, then it will include bibliographic, chemical,
# crystal, experimental, refinement or atomic coordinate data resulting
# from the CCDC's data processing and validation procedures.
#
#######################################################################

data_CSD_CIF_TUKBUW
_audit_creation_date 1997-06-18
_audit_creation_method CSD-ConQuest-V1
_database_code_CSD TUKBUW
_database_code_depnum_ccdc_archive 'CCDC 1276620'
_chemical_formula_sum 'C27 H19 N5 O3'
_chemical_formula_moiety
;
C27 H19 N5 O3
;
_journal_coden_Cambridge 34
_journal_volume 33
_journal_year 1996
_journal_page_first 591
_journal_name_full 'J.Heterocycl.Chem. '
loop_
_publ_author_name
"N.G.Argyropoulos"
"E.Corobili"
"E.P.Raptopoulou"
_chemical_name_systematic
;
1-(4-Nitrophenyl)-3,5-diphenyl-4-(benzamido)-1,2,4-triazol-4-ium
;
_chemical_melting_point 484.15
_cell_volume   2334.467
_exptl_special_details
;
Melting point range 484.15-486.15K
y(C41) is 0.1969 not 0.1919

;
_diffrn_ambient_temperature ?
_diffrn_special_details
;
The study was carried out at room temperature,in the range 283-303K

;
_refine_special_details
;
The nitrate group is disordered.

;
#These two values have been output from a single CSD field.
_refine_ls_R_factor_gt 0.0659
_refine_ls_wR_factor_gt 0.0659
_symmetry_cell_setting monoclinic
_symmetry_space_group_name_H-M 'P 21/c'
_symmetry_Int_Tables_number 14
loop_
_symmetry_equiv_pos_site_id
_symmetry_equiv_pos_as_xyz
1 x,y,z
2 -x,1/2+y,1/2-z
3 -x,-y,-z
4 x,-1/2-y,-1/2+z
_cell_length_a 10.0833(6)
_cell_length_b 27.111(1)
_cell_length_c 9.0596(5)
_cell_angle_alpha 90
_cell_angle_beta 70.494(4)
_cell_angle_gamma 90
_cell_formula_units_Z 4
loop_
_atom_type_symbol
_atom_type_radius_bond
C 0.68
N 0.68
O 0.68
loop_
_atom_site_label
_atom_site_type_symbol
_atom_site_fract_x
_atom_site_fract_y
_atom_site_fract_z
N1 N 0.3027(3) 0.3053(1) 0.9906(4)
N2 N 0.1862(4) 0.2794(1) 0.9882(4)
C1 C 0.2302(4) 0.2338(2) 0.9633(5)
N3 N 0.3699(3) 0.2306(1) 0.9494(4)
C2 C 0.4154(4) 0.2763(2) 0.9658(4)
C3 C 0.2840(4) 0.3568(2) 1.0254(5)
C4 C 0.3462(5) 0.3782(2) 1.1243(5)
C5 C 0.3189(6) 0.4273(2) 1.1641(6)
C6 C 0.2282(6) 0.4525(2) 1.1073(6)
C7 C 0.1662(5) 0.4315(2) 1.0090(5)
C8 C 0.1969(5) 0.3832(2) 0.9647(5)
C9 C 0.5589(4) 0.2903(2) 0.9533(5)
C10 C 0.6280(4) 0.2638(2) 1.0367(5)
C11 C 0.7636(5) 0.2764(2) 1.0244(6)
C12 C 0.8288(5) 0.3150(2) 0.9303(7)
C13 C 0.7598(5) 0.3416(2) 0.8472(6)
C14 C 0.6236(5) 0.3294(2) 0.8588(5)
N4 N 0.4570(4) 0.1894(1) 0.8911(4)
C15 C 0.4688(4) 0.1606(2) 1.0071(5)
O1 O 0.4129(3) 0.1677(1) 1.1505(3)
C16 C 0.5566(5) 0.1157(2) 0.9451(6)
C17 C 0.6378(5) 0.1114(2) 0.7876(6)
C18 C 0.7174(6) 0.0692(2) 0.7351(9)
C19 C 0.7148(7) 0.0313(2) 0.835(1)
C20 C 0.6362(7) 0.0354(2) 0.9924(9)
C21 C 0.5574(6) 0.0775(2) 1.0465(7)
C22 C 0.1410(4) 0.1969(2) 0.9540(5)
C23 C 0.0494(5) 0.1974(2) 0.8999(6)
C24 C 0.1442(5) 0.1480(2) 1.0299(6)
C25 C -0.0378(6) 0.1585(3) 0.8615(7)
C26 C 0.0560(6) 0.1096(2) 1.0210(7)
C27 C -0.0334(6) 0.1155(3) 0.9374(8)
N5 N 0.192(1) 0.5042(2) 1.1579(8)
O2 O 0.0927(6) 0.5228(2) 1.1339(5)
O3 O 0.252(3) 0.5244(9) 1.215(5)
O4? O 0.178(3) 0.510(1) 1.303(3)
O5? O 0.323(2) 0.5317(9) 1.173(4)
#END
