
#######################################################################
#
#                 Cambridge Crystallographic Data Centre
#                                CCDC
#
#######################################################################
#
# If this CIF has been generated from an entry in the Cambridge
# Structural Database, then it will include bibliographic, chemical,
# crystal, experimental, refinement or atomic coordinate data resulting
# from the CCDC's data processing and validation procedures.
#
#######################################################################

data_CSD_CIF_TUKROH
_audit_creation_date 2010-06-10
_audit_creation_method CSD-ConQuest-V1
_database_code_CSD TUKROH
_database_code_depnum_ccdc_archive 'CCDC 739970'
_chemical_formula_sum 'C24 H24 N2 O6'
_chemical_formula_moiety
;
C24 H24 N2 O6
;
_journal_coden_Cambridge 179
_journal_volume 48
_journal_year 2009
_journal_page_first 7232
_journal_name_full 'Angew.Chem.,Int.Ed. '
loop_
_publ_author_name
"Jun-Feng Zhao"
"Teck-Peng Loh"
_chemical_name_systematic
;
6-Methyl-7-(2-phenylethyl)bicyclo[4.2.0]oct-1-en-3-yl 3,5-dinitrobenzoate
;
_cell_volume   1059.309
_exptl_crystal_colour 'colorless'
_exptl_crystal_density_diffrn 1.368
_exptl_crystal_description 'block'
_diffrn_ambient_temperature 173
#These two values have been output from a single CSD field.
_refine_ls_R_factor_gt 0.0505
_refine_ls_wR_factor_gt 0.0505
_symmetry_cell_setting triclinic
_symmetry_space_group_name_H-M 'P -1'
_symmetry_Int_Tables_number 2
loop_
_symmetry_equiv_pos_site_id
_symmetry_equiv_pos_as_xyz
1 x,y,z
2 -x,-y,-z
_cell_length_a 8.1550(2)
_cell_length_b 10.7111(3)
_cell_length_c 12.5290(4)
_cell_angle_alpha 81.594(1)
_cell_angle_beta 82.435(2)
_cell_angle_gamma 79.828(1)
_cell_formula_units_Z 2
loop_
_atom_type_symbol
_atom_type_radius_bond
C 0.68
H 0.23
N 0.68
O 0.68
loop_
_atom_site_label
_atom_site_type_symbol
_atom_site_fract_x
_atom_site_fract_y
_atom_site_fract_z
C1 C 1.01450(14) 0.85605(12) 0.63813(9)
H1 H 1.04360 0.77780 0.60790
C2 C 1.12914(14) 0.89573(12) 0.69417(10)
H2 H 1.23560 0.84440 0.70170
C3 C 1.08830(14) 1.00975(12) 0.73901(9)
H3 H 1.16600 1.03630 0.77770
C4 C 0.93325(15) 1.08452(11) 0.72684(9)
H4 H 0.90450 1.16290 0.75700
C5 C 0.82031(14) 1.04500(11) 0.67072(9)
H5 H 0.71480 1.09740 0.66240
C6 C 0.85808(13) 0.92991(10) 0.62612(8)
C7 C 0.72781(14) 0.89223(12) 0.56694(10)
H6 H 0.68490 0.96720 0.51630
H7 H 0.63280 0.87260 0.62090
C8 C 0.78431(14) 0.77935(11) 0.50306(9)
H8 H 0.81100 0.70040 0.55380
H9 H 0.88730 0.79270 0.45430
C9 C 0.64859(13) 0.76371(10) 0.43627(8)
H10 H 0.60860 0.84840 0.39500
C10 C 0.49261(14) 0.70478(11) 0.49428(9)
H11 H 0.51550 0.64260 0.55930
H12 H 0.39120 0.76850 0.50900
C11 C 0.49811(12) 0.64491(9) 0.39167(8)
C12 C 0.67942(12) 0.65877(9) 0.35701(8)
C13 C 0.80531(15) 0.54188(11) 0.3947(1)
H13 H 0.77630 0.51440 0.47190
H14 H 0.91830 0.56430 0.38360
H15 H 0.80190 0.47220 0.35270
C14 C 0.70614(12) 0.69756(10) 0.23441(8)
H16 H 0.82740 0.69080 0.20970
H17 H 0.65260 0.78720 0.21580
C15 C 0.62771(13) 0.60768(11) 0.17875(9)
H18 H 0.64970 0.62830 0.09910
H19 H 0.68150 0.51840 0.19880
C16 C 0.43933(12) 0.61851(9) 0.21050(8)
H20 H 0.38090 0.69290 0.16440
C17 C 0.38586(12) 0.63352(10) 0.32746(8)
H21 H 0.27170 0.63490 0.35570
C18 C 0.23842(12) 0.50171(9) 0.16586(8)
C19 C 0.21389(12) 0.37695(9) 0.13554(8)
C20 C 0.34039(12) 0.27068(10) 0.14063(8)
H22 H 0.44550 0.27540 0.16340
C21 C 0.30872(12) 0.15805(9) 0.11156(8)
C22 C 0.16077(12) 0.14678(10) 0.07382(8)
H23 H 0.14440 0.06980 0.05050
C23 C 0.03782(12) 0.2540(1) 0.07199(8)
C24 C 0.06011(12) 0.36802(10) 0.10363(8)
H24 H -0.02830 0.43890 0.10350
N1 N -0.12536(12) 0.24351(10) 0.03985(8)
N2 N 0.43597(12) 0.04288(9) 0.12613(8)
O1 O 0.39571(9) 0.49954(7) 0.18399(7)
O2 O 0.12727(10) 0.59217(8) 0.17196(8)
O3 O -0.24485(11) 0.3258(1) 0.06288(9)
O4 O -0.13327(12) 0.15306(9) -0.00720(9)
O5 O 0.55667(13) 0.0511(1) 0.17129(11)
O6 O 0.41161(11) -0.05495(8) 0.09571(8)
#END
