
#######################################################################
#
#                 Cambridge Crystallographic Data Centre
#                                CCDC
#
#######################################################################
#
# If this CIF has been generated from an entry in the Cambridge
# Structural Database, then it will include bibliographic, chemical,
# crystal, experimental, refinement or atomic coordinate data resulting
# from the CCDC's data processing and validation procedures.
#
#######################################################################

data_CSD_CIF_TUMCUZ
_audit_creation_date 1997-07-04
_audit_creation_method CSD-ConQuest-V1
_database_code_CSD TUMCUZ
_database_code_depnum_ccdc_journal 182/254
_chemical_formula_sum 'C28 H52 N6 O8'
_chemical_formula_moiety
;
C28 H52 N6 O8
;
_journal_coden_Cambridge 182
_journal_year 1996
_journal_page_first 2461
_journal_name_full 'Chem.Commun. '
loop_
_publ_author_name
"G.Ulrich"
"P.Turek"
"R.Ziessel"
"A.De Cian"
"J.Fischer"
_chemical_name_systematic
;
Kryptospin
;
_chemical_melting_point 473.15
_cell_volume   1565.536
_exptl_crystal_colour 'red'
_exptl_crystal_density_diffrn 1.274
_exptl_special_details
;
Melts above 473.15K

;
_diffrn_ambient_temperature ?
_diffrn_special_details
;
The study was carried out at room temperature,in the range 283-303K

;
#These two values have been output from a single CSD field.
_refine_ls_R_factor_gt 0.047
_refine_ls_wR_factor_gt 0.047
_symmetry_cell_setting monoclinic
_symmetry_space_group_name_H-M 'P 21/n'
_symmetry_Int_Tables_number 14
loop_
_symmetry_equiv_pos_site_id
_symmetry_equiv_pos_as_xyz
1 x,y,z
2 1/2-x,1/2+y,1/2-z
3 -x,-y,-z
4 -1/2+x,-1/2-y,-1/2+z
_cell_length_a 6.185(1)
_cell_length_b 23.480(7)
_cell_length_c 11.028(3)
_cell_angle_alpha 90
_cell_angle_beta 102.17(2)
_cell_angle_gamma 90
_cell_formula_units_Z 2
loop_
_atom_type_symbol
_atom_type_radius_bond
C 0.68
H 0.23
N 0.68
O 0.68
loop_
_atom_site_label
_atom_site_type_symbol
_atom_site_fract_x
_atom_site_fract_y
_atom_site_fract_z
N1 N 0.1833(4) 0.17851(9) 0.8091(2)
O1 O 0.3062(4) 0.20077(9) 0.9049(2)
C1 C 0.1717(4) 0.1230(1) 0.7833(2)
C2 C 0.0165(4) 0.2131(1) 0.7191(2)
C3 C -0.0596(4) 0.1687(1) 0.6145(2)
N2 N 0.0211(3) 0.11421(8) 0.6786(2)
O2 O -0.0324(3) 0.06593(8) 0.6273(2)
C4 C 0.1308(6) 0.2657(1) 0.6830(3)
C5 C -0.1626(6) 0.2306(1) 0.7869(3)
C6 C -0.3079(5) 0.1654(1) 0.5680(3)
C7 C 0.0533(6) 0.1735(2) 0.5061(3)
C8 C 0.3086(4) 0.0786(1) 0.8591(2)
N3 N 0.5152(3) 0.06969(9) 0.8170(2)
C9 C 0.6954(4) 0.0494(1) 0.9152(2)
C10 C 0.7973(4) 0.0954(1) 1.0030(3)
O3 O 0.9705(3) 0.07070(7) 1.0916(2)
C11 C 1.0875(5) 0.1103(1) 1.1767(3)
C12 C 1.2585(5) 0.0796(1) 1.2698(3)
O4 O 1.4326(3) 0.06196(8) 1.2144(2)
C13 C 1.5894(4) 0.0259(1) 1.2917(3)
C14 C 0.4845(4) 0.0355(1) 0.7032(2)
H1 H 0.17070 0.29010 0.75280
H2 H 0.26000 0.25470 0.65510
H3 H 0.03320 0.28520 0.61820
H4 H -0.10430 0.25770 0.84920
H5 H -0.28280 0.24700 0.72960
H6 H -0.21260 0.19800 0.82410
H7 H -0.34150 0.13750 0.50440
H8 H -0.37590 0.15520 0.63450
H9 H -0.36200 0.20140 0.53580
H10 H -0.00240 0.14490 0.44660
H11 H 0.02530 0.20990 0.46900
H12 H 0.20810 0.16840 0.53430
H13 H 0.22790 0.04380 0.85170
H14 H 0.34190 0.09020 0.94340
H15 H 0.80680 0.03350 0.87780
H16 H 0.63920 0.02070 0.96090
H17 H 0.68940 0.11100 1.04320
H18 H 0.85440 0.12460 0.95890
H19 H 0.98780 0.12930 1.21780
H20 H 1.15740 0.13740 1.13370
H21 H 1.19330 0.04720 1.29940
H22 H 1.31480 0.10440 1.33710
H23 H 1.61730 0.04080 1.37350
H24 H 1.72210 0.02620 1.26130
H25 H 0.62250 0.03500 0.67830
H26 H 0.37730 0.05420 0.64210
C14B C 1.5155(4) -0.0355(1) 1.2968(2)
N3B N 1.4848(3) -0.06969(9) 1.1830(2)
C8B C 1.6914(4) -0.0786(1) 1.1409(2)
C1B C 1.8283(4) -0.1230(1) 1.2167(2)
N1B N 1.8167(4) -0.17851(9) 1.1909(2)
O1B O 1.6938(4) -0.20077(9) 1.0951(2)
C2B C 1.9835(4) -0.2131(1) 1.2809(2)
C3B C 2.0596(4) -0.1687(1) 1.3855(2)
N2B N 1.9789(3) -0.11421(8) 1.3214(2)
O2B O 2.0324(3) -0.06593(8) 1.3727(2)
C6B C 2.3079(5) -0.1654(1) 1.4320(3)
H7B H 2.34150 -0.13750 1.49560
H8B H 2.37590 -0.15520 1.36550
H9B H 2.36200 -0.20140 1.46420
C7B C 1.9467(6) -0.1735(2) 1.4939(3)
H10B H 2.00240 -0.14490 1.55340
H11B H 1.97470 -0.20990 1.53100
H12B H 1.79190 -0.16840 1.46570
C4B C 1.8692(6) -0.2657(1) 1.3170(3)
H1B H 1.82930 -0.29010 1.24720
H2B H 1.74000 -0.25470 1.34490
H3B H 1.96680 -0.28520 1.38180
C5B C 2.1626(6) -0.2306(1) 1.2131(3)
H4B H 2.10430 -0.25770 1.15080
H5B H 2.28280 -0.24700 1.27040
H6B H 2.21260 -0.19800 1.17590
H13B H 1.77210 -0.04380 1.14830
H14B H 1.65810 -0.09020 1.05660
C9B C 1.3046(4) -0.0494(1) 1.0848(2)
C10B C 1.2027(4) -0.0954(1) 0.9970(3)
O3B O 1.0295(3) -0.07070(7) 0.9084(2)
C11B C 0.9125(5) -0.1103(1) 0.8233(3)
C12B C 0.7415(5) -0.0796(1) 0.7302(3)
O4B O 0.5674(3) -0.06196(8) 0.7856(2)
C13B C 0.4106(4) -0.0259(1) 0.7083(3)
H23B H 0.38270 -0.04080 0.62650
H24B H 0.27790 -0.02620 0.73870
H21B H 0.80670 -0.04720 0.70060
H22B H 0.68520 -0.10440 0.66290
H19B H 1.01220 -0.12930 0.78220
H20B H 0.84260 -0.13740 0.86630
H17B H 1.31060 -0.11100 0.95680
H18B H 1.14560 -0.12460 1.04110
H15B H 1.19320 -0.03350 1.12220
H16B H 1.36080 -0.02070 1.03910
H25B H 1.37750 -0.03500 1.32170
H26B H 1.62270 -0.05420 1.35790
#END
