
#######################################################################
#
#                 Cambridge Crystallographic Data Centre
#                                CCDC
#
#######################################################################
#
# If this CIF has been generated from an entry in the Cambridge
# Structural Database, then it will include bibliographic, chemical,
# crystal, experimental, refinement or atomic coordinate data resulting
# from the CCDC's data processing and validation procedures.
#
#######################################################################

data_CSD_CIF_TUMSUQ
_audit_creation_date 2010-06-09
_audit_creation_method CSD-ConQuest-V1
_database_code_CSD TUMSUQ
_database_code_depnum_ccdc_archive 'CCDC 721681'
_chemical_formula_sum 'C22 H14 N4 O4'
_chemical_formula_moiety
;
C22 H14 N4 O4
;
_journal_coden_Cambridge 692
_journal_volume 2009
_journal_year 2009
_journal_page_first 2547
_journal_name_full 'Synthesis '
loop_
_publ_author_name
"S.C.Kornmayer"
"F.Rominger"
"R.Gleiter"
_chemical_name_systematic
;
1-(11,12-Didehydrodibenzo[a,e][8]annulen-5(6H)-ylidene)-2-(2,4-dinitrophenyl)h
ydrazine
;
_cell_volume   1836.206
_exptl_crystal_colour 'red'
_exptl_crystal_density_diffrn 1.441
_exptl_crystal_description 'polyhedron'
_diffrn_ambient_temperature 200
#These two values have been output from a single CSD field.
_refine_ls_R_factor_gt 0.059
_refine_ls_wR_factor_gt 0.059
_symmetry_cell_setting monoclinic
_symmetry_space_group_name_H-M 'P 21/n'
_symmetry_Int_Tables_number 14
loop_
_symmetry_equiv_pos_site_id
_symmetry_equiv_pos_as_xyz
1 x,y,z
2 1/2-x,1/2+y,1/2-z
3 -x,-y,-z
4 -1/2+x,-1/2-y,-1/2+z
_cell_length_a 12.0543(13)
_cell_length_b 8.2733(9)
_cell_length_c 19.102(2)
_cell_angle_alpha 90
_cell_angle_beta 105.447(5)
_cell_angle_gamma 90
_cell_formula_units_Z 4
loop_
_atom_type_symbol
_atom_type_radius_bond
C 0.68
H 0.23
N 0.68
O 0.68
loop_
_atom_site_label
_atom_site_type_symbol
_atom_site_fract_x
_atom_site_fract_y
_atom_site_fract_z
C1 C 1.1822(5) -0.3098(6) 0.3244(3)
C2 C 1.2855(4) -0.4034(6) 0.3137(3)
H1 H 1.33440 -0.43510 0.36210
H2 H 1.25710 -0.50390 0.28680
C3 C 1.3602(4) -0.3151(6) 0.2737(3)
C4 C 1.3585(5) -0.3538(6) 0.2032(3)
H3 H 1.30490 -0.43140 0.17740
C5 C 1.4342(5) -0.2805(8) 0.1695(3)
H4 H 1.43230 -0.30760 0.12090
C6 C 1.5125(5) -0.1679(7) 0.2071(4)
H5 H 1.56710 -0.12220 0.18500
C7 C 1.5121(5) -0.1214(7) 0.2764(3)
H6 H 1.56460 -0.04180 0.30150
C8 C 1.4341(5) -0.1918(7) 0.3094(3)
C9 C 1.4139(5) -0.1427(6) 0.3765(3)
C10 C 1.3570(5) -0.1401(6) 0.4191(3)
C11 C 1.2607(5) -0.1763(6) 0.4469(3)
C12 C 1.2483(6) -0.1297(7) 0.5143(3)
H7 H 1.30510 -0.06360 0.54530
C13 C 1.1540(7) -0.1792(9) 0.5361(4)
H8 H 1.14570 -0.14810 0.58240
C14 C 1.0718(6) -0.2737(8) 0.4910(4)
H9 H 1.00770 -0.30980 0.50690
C15 C 1.0803(5) -0.3177(7) 0.4226(3)
H10 H 1.02180 -0.38170 0.39180
C16 C 1.1742(5) -0.2681(6) 0.3992(3)
N1 N 1.1086(4) -0.2735(5) 0.2647(2)
N2 N 1.0105(4) -0.1922(5) 0.2666(3)
H11 H 0.994(4) -0.171(5) 0.306(3)
C17 C 0.9478(5) -0.1201(6) 0.2049(3)
C18 C 0.8539(4) -0.0169(6) 0.2027(3)
C19 C 0.8006(4) 0.0668(6) 0.1410(3)
H12 H 0.73870 0.13810 0.14080
C20 C 0.8373(5) 0.0467(7) 0.0796(3)
C21 C 0.9236(5) -0.0630(7) 0.0784(3)
H13 H 0.94460 -0.08140 0.03450
C22 C 0.9784(4) -0.1445(6) 0.1397(3)
H14 H 1.03790 -0.21870 0.13830
N3 N 0.8115(4) 0.0112(6) 0.2661(3)
O1 O 0.8560(3) -0.0645(4) 0.3228(2)
O2 O 0.7337(3) 0.1080(5) 0.26209(19)
N4 N 0.7845(5) 0.1419(6) 0.0160(3)
O3 O 0.7030(4) 0.2295(6) 0.0165(2)
O4 O 0.8255(4) 0.1325(5) -0.0365(2)
#END
