
#######################################################################
#
#                 Cambridge Crystallographic Data Centre
#                                CCDC
#
#######################################################################
#
# If this CIF has been generated from an entry in the Cambridge
# Structural Database, then it will include bibliographic, chemical,
# crystal, experimental, refinement or atomic coordinate data resulting
# from the CCDC's data processing and validation procedures.
#
#######################################################################

data_CSD_CIF_TUNPIC
_audit_creation_date 2010-07-30
_audit_creation_method CSD-ConQuest-V1
_database_code_CSD TUNPIC
_database_code_depnum_ccdc_archive 'CCDC 781271'
_chemical_formula_sum 'C11 H16 N4 O2'
_chemical_formula_moiety
;
C11 H16 N4 O2
;
_journal_coeditor_code "IUCr IM2192"
_journal_coden_Cambridge 1370
_journal_volume 66
_journal_year 2010
_journal_page_first o1268
_journal_name_full 'Acta Crystallogr.,Sect.E:Struct.Rep.Online '
loop_
_publ_author_name
"C.-j.Luan"
"C.Guo"
"W.Wang"
"J.-q.Wang"
"R.-j.Du"
_chemical_name_systematic
;
5-(4-Methylpiperazin-1-yl)-2-nitroaniline
;
_chemical_melting_point 428
_cell_volume   1148.711
_exptl_crystal_colour 'yellow'
_exptl_crystal_density_diffrn 1.366
_exptl_crystal_description 'block'
_exptl_crystal_preparation 'methanol'
_diffrn_ambient_temperature 293
#These two values have been output from a single CSD field.
_refine_ls_R_factor_gt 0.0639
_refine_ls_wR_factor_gt 0.0639
_symmetry_cell_setting monoclinic
_symmetry_space_group_name_H-M 'P 21/c'
_symmetry_Int_Tables_number 14
loop_
_symmetry_equiv_pos_site_id
_symmetry_equiv_pos_as_xyz
1 x,y,z
2 -x,1/2+y,1/2-z
3 -x,-y,-z
4 x,-1/2-y,-1/2+z
_cell_length_a 11.027(2)
_cell_length_b 6.121(1)
_cell_length_c 17.524(4)
_cell_angle_alpha 90
_cell_angle_beta 103.79(3)
_cell_angle_gamma 90
_cell_formula_units_Z 4
loop_
_atom_type_symbol
_atom_type_radius_bond
C 0.68
H 0.23
N 0.68
O 0.68
loop_
_atom_site_label
_atom_site_type_symbol
_atom_site_fract_x
_atom_site_fract_y
_atom_site_fract_z
N1 N 0.6711(2) 0.0465(4) 0.16875(13)
O1 O 1.3775(2) -0.0656(4) 0.56703(14)
C1 C 0.5525(3) 0.1090(6) 0.11543(19)
H1 H 0.56830 0.20640 0.07600
H2 H 0.50070 0.18090 0.14470
H3 H 0.51070 -0.01930 0.09070
N2 N 0.8586(2) 0.0019(4) 0.31264(13)
O2 O 1.2787(2) -0.3532(4) 0.58981(13)
C2 C 0.7330(3) 0.2397(5) 0.20898(17)
H4 H 0.68260 0.30070 0.24220
H5 H 0.74090 0.34930 0.17050
C3 C 0.8606(3) 0.1827(5) 0.25841(16)
H6 H 0.91430 0.14400 0.22400
H7 H 0.89600 0.31030 0.28830
N3 N 1.2683(2) 0.2156(4) 0.45524(16)
H8 H 1.25950 0.33150 0.42670
H9 H 1.33590 0.19540 0.49090
C4 C 0.7741(3) -0.1801(5) 0.28094(18)
H10 H 0.75770 -0.26450 0.32420
H11 H 0.81490 -0.27550 0.25060
N4 N 1.2841(2) -0.1869(5) 0.55073(15)
C5 C 0.6513(3) -0.1026(5) 0.22932(17)
H12 H 0.60350 -0.22760 0.20480
H13 H 0.60330 -0.02920 0.26150
C6 C 0.9667(2) -0.0433(4) 0.36840(15)
C7 C 1.0669(2) 0.1023(5) 0.38534(15)
H14 H 1.06100 0.23070 0.35630
C8 C 1.1758(2) 0.0647(5) 0.44396(16)
C9 C 1.1820(2) -0.1317(5) 0.48727(15)
C10 C 1.0839(3) -0.2817(5) 0.46870(17)
H15 H 1.09010 -0.41200 0.49660
C11 C 0.9799(3) -0.2428(5) 0.41112(17)
H16 H 0.91690 -0.34710 0.39950
#END
