
#######################################################################
#
#                 Cambridge Crystallographic Data Centre
#                                CCDC
#
#######################################################################
#
# If this CIF has been generated from an entry in the Cambridge
# Structural Database, then it will include bibliographic, chemical,
# crystal, experimental, refinement or atomic coordinate data resulting
# from the CCDC's data processing and validation procedures.
#
#######################################################################

data_CSD_CIF_TUNQAU
_audit_creation_date 1997-07-04
_audit_creation_method CSD-ConQuest-V1
_database_code_CSD TUNQAU
_database_code_depnum_ccdc_archive 'CCDC 1276955'
_chemical_formula_sum 'C16 H11 N3 O2'
_chemical_formula_moiety
;
C16 H11 N3 O2
;
_journal_coden_Cambridge 7
_journal_volume 69
_journal_year 1996
_journal_page_first 1621
_journal_name_full 'Bull.Chem.Soc.Jpn. '
loop_
_publ_author_name
"Chunmin Li"
"Yunhong Go"
"Zihua Mao"
"K.Koyano"
"Y.Kai"
"N.Kanehisa"
"Qingtai Zhu"
"Zhonghua Zhou"
"Souyu Wu"
_chemical_name_systematic
;
Indirubin mono-oxime
;
_chemical_name_common
;
PDB Chemical Component code: IXM
;
_chemical_melting_point 518.15
_cell_volume   6187.362
_exptl_crystal_colour 'dark red'
_exptl_crystal_density_diffrn 1.34
_exptl_special_details
;
in vivo and in vitro antileukemic activity

;
_diffrn_ambient_temperature ?
_diffrn_special_details
;
The study was carried out at room temperature,in the range 283-303K

;
#These two values have been output from a single CSD field.
_refine_ls_R_factor_gt 0.047
_refine_ls_wR_factor_gt 0.047
_symmetry_cell_setting rhombohedral
_symmetry_space_group_name_H-M 'R -3'
_symmetry_Int_Tables_number 148
loop_
_symmetry_equiv_pos_site_id
_symmetry_equiv_pos_as_xyz
1 x,y,z
2 -y,x-y,z
3 -x+y,-x,z
4 1/3+x,2/3+y,2/3+z
5 1/3-y,2/3+x-y,2/3+z
6 1/3-x+y,2/3-x,2/3+z
7 2/3+x,1/3+y,1/3+z
8 2/3-y,1/3+x-y,1/3+z
9 2/3-x+y,1/3-x,1/3+z
10 -x,-y,-z
11 y,-x+y,-z
12 x-y,x,-z
13 -1/3-x,-2/3-y,-2/3-z
14 -1/3+y,-2/3-x+y,-2/3-z
15 -1/3+x-y,-2/3+x,-2/3-z
16 -2/3-x,-1/3-y,-1/3-z
17 -2/3+y,-1/3-x+y,-1/3-z
18 -2/3+x-y,-1/3+x,-1/3-z
_cell_length_a 22.643(5)
_cell_length_b 22.643(5)
_cell_length_c 13.935(2)
_cell_angle_alpha 90
_cell_angle_beta 90
_cell_angle_gamma 120
_cell_formula_units_Z 18
loop_
_atom_type_symbol
_atom_type_radius_bond
C 0.68
N 0.68
O 0.68
loop_
_atom_site_label
_atom_site_type_symbol
_atom_site_fract_x
_atom_site_fract_y
_atom_site_fract_z
O1 O 0.8640(1) 0.0833(1) 0.9764(2)
O2 O 0.6703(1) 0.1880(1) 1.1735(2)
N1 N 0.8157(2) 0.0009(2) 1.0939(3)
N2 N 0.8212(2) 0.1741(2) 0.9846(3)
N3 N 0.7014(2) 0.1489(2) 1.1601(3)
C1 C 0.7693(2) -0.0157(2) 1.1693(3)
C2 C 0.7483(2) -0.0686(2) 1.2331(4)
C3 C 0.7083(2) -0.0740(2) 1.3045(4)
C4 C 0.6803(2) -0.0283(2) 1.3097(4)
C5 C 0.7020(2) 0.0250(2) 1.2452(3)
C6 C 0.7485(2) 0.0328(2) 1.1733(3)
C7 C 0.8259(2) 0.0580(2) 1.0481(3)
C8 C 0.7842(2) 0.0814(2) 1.0962(3)
C9 C 0.7831(2) 0.1381(2) 1.0610(3)
C10 C 0.7442(2) 0.1721(2) 1.0895(3)
C11 C 0.8101(2) 0.2277(2) 0.9600(3)
C12 C 0.7627(2) 0.2284(2) 1.0232(3)
C13 C 0.7439(2) 0.2776(2) 1.0125(3)
C14 C 0.7724(2) 0.3242(2) 0.9385(4)
C15 C 0.8191(2) 0.3221(2) 0.8766(4)
C16 C 0.8392(2) 0.2742(2) 0.8862(2)
#END
