
#######################################################################
#
#                 Cambridge Crystallographic Data Centre
#                                CCDC
#
#######################################################################
#
# If this CIF has been generated from an entry in the Cambridge
# Structural Database, then it will include bibliographic, chemical,
# crystal, experimental, refinement or atomic coordinate data resulting
# from the CCDC's data processing and validation procedures.
#
#######################################################################

data_CSD_CIF_TUNWAB
_audit_creation_date 2010-07-16
_audit_creation_method CSD-ConQuest-V1
_database_code_CSD TUNWAB
_database_code_depnum_ccdc_archive 'CCDC 781296'
_chemical_formula_sum 'C12 H15 N3 O2'
_chemical_formula_moiety
;
C12 H15 N3 O2
;
_journal_coeditor_code "IUCr DN2561"
_journal_coden_Cambridge 1370
_journal_volume 66
_journal_year 2010
_journal_page_first o1300
_journal_name_full 'Acta Crystallogr.,Sect.E:Struct.Rep.Online '
loop_
_publ_author_name
"Bao-he Yang"
"Jun-long Niu"
_chemical_name_systematic
;
1-Cyclohexylidene-2-(2-nitrophenyl)hydrazine
;
_chemical_name_common
;
Cyclohexanone 2-nitrophenylhydrazone
;
_cell_volume   1210.570
_exptl_crystal_colour 'red'
_exptl_crystal_density_diffrn 1.28
_exptl_crystal_description 'block'
_exptl_crystal_preparation 'methanol/dichoromethane'
_diffrn_ambient_temperature 293
#These two values have been output from a single CSD field.
_refine_ls_R_factor_gt 0.0351
_refine_ls_wR_factor_gt 0.0351
_symmetry_cell_setting monoclinic
_symmetry_space_group_name_H-M 'P 21/c'
_symmetry_Int_Tables_number 14
loop_
_symmetry_equiv_pos_site_id
_symmetry_equiv_pos_as_xyz
1 x,y,z
2 -x,1/2+y,1/2-z
3 -x,-y,-z
4 x,-1/2-y,-1/2+z
_cell_length_a 8.519(5)
_cell_length_b 19.609(7)
_cell_length_c 7.822(4)
_cell_angle_alpha 90
_cell_angle_beta 112.110(7)
_cell_angle_gamma 90
_cell_formula_units_Z 4
loop_
_atom_type_symbol
_atom_type_radius_bond
C 0.68
H 0.23
N 0.68
O 0.68
loop_
_atom_site_label
_atom_site_type_symbol
_atom_site_fract_x
_atom_site_fract_y
_atom_site_fract_z
O1 O -0.0513(2) 0.70011(9) 0.6282(2)
O2 O 0.0322(2) 0.60900(8) 0.7886(2)
N1 N 0.0275(3) 0.64621(11) 0.6599(3)
N2 N 0.19470(18) 0.51469(9) 0.6890(2)
H1 H 0.14840 0.52390 0.76690
N3 N 0.2696(2) 0.45142(10) 0.6925(2)
C1 C 0.1174(3) 0.62570(13) 0.5443(3)
C2 C 0.1241(3) 0.67296(11) 0.4156(3)
H2 H 0.07290 0.71530 0.40790
C3 C 0.2056(3) 0.65756(14) 0.2998(3)
H3 H 0.21010 0.68900 0.21280
C4 C 0.2813(3) 0.59436(15) 0.3146(3)
H4 H 0.33730 0.58360 0.23650
C5 C 0.2757(2) 0.54760(11) 0.4404(3)
H5 H 0.32680 0.50530 0.44540
C6 C 0.1950(2) 0.56162(12) 0.5625(3)
C7 C 0.2737(2) 0.41110(11) 0.8199(3)
C8 C 0.2140(3) 0.42256(10) 0.9746(3)
H6 H 0.11450 0.39490 0.95540
H7 H 0.18260 0.47000 0.97620
C9 C 0.3519(3) 0.40421(11) 1.1584(3)
H8 H 0.44360 0.43700 1.18660
H9 H 0.30640 0.40710 1.25470
C10 C 0.4207(3) 0.33364(11) 1.1574(3)
H10 H 0.33170 0.30040 1.14020
H11 H 0.51110 0.32470 1.27550
C11 C 0.4880(3) 0.32612(11) 1.0044(3)
H12 H 0.52760 0.27980 1.00320
H13 H 0.58320 0.35670 1.02700
C12 C 0.3504(3) 0.3425(1) 0.8190(3)
H14 H 0.39810 0.34150 0.72430
H15 H 0.26260 0.30800 0.78910
#END
