
#######################################################################
#
#                 Cambridge Crystallographic Data Centre
#                                CCDC
#
#######################################################################
#
# If this CIF has been generated from an entry in the Cambridge
# Structural Database, then it will include bibliographic, chemical,
# crystal, experimental, refinement or atomic coordinate data resulting
# from the CCDC's data processing and validation procedures.
#
#######################################################################

data_CSD_CIF_TUPNEY
_audit_creation_date 2010-07-16
_audit_creation_method CSD-ConQuest-V1
_database_code_CSD TUPNEY
_database_code_depnum_ccdc_archive 'CCDC 781364'
_chemical_formula_sum 'C28 H26 N2 O4'
_chemical_formula_moiety
;
C28 H26 N2 O4
;
_journal_coeditor_code "IUCr LX2150"
_journal_coden_Cambridge 1370
_journal_volume 66
_journal_year 2010
_journal_page_first o1387
_journal_name_full 'Acta Crystallogr.,Sect.E:Struct.Rep.Online '
loop_
_publ_author_name
"Jian Zhao"
"Jin-Long Wu"
_chemical_name_systematic
;
(3aR*,6S*,7S*,7aR*)-2-(4-Methoxybenzyl)-7-(4-nitrophenyl)-6-phenyl-3a,6,7,7a-t
etrahydroisoindolin-1-one
;
_chemical_melting_point 466
_cell_volume   1170.275
_exptl_crystal_colour 'colorless'
_exptl_crystal_density_diffrn 1.29
_exptl_special_details
;
Melting point range 466-468K

;
_exptl_crystal_description 'block'
_exptl_crystal_preparation 'dichloromethane/ethyl acetate/hexane'
_diffrn_ambient_temperature 296
#These two values have been output from a single CSD field.
_refine_ls_R_factor_gt 0.0418
_refine_ls_wR_factor_gt 0.0418
_symmetry_cell_setting triclinic
_symmetry_space_group_name_H-M 'P -1'
_symmetry_Int_Tables_number 2
loop_
_symmetry_equiv_pos_site_id
_symmetry_equiv_pos_as_xyz
1 x,y,z
2 -x,-y,-z
_cell_length_a 5.4369(4)
_cell_length_b 12.2662(7)
_cell_length_c 18.149(1)
_cell_angle_alpha 79.633(1)
_cell_angle_beta 84.036(2)
_cell_angle_gamma 80.325(2)
_cell_formula_units_Z 2
loop_
_atom_type_symbol
_atom_type_radius_bond
C 0.68
H 0.23
N 0.68
O 0.68
loop_
_atom_site_label
_atom_site_type_symbol
_atom_site_fract_x
_atom_site_fract_y
_atom_site_fract_z
O1 O 0.3920(3) 0.6033(1) 0.32284(8)
C1 C -0.0091(3) 0.63563(13) 0.20272(9)
H1 H -0.14340 0.61280 0.23960
C2 C 0.0145(3) 0.75414(13) 0.21103(9)
O2 O -0.0827(3) 0.11519(11) 0.56486(8)
C3 C -0.1747(3) 0.81473(14) 0.25156(10)
H2 H -0.31070 0.78100 0.27430
C4 C -0.0937(3) 0.62877(14) 0.12304(10)
H3 H -0.27050 0.66220 0.12270
C5 C 0.2183(3) 0.54638(12) 0.21746(9)
H4 H 0.33940 0.55600 0.17380
N1 N 0.4524(3) 0.42079(11) 0.30303(8)
C6 C 0.2321(3) 0.91472(14) 0.18609(10)
H5 H 0.36880 0.94860 0.16430
C7 C 0.2179(3) 0.80600(13) 0.17894(10)
H6 H 0.34710 0.76650 0.15210
C8 C 0.0719(4) 0.18191(15) 0.52078(10)
C9 C -0.1642(4) 0.92434(15) 0.25872(11)
H7 H -0.29300 0.96480 0.28510
C10 C 0.0403(3) 0.97220(13) 0.22604(10)
C11 C 0.0421(3) 0.69472(14) 0.05692(10)
C12 C 0.3594(3) 0.53126(13) 0.28773(9)
C13 C 0.0549(4) 0.29610(15) 0.51910(11)
H8 H -0.06760 0.33330 0.54940
C14 C -0.0810(3) 0.50875(15) 0.11146(11)
H9 H -0.15590 0.49710 0.07030
C15 C 0.1409(3) 0.43048(13) 0.22418(10)
H10 H 0.00910 0.42500 0.26520
C16 C 0.4095(3) 0.30153(14) 0.42622(10)
C17 C 0.0281(3) 0.41877(15) 0.15518(11)
H11 H 0.03420 0.34810 0.14270
N2 N 0.0562(4) 1.08752(13) 0.23437(11)
C18 C 0.2232(4) 0.35445(15) 0.47165(11)
H12 H 0.21070 0.43130 0.47030
C19 C 0.2572(4) 0.12738(15) 0.47615(11)
H13 H 0.26930 0.05050 0.47740
O3 O -0.1207(4) 1.14155(13) 0.26491(12)
C20 C 0.4236(4) 0.18681(15) 0.42990(11)
H14 H 0.54820 0.14910 0.40050
C21 C 0.3733(4) 0.35368(14) 0.25297(11)
H15 H 0.33360 0.28240 0.28020
H16 H 0.49990 0.34050 0.21240
O4 O 0.2473(4) 1.12510(13) 0.20977(13)
C22 C 0.2721(4) 0.65034(17) 0.0246(1)
H17 H 0.34440 0.57770 0.04330
C23 C 0.5791(4) 0.36794(16) 0.37105(11)
H18 H 0.62820 0.42530 0.39440
H19 H 0.72940 0.31850 0.35750
C24 C -0.0606(4) 0.80281(17) 0.02643(12)
H20 H -0.21470 0.83470 0.04650
C25 C -0.2937(4) 0.16809(19) 0.60542(12)
H21 H -0.23780 0.20320 0.64250
H22 H -0.39490 0.11300 0.62970
H23 H -0.39060 0.22380 0.57140
C26 C 0.3949(5) 0.7124(2) -0.03484(12)
H24 H 0.54960 0.68160 -0.05510
C27 C 0.0632(6) 0.8639(2) -0.03356(14)
H25 H -0.00870 0.93620 -0.05330
C28 C 0.2906(6) 0.8187(2) -0.06392(14)
H26 H 0.37330 0.86010 -0.10400
#END
