
#######################################################################
#
#                 Cambridge Crystallographic Data Centre
#                                CCDC
#
#######################################################################
#
# If this CIF has been generated from an entry in the Cambridge
# Structural Database, then it will include bibliographic, chemical,
# crystal, experimental, refinement or atomic coordinate data resulting
# from the CCDC's data processing and validation procedures.
#
#######################################################################

data_CSD_CIF_TUPVIL
_audit_creation_date 2015-09-30
_audit_creation_method CSD-ConQuest-V1
_database_code_CSD TUPVIL
_database_code_depnum_ccdc_archive 'CCDC 1428715'
_chemical_formula_sum 'C46 H34 N4 O4'
_chemical_formula_moiety
;
C46 H34 N4 O4
;
_journal_coden_Cambridge 1277
_journal_volume 119
_journal_year 2015
_journal_page_first 1906
_journal_name_full 'J.Phys.Chem.A '
loop_
_publ_author_name
"C.B.O.Nielsen"
"Henning Osholm Srensen"
"J.Kongsted"
_chemical_name_systematic
;
4,4'-((2,5-Dinitro-1,4-phenylene)diethene-2,1-diyl)bis(N,N-diphenylaniline)
;
_cell_volume   3513.611
_exptl_crystal_colour 'dark red'
_exptl_crystal_density_diffrn 1.336
_exptl_crystal_description 'Prism'
_diffrn_ambient_temperature 122
#These two values have been output from a single CSD field.
_refine_ls_R_factor_gt 0.062
_refine_ls_wR_factor_gt 0.062
_symmetry_cell_setting orthorhombic
_symmetry_space_group_name_H-M 'P b c a'
_symmetry_Int_Tables_number 61
loop_
_symmetry_equiv_pos_site_id
_symmetry_equiv_pos_as_xyz
1 x,y,z
2 1/2-x,-y,1/2+z
3 1/2+x,1/2-y,-z
4 -x,1/2+y,1/2-z
5 -x,-y,-z
6 -1/2+x,y,-1/2-z
7 -1/2-x,-1/2+y,z
8 x,-1/2-y,-1/2+z
_cell_length_a 10.981(2)
_cell_length_b 16.0090(19)
_cell_length_c 19.9870(18)
_cell_angle_alpha 90
_cell_angle_beta 90
_cell_angle_gamma 90
_cell_formula_units_Z 4
loop_
_atom_type_symbol
_atom_type_radius_bond
C 0.68
H 0.23
N 0.68
O 0.68
loop_
_atom_site_label
_atom_site_type_symbol
_atom_site_fract_x
_atom_site_fract_y
_atom_site_fract_z
N1 N 0.41722(11) 0.12055(8) 0.67058(7)
C1 C 0.80381(13) 0.33144(9) 0.58266(8)
H1 H 0.88190 0.32010 0.60100
C2 C 0.59267(14) 0.27240(9) 0.56835(7)
H2 H 0.58210 0.30470 0.52890
C3 C 0.70359(13) 0.27700(9) 0.60329(7)
C4 C 0.71405(13) 0.22980(9) 0.66220(8)
H3 H 0.78790 0.23190 0.68690
C5 C 1.11419(13) 0.46812(9) 0.50132(7)
C6 C 0.51079(13) 0.17394(8) 0.64877(7)
C7 C 0.44435(13) 0.04772(9) 0.70922(7)
C8 C 0.61952(13) 0.18028(9) 0.68528(7)
H4 H 0.62840 0.15040 0.72610
C9 C 1.01811(13) 0.41905(9) 0.52225(7)
H5 H 1.03360 0.36380 0.53750
C10 C 0.39456(15) -0.04455(11) 0.80066(9)
H6 H 0.34330 -0.05860 0.83730
C11 C 0.49851(13) 0.22190(9) 0.59015(7)
H7 H 0.42490 0.21960 0.56530
O1 O 1.29989(13) 0.44058(9) 0.45091(8)
C12 C 0.21871(14) 0.06995(11) 0.63360(8)
H8 H 0.25030 0.01470 0.63240
C13 C 0.05079(15) 0.16538(13) 0.61799(9)
H9 H -0.03150 0.17540 0.60570
C14 C 0.89824(13) 0.44924(9) 0.52142(7)
C15 C 0.79486(13) 0.39572(10) 0.54028(7)
H10 H 0.71750 0.40750 0.52130
C16 C 0.54291(14) -0.00389(9) 0.69291(8)
H11 H 0.59330 0.00920 0.65570
C17 C 0.37119(14) 0.02716(10) 0.76390(8)
H12 H 0.30510 0.06240 0.77600
O2 O 1.26036(13) 0.37906(9) 0.54500(8)
C18 C 0.24580(15) 0.21662(10) 0.65555(8)
H13 H 0.29570 0.26200 0.66920
C19 C 0.49207(16) -0.09592(10) 0.78449(9)
H14 H 0.50730 -0.14520 0.80960
C20 C 0.29358(13) 0.13612(10) 0.65303(7)
N2 N 1.23427(12) 0.42675(8) 0.49921(8)
C21 C 0.09801(15) 0.08476(12) 0.61596(9)
H15 H 0.04760 0.03960 0.60250
C22 C 0.56688(15) -0.07467(10) 0.73148(9)
H16 H 0.63610 -0.10920 0.72150
C23 C 0.12404(16) 0.23067(12) 0.63795(9)
H17 H 0.09160 0.28570 0.63980
N1D N 1.58278(11) 0.87945(8) 0.32942(7)
C1D C 1.19619(13) 0.66856(9) 0.41734(8)
H1D H 1.11810 0.67990 0.39900
C2D C 1.40733(14) 0.72760(9) 0.43165(7)
H2D H 1.41790 0.69530 0.47110
C3D C 1.29641(13) 0.72300(9) 0.39671(7)
C4D C 1.28595(13) 0.77020(9) 0.33780(8)
H3D H 1.21210 0.76810 0.31310
C5D C 0.88581(13) 0.53188(9) 0.49868(7)
C6D C 1.48921(13) 0.82606(8) 0.35123(7)
C7D C 1.55565(13) 0.95228(9) 0.29078(7)
C8D C 1.38048(13) 0.81972(9) 0.31472(7)
H4D H 1.37160 0.84960 0.27390
C9D C 0.98189(13) 0.58095(9) 0.47775(7)
H5D H 0.96640 0.63620 0.46250
C10D C 1.60544(15) 1.04455(11) 0.19934(9)
H6D H 1.65670 1.05860 0.16270
C11D C 1.50149(13) 0.77810(9) 0.40985(7)
H7D H 1.57510 0.78040 0.43470
O1D O 0.70011(13) 0.55942(9) 0.54909(8)
C12D C 1.78129(14) 0.93005(11) 0.36640(8)
H8D H 1.74970 0.98530 0.36760
C13D C 1.94921(15) 0.83462(13) 0.38201(9)
H9D H 2.03150 0.82460 0.39430
C14D C 1.10176(13) 0.55076(9) 0.47858(7)
C15D C 1.20514(13) 0.60428(10) 0.45972(7)
H10D H 1.28250 0.59250 0.47870
C16D C 1.45709(14) 1.00389(9) 0.30709(8)
H11D H 1.40670 0.99080 0.34430
C17D C 1.62881(14) 0.97284(10) 0.23610(8)
H12D H 1.69490 0.93760 0.22400
O2D O 0.73964(13) 0.62094(9) 0.45500(8)
C18D C 1.75420(15) 0.78338(10) 0.34445(8)
H13D H 1.70430 0.73800 0.33080
C19D C 1.50793(16) 1.09592(10) 0.21551(9)
H14D H 1.49270 1.14520 0.19040
C20D C 1.70642(13) 0.86388(10) 0.34697(7)
N2D N 0.76573(12) 0.57325(8) 0.50079(8)
C21D C 1.90199(15) 0.91524(12) 0.38404(9)
H15D H 1.95240 0.96040 0.39750
C22D C 1.43312(15) 1.07467(10) 0.26852(9)
H16D H 1.36390 1.10920 0.27850
C23D C 1.87596(16) 0.76933(12) 0.36205(9)
H17D H 1.90840 0.71430 0.36020
#END
