
#######################################################################
#
#                 Cambridge Crystallographic Data Centre
#                                CCDC
#
#######################################################################
#
# If this CIF has been generated from an entry in the Cambridge
# Structural Database, then it will include bibliographic, chemical,
# crystal, experimental, refinement or atomic coordinate data resulting
# from the CCDC's data processing and validation procedures.
#
#######################################################################

data_CSD_CIF_TUQJAS
_audit_creation_date 2015-09-30
_audit_creation_method CSD-ConQuest-V1
_database_code_CSD TUQJAS
_database_code_depnum_ccdc_archive 'CCDC 1408532'
_chemical_formula_sum 'C19 H23 N3 O1'
_chemical_formula_moiety
;
C19 H23 N3 O1
;
_journal_coden_Cambridge 440
_journal_volume 39
_journal_year 2015
_journal_page_first 9330
_journal_name_full 'New J.Chem. '
loop_
_publ_author_name
"A.S.Smirnov"
"E.S.Yandanova"
"N.A.Bokach"
"G.L.Starova"
"V.V.Gurzhiy"
"M.S.Avdontceva"
"A.A.Zolotarev"
"V.Yu.Kukushkin"
_chemical_name_systematic
;
N,N-Diethyl-2-methyl-3,3-diphenyl-2,3-dihydro-1,2,4-oxadiazol-5-amine
;
_cell_volume    847.211
_exptl_crystal_density_diffrn 1.213
_diffrn_ambient_temperature 100
#These two values have been output from a single CSD field.
_refine_ls_R_factor_gt 0.0596
_refine_ls_wR_factor_gt 0.0596
_symmetry_cell_setting triclinic
_symmetry_space_group_name_H-M 'P -1'
_symmetry_Int_Tables_number 2
loop_
_symmetry_equiv_pos_site_id
_symmetry_equiv_pos_as_xyz
1 x,y,z
2 -x,-y,-z
_cell_length_a 7.1360(13)
_cell_length_b 9.7606(13)
_cell_length_c 13.6208(12)
_cell_angle_alpha 70.976(10)
_cell_angle_beta 78.653(12)
_cell_angle_gamma 71.791(15)
_cell_formula_units_Z 2
loop_
_atom_type_symbol
_atom_type_radius_bond
C 0.68
H 0.23
N 0.68
O 0.68
loop_
_atom_site_label
_atom_site_type_symbol
_atom_site_fract_x
_atom_site_fract_y
_atom_site_fract_z
O1 O -0.15018(18) 0.70000(14) 0.69797(8)
N1 N 0.1832(2) 0.63444(16) 0.65104(9)
N2 N -0.0627(2) 0.60501(17) 0.7955(1)
N3 N -0.0410(2) 0.74707(17) 0.52284(10)
C1 C 0.1483(3) 0.6138(2) 0.76466(11)
C2 C 0.0099(3) 0.69051(19) 0.62101(12)
C3 C -0.2468(3) 0.7899(2) 0.50069(13)
H1 H -0.26120 0.86290 0.43250
H2 H -0.33200 0.83710 0.55210
C4 C 0.1173(3) 0.7582(2) 0.43679(12)
H3 H 0.07390 0.75140 0.37580
H4 H 0.23270 0.67420 0.45590
C5 C 0.2897(3) 0.47357(19) 0.82590(12)
C6 C 0.1679(3) 0.75395(19) 0.78547(11)
C7 C 0.1747(4) 0.9033(2) 0.40977(15)
H5 H 0.28410 0.90340 0.35600
H6 H 0.21270 0.91240 0.47070
H7 H 0.06380 0.98650 0.38550
C8 C -0.3124(3) 0.6551(3) 0.50253(17)
H8 H -0.22940 0.60880 0.45110
H9 H -0.44770 0.68760 0.48720
H10 H -0.30160 0.58370 0.57050
C9 C -0.0915(3) 0.4576(2) 0.80904(13)
H11 H -0.23080 0.46610 0.81520
H12 H -0.03670 0.38760 0.87110
H13 H -0.02600 0.42240 0.74970
C10 C 0.4156(3) 0.3675(2) 0.77817(12)
H14 H 0.41700 0.38270 0.70700
C11 C 0.5389(3) 0.2394(2) 0.83650(14)
H15 H 0.62360 0.16910 0.80410
C12 C 0.5377(3) 0.2146(2) 0.94269(13)
H16 H 0.61930 0.12710 0.98160
C13 C 0.4146(3) 0.3205(2) 0.99050(13)
H17 H 0.41420 0.30490 1.06160
C14 C 0.2920(3) 0.4495(2) 0.93244(13)
H18 H 0.21010 0.52090 0.96470
C15 C 0.3441(3) 0.7954(2) 0.74758(12)
H19 H 0.44500 0.73850 0.71100
C16 C 0.3706(3) 0.9209(2) 0.76387(13)
H20 H 0.48870 0.94780 0.73800
C17 C 0.2219(3) 1.0061(2) 0.81838(14)
H21 H 0.23890 1.09100 0.82860
C18 C 0.0487(3) 0.9643(2) 0.85743(15)
H22 H -0.05110 1.02120 0.89450
C19 C 0.0208(3) 0.8376(2) 0.84213(14)
H23 H -0.09610 0.80940 0.86990
#END
