
#######################################################################
#
#                 Cambridge Crystallographic Data Centre
#                                CCDC
#
#######################################################################
#
# If this CIF has been generated from an entry in the Cambridge
# Structural Database, then it will include bibliographic, chemical,
# crystal, experimental, refinement or atomic coordinate data resulting
# from the CCDC's data processing and validation procedures.
#
#######################################################################

data_CSD_CIF_TURLUP
_audit_creation_date 2015-09-30
_audit_creation_method CSD-ConQuest-V1
_database_code_CSD TURLUP
_database_code_depnum_ccdc_archive 'CCDC 1428843'
_chemical_formula_sum 'C13 H15 N4 O6'
_chemical_formula_moiety
;
C13 H15 N4 O6
;
_journal_coden_Cambridge 1767
_journal_volume 2
_journal_year 2011
_journal_page_first 3036
_journal_name_full 'J.Phys.Chem.Lett. '
loop_
_publ_author_name
"D.Shiomi"
"Y.Kanzaki"
"Sho Okada"
"R.Arima"
"Yuji Miyazaki"
"A.Inaba"
"R.Tanaka"
"K.Sato"
"T.Takui"
_chemical_name_systematic
;
(2-(3,5-Dinitrophenyl)-4,4,5,5-tetramethyl-3-oxo-4,5-dihydro-1H-imidazol-1-yl)
oxidanyl radical
;
_cell_volume   1483.705
_exptl_crystal_colour 'dark blue'
_exptl_crystal_density_diffrn 1.447
_exptl_special_details
;
Absolute configuration

;
_exptl_crystal_description 'prism'
_diffrn_ambient_temperature 296
#These two values have been output from a single CSD field.
_refine_ls_R_factor_gt 0.0384
_refine_ls_wR_factor_gt 0.0384
loop_
_citation_database_id_CSD
_citation_special_details
TURMAW "is a stereoisomer of this entry"
_symmetry_cell_setting tetragonal
_symmetry_space_group_name_H-M 'P 41'
_symmetry_Int_Tables_number 76
loop_
_symmetry_equiv_pos_site_id
_symmetry_equiv_pos_as_xyz
1 x,y,z
2 -x,-y,1/2+z
3 -y,x,1/4+z
4 y,-x,3/4+z
_cell_length_a 10.6905(4)
_cell_length_b 10.6905(4)
_cell_length_c 12.9823(4)
_cell_angle_alpha 90
_cell_angle_beta 90
_cell_angle_gamma 90
_cell_formula_units_Z 4
loop_
_atom_type_symbol
_atom_type_radius_bond
C 0.68
H 0.23
N 0.68
O 0.68
loop_
_atom_site_label
_atom_site_type_symbol
_atom_site_fract_x
_atom_site_fract_y
_atom_site_fract_z
C1 C 0.56528(14) 0.26523(15) 0.31781(12)
C2 C 0.63610(15) 0.37399(16) 0.31225(13)
H1 H 0.598(2) 0.453(2) 0.3340(18)
C3 C 0.75704(15) 0.36499(16) 0.27475(13)
C4 C 0.81048(14) 0.25402(18) 0.24298(14)
H2 H 0.888(3) 0.248(2) 0.215(2)
C5 C 0.73800(15) 0.14833(17) 0.25249(13)
C6 C 0.61697(15) 0.14980(17) 0.28905(14)
H3 H 0.570(2) 0.079(2) 0.2901(18)
N1 N 0.83396(14) 0.47890(16) 0.26966(13)
O1 O 0.79037(17) 0.57618(14) 0.30301(13)
O2 O 0.93837(12) 0.47026(17) 0.23063(16)
N2 N 0.79344(15) 0.02729(17) 0.22228(14)
O3 O 0.89749(14) 0.02907(18) 0.18332(17)
O4 O 0.73235(18) -0.06743(16) 0.23769(18)
C7 C 0.43636(13) 0.26931(14) 0.35550(13)
C8 C 0.25459(14) 0.33768(15) 0.44235(14)
C9 C 0.22995(13) 0.20660(15) 0.39347(14)
C10 C 0.2232(2) 0.3500(3) 0.55504(19)
H4 H 0.262(2) 0.288(2) 0.598(2)
H5 H 0.255(3) 0.426(3) 0.581(3)
H6 H 0.138(3) 0.355(3) 0.564(2)
C11 C 0.1970(2) 0.4458(2) 0.3815(2)
H7 H 0.104(2) 0.449(2) 0.397(2)
H8 H 0.223(3) 0.444(3) 0.311(3)
H9 H 0.236(3) 0.529(3) 0.409(2)
C12 C 0.2371(2) 0.09856(19) 0.4704(2)
H10 H 0.163(3) 0.104(3) 0.517(3)
H11 H 0.320(2) 0.101(2) 0.514(2)
H12 H 0.231(2) 0.017(3) 0.426(2)
C13 C 0.11220(18) 0.1963(3) 0.3298(2)
H13 H 0.041(3) 0.211(3) 0.379(3)
H14 H 0.124(3) 0.261(3) 0.271(2)
H15 H 0.104(3) 0.110(3) 0.307(3)
N3 N 0.39379(12) 0.34890(12) 0.42776(12)
O5 O 0.45846(12) 0.43104(13) 0.47488(11)
N4 N 0.34306(12) 0.19366(12) 0.32526(11)
O6 O 0.34921(12) 0.11090(12) 0.25381(11)
#END
