
#######################################################################
#
#                 Cambridge Crystallographic Data Centre
#                                CCDC
#
#######################################################################
#
# If this CIF has been generated from an entry in the Cambridge
# Structural Database, then it will include bibliographic, chemical,
# crystal, experimental, refinement or atomic coordinate data resulting
# from the CCDC's data processing and validation procedures.
#
#######################################################################

data_CSD_CIF_TURMAW
_audit_creation_date 2015-09-30
_audit_creation_method CSD-ConQuest-V1
_database_code_CSD TURMAW
_database_code_depnum_ccdc_archive 'CCDC 1428844'
_chemical_formula_sum 'C13 H15 N4 O6'
_chemical_formula_moiety
;
C13 H15 N4 O6
;
_journal_coden_Cambridge 1767
_journal_volume 2
_journal_year 2011
_journal_page_first 3036
_journal_name_full 'J.Phys.Chem.Lett. '
loop_
_publ_author_name
"D.Shiomi"
"Y.Kanzaki"
"Sho Okada"
"R.Arima"
"Yuji Miyazaki"
"A.Inaba"
"R.Tanaka"
"K.Sato"
"T.Takui"
_chemical_name_systematic
;
(2-(3,5-Dinitrophenyl)-4,4,5,5-tetramethyl-3-oxo-4,5-dihydro-1H-imidazol-1-yl)
oxidanyl radical
;
_cell_volume   1482.630
_exptl_crystal_colour 'dark blue'
_exptl_crystal_density_diffrn 1.448
_exptl_special_details
;
Absolute configuration

;
_exptl_crystal_description 'prism'
_diffrn_ambient_temperature 296
#These two values have been output from a single CSD field.
_refine_ls_R_factor_gt 0.0417
_refine_ls_wR_factor_gt 0.0417
loop_
_citation_database_id_CSD
_citation_special_details
TURLUP "is a stereoisomer of this entry"
_symmetry_cell_setting tetragonal
_symmetry_space_group_name_H-M 'P 43'
_symmetry_Int_Tables_number 78
loop_
_symmetry_equiv_pos_site_id
_symmetry_equiv_pos_as_xyz
1 x,y,z
2 -x,-y,1/2+z
3 -y,x,3/4+z
4 y,-x,1/4+z
_cell_length_a 10.6835(3)
_cell_length_b 10.6835(3)
_cell_length_c 12.9899(4)
_cell_angle_alpha 90
_cell_angle_beta 90
_cell_angle_gamma 90
_cell_formula_units_Z 4
loop_
_atom_type_symbol
_atom_type_radius_bond
C 0.68
H 0.23
N 0.68
O 0.68
loop_
_atom_site_label
_atom_site_type_symbol
_atom_site_fract_x
_atom_site_fract_y
_atom_site_fract_z
C1 C 0.76525(17) -0.06540(16) 0.34092(14)
C2 C 0.87370(18) -0.13600(16) 0.34639(14)
H1 H 0.952(2) -0.096(2) 0.328(2)
C3 C 0.86501(19) -0.25691(16) 0.38370(15)
C4 C 0.7545(2) -0.31035(16) 0.41599(15)
H2 H 0.750(3) -0.389(3) 0.442(2)
C5 C 0.64850(19) -0.23807(17) 0.40603(15)
C6 C 0.64992(19) -0.11689(17) 0.36968(16)
H3 H 0.578(3) -0.072(3) 0.369(2)
N1 N 0.97906(18) -0.33374(16) 0.38906(14)
O1 O 1.07639(16) -0.28997(18) 0.35562(14)
O2 O 0.97025(19) -0.43833(14) 0.42783(18)
N2 N 0.5274(2) -0.29335(17) 0.43646(16)
O3 O 0.5291(2) -0.39731(16) 0.47520(19)
O4 O 0.43256(18) -0.2323(2) 0.4209(2)
C7 C 0.76957(16) 0.06411(15) 0.30334(14)
N3 N 0.84883(13) 0.10636(13) 0.23097(13)
C8 C 0.83777(17) 0.24542(16) 0.21649(15)
C9 C 0.70690(17) 0.27012(15) 0.26508(16)
N4 N 0.69374(14) 0.15682(13) 0.33338(12)
O5 O 0.93104(14) 0.04173(13) 0.18383(12)
O6 O 0.61101(14) 0.15083(14) 0.40484(12)
C10 C 0.9454(2) 0.3033(2) 0.2769(3)
H4 H 0.943(3) 0.277(3) 0.345(3)
H5 H 1.030(3) 0.265(3) 0.248(2)
H6 H 0.949(3) 0.397(3) 0.263(2)
C11 C 0.8502(3) 0.2769(3) 0.1036(2)
H7 H 0.928(3) 0.247(3) 0.080(3)
H8 H 0.786(2) 0.241(2) 0.060(2)
H9 H 0.854(3) 0.362(4) 0.094(3)
C12 C 0.6963(3) 0.3878(2) 0.3285(2)
H10 H 0.759(3) 0.379(3) 0.385(2)
H11 H 0.608(3) 0.392(3) 0.355(3)
H12 H 0.713(3) 0.457(4) 0.277(3)
C13 C 0.5987(2) 0.2631(2) 0.1881(2)
H13 H 0.602(3) 0.340(3) 0.140(3)
H14 H 0.601(2) 0.182(2) 0.145(2)
H15 H 0.521(3) 0.272(3) 0.230(3)
#END
