
#######################################################################
#
#                 Cambridge Crystallographic Data Centre
#                                CCDC
#
#######################################################################
#
# If this CIF has been generated from an entry in the Cambridge
# Structural Database, then it will include bibliographic, chemical,
# crystal, experimental, refinement or atomic coordinate data resulting
# from the CCDC's data processing and validation procedures.
#
#######################################################################

data_CSD_CIF_TUSYAJ
_audit_creation_date 2015-10-01
_audit_creation_method CSD-ConQuest-V1
_database_code_CSD TUSYAJ
_database_code_depnum_ccdc_archive 'CCDC 1409401'
_chemical_formula_sum 'C8 H12 N6 O4'
_chemical_formula_moiety
;
C8 H12 N6 O4
;
_journal_coden_Cambridge 24
_journal_volume 56
_journal_year 2015
_journal_page_first 6089
_journal_name_full 'Tetrahedron Lett. '
loop_
_publ_author_name
"A.V.Sharko"
"G.A.Senchyk"
"E.B.Rusanov"
"K.V.Domasevitch"
_chemical_name_systematic
;
meso-(3R,4S,3'S,4'R)-3,3'-Dimethyl-3,3'-dinitro-4,4',5,5'-tetrahydro-3H,3'H-4,
4'-bipyrazole
;
_cell_volume    552.516
_exptl_crystal_colour 'colorless'
_exptl_crystal_density_diffrn 1.54
_exptl_crystal_description 'prism'
_diffrn_ambient_temperature 296
#These two values have been output from a single CSD field.
_refine_ls_R_factor_gt 0.0386
_refine_ls_wR_factor_gt 0.0386
loop_
_citation_database_id_CSD
_citation_special_details
TUSYEN "is a stereoisomer of this entry"
_symmetry_cell_setting monoclinic
_symmetry_space_group_name_H-M 'P 21/n'
_symmetry_Int_Tables_number 14
loop_
_symmetry_equiv_pos_site_id
_symmetry_equiv_pos_as_xyz
1 x,y,z
2 1/2-x,1/2+y,1/2-z
3 -x,-y,-z
4 -1/2+x,-1/2-y,-1/2+z
_cell_length_a 6.3384(4)
_cell_length_b 7.2448(5)
_cell_length_c 12.1551(7)
_cell_angle_alpha 90
_cell_angle_beta 98.160(4)
_cell_angle_gamma 90
_cell_formula_units_Z 2
loop_
_atom_type_symbol
_atom_type_radius_bond
C 0.68
H 0.23
N 0.68
O 0.68
loop_
_atom_site_label
_atom_site_type_symbol
_atom_site_fract_x
_atom_site_fract_y
_atom_site_fract_z
O1 O 0.5386(2) 0.06843(17) 0.12220(11)
O2 O 0.2062(2) 0.10975(17) 0.06323(13)
N1 N 0.1313(3) 0.5713(2) 0.12896(13)
N2 N 0.1997(2) 0.4226(2) 0.17006(13)
N3 N 0.3813(2) 0.16456(19) 0.10334(12)
C1 C 0.4027(3) 0.3702(2) 0.12750(14)
C2 C 0.3934(3) 0.4781(2) 0.01868(14)
C3 C 0.2642(3) 0.6444(2) 0.04861(18)
C4 C 0.5867(4) 0.4081(3) 0.21717(17)
H1 H 0.305(2) 0.408(2) -0.0373(14)
H2 H 0.174(3) 0.695(3) -0.0140(15)
H3 H 0.358(3) 0.737(3) 0.0893(13)
H4 H 0.588(3) 0.532(3) 0.2302(16)
H5 H 0.571(3) 0.338(3) 0.2849(18)
H6 H 0.723(3) 0.372(3) 0.1925(17)
O1B O 0.4614(2) 0.93157(17) -0.12220(11)
O2B O 0.7938(2) 0.89025(17) -0.06323(13)
N1B N 0.8687(3) 0.4287(2) -0.12896(13)
N2B N 0.8003(2) 0.5774(2) -0.17006(13)
N3B N 0.6187(2) 0.83544(19) -0.10334(12)
C1B C 0.5973(3) 0.6298(2) -0.12750(14)
C2B C 0.6066(3) 0.5219(2) -0.01868(14)
C3B C 0.7358(3) 0.3556(2) -0.04861(18)
C4B C 0.4133(4) 0.5919(3) -0.21717(17)
H1B H 0.695(2) 0.592(2) 0.0373(14)
H2B H 0.826(3) 0.305(3) 0.0140(15)
H3B H 0.642(3) 0.263(3) -0.0893(13)
H4B H 0.412(3) 0.468(3) -0.2302(16)
H5B H 0.429(3) 0.662(3) -0.2849(18)
H6B H 0.277(3) 0.628(3) -0.1925(17)
#END
