
#######################################################################
#
#                 Cambridge Crystallographic Data Centre
#                                CCDC
#
#######################################################################
#
# If this CIF has been generated from an entry in the Cambridge
# Structural Database, then it will include bibliographic, chemical,
# crystal, experimental, refinement or atomic coordinate data resulting
# from the CCDC's data processing and validation procedures.
#
#######################################################################

data_CSD_CIF_TUSYEN
_audit_creation_date 2015-10-01
_audit_creation_method CSD-ConQuest-V1
_database_code_CSD TUSYEN
_database_code_depnum_ccdc_archive 'CCDC 1409402'
_chemical_formula_sum 'C8 H12 N6 O4'
_chemical_formula_moiety
;
C8 H12 N6 O4
;
_journal_coden_Cambridge 24
_journal_volume 56
_journal_year 2015
_journal_page_first 6089
_journal_name_full 'Tetrahedron Lett. '
loop_
_publ_author_name
"A.V.Sharko"
"G.A.Senchyk"
"E.B.Rusanov"
"K.V.Domasevitch"
_chemical_name_systematic
;
dl-(3R,4S,3'R,4'S/3S,4R,3'S,4'R)-3,3'-Dimethyl-3,3'-dinitro-4,4',5,5'-tetrahyd
ro-3H,3'H-4,4'-bipyrazole
;
_cell_volume   2327.242
_exptl_crystal_colour 'colorless'
_exptl_crystal_density_diffrn 1.463
_exptl_crystal_description 'prism'
_diffrn_ambient_temperature 296
_refine_special_details
;
C4,N3,O1,O2 and C4A,N3A,O1A,O2A disordered over two sites with occupancies 
0.50:0.50.
;
#These two values have been output from a single CSD field.
_refine_ls_R_factor_gt 0.0356
_refine_ls_wR_factor_gt 0.0356
loop_
_citation_database_id_CSD
_citation_special_details
TUSYAJ "is a stereoisomer of this entry"
_symmetry_cell_setting orthorhombic
_symmetry_space_group_name_H-M 'F d d 2'
_symmetry_Int_Tables_number 43
loop_
_symmetry_equiv_pos_site_id
_symmetry_equiv_pos_as_xyz
1 x,y,z
2 -x,-y,z
3 1/4+x,1/4-y,1/4+z
4 1/4-x,1/4+y,1/4+z
5 x,1/2+y,1/2+z
6 -x,1/2-y,1/2+z
7 1/4+x,3/4-y,3/4+z
8 1/4-x,3/4+y,3/4+z
9 1/2+x,y,1/2+z
10 1/2-x,-y,1/2+z
11 3/4+x,1/4-y,3/4+z
12 3/4-x,1/4+y,3/4+z
13 1/2+x,1/2+y,z
14 1/2-x,1/2-y,z
15 3/4+x,3/4-y,1/4+z
16 3/4-x,3/4+y,1/4+z
_cell_length_a 27.6814(13)
_cell_length_b 10.9572(5)
_cell_length_c 7.6728(4)
_cell_angle_alpha 90
_cell_angle_beta 90
_cell_angle_gamma 90
_cell_formula_units_Z 8
loop_
_atom_type_symbol
_atom_type_radius_bond
C 0.68
H 0.23
N 0.68
O 0.68
loop_
_atom_site_label
_atom_site_type_symbol
_atom_site_fract_x
_atom_site_fract_y
_atom_site_fract_z
N1 N 0.40379(6) 0.10635(15) 0.3613(3)
N2 N 0.39893(5) 0.10612(15) 0.2022(3)
C1 C 0.44973(7) 0.05296(18) 0.4170(2)
H1 H 0.44490 -0.02920 0.46090
H2 H 0.46440 0.10200 0.50790
C2 C 0.48147(5) 0.05151(12) 0.2536(2)
H3 H 0.49870 0.12950 0.24600
C3 C 0.44197(5) 0.04959(16) 0.1153(3)
C4 C 0.4273(8) -0.0634(8) 0.0193(15)
H4 H 0.42040 -0.12710 0.10140
H5 H 0.45310 -0.08870 -0.05600
H6 H 0.39900 -0.04670 -0.04890
N3 N 0.4525(5) 0.1568(6) -0.0075(9)
O1 O 0.4471(3) 0.1384(8) -0.1595(8)
O2 O 0.4614(2) 0.2575(5) 0.0527(10)
C5? C 0.4258(6) -0.0782(7) 0.0614(13)
H7? H 0.42060 -0.12700 0.16360
H8? H 0.45040 -0.11520 -0.00930
H9? H 0.39630 -0.07280 -0.00390
N4? N 0.4542(6) 0.1231(8) -0.0494(8)
O3? O 0.4582(4) 0.0754(10) -0.1870(8)
O4? O 0.4643(4) 0.2290(8) -0.0184(13)
N1A N 0.59621(6) -0.10635(15) 0.3613(3)
N2A N 0.60107(5) -0.10612(15) 0.2022(3)
C1A C 0.55027(7) -0.05296(18) 0.4170(2)
H1A H 0.55510 0.02920 0.46090
H2A H 0.53560 -0.10200 0.50790
C2A C 0.51853(5) -0.05151(12) 0.2536(2)
H3A H 0.50130 -0.12950 0.24600
C3A C 0.55803(5) -0.04959(16) 0.1153(3)
C4A C 0.5727(8) 0.0634(8) 0.0193(15)
H4A H 0.57960 0.12710 0.10140
H5A H 0.54690 0.08870 -0.05600
H6A H 0.60100 0.04670 -0.04890
N3A N 0.5475(5) -0.1568(6) -0.0075(9)
O1A O 0.5529(3) -0.1384(8) -0.1595(8)
O2A O 0.5386(2) -0.2575(5) 0.0527(10)
#END
