
#######################################################################
#
#                 Cambridge Crystallographic Data Centre
#                                CCDC
#
#######################################################################
#
# If this CIF has been generated from an entry in the Cambridge
# Structural Database, then it will include bibliographic, chemical,
# crystal, experimental, refinement or atomic coordinate data resulting
# from the CCDC's data processing and validation procedures.
#
#######################################################################

data_CSD_CIF_TUTFAQ
_audit_creation_date 2010-10-20
_audit_creation_method CSD-ConQuest-V1
_database_code_CSD TUTFAQ
_database_code_depnum_ccdc_archive 'CCDC 753309'
_chemical_formula_sum 'C19 H19 N1 O4'
_chemical_formula_moiety
;
C19 H19 N1 O4
;
_journal_coden_Cambridge 1220
_journal_volume 16
_journal_year 2010
_journal_page_first 5191
_journal_name_full 'Chem.-Eur.J. '
loop_
_publ_author_name
"F.-X.Felpin"
"K.Miqueu"
"J.-M.Sotiropoulos"
"E.Fouquet"
"O.Ibarguren"
"J.Laudien"
_chemical_name_systematic
;
Methyl (2E)-2-(2-nitrophenyl)-3-(2,4,6-trimethylphenyl)acrylate
;
_chemical_name_common
;
Methyl 3-mesityl-2-(2-nitrophenyl)acrylate
;
_cell_volume    836.187
_exptl_crystal_density_diffrn 1.292
_diffrn_ambient_temperature 293
#These two values have been output from a single CSD field.
_refine_ls_R_factor_gt 0.0532
_refine_ls_wR_factor_gt 0.0532
_symmetry_cell_setting triclinic
_symmetry_space_group_name_H-M 'P -1'
_symmetry_Int_Tables_number 2
loop_
_symmetry_equiv_pos_site_id
_symmetry_equiv_pos_as_xyz
1 x,y,z
2 -x,-y,-z
_cell_length_a 8.031
_cell_length_b 8.958
_cell_length_c 11.867
_cell_angle_alpha 86.09
_cell_angle_beta 86.43
_cell_angle_gamma 79.42
_cell_formula_units_Z 2
loop_
_atom_type_symbol
_atom_type_radius_bond
C 0.68
H 0.23
N 0.68
O 0.68
loop_
_atom_site_label
_atom_site_type_symbol
_atom_site_fract_x
_atom_site_fract_y
_atom_site_fract_z
O1 O 0.27258(17) 0.91176(16) 0.35959(11)
C1 C 0.0260(2) 1.2977(2) 0.31487(13)
C2 C 0.1283(2) 1.4001(2) 0.33969(14)
C3 C 0.0647(3) 1.5501(2) 0.36165(14)
H1 H 0.13740 1.61420 0.37880
N1 N 0.3136(2) 1.3524(2) 0.34189(13)
C4 C -0.1475(2) 1.3568(2) 0.31210(15)
H2 H -0.22160 1.29340 0.29620
C5 C 0.1919(2) 1.0477(2) 0.38882(16)
C6 C 0.0396(2) 1.0608(2) 0.21398(15)
H3 H 0.08020 0.95680 0.21290
O2 O 0.2017(2) 1.09574(18) 0.47972(12)
C7 C -0.2333(2) 1.0928(2) 0.12000(14)
C8 C 0.0865(2) 1.1336(2) 0.29789(15)
C9 C -0.0721(2) 1.1318(2) 0.12184(14)
O3 O 0.38299(18) 1.2498(2) 0.28426(15)
O4 O 0.39041(19) 1.4218(2) 0.40011(14)
C10 C -0.2113(2) 1.5062(3) 0.33237(16)
H4 H -0.32720 1.54210 0.32880
C11 C -0.3412(2) 1.1641(3) 0.03702(15)
H5 H -0.44920 1.14070 0.03620
C12 C -0.1310(2) 1.2996(3) -0.04252(15)
H6 H -0.09600 1.36710 -0.09810
C13 C -0.2934(2) 1.2679(3) -0.04354(15)
C14 C -0.0191(2) 1.2337(2) 0.03888(15)
C15 C -0.1070(3) 1.6037(3) 0.35786(16)
H7 H -0.15180 1.70430 0.37230
C16 C -0.2909(3) 0.9814(3) 0.20670(18)
H8 H -0.40500 0.97150 0.19370
H9 H -0.28680 1.01700 0.28080
H10 H -0.21770 0.88430 0.20120
C17 C 0.1566(3) 1.2708(3) 0.03418(19)
H11 H 0.17260 1.33470 -0.03250
H12 H 0.23880 1.17840 0.03200
H13 H 0.17060 1.32300 0.10000
C18 C 0.3800(3) 0.8234(3) 0.44295(19)
H14 H 0.47200 0.87420 0.45540
H15 H 0.42440 0.72450 0.41610
H16 H 0.31470 0.81280 0.51270
C19 C -0.4156(3) 1.3472(3) -0.13095(19)
H17 H -0.50110 1.28720 -0.13940
H18 H -0.35450 1.35910 -0.20220
H19 H -0.46840 1.44550 -0.10640
#END
