
#######################################################################
#
#                 Cambridge Crystallographic Data Centre
#                                CCDC
#
#######################################################################
#
# If this CIF has been generated from an entry in the Cambridge
# Structural Database, then it will include bibliographic, chemical,
# crystal, experimental, refinement or atomic coordinate data resulting
# from the CCDC's data processing and validation procedures.
#
#######################################################################

data_CSD_CIF_TUVMEE01
_audit_creation_date 2015-10-01
_audit_creation_method CSD-ConQuest-V1
_database_code_CSD TUVMEE01
_database_code_depnum_ccdc_archive 'CCDC 718311'
_chemical_formula_sum 'C12 H18 N4 O6'
_chemical_formula_moiety
;
C12 H18 N4 O6
;
_journal_coden_Cambridge 1277
_journal_volume 113
_journal_year 2009
_journal_page_first 11354
_journal_name_full 'J.Phys.Chem.A '
loop_
_publ_author_name
"P.Naumov"
"Sang Cheol Lee"
"N.Ishizawa"
"Young Gyu Jeong"
"Ihn Hee Chung"
"Shunichi Fukuzumi"
_chemical_name_systematic
;
3,3'-((4,6-dinitro-1,3-phenylene)diimino)dipropan-1-ol
;
_cell_volume   1473.197
_exptl_crystal_colour 'orange'
_exptl_crystal_description 'prism'
_diffrn_ambient_temperature 293
#These two values have been output from a single CSD field.
_refine_ls_R_factor_gt 0.0513
_refine_ls_wR_factor_gt 0.0513
_symmetry_cell_setting monoclinic
_symmetry_space_group_name_H-M 'P 21/c'
_symmetry_Int_Tables_number 14
loop_
_symmetry_equiv_pos_site_id
_symmetry_equiv_pos_as_xyz
1 x,y,z
2 -x,1/2+y,1/2-z
3 -x,-y,-z
4 x,-1/2-y,-1/2+z
_cell_length_a 7.2459(1)
_cell_length_b 20.9361(2)
_cell_length_c 9.7928(1)
_cell_angle_alpha 90
_cell_angle_beta 97.402(1)
_cell_angle_gamma 90
_cell_formula_units_Z 4
loop_
_atom_type_symbol
_atom_type_radius_bond
C 0.68
H 0.23
N 0.68
O 0.68
loop_
_atom_site_label
_atom_site_type_symbol
_atom_site_fract_x
_atom_site_fract_y
_atom_site_fract_z
C1 C 0.22540(14) 0.55172(5) 0.48258(10)
H1 H 0.22140 0.59570 0.49540
C2 C 0.16875(15) 0.45915(5) 0.33615(10)
C3 C 0.15754(13) 0.52716(5) 0.35277(10)
N1 N 0.35937(15) 0.54021(5) 0.71662(10)
N2 N 0.08346(14) 0.56603(4) 0.25119(10)
C4 C 0.30520(14) 0.44615(5) 0.57108(11)
C5 C 0.07592(17) 0.63518(5) 0.26274(11)
C6 C 0.29900(14) 0.51368(5) 0.59432(10)
C7 C 0.24033(15) 0.42086(5) 0.44444(11)
H2 H 0.24490 0.37690 0.43160
C8 C 0.36191(18) 0.60816(6) 0.74463(12)
N3 N 0.38230(15) 0.40164(5) 0.67436(11)
N4 N 0.11237(16) 0.42723(5) 0.20865(10)
O1 O 0.12891(19) 0.36910(4) 0.20184(11)
C9 C -0.03055(18) 0.66220(5) 0.13191(11)
O2 O 0.44752(17) 0.42142(5) 0.78887(10)
O3 O 0.28367(15) 0.72500(5) 0.91181(10)
O4 O 0.0476(2) 0.45852(5) 0.10738(10)
C10 C 0.4269(2) 0.62010(7) 0.89592(13)
C11 C -0.04498(19) 0.73413(5) 0.13276(14)
O5 O 0.38287(19) 0.34455(5) 0.64735(12)
C12 C 0.4527(2) 0.69001(7) 0.92994(16)
O6 O 0.13030(16) 0.76482(4) 0.13813(10)
H3 H -0.154(2) 0.6429(8) 0.1173(17)
H4 H 0.013(2) 0.6467(8) 0.3424(18)
H5 H 0.242(2) 0.6250(7) 0.7191(16)
H6 H 0.198(2) 0.6523(8) 0.2789(17)
H7 H 0.034(2) 0.6488(8) 0.0561(18)
H8 H 0.445(2) 0.6298(8) 0.6875(19)
H9 H 0.335(3) 0.6007(8) 0.953(2)
H10 H 0.540(3) 0.5970(9) 0.919(2)
H11 H -0.125(2) 0.7475(9) 0.051(2)
H12 H -0.100(2) 0.7498(8) 0.2157(18)
H13 H 0.541(3) 0.7085(9) 0.875(2)
H14 H 0.504(3) 0.6955(10) 1.029(2)
H15 H 0.245(3) 0.7301(11) 0.829(3)
H16 H 0.186(3) 0.7546(9) 0.074(2)
H17 H 0.050(2) 0.5503(8) 0.1712(19)
H18 H 0.406(2) 0.5125(8) 0.7763(17)
#END
