
#######################################################################
#
#                 Cambridge Crystallographic Data Centre
#                                CCDC
#
#######################################################################
#
# If this CIF has been generated from an entry in the Cambridge
# Structural Database, then it will include bibliographic, chemical,
# crystal, experimental, refinement or atomic coordinate data resulting
# from the CCDC's data processing and validation procedures.
#
#######################################################################

data_CSD_CIF_TUVMUU
_audit_creation_date 2015-10-01
_audit_creation_method CSD-ConQuest-V1
_database_code_CSD TUVMUU
_database_code_depnum_ccdc_archive 'CCDC 718314'
_chemical_formula_sum 'C14 H22 N4 O6'
_chemical_formula_moiety
;
C14 H22 N4 O6
;
_journal_coden_Cambridge 1277
_journal_volume 113
_journal_year 2009
_journal_page_first 11354
_journal_name_full 'J.Phys.Chem.A '
loop_
_publ_author_name
"P.Naumov"
"Sang Cheol Lee"
"N.Ishizawa"
"Young Gyu Jeong"
"Ihn Hee Chung"
"Shunichi Fukuzumi"
_chemical_name_systematic
;
4,4'-((4,6-dinitro-1,3-phenylene)diimino)dibutan-1-ol
;
_cell_volume    808.497
_exptl_crystal_colour 'yellow'
_exptl_crystal_density_diffrn 1.406
_exptl_crystal_description 'prism'
_diffrn_ambient_temperature 293
#These two values have been output from a single CSD field.
_refine_ls_R_factor_gt 0.049
_refine_ls_wR_factor_gt 0.049
_symmetry_cell_setting triclinic
_symmetry_space_group_name_H-M 'P -1'
_symmetry_Int_Tables_number 2
loop_
_symmetry_equiv_pos_site_id
_symmetry_equiv_pos_as_xyz
1 x,y,z
2 -x,-y,-z
_cell_length_a 4.8071(3)
_cell_length_b 10.6331(6)
_cell_length_c 16.1500(9)
_cell_angle_alpha 80.715(4)
_cell_angle_beta 83.144(4)
_cell_angle_gamma 87.224(4)
_cell_formula_units_Z 2
loop_
_atom_type_symbol
_atom_type_radius_bond
C 0.68
H 0.23
N 0.68
O 0.68
loop_
_atom_site_label
_atom_site_type_symbol
_atom_site_fract_x
_atom_site_fract_y
_atom_site_fract_z
N1 N 0.3764(4) 0.10425(19) 0.12443(12)
N2 N -0.1167(4) 0.0815(2) 0.39990(12)
C1 C 0.0243(5) -0.0569(2) 0.17118(14)
C2 C -0.0763(4) 0.0366(2) 0.32608(13)
N3 N -0.4539(4) -0.1248(2) 0.36694(13)
C3 C 0.1831(4) 0.0472(2) 0.18363(13)
C4 C 0.1243(4) 0.0890(2) 0.26172(13)
H1 H 0.22590 0.15630 0.27150
N4 N 0.0663(4) -0.1127(2) 0.09507(12)
C5 C -0.2332(4) -0.0647(2) 0.30839(14)
O1 O -0.5960(4) -0.20330(17) 0.34557(12)
C6 C -0.1784(5) -0.1085(2) 0.23252(14)
H2 H -0.28190 -0.17500 0.22240
O2 O -0.0881(4) -0.19549(19) 0.08589(12)
O3 O 0.2581(4) -0.07570(19) 0.04029(12)
O4 O -0.4970(4) -0.0948(2) 0.43808(11)
C7 C 0.3838(5) 0.3390(2) 0.12328(15)
H3 H 0.24830 0.34200 0.17260
H4 H 0.28210 0.34820 0.07410
O5 O -0.1892(4) 0.5717(2) 0.28233(11)
H5 H -0.03660 0.57330 0.25350
C8 C -0.1321(6) 0.3152(2) 0.38293(17)
H6 H -0.14230 0.31670 0.32320
H7 H -0.32240 0.31780 0.41060
O6 O 0.3344(4) 0.5928(2) 0.20187(12)
H8 H 0.46030 0.57750 0.23240
C9 C 0.5402(5) 0.2115(2) 0.13237(15)
H9 H 0.70140 0.21640 0.08980
H10 H 0.60970 0.19590 0.18720
C10 C 0.5818(5) 0.4485(2) 0.11393(16)
H11 H 0.70600 0.43060 0.15780
H12 H 0.69650 0.45300 0.05990
C11 C 0.0145(5) 0.1907(2) 0.41845(14)
H13 H 0.20940 0.19080 0.39440
H14 H 0.00980 0.18500 0.47910
C12 C 0.4384(6) 0.5762(3) 0.11905(16)
H15 H 0.57010 0.64250 0.09580
H16 H 0.28430 0.58600 0.08460
C13 C 0.0128(7) 0.4301(3) 0.39447(18)
H17 H 0.19530 0.43260 0.36140
H18 H 0.04250 0.42370 0.45340
C14 C -0.1482(7) 0.5532(3) 0.36859(17)
H19 H -0.32910 0.55200 0.40250
H20 H -0.04650 0.62410 0.37970
H21 H -0.244(6) 0.042(3) 0.4349(19)
H22 H 0.391(6) 0.073(3) 0.0800(19)
#END
