
#######################################################################
#
#                 Cambridge Crystallographic Data Centre
#                                CCDC
#
#######################################################################
#
# If this CIF has been generated from an entry in the Cambridge
# Structural Database, then it will include bibliographic, chemical,
# crystal, experimental, refinement or atomic coordinate data resulting
# from the CCDC's data processing and validation procedures.
#
#######################################################################

data_CSD_CIF_TUWBAQ
_audit_creation_date 2015-10-01
_audit_creation_method CSD-ConQuest-V1
_database_code_CSD TUWBAQ
_database_code_depnum_ccdc_archive 'CCDC 1019590'
_chemical_formula_sum 'C28 H26 N2 O11'
_chemical_formula_moiety
;
C28 H26 N2 O11
;
_journal_coden_Cambridge 1500
_journal_volume 5
_journal_year 2015
_journal_page_first 20769
_journal_name_full 'RSC Advances '
loop_
_publ_author_name
"D.Kleeblatt"
"M.Becker"
"M.Plotz"
"M.Schonherr"
"A.Villinger"
"M.Hein"
"J.Eberle"
"M.Kunz"
"Q.Rahman"
"P.Langer"
_chemical_name_systematic
;
(E)-2-methyl-6-(3-(2-(4-nitrophenyl)-2-oxoethylidene)-2-oxo-2,3-dihydro-1H-ind
ol-1-yl)tetrahydro-2H-pyran-3,4,5-triyl triacetate
;
_chemical_name_common
;
(E)-3-(2-(4-nitrophenyl)-2-oxoethylidene)-1-(2,3,4-tri-O-acetyl-beta-L-rhamno-
pyranosyl)indolin-2-one
;
_cell_volume   2791.961
_exptl_crystal_colour 'red'
_exptl_crystal_density_diffrn 1.348
_exptl_crystal_description 'needle'
_diffrn_ambient_temperature 173
#These two values have been output from a single CSD field.
_refine_ls_R_factor_gt 0.0457
_refine_ls_wR_factor_gt 0.0457
_symmetry_cell_setting orthorhombic
_symmetry_space_group_name_H-M 'P 21 21 21'
_symmetry_Int_Tables_number 19
loop_
_symmetry_equiv_pos_site_id
_symmetry_equiv_pos_as_xyz
1 x,y,z
2 1/2+x,1/2-y,-z
3 -x,1/2+y,1/2-z
4 1/2-x,-y,1/2+z
_cell_length_a 7.6844(3)
_cell_length_b 16.3169(6)
_cell_length_c 22.2670(7)
_cell_angle_alpha 90
_cell_angle_beta 90
_cell_angle_gamma 90
_cell_formula_units_Z 4
loop_
_atom_type_symbol
_atom_type_radius_bond
C 0.68
H 0.23
N 0.68
O 0.68
loop_
_atom_site_label
_atom_site_type_symbol
_atom_site_fract_x
_atom_site_fract_y
_atom_site_fract_z
O1 O -0.5271(2) 0.23759(10) 0.17050(7)
O2 O 0.90165(16) 0.88668(7) 0.21235(5)
O3 O 1.0058(3) 0.93753(10) 0.12565(7)
O4 O -0.4874(2) 0.17348(9) 0.08667(7)
O5 O 0.3261(2) 0.33856(10) 0.05689(7)
O6 O 0.37968(15) 0.56187(8) 0.22012(5)
O7 O 0.85615(14) 0.66524(7) 0.18933(6)
O8 O 0.58362(16) 0.87872(7) 0.15289(5)
O9 O 0.39383(18) 0.91038(8) 0.22616(6)
O10 O 0.62004(15) 0.72856(8) 0.09681(5)
O11 O 0.35691(19) 0.67318(10) 0.07779(6)
N1 N -0.4389(2) 0.21972(10) 0.12660(7)
N2 N 0.62876(18) 0.58022(9) 0.16406(6)
C1 C -0.2641(3) 0.25656(12) 0.12076(8)
C2 C -0.1495(3) 0.22404(14) 0.07953(10)
H1 H -0.18150 0.17840 0.05550
C3 C 0.0139(3) 0.25966(14) 0.07403(10)
H2 H 0.09540 0.23770 0.04630
C4 C 0.0592(3) 0.32742(11) 0.10891(8)
C5 C 0.2362(3) 0.36456(12) 0.09818(8)
C6 C 0.2974(2) 0.43082(11) 0.13798(8)
H3 H 0.22660 0.44270 0.17190
C7 C 0.4424(2) 0.47645(11) 0.13169(7)
C8 C 0.4735(2) 0.54273(10) 0.17824(8)
C9 C 0.6729(2) 0.65829(10) 0.19172(8)
H4 H 0.63560 0.65720 0.23470
C10 C 0.5815(2) 0.72945(11) 0.16002(7)
H5 H 0.45290 0.72530 0.16620
C11 C 0.6481(2) 0.80947(10) 0.18633(8)
H6 H 0.61090 0.81410 0.22920
C12 C 0.8457(2) 0.81259(10) 0.18251(8)
H7 H 0.88390 0.81300 0.13960
C13 C 0.9741(2) 0.94630(11) 0.17768(9)
C14 C -0.2239(3) 0.32311(12) 0.15617(8)
H8 H -0.30520 0.34410 0.18440
C15 C -0.0604(2) 0.35858(11) 0.14939(8)
H9 H -0.03040 0.40500 0.17300
C16 C 0.9240(2) 0.73931(10) 0.21538(8)
H10 H 0.89420 0.74180 0.25910
C17 C 1.0084(3) 1.02164(12) 0.21401(10)
H11 H 1.10510 1.01130 0.24170
H12 H 0.90400 1.03590 0.23700
H13 H 1.03870 1.06700 0.18720
C18 C 0.4637(2) 0.92698(11) 0.17996(8)
C19 C 0.4338(3) 1.00253(13) 0.14361(9)
H14 H 0.32930 0.99550 0.11890
H15 H 0.53440 1.01230 0.11750
H16 H 0.41790 1.04950 0.17050
C20 C 0.4932(3) 0.69889(13) 0.05956(8)
C21 C 0.5494(4) 0.70213(17) -0.00446(9)
H17 H 0.44710 0.69820 -0.03060
H18 H 0.62830 0.65630 -0.01280
H19 H 0.60970 0.75400 -0.01210
C22 C 1.1196(2) 0.73475(13) 0.20737(9)
H20 H 1.16650 0.69080 0.23260
H21 H 1.17200 0.78710 0.21920
H22 H 1.14680 0.72340 0.16520
C23 C 0.7003(2) 0.54503(11) 0.11098(8)
C24 C 0.8567(3) 0.56365(13) 0.08284(9)
H23 H 0.93050 0.60600 0.09730
C25 C 0.9006(3) 0.51735(14) 0.03238(10)
H24 H 1.00670 0.52870 0.01210
C26 C 0.7951(3) 0.45588(13) 0.01101(9)
H25 H 0.82900 0.42560 -0.02350
C27 C 0.6390(3) 0.43775(13) 0.03962(8)
H26 H 0.56600 0.39540 0.02470
C28 C 0.5904(2) 0.48216(11) 0.09049(8)
#END
