
#######################################################################
#
#                 Cambridge Crystallographic Data Centre
#                                CCDC
#
#######################################################################
#
# If this CIF has been generated from an entry in the Cambridge
# Structural Database, then it will include bibliographic, chemical,
# crystal, experimental, refinement or atomic coordinate data resulting
# from the CCDC's data processing and validation procedures.
#
#######################################################################

data_CSD_CIF_TUXKEC
_audit_creation_date 2003-06-05
_audit_creation_method CSD-ConQuest-V1
_database_code_CSD TUXKEC
_database_code_depnum_ccdc_archive 'CCDC 206978'
_chemical_formula_sum 'C27 H35 N2 O4'
_chemical_formula_moiety
;
C27 H35 N2 O4
;
_journal_coden_Cambridge 35
_journal_volume 68
_journal_year 2003
_journal_page_first 1708
_journal_name_full 'J.Org.Chem. '
loop_
_publ_author_name
"S.Nakatsuji"
"H.Ikemoto"
"H.Akutsu"
"J.Yamada"
"A.Mori"
_chemical_name_systematic
;
4-(4'-Heptylbenzoyloxy)phenyl nitronyl nitroxide
;
_chemical_melting_point 370.15
_cell_volume   2536.632
_exptl_crystal_colour 'blue'
_exptl_crystal_density_diffrn 1.182
_exptl_special_details
;
Melting point range 370.15-373.15K

;
_exptl_crystal_description 'prism'
_diffrn_ambient_temperature 295
#These two values have been output from a single CSD field.
_refine_ls_R_factor_gt 0.066
_refine_ls_wR_factor_gt 0.066
_symmetry_cell_setting monoclinic
_symmetry_space_group_name_H-M 'P 21/n'
_symmetry_Int_Tables_number 14
loop_
_symmetry_equiv_pos_site_id
_symmetry_equiv_pos_as_xyz
1 x,y,z
2 1/2+x,1/2-y,1/2+z
3 -x,-y,-z
4 -1/2-x,-1/2+y,-1/2-z
_cell_length_a 12.2008(7)
_cell_length_b 9.3379(7)
_cell_length_c 22.958(1)
_cell_angle_alpha 90
_cell_angle_beta 104.115(5)
_cell_angle_gamma 90
_cell_formula_units_Z 4
loop_
_atom_type_symbol
_atom_type_radius_bond
C 0.65
H 0.23
N 0.68
O 0.68
loop_
_atom_site_label
_atom_site_type_symbol
_atom_site_fract_x
_atom_site_fract_y
_atom_site_fract_z
O1 O 0.71143(10) 0.76780(12) 0.02342(6)
O2 O 0.87216(8) 0.67153(10) 0.07577(5)
O3 O 1.09473(10) 1.29489(11) 0.06613(4)
O4 O 1.07131(10) 1.18417(12) 0.25900(4)
N1 N 1.10626(10) 1.29935(12) 0.12295(5)
N2 N 1.09098(10) 1.24955(13) 0.21377(5)
C1 C 0.3059(3) -0.5183(3) -0.18588(10)
C2 C 0.3280(5) -0.3633(4) -0.1712(2)
C3 C 0.3667(3) -0.2807(4) -0.1589(2)
C4 C 0.3867(2) -0.1275(3) -0.13997(10)
C5 C 0.4997(2) -0.0896(2) -0.10412(9)
C6 C 0.5220(1) 0.0655(2) -0.08622(8)
C7 C 0.6379(2) 0.0919(2) -0.04808(9)
C8 C 0.67106(12) 0.2414(2) -0.02545(7)
C9 C 0.77644(13) 0.2664(2) 0.01111(7)
C10 C 0.59866(13) 0.3568(2) -0.04070(8)
C11 C 0.81054(13) 0.4015(2) 0.03190(7)
C12 C 0.63240(12) 0.4931(2) -0.01971(7)
C13 C 0.73846(12) 0.5163(2) 0.01666(6)
C14 C 0.76819(12) 0.6648(2) 0.03692(7)
C15 C 0.91462(12) 0.8083(2) 0.09454(7)
C16 C 0.99060(13) 0.8671(2) 0.06674(7)
C17 C 0.8869(1) 0.8739(2) 0.14193(8)
C18 C 1.04014(13) 0.9973(2) 0.08668(6)
C19 C 0.9367(1) 1.0034(2) 0.16226(8)
C20 C 1.01294(11) 1.0656(1) 0.13503(6)
C21 C 1.06782(11) 1.2018(2) 0.15678(6)
C22 C 1.17806(12) 1.4120(1) 0.16107(6)
C23 C 1.13339(12) 1.4013(2) 0.21852(6)
C24 C 1.2990(1) 1.3619(2) 0.17027(8)
C25 C 1.1610(2) 1.5555(2) 0.12972(8)
C26 C 1.2211(2) 1.4212(2) 0.27716(8)
C27 C 1.0310(2) 1.4953(2) 0.21742(8)
H1 H 0.3272(10) -0.553(1) -0.1513(6)
H2 H 0.2740(11) -0.515(2) -0.2177(6)
H3 H 0.368(1) -0.558(1) -0.2039(5)
H4 H 0.29280 -0.33680 -0.21360
H5 H 0.25970 -0.36330 -0.15340
H6 H 0.39360 -0.31580 -0.11390
H7 H 0.42980 -0.29240 -0.17350
H8 H 0.3755(10) -0.076(1) -0.1757(6)
H9 H 0.3369(10) -0.101(1) -0.1147(6)
H10 H 0.5119(10) -0.141(1) -0.0691(6)
H11 H 0.5623(10) -0.127(1) -0.1178(5)
H12 H 0.5117(10) 0.124(1) -0.1228(6)
H13 H 0.4627(10) 0.101(1) -0.0653(5)
H14 H 0.6535(10) 0.028(1) -0.0138(6)
H15 H 0.6895(10) 0.056(1) -0.0668(5)
H16 H 0.8204(10) 0.191(1) 0.0216(6)
H17 H 0.5307(10) 0.340(1) -0.0651(5)
H18 H 0.8818(10) 0.415(1) 0.0572(5)
H19 H 0.578(1) 0.5691(13) -0.0302(5)
H20 H 1.0126(10) 0.820(1) 0.0384(5)
H21 H 0.8398(10) 0.831(1) 0.1627(6)
H22 H 1.0946(10) 1.038(1) 0.0679(6)
H23 H 0.9185(10) 1.044(1) 0.1934(5)
H24 H 1.3135(10) 1.260(1) 0.1949(5)
H25 H 1.3152(10) 1.350(1) 0.1375(6)
H26 H 1.3527(10) 1.433(1) 0.1929(5)
H27 H 1.2131(10) 1.628(1) 0.1577(5)
H28 H 1.1799(10) 1.547(1) 0.0936(5)
H29 H 1.077(1) 1.5845(13) 0.1179(5)
H30 H 1.1831(10) 1.403(1) 0.3070(5)
H31 H 1.2848(10) 1.353(1) 0.2781(5)
H32 H 1.2475(10) 1.515(1) 0.2804(5)
H33 H 0.9977(10) 1.469(1) 0.2477(6)
H34 H 1.0505(10) 1.596(1) 0.2216(6)
H35 H 0.9727(10) 1.484(1) 0.1791(5)
#END
