
#######################################################################
#
#                 Cambridge Crystallographic Data Centre
#                                CCDC
#
#######################################################################
#
# If this CIF has been generated from an entry in the Cambridge
# Structural Database, then it will include bibliographic, chemical,
# crystal, experimental, refinement or atomic coordinate data resulting
# from the CCDC's data processing and validation procedures.
#
#######################################################################

data_CSD_CIF_TUXNIL
_audit_creation_date 2015-10-02
_audit_creation_method CSD-ConQuest-V1
_database_code_CSD TUXNIL
_database_code_depnum_ccdc_archive 'CCDC 1405096'
_chemical_formula_sum 'C38 H35 N3 O7'
_chemical_formula_moiety
;
C38 H35 N3 O7
;
_journal_coden_Cambridge 4
_journal_volume 137
_journal_year 2015
_journal_page_first 12055
_journal_name_full 'J.Am.Chem.Soc. '
loop_
_publ_author_name
"Ying Liu"
"Jie Shen"
"Chang Sun"
"Changliang Ren"
"Huaqiang Zeng"
_chemical_name_systematic
;
2-(benzyloxy)-N-(3-((2-(benzyloxy)phenyl)carbamoyl)-2-sec-butoxyphenyl)-3-nitr
obenzamide
;
_cell_volume   3246.336
_exptl_crystal_colour 'brown'
_exptl_crystal_density_diffrn 1.321
_exptl_crystal_description 'block'
_diffrn_ambient_temperature 100
_refine_special_details
;
C22,C23,C24 and C22A,C23A,C24A disordered over two sites with occupancies 
0.717:0.283.
;
#These two values have been output from a single CSD field.
_refine_ls_R_factor_gt 0.0803
_refine_ls_wR_factor_gt 0.0803
_symmetry_cell_setting monoclinic
_symmetry_space_group_name_H-M 'P 21/c'
_symmetry_Int_Tables_number 14
loop_
_symmetry_equiv_pos_site_id
_symmetry_equiv_pos_as_xyz
1 x,y,z
2 -x,1/2+y,1/2-z
3 -x,-y,-z
4 x,-1/2-y,-1/2+z
_cell_length_a 8.8451(8)
_cell_length_b 23.553(2)
_cell_length_c 15.8186(13)
_cell_angle_alpha 90
_cell_angle_beta 99.906(2)
_cell_angle_gamma 90
_cell_formula_units_Z 4
loop_
_atom_type_symbol
_atom_type_radius_bond
C 0.68
H 0.23
N 0.68
O 0.68
loop_
_atom_site_label
_atom_site_type_symbol
_atom_site_fract_x
_atom_site_fract_y
_atom_site_fract_z
O1 O -0.1181(2) 0.55062(9) 0.03286(11)
O2 O 0.18440(19) 0.47804(8) 0.22782(10)
O3 O 0.3950(2) 0.79799(8) 0.20802(12)
O4 O 0.4613(2) 0.67503(7) 0.45539(10)
O5 O 0.0657(3) 0.35287(14) 0.36405(19)
O6 O 0.2404(3) 0.36927(10) 0.28913(14)
O7 O 0.18308(19) 0.64962(8) 0.2700(1)
N1 N 0.0565(2) 0.57609(10) 0.14940(13)
H1 H 0.105(4) 0.5647(13) 0.200(2)
N2 N 0.4191(3) 0.72746(10) 0.30739(13)
H2 H 0.386(3) 0.6955(13) 0.3198(19)
N3 N 0.1099(3) 0.37381(10) 0.30251(16)
C1 C 0.0394(3) 0.45583(11) 0.20490(15)
C2 C -0.0032(3) 0.40589(12) 0.24174(16)
C3 C -0.1514(3) 0.38506(13) 0.22576(19)
H3 H -0.17700 0.35130 0.25310
C4 C -0.2614(3) 0.41385(13) 0.1697(2)
H4 H -0.36320 0.39960 0.15680
C5 C -0.2231(3) 0.46368(12) 0.13212(17)
H5 H -0.29990 0.48350 0.09390
C6 C -0.0743(3) 0.48560(11) 0.14897(15)
C7 C 0.2906(3) 0.46549(13) 0.16817(16)
H6 H 0.23270 0.46140 0.10910
H7 H 0.34520 0.42940 0.18460
C8 C 0.4034(3) 0.51307(12) 0.17170(16)
C9 C 0.4073(3) 0.54680(14) 0.10057(19)
H8 H 0.33790 0.53940 0.04890
C10 C 0.5103(4) 0.59104(16) 0.1033(2)
H9 H 0.51280 0.61350 0.05360
C11 C 0.6096(4) 0.60237(15) 0.1786(3)
H10 H 0.67860 0.63350 0.18130
C12 C 0.6094(4) 0.56874(15) 0.2500(2)
H11 H 0.67920 0.57640 0.30140
C13 C 0.5075(3) 0.52390(14) 0.24668(18)
H12 H 0.50840 0.50040 0.29560
C14 C -0.0468(3) 0.54000(12) 0.10426(15)
C15 C 0.1898(3) 0.66338(11) 0.18562(14)
C16 C 0.1159(3) 0.62682(11) 0.12114(15)
C17 C 0.1153(3) 0.63995(12) 0.03522(16)
H13 H 0.06480 0.61580 -0.00890
C18 C 0.1890(3) 0.68850(13) 0.01489(16)
H14 H 0.18680 0.69810 -0.04370
C19 C 0.2659(3) 0.72344(12) 0.07836(16)
H15 H 0.31660 0.75640 0.06280
C20 C 0.2701(3) 0.71080(11) 0.16501(15)
C21 C 0.0382(4) 0.66450(13) 0.29513(17)
H16 H -0.04520 0.64130 0.26080
C22 C 0.0517(6) 0.6486(3) 0.3895(3)
H17 H 0.13980 0.66930 0.42270
H18 H 0.07380 0.60750 0.39580
C23 C -0.0918(5) 0.6618(3) 0.4279(3)
H19 H -0.07540 0.64980 0.48810
H20 H -0.17980 0.64130 0.39580
H21 H -0.11220 0.70270 0.42450
C24 C -0.0007(6) 0.72800(16) 0.2806(3)
H22 H 0.01750 0.73930 0.22360
H23 H 0.06440 0.75070 0.32440
H24 H -0.10880 0.73430 0.28450
C25 C 0.3650(3) 0.74988(11) 0.22905(15)
C26 C 0.5470(3) 0.72322(10) 0.45386(15)
C27 C 0.5229(3) 0.75269(11) 0.37543(15)
C28 C 0.6046(4) 0.80190(13) 0.36799(19)
H25 H 0.58980 0.82210 0.31520
C29 C 0.7089(4) 0.82209(14) 0.4379(2)
H26 H 0.76420 0.85610 0.43260
C30 C 0.7322(3) 0.79303(12) 0.51420(18)
H27 H 0.80350 0.80710 0.56140
C31 C 0.6524(3) 0.74331(11) 0.52311(16)
H28 H 0.66940 0.72310 0.57590
C32 C 0.5015(3) 0.63828(10) 0.52945(14)
H29 H 0.49300 0.65940 0.58260
H30 H 0.60860 0.62490 0.53360
C33 C 0.3939(3) 0.58892(10) 0.51915(14)
C34 C 0.3809(3) 0.55346(12) 0.44800(16)
H31 H 0.43870 0.56140 0.40400
C35 C 0.2852(3) 0.50694(12) 0.44062(17)
H32 H 0.27720 0.48300 0.39170
C36 C 0.2007(3) 0.49505(12) 0.50441(18)
H33 H 0.13500 0.46290 0.49940
C37 C 0.2120(4) 0.52982(14) 0.57491(19)
H34 H 0.15440 0.52160 0.61890
C38 C 0.3076(3) 0.57692(12) 0.58187(16)
H35 H 0.31370 0.60120 0.63030
H36? H -0.04540 0.65830 0.24860
C39? C 0.0525(12) 0.7262(2) 0.3199(8)
H37? H 0.09070 0.74940 0.27570
H38? H 0.12000 0.73170 0.37610
C40? C -0.1177(12) 0.7395(5) 0.3244(7)
H39? H -0.12780 0.77970 0.33860
H40? H -0.15120 0.71590 0.36880
H41? H -0.18160 0.73140 0.26880
C41? C 0.0252(19) 0.6265(5) 0.3724(7)
H42? H 0.05760 0.58780 0.36120
H43? H -0.08150 0.62590 0.38170
H44? H 0.09130 0.64140 0.42370
#END
