
#######################################################################
#
#                 Cambridge Crystallographic Data Centre
#                                CCDC
#
#######################################################################
#
# If this CIF has been generated from an entry in the Cambridge
# Structural Database, then it will include bibliographic, chemical,
# crystal, experimental, refinement or atomic coordinate data resulting
# from the CCDC's data processing and validation procedures.
#
#######################################################################

data_CSD_CIF_TUXPUZ
_audit_creation_date 2015-10-02
_audit_creation_method CSD-ConQuest-V1
_database_code_CSD TUXPUZ
_database_code_depnum_ccdc_archive 'CCDC 1407937'
_chemical_formula_sum 'C28 H31 N1 O4'
_chemical_formula_moiety
;
C28 H31 N1 O4
;
_journal_coden_Cambridge 4
_journal_volume 137
_journal_year 2015
_journal_page_first 11586
_journal_name_full 'J.Am.Chem.Soc. '
loop_
_publ_author_name
"S.J.Thompson"
"D.Q.Thach"
"Guangbin Dong"
_chemical_name_systematic
;
1-(2-(((2,6-dimethoxybenzylidene)amino)oxy)propyl)-3,3-diphenylcyclobutanol
;
_cell_volume   2313.377
_exptl_crystal_colour 'colorless'
_exptl_crystal_density_diffrn 1.279
_exptl_crystal_description 'prism'
_diffrn_ambient_temperature 100
#These two values have been output from a single CSD field.
_refine_ls_R_factor_gt 0.053
_refine_ls_wR_factor_gt 0.053
_symmetry_cell_setting monoclinic
_symmetry_space_group_name_H-M 'P 21/n'
_symmetry_Int_Tables_number 14
loop_
_symmetry_equiv_pos_site_id
_symmetry_equiv_pos_as_xyz
1 x,y,z
2 1/2-x,1/2+y,1/2-z
3 -x,-y,-z
4 -1/2+x,-1/2-y,-1/2+z
_cell_length_a 11.500(3)
_cell_length_b 14.485(4)
_cell_length_c 14.038(4)
_cell_angle_alpha 90
_cell_angle_beta 98.392(3)
_cell_angle_gamma 90
_cell_formula_units_Z 4
loop_
_atom_type_symbol
_atom_type_radius_bond
C 0.68
H 0.23
N 0.68
O 0.68
loop_
_atom_site_label
_atom_site_type_symbol
_atom_site_fract_x
_atom_site_fract_y
_atom_site_fract_z
C1 C 0.89394(14) 0.58681(12) 0.17040(12)
C2 C 0.87570(14) 0.66276(12) 0.24393(12)
H1 H 0.88780 0.64120 0.31160
H2 H 0.80000 0.69600 0.22860
C3 C 0.98322(14) 0.71693(11) 0.21481(12)
C4 C 0.97072(15) 0.65572(12) 0.12229(12)
H3 H 0.92830 0.68640 0.06440
H4 H 1.04600 0.62920 0.10880
C5 C 0.96244(15) 0.50394(12) 0.21674(13)
H5 H 0.90860 0.46580 0.24930
H6 H 1.02530 0.52690 0.26690
C6 C 1.01890(16) 0.44169(13) 0.14710(15)
C7 C 1.14478(16) 0.41617(15) 0.18416(17)
H7 H 1.14760 0.38070 0.24390
H8 H 1.19170 0.47250 0.19680
H9 H 1.17670 0.37880 0.13580
C8 C 0.79877(15) 0.29343(13) 0.04862(13)
C9 C 0.68491(14) 0.28243(12) -0.01223(12)
C10 C 0.61518(15) 0.35644(13) -0.05432(12)
C11 C 0.50931(16) 0.33987(14) -0.11382(13)
H10 H 0.46190 0.38980 -0.14070
C12 C 0.47412(16) 0.24950(14) -0.13325(14)
H11 H 0.40270 0.23820 -0.17480
C13 C 0.54003(16) 0.17522(13) -0.09384(13)
H12 H 0.51390 0.11380 -0.10780
C14 C 0.64481(15) 0.19169(12) -0.03371(12)
C15 C 1.09752(14) 0.70280(11) 0.28380(12)
C16 C 1.20275(15) 0.67994(12) 0.25101(13)
H13 H 1.20320 0.67070 0.18410
C17 C 1.30660(16) 0.67044(13) 0.31406(14)
H14 H 1.37710 0.65450 0.29020
C18 C 1.30779(16) 0.68413(13) 0.41188(14)
H15 H 1.37870 0.67710 0.45530
C19 C 1.20464(16) 0.70820(13) 0.44573(13)
H16 H 1.20510 0.71840 0.51260
C20 C 1.10081(15) 0.71753(12) 0.38263(12)
H17 H 1.03080 0.73420 0.40690
C21 C 0.96701(14) 0.81981(12) 0.19651(12)
C22 C 1.03954(15) 0.86527(12) 0.13968(12)
H18 H 1.09800 0.83120 0.11350
C23 C 1.02782(16) 0.95853(13) 0.12095(13)
H19 H 1.07820 0.98800 0.08240
C24 C 0.94244(16) 1.00955(13) 0.15830(14)
H20 H 0.93320 1.07350 0.14430
C25 C 0.87079(16) 0.96621(13) 0.21614(15)
H21 H 0.81310 1.00080 0.24270
C26 C 0.88331(15) 0.87211(12) 0.23537(13)
H22 H 0.83430 0.84310 0.27540
C27 C 0.59895(17) 0.51984(14) -0.08412(14)
H23 H 0.60380 0.51360 -0.15300
H24 H 0.63700 0.57750 -0.06000
H25 H 0.51630 0.52080 -0.07440
C28 C 0.68019(18) 0.02943(13) -0.01262(15)
H26 H 0.60310 0.01880 0.00740
H27 H 0.73790 -0.01270 0.02240
H28 H 0.67510 0.01830 -0.08200
N1 N 0.84627(13) 0.37060(11) 0.07570(11)
O1 O 0.78670(11) 0.56061(9) 0.11329(10)
O2 O 0.95784(11) 0.35421(9) 0.12942(10)
O3 O 0.65761(11) 0.44278(9) -0.03260(9)
O4 O 0.71575(11) 0.12267(8) 0.00828(9)
H29 H 0.8409(17) 0.2400(15) 0.0686(15)
H30 H 1.0195(19) 0.4729(15) 0.0808(16)
H31 H 0.796(2) 0.500(2) 0.0919(19)
#END
