
#######################################################################
#
#                 Cambridge Crystallographic Data Centre
#                                CCDC
#
#######################################################################
#
# If this CIF has been generated from an entry in the Cambridge
# Structural Database, then it will include bibliographic, chemical,
# crystal, experimental, refinement or atomic coordinate data resulting
# from the CCDC's data processing and validation procedures.
#
#######################################################################

data_CSD_CIF_TUYMEF
_audit_creation_date 2003-08-13
_audit_creation_method CSD-ConQuest-V1
_database_code_CSD TUYMEF
_database_code_depnum_ccdc_archive 'CCDC 1277332'
_chemical_formula_sum 'C17 H18 N4 O4'
_chemical_formula_moiety
;
C17 H18 N4 O4
;
_journal_coden_Cambridge 119
_journal_volume 597
_journal_year 2001
_journal_page_first 241
_journal_name_full 'J.Mol.Struct. '
loop_
_publ_author_name
"G.Rusek"
"I.Bryndal"
"B.Picur"
"T.Lis"
"I.Brzostowska"
_chemical_name_systematic
;
N-(p-Dimethylaminophenyl)-\a-(3-acetamido-4-nitrophenyl)nitrone
;
_chemical_melting_point 465.15
_cell_volume    817.826
_exptl_crystal_colour 'dark brown'
_exptl_crystal_density_diffrn 1.39
_exptl_special_details
;
Melting point range 465.15-466.15K
space group is P-1 (not P1 as published)

;
_exptl_crystal_description 'plate-shaped'
_exptl_crystal_preparation 'acetone'
_diffrn_ambient_temperature 299
#These two values have been output from a single CSD field.
_refine_ls_R_factor_gt 0.0773
_refine_ls_wR_factor_gt 0.0773
_symmetry_cell_setting triclinic
_symmetry_space_group_name_H-M 'P -1'
_symmetry_Int_Tables_number 2
loop_
_symmetry_equiv_pos_site_id
_symmetry_equiv_pos_as_xyz
1 x,y,z
2 -x,-y,-z
_cell_length_a 6.813(4)
_cell_length_b 8.646(5)
_cell_length_c 14.644(6)
_cell_angle_alpha 75.45(4)
_cell_angle_beta 78.56(4)
_cell_angle_gamma 89.10(4)
_cell_formula_units_Z 2
loop_
_atom_type_symbol
_atom_type_radius_bond
C 0.68
H 0.23
N 0.68
O 0.68
loop_
_atom_site_label
_atom_site_type_symbol
_atom_site_fract_x
_atom_site_fract_y
_atom_site_fract_z
C1 C 0.3110(4) 0.5280(3) 0.1314(2)
C2 C 0.3655(4) 0.4574(3) 0.2197(2)
C3 C 0.2476(4) 0.3394(3) 0.2904(2)
C4 C 0.0683(4) 0.2891(3) 0.2692(2)
C5 C 0.0149(5) 0.3567(4) 0.1818(2)
C6 C 0.1318(5) 0.4753(4) 0.1133(2)
C7 C 0.4471(4) 0.6507(3) 0.0649(2)
C8 C 0.4529(4) 0.3213(3) 0.4161(2)
C9 C 0.4703(6) 0.2214(5) 0.5137(2)
C10 C 0.7401(5) 0.9003(4) -0.0535(2)
C11 C 0.8720(5) 1.0174(4) -0.1144(2)
C12 C 0.8376(4) 1.1003(3) -0.2043(2)
C13 C 0.6637(4) 1.0557(3) -0.2301(2)
C14 C 0.5328(4) 0.9375(3) -0.1693(2)
C15 C 0.5671(4) 0.8591(3) -0.0796(2)
C16 C 1.1505(6) 1.2558(6) -0.2377(4)
C17 C 0.9350(6) 1.2986(4) -0.3590(3)
N1 N 0.3027(4) 0.2729(3) 0.3793(2)
N2 N -0.0662(4) 0.1641(3) 0.3351(2)
N3 N 0.4226(3) 0.7361(3) -0.0191(2)
N4 N 0.9675(4) 1.2192(3) -0.2638(2)
O1 O -0.0317(4) 0.0991(3) 0.4149(2)
O2 O -0.2148(3) 0.1237(3) 0.3106(2)
O3 O 0.5645(4) 0.4356(3) 0.3751(2)
O4 O 0.2669(4) 0.7190(3) -0.0529(2)
H1 H 0.223(5) 0.193(4) 0.415(2)
H2 H 0.502(5) 0.498(3) 0.228(2)
H3 H -0.104(5) 0.315(4) 0.168(2)
H4 H 0.089(4) 0.519(3) 0.048(2)
H5 H 0.568(4) 0.681(3) 0.084(2)
H6 H 0.775(5) 0.855(4) 0.004(3)
H7 H 1.001(5) 1.049(4) -0.093(3)
H8 H 0.629(4) 1.106(3) -0.292(2)
H9 H 0.418(4) 0.909(3) -0.187(2)
H10 H 0.368(6) 0.147(5) 0.541(3)
H11 H 0.488(6) 0.290(5) 0.551(3)
H12 H 0.602(7) 0.174(5) 0.510(3)
H13 H 1.131(6) 1.274(4) -0.176(3)
H14 H 1.224(6) 1.343(5) -0.281(3)
H15 H 1.230(6) 1.170(5) -0.234(3)
H16 H 1.037(5) 1.385(4) -0.385(2)
H17 H 0.801(6) 1.352(4) -0.354(3)
H18 H 0.940(6) 1.224(5) -0.396(3)
#END
