
#######################################################################
#
#                 Cambridge Crystallographic Data Centre
#                                CCDC
#
#######################################################################
#
# If this CIF has been generated from an entry in the Cambridge
# Structural Database, then it will include bibliographic, chemical,
# crystal, experimental, refinement or atomic coordinate data resulting
# from the CCDC's data processing and validation procedures.
#
#######################################################################

data_CSD_CIF_TUZNUZ
_audit_creation_date 2016-02-09
_audit_creation_method CSD-ConQuest-V1
_database_code_CSD TUZNUZ
_database_code_depnum_ccdc_archive 'CCDC 1434824'
_chemical_formula_sum 'C17 H20 N4 O6'
_chemical_formula_moiety
;
C17 H20 N4 O6
;
_journal_coden_Cambridge 1500
_journal_volume 6
_journal_year 2016
_journal_page_first 17386
_journal_name_full 'RSC Advances '
loop_
_publ_author_name
"Boliang Dong"
"Yumeng Xi"
"Yijin Su"
"N.G.Akhmedov"
"J.L.Petersen"
"Xiaodong Shi"
_chemical_name_systematic
;
(E)-ethyl 
1-(N-(2,4-dinitrophenyl)ethanehydrazonoyl)-2-methylcyclopent-2-ene-1-carboxyla
te
;
_chemical_name_common
;
(E)-ethyl 
1-(1-(2-(2,4-dinitrophenyl)hydrazono)ethyl)-2-methylcyclopent-2-enecarboxylate

;
_cell_volume    916.860
_exptl_crystal_colour 'intense yellow'
_exptl_crystal_density_diffrn 1.363
_exptl_crystal_description 'parallelepiped'
_exptl_crystal_preparation 'Vapour Deposition'
_diffrn_ambient_temperature 293
#These two values have been output from a single CSD field.
_refine_ls_R_factor_gt 0.0786
_refine_ls_wR_factor_gt 0.0786
_symmetry_cell_setting triclinic
_symmetry_space_group_name_H-M 'P -1'
_symmetry_Int_Tables_number 2
loop_
_symmetry_equiv_pos_site_id
_symmetry_equiv_pos_as_xyz
1 x,y,z
2 -x,-y,-z
_cell_length_a 7.3303(6)
_cell_length_b 7.9078(6)
_cell_length_c 16.0868(13)
_cell_angle_alpha 84.514(2)
_cell_angle_beta 89.785(2)
_cell_angle_gamma 81.048(2)
_cell_formula_units_Z 2
loop_
_atom_type_symbol
_atom_type_radius_bond
C 0.68
H 0.23
N 0.68
O 0.68
loop_
_atom_site_label
_atom_site_type_symbol
_atom_site_fract_x
_atom_site_fract_y
_atom_site_fract_z
O1 O 0.9818(4) 0.6635(3) 0.8199(2)
O2 O 0.7061(4) 0.5819(3) 0.82841(16)
O3 O 0.8335(5) 0.1260(4) 0.5018(2)
O4 O 0.7960(6) 0.2130(5) 0.3727(2)
O5 O 0.5238(5) 0.7869(5) 0.28540(18)
O6 O 0.4920(6) 0.9768(4) 0.3718(2)
N1 N 0.8795(4) 0.4040(3) 0.68839(16)
N2 N 0.8562(4) 0.3468(3) 0.61141(16)
H1 H 0.88400 0.23940 0.60440
N3 N 0.7986(5) 0.2419(5) 0.4454(2)
N4 N 0.5463(4) 0.8332(5) 0.35406(19)
C1 C 0.9621(5) 0.3598(4) 0.8322(2)
C2 C 0.8777(5) 0.2668(4) 0.9069(2)
C3 C 0.9950(6) 0.2366(5) 0.9699(2)
H2 H 0.96760 0.18350 1.02160
C4 C 1.1763(6) 0.2950(6) 0.9516(3)
H3 H 1.27840 0.20630 0.97030
H4 H 1.18640 0.39870 0.97770
C5 C 1.1711(5) 0.3287(5) 0.8575(2)
H5 H 1.23650 0.23060 0.83210
H6 H 1.22760 0.42910 0.83980
C6 C 0.6867(5) 0.2251(5) 0.9059(3)
H7 H 0.59950 0.32920 0.90590
H8 H 0.66900 0.14950 0.95460
H9 H 0.66840 0.16990 0.85670
C7 C 0.8885(5) 0.5531(4) 0.8256(2)
C8 C 0.6220(6) 0.7624(5) 0.8204(3)
H10 H 0.68060 0.82480 0.85900
H11 H 0.63810 0.81370 0.76410
C9 C 0.4284(7) 0.7725(6) 0.8385(4)
H12 H 0.41370 0.71800 0.89350
H13 H 0.37030 0.71510 0.79840
H14 H 0.37210 0.89090 0.83570
C10 C 0.9308(4) 0.2909(4) 0.7491(2)
C11 C 0.9693(5) 0.1005(4) 0.7436(2)
H15 H 1.06820 0.07460 0.70530
H16 H 0.86050 0.06230 0.72410
H17 H 1.00390 0.04290 0.79780
C12 C 0.7890(4) 0.4620(4) 0.54711(19)
C13 C 0.7457(5) 0.6379(4) 0.5588(2)
H18 H 0.76850 0.67400 0.61060
C14 C 0.6718(5) 0.7561(4) 0.4965(2)
H19 H 0.64370 0.87140 0.50610
C15 C 0.6381(4) 0.7056(4) 0.4186(2)
C16 C 0.6832(4) 0.5390(5) 0.4027(2)
H20 H 0.66370 0.50670 0.34980
C17 C 0.7582(4) 0.4177(4) 0.4656(2)
#END
