
#######################################################################
#
#                 Cambridge Crystallographic Data Centre
#                                CCDC
#
#######################################################################
#
# If this CIF has been generated from an entry in the Cambridge
# Structural Database, then it will include bibliographic, chemical,
# crystal, experimental, refinement or atomic coordinate data resulting
# from the CCDC's data processing and validation procedures.
#
#######################################################################

data_CSD_CIF_UBATOI
_audit_creation_date 2011-10-27
_audit_creation_method CSD-ConQuest-V1
_database_code_CSD UBATOI
_database_code_depnum_ccdc_archive 'CCDC 812105'
_chemical_formula_sum 'C13 H18 N2 O3'
_chemical_formula_moiety
;
C13 H18 N2 O3
;
_journal_coden_Cambridge 692
_journal_year 2011
_journal_page_first 2136
_journal_name_full 'Synthesis '
loop_
_publ_author_name
"M.Bakthadoss"
"N.Sivakumar"
"A.Devaraj"
"D.S.Sharada"
_chemical_name_systematic
;
(1-Methyl-4-(4-methylphenyl)-3-nitropyrrolidin-3-yl)methanol
;
_cell_volume   1353.635
_exptl_crystal_colour 'colorless'
_exptl_crystal_density_diffrn 1.228
_exptl_crystal_description 'block'
_diffrn_ambient_temperature 293
#These two values have been output from a single CSD field.
_refine_ls_R_factor_gt 0.0459
_refine_ls_wR_factor_gt 0.0459
_symmetry_cell_setting monoclinic
_symmetry_space_group_name_H-M 'P 21/c'
_symmetry_Int_Tables_number 14
loop_
_symmetry_equiv_pos_site_id
_symmetry_equiv_pos_as_xyz
1 x,y,z
2 -x,1/2+y,1/2-z
3 -x,-y,-z
4 x,-1/2-y,-1/2+z
_cell_length_a 12.0239(6)
_cell_length_b 11.1563(5)
_cell_length_c 11.2174(6)
_cell_angle_alpha 90
_cell_angle_beta 115.896(3)
_cell_angle_gamma 90
_cell_formula_units_Z 4
loop_
_atom_type_symbol
_atom_type_radius_bond
C 0.68
H 0.23
N 0.68
O 0.68
loop_
_atom_site_label
_atom_site_type_symbol
_atom_site_fract_x
_atom_site_fract_y
_atom_site_fract_z
C1 C 0.51134(16) 0.10588(16) 0.20426(17)
H1 H 0.57090 0.04940 0.25260
C2 C 0.40492(19) 0.11484(17) 0.2217(2)
H2 H 0.39430 0.06370 0.28140
C3 C 0.31424(18) 0.19711(19) 0.1535(2)
C4 C 0.33353(19) 0.2715(2) 0.0665(2)
H3 H 0.27440 0.32890 0.01960
C5 C 0.43939(17) 0.26238(18) 0.0475(2)
H4 H 0.44940 0.31320 -0.01290
C6 C 0.53077(15) 0.17963(15) 0.11587(16)
C7 C 0.1974(2) 0.2056(3) 0.1729(3)
H5 H 0.13300 0.24180 0.09620
H6 H 0.21300 0.25360 0.24960
H7 H 0.17230 0.12670 0.18520
C8 C 0.64589(14) 0.17547(14) 0.09364(15)
H8 H 0.62250 0.20120 0.00230
C9 C 0.75499(15) 0.25793(15) 0.18667(15)
C10 C 0.87023(16) 0.18209(17) 0.22458(18)
H9 H 0.93640 0.22900 0.22040
H10 H 0.89820 0.15070 0.31360
C11 C 0.71019(16) 0.05440(15) 0.11218(19)
H11 H 0.71380 0.01370 0.19020
H12 H 0.66770 0.00350 0.03540
C12 C 0.91912(19) -0.01658(19) 0.1726(2)
H13 H 0.92900 -0.04210 0.25840
H14 H 0.99790 0.00730 0.17790
H15 H 0.88660 -0.08150 0.11080
C13 C 0.73967(16) 0.30567(17) 0.30482(16)
H16 H 0.66730 0.35680 0.27520
H17 H 0.72870 0.23980 0.35500
N1 N 0.75729(17) 0.36669(14) 0.10445(15)
N2 N 0.83358(13) 0.08488(13) 0.12790(14)
O1 O 0.67210(18) 0.43668(14) 0.07208(18)
O2 O 0.83937(16) 0.37565(15) 0.07016(16)
O3 O 0.84601(13) 0.37137(14) 0.38475(13)
H18 H 0.84700 0.38340 0.45730
#END
