
#######################################################################
#
#                 Cambridge Crystallographic Data Centre
#                                CCDC
#
#######################################################################
#
# If this CIF has been generated from an entry in the Cambridge
# Structural Database, then it will include bibliographic, chemical,
# crystal, experimental, refinement or atomic coordinate data resulting
# from the CCDC's data processing and validation procedures.
#
#######################################################################

data_CSD_CIF_UBATUO
_audit_creation_date 2011-10-26
_audit_creation_method CSD-ConQuest-V1
_database_code_CSD UBATUO
_database_code_depnum_ccdc_archive 'CCDC 818258'
_chemical_formula_sum 'C17 H22 N2 O1'
_chemical_formula_moiety
;
C17 H22 N2 O1
;
_journal_coden_Cambridge 692
_journal_volume 2011
_journal_year 2011
_journal_page_first 2165
_journal_name_full 'Synthesis '
loop_
_publ_author_name
"M.G.Memeo"
"D.Mantione"
"B.Bovio"
"P.Quadrelli"
_chemical_name_systematic
;
9-t-Butyl-5-phenyl-3-oxa-4,9-diazatricyclo[5.2.1.0^2,6^]dec-4-ene
;
_cell_volume   1512.861
_exptl_crystal_colour 'colorless'
_exptl_crystal_density_diffrn 1.188
_exptl_special_details
;
The space group is P21/a, not P21 as given in the deposited CIF

;
_exptl_crystal_description 'needles'
_diffrn_ambient_temperature 293
#These two values have been output from a single CSD field.
_refine_ls_R_factor_gt 0.0504
_refine_ls_wR_factor_gt 0.0504
_symmetry_cell_setting monoclinic
_symmetry_space_group_name_H-M 'P 21/a'
_symmetry_Int_Tables_number 14
loop_
_symmetry_equiv_pos_site_id
_symmetry_equiv_pos_as_xyz
1 x,y,z
2 1/2-x,1/2+y,-z
3 -x,-y,-z
4 -1/2+x,-1/2-y,z
_cell_length_a 12.325(9)
_cell_length_b 9.018(8)
_cell_length_c 13.642(8)
_cell_angle_alpha 90
_cell_angle_beta 93.84(6)
_cell_angle_gamma 90
_cell_formula_units_Z 4
loop_
_atom_type_symbol
_atom_type_radius_bond
C 0.68
H 0.23
N 0.68
O 0.68
loop_
_atom_site_label
_atom_site_type_symbol
_atom_site_fract_x
_atom_site_fract_y
_atom_site_fract_z
C1 C 0.25581(49) 0.38910(53) 0.81332(36)
C2 C 0.21673(44) 0.29165(56) 0.89462(33)
O1 O 0.15085(29) 0.37361(38) 0.96162(22)
N1 N 0.20657(43) 0.37547(46) 1.05558(27)
C3 C 0.29817(48) 0.30914(51) 1.05288(32)
C4 C 0.32241(45) 0.25357(61) 0.95392(31)
C5 C 0.40867(48) 0.34153(55) 0.90108(33)
C6 C 0.42120(52) 0.26558(79) 0.80227(36)
N2 N 0.31211(34) 0.28004(40) 0.75183(24)
C7 C 0.34297(52) 0.47602(61) 0.86606(41)
C8 C 0.36655(49) 0.28785(54) 1.14321(31)
C9 C 0.45372(57) 0.19672(62) 1.14807(43)
C10 C 0.51498(61) 0.16626(66) 1.23475(41)
C11 C 0.48235(73) 0.23263(84) 1.32014(42)
C12 C 0.39679(77) 0.32612(93) 1.31674(45)
C13 C 0.33781(60) 0.35764(70) 1.23016(39)
C14 C 0.30383(49) 0.29841(58) 0.64506(32)
C15 C 0.18617(67) 0.28692(99) 0.60918(52)
C16 C 0.36576(78) 0.16922(96) 0.60255(49)
C17 C 0.34992(89) 0.44630(81) 0.61296(50)
H1 H 0.1990(32) 0.4477(41) 0.7777(26)
H2 H 0.1795(27) 0.2041(35) 0.8707(20)
H3 H 0.3354(29) 0.1472(43) 0.9538(24)
H4 H 0.4731(34) 0.3618(40) 0.9394(26)
H5 H 0.4719(40) 0.3173(48) 0.7650(33)
H6 H 0.4394(48) 0.1640(61) 0.8106(38)
H7 H 0.3120(36) 0.5359(48) 0.9191(30)
H8 H 0.3829(38) 0.5296(51) 0.8220(36)
H9 H 0.4754(39) 0.1545(48) 1.0891(33)
H10 H 0.5755(43) 0.1051(50) 1.2366(34)
H11 H 0.5195(59) 0.2133(66) 1.3794(54)
H12 H 0.3797(46) 0.3666(57) 1.3739(41)
H13 H 0.2721(39) 0.4206(48) 1.2286(31)
H14 H 0.1529(41) 0.1734(58) 0.6261(39)
H15 H 0.1765(45) 0.2850(57) 0.5508(40)
H16 H 0.1336(48) 0.3766(62) 0.6330(39)
H17 H 0.4394(38) 0.1734(48) 0.6261(29)
H18 H 0.3578(38) 0.1699(47) 0.5329(39)
H19 H 0.3341(47) 0.0760(56) 0.6257(39)
H20 H 0.4238(63) 0.4523(83) 0.6355(54)
H21 H 0.3087(50) 0.5251(79) 0.6400(47)
H22 H 0.3427(45) 0.4529(51) 0.5421(44)
#END
