
#######################################################################
#
#                 Cambridge Crystallographic Data Centre
#                                CCDC
#
#######################################################################
#
# If this CIF has been generated from an entry in the Cambridge
# Structural Database, then it will include bibliographic, chemical,
# crystal, experimental, refinement or atomic coordinate data resulting
# from the CCDC's data processing and validation procedures.
#
#######################################################################

data_CSD_CIF_UBEGEQ
_audit_creation_date 2016-11-09
_audit_creation_method CSD-ConQuest-V1
_database_code_CSD UBEGEQ
_database_code_depnum_ccdc_archive 'CCDC 1515976'
_chemical_formula_sum 'C43 H54 N2 O3'
_chemical_formula_moiety
;
C43 H54 N2 O3
;
_journal_coden_Cambridge 1078
_journal_year 2016
_journal_name_full 'CSD Communication(Private Communication) '
loop_
_publ_author_name
"N.K.Ishida"
_chemical_name_systematic
;
3,3'-(2,7-di-t-butyl-9,9-dimethyl-9H-xanthene-4,5-diyl)bis(N-t-butyl-N-oxylani
line)
;
_chemical_melting_point 449
_cell_volume   1839.792
_exptl_crystal_colour 'red'
_exptl_crystal_density_diffrn 1.168
_exptl_special_details
;
, Magnetic properties

;
_exptl_crystal_description 'block'
_exptl_crystal_preparation 'dichloromethane/hexane'
_diffrn_ambient_temperature 100
#These two values have been output from a single CSD field.
_refine_ls_R_factor_gt 0.0654
_refine_ls_wR_factor_gt 0.0654
_symmetry_cell_setting triclinic
_symmetry_space_group_name_H-M 'P -1'
_symmetry_Int_Tables_number 2
loop_
_symmetry_equiv_pos_site_id
_symmetry_equiv_pos_as_xyz
1 x,y,z
2 -x,-y,-z
_cell_length_a 11.978(9)
_cell_length_b 12.513(12)
_cell_length_c 13.150(14)
_cell_angle_alpha 93.85(2)
_cell_angle_beta 108.75(3)
_cell_angle_gamma 97.14(2)
_cell_formula_units_Z 2
loop_
_atom_type_symbol
_atom_type_radius_bond
C 0.68
H 0.23
N 0.68
O 0.68
loop_
_atom_site_label
_atom_site_type_symbol
_atom_site_fract_x
_atom_site_fract_y
_atom_site_fract_z
O1 O -0.29521(10) 0.75661(10) 1.13184(11)
O2 O -0.49325(11) 0.79717(12) 0.71985(12)
O3 O 0.11972(10) 0.70977(10) 1.00443(9)
N1 N -0.18292(12) 0.79331(12) 1.15949(12)
N2 N -0.38345(13) 0.84097(12) 0.74424(12)
C1 C -0.10325(14) 0.71635(13) 1.18331(13)
C2 C 0.00957(15) 0.73439(14) 1.17237(13)
C3 C 0.08528(15) 0.65641(13) 1.19670(13)
C4 C 0.04682(16) 0.56068(14) 1.23314(14)
C5 C -0.06668(16) 0.54210(14) 1.24141(14)
C6 C -0.14221(16) 0.61880(14) 1.21618(14)
C7 C -0.14588(15) 0.91463(14) 1.17248(15)
C8 C -0.1114(2) 0.94736(18) 1.07517(17)
C9 C -0.25292(19) 0.96726(17) 1.1757(2)
C10 C -0.04366(18) 0.94974(16) 1.27951(16)
C11 C -0.29533(15) 0.77774(14) 0.79794(14)
C12 C -0.18127(15) 0.78772(14) 0.78907(14)
C13 C -0.10002(14) 0.72073(13) 0.84127(13)
C14 C -0.13417(15) 0.64467(14) 0.90318(14)
C15 C -0.24805(16) 0.63475(15) 0.91078(15)
C16 C -0.32848(16) 0.70055(15) 0.85862(15)
C17 C -0.36028(16) 0.95560(15) 0.71920(15)
C18 C -0.4713(2) 1.0073(2) 0.7080(2)
C19 C -0.25606(19) 1.02255(17) 0.8107(2)
C20 C -0.3340(2) 0.9523(2) 0.61237(19)
C21 C 0.22170(14) 0.69556(13) 1.08673(13)
C22 C 0.20557(15) 0.67268(13) 1.18439(13)
C23 C 0.30536(15) 0.65971(14) 1.27102(14)
C24 C 0.41949(15) 0.66893(14) 1.26333(14)
C25 C 0.43042(15) 0.68850(14) 1.16342(14)
C26 C 0.33309(14) 0.70136(13) 1.07376(13)
C27 C 0.35001(14) 0.71640(13) 0.96552(13)
C28 C 0.23123(14) 0.72330(13) 0.87912(13)
C29 C 0.22708(15) 0.73223(13) 0.77261(13)
C30 C 0.12102(15) 0.73613(13) 0.68879(13)
C31 C 0.01754(15) 0.73387(13) 0.71575(14)
C32 C 0.01651(14) 0.72632(13) 0.82111(13)
C33 C 0.12508(15) 0.71931(13) 0.90172(13)
C34 C 0.43802(16) 0.82129(15) 0.97623(15)
C35 C 0.40080(16) 0.61744(15) 0.93143(15)
C36 C 0.52967(15) 0.65247(15) 1.35755(14)
C37 C 0.50352(18) 0.65044(18) 1.46411(15)
C38 C 0.56679(19) 0.54378(17) 1.33055(17)
C39 C 0.63408(17) 0.74385(17) 1.37225(16)
C40 C 0.12125(16) 0.73746(15) 0.57207(14)
C41 C 0.1673(2) 0.63536(19) 0.54028(17)
C42 C 0.2043(2) 0.83785(19) 0.56376(17)
C43 C -0.00341(17) 0.73871(18) 0.49213(15)
H1 H 0.0349(17) 0.8007(17) 1.1447(16)
H2 H 0.0989(19) 0.5077(17) 1.2513(17)
H3 H -0.0947(19) 0.4753(18) 1.2687(17)
H4 H -0.2228(19) 0.6071(17) 1.2225(17)
H5 H -0.174(2) 0.917(2) 1.009(2)
H6 H -0.103(2) 1.027(2) 1.0749(19)
H7 H -0.033(2) 0.926(2) 1.077(2)
H8 H -0.282(2) 0.946(2) 1.234(2)
H9 H -0.2275(19) 1.0472(19) 1.1853(17)
H10 H -0.320(2) 0.947(2) 1.106(2)
H11 H 0.027(2) 0.9161(19) 1.2828(19)
H12 H -0.025(2) 1.030(2) 1.2880(18)
H13 H -0.070(2) 0.9280(19) 1.340(2)
H14 H -0.1558(19) 0.8411(18) 0.7449(18)
H15 H -0.0776(17) 0.5981(16) 0.9394(15)
H16 H -0.2721(18) 0.5780(17) 0.9515(16)
H17 H -0.4086(19) 0.6938(16) 0.8632(16)
H18 H -0.473(2) 0.9997(18) 0.7899(19)
H19 H -0.451(2) 1.088(2) 0.694(2)
H20 H -0.541(3) 0.967(2) 0.641(2)
H21 H -0.177(2) 0.9935(19) 0.8206(19)
H22 H -0.244(2) 1.099(2) 0.787(2)
H23 H -0.283(2) 1.025(2) 0.883(2)
H24 H -0.412(3) 0.914(2) 0.555(2)
H25 H -0.326(2) 1.034(2) 0.591(2)
H26 H -0.252(2) 0.922(2) 0.616(2)
H27 H 0.2907(16) 0.6453(14) 1.3385(15)
H28 H 0.5112(18) 0.6962(16) 1.1546(16)
H29 H 0.3013(18) 0.7374(16) 0.7560(16)
H30 H -0.0575(18) 0.7352(16) 0.6594(16)
H31 H 0.5175(19) 0.8165(17) 1.0303(17)
H32 H 0.4494(18) 0.8311(17) 0.9051(18)
H33 H 0.4047(18) 0.8862(17) 0.9994(17)
H34 H 0.3474(18) 0.5493(17) 0.9291(16)
H35 H 0.4070(18) 0.6226(16) 0.8585(17)
H36 H 0.480(2) 0.6159(17) 0.9840(18)
H37 H 0.577(2) 0.6428(18) 1.5258(19)
H38 H 0.475(2) 0.7211(19) 1.4818(18)
H39 H 0.4416(19) 0.5859(18) 1.4628(17)
H40 H 0.502(2) 0.481(2) 1.3217(19)
H41 H 0.587(2) 0.5454(18) 1.263(2)
H42 H 0.641(2) 0.5329(18) 1.3892(18)
H43 H 0.706(2) 0.7310(19) 1.4335(19)
H44 H 0.6581(19) 0.7446(17) 1.3073(18)
H45 H 0.614(2) 0.820(2) 1.3864(19)
H46 H 0.165(2) 0.634(2) 0.465(2)
H47 H 0.252(2) 0.635(2) 0.587(2)
H48 H 0.117(2) 0.565(2) 0.5451(19)
H49 H 0.175(2) 0.907(2) 0.583(2)
H50 H 0.288(2) 0.836(2) 0.614(2)
H51 H 0.206(2) 0.8378(18) 0.4870(19)
H52 H -0.061(2) 0.6706(19) 0.4920(18)
H53 H -0.0380(19) 0.8051(18) 0.5093(17)
H54 H 0.0017(19) 0.7411(17) 0.4194(19)
#END
