
#######################################################################
#
#                 Cambridge Crystallographic Data Centre
#                                CCDC
#
#######################################################################
#
# If this CIF has been generated from an entry in the Cambridge
# Structural Database, then it will include bibliographic, chemical,
# crystal, experimental, refinement or atomic coordinate data resulting
# from the CCDC's data processing and validation procedures.
#
#######################################################################

data_CSD_CIF_UBENOE
_audit_creation_date 2001-09-18
_audit_creation_method CSD-ConQuest-V1
_database_code_CSD UBENOE
_database_code_depnum_ccdc_archive 'CCDC 1277650'
_chemical_formula_sum 'C10 H13 N3 O2'
_chemical_formula_moiety
;
C10 H13 N3 O2
;
_journal_coden_Cambridge 1094
_journal_volume 10
_journal_year 1999
_journal_page_first 439
_journal_name_full 'Struct.Chem. '
loop_
_publ_author_name
"A.K.Katz"
"H.L.Carrell"
"C.E.Afshar"
"J.P.Glusker"
"D.Desai"
"Shantu Amin"
_chemical_name_systematic
;
4-(Methylnitrosamino)-1-(3-pyridyl)-1-butanone
;
_chemical_name_common
;
PDB Chemical Component code: 0QA
;
_cell_volume   1024.531
_exptl_special_details
;
carcinogenic

;
_exptl_crystal_preparation 'tetrahydrofuran'
_diffrn_ambient_temperature 120
#These two values have been output from a single CSD field.
_refine_ls_R_factor_gt 0.088
_refine_ls_wR_factor_gt 0.088
_symmetry_cell_setting monoclinic
_symmetry_space_group_name_H-M 'P 21/a'
_symmetry_Int_Tables_number 14
loop_
_symmetry_equiv_pos_site_id
_symmetry_equiv_pos_as_xyz
1 x,y,z
2 1/2-x,1/2+y,-z
3 -x,-y,-z
4 -1/2+x,-1/2-y,z
_cell_length_a 8.000(8)
_cell_length_b 9.773(9)
_cell_length_c 13.60(1)
_cell_angle_alpha 90
_cell_angle_beta 105.52(8)
_cell_angle_gamma 90
_cell_formula_units_Z 4
loop_
_atom_type_symbol
_atom_type_radius_bond
C 0.68
H 0.23
N 0.68
O 0.68
loop_
_atom_site_label
_atom_site_type_symbol
_atom_site_fract_x
_atom_site_fract_y
_atom_site_fract_z
N1 N 0.0468(4) -0.0045(4) 0.2928(3)
C1 C 0.1482(5) 0.0214(4) 0.3880(3)
C2 C 0.2765(5) 0.1203(4) 0.4115(3)
C3 C 0.3029(5) 0.1976(4) 0.3296(3)
C4 C 0.2015(6) 0.1750(4) 0.2326(3)
C5 C 0.0755(6) 0.0735(5) 0.2184(3)
C6 C 0.3893(6) 0.1471(4) 0.5163(3)
C7 C 0.3505(5) 0.0757(4) 0.6061(3)
C8 C 0.4709(5) 0.1241(4) 0.7067(3)
O1 O 0.5118(4) 0.2244(3) 0.5272(2)
C9 C 0.4287(6) 0.0555(5) 0.7981(3)
N2 N 0.5331(5) 0.1098(4) 0.8936(2)
C10 C 0.4967(6) 0.2410(5) 0.9319(3)
N3 N 0.6558(5) 0.0245(5) 0.9473(3)
O2 O 0.7342(5) 0.0726(4) 1.0290(3)
H1 H 0.128(4) -0.037(3) 0.448(2)
H2 H 0.400(4) 0.272(3) 0.343(2)
H3 H 0.216(4) 0.233(3) 0.171(2)
H4 H 0.000(4) 0.056(3) 0.145(2)
H5 H 0.366(4) -0.030(3) 0.599(2)
H6 H 0.222(4) 0.096(3) 0.607(2)
H7 H 0.459(4) 0.230(3) 0.713(2)
H8 H 0.599(4) 0.100(3) 0.708(2)
H9 H 0.450(4) -0.050(3) 0.796(2)
H10 H 0.297(4) 0.072(3) 0.795(2)
H11 H 0.575(4) 0.320(3) 0.910(2)
H12 H 0.358(4) 0.266(3) 0.899(2)
H13 H 0.521(4) 0.238(3) 1.015(2)
#END
