
#######################################################################
#
#                 Cambridge Crystallographic Data Centre
#                                CCDC
#
#######################################################################
#
# If this CIF has been generated from an entry in the Cambridge
# Structural Database, then it will include bibliographic, chemical,
# crystal, experimental, refinement or atomic coordinate data resulting
# from the CCDC's data processing and validation procedures.
#
#######################################################################

data_CSD_CIF_UBIFAM
_audit_creation_date 2001-09-19
_audit_creation_method CSD-ConQuest-V1
_database_code_CSD UBIFAM
_database_code_depnum_ccdc_archive 'CCDC 158648'
_chemical_formula_sum 'C30 H35 N1 O7'
_chemical_formula_moiety
;
C30 H35 N1 O7
;
_journal_coden_Cambridge 16
_journal_volume 57
_journal_year 2001
_journal_page_first 5625
_journal_name_full 'Tetrahedron '
loop_
_publ_author_name
"R.Venkateswarlu"
"C.Kamakshi"
"S.G.A.Moinuddin"
"P.V.Subhash"
"R.S.Ward"
"A.Pelter"
"S.J.Coles"
"M.B.Hursthouse"
"M.E.Light"
_chemical_name_systematic
;
4,5,15-Trimethoxy-9,10-bis(methoxymethyl)-17-oxatetracyclo[7.7.1.0^1,12^.0^2,7
^]heptadeca-2,4,6,12,15-pentaen-14-one O-benzyloxime
;
_chemical_melting_point 491.15
_cell_volume   2650.547
_exptl_crystal_colour 'colorless'
_exptl_crystal_density_diffrn 1.307
_exptl_special_details
;
Melting point range 491.15-493.15K

;
_exptl_crystal_preparation 'methanol'
_diffrn_ambient_temperature 150
#These two values have been output from a single CSD field.
_refine_ls_R_factor_gt 0.0518
_refine_ls_wR_factor_gt 0.0518
_symmetry_cell_setting orthorhombic
_symmetry_space_group_name_H-M 'P 21 21 21'
_symmetry_Int_Tables_number 19
loop_
_symmetry_equiv_pos_site_id
_symmetry_equiv_pos_as_xyz
1 x,y,z
2 1/2-x,-y,1/2+z
3 -x,1/2+y,1/2-z
4 1/2+x,1/2-y,-z
_cell_length_a 8.3465(3)
_cell_length_b 11.5508(4)
_cell_length_c 27.4928(12)
_cell_angle_alpha 90
_cell_angle_beta 90
_cell_angle_gamma 90
_cell_formula_units_Z 4
loop_
_atom_type_symbol
_atom_type_radius_bond
C 0.68
H 0.23
N 0.68
O 0.68
loop_
_atom_site_label
_atom_site_type_symbol
_atom_site_fract_x
_atom_site_fract_y
_atom_site_fract_z
C1 C 0.2854(4) 1.3985(3) 0.19949(13)
H1 H 0.37260 1.41310 0.22080
C2 C 0.1300(5) 1.4006(3) 0.21738(13)
H2 H 0.11060 1.41650 0.25080
C3 C 0.0035(5) 1.3794(3) 0.18604(13)
H3 H -0.10320 1.38080 0.19810
C4 C 0.0308(5) 1.3565(3) 0.13786(14)
H4 H -0.05650 1.34130 0.11660
C5 C 0.1845(4) 1.3555(3) 0.12036(13)
H5 H 0.20290 1.34100 0.08680
C6 C 0.3148(4) 1.3757(3) 0.15135(13)
C7 C 0.4820(4) 1.3680(3) 0.13246(13)
H6 H 0.49120 1.40750 0.10060
H7 H 0.55820 1.40410 0.15550
C8 C 0.7035(4) 1.1248(3) 0.09973(11)
C9 C 0.8424(4) 1.0982(3) 0.06930(11)
C10 C 0.9130(4) 0.9950(3) 0.07116(11)
H8 H 1.00180 0.98120 0.05030
C11 C 0.8602(4) 0.9001(3) 0.10415(12)
C12 C 0.7063(4) 0.9266(3) 0.13046(11)
C13 C 0.6345(4) 1.0293(3) 0.12811(11)
H9 H 0.53680 1.04100 0.14510
C14 C 1.0233(5) 1.1711(3) 0.01061(12)
H10 H 1.04320 1.24070 -0.00890
H11 H 1.00510 1.10500 -0.01100
H12 H 1.11630 1.15560 0.03130
C15 C 0.9902(4) 0.8688(3) 0.14054(11)
C16 C 1.0794(4) 0.9552(3) 0.16353(10)
H13 H 1.06290 1.03390 0.15490
C17 C 1.1906(4) 0.9281(3) 0.19840(12)
C18 C 1.2202(4) 0.8106(3) 0.20997(11)
C19 C 1.1319(4) 0.7262(3) 0.18698(11)
H14 H 1.15200 0.64720 0.19440
C20 C 1.0137(4) 0.7540(3) 0.15310(11)
C21 C 1.2237(4) 1.1234(3) 0.22340(14)
H15 H 1.29440 1.17250 0.24300
H16 H 1.11470 1.12670 0.23660
H17 H 1.22320 1.15110 0.18970
C22 C 1.3544(4) 0.6752(3) 0.25999(13)
H18 H 1.43880 0.67120 0.28470
H19 H 1.38470 0.62770 0.23190
H20 H 1.25380 0.64620 0.27370
C23 C 0.9148(4) 0.6579(3) 0.13119(11)
H21 H 0.86600 0.61260 0.15790
H22 H 0.98720 0.60540 0.11310
C24 C 0.7820(4) 0.6976(3) 0.09697(12)
C25 C 0.6219(4) 0.7207(3) 0.12409(11)
H23 H 0.59900 0.65150 0.14490
C26 C 0.6406(4) 0.8255(3) 0.15805(11)
H24 H 0.53520 0.84610 0.17210
H25 H 0.71390 0.80550 0.18510
C27 C 0.7595(4) 0.6089(3) 0.05654(12)
H26 H 0.72070 0.53480 0.07030
H27 H 0.67920 0.63710 0.03290
C28 C 0.9010(5) 0.5033(3) -0.00249(12)
H28 H 1.00630 0.49390 -0.01770
H29 H 0.82200 0.52440 -0.02730
H30 H 0.86920 0.43050 0.01300
C29 C 0.4786(4) 0.7384(3) 0.09076(12)
H31 H 0.39580 0.78500 0.10750
H32 H 0.51200 0.78020 0.06100
C30 C 0.2800(4) 0.6385(3) 0.04729(13)
H33 H 0.23960 0.56130 0.03910
H34 H 0.31090 0.67910 0.01740
H35 H 0.19600 0.68240 0.06400
N1 N 0.6527(3) 1.2308(2) 0.09872(10)
O1 O 0.5150(3) 1.24403(19) 0.12743(8)
O2 O 0.8860(3) 1.18861(19) 0.04012(8)
O3 O 1.2806(3) 1.00587(19) 0.22475(8)
O4 O 1.3337(3) 0.79227(19) 0.24491(7)
O5 O 0.9090(3) 0.59165(19) 0.03299(8)
O6 O 0.4158(3) 0.6278(2) 0.07830(8)
O7 O 0.8304(3) 0.80255(18) 0.07225(8)
#END
