
#######################################################################
#
#                 Cambridge Crystallographic Data Centre
#                                CCDC
#
#######################################################################
#
# If this CIF has been generated from an entry in the Cambridge
# Structural Database, then it will include bibliographic, chemical,
# crystal, experimental, refinement or atomic coordinate data resulting
# from the CCDC's data processing and validation procedures.
#
#######################################################################

data_CSD_CIF_UBOLII
_audit_creation_date 2012-01-16
_audit_creation_method CSD-ConQuest-V1
_database_code_CSD UBOLII
_database_code_depnum_ccdc_archive 'CCDC 808976'
_chemical_formula_sum 'C27 H23 N3 O6'
_chemical_formula_moiety
;
C27 H23 N3 O6
;
_journal_coden_Cambridge 692
_journal_volume 2011
_journal_year 2011
_journal_page_first 3307
_journal_name_full 'Synthesis '
loop_
_publ_author_name
"S.Ramesh"
"R.Nagarajan"
_chemical_name_systematic
;
Ethyl 
4-((9-ethyl-9H-carbazol-3-yl)amino)-2-(4-nitrophenyl)-5-oxo-2,5-dihydrofuran-3
-carboxylate
;
_cell_volume   1195.384
_exptl_crystal_colour 'pale yellow'
_exptl_crystal_density_diffrn 1.349
_exptl_crystal_description 'block'
_diffrn_ambient_temperature 298
#These two values have been output from a single CSD field.
_refine_ls_R_factor_gt 0.0534
_refine_ls_wR_factor_gt 0.0534
_symmetry_cell_setting triclinic
_symmetry_space_group_name_H-M 'P -1'
_symmetry_Int_Tables_number 2
loop_
_symmetry_equiv_pos_site_id
_symmetry_equiv_pos_as_xyz
1 x,y,z
2 -x,-y,-z
_cell_length_a 8.5722(18)
_cell_length_b 9.8231(18)
_cell_length_c 15.607(3)
_cell_angle_alpha 73.836(16)
_cell_angle_beta 74.258(18)
_cell_angle_gamma 76.080(17)
_cell_formula_units_Z 2
loop_
_atom_type_symbol
_atom_type_radius_bond
C 0.68
H 0.23
N 0.68
O 0.68
loop_
_atom_site_label
_atom_site_type_symbol
_atom_site_fract_x
_atom_site_fract_y
_atom_site_fract_z
H1 H 0.853(3) 0.625(3) 0.9344(16)
O1 O 0.6064(2) 0.36094(18) 1.15327(11)
O2 O 0.8357(2) 0.41480(19) 1.04976(11)
O3 O 0.3731(2) 0.77874(18) 1.04465(11)
C1 C 0.9474(3) 1.0319(3) 0.80433(15)
O4 O 0.4888(2) 0.92399(19) 0.91791(12)
C2 C 0.8797(3) 0.9260(3) 0.87498(16)
H2 H 0.85780 0.93340 0.93540
C3 C 0.6916(3) 0.4482(3) 1.08459(16)
C4 C 0.9760(3) 1.0197(3) 0.71299(16)
N1 N 0.7901(3) 0.6929(3) 0.92531(16)
C5 C 0.5926(3) 0.5875(3) 1.05603(15)
C6 C 1.0030(3) 1.1614(3) 0.80083(17)
C7 C 0.4003(3) 0.6517(3) 1.19904(17)
C8 C 0.4182(3) 0.6375(3) 1.10256(16)
H3 H 0.34750 0.57250 1.10270
N2 N 1.0441(3) 1.1357(3) 0.65536(14)
C9 C 0.6437(3) 0.6933(3) 0.98399(16)
C10 C 0.8459(3) 0.8109(3) 0.85431(17)
C11 C 0.8767(3) 0.7997(3) 0.76399(19)
H4 H 0.85300 0.72040 0.75180
C12 C 0.5016(3) 0.8135(3) 0.97502(17)
C13 C 0.9419(4) 0.9039(3) 0.69198(18)
H5 H 0.96200 0.89620 0.63170
C14 C 1.0617(3) 1.2217(3) 0.70777(18)
C15 C 0.6977(3) 0.2224(3) 1.19112(18)
H6 H 0.79380 0.23540 1.20730
H7 H 0.73420 0.16300 1.14660
C16 C 0.3785(4) 0.6715(3) 1.37465(19)
C17 C 0.4527(4) 0.7632(3) 1.21481(19)
H8 H 0.49560 0.83230 1.16550
C18 C 0.3348(4) 0.5516(3) 1.2725(2)
H9 H 0.29620 0.47750 1.26290
C19 C 0.4422(4) 0.7734(3) 1.3029(2)
H10 H 0.47810 0.84850 1.31300
C20 C 0.3259(4) 0.5603(4) 1.3607(2)
H11 H 0.28440 0.49070 1.41030
C21 C 1.0074(3) 1.2310(3) 0.8665(2)
H12 H 0.96870 1.19280 0.92830
C22 C 1.0695(4) 1.3567(4) 0.8389(2)
H13 H 1.07240 1.40360 0.88250
N3 N 0.3677(4) 0.6814(4) 1.4684(2)
O5 O 0.3062(5) 0.5952(4) 1.53151(18)
C23 C 0.5857(4) 0.1523(3) 1.2739(2)
H14 H 0.55270 0.21070 1.31810
H15 H 0.64210 0.05910 1.29970
H16 H 0.49000 0.14180 1.25730
C24 C 1.1281(4) 1.4148(4) 0.7468(3)
H17 H 1.17020 1.49960 0.72990
C25 C 1.1248(4) 1.3492(3) 0.6804(2)
H18 H 1.16350 1.38870 0.61880
O6 O 0.4186(6) 0.7758(4) 1.47921(19)
C26 C 1.0799(5) 1.1686(4) 0.5547(2)
H19 H 1.00490 1.12920 0.53550
H20 H 1.05920 1.27230 0.53200
C27 C 1.2416(6) 1.1139(7) 0.5151(3)
H21 H 1.31690 1.14700 0.53700
H22 H 1.25970 1.14660 0.44980
H23 H 1.25920 1.01050 0.53130
#END
