
#######################################################################
#
#                 Cambridge Crystallographic Data Centre
#                                CCDC
#
#######################################################################
#
# If this CIF has been generated from an entry in the Cambridge
# Structural Database, then it will include bibliographic, chemical,
# crystal, experimental, refinement or atomic coordinate data resulting
# from the CCDC's data processing and validation procedures.
#
#######################################################################

data_CSD_CIF_UBOZAO
_audit_creation_date 2011-12-21
_audit_creation_method CSD-ConQuest-V1
_database_code_CSD UBOZAO
_database_code_depnum_ccdc_archive 'CCDC 824647'
_chemical_formula_sum 'C24 H26 N2 O5'
_chemical_formula_moiety
;
C24 H26 N2 O5
;
_journal_coden_Cambridge 179
_journal_volume 50
_journal_year 2011
_journal_page_first 10957
_journal_name_full 'Angew.Chem.,Int.Ed. '
loop_
_publ_author_name
"T.J.Donohoe"
"C.K.A.Callens"
"A.Flores"
"S.Mesch"
"D.L.Poole"
"I.A.Roslan"
_chemical_name_systematic
;
2-(1,3-Dioxo-1,3-dihydro-2H-isoindol-2-yl)-N-((mesitylcarbonyl)oxy)-3,3-dimeth
ylbutanamide
;
_cell_volume   2227.092
_exptl_crystal_colour 'colorless'
_exptl_crystal_density_diffrn 1.26
_exptl_crystal_description 'prism'
_diffrn_ambient_temperature 150
#These two values have been output from a single CSD field.
_refine_ls_R_factor_gt 0.0434
_refine_ls_wR_factor_gt 0.0434
_symmetry_cell_setting orthorhombic
_symmetry_space_group_name_H-M 'P 21 21 21'
_symmetry_Int_Tables_number 19
loop_
_symmetry_equiv_pos_site_id
_symmetry_equiv_pos_as_xyz
1 x,y,z
2 1/2+x,1/2-y,-z
3 -x,1/2+y,1/2-z
4 1/2-x,-y,1/2+z
_cell_length_a 5.8398(2)
_cell_length_b 10.8763(3)
_cell_length_c 35.0638(12)
_cell_angle_alpha 90
_cell_angle_beta 90
_cell_angle_gamma 90
_cell_formula_units_Z 4
loop_
_atom_type_symbol
_atom_type_radius_bond
C 0.68
H 0.23
N 0.68
O 0.68
loop_
_atom_site_label
_atom_site_type_symbol
_atom_site_fract_x
_atom_site_fract_y
_atom_site_fract_z
O1 O 0.3833(3) 0.16752(16) 0.36313(6)
C1 C 0.2473(4) 0.2481(2) 0.35481(8)
N1 N 0.0818(4) 0.2904(2) 0.37878(7)
O2 O 0.0476(3) 0.23244(16) 0.41405(5)
C2 C -0.0503(5) 0.1168(3) 0.41135(9)
O3 O -0.0832(4) 0.0673(2) 0.38151(6)
C3 C -0.1064(4) 0.0712(3) 0.45018(8)
C4 C -0.2891(5) 0.1235(3) 0.46984(8)
C5 C -0.4230(5) 0.2301(3) 0.45382(9)
C6 C -0.3467(5) 0.0745(3) 0.50509(9)
C7 C -0.2260(6) -0.0213(3) 0.52144(9)
C8 C -0.0430(6) -0.0703(3) 0.50141(10)
C9 C 0.0193(5) -0.0265(3) 0.46588(9)
C10 C 0.2185(6) -0.0815(3) 0.44384(10)
C11 C -0.2944(9) -0.0693(3) 0.56025(11)
C12 C 0.2424(5) 0.3213(2) 0.31734(8)
N2 N 0.3269(3) 0.44656(19) 0.32484(6)
C13 C 0.5217(5) 0.4783(2) 0.34584(8)
O4 O 0.6589(3) 0.40610(17) 0.35909(6)
C14 C 0.5185(5) 0.6142(2) 0.34941(8)
C15 C 0.3198(5) 0.6578(2) 0.33287(8)
C16 C 0.1916(5) 0.5518(3) 0.31762(8)
O5 O 0.0060(3) 0.54773(17) 0.30230(6)
C17 C 0.2648(6) 0.7809(3) 0.33348(9)
C18 C 0.4211(6) 0.8596(3) 0.35117(10)
C19 C 0.6206(6) 0.8161(3) 0.36729(10)
C20 C 0.6732(5) 0.6920(3) 0.36691(9)
C21 C 0.3496(4) 0.2584(3) 0.28205(8)
C22 C 0.6103(4) 0.2488(3) 0.28427(9)
C23 C 0.2435(5) 0.1304(3) 0.27816(9)
C24 C 0.2842(5) 0.3352(3) 0.24714(9)
H1 H -0.57750 0.22660 0.46310
H2 H -0.42420 0.22510 0.42600
H3 H -0.35070 0.30760 0.46200
H4 H -0.47050 0.10780 0.51830
H5 H 0.03880 -0.13610 0.51230
H6 H 0.31320 -0.12810 0.46130
H7 H 0.16140 -0.13650 0.42410
H8 H 0.30940 -0.01680 0.43210
H9 H -0.17890 -0.12700 0.56890
H10 H -0.43900 -0.11180 0.55780
H11 H -0.30840 -0.00290 0.57820
H12 H 0.07880 0.33210 0.31050
H13 H 0.12550 0.80980 0.32230
H14 H 0.38970 0.94410 0.35290
H15 H 0.72170 0.87150 0.37870
H16 H 0.80620 0.66250 0.37820
H17 H 0.66240 0.20440 0.26190
H18 H 0.67690 0.33150 0.28420
H19 H 0.65440 0.20530 0.30760
H20 H 0.28820 0.09350 0.25410
H21 H 0.07770 0.13660 0.27930
H22 H 0.29840 0.07940 0.29920
H23 H 0.34270 0.29600 0.22440
H24 H 0.11860 0.34300 0.24570
H25 H 0.35230 0.41860 0.24970
H26 H -0.03780 0.32490 0.36880
#END
