
#######################################################################
#
#                 Cambridge Crystallographic Data Centre
#                                CCDC
#
#######################################################################
#
# If this CIF has been generated from an entry in the Cambridge
# Structural Database, then it will include bibliographic, chemical,
# crystal, experimental, refinement or atomic coordinate data resulting
# from the CCDC's data processing and validation procedures.
#
#######################################################################

data_CSD_CIF_UBUJUZ
_audit_creation_date 2016-12-16
_audit_creation_method CSD-ConQuest-V1
_database_code_CSD UBUJUZ
_database_code_depnum_ccdc_archive 'CCDC 1515083'
_chemical_formula_sum 'C8 H6 N4 O3'
_chemical_formula_moiety
;
C8 H6 N4 O3
;
_journal_coden_Cambridge 493
_journal_volume 126
_journal_year 2017
_journal_page_first 954
_journal_name_full 'Eur.J.Med.Chem. '
loop_
_publ_author_name
"O.Argyros"
"N.Lougiakis"
"E.Kouvari"
"A.Papafotika"
"C.P.Raptopoulou"
"V.Psycharis"
"S.Christoforidis"
"N.Pouli"
"P.Marakos"
"C.Tamvakopoulos"
_chemical_name_systematic
;
6-methyl-7-nitropyrido[2,3-b]pyrazin-3(4H)-one
;
_cell_volume    849.664
_exptl_crystal_colour 'colorless'
_exptl_crystal_density_diffrn 1.612
_exptl_crystal_description 'parallelepiped'
_diffrn_ambient_temperature 160
#These two values have been output from a single CSD field.
_refine_ls_R_factor_gt 0.0342
_refine_ls_wR_factor_gt 0.0342
_symmetry_cell_setting monoclinic
_symmetry_space_group_name_H-M 'P 21/c'
_symmetry_Int_Tables_number 14
loop_
_symmetry_equiv_pos_site_id
_symmetry_equiv_pos_as_xyz
1 x,y,z
2 -x,1/2+y,1/2-z
3 -x,-y,-z
4 x,-1/2-y,-1/2+z
_cell_length_a 11.3390(2)
_cell_length_b 4.9376(1)
_cell_length_c 15.1833(3)
_cell_angle_alpha 90
_cell_angle_beta 91.779(1)
_cell_angle_gamma 90
_cell_formula_units_Z 4
loop_
_atom_type_symbol
_atom_type_radius_bond
C 0.68
H 0.23
N 0.68
O 0.68
loop_
_atom_site_label
_atom_site_type_symbol
_atom_site_fract_x
_atom_site_fract_y
_atom_site_fract_z
C1 C 0.70552(15) 0.3856(3) 1.05000(12)
C2 C 0.83141(14) 0.4299(3) 1.03429(11)
C3 C 0.69244(13) 0.0477(3) 0.94701(11)
C4 C 0.81335(14) 0.0652(3) 0.93058(11)
C5 C 0.62715(15) -0.1390(3) 0.89809(11)
C6 C 0.68432(14) -0.2924(3) 0.83705(11)
C7 C 0.80723(14) -0.2730(3) 0.82595(10)
C8 C 0.87756(16) -0.4448(4) 0.76576(13)
N1 N 0.63961(12) 0.2099(3) 1.00953(9)
N2 N 0.87911(12) 0.2576(3) 0.97501(9)
N3 N 0.86986(11) -0.0919(2) 0.87368(9)
N4 N 0.61222(12) -0.4815(3) 0.78396(10)
O1 O 0.88874(10) 0.6129(2) 1.07066(8)
O2 O 0.52117(10) -0.5665(2) 0.81561(9)
O3 O 0.64495(11) -0.5417(3) 0.71039(9)
H1 H 0.6711(16) 0.506(4) 1.0953(12)
H2 H 0.5471(17) -0.154(4) 0.9058(12)
H3 H 0.9608(17) -0.438(4) 0.7855(12)
H4 H 0.8515(15) -0.629(4) 0.7649(11)
H5 H 0.8712(16) -0.375(4) 0.7050(13)
H6 H 0.9556(19) 0.282(4) 0.9607(13)
#END
