
#######################################################################
#
#                 Cambridge Crystallographic Data Centre
#                                CCDC
#
#######################################################################
#
# If this CIF has been generated from an entry in the Cambridge
# Structural Database, then it will include bibliographic, chemical,
# crystal, experimental, refinement or atomic coordinate data resulting
# from the CCDC's data processing and validation procedures.
#
#######################################################################

data_CSD_CIF_UBUPEM
_audit_creation_date 2001-09-19
_audit_creation_method CSD-ConQuest-V1
_database_code_CSD UBUPEM
_database_code_depnum_ccdc_archive 'CCDC 168431'
_chemical_formula_sum 'C21 H28 N4 O7'
_chemical_formula_moiety
;
C21 H28 N4 O7
;
_journal_coden_Cambridge 1336
_journal_volume 3
_journal_year 2001
_journal_page_first 1901
_journal_name_full 'Org.Lett. '
loop_
_publ_author_name
"P.Chiu"
"Chun-Pong Szeto"
"Zhe Geng"
"Kin-Fai Cheng"
_chemical_name_systematic
;
(1S*,4aR*,8aR*)-1-(8a-Hydroxy-4a-(ethoxycarbonyl)decahydronaphthalen-1-yl)etha
ne-1-(2,4-dinitrophenylhydrazone)
;
_cell_volume   2271.474
_exptl_crystal_colour 'yellow'
_exptl_crystal_density_diffrn 1.311
_exptl_crystal_description 'prism'
_diffrn_ambient_temperature ?
_diffrn_special_details
;
The study was carried out at room temperature,in the range 283-303K

;
#These two values have been output from a single CSD field.
_refine_ls_R_factor_gt 0.04
_refine_ls_wR_factor_gt 0.04
_symmetry_cell_setting monoclinic
_symmetry_space_group_name_H-M 'P 21/a'
_symmetry_Int_Tables_number 14
loop_
_symmetry_equiv_pos_site_id
_symmetry_equiv_pos_as_xyz
1 x,y,z
2 1/2+x,1/2-y,z
3 -x,-y,-z
4 -1/2-x,-1/2+y,-z
_cell_length_a 12.159(1)
_cell_length_b 12.513(3)
_cell_length_c 15.899(2)
_cell_angle_alpha 90
_cell_angle_beta 110.111(9)
_cell_angle_gamma 90
_cell_formula_units_Z 4
loop_
_atom_type_symbol
_atom_type_radius_bond
C 0.68
H 0.23
N 0.68
O 0.68
loop_
_atom_site_label
_atom_site_type_symbol
_atom_site_fract_x
_atom_site_fract_y
_atom_site_fract_z
O1 O -0.0191(2) 0.1802(2) 0.3657(1)
O2 O -0.1384(2) -0.0076(2) 0.3382(2)
O3 O -0.0298(2) -0.1513(2) 0.3488(2)
O4 O 0.1152(2) 0.6405(2) 0.1944(1)
O5 O 0.1537(2) 0.7392(2) 0.0978(2)
O6 O 0.1969(2) 0.6055(2) -0.1654(2)
O7 O 0.1564(2) 0.4396(2) -0.2008(2)
N1 N 0.1375(2) 0.3266(2) 0.2127(1)
N2 N 0.1250(2) 0.4318(2) 0.1834(1)
N3 N 0.1392(2) 0.6515(2) 0.1258(2)
N4 N 0.1734(2) 0.5138(3) -0.1488(2)
C1 C 0.1536(3) 0.0008(3) 0.4256(2)
C2 C 0.2636(3) 0.0663(3) 0.4352(2)
C3 C 0.2325(2) 0.1835(3) 0.4125(2)
C4 C 0.1448(2) 0.1923(2) 0.3173(2)
C5 C 0.0296(2) 0.1300(2) 0.3056(2)
C6 C -0.0567(2) 0.1392(2) 0.2099(2)
C7 C -0.0170(3) 0.0810(3) 0.1413(2)
C8 C 0.0082(3) -0.0355(3) 0.1662(2)
C9 C 0.0974(3) -0.0467(2) 0.2601(2)
C10 C 0.0587(2) 0.0104(2) 0.3316(2)
C11 C 0.1242(2) 0.3074(2) 0.2875(2)
C12 C 0.0943(3) 0.3906(3) 0.3440(2)
C13 C -0.0489(3) -0.0479(2) 0.3381(2)
C14 C -0.1199(3) -0.2188(3) 0.3615(3)
C15 C -0.0641(3) -0.3140(3) 0.4075(3)
C16 C 0.1393(2) 0.4535(2) 0.1043(2)
C17 C 0.1465(2) 0.5584(2) 0.0736(2)
C18 C 0.1601(2) 0.5773(2) -0.0081(2)
C19 C 0.1645(2) 0.4931(3) -0.0606(2)
C20 C 0.1571(2) 0.3885(3) -0.0342(2)
C21 C 0.1455(2) 0.3694(2) 0.0471(2)
H1 H -0.082(3) 0.146(3) 0.362(2)
H2 H 0.126(3) 0.484(3) 0.219(2)
H3 H 0.17540 -0.07210 0.43660
H4 H 0.12160 0.02520 0.46890
H5 H 0.31620 0.06130 0.49540
H6 H 0.30020 0.03860 0.39600
H7 H 0.19890 0.21230 0.45350
H8 H 0.30140 0.22220 0.41690
H9 H 0.18000 0.15860 0.27950
H10 H -0.12970 0.10990 0.20800
H11 H -0.06660 0.21270 0.19410
H12 H -0.07690 0.08570 0.08440
H13 H 0.05220 0.11400 0.13900
H14 H -0.06250 -0.07000 0.16350
H15 H 0.03820 -0.06820 0.12450
H16 H 0.10790 -0.12060 0.27450
H17 H 0.16950 -0.01690 0.26080
H18 H 0.15390 0.44370 0.36050
H19 H 0.02160 0.42280 0.31090
H20 H 0.08880 0.35820 0.39640
H21 H -0.15750 -0.18220 0.39650
H22 H -0.17600 -0.23700 0.30510
H23 H -0.12160 -0.35980 0.41650
H24 H -0.02620 -0.35010 0.37240
H25 H -0.00810 -0.29540 0.46380
H26 H 0.16600 0.64830 -0.02730
H27 H 0.15990 0.33070 -0.07230
H28 H 0.14150 0.29760 0.06540
#END
