
#######################################################################
#
#                 Cambridge Crystallographic Data Centre
#                                CCDC
#
#######################################################################
#
# If this CIF has been generated from an entry in the Cambridge
# Structural Database, then it will include bibliographic, chemical,
# crystal, experimental, refinement or atomic coordinate data resulting
# from the CCDC's data processing and validation procedures.
#
#######################################################################

data_CSD_CIF_UBUWAR
_audit_creation_date 2012-01-16
_audit_creation_method CSD-ConQuest-V1
_database_code_CSD UBUWAR
_database_code_depnum_ccdc_archive 'CCDC 816443'
_chemical_formula_sum 'C27 H21 N5 O3'
_chemical_formula_moiety
;
C27 H21 N5 O3
;
_journal_coden_Cambridge 1127
_journal_volume 21
_journal_year 2011
_journal_page_first 5804
_journal_name_full 'Bioorg.Med.Chem.Lett. '
loop_
_publ_author_name
"Xue-Liang Shi"
"Jian-Feng Ge"
"Bao-Qiang Liu"
"M.Kaiser"
"S.Wittlin"
"R.Brun"
"M.Ihara"
_chemical_name_systematic
;
2-((9-(Diethylamino)-5H-benzo[a]phenoxazin-5-ylidene)amino)-5-nitrobenzonitril
e
;
_cell_volume   1123.799
_exptl_crystal_colour 'green'
_exptl_crystal_density_diffrn 1.37
_exptl_special_details
;
tested for antiprotozoal and cytotoxic activities

;
_exptl_crystal_description 'prism'
_diffrn_ambient_temperature 223
#These two values have been output from a single CSD field.
_refine_ls_R_factor_gt 0.1003
_refine_ls_wR_factor_gt 0.1003
_symmetry_cell_setting triclinic
_symmetry_space_group_name_H-M 'P -1'
_symmetry_Int_Tables_number 2
loop_
_symmetry_equiv_pos_site_id
_symmetry_equiv_pos_as_xyz
1 x,y,z
2 -x,-y,-z
_cell_length_a 7.994(3)
_cell_length_b 9.264(3)
_cell_length_c 15.617(6)
_cell_angle_alpha 79.79(3)
_cell_angle_beta 85.78(3)
_cell_angle_gamma 81.29(2)
_cell_formula_units_Z 2
loop_
_atom_type_symbol
_atom_type_radius_bond
C 0.68
H 0.23
N 0.68
O 0.68
loop_
_atom_site_label
_atom_site_type_symbol
_atom_site_fract_x
_atom_site_fract_y
_atom_site_fract_z
O1 O 0.2341(4) 0.2899(3) 0.95970(16)
O2 O 0.5724(5) 0.1170(4) 0.42691(19)
O3 O 0.2996(6) 0.1624(4) 0.4421(2)
N1 N -0.0373(5) 0.0382(4) 1.2116(2)
N2 N 0.2233(5) 0.5423(4) 1.0390(2)
N3 N 0.5060(5) 0.5388(4) 0.7061(2)
N4 N 0.9191(6) 0.4624(5) 0.6257(3)
N5 N 0.4418(7) 0.1753(4) 0.4606(2)
C1 C -0.0037(7) -0.0159(6) 1.3719(3)
H1 H 0.05180 -0.11580 1.36920
H2 H -0.06720 -0.01450 1.42720
H3 H 0.08100 0.05030 1.36650
C2 C -0.1226(6) 0.0340(5) 1.2985(3)
H4 H -0.20800 -0.03330 1.30470
H5 H -0.18180 0.13310 1.30330
C3 C 0.1745(8) -0.1772(6) 1.1801(3)
H6 H 0.24850 -0.10900 1.14960
H7 H 0.18730 -0.26490 1.15290
H8 H 0.20440 -0.20540 1.24050
C4 C -0.0084(8) -0.1024(6) 1.1760(3)
H9 H -0.04060 -0.08180 1.11520
H10 H -0.08200 -0.17060 1.20880
C5 C 0.0255(6) 0.1610(4) 1.1689(2)
C6 C 0.0234(6) 0.2879(4) 1.2092(3)
H11 H -0.02220 0.28660 1.26650
C7 C 0.0860(6) 0.4104(5) 1.1663(3)
H12 H 0.08130 0.49270 1.19440
C8 C 0.1577(6) 0.4178(4) 1.0809(2)
C9 C 0.1601(6) 0.2915(5) 1.0429(2)
C10 C 0.0979(6) 0.1661(5) 1.0834(2)
H13 H 0.10320 0.08430 1.05470
C11 C 0.3018(5) 0.4122(4) 0.9167(2)
C12 C 0.2927(6) 0.5388(4) 0.9602(2)
C13 C 0.3671(6) 0.6673(4) 0.9124(2)
C14 C 0.3624(6) 0.7956(5) 0.9492(3)
H14 H 0.31390 0.79900 1.00560
C15 C 0.4282(7) 0.9153(5) 0.9032(3)
H15 H 0.42170 1.00170 0.92770
C16 C 0.5049(7) 0.9116(5) 0.8202(3)
H16 H 0.55170 0.99410 0.78960
C17 C 0.5115(6) 0.7866(5) 0.7838(3)
H17 H 0.56290 0.78440 0.72780
C18 C 0.4428(5) 0.6616(4) 0.8285(2)
C19 C 0.4406(5) 0.5322(4) 0.7865(2)
C20 C 0.3707(6) 0.4064(4) 0.8355(3)
H18 H 0.37300 0.32040 0.81100
C21 C 0.4866(6) 0.4397(4) 0.6525(2)
C22 C 0.3296(6) 0.4022(5) 0.6363(2)
H19 H 0.23240 0.43590 0.66880
C23 C 0.3145(6) 0.3178(5) 0.5746(3)
H20 H 0.20800 0.29520 0.56400
C24 C 0.4589(6) 0.2660(5) 0.5276(2)
C25 C 0.6154(6) 0.2987(5) 0.5398(2)
H21 H 0.71140 0.26190 0.50760
C26 C 0.6296(6) 0.3892(4) 0.6022(2)
C27 C 0.7910(7) 0.4294(5) 0.6146(3)
#END
