
#######################################################################
#
#                 Cambridge Crystallographic Data Centre
#                                CCDC
#
#######################################################################
#
# If this CIF has been generated from an entry in the Cambridge
# Structural Database, then it will include bibliographic, chemical,
# crystal, experimental, refinement or atomic coordinate data resulting
# from the CCDC's data processing and validation procedures.
#
#######################################################################

data_CSD_CIF_UCAQUN
_audit_creation_date 2016-12-19
_audit_creation_method CSD-ConQuest-V1
_database_code_CSD UCAQUN
_database_code_depnum_ccdc_archive 'CCDC 1511751'
_chemical_formula_sum 'C18 H11 N3 O4'
_chemical_formula_moiety
;
C18 H11 N3 O4
;
_journal_coden_Cambridge 1747
_journal_volume 4
_journal_year 2017
_journal_page_first 296
_journal_name_full 'Inorg.Chem.Front. '
loop_
_publ_author_name
"J.I.Lovitt"
"C.S.Hawes"
"A.D.Lynes"
"B.Haffner"
"M.E.Mobius"
"T.Gunnlaugsson"
_chemical_name_systematic
;
6-nitro-2-(pyridin-3-ylmethyl)-1H-benzo[de]isoquinoline-1,3(2H)-dione
;
_cell_volume   2835.350
_exptl_crystal_colour 'colorless'
_exptl_crystal_density_diffrn 1.562
_exptl_crystal_description 'plate'
_diffrn_ambient_temperature 100.0
#These two values have been output from a single CSD field.
_refine_ls_R_factor_gt 0.0825
_refine_ls_wR_factor_gt 0.0825
_symmetry_cell_setting orthorhombic
_symmetry_space_group_name_H-M 'P b c a'
_symmetry_Int_Tables_number 61
loop_
_symmetry_equiv_pos_site_id
_symmetry_equiv_pos_as_xyz
1 x,y,z
2 1/2-x,-y,1/2+z
3 -x,1/2+y,1/2-z
4 1/2+x,1/2-y,-z
5 -x,-y,-z
6 -1/2+x,y,-1/2-z
7 x,-1/2-y,-1/2+z
8 -1/2-x,-1/2+y,z
_cell_length_a 6.9920(4)
_cell_length_b 18.0217(14)
_cell_length_c 22.5014(16)
_cell_angle_alpha 90
_cell_angle_beta 90
_cell_angle_gamma 90
_cell_formula_units_Z 8
loop_
_atom_type_symbol
_atom_type_radius_bond
C 0.68
H 0.23
N 0.68
O 0.68
loop_
_atom_site_label
_atom_site_type_symbol
_atom_site_fract_x
_atom_site_fract_y
_atom_site_fract_z
O1 O 0.0698(5) 0.34622(17) 0.30815(16)
O2 O 0.0755(5) 0.55169(19) 0.42424(15)
O3 O 0.2894(4) 0.75916(17) 0.17276(16)
O4 O 0.0585(5) 0.70179(17) 0.12709(14)
N1 N 0.4855(8) 0.4044(3) 0.5128(3)
N2 N 0.0656(5) 0.44867(19) 0.36684(16)
N3 N 0.1667(5) 0.7103(2) 0.16936(17)
C1 C 0.5695(9) 0.3448(4) 0.4954(3)
H1 H 0.69040 0.33360 0.51250
C2 C 0.4986(10) 0.2966(4) 0.4544(3)
H2 H 0.56800 0.25360 0.44300
C3 C 0.3147(10) 0.3131(3) 0.4290(2)
H3 H 0.25590 0.28020 0.40150
C4 C 0.2280(6) 0.3773(2) 0.44575(18)
C5 C 0.3220(9) 0.4197(3) 0.4876(2)
H4 H 0.26170 0.46460 0.49920
C6 C 0.0411(6) 0.4017(3) 0.4202(2)
H5 H -0.03540 0.35740 0.40960
H6 H -0.03060 0.42990 0.45070
C7 C 0.0828(5) 0.5255(3) 0.3750(2)
C8 C 0.1101(5) 0.5712(2) 0.3211(2)
C9 C 0.1419(6) 0.6458(2) 0.3266(2)
H7 H 0.14840 0.66770 0.36490
C10 C 0.1651(5) 0.6907(2) 0.2753(2)
H8 H 0.19170 0.74210 0.27930
C11 C 0.1493(5) 0.6598(2) 0.2207(2)
C12 C 0.1171(5) 0.5830(2) 0.2113(2)
C13 C 0.1057(5) 0.5466(2) 0.15471(19)
H9 H 0.11260 0.57520 0.11930
C14 C 0.0853(5) 0.4724(2) 0.1513(2)
H10 H 0.07910 0.44930 0.11340
C15 C 0.0730(5) 0.4288(3) 0.2025(2)
H11 H 0.05870 0.37660 0.19910
C16 C 0.0815(5) 0.4611(2) 0.2579(2)
C17 C 0.0718(5) 0.4131(2) 0.3114(2)
C18 C 0.1018(5) 0.5388(2) 0.26338(19)
#END
