
#######################################################################
#
#                 Cambridge Crystallographic Data Centre
#                                CCDC
#
#######################################################################
#
# If this CIF has been generated from an entry in the Cambridge
# Structural Database, then it will include bibliographic, chemical,
# crystal, experimental, refinement or atomic coordinate data resulting
# from the CCDC's data processing and validation procedures.
#
#######################################################################

data_CSD_CIF_UCAQIB
_audit_creation_date 2016-12-19
_audit_creation_method CSD-ConQuest-V1
_database_code_CSD UCAQIB
_database_code_depnum_ccdc_archive 'CCDC 1511749'
_chemical_formula_sum 'C18 H11 N3 O4'
_chemical_formula_moiety
;
C18 H11 N3 O4
;
_journal_coden_Cambridge 1747
_journal_volume 4
_journal_year 2017
_journal_page_first 296
_journal_name_full 'Inorg.Chem.Front. '
loop_
_publ_author_name
"J.I.Lovitt"
"C.S.Hawes"
"A.D.Lynes"
"B.Haffner"
"M.E.Mobius"
"T.Gunnlaugsson"
_chemical_name_systematic
;
6-nitro-2-(pyridin-2-ylmethyl)-1H-benzo[de]isoquinoline-1,3(2H)-dione
;
_cell_volume   2917.182
_exptl_crystal_colour 'yellow'
_exptl_crystal_density_diffrn 1.518
_exptl_crystal_description 'block'
_diffrn_ambient_temperature 100.0
_refine_special_details
;
C13,C14,C15,N3,O3,O4 and C19,C20,C21,N4,O5,O6 disordered over two sites with 
occupancies 0.8:0.2.
;
#These two values have been output from a single CSD field.
_refine_ls_R_factor_gt 0.0588
_refine_ls_wR_factor_gt 0.0588
_symmetry_cell_setting orthorhombic
_symmetry_space_group_name_H-M 'P b c a'
_symmetry_Int_Tables_number 61
loop_
_symmetry_equiv_pos_site_id
_symmetry_equiv_pos_as_xyz
1 x,y,z
2 1/2-x,-y,1/2+z
3 -x,1/2+y,1/2-z
4 1/2+x,1/2-y,-z
5 -x,-y,-z
6 -1/2+x,y,-1/2-z
7 x,-1/2-y,-1/2+z
8 -1/2-x,-1/2+y,z
_cell_length_a 14.4265(6)
_cell_length_b 11.5416(5)
_cell_length_c 17.5201(8)
_cell_angle_alpha 90
_cell_angle_beta 90
_cell_angle_gamma 90
_cell_formula_units_Z 8
loop_
_atom_type_symbol
_atom_type_radius_bond
C 0.68
H 0.23
N 0.68
O 0.68
loop_
_atom_site_label
_atom_site_type_symbol
_atom_site_fract_x
_atom_site_fract_y
_atom_site_fract_z
O1 O 0.50614(12) 0.64003(16) 0.31144(11)
O2 O 0.68766(13) 0.6157(2) 0.52179(11)
N1 N 0.59392(13) 0.62916(18) 0.41847(11)
N2 N 0.73896(13) 0.68056(17) 0.32519(12)
C1 C 0.83300(15) 0.8089(2) 0.24989(13)
H1 H 0.88100 0.81830 0.21330
C2 C 0.51459(14) 0.4561(2) 0.37081(13)
C3 C 0.55828(14) 0.3885(2) 0.42754(13)
C4 C 0.53655(15) 0.5809(2) 0.36310(14)
C5 C 0.71805(15) 0.8859(2) 0.33323(13)
H2 H 0.68630 0.94980 0.35540
C6 C 0.78748(15) 0.9038(2) 0.28006(14)
H3 H 0.80360 0.98010 0.26450
C7 C 0.69541(15) 0.7728(2) 0.35377(13)
C8 C 0.61933(14) 0.4412(2) 0.47994(13)
C9 C 0.54142(16) 0.2664(2) 0.43183(15)
C10 C 0.80688(15) 0.6999(2) 0.27441(14)
H4 H 0.83890 0.63490 0.25410
O3 O 0.51596(17) 0.0271(2) 0.38105(17)
O4 O 0.37088(17) 0.0701(2) 0.36384(16)
C11 C 0.45198(15) 0.4066(2) 0.32138(14)
H5 H 0.42280 0.45300 0.28360
C12 C 0.47596(17) 0.2219(2) 0.37817(17)
C13 C 0.63790(15) 0.5669(2) 0.47646(14)
C14 C 0.43096(17) 0.2890(2) 0.32620(16)
H6 H 0.38560 0.25590 0.29350
C15 C 0.61779(17) 0.7522(2) 0.41030(16)
H7 H 0.63650 0.78310 0.46070
H8 H 0.56210 0.79540 0.39340
C16 C 0.6603(17) 0.3729(7) 0.5352(12)
H9 H 0.70100 0.40710 0.57140
N3 N 0.45224(19) 0.0974(2) 0.37423(17)
C17 C 0.5848(9) 0.2006(8) 0.4878(6)
H10 H 0.57410 0.11950 0.49070
C18 C 0.6424(8) 0.2529(6) 0.5384(6)
H11 H 0.67150 0.20750 0.57680
H12? H 0.46320 0.14110 0.37880
O5? O 0.5980(7) 0.0281(8) 0.4684(6)
O6? O 0.6002(7) 0.0643(9) 0.5866(6)
N4? N 0.5991(8) 0.0951(10) 0.5181(7)
C19? C 0.593(4) 0.214(3) 0.494(3)
C20? C 0.653(3) 0.268(2) 0.545(3)
H13? H 0.68250 0.22600 0.58400
C21? C 0.668(7) 0.384(2) 0.536(5)
H14? H 0.71010 0.42390 0.56840
#END
