
#######################################################################
#
#                 Cambridge Crystallographic Data Centre
#                                CCDC
#
#######################################################################
#
# If this CIF has been generated from an entry in the Cambridge
# Structural Database, then it will include bibliographic, chemical,
# crystal, experimental, refinement or atomic coordinate data resulting
# from the CCDC's data processing and validation procedures.
#
#######################################################################

data_CSD_CIF_UCAYOO
_audit_creation_date 2012-01-25
_audit_creation_method CSD-ConQuest-V1
_database_code_CSD UCAYOO
_database_code_depnum_ccdc_archive 'CCDC 834881'
_chemical_formula_sum 'C21 H24 N2 O4'
_chemical_formula_moiety
;
C21 H24 N2 O4
;
_journal_coden_Cambridge 1336
_journal_volume 13
_journal_year 2011
_journal_page_first 5596
_journal_name_full 'Org.Lett. '
loop_
_publ_author_name
"Shengmei Guo"
"Yinjun Xie"
"Xinquan Hu"
"Hanmin Huang"
_chemical_name_systematic
;
N-(3-Benzoyl-1-nitro-4-phenylhexan-2-yl)acetamide
;
_cell_volume   4495.292
_exptl_crystal_colour 'colorless'
_exptl_crystal_density_diffrn 1.225
_exptl_crystal_description 'block'
_diffrn_ambient_temperature 296
#These two values have been output from a single CSD field.
_refine_ls_R_factor_gt 0.0634
_refine_ls_wR_factor_gt 0.0634
_symmetry_cell_setting rhombohedral
_symmetry_space_group_name_H-M 'R 3'
_symmetry_Int_Tables_number 146
loop_
_symmetry_equiv_pos_site_id
_symmetry_equiv_pos_as_xyz
1 x,y,z
2 -y,x-y,z
3 -x+y,-x,z
4 2/3+x,1/3+y,1/3+z
5 2/3-y,1/3+x-y,1/3+z
6 2/3-x+y,1/3-x,1/3+z
7 1/3+x,2/3+y,2/3+z
8 1/3-y,2/3+x-y,2/3+z
9 1/3-x+y,2/3-x,2/3+z
_cell_length_a 19.502(9)
_cell_length_b 19.502(9)
_cell_length_c 13.648(13)
_cell_angle_alpha 90
_cell_angle_beta 90
_cell_angle_gamma 120
_cell_formula_units_Z 9
loop_
_atom_type_symbol
_atom_type_radius_bond
C 0.68
H 0.23
N 0.68
O 0.68
loop_
_atom_site_label
_atom_site_type_symbol
_atom_site_fract_x
_atom_site_fract_y
_atom_site_fract_z
C1 C 0.5254(3) 0.0606(3) 1.0936(4)
H1 H 0.51740 0.00980 1.08560
C2 C 0.4932(4) 0.0772(4) 1.1721(5)
H2 H 0.46480 0.03780 1.21800
C3 C 0.5018(4) 0.1498(5) 1.1847(5)
H3 H 0.47740 0.15950 1.23710
C4 C 0.5469(4) 0.2092(5) 1.1194(6)
H4 H 0.55520 0.26010 1.12850
C5 C 0.5797(3) 0.1917(3) 1.0396(4)
H5 H 0.60940 0.23120 0.99430
C6 C 0.5697(3) 0.1182(3) 1.0261(4)
C7 C 0.6018(3) 0.0972(3) 0.9354(4)
H6 H 0.63440 0.14610 0.89850
C8 C 0.5313(3) 0.0413(3) 0.8703(4)
H7 H 0.49680 -0.00560 0.90950
C9 C 0.5567(4) 0.0133(3) 0.7803(4)
C10 C 0.5203(3) -0.0731(3) 0.7611(5)
C11 C 0.5184(3) -0.0974(4) 0.6656(5)
H8 H 0.53860 -0.05950 0.61620
C12 C 0.4880(5) -0.1746(5) 0.6418(7)
H9 H 0.48730 -0.18960 0.57690
C13 C 0.4591(4) -0.2292(5) 0.7130(8)
H10 H 0.43610 -0.28250 0.69670
C14 C 0.4628(4) -0.2082(4) 0.8086(7)
H11 H 0.44550 -0.24680 0.85710
C15 C 0.4928(4) -0.1280(4) 0.8347(5)
H12 H 0.49380 -0.11310 0.89960
C16 C 0.6541(3) 0.0621(3) 0.9625(4)
H13 H 0.62180 0.01180 0.99550
H14 H 0.67440 0.05160 0.90290
C17 C 0.7223(3) 0.1146(4) 1.0274(5)
H15 H 0.70270 0.12220 1.08860
H16 H 0.75400 0.16490 0.99600
H17 H 0.75400 0.09040 1.03920
C18 C 0.4814(3) 0.0789(3) 0.8377(3)
H18 H 0.46790 0.09860 0.89630
C19 C 0.3461(3) -0.0355(3) 0.8411(5)
C20 C 0.2753(3) -0.0930(3) 0.7830(4)
H19 H 0.22850 -0.11120 0.82220
H20 H 0.28120 -0.13720 0.76440
H21 H 0.27090 -0.06730 0.72530
C21 C 0.5270(3) 0.1491(3) 0.7673(4)
H22 H 0.58330 0.17270 0.77910
H23 H 0.51660 0.13010 0.70030
N1 N 0.4073(2) 0.0197(2) 0.7912(3)
H24 H 0.40330 0.02080 0.72850
N2 N 0.5041(5) 0.2085(4) 0.7798(7)
O1 O 0.6021(3) 0.0604(3) 0.7226(3)
O2 O 0.3497(2) -0.0393(2) 0.9314(3)
O3 O 0.4615(4) 0.2094(4) 0.8364(6)
O4 O 0.5277(6) 0.2567(5) 0.7186(8)
#END
