
#######################################################################
#
#                 Cambridge Crystallographic Data Centre
#                                CCDC
#
#######################################################################
#
# If this CIF has been generated from an entry in the Cambridge
# Structural Database, then it will include bibliographic, chemical,
# crystal, experimental, refinement or atomic coordinate data resulting
# from the CCDC's data processing and validation procedures.
#
#######################################################################

data_CSD_CIF_UCIREE
_audit_creation_date 2006-06-27
_audit_creation_method CSD-ConQuest-V1
_database_code_CSD UCIREE
_database_code_depnum_ccdc_archive 'CCDC 285468'
_chemical_formula_sum 'C21 H12 N6 O9'
_chemical_formula_moiety
;
C21 H12 N6 O9
;
_journal_coden_Cambridge 16
_journal_volume 62
_journal_year 2006
_journal_page_first 4188
_journal_name_full 'Tetrahedron '
loop_
_publ_author_name
"Aihua Zhou"
"Liwei Cao"
"Haiqing Li"
"Zhuqing Liu"
"Hosouk Cho"
"W.P.Henry"
"C.U.Pittman Junior"
_chemical_name_systematic
;
1,3,5-tris(4-Nitrophenyl)-(1,3,5)triazinane-2,4,6-trione
;
_chemical_melting_point 559.15
_cell_volume   2069.239
_exptl_crystal_density_diffrn 1.581
_exptl_special_details
;
Melts with decomposition.

;
_exptl_crystal_description 'irregular'
_diffrn_ambient_temperature 297
#These two values have been output from a single CSD field.
_refine_ls_R_factor_gt 0.0527
_refine_ls_wR_factor_gt 0.0527
_symmetry_cell_setting monoclinic
_symmetry_space_group_name_H-M 'P 21/n'
_symmetry_Int_Tables_number 14
loop_
_symmetry_equiv_pos_site_id
_symmetry_equiv_pos_as_xyz
1 x,y,z
2 1/2-x,1/2+y,1/2-z
3 -x,-y,-z
4 -1/2+x,-1/2-y,-1/2+z
_cell_length_a 12.0630(17)
_cell_length_b 8.2758(12)
_cell_length_c 20.753(3)
_cell_angle_alpha 90
_cell_angle_beta 92.845(3)
_cell_angle_gamma 90
_cell_formula_units_Z 4
loop_
_atom_type_symbol
_atom_type_radius_bond
C 0.68
H 0.23
N 0.68
O 0.68
loop_
_atom_site_label
_atom_site_type_symbol
_atom_site_fract_x
_atom_site_fract_y
_atom_site_fract_z
O1 O 0.7500(3) 0.1568(4) 0.09342(16)
N1 N 0.7323(3) 0.3663(4) 0.16319(18)
O2 O 0.7151(3) 0.5630(4) 0.23802(17)
N2 N 0.5749(3) 0.3808(5) 0.22409(18)
O3 O 0.4375(3) 0.1949(4) 0.20670(16)
N3 N 0.5902(3) 0.1746(4) 0.14745(19)
C1 C 0.5479(4) 0.0252(6) 0.1183(2)
C2 C 0.6772(4) 0.4440(6) 0.2107(2)
C3 C 0.5134(4) 0.4541(6) 0.2739(3)
O4 O 0.3616(3) -0.4124(5) 0.0000(2)
C4 C 0.5270(4) 0.2463(6) 0.1936(2)
C5 C 0.6952(4) 0.2253(6) 0.1312(2)
C6 C 0.8403(4) 0.4308(5) 0.1469(2)
C7 C 0.4522(4) 0.0283(7) 0.0800(2)
N4 N 0.4204(4) -0.4116(6) 0.0488(3)
O5 O 0.4471(3) -0.5329(5) 0.0788(2)
C8 C 0.4643(4) -0.2562(6) 0.0720(2)
C9 C 1.0381(4) 0.5623(6) 0.1216(3)
C10 C 1.0303(4) 0.4748(7) 0.1769(3)
C11 C 0.5550(5) 0.4495(6) 0.3369(3)
C12 C 0.6042(5) -0.1150(7) 0.1336(3)
N5 N 1.1442(4) 0.6422(6) 0.1091(3)
C13 C 0.3528(5) 0.5982(7) 0.3059(3)
O6 O 1.1506(4) 0.7113(6) 0.0575(3)
O7 O 1.2182(3) 0.6387(6) 0.1503(3)
C14 C 0.4094(4) -0.1162(7) 0.0558(3)
C15 C 0.5610(5) -0.2594(7) 0.1095(3)
C16 C 0.9515(4) 0.5819(7) 0.0780(3)
C17 C 0.8491(5) 0.5167(7) 0.0909(3)
C18 C 0.3965(4) 0.5913(6) 0.3683(3)
N6 N 0.3365(5) 0.6690(7) 0.4199(3)
C19 C 0.9289(4) 0.4060(7) 0.1894(3)
C20 C 0.4124(4) 0.5270(7) 0.2584(3)
O8 O 0.2683(4) 0.7716(6) 0.4036(3)
O9 O 0.3584(5) 0.6312(7) 0.4756(3)
C21 C 0.4963(5) 0.5203(7) 0.3852(3)
H1 H 0.595(4) -0.362(6) 0.115(2)
H2 H 0.632(4) 0.400(6) 0.349(2)
H3 H 0.344(4) -0.117(5) 0.029(2)
H4 H 0.414(4) 0.129(6) 0.066(2)
H5 H 0.669(5) -0.114(7) 0.158(3)
H6 H 0.525(4) 0.522(5) 0.431(2)
H7 H 0.958(5) 0.653(7) 0.041(3)
H8 H 1.097(4) 0.466(6) 0.208(2)
H9 H 0.385(4) 0.525(5) 0.215(2)
H10 H 0.921(3) 0.344(5) 0.227(2)
H11 H 0.283(5) 0.644(7) 0.298(3)
H12 H 0.789(4) 0.527(6) 0.063(2)
#END
