
#######################################################################
#
#                 Cambridge Crystallographic Data Centre
#                                CCDC
#
#######################################################################
#
# If this CIF has been generated from an entry in the Cambridge
# Structural Database, then it will include bibliographic, chemical,
# crystal, experimental, refinement or atomic coordinate data resulting
# from the CCDC's data processing and validation procedures.
#
#######################################################################

data_CSD_CIF_UCIXUC
_audit_creation_date 2016-12-20
_audit_creation_method CSD-ConQuest-V1
_database_code_CSD UCIXUC
_database_code_depnum_ccdc_archive 'CCDC 1490182'
_chemical_formula_sum 'C6 H8 N6 O11'
_chemical_formula_moiety
;
C6 H8 N6 O11
;
_journal_coden_Cambridge 920
_journal_volume 11
_journal_year 2016
_journal_page_first 3134
_journal_name_full 'Chem.Asian J. '
loop_
_publ_author_name
"T.M.Klapotke"
"B.Krumm"
"R.Scharf"
_chemical_name_systematic
;
2,2,2-trinitroethyl ((methyl(nitro)amino)acetyl)carbamate
;
_cell_volume   1291.431
_exptl_crystal_colour 'colorless'
_exptl_crystal_density_diffrn 1.75
_exptl_crystal_description 'block'
_diffrn_ambient_temperature 123
#These two values have been output from a single CSD field.
_refine_ls_R_factor_gt 0.0403
_refine_ls_wR_factor_gt 0.0403
_symmetry_cell_setting monoclinic
_symmetry_space_group_name_H-M 'P 21/c'
_symmetry_Int_Tables_number 14
loop_
_symmetry_equiv_pos_site_id
_symmetry_equiv_pos_as_xyz
1 x,y,z
2 -x,1/2+y,1/2-z
3 -x,-y,-z
4 x,-1/2-y,-1/2+z
_cell_length_a 12.6522(12)
_cell_length_b 9.2288(5)
_cell_length_c 11.6546(8)
_cell_angle_alpha 90
_cell_angle_beta 108.379(9)
_cell_angle_gamma 90
_cell_formula_units_Z 4
loop_
_atom_type_symbol
_atom_type_radius_bond
C 0.68
H 0.23
N 0.68
O 0.68
loop_
_atom_site_label
_atom_site_type_symbol
_atom_site_fract_x
_atom_site_fract_y
_atom_site_fract_z
C1 C -0.33749(19) 0.2702(3) -0.1483(2)
C2 C -0.15829(19) 0.3086(2) 0.02572(17)
C3 C -0.09331(16) 0.1693(2) 0.02974(16)
C4 C 0.03910(16) 0.2270(2) 0.22841(17)
C5 C 0.20158(18) 0.2639(2) 0.39130(19)
C6 C 0.32093(16) 0.2563(2) 0.39051(16)
N1 N -0.22875(13) 0.33693(16) -0.09664(14)
N2 N -0.17543(15) 0.38310(17) -0.17283(15)
N3 N -0.00108(14) 0.14253(18) 0.12705(14)
N4 N 0.34180(15) 0.33176(17) 0.28419(14)
N5 N 0.39812(15) 0.32622(19) 0.50350(15)
N6 N 0.35952(14) 0.10002(17) 0.38784(15)
O1 O -0.23024(13) 0.39089(15) -0.28195(12)
O2 O -0.07743(13) 0.41949(16) -0.13030(13)
O3 O -0.12184(11) 0.08313(14) -0.05366(12)
O4 O -0.00265(11) 0.33356(14) 0.25377(12)
O5 O 0.13793(11) 0.16970(14) 0.29832(12)
O6 O 0.26792(14) 0.32054(16) 0.18776(12)
O7 O 0.42965(13) 0.39411(17) 0.30273(15)
O8 O 0.36296(14) 0.43812(17) 0.53270(14)
O9 O 0.48674(13) 0.26765(18) 0.55320(14)
O10 O 0.40381(13) 0.06822(16) 0.31312(14)
O11 O 0.34154(14) 0.02230(16) 0.46328(14)
H1 H -0.334(2) 0.189(3) -0.200(3)
H2 H -0.363(2) 0.244(3) -0.082(2)
H3 H -0.3874(19) 0.335(3) -0.193(2)
H4 H -0.109(2) 0.387(3) 0.054(2)
H5 H -0.2060(17) 0.297(2) 0.0742(18)
H6 H 0.0342(19) 0.067(3) 0.1208(19)
H7 H 0.2006(16) 0.233(2) 0.4696(17)
H8 H 0.1769(18) 0.363(3) 0.3770(18)
#END
