
#######################################################################
#
#                 Cambridge Crystallographic Data Centre
#                                CCDC
#
#######################################################################
#
# If this CIF has been generated from an entry in the Cambridge
# Structural Database, then it will include bibliographic, chemical,
# crystal, experimental, refinement or atomic coordinate data resulting
# from the CCDC's data processing and validation procedures.
#
#######################################################################

data_CSD_CIF_UCIYIR
_audit_creation_date 2016-12-20
_audit_creation_method CSD-ConQuest-V1
_database_code_CSD UCIYIR
_database_code_depnum_ccdc_archive 'CCDC 1490185'
_chemical_formula_sum 'C3 H6 N4 O5'
_chemical_formula_moiety
;
C3 H6 N4 O5
;
_journal_coden_Cambridge 920
_journal_volume 11
_journal_year 2016
_journal_page_first 3134
_journal_name_full 'Chem.Asian J. '
loop_
_publ_author_name
"T.M.Klapotke"
"B.Krumm"
"R.Scharf"
_chemical_name_systematic
;
2-(methyl(nitro)amino)-N-nitroacetamide
;
_cell_volume   2745.663
_exptl_crystal_colour 'colorless'
_exptl_crystal_density_diffrn 1.724
_exptl_crystal_description 'rod'
_diffrn_ambient_temperature 100
_diffrn_special_details
;
twin

;
#These two values have been output from a single CSD field.
_refine_ls_R_factor_gt 0.0569
_refine_ls_wR_factor_gt 0.0569
_symmetry_cell_setting orthorhombic
_symmetry_space_group_name_H-M 'F d d 2'
_symmetry_Int_Tables_number 43
loop_
_symmetry_equiv_pos_site_id
_symmetry_equiv_pos_as_xyz
1 x,y,z
2 -x,-y,z
3 1/4-x,1/4+y,1/4+z
4 3/4+x,3/4-y,1/4+z
5 x,1/2+y,1/2+z
6 -x,1/2-y,1/2+z
7 1/4-x,3/4+y,3/4+z
8 3/4+x,1/4-y,3/4+z
9 1/2+x,y,1/2+z
10 1/2-x,-y,1/2+z
11 3/4-x,1/4+y,3/4+z
12 1/4+x,3/4-y,3/4+z
13 1/2+x,1/2+y,z
14 1/2-x,1/2-y,z
15 3/4-x,3/4+y,1/4+z
16 1/4+x,1/4-y,1/4+z
_cell_length_a 18.0701(10)
_cell_length_b 31.2233(17)
_cell_length_c 4.8664(3)
_cell_angle_alpha 90
_cell_angle_beta 90
_cell_angle_gamma 90
_cell_formula_units_Z 16
loop_
_atom_type_symbol
_atom_type_radius_bond
C 0.68
H 0.23
N 0.68
O 0.68
loop_
_atom_site_label
_atom_site_type_symbol
_atom_site_fract_x
_atom_site_fract_y
_atom_site_fract_z
O1 O -0.14724(19) 0.21344(13) 0.5789(8)
O2 O -0.0791(2) 0.23257(11) 0.2325(7)
O3 O 0.05821(19) 0.20271(10) 0.2435(7)
O4 O 0.1313(3) 0.10877(12) 0.2829(10)
O5 O 0.2295(3) 0.1446(2) 0.1747(10)
N1 N -0.0323(2) 0.19050(12) 0.5630(9)
N2 N -0.0900(2) 0.21406(12) 0.4479(8)
N3 N 0.1650(2) 0.16355(12) 0.5408(8)
N4 N 0.1749(3) 0.13788(15) 0.3224(10)
C1 C 0.0388(2) 0.18828(13) 0.4598(9)
C2 C 0.0907(3) 0.16484(16) 0.6541(10)
C3 C 0.2136(3) 0.20047(18) 0.5573(14)
H1 H 0.20030 0.22080 0.41770
H2 H 0.26390 0.19150 0.53020
H3 H 0.20890 0.21360 0.73490
H4 H 0.096(3) 0.1819(18) 0.826(14)
H5 H 0.076(3) 0.1354(17) 0.686(11)
H6 H -0.044(3) 0.1784(16) 0.704(11)
#END
