
#######################################################################
#
#                 Cambridge Crystallographic Data Centre
#                                CCDC
#
#######################################################################
#
# If this CIF has been generated from an entry in the Cambridge
# Structural Database, then it will include bibliographic, chemical,
# crystal, experimental, refinement or atomic coordinate data resulting
# from the CCDC's data processing and validation procedures.
#
#######################################################################

data_CSD_CIF_UCOBEV
_audit_creation_date 2012-02-03
_audit_creation_method CSD-ConQuest-V1
_database_code_CSD UCOBEV
_database_code_depnum_ccdc_archive 'CCDC 696110'
_chemical_formula_sum 'C19 H23 N3 O3'
_chemical_formula_moiety
;
C19 H23 N3 O3
;
_journal_coden_Cambridge 177
_journal_volume 9
_journal_year 2011
_journal_page_first 7476
_journal_name_full 'Org.Biomol.Chem. '
loop_
_publ_author_name
"Shouxin Liu"
"Yun Mu"
"Jianrong Han"
"Xiaoli Zhen"
"Yihua Yang"
"Xia Tian"
"A.Whiting"
_chemical_name_systematic
;
2-(Cyclohexyloxy)-3-(pyridin-3-ylmethylene)hexahydropyrrolo[1,2-a]pyrazine-1,4
-dione
;
_chemical_name_common
;
(S)-cyclo((N-Cyclohexyloxy-2-((2-pyridyl)methylene)glycyl)prolyl); PEPSEQ C=2 
GLY*-PRO-
;
_chemical_melting_point 402.65
_cell_volume   1737.595
_exptl_crystal_colour 'colorless'
_exptl_crystal_density_diffrn 1.305
_exptl_special_details
;
Melting point range 402.65-404.15K
cytostatic activity

;
_exptl_crystal_description 'block'
_exptl_crystal_preparation 'chloroform'
_diffrn_ambient_temperature 294
#These two values have been output from a single CSD field.
_refine_ls_R_factor_gt 0.0321
_refine_ls_wR_factor_gt 0.0321
_symmetry_cell_setting orthorhombic
_symmetry_space_group_name_H-M 'P 21 21 21'
_symmetry_Int_Tables_number 19
loop_
_symmetry_equiv_pos_site_id
_symmetry_equiv_pos_as_xyz
1 x,y,z
2 1/2-x,-y,1/2+z
3 -x,1/2+y,1/2-z
4 1/2+x,1/2-y,-z
_cell_length_a 9.7941(14)
_cell_length_b 10.3009(15)
_cell_length_c 17.223(2)
_cell_angle_alpha 90
_cell_angle_beta 90
_cell_angle_gamma 90
_cell_formula_units_Z 4
loop_
_atom_type_symbol
_atom_type_radius_bond
C 0.68
H 0.23
N 0.68
O 0.68
loop_
_atom_site_label
_atom_site_type_symbol
_atom_site_fract_x
_atom_site_fract_y
_atom_site_fract_z
O1 O 0.03177(15) 0.48573(15) 0.3210(1)
O2 O 0.49334(17) 0.46410(16) 0.16027(10)
O3 O 0.38080(14) 0.69617(14) 0.18860(8)
N1 N 0.21023(18) 0.36682(17) 0.28047(11)
N2 N 0.33047(18) 0.58206(16) 0.22215(10)
N3 N -0.0128(3) 0.9289(2) 0.42877(15)
C1 C 0.2358(2) 0.5980(2) 0.28453(12)
C2 C 0.1500(2) 0.4790(2) 0.29789(11)
C3 C 0.1363(2) 0.2425(2) 0.28032(14)
H1 H 0.05510 0.24760 0.24820
H2 H 0.11000 0.21780 0.33260
C4 C 0.2383(3) 0.1470(3) 0.24676(15)
H3 H 0.19300 0.08330 0.21430
H4 H 0.28730 0.10220 0.28770
C5 C 0.3348(3) 0.2311(2) 0.19897(15)
H5 H 0.42250 0.18900 0.19190
H6 H 0.29610 0.25100 0.14850
C6 C 0.3483(2) 0.3528(2) 0.24843(13)
H7 H 0.41160 0.33470 0.29120
C7 C 0.3984(2) 0.4702(2) 0.20525(13)
C8 C 0.2868(2) 0.7432(2) 0.12850(12)
H8 H 0.19410 0.74650 0.14990
C9 C 0.2871(3) 0.6582(3) 0.05741(14)
H9 H 0.25600 0.57170 0.07090
H10 H 0.37910 0.65150 0.03700
C10 C 0.1935(3) 0.7163(3) -0.00368(17)
H11 H 0.09990 0.71310 0.01470
H12 H 0.19910 0.66490 -0.05080
C11 C 0.2315(3) 0.8566(3) -0.02204(16)
H13 H 0.31940 0.85840 -0.04790
H14 H 0.16430 0.89290 -0.05730
C12 C 0.2382(3) 0.9390(3) 0.05038(16)
H15 H 0.14750 0.94720 0.07240
H16 H 0.27020 1.02530 0.03690
C13 C 0.3338(3) 0.8795(2) 0.11041(14)
H17 H 0.42630 0.87760 0.09030
H18 H 0.33320 0.93150 0.15740
C14 C 0.2204(2) 0.7130(2) 0.31930(12)
H19 H 0.27880 0.77800 0.30180
C15 C 0.1255(2) 0.7525(2) 0.38085(12)
C16 C 0.0837(3) 0.6765(2) 0.44323(13)
H20 H 0.11570 0.59190 0.44860
C17 C -0.0053(3) 0.7277(3) 0.49685(15)
H21 H -0.03440 0.67870 0.53910
C18 C -0.0504(3) 0.8529(3) 0.48675(17)
H22 H -0.11130 0.88630 0.52310
C19 C 0.0743(3) 0.8782(2) 0.37825(15)
H23 H 0.10350 0.93110 0.33780
#END
