
#######################################################################
#
#                 Cambridge Crystallographic Data Centre
#                                CCDC
#
#######################################################################
#
# If this CIF has been generated from an entry in the Cambridge
# Structural Database, then it will include bibliographic, chemical,
# crystal, experimental, refinement or atomic coordinate data resulting
# from the CCDC's data processing and validation procedures.
#
#######################################################################

data_CSD_CIF_UCOFUQ
_audit_creation_date 2016-12-20
_audit_creation_method CSD-ConQuest-V1
_database_code_CSD UCOFUQ
_database_code_depnum_ccdc_archive 'CCDC 1479099'
_chemical_formula_sum 'C18 H19 N1 O1'
_chemical_formula_moiety
;
C18 H19 N1 O1
;
_journal_coden_Cambridge 1336
_journal_volume 18
_journal_year 2016
_journal_page_first 6228
_journal_name_full 'Org.Lett. '
loop_
_publ_author_name
"D.K.Barange"
"M.T.Johnson"
"A.G.Cairns"
"R.Olsson"
"F.Almqvist"
_chemical_name_systematic
;
6-benzyl-4-phenyl-3,6-dihydropyridin-1(2H)-ol
;
_cell_volume   1534.829
_exptl_crystal_colour 'colorless'
_exptl_crystal_density_diffrn 1.148
_exptl_crystal_description 'block'
_diffrn_ambient_temperature 293
#These two values have been output from a single CSD field.
_refine_ls_R_factor_gt 0.0624
_refine_ls_wR_factor_gt 0.0624
_symmetry_cell_setting monoclinic
_symmetry_space_group_name_H-M 'P 21/c'
_symmetry_Int_Tables_number 14
loop_
_symmetry_equiv_pos_site_id
_symmetry_equiv_pos_as_xyz
1 x,y,z
2 -x,1/2+y,1/2-z
3 -x,-y,-z
4 x,-1/2-y,-1/2+z
_cell_length_a 13.5552(12)
_cell_length_b 14.3938(11)
_cell_length_c 7.9078(7)
_cell_angle_alpha 90
_cell_angle_beta 95.862(8)
_cell_angle_gamma 90
_cell_formula_units_Z 4
loop_
_atom_type_symbol
_atom_type_radius_bond
C 0.68
H 0.23
N 0.68
O 0.68
loop_
_atom_site_label
_atom_site_type_symbol
_atom_site_fract_x
_atom_site_fract_y
_atom_site_fract_z
O1 O 0.9689(2) 0.4830(2) 0.1864(4)
N1 N 1.0426(3) 0.5565(3) 0.1655(4)
C1 C 1.2613(4) 0.4056(3) 0.3354(6)
C2 C 1.0659(3) 0.7250(3) 0.2092(5)
C3 C 1.3989(7) 0.3251(5) 0.5806(9)
C4 C 1.1726(3) 0.7052(3) 0.2827(5)
C5 C 0.9978(3) 0.6431(3) 0.2256(6)
C6 C 1.4311(5) 0.3830(4) 0.4578(9)
C7 C 1.3626(4) 0.4220(3) 0.3363(6)
C8 C 1.2444(3) 0.7846(3) 0.3176(5)
C9 C 1.1324(3) 0.5326(3) 0.2816(5)
C10 C 1.3761(4) 0.9346(4) 0.3748(6)
C11 C 1.2857(4) 0.9456(3) 0.2757(6)
C12 C 1.1849(3) 0.4498(3) 0.2068(6)
C13 C 1.1987(4) 0.6157(4) 0.3116(6)
C14 C 1.2206(4) 0.8722(3) 0.2466(5)
C15 C 1.3008(6) 0.3072(4) 0.5827(9)
C16 C 1.3323(3) 0.7754(3) 0.4204(5)
C17 C 1.3977(4) 0.8489(4) 0.4481(6)
C18 C 1.2319(4) 0.3470(3) 0.4609(7)
H1 H 1.06502 0.74185 0.09155
H2 H 1.04115 0.77789 0.26544
H3 H 1.44616 0.29754 0.66461
H4 H 0.98565 0.63592 0.34235
H5 H 0.93552 0.65432 0.15963
H6 H 1.50052 0.39600 0.45685
H7 H 1.38561 0.46127 0.25040
H8 H 1.11395 0.51455 0.39094
H9 H 1.42215 0.98529 0.39156
H10 H 1.26840 1.00516 0.22683
H11 H 1.13656 0.40415 0.16613
H12 H 1.21639 0.47007 0.10990
H13 H 1.260(3) 0.604(2) 0.357(4)
H14 H 1.15878 0.88104 0.17773
H15 H 1.27879 0.26711 0.66824
H16 H 1.34851 0.71677 0.47395
H17 H 1.45882 0.84025 0.51911
H18 H 1.16272 0.33367 0.46371
#END
