
#######################################################################
#
#                 Cambridge Crystallographic Data Centre
#                                CCDC
#
#######################################################################
#
# If this CIF has been generated from an entry in the Cambridge
# Structural Database, then it will include bibliographic, chemical,
# crystal, experimental, refinement or atomic coordinate data resulting
# from the CCDC's data processing and validation procedures.
#
#######################################################################

data_CSD_CIF_UCONIJ
_audit_creation_date 2002-01-16
_audit_creation_method CSD-ConQuest-V1
_database_code_CSD UCONIJ
_database_code_depnum_ccdc_archive 'CCDC 173876'
_chemical_formula_sum 'C4 H6 N2 O1'
_chemical_formula_moiety
;
C4 H6 N2 O1
;
_journal_coden_Cambridge 4
_journal_volume 123
_journal_year 2001
_journal_page_first 10164
_journal_name_full 'J.Am.Chem.Soc. '
loop_
_publ_author_name
"T.Ohwada"
"M.Miura"
"H.Tanaka"
"S.Sakamoto"
"K.Yamaguchi"
"H.Ikeda"
"S.Inagaki"
_chemical_name_systematic
;
N-Nitrosopyrroline
;
_cell_volume    474.980
_exptl_crystal_density_diffrn 1.372
_exptl_crystal_description 'prism'
_diffrn_ambient_temperature 113.2
#These two values have been output from a single CSD field.
_refine_ls_R_factor_gt 0.0649
_refine_ls_wR_factor_gt 0.0649
loop_
_citation_database_id_CSD
_citation_special_details
UCONIJ01 "is a reinterpretation of this cif"
_symmetry_cell_setting orthorhombic
_symmetry_space_group_name_H-M 'P n a 21'
_symmetry_Int_Tables_number 33
loop_
_symmetry_equiv_pos_site_id
_symmetry_equiv_pos_as_xyz
1 x,y,z
2 -x,-y,1/2+z
3 1/2-x,1/2+y,1/2+z
4 1/2+x,1/2-y,z
_cell_length_a 12.74(2)
_cell_length_b 5.851(8)
_cell_length_c 6.372(7)
_cell_angle_alpha 90
_cell_angle_beta 90
_cell_angle_gamma 90
_cell_formula_units_Z 4
loop_
_atom_type_symbol
_atom_type_radius_bond
C 0.68
H 0.23
N 0.68
O 0.68
loop_
_atom_site_label
_atom_site_type_symbol
_atom_site_fract_x
_atom_site_fract_y
_atom_site_fract_z
O1 O 1.05871(9) -0.1848(2) 0.861(3)
N1 N 1.04170(9) 0.0258(2) 0.863(3)
N2 N 0.94153(9) 0.0766(2) 0.857(3)
C1 C 0.9082(1) 0.3169(2) 0.860(3)
C2 C 0.7908(1) 0.2891(2) 0.864(3)
C3 C 0.7618(1) 0.0738(2) 0.862(3)
C4 C 0.8546(1) -0.0864(2) 0.861(3)
H1 H 0.92790 0.38200 0.99740
H2 H 0.93640 0.40410 0.75560
H3 H 0.74510 0.42100 0.87350
H4 H 0.69020 0.02140 0.84920
H5 H 0.85260 -0.19830 0.75010
H6 H 0.85720 -0.17090 0.99230
#END
