
#######################################################################
#
#                 Cambridge Crystallographic Data Centre
#                                CCDC
#
#######################################################################
#
# If this CIF has been generated from an entry in the Cambridge
# Structural Database, then it will include bibliographic, chemical,
# crystal, experimental, refinement or atomic coordinate data resulting
# from the CCDC's data processing and validation procedures.
#
#######################################################################

data_CSD_CIF_UCOPAD
_audit_creation_date 2002-01-16
_audit_creation_method CSD-ConQuest-V1
_database_code_CSD UCOPAD
_database_code_depnum_ccdc_archive 'CCDC 173879'
_chemical_formula_sum 'C14 H14 N2 O5'
_chemical_formula_moiety
;
C14 H14 N2 O5
;
_journal_coden_Cambridge 4
_journal_volume 123
_journal_year 2001
_journal_page_first 10164
_journal_name_full 'J.Am.Chem.Soc. '
loop_
_publ_author_name
"T.Ohwada"
"M.Miura"
"H.Tanaka"
"S.Sakamoto"
"K.Yamaguchi"
"H.Ikeda"
"S.Inagaki"
_chemical_name_systematic
;
1,2-bis(Methoxycarbonyl)-N-nitroso-1,2,3,4-tetrahydro-1,4-iminonaphthalene
;
_cell_volume   1366.348
_exptl_crystal_density_diffrn 1.411
_exptl_crystal_description 'prism'
_diffrn_ambient_temperature 288.2
#These two values have been output from a single CSD field.
_refine_ls_R_factor_gt 0.0654
_refine_ls_wR_factor_gt 0.0654
_symmetry_cell_setting monoclinic
_symmetry_space_group_name_H-M 'P 21/a'
_symmetry_Int_Tables_number 14
loop_
_symmetry_equiv_pos_site_id
_symmetry_equiv_pos_as_xyz
1 x,y,z
2 1/2-x,1/2+y,-z
3 -x,-y,-z
4 -1/2+x,-1/2-y,z
_cell_length_a 9.187(9)
_cell_length_b 11.559(9)
_cell_length_c 13.164(4)
_cell_angle_alpha 90
_cell_angle_beta 102.20(4)
_cell_angle_gamma 90
_cell_formula_units_Z 4
loop_
_atom_type_symbol
_atom_type_radius_bond
C 0.68
H 0.23
N 0.68
O 0.68
loop_
_atom_site_label
_atom_site_type_symbol
_atom_site_fract_x
_atom_site_fract_y
_atom_site_fract_z
O1 O -0.1608(4) -0.2383(3) 0.7229(3)
O2 O 0.3418(3) -0.0163(2) 0.7843(2)
O3 O 0.2980(4) 0.0231(3) 0.6150(2)
O4 O -0.0202(3) 0.2116(2) 0.5258(2)
O5 O 0.1262(4) 0.2266(3) 0.6837(2)
N1 N -0.1151(4) -0.0611(3) 0.7553(2)
N2 N -0.2083(4) -0.1394(4) 0.7068(3)
C1 C -0.1274(4) 0.0607(4) 0.7235(3)
C2 C -0.0446(4) 0.1136(3) 0.8222(3)
C3 C -0.0622(5) 0.2163(4) 0.8728(3)
C4 C 0.0341(6) 0.2379(4) 0.9661(4)
C5 C 0.1482(6) 0.1619(5) 1.0075(3)
C6 C 0.1641(5) 0.0582(4) 0.9583(3)
C7 C 0.0659(4) 0.0354(3) 0.8661(3)
C8 C 0.0494(4) -0.0684(3) 0.7926(3)
C9 C 0.0952(5) -0.0351(3) 0.6892(3)
C10 C -0.0247(4) 0.0570(3) 0.6419(3)
C11 C 0.2544(5) -0.0033(4) 0.6908(3)
C12 C 0.4983(5) -0.0032(5) 0.7880(4)
C13 C 0.0375(5) 0.1740(4) 0.6213(3)
C14 C 0.0357(6) 0.3214(4) 0.4979(3)
H1 H -0.22820 0.08810 0.69690
H2 H -0.14040 0.27130 0.84270
H3 H 0.02810 0.30970 1.00350
H4 H 0.21780 0.18270 1.07130
H5 H 0.24270 0.00250 0.98490
H6 H 0.08990 -0.14230 0.82360
H7 H 0.07520 -0.10220 0.64500
H8 H -0.08140 0.02850 0.57790
H9 H 0.55300 -0.01120 0.85850
H10 H 0.53240 -0.05510 0.74500
H11 H 0.51690 0.07570 0.76680
H12 H 0.14570 0.31590 0.50350
H13 H -0.00500 0.34320 0.42900
H14 H 0.02240 0.38160 0.54440
#END
