
#######################################################################
#
#                 Cambridge Crystallographic Data Centre
#                                CCDC
#
#######################################################################
#
# If this CIF has been generated from an entry in the Cambridge
# Structural Database, then it will include bibliographic, chemical,
# crystal, experimental, refinement or atomic coordinate data resulting
# from the CCDC's data processing and validation procedures.
#
#######################################################################

data_CSD_CIF_UCUCOM
_audit_creation_date 2012-01-25
_audit_creation_method CSD-ConQuest-V1
_database_code_CSD UCUCOM
_database_code_depnum_ccdc_archive 'CCDC 855571'
_chemical_formula_sum 'C23 H26 N4 O5'
_chemical_formula_moiety
;
C23 H26 N4 O5
;
_journal_coden_Cambridge 35
_journal_volume 76
_journal_year 2011
_journal_page_first 7706
_journal_name_full 'J.Org.Chem. '
loop_
_publ_author_name
"D.J.Dibble"
"J.W.Ziller"
"K.A.Woerpel"
_chemical_name_systematic
;
1-(4-(Benzyloxy)octahydronaphthalen-1(2H)-ylidene)-2-(2,4-dinitrophenyl)hydraz
ine
;
_cell_volume   2123.839
_exptl_crystal_colour 'orange'
_exptl_crystal_density_diffrn 1.371
_exptl_crystal_description 'rod'
_diffrn_ambient_temperature 103
#These two values have been output from a single CSD field.
_refine_ls_R_factor_gt 0.031
_refine_ls_wR_factor_gt 0.031
_symmetry_cell_setting orthorhombic
_symmetry_space_group_name_H-M 'P n a 21'
_symmetry_Int_Tables_number 33
loop_
_symmetry_equiv_pos_site_id
_symmetry_equiv_pos_as_xyz
1 x,y,z
2 -x,-y,1/2+z
3 1/2+x,1/2-y,z
4 1/2-x,1/2+y,1/2+z
_cell_length_a 16.0264(7)
_cell_length_b 5.8000(3)
_cell_length_c 22.8485(11)
_cell_angle_alpha 90
_cell_angle_beta 90
_cell_angle_gamma 90
_cell_formula_units_Z 4
loop_
_atom_type_symbol
_atom_type_radius_bond
C 0.68
H 0.23
N 0.68
O 0.68
loop_
_atom_site_label
_atom_site_type_symbol
_atom_site_fract_x
_atom_site_fract_y
_atom_site_fract_z
O1 O -0.01466(7) 1.06090(18) 0.15085(4)
O2 O -0.01978(7) 1.36242(17) 0.09488(5)
O3 O 0.10390(7) 1.37502(19) -0.09200(5)
O4 O 0.19397(8) 1.11414(19) -0.11740(5)
O5 O 0.08624(6) 0.13023(16) 0.31813(4)
N1 N 0.14797(7) 0.5582(2) 0.14656(5)
N2 N 0.09778(8) 0.7450(2) 0.13181(5)
N3 N 0.00745(7) 1.17037(19) 0.10640(5)
N4 N 0.14485(8) 1.1983(2) -0.08232(5)
C1 C 0.10865(8) 0.8558(2) 0.08064(6)
C2 C 0.06676(8) 1.0651(2) 0.06665(6)
C3 C 0.07953(9) 1.1772(2) 0.01383(6)
C4 C 0.13353(9) 1.0829(2) -0.02612(6)
C5 C 0.17598(9) 0.8767(2) -0.01481(6)
C6 C 0.16380(9) 0.7659(2) 0.03746(6)
C7 C 0.12764(8) 0.4512(2) 0.19368(6)
C8 C 0.05386(9) 0.4997(3) 0.23273(6)
C9 C 0.08244(9) 0.5410(2) 0.29595(6)
C10 C 0.13479(9) 0.3392(2) 0.31767(6)
C11 C 0.20988(9) 0.2968(2) 0.27779(6)
C12 C 0.18241(8) 0.2541(2) 0.21350(6)
C13 C 0.02850(9) 0.1141(2) 0.36571(6)
C14 C 0.07094(9) 0.0804(2) 0.42406(6)
C15 C 0.06550(9) 0.2476(2) 0.46769(7)
C16 C 0.10342(10) 0.2122(3) 0.52203(7)
C17 C 0.14640(9) 0.0088(3) 0.53306(7)
C18 C 0.15303(9) -0.1572(3) 0.48957(7)
C19 C 0.11600(9) -0.1213(2) 0.43548(6)
C20 C 0.26438(9) 0.0990(3) 0.30024(6)
C21 C 0.33905(9) 0.0554(3) 0.26045(7)
C22 C 0.31085(9) 0.0090(3) 0.19765(7)
C23 C 0.25813(9) 0.2098(2) 0.17434(6)
H1 H 0.0584(11) 0.800(3) 0.1536(8)
H2 H 0.0520(11) 1.315(3) 0.0062(8)
H3 H 0.2147(11) 0.822(3) -0.0437(8)
H4 H 0.1917(11) 0.626(3) 0.0461(8)
H5 H 0.0192(10) 0.360(3) 0.2314(7)
H6 H 0.0195(10) 0.629(3) 0.2197(8)
H7 H 0.1148(12) 0.682(3) 0.2994(8)
H8 H 0.033(1) 0.560(3) 0.3192(8)
H9 H 0.153(1) 0.366(3) 0.3577(7)
H10 H 0.2439(11) 0.431(3) 0.2798(7)
H11 H 0.1482(11) 0.105(3) 0.2156(8)
H12 H -0.0054(12) -0.020(3) 0.3575(8)
H13 H -0.0091(12) 0.253(3) 0.3666(9)
H14 H 0.0374(11) 0.388(3) 0.4584(7)
H15 H 0.0973(13) 0.326(4) 0.5503(10)
H16 H 0.1757(11) -0.014(3) 0.5697(9)
H17 H 0.1831(13) -0.298(4) 0.4983(9)
H18 H 0.1240(12) -0.238(3) 0.4053(9)
H19 H 0.2310(11) -0.038(3) 0.3027(8)
H20 H 0.2841(12) 0.132(3) 0.3401(9)
H21 H 0.3724(11) -0.076(3) 0.2761(8)
H22 H 0.3774(12) 0.186(3) 0.2595(8)
H23 H 0.3590(12) -0.016(3) 0.1735(8)
H24 H 0.2756(11) -0.132(3) 0.1990(8)
H25 H 0.2905(11) 0.356(3) 0.1737(7)
H26 H 0.2378(11) 0.181(3) 0.1359(8)
#END
