
#######################################################################
#
#                 Cambridge Crystallographic Data Centre
#                                CCDC
#
#######################################################################
#
# If this CIF has been generated from an entry in the Cambridge
# Structural Database, then it will include bibliographic, chemical,
# crystal, experimental, refinement or atomic coordinate data resulting
# from the CCDC's data processing and validation procedures.
#
#######################################################################

data_CSD_CIF_UCUCIG
_audit_creation_date 2012-01-25
_audit_creation_method CSD-ConQuest-V1
_database_code_CSD UCUCIG
_database_code_depnum_ccdc_archive 'CCDC 855570'
_chemical_formula_sum 'C19 H20 N4 O5'
_chemical_formula_moiety
;
C19 H20 N4 O5
;
_journal_coden_Cambridge 35
_journal_volume 76
_journal_year 2011
_journal_page_first 7706
_journal_name_full 'J.Org.Chem. '
loop_
_publ_author_name
"D.J.Dibble"
"J.W.Ziller"
"K.A.Woerpel"
_chemical_name_systematic
;
1-(4-(Benzyloxy)cyclohexylidene)-2-(2,4-dinitrophenyl)hydrazine
;
_cell_volume    865.011
_exptl_crystal_colour 'orange'
_exptl_crystal_density_diffrn 1.476
_exptl_crystal_description 'prism'
_diffrn_ambient_temperature 103
#These two values have been output from a single CSD field.
_refine_ls_R_factor_gt 0.0387
_refine_ls_wR_factor_gt 0.0387
_symmetry_cell_setting triclinic
_symmetry_space_group_name_H-M 'P -1'
_symmetry_Int_Tables_number 2
loop_
_symmetry_equiv_pos_site_id
_symmetry_equiv_pos_as_xyz
1 x,y,z
2 -x,-y,-z
_cell_length_a 5.9628(5)
_cell_length_b 11.7329(9)
_cell_length_c 13.0844(10)
_cell_angle_alpha 101.2251(10)
_cell_angle_beta 94.5613(9)
_cell_angle_gamma 103.6311(10)
_cell_formula_units_Z 2
loop_
_atom_type_symbol
_atom_type_radius_bond
C 0.68
H 0.23
N 0.68
O 0.68
loop_
_atom_site_label
_atom_site_type_symbol
_atom_site_fract_x
_atom_site_fract_y
_atom_site_fract_z
O1 O 0.03040(17) 0.61283(9) 0.94380(8)
O2 O 0.25942(17) 0.67459(10) 0.83444(8)
O3 O 0.27134(19) 1.02446(10) 0.71171(9)
O4 O -0.0014(2) 1.11648(10) 0.73812(9)
O5 O -0.71113(19) 0.48679(10) 1.29392(8)
N1 N -0.4576(2) 0.74683(11) 1.06192(9)
N2 N -0.2693(2) 0.73100(11) 1.00962(9)
N3 N 0.1031(2) 0.68533(11) 0.88863(9)
N4 N 0.0962(2) 1.03786(11) 0.75125(9)
C1 C -0.1875(2) 0.80181(13) 0.94445(11)
C2 C 0.0006(2) 0.78519(13) 0.88744(11)
C3 C 0.0927(2) 0.86370(13) 0.82549(11)
C4 C -0.0024(2) 0.95724(13) 0.81663(11)
C5 C -0.1950(2) 0.97400(14) 0.86725(11)
C6 C -0.2836(2) 0.89860(13) 0.92982(11)
C7 C -0.5218(2) 0.67227(13) 1.12063(11)
C8 C -0.4145(3) 0.57443(14) 1.14290(11)
C9 C -0.3427(3) 0.59623(15) 1.26174(12)
C10 C -0.5471(3) 0.60313(14) 1.32262(12)
C11 C -0.6594(3) 0.70048(14) 1.29767(11)
C12 C -0.7249(2) 0.68378(14) 1.17894(11)
C13 C -0.8341(3) 0.45073(15) 1.37581(13)
C14 C -0.7884(2) 0.33700(13) 1.39987(11)
C15 C -0.6038(3) 0.29298(14) 1.36531(12)
C16 C -0.5653(3) 0.18901(14) 1.39166(12)
C17 C -0.7080(3) 0.12953(15) 1.45355(13)
C18 C -0.8930(3) 0.17220(14) 1.48767(12)
C19 C -0.9333(3) 0.27464(14) 1.46058(11)
H1 H -0.203(3) 0.6708(17) 1.0130(13)
H2 H 0.212(3) 0.8527(15) 0.7900(12)
H3 H -0.266(3) 1.0362(18) 0.8571(15)
H4 H -0.415(3) 0.9090(15) 0.9649(13)
H5 H -0.534(3) 0.4962(16) 1.1193(13)
H6 H -0.286(3) 0.5645(15) 1.1062(13)
H7 H -0.277(3) 0.5311(15) 1.2760(12)
H8 H -0.222(3) 0.6732(16) 1.2858(13)
H9 H -0.496(3) 0.6188(15) 1.4008(13)
H10 H -0.799(3) 0.6989(15) 1.3332(13)
H11 H -0.547(3) 0.7814(16) 1.3270(13)
H12 H -0.783(3) 0.7509(16) 1.1628(13)
H13 H -0.850(3) 0.6085(16) 1.1513(13)
H14 H -0.787(3) 0.5138(15) 1.4423(13)
H15 H -1.007(3) 0.4345(17) 1.3529(15)
H16 H -0.504(3) 0.3321(15) 1.3227(13)
H17 H -0.439(3) 0.1568(16) 1.3666(14)
H18 H -0.678(3) 0.0597(17) 1.4724(14)
H19 H -0.993(3) 0.1324(16) 1.5300(14)
H20 H -1.062(3) 0.3051(15) 1.4836(12)
#END
