
#######################################################################
#
#                 Cambridge Crystallographic Data Centre
#                                CCDC
#
#######################################################################
#
# If this CIF has been generated from an entry in the Cambridge
# Structural Database, then it will include bibliographic, chemical,
# crystal, experimental, refinement or atomic coordinate data resulting
# from the CCDC's data processing and validation procedures.
#
#######################################################################

data_CSD_CIF_UDACOS
_audit_creation_date 2006-06-27
_audit_creation_method CSD-ConQuest-V1
_database_code_CSD UDACOS
_database_code_depnum_ccdc_archive 'CCDC 292842'
_chemical_formula_sum 'C21 H27 N1 O6'
_chemical_formula_moiety
;
C21 H27 N1 O6
;
_journal_coden_Cambridge 35
_journal_volume 71
_journal_year 2006
_journal_page_first 2434
_journal_name_full 'J.Org.Chem. '
loop_
_publ_author_name
"D.A.Henderson"
"P.N.Collier"
"G.Pave"
"P.Rzepa"
"A.J.P.White"
"J.N.Burrows"
"A.G.M.Barrett"
_chemical_name_systematic
;
(1SR,3aSR,9aRS)-Ethyl 
4,4-(2,2-dimethyl-1,3-propylenedioxy)-9E-(hydroxyimino)-(1,3,3a,4,9,9a-hexahyd
ronaphtho(2,3-c)furan-1-yl)acetate
;
_chemical_melting_point 465.15
_cell_volume    997.815
_exptl_crystal_colour 'colorless'
_exptl_crystal_density_diffrn 1.296
_exptl_special_details
;
Melting point range 465.15-468.15K

;
_exptl_crystal_description 'prisms'
_diffrn_ambient_temperature 293
#These two values have been output from a single CSD field.
_refine_ls_R_factor_gt 0.0483
_refine_ls_wR_factor_gt 0.0483
_symmetry_cell_setting triclinic
_symmetry_space_group_name_H-M 'P -1'
_symmetry_Int_Tables_number 2
loop_
_symmetry_equiv_pos_site_id
_symmetry_equiv_pos_as_xyz
1 x,y,z
2 -x,-y,-z
_cell_length_a 9.5017(6)
_cell_length_b 9.8087(9)
_cell_length_c 11.8467(13)
_cell_angle_alpha 92.425(14)
_cell_angle_beta 98.361(9)
_cell_angle_gamma 113.223(9)
_cell_formula_units_Z 2
loop_
_atom_type_symbol
_atom_type_radius_bond
C 0.68
H 0.23
N 0.68
O 0.68
loop_
_atom_site_label
_atom_site_type_symbol
_atom_site_fract_x
_atom_site_fract_y
_atom_site_fract_z
O1 O 0.67739(19) 0.70481(18) 0.56595(12)
C1 C 0.7058(2) 0.8027(2) 0.66837(18)
H1 H 0.81230 0.87920 0.67840
C2 C 0.6933(2) 0.7054(2) 0.77002(16)
H2 H 0.61900 0.71620 0.81530
C3 C 0.8493(2) 0.7471(2) 0.84648(17)
C4 C 0.9303(2) 0.6462(2) 0.84775(17)
C5 C 1.0925(3) 0.7001(3) 0.88155(19)
H3 H 1.15120 0.80210 0.89960
C6 C 1.1650(3) 0.6039(3) 0.8882(2)
H4 H 1.27240 0.64040 0.91080
C7 C 1.0786(3) 0.4534(4) 0.8614(2)
H5 H 1.12810 0.38830 0.86740
C8 C 0.9183(3) 0.3967(3) 0.8253(2)
H6 H 0.86120 0.29460 0.80640
C9 C 0.8442(2) 0.4940(2) 0.81772(17)
C10 C 0.6703(2) 0.4376(2) 0.78071(17)
C11 C 0.6279(2) 0.5465(2) 0.70914(16)
H7 H 0.51420 0.50970 0.69160
C12 C 0.6900(3) 0.5701(2) 0.59711(17)
H8 H 0.79740 0.58130 0.60800
H9 H 0.62790 0.48720 0.53890
C13 C 0.5934(3) 0.8788(3) 0.6516(2)
H10 H 0.61680 0.95010 0.71820
H11 H 0.61170 0.93450 0.58560
C14 C 0.4233(3) 0.7757(3) 0.6342(2)
O2 O 0.3685(2) 0.6608(3) 0.6743(2)
O3 O 0.3358(2) 0.8283(2) 0.56691(18)
C15 C 0.1684(4) 0.7387(4) 0.5481(4)
H12 H 0.14510 0.64140 0.50910
H13 H 0.13320 0.72450 0.62130
C16 C 0.0878(4) 0.8142(5) 0.4789(4)
H14 H -0.02230 0.75540 0.46680
H15 H 0.12190 0.82680 0.40610
H16 H 0.11070 0.91020 0.51810
N1 N 0.9183(2) 0.8681(2) 0.91427(16)
O4 O 0.8367(2) 0.96196(18) 0.90533(15)
H17 H 0.895(3) 1.036(3) 0.962(2)
O5 O 0.61858(17) 0.29568(16) 0.71826(12)
C17 C 0.4529(3) 0.2144(2) 0.69662(19)
H18 H 0.42660 0.11670 0.65700
H19 H 0.40560 0.26690 0.64720
C18 C 0.3876(3) 0.1962(2) 0.80749(19)
C19 C 0.4432(2) 0.3518(2) 0.87008(19)
H20 H 0.39540 0.40870 0.82650
H21 H 0.41120 0.34430 0.94450
O6 O 0.60926(16) 0.42809(15) 0.88530(11)
C20 C 0.4466(3) 0.0984(3) 0.8823(2)
H22 H 0.40470 0.08850 0.95200
H23 H 0.55810 0.14420 0.90040
H24 H 0.41370 0.00150 0.84110
C21 C 0.2098(3) 0.1263(3) 0.7789(3)
H25 H 0.17460 0.18860 0.73260
H26 H 0.16820 0.11720 0.84870
H27 H 0.17500 0.02920 0.73750
#END
