
#######################################################################
#
#                 Cambridge Crystallographic Data Centre
#                                CCDC
#
#######################################################################
#
# If this CIF has been generated from an entry in the Cambridge
# Structural Database, then it will include bibliographic, chemical,
# crystal, experimental, refinement or atomic coordinate data resulting
# from the CCDC's data processing and validation procedures.
#
#######################################################################

data_CSD_CIF_UDADEJ
_audit_creation_date 2006-06-27
_audit_creation_method CSD-ConQuest-V1
_database_code_CSD UDADEJ
_database_code_depnum_ccdc_archive 'CCDC 292845'
_chemical_formula_sum 'C14 H11 N1 O6'
_chemical_formula_moiety
;
C14 H11 N1 O6
;
_journal_coden_Cambridge 35
_journal_volume 71
_journal_year 2006
_journal_page_first 2434
_journal_name_full 'J.Org.Chem. '
loop_
_publ_author_name
"D.A.Henderson"
"P.N.Collier"
"G.Pave"
"P.Rzepa"
"A.J.P.White"
"J.N.Burrows"
"A.G.M.Barrett"
_chemical_name_systematic
;
(3aSR,5aRS,11aRS)-5a-Hydroxy-6-(hydroxyimino)-3,3a,5,5a-tetrahydrofuro(3,2-b)n
aphtho(2,3-c)furan-2,11-dione
;
_chemical_melting_point 497.15
_cell_volume   2489.116
_exptl_crystal_colour 'colorless'
_exptl_crystal_density_diffrn 1.544
_exptl_special_details
;
Melts with decomposition.

;
_exptl_crystal_description 'prisms'
_diffrn_ambient_temperature 293
#These two values have been output from a single CSD field.
_refine_ls_R_factor_gt 0.0541
_refine_ls_wR_factor_gt 0.0541
_symmetry_cell_setting orthorhombic
_symmetry_space_group_name_H-M 'P b c a'
_symmetry_Int_Tables_number 61
loop_
_symmetry_equiv_pos_site_id
_symmetry_equiv_pos_as_xyz
1 x,y,z
2 1/2-x,-y,1/2+z
3 -x,1/2+y,1/2-z
4 1/2+x,1/2-y,-z
5 -x,-y,-z
6 -1/2+x,y,-1/2-z
7 x,-1/2-y,-1/2+z
8 -1/2-x,-1/2+y,z
_cell_length_a 11.822(4)
_cell_length_b 10.170(3)
_cell_length_c 20.703(4)
_cell_angle_alpha 90
_cell_angle_beta 90
_cell_angle_gamma 90
_cell_formula_units_Z 8
loop_
_atom_type_symbol
_atom_type_radius_bond
C 0.68
H 0.23
N 0.68
O 0.68
loop_
_atom_site_label
_atom_site_type_symbol
_atom_site_fract_x
_atom_site_fract_y
_atom_site_fract_z
O1 O 0.49152(15) 0.22889(18) 0.40323(7)
C1 C 0.4618(2) 0.0994(3) 0.39768(13)
O2 O 0.4202(2) 0.0429(2) 0.44166(10)
C2 C 0.4906(3) 0.0502(3) 0.33134(15)
H1 H 0.42260 0.03400 0.30640
H2 H 0.53410 -0.03050 0.33380
C3 C 0.5598(2) 0.1590(3) 0.30129(13)
H3 H 0.54150 0.17170 0.25550
O3 O 0.67854(17) 0.1373(2) 0.31115(11)
C4 C 0.7238(2) 0.2315(3) 0.35632(14)
H4 H 0.80050 0.25570 0.34480
H5 H 0.72370 0.19610 0.39980
C5 C 0.6456(2) 0.3490(3) 0.35138(12)
O4 O 0.66044(17) 0.4187(2) 0.29192(9)
H6 H 0.723(3) 0.468(5) 0.298(3)
C6 C 0.6335(2) 0.4478(3) 0.40595(12)
N1 N 0.7054(2) 0.4730(3) 0.45027(11)
O5 O 0.8039(2) 0.4000(3) 0.44476(12)
H7 H 0.836(4) 0.434(5) 0.4803(15)
C7 C 0.5291(2) 0.5292(3) 0.40421(12)
C8 C 0.5186(3) 0.6408(3) 0.44300(15)
H8 H 0.57560 0.66130 0.47230
C9 C 0.4251(3) 0.7212(3) 0.43859(17)
H9 H 0.41920 0.79430 0.46530
C10 C 0.3400(3) 0.6941(4) 0.39474(18)
H10 H 0.27840 0.75050 0.39100
C11 C 0.3468(3) 0.5830(4) 0.35657(15)
H11 H 0.28860 0.56340 0.32790
C12 C 0.4410(2) 0.4995(3) 0.36078(12)
C13 C 0.4442(2) 0.3795(3) 0.32044(12)
O6 O 0.3814(2) 0.3590(3) 0.27466(11)
C14 C 0.5316(2) 0.2800(3) 0.34149(11)
#END
