
#######################################################################
#
#                 Cambridge Crystallographic Data Centre
#                                CCDC
#
#######################################################################
#
# If this CIF has been generated from an entry in the Cambridge
# Structural Database, then it will include bibliographic, chemical,
# crystal, experimental, refinement or atomic coordinate data resulting
# from the CCDC's data processing and validation procedures.
#
#######################################################################

data_CSD_CIF_UDAFIQ
_audit_creation_date 2012-01-25
_audit_creation_method CSD-ConQuest-V1
_database_code_CSD UDAFIQ
_database_code_depnum_ccdc_archive 'CCDC 827039'
_chemical_formula_sum 'C34 H45 N1 O8'
_chemical_formula_moiety
;
C34 H45 N1 O8
;
_journal_coden_Cambridge 35
_journal_volume 76
_journal_year 2011
_journal_page_first 7893
_journal_name_full 'J.Org.Chem. '
loop_
_publ_author_name
"A.Yu.Sukhorukov"
"Y.D.Boyko"
"S.L.Ioffe"
"Y.A.Khomutova"
"Y.V.Nelyubina"
"V.A.Tartakovsky"
_chemical_name_systematic
;
Dimethyl 
((4-(3-(cyclopentoxy)-4-methoxyphenyl)-6-((2-phenylcyclohexyl)oxy)-1,2-oxazina
n-3-yl)methyl)malonate
;
_cell_volume   1551.207
_exptl_crystal_colour 'colorless'
_exptl_crystal_density_diffrn 1.275
_exptl_crystal_description 'prism'
_diffrn_ambient_temperature 100
_refine_special_details
;
C30,C30A,O7,O8 disordered over two sites with occupancies 0.55:0.45.

;
#These two values have been output from a single CSD field.
_refine_ls_R_factor_gt 0.0476
_refine_ls_wR_factor_gt 0.0476
_symmetry_cell_setting triclinic
_symmetry_space_group_name_H-M 'P -1'
_symmetry_Int_Tables_number 2
loop_
_symmetry_equiv_pos_site_id
_symmetry_equiv_pos_as_xyz
1 x,y,z
2 -x,-y,-z
_cell_length_a 12.2643(10)
_cell_length_b 12.6227(10)
_cell_length_c 12.7582(11)
_cell_angle_alpha 63.662(1)
_cell_angle_beta 64.383(1)
_cell_angle_gamma 67.5390(11)
_cell_formula_units_Z 2
loop_
_atom_type_symbol
_atom_type_radius_bond
C 0.68
H 0.23
N 0.68
O 0.68
loop_
_atom_site_label
_atom_site_type_symbol
_atom_site_fract_x
_atom_site_fract_y
_atom_site_fract_z
O1 O 0.19080(9) 0.20808(9) 0.33176(9)
N1 N 0.29053(11) 0.26226(11) 0.29998(10)
H1 H 0.35990 0.19700 0.31470
O2 O 0.26790(9) 0.03053(8) 0.47480(9)
O3 O 0.15632(9) 0.25860(8) 0.92775(8)
C1 C 0.25979(12) 0.33007(12) 0.38155(12)
H2 H 0.19080 0.40330 0.36480
O4 O 0.05413(10) 0.48837(8) 0.87036(9)
C2 C 0.22018(12) 0.25399(12) 0.51910(12)
H3 H 0.29490 0.18860 0.53550
O5 O 0.61569(11) 0.41528(11) 0.24091(11)
C3 C 0.12136(13) 0.19086(13) 0.54600(13)
H4 H 0.10580 0.13190 0.63100
H5 H 0.04240 0.25220 0.54020
O6 O 0.58040(11) 0.54996(11) 0.06486(10)
C4 C 0.16349(13) 0.12522(13) 0.45558(12)
H6 H 0.09510 0.08960 0.47220
C5 C 0.29816(13) -0.06066(12) 0.42102(13)
H7 H 0.26960 -0.02270 0.34700
C6 C 0.43965(13) -0.10782(12) 0.38111(13)
H8 H 0.46590 -0.14160 0.45610
C7 C 0.47561(14) -0.21295(13) 0.33315(15)
H9 H 0.45270 -0.18160 0.25740
H10 H 0.56680 -0.24590 0.31150
C8 C 0.41070(16) -0.31481(14) 0.42901(16)
H11 H 0.43380 -0.37960 0.39440
H12 H 0.43840 -0.35060 0.50250
C9 C 0.27024(16) -0.26614(16) 0.46657(17)
H13 H 0.22960 -0.33240 0.53140
H14 H 0.24180 -0.23690 0.39460
C10 C 0.23256(15) -0.16211(14) 0.51493(15)
H15 H 0.14140 -0.12910 0.53480
H16 H 0.25350 -0.19360 0.59180
C11 C 0.37643(13) 0.37161(12) 0.34723(12)
H17 H 0.44520 0.29880 0.36120
H18 H 0.36030 0.41450 0.40320
C12 C 0.17561(12) 0.32358(12) 0.60685(12)
C13 C 0.18874(12) 0.25846(12) 0.72441(12)
H19 H 0.22670 0.17390 0.74520
C14 C 0.14754(12) 0.31477(12) 0.81087(12)
C15 C 0.09188(12) 0.44016(12) 0.78019(12)
C16 C 0.07735(13) 0.50426(12) 0.66501(12)
H20 H 0.03860 0.58870 0.64420
C17 C 0.11902(13) 0.44629(12) 0.57870(12)
H21 H 0.10840 0.49170 0.49980
C18 C 0.01618(16) 0.61808(13) 0.83550(14)
H22 H -0.00750 0.64220 0.90710
H23 H -0.05510 0.64750 0.80570
H24 H 0.08520 0.65330 0.76980
C19 C 0.19727(13) 0.12766(12) 0.97061(12)
H25 H 0.27600 0.09810 0.91030
C20 C 0.21325(14) 0.09043(13) 1.09570(13)
H26 H 0.23090 0.15750 1.10150
H27 H 0.28300 0.01800 1.10680
C21 C 0.09407(14) 0.06976(13) 1.00058(13)
H28 H 0.12690 -0.01740 1.00880
H29 H 0.05300 0.11190 0.93610
C22 C 0.08994(16) 0.06132(15) 1.19477(14)
H30 H 0.10390 -0.02480 1.24870
H31 H 0.05340 0.11380 1.24640
C23 C 0.00356(15) 0.08613(15) 1.12437(14)
H32 H -0.04970 0.16970 1.11190
H33 H -0.05010 0.02740 1.16890
C24 C 0.50487(12) -0.00624(12) 0.28880(13)
C25 C 0.49616(14) 0.05206(14) 0.16988(13)
H34 H 0.45150 0.02540 0.14480
C26 C 0.57317(13) 0.03367(12) 0.32145(13)
H35 H 0.58130 -0.00530 0.40160
C27 C 0.55187(15) 0.14867(14) 0.08726(14)
H36 H 0.54440 0.18780 0.00680
C28 C 0.62985(14) 0.12974(14) 0.23855(15)
H37 H 0.67670 0.15530 0.26220
C29 C 0.61790(15) 0.18774(14) 0.12203(15)
H38 H 0.65500 0.25430 0.06600
C30 C 0.41877(13) 0.45593(12) 0.21333(12)
H39 H 0.41900 0.42030 0.15710
C31 C 0.54842(14) 0.47023(13) 0.17837(13)
C32 C 0.32813(16) 0.57901(14) 0.19897(14)
O7 O 0.319(5) 0.660(5) 0.229(6)
O8 O 0.2412(17) 0.5872(16) 0.1437(16)
C33 C 0.6915(4) 0.5865(4) 0.0207(6)
H40 H 0.68750 0.62620 0.07360
H41 H 0.70280 0.64370 -0.06380
H42 H 0.76170 0.51510 0.02170
C34 C 0.1398(4) 0.6906(5) 0.1367(4)
H43 H 0.07840 0.67680 0.11720
H44 H 0.16980 0.76200 0.07200
H45 H 0.10100 0.70450 0.21610
C35? C 0.1479(5) 0.7013(6) 0.1713(4)
C36? C 0.7179(4) 0.5561(5) 0.0203(8)
H46? H 0.77210 0.47460 0.02540
H47? H 0.72860 0.58700 0.07260
H48? H 0.73980 0.61070 -0.06530
H49? H 0.08780 0.68700 0.25460
H50? H 0.10570 0.72250 0.11220
H51? H 0.18380 0.76820 0.15040
O9? O 0.341(6) 0.654(6) 0.222(8)
O10? O 0.249(2) 0.589(2) 0.166(2)
#END
