
#######################################################################
#
#                 Cambridge Crystallographic Data Centre
#                                CCDC
#
#######################################################################
#
# If this CIF has been generated from an entry in the Cambridge
# Structural Database, then it will include bibliographic, chemical,
# crystal, experimental, refinement or atomic coordinate data resulting
# from the CCDC's data processing and validation procedures.
#
#######################################################################

data_CSD_CIF_UDEHES
_audit_creation_date 2013-07-30
_audit_creation_method CSD-ConQuest-V1
_database_code_CSD UDEHES
_database_code_depnum_ccdc_archive 'CCDC 695900'
_chemical_formula_sum 'C15 H18 N2 O7'
_chemical_formula_moiety
;
C15 H18 N2 O7
;
_journal_coden_Cambridge 1137
_journal_volume 26
_journal_year 2013
_journal_page_first 64
_journal_name_full 'J.Phys.Org.Chem. '
loop_
_publ_author_name
"K.Yamaguchi"
"M.Eto"
"Y.Yoshitake"
"K.Harano"
_chemical_name_systematic
;
endo-Dimethyl 
3-oxo-3b,4,5,8,9,9a-hexahydrocycloocta[d]pyrazolo[1,5-b][1,2]oxazole-2,3a(3H)-
dicarboxylate 1-oxide
;
_cell_volume   1586.505
_exptl_crystal_colour 'colorless'
_exptl_crystal_density_diffrn 1.416
_exptl_crystal_description 'prismatic'
_diffrn_ambient_temperature 293.1
#These two values have been output from a single CSD field.
_refine_ls_R_factor_gt 0.0333
_refine_ls_wR_factor_gt 0.0333
_symmetry_cell_setting monoclinic
_symmetry_space_group_name_H-M 'C c'
_symmetry_Int_Tables_number 9
loop_
_symmetry_equiv_pos_site_id
_symmetry_equiv_pos_as_xyz
1 x,y,z
2 x,-y,1/2+z
3 1/2+x,1/2+y,z
4 1/2+x,1/2-y,1/2+z
_cell_length_a 9.987(2)
_cell_length_b 26.228(3)
_cell_length_c 7.479(3)
_cell_angle_alpha 90
_cell_angle_beta 125.92(1)
_cell_angle_gamma 90
_cell_formula_units_Z 4
loop_
_atom_type_symbol
_atom_type_radius_bond
C 0.68
H 0.23
N 0.68
O 0.68
loop_
_atom_site_label
_atom_site_type_symbol
_atom_site_fract_x
_atom_site_fract_y
_atom_site_fract_z
O1 O 0.6875(5) 0.10634(6) 0.4028(7)
O2 O 1.1069(5) 0.03144(7) 0.4072(7)
O3 O 1.2029(5) 0.12664(6) 0.5789(7)
O4 O 0.8694(5) -0.03788(6) 0.3472(8)
O5 O 0.6482(5) 0.00136(6) 0.2875(7)
O6 O 0.8156(5) 0.22542(6) 0.2957(7)
O7 O 0.7312(6) 0.15954(6) 0.0641(7)
N1 N 1.0086(5) 0.06044(6) 0.4006(6)
N2 N 1.0400(5) 0.11633(6) 0.3988(7)
C1 C 0.8085(5) 0.09886(6) 0.4083(7)
C2 C 0.8692(5) 0.05144(6) 0.3800(7)
C3 C 0.9273(5) 0.14144(6) 0.4409(7)
C4 C 1.0414(5) 0.16524(6) 0.6737(7)
C5 C 1.2051(5) 0.13664(7) 0.7734(7)
C6 C 1.2383(5) 0.08806(7) 0.9056(7)
C7 C 1.2595(5) 0.09573(9) 1.1248(7)
C8 C 1.3291(5) 0.1470(1) 1.2316(7)
C9 C 1.2476(5) 0.1903(1) 1.1826(7)
C10 C 1.0684(5) 0.2014(1) 1.0106(8)
C11 C 0.9692(5) 0.16700(8) 0.8054(7)
C12 C 0.7992(5) -0.00031(7) 0.3394(7)
C13 C 0.5621(6) -0.0470(1) 0.2362(8)
C14 C 0.8200(5) 0.18117(7) 0.2596(7)
C15 C 0.6165(6) 0.1919(1) -0.1234(7)
H1 H 1.066(4) 0.200(1) 0.655(5)
H2 H 1.293(3) 0.1560(9) 0.866(4)
H3 H 1.142(4) 0.066(1) 0.807(5)
H4 H 1.347(4) 0.075(1) 0.935(5)
H5 H 1.154(4) 0.092(1) 1.103(5)
H6 H 1.323(5) 0.069(2) 1.217(6)
H7 H 1.440(4) 0.148(1) 1.358(6)
H8 H 1.305(5) 0.222(2) 1.271(8)
H9 H 1.066(4) 0.237(1) 0.957(5)
H10 H 1.015(4) 0.203(1) 1.087(6)
H11 H 0.863(3) 0.181(1) 0.708(5)
H12 H 0.960(3) 0.131(1) 0.848(4)
H13 H 0.454(5) -0.039(1) 0.191(7)
H14 H 0.575(5) -0.065(1) 0.123(7)
H15 H 0.610(5) -0.060(2) 0.354(7)
H16 H 0.539(5) 0.205(1) -0.096(6)
H17 H 0.673(4) 0.218(2) -0.106(6)
H18 H 0.599(4) 0.173(1) -0.253(7)
#END
