
#######################################################################
#
#                 Cambridge Crystallographic Data Centre
#                                CCDC
#
#######################################################################
#
# If this CIF has been generated from an entry in the Cambridge
# Structural Database, then it will include bibliographic, chemical,
# crystal, experimental, refinement or atomic coordinate data resulting
# from the CCDC's data processing and validation procedures.
#
#######################################################################

data_CSD_CIF_UDEHAO
_audit_creation_date 2013-07-30
_audit_creation_method CSD-ConQuest-V1
_database_code_CSD UDEHAO
_database_code_depnum_ccdc_archive 'CCDC 696675'
_chemical_formula_sum 'C14 H14 N2 O7'
_chemical_formula_moiety
;
C14 H14 N2 O7
;
_journal_coden_Cambridge 1137
_journal_volume 26
_journal_year 2013
_journal_page_first 64
_journal_name_full 'J.Phys.Org.Chem. '
loop_
_publ_author_name
"K.Yamaguchi"
"M.Eto"
"Y.Yoshitake"
"K.Harano"
_chemical_name_systematic
;
endo-Dimethyl 
3-oxo-7-oxa-5,6-diazatricyclo[6.4.1.0^2,6^]trideca-4,9,11-triene-2,4-dicarboxy
late 5-oxide
;
_cell_volume   2879.810
_exptl_crystal_colour 'colorless'
_exptl_crystal_density_diffrn 1.487
_exptl_crystal_description 'prismatic'
_diffrn_ambient_temperature 293.2
#These two values have been output from a single CSD field.
_refine_ls_R_factor_gt 0.0719
_refine_ls_wR_factor_gt 0.0719
_symmetry_cell_setting orthorhombic
_symmetry_space_group_name_H-M 'P b c a'
_symmetry_Int_Tables_number 61
loop_
_symmetry_equiv_pos_site_id
_symmetry_equiv_pos_as_xyz
1 x,y,z
2 1/2+x,1/2-y,-z
3 -x,1/2+y,1/2-z
4 1/2-x,-y,1/2+z
5 -x,-y,-z
6 -1/2-x,-1/2+y,z
7 x,-1/2-y,-1/2+z
8 -1/2+x,y,-1/2-z
_cell_length_a 28.554(2)
_cell_length_b 10.594(2)
_cell_length_c 9.520(2)
_cell_angle_alpha 90
_cell_angle_beta 90
_cell_angle_gamma 90
_cell_formula_units_Z 8
loop_
_atom_type_symbol
_atom_type_radius_bond
C 0.68
H 0.23
N 0.68
O 0.68
loop_
_atom_site_label
_atom_site_type_symbol
_atom_site_fract_x
_atom_site_fract_y
_atom_site_fract_z
O1 O 0.9219(1) 0.1511(3) -0.0974(3)
O2 O 0.89599(9) -0.2208(2) 0.1451(3)
O3 O 0.84928(9) 0.1991(2) 0.0614(3)
O4 O 0.96325(10) -0.2216(3) -0.0881(3)
O5 O 0.8296(1) -0.0167(3) 0.3930(3)
O6 O 0.90569(9) 0.0106(2) 0.3531(3)
O7 O 0.9831(1) -0.0381(4) -0.1742(4)
N1 N 0.90944(10) 0.0669(3) -0.0174(3)
N2 N 0.87878(10) 0.1015(2) 0.0980(3)
C1 C 0.9219(1) -0.0536(3) -0.0079(3)
C2 C 0.9601(1) -0.1003(4) -0.1022(4)
C3 C 0.8944(1) -0.1138(3) 0.0998(3)
C4 C 0.8589(1) -0.0165(3) 0.1541(3)
C5 C 0.8622(1) -0.0071(3) 0.3156(3)
C6 C 0.8062(1) 0.1615(4) -0.0150(4)
C7 C 0.8169(2) 0.1217(6) -0.1619(4)
C8 C 0.8169(2) 0.0063(6) -0.2165(4)
C9 C 0.8100(1) -0.1136(5) -0.1515(5)
C10 C 0.8078(1) -0.1410(4) -0.0173(5)
C11 C 0.8083(1) -0.0498(3) 0.1038(3)
C12 C 0.7803(1) 0.0691(4) 0.0750(4)
C13 C 0.9160(2) 0.0191(4) 0.5026(4)
C14 C 0.9987(2) -0.2720(5) -0.1882(6)
H1 H 0.772(1) 0.107(3) 0.167(4)
H2 H 0.753(1) 0.050(3) 0.036(3)
H3 H 0.788(1) 0.245(4) -0.017(4)
H4 H 0.822(1) 0.187(4) -0.214(4)
H5 H 0.822(1) -0.004(3) -0.309(5)
H6 H 0.808(1) -0.225(4) 0.016(4)
H7 H 0.795(1) -0.090(3) 0.182(3)
H8 H 0.811(2) -0.179(4) -0.220(4)
H9 H 0.91410 -0.05170 0.54120
H10 H 0.95410 0.03310 0.50400
H11 H 0.90340 0.08080 0.54390
H12 H 0.98640 -0.34000 -0.24020
H13 H 1.00710 -0.20510 -0.25320
H14 H 1.02610 -0.29700 -0.13990
#END
