
#######################################################################
#
#                 Cambridge Crystallographic Data Centre
#                                CCDC
#
#######################################################################
#
# If this CIF has been generated from an entry in the Cambridge
# Structural Database, then it will include bibliographic, chemical,
# crystal, experimental, refinement or atomic coordinate data resulting
# from the CCDC's data processing and validation procedures.
#
#######################################################################

data_CSD_CIF_UDEKAP
_audit_creation_date 2002-04-16
_audit_creation_method CSD-ConQuest-V1
_database_code_CSD UDEKAP
_chemical_formula_sum 'C11 H12 N2 O4'
_chemical_formula_moiety
;
C11 H12 N2 O4
;
_journal_coden_Cambridge 1336
_journal_volume 2
_journal_year 2000
_journal_page_first 4007
_journal_name_full 'Org.Lett. '
loop_
_publ_author_name
"D.C.Bland"
"B.C.Raudenbush"
"S.M.Weinreb"
_chemical_name_systematic
;
Ethyl 
7-cyano-2-oxo-3,3a,6,7-tetrahydro-2H-isoxazolo(2,3-a)pyridine-7-carboxylate
;
_cell_volume   2254.654
_exptl_crystal_colour 'colorless'
_exptl_crystal_density_diffrn 1.392
_exptl_crystal_description 'block'
_diffrn_ambient_temperature 293
#These two values have been output from a single CSD field.
_refine_ls_R_factor_gt 0.0401
_refine_ls_wR_factor_gt 0.0401
_symmetry_cell_setting orthorhombic
_symmetry_space_group_name_H-M 'P b c a'
_symmetry_Int_Tables_number 61
loop_
_symmetry_equiv_pos_site_id
_symmetry_equiv_pos_as_xyz
1 x,y,z
2 1/2-x,-y,1/2+z
3 1/2+x,1/2-y,-z
4 -x,1/2+y,1/2-z
5 -x,-y,-z
6 -1/2+x,y,-1/2-z
7 -1/2-x,-1/2+y,z
8 x,-1/2-y,-1/2+z
_cell_length_a 21.612(3)
_cell_length_b 10.8756(8)
_cell_length_c 9.5925(11)
_cell_angle_alpha 90
_cell_angle_beta 90
_cell_angle_gamma 90
_cell_formula_units_Z 8
loop_
_atom_type_symbol
_atom_type_radius_bond
C 0.68
H 0.23
N 0.68
O 0.68
loop_
_atom_site_label
_atom_site_type_symbol
_atom_site_fract_x
_atom_site_fract_y
_atom_site_fract_z
C1 C 0.6547(1) -0.0404(2) -0.0045(2)
C2 C 0.6814(1) -0.0085(2) 0.1336(2)
N1 N 0.7006(1) 0.0138(2) 0.2406(2)
C3 C 0.6683(1) 0.0676(2) -0.1030(2)
O1 O 0.7006(1) 0.1519(1) -0.0719(2)
O2 O 0.6402(1) 0.0528(1) -0.2233(2)
C4 C 0.6478(1) 0.1519(2) -0.3245(2)
C5 C 0.6128(1) 0.1176(2) -0.4503(3)
C6 C 0.6838(1) -0.1604(2) -0.0568(2)
C7 C 0.6614(1) -0.2665(2) 0.0281(2)
C8 C 0.6088(1) -0.2647(2) 0.0957(2)
C9 C 0.5647(1) -0.1593(2) 0.0917(2)
C10 C 0.5494(1) -0.0984(2) 0.2300(2)
C11 C 0.5411(1) 0.0335(2) 0.1926(2)
O3 O 0.5205(1) 0.1176(2) 0.2575(2)
O4 O 0.5616(1) 0.0537(1) 0.0591(2)
N2 N 0.5874(1) -0.0588(1) -0.0003(2)
H1 H 0.69130 0.16260 -0.34700
H2 H 0.63220 0.22850 -0.28660
H3 H 0.63750 0.06410 -0.50720
H4 H 0.60260 0.19040 -0.50210
H5 H 0.57540 0.07610 -0.42370
H6 H 0.67290 -0.17310 -0.15380
H7 H 0.72850 -0.15500 -0.05040
H8 H 0.68590 -0.33680 0.03320
H9 H 0.59840 -0.33290 0.14920
H10 H 0.52580 -0.18960 0.05200
H11 H 0.51180 -0.13230 0.26950
H12 H 0.58290 -0.10870 0.29620
#END
