
#######################################################################
#
#                 Cambridge Crystallographic Data Centre
#                                CCDC
#
#######################################################################
#
# If this CIF has been generated from an entry in the Cambridge
# Structural Database, then it will include bibliographic, chemical,
# crystal, experimental, refinement or atomic coordinate data resulting
# from the CCDC's data processing and validation procedures.
#
#######################################################################

data_CSD_CIF_UDEWEF
_audit_creation_date 2002-04-16
_audit_creation_method CSD-ConQuest-V1
_database_code_CSD UDEWEF
_chemical_formula_sum 'C9 H8 N4 O2'
_chemical_formula_moiety
;
C9 H8 N4 O2
;
_journal_coden_Cambridge 35
_journal_volume 66
_journal_year 2001
_journal_page_first 107
_journal_name_full 'J.Org.Chem. '
loop_
_publ_author_name
"T.Fuchs"
"G.Chowdhury"
"C.L.Barnes"
"K.S.Gates"
_chemical_name_systematic
;
3-(Acetamido)-1,2,4-benzotriazine 4-oxide
;
_cell_volume    875.109
_exptl_crystal_density_diffrn 1.542
_exptl_crystal_preparation 'propan-2-ol'
_diffrn_ambient_temperature 173
#These two values have been output from a single CSD field.
_refine_ls_R_factor_gt 0.0496
_refine_ls_wR_factor_gt 0.0496
_symmetry_cell_setting monoclinic
_symmetry_space_group_name_H-M 'P 21/n'
_symmetry_Int_Tables_number 14
loop_
_symmetry_equiv_pos_site_id
_symmetry_equiv_pos_as_xyz
1 x,y,z
2 1/2-x,1/2+y,1/2-z
3 -x,-y,-z
4 -1/2+x,-1/2-y,-1/2+z
_cell_length_a 4.0178(4)
_cell_length_b 15.5538(14)
_cell_length_c 14.0228(13)
_cell_angle_alpha 90
_cell_angle_beta 93.004(2)
_cell_angle_gamma 90
_cell_formula_units_Z 4
loop_
_atom_type_symbol
_atom_type_radius_bond
C 0.68
H 0.23
N 0.68
O 0.68
loop_
_atom_site_label
_atom_site_type_symbol
_atom_site_fract_x
_atom_site_fract_y
_atom_site_fract_z
O1 O 0.1361(4) 0.0993(1) 0.0188(1)
N1 N 0.3201(5) 0.1471(1) -0.0335(1)
N2 N 0.3165(4) 0.0345(1) -0.1385(1)
C1 C 0.4195(5) 0.2283(1) -0.0051(2)
N3 N 0.6042(5) 0.1633(1) -0.1772(1)
N4 N 0.6948(5) 0.2425(1) -0.1542(1)
C2 C 0.7064(6) 0.3601(1) -0.0442(2)
O2 O 0.5664(4) 0.0096(1) -0.2797(1)
C3 C 0.6052(5) 0.2757(1) -0.0696(2)
C4 C 0.4214(5) 0.1171(1) -0.1185(2)
C5 C 0.4478(6) 0.3440(1) 0.1059(2)
C6 C 0.3404(6) 0.2631(1) 0.0833(2)
C7 C 0.2442(6) -0.1029(1) -0.2172(2)
C8 C 0.6273(6) 0.3930(1) 0.0417(2)
C9 C 0.3946(6) -0.0156(1) -0.2172(2)
H1 H 0.82880 0.39360 -0.08690
H2 H 0.40070 0.36770 0.16620
H3 H 0.21460 0.23100 0.12630
H4 H 0.02980 -0.10200 -0.25390
H5 H 0.20920 -0.12050 -0.15140
H6 H 0.39430 -0.14380 -0.24630
H7 H 0.69430 0.44980 0.05850
#END
