
#######################################################################
#
#                 Cambridge Crystallographic Data Centre
#                                CCDC
#
#######################################################################
#
# If this CIF has been generated from an entry in the Cambridge
# Structural Database, then it will include bibliographic, chemical,
# crystal, experimental, refinement or atomic coordinate data resulting
# from the CCDC's data processing and validation procedures.
#
#######################################################################

data_CSD_CIF_UDEWAB
_audit_creation_date 2002-04-16
_audit_creation_method CSD-ConQuest-V1
_database_code_CSD UDEWAB
_chemical_formula_sum 'C7 H6 N4 O1'
_chemical_formula_moiety
;
C7 H6 N4 O1
;
_journal_coden_Cambridge 35
_journal_volume 66
_journal_year 2001
_journal_page_first 107
_journal_name_full 'J.Org.Chem. '
loop_
_publ_author_name
"T.Fuchs"
"G.Chowdhury"
"C.L.Barnes"
"K.S.Gates"
_chemical_name_systematic
;
3-Amino-1,2,4-benzotriazine 2-oxide
;
_cell_volume    717.635
_exptl_crystal_density_diffrn 1.501
_exptl_crystal_preparation 'ethyl acetate/hexane'
_diffrn_ambient_temperature 173
#These two values have been output from a single CSD field.
_refine_ls_R_factor_gt 0.0418
_refine_ls_wR_factor_gt 0.0418
_symmetry_cell_setting monoclinic
_symmetry_space_group_name_H-M 'P 21/n'
_symmetry_Int_Tables_number 14
loop_
_symmetry_equiv_pos_site_id
_symmetry_equiv_pos_as_xyz
1 x,y,z
2 1/2-x,1/2+y,1/2-z
3 -x,-y,-z
4 -1/2+x,-1/2-y,-1/2+z
_cell_length_a 5.0771(6)
_cell_length_b 18.681(2)
_cell_length_c 7.8231(10)
_cell_angle_alpha 90
_cell_angle_beta 104.719(2)
_cell_angle_gamma 90
_cell_formula_units_Z 4
loop_
_atom_type_symbol
_atom_type_radius_bond
C 0.68
H 0.23
N 0.68
O 0.68
loop_
_atom_site_label
_atom_site_type_symbol
_atom_site_fract_x
_atom_site_fract_y
_atom_site_fract_z
N1 N 0.1914(2) 0.0580(1) 0.4049(2)
N2 N -0.0529(3) 0.1241(1) 0.0799(2)
O1 O 0.2121(2) 0.0567(1) -0.0405(1)
N3 N 0.1341(2) 0.0760(1) 0.0948(2)
C1 C -0.1035(3) 0.1253(1) 0.5434(2)
C2 C -0.0099(3) 0.1078(1) 0.3942(2)
N4 N 0.4565(3) -0.0039(1) 0.2540(2)
C3 C -0.1300(3) 0.1410(1) 0.2314(2)
C4 C 0.2638(3) 0.0424(1) 0.2611(2)
C5 C -0.3350(3) 0.1928(1) 0.2200(2)
C6 C -0.3065(3) 0.1750(1) 0.5285(2)
C7 C -0.4213(3) 0.2096(1) 0.3669(2)
H1 H -0.02640 0.10290 0.65380
H2 H -0.41280 0.21610 0.11080
H3 H -0.37120 0.18620 0.62900
H4 H -0.55900 0.24470 0.35990
H5 H 0.498(3) -0.0136(9) 0.155(2)
H6 H 0.555(4) -0.0213(9) 0.355(2)
#END
