
#######################################################################
#
#                 Cambridge Crystallographic Data Centre
#                                CCDC
#
#######################################################################
#
# If this CIF has been generated from an entry in the Cambridge
# Structural Database, then it will include bibliographic, chemical,
# crystal, experimental, refinement or atomic coordinate data resulting
# from the CCDC's data processing and validation procedures.
#
#######################################################################

data_CSD_CIF_UDIFOC
_audit_creation_date 2002-04-16
_audit_creation_method CSD-ConQuest-V1
_database_code_CSD UDIFOC
_chemical_formula_sum 'C12 H16 N2 O1'
_chemical_formula_moiety
;
C12 H16 N2 O1
;
_journal_coden_Cambridge 35
_journal_volume 66
_journal_year 2001
_journal_page_first 501
_journal_name_full 'J.Org.Chem. '
loop_
_publ_author_name
"T.Olszewska"
"M.J.Milewska"
"M.Gdaniec"
"H.Maluszynska"
"T.Polonski"
_chemical_name_systematic
;
1-Nitroso-4-benzylpiperidine
;
_chemical_melting_point 335.15
_cell_volume   1132.048
_exptl_crystal_density_diffrn 1.198
_exptl_special_details
;
Melting point range 335.15-336.15K

;
_diffrn_ambient_temperature 293
_refine_special_details
;
O1 is disordered over two sites with occupancies 0.60:0.40.

;
#These two values have been output from a single CSD field.
_refine_ls_R_factor_gt 0.036
_refine_ls_wR_factor_gt 0.036
_symmetry_cell_setting orthorhombic
_symmetry_space_group_name_H-M 'P 21 21 21'
_symmetry_Int_Tables_number 19
loop_
_symmetry_equiv_pos_site_id
_symmetry_equiv_pos_as_xyz
1 x,y,z
2 1/2-x,-y,1/2+z
3 1/2+x,1/2-y,-z
4 -x,1/2+y,1/2-z
_cell_length_a 6.076(1)
_cell_length_b 8.203(2)
_cell_length_c 22.713(5)
_cell_angle_alpha 90
_cell_angle_beta 90
_cell_angle_gamma 90
_cell_formula_units_Z 4
loop_
_atom_type_symbol
_atom_type_radius_bond
C 0.68
H 0.23
N 0.68
O 0.68
loop_
_atom_site_label
_atom_site_type_symbol
_atom_site_fract_x
_atom_site_fract_y
_atom_site_fract_z
N1 N 0.0380(4) 0.4459(2) 0.4847(1)
C1 C -0.0172(3) 0.6518(2) 0.3846(1)
C2 C -0.1635(4) 0.6644(3) 0.4382(1)
C3 C 0.1345(3) 0.8125(2) 0.2975(1)
C4 C 0.3356(4) 0.8901(3) 0.2939(1)
C5 C 0.1883(4) 0.4266(3) 0.4359(1)
C6 C 0.4578(4) 0.8865(3) 0.2428(1)
C7 C 0.2052(3) 0.5852(3) 0.4025(1)
C8 C -0.1793(5) 0.5052(3) 0.4710(1)
C9 C 0.0003(4) 0.8151(3) 0.3528(1)
C10 C 0.0602(4) 0.7315(3) 0.2481(1)
C11 C 0.1846(5) 0.7265(3) 0.1972(1)
C12 C 0.3815(5) 0.8038(3) 0.1950(1)
N2 N 0.1047(13) 0.4248(4) 0.5389(2)
O1 O 0.2789(13) 0.3885(5) 0.5513(2)
O2? O 0.0038(16) 0.4343(8) 0.5743(4)
H1 H -0.08340 0.57480 0.35830
H2 H -0.30800 0.70030 0.42730
H3 H -0.10110 0.74550 0.46350
H4 H 0.38970 0.95120 0.32680
H5 H 0.12610 0.34530 0.41060
H6 H 0.33020 0.38950 0.44850
H7 H 0.59770 0.94040 0.24280
H8 H 0.27660 0.66420 0.42700
H9 H 0.29420 0.56870 0.36820
H10 H -0.25530 0.52340 0.50730
H11 H -0.26110 0.42720 0.44840
H12 H 0.06380 0.89260 0.37940
H13 H -0.14410 0.85300 0.34270
H14 H -0.08050 0.67860 0.24800
H15 H 0.13000 0.66570 0.16430
H16 H 0.46680 0.80480 0.15950
#END
