
#######################################################################
#
#                 Cambridge Crystallographic Data Centre
#                                CCDC
#
#######################################################################
#
# If this CIF has been generated from an entry in the Cambridge
# Structural Database, then it will include bibliographic, chemical,
# crystal, experimental, refinement or atomic coordinate data resulting
# from the CCDC's data processing and validation procedures.
#
#######################################################################

data_CSD_CIF_UDIGUJ
_audit_creation_date 2002-04-16
_audit_creation_method CSD-ConQuest-V1
_database_code_CSD UDIGUJ
_chemical_formula_sum 'C8 H14 N2 O1'
_chemical_formula_moiety
;
C8 H14 N2 O1
;
_journal_coden_Cambridge 35
_journal_volume 66
_journal_year 2001
_journal_page_first 501
_journal_name_full 'J.Org.Chem. '
loop_
_publ_author_name
"T.Olszewska"
"M.J.Milewska"
"M.Gdaniec"
"H.Maluszynska"
"T.Polonski"
_chemical_name_systematic
;
(+)-3-Nitroso-3-azabicyclo(3.3.1)nonane
;
_chemical_melting_point 436.15
_cell_volume    783.812
_exptl_crystal_density_diffrn 1.307
_exptl_special_details
;
Melting point range 436.15-437.15K

;
_diffrn_ambient_temperature 150
#These two values have been output from a single CSD field.
_refine_ls_R_factor_gt 0.0306
_refine_ls_wR_factor_gt 0.0306
_symmetry_cell_setting orthorhombic
_symmetry_space_group_name_H-M 'P 21 21 21'
_symmetry_Int_Tables_number 19
loop_
_symmetry_equiv_pos_site_id
_symmetry_equiv_pos_as_xyz
1 x,y,z
2 1/2-x,-y,1/2+z
3 1/2+x,1/2-y,-z
4 -x,1/2+y,1/2-z
_cell_length_a 6.096(1)
_cell_length_b 9.982(2)
_cell_length_c 12.881(3)
_cell_angle_alpha 90
_cell_angle_beta 90
_cell_angle_gamma 90
_cell_formula_units_Z 4
loop_
_atom_type_symbol
_atom_type_radius_bond
C 0.68
H 0.23
N 0.68
O 0.68
loop_
_atom_site_label
_atom_site_type_symbol
_atom_site_fract_x
_atom_site_fract_y
_atom_site_fract_z
C1 C -0.4260(5) 0.5880(3) 0.3783(2)
C2 C -0.3490(5) 0.6077(3) 0.2668(2)
N1 N -0.1739(3) 0.5139(2) 0.2404(2)
C3 C -0.1993(5) 0.3731(3) 0.2671(2)
C4 C -0.2844(4) 0.3564(3) 0.3784(2)
C5 C -0.1131(5) 0.3923(3) 0.4603(2)
C6 C -0.0549(5) 0.5406(3) 0.4630(2)
C7 C -0.2568(5) 0.6301(3) 0.4595(2)
C8 C -0.4875(4) 0.4414(3) 0.3940(2)
N2 N -0.0003(4) 0.5661(2) 0.1942(2)
O1 O 0.1457(3) 0.4857(2) 0.1725(2)
H1 H -0.548(5) 0.640(3) 0.387(2)
H2 H -0.282(5) 0.692(3) 0.251(2)
H3 H -0.471(6) 0.588(3) 0.216(2)
H4 H -0.052(5) 0.334(3) 0.256(3)
H5 H -0.306(5) 0.338(3) 0.223(2)
H6 H -0.323(4) 0.260(3) 0.3866(18)
H7 H 0.023(5) 0.343(3) 0.450(2)
H8 H -0.176(5) 0.366(3) 0.528(2)
H9 H 0.044(5) 0.564(3) 0.404(2)
H10 H 0.018(5) 0.559(3) 0.526(2)
H11 H -0.321(5) 0.624(3) 0.530(2)
H12 H -0.224(5) 0.723(3) 0.4444(19)
H13 H -0.600(4) 0.414(2) 0.3457(18)
H14 H -0.559(6) 0.423(3) 0.466(3)
#END
