
#######################################################################
#
#                 Cambridge Crystallographic Data Centre
#                                CCDC
#
#######################################################################
#
# If this CIF has been generated from an entry in the Cambridge
# Structural Database, then it will include bibliographic, chemical,
# crystal, experimental, refinement or atomic coordinate data resulting
# from the CCDC's data processing and validation procedures.
#
#######################################################################

data_CSD_CIF_UDOQEL
_audit_creation_date 2013-07-31
_audit_creation_method CSD-ConQuest-V1
_database_code_CSD UDOQEL
_database_code_depnum_ccdc_archive 'CCDC 936638'
_chemical_formula_sum 'C11 H13 N1 O3'
_chemical_formula_moiety
;
C11 H13 N1 O3
;
_journal_coden_Cambridge 1078
_journal_year 2013
_journal_name_full 'CSD Communication(Private Communication) '
loop_
_publ_author_name
"X.G.Mera"
_chemical_name_systematic
;
Methyl 5-phenyl-1,2-oxazolidine-3-carboxylate
;
_cell_volume   1022.585
_exptl_crystal_colour 'colorless'
_exptl_crystal_density_diffrn 1.346
_exptl_crystal_description 'prism'
_diffrn_ambient_temperature 100
#These two values have been output from a single CSD field.
_refine_ls_R_factor_gt 0.0478
_refine_ls_wR_factor_gt 0.0478
_symmetry_cell_setting monoclinic
_symmetry_space_group_name_H-M 'P 21/c'
_symmetry_Int_Tables_number 14
loop_
_symmetry_equiv_pos_site_id
_symmetry_equiv_pos_as_xyz
1 x,y,z
2 -x,1/2+y,1/2-z
3 -x,-y,-z
4 x,-1/2-y,-1/2+z
_cell_length_a 10.3708(9)
_cell_length_b 5.6597(5)
_cell_length_c 17.4238(14)
_cell_angle_alpha 90
_cell_angle_beta 90.861(4)
_cell_angle_gamma 90
_cell_formula_units_Z 4
loop_
_atom_type_symbol
_atom_type_radius_bond
C 0.68
H 0.23
N 0.68
O 0.68
loop_
_atom_site_label
_atom_site_type_symbol
_atom_site_fract_x
_atom_site_fract_y
_atom_site_fract_z
O1 O 0.34798(9) 0.19401(18) 0.27654(5)
N1 N 0.4571(1) 0.1198(2) 0.23018(6)
H1 H 0.4851(16) -0.015(3) 0.2532(10)
C1 C 0.40015(12) 0.0407(2) 0.15776(7)
H2 H 0.45520 -0.08490 0.13460
C2 C 0.26864(12) -0.0628(2) 0.17915(7)
H3 H 0.20650 -0.05360 0.13560
H4 H 0.27670 -0.22920 0.19600
C3 C 0.22845(11) 0.0969(2) 0.24490(7)
H5 H 0.17520 0.22930 0.22350
C4 C 0.38568(11) 0.2463(3) 0.10249(7)
O2 O 0.39912(12) 0.4494(2) 0.11827(6)
O3 O 0.35222(11) 0.1685(2) 0.03248(6)
C5 C 0.33067(16) 0.3504(4) -0.02521(8)
H6 H 0.24520 0.42060 -0.01840
H7 H 0.33550 0.28010 -0.07650
H8 H 0.39680 0.47310 -0.01960
C6 C 0.15394(11) -0.0228(2) 0.30746(7)
C7 C 0.19893(14) -0.2289(3) 0.34255(8)
H9 H 0.27790 -0.29760 0.32690
C8 C 0.12849(16) -0.3332(3) 0.40017(9)
H10 H 0.15940 -0.47370 0.42400
C9 C 0.01271(14) -0.2344(3) 0.42363(8)
H11 H -0.03500 -0.30680 0.46340
C10 C -0.03241(13) -0.0320(3) 0.38917(8)
H12 H -0.11160 0.03580 0.40490
C11 C 0.03808(12) 0.0737(2) 0.33115(7)
H13 H 0.00650 0.21380 0.30740
#END
