
#######################################################################
#
#                 Cambridge Crystallographic Data Centre
#                                CCDC
#
#######################################################################
#
# If this CIF has been generated from an entry in the Cambridge
# Structural Database, then it will include bibliographic, chemical,
# crystal, experimental, refinement or atomic coordinate data resulting
# from the CCDC's data processing and validation procedures.
#
#######################################################################

data_CSD_CIF_UDOYOC
_audit_creation_date 2007-09-12
_audit_creation_method CSD-ConQuest-V1
_database_code_CSD UDOYOC
_database_code_depnum_ccdc_archive 'CCDC 651883'
_chemical_formula_sum 'C26 H26 N4 O14'
_chemical_formula_moiety
;
C26 H26 N4 O14
;
_journal_coden_Cambridge 35
_journal_volume 72
_journal_year 2007
_journal_page_first 3454
_journal_name_full 'J.Org.Chem. '
loop_
_publ_author_name
"D.F.Taber"
"J.-M.Joerger"
_chemical_name_systematic
;
3,5-Dinitrobenzoic acid 
(2R,3R,4S,5S)-3-(3,5-dinitrobenzoyloxymethyl)-4,7,7-trimethyl-1,6-dioxa-spiro[
4.4]non-2-ylmethyl ester
;
_chemical_melting_point 401.15
_cell_volume   2858.355
_exptl_crystal_colour 'colorless'
_exptl_crystal_density_diffrn 1.437
_exptl_crystal_description 'needle'
_exptl_crystal_preparation 'MTBE/PE'
_diffrn_ambient_temperature 120
#These two values have been output from a single CSD field.
_refine_ls_R_factor_gt 0.0385
_refine_ls_wR_factor_gt 0.0385
_symmetry_cell_setting orthorhombic
_symmetry_space_group_name_H-M 'P 21 21 21'
_symmetry_Int_Tables_number 19
loop_
_symmetry_equiv_pos_site_id
_symmetry_equiv_pos_as_xyz
1 x,y,z
2 1/2-x,-y,1/2+z
3 -x,1/2+y,1/2-z
4 1/2+x,1/2-y,-z
_cell_length_a 5.7996(9)
_cell_length_b 11.9907(16)
_cell_length_c 41.103(5)
_cell_angle_alpha 90
_cell_angle_beta 90
_cell_angle_gamma 90
_cell_formula_units_Z 4
loop_
_atom_type_symbol
_atom_type_radius_bond
C 0.68
H 0.23
N 0.68
O 0.68
loop_
_atom_site_label
_atom_site_type_symbol
_atom_site_fract_x
_atom_site_fract_y
_atom_site_fract_z
C1 C 0.9357(4) 0.05202(18) 0.90271(5)
H1 H 1.02690 0.09740 0.91660
C2 C 1.0022(4) -0.05595(19) 0.89530(5)
C3 C 0.8806(4) -0.12383(19) 0.87423(5)
H2 H 0.93070 -0.19730 0.86920
C4 C 0.6825(4) -0.07934(19) 0.86086(5)
C5 C 0.6037(4) 0.02688(19) 0.86796(5)
H3 H 0.46560 0.05450 0.85850
C6 C 0.7322(4) 0.09217(18) 0.88935(5)
C7 C 0.6565(4) 0.20743(19) 0.89842(5)
C8 C 0.3360(5) 0.32927(18) 0.89663(6)
H4 H 0.45940 0.38350 0.90180
H5 H 0.21530 0.33420 0.91360
C9 C 0.2347(4) 0.35369(18) 0.86350(5)
H6 H 0.10280 0.30180 0.85940
C10 C 0.1535(4) 0.47524(17) 0.85783(5)
H7 H -0.01580 0.47570 0.85320
C11 C 0.2865(4) 0.5109(2) 0.82704(5)
H8 H 0.43110 0.54920 0.83420
C12 C 0.3535(4) 0.4000(2) 0.81215(6)
C13 C 0.5504(5) 0.3931(3) 0.78776(6)
H9 H 0.70190 0.38970 0.79880
H10 H 0.54870 0.45710 0.77260
C14 C 0.4956(5) 0.2837(4) 0.77022(8)
H11 H 0.55970 0.21910 0.78220
H12 H 0.55890 0.28390 0.74790
C15 C 0.2303(5) 0.2796(3) 0.76970(7)
C16 C 0.1382(6) 0.1645(3) 0.77688(9)
H13 H -0.03070 0.16670 0.77750
H14 H 0.19700 0.13920 0.79800
H15 H 0.18850 0.11280 0.75980
C17 C 0.1305(6) 0.3286(3) 0.73862(7)
H16 H -0.03640 0.33810 0.74110
H17 H 0.16170 0.27820 0.72040
H18 H 0.20190 0.40120 0.73430
C18 C 0.1556(6) 0.5907(2) 0.80493(6)
H19 H 0.24860 0.60670 0.78560
H20 H 0.12440 0.66020 0.81660
H21 H 0.00950 0.55640 0.79830
C19 C 0.2059(4) 0.55791(17) 0.88477(5)
H22 H 0.37360 0.55700 0.88930
H23 H 0.16470 0.63380 0.87730
C20 C -0.1305(4) 0.57607(18) 0.91676(5)
C21 C -0.4447(4) 0.60881(19) 0.95624(5)
H24 H -0.49890 0.66690 0.94250
C22 C -0.5583(4) 0.58284(19) 0.98461(6)
C23 C -0.4902(4) 0.49737(19) 1.00501(6)
H25 H -0.57490 0.47880 1.02400
C24 C -0.2926(5) 0.44031(19) 0.99636(5)
C25 C -0.1687(4) 0.46304(19) 0.96846(5)
H26 H -0.03340 0.42210 0.96330
C26 C -0.2479(4) 0.54793(18) 0.94808(5)
N1 N 1.2140(4) -0.09981(16) 0.91070(5)
N2 N 0.5447(4) -0.14970(18) 0.83847(5)
N3 N -0.7618(4) 0.64989(17) 0.99398(5)
N4 N -0.2070(5) 0.35209(18) 1.01837(5)
O1 O 1.3082(3) -0.04209(14) 0.93128(4)
O2 O 1.2862(3) -0.19073(14) 0.90161(5)
O3 O 0.6161(4) -0.24295(14) 0.83253(4)
O4 O 0.3665(4) -0.11016(18) 0.82750(6)
O5 O 0.4291(3) 0.21709(13) 0.89515(4)
O6 O 0.7864(3) 0.27890(14) 0.90750(4)
O7 O 0.4119(3) 0.33354(14) 0.83973(4)
O8 O 0.1604(3) 0.35389(17) 0.79597(4)
O9 O 0.0810(3) 0.53338(13) 0.91476(3)
O10 O -0.2211(3) 0.63238(14) 0.89593(4)
O11 O -0.8405(3) 0.71544(15) 0.97409(5)
O12 O -0.8413(4) 0.63534(17) 1.02124(5)
O13 O -0.3478(4) 0.30727(15) 1.03652(4)
O14 O -0.0018(4) 0.33006(19) 1.01748(5)
#END
