
#######################################################################
#
#                 Cambridge Crystallographic Data Centre
#                                CCDC
#
#######################################################################
#
# If this CIF has been generated from an entry in the Cambridge
# Structural Database, then it will include bibliographic, chemical,
# crystal, experimental, refinement or atomic coordinate data resulting
# from the CCDC's data processing and validation procedures.
#
#######################################################################

data_CSD_CIF_UDOZUJ
_audit_creation_date 2007-09-11
_audit_creation_method CSD-ConQuest-V1
_database_code_CSD UDOZUJ
_database_code_depnum_ccdc_archive 'CCDC 651893'
_chemical_formula_sum 'C5 H6 N2 O5'
_chemical_formula_moiety
;
C5 H6 N2 O5
;
_journal_coden_Cambridge 35
_journal_volume 72
_journal_year 2007
_journal_page_first 3625
_journal_name_full 'J.Org.Chem. '
loop_
_publ_author_name
"D.S.Bohle"
"L.E.McQuade"
"I.Perepichka"
"Lijuan Zhang"
_chemical_name_systematic
;
methyl 2-methyl-5-oxo-2,5-dihydro-1,2,3-oxadiazole-4-carboxylate 3-oxide
;
_chemical_name_common
;
N-methyl 4-methylcarboxysydnone N'-oxide
;
_chemical_melting_point 324.15
_cell_volume   1428.272
_exptl_crystal_colour 'colorless'
_exptl_crystal_density_diffrn 1.62
_exptl_special_details
;
Melting point range 324.15-325.15K

;
_exptl_crystal_description 'prism'
_diffrn_ambient_temperature 293
#These two values have been output from a single CSD field.
_refine_ls_R_factor_gt 0.0404
_refine_ls_wR_factor_gt 0.0404
_symmetry_cell_setting monoclinic
_symmetry_space_group_name_H-M 'C 2/c'
_symmetry_Int_Tables_number 15
loop_
_symmetry_equiv_pos_site_id
_symmetry_equiv_pos_as_xyz
1 x,y,z
2 1/2+x,1/2+y,z
3 -x,y,1/2-z
4 1/2-x,1/2+y,1/2-z
5 -x,-y,-z
6 -1/2-x,-1/2-y,-z
7 x,-y,-1/2+z
8 -1/2+x,-1/2-y,-1/2+z
_cell_length_a 31.445(10)
_cell_length_b 4.8418(16)
_cell_length_c 9.487(3)
_cell_angle_alpha 90
_cell_angle_beta 98.570(5)
_cell_angle_gamma 90
_cell_formula_units_Z 8
loop_
_atom_type_symbol
_atom_type_radius_bond
C 0.68
H 0.23
N 0.68
O 0.68
loop_
_atom_site_label
_atom_site_type_symbol
_atom_site_fract_x
_atom_site_fract_y
_atom_site_fract_z
N1 N 0.08185(7) -0.2439(4) 0.12043(19)
N2 N 0.06573(6) -0.4711(4) 0.0315(2)
O1 O 0.05429(5) -0.0860(3) 0.15610(17)
O2 O 0.10330(5) -0.6039(3) -0.00204(16)
C1 C 0.12384(8) -0.2572(5) 0.1546(2)
C2 C 0.13930(9) -0.4825(5) 0.0749(3)
O3 O 0.17398(6) -0.5745(3) 0.06960(17)
C3 C 0.14821(8) -0.0660(5) 0.2578(2)
O4 O 0.13145(5) 0.1123(3) 0.31902(16)
O5 O 0.18961(5) -0.1193(3) 0.27053(16)
C4 C 0.21700(8) 0.0566(5) 0.3705(3)
H1 H 0.24650 0.00390 0.37250
H2 H 0.20920 0.03610 0.46400
H3 H 0.21330 0.24580 0.34090
C5 C 0.03936(8) -0.3802(5) -0.1010(3)
H4 H 0.01530 -0.26430 -0.08020
H5 H 0.05710 -0.26480 -0.15100
H6 H 0.02790 -0.54750 -0.15230
#END
