
#######################################################################
#
#                 Cambridge Crystallographic Data Centre
#                                CCDC
#
#######################################################################
#
# If this CIF has been generated from an entry in the Cambridge
# Structural Database, then it will include bibliographic, chemical,
# crystal, experimental, refinement or atomic coordinate data resulting
# from the CCDC's data processing and validation procedures.
#
#######################################################################

data_CSD_CIF_UDOZOD
_audit_creation_date 2007-09-11
_audit_creation_method CSD-ConQuest-V1
_database_code_CSD UDOZOD
_database_code_depnum_ccdc_archive 'CCDC 651892'
_chemical_formula_sum 'C5 H6 N2 O5'
_chemical_formula_moiety
;
C5 H6 N2 O5
;
_journal_coden_Cambridge 35
_journal_volume 72
_journal_year 2007
_journal_page_first 3625
_journal_name_full 'J.Org.Chem. '
loop_
_publ_author_name
"D.S.Bohle"
"L.E.McQuade"
"I.Perepichka"
"Lijuan Zhang"
_chemical_name_systematic
;
3-methoxy-4-(methoxycarbonyl)-5-oxo-4,5-dihydro-1,2,3-oxadiazol-3-ium-4-ide
;
_chemical_name_common
;
O-methyl 4-methylcarboxysydnone N-oxide
;
_chemical_melting_point 314.15
_cell_volume    682.172
_exptl_crystal_colour 'colorless'
_exptl_crystal_density_diffrn 1.695
_exptl_special_details
;
Melting point range 314.15-315.15K

;
_exptl_crystal_description 'flake'
_diffrn_ambient_temperature 100
#These two values have been output from a single CSD field.
_refine_ls_R_factor_gt 0.0603
_refine_ls_wR_factor_gt 0.0603
_symmetry_cell_setting orthorhombic
_symmetry_space_group_name_H-M 'P 21 21 21'
_symmetry_Int_Tables_number 19
loop_
_symmetry_equiv_pos_site_id
_symmetry_equiv_pos_as_xyz
1 x,y,z
2 1/2-x,-y,1/2+z
3 -x,1/2+y,1/2-z
4 1/2+x,1/2-y,-z
_cell_length_a 5.0184(7)
_cell_length_b 7.3717(10)
_cell_length_c 18.440(2)
_cell_angle_alpha 90
_cell_angle_beta 90
_cell_angle_gamma 90
_cell_formula_units_Z 4
loop_
_atom_type_symbol
_atom_type_radius_bond
C 0.68
H 0.23
N 0.68
O 0.68
loop_
_atom_site_label
_atom_site_type_symbol
_atom_site_fract_x
_atom_site_fract_y
_atom_site_fract_z
N1 N 1.0506(3) 0.9239(2) 0.59939(8)
N2 N 1.2356(3) 0.9679(2) 0.55374(9)
O1 O 0.8632(2) 1.04673(17) 0.61799(8)
O2 O 1.3863(3) 0.81183(18) 0.54672(7)
C1 C 1.0574(3) 0.7511(2) 0.62598(9)
C2 C 1.2807(3) 0.6714(2) 0.59127(10)
O3 O 1.3862(2) 0.52405(17) 0.59146(8)
C3 C 0.8909(3) 0.6684(3) 0.68127(10)
O4 O 0.9373(3) 0.51730(17) 0.70400(7)
O5 O 0.6895(3) 0.77377(16) 0.70370(7)
C4 C 0.5338(4) 0.6994(2) 0.76268(10)
H1 H 0.39210 0.78490 0.77580
H2 H 0.64930 0.67900 0.80470
H3 H 0.45440 0.58400 0.74750
C5 C 0.8740(4) 1.2114(2) 0.57416(9)
H4 H 0.73370 1.29510 0.58990
H5 H 0.84720 1.18020 0.52300
H6 H 1.04830 1.26930 0.58020
#END
