
#######################################################################
#
#                 Cambridge Crystallographic Data Centre
#                                CCDC
#
#######################################################################
#
# If this CIF has been generated from an entry in the Cambridge
# Structural Database, then it will include bibliographic, chemical,
# crystal, experimental, refinement or atomic coordinate data resulting
# from the CCDC's data processing and validation procedures.
#
#######################################################################

data_CSD_CIF_UDUDON
_audit_creation_date 2007-09-11
_audit_creation_method CSD-ConQuest-V1
_database_code_CSD UDUDON
_database_code_depnum_ccdc_archive 'CCDC 651899'
_chemical_formula_sum 'C17 H22 N4 O3'
_chemical_formula_moiety
;
C17 H22 N4 O3
;
_journal_coden_Cambridge 35
_journal_volume 72
_journal_year 2007
_journal_page_first 3929
_journal_name_full 'J.Org.Chem. '
loop_
_publ_author_name
"B.S.Bodnar"
"M.J.Miller"
_chemical_name_systematic
;
exo-syn-t-butyl 
(3a\a,4\b,7\b,7a\a)-1-benzyl-3a,4,7,7a-tetrahydro-4,7-methano[1,2,3]triazole[4
,5-d][1,2]oxazine-6(1H)-carboxylate
;
_chemical_melting_point 377.15
_cell_volume   1675.198
_exptl_crystal_colour 'colorless'
_exptl_crystal_density_diffrn 1.31
_exptl_special_details
;
Melting point range 377.15-378.15K

;
_exptl_crystal_description 'parallelepiped'
_exptl_crystal_preparation 'ethyl acetate/hexanes'
_diffrn_ambient_temperature 100
#These two values have been output from a single CSD field.
_refine_ls_R_factor_gt 0.0404
_refine_ls_wR_factor_gt 0.0404
_symmetry_cell_setting monoclinic
_symmetry_space_group_name_H-M 'P 21/c'
_symmetry_Int_Tables_number 14
loop_
_symmetry_equiv_pos_site_id
_symmetry_equiv_pos_as_xyz
1 x,y,z
2 -x,1/2+y,1/2-z
3 -x,-y,-z
4 x,-1/2-y,-1/2+z
_cell_length_a 10.7307(15)
_cell_length_b 18.003(3)
_cell_length_c 9.4773(14)
_cell_angle_alpha 90
_cell_angle_beta 113.798(7)
_cell_angle_gamma 90
_cell_formula_units_Z 4
loop_
_atom_type_symbol
_atom_type_radius_bond
C 0.68
H 0.23
N 0.68
O 0.68
loop_
_atom_site_label
_atom_site_type_symbol
_atom_site_fract_x
_atom_site_fract_y
_atom_site_fract_z
N1 N -0.13074(6) 0.90798(4) 1.01754(7)
N2 N -0.11561(6) 0.94255(3) 0.91018(7)
N3 N -0.04468(6) 0.90334(3) 0.84455(7)
N4 N 0.14012(6) 0.73663(3) 1.05377(7)
O1 O 0.08662(5) 0.74051(3) 1.17263(6)
O2 O 0.34410(5) 0.70923(3) 1.04592(7)
O3 O 0.26645(5) 0.64441(3) 1.20077(6)
C1 C 0.05468(7) 0.81876(4) 1.17718(8)
H1 H 0.04680 0.83430 1.27230
C2 C -0.07386(7) 0.83178(4) 1.03024(8)
H2 H -0.14300 0.79360 1.01570
C3 C -0.01695(7) 0.82797(4) 0.90456(7)
H3 H -0.06100 0.78990 0.82620
C4 C 0.13579(6) 0.81342(4) 0.99859(7)
H4 H 0.19510 0.82380 0.94490
C5 C 0.16577(7) 0.85838(4) 1.14575(8)
H5 H 0.25630 0.84980 1.22470
H6 H 0.14910 0.91120 1.12690
C6 C -0.05586(7) 0.92432(4) 0.69275(8)
H7 H 0.03000 0.91370 0.68570
H8 H -0.07040 0.97750 0.68100
C7 C -0.16884(7) 0.88590(4) 0.56031(8)
C8 C -0.28603(7) 0.85992(4) 0.57285(8)
H9 H -0.29510 0.86450 0.66600
C9 C -0.38975(8) 0.82720(5) 0.44707(9)
H10 H -0.46730 0.80960 0.45690
C10 C -0.37801(8) 0.82079(4) 0.30713(9)
H11 H -0.44770 0.79920 0.22290
C11 C -0.26158(8) 0.84676(5) 0.29364(9)
H12 H -0.25330 0.84290 0.20000
C12 C -0.15741(7) 0.87854(4) 0.41995(9)
H13 H -0.07900 0.89510 0.41050
C13 C 0.26265(7) 0.69758(4) 1.10180(8)
C14 C 0.37815(7) 0.58912(4) 1.25322(8)
C15 C 0.38293(10) 0.54772(5) 1.11608(11)
H14 H 0.29340 0.53010 1.05190
H15 H 0.44400 0.50630 1.15190
H16 H 0.41450 0.58050 1.05770
C16 C 0.33454(8) 0.53760(5) 1.35188(10)
H17 H 0.33400 0.56450 1.43920
H18 H 0.39720 0.49680 1.38700
H19 H 0.24480 0.51900 1.29190
C17 C 0.51072(8) 0.62796(5) 1.34853(10)
H20 H 0.53430 0.66120 1.28390
H21 H 0.58150 0.59170 1.39240
H22 H 0.50040 0.65570 1.42970
#END
