
#######################################################################
#
#                 Cambridge Crystallographic Data Centre
#                                CCDC
#
#######################################################################
#
# If this CIF has been generated from an entry in the Cambridge
# Structural Database, then it will include bibliographic, chemical,
# crystal, experimental, refinement or atomic coordinate data resulting
# from the CCDC's data processing and validation procedures.
#
#######################################################################

data_CSD_CIF_UDUDUT
_audit_creation_date 2007-09-11
_audit_creation_method CSD-ConQuest-V1
_database_code_CSD UDUDUT
_database_code_depnum_ccdc_archive 'CCDC 651900'
_chemical_formula_sum 'C17 H22 N4 O3'
_chemical_formula_moiety
;
C17 H22 N4 O3
;
_journal_coden_Cambridge 35
_journal_volume 72
_journal_year 2007
_journal_page_first 3929
_journal_name_full 'J.Org.Chem. '
loop_
_publ_author_name
"B.S.Bodnar"
"M.J.Miller"
_chemical_name_systematic
;
exo-anti-t-butyl 
(3a\a,4\b,7\b,7a\a)-3-benzyl-3a,4,7,7a-tetrahydro-4,7-methano[1,2,3]triazole[4
,5-d][1,2]oxazine-6(3H)-carboxylate
;
_chemical_melting_point 373.15
_cell_volume    802.606
_exptl_crystal_density_diffrn 1.367
_exptl_special_details
;
Melting point range 373.15-374.15K

;
_exptl_crystal_description 'needle'
_exptl_crystal_preparation 'ethyl acetate/hexanes'
_diffrn_ambient_temperature 100
_refine_special_details
;
Four C atoms and two N atoms are disordered over two sites with occupancies 
of 0.921:0.079.
;
#These two values have been output from a single CSD field.
_refine_ls_R_factor_gt 0.0394
_refine_ls_wR_factor_gt 0.0394
_symmetry_cell_setting triclinic
_symmetry_space_group_name_H-M 'P -1'
_symmetry_Int_Tables_number 2
loop_
_symmetry_equiv_pos_site_id
_symmetry_equiv_pos_as_xyz
1 x,y,z
2 -x,-y,-z
_cell_length_a 5.6782(2)
_cell_length_b 12.3245(4)
_cell_length_c 12.3822(4)
_cell_angle_alpha 108.048(2)
_cell_angle_beta 102.326(2)
_cell_angle_gamma 90.219(2)
_cell_formula_units_Z 2
loop_
_atom_type_symbol
_atom_type_radius_bond
C 0.68
H 0.23
N 0.68
O 0.68
loop_
_atom_site_label
_atom_site_type_symbol
_atom_site_fract_x
_atom_site_fract_y
_atom_site_fract_z
O1 O 0.38781(14) -0.04162(7) 0.81496(6)
O2 O 0.29083(15) -0.08926(7) 0.51328(7)
O3 O 0.13158(13) -0.17775(6) 0.62013(6)
N1 N 0.88481(17) 0.18193(8) 0.98830(8)
N2 N 0.97698(19) 0.24123(9) 0.92595(9)
N3 N 0.84055(19) 0.23137(9) 0.82809(9)
N4 N 0.35820(19) -0.00849(9) 0.70885(8)
C1 C 0.6342(2) -0.00049(9) 0.87714(10)
H1 H 0.70250 -0.03720 0.93750
C2 C 0.6396(2) 0.13089(9) 0.92447(10)
H2 H 0.51170 0.15920 0.96850
C3 C 0.6114(3) 0.16338(10) 0.81124(11)
H3 H 0.46570 0.20670 0.79710
C4 C 0.59580(19) 0.04749(9) 0.71742(9)
H4 H 0.62800 0.05010 0.64190
C5 C 0.7688(2) -0.02067(10) 0.77993(10)
H5 H 0.76460 -0.10240 0.73360
H6 H 0.93710 0.01410 0.80730
C6 C 0.93086(19) 0.24247(9) 1.11409(9)
H7 H 1.10490 0.26780 1.14340
H8 H 0.89310 0.18850 1.15400
C7 C 0.78473(19) 0.34562(9) 1.14559(9)
C8 C 0.6082(2) 0.34652(9) 1.20854(10)
H9 H 0.58180 0.28270 1.23330
C9 C 0.4702(2) 0.44039(10) 1.23546(10)
H10 H 0.35150 0.44050 1.27910
C10 C 0.5054(2) 0.53364(10) 1.1988(1)
H11 H 0.40800 0.59660 1.21540
C11 C 0.6840(2) 0.53442(10) 1.13765(10)
H12 H 0.71060 0.59860 1.11350
C12 C 0.8236(2) 0.44151(10) 1.11183(10)
H13 H 0.94660 0.44300 1.07090
C13 C 0.26449(19) -0.09687(9) 0.60479(9)
C14 C -0.01632(18) -0.26493(9) 0.51403(9)
C15 C -0.1869(2) -0.20661(10) 0.44083(10)
H14 H -0.26530 -0.14760 0.49160
H15 H -0.31020 -0.26340 0.38350
H16 H -0.09520 -0.17120 0.40020
C16 C -0.1558(2) -0.33412(10) 0.56534(10)
H17 H -0.04210 -0.36490 0.61800
H18 H -0.25370 -0.39740 0.50230
H19 H -0.26170 -0.28480 0.60890
C17 C 0.1493(2) -0.34048(10) 0.44628(11)
H20 H 0.24110 -0.29470 0.41490
H21 H 0.05210 -0.40290 0.38200
H22 H 0.26150 -0.37240 0.49830
N5? N 1.004(3) 0.1644(11) 0.8282(12)
N6? N 0.482(2) -0.0530(11) 0.7088(10)
C18? C 0.510(3) 0.0751(12) 0.8896(13)
H23? H 0.43880 0.10990 0.95880
C19? C 0.781(3) 0.0714(12) 0.9228(13)
H24? H 0.83560 0.01080 0.95870
C20? C 0.850(3) 0.0559(13) 0.8012(14)
H25? H 0.93940 -0.01390 0.77610
C21? C 0.471(5) 0.1449(15) 0.8040(15)
H26? H 0.56340 0.22060 0.83520
H27? H 0.29900 0.15190 0.77120
#END
