
#######################################################################
#
#                 Cambridge Crystallographic Data Centre
#                                CCDC
#
#######################################################################
#
# If this CIF has been generated from an entry in the Cambridge
# Structural Database, then it will include bibliographic, chemical,
# crystal, experimental, refinement or atomic coordinate data resulting
# from the CCDC's data processing and validation procedures.
#
#######################################################################

data_CSD_CIF_UDUGIM
_audit_creation_date 2018-07-30
_audit_creation_method CSD-ConQuest-V1
_database_code_CSD UDUGIM
_database_code_depnum_ccdc_archive 'CCDC 1836144'
_chemical_formula_sum 'C19 H22 N2 O1'
_chemical_formula_moiety
;
C19 H22 N2 O1
;
_journal_coden_Cambridge 16
_journal_volume 74
_journal_year 2018
_journal_page_first 5665
_journal_name_full 'Tetrahedron '
loop_
_publ_author_name
"K.K.Afanaseva"
"M.M.Efremova"
"S.V.Kuznetsova"
"A.V.Ivanov"
"G.L.Starova"
"A.P.Molchanov"
_chemical_name_systematic
;
9-methyl-5,11,12,13,14,15b-hexahydro-6H,9H-indolo[2',1':4,5][1,2,5]oxadiazino[
3,2-a]isoquinoline
;
_cell_volume   1527.477
_exptl_crystal_colour 'colorless'
_exptl_crystal_density_diffrn 1.28
_exptl_crystal_description 'prism'
_diffrn_ambient_temperature 100
#These two values have been output from a single CSD field.
_refine_ls_R_factor_gt 0.0591
_refine_ls_wR_factor_gt 0.0591
_symmetry_cell_setting monoclinic
_symmetry_space_group_name_H-M 'P 21/c'
_symmetry_Int_Tables_number 14
loop_
_symmetry_equiv_pos_site_id
_symmetry_equiv_pos_as_xyz
1 x,y,z
2 -x,1/2+y,1/2-z
3 -x,-y,-z
4 x,-1/2-y,-1/2+z
_cell_length_a 8.5732(3)
_cell_length_b 18.8686(5)
_cell_length_c 9.5700(3)
_cell_angle_alpha 90
_cell_angle_beta 99.359(3)
_cell_angle_gamma 90
_cell_formula_units_Z 4
loop_
_atom_type_symbol
_atom_type_radius_bond
C 0.68
H 0.23
N 0.68
O 0.68
loop_
_atom_site_label
_atom_site_type_symbol
_atom_site_fract_x
_atom_site_fract_y
_atom_site_fract_z
O1 O 0.46689(15) 0.32921(7) 0.38424(15)
N1 N 0.69570(17) 0.33509(8) 0.55100(17)
N2 N 0.45218(18) 0.40649(8) 0.40364(18)
C1 C 0.5323(3) 0.41387(11) 0.1239(2)
C2 C 0.6496(2) 0.42938(9) 0.2397(2)
C3 C 0.8049(3) 0.4407(1) 0.2179(2)
H1 H 0.88237 0.45193 0.29444
C4 C 0.7297(4) 0.41809(12) -0.0317(3)
H2 H 0.75611 0.41307 -0.12170
C5 C 0.7257(2) 0.40180(9) 0.5035(2)
C6 C 0.9283(2) 0.36775(10) 0.6715(2)
C7 C 0.5758(3) 0.40848(12) -0.0108(2)
H3 H 0.49861 0.39813 -0.08819
C8 C 0.4435(2) 0.30732(11) 0.6316(2)
H4 H 0.43358 0.35647 0.65456
H5 H 0.49419 0.28225 0.71389
H6 H 0.34045 0.28761 0.60064
C9 C 0.6080(2) 0.43595(9) 0.3895(2)
H7 H 0.60560 0.48661 0.41161
C10 C 1.0002(3) 0.23315(13) 0.8011(3)
H8 H 1.00405 0.19471 0.86889
H9 H 1.06177 0.21910 0.72916
C11 C 0.8180(2) 0.31453(10) 0.6544(2)
C12 C 0.8454(3) 0.43538(11) 0.0829(3)
H10 H 0.94900 0.44333 0.06955
C13 C 0.5419(2) 0.30042(9) 0.5142(2)
H11 H 0.56031 0.24988 0.49969
C14 C 0.3631(3) 0.40220(11) 0.1421(2)
H12 H 0.33874 0.35207 0.13214
H13 H 0.29418 0.42721 0.06779
C15 C 0.8287(2) 0.24535(11) 0.7317(2)
H14 H 0.79404 0.20715 0.66611
H15 H 0.76074 0.24619 0.80344
C16 C 1.0787(2) 0.36230(11) 0.7758(2)
H16 H 1.09457 0.40560 0.83090
H17 H 1.16730 0.35680 0.72522
C17 C 0.8692(2) 0.42327(10) 0.5761(2)
H18 H 0.91900 0.46624 0.56514
C18 C 0.3304(2) 0.42766(11) 0.2855(2)
H19 H 0.32242 0.47894 0.28399
H20 H 0.22936 0.40886 0.30118
C19 C 1.0732(3) 0.29876(13) 0.8759(3)
H21 H 1.17992 0.28774 0.92152
H22 H 1.01284 0.31197 0.94930
#END
