
#######################################################################
#
#                 Cambridge Crystallographic Data Centre
#                                CCDC
#
#######################################################################
#
# If this CIF has been generated from an entry in the Cambridge
# Structural Database, then it will include bibliographic, chemical,
# crystal, experimental, refinement or atomic coordinate data resulting
# from the CCDC's data processing and validation procedures.
#
#######################################################################

data_CSD_CIF_UDUQUG
_audit_creation_date 2007-09-12
_audit_creation_method CSD-ConQuest-V1
_database_code_CSD UDUQUG
_database_code_depnum_ccdc_archive 'CCDC 258085'
_chemical_formula_sum 'C5 H7 N3 O3'
_chemical_formula_moiety
;
C5 H7 N3 O3
;
_journal_coeditor_code "IUCr FB2054"
_journal_coden_Cambridge 1370
_journal_volume 63
_journal_year 2007
_journal_page_first o3120
_journal_name_full 'Acta Crystallogr.,Sect.E:Struct.Rep.Online '
loop_
_publ_author_name
"M.Kubicki"
"P.Wagner"
_chemical_name_systematic
;
2-Methoxy-1-methyl-4-nitro-1H-imidazole
;
_cell_volume    678.239
_exptl_crystal_colour 'colorless'
_exptl_crystal_density_diffrn 1.539
_exptl_crystal_description 'prism'
_exptl_crystal_preparation 'petroleum ether-acetone'
_diffrn_ambient_temperature 90.0
#These two values have been output from a single CSD field.
_refine_ls_R_factor_gt 0.0333
_refine_ls_wR_factor_gt 0.0333
_symmetry_cell_setting monoclinic
_symmetry_space_group_name_H-M 'P 21/c'
_symmetry_Int_Tables_number 14
loop_
_symmetry_equiv_pos_site_id
_symmetry_equiv_pos_as_xyz
1 x,y,z
2 -x,1/2+y,1/2-z
3 -x,-y,-z
4 x,-1/2-y,-1/2+z
_cell_length_a 3.9935(4)
_cell_length_b 15.4223(13)
_cell_length_c 11.1724(8)
_cell_angle_alpha 90
_cell_angle_beta 99.710(7)
_cell_angle_gamma 90
_cell_formula_units_Z 4
loop_
_atom_type_symbol
_atom_type_radius_bond
C 0.68
H 0.23
N 0.68
O 0.68
loop_
_atom_site_label
_atom_site_type_symbol
_atom_site_fract_x
_atom_site_fract_y
_atom_site_fract_z
N1 N 0.9835(2) 0.86207(6) 0.74562(7)
C1 C 1.0726(3) 0.93772(7) 0.82410(9)
H1 H 0.915(4) 0.9850(9) 0.8026(12)
H2 H 1.295(4) 0.9564(10) 0.8185(13)
H3 H 1.060(4) 0.9218(11) 0.9051(15)
C2 C 1.0365(2) 0.85322(6) 0.62825(8)
O1 O 1.19492(18) 0.91689(5) 0.57922(6)
C3 C 1.2306(3) 0.90098(7) 0.45370(9)
H4 H 1.008(3) 0.8990(9) 0.4044(12)
H5 H 1.356(3) 0.8470(9) 0.4504(12)
H6 H 1.361(4) 0.9506(10) 0.4307(13)
N2 N 0.9215(2) 0.78040(5) 0.57663(7)
C4 C 0.7856(2) 0.74043(6) 0.66772(8)
N3 N 0.6282(2) 0.65768(6) 0.64766(7)
O2 O 0.6293(2) 0.62136(5) 0.54923(7)
O3 O 0.49664(19) 0.62600(5) 0.73091(7)
C5 C 0.8197(2) 0.78822(6) 0.77259(8)
H7 H 0.760(3) 0.7775(9) 0.8489(12)
#END
