
#######################################################################
#
#                 Cambridge Crystallographic Data Centre
#                                CCDC
#
#######################################################################
#
# If this CIF has been generated from an entry in the Cambridge
# Structural Database, then it will include bibliographic, chemical,
# crystal, experimental, refinement or atomic coordinate data resulting
# from the CCDC's data processing and validation procedures.
#
#######################################################################

data_CSD_CIF_UDUROB
_audit_creation_date 2007-09-12
_audit_creation_method CSD-ConQuest-V1
_database_code_CSD UDUROB
_database_code_depnum_ccdc_archive 'CCDC 655598'
_chemical_formula_sum 'C26 H23 N3 O8'
_chemical_formula_moiety
;
C26 H23 N3 O8
;
_journal_coeditor_code "IUCr OM2126"
_journal_coden_Cambridge 1370
_journal_volume 63
_journal_year 2007
_journal_page_first o3176
_journal_name_full 'Acta Crystallogr.,Sect.E:Struct.Rep.Online '
loop_
_publ_author_name
"Feng-Xia Sun"
"Xiao-He Chu"
"Xiang-Min Chen"
_chemical_name_systematic
;
3-(2-(1,3-Dioxo-2,3-dihydro-1H-isoindol-2-yl)ethyl) 5-methyl 
2,6-dimethyl-4-(3-nitrophenyl)-1,4-dihydropyridine-3,5-dicarboxylate
;
_chemical_melting_point 516.15
_cell_volume   2272.928
_exptl_crystal_colour 'yellow'
_exptl_crystal_density_diffrn 1.474
_exptl_special_details
;
Melting point range 516.15-517.15K

;
_exptl_crystal_description 'block'
_exptl_crystal_preparation 'ethyl acetate/petroleum ether'
_diffrn_ambient_temperature 293
#These two values have been output from a single CSD field.
_refine_ls_R_factor_gt 0.0456
_refine_ls_wR_factor_gt 0.0456
_symmetry_cell_setting monoclinic
_symmetry_space_group_name_H-M 'P 21/n'
_symmetry_Int_Tables_number 14
loop_
_symmetry_equiv_pos_site_id
_symmetry_equiv_pos_as_xyz
1 x,y,z
2 1/2-x,1/2+y,1/2-z
3 -x,-y,-z
4 -1/2+x,-1/2-y,-1/2+z
_cell_length_a 7.7713(16)
_cell_length_b 16.372(3)
_cell_length_c 17.945(4)
_cell_angle_alpha 90
_cell_angle_beta 95.43(3)
_cell_angle_gamma 90
_cell_formula_units_Z 4
loop_
_atom_type_symbol
_atom_type_radius_bond
C 0.68
H 0.23
N 0.68
O 0.68
loop_
_atom_site_label
_atom_site_type_symbol
_atom_site_fract_x
_atom_site_fract_y
_atom_site_fract_z
O1 O 0.49383(17) 0.38716(8) 0.52148(7)
O2 O 0.21767(16) 0.34959(8) 0.49192(7)
O3 O -0.22762(16) 0.13687(9) 0.55571(8)
O4 O -0.15986(17) 0.02564(8) 0.61640(8)
O5 O 0.01803(15) 0.14288(7) 0.32204(7)
O6 O 0.19557(14) 0.08248(7) 0.24663(7)
O7 O 0.48119(16) -0.02815(8) 0.13320(7)
O8 O 0.06068(15) -0.14941(8) 0.25700(8)
N1 N 0.61576(19) 0.19920(9) 0.36933(8)
N2 N -0.12398(18) 0.08343(9) 0.57705(8)
N3 N 0.23954(17) -0.07506(9) 0.18687(8)
C1 C 0.7467(2) 0.31005(11) 0.44434(10)
H1 H 0.72340 0.36710 0.43630
H2 H 0.84020 0.29370 0.41630
H3 H 0.77790 0.30040 0.49660
C2 C 0.5881(2) 0.26132(10) 0.41896(10)
C3 C 0.4268(2) 0.27317(10) 0.43928(9)
C4 C 0.2811(2) 0.21423(10) 0.41495(9)
H4 H 0.17580 0.24630 0.40240
C5 C 0.3193(2) 0.16685(10) 0.34544(9)
C6 C 0.4839(2) 0.15767(10) 0.32777(10)
C7 C 0.5472(2) 0.10637(11) 0.26678(10)
H5 H 0.52370 0.04990 0.27600
H6 H 0.66940 0.11400 0.26580
H7 H 0.48890 0.12230 0.21950
C8 C 0.3901(2) 0.34176(11) 0.48782(10)
C9 C 0.1646(3) 0.41683(12) 0.53670(11)
H8 H 0.20160 0.40690 0.58850
H9 H 0.04100 0.42170 0.53040
H10 H 0.21590 0.46650 0.52100
C10 C 0.2465(2) 0.15458(10) 0.47756(9)
C11 C 0.0819(2) 0.14706(10) 0.50058(10)
H11 H -0.00750 0.18030 0.48020
C12 C 0.0524(2) 0.08944(10) 0.55433(9)
C13 C 0.1800(2) 0.03819(11) 0.58675(10)
H12 H 0.15600 -0.00090 0.62190
C14 C 0.3446(2) 0.04740(11) 0.56474(10)
H13 H 0.43430 0.01500 0.58620
C15 C 0.3767(2) 0.10468(11) 0.51081(10)
H14 H 0.48820 0.10980 0.49650
C16 C 0.1640(2) 0.13082(10) 0.30507(9)
C17 C 0.0471(2) 0.03969(11) 0.21084(10)
H15 H -0.03530 0.07820 0.18680
H16 H -0.00980 0.00870 0.24750
C18 C 0.1126(2) -0.01691(11) 0.15341(10)
H17 H 0.01590 -0.04660 0.12830
H18 H 0.16470 0.01520 0.11610
C19 C 0.4159(2) -0.07257(10) 0.1766(1)
C20 C 0.4994(2) -0.13393(10) 0.22918(9)
C21 C 0.6719(2) -0.15324(11) 0.24496(10)
H19 H 0.75680 -0.12840 0.21960
C22 C 0.7138(2) -0.21128(11) 0.30038(10)
H20 H 0.82880 -0.22560 0.31250
C23 C 0.5864(2) -0.24808(11) 0.33774(10)
H21 H 0.61800 -0.28680 0.37440
C24 C 0.4130(2) -0.22880(11) 0.32195(10)
H22 H 0.32790 -0.25370 0.34710
C25 C 0.3725(2) -0.17085(10) 0.26712(10)
C26 C 0.2036(2) -0.13412(11) 0.23925(10)
H23 H 0.724(3) 0.1938(13) 0.3578(12)
#END
