
#######################################################################
#
#                 Cambridge Crystallographic Data Centre
#                                CCDC
#
#######################################################################
#
# If this CIF has been generated from an entry in the Cambridge
# Structural Database, then it will include bibliographic, chemical,
# crystal, experimental, refinement or atomic coordinate data resulting
# from the CCDC's data processing and validation procedures.
#
#######################################################################

data_CSD_CIF_UFAJOB
_audit_creation_date 2007-09-12
_audit_creation_method CSD-ConQuest-V1
_database_code_CSD UFAJOB
_database_code_depnum_ccdc_archive 'CCDC 659074'
_chemical_formula_sum 'C15 H13 N3 O1'
_chemical_formula_moiety
;
C15 H13 N3 O1
;
_journal_coeditor_code "IUCr XU2293"
_journal_coden_Cambridge 1370
_journal_volume 63
_journal_year 2007
_journal_page_first o3463
_journal_name_full 'Acta Crystallogr.,Sect.E:Struct.Rep.Online '
loop_
_publ_author_name
"O.O.Guven"
"T.Erdogan"
"N.Caylak"
"T.Hokelek"
_chemical_name_systematic
;
2-(1H-Benzimidazol-1-yl)-1-phenylethanone oxime
;
_chemical_melting_point 465
_cell_volume   1326.324
_exptl_crystal_colour 'colorless'
_exptl_crystal_density_diffrn 1.258
_exptl_special_details
;
Melting point range 465-468K

;
_exptl_crystal_description 'block'
_exptl_crystal_preparation 'methanol'
_diffrn_ambient_temperature 294
#These two values have been output from a single CSD field.
_refine_ls_R_factor_gt 0.045
_refine_ls_wR_factor_gt 0.045
_symmetry_cell_setting orthorhombic
_symmetry_space_group_name_H-M 'P n a 21'
_symmetry_Int_Tables_number 33
loop_
_symmetry_equiv_pos_site_id
_symmetry_equiv_pos_as_xyz
1 x,y,z
2 -x,-y,1/2+z
3 1/2-x,1/2+y,1/2+z
4 1/2+x,1/2-y,z
_cell_length_a 9.3295(1)
_cell_length_b 11.2863(2)
_cell_length_c 12.5962(2)
_cell_angle_alpha 90
_cell_angle_beta 90
_cell_angle_gamma 90
_cell_formula_units_Z 4
loop_
_atom_type_symbol
_atom_type_radius_bond
C 0.68
H 0.23
N 0.68
O 0.68
loop_
_atom_site_label
_atom_site_type_symbol
_atom_site_fract_x
_atom_site_fract_y
_atom_site_fract_z
O1 O 0.3005(7) 1.2486(4) 0.6439(4)
N1 N 0.2400(7) 0.8842(4) 0.9744(4)
N2 N 0.3004(6) 1.0208(4) 0.8558(4)
N3 N 0.3436(6) 1.1408(5) 0.6026(5)
C1 C 0.1192(7) 0.9178(5) 0.9184(5)
C2 C -0.0212(9) 0.8795(6) 0.9275(7)
C3 C -0.1197(9) 0.9278(7) 0.8627(7)
C4 C -0.0845(9) 1.0144(8) 0.7884(7)
C5 C 0.0541(8) 1.0552(6) 0.7774(5)
C6 C 0.1554(7) 1.0039(5) 0.8440(5)
C7 C 0.3432(10) 0.9469(6) 0.9337(5)
C8 C 0.3909(10) 1.1002(7) 0.7907(6)
C9 C 0.3845(6) 1.0686(5) 0.6770(5)
C10 C 0.4210(7) 0.9465(5) 0.6408(5)
C11 C 0.5217(9) 0.8793(7) 0.6923(7)
C12 C 0.5529(10) 0.7643(9) 0.6562(8)
C13 C 0.4857(11) 0.7195(8) 0.5701(8)
C14 C 0.3855(9) 0.7856(7) 0.5190(7)
C15 C 0.3517(7) 0.8977(6) 0.5544(6)
H1 H 0.261(7) 1.288(5) 0.592(4)
H2 H -0.04660 0.82200 0.97690
H3 H -0.21440 0.90260 0.86770
H4 H -0.15610 1.04550 0.74510
H5 H 0.07830 1.11350 0.72850
H6 H 0.437(7) 0.951(5) 0.959(5)
H7 H 0.56940 0.90980 0.75110
H8 H 0.62040 0.71870 0.69200
H9 H 0.50790 0.64390 0.54590
H10 H 0.33930 0.75500 0.45960
H11 H 0.28120 0.94110 0.51960
H12 H 0.484(6) 1.088(5) 0.817(5)
H13 H 0.361(6) 1.180(5) 0.806(5)
#END
