
#######################################################################
#
#                 Cambridge Crystallographic Data Centre
#                                CCDC
#
#######################################################################
#
# If this CIF has been generated from an entry in the Cambridge
# Structural Database, then it will include bibliographic, chemical,
# crystal, experimental, refinement or atomic coordinate data resulting
# from the CCDC's data processing and validation procedures.
#
#######################################################################

data_CSD_CIF_UFEFUG
_audit_creation_date 2002-04-16
_audit_creation_method CSD-ConQuest-V1
_database_code_CSD UFEFUG
_database_code_depnum_ccdc_archive 'CCDC 183032'
_chemical_formula_sum 'C18 H16 N4 O1'
_chemical_formula_moiety
;
C18 H16 N4 O1
;
_journal_coeditor_code "IUCr OA1128"
_journal_coden_Cambridge 591
_journal_volume 58
_journal_year 2002
_journal_page_first o183
_journal_name_full 'Acta Crystallogr.,Sect.C:Cryst.Struct.Commun. '
loop_
_publ_author_name
"M.Kaftory"
"V.Shteiman"
"M.Botoshansky"
_chemical_name_systematic
;
Dispiro(2H-benzimidazole-2,1'-cyclohexane-4',2''-(2H)benzimidazole)-1-oxide
;
_cell_volume   1449.280
_exptl_crystal_colour 'orange-red'
_exptl_crystal_density_diffrn 1.395
_exptl_crystal_description 'prism'
_diffrn_ambient_temperature 150
_refine_special_details
;
The O atom is disordered by symmetry.

;
#These two values have been output from a single CSD field.
_refine_ls_R_factor_gt 0.0425
_refine_ls_wR_factor_gt 0.0425
_symmetry_cell_setting orthorhombic
_symmetry_space_group_name_H-M 'C m c a'
_symmetry_Int_Tables_number 64
loop_
_symmetry_equiv_pos_site_id
_symmetry_equiv_pos_as_xyz
1 x,y,z
2 1/2+x,1/2+y,z
3 x,1/2+y,1/2-z
4 x,1/2-y,1/2+z
5 -x,y,z
6 1/2+x,y,1/2-z
7 1/2+x,-y,1/2+z
8 1/2-x,1/2+y,z
9 -x,-y,-z
10 -1/2-x,-1/2-y,-z
11 -x,-1/2-y,-1/2+z
12 -x,-1/2+y,-1/2-z
13 x,-y,-z
14 -1/2-x,-y,-1/2+z
15 -1/2-x,y,-1/2-z
16 -1/2+x,-1/2-y,-z
_cell_length_a 6.774(2)
_cell_length_b 15.875(3)
_cell_length_c 13.477(3)
_cell_angle_alpha 90
_cell_angle_beta 90
_cell_angle_gamma 90
_cell_formula_units_Z 4
loop_
_atom_type_symbol
_atom_type_radius_bond
C 0.68
H 0.23
N 0.68
O 0.68
loop_
_atom_site_label
_atom_site_type_symbol
_atom_site_fract_x
_atom_site_fract_y
_atom_site_fract_z
O1 O 0.00000 0.02025(17) 0.2498(2)
N1 N 0.00000 0.07428(11) 0.19275(12)
N2 N 0.00000 0.14359(11) 0.03727(12)
C1 C 0.00000 0.15606(13) 0.20659(14)
C2 C 0.00000 0.20307(13) 0.29706(14)
C3 C 0.00000 0.28779(14) 0.28967(15)
C4 C 0.00000 0.33013(14) 0.19452(16)
C5 C 0.00000 0.28830(14) 0.10753(16)
C6 C 0.00000 0.19724(12) 0.11008(14)
C7 C 0.00000 0.06067(12) 0.08329(15)
C8 C 0.1861(2) 0.01152(10) 0.05516(10)
H1 H 0.00000 0.17580 0.35980
H2 H 0.00000 0.32060 0.34860
H3 H 0.00000 0.39000 0.19340
H4 H 0.00000 0.31780 0.04620
H5 H 0.30410 0.04600 0.07030
H6 H 0.19350 -0.04060 0.09540
C8L C 0.1861(2) -0.01152(10) -0.05516(10)
C7L C 0.00000 -0.06067(12) -0.08329(15)
N1L N 0.00000 -0.07428(11) -0.19275(12)
O1L O 0.00000 -0.02025(17) -0.2498(2)
C1L C 0.00000 -0.15606(13) -0.20659(14)
C2L C 0.00000 -0.20307(13) -0.29706(14)
C3L C 0.00000 -0.28779(14) -0.28967(15)
C4L C 0.00000 -0.33013(14) -0.19452(16)
C5L C 0.00000 -0.28830(14) -0.10753(16)
C6L C 0.00000 -0.19724(12) -0.11008(14)
N2L N 0.00000 -0.14359(11) -0.03727(12)
C8H C -0.1861(2) -0.01152(10) -0.05516(10)
C8D C -0.1861(2) 0.01152(10) 0.05516(10)
H5D H -0.30410 0.04600 0.07030
H6D H -0.19350 -0.04060 0.09540
H5H H -0.30410 -0.04600 -0.07030
H6H H -0.19350 0.04060 -0.09540
H4L H 0.00000 -0.31780 -0.04620
H3L H 0.00000 -0.39000 -0.19340
H2L H 0.00000 -0.32060 -0.34860
H1L H 0.00000 -0.17580 -0.35980
H5L H 0.30410 -0.04600 -0.07030
H6L H 0.19350 0.04060 -0.09540
#END
