
#######################################################################
#
#                 Cambridge Crystallographic Data Centre
#                                CCDC
#
#######################################################################
#
# If this CIF has been generated from an entry in the Cambridge
# Structural Database, then it will include bibliographic, chemical,
# crystal, experimental, refinement or atomic coordinate data resulting
# from the CCDC's data processing and validation procedures.
#
#######################################################################

data_CSD_CIF_UFEQIG
_audit_creation_date 2008-12-11
_audit_creation_method CSD-ConQuest-V1
_database_code_CSD UFEQIG
_database_code_depnum_ccdc_archive 'CCDC 665258'
_chemical_formula_sum 'C12 H19 N1 O3'
_chemical_formula_moiety
;
C12 H19 N1 O3
;
_journal_coden_Cambridge 1088
_journal_volume 2008
_journal_year 2008
_journal_page_first 1669
_journal_name_full 'Synlett '
loop_
_publ_author_name
"T.Jennequin"
"S.Labat"
"L.Toupet"
"J.-C.Caille"
"M.Mauduit"
_chemical_name_systematic
;
(2-(Methoxyimino)-6,6-dimethylbicyclo[3.1.1]hept-3-yl)acetic acid
;
_chemical_name_common
;
2-Acetic acid nopinone oxime methyl ether
;
_cell_volume   1230.198
_exptl_crystal_colour 'colorless'
_exptl_crystal_density_diffrn 1.216
_exptl_special_details
;
The cif gives a cell measurement temperature of 120 K

;
_exptl_crystal_description 'prism'
_diffrn_ambient_temperature 293
#These two values have been output from a single CSD field.
_refine_ls_R_factor_gt 0.0485
_refine_ls_wR_factor_gt 0.0485
_symmetry_cell_setting orthorhombic
_symmetry_space_group_name_H-M 'P 21 21 21'
_symmetry_Int_Tables_number 19
loop_
_symmetry_equiv_pos_site_id
_symmetry_equiv_pos_as_xyz
1 x,y,z
2 1/2-x,-y,1/2+z
3 1/2+x,1/2-y,-z
4 -x,1/2+y,1/2-z
_cell_length_a 7.8954(7)
_cell_length_b 10.267(1)
_cell_length_c 15.176(1)
_cell_angle_alpha 90
_cell_angle_beta 90
_cell_angle_gamma 90
_cell_formula_units_Z 4
loop_
_atom_type_symbol
_atom_type_radius_bond
C 0.68
H 0.23
N 0.68
O 0.68
loop_
_atom_site_label
_atom_site_type_symbol
_atom_site_fract_x
_atom_site_fract_y
_atom_site_fract_z
N1 N 0.00584(18) 0.88827(15) 0.6523(1)
O1 O 0.67432(16) 0.96764(14) 0.64684(10)
H1 H 0.79900 0.93740 0.65580
O2 O 0.60519(17) 0.78128(14) 0.71324(10)
O3 O 0.10558(16) 0.83175(13) 0.58445(9)
C1 C 0.5664(2) 0.8877(2) 0.68655(13)
C2 C 0.3904(2) 0.94467(19) 0.69164(13)
H2 H 0.34770 0.95850 0.63240
H3 H 0.39550 1.02860 0.72080
C3 C 0.2680(2) 0.85552(19) 0.74195(13)
H4 H 0.28060 0.76740 0.71810
C4 C 0.3092(2) 0.8494(2) 0.84284(13)
H5 H 0.32290 0.75900 0.85990
H6 H 0.41620 0.89330 0.85330
C5 C 0.1738(3) 0.91136(19) 0.90092(14)
H7 H 0.20290 0.91830 0.96350
C6 C -0.0064(2) 0.85491(18) 0.88119(13)
C7 C -0.0089(2) 0.95426(17) 0.80244(13)
H8 H -0.11910 0.99330 0.78880
C8 C 0.0859(2) 0.89814(18) 0.72595(12)
C9 C 0.1140(3) 1.03985(19) 0.85701(13)
H9 H 0.05830 1.09990 0.89690
H10 H 0.20030 1.08330 0.82230
C10 C -0.0224(3) 0.71113(19) 0.86030(14)
H11 H 0.05980 0.68760 0.81650
H12 H -0.13410 0.69350 0.83830
H13 H -0.00310 0.66120 0.91280
C11 C -0.1369(3) 0.8915(2) 0.95114(15)
H14 H -0.12710 0.98260 0.96460
H15 H -0.11720 0.84130 1.00350
H16 H -0.24870 0.87370 0.92930
C12 C 0.0135(3) 0.8406(2) 0.50292(13)
H17 H 0.07930 0.80270 0.45640
H18 H -0.00860 0.93040 0.48960
H19 H -0.09190 0.79470 0.50830
#END
