
#######################################################################
#
#                 Cambridge Crystallographic Data Centre
#                                CCDC
#
#######################################################################
#
# If this CIF has been generated from an entry in the Cambridge
# Structural Database, then it will include bibliographic, chemical,
# crystal, experimental, refinement or atomic coordinate data resulting
# from the CCDC's data processing and validation procedures.
#
#######################################################################

data_CSD_CIF_UFEQAX
_audit_creation_date 2002-09-01
_audit_creation_method CSD-ConQuest-V1
_database_code_CSD UFEQAX
_database_code_depnum_ccdc_archive 'CCDC 143146'
_chemical_formula_sum 'C9 H13 N5 O4'
_chemical_formula_moiety
;
C9 H13 N5 O4
;
_journal_coden_Cambridge 34
_journal_volume 37
_journal_year 2000
_journal_page_first 1357
_journal_name_full 'J.Heterocycl.Chem. '
loop_
_publ_author_name
"D.L.Ostercamp"
"S.Wiles"
_chemical_name_systematic
;
2,6,9-Trimethyl-4,8-dinitro-2,6,9-triazabicyclo(3.3.1)nona-3,7-diene
;
_chemical_melting_point 501.15
_cell_volume   2255.666
_exptl_crystal_colour 'yellow'
_exptl_crystal_density_diffrn 1.503
_exptl_special_details
;
Melting point range 501.15-503.15K

;
_exptl_crystal_description 'plate'
_exptl_crystal_preparation '2-butanone'
_diffrn_ambient_temperature 173
#These two values have been output from a single CSD field.
_refine_ls_R_factor_gt 0.0674
_refine_ls_wR_factor_gt 0.0674
_symmetry_cell_setting orthorhombic
_symmetry_space_group_name_H-M 'P b c a'
_symmetry_Int_Tables_number 61
loop_
_symmetry_equiv_pos_site_id
_symmetry_equiv_pos_as_xyz
1 x,y,z
2 1/2-x,-y,1/2+z
3 1/2+x,1/2-y,-z
4 -x,1/2+y,1/2-z
5 -x,-y,-z
6 -1/2+x,y,-1/2-z
7 -1/2-x,-1/2+y,z
8 x,-1/2-y,-1/2+z
_cell_length_a 8.6435(1)
_cell_length_b 11.9464(1)
_cell_length_c 21.8448(1)
_cell_angle_alpha 90
_cell_angle_beta 90
_cell_angle_gamma 90
_cell_formula_units_Z 8
loop_
_atom_type_symbol
_atom_type_radius_bond
C 0.68
H 0.23
N 0.68
O 0.68
loop_
_atom_site_label
_atom_site_type_symbol
_atom_site_fract_x
_atom_site_fract_y
_atom_site_fract_z
N1 N -0.1627(3) 0.1986(2) 0.4181(1)
C1 C -0.3153(4) 0.1474(3) 0.4292(2)
C2 C -0.1510(4) 0.2552(3) 0.3596(1)
C3 C 0.0022(4) 0.3140(3) 0.3603(2)
C4 C 0.1217(4) 0.2748(3) 0.3950(2)
N2 N 0.1091(3) 0.1814(2) 0.4277(1)
C5 C 0.2418(4) 0.1314(3) 0.4593(2)
C6 C -0.0369(4) 0.1171(3) 0.4240(2)
C7 C -0.0395(4) 0.0391(3) 0.3703(1)
C8 C -0.1083(4) 0.0703(3) 0.3158(2)
N3 N -0.1629(3) 0.1734(2) 0.3074(1)
C9 C -0.2471(5) 0.2057(3) 0.2520(2)
N4 N 0.0191(3) 0.4159(2) 0.3286(1)
O1 O -0.0921(3) 0.4515(2) 0.2981(1)
O2 O 0.1453(3) 0.4673(2) 0.3308(1)
N5 N 0.0090(3) -0.0716(2) 0.3776(1)
O3 O 0.0607(3) -0.1002(2) 0.4295(1)
O4 O 0.0004(3) -0.1401(2) 0.3350(1)
H1 H -0.3961(4) 0.2044(5) 0.4247(10)
H2 H -0.3185(10) 0.1166(17) 0.4707(4)
H3 H -0.3328(12) 0.0873(13) 0.3995(7)
H4 H -0.2358(4) 0.3118(3) 0.3561(1)
H5 H 0.2162(4) 0.3153(3) 0.3959(2)
H6 H 0.3244(11) 0.1873(6) 0.4631(9)
H7 H 0.2798(17) 0.0673(12) 0.4357(6)
H8 H 0.2101(8) 0.1064(17) 0.5001(4)
H9 H -0.0511(4) 0.0735(3) 0.4626(2)
H10 H -0.1167(4) 0.0171(3) 0.2837(2)
H11 H -0.2393(23) 0.1457(9) 0.2215(4)
H12 H -0.2023(18) 0.2746(11) 0.2352(6)
H13 H -0.3562(7) 0.2185(19) 0.2621(3)
#END
