
#######################################################################
#
#                 Cambridge Crystallographic Data Centre
#                                CCDC
#
#######################################################################
#
# If this CIF has been generated from an entry in the Cambridge
# Structural Database, then it will include bibliographic, chemical,
# crystal, experimental, refinement or atomic coordinate data resulting
# from the CCDC's data processing and validation procedures.
#
#######################################################################

data_CSD_CIF_UFIXEM
_audit_creation_date 2002-09-02
_audit_creation_method CSD-ConQuest-V1
_database_code_CSD UFIXEM
_database_code_depnum_ccdc_archive 'CCDC 186761'
_chemical_formula_sum 'C11 H8 N2 O1'
_chemical_formula_moiety
;
C11 H8 N2 O1
;
_journal_coden_Cambridge 639
_journal_volume 41
_journal_year 2002
_journal_page_first 360
_journal_name_full 'Indian J.Chem.,Sect.B:Org.Chem.Incl.Med.Chem. '
loop_
_publ_author_name
"A.Kumar"
"S.Malhotra"
"A.Vats"
"Himanshu"
"S.K.Singh"
"S.K.Sharma"
"A.K.Prasad"
"W.Errington"
"C.E.Olsen"
"S.C.Jain"
"V.S.Parmar"
_chemical_name_systematic
;
5-Cyanomethyl-3-phenylisoxazole
;
_chemical_melting_point 358.15
_cell_volume    894.140
_exptl_crystal_colour 'colorless'
_exptl_crystal_density_diffrn 1.368
_exptl_special_details
;
Melting point range 358.15-359.15K

;
_exptl_crystal_description 'needles'
_exptl_crystal_preparation 'ethyl acetate'
_diffrn_ambient_temperature 293
#These two values have been output from a single CSD field.
_refine_ls_R_factor_gt 0.0709
_refine_ls_wR_factor_gt 0.0709
_symmetry_cell_setting monoclinic
_symmetry_space_group_name_H-M 'P 21/c'
_symmetry_Int_Tables_number 14
loop_
_symmetry_equiv_pos_site_id
_symmetry_equiv_pos_as_xyz
1 x,y,z
2 x,1/2-y,1/2+z
3 -x,-y,-z
4 -x,-1/2+y,-1/2-z
_cell_length_a 21.7371(9)
_cell_length_b 5.7571(3)
_cell_length_c 7.1457(4)
_cell_angle_alpha 90
_cell_angle_beta 90.823(2)
_cell_angle_gamma 90
_cell_formula_units_Z 4
loop_
_atom_type_symbol
_atom_type_radius_bond
C 0.68
H 0.23
N 0.68
O 0.68
loop_
_atom_site_label
_atom_site_type_symbol
_atom_site_fract_x
_atom_site_fract_y
_atom_site_fract_z
O1 O 0.33307(11) 0.7100(4) 0.0815(4)
N1 N 0.44535(16) 1.4066(6) 0.1903(6)
N2 N 0.27175(13) 0.6953(5) 0.0199(4)
C1 C 0.14268(15) 0.7958(6) -0.0239(5)
H1 H 0.15290 0.65500 0.03230
C2 C 0.08240(16) 0.8376(6) -0.0755(5)
H2 H 0.05230 0.72690 -0.05290
C3 C 0.06691(16) 1.0468(7) -0.1619(5)
H3 H 0.02640 1.07620 -0.19830
C4 C 0.11209(17) 1.2103(6) -0.1932(5)
H4 H 0.10180 1.34990 -0.25110
C5 C 0.17230(16) 1.1690(6) -0.1395(5)
H5 H 0.20220 1.28130 -0.16040
C6 C 0.18861(15) 0.9592(6) -0.0539(4)
C7 C 0.25251(15) 0.9133(5) 0.0033(5)
C8 C 0.30047(15) 1.0713(6) 0.0526(5)
H6 H 0.29880 1.23270 0.05130
C9 C 0.34814(16) 0.9386(6) 0.1007(5)
C10 C 0.41239(16) 0.9740(7) 0.1734(6)
H7 H 0.41590 0.90770 0.29790
H8 H 0.44070 0.89150 0.09340
C11 C 0.43020(16) 1.2179(7) 0.1815(6)
#END
