
#######################################################################
#
#                 Cambridge Crystallographic Data Centre
#                                CCDC
#
#######################################################################
#
# If this CIF has been generated from an entry in the Cambridge
# Structural Database, then it will include bibliographic, chemical,
# crystal, experimental, refinement or atomic coordinate data resulting
# from the CCDC's data processing and validation procedures.
#
#######################################################################

data_CSD_CIF_UFOGUT
_audit_creation_date 2013-08-01
_audit_creation_method CSD-ConQuest-V1
_database_code_CSD UFOGUT
_database_code_depnum_ccdc_archive 'CCDC 936756'
_chemical_formula_sum 'C24 H22 N2 O5'
_chemical_formula_moiety
;
C24 H22 N2 O5
;
_journal_coden_Cambridge 177
_journal_volume 11
_journal_year 2013
_journal_page_first 5793
_journal_name_full 'Org.Biomol.Chem. '
loop_
_publ_author_name
"A.M.Hardman"
"S.S.So"
"A.E.Mattson"
_chemical_name_systematic
;
Methyl 4-nitro-2,3,6-triphenyl-1,2-oxazinane-4-carboxylate
;
_cell_volume   2038.632
_exptl_crystal_colour 'colorless'
_exptl_crystal_density_diffrn 1.363
_exptl_crystal_description 'rectangular block'
_diffrn_ambient_temperature 150
#These two values have been output from a single CSD field.
_refine_ls_R_factor_gt 0.0348
_refine_ls_wR_factor_gt 0.0348
loop_
_citation_database_id_CSD
_citation_special_details
UFOHAA "is a stereoisomer of this entry"
_symmetry_cell_setting orthorhombic
_symmetry_space_group_name_H-M 'P 21 21 21'
_symmetry_Int_Tables_number 19
loop_
_symmetry_equiv_pos_site_id
_symmetry_equiv_pos_as_xyz
1 x,y,z
2 1/2-x,-y,1/2+z
3 1/2+x,1/2-y,-z
4 -x,1/2+y,1/2-z
_cell_length_a 8.4338(1)
_cell_length_b 15.4596(3)
_cell_length_c 15.6357(3)
_cell_angle_alpha 90
_cell_angle_beta 90
_cell_angle_gamma 90
_cell_formula_units_Z 4
loop_
_atom_type_symbol
_atom_type_radius_bond
C 0.68
H 0.23
N 0.68
O 0.68
loop_
_atom_site_label
_atom_site_type_symbol
_atom_site_fract_x
_atom_site_fract_y
_atom_site_fract_z
C1 C 0.80427(16) 0.67984(9) 0.22388(9)
H1 H 0.87680 0.72560 0.24660
C2 C 0.70834(16) 0.64038(9) 0.29706(9)
H2 H 0.64910 0.68640 0.32730
H3 H 0.63080 0.59840 0.27390
C3 C 0.81954(16) 0.59487(9) 0.35931(8)
C4 C 0.93064(16) 0.52960(9) 0.31356(9)
H4 H 1.01480 0.51470 0.35610
C5 C 0.69893(16) 0.71734(9) 0.15586(9)
C6 C 0.59222(18) 0.66569(10) 0.11079(9)
H5 H 0.58770 0.60530 0.12180
C7 C 0.49274(19) 0.70195(11) 0.0501(1)
H6 H 0.42110 0.66620 0.01930
C8 C 0.4973(2) 0.79004(12) 0.03421(10)
H7 H 0.42850 0.81490 -0.00720
C9 C 0.60235(19) 0.84154(11) 0.07876(10)
H8 H 0.60560 0.90200 0.06810
C10 C 0.70323(18) 0.80553(9) 0.13905(10)
H9 H 0.77580 0.84140 0.16910
C11 C 0.92346(16) 0.65798(9) 0.41212(9)
C12 C 0.91943(19) 0.78730(11) 0.49317(11)
H10 H 0.98360 0.82380 0.45540
H11 H 0.98860 0.75810 0.53450
H12 H 0.84250 0.82330 0.52380
C13 C 0.85982(16) 0.44355(9) 0.28509(9)
C14 C 0.86489(19) 0.37489(10) 0.34272(10)
H13 H 0.90320 0.38460 0.39900
C15 C 0.81510(19) 0.29256(10) 0.31958(11)
H14 H 0.81790 0.24680 0.36010
C16 C 0.76124(18) 0.27742(10) 0.23714(12)
H15 H 0.72800 0.22110 0.22060
C17 C 0.75639(18) 0.34463(10) 0.17942(11)
H16 H 0.71970 0.33420 0.12290
C18 C 0.80432(17) 0.42768(10) 0.20241(9)
H17 H 0.79920 0.47340 0.16190
C19 C 1.13675(16) 0.54025(9) 0.20404(9)
C20 C 1.26543(17) 0.51255(9) 0.25328(10)
H18 H 1.26720 0.52330 0.31310
C21 C 1.39009(17) 0.46947(10) 0.21473(10)
H19 H 1.47590 0.44910 0.24860
C22 C 1.39112(18) 0.4557(1) 0.12747(10)
H20 H 1.47680 0.42580 0.10140
C23 C 1.26646(18) 0.48579(10) 0.07839(10)
H21 H 1.26830 0.47780 0.01820
C24 C 1.13844(18) 0.52768(10) 0.11616(9)
H22 H 1.05270 0.54760 0.08200
N1 N 1.00994(13) 0.58300(7) 0.24747(7)
N2 N 0.72216(14) 0.54658(7) 0.42705(8)
O1 O 0.89558(11) 0.61186(6) 0.18444(6)
O2 O 1.06258(12) 0.64904(7) 0.42534(7)
O3 O 0.83522(12) 0.72260(6) 0.44225(7)
O4 O 0.58014(12) 0.53861(7) 0.41699(7)
O5 O 0.79580(13) 0.51846(8) 0.48840(7)
#END
