
#######################################################################
#
#                 Cambridge Crystallographic Data Centre
#                                CCDC
#
#######################################################################
#
# If this CIF has been generated from an entry in the Cambridge
# Structural Database, then it will include bibliographic, chemical,
# crystal, experimental, refinement or atomic coordinate data resulting
# from the CCDC's data processing and validation procedures.
#
#######################################################################

data_CSD_CIF_UFOHEE
_audit_creation_date 2013-08-01
_audit_creation_method CSD-ConQuest-V1
_database_code_CSD UFOHEE
_database_code_depnum_ccdc_archive 'CCDC 941136'
_chemical_formula_sum 'C22 H20 N2 O3'
_chemical_formula_moiety
;
C22 H20 N2 O3
;
_journal_coden_Cambridge 177
_journal_volume 11
_journal_year 2013
_journal_page_first 5793
_journal_name_full 'Org.Biomol.Chem. '
loop_
_publ_author_name
"A.M.Hardman"
"S.S.So"
"A.E.Mattson"
_chemical_name_systematic
;
4-Nitro-2,3,6-triphenyl-1,2-oxazinane
;
_cell_volume    458.739
_exptl_crystal_colour 'colorless'
_exptl_crystal_density_diffrn 1.305
_exptl_crystal_description 'plate'
_diffrn_ambient_temperature 150
#These two values have been output from a single CSD field.
_refine_ls_R_factor_gt 0.0367
_refine_ls_wR_factor_gt 0.0367
_symmetry_cell_setting triclinic
_symmetry_space_group_name_H-M 'P 1'
_symmetry_Int_Tables_number 1
loop_
_symmetry_equiv_pos_site_id
_symmetry_equiv_pos_as_xyz
1 x,y,z
_cell_length_a 7.3566(2)
_cell_length_b 8.0059(2)
_cell_length_c 9.0060(2)
_cell_angle_alpha 65.624(1)
_cell_angle_beta 71.772(2)
_cell_angle_gamma 81.292(2)
_cell_formula_units_Z 1
loop_
_atom_type_symbol
_atom_type_radius_bond
C 0.68
H 0.23
N 0.68
O 0.68
loop_
_atom_site_label
_atom_site_type_symbol
_atom_site_fract_x
_atom_site_fract_y
_atom_site_fract_z
C1 C 0.0611(2) 0.28199(19) 0.22883(18)
H1 H 0.02700 0.28350 0.34480
C2 C -0.1096(2) 0.3505(2) 0.15468(19)
H2 H -0.15790 0.46900 0.16440
H3 H -0.06680 0.37220 0.03260
C3 C -0.2709(2) 0.2151(2) 0.24420(19)
H4 H -0.36270 0.25190 0.17370
C4 C -0.1985(2) 0.0173(2) 0.26760(18)
H5 H -0.30560 -0.06650 0.34880
C5 C 0.2380(2) 0.3917(2) 0.11746(18)
C6 C 0.3402(2) 0.3723(2) -0.03386(19)
H6 H 0.29760 0.29020 -0.06710
C7 C 0.5037(2) 0.4722(2) -0.1361(2)
H7 H 0.57380 0.45660 -0.23800
C8 C 0.5650(2) 0.5942(2) -0.0905(2)
H8 H 0.67630 0.66330 -0.16130
C9 C 0.4636(2) 0.6152(2) 0.0589(2)
H9 H 0.50510 0.69930 0.09060
C10 C 0.3011(2) 0.5135(2) 0.1627(2)
H10 H 0.23290 0.52760 0.26560
C11 C -0.1473(2) -0.00869(19) 0.09966(18)
C12 C -0.2917(2) 0.0229(2) 0.0202(2)
H11 H -0.41740 0.05590 0.07240
C13 C -0.2533(3) 0.0064(2) -0.1344(2)
H12 H -0.35160 0.03150 -0.18900
C14 C -0.0725(3) -0.0463(2) -0.2085(2)
H13 H -0.04610 -0.05710 -0.31450
C15 C 0.0704(3) -0.0836(3) -0.1287(2)
H14 H 0.19420 -0.12250 -0.17890
C16 C 0.0337(2) -0.0644(2) 0.0247(2)
H15 H 0.13280 -0.08950 0.07850
C17 C 0.0236(2) -0.1998(2) 0.42650(18)
C18 C -0.0903(2) -0.3514(2) 0.4866(2)
H16 H -0.21180 -0.33580 0.46570
C19 C -0.0257(2) -0.5254(2) 0.5773(2)
H17 H -0.10520 -0.62750 0.62010
C20 C 0.1518(3) -0.5518(2) 0.6059(2)
H18 H 0.19510 -0.67110 0.66760
C21 C 0.2660(3) -0.4022(3) 0.5433(2)
H19 H 0.38950 -0.41970 0.56070
C22 C 0.2034(2) -0.2268(2) 0.4556(2)
H20 H 0.28280 -0.12510 0.41540
N1 N -0.04666(16) -0.01879(16) 0.35074(15)
N2 N -0.37960(19) 0.2145(2) 0.41927(18)
O1 O 0.11236(14) 0.09751(13) 0.23739(12)
O2 O -0.5011(2) 0.0982(2) 0.50943(18)
O3 O -0.34535(17) 0.33071(19) 0.46079(17)
#END
