
#######################################################################
#
#                 Cambridge Crystallographic Data Centre
#                                CCDC
#
#######################################################################
#
# If this CIF has been generated from an entry in the Cambridge
# Structural Database, then it will include bibliographic, chemical,
# crystal, experimental, refinement or atomic coordinate data resulting
# from the CCDC's data processing and validation procedures.
#
#######################################################################

data_CSD_CIF_UFUGOS
_audit_creation_date 2008-12-11
_audit_creation_method CSD-ConQuest-V1
_database_code_CSD UFUGOS
_database_code_depnum_ccdc_archive 'CCDC 656369'
_chemical_formula_sum 'C15 H18 N2 O3'
_chemical_formula_moiety
;
C15 H18 N2 O3
;
_journal_coden_Cambridge 177
_journal_volume 6
_journal_year 2008
_journal_page_first 2868
_journal_name_full 'Org.Biomol.Chem. '
loop_
_publ_author_name
"J.Zezula"
"L.Singer"
"A.K.Przybyl"
"A.Hashimoto"
"C.M.Dersch"
"R.B.Rothman"
"J.Deschamps"
"Yong Sok Lee"
"A.E.Jacobson"
"K.C.Rice"
_chemical_name_systematic
;
(1S*,4aS*,9aS*)-2-methyl-6-nitro-1,2,3,4,4a,9a-hexahydro-1,4a-propanobenzofuro
[2,3-c]pyridine
;
_chemical_melting_point 446.15
_cell_volume   1353.768
_exptl_crystal_colour 'yellow'
_exptl_crystal_density_diffrn 1.346
_exptl_special_details
;
Melting point range 446.15-447.65K
Absolute configuration

;
_exptl_crystal_description 'prism'
_diffrn_ambient_temperature 93
#These two values have been output from a single CSD field.
_refine_ls_R_factor_gt 0.0419
_refine_ls_wR_factor_gt 0.0419
_symmetry_cell_setting orthorhombic
_symmetry_space_group_name_H-M 'P 21 21 21'
_symmetry_Int_Tables_number 19
loop_
_symmetry_equiv_pos_site_id
_symmetry_equiv_pos_as_xyz
1 x,y,z
2 1/2-x,-y,1/2+z
3 -x,1/2+y,1/2-z
4 1/2+x,1/2-y,-z
_cell_length_a 7.4315(16)
_cell_length_b 8.4430(18)
_cell_length_c 21.576(5)
_cell_angle_alpha 90
_cell_angle_beta 90
_cell_angle_gamma 90
_cell_formula_units_Z 4
loop_
_atom_type_symbol
_atom_type_radius_bond
C 0.68
H 0.23
N 0.68
O 0.68
loop_
_atom_site_label
_atom_site_type_symbol
_atom_site_fract_x
_atom_site_fract_y
_atom_site_fract_z
C1 C 0.8771(2) 0.0901(2) 0.82728(7)
H1 H 0.81530 0.02340 0.79540
N1 N 0.88950(19) -0.00323(16) 0.88569(6)
C2 C 0.9981(2) -0.14758(19) 0.87730(8)
H2 H 0.96090 -0.20150 0.83920
H3 H 0.98000 -0.21830 0.91280
H4 H 1.12560 -0.11890 0.87440
C3 C 0.9449(2) 0.08014(18) 0.94368(7)
H5 H 1.07610 0.10010 0.94220
H6 H 0.92090 0.01010 0.97960
C4 C 0.7138(2) 0.47533(19) 0.88645(8)
C5 C 0.8417(2) 0.33464(18) 0.89290(7)
C6 C 0.8459(2) 0.23978(19) 0.95375(8)
H7 H 0.72140 0.21950 0.96800
H8 H 0.90860 0.30190 0.98610
C7 C 0.6757(2) 0.60402(19) 0.92401(7)
H9 H 0.71990 0.61050 0.96530
C8 C 0.5682(2) 0.72513(19) 0.89817(8)
N2 N 0.5280(2) 0.86423(17) 0.93673(7)
O1 O 0.43424(18) 0.97151(15) 0.91420(7)
O2 O 0.5886(2) 0.86790(16) 0.99034(6)
C9 C 0.5033(2) 0.7209(2) 0.83749(8)
H10 H 0.43350 0.80630 0.82190
C10 C 0.5415(2) 0.59009(19) 0.79952(8)
H11 H 0.49860 0.58440 0.75810
C11 C 0.7515(2) 0.2256(2) 0.84488(7)
H12 H 0.64090 0.17920 0.86410
O3 O 0.69495(17) 0.33275(14) 0.79409(5)
C12 C 0.6450(2) 0.46896(19) 0.82519(8)
C13 C 1.0323(2) 0.3929(2) 0.86987(8)
H13 H 1.01350 0.47520 0.83780
H14 H 1.09450 0.44390 0.90520
C14 C 1.1594(2) 0.2640(2) 0.84257(9)
H15 H 1.25830 0.31580 0.81950
H16 H 1.21310 0.20200 0.87680
C15 C 1.0567(3) 0.1521(2) 0.79890(8)
H17 H 1.13460 0.06060 0.78880
H18 H 1.03000 0.20870 0.75980
#END
