
#######################################################################
#
#                 Cambridge Crystallographic Data Centre
#                                CCDC
#
#######################################################################
#
# If this CIF has been generated from an entry in the Cambridge
# Structural Database, then it will include bibliographic, chemical,
# crystal, experimental, refinement or atomic coordinate data resulting
# from the CCDC's data processing and validation procedures.
#
#######################################################################

data_CSD_CIF_UFUXOI
_audit_creation_date 2002-09-01
_audit_creation_method CSD-ConQuest-V1
_database_code_CSD UFUXOI
_database_code_depnum_ccdc_archive 'CCDC 152129'
_chemical_formula_sum 'C3 H3 N5 O4'
_chemical_formula_moiety
;
C3 H3 N5 O4
;
_journal_coden_Cambridge 34
_journal_volume 38
_journal_year 2001
_journal_page_first 1227
_journal_name_full 'J.Heterocycl.Chem. '
loop_
_publ_author_name
"R.D.Schmidt"
"G.S.Lee"
"P.F.Pagoria"
"A.R.Mitchell"
"R.Gilardi"
_chemical_name_systematic
;
4-Amino-3,5-dinitro-1H-pyrazole
;
_chemical_melting_point 448
_cell_volume    605.081
_exptl_crystal_colour 'yellow'
_exptl_crystal_density_diffrn 1.9
_exptl_special_details
;
Melting point range 448-451K

;
_exptl_crystal_description 'thin plate'
_exptl_crystal_preparation 'butyl acetate/heptane'
_diffrn_ambient_temperature 294
_diffrn_special_details
;
The refinement contains one TWIN operation; the minor twin occurs to about 
0.20 occupancy
;
#These two values have been output from a single CSD field.
_refine_ls_R_factor_gt 0.0329
_refine_ls_wR_factor_gt 0.0329
_symmetry_cell_setting orthorhombic
_symmetry_space_group_name_H-M 'P 21 21 21'
_symmetry_Int_Tables_number 19
loop_
_symmetry_equiv_pos_site_id
_symmetry_equiv_pos_as_xyz
1 x,y,z
2 1/2-x,-y,1/2+z
3 -x,1/2+y,1/2-z
4 1/2+x,1/2-y,-z
_cell_length_a 4.7257(5)
_cell_length_b 4.7312(6)
_cell_length_c 27.063(4)
_cell_angle_alpha 90
_cell_angle_beta 90
_cell_angle_gamma 90
_cell_formula_units_Z 4
loop_
_atom_type_symbol
_atom_type_radius_bond
C 0.68
H 0.23
N 0.68
O 0.68
loop_
_atom_site_label
_atom_site_type_symbol
_atom_site_fract_x
_atom_site_fract_y
_atom_site_fract_z
N1 N 0.7192(6) 0.3103(6) 0.17199(10)
H1 H 0.73560 0.21910 0.19930
N2 N 0.8789(6) 0.2668(6) 0.13249(9)
C1 C 0.7808(7) 0.4520(7) 0.09884(11)
N3 N 0.9087(6) 0.4594(6) 0.05122(9)
O1 O 0.8170(6) 0.6375(5) 0.02263(8)
O2 O 1.0967(6) 0.2912(6) 0.04131(10)
C2 C 0.5548(7) 0.6209(7) 0.11558(11)
N4 N 0.4090(6) 0.8223(6) 0.09235(11)
H2 H 0.27450 0.90920 0.10740
H3 H 0.44940 0.86520 0.06230
C3 C 0.5230(7) 0.5211(7) 0.16358(10)
N5 N 0.3273(6) 0.6021(6) 0.19963(10)
O3 O 0.3189(6) 0.4689(5) 0.23881(7)
O4 O 0.1734(6) 0.8037(6) 0.18963(9)
#END
