
#######################################################################
#
#                 Cambridge Crystallographic Data Centre
#                                CCDC
#
#######################################################################
#
# If this CIF has been generated from an entry in the Cambridge
# Structural Database, then it will include bibliographic, chemical,
# crystal, experimental, refinement or atomic coordinate data resulting
# from the CCDC's data processing and validation procedures.
#
#######################################################################

data_CSD_CIF_UGICET
_audit_creation_date 2010-05-14
_audit_creation_method CSD-ConQuest-V1
_database_code_CSD UGICET
_database_code_depnum_ccdc_archive 'CCDC 716897'
_chemical_formula_sum 'C27 H23 N1 O2'
_chemical_formula_moiety
;
C27 H23 N1 O2
;
_journal_coden_Cambridge 179
_journal_volume 48
_journal_year 2009
_journal_page_first 5505
_journal_name_full 'Angew.Chem.,Int.Ed. '
loop_
_publ_author_name
"Feng Liu"
"Yinhua Yu"
"Junliang Zhang"
_chemical_name_systematic
;
(3S*,8aR*)-2,3,4-triphenyl-2,3,6,7,8,8a-hexahydrofuro[4,3,2-de][1,2]benzoxazin
e
;
_cell_volume   4149.556
_exptl_crystal_colour 'colorless'
_exptl_crystal_density_diffrn 1.26
_exptl_crystal_description 'block'
_diffrn_ambient_temperature 173
#These two values have been output from a single CSD field.
_refine_ls_R_factor_gt 0.0449
_refine_ls_wR_factor_gt 0.0449
_symmetry_cell_setting monoclinic
_symmetry_space_group_name_H-M 'C 2/c'
_symmetry_Int_Tables_number 15
loop_
_symmetry_equiv_pos_site_id
_symmetry_equiv_pos_as_xyz
1 x,y,z
2 -x,y,1/2-z
3 1/2+x,1/2+y,z
4 1/2-x,1/2+y,1/2-z
5 -x,-y,-z
6 x,-y,-1/2+z
7 -1/2-x,-1/2-y,-z
8 -1/2+x,-1/2-y,-1/2+z
_cell_length_a 44.6398(10)
_cell_length_b 6.1678(2)
_cell_length_c 16.0393(5)
_cell_angle_alpha 90
_cell_angle_beta 110.008(2)
_cell_angle_gamma 90
_cell_formula_units_Z 8
loop_
_atom_type_symbol
_atom_type_radius_bond
C 0.68
H 0.23
N 0.68
O 0.68
loop_
_atom_site_label
_atom_site_type_symbol
_atom_site_fract_x
_atom_site_fract_y
_atom_site_fract_z
O1 O 0.14571(3) 0.5508(2) 0.25128(9)
O2 O 0.04913(3) 0.3577(2) 0.08072(10)
N1 N 0.15233(4) 0.3174(3) 0.25508(10)
C1 C 0.06386(5) 0.0673(3) 0.00271(14)
C2 C 0.08501(5) -0.0759(4) -0.01222(16)
H1 H 0.10700 -0.06470 0.02170
C3 C 0.07480(6) -0.2352(4) -0.07553(19)
H2 H 0.08990 -0.33290 -0.08450
C4 C 0.04319(6) -0.2551(4) -0.12588(18)
H3 H 0.03620 -0.36660 -0.16910
C5 C 0.02202(6) -0.1114(5) -0.11255(19)
H4 H 0.00010 -0.12120 -0.14760
C6 C 0.03207(5) 0.0466(5) -0.04926(17)
H5 H 0.01690 0.14420 -0.04080
C7 C 0.15135(4) 0.2767(3) 0.09752(12)
C8 C 0.14687(5) 0.4776(3) 0.05640(13)
H6 H 0.13280 0.57950 0.06800
C9 C 0.16265(6) 0.5309(4) -0.00145(14)
H7 H 0.15950 0.66920 -0.02920
C10 C 0.18283(6) 0.3839(5) -0.01865(15)
H8 H 0.19360 0.42060 -0.05840
C11 C 0.18746(5) 0.1852(5) 0.02107(15)
H9 H 0.20140 0.08340 0.00870
C12 C 0.17183(5) 0.1324(4) 0.07938(14)
H10 H 0.17530 -0.00560 0.10740
C13 C 0.18624(4) 0.2879(3) 0.28829(12)
C14 C 0.20751(5) 0.4481(4) 0.28675(14)
H11 H 0.19990 0.58440 0.26030
C15 C 0.23984(5) 0.4109(4) 0.32353(16)
H12 H 0.25450 0.52230 0.32330
C16 C 0.25088(5) 0.2136(4) 0.36045(16)
H13 H 0.27320 0.18830 0.38580
C17 C 0.22977(5) 0.0528(4) 0.36077(16)
H14 H 0.23740 -0.08460 0.38580
C18 C 0.19746(5) 0.0897(4) 0.32482(15)
H15 H 0.18290 -0.02210 0.32530
C19 C 0.11551(5) 0.5638(3) 0.26522(14)
H16 H 0.11730 0.49650 0.32340
C20 C 0.10313(5) 0.7919(3) 0.26073(18)
H17 H 0.10450 0.86510 0.20720
H18 H 0.11630 0.87430 0.31350
C21 C 0.06832(5) 0.7871(4) 0.25733(18)
H19 H 0.06730 0.70960 0.31040
H20 H 0.06110 0.93780 0.26000
C22 C 0.04541(5) 0.6772(4) 0.17397(17)
H21 H 0.02580 0.62970 0.18470
H22 H 0.03930 0.78010 0.12360
C23 C 0.06205(5) 0.4872(3) 0.15323(15)
C24 C 0.09291(5) 0.4402(3) 0.19203(13)
C25 C 0.10124(4) 0.2794(3) 0.14105(13)
C26 C 0.13607(4) 0.2192(3) 0.16549(12)
H23 H 0.13750 0.05820 0.17310
C27 C 0.07375(4) 0.2284(3) 0.07343(14)
#END
