
#######################################################################
#
#                 Cambridge Crystallographic Data Centre
#                                CCDC
#
#######################################################################
#
# If this CIF has been generated from an entry in the Cambridge
# Structural Database, then it will include bibliographic, chemical,
# crystal, experimental, refinement or atomic coordinate data resulting
# from the CCDC's data processing and validation procedures.
#
#######################################################################

data_CSD_CIF_UGOCAV
_audit_creation_date 2010-04-15
_audit_creation_method CSD-ConQuest-V1
_database_code_CSD UGOCAV
_database_code_depnum_ccdc_archive 'CCDC 711957'
_chemical_formula_sum 'C17 H20 N2 O5'
_chemical_formula_moiety
;
C17 H20 N2 O5
;
_journal_coden_Cambridge 179
_journal_volume 48
_journal_year 2009
_journal_page_first 5880
_journal_name_full 'Angew.Chem.,Int.Ed. '
loop_
_publ_author_name
"Wei Zhu"
"M.Mena"
"E.Jnoff"
"Na Sun"
"P.Pasau"
"L.Ghosez"
_chemical_name_systematic
;
Ethyl 3-(2-nitrophenyl)-1-oxooctahydro-1H-cyclopenta[c]pyridine-4-carboxylate
;
_chemical_melting_point 467.15
_cell_volume    847.409
_exptl_crystal_density_diffrn 1.28
_exptl_crystal_preparation 'hexane/ethyl acetate'
_diffrn_ambient_temperature 293
#These two values have been output from a single CSD field.
_refine_ls_R_factor_gt 0.0556
_refine_ls_wR_factor_gt 0.0556
_symmetry_cell_setting triclinic
_symmetry_space_group_name_H-M 'P -1'
_symmetry_Int_Tables_number 2
loop_
_symmetry_equiv_pos_site_id
_symmetry_equiv_pos_as_xyz
1 x,y,z
2 -x,-y,-z
_cell_length_a 9.595(1)
_cell_length_b 10.019(1)
_cell_length_c 10.305(1)
_cell_angle_alpha 109.269(7)
_cell_angle_beta 95.194(8)
_cell_angle_gamma 111.105(8)
_cell_formula_units_Z 2
loop_
_atom_type_symbol
_atom_type_radius_bond
C 0.68
H 0.23
N 0.68
O 0.68
loop_
_atom_site_label
_atom_site_type_symbol
_atom_site_fract_x
_atom_site_fract_y
_atom_site_fract_z
O1 O 0.1160(2) 0.3950(2) 0.94671(19)
H1? H 0.19910 0.41460 0.99480
O2 O 0.1603(2) 0.74672(19) 0.52212(18)
N1 N 0.0693(2) 0.55110(18) 0.85289(18)
H2 H 0.00990 0.56200 0.90950
O3 O 0.3898(2) 0.8487(2) 0.67025(19)
C1 C 0.1301(2) 0.80900(19) 0.85352(18)
C2 C 0.1943(2) 0.6133(2) 0.66292(18)
H3 H 0.13310 0.52230 0.57590
C3 C 0.0702(3) 0.9039(2) 0.8185(2)
N2 N -0.0606(3) 0.8421(3) 0.6974(2)
C4 C 0.2474(3) 0.8809(2) 0.9746(2)
H4 H 0.28980 0.82170 1.00240
C5 C 0.0818(2) 0.63744(19) 0.76104(19)
H5 H -0.02050 0.59850 0.70010
C6 C 0.2624(3) 0.7494(2) 0.6213(2)
C7 C 0.2344(3) 0.4307(2) 0.7575(2)
H6 H 0.16550 0.34940 0.66770
C8 C 0.3143(2) 0.5768(2) 0.73080(18)
H7 H 0.37260 0.66320 0.82160
C9 C 0.1373(3) 0.4574(2) 0.8612(2)
O4 O -0.1662(3) 0.7150(3) 0.6733(2)
O5 O -0.0626(3) 0.9195(3) 0.6305(2)
C10 C 0.4278(3) 0.5388(3) 0.6452(2)
H8 H 0.51890 0.63220 0.66320
H9 H 0.38040 0.48930 0.54460
C11 C 0.2433(3) 1.1291(2) 1.0160(3)
H10 H 0.28190 1.23530 1.06950
C12 C 0.3037(3) 1.0395(2) 1.0562(2)
H11 H 0.38210 1.08460 1.13770
C13 C 0.3635(3) 0.3853(3) 0.7937(3)
H12 H 0.32410 0.27510 0.77390
H13 H 0.41740 0.44350 0.89250
C14 C 0.4687(3) 0.4269(3) 0.6976(3)
H14 H 0.45370 0.33380 0.61790
H15 H 0.57550 0.47650 0.74950
C15 C 0.1263(3) 1.0623(2) 0.8974(3)
H16 H 0.08490 1.12250 0.87010
C16 C 0.2118(4) 0.8744(4) 0.4745(4)
H17 H 0.28480 0.96790 0.55220
H18 H 0.12450 0.89380 0.44510
C17 C 0.2849(4) 0.8379(4) 0.3552(4)
H19 H 0.31580 0.92250 0.32420
H20 H 0.21300 0.74490 0.27840
H21 H 0.37360 0.82260 0.38530
#END
