
#######################################################################
#
#                 Cambridge Crystallographic Data Centre
#                                CCDC
#
#######################################################################
#
# If this CIF has been generated from an entry in the Cambridge
# Structural Database, then it will include bibliographic, chemical,
# crystal, experimental, refinement or atomic coordinate data resulting
# from the CCDC's data processing and validation procedures.
#
#######################################################################

data_CSD_CIF_UGOFUR
_audit_creation_date 2003-01-21
_audit_creation_method CSD-ConQuest-V1
_database_code_CSD UGOFUR
_database_code_depnum_ccdc_archive 'CCDC 169201'
_chemical_formula_sum 'C16 H10 N2 O4'
_chemical_formula_moiety
;
C16 H10 N2 O4
;
_journal_coden_Cambridge 423
_journal_volume 309
_journal_year 2002
_journal_page_first 720
_journal_name_full 'J.Chem.Res. '
loop_
_publ_author_name
"K.Bowden"
"A.Perjessy"
"J.Benko"
"W.M.F.Fabian"
"E.Kolehmainen"
"G.S.Melikian"
"O.Hritzova"
"K.Laihia"
"O.Vollarova"
"V.O.Tapuzian"
"N.Kiriakossian"
"M.Nissinen"
_chemical_name_systematic
;
(Z)-4-(2-Nitrobenzylidene)-2-phenyl-4H-oxazol-5-one
;
_chemical_melting_point 443.15
_cell_volume   2594.177
_exptl_crystal_colour 'yellow'
_exptl_crystal_density_diffrn 1.507
_exptl_special_details
;
Melting point range 443.15-446.15K

;
_exptl_crystal_description 'block'
_exptl_crystal_preparation 'deuterochloroform'
_diffrn_ambient_temperature 173.0
#These two values have been output from a single CSD field.
_refine_ls_R_factor_gt 0.0392
_refine_ls_wR_factor_gt 0.0392
_symmetry_cell_setting orthorhombic
_symmetry_space_group_name_H-M 'P b c a'
_symmetry_Int_Tables_number 61
loop_
_symmetry_equiv_pos_site_id
_symmetry_equiv_pos_as_xyz
1 x,y,z
2 1/2-x,1/2+y,z
3 x,1/2-y,1/2+z
4 1/2+x,y,1/2-z
5 -x,-y,-z
6 -1/2+x,-1/2-y,-z
7 -x,-1/2+y,-1/2-z
8 -1/2-x,-y,-1/2+z
_cell_length_a 7.0543(3)
_cell_length_b 14.0815(5)
_cell_length_c 26.1154(4)
_cell_angle_alpha 90
_cell_angle_beta 90
_cell_angle_gamma 90
_cell_formula_units_Z 8
loop_
_atom_type_symbol
_atom_type_radius_bond
C 0.68
H 0.23
N 0.68
O 0.68
loop_
_atom_site_label
_atom_site_type_symbol
_atom_site_fract_x
_atom_site_fract_y
_atom_site_fract_z
C1 C 0.23152(19) 0.60321(10) 0.49810(4)
C2 C 0.30836(19) 0.65015(9) 0.42312(4)
C3 C 0.2198(2) 0.7318(1) 0.44976(5)
C4 C 0.36848(18) 0.65569(9) 0.37411(4)
H1 H 0.36110 0.71630 0.35830
C5 C 0.44361(18) 0.57839(9) 0.34291(4)
C6 C 0.53872(18) 0.59314(9) 0.29604(4)
C7 C 0.59531(19) 0.51958(10) 0.26428(5)
H2 H 0.65560 0.53280 0.23250
C8 C 0.5630(2) 0.42677(10) 0.27929(5)
H3 H 0.60240 0.37560 0.25810
C9 C 0.4726(2) 0.40907(10) 0.32554(5)
H4 H 0.45120 0.34540 0.33600
C10 C 0.41327(19) 0.48326(10) 0.35660(5)
H5 H 0.35060 0.46930 0.38790
C11 C 0.18954(18) 0.54723(10) 0.54362(4)
C12 C 0.1171(2) 0.59004(11) 0.58775(5)
H6 H 0.09910 0.65690 0.58900
C13 C 0.0717(2) 0.53380(11) 0.62968(5)
H7 H 0.02380 0.56240 0.66000
C14 C 0.0957(2) 0.43683(11) 0.62763(5)
H8 H 0.06210 0.39880 0.65630
C15 C 0.1693(2) 0.39401(11) 0.58366(5)
H9 H 0.18660 0.32710 0.58250
C16 C 0.21688(19) 0.44927(10) 0.54179(5)
H10 H 0.26800 0.42060 0.51190
O1 O 0.17665(15) 0.69785(7) 0.49859(3)
O2 O 0.18271(18) 0.81092(7) 0.43680(4)
O3 O 0.62688(18) 0.74948(8) 0.31134(4)
O4 O 0.6087(2) 0.70301(8) 0.23288(4)
N1 N 0.30884(16) 0.57281(8) 0.45651(4)
N2 N 0.59302(18) 0.68878(9) 0.27914(4)
#END
