
#######################################################################
#
#                 Cambridge Crystallographic Data Centre
#                                CCDC
#
#######################################################################
#
# If this CIF has been generated from an entry in the Cambridge
# Structural Database, then it will include bibliographic, chemical,
# crystal, experimental, refinement or atomic coordinate data resulting
# from the CCDC's data processing and validation procedures.
#
#######################################################################

data_CSD_CIF_UGOQOX
_audit_creation_date 2010-04-15
_audit_creation_method CSD-ConQuest-V1
_database_code_CSD UGOQOX
_database_code_depnum_ccdc_archive 'CCDC 664441'
_chemical_formula_sum 'C19 H16 N2 O6'
_chemical_formula_moiety
;
C19 H16 N2 O6
;
_journal_coden_Cambridge 392
_journal_volume 78
_journal_year 2009
_journal_page_first 1977
_journal_name_full 'Heterocycles '
loop_
_publ_author_name
"C.Roussel"
"K.Ciamala"
"J.Vebrel"
"C.Riche"
_chemical_name_systematic
;
3'-(4-nitrobenzoyl)-2'-phenyl-2',3'-dihydrospiroisoxazolino(5':3)dihydro-(3H)-
furan-2-one
;
_chemical_melting_point 453.15
_cell_volume   1659.074
_exptl_crystal_colour 'colorless'
_exptl_crystal_density_diffrn 1.475
_exptl_special_details
;
Melting point range 453.15-454.15K

;
_exptl_crystal_description 'prism'
_diffrn_ambient_temperature 293
#These two values have been output from a single CSD field.
_refine_ls_R_factor_gt 0.0363
_refine_ls_wR_factor_gt 0.0363
_symmetry_cell_setting monoclinic
_symmetry_space_group_name_H-M 'P 21/c'
_symmetry_Int_Tables_number 14
loop_
_symmetry_equiv_pos_site_id
_symmetry_equiv_pos_as_xyz
1 x,y,z
2 -x,1/2+y,1/2-z
3 -x,-y,-z
4 x,-1/2-y,-1/2+z
_cell_length_a 18.576(8)
_cell_length_b 7.660(4)
_cell_length_c 11.723(6)
_cell_angle_alpha 90
_cell_angle_beta 95.96(2)
_cell_angle_gamma 90
_cell_formula_units_Z 4
loop_
_atom_type_symbol
_atom_type_radius_bond
C 0.68
H 0.23
N 0.68
O 0.68
loop_
_atom_site_label
_atom_site_type_symbol
_atom_site_fract_x
_atom_site_fract_y
_atom_site_fract_z
O1 O 0.32668(11) 0.8583(3) 0.20395(17)
N1 N 0.27637(15) 0.9738(4) 0.2510(2)
C1 C 0.2211(2) 0.8513(4) 0.2822(3)
H1 H 0.19260 0.90460 0.33880
C2 C 0.26408(18) 0.6981(4) 0.3353(3)
H2 H 0.27810 0.71740 0.41630
H3 H 0.23650 0.59070 0.32570
C3 C 0.3296(2) 0.6923(5) 0.2689(3)
C4 C 0.33772(19) 0.5472(4) 0.1848(3)
H4 H 0.31200 0.57390 0.11060
H5 H 0.31960 0.43790 0.21240
C5 C 0.4180(2) 0.5381(5) 0.1776(3)
H6 H 0.43320 0.41810 0.16900
H7 H 0.43110 0.60520 0.11280
O2 O 0.45148(12) 0.6111(3) 0.2843(2)
C6 C 0.4026(2) 0.6908(5) 0.3423(4)
O3 O 0.41692(14) 0.7498(3) 0.4353(2)
C7 C 0.3102(2) 1.0887(5) 0.3367(3)
C8 C 0.3825(2) 1.1304(5) 0.3385(3)
H8 H 0.41060 1.07760 0.28720
C9 C 0.4127(2) 1.2504(5) 0.4163(4)
H9 H 0.46170 1.27690 0.41770
C10 C 0.3721(3) 1.3319(5) 0.4921(3)
H10 H 0.39320 1.41230 0.54490
C11 C 0.3004(3) 1.2927(5) 0.4883(3)
H11 H 0.27220 1.34840 0.53840
C12 C 0.26874(19) 1.1716(5) 0.4115(3)
H12 H 0.21970 1.14600 0.41010
C13 C 0.17220(19) 0.8030(7) 0.1748(4)
O4 O 0.16217(15) 0.6538(4) 0.1485(3)
C14 C 0.13780(18) 0.9465(6) 0.1001(4)
C15 C 0.1056(2) 0.9038(6) -0.0076(5)
H13 H 0.10570 0.78820 -0.03190
C16 C 0.07314(19) 1.0291(9) -0.0798(3)
H14 H 0.05160 1.00020 -0.15250
C17 C 0.0736(2) 1.1983(7) -0.0408(5)
C18 C 0.1039(2) 1.2460(5) 0.0651(5)
H15 H 0.10280 1.36150 0.08930
C19 C 0.13630(18) 1.1187(8) 0.1356(3)
H16 H 0.15750 1.14880 0.20830
N2 N 0.03975(19) 1.3313(6) -0.1189(3)
O5 O -0.00112(17) 1.2842(4) -0.2010(3)
O6 O 0.05548(18) 1.4834(4) -0.1013(3)
#END
