
#######################################################################
#
#                 Cambridge Crystallographic Data Centre
#                                CCDC
#
#######################################################################
#
# If this CIF has been generated from an entry in the Cambridge
# Structural Database, then it will include bibliographic, chemical,
# crystal, experimental, refinement or atomic coordinate data resulting
# from the CCDC's data processing and validation procedures.
#
#######################################################################

data_CSD_CIF_UGORIS
_audit_creation_date 2010-04-15
_audit_creation_method CSD-ConQuest-V1
_database_code_CSD UGORIS
_database_code_depnum_ccdc_archive 'CCDC 702058'
_chemical_formula_sum 'C22 H23 N3 O7'
_chemical_formula_moiety
;
C22 H23 N3 O7
;
_journal_coden_Cambridge 392
_journal_volume 78
_journal_year 2009
_journal_page_first 389
_journal_name_full 'Heterocycles '
loop_
_publ_author_name
"D.Korbonits"
"B.Podanyi"
"A.Illar"
"K.Simon"
"M.Hanusz"
"I.Hermecz"
_chemical_name_systematic
;
(15bS*,17aS*)-15,18-Dimethoxy-5,6,10,15b,17,17a-hexahydro-9H-bis[1,3]dioxolo[4
,5-g:4,5-g'][1,2,4,5]oxatriazino[3,4-a:6,5-a']diisoquinoline
;
_chemical_melting_point 501.15
_cell_volume   2008.595
_exptl_crystal_density_diffrn 1.46
_exptl_special_details
;
Melting point range 501.15-502.15K

;
_exptl_crystal_description 'needle'
_exptl_crystal_preparation 'carbon tetrachloride'
_diffrn_ambient_temperature 293
#These two values have been output from a single CSD field.
_refine_ls_R_factor_gt 0.0619
_refine_ls_wR_factor_gt 0.0619
_symmetry_cell_setting monoclinic
_symmetry_space_group_name_H-M 'C c'
_symmetry_Int_Tables_number 9
loop_
_symmetry_equiv_pos_site_id
_symmetry_equiv_pos_as_xyz
1 x,y,z
2 x,-y,1/2+z
3 1/2+x,1/2+y,z
4 1/2+x,1/2-y,1/2+z
_cell_length_a 27.32(4)
_cell_length_b 5.80(5)
_cell_length_c 13.01(2)
_cell_angle_alpha 90
_cell_angle_beta 103.01(15)
_cell_angle_gamma 90
_cell_formula_units_Z 4
loop_
_atom_type_symbol
_atom_type_radius_bond
C 0.68
H 0.23
N 0.68
O 0.68
loop_
_atom_site_label
_atom_site_type_symbol
_atom_site_fract_x
_atom_site_fract_y
_atom_site_fract_z
O1 O 0.0396(9) 0.668(4) 0.2937(15)
O2 O 0.3764(7) 0.609(3) 0.3438(14)
O3 O -0.0506(6) 0.831(4) 0.5548(12)
O4 O 0.1836(6) 0.769(3) 0.3461(12)
O5 O 0.3791(6) 0.825(4) 0.2027(12)
O6 O 0.2919(8) 0.677(3) 0.4627(12)
O7 O -0.0465(6) 0.615(3) 0.4022(11)
N1 N 0.1444(7) 0.771(3) 0.4087(11)
N2 N 0.1395(7) 1.179(3) 0.3940(12)
N3 N 0.1855(6) 1.189(3) 0.3545(10)
C1 C 0.3336(10) 0.761(5) 0.3202(16)
C2 C 0.2594(8) 1.091(3) 0.2456(13)
C3 C 0.2576(8) 0.960(3) 0.3319(11)
C4 C 0.0675(8) 0.945(3) 0.4220(13)
C5 C 0.2941(10) 0.797(4) 0.3723(15)
C6 C 0.1045(10) 1.278(5) 0.5433(17)
H1 H 0.09070 1.42270 0.51210
H2 H 0.11190 1.29590 0.61940
C7 C 0.2230(8) 1.269(3) 0.2056(13)
H3 H 0.21600 1.26660 0.12910
H4 H 0.23770 1.41750 0.22880
C8 C 0.3028(8) 1.050(5) 0.1925(16)
H5 H 0.30600 1.13540 0.13390
C9 C 0.1743(9) 1.245(4) 0.2402(12)
H6 H 0.15540 1.38720 0.22730
H7 H 0.15420 1.12260 0.20040
C10 C -0.0088(8) 0.890(5) 0.5153(14)
C11 C 0.0307(7) 0.779(4) 0.3803(13)
C12 C 0.3355(8) 0.891(4) 0.2315(17)
C13 C 0.0267(8) 1.050(4) 0.5560(15)
H8 H 0.02430 1.13470 0.61520
C14 C 0.1538(6) 1.226(3) 0.5082(12)
H9 H 0.17640 1.35690 0.52250
H10 H 0.17050 1.09300 0.54570
C15 C -0.0069(7) 0.754(4) 0.4287(14)
C16 C 0.0643(6) 1.082(4) 0.5101(13)
C17 C 0.4006(10) 0.629(6) 0.264(2)
H11 H 0.39610 0.49110 0.22100
H12 H 0.43630 0.65290 0.29190
C18 C 0.2150(8) 0.963(4) 0.3830(15)
H13 H 0.22720 0.95230 0.45970
C19 C 0.0200(12) 0.449(5) 0.273(2)
H14 H 0.03170 0.38350 0.21480
H15 H -0.01610 0.45700 0.25470
H16 H 0.03060 0.35350 0.33400
C20 C -0.0692(10) 0.638(5) 0.496(2)
H17 H -0.10540 0.65020 0.47300
H18 H -0.06160 0.50120 0.53980
C21 C 0.3083(11) 0.469(6) 0.489(2)
H19 H 0.30840 0.44220 0.56220
H20 H 0.34180 0.45230 0.47870
H21 H 0.28660 0.35840 0.44630
C22 C 0.1139(7) 0.974(4) 0.3733(13)
H22 H 0.10220 0.96180 0.29660
H23 H 0.12580 0.63190 0.39350
#END
