
#######################################################################
#
#                 Cambridge Crystallographic Data Centre
#                                CCDC
#
#######################################################################
#
# If this CIF has been generated from an entry in the Cambridge
# Structural Database, then it will include bibliographic, chemical,
# crystal, experimental, refinement or atomic coordinate data resulting
# from the CCDC's data processing and validation procedures.
#
#######################################################################

data_CSD_CIF_UGUGIM
_audit_creation_date 2003-01-21
_audit_creation_method CSD-ConQuest-V1
_database_code_CSD UGUGIM
_database_code_depnum_ccdc_archive 'CCDC 197460'
_chemical_formula_sum 'C4 H6 N8 O8'
_chemical_formula_moiety
;
C4 H6 N8 O8
;
_journal_coeditor_code "IUCr YA6116"
_journal_coden_Cambridge 1370
_journal_volume 58
_journal_year 2002
_journal_page_first o972
_journal_name_full 'Acta Crystallogr.,Sect.E:Struct.Rep.Online '
loop_
_publ_author_name
"R.Gilardi"
"J.L.Flippen-Anderson"
"R.Evans"
_chemical_name_systematic
;
cis-2,4,6,8-Tetranitro-1H,5H-2,4,6,8-tetraazabicyclo(3.3.0)octane
;
_cell_volume    524.826
_exptl_crystal_colour 'colorless'
_exptl_crystal_density_diffrn 1.861
_exptl_crystal_description 'rectangular prism'
_diffrn_ambient_temperature 294
#These two values have been output from a single CSD field.
_refine_ls_R_factor_gt 0.036
_refine_ls_wR_factor_gt 0.036
_symmetry_cell_setting monoclinic
_symmetry_space_group_name_H-M 'P 21'
_symmetry_Int_Tables_number 4
loop_
_symmetry_equiv_pos_site_id
_symmetry_equiv_pos_as_xyz
1 x,y,z
2 -x,1/2+y,-z
_cell_length_a 8.5979(2)
_cell_length_b 6.9495(2)
_cell_length_c 8.9726(2)
_cell_angle_alpha 90
_cell_angle_beta 101.783(2)
_cell_angle_gamma 90
_cell_formula_units_Z 2
loop_
_atom_type_symbol
_atom_type_radius_bond
C 0.68
H 0.23
N 0.68
O 0.68
loop_
_atom_site_label
_atom_site_type_symbol
_atom_site_fract_x
_atom_site_fract_y
_atom_site_fract_z
C1 C 0.1760(3) 0.1529(3) 0.2716(2)
H1 H 0.15790 0.04360 0.33510
N1 N 0.0277(2) 0.2328(3) 0.1859(2)
N2 N -0.0923(3) 0.1093(5) 0.1244(2)
O1 O -0.2217(2) 0.1836(5) 0.0775(2)
O2 O -0.0570(3) -0.0609(4) 0.1172(3)
C2 C -0.0147(3) 0.4210(4) 0.2334(3)
H2 H -0.10920 0.41610 0.27660
H3 H -0.03100 0.51210 0.14970
N3 N 0.1255(2) 0.4685(3) 0.3480(2)
N4 N 0.1029(3) 0.5762(3) 0.4688(3)
O3 O -0.0202(3) 0.6709(4) 0.4475(3)
O4 O 0.2032(3) 0.5730(4) 0.5844(3)
C3 C 0.2508(2) 0.3261(3) 0.3678(3)
H4 H 0.28870 0.29190 0.47510
N5 N 0.3803(2) 0.3785(3) 0.2938(2)
N6 N 0.5115(2) 0.4669(3) 0.3746(3)
O5 O 0.5030(3) 0.5300(4) 0.4998(3)
O6 O 0.6228(2) 0.4830(4) 0.3108(4)
C4 C 0.3858(3) 0.2678(4) 0.1574(3)
H5 H 0.49320 0.22600 0.15640
H6 H 0.34560 0.34210 0.06620
N7 N 0.2824(2) 0.1037(3) 0.1698(2)
N8 N 0.3583(3) -0.0773(3) 0.1965(3)
O7 O 0.2907(3) -0.2001(3) 0.2538(3)
O8 O 0.4802(3) -0.0977(3) 0.1505(3)
#END
