
#######################################################################
#
#                 Cambridge Crystallographic Data Centre
#                                CCDC
#
#######################################################################
#
# If this CIF has been generated from an entry in the Cambridge
# Structural Database, then it will include bibliographic, chemical,
# crystal, experimental, refinement or atomic coordinate data resulting
# from the CCDC's data processing and validation procedures.
#
#######################################################################

data_CSD_CIF_UGUGEI
_audit_creation_date 2003-01-21
_audit_creation_method CSD-ConQuest-V1
_database_code_CSD UGUGEI
_database_code_depnum_ccdc_archive 'CCDC 197459'
_chemical_formula_sum 'C10 H16 N6 O6'
_chemical_formula_moiety
;
C10 H16 N6 O6
;
_journal_coeditor_code "IUCr YA6117"
_journal_coden_Cambridge 1370
_journal_volume 58
_journal_year 2002
_journal_page_first o969
_journal_name_full 'Acta Crystallogr.,Sect.E:Struct.Rep.Online '
loop_
_publ_author_name
"R.Gilardi"
"C.George"
"R.Evans"
_chemical_name_systematic
;
cis-2,4-Dinitro-6,8-dipropionyl-1H,5H-2,4,6,8-tetraazabicyclo(3.3.0)octane
;
_cell_volume   2853.196
_exptl_crystal_colour 'colorless'
_exptl_crystal_density_diffrn 1.473
_exptl_crystal_description 'plate'
_diffrn_ambient_temperature 295
_refine_special_details
;
One propionyl group is disordered over two sites with occupancies 0.79:0.21.

;
#These two values have been output from a single CSD field.
_refine_ls_R_factor_gt 0.051
_refine_ls_wR_factor_gt 0.051
_symmetry_cell_setting monoclinic
_symmetry_space_group_name_H-M 'C 2/c'
_symmetry_Int_Tables_number 15
loop_
_symmetry_equiv_pos_site_id
_symmetry_equiv_pos_as_xyz
1 x,y,z
2 1/2+x,1/2+y,z
3 x,-y,1/2+z
4 1/2+x,1/2-y,1/2+z
5 -x,-y,-z
6 -1/2-x,-1/2-y,-z
7 -x,y,-1/2-z
8 -1/2-x,-1/2+y,-1/2-z
_cell_length_a 23.8006(4)
_cell_length_b 6.1611(1)
_cell_length_c 20.2972(4)
_cell_angle_alpha 90
_cell_angle_beta 106.539(1)
_cell_angle_gamma 90
_cell_formula_units_Z 8
loop_
_atom_type_symbol
_atom_type_radius_bond
C 0.68
H 0.23
N 0.68
O 0.68
loop_
_atom_site_label
_atom_site_type_symbol
_atom_site_fract_x
_atom_site_fract_y
_atom_site_fract_z
C1 C 0.31716(9) 0.1458(4) 0.40869(11)
H1 H 0.31030 0.00800 0.38350
N1 N 0.26493(8) 0.2162(3) 0.42863(9)
N2 N 0.21351(8) 0.0913(3) 0.40236(10)
O1 O 0.21930(8) -0.0965(3) 0.3892(1)
O2 O 0.16732(7) 0.1809(3) 0.40008(11)
C2 C 0.25804(10) 0.4497(4) 0.41659(11)
H2 H 0.28000 0.53010 0.45670
H3 H 0.21710 0.49110 0.40570
N3 N 0.28113(8) 0.4906(3) 0.35825(9)
N4 N 0.23977(9) 0.5029(3) 0.29337(10)
O3 O 0.25838(8) 0.4912(3) 0.24352(9)
O4 O 0.18898(8) 0.5391(3) 0.29132(10)
C3 C 0.32940(9) 0.3333(4) 0.36366(11)
H4 H 0.33040 0.28150 0.31840
N5 N 0.38527(8) 0.4185(3) 0.40264(10)
C4 C 0.4173(2) 0.5705(10) 0.3807(3)
O5 O 0.4613(2) 0.6432(10) 0.4217(3)
C5 C 0.3961(2) 0.6429(14) 0.3074(3)
H5 H 0.39170 0.51690 0.27770
H6 H 0.35780 0.70940 0.29940
C6 C 0.4360(2) 0.7991(15) 0.2887(3)
H7 H 0.41970 0.84400 0.24190
H8 H 0.47340 0.73140 0.29380
H9 H 0.44100 0.92340 0.31830
C7? C 0.4143(4) 0.5961(10) 0.3898(5)
O6? O 0.4535(6) 0.674(2) 0.4366(9)
C8? C 0.3965(8) 0.687(2) 0.3184(8)
H10? H 0.35440 0.67270 0.29940
H11? H 0.40590 0.84090 0.32050
C9? C 0.4258(11) 0.579(4) 0.2722(7)
H12? H 0.41380 0.64620 0.22780
H13? H 0.41510 0.42820 0.26800
H14? H 0.46750 0.59170 0.29090
C10 C 0.40433(11) 0.3334(4) 0.47248(13)
H15 H 0.39600 0.43470 0.50510
H16 H 0.44590 0.30000 0.48620
N6 N 0.36900(8) 0.1371(3) 0.46654(9)
C11 C 0.37859(10) -0.0332(4) 0.51113(12)
O7 O 0.34387(8) -0.1824(3) 0.50160(9)
C12 C 0.43305(11) -0.0222(5) 0.57118(14)
H17 H 0.46710 -0.03310 0.55420
H18 H 0.43450 0.11810 0.59330
C13 C 0.43629(17) -0.1968(6) 0.62354(18)
H19 H 0.46980 -0.17240 0.66240
H20 H 0.43990 -0.33560 0.60360
H21 H 0.40130 -0.19420 0.63820
#END
