
#######################################################################
#
#                 Cambridge Crystallographic Data Centre
#                                CCDC
#
#######################################################################
#
# If this CIF has been generated from an entry in the Cambridge
# Structural Database, then it will include bibliographic, chemical,
# crystal, experimental, refinement or atomic coordinate data resulting
# from the CCDC's data processing and validation procedures.
#
#######################################################################

data_CSD_CIF_UGUGIM01
_audit_creation_date 2010-01-11
_audit_creation_method CSD-ConQuest-V1
_database_code_CSD UGUGIM01
_database_code_depnum_ccdc_archive 'CCDC 693279'
_chemical_formula_sum 'C4 H6 N8 O8'
_chemical_formula_moiety
;
C4 H6 N8 O8
;
_journal_coden_Cambridge 791
_journal_volume 164
_journal_year 2009
_journal_page_first 954
_journal_name_full 'J.Hazard.Mater. '
loop_
_publ_author_name
"D.Klasovity"
"S.Zeman"
"A.Ruzicka"
"M.Jungova"
"M.Rohac"
_chemical_name_systematic
;
cis-1,3,4,6-tetranitrooctahydroimidazo[4,5-d]imidazole
;
_chemical_melting_point 541.15
_cell_volume    508.777
_exptl_crystal_colour 'colorless'
_exptl_crystal_density_diffrn 1.92
_exptl_special_details
;
Melts with decomposition.

;
_exptl_crystal_description 'needle'
_diffrn_ambient_temperature 150
#These two values have been output from a single CSD field.
_refine_ls_R_factor_gt 0.0369
_refine_ls_wR_factor_gt 0.0369
_symmetry_cell_setting monoclinic
_symmetry_space_group_name_H-M 'P 21'
_symmetry_Int_Tables_number 4
loop_
_symmetry_equiv_pos_site_id
_symmetry_equiv_pos_as_xyz
1 x,y,z
2 -x,1/2+y,-z
_cell_length_a 8.5430(8)
_cell_length_b 6.9480(6)
_cell_length_c 8.7780(8)
_cell_angle_alpha 90
_cell_angle_beta 102.452(11)
_cell_angle_gamma 90
_cell_formula_units_Z 2
loop_
_atom_type_symbol
_atom_type_radius_bond
C 0.68
H 0.23
N 0.68
O 0.68
loop_
_atom_site_label
_atom_site_type_symbol
_atom_site_fract_x
_atom_site_fract_y
_atom_site_fract_z
N1 N 0.7805(3) -0.0683(3) 0.1694(3)
N2 N 0.8569(3) -0.2485(4) 0.2010(3)
N3 N 0.8769(3) 0.2116(4) 0.2901(3)
N4 N 0.6000(3) 0.4105(4) 0.4665(3)
N5 N 1.0102(3) 0.3006(4) 0.3711(3)
O1 O 0.4763(3) 0.5051(4) 0.4446(3)
O2 O 0.7879(3) -0.3688(4) 0.2613(3)
C1 C 0.7493(3) 0.1599(4) 0.3668(3)
H1 H 0.78960 0.12840 0.47710
O3 O 1.0018(3) 0.3691(4) 0.4980(3)
N6 N 0.6227(3) 0.3022(3) 0.3452(3)
O4 O 1.1221(3) 0.3144(4) 0.3077(4)
N7 N 0.4030(3) -0.0623(5) 0.1220(3)
N8 N 0.5245(3) 0.0619(4) 0.1817(3)
C2 C 0.6740(3) -0.0157(4) 0.2720(3)
H2 H 0.65630 -0.12260 0.33910
C3 C 0.4801(3) 0.2508(5) 0.2291(3)
H3 H 0.38560 0.24510 0.27350
H4 H 0.46150 0.34060 0.14240
O5 O 0.7032(3) 0.4108(4) 0.5855(3)
O6 O 0.4397(3) -0.2324(4) 0.1178(3)
O7 O 0.2728(3) 0.0094(5) 0.0723(2)
O8 O 0.9801(3) -0.2706(4) 0.1561(3)
C4 C 0.8851(3) 0.0934(4) 0.1540(3)
H5 H 0.99380 0.05060 0.15710
H6 H 0.84570 0.16340 0.05780
#END
