
#######################################################################
#
#                 Cambridge Crystallographic Data Centre
#                                CCDC
#
#######################################################################
#
# If this CIF has been generated from an entry in the Cambridge
# Structural Database, then it will include bibliographic, chemical,
# crystal, experimental, refinement or atomic coordinate data resulting
# from the CCDC's data processing and validation procedures.
#
#######################################################################

data_CSD_CIF_UHACUB
_audit_creation_date 2003-01-21
_audit_creation_method CSD-ConQuest-V1
_database_code_CSD UHACUB
_database_code_depnum_ccdc_archive 'CCDC 172838'
_chemical_formula_sum 'C20 H19 N1 O3'
_chemical_formula_moiety
;
C20 H19 N1 O3
;
_journal_coden_Cambridge 1094
_journal_volume 13
_journal_year 2002
_journal_page_first 459
_journal_name_full 'Struct.Chem. '
loop_
_publ_author_name
"G.J.Goetz-Grandmont"
"J.P.Brunette"
"A.De Cian"
"N.Kyritsakas"
_chemical_name_systematic
;
3-Phenyl-4-(hydroxy(4-t-butylphenyl)methylene)isoxazol-5-one
;
_chemical_melting_point 403.15
_cell_volume   1721.874
_exptl_crystal_colour 'colorless'
_exptl_crystal_density_diffrn 1.24
_exptl_special_details
;
Melting point range 403.15-404.15K

;
_exptl_crystal_description 'prism'
_diffrn_ambient_temperature 173
#These two values have been output from a single CSD field.
_refine_ls_R_factor_gt 0.065
_refine_ls_wR_factor_gt 0.065
_symmetry_cell_setting monoclinic
_symmetry_space_group_name_H-M 'P 21/n'
_symmetry_Int_Tables_number 14
loop_
_symmetry_equiv_pos_site_id
_symmetry_equiv_pos_as_xyz
1 x,y,z
2 1/2+x,1/2-y,1/2+z
3 -x,-y,-z
4 -1/2-x,-1/2+y,-1/2-z
_cell_length_a 6.7135(2)
_cell_length_b 25.202(1)
_cell_length_c 10.2859(5)
_cell_angle_alpha 90
_cell_angle_beta 98.347(1)
_cell_angle_gamma 90
_cell_formula_units_Z 4
loop_
_atom_type_symbol
_atom_type_radius_bond
C 0.68
H 0.23
N 0.68
O 0.68
loop_
_atom_site_label
_atom_site_type_symbol
_atom_site_fract_x
_atom_site_fract_y
_atom_site_fract_z
C1 C 0.7344(3) 0.01845(9) 0.4221(2)
C2 C 0.7558(3) 0.00349(9) 0.2894(2)
N1 N 0.8164(3) -0.04529(8) 0.2827(2)
O1 O 0.8399(3) -0.06675(7) 0.4158(2)
C3 C 0.7844(3) -0.02888(9) 0.4974(2)
O2 O 0.7841(3) -0.03738(7) 0.6153(2)
C4 C 0.6913(3) 0.06481(9) 0.4826(2)
O3 O 0.6701(3) 0.06379(7) 0.6094(2)
C5 C 0.6647(4) 0.11722(9) 0.4217(2)
C6 C 0.5083(4) 0.1499(1) 0.4479(3)
C7 C 0.4802(4) 0.1989(1) 0.3876(3)
C8 C 0.6061(4) 0.2175(1) 0.3025(2)
C9 C 0.7656(4) 0.1848(1) 0.2801(2)
C10 C 0.7949(4) 0.13529(9) 0.3379(2)
C11 C 0.5745(5) 0.2715(1) 0.2345(3)
C12 C 0.4136(8) 0.3039(2) 0.2802(5)
C13 C 0.7749(8) 0.3036(2) 0.2597(5)
C14 C 0.5360(9) 0.2639(2) 0.0885(4)
C15 C 0.7084(4) 0.03420(9) 0.1661(2)
C16 C 0.5184(4) 0.0557(1) 0.1311(2)
C17 C 0.4739(4) 0.0832(1) 0.0142(3)
C18 C 0.6178(5) 0.0903(1) -0.0669(2)
C19 C 0.8092(4) 0.0694(1) -0.0316(3)
C20 C 0.8552(4) 0.0414(1) 0.0848(2)
H1 H 0.69640 0.02760 0.63960
H2 H 0.41890 0.05150 0.18720
H3 H 0.34270 0.09740 -0.01030
H4 H 0.58620 0.10950 -0.14670
H5 H 0.90870 0.07420 -0.08740
H6 H 0.98640 0.02720 0.10920
H7 H 0.42070 0.13850 0.50710
H8 H 0.37120 0.22050 0.40520
H9 H 0.85630 0.19680 0.22360
H10 H 0.90390 0.11370 0.32040
H11 H 0.40200 0.33680 0.23430
H12 H 0.28930 0.28540 0.26380
H13 H 0.44670 0.31050 0.37180
H14 H 0.75620 0.33720 0.21770
H15 H 0.81270 0.30860 0.35150
H16 H 0.87790 0.28470 0.22530
H17 H 0.51650 0.29740 0.04660
H18 H 0.64820 0.24660 0.06050
H19 H 0.41890 0.24270 0.06590
#END
