
#######################################################################
#
#                 Cambridge Crystallographic Data Centre
#                                CCDC
#
#######################################################################
#
# If this CIF has been generated from an entry in the Cambridge
# Structural Database, then it will include bibliographic, chemical,
# crystal, experimental, refinement or atomic coordinate data resulting
# from the CCDC's data processing and validation procedures.
#
#######################################################################

data_CSD_CIF_UHACOV
_audit_creation_date 2003-01-21
_audit_creation_method CSD-ConQuest-V1
_database_code_CSD UHACOV
_database_code_depnum_ccdc_archive 'CCDC 172837'
_chemical_formula_sum 'C17 H13 N1 O3'
_chemical_formula_moiety
;
C17 H13 N1 O3
;
_journal_coden_Cambridge 1094
_journal_volume 13
_journal_year 2002
_journal_page_first 459
_journal_name_full 'Struct.Chem. '
loop_
_publ_author_name
"G.J.Goetz-Grandmont"
"J.P.Brunette"
"A.De Cian"
"N.Kyritsakas"
_chemical_name_systematic
;
3-Phenyl-4-(hydroxy(p-tolyl)methylene)isoxazol-5-one
;
_chemical_melting_point 411.15
_cell_volume   1395.579
_exptl_crystal_colour 'colorless'
_exptl_crystal_density_diffrn 1.33
_exptl_special_details
;
Melting point range 411.15-412.15K

;
_exptl_crystal_description 'prism'
_diffrn_ambient_temperature 294
#These two values have been output from a single CSD field.
_refine_ls_R_factor_gt 0.035
_refine_ls_wR_factor_gt 0.035
_symmetry_cell_setting orthorhombic
_symmetry_space_group_name_H-M 'P c a 21'
_symmetry_Int_Tables_number 29
loop_
_symmetry_equiv_pos_site_id
_symmetry_equiv_pos_as_xyz
1 x,y,z
2 -x,-y,1/2+z
3 1/2+x,-y,z
4 1/2-x,y,1/2+z
_cell_length_a 19.544(3)
_cell_length_b 7.6200(8)
_cell_length_c 9.371(1)
_cell_angle_alpha 90
_cell_angle_beta 90
_cell_angle_gamma 90
_cell_formula_units_Z 4
loop_
_atom_type_symbol
_atom_type_radius_bond
C 0.68
H 0.23
N 0.68
O 0.68
loop_
_atom_site_label
_atom_site_type_symbol
_atom_site_fract_x
_atom_site_fract_y
_atom_site_fract_z
C1 C 0.5362(1) 0.8027(4) 0.83280
C2 C 0.4972(2) 0.8574(4) 0.7114(4)
N1 N 0.5353(1) 0.9277(4) 0.6140(3)
O1 O 0.6051(1) 0.9252(3) 0.6679(3)
C3 C 0.6048(1) 0.8544(4) 0.8013(4)
O2 O 0.6569(1) 0.8431(3) 0.8715(4)
C4 C 0.5223(2) 0.7161(4) 0.9584(3)
O3 O 0.5713(1) 0.7034(4) 1.0560(3)
C5 C 0.4584(1) 0.6261(4) 0.9943(4)
C6 C 0.4240(2) 0.5277(4) 0.8907(4)
C7 C 0.3639(2) 0.4440(5) 0.9254(4)
C8 C 0.3351(2) 0.4566(4) 1.0602(5)
C9 C 0.3705(2) 0.5526(5) 1.1626(4)
C10 C 0.4317(2) 0.6350(4) 1.1315(4)
C11 C 0.2682(2) 0.3683(5) 1.0938(6)
C12 C 0.4220(1) 0.8579(4) 0.6880(4)
C13 C 0.3941(2) 0.7873(5) 0.5651(4)
C14 C 0.3241(2) 0.7942(5) 0.5437(5)
C15 C 0.2824(2) 0.8709(5) 0.6440(5)
C16 C 0.3100(2) 0.9399(5) 0.7649(4)
C17 C 0.3796(2) 0.9342(5) 0.7886(4)
H1 H 0.42290 0.73430 0.49570
H2 H 0.30480 0.74570 0.45940
H3 H 0.23430 0.87570 0.62900
H4 H 0.28090 0.99270 0.83400
H5 H 0.39830 0.98240 0.87350
H6 H 0.44200 0.51890 0.79680
H7 H 0.34150 0.37530 0.85490
H8 H 0.35210 0.56180 1.25620
H9 H 0.45550 0.69760 1.20380
H10 H 0.25620 0.39070 1.19030
H11 H 0.23350 0.41300 1.03270
H12 H 0.27260 0.24540 1.07950
#END
