
#######################################################################
#
#                 Cambridge Crystallographic Data Centre
#                                CCDC
#
#######################################################################
#
# If this CIF has been generated from an entry in the Cambridge
# Structural Database, then it will include bibliographic, chemical,
# crystal, experimental, refinement or atomic coordinate data resulting
# from the CCDC's data processing and validation procedures.
#
#######################################################################

data_CSD_CIF_UHARAX
_audit_creation_date 2010-04-15
_audit_creation_method CSD-ConQuest-V1
_database_code_CSD UHARAX
_database_code_depnum_ccdc_archive 'CCDC 639470'
_chemical_formula_sum 'C13 H12 N6 O2'
_chemical_formula_moiety
;
C13 H12 N6 O2
;
_journal_coden_Cambridge 392
_journal_volume 78
_journal_year 2009
_journal_page_first 2245
_journal_name_full 'Heterocycles '
loop_
_publ_author_name
"A.Al-Azmi"
"K.A.Kumari"
_chemical_name_systematic
;
N'-Hydroxy-9-(4-methoxyphenyl)-9H-purine-6-carboximidamide
;
_chemical_melting_point 503.15
_cell_volume   1271.607
_exptl_crystal_colour 'colorless'
_exptl_crystal_density_diffrn 1.485
_exptl_special_details
;
Melting point range 503.15-505.15K

;
_exptl_crystal_description 'block'
_diffrn_ambient_temperature 150
#These two values have been output from a single CSD field.
_refine_ls_R_factor_gt 0.0455
_refine_ls_wR_factor_gt 0.0455
_symmetry_cell_setting monoclinic
_symmetry_space_group_name_H-M 'P 21/n'
_symmetry_Int_Tables_number 14
loop_
_symmetry_equiv_pos_site_id
_symmetry_equiv_pos_as_xyz
1 x,y,z
2 1/2-x,1/2+y,1/2-z
3 -x,-y,-z
4 -1/2+x,-1/2-y,-1/2+z
_cell_length_a 10.586(3)
_cell_length_b 8.231(2)
_cell_length_c 14.605(4)
_cell_angle_alpha 90
_cell_angle_beta 92.244(5)
_cell_angle_gamma 90
_cell_formula_units_Z 4
loop_
_atom_type_symbol
_atom_type_radius_bond
C 0.68
H 0.23
N 0.68
O 0.68
loop_
_atom_site_label
_atom_site_type_symbol
_atom_site_fract_x
_atom_site_fract_y
_atom_site_fract_z
N1 N 0.49486(16) 0.8414(2) 0.37121(12)
C1 C 0.6008(2) 0.7733(2) 0.34173(15)
H1 H 0.66620 0.84620 0.32640
N2 N 0.62597(16) 0.61423(19) 0.33116(12)
C2 C 0.53937(18) 0.5042(2) 0.35551(13)
C3 C 0.42863(19) 0.5604(2) 0.39245(13)
C4 C 0.41229(19) 0.7298(2) 0.39585(14)
N3 N 0.32198(16) 0.4828(2) 0.42378(13)
C5 C 0.2459(2) 0.6024(3) 0.44332(16)
H2 H 0.16430 0.58530 0.46640
N4 N 0.29377(16) 0.75417(19) 0.42771(12)
C6 C 0.22637(19) 0.9064(2) 0.43318(15)
C7 C 0.2041(2) 0.9741(2) 0.51754(15)
H3 H 0.23460 0.92240 0.57220
C8 C 0.1371(2) 1.1180(3) 0.52175(15)
H4 H 0.12060 1.16490 0.57950
C9 C 0.09423(19) 1.1934(2) 0.44207(15)
C10 C 0.1175(2) 1.1257(3) 0.35761(15)
H5 H 0.08820 1.17790 0.30280
C11 C 0.1842(2) 0.9808(3) 0.35380(15)
H6 H 0.20060 0.93330 0.29620
O1 O 0.02819(13) 1.33505(16) 0.45288(10)
C12 C -0.0266(2) 1.4102(3) 0.37207(15)
H7 H -0.06980 1.51050 0.38900
H8 H -0.08750 1.33570 0.34230
H9 H 0.04020 1.43580 0.32970
C13 C 0.56338(19) 0.3292(2) 0.33817(14)
N5 N 0.65840(16) 0.29504(19) 0.28836(12)
O2 O 0.66344(14) 0.12330(16) 0.27598(10)
H10 H 0.739(4) 0.112(5) 0.240(3)
N6 N 0.4845(2) 0.2202(2) 0.37443(16)
H11 H 0.413(3) 0.256(3) 0.3996(17)
H12 H 0.492(3) 0.118(4) 0.3655(18)
#END
