
#######################################################################
#
#                 Cambridge Crystallographic Data Centre
#                                CCDC
#
#######################################################################
#
# If this CIF has been generated from an entry in the Cambridge
# Structural Database, then it will include bibliographic, chemical,
# crystal, experimental, refinement or atomic coordinate data resulting
# from the CCDC's data processing and validation procedures.
#
#######################################################################

data_CSD_CIF_UHEQON
_audit_creation_date 2003-01-21
_audit_creation_method CSD-ConQuest-V1
_database_code_CSD UHEQON
_database_code_depnum_ccdc_archive 'CCDC 190459'
_chemical_formula_sum 'C28 H26 N6 O7'
_chemical_formula_moiety
;
C28 H26 N6 O7
;
_journal_coden_Cambridge 188
_journal_year 2002
_journal_page_first 1791
_journal_name_full 'J.Chem.Soc.,Perkin Trans.2 '
loop_
_publ_author_name
"A.Carella"
"A.Castaldo"
"R.Centore"
"A.Fort"
"A.Sirigu"
"A.Tuzi"
_chemical_name_systematic
;
2-(4-(4-(N,N-bis(2-(Acetoxy)ethyl)amino)phenylazo)phenyl)-5-(4-nitrophenyl)-(1
,3,4)-oxadiazole
;
_cell_volume   5392.451
_exptl_crystal_colour 'orange'
_exptl_crystal_density_diffrn 1.376
_exptl_crystal_description 'prism'
_exptl_crystal_preparation 'dimethylformamide'
_diffrn_ambient_temperature 293
#These two values have been output from a single CSD field.
_refine_ls_R_factor_gt 0.0793
_refine_ls_wR_factor_gt 0.0793
_symmetry_cell_setting orthorhombic
_symmetry_space_group_name_H-M 'P b c a'
_symmetry_Int_Tables_number 61
loop_
_symmetry_equiv_pos_site_id
_symmetry_equiv_pos_as_xyz
1 x,y,z
2 1/2+x,y,1/2-z
3 1/2-x,1/2+y,z
4 x,1/2-y,1/2+z
5 -x,-y,-z
6 -1/2-x,-y,-1/2+z
7 -1/2+x,-1/2-y,-z
8 -x,-1/2+y,-1/2-z
_cell_length_a 7.171(3)
_cell_length_b 11.543(2)
_cell_length_c 65.146(7)
_cell_angle_alpha 90
_cell_angle_beta 90
_cell_angle_gamma 90
_cell_formula_units_Z 8
loop_
_atom_type_symbol
_atom_type_radius_bond
C 0.68
H 0.23
N 0.68
O 0.62
loop_
_atom_site_label
_atom_site_type_symbol
_atom_site_fract_x
_atom_site_fract_y
_atom_site_fract_z
O1 O 0.4538(9) 0.3387(5) 0.11584(9)
O2 O 0.3824(9) 0.5017(5) 0.13030(9)
O3 O 0.3905(6) 0.2262(4) 0.22618(7)
N1 N 0.4155(10) 0.3988(6) 0.13135(10)
N2 N 0.3343(9) 0.0615(5) 0.21040(9)
N3 N 0.3294(9) 0.0419(5) 0.23186(10)
N4 N 0.3808(9) 0.2284(6) 0.32555(8)
N5 N 0.3651(8) 0.3333(5) 0.33083(9)
C1 C 0.4067(10) 0.3405(7) 0.15145(11)
C2 C 0.4071(10) 0.4054(7) 0.16896(11)
H1 H 0.41300 0.48570 0.16830
C3 C 0.3985(11) 0.3496(6) 0.18781(12)
H2 H 0.40080 0.39270 0.19990
C4 C 0.3864(10) 0.2304(6) 0.18872(11)
C5 C 0.3863(11) 0.1663(6) 0.17066(11)
H3 H 0.38010 0.08600 0.17130
C6 C 0.3950(11) 0.2197(6) 0.15203(12)
H4 H 0.39330 0.17670 0.14000
C7 C 0.3736(10) 0.1704(6) 0.20788(11)
C8 C 0.3623(10) 0.1406(6) 0.24008(11)
C9 C 0.3679(10) 0.1680(6) 0.26181(11)
C10 C 0.4195(10) 0.2755(6) 0.26931(11)
H5 H 0.45220 0.33360 0.26010
C11 C 0.4238(11) 0.2988(7) 0.28999(10)
H6 H 0.45940 0.37170 0.29460
C12 C 0.375(1) 0.2136(6) 0.30387(11)
C13 C 0.3255(10) 0.1048(6) 0.29668(11)
H7 H 0.29500 0.04680 0.30600
C14 C 0.3209(10) 0.0812(6) 0.27587(12)
H8 H 0.28670 0.00800 0.27120
C15 C 0.3879(10) 0.3541(7) 0.35241(10)
C16 C 0.3533(10) 0.4672(6) 0.35856(10)
H9 H 0.30840 0.52100 0.34920
C17 C 0.3855(11) 0.4995(7) 0.37848(11)
H10 H 0.35580 0.57440 0.38260
C18 C 0.4619(12) 0.4226(7) 0.39283(11)
C19 C 0.4887(11) 0.3084(7) 0.38637(13)
H11 H 0.53320 0.25360 0.39560
C20 C 0.4505(10) 0.2757(7) 0.36655(11)
H12 H 0.46740 0.19880 0.36270
N6 N 0.5083(12) 0.4598(7) 0.41204(10)
O4 O 0.7774(16) 0.2802(9) 0.44810(12)
C21 C 0.555(2) 0.3761(12) 0.4295(2)
H13 H 0.49760 0.40250 0.44220
H14 H 0.50730 0.29940 0.42640
O5 O 0.7056(19) 0.3887(11) 0.47361(15)
O6 O 0.273(3) 0.5606(14) 0.44304(13)
C22 C 0.317(2) 0.6179(12) 0.42508(16)
H15 H 0.32090 0.70080 0.42750
H16 H 0.22230 0.60260 0.41480
C23 C 0.496(2) 0.5788(10) 0.41776(16)
H17 H 0.53010 0.62550 0.40600
H18 H 0.58760 0.59340 0.42840
C24 C 0.8298(19) 0.2031(11) 0.48069(16)
H19 H 0.86510 0.13710 0.47260
H20 H 0.73380 0.18120 0.49020
H21 H 0.93630 0.23110 0.48810
C25 C 0.761(2) 0.2938(14) 0.4673(2)
O7 O 0.172(4) 0.663(2) 0.4566(3)
C26 C 0.747(3) 0.3727(13) 0.4317(2)
H22 H 0.79500 0.44710 0.43610
H23 H 0.80630 0.35100 0.41890
C27 C 0.172(2) 0.5097(12) 0.47549(18)
H24 H 0.17690 0.42770 0.47300
H25 H 0.05230 0.53010 0.48090
H26 H 0.26730 0.53040 0.48520
C28 C 0.203(3) 0.569(2) 0.4570(3)
#END
