
#######################################################################
#
#                 Cambridge Crystallographic Data Centre
#                                CCDC
#
#######################################################################
#
# If this CIF has been generated from an entry in the Cambridge
# Structural Database, then it will include bibliographic, chemical,
# crystal, experimental, refinement or atomic coordinate data resulting
# from the CCDC's data processing and validation procedures.
#
#######################################################################

data_CSD_CIF_UHIFOI
_audit_creation_date 2015-04-23
_audit_creation_method CSD-ConQuest-V1
_database_code_CSD UHIFOI
_database_code_depnum_ccdc_archive 'CCDC 1046945'
_chemical_formula_sum 'C16 H17 N3 O6'
_chemical_formula_moiety
;
C16 H17 N3 O6
;
_journal_coden_Cambridge 1048
_journal_volume 17
_journal_year 2015
_journal_page_first 3266
_journal_name_full 'Green Chemistry '
loop_
_publ_author_name
"Yong Zhang"
"Biao-Wen Wei"
"Hui Lin"
"Ling Zhang"
"Jin-Xiang Liu"
"Hai-Qing Luo"
"Xiao-Lin Fan"
_chemical_name_systematic
;
3-(1-(3-ethyl-4-nitro-1,2-oxazol-5-yl)ethyl)-3-hydroxy-5-methoxy-1,3-dihydro-2
H-indol-2-one
;
_chemical_name_common
;
3-(1-(3-ethyl-4-nitroisoxazol-5-yl)ethyl)-3-hydroxy-5-methoxyindolin-2-one
;
_cell_volume   1648.546
_exptl_crystal_density_diffrn 1.399
_exptl_crystal_description 'BLOCK'
_diffrn_ambient_temperature 296
#These two values have been output from a single CSD field.
_refine_ls_R_factor_gt 0.0601
_refine_ls_wR_factor_gt 0.0601
_symmetry_cell_setting monoclinic
_symmetry_space_group_name_H-M 'P 21/n'
_symmetry_Int_Tables_number 14
loop_
_symmetry_equiv_pos_site_id
_symmetry_equiv_pos_as_xyz
1 x,y,z
2 1/2-x,1/2+y,1/2-z
3 -x,-y,-z
4 -1/2+x,-1/2-y,-1/2+z
_cell_length_a 13.5271(6)
_cell_length_b 7.4112(3)
_cell_length_c 16.5010(8)
_cell_angle_alpha 90
_cell_angle_beta 94.763(1)
_cell_angle_gamma 90
_cell_formula_units_Z 4
loop_
_atom_type_symbol
_atom_type_radius_bond
C 0.68
H 0.23
N 0.68
O 0.68
loop_
_atom_site_label
_atom_site_type_symbol
_atom_site_fract_x
_atom_site_fract_y
_atom_site_fract_z
C1 C 0.58363(17) 0.0470(3) 0.66488(15)
H1 H 0.59640 0.16490 0.64960
C2 C 0.39618(16) 0.1053(3) 0.68942(16)
C3 C 0.21409(18) -0.0956(4) 0.54952(17)
C4 C 0.34336(17) 0.1542(3) 0.60387(16)
H2 H 0.28600 0.22950 0.61360
C5 C 0.30411(17) -0.0124(3) 0.56171(16)
C6 C 0.65745(18) -0.0834(4) 0.66738(17)
C7 C 0.47359(18) -0.1781(3) 0.70911(16)
C8 C 0.49066(16) -0.0030(3) 0.68575(15)
C9 C 0.32970(18) -0.0324(3) 0.72844(16)
C10 C 0.6384(2) -0.2605(4) 0.68832(19)
H3 H 0.68850 -0.34650 0.68810
C11 C 0.2305(2) -0.2649(4) 0.5120(2)
C12 C 0.4087(2) 0.2646(4) 0.55151(18)
H4 H 0.37260 0.29120 0.50030
H5 H 0.46720 0.19690 0.54230
H6 H 0.42730 0.37530 0.57890
C13 C 0.5447(2) -0.3102(4) 0.70969(19)
H7 H 0.53080 -0.42840 0.72380
C14 C 0.8282(2) -0.1441(4) 0.6492(2)
H8 H 0.88630 -0.08270 0.63380
H9 H 0.81210 -0.24140 0.61200
H10 H 0.84090 -0.19140 0.70330
C15 C 0.1597(3) -0.4224(5) 0.4890(3)
H11 H 0.19730 -0.53310 0.48550
H12 H 0.11370 -0.43770 0.53050
C16 C 0.1049(3) -0.3857(6) 0.4110(3)
H13 H 0.06110 -0.48470 0.39670
H14 H 0.15060 -0.37110 0.37000
H15 H 0.06680 -0.27720 0.41490
N1 N 0.37539(15) -0.1915(3) 0.73271(14)
H16 H 0.34880 -0.28990 0.74790
N2 N 0.32336(18) -0.2811(3) 0.50024(17)
N3 N 0.12097(18) -0.0268(4) 0.57169(16)
O1 O 0.41328(13) 0.2625(2) 0.73601(11)
H17 H 0.36170 0.32070 0.73590
O2 O 0.37076(11) -0.1213(2) 0.53135(11)
O3 O 0.24528(13) -0.0018(2) 0.74985(12)
O4 O 0.74796(13) -0.0218(3) 0.64725(13)
O5 O 0.11638(15) 0.1300(4) 0.59345(18)
O6 O 0.05026(16) -0.1273(4) 0.56767(17)
#END
