
#######################################################################
#
#                 Cambridge Crystallographic Data Centre
#                                CCDC
#
#######################################################################
#
# If this CIF has been generated from an entry in the Cambridge
# Structural Database, then it will include bibliographic, chemical,
# crystal, experimental, refinement or atomic coordinate data resulting
# from the CCDC's data processing and validation procedures.
#
#######################################################################

data_CSD_CIF_UHIPOS
_audit_creation_date 2015-04-23
_audit_creation_method CSD-ConQuest-V1
_database_code_CSD UHIPOS
_database_code_depnum_ccdc_archive 'CCDC 1046944'
_chemical_formula_sum 'C13 H11 N3 O5'
_chemical_formula_moiety
;
C13 H11 N3 O5
;
_journal_coden_Cambridge 1048
_journal_volume 17
_journal_year 2015
_journal_page_first 3266
_journal_name_full 'Green Chemistry '
loop_
_publ_author_name
"Yong Zhang"
"Biao-Wen Wei"
"Hui Lin"
"Ling Zhang"
"Jin-Xiang Liu"
"Hai-Qing Luo"
"Xiao-Lin Fan"
_chemical_name_systematic
;
3-hydroxy-3-((3-methyl-4-nitro-1,2-oxazol-5-yl)methyl)-1,3-dihydro-2H-indol-2-
one
;
_cell_volume    645.794
_exptl_crystal_colour 'colorless'
_exptl_crystal_density_diffrn 1.487
_exptl_special_details
;
Absolute configuration

;
_exptl_crystal_description 'block'
_diffrn_ambient_temperature 296
#These two values have been output from a single CSD field.
_refine_ls_R_factor_gt 0.0308
_refine_ls_wR_factor_gt 0.0308
_symmetry_cell_setting monoclinic
_symmetry_space_group_name_H-M 'P 21'
_symmetry_Int_Tables_number 4
loop_
_symmetry_equiv_pos_site_id
_symmetry_equiv_pos_as_xyz
1 x,y,z
2 -x,1/2+y,-z
_cell_length_a 8.6065(1)
_cell_length_b 7.1858(1)
_cell_length_c 11.1840(2)
_cell_angle_alpha 90
_cell_angle_beta 110.985(1)
_cell_angle_gamma 90
_cell_formula_units_Z 2
loop_
_atom_type_symbol
_atom_type_radius_bond
C 0.68
H 0.23
N 0.68
O 0.68
loop_
_atom_site_label
_atom_site_type_symbol
_atom_site_fract_x
_atom_site_fract_y
_atom_site_fract_z
C1 C 0.14808(15) -0.11621(19) -0.22609(12)
C2 C 0.34164(13) 0.03719(15) -0.06034(11)
C3 C 0.08843(14) 0.06546(18) -0.23726(11)
C4 C 0.22028(15) 0.37368(19) 0.06386(13)
C5 C 0.11590(15) 0.2502(2) -0.04047(13)
H1 H 0.01600 0.31690 -0.09100
H2 H 0.08220 0.14310 -0.00280
C6 C 0.20548(13) 0.18159(16) -0.12989(12)
C7 C 0.32507(17) 0.3521(2) 0.18630(14)
C8 C 0.39287(19) 0.5325(3) 0.22892(15)
C9 C 0.06916(19) -0.2547(2) -0.31095(16)
H3 H 0.11000 -0.37570 -0.30170
C10 C -0.05568(17) 0.1128(2) -0.33698(14)
H4 H -0.09740 0.23340 -0.34540
C11 C 0.5171(3) 0.5923(4) 0.35441(19)
H5 H 0.53660 0.72360 0.35240
H6 H 0.61950 0.52620 0.37030
H7 H 0.47520 0.56550 0.42140
C12 C -0.13686(18) -0.0255(3) -0.42473(14)
H8 H -0.23370 0.00340 -0.49300
C13 C -0.0753(2) -0.2040(3) -0.41152(15)
H9 H -0.13170 -0.29350 -0.47140
N1 N 0.29819(13) -0.12763(15) -0.12000(11)
H10 H 0.35530 -0.22810 -0.09620
N2 N 0.33030(19) 0.6540(2) 0.13898(15)
N3 N 0.3592(2) 0.1813(2) 0.25632(14)
O1 O 0.46793(9) 0.06773(12) 0.03273(8)
O2 O 0.27116(11) 0.32801(12) -0.18096(9)
H11 H 0.34540 0.38020 -0.12300
O3 O 0.22120(12) 0.55384(14) 0.03337(10)
O4 O 0.2569(2) 0.0560(2) 0.22222(17)
O5 O 0.4895(3) 0.1733(3) 0.34797(16)
#END
