
#######################################################################
#
#                 Cambridge Crystallographic Data Centre
#                                CCDC
#
#######################################################################
#
# If this CIF has been generated from an entry in the Cambridge
# Structural Database, then it will include bibliographic, chemical,
# crystal, experimental, refinement or atomic coordinate data resulting
# from the CCDC's data processing and validation procedures.
#
#######################################################################

data_CSD_CIF_UHISUZ
_audit_creation_date 2003-10-08
_audit_creation_method CSD-ConQuest-V1
_database_code_CSD UHISUZ
_database_code_depnum_ccdc_archive 'CCDC 208857'
_chemical_formula_sum 'C15 H26 N2 O2'
_chemical_formula_moiety
;
C15 H26 N2 O2
;
_journal_coden_Cambridge 1078
_journal_year 2003
_journal_name_full 'CSD Communication(Private Communication) '
loop_
_publ_author_name
"K.Mereiter"
"C.Sperger"
"J.Frohlich"
_chemical_name_systematic
;
Spiro(6.6)tridecane-1,8-dione bis(O-methyl-oxime)
;
_cell_volume   1486.029
_exptl_crystal_colour 'colorless'
_exptl_crystal_density_diffrn 1.191
_exptl_special_details
;
contribution from Department of Chemistry, Vienna University of Technology, 
Getreidemarkt 9, A-1060 Vienna, Austria
;
_exptl_crystal_description 'prism'
_exptl_crystal_preparation 'ethanol'
_diffrn_ambient_temperature 100
#These two values have been output from a single CSD field.
_refine_ls_R_factor_gt 0.0482
_refine_ls_wR_factor_gt 0.0482
_symmetry_cell_setting monoclinic
_symmetry_space_group_name_H-M 'P 21/c'
_symmetry_Int_Tables_number 14
loop_
_symmetry_equiv_pos_site_id
_symmetry_equiv_pos_as_xyz
1 x,y,z
2 x,1/2-y,1/2+z
3 -x,-y,-z
4 -x,-1/2+y,-1/2-z
_cell_length_a 9.1460(6)
_cell_length_b 17.9085(12)
_cell_length_c 9.1151(6)
_cell_angle_alpha 90
_cell_angle_beta 95.528(10)
_cell_angle_gamma 90
_cell_formula_units_Z 4
loop_
_atom_type_symbol
_atom_type_radius_bond
C 0.68
H 0.23
N 0.68
O 0.68
loop_
_atom_site_label
_atom_site_type_symbol
_atom_site_fract_x
_atom_site_fract_y
_atom_site_fract_z
O1 O 0.94978(8) 0.18071(5) 0.14936(9)
O2 O 0.63317(9) 0.14192(4) 0.69594(8)
N1 N 0.80207(9) 0.16340(5) 0.17403(10)
N2 N 0.65968(10) 0.09567(5) 0.57437(9)
C1 C 0.64668(11) 0.08625(5) 0.31013(10)
C2 C 0.79790(11) 0.11090(5) 0.26886(10)
C3 C 0.93183(12) 0.07286(6) 0.34295(12)
H1 H 0.91020 0.05420 0.44080
H2 H 1.01320 0.10930 0.35820
C4 C 0.97922(14) 0.00732(7) 0.24927(14)
H3 H 0.98220 0.02470 0.14650
H4 H 1.08000 -0.00790 0.28670
C5 C 0.87855(14) -0.06098(7) 0.24911(13)
H5 H 0.89370 -0.08510 0.34710
H6 H 0.90890 -0.09720 0.17570
C6 C 0.71428(13) -0.04499(6) 0.21455(12)
H7 H 0.66110 -0.09300 0.20160
H8 H 0.69930 -0.01740 0.12010
C7 C 0.64762(12) 0.00072(5) 0.33493(11)
H9 H 0.70360 -0.01010 0.43100
H10 H 0.54530 -0.01620 0.34100
C8 C 0.62488(11) 0.12936(5) 0.4520(1)
C9 C 0.56773(12) 0.20809(5) 0.44016(11)
H11 H 0.59630 0.23100 0.34830
H12 H 0.61270 0.23780 0.52440
C10 C 0.39958(12) 0.21008(6) 0.43946(11)
H13 H 0.37050 0.17790 0.52000
H14 H 0.36870 0.26180 0.45970
C11 C 0.31888(12) 0.18413(6) 0.29431(12)
H15 H 0.33430 0.22160 0.21750
H16 H 0.21230 0.18260 0.30560
C12 C 0.36586(12) 0.10760(6) 0.24062(12)
H17 H 0.29510 0.09150 0.15760
H18 H 0.36110 0.07100 0.32140
C13 C 0.52192(11) 0.10635(6) 0.18982(11)
H19 H 0.54290 0.15620 0.14970
H20 H 0.52350 0.06990 0.10830
C14 C 0.94859(14) 0.24481(7) 0.05610(15)
H21 H 1.04960 0.25780 0.03870
H22 H 0.90350 0.28690 0.10370
H23 H 0.89190 0.23380 -0.03820
C15 C 0.69157(14) 0.10572(6) 0.82799(11)
H24 H 0.66480 0.13410 0.91340
H25 H 0.79880 0.10310 0.83040
H26 H 0.65130 0.05510 0.83100
#END
