
#######################################################################
#
#                 Cambridge Crystallographic Data Centre
#                                CCDC
#
#######################################################################
#
# If this CIF has been generated from an entry in the Cambridge
# Structural Database, then it will include bibliographic, chemical,
# crystal, experimental, refinement or atomic coordinate data resulting
# from the CCDC's data processing and validation procedures.
#
#######################################################################

data_CSD_CIF_UHOPAJ
_audit_creation_date 2010-04-23
_audit_creation_method CSD-ConQuest-V1
_database_code_CSD UHOPAJ
_database_code_depnum_ccdc_archive 'CCDC 668099'
_chemical_formula_sum 'C9 H13 N2 O1'
_chemical_formula_moiety
;
C9 H13 N2 O1
;
_journal_coden_Cambridge 1291
_journal_year 2009
_journal_page_first 2548
_journal_name_full 'Eur.J.Org.Chem. '
loop_
_publ_author_name
"E.Tretyakov"
"S.Tolstikov"
"A.Mareev"
"A.Medvedeva"
"G.Romanenko"
"D.Stass"
"A.Bogomyakov"
"V.Ovcharenko"
_chemical_name_systematic
;
2-Ethynyl-4,4,5,5-tetramethyl-4,5-dihydro-1H-imidazole-1-oxyl
;
_cell_volume   1871.435
_exptl_crystal_density_diffrn 1.173
_diffrn_ambient_temperature 200
#These two values have been output from a single CSD field.
_refine_ls_R_factor_gt 0.0651
_refine_ls_wR_factor_gt 0.0651
_symmetry_cell_setting orthorhombic
_symmetry_space_group_name_H-M 'P b c a'
_symmetry_Int_Tables_number 61
loop_
_symmetry_equiv_pos_site_id
_symmetry_equiv_pos_as_xyz
1 x,y,z
2 1/2-x,-y,1/2+z
3 -x,1/2+y,1/2-z
4 1/2+x,1/2-y,-z
5 -x,-y,-z
6 -1/2+x,y,-1/2-z
7 x,-1/2-y,-1/2+z
8 -1/2-x,-1/2+y,z
_cell_length_a 10.478(2)
_cell_length_b 11.330(3)
_cell_length_c 15.764(4)
_cell_angle_alpha 90
_cell_angle_beta 90
_cell_angle_gamma 90
_cell_formula_units_Z 8
loop_
_atom_type_symbol
_atom_type_radius_bond
C 0.68
H 0.23
N 0.68
O 0.68
loop_
_atom_site_label
_atom_site_type_symbol
_atom_site_fract_x
_atom_site_fract_y
_atom_site_fract_z
O1 O 0.13001(15) -0.00651(12) 0.13068(12)
N1 N 0.08197(16) 0.09575(13) 0.12577(11)
C1 C 0.1477(2) 0.20562(16) 0.15424(14)
C2 C 0.1497(3) 0.2004(3) 0.25041(19)
H1 H 0.064(3) 0.202(2) 0.2743(17)
H2 H 0.195(3) 0.268(3) 0.2708(18)
H3 H 0.197(3) 0.127(3) 0.2685(19)
C3 C 0.2825(2) 0.2095(2) 0.1182(2)
H4 H 0.335(3) 0.148(3) 0.1449(19)
H5 H 0.324(3) 0.279(3) 0.1341(19)
H6 H 0.283(4) 0.203(3) 0.054(2)
C4 C 0.05172(19) 0.29796(16) 0.11753(14)
C5 C 0.0861(3) 0.3381(2) 0.02807(17)
H7 H 0.015(3) 0.388(2) 0.0075(16)
H8 H 0.159(3) 0.384(2) 0.0284(16)
H9 H 0.092(2) 0.273(2) -0.0091(17)
C6 C 0.0325(3) 0.4050(2) 0.1747(2)
H10 H -0.021(3) 0.462(3) 0.1446(18)
H11 H 0.115(3) 0.439(2) 0.1873(17)
H12 H -0.006(3) 0.381(2) 0.2292(19)
N2 N -0.07174(16) 0.23230(14) 0.10859(11)
C7 C -0.04571(18) 0.12128(16) 0.10997(12)
C8 C -0.1345(2) 0.02610(17) 0.09995(13)
C9 C -0.2048(2) -0.05529(19) 0.09541(14)
H13 H -0.263(3) -0.117(2) 0.0908(15)
#END
