
#######################################################################
#
#                 Cambridge Crystallographic Data Centre
#                                CCDC
#
#######################################################################
#
# If this CIF has been generated from an entry in the Cambridge
# Structural Database, then it will include bibliographic, chemical,
# crystal, experimental, refinement or atomic coordinate data resulting
# from the CCDC's data processing and validation procedures.
#
#######################################################################

data_CSD_CIF_UHOQEO
_audit_creation_date 2010-04-23
_audit_creation_method CSD-ConQuest-V1
_database_code_CSD UHOQEO
_database_code_depnum_ccdc_archive 'CCDC 710698'
_chemical_formula_sum 'C11 H19 N2 O3'
_chemical_formula_moiety
;
C11 H19 N2 O3
;
_journal_coden_Cambridge 1291
_journal_year 2009
_journal_page_first 2548
_journal_name_full 'Eur.J.Org.Chem. '
loop_
_publ_author_name
"E.Tretyakov"
"S.Tolstikov"
"A.Mareev"
"A.Medvedeva"
"G.Romanenko"
"D.Stass"
"A.Bogomyakov"
"V.Ovcharenko"
_chemical_name_systematic
;
(E)-2-(2-Ethoxyvinyl)-4,4,5,5-tetramethyl-4,5-dihydro-1H-imidazol-3-oxide 
1-oxyl
;
_cell_volume   1234.788
_exptl_crystal_density_diffrn 1.223
_exptl_crystal_preparation 'hexane'
_diffrn_ambient_temperature 150
#These two values have been output from a single CSD field.
_refine_ls_R_factor_gt 0.0539
_refine_ls_wR_factor_gt 0.0539
_symmetry_cell_setting monoclinic
_symmetry_space_group_name_H-M 'P 21/n'
_symmetry_Int_Tables_number 14
loop_
_symmetry_equiv_pos_site_id
_symmetry_equiv_pos_as_xyz
1 x,y,z
2 1/2-x,1/2+y,1/2-z
3 -x,-y,-z
4 -1/2+x,-1/2-y,-1/2+z
_cell_length_a 6.2041(12)
_cell_length_b 12.195(2)
_cell_length_c 16.467(3)
_cell_angle_alpha 90
_cell_angle_beta 97.65(3)
_cell_angle_gamma 90
_cell_formula_units_Z 4
loop_
_atom_type_symbol
_atom_type_radius_bond
C 0.68
H 0.23
N 0.68
O 0.68
loop_
_atom_site_label
_atom_site_type_symbol
_atom_site_fract_x
_atom_site_fract_y
_atom_site_fract_z
O1 O 0.1790(2) 0.55715(10) 0.08055(9)
N1 N 0.3287(2) 0.50236(11) 0.12271(9)
C1 C 0.5140(3) 0.55634(14) 0.17260(12)
N2 N 0.5231(2) 0.36432(12) 0.17205(9)
O2 O 0.5905(2) 0.26548(11) 0.18611(9)
C2 C 0.6572(4) 0.6007(2) 0.11283(18)
O3 O 0.0391(2) 0.14952(9) 0.04097(8)
C3 C 0.4306(4) 0.6487(2) 0.22096(18)
C4 C 0.6127(3) 0.45778(14) 0.22423(12)
C5 C 0.8564(4) 0.4543(2) 0.23785(19)
C6 C 0.5208(5) 0.4432(2) 0.30475(15)
C7 C 0.3469(3) 0.39287(14) 0.1215(1)
C8 C 0.1887(3) 0.32540(15) 0.07543(11)
C9 C 0.1923(3) 0.21688(16) 0.07715(12)
C10 C -0.1560(4) 0.19696(17) 0.00272(16)
C11 C -0.3137(5) 0.1068(2) -0.02099(19)
H1 H 0.909(3) 0.4549(16) 0.1804(15)
H2 H 0.079(3) 0.3611(15) 0.0452(11)
H3 H 0.905(3) 0.5146(18) 0.2679(14)
H4 H 0.317(3) 0.1796(14) 0.1084(10)
H5 H 0.363(4) 0.702(2) 0.1857(15)
H6 H 0.542(4) 0.6768(17) 0.2608(14)
H7 H 0.323(4) 0.6207(17) 0.2526(13)
H8 H -0.342(4) 0.070(2) 0.0269(17)
H9 H -0.256(4) 0.057(2) -0.0522(17)
H10 H -0.221(3) 0.2411(18) 0.0391(13)
H11 H -0.459(4) 0.1353(18) -0.0475(14)
H12 H 0.773(4) 0.6374(17) 0.1436(13)
H13 H 0.903(3) 0.3879(18) 0.2735(13)
H14 H 0.716(4) 0.5418(19) 0.0819(15)
H15 H 0.360(5) 0.4446(19) 0.3002(15)
H16 H 0.581(4) 0.376(2) 0.3308(15)
H17 H 0.589(4) 0.5022(19) 0.3407(14)
H18 H -0.130(3) 0.2362(18) -0.0427(14)
H19 H 0.568(4) 0.658(2) 0.0771(16)
#END
