
#######################################################################
#
#                 Cambridge Crystallographic Data Centre
#                                CCDC
#
#######################################################################
#
# If this CIF has been generated from an entry in the Cambridge
# Structural Database, then it will include bibliographic, chemical,
# crystal, experimental, refinement or atomic coordinate data resulting
# from the CCDC's data processing and validation procedures.
#
#######################################################################

data_CSD_CIF_UHOQOY
_audit_creation_date 2010-04-23
_audit_creation_method CSD-ConQuest-V1
_database_code_CSD UHOQOY
_database_code_depnum_ccdc_archive 'CCDC 710700'
_chemical_formula_sum 'C13 H24 N3 O2'
_chemical_formula_moiety
;
C13 H24 N3 O2
;
_journal_coden_Cambridge 1291
_journal_year 2009
_journal_page_first 2548
_journal_name_full 'Eur.J.Org.Chem. '
loop_
_publ_author_name
"E.Tretyakov"
"S.Tolstikov"
"A.Mareev"
"A.Medvedeva"
"G.Romanenko"
"D.Stass"
"A.Bogomyakov"
"V.Ovcharenko"
_chemical_name_systematic
;
(E)-2-(2-(Diethylamino)vinyl)-4,4,5,5-tetramethyl-4,5-dihydro-1H-imidazole-3-o
xide-1-oxyl
;
_chemical_melting_point 378.15
_cell_volume   1442.753
_exptl_crystal_colour 'dark green'
_exptl_crystal_density_diffrn 1.171
_exptl_special_details
;
Melting point range 378.15-379.15K

;
_exptl_crystal_description 'needles'
_exptl_crystal_preparation 'hexane'
_diffrn_ambient_temperature 240
#These two values have been output from a single CSD field.
_refine_ls_R_factor_gt 0.0645
_refine_ls_wR_factor_gt 0.0645
_symmetry_cell_setting monoclinic
_symmetry_space_group_name_H-M 'P 21/n'
_symmetry_Int_Tables_number 14
loop_
_symmetry_equiv_pos_site_id
_symmetry_equiv_pos_as_xyz
1 x,y,z
2 1/2-x,1/2+y,1/2-z
3 -x,-y,-z
4 -1/2+x,-1/2-y,-1/2+z
_cell_length_a 10.617(2)
_cell_length_b 9.982(2)
_cell_length_c 14.155(3)
_cell_angle_alpha 90
_cell_angle_beta 105.898(3)
_cell_angle_gamma 90
_cell_formula_units_Z 4
loop_
_atom_type_symbol
_atom_type_radius_bond
C 0.68
H 0.23
N 0.68
O 0.68
loop_
_atom_site_label
_atom_site_type_symbol
_atom_site_fract_x
_atom_site_fract_y
_atom_site_fract_z
N1 N 0.87897(17) 0.64517(17) 0.05907(13)
O1 O 0.89955(18) 0.67323(17) -0.02435(11)
C1 C 0.7647(2) 0.5630(2) 0.06522(17)
N2 N 0.89214(17) 0.64284(17) 0.21484(12)
O2 O 0.92999(17) 0.67032(17) 0.30720(11)
C2 C 0.7475(4) 0.4461(3) -0.0046(3)
H1 H 0.833(3) 0.395(3) 0.006(2)
H2 H 0.713(3) 0.476(4) -0.073(3)
H3 H 0.682(3) 0.382(3) 0.0105(19)
C3 C 0.6458(3) 0.6555(3) 0.0357(3)
H4 H 0.657(3) 0.730(3) 0.094(2)
H5 H 0.571(3) 0.605(3) 0.0399(19)
H6 H 0.633(4) 0.677(4) -0.032(3)
C4 C 0.8052(2) 0.5275(2) 0.17492(16)
C5 C 0.8908(4) 0.4020(3) 0.1977(3)
H7 H 0.922(3) 0.398(3) 0.276(2)
H8 H 0.964(3) 0.408(3) 0.162(2)
H9 H 0.840(3) 0.324(3) 0.175(2)
C6 C 0.6958(4) 0.5178(4) 0.2233(3)
H10 H 0.646(3) 0.602(4) 0.215(2)
H11 H 0.721(3) 0.505(4) 0.292(3)
H12 H 0.636(3) 0.446(3) 0.194(2)
C7 C 0.94138(19) 0.7001(2) 0.14648(14)
C8 C 1.0397(2) 0.7996(2) 0.16760(17)
H13 H 1.0679(19) 0.821(2) 0.2364(16)
C9 C 1.0881(2) 0.8551(2) 0.09826(18)
H14 H 1.056(2) 0.822(2) 0.0309(16)
N3 N 1.17940(17) 0.95082(18) 0.11060(14)
C10 C 1.3535(3) 0.9432(5) 0.0266(3)
H15 H 1.376(3) 0.970(3) -0.034(2)
H16 H 1.364(4) 0.846(5) 0.041(3)
H17 H 1.422(5) 0.988(5) 0.084(4)
C11 C 1.2316(2) 1.0173(3) 0.2047(2)
H18 H 1.312(2) 1.056(2) 0.2038(16)
H19 H 1.246(2) 0.951(2) 0.2578(17)
C12 C 1.2220(3) 0.9966(3) 0.0262(2)
H20 H 1.222(3) 1.087(3) 0.0275(19)
H21 H 1.157(3) 0.957(3) -0.039(2)
C13 C 1.1419(3) 1.1251(3) 0.2227(2)
H22 H 1.180(3) 1.172(3) 0.284(2)
H23 H 1.058(3) 1.087(3) 0.2268(19)
H24 H 1.130(2) 1.189(2) 0.1695(18)
#END
