
#######################################################################
#
#                 Cambridge Crystallographic Data Centre
#                                CCDC
#
#######################################################################
#
# If this CIF has been generated from an entry in the Cambridge
# Structural Database, then it will include bibliographic, chemical,
# crystal, experimental, refinement or atomic coordinate data resulting
# from the CCDC's data processing and validation procedures.
#
#######################################################################

data_CSD_CIF_UHUGUZ
_audit_creation_date 2003-10-08
_audit_creation_method CSD-ConQuest-V1
_database_code_CSD UHUGUZ
_database_code_depnum_ccdc_archive 'CCDC 109501'
_chemical_formula_sum 'C13 H19 N1 O7'
_chemical_formula_moiety
;
C13 H19 N1 O7
;
_journal_coden_Cambridge 599
_journal_volume 18
_journal_year 1999
_journal_page_first 343
_journal_name_full 'J.Carbohydr.Chem. '
loop_
_publ_author_name
"J.M.J.Tronchet"
"S.Zerelli"
"G.Bernardinelli"
_chemical_name_systematic
;
(E)-1,2-Dideoxy-3,4:5,6-di-O-isopropylidene-1-nitro-\b-D-arabino-hept-1-enos-3
-ulo-3,7-pyranose
;
_cell_volume   1477.223
_exptl_crystal_colour 'colorless'
_exptl_crystal_density_diffrn 1.355
_exptl_crystal_description 'prism'
_diffrn_ambient_temperature 200
#These two values have been output from a single CSD field.
_refine_ls_R_factor_gt 0.025
_refine_ls_wR_factor_gt 0.025
_symmetry_cell_setting orthorhombic
_symmetry_space_group_name_H-M 'P 21 21 21'
_symmetry_Int_Tables_number 19
loop_
_symmetry_equiv_pos_site_id
_symmetry_equiv_pos_as_xyz
1 x,y,z
2 1/2-x,-y,1/2+z
3 1/2+x,1/2-y,-z
4 -x,1/2+y,1/2-z
_cell_length_a 9.9585(4)
_cell_length_b 11.4521(7)
_cell_length_c 12.9529(6)
_cell_angle_alpha 90
_cell_angle_beta 90
_cell_angle_gamma 90
_cell_formula_units_Z 4
loop_
_atom_type_symbol
_atom_type_radius_bond
C 0.68
H 0.23
N 0.68
O 0.68
loop_
_atom_site_label
_atom_site_type_symbol
_atom_site_fract_x
_atom_site_fract_y
_atom_site_fract_z
O1 O 0.61982(19) 0.54936(17) 0.70605(14)
O2 O 0.60211(19) 0.74993(16) 0.69189(14)
O3 O 0.6984(2) 0.73746(15) 0.53388(14)
O4 O 0.54524(19) 0.45880(16) 0.48159(15)
O5 O 0.6971(2) 0.35597(16) 0.57410(15)
O6 O 0.1138(3) 0.7730(3) 0.71462(19)
O7 O 0.1384(3) 0.5895(3) 0.68015(19)
N1 N 0.1838(3) 0.6865(3) 0.6986(2)
C1 C 0.5583(3) 0.6417(3) 0.6517(3)
C2 C 0.5989(4) 0.6481(3) 0.5358(3)
C3 C 0.6561(3) 0.5360(3) 0.4937(3)
C4 C 0.7519(3) 0.4716(3) 0.5663(3)
C5 C 0.7547(3) 0.5261(3) 0.6725(3)
C6 C 0.6601(3) 0.8202(3) 0.6116(3)
C7 C 0.7834(4) 0.8795(3) 0.6518(3)
C8 C 0.5551(4) 0.9049(3) 0.5711(3)
C9 C 0.5948(3) 0.3431(3) 0.4981(3)
C10 C 0.4830(4) 0.2704(4) 0.5424(3)
C11 C 0.6504(4) 0.2934(4) 0.3990(3)
C12 C 0.4097(4) 0.6243(3) 0.6635(3)
C13 C 0.3290(3) 0.7040(4) 0.6997(3)
H1 H 0.516(4) 0.675(3) 0.497(3)
H2 H 0.698(4) 0.544(3) 0.427(3)
H3 H 0.848(4) 0.461(3) 0.540(3)
H4 H 0.794(4) 0.469(3) 0.722(3)
H5 H 0.806(4) 0.604(3) 0.672(3)
H6 H 0.826(3) 0.930(3) 0.594(3)
H7 H 0.756(2) 0.933(3) 0.710(3)
H8 H 0.850(3) 0.820(3) 0.6777(18)
H9 H 0.476(3) 0.860(2) 0.5433(19)
H10 H 0.524(3) 0.959(3) 0.632(3)
H11 H 0.597(3) 0.953(3) 0.516(3)
H12 H 0.409(3) 0.2664(18) 0.492(3)
H13 H 0.517(3) 0.189(3) 0.5573(18)
H14 H 0.450(3) 0.305(2) 0.604(3)
H15 H 0.683(3) 0.208(3) 0.4116(16)
H16 H 0.581(3) 0.2930(19) 0.348(2)
H17 H 0.730(3) 0.343(3) 0.3748(17)
H18 H 0.375(4) 0.547(4) 0.641(3)
H19 H 0.353(4) 0.777(4) 0.724(3)
#END
