
#######################################################################
#
#                 Cambridge Crystallographic Data Centre
#                                CCDC
#
#######################################################################
#
# If this CIF has been generated from an entry in the Cambridge
# Structural Database, then it will include bibliographic, chemical,
# crystal, experimental, refinement or atomic coordinate data resulting
# from the CCDC's data processing and validation procedures.
#
#######################################################################

data_CSD_CIF_UHULOZ
_audit_creation_date 2010-05-04
_audit_creation_method CSD-ConQuest-V1
_database_code_CSD UHULOZ
_database_code_depnum_ccdc_archive 'CCDC 711620'
_chemical_formula_sum 'C15 H10 N4 O4'
_chemical_formula_moiety
;
C15 H10 N4 O4
;
_journal_coden_Cambridge 392
_journal_volume 78
_journal_year 2009
_journal_page_first 999
_journal_name_full 'Heterocycles '
loop_
_publ_author_name
"A.Patel"
"F.Bures"
"M.Ludwig"
"J.Kulhanek"
"O.Pytela"
"A.Ruzicka"
_chemical_name_systematic
;
4,5-bis(4-Nitrophenyl)-1H-imidazole
;
_chemical_melting_point 550.15
_cell_volume   1310.468
_exptl_crystal_colour 'yellow'
_exptl_crystal_density_diffrn 1.573
_exptl_special_details
;
Melting point range 550.15-553.15K

;
_exptl_crystal_description 'plate'
_diffrn_ambient_temperature 150
#These two values have been output from a single CSD field.
_refine_ls_R_factor_gt 0.0658
_refine_ls_wR_factor_gt 0.0658
_symmetry_cell_setting monoclinic
_symmetry_space_group_name_H-M 'C c'
_symmetry_Int_Tables_number 9
loop_
_symmetry_equiv_pos_site_id
_symmetry_equiv_pos_as_xyz
1 x,y,z
2 x,-y,1/2+z
3 1/2+x,1/2+y,z
4 1/2+x,1/2-y,1/2+z
_cell_length_a 6.845(1)
_cell_length_b 33.834(2)
_cell_length_c 6.426(1)
_cell_angle_alpha 90
_cell_angle_beta 118.29(5)
_cell_angle_gamma 90
_cell_formula_units_Z 4
loop_
_atom_type_symbol
_atom_type_radius_bond
C 0.68
H 0.23
N 0.68
O 0.68
loop_
_atom_site_label
_atom_site_type_symbol
_atom_site_fract_x
_atom_site_fract_y
_atom_site_fract_z
O1 O -0.0601(5) 0.11053(9) -1.2221(5)
N1 N 0.5760(6) 0.04261(8) -0.0061(6)
N2 N 0.5818(7) 0.27687(9) 0.0341(8)
C1 C 0.5316(8) 0.21463(12) 0.2000(8)
H1 H 0.50040 0.22890 0.30450
O2 O 0.5346(7) 0.29468(9) 0.1682(7)
C2 C 0.3602(7) 0.04648(11) -0.5018(7)
H2 H 0.43440 0.02370 -0.42240
C3 C 0.3771(6) 0.08066(10) -0.3726(6)
C4 C 0.2354(7) 0.04541(12) -0.7436(7)
H3 H 0.22140 0.02210 -0.82620
C5 C 0.5792(8) 0.23333(9) 0.0387(9)
N3 N 0.6912(5) 0.08897(9) 0.2677(6)
H4 H 0.75220 0.09970 0.40560
C6 C 0.5843(7) 0.10855(9) 0.0554(8)
O3 O -0.0276(6) 0.04710(9) -1.2205(6)
C7 C 0.5807(7) 0.15216(9) 0.0485(7)
C8 C 0.1412(6) 0.11392(11) -0.7390(7)
H5 H 0.06660 0.13650 -0.82000
C9 C 0.6306(7) 0.17236(11) -0.1090(7)
H6 H 0.66530 0.15840 -0.21190
C10 C 0.5337(7) 0.17355(12) 0.2032(8)
H7 H 0.50230 0.16030 0.31060
C11 C 0.2594(6) 0.11386(10) -0.4971(7)
H8 H 0.26190 0.13660 -0.41440
O4 O 0.6310(7) 0.29289(9) -0.1065(7)
N4 N 0.0073(6) 0.07869(11) -1.1165(6)
C12 C 0.6825(7) 0.04987(11) 0.2200(7)
H9 H 0.74420 0.03040 0.33540
C13 C 0.1309(7) 0.07929(12) -0.8614(7)
C14 C 0.6313(7) 0.21307(11) -0.1136(7)
H10 H 0.66430 0.22670 -0.21850
C15 C 0.5115(6) 0.07927(11) -0.1160(7)
#END
