
#######################################################################
#
#                 Cambridge Crystallographic Data Centre
#                                CCDC
#
#######################################################################
#
# If this CIF has been generated from an entry in the Cambridge
# Structural Database, then it will include bibliographic, chemical,
# crystal, experimental, refinement or atomic coordinate data resulting
# from the CCDC's data processing and validation procedures.
#
#######################################################################

data_CSD_CIF_UHURAS
_audit_creation_date 2015-04-27
_audit_creation_method CSD-ConQuest-V1
_database_code_CSD UHURAS
_database_code_depnum_ccdc_archive 'CCDC 1051697'
_chemical_formula_sum 'C14 H10 N2 O5'
_chemical_formula_moiety
;
C14 H10 N2 O5
;
_journal_coden_Cambridge 1291
_journal_year 2015
_journal_page_first 3513
_journal_name_full 'Eur.J.Org.Chem. '
loop_
_publ_author_name
"P.Raju"
"G.G.Rajeshwaran"
"M.Nandakumar"
"A.K.Mohanakrishnan"
_chemical_name_systematic
;
(2S,3R)-2,3-bis(4-nitrophenyl)oxirane
;
_chemical_melting_point 445
_cell_volume   1279.013
_exptl_crystal_colour 'colorless'
_exptl_crystal_density_diffrn 1.486
_exptl_special_details
;
Melting point range 445-447K

;
_exptl_crystal_description 'monoclinic'
_exptl_crystal_preparation 'Re-crystallisation from solvent'
_diffrn_ambient_temperature 293
#These two values have been output from a single CSD field.
_refine_ls_R_factor_gt 0.0431
_refine_ls_wR_factor_gt 0.0431
_symmetry_cell_setting monoclinic
_symmetry_space_group_name_H-M 'P 21/c'
_symmetry_Int_Tables_number 14
loop_
_symmetry_equiv_pos_site_id
_symmetry_equiv_pos_as_xyz
1 x,y,z
2 -x,1/2+y,1/2-z
3 -x,-y,-z
4 x,-1/2-y,-1/2+z
_cell_length_a 7.600(5)
_cell_length_b 21.916(5)
_cell_length_c 7.771(5)
_cell_angle_alpha 90
_cell_angle_beta 98.829(5)
_cell_angle_gamma 90
_cell_formula_units_Z 4
loop_
_atom_type_symbol
_atom_type_radius_bond
C 0.68
H 0.23
N 0.68
O 0.68
loop_
_atom_site_label
_atom_site_type_symbol
_atom_site_fract_x
_atom_site_fract_y
_atom_site_fract_z
C1 C 0.74776(19) 0.00851(6) 0.54357(19)
C2 C 0.6710(2) 0.06523(7) 0.51587(19)
H1 H 0.63400 0.07970 0.40360
C3 C 0.6505(2) 0.10000(7) 0.6595(2)
H2 H 0.59930 0.13850 0.64420
C4 C 0.70531(18) 0.07811(7) 0.82587(18)
C5 C 0.7828(2) 0.02108(7) 0.8484(2)
H3 H 0.81960 0.00630 0.96040
C6 C 0.8061(2) -0.01424(7) 0.7067(2)
H4 H 0.85990 -0.05240 0.72140
C7 C 0.6716(2) 0.11425(7) 0.98023(19)
H5 H 0.54860 0.11260 1.00340
C8 C 0.7690(2) 0.16992(7) 1.04294(19)
H6 H 0.70010 0.19910 1.10100
C9 C 0.91867(19) 0.19695(6) 0.96770(17)
C10 C 1.05450(19) 0.16172(6) 0.91813(19)
H7 H 1.04840 0.11940 0.92470
C11 C 1.1975(2) 0.18853(7) 0.8596(2)
H8 H 1.28700 0.16480 0.82470
C12 C 1.20572(19) 0.25103(7) 0.85357(18)
C13 C 1.0726(2) 0.28761(7) 0.89935(19)
H9 H 1.07980 0.32990 0.89260
C14 C 0.9294(2) 0.26004(7) 0.95504(19)
H10 H 0.83770 0.28400 0.98490
N1 N 0.7675(2) -0.02943(6) 0.39206(19)
N2 N 1.3622(2) 0.27937(7) 0.79662(18)
O1 O 0.8558(2) -0.07616(7) 0.41702(19)
O2 O 0.6942(2) -0.01344(7) 0.24943(17)
O3 O 1.47421(19) 0.24615(8) 0.7480(2)
O4 O 1.3729(2) 0.33469(7) 0.7978(2)
O5 O 0.80375(15) 0.11266(5) 1.13278(13)
#END
