
#######################################################################
#
#                 Cambridge Crystallographic Data Centre
#                                CCDC
#
#######################################################################
#
# If this CIF has been generated from an entry in the Cambridge
# Structural Database, then it will include bibliographic, chemical,
# crystal, experimental, refinement or atomic coordinate data resulting
# from the CCDC's data processing and validation procedures.
#
#######################################################################

data_CSD_CIF_UJAVUX
_audit_creation_date 2011-04-19
_audit_creation_method CSD-ConQuest-V1
_database_code_CSD UJAVUX
_database_code_depnum_ccdc_archive 'CCDC 783123'
_chemical_formula_sum 'C18 H19 N1 O4'
_chemical_formula_moiety
;
C18 H19 N1 O4
;
_journal_coden_Cambridge 36
_journal_volume 696
_journal_year 2011
_journal_page_first 388
_journal_name_full 'J.Organomet.Chem. '
loop_
_publ_author_name
"Y.Harrak"
"M.Makhlouf"
"S.Azzaro"
"E.Mainetti"
"J.M.L.Romero"
"K.Cariou"
"V.Gandon"
"J.-P.Goddard"
"M.Malacria"
"L.Fensterbank"
_chemical_name_systematic
;
5-Methylene-1,3,4,5,8,8a-hexahydronaphthalen-4a(2H)-yl 4-nitrobenzoate
;
_cell_volume   1658.418
_exptl_crystal_colour 'colorless'
_exptl_crystal_density_diffrn 1.255
_exptl_crystal_description 'prism'
_diffrn_ambient_temperature 293
#These two values have been output from a single CSD field.
_refine_ls_R_factor_gt 0.0744
_refine_ls_wR_factor_gt 0.0744
_symmetry_cell_setting monoclinic
_symmetry_space_group_name_H-M 'P 21/c'
_symmetry_Int_Tables_number 14
loop_
_symmetry_equiv_pos_site_id
_symmetry_equiv_pos_as_xyz
1 x,y,z
2 -x,1/2+y,1/2-z
3 -x,-y,-z
4 x,-1/2-y,-1/2+z
_cell_length_a 7.4341(2)
_cell_length_b 14.4862(5)
_cell_length_c 15.4000(5)
_cell_angle_alpha 90
_cell_angle_beta 90.379(1)
_cell_angle_gamma 90
_cell_formula_units_Z 4
loop_
_atom_type_symbol
_atom_type_radius_bond
C 0.68
H 0.23
N 0.68
O 0.68
loop_
_atom_site_label
_atom_site_type_symbol
_atom_site_fract_x
_atom_site_fract_y
_atom_site_fract_z
C1 C 0.4704(3) 0.51851(16) 0.17636(13)
C2 C 0.3319(4) 0.5534(2) 0.11134(16)
H1 H 0.39730 0.56780 0.05800
C3 C 0.1951(4) 0.4800(3) 0.0878(2)
H2 H 0.10920 0.47450 0.13470
H3 H 0.12970 0.49940 0.03620
C4 C 0.2772(7) 0.3883(3) 0.0716(2)
H4 H 0.21080 0.34460 0.04090
C5 C 0.4380(6) 0.3664(2) 0.0985(2)
H5 H 0.47930 0.30680 0.08790
C6 C 0.5549(4) 0.42906(19) 0.14355(16)
C7 C 0.6045(4) 0.5940(2) 0.19859(18)
H6 H 0.68430 0.57220 0.24420
H7 H 0.67700 0.60710 0.14790
C8 C 0.5157(7) 0.6813(3) 0.2278(2)
H8 H 0.45730 0.67030 0.28300
H9 H 0.60690 0.72830 0.23680
C9 C 0.3814(9) 0.7156(3) 0.1648(3)
H10 H 0.44230 0.73550 0.11250
H11 H 0.32040 0.76870 0.18920
C10 C 0.2444(6) 0.6431(3) 0.1414(2)
H12 H 0.16700 0.66650 0.09550
H13 H 0.17000 0.63060 0.19150
C11 C 0.4302(3) 0.46330(15) 0.32688(13)
C12 C 0.2894(3) 0.43063(14) 0.38875(12)
C13 C 0.1087(3) 0.42746(16) 0.36736(14)
H14 H 0.07100 0.44630 0.31240
C14 C -0.0164(3) 0.39668(16) 0.42661(15)
H15 H -0.13800 0.39410 0.41230
C15 C 0.0439(3) 0.36997(14) 0.50724(13)
C16 C 0.2223(3) 0.37293(17) 0.53066(14)
H16 H 0.25940 0.35470 0.58590
C17 C 0.3449(3) 0.40337(17) 0.47077(13)
H17 H 0.46640 0.40570 0.48550
C18 C 0.7265(5) 0.4068(3) 0.1568(3)
H18 H 0.77040 0.35060 0.13690
H19 H 0.80250 0.44740 0.18610
N1 N -0.0884(3) 0.33802(15) 0.57154(15)
O1 O 0.35823(18) 0.49373(11) 0.25281(8)
O2 O 0.5884(2) 0.46091(14) 0.34341(10)
O3 O -0.2459(3) 0.33549(18) 0.55128(15)
O4 O -0.0336(3) 0.3170(2) 0.64307(14)
#END
