
#######################################################################
#
#                 Cambridge Crystallographic Data Centre
#                                CCDC
#
#######################################################################
#
# If this CIF has been generated from an entry in the Cambridge
# Structural Database, then it will include bibliographic, chemical,
# crystal, experimental, refinement or atomic coordinate data resulting
# from the CCDC's data processing and validation procedures.
#
#######################################################################

data_CSD_CIF_UJAWAE
_audit_creation_date 2011-04-19
_audit_creation_method CSD-ConQuest-V1
_database_code_CSD UJAWAE
_database_code_depnum_ccdc_archive 'CCDC 784466'
_chemical_formula_sum 'C20 H23 N1 O4'
_chemical_formula_moiety
;
C20 H23 N1 O4
;
_journal_coden_Cambridge 36
_journal_volume 696
_journal_year 2011
_journal_page_first 388
_journal_name_full 'J.Organomet.Chem. '
loop_
_publ_author_name
"Y.Harrak"
"M.Makhlouf"
"S.Azzaro"
"E.Mainetti"
"J.M.L.Romero"
"K.Cariou"
"V.Gandon"
"J.-P.Goddard"
"M.Malacria"
"L.Fensterbank"
_chemical_name_systematic
;
2-(1,2,6,7,8,8a-Hexahydronaphthalen-2-yl)propan-2-yl 4-nitrobenzoate
;
_cell_volume   1855.260
_exptl_crystal_colour 'pale yellow'
_exptl_crystal_density_diffrn 1.222
_exptl_crystal_description 'block'
_diffrn_ambient_temperature 200
#These two values have been output from a single CSD field.
_refine_ls_R_factor_gt 0.0611
_refine_ls_wR_factor_gt 0.0611
_symmetry_cell_setting monoclinic
_symmetry_space_group_name_H-M 'P 21/c'
_symmetry_Int_Tables_number 14
loop_
_symmetry_equiv_pos_site_id
_symmetry_equiv_pos_as_xyz
1 x,y,z
2 -x,1/2+y,1/2-z
3 -x,-y,-z
4 x,-1/2-y,-1/2+z
_cell_length_a 10.4559(7)
_cell_length_b 7.0276(10)
_cell_length_c 25.252(3)
_cell_angle_alpha 90
_cell_angle_beta 90.948(8)
_cell_angle_gamma 90
_cell_formula_units_Z 4
loop_
_atom_type_symbol
_atom_type_radius_bond
C 0.68
H 0.23
N 0.68
O 0.68
loop_
_atom_site_label
_atom_site_type_symbol
_atom_site_fract_x
_atom_site_fract_y
_atom_site_fract_z
O1 O 0.32902(12) 0.3533(2) 0.14089(6)
O2 O 0.19275(10) 0.20190(17) 0.08370(5)
O3 O 0.66379(16) -0.4503(3) 0.02717(10)
O4 O 0.80507(14) -0.2641(3) 0.06068(7)
N1 N 0.69446(15) -0.3030(3) 0.04974(7)
C1 C 0.30549(16) 0.2326(3) 0.10786(7)
C2 C 0.07811(15) 0.3253(2) 0.09419(7)
C3 C -0.01502(17) 0.2600(3) 0.05028(7)
H1 H -0.03140 0.12630 0.05400
H2 H 0.02190 0.28370 0.01640
H3 H -0.09390 0.32910 0.05300
C4 C 0.11333(18) 0.5353(3) 0.08722(9)
H4 H 0.16230 0.55020 0.05570
H5 H 0.16310 0.57720 0.11730
H6 H 0.03670 0.60990 0.08430
C5 C 0.03040(15) 0.2759(2) 0.15058(7)
H7 H 0.10130 0.29910 0.17560
C6 C -0.00700(15) 0.0687(2) 0.15532(7)
H8 H 0.04290 -0.02150 0.13830
C7 C -0.10842(16) 0.0075(2) 0.18270(7)
H9 H -0.12730 -0.12180 0.18240
C8 C -0.19074(15) 0.1360(2) 0.21308(7)
C9 C -0.30073(18) 0.0755(3) 0.23516(9)
H10 H -0.32370 -0.05150 0.23080
C10 C -0.3882(2) 0.2021(3) 0.26647(9)
H11 H -0.41490 0.13500 0.29800
H12 H -0.46410 0.23030 0.24530
C11 C -0.3238(2) 0.3866(4) 0.28253(8)
H13 H -0.26490 0.36310 0.31190
H14 H -0.38780 0.47630 0.29430
C12 C -0.25080(18) 0.4725(3) 0.23632(8)
H15 H -0.21380 0.59330 0.24710
H16 H -0.30970 0.49620 0.20700
C13 C -0.14408(16) 0.3382(3) 0.21822(7)
H17 H -0.07720 0.33940 0.24590
C14 C -0.08227(17) 0.4047(2) 0.16680(8)
H18 H -0.05160 0.53400 0.17140
H19 H -0.14630 0.40530 0.13860
C15 C 0.40520(14) 0.0918(2) 0.08964(6)
C16 C 0.37265(15) -0.0740(3) 0.06223(7)
H20 H 0.28770 -0.09740 0.05280
C17 C 0.46710(17) -0.2049(3) 0.04885(8)
H21 H 0.44640 -0.31640 0.03080
C18 C 0.59275(15) -0.1640(3) 0.06323(7)
C19 C 0.62826(16) 0.0003(3) 0.08963(7)
H22 H 0.71370 0.02470 0.09800
C20 C 0.53307(15) 0.1282(3) 0.10336(7)
H23 H 0.55450 0.23870 0.12180
#END
