
#######################################################################
#
#                 Cambridge Crystallographic Data Centre
#                                CCDC
#
#######################################################################
#
# If this CIF has been generated from an entry in the Cambridge
# Structural Database, then it will include bibliographic, chemical,
# crystal, experimental, refinement or atomic coordinate data resulting
# from the CCDC's data processing and validation procedures.
#
#######################################################################

data_CSD_CIF_UJEMEB
_audit_creation_date 2003-10-08
_audit_creation_method CSD-ConQuest-V1
_database_code_CSD UJEMEB
_database_code_depnum_ccdc_archive 'CCDC 183247'
_chemical_formula_sum 'C7 H5 N3 O5'
_chemical_formula_moiety
;
C7 H5 N3 O5
;
_journal_coden_Cambridge 24
_journal_volume 44
_journal_year 2003
_journal_page_first 4857
_journal_name_full 'Tetrahedron Lett. '
loop_
_publ_author_name
"V.R.Pedireddi"
"J.PrakashaReddy"
"K.K.Arora"
_chemical_name_systematic
;
3,5-Dinitrobenzamide
;
_cell_volume   1727.958
_exptl_crystal_density_diffrn 1.623
_exptl_crystal_preparation 'methanol'
_diffrn_ambient_temperature 293
#These two values have been output from a single CSD field.
_refine_ls_R_factor_gt 0.0361
_refine_ls_wR_factor_gt 0.0361
_symmetry_cell_setting orthorhombic
_symmetry_space_group_name_H-M 'P b c a'
_symmetry_Int_Tables_number 61
loop_
_symmetry_equiv_pos_site_id
_symmetry_equiv_pos_as_xyz
1 x,y,z
2 1/2+x,y,1/2-z
3 x,1/2-y,1/2+z
4 1/2-x,1/2+y,z
5 -x,-y,-z
6 -1/2-x,-y,-1/2+z
7 -x,-1/2+y,-1/2-z
8 -1/2+x,-1/2-y,-z
_cell_length_a 8.2260(17)
_cell_length_b 8.8971(19)
_cell_length_c 23.610(5)
_cell_angle_alpha 90
_cell_angle_beta 90
_cell_angle_gamma 90
_cell_formula_units_Z 8
loop_
_atom_type_symbol
_atom_type_radius_bond
C 0.68
H 0.23
N 0.68
O 0.68
loop_
_atom_site_label
_atom_site_type_symbol
_atom_site_fract_x
_atom_site_fract_y
_atom_site_fract_z
O1 O 0.10000(16) 0.13197(14) 0.45374(6)
C1 C 0.1995(2) 0.0289(2) 0.44874(8)
C2 C 0.4823(2) -0.0299(2) 0.41267(8)
O2 O 0.7718(2) -0.1763(2) 0.41799(8)
C3 C 0.3113(2) 0.1400(2) 0.36123(8)
N1 N 0.1943(2) -0.0955(2) 0.47941(8)
C4 C 0.6014(2) -0.0084(2) 0.37257(8)
C5 C 0.3353(2) 0.04472(19) 0.40689(7)
C6 C 0.4327(2) 0.1552(2) 0.32161(7)
O3 O 0.8684(2) -0.0504(2) 0.34782(9)
N2 N 0.4038(2) 0.2549(2) 0.27270(7)
N3 N 0.7589(2) -0.0839(2) 0.38011(8)
C7 C 0.5790(3) 0.0815(2) 0.32592(8)
O4 O 0.3053(2) 0.3561(3) 0.27832(8)
O5 O 0.4794(3) 0.2307(2) 0.23001(7)
H1 H 0.212(3) 0.188(2) 0.3562(8)
H2 H 0.502(2) -0.093(2) 0.4442(8)
H3 H 0.658(3) 0.093(2) 0.3010(9)
H4 H 0.261(3) -0.167(3) 0.4729(8)
H5 H 0.115(3) -0.106(3) 0.5034(10)
#END
