
#######################################################################
#
#                 Cambridge Crystallographic Data Centre
#                                CCDC
#
#######################################################################
#
# If this CIF has been generated from an entry in the Cambridge
# Structural Database, then it will include bibliographic, chemical,
# crystal, experimental, refinement or atomic coordinate data resulting
# from the CCDC's data processing and validation procedures.
#
#######################################################################

data_CSD_CIF_UJIHEA
_audit_creation_date 2003-12-08
_audit_creation_method CSD-ConQuest-V1
_database_code_CSD UJIHEA
_database_code_depnum_ccdc_archive 'CCDC 211177'
_chemical_formula_sum 'C27 H37 N7 O4'
_chemical_formula_moiety
;
C27 H37 N7 O4
;
_journal_coden_Cambridge 9
_journal_volume 42
_journal_year 2003
_journal_page_first 2938
_journal_name_full 'Inorg.Chem. '
loop_
_publ_author_name
"C.Stroh"
"E.Belorizky"
"P.Turek"
"H.Bolvin"
"R.Ziessel"
_chemical_name_systematic
;
6-(N,N-bis((4,5-Dihydro-4,4,5,5-tetramethylimidazolinyl-3-oxide-1-oxyl-2-yl)me
thyl)aminomethyl)-2,2'-bipyridine
;
_cell_volume   1369.733
_exptl_crystal_colour 'dark red'
_exptl_crystal_density_diffrn 1.27
_exptl_crystal_description 'prism'
_diffrn_ambient_temperature 173
#These two values have been output from a single CSD field.
_refine_ls_R_factor_gt 0.046
_refine_ls_wR_factor_gt 0.046
_symmetry_cell_setting triclinic
_symmetry_space_group_name_H-M 'P -1'
_symmetry_Int_Tables_number 2
loop_
_symmetry_equiv_pos_site_id
_symmetry_equiv_pos_as_xyz
1 x,y,z
2 -x,-y,-z
_cell_length_a 10.7224(4)
_cell_length_b 11.0995(4)
_cell_length_c 13.1134(3)
_cell_angle_alpha 114.101(9)
_cell_angle_beta 97.476(9)
_cell_angle_gamma 99.667(9)
_cell_formula_units_Z 2
loop_
_atom_type_symbol
_atom_type_radius_bond
C 0.68
H 0.23
N 0.68
O 0.68
loop_
_atom_site_label
_atom_site_type_symbol
_atom_site_fract_x
_atom_site_fract_y
_atom_site_fract_z
N1 N 0.6927(1) 0.2414(1) 0.6691(1)
C1 C 0.5994(2) 0.2958(2) 0.6188(1)
C2 C 0.6592(2) 0.4323(2) 0.6299(1)
N2 N 0.7124(2) 0.4583(1) 0.5527(1)
C3 C 0.7605(2) 0.6068(2) 0.5867(1)
C4 C 0.7304(2) 0.6723(2) 0.7088(1)
N3 N 0.6641(2) 0.5499(1) 0.7191(1)
O1 O 0.7222(2) 0.3680(1) 0.4564(1)
C5 C 0.9018(2) 0.6349(3) 0.5833(2)
C6 C 0.6821(3) 0.6359(2) 0.4981(2)
C7 C 0.8481(3) 0.7403(4) 0.8054(2)
C8 C 0.6372(3) 0.7630(2) 0.7199(2)
O2 O 0.6194(2) 0.5600(1) 0.8070(1)
C9 C 0.7853(2) 0.1982(2) 0.5966(1)
C10 C 0.9077(2) 0.2011(2) 0.6652(1)
N4 N 1.0060(2) 0.3123(1) 0.7220(1)
C11 C 1.1111(2) 0.2904(2) 0.7953(1)
C12 C 1.0755(2) 0.1325(2) 0.7462(1)
N5 N 0.9387(1) 0.0969(1) 0.6804(1)
O3 O 1.0079(2) 0.4286(1) 0.7232(1)
C13 C 1.0956(3) 0.3643(3) 0.9176(2)
C14 C 1.2418(2) 0.3512(2) 0.7815(2)
C15 C 1.1508(2) 0.0612(2) 0.6585(2)
C16 C 1.0796(2) 0.0800(2) 0.8363(2)
O4 O 0.8672(1) -0.0252(1) 0.6371(1)
C17 C 0.6251(2) 0.1272(2) 0.6864(1)
C18 C 0.5657(2) 0.1680(2) 0.7902(1)
N6 N 0.4887(1) 0.0628(1) 0.7946(1)
C19 C 0.4380(2) 0.0864(2) 0.8874(1)
C20 C 0.4601(2) 0.2169(2) 0.9770(1)
C21 C 0.5370(2) 0.3234(2) 0.9693(1)
C22 C 0.5930(2) 0.3001(2) 0.8755(1)
C23 C 0.3540(2) -0.0332(2) 0.8900(1)
N7 N 0.3132(1) -0.0102(1) 0.9873(1)
C24 C 0.2352(2) -0.1151(2) 0.9908(1)
C25 C 0.1940(2) -0.2432(2) 0.9011(1)
C26 C 0.2361(2) -0.2660(2) 0.8012(1)
C27 C 0.3177(2) -0.1601(2) 0.7952(1)
H1 H 0.52950 0.30240 0.65680
H2 H 0.56750 0.23530 0.53980
H3 H 0.93370 0.72900 0.60480
H4 H 0.94930 0.61040 0.63510
H5 H 0.91170 0.58310 0.50790
H6 H 0.70930 0.72960 0.51600
H7 H 0.69540 0.58230 0.42440
H8 H 0.59270 0.61400 0.49840
H9 H 0.89420 0.81960 0.80280
H10 H 0.82200 0.76510 0.87630
H11 H 0.90250 0.67940 0.79840
H12 H 0.67720 0.84200 0.71360
H13 H 0.56110 0.71500 0.66080
H14 H 0.61470 0.78890 0.79240
H15 H 0.80320 0.25790 0.56230
H16 H 0.74830 0.10820 0.53860
H17 H 1.16000 0.35390 0.96830
H18 H 1.10510 0.45820 0.93730
H19 H 1.01200 0.32690 0.92370
H20 H 1.30890 0.33790 0.82760
H21 H 1.24690 0.30810 0.70340
H22 H 1.25130 0.44590 0.80470
H23 H 1.23890 0.08020 0.69550
H24 H 1.11440 -0.03420 0.62390
H25 H 1.14620 0.09310 0.60130
H26 H 1.16650 0.10300 0.87750
H27 H 1.02740 0.12020 0.88760
H28 H 1.04750 -0.01610 0.80020
H29 H 0.68560 0.07640 0.69440
H30 H 0.55770 0.07130 0.62050
H31 H 0.42280 0.23130 1.04160
H32 H 0.55190 0.41320 1.02820
H33 H 0.64840 0.37260 0.86990
H34 H 0.20650 -0.10020 1.05960
H35 H 0.13790 -0.31430 0.90770
H36 H 0.20930 -0.35340 0.73760
H37 H 0.34860 -0.17350 0.72760
#END
