
#######################################################################
#
#                 Cambridge Crystallographic Data Centre
#                                CCDC
#
#######################################################################
#
# If this CIF has been generated from an entry in the Cambridge
# Structural Database, then it will include bibliographic, chemical,
# crystal, experimental, refinement or atomic coordinate data resulting
# from the CCDC's data processing and validation procedures.
#
#######################################################################

data_CSD_CIF_UJOKOT
_audit_creation_date 2003-12-08
_audit_creation_method CSD-ConQuest-V1
_database_code_CSD UJOKOT
_database_code_depnum_ccdc_archive 'CCDC 199885'
_chemical_formula_sum 'C13 H18 N2 O1'
_chemical_formula_moiety
;
C13 H18 N2 O1
;
_journal_coden_Cambridge 1290
_journal_year 2003
_journal_page_first 2683
_journal_name_full 'Eur.J.Inorg.Chem. '
loop_
_publ_author_name
"E.Zangrando"
"M.Trani"
"E.Stabon"
"C.Carfagna"
"B.Milani"
"G.Mestroni"
_chemical_name_systematic
;
(E,E)-2-(Hydroxyimino)-3-(mesitylimino)butane
;
_cell_volume   1285.600
_exptl_crystal_density_diffrn 1.128
_diffrn_ambient_temperature 293
#These two values have been output from a single CSD field.
_refine_ls_R_factor_gt 0.0692
_refine_ls_wR_factor_gt 0.0692
_symmetry_cell_setting monoclinic
_symmetry_space_group_name_H-M 'P 21/c'
_symmetry_Int_Tables_number 14
loop_
_symmetry_equiv_pos_site_id
_symmetry_equiv_pos_as_xyz
1 x,y,z
2 x,1/2-y,1/2+z
3 -x,-y,-z
4 -x,-1/2+y,-1/2-z
_cell_length_a 7.379(5)
_cell_length_b 15.635(6)
_cell_length_c 11.167(5)
_cell_angle_alpha 90
_cell_angle_beta 93.74(5)
_cell_angle_gamma 90
_cell_formula_units_Z 4
loop_
_atom_type_symbol
_atom_type_radius_bond
C 0.68
H 0.23
N 0.68
O 0.68
loop_
_atom_site_label
_atom_site_type_symbol
_atom_site_fract_x
_atom_site_fract_y
_atom_site_fract_z
O1 O 0.0236(4) 0.6988(2) 0.3366(3)
H1 H 0.06470 0.67590 0.27810
N1 N 0.1488(5) 0.7582(3) 0.3855(4)
N2 N 0.2121(5) 0.8661(3) 0.6527(4)
C1 C -0.0708(6) 0.7652(3) 0.5405(4)
H2 H -0.10280 0.80970 0.59460
H3 H -0.05350 0.71260 0.58390
H4 H -0.16660 0.75830 0.47880
C2 C 0.1001(7) 0.7887(3) 0.4850(4)
C3 C 0.2276(6) 0.8502(3) 0.5423(5)
C4 C 0.3697(6) 0.8875(3) 0.4687(4)
H5 H 0.31250 0.91690 0.40080
H6 H 0.44540 0.84260 0.44130
H7 H 0.44260 0.92710 0.51660
C5 C 0.3382(8) 0.9226(4) 0.7157(5)
C6 C 0.5035(8) 0.8896(4) 0.7599(5)
C7 C 0.6179(7) 0.9433(4) 0.8275(5)
H8 H 0.72950 0.92240 0.85800
C8 C 0.5735(9) 1.0262(4) 0.8513(5)
C9 C 0.4073(9) 1.0561(4) 0.8060(5)
H9 H 0.37430 1.11210 0.82250
C10 C 0.2885(8) 1.0055(4) 0.7369(5)
C11 C 0.5528(6) 0.7981(3) 0.7429(4)
H10 H 0.46180 0.76210 0.77450
H11 H 0.66820 0.78670 0.78450
H12 H 0.56000 0.78660 0.65890
C12 C 0.7006(7) 1.0841(4) 0.9248(4)
H13 H 0.74880 1.12660 0.87360
H14 H 0.79830 1.05090 0.96180
H15 H 0.63550 1.11160 0.98580
C13 C 0.1082(7) 1.0394(3) 0.6893(5)
H16 H 0.10650 1.04380 0.60350
H17 H 0.08850 1.09480 0.72300
H18 H 0.01380 1.00120 0.71090
#END
