
#######################################################################
#
#                 Cambridge Crystallographic Data Centre
#                                CCDC
#
#######################################################################
#
# If this CIF has been generated from an entry in the Cambridge
# Structural Database, then it will include bibliographic, chemical,
# crystal, experimental, refinement or atomic coordinate data resulting
# from the CCDC's data processing and validation procedures.
#
#######################################################################

data_CSD_CIF_UJUBUY
_audit_creation_date 2016-04-04
_audit_creation_method CSD-ConQuest-V1
_database_code_CSD UJUBUY
_database_code_depnum_ccdc_archive 'CCDC 1446028'
_chemical_formula_sum 'C35 H41 N1 O8'
_chemical_formula_moiety
;
C35 H41 N1 O8
;
_journal_coden_Cambridge 4
_journal_volume 138
_journal_year 2016
_journal_page_first 2186
_journal_name_full 'J.Am.Chem.Soc. '
loop_
_publ_author_name
"D.J.Tao"
"Y.Slutskyy"
"L.E.Overman"
_chemical_name_systematic
;
(-)-1,3-Dioxoisoindolin-2-yl 
(4S,5R)-4-((benzyloxy)methyl)-5-((R)-hydroxy((3aS,7aS)-3a,7,7-trimethyl-3a,4,5
,6,7,7a-hexahydro-1H-inden-3-yl)methyl)-2,2-dimethyl-1,3-dioxolane-4-carboxyla
te
;
_cell_volume   1614.168
_exptl_crystal_colour 'colorless'
_exptl_crystal_density_diffrn 1.242
_exptl_crystal_description 'plate'
_diffrn_ambient_temperature 88
#These two values have been output from a single CSD field.
_refine_ls_R_factor_gt 0.033
_refine_ls_wR_factor_gt 0.033
_symmetry_cell_setting monoclinic
_symmetry_space_group_name_H-M 'P 21'
_symmetry_Int_Tables_number 4
loop_
_symmetry_equiv_pos_site_id
_symmetry_equiv_pos_as_xyz
1 x,y,z
2 -x,1/2+y,-z
_cell_length_a 10.1766(4)
_cell_length_b 12.5435(5)
_cell_length_c 12.7623(5)
_cell_angle_alpha 90
_cell_angle_beta 97.7659(5)
_cell_angle_gamma 90
_cell_formula_units_Z 2
loop_
_atom_type_symbol
_atom_type_radius_bond
C 0.68
H 0.23
N 0.68
O 0.68
loop_
_atom_site_label
_atom_site_type_symbol
_atom_site_fract_x
_atom_site_fract_y
_atom_site_fract_z
O1 O 1.45624(13) 0.94183(12) 0.50019(12)
O2 O 1.10476(15) 0.96224(14) 0.23484(13)
C1 C 1.4810(2) 1.16557(16) 0.39187(16)
C2 C 1.4580(2) 1.25751(17) 0.33046(16)
C3 C 1.3488(2) 1.26572(18) 0.25285(16)
C4 C 1.2589(2) 1.18202(18) 0.23204(16)
C5 C 1.38764(19) 0.97926(15) 0.42520(16)
C6 C 1.39156(18) 1.08326(15) 0.37083(15)
C7 C 1.28302(19) 1.09086(16) 0.29159(15)
C8 C 1.2051(2) 0.99017(18) 0.28902(16)
N1 N 1.27738(17) 0.92867(14) 0.36827(14)
O3 O 1.24514(14) 0.82343(11) 0.38752(12)
O4 O 1.10431(14) 0.89011(11) 0.49457(12)
C9 C 1.15070(17) 0.81552(15) 0.45533(15)
O5 O 0.83089(13) 0.61146(12) 0.49394(11)
C10 C 0.7293(3) 0.91306(19) 0.11282(18)
C11 C 0.7967(2) 0.84292(17) 0.20360(17)
C12 C 0.4233(3) 0.8361(4) 0.0899(2)
C13 C 0.4943(3) 0.6960(3) -0.0275(2)
C14 C 0.6473(2) 0.8486(2) 0.02456(17)
C15 C 0.5438(2) 0.7736(2) 0.06233(17)
C16 C 0.6063(3) 0.8413(3) 0.31093(19)
C17 C 0.84702(18) 0.68814(15) 0.41522(14)
C18 C 0.6577(2) 0.5969(2) 0.30104(19)
C19 C 0.5557(3) 0.6165(3) 0.2055(2)
C20 C 0.6201(2) 0.7092(2) 0.15321(16)
C21 C 0.69434(18) 0.77272(17) 0.24760(15)
C22 C 0.73985(18) 0.67942(17) 0.32119(15)
C23 C 1.08761(19) 0.68052(17) 0.58091(15)
O6 O 1.21219(13) 0.70078(12) 0.64230(11)
C24 C 1.1758(2) 0.44296(19) 0.4014(3)
C25 C 1.1914(3) 0.5753(3) 0.2539(2)
O7 O 1.20527(13) 0.62930(11) 0.43651(12)
C26 C 1.10790(18) 0.70017(15) 0.46603(15)
C27 C 0.98519(18) 0.67905(15) 0.38112(15)
O8 O 1.00529(13) 0.57135(11) 0.35385(11)
C28 C 1.14446(19) 0.55402(16) 0.35925(17)
C29 C 1.2144(2) 0.66849(19) 0.74949(17)
C30 C 1.1557(2) 0.74900(19) 0.81836(17)
C31 C 1.1036(2) 0.7156(2) 0.9078(2)
C32 C 1.0597(3) 0.7893(3) 0.9764(2)
C33 C 1.0682(3) 0.8976(3) 0.9566(2)
C34 C 1.1177(3) 0.9313(2) 0.8671(2)
C35 C 1.1616(3) 0.8579(2) 0.79797(19)
H1 H 1.553(2) 1.1558(18) 0.4439(19)
H2 H 1.516(3) 1.314(2) 0.343(2)
H3 H 1.337(2) 1.332(2) 0.214(2)
H4 H 1.183(3) 1.189(2) 0.181(2)
H5 H 0.859(2) 0.554(2) 0.4758(19)
H6 H 0.673(3) 0.965(2) 0.142(2)
H7 H 0.801(3) 0.958(2) 0.082(2)
H8 H 0.864(2) 0.7989(18) 0.1755(18)
H9 H 0.845(2) 0.888(2) 0.2557(19)
H10 H 0.452(4) 0.910(3) 0.141(3)
H11 H 0.362(4) 0.789(3) 0.127(3)
H12 H 0.372(3) 0.861(3) 0.027(3)
H13 H 0.567(3) 0.646(3) -0.044(2)
H14 H 0.458(3) 0.740(2) -0.094(2)
H15 H 0.423(3) 0.651(2) -0.007(2)
H16 H 0.605(3) 0.898(2) -0.033(2)
H17 H 0.709(2) 0.803(2) -0.0098(18)
H18 H 0.518(3) 0.800(3) 0.320(3)
H19 H 0.578(3) 0.913(3) 0.277(2)
H20 H 0.656(3) 0.855(2) 0.383(2)
H21 H 0.840(2) 0.7563(18) 0.4472(16)
H22 H 0.659(3) 0.531(2) 0.345(2)
H23 H 0.466(3) 0.638(3) 0.228(3)
H24 H 0.541(3) 0.558(3) 0.158(3)
H25 H 0.692(2) 0.672(2) 0.1215(18)
H26 H 1.019(2) 0.7308(17) 0.6024(16)
H27 H 1.060(2) 0.608(2) 0.5875(17)
H28 H 1.269(3) 0.435(2) 0.410(2)
H29 H 1.139(3) 0.393(3) 0.351(3)
H30 H 1.135(3) 0.432(2) 0.469(2)
H31 H 1.285(3) 0.565(2) 0.265(2)
H32 H 1.173(3) 0.648(3) 0.233(2)
H33 H 1.151(3) 0.524(3) 0.198(3)
H34 H 0.9933(19) 0.7259(17) 0.3192(16)
H35 H 1.308(3) 0.660(2) 0.776(2)
H36 H 1.169(3) 0.598(2) 0.750(2)
H37 H 1.097(3) 0.644(2) 0.921(2)
H38 H 1.028(4) 0.767(3) 1.035(3)
H39 H 1.037(3) 0.948(3) 1.007(3)
H40 H 1.124(3) 1.011(3) 0.855(2)
H41 H 1.197(3) 0.876(2) 0.729(2)
#END
