
#######################################################################
#
#                 Cambridge Crystallographic Data Centre
#                                CCDC
#
#######################################################################
#
# If this CIF has been generated from an entry in the Cambridge
# Structural Database, then it will include bibliographic, chemical,
# crystal, experimental, refinement or atomic coordinate data resulting
# from the CCDC's data processing and validation procedures.
#
#######################################################################

data_CSD_CIF_UJUDOU
_audit_creation_date 2016-04-04
_audit_creation_method CSD-ConQuest-V1
_database_code_CSD UJUDOU
_database_code_depnum_ccdc_archive 'CCDC 1469216'
_chemical_formula_sum 'C16 H15 N3 O4'
_chemical_formula_moiety
;
C16 H15 N3 O4
;
_journal_coeditor_code "su4019"
_journal_coden_Cambridge 1959
_journal_volume 1
_journal_year 2016
_journal_page_first x160466
_journal_name_full 'IUCrData '
loop_
_publ_author_name
"B.Inturi"
"K.R.Roopashree"
"G.V.Pujar"
"I.A.Mohammed"
"H.C.Devarajegowda"
_chemical_name_systematic
;
2-Methoxy-4-(3-(3-nitrophenyl)-4,5-dihydro-1H-pyrazol-5-yl)phenol
;
_cell_volume   1475.472
_exptl_crystal_colour 'colorless'
_exptl_crystal_density_diffrn 1.41
_exptl_crystal_description 'prism'
_diffrn_ambient_temperature 296
#These two values have been output from a single CSD field.
_refine_ls_R_factor_gt 0.0391
_refine_ls_wR_factor_gt 0.0391
_symmetry_cell_setting monoclinic
_symmetry_space_group_name_H-M 'P 21/c'
_symmetry_Int_Tables_number 14
loop_
_symmetry_equiv_pos_site_id
_symmetry_equiv_pos_as_xyz
1 x,y,z
2 -x,1/2+y,1/2-z
3 -x,-y,-z
4 x,-1/2-y,-1/2+z
_cell_length_a 13.1432(11)
_cell_length_b 13.6130(12)
_cell_length_c 8.3381(7)
_cell_angle_alpha 90
_cell_angle_beta 98.495(4)
_cell_angle_gamma 90
_cell_formula_units_Z 4
loop_
_atom_type_symbol
_atom_type_radius_bond
C 0.68
H 0.23
N 0.68
O 0.68
loop_
_atom_site_label
_atom_site_type_symbol
_atom_site_fract_x
_atom_site_fract_y
_atom_site_fract_z
O1 O 0.47950(12) 0.38474(13) 1.00496(16)
O2 O 0.64242(13) 0.39816(17) 1.0087(2)
O3 O -0.12236(9) 0.4188(1) -0.30456(14)
H1 H -0.10270 0.46220 -0.36090
O4 O 0.06043(9) 0.50817(9) -0.28614(13)
N1 N 0.55509(13) 0.38872(12) 0.93716(19)
N2 N 0.24426(10) 0.37549(11) 0.49118(16)
N3 N 0.15583(11) 0.37666(12) 0.37290(16)
C1 C 0.15531(15) 0.55902(15) -0.2786(2)
C2 C 0.05066(11) 0.44201(11) -0.16650(17)
C3 C 0.12593(12) 0.41954(12) -0.03695(18)
C4 C 0.10725(12) 0.34898(11) 0.07692(18)
C5 C 0.01357(13) 0.30044(13) 0.0551(2)
C6 C -0.06238(13) 0.32419(13) -0.0724(2)
C7 C -0.04530(12) 0.39581(12) -0.18145(18)
C8 C 0.18282(13) 0.32519(13) 0.22660(18)
C9 C 0.29462(13) 0.35523(15) 0.23767(19)
C10 C 0.32268(12) 0.36558(11) 0.41811(18)
C11 C 0.42759(12) 0.36985(11) 0.50882(19)
C12 C 0.51340(14) 0.36513(13) 0.4293(2)
C13 C 0.61173(15) 0.36814(15) 0.5153(3)
C14 C 0.62715(15) 0.37541(14) 0.6818(3)
C15 C 0.54125(13) 0.38058(12) 0.7590(2)
C16 C 0.44264(13) 0.37823(12) 0.6769(2)
H2 H 0.1453(15) 0.6004(15) -0.375(3)
H3 H 0.1670(15) 0.6010(15) -0.177(3)
H4 H 0.2140(16) 0.5119(15) -0.281(2)
H5 H 0.1931(13) 0.4536(13) -0.027(2)
H6 H 0.0020(14) 0.2500(14) 0.131(2)
H7 H -0.1337(14) 0.2891(13) -0.083(2)
H8 H 0.1804(14) 0.2515(15) 0.249(2)
H9 H 0.3339(15) 0.3090(15) 0.188(2)
H10 H 0.3027(14) 0.4186(16) 0.188(2)
H11 H 0.5030(15) 0.3598(14) 0.314(3)
H12 H 0.6710(17) 0.3609(15) 0.457(3)
H13 H 0.6912(18) 0.3768(15) 0.741(3)
H14 H 0.3874(15) 0.3834(13) 0.729(2)
H15 H 0.1015(17) 0.3524(15) 0.413(3)
#END
