
#######################################################################
#
#                 Cambridge Crystallographic Data Centre
#                                CCDC
#
#######################################################################
#
# If this CIF has been generated from an entry in the Cambridge
# Structural Database, then it will include bibliographic, chemical,
# crystal, experimental, refinement or atomic coordinate data resulting
# from the CCDC's data processing and validation procedures.
#
#######################################################################

data_CSD_CIF_UJUKEP
_audit_creation_date 2003-12-08
_audit_creation_method CSD-ConQuest-V1
_database_code_CSD UJUKEP
_database_code_depnum_ccdc_archive 'CCDC 203661'
_chemical_formula_sum 'C8 H8 N2 O2'
_chemical_formula_moiety
;
C8 H8 N2 O2
;
_journal_coden_Cambridge 440
_journal_volume 27
_journal_year 2003
_journal_page_first 1084
_journal_name_full 'New J.Chem. '
loop_
_publ_author_name
"E.A.Bruton"
"L.Brammer"
"F.C.Pigge"
"C.B.Aakeroy"
"D.S.Leinen"
_chemical_name_systematic
;
(E,E)-Isophthaldehyde dioxime
;
_chemical_name_common
;
(E,E)-Isophthalaldoxime
;
_chemical_melting_point 454.15
_cell_volume    750.245
_exptl_crystal_colour 'colorless'
_exptl_crystal_density_diffrn 1.453
_exptl_special_details
;
Melting point range 454.15-457.15K

;
_exptl_crystal_description 'rectangular'
_exptl_crystal_preparation 'acetone'
_diffrn_ambient_temperature 133
#These two values have been output from a single CSD field.
_refine_ls_R_factor_gt 0.0423
_refine_ls_wR_factor_gt 0.0423
_symmetry_cell_setting monoclinic
_symmetry_space_group_name_H-M 'C 2/c'
_symmetry_Int_Tables_number 15
loop_
_symmetry_equiv_pos_site_id
_symmetry_equiv_pos_as_xyz
1 x,y,z
2 1/2+x,1/2+y,z
3 x,-y,1/2+z
4 1/2+x,1/2-y,1/2+z
5 -x,-y,-z
6 -1/2-x,-1/2-y,-z
7 -x,y,-1/2-z
8 -1/2-x,-1/2+y,-1/2-z
_cell_length_a 10.1860(4)
_cell_length_b 11.0510(3)
_cell_length_c 7.6536(3)
_cell_angle_alpha 90
_cell_angle_beta 119.445(2)
_cell_angle_gamma 90
_cell_formula_units_Z 4
loop_
_atom_type_symbol
_atom_type_radius_bond
C 0.68
H 0.23
N 0.68
O 0.68
loop_
_atom_site_label
_atom_site_type_symbol
_atom_site_fract_x
_atom_site_fract_y
_atom_site_fract_z
C1 C 0.00000 0.33975(15) 0.25000
O1 O -0.23124(12) 0.39050(9) -0.44288(14)
N1 N -0.17806(12) 0.30229(9) -0.28974(16)
C2 C -0.06336(13) 0.27805(11) 0.06771(17)
C3 C -0.12776(14) 0.35014(12) -0.11738(19)
C4 C 0.00000 0.08951(16) 0.25000
C5 C -0.06388(14) 0.15128(12) 0.06897(19)
H1 H -0.1115(18) 0.1081(16) -0.053(3)
H2 H 0.00000 0.002(2) 0.25000
H3 H 0.00000 0.429(2) 0.25000
H4 H -0.1266(18) 0.4344(19) -0.099(2)
H5 H -0.275(2) 0.343(2) -0.573(3)
C5F C 0.06388(14) 0.15128(12) 0.43103(19)
C2F C 0.06336(13) 0.27805(11) 0.43229(17)
C3F C 0.12776(14) 0.35014(12) 0.61738(19)
N1F N 0.17806(12) 0.30229(9) 0.78974(16)
O1F O 0.23124(12) 0.39050(9) 0.94288(14)
H5F H 0.275(2) 0.343(2) 1.073(3)
H4F H 0.1266(18) 0.4344(19) 0.599(2)
H1F H 0.1115(18) 0.1081(16) 0.553(3)
#END
