
#######################################################################
#
#                 Cambridge Crystallographic Data Centre
#                                CCDC
#
#######################################################################
#
# If this CIF has been generated from an entry in the Cambridge
# Structural Database, then it will include bibliographic, chemical,
# crystal, experimental, refinement or atomic coordinate data resulting
# from the CCDC's data processing and validation procedures.
#
#######################################################################

data_CSD_CIF_UJULIU
_audit_creation_date 2003-12-08
_audit_creation_method CSD-ConQuest-V1
_database_code_CSD UJULIU
_database_code_depnum_ccdc_archive 'CCDC 203667'
_chemical_formula_sum 'C4 H8 N4 O2'
_chemical_formula_moiety
;
C4 H8 N4 O2
;
_journal_coden_Cambridge 440
_journal_volume 27
_journal_year 2003
_journal_page_first 1084
_journal_name_full 'New J.Chem. '
loop_
_publ_author_name
"E.A.Bruton"
"L.Brammer"
"F.C.Pigge"
"C.B.Aakeroy"
"D.S.Leinen"
_chemical_name_systematic
;
Fumaramide dioxime
;
_chemical_melting_point 486.15
_cell_volume    613.184
_exptl_crystal_colour 'colorless'
_exptl_crystal_density_diffrn 1.561
_exptl_special_details
;
Melts with decomposition.

;
_exptl_crystal_description 'prism'
_exptl_crystal_preparation 'absolute ethanol'
_diffrn_ambient_temperature 173
#These two values have been output from a single CSD field.
_refine_ls_R_factor_gt 0.0368
_refine_ls_wR_factor_gt 0.0368
_symmetry_cell_setting orthorhombic
_symmetry_space_group_name_H-M 'P c a 21'
_symmetry_Int_Tables_number 29
loop_
_symmetry_equiv_pos_site_id
_symmetry_equiv_pos_as_xyz
1 x,y,z
2 -x,-y,1/2+z
3 1/2+x,-y,z
4 1/2-x,y,1/2+z
_cell_length_a 16.6296(17)
_cell_length_b 3.6679(3)
_cell_length_c 10.0529(10)
_cell_angle_alpha 90
_cell_angle_beta 90
_cell_angle_gamma 90
_cell_formula_units_Z 4
loop_
_atom_type_symbol
_atom_type_radius_bond
C 0.68
H 0.23
N 0.68
O 0.68
loop_
_atom_site_label
_atom_site_type_symbol
_atom_site_fract_x
_atom_site_fract_y
_atom_site_fract_z
O1 O 0.15229(10) -0.6186(6) -0.1364(2)
H1 H 0.11020 -0.69500 -0.09330
O2 O 0.59316(10) 0.0958(5) 0.1284(2)
H2 H 0.64040 0.19140 0.08050
N1 N 0.20408(13) -0.4786(7) -0.0354(2)
N2 N 0.29777(14) -0.5910(7) -0.2041(2)
H3 H 0.24900 -0.72720 -0.25800
H4 H 0.35000 -0.66940 -0.22420
N3 N 0.54244(13) -0.0491(6) 0.0270(2)
N4 N 0.45760(14) -0.1390(7) 0.2102(2)
H5 H 0.40940 -0.23660 0.24300
H6 H 0.48990 -0.01820 0.26140
C1 C 0.27722(14) -0.4803(8) -0.0794(3)
C2 C 0.33775(15) -0.3423(7) 0.0128(3)
H7 H 0.30970 -0.27100 0.09420
C3 C 0.41662(14) -0.3079(7) -0.0143(3)
H8 H 0.42920 -0.36700 -0.10280
C4 C 0.47560(15) -0.1631(7) 0.0796(3)
#END
