
#######################################################################
#
#                 Cambridge Crystallographic Data Centre
#                                CCDC
#
#######################################################################
#
# If this CIF has been generated from an entry in the Cambridge
# Structural Database, then it will include bibliographic, chemical,
# crystal, experimental, refinement or atomic coordinate data resulting
# from the CCDC's data processing and validation procedures.
#
#######################################################################

data_CSD_CIF_UJULEQ
_audit_creation_date 2003-12-08
_audit_creation_method CSD-ConQuest-V1
_database_code_CSD UJULEQ
_database_code_depnum_ccdc_archive 'CCDC 203666'
_chemical_formula_sum 'C8 H10 N4 O2'
_chemical_formula_moiety
;
C8 H10 N4 O2
;
_journal_coden_Cambridge 440
_journal_volume 27
_journal_year 2003
_journal_page_first 1084
_journal_name_full 'New J.Chem. '
loop_
_publ_author_name
"E.A.Bruton"
"L.Brammer"
"F.C.Pigge"
"C.B.Aakeroy"
"D.S.Leinen"
_chemical_name_systematic
;
Benzene-1,4-dicarboxamide dioxime
;
_chemical_melting_point 483.15
_cell_volume    428.136
_exptl_crystal_colour 'colorless'
_exptl_crystal_density_diffrn 1.506
_exptl_special_details
;
Melts with decomposition.

;
_exptl_crystal_description 'rectangular'
_exptl_crystal_preparation 'acetone'
_diffrn_ambient_temperature 133
#These two values have been output from a single CSD field.
_refine_ls_R_factor_gt 0.0425
_refine_ls_wR_factor_gt 0.0425
_symmetry_cell_setting monoclinic
_symmetry_space_group_name_H-M 'P 21/c'
_symmetry_Int_Tables_number 14
loop_
_symmetry_equiv_pos_site_id
_symmetry_equiv_pos_as_xyz
1 x,y,z
2 x,1/2-y,1/2+z
3 -x,-y,-z
4 -x,-1/2+y,-1/2-z
_cell_length_a 8.401(6)
_cell_length_b 4.985(5)
_cell_length_c 10.714(10)
_cell_angle_alpha 90
_cell_angle_beta 107.41(7)
_cell_angle_gamma 90
_cell_formula_units_Z 2
loop_
_atom_type_symbol
_atom_type_radius_bond
C 0.68
H 0.23
N 0.68
O 0.68
loop_
_atom_site_label
_atom_site_type_symbol
_atom_site_fract_x
_atom_site_fract_y
_atom_site_fract_z
O1 O 0.50243(13) 0.1871(2) 0.12520(12)
N1 N 0.63830(15) 0.1947(2) 0.06929(13)
C1 C 0.72001(18) 0.4186(3) 0.09973(15)
N2 N 0.68641(17) 0.6056(3) 0.18049(13)
C2 C 0.86297(18) 0.4610(3) 0.04817(15)
C3 C 0.8753(2) 0.3224(3) -0.06159(17)
C4 C 0.9909(2) 0.6399(3) 0.10888(18)
H1 H 0.590(2) 0.589(4) 0.201(2)
H2 H 0.718(2) 0.772(4) 0.172(2)
H3 H 0.788(2) 0.207(4) -0.106(2)
H4 H 0.982(2) 0.739(4) 0.180(2)
H5 H 0.431(3) 0.062(5) 0.067(2)
C4B C 1.0091(2) 0.3601(3) -0.10888(18)
C2B C 1.13703(18) 0.5390(3) -0.04817(15)
C1B C 1.27999(18) 0.5814(3) -0.09973(15)
N1B N 1.36170(15) 0.8053(2) -0.06929(13)
O1B O 1.49757(13) 0.8129(2) -0.12520(12)
H5B H 1.569(3) 0.938(5) -0.067(2)
N2B N 1.31359(17) 0.3944(3) -0.18049(13)
H1B H 1.410(2) 0.411(4) -0.201(2)
H2B H 1.282(2) 0.228(4) -0.172(2)
C3B C 1.1247(2) 0.6776(3) 0.06159(17)
H3B H 1.212(2) 0.793(4) 0.106(2)
H4B H 1.018(2) 0.261(4) -0.180(2)
#END
