
#######################################################################
#
#                 Cambridge Crystallographic Data Centre
#                                CCDC
#
#######################################################################
#
# If this CIF has been generated from an entry in the Cambridge
# Structural Database, then it will include bibliographic, chemical,
# crystal, experimental, refinement or atomic coordinate data resulting
# from the CCDC's data processing and validation procedures.
#
#######################################################################

data_CSD_CIF_UKADOB
_audit_creation_date 2016-04-04
_audit_creation_method CSD-ConQuest-V1
_database_code_CSD UKADOB
_database_code_depnum_ccdc_archive 'CCDC 1455429'
_chemical_formula_sum 'C24 H17 N3 O3'
_chemical_formula_moiety
;
C24 H17 N3 O3
;
_journal_coden_Cambridge 1500
_journal_volume 6
_journal_year 2016
_journal_page_first 31526
_journal_name_full 'RSC Advances '
loop_
_publ_author_name
"L.L.Fershtat"
"A.A.Larin"
"M.A.Epishina"
"I.V.Ovchinnikov"
"A.S.Kulikov"
"I.V.Ananyev"
"N.N.Makhova"
_chemical_name_systematic
;
5-(2-Oxido-4-phenyl-1,2,5-oxadiazol-3-yl)-1,2,3,4-tetrahydro-11H-indeno[1,2-c]
isoquinolin-11-one
;
_cell_volume    926.890
_exptl_crystal_colour 'colorless'
_exptl_crystal_density_diffrn 1.417
_exptl_crystal_description 'prism'
_diffrn_ambient_temperature 120
#These two values have been output from a single CSD field.
_refine_ls_R_factor_gt 0.0315
_refine_ls_wR_factor_gt 0.0315
_symmetry_cell_setting triclinic
_symmetry_space_group_name_H-M 'P -1'
_symmetry_Int_Tables_number 2
loop_
_symmetry_equiv_pos_site_id
_symmetry_equiv_pos_as_xyz
1 x,y,z
2 -x,-y,-z
_cell_length_a 7.3636(1)
_cell_length_b 11.5643(2)
_cell_length_c 12.4114(2)
_cell_angle_alpha 63.403(1)
_cell_angle_beta 86.766(1)
_cell_angle_gamma 78.916(1)
_cell_formula_units_Z 2
loop_
_atom_type_symbol
_atom_type_radius_bond
C 0.68
H 0.23
N 0.68
O 0.68
loop_
_atom_site_label
_atom_site_type_symbol
_atom_site_fract_x
_atom_site_fract_y
_atom_site_fract_z
O1 O 0.60425(13) 0.84573(10) 0.14179(9)
O2 O 0.50476(12) 0.67810(9) 0.12717(8)
O3 O 0.12799(12) 1.18240(9) 0.47243(8)
N1 N 0.48862(14) 0.7741(1) 0.17258(9)
N2 N 0.35958(15) 0.61203(10) 0.17043(10)
N3 N 0.34895(13) 0.79843(9) 0.41625(9)
C1 C 0.34283(16) 0.76236(11) 0.24107(10)
C2 C 0.26183(17) 0.66133(11) 0.23762(10)
C3 C 0.09080(16) 0.61577(11) 0.29114(10)
C4 C -0.02152(17) 0.67148(12) 0.35660(11)
H1 H 0.015(2) 0.7397(14) 0.3697(13)
C5 C -0.18450(18) 0.62876(13) 0.40318(12)
H2 H -0.261(2) 0.6671(15) 0.4471(14)
C6 C -0.23737(18) 0.52893(13) 0.38642(12)
H3 H -0.350(2) 0.4951(14) 0.4200(13)
C7 C -0.1258(2) 0.47273(14) 0.32166(14)
H4 H -0.162(2) 0.3995(18) 0.3107(16)
C8 C 0.03599(19) 0.51560(13) 0.27406(13)
H5 H 0.114(2) 0.4787(16) 0.2293(15)
C9 C 0.29430(15) 0.85188(11) 0.29875(10)
C10 C 0.20470(15) 0.98155(11) 0.22907(10)
C11 C 0.16078(18) 1.02879(12) 0.09674(11)
H6 H 0.106(2) 0.9610(16) 0.0876(14)
H7 H 0.280(2) 1.0360(16) 0.0558(14)
C12 C 0.03069(18) 1.16206(12) 0.03836(11)
H8 H -0.101(2) 1.1527(14) 0.0599(13)
H9 H 0.037(2) 1.1955(15) -0.0471(15)
C13 C 0.08293(18) 1.25871(12) 0.07786(11)
H10 H 0.002(2) 1.3441(16) 0.0369(14)
H11 H 0.212(2) 1.2729(14) 0.0539(13)
C14 C 0.06913(17) 1.20825(11) 0.21433(11)
H12 H -0.063(2) 1.2129(14) 0.2363(13)
H13 H 0.1220(19) 1.2628(14) 0.2427(13)
C15 C 0.16414(15) 1.06678(11) 0.28382(10)
C16 C 0.21858(15) 1.01258(11) 0.40443(10)
C17 C 0.20387(16) 1.07195(12) 0.49041(10)
C18 C 0.29888(15) 0.96565(12) 0.60482(10)
C19 C 0.32846(17) 0.96910(13) 0.71270(11)
H14 H 0.2868(19) 1.0486(15) 0.7215(13)
C20 C 0.41915(17) 0.85389(14) 0.80698(11)
H15 H 0.443(2) 0.8523(15) 0.8854(15)
C21 C 0.47766(17) 0.73967(14) 0.79333(11)
H16 H 0.537(2) 0.6584(15) 0.8615(14)
C22 C 0.45046(16) 0.73683(13) 0.68378(11)
H17 H 0.4930(19) 0.6560(15) 0.6760(13)
C23 C 0.35996(15) 0.85121(12) 0.59021(10)
C24 C 0.31008(15) 0.88130(11) 0.46504(10)
#END
