
#######################################################################
#
#                 Cambridge Crystallographic Data Centre
#                                CCDC
#
#######################################################################
#
# If this CIF has been generated from an entry in the Cambridge
# Structural Database, then it will include bibliographic, chemical,
# crystal, experimental, refinement or atomic coordinate data resulting
# from the CCDC's data processing and validation procedures.
#
#######################################################################

data_CSD_CIF_UKAXAG
_audit_creation_date 2011-04-07
_audit_creation_method CSD-ConQuest-V1
_database_code_CSD UKAXAG
_database_code_depnum_ccdc_archive 'CCDC 810159'
_chemical_formula_sum 'C17 H12 N6 O3'
_chemical_formula_moiety
;
C17 H12 N6 O3
;
_journal_coden_Cambridge 9
_journal_volume 49
_journal_year 2010
_journal_page_first 5303
_journal_name_full 'Inorg.Chem. '
loop_
_publ_author_name
"J.J.Wilson"
"J.F.Lopes"
"S.J.Lippard"
_chemical_name_systematic
;
N-(bis(pyridin-2-yl)methyl)-7-nitro-2,1,3-benzoxadiazol-4-amine
;
_cell_volume   3090.793
_exptl_crystal_colour 'brown'
_exptl_crystal_density_diffrn 1.497
_exptl_crystal_description 'block'
_diffrn_ambient_temperature 110
#These two values have been output from a single CSD field.
_refine_ls_R_factor_gt 0.0405
_refine_ls_wR_factor_gt 0.0405
_symmetry_cell_setting monoclinic
_symmetry_space_group_name_H-M 'C 2/c'
_symmetry_Int_Tables_number 15
loop_
_symmetry_equiv_pos_site_id
_symmetry_equiv_pos_as_xyz
1 x,y,z
2 -x,y,1/2-z
3 1/2+x,1/2+y,z
4 1/2-x,1/2+y,1/2-z
5 -x,-y,-z
6 x,-y,-1/2+z
7 -1/2-x,-1/2-y,-z
8 -1/2+x,-1/2-y,-1/2+z
_cell_length_a 13.9662(10)
_cell_length_b 10.6609(8)
_cell_length_c 21.2035(15)
_cell_angle_alpha 90
_cell_angle_beta 101.758(1)
_cell_angle_gamma 90
_cell_formula_units_Z 8
loop_
_atom_type_symbol
_atom_type_radius_bond
C 0.68
H 0.23
N 0.68
O 0.68
loop_
_atom_site_label
_atom_site_type_symbol
_atom_site_fract_x
_atom_site_fract_y
_atom_site_fract_z
N1 N 0.18806(7) -0.17323(10) 0.23107(5)
N2 N -0.02213(7) -0.22368(9) 0.15603(5)
N3 N -0.12898(7) -0.06432(9) 0.11739(5)
N4 N -0.09390(6) 0.19801(8) 0.13618(5)
H1 H -0.1503(9) 0.1740(13) 0.1117(6)
N5 N -0.24684(6) 0.31995(9) 0.07689(5)
N6 N 0.00764(7) 0.32061(9) 0.05345(5)
O1 O 0.16327(7) -0.28470(9) 0.22471(5)
O2 O 0.27128(6) -0.13852(10) 0.25632(5)
O3 O -0.11522(6) -0.19134(8) 0.12196(5)
C1 C 0.11584(7) -0.08072(10) 0.20701(5)
C2 C 0.13690(7) 0.04494(10) 0.21587(5)
H2 H 0.20020 0.06790 0.23880
C3 C 0.07008(7) 0.14128(10) 0.19291(5)
H3 H 0.08930 0.22620 0.20110
C4 C -0.02359(7) 0.11478(9) 0.15838(5)
C5 C -0.04606(7) -0.01673(10) 0.14795(5)
C6 C 0.02100(8) -0.11516(10) 0.17207(5)
C7 C -0.08125(7) 0.33240(9) 0.14106(5)
H4 H -0.06400 0.35600 0.18760
C8 C -0.17866(7) 0.39407(10) 0.11073(5)
C9 C -0.19131(8) 0.52254(10) 0.11756(5)
H5 H -0.14150 0.57200 0.14310
C10 C -0.27824(8) 0.57664(11) 0.08623(6)
H6 H -0.28900 0.66420 0.08960
C11 C -0.34953(8) 0.50062(11) 0.04970(6)
H7 H -0.40950 0.53540 0.02730
C12 C -0.33148(8) 0.37332(11) 0.04657(6)
H8 H -0.38060 0.32140 0.02210
C13 C -0.00083(7) 0.37965(9) 0.10765(5)
C14 C 0.05653(8) 0.48097(10) 0.13296(5)
H9 H 0.04820 0.51980 0.17180
C15 C 0.12661(8) 0.52453(11) 0.10014(6)
H10 H 0.16700 0.59400 0.11610
C16 C 0.13641(8) 0.46485(12) 0.04396(6)
H11 H 0.18360 0.49240 0.02050
C17 C 0.07588(8) 0.36404(12) 0.02258(6)
H12 H 0.08300 0.32340 -0.01610
#END
