
#######################################################################
#
#                 Cambridge Crystallographic Data Centre
#                                CCDC
#
#######################################################################
#
# If this CIF has been generated from an entry in the Cambridge
# Structural Database, then it will include bibliographic, chemical,
# crystal, experimental, refinement or atomic coordinate data resulting
# from the CCDC's data processing and validation procedures.
#
#######################################################################

data_CSD_CIF_UKEVOX
_audit_creation_date 2016-04-04
_audit_creation_method CSD-ConQuest-V1
_database_code_CSD UKEVOX
_database_code_depnum_ccdc_archive 'CCDC 1443921'
_chemical_formula_sum 'C29 H36 N6 O4'
_chemical_formula_moiety
;
C29 H36 N6 O4
;
_journal_coden_Cambridge 574
_journal_volume 130
_journal_year 2016
_journal_page_first 327
_journal_name_full 'Dyes Pigm. '
loop_
_publ_author_name
"T.A.Khattab"
"B.D.B.Tiu"
"S.Adas"
"S.D.Bunge"
"R.C.Advincula"
_chemical_name_systematic
;
(3-cyano-4-(((2-(dodecyloxy)-4-nitrophenyl)hydrazono)methyl)-5,5-dimethylfuran
-2(5H)-ylidene)malononitrile
;
_cell_volume   1406.967
_exptl_crystal_colour 'red'
_exptl_crystal_density_diffrn 1.257
_exptl_crystal_description 'irregular'
_diffrn_ambient_temperature 189
_diffrn_special_details
;
twin

;
#These two values have been output from a single CSD field.
_refine_ls_R_factor_gt 0.1354
_refine_ls_wR_factor_gt 0.1354
_symmetry_cell_setting triclinic
_symmetry_space_group_name_H-M 'P -1'
_symmetry_Int_Tables_number 2
loop_
_symmetry_equiv_pos_site_id
_symmetry_equiv_pos_as_xyz
1 x,y,z
2 -x,-y,-z
_cell_length_a 8.245(3)
_cell_length_b 11.272(4)
_cell_length_c 15.788(6)
_cell_angle_alpha 92.793(7)
_cell_angle_beta 105.006(7)
_cell_angle_gamma 95.373(7)
_cell_formula_units_Z 2
loop_
_atom_type_symbol
_atom_type_radius_bond
C 0.68
H 0.23
N 0.68
O 0.68
loop_
_atom_site_label
_atom_site_type_symbol
_atom_site_fract_x
_atom_site_fract_y
_atom_site_fract_z
N1 N 0.3992(8) 0.9737(5) 0.8496(4)
H1 H 0.46380 0.91740 0.84420
N2 N 0.4677(9) 1.0797(5) 0.8938(4)
N3 N 1.1079(10) 1.1221(6) 1.0438(5)
N4 N 1.2882(10) 1.3720(7) 1.1768(5)
N5 N 0.9673(10) 1.6647(7) 1.1367(5)
N6 N -0.2932(10) 0.8707(7) 0.7043(5)
O1 O 0.2795(7) 0.7641(5) 0.7685(4)
O2 O 0.7207(7) 1.4109(4) 1.0211(3)
O3 O -0.3872(8) 0.9363(6) 0.7276(4)
O4 O -0.3460(8) 0.7817(6) 0.6530(4)
C1 C 0.2822(13) -0.4922(8) 0.3866(6)
H2 H 0.36830 -0.50070 0.44130
H3 H 0.31040 -0.53400 0.33730
H4 H 0.17170 -0.52680 0.39140
C2 C 0.2763(13) -0.3606(8) 0.3709(6)
H5 H 0.37710 -0.33090 0.35190
H6 H 0.17500 -0.35140 0.32280
C3 C 0.2713(11) -0.2863(7) 0.4514(5)
H7 H 0.37490 -0.29380 0.49850
H8 H 0.17370 -0.31930 0.47190
C4 C 0.2576(11) -0.1535(7) 0.4389(5)
H9 H 0.35400 -0.12070 0.41740
H10 H 0.15280 -0.14580 0.39270
C5 C 0.2558(12) -0.0794(7) 0.5201(5)
H11 H 0.36040 -0.08710 0.56640
H12 H 0.15890 -0.11150 0.54140
C6 C 0.2431(12) 0.0533(7) 0.5062(6)
H13 H 0.33910 0.08470 0.48400
H14 H 0.13790 0.06060 0.46020
C7 C 0.2432(11) 0.1300(7) 0.5869(5)
H15 H 0.34970 0.12500 0.63260
H16 H 0.14860 0.09830 0.61010
C8 C 0.2263(11) 0.2610(7) 0.5695(5)
H17 H 0.31850 0.29120 0.54390
H18 H 0.11810 0.26560 0.52500
C9 C 0.2318(12) 0.3418(7) 0.6486(5)
H19 H 0.33620 0.33340 0.69490
H20 H 0.13450 0.31570 0.67170
C10 C 0.2270(11) 0.4726(6) 0.6301(5)
H21 H 0.12150 0.48110 0.58460
H22 H 0.32300 0.49820 0.60590
C11 C 0.2358(12) 0.5551(7) 0.7110(6)
H23 H 0.13030 0.53980 0.72950
H24 H 0.33130 0.53860 0.76000
C12 C 0.2588(12) 0.6824(7) 0.6910(5)
H25 H 0.35970 0.69570 0.66820
H26 H 0.15950 0.69970 0.64460
C13 C 0.1624(10) 0.8423(7) 0.7679(5)
C14 C -0.0051(11) 0.8174(7) 0.7315(5)
H27 H -0.04990 0.74190 0.70090
C15 C -0.1113(10) 0.9035(8) 0.7393(5)
C16 C -0.0530(11) 1.0138(8) 0.7829(5)
H28 H -0.12820 1.07080 0.78850
C17 C 0.1195(10) 1.0387(7) 0.8183(5)
H29 H 0.16510 1.11520 0.84700
C18 C 0.2245(10) 0.9540(7) 0.8124(5)
C19 C 0.6296(10) 1.0943(7) 0.9305(5)
H30 H 0.70020 1.03290 0.92830
C20 C 0.6938(10) 1.2103(6) 0.9746(5)
C21 C 0.5888(10) 1.3130(6) 0.9716(5)
C22 C 0.5241(10) 1.3539(7) 0.8796(5)
H31 H 0.61080 1.34900 0.84770
H32 H 0.49800 1.43670 0.88380
H33 H 0.42160 1.30240 0.84810
C23 C 0.4578(11) 1.2980(8) 1.0221(6)
H34 H 0.36970 1.23410 0.99230
H35 H 0.40750 1.37290 1.02520
H36 H 0.51090 1.27720 1.08170
C24 C 0.8659(10) 1.3705(7) 1.0523(5)
C25 C 1.0016(10) 1.4434(7) 1.1043(5)
C26 C 0.9807(11) 1.5652(8) 1.1231(5)
C27 C 1.1597(12) 1.4033(7) 1.1432(5)
C28 C 0.8553(10) 1.2464(6) 1.0208(5)
C29 C 0.9953(10) 1.1774(7) 1.0341(5)
#END
