
#######################################################################
#
#                 Cambridge Crystallographic Data Centre
#                                CCDC
#
#######################################################################
#
# If this CIF has been generated from an entry in the Cambridge
# Structural Database, then it will include bibliographic, chemical,
# crystal, experimental, refinement or atomic coordinate data resulting
# from the CCDC's data processing and validation procedures.
#
#######################################################################

data_CSD_CIF_UKEYEQ
_audit_creation_date 2016-04-04
_audit_creation_method CSD-ConQuest-V1
_database_code_CSD UKEYEQ
_database_code_depnum_ccdc_archive 'CCDC 1450903'
_chemical_formula_sum 'C16 H16 N2 O3'
_chemical_formula_moiety
;
C16 H16 N2 O3
;
_journal_coden_Cambridge 35
_journal_volume 81
_journal_year 2016
_journal_page_first 2950
_journal_name_full 'J.Org.Chem. '
loop_
_publ_author_name
"Fei Tang"
"M.G.Banwell"
"A.C.Willis"
_chemical_name_systematic
;
(5-ethyl-2'-nitro-2-oxo-2,3,4,5-tetrahydrobiphenyl-4-yl)acetonitrile
;
_cell_volume   1458.193
_exptl_crystal_colour 'colorless'
_exptl_crystal_density_diffrn 1.295
_exptl_special_details
;
Absolute configuration

;
_exptl_crystal_description 'block'
_diffrn_ambient_temperature 150
#These two values have been output from a single CSD field.
_refine_ls_R_factor_gt 0.0269
_refine_ls_wR_factor_gt 0.0269
_symmetry_cell_setting orthorhombic
_symmetry_space_group_name_H-M 'P 21 21 21'
_symmetry_Int_Tables_number 19
loop_
_symmetry_equiv_pos_site_id
_symmetry_equiv_pos_as_xyz
1 x,y,z
2 1/2+x,1/2-y,-z
3 -x,1/2+y,1/2-z
4 1/2-x,-y,1/2+z
_cell_length_a 8.56836(10)
_cell_length_b 12.02612(14)
_cell_length_c 14.15115(14)
_cell_angle_alpha 90
_cell_angle_beta 90
_cell_angle_gamma 90
_cell_formula_units_Z 4
loop_
_atom_type_symbol
_atom_type_radius_bond
C 0.68
H 0.23
N 0.68
O 0.68
loop_
_atom_site_label
_atom_site_type_symbol
_atom_site_fract_x
_atom_site_fract_y
_atom_site_fract_z
C1 C 0.56375(15) 0.86614(10) 0.64461(8)
C2 C 0.57129(15) 0.97703(10) 0.67160(9)
C3 C 0.62116(16) 1.0554(1) 0.60665(10)
C4 C 0.66418(16) 1.02193(10) 0.51691(9)
C5 C 0.65918(15) 0.91038(10) 0.49165(8)
C6 C 0.60760(14) 0.82883(9) 0.55484(8)
C7 C 0.61020(13) 0.71062(9) 0.52419(8)
C8 C 0.55328(15) 0.68012(9) 0.43985(8)
C9 C 0.56866(15) 0.56656(9) 0.39593(8)
C10 C 0.69507(15) 0.49898(10) 0.44563(8)
C11 C 0.67716(17) 0.50783(10) 0.55274(8)
C12 C 0.68715(14) 0.62684(10) 0.58596(8)
N1 N 0.49920(13) 0.78833(9) 0.71449(7)
O1 O 0.41947(12) 0.71044(8) 0.68566(7)
O2 O 0.52459(15) 0.80715(9) 0.79843(7)
C13 C 0.59764(16) 0.57857(11) 0.28857(9)
C14 C 0.4498(2) 0.59636(16) 0.2332(1)
C15 C 0.69920(16) 0.37644(11) 0.41364(10)
C16 C 0.55209(19) 0.31955(10) 0.43325(10)
N2 N 0.43637(19) 0.27669(11) 0.44940(11)
O3 O 0.75262(12) 0.65306(8) 0.65919(7)
H1 H 0.54110 0.99840 0.73440
H2 H 0.62430 1.13120 0.62540
H3 H 0.70260 1.07500 0.47310
H4 H 0.69340 0.88600 0.43060
H5 H 0.49750 0.73640 0.40210
H6 H 0.46820 0.52820 0.40460
H7 H 0.80010 0.53040 0.42810
H8 H 0.57240 0.47940 0.57090
H9 H 0.75880 0.46470 0.58440
H10 H 0.65160 0.51050 0.26350
H11 H 0.66710 0.64400 0.27460
H12 H 0.47790 0.60530 0.16600
H13 H 0.38690 0.52700 0.23970
H14 H 0.38740 0.66480 0.25660
H15 H 0.71610 0.37040 0.34580
H16 H 0.78670 0.33520 0.44620
#END
