
#######################################################################
#
#                 Cambridge Crystallographic Data Centre
#                                CCDC
#
#######################################################################
#
# If this CIF has been generated from an entry in the Cambridge
# Structural Database, then it will include bibliographic, chemical,
# crystal, experimental, refinement or atomic coordinate data resulting
# from the CCDC's data processing and validation procedures.
#
#######################################################################

data_CSD_CIF_UKIMIM
_audit_creation_date 2016-04-04
_audit_creation_method CSD-ConQuest-V1
_database_code_CSD UKIMIM
_database_code_depnum_ccdc_archive 'CCDC 1448149'
_chemical_formula_sum 'C19 H18 N2 O7'
_chemical_formula_moiety
;
C19 H18 N2 O7
;
_journal_coden_Cambridge 1336
_journal_volume 18
_journal_year 2016
_journal_page_first 1542
_journal_name_full 'Org.Lett. '
loop_
_publ_author_name
"S.Grelaud"
"V.Desvergnes"
"Y.Landais"
_chemical_name_systematic
;
(5-methyl-2-phenyltetrahydrofuran-3-yl)methyl 3,5-dinitrobenzoate
;
_cell_volume    905.736
_exptl_crystal_colour 'colorless'
_exptl_crystal_density_diffrn 1.417
_exptl_crystal_description 'prism'
_diffrn_ambient_temperature 153
#These two values have been output from a single CSD field.
_refine_ls_R_factor_gt 0.0539
_refine_ls_wR_factor_gt 0.0539
_symmetry_cell_setting triclinic
_symmetry_space_group_name_H-M 'P -1'
_symmetry_Int_Tables_number 2
loop_
_symmetry_equiv_pos_site_id
_symmetry_equiv_pos_as_xyz
1 x,y,z
2 -x,-y,-z
_cell_length_a 8.1304(2)
_cell_length_b 10.1754(3)
_cell_length_c 12.5578(8)
_cell_angle_alpha 68.602(5)
_cell_angle_beta 84.781(6)
_cell_angle_gamma 69.582(5)
_cell_formula_units_Z 2
loop_
_atom_type_symbol
_atom_type_radius_bond
C 0.68
H 0.23
N 0.68
O 0.68
loop_
_atom_site_label
_atom_site_type_symbol
_atom_site_fract_x
_atom_site_fract_y
_atom_site_fract_z
C1 C -0.0628(3) 0.3817(3) 0.8206(2)
C2 C -0.2107(3) 0.4789(3) 0.7519(2)
H1 H -0.30470 0.54580 0.77750
C3 C -0.2144(3) 0.4737(3) 0.6436(2)
C4 C -0.0802(3) 0.3766(3) 0.6049(2)
H2 H -0.08840 0.37470 0.53050
C5 C 0.0673(3) 0.2816(3) 0.6765(2)
C6 C 0.0761(3) 0.2839(3) 0.7864(2)
H3 H 0.17590 0.21940 0.83630
N1 N -0.0548(3) 0.3828(2) 0.93734(18)
O1 O -0.1743(3) 0.4755(2) 0.96505(17)
O2 O 0.0705(3) 0.2883(2) 1.00015(16)
N2 N -0.3683(3) 0.5762(3) 0.56702(19)
O3 O -0.4899(3) 0.6576(3) 0.60408(18)
O4 O -0.3667(3) 0.5758(2) 0.46904(16)
C7 C 0.2118(3) 0.1803(3) 0.6318(2)
O5 O 0.2050(2) 0.1742(2) 0.53819(15)
O6 O 0.3480(2) 0.1006(2) 0.70643(14)
C8 C 0.4992(3) 0.0003(3) 0.6700(2)
H4 H 0.52670 0.05290 0.59080
H5 H 0.47310 -0.08840 0.67160
C9 C 0.6535(3) -0.0483(3) 0.7507(2)
H6 H 0.62090 -0.09110 0.83160
C10 C 0.8117(3) -0.1658(3) 0.7225(2)
H7 H 0.85990 -0.25570 0.79190
H8 H 0.77820 -0.19670 0.66390
C11 C 0.9427(4) -0.0868(3) 0.6777(3)
H9 H 0.91800 -0.02870 0.59390
O7 O 0.9105(2) 0.0159(2) 0.73732(17)
C12 C 0.7239(3) 0.0805(3) 0.7375(2)
H10 H 0.68080 0.16190 0.66160
C13 C 1.1320(4) -0.1878(4) 0.6979(3)
H11 H 1.20820 -0.12690 0.66950
H12 H 1.15420 -0.25790 0.65730
H13 H 1.15690 -0.24430 0.78010
C14 C 0.6732(3) 0.1479(3) 0.8300(2)
C15 C 0.7699(3) 0.0822(3) 0.9338(2)
H14 H 0.87080 -0.00550 0.94690
C16 C 0.7189(4) 0.1449(3) 1.0180(2)
H15 H 0.78580 0.10040 1.08820
C17 C 0.5715(4) 0.2718(3) 1.0005(2)
H16 H 0.53720 0.31420 1.05840
C18 C 0.4742(3) 0.3366(3) 0.8985(2)
H17 H 0.37230 0.42320 0.88640
C19 C 0.5256(3) 0.2749(3) 0.8137(2)
H18 H 0.45870 0.32050 0.74340
#END
