
#######################################################################
#
#                 Cambridge Crystallographic Data Centre
#                                CCDC
#
#######################################################################
#
# If this CIF has been generated from an entry in the Cambridge
# Structural Database, then it will include bibliographic, chemical,
# crystal, experimental, refinement or atomic coordinate data resulting
# from the CCDC's data processing and validation procedures.
#
#######################################################################

data_CSD_CIF_ULAFIX
_audit_creation_date 2011-03-04
_audit_creation_method CSD-ConQuest-V1
_database_code_CSD ULAFIX
_database_code_depnum_ccdc_archive 'CCDC 713706'
_chemical_formula_sum 'C14 H12 N4 O2'
_chemical_formula_moiety
;
C14 H12 N4 O2
;
_journal_coden_Cambridge 82
_journal_volume 50
_journal_year 2009
_journal_page_first 1219
_journal_name_full 'Zh.Strukt.Khim.(Russ.)(J.Struct.Chem.) '
loop_
_publ_author_name
"A.Zulfikaroglu"
"C.Yuksektepe"
"H.Bati"
"N.Caliskan"
"O.Buyukgungor"
_chemical_name_systematic
;
(Z)-N'-((E)-2-(Hydroxyimino)-1-phenylethylidene)isonicotinohydrazide
;
_cell_volume   1296.390
_exptl_crystal_colour 'light yellow'
_exptl_crystal_density_diffrn 1.375
_exptl_crystal_description 'plate'
_exptl_crystal_preparation 'ethanol'
_diffrn_ambient_temperature 295
_diffrn_special_details
;
non-merohedral twin

;
#These two values have been output from a single CSD field.
_refine_ls_R_factor_gt 0.0361
_refine_ls_wR_factor_gt 0.0361
_symmetry_cell_setting monoclinic
_symmetry_space_group_name_H-M 'P 21/c'
_symmetry_Int_Tables_number 14
loop_
_symmetry_equiv_pos_site_id
_symmetry_equiv_pos_as_xyz
1 x,y,z
2 -x,1/2+y,1/2-z
3 -x,-y,-z
4 x,-1/2-y,-1/2+z
_cell_length_a 8.5235(5)
_cell_length_b 7.7619(5)
_cell_length_c 20.7354(13)
_cell_angle_alpha 90
_cell_angle_beta 109.089(5)
_cell_angle_gamma 90
_cell_formula_units_Z 4
loop_
_atom_type_symbol
_atom_type_radius_bond
C 0.68
H 0.23
N 0.68
O 0.68
loop_
_atom_site_label
_atom_site_type_symbol
_atom_site_fract_x
_atom_site_fract_y
_atom_site_fract_z
O1 O 0.9826(2) 0.2653(2) 0.18407(9)
H1 H 1.01910 0.17850 0.17150
O2 O 0.6579(3) 0.5793(2) -0.10516(11)
N1 N 0.6897(2) 0.6097(2) 0.03006(12)
N2 N 0.7469(3) 0.4716(3) 0.00293(10)
H2 H 0.79780 0.38870 0.02890
N3 N 0.8845(2) 0.3537(2) 0.12829(11)
N4 N 0.9004(3) 0.0121(3) -0.13646(12)
C1 C 0.6632(3) 0.7681(3) 0.12243(14)
C2 C 0.6382(3) 0.7670(3) 0.18548(14)
H3 H 0.65830 0.66690 0.21160
C3 C 0.5836(3) 0.9139(3) 0.20959(14)
H4 H 0.56690 0.91210 0.25170
C4 C 0.5542(3) 1.0621(3) 0.17138(16)
H5 H 0.51880 1.16090 0.18790
C5 C 0.5768(3) 1.0650(3) 0.10876(15)
H6 H 0.55450 1.16490 0.08260
C6 C 0.6326(3) 0.9196(3) 0.08484(14)
H7 H 0.65010 0.92310 0.04290
C7 C 0.7239(3) 0.6132(3) 0.09549(13)
C8 C 0.8236(3) 0.4906(3) 0.14457(14)
H8 H 0.84450 0.51300 0.19070
C9 C 0.7227(3) 0.4664(3) -0.06499(15)
C10 C 0.7869(3) 0.3039(3) -0.08777(13)
C11 C 0.7965(3) 0.1476(3) -0.05529(13)
H9 H 0.76690 0.13780 -0.01610
C12 C 0.8512(4) 0.0054(3) -0.08216(16)
H10 H 0.85360 -0.10060 -0.06090
C13 C 0.8917(3) 0.1634(3) -0.16660(15)
H11 H 0.92790 0.17070 -0.20420
C14 C 0.8324(3) 0.3112(3) -0.14573(14)
H12 H 0.82330 0.41330 -0.17020
#END
