
#######################################################################
#
#                 Cambridge Crystallographic Data Centre
#                                CCDC
#
#######################################################################
#
# If this CIF has been generated from an entry in the Cambridge
# Structural Database, then it will include bibliographic, chemical,
# crystal, experimental, refinement or atomic coordinate data resulting
# from the CCDC's data processing and validation procedures.
#
#######################################################################

data_CSD_CIF_ULAQUT
_audit_creation_date 2004-01-28
_audit_creation_method CSD-ConQuest-V1
_database_code_CSD ULAQUT
_database_code_depnum_ccdc_archive 'CCDC 205440'
_chemical_formula_sum 'C17 H22 N2 O6'
_chemical_formula_moiety
;
C17 H22 N2 O6
;
_journal_coden_Cambridge 177
_journal_volume 1
_journal_year 2003
_journal_page_first 3094
_journal_name_full 'Org.Biomol.Chem. '
loop_
_publ_author_name
"M.Spiniello"
"J.M.White"
_chemical_name_systematic
;
cis-4-t-Butylcyclohexyl 3,5-dinitrobenzoate
;
_chemical_melting_point 391.15
_cell_volume   1735.726
_exptl_crystal_colour 'yellow'
_exptl_crystal_density_diffrn 1.341
_exptl_special_details
;
Melting point range 391.15-392.65K

;
_exptl_crystal_description 'needles'
_exptl_crystal_preparation 'methanol'
_diffrn_ambient_temperature 130.0
#These two values have been output from a single CSD field.
_refine_ls_R_factor_gt 0.036
_refine_ls_wR_factor_gt 0.036
_symmetry_cell_setting monoclinic
_symmetry_space_group_name_H-M 'P 21/c'
_symmetry_Int_Tables_number 14
loop_
_symmetry_equiv_pos_site_id
_symmetry_equiv_pos_as_xyz
1 x,y,z
2 x,1/2-y,1/2+z
3 -x,-y,-z
4 -x,-1/2+y,-1/2-z
_cell_length_a 16.441(2)
_cell_length_b 5.981(2)
_cell_length_c 18.722(2)
_cell_angle_alpha 90
_cell_angle_beta 109.47(2)
_cell_angle_gamma 90
_cell_formula_units_Z 4
loop_
_atom_type_symbol
_atom_type_radius_bond
C 0.68
H 0.23
N 0.68
O 0.68
loop_
_atom_site_label
_atom_site_type_symbol
_atom_site_fract_x
_atom_site_fract_y
_atom_site_fract_z
C1 C 0.75206(9) 0.2376(2) 0.11422(8)
H1 H 0.74090 0.29340 0.06150
C2 C 0.82532(9) 0.0697(3) 0.13480(8)
H2 H 0.87510 0.13550 0.12370
H3 H 0.80670 -0.06480 0.10270
C3 C 0.85412(9) 0.0001(2) 0.21788(8)
H4 H 0.90480 -0.09990 0.22880
H5 H 0.80710 -0.08480 0.22750
C4 C 0.87776(8) 0.2023(2) 0.27135(8)
H6 H 0.92410 0.28540 0.25890
C5 C 0.79926(9) 0.3580(2) 0.25149(8)
H7 H 0.75090 0.27940 0.26100
H8 H 0.81370 0.49120 0.28480
C6 C 0.77105(9) 0.4326(2) 0.16897(9)
H9 H 0.71870 0.52650 0.15800
H10 H 0.81710 0.52560 0.16110
C7 C 0.91561(9) 0.1386(2) 0.35656(8)
C8 C 0.84922(10) 0.0217(3) 0.38448(9)
H11 H 0.79920 0.11980 0.37660
H12 H 0.87520 -0.01200 0.43860
H13 H 0.83070 -0.11770 0.35620
C9 C 0.99316(10) -0.0162(3) 0.36928(9)
H14 H 1.03610 0.05740 0.35150
H15 H 0.97430 -0.15560 0.34110
H16 H 1.01880 -0.04960 0.42340
C10 C 0.94815(10) 0.3490(3) 0.40428(9)
H17 H 0.99080 0.42480 0.38660
H18 H 0.97490 0.30690 0.45760
H19 H 0.89950 0.44990 0.39910
C11 C 0.59970(9) 0.2060(2) 0.08213(7)
C12 C 0.52764(8) 0.0755(2) 0.09365(7)
C13 C 0.54188(9) -0.1248(2) 0.13369(7)
H20 H 0.59830 -0.18560 0.15410
C14 C 0.47199(9) -0.2327(2) 0.14290(7)
C15 C 0.38924(10) -0.1510(2) 0.11525(7)
H21 H 0.34220 -0.22770 0.12280
C16 C 0.37792(9) 0.0490(2) 0.07584(7)
C17 C 0.44503(9) 0.1639(2) 0.06378(7)
H22 H 0.43500 0.29960 0.03580
N1 N 0.48692(9) -0.4433(2) 0.18613(6)
N2 N 0.29108(8) 0.1462(2) 0.04729(7)
O1 O 0.67630(6) 0.11460(16) 0.11842(5)
O2 O 0.58821(6) 0.37349(17) 0.04430(6)
O3 O 0.56050(8) -0.51668(18) 0.21050(6)
O4 O 0.42428(8) -0.53658(19) 0.19452(6)
O5 O 0.23166(7) 0.0366(2) 0.05454(7)
O6 O 0.28245(7) 0.32917(19) 0.01698(7)
#END
