
#######################################################################
#
#                 Cambridge Crystallographic Data Centre
#                                CCDC
#
#######################################################################
#
# If this CIF has been generated from an entry in the Cambridge
# Structural Database, then it will include bibliographic, chemical,
# crystal, experimental, refinement or atomic coordinate data resulting
# from the CCDC's data processing and validation procedures.
#
#######################################################################

data_CSD_CIF_ULAROO
_audit_creation_date 2004-01-28
_audit_creation_method CSD-ConQuest-V1
_database_code_CSD ULAROO
_database_code_depnum_ccdc_archive 'CCDC 205444'
_chemical_formula_sum 'C17 H23 N1 O4'
_chemical_formula_moiety
;
C17 H23 N1 O4
;
_journal_coden_Cambridge 177
_journal_volume 1
_journal_year 2003
_journal_page_first 3094
_journal_name_full 'Org.Biomol.Chem. '
loop_
_publ_author_name
"M.Spiniello"
"J.M.White"
_chemical_name_systematic
;
trans-4-t-Butylcyclohexyl 2-nitrobenzoate
;
_chemical_melting_point 361.15
_cell_volume   1613.494
_exptl_crystal_colour 'colorless'
_exptl_crystal_density_diffrn 1.257
_exptl_special_details
;
Melting point range 361.15-363.15K

;
_exptl_crystal_description 'plates'
_exptl_crystal_preparation 'petrol'
_diffrn_ambient_temperature 130
#These two values have been output from a single CSD field.
_refine_ls_R_factor_gt 0.0463
_refine_ls_wR_factor_gt 0.0463
_symmetry_cell_setting monoclinic
_symmetry_space_group_name_H-M 'P 21/n'
_symmetry_Int_Tables_number 14
loop_
_symmetry_equiv_pos_site_id
_symmetry_equiv_pos_as_xyz
1 x,y,z
2 1/2+x,1/2-y,1/2+z
3 -x,-y,-z
4 -1/2-x,-1/2+y,-1/2-z
_cell_length_a 6.2370(1)
_cell_length_b 12.7728(2)
_cell_length_c 20.4391(4)
_cell_angle_alpha 90
_cell_angle_beta 97.722(1)
_cell_angle_gamma 90
_cell_formula_units_Z 4
loop_
_atom_type_symbol
_atom_type_radius_bond
C 0.68
H 0.23
N 0.68
O 0.68
loop_
_atom_site_label
_atom_site_type_symbol
_atom_site_fract_x
_atom_site_fract_y
_atom_site_fract_z
C1 C 0.2274(2) 0.49331(11) 0.13064(7)
H1 H 0.30040 0.47250 0.17530
C2 C 0.3870(2) 0.49077(11) 0.08168(7)
H2 H 0.51210 0.53620 0.09720
H3 H 0.31780 0.51770 0.03850
C3 C 0.4642(2) 0.37838(11) 0.07381(7)
H4 H 0.53790 0.35290 0.11680
H5 H 0.57030 0.37730 0.04190
C4 C 0.2751(2) 0.30484(11) 0.04952(7)
H6 H 0.20010 0.33510 0.00750
C5 C 0.1153(2) 0.30891(12) 0.09959(8)
H7 H 0.18510 0.28090 0.14240
H8 H -0.01090 0.26410 0.08420
C6 C 0.0378(2) 0.42107(12) 0.10943(8)
H9 H -0.04350 0.44700 0.06760
H10 H -0.06110 0.42140 0.14350
C7 C 0.3493(2) 0.19269(12) 0.03329(7)
C8 C 0.4714(3) 0.19770(13) -0.02658(8)
H11 H 0.59890 0.24270 -0.01650
H12 H 0.37640 0.22650 -0.06440
H13 H 0.51740 0.12710 -0.03730
C9 C 0.4979(3) 0.14311(12) 0.09171(8)
H14 H 0.62380 0.18830 0.10400
H15 H 0.54640 0.07410 0.07870
H16 H 0.41770 0.13550 0.12950
C10 C 0.1507(3) 0.12173(13) 0.01438(9)
H17 H 0.06770 0.11680 0.05170
H18 H 0.19890 0.05170 0.00320
H19 H 0.05920 0.15160 -0.02380
C11 C 0.0786(2) 0.63388(11) 0.18715(7)
C12 C 0.0322(2) 0.74905(11) 0.18414(7)
C13 C -0.1410(2) 0.79318(11) 0.21012(7)
C14 C -0.1726(3) 0.90012(12) 0.21351(7)
H20 H -0.29280 0.92770 0.23190
C15 C -0.0249(3) 0.96620(13) 0.18953(8)
H21 H -0.04340 1.03990 0.19110
C16 C 0.1479(3) 0.92475(13) 0.16347(8)
H22 H 0.24920 0.97020 0.14730
C17 C 0.1765(2) 0.81717(12) 0.16050(7)
H23 H 0.29670 0.78990 0.14200
N1 N -0.3073(2) 0.72513(10) 0.23136(6)
O1 O 0.15043(16) 0.60199(8) 0.13214(5)
O2 O 0.06059(19) 0.57958(8) 0.23421(5)
O3 O -0.37136(19) 0.65077(9) 0.19614(6)
O4 O -0.3784(2) 0.74853(10) 0.28202(6)
#END
