
#######################################################################
#
#                 Cambridge Crystallographic Data Centre
#                                CCDC
#
#######################################################################
#
# If this CIF has been generated from an entry in the Cambridge
# Structural Database, then it will include bibliographic, chemical,
# crystal, experimental, refinement or atomic coordinate data resulting
# from the CCDC's data processing and validation procedures.
#
#######################################################################

data_CSD_CIF_ULASOP
_audit_creation_date 2004-01-28
_audit_creation_method CSD-ConQuest-V1
_database_code_CSD ULASOP
_database_code_depnum_ccdc_archive 'CCDC 205449'
_chemical_formula_sum 'C17 H19 N1 O4'
_chemical_formula_moiety
;
C17 H19 N1 O4
;
_journal_coden_Cambridge 177
_journal_volume 1
_journal_year 2003
_journal_page_first 3094
_journal_name_full 'Org.Biomol.Chem. '
loop_
_publ_author_name
"M.Spiniello"
"J.M.White"
_chemical_name_systematic
;
2-Adamantyl 3-nitrobenzoate
;
_chemical_melting_point 341.15
_cell_volume    724.565
_exptl_crystal_colour 'colorless'
_exptl_crystal_density_diffrn 1.381
_exptl_special_details
;
Melting point range 341.15-343.15K

;
_exptl_crystal_description 'plates'
_exptl_crystal_preparation 'methanol'
_diffrn_ambient_temperature 130.0
#These two values have been output from a single CSD field.
_refine_ls_R_factor_gt 0.0402
_refine_ls_wR_factor_gt 0.0402
_symmetry_cell_setting triclinic
_symmetry_space_group_name_H-M 'P -1'
_symmetry_Int_Tables_number 2
loop_
_symmetry_equiv_pos_site_id
_symmetry_equiv_pos_as_xyz
1 x,y,z
2 -x,-y,-z
_cell_length_a 7.539(3)
_cell_length_b 8.479(2)
_cell_length_c 12.043(3)
_cell_angle_alpha 75.30(2)
_cell_angle_beta 76.86(2)
_cell_angle_gamma 88.83(3)
_cell_formula_units_Z 2
loop_
_atom_type_symbol
_atom_type_radius_bond
C 0.68
H 0.23
N 0.68
O 0.68
loop_
_atom_site_label
_atom_site_type_symbol
_atom_site_fract_x
_atom_site_fract_y
_atom_site_fract_z
O1 O 0.30953(12) 0.08925(10) 0.18764(8)
C1 C 0.21602(16) 0.57349(15) -0.08941(11)
O2 O 0.27102(16) 0.82751(12) -0.06239(9)
O3 O 0.35333(18) 0.32809(12) 0.22850(9)
O4 O 0.16115(16) 0.81940(13) -0.21348(9)
C2 C 0.36240(17) -0.00098(14) 0.29665(11)
H1 H 0.44270 0.07060 0.32050
N1 N 0.21650(15) 0.75318(13) -0.12446(9)
C3 C 0.26038(16) 0.32898(15) 0.05055(11)
C4 C 0.52876(17) -0.24008(15) 0.38320(11)
H2 H 0.59920 -0.33530 0.36810
H3 H 0.60850 -0.16660 0.40440
C5 C 0.24134(19) -0.40879(16) 0.44764(12)
H4 H 0.13390 -0.44770 0.51350
H5 H 0.30940 -0.50510 0.43240
C6 C 0.17722(19) -0.31698(16) 0.33572(13)
H6 H 0.09760 -0.39180 0.31420
C7 C 0.31200(18) 0.25105(15) 0.16563(11)
C8 C 0.46475(17) -0.14847(15) 0.27105(11)
H7 H 0.57380 -0.11100 0.20450
C9 C 0.26464(16) 0.49866(15) 0.01576(11)
H8 H 0.29990 0.56180 0.06260
C10 C 0.25948(19) -0.14603(17) 0.50405(11)
H9 H 0.33890 -0.07210 0.52510
H10 H 0.15250 -0.18070 0.57090
C11 C 0.20717(17) 0.23888(16) -0.02006(11)
H11 H 0.20430 0.12300 0.00360
C12 C 0.07179(18) -0.16736(17) 0.35736(13)
H12 H -0.03890 -0.20210 0.42140
H13 H 0.03350 -0.10840 0.28500
C13 C 0.16208(17) 0.48719(17) -0.16110(11)
H14 H 0.12900 0.54230 -0.23220
C14 C 0.19504(17) -0.05386(16) 0.39200(11)
H15 H 0.12680 0.04380 0.40710
C15 C 0.3416(2) -0.26165(16) 0.23679(12)
H16 H 0.30320 -0.20270 0.16440
H17 H 0.40970 -0.35740 0.22040
C16 C 0.36440(17) -0.29572(16) 0.48224(11)
H18 H 0.40320 -0.35540 0.55520
C17 C 0.15823(18) 0.31823(17) -0.12528(12)
H19 H 0.12220 0.25590 -0.17230
#END
