
#######################################################################
#
#                 Cambridge Crystallographic Data Centre
#                                CCDC
#
#######################################################################
#
# If this CIF has been generated from an entry in the Cambridge
# Structural Database, then it will include bibliographic, chemical,
# crystal, experimental, refinement or atomic coordinate data resulting
# from the CCDC's data processing and validation procedures.
#
#######################################################################

data_CSD_CIF_ULAVUA
_audit_creation_date 2016-04-28
_audit_creation_method CSD-ConQuest-V1
_database_code_CSD ULAVUA
_database_code_depnum_ccdc_archive 'CCDC 1062725'
_chemical_formula_sum 'C6 H5 N5 O3'
_chemical_formula_moiety
;
C6 H5 N5 O3
;
_journal_coden_Cambridge 122
_journal_volume 51
_journal_year 2015
_journal_page_first 545
_journal_name_full 'Khim.Get.Soedin.,SSSR(Russ.)(Chem.Heterocycl.Compd.) '
loop_
_publ_author_name
"I.L.Dalinger"
"I.A.Vatsadze"
"T.K.Shkineva"
"A.V.Kormanov"
"A.M.Kozeev"
"B.B.Averkiev"
"A.I.Dalinger"
"M.K.Beklemishev"
"A.B.Sheremetev"
_chemical_name_systematic
;
3-methyl-4-(4-nitro-1H-pyrazol-3-yl)-1,2,5-oxadiazole
;
_cell_volume    768.991
_exptl_crystal_colour 'colorless'
_exptl_crystal_density_diffrn 1.686
_exptl_crystal_description 'plate'
_diffrn_ambient_temperature 100
#These two values have been output from a single CSD field.
_refine_ls_R_factor_gt 0.0496
_refine_ls_wR_factor_gt 0.0496
_symmetry_cell_setting monoclinic
_symmetry_space_group_name_H-M 'P 21/c'
_symmetry_Int_Tables_number 14
loop_
_symmetry_equiv_pos_site_id
_symmetry_equiv_pos_as_xyz
1 x,y,z
2 -x,1/2+y,1/2-z
3 -x,-y,-z
4 x,-1/2-y,-1/2+z
_cell_length_a 16.083(5)
_cell_length_b 6.8125(19)
_cell_length_c 7.048(2)
_cell_angle_alpha 90
_cell_angle_beta 95.239(5)
_cell_angle_gamma 90
_cell_formula_units_Z 4
loop_
_atom_type_symbol
_atom_type_radius_bond
C 0.68
H 0.23
N 0.68
O 0.68
loop_
_atom_site_label
_atom_site_type_symbol
_atom_site_fract_x
_atom_site_fract_y
_atom_site_fract_z
O1 O 0.15639(8) 0.39910(19) 0.5974(2)
O2 O 0.38368(10) 0.29865(19) 0.3947(2)
O3 O 0.46957(9) 0.0823(2) 0.3015(2)
N1 N 0.09937(10) 0.2584(2) 0.6435(2)
N2 N 0.22713(10) 0.3110(2) 0.5387(2)
N3 N 0.31233(10) -0.3266(2) 0.4668(2)
N4 N 0.24899(10) -0.2149(2) 0.5193(2)
N5 N 0.40508(10) 0.1278(2) 0.3718(2)
C1 C 0.13296(11) 0.0883(3) 0.6146(3)
C2 C 0.21415(11) 0.1217(2) 0.5474(2)
C3 C 0.27308(11) -0.0289(2) 0.4970(2)
C4 C 0.35306(11) -0.0287(2) 0.4268(2)
C5 C 0.37584(12) -0.2234(3) 0.4095(3)
C6 C 0.08846(13) -0.0972(3) 0.6538(3)
H1 H 0.3070(16) -0.458(4) 0.471(4)
H2 H 0.4245(16) -0.279(4) 0.367(4)
H3 H 0.0372(15) -0.069(4) 0.707(3)
H4 H 0.1238(17) -0.175(4) 0.740(4)
H5 H 0.0764(16) -0.169(4) 0.536(4)
#END
