
#######################################################################
#
#                 Cambridge Crystallographic Data Centre
#                                CCDC
#
#######################################################################
#
# If this CIF has been generated from an entry in the Cambridge
# Structural Database, then it will include bibliographic, chemical,
# crystal, experimental, refinement or atomic coordinate data resulting
# from the CCDC's data processing and validation procedures.
#
#######################################################################

data_CSD_CIF_ULEDEV
_audit_creation_date 2011-06-07
_audit_creation_method CSD-ConQuest-V1
_database_code_CSD ULEDEV
_database_code_depnum_ccdc_archive 'CCDC 815513'
_chemical_formula_sum 'C15 H21 N3 O3'
_chemical_formula_moiety
;
C15 H21 N3 O3
;
_journal_coeditor_code "IUCr ZS2090"
_journal_coden_Cambridge 1370
_journal_volume 67
_journal_year 2011
_journal_page_first o558
_journal_name_full 'Acta Crystallogr.,Sect.E:Struct.Rep.Online '
loop_
_publ_author_name
"Y.Ouzidan"
"Y.K.Rodi"
"N.Saffon"
"E.M.Essassi"
"S.W.Ng"
_chemical_name_systematic
;
5-Nitro-1-n-octyl-1H-benzimidazol-2(3H)-one
;
_cell_volume    753.497
_exptl_crystal_colour 'colorless'
_exptl_crystal_density_diffrn 1.284
_exptl_crystal_description 'block'
_exptl_crystal_preparation 'diethyl ether'
_diffrn_ambient_temperature 295
#These two values have been output from a single CSD field.
_refine_ls_R_factor_gt 0.0548
_refine_ls_wR_factor_gt 0.0548
_symmetry_cell_setting triclinic
_symmetry_space_group_name_H-M 'P -1'
_symmetry_Int_Tables_number 2
loop_
_symmetry_equiv_pos_site_id
_symmetry_equiv_pos_as_xyz
1 x,y,z
2 -x,-y,-z
_cell_length_a 4.9997(3)
_cell_length_b 11.4942(6)
_cell_length_c 13.8739(7)
_cell_angle_alpha 74.214(3)
_cell_angle_beta 79.637(4)
_cell_angle_gamma 84.108(4)
_cell_formula_units_Z 2
loop_
_atom_type_symbol
_atom_type_radius_bond
C 0.68
H 0.23
N 0.68
O 0.68
loop_
_atom_site_label
_atom_site_type_symbol
_atom_site_fract_x
_atom_site_fract_y
_atom_site_fract_z
O1 O 0.6268(4) 0.47630(17) 0.37325(14)
O2 O -0.5372(4) 0.15689(19) 0.72705(15)
O3 O -0.5678(4) 0.02018(19) 0.64945(15)
N1 N 0.3626(4) 0.32787(19) 0.35991(16)
N2 N 0.2757(5) 0.3907(2) 0.50001(18)
N3 N -0.4666(5) 0.1112(2) 0.65519(18)
C1 C 0.1487(5) 0.2628(2) 0.42194(19)
C2 C 0.0021(5) 0.1746(2) 0.4085(2)
H1 H 0.03870 0.14910 0.34910
C3 C -0.2003(5) 0.1257(2) 0.48628(19)
H2 H -0.30340 0.06600 0.48000
C4 C -0.2502(5) 0.1658(2) 0.57430(19)
C5 C -0.1062(5) 0.2549(2) 0.58994(19)
H3 H -0.14330 0.28020 0.64940
C6 C 0.0937(5) 0.3025(2) 0.51182(19)
C7 C 0.4414(6) 0.4067(3) 0.4080(2)
C8 C 0.4867(6) 0.3212(3) 0.25805(19)
H4 H 0.51280 0.23700 0.25630
H5 H 0.66440 0.35490 0.24170
C9 C 0.3124(6) 0.3898(2) 0.17815(19)
H6 H 0.41300 0.39080 0.11130
H7 H 0.14880 0.34690 0.18720
C10 C 0.2313(6) 0.5199(2) 0.1835(2)
H8 H 0.11830 0.51810 0.24840
H9 H 0.39470 0.56020 0.18060
C11 C 0.0788(6) 0.5937(3) 0.0999(2)
H10 H -0.07210 0.54900 0.09640
H11 H 0.19970 0.60620 0.03540
C12 C -0.0298(6) 0.7161(3) 0.1179(2)
H12 H 0.12150 0.75810 0.12480
H13 H -0.15430 0.70240 0.18160
C13 C -0.1770(6) 0.7985(3) 0.0349(2)
H14 H -0.31210 0.75280 0.02130
H15 H -0.27290 0.86470 0.06010
C14 C 0.0045(6) 0.8505(3) -0.0629(2)
H16 H 0.09160 0.78470 -0.09080
H17 H 0.14630 0.89240 -0.04920
C15 C -0.1477(7) 0.9384(3) -0.1419(2)
H18 H -0.02200 0.96830 -0.20270
H19 H -0.23010 1.00500 -0.11560
H20 H -0.28640 0.89720 -0.15680
H21 H 0.296(6) 0.428(3) 0.549(2)
#END
