
#######################################################################
#
#                 Cambridge Crystallographic Data Centre
#                                CCDC
#
#######################################################################
#
# If this CIF has been generated from an entry in the Cambridge
# Structural Database, then it will include bibliographic, chemical,
# crystal, experimental, refinement or atomic coordinate data resulting
# from the CCDC's data processing and validation procedures.
#
#######################################################################

data_CSD_CIF_ULEFUM
_audit_creation_date 2004-01-28
_audit_creation_method CSD-ConQuest-V1
_database_code_CSD ULEFUM
_database_code_depnum_ccdc_archive 'CCDC 218936'
_chemical_formula_sum 'C19 H25 N1 O6'
_chemical_formula_moiety
;
C19 H25 N1 O6
;
_journal_coden_Cambridge 4
_journal_volume 125
_journal_year 2003
_journal_page_first 11456
_journal_name_full 'J.Am.Chem.Soc. '
loop_
_publ_author_name
"P.A.Evans"
"Jian Cui"
"S.J.Gharpure"
"R.J.Hinkle"
_chemical_name_systematic
;
(2S*,4aR*,8aR*)-p-Nitrobenzoic acid 
2-(2,8a-dimethyloctahydropyrano(3,2-b)pyran-2-yl)ethyl ester
;
_cell_volume   1795.959
_exptl_crystal_colour 'colorless'
_exptl_crystal_density_diffrn 1.344
_exptl_crystal_description 'thin plate'
_diffrn_ambient_temperature 113
#These two values have been output from a single CSD field.
_refine_ls_R_factor_gt 0.0555
_refine_ls_wR_factor_gt 0.0555
_symmetry_cell_setting monoclinic
_symmetry_space_group_name_H-M 'P 21/c'
_symmetry_Int_Tables_number 14
loop_
_symmetry_equiv_pos_site_id
_symmetry_equiv_pos_as_xyz
1 x,y,z
2 x,1/2-y,1/2+z
3 -x,-y,-z
4 -x,-1/2+y,-1/2-z
_cell_length_a 6.9308(18)
_cell_length_b 7.6574(19)
_cell_length_c 33.874(9)
_cell_angle_alpha 90
_cell_angle_beta 92.563(6)
_cell_angle_gamma 90
_cell_formula_units_Z 4
loop_
_atom_type_symbol
_atom_type_radius_bond
C 0.68
H 0.23
N 0.68
O 0.68
loop_
_atom_site_label
_atom_site_type_symbol
_atom_site_fract_x
_atom_site_fract_y
_atom_site_fract_z
C1 C 0.7600(3) 0.8342(3) 0.16581(6)
C2 C 0.6306(3) 0.8558(3) 0.20058(6)
C3 C 0.6320(3) 1.0470(3) 0.21297(6)
O1 O 0.8260(2) 1.0817(2) 0.22614(5)
C4 C 0.8588(4) 1.2595(3) 0.23726(7)
C5 C 0.8165(4) 1.3791(3) 0.20246(7)
C6 C 0.6073(4) 1.3560(3) 0.18770(7)
C7 C 0.5591(3) 1.1644(3) 0.17867(6)
C8 C 0.3391(4) 1.1462(4) 0.17214(7)
O2 O 0.6579(2) 1.12881(18) 0.14312(4)
C9 C 0.6977(3) 0.9514(3) 0.13085(6)
C10 C 0.8667(3) 0.9723(3) 0.10400(7)
C11 C 0.5231(3) 0.8703(3) 0.10791(6)
C12 C 0.4283(3) 0.9928(3) 0.07772(6)
O3 O 0.2954(2) 0.8980(2) 0.05065(4)
C13 C 0.3782(3) 0.8145(3) 0.02128(6)
O4 O 0.5505(2) 0.8084(2) 0.01715(5)
C14 C 0.2336(3) 0.7313(3) -0.00677(6)
C15 C 0.3019(3) 0.6299(3) -0.03717(6)
C16 C 0.1747(3) 0.5579(3) -0.06542(6)
C17 C -0.0204(3) 0.5872(3) -0.06200(6)
C18 C -0.0934(3) 0.6849(3) -0.03175(6)
C19 C 0.0352(3) 0.7581(3) -0.00391(6)
N1 N -0.1562(3) 0.5113(2) -0.09197(5)
O5 O -0.0915(2) 0.4361(2) -0.12018(5)
O6 O -0.3300(2) 0.5289(2) -0.08739(5)
H1 H 0.419(3) 0.835(3) 0.1258(7)
H2 H 0.894(4) 1.341(4) 0.1794(8)
H3 H 0.441(4) 0.611(3) -0.0395(7)
H4 H 0.519(3) 1.052(3) 0.0621(7)
H5 H 0.347(3) 1.073(3) 0.0896(6)
H6 H 0.492(3) 0.823(3) 0.1933(7)
H7 H 0.516(4) 1.400(4) 0.2088(9)
H8 H -0.231(4) 0.704(3) -0.0293(7)
H9 H 0.779(4) 1.283(3) 0.2608(8)
H10 H 0.303(4) 1.028(4) 0.1638(8)
H11 H 0.998(4) 1.265(4) 0.2464(9)
H12 H -0.008(3) 0.823(3) 0.0175(7)
H13 H 0.899(4) 0.865(3) 0.1741(7)
H14 H 0.273(4) 1.177(3) 0.1961(8)
H15 H 0.579(3) 1.423(3) 0.1629(7)
H16 H 0.219(4) 0.490(4) -0.0863(8)
H17 H 0.541(3) 1.065(3) 0.2352(7)
H18 H 0.978(4) 1.032(3) 0.1190(8)
H19 H 0.299(4) 1.231(3) 0.1507(8)
H20 H 0.908(4) 0.855(4) 0.0948(8)
H21 H 0.567(3) 0.770(3) 0.0944(7)
H22 H 0.830(4) 1.039(3) 0.0807(8)
H23 H 0.761(4) 0.715(4) 0.1564(8)
H24 H 0.680(4) 0.784(4) 0.2237(8)
H25 H 0.843(4) 1.490(4) 0.2104(9)
#END
