
#######################################################################
#
#                 Cambridge Crystallographic Data Centre
#                                CCDC
#
#######################################################################
#
# If this CIF has been generated from an entry in the Cambridge
# Structural Database, then it will include bibliographic, chemical,
# crystal, experimental, refinement or atomic coordinate data resulting
# from the CCDC's data processing and validation procedures.
#
#######################################################################

data_CSD_CIF_ULEPIL
_audit_creation_date 2011-03-25
_audit_creation_method CSD-ConQuest-V1
_database_code_CSD ULEPIL
_database_code_depnum_ccdc_archive 'CCDC 815559'
_chemical_formula_sum 'C17 H25 N3 O3'
_chemical_formula_moiety
;
C17 H25 N3 O3
;
_journal_coeditor_code "IUCr ZS2093"
_journal_coden_Cambridge 1370
_journal_volume 67
_journal_year 2011
_journal_page_first o613
_journal_name_full 'Acta Crystallogr.,Sect.E:Struct.Rep.Online '
loop_
_publ_author_name
"Y.Ouzidan"
"Y.K.Rodi"
"S.Ladeira"
"E.M.Essassi"
"S.W.Ng"
_chemical_name_systematic
;
1-Decyl-5-nitro-1,3-dihydro-2H-benzimidazol-2-one
;
_cell_volume    855.206
_exptl_crystal_colour 'colorless'
_exptl_crystal_density_diffrn 1.24
_exptl_crystal_description 'prism'
_diffrn_ambient_temperature 293
#These two values have been output from a single CSD field.
_refine_ls_R_factor_gt 0.0548
_refine_ls_wR_factor_gt 0.0548
_symmetry_cell_setting triclinic
_symmetry_space_group_name_H-M 'P -1'
_symmetry_Int_Tables_number 2
loop_
_symmetry_equiv_pos_site_id
_symmetry_equiv_pos_as_xyz
1 x,y,z
2 -x,-y,-z
_cell_length_a 5.4933(2)
_cell_length_b 10.3063(4)
_cell_length_c 16.1655(6)
_cell_angle_alpha 106.504(2)
_cell_angle_beta 98.545(2)
_cell_angle_gamma 96.809(2)
_cell_formula_units_Z 2
loop_
_atom_type_symbol
_atom_type_radius_bond
C 0.68
H 0.23
N 0.68
O 0.68
loop_
_atom_site_label
_atom_site_type_symbol
_atom_site_fract_x
_atom_site_fract_y
_atom_site_fract_z
O1 O 0.6868(3) 0.57512(19) 0.61197(12)
O2 O 0.8896(4) -0.0690(2) 0.29737(16)
O3 O 1.2510(4) -0.0845(2) 0.36526(16)
N1 N 0.7157(4) 0.3830(2) 0.49844(15)
H1 H 0.58630 0.38320 0.45920
N2 N 0.9999(4) 0.4426(2) 0.61946(15)
N3 N 1.0691(5) -0.0264(2) 0.35868(19)
C1 C 0.7879(5) 0.4765(3) 0.57918(19)
C2 C 0.8734(5) 0.2871(3) 0.48616(18)
C3 C 0.8717(5) 0.1718(3) 0.41760(19)
H2 H 0.74830 0.14350 0.36710
C4 C 1.0672(5) 0.1002(3) 0.4288(2)
C5 C 1.2516(5) 0.1396(3) 0.5022(2)
H3 H 1.38010 0.08900 0.50520
C6 C 1.2493(5) 0.2538(3) 0.5717(2)
H4 H 1.37230 0.28050 0.62230
C7 C 1.0566(5) 0.3268(3) 0.56298(19)
C8 C 1.1434(5) 0.5230(3) 0.70567(18)
H5 H 1.07860 0.60780 0.72540
H6 H 1.31570 0.54690 0.70070
C9 C 1.1361(5) 0.4479(3) 0.77434(19)
H7 H 1.19540 0.36180 0.75300
H8 H 1.25190 0.50270 0.82760
C10 C 0.8830(5) 0.4174(3) 0.7976(2)
H9 H 0.76780 0.35750 0.74570
H10 H 0.81850 0.50230 0.81710
C11 C 0.8982(5) 0.3489(3) 0.8699(2)
H11 H 0.95930 0.26320 0.84910
H12 H 1.02020 0.40760 0.92040
C12 C 0.6562(6) 0.3190(3) 0.8998(2)
H13 H 0.58960 0.40360 0.91790
H14 H 0.53660 0.25560 0.85050
C13 C 0.6824(6) 0.2585(3) 0.9749(2)
H15 H 0.80600 0.32100 1.02340
H16 H 0.74570 0.17310 0.95610
C14 C 0.4445(6) 0.2305(3) 1.0082(2)
H17 H 0.37540 0.31460 1.02350
H18 H 0.32440 0.16340 0.96080
C15 C 0.4751(6) 0.1780(3) 1.0874(2)
H19 H 0.54000 0.09260 1.07170
H20 H 0.59810 0.24390 1.13440
C16 C 0.2378(7) 0.1537(4) 1.1214(2)
H21 H 0.11890 0.08250 1.07600
H22 H 0.16590 0.23710 1.13310
C17 C 0.2764(8) 0.1116(4) 1.2043(3)
H23 H 0.11890 0.09650 1.22200
H24 H 0.38880 0.18320 1.25030
H25 H 0.34600 0.02860 1.19320
#END
