
#######################################################################
#
#                 Cambridge Crystallographic Data Centre
#                                CCDC
#
#######################################################################
#
# If this CIF has been generated from an entry in the Cambridge
# Structural Database, then it will include bibliographic, chemical,
# crystal, experimental, refinement or atomic coordinate data resulting
# from the CCDC's data processing and validation procedures.
#
#######################################################################

data_CSD_CIF_UMAXIR
_audit_creation_date 2016-05-04
_audit_creation_method CSD-ConQuest-V1
_database_code_CSD UMAXIR
_database_code_depnum_ccdc_archive 'CCDC 1001765'
_chemical_formula_sum 'C17 H16 N2 O6'
_chemical_formula_moiety
;
C17 H16 N2 O6
;
_journal_coden_Cambridge 261
_journal_volume 19
_journal_year 2016
_journal_page_first 921
_journal_name_full 'Comptes Rendus Chimie '
loop_
_publ_author_name
"M.Al-Azani"
"M.al-Sulaibi"
"Nuha al Soom"
"Y.Al Jasem"
"B.Bugenhagen"
"B.Al Hindawi"
"T.Thiemann"
_chemical_name_systematic
;
(((1-(2,5-Dimethoxyphenyl)ethylidene)amino)oxy)(4-nitrophenyl)methanone
;
_chemical_name_common
;
2,5-Dimethoxyacetophenone oxime 4-nitrobenzoate
;
_cell_volume   1588.451
_exptl_crystal_colour 'light yellow'
_exptl_crystal_density_diffrn 1.44
_exptl_crystal_description 'plate'
_diffrn_ambient_temperature 292
#These two values have been output from a single CSD field.
_refine_ls_R_factor_gt 0.0444
_refine_ls_wR_factor_gt 0.0444
_symmetry_cell_setting monoclinic
_symmetry_space_group_name_H-M 'P 21/c'
_symmetry_Int_Tables_number 14
loop_
_symmetry_equiv_pos_site_id
_symmetry_equiv_pos_as_xyz
1 x,y,z
2 -x,1/2+y,1/2-z
3 -x,-y,-z
4 x,-1/2-y,-1/2+z
_cell_length_a 17.1206(6)
_cell_length_b 8.17107(19)
_cell_length_c 11.6431(3)
_cell_angle_alpha 90
_cell_angle_beta 102.779(3)
_cell_angle_gamma 90
_cell_formula_units_Z 4
loop_
_atom_type_symbol
_atom_type_radius_bond
C 0.68
H 0.23
N 0.68
O 0.68
loop_
_atom_site_label
_atom_site_type_symbol
_atom_site_fract_x
_atom_site_fract_y
_atom_site_fract_z
C1 C 0.20412(9) 0.5242(2) 0.32498(13)
C2 C 0.66765(10) 0.9267(2) 0.56511(14)
C3 C 0.65124(10) 0.9663(2) 0.44683(14)
C4 C 0.58068(10) 0.9081(2) 0.37675(14)
C5 C 0.08983(11) 0.8079(2) 0.03297(15)
C6 C 0.14993(10) 0.2245(2) 0.52387(14)
C7 C 0.28608(9) 0.5676(2) 0.39138(13)
C8 C 0.30802(10) 0.5653(2) 0.52349(13)
C9 C 0.45327(9) 0.7569(2) 0.34289(13)
C10 C 0.16047(9) 0.3976(2) 0.36216(13)
C11 C 0.08185(10) 0.3672(2) 0.30209(13)
C12 C 0.0472(1) 0.4611(2) 0.20546(13)
C13 C 0.0902(1) 0.5858(2) 0.16693(13)
C14 C 0.16840(9) 0.6175(2) 0.22641(13)
C15 C 0.52860(9) 0.8123(2) 0.42471(13)
C16 C 0.5466(1) 0.7759(2) 0.54466(14)
C17 C 0.61712(10) 0.8334(2) 0.61622(14)
H1 H 0.68720 1.03130 0.41470
H2 H 0.56770 0.93370 0.29510
H3 H 0.05370 0.86280 -0.03280
H4 H 0.13780 0.77060 0.00770
H5 H 0.10530 0.88460 0.09880
H6 H 0.12200 0.13260 0.47850
H7 H 0.11060 0.30190 0.54190
H8 H 0.18370 0.18370 0.59750
H9 H 0.34540 0.47530 0.55030
H10 H 0.25960 0.54990 0.55400
H11 H 0.33340 0.66940 0.55240
H12 H 0.05210 0.28170 0.32760
H13 H -0.00640 0.44020 0.16510
H14 H 0.19780 0.70290 0.20010
H15 H 0.51070 0.71170 0.57740
H16 H 0.63030 0.80930 0.69810
N1 N 0.33280(8) 0.61577(18) 0.32531(11)
N2 N 0.74334(8) 0.98552(19) 0.64076(12)
O1 O 0.04996(7) 0.67056(15) 0.06975(9)
O2 O 0.19903(7) 0.30562(15) 0.45624(9)
O3 O 0.40834(6) 0.66559(16) 0.40081(9)
O4 O 0.43547(7) 0.78978(17) 0.24016(10)
O5 O 0.78587(7) 1.07590(16) 0.59616(10)
O6 O 0.76008(7) 0.94218(18) 0.74406(10)
#END
