
#######################################################################
#
#                 Cambridge Crystallographic Data Centre
#                                CCDC
#
#######################################################################
#
# If this CIF has been generated from an entry in the Cambridge
# Structural Database, then it will include bibliographic, chemical,
# crystal, experimental, refinement or atomic coordinate data resulting
# from the CCDC's data processing and validation procedures.
#
#######################################################################

data_CSD_CIF_UMOLOZ
_audit_creation_date 2016-05-05
_audit_creation_method CSD-ConQuest-V1
_database_code_CSD UMOLOZ
_database_code_depnum_ccdc_archive 'CCDC 1448252'
_chemical_formula_sum 'C20 H18 N2 O2'
_chemical_formula_moiety
;
C20 H18 N2 O2
;
_journal_coden_Cambridge 1350
_journal_volume 18
_journal_year 2016
_journal_page_first 3667
_journal_name_full 'CrystEngComm '
loop_
_publ_author_name
"Xinyuan Zhang"
"Xingxing Jiang"
"Pengxiang Liu"
"Yin Li"
"Heng Tu"
"Zheshuai Lin"
"Degang Xu"
"Guochun Zhang"
"Yicheng Wu"
"Jianquan Yao"
_chemical_name_systematic
;
3-phenyl-4-(4-(pyrrolidin-1-yl)benzylidene)-1,2-oxazol-5(4H)-one
;
_cell_volume   1599.390
_exptl_crystal_colour 'red'
_exptl_crystal_density_diffrn 1.322
_exptl_crystal_description 'Platelet'
_diffrn_ambient_temperature 153
_refine_special_details
;
C17,C18,C19 and C17',C18',C19' disordered over two sites with occupancies 
0.556:0.444.
;
#These two values have been output from a single CSD field.
_refine_ls_R_factor_gt 0.0447
_refine_ls_wR_factor_gt 0.0447
_symmetry_cell_setting orthorhombic
_symmetry_space_group_name_H-M 'P n a 21'
_symmetry_Int_Tables_number 33
loop_
_symmetry_equiv_pos_site_id
_symmetry_equiv_pos_as_xyz
1 x,y,z
2 -x,-y,1/2+z
3 1/2+x,1/2-y,z
4 1/2-x,1/2+y,1/2+z
_cell_length_a 12.040(3)
_cell_length_b 6.7907(14)
_cell_length_c 19.562(4)
_cell_angle_alpha 90
_cell_angle_beta 90
_cell_angle_gamma 90
_cell_formula_units_Z 4
loop_
_atom_type_symbol
_atom_type_radius_bond
C 0.68
H 0.23
N 0.68
O 0.68
loop_
_atom_site_label
_atom_site_type_symbol
_atom_site_fract_x
_atom_site_fract_y
_atom_site_fract_z
O1 O 0.89598(9) 0.98256(16) 0.47085(6)
O2 O 0.94837(9) 0.74607(16) 0.54346(6)
N1 N 0.80134(11) 1.03131(19) 0.42858(7)
N2 N 0.75128(9) -0.07962(18) 0.67376(7)
C1 C 0.74179(11) 0.0817(2) 0.63416(7)
C2 C 0.83439(12) 0.2011(3) 0.61819(10)
H1 H 0.90520 0.16750 0.63620
C3 C 0.82441(11) 0.3644(3) 0.57722(10)
H2 H 0.88870 0.44000 0.56700
C4 C 0.72115(11) 0.4223(2) 0.55006(8)
C5 C 0.62921(11) 0.3016(2) 0.56600(8)
H3 H 0.55850 0.33580 0.54810
C6 C 0.63778(11) 0.1381(2) 0.60605(8)
H4 H 0.57360 0.06110 0.61530
C7 C 0.70219(11) 0.5876(2) 0.50693(8)
H5 H 0.62860 0.59250 0.48950
C8 C 0.87749(12) 0.8079(2) 0.50490(8)
C9 C 0.76687(11) 0.7414(2) 0.48505(7)
C10 C 0.72890(12) 0.8923(2) 0.43828(8)
C11 C 0.62142(12) 0.8975(2) 0.40173(7)
C12 C 0.55105(14) 1.0580(3) 0.40708(8)
H6 H 0.57270 1.16840 0.43380
C13 C 0.44907(15) 1.0592(3) 0.37375(9)
H7 H 0.40060 1.16880 0.37860
C14 C 0.41834(13) 0.9024(3) 0.33386(9)
H8 H 0.34890 0.90400 0.31080
C15 C 0.48832(14) 0.7418(3) 0.32715(11)
H9 H 0.46740 0.63380 0.29910
C16 C 0.58935(13) 0.7392(2) 0.36166(9)
H10 H 0.63670 0.62790 0.35770
C17 C 0.8566(6) -0.151(2) 0.7025(6)
H11 H 0.90110 -0.04220 0.72230
H12 H 0.90150 -0.22230 0.66820
C18 C 0.8108(3) -0.2898(5) 0.75817(17)
H13 H 0.86570 -0.39440 0.76830
H14 H 0.79660 -0.21510 0.80080
C19 C 0.7036(12) -0.3807(18) 0.7323(7)
H15 H 0.65240 -0.41240 0.77040
H16 H 0.71770 -0.50100 0.70510
C20 C 0.65915(13) -0.2144(2) 0.68826(8)
H17 H 0.62860 -0.26770 0.64510
H18 H 0.59910 -0.14390 0.71260
C21? C 0.8551(8) -0.142(2) 0.7070(8)
H19? H 0.86640 -0.06710 0.74990
H20? H 0.91910 -0.11680 0.67650
C22? C 0.8452(3) -0.3595(6) 0.7221(3)
H21? H 0.88670 -0.39830 0.76360
H22? H 0.86870 -0.44200 0.68290
C23? C 0.7188(14) -0.363(2) 0.7330(9)
H23? H 0.69050 -0.49700 0.72260
H24? H 0.70230 -0.33500 0.78160
#END
