
#######################################################################
#
#                 Cambridge Crystallographic Data Centre
#                                CCDC
#
#######################################################################
#
# If this CIF has been generated from an entry in the Cambridge
# Structural Database, then it will include bibliographic, chemical,
# crystal, experimental, refinement or atomic coordinate data resulting
# from the CCDC's data processing and validation procedures.
#
#######################################################################

data_CSD_CIF_UMOTUM01
_audit_creation_date 2016-09-16
_audit_creation_method CSD-ConQuest-V1
_database_code_CSD UMOTUM01
_database_code_depnum_ccdc_archive 'CCDC 1504719'
_chemical_formula_sum 'C9 H8 N2 O2'
_chemical_formula_moiety
;
C9 H8 N2 O2
;
_journal_coden_Cambridge 1078
_journal_year 2016
_journal_name_full 'CSD Communication(Private Communication) '
loop_
_publ_author_name
"M.H.N.Arsanious"
_chemical_name_systematic
;
3-hydroxy-2-methylquinazolin-4(3H)-one
;
_cell_volume    402.922
_exptl_crystal_colour 'colorless'
_exptl_crystal_density_diffrn 1.452
_exptl_crystal_description 'Cube'
_diffrn_ambient_temperature 298
#These two values have been output from a single CSD field.
_refine_ls_R_factor_gt 0.061
_refine_ls_wR_factor_gt 0.061
_symmetry_cell_setting monoclinic
_symmetry_space_group_name_H-M 'P 21'
_symmetry_Int_Tables_number 4
loop_
_symmetry_equiv_pos_site_id
_symmetry_equiv_pos_as_xyz
1 x,y,z
2 -x,1/2+y,-z
_cell_length_a 4.3363(2)
_cell_length_b 9.5607(6)
_cell_length_c 9.7628(7)
_cell_angle_alpha 90
_cell_angle_beta 95.443(2)
_cell_angle_gamma 90
_cell_formula_units_Z 2
loop_
_atom_type_symbol
_atom_type_radius_bond
C 0.68
H 0.23
N 0.68
O 0.68
loop_
_atom_site_label
_atom_site_type_symbol
_atom_site_fract_x
_atom_site_fract_y
_atom_site_fract_z
N1 N 1.0390(11) 0.2151(6) 0.8942(5)
N2 N 0.7354(11) 0.0252(6) 0.9497(5)
C1 C 0.9188(13) 0.1976(6) 0.7565(6)
C2 C 0.6006(14) -0.0001(7) 0.8163(6)
C3 C 1.0210(13) 0.2898(8) 0.6562(6)
O1 O 0.6295(10) -0.0531(5) 1.0548(4)
C4 C 0.7094(14) 0.0932(7) 0.7146(6)
C5 C 1.0643(14) 0.1457(9) 1.1333(6)
C6 C 0.9424(12) 0.1305(6) 0.9841(5)
O2 O 0.4068(11) -0.0930(7) 0.7941(5)
C7 C 0.6005(16) 0.0815(8) 0.5757(6)
C8 C 0.9121(16) 0.2735(9) 0.5204(6)
C9 C 0.7003(15) 0.1711(9) 0.4805(6)
H1 H 1.16580 0.36281 0.68366
H2 H 0.97303 0.07493 1.18641
H3 H 1.01075 0.23642 1.16579
H4 H 1.28545 0.13515 1.14276
H5 H 0.45022 0.01081 0.54797
H6 H 0.98613 0.33360 0.45186
H7 H 0.62574 0.16220 0.38513
H8 H 0.71769 -0.03881 1.14770
#END
