
#######################################################################
#
#                 Cambridge Crystallographic Data Centre
#                                CCDC
#
#######################################################################
#
# If this CIF has been generated from an entry in the Cambridge
# Structural Database, then it will include bibliographic, chemical,
# crystal, experimental, refinement or atomic coordinate data resulting
# from the CCDC's data processing and validation procedures.
#
#######################################################################

data_CSD_CIF_UMUKOE
_audit_creation_date 2016-05-05
_audit_creation_method CSD-ConQuest-V1
_database_code_CSD UMUKOE
_database_code_depnum_ccdc_archive 'CCDC 1448251'
_chemical_formula_sum 'C18 H15 N1 O4'
_chemical_formula_moiety
;
C18 H15 N1 O4
;
_journal_coden_Cambridge 1350
_journal_volume 18
_journal_year 2016
_journal_page_first 3667
_journal_name_full 'CrystEngComm '
loop_
_publ_author_name
"Xinyuan Zhang"
"Xingxing Jiang"
"Pengxiang Liu"
"Yin Li"
"Heng Tu"
"Zheshuai Lin"
"Degang Xu"
"Guochun Zhang"
"Yicheng Wu"
"Jianquan Yao"
_chemical_name_systematic
;
4-(3,4-dimethoxybenzylidene)-3-phenyl-1,2-oxazol-5(4H)-one
;
_cell_volume   1529.184
_exptl_crystal_colour 'yellow'
_exptl_crystal_density_diffrn 1.344
_exptl_crystal_description 'Prism'
_diffrn_ambient_temperature 153
#These two values have been output from a single CSD field.
_refine_ls_R_factor_gt 0.0578
_refine_ls_wR_factor_gt 0.0578
_symmetry_cell_setting monoclinic
_symmetry_space_group_name_H-M 'P 21/c'
_symmetry_Int_Tables_number 14
loop_
_symmetry_equiv_pos_site_id
_symmetry_equiv_pos_as_xyz
1 x,y,z
2 -x,1/2+y,1/2-z
3 -x,-y,-z
4 x,-1/2-y,-1/2+z
_cell_length_a 7.339(2)
_cell_length_b 19.964(6)
_cell_length_c 10.771(3)
_cell_angle_alpha 90
_cell_angle_beta 104.306(5)
_cell_angle_gamma 90
_cell_formula_units_Z 4
loop_
_atom_type_symbol
_atom_type_radius_bond
C 0.68
H 0.23
N 0.68
O 0.68
loop_
_atom_site_label
_atom_site_type_symbol
_atom_site_fract_x
_atom_site_fract_y
_atom_site_fract_z
O1 O 0.31181(15) 0.46936(5) 0.09646(9)
O2 O 0.24373(16) 0.55435(5) 0.21221(9)
O3 O 0.13589(14) 0.61455(5) 0.78501(9)
O4 O 0.10126(15) 0.65763(5) 0.55594(9)
N1 N 0.34674(18) 0.39839(6) 0.11027(11)
C1 C 0.28218(18) 0.46296(6) 0.64145(12)
H1 H 0.32150 0.41820 0.66310
C2 C 0.24216(19) 0.50444(6) 0.73489(12)
H2 H 0.25560 0.48830 0.81960
C3 C 0.18231(17) 0.56982(6) 0.70351(11)
C4 C 0.16523(18) 0.59347(6) 0.57685(12)
C5 C 0.20796(17) 0.55241(6) 0.48511(11)
H3 H 0.19850 0.56900 0.40110
C6 C 0.26594(17) 0.48559(6) 0.51615(11)
C7 C 0.30415(17) 0.43725(6) 0.42638(12)
H4 H 0.33710 0.39440 0.46360
C8 C 0.28037(19) 0.49543(6) 0.20781(12)
C9 C 0.30325(17) 0.43968(6) 0.29953(11)
C10 C 0.34146(18) 0.38261(6) 0.22607(12)
C11 C 0.37162(19) 0.31215(6) 0.26893(12)
C12 C 0.5231(2) 0.27596(7) 0.24688(14)
H5 H 0.60610 0.29620 0.20280
C13 C 0.5524(2) 0.21013(7) 0.28967(15)
H6 H 0.65550 0.18540 0.27460
C14 C 0.4316(2) 0.18037(7) 0.35427(13)
H7 H 0.45310 0.13560 0.38430
C15 C 0.2795(2) 0.21593(7) 0.37493(14)
H8 H 0.19640 0.19530 0.41850
C16 C 0.2481(2) 0.28160(7) 0.33208(13)
H9 H 0.14310 0.30570 0.34560
C17 C 0.1610(2) 0.59399(7) 0.91603(12)
H10 H 0.07820 0.55600 0.92000
H11 H 0.12990 0.63130 0.96620
H12 H 0.29220 0.58070 0.95130
C18 C 0.1018(3) 0.68671(8) 0.43563(16)
H13 H 0.23100 0.68860 0.42600
H14 H 0.05000 0.73210 0.43130
H15 H 0.02470 0.65940 0.36670
#END
