
#######################################################################
#
#                 Cambridge Crystallographic Data Centre
#                                CCDC
#
#######################################################################
#
# If this CIF has been generated from an entry in the Cambridge
# Structural Database, then it will include bibliographic, chemical,
# crystal, experimental, refinement or atomic coordinate data resulting
# from the CCDC's data processing and validation procedures.
#
#######################################################################

data_CSD_CIF_UMUMEW
_audit_creation_date 2016-05-31
_audit_creation_method CSD-ConQuest-V1
_database_code_CSD UMUMEW
_database_code_depnum_ccdc_archive 'CCDC 1440221'
_chemical_formula_sum 'C4 H2 N8 O8'
_chemical_formula_moiety
;
C4 H2 N8 O8
;
_journal_coden_Cambridge 1699
_journal_volume 4
_journal_year 2016
_journal_page_first 8969
_journal_name_full 'J.Mater.Chem.A '
loop_
_publ_author_name
"Chunlin He"
"Yongxing Tang"
"L.A.Mitchell"
"D.A.Parrish"
"J.M.Shreeve"
_chemical_name_systematic
;
N,N'-dinitro-3,3'-bi-1,2,5-oxadiazole-4,4'-diamine 2,2'-dioxide
;
_cell_volume    947.437
_exptl_crystal_colour 'colorless'
_exptl_crystal_density_diffrn 2.034
_exptl_crystal_description 'irregular'
_diffrn_ambient_temperature 100
#These two values have been output from a single CSD field.
_refine_ls_R_factor_gt 0.0307
_refine_ls_wR_factor_gt 0.0307
_symmetry_cell_setting monoclinic
_symmetry_space_group_name_H-M 'P 21/n'
_symmetry_Int_Tables_number 14
loop_
_symmetry_equiv_pos_site_id
_symmetry_equiv_pos_as_xyz
1 x,y,z
2 1/2-x,1/2+y,1/2-z
3 -x,-y,-z
4 -1/2+x,-1/2-y,-1/2+z
_cell_length_a 10.7252(7)
_cell_length_b 8.3018(6)
_cell_length_c 11.0809(7)
_cell_angle_alpha 90
_cell_angle_beta 106.203(3)
_cell_angle_gamma 90
_cell_formula_units_Z 4
loop_
_atom_type_symbol
_atom_type_radius_bond
C 0.68
H 0.23
N 0.68
O 0.68
loop_
_atom_site_label
_atom_site_type_symbol
_atom_site_fract_x
_atom_site_fract_y
_atom_site_fract_z
O1 O 0.95556(8) 0.24092(10) 0.61607(8)
O2 O 0.64607(9) 0.73438(10) 0.30060(8)
O3 O 1.00101(8) 0.50815(11) 0.63328(8)
O4 O 0.52396(9) 0.36847(11) 0.43277(8)
O5 O 0.44567(9) 0.13077(11) 0.36996(9)
O6 O 0.65055(9) 0.47291(11) 0.24264(8)
O7 O 0.76107(8) 0.58319(11) 0.71077(8)
O8 O 0.87245(9) 0.78269(12) 0.81682(8)
N1 N 0.92146(10) 0.40448(12) 0.58442(9)
N2 N 0.85305(10) 0.14625(13) 0.55134(10)
N3 N 0.68346(10) 0.57015(12) 0.32825(9)
N4 N 0.69332(10) 0.82150(13) 0.4095(1)
N5 N 0.65572(10) 0.17336(13) 0.40286(10)
H1 H 0.6567(15) 0.069(2) 0.3997(15)
N6 N 0.53324(10) 0.22914(13) 0.40392(9)
N7 N 0.82748(11) 0.78385(14) 0.61044(10)
H2 H 0.8378(17) 0.886(2) 0.6179(16)
N8 N 0.81835(10) 0.71140(13) 0.72042(10)
C1 C 0.76501(11) 0.24376(15) 0.48368(11)
C2 C 0.80432(11) 0.40812(15) 0.50194(11)
C3 C 0.75066(11) 0.56079(15) 0.44904(11)
C4 C 0.75642(11) 0.72107(15) 0.49556(11)
#END
