
#######################################################################
#
#                 Cambridge Crystallographic Data Centre
#                                CCDC
#
#######################################################################
#
# If this CIF has been generated from an entry in the Cambridge
# Structural Database, then it will include bibliographic, chemical,
# crystal, experimental, refinement or atomic coordinate data resulting
# from the CCDC's data processing and validation procedures.
#
#######################################################################

data_CSD_CIF_UNOBII
_audit_creation_date 2004-04-19
_audit_creation_method CSD-ConQuest-V1
_database_code_CSD UNOBII
_database_code_depnum_ccdc_archive 'CCDC 232130'
_chemical_formula_sum 'C18 H17 N1 O5'
_chemical_formula_moiety
;
C18 H17 N1 O5
;
_journal_coeditor_code "IUCr YA6180"
_journal_coden_Cambridge 1370
_journal_volume 60
_journal_year 2004
_journal_page_first o12
_journal_name_full 'Acta Crystallogr.,Sect.E:Struct.Rep.Online '
loop_
_publ_author_name
"J.Hartung"
"P.Schmidt"
"I.Svoboda"
"H.Fuess"
_chemical_name_systematic
;
trans-(4-Phenyltetrahydro-2-furyl)methyl p-nitrobenzoate
;
_chemical_melting_point 324
_cell_volume   1639.776
_exptl_crystal_colour 'colorless'
_exptl_crystal_density_diffrn 1.326
_exptl_crystal_description 'prism'
_exptl_crystal_preparation 'petroleum ether/diethyl ether'
_diffrn_ambient_temperature 299
#These two values have been output from a single CSD field.
_refine_ls_R_factor_gt 0.074
_refine_ls_wR_factor_gt 0.074
_symmetry_cell_setting monoclinic
_symmetry_space_group_name_H-M 'P 21/c'
_symmetry_Int_Tables_number 14
loop_
_symmetry_equiv_pos_site_id
_symmetry_equiv_pos_as_xyz
1 x,y,z
2 x,1/2-y,1/2+z
3 -x,-y,-z
4 -x,-1/2+y,-1/2-z
_cell_length_a 6.993(1)
_cell_length_b 14.490(2)
_cell_length_c 16.274(3)
_cell_angle_alpha 90
_cell_angle_beta 96.07(2)
_cell_angle_gamma 90
_cell_formula_units_Z 4
loop_
_atom_type_symbol
_atom_type_radius_bond
C 0.68
H 0.23
N 0.68
O 0.68
loop_
_atom_site_label
_atom_site_type_symbol
_atom_site_fract_x
_atom_site_fract_y
_atom_site_fract_z
C1 C 0.3889(7) 0.9062(3) 0.1955(2)
H1 H 0.28470 0.86100 0.18660
C2 C 0.4517(6) 0.9346(3) 0.1117(2)
H2 H 0.36340 0.91050 0.06690
H3 H 0.45650 1.00130 0.10690
C3 C 0.6441(5) 0.8944(2) 0.10999(14)
H4 H 0.73480 0.94340 0.12890
C4 C 0.6587(5) 0.8245(2) 0.17760(14)
H5 H 0.60330 0.76620 0.15800
H6 H 0.79180 0.81450 0.19910
C5 C 0.3276(7) 0.9802(3) 0.2425(2)
H7 H 0.21370 1.00820 0.21360
H8 H 0.42770 1.02670 0.24970
C6 C 0.7055(5) 0.8616(2) 0.02853(17)
C7 C 0.5931(6) 0.8076(3) -0.0278(2)
H9 H 0.47160 0.78900 -0.01620
C8 C 0.6595(8) 0.7813(3) -0.1010(2)
H10 H 0.58300 0.74470 -0.13810
C9 C 0.8340(8) 0.8082(3) -0.1190(2)
H11 H 0.87680 0.79140 -0.16910
C10 C 0.9446(6) 0.8585(3) -0.0658(3)
H12 H 1.06640 0.87570 -0.07820
C11 C 0.8826(6) 0.8862(3) 0.0083(2)
H13 H 0.96270 0.92200 0.04470
C12 C 0.2772(4) 1.0107(2) 0.3796(2)
C13 C 0.2448(3) 0.9712(2) 0.46180(18)
C14 C 0.2586(4) 1.0303(2) 0.5286(2)
H14 H 0.28850 1.09210 0.52150
C15 C 0.2284(4) 0.9984(2) 0.60607(19)
H15 H 0.23890 1.03780 0.65140
C16 C 0.1824(4) 0.9068(2) 0.61448(18)
C17 C 0.1672(4) 0.8466(2) 0.5492(2)
H16 H 0.13590 0.78500 0.55660
C18 C 0.1992(4) 0.8793(2) 0.4721(2)
H17 H 0.19020 0.83950 0.42700
N1 N 0.1497(4) 0.8720(2) 0.69681(19)
O1 O 0.5537(4) 0.86273(19) 0.23888(13)
O2 O 0.2848(4) 0.94652(18) 0.32287(14)
O3 O 0.2959(4) 1.09144(19) 0.36656(18)
O4 O 0.1158(5) 0.7907(2) 0.70411(19)
O5 O 0.1539(5) 0.9275(3) 0.75342(17)
#END
