
#######################################################################
#
#                 Cambridge Crystallographic Data Centre
#                                CCDC
#
#######################################################################
#
# If this CIF has been generated from an entry in the Cambridge
# Structural Database, then it will include bibliographic, chemical,
# crystal, experimental, refinement or atomic coordinate data resulting
# from the CCDC's data processing and validation procedures.
#
#######################################################################

data_CSD_CIF_UNOGAF
_audit_creation_date 2004-04-19
_audit_creation_method CSD-ConQuest-V1
_database_code_CSD UNOGAF
_database_code_depnum_ccdc_archive 'CCDC 232148'
_chemical_formula_sum 'C13 H15 N1 O6'
_chemical_formula_moiety
;
C13 H15 N1 O6
;
_journal_coeditor_code "IUCr LH6149"
_journal_coden_Cambridge 1370
_journal_volume 60
_journal_year 2004
_journal_page_first o60
_journal_name_full 'Acta Crystallogr.,Sect.E:Struct.Rep.Online '
loop_
_publ_author_name
"C.Glidewell"
"J.N.Low"
"J.M.S.Skakle"
"J.L.Wardell"
_chemical_name_systematic
;
Diethyl 2-(4-nitrophenyl)malonate
;
_chemical_melting_point 330
_cell_volume   1378.603
_exptl_crystal_colour 'colorless'
_exptl_crystal_density_diffrn 1.355
_exptl_special_details
;
Melting point range 330-332K

;
_exptl_crystal_description 'block'
_exptl_crystal_preparation 'ethanol'
_diffrn_ambient_temperature 120
#These two values have been output from a single CSD field.
_refine_ls_R_factor_gt 0.0479
_refine_ls_wR_factor_gt 0.0479
_symmetry_cell_setting monoclinic
_symmetry_space_group_name_H-M 'P 21/c'
_symmetry_Int_Tables_number 14
loop_
_symmetry_equiv_pos_site_id
_symmetry_equiv_pos_as_xyz
1 x,y,z
2 x,1/2-y,1/2+z
3 -x,-y,-z
4 -x,-1/2+y,-1/2-z
_cell_length_a 11.9275(6)
_cell_length_b 13.8407(8)
_cell_length_c 8.4595(3)
_cell_angle_alpha 90
_cell_angle_beta 99.192(3)
_cell_angle_gamma 90
_cell_formula_units_Z 4
loop_
_atom_type_symbol
_atom_type_radius_bond
C 0.68
H 0.23
N 0.68
O 0.68
loop_
_atom_site_label
_atom_site_type_symbol
_atom_site_fract_x
_atom_site_fract_y
_atom_site_fract_z
C1 C 0.26206(15) 0.70841(13) 0.0045(2)
C2 C 0.31247(15) 0.78599(13) 0.0895(2)
C3 C 0.42206(15) 0.77511(13) 0.1707(2)
C4 C 0.47936(14) 0.68809(12) 0.16643(19)
C5 C 0.42446(15) 0.61054(13) 0.0833(2)
C6 C 0.31552(15) 0.62012(13) 0.0003(2)
N1 N 0.14715(14) 0.71995(13) -0.0862(2)
O1 O 0.10571(12) 0.65304(12) -0.1696(2)
O2 O 0.09727(13) 0.79570(13) -0.0729(2)
C7 C 0.60129(14) 0.68116(12) 0.24883(19)
C8 C 0.62259(14) 0.59399(13) 0.3596(2)
C9 C 0.68408(14) 0.67088(12) 0.1294(2)
O3 O 0.63993(11) 0.62046(9) 0.51212(14)
O4 O 0.62378(12) 0.51227(9) 0.31328(15)
C10 C 0.66937(19) 0.54315(15) 0.6290(2)
C11 C 0.7935(2) 0.52559(17) 0.6564(3)
O5 O 0.78551(10) 0.70414(9) 0.19546(14)
O6 O 0.66166(10) 0.63559(9) -0.00140(13)
C12 C 0.87722(15) 0.69521(14) 0.0998(2)
C13 C 0.92740(18) 0.59653(16) 0.1161(3)
H1 H 0.27310 0.84550 0.09230
H2 H 0.45850 0.82780 0.22990
H3 H 0.46230 0.55010 0.08340
H4 H 0.27840 0.56740 -0.05820
H5 H 0.62070 0.74110 0.31330
H6 H 0.62910 0.48320 0.58940
H7 H 0.64470 0.56120 0.73130
H8 H 0.81770 0.50690 0.55530
H9 H 0.81160 0.47360 0.73490
H10 H 0.83330 0.58470 0.69710
H11 H 0.93690 0.74370 0.13610
H12 H 0.84700 0.70820 -0.01410
H13 H 0.95200 0.58190 0.22970
H14 H 0.99290 0.59360 0.05950
H15 H 0.87040 0.54920 0.06980
#END
