
#######################################################################
#
#                 Cambridge Crystallographic Data Centre
#                                CCDC
#
#######################################################################
#
# If this CIF has been generated from an entry in the Cambridge
# Structural Database, then it will include bibliographic, chemical,
# crystal, experimental, refinement or atomic coordinate data resulting
# from the CCDC's data processing and validation procedures.
#
#######################################################################

data_CSD_CIF_UNOKUD
_audit_creation_date 2004-04-19
_audit_creation_method CSD-ConQuest-V1
_database_code_CSD UNOKUD
_database_code_depnum_ccdc_archive 'CCDC 232167'
_chemical_formula_sum 'C18 H14 N2 O2'
_chemical_formula_moiety
;
C18 H14 N2 O2
;
_journal_coeditor_code "IUCr CI6316"
_journal_coden_Cambridge 1370
_journal_volume 60
_journal_year 2004
_journal_page_first o109
_journal_name_full 'Acta Crystallogr.,Sect.E:Struct.Rep.Online '
loop_
_publ_author_name
"T.Hokelek"
"O.Buyukgungor"
"M.Tas"
"H.Bati"
_chemical_name_systematic
;
N-Hydroxy-N'-(1-naphthyl)-2-phenylacetamidin-2-one
;
_cell_volume   1520.091
_exptl_crystal_colour 'yellow'
_exptl_crystal_density_diffrn 1.269
_exptl_crystal_description 'block'
_exptl_crystal_preparation 'ethyl alcohol'
_diffrn_ambient_temperature 293
#These two values have been output from a single CSD field.
_refine_ls_R_factor_gt 0.0397
_refine_ls_wR_factor_gt 0.0397
_symmetry_cell_setting monoclinic
_symmetry_space_group_name_H-M 'P 21/c'
_symmetry_Int_Tables_number 14
loop_
_symmetry_equiv_pos_site_id
_symmetry_equiv_pos_as_xyz
1 x,y,z
2 x,1/2-y,1/2+z
3 -x,-y,-z
4 -x,-1/2+y,-1/2-z
_cell_length_a 12.0073(11)
_cell_length_b 8.4530(9)
_cell_length_c 15.0167(15)
_cell_angle_alpha 90
_cell_angle_beta 94.188(8)
_cell_angle_gamma 90
_cell_formula_units_Z 4
loop_
_atom_type_symbol
_atom_type_radius_bond
C 0.68
H 0.23
N 0.68
O 0.68
loop_
_atom_site_label
_atom_site_type_symbol
_atom_site_fract_x
_atom_site_fract_y
_atom_site_fract_z
H1 H 0.1390(15) -0.0134(18) 0.2008(10)
H2 H 0.3116(14) 0.205(2) -0.1472(10)
H3 H 0.1133(15) 0.2693(18) -0.0679(11)
H4 H 0.3589(16) 0.311(2) -0.2801(13)
H5 H -0.0658(15) 0.3700(19) -0.0817(11)
H6 H -0.2365(18) 0.143(2) 0.1550(12)
H7 H 0.0113(17) -0.084(2) 0.3007(14)
H8 H 0.3969(16) 0.616(2) -0.0147(13)
H9 H -0.1926(15) 0.2905(18) 0.0198(10)
H10 H -0.1784(18) -0.013(2) 0.2764(13)
H11 H 0.2198(14) -0.007(2) 0.0737(11)
H12 H 0.4340(19) 0.573(2) -0.2852(15)
H13 H 0.4542(18) 0.728(3) -0.1510(14)
H14 H 0.459(2) -0.108(2) 0.0243(13)
N1 N 0.21264(11) 0.09477(16) 0.05841(9)
N2 N 0.39469(11) 0.08814(14) 0.01221(9)
O1 O 0.38655(11) -0.07456(13) 0.03553(8)
C1 C 0.10231(13) 0.15462(16) 0.04892(10)
C2 C 0.02810(13) 0.10920(15) 0.11385(10)
O2 O 0.28815(10) 0.42290(12) 0.07447(8)
C3 C 0.31098(12) 0.33849(17) 0.01292(10)
C4 C -0.08479(14) 0.15910(17) 0.10137(10)
C5 C 0.34937(13) 0.39999(17) -0.07136(10)
C6 C 0.30295(13) 0.16120(16) 0.02488(9)
C7 C 0.06046(16) 0.01784(19) 0.19002(11)
C8 C -0.11794(15) 0.25776(19) 0.02803(12)
C9 C 0.06596(14) 0.24696(18) -0.02170(11)
C10 C -0.16088(18) 0.1091(2) 0.16332(13)
C11 C 0.39009(14) 0.5545(2) -0.07290(13)
C12 C -0.1269(2) 0.0187(2) 0.23417(14)
C13 C 0.34136(15) 0.3115(2) -0.14907(11)
C14 C -0.04432(15) 0.3017(2) -0.03068(12)
C15 C -0.01551(18) -0.0273(2) 0.24841(14)
C16 C 0.37249(19) 0.3775(3) -0.22785(14)
C17 C 0.42236(18) 0.6171(3) -0.15090(16)
C18 C 0.41376(19) 0.5303(3) -0.22797(17)
#END
