
#######################################################################
#
#                 Cambridge Crystallographic Data Centre
#                                CCDC
#
#######################################################################
#
# If this CIF has been generated from an entry in the Cambridge
# Structural Database, then it will include bibliographic, chemical,
# crystal, experimental, refinement or atomic coordinate data resulting
# from the CCDC's data processing and validation procedures.
#
#######################################################################

data_CSD_CIF_UNOWEB
_audit_creation_date 2016-06-06
_audit_creation_method CSD-ConQuest-V1
_database_code_CSD UNOWEB
_database_code_depnum_ccdc_archive 'CCDC 1442402'
_chemical_formula_sum 'C19 H13 N3 O2'
_chemical_formula_moiety
;
C19 H13 N3 O2
;
_journal_coden_Cambridge 1291
_journal_year 2016
_journal_page_first 2398
_journal_name_full 'Eur.J.Org.Chem. '
loop_
_publ_author_name
"D.Basavaiah"
"Balthu Lingaiah"
"G.C.R.a.C.Sahu"
_chemical_name_systematic
;
1-(2-nitrophenyl)-5,6-dihydropyrrolo[2,1-a]isoquinoline-2-carbonitrile
;
_chemical_melting_point 371.15
_cell_volume   1594.216
_exptl_crystal_colour 'colorless'
_exptl_crystal_density_diffrn 1.314
_exptl_special_details
;
Melting point range 371.15-373.15K

;
_exptl_crystal_description 'block'
_diffrn_ambient_temperature 298
#These two values have been output from a single CSD field.
_refine_ls_R_factor_gt 0.0428
_refine_ls_wR_factor_gt 0.0428
_symmetry_cell_setting monoclinic
_symmetry_space_group_name_H-M 'P 21/c'
_symmetry_Int_Tables_number 14
loop_
_symmetry_equiv_pos_site_id
_symmetry_equiv_pos_as_xyz
1 x,y,z
2 -x,1/2+y,1/2-z
3 -x,-y,-z
4 x,-1/2-y,-1/2+z
_cell_length_a 10.3269(4)
_cell_length_b 15.4884(5)
_cell_length_c 9.9808(3)
_cell_angle_alpha 90
_cell_angle_beta 92.998(3)
_cell_angle_gamma 90
_cell_formula_units_Z 4
loop_
_atom_type_symbol
_atom_type_radius_bond
C 0.68
H 0.23
N 0.68
O 0.68
loop_
_atom_site_label
_atom_site_type_symbol
_atom_site_fract_x
_atom_site_fract_y
_atom_site_fract_z
N1 N -0.04343(13) -0.02337(8) 0.19831(13)
C1 C -0.07590(14) 0.09951(9) 0.34736(14)
C2 C 0.00992(14) 0.03841(9) 0.28435(14)
C3 C 0.14216(15) 0.02686(9) 0.29127(14)
C4 C -0.03931(16) 0.14369(10) 0.46497(16)
H1 H 0.04250 0.13470 0.50610
C5 C 0.05027(17) -0.07515(11) 0.15435(17)
N2 N 0.18974(15) 0.20688(9) 0.21903(15)
C6 C 0.16754(16) -0.04616(10) 0.20992(15)
C7 C 0.24054(14) 0.08027(10) 0.36402(14)
C8 C 0.26090(15) 0.16667(10) 0.33455(16)
O1 O 0.17477(18) 0.16663(9) 0.11562(13)
C9 C -0.28336(17) 0.16951(11) 0.34523(19)
H2 H -0.36580 0.17860 0.30580
C10 C -0.20059(15) 0.11172(10) 0.28771(15)
C11 C -0.12401(18) 0.20077(11) 0.52074(18)
H3 H -0.09890 0.23020 0.59900
C12 C 0.31418(16) 0.04569(13) 0.47154(17)
H4 H 0.30500 -0.01240 0.49280
C13 C -0.24460(18) 0.21410(11) 0.46129(19)
H5 H -0.30090 0.25310 0.49860
O2 O 0.15042(18) 0.28021(9) 0.23207(18)
C14 C -0.18293(16) -0.02874(11) 0.16704(18)
H6 H -0.22370 -0.06260 0.23490
H7 H -0.19940 -0.05680 0.08100
C15 C -0.23883(17) 0.06159(12) 0.16280(18)
H8 H -0.20850 0.09180 0.08530
H9 H -0.33260 0.05820 0.15290
C16 C 0.29296(18) -0.07952(12) 0.18797(17)
C17 C 0.40017(18) 0.09566(17) 0.5469(2)
H10 H 0.44860 0.07110 0.61820
C18 C 0.34560(17) 0.21850(13) 0.4097(2)
H11 H 0.35570 0.27650 0.38860
N3 N 0.39517(17) -0.10387(13) 0.17170(18)
C19 C 0.41527(17) 0.18160(17) 0.5178(2)
H12 H 0.47240 0.21520 0.57070
H13 H 0.0303(16) -0.1219(12) 0.0951(17)
#END
