
#######################################################################
#
#                 Cambridge Crystallographic Data Centre
#                                CCDC
#
#######################################################################
#
# If this CIF has been generated from an entry in the Cambridge
# Structural Database, then it will include bibliographic, chemical,
# crystal, experimental, refinement or atomic coordinate data resulting
# from the CCDC's data processing and validation procedures.
#
#######################################################################

data_CSD_CIF_UNOWOK
_audit_creation_date 2011-05-03
_audit_creation_method CSD-ConQuest-V1
_database_code_CSD UNOWOK
_database_code_depnum_ccdc_archive 'CCDC 820108'
_chemical_formula_sum 'C11 H14 N2 O3'
_chemical_formula_moiety
;
C11 H14 N2 O3
;
_journal_coeditor_code "IUCr VM2073"
_journal_coden_Cambridge 1370
_journal_volume 67
_journal_year 2011
_journal_page_first o754
_journal_name_full 'Acta Crystallogr.,Sect.E:Struct.Rep.Online '
loop_
_publ_author_name
"Ling-Ling Yang"
"Ren-Lin Zheng"
"Guo-Bo Li"
"Qi-Zheng Sun"
"Yong-Mei Xie"
_chemical_name_systematic
;
4-(4-Nitrobenzyl)morpholine
;
_cell_volume   1109.564
_exptl_crystal_colour 'yellow'
_exptl_crystal_density_diffrn 1.33
_exptl_crystal_description 'block'
_exptl_crystal_preparation 'dichloromethane'
_diffrn_ambient_temperature 293
#These two values have been output from a single CSD field.
_refine_ls_R_factor_gt 0.0437
_refine_ls_wR_factor_gt 0.0437
_symmetry_cell_setting monoclinic
_symmetry_space_group_name_H-M 'P 21/c'
_symmetry_Int_Tables_number 14
loop_
_symmetry_equiv_pos_site_id
_symmetry_equiv_pos_as_xyz
1 x,y,z
2 -x,1/2+y,1/2-z
3 -x,-y,-z
4 x,-1/2-y,-1/2+z
_cell_length_a 6.1371(2)
_cell_length_b 8.2535(4)
_cell_length_c 21.9867(9)
_cell_angle_alpha 90
_cell_angle_beta 94.929(3)
_cell_angle_gamma 90
_cell_formula_units_Z 4
loop_
_atom_type_symbol
_atom_type_radius_bond
C 0.68
H 0.23
N 0.68
O 0.68
loop_
_atom_site_label
_atom_site_type_symbol
_atom_site_fract_x
_atom_site_fract_y
_atom_site_fract_z
O1 O 0.40024(19) 0.31753(14) 0.53296(5)
O2 O -0.4376(2) -0.42771(17) 0.28701(7)
O3 O -0.1642(2) -0.57082(16) 0.32340(8)
N1 N 0.33645(19) 0.14840(16) 0.41946(6)
N2 N -0.2491(2) -0.44089(19) 0.30912(6)
C1 C -0.1173(2) -0.29260(19) 0.31894(7)
C2 C -0.2096(2) -0.1454(2) 0.30324(7)
H1 H -0.35210 -0.13920 0.28530
C3 C -0.0870(2) -0.0064(2) 0.31460(7)
H2 H -0.14840 0.09410 0.30440
C4 C 0.1268(2) -0.0148(2) 0.34109(7)
C5 C 0.2166(2) -0.1668(2) 0.35492(7)
H3 H 0.36050 -0.17430 0.37180
C6 C 0.0965(3) -0.3056(2) 0.34414(7)
H4 H 0.15760 -0.40660 0.35360
C7 C 0.2629(3) 0.1353(2) 0.35452(7)
H5 H 0.38930 0.13250 0.33090
H6 H 0.17710 0.23020 0.34210
C8 C 0.5018(2) 0.2751(2) 0.43006(8)
H7 H 0.44090 0.37850 0.41620
H8 H 0.62560 0.25130 0.40690
C9 C 0.5767(3) 0.2851(2) 0.49693(9)
H9 H 0.64510 0.18350 0.51000
H10 H 0.68530 0.37010 0.50330
C10 C 0.1559(2) 0.1839(2) 0.45620(8)
H11 H 0.04660 0.09910 0.45070
H12 H 0.08790 0.28550 0.44300
C11 C 0.2381(3) 0.1952(2) 0.52265(8)
H13 H 0.11650 0.21910 0.54660
H14 H 0.29920 0.09160 0.53610
#END
