
#######################################################################
#
#                 Cambridge Crystallographic Data Centre
#                                CCDC
#
#######################################################################
#
# If this CIF has been generated from an entry in the Cambridge
# Structural Database, then it will include bibliographic, chemical,
# crystal, experimental, refinement or atomic coordinate data resulting
# from the CCDC's data processing and validation procedures.
#
#######################################################################

data_CSD_CIF_UNUXOS
_audit_creation_date 2016-06-07
_audit_creation_method CSD-ConQuest-V1
_database_code_CSD UNUXOS
_database_code_depnum_ccdc_archive 'CCDC 1451196'
_chemical_formula_sum 'C9 H7 N5 O3'
_chemical_formula_moiety
;
C9 H7 N5 O3
;
_journal_coden_Cambridge 1350
_journal_volume 18
_journal_year 2016
_journal_page_first 7284
_journal_name_full 'CrystEngComm '
loop_
_publ_author_name
"D.A.Safin"
"K.Robeyns"
"Yann Garcia"
_chemical_name_systematic
;
4-nitro-2-((4H-1,2,4-triazol-4-ylimino)methyl)phenol
;
_cell_volume   1006.513
_exptl_crystal_colour 'yellow'
_exptl_crystal_density_diffrn 1.539
_exptl_crystal_description 'needle'
_diffrn_ambient_temperature 150
#These two values have been output from a single CSD field.
_refine_ls_R_factor_gt 0.0696
_refine_ls_wR_factor_gt 0.0696
_symmetry_cell_setting monoclinic
_symmetry_space_group_name_H-M 'P 21/n'
_symmetry_Int_Tables_number 14
loop_
_symmetry_equiv_pos_site_id
_symmetry_equiv_pos_as_xyz
1 x,y,z
2 1/2-x,1/2+y,1/2-z
3 -x,-y,-z
4 -1/2+x,-1/2-y,-1/2+z
_cell_length_a 5.3288(4)
_cell_length_b 18.3034(13)
_cell_length_c 10.3561(8)
_cell_angle_alpha 90
_cell_angle_beta 94.819(7)
_cell_angle_gamma 90
_cell_formula_units_Z 4
loop_
_atom_type_symbol
_atom_type_radius_bond
C 0.68
H 0.23
N 0.68
O 0.68
loop_
_atom_site_label
_atom_site_type_symbol
_atom_site_fract_x
_atom_site_fract_y
_atom_site_fract_z
N1 N -0.1594(6) 0.78982(16) -0.0077(3)
N2 N 0.0019(6) 0.83773(16) 0.0621(3)
C1 C 0.1841(7) 0.79865(17) 0.1158(4)
H1 H 0.32220 0.81740 0.16980
N3 N 0.1503(5) 0.72692(14) 0.0842(3)
C2 C -0.0646(7) 0.72467(18) 0.0082(4)
H2 H -0.13810 0.68150 -0.02910
N4 N 0.2873(5) 0.66354(14) 0.1172(3)
C3 C 0.4885(6) 0.67101(18) 0.1912(3)
H3 H 0.53790 0.71820 0.22170
C4 C 0.6437(7) 0.60810(17) 0.2297(3)
C5 C 0.8649(6) 0.61914(17) 0.3117(3)
C6 C 1.0186(7) 0.55972(18) 0.3498(3)
H4 H 1.16780 0.56720 0.40510
C7 C 0.9538(7) 0.49035(18) 0.3072(3)
H5 H 1.05910 0.44990 0.33150
C8 C 0.7329(7) 0.48031(17) 0.2284(3)
C9 C 0.5780(6) 0.53772(18) 0.1893(3)
H6 H 0.42770 0.52930 0.13530
O1 O 0.9195(5) 0.68772(12) 0.3482(2)
H7 H 1.05660 0.68840 0.39460
N5 N 0.6613(6) 0.40710(15) 0.1851(3)
O2 O 0.4474(5) 0.39777(13) 0.1328(3)
O3 O 0.8169(5) 0.35752(12) 0.2036(3)
#END
