
#######################################################################
#
#                 Cambridge Crystallographic Data Centre
#                                CCDC
#
#######################################################################
#
# If this CIF has been generated from an entry in the Cambridge
# Structural Database, then it will include bibliographic, chemical,
# crystal, experimental, refinement or atomic coordinate data resulting
# from the CCDC's data processing and validation procedures.
#
#######################################################################

data_CSD_CIF_UPAJOL
_audit_creation_date 2011-05-17
_audit_creation_method CSD-ConQuest-V1
_database_code_CSD UPAJOL
_database_code_depnum_ccdc_archive 'CCDC 820264'
_chemical_formula_sum 'C20 H30 N2 O2'
_chemical_formula_moiety
;
C20 H30 N2 O2
;
_journal_coeditor_code "IUCr ZS2100"
_journal_coden_Cambridge 1370
_journal_volume 67
_journal_year 2011
_journal_page_first o958
_journal_name_full 'Acta Crystallogr.,Sect.E:Struct.Rep.Online '
loop_
_publ_author_name
"F.Sen"
"M.Dincer"
"A.Cukurovali"
"I.Yilmaz"
_chemical_name_systematic
;
N-Hydroxy-1-(3-mesityl-3-methylcyclobutyl)-2-(morpholin-4-yl)ethanimine
;
_chemical_name_common
;
(Z)-1-(3-Mesityl-3-methylcyclobutyl)-2-(morpholin-4-yl)ethanone oxime
;
_chemical_melting_point 428
_cell_volume   1940.694
_exptl_crystal_colour 'colorless'
_exptl_crystal_density_diffrn 1.131
_exptl_crystal_description 'prism'
_exptl_crystal_preparation 'ethanol'
_diffrn_ambient_temperature 296
#These two values have been output from a single CSD field.
_refine_ls_R_factor_gt 0.0517
_refine_ls_wR_factor_gt 0.0517
_symmetry_cell_setting monoclinic
_symmetry_space_group_name_H-M 'P 21/c'
_symmetry_Int_Tables_number 14
loop_
_symmetry_equiv_pos_site_id
_symmetry_equiv_pos_as_xyz
1 x,y,z
2 -x,1/2+y,1/2-z
3 -x,-y,-z
4 x,-1/2-y,-1/2+z
_cell_length_a 13.0273(4)
_cell_length_b 10.2337(2)
_cell_length_c 18.1262(6)
_cell_angle_alpha 90
_cell_angle_beta 126.574(2)
_cell_angle_gamma 90
_cell_formula_units_Z 4
loop_
_atom_type_symbol
_atom_type_radius_bond
C 0.68
H 0.23
N 0.68
O 0.68
loop_
_atom_site_label
_atom_site_type_symbol
_atom_site_fract_x
_atom_site_fract_y
_atom_site_fract_z
C1 C 0.36380(14) -0.05777(14) 0.7419(1)
C2 C 0.46281(15) -0.05329(16) 0.83667(11)
C3 C 0.46390(18) -0.1424(2) 0.89474(12)
H1 H 0.52870 -0.13660 0.95750
C4 C 0.3733(2) -0.2391(2) 0.86371(15)
C5 C 0.28345(19) -0.24910(18) 0.77046(15)
H2 H 0.22420 -0.31670 0.74760
C6 C 0.27696(16) -0.16278(16) 0.70854(12)
C7 C 0.1786(2) -0.1905(2) 0.60720(14)
H3 H 0.12950 -0.26600 0.59970
H4 H 0.22120 -0.20660 0.57940
H5 H 0.12290 -0.11660 0.57820
C8 C 0.57461(17) 0.0403(2) 0.87941(14)
H6 H 0.56320 0.09680 0.83280
H7 H 0.65240 -0.00840 0.90710
H8 H 0.57900 0.09180 0.92550
C9 C 0.3761(3) -0.3317(3) 0.9297(2)
H9 H 0.44500 -0.30830 0.99160
H10 H 0.38850 -0.41940 0.91750
H11 H 0.29660 -0.32650 0.92190
C10 C 0.4242(2) 0.0076(2) 0.63806(16)
H12 H 0.41540 0.07530 0.59790
H13 H 0.38940 -0.07240 0.60420
H14 H 0.51310 -0.00450 0.68740
C11 C 0.35215(14) 0.04679(15) 0.67740(11)
C12 C 0.38414(15) 0.18873(15) 0.71533(12)
H15 H 0.38570 0.20030 0.76910
H16 H 0.46170 0.22270 0.72630
C13 C 0.26170(15) 0.24003(16) 0.62660(12)
H17 H 0.28040 0.27440 0.58530
C14 C 0.21439(16) 0.09740(16) 0.60114(11)
H18 H 0.18400 0.07340 0.53940
H19 H 0.15200 0.07460 0.61190
C15 C 0.18063(15) 0.33490(15) 0.63429(12)
C16 C 0.18719(17) 0.34202(17) 0.71954(13)
H20 H 0.27310 0.36580 0.77130
H21 H 0.12910 0.40900 0.71230
C17 C 0.01643(17) 0.1917(2) 0.67605(14)
H22 H -0.01360 0.19870 0.61270
H23 H -0.02880 0.25560 0.68630
C18 C -0.0090(2) 0.0568(3) 0.69414(19)
H24 H -0.10000 0.03940 0.65320
H25 H 0.03380 -0.00660 0.68130
C19 C 0.1671(3) 0.0674(3) 0.84584(18)
H26 H 0.21190 0.00420 0.83460
H27 H 0.19680 0.05740 0.90890
C20 C 0.1967(2) 0.2022(2) 0.83206(14)
H28 H 0.15440 0.26580 0.84510
H29 H 0.28810 0.21750 0.87380
N1 N 0.09976(13) 0.41245(15) 0.57100(11)
N2 N 0.15302(12) 0.21666(14) 0.73755(9)
O1 O 0.09479(13) 0.40408(15) 0.49164(10)
H30 H 0.04150 0.45580 0.45310
O2 O 0.03433(18) 0.0426(2) 0.78590(14)
#END
