
#######################################################################
#
#                 Cambridge Crystallographic Data Centre
#                                CCDC
#
#######################################################################
#
# If this CIF has been generated from an entry in the Cambridge
# Structural Database, then it will include bibliographic, chemical,
# crystal, experimental, refinement or atomic coordinate data resulting
# from the CCDC's data processing and validation procedures.
#
#######################################################################

data_CSD_CIF_UPIQOA
_audit_creation_date 2011-06-16
_audit_creation_method CSD-ConQuest-V1
_database_code_CSD UPIQOA
_database_code_depnum_ccdc_archive 'CCDC 773862'
_chemical_formula_sum 'C17 H19 N1 O5'
_chemical_formula_moiety
;
C17 H19 N1 O5
;
_journal_coden_Cambridge 1336
_journal_volume 12
_journal_year 2010
_journal_page_first 4144
_journal_name_full 'Org.Lett. '
loop_
_publ_author_name
"F.Miege"
"C.Meyer"
"J.Cossy"
_chemical_name_systematic
;
(1S*,4R*,6R*)-5-isopropylidene-3-oxabicyclo[4.1.0]heptan-4-ylmethyl 
4-nitrobenzoate
;
_cell_volume   3105.962
_exptl_crystal_colour 'colorless'
_exptl_crystal_density_diffrn 1.357
_exptl_crystal_description 'bar'
_diffrn_ambient_temperature 200
#These two values have been output from a single CSD field.
_refine_ls_R_factor_gt 0.0731
_refine_ls_wR_factor_gt 0.0731
_symmetry_cell_setting orthorhombic
_symmetry_space_group_name_H-M 'P c a b'
_symmetry_Int_Tables_number 61
loop_
_symmetry_equiv_pos_site_id
_symmetry_equiv_pos_as_xyz
1 x,y,z
2 -x,1/2-y,1/2+z
3 1/2+x,-y,1/2-z
4 1/2-x,1/2+y,-z
5 -x,-y,-z
6 x,-1/2+y,-1/2-z
7 -1/2-x,y,-1/2+z
8 -1/2+x,-1/2-y,z
_cell_length_a 8.2353(5)
_cell_length_b 13.2297(16)
_cell_length_c 28.508(3)
_cell_angle_alpha 90
_cell_angle_beta 90
_cell_angle_gamma 90
_cell_formula_units_Z 8
loop_
_atom_type_symbol
_atom_type_radius_bond
C 0.68
H 0.23
N 0.68
O 0.68
loop_
_atom_site_label
_atom_site_type_symbol
_atom_site_fract_x
_atom_site_fract_y
_atom_site_fract_z
O1 O 0.1996(3) 0.47293(16) -0.02436(8)
O2 O 0.2867(3) 0.58297(14) 0.02398(7)
O3 O 0.6324(2) 0.20821(13) 0.15779(7)
O4 O 0.5333(2) 0.09783(12) 0.10571(6)
O5 O 0.33262(18) 0.01743(12) 0.18091(6)
N1 N 0.2742(3) 0.49682(16) 0.01085(7)
C1 C 0.3537(3) 0.41679(17) 0.03786(7)
C2 C 0.3266(3) 0.31824(17) 0.02594(8)
H1 H 0.26240 0.30200 0.00020
C3 C 0.4498(3) 0.44438(17) 0.07521(8)
H2 H 0.46760 0.51220 0.08210
C4 C 0.3960(3) 0.24350(18) 0.05277(8)
H3 H 0.37960 0.17590 0.04510
C5 C 0.5190(3) 0.36962(17) 0.10210(8)
H4 H 0.58470 0.38640 0.12750
C6 C 0.4904(3) 0.26903(17) 0.09116(8)
C7 C 0.5602(3) 0.18968(18) 0.12238(9)
C8 C 0.5792(3) 0.01140(17) 0.13323(9)
H5 H 0.64250 0.03290 0.16010
H6 H 0.64540 -0.03390 0.11450
C9 C 0.4276(3) -0.04306(16) 0.14958(7)
H7 H 0.36080 -0.05610 0.12180
C10 C 0.4688(2) -0.14361(17) 0.17081(8)
C11 C 0.4136(3) 0.0418(2) 0.22376(9)
H8 H 0.33910 0.07810 0.24400
H9 H 0.50420 0.08630 0.21700
C12 C 0.5056(3) -0.14218(18) 0.22149(8)
H10 H 0.60110 -0.18120 0.23110
C13 C 0.4745(3) -0.0482(2) 0.24888(8)
H11 H 0.55280 -0.03430 0.27400
C14 C 0.3708(3) -0.1379(2) 0.25632(9)
H12 H 0.26050 -0.13560 0.24440
H13 H 0.38410 -0.17520 0.28540
C15 C 0.4710(3) -0.22836(18) 0.14464(8)
C16 C 0.4393(4) -0.2297(2) 0.09282(8)
H14 H 0.43030 -0.16160 0.08150
H15 H 0.33990 -0.26530 0.08670
H16 H 0.52730 -0.26310 0.07710
C17 C 0.4998(3) -0.3297(2) 0.16556(9)
H17 H 0.51780 -0.32280 0.19870
H18 H 0.59350 -0.36000 0.15130
H19 H 0.40670 -0.37190 0.16030
#END
