
#######################################################################
#
#                 Cambridge Crystallographic Data Centre
#                                CCDC
#
#######################################################################
#
# If this CIF has been generated from an entry in the Cambridge
# Structural Database, then it will include bibliographic, chemical,
# crystal, experimental, refinement or atomic coordinate data resulting
# from the CCDC's data processing and validation procedures.
#
#######################################################################

data_CSD_CIF_UPIYEY
_audit_creation_date 2011-06-16
_audit_creation_method CSD-ConQuest-V1
_database_code_CSD UPIYEY
_database_code_depnum_ccdc_archive 'CCDC 787202'
_chemical_formula_sum 'C17 H13 N1 O6'
_chemical_formula_moiety
;
C17 H13 N1 O6
;
_journal_coden_Cambridge 1003
_journal_volume 41
_journal_year 2011
_journal_page_first 649
_journal_name_full 'J.Chem.Cryst. '
loop_
_publ_author_name
"Zhu-Ping Xiao"
"Zhi-Yun Peng"
"Zhu-Xiang Liu"
"Li-Hua Chen"
"Hai-Liang Zhu"
_chemical_name_systematic
;
3-Hydroxy-4-(4-methoxyphenyl)-5-(2-nitrophenyl)furan-2(5H)-one
;
_cell_volume   2941.353
_exptl_crystal_colour 'colorless'
_exptl_crystal_density_diffrn 1.478
_exptl_crystal_description 'block'
_diffrn_ambient_temperature 298
#These two values have been output from a single CSD field.
_refine_ls_R_factor_gt 0.0675
_refine_ls_wR_factor_gt 0.0675
_symmetry_cell_setting monoclinic
_symmetry_space_group_name_H-M 'C 2/c'
_symmetry_Int_Tables_number 15
loop_
_symmetry_equiv_pos_site_id
_symmetry_equiv_pos_as_xyz
1 x,y,z
2 -x,y,1/2-z
3 1/2+x,1/2+y,z
4 1/2-x,1/2+y,1/2-z
5 -x,-y,-z
6 x,-y,-1/2+z
7 -1/2-x,-1/2-y,-z
8 -1/2+x,-1/2-y,-1/2+z
_cell_length_a 27.981(6)
_cell_length_b 12.996(3)
_cell_length_c 8.0900(16)
_cell_angle_alpha 90
_cell_angle_beta 91.06(3)
_cell_angle_gamma 90
_cell_formula_units_Z 8
loop_
_atom_type_symbol
_atom_type_radius_bond
C 0.68
H 0.23
N 0.68
O 0.68
loop_
_atom_site_label
_atom_site_type_symbol
_atom_site_fract_x
_atom_site_fract_y
_atom_site_fract_z
C1 C 0.92366(19) 0.6932(4) 0.1977(7)
H1 H 0.91280 0.76220 0.21680
H2 H 0.92890 0.68360 0.08180
H3 H 0.95300 0.68170 0.25820
C2 C 0.89694(14) 0.5194(3) 0.2370(5)
C3 C 0.86326(15) 0.4555(3) 0.3039(5)
H4 H 0.83730 0.48380 0.35810
C4 C 0.86743(14) 0.3505(3) 0.2915(5)
H5 H 0.84410 0.30900 0.33780
C5 C 0.90569(13) 0.3042(3) 0.2115(5)
C6 C 0.94058(14) 0.3717(3) 0.1515(6)
H6 H 0.96790 0.34430 0.10430
C7 C 0.93575(15) 0.4763(3) 0.1601(5)
H7 H 0.95870 0.51860 0.11390
C8 C 0.90993(12) 0.1934(3) 0.1991(4)
C9 C 0.87465(13) 0.1195(3) 0.2761(4)
H8 H 0.87410 0.12920 0.39620
C10 C 0.93250(15) 0.0274(3) 0.1464(6)
C11 C 0.94215(13) 0.1348(3) 0.1232(5)
C12 C 0.82543(13) 0.1251(3) 0.2048(5)
C13 C 0.78078(14) 0.1339(3) 0.2887(5)
C14 C 0.73843(15) 0.1339(3) 0.2144(6)
H9 H 0.71110 0.13900 0.27780
C15 C 0.73354(16) 0.1264(3) 0.0417(5)
H10 H 0.70370 0.12820 -0.01090
C16 C 0.77578(19) 0.1159(3) -0.0478(6)
H11 H 0.77420 0.10830 -0.16210
C17 C 0.81915(16) 0.1169(3) 0.0323(5)
H12 H 0.84640 0.11180 -0.03150
N1 N 0.78123(13) 0.1439(3) 0.4734(4)
O1 O 0.88819(11) 0.6216(2) 0.2518(4)
O2 O 0.98134(10) 0.1681(2) 0.0411(4)
H13 H 0.99620 0.11840 0.00670
O3 O 0.95401(11) -0.0483(2) 0.1004(4)
O4 O 0.89231(9) 0.0175(2) 0.2363(4)
O5 O 0.74294(11) 0.1265(3) 0.5390(4)
O6 O 0.81632(12) 0.1703(3) 0.5467(4)
#END
