
#######################################################################
#
#                 Cambridge Crystallographic Data Centre
#                                CCDC
#
#######################################################################
#
# If this CIF has been generated from an entry in the Cambridge
# Structural Database, then it will include bibliographic, chemical,
# crystal, experimental, refinement or atomic coordinate data resulting
# from the CCDC's data processing and validation procedures.
#
#######################################################################

data_CSD_CIF_UPOJIU
_audit_creation_date 2016-06-08
_audit_creation_method CSD-ConQuest-V1
_database_code_CSD UPOJIU
_database_code_depnum_ccdc_archive 'CCDC 977771'
_chemical_formula_sum 'C35 H30 N2 O8'
_chemical_formula_moiety
;
C35 H30 N2 O8
;
_journal_coden_Cambridge 1291
_journal_year 2016
_journal_page_first 2671
_journal_name_full 'Eur.J.Org.Chem. '
loop_
_publ_author_name
"Lin Qiu"
"Dongwei Wang"
"Yubing Lei"
"Lixin Gao"
"Shunying Liu"
"Jia Li"
"Wenhao Hu"
_chemical_name_systematic
;
Methyl 
3-(2-(1'-benzyl-4-nitro-2'-oxo-3-phenyl-1',2',4,5-tetrahydro-3H-spiro[furan-2,
3'-indol]-5-yl)-6-methoxyphenoxy)acrylate
;
_cell_volume   3004.864
_exptl_crystal_colour 'colorless'
_exptl_crystal_density_diffrn 1.341
_exptl_crystal_description 'block'
_diffrn_ambient_temperature 173
#These two values have been output from a single CSD field.
_refine_ls_R_factor_gt 0.0475
_refine_ls_wR_factor_gt 0.0475
_symmetry_cell_setting monoclinic
_symmetry_space_group_name_H-M 'P 21/c'
_symmetry_Int_Tables_number 14
loop_
_symmetry_equiv_pos_site_id
_symmetry_equiv_pos_as_xyz
1 x,y,z
2 -x,1/2+y,1/2-z
3 -x,-y,-z
4 x,-1/2-y,-1/2+z
_cell_length_a 10.9864(6)
_cell_length_b 12.6254(7)
_cell_length_c 21.7926(12)
_cell_angle_alpha 90
_cell_angle_beta 96.245(2)
_cell_angle_gamma 90
_cell_formula_units_Z 4
loop_
_atom_type_symbol
_atom_type_radius_bond
C 0.68
H 0.23
N 0.68
O 0.68
loop_
_atom_site_label
_atom_site_type_symbol
_atom_site_fract_x
_atom_site_fract_y
_atom_site_fract_z
O1 O 0.20366(19) 0.27771(15) 0.28364(9)
O2 O 0.31884(17) 0.18474(15) 0.22402(8)
O3 O 0.51447(17) 0.40689(15) 0.08973(8)
O4 O 0.0901(2) 0.46142(15) -0.14365(9)
O5 O 0.09915(19) 0.53055(15) -0.05269(10)
O6 O -0.16263(16) 0.22818(14) -0.00322(8)
O7 O 0.10119(14) 0.19370(13) -0.02469(7)
O8 O 0.27297(16) 0.39836(13) 0.08640(7)
N1 N 0.0751(2) 0.45763(16) -0.08908(12)
N2 N -0.16356(18) 0.06175(15) -0.04714(9)
C1 C -0.3996(2) 0.0771(2) -0.12084(13)
H1 H -0.34270 0.13270 -0.12480
C2 C -0.5014(3) 0.0679(2) -0.16377(15)
H2 H -0.51400 0.11730 -0.19680
C3 C -0.5838(3) -0.0117(2) -0.15896(15)
H3 H -0.65410 -0.01750 -0.18830
C4 C -0.5649(3) -0.0834(3) -0.11152(15)
H4 H -0.62180 -0.13920 -0.10830
C5 C -0.4628(3) -0.0747(2) -0.06807(13)
H5 H -0.45030 -0.12470 -0.03540
C6 C -0.3792(2) 0.00683(19) -0.07221(12)
C7 C -0.2720(2) 0.0192(2) -0.02318(12)
H6 H -0.29580 0.06690 0.00950
H7 H -0.25190 -0.05070 -0.00420
C8 C -0.0904(2) 0.00662(18) -0.08569(11)
C9 C -0.1061(2) -0.09449(19) -0.10887(12)
H8 H -0.17360 -0.13680 -0.10010
C10 C -0.0201(3) -0.1324(2) -0.14535(13)
H9 H -0.02840 -0.20220 -0.16160
C11 C 0.0775(2) -0.0708(2) -0.15863(13)
H10 H 0.13520 -0.09850 -0.18380
C12 C 0.0917(2) 0.0315(2) -0.13536(12)
H11 H 0.15890 0.07410 -0.14430
C13 C 0.0064(2) 0.06966(18) -0.09910(11)
C14 C -0.0036(2) 0.17507(18) -0.06868(11)
C15 C -0.1195(2) 0.16139(19) -0.03476(11)
C16 C -0.2231(2) 0.3527(2) -0.13798(13)
H12 H -0.21270 0.39450 -0.10150
C17 C -0.3313(3) 0.3594(2) -0.17637(16)
H13 H -0.39410 0.40620 -0.16650
C18 C -0.3481(3) 0.2985(3) -0.22866(17)
H14 H -0.42340 0.30200 -0.25450
C19 C -0.2564(3) 0.2324(3) -0.24383(14)
H15 H -0.26820 0.19050 -0.28020
C20 C -0.1460(3) 0.2269(2) -0.20566(12)
H16 H -0.08190 0.18260 -0.21670
C21 C -0.1293(2) 0.28623(19) -0.15156(11)
C22 C -0.0102(2) 0.27351(18) -0.11051(11)
H17 H 0.05720 0.26810 -0.13770
C23 C 0.0250(2) 0.35875(18) -0.06280(11)
H18 H -0.04950 0.37820 -0.04270
C24 C 0.1183(2) 0.30592(19) -0.01382(11)
H19 H 0.09650 0.32360 0.02830
C25 C 0.2533(2) 0.32625(19) -0.01632(11)
C26 C 0.3270(2) 0.36493(19) 0.03406(11)
C27 C 0.4544(2) 0.3722(2) 0.03551(12)
C28 C 0.5081(3) 0.3416(2) -0.01597(12)
H20 H 0.59440 0.34630 -0.01630
C29 C 0.4354(2) 0.3039(2) -0.06716(12)
H21 H 0.47250 0.28370 -0.10280
C30 C 0.3104(2) 0.2953(2) -0.06741(12)
H22 H 0.26260 0.26790 -0.10280
C31 C 0.2915(2) 0.3310(2) 0.13548(11)
H23 H 0.34060 0.26980 0.13220
C32 C 0.2433(2) 0.3484(2) 0.18731(12)
H24 H 0.20180 0.41330 0.19250
C33 C 0.2523(3) 0.2703(2) 0.23707(13)
C34 C 0.3151(3) 0.0957(2) 0.26540(13)
H25 H 0.36590 0.03820 0.25190
H26 H 0.23040 0.07110 0.26500
H27 H 0.34650 0.11750 0.30730
C35 C 0.6454(3) 0.4143(2) 0.09162(13)
H28 H 0.67960 0.44070 0.13210
H29 H 0.66640 0.46310 0.05940
H30 H 0.67930 0.34410 0.08460
#END
