
#######################################################################
#
#                 Cambridge Crystallographic Data Centre
#                                CCDC
#
#######################################################################
#
# If this CIF has been generated from an entry in the Cambridge
# Structural Database, then it will include bibliographic, chemical,
# crystal, experimental, refinement or atomic coordinate data resulting
# from the CCDC's data processing and validation procedures.
#
#######################################################################

data_CSD_CIF_UPOJOA
_audit_creation_date 2016-06-08
_audit_creation_method CSD-ConQuest-V1
_database_code_CSD UPOJOA
_database_code_depnum_ccdc_archive 'CCDC 977772'
_chemical_formula_sum 'C35 H30 N2 O8'
_chemical_formula_moiety
;
C35 H30 N2 O8
;
_journal_coden_Cambridge 1291
_journal_year 2016
_journal_page_first 2671
_journal_name_full 'Eur.J.Org.Chem. '
loop_
_publ_author_name
"Lin Qiu"
"Dongwei Wang"
"Yubing Lei"
"Lixin Gao"
"Shunying Liu"
"Jia Li"
"Wenhao Hu"
_chemical_name_systematic
;
Methyl 
3-(2-(1'-benzyl-3-nitro-2'-oxo-4-phenyl-1',2',4,5-tetrahydro-3H-spiro[furan-2,
3'-indol]-5-yl)-6-methoxyphenoxy)acrylate
;
_cell_volume   2965.351
_exptl_crystal_colour 'colorless'
_exptl_crystal_density_diffrn 1.359
_exptl_crystal_description 'block'
_diffrn_ambient_temperature 296
#These two values have been output from a single CSD field.
_refine_ls_R_factor_gt 0.0435
_refine_ls_wR_factor_gt 0.0435
_symmetry_cell_setting monoclinic
_symmetry_space_group_name_H-M 'P 21/c'
_symmetry_Int_Tables_number 14
loop_
_symmetry_equiv_pos_site_id
_symmetry_equiv_pos_as_xyz
1 x,y,z
2 -x,1/2+y,1/2-z
3 -x,-y,-z
4 x,-1/2-y,-1/2+z
_cell_length_a 9.4057(3)
_cell_length_b 21.7495(8)
_cell_length_c 15.2284(5)
_cell_angle_alpha 90
_cell_angle_beta 107.847(1)
_cell_angle_gamma 90
_cell_formula_units_Z 4
loop_
_atom_type_symbol
_atom_type_radius_bond
C 0.68
H 0.23
N 0.68
O 0.68
loop_
_atom_site_label
_atom_site_type_symbol
_atom_site_fract_x
_atom_site_fract_y
_atom_site_fract_z
O1 O 0.4044(2) 0.42470(9) 0.48650(13)
O2 O 0.5701(2) 0.43543(8) 0.40913(13)
O3 O -0.0382(2) 0.53864(8) 0.37223(11)
O4 O 0.09817(18) 0.49945(7) 0.24781(10)
O5 O -0.2278(2) 0.24793(9) -0.02157(14)
O6 O 0.0082(2) 0.25560(8) 0.04762(12)
O7 O -0.14365(18) 0.44302(7) -0.01264(10)
O8 O -0.4424(2) 0.38578(9) -0.08868(12)
N1 N -0.1164(3) 0.27691(9) 0.02063(14)
N2 N -0.3287(2) 0.35597(9) -0.19582(13)
C1 C -0.4456(3) 0.23150(13) -0.25497(18)
H1 H -0.40630 0.23680 -0.19150
C2 C -0.4664(3) 0.17286(13) -0.2912(2)
H2 H -0.44130 0.13900 -0.25220
C3 C -0.5243(3) 0.16457(14) -0.3847(2)
H3 H -0.53860 0.12510 -0.40940
C4 C -0.5607(3) 0.21453(15) -0.4413(2)
H4 H -0.59990 0.20900 -0.50470
C5 C -0.5400(3) 0.27303(14) -0.40533(18)
H5 H -0.56520 0.30670 -0.44470
C6 C -0.4822(3) 0.28232(12) -0.31151(17)
C7 C -0.4621(3) 0.34698(12) -0.27414(16)
H6 H -0.45810 0.37470 -0.32320
H7 H -0.54880 0.35800 -0.25580
C8 C -0.3320(3) 0.37588(11) -0.11178(17)
C9 C -0.1694(3) 0.38239(10) -0.04963(14)
C10 C -0.0809(3) 0.36631(10) -0.11346(15)
C11 C -0.1809(3) 0.34994(10) -0.19864(16)
C12 C -0.1336(4) 0.33212(12) -0.27141(17)
H8 H -0.20140 0.32050 -0.32740
C13 C 0.0186(4) 0.33200(12) -0.25858(19)
H9 H 0.05350 0.31970 -0.30670
C14 C 0.1195(3) 0.34975(12) -0.17603(19)
H10 H 0.22120 0.34990 -0.16920
C15 C 0.0692(3) 0.36739(11) -0.10284(16)
H11 H 0.13680 0.37980 -0.04720
C16 C -0.1359(3) 0.47117(10) 0.14282(15)
C17 C -0.2905(3) 0.47211(11) 0.11714(17)
H12 H -0.34630 0.45810 0.05910
C18 C -0.3609(3) 0.49383(12) 0.17751(19)
H13 H -0.46470 0.49430 0.15970
C19 C -0.2817(3) 0.51504(11) 0.26397(18)
H14 H -0.33180 0.52830 0.30450
C20 C -0.1286(3) 0.51647(10) 0.29003(16)
C21 C -0.0568(3) 0.49463(10) 0.22872(15)
C22 C 0.1910(3) 0.4734(1) 0.32494(16)
H15 H 0.15130 0.45440 0.36690
C23 C 0.3357(3) 0.47464(11) 0.34110(17)
H16 H 0.37570 0.49610 0.30140
C24 C 0.4348(3) 0.44299(12) 0.4201(2)
C25 C 0.6789(3) 0.40303(15) 0.4810(2)
H17 H 0.77110 0.40070 0.46640
H18 H 0.64340 0.36230 0.48630
H19 H 0.69510 0.42440 0.53830
C26 C -0.0705(3) 0.34764(10) 0.25191(15)
H20 H -0.16900 0.35950 0.22380
C27 C -0.0274(3) 0.32608(11) 0.34174(16)
H21 H -0.09720 0.32340 0.37360
C28 C 0.1182(3) 0.30851(11) 0.38429(17)
H22 H 0.14730 0.29480 0.44510
C29 C 0.2194(3) 0.31135(11) 0.33649(16)
H23 H 0.31760 0.29910 0.36460
C30 C 0.1766(3) 0.33228(10) 0.24687(16)
H24 H 0.24620 0.33340 0.21480
C31 C 0.0321(3) 0.35162(9) 0.20363(14)
C32 C -0.0510(3) 0.44278(10) 0.08372(14)
H25 H 0.03960 0.46690 0.08990
C33 C -0.0076(2) 0.37413(10) 0.10534(14)
H26 H 0.07880 0.36600 0.08390
C34 C -0.1406(3) 0.34307(10) 0.03825(14)
H27 H -0.22670 0.34650 0.06140
C35 C -0.1102(3) 0.56686(14) 0.43259(18)
H28 H -0.03600 0.58060 0.48770
H29 H -0.17460 0.53750 0.44840
H30 H -0.16820 0.60140 0.40200
#END
