
#######################################################################
#
#                 Cambridge Crystallographic Data Centre
#                                CCDC
#
#######################################################################
#
# If this CIF has been generated from an entry in the Cambridge
# Structural Database, then it will include bibliographic, chemical,
# crystal, experimental, refinement or atomic coordinate data resulting
# from the CCDC's data processing and validation procedures.
#
#######################################################################

data_CSD_CIF_UPUXOT
_audit_creation_date 2011-07-11
_audit_creation_method CSD-ConQuest-V1
_database_code_CSD UPUXOT
_database_code_depnum_ccdc_archive 'CCDC 793324'
_chemical_formula_sum 'C17 H13 N1 O5'
_chemical_formula_moiety
;
C17 H13 N1 O5
;
_journal_coden_Cambridge 16
_journal_volume 67
_journal_year 2011
_journal_page_first 2870
_journal_name_full 'Tetrahedron '
loop_
_publ_author_name
"D.K.Barange"
"V.Kavala"
"Chun-Wei Kuo"
"Po-Min Lei"
"Ching-Fa Yao"
_chemical_name_systematic
;
4-Hydroxy-3-(2-nitro-1-phenylethyl)-2H-chromen-2-one
;
_cell_volume   1470.653
_exptl_crystal_colour 'colorless'
_exptl_crystal_density_diffrn 1.406
_exptl_crystal_description 'prism'
_diffrn_ambient_temperature 200
#These two values have been output from a single CSD field.
_refine_ls_R_factor_gt 0.0486
_refine_ls_wR_factor_gt 0.0486
_symmetry_cell_setting monoclinic
_symmetry_space_group_name_H-M 'P 21/c'
_symmetry_Int_Tables_number 14
loop_
_symmetry_equiv_pos_site_id
_symmetry_equiv_pos_as_xyz
1 x,y,z
2 -x,1/2+y,1/2-z
3 -x,-y,-z
4 x,-1/2-y,-1/2+z
_cell_length_a 7.2294(3)
_cell_length_b 24.7993(10)
_cell_length_c 8.6181(3)
_cell_angle_alpha 90
_cell_angle_beta 107.857(2)
_cell_angle_gamma 90
_cell_formula_units_Z 4
loop_
_atom_type_symbol
_atom_type_radius_bond
C 0.68
H 0.23
N 0.68
O 0.68
loop_
_atom_site_label
_atom_site_type_symbol
_atom_site_fract_x
_atom_site_fract_y
_atom_site_fract_z
C1 C 0.4123(3) 0.71266(11) 0.4172(3)
H1 H 0.44070 0.74820 0.47140
H2 H 0.53160 0.69940 0.39640
C2 C 0.3488(3) 0.67332(10) 0.5253(3)
H3 H 0.22650 0.68830 0.53930
C3 C 0.4942(3) 0.66973(9) 0.6952(3)
C4 C 0.6816(3) 0.69003(11) 0.7363(3)
H4 H 0.72670 0.70640 0.65490
C5 C 0.8038(4) 0.68670(12) 0.8954(3)
H5 H 0.93110 0.70140 0.92280
C6 C 0.7414(4) 0.66214(11) 1.0138(3)
H6 H 0.82610 0.65940 1.12230
C7 C 0.5564(4) 0.64170(11) 0.9745(3)
H7 H 0.51330 0.62460 1.05590
C8 C 0.4326(4) 0.64581(10) 0.8171(3)
H8 H 0.30400 0.63220 0.79160
C9 C 0.2969(3) 0.61799(10) 0.4465(3)
C10 C 0.4448(3) 0.58795(11) 0.4060(3)
C11 C 0.2139(3) 0.51789(10) 0.2910(3)
C12 C 0.1814(4) 0.46879(11) 0.2106(3)
H9 H 0.28540 0.44970 0.19000
C13 C -0.0038(4) 0.44816(11) 0.1613(4)
H10 H -0.02860 0.41470 0.10480
C14 C -0.1546(4) 0.47580(11) 0.1933(4)
H11 H -0.28250 0.46140 0.15750
C15 C -0.1208(4) 0.52353(10) 0.2759(3)
H12 H -0.22510 0.54180 0.29860
C16 C 0.0665(3) 0.54591(9) 0.3278(3)
C17 C 0.1147(3) 0.59680(9) 0.4117(3)
N1 N 0.2511(3) 0.71787(10) 0.2594(3)
O1 O 0.2672(3) 0.69222(10) 0.1451(2)
O2 O 0.1137(3) 0.74643(9) 0.2516(2)
O3 O 0.6123(2) 0.60312(8) 0.4313(2)
O4 O 0.4007(2) 0.53840(7) 0.3329(2)
O5 O -0.0187(2) 0.62561(7) 0.4548(2)
H13 H -0.11220 0.60550 0.45520
#END
