
#######################################################################
#
#                 Cambridge Crystallographic Data Centre
#                                CCDC
#
#######################################################################
#
# If this CIF has been generated from an entry in the Cambridge
# Structural Database, then it will include bibliographic, chemical,
# crystal, experimental, refinement or atomic coordinate data resulting
# from the CCDC's data processing and validation procedures.
#
#######################################################################

data_CSD_CIF_UPUYOU
_audit_creation_date 2011-07-11
_audit_creation_method CSD-ConQuest-V1
_database_code_CSD UPUYOU
_database_code_depnum_ccdc_archive 'CCDC 784317'
_chemical_formula_sum 'C15 H25 N3 O4'
_chemical_formula_moiety
;
C15 H25 N3 O4
;
_journal_coden_Cambridge 16
_journal_volume 67
_journal_year 2011
_journal_page_first 2925
_journal_name_full 'Tetrahedron '
loop_
_publ_author_name
"G.Cremonesi"
"P.D.Croce"
"A.Forni"
"M.Gallanti"
"C.La Rosa"
_chemical_name_systematic
;
(1S)-1-[(2S,5R)-5-isopropyl-3,6-dimethoxy-2,5-dihydropyrazin-2-yl]-1-[(5S)-3-m
ethyl-4,5-dihydro-isoxazol-5-yl]ethanol
;
_cell_volume    826.707
_exptl_crystal_colour 'colorless'
_exptl_crystal_density_diffrn 1.251
_exptl_crystal_description 'prism'
_diffrn_ambient_temperature 173
#These two values have been output from a single CSD field.
_refine_ls_R_factor_gt 0.0398
_refine_ls_wR_factor_gt 0.0398
loop_
_citation_database_id_CSD
_citation_special_details
UPUYIO "is a stereoisomer of this entry"
_symmetry_cell_setting monoclinic
_symmetry_space_group_name_H-M 'P 21'
_symmetry_Int_Tables_number 4
loop_
_symmetry_equiv_pos_site_id
_symmetry_equiv_pos_as_xyz
1 x,y,z
2 -x,1/2+y,-z
_cell_length_a 9.2885(4)
_cell_length_b 8.7761(3)
_cell_length_c 10.1421(4)
_cell_angle_alpha 90
_cell_angle_beta 90.594(2)
_cell_angle_gamma 90
_cell_formula_units_Z 2
loop_
_atom_type_symbol
_atom_type_radius_bond
C 0.68
H 0.23
N 0.68
O 0.68
loop_
_atom_site_label
_atom_site_type_symbol
_atom_site_fract_x
_atom_site_fract_y
_atom_site_fract_z
O1 O 0.60067(18) 0.3037(2) 0.03841(16)
O2 O 0.71874(18) 0.0059(2) 0.10005(17)
H1 H 0.71350 0.04250 0.02360
O3 O 0.75122(19) -0.0745(2) 0.44600(17)
O4 O 1.17629(18) 0.0679(2) 0.12150(18)
N1 N 0.5356(2) 0.4437(2) 0.0721(2)
N2 N 0.9728(2) 0.1450(2) 0.22470(19)
N3 N 0.9318(2) -0.1597(2) 0.3165(2)
C1 C 0.5649(3) 0.6578(3) 0.2198(3)
H2 H 0.48330 0.69870 0.16910
H3 H 0.64620 0.72860 0.21490
H4 H 0.53710 0.64470 0.31200
C2 C 0.6075(2) 0.5084(3) 0.1643(2)
C3 C 0.7365(3) 0.4215(3) 0.2082(3)
H5 H 0.73150 0.39570 0.30310
H6 H 0.82610 0.47930 0.19170
C4 C 0.7278(2) 0.2791(3) 0.1226(2)
H7 H 0.81520 0.27400 0.06600
C5 C 0.7094(2) 0.1254(3) 0.1940(2)
C6 C 0.5664(3) 0.1179(4) 0.2665(3)
H8 H 0.48680 0.12740 0.20290
H9 H 0.56160 0.20120 0.33060
H10 H 0.55910 0.02010 0.31260
C7 C 0.8392(2) 0.1031(3) 0.2902(2)
H11 H 0.82610 0.17530 0.36540
C8 C 1.0555(2) 0.0389(3) 0.1894(2)
C9 C 1.2054(3) 0.2250(3) 0.0923(3)
H12 H 1.12930 0.26520 0.03440
H13 H 1.29840 0.23320 0.04810
H14 H 1.20830 0.28370 0.17440
C10 C 1.0377(2) -0.1296(3) 0.2150(2)
H15 H 1.00160 -0.17730 0.13140
C11 C 1.1804(3) -0.2091(3) 0.2526(2)
H16 H 1.25190 -0.18700 0.18210
C12 C 1.2392(3) -0.1462(4) 0.3820(3)
H17 H 1.16600 -0.15590 0.45040
H18 H 1.26420 -0.03850 0.37080
H19 H 1.32530 -0.20360 0.40830
C13 C 1.1578(3) -0.3814(3) 0.2583(3)
H20 H 1.08250 -0.40510 0.32200
H21 H 1.24780 -0.43100 0.28550
H22 H 1.12860 -0.41880 0.17090
C14 C 0.8463(2) -0.0554(3) 0.3473(2)
C15 C 0.7643(3) -0.2135(4) 0.5192(3)
H23 H 0.75720 -0.30040 0.45880
H24 H 0.68700 -0.21940 0.58400
H25 H 0.85780 -0.21590 0.56490
#END
