
#######################################################################
#
#                 Cambridge Crystallographic Data Centre
#                                CCDC
#
#######################################################################
#
# If this CIF has been generated from an entry in the Cambridge
# Structural Database, then it will include bibliographic, chemical,
# crystal, experimental, refinement or atomic coordinate data resulting
# from the CCDC's data processing and validation procedures.
#
#######################################################################

data_CSD_CIF_UQIDUV
_audit_creation_date 2016-06-29
_audit_creation_method CSD-ConQuest-V1
_database_code_CSD UQIDUV
_database_code_depnum_ccdc_archive 'CCDC 1403120'
_chemical_formula_sum 'C34 H26 N2 O2'
_chemical_formula_moiety
;
C34 H26 N2 O2
;
_journal_coden_Cambridge 16
_journal_volume 72
_journal_year 2016
_journal_page_first 4827
_journal_name_full 'Tetrahedron '
loop_
_publ_author_name
"M.S.Ledovskaya"
"A.P.Molchanov"
"R.R.Kostikov"
"T.L.Panikorovsky"
"V.V.Gurzhiy"
"M.N.Ryazantsev"
"V.M.Boitsov"
"A.V.Stepakov"
_chemical_name_systematic
;
28-(4-methylphenyl)-30-oxa-12,29-diazaoctacyclo[13.6.6.3^2,14^.0^2,14^.0^3,12^
.0^4,9^.0^16,21^.0^22,27^]triaconta-4,6,8,16,18,20,22,24,26,28-decaen-13-one
;
_cell_volume   2476.375
_exptl_crystal_colour 'colorless'
_exptl_crystal_density_diffrn 1.327
_exptl_crystal_description 'prism'
_diffrn_ambient_temperature 100
_diffrn_special_details
;
twin

;
#These two values have been output from a single CSD field.
_refine_ls_R_factor_gt 0.0335
_refine_ls_wR_factor_gt 0.0335
_symmetry_cell_setting orthorhombic
_symmetry_space_group_name_H-M 'P 21 21 21'
_symmetry_Int_Tables_number 19
loop_
_symmetry_equiv_pos_site_id
_symmetry_equiv_pos_as_xyz
1 x,y,z
2 1/2-x,-y,1/2+z
3 1/2+x,1/2-y,-z
4 -x,1/2+y,1/2-z
_cell_length_a 12.4634(6)
_cell_length_b 14.0050(6)
_cell_length_c 14.1872(8)
_cell_angle_alpha 90
_cell_angle_beta 90
_cell_angle_gamma 90
_cell_formula_units_Z 4
loop_
_atom_type_symbol
_atom_type_radius_bond
C 0.68
H 0.23
N 0.68
O 0.68
loop_
_atom_site_label
_atom_site_type_symbol
_atom_site_fract_x
_atom_site_fract_y
_atom_site_fract_z
O1 O -0.63417(10) -1.28118(9) -0.88024(9)
O2 O -0.38110(11) -1.10966(9) -0.73370(9)
N1 N -0.50442(13) -1.22076(11) -0.68711(11)
N2 N -0.61641(12) -1.19591(11) -0.93070(11)
C1 C -0.75085(16) -1.36731(14) -0.72741(14)
H1 H -0.72710 -1.41050 -0.77260
C2 C -0.85649(17) -1.36961(15) -0.69841(14)
H2 H -0.90420 -1.41290 -0.72510
C3 C -0.89097(16) -1.30667(15) -0.62896(14)
H3 H -0.96180 -1.30840 -0.60830
C4 C -0.82009(16) -1.24158(15) -0.59067(14)
H4 H -0.84390 -1.19990 -0.54410
C5 C -0.71355(15) -1.23705(13) -0.62038(14)
C6 C -0.63834(16) -1.16424(14) -0.57754(14)
H5 H -0.65380 -1.15820 -0.51080
H6 H -0.65090 -1.10260 -0.60680
C7 C -0.52095(16) -1.19147(15) -0.59014(13)
H7 H -0.47540 -1.13730 -0.57550
H8 H -0.50260 -1.24340 -0.54780
C8 C -0.44028(14) -1.17731(13) -0.75013(13)
C9 C -0.45852(14) -1.22503(13) -0.84630(12)
C10 C -0.35509(14) -1.26757(13) -0.89380(12)
H9 H -0.30120 -1.21860 -0.90780
C11 C -0.39725(14) -1.31620(12) -0.98212(13)
C12 C -0.37622(15) -1.28803(13) -1.07355(13)
H10 H -0.32740 -1.23930 -1.08560
C13 C -0.42887(16) -1.33344(14) -1.14728(14)
H11 H -0.41460 -1.31560 -1.20910
C14 C -0.50234(17) -1.40500(14) -1.12925(14)
H12 H -0.53750 -1.43450 -1.17920
C15 C -0.52435(16) -1.43343(14) -1.03742(14)
H13 H -0.57400 -1.48150 -1.02550
C16 C -0.47084(15) -1.38875(13) -0.96373(13)
C17 C -0.49379(15) -1.40294(12) -0.85996(13)
H14 H -0.54340 -1.45600 -0.84840
C18 C -0.38880(15) -1.41447(13) -0.80717(13)
C19 C -0.36539(16) -1.48461(13) -0.74156(13)
H15 H -0.41570 -1.53150 -0.72750
C20 C -0.26608(17) -1.48450(14) -0.69684(15)
H16 H -0.24990 -1.53150 -0.65280
C21 C -0.19126(16) -1.41442(14) -0.71783(14)
H17 H -0.12460 -1.41530 -0.68840
C22 C -0.21507(15) -1.34277(14) -0.78258(14)
H18 H -0.16500 -1.29540 -0.79610
C23 C -0.31404(14) -1.34294(13) -0.82648(13)
C24 C -0.53964(14) -1.30575(13) -0.82648(12)
C25 C -0.56315(14) -1.30427(13) -0.71932(13)
H19 H -0.53030 -1.36100 -0.69100
C26 C -0.67948(15) -1.30099(13) -0.68978(13)
C27 C -0.52261(14) -1.16323(13) -0.91368(12)
C28 C -0.48261(15) -1.07937(13) -0.96558(13)
C29 C -0.54111(15) -1.04457(14) -1.04260(14)
H20 H -0.60660 -1.07220 -1.05820
C30 C -0.50216(16) -0.96957(14) -1.09545(13)
H21 H -0.54240 -0.94700 -1.14600
C31 C -0.40395(16) -0.92689(13) -1.07485(14)
C32 C -0.34753(16) -0.96060(13) -0.99730(14)
H22 H -0.28250 -0.93230 -0.98140
C33 C -0.38594(15) -1.03547(13) -0.94294(13)
H23 H -0.34680 -1.05640 -0.89110
C34 C -0.35889(17) -0.84819(14) -1.13514(14)
H24 H -0.32610 -0.80080 -1.09560
H25 H -0.41570 -0.81940 -1.17100
H26 H -0.30610 -0.87410 -1.17730
#END
