
#######################################################################
#
#                 Cambridge Crystallographic Data Centre
#                                CCDC
#
#######################################################################
#
# If this CIF has been generated from an entry in the Cambridge
# Structural Database, then it will include bibliographic, chemical,
# crystal, experimental, refinement or atomic coordinate data resulting
# from the CCDC's data processing and validation procedures.
#
#######################################################################

data_CSD_CIF_UQIJUA
_audit_creation_date 2011-07-22
_audit_creation_method CSD-ConQuest-V1
_database_code_CSD UQIJUA
_database_code_depnum_ccdc_archive 'CCDC 751949'
_chemical_formula_sum 'C13 H13 N1 O2'
_chemical_formula_moiety
;
C13 H13 N1 O2
;
_journal_coden_Cambridge 1048
_journal_volume 12
_journal_year 2010
_journal_page_first 1090
_journal_name_full 'Green Chemistry '
loop_
_publ_author_name
"M.J.Raihan"
"V.Kavala"
"Chun-Wei Kuo"
"B.R.Raju"
"Ching-Fa Yao"
_chemical_name_systematic
;
2a,3,4,5,5a,10c-Hexahydroxantheno[9,1-cd][1,2]oxazole
;
_cell_volume   2174.159
_exptl_crystal_colour 'colorless'
_exptl_crystal_density_diffrn 1.315
_exptl_crystal_description 'prism'
_diffrn_ambient_temperature 293
#These two values have been output from a single CSD field.
_refine_ls_R_factor_gt 0.0557
_refine_ls_wR_factor_gt 0.0557
_symmetry_cell_setting orthorhombic
_symmetry_space_group_name_H-M 'P c a b'
_symmetry_Int_Tables_number 61
loop_
_symmetry_equiv_pos_site_id
_symmetry_equiv_pos_as_xyz
1 x,y,z
2 -x,1/2-y,1/2+z
3 1/2+x,-y,1/2-z
4 1/2-x,1/2+y,-z
5 -x,-y,-z
6 x,-1/2+y,-1/2-z
7 -1/2-x,y,-1/2+z
8 -1/2+x,-1/2-y,z
_cell_length_a 9.1168(3)
_cell_length_b 13.8294(4)
_cell_length_c 17.2443(6)
_cell_angle_alpha 90
_cell_angle_beta 90
_cell_angle_gamma 90
_cell_formula_units_Z 8
loop_
_atom_type_symbol
_atom_type_radius_bond
C 0.68
H 0.23
N 0.68
O 0.68
loop_
_atom_site_label
_atom_site_type_symbol
_atom_site_fract_x
_atom_site_fract_y
_atom_site_fract_z
O1 O 0.7502(2) 0.25062(15) 0.83359(13)
O2 O 1.0538(2) 0.51586(13) 0.84583(13)
N1 N 0.7075(3) 0.3342(2) 0.87691(14)
C1 C 0.8154(3) 0.3930(2) 0.87596(14)
C2 C 0.8210(3) 0.4876(2) 0.91149(15)
C3 C 0.7163(4) 0.5241(3) 0.96212(17)
H1 H 0.63350 0.48740 0.97340
C4 C 0.7329(5) 0.6138(4) 0.9960(2)
H2 H 0.66270 0.63740 1.03020
C5 C 0.8556(6) 0.6678(3) 0.9781(2)
H3 H 0.86720 0.72850 1.00040
C6 C 0.9600(4) 0.6341(2) 0.92862(19)
H4 H 1.04230 0.67150 0.91780
C7 C 0.9438(3) 0.5441(2) 0.89421(17)
C8 C 1.0267(3) 0.43668(19) 0.79276(17)
H5 H 1.12240 0.41110 0.77690
C9 C 0.9462(3) 0.35629(17) 0.83330(15)
H6 H 1.01280 0.32500 0.87020
C10 C 0.8725(3) 0.27954(18) 0.78471(16)
H7 H 0.93900 0.22490 0.77630
C11 C 0.8134(3) 0.3157(2) 0.70842(16)
H8 H 0.72080 0.34840 0.71740
H9 H 0.79470 0.26100 0.67470
C12 C 0.9178(3) 0.3846(2) 0.66821(17)
H10 H 0.87450 0.40700 0.62010
H11 H 1.00850 0.35130 0.65600
C13 C 0.9498(3) 0.4706(2) 0.72051(17)
H12 H 1.01110 0.51670 0.69320
H13 H 0.85870 0.50250 0.73430
#END
