
#######################################################################
#
#                 Cambridge Crystallographic Data Centre
#                                CCDC
#
#######################################################################
#
# If this CIF has been generated from an entry in the Cambridge
# Structural Database, then it will include bibliographic, chemical,
# crystal, experimental, refinement or atomic coordinate data resulting
# from the CCDC's data processing and validation procedures.
#
#######################################################################

data_CSD_CIF_UQIJOU
_audit_creation_date 2011-07-22
_audit_creation_method CSD-ConQuest-V1
_database_code_CSD UQIJOU
_database_code_depnum_ccdc_archive 'CCDC 751948'
_chemical_formula_sum 'C15 H17 N1 O6'
_chemical_formula_moiety
;
C15 H17 N1 O6
;
_journal_coden_Cambridge 1048
_journal_volume 12
_journal_year 2010
_journal_page_first 1090
_journal_name_full 'Green Chemistry '
loop_
_publ_author_name
"M.J.Raihan"
"V.Kavala"
"Chun-Wei Kuo"
"B.R.Raju"
"Ching-Fa Yao"
_chemical_name_systematic
;
(6,7-Dimethoxy-3a,4-dihydro-3H-chromeno[4,3-c][1,2]oxazol-3-yl)methyl acetate
;
_cell_volume   1467.491
_exptl_crystal_colour 'colorless'
_exptl_crystal_density_diffrn 1.391
_exptl_crystal_description 'prism'
_diffrn_ambient_temperature 293
#These two values have been output from a single CSD field.
_refine_ls_R_factor_gt 0.0561
_refine_ls_wR_factor_gt 0.0561
_symmetry_cell_setting monoclinic
_symmetry_space_group_name_H-M 'P 21/n'
_symmetry_Int_Tables_number 14
loop_
_symmetry_equiv_pos_site_id
_symmetry_equiv_pos_as_xyz
1 x,y,z
2 1/2-x,1/2+y,1/2-z
3 -x,-y,-z
4 -1/2+x,-1/2-y,-1/2+z
_cell_length_a 7.1337(2)
_cell_length_b 26.8903(9)
_cell_length_c 7.6505(3)
_cell_angle_alpha 90
_cell_angle_beta 90.614(1)
_cell_angle_gamma 90
_cell_formula_units_Z 4
loop_
_atom_type_symbol
_atom_type_radius_bond
C 0.68
H 0.23
N 0.68
O 0.68
loop_
_atom_site_label
_atom_site_type_symbol
_atom_site_fract_x
_atom_site_fract_y
_atom_site_fract_z
O1 O 0.3499(2) 0.29437(8) 0.9017(3)
O2 O -0.1101(3) 0.33620(7) 0.7465(3)
O3 O -0.0590(3) 0.41684(9) 0.7519(4)
O4 O -0.1213(2) 0.17693(7) 0.8600(2)
O5 O -0.1837(2) 0.08149(7) 0.7706(2)
O6 O 0.0996(3) 0.02162(8) 0.6772(3)
N1 N 0.3888(3) 0.24485(10) 0.8470(3)
C1 C 0.1478(4) 0.30052(11) 0.9068(3)
H1 H 0.11430 0.32120 1.00720
C2 C 0.0862(4) 0.32588(12) 0.7396(4)
H2 H 0.15530 0.35660 0.72500
H3 H 0.11210 0.30450 0.64050
C3 C -0.1665(4) 0.38340(11) 0.7553(4)
C4 C -0.3723(4) 0.38782(11) 0.7687(4)
H4 H -0.42780 0.35530 0.76370
H5 H -0.41960 0.40760 0.67360
H6 H -0.40330 0.40340 0.87760
C5 C 0.0758(3) 0.24802(10) 0.9337(3)
H7 H 0.06600 0.24150 1.05930
C6 C -0.1010(3) 0.22981(10) 0.8422(3)
H8 H -0.20910 0.24620 0.89190
H9 H -0.09600 0.23840 0.71920
C7 C 0.0308(3) 0.14862(11) 0.8141(3)
C8 C -0.0031(3) 0.09923(11) 0.7715(3)
C9 C -0.2260(4) 0.04904(13) 0.9124(4)
H10 H -0.35360 0.03800 0.90180
H11 H -0.20920 0.06650 1.02090
H12 H -0.14370 0.02080 0.90970
C10 C 0.1466(4) 0.06900(12) 0.7237(3)
C11 C 0.2446(4) -0.00915(13) 0.6080(4)
H13 H 0.19410 -0.04130 0.57950
H14 H 0.34310 -0.01280 0.69350
H15 H 0.29390 0.00600 0.50450
C12 C 0.3291(4) 0.08786(12) 0.7227(3)
H16 H 0.42870 0.06760 0.69060
C13 C 0.3604(3) 0.13613(12) 0.7690(3)
H17 H 0.48260 0.14820 0.77180
C14 C 0.2136(3) 0.16784(10) 0.8123(3)
C15 C 0.2387(3) 0.21930(11) 0.8626(3)
#END
