
#######################################################################
#
#                 Cambridge Crystallographic Data Centre
#                                CCDC
#
#######################################################################
#
# If this CIF has been generated from an entry in the Cambridge
# Structural Database, then it will include bibliographic, chemical,
# crystal, experimental, refinement or atomic coordinate data resulting
# from the CCDC's data processing and validation procedures.
#
#######################################################################

data_CSD_CIF_UQIYIE
_audit_creation_date 2016-06-29
_audit_creation_method CSD-ConQuest-V1
_database_code_CSD UQIYIE
_database_code_depnum_ccdc_archive 'CCDC 1487265'
_chemical_formula_sum 'C15 H11 N1 O4'
_chemical_formula_moiety
;
C15 H11 N1 O4
;
_journal_coeditor_code "zl2667"
_journal_coden_Cambridge 1828
_journal_volume 72
_journal_year 2016
_journal_page_first 1054
_journal_name_full 'Acta Crystallogr.,Sect.E:Cryst.Commun. '
loop_
_publ_author_name
"F.H.Greenberg"
"A.Y.Nazarenko"
_chemical_name_systematic
;
rac-trans-(3-(3-nitrophenyl)oxiran-2-yl)(phenyl)methanone
;
_cell_volume   1231.347
_exptl_crystal_colour 'colorless'
_exptl_crystal_density_diffrn 1.452
_exptl_crystal_description 'block'
_diffrn_ambient_temperature 173.2
#These two values have been output from a single CSD field.
_refine_ls_R_factor_gt 0.0439
_refine_ls_wR_factor_gt 0.0439
loop_
_citation_database_id_CSD
_citation_special_details
UQIYOK "is a stereoisomer of this entry"
_symmetry_cell_setting monoclinic
_symmetry_space_group_name_H-M 'P 21/c'
_symmetry_Int_Tables_number 14
loop_
_symmetry_equiv_pos_site_id
_symmetry_equiv_pos_as_xyz
1 x,y,z
2 -x,1/2+y,1/2-z
3 -x,-y,-z
4 x,-1/2-y,-1/2+z
_cell_length_a 7.8463(5)
_cell_length_b 16.2514(9)
_cell_length_c 10.2032(6)
_cell_angle_alpha 90
_cell_angle_beta 108.839(2)
_cell_angle_gamma 90
_cell_formula_units_Z 4
loop_
_atom_type_symbol
_atom_type_radius_bond
C 0.68
H 0.23
N 0.68
O 0.68
loop_
_atom_site_label
_atom_site_type_symbol
_atom_site_fract_x
_atom_site_fract_y
_atom_site_fract_z
O1 O 0.25037(8) 0.71203(4) 0.99764(7)
O2 O 0.10970(8) 0.58236(5) 0.82016(7)
O3 O 0.36177(10) 0.64512(4) 0.29974(8)
O4 O 0.32859(13) 0.52785(6) 0.19647(8)
N1 N 0.32668(10) 0.57168(5) 0.29372(7)
C1 C 0.21037(11) 0.46686(5) 0.63244(8)
H1 H 0.1830(17) 0.4424(8) 0.7101(13)
C2 C 0.22642(12) 0.41642(5) 0.52697(9)
H2 H 0.2120(17) 0.3571(8) 0.5326(14)
C3 C 0.26219(11) 0.44992(5) 0.41329(8)
H3 H 0.2706(18) 0.4158(8) 0.3413(14)
C4 C 0.28236(9) 0.53439(5) 0.40956(7)
C5 C 0.26492(10) 0.58642(5) 0.51200(7)
H4 H 0.2789(16) 0.6449(8) 0.5052(13)
C6 C 0.22844(9) 0.55193(5) 0.62477(7)
C7 C 0.21159(10) 0.60861(5) 0.73395(8)
H5 H 0.1953(17) 0.6670(8) 0.7099(14)
C8 C 0.29883(10) 0.59190(5) 0.88324(8)
H6 H 0.3656(16) 0.5410(8) 0.9094(13)
C9 C 0.35983(10) 0.66437(4) 0.97908(7)
C10 C 0.55753(10) 0.67524(4) 1.04317(7)
C11 C 0.62448(11) 0.72792(5) 1.15652(8)
H7 H 0.5381(18) 0.7560(9) 1.1946(14)
C12 C 0.80912(12) 0.73856(5) 1.21587(10)
H8 H 0.856(2) 0.775(1) 1.2949(15)
C13 C 0.92704(12) 0.69765(6) 1.16210(12)
H9 H 1.053(2) 0.7034(10) 1.2027(17)
C14 C 0.86192(12) 0.64582(6) 1.04894(12)
H10 H 0.948(2) 0.6188(10) 1.0128(17)
C15 C 0.67737(11) 0.63440(5) 0.98993(9)
H11 H 0.6281(19) 0.5978(9) 0.9086(15)
#END
