
#######################################################################
#
#                 Cambridge Crystallographic Data Centre
#                                CCDC
#
#######################################################################
#
# If this CIF has been generated from an entry in the Cambridge
# Structural Database, then it will include bibliographic, chemical,
# crystal, experimental, refinement or atomic coordinate data resulting
# from the CCDC's data processing and validation procedures.
#
#######################################################################

data_CSD_CIF_UQIYOK
_audit_creation_date 2016-06-29
_audit_creation_method CSD-ConQuest-V1
_database_code_CSD UQIYOK
_database_code_depnum_ccdc_archive 'CCDC 1487266'
_chemical_formula_sum 'C15 H11 N1 O4'
_chemical_formula_moiety
;
C15 H11 N1 O4
;
_journal_coeditor_code "zl2667"
_journal_coden_Cambridge 1828
_journal_volume 72
_journal_year 2016
_journal_page_first 1054
_journal_name_full 'Acta Crystallogr.,Sect.E:Cryst.Commun. '
loop_
_publ_author_name
"F.H.Greenberg"
"A.Y.Nazarenko"
_chemical_name_systematic
;
trans-((2R,3S)-3-(3-nitrophenyl)oxiran-2-yl)(phenyl)methanone
;
_cell_volume   1247.071
_exptl_crystal_colour 'colorless'
_exptl_crystal_density_diffrn 1.434
_exptl_special_details
;
Absolute configuration

;
_exptl_crystal_description 'needle'
_diffrn_ambient_temperature 173.2
_diffrn_special_details
;
twin

;
#These two values have been output from a single CSD field.
_refine_ls_R_factor_gt 0.029
_refine_ls_wR_factor_gt 0.029
loop_
_citation_database_id_CSD
_citation_special_details
UQIYIE "is a racemate of this entry"
_symmetry_cell_setting orthorhombic
_symmetry_space_group_name_H-M 'P 21 21 21'
_symmetry_Int_Tables_number 19
loop_
_symmetry_equiv_pos_site_id
_symmetry_equiv_pos_as_xyz
1 x,y,z
2 1/2-x,-y,1/2+z
3 -x,1/2+y,1/2-z
4 1/2+x,1/2-y,-z
_cell_length_a 4.1615(2)
_cell_length_b 14.7498(6)
_cell_length_c 20.3168(8)
_cell_angle_alpha 90
_cell_angle_beta 90
_cell_angle_gamma 90
_cell_formula_units_Z 4
loop_
_atom_type_symbol
_atom_type_radius_bond
C 0.68
H 0.23
N 0.68
O 0.68
loop_
_atom_site_label
_atom_site_type_symbol
_atom_site_fract_x
_atom_site_fract_y
_atom_site_fract_z
O1 O 0.6417(4) 0.36468(8) 0.45872(6)
O2 O 0.9762(3) 0.34403(8) 0.57437(6)
O3 O 0.2003(5) 0.02869(10) 0.71337(7)
O4 O 0.2482(5) 0.05976(11) 0.81622(7)
N1 N 0.2991(5) 0.07647(11) 0.75797(7)
C1 C 0.8151(5) 0.31290(13) 0.71103(9)
H1 H 0.934(3) 0.3678(12) 0.7004(3)
C2 C 0.7899(5) 0.28508(14) 0.77607(9)
H2 H 0.894(2) 0.3214(8) 0.8115(8)
C3 C 0.6211(5) 0.20742(13) 0.79219(10)
H3 H 0.6010(7) 0.1885(4) 0.8363(10)
C4 C 0.4826(5) 0.15840(12) 0.74146(8)
C5 C 0.5055(4) 0.18379(11) 0.67600(8)
H4 H 0.411(2) 0.1484(8) 0.6426(7)
C6 C 0.6718(4) 0.26278(11) 0.66071(8)
C7 C 0.6967(4) 0.29204(11) 0.59069(8)
H5 H 0.633(5) 0.2466(13) 0.5566(9)
C8 C 0.6695(4) 0.38876(11) 0.57279(9)
H6 H 0.635(5) 0.4318(13) 0.6078(9)
C9 C 0.5571(4) 0.41215(12) 0.50441(8)
C10 C 0.3543(4) 0.49418(11) 0.49357(8)
C11 C 0.2260(4) 0.54583(11) 0.54460(9)
H7 H 0.2629(9) 0.5280(4) 0.5902(9)
C12 C 0.0454(5) 0.62269(12) 0.53064(10)
H8 H -0.050(2) 0.6595(8) 0.5677(8)
C13 C -0.0041(5) 0.64890(14) 0.46594(10)
H9 H -0.129(3) 0.7042(14) 0.4561(3)
C14 C 0.1213(5) 0.59745(14) 0.41521(10)
H10 H 0.0836(10) 0.6162(4) 0.3684(11)
C15 C 0.2985(5) 0.52018(13) 0.42860(9)
H11 H 0.3863(19) 0.4831(8) 0.3917(8)
#END
