
#######################################################################
#
#                 Cambridge Crystallographic Data Centre
#                                CCDC
#
#######################################################################
#
# If this CIF has been generated from an entry in the Cambridge
# Structural Database, then it will include bibliographic, chemical,
# crystal, experimental, refinement or atomic coordinate data resulting
# from the CCDC's data processing and validation procedures.
#
#######################################################################

data_CSD_CIF_URAXAO
_audit_creation_date 2016-07-01
_audit_creation_method CSD-ConQuest-V1
_database_code_CSD URAXAO
_database_code_depnum_ccdc_archive 'CCDC 1489511'
_chemical_formula_sum 'C11 H12 N2 O3'
_chemical_formula_moiety
;
C11 H12 N2 O3
;
_journal_coden_Cambridge 737
_journal_volume 30
_journal_year 2015
_journal_page_first 366
_journal_name_full 'Powder Diffr. '
loop_
_publ_author_name
"Qing Wang"
"Xin Nuo Xiong"
"Jia Wei He"
"Pei Xiao Tang"
"Hui Li"
_chemical_name_systematic
;
1-(4-nitrophenyl)piperidin-2-one
;
_chemical_melting_point 368.15
_cell_volume   1069.892
_exptl_crystal_colour 'yellowish yellow'
_exptl_crystal_density_diffrn 1.367
_exptl_special_details
;
Melting point range 368.15-369.15K

;
_diffrn_ambient_temperature 293
#These two values have been output from a single CSD field.
_refine_ls_R_factor_gt 0.0609
_refine_ls_wR_factor_gt 0.0609
_symmetry_cell_setting monoclinic
_symmetry_space_group_name_H-M 'P 21/n'
_symmetry_Int_Tables_number 14
loop_
_symmetry_equiv_pos_site_id
_symmetry_equiv_pos_as_xyz
1 x,y,z
2 1/2-x,1/2+y,1/2-z
3 -x,-y,-z
4 -1/2+x,-1/2-y,-1/2+z
_cell_length_a 9.16319(19)
_cell_length_b 12.2880(4)
_cell_length_c 9.50685(18)
_cell_angle_alpha 90
_cell_angle_beta 91.843(2)
_cell_angle_gamma 90
_cell_formula_units_Z 4
loop_
_atom_type_symbol
_atom_type_radius_bond
C 0.68
H 0.23
N 0.68
O 0.68
loop_
_atom_site_label
_atom_site_type_symbol
_atom_site_fract_x
_atom_site_fract_y
_atom_site_fract_z
O1 O 0.12971(15) 0.29508(14) 0.89801(12)
N1 N 0.08424(14) 0.34159(13) 0.67121(13)
C1 C -0.05617(19) 0.47252(16) 0.80501(18)
H1 H 0.02950 0.49530 0.85120
N2 N -0.4527(2) 0.53618(17) 0.7984(2)
C2 C -0.05178(17) 0.39044(15) 0.70425(16)
O2 O -0.4540(2) 0.60074(18) 0.8958(3)
C3 C -0.17908(19) 0.35851(17) 0.63366(19)
H2 H -0.17600 0.30420 0.56580
C4 C 0.16565(18) 0.29276(16) 0.77607(17)
C5 C -0.3104(2) 0.40664(18) 0.6632(2)
H3 H -0.39590 0.38590 0.61520
O3 O -0.5606(2) 0.5113(2) 0.7299(3)
C6 C 0.2736(2) 0.30739(19) 0.4961(2)
H4 H 0.28700 0.29200 0.39730
H5 H 0.33200 0.37060 0.52160
C7 C 0.1145(2) 0.33084(18) 0.52011(17)
H6 H 0.08690 0.39770 0.47200
H7 H 0.05540 0.27240 0.48000
C8 C 0.30586(19) 0.23722(19) 0.73745(19)
H8 H 0.38690 0.28320 0.76810
H9 H 0.31390 0.16970 0.79000
C9 C 0.3226(2) 0.21158(19) 0.5834(2)
H10 H 0.42390 0.19520 0.56580
H11 H 0.26430 0.14830 0.55790
C10 C -0.1878(2) 0.52009(16) 0.8363(2)
H12 H -0.19200 0.57420 0.90440
C11 C -0.31234(19) 0.48607(17) 0.7652(2)
#END
