
#######################################################################
#
#                 Cambridge Crystallographic Data Centre
#                                CCDC
#
#######################################################################
#
# If this CIF has been generated from an entry in the Cambridge
# Structural Database, then it will include bibliographic, chemical,
# crystal, experimental, refinement or atomic coordinate data resulting
# from the CCDC's data processing and validation procedures.
#
#######################################################################

data_CSD_CIF_UREAOH03
_audit_creation_date 1976-08-17
_audit_creation_method CSD-ConQuest-V1
_database_code_CSD UREAOH03
_database_code_depnum_ccdc_archive 'CCDC 1278482'
_chemical_formula_sum 'C1 H4 N2 O2'
_chemical_formula_moiety
;
C1 H4 N2 O2
;
_journal_coeditor_code "IUCr A13274"
_journal_coden_Cambridge 107
_journal_volume 32
_journal_year 1976
_journal_page_first 1042
_journal_name_full 'Acta Crystallogr.,Sect.B:Struct.Crystallogr.Cryst.Chem. '
loop_
_publ_author_name
"N.Armagan"
"J.P.G.Richards"
"A.A.Uraz"
_chemical_name_systematic
;
N-Hydroxyurea
;
_chemical_name_common
;
Droxia; Hydrea; Litalir; Onco-Carbide; DrugBank: DB01005
;
_cell_volume    310.899
_exptl_crystal_density_diffrn 1.624
_exptl_special_details
;
antineoplastic agent

;
_diffrn_ambient_temperature ?
_diffrn_special_details
;
The study was carried out at room temperature,in the range 283-303K

;
#These two values have been output from a single CSD field.
_refine_ls_R_factor_gt 0.056
_refine_ls_wR_factor_gt 0.056
_symmetry_cell_setting monoclinic
_symmetry_space_group_name_H-M 'P 21/c'
_symmetry_Int_Tables_number 14
loop_
_symmetry_equiv_pos_site_id
_symmetry_equiv_pos_as_xyz
1 x,y,z
2 -x,1/2+y,1/2-z
3 -x,-y,-z
4 x,-1/2-y,-1/2+z
_cell_length_a 8.381(7)
_cell_length_b 4.918(3)
_cell_length_c 8.822(4)
_cell_angle_alpha 90
_cell_angle_beta 121.24(4)
_cell_angle_gamma 90
_cell_formula_units_Z 4
loop_
_atom_type_symbol
_atom_type_radius_bond
C 0.68
H 0.23
N 0.68
O 0.68
loop_
_atom_site_label
_atom_site_type_symbol
_atom_site_fract_x
_atom_site_fract_y
_atom_site_fract_z
C1 C 0.27350 0.02530 0.02660
H1 H 0.18700 -0.18000 -0.30600
H2 H 0.09000 -0.24900 -0.11000
H3 H 0.32500 0.29500 -0.10700
H4 H 0.46200 0.32700 0.10900
N1 N 0.15960 -0.12260 -0.11660
N2 N 0.35570 0.24250 0.00700
O1 O 0.12520 -0.03920 -0.28280
O2 O 0.30200 -0.04980 0.17450
#END
