
#######################################################################
#
#                 Cambridge Crystallographic Data Centre
#                                CCDC
#
#######################################################################
#
# If this CIF has been generated from an entry in the Cambridge
# Structural Database, then it will include bibliographic, chemical,
# crystal, experimental, refinement or atomic coordinate data resulting
# from the CCDC's data processing and validation procedures.
#
#######################################################################

data_CSD_CIF_UREAOH12
_audit_creation_date 1978-11-29
_audit_creation_method CSD-ConQuest-V1
_database_code_CSD UREAOH12
_database_code_depnum_ccdc_archive 'CCDC 1278484'
_chemical_formula_sum 'C1 H4 N2 O2'
_chemical_formula_moiety
;
C1 H4 N2 O2
;
_journal_coeditor_code "IUCr A16309"
_journal_coden_Cambridge 107
_journal_volume 34
_journal_year 1978
_journal_page_first 2495
_journal_name_full 'Acta Crystallogr.,Sect.B:Struct.Crystallogr.Cryst.Chem. '
loop_
_publ_author_name
"W.E.Thiessen"
"H.A.Levy"
"B.D.Flaig"
_chemical_name_systematic
;
Hydroxyurea
;
_chemical_name_common
;
Droxia; Hydrea; Litalir; Onco-Carbide; DrugBank: DB01005; PDB Chemical 
Component code: NHY
;
_cell_volume    310.016
_exptl_special_details
;
antineoplastic agent

;
_diffrn_ambient_temperature ?
_diffrn_radiation_probe 'neutron radiation'
_diffrn_special_details
;
The study was carried out at room temperature,in the range 283-303K

;
#These two values have been output from a single CSD field.
_refine_ls_R_factor_gt 0.036
_refine_ls_wR_factor_gt 0.036
_symmetry_cell_setting monoclinic
_symmetry_space_group_name_H-M 'P 21/c'
_symmetry_Int_Tables_number 14
loop_
_symmetry_equiv_pos_site_id
_symmetry_equiv_pos_as_xyz
1 x,y,z
2 -x,1/2+y,1/2-z
3 -x,-y,-z
4 x,-1/2-y,-1/2+z
_cell_length_a 8.3962(2)
_cell_length_b 4.9026(2)
_cell_length_c 8.8060(2)
_cell_angle_alpha 90
_cell_angle_beta 121.212(1)
_cell_angle_gamma 90
_cell_formula_units_Z 4
loop_
_atom_type_symbol
_atom_type_radius_bond
C 0.68
H 0.23
N 0.68
O 0.68
loop_
_atom_site_label
_atom_site_type_symbol
_atom_site_fract_x
_atom_site_fract_y
_atom_site_fract_z
C1 C 0.27450 0.02620 0.02710
N1 N 0.35580 0.24330 0.00620
N2 N 0.15940 -0.12310 -0.11760
O1 O 0.30190 -0.04850 0.17510
O2 O 0.12520 -0.03850 -0.28250
H1 H 0.45380 0.33950 0.11600
H2 H 0.32630 0.30010 -0.11530
H3 H 0.06970 -0.25790 -0.11950
H4 H 0.19000 -0.17930 -0.31220
#END
