
#######################################################################
#
#                 Cambridge Crystallographic Data Centre
#                                CCDC
#
#######################################################################
#
# If this CIF has been generated from an entry in the Cambridge
# Structural Database, then it will include bibliographic, chemical,
# crystal, experimental, refinement or atomic coordinate data resulting
# from the CCDC's data processing and validation procedures.
#
#######################################################################

data_CSD_CIF_UREAOH
_audit_creation_date 1971-12-31
_audit_creation_method CSD-ConQuest-V1
_database_code_CSD UREAOH
_database_code_depnum_ccdc_archive 'CCDC 1278480'
_chemical_formula_sum 'C1 H4 N2 O2'
_chemical_formula_moiety
;
C1 H4 N2 O2
;
_journal_coden_Cambridge 3
_journal_volume 20
_journal_year 1966
_journal_page_first 983
_journal_name_full 'Acta Chem.Scand. '
loop_
_publ_author_name
"I.K.Larsen"
"B.Jerslev"
_chemical_name_systematic
;
N-Hydroxyurea
;
_chemical_name_common
;
Droxia; Hydrea; Litalir; Onco-Carbide; DrugBank: DB01005
;
_cell_volume    311.176
_exptl_crystal_density_diffrn 1.625
_exptl_special_details
;
antineoplastic agent

;
_diffrn_ambient_temperature ?
_diffrn_special_details
;
The study was carried out at room temperature,in the range 283-303K

;
#These two values have been output from a single CSD field.
_refine_ls_R_factor_gt 0.093
_refine_ls_wR_factor_gt 0.093
_symmetry_cell_setting monoclinic
_symmetry_space_group_name_H-M 'P 21/c'
_symmetry_Int_Tables_number 14
loop_
_symmetry_equiv_pos_site_id
_symmetry_equiv_pos_as_xyz
1 x,y,z
2 -x,1/2+y,1/2-z
3 -x,-y,-z
4 x,-1/2-y,-1/2+z
_cell_length_a 8.46
_cell_length_b 4.89
_cell_length_c 8.86
_cell_angle_alpha 90
_cell_angle_beta 121.9
_cell_angle_gamma 90
_cell_formula_units_Z 4
loop_
_atom_type_symbol
_atom_type_radius_bond
C 0.68
H 0.20
N 0.68
O 0.68
loop_
_atom_site_label
_atom_site_type_symbol
_atom_site_fract_x
_atom_site_fract_y
_atom_site_fract_z
C1 C 0.22520 -0.47400 0.47350
H1 H 0.29900 -0.66400 0.79700
H2 H 0.42200 -0.79700 0.60300
H3 H 0.18600 -0.20800 0.61500
H4 H 0.04500 -0.18100 0.40000
N1 N 0.34170 -0.62220 0.61670
N2 N 0.14500 -0.25710 0.49470
O1 O 0.37490 -0.53920 0.78320
O2 O 0.19880 -0.54910 0.32520
#END
