
#######################################################################
#
#                 Cambridge Crystallographic Data Centre
#                                CCDC
#
#######################################################################
#
# If this CIF has been generated from an entry in the Cambridge
# Structural Database, then it will include bibliographic, chemical,
# crystal, experimental, refinement or atomic coordinate data resulting
# from the CCDC's data processing and validation procedures.
#
#######################################################################

data_CSD_CIF_UREAOH01
_audit_creation_date 1971-12-31
_audit_creation_method CSD-ConQuest-V1
_database_code_CSD UREAOH01
_database_code_depnum_ccdc_archive 'CCDC 1278481'
_chemical_formula_sum 'C1 H4 N2 O2'
_chemical_formula_moiety
;
C1 H4 N2 O2
;
_journal_coeditor_code "IUCr A05631"
_journal_coden_Cambridge 1
_journal_volume 23
_journal_year 1967
_journal_page_first 180
_journal_name_full 'Acta Crystallogr. '
loop_
_publ_author_name
"H.Berman"
"S.H.Kim"
_chemical_name_systematic
;
N-Hydroxyurea
;
_chemical_name_common
;
Droxia; Hydrea; Litalir; Onco-Carbide; DrugBank: DB01005
;
_cell_volume    309.933
_exptl_crystal_density_diffrn 1.63
_exptl_special_details
;
antineoplastic agent

;
_diffrn_ambient_temperature ?
_diffrn_special_details
;
The study was carried out at room temperature,in the range 283-303K

;
#These two values have been output from a single CSD field.
_refine_ls_R_factor_gt 0.05
_refine_ls_wR_factor_gt 0.05
_symmetry_cell_setting monoclinic
_symmetry_space_group_name_H-M 'P 21/c'
_symmetry_Int_Tables_number 14
loop_
_symmetry_equiv_pos_site_id
_symmetry_equiv_pos_as_xyz
1 x,y,z
2 -x,1/2+y,1/2-z
3 -x,-y,-z
4 x,-1/2-y,-1/2+z
_cell_length_a 8.393(8)
_cell_length_b 4.907(5)
_cell_length_c 8.798(8)
_cell_angle_alpha 90
_cell_angle_beta 121.2
_cell_angle_gamma 90
_cell_formula_units_Z 4
loop_
_atom_type_symbol
_atom_type_radius_bond
C 0.68
H 0.20
N 0.68
O 0.68
loop_
_atom_site_label
_atom_site_type_symbol
_atom_site_fract_x
_atom_site_fract_y
_atom_site_fract_z
C1 C 0.27380 0.02550 0.02690
H1 H 0.21000 -0.17500 -0.31000
H2 H 0.07500 -0.22500 -0.10000
H3 H 0.30000 0.30500 -0.12000
H4 H 0.47500 0.33500 0.12500
N1 N 0.15980 -0.12190 -0.11660
N2 N 0.35610 0.24360 0.00610
O1 O 0.12520 -0.03810 -0.28270
O2 O 0.30220 -0.04910 0.17520
#END
