
#######################################################################
#
#                 Cambridge Crystallographic Data Centre
#                                CCDC
#
#######################################################################
#
# If this CIF has been generated from an entry in the Cambridge
# Structural Database, then it will include bibliographic, chemical,
# crystal, experimental, refinement or atomic coordinate data resulting
# from the CCDC's data processing and validation procedures.
#
#######################################################################

data_CSD_CIF_UREDOL
_audit_creation_date 2011-06-16
_audit_creation_method CSD-ConQuest-V1
_database_code_CSD UREDOL
_database_code_depnum_ccdc_archive 'CCDC 825464'
_chemical_formula_sum 'C15 H14 N4 O6'
_chemical_formula_moiety
;
C15 H14 N4 O6
;
_journal_coeditor_code "IUCr PV2405"
_journal_coden_Cambridge 1370
_journal_volume 67
_journal_year 2011
_journal_page_first o1169
_journal_name_full 'Acta Crystallogr.,Sect.E:Struct.Rep.Online '
loop_
_publ_author_name
"Xianrong Xin"
"Min Li"
"Zhimin Chen"
"Ruitao Zhu"
_chemical_name_systematic
;
1-(2,3-Dimethoxybenzylidene)-2-(2,4-dinitrophenyl)hydrazine
;
_cell_volume    780.845
_exptl_crystal_colour 'orange'
_exptl_crystal_density_diffrn 1.473
_exptl_crystal_description 'block'
_exptl_crystal_preparation 'ethanol'
_diffrn_ambient_temperature 298
#These two values have been output from a single CSD field.
_refine_ls_R_factor_gt 0.0633
_refine_ls_wR_factor_gt 0.0633
_symmetry_cell_setting triclinic
_symmetry_space_group_name_H-M 'P -1'
_symmetry_Int_Tables_number 2
loop_
_symmetry_equiv_pos_site_id
_symmetry_equiv_pos_as_xyz
1 x,y,z
2 -x,-y,-z
_cell_length_a 7.8409(8)
_cell_length_b 7.9200(9)
_cell_length_c 13.8961(14)
_cell_angle_alpha 85.038(2)
_cell_angle_beta 82.773(1)
_cell_angle_gamma 65.894(1)
_cell_formula_units_Z 2
loop_
_atom_type_symbol
_atom_type_radius_bond
C 0.68
H 0.23
N 0.68
O 0.68
loop_
_atom_site_label
_atom_site_type_symbol
_atom_site_fract_x
_atom_site_fract_y
_atom_site_fract_z
N1 N 0.6288(3) 0.1887(3) 0.55122(17)
H1 H 0.72900 0.19950 0.52430
N2 N 0.4685(3) 0.2598(3) 0.50406(17)
N3 N 0.9691(3) 0.0341(4) 0.6504(3)
N4 N 0.6248(5) -0.1660(4) 0.9164(2)
O1 O 0.9777(3) 0.1238(4) 0.57412(19)
O2 O 1.1061(3) -0.0474(4) 0.6963(2)
O3 O 0.7741(4) -0.2406(4) 0.9539(2)
O4 O 0.4763(4) -0.1674(4) 0.95499(18)
O5 O 0.5156(3) 0.5336(3) 0.25258(14)
O6 O 0.2347(3) 0.6845(3) 0.13346(16)
C1 C 0.6302(3) 0.1025(3) 0.6391(2)
C2 C 0.7926(3) 0.0256(4) 0.6903(2)
C3 C 0.7883(4) -0.0608(4) 0.7802(2)
H2 H 0.89560 -0.10940 0.81300
C4 C 0.6287(4) -0.0754(4) 0.8214(2)
C5 C 0.4661(4) -0.0033(4) 0.7723(2)
H3 H 0.35670 -0.01360 0.80080
C6 C 0.4688(4) 0.0809(4) 0.6841(2)
H4 H 0.36090 0.12600 0.65180
C7 C 0.4850(4) 0.3361(4) 0.4206(2)
H5 H 0.60000 0.33940 0.39680
C8 C 0.3275(4) 0.4181(4) 0.3620(2)
C9 C 0.3505(4) 0.5101(4) 0.2741(2)
C10 C 0.2012(4) 0.5909(4) 0.2156(2)
C11 C 0.0346(4) 0.5735(4) 0.2461(2)
H6 H -0.06430 0.62400 0.20740
C12 C 0.0117(4) 0.4825(4) 0.3330(3)
H7 H -0.10260 0.47400 0.35250
C13 C 0.1564(4) 0.4046(4) 0.3907(2)
H8 H 0.14040 0.34280 0.44880
C14 C 0.6191(4) 0.4797(5) 0.1608(2)
H9 H 0.57710 0.39910 0.13230
H10 H 0.75030 0.41590 0.16910
H11 H 0.59980 0.58770 0.11900
C15 C 0.0951(5) 0.7525(5) 0.0675(3)
H12 H 0.07180 0.65160 0.04720
H13 H 0.13780 0.81070 0.01180
H14 H -0.01870 0.84120 0.09870
#END
