
#######################################################################
#
#                 Cambridge Crystallographic Data Centre
#                                CCDC
#
#######################################################################
#
# If this CIF has been generated from an entry in the Cambridge
# Structural Database, then it will include bibliographic, chemical,
# crystal, experimental, refinement or atomic coordinate data resulting
# from the CCDC's data processing and validation procedures.
#
#######################################################################

data_CSD_CIF_UREMUA
_audit_creation_date 2011-06-24
_audit_creation_method CSD-ConQuest-V1
_database_code_CSD UREMUA
_database_code_depnum_ccdc_archive 'CCDC 825501'
_chemical_formula_sum 'C13 H12 N2 O6'
_chemical_formula_moiety
;
C13 H12 N2 O6
;
_journal_coeditor_code "IUCr BV2184"
_journal_coden_Cambridge 1370
_journal_volume 67
_journal_year 2011
_journal_page_first o1216
_journal_name_full 'Acta Crystallogr.,Sect.E:Struct.Rep.Online '
loop_
_publ_author_name
"Yu-xin He"
"Jin-wei Wu"
"Rong-sheng Tong"
"Jian-you Shi"
_chemical_name_systematic
;
2,2-Dimethyl-5-(((2-nitrophenyl)amino)methylene)-1,3-dioxane-4,6-dione
;
_chemical_name_common
;
2,2-Dimethyl-5-[(2-nitroanilino)methylidene]-1,3-dioxane-4,6-dione
;
_cell_volume   1324.439
_exptl_crystal_colour 'colorless'
_exptl_crystal_density_diffrn 1.466
_exptl_crystal_description 'block'
_diffrn_ambient_temperature 150
#These two values have been output from a single CSD field.
_refine_ls_R_factor_gt 0.0379
_refine_ls_wR_factor_gt 0.0379
_symmetry_cell_setting monoclinic
_symmetry_space_group_name_H-M 'P 21/c'
_symmetry_Int_Tables_number 14
loop_
_symmetry_equiv_pos_site_id
_symmetry_equiv_pos_as_xyz
1 x,y,z
2 -x,1/2+y,1/2-z
3 -x,-y,-z
4 x,-1/2-y,-1/2+z
_cell_length_a 6.3860(2)
_cell_length_b 17.3800(5)
_cell_length_c 11.9338(3)
_cell_angle_alpha 90
_cell_angle_beta 90.622(3)
_cell_angle_gamma 90
_cell_formula_units_Z 4
loop_
_atom_type_symbol
_atom_type_radius_bond
C 0.68
H 0.23
N 0.68
O 0.68
loop_
_atom_site_label
_atom_site_type_symbol
_atom_site_fract_x
_atom_site_fract_y
_atom_site_fract_z
O1 O 0.38713(16) 0.72407(6) 0.58099(8)
O2 O 0.14846(17) 0.64025(6) 0.66934(8)
O3 O 0.57240(17) 0.68777(6) 0.43461(9)
O4 O 0.10877(16) 0.51978(6) 0.61477(8)
O5 O 0.7590(2) 0.62314(7) 0.21713(11)
O6 O 0.9663(2) 0.55108(8) 0.12201(10)
N1 N 0.45628(19) 0.55433(7) 0.32793(9)
H1 H 0.53900 0.59480 0.32410
N2 N 0.7992(2) 0.56246(8) 0.16919(10)
C1 C 0.1846(2) 0.71834(8) 0.63308(12)
C2 C 0.4337(2) 0.67221(8) 0.49964(11)
C3 C 0.3173(2) 0.60086(8) 0.50100(11)
C4 C 0.1833(2) 0.58240(8) 0.59513(11)
C5 C 0.1985(3) 0.76619(10) 0.73797(13)
H2 H 0.31320 0.74720 0.78560
H3 H 0.06640 0.76260 0.77870
H4 H 0.22490 0.82000 0.71800
C6 C 0.0136(3) 0.7432(1) 0.55292(13)
H5 H 0.00980 0.70840 0.48840
H6 H 0.04130 0.79580 0.52730
H7 H -0.12150 0.74170 0.59100
C7 C 0.3356(2) 0.54685(8) 0.41734(12)
H8 H 0.25630 0.50090 0.42400
C8 C 0.4737(2) 0.50006(8) 0.24088(12)
C9 C 0.6411(2) 0.50180(8) 0.16525(12)
C10 C 0.6632(3) 0.44616(9) 0.08294(12)
H9 H 0.77840 0.44820 0.03330
C11 C 0.5182(3) 0.38812(9) 0.07327(13)
H10 H 0.53280 0.34980 0.01710
C12 C 0.3506(3) 0.38574(9) 0.14598(14)
H11 H 0.25030 0.34560 0.13940
C13 C 0.3277(2) 0.44111(9) 0.22799(13)
H12 H 0.21050 0.43900 0.27630
#END
