
#######################################################################
#
#                 Cambridge Crystallographic Data Centre
#                                CCDC
#
#######################################################################
#
# If this CIF has been generated from an entry in the Cambridge
# Structural Database, then it will include bibliographic, chemical,
# crystal, experimental, refinement or atomic coordinate data resulting
# from the CCDC's data processing and validation procedures.
#
#######################################################################

data_CSD_CIF_UREXOF
_audit_creation_date 2011-06-30
_audit_creation_method CSD-ConQuest-V1
_database_code_CSD UREXOF
_database_code_depnum_ccdc_archive 'CCDC 825544'
_chemical_formula_sum 'C12 H13 N3 O6'
_chemical_formula_moiety
;
C12 H13 N3 O6
;
_journal_coeditor_code "IUCr HQ2002"
_journal_coden_Cambridge 1370
_journal_volume 67
_journal_year 2011
_journal_page_first o1276
_journal_name_full 'Acta Crystallogr.,Sect.E:Struct.Rep.Online '
loop_
_publ_author_name
"J.Muthukumaran"
"A.Parthiban"
"P.Manivel"
"H.S.P.Rao"
"R.Krishna"
_chemical_name_systematic
;
6-Methoxy-N-methyl-3-nitro-4-(nitromethyl)-4H-chromen-2-amine
;
_cell_volume   1285.591
_exptl_crystal_colour 'colorless'
_exptl_crystal_density_diffrn 1.525
_exptl_crystal_description 'block'
_diffrn_ambient_temperature 293
#These two values have been output from a single CSD field.
_refine_ls_R_factor_gt 0.0409
_refine_ls_wR_factor_gt 0.0409
_symmetry_cell_setting monoclinic
_symmetry_space_group_name_H-M 'P 21/n'
_symmetry_Int_Tables_number 14
loop_
_symmetry_equiv_pos_site_id
_symmetry_equiv_pos_as_xyz
1 x,y,z
2 1/2-x,1/2+y,1/2-z
3 -x,-y,-z
4 -1/2+x,-1/2-y,-1/2+z
_cell_length_a 6.8354(2)
_cell_length_b 9.4363(2)
_cell_length_c 19.9332(4)
_cell_angle_alpha 90
_cell_angle_beta 90.777(2)
_cell_angle_gamma 90
_cell_formula_units_Z 4
loop_
_atom_type_symbol
_atom_type_radius_bond
C 0.68
H 0.23
N 0.68
O 0.68
loop_
_atom_site_label
_atom_site_type_symbol
_atom_site_fract_x
_atom_site_fract_y
_atom_site_fract_z
C1 C 0.2620(2) 0.61723(15) -0.00254(7)
C2 C 0.2708(2) 0.58244(17) -0.06949(8)
H1 H 0.25940 0.48840 -0.08300
C3 C 0.2967(2) 0.68797(18) -0.11657(8)
H2 H 0.30190 0.66560 -0.16200
C4 C 0.3149(2) 0.82767(17) -0.09555(8)
C5 C 0.3093(2) 0.85951(17) -0.02791(7)
H3 H 0.32390 0.95320 -0.01420
C6 C 0.2826(2) 0.75487(16) 0.01994(7)
C7 C 0.2766(2) 0.78954(16) 0.09386(7)
H4 H 0.39390 0.84530 0.10450
C8 C 0.2891(2) 0.65553(16) 0.13472(7)
C9 C 0.2506(2) 0.52117(16) 0.10765(7)
C10 C 0.2007(2) 0.26444(16) 0.10926(9)
H5 H 0.07980 0.26550 0.08420
H6 H 0.19500 0.19280 0.14340
H7 H 0.30670 0.24420 0.07960
C11 C 0.0974(3) 0.88254(16) 0.11164(8)
H8 H 0.11190 0.91710 0.15730
H9 H 0.09160 0.96380 0.08190
C12 C 0.3430(3) 0.9162(2) -0.20753(8)
H10 H 0.44980 0.85430 -0.21800
H11 H 0.35850 1.00450 -0.23080
H12 H 0.22190 0.87280 -0.22130
N1 N 0.2318(2) 0.40166(13) 0.14032(6)
H13 H 0.23830 0.40480 0.18340
N2 N 0.3329(2) 0.67051(14) 0.20171(6)
N3 N -0.0864(2) 0.80035(15) 0.10518(7)
O1 O 0.22704(16) 0.50418(11) 0.04132(5)
O2 O 0.3398(2) 0.56472(13) 0.24035(5)
O3 O 0.3669(2) 0.79190(12) 0.22406(6)
O4 O -0.1438(2) 0.73633(16) 0.15375(8)
O5 O -0.1686(2) 0.79552(16) 0.05057(7)
O6 O 0.34105(19) 0.94142(13) -0.13716(6)
#END
