
#######################################################################
#
#                 Cambridge Crystallographic Data Centre
#                                CCDC
#
#######################################################################
#
# If this CIF has been generated from an entry in the Cambridge
# Structural Database, then it will include bibliographic, chemical,
# crystal, experimental, refinement or atomic coordinate data resulting
# from the CCDC's data processing and validation procedures.
#
#######################################################################

data_CSD_CIF_URIBUT
_audit_creation_date 2011-06-30
_audit_creation_method CSD-ConQuest-V1
_database_code_CSD URIBUT
_database_code_depnum_ccdc_archive 'CCDC 773825'
_chemical_formula_sum 'C10 H15 N1 O4'
_chemical_formula_moiety
;
C10 H15 N1 O4
;
_journal_coeditor_code "IUCr OM2422"
_journal_coden_Cambridge 1370
_journal_volume 67
_journal_year 2011
_journal_page_first o1245
_journal_name_full 'Acta Crystallogr.,Sect.E:Struct.Rep.Online '
loop_
_publ_author_name
"B.A.Moosa"
"A.Fazal"
"S.A.Ali"
"M.Fettouhi"
_chemical_name_systematic
;
Methyl 3,10-dioxa-2-azatricyclo[6.2.1.0^2,6^]undecane-4-carboxylate
;
_cell_volume   1028.506
_exptl_crystal_colour 'colorless'
_exptl_crystal_density_diffrn 1.377
_exptl_crystal_description 'block'
_diffrn_ambient_temperature 294
#These two values have been output from a single CSD field.
_refine_ls_R_factor_gt 0.0568
_refine_ls_wR_factor_gt 0.0568
_symmetry_cell_setting monoclinic
_symmetry_space_group_name_H-M 'P 21/c'
_symmetry_Int_Tables_number 14
loop_
_symmetry_equiv_pos_site_id
_symmetry_equiv_pos_as_xyz
1 x,y,z
2 -x,1/2+y,1/2-z
3 -x,-y,-z
4 x,-1/2-y,-1/2+z
_cell_length_a 11.213(3)
_cell_length_b 7.1075(18)
_cell_length_c 12.910(3)
_cell_angle_alpha 90
_cell_angle_beta 91.546(5)
_cell_angle_gamma 90
_cell_formula_units_Z 4
loop_
_atom_type_symbol
_atom_type_radius_bond
C 0.68
H 0.23
N 0.68
O 0.68
loop_
_atom_site_label
_atom_site_type_symbol
_atom_site_fract_x
_atom_site_fract_y
_atom_site_fract_z
N1 N 0.14231(14) 0.9997(2) 0.39231(12)
O1 O 0.43183(15) 0.7626(3) 0.60910(14)
O2 O 0.24093(17) 0.6880(3) 0.59172(15)
O3 O 0.23751(14) 0.86158(19) 0.40074(11)
O4 O 0.26276(13) 1.22561(19) 0.29897(11)
C1 C 0.4428(3) 0.6375(5) 0.6972(2)
H1 H 0.38340 0.66870 0.74650
H2 H 0.52070 0.65070 0.72900
H3 H 0.43160 0.50990 0.67450
C2 C 0.3263(2) 0.7726(3) 0.56322(17)
C3 C 0.3243(2) 0.9186(3) 0.47749(16)
C4 C 0.2854(2) 1.1087(3) 0.51816(18)
C5 C 0.15285(19) 1.1108(3) 0.48841(15)
C6 C 0.0935(2) 1.3043(3) 0.47755(17)
C7 C 0.1024(2) 1.3900(3) 0.36965(17)
C8 C 0.0548(2) 1.2468(3) 0.29092(19)
C9 C 0.15798(18) 1.1088(3) 0.29848(15)
C10 C 0.2287(2) 1.4113(3) 0.3337(2)
H4 H 0.400(2) 0.929(3) 0.4479(16)
H5 H 0.3284(19) 1.202(3) 0.4850(17)
H6 H 0.301(2) 1.116(3) 0.590(2)
H7 H 0.1119(18) 1.042(3) 0.5399(16)
H8 H 0.011(2) 1.290(3) 0.4920(18)
H9 H 0.1310(19) 1.383(3) 0.5271(17)
H10 H 0.061(2) 1.508(4) 0.3653(17)
H11 H -0.020(2) 1.189(3) 0.3108(17)
H12 H 0.050(2) 1.304(4) 0.220(2)
H13 H 0.1645(16) 1.018(3) 0.2423(15)
H14 H 0.235(2) 1.501(4) 0.2774(19)
H15 H 0.284(2) 1.451(3) 0.3903(18)
#END
