
#######################################################################
#
#                 Cambridge Crystallographic Data Centre
#                                CCDC
#
#######################################################################
#
# If this CIF has been generated from an entry in the Cambridge
# Structural Database, then it will include bibliographic, chemical,
# crystal, experimental, refinement or atomic coordinate data resulting
# from the CCDC's data processing and validation procedures.
#
#######################################################################

data_CSD_CIF_UROJOC
_audit_creation_date 2016-07-05
_audit_creation_method CSD-ConQuest-V1
_database_code_CSD UROJOC
_database_code_depnum_ccdc_archive 'CCDC 933771'
_chemical_formula_sum 'C32 H43 N3 O7'
_chemical_formula_moiety
;
C32 H43 N3 O7
;
_journal_coden_Cambridge 35
_journal_volume 78
_journal_year 2013
_journal_page_first 8502
_journal_name_full 'J.Org.Chem. '
loop_
_publ_author_name
"S.Biswas"
"N.E.Abo-Dya"
"A.Oliferenko"
"A.Khiabani"
"P.J.Steel"
"K.A.Alamry"
"A.R.Katritzky"
_chemical_name_systematic
;
t-butyl 
N-(((2-(((9H-fluoren-9-ylmethoxy)carbonyl)amino)-4-methylpentanoyl)oxy)(methyl
)carbamoyl)valinate
;
_cell_volume   3124.825
_exptl_crystal_colour 'colorless'
_exptl_crystal_density_diffrn 1.236
_exptl_special_details
;
Absolute configuration

;
_exptl_crystal_description 'block'
_diffrn_ambient_temperature 120
#These two values have been output from a single CSD field.
_refine_ls_R_factor_gt 0.0354
_refine_ls_wR_factor_gt 0.0354
_symmetry_cell_setting orthorhombic
_symmetry_space_group_name_H-M 'P 21 21 21'
_symmetry_Int_Tables_number 19
loop_
_symmetry_equiv_pos_site_id
_symmetry_equiv_pos_as_xyz
1 x,y,z
2 1/2-x,-y,1/2+z
3 -x,1/2+y,1/2-z
4 1/2+x,1/2-y,-z
_cell_length_a 7.89551(9)
_cell_length_b 17.34558(16)
_cell_length_c 22.8169(2)
_cell_angle_alpha 90
_cell_angle_beta 90
_cell_angle_gamma 90
_cell_formula_units_Z 4
loop_
_atom_type_symbol
_atom_type_radius_bond
C 0.68
H 0.23
N 0.68
O 0.68
loop_
_atom_site_label
_atom_site_type_symbol
_atom_site_fract_x
_atom_site_fract_y
_atom_site_fract_z
N1 N -0.14751(19) 0.87276(8) 0.19631(6)
H1 H -0.10310 0.83280 0.21500
C1 C -0.2502(2) 0.92786(9) 0.22793(7)
H2 H -0.33250 0.95050 0.20080
O1 O -0.0068(2) 0.98546(9) 0.27636(7)
C2 C -0.1392(3) 0.99204(10) 0.25269(8)
O2 O -0.22182(19) 1.06143(7) 0.24396(5)
N2 N -0.1444(3) 1.12456(10) 0.27375(8)
C3 C -0.0255(2) 1.16495(9) 0.24312(7)
O3 O 0.03702(19) 1.22127(8) 0.26605(6)
N3 N 0.0206(2) 1.13891(8) 0.18992(6)
H3 H -0.03900 1.10210 0.17330
C4 C 0.1427(3) 1.18287(10) 0.15620(7)
H4 H 0.20580 1.21540 0.18370
C5 C 0.0534(2) 1.23597(9) 0.11313(8)
O4 O -0.09108(17) 1.22860(8) 0.09744(6)
C6 C -0.3463(2) 0.89087(10) 0.27929(7)
H5 H -0.26500 0.86420 0.30390
H6 H -0.39610 0.93170 0.30260
C7 C -0.4867(2) 0.83387(9) 0.26259(8)
H7 H -0.43610 0.79220 0.23950
C8 C -0.5630(3) 0.79905(11) 0.31816(9)
H8 H -0.47490 0.77580 0.34110
H9 H -0.64500 0.76060 0.30770
H10 H -0.61710 0.83890 0.34060
C9 C -0.6266(3) 0.87101(12) 0.22627(9)
H11 H -0.71110 0.83310 0.21700
H12 H -0.57950 0.89120 0.19060
H13 H -0.67740 0.91220 0.24820
C10 C -0.2176(4) 1.14323(18) 0.32521(12)
H14 H -0.17810 1.19300 0.33760
H15 H -0.18840 1.10540 0.35420
H16 H -0.33840 1.14460 0.32050
C11 C 0.2723(3) 1.13175(10) 0.12389(8)
H17 H 0.35980 1.16610 0.10820
C12 C 0.1955(3) 1.08892(11) 0.07204(9)
H18 H 0.28100 1.05810 0.05350
H19 H 0.15140 1.12550 0.04440
H20 H 0.10540 1.05620 0.08560
C13 C 0.3594(4) 1.07694(15) 0.16595(11)
H21 H 0.43960 1.04590 0.14490
H22 H 0.27640 1.04420 0.18400
H23 H 0.41740 1.10600 0.19560
O5 O 0.16213(16) 1.29017(7) 0.09515(5)
C14 C 0.1114(2) 1.34835(10) 0.05048(8)
C15 C -0.0368(3) 1.39526(12) 0.07319(10)
H24 H -0.13540 1.36300 0.07570
H25 H -0.05870 1.43730 0.04690
H26 H -0.01020 1.41510 0.11140
C16 C 0.2703(3) 1.39716(12) 0.04535(10)
H27 H 0.36180 1.36590 0.03100
H28 H 0.29950 1.41750 0.08320
H29 H 0.25030 1.43890 0.01860
C17 C 0.0732(3) 1.30834(11) -0.00712(8)
H30 H 0.17060 1.27940 -0.01940
H31 H 0.04600 1.34620 -0.03630
H32 H -0.02110 1.27410 -0.00210
C18 C -0.0695(2) 0.89813(10) 0.14728(7)
O6 O -0.08721(19) 0.96284(7) 0.12761(6)
O7 O 0.02788(16) 0.84290(7) 0.12288(5)
C19 C 0.1098(2) 0.86328(10) 0.06779(7)
H33 H 0.21990 0.83870 0.06570
H34 H 0.12660 0.91860 0.06620
C20 C 0.0020(2) 0.83775(9) 0.01582(7)
H35 H -0.11640 0.85160 0.02310
C21 C 0.0582(2) 0.87278(10) -0.04200(7)
C22 C 0.0804(3) 0.94972(10) -0.05633(8)
H36 H 0.05540 0.98840 -0.02940
C23 C 0.1411(3) 0.96784(13) -0.11219(9)
H37 H 0.15700 1.01920 -0.12240
C24 C 0.1780(3) 0.91085(13) -0.15238(9)
H38 H 0.21980 0.92410 -0.18910
C25 C 0.1534(2) 0.83432(13) -0.13844(8)
H39 H 0.17750 0.79590 -0.16560
C26 C 0.0920(2) 0.81546(10) -0.08314(7)
C27 C 0.0624(2) 0.74023(10) -0.05566(8)
C28 C 0.0814(2) 0.66578(11) -0.07730(9)
H40 H 0.11100 0.65760 -0.11630
C29 C 0.0556(3) 0.60396(11) -0.03999(10)
H41 H 0.06830 0.55390 -0.05400
C30 C 0.0109(3) 0.61607(11) 0.01835(11)
H42 H -0.00450 0.57400 0.04310
C31 C -0.0111(2) 0.69023(10) 0.03993(9)
H43 H -0.04140 0.69820 0.07880
C32 C 0.0129(2) 0.75215(10) 0.00258(8)
#END
