
#######################################################################
#
#                 Cambridge Crystallographic Data Centre
#                                CCDC
#
#######################################################################
#
# If this CIF has been generated from an entry in the Cambridge
# Structural Database, then it will include bibliographic, chemical,
# crystal, experimental, refinement or atomic coordinate data resulting
# from the CCDC's data processing and validation procedures.
#
#######################################################################

data_CSD_CIF_USAGEB
_audit_creation_date 2011-07-21
_audit_creation_method CSD-ConQuest-V1
_database_code_CSD USAGEB
_database_code_depnum_ccdc_archive 'CCDC 782974'
_chemical_formula_sum 'C30 H24 N2 O6'
_chemical_formula_moiety
;
C30 H24 N2 O6
;
_journal_coden_Cambridge 24
_journal_volume 52
_journal_year 2011
_journal_page_first 148
_journal_name_full 'Tetrahedron Lett. '
loop_
_publ_author_name
"S.Muthusamy"
"R.Ramkumar"
"A.K.Mishra"
_chemical_name_systematic
;
1'-Benzyl-2-(4-methoxyphenyl)-5-(4-nitrophenyl)spiro[1,3-dioxolane-4,3'-indol]
-2'(1'H)-one
;
_cell_volume   1245.897
_exptl_crystal_colour 'colorless'
_exptl_crystal_density_diffrn 1.355
_exptl_crystal_description 'blocks'
_diffrn_ambient_temperature 293
#These two values have been output from a single CSD field.
_refine_ls_R_factor_gt 0.0593
_refine_ls_wR_factor_gt 0.0593
loop_
_citation_database_id_CSD
_citation_special_details
VORDOX "is a stereoisomer of this entry"
_symmetry_cell_setting triclinic
_symmetry_space_group_name_H-M 'P -1'
_symmetry_Int_Tables_number 2
loop_
_symmetry_equiv_pos_site_id
_symmetry_equiv_pos_as_xyz
1 x,y,z
2 -x,-y,-z
_cell_length_a 9.893(3)
_cell_length_b 10.239(3)
_cell_length_c 13.682(4)
_cell_angle_alpha 93.841(6)
_cell_angle_beta 107.830(6)
_cell_angle_gamma 106.626(6)
_cell_formula_units_Z 2
loop_
_atom_type_symbol
_atom_type_radius_bond
C 0.68
H 0.23
N 0.68
O 0.68
loop_
_atom_site_label
_atom_site_type_symbol
_atom_site_fract_x
_atom_site_fract_y
_atom_site_fract_z
O1 O 0.18782(13) 0.71820(13) 0.35051(9)
O2 O 0.24171(16) 0.56901(13) 0.17909(11)
O3 O -0.01615(14) 0.68630(16) 0.20473(10)
N1 N 0.44928(17) 0.76309(16) 0.23219(12)
C1 C 0.09305(18) 0.81608(19) 0.09141(13)
C2 C 0.4924(2) 0.89586(18) 0.29198(13)
N2 N 0.07403(19) 0.8586(2) -0.21574(13)
C3 C 0.0829(2) 0.8440(2) -0.10807(14)
C4 C 0.37383(19) 0.91141(18) 0.31989(12)
C5 C 0.1536(2) 0.95894(19) -0.03174(15)
H1 H 0.19690 1.04480 -0.04720
C6 C 0.1585(2) 0.94339(19) 0.06870(15)
H2 H 0.20670 1.01970 0.12180
O4 O 0.0613(2) 0.75715(19) -0.27496(12)
C7 C 0.24185(19) 0.78271(18) 0.27443(12)
C8 C -0.05455(19) 0.64940(18) 0.36908(13)
C9 C 0.0992(2) 0.8039(2) 0.20161(13)
H3 H 0.08650 0.88680 0.23260
C10 C 0.5399(2) 0.72070(19) 0.08504(15)
C11 C 0.0338(2) 0.6363(2) 0.29985(14)
H4 H 0.02650 0.53920 0.28430
C12 C 0.0227(2) 0.7020(2) 0.01204(14)
H5 H -0.02200 0.61610 0.02670
C13 C 0.3900(2) 1.03357(19) 0.37857(14)
H6 H 0.31010 1.04540 0.39610
C14 C 0.3061(2) 0.68842(18) 0.22097(13)
O5 O 0.0838(2) 0.9728(2) -0.24011(13)
C15 C 0.0188(2) 0.7152(2) -0.08806(15)
H7 H -0.02620 0.63870 -0.14110
C16 C 0.6286(2) 0.9992(2) 0.32299(16)
H8 H 0.70790 0.98850 0.30400
C17 C 0.6435(2) 1.1205(2) 0.38386(17)
H9 H 0.73500 1.19140 0.40680
C18 C 0.5265(3) 1.1378(2) 0.41074(16)
H10 H 0.53900 1.22020 0.45090
O6 O -0.2910(2) 0.6924(2) 0.56537(15)
C19 C -0.0601(3) 0.7771(2) 0.40562(15)
H11 H -0.00880 0.85650 0.38620
C20 C 0.5469(2) 0.7049(2) 0.19540(16)
H12 H 0.52030 0.60720 0.19990
H13 H 0.64960 0.74910 0.24160
C21 C 0.6269(2) 0.6665(2) 0.04311(17)
H14 H 0.69100 0.62510 0.08420
C22 C -0.1403(3) 0.7877(2) 0.46989(17)
H15 H -0.14360 0.87380 0.49320
C23 C -0.2159(2) 0.6715(2) 0.50012(16)
C24 C -0.2111(3) 0.5452(2) 0.4660(2)
H16 H -0.26090 0.46650 0.48690
C25 C -0.1311(3) 0.5354(2) 0.39968(19)
H17 H -0.12960 0.44890 0.37550
C26 C 0.6206(3) 0.6727(2) -0.05844(19)
H18 H 0.67910 0.63470 -0.08540
C27 C -0.3281(3) 0.5899(3) 0.6253(2)
H19 H -0.40800 0.51090 0.58090
H20 H -0.35970 0.62600 0.67790
H21 H -0.24180 0.56290 0.65780
C28 C 0.4463(3) 0.7936(4) -0.0776(2)
H22 H 0.38650 0.83920 -0.11780
C29 C 0.4516(3) 0.7859(3) 0.02366(19)
H23 H 0.39420 0.82560 0.05070
C30 C 0.5288(3) 0.7344(3) -0.1194(2)
H24 H 0.52210 0.73630 -0.18850
#END
