
#######################################################################
#
#                 Cambridge Crystallographic Data Centre
#                                CCDC
#
#######################################################################
#
# If this CIF has been generated from an entry in the Cambridge
# Structural Database, then it will include bibliographic, chemical,
# crystal, experimental, refinement or atomic coordinate data resulting
# from the CCDC's data processing and validation procedures.
#
#######################################################################

data_CSD_CIF_USOTAY
_audit_creation_date 2011-08-02
_audit_creation_method CSD-ConQuest-V1
_database_code_CSD USOTAY
_database_code_depnum_ccdc_archive 'CCDC 795384'
_chemical_formula_sum 'C21 H35 N3 O5'
_chemical_formula_moiety
;
C21 H35 N3 O5
;
_journal_coden_Cambridge 16
_journal_volume 66
_journal_year 2010
_journal_page_first 9733
_journal_name_full 'Tetrahedron '
loop_
_publ_author_name
"Xiao-Wei Chang"
"Qing-Chuan Han"
"Zhi-Gang Jiao"
"Lin-Hong Weng"
"Dan-Wei Zhang"
_chemical_name_systematic
;
N-((1-(Cyclohexylcarbamoyl)cyclopropyl)methoxy)-1-((((2,2-dimethylpropanoyl)am
ino)oxy)methyl)cyclopropanecarboxamide
;
_cell_volume   2270.866
_diffrn_ambient_temperature 293
#These two values have been output from a single CSD field.
_refine_ls_R_factor_gt 0.156
_refine_ls_wR_factor_gt 0.156
_symmetry_cell_setting monoclinic
_symmetry_space_group_name_H-M 'P 21/c'
_symmetry_Int_Tables_number 14
loop_
_symmetry_equiv_pos_site_id
_symmetry_equiv_pos_as_xyz
1 x,y,z
2 -x,1/2+y,1/2-z
3 -x,-y,-z
4 x,-1/2-y,-1/2+z
_cell_length_a 11.395(10)
_cell_length_b 19.923(16)
_cell_length_c 10.806(9)
_cell_angle_alpha 90
_cell_angle_beta 112.230(14)
_cell_angle_gamma 90
_cell_formula_units_Z 4
loop_
_atom_type_symbol
_atom_type_radius_bond
C 0.68
H 0.23
N 0.68
O 0.68
loop_
_atom_site_label
_atom_site_type_symbol
_atom_site_fract_x
_atom_site_fract_y
_atom_site_fract_z
N1 N 0.5805(3) 0.7138(2) 0.5589(3)
H1 H 0.60070 0.67440 0.54090
N2 N 0.3767(4) 0.8597(2) 0.5874(4)
H2 H 0.42930 0.84090 0.55830
N3 N 0.2419(3) 0.9891(2) 0.7720(3)
H3 H 0.24670 0.95200 0.73350
O1 O 0.6025(3) 0.8246(1) 0.5524(3)
O2 O 0.4827(2) 0.7230(1) 0.6041(2)
O3 O 0.2102(3) 0.8480(2) 0.6482(3)
O4 O 0.3863(3) 0.9299(2) 0.6200(4)
O5 O 0.3413(3) 1.0821(1) 0.8730(3)
C1 C 0.7527(6) 0.6943(2) 0.4322(6)
H4 H 0.73890 0.65580 0.47850
H5 H 0.83020 0.68860 0.41780
H6 H 0.68330 0.69890 0.34760
C2 C 0.8716(4) 0.7497(4) 0.6492(5)
H7 H 0.87700 0.78900 0.70250
H8 H 0.94900 0.74450 0.63430
H9 H 0.85830 0.71090 0.69500
C3 C 0.7825(5) 0.8170(2) 0.4414(5)
H10 H 0.78850 0.85690 0.49330
H11 H 0.71270 0.82120 0.35710
H12 H 0.85970 0.81110 0.42640
C4 C 0.7616(3) 0.7571(2) 0.5160(4)
C5 C 0.6424(3) 0.7686(2) 0.5442(4)
C6 C 0.3645(3) 0.7295(2) 0.4931(4)
H13 H 0.33810 0.68650 0.44970
H14 H 0.37280 0.76090 0.42830
C7 C 0.2697(3) 0.7546(2) 0.5466(4)
C8 C 0.2078(4) 0.7048(2) 0.6072(5)
H15 H 0.23450 0.65830 0.61220
H16 H 0.18620 0.71970 0.68140
C9 C 0.1339(4) 0.7329(2) 0.4729(5)
H17 H 0.06760 0.76500 0.46550
H18 H 0.11600 0.70360 0.39630
C10 C 0.2839(4) 0.8243(2) 0.6036(4)
C11 C 0.4655(4) 0.9330(3) 0.7517(5)
H19 H 0.55150 0.92090 0.76360
H20 H 0.43660 0.90370 0.80620
C12 C 0.4565(4) 1.0097(2) 0.7875(4)
C13 C 0.5799(4) 1.0405(2) 0.8745(5)
H21 H 0.57970 1.07030 0.94530
H22 H 0.65590 1.01340 0.89610
C14 C 0.5179(4) 1.0639(2) 0.7363(5)
H23 H 0.55560 1.05120 0.67290
H24 H 0.47940 1.10810 0.72210
C15 C 0.3426(4) 1.0297(2) 0.8134(4)
C16 C 0.1247(3) 1.0048(2) 0.7892(4)
H25 H 0.14670 1.02590 0.87700
C17 C 0.0502(5) 0.9417(2) 0.7875(6)
H26 H 0.10020 0.91260 0.86040
H27 H 0.03340 0.91780 0.70430
C18 C -0.0747(5) 0.9581(3) 0.8013(7)
H28 H -0.12230 0.91700 0.79470
H29 H -0.05750 0.97740 0.88890
C19 C -0.1518(5) 1.0056(4) 0.6975(7)
H30 H -0.22900 1.01620 0.71130
H31 H -0.17500 0.98520 0.61000
C20 C -0.0783(5) 1.0686(3) 0.7035(7)
H32 H -0.05970 1.09040 0.78910
H33 H -0.12900 1.09910 0.63390
C21 C 0.0448(4) 1.0536(3) 0.6854(5)
H34 H 0.02610 1.03490 0.59710
H35 H 0.09180 1.09490 0.69210
#END
