
#######################################################################
#
#                 Cambridge Crystallographic Data Centre
#                                CCDC
#
#######################################################################
#
# If this CIF has been generated from an entry in the Cambridge
# Structural Database, then it will include bibliographic, chemical,
# crystal, experimental, refinement or atomic coordinate data resulting
# from the CCDC's data processing and validation procedures.
#
#######################################################################

data_CSD_CIF_USULOK
_audit_creation_date 2011-08-02
_audit_creation_method CSD-ConQuest-V1
_database_code_CSD USULOK
_database_code_depnum_ccdc_archive 'CCDC 795732'
_chemical_formula_sum 'C12 H13 N1 O5'
_chemical_formula_moiety
;
C12 H13 N1 O5
;
_journal_coden_Cambridge 16
_journal_volume 66
_journal_year 2010
_journal_page_first 9875
_journal_name_full 'Tetrahedron '
loop_
_publ_author_name
"Hsuan-Hao Kuan"
"R.J.Reddy"
"Kwunmin Chen"
_chemical_name_systematic
;
(E)-Ethyl 2-hydroxy-3-nitro-4-phenylbut-3-enoate
;
_cell_volume   1240.389
_exptl_crystal_colour 'colorless'
_exptl_crystal_density_diffrn 1.345
_exptl_crystal_description 'prism'
_diffrn_ambient_temperature 293
#These two values have been output from a single CSD field.
_refine_ls_R_factor_gt 0.0619
_refine_ls_wR_factor_gt 0.0619
_symmetry_cell_setting monoclinic
_symmetry_space_group_name_H-M 'P 21/n'
_symmetry_Int_Tables_number 14
loop_
_symmetry_equiv_pos_site_id
_symmetry_equiv_pos_as_xyz
1 x,y,z
2 1/2-x,1/2+y,1/2-z
3 -x,-y,-z
4 -1/2+x,-1/2-y,-1/2+z
_cell_length_a 10.7256(3)
_cell_length_b 7.6027(2)
_cell_length_c 15.2187(5)
_cell_angle_alpha 90
_cell_angle_beta 91.778(1)
_cell_angle_gamma 90
_cell_formula_units_Z 4
loop_
_atom_type_symbol
_atom_type_radius_bond
C 0.68
H 0.23
N 0.68
O 0.68
loop_
_atom_site_label
_atom_site_type_symbol
_atom_site_fract_x
_atom_site_fract_y
_atom_site_fract_z
C1 C 0.4186(2) 0.3216(3) 0.71245(16)
C2 C 0.4447(2) 0.3435(3) 0.62809(17)
H1 H 0.50210 0.43150 0.61660
C3 C 0.3954(2) 0.2483(3) 0.55124(16)
C4 C 0.4703(3) 0.2328(4) 0.47812(18)
H2 H 0.54930 0.28330 0.48000
C5 C 0.4305(3) 0.1455(4) 0.40401(19)
H3 H 0.48210 0.13700 0.35620
C6 C 0.3141(4) 0.0703(4) 0.4001(2)
H4 H 0.28720 0.00930 0.35000
C7 C 0.2365(3) 0.0855(5) 0.4710(2)
H5 H 0.15750 0.03480 0.46830
C8 C 0.2760(3) 0.1755(4) 0.54570(18)
H6 H 0.22280 0.18750 0.59240
C9 C 0.3368(2) 0.1857(4) 0.75204(16)
H7 H 0.32190 0.09520 0.70710
C10 C 0.3936(3) 0.0937(4) 0.83188(17)
C11 C 0.5729(3) -0.0528(5) 0.8897(2)
H8 H 0.57140 0.01690 0.94300
H9 H 0.53150 -0.16390 0.90040
C12 C 0.7012(3) -0.0841(5) 0.8655(3)
H10 H 0.74470 -0.14560 0.91220
H11 H 0.74170 0.02630 0.85530
H12 H 0.70190 -0.15380 0.81280
N1 N 0.4780(2) 0.4436(3) 0.77582(15)
O1 O 0.4470(2) 0.4316(3) 0.85259(13)
O2 O 0.5528(2) 0.5515(3) 0.75124(15)
O3 O 0.21867(16) 0.2518(3) 0.77433(13)
H13 H 0.21420 0.35640 0.76140
O4 O 0.50838(17) 0.0408(3) 0.81754(11)
O5 O 0.33737(19) 0.0688(3) 0.89802(13)
#END
