
#######################################################################
#
#                 Cambridge Crystallographic Data Centre
#                                CCDC
#
#######################################################################
#
# If this CIF has been generated from an entry in the Cambridge
# Structural Database, then it will include bibliographic, chemical,
# crystal, experimental, refinement or atomic coordinate data resulting
# from the CCDC's data processing and validation procedures.
#
#######################################################################

data_CSD_CIF_USUMEB
_audit_creation_date 2011-08-02
_audit_creation_method CSD-ConQuest-V1
_database_code_CSD USUMEB
_database_code_depnum_ccdc_archive 'CCDC 778304'
_chemical_formula_sum 'C23 H23 N3 O4'
_chemical_formula_moiety
;
C23 H23 N3 O4
;
_journal_coden_Cambridge 16
_journal_volume 66
_journal_year 2010
_journal_page_first 9933
_journal_name_full 'Tetrahedron '
loop_
_publ_author_name
"A.Alizadeh"
"A.Rezvanian"
"Yuan Deng"
_chemical_name_systematic
;
2-(6-Hydroxy-6-(4-methylphenyl)-8-nitro-1,2,3,4-tetrahydropyrrolo[1,2-a]pyrimi
din-7(6H)-ylidene)-1-(4-methylphenyl)ethanone
;
_chemical_melting_point 393.15
_cell_volume   1064.573
_exptl_crystal_colour 'yellow'
_exptl_crystal_density_diffrn 1.265
_exptl_special_details
;
Melts with decomposition.

;
_exptl_crystal_description 'needle'
_diffrn_ambient_temperature 295
#These two values have been output from a single CSD field.
_refine_ls_R_factor_gt 0.0509
_refine_ls_wR_factor_gt 0.0509
_symmetry_cell_setting triclinic
_symmetry_space_group_name_H-M 'P -1'
_symmetry_Int_Tables_number 2
loop_
_symmetry_equiv_pos_site_id
_symmetry_equiv_pos_as_xyz
1 x,y,z
2 -x,-y,-z
_cell_length_a 5.9788(4)
_cell_length_b 10.8688(7)
_cell_length_c 17.1088(12)
_cell_angle_alpha 77.991(1)
_cell_angle_beta 88.607(1)
_cell_angle_gamma 78.278(1)
_cell_formula_units_Z 2
loop_
_atom_type_symbol
_atom_type_radius_bond
C 0.68
H 0.23
N 0.68
O 0.68
loop_
_atom_site_label
_atom_site_type_symbol
_atom_site_fract_x
_atom_site_fract_y
_atom_site_fract_z
N1 N 0.6431(3) 0.26862(18) 0.44865(11)
N2 N 0.3295(3) 0.35405(19) 0.51586(11)
H1 H 0.22120 0.41850 0.51850
N3 N 0.2762(4) 0.56783(19) 0.37083(13)
O1 O 0.1315(3) 0.58211(18) 0.42454(12)
O2 O 0.2685(4) 0.65124(17) 0.30808(12)
O3 O 1.0693(3) 0.3897(2) 0.24972(12)
O4 O 0.9920(3) 0.29992(17) 0.39989(10)
H2 H 1.07040 0.31600 0.36050
C1 C 0.4611(4) 0.3609(2) 0.45367(13)
C2 C 0.4453(4) 0.4600(2) 0.38285(13)
C3 C 0.6373(4) 0.4311(2) 0.33374(13)
C4 C 0.7725(4) 0.2970(2) 0.37536(13)
C5 C 0.3591(5) 0.2414(3) 0.58082(16)
H3 H 0.21060 0.22520 0.59880
H4 H 0.43810 0.25710 0.62550
C6 C 0.4929(5) 0.1272(3) 0.55380(18)
H5 H 0.39850 0.10010 0.51790
H6 H 0.53360 0.05720 0.59970
C7 C 0.7078(5) 0.1544(2) 0.51153(15)
H7 H 0.81430 0.16870 0.54900
H8 H 0.78080 0.08210 0.48880
C8 C 0.6959(4) 0.5038(2) 0.26526(14)
H9 H 0.59200 0.57870 0.24380
C9 C 0.9052(5) 0.4760(2) 0.22213(15)
C10 C 0.9270(5) 0.5564(2) 0.14108(15)
C11 C 0.7447(5) 0.6413(3) 0.09905(16)
H10 H 0.60030 0.65000 0.12130
C12 C 0.7750(6) 0.7135(3) 0.02423(18)
H11 H 0.65000 0.77020 -0.00300
C13 C 0.9845(7) 0.7035(3) -0.01060(18)
C14 C 1.1670(7) 0.6174(4) 0.0314(2)
H12 H 1.31070 0.60820 0.00860
C15 C 1.1396(6) 0.5451(3) 0.10632(19)
H13 H 1.26470 0.48860 0.13350
C16 C 1.0177(8) 0.7832(5) -0.0923(2)
H14 H 0.94790 0.75250 -0.13240
H15 H 1.17800 0.77600 -0.10220
H16 H 0.94810 0.87150 -0.09400
C17 C 0.7703(4) 0.1939(2) 0.32696(13)
C18 C 0.9574(5) 0.0947(2) 0.32795(15)
H17 H 1.08970 0.09340 0.35590
C19 C 0.9496(6) -0.0027(3) 0.28778(17)
H18 H 1.07720 -0.06840 0.28950
C20 C 0.7601(6) -0.0046(2) 0.24589(16)
C21 C 0.5709(5) 0.0945(3) 0.24475(16)
H19 H 0.43890 0.09490 0.21700
C22 C 0.5773(4) 0.1931(2) 0.28486(15)
H20 H 0.44990 0.25900 0.28320
C23 C 0.7505(9) -0.1104(3) 0.2010(2)
H21 H 0.73130 -0.07430 0.14480
H22 H 0.62420 -0.15010 0.21950
H23 H 0.89020 -0.17350 0.21040
#END
