
#######################################################################
#
#                 Cambridge Crystallographic Data Centre
#                                CCDC
#
#######################################################################
#
# If this CIF has been generated from an entry in the Cambridge
# Structural Database, then it will include bibliographic, chemical,
# crystal, experimental, refinement or atomic coordinate data resulting
# from the CCDC's data processing and validation procedures.
#
#######################################################################

data_CSD_CIF_USUMAX
_audit_creation_date 2011-08-02
_audit_creation_method CSD-ConQuest-V1
_database_code_CSD USUMAX
_database_code_depnum_ccdc_archive 'CCDC 778303'
_chemical_formula_sum 'C24 H21 N3 O4'
_chemical_formula_moiety
;
C24 H21 N3 O4
;
_journal_coden_Cambridge 16
_journal_volume 66
_journal_year 2010
_journal_page_first 9933
_journal_name_full 'Tetrahedron '
loop_
_publ_author_name
"A.Alizadeh"
"A.Rezvanian"
"Yuan Deng"
_chemical_name_systematic
;
2-(7-Hydroxy-7-(4-methylphenyl)-9-nitro-3H-pyrrolo[1,2-a][1,3]diazepin-8(7H)-y
lidene)-1-(4-methylphenyl)ethanone
;
_chemical_melting_point 473.15
_cell_volume   1056.064
_exptl_crystal_colour 'yellow'
_exptl_crystal_density_diffrn 1.306
_exptl_special_details
;
Melts with decomposition.

;
_diffrn_ambient_temperature 295
_refine_special_details
;
C14 and C14' disordered over two sites with occupancies 0.666:0.334.

;
#These two values have been output from a single CSD field.
_refine_ls_R_factor_gt 0.0574
_refine_ls_wR_factor_gt 0.0574
_symmetry_cell_setting triclinic
_symmetry_space_group_name_H-M 'P -1'
_symmetry_Int_Tables_number 2
loop_
_symmetry_equiv_pos_site_id
_symmetry_equiv_pos_as_xyz
1 x,y,z
2 -x,-y,-z
_cell_length_a 6.4600(3)
_cell_length_b 10.4517(4)
_cell_length_c 15.7074(7)
_cell_angle_alpha 90.055(1)
_cell_angle_beta 95.165(1)
_cell_angle_gamma 90.993(1)
_cell_formula_units_Z 2
loop_
_atom_type_symbol
_atom_type_radius_bond
C 0.68
H 0.23
N 0.68
O 0.68
loop_
_atom_site_label
_atom_site_type_symbol
_atom_site_fract_x
_atom_site_fract_y
_atom_site_fract_z
O1 O -0.4673(3) 0.96095(18) 0.73713(13)
O2 O 0.1438(3) 0.78177(17) 0.58546(12)
O3 O 0.3489(3) 0.92069(19) 0.53344(12)
O4 O -0.3108(3) 1.15817(17) 0.66865(11)
H1 H -0.39450 1.11550 0.69350
N1 N 0.1984(3) 0.89440(19) 0.57477(11)
N2 N 0.2929(3) 1.1688(2) 0.55242(13)
N3 N 0.0283(3) 1.19549(18) 0.64422(12)
C1 C -0.4290(4) 0.7425(2) 0.76105(15)
C2 C -0.3063(4) 0.6363(3) 0.76909(18)
H2 H -0.17960 0.63650 0.74530
C3 C -0.3688(5) 0.5294(3) 0.8121(2)
H3 H -0.28210 0.45920 0.81720
C4 C -0.5534(5) 0.5239(3) 0.8471(2)
C5 C -0.6783(5) 0.6287(3) 0.8369(2)
H4 H -0.80730 0.62690 0.85890
C6 C -0.6173(4) 0.7364(3) 0.79498(19)
H5 H -0.70490 0.80610 0.78950
C7 C -0.6209(7) 0.4090(4) 0.8959(3)
H6 H -0.65330 0.33910 0.85710
H7 H -0.74180 0.42950 0.92420
H8 H -0.51060 0.38520 0.93770
C8 C -0.3612(3) 0.8666(2) 0.72514(14)
C9 C -0.1794(3) 0.8720(2) 0.67987(14)
H9 H -0.12810 0.79430 0.66280
C10 C -0.0739(3) 0.9794(2) 0.65928(13)
C11 C 0.0964(3) 0.9928(2) 0.60985(13)
C12 C 0.1488(3) 1.1254(2) 0.59940(13)
C13 C 0.3536(6) 1.2982(3) 0.5341(2)
H10 H 0.39830 1.31810 0.48100
C14 C 0.3457(11) 1.3953(6) 0.5965(6)
H11 H 0.40170 1.47390 0.57420
H12 H 0.43540 1.37180 0.64660
C15 C 0.1342(9) 1.4213(4) 0.6234(4)
H13 H 0.08640 1.50480 0.62110
C16 C 0.0148(8) 1.3310(3) 0.6501(4)
H14 H -0.09770 1.35960 0.67740
C17 C -0.1126(3) 1.1152(2) 0.69099(14)
C18 C -0.0484(3) 1.1255(2) 0.78648(13)
C19 C 0.1443(4) 1.0862(2) 0.81825(15)
H15 H 0.23370 1.05150 0.78150
C20 C 0.2070(4) 1.0975(2) 0.90411(16)
H16 H 0.33810 1.06970 0.92460
C21 C 0.0797(5) 1.1490(2) 0.95991(16)
C22 C -0.1120(5) 1.1858(3) 0.92770(17)
H17 H -0.20150 1.22020 0.96450
C23 C -0.1783(4) 1.1740(2) 0.84199(16)
H18 H -0.31130 1.19890 0.82200
C24 C 0.1553(7) 1.1658(3) 1.05246(18)
H19 H 0.26010 1.10400 1.06810
H20 H 0.04110 1.15360 1.08690
H21 H 0.21290 1.25050 1.06160
C25? C 0.2335(18) 1.4027(10) 0.5366(8)
H22? H 0.12280 1.39650 0.49070
H23? H 0.31730 1.47800 0.52610
#END
