
#######################################################################
#
#                 Cambridge Crystallographic Data Centre
#                                CCDC
#
#######################################################################
#
# If this CIF has been generated from an entry in the Cambridge
# Structural Database, then it will include bibliographic, chemical,
# crystal, experimental, refinement or atomic coordinate data resulting
# from the CCDC's data processing and validation procedures.
#
#######################################################################

data_CSD_CIF_UTIKOZ
_audit_creation_date 2016-08-11
_audit_creation_method CSD-ConQuest-V1
_database_code_CSD UTIKOZ
_database_code_depnum_ccdc_archive 'CCDC 1474177'
_chemical_formula_sum 'C24 H24 N2 O9'
_chemical_formula_moiety
;
C24 H24 N2 O9
;
_journal_coden_Cambridge 35
_journal_volume 81
_journal_year 2016
_journal_page_first 6800
_journal_name_full 'J.Org.Chem. '
loop_
_publ_author_name
"D.Kowalczyk"
"L.Albrecht"
_chemical_name_systematic
;
(3R,3aS,9bR)-diethyl 
3-(2-methoxyphenyl)-8-nitro-4-oxo-1,3a,4,9b-tetrahydrochromeno[4,3-b]pyrrole-2
,2(3H)-dicarboxylate
;
_cell_volume   2325.288
_exptl_crystal_colour 'colorless'
_exptl_crystal_density_diffrn 1.384
_exptl_special_details
;
Absolute configuration

;
_exptl_crystal_description 'plate'
_diffrn_ambient_temperature 100
#These two values have been output from a single CSD field.
_refine_ls_R_factor_gt 0.0281
_refine_ls_wR_factor_gt 0.0281
_symmetry_cell_setting orthorhombic
_symmetry_space_group_name_H-M 'P 21 21 21'
_symmetry_Int_Tables_number 19
loop_
_symmetry_equiv_pos_site_id
_symmetry_equiv_pos_as_xyz
1 x,y,z
2 1/2-x,-y,1/2+z
3 -x,1/2+y,1/2-z
4 1/2+x,1/2-y,-z
_cell_length_a 6.7880(1)
_cell_length_b 13.1767(3)
_cell_length_c 25.9973(5)
_cell_angle_alpha 90
_cell_angle_beta 90
_cell_angle_gamma 90
_cell_formula_units_Z 4
loop_
_atom_type_symbol
_atom_type_radius_bond
C 0.68
H 0.23
N 0.68
O 0.68
loop_
_atom_site_label
_atom_site_type_symbol
_atom_site_fract_x
_atom_site_fract_y
_atom_site_fract_z
O1 O 0.22316(19) 0.25570(9) 0.63316(4)
O2 O 0.2013(2) 0.30879(10) 0.71300(5)
O3 O 0.2416(3) 0.39740(12) 0.40355(5)
O4 O 0.2573(2) 0.23530(11) 0.39386(5)
O5 O 0.27753(19) 0.60282(9) 0.72596(4)
O6 O 0.23502(19) 0.73114(9) 0.63245(5)
O7 O 0.55694(19) 0.70772(9) 0.65220(5)
O8 O 0.69516(19) 0.51617(10) 0.56501(5)
O9 O 0.5548(2) 0.66224(9) 0.54000(5)
N1 N 0.2153(2) 0.55586(10) 0.57933(5)
H1 H 0.132(4) 0.6013(19) 0.5886(9)
N2 N 0.2473(2) 0.31145(13) 0.42091(6)
C1 C 0.1362(2) 0.45746(12) 0.59564(6)
H2 H -0.01090 0.46110 0.59670
C2 C 0.1983(2) 0.37180(12) 0.56056(6)
C3 C 0.2118(3) 0.38373(13) 0.50760(6)
H3 H 0.20080 0.44910 0.49250
C4 C 0.2416(3) 0.29860(14) 0.47695(6)
C5 C 0.2574(3) 0.20166(13) 0.49696(7)
H4 H 0.27030 0.14440 0.47500
C6 C 0.2539(3) 0.19042(13) 0.54981(7)
H5 H 0.27000 0.12520 0.56480
C7 C 0.2267(2) 0.27510(12) 0.58091(6)
C8 C 0.2108(2) 0.33302(12) 0.66888(6)
C9 C 0.2145(2) 0.44072(12) 0.64995(6)
H6 H 0.13770 0.48400 0.67430
C10 C 0.4276(2) 0.48287(12) 0.64608(6)
H7 H 0.50550 0.43100 0.62670
C11 C 0.5335(2) 0.49903(12) 0.69658(6)
C12 C 0.7137(3) 0.45141(12) 0.70484(6)
H8 H 0.76760 0.40960 0.67860
C13 C 0.8171(3) 0.46373(14) 0.75084(7)
H9 H 0.94000 0.43070 0.75580
C14 C 0.7390(3) 0.52441(13) 0.78906(6)
H10 H 0.80980 0.53370 0.82020
C15 C 0.5578(3) 0.57204(13) 0.78235(6)
H11 H 0.50420 0.61310 0.80890
C16 C 0.4556(3) 0.55905(12) 0.73638(6)
C17 C 0.1951(3) 0.67076(14) 0.76314(7)
H12 H 0.06830 0.69630 0.75060
H13 H 0.28530 0.72780 0.76860
H14 H 0.17530 0.63470 0.79570
C18 C 0.3983(2) 0.57533(12) 0.60829(6)
C19 C 0.3831(3) 0.68097(13) 0.63322(6)
C20 C 0.5721(3) 0.80739(15) 0.67674(8)
H15 H 0.58600 0.79930 0.71440
H16 H 0.45150 0.84740 0.66990
C21 C 0.7457(4) 0.86030(17) 0.65567(12)
H17 H 0.86260 0.81740 0.65980
H18 H 0.76520 0.92440 0.67410
H19 H 0.72470 0.87420 0.61900
C22 C 0.5691(2) 0.57955(13) 0.56937(6)
C23 C 0.6973(3) 0.67028(15) 0.49816(8)
H20 H 0.82910 0.64910 0.51040
H21 H 0.70600 0.74160 0.48640
C24 C 0.6335(6) 0.6033(2) 0.45416(9)
H22 H 0.50350 0.62500 0.44200
H23 H 0.62640 0.53270 0.46590
H24 H 0.72910 0.60860 0.42600
#END
