
#######################################################################
#
#                 Cambridge Crystallographic Data Centre
#                                CCDC
#
#######################################################################
#
# If this CIF has been generated from an entry in the Cambridge
# Structural Database, then it will include bibliographic, chemical,
# crystal, experimental, refinement or atomic coordinate data resulting
# from the CCDC's data processing and validation procedures.
#
#######################################################################

data_CSD_CIF_UTIZUU
_audit_creation_date 2016-08-11
_audit_creation_method CSD-ConQuest-V1
_database_code_CSD UTIZUU
_database_code_depnum_ccdc_archive 'CCDC 1484248'
_chemical_formula_sum 'C15 H15 N1 O1'
_chemical_formula_moiety
;
C15 H15 N1 O1
;
_journal_coden_Cambridge 1336
_journal_volume 18
_journal_year 2016
_journal_page_first 3043
_journal_name_full 'Org.Lett. '
loop_
_publ_author_name
"S.Pusch"
"D.Schollmeyer"
"T.Opatz"
_chemical_name_systematic
;
5-(cyclohex-1-en-1-yl)-3-phenyl-1,2-oxazole
;
_cell_volume   1173.450
_exptl_crystal_colour 'colorless'
_exptl_crystal_density_diffrn 1.275
_exptl_crystal_description 'needle'
_exptl_crystal_preparation 'Re-crystallisation from solvent'
_diffrn_ambient_temperature 193
#These two values have been output from a single CSD field.
_refine_ls_R_factor_gt 0.0469
_refine_ls_wR_factor_gt 0.0469
_symmetry_cell_setting monoclinic
_symmetry_space_group_name_H-M 'P 21/c'
_symmetry_Int_Tables_number 14
loop_
_symmetry_equiv_pos_site_id
_symmetry_equiv_pos_as_xyz
1 x,y,z
2 -x,1/2+y,1/2-z
3 -x,-y,-z
4 x,-1/2-y,-1/2+z
_cell_length_a 10.7025(10)
_cell_length_b 5.6536(4)
_cell_length_c 19.5304(17)
_cell_angle_alpha 90
_cell_angle_beta 96.790(7)
_cell_angle_gamma 90
_cell_formula_units_Z 4
loop_
_atom_type_symbol
_atom_type_radius_bond
C 0.68
H 0.23
N 0.68
O 0.68
loop_
_atom_site_label
_atom_site_type_symbol
_atom_site_fract_x
_atom_site_fract_y
_atom_site_fract_z
C1 C 0.64479(17) 0.4124(3) 0.45089(8)
C2 C 0.70857(19) 0.6414(3) 0.43950(9)
H1 H 0.65330 0.77330 0.45040
H2 H 0.72120 0.65440 0.39020
C3 C 0.8351(2) 0.6653(4) 0.48342(9)
H3 H 0.89840 0.56800 0.46330
H4 H 0.86300 0.83230 0.48340
C4 C 0.8269(2) 0.5870(4) 0.55666(9)
H5 H 0.76680 0.68980 0.57750
H6 H 0.91040 0.60470 0.58400
C5 C 0.7847(2) 0.3326(4) 0.55970(9)
H7 H 0.85670 0.22760 0.55400
H8 H 0.75820 0.30120 0.60570
C6 C 0.67800(19) 0.2739(3) 0.50549(9)
H9 H 0.63210 0.13220 0.51010
C7 C 0.54009(17) 0.3498(3) 0.39887(8)
C8 C 0.47286(17) 0.4765(3) 0.34850(8)
H10 H 0.48350 0.63820 0.33730
C9 C 0.38338(17) 0.3160(3) 0.31623(8)
N1 N 0.39672(15) 0.1044(3) 0.34378(7)
O1 O 0.49756(13) 0.1243(2) 0.39707(6)
C10 C 0.27817(17) 0.3649(3) 0.26191(8)
C11 C 0.27798(18) 0.5708(3) 0.22283(8)
H11 H 0.34660 0.67800 0.22990
C12 C 0.17690(19) 0.6188(3) 0.17334(9)
H12 H 0.17670 0.75910 0.14650
C13 C 0.07715(19) 0.4647(4) 0.16298(9)
H13 H 0.00840 0.49930 0.12910
C14 C 0.07628(19) 0.2599(4) 0.20149(9)
H14 H 0.00700 0.15400 0.19440
C15 C 0.17768(18) 0.2100(3) 0.25081(9)
H15 H 0.17790 0.06850 0.27700
#END
