
#######################################################################
#
#                 Cambridge Crystallographic Data Centre
#                                CCDC
#
#######################################################################
#
# If this CIF has been generated from an entry in the Cambridge
# Structural Database, then it will include bibliographic, chemical,
# crystal, experimental, refinement or atomic coordinate data resulting
# from the CCDC's data processing and validation procedures.
#
#######################################################################

data_CSD_CIF_UTOHUH
_audit_creation_date 2011-08-04
_audit_creation_method CSD-ConQuest-V1
_database_code_CSD UTOHUH
_database_code_depnum_ccdc_archive 'CCDC 828374'
_chemical_formula_sum 'C11 H12 N2 O4'
_chemical_formula_moiety
;
C11 H12 N2 O4
;
_journal_coden_Cambridge 865
_journal_volume 40
_journal_year 2008
_journal_page_first 62
_journal_name_full 'Phys.Chem.News '
loop_
_publ_author_name
"R.K.Yao"
"Y.M.Yapo"
"A.Ajou"
"A.J.N'Gouan"
"N.Ebby"
_chemical_name_systematic
;
2-Morpholino-5-nitrobenzaldehyde
;
_cell_volume   1103.841
_exptl_crystal_density_diffrn 1.421
_diffrn_ambient_temperature 295
#These two values have been output from a single CSD field.
_refine_ls_R_factor_gt 0.0652
_refine_ls_wR_factor_gt 0.0652
_symmetry_cell_setting monoclinic
_symmetry_space_group_name_H-M 'P 21/n'
_symmetry_Int_Tables_number 14
loop_
_symmetry_equiv_pos_site_id
_symmetry_equiv_pos_as_xyz
1 x,y,z
2 1/2-x,1/2+y,1/2-z
3 -x,-y,-z
4 -1/2+x,-1/2-y,-1/2+z
_cell_length_a 8.419(2)
_cell_length_b 7.437(1)
_cell_length_c 17.758(4)
_cell_angle_alpha 90
_cell_angle_beta 96.888(1)
_cell_angle_gamma 90
_cell_formula_units_Z 4
loop_
_atom_type_symbol
_atom_type_radius_bond
C 0.68
H 0.23
N 0.68
O 0.68
loop_
_atom_site_label
_atom_site_type_symbol
_atom_site_fract_x
_atom_site_fract_y
_atom_site_fract_z
O1 O 0.50927(18) -0.38635(17) 0.57842(8)
O2 O 0.45081(18) -0.19334(19) 0.65834(7)
O3 O 0.12492(19) 0.34408(19) 0.56998(7)
O4 O -0.05551(16) 0.31114(17) 0.22585(6)
N1 N 0.44253(15) -0.24887(16) 0.59407(7)
N2 N 0.07999(14) 0.12899(15) 0.35841(6)
C1 C 0.35125(15) -0.14813(17) 0.53309(7)
C2 C 0.28063(15) 0.01213(17) 0.54931(7)
C3 C 0.18893(14) 0.10413(16) 0.49125(7)
C4 C 0.17223(15) 0.03679(17) 0.41631(7)
C5 C 0.2484(2) -0.1262(2) 0.40284(8)
C6 C 0.33667(19) -0.2180(2) 0.46055(8)
C7 C 0.0957(2) 0.2610(2) 0.51244(8)
C8 C 0.1259(2) 0.3132(2) 0.34155(9)
C9 C -0.0109(3) 0.4049(3) 0.29491(11)
C10 C -0.1031(2) 0.1336(3) 0.24214(10)
C11 C 0.0294(2) 0.0320(2) 0.28774(9)
H1 H 0.2908(18) 0.059(2) 0.6011(9)
H2 H 0.240(2) -0.175(2) 0.3527(10)
H3 H 0.393(2) -0.333(3) 0.4513(11)
H4 H 0.000(2) 0.297(2) 0.4776(9)
H5 H 0.219(2) 0.310(3) 0.3125(11)
H6 H 0.157(2) 0.380(2) 0.3888(10)
H7 H 0.021(3) 0.523(3) 0.2822(12)
H8 H -0.106(3) 0.405(3) 0.3286(14)
H9 H -0.198(3) 0.136(3) 0.2733(12)
H10 H -0.134(2) 0.076(3) 0.1921(11)
H11 H -0.002(2) -0.097(3) 0.2985(10)
H12 H 0.120(2) 0.028(3) 0.2571(11)
#END
