
#######################################################################
#
#                 Cambridge Crystallographic Data Centre
#                                CCDC
#
#######################################################################
#
# If this CIF has been generated from an entry in the Cambridge
# Structural Database, then it will include bibliographic, chemical,
# crystal, experimental, refinement or atomic coordinate data resulting
# from the CCDC's data processing and validation procedures.
#
#######################################################################

data_CSD_CIF_UVACUQ
_audit_creation_date 2011-08-30
_audit_creation_method CSD-ConQuest-V1
_database_code_CSD UVACUQ
_database_code_depnum_ccdc_archive 'CCDC 785442'
_chemical_formula_sum 'C27 H37 N1 O8'
_chemical_formula_moiety
;
C27 H37 N1 O8
;
_journal_coden_Cambridge 1336
_journal_volume 13
_journal_year 2011
_journal_page_first 1458
_journal_name_full 'Org.Lett. '
loop_
_publ_author_name
"R.J.Reddy"
"Kwunmin Chen"
_chemical_name_systematic
;
(1S,4R,2R,3S)-6-ethoxy-2-isopropyl-4-nitro-6-oxo-3-phenylhexyl-4,7,7-trimethyl
-3-oxo-2-oxabicyclo[2.2.1]heptane-1-carboxylate
;
_cell_volume   2715.088
_exptl_crystal_colour 'colorless'
_exptl_crystal_density_diffrn 1.232
_exptl_special_details
;
Absolute configuration

;
_exptl_crystal_description 'prism'
_diffrn_ambient_temperature 200
#These two values have been output from a single CSD field.
_refine_ls_R_factor_gt 0.0507
_refine_ls_wR_factor_gt 0.0507
_symmetry_cell_setting orthorhombic
_symmetry_space_group_name_H-M 'P 21 21 21'
_symmetry_Int_Tables_number 19
loop_
_symmetry_equiv_pos_site_id
_symmetry_equiv_pos_as_xyz
1 x,y,z
2 1/2-x,-y,1/2+z
3 1/2+x,1/2-y,-z
4 -x,1/2+y,1/2-z
_cell_length_a 10.2212(4)
_cell_length_b 12.8077(5)
_cell_length_c 20.7401(9)
_cell_angle_alpha 90
_cell_angle_beta 90
_cell_angle_gamma 90
_cell_formula_units_Z 4
loop_
_atom_type_symbol
_atom_type_radius_bond
C 0.68
H 0.23
N 0.68
O 0.68
loop_
_atom_site_label
_atom_site_type_symbol
_atom_site_fract_x
_atom_site_fract_y
_atom_site_fract_z
C1 C -0.8503(3) -0.2556(2) -0.89124(16)
C2 C -0.7323(3) -0.3091(2) -0.86173(16)
C3 C -0.7565(3) -0.4220(3) -0.84334(19)
H1 H -0.67680 -0.45160 -0.82450
H2 H -0.78060 -0.46190 -0.88190
H3 H -0.82770 -0.42560 -0.81180
C4 C -0.6938(3) -0.2351(3) -0.80571(16)
H4 H -0.77040 -0.21910 -0.77820
H5 H -0.62430 -0.26650 -0.77870
C5 C -0.6437(3) -0.1357(2) -0.84024(16)
H6 H -0.69620 -0.07360 -0.82850
H7 H -0.55040 -0.12220 -0.83040
C6 C -0.6631(3) -0.1656(2) -0.91123(14)
C7 C -0.6286(3) -0.2842(2) -0.91409(16)
C8 C -0.6586(4) -0.3336(3) -0.97981(17)
H8 H -0.74900 -0.31780 -0.99200
H9 H -0.64700 -0.40940 -0.97710
H10 H -0.59880 -0.30510 -1.01230
C9 C -0.4866(3) -0.3092(3) -0.8950(2)
H11 H -0.46720 -0.27750 -0.85310
H12 H -0.42700 -0.28090 -0.92760
H13 H -0.47520 -0.38500 -0.89220
C10 C -0.5953(3) -0.0976(2) -0.96070(15)
C11 C -0.6124(3) 0.0007(2) -1.05731(14)
H14 H -0.55650 -0.04430 -1.08470
H15 H -0.55720 0.05600 -1.03810
C12 C -0.7215(3) 0.0491(2) -1.09749(14)
H16 H -0.79730 -0.00020 -1.09600
C13 C -0.6803(3) 0.0593(2) -1.16902(15)
H17 H -0.75240 0.09710 -1.19170
C14 C -0.5555(3) 0.1243(3) -1.17834(17)
H18 H -0.53470 0.12860 -1.22440
H19 H -0.48280 0.09110 -1.15540
H20 H -0.56940 0.19470 -1.16120
C15 C -0.6683(3) -0.0480(3) -1.20098(16)
H21 H -0.64250 -0.03930 -1.24620
H22 H -0.75280 -0.08400 -1.19890
H23 H -0.60200 -0.08940 -1.17840
C16 C -0.7698(3) 0.1546(2) -1.07009(14)
H24 H -0.69340 0.20330 -1.07170
C17 C -0.8785(3) 0.2059(2) -1.10900(15)
C18 C -0.9837(3) 0.1502(3) -1.13407(16)
H25 H -0.98670 0.07660 -1.12850
C19 C -1.0849(3) 0.1999(3) -1.16718(18)
H26 H -1.15510 0.16020 -1.18460
C20 C -1.0824(4) 0.3067(3) -1.17450(18)
H27 H -1.15190 0.34130 -1.19610
C21 C -0.9793(4) 0.3628(3) -1.15047(18)
H28 H -0.97720 0.43640 -1.15610
C22 C -0.8778(4) 0.3136(2) -1.11804(17)
H29 H -0.80700 0.35390 -1.10180
C23 C -0.8092(3) 0.1452(2) -0.99797(15)
H30 H -0.73340 0.11440 -0.97410
C24 C -0.9281(3) 0.0779(2) -0.98452(14)
H31 H -1.00630 0.11210 -1.00310
H32 H -0.91690 0.00970 -1.00630
C25 C -0.9507(3) 0.0596(3) -0.91437(16)
C26 C -1.0975(4) -0.0180(4) -0.83872(18)
H33 H -1.12140 0.04360 -0.81240
H34 H -1.02030 -0.05190 -0.81880
C27 C -1.2092(4) -0.0929(3) -0.8414(2)
H35 H -1.23110 -0.11580 -0.79760
H36 H -1.18450 -0.15350 -0.86750
H37 H -1.28520 -0.05850 -0.86080
N1 N -0.8310(3) 0.2552(2) -0.97246(12)
O1 O -0.80523(19) -0.16634(16) -0.92149(10)
O2 O -0.9647(2) -0.27587(17) -0.88925(12)
O3 O -0.4797(2) -0.08018(18) -0.95760(12)
O4 O -0.67434(19) -0.06156(15) -1.00645(10)
O5 O -0.7369(3) 0.31396(19) -0.97055(13)
O6 O -0.9416(2) 0.28010(19) -0.95621(14)
O7 O -0.8740(2) 0.07810(19) -0.87154(12)
O8 O -1.0673(2) 0.01391(19) -0.90468(11)
#END
