
#######################################################################
#
#                 Cambridge Crystallographic Data Centre
#                                CCDC
#
#######################################################################
#
# If this CIF has been generated from an entry in the Cambridge
# Structural Database, then it will include bibliographic, chemical,
# crystal, experimental, refinement or atomic coordinate data resulting
# from the CCDC's data processing and validation procedures.
#
#######################################################################

data_CSD_CIF_UVADUR
_audit_creation_date 2011-08-30
_audit_creation_method CSD-ConQuest-V1
_database_code_CSD UVADUR
_database_code_depnum_ccdc_archive 'CCDC 837761'
_chemical_formula_sum 'C25 H31 N1 O6'
_chemical_formula_moiety
;
C25 H31 N1 O6
;
_journal_coden_Cambridge 1336
_journal_volume 13
_journal_year 2011
_journal_page_first 1528
_journal_name_full 'Org.Lett. '
loop_
_publ_author_name
"A.C.Stevens"
"C.Palmer"
"B.L.Pagenkopf"
_chemical_name_systematic
;
Diethyl 7-ethoxy-2,3-diphenyl-1,2-oxazepane-4,4-dicarboxylate
;
_cell_volume   1156.603
_exptl_crystal_colour 'colorless'
_exptl_crystal_density_diffrn 1.268
_exptl_crystal_description 'block'
_diffrn_ambient_temperature 150
#These two values have been output from a single CSD field.
_refine_ls_R_factor_gt 0.0459
_refine_ls_wR_factor_gt 0.0459
_symmetry_cell_setting triclinic
_symmetry_space_group_name_H-M 'P -1'
_symmetry_Int_Tables_number 2
loop_
_symmetry_equiv_pos_site_id
_symmetry_equiv_pos_as_xyz
1 x,y,z
2 -x,-y,-z
_cell_length_a 9.2480(9)
_cell_length_b 10.0534(10)
_cell_length_c 13.1721(13)
_cell_angle_alpha 73.028(4)
_cell_angle_beta 89.186(4)
_cell_angle_gamma 81.101(4)
_cell_formula_units_Z 2
loop_
_atom_type_symbol
_atom_type_radius_bond
C 0.68
H 0.23
N 0.68
O 0.68
loop_
_atom_site_label
_atom_site_type_symbol
_atom_site_fract_x
_atom_site_fract_y
_atom_site_fract_z
O1 O 0.28980(13) -0.18859(12) 0.27261(10)
O2 O 0.12922(13) 0.17923(13) 0.53374(10)
O3 O 0.26366(13) 0.06467(14) 0.0753(1)
O4 O 0.03894(14) 0.10546(14) 0.13877(10)
O5 O 0.28431(12) 0.23354(12) 0.39957(9)
O6 O 0.49168(13) -0.09793(13) 0.29155(10)
N1 N 0.40263(15) 0.17760(15) 0.34487(11)
C1 C 0.4530(2) -0.3361(2) 0.18591(17)
H1 H 0.37880 -0.31520 0.12870
H2 H 0.50670 -0.43150 0.19680
H3 H 0.52140 -0.26810 0.16660
C2 C 0.3796(2) -0.32642(19) 0.28640(16)
H4 H 0.31690 -0.40070 0.30900
H5 H 0.45510 -0.34330 0.34320
C3 C 0.3617(2) -0.08370(19) 0.27522(14)
C4 C 0.25389(18) 0.05518(18) 0.25634(14)
C5 C 0.14457(18) 0.03902(19) 0.34719(13)
H6 H 0.07770 0.12940 0.33600
H7 H 0.08460 -0.03310 0.34370
C6 C 0.2170(2) -0.00307(19) 0.45839(14)
H8 H 0.15060 -0.05260 0.51060
H9 H 0.30830 -0.06980 0.46040
C7 C 0.25283(19) 0.12071(19) 0.49110(14)
H10 H 0.33680 0.09010 0.54400
C8 C 0.1540(2) 0.2867(2) 0.58042(17)
H11 H 0.16460 0.37460 0.52430
H12 H 0.24450 0.25570 0.62580
C9 C 0.0237(3) 0.3110(3) 0.6457(2)
H13 H -0.06600 0.33240 0.60140
H14 H 0.03180 0.39040 0.67310
H15 H 0.02020 0.22620 0.70520
C10 C 0.2906(3) -0.0025(3) -0.08390(18)
H16 H 0.39330 0.01110 -0.08360
H17 H 0.25430 0.01900 -0.15730
H18 H 0.28300 -0.10050 -0.04560
C11 C 0.2028(2) 0.0917(3) -0.03173(16)
H19 H 0.20440 0.19100 -0.07290
H20 H 0.09990 0.07480 -0.02820
C12 C 0.1698(2) 0.07829(18) 0.15152(14)
C13 C 0.34636(18) 0.17710(18) 0.24028(13)
H21 H 0.43500 0.14910 0.20230
C14 C 0.27517(19) 0.32044(18) 0.16849(14)
C15 C 0.1498(2) 0.40012(19) 0.19371(15)
H22 H 0.10460 0.36610 0.25950
C16 C 0.0909(2) 0.5287(2) 0.12316(16)
H23 H 0.00610 0.58220 0.14140
C17 C 0.1542(2) 0.5801(2) 0.02652(16)
H24 H 0.11260 0.66780 -0.02160
C18 C 0.2787(2) 0.5024(2) 0.00075(16)
H25 H 0.32330 0.53690 -0.06510
C19 C 0.3382(2) 0.3739(2) 0.07134(15)
H26 H 0.42370 0.32140 0.05300
C20 C 0.52538(18) 0.24789(17) 0.34479(13)
C21 C 0.64490(19) 0.22504(19) 0.28198(14)
H27 H 0.64060 0.16840 0.23600
C22 C 0.7689(2) 0.2844(2) 0.28653(15)
H28 H 0.84850 0.26930 0.24270
C23 C 0.7785(2) 0.3656(2) 0.35430(16)
H29 H 0.86390 0.40630 0.35730
C24 C 0.6617(2) 0.3864(2) 0.41745(16)
H30 H 0.66790 0.44070 0.46490
C25 C 0.5354(2) 0.32937(18) 0.41286(14)
H31 H 0.45560 0.34600 0.45620
#END
