
#######################################################################
#
#                 Cambridge Crystallographic Data Centre
#                                CCDC
#
#######################################################################
#
# If this CIF has been generated from an entry in the Cambridge
# Structural Database, then it will include bibliographic, chemical,
# crystal, experimental, refinement or atomic coordinate data resulting
# from the CCDC's data processing and validation procedures.
#
#######################################################################

data_CSD_CIF_UVAHIJ
_audit_creation_date 2011-08-30
_audit_creation_method CSD-ConQuest-V1
_database_code_CSD UVAHIJ
_database_code_depnum_ccdc_archive 'CCDC 804427'
_chemical_formula_sum 'C31 H35 N5 O9'
_chemical_formula_moiety
;
C31 H35 N5 O9
;
_journal_coden_Cambridge 4
_journal_volume 133
_journal_year 2011
_journal_page_first 5053
_journal_name_full 'J.Am.Chem.Soc. '
loop_
_publ_author_name
"Zhi-Jun Jia"
"Hao Jiang"
"Jun-Long Li"
"B.Gschwend"
"Qing-Zhu Li"
"Xiang Yin"
"J.Grouleff"
"Ying-Chun Chen"
"K.A.Joergensen"
_chemical_name_systematic
;
Di-t-butyl 
6-(2-((2,4-dinitrophenyl)hydrazono)ethyl)-2'-oxospiro[cyclohex-4-ene-1,3'-indo
le]-1',2(2'H)-dicarboxylate
;
_cell_volume   3172.405
_exptl_crystal_colour 'yellow'
_exptl_crystal_density_diffrn 1.302
_exptl_special_details
;
Absolute configuration

;
_exptl_crystal_description 'block'
_diffrn_ambient_temperature 150
#These two values have been output from a single CSD field.
_refine_ls_R_factor_gt 0.0472
_refine_ls_wR_factor_gt 0.0472
_symmetry_cell_setting orthorhombic
_symmetry_space_group_name_H-M 'P 21 21 21'
_symmetry_Int_Tables_number 19
loop_
_symmetry_equiv_pos_site_id
_symmetry_equiv_pos_as_xyz
1 x,y,z
2 1/2-x,-y,1/2+z
3 1/2+x,1/2-y,-z
4 -x,1/2+y,1/2-z
_cell_length_a 10.9831(3)
_cell_length_b 12.3901(2)
_cell_length_c 23.3125(4)
_cell_angle_alpha 90
_cell_angle_beta 90
_cell_angle_gamma 90
_cell_formula_units_Z 4
loop_
_atom_type_symbol
_atom_type_radius_bond
C 0.68
H 0.23
N 0.68
O 0.68
loop_
_atom_site_label
_atom_site_type_symbol
_atom_site_fract_x
_atom_site_fract_y
_atom_site_fract_z
O1 O 0.17361(19) 0.27359(15) 0.44588(7)
O2 O 0.57396(19) 0.85094(14) 0.29590(9)
N1 N 0.4513(2) 0.31626(17) 0.40653(9)
N2 N 0.1686(2) 0.35313(17) 0.35503(9)
O3 O 0.1889(2) 0.48318(16) 0.41994(9)
O4 O 0.4752(2) 0.75930(17) 0.23156(8)
N3 N 0.5239(2) 0.76818(18) 0.27904(9)
O5 O -0.04854(18) 0.1683(2) 0.35363(10)
O6 O 0.7330(3) 0.66954(19) 0.4576(1)
O7 O 0.0969(3) 0.5220(2) 0.33689(11)
N4 N 0.5083(2) 0.41027(18) 0.42535(10)
O8 O -0.0619(2) 0.0960(3) 0.44013(10)
C1 C 0.5217(2) 0.6743(2) 0.31671(10)
C2 C 0.5823(3) 0.5901(2) 0.4031(1)
N5 N 0.6586(3) 0.5974(2) 0.45377(10)
C3 C 0.3419(2) 0.12481(19) 0.36592(10)
H1 H 0.39250 0.17080 0.34000
C4 C 0.1773(3) 0.1421(3) 0.24860(11)
H2 H 0.19160 0.06650 0.24840
C5 C 0.3973(2) 0.1323(2) 0.42646(11)
H3 H 0.33280 0.11510 0.45470
H4 H 0.46110 0.07620 0.43000
C6 C 0.1809(2) 0.1998(2) 0.29949(10)
C7 C 0.4618(2) 0.5799(2) 0.2994(1)
H5 H 0.42280 0.57680 0.26310
C8 C 0.5165(2) 0.4950(2) 0.38999(10)
C9 C 0.2071(2) 0.1641(2) 0.36047(10)
C10 C 0.1844(2) 0.2677(2) 0.39445(10)
C11 C 0.1462(3) 0.4625(2) 0.36916(13)
C12 C 0.3522(3) 0.0097(2) 0.34485(12)
H6 H 0.43090 -0.01550 0.33460
C13 C 0.1348(3) 0.3066(3) 0.19742(12)
H7 H 0.11950 0.34250 0.16210
C14 C 0.5834(2) 0.6796(2) 0.36720(11)
H8 H 0.62630 0.74320 0.37770
C15 C 0.1391(3) 0.3664(3) 0.24769(12)
H9 H 0.12730 0.44230 0.24740
C16 C -0.0058(3) 0.1115(3) 0.39630(13)
C17 C 0.4598(2) 0.4924(2) 0.33502(10)
H10 H 0.41970 0.42840 0.32290
O9 O 0.6502(4) 0.5284(3) 0.49038(13)
C18 C 0.4518(2) 0.2387(2) 0.44205(11)
H11 H 0.48710 0.24840 0.47890
C19 C 0.1611(2) 0.3111(2) 0.29841(10)
C20 C 0.1672(3) 0.5895(2) 0.44831(13)
C21 C 0.2609(3) -0.0584(2) 0.33953(13)
H12 H 0.27820 -0.12930 0.32630
C22 C 0.1233(2) 0.0757(2) 0.38646(11)
H13 H 0.15730 0.05990 0.42540
C23 C 0.1522(3) 0.1972(3) 0.19750(12)
H14 H 0.14720 0.15820 0.16250
C24 C 0.2269(5) 0.6779(3) 0.41427(18)
H15 H 0.18810 0.68330 0.37650
H16 H 0.31360 0.66140 0.40940
H17 H 0.21800 0.74660 0.43470
C25 C 0.2262(6) 0.5704(3) 0.50569(17)
H18 H 0.20880 0.63140 0.53120
H19 H 0.31440 0.56340 0.50070
H20 H 0.19370 0.50400 0.52260
C26 C 0.1310(3) -0.0307(2) 0.35317(13)
H21 H 0.09440 -0.08930 0.37630
H22 H 0.08410 -0.02430 0.31710
C27 C -0.2671(3) 0.1247(4) 0.35354(17)
H23 H -0.26890 0.09170 0.39170
H24 H -0.24530 0.06990 0.32500
H25 H -0.34760 0.15430 0.34450
C28 C -0.1724(3) 0.2156(3) 0.35260(17)
C29 C 0.0338(5) 0.6058(4) 0.4551(2)
H26 H 0.01890 0.66900 0.47930
H27 H -0.00220 0.54180 0.47300
H28 H -0.00320 0.61720 0.41730
C30 C -0.1853(6) 0.2924(5) 0.4032(3)
H29 H -0.19250 0.25060 0.43880
H30 H -0.25830 0.33680 0.39810
H31 H -0.11340 0.33910 0.40540
C31 C -0.1746(5) 0.2738(5) 0.2971(3)
H32 H -0.25640 0.30290 0.29040
H33 H -0.15330 0.22390 0.26610
H34 H -0.11570 0.33320 0.29810
H35 H 0.541(3) 0.417(3) 0.4605(10)
#END
