
#######################################################################
#
#                 Cambridge Crystallographic Data Centre
#                                CCDC
#
#######################################################################
#
# If this CIF has been generated from an entry in the Cambridge
# Structural Database, then it will include bibliographic, chemical,
# crystal, experimental, refinement or atomic coordinate data resulting
# from the CCDC's data processing and validation procedures.
#
#######################################################################

data_CSD_CIF_UVATIW
_audit_creation_date 2016-09-06
_audit_creation_method CSD-ConQuest-V1
_database_code_CSD UVATIW
_database_code_depnum_ccdc_archive 'CCDC 1502895'
_chemical_formula_sum 'C12 H15 N1 O4'
_chemical_formula_moiety
;
C12 H15 N1 O4
;
_journal_coden_Cambridge 1078
_journal_year 2016
_journal_name_full 'CSD Communication(Private Communication) '
loop_
_publ_author_name
"T.Huhn"
_chemical_name_systematic
;
4-nitro-4-phenylhexanoic acid
;
_cell_volume   1177.496
_exptl_crystal_colour 'colorless'
_exptl_crystal_density_diffrn 1.338
_exptl_crystal_description 'block'
_exptl_crystal_preparation 'Diethyl ether/ Hexane'
_diffrn_ambient_temperature 100
#These two values have been output from a single CSD field.
_refine_ls_R_factor_gt 0.0497
_refine_ls_wR_factor_gt 0.0497
_symmetry_cell_setting monoclinic
_symmetry_space_group_name_H-M 'P 21/c'
_symmetry_Int_Tables_number 14
loop_
_symmetry_equiv_pos_site_id
_symmetry_equiv_pos_as_xyz
1 x,y,z
2 -x,1/2+y,1/2-z
3 -x,-y,-z
4 x,-1/2-y,-1/2+z
_cell_length_a 8.0538(6)
_cell_length_b 11.4949(10)
_cell_length_c 12.7223(10)
_cell_angle_alpha 90
_cell_angle_beta 91.303(6)
_cell_angle_gamma 90
_cell_formula_units_Z 4
loop_
_atom_type_symbol
_atom_type_radius_bond
C 0.68
H 0.23
N 0.68
O 0.68
loop_
_atom_site_label
_atom_site_type_symbol
_atom_site_fract_x
_atom_site_fract_y
_atom_site_fract_z
H1 H 1.048(3) 0.4007(19) 0.0057(18)
O1 O 0.56602(14) 0.19938(8) 0.36863(8)
O2 O 0.61187(12) 0.38342(9) 0.35960(8)
O3 O 0.97122(11) 0.34948(8) 0.02966(8)
O4 O 0.80895(11) 0.50505(8) 0.05216(7)
N1 N 0.55334(12) 0.29311(9) 0.32383(8)
C1 C 0.29007(14) 0.35996(10) 0.24889(9)
C2 C 0.24864(15) 0.47093(10) 0.21285(10)
H2 H 0.31870 0.50940 0.16730
C3 C 0.10374(16) 0.52452(11) 0.24437(11)
H3 H 0.07720 0.59840 0.21940
C4 C -0.00161(16) 0.46907(11) 0.31252(11)
H4 H -0.09830 0.50550 0.33380
C5 C 0.03844(15) 0.35839(12) 0.34880(11)
H5 H -0.03190 0.32050 0.39460
C6 C 0.18278(15) 0.30414(11) 0.31715(10)
H6 H 0.20830 0.22990 0.34160
C7 C 0.45193(14) 0.30049(10) 0.21806(9)
C8 C 0.55671(14) 0.3742(1) 0.14432(9)
H7 H 0.49280 0.38880 0.08010
H8 H 0.57920 0.44870 0.17750
C9 C 0.72134(14) 0.31794(10) 0.11604(10)
H9 H 0.77550 0.28870 0.17960
H10 H 0.69960 0.25220 0.06990
C10 C 0.83610(14) 0.40100(11) 0.06280(9)
C11 C 0.42380(15) 0.17609(10) 0.17822(10)
H11 H 0.53040 0.13790 0.17110
H12 H 0.36120 0.13300 0.22960
C12 C 0.33042(16) 0.17336(11) 0.07278(10)
H13 H 0.22280 0.20780 0.08020
H14 H 0.31800 0.09420 0.04980
H15 H 0.39160 0.21630 0.02180
#END
