
#######################################################################
#
#                 Cambridge Crystallographic Data Centre
#                                CCDC
#
#######################################################################
#
# If this CIF has been generated from an entry in the Cambridge
# Structural Database, then it will include bibliographic, chemical,
# crystal, experimental, refinement or atomic coordinate data resulting
# from the CCDC's data processing and validation procedures.
#
#######################################################################

data_CSD_CIF_UVEBIH
_audit_creation_date 2011-09-07
_audit_creation_method CSD-ConQuest-V1
_database_code_CSD UVEBIH
_database_code_depnum_ccdc_archive 'CCDC 802269'
_chemical_formula_sum 'C24 H30 N2 O5'
_chemical_formula_moiety
;
C24 H30 N2 O5
;
_journal_coden_Cambridge 1336
_journal_volume 13
_journal_year 2011
_journal_page_first 1338
_journal_name_full 'Org.Lett. '
loop_
_publ_author_name
"Bor-Cherng Hong"
"N.S.Dange"
"Che-Sheng Hsu"
"Ju-Hsiou Liao"
"Gene-Hsiang Lee"
_chemical_name_systematic
;
5-(4-Methoxyphenyl)-2-hydroxy-4-nitro-3-hexyl-2-(pyridin-2-yl)cyclopentanecarb
aldehyde
;
_cell_volume   4533.420
_exptl_crystal_colour 'colorless'
_exptl_crystal_density_diffrn 1.25
_exptl_special_details
;
Absolute configuration

;
_exptl_crystal_description 'plate'
_diffrn_ambient_temperature 150
_refine_special_details
;
The nitro group O atoms and hexyl side-chain are disordered over two sites 
with occupancies of 0.63:0.37 and 0.50:0.50; the latter by symmetry.
;
#These two values have been output from a single CSD field.
_refine_ls_R_factor_gt 0.0732
_refine_ls_wR_factor_gt 0.0732
_symmetry_cell_setting orthorhombic
_symmetry_space_group_name_H-M 'C 2 2 21'
_symmetry_Int_Tables_number 20
loop_
_symmetry_equiv_pos_site_id
_symmetry_equiv_pos_as_xyz
1 x,y,z
2 -x,-y,1/2+z
3 -x,y,1/2-z
4 x,-y,-z
5 1/2+x,1/2+y,z
6 1/2-x,1/2-y,1/2+z
7 1/2-x,1/2+y,1/2-z
8 1/2+x,1/2-y,-z
_cell_length_a 5.6207(4)
_cell_length_b 21.3127(15)
_cell_length_c 37.844(3)
_cell_angle_alpha 90
_cell_angle_beta 90
_cell_angle_gamma 90
_cell_formula_units_Z 8
loop_
_atom_type_symbol
_atom_type_radius_bond
C 0.68
H 0.23
N 0.68
O 0.68
loop_
_atom_site_label
_atom_site_type_symbol
_atom_site_fract_x
_atom_site_fract_y
_atom_site_fract_z
O1 O 0.2144(5) 1.01387(14) 0.63842(8)
H1 H 0.16140 1.04730 0.64710
O2 O 0.0251(5) 1.01537(14) 0.55789(8)
O3 O 0.4648(6) 0.80687(13) 0.45287(8)
O4 O 0.3203(12) 0.8592(3) 0.64286(16)
O5 O 0.6409(15) 0.8178(3) 0.63011(18)
O6? O 0.455(3) 0.8344(7) 0.6275(4)
O7? O 0.826(2) 0.8374(5) 0.6273(3)
N1 N 0.3495(6) 1.12551(16) 0.64902(11)
N2 N 0.5073(17) 0.8621(4) 0.6303(2)
N3? N 0.638(2) 0.8643(6) 0.6197(3)
C1 C 0.4394(6) 1.02568(17) 0.62215(11)
C2 C 0.4160(7) 1.00963(18) 0.58264(11)
H2 H 0.56230 1.02380 0.56990
C3 C 0.4084(8) 0.93786(18) 0.58334(12)
H3 H 0.25430 0.92570 0.59460
C4 C 0.6033(10) 0.92204(19) 0.60943(13)
H4 H 0.75730 0.91300 0.59720
H5? H 0.74740 0.92870 0.59440
C5 C 0.6267(8) 0.97816(19) 0.63551(12)
H6 H 0.78680 0.99740 0.63150
C6 C 0.5069(7) 1.09368(17) 0.62980(11)
C7 C 0.7158(7) 1.1208(2) 0.61819(12)
H7 H 0.82570 1.09750 0.60440
C8 C 0.7625(9) 1.1828(2) 0.62708(12)
H8 H 0.90630 1.20220 0.61970
C9 C 0.6017(10) 1.2153(2) 0.64632(13)
H9 H 0.63000 1.25790 0.65240
C10 C 0.3960(9) 1.1857(2) 0.65696(14)
H10 H 0.28300 1.20860 0.67040
C11 C 0.2063(8) 1.0405(2) 0.56721(11)
H11 H 0.21470 1.08470 0.56430
C12 C 0.4220(7) 0.90384(18) 0.54847(11)
C13 C 0.6022(8) 0.91408(19) 0.52427(12)
H12 H 0.72080 0.94450 0.52940
C14 C 0.6142(8) 0.8812(2) 0.49291(12)
H13 H 0.74030 0.88910 0.47680
C15 C 0.4406(8) 0.83636(18) 0.48486(11)
C16 C 0.2617(8) 0.8244(2) 0.50846(12)
H14 H 0.14490 0.79340 0.50340
C17 C 0.2533(8) 0.85856(19) 0.54029(12)
H15 H 0.12860 0.85040 0.55660
C18 C 0.2829(9) 0.7651(2) 0.44258(13)
H16 H 0.26230 0.73290 0.46080
H17 H 0.32620 0.74510 0.42020
H18 H 0.13370 0.78830 0.43960
C19 C 0.6091(10) 0.9623(2) 0.67458(12)
H19 H 0.45780 0.93910 0.67750
H20 H 0.73800 0.93180 0.67930
H21? H 0.58780 1.00160 0.68810
H22? H 0.46650 0.93600 0.67850
C20 C 0.617(2) 1.0058(6) 0.7023(3)
H23 H 0.57950 0.98390 0.72460
H24 H 0.49260 1.03790 0.69830
C21 C 0.838(3) 1.0362(6) 0.7059(3)
H25 H 0.85730 1.06710 0.68660
H26 H 0.96750 1.00480 0.70370
C22 C 0.863(3) 1.0710(6) 0.7428(3)
H27? H 0.73520 1.10280 0.74520
H28? H 0.84480 1.04040 0.76230
C23 C 1.102(2) 1.1023(7) 0.7453(4)
H29? H 1.12440 1.12840 0.72390
H30? H 1.22580 1.06930 0.74500
C24 C 0.858(3) 1.1435(6) 0.7223(3)
H31 H 0.69570 1.16010 0.72270
H32 H 0.88200 1.11860 0.70090
H33 H 0.97180 1.17850 0.72260
C25? C 0.819(3) 0.9290(8) 0.6882(4)
H34? H 0.95800 0.95760 0.68710
H35? H 0.85340 0.89290 0.67250
C26? C 0.794(2) 0.9051(5) 0.7259(3)
H36? H 0.65530 0.87650 0.72710
H37? H 0.76190 0.94110 0.74170
C27? C 1.014(3) 0.8705(7) 0.7390(3)
H38? H 1.08260 0.84850 0.71840
H39? H 1.13010 0.90290 0.74620
C28? C 1.002(3) 0.8236(7) 0.7685(4)
H40? H 0.84050 0.80720 0.77310
H41? H 1.07990 0.83770 0.79060
C29? C 1.164(3) 0.7786(7) 0.7446(5)
H42? H 1.19300 0.73920 0.75730
H43? H 1.31560 0.79930 0.73960
H44? H 1.08110 0.76960 0.72240
O1B O 1.7856(5) 1.01387(14) 0.86158(8)
H1B H 1.83860 1.04730 0.85290
O2B O 1.9749(5) 1.01537(14) 0.94211(8)
O3B O 1.5352(6) 0.80687(13) 1.04713(8)
O4B O 1.6797(12) 0.8592(3) 0.85714(16)
O5B O 1.3591(15) 0.8178(3) 0.86989(18)
N1B N 1.6505(6) 1.12551(16) 0.85098(11)
N2B N 1.4927(17) 0.8621(4) 0.8697(2)
C1B C 1.5606(6) 1.02568(17) 0.87785(11)
C2B C 1.5840(7) 1.00963(18) 0.91736(11)
H2B H 1.43770 1.02380 0.93010
C3B C 1.5916(8) 0.93786(18) 0.91666(12)
H3B H 1.74570 0.92570 0.90540
C4B C 1.3967(10) 0.92204(19) 0.89057(13)
H4B H 1.24270 0.91300 0.90280
C5B C 1.3733(8) 0.97816(19) 0.86449(12)
H6B H 1.21320 0.99740 0.86850
C6B C 1.4931(7) 1.09368(17) 0.87020(11)
C7B C 1.2842(7) 1.1208(2) 0.88181(12)
H7B H 1.17430 1.09750 0.89560
C8B C 1.2375(9) 1.1828(2) 0.87292(12)
H8B H 1.09370 1.20220 0.88030
C9B C 1.3983(10) 1.2153(2) 0.85368(13)
H9B H 1.37000 1.25790 0.84760
C10B C 1.6040(9) 1.1857(2) 0.84304(14)
H10B H 1.71700 1.20860 0.82960
C11B C 1.7937(8) 1.0405(2) 0.93279(11)
H11B H 1.78530 1.08470 0.93570
C12B C 1.5780(7) 0.90384(18) 0.95153(11)
C13B C 1.3978(8) 0.91408(19) 0.97573(12)
H12B H 1.27920 0.94450 0.97060
C14B C 1.3858(8) 0.8812(2) 1.00709(12)
H13B H 1.25970 0.88910 1.02320
C15B C 1.5594(8) 0.83636(18) 1.01514(11)
C16B C 1.7383(8) 0.8244(2) 0.99154(12)
H14B H 1.85510 0.79340 0.99660
C17B C 1.7467(8) 0.85856(19) 0.95971(12)
H15B H 1.87140 0.85040 0.94340
C18B C 1.7171(9) 0.7651(2) 1.05742(13)
H16B H 1.73770 0.73290 1.03920
H17B H 1.67380 0.74510 1.07980
H18B H 1.86630 0.78830 1.06040
C19B C 1.3909(10) 0.9623(2) 0.82542(12)
H19B H 1.54220 0.93910 0.82250
H20B H 1.26200 0.93180 0.82070
C20B C 1.383(2) 1.0058(6) 0.7977(3)
H23B H 1.42050 0.98390 0.77540
H24B H 1.50740 1.03790 0.80170
C21B C 1.162(3) 1.0362(6) 0.7941(3)
H25B H 1.14270 1.06710 0.81340
H26B H 1.03250 1.00480 0.79630
C22B C 1.137(3) 1.0710(6) 0.7572(3)
C23B C 0.898(2) 1.1023(7) 0.7547(4)
C24B C 1.142(3) 1.1435(6) 0.7777(3)
H31B H 1.30430 1.16010 0.77730
H32B H 1.11800 1.11860 0.79910
H33B H 1.02820 1.17850 0.77740
#END
