
#######################################################################
#
#                 Cambridge Crystallographic Data Centre
#                                CCDC
#
#######################################################################
#
# If this CIF has been generated from an entry in the Cambridge
# Structural Database, then it will include bibliographic, chemical,
# crystal, experimental, refinement or atomic coordinate data resulting
# from the CCDC's data processing and validation procedures.
#
#######################################################################

data_CSD_CIF_UVEGEJ
_audit_creation_date 2016-09-06
_audit_creation_method CSD-ConQuest-V1
_database_code_CSD UVEGEJ
_database_code_depnum_ccdc_archive 'CCDC 1495666'
_chemical_formula_sum 'C6 H2 N10 O8'
_chemical_formula_moiety
;
C6 H2 N10 O8
;
_journal_coden_Cambridge 222
_journal_volume 45
_journal_year 2016
_journal_page_first 15382
_journal_name_full 'Dalton Trans. '
loop_
_publ_author_name
"Haifeng Huang"
"Yameng Shi"
"Yanfang Liu"
"Jun Yang"
_chemical_name_systematic
;
N,N'-(1,4,2,5-dioxadiazine-3,6-diyldi(1,2,5-oxadiazole-4,3-diyl))dinitramide 
unknown solvate
;
_cell_volume   2814.657
_exptl_crystal_colour 'colorless'
_exptl_crystal_density_diffrn 1.817
_exptl_crystal_description 'prismatic'
_diffrn_ambient_temperature 293
_refine_special_details
;
Disordered solvent molecules were not modelled and the disordered density was 
taken into account using the SQUEEZE/PLATON procedure.
;
#These two values have been output from a single CSD field.
_refine_ls_R_factor_gt 0.0403
_refine_ls_wR_factor_gt 0.0403
_symmetry_cell_setting rhombohedral
_symmetry_space_group_name_H-M 'R -3'
_symmetry_Int_Tables_number 148
loop_
_symmetry_equiv_pos_site_id
_symmetry_equiv_pos_as_xyz
1 x,y,z
2 -y,x-y,z
3 -x+y,-x,z
4 2/3+x,1/3+y,1/3+z
5 2/3-y,1/3+x-y,1/3+z
6 2/3-x+y,1/3-x,1/3+z
7 1/3+x,2/3+y,2/3+z
8 1/3-y,2/3+x-y,2/3+z
9 1/3-x+y,2/3-x,2/3+z
10 -x,-y,-z
11 y,-x+y,-z
12 x-y,x,-z
13 -2/3-x,-1/3-y,-1/3-z
14 -2/3+y,-1/3-x+y,-1/3-z
15 -2/3+x-y,-1/3+x,-1/3-z
16 -1/3-x,-2/3-y,-2/3-z
17 -1/3+y,-2/3-x+y,-2/3-z
18 -1/3+x-y,-2/3+x,-2/3-z
_cell_length_a 24.929(3)
_cell_length_b 24.929(3)
_cell_length_c 5.2298(9)
_cell_angle_alpha 90
_cell_angle_beta 90
_cell_angle_gamma 120
_cell_formula_units_Z 9
loop_
_atom_type_symbol
_atom_type_radius_bond
C 0.68
H 0.23
N 0.68
O 0.68
loop_
_atom_site_label
_atom_site_type_symbol
_atom_site_fract_x
_atom_site_fract_y
_atom_site_fract_z
N1 N 0.87459(8) 0.30077(7) 0.9359(3)
N2 N 0.97222(8) 0.38356(7) 0.9607(3)
N3 N 0.94470(7) 0.44961(7) 0.4208(3)
N4 N 0.84104(7) 0.33268(8) 0.5688(4)
N5 N 0.78444(8) 0.28114(7) 0.5420(4)
O1 O 0.93094(7) 0.32814(6) 1.0649(3)
O2 O 0.97379(6) 0.50680(6) 0.2815(3)
O3 O 0.76774(8) 0.24159(7) 0.7026(3)
O4 O 0.75638(7) 0.27970(7) 0.3502(4)
C1 C 0.88269(8) 0.33966(8) 0.7542(3)
C2 C 0.94374(8) 0.39199(8) 0.7719(3)
C3 C 0.97255(8) 0.44849(8) 0.6195(3)
H1 H 0.8463(10) 0.3599(10) 0.471(5)
N1I N 1.12541(8) 0.69923(7) 0.0641(3)
N2I N 1.02778(8) 0.61644(7) 0.0393(3)
N3I N 1.05530(7) 0.55039(7) 0.5792(3)
N4I N 1.15896(7) 0.66732(8) 0.4312(4)
N5I N 1.21556(8) 0.71886(7) 0.4580(4)
O1I O 1.06906(7) 0.67186(6) -0.0649(3)
O2I O 1.02621(6) 0.49320(6) 0.7185(3)
O3I O 1.23226(8) 0.75841(7) 0.2974(3)
O4I O 1.24362(7) 0.72030(7) 0.6498(4)
C1I C 1.11731(8) 0.66034(8) 0.2458(3)
C2I C 1.05626(8) 0.60801(8) 0.2281(3)
C3I C 1.02745(8) 0.55151(8) 0.3805(3)
H1I H 1.1537(10) 0.6401(10) 0.529(5)
#END
