
#######################################################################
#
#                 Cambridge Crystallographic Data Centre
#                                CCDC
#
#######################################################################
#
# If this CIF has been generated from an entry in the Cambridge
# Structural Database, then it will include bibliographic, chemical,
# crystal, experimental, refinement or atomic coordinate data resulting
# from the CCDC's data processing and validation procedures.
#
#######################################################################

data_CSD_CIF_UVIMIX
_audit_creation_date 2016-09-07
_audit_creation_method CSD-ConQuest-V1
_database_code_CSD UVIMIX
_database_code_depnum_ccdc_archive 'CCDC 1503208'
_chemical_formula_sum 'C19 H19 N1 O3'
_chemical_formula_moiety
;
C19 H19 N1 O3
;
_journal_coden_Cambridge 1078
_journal_year 2016
_journal_name_full 'CSD Communication(Private Communication) '
loop_
_publ_author_name
"peng"
"xie-xue"
_chemical_name_systematic
;
(1-oxy-2-hydroxy-4,4-dimethyl-5-phenyl-3,4-dihydro-2H-pyrrol-2-yl)(phenyl)meth
anone
;
_cell_volume   1630.301
_exptl_crystal_colour 'light colorless'
_exptl_crystal_density_diffrn 1.26
_exptl_crystal_description 'block'
_diffrn_ambient_temperature 294.3
#These two values have been output from a single CSD field.
_refine_ls_R_factor_gt 0.0565
_refine_ls_wR_factor_gt 0.0565
_symmetry_cell_setting monoclinic
_symmetry_space_group_name_H-M 'P 21/n'
_symmetry_Int_Tables_number 14
loop_
_symmetry_equiv_pos_site_id
_symmetry_equiv_pos_as_xyz
1 x,y,z
2 1/2-x,1/2+y,1/2-z
3 -x,-y,-z
4 -1/2+x,-1/2-y,-1/2+z
_cell_length_a 9.3432(5)
_cell_length_b 12.1755(6)
_cell_length_c 14.6611(8)
_cell_angle_alpha 90
_cell_angle_beta 102.176(6)
_cell_angle_gamma 90
_cell_formula_units_Z 4
loop_
_atom_type_symbol
_atom_type_radius_bond
C 0.68
H 0.23
N 0.68
O 0.68
loop_
_atom_site_label
_atom_site_type_symbol
_atom_site_fract_x
_atom_site_fract_y
_atom_site_fract_z
C1 C 0.0413(3) 0.59991(18) 0.20568(16)
O1 O 0.2195(2) 0.51104(15) 0.51675(12)
H1 H 0.15160 0.50220 0.54340
N1 N 0.0870(2) 0.52023(17) 0.36130(14)
C2 C 0.1298(3) 0.53683(18) 0.28316(16)
C3 C 0.1729(3) 0.26514(19) 0.51726(16)
O2 O 0.0268(2) 0.31206(17) 0.37194(13)
C4 C 0.1908(3) 0.4547(2) 0.43318(16)
C5 C -0.0707(3) 0.6701(2) 0.21741(18)
H2 H -0.09110 0.67870 0.27640
C6 C 0.1211(3) 0.3407(2) 0.43763(17)
O3 O -0.0331(2) 0.55268(19) 0.38382(15)
C7 C 0.2766(3) 0.4826(2) 0.28657(17)
C8 C 0.0685(3) 0.5905(2) 0.11560(17)
H3 H 0.14410 0.54550 0.10550
C9 C 0.3252(3) 0.4516(2) 0.39101(18)
H4 H 0.36800 0.37870 0.39720
H5 H 0.39790 0.50340 0.42270
C10 C 0.2915(3) 0.2859(2) 0.58862(17)
H6 H 0.34360 0.35100 0.58860
C11 C -0.1521(3) 0.7273(2) 0.1429(2)
H7 H -0.22590 0.77450 0.15240
C12 C -0.0150(3) 0.6470(2) 0.04163(19)
H8 H 0.00390 0.63850 -0.01780
C13 C 0.2597(4) 0.1156(3) 0.6611(2)
H9 H 0.28920 0.06500 0.70890
C14 C -0.1249(3) 0.7150(2) 0.0544(2)
H10 H -0.18100 0.75270 0.00420
C15 C 0.3338(3) 0.2114(3) 0.66000(19)
H11 H 0.41390 0.22680 0.70780
C16 C 0.2625(3) 0.3783(2) 0.2261(2)
H12 H 0.19120 0.33010 0.24320
H13 H 0.35550 0.34160 0.23580
H14 H 0.23210 0.39800 0.16150
C17 C 0.1411(5) 0.0945(3) 0.5910(3)
H15 H 0.08870 0.02970 0.59210
C18 C 0.0980(4) 0.1681(2) 0.5187(2)
H16 H 0.01820 0.15210 0.47090
C19 C 0.3895(3) 0.5609(2) 0.2603(2)
H17 H 0.36070 0.57950 0.19540
H18 H 0.48360 0.52590 0.27180
H19 H 0.39490 0.62650 0.29720
#END
