
#######################################################################
#
#                 Cambridge Crystallographic Data Centre
#                                CCDC
#
#######################################################################
#
# If this CIF has been generated from an entry in the Cambridge
# Structural Database, then it will include bibliographic, chemical,
# crystal, experimental, refinement or atomic coordinate data resulting
# from the CCDC's data processing and validation procedures.
#
#######################################################################

data_CSD_CIF_UVIPEV
_audit_creation_date 2011-08-30
_audit_creation_method CSD-ConQuest-V1
_database_code_CSD UVIPEV
_database_code_depnum_ccdc_archive 'CCDC 824858'
_chemical_formula_sum 'C21 H15 N1 O5'
_chemical_formula_moiety
;
C21 H15 N1 O5
;
_journal_coden_Cambridge 182
_journal_volume 47
_journal_year 2011
_journal_page_first 7974
_journal_name_full 'Chem.Commun. '
loop_
_publ_author_name
"R.T.McBurney"
"A.M.Z.Slawin"
"L.A.Smart"
"Yanping Yu"
"J.C.Walton"
_chemical_name_systematic
;
Phenoxy((((6-phenyl-1,3-benzodioxol-5-yl)methylene)amino)oxy)methanone
;
_cell_volume    845.679
_exptl_crystal_colour 'colorless'
_exptl_crystal_density_diffrn 1.419
_exptl_crystal_description 'prism'
_diffrn_ambient_temperature 93
#These two values have been output from a single CSD field.
_refine_ls_R_factor_gt 0.0783
_refine_ls_wR_factor_gt 0.0783
_symmetry_cell_setting triclinic
_symmetry_space_group_name_H-M 'P -1'
_symmetry_Int_Tables_number 2
loop_
_symmetry_equiv_pos_site_id
_symmetry_equiv_pos_as_xyz
1 x,y,z
2 -x,-y,-z
_cell_length_a 9.119(8)
_cell_length_b 9.581(7)
_cell_length_c 10.232(8)
_cell_angle_alpha 97.856(18)
_cell_angle_beta 96.761(13)
_cell_angle_gamma 104.70(2)
_cell_formula_units_Z 2
loop_
_atom_type_symbol
_atom_type_radius_bond
C 0.68
H 0.23
N 0.68
O 0.68
loop_
_atom_site_label
_atom_site_type_symbol
_atom_site_fract_x
_atom_site_fract_y
_atom_site_fract_z
C1 C 0.3206(2) 0.0413(2) 0.3664(2)
C2 C 0.4686(2) 0.1418(2) 0.4078(2)
C3 C 0.4886(3) 0.2711(2) 0.5017(2)
H1 H 0.58720 0.33830 0.53090
C4 C 0.3622(3) 0.2962(2) 0.5489(2)
O1 O 0.34997(18) 0.41301(16) 0.63811(16)
C5 C 0.2174(2) 0.1953(2) 0.5108(2)
O2 O 0.11154(17) 0.24665(15) 0.57478(15)
C6 C 0.1942(2) 0.0673(2) 0.4229(2)
H2 H 0.09590 -0.00170 0.40060
C7 C 0.2920(2) -0.0864(2) 0.2563(2)
C8 C 0.3366(2) -0.0679(2) 0.1321(2)
H3 H 0.38930 0.02700 0.11880
C9 C 0.3050(3) -0.1861(2) 0.0276(2)
H4 H 0.33730 -0.17200 -0.05570
C10 C 0.2258(3) -0.3249(2) 0.0459(2)
H5 H 0.20410 -0.40610 -0.02480
C11 C 0.1787(3) -0.3441(2) 0.1681(2)
H6 H 0.12380 -0.43870 0.18040
C12 C 0.2109(2) -0.2268(2) 0.2716(2)
H7 H 0.17770 -0.24160 0.35450
C13 C 0.5999(2) 0.1089(2) 0.3539(2)
H8 H 0.59320 0.01090 0.31560
N1 N 0.7241(2) 0.20981(18) 0.35735(18)
O3 O 0.82894(16) 0.13897(15) 0.29719(15)
C14 C 0.9446(2) 0.2361(2) 0.2589(2)
O4 O 0.97745(19) 0.36635(15) 0.28398(18)
O5 O 1.01293(17) 0.15219(14) 0.18584(15)
C15 C 1.1316(2) 0.2180(2) 0.1170(2)
C16 C 1.1028(3) 0.1775(2) -0.0200(2)
H9 H 1.00410 0.12000 -0.06400
C17 C 1.2203(3) 0.2220(2) -0.0929(2)
H10 H 1.20300 0.19260 -0.18720
C18 C 1.3626(3) 0.3090(2) -0.0283(2)
H11 H 1.44280 0.34020 -0.07810
C19 C 1.3880(3) 0.3508(2) 0.1104(2)
H12 H 1.48550 0.41100 0.15460
C20 C 1.2719(3) 0.3053(2) 0.1844(2)
H13 H 1.28860 0.33350 0.27890
C21 C 0.1878(3) 0.3979(2) 0.6279(2)
H14 H 0.16100 0.42580 0.71700
H15 H 0.15690 0.46170 0.56780
#END
