
#######################################################################
#
#                 Cambridge Crystallographic Data Centre
#                                CCDC
#
#######################################################################
#
# If this CIF has been generated from an entry in the Cambridge
# Structural Database, then it will include bibliographic, chemical,
# crystal, experimental, refinement or atomic coordinate data resulting
# from the CCDC's data processing and validation procedures.
#
#######################################################################

data_CSD_CIF_UVISOI
_audit_creation_date 2011-08-30
_audit_creation_method CSD-ConQuest-V1
_database_code_CSD UVISOI
_database_code_depnum_ccdc_archive 'CCDC 826778'
_chemical_formula_sum 'C26 H28 N4 O4'
_chemical_formula_moiety
;
C26 H28 N4 O4
;
_journal_coden_Cambridge 182
_journal_volume 47
_journal_year 2011
_journal_page_first 8145
_journal_name_full 'Chem.Commun. '
loop_
_publ_author_name
"L.E.Kaim"
"L.Grimaud"
"X.-F.LeGoff"
"M.Menes-Azarte"
"L.D.Miranda"
_chemical_name_systematic
;
3-Acetyl-5-cyclohexyl-3a-(4-nitrophenyl)-1,2,3,3a,5a,6-hexahydropyrrolo[3',2':
3,4]pyrrolo[2,3-b]indol-4(5H)-one
;
_cell_volume   4700.776
_exptl_crystal_colour 'pale yellow'
_exptl_crystal_density_diffrn 1.301
_exptl_crystal_description 'plate'
_diffrn_ambient_temperature 150
#These two values have been output from a single CSD field.
_refine_ls_R_factor_gt 0.0555
_refine_ls_wR_factor_gt 0.0555
_symmetry_cell_setting orthorhombic
_symmetry_space_group_name_H-M 'P b c a'
_symmetry_Int_Tables_number 61
loop_
_symmetry_equiv_pos_site_id
_symmetry_equiv_pos_as_xyz
1 x,y,z
2 1/2-x,-y,1/2+z
3 1/2+x,1/2-y,-z
4 -x,1/2+y,1/2-z
5 -x,-y,-z
6 -1/2+x,y,-1/2-z
7 -1/2-x,-1/2+y,z
8 x,-1/2-y,-1/2+z
_cell_length_a 13.237(1)
_cell_length_b 14.763(1)
_cell_length_c 24.055(1)
_cell_angle_alpha 90
_cell_angle_beta 90
_cell_angle_gamma 90
_cell_formula_units_Z 8
loop_
_atom_type_symbol
_atom_type_radius_bond
C 0.68
H 0.23
N 0.68
O 0.68
loop_
_atom_site_label
_atom_site_type_symbol
_atom_site_fract_x
_atom_site_fract_y
_atom_site_fract_z
O1 O 0.28507(9) 0.35351(9) 0.24540(5)
O2 O 0.12787(12) 0.08857(9) 0.19123(6)
O3 O 0.47321(14) 0.41166(18) -0.01719(8)
O4 O 0.4166(3) 0.28273(16) -0.04139(10)
N1 N -0.00191(12) 0.51563(11) 0.22698(7)
H1 H -0.0467(16) 0.5387(14) 0.2516(9)
N2 N 0.12773(10) 0.41454(9) 0.25967(6)
N3 N 0.11327(11) 0.23927(9) 0.18507(6)
N4 N 0.41790(18) 0.34675(16) -0.01097(8)
C1 C 0.00659(12) 0.54386(12) 0.17242(8)
C2 C -0.01711(14) 0.62824(13) 0.15069(9)
H2 H -0.04460 0.67440 0.17370
C3 C 0.00018(15) 0.64360(14) 0.09507(10)
H3 H -0.01510 0.70130 0.07980
C4 C 0.03946(16) 0.57676(15) 0.06093(9)
H4 H 0.05200 0.58910 0.02280
C5 C 0.06053(14) 0.49109(14) 0.08275(8)
H5 H 0.08570 0.44440 0.05940
C6 C 0.04440(12) 0.47491(12) 0.13853(7)
C7 C 0.04798(12) 0.38797(11) 0.17206(7)
C8 C 0.02924(12) 0.42250(11) 0.23239(7)
H6 H -0.02320 0.38540 0.25180
C9 C 0.19809(12) 0.36861(11) 0.23089(7)
C10 C 0.14921(12) 0.33374(11) 0.17610(7)
C11 C 0.00214(14) 0.23163(13) 0.18219(9)
H7 H -0.02760 0.22730 0.21990
H8 H -0.01830 0.17780 0.16030
C12 C -0.03033(14) 0.31783(12) 0.15369(9)
H9 H -0.09900 0.33580 0.16560
H10 H -0.02980 0.31040 0.11280
C13 C 0.13929(12) 0.44513(12) 0.31770(7)
H11 H 0.07540 0.47720 0.32790
C14 C 0.22455(17) 0.51277(17) 0.32509(9)
H12 H 0.21280 0.56610 0.30100
H13 H 0.28940 0.48470 0.31400
C15 C 0.2299(2) 0.5428(2) 0.38602(11)
H14 H 0.28790 0.58440 0.39100
H15 H 0.16750 0.57610 0.39580
C16 C 0.24193(19) 0.4623(3) 0.42481(10)
H16 H 0.30720 0.43180 0.41730
H17 H 0.24270 0.48370 0.46380
C17 C 0.1571(2) 0.39592(19) 0.41704(9)
H18 H 0.09280 0.42460 0.42840
H19 H 0.16850 0.34270 0.44130
C18 C 0.14859(18) 0.36448(15) 0.35674(9)
H20 H 0.20910 0.32860 0.34670
H21 H 0.08860 0.32500 0.35260
C19 C 0.17005(15) 0.16314(12) 0.18792(8)
C20 C 0.28284(15) 0.16726(15) 0.18548(10)
H22 H 0.31140 0.12680 0.21370
H23 H 0.30520 0.22950 0.19260
H24 H 0.30580 0.14820 0.14860
C21 C 0.21687(12) 0.34087(11) 0.12562(7)
C22 C 0.20495(16) 0.28092(13) 0.08117(8)
H25 H 0.15170 0.23780 0.08190
C23 C 0.26957(19) 0.28361(14) 0.03631(8)
H26 H 0.26270 0.24150 0.00670
C24 C 0.34417(16) 0.34840(14) 0.03518(8)
C25 C 0.35461(14) 0.41229(13) 0.07656(8)
H27 H 0.40440 0.45840 0.07390
C26 C 0.29073(12) 0.40760(12) 0.12210(7)
H28 H 0.29750 0.45050 0.15130
#END
