
#######################################################################
#
#                 Cambridge Crystallographic Data Centre
#                                CCDC
#
#######################################################################
#
# If this CIF has been generated from an entry in the Cambridge
# Structural Database, then it will include bibliographic, chemical,
# crystal, experimental, refinement or atomic coordinate data resulting
# from the CCDC's data processing and validation procedures.
#
#######################################################################

data_CSD_CIF_UWOCAM
_audit_creation_date 2016-10-04
_audit_creation_method CSD-ConQuest-V1
_database_code_CSD UWOCAM
_database_code_depnum_ccdc_archive 'CCDC 864812'
_chemical_formula_sum 'C27 H24 N2 O3'
_chemical_formula_moiety
;
C27 H24 N2 O3
;
_journal_coden_Cambridge 731
_journal_volume 54
_journal_year 2016
_journal_page_first 17
_journal_name_full 'Magn.Reson.Chem. '
loop_
_publ_author_name
"L.U.Malucka"
"M.Vilkova"
"J.Kozisek"
"Jan Imrich"
_chemical_name_systematic
;
methyl 5-(acridin-4-yl)-3-mesityl-4,5-dihydro-1,2-oxazole-4-carboxylate
;
_cell_volume   1131.818
_exptl_crystal_colour 'colorless'
_exptl_crystal_density_diffrn 1.246
_exptl_crystal_description 'block'
_diffrn_ambient_temperature 293
#These two values have been output from a single CSD field.
_refine_ls_R_factor_gt 0.0542
_refine_ls_wR_factor_gt 0.0542
_symmetry_cell_setting triclinic
_symmetry_space_group_name_H-M 'P -1'
_symmetry_Int_Tables_number 2
loop_
_symmetry_equiv_pos_site_id
_symmetry_equiv_pos_as_xyz
1 x,y,z
2 -x,-y,-z
_cell_length_a 8.483(4)
_cell_length_b 9.417(2)
_cell_length_c 14.715(6)
_cell_angle_alpha 100.09(3)
_cell_angle_beta 92.18(3)
_cell_angle_gamma 101.27(3)
_cell_formula_units_Z 2
loop_
_atom_type_symbol
_atom_type_radius_bond
C 0.68
H 0.23
N 0.68
O 0.68
loop_
_atom_site_label
_atom_site_type_symbol
_atom_site_fract_x
_atom_site_fract_y
_atom_site_fract_z
C1 C 0.5344(3) 0.2397(2) 0.29165(16)
C2 C 0.6027(3) 0.3783(2) 0.25654(15)
H1 H 0.55680 0.45980 0.28790
C3 C 0.5383(3) 0.3369(2) 0.15474(15)
H2 H 0.62910 0.33650 0.11550
C4 C 0.5510(3) 0.2213(2) 0.38908(16)
C5 C 0.4415(3) 0.2715(3) 0.45005(18)
C6 C 0.4618(4) 0.2619(3) 0.54259(19)
H3 H 0.39070 0.29660 0.58330
C7 C 0.5822(4) 0.2036(3) 0.57622(18)
C8 C 0.6852(3) 0.1510(3) 0.51493(18)
H4 H 0.76600 0.10890 0.53680
C9 C 0.6728(3) 0.1584(2) 0.42145(16)
C10 C 0.3055(4) 0.3350(3) 0.4167(2)
H5 H 0.24070 0.35850 0.46710
H6 H 0.24030 0.26420 0.36810
H7 H 0.34860 0.42290 0.39380
C11 C 0.6021(4) 0.1967(3) 0.67779(19)
H8 H 0.69170 0.15180 0.68850
H9 H 0.50570 0.13930 0.69550
H10 H 0.62150 0.29470 0.71380
C12 C 0.7877(3) 0.0981(3) 0.35778(19)
H11 H 0.83190 0.02670 0.38420
H12 H 0.87340 0.17690 0.34950
H13 H 0.73150 0.05200 0.29890
C13 C 0.7837(3) 0.4196(3) 0.26912(19)
C14 C 1.0024(4) 0.5620(5) 0.3687(3)
H14 H 1.02300 0.63070 0.42640
H15 H 1.05030 0.60860 0.32050
H16 H 1.04820 0.47790 0.37370
C15 C 0.4363(3) 0.4381(2) 0.12673(14)
C16 C 0.9228(3) 0.7958(3) 0.15663(18)
H17 H 0.97640 0.72890 0.17730
C17 C 1.0072(4) 0.9299(3) 0.1489(2)
H18 H 1.11790 0.95430 0.16380
C18 C 0.9277(4) 1.0332(3) 0.1182(2)
H19 H 0.98670 1.12500 0.11260
C19 C 0.7679(4) 1.0005(3) 0.09706(19)
H20 H 0.71730 1.07050 0.07780
C20 C 0.5109(3) 0.8211(3) 0.08376(14)
H21 H 0.45550 0.88890 0.06590
C21 C 0.2586(3) 0.6333(3) 0.07127(16)
H22 H 0.19810 0.69610 0.05140
C22 C 0.1846(3) 0.4985(3) 0.08166(17)
H23 H 0.07320 0.46990 0.07110
C23 C 0.2747(3) 0.3995(3) 0.10863(16)
H24 H 0.22150 0.30550 0.11410
C24 C 0.5178(3) 0.5824(2) 0.11893(14)
C25 C 0.7555(3) 0.7552(2) 0.13405(15)
C26 C 0.6755(3) 0.8607(2) 0.10367(15)
C27 C 0.4273(3) 0.6821(2) 0.08995(14)
N1 N 0.4485(3) 0.1390(2) 0.23018(14)
N2 N 0.6771(2) 0.61935(19) 0.14169(12)
O1 O 0.4437(2) 0.18740(16) 0.14464(11)
O2 O 0.8311(2) 0.5153(2) 0.34693(14)
O3 O 0.8737(2) 0.3704(2) 0.21732(15)
#END
