
#######################################################################
#
#                 Cambridge Crystallographic Data Centre
#                                CCDC
#
#######################################################################
#
# If this CIF has been generated from an entry in the Cambridge
# Structural Database, then it will include bibliographic, chemical,
# crystal, experimental, refinement or atomic coordinate data resulting
# from the CCDC's data processing and validation procedures.
#
#######################################################################

data_CSD_CIF_UWOFAP
_audit_creation_date 2016-10-04
_audit_creation_method CSD-ConQuest-V1
_database_code_CSD UWOFAP
_database_code_depnum_ccdc_archive 'CCDC 1008066'
_chemical_formula_sum 'C14 H14 N4 O2'
_chemical_formula_moiety
;
C14 H14 N4 O2
;
_journal_coden_Cambridge 597
_journal_volume 127
_journal_year 2015
_journal_page_first 2171
_journal_name_full 'J.Chem.Sci.(Bangalore,India) '
loop_
_publ_author_name
"M.R.Melardi"
"F.B.S.Mogoii"
"A.B.Sajirani"
"J.A.Gharamaleki"
"B.Notash"
"M.K.Rofouei"
_chemical_name_systematic
;
3-(4-methyl-2-nitrophenyl)-1-(4-methylphenyl)triaz-1-ene
;
_cell_volume   1334.511
_exptl_crystal_colour 'orange'
_exptl_crystal_density_diffrn 1.345
_exptl_crystal_description 'needle'
_diffrn_ambient_temperature 120
#These two values have been output from a single CSD field.
_refine_ls_R_factor_gt 0.0958
_refine_ls_wR_factor_gt 0.0958
_symmetry_cell_setting monoclinic
_symmetry_space_group_name_H-M 'P 21/n'
_symmetry_Int_Tables_number 14
loop_
_symmetry_equiv_pos_site_id
_symmetry_equiv_pos_as_xyz
1 x,y,z
2 1/2-x,1/2+y,1/2-z
3 -x,-y,-z
4 -1/2+x,-1/2-y,-1/2+z
_cell_length_a 12.994(3)
_cell_length_b 5.7068(11)
_cell_length_c 18.004(4)
_cell_angle_alpha 90
_cell_angle_beta 91.66(3)
_cell_angle_gamma 90
_cell_formula_units_Z 4
loop_
_atom_type_symbol
_atom_type_radius_bond
C 0.68
H 0.23
N 0.68
O 0.68
loop_
_atom_site_label
_atom_site_type_symbol
_atom_site_fract_x
_atom_site_fract_y
_atom_site_fract_z
O1 O 0.08264(17) -0.0053(4) 0.14096(12)
O2 O 0.02937(19) -0.3185(4) 0.08584(13)
N1 N 0.2739(2) 0.5735(5) 0.13401(14)
N2 N 0.27568(19) 0.4611(5) 0.07375(14)
N3 N 0.2072(2) 0.2831(5) 0.07595(15)
N4 N 0.07757(19) -0.1342(5) 0.08577(14)
C1 C 0.5593(3) 1.3284(6) 0.1798(2)
H1 H 0.52140 1.47250 0.19040
H2 H 0.60130 1.35250 0.13610
H3 H 0.60400 1.28820 0.22260
C2 C 0.4839(2) 1.1311(6) 0.16471(18)
C3 C 0.4081(2) 1.0810(6) 0.21488(18)
H4 H 0.40320 1.17340 0.25850
C4 C 0.4898(3) 0.9935(6) 0.10081(18)
H5 H 0.54110 1.02600 0.06570
C5 C 0.3393(2) 0.8989(6) 0.20265(17)
H6 H 0.28770 0.86770 0.23760
C6 C 0.4214(3) 0.8095(6) 0.08804(18)
H7 H 0.42620 0.71660 0.04450
C7 C 0.3461(2) 0.7618(5) 0.13915(16)
C8 C 0.1926(2) 0.1349(5) 0.01591(16)
C9 C 0.1304(2) -0.0662(6) 0.01868(16)
C10 C 0.1155(2) -0.2121(6) -0.04278(17)
H8 H 0.07340 -0.34730 -0.03880
C11 C 0.1609(2) -0.1637(6) -0.10922(17)
C12 C 0.1426(3) -0.3146(6) -0.17694(18)
H9 H 0.13640 -0.47880 -0.16180
H10 H 0.20050 -0.29800 -0.21020
H11 H 0.07890 -0.26510 -0.20290
C13 C 0.2241(3) 0.0353(6) -0.11220(18)
H12 H 0.25690 0.07120 -0.15730
C14 C 0.2402(2) 0.1805(6) -0.05168(17)
H13 H 0.28390 0.31300 -0.05580
H14 H 0.170(3) 0.249(7) 0.118(2)
#END
