
#######################################################################
#
#                 Cambridge Crystallographic Data Centre
#                                CCDC
#
#######################################################################
#
# If this CIF has been generated from an entry in the Cambridge
# Structural Database, then it will include bibliographic, chemical,
# crystal, experimental, refinement or atomic coordinate data resulting
# from the CCDC's data processing and validation procedures.
#
#######################################################################

data_CSD_CIF_UWUDAT
_audit_creation_date 2016-10-05
_audit_creation_method CSD-ConQuest-V1
_database_code_CSD UWUDAT
_database_code_depnum_ccdc_archive 'CCDC 1468784'
_chemical_formula_sum 'C19 H21 N2 O4'
_chemical_formula_moiety
;
C19 H21 N2 O4
;
_journal_coden_Cambridge 1088
_journal_volume 27
_journal_year 2016
_journal_page_first 2357
_journal_name_full 'Synlett '
loop_
_publ_author_name
"B.Hajjaj"
"Anokhi Shah"
"S.Bell"
"S.L.Shirran"
"C.H.Botting"
"A.M.Z.Slawin"
"A.N.Hulme"
"J.E.Lovett"
_chemical_name_systematic
;
{3-[(2,5-dioxo-3-phenoxy-2,5-dihydro-1H-pyrrol-1-yl)methyl]-2,2,5,5-tetramethy
l-2,5-dihydro-1H-pyrrol-1-yl}oxidanyl radical
;
_cell_volume   1804.773
_exptl_crystal_colour 'colorless'
_exptl_crystal_density_diffrn 1.256
_exptl_crystal_description 'platelet'
_diffrn_ambient_temperature 93
#These two values have been output from a single CSD field.
_refine_ls_R_factor_gt 0.0728
_refine_ls_wR_factor_gt 0.0728
_symmetry_cell_setting monoclinic
_symmetry_space_group_name_H-M 'P 21/c'
_symmetry_Int_Tables_number 14
loop_
_symmetry_equiv_pos_site_id
_symmetry_equiv_pos_as_xyz
1 x,y,z
2 -x,1/2+y,1/2-z
3 -x,-y,-z
4 x,-1/2-y,-1/2+z
_cell_length_a 12.6544(10)
_cell_length_b 11.165(8)
_cell_length_c 12.953(11)
_cell_angle_alpha 90
_cell_angle_beta 99.54(2)
_cell_angle_gamma 90
_cell_formula_units_Z 4
loop_
_atom_type_symbol
_atom_type_radius_bond
C 0.68
H 0.23
N 0.68
O 0.68
loop_
_atom_site_label
_atom_site_type_symbol
_atom_site_fract_x
_atom_site_fract_y
_atom_site_fract_z
O1 O 0.50211(18) 0.3838(2) 0.29202(18)
O2 O -0.04351(16) 0.18747(16) 0.27372(13)
O3 O 0.11844(17) 0.44763(17) 0.52230(14)
O4 O -0.13394(16) 0.13179(16) 0.45480(13)
N1 N 0.4119(2) 0.3571(2) 0.31746(19)
N2 N 0.05468(19) 0.33039(19) 0.37863(16)
C1 C 0.3109(2) 0.4147(3) 0.26871(19)
C2 C 0.2329(2) 0.3520(2) 0.32766(18)
C3 C 0.2833(2) 0.2754(2) 0.3976(2)
H1 H 0.24650 0.22620 0.43990
C4 C 0.4021(2) 0.2730(2) 0.4044(2)
C5 C 0.2891(3) 0.3863(3) 0.1516(2)
H2 H 0.28450 0.29930 0.14160
H3 H 0.34750 0.41800 0.11850
H4 H 0.22130 0.42330 0.11970
C6 C 0.3164(3) 0.5493(3) 0.2872(2)
H5 H 0.37980 0.58180 0.26290
H6 H 0.32090 0.56560 0.36220
H7 H 0.25190 0.58720 0.24850
C7 C 0.4482(3) 0.1519(3) 0.3822(3)
H8 H 0.52420 0.16100 0.37700
H9 H 0.40930 0.12030 0.31610
H10 H 0.44090 0.09640 0.43920
C8 C 0.4611(3) 0.3255(3) 0.5073(2)
H11 H 0.53660 0.33850 0.50170
H12 H 0.45640 0.26950 0.56460
H13 H 0.42820 0.40190 0.52130
C9 C 0.1175(2) 0.3829(2) 0.30497(19)
H14 H 0.11000 0.47110 0.30640
H15 H 0.08780 0.35530 0.23340
C10 C -0.0183(2) 0.2404(2) 0.35600(19)
C11 C -0.0612(2) 0.2189(2) 0.45670(19)
C12 C -0.0147(2) 0.2935(2) 0.53023(19)
H16 H -0.02770 0.29760 0.60030
C13 C 0.0609(2) 0.3691(2) 0.4837(2)
C14 C -0.1702(2) 0.1118(2) 0.55185(19)
C15 C -0.2628(2) 0.1664(3) 0.5684(2)
H17 H -0.30080 0.21870 0.51750
C16 C -0.2999(3) 0.1433(3) 0.6617(2)
H18 H -0.36450 0.17900 0.67490
C17 C -0.2423(2) 0.0679(2) 0.7354(2)
H19 H -0.26720 0.05330 0.79950
C18 C -0.1496(2) 0.0137(3) 0.7169(2)
H20 H -0.11110 -0.03820 0.76790
C19 C -0.1125(2) 0.0353(2) 0.6231(2)
H21 H -0.04900 -0.00190 0.60880
#END
