
#######################################################################
#
#                 Cambridge Crystallographic Data Centre
#                                CCDC
#
#######################################################################
#
# If this CIF has been generated from an entry in the Cambridge
# Structural Database, then it will include bibliographic, chemical,
# crystal, experimental, refinement or atomic coordinate data resulting
# from the CCDC's data processing and validation procedures.
#
#######################################################################

data_CSD_CIF_UWUDIB
_audit_creation_date 2016-10-05
_audit_creation_method CSD-ConQuest-V1
_database_code_CSD UWUDIB
_database_code_depnum_ccdc_archive 'CCDC 1468786'
_chemical_formula_sum 'C18 H21 N2 O4'
_chemical_formula_moiety
;
C18 H21 N2 O4
;
_journal_coden_Cambridge 1088
_journal_volume 27
_journal_year 2016
_journal_page_first 2357
_journal_name_full 'Synlett '
loop_
_publ_author_name
"B.Hajjaj"
"Anokhi Shah"
"S.Bell"
"S.L.Shirran"
"C.H.Botting"
"A.M.Z.Slawin"
"A.N.Hulme"
"J.E.Lovett"
_chemical_name_systematic
;
{3-[(2,5-dioxo-3-phenoxy-2,5-dihydro-1H-pyrrol-1-yl)methyl]-2,2,5,5-tetramethy
lpyrrolidin-1-yl}oxidanyl radical
;
_cell_volume    839.197
_exptl_crystal_colour 'colorless'
_exptl_crystal_density_diffrn 1.303
_exptl_crystal_description 'prism'
_diffrn_ambient_temperature 125
#These two values have been output from a single CSD field.
_refine_ls_R_factor_gt 0.052
_refine_ls_wR_factor_gt 0.052
_symmetry_cell_setting triclinic
_symmetry_space_group_name_H-M 'P -1'
_symmetry_Int_Tables_number 2
loop_
_symmetry_equiv_pos_site_id
_symmetry_equiv_pos_as_xyz
1 x,y,z
2 -x,-y,-z
_cell_length_a 6.446(4)
_cell_length_b 11.311(7)
_cell_length_c 12.879(6)
_cell_angle_alpha 64.014(13)
_cell_angle_beta 89.960(7)
_cell_angle_gamma 84.44(2)
_cell_formula_units_Z 2
loop_
_atom_type_symbol
_atom_type_radius_bond
C 0.68
H 0.23
N 0.68
O 0.68
loop_
_atom_site_label
_atom_site_type_symbol
_atom_site_fract_x
_atom_site_fract_y
_atom_site_fract_z
O1 O 0.4734(3) 1.20120(18) 0.53061(15)
O2 O 0.5420(2) 0.72405(18) 0.97152(15)
O3 O -0.0698(3) 0.99594(17) 0.88083(16)
O4 O 0.2454(2) 0.55873(16) 1.10648(14)
N1 N 0.4314(3) 1.1511(2) 0.63735(17)
N2 N 0.2700(3) 0.8926(2) 0.90439(17)
C1 C 0.3823(4) 1.0125(2) 0.6994(2)
C2 C 0.3901(4) 0.9970(2) 0.8248(2)
H1 H 0.53930 0.97220 0.85390
C3 C 0.3251(4) 1.1348(3) 0.8165(2)
H2 H 0.38840 1.14410 0.88210
H3 H 0.17140 1.15050 0.81720
C4 C 0.4049(4) 1.2326(2) 0.7016(2)
C5 C 0.1677(4) 1.0021(3) 0.6553(2)
H4 H 0.17010 1.02730 0.57220
H5 H 0.06240 1.06150 0.66910
H6 H 0.13300 0.91090 0.69630
C6 C 0.5499(4) 0.9196(3) 0.6820(2)
H7 H 0.68740 0.93630 0.70170
H8 H 0.54400 0.93490 0.60100
H9 H 0.52650 0.82780 0.73200
C7 C 0.2442(4) 1.3516(3) 0.6360(3)
H10 H 0.11290 1.32090 0.62470
H11 H 0.29650 1.40780 0.56060
H12 H 0.22010 1.40260 0.68070
C8 C 0.6143(4) 1.2789(3) 0.7131(3)
H13 H 0.66740 1.32730 0.63610
H14 H 0.71390 1.20200 0.75920
H15 H 0.59630 1.33710 0.75140
C9 C 0.3611(4) 0.7643(2) 0.9691(2)
C10 C 0.1889(3) 0.6867(2) 1.03566(19)
C11 C 0.0117(4) 0.7656(2) 1.0102(2)
H16 H -0.11980 0.74090 1.04120
C12 C 0.0548(4) 0.8988(2) 0.9252(2)
C13 C 0.0936(4) 0.4833(2) 1.1783(2)
C14 C -0.1026(4) 0.4832(2) 1.1351(2)
H17 H -0.14130 0.53500 1.05550
C15 C -0.2421(4) 0.4055(2) 1.2110(2)
H18 H -0.37860 0.40510 1.18340
C16 C -0.1829(4) 0.3285(3) 1.3267(2)
H19 H -0.27920 0.27660 1.37850
C17 C 0.0184(4) 0.3276(3) 1.3666(2)
H20 H 0.06020 0.27290 1.44540
C18 C 0.1576(4) 0.4053(2) 1.2927(2)
H21 H 0.29470 0.40520 1.31980
#END
