
#######################################################################
#
#                 Cambridge Crystallographic Data Centre
#                                CCDC
#
#######################################################################
#
# If this CIF has been generated from an entry in the Cambridge
# Structural Database, then it will include bibliographic, chemical,
# crystal, experimental, refinement or atomic coordinate data resulting
# from the CCDC's data processing and validation procedures.
#
#######################################################################

data_CSD_CIF_UWUHOL
_audit_creation_date 2016-10-05
_audit_creation_method CSD-ConQuest-V1
_database_code_CSD UWUHOL
_database_code_depnum_ccdc_archive 'CCDC 1407347'
_chemical_formula_sum 'C22 H16 N4 O4'
_chemical_formula_moiety
;
C22 H16 N4 O4
;
_journal_coden_Cambridge 1012
_journal_volume 42
_journal_year 2016
_journal_page_first 6231
_journal_name_full 'Res.Chem.Intermed. '
loop_
_publ_author_name
"Dao-Qing Dong"
"Hui Zhang"
"Zu-Li Wang"
_chemical_name_systematic
;
(4-methoxyphenyl)(2-(2-nitrophenyl)-5-phenyl-2H-1,2,3-triazol-4-yl)methanone
;
_cell_volume    956.154
_exptl_crystal_density_diffrn 1.391
_exptl_crystal_description 'block'
_diffrn_ambient_temperature 296
#These two values have been output from a single CSD field.
_refine_ls_R_factor_gt 0.0442
_refine_ls_wR_factor_gt 0.0442
_symmetry_cell_setting triclinic
_symmetry_space_group_name_H-M 'P -1'
_symmetry_Int_Tables_number 2
loop_
_symmetry_equiv_pos_site_id
_symmetry_equiv_pos_as_xyz
1 x,y,z
2 -x,-y,-z
_cell_length_a 8.1753(4)
_cell_length_b 8.4886(4)
_cell_length_c 14.5040(6)
_cell_angle_alpha 98.9576(13)
_cell_angle_beta 101.6764(14)
_cell_angle_gamma 98.6971(14)
_cell_formula_units_Z 2
loop_
_atom_type_symbol
_atom_type_radius_bond
C 0.68
H 0.23
N 0.68
O 0.68
loop_
_atom_site_label
_atom_site_type_symbol
_atom_site_fract_x
_atom_site_fract_y
_atom_site_fract_z
C1 C 0.3187(2) 0.79894(18) 0.18589(12)
O1 O 0.26419(17) 0.89128(14) 0.13596(9)
O2 O 0.81032(17) 1.03529(16) 0.52958(9)
O3 O 0.34036(18) 0.36549(16) 0.35068(10)
O4 O 0.1289(2) 0.40254(19) 0.41345(11)
N1 N 0.17165(16) 0.37550(15) 0.05827(9)
N2 N 0.14961(16) 0.38100(14) 0.14733(9)
N3 N 0.20092(16) 0.52567(15) 0.20531(9)
N4 N 0.1897(2) 0.34264(17) 0.34951(10)
C2 C 0.44157(19) 0.85775(17) 0.27868(11)
C3 C 0.24276(18) 0.52711(17) 0.05788(11)
C4 C 0.26071(19) 0.62067(18) 0.14965(11)
C5 C 0.5988(2) 1.0875(2) 0.40054(13)
H1 H 0.62130 1.19860 0.42500
C6 C 0.4781(2) 1.02292(19) 0.31677(12)
H2 H 0.41950 1.09180 0.28480
C7 C 0.28814(19) 0.56898(18) -0.02957(11)
C8 C 0.5282(2) 0.75622(19) 0.32909(12)
H3 H 0.50340 0.64470 0.30600
C9 C 0.2047(2) 0.4734(2) -0.11759(12)
H4 H 0.12200 0.38320 -0.12070
C10 C 0.6493(2) 0.8194(2) 0.41228(13)
H5 H 0.70700 0.75070 0.44500
C11 C 0.4135(2) 0.7014(2) -0.02633(13)
H6 H 0.47210 0.76560 0.03250
C12 C 0.4515(2) 0.7381(2) -0.11003(15)
H7 H 0.53500 0.82730 -0.10740
C13 C 0.3665(3) 0.6432(2) -0.19698(15)
H8 H 0.39200 0.66840 -0.25320
C14 C 0.2436(3) 0.5111(2) -0.20088(14)
H9 H 0.18630 0.44670 -0.25990
C15 C 0.6861(2) 0.9853(2) 0.44787(12)
C16 C 0.06063(19) 0.24391(17) 0.17333(11)
C17 C 0.0715(2) 0.22815(18) 0.26809(11)
C18 C -0.0469(2) 0.12581(19) 0.10151(12)
H10 H -0.05720 0.13560 0.03770
C19 C -0.0253(2) 0.0985(2) 0.29072(13)
H11 H -0.02000 0.09090 0.35450
C20 C -0.1392(2) -0.0067(2) 0.12411(14)
H12 H -0.20840 -0.08790 0.07530
C21 C -0.1298(2) -0.0197(2) 0.21817(14)
H13 H -0.19420 -0.10840 0.23280
C22 C 0.8592(3) 1.2054(3) 0.56754(16)
H14 H 0.89950 1.25980 0.52090
H15 H 0.94810 1.22380 0.62470
H16 H 0.76290 1.24700 0.58260
#END
