
#######################################################################
#
#                 Cambridge Crystallographic Data Centre
#                                CCDC
#
#######################################################################
#
# If this CIF has been generated from an entry in the Cambridge
# Structural Database, then it will include bibliographic, chemical,
# crystal, experimental, refinement or atomic coordinate data resulting
# from the CCDC's data processing and validation procedures.
#
#######################################################################

data_CSD_CIF_UXAFUW
_audit_creation_date 2016-10-05
_audit_creation_method CSD-ConQuest-V1
_database_code_CSD UXAFUW
_database_code_depnum_ccdc_archive 'CCDC 1495243'
_chemical_formula_sum 'C22 H22 N2 O6'
_chemical_formula_moiety
;
C22 H22 N2 O6
;
_journal_coden_Cambridge 1500
_journal_volume 6
_journal_year 2016
_journal_page_first 95314
_journal_name_full 'RSC Advances '
loop_
_publ_author_name
"Chieh-Hung Peng"
"Bor-Cherng Hong"
"Arun Raja"
"Chun-Wei Chang"
"Gene-Hsiang Lee"
_chemical_name_systematic
;
3a-hydroxy-7a-methyl-4,6-dinitro-5,7-diphenyloctahydro-1H-inden-1-one
;
_cell_volume   1986.834
_exptl_crystal_colour 'colorless'
_exptl_crystal_density_diffrn 1.372
_exptl_special_details
;
Absolute configuration

;
_exptl_crystal_description 'needle'
_diffrn_ambient_temperature 200
#These two values have been output from a single CSD field.
_refine_ls_R_factor_gt 0.0318
_refine_ls_wR_factor_gt 0.0318
loop_
_citation_database_id_CSD
_citation_special_details
UXAFEG "is a stereoisomer of this entry"
_symmetry_cell_setting orthorhombic
_symmetry_space_group_name_H-M 'P 21 21 21'
_symmetry_Int_Tables_number 19
loop_
_symmetry_equiv_pos_site_id
_symmetry_equiv_pos_as_xyz
1 x,y,z
2 1/2-x,-y,1/2+z
3 -x,1/2+y,1/2-z
4 1/2+x,1/2-y,-z
_cell_length_a 6.6053(1)
_cell_length_b 16.3208(3)
_cell_length_c 18.4301(3)
_cell_angle_alpha 90
_cell_angle_beta 90
_cell_angle_gamma 90
_cell_formula_units_Z 4
loop_
_atom_type_symbol
_atom_type_radius_bond
C 0.68
H 0.23
N 0.68
O 0.68
loop_
_atom_site_label
_atom_site_type_symbol
_atom_site_fract_x
_atom_site_fract_y
_atom_site_fract_z
O1 O 0.3977(2) 0.9275(1) 0.19721(8)
O2 O 1.07391(19) 1.01133(8) 0.25854(6)
H1 H 1.14560 0.98390 0.22980
O3 O 0.5496(2) 1.01506(10) 0.07269(8)
O4 O 0.6566(3) 0.95843(11) -0.02609(8)
O5 O 0.9086(3) 1.21323(9) 0.20039(10)
O6 O 1.1908(3) 1.15456(10) 0.16947(9)
N1 N 0.6780(3) 0.97837(10) 0.03728(8)
N2 N 1.0082(3) 1.15467(10) 0.17769(9)
C1 C 0.5431(3) 0.96581(12) 0.21782(9)
C2 C 0.5302(3) 1.04331(14) 0.26302(12)
H2 H 0.44320 1.03440 0.30600
H3 H 0.47290 1.08880 0.23400
C3 C 0.7458(3) 1.06310(12) 0.28615(10)
H4 H 0.77470 1.04020 0.33480
H5 H 0.76780 1.12310 0.28750
C4 C 0.8809(3) 1.02293(11) 0.22836(9)
C5 C 0.7663(3) 0.94134(11) 0.21001(9)
C6 C 0.8473(3) 0.9006(1) 0.13973(9)
H6 H 0.99000 0.88660 0.15290
C7 C 0.8745(3) 0.95766(11) 0.07408(9)
H7 H 0.95950 0.92770 0.03790
C8 C 0.9871(3) 1.03757(10) 0.09293(9)
H8 H 1.12810 1.02190 0.10700
C9 C 0.8907(3) 1.07802(11) 0.15933(9)
H9 H 0.74950 1.09440 0.14630
C10 C 0.7970(3) 0.87945(12) 0.2726(1)
H10 H 0.75570 0.90470 0.31850
H11 H 0.94020 0.86390 0.27530
H12 H 0.71470 0.83050 0.26360
C11 C 0.7581(3) 0.81735(11) 0.11920(9)
C12 C 0.5654(3) 0.80692(12) 0.08994(10)
H13 H 0.48170 0.85340 0.08180
C13 C 0.4942(4) 0.72922(13) 0.07248(11)
H14 H 0.36290 0.72280 0.05220
C14 C 0.6149(4) 0.66103(12) 0.08465(11)
H15 H 0.56520 0.60790 0.07360
C15 C 0.8066(4) 0.67031(13) 0.11274(11)
H16 H 0.88960 0.62360 0.12070
C16 C 0.8786(3) 0.74811(11) 0.12943(10)
H17 H 1.01190 0.75420 0.14810
C17 C 1.0041(3) 1.09324(12) 0.02673(10)
C18 C 1.1571(3) 1.07854(15) -0.02315(11)
H18 H 1.25010 1.03510 -0.01500
C19 C 1.1755(4) 1.12702(18) -0.08505(12)
H19 H 1.28060 1.11640 -0.11900
C20 C 1.0410(4) 1.19048(16) -0.09715(12)
H20 H 1.05400 1.22380 -0.13920
C21 C 0.8890(5) 1.20519(14) -0.04829(13)
H21 H 0.79650 1.24870 -0.05660
C22 C 0.8695(4) 1.15675(13) 0.01332(12)
H22 H 0.76290 1.16720 0.04660
#END
