
#######################################################################
#
#                 Cambridge Crystallographic Data Centre
#                                CCDC
#
#######################################################################
#
# If this CIF has been generated from an entry in the Cambridge
# Structural Database, then it will include bibliographic, chemical,
# crystal, experimental, refinement or atomic coordinate data resulting
# from the CCDC's data processing and validation procedures.
#
#######################################################################

data_CSD_CIF_UXOQUU
_audit_creation_date 2011-10-11
_audit_creation_method CSD-ConQuest-V1
_database_code_CSD UXOQUU
_database_code_depnum_ccdc_archive 'CCDC 842258'
_chemical_formula_sum 'C20 H18 N2 O5'
_chemical_formula_moiety
;
C20 H18 N2 O5
;
_journal_coden_Cambridge 4
_journal_volume 133
_journal_year 2011
_journal_page_first 1141
_journal_name_full 'J.Am.Chem.Soc. '
loop_
_publ_author_name
"J.R.Zbieg"
"E.L.McInturff"
"J.C.Leung"
"M.J.Krische"
_chemical_name_systematic
;
2-(2-(Hydroxy(4-nitrophenyl)methyl)-2-methylbut-3-en-1-yl)-1H-isoindole-1,3(2H
)-dione
;
_cell_volume    854.027
_exptl_crystal_colour 'colorless'
_exptl_crystal_density_diffrn 1.425
_exptl_crystal_description 'needles'
_diffrn_ambient_temperature 100
#These two values have been output from a single CSD field.
_refine_ls_R_factor_gt 0.0688
_refine_ls_wR_factor_gt 0.0688
_symmetry_cell_setting triclinic
_symmetry_space_group_name_H-M 'P -1'
_symmetry_Int_Tables_number 2
loop_
_symmetry_equiv_pos_site_id
_symmetry_equiv_pos_as_xyz
1 x,y,z
2 -x,-y,-z
_cell_length_a 7.3019(6)
_cell_length_b 9.615(9)
_cell_length_c 13.028(2)
_cell_angle_alpha 75.958(5)
_cell_angle_beta 75.473(5)
_cell_angle_gamma 80.710(6)
_cell_formula_units_Z 2
loop_
_atom_type_symbol
_atom_type_radius_bond
C 0.68
H 0.23
N 0.68
O 0.68
loop_
_atom_site_label
_atom_site_type_symbol
_atom_site_fract_x
_atom_site_fract_y
_atom_site_fract_z
C1 C -0.3109(7) -0.2553(5) -0.5182(4)
C2 C -0.2372(6) -0.1111(4) -0.5599(3)
C3 C -0.1483(7) -0.0463(5) -0.6633(4)
C4 C -0.0993(7) 0.0928(5) -0.6793(4)
C5 C -0.1396(6) 0.1625(5) -0.5943(4)
C6 C -0.2279(6) 0.0973(5) -0.4901(4)
C7 C -0.2747(6) -0.0406(4) -0.4753(3)
C8 C -0.3708(6) -0.1382(4) -0.3755(3)
C9 C -0.4837(7) -0.3831(5) -0.3318(4)
C10 C -0.3569(6) -0.5033(4) -0.2707(3)
C11 C -0.2230(9) -0.5852(6) -0.3520(4)
C12 C -0.2542(7) -0.4413(5) -0.2073(4)
C13 C -0.0692(9) -0.4667(6) -0.2088(5)
C14 C -0.5026(6) -0.6039(4) -0.1906(3)
H1 H -0.58450 -0.62930 -0.23300
C15 C -0.4092(6) -0.7431(5) -0.1318(4)
C16 C -0.3529(6) -0.7508(5) -0.0350(4)
C17 C -0.2764(7) -0.8817(5) 0.0187(4)
C18 C -0.2504(6) -1.0006(4) -0.0268(3)
C19 C -0.3027(6) -0.9960(5) -0.1221(4)
C20 C -0.3845(7) -0.8655(5) -0.1733(4)
N1 N -0.3784(5) -0.2668(4) -0.4062(3)
N2 N -0.1765(5) -1.1420(4) 0.0303(3)
O1 O -0.3152(5) -0.3468(3) -0.5670(2)
O2 O -0.4359(4) -0.1133(3) -0.2862(2)
O3 O -0.6202(4) -0.5211(3) -0.1163(3)
H2 H -0.71450 -0.56490 -0.08060
O4 O -0.1412(4) -1.2440(3) -0.0173(2)
O5 O -0.1554(5) -1.1538(4) 0.1228(3)
H3 H -0.119(6) -0.098(4) -0.723(3)
H4 H -0.036(6) 0.138(4) -0.755(3)
H5 H -0.090(6) 0.259(5) -0.612(3)
H6 H -0.256(4) 0.145(3) -0.426(3)
H7 H -0.587(6) -0.340(4) -0.270(3)
H8 H -0.543(6) -0.430(5) -0.381(4)
H9 H -0.126(7) -0.654(6) -0.323(4)
H10 H -0.303(8) -0.617(5) -0.398(4)
H11 H -0.127(6) -0.525(4) -0.408(3)
H12 H -0.337(6) -0.368(4) -0.161(3)
H13 H -0.025(7) -0.425(5) -0.154(4)
H14 H 0.020(7) -0.539(5) -0.259(4)
H15 H -0.373(6) -0.658(5) -0.006(3)
H16 H -0.246(6) -0.890(4) 0.082(3)
H17 H -0.293(6) -1.089(4) -0.155(3)
H18 H -0.425(6) -0.860(4) -0.238(3)
#END
