
#######################################################################
#
#                 Cambridge Crystallographic Data Centre
#                                CCDC
#
#######################################################################
#
# If this CIF has been generated from an entry in the Cambridge
# Structural Database, then it will include bibliographic, chemical,
# crystal, experimental, refinement or atomic coordinate data resulting
# from the CCDC's data processing and validation procedures.
#
#######################################################################

data_CSD_CIF_UXUFUP
_audit_creation_date 2011-10-11
_audit_creation_method CSD-ConQuest-V1
_database_code_CSD UXUFUP
_database_code_depnum_ccdc_archive 'CCDC 827414'
_chemical_formula_sum 'C10 H16 N4 O2'
_chemical_formula_moiety
;
C10 H16 N4 O2
;
_journal_coden_Cambridge 24
_journal_volume 52
_journal_year 2011
_journal_page_first 4771
_journal_name_full 'Tetrahedron Lett. '
loop_
_publ_author_name
"L.E.Cheruzel"
"Jinlan Cui"
"M.S.Mashuta"
"C.A.Grapperhaus"
"R.M.Buchanan"
_chemical_name_systematic
;
N-(2-((Hydroxyimino)methyl)-1-methyl-1H-imidazol-4-yl)-2,2-dimethylpropanamide
;
_cell_volume   1169.702
_exptl_crystal_colour 'colorless'
_exptl_crystal_density_diffrn 1.274
_exptl_crystal_description 'plate'
_diffrn_ambient_temperature 100
#These two values have been output from a single CSD field.
_refine_ls_R_factor_gt 0.0573
_refine_ls_wR_factor_gt 0.0573
_symmetry_cell_setting monoclinic
_symmetry_space_group_name_H-M 'P 21/c'
_symmetry_Int_Tables_number 14
loop_
_symmetry_equiv_pos_site_id
_symmetry_equiv_pos_as_xyz
1 x,y,z
2 -x,1/2+y,1/2-z
3 -x,-y,-z
4 x,-1/2-y,-1/2+z
_cell_length_a 10.822(3)
_cell_length_b 9.155(3)
_cell_length_c 11.861(3)
_cell_angle_alpha 90
_cell_angle_beta 95.511(4)
_cell_angle_gamma 90
_cell_formula_units_Z 4
loop_
_atom_type_symbol
_atom_type_radius_bond
C 0.68
H 0.23
N 0.68
O 0.68
loop_
_atom_site_label
_atom_site_type_symbol
_atom_site_fract_x
_atom_site_fract_y
_atom_site_fract_z
O1 O 0.84603(16) 1.02787(18) 0.30589(14)
O2 O 0.42611(14) 1.20185(17) 0.84501(13)
H1 H 0.411(3) 1.296(3) 0.872(2)
N1 N 0.64020(15) 1.20990(18) 0.55282(14)
N2 N 0.63644(15) 0.97051(18) 0.57606(14)
N3 N 0.75436(16) 0.8897(2) 0.42966(15)
H2 H 0.742(2) 0.801(3) 0.4529(19)
N4 N 0.49531(16) 1.22738(19) 0.75303(15)
C1 C 0.60099(18) 1.0987(2) 0.61524(17)
C2 C 0.70068(18) 1.0036(2) 0.48647(16)
C3 C 0.70347(19) 1.1502(2) 0.46918(18)
H3 H 0.738(2) 1.206(2) 0.4119(19)
C4 C 0.6243(2) 1.3670(2) 0.57025(19)
H4 H 0.53570 1.38940 0.57040
H5 H 0.65830 1.42110 0.50900
H6 H 0.66810 1.39570 0.64300
C5 C 0.52851(19) 1.1068(2) 0.71172(18)
C6 C 0.82993(19) 0.9069(2) 0.34584(17)
C7 C 0.89738(19) 0.7705(2) 0.30913(18)
C8 C 0.8353(2) 0.6275(2) 0.33979(19)
H7 H 0.84130 0.61690 0.42240
H8 H 0.87720 0.54510 0.30690
H9 H 0.74780 0.62890 0.30970
C9 C 1.0293(2) 0.7781(3) 0.3692(2)
H10 H 1.06760 0.87130 0.35150
H11 H 1.07890 0.69740 0.34320
H12 H 1.02570 0.77040 0.45120
C10 C 0.9027(2) 0.7784(3) 0.18061(19)
H13 H 0.81830 0.77470 0.14260
H14 H 0.95080 0.69570 0.15580
H15 H 0.94250 0.87000 0.16120
H16 H 0.5044(19) 1.013(2) 0.7413(18)
#END
