
#######################################################################
#
#                 Cambridge Crystallographic Data Centre
#                                CCDC
#
#######################################################################
#
# If this CIF has been generated from an entry in the Cambridge
# Structural Database, then it will include bibliographic, chemical,
# crystal, experimental, refinement or atomic coordinate data resulting
# from the CCDC's data processing and validation procedures.
#
#######################################################################

data_CSD_CIF_UYURUD
_audit_creation_date 2016-11-04
_audit_creation_method CSD-ConQuest-V1
_database_code_CSD UYURUD
_database_code_depnum_ccdc_archive 'CCDC 912873'
_chemical_formula_sum 'C24 H26 N4 O4'
_chemical_formula_moiety
;
C24 H26 N4 O4
;
_journal_coden_Cambridge 1220
_journal_volume 19
_journal_year 2013
_journal_page_first 7181
_journal_name_full 'Chem.-Eur.J. '
loop_
_publ_author_name
"Sunyoung Lee"
"S.Diab"
"P.Queval"
"M.Sebban"
"I.Chataigner"
"S.R.Piettre"
_chemical_name_systematic
;
2,7-dibenzyl-8a,8b-dinitro-1,2,3,3a,5a,6,7,8,8a,8b-decahydropyrrolo[3,4-e]isoi
ndole
;
_cell_volume   2178.312
_exptl_crystal_colour 'orange'
_exptl_crystal_density_diffrn 1.325
_exptl_crystal_description 'tablet'
_diffrn_ambient_temperature 293
#These two values have been output from a single CSD field.
_refine_ls_R_factor_gt 0.0427
_refine_ls_wR_factor_gt 0.0427
_symmetry_cell_setting orthorhombic
_symmetry_space_group_name_H-M 'P c 21 n'
_symmetry_Int_Tables_number 33
loop_
_symmetry_equiv_pos_site_id
_symmetry_equiv_pos_as_xyz
1 x,y,z
2 1/2+x,1/2+y,1/2-z
3 1/2-x,y,1/2+z
4 -x,1/2+y,-z
_cell_length_a 7.9288(8)
_cell_length_b 19.448(2)
_cell_length_c 14.1266(15)
_cell_angle_alpha 90
_cell_angle_beta 90
_cell_angle_gamma 90
_cell_formula_units_Z 4
loop_
_atom_type_symbol
_atom_type_radius_bond
C 0.68
H 0.23
N 0.68
O 0.68
loop_
_atom_site_label
_atom_site_type_symbol
_atom_site_fract_x
_atom_site_fract_y
_atom_site_fract_z
N1 N 0.4383(3) 0.25031(13) 0.78353(16)
N2 N 0.9251(3) 0.42381(13) 0.68975(16)
N3 N 0.4196(3) 0.32667(15) 0.61112(15)
N4 N 0.7147(3) 0.34921(14) 0.51125(16)
O1 O 0.3120(3) 0.28604(14) 0.58821(17)
O2 O 0.4066(3) 0.38872(14) 0.60341(18)
O3 O 0.6507(3) 0.30196(14) 0.46950(15)
O4 O 0.7746(3) 0.39827(14) 0.47178(17)
C1 C 0.1247(4) 0.19587(17) 0.8738(2)
H1 H 0.10330 0.23370 0.83530
C2 C -0.0049(5) 0.1519(2) 0.8967(3)
H2 H -0.11240 0.16000 0.87280
C3 C 0.0219(5) 0.09733(19) 0.9533(2)
H3 H -0.06670 0.06810 0.96880
C4 C 0.1784(6) 0.0852(2) 0.9876(3)
H4 H 0.19710 0.04790 1.02740
C5 C 0.3120(5) 0.12858(19) 0.9633(3)
H5 H 0.41990 0.11910 0.98570
C6 C 0.2859(4) 0.18480(16) 0.90701(19)
C7 C 0.4235(4) 0.2355(2) 0.8847(2)
H6 H 0.40130 0.27810 0.91830
H7 H 0.53010 0.21740 0.90750
C8 C 0.4928(5) 0.19183(17) 0.7266(2)
H8 H 0.39600 0.16630 0.70360
H9 H 0.56280 0.16120 0.76390
C9 C 0.5943(3) 0.22166(15) 0.6429(2)
H10 H 0.54170 0.20870 0.58270
C10 C 0.5837(3) 0.30005(14) 0.65719(17)
C11 C 0.5543(3) 0.30585(16) 0.76407(18)
H11 H 0.65890 0.30000 0.79880
H12 H 0.50520 0.35000 0.78040
C12 C 0.7314(3) 0.34435(15) 0.61957(17)
C13 C 0.9077(3) 0.31174(15) 0.63674(19)
H13 H 0.97590 0.32230 0.58070
C14 C 0.9088(4) 0.23579(16) 0.6470(2)
H14 H 1.01270 0.21430 0.65460
C15 C 0.7734(4) 0.19685(17) 0.6461(2)
H15 H 0.79010 0.14950 0.64750
C16 C 0.7477(3) 0.41625(15) 0.6630(2)
H16 H 0.71590 0.45120 0.61730
H17 H 0.67550 0.42060 0.71810
C17 C 0.9789(3) 0.35494(15) 0.7175(2)
H18 H 0.93080 0.34170 0.77790
H19 H 1.10080 0.35150 0.72080
C18 C 0.9436(4) 0.47572(16) 0.7641(2)
H20 H 0.87150 0.46350 0.81700
H21 H 0.90580 0.51980 0.73990
C19 C 1.1221(4) 0.48285(15) 0.7990(2)
C20 C 1.1651(4) 0.4604(2) 0.8880(3)
H22 H 1.08320 0.44040 0.92620
C21 C 1.3275(5) 0.4672(2) 0.9217(3)
H23 H 1.35440 0.45210 0.98230
C22 C 1.4485(4) 0.49594(19) 0.8657(3)
H24 H 1.55830 0.50060 0.88800
C23 C 1.4077(4) 0.51794(17) 0.7763(3)
H25 H 1.49030 0.53740 0.73800
C24 C 1.2458(4) 0.51150(16) 0.7428(2)
H26 H 1.21950 0.52650 0.68210
#END
