
#######################################################################
#
#                 Cambridge Crystallographic Data Centre
#                                CCDC
#
#######################################################################
#
# If this CIF has been generated from an entry in the Cambridge
# Structural Database, then it will include bibliographic, chemical,
# crystal, experimental, refinement or atomic coordinate data resulting
# from the CCDC's data processing and validation procedures.
#
#######################################################################

data_CSD_CIF_UZAWOJ
_audit_creation_date 2016-11-04
_audit_creation_method CSD-ConQuest-V1
_database_code_CSD UZAWOJ
_database_code_depnum_ccdc_archive 'CCDC 1506286'
_chemical_formula_sum 'C4 H4 N6 O7'
_chemical_formula_moiety
;
C4 H4 N6 O7
;
_journal_coden_Cambridge 222
_journal_volume 45
_journal_year 2016
_journal_page_first 18909
_journal_name_full 'Dalton Trans. '
loop_
_publ_author_name
"Q.J.Axthammer"
"T.M.Klapotke"
"B.Krumm"
"R.Scharf"
"C.C.Unger"
_chemical_name_systematic
;
4,4,4-trinitrobutanoyl azide
;
_cell_volume    467.473
_exptl_crystal_colour 'colorless'
_exptl_crystal_density_diffrn 1.763
_exptl_crystal_description 'block'
_diffrn_ambient_temperature 100
#These two values have been output from a single CSD field.
_refine_ls_R_factor_gt 0.0309
_refine_ls_wR_factor_gt 0.0309
_symmetry_cell_setting triclinic
_symmetry_space_group_name_H-M 'P -1'
_symmetry_Int_Tables_number 2
loop_
_symmetry_equiv_pos_site_id
_symmetry_equiv_pos_as_xyz
1 x,y,z
2 -x,-y,-z
_cell_length_a 7.4160(5)
_cell_length_b 7.5385(6)
_cell_length_c 9.0347(8)
_cell_angle_alpha 70.713(8)
_cell_angle_beta 80.100(7)
_cell_angle_gamma 81.601(7)
_cell_formula_units_Z 2
loop_
_atom_type_symbol
_atom_type_radius_bond
C 0.68
H 0.23
N 0.68
O 0.68
loop_
_atom_site_label
_atom_site_type_symbol
_atom_site_fract_x
_atom_site_fract_y
_atom_site_fract_z
H1 H 0.378(2) 0.413(2) 0.1326(18)
H2 H 0.216(2) 0.575(2) 0.087(2)
H3 H 0.381(2) 0.480(3) 0.371(2)
H4 H 0.227(2) 0.636(2) 0.330(2)
C1 C 0.13830(18) 0.32995(19) 0.25378(16)
C2 C 0.27179(18) 0.4782(2) 0.17659(17)
C3 C 0.3282(2) 0.5701(2) 0.28695(18)
C4 C 0.46565(17) 0.70870(19) 0.19632(17)
N1 N 0.12868(14) 0.21194(16) 0.14658(14)
N2 N 0.19272(17) 0.19228(16) 0.40896(14)
N3 N -0.05937(15) 0.40911(17) 0.29229(14)
N4 N 0.53102(16) 0.78319(17) 0.29878(14)
N5 N 0.64411(16) 0.90474(17) 0.22376(14)
N6 N 0.74495(19) 1.0116(2) 0.17012(16)
O1 O 0.09088(13) 0.30344(14) 0.01533(12)
O2 O 0.15949(13) 0.04165(13) 0.19888(12)
O3 O 0.35386(14) 0.13098(15) 0.40455(13)
O4 O 0.07365(15) 0.15714(15) 0.52257(12)
O5 O -0.18229(14) 0.32850(17) 0.27729(14)
O6 O -0.07630(13) 0.54618(15) 0.33707(13)
O7 O 0.51209(13) 0.75092(14) 0.05546(12)
#END
