
#######################################################################
#
#                 Cambridge Crystallographic Data Centre
#                                CCDC
#
#######################################################################
#
# If this CIF has been generated from an entry in the Cambridge
# Structural Database, then it will include bibliographic, chemical,
# crystal, experimental, refinement or atomic coordinate data resulting
# from the CCDC's data processing and validation procedures.
#
#######################################################################

data_CSD_CIF_UZAXIE
_audit_creation_date 2016-11-04
_audit_creation_method CSD-ConQuest-V1
_database_code_CSD UZAXIE
_database_code_depnum_ccdc_archive 'CCDC 1506290'
_chemical_formula_sum 'C6 H6 N6 O14'
_chemical_formula_moiety
;
C6 H6 N6 O14
;
_journal_coden_Cambridge 222
_journal_volume 45
_journal_year 2016
_journal_page_first 18909
_journal_name_full 'Dalton Trans. '
loop_
_publ_author_name
"Q.J.Axthammer"
"T.M.Klapotke"
"B.Krumm"
"R.Scharf"
"C.C.Unger"
_chemical_name_systematic
;
2,2,2-trinitroethyl 4,4,4-trinitrobutanoate
;
_cell_volume   1372.568
_exptl_crystal_colour 'colorless'
_exptl_crystal_density_diffrn 1.869
_exptl_crystal_description 'plate'
_diffrn_ambient_temperature 100
#These two values have been output from a single CSD field.
_refine_ls_R_factor_gt 0.0301
_refine_ls_wR_factor_gt 0.0301
_symmetry_cell_setting monoclinic
_symmetry_space_group_name_H-M 'P 21/n'
_symmetry_Int_Tables_number 14
loop_
_symmetry_equiv_pos_site_id
_symmetry_equiv_pos_as_xyz
1 x,y,z
2 1/2-x,1/2+y,1/2-z
3 -x,-y,-z
4 -1/2+x,-1/2-y,-1/2+z
_cell_length_a 5.7264(3)
_cell_length_b 21.6530(11)
_cell_length_c 11.0910(6)
_cell_angle_alpha 90
_cell_angle_beta 93.555(4)
_cell_angle_gamma 90
_cell_formula_units_Z 4
loop_
_atom_type_symbol
_atom_type_radius_bond
C 0.68
H 0.23
N 0.68
O 0.68
loop_
_atom_site_label
_atom_site_type_symbol
_atom_site_fract_x
_atom_site_fract_y
_atom_site_fract_z
C1 C 0.2458(2) 0.51848(6) 0.24117(12)
C2 C 0.1047(2) 0.47740(6) 0.31999(13)
C3 C 0.2290(2) 0.41897(7) 0.36294(12)
C4 C 0.0980(2) 0.38725(6) 0.45786(12)
C5 C 0.1286(2) 0.30066(6) 0.59120(13)
C6 C 0.1722(2) 0.23479(6) 0.55093(12)
N1 N 0.42689(18) 0.55824(5) 0.31219(10)
N2 N 0.08938(19) 0.56403(5) 0.16917(11)
N3 N 0.3785(2) 0.48245(5) 0.1491(1)
N4 N 0.41818(19) 0.22861(5) 0.50684(11)
N5 N 0.1514(2) 0.18934(5) 0.65389(10)
N6 N 0.00426(19) 0.21304(6) 0.44771(10)
O1 O 0.55652(16) 0.52981(5) 0.38415(9)
O2 O 0.42844(17) 0.61335(5) 0.29147(9)
O3 O 0.13185(19) 0.57293(5) 0.06475(9)
O4 O -0.06166(16) 0.58824(5) 0.22595(10)
O5 O 0.26530(19) 0.44186(5) 0.09754(9)
O6 O 0.58018(17) 0.49724(5) 0.13507(9)
O7 O -0.09274(16) 0.40063(5) 0.48871(9)
O8 O 0.22966(16) 0.33961(4) 0.50501(9)
O9 O 0.43806(17) 0.20832(5) 0.40601(9)
O10 O 0.57293(16) 0.24625(5) 0.57887(10)
O11 O 0.29414(19) 0.14772(5) 0.6650(1)
O12 O -0.01305(17) 0.19917(5) 0.71578(9)
O13 O -0.05443(17) 0.15925(5) 0.44842(10)
O14 O -0.05187(17) 0.25223(5) 0.37240(9)
H1 H 0.235(3) 0.3907(8) 0.2976(16)
H2 H 0.381(3) 0.4258(8) 0.3937(16)
H3 H -0.037(3) 0.4690(7) 0.2744(15)
H4 H 0.063(3) 0.5025(8) 0.3871(15)
H5 H 0.207(3) 0.3065(7) 0.6693(15)
H6 H -0.033(3) 0.3073(7) 0.5939(13)
#END
