
#######################################################################
#
#                 Cambridge Crystallographic Data Centre
#                                CCDC
#
#######################################################################
#
# If this CIF has been generated from an entry in the Cambridge
# Structural Database, then it will include bibliographic, chemical,
# crystal, experimental, refinement or atomic coordinate data resulting
# from the CCDC's data processing and validation procedures.
#
#######################################################################

data_CSD_CIF_UZEPIA
_audit_creation_date 2016-11-07
_audit_creation_method CSD-ConQuest-V1
_database_code_CSD UZEPIA
_database_code_depnum_ccdc_archive 'CCDC 1006040'
_chemical_formula_sum 'C15 H16 N2 O3'
_chemical_formula_moiety
;
C15 H16 N2 O3
;
_journal_coden_Cambridge 177
_journal_volume 14
_journal_year 2016
_journal_page_first 10953
_journal_name_full 'Org.Biomol.Chem. '
loop_
_publ_author_name
"R.C.Furnival"
"Rungroj Saruengkhanphasit"
"H.E.Holberry"
"J.R.Shewring"
"H.D.S.Guerrand"
"H.Adams"
"I.Coldham"
_chemical_name_systematic
;
(3aR*,3bS*,8aS*)-2-phenylhexahydropyrrolo[3',4':4,5][1,2]oxazolo[2,3-a]pyridin
e-1,3(2H,3aH)-dione
;
_cell_volume   1298.606
_exptl_crystal_colour 'colorless'
_exptl_crystal_density_diffrn 1.393
_exptl_crystal_description 'Block'
_diffrn_ambient_temperature 100
#These two values have been output from a single CSD field.
_refine_ls_R_factor_gt 0.0715
_refine_ls_wR_factor_gt 0.0715
_symmetry_cell_setting monoclinic
_symmetry_space_group_name_H-M 'P 21/n'
_symmetry_Int_Tables_number 14
loop_
_symmetry_equiv_pos_site_id
_symmetry_equiv_pos_as_xyz
1 x,y,z
2 1/2-x,1/2+y,1/2-z
3 -x,-y,-z
4 -1/2+x,-1/2-y,-1/2+z
_cell_length_a 12.9691(19)
_cell_length_b 6.6225(11)
_cell_length_c 15.583(3)
_cell_angle_alpha 90
_cell_angle_beta 104.005(11)
_cell_angle_gamma 90
_cell_formula_units_Z 4
loop_
_atom_type_symbol
_atom_type_radius_bond
C 0.68
H 0.23
N 0.68
O 0.68
loop_
_atom_site_label
_atom_site_type_symbol
_atom_site_fract_x
_atom_site_fract_y
_atom_site_fract_z
O1 O 0.67906(18) 0.6034(4) 0.44441(16)
O2 O 0.48721(19) 0.3368(3) 0.38955(16)
O3 O 0.47529(18) 0.8296(3) 0.18306(15)
N1 N 0.45397(19) 0.5691(4) 0.27520(17)
N2 N 0.7206(2) 0.6074(4) 0.36453(19)
C1 C 0.4972(2) 0.7526(5) 0.2553(2)
C2 C 0.5751(2) 0.8286(5) 0.3376(2)
H1 H 0.55640 0.96650 0.35510
C3 C 0.6929(3) 0.8148(5) 0.3314(2)
H2 H 0.69660 0.82470 0.26810
C4 C 0.7600(3) 0.9819(5) 0.3854(2)
H3 H 0.74420 1.11210 0.35370
H4 H 0.74160 0.99510 0.44320
C5 C 0.8782(3) 0.9341(5) 0.4002(2)
H5 H 0.89740 0.92420 0.34260
H6 H 0.92100 1.04340 0.43500
C6 C 0.9014(3) 0.7364(6) 0.4494(3)
H7 H 0.88260 0.74660 0.50720
H8 H 0.97810 0.70470 0.46040
C7 C 0.8361(3) 0.5694(5) 0.3938(3)
H9 H 0.86400 0.54740 0.34080
H10 H 0.84710 0.44280 0.42870
C8 C 0.5731(2) 0.6706(5) 0.4089(2)
H11 H 0.54250 0.72930 0.45640
C9 C 0.5020(2) 0.5000(5) 0.3604(2)
C10 C 0.3710(2) 0.4653(5) 0.2125(2)
C11 C 0.3887(2) 0.2736(5) 0.1830(2)
H12 H 0.45500 0.20810 0.20470
C12 C 0.3076(3) 0.1788(5) 0.1212(2)
H13 H 0.31880 0.04770 0.10040
C13 C 0.2108(3) 0.2741(5) 0.0897(2)
H14 H 0.15590 0.20850 0.04750
C14 C 0.1940(3) 0.4660(5) 0.1200(2)
H15 H 0.12760 0.53130 0.09840
C15 C 0.2743(2) 0.5623(5) 0.1818(2)
H16 H 0.26300 0.69320 0.20280
#END
