
#######################################################################
#
#                 Cambridge Crystallographic Data Centre
#                                CCDC
#
#######################################################################
#
# If this CIF has been generated from an entry in the Cambridge
# Structural Database, then it will include bibliographic, chemical,
# crystal, experimental, refinement or atomic coordinate data resulting
# from the CCDC's data processing and validation procedures.
#
#######################################################################

data_CSD_CIF_UZEPUM
_audit_creation_date 2016-11-07
_audit_creation_method CSD-ConQuest-V1
_database_code_CSD UZEPUM
_database_code_depnum_ccdc_archive 'CCDC 1006042'
_chemical_formula_sum 'C16 H18 N2 O5'
_chemical_formula_moiety
;
C16 H18 N2 O5
;
_journal_coden_Cambridge 177
_journal_volume 14
_journal_year 2016
_journal_page_first 10953
_journal_name_full 'Org.Biomol.Chem. '
loop_
_publ_author_name
"R.C.Furnival"
"Rungroj Saruengkhanphasit"
"H.E.Holberry"
"J.R.Shewring"
"H.D.S.Guerrand"
"H.Adams"
"I.Coldham"
_chemical_name_systematic
;
(8aR*,11aS*,11bR*)-2,3-dimethoxy-10-methyl-5,8a,11a,11b-tetrahydropyrrolo[3',4
':4,5][1,2]oxazolo[3,2-a]isoquinoline-9,11(6H,10H)-dione
;
_cell_volume   1458.567
_exptl_crystal_colour 'colorless'
_exptl_crystal_density_diffrn 1.45
_exptl_crystal_description 'block'
_diffrn_ambient_temperature 100
#These two values have been output from a single CSD field.
_refine_ls_R_factor_gt 0.0499
_refine_ls_wR_factor_gt 0.0499
_symmetry_cell_setting monoclinic
_symmetry_space_group_name_H-M 'P 21/c'
_symmetry_Int_Tables_number 14
loop_
_symmetry_equiv_pos_site_id
_symmetry_equiv_pos_as_xyz
1 x,y,z
2 -x,1/2+y,1/2-z
3 -x,-y,-z
4 x,-1/2-y,-1/2+z
_cell_length_a 9.8243(10)
_cell_length_b 8.6128(8)
_cell_length_c 17.8328(18)
_cell_angle_alpha 90
_cell_angle_beta 104.843(5)
_cell_angle_gamma 90
_cell_formula_units_Z 4
loop_
_atom_type_symbol
_atom_type_radius_bond
C 0.68
H 0.23
N 0.68
O 0.68
loop_
_atom_site_label
_atom_site_type_symbol
_atom_site_fract_x
_atom_site_fract_y
_atom_site_fract_z
O1 O 1.06684(13) 0.44368(14) 0.68439(7)
O2 O 0.21901(12) 0.56678(13) 0.23510(7)
O3 O 0.31917(12) 0.29736(13) 0.27987(6)
O4 O 0.92732(12) 0.63808(13) 0.54603(6)
O5 O 0.72379(14) 0.17723(14) 0.51165(7)
N1 N 0.82523(14) 0.67051(16) 0.47304(8)
N2 N 0.90942(14) 0.27889(16) 0.60406(8)
C1 C 0.95941(17) 0.42236(19) 0.63403(10)
C2 C 0.85651(17) 0.54482(19) 0.59248(9)
H1 H 0.81970 0.60810 0.62860
C3 C 0.74094(17) 0.45717(18) 0.53552(9)
H2 H 0.64860 0.47490 0.54540
C4 C 0.74800(17) 0.52259(19) 0.45527(9)
H3 H 0.80500 0.45150 0.43300
C5 C 0.60665(17) 0.54176(19) 0.39737(9)
C6 C 0.53183(17) 0.40795(19) 0.36621(9)
H4 H 0.56970 0.31060 0.38170
C7 C 0.40256(17) 0.41899(19) 0.31272(9)
C8 C 0.34640(17) 0.56755(19) 0.28859(9)
C9 C 0.16177(18) 0.7146(2) 0.20619(10)
H5 H 0.14320 0.77440 0.24790
H6 H 0.07570 0.69940 0.16680
H7 H 0.22810 0.76890 0.18450
C10 C 0.36502(18) 0.14529(18) 0.30651(10)
H8 H 0.45510 0.12510 0.29680
H9 H 0.29800 0.07020 0.27940
H10 H 0.37280 0.13810 0.36120
C11 C 0.55060(18) 0.68826(19) 0.37518(10)
C12 C 0.62881(19) 0.83206(19) 0.4095(1)
H11 H 0.56230 0.90990 0.41720
H12 H 0.67930 0.87400 0.37390
C13 C 0.73216(18) 0.79561(19) 0.48652(10)
H13 H 0.78700 0.88710 0.50650
H14 H 0.68200 0.76260 0.52410
C14 C 0.78460(18) 0.28861(19) 0.54661(10)
C15 C 0.98400(19) 0.13408(19) 0.62709(11)
H15 H 1.06630 0.15340 0.66860
H16 H 1.01160 0.09060 0.58370
H17 H 0.92350 0.06250 0.64430
C16 C 0.41972(17) 0.69887(19) 0.32054(10)
H18 H 0.38150 0.79630 0.30550
#END
