
#######################################################################
#
#                 Cambridge Crystallographic Data Centre
#                                CCDC
#
#######################################################################
#
# If this CIF has been generated from an entry in the Cambridge
# Structural Database, then it will include bibliographic, chemical,
# crystal, experimental, refinement or atomic coordinate data resulting
# from the CCDC's data processing and validation procedures.
#
#######################################################################

data_CSD_CIF_UZEPOG
_audit_creation_date 2016-11-07
_audit_creation_method CSD-ConQuest-V1
_database_code_CSD UZEPOG
_database_code_depnum_ccdc_archive 'CCDC 1006041'
_chemical_formula_sum 'C21 H20 N2 O5'
_chemical_formula_moiety
;
C21 H20 N2 O5
;
_journal_coden_Cambridge 177
_journal_volume 14
_journal_year 2016
_journal_page_first 10953
_journal_name_full 'Org.Biomol.Chem. '
loop_
_publ_author_name
"R.C.Furnival"
"Rungroj Saruengkhanphasit"
"H.E.Holberry"
"J.R.Shewring"
"H.D.S.Guerrand"
"H.Adams"
"I.Coldham"
_chemical_name_systematic
;
(8aR*,11aS*,11bR*)-2,3-dimethoxy-10-phenyl-5,8a,11a,11b-tetrahydropyrrolo[3',4
':4,5][1,2]oxazolo[3,2-a]isoquinoline-9,11(6H,10H)-dione
;
_cell_volume   1801.352
_exptl_crystal_colour 'colorless'
_exptl_crystal_density_diffrn 1.403
_exptl_crystal_description 'block'
_diffrn_ambient_temperature 97
#These two values have been output from a single CSD field.
_refine_ls_R_factor_gt 0.0412
_refine_ls_wR_factor_gt 0.0412
_symmetry_cell_setting monoclinic
_symmetry_space_group_name_H-M 'P 21/c'
_symmetry_Int_Tables_number 14
loop_
_symmetry_equiv_pos_site_id
_symmetry_equiv_pos_as_xyz
1 x,y,z
2 -x,1/2+y,1/2-z
3 -x,-y,-z
4 x,-1/2-y,-1/2+z
_cell_length_a 10.6709(10)
_cell_length_b 7.6760(7)
_cell_length_c 22.1886(18)
_cell_angle_alpha 90
_cell_angle_beta 97.635(4)
_cell_angle_gamma 90
_cell_formula_units_Z 4
loop_
_atom_type_symbol
_atom_type_radius_bond
C 0.68
H 0.23
N 0.68
O 0.68
loop_
_atom_site_label
_atom_site_type_symbol
_atom_site_fract_x
_atom_site_fract_y
_atom_site_fract_z
N1 N 0.23140(9) 0.50476(13) 0.26145(4)
N2 N 0.11395(9) 0.79359(13) 0.15315(4)
O1 O -0.34845(8) 0.58143(11) -0.05691(4)
O2 O -0.24021(8) 0.28961(11) -0.00674(4)
O3 O 0.02691(8) 0.82050(11) 0.19930(4)
O4 O 0.20227(10) 0.75413(12) 0.31602(4)
O5 O 0.20692(8) 0.27979(11) 0.19268(4)
C1 C -0.19363(11) 0.45037(15) 0.01402(5)
C2 C -0.24861(11) 0.60343(16) -0.01220(5)
C3 C -0.19911(12) 0.76326(16) 0.00871(5)
H1 H -0.23560 0.86770 -0.00870
C4 C -0.09643(11) 0.77286(15) 0.05499(5)
C5 C -0.04179(11) 0.61994(15) 0.07998(5)
C6 C -0.09167(11) 0.45983(15) 0.05884(5)
H2 H -0.05440 0.35530 0.07570
C7 C 0.07411(11) 0.62122(15) 0.12750(5)
H3 H 0.14630 0.56840 0.10940
C8 C 0.05490(11) 0.51789(15) 0.18538(5)
H4 H -0.02220 0.44260 0.17880
C9 C 0.17062(11) 0.41644(15) 0.21121(5)
C10 C 0.16695(12) 0.65383(16) 0.27547(5)
C11 C 0.04261(11) 0.66168(15) 0.23184(5)
H5 H -0.03130 0.63920 0.25410
C12 C 0.08911(12) 0.93568(15) 0.10904(5)
H6 H 0.14460 0.92060 0.07700
H7 H 0.11220 1.04730 0.13000
C13 C -0.04752(12) 0.94736(15) 0.07877(5)
H8 H -0.10130 0.99110 0.10860
H9 H -0.05300 1.03160 0.04470
C14 C 0.34488(11) 0.43781(15) 0.29609(5)
C15 C 0.33427(13) 0.31074(18) 0.33931(6)
H10 H 0.25340 0.27280 0.34740
C16 C 0.44351(14) 0.23947(19) 0.37071(6)
H11 H 0.43760 0.15280 0.40080
C17 C 0.56116(13) 0.29446(18) 0.35829(6)
H12 H 0.63570 0.24490 0.37970
C18 C 0.57040(12) 0.42116(17) 0.31480(6)
H13 H 0.65120 0.45830 0.30640
C19 C 0.46173(12) 0.49433(16) 0.28330(6)
H14 H 0.46760 0.58170 0.25350
C20 C -0.39218(13) 0.73299(17) -0.09105(6)
H15 H -0.42500 0.81770 -0.06400
H16 H -0.45960 0.70000 -0.12340
H17 H -0.32190 0.78500 -0.10900
C21 C -0.34840(12) 0.23970(17) 0.02126(6)
H18 H -0.32400 0.22810 0.06520
H19 H -0.38090 0.12800 0.00440
H20 H -0.41420 0.32890 0.01320
#END
