
#######################################################################
#
#                 Cambridge Crystallographic Data Centre
#                                CCDC
#
#######################################################################
#
# If this CIF has been generated from an entry in the Cambridge
# Structural Database, then it will include bibliographic, chemical,
# crystal, experimental, refinement or atomic coordinate data resulting
# from the CCDC's data processing and validation procedures.
#
#######################################################################

data_CSD_CIF_UZEVUS
_audit_creation_date 2016-11-07
_audit_creation_method CSD-ConQuest-V1
_database_code_CSD UZEVUS
_database_code_depnum_ccdc_archive 'CCDC 1500614'
_chemical_formula_sum 'C6 H8 N4 O6'
_chemical_formula_moiety
;
C6 H8 N4 O6
;
_journal_coden_Cambridge 1699
_journal_volume 4
_journal_year 2016
_journal_page_first 17791
_journal_name_full 'J.Mater.Chem.A '
loop_
_publ_author_name
"Yuangang Xu"
"Cheng Shen"
"Qiuhan Lin"
"Pengcheng Wang"
"Chao Jiang"
"Ming Lu"
_chemical_name_systematic
;
2-(dinitromethylene)hexahydro-1H-[1,4]dioxino[2,3-d]imidazole
;
_cell_volume    859.120
_exptl_crystal_density_diffrn 1.795
_exptl_crystal_description 'plate'
_diffrn_ambient_temperature 293
#These two values have been output from a single CSD field.
_refine_ls_R_factor_gt 0.0492
_refine_ls_wR_factor_gt 0.0492
_symmetry_cell_setting monoclinic
_symmetry_space_group_name_H-M 'P 21/c'
_symmetry_Int_Tables_number 14
loop_
_symmetry_equiv_pos_site_id
_symmetry_equiv_pos_as_xyz
1 x,y,z
2 -x,1/2+y,1/2-z
3 -x,-y,-z
4 x,-1/2-y,-1/2+z
_cell_length_a 10.125(2)
_cell_length_b 8.3450(17)
_cell_length_c 10.583(2)
_cell_angle_alpha 90
_cell_angle_beta 106.10(3)
_cell_angle_gamma 90
_cell_formula_units_Z 4
loop_
_atom_type_symbol
_atom_type_radius_bond
C 0.68
H 0.23
N 0.68
O 0.68
loop_
_atom_site_label
_atom_site_type_symbol
_atom_site_fract_x
_atom_site_fract_y
_atom_site_fract_z
O1 O 0.06440(18) 0.1554(2) 0.56135(18)
N1 N 0.3091(2) 0.1282(3) 0.5991(2)
H1 H 0.31410 0.17370 0.52770
C1 C 0.0568(3) 0.3109(4) 0.6166(3)
H2 H -0.03130 0.35950 0.57410
H3 H 0.12840 0.37910 0.60130
O2 O 0.20609(19) 0.2305(3) 0.82383(17)
N2 N 0.3681(2) 0.0466(3) 0.8022(2)
H4 H 0.41800 0.00170 0.87230
C2 C 0.1812(3) 0.0699(3) 0.6242(3)
H5 H 0.16760 -0.04230 0.59640
N3 N 0.6590(2) 0.0998(3) 0.8310(2)
O3 O 0.7698(2) 0.1679(3) 0.8502(2)
C3 C 0.2233(3) 0.0756(4) 0.7744(3)
H6 H 0.17710 -0.00750 0.81190
N4 N 0.5998(2) 0.1586(3) 0.5981(2)
O4 O 0.6311(2) 0.0113(3) 0.91439(19)
C4 C 0.0738(3) 0.2974(4) 0.7615(3)
H7 H 0.06590 0.40250 0.79790
H8 H 0.00230 0.22930 0.77720
O5 O 0.7216(2) 0.1524(3) 0.6010(2)
C5 C 0.4145(3) 0.1003(3) 0.7020(2)
O6 O 0.5093(2) 0.1892(3) 0.49440(19)
C6 C 0.5561(3) 0.1224(3) 0.7098(2)
#END
