
#######################################################################
#
#                 Cambridge Crystallographic Data Centre
#                                CCDC
#
#######################################################################
#
# If this CIF has been generated from an entry in the Cambridge
# Structural Database, then it will include bibliographic, chemical,
# crystal, experimental, refinement or atomic coordinate data resulting
# from the CCDC's data processing and validation procedures.
#
#######################################################################

data_CSD_CIF_UZEWIH
_audit_creation_date 2016-11-07
_audit_creation_method CSD-ConQuest-V1
_database_code_CSD UZEWIH
_database_code_depnum_ccdc_archive 'CCDC 1500625'
_chemical_formula_sum 'C8 H8 N6 O12'
_chemical_formula_moiety
;
C8 H8 N6 O12
;
_journal_coden_Cambridge 1699
_journal_volume 4
_journal_year 2016
_journal_page_first 17791
_journal_name_full 'J.Mater.Chem.A '
loop_
_publ_author_name
"Yuangang Xu"
"Cheng Shen"
"Qiuhan Lin"
"Pengcheng Wang"
"Chao Jiang"
"Ming Lu"
_chemical_name_systematic
;
1-nitro-2-(trinitromethyl)-4,5-dihydro-1H-imidazole-4,5-diyl diacetate
;
_cell_volume    778.985
_exptl_crystal_density_diffrn 1.621
_exptl_crystal_description 'plate'
_diffrn_ambient_temperature 293
#These two values have been output from a single CSD field.
_refine_ls_R_factor_gt 0.0635
_refine_ls_wR_factor_gt 0.0635
_symmetry_cell_setting triclinic
_symmetry_space_group_name_H-M 'P -1'
_symmetry_Int_Tables_number 2
loop_
_symmetry_equiv_pos_site_id
_symmetry_equiv_pos_as_xyz
1 x,y,z
2 -x,-y,-z
_cell_length_a 8.6990(17)
_cell_length_b 8.7890(18)
_cell_length_c 10.723(2)
_cell_angle_alpha 86.59(3)
_cell_angle_beta 89.54(3)
_cell_angle_gamma 72.16(3)
_cell_formula_units_Z 2
loop_
_atom_type_symbol
_atom_type_radius_bond
C 0.68
H 0.23
N 0.68
O 0.68
loop_
_atom_site_label
_atom_site_type_symbol
_atom_site_fract_x
_atom_site_fract_y
_atom_site_fract_z
O1 O 0.1125(3) 0.6464(3) 0.1801(2)
N1 N -0.1653(3) 0.9646(3) 0.2098(3)
C1 C 0.0156(4) 0.7255(4) 0.2779(3)
H1 H 0.02070 0.65260 0.35160
N2 N 0.0741(3) 0.8594(3) 0.3065(2)
C2 C -0.1582(4) 0.7981(4) 0.2283(3)
H2 H -0.17680 0.75240 0.15080
O2 O 0.2615(4) 0.4651(4) 0.3212(3)
O3 O -0.2681(3) 0.7850(3) 0.3228(2)
C3 C -0.0274(4) 0.9853(4) 0.2624(3)
N3 N -0.2825(4) 1.0749(4) 0.1387(3)
N4 N -0.1159(4) 1.2648(4) 0.3425(3)
C4 C 0.2415(4) 0.5158(4) 0.2156(4)
O4 O -0.3787(5) 0.6492(5) 0.2021(3)
O5 O -0.2671(3) 1.2077(3) 0.1217(3)
N5 N 0.1680(4) 1.1111(3) 0.3367(3)
C5 C 0.3403(5) 0.4567(5) 0.1066(5)
H3 H 0.43020 0.36570 0.13240
H4 H 0.37930 0.53970 0.06950
H5 H 0.27580 0.42580 0.04650
N6 N 0.0284(4) 1.2125(4) 0.1372(3)
O6 O -0.3890(3) 1.0280(4) 0.1006(3)
C6 C -0.3761(5) 0.7060(5) 0.2985(4)
O7 O -0.2287(4) 1.2253(4) 0.3808(3)
C7 C -0.4819(5) 0.7065(6) 0.4068(4)
H6 H -0.55730 0.65060 0.38850
H7 H -0.53980 0.81500 0.42400
H8 H -0.41750 0.65430 0.47840
C8 C 0.0054(4) 1.1434(4) 0.2676(3)
O8 O -0.0854(5) 1.3850(4) 0.3616(4)
O9 O 0.1608(4) 1.0996(4) 0.4484(3)
O10 O 0.2843(4) 1.0969(4) 0.2736(3)
O11 O 0.0048(4) 1.3544(4) 0.1210(3)
O12 O 0.0759(4) 1.1111(4) 0.0626(3)
#END
