
#######################################################################
#
#                 Cambridge Crystallographic Data Centre
#                                CCDC
#
#######################################################################
#
# If this CIF has been generated from an entry in the Cambridge
# Structural Database, then it will include bibliographic, chemical,
# crystal, experimental, refinement or atomic coordinate data resulting
# from the CCDC's data processing and validation procedures.
#
#######################################################################

data_CSD_CIF_UZISUS
_audit_creation_date 2011-11-16
_audit_creation_method CSD-ConQuest-V1
_database_code_CSD UZISUS
_database_code_depnum_ccdc_archive 'CCDC 804948'
_chemical_formula_sum 'C22 H25 N3 O7'
_chemical_formula_moiety
;
C22 H25 N3 O7
;
_journal_coden_Cambridge 4
_journal_volume 133
_journal_year 2011
_journal_page_first 13337
_journal_name_full 'J.Am.Chem.Soc. '
loop_
_publ_author_name
"Risong Na"
"Chengfeng Jing"
"Qihai Xu"
"Hui Jiang"
"Xi Wu"
"Jiayan Shi"
"Jiangchun Zhong"
"Min Wang"
"D.Benitez"
"E.Tkatchouk"
"W.A.Goddard III"
"Hongchao Guo"
"Ohyun Kwon"
_chemical_name_systematic
;
Diethyl 
7-methyl-5-(4-nitrophenyl)-1-oxo-2,3,5,10-tetrahydro-1H-pyrazolo[1,2-a][1,2]di
azocine-6,8-dicarboxylate
;
_cell_volume   2137.398
_exptl_crystal_colour 'colorless'
_exptl_crystal_density_diffrn 1.378
_exptl_crystal_description 'block'
_exptl_crystal_preparation 'dichloromethane/methanol'
_diffrn_ambient_temperature 173
#These two values have been output from a single CSD field.
_refine_ls_R_factor_gt 0.0689
_refine_ls_wR_factor_gt 0.0689
_symmetry_cell_setting monoclinic
_symmetry_space_group_name_H-M 'P 21/n'
_symmetry_Int_Tables_number 14
loop_
_symmetry_equiv_pos_site_id
_symmetry_equiv_pos_as_xyz
1 x,y,z
2 1/2-x,1/2+y,1/2-z
3 -x,-y,-z
4 -1/2+x,-1/2-y,-1/2+z
_cell_length_a 6.9086(18)
_cell_length_b 12.855(3)
_cell_length_c 24.098(7)
_cell_angle_alpha 90
_cell_angle_beta 92.903(3)
_cell_angle_gamma 90
_cell_formula_units_Z 4
loop_
_atom_type_symbol
_atom_type_radius_bond
C 0.68
H 0.23
N 0.68
O 0.68
loop_
_atom_site_label
_atom_site_type_symbol
_atom_site_fract_x
_atom_site_fract_y
_atom_site_fract_z
O1 O -0.0751(2) 0.70823(13) 0.27921(7)
O2 O 0.2724(2) 0.57184(13) 0.51330(7)
O3 O 0.2389(2) 0.74204(13) 0.53036(6)
O4 O 0.8676(4) 0.96219(18) 0.56229(10)
O5 O 0.8413(3) 0.81227(18) 0.60127(7)
O6 O 0.3288(3) 0.43701(15) 0.31455(10)
O7 O 0.6231(3) 0.50544(14) 0.32021(8)
N1 N 0.2031(2) 0.77104(13) 0.32202(7)
N2 N 0.4090(2) 0.77100(13) 0.31769(7)
N3 N 0.8226(3) 0.87001(19) 0.56097(8)
C1 C 0.4257(3) 0.74418(19) 0.25775(8)
H1 H 0.54420 0.70270 0.25260
H2 H 0.43170 0.80820 0.23500
C2 C 0.2449(3) 0.68097(19) 0.24076(9)
H3 H 0.19950 0.69610 0.20200
H4 H 0.26900 0.60540 0.24480
C3 C 0.1017(3) 0.71879(16) 0.28155(8)
C4 C 0.1176(3) 0.82828(17) 0.36598(8)
H5 H -0.02370 0.83340 0.35740
H6 H 0.17050 0.89990 0.36630
C5 C 0.1496(3) 0.78295(16) 0.42293(8)
H7 H 0.12940 0.82880 0.45300
C6 C 0.2028(3) 0.68640(16) 0.43674(8)
C7 C 0.2363(3) 0.59739(15) 0.39795(8)
C8 C 0.3887(3) 0.59737(15) 0.36516(8)
C9 C 0.5107(3) 0.69393(15) 0.35648(8)
H8 H 0.62640 0.66950 0.33680
C10 C 0.2390(3) 0.65896(17) 0.49680(9)
C11 C 0.2913(4) 0.7222(2) 0.58877(9)
H9 H 0.41160 0.68030 0.59230
H10 H 0.18650 0.68320 0.60610
C12 C 0.3212(4) 0.8249(2) 0.61681(10)
H11 H 0.35340 0.81390 0.65650
H12 H 0.20230 0.86620 0.61230
H13 H 0.42770 0.86190 0.60010
C13 C 0.0867(3) 0.51256(19) 0.40063(11)
H14 H 0.14290 0.44640 0.38920
H15 H -0.02520 0.52960 0.37570
H16 H 0.04500 0.50640 0.43880
C14 C 0.5906(3) 0.74409(15) 0.41011(8)
C15 C 0.6087(3) 0.85146(15) 0.41641(8)
H17 H 0.56710 0.89620 0.38680
C16 C 0.6870(3) 0.89363(17) 0.46569(9)
H18 H 0.70030 0.96680 0.47010
C17 C 0.7450(3) 0.82686(18) 0.50807(8)
C18 C 0.7335(3) 0.71997(17) 0.50267(9)
H19 H 0.77630 0.67560 0.53230
C19 C 0.6586(3) 0.67927(16) 0.45321(8)
H20 H 0.65310 0.60600 0.44840
C20 C 0.4363(3) 0.50440(16) 0.33101(9)
C21 C 0.6957(6) 0.4265(2) 0.28328(14)
H21 H 0.81410 0.39450 0.30070
H22 H 0.59710 0.37120 0.27730
C22 C 0.7394(5) 0.4714(2) 0.23061(12)
H23 H 0.79950 0.41860 0.20770
H24 H 0.82900 0.52990 0.23670
H25 H 0.61950 0.49620 0.21150
#END
