
#######################################################################
#
#                 Cambridge Crystallographic Data Centre
#                                CCDC
#
#######################################################################
#
# If this CIF has been generated from an entry in the Cambridge
# Structural Database, then it will include bibliographic, chemical,
# crystal, experimental, refinement or atomic coordinate data resulting
# from the CCDC's data processing and validation procedures.
#
#######################################################################

data_CSD_CIF_UZISEC
_audit_creation_date 2011-11-16
_audit_creation_method CSD-ConQuest-V1
_database_code_CSD UZISEC
_database_code_depnum_ccdc_archive 'CCDC 804945'
_chemical_formula_sum 'C16 H17 N3 O5'
_chemical_formula_moiety
;
C16 H17 N3 O5
;
_journal_coden_Cambridge 4
_journal_volume 133
_journal_year 2011
_journal_page_first 13337
_journal_name_full 'J.Am.Chem.Soc. '
loop_
_publ_author_name
"Risong Na"
"Chengfeng Jing"
"Qihai Xu"
"Hui Jiang"
"Xi Wu"
"Jiayan Shi"
"Jiangchun Zhong"
"Min Wang"
"D.Benitez"
"E.Tkatchouk"
"W.A.Goddard III"
"Hongchao Guo"
"Ohyun Kwon"
_chemical_name_systematic
;
Ethyl 
5-(4-nitrophenyl)-1-oxo-2,3,5,6-tetrahydro-1H-pyrazolo[1,2-a]pyridazine-6-carb
oxylate
;
_cell_volume    784.959
_exptl_crystal_colour 'yellow'
_exptl_crystal_density_diffrn 1.402
_exptl_crystal_description 'block'
_exptl_crystal_preparation 'dichloromethane/hexane'
_diffrn_ambient_temperature 173
#These two values have been output from a single CSD field.
_refine_ls_R_factor_gt 0.0559
_refine_ls_wR_factor_gt 0.0559
_symmetry_cell_setting triclinic
_symmetry_space_group_name_H-M 'P -1'
_symmetry_Int_Tables_number 2
loop_
_symmetry_equiv_pos_site_id
_symmetry_equiv_pos_as_xyz
1 x,y,z
2 -x,-y,-z
_cell_length_a 8.3908(14)
_cell_length_b 9.8594(15)
_cell_length_c 10.8783(17)
_cell_angle_alpha 65.913(8)
_cell_angle_beta 75.686(11)
_cell_angle_gamma 75.628(11)
_cell_formula_units_Z 2
loop_
_atom_type_symbol
_atom_type_radius_bond
C 0.68
H 0.23
N 0.68
O 0.68
loop_
_atom_site_label
_atom_site_type_symbol
_atom_site_fract_x
_atom_site_fract_y
_atom_site_fract_z
O1 O 0.63378(16) 0.79458(16) 0.76588(12)
O2 O 0.21480(17) 0.60469(15) 0.44891(13)
O3 O 0.31768(16) 0.72064(14) 0.22925(12)
O4 O 1.02090(17) 0.70705(16) -0.17352(13)
O5 O 0.93951(18) 0.94766(16) -0.23845(13)
N1 N 0.56271(17) 0.80064(16) 0.57318(13)
N2 N 0.63390(17) 0.82930(16) 0.43209(13)
N3 N 0.93857(18) 0.81947(18) -0.15244(15)
C1 C 0.56235(19) 0.74337(18) 0.38099(16)
H1 H 0.58070 0.63420 0.44070
C2 C 0.3723(2) 0.80313(18) 0.38840(16)
H2 H 0.35370 0.90650 0.31710
C3 C 0.2986(2) 0.8103(2) 0.52698(17)
H3 H 0.18130 0.81720 0.55540
C4 C 0.3914(2) 0.8072(2) 0.61078(17)
H4 H 0.33960 0.80960 0.69820
C5 C 0.6714(2) 0.79777(19) 0.64893(17)
C6 C 0.8410(2) 0.8000(2) 0.56003(18)
H5 H 0.92550 0.71940 0.60910
H6 H 0.87700 0.89850 0.53050
C7 C 0.8155(2) 0.7731(2) 0.43823(17)
H7 H 0.88470 0.83010 0.35320
H8 H 0.84420 0.66470 0.45260
C8 C 0.2907(2) 0.69912(18) 0.36130(17)
C9 C 0.2619(3) 0.6149(2) 0.1939(2)
H9 H 0.13960 0.62000 0.22200
H10 H 0.31630 0.51080 0.24160
C10 C 0.3069(4) 0.6554(3) 0.0435(2)
H11 H 0.27990 0.57970 0.01860
H12 H 0.42660 0.65890 0.01560
H13 H 0.24380 0.75440 -0.00280
C11 C 0.6544(2) 0.76297(18) 0.23837(16)
C12 C 0.7442(2) 0.63830(19) 0.20835(17)
H14 H 0.74280 0.54020 0.27680
C13 C 0.8359(2) 0.6558(2) 0.07920(17)
H15 H 0.89710 0.57090 0.05810
C14 C 0.8357(2) 0.79987(19) -0.01768(16)
C15 C 0.7457(2) 0.92575(19) 0.00772(17)
H16 H 0.74600 1.02330 -0.06170
C16 C 0.6546(2) 0.90663(19) 0.13719(17)
H17 H 0.59200 0.99190 0.15700
#END
