
#######################################################################
#
#                 Cambridge Crystallographic Data Centre
#                                CCDC
#
#######################################################################
#
# If this CIF has been generated from an entry in the Cambridge
# Structural Database, then it will include bibliographic, chemical,
# crystal, experimental, refinement or atomic coordinate data resulting
# from the CCDC's data processing and validation procedures.
#
#######################################################################

data_CSD_CIF_UZITAZ
_audit_creation_date 2011-11-16
_audit_creation_method CSD-ConQuest-V1
_database_code_CSD UZITAZ
_database_code_depnum_ccdc_archive 'CCDC 804949'
_chemical_formula_sum 'C20 H23 N3 O7'
_chemical_formula_moiety
;
C20 H23 N3 O7
;
_journal_coden_Cambridge 4
_journal_volume 133
_journal_year 2011
_journal_page_first 13337
_journal_name_full 'J.Am.Chem.Soc. '
loop_
_publ_author_name
"Risong Na"
"Chengfeng Jing"
"Qihai Xu"
"Hui Jiang"
"Xi Wu"
"Jiayan Shi"
"Jiangchun Zhong"
"Min Wang"
"D.Benitez"
"E.Tkatchouk"
"W.A.Goddard III"
"Hongchao Guo"
"Ohyun Kwon"
_chemical_name_systematic
;
Diethyl 
5-(4-nitrophenyl)-1-oxo-2,3,6,9-tetrahydro-1H,5H-pyrazolo[1,2-a][1,2]diazepine
-6,7-dicarboxylate
;
_cell_volume   1992.520
_exptl_crystal_colour 'colorless'
_exptl_crystal_density_diffrn 1.391
_exptl_crystal_description 'block'
_exptl_crystal_preparation 'dichloromethane/hexane'
_diffrn_ambient_temperature 100
#These two values have been output from a single CSD field.
_refine_ls_R_factor_gt 0.044
_refine_ls_wR_factor_gt 0.044
_symmetry_cell_setting monoclinic
_symmetry_space_group_name_H-M 'P 21/c'
_symmetry_Int_Tables_number 14
loop_
_symmetry_equiv_pos_site_id
_symmetry_equiv_pos_as_xyz
1 x,y,z
2 -x,1/2+y,1/2-z
3 -x,-y,-z
4 x,-1/2-y,-1/2+z
_cell_length_a 11.759(2)
_cell_length_b 23.045(4)
_cell_length_c 7.7057(14)
_cell_angle_alpha 90
_cell_angle_beta 107.406(2)
_cell_angle_gamma 90
_cell_formula_units_Z 4
loop_
_atom_type_symbol
_atom_type_radius_bond
C 0.68
H 0.23
N 0.68
O 0.68
loop_
_atom_site_label
_atom_site_type_symbol
_atom_site_fract_x
_atom_site_fract_y
_atom_site_fract_z
O1 O 0.58175(9) 0.14506(4) 0.57466(15)
O2 O 0.72307(9) 0.18685(4) 0.49505(16)
O3 O 0.16915(9) 0.54083(4) 0.63533(14)
O4 O 0.35800(8) 0.51798(4) 0.31671(14)
O5 O 0.18580(8) 0.48983(4) 0.11530(13)
O6 O 0.23618(9) 0.34289(4) -0.01503(14)
O7 O 0.07955(8) 0.30657(4) 0.05813(12)
N1 N 0.62905(10) 0.18823(4) 0.53335(15)
N2 N 0.32236(9) 0.41089(4) 0.62401(14)
N3 N 0.22539(9) 0.45084(4) 0.56379(14)
C1 C 0.56941(11) 0.24474(5) 0.52912(17)
C2 C 0.45710(12) 0.24576(5) 0.55033(19)
H1 H 0.41950 0.21090 0.57020
C3 C 0.40029(11) 0.29893(5) 0.54198(19)
H2 H 0.32320 0.30060 0.55760
C4 C 0.45488(11) 0.35007(5) 0.51095(16)
C5 C 0.56945(11) 0.34747(5) 0.49433(18)
H3 H 0.60810 0.38220 0.47710
C6 C 0.62808(11) 0.29460(5) 0.50258(18)
H4 H 0.70600 0.29270 0.49040
C7 C 0.39015(10) 0.40790(5) 0.48874(16)
H5 H 0.45070 0.43970 0.51550
C8 C 0.39626(12) 0.43695(5) 0.79831(17)
H6 H 0.48190 0.42880 0.81820
H7 H 0.37280 0.42140 0.90230
C9 C 0.37149(11) 0.50206(5) 0.77659(18)
H8 H 0.37850 0.52080 0.89500
H9 H 0.42600 0.52150 0.71890
C10 C 0.24426(12) 0.50287(5) 0.65376(17)
C11 C 0.10949(11) 0.42502(6) 0.48324(19)
H10 H 0.04960 0.45620 0.44210
H11 H 0.08740 0.40190 0.57660
C12 C 0.10682(11) 0.38678(5) 0.32559(17)
H12 H 0.03700 0.36410 0.27760
C13 C 0.19207(10) 0.38110(5) 0.24494(16)
C14 C 0.30707(10) 0.41584(5) 0.29312(16)
H13 H 0.35270 0.40080 0.21190
C15 C 0.28694(11) 0.48046(5) 0.24753(17)
C16 C 0.15815(13) 0.55032(5) 0.06043(19)
H14 H 0.10840 0.55180 -0.06830
H15 H 0.23290 0.57180 0.07140
C17 C 0.09278(15) 0.57839(6) 0.1785(2)
H16 H 0.01800 0.55760 0.16550
H17 H 0.07530 0.61890 0.14130
H18 H 0.14230 0.57700 0.30570
C18 C 0.17346(11) 0.34230(5) 0.08407(16)
C19 C 0.05405(12) 0.27092(5) -0.10513(18)
H19 H 0.11720 0.24140 -0.09200
H20 H 0.05090 0.29540 -0.21210
C20 C -0.06418(12) 0.24200(6) -0.12965(19)
H21 H -0.05820 0.21550 -0.02780
H22 H -0.08680 0.22010 -0.24390
H23 H -0.12480 0.27150 -0.13320
#END
