
#######################################################################
#
#                 Cambridge Crystallographic Data Centre
#                                CCDC
#
#######################################################################
#
# If this CIF has been generated from an entry in the Cambridge
# Structural Database, then it will include bibliographic, chemical,
# crystal, experimental, refinement or atomic coordinate data resulting
# from the CCDC's data processing and validation procedures.
#
#######################################################################

data_CSD_CIF_UZUBEY
_audit_creation_date 2016-11-08
_audit_creation_method CSD-ConQuest-V1
_database_code_CSD UZUBEY
_database_code_depnum_ccdc_archive 'CCDC 942803'
_chemical_formula_sum 'C13 H14 N4 O5'
_chemical_formula_moiety
;
C13 H14 N4 O5
;
_journal_coden_Cambridge 1078
_journal_year 2016
_journal_name_full 'CSD Communication(Private Communication) '
loop_
_publ_author_name
"D.Jakubiec"
"K.K.Walczak"
"N.Kuznik"
_chemical_name_systematic
;
methyl 
3-(5-(5-(cyanomethyl)-4,5-dihydroisoxazol-3-yl)-2,4-dioxo-3,4-dihydropyrimidin
-1(2H)-yl)propanoate
;
_chemical_name_common
;
methyl 
3-(5-(5-(cyanomethyl)-4,5-dihydro-1,2-oxazol-3-yl)-2,4-dioxo-3,4-dihydropyrimi
din-1(2H)-yl)propanoate
;
_cell_volume   1404.390
_exptl_crystal_colour 'colorless'
_exptl_crystal_density_diffrn 1.449
_exptl_special_details
;
Silesian University of Technology, Faculty of Chemistry, ul. B. Krzywoustego 
4, 44-100 Gliwice, Poland
;
_exptl_crystal_description 'plate'
_diffrn_ambient_temperature 293
_refine_special_details
;
C7A,C8A and C7B,C8B disordered over two sites with occupancies 0.50:0.50.

;
#These two values have been output from a single CSD field.
_refine_ls_R_factor_gt 0.0559
_refine_ls_wR_factor_gt 0.0559
_symmetry_cell_setting monoclinic
_symmetry_space_group_name_H-M 'P 21/n'
_symmetry_Int_Tables_number 14
loop_
_symmetry_equiv_pos_site_id
_symmetry_equiv_pos_as_xyz
1 x,y,z
2 1/2-x,1/2+y,1/2-z
3 -x,-y,-z
4 -1/2+x,-1/2-y,-1/2+z
_cell_length_a 8.0126(16)
_cell_length_b 10.771(2)
_cell_length_c 16.553(3)
_cell_angle_alpha 90
_cell_angle_beta 100.56(3)
_cell_angle_gamma 90
_cell_formula_units_Z 4
loop_
_atom_type_symbol
_atom_type_radius_bond
C 0.68
H 0.23
N 0.68
O 0.68
loop_
_atom_site_label
_atom_site_type_symbol
_atom_site_fract_x
_atom_site_fract_y
_atom_site_fract_z
O1 O 0.0676(3) 0.02512(19) 0.23416(13)
N1 N 0.0591(4) 0.0891(3) 0.10344(16)
H1 H 0.031(5) 0.015(4) 0.088(2)
N2 N 0.1904(3) 0.2098(2) 0.21243(14)
C1 C 0.2196(4) 0.2969(3) 0.15791(18)
O2 O 0.0414(4) 0.1462(2) -0.02871(13)
O3 O 0.0839(4) 0.4510(2) 0.29151(17)
C2 C 0.1028(4) 0.1027(3) 0.18693(18)
C3 C 0.0863(4) 0.1725(3) 0.04412(18)
O4 O 0.2545(5) 0.5694(2) -0.02143(15)
N3 N 0.2124(4) 0.4954(2) 0.04194(16)
O5 O -0.0218(4) 0.4027(3) 0.40223(15)
C4 C 0.1690(4) 0.2850(3) 0.07562(17)
C5 C 0.2026(5) 0.3826(3) 0.01936(18)
C6 C 0.2659(5) 0.2212(3) 0.30066(18)
C7 C 0.0681(4) 0.3781(3) 0.34434(19)
C8 C 0.1432(6) 0.2517(3) 0.3547(2)
N4 N 0.2677(7) 0.7428(4) -0.2193(3)
C9 C 0.2255(12) 0.3632(5) -0.0662(3)
C10 C 0.2754(7) 0.6486(4) -0.1908(2)
C11 C -0.1051(7) 0.5204(5) 0.3968(3)
H2 H -0.16670 0.52870 0.44100
H3 H -0.18240 0.52640 0.34520
H4 H -0.02200 0.58540 0.40030
H5 H 0.337(3) 0.352(2) -0.0438(15)
H6 H 0.322(4) 0.140(3) 0.3192(18)
H7 H 0.352(4) 0.284(3) 0.3035(16)
H8 H 0.043(5) 0.201(4) 0.343(2)
H9 H 0.281(4) 0.367(3) 0.1795(17)
H10 H 0.191(4) 0.240(3) 0.406(2)
H11 H 0.187(8) 0.298(6) -0.097(4)
C12 C 0.1911(9) 0.5011(5) -0.0982(4)
C13 C 0.2080(14) 0.5181(8) -0.1594(5)
H12 H 0.09920 0.50180 -0.19440
H13 H 0.28520 0.45460 -0.17200
C14? C 0.3201(12) 0.4824(7) -0.0821(5)
H14? H 0.430(8) 0.492(6) -0.087(4)
C15? C 0.3149(12) 0.5322(6) -0.1545(4)
H15? H 0.400(7) 0.532(4) -0.134(3)
H16? H 0.309(11) 0.478(8) -0.209(5)
H17? H 0.096(6) 0.521(4) -0.125(2)
#END
