
#######################################################################
#
#                 Cambridge Crystallographic Data Centre
#                                CCDC
#
#######################################################################
#
# If this CIF has been generated from an entry in the Cambridge
# Structural Database, then it will include bibliographic, chemical,
# crystal, experimental, refinement or atomic coordinate data resulting
# from the CCDC's data processing and validation procedures.
#
#######################################################################

data_CSD_CIF_VABJEQ
_audit_creation_date 2016-03-03
_audit_creation_method CSD-ConQuest-V1
_database_code_CSD VABJEQ
_database_code_depnum_ccdc_archive 'CCDC 1431429'
_chemical_formula_sum 'C27 H28 N4 O4'
_chemical_formula_moiety
;
C27 H28 N4 O4
;
_journal_coden_Cambridge 4
_journal_volume 138
_journal_year 2016
_journal_page_first 2532
_journal_name_full 'J.Am.Chem.Soc. '
loop_
_publ_author_name
"Jianxin Dai"
"Minyan Wang"
"Guobi Chai"
"Chunling Fu"
"Shengming Ma"
_chemical_name_systematic
;
1-(2,4-Dinitrophenyl)-2-(2-(2-(4-methylphenyl)-1-phenylethylidene)hexylidene)h
ydrazine
;
_cell_volume   5069.386
_exptl_crystal_colour 'yellow'
_exptl_crystal_density_diffrn 1.238
_exptl_crystal_description 'plate'
_diffrn_ambient_temperature 293.1
#These two values have been output from a single CSD field.
_refine_ls_R_factor_gt 0.0952
_refine_ls_wR_factor_gt 0.0952
_symmetry_cell_setting orthorhombic
_symmetry_space_group_name_H-M 'P b c a'
_symmetry_Int_Tables_number 61
loop_
_symmetry_equiv_pos_site_id
_symmetry_equiv_pos_as_xyz
1 x,y,z
2 1/2-x,-y,1/2+z
3 1/2+x,1/2-y,-z
4 -x,1/2+y,1/2-z
5 -x,-y,-z
6 -1/2+x,y,-1/2-z
7 -1/2-x,-1/2+y,z
8 x,-1/2-y,-1/2+z
_cell_length_a 8.8093(14)
_cell_length_b 18.443(2)
_cell_length_c 31.202(5)
_cell_angle_alpha 90
_cell_angle_beta 90
_cell_angle_gamma 90
_cell_formula_units_Z 8
loop_
_atom_type_symbol
_atom_type_radius_bond
C 0.68
H 0.23
N 0.68
O 0.68
loop_
_atom_site_label
_atom_site_type_symbol
_atom_site_fract_x
_atom_site_fract_y
_atom_site_fract_z
O1 O 0.7671(5) 0.4635(2) -0.00904(12)
O2 O 0.9173(5) 0.5433(2) -0.03685(11)
O3 O 0.9338(5) 0.7856(2) 0.01046(12)
O4 O 0.7693(5) 0.8248(2) 0.05608(14)
N1 N 0.4827(4) 0.48642(19) 0.08677(11)
N2 N 0.5895(4) 0.49649(19) 0.05491(11)
H1 H 0.61920 0.46070 0.03930
N3 N 0.8188(5) 0.5258(2) -0.01093(12)
N4 N 0.8273(5) 0.7768(2) 0.03517(14)
C1 C 0.3693(6) 0.1534(3) 0.09132(15)
H2 H 0.29990 0.14220 0.06980
C2 C 0.4656(7) 0.1007(3) 0.10628(18)
H3 H 0.46080 0.05470 0.09430
C3 C 0.5691(7) 0.1136(3) 0.13844(17)
C4 C 0.5731(6) 0.1830(3) 0.15453(18)
H4 H 0.64230 0.19410 0.17610
C5 C 0.4782(6) 0.2361(3) 0.13972(16)
H5 H 0.48420 0.28230 0.15150
C6 C 0.3741(5) 0.2230(2) 0.10780(14)
C7 C 0.6721(8) 0.0546(3) 0.1546(2)
H6 H 0.61810 0.02480 0.17470
H7 H 0.75860 0.07590 0.16840
H8 H 0.70540 0.02540 0.13090
C8 C 0.2706(5) 0.2811(2) 0.08979(14)
H9 H 0.31760 0.30120 0.06430
H10 H 0.17590 0.25860 0.08110
C9 C 0.2346(5) 0.3427(3) 0.12019(14)
C10 C 0.1049(6) 0.3298(3) 0.14958(15)
C11 C 0.1165(8) 0.2900(4) 0.1867(2)
H11 H 0.20900 0.26900 0.19390
C12 C -0.0082(11) 0.2807(5) 0.2139(2)
H12 H 0.00140 0.25350 0.23880
C13 C -0.1445(9) 0.3118(5) 0.2036(3)
H13 H -0.22670 0.30750 0.22210
C14 C -0.1591(7) 0.3488(4) 0.1664(3)
H14 H -0.25240 0.36860 0.15890
C15 C -0.0363(6) 0.3571(3) 0.1395(2)
H15 H -0.04910 0.38190 0.11380
C16 C 0.3089(5) 0.4067(2) 0.12068(14)
C17 C 0.2784(5) 0.4643(3) 0.15325(15)
H16 H 0.17780 0.45700 0.16510
H17 H 0.27960 0.51120 0.13920
C18 C 0.3932(7) 0.4649(3) 0.18969(17)
H18 H 0.39910 0.41640 0.20160
H19 H 0.49220 0.47640 0.17790
C19 C 0.3615(12) 0.5159(6) 0.2248(3)
H20 H 0.26930 0.50010 0.23900
H21 H 0.44320 0.51170 0.24560
C20 C 0.3449(19) 0.5884(6) 0.2150(4)
H22 H 0.38290 0.59720 0.18660
H23 H 0.40080 0.61710 0.23520
H24 H 0.23940 0.60120 0.21630
C21 C 0.4262(5) 0.4224(2) 0.08939(14)
H25 H 0.46060 0.38600 0.07120
C22 C 0.6465(5) 0.5639(2) 0.04873(13)
C23 C 0.7599(5) 0.5797(2) 0.01809(12)
C24 C 0.8195(5) 0.6493(2) 0.01419(13)
H26 H 0.89540 0.65890 -0.00570
C25 C 0.7660(5) 0.7030(2) 0.03973(13)
C26 C 0.6531(5) 0.6904(2) 0.06965(14)
H27 H 0.61790 0.72800 0.08680
C27 C 0.5938(5) 0.6225(2) 0.07386(14)
H28 H 0.51700 0.61450 0.09370
#END
