
#######################################################################
#
#                 Cambridge Crystallographic Data Centre
#                                CCDC
#
#######################################################################
#
# If this CIF has been generated from an entry in the Cambridge
# Structural Database, then it will include bibliographic, chemical,
# crystal, experimental, refinement or atomic coordinate data resulting
# from the CCDC's data processing and validation procedures.
#
#######################################################################

data_CSD_CIF_VABNUH
_audit_creation_date 1989-07-11
_audit_creation_method CSD-ConQuest-V1
_database_code_CSD VABNUH
_database_code_depnum_ccdc_archive 'CCDC 1278637'
_chemical_formula_sum 'C21 H27 N5 O6'
_chemical_formula_moiety
;
C21 H27 N5 O6
;
_journal_coden_Cambridge 4
_journal_volume 110
_journal_year 1988
_journal_page_first 7828
_journal_name_full 'J.Am.Chem.Soc. '
loop_
_publ_author_name
"A.G.Schultz"
"M.Macielag"
"P.Sundararaman"
"A.G.Taveras"
"M.Welch"
_chemical_name_systematic
;
2,3-Dimethyl-3-((2'-(methoxymethyl)pyrrolidinyl)carbonyl)cyclohexen-4-one 
(2,4-dinitrophenyl)hydrazine
;
_cell_volume   2200.813
_exptl_crystal_density_diffrn 1.344
_diffrn_ambient_temperature ?
_diffrn_special_details
;
The study was carried out at room temperature,in the range 283-303K

;
#These two values have been output from a single CSD field.
_refine_ls_R_factor_gt 0.0604
_refine_ls_wR_factor_gt 0.0604
_symmetry_cell_setting orthorhombic
_symmetry_space_group_name_H-M 'P 21 21 21'
_symmetry_Int_Tables_number 19
loop_
_symmetry_equiv_pos_site_id
_symmetry_equiv_pos_as_xyz
1 x,y,z
2 1/2+x,1/2-y,-z
3 -x,1/2+y,1/2-z
4 1/2-x,-y,1/2+z
_cell_length_a 6.957(2)
_cell_length_b 15.822(6)
_cell_length_c 19.994(7)
_cell_angle_alpha 90
_cell_angle_beta 90
_cell_angle_gamma 90
_cell_formula_units_Z 4
loop_
_atom_type_symbol
_atom_type_radius_bond
C 0.68
H 0.23
N 0.68
O 0.68
loop_
_atom_site_label
_atom_site_type_symbol
_atom_site_fract_x
_atom_site_fract_y
_atom_site_fract_z
C1 C 1.0255(8) 0.3187(3) 0.9636(3)
C2 C 1.0140(8) 0.2289(3) 0.9687(3)
C3 C 1.0078(9) 0.1898(4) 1.0306(3)
C4 C 1.0125(10) 0.2361(4) 1.0880(3)
C5 C 1.0224(10) 0.3232(4) 1.0852(3)
C6 C 1.0272(9) 0.3639(4) 1.0254(3)
N1 N 1.0132(9) 0.1760(3) 0.9105(3)
O1 O 1.0140(9) 0.0994(3) 0.9169(3)
O2 O 1.0090(11) 0.2088(3) 0.8550(3)
N2 N 1.0022(10) 0.1912(4) 1.1518(3)
O3 O 1.0390(11) 0.2328(4) 1.2015(3)
O4 O 0.9707(10) 0.1159(4) 1.1522(3)
N3 N 1.0288(8) 0.3602(3) 0.9050(2)
N4 N 1.0424(7) 0.4476(3) 0.9040(2)
C7 C 1.0052(8) 0.4841(3) 0.8495(3)
C8 C 0.9523(13) 0.4414(4) 0.7859(3)
C9 C 0.8111(20) 0.4883(6) 0.7447(4)
C10 C 0.7752(14) 0.5758(5) 0.7583(4)
C11 C 0.8678(11) 0.6205(4) 0.8066(3)
C12 C 0.8356(18) 0.7112(5) 0.8145(4)
C13 C 1.0214(9) 0.5799(3) 0.8499(3)
C14 C 1.2233(10) 0.6025(5) 0.8200(3)
C15 C 1.0109(8) 0.6204(3) 0.9205(3)
O5 O 1.1283(6) 0.6739(3) 0.9368(2)
N5 N 0.8623(7) 0.5997(3) 0.9615(2)
C16 C 0.8338(9) 0.6478(3) 1.0239(3)
C17 C 0.9892(11) 0.6398(4) 1.0752(3)
O6 O 1.0128(7) 0.5559(3) 1.0957(2)
C18 C 1.1531(11) 0.5474(5) 1.1441(4)
C19 C 0.6359(9) 0.6170(4) 1.0481(3)
C20 C 0.5365(9) 0.5871(4) 0.9859(3)
C21 C 0.6960(8) 0.5458(4) 0.9472(3)
H1 H 1.00000 0.12930 1.03320
H2 H 1.02590 0.35530 1.12590
H3 H 1.03180 0.42450 1.02460
H4 H 1.02160 0.32930 0.86380
H5 H 0.89850 0.38720 0.79650
H6 H 1.06700 0.43390 0.75990
H7 H 0.69050 0.45940 0.74910
H8 H 0.85430 0.48480 0.69920
H9 H 0.68030 0.60450 0.73180
H10 H 0.91270 0.73200 0.85070
H11 H 0.70230 0.72130 0.82400
H12 H 0.87060 0.73980 0.77400
H13 H 1.32210 0.57700 0.84680
H14 H 1.23970 0.66280 0.82000
H15 H 1.23170 0.58160 0.77510
H16 H 0.83930 0.70760 1.01600
H17 H 0.95630 0.67370 1.11330
H18 H 1.10790 0.65970 1.05640
H19 H 1.16310 0.48910 1.15700
H20 H 1.11950 0.58090 1.18240
H21 H 1.27410 0.56630 1.12650
H22 H 0.56550 0.66240 1.06840
H23 H 0.64980 0.57160 1.07950
H24 H 0.43700 0.54720 0.99640
H25 H 0.48270 0.63360 0.96150
H26 H 0.66780 0.54510 0.90020
H27 H 0.71770 0.48910 0.96250
#END
