
#######################################################################
#
#                 Cambridge Crystallographic Data Centre
#                                CCDC
#
#######################################################################
#
# If this CIF has been generated from an entry in the Cambridge
# Structural Database, then it will include bibliographic, chemical,
# crystal, experimental, refinement or atomic coordinate data resulting
# from the CCDC's data processing and validation procedures.
#
#######################################################################

data_CSD_CIF_VABYEE
_audit_creation_date 2010-12-14
_audit_creation_method CSD-ConQuest-V1
_database_code_CSD VABYEE
_database_code_depnum_ccdc_archive 'CCDC 799696'
_chemical_formula_sum 'C14 H11 N3 O4'
_chemical_formula_moiety
;
C14 H11 N3 O4
;
_journal_coeditor_code "IUCr SJ5045"
_journal_coden_Cambridge 1370
_journal_volume 66
_journal_year 2010
_journal_page_first o2942
_journal_name_full 'Acta Crystallogr.,Sect.E:Struct.Rep.Online '
loop_
_publ_author_name
"Chun-Hua Dai"
"Fu-Lin Mao"
_chemical_name_systematic
;
N'-(4-Hydroxybenzylidene)-4-nitrobenzohydrazide
;
_cell_volume   1308.958
_exptl_crystal_colour 'yellow'
_exptl_crystal_density_diffrn 1.447
_exptl_crystal_description 'block'
_diffrn_ambient_temperature 298
#These two values have been output from a single CSD field.
_refine_ls_R_factor_gt 0.0447
_refine_ls_wR_factor_gt 0.0447
_symmetry_cell_setting monoclinic
_symmetry_space_group_name_H-M 'P 21/c'
_symmetry_Int_Tables_number 14
loop_
_symmetry_equiv_pos_site_id
_symmetry_equiv_pos_as_xyz
1 x,y,z
2 -x,1/2+y,1/2-z
3 -x,-y,-z
4 x,-1/2-y,-1/2+z
_cell_length_a 7.856(3)
_cell_length_b 13.368(5)
_cell_length_c 12.527(5)
_cell_angle_alpha 90
_cell_angle_beta 95.748(4)
_cell_angle_gamma 90
_cell_formula_units_Z 4
loop_
_atom_type_symbol
_atom_type_radius_bond
C 0.68
H 0.23
N 0.68
O 0.68
loop_
_atom_site_label
_atom_site_type_symbol
_atom_site_fract_x
_atom_site_fract_y
_atom_site_fract_z
N1 N 0.20526(19) -0.05033(11) 0.04617(11)
N2 N 0.2594(2) 0.02540(11) -0.01727(11)
N3 N 0.4845(2) 0.44506(12) -0.22229(13)
O1 O 0.0039(2) -0.46112(9) 0.25453(11)
H1 H -0.05210 -0.44110 0.30210
O2 O 0.17995(17) 0.13969(9) 0.09997(10)
O3 O 0.4755(2) 0.52833(11) -0.18407(13)
O4 O 0.54671(18) 0.42836(10) -0.3061(1)
C1 C 0.1654(2) -0.22332(13) 0.07612(14)
C2 C 0.1046(2) -0.20626(13) 0.17594(14)
H2 H 0.10060 -0.14120 0.20200
C3 C 0.0511(2) -0.28366(13) 0.23572(14)
H3 H 0.01070 -0.27080 0.30170
C4 C 0.0567(2) -0.38146(13) 0.19834(14)
C5 C 0.1185(2) -0.39987(13) 0.10044(15)
H4 H 0.12400 -0.46510 0.07530
C6 C 0.1721(2) -0.32147(13) 0.04010(14)
H5 H 0.21320 -0.33460 -0.02560
C7 C 0.2197(2) -0.13939(13) 0.01282(14)
H6 H 0.26490 -0.15120 -0.05190
C8 C 0.2426(2) 0.12013(13) 0.01678(13)
C9 C 0.3070(2) 0.20201(12) -0.05002(13)
C10 C 0.2986(2) 0.29875(13) -0.01120(14)
H7 H 0.25410 0.30990 0.05380
C11 C 0.3552(2) 0.37861(13) -0.06733(15)
H8 H 0.34920 0.44350 -0.04110
C12 C 0.4209(2) 0.36016(13) -0.16304(14)
C13 C 0.4312(2) 0.26543(14) -0.20412(14)
H9 H 0.47600 0.25480 -0.26910
C14 C 0.3738(2) 0.18647(13) -0.14713(14)
H10 H 0.37990 0.12190 -0.17400
H11 H 0.299(3) 0.0083(16) -0.0797(11)
#END
