
#######################################################################
#
#                 Cambridge Crystallographic Data Centre
#                                CCDC
#
#######################################################################
#
# If this CIF has been generated from an entry in the Cambridge
# Structural Database, then it will include bibliographic, chemical,
# crystal, experimental, refinement or atomic coordinate data resulting
# from the CCDC's data processing and validation procedures.
#
#######################################################################

data_CSD_CIF_VABZON
_audit_creation_date 1989-07-19
_audit_creation_method CSD-ConQuest-V1
_database_code_CSD VABZON
_database_code_depnum_ccdc_archive 'CCDC 1278692'
_chemical_formula_sum 'C20 H20 N2 O4'
_chemical_formula_moiety
;
C20 H20 N2 O4
;
_journal_coden_Cambridge 423
_journal_volume 328
_journal_year 1988
_journal_page_first 2548
_journal_name_full 'J.Chem.Res. '
loop_
_publ_author_name
"A.J.Blake"
"I.M.Dawson"
"A.C.Forsyth"
"T.Johnson"
"R.M.Paton"
"R.A.C.Rennie"
"P.Taylor"
_chemical_name_systematic
;
1RS,2SR,3SR,7RS-3-Methoxy-1,10-diphenyl-4,8,12-trioxa-9,11-diazatricyclo(7.3.0
.0^2,7^)dodec-10-ene
;
_chemical_melting_point 438.15
_cell_volume   3551.524
_exptl_crystal_colour 'white'
_exptl_crystal_density_diffrn 1.314
_diffrn_ambient_temperature ?
_diffrn_special_details
;
The study was carried out at room temperature,in the range 283-303K

;
#These two values have been output from a single CSD field.
_refine_ls_R_factor_gt 0.065
_refine_ls_wR_factor_gt 0.065
loop_
_citation_database_id_CSD
_citation_special_details
VABZIH "is a stereoisomer of this entry"
_symmetry_cell_setting orthorhombic
_symmetry_space_group_name_H-M 'P b c a'
_symmetry_Int_Tables_number 61
loop_
_symmetry_equiv_pos_site_id
_symmetry_equiv_pos_as_xyz
1 x,y,z
2 1/2-x,-y,1/2+z
3 1/2+x,1/2-y,-z
4 -x,1/2+y,1/2-z
5 -x,-y,-z
6 -1/2+x,y,-1/2-z
7 -1/2-x,-1/2+y,z
8 x,-1/2-y,-1/2+z
_cell_length_a 8.3823(28)
_cell_length_b 39.406(17)
_cell_length_c 10.752(3)
_cell_angle_alpha 90
_cell_angle_beta 90
_cell_angle_gamma 90
_cell_formula_units_Z 8
loop_
_atom_type_symbol
_atom_type_radius_bond
C 0.68
H 0.23
N 0.68
O 0.68
loop_
_atom_site_label
_atom_site_type_symbol
_atom_site_fract_x
_atom_site_fract_y
_atom_site_fract_z
C1 C 0.5839(4) 0.11870 -0.0952(2)
C2 C 0.4054(4) 0.11610 -0.0728(3)
C3 C 0.3571(4) 0.08710 0.0157(3)
O1 O 0.2013(3) 0.09190 0.0637(2)
C4 C 0.1893(4) 0.12310 0.1347(3)
C5 C 0.2160(4) 0.15340 0.0513(3)
C6 C 0.3723(4) 0.15110 -0.0206(3)
O2 O 0.5053(2) 0.15690 0.0629(1)
N1 N 0.6451(3) 0.14130 0.0026(2)
C7 C 0.7252(4) 0.16740 -0.0665(2)
N2 N 0.7081(3) 0.16560 -0.1859(2)
O3 O 0.6080(3) 0.13780 -0.2127(1)
C8 C 0.8250(3) 0.19270 -0.0034(3)
C9 C 0.9188(4) 0.21520 -0.0709(3)
C10 C 1.0132(5) 0.2383(1) -0.0097(4)
C11 C 1.0159(4) 0.23960 0.1199(4)
C12 C 0.9250(4) 0.21700 0.1860(3)
C13 C 0.8288(4) 0.19370 0.1256(3)
C14 C 0.6775(4) 0.08570 -0.1074(3)
C15 C 0.6402(4) 0.06430 -0.2063(3)
C16 C 0.7152(4) 0.03320 -0.2171(4)
C17 C 0.8280(5) 0.02340 -0.1316(4)
C18 C 0.8685(5) 0.04470 -0.0350(4)
C19 C 0.7923(4) 0.07620 -0.0219(3)
O4 O 0.4703(3) 0.08450 0.11120
C20 C 0.4636(5) 0.05330 0.1778(4)
H1 H 0.33710 0.10970 -0.15470
H2 H 0.35460 0.06360 -0.03580
H3 H 0.07200 0.12480 0.17570
H4 H 0.27820 0.12300 0.20730
H5 H 0.11360 0.15510 -0.01420
H6 H 0.21820 0.17610 0.10800
H7 H 0.36570 0.16960 -0.09440
H8 H 0.91760 0.21460 -0.17130
H9 H 1.08620 0.25570 -0.06260
H10 H 1.08840 0.25820 0.16750
H11 H 0.92860 0.21740 0.28640
H12 H 0.75660 0.17630 0.17880
H13 H 0.55280 0.07200 -0.27450
H14 H 0.68490 0.01650 -0.29320
H15 H 0.88510 -0.00110 -0.14010
H16 H 0.95900 0.03720 0.03090
H17 H 0.82320 0.09290 0.05420
H18 H 0.55390 0.05330 0.24940
H19 H 0.48450 0.03260 0.11460
H20 H 0.34740 0.05060 0.21990
#END
