
#######################################################################
#
#                 Cambridge Crystallographic Data Centre
#                                CCDC
#
#######################################################################
#
# If this CIF has been generated from an entry in the Cambridge
# Structural Database, then it will include bibliographic, chemical,
# crystal, experimental, refinement or atomic coordinate data resulting
# from the CCDC's data processing and validation procedures.
#
#######################################################################

data_CSD_CIF_VABZIH
_audit_creation_date 1989-07-19
_audit_creation_method CSD-ConQuest-V1
_database_code_CSD VABZIH
_database_code_depnum_ccdc_archive 'CCDC 1278691'
_chemical_formula_sum 'C20 H20 N2 O4'
_chemical_formula_moiety
;
C20 H20 N2 O4
;
_journal_coden_Cambridge 423
_journal_volume 328
_journal_year 1988
_journal_page_first 2548
_journal_name_full 'J.Chem.Res. '
loop_
_publ_author_name
"A.J.Blake"
"I.M.Dawson"
"A.C.Forsyth"
"T.Johnson"
"R.M.Paton"
"R.A.C.Rennie"
"P.Taylor"
_chemical_name_systematic
;
1RS,2RS,3SR,7SR-3-Methoxy-1,10-diphenyl-4,8,12-trioxa-9,11-diazatricyclo(7.3.0
.0^2,7^)dodec-10-ene
;
_chemical_melting_point 433.15
_cell_volume   1723.448
_exptl_crystal_colour 'white'
_exptl_crystal_density_diffrn 1.354
_exptl_special_details
;
Dx given as 1.354, we calculate 1.46; cell parameter c should be 14.860 not 
13.860
;
_diffrn_ambient_temperature ?
_diffrn_special_details
;
The study was carried out at room temperature,in the range 283-303K

;
#These two values have been output from a single CSD field.
_refine_ls_R_factor_gt 0.0485
_refine_ls_wR_factor_gt 0.0485
loop_
_citation_database_id_CSD
_citation_special_details
VABZON "is a stereoisomer of this entry"
_symmetry_cell_setting monoclinic
_symmetry_space_group_name_H-M 'P 21/c'
_symmetry_Int_Tables_number 14
loop_
_symmetry_equiv_pos_site_id
_symmetry_equiv_pos_as_xyz
1 x,y,z
2 -x,1/2+y,1/2-z
3 -x,-y,-z
4 x,-1/2-y,-1/2+z
_cell_length_a 12.681(5)
_cell_length_b 9.1472(15)
_cell_length_c 14.860(11)
_cell_angle_alpha 90
_cell_angle_beta 90.97(6)
_cell_angle_gamma 90
_cell_formula_units_Z 4
loop_
_atom_type_symbol
_atom_type_radius_bond
C 0.68
H 0.23
N 0.68
O 0.68
loop_
_atom_site_label
_atom_site_type_symbol
_atom_site_fract_x
_atom_site_fract_y
_atom_site_fract_z
C1 C 0.7028(1) 0.3445(2) 0.5372(1)
C2 C 0.6224(1) 0.4051(2) 0.6034(1)
C3 C 0.6361(1) 0.5681(2) 0.6229(1)
O1 O 0.5868(1) 0.6079(1) 0.70460
C4 C 0.6340(2) 0.5349(3) 0.7799(1)
C5 C 0.6126(2) 0.3738(3) 0.7747(1)
C6 C 0.6463(1) 0.3102(2) 0.6859(1)
O2 O 0.7599(1) 0.3008(1) 0.68690
N1 N 0.7918(1) 0.2905(1) 0.5933(1)
C7 C 0.7989(1) 0.1406(2) 0.5674(1)
N2 N 0.7276(1) 0.0979(1) 0.5119(1)
O3 O 0.6571(1) 0.2131(1) 0.49660
C8 C 0.7401(1) 0.4420(2) 0.4622(1)
C9 C 0.6733(1) 0.4676(2) 0.3888(1)
C10 C 0.7070(2) 0.5557(3) 0.3185(1)
C11 C 0.8055(2) 0.6163(3) 0.3213(1)
C12 C 0.8719(2) 0.5922(3) 0.3939(1)
C13 C 0.8390(1) 0.5049(2) 0.4648(1)
O4 O 0.5840(1) 0.6428(1) 0.55460
C14 C 0.6138(2) 0.7922(2) 0.5462(1)
C15 C 0.8863(1) 0.0470(2) 0.5988(1)
C16 C 0.8998(1) -0.0898(2) 0.5607(1)
C17 C 0.9837(1) -0.1761(2) 0.5885(1)
C18 C 1.0536(1) -0.1286(3) 0.6536(1)
C19 C 1.0396(1) 0.0070(3) 0.6922(1)
C20 C 0.9559(1) 0.0957(3) 0.6649(1)
H1 H 0.54190 0.39940 0.57880
H2 H 0.71920 0.59370 0.62780
H3 H 0.71820 0.55320 0.78000
H4 H 0.60170 0.57830 0.84120
H5 H 0.65540 0.31920 0.82850
H6 H 0.52910 0.35540 0.78230
H7 H 0.60370 0.20790 0.68010
H8 H 0.59560 0.41940 0.38640
H9 H 0.65520 0.57630 0.26150
H10 H 0.83160 0.68370 0.26610
H11 H 0.94950 0.64100 0.39000
H12 H 0.89100 0.48640 0.52000
H13 H 0.56950 0.84210 0.49150
H14 H 0.69710 0.79900 0.53260
H15 H 0.59750 0.84960 0.60810
H16 H 0.84510 -0.12920 0.50970
H17 H 0.99450 -0.28300 0.55840
H18 H 1.11920 -0.19730 0.67430
H19 H 1.09400 0.04480 0.74400
H20 H 0.94520 0.20240 0.69530
#END
