
#######################################################################
#
#                 Cambridge Crystallographic Data Centre
#                                CCDC
#
#######################################################################
#
# If this CIF has been generated from an entry in the Cambridge
# Structural Database, then it will include bibliographic, chemical,
# crystal, experimental, refinement or atomic coordinate data resulting
# from the CCDC's data processing and validation procedures.
#
#######################################################################

data_CSD_CIF_VACBAC
_audit_creation_date 1989-07-19
_audit_creation_method CSD-ConQuest-V1
_database_code_CSD VACBAC
_chemical_formula_sum 'C11 H11 N3 O3'
_chemical_formula_moiety
;
C11 H11 N3 O3
;
_journal_coden_Cambridge 423
_journal_volume 248
_journal_year 1988
_journal_page_first 1901
_journal_name_full 'J.Chem.Res. '
loop_
_publ_author_name
"C.N.O'Callaghan"
"D.M.A.Conlon"
"C.J.Cardin"
_chemical_name_systematic
;
3-Amino-1-hydroxy-1-(2-nitrophenyl)but-2-ene-2-carbonitrile
;
_chemical_melting_point 425.15
_cell_volume    579.214
_exptl_crystal_colour 'pale yellow'
_exptl_crystal_density_diffrn 1.34
_diffrn_ambient_temperature ?
_diffrn_special_details
;
The study was carried out at room temperature,in the range 283-303K

;
#These two values have been output from a single CSD field.
_refine_ls_R_factor_gt 0.0703
_refine_ls_wR_factor_gt 0.0703
_symmetry_cell_setting triclinic
_symmetry_space_group_name_H-M 'P -1'
_symmetry_Int_Tables_number 2
loop_
_symmetry_equiv_pos_site_id
_symmetry_equiv_pos_as_xyz
1 x,y,z
2 -x,-y,-z
_cell_length_a 7.847(5)
_cell_length_b 8.603(5)
_cell_length_c 8.883(5)
_cell_angle_alpha 78.71(5)
_cell_angle_beta 81.23(5)
_cell_angle_gamma 83.70(5)
_cell_formula_units_Z 2
loop_
_atom_type_symbol
_atom_type_radius_bond
C 0.68
N 0.68
O 0.68
loop_
_atom_site_label
_atom_site_type_symbol
_atom_site_fract_x
_atom_site_fract_y
_atom_site_fract_z
C1 C 0.6742(12) 0.1927(10) 0.2348(13)
C2 C 0.7345(12) 0.0519(10) 0.1814(13)
C3 C 0.6213(12) -0.0642(10) 0.1882(13)
C4 C 0.4477(12) -0.0395(10) 0.2484(13)
C5 C 0.3873(12) 0.1013(10) 0.3017(13)
C6 C 0.5005(12) 0.2174(10) 0.2950(13)
C7 C 0.4394(22) 0.3779(18) 0.3455(20)
C8 C 0.2999(19) 0.4716(17) 0.2493(17)
C9 C 0.2988(22) 0.4395(19) 0.0974(20)
C10 C 0.182(2) 0.5827(18) 0.3008(18)
C11 C 0.0462(22) 0.668(2) 0.2107(20)
N1 N 0.2975(18) 0.4109(16) -0.0220(17)
N2 N 0.2057(23) 0.1232(21) 0.3667(21)
N3 N 0.1838(19) 0.6244(15) 0.4382(16)
O1 O 0.1661(20) 0.1886(17) 0.4719(17)
O2 O 0.1073(25) 0.0604(20) 0.3027(20)
O3 O 0.5788(13) 0.4769(12) 0.3334(13)
#END
