
#######################################################################
#
#                 Cambridge Crystallographic Data Centre
#                                CCDC
#
#######################################################################
#
# If this CIF has been generated from an entry in the Cambridge
# Structural Database, then it will include bibliographic, chemical,
# crystal, experimental, refinement or atomic coordinate data resulting
# from the CCDC's data processing and validation procedures.
#
#######################################################################

data_CSD_CIF_VACFAI
_audit_creation_date 2010-12-14
_audit_creation_method CSD-ConQuest-V1
_database_code_CSD VACFAI
_database_code_depnum_ccdc_archive 'CCDC 799720'
_chemical_formula_sum 'C19 H15 N1 O5'
_chemical_formula_moiety
;
C19 H15 N1 O5
;
_journal_coeditor_code "IUCr RN2073"
_journal_coden_Cambridge 1370
_journal_volume 66
_journal_year 2010
_journal_page_first o2972
_journal_name_full 'Acta Crystallogr.,Sect.E:Struct.Rep.Online '
loop_
_publ_author_name
"K.Kataoka"
"T.Nishijima"
"A.Nagasawa"
"A.Okamoto"
"N.Yonezawa"
_chemical_name_systematic
;
(2,7-Dimethoxynaphthalen-1-yl)(3-nitrophenyl)methanone
;
_chemical_name_common
;
(2,7-Dimethoxy-1-naphthyl)(3-nitrophenyl)methanone; 
1-(3-nitrobenzoyl)-2,7-dimethoxynaphthalene
;
_cell_volume   1612.156
_exptl_crystal_colour 'yellow'
_exptl_crystal_density_diffrn 1.39
_exptl_crystal_description 'block'
_diffrn_ambient_temperature 193
#These two values have been output from a single CSD field.
_refine_ls_R_factor_gt 0.0326
_refine_ls_wR_factor_gt 0.0326
_symmetry_cell_setting monoclinic
_symmetry_space_group_name_H-M 'P 21/n'
_symmetry_Int_Tables_number 14
loop_
_symmetry_equiv_pos_site_id
_symmetry_equiv_pos_as_xyz
1 x,y,z
2 1/2-x,1/2+y,1/2-z
3 -x,-y,-z
4 -1/2+x,-1/2-y,-1/2+z
_cell_length_a 8.05658(18)
_cell_length_b 17.0634(4)
_cell_length_c 11.7660(3)
_cell_angle_alpha 90
_cell_angle_beta 94.660(1)
_cell_angle_gamma 90
_cell_formula_units_Z 4
loop_
_atom_type_symbol
_atom_type_radius_bond
C 0.68
H 0.23
N 0.68
O 0.68
loop_
_atom_site_label
_atom_site_type_symbol
_atom_site_fract_x
_atom_site_fract_y
_atom_site_fract_z
O1 O 0.27637(10) 0.43017(5) 0.69042(8)
O2 O 0.00689(11) 0.59531(5) 0.62855(8)
O3 O -0.04611(11) 0.18744(5) 0.79381(8)
O4 O 0.64787(14) 0.65633(7) 1.04665(10)
O5 O 0.71205(11) 0.57358(6) 0.91928(9)
N1 N 0.61035(14) 0.60860(6) 0.97139(10)
C1 C -0.00844(14) 0.46560(7) 0.68859(9)
C2 C -0.08844(15) 0.52991(7) 0.63812(10)
C3 C -0.25834(16) 0.52651(8) 0.59896(10)
H1 H -0.31270 0.57130 0.56550
C4 C -0.34356(15) 0.45847(8) 0.60951(10)
H2 H -0.45860 0.45680 0.58430
C5 C -0.26677(14) 0.39048(7) 0.65650(9)
C6 C -0.35374(15) 0.31846(8) 0.66192(10)
H3 H -0.46790 0.31610 0.63470
C7 C -0.27714(16) 0.25281(8) 0.70512(10)
H4 H -0.33640 0.20470 0.70610
C8 C -0.10780(15) 0.25655(7) 0.74891(10)
C9 C -0.01892(14) 0.32474(7) 0.74566(9)
H5 H 0.09420 0.32620 0.77550
C10 C -0.09579(14) 0.39342(7) 0.69773(9)
C11 C 0.17233(14) 0.47124(7) 0.73012(9)
C12 C 0.22134(14) 0.52681(7) 0.82550(9)
C13 C 0.38964(14) 0.54220(7) 0.85296(10)
H6 H 0.47250 0.51900 0.81080
C14 C 0.43276(15) 0.59185(7) 0.94285(10)
C15 C 0.31664(17) 0.62608(8) 1.00789(11)
H7 H 0.35050 0.65970 1.06990
C16 C 0.15028(17) 0.61002(8) 0.98007(11)
H8 H 0.06810 0.63270 1.02340
C17 C 0.10273(15) 0.56103(8) 0.88928(10)
H9 H -0.01210 0.55070 0.87040
C18 C -0.05995(17) 0.65802(8) 0.55877(11)
H10 H 0.02660 0.69750 0.55070
H11 H -0.15350 0.68190 0.59430
H12 H -0.09880 0.63770 0.48340
C19 C 0.12202(18) 0.18734(8) 0.84244(12)
H13 H 0.14980 0.13540 0.87400
H14 H 0.13490 0.22660 0.90330
H15 H 0.19680 0.20000 0.78340
#END
