
#######################################################################
#
#                 Cambridge Crystallographic Data Centre
#                                CCDC
#
#######################################################################
#
# If this CIF has been generated from an entry in the Cambridge
# Structural Database, then it will include bibliographic, chemical,
# crystal, experimental, refinement or atomic coordinate data resulting
# from the CCDC's data processing and validation procedures.
#
#######################################################################

data_CSD_CIF_VACHEO
_audit_creation_date 2010-12-14
_audit_creation_method CSD-ConQuest-V1
_database_code_CSD VACHEO
_database_code_depnum_ccdc_archive 'CCDC 799730'
_chemical_formula_sum 'C21 H21 N3 O3'
_chemical_formula_moiety
;
C21 H21 N3 O3
;
_journal_coeditor_code "IUCr IM2239"
_journal_coden_Cambridge 1370
_journal_volume 66
_journal_year 2010
_journal_page_first o2983
_journal_name_full 'Acta Crystallogr.,Sect.E:Struct.Rep.Online '
loop_
_publ_author_name
"R.Dardouri"
"Y.Kandri Rodi"
"N.Saffon"
"L.El Ammari"
"E.M.Essassi"
_chemical_name_systematic
;
1,5-Dimethyl-3-((3-phenyl-4,5-dihydro-1,2-oxazol-5-yl)methyl)-1H-1,5-benzodiaz
epine-2,4(3H,5H)-dione
;
_cell_volume   1817.176
_exptl_crystal_colour 'colorless'
_exptl_crystal_density_diffrn 1.328
_exptl_crystal_description 'block'
_diffrn_ambient_temperature 296
#These two values have been output from a single CSD field.
_refine_ls_R_factor_gt 0.0565
_refine_ls_wR_factor_gt 0.0565
_symmetry_cell_setting monoclinic
_symmetry_space_group_name_H-M 'P 21/n'
_symmetry_Int_Tables_number 14
loop_
_symmetry_equiv_pos_site_id
_symmetry_equiv_pos_as_xyz
1 x,y,z
2 1/2-x,1/2+y,1/2-z
3 -x,-y,-z
4 -1/2+x,-1/2-y,-1/2+z
_cell_length_a 9.3491(2)
_cell_length_b 6.9722(1)
_cell_length_c 27.9201(5)
_cell_angle_alpha 90
_cell_angle_beta 93.157(1)
_cell_angle_gamma 90
_cell_formula_units_Z 4
loop_
_atom_type_symbol
_atom_type_radius_bond
C 0.68
H 0.23
N 0.68
O 0.68
loop_
_atom_site_label
_atom_site_type_symbol
_atom_site_fract_x
_atom_site_fract_y
_atom_site_fract_z
O1 O 0.30152(16) 0.5636(3) 0.20375(6)
O2 O 0.22075(18) 0.1345(3) 0.12654(6)
O3 O 0.07230(18) 0.6193(3) 0.04335(7)
N1 N 0.07203(18) 0.5003(2) 0.22029(6)
N2 N 0.00716(18) 0.1746(2) 0.15947(6)
N3 N 0.1055(2) 0.7758(4) 0.01417(8)
C1 C 0.1419(2) 0.4598(3) 0.13807(7)
H1 H 0.04870 0.51570 0.12820
C2 C 0.1802(2) 0.5157(3) 0.18989(8)
C3 C -0.0714(2) 0.4552(3) 0.20444(7)
C4 C -0.1840(2) 0.5679(3) 0.21943(7)
H2 H -0.16450 0.67060 0.24000
C5 C -0.3242(2) 0.5290(3) 0.20406(8)
H3 H -0.39820 0.60470 0.21450
C6 C -0.3540(2) 0.3778(3) 0.17330(8)
H4 H -0.44800 0.35330 0.16240
C7 C -0.2445(2) 0.2627(3) 0.15860(7)
H5 H -0.26550 0.16030 0.13810
C8 C -0.1026(2) 0.2986(3) 0.17428(7)
C9 C 0.1275(2) 0.2418(3) 0.13959(7)
C10 C 0.1040(3) 0.5479(4) 0.27119(8)
H6 H 0.19080 0.48480 0.28240
H7 H 0.02660 0.50580 0.28980
H8 H 0.11550 0.68420 0.27460
C11 C -0.0081(3) -0.0331(3) 0.16577(10)
H9 H 0.01730 -0.09770 0.13710
H10 H -0.10550 -0.06260 0.17210
H11 H 0.05400 -0.07490 0.19230
C12 C 0.2525(2) 0.5268(4) 0.10382(8)
H12 H 0.27360 0.66130 0.10970
H13 H 0.34040 0.45480 0.10990
C13 C 0.2009(2) 0.5008(4) 0.05218(8)
H14 H 0.17860 0.36560 0.04570
C14 C 0.3060(3) 0.5754(4) 0.01653(8)
H15 H 0.39930 0.60170 0.03210
H16 H 0.31670 0.48560 -0.00960
C15 C 0.2327(2) 0.7564(4) -0.00061(8)
C16 C 0.2942(2) 0.8996(3) -0.03233(7)
C17 C 0.2153(2) 1.0624(4) -0.04645(8)
H17 H 0.12460 1.08170 -0.03520
C18 C 0.2715(2) 1.1944(4) -0.07698(9)
H18 H 0.21830 1.30210 -0.08630
C19 C 0.4069(2) 1.1680(4) -0.09397(8)
H19 H 0.44380 1.25690 -0.11480
C20 C 0.4862(2) 1.0094(4) -0.07983(8)
H20 H 0.57750 0.99200 -0.09080
C21 C 0.4301(2) 0.8760(3) -0.04936(7)
H21 H 0.48400 0.76890 -0.04010
#END
