
#######################################################################
#
#                 Cambridge Crystallographic Data Centre
#                                CCDC
#
#######################################################################
#
# If this CIF has been generated from an entry in the Cambridge
# Structural Database, then it will include bibliographic, chemical,
# crystal, experimental, refinement or atomic coordinate data resulting
# from the CCDC's data processing and validation procedures.
#
#######################################################################

data_CSD_CIF_VADGAK
_audit_creation_date 2011-03-04
_audit_creation_method CSD-ConQuest-V1
_database_code_CSD VADGAK
_database_code_depnum_ccdc_archive 'CCDC 760090'
_chemical_formula_sum 'C19 H23 N1 O4'
_chemical_formula_moiety
;
C19 H23 N1 O4
;
_journal_coden_Cambridge 1336
_journal_volume 12
_journal_year 2010
_journal_page_first 1824
_journal_name_full 'Org.Lett. '
loop_
_publ_author_name
"P.Saha"
"U.C.Reddy"
"S.Bondalapati"
"A.K.Saikia"
_chemical_name_systematic
;
2,2,6-Trimethyl-4-(2-(4-nitrophenyl)vinyl)-3-oxabicyclo[3.3.1]nonan-7-one
;
_cell_volume   1722.882
_exptl_crystal_density_diffrn 1.27
_diffrn_ambient_temperature 296
#These two values have been output from a single CSD field.
_refine_ls_R_factor_gt 0.0507
_refine_ls_wR_factor_gt 0.0507
_symmetry_cell_setting monoclinic
_symmetry_space_group_name_H-M 'P 21/c'
_symmetry_Int_Tables_number 14
loop_
_symmetry_equiv_pos_site_id
_symmetry_equiv_pos_as_xyz
1 x,y,z
2 -x,1/2+y,1/2-z
3 -x,-y,-z
4 x,-1/2-y,-1/2+z
_cell_length_a 18.1890(4)
_cell_length_b 10.0277(2)
_cell_length_c 9.4674(2)
_cell_angle_alpha 90
_cell_angle_beta 93.858(2)
_cell_angle_gamma 90
_cell_formula_units_Z 4
loop_
_atom_type_symbol
_atom_type_radius_bond
C 0.68
H 0.23
N 0.68
O 0.68
loop_
_atom_site_label
_atom_site_type_symbol
_atom_site_fract_x
_atom_site_fract_y
_atom_site_fract_z
N1 N -0.03746(8) 0.90561(17) 0.76449(16)
O1 O 0.33599(6) 0.90622(11) 0.26831(12)
O2 O -0.08474(8) 0.82101(17) 0.74236(18)
O3 O -0.04071(8) 0.99170(18) 0.85419(16)
O4 O 0.3276(1) 1.26758(17) 0.2209(2)
C1 C 0.14651(8) 0.90418(15) 0.51243(17)
C2 C 0.02672(8) 0.90499(16) 0.67730(17)
C3 C 0.20956(9) 0.90834(16) 0.42252(18)
H1 H 0.25420 0.94010 0.46300
C4 C 0.25530(8) 0.95940(16) 0.06250(17)
H2 H 0.20890 0.93250 0.01190
C5 C 0.08486(9) 0.82554(17) 0.47793(18)
H3 H 0.08410 0.77190 0.39770
C6 C 0.26899(8) 0.86950(17) 0.19264(17)
H4 H 0.27450 0.77790 0.15890
C7 C 0.20743(9) 0.87047(17) 0.28928(19)
H5 H 0.16200 0.84070 0.25060
C8 C 0.39039(9) 0.97269(18) 0.04914(18)
H6 H 0.43110 0.95110 -0.00960
C9 C 0.31804(9) 0.93536(17) -0.03387(17)
H7 H 0.31120 0.98970 -0.11850
H8 H 0.31900 0.84240 -0.06210
C10 C 0.08655(10) 0.98251(18) 0.71694(18)
H9 H 0.08670 1.03580 0.79740
C11 C 0.24941(9) 1.10719(16) 0.10453(18)
H10 H 0.22050 1.11210 0.18810
C12 C 0.40128(9) 0.89297(19) 0.18819(19)
C13 C 0.14678(9) 0.98013(18) 0.63516(18)
H11 H 0.18830 1.03040 0.66290
C14 C 0.02468(9) 0.82510(17) 0.55993(19)
H12 H -0.01610 0.77180 0.53590
C15 C 0.38919(10) 1.12425(19) 0.0705(2)
H13 H 0.43330 1.15060 0.12700
H14 H 0.39020 1.16750 -0.02100
C16 C 0.32323(11) 1.17176(19) 0.14163(19)
C17 C 0.41673(12) 0.7458(2) 0.1574(3)
H15 H 0.41450 0.69480 0.24280
H16 H 0.46490 0.73740 0.12260
H17 H 0.38050 0.71320 0.08740
C18 C 0.46273(10) 0.9474(3) 0.2888(2)
H18 H 0.45020 1.03560 0.31820
H19 H 0.50780 0.95040 0.24150
H20 H 0.46910 0.89050 0.37030
C19 C 0.20896(12) 1.1883(2) -0.0140(2)
H21 H 0.20940 1.28100 0.01160
H22 H 0.15900 1.15790 -0.02770
H23 H 0.23320 1.17690 -0.10020
#END
