
#######################################################################
#
#                 Cambridge Crystallographic Data Centre
#                                CCDC
#
#######################################################################
#
# If this CIF has been generated from an entry in the Cambridge
# Structural Database, then it will include bibliographic, chemical,
# crystal, experimental, refinement or atomic coordinate data resulting
# from the CCDC's data processing and validation procedures.
#
#######################################################################

data_CSD_CIF_VADGUF
_audit_creation_date 2016-03-07
_audit_creation_method CSD-ConQuest-V1
_database_code_CSD VADGUF
_database_code_depnum_ccdc_archive 'CCDC 1450112'
_chemical_formula_sum 'C15 H10 N2 O2'
_chemical_formula_moiety
;
C15 H10 N2 O2
;
_journal_coden_Cambridge 182
_journal_volume 52
_journal_year 2016
_journal_page_first 5375
_journal_name_full 'Chem.Commun. '
loop_
_publ_author_name
"Liwen Fan"
"Tao Wang"
"Ying Tian"
"Fei Xiong"
"Simei Wu"
"Qingjin Liang"
"Junfeng Zhao"
_chemical_name_systematic
;
(3-Oxidoquinazolin-4-yl)(phenyl)methanone
;
_cell_volume   2462.675
_exptl_crystal_density_diffrn 1.35
_diffrn_ambient_temperature 296
#These two values have been output from a single CSD field.
_refine_ls_R_factor_gt 0.0443
_refine_ls_wR_factor_gt 0.0443
_symmetry_cell_setting monoclinic
_symmetry_space_group_name_H-M 'C 2/c'
_symmetry_Int_Tables_number 15
loop_
_symmetry_equiv_pos_site_id
_symmetry_equiv_pos_as_xyz
1 x,y,z
2 -x,y,1/2-z
3 1/2+x,1/2+y,z
4 1/2-x,1/2+y,1/2-z
5 -x,-y,-z
6 x,-y,-1/2+z
7 -1/2-x,-1/2-y,-z
8 -1/2+x,-1/2-y,-1/2+z
_cell_length_a 19.7366(15)
_cell_length_b 11.0069(8)
_cell_length_c 14.8933(11)
_cell_angle_alpha 90
_cell_angle_beta 130.433(1)
_cell_angle_gamma 90
_cell_formula_units_Z 8
loop_
_atom_type_symbol
_atom_type_radius_bond
C 0.68
H 0.23
N 0.68
O 0.68
loop_
_atom_site_label
_atom_site_type_symbol
_atom_site_fract_x
_atom_site_fract_y
_atom_site_fract_z
C1 C 0.10888(9) 0.32585(12) 0.18561(12)
N1 N 0.18684(8) 0.37981(11) 0.26628(11)
O1 O 0.26167(7) 0.32094(10) 0.32497(12)
C2 C 0.02957(9) 0.39280(12) 0.12668(11)
C3 C 0.03712(9) 0.51675(12) 0.15743(12)
N2 N 0.11913(8) 0.56941(11) 0.23950(11)
C4 C 0.18863(10) 0.50337(13) 0.28862(14)
H1 H 0.24390 0.54030 0.34270
C5 C -0.03961(11) 0.58713(15) 0.10226(15)
H2 H -0.03490 0.66870 0.12180
C6 C 0.11652(9) 0.10029(12) 0.23459(12)
C7 C -0.05582(10) 0.34301(14) 0.04027(13)
H3 H -0.06210 0.26200 0.01830
C8 C 0.11806(11) -0.02182(13) 0.21171(16)
H4 H 0.11560 -0.04380 0.14930
C9 C 0.11258(10) 0.19348(13) 0.16048(13)
C10 C -0.12109(11) 0.53608(17) 0.02002(17)
H5 H -0.17200 0.58300 -0.01600
C11 C 0.11933(10) 0.13141(14) 0.32698(13)
H6 H 0.11870 0.21280 0.34320
C12 C -0.12917(11) 0.41391(18) -0.01094(15)
H7 H -0.18550 0.38050 -0.06740
O2 O 0.11094(12) 0.17059(11) 0.07968(13)
C13 C 0.12529(12) -0.07787(16) 0.37215(17)
H8 H 0.12810 -0.13780 0.41850
C14 C 0.12313(12) 0.04199(16) 0.39509(16)
H9 H 0.12420 0.06310 0.45650
C15 C 0.12331(12) -0.11027(15) 0.28183(18)
H10 H 0.12550 -0.19180 0.26760
#END
