
#######################################################################
#
#                 Cambridge Crystallographic Data Centre
#                                CCDC
#
#######################################################################
#
# If this CIF has been generated from an entry in the Cambridge
# Structural Database, then it will include bibliographic, chemical,
# crystal, experimental, refinement or atomic coordinate data resulting
# from the CCDC's data processing and validation procedures.
#
#######################################################################

data_CSD_CIF_VADJOA01
_audit_creation_date 2017-11-07
_audit_creation_method CSD-ConQuest-V1
_database_code_CSD VADJOA01
_database_code_depnum_ccdc_archive 'CCDC 1401887'
_chemical_formula_sum 'C11 H9 N3 O1'
_chemical_formula_moiety
;
C11 H9 N3 O1
;
_journal_coden_Cambridge 119
_journal_volume 1154
_journal_year 2018
_journal_page_first 619
_journal_name_full 'J.Mol.Struct. '
loop_
_publ_author_name
"I.Warad"
"M.Abdoh"
"Anas Al Ali"
"Naveen Shivalingegowda"
"K.Kumara"
"A.Zarrouk"
"N.K.Lokanath"
_chemical_name_systematic
;
bis(pyridin-2-yl)methanone oxime
;
_chemical_name_common
;
N-hydroxy-1,1-bis(pyridin-2-yl)methanimine
;
_cell_volume   1000.260
_exptl_crystal_colour 'white'
_exptl_crystal_density_diffrn 1.323
_exptl_crystal_description 'Prism'
_diffrn_ambient_temperature 293
#These two values have been output from a single CSD field.
_refine_ls_R_factor_gt 0.0477
_refine_ls_wR_factor_gt 0.0477
_symmetry_cell_setting monoclinic
_symmetry_space_group_name_H-M 'P 21/n'
_symmetry_Int_Tables_number 14
loop_
_symmetry_equiv_pos_site_id
_symmetry_equiv_pos_as_xyz
1 x,y,z
2 1/2-x,1/2+y,1/2-z
3 -x,-y,-z
4 -1/2+x,-1/2-y,-1/2+z
_cell_length_a 8.8811(8)
_cell_length_b 10.6362(8)
_cell_length_c 11.2050(8)
_cell_angle_alpha 90
_cell_angle_beta 109.085(4)
_cell_angle_gamma 90
_cell_formula_units_Z 4
loop_
_atom_type_symbol
_atom_type_radius_bond
C 0.68
H 0.23
N 0.68
O 0.68
loop_
_atom_site_label
_atom_site_type_symbol
_atom_site_fract_x
_atom_site_fract_y
_atom_site_fract_z
N1 N -0.1399(2) 0.34688(16) 0.73679(18)
C1 C -0.0218(2) 0.27116(16) 0.80317(17)
C2 C 0.0236(3) 0.2582(2) 0.9329(2)
H1 H 0.10730 0.20550 0.97580
C3 C -0.0583(4) 0.3254(3) 0.9968(3)
H2 H -0.03120 0.31790 1.08400
C4 C -0.1788(5) 0.4027(3) 0.9321(4)
H3 H -0.23490 0.44900 0.97410
C5 C -0.2164(3) 0.4113(2) 0.8033(3)
H4 H -0.29920 0.46450 0.75950
C6 C 0.05990(19) 0.20093(14) 0.72789(14)
N2 N 0.12538(17) 0.09678(12) 0.77507(11)
O1 O 0.20524(14) 0.03762(10) 0.70252(9)
H5 H 0.24510 -0.02800 0.73700
C7 C 0.06218(18) 0.25445(13) 0.60490(14)
N3 N 0.14887(16) 0.35906(12) 0.61254(11)
C8 C 0.1507(2) 0.40981(15) 0.50353(15)
H6 H 0.21150 0.48180 0.50700
C9 C 0.0676(2) 0.36134(17) 0.38687(15)
H7 H 0.07150 0.40020 0.31360
C10 C -0.0209(2) 0.25485(17) 0.38080(15)
H8 H -0.07900 0.22030 0.30310
C11 C -0.0226(2) 0.19949(16) 0.49156(15)
H9 H -0.08030 0.12610 0.48980
#END
