
#######################################################################
#
#                 Cambridge Crystallographic Data Centre
#                                CCDC
#
#######################################################################
#
# If this CIF has been generated from an entry in the Cambridge
# Structural Database, then it will include bibliographic, chemical,
# crystal, experimental, refinement or atomic coordinate data resulting
# from the CCDC's data processing and validation procedures.
#
#######################################################################

data_CSD_CIF_VADJOA
_audit_creation_date 2003-03-19
_audit_creation_method CSD-ConQuest-V1
_database_code_CSD VADJOA
_database_code_depnum_ccdc_archive 'CCDC 199719'
_chemical_formula_sum 'C11 H9 N3 O1'
_chemical_formula_moiety
;
C11 H9 N3 O1
;
_journal_coden_Cambridge 1078
_journal_year 2002
_journal_name_full 'CSD Communication(Private Communication) '
loop_
_publ_author_name
"F.Hintermaier"
"W.Beck"
"K.Polborn"
_chemical_name_systematic
;
bis(2-Pyridyl)ketone oxime
;
_cell_volume    997.015
_exptl_crystal_density_diffrn 1.327
_exptl_special_details
;
contribution from Department of Chemistry, University of Munich, 
Butenandtstrasse 5-13, Haus F, D-81377 Munchen, Germany
;
_diffrn_ambient_temperature 295
#These two values have been output from a single CSD field.
_refine_ls_R_factor_gt 0.0309
_refine_ls_wR_factor_gt 0.0309
_symmetry_cell_setting monoclinic
_symmetry_space_group_name_H-M 'P 21/n'
_symmetry_Int_Tables_number 14
loop_
_symmetry_equiv_pos_site_id
_symmetry_equiv_pos_as_xyz
1 x,y,z
2 1/2-x,1/2+y,1/2-z
3 -x,-y,-z
4 -1/2+x,-1/2-y,-1/2+z
_cell_length_a 8.873(2)
_cell_length_b 10.625(3)
_cell_length_c 11.193(3)
_cell_angle_alpha 90
_cell_angle_beta 109.12(2)
_cell_angle_gamma 90
_cell_formula_units_Z 4
loop_
_atom_type_symbol
_atom_type_radius_bond
C 0.68
H 0.23
N 0.68
O 0.68
loop_
_atom_site_label
_atom_site_type_symbol
_atom_site_fract_x
_atom_site_fract_y
_atom_site_fract_z
O1 O 0.70504(13) 0.03758(10) 0.70234(9)
H1 H 0.7565(18) -0.0220(11) 0.7418(7)
N1 N 0.6254(2) 0.09672(12) 0.77518(11)
N2 N 0.64879(15) 0.35892(11) 0.61259(11)
N3 N 0.3607(2) 0.34664(15) 0.7370(2)
C1 C 0.5601(2) 0.20099(13) 0.72759(13)
C2 C 0.5623(2) 0.25418(13) 0.60508(14)
C3 C 0.4774(2) 0.19948(15) 0.49169(15)
H2 H 0.4194(2) 0.12617(15) 0.48981(15)
C4 C 0.4793(2) 0.2546(2) 0.38110(15)
H3 H 0.4214(2) 0.2200(2) 0.30330(15)
C5 C 0.5677(2) 0.3612(2) 0.38735(15)
H4 H 0.5716(2) 0.4001(2) 0.31398(15)
C6 C 0.6504(2) 0.40945(15) 0.50344(14)
H5 H 0.7112(2) 0.48148(15) 0.50687(14)
C7 C 0.4787(2) 0.2708(2) 0.8029(2)
C8 C 0.2846(3) 0.4110(2) 0.8035(3)
H6 H 0.2017(3) 0.4643(2) 0.7597(3)
C9 C 0.3222(4) 0.4025(3) 0.9320(3)
H7 H 0.2662(4) 0.4491(3) 0.9739(3)
C10 C 0.4420(4) 0.3253(3) 0.9968(3)
H8 H 0.4691(4) 0.3176(3) 1.0840(3)
C11 C 0.5233(3) 0.2582(2) 0.9327(2)
H9 H 0.6069(3) 0.2052(2) 0.9758(2)
#END
