
#######################################################################
#
#                 Cambridge Crystallographic Data Centre
#                                CCDC
#
#######################################################################
#
# If this CIF has been generated from an entry in the Cambridge
# Structural Database, then it will include bibliographic, chemical,
# crystal, experimental, refinement or atomic coordinate data resulting
# from the CCDC's data processing and validation procedures.
#
#######################################################################

data_CSD_CIF_VADZAB
_audit_creation_date 1989-07-31
_audit_creation_method CSD-ConQuest-V1
_database_code_CSD VADZAB
_chemical_formula_sum 'C13 H15 N1 O5'
_chemical_formula_moiety
;
C13 H15 N1 O5
;
_journal_coeditor_code "IUCr AN0196"
_journal_coden_Cambridge 591
_journal_volume 45
_journal_year 1989
_journal_page_first 249
_journal_name_full 'Acta Crystallogr.,Sect.C:Cryst.Struct.Commun. '
loop_
_publ_author_name
"P.G.Jones"
"M.R.Edwards"
"A.J.Kirby"
_chemical_name_systematic
;
trans-2-Hydroxycyclohexyl 4-nitrobenzoate
;
_chemical_melting_point 369
_cell_volume    641.394
_exptl_crystal_colour 'colorless-pale yellow'
_exptl_crystal_density_diffrn 1.37
_exptl_special_details
;
Melting point range 369-370K

;
_diffrn_ambient_temperature ?
_diffrn_special_details
;
The study was carried out at room temperature,in the range 283-303K

;
#These two values have been output from a single CSD field.
_refine_ls_R_factor_gt 0.045
_refine_ls_wR_factor_gt 0.045
_symmetry_cell_setting triclinic
_symmetry_space_group_name_H-M 'P -1'
_symmetry_Int_Tables_number 2
loop_
_symmetry_equiv_pos_site_id
_symmetry_equiv_pos_as_xyz
1 x,y,z
2 -x,-y,-z
_cell_length_a 5.659(2)
_cell_length_b 8.167(2)
_cell_length_c 14.167(4)
_cell_angle_alpha 91.94(3)
_cell_angle_beta 101.37(2)
_cell_angle_gamma 90.81(2)
_cell_formula_units_Z 2
loop_
_atom_type_symbol
_atom_type_radius_bond
C 0.68
H 0.23
N 0.68
O 0.68
loop_
_atom_site_label
_atom_site_type_symbol
_atom_site_fract_x
_atom_site_fract_y
_atom_site_fract_z
C1 C 0.2563(2) 0.2158(2) 0.7492(1)
C2 C 0.5140(2) 0.1703(2) 0.7898(1)
C3 C 0.5348(3) 0.1292(2) 0.8947(1)
C4 C 0.4589(3) 0.2716(2) 0.9527(1)
C5 C 0.2026(3) 0.3210(2) 0.9106(1)
C6 C 0.1774(3) 0.3597(2) 0.8044(1)
C7 C 0.0669(2) 0.2530(2) 0.4847(1)
C8 C 0.2741(3) 0.3223(2) 0.4627(1)
C9 C 0.2932(3) 0.3382(2) 0.3673(1)
C10 C 0.1044(3) 0.2811(2) 0.2962(1)
C11 C -0.1040(3) 0.2142(2) 0.3157(1)
C12 C -0.1220(2) 0.2005(2) 0.4112(1)
N1 N 0.1312(2) 0.2894(2) 0.1947(1)
O1 O 0.3066(2) 0.3622(2) 0.1781(1)
O2 O -0.0244(2) 0.2238(2) 0.1332(1)
C13 C 0.0418(2) 0.2271(2) 0.5862(1)
O3 O 0.2481(2) 0.2555(1) 0.6485(1)
O4 O 0.5850(2) 0.0329(1) 0.7383(1)
O5 O -0.1448(2) 0.1833(2) 0.6074(1)
H1 H 0.14780 0.12670 0.75440
H2 H 0.61800 0.26160 0.78380
H3 H 0.69920 0.10400 0.92120
H4 H 0.43290 0.03570 0.89850
H5 H 0.46730 0.24000 1.01790
H6 H 0.56640 0.36340 0.95190
H7 H 0.09340 0.23260 0.91640
H8 H 0.16380 0.41640 0.94550
H9 H 0.27620 0.45400 0.79890
H10 H 0.01190 0.38210 0.77800
H11 H 0.40420 0.35920 0.51360
H12 H 0.43420 0.38770 0.35120
H13 H -0.23380 0.17800 0.26450
H14 H -0.26600 0.15440 0.42670
H15 H 0.6401(27) 0.0683(19) 0.6972(11)
#END
