
#######################################################################
#
#                 Cambridge Crystallographic Data Centre
#                                CCDC
#
#######################################################################
#
# If this CIF has been generated from an entry in the Cambridge
# Structural Database, then it will include bibliographic, chemical,
# crystal, experimental, refinement or atomic coordinate data resulting
# from the CCDC's data processing and validation procedures.
#
#######################################################################

data_CSD_CIF_VAFCAG
_audit_creation_date 1989-08-08
_audit_creation_method CSD-ConQuest-V1
_database_code_CSD VAFCAG
_database_code_depnum_ccdc_archive 'CCDC 1278926'
_chemical_formula_sum 'C15 H15 N1 O3'
_chemical_formula_moiety
;
C15 H15 N1 O3
;
_journal_coeditor_code "IUCr AN0185"
_journal_coden_Cambridge 591
_journal_volume 45
_journal_year 1989
_journal_page_first 226
_journal_name_full 'Acta Crystallogr.,Sect.C:Cryst.Struct.Commun. '
loop_
_publ_author_name
"P.G.Jones"
"A.Dolle"
"A.J.Kirby"
"J.K.Parker"
_chemical_name_systematic
;
2,6-Dimethylbenzyl 4-nitrophenyl ether
;
_chemical_melting_point 414
_cell_volume   1364.975
_exptl_crystal_colour 'yellow'
_exptl_crystal_density_diffrn 1.25
_exptl_special_details
;
Melting point range 414-416K

;
_diffrn_ambient_temperature ?
_diffrn_special_details
;
The study was carried out at room temperature,in the range 283-303K

;
#These two values have been output from a single CSD field.
_refine_ls_R_factor_gt 0.057
_refine_ls_wR_factor_gt 0.057
_symmetry_cell_setting monoclinic
_symmetry_space_group_name_H-M 'P 21/c'
_symmetry_Int_Tables_number 14
loop_
_symmetry_equiv_pos_site_id
_symmetry_equiv_pos_as_xyz
1 x,y,z
2 -x,1/2+y,1/2-z
3 -x,-y,-z
4 x,-1/2-y,-1/2+z
_cell_length_a 8.691(1)
_cell_length_b 11.506(1)
_cell_length_c 13.700(2)
_cell_angle_alpha 90
_cell_angle_beta 94.90(1)
_cell_angle_gamma 90
_cell_formula_units_Z 4
loop_
_atom_type_symbol
_atom_type_radius_bond
C 0.68
H 0.23
N 0.68
O 0.68
loop_
_atom_site_label
_atom_site_type_symbol
_atom_site_fract_x
_atom_site_fract_y
_atom_site_fract_z
C1 C 0.6135(2) 0.7878(2) 0.4644(2)
C2 C 0.4674(2) 0.8342(2) 0.4988(2)
C3 C 0.4645(2) 0.8765(2) 0.5940(2)
C4 C 0.3269(3) 0.9215(2) 0.6222(2)
C5 C 0.1968(3) 0.9250(2) 0.5588(2)
C6 C 0.2007(3) 0.8826(2) 0.4668(2)
C7 C 0.3342(3) 0.8360(2) 0.4344(2)
C8 C 0.6036(3) 0.8729(3) 0.6665(2)
C9 C 0.3321(4) 0.7891(3) 0.3330(2)
C10 C 0.7256(2) 0.6001(2) 0.4378(1)
C11 C 0.8445(2) 0.6462(2) 0.3899(2)
C12 C 0.9507(2) 0.5725(2) 0.3533(2)
C13 C 0.9383(2) 0.4551(2) 0.3661(1)
C14 C 0.8214(2) 0.4085(2) 0.4139(2)
C15 C 0.7144(2) 0.4809(2) 0.4493(2)
N1 N 1.0505(2) 0.3775(2) 0.3265(2)
O1 O 0.6114(2) 0.6632(1) 0.4746(1)
O2 O 1.1500(2) 0.4180(2) 0.2814(2)
O3 O 1.0410(2) 0.2743(2) 0.3413(2)
H1 H 0.70050 0.81950 0.50350
H2 H 0.62030 0.80830 0.39700
H3 H 0.32300 0.95070 0.68760
H4 H 0.10300 0.95740 0.57930
H5 H 0.10850 0.88480 0.42290
H6 H 0.85340 0.72880 0.38210
H7 H 1.03320 0.60360 0.31890
H8 H 0.81430 0.32590 0.42250
H9 H 0.63110 0.44890 0.48250
#END
