
#######################################################################
#
#                 Cambridge Crystallographic Data Centre
#                                CCDC
#
#######################################################################
#
# If this CIF has been generated from an entry in the Cambridge
# Structural Database, then it will include bibliographic, chemical,
# crystal, experimental, refinement or atomic coordinate data resulting
# from the CCDC's data processing and validation procedures.
#
#######################################################################

data_CSD_CIF_VAFVAB
_audit_creation_date 2011-03-15
_audit_creation_method CSD-ConQuest-V1
_database_code_CSD VAFVAB
_database_code_depnum_ccdc_archive 'CCDC 800583'
_chemical_formula_sum 'C15 H17 N1 O3'
_chemical_formula_moiety
;
C15 H17 N1 O3
;
_journal_coden_Cambridge 1336
_journal_volume 12
_journal_year 2010
_journal_page_first 1924
_journal_name_full 'Org.Lett. '
loop_
_publ_author_name
"M.A.Flores"
"J.W.Bode"
_chemical_name_systematic
;
2-cyclohexyl-4-phenyl-1,3-oxazol-5(4H)-one 3-oxide
;
_cell_volume    657.074
_exptl_crystal_colour 'colorless'
_exptl_crystal_density_diffrn 1.311
_exptl_crystal_description 'plate'
_diffrn_ambient_temperature 293
#These two values have been output from a single CSD field.
_refine_ls_R_factor_gt 0.0485
_refine_ls_wR_factor_gt 0.0485
_symmetry_cell_setting triclinic
_symmetry_space_group_name_H-M 'P -1'
_symmetry_Int_Tables_number 2
loop_
_symmetry_equiv_pos_site_id
_symmetry_equiv_pos_as_xyz
1 x,y,z
2 -x,-y,-z
_cell_length_a 5.3913(8)
_cell_length_b 10.1972(14)
_cell_length_c 12.9979(19)
_cell_angle_alpha 111.410(2)
_cell_angle_beta 98.712(2)
_cell_angle_gamma 88.915(2)
_cell_formula_units_Z 2
loop_
_atom_type_symbol
_atom_type_radius_bond
C 0.68
H 0.23
N 0.68
O 0.68
loop_
_atom_site_label
_atom_site_type_symbol
_atom_site_fract_x
_atom_site_fract_y
_atom_site_fract_z
C1 C 0.2035(4) 0.3247(2) 0.11856(18)
C2 C 0.1356(5) 0.2001(2) 0.02809(19)
C3 C -0.0899(5) 0.1849(3) -0.04017(19)
C4 C -0.2506(5) 0.2931(3) -0.01932(19)
C5 C -0.1886(4) 0.4193(3) 0.07022(18)
C6 C 0.0412(3) 0.43676(19) 0.14121(14)
C7 C 0.1078(3) 0.57050(19) 0.23462(14)
C8 C -0.0315(4) 0.7006(2) 0.26098(16)
C9 C 0.3210(4) 0.7454(2) 0.39184(16)
C10 C 0.3164(3) 0.75448(18) 0.51051(15)
C11 C 0.0651(4) 0.7022(2) 0.52541(16)
C12 C 0.0647(4) 0.7119(2) 0.64489(17)
C13 C 0.1343(4) 0.8609(2) 0.72789(19)
C14 C 0.3839(4) 0.9135(3) 0.71387(17)
C15 C 0.3835(4) 0.9039(2) 0.59414(17)
H1 H 0.360(4) 0.330(2) 0.1619(16)
H2 H 0.249(5) 0.129(3) 0.017(2)
H3 H -0.140(4) 0.096(3) -0.103(2)
H4 H -0.414(5) 0.285(2) -0.067(2)
H5 H -0.296(4) 0.494(2) 0.0890(18)
H6 H 0.466(4) 0.792(2) 0.3858(17)
H7 H 0.442(3) 0.6951(18) 0.5240(14)
H8 H -0.073(3) 0.7593(18) 0.5032(14)
H9 H 0.028(4) 0.602(2) 0.4713(18)
H10 H -0.101(4) 0.682(2) 0.6554(16)
H11 H 0.197(4) 0.651(2) 0.6615(15)
H12 H -0.009(4) 0.926(2) 0.7133(17)
H13 H 0.135(4) 0.861(2) 0.8035(19)
H14 H 0.424(4) 1.012(2) 0.7672(19)
H15 H 0.528(4) 0.857(2) 0.7356(16)
H16 H 0.264(4) 0.969(2) 0.5753(15)
H17 H 0.549(4) 0.935(2) 0.5862(16)
N1 N 0.3097(3) 0.59722(16) 0.31104(13)
O1 O -0.2316(3) 0.72470(15) 0.21869(12)
O2 O 0.1070(3) 0.80422(13) 0.34924(11)
O3 O 0.4835(3) 0.51874(15) 0.32622(12)
#END
