
#######################################################################
#
#                 Cambridge Crystallographic Data Centre
#                                CCDC
#
#######################################################################
#
# If this CIF has been generated from an entry in the Cambridge
# Structural Database, then it will include bibliographic, chemical,
# crystal, experimental, refinement or atomic coordinate data resulting
# from the CCDC's data processing and validation procedures.
#
#######################################################################

data_CSD_CIF_VAGCOW
_audit_creation_date 2003-03-19
_audit_creation_method CSD-ConQuest-V1
_database_code_CSD VAGCOW
_database_code_depnum_ccdc_archive 'CCDC 176775'
_chemical_formula_sum 'C18 H19 N1 O7'
_chemical_formula_moiety
;
C18 H19 N1 O7
;
_journal_coden_Cambridge 504
_journal_volume 57
_journal_year 2002
_journal_page_first 523
_journal_name_full 'Pharmazie '
loop_
_publ_author_name
"K.Gorlitzer"
"J.Trittmacher"
"P.G.Jones"
_chemical_name_systematic
;
3-Ethyl 5-methyl 
(4RS)-2,6-dimethyl-4-(3-nitrophenyl)-4H-pyran-3,5-dicarboxylate
;
_chemical_melting_point 351.15
_cell_volume   1708.419
_exptl_crystal_colour 'colorless'
_exptl_crystal_density_diffrn 1.405
_exptl_special_details
;
Melting point range 351.15-354.15K

;
_exptl_crystal_description 'rectangular prism'
_diffrn_ambient_temperature 133
#These two values have been output from a single CSD field.
_refine_ls_R_factor_gt 0.0413
_refine_ls_wR_factor_gt 0.0413
_symmetry_cell_setting monoclinic
_symmetry_space_group_name_H-M 'P 21/n'
_symmetry_Int_Tables_number 14
loop_
_symmetry_equiv_pos_site_id
_symmetry_equiv_pos_as_xyz
1 x,y,z
2 1/2-x,1/2+y,1/2-z
3 -x,-y,-z
4 -1/2+x,-1/2-y,-1/2+z
_cell_length_a 8.7492(8)
_cell_length_b 15.0211(14)
_cell_length_c 13.0008(12)
_cell_angle_alpha 90
_cell_angle_beta 90.831(3)
_cell_angle_gamma 90
_cell_formula_units_Z 4
loop_
_atom_type_symbol
_atom_type_radius_bond
C 0.68
H 0.23
N 0.68
O 0.68
loop_
_atom_site_label
_atom_site_type_symbol
_atom_site_fract_x
_atom_site_fract_y
_atom_site_fract_z
O1 O -0.11972(10) 0.12341(6) 0.62860(7)
C1 C -0.04713(14) 0.12129(7) 0.53544(10)
C2 C 0.10396(14) 0.13542(7) 0.52786(9)
C3 C 0.20431(13) 0.15653(7) 0.62092(9)
H1 H 0.28910 0.11190 0.62450
C4 C 0.11279(13) 0.15012(7) 0.71924(9)
C5 C -0.03876(14) 0.13831(8) 0.71839(10)
C6 C -0.16347(15) 0.10191(9) 0.45349(11)
H2 H -0.22300 0.15580 0.43880
H3 H -0.23190 0.05470 0.47690
H4 H -0.11190 0.08250 0.39090
C7 C 0.17954(14) 0.12905(8) 0.42675(10)
O2 O 0.11788(12) 0.12685(9) 0.34319(8)
O3 O 0.33179(10) 0.12663(6) 0.44013(7)
C8 C 0.42494(15) 0.11813(9) 0.34877(10)
H5 H 0.51920 0.15400 0.35710
H6 H 0.36760 0.14070 0.28790
C9 C 0.46541(18) 0.02275(10) 0.33322(12)
H7 H 0.51390 -0.00070 0.39600
H8 H 0.53640 0.01760 0.27590
H9 H 0.37250 -0.01140 0.31750
C10 C 0.19912(14) 0.16095(8) 0.81723(9)
O4 O 0.15110(11) 0.18895(8) 0.89784(7)
O5 O 0.34552(10) 0.13547(6) 0.80617(7)
C11 C 0.44468(15) 0.14702(9) 0.89497(10)
H10 H 0.47600 0.20950 0.90010
H11 H 0.53540 0.10940 0.88790
H12 H 0.38990 0.13000 0.95720
C12 C -0.14760(15) 0.13705(9) 0.80592(11)
H13 H -0.09240 0.15090 0.87010
H14 H -0.19400 0.07790 0.81120
H15 H -0.22780 0.18150 0.79400
C13 C 0.27448(13) 0.24961(7) 0.61379(8)
C14 C 0.43215(13) 0.26158(8) 0.61503(8)
H16 H 0.49890 0.21180 0.61920
C15 C 0.49042(13) 0.34733(8) 0.61017(8)
C16 C 0.39783(15) 0.42210(8) 0.60277(10)
H17 H 0.44070 0.48010 0.59860
C17 C 0.24091(15) 0.40966(8) 0.6017(1)
H18 H 0.17480 0.45970 0.59660
C18 C 0.17946(14) 0.32432(8) 0.60805(9)
H19 H 0.07170 0.31680 0.60850
N1 N 0.65749(12) 0.35922(7) 0.61206(8)
O6 O 0.73813(10) 0.29389(6) 0.62793(7)
O7 O 0.70873(11) 0.43427(6) 0.59712(8)
#END
