
#######################################################################
#
#                 Cambridge Crystallographic Data Centre
#                                CCDC
#
#######################################################################
#
# If this CIF has been generated from an entry in the Cambridge
# Structural Database, then it will include bibliographic, chemical,
# crystal, experimental, refinement or atomic coordinate data resulting
# from the CCDC's data processing and validation procedures.
#
#######################################################################

data_CSD_CIF_VAGSAZ
_audit_creation_date 2011-02-02
_audit_creation_method CSD-ConQuest-V1
_database_code_CSD VAGSAZ
_database_code_depnum_ccdc_archive 'CCDC 744681'
_chemical_formula_sum 'C29 H25 N1 O7'
_chemical_formula_moiety
;
C29 H25 N1 O7
;
_journal_coden_Cambridge 182
_journal_volume 46
_journal_year 2010
_journal_page_first 7816
_journal_name_full 'Chem.Commun. '
loop_
_publ_author_name
"Wanxiang Zhao"
"Junliang Zhang"
_chemical_name_systematic
;
Dimethyl 
1-methyl-8-(4-nitrophenyl)-9-phenyl-5,9-dihydro-2-oxabenzo[cd]azulene-4,4(3H)-
dicarboxylate
;
_cell_volume   1197.373
_exptl_crystal_colour 'yellow'
_exptl_crystal_density_diffrn 1.385
_exptl_crystal_description 'block'
_diffrn_ambient_temperature 173
#These two values have been output from a single CSD field.
_refine_ls_R_factor_gt 0.038
_refine_ls_wR_factor_gt 0.038
_symmetry_cell_setting triclinic
_symmetry_space_group_name_H-M 'P -1'
_symmetry_Int_Tables_number 2
loop_
_symmetry_equiv_pos_site_id
_symmetry_equiv_pos_as_xyz
1 x,y,z
2 -x,-y,-z
_cell_length_a 7.9544(2)
_cell_length_b 11.8108(3)
_cell_length_c 14.0463(4)
_cell_angle_alpha 92.296(1)
_cell_angle_beta 106.149(1)
_cell_angle_gamma 107.558(1)
_cell_formula_units_Z 2
loop_
_atom_type_symbol
_atom_type_radius_bond
C 0.68
H 0.23
N 0.68
O 0.68
loop_
_atom_site_label
_atom_site_type_symbol
_atom_site_fract_x
_atom_site_fract_y
_atom_site_fract_z
N1 N 0.72488(18) 0.66115(13) 1.11203(10)
C1 C 0.7341(2) 0.39984(14) 0.96001(11)
H1 H 0.73270 0.31980 0.96650
C2 C 0.7344(2) 0.47086(14) 1.04062(11)
H2 H 0.73540 0.44100 1.10250
C3 C 0.7332(2) 0.58643(14) 1.02920(11)
C4 C 0.7321(2) 0.63233(14) 0.94024(12)
H3 H 0.72960 0.71160 0.93370
C5 C 0.7345(2) 0.56055(14) 0.86113(12)
H4 H 0.73520 0.59150 0.79980
C6 C 0.73595(19) 0.44321(13) 0.86912(11)
C7 C 0.7333(2) 0.36872(13) 0.78042(11)
C8 C 0.8541(2) 0.41925(13) 0.73144(11)
H5 H 0.93700 0.49620 0.76330
C9 C 0.8841(2) 0.38072(13) 0.64006(11)
H6 H 0.99780 0.42530 0.63010
C10 C 0.7721(2) 0.29004(13) 0.56746(11)
C11 C 0.5945(2) 0.21123(12) 0.56897(10)
C12 C 0.50453(19) 0.19766(12) 0.64559(10)
C13 C 0.59257(19) 0.24246(12) 0.75621(10)
H7 H 0.49030 0.24560 0.78340
C14 C 0.6725(2) 0.15060(13) 0.80833(10)
C15 C 0.8357(2) 0.13824(14) 0.79921(12)
H8 H 0.90210 0.18950 0.76210
C16 C 0.9021(2) 0.05162(15) 0.84399(14)
H9 H 1.01390 0.04390 0.83730
C17 C 0.8077(3) -0.02364(15) 0.89820(14)
H10 H 0.85420 -0.08290 0.92880
C18 C 0.6454(3) -0.01216(16) 0.90765(13)
H11 H 0.57950 -0.06370 0.94480
C19 C 0.5784(2) 0.07455(15) 0.86301(12)
H12 H 0.46670 0.08200 0.86990
C20 C 0.4666(2) 0.14461(13) 0.48405(11)
C21 C 0.3284(2) 0.12565(13) 0.60121(11)
C22 C 0.1639(2) 0.08011(15) 0.63629(12)
H13 H 0.19700 0.10950 0.70750
H14 H 0.12120 -0.00770 0.62650
H15 H 0.06490 0.10850 0.59800
C23 C 0.4862(2) 0.13623(14) 0.38190(11)
H16 H 0.36830 0.13010 0.33080
H17 H 0.52090 0.06480 0.36840
C24 C 0.6406(2) 0.25230(13) 0.37943(11)
C25 C 0.8141(2) 0.27145(14) 0.47090(11)
H18 H 0.85600 0.20070 0.47020
H19 H 0.91550 0.34230 0.46640
C26 C 0.5647(2) 0.35742(13) 0.38074(10)
C27 C 0.6467(3) 0.56852(15) 0.40495(14)
H20 H 0.75750 0.63970 0.42270
H21 H 0.58070 0.56760 0.45450
H22 H 0.56550 0.57050 0.33870
C28 C 0.6881(2) 0.24784(13) 0.28168(12)
C29 C 0.8771(3) 0.19124(19) 0.19936(15)
H23 H 0.96830 0.14900 0.21060
H24 H 0.93450 0.27350 0.18820
H25 H 0.77190 0.14960 0.14050
O1 O 0.6203(2) 0.28775(13) 0.20961(9)
O2 O 0.81341(19) 0.19373(12) 0.28591(9)
O3 O 0.40361(16) 0.34637(11) 0.36296(9)
O4 O 0.70035(15) 0.46171(9) 0.40342(9)
O5 O 0.73736(19) 0.62371(13) 1.19275(9)
O6 O 0.70456(17) 0.75910(11) 1.09682(10)
O7 O 0.30201(14) 0.09125(9) 0.50089(7)
#END
