
#######################################################################
#
#                 Cambridge Crystallographic Data Centre
#                                CCDC
#
#######################################################################
#
# If this CIF has been generated from an entry in the Cambridge
# Structural Database, then it will include bibliographic, chemical,
# crystal, experimental, refinement or atomic coordinate data resulting
# from the CCDC's data processing and validation procedures.
#
#######################################################################

data_CSD_CIF_VAJGAO
_audit_creation_date 1989-11-29
_audit_creation_method CSD-ConQuest-V1
_database_code_CSD VAJGAO
_database_code_depnum_ccdc_archive 'CCDC 1279344'
_chemical_formula_sum 'C6 H11 N1 O6'
_chemical_formula_moiety
;
C6 H11 N1 O6
;
_journal_coden_Cambridge 167
_journal_year 1988
_journal_page_first 685
_journal_name_full 'Liebigs Ann. '
loop_
_publ_author_name
"P.Koll"
"J.Kopf"
"D.Wess"
"H.Brandenburg"
_chemical_name_systematic
;
2,5-Anhydro-1-deoxy-1-nitro-D-gulohexitol
;
_chemical_name_common
;
2,5-Anhydro-6-desoxy-6-nitro-L-glucitol
;
_chemical_melting_point 438.15
_cell_volume    411.226
_exptl_crystal_density_diffrn 1.56
_exptl_special_details
;
Melting point range 438.15-440.15K

;
_diffrn_ambient_temperature ?
_diffrn_special_details
;
The study was carried out at room temperature,in the range 283-303K

;
#These two values have been output from a single CSD field.
_refine_ls_R_factor_gt 0.029
_refine_ls_wR_factor_gt 0.029
_symmetry_cell_setting monoclinic
_symmetry_space_group_name_H-M 'P 21'
_symmetry_Int_Tables_number 4
loop_
_symmetry_equiv_pos_site_id
_symmetry_equiv_pos_as_xyz
1 x,y,z
2 -x,1/2+y,-z
_cell_length_a 6.157(3)
_cell_length_b 9.551(6)
_cell_length_c 7.486(4)
_cell_angle_alpha 90
_cell_angle_beta 110.91(3)
_cell_angle_gamma 90
_cell_formula_units_Z 2
loop_
_atom_type_symbol
_atom_type_radius_bond
C 0.68
H 0.23
N 0.68
O 0.68
loop_
_atom_site_label
_atom_site_type_symbol
_atom_site_fract_x
_atom_site_fract_y
_atom_site_fract_z
O1 O 0.5754(4) 0.0710(3) 0.6085(3)
O2 O 0.2240(3) 0.1419(3) 0.5497(3)
O3 O 0.8001(3) 0.22490 0.9892(2)
O4 O 1.1120(2) 0.4405(2) 0.9156(2)
O5 O 0.5918(2) 0.5102(2) 1.0295(2)
O6 O 0.4837(3) 0.2602(2) 1.1819(3)
N1 N 0.4340(4) 0.1604(2) 0.6113(2)
C1 C 0.5182(4) 0.3030(3) 0.6893(3)
C2 C 0.7728(3) 0.3009(3) 0.8168(2)
C3 C 0.8694(3) 0.4472(3) 0.8807(3)
C4 C 0.8245(3) 0.4662(3) 1.0677(3)
C5 C 0.8615(3) 0.3196(3) 1.1512(3)
C6 C 0.7273(4) 0.2790(3) 1.2780(3)
H1 H 0.491(4) 0.360(4) 0.572(3)
H2 H 0.424(5) 0.335(4) 0.763(4)
H3 H 0.855(5) 0.253(4) 0.750(4)
H4 H 0.795(4) 0.517(3) 0.789(3)
H5 H 0.934(5) 0.535(4) 1.158(4)
H6 H 1.016(4) 0.308(3) 1.232(3)
H7 H 0.757(5) 0.349(4) 1.377(4)
H8 H 0.783(5) 0.185(4) 1.331(4)
H9 H 1.179(5) 0.519(4) 0.952(4)
H10 H 0.574(5) 0.589(4) 0.968(4)
H11 H 0.417(5) 0.324(4) 1.106(4)
#END
