
#######################################################################
#
#                 Cambridge Crystallographic Data Centre
#                                CCDC
#
#######################################################################
#
# If this CIF has been generated from an entry in the Cambridge
# Structural Database, then it will include bibliographic, chemical,
# crystal, experimental, refinement or atomic coordinate data resulting
# from the CCDC's data processing and validation procedures.
#
#######################################################################

data_CSD_CIF_VAJXOW
_audit_creation_date 2016-03-09
_audit_creation_method CSD-ConQuest-V1
_database_code_CSD VAJXOW
_database_code_depnum_ccdc_archive 'CCDC 803412'
_chemical_formula_sum 'C12 H11 N5 O4'
_chemical_formula_moiety
;
C12 H11 N5 O4
;
_journal_coden_Cambridge 1476
_journal_volume 2
_journal_year 2011
_journal_page_first 486
_journal_name_full 'MedChemComm '
loop_
_publ_author_name
"C.N.S.S.P.Kumar"
"D.K.Parida"
"A.Santhoshi"
"A.K.Kota"
"B.Sridhar"
"V.J.Rao"
_chemical_name_systematic
;
Methyl 3-(2-nitrophenyl)-2-(1H-tetrazol-1-ylmethyl)acrylate
;
_cell_volume    651.369
_exptl_crystal_colour 'colorless'
_exptl_crystal_density_diffrn 1.475
_exptl_crystal_description 'block'
_diffrn_ambient_temperature 294
#These two values have been output from a single CSD field.
_refine_ls_R_factor_gt 0.0347
_refine_ls_wR_factor_gt 0.0347
_symmetry_cell_setting triclinic
_symmetry_space_group_name_H-M 'P -1'
_symmetry_Int_Tables_number 2
loop_
_symmetry_equiv_pos_site_id
_symmetry_equiv_pos_as_xyz
1 x,y,z
2 -x,-y,-z
_cell_length_a 6.6504(6)
_cell_length_b 6.7965(6)
_cell_length_c 14.9061(13)
_cell_angle_alpha 94.940(1)
_cell_angle_beta 90.556(1)
_cell_angle_gamma 103.864(1)
_cell_formula_units_Z 2
loop_
_atom_type_symbol
_atom_type_radius_bond
C 0.68
H 0.23
N 0.68
O 0.68
loop_
_atom_site_label
_atom_site_type_symbol
_atom_site_fract_x
_atom_site_fract_y
_atom_site_fract_z
C1 C 0.6562(2) 0.37757(18) 0.12507(9)
C2 C 0.6982(2) 0.3362(2) 0.03583(10)
H1 H 0.83390 0.36940 0.01670
C3 C 0.5391(3) 0.2461(2) -0.0243(1)
H2 H 0.56610 0.21780 -0.08450
C4 C 0.3387(3) 0.1976(2) 0.00483(9)
H3 H 0.23030 0.13700 -0.03600
C5 C 0.2977(2) 0.2384(2) 0.09440(9)
H4 H 0.16150 0.20460 0.11290
C6 C 0.4552(2) 0.32870(18) 0.15737(8)
C7 C 0.40378(19) 0.38512(19) 0.25050(8)
H5 H 0.45970 0.51910 0.27330
C8 C 0.28629(17) 0.26548(19) 0.30545(8)
C9 C 0.19843(18) 0.04012(19) 0.28684(8)
H6 H 0.24520 -0.00610 0.22910
H7 H 0.24920 -0.03000 0.33290
C10 C -0.1617(2) -0.0718(2) 0.34887(9)
H8 H -0.12540 -0.09780 0.40630
C11 C 0.24887(18) 0.3504(2) 0.39732(8)
C12 C 0.2878(2) 0.6515(3) 0.49577(11)
H9 H 0.15200 0.67650 0.50030
H10 H 0.39020 0.77850 0.50390
H11 H 0.30840 0.56640 0.54150
N1 N 0.83249(18) 0.47559(18) 0.18607(9)
N2 N -0.02910(15) -0.01115(15) 0.28560(7)
N3 N -0.13896(18) 0.00956(19) 0.21307(8)
N4 N -0.33157(18) -0.0385(2) 0.23385(9)
N5 N -0.35064(18) -0.0899(2) 0.31906(9)
O1 O 0.99215(17) 0.5655(2) 0.15343(9)
O2 O 0.81415(17) 0.46401(19) 0.26670(8)
O3 O 0.30712(17) 0.55143(16) 0.40845(7)
O4 O 0.17417(15) 0.24563(17) 0.45519(6)
#END
