
#######################################################################
#
#                 Cambridge Crystallographic Data Centre
#                                CCDC
#
#######################################################################
#
# If this CIF has been generated from an entry in the Cambridge
# Structural Database, then it will include bibliographic, chemical,
# crystal, experimental, refinement or atomic coordinate data resulting
# from the CCDC's data processing and validation procedures.
#
#######################################################################

data_CSD_CIF_VAKBIT
_audit_creation_date 2003-09-15
_audit_creation_method CSD-ConQuest-V1
_database_code_CSD VAKBIT
_database_code_depnum_ccdc_archive 'CCDC 207912'
_chemical_formula_sum 'C20 H21 N1 O4'
_chemical_formula_moiety
;
C20 H21 N1 O4
;
_journal_coden_Cambridge 1336
_journal_volume 5
_journal_year 2003
_journal_page_first 1701
_journal_name_full 'Org.Lett. '
loop_
_publ_author_name
"S.M.Ng"
"C.M.Beaudry"
"D.Trauner"
_chemical_name_systematic
;
endo-1',3',5'-Trimethyl-8'-(4-nitrophenyl)spiro(oxetane-3',6'-tricyclo(3.2.1.0
^2,7^)oct-3-en)-2-one
;
_chemical_melting_point 469.15
_cell_volume   1727.049
_exptl_crystal_colour 'colorless'
_exptl_crystal_density_diffrn 1.305
_exptl_special_details
;
Melting point range 469.15-470.15K

;
_exptl_crystal_description 'block'
_exptl_crystal_preparation 'dichloromethane/hexanes'
_diffrn_ambient_temperature 151.2
#These two values have been output from a single CSD field.
_refine_ls_R_factor_gt 0.0437
_refine_ls_wR_factor_gt 0.0437
loop_
_citation_database_id_CSD
_citation_special_details
VAKBEP "is a stereoisomer of this entry"
_symmetry_cell_setting monoclinic
_symmetry_space_group_name_H-M 'P 21/n'
_symmetry_Int_Tables_number 14
loop_
_symmetry_equiv_pos_site_id
_symmetry_equiv_pos_as_xyz
1 x,y,z
2 1/2-x,1/2+y,1/2-z
3 -x,-y,-z
4 -1/2+x,-1/2-y,-1/2+z
_cell_length_a 7.6525(7)
_cell_length_b 15.037(1)
_cell_length_c 15.009(1)
_cell_angle_alpha 90
_cell_angle_beta 90.418(2)
_cell_angle_gamma 90
_cell_formula_units_Z 4
loop_
_atom_type_symbol
_atom_type_radius_bond
C 0.68
H 0.23
N 0.68
O 0.68
loop_
_atom_site_label
_atom_site_type_symbol
_atom_site_fract_x
_atom_site_fract_y
_atom_site_fract_z
O1 O 1.0056(2) 0.9897(1) -0.1300(1)
O2 O 1.1269(3) 0.8797(1) -0.0525(1)
O3 O 0.1280(3) 0.4673(1) -0.2650(2)
O4 O 0.3234(3) 0.3871(1) -0.1985(1)
N1 N 0.2593(3) 0.4593(2) -0.2184(2)
C1 C 0.8056(3) 0.8870(2) -0.0683(2)
C2 C 0.7638(4) 0.8519(2) 0.0238(2)
C3 C 0.8038(3) 0.7540(2) 0.0394(2)
C4 C 0.9082(3) 0.7063(2) -0.0279(2)
C5 C 0.8825(3) 0.7313(2) -0.1120(2)
C6 C 0.7536(3) 0.8050(2) -0.1293(2)
C7 C 0.5758(3) 0.7790(2) -0.0841(2)
C8 C 0.6185(3) 0.7847(2) 0.0149(2)
C9 C 0.7354(4) 0.8250(2) -0.2285(2)
C10 C 0.4725(4) 0.7755(2) 0.0806(2)
C11 C 1.0315(4) 0.6351(2) 0.0034(2)
C12 C 0.7082(4) 0.9736(2) -0.0895(2)
C13 C 0.8322(4) 1.0240(2) -0.1503(2)
C14 C 0.9948(4) 0.9140(2) -0.0801(2)
C15 C 0.4949(3) 0.6936(2) -0.1176(2)
C16 C 0.5421(3) 0.6101(2) -0.0847(2)
C17 C 0.4685(3) 0.5332(2) -0.1182(2)
C18 C 0.3417(3) 0.5405(2) -0.1839(2)
C19 C 0.2892(3) 0.6215(2) -0.2174(2)
C20 C 0.3661(3) 0.6980(2) -0.1838(2)
H1 H 0.76430 0.89170 0.07300
H2 H 0.82210 0.73670 0.09960
H3 H 0.94350 0.70370 -0.15940
H4 H 0.49520 0.82540 -0.09700
H5 H 0.84590 0.84170 -0.25160
H6 H 0.65460 0.87220 -0.23710
H7 H 0.69430 0.77350 -0.25870
H8 H 0.38980 0.82180 0.07120
H9 H 0.51830 0.77950 0.13950
H10 H 0.41690 0.71960 0.07270
H11 H 1.07840 0.60500 -0.04670
H12 H 0.97050 0.59400 0.03970
H13 H 1.12390 0.66140 0.03690
H14 H 0.68650 1.00640 -0.03660
H15 H 0.60060 0.96160 -0.11910
H16 H 0.80310 1.01340 -0.21100
H17 H 0.82690 1.08600 -0.13850
H18 H 0.62670 0.60620 -0.03820
H19 H 0.50410 0.47660 -0.09660
H20 H 0.20200 0.62490 -0.26270
H21 H 0.33060 0.75430 -0.20620
#END
