
#######################################################################
#
#                 Cambridge Crystallographic Data Centre
#                                CCDC
#
#######################################################################
#
# If this CIF has been generated from an entry in the Cambridge
# Structural Database, then it will include bibliographic, chemical,
# crystal, experimental, refinement or atomic coordinate data resulting
# from the CCDC's data processing and validation procedures.
#
#######################################################################

data_CSD_CIF_VAKBEP
_audit_creation_date 2003-09-16
_audit_creation_method CSD-ConQuest-V1
_database_code_CSD VAKBEP
_database_code_depnum_ccdc_archive 'CCDC 207911'
_chemical_formula_sum 'C20 H21 N1 O4'
_chemical_formula_moiety
;
C20 H21 N1 O4
;
_journal_coden_Cambridge 1336
_journal_volume 5
_journal_year 2003
_journal_page_first 1701
_journal_name_full 'Org.Lett. '
loop_
_publ_author_name
"S.M.Ng"
"C.M.Beaudry"
"D.Trauner"
_chemical_name_systematic
;
exo-1',3',5'-Trimethyl-8'-(4-nitrophenyl)spiro(oxetane-3',6'-tricyclo(3.2.1.0^
2,7^)oct-3-en)-2-one
;
_chemical_melting_point 469.15
_cell_volume   1760.583
_exptl_crystal_colour 'colorless'
_exptl_crystal_density_diffrn 1.28
_exptl_special_details
;
Melting point range 469.15-470.15K

;
_exptl_crystal_description 'block'
_exptl_crystal_preparation 'dichloromethane/hexanes'
_diffrn_ambient_temperature 147.2
#These two values have been output from a single CSD field.
_refine_ls_R_factor_gt 0.0545
_refine_ls_wR_factor_gt 0.0545
loop_
_citation_database_id_CSD
_citation_special_details
VAKBIT "is a stereoisomer of this entry"
_symmetry_cell_setting monoclinic
_symmetry_space_group_name_H-M 'P 21/c'
_symmetry_Int_Tables_number 14
loop_
_symmetry_equiv_pos_site_id
_symmetry_equiv_pos_as_xyz
1 x,y,z
2 x,1/2-y,1/2+z
3 -x,-y,-z
4 -x,-1/2+y,-1/2-z
_cell_length_a 10.6472(4)
_cell_length_b 9.9009(4)
_cell_length_c 17.1097(6)
_cell_angle_alpha 90
_cell_angle_beta 102.546(2)
_cell_angle_gamma 90
_cell_formula_units_Z 4
loop_
_atom_type_symbol
_atom_type_radius_bond
C 0.68
H 0.23
N 0.68
O 0.68
loop_
_atom_site_label
_atom_site_type_symbol
_atom_site_fract_x
_atom_site_fract_y
_atom_site_fract_z
O1 O 0.9626(2) 0.1052(2) 0.4047(1)
O2 O 1.0394(2) 0.2403(2) 0.5081(1)
O3 O 0.6720(3) 0.9103(2) 0.7306(2)
O4 O 0.5327(3) 0.7778(2) 0.7653(1)
N1 N 0.6237(3) 0.7974(2) 0.7339(2)
C1 C 0.9462(3) 0.1862(3) 0.4661(2)
C2 C 0.8066(3) 0.1904(3) 0.4716(2)
C3 C 0.7386(3) 0.1289(3) 0.3908(2)
C4 C 0.8404(3) 0.0384(3) 0.3696(2)
C5 C 0.7582(3) 0.3361(3) 0.4907(2)
C6 C 0.6150(3) 0.3245(3) 0.4828(2)
C7 C 0.5717(3) 0.2288(3) 0.5256(2)
C8 C 0.6728(3) 0.1436(3) 0.5766(2)
C9 C 0.7932(3) 0.1108(3) 0.5459(2)
C10 C 0.8212(3) 0.3484(3) 0.5830(2)
C11 C 0.8033(3) 0.2072(3) 0.6148(2)
C12 C 0.7953(3) 0.4489(3) 0.4396(2)
C13 C 0.4332(3) 0.2042(3) 0.5279(2)
C14 C 0.8712(3) 0.1708(3) 0.6989(2)
C15 C 0.7710(3) 0.4635(3) 0.6255(2)
C16 C 0.6662(3) 0.4494(3) 0.6616(2)
C17 C 0.6181(3) 0.5572(3) 0.6976(2)
C18 C 0.6780(3) 0.6831(3) 0.6975(2)
C19 C 0.7829(3) 0.7012(3) 0.6642(2)
C20 C 0.8299(3) 0.5919(3) 0.6286(2)
H1 H 0.66530 0.07790 0.39620
H2 H 0.71340 0.19710 0.35160
H3 H 0.82980 0.03140 0.31300
H4 H 0.83760 -0.04920 0.39170
H5 H 0.55690 0.38320 0.44870
H6 H 0.64310 0.07510 0.60690
H7 H 0.83100 0.02350 0.55490
H8 H 0.91070 0.36210 0.58790
H9 H 0.88630 0.45860 0.45160
H10 H 0.76620 0.42720 0.38480
H11 H 0.75700 0.53100 0.45120
H12 H 0.42350 0.20740 0.58170
H13 H 0.38080 0.27190 0.49750
H14 H 0.40750 0.11800 0.50570
H15 H 0.82290 0.20360 0.73570
H16 H 0.87830 0.07500 0.70370
H17 H 0.95440 0.20970 0.71070
H18 H 0.62610 0.36370 0.66100
H19 H 0.54660 0.54610 0.72210
H20 H 0.82290 0.78730 0.66550
H21 H 0.90330 0.60340 0.60590
#END
