
#######################################################################
#
#                 Cambridge Crystallographic Data Centre
#                                CCDC
#
#######################################################################
#
# If this CIF has been generated from an entry in the Cambridge
# Structural Database, then it will include bibliographic, chemical,
# crystal, experimental, refinement or atomic coordinate data resulting
# from the CCDC's data processing and validation procedures.
#
#######################################################################

data_CSD_CIF_VAKJOG
_audit_creation_date 1990-01-09
_audit_creation_method CSD-ConQuest-V1
_database_code_CSD VAKJOG
_chemical_formula_sum 'C8 H6 N2 O2'
_chemical_formula_moiety
;
C8 H6 N2 O2
;
_journal_coden_Cambridge 603
_journal_volume 8
_journal_year 1989
_journal_page_first 31
_journal_name_full 'Jiegou Huaxue(Chin.)(Chin.J.Struct.Chem.) '
loop_
_publ_author_name
"Cong Qiuzi"
"Lin Shukun"
"Wang Hanqing"
_chemical_name_systematic
;
Quinoxaline-1,4-dioxide
;
_chemical_melting_point 518.15
_cell_volume    345.153
_exptl_crystal_colour 'yellow'
_exptl_crystal_density_diffrn 1.56
_exptl_special_details
;
Melting point range 518.15-520.15K
antibacterial and animal growth-promoting activity
;
_diffrn_ambient_temperature ?
_diffrn_special_details
;
The study was carried out at room temperature,in the range 283-303K

;
#These two values have been output from a single CSD field.
_refine_ls_R_factor_gt 0.032
_refine_ls_wR_factor_gt 0.032
_symmetry_cell_setting monoclinic
_symmetry_space_group_name_H-M 'P 21'
_symmetry_Int_Tables_number 4
loop_
_symmetry_equiv_pos_site_id
_symmetry_equiv_pos_as_xyz
1 x,y,z
2 -x,1/2+y,-z
_cell_length_a 4.112(2)
_cell_length_b 7.402(3)
_cell_length_c 11.378(8)
_cell_angle_alpha 90
_cell_angle_beta 94.69(5)
_cell_angle_gamma 90
_cell_formula_units_Z 2
loop_
_atom_type_symbol
_atom_type_radius_bond
C 0.68
H 0.23
N 0.68
O 0.68
loop_
_atom_site_label
_atom_site_type_symbol
_atom_site_fract_x
_atom_site_fract_y
_atom_site_fract_z
C1 C 0.3846(6) 0.7608(4) 0.7088(2)
C2 C 0.2948(7) 0.6562(6) 0.6093(2)
C3 C 0.4142(7) 0.4879(4) 0.5999(2)
C4 C 0.6255(8) 0.4160(5) 0.6891(3)
C5 C 0.7198(7) 0.5139(5) 0.7873(3)
C6 C 0.6054(7) 0.6885(4) 0.7978(2)
N1 N 0.7066(5) 0.7956(5) 0.8954(2)
N2 N 0.2601(6) 0.9342(5) 0.7216(2)
C7 C 0.5816(7) 0.9600(5) 0.9031(2)
C8 C 0.3586(7) 1.0281(5) 0.8183(2)
O1 O 0.0483(5) 0.9986(4) 0.6429(2)
O2 O 0.9210(4) 0.7338(4) 0.9749(1)
H1 H 0.174(5) 0.699(3) 0.564(2)
H2 H 0.371(6) 0.412(5) 0.522(2)
H3 H 0.698(7) 0.315(6) 0.683(3)
H4 H 0.858(7) 0.468(5) 0.846(3)
H5 H 0.669(5) 1.031(4) 0.965(2)
H6 H 0.276(6) 1.137(4) 0.827(2)
#END
