
#######################################################################
#
#                 Cambridge Crystallographic Data Centre
#                                CCDC
#
#######################################################################
#
# If this CIF has been generated from an entry in the Cambridge
# Structural Database, then it will include bibliographic, chemical,
# crystal, experimental, refinement or atomic coordinate data resulting
# from the CCDC's data processing and validation procedures.
#
#######################################################################

data_CSD_CIF_VAKJUM
_audit_creation_date 1990-01-09
_audit_creation_method CSD-ConQuest-V1
_database_code_CSD VAKJUM
_chemical_formula_sum 'C10 H10 N2 O2'
_chemical_formula_moiety
;
C10 H10 N2 O2
;
_journal_coden_Cambridge 603
_journal_volume 8
_journal_year 1989
_journal_page_first 31
_journal_name_full 'Jiegou Huaxue(Chin.)(Chin.J.Struct.Chem.) '
loop_
_publ_author_name
"Cong Qiuzi"
"Lin Shukun"
"Wang Hanqing"
_chemical_name_systematic
;
2,3-Dimethylquinoxaline-1,4-dioxide
;
_chemical_melting_point 461.15
_cell_volume   1788.997
_exptl_crystal_colour 'yellowish'
_exptl_crystal_density_diffrn 1.41
_exptl_special_details
;
Melting point range 461.15-462.15K
antibacterial and animal growth-promoting activity
;
_diffrn_ambient_temperature ?
_diffrn_special_details
;
The study was carried out at room temperature,in the range 283-303K

;
#These two values have been output from a single CSD field.
_refine_ls_R_factor_gt 0.03
_refine_ls_wR_factor_gt 0.03
_symmetry_cell_setting orthorhombic
_symmetry_space_group_name_H-M 'P b c a'
_symmetry_Int_Tables_number 61
loop_
_symmetry_equiv_pos_site_id
_symmetry_equiv_pos_as_xyz
1 x,y,z
2 1/2-x,1/2+y,z
3 x,1/2-y,1/2+z
4 1/2-x,-y,1/2+z
5 -x,-y,-z
6 -1/2+x,-1/2-y,-z
7 -x,-1/2+y,-1/2-z
8 -1/2+x,y,-1/2-z
_cell_length_a 7.647(1)
_cell_length_b 14.943(3)
_cell_length_c 15.656(5)
_cell_angle_alpha 90
_cell_angle_beta 90
_cell_angle_gamma 90
_cell_formula_units_Z 8
loop_
_atom_type_symbol
_atom_type_radius_bond
C 0.68
H 0.23
N 0.68
O 0.68
loop_
_atom_site_label
_atom_site_type_symbol
_atom_site_fract_x
_atom_site_fract_y
_atom_site_fract_z
O1 O 0.0162(3) 0.4574(1) 0.1303(1)
O2 O 0.2779(3) 0.7162(1) 0.3310(1)
N1 N 0.0755(3) 0.5204(1) 0.1801(1)
N2 N 0.2124(3) 0.6533(2) 0.2835(1)
C1 C 0.1470(3) 0.5971(2) 0.1430(2)
C2 C 0.1476(4) 0.6077(2) 0.0542(2)
C3 C 0.2187(4) 0.6837(2) 0.0200(2)
C4 C 0.2906(4) 0.7494(2) 0.0721(2)
C5 C 0.2896(4) 0.7396(2) 0.1584(2)
C6 C 0.2158(4) 0.6635(2) 0.1950(2)
C7 C 0.1407(4) 0.5796(2) 0.3177(2)
C8 C 0.0719(3) 0.5121(2) 0.2657(2)
C9 C -0.0047(6) 0.4281(2) 0.3012(2)
C10 C 0.1426(5) 0.5733(4) 0.4125(2)
H1 H 0.093(4) 0.562(2) 0.020(2)
H2 H 0.219(4) 0.691(2) -0.045(2)
H3 H 0.342(3) 0.804(2) 0.042(2)
H4 H 0.337(4) 0.783(2) 0.195(2)
H5 H -0.075(4) 0.396(2) 0.253(2)
H6 H 0.091(5) 0.383(3) 0.321(2)
H7 H -0.080(6) 0.437(2) 0.350(2)
H8 H 0.084(6) 0.620(3) 0.440(3)
H9 H 0.241(5) 0.580(2) 0.434(2)
H10 H 0.103(4) 0.514(3) 0.433(2)
#END
