
#######################################################################
#
#                 Cambridge Crystallographic Data Centre
#                                CCDC
#
#######################################################################
#
# If this CIF has been generated from an entry in the Cambridge
# Structural Database, then it will include bibliographic, chemical,
# crystal, experimental, refinement or atomic coordinate data resulting
# from the CCDC's data processing and validation procedures.
#
#######################################################################

data_CSD_CIF_VALHOF
_audit_creation_date 1989-12-21
_audit_creation_method CSD-ConQuest-V1
_database_code_CSD VALHOF
_chemical_formula_sum 'C13 H20 N2 O3'
_chemical_formula_moiety
;
C13 H20 N2 O3
;
_journal_coden_Cambridge 4
_journal_volume 111
_journal_year 1989
_journal_page_first 2809
_journal_name_full 'J.Am.Chem.Soc. '
loop_
_publ_author_name
"S.F.Nelsen"
"J.A.Thompson-Colon"
"M.Kaftory"
_chemical_name_systematic
;
Carbonylbis(3-(2-oxa-3-azabicyclo(2.2.2)octane))
;
_chemical_melting_point 433.15
_cell_volume   2491.821
_exptl_crystal_density_diffrn 1.344
_exptl_special_details
;
Melting point range 433.15-434.15K

;
_diffrn_ambient_temperature ?
_diffrn_special_details
;
The study was carried out at room temperature,in the range 283-303K

;
#These two values have been output from a single CSD field.
_refine_ls_R_factor_gt 0.056
_refine_ls_wR_factor_gt 0.056
_symmetry_cell_setting orthorhombic
_symmetry_space_group_name_H-M 'A b a 2'
_symmetry_Int_Tables_number 41
loop_
_symmetry_equiv_pos_site_id
_symmetry_equiv_pos_as_xyz
1 x,y,z
2 x,1/2+y,1/2+z
3 1/2-x,1/2+y,z
4 1/2-x,y,1/2+z
5 1/2+x,1/2-y,z
6 1/2+x,-y,1/2+z
7 -x,-y,z
8 -x,1/2-y,1/2+z
_cell_length_a 10.247(5)
_cell_length_b 21.109(11)
_cell_length_c 11.520(6)
_cell_angle_alpha 90
_cell_angle_beta 90
_cell_angle_gamma 90
_cell_formula_units_Z 8
loop_
_atom_type_symbol
_atom_type_radius_bond
C 0.68
H 0.23
N 0.68
O 0.68
loop_
_atom_site_label
_atom_site_type_symbol
_atom_site_fract_x
_atom_site_fract_y
_atom_site_fract_z
O1 O -0.0200(4) 0.2124(2) 0.17080
O2 O -0.2263(4) 0.1547(3) 0.2495(6)
O3 O 0.1309(4) 0.0782(2) 0.2855(5)
N1 N -0.0998(4) 0.1319(2) 0.2854(6)
N2 N 0.1232(4) 0.1443(2) 0.2527(6)
C1 C -0.0945(5) 0.1261(3) 0.4143(6)
C2 C -0.2015(6) 0.0809(3) 0.4517(8)
C3 C -0.3327(8) 0.1095(4) 0.4174(9)
C4 C -0.3064(5) 0.1692(3) 0.3459(7)
C5 C -0.2439(8) 0.2172(3) 0.4232(8)
C6 C -0.1156(6) 0.1909(3) 0.4689(7)
C7 C 0.1964(6) 0.0427(3) 0.1916(6)
C8 C 0.3408(6) 0.0582(4) 0.2042(8)
C9 C 0.3515(6) 0.1313(4) 0.2091(7)
C10 C 0.2253(5) 0.1603(2) 0.1660(6)
C11 C 0.1869(5) 0.1303(3) 0.0500(6)
C12 C 0.1409(6) 0.0626(3) 0.0768(7)
C13 C -0.0023(5) 0.1664(2) 0.2315(6)
H1 H -0.0007(5) 0.1083(3) 0.4420(6)
H2 H -0.1878(6) 0.0354(3) 0.4103(8)
H3 H -0.1991(6) 0.0750(3) 0.5447(8)
H4 H -0.3899(8) 0.1207(4) 0.4934(10)
H5 H -0.3852(8) 0.0760(4) 0.3643(10)
H6 H -0.3970(5) 0.1886(3) 0.3138(7)
H7 H -0.2257(8) 0.2601(3) 0.3747(8)
H8 H -0.3077(8) 0.2276(3) 0.4953(8)
H9 H -0.1196(6) 0.1865(3) 0.5621(7)
H10 H -0.0364(6) 0.2220(3) 0.4451(7)
H11 H 0.1820(6) -0.0078(3) 0.1977(6)
H12 H 0.3797(6) 0.0373(4) 0.2824(8)
H13 H 0.3936(6) 0.0403(4) 0.1301(8)
H14 H 0.4316(6) 0.1468(4) 0.1553(7)
H15 H 0.3687(6) 0.1456(4) 0.2977(7)
H16 H 0.2366(5) 0.2108(2) 0.1553(6)
H17 H 0.1091(5) 0.1571(3) 0.0103(6)
H18 H 0.2699(5) 0.1290(3) -0.0076(6)
H19 H 0.1744(6) 0.0307(3) 0.0099(7)
H20 H 0.0356(6) 0.0615(3) 0.0806(7)
#END
