
#######################################################################
#
#                 Cambridge Crystallographic Data Centre
#                                CCDC
#
#######################################################################
#
# If this CIF has been generated from an entry in the Cambridge
# Structural Database, then it will include bibliographic, chemical,
# crystal, experimental, refinement or atomic coordinate data resulting
# from the CCDC's data processing and validation procedures.
#
#######################################################################

data_CSD_CIF_VALLIF
_audit_creation_date 2012-05-22
_audit_creation_method CSD-ConQuest-V1
_database_code_CSD VALLIF
_database_code_depnum_ccdc_archive 'CCDC 831574'
_chemical_formula_sum 'C16 H13 N1 O3'
_chemical_formula_moiety
;
C16 H13 N1 O3
;
_journal_coden_Cambridge 35
_journal_volume 76
_journal_year 2011
_journal_page_first 8869
_journal_name_full 'J.Org.Chem. '
loop_
_publ_author_name
"Dengfu Lu"
"Yirong Zhou"
"Yajun Li"
"Shaobai Yan"
"Yuefa Gong"
_chemical_name_systematic
;
1-(Nitromethyl)-3-phenyl-1H-isochromene
;
_cell_volume   1325.923
_exptl_crystal_colour 'colorless'
_exptl_crystal_density_diffrn 1.339
_exptl_crystal_description 'block'
_diffrn_ambient_temperature 298
#These two values have been output from a single CSD field.
_refine_ls_R_factor_gt 0.0683
_refine_ls_wR_factor_gt 0.0683
_symmetry_cell_setting orthorhombic
_symmetry_space_group_name_H-M 'P 21 21 21'
_symmetry_Int_Tables_number 19
loop_
_symmetry_equiv_pos_site_id
_symmetry_equiv_pos_as_xyz
1 x,y,z
2 1/2-x,-y,1/2+z
3 -x,1/2+y,1/2-z
4 1/2+x,1/2-y,-z
_cell_length_a 5.5668(8)
_cell_length_b 8.5894(13)
_cell_length_c 27.730(4)
_cell_angle_alpha 90
_cell_angle_beta 90
_cell_angle_gamma 90
_cell_formula_units_Z 4
loop_
_atom_type_symbol
_atom_type_radius_bond
C 0.68
H 0.23
N 0.68
O 0.68
loop_
_atom_site_label
_atom_site_type_symbol
_atom_site_fract_x
_atom_site_fract_y
_atom_site_fract_z
C1 C 0.4008(6) 0.5200(4) 0.21721(12)
C2 C 0.4449(7) 0.4631(4) 0.26279(13)
H1 H 0.58120 0.40310 0.26830
C3 C 0.2902(7) 0.4937(4) 0.30036(13)
H2 H 0.32250 0.45540 0.33100
C4 C 0.0860(7) 0.5820(4) 0.29208(13)
H3 H -0.02130 0.60120 0.31710
C5 C 0.0423(6) 0.6414(4) 0.24681(13)
H4 H -0.09520 0.70070 0.24160
C6 C 0.1988(6) 0.6147(4) 0.20880(12)
C7 C 0.1814(6) 0.6894(4) 0.16222(11)
H5 H 0.03410 0.72820 0.15190
C8 C 0.3725(6) 0.7034(4) 0.13399(12)
C9 C 0.5573(6) 0.4883(4) 0.17459(12)
H6 H 0.71610 0.45710 0.18640
C10 C 0.4581(6) 0.3563(4) 0.14351(12)
H7 H 0.45720 0.26030 0.16190
H8 H 0.29410 0.37970 0.13420
C11 C 0.4037(6) 0.8054(4) 0.09166(12)
C12 C 0.6022(7) 0.7911(4) 0.06160(12)
H9 H 0.71570 0.71400 0.06750
C13 C 0.6320(8) 0.8910(5) 0.02280(13)
H10 H 0.76550 0.88050 0.00290
C14 C 0.4666(8) 1.0049(5) 0.01353(14)
H11 H 0.48850 1.07190 -0.01240
C15 C 0.2683(8) 1.0201(5) 0.04258(13)
H12 H 0.15410 1.09620 0.03600
C16 C 0.2386(7) 0.9223(4) 0.08161(12)
H13 H 0.10570 0.93490 0.10160
N1 N 0.6080(8) 0.3363(4) 0.09975(14)
O1 O 0.8117(7) 0.2926(4) 0.10509(12)
O2 O 0.5175(7) 0.3700(3) 0.06118(10)
O3 O 0.5863(4) 0.6267(2) 0.14517(8)
#END
