
#######################################################################
#
#                 Cambridge Crystallographic Data Centre
#                                CCDC
#
#######################################################################
#
# If this CIF has been generated from an entry in the Cambridge
# Structural Database, then it will include bibliographic, chemical,
# crystal, experimental, refinement or atomic coordinate data resulting
# from the CCDC's data processing and validation procedures.
#
#######################################################################

data_CSD_CIF_VALSAF
_audit_creation_date 2016-03-10
_audit_creation_method CSD-ConQuest-V1
_database_code_CSD VALSAF
_database_code_depnum_ccdc_archive 'CCDC 1463275'
_chemical_formula_sum 'C15 H18 N2 O2'
_chemical_formula_moiety
;
C15 H18 N2 O2
;
_journal_coden_Cambridge 4
_journal_volume 138
_journal_year 2016
_journal_page_first 2146
_journal_name_full 'J.Am.Chem.Soc. '
loop_
_publ_author_name
"Wei-Jun Kong"
"Yue-Jin Liu"
"Hui Xu"
"Yan-Qiao Chen"
"Hui-Xiong Dai"
"Jin-Quan Yu"
_chemical_name_systematic
;
(3E,4E)-3-benzylidene-1-t-butyl-4-(methoxyimino)azetidin-2-one
;
_cell_volume   1448.591
_exptl_crystal_colour 'colorless'
_exptl_crystal_density_diffrn 1.184
_exptl_crystal_description 'prismatic'
_diffrn_ambient_temperature 293
#These two values have been output from a single CSD field.
_refine_ls_R_factor_gt 0.0679
_refine_ls_wR_factor_gt 0.0679
loop_
_citation_database_id_CSD
_citation_special_details
VALSEJ "is a stereoisomer of this entry"
_symmetry_cell_setting monoclinic
_symmetry_space_group_name_H-M 'P 21/c'
_symmetry_Int_Tables_number 14
loop_
_symmetry_equiv_pos_site_id
_symmetry_equiv_pos_as_xyz
1 x,y,z
2 -x,1/2+y,1/2-z
3 -x,-y,-z
4 x,-1/2-y,-1/2+z
_cell_length_a 10.6579(19)
_cell_length_b 18.645(3)
_cell_length_c 7.3052(12)
_cell_angle_alpha 90
_cell_angle_beta 93.729(5)
_cell_angle_gamma 90
_cell_formula_units_Z 4
loop_
_atom_type_symbol
_atom_type_radius_bond
C 0.68
H 0.23
N 0.68
O 0.68
loop_
_atom_site_label
_atom_site_type_symbol
_atom_site_fract_x
_atom_site_fract_y
_atom_site_fract_z
N1 N 0.2768(2) 0.17564(10) 0.4420(3)
N2 N 0.0772(2) 0.12334(11) 0.4832(3)
O1 O 0.3755(2) 0.28967(10) 0.4403(3)
O2 O -0.04729(18) 0.14438(9) 0.5105(3)
C1 C 0.2870(3) 0.24979(14) 0.4456(4)
C2 C 0.1449(3) 0.17812(13) 0.4621(3)
C3 C 0.1479(2) 0.25761(13) 0.4592(3)
C4 C 0.0796(3) 0.31683(14) 0.4640(3)
H1 H 0.12740 0.35860 0.46750
C5 C -0.0552(3) 0.32985(14) 0.4650(3)
C6 C -0.1441(3) 0.28382(16) 0.3813(4)
H2 H -0.11830 0.24220 0.32430
C7 C -0.2704(4) 0.2997(2) 0.3825(6)
H3 H -0.32920 0.26870 0.32550
C8 C -0.3099(4) 0.3598(3) 0.4660(6)
H4 H -0.39550 0.36910 0.46810
C9 C -0.2254(4) 0.4066(2) 0.5464(5)
H5 H -0.25290 0.44810 0.60190
C10 C -0.0966(3) 0.39182(17) 0.5450(4)
H6 H -0.03860 0.42400 0.59860
C11 C -0.1187(3) 0.08203(15) 0.5429(4)
H7 H -0.12190 0.05200 0.43600
H8 H -0.20250 0.09560 0.56940
H9 H -0.08000 0.05620 0.64540
C12 C 0.3641(3) 0.11467(14) 0.4405(4)
C13 C 0.4951(3) 0.14378(17) 0.4222(6)
H10 H 0.49650 0.17160 0.31170
H11 H 0.55330 0.10460 0.41720
H12 H 0.51870 0.17360 0.52590
C14 C 0.3248(3) 0.06756(16) 0.2768(4)
H13 H 0.23870 0.05340 0.28370
H14 H 0.37720 0.02570 0.27790
H15 H 0.33380 0.09390 0.16550
C15 C 0.3557(3) 0.07297(16) 0.6191(4)
H16 H 0.37990 0.10350 0.72110
H17 H 0.41100 0.03230 0.61930
H18 H 0.27090 0.05680 0.62920
#END
