
#######################################################################
#
#                 Cambridge Crystallographic Data Centre
#                                CCDC
#
#######################################################################
#
# If this CIF has been generated from an entry in the Cambridge
# Structural Database, then it will include bibliographic, chemical,
# crystal, experimental, refinement or atomic coordinate data resulting
# from the CCDC's data processing and validation procedures.
#
#######################################################################

data_CSD_CIF_VALWOW
_audit_creation_date 2012-05-21
_audit_creation_method CSD-ConQuest-V1
_database_code_CSD VALWOW
_database_code_depnum_ccdc_archive 'CCDC 826320'
_chemical_formula_sum 'C3 H7 N3 O5'
_chemical_formula_moiety
;
C3 H7 N3 O5
;
_journal_coden_Cambridge 29
_journal_volume 637
_journal_year 2011
_journal_page_first 2135
_journal_name_full 'Z.Anorg.Allg.Chem. '
loop_
_publ_author_name
"D.Izsak"
"T.M.Klapotke"
_chemical_name_systematic
;
2-(Methyl(nitro)amino)ethyl nitrate
;
_cell_volume    685.818
_exptl_crystal_colour 'colorless'
_exptl_crystal_density_diffrn 1.599
_exptl_crystal_description 'block'
_diffrn_ambient_temperature 173
#These two values have been output from a single CSD field.
_refine_ls_R_factor_gt 0.03
_refine_ls_wR_factor_gt 0.03
_symmetry_cell_setting monoclinic
_symmetry_space_group_name_H-M 'P 21/c'
_symmetry_Int_Tables_number 14
loop_
_symmetry_equiv_pos_site_id
_symmetry_equiv_pos_as_xyz
1 x,y,z
2 -x,1/2+y,1/2-z
3 -x,-y,-z
4 x,-1/2-y,-1/2+z
_cell_length_a 9.728(1)
_cell_length_b 7.3794(7)
_cell_length_c 11.7814(15)
_cell_angle_alpha 90
_cell_angle_beta 125.816(11)
_cell_angle_gamma 90
_cell_formula_units_Z 4
loop_
_atom_type_symbol
_atom_type_radius_bond
C 0.68
H 0.23
N 0.68
O 0.68
loop_
_atom_site_label
_atom_site_type_symbol
_atom_site_fract_x
_atom_site_fract_y
_atom_site_fract_z
O1 O 0.32713(11) -0.10153(13) 0.48753(10)
N1 N 0.17051(14) 0.25100(16) 0.39867(12)
O2 O 0.04952(13) 0.32529(15) 0.17859(11)
O3 O 0.30990(13) -0.32539(14) 0.60610(13)
O4 O 0.31007(13) 0.22664(16) 0.30379(11)
N2 N 0.17821(15) 0.26896(16) 0.28979(13)
O5 O 0.32236(13) -0.38048(15) 0.43063(12)
N3 N 0.31869(15) -0.28359(17) 0.51119(15)
C1 C 0.32399(19) 0.2072(2) 0.53636(16)
C2 C 0.3192(2) 0.0176(2) 0.58170(17)
C3 C 0.0174(2) 0.3123(3) 0.3814(2)
H1 H 0.4226(18) 0.2246(17) 0.5352(14)
H2 H 0.4204(18) -0.0053(18) 0.6774(16)
H3 H 0.2167(16) -0.0030(18) 0.5726(13)
H4 H 0.3297(17) 0.2957(18) 0.6014(16)
H5 H -0.079(2) 0.242(2) 0.3115(19)
H6 H 0.029(2) 0.283(2) 0.466(2)
H7 H 0.007(2) 0.439(3) 0.3675(18)
#END
