
#######################################################################
#
#                 Cambridge Crystallographic Data Centre
#                                CCDC
#
#######################################################################
#
# If this CIF has been generated from an entry in the Cambridge
# Structural Database, then it will include bibliographic, chemical,
# crystal, experimental, refinement or atomic coordinate data resulting
# from the CCDC's data processing and validation procedures.
#
#######################################################################

data_CSD_CIF_VAMSEH
_audit_creation_date 1990-01-22
_audit_creation_method CSD-ConQuest-V1
_database_code_CSD VAMSEH
_chemical_formula_sum 'C21 H27 N1 O4'
_chemical_formula_moiety
;
C21 H27 N1 O4
;
_journal_coden_Cambridge 4
_journal_volume 111
_journal_year 1989
_journal_page_first 2319
_journal_name_full 'J.Am.Chem.Soc. '
loop_
_publ_author_name
"P.G.Gassman"
"R.J.Riehle"
_chemical_name_systematic
;
3,3,5-Trimethylcycloundeca-1,5-diene-8-p-nitrobenzoate
;
_chemical_melting_point 399.15
_cell_volume   3832.963
_exptl_crystal_colour 'colorless'
_exptl_crystal_density_diffrn 1.239
_exptl_special_details
;
Melting point range 399.15-400.15K

;
_diffrn_ambient_temperature 181.15
#These two values have been output from a single CSD field.
_refine_ls_R_factor_gt 0.073
_refine_ls_wR_factor_gt 0.073
_symmetry_cell_setting orthorhombic
_symmetry_space_group_name_H-M 'P b c a'
_symmetry_Int_Tables_number 61
loop_
_symmetry_equiv_pos_site_id
_symmetry_equiv_pos_as_xyz
1 x,y,z
2 1/2-x,1/2+y,z
3 x,1/2-y,1/2+z
4 1/2-x,-y,1/2+z
5 -x,-y,-z
6 -1/2+x,-1/2-y,-z
7 -x,-1/2+y,-1/2-z
8 -1/2+x,y,-1/2-z
_cell_length_a 7.358(12)
_cell_length_b 12.573(6)
_cell_length_c 41.432(13)
_cell_angle_alpha 90
_cell_angle_beta 90
_cell_angle_gamma 90
_cell_formula_units_Z 8
loop_
_atom_type_symbol
_atom_type_radius_bond
C 0.68
H 0.23
N 0.68
O 0.68
loop_
_atom_site_label
_atom_site_type_symbol
_atom_site_fract_x
_atom_site_fract_y
_atom_site_fract_z
C1 C -0.1519(5) -0.0532(3) 0.10100
C2 C -0.1072(5) -0.0630(3) 0.07010
C3 C -0.1234(6) -0.1707(3) 0.05400
C4 C 0.0517(6) -0.2417(3) 0.05480
C5 C 0.1298(5) -0.2359(3) 0.08850
C6 C 0.2922(5) -0.1994(3) 0.09800
C7 C 0.3425(6) -0.1839(3) 0.13270
C8 C 0.3779(5) -0.0666(3) 0.14030
C9 C 0.2308(5) 0.0093(3) 0.12870
C10 C 0.0467(5) -0.0037(3) 0.14530
C11 C -0.1122(5) 0.0345(3) 0.12440
C12 C -0.0263(6) 0.0255(3) 0.05020
C13 C 0.1885(6) -0.2074(4) 0.02920
C14 C -0.0045(7) -0.3566(4) 0.04790
O1 O 0.0508(4) 0.0600(2) 0.17520
C15 C 0.0792(5) 0.0077(3) 0.20280
O2 O 0.0884(4) -0.0876(2) 0.20550
C16 C 0.1025(5) 0.0815(3) 0.23090
C17 C 0.0773(5) 0.0396(3) 0.26170
C18 C 0.1091(5) 0.1009(3) 0.28870
C19 C 0.1686(5) 0.2037(3) 0.28420
C20 C 0.1945(5) 0.2479(3) 0.25400
C21 C 0.1578(5) 0.1859(3) 0.22700
N1 N 0.2096(4) 0.2675(2) 0.31300
O3 O 0.3016(4) 0.3480(2) 0.30940
O4 O 0.1512(4) 0.2373(2) 0.33910
H1 H -0.22000 -0.11100 0.11000
H2 H -0.15500 -0.16000 0.03200
H3 H -0.21700 -0.20900 0.06500
H4 H 0.05400 -0.26100 0.10500
H5 H 0.37900 -0.18300 0.08200
H6 H 0.44900 -0.22400 0.13700
H7 H 0.24700 -0.20900 0.14600
H8 H 0.48800 -0.04700 0.13000
H9 H 0.38800 -0.05900 0.16300
H10 H 0.21500 -0.00200 0.10600
H11 H 0.27100 0.08000 0.13300
H12 H 0.02700 -0.07700 0.14900
H13 H -0.08000 0.09700 0.11300
H14 H -0.21400 0.04900 0.13800
H15 H -0.02300 0.08900 0.06300
H16 H 0.09300 0.00700 0.04400
H17 H -0.09800 0.03700 0.03200
H18 H 0.22500 -0.13600 0.03300
H19 H 0.29000 -0.25300 0.03000
H20 H 0.13400 -0.21100 0.00800
H21 H -0.09000 -0.37900 0.06400
H22 H -0.05800 -0.36000 0.02700
H23 H 0.09800 -0.40100 0.04900
H24 H 0.03700 -0.03200 0.26400
H25 H 0.09000 0.07300 0.31000
H26 H 0.23700 0.31900 0.25200
H27 H 0.17000 0.21500 0.20600
#END
