
#######################################################################
#
#                 Cambridge Crystallographic Data Centre
#                                CCDC
#
#######################################################################
#
# If this CIF has been generated from an entry in the Cambridge
# Structural Database, then it will include bibliographic, chemical,
# crystal, experimental, refinement or atomic coordinate data resulting
# from the CCDC's data processing and validation procedures.
#
#######################################################################

data_CSD_CIF_VAMXUD
_audit_creation_date 2003-09-16
_audit_creation_method CSD-ConQuest-V1
_database_code_CSD VAMXUD
_database_code_depnum_ccdc_archive 'CCDC 207264'
_chemical_formula_sum 'C11 H15 N4 O3'
_chemical_formula_moiety
;
C11 H15 N4 O3
;
_journal_coden_Cambridge 182
_journal_year 2003
_journal_page_first 1400
_journal_name_full 'Chem.Commun. '
loop_
_publ_author_name
"P.Taylor"
"P.R.Serwinski"
"P.M.Lahti"
_chemical_name_systematic
;
6-uradinyl-4,4,5,5-tetramethyl-4,5-dihydro-1H-imidazole-1-oxyl
;
_cell_volume   2587.497
_exptl_crystal_colour 'reddish'
_exptl_crystal_density_diffrn 1.29
_exptl_crystal_description 'cube'
_exptl_crystal_preparation 'chloroform/water'
_diffrn_ambient_temperature 298
#These two values have been output from a single CSD field.
_refine_ls_R_factor_gt 0.0865
_refine_ls_wR_factor_gt 0.0865
_symmetry_cell_setting monoclinic
_symmetry_space_group_name_H-M 'C 2/c'
_symmetry_Int_Tables_number 15
loop_
_symmetry_equiv_pos_site_id
_symmetry_equiv_pos_as_xyz
1 x,y,z
2 1/2+x,1/2+y,z
3 x,-y,1/2+z
4 1/2+x,1/2-y,1/2+z
5 -x,-y,-z
6 -1/2-x,-1/2-y,-z
7 -x,y,-1/2-z
8 -1/2-x,-1/2+y,-1/2-z
_cell_length_a 13.3744(9)
_cell_length_b 13.6012(9)
_cell_length_c 15.1086(13)
_cell_angle_alpha 90
_cell_angle_beta 109.701(3)
_cell_angle_gamma 90
_cell_formula_units_Z 8
loop_
_atom_type_symbol
_atom_type_radius_bond
C 0.68
H 0.23
N 0.68
O 0.68
loop_
_atom_site_label
_atom_site_type_symbol
_atom_site_fract_x
_atom_site_fract_y
_atom_site_fract_z
O1 O 0.5472(2) 0.4106(2) 0.58440(18)
O2 O 0.1992(2) 0.4827(3) 0.4392(2)
O3 O 0.1227(2) 0.2218(3) 0.6269(2)
N1 N 0.3725(2) 0.4485(2) 0.5145(2)
N2 N 0.2428(3) 0.3638(3) 0.5602(3)
N3 N 0.2105(2) 0.2097(2) 0.6921(2)
N4 N 0.3850(2) 0.2197(2) 0.76811(19)
C1 C 0.3216(3) 0.3147(2) 0.6243(2)
C2 C 0.4247(2) 0.3304(2) 0.63038(19)
C3 C 0.4542(3) 0.3967(3) 0.5767(2)
C4 C 0.2662(3) 0.4351(3) 0.4992(3)
C5 C 0.3078(3) 0.2472(3) 0.6953(2)
C6 C 0.2224(3) 0.1631(4) 0.7848(3)
C7 C 0.3437(3) 0.1478(3) 0.8225(3)
C8 C 0.1558(4) 0.0696(5) 0.7670(4)
C9 C 0.1834(5) 0.2395(6) 0.8386(4)
C10 C 0.3792(4) 0.0470(4) 0.8000(4)
C11 C 0.3966(4) 0.1676(4) 0.9272(3)
H1 H 0.38940 0.49350 0.48200
H2 H 0.17800 0.35260 0.55550
H3 H 0.47750 0.29360 0.67360
H4 H 0.08180 0.08640 0.74250
H5 H 0.17010 0.03410 0.82490
H6 H 0.17350 0.02920 0.72230
H7 H 0.10760 0.24540 0.81150
H8 H 0.21570 0.30180 0.83530
H9 H 0.20210 0.21960 0.90310
H10 H 0.45520 0.04240 0.82620
H11 H 0.35710 0.03860 0.73310
H12 H 0.34770 -0.00330 0.82660
H13 H 0.47170 0.15690 0.94450
H14 H 0.36780 0.12390 0.96240
H15 H 0.38350 0.23440 0.94070
#END
