
#######################################################################
#
#                 Cambridge Crystallographic Data Centre
#                                CCDC
#
#######################################################################
#
# If this CIF has been generated from an entry in the Cambridge
# Structural Database, then it will include bibliographic, chemical,
# crystal, experimental, refinement or atomic coordinate data resulting
# from the CCDC's data processing and validation procedures.
#
#######################################################################

data_CSD_CIF_VAQHUR
_audit_creation_date 2004-02-10
_audit_creation_method CSD-ConQuest-V1
_database_code_CSD VAQHUR
_database_code_depnum_ccdc_archive 'CCDC 202197'
_chemical_formula_sum 'C18 H15 N1 O7'
_chemical_formula_moiety
;
C18 H15 N1 O7
;
_journal_coden_Cambridge 504
_journal_volume 58
_journal_year 2003
_journal_page_first 539
_journal_name_full 'Pharmazie '
loop_
_publ_author_name
"K.Gorlitzer"
"J.Trittmacher"
"P.G.Jones"
"P.Frohberg"
"G.Drutkowski"
_chemical_name_systematic
;
Methyl 
2,7-dimethyl-4-(2-nitrophenyl)-5-oxo-4H,5H-pyrano[4,3-b]pyran-3-carboxylate
;
_chemical_melting_point 448.15
_cell_volume    799.113
_exptl_crystal_colour 'colorless'
_exptl_crystal_density_diffrn 1.485
_exptl_crystal_description 'tablet'
_diffrn_ambient_temperature 133
#These two values have been output from a single CSD field.
_refine_ls_R_factor_gt 0.0389
_refine_ls_wR_factor_gt 0.0389
_symmetry_cell_setting triclinic
_symmetry_space_group_name_H-M 'P -1'
_symmetry_Int_Tables_number 2
loop_
_symmetry_equiv_pos_site_id
_symmetry_equiv_pos_as_xyz
1 x,y,z
2 -x,-y,-z
_cell_length_a 7.5873(6)
_cell_length_b 8.9247(8)
_cell_length_c 12.4765(11)
_cell_angle_alpha 85.041(4)
_cell_angle_beta 87.184(4)
_cell_angle_gamma 71.748(4)
_cell_formula_units_Z 2
loop_
_atom_type_symbol
_atom_type_radius_bond
C 0.68
H 0.23
N 0.68
O 0.68
loop_
_atom_site_label
_atom_site_type_symbol
_atom_site_fract_x
_atom_site_fract_y
_atom_site_fract_z
O1 O 0.17420(11) 0.59127(9) 0.51247(6)
C1 C 0.12951(14) 0.64016(11) 0.61590(8)
C2 C 0.20036(13) 0.54635(11) 0.70342(8)
C3 C 0.33508(13) 0.37957(11) 0.69839(7)
H1 H 0.45080 0.37090 0.73690
C4 C 0.38283(13) 0.34557(11) 0.58219(7)
C5 C 0.52287(13) 0.19936(11) 0.55827(7)
O2 O 0.5508(1) 0.16645(8) 0.45023(6)
C6 C 0.45758(14) 0.26780(12) 0.36896(8)
C7 C 0.33580(15) 0.40886(12) 0.38947(8)
H2 H 0.27540 0.48170 0.33260
C8 C 0.29968(13) 0.44630(11) 0.49889(8)
C9 C 0.00310(16) 0.80674(12) 0.60680(9)
H3 H -0.03300 0.84300 0.67890
H4 H -0.10810 0.81160 0.56800
H5 H 0.06740 0.87490 0.56740
C10 C 0.14396(15) 0.60435(12) 0.81237(8)
O3 O 0.00194(14) 0.70328(12) 0.83614(8)
O4 O 0.27388(12) 0.52824(10) 0.88468(6)
C11 C 0.2334(2) 0.57622(16) 0.99385(9)
H6 H 0.23780 0.68440 0.99640
H7 H 0.32580 0.50450 1.04230
H8 H 0.10940 0.57210 1.01650
O5 O 0.61892(10) 0.10348(9) 0.62249(6)
C12 C 0.50544(17) 0.20188(14) 0.26231(8)
H9 H 0.44710 0.28310 0.20580
H10 H 0.46040 0.11070 0.25970
H11 H 0.64050 0.16840 0.25100
C13 C 0.24271(13) 0.26192(11) 0.75327(7)
C14 C 0.28654(13) 0.17818(11) 0.85316(7)
C15 C 0.18612(14) 0.08291(12) 0.90162(8)
H12 H 0.21960 0.02880 0.97020
C16 C 0.03687(15) 0.06785(13) 0.84870(9)
H13 H -0.03110 0.00130 0.88000
C17 C -0.01287(14) 0.15081(12) 0.74946(8)
H14 H -0.11620 0.14240 0.71320
C18 C 0.08881(13) 0.24591(11) 0.70358(8)
H15 H 0.05260 0.30220 0.63600
N1 N 0.44428(12) 0.18428(10) 0.91498(7)
O6 O 0.42369(12) 0.18465(11) 1.01331(6)
O7 O 0.58904(11) 0.18464(11) 0.86690(6)
#END
