
#######################################################################
#
#                 Cambridge Crystallographic Data Centre
#                                CCDC
#
#######################################################################
#
# If this CIF has been generated from an entry in the Cambridge
# Structural Database, then it will include bibliographic, chemical,
# crystal, experimental, refinement or atomic coordinate data resulting
# from the CCDC's data processing and validation procedures.
#
#######################################################################

data_CSD_CIF_VAQMIL
_audit_creation_date 2012-04-10
_audit_creation_method CSD-ConQuest-V1
_database_code_CSD VAQMIL
_database_code_depnum_ccdc_archive 'CCDC 847323'
_chemical_formula_sum 'C21 H23 N3 O4'
_chemical_formula_moiety
;
C21 H23 N3 O4
;
_journal_coden_Cambridge 24
_journal_volume 53
_journal_year 2012
_journal_page_first 575
_journal_name_full 'Tetrahedron Lett. '
loop_
_publ_author_name
"A.K.Atta"
"In-Ho Ahn"
"Ah-Young Hong"
"Jungseok Heo"
"Chan Kyung Kim"
"Dong-Gyu Cho"
_chemical_name_systematic
;
1-Hexyl-3-(2-((2-hydroxy-5-nitrophenyl)ethynyl)phenyl)urea
;
_cell_volume   1934.411
_exptl_crystal_density_diffrn 1.31
_diffrn_ambient_temperature 296
#These two values have been output from a single CSD field.
_refine_ls_R_factor_gt 0.0566
_refine_ls_wR_factor_gt 0.0566
_symmetry_cell_setting monoclinic
_symmetry_space_group_name_H-M 'P 21/n'
_symmetry_Int_Tables_number 14
loop_
_symmetry_equiv_pos_site_id
_symmetry_equiv_pos_as_xyz
1 x,y,z
2 1/2-x,1/2+y,1/2-z
3 -x,-y,-z
4 -1/2+x,-1/2-y,-1/2+z
_cell_length_a 15.3236(17)
_cell_length_b 8.2440(8)
_cell_length_c 15.3372(17)
_cell_angle_alpha 90
_cell_angle_beta 93.243(4)
_cell_angle_gamma 90
_cell_formula_units_Z 4
loop_
_atom_type_symbol
_atom_type_radius_bond
C 0.68
H 0.23
N 0.68
O 0.68
loop_
_atom_site_label
_atom_site_type_symbol
_atom_site_fract_x
_atom_site_fract_y
_atom_site_fract_z
C1 C 0.5098(4) 0.8277(5) 0.6468(3)
C2 C 0.5837(3) 0.8973(5) 0.6182(3)
H1 H 0.61960 0.95920 0.65620
C3 C 0.6058(3) 0.8750(5) 0.5302(3)
C4 C 0.5472(3) 0.7821(6) 0.4784(3)
C5 C 0.4722(4) 0.7147(6) 0.5107(3)
H2 H 0.43450 0.65410 0.47380
C6 C 0.4532(3) 0.7367(6) 0.5958(3)
H3 H 0.40360 0.69120 0.61800
C7 C 0.6837(4) 0.9417(5) 0.4988(3)
C8 C 0.7495(4) 1.0022(5) 0.4821(3)
C9 C 0.8292(3) 1.0777(5) 0.4593(3)
C10 C 0.8500(3) 1.0990(5) 0.3726(3)
C11 C 0.9265(3) 1.1769(5) 0.3533(3)
H4 H 0.94030 1.19010 0.29550
C12 C 0.9826(3) 1.2351(5) 0.4202(3)
H5 H 1.03320 1.28990 0.40690
C13 C 0.9640(3) 1.2124(6) 0.5060(3)
H6 H 1.00230 1.25030 0.55050
C14 C 0.8886(3) 1.1335(5) 0.5257(3)
H7 H 0.87680 1.11670 0.58380
C15 C 0.7748(3) 1.1001(6) 0.2259(3)
C16 C 0.6935(3) 1.0565(5) 0.0845(3)
H8 H 0.68980 1.17390 0.08290
H9 H 0.63520 1.01340 0.07220
C17 C 0.7527(3) 0.9992(5) 0.0150(3)
H10 H 0.75810 0.88200 0.01790
H11 H 0.81040 1.04550 0.02600
C18 C 0.7170(4) 1.0481(6) -0.0761(3)
H12 H 0.69910 1.16090 -0.07530
H13 H 0.66580 0.98310 -0.09210
C19 C 0.7927(5) 1.0229(7) -0.1531(4)
H14 H 0.77870 1.08790 -0.20470
H15 H 0.85120 1.04950 -0.13000
C20 C 0.7845(5) 0.8665(9) -0.1698(4)
H16 H 0.72660 0.83850 -0.19400
H17 H 0.79940 0.79990 -0.11890
C21 C 0.8625(4) 0.8575(8) -0.2464(4)
H18 H 0.86710 0.74820 -0.26720
H19 H 0.91790 0.89140 -0.22020
H20 H 0.84600 0.92780 -0.29440
N1 N 0.4878(3) 0.8475(6) 0.7393(3)
N2 N 0.7919(2) 1.0359(4) 0.3071(2)
H21 H 0.76440 0.94850 0.31930
N3 N 0.7253(2) 1.0053(4) 0.1715(2)
H22 H 0.71170 0.90990 0.18900
O1 O 0.4282(3) 0.7737(5) 0.7669(3)
O2 O 0.5365(3) 0.9360(5) 0.7844(2)
O3 O 0.5601(2) 0.7491(4) 0.3922(2)
H23 H 0.60470 0.79470 0.37790
O4 O 0.80237(18) 1.2348(3) 0.20344(16)
#END
