
#######################################################################
#
#                 Cambridge Crystallographic Data Centre
#                                CCDC
#
#######################################################################
#
# If this CIF has been generated from an entry in the Cambridge
# Structural Database, then it will include bibliographic, chemical,
# crystal, experimental, refinement or atomic coordinate data resulting
# from the CCDC's data processing and validation procedures.
#
#######################################################################

data_CSD_CIF_VARCUO
_audit_creation_date 2012-04-10
_audit_creation_method CSD-ConQuest-V1
_database_code_CSD VARCUO
_database_code_depnum_ccdc_archive 'CCDC 808275'
_chemical_formula_sum 'C17 H18 N4 O5'
_chemical_formula_moiety
;
C17 H18 N4 O5
;
_journal_coden_Cambridge 315
_journal_volume 79
_journal_year 2011
_journal_page_first 1757
_journal_name_full 'Spectrochim.Acta,Part A '
loop_
_publ_author_name
"M.Rodriguez"
"G.Ramos-Ortiz"
"J.L.Maldonado"
"V.M.Herrera-Ambriz"
"O.Dominguez"
"R.Santillan"
"N.Farfan"
"K.Nakatani"
_chemical_name_systematic
;
5-(Diethylamino)-2-(((3,5-dinitrophenyl)imino)methyl)phenol
;
_cell_volume   1682.386
_exptl_crystal_colour 'red'
_exptl_crystal_density_diffrn 1.415
_exptl_crystal_description 'prism'
_diffrn_ambient_temperature 293
#These two values have been output from a single CSD field.
_refine_ls_R_factor_gt 0.0591
_refine_ls_wR_factor_gt 0.0591
_symmetry_cell_setting orthorhombic
_symmetry_space_group_name_H-M 'P 21 21 21'
_symmetry_Int_Tables_number 19
loop_
_symmetry_equiv_pos_site_id
_symmetry_equiv_pos_as_xyz
1 x,y,z
2 1/2-x,-y,1/2+z
3 1/2+x,1/2-y,-z
4 -x,1/2+y,1/2-z
_cell_length_a 6.6367(2)
_cell_length_b 8.1942(2)
_cell_length_c 30.9362(9)
_cell_angle_alpha 90
_cell_angle_beta 90
_cell_angle_gamma 90
_cell_formula_units_Z 4
loop_
_atom_type_symbol
_atom_type_radius_bond
C 0.68
H 0.23
N 0.68
O 0.68
loop_
_atom_site_label
_atom_site_type_symbol
_atom_site_fract_x
_atom_site_fract_y
_atom_site_fract_z
C1 C 0.5351(4) 0.1690(4) -0.0743(1)
C2 C 0.4781(4) 0.2090(4) -0.11578(10)
H1 H 0.56800 0.26510 -0.13340
C3 C 0.2867(4) 0.1667(4) -0.13215(9)
C4 C 0.1529(5) 0.0843(4) -0.10354(10)
H2 H 0.02360 0.05780 -0.11270
C5 C 0.2128(5) 0.0440(4) -0.06284(11)
H3 H 0.12290 -0.01170 -0.04510
C6 C 0.4030(5) 0.0825(4) -0.0466(1)
C7 C 0.4681(5) 0.0263(4) -0.0047(1)
H4 H 0.37500 -0.02660 0.01290
C8 C 0.6974(5) -0.0172(4) 0.05081(10)
C9 C 0.5724(5) 0.0018(3) 0.08643(10)
H5 H 0.45050 0.05710 0.08400
C10 C 0.6328(5) -0.0631(4) 0.12544(10)
C11 C 0.8111(5) -0.1456(4) 0.13119(11)
H6 H 0.84870 -0.18730 0.15790
C12 C 0.9315(5) -0.1630(4) 0.09499(10)
C13 C 0.8789(5) -0.0999(4) 0.05533(11)
H7 H 0.96420 -0.11260 0.03170
C14 C 0.0370(5) 0.1473(4) -0.19077(11)
H8 H 0.00720 0.20780 -0.21700
H9 H -0.06950 0.17010 -0.17020
C15 C 0.0338(6) -0.0328(4) -0.20120(13)
H10 H 0.07160 -0.09400 -0.17600
H11 H 0.12720 -0.05490 -0.22420
H12 H -0.09940 -0.06390 -0.21010
C16 C 0.3708(5) 0.2785(5) -0.20389(10)
H13 H 0.46030 0.35180 -0.18850
H14 H 0.29590 0.34300 -0.22470
C17 C 0.4958(7) 0.1560(7) -0.22790(16)
H15 H 0.56440 0.08690 -0.20760
H16 H 0.59290 0.21190 -0.24550
H17 H 0.41000 0.09080 -0.24600
N1 N 0.2284(4) 0.2076(3) -0.17290(8)
N2 N 0.6482(4) 0.0455(3) 0.00960(8)
N3 N 0.4978(5) -0.0441(4) 0.16269(10)
N4 N 1.1207(5) -0.2554(3) 0.09902(11)
O1 O 0.7199(3) 0.2147(3) -0.06109(8)
O2 O 0.3279(4) 0.0137(3) 0.15661(8)
O3 O 0.5597(4) -0.0848(3) 0.19855(8)
O4 O 1.1562(4) -0.3221(4) 0.1335(1)
O5 O 1.2319(4) -0.2610(3) 0.06741(11)
H18 H 0.742(8) 0.172(7) -0.0324(17)
#END
