
#######################################################################
#
#                 Cambridge Crystallographic Data Centre
#                                CCDC
#
#######################################################################
#
# If this CIF has been generated from an entry in the Cambridge
# Structural Database, then it will include bibliographic, chemical,
# crystal, experimental, refinement or atomic coordinate data resulting
# from the CCDC's data processing and validation procedures.
#
#######################################################################

data_CSD_CIF_VARNAE
_audit_creation_date 2004-02-10
_audit_creation_method CSD-ConQuest-V1
_database_code_CSD VARNAE
_database_code_depnum_ccdc_archive 'CCDC 222233'
_chemical_formula_sum 'C30 H35 N1 O4'
_chemical_formula_moiety
;
C30 H35 N1 O4
;
_journal_coden_Cambridge 1336
_journal_volume 5
_journal_year 2003
_journal_page_first 3595
_journal_name_full 'Org.Lett. '
loop_
_publ_author_name
"J.M.Takacs"
"S.D.Schroeder"
"Jianxin Han"
"M.Gifford"
"Xun-tian Jiang"
"T.Saleh"
"S.Vayalakkada"
"A.H.Yap"
_chemical_name_systematic
;
2-Benzyl-3-(3'-(phalimide-N-oxy)octenyl)-4-(prop-2-enyl)tetrahydrofuran
;
_chemical_melting_point 339.95
_cell_volume   2633.724
_exptl_crystal_colour 'colorless'
_exptl_crystal_density_diffrn 1.194
_exptl_special_details
;
Melting point range 339.95-340.35K

;
_exptl_crystal_description 'bar'
_exptl_crystal_preparation 'ethyl acetate/hexane'
_diffrn_ambient_temperature 173
#These two values have been output from a single CSD field.
_refine_ls_R_factor_gt 0.0389
_refine_ls_wR_factor_gt 0.0389
_symmetry_cell_setting monoclinic
_symmetry_space_group_name_H-M 'P 21/c'
_symmetry_Int_Tables_number 14
loop_
_symmetry_equiv_pos_site_id
_symmetry_equiv_pos_as_xyz
1 x,y,z
2 x,1/2-y,1/2+z
3 -x,-y,-z
4 -x,-1/2+y,-1/2-z
_cell_length_a 18.7810(17)
_cell_length_b 8.4210(8)
_cell_length_c 16.8221(16)
_cell_angle_alpha 90
_cell_angle_beta 98.135(2)
_cell_angle_gamma 90
_cell_formula_units_Z 4
loop_
_atom_type_symbol
_atom_type_radius_bond
C 0.68
H 0.23
N 0.68
O 0.68
loop_
_atom_site_label
_atom_site_type_symbol
_atom_site_fract_x
_atom_site_fract_y
_atom_site_fract_z
O1 O 0.91541(8) 1.05066(19) 0.43177(10)
N1 N 0.91391(10) 0.9328(2) 0.48867(13)
C1 C 0.92727(12) 0.6900(3) 0.54756(15)
O2 O 0.93063(9) 1.0935(2) 0.60104(11)
C2 C 0.84742(12) 1.1395(3) 0.41747(16)
H1 H 0.84130 1.19860 0.46760
O3 O 0.56353(9) 0.7993(2) 0.44759(13)
C3 C 0.93333(12) 0.8025(3) 0.60829(16)
C4 C 0.65835(12) 0.9496(3) 0.40869(15)
H2 H 0.65920 0.90450 0.35390
C5 C 0.94221(13) 0.4851(3) 0.64558(18)
H3 H 0.94530 0.37560 0.65920
C6 C 0.63999(13) 0.8154(3) 0.46343(17)
H4 H 0.65360 0.84920 0.52050
C7 C 0.85942(13) 1.2586(3) 0.35341(15)
H5 H 0.86780 1.20060 0.30440
H6 H 0.90330 1.32070 0.37220
C8 C 0.78359(13) 1.0379(3) 0.39510(16)
H7 H 0.78290 0.97260 0.34890
C9 C 0.72793(14) 1.0307(3) 0.43377(16)
H8 H 0.73270 1.08390 0.48400
C10 C 0.67170(15) 0.5337(3) 0.51513(16)
C11 C 0.59276(13) 1.0562(3) 0.40532(16)
H9 H 0.59710 1.11760 0.45670
C12 C 0.80690(14) 1.4905(3) 0.26768(15)
H10 H 0.81450 1.43190 0.21850
H11 H 0.85090 1.55310 0.28530
C13 C 0.94809(13) 0.5973(3) 0.70607(16)
H12 H 0.95520 0.56440 0.76060
C14 C 0.67579(15) 0.6595(3) 0.45131(17)
H13 H 0.72710 0.68030 0.44790
H14 H 0.65400 0.61540 0.39890
C15 C 0.91590(13) 0.7717(3) 0.46873(18)
C16 C 0.92678(12) 0.9630(3) 0.57083(17)
C17 C 0.94369(13) 0.7588(3) 0.68738(16)
H15 H 0.94780 0.83670 0.72870
C18 C 0.79698(14) 1.3722(3) 0.33222(17)
H16 H 0.75300 1.30950 0.31450
H17 H 0.78920 1.43080 0.38130
C19 C 0.73284(16) 0.4602(3) 0.55229(18)
H18 H 0.77820 0.48920 0.53780
C20 C 0.58069(14) 1.1731(3) 0.33709(17)
H19 H 0.62230 1.24640 0.34090
H20 H 0.57820 1.11490 0.28570
C21 C 0.53277(14) 0.9364(3) 0.40625(17)
H21 H 0.49430 0.98090 0.43420
H22 H 0.51170 0.90840 0.35070
C22 C 0.60684(15) 0.4897(3) 0.53775(18)
H23 H 0.56380 0.53940 0.51360
C23 C 0.74391(17) 1.6049(3) 0.24677(19)
H24 H 0.70010 1.54170 0.22900
H25 H 0.73610 1.66190 0.29630
C24 C 0.93186(12) 0.5294(3) 0.56502(18)
H26 H 0.92810 0.45220 0.52350
C25 C 0.60391(18) 0.3752(3) 0.59452(19)
H27 H 0.55860 0.34550 0.60890
C26 C 0.72992(19) 0.3459(4) 0.60993(19)
H28 H 0.77290 0.29710 0.63510
C27 C 0.75208(17) 1.7240(4) 0.1840(2)
H29 H 0.79330 1.79270 0.20220
H30 H 0.70830 1.78860 0.17360
H31 H 0.76010 1.66970 0.13450
C28 C 0.6650(2) 0.3025(3) 0.63108(19)
H32 H 0.66230 0.22300 0.67060
O4 O 0.9094(1) 0.7195(2) 0.40113(12)
C29 C 0.51342(17) 1.2681(4) 0.3367(2)
H33 H 0.51430 1.34820 0.37660
C30 C 0.45454(19) 1.2527(4) 0.2881(2)
H34 H 0.45080 1.17430 0.24710
H35 H 0.41470 1.31970 0.29320
#END
