
#######################################################################
#
#                 Cambridge Crystallographic Data Centre
#                                CCDC
#
#######################################################################
#
# If this CIF has been generated from an entry in the Cambridge
# Structural Database, then it will include bibliographic, chemical,
# crystal, experimental, refinement or atomic coordinate data resulting
# from the CCDC's data processing and validation procedures.
#
#######################################################################

data_CSD_CIF_VASFUQ
_audit_creation_date 1999-03-24
_audit_creation_method CSD-ConQuest-V1
_database_code_CSD VASFUQ
_database_code_depnum_ccdc_archive 'CCDC 117517 101281'
_chemical_formula_sum 'C12 H17 N1 O4'
_chemical_formula_moiety
;
C12 H17 N1 O4
;
_journal_coden_Cambridge 10
_journal_volume 81
_journal_year 1998
_journal_page_first 1373
_journal_name_full 'Helv.Chim.Acta '
loop_
_publ_author_name
"A.Yurdakul"
"C.Gurtner"
"E.-S.Jung"
"A.Lorenzi-Riatsch"
"A.Linden"
"A.Guggisberg"
"S.Bienz"
"M.Hesse"
_chemical_name_systematic
;
1-Nitrobicyclo(6.3.1)dodecane-9,12-dione
;
_chemical_melting_point 369.15
_cell_volume    565.827
_exptl_crystal_colour 'colorless'
_exptl_crystal_density_diffrn 1.404
_exptl_special_details
;
Melting point range 369.15-373.15K

;
_exptl_crystal_description 'prism'
_exptl_crystal_preparation 'dichloromethane/hexane'
_diffrn_ambient_temperature 173
#These two values have been output from a single CSD field.
_refine_ls_R_factor_gt 0.0366
_refine_ls_wR_factor_gt 0.0366
_symmetry_cell_setting triclinic
_symmetry_space_group_name_H-M 'P -1'
_symmetry_Int_Tables_number 2
loop_
_symmetry_equiv_pos_site_id
_symmetry_equiv_pos_as_xyz
1 x,y,z
2 -x,-y,-z
_cell_length_a 9.3207(9)
_cell_length_b 9.372(1)
_cell_length_c 7.0013(8)
_cell_angle_alpha 109.976(8)
_cell_angle_beta 90.516(9)
_cell_angle_gamma 80.316(9)
_cell_formula_units_Z 2
loop_
_atom_type_symbol
_atom_type_radius_bond
C 0.68
H 0.23
N 0.68
O 0.68
loop_
_atom_site_label
_atom_site_type_symbol
_atom_site_fract_x
_atom_site_fract_y
_atom_site_fract_z
O1 O 0.2618(1) 0.4392(1) 0.8836(2)
O2 O 0.4119(1) 0.6183(1) 1.2408(2)
O3 O 0.2009(1) 0.6910(1) 1.4008(2)
O4 O 0.6170(1) 0.0682(1) 0.8721(2)
N1 N 0.2962(1) 0.5922(1) 1.2921(2)
C1 C 0.2992(1) 0.3605(2) 0.9870(2)
C2 C 0.2781(2) 0.4222(1) 1.2199(2)
C3 C 0.4001(2) 0.3379(2) 1.3140(2)
C4 C 0.5437(2) 0.2791(2) 1.1844(2)
C5 C 0.5221(2) 0.1700(2) 0.9748(2)
C6 C 0.3661(2) 0.1915(2) 0.9053(2)
C7 C 0.3437(2) 0.1085(2) 0.6830(2)
C8 C 0.1827(2) 0.1094(2) 0.6368(3)
C9 C 0.0865(2) 0.0821(2) 0.7939(3)
C10 C 0.0145(2) 0.2271(2) 0.9722(3)
C11 C 0.0732(2) 0.2563(2) 1.1884(2)
C12 C 0.1250(2) 0.4114(2) 1.2874(2)
H1 H 0.317(1) 0.145(2) 0.984(2)
H2 H 0.363(2) 0.251(2) 1.326(2)
H3 H 0.417(2) 0.409(2) 1.452(2)
H4 H 0.580(2) 0.366(2) 1.167(2)
H5 H 0.619(2) 0.228(2) 1.251(2)
H6 H 0.394(2) 0.001(2) 0.650(2)
H7 H 0.395(2) 0.153(2) 0.600(2)
H8 H 0.140(2) 0.210(2) 0.619(2)
H9 H 0.180(2) 0.028(2) 0.506(3)
H10 H 0.143(2) 0.004(2) 0.849(2)
H11 H 0.009(2) 0.036(2) 0.723(3)
H12 H 0.019(2) 0.321(2) 0.934(2)
H13 H -0.089(2) 0.223(2) 0.981(3)
H14 H 0.149(2) 0.170(2) 1.189(2)
H15 H -0.009(2) 0.258(2) 1.281(2)
H16 H 0.126(2) 0.438(2) 1.437(2)
H17 H 0.055(2) 0.491(2) 1.258(2)
#END
