
#######################################################################
#
#                 Cambridge Crystallographic Data Centre
#                                CCDC
#
#######################################################################
#
# If this CIF has been generated from an entry in the Cambridge
# Structural Database, then it will include bibliographic, chemical,
# crystal, experimental, refinement or atomic coordinate data resulting
# from the CCDC's data processing and validation procedures.
#
#######################################################################

data_CSD_CIF_VASLOT
_audit_creation_date 2017-05-02
_audit_creation_method CSD-ConQuest-V1
_database_code_CSD VASLOT
_database_code_depnum_ccdc_archive 'CCDC 1518013'
_chemical_formula_sum 'C20 H17 N3 O4'
_chemical_formula_moiety
;
C20 H17 N3 O4
;
_journal_coden_Cambridge 119
_journal_volume 1143
_journal_year 2017
_journal_page_first 235
_journal_name_full 'J.Mol.Struct. '
loop_
_publ_author_name
"S.Naseem"
"M.Khalid"
"M.N.Tahir"
"M.A.Halim"
"A.A.C.Braga"
"M.M.Naseer"
"Z.Shafiq"
_chemical_name_systematic
;
2-nitro-N'-((1Z)-2,3,4,4a-tetrahydro-1H-xanthen-1-ylidene)benzohydrazide
;
_cell_volume    889.397
_exptl_crystal_colour 'yellow'
_exptl_crystal_density_diffrn 1.357
_exptl_crystal_description 'prism'
_diffrn_ambient_temperature 296
_refine_special_details
;
O1A and O1B disordered over two sites with occupancies 0.828:0.172.

;
#These two values have been output from a single CSD field.
_refine_ls_R_factor_gt 0.0618
_refine_ls_wR_factor_gt 0.0618
_symmetry_cell_setting triclinic
_symmetry_space_group_name_H-M 'P -1'
_symmetry_Int_Tables_number 2
loop_
_symmetry_equiv_pos_site_id
_symmetry_equiv_pos_as_xyz
1 x,y,z
2 -x,-y,-z
_cell_length_a 8.0224(7)
_cell_length_b 10.0791(9)
_cell_length_c 11.5144(8)
_cell_angle_alpha 75.764(3)
_cell_angle_beta 80.994(2)
_cell_angle_gamma 84.182(3)
_cell_formula_units_Z 2
loop_
_atom_type_symbol
_atom_type_radius_bond
C 0.68
H 0.23
N 0.68
O 0.68
loop_
_atom_site_label
_atom_site_type_symbol
_atom_site_fract_x
_atom_site_fract_y
_atom_site_fract_z
O1 O 0.8809(4) 0.6125(3) -0.1636(2)
O2 O 0.4218(3) 0.34165(18) 0.53495(15)
O3 O 0.7929(3) 0.2211(2) 0.4145(2)
O4 O 0.8711(3) 0.1053(3) 0.2787(3)
N1 N 0.5952(3) 0.42966(19) 0.23137(16)
N2 N 0.5321(3) 0.4456(2) 0.34630(16)
H1 H 0.53050 0.52390 0.36390
N3 N 0.7630(3) 0.1521(3) 0.3480(2)
C1 C 0.8871(4) 0.4841(4) -0.1932(2)
C2 C 0.9743(5) 0.4738(5) -0.3046(3)
H2 H 1.01770 0.55070 -0.35940
C3 C 0.9956(5) 0.3463(6) -0.3327(4)
H3 H 1.05000 0.33910 -0.40860
C4 C 0.9379(4) 0.2295(5) -0.2506(4)
H4 H 0.95340 0.14500 -0.27110
C5 C 0.8563(4) 0.2403(4) -0.1367(3)
H5 H 0.82010 0.16200 -0.08020
C6 C 0.8287(3) 0.3671(3) -0.1071(2)
C7 C 0.7521(3) 0.3856(3) 0.0119(2)
H6 H 0.72910 0.30930 0.07500
C8 C 0.7150(3) 0.5115(2) 0.03069(19)
C9 C 0.7433(4) 0.6348(3) -0.0759(2)
H7 H 0.64160 0.65010 -0.11600
C10 C 0.7636(4) 0.7634(3) -0.0422(3)
H8 H 0.87390 0.75820 -0.01620
H9 H 0.76060 0.83860 -0.11320
C11 C 0.6339(5) 0.7932(3) 0.0540(3)
H10 H 0.52530 0.80970 0.02420
H11 H 0.65880 0.87670 0.07360
C12 C 0.6204(4) 0.6799(2) 0.1684(2)
H12 H 0.70640 0.68960 0.21580
H13 H 0.51120 0.69240 0.21550
C13 C 0.6397(3) 0.5367(2) 0.14980(18)
C14 C 0.4734(3) 0.3364(2) 0.4300(2)
C15 C 0.4560(3) 0.2079(2) 0.38936(18)
C16 C 0.2922(3) 0.1705(3) 0.3939(2)
H14 H 0.20060 0.22620 0.41860
C17 C 0.2643(3) 0.0525(3) 0.3625(2)
H15 H 0.15410 0.02900 0.36650
C18 C 0.3973(4) -0.0311(3) 0.3254(2)
H16 H 0.37710 -0.11080 0.30440
C19 C 0.5599(4) 0.0032(3) 0.3193(2)
H17 H 0.65070 -0.05290 0.29430
C20 C 0.5874(3) 0.1220(2) 0.3508(2)
O5? O 0.799(2) 0.5794(14) -0.1794(11)
#END
