
#######################################################################
#
#                 Cambridge Crystallographic Data Centre
#                                CCDC
#
#######################################################################
#
# If this CIF has been generated from an entry in the Cambridge
# Structural Database, then it will include bibliographic, chemical,
# crystal, experimental, refinement or atomic coordinate data resulting
# from the CCDC's data processing and validation procedures.
#
#######################################################################

data_CSD_CIF_VASNAF
_audit_creation_date 2004-02-10
_audit_creation_method CSD-ConQuest-V1
_database_code_CSD VASNAF
_database_code_depnum_ccdc_archive 'CCDC 216824'
_chemical_formula_sum 'C18 H21 N1 O4'
_chemical_formula_moiety
;
C18 H21 N1 O4
;
_journal_coden_Cambridge 177
_journal_volume 1
_journal_year 2003
_journal_page_first 3570
_journal_name_full 'Org.Biomol.Chem. '
loop_
_publ_author_name
"J.E.Davies"
"I.Fleming"
"J.M.Goodman"
_chemical_name_systematic
;
2,7,7-Trimethyltricyclo(2.2.1.0^2,6^)heptan-2-ylmethyl p-nitrobenzoate
;
_chemical_melting_point 398.15
_cell_volume    816.980
_exptl_crystal_colour 'colorless'
_exptl_crystal_density_diffrn 1.282
_exptl_special_details
;
Melting point range 398.15-400.15K

;
_exptl_crystal_description 'leaflet'
_diffrn_ambient_temperature 180
#These two values have been output from a single CSD field.
_refine_ls_R_factor_gt 0.1113
_refine_ls_wR_factor_gt 0.1113
_symmetry_cell_setting triclinic
_symmetry_space_group_name_H-M 'P -1'
_symmetry_Int_Tables_number 2
loop_
_symmetry_equiv_pos_site_id
_symmetry_equiv_pos_as_xyz
1 x,y,z
2 -x,-y,-z
_cell_length_a 7.0666(4)
_cell_length_b 7.0975(4)
_cell_length_c 18.3293(13)
_cell_angle_alpha 88.437(3)
_cell_angle_beta 86.586(3)
_cell_angle_gamma 62.907(3)
_cell_formula_units_Z 2
loop_
_atom_type_symbol
_atom_type_radius_bond
C 0.68
H 0.23
N 0.68
O 0.68
loop_
_atom_site_label
_atom_site_type_symbol
_atom_site_fract_x
_atom_site_fract_y
_atom_site_fract_z
O1 O 0.2000(6) 0.6023(5) 0.18277(18)
O2 O 0.2072(5) 0.3467(5) 0.11160(18)
O3 O 0.3115(6) 0.9174(6) -0.18646(19)
O4 O 0.2948(6) 1.1593(5) -0.1146(2)
N1 N 0.2941(6) 0.9905(6) -0.1256(2)
C1 C 0.3664(9) 0.6231(10) 0.3411(3)
C2 C 0.1791(9) 0.6074(9) 0.3123(3)
C3 C -0.0194(10) 0.8203(12) 0.3308(3)
H1 H -0.04250 0.92900 0.29270
H2 H -0.15020 0.80320 0.34010
C4 C 0.0589(12) 0.8661(14) 0.4000(4)
H3 H -0.03590 1.00220 0.42560
C5 C 0.1198(16) 0.6566(13) 0.4451(4)
H4 H 0.20720 0.64610 0.48670
H5 H -0.00690 0.63970 0.46270
C6 C 0.2399(19) 0.5117(14) 0.3878(4)
H6 H 0.30650 0.35520 0.39580
C7 C 0.2825(11) 0.8261(10) 0.3799(4)
C8 C 0.5805(12) 0.4909(16) 0.3146(6)
H7 H 0.62230 0.56580 0.27630
H8 H 0.58970 0.36030 0.29450
H9 H 0.67600 0.45610 0.35490
C9 C 0.275(2) 0.9940(16) 0.3183(5)
H10 H 0.18760 0.99320 0.27900
H11 H 0.42000 0.95570 0.29840
H12 H 0.21360 1.13570 0.33990
C10 C 0.4036(12) 0.8471(13) 0.4408(4)
H13 H 0.44630 0.72340 0.47290
H14 H 0.31320 0.97550 0.46880
H15 H 0.53080 0.85600 0.42040
C11 C 0.1856(10) 0.4856(9) 0.2469(3)
H16 H 0.31040 0.34400 0.24710
H17 H 0.05520 0.46650 0.24690
C12 C 0.2105(7) 0.5147(7) 0.1180(3)
C13 C 0.2288(6) 0.6444(6) 0.0556(2)
C14 C 0.2240(7) 0.5795(7) -0.0154(3)
H18 H 0.20630 0.45660 -0.02260
C15 C 0.2448(7) 0.6923(7) -0.0750(3)
H19 H 0.24080 0.64970 -0.12330
C16 C 0.2719(6) 0.8704(6) -0.0622(2)
C17 C 0.2757(7) 0.9394(7) 0.0065(3)
H20 H 0.29250 1.06320 0.01300
C18 C 0.2549(6) 0.8267(7) 0.0655(3)
H21 H 0.25820 0.87200 0.11350
#END
