
#######################################################################
#
#                 Cambridge Crystallographic Data Centre
#                                CCDC
#
#######################################################################
#
# If this CIF has been generated from an entry in the Cambridge
# Structural Database, then it will include bibliographic, chemical,
# crystal, experimental, refinement or atomic coordinate data resulting
# from the CCDC's data processing and validation procedures.
#
#######################################################################

data_CSD_CIF_VATNUA
_audit_creation_date 2004-02-10
_audit_creation_method CSD-ConQuest-V1
_database_code_CSD VATNUA
_database_code_depnum_ccdc_archive 'CCDC 226951'
_chemical_formula_sum 'C6 H5 N1 O3'
_chemical_formula_moiety
;
C6 H5 N1 O3
;
_journal_coeditor_code "IUCr WN6188"
_journal_coden_Cambridge 1370
_journal_volume 59
_journal_year 2003
_journal_page_first o1645
_journal_name_full 'Acta Crystallogr.,Sect.E:Struct.Rep.Online '
loop_
_publ_author_name
"Miao Du"
"Xiao-Jun Zhao"
_chemical_name_systematic
;
3-Carboxypyridine N-oxide
;
_cell_volume    585.581
_exptl_crystal_colour 'colorless'
_exptl_crystal_density_diffrn 1.578
_exptl_crystal_description 'prism'
_exptl_crystal_preparation 'hot methanol'
_diffrn_ambient_temperature 293
#These two values have been output from a single CSD field.
_refine_ls_R_factor_gt 0.0446
_refine_ls_wR_factor_gt 0.0446
_symmetry_cell_setting monoclinic
_symmetry_space_group_name_H-M 'P 21/c'
_symmetry_Int_Tables_number 14
loop_
_symmetry_equiv_pos_site_id
_symmetry_equiv_pos_as_xyz
1 x,y,z
2 x,1/2-y,1/2+z
3 -x,-y,-z
4 -x,-1/2+y,-1/2-z
_cell_length_a 3.7879(7)
_cell_length_b 10.624(2)
_cell_length_c 14.674(3)
_cell_angle_alpha 90
_cell_angle_beta 97.416(3)
_cell_angle_gamma 90
_cell_formula_units_Z 4
loop_
_atom_type_symbol
_atom_type_radius_bond
C 0.68
H 0.23
N 0.68
O 0.68
loop_
_atom_site_label
_atom_site_type_symbol
_atom_site_fract_x
_atom_site_fract_y
_atom_site_fract_z
O1 O 0.0871(3) 0.46164(10) 0.37573(7)
N1 N 0.2759(3) 0.36158(10) 0.40793(8)
O2 O 0.6440(3) 0.10738(10) 0.23248(7)
H1 H 0.72300 0.05280 0.20120
C1 C 0.3856(4) 0.27695(13) 0.34885(9)
H2 H 0.33820 0.29020 0.28580
O3 O 0.8243(4) -0.02483(11) 0.34773(8)
C2 C 0.3453(4) 0.34597(13) 0.49991(10)
H3 H 0.26960 0.40610 0.53920
C3 C 0.5690(3) 0.17041(12) 0.38259(9)
C4 C 0.6911(4) 0.07337(13) 0.31886(9)
C5 C 0.6398(4) 0.15194(13) 0.47712(9)
H4 H 0.76090 0.08050 0.50060
C6 C 0.5277(4) 0.24131(14) 0.53559(10)
H5 H 0.57550 0.23070 0.59890
#END
