
#######################################################################
#
#                 Cambridge Crystallographic Data Centre
#                                CCDC
#
#######################################################################
#
# If this CIF has been generated from an entry in the Cambridge
# Structural Database, then it will include bibliographic, chemical,
# crystal, experimental, refinement or atomic coordinate data resulting
# from the CCDC's data processing and validation procedures.
#
#######################################################################

data_CSD_CIF_VAVQEQ
_audit_creation_date 2012-04-25
_audit_creation_method CSD-ConQuest-V1
_database_code_CSD VAVQEQ
_database_code_depnum_ccdc_archive 'CCDC 823119'
_chemical_formula_sum 'C37 H34 N2 O7'
_chemical_formula_moiety
;
C37 H34 N2 O7
;
_journal_coden_Cambridge 1336
_journal_volume 14
_journal_year 2012
_journal_page_first 174
_journal_name_full 'Org.Lett. '
loop_
_publ_author_name
"S.Vedachalam"
"Shi Min Tan"
"Hui Ping Teo"
" Shuting Cai"
" Xue-Wei Liu"
_chemical_name_systematic
;
Quinolin-2-yl 
(3,4,6-tri-O-benzyl-2-deoxy-2-nitro-\b-D-glucopyranosyl)methanone
;
_chemical_melting_point 387.15
_cell_volume   1564.021
_exptl_crystal_colour 'colorless'
_exptl_crystal_density_diffrn 1.314
_exptl_special_details
;
Melting point range 387.15-389.15K

;
_exptl_crystal_description 'needle'
_diffrn_ambient_temperature 103
#These two values have been output from a single CSD field.
_refine_ls_R_factor_gt 0.0405
_refine_ls_wR_factor_gt 0.0405
_symmetry_cell_setting monoclinic
_symmetry_space_group_name_H-M 'P 21'
_symmetry_Int_Tables_number 4
loop_
_symmetry_equiv_pos_site_id
_symmetry_equiv_pos_as_xyz
1 x,y,z
2 -x,1/2+y,-z
_cell_length_a 15.7429(4)
_cell_length_b 6.1474(1)
_cell_length_c 16.5336(4)
_cell_angle_alpha 90
_cell_angle_beta 102.188(1)
_cell_angle_gamma 90
_cell_formula_units_Z 2
loop_
_atom_type_symbol
_atom_type_radius_bond
C 0.68
H 0.23
N 0.68
O 0.68
loop_
_atom_site_label
_atom_site_type_symbol
_atom_site_fract_x
_atom_site_fract_y
_atom_site_fract_z
C1 C 0.44725(8) -0.0981(3) 0.88066(8)
C2 C 0.44734(9) 0.0743(3) 0.93735(9)
H1 H 0.48380 0.19690 0.93640
C3 C 0.39446(9) 0.0642(3) 0.99387(9)
H2 H 0.39410 0.18100 1.03140
C4 C 0.34068(9) -0.1191(3) 0.9963(1)
H3 H 0.30440 -0.12390 1.03540
C5 C 0.34039(9) -0.2893(3) 0.94302(10)
H4 H 0.30430 -0.41180 0.94560
C6 C 0.39407(9) -0.2836(3) 0.88357(9)
C7 C 0.39756(9) -0.4566(3) 0.82829(10)
H5 H 0.36400 -0.58440 0.82990
C8 C 0.44998(9) -0.4376(3) 0.77232(9)
H6 H 0.45430 -0.55260 0.73500
C9 C 0.49749(8) -0.2434(3) 0.77136(9)
C10 C 0.54745(9) -0.2131(3) 0.70453(9)
C11 C 0.60431(8) -0.0113(3) 0.70677(8)
H7 H 0.57990 0.11140 0.73450
C12 C 0.70007(8) -0.0542(3) 0.75042(7)
H8 H 0.72470 -0.16880 0.71910
C13 C 0.75139(8) 0.1549(3) 0.74944(8)
H9 H 0.72520 0.27300 0.77790
C14 C 0.87322(9) 0.3014(3) 0.84157(9)
H10 H 0.84090 0.31940 0.88640
H11 H 0.86580 0.43570 0.80780
C15 C 0.96838(9) 0.2667(3) 0.87854(8)
C16 C 1.01399(10) 0.4352(3) 0.92515(10)
H12 H 0.98510 0.56720 0.93240
C17 C 1.10175(10) 0.4103(4) 0.9611(1)
H13 H 1.13250 0.52520 0.99290
C18 C 1.14436(10) 0.2187(4) 0.95065(10)
H14 H 1.20430 0.20220 0.97500
C19 C 1.09935(10) 0.0514(4) 0.90456(10)
H15 H 1.12860 -0.08020 0.89750
C20 C 1.01120(9) 0.0740(3) 0.86826(9)
H16 H 0.98070 -0.04160 0.83670
C21 C 0.74470(9) 0.2152(3) 0.65847(8)
H17 H 0.77150 0.09740 0.63040
C22 C 0.86479(12) 0.3793(4) 0.61889(13)
H18 H 0.84670 0.32040 0.56210
H19 H 0.90320 0.27090 0.65280
C23 C 0.91374(10) 0.5873(3) 0.61652(10)
C24 C 0.98169(12) 0.6406(4) 0.68212(10)
H20 H 0.99320 0.55160 0.73020
C25 C 1.03247(12) 0.8219(4) 0.67791(11)
H21 H 1.07880 0.85630 0.72300
C26 C 1.01633(11) 0.9535(3) 0.60854(11)
H22 H 1.05180 1.07710 0.60570
C27 C 0.94799(11) 0.9043(3) 0.54313(10)
H23 H 0.93620 0.99500 0.49560
C28 C 0.89686(10) 0.7223(3) 0.5473(1)
H24 H 0.85000 0.68950 0.50260
C29 C 0.64898(9) 0.2409(3) 0.61604(8)
H25 H 0.62310 0.35970 0.64440
C30 C 0.63566(12) 0.2956(3) 0.52461(9)
H26 H 0.57360 0.27410 0.49870
H27 H 0.64920 0.45160 0.51920
C31 C 0.65593(12) -0.0433(3) 0.46067(10)
H28 H 0.59200 -0.04130 0.44100
H29 H 0.66980 -0.13540 0.51090
C32 C 0.69798(10) -0.1370(3) 0.39439(9)
C33 C 0.76197(10) -0.0255(3) 0.36447(10)
H30 H 0.78080 0.11380 0.38590
C34 C 0.79834(11) -0.1197(4) 0.30280(12)
H31 H 0.84170 -0.04320 0.28220
C35 C 0.77185(12) -0.3238(4) 0.27123(12)
H32 H 0.79700 -0.38640 0.22930
C36 C 0.70857(12) -0.4359(4) 0.30113(10)
H33 H 0.69050 -0.57600 0.28010
C37 C 0.67163(12) -0.3422(3) 0.36215(9)
H34 H 0.62790 -0.41880 0.38220
N1 N 0.49827(7) -0.0791(2) 0.82316(7)
N2 N 0.70456(7) -0.1323(2) 0.83737(7)
O1 O 0.54137(8) -0.3424(2) 0.64813(7)
O2 O 0.69928(8) -0.3297(2) 0.84700(7)
O3 O 0.71041(8) 0.0013(2) 0.89296(7)
O4 O 0.83893(6) 0.1199(2) 0.79096(6)
O5 O 0.78927(7) 0.4144(2) 0.65323(6)
O6 O 0.68669(9) 0.1712(2) 0.48009(7)
O7 O 0.60351(7) 0.0423(2) 0.62360(6)
#END
