
#######################################################################
#
#                 Cambridge Crystallographic Data Centre
#                                CCDC
#
#######################################################################
#
# If this CIF has been generated from an entry in the Cambridge
# Structural Database, then it will include bibliographic, chemical,
# crystal, experimental, refinement or atomic coordinate data resulting
# from the CCDC's data processing and validation procedures.
#
#######################################################################

data_CSD_CIF_VAWDOO
_audit_creation_date 2012-04-25
_audit_creation_method CSD-ConQuest-V1
_database_code_CSD VAWDOO
_database_code_depnum_ccdc_archive 'CCDC 830724'
_chemical_formula_sum 'C17 H21 N1 O5'
_chemical_formula_moiety
;
C17 H21 N1 O5
;
_journal_coden_Cambridge 1336
_journal_volume 14
_journal_year 2012
_journal_page_first 652
_journal_name_full 'Org.Lett. '
loop_
_publ_author_name
"G.R.Boyce"
"Shubin Liu"
"J.S.Johnson"
_chemical_name_systematic
;
t-Butyl 1-hydroxy-3-methyl-5-nitro-4-phenylcyclopent-2-ene-1-carboxylate
;
_cell_volume    820.858
_exptl_crystal_colour 'colorless'
_exptl_crystal_density_diffrn 1.292
_exptl_crystal_description 'block'
_diffrn_ambient_temperature 100
#These two values have been output from a single CSD field.
_refine_ls_R_factor_gt 0.0381
_refine_ls_wR_factor_gt 0.0381
_symmetry_cell_setting triclinic
_symmetry_space_group_name_H-M 'P -1'
_symmetry_Int_Tables_number 2
loop_
_symmetry_equiv_pos_site_id
_symmetry_equiv_pos_as_xyz
1 x,y,z
2 -x,-y,-z
_cell_length_a 8.7703(2)
_cell_length_b 9.2477(2)
_cell_length_c 12.0469(3)
_cell_angle_alpha 100.055(1)
_cell_angle_beta 102.351(2)
_cell_angle_gamma 115.531(1)
_cell_formula_units_Z 2
loop_
_atom_type_symbol
_atom_type_radius_bond
C 0.68
H 0.23
N 0.68
O 0.68
loop_
_atom_site_label
_atom_site_type_symbol
_atom_site_fract_x
_atom_site_fract_y
_atom_site_fract_z
C1 C -0.23955(19) 0.71763(17) 0.14430(12)
C2 C -0.40706(19) 0.66267(18) 0.15687(14)
C3 C -0.4244(2) 0.69130(18) 0.26940(14)
C4 C -0.2724(2) 0.77451(17) 0.36926(13)
C5 C -0.10445(19) 0.83010(17) 0.35655(12)
C6 C -0.08516(18) 0.80362(16) 0.24436(12)
C7 C 0.09813(18) 0.86817(16) 0.23074(11)
C8 C 0.13197(18) 0.73742(17) 0.16055(12)
C9 C 0.22023(18) 0.79528(18) 0.08771(12)
C10 C 0.25828(18) 0.97098(17) 0.08906(12)
C11 C 0.13624(18) 0.99367(17) 0.15856(11)
C12 C 0.0735(2) 0.56937(18) 0.18059(13)
O1 O 0.20770(15) 0.98332(14) -0.02694(8)
C13 C 0.45703(18) 1.10170(17) 0.15222(12)
O2 O 0.54843(13) 1.18368(13) 0.10073(9)
O3 O 0.50444(12) 1.10731(11) 0.26556(8)
C14 C 0.68782(18) 1.22901(17) 0.34968(12)
C15 C 0.6766(2) 1.18485(19) 0.46450(13)
C16 C 0.82453(19) 1.19680(19) 0.30754(13)
C17 C 0.7180(2) 1.40617(19) 0.36193(14)
N1 N 0.20798(16) 1.17306(15) 0.23013(11)
O4 O 0.25604(16) 1.27848(14) 0.17737(11)
O5 O 0.21303(15) 1.20507(13) 0.33385(9)
H1 H -0.229(2) 0.697(2) 0.0667(17)
H2 H -0.512(3) 0.602(2) 0.0875(17)
H3 H -0.539(3) 0.651(2) 0.2787(16)
H4 H -0.285(2) 0.788(2) 0.4468(16)
H5 H 0.001(2) 0.890(2) 0.4250(14)
H6 H 0.187(2) 0.920(2) 0.3073(15)
H7 H 0.264(2) 0.739(2) 0.0390(16)
H8 H 0.026(2) 0.9667(19) 0.0999(14)
H9 H 0.299(3) 1.051(3) -0.037(2)
H10 H 0.129(2) 0.581(2) 0.2640(17)
H11 H 0.795(3) 1.259(2) 0.5257(17)
H12 H 0.793(2) 1.079(2) 0.2943(15)
H13 H 0.831(3) 1.487(2) 0.4261(17)
H14 H -0.053(3) 0.512(2) 0.1657(16)
H15 H 0.586(3) 1.203(2) 0.4904(16)
H16 H 0.835(2) 1.221(2) 0.2340(16)
H17 H 0.620(3) 1.420(2) 0.3865(17)
H18 H 0.106(2) 0.501(2) 0.1307(17)
H19 H 0.645(2) 1.066(2) 0.4518(15)
H20 H 0.940(3) 1.261(2) 0.3677(18)
H21 H 0.718(2) 1.435(2) 0.2878(17)
#END
