
#######################################################################
#
#                 Cambridge Crystallographic Data Centre
#                                CCDC
#
#######################################################################
#
# If this CIF has been generated from an entry in the Cambridge
# Structural Database, then it will include bibliographic, chemical,
# crystal, experimental, refinement or atomic coordinate data resulting
# from the CCDC's data processing and validation procedures.
#
#######################################################################

data_CSD_CIF_VAWFUW
_audit_creation_date 2012-04-25
_audit_creation_method CSD-ConQuest-V1
_database_code_CSD VAWFUW
_database_code_depnum_ccdc_archive 'CCDC 842838'
_chemical_formula_sum 'C21 H21 N1 O4'
_chemical_formula_moiety
;
C21 H21 N1 O4
;
_journal_coden_Cambridge 1336
_journal_volume 14
_journal_year 2012
_journal_page_first 448
_journal_name_full 'Org.Lett. '
loop_
_publ_author_name
"Bor-Cherng Hong"
"N.S.Dange"
"Chun-Feng Ding"
"Ju-Hsiou Liao"
_chemical_name_systematic
;
7-Nitro-1,6-diphenyloctahydro-3H-isochromen-3-one
;
_cell_volume   1820.801
_exptl_crystal_colour 'colorless'
_exptl_crystal_density_diffrn 1.282
_exptl_crystal_description 'platelet'
_diffrn_ambient_temperature 295
#These two values have been output from a single CSD field.
_refine_ls_R_factor_gt 0.0531
_refine_ls_wR_factor_gt 0.0531
_symmetry_cell_setting orthorhombic
_symmetry_space_group_name_H-M 'P c a 21'
_symmetry_Int_Tables_number 29
loop_
_symmetry_equiv_pos_site_id
_symmetry_equiv_pos_as_xyz
1 x,y,z
2 -x,-y,1/2+z
3 1/2+x,-y,z
4 1/2-x,y,1/2+z
_cell_length_a 11.8807(10)
_cell_length_b 19.0098(16)
_cell_length_c 8.0620(7)
_cell_angle_alpha 90
_cell_angle_beta 90
_cell_angle_gamma 90
_cell_formula_units_Z 4
loop_
_atom_type_symbol
_atom_type_radius_bond
C 0.68
H 0.23
N 0.68
O 0.68
loop_
_atom_site_label
_atom_site_type_symbol
_atom_site_fract_x
_atom_site_fract_y
_atom_site_fract_z
O1 O 0.17571(18) 0.74310(12) 1.0734(3)
O2 O 0.11447(16) 0.66662(12) 0.8946(2)
O3 O -0.22863(18) 0.70553(15) 0.2673(3)
O4 O -0.1071(2) 0.73087(14) 0.0812(3)
N1 N -0.1361(2) 0.72528(12) 0.2246(3)
C1 C 0.1309(2) 0.73317(18) 0.9424(4)
C2 C 0.0980(3) 0.79151(17) 0.8281(4)
C3 C 0.0085(2) 0.77355(15) 0.7013(4)
C4 C -0.0040(3) 0.83073(16) 0.5736(4)
C5 C -0.0880(3) 0.81294(15) 0.4361(4)
C6 C -0.0517(2) 0.74336(14) 0.3580(3)
C7 C -0.0447(2) 0.68457(15) 0.4845(4)
C8 C 0.0394(2) 0.70376(14) 0.6207(3)
C9 C 0.0442(2) 0.64640(15) 0.7517(4)
C10 C -0.1017(3) 0.87319(15) 0.3144(4)
C11 C -0.2035(3) 0.90839(19) 0.3073(5)
H1 H -0.26390 0.89290 0.37110
C12 C -0.2160(5) 0.9663(2) 0.2058(8)
H2 H -0.28420 0.99030 0.20240
C13 C -0.1274(6) 0.9886(2) 0.1100(7)
H3 H -0.13560 1.02840 0.04390
C14 C -0.0260(4) 0.9527(2) 0.1102(6)
H4 H 0.03280 0.96670 0.04170
C15 C -0.0142(4) 0.89547(18) 0.2146(5)
H5 H 0.05400 0.87150 0.21770
C16 C 0.0872(2) 0.57718(14) 0.6899(3)
C17 C 0.1933(2) 0.57210(16) 0.6184(4)
H6 H 0.23950 0.61150 0.61380
C18 C 0.2304(3) 0.50908(17) 0.5543(4)
H7 H 0.30110 0.50630 0.50530
C19 C 0.1633(3) 0.45005(17) 0.5624(4)
H8 H 0.18880 0.40750 0.51960
C20 C 0.0596(3) 0.45429(16) 0.6334(4)
H9 H 0.01430 0.41440 0.63900
C21 C 0.0208(2) 0.51761(16) 0.6975(4)
H10 H -0.05020 0.51990 0.74580
H11 H 0.163(3) 0.8064(19) 0.779(6)
H12 H 0.081(3) 0.836(2) 0.890(5)
H13 H -0.058(2) 0.7668(12) 0.762(3)
H14 H -0.028(3) 0.8747(19) 0.618(4)
H15 H 0.061(3) 0.8355(15) 0.523(4)
H16 H -0.158(2) 0.8033(14) 0.488(4)
H17 H 0.022(2) 0.7500(13) 0.296(3)
H18 H -0.020(2) 0.6430(15) 0.433(4)
H19 H -0.121(3) 0.6739(17) 0.531(4)
H20 H 0.109(2) 0.7073(13) 0.562(4)
H21 H -0.028(3) 0.6435(14) 0.793(4)
#END
