
#######################################################################
#
#                 Cambridge Crystallographic Data Centre
#                                CCDC
#
#######################################################################
#
# If this CIF has been generated from an entry in the Cambridge
# Structural Database, then it will include bibliographic, chemical,
# crystal, experimental, refinement or atomic coordinate data resulting
# from the CCDC's data processing and validation procedures.
#
#######################################################################

data_CSD_CIF_VAWFII
_audit_creation_date 1990-03-16
_audit_creation_method CSD-ConQuest-V1
_database_code_CSD VAWFII
_chemical_formula_sum 'C13 H6 N2 O5'
_chemical_formula_moiety
;
C13 H6 N2 O5
;
_journal_coden_Cambridge 82
_journal_volume 29
_journal_year 1988
_journal_page_first 187-2
_journal_name_full 'Zh.Strukt.Khim.(Russ.)(J.Struct.Chem.) '
loop_
_publ_author_name
"O.V.Semidetko"
"L.A.Chetkina"
"V.K.Bel'skii"
"A.N.Poplavskii"
"A.M.Andrievskii"
"K.M.Dyumaev"
_chemical_name_systematic
;
2,5-Dinitrofluorenone
;
_cell_volume   1116.933
_exptl_crystal_density_diffrn 1.61
_exptl_special_details
;
isomer I, sensitizing action for electrophotography

;
_diffrn_ambient_temperature ?
_diffrn_special_details
;
The study was carried out at room temperature,in the range 283-303K

;
#These two values have been output from a single CSD field.
_refine_ls_R_factor_gt 0.035
_refine_ls_wR_factor_gt 0.035
_symmetry_cell_setting monoclinic
_symmetry_space_group_name_H-M 'P 1 1 21/n'
_symmetry_Int_Tables_number 14
loop_
_symmetry_equiv_pos_site_id
_symmetry_equiv_pos_as_xyz
1 x,y,z
2 1/2-x,1/2-y,1/2+z
3 -x,-y,-z
4 -1/2+x,-1/2+y,-1/2-z
_cell_length_a 3.740(1)
_cell_length_b 22.039(6)
_cell_length_c 13.551(2)
_cell_angle_alpha 90
_cell_angle_beta 90
_cell_angle_gamma 89.66(2)
_cell_formula_units_Z 4
loop_
_atom_type_symbol
_atom_type_radius_bond
C 0.68
N 0.68
O 0.68
loop_
_atom_site_label
_atom_site_type_symbol
_atom_site_fract_x
_atom_site_fract_y
_atom_site_fract_z
O1 O -0.2696(12) 0.1868(2) 0.8621(3)
O2 O -0.2766(10) -0.0513(2) 0.9457(3)
O3 O 0.0334(13) -0.1082(2) 0.8480(4)
O4 O 0.5461(9) 0.0873(1) 0.4885(2)
O5 O 0.3091(9) 0.1440(1) 0.3767(2)
N1 N -0.0989(10) -0.0597(2) 0.8714(3)
N2 N 0.3642(9) 0.1310(1) 0.4627(3)
C1 C -0.1259(14) 0.0500(2) 0.8392(4)
C2 C -0.0339(26) -0.0072(4) 0.8054(7)
C3 C 0.1095(15) -0.0181(2) 0.7136(4)
C4 C 0.1688(10) 0.0298(2) 0.6503(3)
C5 C 0.2165(14) 0.1708(2) 0.5396(4)
C6 C 0.1851(13) 0.2319(2) 0.5144(4)
C7 C 0.0556(13) 0.2734(2) 0.5821(4)
C8 C -0.0457(11) 0.2547(2) 0.6747(3)
C9 C -0.1322(12) 0.1631(2) 0.7903(4)
C10 C -0.0589(10) 0.0973(2) 0.7748(3)
C11 C 0.0887(9) 0.0885(2) 0.6803(3)
C12 C 0.1152(9) 0.1496(2) 0.6316(3)
C13 C -0.019(1) 0.1935(2) 0.6974(3)
#END
