
#######################################################################
#
#                 Cambridge Crystallographic Data Centre
#                                CCDC
#
#######################################################################
#
# If this CIF has been generated from an entry in the Cambridge
# Structural Database, then it will include bibliographic, chemical,
# crystal, experimental, refinement or atomic coordinate data resulting
# from the CCDC's data processing and validation procedures.
#
#######################################################################

data_CSD_CIF_VAWFEE
_audit_creation_date 1990-03-16
_audit_creation_method CSD-ConQuest-V1
_database_code_CSD VAWFEE
_chemical_formula_sum 'C21 H18 N2 O3'
_chemical_formula_moiety
;
C21 H18 N2 O3
;
_journal_coden_Cambridge 82
_journal_volume 29
_journal_year 1988
_journal_page_first 183-2
_journal_name_full 'Zh.Strukt.Khim.(Russ.)(J.Struct.Chem.) '
loop_
_publ_author_name
"A.E.Obodovskaya"
"Z.A.Starikova"
"I.E.Pokrovskaya"
"L.N.Eliseeva"
_chemical_name_systematic
;
2,5-Diphenyl-5-(N-phenylhydroxylamino)isoxazolidin-3-one
;
_chemical_melting_point 384.15
_cell_volume   1733.043
_exptl_crystal_density_diffrn 1.328
_exptl_special_details
;
Melting point range 384.15-384.65K

;
_diffrn_ambient_temperature ?
_diffrn_special_details
;
The study was carried out at room temperature,in the range 283-303K

;
#These two values have been output from a single CSD field.
_refine_ls_R_factor_gt 0.072
_refine_ls_wR_factor_gt 0.072
_symmetry_cell_setting monoclinic
_symmetry_space_group_name_H-M 'P 21/n'
_symmetry_Int_Tables_number 14
loop_
_symmetry_equiv_pos_site_id
_symmetry_equiv_pos_as_xyz
1 x,y,z
2 1/2-x,1/2+y,1/2-z
3 -x,-y,-z
4 -1/2+x,-1/2-y,-1/2+z
_cell_length_a 11.406(5)
_cell_length_b 8.035(16)
_cell_length_c 19.082(6)
_cell_angle_alpha 90
_cell_angle_beta 97.7(3)
_cell_angle_gamma 90
_cell_formula_units_Z 4
loop_
_atom_type_symbol
_atom_type_radius_bond
C 0.68
H 0.23
N 0.68
O 0.68
loop_
_atom_site_label
_atom_site_type_symbol
_atom_site_fract_x
_atom_site_fract_y
_atom_site_fract_z
O1 O 0.0723(5) 0.0320(8) 0.9328(3)
O2 O 0.0547(5) 0.4756(9) 0.8846(3)
O3 O 0.2787(4) 0.2226(7) 0.9675(3)
N1 N 0.1358(5) 0.0331(9) 1.0049(3)
N2 N 0.2236(5) 0.3209(9) 0.9114(3)
C1 C 0.1919(6) 0.194(1) 1.0159(4)
C2 C 0.1028(7) 0.3337(10) 0.9977(4)
C3 C 0.1199(7) 0.3906(10) 0.9245(4)
C4 C 0.2128(6) -0.1088(10) 1.0120(4)
C5 C 0.2731(7) -0.1664(10) 0.9578(4)
C6 C 0.3441(8) -0.3038(10) 0.9672(5)
C7 C 0.3580(8) -0.3903(10) 1.0298(6)
C8 C 0.2979(8) -0.3356(10) 1.0838(5)
C9 C 0.2256(7) -0.1977(10) 1.0745(4)
C10 C 0.2589(6) 0.2018(10) 1.0905(4)
C11 C 0.1998(7) 0.2478(10) 1.1466(4)
C12 C 0.2598(9) 0.2518(20) 1.2148(5)
C13 C 0.3777(9) 0.2143(20) 1.2269(5)
C14 C 0.4369(8) 0.1727(10) 1.1716(5)
C15 C 0.3785(7) 0.1641(10) 1.1029(4)
C16 C 0.2906(7) 0.3386(10) 0.8547(4)
C17 C 0.2588(8) 0.4558(10) 0.8027(4)
C18 C 0.3228(10) 0.4729(10) 0.7474(5)
C19 C 0.4185(9) 0.3732(10) 0.7436(5)
C20 C 0.4514(7) 0.256(1) 0.7954(5)
C21 C 0.3885(7) 0.2372(10) 0.8522(4)
H1 H -0.009(9) -0.01(1) 0.937(5)
H2 H 0.11700 0.42300 1.03000
H3 H 0.02400 0.29300 0.99800
H4 H 0.26600 -0.10900 0.91400
H5 H 0.38500 -0.34200 0.93000
H6 H 0.40800 -0.48700 1.03500
H7 H 0.30800 -0.39400 1.12900
H8 H 0.18300 -0.16400 1.11200
H9 H 0.11800 0.27500 1.13800
H10 H 0.21800 0.27600 1.25400
H11 H 0.41900 0.21300 1.27400
H12 H 0.52100 0.15600 1.18000
H13 H 0.42000 0.13400 1.06400
H14 H 0.19200 0.52500 0.80600
H15 H 0.30100 0.55200 0.71100
H16 H 0.46200 0.37900 0.70500
H17 H 0.52000 0.18900 0.79300
H18 H 0.41200 0.15800 0.88800
#END
