
#######################################################################
#
#                 Cambridge Crystallographic Data Centre
#                                CCDC
#
#######################################################################
#
# If this CIF has been generated from an entry in the Cambridge
# Structural Database, then it will include bibliographic, chemical,
# crystal, experimental, refinement or atomic coordinate data resulting
# from the CCDC's data processing and validation procedures.
#
#######################################################################

data_CSD_CIF_VAWJAG
_audit_creation_date 2012-04-25
_audit_creation_method CSD-ConQuest-V1
_database_code_CSD VAWJAG
_database_code_depnum_ccdc_archive 'CCDC 819082'
_chemical_formula_sum 'C16 H17 N1 O7'
_chemical_formula_moiety
;
C16 H17 N1 O7
;
_journal_coden_Cambridge 1336
_journal_volume 14
_journal_year 2012
_journal_page_first 544
_journal_name_full 'Org.Lett. '
loop_
_publ_author_name
"S.Norsikian"
"J.-F.Soule"
"A.Cannillo"
"R.Guillot"
"M.-E.T.H.Dau"
"J.-M.Beau"
_chemical_name_systematic
;
1-(5-Ethynyl-2,2-dimethyl-1,3-dioxolan-4-yl)-2-hydroxyethyl 4-nitrobenzoate
;
_cell_volume    784.177
_exptl_crystal_colour 'colorless'
_exptl_crystal_density_diffrn 1.42
_exptl_crystal_description 'plate'
_diffrn_ambient_temperature 100
#These two values have been output from a single CSD field.
_refine_ls_R_factor_gt 0.0428
_refine_ls_wR_factor_gt 0.0428
_symmetry_cell_setting monoclinic
_symmetry_space_group_name_H-M 'P 21'
_symmetry_Int_Tables_number 4
loop_
_symmetry_equiv_pos_site_id
_symmetry_equiv_pos_as_xyz
1 x,y,z
2 -x,1/2+y,-z
_cell_length_a 6.8478(2)
_cell_length_b 6.6488(2)
_cell_length_c 17.2236(4)
_cell_angle_alpha 90
_cell_angle_beta 90.252(1)
_cell_angle_gamma 90
_cell_formula_units_Z 2
loop_
_atom_type_symbol
_atom_type_radius_bond
C 0.68
H 0.23
N 0.68
O 0.68
loop_
_atom_site_label
_atom_site_type_symbol
_atom_site_fract_x
_atom_site_fract_y
_atom_site_fract_z
N1 N 0.67266(13) 0.89989(18) -0.10081(5)
O1 O 0.61280(15) 0.81631(19) -0.15993(5)
O2 O 0.69691(16) 1.08105(17) -0.09488(5)
C1 C 0.79969(13) 0.53835(17) 0.09335(5)
C2 C 0.71614(13) 0.77349(17) -0.03297(5)
C3 C 0.79763(15) 0.45365(18) 0.01923(5)
H1 H 0.82670 0.31800 0.01290
C4 C 0.72269(15) 0.86344(18) 0.03982(5)
H2 H 0.70050 1.00060 0.04550
C5 C 0.76323(15) 0.74336(17) 0.10379(5)
H3 H 0.76610 0.79900 0.15330
C6 C 0.75240(15) 0.57103(18) -0.04500(5)
H4 H 0.74660 0.51550 -0.09450
O3 O 0.79939(11) 0.49037(13) 0.22750(4)
O4 O 0.90296(17) 0.23295(17) 0.15326(5)
C7 C 0.83967(13) 0.37977(17) 0.29837(5)
H5 H 0.94090 0.27940 0.28780
O5 O 1.10826(12) 0.59078(15) 0.32653(5)
C8 C 0.92119(13) 0.53460(17) 0.35470(5)
H6 H 0.93330 0.47590 0.40670
C9 C 0.65557(15) 0.27191(18) 0.32402(6)
H7 H 0.61880 0.17450 0.28470
H8 H 0.68280 0.19900 0.37160
O6 O 0.92975(12) 0.87630(14) 0.32066(4)
C10 C 0.80557(14) 0.73581(17) 0.35865(5)
H9 H 0.68480 0.72170 0.32840
C11 C 1.12525(15) 0.80468(19) 0.32830(6)
C12 C 0.75610(15) 0.79838(19) 0.43767(5)
C13 C 0.70701(18) 0.8539(2) 0.50111(6)
H10 H 0.66910 0.89690 0.55020
C14 C 1.2365(2) 0.8709(2) 0.25731(8)
H11 H 1.36590 0.81560 0.25900
H12 H 1.24390 1.01500 0.25630
H13 H 1.17030 0.82400 0.21150
C15 C 1.2190(2) 0.8714(3) 0.40362(8)
H14 H 1.14400 0.82180 0.44650
H15 H 1.22310 1.01560 0.40540
H16 H 1.34950 0.81910 0.40670
C16 C 0.84128(14) 0.40211(17) 0.16025(5)
O7 O 0.49657(11) 0.40433(17) 0.33671(5)
H17 H 0.44000 0.42560 0.29540
#END
