
#######################################################################
#
#                 Cambridge Crystallographic Data Centre
#                                CCDC
#
#######################################################################
#
# If this CIF has been generated from an entry in the Cambridge
# Structural Database, then it will include bibliographic, chemical,
# crystal, experimental, refinement or atomic coordinate data resulting
# from the CCDC's data processing and validation procedures.
#
#######################################################################

data_CSD_CIF_VAWWEX
_audit_creation_date 2012-04-25
_audit_creation_method CSD-ConQuest-V1
_database_code_CSD VAWWEX
_database_code_depnum_ccdc_archive 'CCDC 680471'
_chemical_formula_sum 'C23 H16 N4 O4'
_chemical_formula_moiety
;
C23 H16 N4 O4
;
_journal_coden_Cambridge 960
_journal_volume 71
_journal_year 2011
_journal_page_first 297
_journal_name_full 'J.Inclusion Phenom.Macrocyclic Chem. '
loop_
_publ_author_name
"J.Ashmore"
"R.Bishop"
"D.C.Craig"
"M.L.Scudder"
_chemical_name_systematic
;
5,17-Dinitro-3,15-diazahexacyclo[11.11.1.0^2,11^.0^4,9^.0^14,23^.0^16,21^]pent
acosa-2,4,6,8,10,14,16,18,20,22-decaene
;
_cell_volume   8611.573
_exptl_crystal_colour 'colorless'
_exptl_crystal_density_diffrn 1.43
_exptl_crystal_description 'prism'
_diffrn_ambient_temperature 294
#These two values have been output from a single CSD field.
_refine_ls_R_factor_gt 0.054
_refine_ls_wR_factor_gt 0.054
_symmetry_cell_setting rhombohedral
_symmetry_space_group_name_H-M 'R -3'
_symmetry_Int_Tables_number 148
loop_
_symmetry_equiv_pos_site_id
_symmetry_equiv_pos_as_xyz
1 x,y,z
2 -y,x-y,z
3 -x+y,-x,z
4 1/3+x,2/3+y,2/3+z
5 1/3-y,2/3+x-y,2/3+z
6 1/3-x+y,2/3-x,2/3+z
7 2/3+x,1/3+y,1/3+z
8 2/3-y,1/3+x-y,1/3+z
9 2/3-x+y,1/3-x,1/3+z
10 -x,-y,-z
11 y,-x+y,-z
12 x-y,x,-z
13 -1/3-x,-2/3-y,-2/3-z
14 -1/3+y,-2/3-x+y,-2/3-z
15 -1/3+x-y,-2/3+x,-2/3-z
16 -2/3-x,-1/3-y,-1/3-z
17 -2/3+y,-1/3-x+y,-1/3-z
18 -2/3+x-y,-1/3+x,-1/3-z
_cell_length_a 25.983(4)
_cell_length_b 25.983(4)
_cell_length_c 14.729(4)
_cell_angle_alpha 90
_cell_angle_beta 90
_cell_angle_gamma 120
_cell_formula_units_Z 18
loop_
_atom_type_symbol
_atom_type_radius_bond
C 0.68
H 0.23
N 0.68
O 0.68
loop_
_atom_site_label
_atom_site_type_symbol
_atom_site_fract_x
_atom_site_fract_y
_atom_site_fract_z
O1 O 0.2115(2) 0.2163(2) 0.9363(2)
O2 O 0.1235(2) 0.1384(2) 0.9370(2)
O3 O 0.1459(1) 0.2688(1) 0.2414(2)
O4 O 0.1629(1) 0.2390(1) 0.1148(2)
N1 N 0.2015(1) 0.2296(1) 0.7406(2)
N2 N 0.2001(1) 0.2266(1) 0.3617(2)
N3 N 0.1594(2) 0.1895(2) 0.9148(2)
N4 N 0.1490(1) 0.2318(2) 0.1950(2)
C1 C 0.2662(2) 0.2324(2) 0.6225(2)
C2 C 0.2239(2) 0.2513(2) 0.6592(2)
C3 C 0.2094(2) 0.2890(2) 0.6091(2)
C4 C 0.2405(2) 0.3161(2) 0.5196(2)
C5 C 0.2696(2) 0.2829(2) 0.4782(2)
C6 C 0.2226(1) 0.2239(2) 0.4407(2)
C7 C 0.2056(2) 0.1704(2) 0.4883(2)
C8 C 0.2317(2) 0.1705(2) 0.5799(2)
C9 C 0.3078(2) 0.2758(2) 0.5504(2)
C10 C 0.1613(2) 0.2436(2) 0.7753(2)
C11 C 0.1367(2) 0.2220(2) 0.8623(2)
C12 C 0.0944(2) 0.2315(2) 0.9000(2)
C13 C 0.0749(2) 0.2653(2) 0.8517(3)
C14 C 0.0980(2) 0.2883(2) 0.7686(3)
C15 C 0.1415(2) 0.2775(2) 0.7287(2)
C16 C 0.1673(2) 0.3005(1) 0.6436(2)
C17 C 0.1593(2) 0.1746(2) 0.3221(2)
C18 C 0.1354(2) 0.1754(2) 0.2359(2)
C19 C 0.1014(2) 0.1248(2) 0.1875(3)
C20 C 0.0865(2) 0.0697(2) 0.2257(3)
C21 C 0.1052(2) 0.0663(2) 0.3107(3)
C22 C 0.1424(2) 0.1185(2) 0.3603(2)
C23 C 0.1658(2) 0.1183(2) 0.4467(2)
H1 H 0.29070 0.23110 0.67380
H2 H 0.27180 0.35830 0.53050
H3 H 0.21050 0.31480 0.47570
H4 H 0.29600 0.30730 0.42720
H5 H 0.25940 0.15450 0.57260
H6 H 0.19860 0.14420 0.62170
H7 H 0.33180 0.25970 0.52220
H8 H 0.33500 0.31520 0.57900
H9 H 0.07740 0.21460 0.96090
H10 H 0.04390 0.27270 0.87870
H11 H 0.08430 0.31280 0.73550
H12 H 0.15500 0.32540 0.60820
H13 H 0.08730 0.12700 0.12520
H14 H 0.06180 0.03250 0.19020
H15 H 0.09250 0.02650 0.33820
H16 H 0.15310 0.07970 0.47800
#END
