
#######################################################################
#
#                 Cambridge Crystallographic Data Centre
#                                CCDC
#
#######################################################################
#
# If this CIF has been generated from an entry in the Cambridge
# Structural Database, then it will include bibliographic, chemical,
# crystal, experimental, refinement or atomic coordinate data resulting
# from the CCDC's data processing and validation procedures.
#
#######################################################################

data_CSD_CIF_VAXKUC
_audit_creation_date 2012-10-03
_audit_creation_method CSD-ConQuest-V1
_database_code_CSD VAXKUC
_database_code_depnum_ccdc_archive 'CCDC 862520'
_chemical_formula_sum 'C21 H31 N5 O10'
_chemical_formula_moiety
;
C21 H31 N5 O10
;
_journal_coden_Cambridge 24
_journal_volume 53
_journal_year 2012
_journal_page_first 4154
_journal_name_full 'Tetrahedron Lett. '
loop_
_publ_author_name
"M.C.Davis"
"T.J.Groshens"
_chemical_name_systematic
;
Tri-t-butyl (2,4-dinitrobenzene-1,3,5-triyl)triscarbamate
;
_chemical_melting_point 426
_cell_volume   5405.271
_exptl_crystal_colour 'orange'
_exptl_crystal_density_diffrn 1.262
_exptl_crystal_description 'needle'
_diffrn_ambient_temperature 296
#These two values have been output from a single CSD field.
_refine_ls_R_factor_gt 0.0445
_refine_ls_wR_factor_gt 0.0445
_symmetry_cell_setting orthorhombic
_symmetry_space_group_name_H-M 'P b c a'
_symmetry_Int_Tables_number 61
loop_
_symmetry_equiv_pos_site_id
_symmetry_equiv_pos_as_xyz
1 x,y,z
2 1/2+x,1/2-y,-z
3 -x,1/2+y,1/2-z
4 1/2-x,-y,1/2+z
5 -x,-y,-z
6 -1/2-x,-1/2+y,z
7 x,-1/2-y,-1/2+z
8 -1/2+x,y,-1/2-z
_cell_length_a 14.0085(6)
_cell_length_b 9.1163(4)
_cell_length_c 42.3260(17)
_cell_angle_alpha 90
_cell_angle_beta 90
_cell_angle_gamma 90
_cell_formula_units_Z 8
loop_
_atom_type_symbol
_atom_type_radius_bond
C 0.68
H 0.23
N 0.68
O 0.68
loop_
_atom_site_label
_atom_site_type_symbol
_atom_site_fract_x
_atom_site_fract_y
_atom_site_fract_z
O1 O -0.00858(13) 0.88182(18) 0.20869(4)
N1 N 0.05339(13) 0.7314(2) 0.17411(4)
O2 O 0.06612(10) 0.35567(17) 0.02994(3)
O3 O 0.51714(10) 0.67025(18) 0.11699(4)
O4 O 0.42157(12) 0.5131(2) 0.09065(5)
O5 O 0.32125(11) 0.85518(18) 0.17360(4)
O6 O 0.22913(12) 0.72654(19) 0.20367(3)
O7 O 0.11209(12) 0.96498(17) 0.17758(4)
O8 O -0.07329(11) 0.5664(2) 0.09969(4)
O9 O -0.06909(12) 0.5436(2) 0.15004(4)
N2 N 0.08812(12) 0.47461(19) 0.07423(4)
H1 H 0.02680 0.47350 0.07370
C1 C 0.6141(2) 0.4506(4) 0.11547(13)
H2 H 0.60800 0.44470 0.13800
H3 H 0.67470 0.41110 0.10920
H4 H 0.56380 0.39530 0.10570
N3 N 0.36391(11) 0.68792(19) 0.12428(4)
H5 H 0.38210 0.76230 0.13520
N4 N 0.25559(13) 0.7670(2) 0.17771(4)
N5 N -0.02946(13) 0.5686(2) 0.12481(5)
O10 O 0.21775(11) 0.3812(2) 0.04790(4)
C2 C -0.0194(3) 1.0198(3) 0.22737(7)
C3 C 0.05785(17) 0.8716(3) 0.18629(5)
C4 C 0.11184(14) 0.6783(2) 0.15004(4)
C5 C 0.07203(13) 0.5998(2) 0.12460(4)
C6 C 0.12901(13) 0.5502(2) 0.09924(4)
C7 C 0.13396(16) 0.4009(2) 0.05012(5)
C8 C 0.09134(18) 0.2755(3) 0.00071(5)
C9 C 0.1425(2) 0.1350(3) 0.00913(7)
H6 H 0.20560 0.15740 0.01660
H7 H 0.14670 0.07350 -0.00920
H8 H 0.10770 0.08480 0.02540
C10 C 0.60748(16) 0.6077(3) 0.10533(7)
C11 C 0.68096(18) 0.6997(4) 0.12191(9)
H9 H 0.67090 0.69450 0.14430
H10 H 0.67540 0.79970 0.11510
H11 H 0.74360 0.66370 0.11700
C12 C 0.43369(15) 0.6122(3) 0.10853(5)
C13 C 0.26702(13) 0.6571(2) 0.12439(4)
C14 C 0.20973(13) 0.7044(2) 0.14976(4)
C15 C 0.0713(3) 1.0483(4) 0.24571(8)
H12 H 0.08800 0.96230 0.25760
H13 H 0.06150 1.12900 0.25990
H14 H 0.12200 1.07160 0.23130
C16 C -0.0463(3) 1.1433(4) 0.20514(8)
H15 H 0.00630 1.16380 0.19130
H16 H -0.06120 1.22960 0.21720
H17 H -0.10090 1.11500 0.19290
C17 C -0.0057(2) 0.2452(3) -0.01352(6)
H18 H -0.04200 0.18460 0.00060
H19 H 0.00200 0.19550 -0.03340
H20 H -0.03880 0.33620 -0.01680
C18 C 0.1477(2) 0.3756(4) -0.02048(6)
H21 H 0.11530 0.46790 -0.02240
H22 H 0.15390 0.33150 -0.04100
H23 H 0.21000 0.39110 -0.01160
C19 C 0.22566(13) 0.5799(2) 0.09983(4)
H24 H 0.26390 0.54720 0.08330
C20 C 0.6129(2) 0.6300(5) 0.07060(8)
H25 H 0.67160 0.58960 0.06280
H26 H 0.61060 0.73300 0.06600
H27 H 0.56000 0.58170 0.06060
C21 C -0.1023(3) 0.9800(4) 0.24883(10)
H28 H -0.15740 0.95730 0.23620
H29 H -0.11650 1.06130 0.26250
H30 H -0.08550 0.89610 0.26140
H31 H 0.0053(17) 0.675(3) 0.1784(5)
#END
