
#######################################################################
#
#                 Cambridge Crystallographic Data Centre
#                                CCDC
#
#######################################################################
#
# If this CIF has been generated from an entry in the Cambridge
# Structural Database, then it will include bibliographic, chemical,
# crystal, experimental, refinement or atomic coordinate data resulting
# from the CCDC's data processing and validation procedures.
#
#######################################################################

data_CSD_CIF_VAXZUQ
_audit_creation_date 2006-02-21
_audit_creation_method CSD-ConQuest-V1
_database_code_CSD VAXZUQ
_database_code_depnum_ccdc_archive 'CCDC 275655'
_chemical_formula_sum 'C19 H19 N1 O6'
_chemical_formula_moiety
;
C19 H19 N1 O6
;
_journal_coden_Cambridge 24
_journal_volume 46
_journal_year 2005
_journal_page_first 6633
_journal_name_full 'Tetrahedron Lett. '
loop_
_publ_author_name
"G.Mehta"
"H.M.Shinde"
_chemical_name_systematic
;
(-)-(3aR,4R,5R,7aS)-4-(3-butenyl)-2-oxo-2,3,3a,4,5,7a-hexahydrobenzo(b)furan-5
-yl 4-nitrobenzoate
;
_cell_volume   1791.512
_exptl_crystal_density_diffrn 1.325
_diffrn_ambient_temperature 293
#These two values have been output from a single CSD field.
_refine_ls_R_factor_gt 0.0835
_refine_ls_wR_factor_gt 0.0835
_symmetry_cell_setting orthorhombic
_symmetry_space_group_name_H-M 'P 21 21 21'
_symmetry_Int_Tables_number 19
loop_
_symmetry_equiv_pos_site_id
_symmetry_equiv_pos_as_xyz
1 x,y,z
2 1/2-x,-y,1/2+z
3 -x,1/2+y,1/2-z
4 1/2+x,1/2-y,-z
_cell_length_a 4.8563(7)
_cell_length_b 15.617(2)
_cell_length_c 23.622(4)
_cell_angle_alpha 90
_cell_angle_beta 90
_cell_angle_gamma 90
_cell_formula_units_Z 4
loop_
_atom_type_symbol
_atom_type_radius_bond
C 0.68
H 0.23
N 0.68
O 0.68
loop_
_atom_site_label
_atom_site_type_symbol
_atom_site_fract_x
_atom_site_fract_y
_atom_site_fract_z
C1 C -0.0785(11) 0.4019(3) 0.14521(17)
O1 O 0.0777(7) 0.35168(19) 0.23336(11)
O2 O 0.2536(9) 0.4756(2) 0.20126(13)
O3 O 0.0366(7) 0.2892(2) 0.43981(12)
O4 O 0.0087(7) 0.1514(2) 0.46427(14)
C2 C 0.2628(9) 0.2724(3) 0.31205(16)
H1 H 0.07910 0.24750 0.31670
C3 C 0.2307(11) 0.3613(3) 0.28667(17)
H2 H 0.41290 0.38550 0.27890
C4 C 0.2646(12) 0.1531(3) 0.2372(2)
H3 H 0.17010 0.11230 0.26130
H4 H 0.12580 0.18640 0.21760
C5 C 0.1040(11) 0.4151(3) 0.19507(17)
N1 N -0.6216(11) 0.3798(4) 0.00670(17)
C6 C 0.3923(9) 0.2836(3) 0.37134(16)
H5 H 0.58180 0.30450 0.36760
C7 C 0.1296(10) 0.2085(4) 0.44026(17)
C8 C -0.0986(12) 0.4670(3) 0.10574(19)
H6 H 0.00770 0.51620 0.11000
C9 C 0.0734(12) 0.4204(3) 0.3243(2)
H7 H -0.02270 0.46560 0.30790
C10 C -0.4061(11) 0.3204(3) 0.09186(18)
H8 H -0.50830 0.27060 0.08650
C11 C -0.2319(10) 0.3283(3) 0.13767(17)
H9 H -0.21760 0.28380 0.16370
C12 C -0.2733(12) 0.4601(3) 0.06033(19)
H10 H -0.28800 0.50420 0.03400
C13 C -0.4259(11) 0.3868(3) 0.05452(17)
C14 C 0.3892(9) 0.2011(3) 0.40615(18)
H11 H 0.38430 0.15120 0.38180
H12 H 0.54940 0.19760 0.43060
O5 O -0.7788(11) 0.3194(3) 0.00574(18)
C15 C 0.4334(9) 0.2125(3) 0.27399(17)
H13 H 0.54980 0.24720 0.24970
H14 H 0.55300 0.17820 0.29780
C16 C 0.2264(11) 0.3447(3) 0.40914(18)
H15 H 0.35120 0.37220 0.43620
C17 C 0.0652(13) 0.4112(3) 0.3795(2)
H16 H -0.04560 0.44780 0.40070
O6 O -0.6243(14) 0.4365(4) -0.02768(19)
C18 C 0.4289(13) 0.1059(3) 0.1952(2)
H17 H 0.57710 0.07420 0.20860
C19 C 0.3853(17) 0.1046(4) 0.1414(2)
H18 H 0.23930 0.13550 0.12610
H19 H 0.49990 0.07290 0.11790
#END
