
#######################################################################
#
#                 Cambridge Crystallographic Data Centre
#                                CCDC
#
#######################################################################
#
# If this CIF has been generated from an entry in the Cambridge
# Structural Database, then it will include bibliographic, chemical,
# crystal, experimental, refinement or atomic coordinate data resulting
# from the CCDC's data processing and validation procedures.
#
#######################################################################

data_CSD_CIF_VAYSEU
_audit_creation_date 2006-02-21
_audit_creation_method CSD-ConQuest-V1
_database_code_CSD VAYSEU
_database_code_depnum_ccdc_archive 'CCDC 232064'
_chemical_formula_sum 'C23 H26 N2 O4'
_chemical_formula_moiety
;
C23 H26 N2 O4
;
_journal_coden_Cambridge 1003
_journal_volume 35
_journal_year 2005
_journal_page_first 751
_journal_name_full 'J.Chem.Cryst. '
loop_
_publ_author_name
"K.Palani"
"D.Thirumalai"
"P.Ambalavanan"
"M.N.Ponnuswamy"
"V.T.Ramakrishnan"
_chemical_name_systematic
;
9-(4-nitrophenyl)-3,3,6,6-tetramethyl-3,4,5,6,7,9,10-hexahydro-1,8(2H,5H)-acri
dinedione
;
_chemical_melting_point 531.15
_cell_volume   2074.038
_exptl_crystal_density_diffrn 1.263
_exptl_special_details
;
Melting point range 531.15-533.15K

;
_exptl_crystal_preparation 'chloroform/methanol'
_diffrn_ambient_temperature 293
#These two values have been output from a single CSD field.
_refine_ls_R_factor_gt 0.0521
_refine_ls_wR_factor_gt 0.0521
_symmetry_cell_setting orthorhombic
_symmetry_space_group_name_H-M 'P 21 21 21'
_symmetry_Int_Tables_number 19
loop_
_symmetry_equiv_pos_site_id
_symmetry_equiv_pos_as_xyz
1 x,y,z
2 1/2-x,-y,1/2+z
3 -x,1/2+y,1/2-z
4 1/2+x,1/2-y,-z
_cell_length_a 5.9716(1)
_cell_length_b 18.0476(3)
_cell_length_c 19.2445(2)
_cell_angle_alpha 90
_cell_angle_beta 90
_cell_angle_gamma 90
_cell_formula_units_Z 4
loop_
_atom_type_symbol
_atom_type_radius_bond
C 0.68
H 0.23
N 0.68
O 0.68
loop_
_atom_site_label
_atom_site_type_symbol
_atom_site_fract_x
_atom_site_fract_y
_atom_site_fract_z
C1 C 0.3080(4) 0.50134(12) 0.15386(12)
C2 C 0.3336(4) 0.48987(14) 0.07627(12)
H1 H 0.25140 0.52840 0.05210
H2 H 0.26760 0.44260 0.06370
C3 C 0.5771(4) 0.49112(13) 0.05195(11)
C4 C 0.7077(4) 0.43234(12) 0.09363(12)
H3 H 0.67150 0.38350 0.07580
H4 H 0.86700 0.44020 0.08710
C5 C 0.9045(4) 0.31793(13) 0.30288(14)
H5 H 1.03300 0.34040 0.32540
H6 H 0.95870 0.28770 0.26480
C6 C 0.7819(4) 0.26909(12) 0.35468(12)
C7 C 0.6693(6) 0.32024(14) 0.40771(13)
H7 H 0.57820 0.29020 0.43850
H8 H 0.78490 0.34340 0.43570
C8 C 0.5239(4) 0.38030(13) 0.37705(12)
C9 C 0.4486(4) 0.47162(11) 0.27688(11)
H9 H 0.276(4) 0.4628(2) 0.2887(3)
N1 N 0.8128(3) 0.39658(9) 0.20802(8)
H10 H 0.94140 0.38510 0.19100
C10 C 0.7555(4) 0.37762(12) 0.27484(12)
C11 C 0.5849(4) 0.40896(11) 0.30871(11)
C12 C 0.4789(4) 0.46786(11) 0.19837(11)
C13 C 0.6558(4) 0.43480(11) 0.16905(12)
O1 O 0.3581(4) 0.40385(11) 0.40836(10)
O2 O 0.1482(3) 0.53504(10) 0.17827(9)
C14 C 0.5203(4) 0.54652(11) 0.30709(11)
C15 C 0.3844(5) 0.58310(14) 0.35404(14)
H11 H 0.24590 0.56280 0.36530
C16 C 0.4489(5) 0.64918(14) 0.38479(15)
H12 H 0.35620 0.67300 0.41660
C17 C 0.6535(5) 0.67864(13) 0.36706(14)
C18 C 0.7920(5) 0.64435(14) 0.31972(13)
H13 H 0.92860 0.66550 0.30770
C19 C 0.7255(4) 0.57817(13) 0.29032(13)
H14 H 0.81930 0.55440 0.25880
N2 N 0.7286(6) 0.74816(15) 0.39982(17)
O3 O 0.9039(8) 0.77559(18) 0.3815(2)
O4 O 0.6133(6) 0.77501(15) 0.44657(18)
C20 C 0.6800(5) 0.56763(13) 0.06494(13)
H15 H 0.68470 0.57710 0.11400
H16 H 0.59050 0.60480 0.04250
H17 H 0.82920 0.56890 0.04640
C21 C 0.5931(5) 0.47306(16) -0.02542(12)
H18 H 0.74740 0.47310 -0.03940
H19 H 0.51250 0.50960 -0.05160
H20 H 0.52960 0.42500 -0.03390
C22 C 0.6063(5) 0.22206(14) 0.31727(17)
H21 H 0.51740 0.19600 0.35090
H22 H 0.67980 0.18700 0.28750
H23 H 0.51150 0.25360 0.28990
C23 C 0.9497(6) 0.21845(16) 0.39187(16)
H24 H 1.05780 0.24820 0.41610
H25 H 1.02480 0.18790 0.35830
H26 H 0.87160 0.18760 0.42450
#END
