
#######################################################################
#
#                 Cambridge Crystallographic Data Centre
#                                CCDC
#
#######################################################################
#
# If this CIF has been generated from an entry in the Cambridge
# Structural Database, then it will include bibliographic, chemical,
# crystal, experimental, refinement or atomic coordinate data resulting
# from the CCDC's data processing and validation procedures.
#
#######################################################################

data_CSD_CIF_VAYTAR
_audit_creation_date 2006-02-21
_audit_creation_method CSD-ConQuest-V1
_database_code_CSD VAYTAR
_database_code_depnum_ccdc_archive 'CCDC 293852'
_chemical_formula_sum 'C24 H24 N6 O4'
_chemical_formula_moiety
;
C24 H24 N6 O4
;
_journal_coeditor_code "IUCr CF6473"
_journal_coden_Cambridge 1370
_journal_volume 61
_journal_year 2005
_journal_page_first o4243
_journal_name_full 'Acta Crystallogr.,Sect.E:Struct.Rep.Online '
loop_
_publ_author_name
"I.Bouabdallah"
"A.Ramdani"
"I.Zidane"
"D.Eddike"
"M.Tillard"
"C.Belin"
_chemical_name_systematic
;
5,5'-dipropyl-1,1'-bis(2-nitrophenyl)-3,3'-bipyrazole
;
_cell_volume   2258.406
_exptl_crystal_colour 'yellow'
_exptl_crystal_density_diffrn 1.354
_exptl_crystal_description 'parallelepiped'
_exptl_crystal_preparation 'ethanol/dichloromethane'
_diffrn_ambient_temperature 173
_refine_special_details
;
Possible disorder of the propyl groups was not modelled.

;
#These two values have been output from a single CSD field.
_refine_ls_R_factor_gt 0.0759
_refine_ls_wR_factor_gt 0.0759
_symmetry_cell_setting orthorhombic
_symmetry_space_group_name_H-M 'P 21 21 21'
_symmetry_Int_Tables_number 19
loop_
_symmetry_equiv_pos_site_id
_symmetry_equiv_pos_as_xyz
1 x,y,z
2 1/2-x,-y,1/2+z
3 -x,1/2+y,1/2-z
4 1/2+x,1/2-y,-z
_cell_length_a 7.720(1)
_cell_length_b 16.200(2)
_cell_length_c 18.058(2)
_cell_angle_alpha 90
_cell_angle_beta 90
_cell_angle_gamma 90
_cell_formula_units_Z 4
loop_
_atom_type_symbol
_atom_type_radius_bond
C 0.68
H 0.23
N 0.68
O 0.68
loop_
_atom_site_label
_atom_site_type_symbol
_atom_site_fract_x
_atom_site_fract_y
_atom_site_fract_z
N1 N 0.5402(4) 0.09983(19) 0.25189(16)
N2 N 0.6576(4) 0.1607(2) 0.26679(16)
N3 N 0.5711(4) 0.2439(2) 0.1312(2)
N4 N 0.1889(4) 0.0503(2) 0.37744(16)
N5 N 0.0618(4) -0.00646(19) 0.36518(17)
N6 N 0.1536(5) -0.0360(2) 0.51802(19)
O1 O 0.5131(4) 0.2268(2) 0.07033(18)
O2 O 0.4919(4) 0.2803(2) 0.17819(17)
O3 O 0.2443(4) -0.08637(19) 0.48523(16)
O4 O 0.2039(4) 0.0053(2) 0.57040(18)
C1 C 0.7879(5) 0.1787(2) 0.2132(2)
C2 C 0.9576(5) 0.1552(2) 0.2261(2)
H1 H 0.98630 0.12780 0.26970
C3 C 1.0848(5) 0.1722(2) 0.1743(2)
H2 H 1.19910 0.15750 0.18390
C4 C 1.0429(5) 0.2113(2) 0.1081(2)
H3 H 1.12880 0.22280 0.07340
C5 C 0.8737(5) 0.2326(3) 0.0942(2)
H4 H 0.84380 0.25730 0.04950
C6 C 0.7489(5) 0.2171(2) 0.1465(2)
C7 C 0.6274(5) 0.2002(2) 0.3325(2)
C8 C 0.7331(5) 0.2707(2) 0.3588(2)
H5 H 0.65700 0.31010 0.38290
H6 H 0.78380 0.29790 0.31620
C9 C 0.8747(7) 0.2487(3) 0.4113(3)
H7 H 0.96130 0.21820 0.38360
H8 H 0.92860 0.29980 0.42730
C10 C 0.8346(7) 0.2017(3) 0.4765(3)
H9 H 0.76410 0.23420 0.50910
H10 H 0.94000 0.18670 0.50130
H11 H 0.77290 0.15260 0.46270
C11 C 0.4858(5) 0.1620(2) 0.3617(2)
H12 H 0.43260 0.17400 0.40660
C12 C 0.4363(5) 0.1017(2) 0.3113(2)
C13 C 0.2893(5) 0.0447(2) 0.31717(19)
C14 C -0.0682(5) -0.0172(2) 0.4203(2)
C15 C -0.0266(5) -0.0270(2) 0.4947(2)
C16 C -0.1520(5) -0.0317(3) 0.5480(2)
H13 H -0.12170 -0.03570 0.59770
C17 C -0.3241(5) -0.0306(3) 0.5273(2)
H14 H -0.40980 -0.03670 0.56310
C18 C -0.3698(5) -0.0208(3) 0.4544(2)
H15 H -0.48600 -0.01920 0.44100
C19 C -0.2420(5) -0.0132(2) 0.4009(2)
H16 H -0.27300 -0.00530 0.35160
C20 C 0.0827(5) -0.0482(2) 0.29981(19)
C21 C -0.0431(5) -0.1109(2) 0.2719(2)
H17 H -0.12690 -0.12300 0.31040
H18 H 0.01830 -0.16150 0.26040
C22 C -0.1381(6) -0.0808(3) 0.2029(2)
H19 H -0.19350 -0.02840 0.21350
H20 H -0.05490 -0.07190 0.16340
C23 C -0.2740(6) -0.1423(3) 0.1770(3)
H21 H -0.22210 -0.19580 0.17170
H22 H -0.32010 -0.12480 0.13020
H23 H -0.36580 -0.14500 0.21280
C24 C 0.2287(5) -0.0158(2) 0.2684(2)
H24 H 0.27810 -0.03110 0.22350
#END
