
#######################################################################
#
#                 Cambridge Crystallographic Data Centre
#                                CCDC
#
#######################################################################
#
# If this CIF has been generated from an entry in the Cambridge
# Structural Database, then it will include bibliographic, chemical,
# crystal, experimental, refinement or atomic coordinate data resulting
# from the CCDC's data processing and validation procedures.
#
#######################################################################

data_CSD_CIF_VAYYAW
_audit_creation_date 2006-02-21
_audit_creation_method CSD-ConQuest-V1
_database_code_CSD VAYYAW
_database_code_depnum_ccdc_archive 'CCDC 293872'
_chemical_formula_sum 'C10 H11 N1 O5'
_chemical_formula_moiety
;
C10 H11 N1 O5
;
_journal_coeditor_code "IUCr CV6598"
_journal_coden_Cambridge 1370
_journal_volume 61
_journal_year 2005
_journal_page_first o3994
_journal_name_full 'Acta Crystallogr.,Sect.E:Struct.Rep.Online '
loop_
_publ_author_name
"Fen-Fang Li"
"Feng-Ping Xiao"
"Zhao-Bing Xu"
"Long-Fei Jin"
"Qian-Li Guo"
_chemical_name_systematic
;
1-propyl 5-nitrosalicylate
;
_cell_volume   1073.510
_exptl_crystal_colour 'colorless'
_exptl_crystal_density_diffrn 1.393
_exptl_crystal_description 'block'
_exptl_crystal_preparation 'ethanol'
_diffrn_ambient_temperature 292
#These two values have been output from a single CSD field.
_refine_ls_R_factor_gt 0.0561
_refine_ls_wR_factor_gt 0.0561
_symmetry_cell_setting monoclinic
_symmetry_space_group_name_H-M 'P 21/c'
_symmetry_Int_Tables_number 14
loop_
_symmetry_equiv_pos_site_id
_symmetry_equiv_pos_as_xyz
1 x,y,z
2 -x,1/2+y,1/2-z
3 -x,-y,-z
4 x,-1/2-y,-1/2+z
_cell_length_a 5.1084(8)
_cell_length_b 11.5966(18)
_cell_length_c 18.166(3)
_cell_angle_alpha 90
_cell_angle_beta 94.018(3)
_cell_angle_gamma 90
_cell_formula_units_Z 4
loop_
_atom_type_symbol
_atom_type_radius_bond
C 0.68
H 0.23
N 0.68
O 0.68
loop_
_atom_site_label
_atom_site_type_symbol
_atom_site_fract_x
_atom_site_fract_y
_atom_site_fract_z
C1 C 0.4602(5) 0.1332(2) 0.40666(13)
C2 C 0.4666(5) 0.0179(2) 0.38380(14)
C3 C 0.6364(6) -0.0155(2) 0.33112(15)
H1 H 0.64290 -0.09250 0.31690
C4 C 0.7935(6) 0.0634(3) 0.29997(15)
H2 H 0.90580 0.04090 0.26450
C5 C 0.7827(5) 0.1769(2) 0.32212(14)
C6 C 0.6214(5) 0.2120(2) 0.37442(14)
H3 H 0.61950 0.28900 0.38860
C7 C 0.2856(5) 0.1677(2) 0.46351(14)
C8 C 0.1412(6) 0.3146(3) 0.54101(17)
H4 H 0.13300 0.25740 0.57970
H5 H -0.03430 0.32570 0.51810
C9 C 0.2444(6) 0.4249(3) 0.57238(18)
H6 H 0.27010 0.47780 0.53220
H7 H 0.11350 0.45830 0.60220
C10 C 0.4913(7) 0.4147(3) 0.61775(19)
H8 H 0.46760 0.36380 0.65850
H9 H 0.54410 0.48930 0.63610
H10 H 0.62430 0.38410 0.58840
H11 H 0.214(8) -0.027(3) 0.4446(19)
N1 N 0.9513(5) 0.2619(3) 0.28870(14)
O1 O 0.3162(4) -0.06473(16) 0.41089(12)
O2 O 0.1262(4) 0.10288(17) 0.48777(11)
O3 O 0.3172(3) 0.27576(16) 0.4862(1)
O4 O 0.9513(6) 0.3599(2) 0.31125(15)
O5 O 1.0843(5) 0.2307(2) 0.23965(14)
#END
