
#######################################################################
#
#                 Cambridge Crystallographic Data Centre
#                                CCDC
#
#######################################################################
#
# If this CIF has been generated from an entry in the Cambridge
# Structural Database, then it will include bibliographic, chemical,
# crystal, experimental, refinement or atomic coordinate data resulting
# from the CCDC's data processing and validation procedures.
#
#######################################################################

data_CSD_CIF_VAZJOY
_audit_creation_date 2017-09-07
_audit_creation_method CSD-ConQuest-V1
_database_code_CSD VAZJOY
_database_code_depnum_ccdc_archive 'CCDC 1499597'
_chemical_formula_sum 'C21 H17 N1 O6'
_chemical_formula_moiety
;
C21 H17 N1 O6
;
_journal_coden_Cambridge 2020
_journal_volume 2
_journal_year 2017
_journal_page_first 3334
_journal_name_full 'Chem. Sel. '
loop_
_publ_author_name
"A.O.Terentev"
"V.A.Vil"
"E.S.Gorlov"
"O.N.Rusina"
"A.A.Korlyukov"
"G.I.Nikishin"
"W.Adam"
_chemical_name_systematic
;
1-(((4-benzyl-5-oxo-3-phenyl-4,5-dihydro-1,2-oxazol-4-yl)oxy)carbonyl)cyclopro
panecarboxylic acid
;
_cell_volume   1831.060
_exptl_crystal_colour 'colorless'
_exptl_crystal_density_diffrn 1.376
_exptl_crystal_description 'block'
_diffrn_ambient_temperature 120
#These two values have been output from a single CSD field.
_refine_ls_R_factor_gt 0.0452
_refine_ls_wR_factor_gt 0.0452
_symmetry_cell_setting monoclinic
_symmetry_space_group_name_H-M 'P 21/n'
_symmetry_Int_Tables_number 14
loop_
_symmetry_equiv_pos_site_id
_symmetry_equiv_pos_as_xyz
1 x,y,z
2 1/2-x,1/2+y,1/2-z
3 -x,-y,-z
4 -1/2+x,-1/2-y,-1/2+z
_cell_length_a 11.977(1)
_cell_length_b 6.3979(6)
_cell_length_c 23.896(2)
_cell_angle_alpha 90
_cell_angle_beta 90.353(2)
_cell_angle_gamma 90
_cell_formula_units_Z 4
loop_
_atom_type_symbol
_atom_type_radius_bond
C 0.68
H 0.23
N 0.68
O 0.68
loop_
_atom_site_label
_atom_site_type_symbol
_atom_site_fract_x
_atom_site_fract_y
_atom_site_fract_z
O1 O 0.69832(6) 0.62666(12) 0.35297(3)
O2 O 0.50130(7) 0.98640(13) 0.31066(4)
O3 O 0.66106(7) 0.95379(14) 0.26380(4)
O4 O 0.86588(8) 1.00932(15) 0.46578(4)
H1 H 0.90650 1.07470 0.48930
O5 O 0.69839(7) 0.94778(14) 0.39072(4)
O6 O 1.00881(8) 0.78786(16) 0.46375(4)
N1 N 0.44213(8) 0.86794(17) 0.35223(5)
C1 C 0.59591(10) 0.88381(18) 0.29611(5)
C2 C 0.48635(9) 0.51971(17) 0.24162(5)
C3 C 0.59505(9) 0.67072(17) 0.32474(5)
C4 C 0.49511(9) 0.69693(18) 0.36167(5)
C5 C 0.91585(10) 0.84382(18) 0.44748(5)
C6 C 0.38186(10) 0.4382(2) 0.25448(5)
H2 H 0.37120 0.36750 0.28900
C7 C 0.85540(9) 0.71616(18) 0.40523(5)
C8 C 0.74408(9) 0.78280(18) 0.38410(5)
C9 C 0.58369(9) 0.49478(18) 0.28126(5)
H3 H 0.65330 0.48820 0.25920
H4 H 0.57590 0.36000 0.30120
C10 C 0.45012(10) 0.54312(19) 0.40105(5)
C11 C 0.41169(12) 0.6423(2) 0.15365(6)
H5 H 0.42220 0.71270 0.11910
C12 C 0.93186(10) 0.6071(2) 0.36277(5)
H6 H 0.90250 0.58600 0.32440
H7 H 1.01290 0.63720 0.36500
C13 C 0.50047(11) 0.6202(2) 0.19066(5)
H8 H 0.57170 0.67440 0.18110
C14 C 0.88274(11) 0.48221(19) 0.40782(5)
H9 H 0.93300 0.43390 0.43820
H10 H 0.82270 0.38270 0.39760
C15 C 0.51289(12) 0.3702(2) 0.41676(6)
H11 H 0.58670 0.35370 0.40310
C16 C 0.29320(11) 0.4592(2) 0.21738(6)
H12 H 0.22220 0.40290 0.22650
C17 C 0.30784(11) 0.5621(2) 0.16692(6)
H13 H 0.24700 0.57750 0.14160
C18 C 0.34215(12) 0.5671(2) 0.42172(6)
H14 H 0.29870 0.68540 0.41140
C19 C 0.46816(14) 0.2211(2) 0.45244(6)
H15 H 0.51110 0.10240 0.46290
C20 C 0.36143(14) 0.2454(3) 0.47267(6)
H16 H 0.33090 0.14370 0.49720
C21 C 0.29882(14) 0.4178(3) 0.45733(7)
H17 H 0.22530 0.43380 0.47140
#END
