
#######################################################################
#
#                 Cambridge Crystallographic Data Centre
#                                CCDC
#
#######################################################################
#
# If this CIF has been generated from an entry in the Cambridge
# Structural Database, then it will include bibliographic, chemical,
# crystal, experimental, refinement or atomic coordinate data resulting
# from the CCDC's data processing and validation procedures.
#
#######################################################################

data_CSD_CIF_VAZKUF
_audit_creation_date 2017-09-07
_audit_creation_method CSD-ConQuest-V1
_database_code_CSD VAZKUF
_database_code_depnum_ccdc_archive 'CCDC 1524995'
_chemical_formula_sum 'C31 H27 N3 O4'
_chemical_formula_moiety
;
C31 H27 N3 O4
;
_journal_coden_Cambridge 1122
_journal_volume 35
_journal_year 2017
_journal_page_first 857
_journal_name_full 'Chin.J.Chem. '
loop_
_publ_author_name
"Wei-Jia Lin"
"Gu Zhan"
"Ming-Lin Shi"
"Wei Du"
"Ying-Chun Chen"
_chemical_name_systematic
;
2'-benzyl-4'-(benzyloxy)-1-methyl-6'-phenyl-5'H-spiro[indole-3,3'-[1,2,4]oxadi
azinane]-2,5'(1H)-dione
;
_cell_volume   2676.339
_exptl_crystal_colour 'light colorless'
_exptl_crystal_density_diffrn 1.257
_exptl_special_details
;
H005 has been supressed to charge balance the structure

;
_exptl_crystal_description 'irregular'
_diffrn_ambient_temperature 295.2
#These two values have been output from a single CSD field.
_refine_ls_R_factor_gt 0.0605
_refine_ls_wR_factor_gt 0.0605
_symmetry_cell_setting monoclinic
_symmetry_space_group_name_H-M 'P 21/n'
_symmetry_Int_Tables_number 14
loop_
_symmetry_equiv_pos_site_id
_symmetry_equiv_pos_as_xyz
1 x,y,z
2 1/2-x,1/2+y,1/2-z
3 -x,-y,-z
4 -1/2+x,-1/2-y,-1/2+z
_cell_length_a 8.91948(14)
_cell_length_b 20.7295(3)
_cell_length_c 14.8956(2)
_cell_angle_alpha 90
_cell_angle_beta 103.6512(16)
_cell_angle_gamma 90
_cell_formula_units_Z 4
loop_
_atom_type_symbol
_atom_type_radius_bond
C 0.68
H 0.23
N 0.68
O 0.68
loop_
_atom_site_label
_atom_site_type_symbol
_atom_site_fract_x
_atom_site_fract_y
_atom_site_fract_z
O1 O 0.47364(13) 0.60023(6) 0.74132(8)
O2 O 0.52146(15) 0.78746(6) 0.79505(9)
O3 O 0.66573(16) 0.73582(7) 0.6725(1)
O4 O 0.68756(15) 0.71256(8) 0.97563(10)
N1 N 0.53383(16) 0.61890(7) 0.83732(9)
N2 N 0.43768(18) 0.73384(8) 0.98066(10)
N3 N 0.51364(17) 0.72188(7) 0.77327(10)
C1 C 0.30139(18) 0.69034(8) 0.84434(11)
C2 C 0.59430(18) 0.70071(9) 0.71272(11)
C3 C 0.5506(2) 0.71132(9) 0.94209(12)
C4 C 0.47036(18) 0.68281(8) 0.84506(11)
C5 C 0.2896(2) 0.72202(9) 0.92450(12)
C6 C 0.1707(2) 0.67233(10) 0.77979(13)
H1 H 0.17780 0.65110 0.72590
C7 C 0.57588(19) 0.62872(9) 0.69202(11)
H2 H 0.67690 0.60760 0.71000
C8 C 0.5653(2) 0.50809(9) 0.89453(13)
C9 C 0.5076(2) 0.61769(9) 0.59022(12)
C10 C 0.4768(2) 0.57002(9) 0.89230(13)
H3 H 0.36820 0.56210 0.86580
H4 H 0.48760 0.58580 0.95480
C11 C 0.4141(2) 0.89052(10) 0.76692(15)
C12 C 0.1489(2) 0.73749(11) 0.94205(15)
H5 H 0.14200 0.75940 0.99540
C13 C 0.0280(2) 0.68656(12) 0.79704(15)
H6 H -0.06170 0.67420 0.75470
C14 C 0.7086(3) 0.50082(13) 0.95207(17)
H7 H 0.75370 0.53480 0.98980
C15 C 0.4000(3) 0.82294(11) 0.73218(16)
H8 H 0.29950 0.80530 0.73280
H9 H 0.41390 0.82100 0.66960
C16 C 0.0178(2) 0.71886(12) 0.87655(17)
H10 H -0.07890 0.72830 0.88640
C17 C 0.4686(3) 0.76720(13) 1.06845(15)
H11 H 0.57510 0.76160 1.09940
H12 H 0.40450 0.74980 1.10600
H13 H 0.44690 0.81230 1.05820
C18 C 0.5845(3) 0.58322(15) 0.53699(18)
H14 H 0.68140 0.56610 0.56300
C19 C 0.3677(3) 0.64369(15) 0.54927(16)
H15 H 0.31650 0.66890 0.58430
C20 C 0.5006(4) 0.45695(12) 0.83930(18)
H16 H 0.40240 0.46120 0.80100
C21 C 0.3691(3) 0.90626(13) 0.84651(18)
H17 H 0.32550 0.87470 0.87680
C22 C 0.4745(4) 0.93834(14) 0.7227(2)
H18 H 0.50490 0.92920 0.66840
C23 C 0.3740(4) 0.59866(17) 0.40473(18)
H19 H 0.32830 0.59150 0.34270
C24 C 0.7211(5) 0.39291(14) 0.8969(3)
H20 H 0.77410 0.35420 0.89720
C25 C 0.7874(4) 0.44217(17) 0.9541(2)
H21 H 0.88400 0.43670 0.99390
C26 C 0.3003(4) 0.63339(17) 0.45678(19)
H22 H 0.20350 0.65060 0.43070
C27 C 0.5791(5) 0.39997(14) 0.8401(2)
H23 H 0.53490 0.36620 0.80180
C28 C 0.4486(5) 1.01411(16) 0.8379(3)
H24 H 0.46170 1.05560 0.86230
C29 C 0.5170(4) 0.5738(2) 0.4432(2)
H25 H 0.56940 0.55050 0.40680
C30 C 0.3875(4) 0.96761(17) 0.8819(2)
H26 H 0.35790 0.97720 0.93630
C31 C 0.4906(5) 1.00080(16) 0.7589(4)
H27 H 0.53040 1.03330 0.72830
H28? H 0.64690 0.62000 0.85280
#END
