
#######################################################################
#
#                 Cambridge Crystallographic Data Centre
#                                CCDC
#
#######################################################################
#
# If this CIF has been generated from an entry in the Cambridge
# Structural Database, then it will include bibliographic, chemical,
# crystal, experimental, refinement or atomic coordinate data resulting
# from the CCDC's data processing and validation procedures.
#
#######################################################################

data_CSD_CIF_VAZMEO
_audit_creation_date 1990-06-27
_audit_creation_method CSD-ConQuest-V1
_database_code_CSD VAZMEO
_chemical_formula_sum 'C19 H24 N2 O5'
_chemical_formula_moiety
;
C19 H24 N2 O5
;
_journal_coden_Cambridge 154
_journal_volume 42
_journal_year 1989
_journal_page_first 1547
_journal_name_full 'Aust.J.Chem. '
loop_
_publ_author_name
"M.P.Hartshorn"
"W.T.Robinson"
"A.G.Waller"
"G.J.Wright"
_chemical_name_systematic
;
c-6-Benzyl-2-t-butyl-4,6-dimethyl-r-4,t-5-dinitrocyclohex-2-enone
;
_chemical_melting_point 376.15
_cell_volume   1870.714
_exptl_crystal_colour 'colorless'
_exptl_crystal_density_diffrn 1.28
_exptl_special_details
;
Melting point range 376.15-378.15K

;
_diffrn_ambient_temperature 183
#These two values have been output from a single CSD field.
_refine_ls_R_factor_gt 0.045
_refine_ls_wR_factor_gt 0.045
loop_
_citation_database_id_CSD
_citation_special_details
VAZMIS "is a stereoisomer of this entry"
_symmetry_cell_setting monoclinic
_symmetry_space_group_name_H-M 'P 21/a'
_symmetry_Int_Tables_number 14
loop_
_symmetry_equiv_pos_site_id
_symmetry_equiv_pos_as_xyz
1 x,y,z
2 1/2-x,1/2+y,-z
3 -x,-y,-z
4 -1/2+x,-1/2-y,z
_cell_length_a 10.244(3)
_cell_length_b 11.838(3)
_cell_length_c 15.436(4)
_cell_angle_alpha 90
_cell_angle_beta 92.04(2)
_cell_angle_gamma 90
_cell_formula_units_Z 4
loop_
_atom_type_symbol
_atom_type_radius_bond
C 0.68
H 0.23
N 0.68
O 0.68
loop_
_atom_site_label
_atom_site_type_symbol
_atom_site_fract_x
_atom_site_fract_y
_atom_site_fract_z
C1 C 0.7474(4) 0.0306(3) 0.7385(2)
C2 C 0.6146(4) -0.0096(3) 0.7638(2)
C3 C 0.6052(4) -0.0736(3) 0.8353(2)
C4 C 0.7138(5) -0.1004(4) 0.8992(3)
C5 C 0.8408(4) -0.0381(3) 0.8804(2)
C6 C 0.8662(4) -0.0236(3) 0.7834(2)
C7 C 0.4944(4) 0.0288(4) 0.7102(3)
C8 C 0.3698(4) -0.0265(4) 0.7413(3)
C9 C 0.4805(5) 0.1563(4) 0.7225(3)
C10 C 0.5067(5) 0.0003(4) 0.6140(3)
C11 C 0.6707(5) -0.0847(4) 0.9930(3)
C12 C 0.9891(4) 0.0477(4) 0.7728(3)
C13 C 0.8853(4) -0.1431(3) 0.7421(2)
C14 C 0.9331(5) -0.1437(3) 0.6502(2)
C15 C 0.8466(4) -0.1426(4) 0.5797(3)
C16 C 0.8909(5) -0.1465(4) 0.4964(3)
C17 C 1.0216(6) -0.1494(4) 0.4815(3)
C18 C 1.1088(5) -0.1501(4) 0.5512(3)
C19 C 1.0657(5) -0.1479(3) 0.6349(3)
N1 N 0.7466(5) -0.2281(3) 0.8954(2)
N2 N 0.8350(4) 0.0780(3) 0.9210(3)
O1 O 0.7605(3) 0.1007(2) 0.6815(2)
O2 O 0.6669(4) -0.2910(3) 0.8570(2)
O3 O 0.8449(3) -0.2662(3) 0.9335(2)
O4 O 0.7603(3) 0.1480(3) 0.8883(2)
O5 O 0.9055(4) 0.0975(3) 0.9841(2)
H1 H 0.52090 -0.10490 0.84630
H2 H 0.91080 -0.08360 0.90440
H3 H 0.35240 -0.00610 0.80130
H4 H 0.37420 -0.10890 0.73610
H5 H 0.29940 0.00240 0.70270
H6 H 0.47250 0.16970 0.78470
H7 H 0.40110 0.18230 0.69130
H8 H 0.55610 0.19770 0.70180
H9 H 0.42570 0.02350 0.58330
H10 H 0.51590 -0.08200 0.61050
H11 H 0.58120 0.03650 0.58720
H12 H 0.64950 -0.00430 0.99820
H13 H 0.74330 -0.10340 1.03350
H14 H 0.59410 -0.13000 1.00680
H15 H 1.06210 0.00660 0.80090
H16 H 0.98030 0.12180 0.80040
H17 H 1.00580 0.05790 0.71120
H18 H 0.80280 -0.18160 0.74180
H19 H 0.94770 -0.18380 0.77800
H20 H 0.75440 -0.13910 0.58860
H21 H 0.82910 -0.14730 0.44820
H22 H 1.05180 -0.15090 0.42340
H23 H 1.20080 -0.15220 0.54160
H24 H 1.12790 -0.14940 0.68290
#END
