
#######################################################################
#
#                 Cambridge Crystallographic Data Centre
#                                CCDC
#
#######################################################################
#
# If this CIF has been generated from an entry in the Cambridge
# Structural Database, then it will include bibliographic, chemical,
# crystal, experimental, refinement or atomic coordinate data resulting
# from the CCDC's data processing and validation procedures.
#
#######################################################################

data_CSD_CIF_VAZMAL
_audit_creation_date 2006-02-21
_audit_creation_method CSD-ConQuest-V1
_database_code_CSD VAZMAL
_database_code_depnum_ccdc_archive 'CCDC 296613'
_chemical_formula_sum 'C24 H27 N1 O3'
_chemical_formula_moiety
;
C24 H27 N1 O3
;
_journal_coeditor_code "IUCr LH6566"
_journal_coden_Cambridge 1370
_journal_volume 62
_journal_year 2006
_journal_page_first o165
_journal_name_full 'Acta Crystallogr.,Sect.E:Struct.Rep.Online '
loop_
_publ_author_name
"J.N.Low"
"J.Cobo"
"M.Nogueras"
"A.E.Loaiza"
"L.M.Jaramillo-Gomez"
_chemical_name_systematic
;
Methyl 
2-benzyl-1-benzyloxy-6a-methyl-1,2,3,3a,4,6a-hexahydro-1-azapentalene-3a-carbo
xylate
;
_chemical_melting_point 355
_cell_volume   4066.231
_exptl_crystal_colour 'colorless'
_exptl_crystal_density_diffrn 1.233
_exptl_crystal_description 'plate'
_exptl_crystal_preparation 'ethanol'
_diffrn_ambient_temperature 120
#These two values have been output from a single CSD field.
_refine_ls_R_factor_gt 0.0547
_refine_ls_wR_factor_gt 0.0547
_symmetry_cell_setting orthorhombic
_symmetry_space_group_name_H-M 'P b c a'
_symmetry_Int_Tables_number 61
loop_
_symmetry_equiv_pos_site_id
_symmetry_equiv_pos_as_xyz
1 x,y,z
2 1/2-x,-y,1/2+z
3 1/2+x,1/2-y,-z
4 -x,1/2+y,1/2-z
5 -x,-y,-z
6 -1/2+x,y,-1/2-z
7 -1/2-x,-1/2+y,z
8 x,-1/2-y,-1/2+z
_cell_length_a 8.8410(17)
_cell_length_b 20.584(4)
_cell_length_c 22.344(2)
_cell_angle_alpha 90
_cell_angle_beta 90
_cell_angle_gamma 90
_cell_formula_units_Z 8
loop_
_atom_type_symbol
_atom_type_radius_bond
C 0.68
H 0.23
N 0.68
O 0.68
loop_
_atom_site_label
_atom_site_type_symbol
_atom_site_fract_x
_atom_site_fract_y
_atom_site_fract_z
N1 N 0.34560(14) 0.15468(6) 0.61087(5)
O1 O 0.25222(12) 0.14741(5) 0.55813(5)
C1 C 0.15344(18) 0.09243(8) 0.56498(7)
C2 C 0.07975(17) 0.08382(7) 0.50510(7)
C3 C 0.15277(19) 0.05002(8) 0.46007(8)
C4 C 0.0873(2) 0.04383(10) 0.40405(8)
C5 C -0.0513(3) 0.07179(10) 0.39271(9)
C6 C -0.1252(2) 0.10536(10) 0.43739(11)
C7 C -0.06004(19) 0.11148(8) 0.49326(9)
C8 C 0.32646(16) 0.22132(7) 0.63345(7)
C9 C 0.17335(17) 0.22926(7) 0.66419(7)
C10 C 0.13840(17) 0.29887(7) 0.68005(7)
C11 C 0.04210(18) 0.33563(8) 0.64441(7)
C12 C 0.01202(19) 0.40019(9) 0.65715(8)
C13 C 0.0776(2) 0.42919(9) 0.70642(9)
C14 C 0.1720(2) 0.39336(9) 0.74298(9)
C15 C 0.20282(18) 0.32876(8) 0.72997(7)
C16 C 0.46432(17) 0.22611(8) 0.67422(7)
C17 C 0.59306(17) 0.19107(8) 0.63972(7)
C18 C 0.68804(18) 0.14638(8) 0.67829(8)
O2 O 0.82136(14) 0.13675(7) 0.67205(7)
O3 O 0.60534(14) 0.11550(6) 0.71958(5)
C19 C 0.6850(3) 0.06932(9) 0.75659(9)
C20 C 0.6937(2) 0.23914(9) 0.60414(9)
C21 C 0.6389(2) 0.23438(9) 0.54132(9)
C22 C 0.53930(19) 0.18767(9) 0.53393(8)
C23 C 0.50606(17) 0.15025(8) 0.59043(7)
C24 C 0.54885(19) 0.07899(8) 0.58369(8)
H1 H 0.07670 0.10090 0.59630
H2 H 0.21170 0.05320 0.57610
H3 H 0.24870 0.03090 0.46760
H4 H 0.13790 0.02030 0.37350
H5 H -0.09580 0.06800 0.35420
H6 H -0.22130 0.12430 0.42970
H7 H -0.11140 0.13480 0.52380
H8 H 0.33580 0.25310 0.59980
H9 H 0.09310 0.21250 0.63740
H10 H 0.17220 0.20270 0.70110
H11 H -0.00410 0.31600 0.61050
H12 H -0.05360 0.42450 0.63200
H13 H 0.05790 0.47360 0.71510
H14 H 0.21620 0.41300 0.77720
H15 H 0.26840 0.30470 0.75530
H16 H 0.44470 0.20450 0.71300
H17 H 0.49100 0.27210 0.68180
H18 H 0.72290 0.03370 0.73160
H19 H 0.61600 0.05190 0.78690
H20 H 0.77020 0.09100 0.77630
H21 H 0.68170 0.28390 0.61960
H22 H 0.80160 0.22660 0.60690
H23 H 0.67240 0.26210 0.51000
H24 H 0.49270 0.17840 0.49660
H25 H 0.52360 0.05560 0.62060
H26 H 0.65770 0.07540 0.57600
H27 H 0.49280 0.06000 0.55010
#END
