
#######################################################################
#
#                 Cambridge Crystallographic Data Centre
#                                CCDC
#
#######################################################################
#
# If this CIF has been generated from an entry in the Cambridge
# Structural Database, then it will include bibliographic, chemical,
# crystal, experimental, refinement or atomic coordinate data resulting
# from the CCDC's data processing and validation procedures.
#
#######################################################################

data_CSD_CIF_VAZNEP
_audit_creation_date 1990-07-26
_audit_creation_method CSD-ConQuest-V1
_database_code_CSD VAZNEP
_chemical_formula_sum 'C19 H25 N1 O4'
_chemical_formula_moiety
;
C19 H25 N1 O4
;
_journal_coden_Cambridge 154
_journal_volume 42
_journal_year 1989
_journal_page_first 1547
_journal_name_full 'Aust.J.Chem. '
loop_
_publ_author_name
"M.P.Hartshorn"
"W.T.Robinson"
"A.G.Waller"
"G.J.Wright"
_chemical_name_systematic
;
t-6-Benzyl-4-t-butyl-r-2-hydroxy-2,6-dimethyl-t-5-nitrocyclohex-3-enone
;
_chemical_melting_point 437.15
_cell_volume   1753.240
_exptl_crystal_colour 'colorless'
_exptl_crystal_density_diffrn 1.26
_exptl_special_details
;
Melting point range 437.15-438.15K

;
_diffrn_ambient_temperature 173
#These two values have been output from a single CSD field.
_refine_ls_R_factor_gt 0.056
_refine_ls_wR_factor_gt 0.056
_symmetry_cell_setting monoclinic
_symmetry_space_group_name_H-M 'P 21/c'
_symmetry_Int_Tables_number 14
loop_
_symmetry_equiv_pos_site_id
_symmetry_equiv_pos_as_xyz
1 x,y,z
2 -x,1/2+y,1/2-z
3 -x,-y,-z
4 x,-1/2-y,-1/2+z
_cell_length_a 9.075(7)
_cell_length_b 25.474(14)
_cell_length_c 7.605(3)
_cell_angle_alpha 90
_cell_angle_beta 94.26(5)
_cell_angle_gamma 90
_cell_formula_units_Z 4
loop_
_atom_type_symbol
_atom_type_radius_bond
C 0.68
H 0.23
N 0.68
O 0.68
loop_
_atom_site_label
_atom_site_type_symbol
_atom_site_fract_x
_atom_site_fract_y
_atom_site_fract_z
C1 C 0.3928(6) 0.6819(3) -0.1526(10)
C2 C 0.4591(6) 0.6474(2) -0.2892(11)
C3 C 0.3978(6) 0.5933(2) -0.2993(9)
C4 C 0.3071(6) 0.5716(2) -0.1898(10)
C5 C 0.2598(6) 0.6042(2) -0.0394(9)
C6 C 0.2470(6) 0.6630(2) -0.0773(8)
C7 C 0.6271(6) 0.6466(2) -0.264(1)
C8 C 0.2401(6) 0.5171(2) -0.2171(9)
C9 C 0.3045(7) 0.4878(2) -0.3688(10)
C10 C 0.0703(6) 0.5239(3) -0.2671(12)
C11 C 0.2614(8) 0.4840(2) -0.0533(9)
C12 C 0.1253(6) 0.6699(2) -0.2312(8)
C13 C 0.2122(6) 0.6969(2) 0.0798(8)
C14 C 0.0613(6) 0.6876(2) 0.1517(10)
C15 C 0.0450(7) 0.6543(3) 0.2891(10)
C16 C -0.0935(7) 0.6468(3) 0.3562(10)
C17 C -0.2148(7) 0.6728(3) 0.2810(11)
C18 C -0.1995(7) 0.7062(3) 0.1452(11)
C19 C -0.0620(6) 0.7145(2) 0.0762(9)
N1 N 0.3691(6) 0.5963(2) 0.1183(9)
O1 O 0.4458(4) 0.7243(2) -0.1130(6)
O2 O 0.4124(4) 0.6710(2) -0.4587(7)
O3 O 0.3328(5) 0.5718(2) 0.2463(7)
O4 O 0.4918(5) 0.6162(2) 0.1104(7)
H1 H 0.42650 0.57170 -0.39450
H2 H 0.16220 0.59250 -0.01830
H3 H 0.66130 0.63010 -0.15190
H4 H 0.66390 0.68270 -0.26650
H5 H 0.66460 0.62670 -0.36170
H6 H 0.41040 0.48470 -0.33480
H7 H 0.29020 0.50790 -0.47860
H8 H 0.26150 0.45280 -0.38660
H9 H 0.03210 0.48830 -0.28710
H10 H 0.05290 0.54450 -0.37540
H11 H 0.01960 0.54050 -0.17220
H12 H 0.36850 0.47920 -0.03390
H13 H 0.21410 0.45000 -0.07860
H14 H 0.22320 0.49920 0.05260
H15 H 0.03600 0.65390 -0.18980
H16 H 0.14500 0.65490 -0.34570
H17 H 0.11080 0.70790 -0.24340
H18 H 0.28670 0.69040 0.17350
H19 H 0.21660 0.73300 0.04420
H20 H 0.12950 0.63580 0.34090
H21 H -0.10320 0.62360 0.45410
H22 H -0.31020 0.66720 0.32450
H23 H -0.28470 0.72460 0.09480
H24 H -0.05300 0.73810 -0.02060
H25 H 0.45030 0.70700 -0.46260
#END
