
#######################################################################
#
#                 Cambridge Crystallographic Data Centre
#                                CCDC
#
#######################################################################
#
# If this CIF has been generated from an entry in the Cambridge
# Structural Database, then it will include bibliographic, chemical,
# crystal, experimental, refinement or atomic coordinate data resulting
# from the CCDC's data processing and validation procedures.
#
#######################################################################

data_CSD_CIF_VAZRIX
_audit_creation_date 1990-07-27
_audit_creation_method CSD-ConQuest-V1
_database_code_CSD VAZRIX
_database_code_depnum_ccdc_archive 'CCDC 1280928'
_chemical_formula_sum 'C24 H30 N2 O6'
_chemical_formula_moiety
;
C24 H30 N2 O6
;
_journal_coden_Cambridge 182
_journal_year 1989
_journal_page_first 1523
_journal_name_full 'Chem.Commun. '
loop_
_publ_author_name
"D.W.Wiley"
"J.C.Calabrese"
"J.S.Miller"
_chemical_name_systematic
;
2,4-Hexadiyne-1,6-diyl-bis(2,2,5,5-tetramethyl-1-oxyl-3-pyrroline-3-carboxylat
e)
;
_chemical_melting_point 377.15
_cell_volume   1240.149
_exptl_crystal_colour 'golden yellow'
_exptl_crystal_density_diffrn 1.185
_exptl_special_details
;
Melting point range 377.15-378.15K
alpha-polymorph

;
_diffrn_ambient_temperature 203.15
#These two values have been output from a single CSD field.
_refine_ls_R_factor_gt 0.066
_refine_ls_wR_factor_gt 0.066
_symmetry_cell_setting monoclinic
_symmetry_space_group_name_H-M 'P 21/n'
_symmetry_Int_Tables_number 14
loop_
_symmetry_equiv_pos_site_id
_symmetry_equiv_pos_as_xyz
1 x,y,z
2 1/2-x,1/2+y,1/2-z
3 -x,-y,-z
4 -1/2+x,-1/2-y,-1/2+z
_cell_length_a 5.867(3)
_cell_length_b 21.894(3)
_cell_length_c 9.711(3)
_cell_angle_alpha 90
_cell_angle_beta 96.18(2)
_cell_angle_gamma 90
_cell_formula_units_Z 2
loop_
_atom_type_symbol
_atom_type_radius_bond
C 0.68
H 0.23
N 0.68
O 0.68
loop_
_atom_site_label
_atom_site_type_symbol
_atom_site_fract_x
_atom_site_fract_y
_atom_site_fract_z
O1 O 0.3830(7) 0.1008(2) 0.2931(5)
O2 O 0.2259(8) 0.0360(2) 0.4328(6)
O3 O 0.0301(7) 0.2205(2) 0.7613(5)
N1 N 0.1151(8) 0.2018(2) 0.6545(6)
C1 C 0.4409(14) 0.0496(4) 0.2133(9)
C2 C 0.2480(16) 0.0278(4) 0.1204(9)
C3 C 0.0926(15) 0.0097(3) 0.0443(9)
C4 C 0.2721(10) 0.0870(3) 0.4048(7)
C5 C 0.2250(9) 0.1414(3) 0.4839(6)
C6 C 0.0992(9) 0.1381(3) 0.6089(7)
C7 C 0.2182(9) 0.2428(3) 0.5597(6)
C8 C 0.2848(9) 0.1975(3) 0.4568(6)
C9 C -0.1539(10) 0.1199(3) 0.5751(8)
C10 C 0.2089(11) 0.0972(3) 0.7252(8)
C11 C 0.4253(10) 0.2765(3) 0.6348(7)
C12 C 0.0435(11) 0.2898(3) 0.4974(7)
H1 H 0.49590 0.01750 0.27410
H2 H 0.56340 0.06020 0.16180
H3 H 0.36220 0.20990 0.38050
H4 H -0.16310 0.07850 0.54560
H5 H -0.22350 0.14540 0.50340
H6 H -0.23130 0.12450 0.65560
H7 H 0.19910 0.05580 0.69600
H8 H 0.13030 0.10220 0.80490
H9 H 0.36540 0.10820 0.74650
H10 H 0.48970 0.30270 0.57140
H11 H 0.53690 0.24750 0.67040
H12 H 0.37690 0.29990 0.70860
H13 H 0.11420 0.31580 0.43620
H14 H -0.00910 0.31340 0.56950
H15 H -0.08200 0.26920 0.44770
C3B C -0.0926(15) -0.0097(3) -0.0443(9)
C2B C -0.2480(16) -0.0278(4) -0.1204(9)
C1B C -0.4409(14) -0.0496(4) -0.2133(9)
O1B O -0.3830(7) -0.1008(2) -0.2931(5)
H1B H -0.49590 -0.01750 -0.27410
H2B H -0.56340 -0.06020 -0.16180
C4B C -0.2721(10) -0.0870(3) -0.4048(7)
O2B O -0.2259(8) -0.0360(2) -0.4328(6)
C5B C -0.2250(9) -0.1414(3) -0.4839(6)
C6B C -0.0992(9) -0.1381(3) -0.6089(7)
C8B C -0.2848(9) -0.1975(3) -0.4568(6)
N1B N -0.1151(8) -0.2018(2) -0.6545(6)
C9B C 0.1539(10) -0.1199(3) -0.5751(8)
C10B C -0.2089(11) -0.0972(3) -0.7252(8)
C7B C -0.2182(9) -0.2428(3) -0.5597(6)
H3B H -0.36220 -0.20990 -0.38050
O3B O -0.0301(7) -0.2205(2) -0.7613(5)
H4B H 0.16310 -0.07850 -0.54560
H5B H 0.22350 -0.14540 -0.50340
H6B H 0.23130 -0.12450 -0.65560
H7B H -0.19910 -0.05580 -0.69600
H8B H -0.13030 -0.10220 -0.80490
H9B H -0.36540 -0.10820 -0.74650
C11B C -0.4253(10) -0.2765(3) -0.6348(7)
C12B C -0.0435(11) -0.2898(3) -0.4974(7)
H10B H -0.48970 -0.30270 -0.57140
H11B H -0.53690 -0.24750 -0.67040
H12B H -0.37690 -0.29990 -0.70860
H13B H -0.11420 -0.31580 -0.43620
H14B H 0.00910 -0.31340 -0.56950
H15B H 0.08200 -0.26920 -0.44770
#END
