
#######################################################################
#
#                 Cambridge Crystallographic Data Centre
#                                CCDC
#
#######################################################################
#
# If this CIF has been generated from an entry in the Cambridge
# Structural Database, then it will include bibliographic, chemical,
# crystal, experimental, refinement or atomic coordinate data resulting
# from the CCDC's data processing and validation procedures.
#
#######################################################################

data_CSD_CIF_VEBDIQ
_audit_creation_date 2006-05-24
_audit_creation_method CSD-ConQuest-V1
_database_code_CSD VEBDIQ
_database_code_depnum_ccdc_archive 'CCDC 283014'
_chemical_formula_sum 'C12 H13 N1 O5'
_chemical_formula_moiety
;
C12 H13 N1 O5
;
_journal_coden_Cambridge 4
_journal_volume 128
_journal_year 2006
_journal_page_first 1062
_journal_name_full 'J.Am.Chem.Soc. '
loop_
_publ_author_name
"M.Shindo"
"T.Kita"
"T.Kumagai"
"K.Matsumoto"
"K.Shishido"
_chemical_name_systematic
;
(E)-3-Ethoxy-2-methyl-3-(4-nitrophenyl)propenoic acid
;
_chemical_melting_point 464.15
_cell_volume   1198.315
_exptl_crystal_colour 'yellow'
_exptl_crystal_density_diffrn 1.392
_exptl_special_details
;
Melting point range 464.15-465.15K

;
_exptl_crystal_description 'platelet'
_diffrn_ambient_temperature 173.1
#These two values have been output from a single CSD field.
_refine_ls_R_factor_gt 0.0637
_refine_ls_wR_factor_gt 0.0637
_symmetry_cell_setting monoclinic
_symmetry_space_group_name_H-M 'P 21/c'
_symmetry_Int_Tables_number 14
loop_
_symmetry_equiv_pos_site_id
_symmetry_equiv_pos_as_xyz
1 x,y,z
2 -x,1/2+y,1/2-z
3 -x,-y,-z
4 x,-1/2-y,-1/2+z
_cell_length_a 13.5842(7)
_cell_length_b 11.6824(6)
_cell_length_c 7.5787(3)
_cell_angle_alpha 90
_cell_angle_beta 94.8997(14)
_cell_angle_gamma 90
_cell_formula_units_Z 4
loop_
_atom_type_symbol
_atom_type_radius_bond
C 0.68
H 0.23
N 0.68
O 0.68
loop_
_atom_site_label
_atom_site_type_symbol
_atom_site_fract_x
_atom_site_fract_y
_atom_site_fract_z
O1 O -0.03365(12) 0.57730(16) 0.1777(2)
O2 O 0.10498(12) 0.47884(16) 0.1456(2)
O3 O 0.20383(12) 0.61090(14) 0.6460(2)
O4 O 0.44182(13) 0.11488(14) 0.3797(2)
O5 O 0.52127(13) 0.23931(18) 0.2372(2)
N1 N 0.45301(14) 0.21214(18) 0.3240(2)
C1 C 0.05481(16) 0.5468(2) 0.2325(3)
C2 C 0.09430(16) 0.5956(2) 0.4015(3)
C3 C 0.17880(16) 0.55743(19) 0.4905(3)
C4 C 0.03825(17) 0.6922(2) 0.4784(3)
C5 C 0.2869(2) 0.5733(2) 0.7607(3)
C6 C 0.2908(2) 0.6425(2) 0.9257(3)
C7 C 0.24664(16) 0.46577(19) 0.4375(2)
C8 C 0.23083(16) 0.3519(2) 0.4810(3)
C9 C 0.29807(17) 0.2682(2) 0.4439(3)
C10 C 0.38106(16) 0.30020(19) 0.3632(2)
C11 C 0.39901(17) 0.4127(2) 0.3186(3)
C12 C 0.33125(17) 0.4950(2) 0.3570(3)
H1 H 0.06180 0.76540 0.43500
H2 H 0.04890 0.69020 0.60790
H3 H -0.03240 0.68390 0.44250
H4 H 0.34870 0.58360 0.70180
H5 H 0.28000 0.49110 0.78880
H6 H 0.33100 0.71100 0.91180
H7 H 0.32020 0.59680 1.02510
H8 H 0.22370 0.66520 0.94910
H9 H 0.17330 0.33150 0.53670
H10 H 0.28730 0.19050 0.47340
H11 H 0.45660 0.43270 0.26280
H12 H 0.34260 0.57270 0.32800
H13 H -0.05270 0.55900 0.06020
#END
