
#######################################################################
#
#                 Cambridge Crystallographic Data Centre
#                                CCDC
#
#######################################################################
#
# If this CIF has been generated from an entry in the Cambridge
# Structural Database, then it will include bibliographic, chemical,
# crystal, experimental, refinement or atomic coordinate data resulting
# from the CCDC's data processing and validation procedures.
#
#######################################################################

data_CSD_CIF_VEBPEX
_audit_creation_date 1990-06-28
_audit_creation_method CSD-ConQuest-V1
_database_code_CSD VEBPEX
_chemical_formula_sum 'C6 H11 N1 O5'
_chemical_formula_moiety
;
C6 H11 N1 O5
;
_journal_coden_Cambridge 376
_journal_volume 26
_journal_year 1987
_journal_page_first 1391
_journal_name_full 'Phytochemistry '
loop_
_publ_author_name
"G.Deffieux"
"R.Baute"
"M.-A.Baute"
"M.Atfani"
"A.Carpy"
_chemical_name_systematic
;
1,5-D-Anhydrofructose-2-oxime
;
_chemical_melting_point 428.15
_cell_volume    801.186
_exptl_crystal_density_diffrn 1.469
_exptl_special_details
;
Melting point range 428.15-430.15K
Coordinates for O10 have been supplied by the author
;
_diffrn_ambient_temperature ?
_diffrn_special_details
;
The study was carried out at room temperature,in the range 283-303K

;
#These two values have been output from a single CSD field.
_refine_ls_R_factor_gt 0.051
_refine_ls_wR_factor_gt 0.051
_chemical_compound_source
;
Microthrecin-less strain of Morchella vulgaris
;
_symmetry_cell_setting orthorhombic
_symmetry_space_group_name_H-M 'P 21 21 21'
_symmetry_Int_Tables_number 19
loop_
_symmetry_equiv_pos_site_id
_symmetry_equiv_pos_as_xyz
1 x,y,z
2 1/2+x,1/2-y,-z
3 -x,1/2+y,1/2-z
4 1/2-x,-y,1/2+z
_cell_length_a 7.882(3)
_cell_length_b 9.384(5)
_cell_length_c 10.832(6)
_cell_angle_alpha 90
_cell_angle_beta 90
_cell_angle_gamma 90
_cell_formula_units_Z 4
loop_
_atom_type_symbol
_atom_type_radius_bond
C 0.68
H 0.23
N 0.68
O 0.68
loop_
_atom_site_label
_atom_site_type_symbol
_atom_site_fract_x
_atom_site_fract_y
_atom_site_fract_z
C1 C 0.5441(7) -0.1434(5) 0.1100(4)
C2 C 0.5734(5) -0.2395(5) 0.0012(5)
C3 C 0.5621(6) -0.1685(4) -0.1240(4)
C4 C 0.6500(6) -0.0248(4) -0.1250(4)
C5 C 0.5992(6) 0.0628(4) -0.0131(4)
C6 C 0.6902(7) 0.2034(4) -0.0074(5)
O1 O 0.6414(4) -0.0150(3) 0.0959(2)
O2 O 0.6399(5) 0.2856(3) 0.0960(3)
O3 O 0.6067(5) 0.0515(3) -0.2333(3)
O4 O 0.63190 -0.25240 -0.21960
O5 O 0.6022(5) -0.4268(3) 0.1243(3)
N1 N 0.5994(5) -0.3715(4) 0.0038(4)
H1 H 0.418(5) -0.114(4) 0.110(4)
H2 H 0.574(6) -0.189(5) 0.192(4)
H3 H 0.440(5) -0.149(4) -0.140(3)
H4 H 0.777(5) -0.039(4) -0.124(4)
H5 H 0.470(5) 0.074(4) -0.010(4)
H6 H 0.815(7) 0.185(5) -0.006(6)
H7 H 0.677(7) 0.250(6) -0.081(5)
H8 H 0.668(8) 0.249(6) 0.177(5)
H9 H 0.629(7) 0.007(5) -0.306(5)
H10 H 0.562(7) -0.329(6) -0.240(5)
H11 H 0.602(8) -0.525(6) 0.118(5)
#END
