
#######################################################################
#
#                 Cambridge Crystallographic Data Centre
#                                CCDC
#
#######################################################################
#
# If this CIF has been generated from an entry in the Cambridge
# Structural Database, then it will include bibliographic, chemical,
# crystal, experimental, refinement or atomic coordinate data resulting
# from the CCDC's data processing and validation procedures.
#
#######################################################################

data_CSD_CIF_VEBVOQ
_audit_creation_date 2017-09-08
_audit_creation_method CSD-ConQuest-V1
_database_code_CSD VEBVOQ
_database_code_depnum_ccdc_archive 'CCDC 1550329'
_chemical_formula_sum 'C32 H31 N1 O7'
_chemical_formula_moiety
;
C32 H31 N1 O7
;
_journal_coden_Cambridge 1336
_journal_volume 19
_journal_year 2017
_journal_page_first 4500
_journal_name_full 'Org.Lett. '
loop_
_publ_author_name
"G.Sudhakar"
"S.K.Mahesh"
"S.Phani Babu Vemulapalli"
"J.B.Nanubolu"
_chemical_name_systematic
;
Dimethyl 
(2R*,6S*,7S*,7aS*)-5,7a-dimethyl-2-(4-nitrophenyl)-6,7-diphenyl-4,6,7,7a-tetra
hydrocyclopenta[b]pyran-3,3(2H)-dicarboxylate
;
_cell_volume   2744.714
_exptl_crystal_density_diffrn 1.311
_exptl_crystal_description 'Needle'
_exptl_crystal_preparation 'ethanol'
_diffrn_ambient_temperature 100
#These two values have been output from a single CSD field.
_refine_ls_R_factor_gt 0.0397
_refine_ls_wR_factor_gt 0.0397
_symmetry_cell_setting monoclinic
_symmetry_space_group_name_H-M 'P 21/c'
_symmetry_Int_Tables_number 14
loop_
_symmetry_equiv_pos_site_id
_symmetry_equiv_pos_as_xyz
1 x,y,z
2 -x,1/2+y,1/2-z
3 -x,-y,-z
4 x,-1/2-y,-1/2+z
_cell_length_a 11.548(3)
_cell_length_b 19.304(5)
_cell_length_c 13.589(3)
_cell_angle_alpha 90
_cell_angle_beta 115.034(6)
_cell_angle_gamma 90
_cell_formula_units_Z 4
loop_
_atom_type_symbol
_atom_type_radius_bond
C 0.68
H 0.23
N 0.68
O 0.68
loop_
_atom_site_label
_atom_site_type_symbol
_atom_site_fract_x
_atom_site_fract_y
_atom_site_fract_z
C1 C 0.65636(13) 0.39447(6) 0.94486(10)
C2 C 0.53655(13) 0.39500(7) 0.94719(11)
H1 H 0.46340 0.38050 0.88500
C3 C 0.52315(14) 0.41643(7) 1.03925(12)
H2 H 0.44130 0.41620 1.04000
C4 C 0.62943(14) 0.43815(7) 1.13030(11)
H3 H 0.62050 0.45210 1.19380
C5 C 0.74849(14) 0.43949(7) 1.12848(11)
H4 H 0.82100 0.45530 1.19010
C6 C 0.76158(13) 0.41759(7) 1.03603(11)
H5 H 0.84340 0.41850 1.03520
C7 C 0.67103(12) 0.36913(6) 0.84497(10)
H6 H 0.76400 0.36870 0.86130
C8 C 0.59977(12) 0.41157(7) 0.74221(10)
C9 C 0.60385(14) 0.48905(7) 0.74608(11)
H7 H 0.54960 0.50760 0.67400
H8 H 0.69200 0.50480 0.76800
H9 H 0.57260 0.50550 0.79870
C10 C 0.54724(12) 0.37042(7) 0.65596(10)
C11 C 0.57679(12) 0.29481(7) 0.68499(10)
C12 C 0.68089(13) 0.26665(7) 0.65443(11)
H10 H 0.69200 0.21690 0.67030
H11 H 0.76150 0.29080 0.69660
H12 H 0.65600 0.27420 0.57680
C13 C 0.61599(12) 0.29559(6) 0.80897(10)
H13 H 0.53440 0.29380 0.81790
C14 C 0.69573(12) 0.23540(7) 0.87408(10)
C15 C 0.82632(13) 0.24019(7) 0.94056(12)
H14 H 0.86980 0.28240 0.94330
C16 C 0.89421(14) 0.18418(8) 1.00307(12)
H15 H 0.98310 0.18840 1.04800
C17 C 0.83180(14) 0.12224(7) 0.99960(12)
H16 H 0.87700 0.08430 1.04360
C18 C 0.70248(14) 0.11611(7) 0.93123(11)
H17 H 0.65990 0.07330 0.92690
C19 C 0.63513(13) 0.17202(7) 0.86924(11)
H18 H 0.54680 0.16710 0.82290
C20 C 0.46290(12) 0.38773(7) 0.5400(1)
H19 H 0.50770 0.37780 0.49350
H20 H 0.44000 0.43750 0.53300
C21 C 0.34091(12) 0.34253(6) 0.50484(10)
C22 C 0.25686(13) 0.35257(6) 0.38383(11)
C23 C 0.04500(15) 0.35071(9) 0.24791(12)
H21 H 0.05020 0.39620 0.21810
H22 H -0.04240 0.34290 0.24000
H23 H 0.06790 0.31470 0.20850
C24 C 0.26701(12) 0.36206(6) 0.57114(10)
C25 C 0.18123(15) 0.45580(7) 0.62845(13)
H24 H 0.09550 0.43540 0.59830
H25 H 0.17430 0.50640 0.62310
H26 H 0.22700 0.44230 0.70480
C26 C 0.38786(12) 0.26493(6) 0.52423(10)
H27 H 0.44480 0.25790 0.48650
C27 C 0.28232(12) 0.21139(6) 0.4800(1)
C28 C 0.24026(13) 0.17408(7) 0.54663(10)
H28 H 0.27640 0.18300 0.62250
C29 C 0.14567(13) 0.12388(7) 0.50252(11)
H29 H 0.11730 0.09800 0.54760
C30 C 0.09377(12) 0.11257(7) 0.39119(11)
C31 C 0.13306(13) 0.14876(7) 0.32286(11)
H30 H 0.09520 0.14050 0.24680
C32 C 0.22911(13) 0.19741(7) 0.36846(11)
H31 H 0.25950 0.22170 0.32330
N1 N -0.00422(11) 0.05845(6) 0.34309(9)
O1 O 0.29772(10) 0.36001(5) 0.31658(8)
O2 O 0.13272(9) 0.34826(5) 0.36198(8)
O3 O 0.22930(9) 0.32321(5) 0.62022(8)
O4 O 0.46216(8) 0.25234(4) 0.63622(7)
O5 O -0.05505(10) 0.03446(6) 0.39839(9)
O6 O -0.02964(11) 0.03917(6) 0.24989(8)
O7 O 0.25026(9) 0.43125(5) 0.56822(8)
#END
