
#######################################################################
#
#                 Cambridge Crystallographic Data Centre
#                                CCDC
#
#######################################################################
#
# If this CIF has been generated from an entry in the Cambridge
# Structural Database, then it will include bibliographic, chemical,
# crystal, experimental, refinement or atomic coordinate data resulting
# from the CCDC's data processing and validation procedures.
#
#######################################################################

data_CSD_CIF_VEBWAB
_audit_creation_date 2006-05-24
_audit_creation_method CSD-ConQuest-V1
_database_code_CSD VEBWAB
_database_code_depnum_ccdc_archive 'CCDC 289332'
_chemical_formula_sum 'C18 H20 N4 O4'
_chemical_formula_moiety
;
C18 H20 N4 O4
;
_journal_coden_Cambridge 24
_journal_volume 47
_journal_year 2006
_journal_page_first 1653
_journal_name_full 'Tetrahedron Lett. '
loop_
_publ_author_name
"I.D.Reingold"
"C.Bowerman"
"M.John"
"R.S.Walters Junior"
"B.C.Daglen"
"A.M.Butterfield"
"M.Gembicky"
_chemical_name_systematic
;
Tricyclo[6.2.2.0^2,7^]dodeca-2(7)-en-9-one 2,4-dinitrophenylhydrazone
;
_cell_volume    836.944
_exptl_crystal_colour 'colorless'
_exptl_crystal_density_diffrn 1.414
_exptl_crystal_description 'plate'
_diffrn_ambient_temperature 125
#These two values have been output from a single CSD field.
_refine_ls_R_factor_gt 0.0442
_refine_ls_wR_factor_gt 0.0442
_symmetry_cell_setting triclinic
_symmetry_space_group_name_H-M 'P -1'
_symmetry_Int_Tables_number 2
loop_
_symmetry_equiv_pos_site_id
_symmetry_equiv_pos_as_xyz
1 x,y,z
2 -x,-y,-z
_cell_length_a 6.9383(6)
_cell_length_b 8.0459(7)
_cell_length_c 15.8440(14)
_cell_angle_alpha 96.153(3)
_cell_angle_beta 101.688(3)
_cell_angle_gamma 101.979(3)
_cell_formula_units_Z 2
loop_
_atom_type_symbol
_atom_type_radius_bond
C 0.68
H 0.23
N 0.68
O 0.68
loop_
_atom_site_label
_atom_site_type_symbol
_atom_site_fract_x
_atom_site_fract_y
_atom_site_fract_z
O1 O 0.1690(2) 0.4168(2) 0.53654(11)
N1 N 0.2692(3) 0.2737(2) 0.40031(12)
H1 H 0.17390 0.31700 0.41690
O2 O 0.3590(2) 0.4421(2) 0.66621(11)
C1 C 0.7560(3) 0.2044(3) 0.58176(16)
O3 O 1.0390(2) 0.0944(2) 0.61809(11)
O4 O 0.9472(3) 0.2330(2) 0.72218(12)
N2 N 0.9253(3) 0.1758(3) 0.64478(14)
C2 C 0.4269(3) 0.2530(3) 0.46055(15)
N3 N 0.3204(3) 0.3944(2) 0.58738(13)
C3 C 0.4570(3) 0.3087(3) 0.55111(15)
N4 N 0.2575(3) 0.2266(3) 0.31199(13)
C4 C 0.5729(3) 0.1718(3) 0.43392(16)
H2 H 0.55840 0.13330 0.37370
C5 C 0.7333(3) 0.1481(3) 0.49314(16)
H3 H 0.82930 0.09340 0.47410
C6 C 0.0885(4) 0.2311(3) 0.26163(16)
C7 C 0.6218(3) 0.2847(3) 0.61133(16)
H4 H 0.64040 0.32350 0.67190
C8 C -0.1263(4) 0.0389(3) 0.13478(16)
C9 C -0.0933(4) 0.2727(3) 0.28913(16)
H5 H -0.05950 0.39290 0.31920
H6 H -0.13710 0.19540 0.32980
C10 C 0.0569(4) 0.1891(3) 0.16422(16)
H7 H 0.17910 0.16070 0.14750
C11 C -0.4867(4) -0.0640(4) 0.1410(2)
H8 H -0.58690 -0.03520 0.09430
H9 H -0.54070 -0.06280 0.19430
C12 C -0.2933(4) 0.0685(3) 0.15849(16)
C13 C -0.2630(4) 0.2480(3) 0.20683(16)
H10 H -0.39100 0.26500 0.22230
C14 C 0.0053(4) 0.3484(4) 0.12594(18)
H11 H 0.11800 0.45080 0.15010
H12 H -0.01340 0.32860 0.06170
C15 C -0.1174(4) -0.1274(3) 0.08614(17)
H13 H -0.03800 -0.18810 0.12610
H14 H -0.04740 -0.10430 0.03850
C16 C -0.1905(4) 0.3796(4) 0.14946(18)
H15 H -0.16480 0.49770 0.18130
H16 H -0.29660 0.36760 0.09550
C17 C -0.4598(4) -0.2441(4) 0.1136(2)
H17 H -0.39650 -0.28830 0.16560
H18 H -0.59400 -0.32250 0.08750
C18 C -0.3279(4) -0.2416(4) 0.04776(19)
H19 H -0.39230 -0.19880 -0.00460
H20 H -0.31690 -0.36010 0.02940
#END
