
#######################################################################
#
#                 Cambridge Crystallographic Data Centre
#                                CCDC
#
#######################################################################
#
# If this CIF has been generated from an entry in the Cambridge
# Structural Database, then it will include bibliographic, chemical,
# crystal, experimental, refinement or atomic coordinate data resulting
# from the CCDC's data processing and validation procedures.
#
#######################################################################

data_CSD_CIF_VECBOU
_audit_creation_date 1990-07-27
_audit_creation_method CSD-ConQuest-V1
_database_code_CSD VECBOU
_chemical_formula_sum 'C12 H12 N2 O6'
_chemical_formula_moiety
;
C12 H12 N2 O6
;
_journal_coden_Cambridge 582
_journal_volume 19
_journal_year 1989
_journal_page_first 695
_journal_name_full 'J.Crystallogr.Spectrosc.Res. '
loop_
_publ_author_name
"M.L.Glowka"
"Z.J.Kaminski"
"V.Bertolasi"
"G.Gilli"
_chemical_name_systematic
;
rac-5-(p-Nitrobenzoylamino)-5-methyl-4-oxo-1,3-dioxane
;
_cell_volume   1269.110
_exptl_crystal_density_diffrn 1.466
_diffrn_ambient_temperature ?
_diffrn_special_details
;
The study was carried out at room temperature,in the range 283-303K

;
#These two values have been output from a single CSD field.
_refine_ls_R_factor_gt 0.049
_refine_ls_wR_factor_gt 0.049
_symmetry_cell_setting monoclinic
_symmetry_space_group_name_H-M 'P 21/c'
_symmetry_Int_Tables_number 14
loop_
_symmetry_equiv_pos_site_id
_symmetry_equiv_pos_as_xyz
1 x,y,z
2 -x,1/2+y,1/2-z
3 -x,-y,-z
4 x,-1/2-y,-1/2+z
_cell_length_a 13.333(4)
_cell_length_b 10.154(3)
_cell_length_c 9.597(2)
_cell_angle_alpha 90
_cell_angle_beta 102.37(2)
_cell_angle_gamma 90
_cell_formula_units_Z 4
loop_
_atom_type_symbol
_atom_type_radius_bond
C 0.68
N 0.68
O 0.68
loop_
_atom_site_label
_atom_site_type_symbol
_atom_site_fract_x
_atom_site_fract_y
_atom_site_fract_z
O1 O 0.0773(3) -0.0896(4) 0.8581(4)
O2 O 0.3549(2) 0.0256(4) 0.8968(3)
O3 O 0.1515(3) 0.0803(4) 1.0067(3)
O4 O 0.2106(3) 0.2551(3) 0.9185(3)
O5 O 0.7024(3) 0.1894(4) 0.4434(4)
O6 O 0.7883(3) 0.0911(5) 0.6275(5)
N1 N 0.2545(3) 0.1002(4) 0.6969(3)
N2 N 0.7091(3) 0.1338(4) 0.5579(5)
C1 C 0.3468(3) 0.0710(5) 0.7771(5)
C2 C 0.1300(4) -0.0570(6) 0.9923(6)
C3 C 0.0716(4) 0.1483(6) 0.6585(5)
C4 C 0.1808(4) 0.1440(5) 0.9002(5)
C5 C 0.1629(3) 0.0790(5) 0.7529(4)
C6 C 0.1416(4) -0.0678(6) 0.7592(6)
C7 C 0.4392(3) 0.0915(4) 0.7138(4)
C8 C 0.5273(4) 0.0243(5) 0.7760(5)
C9 C 0.6156(4) 0.0370(5) 0.7262(5)
C10 C 0.6139(3) 0.1198(5) 0.6128(5)
C11 C 0.5300(4) 0.1876(5) 0.5512(5)
C12 C 0.4418(4) 0.1740(5) 0.6012(5)
#END
