
#######################################################################
#
#                 Cambridge Crystallographic Data Centre
#                                CCDC
#
#######################################################################
#
# If this CIF has been generated from an entry in the Cambridge
# Structural Database, then it will include bibliographic, chemical,
# crystal, experimental, refinement or atomic coordinate data resulting
# from the CCDC's data processing and validation procedures.
#
#######################################################################

data_CSD_CIF_VECGIV
_audit_creation_date 2012-10-15
_audit_creation_method CSD-ConQuest-V1
_database_code_CSD VECGIV
_database_code_depnum_ccdc_archive 'CCDC 864398'
_chemical_formula_sum 'C4 H2 N8 O4'
_chemical_formula_moiety
;
C4 H2 N8 O4
;
_journal_coden_Cambridge 1290
_journal_year 2012
_journal_page_first 3474
_journal_name_full 'Eur.J.Inorg.Chem. '
loop_
_publ_author_name
"A.A.Dippold"
"T.M.Klapotke"
"N.Winter"
_chemical_name_systematic
;
5,5'-Dinitro-2H,2'H-3,3'-bi-1,2,4-triazole
;
_cell_volume    394.732
_exptl_crystal_colour 'colorless'
_exptl_crystal_density_diffrn 1.902
_exptl_crystal_description 'block'
_diffrn_ambient_temperature 173
#These two values have been output from a single CSD field.
_refine_ls_R_factor_gt 0.0347
_refine_ls_wR_factor_gt 0.0347
_symmetry_cell_setting monoclinic
_symmetry_space_group_name_H-M 'P 21/n'
_symmetry_Int_Tables_number 14
loop_
_symmetry_equiv_pos_site_id
_symmetry_equiv_pos_as_xyz
1 x,y,z
2 1/2-x,1/2+y,1/2-z
3 -x,-y,-z
4 -1/2+x,-1/2-y,-1/2+z
_cell_length_a 5.0559(6)
_cell_length_b 6.3080(7)
_cell_length_c 12.4268(14)
_cell_angle_alpha 90
_cell_angle_beta 95.136(11)
_cell_angle_gamma 90
_cell_formula_units_Z 2
loop_
_atom_type_symbol
_atom_type_radius_bond
C 0.68
H 0.23
N 0.68
O 0.68
loop_
_atom_site_label
_atom_site_type_symbol
_atom_site_fract_x
_atom_site_fract_y
_atom_site_fract_z
H1 H 0.347(4) 0.276(3) 0.9828(15)
O1 O 0.0911(2) 0.31223(18) 0.60893(8)
O2 O -0.2546(2) 0.50294(17) 0.63663(9)
N1 N -0.1129(2) 0.51017(18) 0.85419(10)
N2 N 0.2347(3) 0.2953(2) 0.82243(10)
N3 N -0.0521(3) 0.40753(19) 0.66841(10)
N4 N 0.2326(3) 0.3353(2) 0.92905(10)
C1 C 0.0256(3) 0.4042(2) 0.78386(11)
C2 C 0.0267(3) 0.4628(2) 0.94671(12)
H1B H -0.347(4) 0.724(3) 1.0172(15)
O1B O -0.0911(2) 0.68777(18) 1.39107(8)
O2B O 0.2546(2) 0.49706(17) 1.36337(9)
N1B N 0.1129(2) 0.48983(18) 1.14581(10)
N2B N -0.2347(3) 0.7047(2) 1.17757(10)
N3B N 0.0521(3) 0.59247(19) 1.33159(10)
N4B N -0.2326(3) 0.6647(2) 1.07095(10)
C1B C -0.0256(3) 0.5958(2) 1.21614(11)
C2B C -0.0267(3) 0.5372(2) 1.05329(12)
#END
