
#######################################################################
#
#                 Cambridge Crystallographic Data Centre
#                                CCDC
#
#######################################################################
#
# If this CIF has been generated from an entry in the Cambridge
# Structural Database, then it will include bibliographic, chemical,
# crystal, experimental, refinement or atomic coordinate data resulting
# from the CCDC's data processing and validation procedures.
#
#######################################################################

data_CSD_CIF_VECXIM
_audit_creation_date 2012-08-20
_audit_creation_method CSD-ConQuest-V1
_database_code_CSD VECXIM
_database_code_depnum_ccdc_archive 'CCDC 729689'
_chemical_formula_sum 'C20 H16 N2 O3'
_chemical_formula_moiety
;
C20 H16 N2 O3
;
_journal_coden_Cambridge 574
_journal_volume 93
_journal_year 2012
_journal_page_first 1408
_journal_name_full 'Dyes Pigm. '
loop_
_publ_author_name
"Xiang Han Zhang"
"Yong-Hua Zhan"
"Dan Chen"
"Fu Wang"
"Lan Ying Wang"
_chemical_name_systematic
;
4-((5-(Benzyloxy)-1H-indol-3-yl)methylene)-3-methyl-1,2-oxazol-5(4H)-one
;
_chemical_melting_point 513.15
_cell_volume   1589.038
_exptl_crystal_colour 'red'
_exptl_crystal_density_diffrn 1.389
_exptl_special_details
;
Melting point range 513.15-515.15K

;
_diffrn_ambient_temperature 298
#These two values have been output from a single CSD field.
_refine_ls_R_factor_gt 0.0618
_refine_ls_wR_factor_gt 0.0618
_symmetry_cell_setting monoclinic
_symmetry_space_group_name_H-M 'P 21/n'
_symmetry_Int_Tables_number 14
loop_
_symmetry_equiv_pos_site_id
_symmetry_equiv_pos_as_xyz
1 x,y,z
2 1/2-x,1/2+y,1/2-z
3 -x,-y,-z
4 -1/2+x,-1/2-y,-1/2+z
_cell_length_a 7.3056(19)
_cell_length_b 19.681(5)
_cell_length_c 11.445(3)
_cell_angle_alpha 90
_cell_angle_beta 105.063(4)
_cell_angle_gamma 90
_cell_formula_units_Z 4
loop_
_atom_type_symbol
_atom_type_radius_bond
C 0.68
H 0.23
N 0.68
O 0.68
loop_
_atom_site_label
_atom_site_type_symbol
_atom_site_fract_x
_atom_site_fract_y
_atom_site_fract_z
N1 N 0.1561(3) 1.17069(10) 0.36528(19)
H1 H 0.12560 1.20830 0.32680
N2 N 0.6610(4) 1.09103(12) 0.9276(2)
O1 O 0.0264(3) 0.90197(8) 0.25159(16)
O2 O 0.5201(3) 1.21629(9) 0.71281(17)
O3 O 0.6463(3) 1.16054(9) 0.88410(16)
C1 C -0.0789(5) 0.76796(15) 0.2526(3)
H2 H -0.03870 0.79140 0.32530
C2 C -0.1070(5) 0.69852(16) 0.2537(3)
H3 H -0.08410 0.67550 0.32710
C3 C -0.1684(5) 0.66340(15) 0.1475(3)
H4 H -0.18950 0.61680 0.14850
C4 C -0.1987(5) 0.69730(15) 0.0396(3)
H5 H -0.23880 0.67350 -0.03270
C5 C -0.1701(5) 0.76639(14) 0.0376(3)
H6 H -0.19140 0.78890 -0.03620
C6 C -0.1100(4) 0.80273(13) 0.1444(2)
C7 C -0.0876(4) 0.87868(13) 0.1384(2)
H7 H -0.02810 0.89020 0.07450
H8 H -0.21100 0.90040 0.12070
C8 C 0.0470(4) 0.97104(12) 0.2691(2)
C9 C -0.0281(4) 1.01931(13) 0.1799(2)
H9 H -0.09740 1.00510 0.10370
C10 C -0.0004(4) 1.08780(13) 0.2037(2)
H10 H -0.05100 1.12020 0.14510
C11 C 0.1044(4) 1.10637(12) 0.3169(2)
C12 C 0.1815(4) 1.05916(12) 0.4078(2)
C13 C 0.1504(4) 0.99022(12) 0.3832(2)
H11 H 0.19820 0.95780 0.44240
C14 C 0.2591(4) 1.16573(12) 0.4793(2)
H12 H 0.30830 1.20230 0.52900
C15 C 0.2826(4) 1.09720(12) 0.5135(2)
C16 C 0.3779(4) 1.06802(12) 0.6240(2)
H13 H 0.36520 1.02100 0.62470
C17 C 0.4857(4) 1.09336(12) 0.7313(2)
C18 C 0.5437(4) 1.16228(13) 0.7663(2)
C19 C 0.5682(4) 1.05450(14) 0.8378(2)
C20 C 0.5566(4) 0.97953(14) 0.8507(2)
H14 H 0.63210 0.96600 0.92910
H15 H 0.60300 0.95760 0.78920
H16 H 0.42710 0.96660 0.84230
#END
