
#######################################################################
#
#                 Cambridge Crystallographic Data Centre
#                                CCDC
#
#######################################################################
#
# If this CIF has been generated from an entry in the Cambridge
# Structural Database, then it will include bibliographic, chemical,
# crystal, experimental, refinement or atomic coordinate data resulting
# from the CCDC's data processing and validation procedures.
#
#######################################################################

data_CSD_CIF_VEDVOS
_audit_creation_date 2017-09-11
_audit_creation_method CSD-ConQuest-V1
_database_code_CSD VEDVOS
_database_code_depnum_ccdc_archive 'CCDC 1546414'
_chemical_formula_sum 'C8 H4 N8 O4'
_chemical_formula_moiety
;
C8 H4 N8 O4
;
_journal_coden_Cambridge 1291
_journal_year 2017
_journal_page_first 4963
_journal_name_full 'Eur.J.Org.Chem. '
loop_
_publ_author_name
"A.A.Voronin"
"A.M.Churakov"
"M.S.Klenov"
"Y.A.Strelenko"
"I.V.Fedyanin"
"V.A.Tartakovsky"
_chemical_name_systematic
;
5-Diazo-N-nitro-3-(4-nitrophenyl)-3,5-dihydro-4H-1,2,3-triazol-4-imine
;
_cell_volume   1044.054
_exptl_crystal_colour 'yellow'
_exptl_crystal_density_diffrn 1.757
_exptl_crystal_description 'plate'
_diffrn_ambient_temperature 120
#These two values have been output from a single CSD field.
_refine_ls_R_factor_gt 0.0375
_refine_ls_wR_factor_gt 0.0375
_symmetry_cell_setting orthorhombic
_symmetry_space_group_name_H-M 'P 21 21 21'
_symmetry_Int_Tables_number 19
loop_
_symmetry_equiv_pos_site_id
_symmetry_equiv_pos_as_xyz
1 x,y,z
2 1/2-x,-y,1/2+z
3 -x,1/2+y,1/2-z
4 1/2+x,1/2-y,-z
_cell_length_a 6.8311(5)
_cell_length_b 7.4371(5)
_cell_length_c 20.5508(14)
_cell_angle_alpha 90
_cell_angle_beta 90
_cell_angle_gamma 90
_cell_formula_units_Z 4
loop_
_atom_type_symbol
_atom_type_radius_bond
C 0.68
H 0.23
N 0.68
O 0.68
loop_
_atom_site_label
_atom_site_type_symbol
_atom_site_fract_x
_atom_site_fract_y
_atom_site_fract_z
O1 O 0.1711(2) 0.9153(2) 0.28761(8)
O2 O 0.4758(2) 0.9140(2) 0.25843(8)
O3 O 0.0018(2) 0.3336(2) 0.61620(8)
O4 O 0.2673(3) 0.3474(3) 0.67412(8)
N1 N 0.8832(3) 0.6117(3) 0.35289(9)
N2 N 0.8052(3) 0.5496(3) 0.40475(9)
N3 N 0.6087(3) 0.5999(3) 0.40567(9)
N4 N 0.3744(3) 0.7539(3) 0.34598(9)
N5 N 0.3420(3) 0.8643(3) 0.29478(9)
N6 N 0.7912(3) 0.7693(3) 0.25967(9)
N7 N 0.8430(3) 0.8140(3) 0.21152(10)
N8 N 0.1778(3) 0.3654(3) 0.62282(9)
C1 C 0.5598(3) 0.6975(3) 0.35168(10)
C2 C 0.7424(3) 0.7050(3) 0.3196(1)
C3 C 0.4925(3) 0.5468(3) 0.4601(1)
C4 C 0.2971(3) 0.4986(3) 0.45218(11)
H1 H 0.23640 0.50600 0.41070
C5 C 0.1929(3) 0.4398(3) 0.50577(11)
H2 H 0.05910 0.40660 0.50170
C6 C 0.2868(3) 0.4301(3) 0.56564(11)
C7 C 0.4799(3) 0.4802(3) 0.57403(10)
H3 H 0.54000 0.47350 0.61560
C8 C 0.5836(3) 0.5403(3) 0.52051(11)
H4 H 0.71610 0.57680 0.52500
#END
