
#######################################################################
#
#                 Cambridge Crystallographic Data Centre
#                                CCDC
#
#######################################################################
#
# If this CIF has been generated from an entry in the Cambridge
# Structural Database, then it will include bibliographic, chemical,
# crystal, experimental, refinement or atomic coordinate data resulting
# from the CCDC's data processing and validation procedures.
#
#######################################################################

data_CSD_CIF_VEDYEL
_audit_creation_date 2017-09-11
_audit_creation_method CSD-ConQuest-V1
_database_code_CSD VEDYEL
_database_code_depnum_ccdc_archive 'CCDC 1533855'
_chemical_formula_sum 'C17 H17 N3 O3'
_chemical_formula_moiety
;
C17 H17 N3 O3
;
_journal_coden_Cambridge 440
_journal_volume 41
_journal_year 2017
_journal_page_first 11361
_journal_name_full 'New J.Chem. '
loop_
_publ_author_name
"C.Valverde"
"W.F.Vaz"
"J.M.F.Custodio"
"V.S.Duarte"
"P.S.Carvalho-Jr"
"A.S.Figueredo"
"G.L.B.de Aquino"
"B.Baseia"
"H.B.Napolitano"
_chemical_name_systematic
;
(1E,2E)-1-((4-ethoxyphenyl)methylidene)-2-(1-(4-nitrophenyl)ethylidene)hydrazi
ne
;
_chemical_name_common
;
(1E,2E)-1-(4-ethoxybenzylidene)-2-(1-(4-nitrophenyl)ethylidene)hydrazine
;
_cell_volume    806.765
_exptl_crystal_colour 'yellow'
_exptl_crystal_density_diffrn 1.282
_exptl_crystal_description 'prism'
_diffrn_ambient_temperature 293
#These two values have been output from a single CSD field.
_refine_ls_R_factor_gt 0.0624
_refine_ls_wR_factor_gt 0.0624
_symmetry_cell_setting triclinic
_symmetry_space_group_name_H-M 'P -1'
_symmetry_Int_Tables_number 2
loop_
_symmetry_equiv_pos_site_id
_symmetry_equiv_pos_as_xyz
1 x,y,z
2 -x,-y,-z
_cell_length_a 9.347
_cell_length_b 9.949
_cell_length_c 10.194
_cell_angle_alpha 106.19
_cell_angle_beta 101.69
_cell_angle_gamma 110.1
_cell_formula_units_Z 2
loop_
_atom_type_symbol
_atom_type_radius_bond
C 0.68
H 0.23
N 0.68
O 0.68
loop_
_atom_site_label
_atom_site_type_symbol
_atom_site_fract_x
_atom_site_fract_y
_atom_site_fract_z
O1 O 0.48039(16) 0.82979(16) 0.05041(15)
C1 C 0.7574(2) 0.5959(2) -0.9012(2)
H1 H 0.66260 0.55580 -0.88090
C2 C 0.6013(2) 0.7470(2) -0.3250(2)
C3 C 0.8958(2) 0.6134(2) -1.0703(2)
N1 N 0.8931(2) 0.5658(2) -1.2207(2)
C4 C 0.9004(2) 0.6999(2) -0.7869(2)
C5 C 0.7541(2) 0.5518(2) -1.0422(2)
H2 H 0.65850 0.48200 -1.11710
N2 N 0.7652(2) 0.72216(19) -0.61772(17)
N3 N 0.7709(2) 0.7711(2) -0.47275(18)
C6 C 1.0401(2) 0.7580(2) -0.8214(2)
H3 H 1.13680 0.82660 -0.74720
C7 C 0.9026(2) 0.7458(2) -0.6354(2)
O2 O 0.7722(2) 0.4584(2) -1.31383(18)
C8 C 0.6891(2) 0.8716(2) -0.0646(2)
H4 H 0.77200 0.93460 0.02310
C9 C 0.7235(2) 0.8407(2) -0.1914(2)
H5 H 0.83010 0.88290 -0.18840
O3 O 1.0112(2) 0.6349(3) -1.2476(2)
C10 C 0.4068(2) 0.7157(2) -0.1995(2)
C11 C 0.5292(2) 0.8080(2) -0.0676(2)
C12 C 1.0385(2) 0.7163(2) -0.9623(2)
H6 H 1.13230 0.75700 -0.98380
C13 C 0.4423(2) 0.6853(2) -0.3251(2)
C14 C 0.6311(3) 0.7139(2) -0.4623(2)
C15 C 0.5992(3) 0.9181(3) 0.1917(2)
C16 C 0.5102(3) 0.9192(3) 0.2977(3)
C17 C 1.0595(3) 0.8157(3) -0.5147(3)
H7 H 1.14540 0.82180 -0.55420
H8 H 1.07880 0.91770 -0.45430
H9 H 1.05490 0.75260 -0.45820
H10 H 0.299(4) 0.673(3) -0.201(3)
H11 H 0.352(4) 0.624(3) -0.424(3)
H12 H 0.536(4) 0.646(3) -0.552(3)
H13 H 0.663(4) 1.025(3) 0.204(3)
H14 H 0.668(4) 0.866(3) 0.208(3)
H15 H 0.442(4) 0.970(4) 0.285(4)
H16 H 0.592(5) 0.978(4) 0.400(4)
H17 H 0.443(4) 0.815(4) 0.293(4)
#END
