
#######################################################################
#
#                 Cambridge Crystallographic Data Centre
#                                CCDC
#
#######################################################################
#
# If this CIF has been generated from an entry in the Cambridge
# Structural Database, then it will include bibliographic, chemical,
# crystal, experimental, refinement or atomic coordinate data resulting
# from the CCDC's data processing and validation procedures.
#
#######################################################################

data_CSD_CIF_VEDZAH
_audit_creation_date 2012-10-16
_audit_creation_method CSD-ConQuest-V1
_database_code_CSD VEDZAH
_database_code_depnum_ccdc_archive 'CCDC 859297'
_chemical_formula_sum 'C15 H13 N3 O3'
_chemical_formula_moiety
;
C15 H13 N3 O3
;
_journal_coden_Cambridge 1546
_journal_volume 2
_journal_year 2012
_journal_page_first 176
_journal_name_full 'Crystals '
loop_
_publ_author_name
"K.Ebert"
"M.Kockerling"
"C.Mamat"
_chemical_name_systematic
;
2-(4-Methoxybenzyl)-4-nitro-2H-indazole
;
_chemical_melting_point 408
_cell_volume    685.831
_exptl_crystal_colour 'colorless'
_exptl_crystal_density_diffrn 1.372
_exptl_crystal_description 'trapezium'
_diffrn_ambient_temperature 143
#These two values have been output from a single CSD field.
_refine_ls_R_factor_gt 0.0428
_refine_ls_wR_factor_gt 0.0428
_symmetry_cell_setting triclinic
_symmetry_space_group_name_H-M 'P -1'
_symmetry_Int_Tables_number 2
loop_
_symmetry_equiv_pos_site_id
_symmetry_equiv_pos_as_xyz
1 x,y,z
2 -x,-y,-z
_cell_length_a 6.8994(1)
_cell_length_b 9.8052(2)
_cell_length_c 11.1525(2)
_cell_angle_alpha 71.729(1)
_cell_angle_beta 79.436(1)
_cell_angle_gamma 74.349(1)
_cell_formula_units_Z 2
loop_
_atom_type_symbol
_atom_type_radius_bond
C 0.68
H 0.23
N 0.68
O 0.68
loop_
_atom_site_label
_atom_site_type_symbol
_atom_site_fract_x
_atom_site_fract_y
_atom_site_fract_z
C1 C 0.40550(7) 0.19957(5) 0.34654(5)
C2 C 0.55034(7) 0.16645(5) 0.43428(4)
C3 C 0.48410(7) 0.21216(6) 0.54619(5)
C4 C 0.28749(8) 0.28701(6) 0.56875(5)
H1 H 0.24540 0.31780 0.64400
C5 C 0.14783(8) 0.31818(7) 0.47969(6)
H2 H 0.01250 0.36960 0.49660
C6 C 0.20330(8) 0.27589(7) 0.36939(6)
H3 H 0.10850 0.29740 0.31040
N1 N 0.48863(7) 0.14810(5) 0.24492(4)
N2 N 0.68119(6) 0.08373(5) 0.26909(4)
C7 C 0.72812(7) 0.09100(5) 0.37890(4)
H4 H 0.85560 0.05270 0.41170
N3 N 0.62418(8) 0.17895(6) 0.63970(5)
O1 O 0.80178(7) 0.11956(7) 0.61320(5)
O2 O 0.55977(10) 0.20918(9) 0.74077(6)
C8 C 0.82338(8) 0.02067(6) 0.17426(5)
H5 H 0.75130 -0.02430 0.13320
H6 H 0.93290 -0.05790 0.21710
C9 C 0.91413(7) 0.13750(5) 0.07446(4)
C10 C 1.09006(8) 0.16852(6) 0.09296(5)
H7 H 1.15520 0.11230 0.16690
C11 C 1.17253(8) 0.28046(6) 0.00517(5)
H8 H 1.29200 0.30090 0.01940
C12 C 1.07741(7) 0.36200(6) -0.10376(5)
C13 C 0.90259(8) 0.33006(6) -0.12457(5)
H9 H 0.83920 0.38450 -0.19950
C14 C 0.82176(8) 0.21891(6) -0.03582(5)
H10 H 0.70270 0.19800 -0.05020
O3 O 1.14561(7) 0.47282(5) -0.19669(4)
C15 C 1.31429(10) 0.51629(7) -0.17410(7)
H11 H 1.34860 0.59600 -0.24710
H12 H 1.43070 0.43180 -0.16200
H13 H 1.27920 0.55080 -0.09770
#END
