
#######################################################################
#
#                 Cambridge Crystallographic Data Centre
#                                CCDC
#
#######################################################################
#
# If this CIF has been generated from an entry in the Cambridge
# Structural Database, then it will include bibliographic, chemical,
# crystal, experimental, refinement or atomic coordinate data resulting
# from the CCDC's data processing and validation procedures.
#
#######################################################################

data_CSD_CIF_VEFDAN
_audit_creation_date 2012-10-15
_audit_creation_method CSD-ConQuest-V1
_database_code_CSD VEFDAN
_database_code_depnum_ccdc_archive 'CCDC 862860'
_chemical_formula_sum 'C21 H22 N2 O7'
_chemical_formula_moiety
;
C21 H22 N2 O7
;
_journal_coden_Cambridge 1501
_journal_volume 14
_journal_year 2012
_journal_page_first 366
_journal_name_full 'ACS Comb. Sci. '
loop_
_publ_author_name
"Hui Liu"
"Zhengquan Zhou"
"Qian Sun"
"Yun Li"
"Yan Li"
"Jinliang Liu"
"PeiyunYan"
"Dandan Wang"
"Cunde Wang"
_chemical_name_systematic
;
Methyl 4,6-bis(2-methoxyphenyl)-5-nitro-2-oxopiperidine-3-carboxylate
;
_cell_volume   5060.414
_exptl_crystal_density_diffrn 1.088
_exptl_special_details
;
moisture-sensitive

;
_diffrn_ambient_temperature 296
_refine_special_details
;
The SQUEEZE/PLATON program was used to model some disorder.

;
#These two values have been output from a single CSD field.
_refine_ls_R_factor_gt 0.0505
_refine_ls_wR_factor_gt 0.0505
_symmetry_cell_setting monoclinic
_symmetry_space_group_name_H-M 'C 2/c'
_symmetry_Int_Tables_number 15
loop_
_symmetry_equiv_pos_site_id
_symmetry_equiv_pos_as_xyz
1 x,y,z
2 -x,y,1/2-z
3 1/2+x,1/2+y,z
4 1/2-x,1/2+y,1/2-z
5 -x,-y,-z
6 x,-y,-1/2+z
7 -1/2-x,-1/2-y,-z
8 -1/2+x,-1/2-y,-1/2+z
_cell_length_a 31.609(5)
_cell_length_b 8.1047(12)
_cell_length_c 20.542(3)
_cell_angle_alpha 90
_cell_angle_beta 105.929(2)
_cell_angle_gamma 90
_cell_formula_units_Z 8
loop_
_atom_type_symbol
_atom_type_radius_bond
C 0.68
H 0.23
N 0.68
O 0.68
loop_
_atom_site_label
_atom_site_type_symbol
_atom_site_fract_x
_atom_site_fract_y
_atom_site_fract_z
C1 C 0.19823(5) 0.7306(2) 1.03897(8)
C2 C 0.16055(5) 0.7248(2) 1.07238(8)
H1 H 0.14680 0.61560 1.06380
C3 C 0.12481(5) 0.85441(19) 1.04419(8)
H2 H 0.13800 0.96220 1.05900
C4 C 0.11161(5) 0.8558(2) 0.96581(8)
H3 H 0.09070 0.94640 0.95040
C5 C 0.15190(5) 0.8881(2) 0.93947(8)
H4 H 0.15920 1.00520 0.94770
C6 C 0.18116(5) 0.7409(2) 1.14817(9)
C7 C 0.22133(7) 0.9189(3) 1.23411(10)
H5 H 0.20600 0.87410 1.26450
H6 H 0.22630 1.03460 1.24290
H7 H 0.24910 0.86360 1.24090
C8 C 0.08459(5) 0.8388(2) 1.07140(8)
C9 C 0.07328(6) 0.6937(2) 1.09831(9)
H8 H 0.09090 0.60090 1.10080
C10 C 0.03584(6) 0.6848(2) 1.12176(9)
H9 H 0.02830 0.58620 1.13890
C11 C 0.01012(6) 0.8234(3) 1.11929(10)
H10 H -0.01470 0.81790 1.13520
C12 C 0.02080(5) 0.9711(2) 1.09324(9)
H11 H 0.00340 1.06420 1.09210
C13 C 0.05773(5) 0.9785(2) 1.06886(8)
C14 C 0.04794(7) 1.2676(2) 1.04394(11)
H12 H 0.01760 1.25520 1.01940
H13 H 0.06080 1.35480 1.02410
H14 H 0.05010 1.29420 1.09030
C15 C 0.14311(5) 0.8613(2) 0.86345(8)
C16 C 0.12262(5) 0.9886(2) 0.81973(8)
C17 C 0.11525(6) 0.9736(2) 0.74995(9)
H15 H 0.10200 1.05870 0.72120
C18 C 0.12808(6) 0.8291(3) 0.72386(9)
H16 H 0.12320 0.81800 0.67730
C19 C 0.14804(6) 0.7018(2) 0.76609(10)
H17 H 0.15650 0.60600 0.74810
C20 C 0.15545(6) 0.7182(2) 0.83604(9)
H18 H 0.16880 0.63270 0.86450
C21 C 0.09691(9) 1.2689(2) 0.81075(11)
H19 H 0.11840 1.29690 0.78750
H20 H 0.09390 1.35870 0.83960
H21 H 0.06920 1.24820 0.77830
N1 N 0.19059(4) 0.79518(19) 0.97713(7)
H22 H 0.2131(7) 0.801(2) 0.9603(10)
N2 N 0.08865(4) 0.69662(18) 0.93854(7)
O1 O 0.23413(4) 0.67070(16) 1.06992(6)
O2 O 0.19503(4) 0.89522(17) 1.16459(6)
O3 O 0.18548(5) 0.62858(19) 1.18782(7)
O4 O 0.07085(4) 1.11668(14) 1.04113(6)
O5 O 0.10998(4) 0.56870(16) 0.94655(7)
O6 O 0.04938(4) 0.70272(19) 0.91045(8)
O7 O 0.11077(4) 1.12407(15) 0.85081(6)
#END
