
#######################################################################
#
#                 Cambridge Crystallographic Data Centre
#                                CCDC
#
#######################################################################
#
# If this CIF has been generated from an entry in the Cambridge
# Structural Database, then it will include bibliographic, chemical,
# crystal, experimental, refinement or atomic coordinate data resulting
# from the CCDC's data processing and validation procedures.
#
#######################################################################

data_CSD_CIF_VEGGIA
_audit_creation_date 2017-09-11
_audit_creation_method CSD-ConQuest-V1
_database_code_CSD VEGGIA
_database_code_depnum_ccdc_archive 'CCDC 1573893'
_chemical_formula_sum 'C18 H23 N3 O2'
_chemical_formula_moiety
;
C18 H23 N3 O2
;
_journal_coden_Cambridge 1078
_journal_year 2017
_journal_name_full 'CSD Communication(Private Communication) '
loop_
_publ_author_name
"A.A.Nazarova"
"K.N.Sedenkova"
"V.B.Rybakov"
"E.B.Averina"
"T.S.Kuznetsova"
_chemical_name_systematic
;
4-(3-aminophenoxy)-2-t-butyl-5,6,7,8-tetrahydro-1\l^5^-quinazolinium-1-olate
;
_chemical_melting_point 410
_cell_volume   1695.410
_exptl_crystal_colour 'light brown'
_exptl_crystal_density_diffrn 1.228
_exptl_special_details
;
chloroform

;
_exptl_crystal_description 'prism'
_diffrn_ambient_temperature 295
_refine_special_details
;
C6B,C7B and C6A,C7A disordered over two sites with occupancies 0.53:0.47.

;
#These two values have been output from a single CSD field.
_refine_ls_R_factor_gt 0.0563
_refine_ls_wR_factor_gt 0.0563
_symmetry_cell_setting monoclinic
_symmetry_space_group_name_H-M 'P 21/c'
_symmetry_Int_Tables_number 14
loop_
_symmetry_equiv_pos_site_id
_symmetry_equiv_pos_as_xyz
1 x,y,z
2 -x,1/2+y,1/2-z
3 -x,-y,-z
4 x,-1/2-y,-1/2+z
_cell_length_a 9.1151(3)
_cell_length_b 17.5198(6)
_cell_length_c 11.3989(4)
_cell_angle_alpha 90
_cell_angle_beta 111.351(3)
_cell_angle_gamma 90
_cell_formula_units_Z 4
loop_
_atom_type_symbol
_atom_type_radius_bond
C 0.68
H 0.23
N 0.68
O 0.68
loop_
_atom_site_label
_atom_site_type_symbol
_atom_site_fract_x
_atom_site_fract_y
_atom_site_fract_z
N1 N 0.60309(14) 0.08090(7) 0.22935(10)
C1 C 0.70743(16) 0.07209(9) 0.16996(12)
N2 N 0.69429(13) 0.11368(7) 0.0695(1)
C2 C 0.57975(17) 0.16296(9) 0.02781(13)
C3 C 0.46449(17) 0.17452(9) 0.07874(13)
C4 C 0.33303(19) 0.23139(11) 0.02596(16)
H1 H 0.25600 0.21110 -0.05100
H2 H 0.37520 0.27800 0.00490
C5 C 0.1933(3) 0.2109(2) 0.0670(3)
H3 H 0.11450 0.25100 0.04120
H4 H 0.14480 0.16370 0.02710
C6 C 0.2542(4) 0.2021(2) 0.2083(3)
H5 H 0.16630 0.19480 0.23590
H6 H 0.30910 0.24830 0.24740
C7 C 0.3655(2) 0.13449(11) 0.24978(17)
H7 H 0.41390 0.16130 0.32900
H8 H 0.34000 0.08320 0.26820
C8 C 0.47875(16) 0.13062(9) 0.18272(13)
O1 O 0.61869(14) 0.04243(7) 0.33326(10)
C9 C 0.84630(17) 0.01737(9) 0.22030(14)
C10 C 0.7943(2) -0.06373(11) 0.2406(2)
H9 H 0.75500 -0.06300 0.30810
H10 H 0.88270 -0.09770 0.26150
H11 H 0.71290 -0.08090 0.16480
C11 C 0.9615(2) 0.04909(13) 0.34475(16)
H12 H 0.99740 0.09850 0.33070
H13 H 1.05000 0.01530 0.37760
H14 H 0.90950 0.05330 0.40410
C12 C 0.9297(2) 0.01221(13) 0.12616(18)
H15 H 0.85730 -0.00630 0.04700
H16 H 1.01740 -0.02220 0.15770
H17 H 0.96690 0.06190 0.11460
O2 O 0.56738(7) 0.20775(4) -0.07234(5)
C13 C 0.68419(7) 0.11682(4) -0.31401(5)
C14 C 0.61191(7) 0.12870(4) -0.22718(5)
H18 H 0.53430 0.09520 -0.22380
C15 C 0.65557(7) 0.19057(4) -0.14541(5)
C16 C 0.77152(7) 0.24057(4) -0.15049(5)
H19 H 0.80070 0.28200 -0.09580
C17 C 0.84380(7) 0.22869(4) -0.23732(5)
H20 H 0.92140 0.26210 -0.24070
C18 C 0.80014(7) 0.16682(4) -0.31909(5)
H21 H 0.84850 0.15890 -0.37720
N3 N 0.6374(2) 0.05517(10) -0.39415(15)
H22 H 0.56510 0.02510 -0.38970
H23 H 0.68060 0.04680 -0.44860
C19? C 0.2504(5) 0.2502(2) 0.1196(3)
H24? H 0.31830 0.28150 0.18800
H25? H 0.15340 0.27800 0.07700
C20? C 0.2155(4) 0.1755(2) 0.1700(4)
H26? H 0.15540 0.14300 0.10010
H27? H 0.15170 0.18510 0.22050
#END
