
#######################################################################
#
#                 Cambridge Crystallographic Data Centre
#                                CCDC
#
#######################################################################
#
# If this CIF has been generated from an entry in the Cambridge
# Structural Database, then it will include bibliographic, chemical,
# crystal, experimental, refinement or atomic coordinate data resulting
# from the CCDC's data processing and validation procedures.
#
#######################################################################

data_CSD_CIF_VEGGUJ
_audit_creation_date 1990-10-01
_audit_creation_method CSD-ConQuest-V1
_database_code_CSD VEGGUJ
_chemical_formula_sum 'C3 H4 N6 O7'
_chemical_formula_moiety
;
C3 H4 N6 O7
;
_journal_coeditor_code "IUCr HH0343"
_journal_coden_Cambridge 591
_journal_volume 46
_journal_year 1990
_journal_page_first 706
_journal_name_full 'Acta Crystallogr.,Sect.C:Cryst.Struct.Commun. '
loop_
_publ_author_name
"R.Gilardi"
"J.L.Flippen-Anderson"
"C.George"
_chemical_name_systematic
;
1,3,5-Trinitro-2-oxo-1,3,5-triazacyclohexane
;
_cell_volume    812.102
_exptl_crystal_colour 'colorless'
_exptl_crystal_density_diffrn 1.932
_diffrn_ambient_temperature ?
_diffrn_special_details
;
The study was carried out at room temperature,in the range 283-303K

;
#These two values have been output from a single CSD field.
_refine_ls_R_factor_gt 0.034
_refine_ls_wR_factor_gt 0.034
_symmetry_cell_setting orthorhombic
_symmetry_space_group_name_H-M 'P b n m'
_symmetry_Int_Tables_number 62
loop_
_symmetry_equiv_pos_site_id
_symmetry_equiv_pos_as_xyz
1 x,y,z
2 1/2-x,1/2+y,z
3 1/2+x,1/2-y,1/2+z
4 -x,-y,1/2+z
5 -x,-y,-z
6 -1/2+x,-1/2-y,-z
7 -1/2-x,-1/2+y,-1/2-z
8 x,y,-1/2-z
_cell_length_a 5.988(1)
_cell_length_b 10.052(2)
_cell_length_c 13.492(2)
_cell_angle_alpha 90
_cell_angle_beta 90
_cell_angle_gamma 90
_cell_formula_units_Z 4
loop_
_atom_type_symbol
_atom_type_radius_bond
C 0.68
H 0.23
N 0.68
O 0.68
loop_
_atom_site_label
_atom_site_type_symbol
_atom_site_fract_x
_atom_site_fract_y
_atom_site_fract_z
O1 O 0.1975(4) 0.3670(2) 0.25000
N1 N -0.0058(3) 0.2108(2) 0.3362(1)
N2 N -0.2130(4) 0.0472(2) 0.25000
O2 O 0.1129(4) 0.3739(2) 0.4378(1)
O3 O -0.5096(3) 0.1330(2) 0.3301(1)
O4 O 0.1154(3) 0.1694(2) 0.4890(1)
C1 C -0.0864(4) 0.0704(2) 0.3390(2)
N3 N -0.4270(4) 0.1114(3) 0.25000
C2 C 0.0784(5) 0.2717(3) 0.25000
N4 N 0.0839(3) 0.2558(2) 0.4279(1)
H1 H -0.1772(38) 0.0618(20) 0.3954(17)
H2 H 0.0442(38) 0.0062(25) 0.3377(15)
N1G N -0.0058(3) 0.2108(2) 0.1638(1)
C1G C -0.0864(4) 0.0704(2) 0.1610(2)
O3G O -0.5096(3) 0.1330(2) 0.1699(1)
N4G N 0.0839(3) 0.2558(2) 0.0721(1)
H1G H -0.1772(38) 0.0618(20) 0.1046(17)
H2G H 0.0442(38) 0.0062(25) 0.1623(15)
O2G O 0.1129(4) 0.3739(2) 0.0622(1)
O4G O 0.1154(3) 0.1694(2) 0.0110(1)
#END
