
#######################################################################
#
#                 Cambridge Crystallographic Data Centre
#                                CCDC
#
#######################################################################
#
# If this CIF has been generated from an entry in the Cambridge
# Structural Database, then it will include bibliographic, chemical,
# crystal, experimental, refinement or atomic coordinate data resulting
# from the CCDC's data processing and validation procedures.
#
#######################################################################

data_CSD_CIF_VEHTOR
_audit_creation_date 1990-11-19
_audit_creation_method CSD-ConQuest-V1
_database_code_CSD VEHTOR
_chemical_formula_sum 'C21 H28 N4 O4'
_chemical_formula_moiety
;
C21 H28 N4 O4
;
_journal_coden_Cambridge 376
_journal_volume 29
_journal_year 1990
_journal_page_first 977
_journal_name_full 'Phytochemistry '
loop_
_publ_author_name
"P.Joseph-Nathan"
"J.R.Villagomez"
"L.U.Roman"
"J.D.Hernandez"
_chemical_name_systematic
;
(1R,5S,6S,7S)-7-Ethyl-5-isopropyl-2-methylenebicyclo(4.3.0.)nonan-8-one 
2,4-dinitrophenylhydrazone
;
_chemical_melting_point 417.15
_cell_volume   2141.423
_exptl_crystal_colour 'orange'
_exptl_crystal_density_diffrn 1.24
_exptl_special_details
;
Melting point range 417.15-419.15K

;
_diffrn_ambient_temperature ?
_diffrn_special_details
;
The study was carried out at room temperature,in the range 283-303K

;
#These two values have been output from a single CSD field.
_refine_ls_R_factor_gt 0.0506
_refine_ls_wR_factor_gt 0.0506
_chemical_compound_source
;
Leaves of Senecio mexicanus
;
_symmetry_cell_setting orthorhombic
_symmetry_space_group_name_H-M 'P 21 21 21'
_symmetry_Int_Tables_number 19
loop_
_symmetry_equiv_pos_site_id
_symmetry_equiv_pos_as_xyz
1 x,y,z
2 1/2+x,1/2-y,-z
3 -x,1/2+y,1/2-z
4 1/2-x,-y,1/2+z
_cell_length_a 6.9454(17)
_cell_length_b 10.4520(41)
_cell_length_c 29.4989(11)
_cell_angle_alpha 90
_cell_angle_beta 90
_cell_angle_gamma 90
_cell_formula_units_Z 4
loop_
_atom_type_symbol
_atom_type_radius_bond
C 0.68
H 0.23
N 0.68
O 0.68
loop_
_atom_site_label
_atom_site_type_symbol
_atom_site_fract_x
_atom_site_fract_y
_atom_site_fract_z
C1 C 0.1289(8) 0.2909(4) 0.0789(2)
C2 C 0.1994(7) 0.4221(4) 0.0918(1)
N1 N 0.2289(6) 0.5210(4) 0.0665(1)
C3 C 0.2470(8) 0.4284(4) 0.1418(1)
C4 C 0.2603(7) 0.2850(4) 0.1533(1)
C5 C 0.2577(8) 0.2445(4) 0.2035(1)
C6 C 0.2588(10) 0.0961(4) 0.2053(2)
C7 C 0.0979(10) 0.0368(4) 0.1765(2)
C8 C 0.1051(8) 0.0822(4) 0.1282(2)
C9 C 0.1009(7) 0.2252(4) 0.1246(1)
C10 C 0.1161(9) 0.0033(5) 0.0926(2)
C11 C 0.4241(7) 0.3066(5) 0.2315(1)
C12 C 0.6233(9) 0.2603(6) 0.2181(2)
C13 C 0.3916(10) 0.2912(6) 0.2826(2)
C14 C 0.1115(11) 0.5062(5) 0.1697(2)
C15 C 0.1135(11) 0.6502(4) 0.1596(2)
C16 C 0.1884(7) 0.6058(5) -0.0073(1)
N2 N 0.1838(6) 0.5015(4) 0.0203(1)
C17 C 0.1595(7) 0.5961(4) -0.0551(2)
N3 N 0.1301(7) 0.4737(4) -0.0779(2)
O1 O 0.1238(7) 0.4711(4) -0.1195(1)
O2 O 0.1114(8) 0.3764(4) -0.0545(1)
C18 C 0.1610(7) 0.7042(5) -0.0827(2)
C19 C 0.1894(7) 0.8207(4) -0.0632(2)
N4 N 0.1902(7) 0.9366(5) -0.0918(2)
O3 O 0.1627(7) 0.9216(4) -0.1327(1)
O4 O 0.2129(7) 1.0401(4) -0.0731(2)
C20 C 0.2199(7) 0.8354(5) -0.0164(2)
C21 C 0.2167(8) 0.7275(5) 0.0106(2)
H1 H -0.00650 0.29670 0.06040
H2 H 0.23520 0.24050 0.05840
H3 H 0.37850 0.48070 0.14980
H4 H 0.40450 0.25050 0.14530
H5 H 0.12710 0.27990 0.21970
H6 H 0.24000 0.06580 0.24030
H7 H 0.39710 0.06180 0.19270
H8 H -0.04070 0.06320 0.19110
H9 H 0.11320 -0.06700 0.17690
H10 H -0.04790 0.24050 0.13500
H11 H 0.12050 -0.09990 0.09790
H12 H 0.12080 0.04210 0.05830
H13 H 0.41990 0.40830 0.22330
H14 H 0.64230 0.27170 0.18160
H15 H 0.63850 0.15970 0.22700
H16 H 0.73190 0.31630 0.23590
H17 H 0.24710 0.32370 0.29120
H18 H 0.49730 0.34800 0.30100
H19 H 0.40710 0.19070 0.29180
H20 H -0.03400 0.47090 0.16380
H21 H 0.14910 0.49290 0.20530
H22 H 0.00570 0.69810 0.18040
H23 H 0.08110 0.66580 0.12380
H24 H 0.25550 0.68900 0.16730
H25 H 0.1895(66) 0.4186(40) 0.0063(12)
H26 H 0.14010 0.69560 -0.11920
H27 H 0.24590 0.92960 -0.00180
H28 H 0.23640 0.73810 0.04710
#END
