
#######################################################################
#
#                 Cambridge Crystallographic Data Centre
#                                CCDC
#
#######################################################################
#
# If this CIF has been generated from an entry in the Cambridge
# Structural Database, then it will include bibliographic, chemical,
# crystal, experimental, refinement or atomic coordinate data resulting
# from the CCDC's data processing and validation procedures.
#
#######################################################################

data_CSD_CIF_VEJDAP01
_audit_creation_date 1991-10-31
_audit_creation_method CSD-ConQuest-V1
_database_code_CSD VEJDAP01
_chemical_formula_sum 'C14 H18 N1 O2'
_chemical_formula_moiety
;
C14 H18 N1 O2
;
_journal_coden_Cambridge 179
_journal_volume 30
_journal_year 1991
_journal_page_first 450
_journal_name_full 'Angew.Chem.,Int.Ed. '
loop_
_publ_author_name
"D.W.Wiley"
"J.C.Calabrese"
"R.L.Harlow"
"J.S.Miller"
_chemical_name_systematic
;
5-(4-(2,2,6,6-Tetramethyl-1-oxyl-3,4-dehydropiperidinyl))-penta-2,4-diyn-1-ol
;
_chemical_melting_point 392.45
_cell_volume   1306.008
_exptl_crystal_colour 'gold-orange'
_exptl_crystal_density_diffrn 1.177
_exptl_special_details
;
Melting point range 392.45-393.25K
Cell parameter a given as 5.784 in paper

;
_diffrn_ambient_temperature 203
#These two values have been output from a single CSD field.
_refine_ls_R_factor_gt 0.039
_refine_ls_wR_factor_gt 0.039
_symmetry_cell_setting monoclinic
_symmetry_space_group_name_H-M 'P 21/n'
_symmetry_Int_Tables_number 14
loop_
_symmetry_equiv_pos_site_id
_symmetry_equiv_pos_as_xyz
1 x,y,z
2 1/2-x,1/2+y,1/2-z
3 -x,-y,-z
4 -1/2+x,-1/2-y,-1/2+z
_cell_length_a 5.764(2)
_cell_length_b 22.158(3)
_cell_length_c 10.541(3)
_cell_angle_alpha 90
_cell_angle_beta 104.05(1)
_cell_angle_gamma 90
_cell_formula_units_Z 4
loop_
_atom_type_symbol
_atom_type_radius_bond
C 0.68
H 0.23
N 0.68
O 0.68
loop_
_atom_site_label
_atom_site_type_symbol
_atom_site_fract_x
_atom_site_fract_y
_atom_site_fract_z
O1 O 0.1650(4) 0.1848(1) 0.9400(2)
O2 O 1.1698(3) 0.1201(1) 0.1606(2)
N1 N 1.0293(3) 0.1206(1) 0.2383(2)
C1 C 0.9421(4) 0.1797(1) 0.2742(2)
C2 C 0.8869(6) 0.1726(1) 0.4087(3)
C3 C 0.7573(4) 0.1165(1) 0.4240(2)
C4 C 0.7744(6) 0.0672(1) 0.3554(3)
C5 C 0.9166(5) 0.0620(1) 0.2543(2)
C6 C 1.1135(6) 0.0155(1) 0.2983(4)
C7 C 0.7212(6) 0.1983(2) 0.1707(3)
C8 C 1.1389(6) 0.2262(1) 0.2867(4)
C9 C 0.7522(7) 0.0428(2) 0.1231(3)
C10 C 0.6170(5) 0.1163(1) 0.5196(3)
C11 C 0.5021(5) 0.1182(1) 0.5994(3)
C12 C 0.3637(5) 0.1222(1) 0.6895(2)
C13 C 0.2410(5) 0.1278(1) 0.7643(3)
C14 C 0.0827(7) 0.1376(2) 0.8522(4)
H1 H 0.1766(59) 0.1690(15) 1.0179(34)
H2 H 0.7910(52) 0.2092(13) 0.4183(26)
H3 H 1.0595(60) 0.1720(14) 0.4845(33)
H4 H 0.6919(44) 0.0291(11) 0.3672(23)
H5 H 1.0509(52) -0.0239(14) 0.3143(27)
H6 H 1.2277(58) 0.0295(15) 0.3787(33)
H7 H 1.1920(53) 0.0098(13) 0.2278(28)
H8 H 0.6787(51) 0.2416(15) 0.1914(27)
H9 H 0.5818(59) 0.1697(14) 0.1664(29)
H10 H 0.7621(50) 0.2021(13) 0.0910(29)
H11 H 1.0849(48) 0.2646(13) 0.3230(26)
H12 H 1.1581(62) 0.2368(16) 0.1978(37)
H13 H 1.2830(59) 0.2123(14) 0.3459(30)
H14 H 0.6810(54) 0.0040(15) 0.1394(27)
H15 H 0.8530(62) 0.0407(14) 0.0526(32)
H16 H 0.6295(59) 0.0703(15) 0.0937(30)
H17 H -0.0886(66) 0.1437(16) 0.7972(33)
H18 H 0.0768(58) 0.0995(16) 0.9029(33)
#END
