
#######################################################################
#
#                 Cambridge Crystallographic Data Centre
#                                CCDC
#
#######################################################################
#
# If this CIF has been generated from an entry in the Cambridge
# Structural Database, then it will include bibliographic, chemical,
# crystal, experimental, refinement or atomic coordinate data resulting
# from the CCDC's data processing and validation procedures.
#
#######################################################################

data_CSD_CIF_VEJROR
_audit_creation_date 1991-01-24
_audit_creation_method CSD-ConQuest-V1
_database_code_CSD VEJROR
_chemical_formula_sum 'C10 H15 N1 O1'
_chemical_formula_moiety
;
C10 H15 N1 O1
;
_journal_coeditor_code "IUCr GE0134"
_journal_coden_Cambridge 591
_journal_volume 46
_journal_year 1990
_journal_page_first 1133
_journal_name_full 'Acta Crystallogr.,Sect.C:Cryst.Struct.Commun. '
loop_
_publ_author_name
"R.W.W.Hooft"
"P.van der Sluis"
"J.A.Kanters"
"J.Kroon"
_chemical_name_systematic
;
4-Isopropenyl-1-cyclohexene-1-carbaldehyde oxime
;
_chemical_name_common
;
Perillartine
;
_cell_volume    488.144
_exptl_crystal_colour 'colorless'
_exptl_crystal_density_diffrn 1.124
_diffrn_ambient_temperature ?
_diffrn_special_details
;
The study was carried out at room temperature,in the range 283-303K

;
_refine_special_details
;
There is a partial substitutional disorder of enantiomers.

;
#These two values have been output from a single CSD field.
_refine_ls_R_factor_gt 0.049
_refine_ls_wR_factor_gt 0.049
loop_
_citation_database_id_CSD
_citation_special_details
DUDMUL "is a stereoisomer of this entry"
_symmetry_cell_setting triclinic
_symmetry_space_group_name_H-M 'P -1'
_symmetry_Int_Tables_number 2
loop_
_symmetry_equiv_pos_site_id
_symmetry_equiv_pos_as_xyz
1 x,y,z
2 -x,-y,-z
_cell_length_a 7.3217(6)
_cell_length_b 8.1899(6)
_cell_length_c 8.8402(8)
_cell_angle_alpha 104.551(1)
_cell_angle_beta 96.215(7)
_cell_angle_gamma 104.591(1)
_cell_formula_units_Z 2
loop_
_atom_type_symbol
_atom_type_radius_bond
C 0.68
H 0.23
N 0.68
O 0.68
loop_
_atom_site_label
_atom_site_type_symbol
_atom_site_fract_x
_atom_site_fract_y
_atom_site_fract_z
O1 O 0.1234(3) 0.2077(2) 0.0870(2)
N1 N 0.1935(2) 0.0683(2) 0.1086(2)
C1 C 0.4651(3) 0.0015(2) 0.2195(2)
C2 C 0.6476(3) 0.0599(2) 0.2900(2)
C3 C 0.7647(3) -0.0528(2) 0.3327(2)
C4 C 0.6665(4) -0.2474(3) 0.2505(5)
C5 C 0.4580(4) -0.2911(3) 0.2607(5)
C6 C 0.3552(3) -0.1898(2) 0.1770(3)
C7 C 0.3669(3) 0.1234(3) 0.1814(2)
C8 C 0.7761(6) -0.3634(5) 0.3030(6)
C9 C 0.8702(8) -0.4445(8) 0.2083(8)
C10 C 0.7826(9) -0.3857(8) 0.4709(9)
H1 H 0.7108(3) 0.1868(2) 0.3162(2)
H2 H 0.6703(4) -0.2725(3) 0.1367(5)
H3 H 0.4350(3) 0.2497(3) 0.2120(2)
H4? H 0.553(1) -0.237(1) 0.420(2)
H5 H 0.7832(3) -0.0335(2) 0.4480(2)
H6 H 0.8897(3) -0.0194(2) 0.3010(2)
H7? H 0.8444(3) 0.0080(2) 0.4382(2)
H8? H 0.8473(3) -0.0732(2) 0.2541(2)
H9 H 0.4447(4) -0.2626(3) 0.3727(5)
H10 H 0.3990(4) -0.4175(3) 0.2097(5)
H11 H 0.2295(3) -0.1996(2) 0.2085(3)
H12 H 0.3376(3) -0.2410(2) 0.0617(3)
H13? H 0.2809(3) -0.2095(2) 0.2599(3)
H14? H 0.2676(3) -0.2220(2) 0.0753(3)
H15 H 0.8665(8) -0.4369(8) 0.0991(8)
H16 H 0.9406(8) -0.5199(8) 0.2428(8)
H17 H 0.8574(9) -0.4652(8) 0.4885(9)
H18 H 0.8426(9) -0.2683(8) 0.5458(9)
H19 H 0.6515(9) -0.4312(8) 0.4877(9)
H20? H 0.430(1) -0.436(1) 0.138(1)
H21? H 0.578(1) -0.292(1) 0.083(1)
H22? H 0.718(3) -0.287(3) 0.576(3)
H23? H 0.842(3) -0.432(3) 0.502(3)
H24? H 0.893(2) -0.530(3) 0.262(2)
H25? H 0.708(2) -0.539(3) 0.142(2)
H26? H 0.899(2) -0.379(3) 0.177(2)
H27 H 0.017(4) 0.147(3) 0.028(3)
#END
