
#######################################################################
#
#                 Cambridge Crystallographic Data Centre
#                                CCDC
#
#######################################################################
#
# If this CIF has been generated from an entry in the Cambridge
# Structural Database, then it will include bibliographic, chemical,
# crystal, experimental, refinement or atomic coordinate data resulting
# from the CCDC's data processing and validation procedures.
#
#######################################################################

data_CSD_CIF_VEJTUA
_audit_creation_date 2006-09-28
_audit_creation_method CSD-ConQuest-V1
_database_code_CSD VEJTUA
_database_code_depnum_ccdc_archive 'CCDC 277836'
_chemical_formula_sum 'C9 H13 N2 O2'
_chemical_formula_moiety
;
C9 H13 N2 O2
;
_journal_coden_Cambridge 1291
_journal_year 2006
_journal_page_first 2695
_journal_name_full 'Eur.J.Org.Chem. '
loop_
_publ_author_name
"E.Tretyakov"
"G.Romanenko"
"A.Podoplelov"
"V.Ovcharenko"
_chemical_name_systematic
;
4,4,5,5-Tetramethyl-2-(ethynyl)-1-oxyl-4,5-dihydro-1H-imidazole 3-oxide
;
_chemical_melting_point 375.15
_cell_volume   1995.010
_exptl_crystal_colour 'dark blue-violet'
_exptl_crystal_density_diffrn 1.207
_exptl_special_details
;
Melts with decomposition.
Study temperature given as 571 K in the cif

;
_diffrn_ambient_temperature 293
#These two values have been output from a single CSD field.
_refine_ls_R_factor_gt 0.078
_refine_ls_wR_factor_gt 0.078
_symmetry_cell_setting orthorhombic
_symmetry_space_group_name_H-M 'P b c a'
_symmetry_Int_Tables_number 61
loop_
_symmetry_equiv_pos_site_id
_symmetry_equiv_pos_as_xyz
1 x,y,z
2 1/2-x,-y,1/2+z
3 -x,1/2+y,1/2-z
4 1/2+x,1/2-y,-z
5 -x,-y,-z
6 -1/2+x,y,-1/2-z
7 x,-1/2-y,-1/2+z
8 -1/2-x,-1/2+y,z
_cell_length_a 11.055(3)
_cell_length_b 11.691(3)
_cell_length_c 15.436(4)
_cell_angle_alpha 90
_cell_angle_beta 90
_cell_angle_gamma 90
_cell_formula_units_Z 8
loop_
_atom_type_symbol
_atom_type_radius_bond
C 0.68
H 0.23
N 0.68
O 0.68
loop_
_atom_site_label
_atom_site_type_symbol
_atom_site_fract_x
_atom_site_fract_y
_atom_site_fract_z
O1 O 0.15016(16) 0.48341(13) 0.15277(14)
N1 N 0.10064(16) 0.38764(14) 0.14103(12)
C1 C 0.15603(19) 0.27762(18) 0.16862(17)
C2 C 0.1420(4) 0.2761(4) 0.2675(2)
H1 H 0.184(3) 0.346(2) 0.287(2)
H2 H 0.179(3) 0.204(3) 0.282(2)
H3 H 0.052(4) 0.265(3) 0.282(3)
C3 C 0.2883(2) 0.2750(3) 0.1429(3)
H4 H 0.294(4) 0.276(3) 0.075(3)
H5 H 0.313(3) 0.200(3) 0.157(2)
H6 H 0.327(3) 0.338(3) 0.176(2)
C4 C 0.07396(19) 0.18961(18) 0.12187(15)
C5 C 0.1187(3) 0.1567(3) 0.0320(2)
H7 H 0.184(4) 0.105(3) 0.047(2)
H8 H 0.127(3) 0.232(3) -0.001(2)
H9 H 0.055(3) 0.107(3) 0.007(2)
C6 C 0.0426(3) 0.0851(3) 0.1742(3)
H10 H 0.113(3) 0.038(3) 0.187(2)
H11 H -0.007(3) 0.032(3) 0.143(2)
H12 H -0.001(4) 0.109(3) 0.227(3)
N2 N -0.03681(15) 0.26053(14) 0.10777(12)
O2 O -0.13660(14) 0.21645(14) 0.08359(13)
C7 C -0.01433(18) 0.37104(17) 0.11377(13)
C8 C -0.0996(2) 0.4591(2) 0.09698(15)
C9 C -0.1705(3) 0.5244(2) 0.08620(17)
H13 H -0.222(2) 0.581(2) 0.0810(17)
#END
