
#######################################################################
#
#                 Cambridge Crystallographic Data Centre
#                                CCDC
#
#######################################################################
#
# If this CIF has been generated from an entry in the Cambridge
# Structural Database, then it will include bibliographic, chemical,
# crystal, experimental, refinement or atomic coordinate data resulting
# from the CCDC's data processing and validation procedures.
#
#######################################################################

data_CSD_CIF_VEJVAI
_audit_creation_date 2006-09-28
_audit_creation_method CSD-ConQuest-V1
_database_code_CSD VEJVAI
_database_code_depnum_ccdc_archive 'CCDC 277837'
_chemical_formula_sum 'C14 H26 N2 O2'
_chemical_formula_moiety
;
C14 H26 N2 O2
;
_journal_coden_Cambridge 1291
_journal_year 2006
_journal_page_first 2695
_journal_name_full 'Eur.J.Org.Chem. '
loop_
_publ_author_name
"E.Tretyakov"
"G.Romanenko"
"A.Podoplelov"
"V.Ovcharenko"
_chemical_name_systematic
;
(E)-1-(1-Hydroxy-4,4,5,5-tetramethylimidazolidin-2-ylidene)heptan-2-one
;
_chemical_melting_point 416.15
_cell_volume   3191.549
_exptl_crystal_density_diffrn 1.059
_exptl_special_details
;
Melting point range 416.15-417.15K

;
_diffrn_ambient_temperature 293
#These two values have been output from a single CSD field.
_refine_ls_R_factor_gt 0.0902
_refine_ls_wR_factor_gt 0.0902
_symmetry_cell_setting monoclinic
_symmetry_space_group_name_H-M 'C 2/c'
_symmetry_Int_Tables_number 15
loop_
_symmetry_equiv_pos_site_id
_symmetry_equiv_pos_as_xyz
1 x,y,z
2 1/2+x,1/2+y,z
3 -x,y,1/2-z
4 1/2-x,1/2+y,1/2-z
5 -x,-y,-z
6 -1/2-x,-1/2-y,-z
7 x,-y,-1/2+z
8 -1/2+x,-1/2-y,-1/2+z
_cell_length_a 22.512(6)
_cell_length_b 11.653(3)
_cell_length_c 12.170(3)
_cell_angle_alpha 90
_cell_angle_beta 91.459(6)
_cell_angle_gamma 90
_cell_formula_units_Z 8
loop_
_atom_type_symbol
_atom_type_radius_bond
C 0.68
H 0.23
N 0.68
O 0.68
loop_
_atom_site_label
_atom_site_type_symbol
_atom_site_fract_x
_atom_site_fract_y
_atom_site_fract_z
O1 O 0.28396(17) -0.1554(3) 0.1512(3)
H1 H 0.297(3) -0.147(6) 0.057(6)
N1 N 0.2598(2) -0.0451(4) 0.1638(3)
C1 C 0.1937(3) -0.0341(5) 0.1517(4)
C2 C 0.1740(4) -0.0574(7) 0.0353(6)
H2 H 0.197(2) -0.015(4) -0.019(4)
H3 H 0.131(3) -0.044(5) 0.027(4)
H4 H 0.176(3) -0.141(5) 0.020(4)
C3 C 0.1649(3) -0.1202(6) 0.2301(6)
H5 H 0.177(2) -0.103(4) 0.304(4)
H6 H 0.174(2) -0.203(5) 0.208(4)
H7 H 0.113(3) -0.116(5) 0.205(4)
C4 C 0.1890(3) 0.0918(5) 0.1902(4)
C5 C 0.1294(3) 0.1221(6) 0.2372(6)
H8 H 0.132(2) 0.216(5) 0.256(4)
H9 H 0.119(2) 0.068(4) 0.312(4)
H10 H 0.097(3) 0.117(5) 0.180(4)
C6 C 0.2032(4) 0.1771(7) 0.0999(6)
H11 H 0.209(3) 0.257(7) 0.125(5)
H12 H 0.169(3) 0.163(6) 0.036(5)
H13 H 0.236(2) 0.159(4) 0.070(4)
N2 N 0.2363(2) 0.0930(4) 0.2742(4)
H14 H 0.244(2) 0.162(5) 0.331(4)
C7 C 0.2776(3) 0.0169(5) 0.2559(4)
C8 C 0.3298(3) -0.0030(6) 0.3167(5)
H15 H 0.347(2) -0.059(4) 0.298(3)
O2 O 0.31186(17) 0.1391(3) 0.4455(3)
C9 C 0.3428(3) 0.0549(5) 0.4121(5)
C10 C 0.3947(3) 0.0153(6) 0.4846(6)
H16 H 0.377(3) -0.027(5) 0.546(4)
H17 H 0.426(3) -0.030(5) 0.436(5)
C11 C 0.4309(4) 0.1146(7) 0.5330(7)
H18 H 0.408(5) 0.194(9) 0.579(7)
H19 H 0.470(4) 0.081(6) 0.585(6)
C12 C 0.4629(4) 0.1768(8) 0.4495(8)
H20 H 0.440(3) 0.222(5) 0.380(5)
H21 H 0.486(2) 0.144(5) 0.377(4)
C13 C 0.4987(5) 0.2775(12) 0.5021(11)
H22 H 0.480(5) 0.359(11) 0.515(8)
H23 H 0.536(6) 0.247(9) 0.551(9)
C14 C 0.5291(8) 0.3449(16) 0.4159(12)
H24 H 0.55100 0.40670 0.44970
H25 H 0.49990 0.37560 0.36490
H26 H 0.55580 0.29590 0.37740
#END
