
#######################################################################
#
#                 Cambridge Crystallographic Data Centre
#                                CCDC
#
#######################################################################
#
# If this CIF has been generated from an entry in the Cambridge
# Structural Database, then it will include bibliographic, chemical,
# crystal, experimental, refinement or atomic coordinate data resulting
# from the CCDC's data processing and validation procedures.
#
#######################################################################

data_CSD_CIF_VEJXAM
_audit_creation_date 2017-09-13
_audit_creation_method CSD-ConQuest-V1
_database_code_CSD VEJXAM
_database_code_depnum_ccdc_archive 'CCDC 1534928'
_chemical_formula_sum 'C18 H26 N4 O5'
_chemical_formula_moiety
;
C18 H26 N4 O5
;
_journal_coden_Cambridge 1606
_journal_volume 6
_journal_year 2017
_journal_page_first 1250
_journal_name_full 'Asian J.Org.Chem '
loop_
_publ_author_name
"T.Moriuchi"
"Hao Wu"
"Y.Tayano"
"T.Hirao"
_chemical_name_systematic
;
N-(t-butoxycarbonyl)-L-alanyl-N-(1-oxidopyridin-2-yl)-L-prolinamide
;
_chemical_name_common
;
PEPSEQ A=2 ALA*-PRO*
;
_cell_volume   1918.010
_exptl_crystal_colour 'colorless'
_exptl_crystal_density_diffrn 1.31
_exptl_crystal_description 'block'
_exptl_crystal_preparation 'dichloromethane/hexane'
_diffrn_ambient_temperature 123
#These two values have been output from a single CSD field.
_refine_ls_R_factor_gt 0.0473
_refine_ls_wR_factor_gt 0.0473
_symmetry_cell_setting orthorhombic
_symmetry_space_group_name_H-M 'P 21 21 21'
_symmetry_Int_Tables_number 19
loop_
_symmetry_equiv_pos_site_id
_symmetry_equiv_pos_as_xyz
1 x,y,z
2 1/2-x,-y,1/2+z
3 1/2+x,1/2-y,-z
4 -x,1/2+y,1/2-z
_cell_length_a 6.37447(12)
_cell_length_b 14.6943(3)
_cell_length_c 20.4766(4)
_cell_angle_alpha 90
_cell_angle_beta 90
_cell_angle_gamma 90
_cell_formula_units_Z 4
loop_
_atom_type_symbol
_atom_type_radius_bond
C 0.68
H 0.23
N 0.68
O 0.68
loop_
_atom_site_label
_atom_site_type_symbol
_atom_site_fract_x
_atom_site_fract_y
_atom_site_fract_z
O1 O 0.3881(4) 0.21010(17) 0.90638(12)
O2 O 0.3282(5) 0.03074(18) 1.01418(12)
O3 O 0.3197(4) 0.26342(16) 1.17472(11)
O4 O 0.2492(4) 0.16278(16) 0.67815(11)
O5 O 0.5709(4) 0.23060(16) 0.68241(11)
N1 N 0.4202(4) 0.1859(2) 0.77471(13)
N2 N 0.1082(5) 0.11760(18) 0.91609(13)
N3 N 0.2529(5) 0.14353(19) 1.08734(14)
N4 N 0.4079(4) 0.18376(18) 1.18425(13)
C1 C 0.5867(6) 0.2419(2) 0.61080(15)
C2 C 0.8042(6) 0.2810(3) 0.60255(18)
H1 H 0.83190 0.29140 0.55610
H2 H 0.81400 0.33890 0.62620
H3 H 0.90780 0.23820 0.62000
C3 C 0.4216(6) 0.3097(3) 0.58753(18)
H4 H 0.43250 0.31710 0.54010
H5 H 0.28160 0.28700 0.59870
H6 H 0.44470 0.36860 0.60880
C4 C 0.5706(6) 0.1509(2) 0.57626(17)
H7 H 0.58150 0.16020 0.52900
H8 H 0.68460 0.11110 0.59090
H9 H 0.43530 0.12270 0.58650
C5 C 0.4006(5) 0.1902(2) 0.70866(15)
C6 C 0.2884(5) 0.1233(2) 0.81056(16)
H10 H 0.14650 0.12190 0.78980
C7 C 0.3822(6) 0.0273(2) 0.80852(18)
H11 H 0.29170 -0.01450 0.83290
H12 H 0.39270 0.00690 0.76310
H13 H 0.52230 0.02810 0.82830
C8 C 0.2653(5) 0.1553(2) 0.88136(16)
C9 C 0.0726(5) 0.1436(2) 0.98369(16)
H14 H 0.07540 0.21130 0.98830
C10 C -0.1483(7) 0.1066(3) 0.9989(2)
H15 H -0.15540 0.08240 1.04400
H16 H -0.25550 0.15480 0.99370
C11 C -0.1804(7) 0.0332(3) 0.9506(2)
H17 H -0.13290 -0.02570 0.96880
H18 H -0.33100 0.02810 0.93950
C12 C -0.0577(6) 0.0560(2) 0.89205(18)
H19 H -0.14650 0.08680 0.85910
H20 H 0.00380 0.00060 0.87230
C13 C 0.2340(6) 0.1003(2) 1.02827(17)
C14 C 0.3805(6) 0.1168(2) 1.13862(16)
C15 C 0.4728(7) 0.0322(3) 1.14774(18)
H21 H 0.45080 -0.01530 1.11700
C16 C 0.5972(7) 0.0176(3) 1.20226(18)
H22 H 0.66230 -0.03980 1.20890
C17 C 0.6261(6) 0.0872(3) 1.24692(18)
H23 H 0.71380 0.07810 1.28390
C18 C 0.5282(5) 0.1691(3) 1.23775(17)
H24 H 0.54470 0.21610 1.26920
H25 H 0.543(4) 0.208(2) 0.7945(14)
H26 H 0.188(6) 0.1982(19) 1.0920(16)
#END
