
#######################################################################
#
#                 Cambridge Crystallographic Data Centre
#                                CCDC
#
#######################################################################
#
# If this CIF has been generated from an entry in the Cambridge
# Structural Database, then it will include bibliographic, chemical,
# crystal, experimental, refinement or atomic coordinate data resulting
# from the CCDC's data processing and validation procedures.
#
#######################################################################

data_CSD_CIF_VELKIH
_audit_creation_date 2006-09-28
_audit_creation_method CSD-ConQuest-V1
_database_code_CSD VELKIH
_database_code_depnum_ccdc_archive 'CCDC 618283'
_chemical_formula_sum 'C20 H14 N2 O3'
_chemical_formula_moiety
;
C20 H14 N2 O3
;
_journal_coeditor_code "IUCr LH2137"
_journal_coden_Cambridge 1370
_journal_volume 62
_journal_year 2006
_journal_page_first o3422
_journal_name_full 'Acta Crystallogr.,Sect.E:Struct.Rep.Online '
loop_
_publ_author_name
"Shao-Fa Sun"
"Rong-Ming Ma"
"S.W.Ng"
_chemical_name_systematic
;
2-(4-Nitrophenylimino)-1,2-diphenylethanone
;
_cell_volume   1637.149
_exptl_crystal_colour 'yellow'
_exptl_crystal_density_diffrn 1.34
_exptl_crystal_description 'block'
_exptl_crystal_preparation 'ethanol'
_diffrn_ambient_temperature 292
#These two values have been output from a single CSD field.
_refine_ls_R_factor_gt 0.0591
_refine_ls_wR_factor_gt 0.0591
_symmetry_cell_setting monoclinic
_symmetry_space_group_name_H-M 'P 21/c'
_symmetry_Int_Tables_number 14
loop_
_symmetry_equiv_pos_site_id
_symmetry_equiv_pos_as_xyz
1 x,y,z
2 -x,1/2+y,1/2-z
3 -x,-y,-z
4 x,-1/2-y,-1/2+z
_cell_length_a 8.8265(7)
_cell_length_b 11.5590(9)
_cell_length_c 16.365(1)
_cell_angle_alpha 90
_cell_angle_beta 101.323(1)
_cell_angle_gamma 90
_cell_formula_units_Z 4
loop_
_atom_type_symbol
_atom_type_radius_bond
C 0.68
H 0.23
N 0.68
O 0.68
loop_
_atom_site_label
_atom_site_type_symbol
_atom_site_fract_x
_atom_site_fract_y
_atom_site_fract_z
O1 O 0.6066(2) 0.3791(1) 0.23691(1)
O2 O 0.0896(2) 0.2951(1) 0.48657(1)
O3 O -0.0591(2) 0.4300(1) 0.4244(1)
N1 N 0.5782(2) 0.5997(1) 0.3506(1)
N2 N 0.0686(2) 0.3850(2) 0.4462(1)
C1 C 0.7683(2) 0.6346(1) 0.2674(1)
C2 C 0.8150(2) 0.7382(2) 0.3062(1)
C3 C 0.9394(3) 0.7977(2) 0.2875(2)
C4 C 1.0203(2) 0.7527(2) 0.2303(1)
C5 C 0.9755(2) 0.6500(2) 0.1922(1)
C6 C 0.8494(2) 0.5914(2) 0.2099(1)
C7 C 0.6331(2) 0.5725(1) 0.2866(1)
C8 C 0.5637(2) 0.4785(1) 0.2250(1)
C9 C 0.4487(2) 0.5158(1) 0.1510(1)
C10 C 0.3954(2) 0.4358(2) 0.0885(1)
C11 C 0.2866(3) 0.4679(2) 0.0203(1)
C12 C 0.2309(3) 0.5793(2) 0.0129(1)
C13 C 0.2837(2) 0.6604(2) 0.0736(1)
C14 C 0.3930(2) 0.6285(2) 0.1429(1)
C15 C 0.4495(2) 0.5420(2) 0.3710(1)
C16 C 0.4614(2) 0.4301(2) 0.4020(1)
C17 C 0.3381(2) 0.3791(2) 0.4277(1)
C18 C 0.2023(2) 0.4396(2) 0.4213(1)
C19 C 0.1876(2) 0.5518(2) 0.3916(1)
C20 C 0.3130(2) 0.6036(2) 0.3681(1)
H1 H 0.76210 0.76820 0.34530
H2 H 0.96890 0.86810 0.31330
H3 H 1.10470 0.79240 0.21790
H4 H 1.03010 0.61920 0.15420
H5 H 0.81870 0.52210 0.18290
H6 H 0.43350 0.36060 0.09280
H7 H 0.25040 0.41410 -0.02120
H8 H 0.15700 0.60010 -0.03350
H9 H 0.24640 0.73580 0.06810
H10 H 0.42920 0.68270 0.18410
H11 H 0.55320 0.38930 0.40530
H12 H 0.34650 0.30440 0.44920
H13 H 0.09480 0.59150 0.38760
H14 H 0.30630 0.68020 0.35020
#END
