
#######################################################################
#
#                 Cambridge Crystallographic Data Centre
#                                CCDC
#
#######################################################################
#
# If this CIF has been generated from an entry in the Cambridge
# Structural Database, then it will include bibliographic, chemical,
# crystal, experimental, refinement or atomic coordinate data resulting
# from the CCDC's data processing and validation procedures.
#
#######################################################################

data_CSD_CIF_VELQEK
_audit_creation_date 2013-04-04
_audit_creation_method CSD-ConQuest-V1
_database_code_CSD VELQEK
_database_code_depnum_ccdc_archive 'CCDC 876278'
_chemical_formula_sum 'C20 H13 N3 O2'
_chemical_formula_moiety
;
C20 H13 N3 O2
;
_journal_coden_Cambridge 24
_journal_volume 53
_journal_year 2012
_journal_page_first 6167
_journal_name_full 'Tetrahedron Lett. '
loop_
_publ_author_name
"S.K.Panja"
"N.Dwivedi"
"S.Saha"
_chemical_name_systematic
;
2-(2-Nitrophenyl)-4-phenylquinazoline
;
_chemical_melting_point 400.6
_cell_volume    790.791
_exptl_crystal_colour 'brown'
_exptl_crystal_density_diffrn 1.375
_exptl_crystal_description 'rectangular'
_diffrn_ambient_temperature 298
#These two values have been output from a single CSD field.
_refine_ls_R_factor_gt 0.0464
_refine_ls_wR_factor_gt 0.0464
_symmetry_cell_setting triclinic
_symmetry_space_group_name_H-M 'P -1'
_symmetry_Int_Tables_number 2
loop_
_symmetry_equiv_pos_site_id
_symmetry_equiv_pos_as_xyz
1 x,y,z
2 -x,-y,-z
_cell_length_a 7.6465(7)
_cell_length_b 8.4050(8)
_cell_length_c 12.9308(14)
_cell_angle_alpha 84.270(8)
_cell_angle_beta 73.021(9)
_cell_angle_gamma 89.007(8)
_cell_formula_units_Z 2
loop_
_atom_type_symbol
_atom_type_radius_bond
C 0.68
H 0.23
N 0.68
O 0.68
loop_
_atom_site_label
_atom_site_type_symbol
_atom_site_fract_x
_atom_site_fract_y
_atom_site_fract_z
N1 N 0.46518(17) 0.68519(16) 0.22989(12)
N2 N 0.59084(18) 0.82484(16) 0.05345(12)
C1 C 0.4678(2) 0.74779(19) 0.01732(14)
C2 C 0.7251(2) 0.86369(19) 0.19406(15)
C3 C 0.5853(2) 0.78712(19) 0.15545(15)
C4 C 0.3420(2) 0.61250(19) 0.19660(15)
C5 C 0.3432(2) 0.63341(19) 0.08542(15)
C6 C 0.2322(2) 0.5468(2) 0.04017(16)
H1 H 0.15500 0.46590 0.08290
N3 N 0.5097(2) 0.89823(19) 0.37577(14)
C7 C 0.3536(2) 0.7018(2) -0.13161(16)
H2 H 0.35200 0.72720 -0.20300
C8 C 0.6939(2) 0.9101(2) 0.29753(15)
C9 C 0.4683(2) 0.7821(2) -0.09178(15)
H3 H 0.54760 0.86000 -0.13660
O1 O 0.38517(16) 0.96569(17) 0.34898(12)
C10 C 0.9017(2) 0.8886(2) 0.12447(15)
H4 H 0.92960 0.85740 0.05450
C11 C 0.8262(2) 0.9797(2) 0.33224(16)
H5 H 0.79960 1.00920 0.40260
C12 C 0.2069(2) 0.5092(2) 0.28091(15)
C13 C 1.0363(2) 0.9590(2) 0.15717(17)
H6 H 1.15290 0.97540 0.10900
C14 C 0.2379(2) 0.5812(2) -0.06601(17)
H7 H 0.16390 0.52380 -0.09510
O2 O 0.49317(19) 0.8266(2) 0.46511(12)
C15 C 0.9989(2) 1.0046(2) 0.26027(18)
H8 H 1.08990 1.05230 0.28170
C16 C 0.2616(3) 0.4074(2) 0.35532(16)
H9 H 0.38500 0.40160 0.35140
C17 C 0.0204(2) 0.5183(2) 0.28971(17)
H10 H -0.01970 0.58660 0.24040
C18 C 0.1363(3) 0.3141(2) 0.43551(18)
H11 H 0.17570 0.24420 0.48440
C19 C -0.0463(3) 0.3234(3) 0.44372(19)
H12 H -0.13060 0.26030 0.49820
C20 C -0.1046(3) 0.4257(3) 0.37191(19)
H13 H -0.22870 0.43300 0.37830
#END
