
#######################################################################
#
#                 Cambridge Crystallographic Data Centre
#                                CCDC
#
#######################################################################
#
# If this CIF has been generated from an entry in the Cambridge
# Structural Database, then it will include bibliographic, chemical,
# crystal, experimental, refinement or atomic coordinate data resulting
# from the CCDC's data processing and validation procedures.
#
#######################################################################

data_CSD_CIF_VEMBOG
_audit_creation_date 2013-04-04
_audit_creation_method CSD-ConQuest-V1
_database_code_CSD VEMBOG
_database_code_depnum_ccdc_archive 'CCDC 902058'
_chemical_formula_sum 'C18 H16 N2 O8'
_chemical_formula_moiety
;
C18 H16 N2 O8
;
_journal_coden_Cambridge 24
_journal_volume 53
_journal_year 2012
_journal_page_first 6830
_journal_name_full 'Tetrahedron Lett. '
loop_
_publ_author_name
"A.Jana"
"S.Mondal"
"M.F.Hossain"
"S.Ghosh"
_chemical_name_systematic
;
1-(2-Oxohexahydro-3-oxacyclobuta[cd]pentalen-1a(2H)-yl)prop-2-en-1-yl 
3,5-dinitrobenzoate
;
_cell_volume   1733.686
_exptl_crystal_colour 'colorless'
_exptl_crystal_density_diffrn 1.488
_exptl_crystal_description 'needle'
_diffrn_ambient_temperature 150
#These two values have been output from a single CSD field.
_refine_ls_R_factor_gt 0.0596
_refine_ls_wR_factor_gt 0.0596
_symmetry_cell_setting orthorhombic
_symmetry_space_group_name_H-M 'P 21 21 21'
_symmetry_Int_Tables_number 19
loop_
_symmetry_equiv_pos_site_id
_symmetry_equiv_pos_as_xyz
1 x,y,z
2 1/2-x,-y,1/2+z
3 -x,1/2+y,1/2-z
4 1/2+x,1/2-y,-z
_cell_length_a 5.830(3)
_cell_length_b 9.556(4)
_cell_length_c 31.119(14)
_cell_angle_alpha 90
_cell_angle_beta 90
_cell_angle_gamma 90
_cell_formula_units_Z 4
loop_
_atom_type_symbol
_atom_type_radius_bond
C 0.68
H 0.23
N 0.68
O 0.68
loop_
_atom_site_label
_atom_site_type_symbol
_atom_site_fract_x
_atom_site_fract_y
_atom_site_fract_z
O1 O 0.8586(7) 0.3524(5) -0.08415(13)
O2 O 0.5696(7) 0.4535(5) -0.11501(13)
O3 O 0.9190(7) 0.3388(4) 0.07324(12)
O4 O 0.0011(6) 0.6590(4) 0.04053(13)
O5 O -0.0264(7) 0.6612(4) -0.02921(13)
N1 N 0.0709(8) 0.6269(5) 0.00465(17)
N2 N 0.6731(8) 0.4113(5) -0.08332(15)
C1 C 0.5674(9) 0.4380(6) -0.04087(17)
C2 C 0.2815(9) 0.5422(6) 0.00097(18)
C3 C 0.5952(9) 0.4299(6) 0.03569(16)
C4 C 0.7376(9) 0.3989(6) 0.07448(18)
C5 C 0.6841(9) 0.3951(6) -0.00473(17)
H1 H 0.81930 0.34410 -0.00710
C6 C 0.3910(9) 0.5041(6) 0.03873(18)
H2 H 0.32940 0.52760 0.06530
C7 C 0.3669(9) 0.5106(6) -0.03914(18)
H3 H 0.29060 0.53770 -0.06400
O6 O 0.6391(6) 0.4511(4) 0.10981(11)
C8 C 0.7278(10) 0.3177(6) 0.17429(18)
H4 H 0.57930 0.28230 0.17560
C9 C 0.7680(9) 0.4493(6) 0.15061(17)
H5 H 0.93220 0.45860 0.14450
C10 C 0.8918(12) 0.2490(7) 0.1935(2)
H6 H 1.04150 0.28250 0.19260
H7 H 0.85910 0.16640 0.20810
O7 O 0.2886(6) 0.5050(4) 0.18418(12)
O8 O 0.3527(6) 0.7116(4) 0.15383(13)
C11 C 0.7865(9) 0.6175(6) 0.21754(17)
H8 H 0.93000 0.56980 0.22350
H9 H 0.67950 0.60620 0.24120
C12 C 0.5439(9) 0.8057(6) 0.14343(18)
H10 H 0.54510 0.83180 0.11300
C13 C 0.7601(9) 0.7263(6) 0.15630(18)
H11 H 0.88710 0.72700 0.13570
C14 C 0.8171(9) 0.7719(6) 0.20281(18)
H12 H 0.97310 0.80830 0.20650
C15 C 0.5363(11) 0.9329(6) 0.17254(18)
H13 H 0.38090 0.96780 0.17560
H14 H 0.63330 1.00730 0.16160
C16 C 0.6278(10) 0.8758(7) 0.21532(18)
H15 H 0.50690 0.82900 0.23120
H16 H 0.68940 0.95080 0.23290
C17 C 0.6829(9) 0.5821(6) 0.17294(17)
C18 C 0.4241(10) 0.5892(7) 0.17156(17)
#END
