
#######################################################################
#
#                 Cambridge Crystallographic Data Centre
#                                CCDC
#
#######################################################################
#
# If this CIF has been generated from an entry in the Cambridge
# Structural Database, then it will include bibliographic, chemical,
# crystal, experimental, refinement or atomic coordinate data resulting
# from the CCDC's data processing and validation procedures.
#
#######################################################################

data_CSD_CIF_VEMTUC
_audit_creation_date 1991-02-22
_audit_creation_method CSD-ConQuest-V1
_database_code_CSD VEMTUC
_chemical_formula_sum 'C13 H6 N4 O11'
_chemical_formula_moiety
;
C13 H6 N4 O11
;
_journal_coeditor_code "IUCr CR0190"
_journal_coden_Cambridge 591
_journal_volume 46
_journal_year 1990
_journal_page_first 1330
_journal_name_full 'Acta Crystallogr.,Sect.C:Cryst.Struct.Commun. '
loop_
_publ_author_name
"J.A.King Junior"
"G.L.Bryant Junior"
_chemical_name_systematic
;
2,4-Dinitrophenyl 2,4-dinitrophenoxyformate
;
_cell_volume   1473.269
_exptl_crystal_density_diffrn 1.775
_exptl_special_details
;
Moisture-sensitive

;
_diffrn_ambient_temperature 185
#These two values have been output from a single CSD field.
_refine_ls_R_factor_gt 0.0579
_refine_ls_wR_factor_gt 0.0579
_symmetry_cell_setting monoclinic
_symmetry_space_group_name_H-M 'P 21/c'
_symmetry_Int_Tables_number 14
loop_
_symmetry_equiv_pos_site_id
_symmetry_equiv_pos_as_xyz
1 x,y,z
2 -x,1/2+y,1/2-z
3 -x,-y,-z
4 x,-1/2-y,-1/2+z
_cell_length_a 10.682(4)
_cell_length_b 16.968(6)
_cell_length_c 8.243(3)
_cell_angle_alpha 90
_cell_angle_beta 99.57(9)
_cell_angle_gamma 90
_cell_formula_units_Z 4
loop_
_atom_type_symbol
_atom_type_radius_bond
C 0.68
H 0.23
N 0.68
O 0.68
loop_
_atom_site_label
_atom_site_type_symbol
_atom_site_fract_x
_atom_site_fract_y
_atom_site_fract_z
N1 N 0.3143(2) 0.5927(1) -0.2473(3)
N2 N 0.4559(2) 0.3516(1) -0.4810(3)
N3 N 0.0440(2) 0.5083(1) 0.3241(3)
N4 N -0.1318(2) 0.7658(2) 0.4229(3)
O1 O 0.1353(2) 0.5362(1) -0.0059(3)
O2 O 0.3440(2) 0.5081(1) 0.0739(2)
O3 O 0.3229(2) 0.6345(1) -0.1253(3)
O4 O 0.2814(2) 0.6163(1) -0.3880(3)
O5 O 0.4292(2) 0.3824(1) -0.6171(3)
O6 O 0.5124(2) 0.2891(1) -0.4543(3)
O7 O 0.2574(2) 0.5925(1) 0.2146(3)
O8 O 0.1416(2) 0.4696(1) 0.3286(3)
O9 O -0.0593(2) 0.4800(1) 0.3376(2)
O10 O -0.2162(2) 0.7305(1) 0.4763(3)
O11 O -0.1207(2) 0.8376(1) 0.4264(3)
C1 C 0.2328(3) 0.5446(2) 0.0829(3)
C2 C 0.3573(2) 0.4707(2) -0.0728(3)
C3 C 0.3484(3) 0.5090(2) -0.2242(3)
C4 C 0.3766(2) 0.4695(2) -0.3598(3)
C5 C 0.4176(3) 0.3923(2) -0.3398(4)
C6 C 0.4259(3) 0.3531(2) -0.1922(4)
C7 C 0.3932(3) 0.3924(2) -0.0587(4)
C8 C 0.1532(3) 0.6322(2) 0.2560(3)
C9 C 0.0516(3) 0.5946(2) 0.3096(3)
C10 C -0.0444(3) 0.6379(2) 0.3612(4)
C11 C -0.0346(3) 0.7192(2) 0.3587(4)
C12 C 0.0643(3) 0.7582(2) 0.3047(4)
C13 C 0.1588(3) 0.7136(2) 0.2515(4)
H1 H 0.36850 0.49500 -0.46480
H2 H 0.45470 0.29940 -0.18260
H3 H 0.39480 0.36520 0.04360
H4 H -0.11500 0.61250 0.39770
H5 H 0.06760 0.81470 0.30470
H6 H 0.22780 0.73900 0.21130
#END
