
#######################################################################
#
#                 Cambridge Crystallographic Data Centre
#                                CCDC
#
#######################################################################
#
# If this CIF has been generated from an entry in the Cambridge
# Structural Database, then it will include bibliographic, chemical,
# crystal, experimental, refinement or atomic coordinate data resulting
# from the CCDC's data processing and validation procedures.
#
#######################################################################

data_CSD_CIF_VENLEG
_audit_creation_date 2006-12-04
_audit_creation_method CSD-ConQuest-V1
_database_code_CSD VENLEG
_database_code_depnum_ccdc_archive 'CCDC 621484'
_chemical_formula_sum 'C27 H27 N7 O6'
_chemical_formula_moiety
;
C27 H27 N7 O6
;
_journal_coeditor_code "IUCr SJ2093"
_journal_coden_Cambridge 1370
_journal_volume 62
_journal_year 2006
_journal_page_first o3747
_journal_name_full 'Acta Crystallogr.,Sect.E:Struct.Rep.Online '
loop_
_publ_author_name
"V.McKee"
"G.G.Morgan"
"J.Nelson"
_chemical_name_systematic
;
tris(2-(2-Nitrobenzylideneamino)ethyl)amine
;
_cell_volume   3903.332
_exptl_crystal_colour 'yellow'
_exptl_crystal_density_diffrn 1.393
_exptl_crystal_description 'block'
_diffrn_ambient_temperature 123
#These two values have been output from a single CSD field.
_refine_ls_R_factor_gt 0.0467
_refine_ls_wR_factor_gt 0.0467
_symmetry_cell_setting rhombohedral
_symmetry_space_group_name_H-M 'R -3'
_symmetry_Int_Tables_number 148
loop_
_symmetry_equiv_pos_site_id
_symmetry_equiv_pos_as_xyz
1 x,y,z
2 -y,x-y,z
3 -x+y,-x,z
4 2/3+x,1/3+y,1/3+z
5 2/3-y,1/3+x-y,1/3+z
6 2/3-x+y,1/3-x,1/3+z
7 1/3+x,2/3+y,2/3+z
8 1/3-y,2/3+x-y,2/3+z
9 1/3-x+y,2/3-x,2/3+z
10 -x,-y,-z
11 y,-x+y,-z
12 x-y,x,-z
13 -2/3-x,-1/3-y,-1/3-z
14 -2/3+y,-1/3-x+y,-1/3-z
15 -2/3+x-y,-1/3+x,-1/3-z
16 -1/3-x,-2/3-y,-2/3-z
17 -1/3+y,-2/3-x+y,-2/3-z
18 -1/3+x-y,-2/3+x,-2/3-z
_cell_length_a 20.765(1)
_cell_length_b 20.765(1)
_cell_length_c 10.453(1)
_cell_angle_alpha 90
_cell_angle_beta 90
_cell_angle_gamma 120
_cell_formula_units_Z 6
loop_
_atom_type_symbol
_atom_type_radius_bond
C 0.68
H 0.23
N 0.68
O 0.68
loop_
_atom_site_label
_atom_site_type_symbol
_atom_site_fract_x
_atom_site_fract_y
_atom_site_fract_z
N1 N 1.00000 0.00000 0.2625(3)
C1 C 0.95311(10) 0.03093(10) 0.2257(2)
H1 H 0.93010 0.01060 0.14140
H2 H 0.98420 0.08560 0.21730
C2 C 0.89304(10) 0.01266(11) 0.3229(2)
H3 H 0.86460 -0.04180 0.33660
H4 H 0.91590 0.03650 0.40540
N2 N 0.84242(8) 0.03839(8) 0.28074(16)
C3 C 0.77375(9) -0.00662(9) 0.29467(16)
H5 H 0.75720 -0.05610 0.32210
C4 C 0.71876(9) 0.01770(9) 0.26824(15)
C5 C 0.74417(10) 0.0939(1) 0.26214(17)
H6 H 0.79610 0.12790 0.26610
C6 C 0.69605(11) 0.12121(10) 0.25056(18)
H7 H 0.71520 0.17330 0.24500
C7 C 0.61985(11) 0.07295(11) 0.24696(18)
H8 H 0.58680 0.09200 0.24060
C8 C 0.59218(9) -0.00295(10) 0.25268(17)
H9 H 0.54010 -0.03650 0.25110
C9 C 0.64171(9) -0.02941(9) 0.26073(15)
N3 N 0.60806(8) -0.11087(8) 0.25530(14)
O1 O 0.64710(8) -0.13623(7) 0.21889(13)
O2 O 0.54240(8) -0.14936(8) 0.28380(15)
C1A C 0.96907(10) -0.07782(10) 0.2257(2)
C1B C 1.07782(10) 0.04689(10) 0.2257(2)
H1A H 0.98940 -0.08050 0.14140
H1B H 1.08050 0.06990 0.14140
H2A H 0.91440 -0.10140 0.21730
H2B H 1.10140 0.01580 0.21730
C2A C 0.98734(10) -0.11962(11) 0.3229(2)
C2B C 1.11962(10) 0.10696(11) 0.3229(2)
H3A H 1.04180 -0.09360 0.33660
H3B H 1.09360 0.13540 0.33660
H4A H 0.96350 -0.12060 0.40540
H4B H 1.12060 0.08410 0.40540
N2A N 0.96161(8) -0.19597(8) 0.28074(16)
N2B N 1.19597(8) 0.15758(8) 0.28074(16)
C3A C 1.00662(9) -0.21963(9) 0.29467(16)
C3B C 1.21963(9) 0.22625(9) 0.29467(16)
H5A H 1.05610 -0.18670 0.32210
H5B H 1.18670 0.24280 0.32210
C4A C 0.98230(9) -0.29894(9) 0.26824(15)
C4B C 1.29894(9) 0.28124(9) 0.26824(15)
C5A C 0.9061(1) -0.34973(10) 0.26214(17)
C5B C 1.34973(10) 0.25583(10) 0.26214(17)
H6A H 0.87210 -0.33180 0.26610
H6B H 1.33180 0.20390 0.26610
C6A C 0.87879(11) -0.42516(10) 0.25056(18)
C6B C 1.42516(11) 0.30395(10) 0.25056(18)
H7A H 0.82670 -0.45810 0.24500
H7B H 1.45810 0.28480 0.24500
C7A C 0.92705(11) -0.45310(11) 0.24696(18)
C7B C 1.45310(11) 0.38015(11) 0.24696(18)
H8A H 0.90800 -0.50520 0.24060
H8B H 1.50520 0.41320 0.24060
C8A C 1.00295(9) -0.40487(10) 0.25268(17)
C8B C 1.40487(9) 0.40782(10) 0.25268(17)
H9A H 1.03650 -0.42340 0.25110
H9B H 1.42340 0.45990 0.25110
C9A C 1.02941(9) -0.32888(9) 0.26073(15)
C9B C 1.32888(9) 0.35829(9) 0.26073(15)
N3A N 1.11087(8) -0.28107(8) 0.25530(14)
N3B N 1.28107(8) 0.39194(8) 0.25530(14)
O1A O 1.13623(8) -0.21667(7) 0.21889(13)
O1B O 1.21667(8) 0.35290(7) 0.21889(13)
O2A O 1.14936(8) -0.30824(8) 0.28380(15)
O2B O 1.30824(8) 0.45760(8) 0.28380(15)
#END
