
#######################################################################
#
#                 Cambridge Crystallographic Data Centre
#                                CCDC
#
#######################################################################
#
# If this CIF has been generated from an entry in the Cambridge
# Structural Database, then it will include bibliographic, chemical,
# crystal, experimental, refinement or atomic coordinate data resulting
# from the CCDC's data processing and validation procedures.
#
#######################################################################

data_CSD_CIF_VENLOQ
_audit_creation_date 2006-12-04
_audit_creation_method CSD-ConQuest-V1
_database_code_CSD VENLOQ
_database_code_depnum_ccdc_archive 'CCDC 621486'
_chemical_formula_sum 'C14 H10 N4 O6'
_chemical_formula_moiety
;
C14 H10 N4 O6
;
_journal_coeditor_code "IUCr SJ2095"
_journal_coden_Cambridge 1370
_journal_volume 62
_journal_year 2006
_journal_page_first o3780
_journal_name_full 'Acta Crystallogr.,Sect.E:Struct.Rep.Online '
loop_
_publ_author_name
"Yong-Hong Wen"
"Xin Shen"
"Sai Bi"
"Shu-Sheng Zhang"
_chemical_name_systematic
;
N,N'-bis(4-Nitrophenyl)oxamide
;
_cell_volume    694.790
_exptl_crystal_colour 'colorless'
_exptl_crystal_density_diffrn 1.579
_exptl_crystal_description 'needle'
_exptl_crystal_preparation 'dimethylformamide'
_diffrn_ambient_temperature 293
#These two values have been output from a single CSD field.
_refine_ls_R_factor_gt 0.0484
_refine_ls_wR_factor_gt 0.0484
_symmetry_cell_setting monoclinic
_symmetry_space_group_name_H-M 'P 21/c'
_symmetry_Int_Tables_number 14
loop_
_symmetry_equiv_pos_site_id
_symmetry_equiv_pos_as_xyz
1 x,y,z
2 -x,1/2+y,1/2-z
3 -x,-y,-z
4 x,-1/2-y,-1/2+z
_cell_length_a 3.7185(8)
_cell_length_b 13.942(3)
_cell_length_c 13.571(3)
_cell_angle_alpha 90
_cell_angle_beta 99.059(6)
_cell_angle_gamma 90
_cell_formula_units_Z 2
loop_
_atom_type_symbol
_atom_type_radius_bond
C 0.68
H 0.23
N 0.68
O 0.68
loop_
_atom_site_label
_atom_site_type_symbol
_atom_site_fract_x
_atom_site_fract_y
_atom_site_fract_z
O1 O -0.3471(4) -0.12462(12) -0.55005(11)
O2 O -0.0265(4) -0.25422(12) -0.53195(11)
O3 O 0.2323(5) 0.07470(12) -0.08431(11)
N1 N -0.1298(5) -0.17827(13) -0.49971(12)
N2 N 0.4290(5) -0.07814(12) -0.10492(12)
H1 H 0.55560 -0.12290 -0.07260
C1 C 0.3343(5) -0.19258(14) -0.23766(15)
H2 H 0.45970 -0.23720 -0.19420
C2 C 0.2030(5) -0.21848(15) -0.33440(14)
H3 H 0.24050 -0.28000 -0.35730
C3 C 0.0135(5) -0.15098(14) -0.39701(14)
C4 C -0.0466(5) -0.05960(15) -0.36570(14)
H4 H -0.17700 -0.01590 -0.40930
C5 C 0.0890(5) -0.03310(15) -0.26888(14)
H5 H 0.05310 0.02880 -0.24690
C6 C 0.2800(5) -0.09995(14) -0.20447(14)
C7 C 0.3987(6) 0.00299(15) -0.05385(15)
O1B O 1.3471(4) 0.12462(12) 0.55005(11)
O2B O 1.0265(4) 0.25422(12) 0.53195(11)
O3B O 0.7677(5) -0.07470(12) 0.08431(11)
N1B N 1.1298(5) 0.17827(13) 0.49971(12)
N2B N 0.5710(5) 0.07814(12) 0.10492(12)
H1B H 0.44440 0.12290 0.07260
C1B C 0.6657(5) 0.19258(14) 0.23766(15)
H2B H 0.54030 0.23720 0.19420
C2B C 0.7970(5) 0.21848(15) 0.33440(14)
H3B H 0.75950 0.28000 0.35730
C3B C 0.9865(5) 0.15098(14) 0.39701(14)
C4B C 1.0466(5) 0.05960(15) 0.36570(14)
H4B H 1.17700 0.01590 0.40930
C5B C 0.9110(5) 0.03310(15) 0.26888(14)
H5B H 0.94690 -0.02880 0.24690
C6B C 0.7200(5) 0.09995(14) 0.20447(14)
C7B C 0.6013(6) -0.00299(15) 0.05385(15)
#END
