
#######################################################################
#
#                 Cambridge Crystallographic Data Centre
#                                CCDC
#
#######################################################################
#
# If this CIF has been generated from an entry in the Cambridge
# Structural Database, then it will include bibliographic, chemical,
# crystal, experimental, refinement or atomic coordinate data resulting
# from the CCDC's data processing and validation procedures.
#
#######################################################################

data_CSD_CIF_VENPEK
_audit_creation_date 2006-12-04
_audit_creation_method CSD-ConQuest-V1
_database_code_CSD VENPEK
_database_code_depnum_ccdc_archive 'CCDC 604081'
_chemical_formula_sum 'C16 H19 N1 O8'
_chemical_formula_moiety
;
C16 H19 N1 O8
;
_journal_coden_Cambridge 156
_journal_volume 341
_journal_year 2006
_journal_page_first 2312
_journal_name_full 'Carbohydr.Res. '
loop_
_publ_author_name
"Xiao-Ming Ji"
"Juan Mo"
"Hong-Min Liu"
"He-Ping Sun"
_chemical_name_systematic
;
5-O-Benzoyl-1,2-O-isopropylidene-3-C-nitromethyl-\a-D-ribofuranose
;
_chemical_melting_point 432.65
_cell_volume    861.487
_exptl_crystal_colour 'colorless'
_exptl_crystal_density_diffrn 1.362
_exptl_special_details
;
Melting point range 432.65-434.15K

;
_exptl_crystal_description 'prismatic'
_exptl_crystal_preparation 'methanol'
_diffrn_ambient_temperature 291
#These two values have been output from a single CSD field.
_refine_ls_R_factor_gt 0.0561
_refine_ls_wR_factor_gt 0.0561
_symmetry_cell_setting monoclinic
_symmetry_space_group_name_H-M 'P 21'
_symmetry_Int_Tables_number 4
loop_
_symmetry_equiv_pos_site_id
_symmetry_equiv_pos_as_xyz
1 x,y,z
2 -x,1/2+y,-z
_cell_length_a 12.354(3)
_cell_length_b 5.5011(11)
_cell_length_c 13.514(3)
_cell_angle_alpha 90
_cell_angle_beta 110.28(3)
_cell_angle_gamma 90
_cell_formula_units_Z 2
loop_
_atom_type_symbol
_atom_type_radius_bond
C 0.68
H 0.23
N 0.68
O 0.68
loop_
_atom_site_label
_atom_site_type_symbol
_atom_site_fract_x
_atom_site_fract_y
_atom_site_fract_z
N1 N 0.8319(5) 1.1413(10) 0.4295(4)
O1 O 1.0324(3) 0.9561(5) 0.8387(2)
O2 O 0.9857(2) 1.3019(5) 0.7436(2)
O3 O 0.7799(3) 1.3637(5) 0.5986(3)
O4 O 0.8658(2) 0.7823(4) 0.7211(2)
O5 O 0.6482(3) 0.7111(5) 0.7237(2)
O6 O 0.4942(3) 0.5375(8) 0.6061(3)
O7 O 0.7758(5) 1.2815(16) 0.3687(5)
O8 O 0.9280(6) 1.0914(13) 0.4326(4)
C1 C 0.9752(3) 0.8794(7) 0.7328(3)
H1 H 1.02220 0.76340 0.71020
C2 C 0.9546(3) 1.1127(7) 0.6677(3)
H2 H 0.99770 1.11790 0.61900
C3 C 0.8238(4) 1.1260(7) 0.6115(3)
C4 C 0.7808(3) 0.9697(7) 0.6854(3)
H3 H 0.78370 1.06940 0.74640
C5 C 0.6645(4) 0.8575(8) 0.6422(4)
H4 H 0.60570 0.98280 0.62030
H5 H 0.65880 0.75770 0.58140
C6 C 0.7845(4) 1.0078(8) 0.5004(4)
H6 H 0.81050 0.84030 0.50650
H7 H 0.70090 1.00800 0.47060
C7 C 1.0655(4) 1.2064(7) 0.8393(4)
C8 C 1.0459(5) 1.3356(10) 0.9298(4)
H8 H 1.09870 1.27410 0.99520
H9 H 0.96810 1.30830 0.92690
H10 H 1.05850 1.50670 0.92500
C9 C 1.1869(4) 1.2256(10) 0.8375(4)
H11 H 1.24030 1.16130 0.90200
H12 H 1.20490 1.39310 0.83050
H13 H 1.19260 1.13470 0.77890
C10 C 0.5630(4) 0.5486(9) 0.6946(5)
C11 C 0.5651(4) 0.3787(9) 0.7794(4)
C12 C 0.6533(5) 0.3855(10) 0.8785(4)
H14 H 0.71140 0.50180 0.89270
C13 C 0.6532(5) 0.2169(11) 0.9552(5)
H15 H 0.71320 0.21850 1.01990
C14 C 0.5679(6) 0.0509(11) 0.9377(6)
H16 H 0.56860 -0.05870 0.99030
C15 C 0.4804(5) 0.0457(10) 0.8417(6)
H17 H 0.42150 -0.06810 0.82970
C16 C 0.4780(4) 0.2074(9) 0.7619(5)
H18 H 0.41830 0.20090 0.69710
H19 H 0.824(6) 1.509(15) 0.657(6)
#END
