
#######################################################################
#
#                 Cambridge Crystallographic Data Centre
#                                CCDC
#
#######################################################################
#
# If this CIF has been generated from an entry in the Cambridge
# Structural Database, then it will include bibliographic, chemical,
# crystal, experimental, refinement or atomic coordinate data resulting
# from the CCDC's data processing and validation procedures.
#
#######################################################################

data_CSD_CIF_VENVUG
_audit_creation_date 2006-12-04
_audit_creation_method CSD-ConQuest-V1
_database_code_CSD VENVUG
_database_code_depnum_ccdc_archive 'CCDC 299088'
_chemical_formula_sum 'C22 H28 N2 O9'
_chemical_formula_moiety
;
C22 H28 N2 O9
;
_journal_coden_Cambridge 376
_journal_volume 67
_journal_year 2006
_journal_page_first 2085
_journal_name_full 'Phytochemistry '
loop_
_publ_author_name
"J.J.Brophy"
"D.C.Craig"
"R.J.Goldsack"
"C.J.R.Fookes"
"D.N.Leach"
"P.G.Waterman"
_chemical_name_systematic
;
1\b-n-Pentyl-1\a-hydroxy-3,3,5,5-tetramethyl-2,4-dioxocyclohex-6\a-yl 
3,5-dinitrobenzoate
;
_chemical_name_common
;
Triumphalon-2-yl 3,5-dinitrobenzoate
;
_chemical_melting_point 382.15
_cell_volume   2370.937
_exptl_crystal_colour 'colorless'
_exptl_crystal_density_diffrn 1.3
_exptl_special_details
;
Melting point range 382.15-383.15K

;
_exptl_crystal_description 'prism'
_diffrn_ambient_temperature 294
#These two values have been output from a single CSD field.
_refine_ls_R_factor_gt 0.038
_refine_ls_wR_factor_gt 0.038
_symmetry_cell_setting orthorhombic
_symmetry_space_group_name_H-M 'P 21 21 21'
_symmetry_Int_Tables_number 19
loop_
_symmetry_equiv_pos_site_id
_symmetry_equiv_pos_as_xyz
1 x,y,z
2 1/2-x,-y,1/2+z
3 1/2+x,1/2-y,-z
4 -x,1/2+y,1/2-z
_cell_length_a 8.434(2)
_cell_length_b 14.537(2)
_cell_length_c 19.338(4)
_cell_angle_alpha 90
_cell_angle_beta 90
_cell_angle_gamma 90
_cell_formula_units_Z 4
loop_
_atom_type_symbol
_atom_type_radius_bond
C 0.68
H 0.23
N 0.68
O 0.68
loop_
_atom_site_label
_atom_site_type_symbol
_atom_site_fract_x
_atom_site_fract_y
_atom_site_fract_z
O1 O 0.4353(3) 0.5802(2) 0.4791(1)
O2 O 0.2123(3) 0.5439(2) 0.5725(2)
O3 O 0.6136(4) 0.4502(2) 0.7249(2)
O4 O 0.5068(3) 0.6874(2) 0.5889(1)
O5 O 0.6873(4) 0.7792(2) 0.5383(2)
O6 O 0.6045(5) 1.1114(2) 0.5881(3)
O7 O 0.3878(4) 1.1595(2) 0.6275(2)
O8 O -0.0266(4) 0.9441(3) 0.6837(2)
O9 O 0.0020(4) 0.8011(3) 0.6591(2)
N1 N 0.4715(5) 1.0987(3) 0.6075(2)
N2 N 0.0480(5) 0.8795(3) 0.6611(2)
C1 C 0.4842(4) 0.5399(2) 0.5415(2)
C2 C 0.3464(5) 0.5281(3) 0.5905(2)
C3 C 0.3824(5) 0.4991(3) 0.6645(2)
C4 C 0.5620(5) 0.5007(3) 0.6811(2)
C5 C 0.6714(5) 0.5704(3) 0.6461(2)
C6 C 0.6018(5) 0.6053(2) 0.5771(2)
C7 C 0.5590(4) 0.4461(3) 0.5252(2)
C8 C 0.4528(5) 0.3848(3) 0.4807(2)
C9 C 0.5311(6) 0.2930(3) 0.4658(2)
C10 C 0.4371(7) 0.2311(3) 0.4176(3)
C11 C 0.432(1) 0.2621(4) 0.3440(3)
C12 C 0.2994(6) 0.5653(3) 0.7149(2)
C13 C 0.3168(6) 0.4011(3) 0.6759(2)
C14 C 0.6978(6) 0.6498(3) 0.6982(2)
C15 C 0.8337(5) 0.5254(3) 0.6327(3)
C16 C 0.5623(5) 0.7689(3) 0.5681(2)
C17 C 0.4536(5) 0.8443(3) 0.5883(2)
C18 C 0.5091(4) 0.9340(3) 0.5852(2)
C19 C 0.4110(5) 1.0032(3) 0.6078(2)
C20 C 0.2595(5) 0.9887(3) 0.6324(2)
C21 C 0.2093(5) 0.8984(3) 0.6334(2)
C22 C 0.3013(5) 0.8259(3) 0.6127(2)
H1 H 0.35110 0.62800 0.47320
H2 H 0.69030 0.62020 0.54450
H3 H 0.58090 0.41360 0.56970
H4 H 0.66090 0.45650 0.49990
H5 H 0.43060 0.41680 0.43600
H6 H 0.35080 0.37380 0.50580
H7 H 0.54620 0.25990 0.51070
H8 H 0.63690 0.30510 0.44420
H9 H 0.32580 0.22780 0.43520
H10 H 0.48580 0.16840 0.41890
H11 H 0.36800 0.21750 0.31620
H12 H 0.38220 0.32440 0.34140
H13 H 0.54230 0.26500 0.32510
H14 H 0.34120 0.62900 0.70780
H15 H 0.18260 0.56460 0.70600
H16 H 0.32040 0.54540 0.76350
H17 H 0.37010 0.35750 0.64340
H18 H 0.33770 0.38160 0.72460
H19 H 0.19990 0.40080 0.66710
H20 H 0.59420 0.68070 0.70810
H21 H 0.74270 0.62460 0.74210
H22 H 0.77340 0.69550 0.67800
H23 H 0.82080 0.47360 0.59920
H24 H 0.90810 0.57210 0.61310
H25 H 0.87740 0.50120 0.67720
H26 H 0.61750 0.94790 0.56710
H27 H 0.19050 1.04040 0.64840
H28 H 0.26040 0.76140 0.61500
#END
