
#######################################################################
#
#                 Cambridge Crystallographic Data Centre
#                                CCDC
#
#######################################################################
#
# If this CIF has been generated from an entry in the Cambridge
# Structural Database, then it will include bibliographic, chemical,
# crystal, experimental, refinement or atomic coordinate data resulting
# from the CCDC's data processing and validation procedures.
#
#######################################################################

data_CSD_CIF_VENXUK
_audit_creation_date 2018-01-22
_audit_creation_method CSD-ConQuest-V1
_database_code_CSD VENXUK
_database_code_depnum_ccdc_archive 'CCDC 1565473'
_chemical_formula_sum 'C8 H6 N2 O2'
_chemical_formula_moiety
;
C8 H6 N2 O2
;
_journal_coden_Cambridge 1291
_journal_year 2018
_journal_page_first 150
_journal_name_full 'Eur.J.Org.Chem. '
loop_
_publ_author_name
"Xue-Ling Mo"
"Chun-Hua Chen"
"Cui Liang"
"Dong-Liang Mo"
_chemical_name_systematic
;
3-(hydroxyimino)-1,3-dihydro-2H-indol-2-one
;
_cell_volume    374.384
_diffrn_ambient_temperature 296
#These two values have been output from a single CSD field.
_refine_ls_R_factor_gt 0.1342
_refine_ls_wR_factor_gt 0.1342
_symmetry_cell_setting monoclinic
_symmetry_space_group_name_H-M 'P 21'
_symmetry_Int_Tables_number 4
loop_
_symmetry_equiv_pos_site_id
_symmetry_equiv_pos_as_xyz
1 x,y,z
2 -x,1/2+y,-z
_cell_length_a 3.958(3)
_cell_length_b 10.296(7)
_cell_length_c 9.212(6)
_cell_angle_alpha 90
_cell_angle_beta 94.224(13)
_cell_angle_gamma 90
_cell_formula_units_Z 2
loop_
_atom_type_symbol
_atom_type_radius_bond
C 0.68
H 0.23
N 0.68
O 0.68
loop_
_atom_site_label
_atom_site_type_symbol
_atom_site_fract_x
_atom_site_fract_y
_atom_site_fract_z
C1 C 0.2725(15) 0.7626(7) 0.1304(7)
C2 C 0.4711(15) 0.6923(7) 0.2478(7)
N1 N 0.2278(16) 0.5485(6) 0.0806(7)
H1 H 0.17900 0.47520 0.03940
N2 N 0.2079(17) 0.8837(6) 0.1066(6)
O1 O -0.0700(16) 0.6839(6) -0.0827(5)
C3 C 0.4297(18) 0.5617(8) 0.2103(8)
O2 O 0.3425(18) 0.9658(6) 0.2108(5)
H2 H 0.50200 1.00520 0.17970
C4 C 0.6462(17) 0.7299(8) 0.3741(8)
H3 H 0.67110 0.81720 0.39890
C5 C 0.738(2) 0.5014(11) 0.4272(11)
H4 H 0.82970 0.43780 0.49010
C6 C 0.559(2) 0.4643(9) 0.3003(10)
H5 H 0.52710 0.37720 0.27640
C7 C 0.1185(17) 0.6641(7) 0.0275(7)
C8 C 0.786(2) 0.6324(12) 0.4642(9)
H6 H 0.91200 0.65440 0.54980
#END
