
#######################################################################
#
#                 Cambridge Crystallographic Data Centre
#                                CCDC
#
#######################################################################
#
# If this CIF has been generated from an entry in the Cambridge
# Structural Database, then it will include bibliographic, chemical,
# crystal, experimental, refinement or atomic coordinate data resulting
# from the CCDC's data processing and validation procedures.
#
#######################################################################

data_CSD_CIF_VEPFOO
_audit_creation_date 2018-01-22
_audit_creation_method CSD-ConQuest-V1
_database_code_CSD VEPFOO
_database_code_depnum_ccdc_archive 'CCDC 1574990'
_chemical_formula_sum 'C18 H22 N2 O6'
_chemical_formula_moiety
;
C18 H22 N2 O6
;
_journal_coden_Cambridge 35
_journal_volume 83
_journal_year 2018
_journal_page_first 835
_journal_name_full 'J.Org.Chem. '
loop_
_publ_author_name
"Jian Wei"
"Yuntong Li"
"Cheng Tao"
"Huifei Wang"
"Bin Cheng"
"Hongbin Zhai"
"Yun Li"
_chemical_name_systematic
;
5-ethyl 3-methyl 
1,6-dimethyl-4-(3-nitrophenyl)-1,2,3,4-tetrahydropyridine-3,5-dicarboxylate
;
_cell_volume   1799.780
_exptl_crystal_colour 'dark yellow'
_exptl_crystal_density_diffrn 1.337
_diffrn_ambient_temperature 290.8
#These two values have been output from a single CSD field.
_refine_ls_R_factor_gt 0.0564
_refine_ls_wR_factor_gt 0.0564
_symmetry_cell_setting monoclinic
_symmetry_space_group_name_H-M 'P 21/n'
_symmetry_Int_Tables_number 14
loop_
_symmetry_equiv_pos_site_id
_symmetry_equiv_pos_as_xyz
1 x,y,z
2 1/2-x,1/2+y,1/2-z
3 -x,-y,-z
4 -1/2+x,-1/2-y,-1/2+z
_cell_length_a 14.5912(7)
_cell_length_b 8.4630(4)
_cell_length_c 14.9815(9)
_cell_angle_alpha 90
_cell_angle_beta 103.380(5)
_cell_angle_gamma 90
_cell_formula_units_Z 4
loop_
_atom_type_symbol
_atom_type_radius_bond
C 0.68
H 0.23
N 0.68
O 0.68
loop_
_atom_site_label
_atom_site_type_symbol
_atom_site_fract_x
_atom_site_fract_y
_atom_site_fract_z
O1 O 0.91846(15) -0.1534(3) -0.16891(14)
O2 O 0.82239(13) 0.0561(2) -0.18225(12)
O3 O 0.39734(15) 0.2365(3) -0.18672(19)
O4 O 0.50560(15) 0.3983(3) -0.12244(18)
O5 O 0.78087(12) 0.3664(2) 0.08653(13)
O6 O 0.70866(12) 0.1959(2) 0.16207(12)
N1 N 0.89281(14) -0.1644(2) 0.11340(14)
N2 N 0.47699(16) 0.2651(3) -0.14263(17)
C1 C 0.90700(15) -0.1661(3) 0.02707(17)
C2 C 0.86380(14) -0.0586(3) -0.03817(15)
C3 C 0.80178(14) 0.0708(3) -0.01463(14)
H1 H 0.81540 0.16715 -0.04550
C4 C 0.83013(15) 0.1031(3) 0.08984(15)
H2 H 0.89415 0.14642 0.10422
C5 C 0.83172(17) -0.0490(3) 0.14249(16)
H3 H 0.85414 -0.02842 0.20759
H4 H 0.76834 -0.09116 0.13238
C6 C 0.9401(2) -0.2726(4) 0.1857(2)
H5 H 0.93545 -0.37861 0.16223
H6 H 0.91056 -0.26660 0.23656
H7 H 1.00522 -0.24361 0.20558
C7 C 0.97043(18) -0.2955(3) 0.0084(2)
H8 H 0.94427 -0.39623 0.01850
H9 H 1.03157 -0.28434 0.04881
H10 H 0.97599 -0.28878 -0.05411
C8 C 0.87330(17) -0.0639(3) -0.13273(17)
C9 C 0.8127(2) 0.0598(4) -0.28012(18)
H11 H 0.86400 0.00125 -0.29561
H12 H 0.81635 0.16825 -0.29994
C10 C 0.7227(3) -0.0091(5) -0.3282(2)
H13 H 0.71517 0.00360 -0.39319
H14 H 0.67206 0.04349 -0.30925
H15 H 0.72183 -0.11951 -0.31376
C11 C 0.69665(14) 0.0371(3) -0.04880(14)
C12 C 0.65946(16) -0.1139(3) -0.05091(16)
H16 H 0.69947 -0.19859 -0.03072
C13 C 0.56345(17) -0.1410(3) -0.08266(17)
H17 H 0.54007 -0.24330 -0.08295
C14 C 0.50286(16) -0.0184(3) -0.11358(17)
H18 H 0.43865 -0.03582 -0.13558
C15 C 0.54034(16) 0.1307(3) -0.11089(16)
C16 C 0.63485(15) 0.1609(3) -0.07908(15)
H19 H 0.65731 0.26388 -0.07786
C17 C 0.76651(15) 0.2226(3) 0.11812(16)
C18 C 0.7214(2) 0.4906(3) 0.1077(2)
H20 H 0.65652 0.46207 0.08500
H21 H 0.73418 0.58706 0.07909
H22 H 0.73405 0.50514 0.17291
#END
