
#######################################################################
#
#                 Cambridge Crystallographic Data Centre
#                                CCDC
#
#######################################################################
#
# If this CIF has been generated from an entry in the Cambridge
# Structural Database, then it will include bibliographic, chemical,
# crystal, experimental, refinement or atomic coordinate data resulting
# from the CCDC's data processing and validation procedures.
#
#######################################################################

data_CSD_CIF_VERWIZ
_audit_creation_date 2007-03-13
_audit_creation_method CSD-ConQuest-V1
_database_code_CSD VERWIZ
_database_code_depnum_ccdc_archive 'CCDC 630209'
_chemical_formula_sum 'C17 H18 N2 O6'
_chemical_formula_moiety
;
C17 H18 N2 O6
;
_journal_coeditor_code "IUCr OM2065"
_journal_coden_Cambridge 1370
_journal_volume 62
_journal_year 2006
_journal_page_first o5448
_journal_name_full 'Acta Crystallogr.,Sect.E:Struct.Rep.Online '
loop_
_publ_author_name
"Feng-Xia Sun"
"Hua Zhao"
"Hong-Xia Du"
_chemical_name_systematic
;
Ethyl 
5-carboxy-2,6-dimethyl-4-(4-nitrophenyl)-1,4-dihydropyridine-3-carboxylate
;
_chemical_melting_point 446
_cell_volume   1712.600
_exptl_crystal_colour 'yellow'
_exptl_crystal_density_diffrn 1.343
_exptl_special_details
;
Melting point range 446-447K

;
_exptl_crystal_description 'block'
_exptl_crystal_preparation 'ethanol'
_diffrn_ambient_temperature 294
_refine_special_details
;
The ethyl ester moiety has the terminal methyl group disordered over two 
sites with occupancy 0.54:0.46.
;
#These two values have been output from a single CSD field.
_refine_ls_R_factor_gt 0.0512
_refine_ls_wR_factor_gt 0.0512
_symmetry_cell_setting monoclinic
_symmetry_space_group_name_H-M 'P 21/n'
_symmetry_Int_Tables_number 14
loop_
_symmetry_equiv_pos_site_id
_symmetry_equiv_pos_as_xyz
1 x,y,z
2 1/2-x,1/2+y,1/2-z
3 -x,-y,-z
4 -1/2+x,-1/2-y,-1/2+z
_cell_length_a 10.323(2)
_cell_length_b 15.590(3)
_cell_length_c 11.202(3)
_cell_angle_alpha 90
_cell_angle_beta 108.201(4)
_cell_angle_gamma 90
_cell_formula_units_Z 4
loop_
_atom_type_symbol
_atom_type_radius_bond
C 0.68
H 0.23
N 0.68
O 0.68
loop_
_atom_site_label
_atom_site_type_symbol
_atom_site_fract_x
_atom_site_fract_y
_atom_site_fract_z
O1 O 1.0062(3) 0.39646(17) 0.1318(2)
O2 O 1.0692(2) 0.36792(14) 0.33350(19)
O3 O 0.4342(3) 0.41885(17) 0.5179(3)
O4 O 0.6007(3) 0.4136(2) 0.6913(3)
O5 O 0.9897(2) 0.10382(12) 0.47880(18)
O6 O 0.8608(2) 0.00384(12) 0.35777(19)
H1 H 0.90940 -0.02710 0.41300
N1 N 0.7219(2) 0.19326(14) 0.08153(19)
H2 H 0.64980 0.18920 0.01740
N2 N 0.5510(4) 0.40028(19) 0.5787(3)
C1 C 0.8078(3) 0.26264(16) 0.0895(2)
C2 C 0.8931(3) 0.28520(16) 0.2031(2)
C3 C 0.8847(3) 0.23861(15) 0.3189(2)
H3 H 0.97740 0.23560 0.37810
C4 C 0.8357(3) 0.14722(16) 0.2866(2)
C5 C 0.7471(3) 0.13044(16) 0.1722(2)
C6 C 0.6713(3) 0.04851(19) 0.1265(3)
H4 H 0.72620 0.01170 0.09320
H5 H 0.58740 0.06120 0.06190
H6 H 0.65190 0.02030 0.19520
C7 C 0.7948(3) 0.3025(2) -0.0357(3)
H7 H 0.76620 0.36110 -0.03580
H8 H 0.72840 0.27150 -0.10070
H9 H 0.88130 0.30050 -0.05070
C8 C 0.9965(3) 0.35184(18) 0.2290(3)
C9 C 1.1164(4) 0.4600(3) 0.1573(4)
H10 H 1.08720 0.50920 0.10260
H11 H 1.13980 0.47950 0.24370
C10 C 1.2350(11) 0.4200(11) 0.135(2)
H12 H 1.28460 0.38760 0.20810
H13 H 1.29300 0.46370 0.11930
H14 H 1.20520 0.38250 0.06400
C11? C 1.200(2) 0.4413(9) 0.072(2)
H15? H 1.16070 0.47070 -0.00660
H16? H 1.19960 0.38070 0.05690
H17? H 1.29140 0.46070 0.11030
C12 C 0.7962(3) 0.28407(15) 0.3858(2)
C13 C 0.6724(3) 0.31877(19) 0.3207(3)
H18 H 0.64280 0.31690 0.23330
C14 C 0.5904(3) 0.3567(2) 0.3835(3)
H19 H 0.50570 0.37940 0.33900
C15 C 0.6362(3) 0.36014(19) 0.5115(3)
C16 C 0.7605(4) 0.3280(2) 0.5786(3)
H20 H 0.79110 0.33200 0.66580
C17 C 0.8396(3) 0.2898(2) 0.5157(3)
H21 H 0.92400 0.26720 0.56100
C18 C 0.8992(3) 0.08299(17) 0.3805(2)
#END
