
#######################################################################
#
#                 Cambridge Crystallographic Data Centre
#                                CCDC
#
#######################################################################
#
# If this CIF has been generated from an entry in the Cambridge
# Structural Database, then it will include bibliographic, chemical,
# crystal, experimental, refinement or atomic coordinate data resulting
# from the CCDC's data processing and validation procedures.
#
#######################################################################

data_CSD_CIF_VESJOV
_audit_creation_date 2018-01-24
_audit_creation_method CSD-ConQuest-V1
_database_code_CSD VESJOV
_database_code_depnum_ccdc_archive 'CCDC 1816131'
_chemical_formula_sum 'C15 H13 N3 O4'
_chemical_formula_moiety
;
C15 H13 N3 O4
;
_journal_coeditor_code "sk3680"
_journal_coden_Cambridge 1777
_journal_volume 74
_journal_year 2018
_journal_page_first 203
_journal_name_full 'Acta Crystallogr.,Sect.C:Cryst.Struct.Chem. '
loop_
_publ_author_name
"B.K.Sagar"
"H.S.Yathirajan"
"R.S.Rathore"
"C.Glidewell"
_chemical_name_systematic
;
1-[(3,4-dimethoxybenzene-1-carbonyl)oxy]-1H-benzotriazole
;
_chemical_name_common
;
benzotriazol-1-yl 3,4-dimethoxybenzoate
;
_chemical_melting_point 435
_cell_volume    721.099
_exptl_crystal_colour 'colorless'
_exptl_crystal_density_diffrn 1.378
_exptl_crystal_description 'block'
_diffrn_ambient_temperature 294
#These two values have been output from a single CSD field.
_refine_ls_R_factor_gt 0.0519
_refine_ls_wR_factor_gt 0.0519
_symmetry_cell_setting triclinic
_symmetry_space_group_name_H-M 'P -1'
_symmetry_Int_Tables_number 2
loop_
_symmetry_equiv_pos_site_id
_symmetry_equiv_pos_as_xyz
1 x,y,z
2 -x,-y,-z
_cell_length_a 8.1296(6)
_cell_length_b 9.5899(6)
_cell_length_c 10.8824(8)
_cell_angle_alpha 66.840(4)
_cell_angle_beta 71.533(4)
_cell_angle_gamma 71.350(4)
_cell_formula_units_Z 2
loop_
_atom_type_symbol
_atom_type_radius_bond
C 0.68
H 0.23
N 0.68
O 0.68
loop_
_atom_site_label
_atom_site_type_symbol
_atom_site_fract_x
_atom_site_fract_y
_atom_site_fract_z
C1 C 0.5541(3) 0.6284(3) 0.6656(3)
O1 O 0.6629(3) 0.5557(2) 0.5980(2)
O2 O 0.5394(2) 0.57911(18) 0.80862(17)
C2 C 0.4229(3) 0.7716(2) 0.6225(2)
C3 C 0.4248(3) 0.8391(2) 0.4823(2)
H1 H 0.50600 0.79070 0.42100
C4 C 0.3083(3) 0.9756(2) 0.4352(2)
C5 C 0.1853(3) 1.0488(2) 0.5275(2)
C6 C 0.1828(3) 0.9810(3) 0.6657(2)
H2 H 0.10060 1.02840 0.72730
C7 C 0.3013(3) 0.8433(2) 0.7129(2)
H3 H 0.29910 0.79870 0.80620
O3 O 0.2994(2) 1.05405(19) 0.30090(17)
C8 C 0.4233(4) 0.9901(3) 0.2010(3)
H4 H 0.54200 0.97580 0.20970
H5 H 0.40940 1.05960 0.11120
H6 H 0.40260 0.89150 0.21440
O4 O 0.0788(2) 1.18375(18) 0.47077(17)
C9 C -0.0360(4) 1.2734(3) 0.5554(3)
H7 H -0.11420 1.21270 0.62770
H8 H -0.10510 1.36530 0.50150
H9 H 0.03370 1.30260 0.59400
N1 N 0.6660(3) 0.4470(2) 0.8527(2)
N2 N 0.6258(3) 0.3075(2) 0.8981(2)
N3 N 0.7677(3) 0.2033(2) 0.9335(2)
C10 C 0.8983(3) 0.2793(3) 0.9080(2)
C11 C 1.0717(3) 0.2208(3) 0.9269(3)
H10 H 1.11630 0.11470 0.96430
C12 C 1.1733(4) 0.3254(3) 0.8883(3)
H11 H 1.29060 0.28990 0.89820
C13 C 1.1057(4) 0.4858(3) 0.8339(3)
H12 H 1.17980 0.55330 0.80960
C14 C 0.9358(4) 0.5470(3) 0.8151(3)
H13 H 0.89120 0.65340 0.77910
C15 C 0.8342(3) 0.4379(3) 0.8540(2)
#END
