
#######################################################################
#
#                 Cambridge Crystallographic Data Centre
#                                CCDC
#
#######################################################################
#
# If this CIF has been generated from an entry in the Cambridge
# Structural Database, then it will include bibliographic, chemical,
# crystal, experimental, refinement or atomic coordinate data resulting
# from the CCDC's data processing and validation procedures.
#
#######################################################################

data_CSD_CIF_VETLIQ
_audit_creation_date 2007-03-13
_audit_creation_method CSD-ConQuest-V1
_database_code_CSD VETLIQ
_database_code_depnum_ccdc_archive 'CCDC 634003'
_chemical_formula_sum 'C7 H6 N4 O4'
_chemical_formula_moiety
;
C7 H6 N4 O4
;
_journal_coeditor_code "IUCr SJ2181"
_journal_coden_Cambridge 1370
_journal_volume 63
_journal_year 2007
_journal_page_first o57
_journal_name_full 'Acta Crystallogr.,Sect.E:Struct.Rep.Online '
loop_
_publ_author_name
"Abdassalam Abdelhafiz Tameem"
"Abdussalam Salhin"
"Bahruddin Saad"
"I.Ab.Rahman"
"Muhammad Idiris Saleh"
"Shea-Lin Ng"
"H.-K.Fun"
_chemical_name_systematic
;
Formaldehyde 2,4-dinitrophenylhydrazone
;
_cell_volume    423.020
_exptl_crystal_colour 'yellow'
_exptl_crystal_density_diffrn 1.65
_exptl_crystal_description 'Block'
_exptl_crystal_preparation 'ethanol/acetonitrile'
_diffrn_ambient_temperature 100
#These two values have been output from a single CSD field.
_refine_ls_R_factor_gt 0.038
_refine_ls_wR_factor_gt 0.038
_symmetry_cell_setting triclinic
_symmetry_space_group_name_H-M 'P -1'
_symmetry_Int_Tables_number 2
loop_
_symmetry_equiv_pos_site_id
_symmetry_equiv_pos_as_xyz
1 x,y,z
2 -x,-y,-z
_cell_length_a 4.2482(1)
_cell_length_b 9.7774(2)
_cell_length_c 10.3407(2)
_cell_angle_alpha 86.825(1)
_cell_angle_beta 83.966(1)
_cell_angle_gamma 82.413(1)
_cell_formula_units_Z 2
loop_
_atom_type_symbol
_atom_type_radius_bond
C 0.68
H 0.23
N 0.68
O 0.68
loop_
_atom_site_label
_atom_site_type_symbol
_atom_site_fract_x
_atom_site_fract_y
_atom_site_fract_z
O1 O 0.2054(2) 0.09156(8) 0.51817(8)
O2 O 0.5236(2) 0.21176(8) 0.60011(8)
O3 O 0.9924(2) 0.56900(9) 0.35352(9)
O4 O 0.9353(3) 0.60095(9) 0.14773(9)
N1 N 0.3974(2) 0.17820(9) 0.50762(9)
N2 N 0.8936(2) 0.53759(10) 0.25321(10)
N3 N 0.2312(2) 0.07638(10) 0.26471(9)
N4 N 0.1731(2) 0.02809(10) 0.14755(9)
C1 C 0.4744(2) 0.24062(11) 0.37983(10)
C2 C 0.6420(3) 0.35429(11) 0.37625(10)
H1 H 0.69970 0.38610 0.45240
C3 C 0.7204(3) 0.41842(11) 0.25779(11)
C4 C 0.6414(3) 0.37050(12) 0.14196(11)
H2 H 0.69770 0.41520 0.06280
C5 C 0.4813(3) 0.25779(11) 0.14539(10)
H3 H 0.43180 0.22600 0.06780
C6 C 0.3884(3) 0.18780(11) 0.26494(10)
C7 C 0.0496(3) -0.08426(12) 0.15642(11)
H4 H 0.00290 -0.13120 0.23960
H5 H 0.00820 -0.12070 0.07600
H6 H 0.177(4) 0.0327(16) 0.3350(16)
#END
