
#######################################################################
#
#                 Cambridge Crystallographic Data Centre
#                                CCDC
#
#######################################################################
#
# If this CIF has been generated from an entry in the Cambridge
# Structural Database, then it will include bibliographic, chemical,
# crystal, experimental, refinement or atomic coordinate data resulting
# from the CCDC's data processing and validation procedures.
#
#######################################################################

data_CSD_CIF_VETMUD
_audit_creation_date 2007-03-13
_audit_creation_method CSD-ConQuest-V1
_database_code_CSD VETMUD
_database_code_depnum_ccdc_archive 'CCDC 634010'
_chemical_formula_sum 'C13 H12 N2 O3'
_chemical_formula_moiety
;
C13 H12 N2 O3
;
_journal_coeditor_code "IUCr SJ2191"
_journal_coden_Cambridge 1370
_journal_volume 63
_journal_year 2007
_journal_page_first o105
_journal_name_full 'Acta Crystallogr.,Sect.E:Struct.Rep.Online '
loop_
_publ_author_name
"Wei Huang"
"Hong-Bin Zhou"
_chemical_name_systematic
;
4-Benzyloxy-2-nitroaniline
;
_cell_volume   1166.317
_exptl_crystal_colour 'red'
_exptl_crystal_density_diffrn 1.391
_exptl_crystal_description 'plate'
_exptl_crystal_preparation 'acetone'
_diffrn_ambient_temperature 297
#These two values have been output from a single CSD field.
_refine_ls_R_factor_gt 0.0538
_refine_ls_wR_factor_gt 0.0538
_symmetry_cell_setting monoclinic
_symmetry_space_group_name_H-M 'P 21/c'
_symmetry_Int_Tables_number 14
loop_
_symmetry_equiv_pos_site_id
_symmetry_equiv_pos_as_xyz
1 x,y,z
2 -x,1/2+y,1/2-z
3 -x,-y,-z
4 x,-1/2-y,-1/2+z
_cell_length_a 5.7578(12)
_cell_length_b 26.192(6)
_cell_length_c 7.7338(16)
_cell_angle_alpha 90
_cell_angle_beta 90.159(4)
_cell_angle_gamma 90
_cell_formula_units_Z 4
loop_
_atom_type_symbol
_atom_type_radius_bond
C 0.68
H 0.23
N 0.68
O 0.68
loop_
_atom_site_label
_atom_site_type_symbol
_atom_site_fract_x
_atom_site_fract_y
_atom_site_fract_z
C1 C 0.3654(3) 0.30571(6) 0.2328(2)
C2 C 0.5639(3) 0.29148(7) 0.3264(2)
C3 C 0.6881(3) 0.33199(7) 0.4048(2)
H1 H 0.82260 0.32450 0.46670
C4 C 0.6179(3) 0.38128(7) 0.3926(2)
H2 H 0.70280 0.40670 0.44820
C5 C 0.4188(3) 0.39455(6) 0.2971(2)
C6 C 0.2936(3) 0.35693(6) 0.2181(2)
H3 H 0.16120 0.36510 0.15470
C7 C 0.1575(3) 0.45910(7) 0.2050(3)
H4 H 0.02630 0.44190 0.25760
H5 H 0.16750 0.44830 0.08530
C8 C 0.1228(3) 0.51591(6) 0.2133(2)
C9 C -0.0714(3) 0.53633(8) 0.2922(2)
H6 H -0.17640 0.51490 0.34750
C10 C -0.1103(4) 0.58839(8) 0.2894(2)
H7 H -0.24130 0.60170 0.34300
C11 C 0.0424(4) 0.62045(7) 0.2085(2)
H8 H 0.01490 0.65540 0.20650
C12 C 0.2362(4) 0.60069(7) 0.1302(3)
H9 H 0.34060 0.62230 0.07500
C13 C 0.2760(3) 0.54878(7) 0.1335(3)
H10 H 0.40850 0.53570 0.08110
N1 N 0.2217(3) 0.26829(6) 0.1493(2)
N2 N 0.6406(4) 0.24299(7) 0.3486(3)
H11 H 0.770(4) 0.2384(9) 0.408(3)
H12 H 0.561(4) 0.2185(9) 0.286(3)
O1 O 0.0531(3) 0.28305(6) 0.0654(2)
O2 O 0.2682(3) 0.22246(5) 0.1620(2)
O3 O 0.3657(2) 0.44569(4) 0.29414(16)
#END
