
#######################################################################
#
#                 Cambridge Crystallographic Data Centre
#                                CCDC
#
#######################################################################
#
# If this CIF has been generated from an entry in the Cambridge
# Structural Database, then it will include bibliographic, chemical,
# crystal, experimental, refinement or atomic coordinate data resulting
# from the CCDC's data processing and validation procedures.
#
#######################################################################

data_CSD_CIF_VETRAQ
_audit_creation_date 2018-01-24
_audit_creation_method CSD-ConQuest-V1
_database_code_CSD VETRAQ
_database_code_depnum_ccdc_archive 'CCDC 1574589'
_chemical_formula_sum 'C19 H16 N2 O2'
_chemical_formula_moiety
;
C19 H16 N2 O2
;
_journal_coden_Cambridge 1267
_journal_volume 232
_journal_year 2017
_journal_page_first 891
_journal_name_full 'Z.Kristallogr.-New Cryst.Struct. '
loop_
_publ_author_name
"Peng-Peng Li"
"Li Zhao"
"Ji-Xing Zhao"
"Zhao-Bin Zhu"
_chemical_name_systematic
;
(E)-1-(4-([(E)-2-Hydroxy-1-naphthalenylmethylene]amino)phenyl)ethanone oxime
;
_cell_volume   1504.255
_exptl_crystal_colour 'light yellow'
_exptl_crystal_density_diffrn 1.344
_exptl_crystal_description 'plate'
_diffrn_ambient_temperature 290.9
#These two values have been output from a single CSD field.
_refine_ls_R_factor_gt 0.0633
_refine_ls_wR_factor_gt 0.0633
_symmetry_cell_setting monoclinic
_symmetry_space_group_name_H-M 'P 21/c'
_symmetry_Int_Tables_number 14
loop_
_symmetry_equiv_pos_site_id
_symmetry_equiv_pos_as_xyz
1 x,y,z
2 -x,1/2+y,1/2-z
3 -x,-y,-z
4 x,-1/2-y,-1/2+z
_cell_length_a 14.1712(6)
_cell_length_b 7.3611(3)
_cell_length_c 14.4212(8)
_cell_angle_alpha 90
_cell_angle_beta 90.665(5)
_cell_angle_gamma 90
_cell_formula_units_Z 4
loop_
_atom_type_symbol
_atom_type_radius_bond
C 0.68
H 0.23
N 0.68
O 0.68
loop_
_atom_site_label
_atom_site_type_symbol
_atom_site_fract_x
_atom_site_fract_y
_atom_site_fract_z
O1 O 0.19438(15) 0.0855(3) 0.29259(16)
O2 O 0.71122(13) 0.2373(3) 0.72693(15)
H1 H 0.74300 0.14430 0.72900
N1 N 0.25067(14) 0.2353(3) 0.44207(17)
N2 N 0.63437(15) 0.2119(3) 0.66561(17)
C1 C 0.08726(17) 0.1865(3) 0.40788(19)
C2 C -0.01007(17) 0.1980(3) 0.43766(19)
C3 C -0.03809(18) 0.2803(3) 0.5202(2)
H2 H 0.00750 0.33160 0.55900
C4 C -0.1315(2) 0.2873(4) 0.5458(2)
H3 H -0.14760 0.34270 0.60140
C5 C -0.2010(2) 0.2135(4) 0.4903(3)
H4 H -0.26390 0.21950 0.50790
C6 C -0.17679(19) 0.1312(4) 0.4090(2)
H5 H -0.22370 0.08100 0.37140
C7 C -0.08213(18) 0.1211(3) 0.3812(2)
C8 C -0.0567(2) 0.0344(4) 0.2968(2)
H6 H -0.10400 -0.01650 0.25990
C9 C 0.0335(2) 0.0235(4) 0.2683(2)
H7 H 0.04680 -0.03460 0.21270
C10 C 0.10914(19) 0.0996(3) 0.3221(2)
C11 C 0.16100(17) 0.2477(3) 0.4654(2)
H8 H 0.14620 0.29910 0.52230
C12 C 0.32929(18) 0.2764(3) 0.5004(2)
C13 C 0.32492(18) 0.3748(4) 0.5820(2)
H9 H 0.26760 0.42270 0.60120
C14 C 0.40541(18) 0.4020(4) 0.6350(2)
H10 H 0.40170 0.46970 0.68930
C15 C 0.49197(17) 0.3303(3) 0.6088(2)
C16 C 0.49600(18) 0.2371(4) 0.5252(2)
H11 H 0.55350 0.19230 0.50480
C17 C 0.41613(18) 0.2102(4) 0.4721(2)
H12 H 0.42020 0.14680 0.41650
C18 C 0.57628(18) 0.3445(4) 0.6708(2)
C19 C 0.5882(2) 0.5002(4) 0.7354(3)
H13 H 0.57950 0.45950 0.79800
H14 H 0.54240 0.59210 0.72070
H15 H 0.65050 0.54970 0.72930
H16 H 0.235(5) 0.124(15) 0.336(5)
#END
