
#######################################################################
#
#                 Cambridge Crystallographic Data Centre
#                                CCDC
#
#######################################################################
#
# If this CIF has been generated from an entry in the Cambridge
# Structural Database, then it will include bibliographic, chemical,
# crystal, experimental, refinement or atomic coordinate data resulting
# from the CCDC's data processing and validation procedures.
#
#######################################################################

data_CSD_CIF_VEVPOE
_audit_creation_date 2018-01-24
_audit_creation_method CSD-ConQuest-V1
_database_code_CSD VEVPOE
_database_code_depnum_ccdc_archive 'CCDC 1048886'
_chemical_formula_sum 'C30 H47 N1 O3'
_chemical_formula_moiety
;
C30 H47 N1 O3
;
_journal_coden_Cambridge 1336
_journal_volume 20
_journal_year 2018
_journal_page_first 946
_journal_name_full 'Org.Lett. '
loop_
_publ_author_name
"V.Kapras"
"V.Vyklicky"
"M.Budesinsky"
"I.Cisarova"
"L.Vyklicky"
"H.Chodounska"
"U.Jahn"
_chemical_name_systematic
;
20-[(2,2,6,6-tetramethylpiperidin-1-yl)oxy]pregn-4-ene-3,12-dione
;
_cell_volume   2651.558
_exptl_crystal_colour 'colorless'
_exptl_crystal_density_diffrn 1.177
_exptl_crystal_description 'plate'
_diffrn_ambient_temperature 150
#These two values have been output from a single CSD field.
_refine_ls_R_factor_gt 0.0406
_refine_ls_wR_factor_gt 0.0406
_symmetry_cell_setting orthorhombic
_symmetry_space_group_name_H-M 'P 21 21 21'
_symmetry_Int_Tables_number 19
loop_
_symmetry_equiv_pos_site_id
_symmetry_equiv_pos_as_xyz
1 x,y,z
2 1/2-x,-y,1/2+z
3 1/2+x,1/2-y,-z
4 -x,1/2+y,1/2-z
_cell_length_a 12.6414(4)
_cell_length_b 13.8253(5)
_cell_length_c 15.1716(5)
_cell_angle_alpha 90
_cell_angle_beta 90
_cell_angle_gamma 90
_cell_formula_units_Z 4
loop_
_atom_type_symbol
_atom_type_radius_bond
C 0.68
H 0.23
N 0.68
O 0.68
loop_
_atom_site_label
_atom_site_type_symbol
_atom_site_fract_x
_atom_site_fract_y
_atom_site_fract_z
O1 O 0.72582(13) -0.06349(14) 1.20652(10)
O2 O 0.45427(12) -0.04201(13) 0.68547(10)
O3 O 0.21556(10) 0.02472(10) 0.77904(8)
N1 N 0.12967(12) -0.04370(12) 0.79426(10)
C1 C 0.66389(19) -0.05592(18) 0.97473(14)
H1 H 0.59940 -0.09470 0.98570
H2 H 0.69660 -0.07990 0.91960
C2 C 0.74112(19) -0.07146(19) 1.05068(15)
H3 H 0.75360 -0.14160 1.05850
H4 H 0.80960 -0.04070 1.03610
C3 C 0.70003(17) -0.02983(18) 1.13504(14)
C4 C 0.63236(17) 0.05485(17) 1.12724(14)
H5 H 0.60680 0.08380 1.17990
C5 C 0.60393(15) 0.09440(16) 1.05046(14)
C6 C 0.54709(18) 0.18966(17) 1.04856(15)
H6 H 0.59830 0.24100 1.03280
H7 H 0.52030 0.20390 1.10850
C7 C 0.45484(18) 0.19338(17) 0.98411(14)
H8 H 0.42870 0.26070 0.97970
H9 H 0.39640 0.15260 1.00660
C8 C 0.48731(15) 0.15787(15) 0.89259(13)
H10 H 0.54240 0.20200 0.86770
C9 C 0.53292(15) 0.05527(15) 0.90095(13)
H11 H 0.47700 0.01590 0.93070
C10 C 0.63226(15) 0.04995(15) 0.96211(13)
C11 C 0.55253(16) 0.00654(16) 0.81095(13)
H12 H 0.62090 0.03050 0.78780
H13 H 0.56040 -0.06380 0.82110
C12 C 0.46947(15) 0.02080(17) 0.73967(13)
C13 C 0.41905(16) 0.11986(16) 0.73646(14)
C14 C 0.39271(15) 0.15435(16) 0.83060(13)
H14 H 0.34240 0.10590 0.85580
C15 C 0.32930(17) 0.24696(17) 0.81553(16)
H15 H 0.37690 0.30330 0.80850
H16 H 0.28060 0.25930 0.86540
C16 C 0.26714(18) 0.22743(17) 0.72982(15)
H17 H 0.27510 0.28260 0.68870
H18 H 0.19100 0.21920 0.74310
C17 C 0.31200(16) 0.13367(17) 0.68726(14)
H19 H 0.32890 0.14900 0.62440
C18 C 0.50232(17) 0.18559(18) 0.69099(16)
H20 H 0.51260 0.16430 0.63000
H21 H 0.56960 0.18130 0.72290
H22 H 0.47740 0.25270 0.69140
C19 C 0.72634(17) 0.10803(18) 0.92440(14)
H23 H 0.78660 0.10360 0.96490
H24 H 0.70580 0.17590 0.91750
H25 H 0.74640 0.08140 0.86690
C20 C 0.23499(16) 0.04781(16) 0.68693(13)
H26 H 0.27150 -0.00860 0.65910
C21 C 0.13513(18) 0.0692(2) 0.63431(15)
H27 H 0.10030 0.12670 0.65850
H28 H 0.08700 0.01380 0.63800
H29 H 0.15380 0.08080 0.57250
C22 C 0.06631(16) 0.00051(15) 0.86735(13)
C23 C -0.02007(18) -0.07230(17) 0.89294(16)
H30 H -0.05870 -0.04710 0.94480
H31 H -0.07120 -0.07760 0.84370
C24 C 0.0216(2) -0.17214(17) 0.91434(16)
H32 H -0.03800 -0.21660 0.92670
H33 H 0.06750 -0.16940 0.96710
C25 C 0.08416(19) -0.20803(17) 0.83566(15)
H34 H 0.03580 -0.21440 0.78470
H35 H 0.11240 -0.27310 0.84920
C26 C 0.17619(16) -0.14193(15) 0.80978(14)
C27 C 0.01161(18) 0.08956(17) 0.83002(16)
H36 H -0.02730 0.07180 0.77650
H37 H 0.06470 0.13880 0.81560
H38 H -0.03780 0.11550 0.87380
C28 C 0.12963(18) 0.03120(17) 0.94934(14)
H39 H 0.18980 0.07130 0.93130
H40 H 0.15560 -0.02650 0.98000
H41 H 0.08380 0.06830 0.98900
C29 C 0.2199(2) -0.17951(17) 0.72214(15)
H42 H 0.28780 -0.14810 0.70970
H43 H 0.16980 -0.16480 0.67470
H44 H 0.23020 -0.24970 0.72590
C30 C 0.26593(18) -0.14632(17) 0.87768(15)
H45 H 0.23600 -0.14460 0.93730
H46 H 0.31310 -0.09080 0.86950
H47 H 0.30600 -0.20630 0.86970
#END
