
#######################################################################
#
#                 Cambridge Crystallographic Data Centre
#                                CCDC
#
#######################################################################
#
# If this CIF has been generated from an entry in the Cambridge
# Structural Database, then it will include bibliographic, chemical,
# crystal, experimental, refinement or atomic coordinate data resulting
# from the CCDC's data processing and validation procedures.
#
#######################################################################

data_CSD_CIF_VEWBAA
_audit_creation_date 1991-04-18
_audit_creation_method CSD-ConQuest-V1
_database_code_CSD VEWBAA
_chemical_formula_sum 'C22 H23 N1 O8'
_chemical_formula_moiety
;
C22 H23 N1 O8
;
_journal_coden_Cambridge 156
_journal_volume 200
_journal_year 1990
_journal_page_first 469
_journal_name_full 'Carbohydr.Res. '
loop_
_publ_author_name
"J.M.J.Tronchet"
"N.Bizzozero"
"G.Bernardinelli"
"M.Geoffroy"
_chemical_name_systematic
;
Methyl 
3,6-di-O-benzoyl-2-deoxy-2-(N-hydroxy-N-methylamino)-\a-D-arabinohexopyranosid
-4-ulose
;
_chemical_melting_point 383.55
_cell_volume   2209.907
_exptl_crystal_density_diffrn 1.29
_exptl_special_details
;
Melting point range 383.55-385.45K

;
_diffrn_ambient_temperature ?
_diffrn_special_details
;
The study was carried out at room temperature,in the range 283-303K

;
#These two values have been output from a single CSD field.
_refine_ls_R_factor_gt 0.038
_refine_ls_wR_factor_gt 0.038
_symmetry_cell_setting orthorhombic
_symmetry_space_group_name_H-M 'P 21 21 21'
_symmetry_Int_Tables_number 19
loop_
_symmetry_equiv_pos_site_id
_symmetry_equiv_pos_as_xyz
1 x,y,z
2 1/2+x,1/2-y,-z
3 -x,1/2+y,1/2-z
4 1/2-x,-y,1/2+z
_cell_length_a 11.781(1)
_cell_length_b 13.4710(12)
_cell_length_c 13.9249(15)
_cell_angle_alpha 90
_cell_angle_beta 90
_cell_angle_gamma 90
_cell_formula_units_Z 4
loop_
_atom_type_symbol
_atom_type_radius_bond
C 0.68
H 0.23
N 0.68
O 0.68
loop_
_atom_site_label
_atom_site_type_symbol
_atom_site_fract_x
_atom_site_fract_y
_atom_site_fract_z
O1 O 0.4145(3) 0.5126(3) 0.0845(3)
O2 O 0.3479(4) 0.5041(3) -0.0736(3)
O3 O 0.1936(4) 0.3670(3) 0.1858(3)
O4 O 0.3708(4) 0.5070(3) 0.2908(3)
O5 O 0.3754(4) 0.6416(3) 0.3836(3)
O6 O 0.5810(4) 0.3075(3) 0.0014(3)
O7 O 0.3333(4) 0.2231(3) 0.1124(3)
O8 O 0.3887(5) 0.2149(4) 0.2663(3)
N1 N 0.4717(5) 0.2838(4) -0.0412(3)
C1 C 0.4214(5) 0.4618(4) -0.0060(4)
C2 C 0.3895(5) 0.3507(4) 0.0018(4)
C3 C 0.3699(5) 0.3242(4) 0.1083(4)
C4 C 0.2805(6) 0.3937(5) 0.1470(4)
C5 C 0.3073(5) 0.5035(4) 0.1280(4)
C6 C 0.3066(6) 0.5631(4) 0.2206(5)
C7 C 0.3956(5) 0.5546(5) 0.3720(4)
C8 C 0.4457(5) 0.4870(5) 0.4455(4)
C9 C 0.4431(7) 0.3837(5) 0.4318(5)
C10 C 0.486(1) 0.3246(6) 0.5053(6)
C11 C 0.5311(9) 0.3640(7) 0.5848(6)
C12 C 0.5318(7) 0.4659(6) 0.5982(5)
C13 C 0.4887(6) 0.5273(5) 0.5293(4)
C14 C 0.3754(8) 0.6046(5) -0.0943(5)
C15 C 0.4858(6) 0.3004(5) -0.1441(5)
C16 C 0.3488(6) 0.1756(5) 0.1972(5)
C17 C 0.3112(6) 0.0703(5) 0.1926(5)
C18 C 0.2602(6) 0.0303(5) 0.1127(6)
C19 C 0.2316(7) -0.0699(5) 0.1097(7)
C20 C 0.2538(9) -0.1279(6) 0.1903(9)
C21 C 0.3025(9) -0.0875(6) 0.2693(7)
C22 C 0.3329(6) 0.0108(6) 0.2718(6)
H1 H 0.50980 0.46880 -0.02800
H2 H 0.31200 0.33880 -0.03960
H3 H 0.44620 0.33250 0.15120
H4 H 0.24210 0.53270 0.08040
H5 H 0.34580 0.63500 0.20930
H6 H 0.21980 0.57270 0.24580
H7 H 0.40800 0.35140 0.36660
H8 H 0.48160 0.24390 0.49760
H9 H 0.56970 0.31530 0.63840
H10 H 0.56430 0.49650 0.66480
H11 H 0.48860 0.60690 0.53970
H12 H 0.37060 0.64720 -0.02750
H13 H 0.46200 0.60760 -0.12160
H14 H 0.31880 0.63760 -0.14660
H15 H 0.40550 0.28930 -0.17880
H16 H 0.51460 0.37710 -0.15420
H17 H 0.54930 0.25090 -0.17530
H18 H 0.24020 0.07780 0.05150
H19 H 0.19320 -0.10200 0.04520
H20 H 0.23610 -0.20660 0.18920
H21 H 0.31570 -0.13420 0.33240
H22 H 0.37540 0.04160 0.33570
H23 H 0.59510 0.25020 0.03090
#END
