
#######################################################################
#
#                 Cambridge Crystallographic Data Centre
#                                CCDC
#
#######################################################################
#
# If this CIF has been generated from an entry in the Cambridge
# Structural Database, then it will include bibliographic, chemical,
# crystal, experimental, refinement or atomic coordinate data resulting
# from the CCDC's data processing and validation procedures.
#
#######################################################################

data_CSD_CIF_VEWXIH
_audit_creation_date 2018-06-05
_audit_creation_method CSD-ConQuest-V1
_database_code_CSD VEWXIH
_database_code_depnum_ccdc_archive 'CCDC 1847296'
_chemical_formula_sum 'C23 H28 N2 O6'
_chemical_formula_moiety
;
C23 H28 N2 O6
;
_journal_coden_Cambridge 179
_journal_volume 55
_journal_year 2016
_journal_page_first 1816
_journal_name_full 'Angew.Chem.,Int.Ed. '
loop_
_publ_author_name
"M.G.Beaver"
"T.M.Buscagan"
"O.Lavinda"
"K.A.Woerpel"
_chemical_name_systematic
;
3-[5-(benzyloxy)oxepan-2-yl]propyl (4-nitrophenyl)carbamate
;
_cell_volume   2167.003
_exptl_crystal_density_diffrn 1.313
_diffrn_ambient_temperature 100
#These two values have been output from a single CSD field.
_refine_ls_R_factor_gt 0.054
_refine_ls_wR_factor_gt 0.054
_symmetry_cell_setting monoclinic
_symmetry_space_group_name_H-M 'P 21/n'
_symmetry_Int_Tables_number 14
loop_
_symmetry_equiv_pos_site_id
_symmetry_equiv_pos_as_xyz
1 x,y,z
2 1/2-x,1/2+y,1/2-z
3 -x,-y,-z
4 -1/2+x,-1/2-y,-1/2+z
_cell_length_a 10.3207(5)
_cell_length_b 11.3911(5)
_cell_length_c 18.9898(9)
_cell_angle_alpha 90
_cell_angle_beta 103.915(1)
_cell_angle_gamma 90
_cell_formula_units_Z 4
loop_
_atom_type_symbol
_atom_type_radius_bond
C 0.68
H 0.23
N 0.68
O 0.68
loop_
_atom_site_label
_atom_site_type_symbol
_atom_site_fract_x
_atom_site_fract_y
_atom_site_fract_z
O1 O 1.1749(2) -0.3731(1) 0.4132(1)
O2 O 1.1565(2) -0.3779(1) 0.2974(1)
N1 N 0.9528(1) 0.1363(1) 0.3266(1)
N2 N 1.1475(1) -0.3268(1) 0.3528(1)
C1 C 1.0050(1) 0.0223(1) 0.3367(1)
C2 C 1.0476(2) -0.0311(2) 0.4047(1)
C3 C 1.0952(2) -0.1454(2) 0.4094(1)
C4 C 1.1009(2) -0.2051(1) 0.3474(1)
C5 C 1.0616(2) -0.1536(2) 0.2790(1)
C6 C 1.0144(2) -0.0399(2) 0.2745(1)
O3 O 0.8979(2) 0.3188(2) 0.3504(1)
O4 O 0.9775(3) 0.1983(3) 0.4454(1)
C7 C 0.7401(2) 0.7241(2) 0.3656(1)
C8 C 0.8215(2) 0.5147(2) 0.3590(1)
C9 C 0.8921(2) 0.4127(2) 0.4018(1)
C10 C 0.9459(4) 0.2159(3) 0.3810(1)
O5 O 0.6171(12) 0.6561(12) 0.3326(7)
O6 O 0.5326(8) 1.0272(7) 0.3770(5)
C11 C 0.5579(10) 0.9038(8) 0.3923(6)
C12 C 0.4730(13) 0.8238(11) 0.3348(7)
C13 C 0.4944(13) 0.6925(12) 0.3495(8)
C14 C 0.4039(10) 1.0646(9) 0.3814(8)
C15 C 0.4058(14) 1.1938(8) 0.3908(8)
C16 C 0.2877(12) 1.2572(13) 0.3702(11)
C17 C 0.2876(14) 1.3774(13) 0.3828(12)
C18 C 0.4057(17) 1.4341(9) 0.4161(10)
C19 C 0.5238(14) 1.3707(10) 0.4367(8)
C20 C 0.5239(11) 1.2505(10) 0.4240(7)
C21 C 0.8486(12) 0.6295(11) 0.3723(7)
H1 H 0.9266(19) 0.1564(17) 0.2836(8)
H2 H 1.04390 0.01080 0.44740
H3 H 1.12380 -0.18230 0.45540
H4 H 1.06700 -0.19570 0.23660
H5 H 0.98790 -0.00300 0.22840
H6 H 0.79680 0.74490 0.33160
H7 H 0.73310 0.48860 0.33030
H8 H 0.87370 0.54200 0.32470
H9 H 0.84290 0.38610 0.43770
H10 H 0.72950 0.87400 0.35480
H11 H 0.53470 0.88640 0.43940
H12 H 0.49270 0.84190 0.28740
H13 H 0.37780 0.84210 0.33070
H14 H 0.49810 0.67590 0.40110
H15 H 0.41870 0.64800 0.31930
H16 H 0.37910 1.02620 0.42310
H17 H 0.33710 1.04250 0.33660
H18 H 0.20690 1.21840 0.34740
H19 H 0.20690 1.42070 0.36880
H20 H 0.40570 1.51630 0.42470
H21 H 0.60460 1.40950 0.45940
H22 H 0.60460 1.20720 0.43810
H23 H 0.92530 0.62820 0.41520
H24 H 0.86280 0.69570 0.34110
H25 H 0.94740 0.41350 0.41810
C22 C 0.7074(11) 0.8802(12) 0.4025(8)
H26 H 0.75990 0.94550 0.42980
C23 C 0.7411(13) 0.7646(10) 0.4448(7)
H27 H 0.83510 0.76810 0.47300
H28 H 0.68430 0.75820 0.47990
O7? O 0.878(2) 0.3052(15) 0.3328(9)
C24? C 0.8496(16) 0.5157(10) 0.3302(7)
C25? C 0.866(2) 0.4063(12) 0.3779(8)
C26? C 0.930(4) 0.205(2) 0.3665(12)
C27? C 0.8029(2) 0.6168(2) 0.4080(1)
C28? C 0.7224(10) 0.6538(10) 0.3981(6)
H29? H 0.89080 0.63890 0.43920
H30? H 0.98340 0.43580 0.42810
H31? H 0.76490 0.50940 0.29260
H32? H 0.78820 0.39670 0.39900
H33? H 0.92340 0.51880 0.30520
O8? O 0.948(3) 0.194(3) 0.4315(12)
H34? H 0.70650 0.58620 0.42850
O9? O 0.6098(2) 0.6916(1) 0.3215(1)
C29? C 0.4904(2) 0.7425(2) 0.3349(1)
C30? C 0.5415(2) 0.9632(2) 0.3501(1)
C31? C 0.4634(2) 0.8651(2) 0.3034(1)
C32? C 0.6920(2) 0.9437(2) 0.3710(1)
H35? H 0.49880 0.74600 0.38790
H36? H 0.41340 0.69130 0.31350
H37? H 0.36680 0.88170 0.29560
H38? H 0.48500 0.86650 0.25540
H39? H 0.67810 0.81470 0.44600
H40? H 0.73430 1.01140 0.40040
C33? C 0.7382(2) 0.8309(2) 0.4137(1)
O10? O 0.5005(1) 0.9726(1) 0.4167(1)
C34? C 0.3818(2) 1.0390(2) 0.4104(1)
C35? C 0.4027(2) 1.1707(2) 0.4092(1)
H41? H 0.31680 1.01570 0.36520
H42? H 0.34240 1.01940 0.45160
C36? C 0.2972(2) 1.2425(2) 0.3762(2)
C37? C 0.5228(2) 1.2218(2) 0.4444(1)
C38? C 0.3099(3) 1.3642(2) 0.3794(2)
C39? C 0.4302(3) 1.4138(2) 0.4143(2)
C40? C 0.5365(3) 1.3426(2) 0.4472(2)
H43? H 0.21510 1.20830 0.35110
H44? H 0.23630 1.41280 0.35760
H45? H 0.59620 1.17350 0.46680
H46? H 0.72490 0.94250 0.32610
H47? H 0.82910 0.84330 0.44460
H48? H 0.44020 1.49670 0.41580
H49? H 0.61890 1.37690 0.47170
H50? H 0.74570 0.59070 0.44000
H51? H 0.52220 1.03910 0.32310
#END
