
#######################################################################
#
#                 Cambridge Crystallographic Data Centre
#                                CCDC
#
#######################################################################
#
# If this CIF has been generated from an entry in the Cambridge
# Structural Database, then it will include bibliographic, chemical,
# crystal, experimental, refinement or atomic coordinate data resulting
# from the CCDC's data processing and validation procedures.
#
#######################################################################

data_CSD_CIF_VEWZIG
_audit_creation_date 1991-06-10
_audit_creation_method CSD-ConQuest-V1
_database_code_CSD VEWZIG
_chemical_formula_sum 'C18 H24 N2 O5'
_chemical_formula_moiety
;
C18 H24 N2 O5
;
_journal_coden_Cambridge 151
_journal_volume 33
_journal_year 1990
_journal_page_first 2255
_journal_name_full 'J.Med.Chem. '
loop_
_publ_author_name
"N.R.Natale"
"D.J.Triggle"
"R.B.Palmer"
"B.J.Lefler"
"W.D.Edwards"
_chemical_name_systematic
;
2,6-Dimethyl-3,5-bis(ethoxycarbonyl)-4-(3,5-dimethylisoxazolyl)-1,4-dihydropyr
idine
;
_cell_volume   3569.026
_exptl_special_details
;
cardiovascular drug activity

;
_diffrn_ambient_temperature 143.15
#These two values have been output from a single CSD field.
_refine_ls_R_factor_gt 0.0691
_refine_ls_wR_factor_gt 0.0691
_symmetry_cell_setting monoclinic
_symmetry_space_group_name_H-M 'C 2/c'
_symmetry_Int_Tables_number 15
loop_
_symmetry_equiv_pos_site_id
_symmetry_equiv_pos_as_xyz
1 x,y,z
2 1/2+x,1/2+y,z
3 -x,y,1/2-z
4 1/2-x,1/2+y,1/2-z
5 -x,-y,-z
6 -1/2-x,-1/2-y,-z
7 x,-y,-1/2+z
8 -1/2+x,-1/2-y,-1/2+z
_cell_length_a 20.088(8)
_cell_length_b 8.936(2)
_cell_length_c 23.691(6)
_cell_angle_alpha 90
_cell_angle_beta 122.94(2)
_cell_angle_gamma 90
_cell_formula_units_Z 8
loop_
_atom_type_symbol
_atom_type_radius_bond
C 0.68
N 0.68
O 0.68
loop_
_atom_site_label
_atom_site_type_symbol
_atom_site_fract_x
_atom_site_fract_y
_atom_site_fract_z
C1 C 0.1588(2) 0.5137(5) 0.0893(2)
C2 C 0.0628(3) 0.3984(5) -0.0297(2)
C3 C 0.1056(2) 0.5146(4) 0.0225(2)
N1 N 0.1318(2) 0.7553(4) 0.0546(2)
C4 C 0.1737(3) 0.6674(5) 0.1074(2)
C5 C 0.2288(3) 0.7363(5) 0.1743(2)
C6 C 0.1974(3) 0.3803(4) 0.1356(2)
C7 C 0.1369(2) 0.2820(4) 0.1380(2)
C8 C 0.1023(3) 0.3372(5) 0.1749(2)
C9 C 0.0525(3) 0.0464(5) 0.1018(3)
C10 C 0.1157(3) 0.1473(5) 0.1076(2)
C11 C 0.2200(3) 0.1534(5) 0.0854(2)
C12 C 0.2597(3) 0.0575(5) 0.0600(2)
C13 C 0.3178(3) 0.3563(5) 0.1258(2)
C14 C 0.2450(2) 0.2901(5) 0.1151(2)
C15 C 0.4003(3) 0.5747(5) 0.1684(2)
C16 C 0.3702(3) 0.6780(6) 0.1094(3)
C17 C 0.0909(5) 0.5452(6) 0.2316(3)
C18 C 0.0720(4) 0.7002(8) 0.2155(3)
N2 N 0.1522(2) 0.0908(4) 0.0767(2)
O1 O 0.1228(2) 0.4801(3) 0.1950(2)
O2 O 0.0598(2) 0.2676(4) 0.1874(2)
O3 O 0.3355(2) 0.4852(3) 0.1607(1)
O4 O 0.3591(2) 0.3080(4) 0.1068(2)
O5 O 0.0872(2) 0.6582(3) -0.0006(2)
#END
