
#######################################################################
#
#                 Cambridge Crystallographic Data Centre
#                                CCDC
#
#######################################################################
#
# If this CIF has been generated from an entry in the Cambridge
# Structural Database, then it will include bibliographic, chemical,
# crystal, experimental, refinement or atomic coordinate data resulting
# from the CCDC's data processing and validation procedures.
#
#######################################################################

data_CSD_CIF_VEXMOA01
_audit_creation_date 2013-04-23
_audit_creation_method CSD-ConQuest-V1
_database_code_CSD VEXMOA01
_database_code_depnum_ccdc_archive 'CCDC 925235'
_chemical_formula_sum 'C12 H10 N2 O1'
_chemical_formula_moiety
;
C12 H10 N2 O1
;
_journal_coeditor_code "zj2100"
_journal_coden_Cambridge 1370
_journal_volume 69
_journal_year 2013
_journal_page_first o310
_journal_name_full 'Acta Crystallogr.,Sect.E:Struct.Rep.Online '
loop_
_publ_author_name
"M.I.Rodriguez-Mora"
"R.Reyes-Martinez"
"M.Flores-Alamo"
"J.J.Garcia"
"D.Morales-Morales"
_chemical_name_systematic
;
N-Hydroxy-1-phenyl-1-(pyridin-2-yl)methanimine
;
_chemical_name_common
;
(E)-Phenyl(pyridin-2-yl)methanone oxime
;
_cell_volume    974.212
_exptl_crystal_colour 'pale pink'
_exptl_crystal_density_diffrn 1.351
_exptl_special_details
;
P21/n polymorph

;
_exptl_crystal_description 'lamina'
_diffrn_ambient_temperature 130
#These two values have been output from a single CSD field.
_refine_ls_R_factor_gt 0.0417
_refine_ls_wR_factor_gt 0.0417
_symmetry_cell_setting monoclinic
_symmetry_space_group_name_H-M 'P 21/n'
_symmetry_Int_Tables_number 14
loop_
_symmetry_equiv_pos_site_id
_symmetry_equiv_pos_as_xyz
1 x,y,z
2 1/2-x,1/2+y,1/2-z
3 -x,-y,-z
4 -1/2+x,-1/2-y,-1/2+z
_cell_length_a 5.6732(4)
_cell_length_b 23.257(2)
_cell_length_c 7.4516(5)
_cell_angle_alpha 90
_cell_angle_beta 97.743(7)
_cell_angle_gamma 90
_cell_formula_units_Z 4
loop_
_atom_type_symbol
_atom_type_radius_bond
C 0.68
H 0.23
N 0.68
O 0.68
loop_
_atom_site_label
_atom_site_type_symbol
_atom_site_fract_x
_atom_site_fract_y
_atom_site_fract_z
O1 O -0.01894(19) 0.05043(5) 0.85027(15)
N1 N 0.6746(2) 0.13409(6) 1.14331(18)
N2 N 0.1685(2) 0.04881(5) 0.99337(16)
C1 C 0.2991(2) 0.13583(6) 0.84972(19)
C2 C 0.1085(3) 0.17379(7) 0.8370(2)
H1 H -0.00750 0.17010 0.91700
C3 C 0.0870(3) 0.21697(7) 0.7082(2)
H2 H -0.04190 0.24330 0.70160
C4 C 0.2528(3) 0.22192(7) 0.5889(2)
H3 H 0.23690 0.25130 0.49960
C5 C 0.4416(3) 0.18395(7) 0.6003(2)
H4 H 0.55460 0.18710 0.51760
C6 C 0.4672(3) 0.14138(7) 0.7312(2)
H5 H 0.59940 0.11600 0.74000
C7 C 0.3204(2) 0.08948(6) 0.98862(19)
C8 C 0.5261(3) 0.08876(7) 1.13697(19)
C9 C 0.5601(3) 0.04407(7) 1.2600(2)
H6 H 0.45480 0.01210 1.25170
C10 C 0.7525(3) 0.04717(8) 1.3962(2)
H7 H 0.77860 0.01730 1.48350
C11 C 0.9048(3) 0.09311(8) 1.4052(2)
H8 H 1.03690 0.09580 1.49780
C12 C 0.8605(3) 0.13487(8) 1.2768(2)
H9 H 0.96710 0.16650 1.28160
H10 H -0.097(3) 0.0196(8) 0.878(3)
#END
