
#######################################################################
#
#                 Cambridge Crystallographic Data Centre
#                                CCDC
#
#######################################################################
#
# If this CIF has been generated from an entry in the Cambridge
# Structural Database, then it will include bibliographic, chemical,
# crystal, experimental, refinement or atomic coordinate data resulting
# from the CCDC's data processing and validation procedures.
#
#######################################################################

data_CSD_CIF_VEXWAX
_audit_creation_date 2007-06-01
_audit_creation_method CSD-ConQuest-V1
_database_code_CSD VEXWAX
_database_code_depnum_ccdc_archive 'CCDC 621756'
_chemical_formula_sum 'C15 H19 N1 O5'
_chemical_formula_moiety
;
C15 H19 N1 O5
;
_journal_coden_Cambridge 182
_journal_year 2007
_journal_page_first 867
_journal_name_full 'Chem.Commun. '
loop_
_publ_author_name
"E.A.Jaseer"
"A.B.Naidu"
"S.S.Kumar"
"R.K.Rao"
"K.G.Thakur"
"G.Sekar"
_chemical_name_systematic
;
trans-2-hydroxycyclo-octyl 4-nitrobenzoate
;
_cell_volume    739.472
_exptl_crystal_colour 'colorless'
_exptl_crystal_density_diffrn 1.317
_exptl_crystal_description 'plate'
_diffrn_ambient_temperature 293
#These two values have been output from a single CSD field.
_refine_ls_R_factor_gt 0.0826
_refine_ls_wR_factor_gt 0.0826
_symmetry_cell_setting triclinic
_symmetry_space_group_name_H-M 'P -1'
_symmetry_Int_Tables_number 2
loop_
_symmetry_equiv_pos_site_id
_symmetry_equiv_pos_as_xyz
1 x,y,z
2 -x,-y,-z
_cell_length_a 7.2564(6)
_cell_length_b 7.4017(5)
_cell_length_c 15.5988(13)
_cell_angle_alpha 88.923(5)
_cell_angle_beta 85.403(5)
_cell_angle_gamma 62.334(4)
_cell_formula_units_Z 2
loop_
_atom_type_symbol
_atom_type_radius_bond
C 0.68
H 0.23
N 0.68
O 0.68
loop_
_atom_site_label
_atom_site_type_symbol
_atom_site_fract_x
_atom_site_fract_y
_atom_site_fract_z
C1 C 0.5363(7) 0.4688(7) 0.2759(3)
H1 H 0.53390 0.35040 0.25000
C2 C 0.3202(8) 0.6083(8) 0.3173(3)
H2 H 0.31290 0.74100 0.32950
C3 C 0.2639(9) 0.5286(10) 0.4010(4)
H3 H 0.36360 0.51510 0.44170
H4 H 0.12780 0.63120 0.42440
C4 C 0.2578(11) 0.3265(13) 0.3961(5)
H5 H 0.19440 0.30910 0.45070
H6 H 0.16500 0.33800 0.35250
C5 C 0.4586(13) 0.1344(11) 0.3767(5)
H7 H 0.48990 0.12170 0.31480
H8 H 0.43590 0.01960 0.39470
C6 C 0.6489(11) 0.1156(11) 0.4172(5)
H9 H 0.72920 -0.02500 0.43390
H10 H 0.60190 0.19900 0.46950
C7 C 0.7940(11) 0.1755(11) 0.3629(5)
H11 H 0.91510 0.14130 0.39470
H12 H 0.84240 0.08950 0.31140
C8 C 0.7155(9) 0.3932(10) 0.3349(4)
H13 H 0.83100 0.40680 0.30530
H14 H 0.66920 0.48120 0.38580
C9 C 0.6730(6) 0.4878(6) 0.1351(3)
C10 C 0.7074(6) 0.6195(6) 0.0681(3)
C11 C 0.7217(6) 0.7941(6) 0.0892(3)
H15 H 0.70680 0.83450 0.14650
C12 C 0.7580(6) 0.9074(6) 0.0251(3)
H16 H 0.76980 1.02340 0.03850
C13 C 0.7764(6) 0.8451(6) -0.0591(3)
C14 C 0.7632(6) 0.6721(7) -0.0819(3)
H17 H 0.77600 0.63330 -0.13930
C15 C 0.7309(6) 0.5601(7) -0.0174(3)
H18 H 0.72450 0.44160 -0.03130
N1 N 0.8108(6) 0.9669(6) -0.1281(3)
O1 O 0.1656(6) 0.6381(6) 0.2594(3)
H19 H 0.16130 0.72200 0.22350
O2 O 0.5735(5) 0.5884(5) 0.2073(2)
O3 O 0.7319(6) 0.3087(5) 0.1228(2)
O4 O 0.8365(6) 1.1116(5) -0.1082(2)
O5 O 0.8078(7) 0.9201(6) -0.2025(2)
#END
