
#######################################################################
#
#                 Cambridge Crystallographic Data Centre
#                                CCDC
#
#######################################################################
#
# If this CIF has been generated from an entry in the Cambridge
# Structural Database, then it will include bibliographic, chemical,
# crystal, experimental, refinement or atomic coordinate data resulting
# from the CCDC's data processing and validation procedures.
#
#######################################################################

data_CSD_CIF_VEXYEC
_audit_creation_date 1991-06-18
_audit_creation_method CSD-ConQuest-V1
_database_code_CSD VEXYEC
_database_code_depnum_ccdc_fiz 'CSD 54351'
_chemical_formula_sum 'C31 H30 N4 O2'
_chemical_formula_moiety
;
C31 H30 N4 O2
;
_journal_coden_Cambridge 643
_journal_volume 192
_journal_year 1990
_journal_page_first 59
_journal_name_full 'Z.Krist.Cryst.Mater. '
loop_
_publ_author_name
"M.Vlassi"
"G.Germain"
"K.Barlos"
"P.Mamos"
"L.S.Refaat"
_chemical_name_systematic
;
Benzotriazol-1-yl N^\a^-tritylleucinate
;
_cell_volume   2707.925
_exptl_crystal_colour 'colorless'
_exptl_crystal_density_diffrn 1.21
_exptl_special_details
;
x(C23) is 0.420 not 0.0420. x(C24) is 0.563 not 0.0563

;
_diffrn_ambient_temperature ?
_diffrn_special_details
;
The study was carried out at room temperature,in the range 283-303K

;
#These two values have been output from a single CSD field.
_refine_ls_R_factor_gt 0.055
_refine_ls_wR_factor_gt 0.055
_symmetry_cell_setting orthorhombic
_symmetry_space_group_name_H-M 'P 21 21 21'
_symmetry_Int_Tables_number 19
loop_
_symmetry_equiv_pos_site_id
_symmetry_equiv_pos_as_xyz
1 x,y,z
2 1/2+x,1/2-y,-z
3 -x,1/2+y,1/2-z
4 1/2-x,-y,1/2+z
_cell_length_a 8.836(1)
_cell_length_b 15.471(1)
_cell_length_c 19.809(2)
_cell_angle_alpha 90
_cell_angle_beta 90
_cell_angle_gamma 90
_cell_formula_units_Z 4
loop_
_atom_type_symbol
_atom_type_radius_bond
C 0.68
H 0.23
N 0.68
O 0.68
loop_
_atom_site_label
_atom_site_type_symbol
_atom_site_fract_x
_atom_site_fract_y
_atom_site_fract_z
O1 O 0.8322(3) 0.4912(2) 0.5621(1)
O2 O 0.6915(4) 0.5654(3) 0.4867(2)
N1 N 0.4995(4) 0.5887(2) 0.6066(2)
N2 N 0.9471(4) 0.4955(2) 0.5148(2)
N3 N 0.9687(4) 0.4280(2) 0.4735(2)
N4 N 1.0782(5) 0.4481(3) 0.4326(2)
C1 C 0.4640(4) 0.5975(2) 0.6795(2)
C2 C 0.6129(4) 0.6064(2) 0.7194(2)
C3 C 0.7406(4) 0.6372(2) 0.6872(2)
C4 C 0.8751(4) 0.6502(3) 0.7226(2)
C5 C 0.8799(5) 0.6313(3) 0.7913(3)
C6 C 0.7542(6) 0.6037(4) 0.8230(2)
C7 C 0.6178(5) 0.5919(3) 0.7882(2)
C8 C 0.3796(3) 0.6843(2) 0.6892(2)
C9 C 0.3884(5) 0.7506(2) 0.6421(2)
C10 C 0.3115(6) 0.8286(3) 0.6524(2)
C11 C 0.2309(5) 0.8419(3) 0.7099(3)
C12 C 0.2230(5) 0.7777(3) 0.7580(2)
C13 C 0.2982(5) 0.6998(2) 0.7480(2)
C14 C 0.3645(4) 0.5209(2) 0.7014(2)
C15 C 0.4207(5) 0.4453(2) 0.7296(2)
C16 C 0.3301(6) 0.3742(3) 0.7399(2)
C17 C 0.1781(6) 0.3757(3) 0.7219(3)
C18 C 0.1199(5) 0.4502(3) 0.6935(3)
C19 C 0.2098(4) 0.5220(2) 0.6832(2)
C20 C 0.5679(4) 0.5064(2) 0.5862(2)
C21 C 0.4581(5) 0.4454(3) 0.5484(2)
C22 C 0.5268(7) 0.3575(3) 0.5259(3)
C23 C 0.420(1) 0.3152(4) 0.4787(4)
C24 C 0.563(1) 0.3021(4) 0.5840(3)
C25 C 0.6973(5) 0.5272(2) 0.5382(2)
C26 C 1.1261(5) 0.5318(3) 0.4488(2)
C27 C 1.2382(6) 0.5786(4) 0.4183(3)
C28 C 1.2601(8) 0.6612(5) 0.4442(4)
C29 C 1.1723(9) 0.6956(4) 0.4984(4)
C30 C 1.0602(7) 0.6462(3) 0.5291(2)
C31 C 1.0417(5) 0.5624(3) 0.5018(2)
H1 H 0.421(6) 0.590(3) 0.584(2)
H2 H 0.7365(4) 0.6516(2) 0.6339(2)
H3 H 0.9737(4) 0.6753(3) 0.6970(2)
H4 H 0.9850(5) 0.6385(3) 0.8185(3)
H5 H 0.7586(6) 0.5910(4) 0.8765(2)
H6 H 0.5172(5) 0.5714(3) 0.8148(2)
H7 H 0.4572(5) 0.7419(2) 0.5975(2)
H8 H 0.3150(6) 0.8787(3) 0.6143(2)
H9 H 0.1737(6) 0.9030(3) 0.7179(3)
H10 H 0.1569(5) 0.7877(3) 0.8032(2)
H11 H 0.2948(5) 0.6503(2) 0.7866(2)
H12 H 0.5381(5) 0.4427(2) 0.7447(2)
H13 H 0.3769(6) 0.3165(3) 0.7327(2)
H14 H 0.1084(6) 0.3187(3) 0.7277(3)
H15 H 0.0011(5) 0.4527(3) 0.6809(3)
H16 H 0.1613(4) 0.5793(2) 0.6605(2)
H17 H 0.6046(4) 0.4737(2) 0.6316(2)
H18 H 0.3645(5) 0.4312(3) 0.5817(2)
H19 H 0.4168(5) 0.4789(3) 0.5042(2)
H20 H 0.6336(7) 0.3674(3) 0.5006(3)
H21 H 0.4656(10) 0.2541(4) 0.4615(4)
#END
