
#######################################################################
#
#                 Cambridge Crystallographic Data Centre
#                                CCDC
#
#######################################################################
#
# If this CIF has been generated from an entry in the Cambridge
# Structural Database, then it will include bibliographic, chemical,
# crystal, experimental, refinement or atomic coordinate data resulting
# from the CCDC's data processing and validation procedures.
#
#######################################################################

data_CSD_CIF_VEYVOK
_audit_creation_date 1991-07-04
_audit_creation_method CSD-ConQuest-V1
_database_code_CSD VEYVOK
_chemical_formula_sum 'C8 H8 N2 O2'
_chemical_formula_moiety
;
C8 H8 N2 O2
;
_journal_coden_Cambridge 82
_journal_volume 30
_journal_year 1989
_journal_page_first 112-6
_journal_name_full 'Zh.Strukt.Khim.(Russ.)(J.Struct.Chem.) '
loop_
_publ_author_name
"L.F.Chertanova"
"A.I.Yanovsky"
"Yu.T.Struchkov"
"V.F.Sopin"
"O.A.Rakitin"
"T.I.Godovikova"
"L.I.Khmel'nitskii"
_chemical_name_systematic
;
Am\f-phenylglyoxime
;
_cell_volume    398.124
_exptl_crystal_density_diffrn 1.37
_diffrn_ambient_temperature ?
_diffrn_special_details
;
The study was carried out at room temperature,in the range 283-303K

;
#These two values have been output from a single CSD field.
_refine_ls_R_factor_gt 0.029
_refine_ls_wR_factor_gt 0.029
_symmetry_cell_setting triclinic
_symmetry_space_group_name_H-M 'P -1'
_symmetry_Int_Tables_number 2
loop_
_symmetry_equiv_pos_site_id
_symmetry_equiv_pos_as_xyz
1 x,y,z
2 -x,-y,-z
_cell_length_a 3.966(1)
_cell_length_b 8.624(2)
_cell_length_c 11.792(2)
_cell_angle_alpha 91.04(3)
_cell_angle_beta 97.17(3)
_cell_angle_gamma 95.52(2)
_cell_formula_units_Z 2
loop_
_atom_type_symbol
_atom_type_radius_bond
C 0.68
H 0.23
N 0.68
O 0.68
loop_
_atom_site_label
_atom_site_type_symbol
_atom_site_fract_x
_atom_site_fract_y
_atom_site_fract_z
O1 O 0.8634(4) -0.1667(2) 0.0474(1)
O2 O 0.5148(4) -0.1261(1) 0.3986(1)
N1 N 0.8716(4) -0.0311(2) 0.1148(1)
N2 N 0.6164(4) 0.0326(2) 0.3869(1)
C1 C 0.7313(5) -0.0579(2) 0.2042(1)
C2 C 0.7225(5) 0.0641(2) 0.2904(1)
C3 C 0.8397(5) 0.2299(2) 0.2747(1)
C4 C 0.7542(5) 0.3020(2) 0.1724(2)
C5 C 0.8583(5) 0.4582(2) 0.1610(2)
C6 C 1.0484(5) 0.5429(2) 0.2497(2)
C7 C 1.1338(5) 0.4732(2) 0.3513(2)
C8 C 1.0291(5) 0.3178(2) 0.3644(2)
H1 H 0.945(5) -0.130(2) -0.016(2)
H2 H 0.444(5) -0.126(2) 0.470(2)
H3 H 0.644(4) -0.158(2) 0.222(1)
H4 H 0.610(4) 0.247(2) 0.113(1)
H5 H 0.791(5) 0.507(2) 0.092(2)
H6 H 1.128(5) 0.652(2) 0.244(2)
H7 H 1.273(5) 0.535(2) 0.415(2)
H8 H 1.095(4) 0.268(2) 0.435(1)
#END
