
#######################################################################
#
#                 Cambridge Crystallographic Data Centre
#                                CCDC
#
#######################################################################
#
# If this CIF has been generated from an entry in the Cambridge
# Structural Database, then it will include bibliographic, chemical,
# crystal, experimental, refinement or atomic coordinate data resulting
# from the CCDC's data processing and validation procedures.
#
#######################################################################

data_CSD_CIF_VEZFIQ
_audit_creation_date 2007-06-01
_audit_creation_method CSD-ConQuest-V1
_database_code_CSD VEZFIQ
_database_code_depnum_ccdc_archive 'CCDC 630274'
_chemical_formula_sum 'C29 H28 N4 O3'
_chemical_formula_moiety
;
C29 H28 N4 O3
;
_journal_coden_Cambridge 16
_journal_volume 63
_journal_year 2007
_journal_page_first 2990
_journal_name_full 'Tetrahedron '
loop_
_publ_author_name
"Mei-Hsiu Shih"
"Cheng-Hua Tsai"
"Yi-Chun Wang"
"Meng-Yin Shieh"
"Guan-Ling Lin"
"Chia-Yin Wei"
_chemical_name_systematic
;
3-(4-Ethoxyphenyl)-4-(1-isobutyl-4,5-diphenyl-1H-imidazol-2-yl)sydnone
;
_chemical_melting_point 445.15
_cell_volume   1273.406
_exptl_crystal_colour 'yellow'
_exptl_crystal_density_diffrn 1.253
_exptl_special_details
;
Melting point range 445.15-447.15K

;
_exptl_crystal_preparation 'dichloromethane/ethanol'
_diffrn_ambient_temperature 298
#These two values have been output from a single CSD field.
_refine_ls_R_factor_gt 0.0978
_refine_ls_wR_factor_gt 0.0978
_symmetry_cell_setting triclinic
_symmetry_space_group_name_H-M 'P -1'
_symmetry_Int_Tables_number 2
loop_
_symmetry_equiv_pos_site_id
_symmetry_equiv_pos_as_xyz
1 x,y,z
2 -x,-y,-z
_cell_length_a 10.7821(11)
_cell_length_b 10.9877(11)
_cell_length_c 11.8506(12)
_cell_angle_alpha 69.541(2)
_cell_angle_beta 79.685(2)
_cell_angle_gamma 76.886(2)
_cell_formula_units_Z 2
loop_
_atom_type_symbol
_atom_type_radius_bond
C 0.68
H 0.23
N 0.68
O 0.68
loop_
_atom_site_label
_atom_site_type_symbol
_atom_site_fract_x
_atom_site_fract_y
_atom_site_fract_z
O1 O 0.5640(3) -0.0254(2) 0.3772(3)
O2 O 0.4375(3) 0.1221(3) 0.2373(3)
O3 O 1.0461(3) 0.1910(4) 0.6150(3)
N1 N 0.6762(3) 0.0967(3) 0.4021(3)
N2 N 0.6603(3) -0.0269(3) 0.4401(3)
N3 N 0.7134(3) 0.3629(3) 0.2095(3)
N4 N 0.5001(3) 0.4162(3) 0.2354(3)
C1 C 0.5220(4) 0.1022(3) 0.2990(3)
C2 C 0.5989(3) 0.1796(3) 0.3194(3)
C3 C 0.7706(3) 0.1257(3) 0.4577(3)
C4 C 0.7453(4) 0.1174(4) 0.5770(4)
H1 H 0.66780 0.09650 0.62030
C5 C 0.8353(4) 0.1400(5) 0.6329(4)
H2 H 0.81860 0.13500 0.71400
C6 C 0.9493(4) 0.1698(4) 0.5686(4)
C7 C 0.9739(4) 0.1793(4) 0.4477(3)
H3 H 1.05110 0.20070 0.40410
C8 C 0.8841(3) 0.1570(4) 0.3917(3)
H4 H 0.90000 0.16300 0.31040
C9 C 1.0324(5) 0.1715(8) 0.7432(5)
H5 H 0.98590 0.25250 0.75720
H6 H 0.98140 0.10330 0.78500
C10 C 1.1358(14) 0.1397(14) 0.7878(9)
H7 H 1.16330 0.04580 0.80940
H8 H 1.12450 0.16570 0.85890
H9 H 1.19940 0.18310 0.72970
C11 C 0.6056(3) 0.3186(3) 0.2571(3)
C12 C 0.5462(3) 0.5314(3) 0.1689(3)
C13 C 0.6765(3) 0.4964(3) 0.1545(3)
C14 C 0.7742(3) 0.5783(3) 0.0874(3)
C15 C 0.8936(4) 0.5497(4) 0.1292(4)
H10 H 0.91000 0.48180 0.20120
C16 C 0.9884(4) 0.6219(4) 0.0640(4)
H11 H 1.06820 0.60140 0.09210
C17 C 0.9651(4) 0.7228(4) -0.0409(4)
H12 H 1.02880 0.77120 -0.08360
C18 C 0.8474(4) 0.7531(4) -0.0839(4)
H13 H 0.83180 0.82150 -0.15570
C19 C 0.7530(4) 0.6813(3) -0.0197(3)
H14 H 0.67360 0.70230 -0.04880
C20 C 0.4629(3) 0.6616(3) 0.1263(3)
C21 C 0.3697(4) 0.6838(4) 0.0510(3)
H15 H 0.35590 0.61480 0.02930
C22 C 0.2972(4) 0.8080(4) 0.0083(4)
H16 H 0.23420 0.82170 -0.04130
C23 C 0.3170(4) 0.9111(4) 0.0380(4)
H17 H 0.26820 0.99460 0.00830
C24 C 0.4094(4) 0.8907(4) 0.1119(4)
H18 H 0.42290 0.96070 0.13230
C25 C 0.4822(4) 0.7676(3) 0.1561(3)
H19 H 0.54450 0.75490 0.20610
C26 C 0.3679(3) 0.4074(4) 0.2892(4)
H20 H 0.35830 0.31550 0.31830
H21 H 0.31100 0.45440 0.22680
C27 C 0.3273(4) 0.4636(4) 0.3934(4)
H22 H 0.34440 0.55400 0.36470
C28 C 0.1829(5) 0.4699(6) 0.4288(6)
H23 H 0.13830 0.52260 0.35960
H24 H 0.15610 0.50870 0.49230
H25 H 0.16380 0.38230 0.45680
C29 C 0.4024(6) 0.3850(5) 0.4999(5)
H26 H 0.38780 0.29560 0.52890
H27 H 0.37500 0.42360 0.56340
H28 H 0.49200 0.38570 0.47490
#END
