
#######################################################################
#
#                 Cambridge Crystallographic Data Centre
#                                CCDC
#
#######################################################################
#
# If this CIF has been generated from an entry in the Cambridge
# Structural Database, then it will include bibliographic, chemical,
# crystal, experimental, refinement or atomic coordinate data resulting
# from the CCDC's data processing and validation procedures.
#
#######################################################################

data_CSD_CIF_VEZFOW
_audit_creation_date 2007-06-01
_audit_creation_method CSD-ConQuest-V1
_database_code_CSD VEZFOW
_database_code_depnum_ccdc_archive 'CCDC 630275'
_chemical_formula_sum 'C33 H28 N4 O3'
_chemical_formula_moiety
;
C33 H28 N4 O3
;
_journal_coden_Cambridge 16
_journal_volume 63
_journal_year 2007
_journal_page_first 2990
_journal_name_full 'Tetrahedron '
loop_
_publ_author_name
"Mei-Hsiu Shih"
"Cheng-Hua Tsai"
"Yi-Chun Wang"
"Meng-Yin Shieh"
"Guan-Ling Lin"
"Chia-Yin Wei"
_chemical_name_systematic
;
3-(4-Ethoxyphenyl)-4-(1-phenethyl-4,5-diphenyl-1H-imidazol-2-yl)sydnone
;
_chemical_melting_point 444.15
_cell_volume   1427.769
_exptl_crystal_colour 'yellow'
_exptl_crystal_density_diffrn 1.23
_exptl_special_details
;
Melting point range 444.15-445.15K

;
_exptl_crystal_description 'rod'
_exptl_crystal_preparation 'ethyl acetate/ethanol'
_diffrn_ambient_temperature 298
#These two values have been output from a single CSD field.
_refine_ls_R_factor_gt 0.0476
_refine_ls_wR_factor_gt 0.0476
_symmetry_cell_setting triclinic
_symmetry_space_group_name_H-M 'P -1'
_symmetry_Int_Tables_number 2
loop_
_symmetry_equiv_pos_site_id
_symmetry_equiv_pos_as_xyz
1 x,y,z
2 -x,-y,-z
_cell_length_a 11.6064(11)
_cell_length_b 11.6574(11)
_cell_length_c 12.9543(12)
_cell_angle_alpha 63.709(2)
_cell_angle_beta 85.493(2)
_cell_angle_gamma 66.259(2)
_cell_formula_units_Z 2
loop_
_atom_type_symbol
_atom_type_radius_bond
C 0.68
H 0.23
N 0.68
O 0.68
loop_
_atom_site_label
_atom_site_type_symbol
_atom_site_fract_x
_atom_site_fract_y
_atom_site_fract_z
O1 O 0.84250(11) 0.34616(10) 0.53804(10)
O2 O 0.89419(10) 0.47730(11) 0.59808(10)
O3 O 0.27126(12) 0.73447(17) 0.08723(12)
N1 N 0.68354(11) 0.50174(11) 0.41301(10)
N2 N 0.75217(13) 0.36591(13) 0.46197(12)
N3 N 0.52712(11) 0.78158(11) 0.41461(10)
N4 N 0.70185(10) 0.81951(11) 0.37024(9)
C1 C 0.72168(13) 0.57424(14) 0.44930(12)
C2 C 0.82589(14) 0.47404(15) 0.53442(13)
C3 C 0.65052(13) 0.72338(13) 0.41430(12)
C4 C 0.60219(13) 0.94916(13) 0.33992(11)
C5 C 0.49526(13) 0.92329(13) 0.36764(11)
C6 C 0.36130(13) 1.01952(14) 0.35622(12)
C7 C 0.32578(15) 1.14799(15) 0.35709(13)
H1 H 0.38760 1.17720 0.36320
C8 C 0.19899(18) 1.23277(18) 0.34892(16)
H2 H 0.17620 1.31870 0.34940
C9 C 0.10719(19) 1.1915(2) 0.34016(19)
H3 H 0.02220 1.24930 0.33450
C10 C 0.14057(17) 1.0646(2) 0.33971(19)
H4 H 0.07810 1.03600 0.33430
C11 C 0.26731(15) 0.97902(18) 0.34736(15)
H5 H 0.28930 0.89340 0.34650
C12 C 0.61901(14) 1.08169(14) 0.28509(12)
C13 C 0.55300(16) 1.18473(15) 0.17682(14)
H6 H 0.49960 1.16890 0.13990
C14 C 0.56572(19) 1.30982(17) 0.12369(16)
H7 H 0.52050 1.37810 0.05150
C15 C 0.6441(2) 1.33401(19) 0.17627(19)
H8 H 0.65250 1.41870 0.14000
C16 C 0.71131(19) 1.2329(2) 0.28359(18)
H9 H 0.76550 1.24930 0.31910
C17 C 0.69815(15) 1.10719(17) 0.33840(14)
H10 H 0.74260 1.03990 0.41110
C18 C 0.83594(13) 0.78890(15) 0.35668(13)
H11 H 0.88460 0.68800 0.39590
H12 H 0.86480 0.82980 0.39450
C19 C 0.86321(15) 0.84370(17) 0.23139(14)
H13 H 0.81630 0.94490 0.19350
H14 H 0.95270 0.82430 0.23100
C20 C 0.83169(14) 0.78538(18) 0.16005(13)
C21 C 0.75628(18) 0.8745(2) 0.05486(17)
H15 H 0.72100 0.97070 0.03100
C22 C 0.7320(3) 0.8252(4) -0.0151(2)
H16 H 0.68140 0.88780 -0.08590
C23 C 0.7815(3) 0.6851(4) 0.0181(2)
H17 H 0.76440 0.65180 -0.02950
C24 C 0.8568(2) 0.5927(3) 0.1224(2)
H18 H 0.89100 0.49670 0.14550
C25 C 0.88154(16) 0.64296(19) 0.19298(15)
H19 H 0.93240 0.58010 0.26360
C26 C 0.57709(14) 0.55615(15) 0.32900(12)
C27 C 0.55749(15) 0.67584(17) 0.22666(13)
H20 H 0.61330 0.71890 0.21140
C28 C 0.45523(16) 0.72978(19) 0.14852(15)
H21 H 0.44180 0.80970 0.07900
C29 C 0.37124(15) 0.6674(2) 0.17107(15)
C30 C 0.39306(16) 0.54579(19) 0.27281(16)
H22 H 0.33820 0.50170 0.28740
C31 C 0.49720(15) 0.49008(16) 0.35282(14)
H23 H 0.51240 0.40890 0.42170
C32 C 0.1874(2) 0.6713(3) 0.0945(2)
H24 H 0.14640 0.65880 0.16450
H25 H 0.23300 0.58020 0.09570
C33 C 0.0900(2) 0.7698(4) -0.0121(2)
H26 H 0.03840 0.85510 -0.00720
H27 H 0.03730 0.72580 -0.01630
H28 H 0.13260 0.79090 -0.08030
#END
