
#######################################################################
#
#                 Cambridge Crystallographic Data Centre
#                                CCDC
#
#######################################################################
#
# If this CIF has been generated from an entry in the Cambridge
# Structural Database, then it will include bibliographic, chemical,
# crystal, experimental, refinement or atomic coordinate data resulting
# from the CCDC's data processing and validation procedures.
#
#######################################################################

data_CSD_CIF_VEZGAJ
_audit_creation_date 2007-06-01
_audit_creation_method CSD-ConQuest-V1
_database_code_CSD VEZGAJ
_database_code_depnum_ccdc_archive 'CCDC 630276'
_chemical_formula_sum 'C32 H26 N4 O3'
_chemical_formula_moiety
;
C32 H26 N4 O3
;
_journal_coden_Cambridge 16
_journal_volume 63
_journal_year 2007
_journal_page_first 2990
_journal_name_full 'Tetrahedron '
loop_
_publ_author_name
"Mei-Hsiu Shih"
"Cheng-Hua Tsai"
"Yi-Chun Wang"
"Meng-Yin Shieh"
"Guan-Ling Lin"
"Chia-Yin Wei"
_chemical_name_systematic
;
4-(1-Benzyl-4,5-diphenyl-1H-imidazol-2-yl)-3-(4-ethoxyphenyl)sydnone
;
_chemical_melting_point 458.15
_cell_volume   1361.567
_exptl_crystal_colour 'yellow'
_exptl_crystal_density_diffrn 1.255
_exptl_special_details
;
Melting point range 458.15-459.15K

;
_exptl_crystal_description 'needles'
_exptl_crystal_preparation 'dichloromethane/ethyl acetate'
_diffrn_ambient_temperature 295
#These two values have been output from a single CSD field.
_refine_ls_R_factor_gt 0.0466
_refine_ls_wR_factor_gt 0.0466
_symmetry_cell_setting triclinic
_symmetry_space_group_name_H-M 'P -1'
_symmetry_Int_Tables_number 2
loop_
_symmetry_equiv_pos_site_id
_symmetry_equiv_pos_as_xyz
1 x,y,z
2 -x,-y,-z
_cell_length_a 9.8788(1)
_cell_length_b 11.2436(2)
_cell_length_c 12.4050(1)
_cell_angle_alpha 81.4100(8)
_cell_angle_beta 88.2550(9)
_cell_angle_gamma 88.7470(7)
_cell_formula_units_Z 2
loop_
_atom_type_symbol
_atom_type_radius_bond
C 0.68
H 0.23
N 0.68
O 0.68
loop_
_atom_site_label
_atom_site_type_symbol
_atom_site_fract_x
_atom_site_fract_y
_atom_site_fract_z
O1 O 1.13898(12) 0.06597(12) 0.43857(10)
O2 O 1.14429(12) 0.04019(12) 0.25971(11)
O3 O 0.64918(13) 0.53137(12) 0.61059(10)
N1 N 0.98909(12) 0.20376(12) 0.43958(9)
N2 N 1.06982(15) 0.13550(15) 0.50524(11)
N3 N 0.93251(11) 0.38333(10) 0.23744(9)
N4 N 0.87541(11) 0.22585(10) 0.16019(9)
C1 C 1.09655(15) 0.09325(15) 0.33019(14)
C2 C 0.99908(14) 0.18606(13) 0.33405(11)
C3 C 0.90150(15) 0.28718(15) 0.48739(11)
C4 C 0.95261(16) 0.35318(16) 0.56133(12)
H1 H 1.04260 0.34240 0.58120
C5 C 0.87159(17) 0.43482(17) 0.60586(12)
H2 H 0.90590 0.47870 0.65640
C6 C 0.73842(17) 0.45119(16) 0.57487(12)
C7 C 0.68665(17) 0.38222(18) 0.50143(14)
H3 H 0.59650 0.39210 0.48200
C8 C 0.76762(16) 0.30033(17) 0.45794(13)
H4 H 0.73310 0.25410 0.40920
C9 C 0.6912(2) 0.5998(2) 0.69179(17)
H5 H 0.76830 0.64860 0.66500
H6 H 0.71670 0.54670 0.75730
C10 C 0.5726(3) 0.6781(3) 0.7156(2)
H7 H 0.59610 0.72550 0.77020
H8 H 0.49700 0.62860 0.74150
H9 H 0.54880 0.73030 0.65010
C11 C 0.93656(13) 0.26520(12) 0.24499(10)
C12 C 0.82784(13) 0.32734(12) 0.09401(10)
C13 C 0.86355(13) 0.42338(12) 0.14334(10)
C14 C 0.83986(13) 0.55291(12) 0.10919(11)
C15 C 0.82276(16) 0.62838(14) 0.18762(13)
H10 H 0.82660 0.59640 0.26110
C16 C 0.8001(2) 0.75051(16) 0.15792(17)
H11 H 0.78870 0.80010 0.21130
C17 C 0.79427(19) 0.79873(15) 0.04946(17)
H12 H 0.77880 0.88090 0.02960
C18 C 0.81121(16) 0.72579(15) -0.02922(14)
H13 H 0.80710 0.75860 -0.10250
C19 C 0.83451(14) 0.60324(13) -0.00020(12)
H14 H 0.84660 0.55440 -0.05410
C20 C 0.75038(13) 0.31917(12) -0.00459(10)
C21 C 0.80608(16) 0.26494(14) -0.08985(11)
H15 H 0.89610 0.23880 -0.08800
C22 C 0.72792(19) 0.24978(16) -0.17741(12)
H16 H 0.76470 0.21150 -0.23330
C23 C 0.59578(19) 0.29135(16) -0.18189(13)
H17 H 0.54340 0.28080 -0.24070
C24 C 0.54116(16) 0.34816(15) -0.10012(13)
H18 H 0.45250 0.37760 -0.10430
C25 C 0.61764(14) 0.36179(13) -0.01137(12)
H19 H 0.57970 0.39990 0.04420
C26 C 0.84700(15) 0.10021(12) 0.14965(12)
H20 H 0.92000 0.04880 0.18150
H21 H 0.84460 0.09250 0.07290
C27 C 0.71451(14) 0.05797(12) 0.20469(11)
C28 C 0.59592(17) 0.06278(14) 0.14702(14)
H22 H 0.59690 0.09360 0.07310
C29 C 0.47593(18) 0.02180(17) 0.19903(18)
H23 H 0.39690 0.02520 0.15980
C30 C 0.47294(19) -0.02363(18) 0.30772(18)
H24 H 0.39210 -0.05040 0.34240
C31 C 0.5894(2) -0.02942(19) 0.36499(16)
H25 H 0.58790 -0.06080 0.43880
C32 C 0.70946(17) 0.01110(15) 0.31377(13)
H26 H 0.78810 0.00660 0.35360
#END
