
#######################################################################
#
#                 Cambridge Crystallographic Data Centre
#                                CCDC
#
#######################################################################
#
# If this CIF has been generated from an entry in the Cambridge
# Structural Database, then it will include bibliographic, chemical,
# crystal, experimental, refinement or atomic coordinate data resulting
# from the CCDC's data processing and validation procedures.
#
#######################################################################

data_CSD_CIF_VEZTUQ
_audit_creation_date 2007-06-01
_audit_creation_method CSD-ConQuest-V1
_database_code_CSD VEZTUQ
_database_code_depnum_ccdc_archive 'CCDC 613036'
_chemical_formula_sum 'C22 H15 N1 O2'
_chemical_formula_moiety
;
C22 H15 N1 O2
;
_journal_coden_Cambridge 692
_journal_year 2007
_journal_page_first 893
_journal_name_full 'Synthesis '
loop_
_publ_author_name
"K.C.K.Swamy"
"V.Srinivas"
"K.V.P.P.Kumar"
"K.P.Kumar"
_chemical_name_systematic
;
9-(2-(4-Nitrophenyl)vinyl)anthracene
;
_chemical_melting_point 457.15
_cell_volume   1625.380
_exptl_crystal_colour 'brown'
_exptl_crystal_density_diffrn 1.33
_exptl_special_details
;
Melting point range 457.15-459.15K

;
_exptl_crystal_description 'needles'
_exptl_crystal_preparation 'dichloromethane/hexane'
_diffrn_ambient_temperature 273
#These two values have been output from a single CSD field.
_refine_ls_R_factor_gt 0.0996
_refine_ls_wR_factor_gt 0.0996
_symmetry_cell_setting monoclinic
_symmetry_space_group_name_H-M 'P 21/c'
_symmetry_Int_Tables_number 14
loop_
_symmetry_equiv_pos_site_id
_symmetry_equiv_pos_as_xyz
1 x,y,z
2 -x,1/2+y,1/2-z
3 -x,-y,-z
4 x,-1/2-y,-1/2+z
_cell_length_a 8.8163(17)
_cell_length_b 22.963(4)
_cell_length_c 8.1029(15)
_cell_angle_alpha 90
_cell_angle_beta 97.765(4)
_cell_angle_gamma 90
_cell_formula_units_Z 4
loop_
_atom_type_symbol
_atom_type_radius_bond
C 0.68
H 0.23
N 0.68
O 0.68
loop_
_atom_site_label
_atom_site_type_symbol
_atom_site_fract_x
_atom_site_fract_y
_atom_site_fract_z
O1 O 1.3102(6) 0.4570(2) -0.6268(6)
O2 O 1.4806(5) 0.42316(19) -0.4403(6)
N1 N 1.3691(6) 0.4520(2) -0.4829(7)
C1 C 0.6782(5) 0.64095(18) -0.0732(5)
H1 H 0.72950 0.62310 -0.15250
C2 C 0.5266(5) 0.6513(2) -0.1090(6)
H2 H 0.47570 0.64070 -0.21260
C3 C 0.4448(5) 0.6778(2) 0.0070(6)
H3 H 0.34020 0.68430 -0.01960
C4 C 0.5172(4) 0.69391(19) 0.1567(6)
H4 H 0.46210 0.71220 0.23210
C5 C 0.9841(5) 0.70662(17) 0.5595(5)
H5 H 0.92750 0.72280 0.63680
C6 C 1.1367(5) 0.70081(18) 0.5990(5)
H6 H 1.18470 0.71300 0.70250
C7 C 1.2236(5) 0.67603(19) 0.4821(6)
H7 H 1.32930 0.67310 0.50820
C8 C 1.1551(4) 0.65669(17) 0.3335(5)
H8 H 1.21460 0.63960 0.26030
C9 C 0.9189(4) 0.64506(16) 0.1273(5)
C10 C 0.7517(4) 0.69786(16) 0.3596(5)
H9 H 0.69590 0.71400 0.43770
C11 C 0.7614(4) 0.65682(16) 0.0840(5)
C12 C 0.6775(4) 0.68347(16) 0.2022(5)
C13 C 0.9078(4) 0.68849(15) 0.4021(5)
C14 C 0.9941(4) 0.66165(15) 0.2854(5)
C15 C 1.0009(4) 0.61668(18) 0.0032(5)
H10 H 0.98620 0.63450 -0.10080
C16 C 1.0886(5) 0.57228(19) 0.0109(6)
H11 H 1.10940 0.55570 0.11630
C17 C 1.1625(4) 0.54277(17) -0.1185(5)
C18 C 1.2792(5) 0.50379(18) -0.0756(6)
H12 H 1.31290 0.49670 0.03630
C19 C 1.3472(5) 0.47506(18) -0.1947(6)
H13 H 1.42640 0.44890 -0.16340
C20 C 1.2987(5) 0.48495(19) -0.3575(6)
C21 C 1.1826(6) 0.5229(2) -0.4064(6)
H14 H 1.14880 0.52910 -0.51880
C22 C 1.1157(5) 0.55217(19) -0.2845(6)
H15 H 1.03760 0.57870 -0.31640
#END
