
#######################################################################
#
#                 Cambridge Crystallographic Data Centre
#                                CCDC
#
#######################################################################
#
# If this CIF has been generated from an entry in the Cambridge
# Structural Database, then it will include bibliographic, chemical,
# crystal, experimental, refinement or atomic coordinate data resulting
# from the CCDC's data processing and validation procedures.
#
#######################################################################

data_CSD_CIF_VEZWIH
_audit_creation_date 2007-06-01
_audit_creation_method CSD-ConQuest-V1
_database_code_CSD VEZWIH
_database_code_depnum_ccdc_archive 'CCDC 626845'
_chemical_formula_sum 'C20 H16 N2 O4'
_chemical_formula_moiety
;
C20 H16 N2 O4
;
_journal_coden_Cambridge 179
_journal_volume 46
_journal_year 2007
_journal_page_first 1881
_journal_name_full 'Angew.Chem.,Int.Ed. '
loop_
_publ_author_name
"K.Cariou"
"B.Ronan"
"S.Mignani"
"L.Fensterbank"
"M.Malacria"
_chemical_name_systematic
;
4-nitrobenzoic acid 9,10-dihydro-6H-azepino[1,2-a]indol-11-yl ester
;
_cell_volume    857.095
_exptl_crystal_colour 'orange'
_exptl_crystal_density_diffrn 1.35
_exptl_crystal_description 'Plate-like'
_diffrn_ambient_temperature 250
#These two values have been output from a single CSD field.
_refine_ls_R_factor_gt 0.0582
_refine_ls_wR_factor_gt 0.0582
_symmetry_cell_setting triclinic
_symmetry_space_group_name_H-M 'P -1'
_symmetry_Int_Tables_number 2
loop_
_symmetry_equiv_pos_site_id
_symmetry_equiv_pos_as_xyz
1 x,y,z
2 -x,-y,-z
_cell_length_a 7.798(2)
_cell_length_b 8.726(2)
_cell_length_c 13.854(2)
_cell_angle_alpha 74.61(2)
_cell_angle_beta 81.018(17)
_cell_angle_gamma 71.048(19)
_cell_formula_units_Z 2
loop_
_atom_type_symbol
_atom_type_radius_bond
C 0.68
H 0.23
N 0.68
O 0.68
loop_
_atom_site_label
_atom_site_type_symbol
_atom_site_fract_x
_atom_site_fract_y
_atom_site_fract_z
O1 O 0.62913(18) 0.83228(18) 0.24198(9)
O2 O 0.85392(18) 0.71852(19) 0.34782(10)
O3 O 1.0919(3) 1.3578(3) -0.05571(15)
O4 O 1.3350(3) 1.2166(3) 0.02057(13)
N1 N 0.3759(2) 0.5524(2) 0.37706(11)
N2 N 1.1736(3) 1.2466(3) 0.01002(14)
C1 C 0.3170(3) 0.4043(3) 0.39173(16)
H1 H 0.419(3) 0.306(3) 0.4122(15)
H2 H 0.224(3) 0.405(3) 0.4491(15)
C2 C 0.2350(3) 0.3964(3) 0.30290(19)
H3 H 0.137(3) 0.350(3) 0.3199(16)
C3 C 0.2860(3) 0.4379(3) 0.2057(2)
H4 H 0.205(3) 0.434(3) 0.1554(19)
C4 C 0.4417(4) 0.5021(4) 0.15550(18)
H5 H 0.502(3) 0.445(3) 0.099(2)
H6 H 0.395(3) 0.623(3) 0.1166(16)
C5 C 0.5822(3) 0.4922(3) 0.22472(16)
H7 H 0.633(3) 0.369(3) 0.2635(15)
H8 H 0.682(3) 0.526(3) 0.1871(15)
C6 C 0.5018(2) 0.5953(3) 0.30026(13)
C7 C 0.5208(2) 0.7413(3) 0.30895(14)
C8 C 0.4074(2) 0.7945(2) 0.39245(14)
C9 C 0.3192(2) 0.6695(2) 0.43479(13)
C10 C 0.1982(2) 0.6783(3) 0.52075(14)
H9 H 0.14300 0.59530 0.54960
C11 C 0.1644(3) 0.8158(3) 0.56088(16)
H10 H 0.08450 0.82470 0.61790
C12 C 0.2466(3) 0.9418(3) 0.51837(18)
H11 H 0.21900 1.03310 0.54680
C13 C 0.3681(3) 0.9319(3) 0.43495(16)
H12 H 0.42310 1.01530 0.40730
C14 C 0.7930(3) 0.8153(2) 0.27322(14)
C15 C 0.8856(2) 0.9326(2) 0.20325(13)
C16 C 1.0655(3) 0.9096(3) 0.21659(16)
H13 H 1.12310 0.82430 0.26810
C17 C 1.1609(3) 1.0126(3) 0.15375(16)
H14 H 1.28200 0.99680 0.16210
C18 C 1.0713(3) 1.1386(3) 0.07899(14)
C19 C 0.8918(3) 1.1661(3) 0.06467(15)
H15 H 0.83430 1.25290 0.01390
C20 C 0.7985(3) 1.0618(3) 0.12744(14)
H16 H 0.67740 1.07840 0.11870
#END
