
#######################################################################
#
#                 Cambridge Crystallographic Data Centre
#                                CCDC
#
#######################################################################
#
# If this CIF has been generated from an entry in the Cambridge
# Structural Database, then it will include bibliographic, chemical,
# crystal, experimental, refinement or atomic coordinate data resulting
# from the CCDC's data processing and validation procedures.
#
#######################################################################

data_CSD_CIF_VIBJUM
_audit_creation_date 2007-06-01
_audit_creation_method CSD-ConQuest-V1
_database_code_CSD VIBJUM
_database_code_depnum_ccdc_archive 'CCDC 607666'
_chemical_formula_sum 'C18 H17 N1 O2'
_chemical_formula_moiety
;
C18 H17 N1 O2
;
_journal_coden_Cambridge 1291
_journal_year 2006
_journal_page_first 5339
_journal_name_full 'Eur.J.Org.Chem. '
loop_
_publ_author_name
"J.Dieker"
"R.Frohlich"
"E.-U.Wurthwein"
_chemical_name_systematic
;
4-(benzyloxyimino)-1-phenylpent-1-en-3-one
;
_chemical_melting_point 353.15
_cell_volume   3005.827
_exptl_crystal_colour 'light yellow'
_exptl_crystal_density_diffrn 1.234
_exptl_crystal_description 'needle'
_exptl_crystal_preparation 'methanol'
_diffrn_ambient_temperature 223
#These two values have been output from a single CSD field.
_refine_ls_R_factor_gt 0.0414
_refine_ls_wR_factor_gt 0.0414
_symmetry_cell_setting monoclinic
_symmetry_space_group_name_H-M 'C 2/c'
_symmetry_Int_Tables_number 15
loop_
_symmetry_equiv_pos_site_id
_symmetry_equiv_pos_as_xyz
1 x,y,z
2 1/2+x,1/2+y,z
3 -x,y,1/2-z
4 1/2-x,1/2+y,1/2-z
5 -x,-y,-z
6 -1/2-x,-1/2-y,-z
7 x,-y,-1/2+z
8 -1/2+x,-1/2-y,-1/2+z
_cell_length_a 23.681(2)
_cell_length_b 7.754(1)
_cell_length_c 17.056(2)
_cell_angle_alpha 90
_cell_angle_beta 106.31(1)
_cell_angle_gamma 90
_cell_formula_units_Z 8
loop_
_atom_type_symbol
_atom_type_radius_bond
C 0.68
H 0.23
N 0.68
O 0.68
loop_
_atom_site_label
_atom_site_type_symbol
_atom_site_fract_x
_atom_site_fract_y
_atom_site_fract_z
N1 N 0.27718(4) 0.82206(12) 0.12635(6)
C1 C 0.26927(4) 0.92552(14) 0.06573(6)
C2 C 0.31853(5) 0.93188(14) 0.02616(6)
C3 C 0.37234(5) 0.83206(15) 0.06351(7)
H1 H 0.37560 0.77110 0.11220
C4 C 0.41645(5) 0.82680(16) 0.02939(7)
H2 H 0.41070 0.88580 -0.02040
C5 C 0.47299(5) 0.73875(15) 0.06126(7)
C6 C 0.51645(6) 0.76094(19) 0.02146(8)
H3 H 0.50850 0.82890 -0.02600
C7 C 0.57116(6) 0.6843(2) 0.05082(10)
H4 H 0.60030 0.70320 0.02400
C8 C 0.58303(6) 0.5810(2) 0.11886(9)
H5 H 0.62000 0.52790 0.13830
C9 C 0.54017(7) 0.5557(2) 0.15851(9)
H6 H 0.54800 0.48420 0.20480
C10 C 0.48581(6) 0.63482(19) 0.13058(8)
H7 H 0.45730 0.61820 0.15870
O1 O 0.31251(4) 1.02058(12) -0.03480(5)
C11 C 0.21656(5) 1.03522(17) 0.03274(8)
H8 H 0.18150 0.96380 0.01980
H9 H 0.21960 1.09300 -0.01630
H10 H 0.21410 1.12050 0.07320
O2 O 0.22903(3) 0.82545(11) 0.15864(5)
C12 C 0.23978(6) 0.70510(19) 0.22535(8)
H11 H 0.27130 0.74780 0.27170
H12 H 0.25180 0.59320 0.20860
C13 C 0.18364(5) 0.68647(16) 0.24923(7)
C14 C 0.17459(5) 0.78164(17) 0.31312(7)
H13 H 0.20350 0.86010 0.34130
C15 C 0.12312(6) 0.7623(2) 0.33605(8)
H14 H 0.11720 0.82780 0.37950
C16 C 0.08080(6) 0.6475(2) 0.29534(8)
H15 H 0.04620 0.63350 0.31130
C17 C 0.08916(6) 0.5527(2) 0.23085(9)
H16 H 0.06010 0.47500 0.20250
C18 C 0.14061(6) 0.57243(19) 0.20812(8)
H17 H 0.14630 0.50770 0.16440
#END
