
#######################################################################
#
#                 Cambridge Crystallographic Data Centre
#                                CCDC
#
#######################################################################
#
# If this CIF has been generated from an entry in the Cambridge
# Structural Database, then it will include bibliographic, chemical,
# crystal, experimental, refinement or atomic coordinate data resulting
# from the CCDC's data processing and validation procedures.
#
#######################################################################

data_CSD_CIF_VIBKEX
_audit_creation_date 2007-06-01
_audit_creation_method CSD-ConQuest-V1
_database_code_CSD VIBKEX
_database_code_depnum_ccdc_archive 'CCDC 607668'
_chemical_formula_sum 'C14 H15 N1 O2'
_chemical_formula_moiety
;
C14 H15 N1 O2
;
_journal_coden_Cambridge 1291
_journal_year 2006
_journal_page_first 5339
_journal_name_full 'Eur.J.Org.Chem. '
loop_
_publ_author_name
"J.Dieker"
"R.Frohlich"
"E.-U.Wurthwein"
_chemical_name_systematic
;
2-methoxyimino-7-phenylhepta-4,6-dien-3-one
;
_chemical_melting_point 367.95
_cell_volume   1296.595
_exptl_crystal_colour 'colorless'
_exptl_crystal_density_diffrn 1.174
_exptl_crystal_description 'plate'
_exptl_crystal_preparation 'methanol'
_diffrn_ambient_temperature 223
#These two values have been output from a single CSD field.
_refine_ls_R_factor_gt 0.0413
_refine_ls_wR_factor_gt 0.0413
_symmetry_cell_setting monoclinic
_symmetry_space_group_name_H-M 'P 21/c'
_symmetry_Int_Tables_number 14
loop_
_symmetry_equiv_pos_site_id
_symmetry_equiv_pos_as_xyz
1 x,y,z
2 -x,1/2+y,1/2-z
3 -x,-y,-z
4 x,-1/2-y,-1/2+z
_cell_length_a 6.860(1)
_cell_length_b 7.945(1)
_cell_length_c 23.943(2)
_cell_angle_alpha 90
_cell_angle_beta 96.49(1)
_cell_angle_gamma 90
_cell_formula_units_Z 4
loop_
_atom_type_symbol
_atom_type_radius_bond
C 0.68
H 0.23
N 0.68
O 0.68
loop_
_atom_site_label
_atom_site_type_symbol
_atom_site_fract_x
_atom_site_fract_y
_atom_site_fract_z
N1 N -0.12885(16) 0.86011(14) -0.05272(5)
C1 C -0.04911(19) 0.77408(16) -0.01103(5)
C2 C 0.1357(2) 0.68484(16) -0.02077(5)
C3 C 0.2000(2) 0.69087(18) -0.07718(6)
H1 H 0.11830 0.74200 -0.10650
C4 C 0.3714(2) 0.62562(16) -0.08791(6)
H2 H 0.45120 0.57500 -0.05810
C5 C 0.4411(2) 0.62819(17) -0.14243(6)
H3 H 0.36060 0.67620 -0.17260
C6 C 0.6148(2) 0.56558(17) -0.15205(6)
H4 H 0.69070 0.51570 -0.12130
O1 O 0.22705(16) 0.60928(13) 0.01821(4)
O2 O -0.29636(15) 0.94141(15) -0.03866(5)
C7 C -0.1251(2) 0.7611(2) 0.04474(6)
H5 H -0.13400 0.87270 0.06070
H6 H -0.03660 0.69260 0.06970
H7 H -0.25410 0.70960 0.04010
C8 C -0.3849(3) 1.0316(2) -0.08640(8)
H8 H -0.30050 1.12430 -0.09460
H9 H -0.51100 1.07530 -0.07860
H10 H -0.40350 0.95670 -0.11850
C9 C 0.6991(2) 0.56650(17) -0.20543(5)
C10 C 0.8667(2) 0.4735(2) -0.21079(6)
H11 H 0.92550 0.41210 -0.17980
C11 C 0.9495(3) 0.4690(3) -0.26105(7)
H12 H 1.06150 0.40290 -0.26400
C12 C 0.8693(3) 0.5600(2) -0.30623(7)
H13 H 0.92600 0.55740 -0.34020
C13 C 0.7049(3) 0.6553(2) -0.30168(6)
H14 H 0.64990 0.71900 -0.33260
C14 C 0.6197(2) 0.65854(19) -0.25221(6)
H15 H 0.50640 0.72370 -0.25000
#END
