
#######################################################################
#
#                 Cambridge Crystallographic Data Centre
#                                CCDC
#
#######################################################################
#
# If this CIF has been generated from an entry in the Cambridge
# Structural Database, then it will include bibliographic, chemical,
# crystal, experimental, refinement or atomic coordinate data resulting
# from the CCDC's data processing and validation procedures.
#
#######################################################################

data_CSD_CIF_VIBKAT
_audit_creation_date 2007-06-01
_audit_creation_method CSD-ConQuest-V1
_database_code_CSD VIBKAT
_database_code_depnum_ccdc_archive 'CCDC 607667'
_chemical_formula_sum 'C18 H19 N1 O4'
_chemical_formula_moiety
;
C18 H19 N1 O4
;
_journal_coden_Cambridge 1291
_journal_year 2006
_journal_page_first 5339
_journal_name_full 'Eur.J.Org.Chem. '
loop_
_publ_author_name
"J.Dieker"
"R.Frohlich"
"E.-U.Wurthwein"
_chemical_name_systematic
;
3-acetoxy-4-acetyl-1-methoxy-2-methyl-5-styryl-1H-pyrrole
;
_chemical_melting_point 341.15
_cell_volume   1666.235
_exptl_crystal_colour 'yellow'
_exptl_crystal_density_diffrn 1.249
_exptl_special_details
;
Melts above 341.15K

;
_exptl_crystal_description 'needle'
_exptl_crystal_preparation 'methanol'
_diffrn_ambient_temperature 223
#These two values have been output from a single CSD field.
_refine_ls_R_factor_gt 0.0553
_refine_ls_wR_factor_gt 0.0553
_symmetry_cell_setting monoclinic
_symmetry_space_group_name_H-M 'P 21/n'
_symmetry_Int_Tables_number 14
loop_
_symmetry_equiv_pos_site_id
_symmetry_equiv_pos_as_xyz
1 x,y,z
2 1/2-x,1/2+y,1/2-z
3 -x,-y,-z
4 -1/2+x,-1/2-y,-1/2+z
_cell_length_a 12.863(1)
_cell_length_b 7.990(2)
_cell_length_c 16.695(2)
_cell_angle_alpha 90
_cell_angle_beta 103.81(1)
_cell_angle_gamma 90
_cell_formula_units_Z 4
loop_
_atom_type_symbol
_atom_type_radius_bond
C 0.68
H 0.23
N 0.68
O 0.68
loop_
_atom_site_label
_atom_site_type_symbol
_atom_site_fract_x
_atom_site_fract_y
_atom_site_fract_z
N1 N 0.76368(12) 0.4170(2) 0.26310(9)
C1 C 0.68729(15) 0.3937(2) 0.30707(12)
C2 C 0.74291(15) 0.3451(3) 0.38346(11)
C3 C 0.85422(15) 0.3367(3) 0.38649(11)
C4 C 0.86519(14) 0.3843(2) 0.30835(11)
C5 C 0.96237(15) 0.4064(3) 0.28035(12)
H1 H 1.02500 0.36280 0.31520
C6 C 0.97499(16) 0.4804(3) 0.21166(12)
H2 H 0.91320 0.52100 0.17470
O1 O 0.69570(11) 0.29860(18) 0.44709(9)
O2 O 0.73679(11) 0.46569(18) 0.18161(8)
C7 C 0.57132(16) 0.4257(3) 0.27150(14)
H3 H 0.53350 0.42500 0.31530
H4 H 0.54250 0.33910 0.23170
H5 H 0.56250 0.53390 0.24440
C8 C 0.7266(2) 0.3199(4) 0.12872(14)
H6 H 0.79540 0.26430 0.13720
H7 H 0.70300 0.35430 0.07150
H8 H 0.67470 0.24340 0.14210
C9 C 1.07764(17) 0.5036(3) 0.18909(13)
C10 C 1.17440(18) 0.4440(3) 0.23666(15)
H9 H 1.17550 0.38610 0.28590
C11 C 1.2690(2) 0.4685(4) 0.21271(18)
H10 H 1.33340 0.42640 0.24550
C12 C 1.2696(2) 0.5545(4) 0.1411(2)
H11 H 1.33410 0.57190 0.12510
C13 C 1.1749(3) 0.6139(4) 0.0937(2)
H12 H 1.17430 0.67270 0.04480
C14 C 1.0798(2) 0.5882(3) 0.11722(16)
H13 H 1.01550 0.62900 0.08360
C15 C 0.6591(2) 0.4221(3) 0.48884(14)
C16 C 0.6218(2) 0.3578(4) 0.56024(15)
H14 H 0.61460 0.45000 0.59630
H15 H 0.67330 0.27780 0.59030
H16 H 0.55300 0.30320 0.54090
O3 O 0.6541(2) 0.5645(2) 0.46602(15)
C17 C 0.94184(17) 0.2841(4) 0.45568(14)
C18 C 0.9198(2) 0.2590(7) 0.53827(17)
H17 H 0.98490 0.22410 0.57710
H18 H 0.86540 0.17340 0.53470
H19 H 0.89470 0.36310 0.55690
O4 O 1.03208(14) 0.2621(4) 0.44766(12)
#END
