
#######################################################################
#
#                 Cambridge Crystallographic Data Centre
#                                CCDC
#
#######################################################################
#
# If this CIF has been generated from an entry in the Cambridge
# Structural Database, then it will include bibliographic, chemical,
# crystal, experimental, refinement or atomic coordinate data resulting
# from the CCDC's data processing and validation procedures.
#
#######################################################################

data_CSD_CIF_VICVAE
_audit_creation_date 1991-08-27
_audit_creation_method CSD-ConQuest-V1
_database_code_CSD VICVAE
_chemical_formula_sum 'C12 H9 N5 O6'
_chemical_formula_moiety
;
C12 H9 N5 O6
;
_journal_coden_Cambridge 11
_journal_volume 120
_journal_year 1990
_journal_page_first 493
_journal_name_full 'Gazz.Chim.Ital. '
loop_
_publ_author_name
"L.Forlani"
"G.Guastadisegni"
"L.Raffellini"
"P.E.Todesco"
"E.Foresti"
_chemical_name_systematic
;
2-(Methyl(2,4,6-trinitrophenyl)amino)pyridine
;
_chemical_melting_point 420.15
_cell_volume    682.169
_exptl_crystal_density_diffrn 1.55
_exptl_special_details
;
Melting point range 420.15-421.15K

;
_diffrn_ambient_temperature ?
_diffrn_special_details
;
The study was carried out at room temperature,in the range 283-303K

;
#These two values have been output from a single CSD field.
_refine_ls_R_factor_gt 0.043
_refine_ls_wR_factor_gt 0.043
_symmetry_cell_setting triclinic
_symmetry_space_group_name_H-M 'P -1'
_symmetry_Int_Tables_number 2
loop_
_symmetry_equiv_pos_site_id
_symmetry_equiv_pos_as_xyz
1 x,y,z
2 -x,-y,-z
_cell_length_a 7.832(2)
_cell_length_b 8.466(3)
_cell_length_c 11.352(2)
_cell_angle_alpha 106.09(2)
_cell_angle_beta 105.86(2)
_cell_angle_gamma 96.06(2)
_cell_formula_units_Z 2
loop_
_atom_type_symbol
_atom_type_radius_bond
C 0.68
N 0.68
O 0.68
loop_
_atom_site_label
_atom_site_type_symbol
_atom_site_fract_x
_atom_site_fract_y
_atom_site_fract_z
N1 N -0.0087(4) 0.2735(3) 0.2670(3)
C1 C 0.1091(4) 0.2157(4) 0.3450(3)
C2 C 0.0969(5) 0.2050(4) 0.4623(3)
C3 C -0.0473(6) 0.2573(5) 0.4983(4)
C4 C -0.1717(6) 0.3187(4) 0.4208(4)
C5 C -0.1468(5) 0.3260(4) 0.3070(4)
C6 C 0.2637(4) 0.1820(4) 0.1847(3)
C7 C 0.2849(4) 0.3383(4) 0.1654(3)
C8 C 0.2956(4) 0.3617(4) 0.0525(3)
C9 C 0.2978(4) 0.2223(4) -0.0448(3)
C10 C 0.2839(4) 0.0652(4) -0.0331(3)
C11 C 0.2623(4) 0.0476(4) 0.0791(3)
N2 N 0.2210(4) -0.1260(3) 0.0789(3)
O1 O 0.3078(3) -0.2239(3) 0.0335(3)
O2 O 0.0995(3) -0.1628(3) 0.1198(3)
N3 N 0.3077(5) 0.4928(4) 0.2725(3)
O3 O 0.4098(4) 0.5052(3) 0.3775(3)
O4 O 0.2268(5) 0.5991(3) 0.2476(3)
N4 N 0.3122(4) 0.2427(4) -0.1661(3)
O5 O 0.3057(4) 0.1171(3) -0.2529(2)
O6 O 0.3317(4) 0.3835(3) -0.1736(2)
N5 N 0.2473(4) 0.1606(3) 0.2985(3)
C12 C 0.3715(5) 0.0729(5) 0.3680(4)
#END
