
#######################################################################
#
#                 Cambridge Crystallographic Data Centre
#                                CCDC
#
#######################################################################
#
# If this CIF has been generated from an entry in the Cambridge
# Structural Database, then it will include bibliographic, chemical,
# crystal, experimental, refinement or atomic coordinate data resulting
# from the CCDC's data processing and validation procedures.
#
#######################################################################

data_CSD_CIF_VIDCES
_audit_creation_date 2013-05-24
_audit_creation_method CSD-ConQuest-V1
_database_code_CSD VIDCES
_database_code_depnum_ccdc_archive 'CCDC 884043'
_chemical_formula_sum 'C24 H22 N2 O3'
_chemical_formula_moiety
;
C24 H22 N2 O3
;
_journal_coden_Cambridge 1048
_journal_volume 15
_journal_year 2013
_journal_page_first 1910
_journal_name_full 'Green Chemistry '
loop_
_publ_author_name
"S.Ray"
"M.Brown"
"A.Bhaumik"
"A.Dutta"
"C.Mukhopadhyay"
_chemical_name_systematic
;
3,7,7-Trimethyl-4-(4-nitrophenyl)-2-phenyl-7,8-dihydroquinolin-5(6H)-one
;
_cell_volume   2050.203
_exptl_crystal_density_diffrn 1.255
_diffrn_ambient_temperature 296
#These two values have been output from a single CSD field.
_refine_ls_R_factor_gt 0.0554
_refine_ls_wR_factor_gt 0.0554
_symmetry_cell_setting monoclinic
_symmetry_space_group_name_H-M 'C c'
_symmetry_Int_Tables_number 9
loop_
_symmetry_equiv_pos_site_id
_symmetry_equiv_pos_as_xyz
1 x,y,z
2 x,-y,1/2+z
3 1/2+x,1/2+y,z
4 1/2+x,1/2-y,1/2+z
_cell_length_a 16.0558(4)
_cell_length_b 13.0680(4)
_cell_length_c 11.5754(4)
_cell_angle_alpha 90
_cell_angle_beta 122.419(2)
_cell_angle_gamma 90
_cell_formula_units_Z 4
loop_
_atom_type_symbol
_atom_type_radius_bond
C 0.68
H 0.23
N 0.68
O 0.68
loop_
_atom_site_label
_atom_site_type_symbol
_atom_site_fract_x
_atom_site_fract_y
_atom_site_fract_z
O1 O 0.3230(5) 0.3616(2) 0.8005(9)
O2 O 0.2167(2) 0.81533(19) 0.6049(3)
N1 N 0.39874(18) 1.04384(17) 0.9766(2)
C1 C 0.45513(18) 0.97040(18) 1.0632(2)
C2 C 0.52541(18) 1.0076(2) 1.2058(3)
N2 N 0.3619(3) 0.4176(2) 0.7602(4)
C3 C 0.3645(2) 0.5280(2) 0.7893(3)
C4 C 0.4108(3) 0.5930(3) 0.7486(4)
H1 H 0.44020 0.56850 0.70340
C5 C 0.4126(2) 0.6970(3) 0.7767(4)
H2 H 0.44260 0.74270 0.74860
C6 C 0.37001(19) 0.73288(19) 0.8459(3)
C7 C 0.37916(19) 0.84277(19) 0.8880(3)
C8 C 0.45140(18) 0.86782(19) 1.0240(3)
C9 C 0.5483(2) 0.9546(2) 1.3215(3)
H3 H 0.52130 0.89010 1.31360
C10 C 0.6117(2) 0.9967(3) 1.4510(3)
H4 H 0.62600 0.96020 1.52850
C11 C 0.6528(2) 1.0907(2) 1.4651(3)
H5 H 0.69520 1.11800 1.55180
C12 C 0.3238(2) 0.66448(19) 0.8842(3)
H6 H 0.29480 0.68830 0.93040
C13 C 0.3195(2) 0.5605(2) 0.8554(3)
H7 H 0.28720 0.51470 0.88000
C14 C 0.3200(2) 0.9199(2) 0.7958(3)
C15 C 0.2428(3) 0.9000(2) 0.6494(3)
C16 C 0.2026(3) 0.9906(3) 0.5552(4)
H8 H 0.14070 0.97150 0.47300
H9 H 0.24850 1.00940 0.52870
C17 C 0.1849(2) 1.0843(2) 0.6207(3)
C18 C 0.1459(5) 1.1747(4) 0.5224(5)
H10 H 0.13800 1.23270 0.56650
H11 H 0.08340 1.15710 0.44240
H12 H 0.19180 1.19130 0.49620
C19 C 0.1075(3) 1.0559(4) 0.6536(5)
H13 H 0.13070 0.99890 0.71560
H14 H 0.04700 1.03760 0.57070
H15 H 0.09610 1.11330 0.69520
C20 C 0.2814(3) 1.1096(2) 0.7504(4)
H16 H 0.26900 1.16070 0.80020
H17 H 0.32490 1.14020 0.72580
C21 C 0.3347(2) 1.0202(2) 0.8455(3)
C22 C 0.5252(2) 0.7885(2) 1.1161(3)
H18 H 0.58360 0.82170 1.18760
H19 H 0.54180 0.74580 1.06390
H20 H 0.49730 0.74730 1.15570
C23 C 0.6316(2) 1.1448(2) 1.3513(3)
H21 H 0.66010 1.20860 1.36080
C24 C 0.5679(2) 1.1051(2) 1.2220(3)
H22 H 0.55300 1.14300 1.14520
O3 O 0.3998(4) 0.3882(3) 0.7030(4)
#END
