
#######################################################################
#
#                 Cambridge Crystallographic Data Centre
#                                CCDC
#
#######################################################################
#
# If this CIF has been generated from an entry in the Cambridge
# Structural Database, then it will include bibliographic, chemical,
# crystal, experimental, refinement or atomic coordinate data resulting
# from the CCDC's data processing and validation procedures.
#
#######################################################################

data_CSD_CIF_VIDYOW
_audit_creation_date 1991-07-31
_audit_creation_method CSD-ConQuest-V1
_database_code_CSD VIDYOW
_chemical_formula_sum 'C12 H10 N2 O1'
_chemical_formula_moiety
;
C12 H10 N2 O1
;
_journal_coeditor_code "IUCr GE0150"
_journal_coden_Cambridge 591
_journal_volume 47
_journal_year 1991
_journal_page_first 217
_journal_name_full 'Acta Crystallogr.,Sect.C:Cryst.Struct.Commun. '
loop_
_publ_author_name
"N.N.Dhaneshwar"
"S.N.Naik"
"S.S.Tavale"
_chemical_name_systematic
;
4-Nitrosodiphenylamine
;
_cell_volume   1003.203
_exptl_crystal_density_diffrn 1.31
_exptl_special_details
;
insecticidal and fungicidal activity

;
_diffrn_ambient_temperature ?
_diffrn_special_details
;
The study was carried out at room temperature,in the range 283-303K

;
#These two values have been output from a single CSD field.
_refine_ls_R_factor_gt 0.038
_refine_ls_wR_factor_gt 0.038
_symmetry_cell_setting monoclinic
_symmetry_space_group_name_H-M 'P 21/c'
_symmetry_Int_Tables_number 14
loop_
_symmetry_equiv_pos_site_id
_symmetry_equiv_pos_as_xyz
1 x,y,z
2 -x,1/2+y,1/2-z
3 -x,-y,-z
4 x,-1/2-y,-1/2+z
_cell_length_a 5.932(1)
_cell_length_b 18.797(1)
_cell_length_c 9.019(1)
_cell_angle_alpha 90
_cell_angle_beta 94.00(1)
_cell_angle_gamma 90
_cell_formula_units_Z 4
loop_
_atom_type_symbol
_atom_type_radius_bond
C 0.68
H 0.23
N 0.68
O 0.68
loop_
_atom_site_label
_atom_site_type_symbol
_atom_site_fract_x
_atom_site_fract_y
_atom_site_fract_z
C1 C 0.7922(6) 0.3549(2) 1.1053(4)
C2 C 0.8398(6) 0.2820(2) 1.0785(5)
C3 C 0.6907(7) 0.2416(2) 0.9949(5)
C4 C 0.4871(6) 0.2699(2) 0.9343(4)
C5 C 0.4421(6) 0.3423(2) 0.9597(4)
C6 C 0.5902(6) 0.3840(2) 1.0433(4)
N1 N 0.9484(5) 0.3927(2) 1.1887(4)
N2 N 0.3172(6) 0.2340(2) 0.8478(4)
O1 O 0.3602(5) 0.1692(2) 0.8316(3)
C7 C 0.9196(7) 0.4631(2) 1.2429(4)
C8 C 1.0882(7) 0.5129(2) 1.2233(4)
C9 C 1.0713(7) 0.5803(2) 1.2841(5)
C10 C 0.8914(7) 0.5976(2) 1.3631(5)
C11 C 0.7250(7) 0.5483(2) 1.3811(5)
C12 C 0.7380(7) 0.4809(2) 1.3218(4)
H1 H 1.093(7) 0.369(2) 1.217(4)
H2 H 0.995(7) 0.263(2) 1.130(4)
H3 H 0.721(7) 0.193(2) 0.973(4)
H4 H 0.298(6) 0.361(2) 0.914(4)
H5 H 0.556(7) 0.436(2) 1.061(4)
H6 H 1.217(7) 0.498(2) 1.165(4)
H7 H 1.192(6) 0.616(2) 1.264(4)
H8 H 0.875(6) 0.646(2) 1.410(4)
H9 H 0.599(7) 0.561(2) 1.434(4)
H10 H 0.617(7) 0.446(2) 1.330(4)
#END
