
#######################################################################
#
#                 Cambridge Crystallographic Data Centre
#                                CCDC
#
#######################################################################
#
# If this CIF has been generated from an entry in the Cambridge
# Structural Database, then it will include bibliographic, chemical,
# crystal, experimental, refinement or atomic coordinate data resulting
# from the CCDC's data processing and validation procedures.
#
#######################################################################

data_CSD_CIF_VIGDAS
_audit_creation_date 2013-05-24
_audit_creation_method CSD-ConQuest-V1
_database_code_CSD VIGDAS
_database_code_depnum_ccdc_archive 'CCDC 860835'
_chemical_formula_sum 'C19 H15 N3 O3'
_chemical_formula_moiety
;
C19 H15 N3 O3
;
_journal_coden_Cambridge 16
_journal_volume 69
_journal_year 2013
_journal_page_first 2775
_journal_name_full 'Tetrahedron '
loop_
_publ_author_name
"Wei-Zhe Chen"
"Hao-Yi Wei"
"Ding-Yah Yang"
_chemical_name_systematic
;
1,2-Dimethyl-2-(2-nitrophenyl)-1,2-dihydro-6H-perimidin-6-one
;
_cell_volume   1634.594
_exptl_crystal_colour 'black'
_exptl_crystal_density_diffrn 1.355
_exptl_crystal_description 'parallelepiped'
_diffrn_ambient_temperature 110
#These two values have been output from a single CSD field.
_refine_ls_R_factor_gt 0.0478
_refine_ls_wR_factor_gt 0.0478
_symmetry_cell_setting monoclinic
_symmetry_space_group_name_H-M 'P 21/n'
_symmetry_Int_Tables_number 14
loop_
_symmetry_equiv_pos_site_id
_symmetry_equiv_pos_as_xyz
1 x,y,z
2 1/2-x,1/2+y,1/2-z
3 -x,-y,-z
4 -1/2+x,-1/2-y,-1/2+z
_cell_length_a 8.4799(3)
_cell_length_b 16.1700(8)
_cell_length_c 11.9214(5)
_cell_angle_alpha 90
_cell_angle_beta 90.522(4)
_cell_angle_gamma 90
_cell_formula_units_Z 4
loop_
_atom_type_symbol
_atom_type_radius_bond
C 0.68
H 0.23
N 0.68
O 0.68
loop_
_atom_site_label
_atom_site_type_symbol
_atom_site_fract_x
_atom_site_fract_y
_atom_site_fract_z
O1 O 0.51363(12) 0.05427(7) 0.72585(10)
O2 O 0.83085(12) -0.26475(7) 0.65535(9)
O3 O 0.72048(12) -0.37750(7) 0.5944(1)
N1 N 0.67262(12) -0.23279(7) 0.4306(1)
N2 N 0.89197(12) -0.13635(7) 0.47446(10)
N3 N 0.82035(13) -0.32270(8) 0.58947(11)
C1 C 0.59638(16) 0.00735(9) 0.67125(12)
C2 C 0.76811(17) 0.02041(9) 0.66569(13)
H1 H 0.81400 0.06510 0.70620
C3 C 0.86083(16) -0.02881(9) 0.60529(13)
H2 H 0.97140 -0.01940 0.60580
C4 C 0.79674(15) -0.09663(9) 0.53855(12)
C5 C 0.62860(15) -0.11423(8) 0.54619(12)
C6 C 0.52925(16) -0.06429(9) 0.61006(12)
C7 C 0.36907(16) -0.08249(9) 0.61629(13)
H3 H 0.30090 -0.04890 0.65970
C8 C 0.31076(16) -0.14994(10) 0.55865(13)
H4 H 0.20130 -0.16210 0.56220
C9 C 0.40784(15) -0.20048(9) 0.49573(13)
H5 H 0.36480 -0.24690 0.45740
C10 C 0.57006(15) -0.18321(9) 0.48839(12)
C11 C 0.83101(15) -0.20168(9) 0.40083(12)
C12 C 0.94735(14) -0.27399(8) 0.41311(12)
C13 C 1.06703(15) -0.28705(9) 0.33595(12)
H6 H 1.07580 -0.25090 0.27350
C14 C 1.17377(16) -0.35148(9) 0.34810(13)
H7 H 1.25520 -0.35830 0.29470
C15 C 1.16284(16) -0.40572(9) 0.43700(13)
H8 H 1.23580 -0.45000 0.44460
C16 C 1.04437(17) -0.39508(9) 0.51520(14)
H9 H 1.03450 -0.43190 0.57680
C17 C 0.94138(15) -0.32984(9) 0.50150(12)
C18 C 0.60859(18) -0.29842(10) 0.35965(15)
H10 H 0.694(2) -0.3286(11) 0.3216(15)
H11 H 0.5517(19) -0.3395(10) 0.4110(15)
H12 H 0.534(2) -0.2760(11) 0.2977(16)
C19 C 0.82777(17) -0.16479(10) 0.28226(13)
H13 H 0.75180 -0.11910 0.27920
H14 H 0.79650 -0.20760 0.22830
H15 H 0.93290 -0.14410 0.26360
#END
