
#######################################################################
#
#                 Cambridge Crystallographic Data Centre
#                                CCDC
#
#######################################################################
#
# If this CIF has been generated from an entry in the Cambridge
# Structural Database, then it will include bibliographic, chemical,
# crystal, experimental, refinement or atomic coordinate data resulting
# from the CCDC's data processing and validation procedures.
#
#######################################################################

data_CSD_CIF_VIGPOR
_audit_creation_date 2007-10-22
_audit_creation_method CSD-ConQuest-V1
_database_code_CSD VIGPOR
_database_code_depnum_ccdc_archive 'CCDC 624635'
_database_code_depnum_ccdc_journal 1135/270
_chemical_formula_sum 'C3 H8 N2 O3'
_chemical_formula_moiety
;
C3 H8 N2 O3
;
_journal_coden_Cambridge 1135
_journal_volume 17
_journal_year 2007
_journal_page_first 178
_journal_name_full 'Mendeleev Commun. '
loop_
_publ_author_name
"V.G.Shtamburg"
"O.V.Shishkin"
"R.I.Zubatyuk"
"S.V.Kravchenko"
"A.V.Tsygankov"
"V.V.Shtamburg"
"V.B.Distanov"
"R.G.Kostyanovsky"
_chemical_name_systematic
;
N,N-Dimethoxyurea
;
_chemical_melting_point 320.15
_cell_volume   2398.590
_exptl_crystal_colour 'colorless'
_exptl_crystal_density_diffrn 1.33
_exptl_special_details
;
Melting point range 320.15-321.15K
Study temperature given as 293 K in the cif
;
_exptl_crystal_preparation 'diethyl ether/hexane'
_diffrn_ambient_temperature 100
#These two values have been output from a single CSD field.
_refine_ls_R_factor_gt 0.0282
_refine_ls_wR_factor_gt 0.0282
_symmetry_cell_setting orthorhombic
_symmetry_space_group_name_H-M 'F d d 2'
_symmetry_Int_Tables_number 43
loop_
_symmetry_equiv_pos_site_id
_symmetry_equiv_pos_as_xyz
1 x,y,z
2 -x,-y,z
3 1/4-x,1/4+y,1/4+z
4 1/4+x,1/4-y,1/4+z
5 x,1/2+y,1/2+z
6 -x,1/2-y,1/2+z
7 1/4-x,3/4+y,3/4+z
8 1/4+x,3/4-y,3/4+z
9 1/2+x,y,1/2+z
10 1/2-x,-y,1/2+z
11 3/4-x,1/4+y,3/4+z
12 3/4+x,1/4-y,3/4+z
13 1/2+x,1/2+y,z
14 1/2-x,1/2-y,z
15 3/4-x,3/4+y,1/4+z
16 3/4+x,3/4-y,1/4+z
_cell_length_a 24.358(9)
_cell_length_b 18.941(6)
_cell_length_c 5.1989(17)
_cell_angle_alpha 90
_cell_angle_beta 90
_cell_angle_gamma 90
_cell_formula_units_Z 16
loop_
_atom_type_symbol
_atom_type_radius_bond
C 0.68
H 0.23
N 0.68
O 0.68
loop_
_atom_site_label
_atom_site_type_symbol
_atom_site_fract_x
_atom_site_fract_y
_atom_site_fract_z
O1 O 0.29742(6) 0.01922(10) 0.4036(3)
O2 O 0.40197(5) 0.03254(9) 0.2926(3)
O3 O 0.41829(6) 0.04349(9) 0.7257(3)
N1 N 0.38218(7) 0.05969(10) 0.5248(4)
N2 N 0.31473(10) 0.03318(12) 0.8276(4)
H1 H 0.281(1) 0.0200(11) 0.870(5)
H2 H 0.3392(11) 0.0357(12) 0.931(5)
C1 C 0.32820(9) 0.03299(12) 0.5816(4)
C2 C 0.41285(11) -0.04181(14) 0.2977(7)
H3 H 0.42070 -0.05800 0.12660
H4 H 0.38130 -0.06630 0.36290
H5 H 0.44380 -0.05100 0.40690
C3 C 0.45825(9) 0.09845(15) 0.7476(7)
H6 H 0.48590 0.08470 0.86910
H7 H 0.44070 0.14100 0.80560
H8 H 0.47490 0.10660 0.58290
#END
