
#######################################################################
#
#                 Cambridge Crystallographic Data Centre
#                                CCDC
#
#######################################################################
#
# If this CIF has been generated from an entry in the Cambridge
# Structural Database, then it will include bibliographic, chemical,
# crystal, experimental, refinement or atomic coordinate data resulting
# from the CCDC's data processing and validation procedures.
#
#######################################################################

data_CSD_CIF_VIGPOT
_audit_creation_date 2018-06-11
_audit_creation_method CSD-ConQuest-V1
_database_code_CSD VIGPOT
_database_code_depnum_ccdc_archive 'CCDC 1837951'
_chemical_formula_sum 'C10 H16 N2 O7'
_chemical_formula_moiety
;
C10 H16 N2 O7
;
_journal_coden_Cambridge 1336
_journal_volume 20
_journal_year 2018
_journal_page_first 3609
_journal_name_full 'Org.Lett. '
loop_
_publ_author_name
"Jun-Ping Pei"
"Ying-Han Chen"
"Yan-Kai Liu"
_chemical_name_systematic
;
2-methoxy-5-methyl-5-nitro-3-(nitromethyl)hexahydro-4H-furo[2,3-b]pyran
;
_cell_volume    668.626
_exptl_crystal_colour 'colorless'
_exptl_crystal_density_diffrn 1.372
_exptl_crystal_description 'block'
_diffrn_ambient_temperature 296.1
#These two values have been output from a single CSD field.
_refine_ls_R_factor_gt 0.0392
_refine_ls_wR_factor_gt 0.0392
_symmetry_cell_setting monoclinic
_symmetry_space_group_name_H-M 'P 21'
_symmetry_Int_Tables_number 4
loop_
_symmetry_equiv_pos_site_id
_symmetry_equiv_pos_as_xyz
1 x,y,z
2 -x,1/2+y,-z
_cell_length_a 6.5376(12)
_cell_length_b 10.2636(19)
_cell_length_c 10.2850(19)
_cell_angle_alpha 90
_cell_angle_beta 104.336(2)
_cell_angle_gamma 90
_cell_formula_units_Z 2
loop_
_atom_type_symbol
_atom_type_radius_bond
C 0.68
H 0.23
N 0.68
O 0.68
loop_
_atom_site_label
_atom_site_type_symbol
_atom_site_fract_x
_atom_site_fract_y
_atom_site_fract_z
O1 O 0.5255(5) 0.3248(3) 0.5190(3)
O2 O 0.6231(5) 0.1286(3) 0.5037(3)
O3 O 0.9861(3) 0.27286(18) 0.4009(2)
O4 O 1.0708(3) 0.4404(2) 0.27302(18)
O5 O 0.8528(3) 0.5354(3) 0.0859(2)
O6 O 0.8719(7) 0.8675(3) 0.2483(4)
O7 O 0.5784(7) 0.8709(3) 0.1019(4)
N1 N 0.5852(4) 0.2376(3) 0.4578(3)
N2 N 0.7074(6) 0.8182(3) 0.1920(3)
C1 C 0.6061(4) 0.2632(3) 0.3141(3)
C2 C 0.8188(4) 0.2121(3) 0.3057(3)
H1 H 0.82420 0.11880 0.32130
H2 H 0.83700 0.22740 0.21620
C3 C 0.9953(4) 0.4078(3) 0.3885(2)
H3 H 1.09640 0.44150 0.46810
C4 C 0.9784(4) 0.5581(3) 0.2147(3)
H4 H 1.08850 0.62190 0.21160
C5 C 0.9711(9) 0.4914(6) -0.0057(4)
H5 H 0.88090 0.48860 -0.09490
H6 H 1.02570 0.40580 0.01980
H7 H 1.08610 0.55020 -0.00360
C6 C 0.8413(4) 0.6076(3) 0.3049(3)
H8 H 0.92940 0.66260 0.37460
C7 C 0.6496(5) 0.6859(3) 0.2348(3)
H9 H 0.57240 0.63840 0.15650
H10 H 0.55740 0.69630 0.29490
C8 C 0.7884(4) 0.4825(2) 0.3721(2)
H11 H 0.76550 0.50310 0.46050
C9 C 0.5969(4) 0.4088(2) 0.2878(2)
H12 H 0.46960 0.44360 0.30710
H13 H 0.58820 0.42380 0.19350
C10 C 0.4249(5) 0.1901(4) 0.2216(4)
H14 H 0.43350 0.09940 0.24510
H15 H 0.43380 0.19990 0.13040
H16 H 0.29300 0.22490 0.23110
#END
