
#######################################################################
#
#                 Cambridge Crystallographic Data Centre
#                                CCDC
#
#######################################################################
#
# If this CIF has been generated from an entry in the Cambridge
# Structural Database, then it will include bibliographic, chemical,
# crystal, experimental, refinement or atomic coordinate data resulting
# from the CCDC's data processing and validation procedures.
#
#######################################################################

data_CSD_CIF_VIGPIN
_audit_creation_date 2018-06-11
_audit_creation_method CSD-ConQuest-V1
_database_code_CSD VIGPIN
_database_code_depnum_ccdc_archive 'CCDC 1837950'
_chemical_formula_sum 'C10 H13 N3 O6'
_chemical_formula_moiety
;
C10 H13 N3 O6
;
_journal_coden_Cambridge 1336
_journal_volume 20
_journal_year 2018
_journal_page_first 3609
_journal_name_full 'Org.Lett. '
loop_
_publ_author_name
"Jun-Ping Pei"
"Ying-Han Chen"
"Yan-Kai Liu"
_chemical_name_systematic
;
5-methyl-5-nitro-3-(nitromethyl)hexahydro-4H-furo[2,3-b]pyran-2-carbonitrile
;
_cell_volume   1179.611
_exptl_crystal_density_diffrn 1.527
_exptl_crystal_description 'irregular'
_diffrn_ambient_temperature 298.5
#These two values have been output from a single CSD field.
_refine_ls_R_factor_gt 0.0337
_refine_ls_wR_factor_gt 0.0337
_symmetry_cell_setting orthorhombic
_symmetry_space_group_name_H-M 'P 21 21 21'
_symmetry_Int_Tables_number 19
loop_
_symmetry_equiv_pos_site_id
_symmetry_equiv_pos_as_xyz
1 x,y,z
2 1/2-x,-y,1/2+z
3 -x,1/2+y,1/2-z
4 1/2+x,1/2-y,-z
_cell_length_a 6.4838(4)
_cell_length_b 10.3481(6)
_cell_length_c 17.5812(12)
_cell_angle_alpha 90
_cell_angle_beta 90
_cell_angle_gamma 90
_cell_formula_units_Z 4
loop_
_atom_type_symbol
_atom_type_radius_bond
C 0.68
H 0.23
N 0.68
O 0.68
loop_
_atom_site_label
_atom_site_type_symbol
_atom_site_fract_x
_atom_site_fract_y
_atom_site_fract_z
O1 O 0.2407(3) 0.6707(2) 0.11371(10)
O2 O 0.3479(4) 0.7516(2) 0.21875(11)
O3 O -0.0586(3) 0.5942(2) 0.27494(10)
O4 O -0.0463(3) 0.47405(19) 0.38603(10)
O5 O 0.6287(4) 0.69677(19) 0.44596(12)
O6 O 0.6878(6) 0.6051(3) 0.55049(16)
N1 N 0.2887(3) 0.6609(2) 0.18072(11)
N2 N 0.2591(5) 0.2071(3) 0.4026(2)
N3 N 0.6090(3) 0.6070(2) 0.48942(12)
C1 C 0.2673(4) 0.5275(2) 0.21805(13)
C2 C 0.0373(4) 0.5035(3) 0.22583(15)
H1 H -0.02650 0.50840 0.17600
H2 H 0.01510 0.41700 0.24550
C3 C 0.0167(4) 0.5923(3) 0.34930(14)
H3 H -0.04490 0.66490 0.37700
C4 C 0.1069(4) 0.4329(2) 0.43821(14)
H4 H 0.04550 0.42660 0.48900
C5 C 0.1908(4) 0.3052(3) 0.41649(16)
C6 C 0.2725(4) 0.5406(2) 0.43872(13)
H5 H 0.22670 0.60630 0.47520
C7 C 0.4831(4) 0.4944(2) 0.46489(13)
H6 H 0.46750 0.43440 0.50690
H7 H 0.55210 0.44970 0.42360
C8 C 0.2508(3) 0.5999(2) 0.35869(12)
H8 H 0.29470 0.69050 0.35960
C9 C 0.3695(4) 0.5266(2) 0.29665(12)
H9 H 0.50600 0.56410 0.29210
H10 H 0.38630 0.43750 0.31280
C10 C 0.3684(6) 0.4305(3) 0.16527(15)
H11 H 0.29950 0.43150 0.11700
H12 H 0.35910 0.34570 0.18710
H13 H 0.51090 0.45300 0.15830
#END
