
#######################################################################
#
#                 Cambridge Crystallographic Data Centre
#                                CCDC
#
#######################################################################
#
# If this CIF has been generated from an entry in the Cambridge
# Structural Database, then it will include bibliographic, chemical,
# crystal, experimental, refinement or atomic coordinate data resulting
# from the CCDC's data processing and validation procedures.
#
#######################################################################

data_CSD_CIF_VIHKOO
_audit_creation_date 2013-10-02
_audit_creation_method CSD-ConQuest-V1
_database_code_CSD VIHKOO
_database_code_depnum_ccdc_archive 'CCDC 964407'
_chemical_formula_sum 'C34 H44 N2 O4'
_chemical_formula_moiety
;
C34 H44 N2 O4
;
_journal_coeditor_code "IUCr fy2097"
_journal_coden_Cambridge 1370
_journal_volume 69
_journal_year 2013
_journal_page_first o1162
_journal_name_full 'Acta Crystallogr.,Sect.E:Struct.Rep.Online '
loop_
_publ_author_name
"A.Ansari"
"L.Majidi"
"R.Fihi"
"J.-C.Daran"
"M.Azrour"
_chemical_name_systematic
;
(3R*,6R*,3'S*,6'R*,3''R*,6''R*)-3,3''-Diisopropyl-6,6''-dimethyl-1',4'-dipheny
ltetrahydro-2H,2''H-dispiro[cyclohexane-1,3'-[1,2]oxazolo[4,3-c][1,2]oxazole-6
',1''-cyclohexane]-2,2''-dione
;
_cell_volume   2937.984
_exptl_crystal_colour 'colorless'
_exptl_crystal_density_diffrn 1.231
_exptl_crystal_description 'parallelepiped'
_diffrn_ambient_temperature 180
#These two values have been output from a single CSD field.
_refine_ls_R_factor_gt 0.0446
_refine_ls_wR_factor_gt 0.0446
_symmetry_cell_setting orthorhombic
_symmetry_space_group_name_H-M 'P 21 21 21'
_symmetry_Int_Tables_number 19
loop_
_symmetry_equiv_pos_site_id
_symmetry_equiv_pos_as_xyz
1 x,y,z
2 1/2-x,-y,1/2+z
3 -x,1/2+y,1/2-z
4 1/2+x,1/2-y,-z
_cell_length_a 9.5037(6)
_cell_length_b 12.4162(10)
_cell_length_c 24.8982(18)
_cell_angle_alpha 90
_cell_angle_beta 90
_cell_angle_gamma 90
_cell_formula_units_Z 4
loop_
_atom_type_symbol
_atom_type_radius_bond
C 0.68
H 0.23
N 0.68
O 0.68
loop_
_atom_site_label
_atom_site_type_symbol
_atom_site_fract_x
_atom_site_fract_y
_atom_site_fract_z
C1 C 0.19364(19) 0.00584(18) 0.11958(8)
C2 C 0.3120(2) 0.07456(17) 0.14271(9)
H1 H 0.33710 0.05160 0.18000
C3 C 0.4346(2) 0.05539(17) 0.10324(8)
H2 H 0.51460 0.01780 0.12140
C4 C 0.47632(19) 0.16842(17) 0.08623(9)
C5 C 0.1960(2) -0.10828(18) 0.14225(9)
C6 C 0.09059(19) -0.18512(17) 0.11807(9)
H3 H 0.11060 -0.18580 0.07860
C7 C -0.0568(2) -0.13708(18) 0.12394(9)
H4 H -0.12580 -0.18380 0.10540
H5 H -0.08260 -0.13420 0.16240
C8 C -0.0626(2) -0.02464(18) 0.10027(10)
H6 H -0.15820 0.00530 0.10560
H7 H -0.04500 -0.02890 0.06110
C9 C 0.04500(19) 0.05139(17) 0.12565(9)
H8 H 0.04040 0.12230 0.10670
C10 C 0.4178(2) -0.12024(18) 0.05577(8)
C11 C 0.3369(2) -0.18798(19) 0.02411(9)
H9 H 0.25770 -0.15980 0.00560
C12 C 0.3692(2) -0.2946(2) 0.01916(9)
H10 H 0.31070 -0.34010 -0.00190
C13 C 0.4860(2) -0.3371(2) 0.04434(10)
H11 H 0.50740 -0.41160 0.04160
C14 C 0.5706(2) -0.2691(2) 0.07344(10)
H12 H 0.65300 -0.29680 0.09000
C15 C 0.5387(2) -0.1620(2) 0.07909(9)
H13 H 0.59940 -0.11630 0.09900
C16 C 0.3156(2) 0.25848(19) 0.1843(1)
C17 C 0.3771(3) 0.2242(2) 0.23146(10)
H14 H 0.40130 0.15050 0.23610
C18 C 0.4036(3) 0.2983(3) 0.27216(12)
H15 H 0.44690 0.27490 0.30450
C19 C 0.3683(3) 0.4037(3) 0.26628(13)
H16 H 0.38540 0.45330 0.29460
C20 C 0.3081(3) 0.4380(2) 0.21937(13)
H17 H 0.28590 0.51210 0.21470
C21 C 0.2796(2) 0.3658(2) 0.17905(11)
H18 H 0.23460 0.38980 0.14720
C22 C 0.5902(2) 0.21326(18) 0.12434(9)
C23 C 0.6212(2) 0.33086(18) 0.11805(9)
H19 H 0.52960 0.36960 0.12220
C24 C 0.6684(2) 0.3473(2) 0.05962(10)
H20 H 0.68370 0.42510 0.05300
H21 H 0.75890 0.30970 0.05380
C25 C 0.5597(2) 0.3048(2) 0.01977(10)
H22 H 0.47220 0.34740 0.02330
H23 H 0.59580 0.31480 -0.01720
C26 C 0.5259(2) 0.18599(19) 0.02852(8)
H24 H 0.44650 0.16650 0.00400
C27 C 0.1084(2) -0.30106(18) 0.13674(9)
H25 H 0.21160 -0.31630 0.13820
C28 C 0.0492(3) -0.3200(2) 0.19291(10)
H26 H -0.05230 -0.30580 0.19280
H27 H 0.09550 -0.27140 0.21840
H28 H 0.06620 -0.39480 0.20360
C29 C 0.0439(2) -0.37914(19) 0.09676(11)
H29 H -0.05770 -0.36650 0.09450
H30 H 0.06120 -0.45320 0.10860
H31 H 0.08650 -0.36810 0.06140
C30 C 0.0135(2) 0.06976(19) 0.18542(9)
H32 H 0.03180 0.00330 0.20540
H33 H -0.08550 0.09030 0.18980
H34 H 0.07390 0.12750 0.19920
C31 C 0.7198(2) 0.37487(19) 0.16169(11)
H35 H 0.69170 0.34060 0.19640
C32 C 0.7019(3) 0.4951(2) 0.16820(14)
H36 H 0.76480 0.52110 0.19660
H37 H 0.60420 0.51110 0.17790
H38 H 0.72520 0.53120 0.13430
C33 C 0.8732(2) 0.3466(2) 0.15191(12)
H39 H 0.90690 0.38430 0.11980
H40 H 0.88220 0.26870 0.14660
H41 H 0.92960 0.36850 0.18300
C34 C 0.6509(2) 0.1136(2) 0.01454(9)
H42 H 0.72890 0.12860 0.03920
H43 H 0.68090 0.12780 -0.02240
H44 H 0.62300 0.03790 0.01800
N1 N 0.37834(15) -0.00963(14) 0.05922(7)
N2 N 0.27983(16) 0.18972(14) 0.14028(7)
O1 O 0.22708(13) 0.00147(12) 0.06227(5)
O2 O 0.34705(13) 0.22877(12) 0.09175(6)
O3 O 0.27485(15) -0.13285(13) 0.17847(6)
O4 O 0.65421(14) 0.15395(13) 0.15382(6)
#END
