
#######################################################################
#
#                 Cambridge Crystallographic Data Centre
#                                CCDC
#
#######################################################################
#
# If this CIF has been generated from an entry in the Cambridge
# Structural Database, then it will include bibliographic, chemical,
# crystal, experimental, refinement or atomic coordinate data resulting
# from the CCDC's data processing and validation procedures.
#
#######################################################################

data_CSD_CIF_VIHVAL
_audit_creation_date 2013-10-02
_audit_creation_method CSD-ConQuest-V1
_database_code_CSD VIHVAL
_database_code_depnum_ccdc_archive 'CCDC 964505'
_database_code_depnum_ccdc_journal 1267/3968
_chemical_formula_sum 'C19 H18 N2 O12'
_chemical_formula_moiety
;
C19 H18 N2 O12
;
_journal_coden_Cambridge 1267
_journal_volume 228
_journal_year 2013
_journal_page_first 241
_journal_name_full 'Z.Kristallogr.-New Cryst.Struct. '
loop_
_publ_author_name
"T.Linker"
"W.Fudickar"
"Alexandra Kelling"
"U.Schilde"
_chemical_name_systematic
;
Dimethyl 
8-((3,5-dinitrobenzoyl)oxy)-1,4-dioxaspiro[4.5]dec-6-ene-2,3-dicarboxylate
;
_chemical_melting_point 394
_cell_volume   2069.549
_exptl_crystal_colour 'colorless'
_exptl_crystal_density_diffrn 1.497
_exptl_crystal_description 'needle'
_diffrn_ambient_temperature 210
#These two values have been output from a single CSD field.
_refine_ls_R_factor_gt 0.0393
_refine_ls_wR_factor_gt 0.0393
_symmetry_cell_setting orthorhombic
_symmetry_space_group_name_H-M 'P 21 21 21'
_symmetry_Int_Tables_number 19
loop_
_symmetry_equiv_pos_site_id
_symmetry_equiv_pos_as_xyz
1 x,y,z
2 1/2-x,-y,1/2+z
3 1/2+x,1/2-y,-z
4 -x,1/2+y,1/2-z
_cell_length_a 6.2472(6)
_cell_length_b 17.5762(17)
_cell_length_c 18.848(3)
_cell_angle_alpha 90
_cell_angle_beta 90
_cell_angle_gamma 90
_cell_formula_units_Z 4
loop_
_atom_type_symbol
_atom_type_radius_bond
C 0.68
H 0.23
N 0.68
O 0.68
loop_
_atom_site_label
_atom_site_type_symbol
_atom_site_fract_x
_atom_site_fract_y
_atom_site_fract_z
C1 C 0.7911(5) 0.58715(16) 0.76759(13)
C2 C 0.8571(5) 0.63670(16) 0.65412(13)
H1 H 0.85550 0.68800 0.63370
C3 C 0.6294(5) 0.60591(16) 0.65667(13)
H2 H 0.60330 0.57290 0.61570
C4 C 1.0073(5) 0.58609(18) 0.61053(14)
C5 C 0.4727(5) 0.67174(18) 0.65625(16)
C6 C 0.6950(5) 0.62896(18) 0.82962(13)
H3 H 0.59260 0.66630 0.82110
C7 C 0.7521(5) 0.61416(18) 0.89676(14)
H4 H 0.68360 0.64060 0.93300
C8 C 0.9188(5) 0.55789(17) 0.91637(13)
H5 H 0.85080 0.51100 0.93310
C9 C 1.0648(5) 0.54008(18) 0.85358(13)
H6 H 1.15260 0.58400 0.84250
H7 H 1.15850 0.49790 0.86520
C10 C 0.9256(5) 0.51962(17) 0.79019(13)
H8 H 1.01580 0.50370 0.75100
H9 H 0.83260 0.47750 0.80260
C11 C 1.0954(7) 0.55499(19) 0.49215(14)
H10 H 1.24440 0.56540 0.49990
H11 H 1.05780 0.56820 0.44430
H12 H 1.06830 0.50190 0.49980
C12 C 0.3010(6) 0.7584(2) 0.57606(19)
H13 H 0.16410 0.75260 0.59850
H14 H 0.28140 0.76570 0.52600
H15 H 0.37320 0.80180 0.59570
C13 C 0.9834(6) 0.58300(17) 1.04068(14)
C14 C 1.1368(5) 0.61802(16) 1.09289(12)
C15 C 1.3230(5) 0.65472(15) 1.07229(14)
H16 H 1.35890 0.65820 1.02450
C16 C 1.4551(5) 0.68617(16) 1.12358(14)
C17 C 1.4069(6) 0.68259(16) 1.19556(13)
H17 H 1.49480 0.70480 1.22960
C18 C 1.2243(5) 0.64481(16) 1.21372(12)
C19 C 1.0857(5) 0.61156(16) 1.16525(12)
H18 H 0.96350 0.58590 1.18010
N1 N 1.6470(4) 0.72638(14) 1.10156(13)
N2 N 1.1700(5) 0.63776(16) 1.29066(12)
O1 O 0.9171(3) 0.64121(11) 0.72720(8)
O2 O 0.6235(3) 0.56223(11) 0.72022(8)
O3 O 1.1384(4) 0.54214(13) 0.63235(10)
O4 O 0.9677(4) 0.59961(11) 0.54125(9)
O5 O 0.4072(4) 0.70673(14) 0.70619(11)
O6 O 0.4285(4) 0.69074(13) 0.58805(10)
O7 O 1.0558(3) 0.58992(11) 0.97323(8)
O8 O 0.8174(4) 0.55342(12) 1.05651(9)
O9 O 1.6925(4) 0.72793(13) 1.03790(11)
O10 O 1.7603(4) 0.75569(15) 1.14670(12)
O11 O 1.2947(4) 0.66673(14) 1.33342(10)
O12 O 1.0077(5) 0.60407(15) 1.30699(10)
#END
