
#######################################################################
#
#                 Cambridge Crystallographic Data Centre
#                                CCDC
#
#######################################################################
#
# If this CIF has been generated from an entry in the Cambridge
# Structural Database, then it will include bibliographic, chemical,
# crystal, experimental, refinement or atomic coordinate data resulting
# from the CCDC's data processing and validation procedures.
#
#######################################################################

data_CSD_CIF_VIJCEY
_audit_creation_date 2013-10-03
_audit_creation_method CSD-ConQuest-V1
_database_code_CSD VIJCEY
_database_code_depnum_ccdc_archive 'CCDC 914810'
_chemical_formula_sum 'C27 H28 N2 O2'
_chemical_formula_moiety
;
C27 H28 N2 O2
;
_journal_coden_Cambridge 920
_journal_volume 8
_journal_year 2013
_journal_page_first 3214
_journal_name_full 'Chem.Asian J. '
loop_
_publ_author_name
"Kun Liu"
"Xiangfei Wu"
"S.B.Jennifer Kan"
"S.Shirakawa"
"K.Maruoka"
_chemical_name_systematic
;
N-Benzyl-N-(2-t-butylphenyl)-3-phenyl-4,5-dihydro-1,2-oxazole-5-carboxamide
;
_cell_volume   2277.569
_exptl_crystal_density_diffrn 1.203
_exptl_crystal_description 'block'
_diffrn_ambient_temperature 296
#These two values have been output from a single CSD field.
_refine_ls_R_factor_gt 0.1212
_refine_ls_wR_factor_gt 0.1212
_symmetry_cell_setting monoclinic
_symmetry_space_group_name_H-M 'P 21/n'
_symmetry_Int_Tables_number 14
loop_
_symmetry_equiv_pos_site_id
_symmetry_equiv_pos_as_xyz
1 x,y,z
2 1/2-x,1/2+y,1/2-z
3 -x,-y,-z
4 -1/2+x,-1/2-y,-1/2+z
_cell_length_a 8.742(3)
_cell_length_b 17.840(6)
_cell_length_c 14.639(4)
_cell_angle_alpha 90
_cell_angle_beta 93.974(12)
_cell_angle_gamma 90
_cell_formula_units_Z 4
loop_
_atom_type_symbol
_atom_type_radius_bond
C 0.68
H 0.23
N 0.68
O 0.68
loop_
_atom_site_label
_atom_site_type_symbol
_atom_site_fract_x
_atom_site_fract_y
_atom_site_fract_z
O1 O 1.1232(5) 0.7808(3) 0.4948(3)
O2 O 0.8728(5) 0.6702(3) 0.4517(4)
N1 N 0.9235(6) 0.8164(3) 0.5773(3)
N2 N 0.9495(7) 0.6161(4) 0.4023(4)
C1 C 0.7934(7) 0.7978(3) 0.6298(5)
C2 C 0.6713(8) 0.7728(4) 0.7656(5)
C3 C 0.8081(7) 0.7860(4) 0.7242(4)
C4 C 0.9604(8) 0.6827(4) 0.5411(5)
C5 C 1.1650(8) 0.5349(4) 0.4117(6)
C6 C 0.6471(8) 0.7984(4) 0.5807(5)
C7 C 0.5174(8) 0.7859(4) 0.6245(6)
C8 C 1.0092(8) 0.7633(4) 0.5379(4)
C9 C 0.9589(8) 0.7858(4) 0.7845(5)
C10 C 1.1551(8) 0.5210(5) 0.3194(6)
C11 C 1.0679(8) 0.5925(4) 0.4500(5)
C12 C 0.8644(8) 0.9276(4) 0.4759(6)
C13 C 0.9547(7) 0.8971(4) 0.5607(4)
C14 C 0.5275(8) 0.7731(4) 0.7166(6)
C15 C 1.0899(8) 0.6263(4) 0.5422(5)
C16 C 1.2694(10) 0.4946(5) 0.4665(6)
C17 C 0.9063(9) 0.9095(5) 0.3892(6)
C18 C 0.8313(11) 0.9405(6) 0.3114(7)
C19 C 1.0659(11) 0.8498(8) 0.7669(7)
C20 C 0.7431(10) 0.9757(5) 0.4814(7)
C21 C 1.3584(10) 0.4390(5) 0.4288(9)
C22 C 1.3416(13) 0.4239(6) 0.3381(10)
C23 C 0.9382(8) 0.7998(6) 0.8821(5)
C24 C 0.6649(10) 1.0073(6) 0.4012(10)
C25 C 0.7152(12) 0.9872(7) 0.3181(9)
C26 C 1.0519(14) 0.7207(8) 0.7724(9)
C27 C 1.2426(11) 0.4660(6) 0.2849(7)
H1 H 0.67570 0.76350 0.82820
H2 H 0.89570 0.67390 0.59210
H3 H 0.64020 0.80740 0.51790
H4 H 0.42230 0.78600 0.59190
H5 H 1.08890 0.54900 0.28040
H6 H 1.06340 0.90370 0.55370
H7 H 0.92880 0.92590 0.61370
H8 H 0.43910 0.76460 0.74700
H9 H 1.18900 0.65080 0.55100
H10 H 1.08080 0.58910 0.58980
H11 H 1.28090 0.50440 0.52900
H12 H 0.98640 0.87600 0.38290
H13 H 0.86310 0.92820 0.25400
H14 H 1.09310 0.84800 0.70450
H15 H 1.15680 0.84570 0.80720
H16 H 1.01560 0.89650 0.77770
H17 H 0.71080 0.98810 0.53870
H18 H 1.42950 0.41230 0.46620
H19 H 1.39680 0.38540 0.31290
H20 H 0.86580 0.76460 0.90350
H21 H 0.90070 0.84980 0.88960
H22 H 1.03480 0.79410 0.91690
H23 H 0.58310 1.04020 0.40540
H24 H 0.66640 1.00690 0.26500
H25 H 1.00580 0.67800 0.79960
H26 H 1.15240 0.72870 0.80150
H27 H 1.05970 0.71170 0.70830
H28 H 1.23380 0.45710 0.22220
#END
