
#######################################################################
#
#                 Cambridge Crystallographic Data Centre
#                                CCDC
#
#######################################################################
#
# If this CIF has been generated from an entry in the Cambridge
# Structural Database, then it will include bibliographic, chemical,
# crystal, experimental, refinement or atomic coordinate data resulting
# from the CCDC's data processing and validation procedures.
#
#######################################################################

data_CSD_CIF_VIJFOK
_audit_creation_date 2007-10-22
_audit_creation_method CSD-ConQuest-V1
_database_code_CSD VIJFOK
_database_code_depnum_ccdc_archive 'CCDC 642211'
_chemical_formula_sum 'C13 H14 N2 O6'
_chemical_formula_moiety
;
C13 H14 N2 O6
;
_journal_coden_Cambridge 1352
_journal_volume 8
_journal_year 2007
_journal_page_first 1359
_journal_name_full 'ChemBioChem '
loop_
_publ_author_name
"D.A.Harki"
"J.D.Graci"
"J.P.Edathil"
"C.Castro"
"C.E.Cameron"
"B.R.Peterson"
_chemical_name_systematic
;
1-(5,6-Dideoxyhexafuranosyl)-5-nitro-1H-indole
;
_cell_volume   1228.238
_exptl_crystal_colour 'colorless'
_exptl_crystal_density_diffrn 1.591
_exptl_crystal_description 'needle'
_exptl_crystal_preparation 'methanol/pyridine/pentane'
_diffrn_ambient_temperature 95
#These two values have been output from a single CSD field.
_refine_ls_R_factor_gt 0.042
_refine_ls_wR_factor_gt 0.042
_symmetry_cell_setting orthorhombic
_symmetry_space_group_name_H-M 'P 21 21 21'
_symmetry_Int_Tables_number 19
loop_
_symmetry_equiv_pos_site_id
_symmetry_equiv_pos_as_xyz
1 x,y,z
2 1/2-x,-y,1/2+z
3 -x,1/2+y,1/2-z
4 1/2+x,1/2-y,-z
_cell_length_a 5.7856(14)
_cell_length_b 10.077(2)
_cell_length_c 21.067(5)
_cell_angle_alpha 90
_cell_angle_beta 90
_cell_angle_gamma 90
_cell_formula_units_Z 4
loop_
_atom_type_symbol
_atom_type_radius_bond
C 0.68
H 0.23
N 0.68
O 0.68
loop_
_atom_site_label
_atom_site_type_symbol
_atom_site_fract_x
_atom_site_fract_y
_atom_site_fract_z
O1 O 0.2744(2) 0.27470(12) 0.75777(6)
O2 O -0.1916(2) 0.24677(13) 0.71551(7)
H1 H -0.24760 0.17210 0.72420
O3 O 0.5869(2) 0.03432(13) 0.77551(7)
H2 H 0.59840 -0.04420 0.76250
O4 O 0.2322(2) -0.05523(13) 0.69804(6)
H3 H 0.20120 -0.12810 0.71540
C1 C 0.1865(3) 0.04881(18) 0.74064(8)
H4 H 0.02530 0.04030 0.75730
N1 N 0.1770(3) 0.23128(15) 0.86491(7)
O5 O 0.2341(3) 0.72535(16) 1.04392(8)
N2 N 0.0872(3) 0.63744(17) 1.04010(8)
C2 C 0.1135(4) 0.53636(19) 0.99112(9)
C3 C 0.3557(3) 0.05831(19) 0.79617(9)
H5 H 0.31060 -0.00130 0.83200
O6 O -0.0806(3) 0.63137(16) 1.07570(8)
C4 C -0.0215(3) 0.34175(19) 0.94054(8)
C5 C 0.3157(3) 0.53658(19) 0.95479(9)
H6 H 0.42870 0.60360 0.96120
C6 C -0.0581(3) 0.4416(2) 0.98524(9)
H7 H -0.19420 0.44440 1.01040
C7 C 0.2143(3) 0.18253(18) 0.70751(9)
H8 H 0.34490 0.17720 0.67650
C8 C -0.1513(3) 0.2275(2) 0.92209(9)
H9 H -0.29670 0.20090 0.93870
C9 C -0.0002(3) 0.2307(2) 0.67378(9)
H10 H 0.03360 0.31670 0.65300
H11 H -0.04190 0.16630 0.64020
C10 C 0.3400(3) 0.20482(18) 0.81447(8)
H12 H 0.49640 0.23610 0.82800
C11 C 0.3514(3) 0.43954(18) 0.90964(9)
H13 H 0.48550 0.43950 0.88360
C12 C -0.0293(3) 0.1643(2) 0.87675(9)
H14 H -0.07710 0.08540 0.85580
C13 C 0.1827(3) 0.34174(18) 0.90378(8)
#END
