
#######################################################################
#
#                 Cambridge Crystallographic Data Centre
#                                CCDC
#
#######################################################################
#
# If this CIF has been generated from an entry in the Cambridge
# Structural Database, then it will include bibliographic, chemical,
# crystal, experimental, refinement or atomic coordinate data resulting
# from the CCDC's data processing and validation procedures.
#
#######################################################################

data_CSD_CIF_VIKNUY
_audit_creation_date 1991-09-27
_audit_creation_method CSD-ConQuest-V1
_database_code_CSD VIKNUY
_chemical_formula_sum 'C21 H20 N2 O11'
_chemical_formula_moiety
;
C21 H20 N2 O11
;
_journal_coden_Cambridge 16
_journal_volume 47
_journal_year 1991
_journal_page_first 961
_journal_name_full 'Tetrahedron '
loop_
_publ_author_name
"A.P.Marchand"
"T.Ngooi"
"W.H.Watson"
"R.P.Kashyap"
_chemical_name_systematic
;
3-Acetyloxymethyl-8-methoxy-9-oxatricyclo(6.2.1)undec-3-en-10-one-5-(3,5-dinit
robenzoate)
;
_chemical_melting_point 456.15
_cell_volume   2144.533
_exptl_crystal_colour 'colorless'
_exptl_crystal_density_diffrn 1.475
_exptl_special_details
;
Melting point range 456.15-457.15K

;
_diffrn_ambient_temperature ?
_diffrn_special_details
;
The study was carried out at room temperature,in the range 283-303K

;
_refine_special_details
;
The carbonyl O atom of the side-chain occupies two sites.

;
#These two values have been output from a single CSD field.
_refine_ls_R_factor_gt 0.0339
_refine_ls_wR_factor_gt 0.0339
_symmetry_cell_setting monoclinic
_symmetry_space_group_name_H-M 'P 21/c'
_symmetry_Int_Tables_number 14
loop_
_symmetry_equiv_pos_site_id
_symmetry_equiv_pos_as_xyz
1 x,y,z
2 -x,1/2+y,1/2-z
3 -x,-y,-z
4 x,-1/2-y,-1/2+z
_cell_length_a 10.944(4)
_cell_length_b 20.935(9)
_cell_length_c 10.523(4)
_cell_angle_alpha 90
_cell_angle_beta 117.19(3)
_cell_angle_gamma 90
_cell_formula_units_Z 4
loop_
_atom_type_symbol
_atom_type_radius_bond
C 0.68
H 0.23
N 0.68
O 0.68
loop_
_atom_site_label
_atom_site_type_symbol
_atom_site_fract_x
_atom_site_fract_y
_atom_site_fract_z
C1 C 0.7259(3) 0.4406(1) 0.4157(3)
C2 C 0.5982(4) 0.3988(2) 0.3476(4)
C3 C 0.4638(3) 0.4368(2) 0.2979(3)
C4 C 0.4618(3) 0.4912(2) 0.2009(3)
O1 O 0.3276(2) 0.5224(1) 0.1470(2)
C5 C 0.5783(3) 0.5341(1) 0.2859(3)
C6 C 0.7192(3) 0.5037(1) 0.3398(3)
C7 C 0.8082(3) 0.5485(2) 0.4605(3)
C8 C 0.7338(4) 0.6127(2) 0.4281(4)
C9 C 0.5856(3) 0.5928(1) 0.3374(3)
C10 C 0.8059(3) 0.5190(2) 0.5900(4)
O2 O 0.7465(2) 0.4601(1) 0.5579(2)
O3 O 0.8439(3) 0.5417(1) 0.7057(2)
O4 O 0.8449(2) 0.4090(1) 0.4314(2)
C11 C 0.8744(4) 0.3500(2) 0.5104(4)
O5 O 0.3579(2) 0.5684(1) -0.0297(2)
C12 C 0.2911(4) 0.5603(2) 0.0329(3)
C13 C 0.1582(3) 0.5932(2) -0.0046(3)
C14 C 0.1161(3) 0.6408(2) -0.1084(3)
C15 C -0.0040(4) 0.6731(2) -0.1389(4)
C16 C -0.0862(4) 0.6596(2) -0.0764(4)
C17 C -0.0423(3) 0.6114(2) 0.0234(3)
C18 C 0.0781(3) 0.5785(2) 0.0624(3)
N1 N -0.0456(5) 0.7250(2) -0.2475(4)
O6 O -0.1491(4) 0.7542(2) -0.2696(4)
O7 O 0.0231(5) 0.7353(2) -0.3049(4)
N2 N -0.1305(4) 0.5942(2) 0.0910(4)
O8 O -0.2451(3) 0.6169(2) 0.0415(3)
O9 O -0.0839(3) 0.5577(2) 0.1912(4)
C19 C 0.4663(4) 0.6363(2) 0.3110(3)
O10 O 0.5133(3) 0.6834(1) 0.4227(3)
C20 C 0.4610(8) 0.7374(2) 0.4025(6)
C21 C 0.5132(6) 0.7815(2) 0.5236(6)
O11 O 0.3443(6) 0.7439(2) 0.2915(6)
O12? O 0.5443(15) 0.7611(4) 0.3310(12)
H1 H 0.5962(29) 0.3822(12) 0.2561(29)
H2 H 0.6040(31) 0.3657(15) 0.4188(31)
H3 H 0.4558(26) 0.4556(12) 0.3839(26)
H4 H 0.3909(26) 0.4094(12) 0.2420(25)
H5 H 0.4710(22) 0.4743(10) 0.1176(21)
H6 H 0.7514(27) 0.4980(12) 0.2610(26)
H7 H 0.9000(25) 0.5517(12) 0.4778(25)
H8 H 0.7667(29) 0.6410(14) 0.3793(29)
H9 H 0.7514(26) 0.6365(12) 0.5212(26)
H10 H 0.8107(33) 0.3159(14) 0.4552(32)
H11 H 0.9612(32) 0.3382(14) 0.5358(29)
H12 H 0.8673(42) 0.3532(20) 0.6123(42)
H13 H 0.1768(24) 0.6538(11) -0.1521(22)
H14 H -0.1767(33) 0.6811(14) -0.0979(30)
H15 H 0.1148(27) 0.5429(12) 0.1352(25)
H16 H 0.4421(29) 0.6569(14) 0.2237(29)
H17 H 0.3864(43) 0.6167(19) 0.3300(41)
H18 H 0.47070 0.77240 0.58370
H19 H 0.49240 0.82450 0.48900
H20 H 0.61090 0.77650 0.57760
#END
