
#######################################################################
#
#                 Cambridge Crystallographic Data Centre
#                                CCDC
#
#######################################################################
#
# If this CIF has been generated from an entry in the Cambridge
# Structural Database, then it will include bibliographic, chemical,
# crystal, experimental, refinement or atomic coordinate data resulting
# from the CCDC's data processing and validation procedures.
#
#######################################################################

data_CSD_CIF_VIKYOF
_audit_creation_date 2013-10-03
_audit_creation_method CSD-ConQuest-V1
_database_code_CSD VIKYOF
_database_code_depnum_ccdc_archive 'CCDC 964789'
_chemical_formula_sum 'C11 H10 N2 O5'
_chemical_formula_moiety
;
C11 H10 N2 O5
;
_journal_coden_Cambridge 1065
_journal_year 2002
_journal_page_first 943
_journal_name_full 'University of Southampton, Crystal Structure Report Archive '
loop_
_publ_author_name
"R.C.F.Jones"
"P.N.Horton"
"M.B.Hursthouse"
_chemical_name_systematic
;
(2-Oxoazetidin-1-yl)methyl 4-nitrobenzoate
;
_cell_volume    548.533
_exptl_crystal_colour 'colorless'
_exptl_crystal_density_diffrn 1.515
_exptl_crystal_description 'Needle'
_diffrn_ambient_temperature 120
#These two values have been output from a single CSD field.
_refine_ls_R_factor_gt 0.0759
_refine_ls_wR_factor_gt 0.0759
_symmetry_cell_setting triclinic
_symmetry_space_group_name_H-M 'P -1'
_symmetry_Int_Tables_number 2
loop_
_symmetry_equiv_pos_site_id
_symmetry_equiv_pos_as_xyz
1 x,y,z
2 -x,-y,-z
_cell_length_a 7.4038(5)
_cell_length_b 7.5670(6)
_cell_length_c 10.7531(11)
_cell_angle_alpha 89.924(4)
_cell_angle_beta 72.445(4)
_cell_angle_gamma 73.549(6)
_cell_formula_units_Z 2
loop_
_atom_type_symbol
_atom_type_radius_bond
C 0.68
H 0.23
N 0.68
O 0.68
loop_
_atom_site_label
_atom_site_type_symbol
_atom_site_fract_x
_atom_site_fract_y
_atom_site_fract_z
O1 O 0.3498(4) 0.0834(4) 0.3696(3)
O2 O 0.1383(4) 0.0691(4) 0.7448(2)
O3 O -0.1814(4) 0.1866(4) 0.8678(3)
O4 O 0.1434(4) 0.5028(4) 1.3387(3)
O5 O 0.4459(4) 0.4075(4) 1.2087(3)
N1 N 0.2362(5) -0.0927(4) 0.5407(3)
N2 N 0.2686(5) 0.4226(4) 1.2363(3)
C1 C 0.3577(6) -0.0556(6) 0.4266(4)
C2 C 0.4924(6) -0.2553(6) 0.4012(4)
C3 C 0.3521(6) -0.2878(6) 0.5336(4)
C4 C 0.0690(6) 0.0229(6) 0.6393(4)
C5 C -0.0061(5) 0.1538(5) 0.8546(4)
C6 C 0.0721(5) 0.2082(5) 0.9566(4)
C7 C 0.2761(6) 0.1748(5) 0.9347(4)
C8 C 0.3417(6) 0.2434(5) 1.0270(4)
C9 C 0.2014(5) 0.3408(5) 1.1403(4)
C10 C -0.0014(6) 0.3699(6) 1.1666(4)
C11 C -0.0653(5) 0.3046(5) 1.0727(4)
H1 H 0.632(8) -0.261(7) 0.398(5)
H2 H 0.499(7) -0.345(7) 0.323(5)
H3 H 0.398(7) -0.309(6) 0.618(5)
H4 H 0.277(5) -0.378(5) 0.526(4)
H5 H 0.006(7) 0.139(7) 0.603(5)
H6 H -0.027(6) -0.049(5) 0.676(4)
H7 H 0.368(6) 0.120(5) 0.856(4)
H8 H 0.475(7) 0.222(7) 1.013(5)
H9 H -0.088(6) 0.442(6) 1.245(4)
H10 H -0.207(7) 0.327(6) 1.087(4)
#END
