
#######################################################################
#
#                 Cambridge Crystallographic Data Centre
#                                CCDC
#
#######################################################################
#
# If this CIF has been generated from an entry in the Cambridge
# Structural Database, then it will include bibliographic, chemical,
# crystal, experimental, refinement or atomic coordinate data resulting
# from the CCDC's data processing and validation procedures.
#
#######################################################################

data_CSD_CIF_VIMMOU
_audit_creation_date 2008-01-22
_audit_creation_method CSD-ConQuest-V1
_database_code_CSD VIMMOU
_database_code_depnum_ccdc_archive 'CCDC 292267'
_chemical_formula_sum 'C9 H12 N2 O3'
_chemical_formula_moiety
;
C9 H12 N2 O3
;
_journal_coden_Cambridge 206
_journal_volume 37
_journal_year 2007
_journal_page_first 3225
_journal_name_full 'Synth.Commun. '
loop_
_publ_author_name
"F.A.El-Essawy"
"A.F.Khattab"
"M.A.Zahran"
"S.H.Gomaa"
_chemical_name_systematic
;
4-Hydroxy-3-((1E)-N-hydroxyethanimidoyl)-1,6-dimethylpyridin-2(1H)-one
;
_cell_volume    937.758
_exptl_crystal_colour 'colorless'
_exptl_crystal_density_diffrn 1.39
_exptl_special_details
;
The beta value has been calculated as 118.033 rather than 120 as published

;
_exptl_crystal_description 'Cube'
_diffrn_ambient_temperature 298
#These two values have been output from a single CSD field.
_refine_ls_R_factor_gt 0.057
_refine_ls_wR_factor_gt 0.057
_symmetry_cell_setting monoclinic
_symmetry_space_group_name_H-M 'P 21/c'
_symmetry_Int_Tables_number 14
loop_
_symmetry_equiv_pos_site_id
_symmetry_equiv_pos_as_xyz
1 x,y,z
2 -x,1/2+y,1/2-z
3 -x,-y,-z
4 x,-1/2-y,-1/2+z
_cell_length_a 6.8949(4)
_cell_length_b 13.2980(7)
_cell_length_c 11.5871(8)
_cell_angle_alpha 90
_cell_angle_beta 118.033
_cell_angle_gamma 90
_cell_formula_units_Z 4
loop_
_atom_type_symbol
_atom_type_radius_bond
C 0.68
H 0.23
N 0.68
O 0.68
loop_
_atom_site_label
_atom_site_type_symbol
_atom_site_fract_x
_atom_site_fract_y
_atom_site_fract_z
O1 O 0.4172(4) 0.13080(19) 0.1071(2)
O2 O 0.7180(4) 0.17878(19) 0.4716(3)
O3 O 0.6695(4) -0.17546(19) 0.4010(3)
N1 N 0.5273(5) 0.1140(2) 0.2424(3)
N2 N 0.8410(5) -0.1102(2) 0.6059(3)
C1 C 0.5631(5) 0.0202(2) 0.2758(3)
C2 C 0.7248(5) -0.0980(3) 0.4699(3)
C3 C 0.6808(5) 0.0026(2) 0.4181(3)
C4 C 0.9074(6) -0.0308(3) 0.6902(3)
C5 C 0.7517(5) 0.0816(3) 0.5069(3)
C6 C 1.0272(6) -0.0524(4) 0.8340(4)
C7 C 0.4955(7) -0.0628(3) 0.1776(3)
C8 C 0.8629(6) 0.0627(3) 0.6420(3)
C9 C 0.8867(7) -0.2133(3) 0.6533(4)
H1 H 1.059(7) -0.006(3) 0.877(5)
H2 H 1.16037 -0.08830 0.85462
H3 H 0.954(6) -0.090(3) 0.868(4)
H4 H 0.466(6) -0.134(3) 0.231(4)
H5 H 0.483(6) -0.038(3) 0.111(4)
H6 H 0.381(7) -0.076(4) 0.147(5)
H7 H 0.913(6) 0.114(3) 0.694(4)
H8 H 0.935(6) -0.221(3) 0.756(5)
H9 H 0.979(6) -0.236(3) 0.623(4)
H10 H 0.756(6) -0.239(3) 0.633(4)
H11 H 0.375(6) 0.197(4) 0.090(4)
H12 H 0.650(7) 0.185(3) 0.389(4)
#END
