
#######################################################################
#
#                 Cambridge Crystallographic Data Centre
#                                CCDC
#
#######################################################################
#
# If this CIF has been generated from an entry in the Cambridge
# Structural Database, then it will include bibliographic, chemical,
# crystal, experimental, refinement or atomic coordinate data resulting
# from the CCDC's data processing and validation procedures.
#
#######################################################################

data_CSD_CIF_VIMRUE
_audit_creation_date 1991-10-31
_audit_creation_method CSD-ConQuest-V1
_database_code_CSD VIMRUE
_database_code_depnum_ccdc_archive 'CCDC 1284128'
_chemical_formula_sum 'C8 H9 N1 O3'
_chemical_formula_moiety
;
C8 H9 N1 O3
;
_journal_coden_Cambridge 3
_journal_volume 45
_journal_year 1991
_journal_page_first 285
_journal_name_full 'Acta Chem.Scand. '
loop_
_publ_author_name
"B.Jerslev"
"S.Larsen"
_chemical_name_systematic
;
4-Hydroxy-3-methoxybenzaldehyde oxime
;
_chemical_name_common
;
Vanillinoxime
;
_chemical_melting_point 390.65
_cell_volume    801.059
_exptl_crystal_density_diffrn 1.386
_exptl_special_details
;
Melting point range 390.65-392.15K
Destroyed by phase transition on cooling to 110K
;
_diffrn_ambient_temperature ?
_diffrn_special_details
;
The study was carried out at room temperature,in the range 283-303K

;
#These two values have been output from a single CSD field.
_refine_ls_R_factor_gt 0.053
_refine_ls_wR_factor_gt 0.053
_symmetry_cell_setting monoclinic
_symmetry_space_group_name_H-M 'P 21/c'
_symmetry_Int_Tables_number 14
loop_
_symmetry_equiv_pos_site_id
_symmetry_equiv_pos_as_xyz
1 x,y,z
2 -x,1/2+y,1/2-z
3 -x,-y,-z
4 x,-1/2-y,-1/2+z
_cell_length_a 6.3720(3)
_cell_length_b 16.6462(13)
_cell_length_c 7.5700(3)
_cell_angle_alpha 90
_cell_angle_beta 93.930(4)
_cell_angle_gamma 90
_cell_formula_units_Z 4
loop_
_atom_type_symbol
_atom_type_radius_bond
C 0.68
N 0.68
O 0.68
loop_
_atom_site_label
_atom_site_type_symbol
_atom_site_fract_x
_atom_site_fract_y
_atom_site_fract_z
C1 C 0.4997(3) 0.5602(1) 0.2310(3)
C2 C 0.5782(3) 0.6383(1) 0.2512(3)
C3 C 0.4612(3) 0.7026(1) 0.1845(3)
C4 C 0.2633(3) 0.6900(1) 0.0972(3)
C5 C 0.1852(3) 0.6135(1) 0.0796(4)
C6 C 0.3031(4) 0.5490(1) 0.1454(4)
C7 C 0.6208(4) 0.4903(1) 0.2965(4)
N1 N 0.7955(3) 0.4961(1) 0.3847(3)
O1 O 0.8827(3) 0.42024(8) 0.4275(3)
O2 O 0.1472(2) 0.75228(8) 0.0285(2)
O3 O 0.5217(2) 0.78123(9) 0.1926(2)
C8 C 0.7254(3) 0.7989(1) 0.2712(4)
#END
