
#######################################################################
#
#                 Cambridge Crystallographic Data Centre
#                                CCDC
#
#######################################################################
#
# If this CIF has been generated from an entry in the Cambridge
# Structural Database, then it will include bibliographic, chemical,
# crystal, experimental, refinement or atomic coordinate data resulting
# from the CCDC's data processing and validation procedures.
#
#######################################################################

data_CSD_CIF_VINMAG
_audit_creation_date 1991-10-24
_audit_creation_method CSD-ConQuest-V1
_database_code_CSD VINMAG
_chemical_formula_sum 'C17 H13 N3 O3'
_chemical_formula_moiety
;
C17 H13 N3 O3
;
_journal_coden_Cambridge 388
_journal_volume 26
_journal_year 1990
_journal_page_first 610
_journal_name_full 'Zh.Org.Khim.(Russ.)(Russ.J.Org.Chem.) '
loop_
_publ_author_name
"Z.V.Todres"
"G.Ts.Ovsepyan"
"A.Yu.Kosnikov"
"S.V.Lindeman"
"Yu.T.Struchkov"
_chemical_name_systematic
;
1-Nitro-8-(4-methoxyphenylazo)naphthalene
;
_cell_volume   1480.345
_exptl_crystal_density_diffrn 1.379
_diffrn_ambient_temperature ?
_diffrn_special_details
;
The study was carried out at room temperature,in the range 283-303K

;
#These two values have been output from a single CSD field.
_refine_ls_R_factor_gt 0.034
_refine_ls_wR_factor_gt 0.034
_symmetry_cell_setting monoclinic
_symmetry_space_group_name_H-M 'P 21/c'
_symmetry_Int_Tables_number 14
loop_
_symmetry_equiv_pos_site_id
_symmetry_equiv_pos_as_xyz
1 x,y,z
2 -x,1/2+y,1/2-z
3 -x,-y,-z
4 x,-1/2-y,-1/2+z
_cell_length_a 8.7198(5)
_cell_length_b 10.2309(5)
_cell_length_c 17.015(1)
_cell_angle_alpha 90
_cell_angle_beta 102.777(5)
_cell_angle_gamma 90
_cell_formula_units_Z 4
loop_
_atom_type_symbol
_atom_type_radius_bond
C 0.68
H 0.23
N 0.68
O 0.68
loop_
_atom_site_label
_atom_site_type_symbol
_atom_site_fract_x
_atom_site_fract_y
_atom_site_fract_z
O1 O 0.3584(2) 0.3405(2) 0.3907(1)
O2 O 0.5209(2) 0.2573(2) 0.3587(1)
O3 O 0.0986(2) -0.0873(2) 0.0645(1)
N1 N 0.4831(2) 0.2894(2) 0.4212(1)
N2 N 0.2996(2) 0.0785(2) 0.4237(1)
N3 N 0.1833(2) 0.0113(2) 0.3917(1)
C1 C 0.5209(2) 0.2717(2) 0.5096(1)
C2 C 0.6366(3) 0.3512(2) 0.5501(1)
C3 C 0.6713(3) 0.3511(2) 0.6348(1)
C4 C 0.5889(3) 0.2739(2) 0.6750(1)
C5 C 0.3868(3) 0.1080(2) 0.6766(1)
C6 C 0.2751(3) 0.0248(2) 0.6376(1)
C7 C 0.2424(3) 0.0164(2) 0.5536(1)
C8 C 0.3205(2) 0.0925(2) 0.5089(1)
C9 C 0.4344(2) 0.1849(2) 0.5476(1)
C10 C 0.4706(2) 0.1899(2) 0.6339(1)
C11 C 0.1638(2) -0.0075(2) 0.3073(1)
C12 C 0.2480(3) 0.0583(2) 0.2592(1)
C13 C 0.2208(3) 0.0288(2) 0.1784(1)
C14 C 0.1122(2) -0.0662(2) 0.1447(1)
C15 C 0.0283(3) -0.1309(2) 0.1922(1)
C16 C 0.0540(3) -0.1002(2) 0.2731(1)
C17 C -0.0078(3) -0.1868(2) 0.0271(1)
H1 H 0.693(2) 0.407(2) 0.521(1)
H2 H 0.749(2) 0.406(2) 0.660(1)
H3 H 0.606(2) 0.276(2) 0.734(1)
H4 H 0.415(2) 0.115(2) 0.732(1)
H5 H 0.215(2) -0.028(2) 0.668(1)
H6 H 0.175(2) -0.045(2) 0.527(1)
H7 H 0.324(2) 0.127(2) 0.281(1)
H8 H 0.281(2) 0.072(2) 0.147(1)
H9 H -0.039(2) -0.195(2) 0.171(1)
H10 H 0.003(2) -0.145(2) 0.308(1)
H11 H 0.010(2) -0.187(2) -0.029(1)
H12 H 0.018(3) -0.270(2) 0.054(1)
H13 H -0.117(2) -0.160(2) 0.028(1)
#END
