
#######################################################################
#
#                 Cambridge Crystallographic Data Centre
#                                CCDC
#
#######################################################################
#
# If this CIF has been generated from an entry in the Cambridge
# Structural Database, then it will include bibliographic, chemical,
# crystal, experimental, refinement or atomic coordinate data resulting
# from the CCDC's data processing and validation procedures.
#
#######################################################################

data_CSD_CIF_VINYOH
_audit_creation_date 2008-01-22
_audit_creation_method CSD-ConQuest-V1
_database_code_CSD VINYOH
_database_code_depnum_ccdc_archive 'CCDC 279874'
_chemical_formula_sum 'C28 H25 N3 O5'
_chemical_formula_moiety
;
C28 H25 N3 O5
;
_journal_coden_Cambridge 24
_journal_volume 48
_journal_year 2007
_journal_page_first 7796
_journal_name_full 'Tetrahedron Lett. '
loop_
_publ_author_name
"Jiun-Ting Lai"
"Pei-Yu Kuo"
"Yung-Her Gau"
"Ding-Yah Yang"
_chemical_name_systematic
;
12-Methoxy-9,15,15-trimethyl-8-(4-nitrophenyl)-7,8,9,14-tetrahydro-1H-8,14-met
hanochromeno(4,3-d)(1,3)benzodiazocin-1-one
;
_chemical_melting_point 596.15
_cell_volume   1164.163
_exptl_crystal_density_diffrn 1.379
_exptl_special_details
;
Melting point range 596.15-598.15K

;
_diffrn_ambient_temperature 293
#These two values have been output from a single CSD field.
_refine_ls_R_factor_gt 0.0604
_refine_ls_wR_factor_gt 0.0604
_symmetry_cell_setting triclinic
_symmetry_space_group_name_H-M 'P -1'
_symmetry_Int_Tables_number 2
loop_
_symmetry_equiv_pos_site_id
_symmetry_equiv_pos_as_xyz
1 x,y,z
2 -x,-y,-z
_cell_length_a 9.3128(12)
_cell_length_b 10.9221(14)
_cell_length_c 12.7625(15)
_cell_angle_alpha 87.145(3)
_cell_angle_beta 69.549(2)
_cell_angle_gamma 73.453(2)
_cell_formula_units_Z 2
loop_
_atom_type_symbol
_atom_type_radius_bond
C 0.68
H 0.23
N 0.68
O 0.68
loop_
_atom_site_label
_atom_site_type_symbol
_atom_site_fract_x
_atom_site_fract_y
_atom_site_fract_z
N1 N 0.1970(2) 0.7073(2) 0.1500(1)
N2 N -0.0421(2) 0.8685(2) 0.2425(2)
N3 N 0.4793(3) 1.1676(3) 0.1572(2)
O1 O 0.0514(2) 0.3824(2) 0.1687(2)
O2 O -0.0676(2) 0.4128(2) 0.3519(2)
O3 O -0.6009(2) 0.7811(2) 0.5373(2)
O4 O 0.6221(3) 1.1325(2) 0.1040(2)
O5 O 0.4062(3) 1.2787(2) 0.1925(3)
C1 C 0.1460(3) 0.6013(2) 0.1613(2)
C2 C 0.1951(3) 0.5244(2) 0.0599(2)
C3 C 0.2841(3) 0.5548(3) -0.0462(2)
C4 C 0.3175(3) 0.4789(3) -0.1388(2)
C5 C 0.2611(4) 0.3720(3) -0.1284(3)
C6 C 0.1750(3) 0.3405(3) -0.0262(3)
C7 C 0.1408(3) 0.4164(2) 0.0682(2)
C8 C 0.0076(3) 0.4533(2) 0.2666(2)
C9 C 0.0541(3) 0.5692(2) 0.2605(2)
C10 C -0.0043(3) 0.6531(2) 0.3665(2)
C11 C -0.1705(3) 0.7380(2) 0.3834(2)
C12 C -0.3088(3) 0.7156(3) 0.4589(2)
C13 C -0.4576(3) 0.7951(3) 0.4666(2)
C14 C -0.4681(3) 0.8974(3) 0.3989(2)
C15 C -0.3316(3) 0.9223(3) 0.3264(2)
C16 C -0.1814(3) 0.8434(2) 0.3168(2)
C17 C 0.1144(3) 0.8047(2) 0.2446(2)
C18 C 0.1096(3) 0.7360(2) 0.3544(2)
C19 C 0.2749(3) 0.6515(2) 0.3474(2)
C20 C 0.0458(3) 0.8294(3) 0.4564(2)
C21 C -0.5985(4) 0.6808(4) 0.6100(3)
C22 C -0.0508(4) 0.9396(3) 0.1442(2)
C23 C 0.2165(3) 0.8979(2) 0.2193(2)
C24 C 0.1445(3) 1.0219(2) 0.2677(2)
C25 C 0.2301(3) 1.1104(2) 0.2482(2)
C26 C 0.3885(3) 1.0734(2) 0.1802(2)
C27 C 0.4639(3) 0.9509(3) 0.1328(2)
C28 C 0.3752(3) 0.8636(2) 0.1532(2)
H1 H 0.27300 0.71740 0.09130
H2 H 0.32070 0.62680 -0.05380
H3 H 0.37820 0.49880 -0.20890
H4 H 0.28260 0.32200 -0.19200
H5 H 0.13920 0.26820 -0.01960
H6 H -0.00610 0.59950 0.43050
H7 H -0.30110 0.64670 0.50450
H8 H -0.56790 0.94980 0.40220
H9 H -0.34030 0.99330 0.28310
H10 H 0.31790 0.59190 0.28370
H11 H 0.26610 0.60550 0.41440
H12 H 0.34460 0.70400 0.33980
H13 H 0.11700 0.88070 0.44780
H14 H 0.03870 0.78230 0.52270
H15 H -0.05830 0.88370 0.46270
H16 H -0.70620 0.68200 0.65410
H17 H -0.54340 0.69090 0.65850
H18 H -0.54440 0.60070 0.56720
H19 H -0.16080 0.97710 0.15190
H20 H 0.00210 0.88260 0.07850
H21 H 0.00050 1.00580 0.13740
H22 H 0.03750 1.04540 0.31370
H23 H 0.18170 1.19320 0.28030
H24 H 0.57160 0.92720 0.08820
H25 H 0.42430 0.78060 0.12150
#END
