
#######################################################################
#
#                 Cambridge Crystallographic Data Centre
#                                CCDC
#
#######################################################################
#
# If this CIF has been generated from an entry in the Cambridge
# Structural Database, then it will include bibliographic, chemical,
# crystal, experimental, refinement or atomic coordinate data resulting
# from the CCDC's data processing and validation procedures.
#
#######################################################################

data_CSD_CIF_VIPYEZ
_audit_creation_date 2008-01-22
_audit_creation_method CSD-ConQuest-V1
_database_code_CSD VIPYEZ
_database_code_depnum_ccdc_archive 'CCDC 648399'
_chemical_formula_sum 'C10 H6 N4 O6'
_chemical_formula_moiety
;
C10 H6 N4 O6
;
_journal_coden_Cambridge 1350
_journal_volume 9
_journal_year 2007
_journal_page_first 941
_journal_name_full 'CrystEngComm '
loop_
_publ_author_name
"J.O'Leary"
"J.D.Wallis"
_chemical_name_systematic
;
3,3'-Dinitro-2,2'-bipyridine-1,1'-dioxide
;
_chemical_melting_point 475.15
_cell_volume    560.988
_exptl_crystal_colour 'green'
_exptl_crystal_density_diffrn 1.647
_exptl_special_details
;
Melting point range 475.15-479.15K
Extra diffraction spots observed in the diffraction pattern can be indexed to 
a 20.3578, b 22.7139, c 22.7139, alpha 89.5742, beta 87.1617 and gamma 
;
_exptl_crystal_description 'plate'
_exptl_crystal_preparation 'methanol'
_diffrn_ambient_temperature 150
#These two values have been output from a single CSD field.
_refine_ls_R_factor_gt 0.057
_refine_ls_wR_factor_gt 0.057
_symmetry_cell_setting triclinic
_symmetry_space_group_name_H-M 'P -1'
_symmetry_Int_Tables_number 2
loop_
_symmetry_equiv_pos_site_id
_symmetry_equiv_pos_as_xyz
1 x,y,z
2 -x,-y,-z
_cell_length_a 6.1226(3)
_cell_length_b 7.4847(4)
_cell_length_c 13.5200(8)
_cell_angle_alpha 102.8252(2)
_cell_angle_beta 90.226(2)
_cell_angle_gamma 111.154(3)
_cell_formula_units_Z 2
loop_
_atom_type_symbol
_atom_type_radius_bond
C 0.68
H 0.23
N 0.68
O 0.68
loop_
_atom_site_label
_atom_site_type_symbol
_atom_site_fract_x
_atom_site_fract_y
_atom_site_fract_z
O1 O 0.2045(4) 0.3669(3) 0.35908(17)
O2 O -0.2708(4) 0.1602(4) 0.2426(2)
O3 O -0.3598(4) 0.2072(4) 0.3997(2)
N1 N 0.2392(4) 0.2908(3) 0.26718(19)
N2 N -0.2755(5) 0.1293(4) 0.3282(3)
C1 C 0.0143(5) -0.0305(4) 0.2981(2)
C2 C -0.1778(5) -0.0146(4) 0.3479(3)
C3 C -0.2873(6) -0.1319(4) 0.4117(3)
C4 C -0.2024(6) -0.2738(5) 0.4234(3)
C5 C -0.0124(6) -0.2912(4) 0.3756(3)
O4 O 0.2771(4) -0.1896(3) 0.2686(2)
O5 O -0.1217(5) -0.2876(4) 0.1082(2)
O6 O 0.1784(9) -0.2695(5) 0.0206(4)
N3 N 0.0969(4) -0.1701(3) 0.3141(2)
N4 N 0.0734(7) -0.1979(5) 0.0834(3)
C6 C 0.1441(5) 0.0902(4) 0.2289(3)
C7 C 0.1835(6) 0.0160(5) 0.1296(3)
C8 C 0.3176(7) 0.1332(6) 0.0702(3)
C9 C 0.4085(6) 0.3353(5) 0.1124(3)
C10 C 0.3663(5) 0.4106(5) 0.2083(3)
H1 H -0.420(6) -0.118(5) 0.441(2)
H2 H -0.271(6) -0.355(5) 0.466(3)
H3 H 0.054(6) -0.391(6) 0.376(3)
H4 H 0.335(8) 0.075(6) 0.002(3)
H5 H 0.505(7) 0.424(6) 0.071(3)
H6 H 0.422(6) 0.548(5) 0.240(2)
#END
