
#######################################################################
#
#                 Cambridge Crystallographic Data Centre
#                                CCDC
#
#######################################################################
#
# If this CIF has been generated from an entry in the Cambridge
# Structural Database, then it will include bibliographic, chemical,
# crystal, experimental, refinement or atomic coordinate data resulting
# from the CCDC's data processing and validation procedures.
#
#######################################################################

data_CSD_CIF_VIPYUP
_audit_creation_date 2008-01-22
_audit_creation_method CSD-ConQuest-V1
_database_code_CSD VIPYUP
_database_code_depnum_ccdc_archive 'CCDC 648402'
_chemical_formula_sum 'C9 H6 N2 O3'
_chemical_formula_moiety
;
C9 H6 N2 O3
;
_journal_coden_Cambridge 1350
_journal_volume 9
_journal_year 2007
_journal_page_first 941
_journal_name_full 'CrystEngComm '
loop_
_publ_author_name
"J.O'Leary"
"J.D.Wallis"
_chemical_name_systematic
;
8-Nitroquinoline-1-oxide
;
_chemical_melting_point 451
_cell_volume    793.009
_exptl_crystal_colour 'orange'
_exptl_crystal_density_diffrn 1.593
_exptl_special_details
;
Melting point range 451-452K

;
_exptl_crystal_description 'slab'
_exptl_crystal_preparation 'methanol'
_diffrn_ambient_temperature 120
#These two values have been output from a single CSD field.
_refine_ls_R_factor_gt 0.0431
_refine_ls_wR_factor_gt 0.0431
_symmetry_cell_setting monoclinic
_symmetry_space_group_name_H-M 'P 21/n'
_symmetry_Int_Tables_number 14
loop_
_symmetry_equiv_pos_site_id
_symmetry_equiv_pos_as_xyz
1 x,y,z
2 1/2-x,1/2+y,1/2-z
3 -x,-y,-z
4 -1/2+x,-1/2-y,-1/2+z
_cell_length_a 7.8557(6)
_cell_length_b 8.8130(6)
_cell_length_c 11.4793(10)
_cell_angle_alpha 90
_cell_angle_beta 93.780(4)
_cell_angle_gamma 90
_cell_formula_units_Z 4
loop_
_atom_type_symbol
_atom_type_radius_bond
C 0.68
H 0.23
N 0.68
O 0.68
loop_
_atom_site_label
_atom_site_type_symbol
_atom_site_fract_x
_atom_site_fract_y
_atom_site_fract_z
N1 N 0.19743(15) 0.06546(13) 0.10487(10)
O1 O 0.19433(14) 0.18531(12) 0.17087(10)
C1 C 0.42417(18) 0.21885(17) -0.14201(13)
N2 N 0.32942(16) 0.35577(13) 0.02402(11)
O2 O 0.45314(14) 0.39275(13) 0.08876(9)
C2 C 0.28222(18) -0.05649(15) -0.07175(12)
C3 C 0.27119(17) 0.07510(15) -0.00190(12)
O3 O 0.20265(15) 0.43317(12) 0.00243(12)
C4 C 0.34136(18) 0.21170(15) -0.04093(13)
C5 C 0.13510(19) -0.06767(16) 0.13992(14)
C6 C 0.21338(19) -0.19457(16) -0.03294(14)
C7 C 0.14116(19) -0.19832(16) 0.07168(14)
C8 C 0.43723(19) 0.08736(17) -0.21045(13)
C9 C 0.36659(19) -0.04569(17) -0.17692(13)
H1 H 0.373(2) -0.135(2) -0.2223(16)
H2 H 0.501(2) 0.0952(19) -0.2833(16)
H3 H 0.476(2) 0.314(2) -0.1623(15)
H4 H 0.221(2) -0.286(2) -0.0797(15)
H5 H 0.095(2) -0.291(2) 0.1000(16)
H6 H 0.090(2) -0.0682(18) 0.2172(15)
#END
