
#######################################################################
#
#                 Cambridge Crystallographic Data Centre
#                                CCDC
#
#######################################################################
#
# If this CIF has been generated from an entry in the Cambridge
# Structural Database, then it will include bibliographic, chemical,
# crystal, experimental, refinement or atomic coordinate data resulting
# from the CCDC's data processing and validation procedures.
#
#######################################################################

data_CSD_CIF_VIPYAV
_audit_creation_date 2008-01-22
_audit_creation_method CSD-ConQuest-V1
_database_code_CSD VIPYAV
_database_code_depnum_ccdc_archive 'CCDC 648398'
_chemical_formula_sum 'C10 H6 N4 O5'
_chemical_formula_moiety
;
C10 H6 N4 O5
;
_journal_coden_Cambridge 1350
_journal_volume 9
_journal_year 2007
_journal_page_first 941
_journal_name_full 'CrystEngComm '
loop_
_publ_author_name
"J.O'Leary"
"J.D.Wallis"
_chemical_name_systematic
;
3,3'-Dinitro-2,2'-bipyridine-1-oxide
;
_chemical_melting_point 457.15
_cell_volume   1078.555
_exptl_crystal_colour 'pale green'
_exptl_crystal_density_diffrn 1.615
_exptl_special_details
;
Melting point range 457.15-461.15K

;
_exptl_crystal_description 'plate'
_exptl_crystal_preparation 'methanol'
_diffrn_ambient_temperature 150
#These two values have been output from a single CSD field.
_refine_ls_R_factor_gt 0.0462
_refine_ls_wR_factor_gt 0.0462
_symmetry_cell_setting monoclinic
_symmetry_space_group_name_H-M 'P 21/a'
_symmetry_Int_Tables_number 14
loop_
_symmetry_equiv_pos_site_id
_symmetry_equiv_pos_as_xyz
1 x,y,z
2 1/2-x,1/2+y,-z
3 -x,-y,-z
4 -1/2+x,-1/2-y,z
_cell_length_a 9.873(2)
_cell_length_b 10.671(2)
_cell_length_c 10.578(2)
_cell_angle_alpha 90
_cell_angle_beta 104.58(3)
_cell_angle_gamma 90
_cell_formula_units_Z 4
loop_
_atom_type_symbol
_atom_type_radius_bond
C 0.68
H 0.23
N 0.68
O 0.68
loop_
_atom_site_label
_atom_site_type_symbol
_atom_site_fract_x
_atom_site_fract_y
_atom_site_fract_z
O1 O 0.01209(12) 0.04964(10) 0.32894(10)
O2 O 0.20012(14) 0.42957(12) 0.17051(12)
O3 O 0.17610(14) 0.57008(11) 0.31024(12)
N1 N 0.04996(12) 0.16049(11) 0.37634(11)
N2 N 0.17115(14) 0.46173(13) 0.27105(13)
C1 C 0.08516(14) 0.24952(13) 0.29721(13)
C2 C 0.12931(15) 0.36484(14) 0.35242(15)
C3 C 0.13733(17) 0.39277(16) 0.48086(16)
C4 C 0.09815(18) 0.30035(16) 0.55589(16)
C5 C 0.05527(16) 0.18606(15) 0.50338(14)
O4 O 0.31126(11) 0.11713(12) 0.30610(11)
O5 O 0.30988(12) -0.02618(12) 0.16098(13)
N3 N -0.04755(12) 0.27067(12) 0.07786(11)
N4 N 0.26371(12) 0.06955(13) 0.19819(13)
C6 C 0.06295(14) 0.21516(13) 0.15711(13)
C7 C 0.14565(14) 0.13131(13) 0.10929(14)
C8 C 0.11717(16) 0.10426(15) -0.02201(15)
C9 C 0.00576(16) 0.16432(15) -0.10336(16)
C10 C -0.07348(17) 0.24556(15) -0.05000(15)
H1 H 0.1673(17) 0.4712(18) 0.5142(16)
H2 H 0.103(2) 0.3142(18) 0.643(2)
H3 H 0.0273(17) 0.1186(15) 0.5495(16)
H4 H 0.1690(18) 0.0437(16) -0.0523(16)
H5 H -0.0177(18) 0.1477(16) -0.1983(19)
H6 H -0.1527(17) 0.2894(15) -0.1045(15)
#END
