
#######################################################################
#
#                 Cambridge Crystallographic Data Centre
#                                CCDC
#
#######################################################################
#
# If this CIF has been generated from an entry in the Cambridge
# Structural Database, then it will include bibliographic, chemical,
# crystal, experimental, refinement or atomic coordinate data resulting
# from the CCDC's data processing and validation procedures.
#
#######################################################################

data_CSD_CIF_VIRDEH
_audit_creation_date 2013-10-07
_audit_creation_method CSD-ConQuest-V1
_database_code_CSD VIRDEH
_database_code_depnum_ccdc_archive 'CCDC 926844'
_chemical_formula_sum 'C22 H18 N4 O3'
_chemical_formula_moiety
;
C22 H18 N4 O3
;
_journal_coden_Cambridge 1200
_journal_volume 21
_journal_year 2013
_journal_page_first 6337
_journal_name_full 'Bioorg.Med.Chem. '
loop_
_publ_author_name
"E.B.T.Diogo"
"G.G.Dias"
"B.L.Rodrigues"
"T.T.Guimaraes"
"W.O.Valenca"
"C.A.Camara"
"R.N.de Oliveira"
"M.G.da Silva"
"V.F.Ferreira"
"Y.G.de Paiva"
"M.O.F.Goulart"
"R.F.S.Menna-Barreto"
"S.L.de Castro"
"E.N.da Silva Junior"
_chemical_name_systematic
;
5-(hydroxyimino)-2,2-dimethyl-3-(4-phenyl-1H-1,2,3-triazol-1-yl)-3,5-dihydrona
phtho[1,2-b]furan-4(2H)-one
;
_cell_volume    921.606
_exptl_crystal_colour 'yellow'
_exptl_crystal_density_diffrn 1.392
_diffrn_ambient_temperature 150
#These two values have been output from a single CSD field.
_refine_ls_R_factor_gt 0.0465
_refine_ls_wR_factor_gt 0.0465
_symmetry_cell_setting monoclinic
_symmetry_space_group_name_H-M 'P 21'
_symmetry_Int_Tables_number 4
loop_
_symmetry_equiv_pos_site_id
_symmetry_equiv_pos_as_xyz
1 x,y,z
2 -x,1/2+y,-z
_cell_length_a 5.6099(2)
_cell_length_b 11.3548(5)
_cell_length_c 14.5658(7)
_cell_angle_alpha 90
_cell_angle_beta 96.641(4)
_cell_angle_gamma 90
_cell_formula_units_Z 2
loop_
_atom_type_symbol
_atom_type_radius_bond
C 0.68
H 0.23
N 0.68
O 0.68
loop_
_atom_site_label
_atom_site_type_symbol
_atom_site_fract_x
_atom_site_fract_y
_atom_site_fract_z
O1 O 0.6795(4) 0.7777(2) 0.47584(17)
H1 H 0.71220 0.77010 0.53190
C1 C 0.0897(6) 0.4509(4) 0.8582(2)
C2 C 0.3654(6) 0.3275(3) 0.7733(2)
C3 C 0.0772(5) 0.5850(3) 0.3793(2)
H2 H -0.18670 0.52180 0.28000
H3 H -0.43210 1.05360 0.80810
H4 H 0.33220 0.99910 0.97680
H5 H 0.11410 1.17580 0.99330
H6 H -0.24960 1.20280 0.91910
H7 H -0.20090 0.88350 0.79420
H8 H -0.40010 0.41150 0.38380
H9 H 0.26340 0.26040 0.77390
H10 H 0.46250 0.32620 0.82700
H11 H -0.011(6) 0.385(3) 0.861(2)
H12 H 0.43650 0.31110 0.71970
H13 H 0.186(5) 0.445(3) 0.915(2)
H14 H 0.01(2) 0.516(15) 0.857(9)
H15 H 0.58250 0.53310 0.78440
H16 H 0.05440 0.73420 0.74290
H17 H 0.16600 0.64040 0.33820
H18 H -0.22860 0.39460 0.54310
O2 O 0.0584(3) 0.44676(19) 0.69116(13)
O3 O 0.6732(3) 0.6986(2) 0.63615(16)
C4 C 0.3618(5) 0.5678(3) 0.66254(19)
N1 N 0.3539(4) 0.6542(2) 0.81504(16)
C5 C 0.4881(5) 0.6409(3) 0.6065(2)
N2 N 0.4942(4) 0.6821(2) 0.89387(16)
N3 N 0.4082(4) 0.7793(2) 0.92601(16)
C6 C -0.1530(5) 0.4485(3) 0.5023(2)
C7 C 0.0521(5) 0.5134(3) 0.53344(19)
C8 C 0.3882(5) 0.6497(3) 0.5073(2)
C9 C 0.1701(5) 0.5824(3) 0.4726(2)
C10 C 0.0743(5) 0.9209(3) 0.88258(18)
C11 C 0.1593(4) 0.5093(3) 0.6289(2)
N4 N 0.4789(4) 0.7142(2) 0.44698(18)
C12 C -0.1569(5) 0.9373(3) 0.8378(2)
C13 C 0.2318(5) 0.4425(3) 0.7770(2)
C14 C 0.0513(5) 1.1132(3) 0.9513(2)
C15 C -0.1273(6) 0.5205(3) 0.3492(2)
C16 C 0.1761(5) 0.7332(3) 0.79724(19)
C17 C -0.2429(5) 0.4530(3) 0.4101(2)
C18 C 0.1763(5) 1.0102(3) 0.93985(19)
C19 C 0.2090(5) 0.8139(3) 0.86781(19)
C20 C 0.4065(5) 0.5483(3) 0.76460(19)
C21 C -0.1773(5) 1.1286(3) 0.9062(2)
C22 C -0.2785(5) 1.0405(3) 0.8486(2)
#END
