
#######################################################################
#
#                 Cambridge Crystallographic Data Centre
#                                CCDC
#
#######################################################################
#
# If this CIF has been generated from an entry in the Cambridge
# Structural Database, then it will include bibliographic, chemical,
# crystal, experimental, refinement or atomic coordinate data resulting
# from the CCDC's data processing and validation procedures.
#
#######################################################################

data_CSD_CIF_VIRHEJ
_audit_creation_date 1991-11-25
_audit_creation_method CSD-ConQuest-V1
_database_code_CSD VIRHEJ
_chemical_formula_sum 'C17 H14 N2 O2'
_chemical_formula_moiety
;
C17 H14 N2 O2
;
_journal_coden_Cambridge 423
_journal_volume 8
_journal_year 1991
_journal_page_first 145
_journal_name_full 'J.Chem.Res. '
loop_
_publ_author_name
"J.G.Rodriguez"
"I.Fonesca"
"S.Martinez-Carrera"
_chemical_name_systematic
;
1-Methyl-3-(2-nitrovinyl)-2-phenylindole
;
_chemical_melting_point 420.15
_cell_volume   1409.030
_exptl_crystal_colour 'yellow'
_exptl_crystal_density_diffrn 1.312
_exptl_special_details
;
Melting point range 420.15-422.15K
antiparasitic drug activity at low concentrations
;
_diffrn_ambient_temperature ?
_diffrn_special_details
;
The study was carried out at room temperature,in the range 283-303K

;
#These two values have been output from a single CSD field.
_refine_ls_R_factor_gt 0.046
_refine_ls_wR_factor_gt 0.046
_symmetry_cell_setting monoclinic
_symmetry_space_group_name_H-M 'P 21/c'
_symmetry_Int_Tables_number 14
loop_
_symmetry_equiv_pos_site_id
_symmetry_equiv_pos_as_xyz
1 x,y,z
2 -x,1/2+y,1/2-z
3 -x,-y,-z
4 x,-1/2-y,-1/2+z
_cell_length_a 9.301(1)
_cell_length_b 17.363(1)
_cell_length_c 8.984(1)
_cell_angle_alpha 90
_cell_angle_beta 103.791(3)
_cell_angle_gamma 90
_cell_formula_units_Z 4
loop_
_atom_type_symbol
_atom_type_radius_bond
C 0.68
H 0.23
N 0.68
O 0.68
loop_
_atom_site_label
_atom_site_type_symbol
_atom_site_fract_x
_atom_site_fract_y
_atom_site_fract_z
N1 N 0.26450(15) 0.03863(8) 0.25835(15)
C1 C 0.18044(17) 0.09554(9) 0.16967(18)
C2 C 0.1298(2) 0.16452(10) 0.21761(21)
C3 C 0.04318(22) 0.21032(10) 0.10620(22)
C4 C 0.00833(21) 0.18822(10) -0.04753(21)
C5 C 0.06184(20) 0.1207(1) -0.09467(20)
C6 C 0.15091(17) 0.07292(9) 0.01539(18)
C7 C 0.22373(17) -0.00060(9) 0.01275(18)
C8 C 0.29227(17) -0.01875(9) 0.16439(18)
C9 C 0.37932(17) -0.08807(10) 0.22311(17)
C10 C 0.50771(20) -0.10545(11) 0.17546(22)
C11 C 0.58789(24) -0.17133(13) 0.22905(25)
C12 C 0.54179(24) -0.22006(12) 0.32907(26)
C13 C 0.41467(24) -0.20363(12) 0.37699(24)
C14 C 0.33359(20) -0.13787(11) 0.32418(20)
C15 C 0.21995(18) -0.05208(10) -0.11202(18)
C16 C 0.14555(20) -0.04188(10) -0.25718(19)
C17 C 0.31454(25) 0.04411(13) 0.42465(21)
N2 N 0.14505(17) -0.10110(9) -0.36786(16)
O1 O 0.05653(17) -0.09432(9) -0.49327(15)
O2 O 0.22762(20) -0.15635(9) -0.33723(17)
H1 H 0.151(2) 0.179(1) 0.323(3)
H2 H 0.001(3) 0.259(2) 0.129(3)
H3 H -0.059(2) 0.222(1) -0.120(3)
H4 H 0.038(2) 0.107(1) -0.205(3)
H5 H 0.542(3) -0.070(2) 0.103(3)
H6 H 0.675(4) -0.184(2) 0.198(3)
H7 H 0.599(3) -0.268(2) 0.370(3)
H8 H 0.382(3) -0.239(2) 0.452(3)
H9 H 0.243(3) -0.127(1) 0.353(2)
H10 H 0.278(2) -0.099(1) -0.091(2)
H11 H 0.083(3) -0.001(1) -0.301(3)
H12 H 0.226(4) 0.052(2) 0.469(4)
H13 H 0.384(4) 0.085(2) 0.446(4)
H14 H 0.362(3) -0.006(2) 0.469(3)
#END
