
#######################################################################
#
#                 Cambridge Crystallographic Data Centre
#                                CCDC
#
#######################################################################
#
# If this CIF has been generated from an entry in the Cambridge
# Structural Database, then it will include bibliographic, chemical,
# crystal, experimental, refinement or atomic coordinate data resulting
# from the CCDC's data processing and validation procedures.
#
#######################################################################

data_CSD_CIF_VIRJIP
_audit_creation_date 1991-10-31
_audit_creation_method CSD-ConQuest-V1
_database_code_CSD VIRJIP
_chemical_formula_sum 'C32 H31 N1 O5'
_chemical_formula_moiety
;
C32 H31 N1 O5
;
_journal_coden_Cambridge 35
_journal_volume 56
_journal_year 1991
_journal_page_first 1364
_journal_name_full 'J.Org.Chem. '
loop_
_publ_author_name
"P.DeShong"
"Wei Li"
"J.W.Kennington Junior"
"H.L.Ammon"
"J.M.Leginus"
_chemical_name_systematic
;
N-(5-(2,5-bis(Benzyloxy)phenyl)-5-methyl-2-phenyl-1,3-dioxacyclopent-4-ylmethy
lidene)methylamine N-oxide
;
_chemical_melting_point 441.15
_cell_volume   2635.377
_exptl_crystal_colour 'colorless'
_exptl_crystal_density_diffrn 1.284
_exptl_special_details
;
Melting point range 441.15-442.15K

;
_diffrn_ambient_temperature ?
_diffrn_special_details
;
The study was carried out at room temperature,in the range 283-303K

;
#These two values have been output from a single CSD field.
_refine_ls_R_factor_gt 0.043
_refine_ls_wR_factor_gt 0.043
_symmetry_cell_setting monoclinic
_symmetry_space_group_name_H-M 'P 21/n'
_symmetry_Int_Tables_number 14
loop_
_symmetry_equiv_pos_site_id
_symmetry_equiv_pos_as_xyz
1 x,y,z
2 1/2-x,1/2+y,1/2-z
3 -x,-y,-z
4 -1/2+x,-1/2-y,-1/2+z
_cell_length_a 13.8509(9)
_cell_length_b 9.7814(5)
_cell_length_c 20.141(1)
_cell_angle_alpha 90
_cell_angle_beta 105.030(5)
_cell_angle_gamma 90
_cell_formula_units_Z 4
loop_
_atom_type_symbol
_atom_type_radius_bond
C 0.68
H 0.23
N 0.68
O 0.68
loop_
_atom_site_label
_atom_site_type_symbol
_atom_site_fract_x
_atom_site_fract_y
_atom_site_fract_z
O1 O 0.7341(2) 0.9639(2) 0.7199(1)
O2 O 0.8501(1) 0.8200(2) 0.62107(9)
O3 O 0.8015(1) 0.7225(2) 0.51651(9)
O4 O 0.5301(1) 0.7434(2) 0.57133(9)
O5 O 0.5493(2) 0.9043(2) 0.3124(1)
N1 N 0.7228(2) 0.8333(2) 0.7227(1)
C1 C 0.7255(2) 0.7494(3) 0.6737(1)
C2 C 0.7435(2) 0.8030(3) 0.6092(1)
C3 C 0.7142(2) 0.7130(3) 0.5430(1)
C4 C 0.6233(2) 0.7711(3) 0.4902(1)
C5 C 0.5321(2) 0.7843(3) 0.5062(1)
C6 C 0.4506(2) 0.8390(3) 0.4583(1)
C7 C 0.4583(2) 0.8773(3) 0.3941(1)
C8 C 0.5479(2) 0.8620(3) 0.3776(1)
C9 C 0.6300(2) 0.8096(3) 0.4253(1)
C10 C 0.7054(3) 0.7827(4) 0.7878(2)
C11 C 0.7015(3) 0.5611(3) 0.5557(2)
C12 C 0.8682(2) 0.8209(3) 0.5557(1)
C13 C 0.8558(2) 0.9599(3) 0.5214(1)
C14 C 0.8651(2) 0.9713(4) 0.4548(2)
C15 C 0.8544(3) 1.0971(5) 0.4226(2)
C16 C 0.8371(2) 1.2117(5) 0.4568(3)
C17 C 0.8292(3) 1.2014(4) 0.5234(2)
C18 C 0.8394(2) 1.0756(3) 0.5557(2)
C19 C 0.4358(2) 0.7379(4) 0.5871(2)
C20 C 0.4503(2) 0.6644(3) 0.6542(1)
C21 C 0.4821(3) 0.5302(4) 0.6614(2)
C22 C 0.4984(3) 0.4641(4) 0.7238(2)
C23 C 0.4796(3) 0.5294(5) 0.7787(2)
C24 C 0.4467(3) 0.6613(5) 0.7723(2)
C25 C 0.4321(3) 0.7293(4) 0.7099(2)
C26 C 0.6347(3) 0.8803(4) 0.2889(2)
C27 C 0.6168(2) 0.9416(3) 0.2178(1)
C28 C 0.5221(3) 0.9412(4) 0.1735(2)
C29 C 0.5064(3) 0.9991(4) 0.1089(2)
C30 C 0.5834(3) 1.0571(3) 0.0883(2)
C31 C 0.6767(3) 1.0553(4) 0.1313(2)
C32 C 0.6933(3) 0.9986(4) 0.1958(2)
H1 H 0.720(2) 0.657(3) 0.682(1)
H2 H 0.712(2) 0.893(3) 0.600(1)
H3 H 0.391(2) 0.848(3) 0.470(1)
H4 H 0.402(2) 0.918(3) 0.361(1)
H5 H 0.694(2) 0.801(3) 0.415(1)
H6 H 0.761(2) 0.812(3) 0.822(2)
H7 H 0.697(2) 0.684(4) 0.788(2)
H8 H 0.650(2) 0.838(3) 0.794(2)
H9 H 0.697(2) 0.510(3) 0.514(1)
H10 H 0.640(2) 0.540(3) 0.571(1)
H11 H 0.758(2) 0.525(3) 0.591(1)
H12 H 0.937(2) 0.786(2) 0.561(1)
H13 H 0.874(3) 0.893(4) 0.430(2)
H14 H 0.859(2) 1.102(4) 0.377(2)
H15 H 0.830(2) 1.289(4) 0.435(2)
H16 H 0.819(2) 1.277(3) 0.549(2)
H17 H 0.831(2) 1.069(3) 0.601(1)
H18 H 0.389(2) 0.684(3) 0.549(2)
H19 H 0.412(2) 0.831(3) 0.592(1)
H20 H 0.497(2) 0.487(3) 0.624(2)
H21 H 0.521(2) 0.366(4) 0.728(2)
H22 H 0.495(2) 0.480(3) 0.823(2)
H23 H 0.430(2) 0.709(3) 0.809(2)
H24 H 0.411(2) 0.830(4) 0.705(2)
H25 H 0.647(3) 0.769(4) 0.290(2)
H26 H 0.699(3) 0.932(4) 0.322(2)
H27 H 0.468(2) 0.904(3) 0.191(2)
H28 H 0.439(2) 1.002(3) 0.078(2)
H29 H 0.571(2) 1.095(3) 0.042(1)
H30 H 0.730(2) 1.089(3) 0.118(2)
H31 H 0.752(2) 0.999(3) 0.224(1)
#END
