
#######################################################################
#
#                 Cambridge Crystallographic Data Centre
#                                CCDC
#
#######################################################################
#
# If this CIF has been generated from an entry in the Cambridge
# Structural Database, then it will include bibliographic, chemical,
# crystal, experimental, refinement or atomic coordinate data resulting
# from the CCDC's data processing and validation procedures.
#
#######################################################################

data_CSD_CIF_VIRKAI
_audit_creation_date 1991-10-31
_audit_creation_method CSD-ConQuest-V1
_database_code_CSD VIRKAI
_chemical_formula_sum 'C35 H33 N1 O8'
_chemical_formula_moiety
;
C35 H33 N1 O8
;
_journal_coden_Cambridge 35
_journal_volume 56
_journal_year 1991
_journal_page_first 1364
_journal_name_full 'J.Org.Chem. '
loop_
_publ_author_name
"P.DeShong"
"Wei Li"
"J.W.Kennington Junior"
"H.L.Ammon"
"J.M.Leginus"
_chemical_name_systematic
;
8-(5-(2,5-bis(Benzyloxy)phenyl)-5-methyl-2-phenyl-1,3-dioxacyclopen-4-yl)-7-me
thyl-7-aza-2,4-dioxabicyclo(3.3.0)octan-3-one
;
_chemical_melting_point 410.15
_cell_volume   1501.349
_exptl_crystal_colour 'colorless'
_exptl_crystal_density_diffrn 1.32
_exptl_special_details
;
Melting point range 410.15-411.15K

;
_diffrn_ambient_temperature ?
_diffrn_special_details
;
The study was carried out at room temperature,in the range 283-303K

;
#These two values have been output from a single CSD field.
_refine_ls_R_factor_gt 0.076
_refine_ls_wR_factor_gt 0.076
loop_
_citation_database_id_CSD
_citation_special_details
VIRJUB "is a stereoisomer of this entry"
_symmetry_cell_setting triclinic
_symmetry_space_group_name_H-M 'P -1'
_symmetry_Int_Tables_number 2
loop_
_symmetry_equiv_pos_site_id
_symmetry_equiv_pos_as_xyz
1 x,y,z
2 -x,-y,-z
_cell_length_a 7.232(1)
_cell_length_b 15.207(2)
_cell_length_c 15.236(2)
_cell_angle_alpha 112.56(1)
_cell_angle_beta 102.38(1)
_cell_angle_gamma 91.24(1)
_cell_formula_units_Z 2
loop_
_atom_type_symbol
_atom_type_radius_bond
C 0.68
H 0.23
N 0.68
O 0.68
loop_
_atom_site_label
_atom_site_type_symbol
_atom_site_fract_x
_atom_site_fract_y
_atom_site_fract_z
O1 O 1.1261(7) 0.4505(3) 0.9209(3)
O2 O 1.1244(8) 0.5663(4) 0.7764(4)
O3 O 1.2796(8) 0.5906(4) 0.9275(4)
O4 O 1.416(1) 0.6468(6) 0.8357(6)
O5 O 0.7467(6) 0.2909(3) 0.5588(3)
O6 O 0.6594(6) 0.4048(3) 0.6881(3)
O7 O 0.7052(7) 0.1911(3) 0.7797(3)
O8 O 0.1499(6) 0.0664(3) 0.4318(3)
N1 N 1.1276(8) 0.3771(4) 0.8248(4)
C1 C 1.101(1) 0.5386(5) 0.9144(6)
C2 C 1.002(1) 0.5173(5) 0.8083(5)
C3 C 1.0001(9) 0.4075(4) 0.7558(5)
C4 C 1.286(1) 0.6058(6) 0.8480(8)
C5 C 1.326(1) 0.3720(6) 0.8152(6)
C6 C 0.7962(9) 0.3536(4) 0.7259(5)
C7 C 0.7693(9) 0.2563(4) 0.6370(5)
C8 C 0.673(1) 0.3815(5) 0.5912(5)
C9 C 0.5897(9) 0.1926(4) 0.6228(5)
C10 C 0.566(1) 0.1587(5) 0.6928(5)
C11 C 0.407(1) 0.0921(5) 0.6730(6)
C12 C 0.274(1) 0.0620(5) 0.5854(5)
C13 C 0.296(1) 0.0968(5) 0.5162(5)
C14 C 0.454(1) 0.1607(5) 0.5341(5)
C15 C 0.937(1) 0.1978(5) 0.6301(5)
C16 C 0.482(1) 0.3807(5) 0.5256(5)
C17 C 0.477(1) 0.3687(6) 0.4299(6)
C18 C 0.304(2) 0.3666(6) 0.3677(6)
C19 C 0.141(1) 0.3758(7) 0.4007(7)
C20 C 0.147(1) 0.3904(8) 0.4947(8)
C21 C 0.319(1) 0.3923(7) 0.5587(7)
C22 C 0.676(1) 0.1599(6) 0.8531(6)
C23 C 0.851(1) 0.1900(5) 0.9366(5)
C24 C 1.021(1) 0.2310(5) 0.9316(5)
C25 C 1.182(1) 0.2529(6) 1.0081(6)
C26 C 1.175(1) 0.2339(7) 1.0879(7)
C27 C 1.005(2) 0.1954(8) 1.0943(7)
C28 C 0.843(1) 0.1728(7) 1.0179(6)
C29 C 0.153(1) 0.1099(7) 0.3649(6)
C30 C -0.043(1) 0.0902(5) 0.2970(5)
C31 C -0.079(1) 0.0181(6) 0.2044(6)
C32 C -0.257(2) 0.0044(7) 0.1399(6)
C33 C -0.393(1) 0.0602(7) 0.1666(7)
C34 C -0.359(1) 0.1306(7) 0.2597(8)
C35 C -0.183(1) 0.1451(6) 0.3242(6)
H1 H 1.02840 0.57400 0.96050
H2 H 0.87240 0.53670 0.80160
H3 H 1.04740 0.39370 0.69630
H4 H 1.38200 0.43230 0.82130
H5 H 1.40360 0.35540 0.86530
H6 H 1.33260 0.32440 0.75300
H7 H 0.76670 0.34580 0.78200
H8 H 0.76360 0.42940 0.59090
H9 H 0.39180 0.06790 0.72170
H10 H 0.16590 0.01610 0.57250
H11 H 0.47010 0.18420 0.48450
H12 H 0.96000 0.17290 0.67920
H13 H 1.04980 0.23690 0.63720
H14 H 0.91280 0.14540 0.56710
H15 H 0.59290 0.36180 0.40610
H16 H 0.30000 0.35760 0.30040
H17 H 0.02150 0.37190 0.35620
H18 H 0.03180 0.40010 0.51900
H19 H 0.32260 0.40260 0.62650
H20 H 0.56810 0.18790 0.87480
H21 H 0.64630 0.09200 0.82370
H22 H 1.02720 0.24230 0.87320
H23 H 1.29810 0.28480 1.00540
H24 H 1.28920 0.24620 1.14020
H25 H 1.00180 0.18160 1.15280
H26 H 0.71730 0.14790 1.02210
H27 H 0.18890 0.17910 0.40240
H28 H 0.25030 0.08710 0.33090
H29 H 0.02110 -0.02120 0.18480
H30 H -0.28030 -0.04740 0.07540
H31 H -0.51750 0.05050 0.11980
H32 H -0.46260 0.17170 0.28000
H33 H -0.15620 0.19540 0.39060
#END
