
#######################################################################
#
#                 Cambridge Crystallographic Data Centre
#                                CCDC
#
#######################################################################
#
# If this CIF has been generated from an entry in the Cambridge
# Structural Database, then it will include bibliographic, chemical,
# crystal, experimental, refinement or atomic coordinate data resulting
# from the CCDC's data processing and validation procedures.
#
#######################################################################

data_CSD_CIF_VIRVAV
_audit_creation_date 2013-10-08
_audit_creation_method CSD-ConQuest-V1
_database_code_CSD VIRVAV
_database_code_depnum_ccdc_archive 'CCDC 953025'
_chemical_formula_sum 'C13 H10 N4 O5'
_chemical_formula_moiety
;
C13 H10 N4 O5
;
_journal_coden_Cambridge 1350
_journal_volume 15
_journal_year 2013
_journal_page_first 9003
_journal_name_full 'CrystEngComm '
loop_
_publ_author_name
"I.L.Kirby"
"M.B.Pitak"
"M.Wenzel"
"C.Wilson"
"H.A.Sparkes"
"S.J.Coles"
"P.A.Gale"
_chemical_name_systematic
;
1,3-bis(2-Nitrophenyl)urea
;
_cell_volume   1265.270
_exptl_crystal_colour 'yellow'
_exptl_crystal_density_diffrn 1.587
_exptl_special_details
;
alpha polymorph

;
_exptl_crystal_description 'slab'
_diffrn_ambient_temperature 120
#These two values have been output from a single CSD field.
_refine_ls_R_factor_gt 0.0541
_refine_ls_wR_factor_gt 0.0541
_symmetry_cell_setting orthorhombic
_symmetry_space_group_name_H-M 'P c a 21'
_symmetry_Int_Tables_number 29
loop_
_symmetry_equiv_pos_site_id
_symmetry_equiv_pos_as_xyz
1 x,y,z
2 -x,-y,1/2+z
3 1/2+x,-y,z
4 1/2-x,y,1/2+z
_cell_length_a 21.8064(19)
_cell_length_b 4.6133(3)
_cell_length_c 12.5773(11)
_cell_angle_alpha 90
_cell_angle_beta 90
_cell_angle_gamma 90
_cell_formula_units_Z 4
loop_
_atom_type_symbol
_atom_type_radius_bond
C 0.68
H 0.23
N 0.68
O 0.68
loop_
_atom_site_label
_atom_site_type_symbol
_atom_site_fract_x
_atom_site_fract_y
_atom_site_fract_z
C1 C 0.41432(19) -0.0491(10) 0.9347(4)
H1 H 0.37790 -0.12960 0.96380
C2 C 0.4460(2) 0.1617(9) 0.9886(4)
H2 H 0.43120 0.22970 1.05500
C3 C 0.4997(2) 0.2763(8) 0.9467(4)
C4 C 0.52246(18) 0.1865(8) 0.8473(4)
C5 C 0.48908(18) -0.0252(9) 0.7933(4)
H3 H 0.50270 -0.08940 0.72560
C6 C 0.43649(19) -0.1432(9) 0.8366(4)
H4 H 0.41510 -0.29050 0.79900
C7 C 0.61984(17) 0.1307(8) 0.7534(3)
C8 C 0.72350(19) 0.1640(8) 0.6867(3)
C9 C 0.75967(18) 0.2346(8) 0.5984(4)
C10 C 0.81597(19) 0.1035(10) 0.5794(4)
H5 H 0.83900 0.15440 0.51800
C11 C 0.83859(19) -0.1008(10) 0.6497(4)
H6 H 0.87710 -0.19120 0.63720
C12 C 0.8036(2) -0.1724(9) 0.7398(4)
H7 H 0.81860 -0.31210 0.78880
C13 C 0.74792(19) -0.0412(8) 0.7574(4)
H8 H 0.72530 -0.09100 0.81930
N1 N 0.53132(17) 0.4945(8) 1.0109(3)
N2 N 0.57646(15) 0.2987(7) 0.8031(3)
H9 H 0.58290 0.48660 0.80730
N3 N 0.66669(15) 0.2886(7) 0.7091(3)
H10 H 0.66070 0.47290 0.69440
N4 N 0.73929(17) 0.4449(8) 0.5193(3)
O1 O 0.61717(13) -0.1346(6) 0.7489(3)
O2 O 0.56919(14) 0.6514(6) 0.9682(3)
O3 O 0.51821(18) 0.5103(8) 1.1055(3)
O4 O 0.69661(15) 0.6087(7) 0.5405(3)
O5 O 0.76611(18) 0.4514(7) 0.4331(3)
#END
