
#######################################################################
#
#                 Cambridge Crystallographic Data Centre
#                                CCDC
#
#######################################################################
#
# If this CIF has been generated from an entry in the Cambridge
# Structural Database, then it will include bibliographic, chemical,
# crystal, experimental, refinement or atomic coordinate data resulting
# from the CCDC's data processing and validation procedures.
#
#######################################################################

data_CSD_CIF_VIRWIC
_audit_creation_date 1991-10-31
_audit_creation_method CSD-ConQuest-V1
_database_code_CSD VIRWIC
_chemical_formula_sum 'C10 H14 N2 O6'
_chemical_formula_moiety
;
C10 H14 N2 O6
;
_journal_coden_Cambridge 24
_journal_volume 31
_journal_year 1990
_journal_page_first 3973
_journal_name_full 'Tetrahedron Lett. '
loop_
_publ_author_name
"P.A.Krasutsky"
"I.R.Likhotvorik"
"A.L.Litvyn"
"A.G.Yurchenko"
"D.van Engern"
_chemical_name_systematic
;
5,8-exo-Dinitroxy-exo-tricyclo(4.2.2.0^1,5^)decane
;
_cell_volume   1161.382
_exptl_crystal_density_diffrn 1.48
_diffrn_ambient_temperature ?
_diffrn_special_details
;
The study was carried out at room temperature,in the range 283-303K

;
#These two values have been output from a single CSD field.
_refine_ls_R_factor_gt 0.052
_refine_ls_wR_factor_gt 0.052
_symmetry_cell_setting monoclinic
_symmetry_space_group_name_H-M 'P 21/n'
_symmetry_Int_Tables_number 14
loop_
_symmetry_equiv_pos_site_id
_symmetry_equiv_pos_as_xyz
1 x,y,z
2 1/2-x,1/2+y,1/2-z
3 -x,-y,-z
4 -1/2+x,-1/2-y,-1/2+z
_cell_length_a 6.946(2)
_cell_length_b 25.889(8)
_cell_length_c 6.974(2)
_cell_angle_alpha 90
_cell_angle_beta 112.17(3)
_cell_angle_gamma 90
_cell_formula_units_Z 4
loop_
_atom_type_symbol
_atom_type_radius_bond
C 0.68
H 0.23
N 0.68
O 0.68
loop_
_atom_site_label
_atom_site_type_symbol
_atom_site_fract_x
_atom_site_fract_y
_atom_site_fract_z
C1 C 0.1301(4) 0.3547(1) 0.4298(3)
C2 C 0.0561(4) 0.3297(1) 0.2176(4)
C3 C -0.1000(4) 0.3693(1) 0.0796(4)
C4 C -0.1104(3) 0.4119(1) 0.2318(4)
C5 C -0.2178(4) 0.3892(1) 0.3676(4)
C6 C -0.0611(5) 0.3482(1) 0.4941(4)
C7 C 0.1147(3) 0.4128(1) 0.3842(3)
C8 C 0.2037(4) 0.4372(1) 0.5974(4)
C9 C 0.3719(5) 0.3987(1) 0.7271(4)
C10 C 0.3399(4) 0.3475(1) 0.6043(4)
O1 O 0.2177(3) 0.3244(1) 0.1321(3)
N1 N 0.3422(4) 0.2804(1) 0.1954(4)
O2 O 0.3001(4) 0.2496(1) 0.3028(4)
O3 O 0.4782(4) 0.2789(1) 0.1310(5)
O4 O 0.2612(2) 0.4225(1) 0.2793(3)
N2 N 0.2616(3) 0.4727(1) 0.2053(3)
O5 O 0.3842(4) 0.4780(1) 0.1234(4)
O6 O 0.1460(3) 0.5045(1) 0.2301(3)
H1 H 0.00550 0.29550 0.22470
H2 H -0.05220 0.38340 -0.02210
H3 H -0.23390 0.35370 0.01130
H4 H -0.17360 0.44330 0.16370
H5 H -0.24030 0.41510 0.45550
H6 H -0.34820 0.37360 0.28500
H7 H -0.02160 0.35450 0.63960
H8 H -0.11890 0.31410 0.46150
H9 H 0.26400 0.47020 0.59180
H10 H 0.09810 0.44120 0.65390
H11 H 0.50750 0.41240 0.75120
H12 H 0.35860 0.39260 0.85730
H13 H 0.33830 0.31850 0.68980
H14 H 0.44720 0.34270 0.55070
#END
