
#######################################################################
#
#                 Cambridge Crystallographic Data Centre
#                                CCDC
#
#######################################################################
#
# If this CIF has been generated from an entry in the Cambridge
# Structural Database, then it will include bibliographic, chemical,
# crystal, experimental, refinement or atomic coordinate data resulting
# from the CCDC's data processing and validation procedures.
#
#######################################################################

data_CSD_CIF_VIYBAI
_audit_creation_date 2014-02-12
_audit_creation_method CSD-ConQuest-V1
_database_code_CSD VIYBAI
_database_code_depnum_ccdc_archive 'CCDC 942856'
_chemical_formula_sum 'C27 H20 N4 O2'
_chemical_formula_moiety
;
C27 H20 N4 O2
;
_journal_coden_Cambridge 1500
_journal_volume 4
_journal_year 2014
_journal_page_first 10652
_journal_name_full 'RSC Advances '
loop_
_publ_author_name
"P.R.Bagdi"
"R.Sidick Basha"
"P.K.Baruah"
"A.T.Khan"
_chemical_name_systematic
;
1-(4-nitrobenzyl)-4-((10-propadienyl-9-anthryl)methyl)-1H-1,2,3-triazole
;
_cell_volume   2148.013
_exptl_crystal_colour 'yellow'
_exptl_crystal_density_diffrn 1.337
_exptl_crystal_description 'blocks'
_diffrn_ambient_temperature 296
#These two values have been output from a single CSD field.
_refine_ls_R_factor_gt 0.0634
_refine_ls_wR_factor_gt 0.0634
_symmetry_cell_setting monoclinic
_symmetry_space_group_name_H-M 'P 21/n'
_symmetry_Int_Tables_number 14
loop_
_symmetry_equiv_pos_site_id
_symmetry_equiv_pos_as_xyz
1 x,y,z
2 1/2-x,1/2+y,1/2-z
3 -x,-y,-z
4 -1/2+x,-1/2-y,-1/2+z
_cell_length_a 12.4688(7)
_cell_length_b 10.2492(6)
_cell_length_c 16.9379(9)
_cell_angle_alpha 90
_cell_angle_beta 97.094(5)
_cell_angle_gamma 90
_cell_formula_units_Z 4
loop_
_atom_type_symbol
_atom_type_radius_bond
C 0.68
H 0.23
N 0.68
O 0.68
loop_
_atom_site_label
_atom_site_type_symbol
_atom_site_fract_x
_atom_site_fract_y
_atom_site_fract_z
O1 O -0.1297(3) 0.6005(4) -0.14028(18)
O2 O -0.0601(3) 0.4156(4) -0.15660(18)
N1 N -0.0879(3) 0.0999(3) 0.30846(18)
N2 N -0.1707(2) 0.1441(3) 0.26036(18)
N3 N -0.1419(2) 0.2595(3) 0.23363(13)
N4 N -0.1059(3) 0.4909(4) -0.11744(19)
C1 C 0.4033(4) 0.6453(6) 0.6596(3)
H1 H 0.429(4) 0.594(5) 0.714(3)
H2 H 0.459(5) 0.709(6) 0.641(3)
C2 C 0.3106(3) 0.6223(4) 0.6193(2)
C3 C 0.2172(3) 0.6009(4) 0.5810(2)
H3 H 0.163(3) 0.656(4) 0.592(2)
C4 C 0.1109(2) 0.3996(3) 0.54380(18)
C5 C 0.0623(3) 0.4083(4) 0.6158(2)
H4 H 0.092(3) 0.479(4) 0.652(2)
C6 C -0.0115(3) 0.3218(5) 0.6343(3)
H5 H -0.042(3) 0.332(4) 0.683(2)
C7 C -0.0418(3) 0.2187(5) 0.5821(3)
H6 H -0.098(3) 0.162(4) 0.5955(19)
C8 C 0.0024(3) 0.2036(4) 0.5143(3)
H7 H -0.013(2) 0.138(4) 0.4807(19)
C9 C 0.0809(2) 0.2924(3) 0.49107(18)
C10 C 0.2019(2) 0.3741(3) 0.40023(18)
C11 C 0.2484(3) 0.3691(5) 0.3273(2)
H8 H 0.227(3) 0.295(4) 0.290(2)
C12 C 0.3206(4) 0.4587(6) 0.3087(3)
H9 H 0.347(3) 0.444(4) 0.258(2)
C13 C 0.3517(4) 0.5612(5) 0.3609(3)
H10 H 0.399(4) 0.627(5) 0.345(3)
C14 C 0.3099(3) 0.5725(4) 0.4304(3)
H11 H 0.332(3) 0.642(4) 0.472(2)
C15 C 0.2337(3) 0.4798(3) 0.45374(19)
C16 C 0.1879(2) 0.4905(3) 0.52474(19)
C17 C 0.1277(2) 0.2794(3) 0.42023(18)
C18 C 0.0976(3) 0.1659(4) 0.3656(2)
H12 H 0.156(2) 0.149(3) 0.3319(18)
H13 H 0.086(2) 0.089(3) 0.3967(19)
C19 C -0.0063(3) 0.1869(3) 0.31231(17)
C20 C -0.0405(3) 0.2886(4) 0.26510(19)
H14 H -0.008(2) 0.363(3) 0.2512(17)
C21 C -0.2207(3) 0.3393(4) 0.1843(2)
H15 H -0.233(2) 0.421(4) 0.216(2)
H16 H -0.289(3) 0.288(3) 0.1758(19)
C22 C -0.1858(2) 0.3771(3) 0.10646(18)
C23 C -0.1328(3) 0.2905(4) 0.0614(2)
H17 H -0.117(3) 0.212(4) 0.083(2)
C24 C -0.1067(3) 0.3278(4) -0.0120(2)
H18 H -0.068(2) 0.278(3) -0.0412(19)
C25 C -0.1335(2) 0.4500(4) -0.03990(18)
C26 C -0.1846(3) 0.5364(5) 0.0038(3)
H19 H -0.198(3) 0.612(4) -0.017(2)
C27 C -0.2104(3) 0.4998(4) 0.0763(2)
H20 H -0.244(3) 0.558(4) 0.110(2)
#END
