
#######################################################################
#
#                 Cambridge Crystallographic Data Centre
#                                CCDC
#
#######################################################################
#
# If this CIF has been generated from an entry in the Cambridge
# Structural Database, then it will include bibliographic, chemical,
# crystal, experimental, refinement or atomic coordinate data resulting
# from the CCDC's data processing and validation procedures.
#
#######################################################################

data_CSD_CIF_VIYMEX
_audit_creation_date 2014-02-13
_audit_creation_method CSD-ConQuest-V1
_database_code_CSD VIYMEX
_database_code_depnum_ccdc_archive 'CCDC 944725'
_chemical_formula_sum 'C14 H14 N2 O2'
_chemical_formula_moiety
;
C14 H14 N2 O2
;
_journal_coden_Cambridge 1003
_journal_volume 44
_journal_year 2014
_journal_page_first 98
_journal_name_full 'J.Chem.Cryst. '
loop_
_publ_author_name
"E.Bosch"
_chemical_name_systematic
;
1,2-bis(2-methylphenyl)diazene 1,2-dioxide
;
_chemical_name_common
;
2-nitrosotoluene
;
_cell_volume   1217.648
_exptl_crystal_colour 'colorless'
_exptl_crystal_density_diffrn 1.322
_exptl_crystal_description 'block'
_exptl_crystal_preparation 'ethanol'
_diffrn_ambient_temperature 100
#These two values have been output from a single CSD field.
_refine_ls_R_factor_gt 0.039
_refine_ls_wR_factor_gt 0.039
_symmetry_cell_setting orthorhombic
_symmetry_space_group_name_H-M 'P b c a'
_symmetry_Int_Tables_number 61
loop_
_symmetry_equiv_pos_site_id
_symmetry_equiv_pos_as_xyz
1 x,y,z
2 1/2-x,-y,1/2+z
3 1/2+x,1/2-y,-z
4 -x,1/2+y,1/2-z
5 -x,-y,-z
6 -1/2+x,y,-1/2-z
7 -1/2-x,-1/2+y,z
8 x,-1/2-y,-1/2+z
_cell_length_a 8.1826(7)
_cell_length_b 10.3462(9)
_cell_length_c 14.3830(13)
_cell_angle_alpha 90
_cell_angle_beta 90
_cell_angle_gamma 90
_cell_formula_units_Z 4
loop_
_atom_type_symbol
_atom_type_radius_bond
C 0.68
H 0.23
N 0.68
O 0.68
loop_
_atom_site_label
_atom_site_type_symbol
_atom_site_fract_x
_atom_site_fract_y
_atom_site_fract_z
O1 O 0.68776(13) 0.5220(1) 0.45043(8)
N1 N 0.54383(14) 0.48053(11) 0.46416(8)
C1 C 0.45413(16) 0.26217(13) 0.41900(9)
C2 C 0.46681(17) 0.39325(13) 0.39773(9)
C3 C 0.41872(18) 0.44615(14) 0.31338(10)
H1 H 0.43140 0.53600 0.30170
C4 C 0.35185(18) 0.36550(15) 0.24654(10)
H2 H 0.31610 0.39980 0.18870
C5 C 0.33749(18) 0.23427(15) 0.2647(1)
H3 H 0.29260 0.17850 0.21880
C6 C 0.38821(18) 0.18369(14) 0.34943(10)
H4 H 0.37780 0.09350 0.36030
C7 C 0.50603(19) 0.20877(14) 0.51153(10)
H5 H 0.44990 0.25570 0.56140
H6 H 0.62440 0.21890 0.51870
H7 H 0.47760 0.11690 0.51490
O1D O 0.31224(13) 0.4780(1) 0.54957(8)
N1D N 0.45617(14) 0.51947(11) 0.53584(8)
C1D C 0.54587(16) 0.73783(13) 0.58100(9)
C2D C 0.53319(17) 0.60675(13) 0.60227(9)
C3D C 0.58128(18) 0.55385(14) 0.68662(10)
H1D H 0.56860 0.46400 0.69830
C4D C 0.64815(18) 0.63450(15) 0.75346(10)
H2D H 0.68390 0.60020 0.81130
C5D C 0.66251(18) 0.76573(15) 0.7353(1)
H3D H 0.70740 0.82150 0.78120
C6D C 0.61179(18) 0.81631(14) 0.65057(10)
H4D H 0.62220 0.90650 0.63970
C7D C 0.49397(19) 0.79123(14) 0.48847(10)
H5D H 0.55010 0.74430 0.43860
H6D H 0.37560 0.78110 0.48130
H7D H 0.52240 0.88310 0.48510
#END
