
#######################################################################
#
#                 Cambridge Crystallographic Data Centre
#                                CCDC
#
#######################################################################
#
# If this CIF has been generated from an entry in the Cambridge
# Structural Database, then it will include bibliographic, chemical,
# crystal, experimental, refinement or atomic coordinate data resulting
# from the CCDC's data processing and validation procedures.
#
#######################################################################

data_CSD_CIF_VIZZIP
_audit_creation_date 2014-02-14
_audit_creation_method CSD-ConQuest-V1
_database_code_CSD VIZZIP
_database_code_depnum_ccdc_archive 'CCDC 985960'
_chemical_formula_sum 'C8 H7 N3 O4'
_chemical_formula_moiety
;
C8 H7 N3 O4
;
_journal_coeditor_code "hg5382"
_journal_coden_Cambridge 1370
_journal_volume 70
_journal_year 2014
_journal_page_first o293
_journal_name_full 'Acta Crystallogr.,Sect.E:Struct.Rep.Online '
loop_
_publ_author_name
"C.Y.Jan"
"N.B.H.Shamsudin"
"A.L.Tan"
"D.J.Young"
"S.W.Ng"
"E.R.T.Tiekink"
_chemical_name_systematic
;
4-Nitrophthalamide
;
_cell_volume    872.188
_exptl_crystal_colour 'colorless'
_exptl_crystal_density_diffrn 1.593
_exptl_crystal_description 'prism'
_diffrn_ambient_temperature 100
#These two values have been output from a single CSD field.
_refine_ls_R_factor_gt 0.032
_refine_ls_wR_factor_gt 0.032
_symmetry_cell_setting monoclinic
_symmetry_space_group_name_H-M 'P 21/c'
_symmetry_Int_Tables_number 14
loop_
_symmetry_equiv_pos_site_id
_symmetry_equiv_pos_as_xyz
1 x,y,z
2 -x,1/2+y,1/2-z
3 -x,-y,-z
4 x,-1/2-y,-1/2+z
_cell_length_a 7.7425(2)
_cell_length_b 9.6634(2)
_cell_length_c 12.1276(3)
_cell_angle_alpha 90
_cell_angle_beta 106.008(3)
_cell_angle_gamma 90
_cell_formula_units_Z 4
loop_
_atom_type_symbol
_atom_type_radius_bond
C 0.68
H 0.23
N 0.68
O 0.68
loop_
_atom_site_label
_atom_site_type_symbol
_atom_site_fract_x
_atom_site_fract_y
_atom_site_fract_z
O1 O 0.61481(11) 0.80745(8) 0.55898(7)
O2 O 0.54207(13) 0.79742(9) 0.37347(8)
O3 O 1.04596(10) 0.17952(8) 0.51619(7)
O4 O 0.91323(12) 0.23508(8) 0.72189(7)
N1 N 0.60572(12) 0.74606(10) 0.46837(8)
N2 N 0.76591(13) 0.09066(10) 0.45344(8)
H1 H 0.6511(13) 0.1037(17) 0.4443(14)
H2 H 0.809(2) 0.0070(11) 0.4535(14)
N3 N 1.04060(14) 0.44255(10) 0.77908(8)
H3 H 1.096(2) 0.4063(17) 0.8462(10)
H4 H 1.050(2) 0.5306(10) 0.7667(13)
C1 C 0.67444(14) 0.60364(11) 0.47498(10)
C2 C 0.63660(14) 0.52513(12) 0.37619(10)
H5 H 0.566(2) 0.5640(18) 0.3011(14)
C3 C 0.70007(15) 0.38986(12) 0.38425(10)
H6 H 0.677(2) 0.3367(15) 0.3164(13)
C4 C 0.80132(14) 0.33683(11) 0.48911(9)
C5 C 0.83839(14) 0.41940(11) 0.58825(9)
C6 C 0.77318(15) 0.55445(11) 0.58101(10)
H7 H 0.795(2) 0.6102(16) 0.6473(13)
C7 C 0.88135(15) 0.19421(11) 0.49017(9)
C8 C 0.93594(14) 0.35831(11) 0.70270(9)
#END
