
#######################################################################
#
#                 Cambridge Crystallographic Data Centre
#                                CCDC
#
#######################################################################
#
# If this CIF has been generated from an entry in the Cambridge
# Structural Database, then it will include bibliographic, chemical,
# crystal, experimental, refinement or atomic coordinate data resulting
# from the CCDC's data processing and validation procedures.
#
#######################################################################

data_CSD_CIF_VOBBEV
_audit_creation_date 2014-02-14
_audit_creation_method CSD-ConQuest-V1
_database_code_CSD VOBBEV
_database_code_depnum_ccdc_archive 'CCDC 986204'
_chemical_formula_sum 'C16 H12 N2 O8'
_chemical_formula_moiety
;
C16 H12 N2 O8
;
_journal_coeditor_code "ff2126"
_journal_coden_Cambridge 1370
_journal_volume 70
_journal_year 2014
_journal_page_first o305
_journal_name_full 'Acta Crystallogr.,Sect.E:Struct.Rep.Online '
loop_
_publ_author_name
"R.L.Lehane"
"J.A.Golen"
"A.L.Rheingold"
"D.R.Manke"
_chemical_name_systematic
;
Dimethyl 2,2'-dinitrobiphenyl-4,4'-dicarboxylate
;
_cell_volume    757.713
_exptl_crystal_colour 'yellow'
_exptl_crystal_density_diffrn 1.579
_exptl_crystal_description 'BLOCK'
_diffrn_ambient_temperature 90
#These two values have been output from a single CSD field.
_refine_ls_R_factor_gt 0.0343
_refine_ls_wR_factor_gt 0.0343
_symmetry_cell_setting triclinic
_symmetry_space_group_name_H-M 'P -1'
_symmetry_Int_Tables_number 2
loop_
_symmetry_equiv_pos_site_id
_symmetry_equiv_pos_as_xyz
1 x,y,z
2 -x,-y,-z
_cell_length_a 8.0520(5)
_cell_length_b 10.4193(7)
_cell_length_c 10.5310(11)
_cell_angle_alpha 108.423(4)
_cell_angle_beta 95.142(4)
_cell_angle_gamma 111.617(3)
_cell_formula_units_Z 2
loop_
_atom_type_symbol
_atom_type_radius_bond
C 0.68
H 0.23
N 0.68
O 0.68
loop_
_atom_site_label
_atom_site_type_symbol
_atom_site_fract_x
_atom_site_fract_y
_atom_site_fract_z
O1 O 0.28379(14) -0.04398(11) 0.86338(10)
O2 O 0.02811(15) -0.01405(13) 0.81152(11)
O3 O 0.80395(15) 0.15657(14) 0.70622(13)
O4 O 0.80373(15) 0.23016(13) 0.53753(11)
O5 O 0.72326(16) 0.49239(12) 0.69694(11)
O6 O 0.93059(15) 0.61445(13) 0.61157(11)
O7 O 0.80462(15) 0.55730(12) 0.14341(11)
O8 O 0.56913(17) 0.35679(13) -0.01199(11)
N1 N 0.72907(16) 0.18850(13) 0.62186(13)
N2 N 0.78359(17) 0.51402(14) 0.59936(12)
C1 C 0.1936(2) -0.12748(18) 0.94307(16)
H1 H 0.28290 -0.14670 0.99490
H2 H 0.09430 -0.22240 0.88100
H3 H 0.14270 -0.06980 1.00720
C2 C 0.1814(2) 0.00368(16) 0.79992(15)
C3 C 0.2780(2) 0.07985(15) 0.71294(14)
C4 C 0.4574(2) 0.10299(15) 0.70668(14)
H4 H 0.52340 0.07170 0.76060
C5 C 0.53980(19) 0.17125(15) 0.62247(15)
C6 C 0.4489(2) 0.21904(15) 0.53960(15)
C7 C 0.2683(2) 0.19281(16) 0.54750(15)
H5 H 0.20040 0.22140 0.49190
C8 C 0.1845(2) 0.12668(16) 0.63336(15)
H6 H 0.06220 0.11320 0.63790
C9 C 0.5175(2) 0.28358(16) 0.43647(15)
C10 C 0.6699(2) 0.41620(16) 0.45972(15)
C11 C 0.7209(2) 0.46404(16) 0.35496(15)
H7 H 0.82840 0.55240 0.37400
C12 C 0.6138(2) 0.38191(16) 0.22211(15)
C13 C 0.4585(2) 0.25263(17) 0.19660(16)
H8 H 0.38330 0.19670 0.10600
C14 C 0.4123(2) 0.20443(16) 0.30184(15)
H9 H 0.30600 0.11490 0.28190
C15 C 0.6575(2) 0.42811(17) 0.10439(16)
C16 C 0.8490(3) 0.6119(2) 0.03466(17)
H10 H 0.95640 0.70830 0.07290
H11 H 0.74430 0.62400 -0.00620
H12 H 0.87650 0.54040 -0.03620
#END
