
#######################################################################
#
#                 Cambridge Crystallographic Data Centre
#                                CCDC
#
#######################################################################
#
# If this CIF has been generated from an entry in the Cambridge
# Structural Database, then it will include bibliographic, chemical,
# crystal, experimental, refinement or atomic coordinate data resulting
# from the CCDC's data processing and validation procedures.
#
#######################################################################

data_CSD_CIF_VOBPEH
_audit_creation_date 1992-04-28
_audit_creation_method CSD-ConQuest-V1
_database_code_CSD VOBPEH
_chemical_formula_sum 'C24 H21 N3 O1'
_chemical_formula_moiety
;
C24 H21 N3 O1
;
_journal_coeditor_code "IUCr AS0474"
_journal_coden_Cambridge 591
_journal_volume 47
_journal_year 1991
_journal_page_first 2193
_journal_name_full 'Acta Crystallogr.,Sect.C:Cryst.Struct.Commun. '
loop_
_publ_author_name
"K.Yamaguchi"
"T.Itoh"
"T.Kaihoh"
"A.Ohsawa"
_chemical_name_systematic
;
4,5,6-tris(p-Tolyl)-1,2,3-triazine 2-oxide
;
_cell_volume    499.367
_exptl_crystal_density_diffrn 1.222
_diffrn_ambient_temperature ?
_diffrn_special_details
;
The study was carried out at room temperature,in the range 283-303K

;
#These two values have been output from a single CSD field.
_refine_ls_R_factor_gt 0.039
_refine_ls_wR_factor_gt 0.039
_symmetry_cell_setting triclinic
_symmetry_space_group_name_H-M 'P 1'
_symmetry_Int_Tables_number 1
loop_
_symmetry_equiv_pos_site_id
_symmetry_equiv_pos_as_xyz
1 x,y,z
_cell_length_a 9.330(1)
_cell_length_b 10.073(1)
_cell_length_c 5.903(1)
_cell_angle_alpha 94.32(1)
_cell_angle_beta 98.62(1)
_cell_angle_gamma 113.01(1)
_cell_formula_units_Z 1
loop_
_atom_type_symbol
_atom_type_radius_bond
C 0.68
H 0.23
N 0.68
O 0.68
loop_
_atom_site_label
_atom_site_type_symbol
_atom_site_fract_x
_atom_site_fract_y
_atom_site_fract_z
N1 N 0.2535(4) 0.3151(4) 0.9953(7)
N2 N 0.2307(4) 0.2077(4) 0.8304(7)
N3 N 0.3405(4) 0.1967(4) 0.7202(7)
C1 C 0.4870(4) 0.3042(4) 0.7796(7)
C2 C 0.5257(4) 0.4231(4) 0.9508(7)
C3 C 0.4013(4) 0.4226(4) 1.0555(7)
O1 O 0.09510 0.10840 0.77420
C4 C 0.5972(4) 0.2766(4) 0.6441(7)
C5 C 0.5381(5) 0.2070(4) 0.4147(7)
C6 C 0.6324(5) 0.1686(5) 0.2895(8)
C7 C 0.7871(5) 0.1937(5) 0.3844(8)
C8 C 0.8458(5) 0.2647(5) 0.6140(9)
C9 C 0.7542(5) 0.3054(5) 0.7414(8)
C10 C 0.8867(8) 0.1447(8) 0.2528(11)
C11 C 0.6872(4) 0.5430(4) 1.0120(7)
C12 C 0.7431(5) 0.6406(4) 0.8591(8)
C13 C 0.8895(5) 0.7578(4) 0.9226(7)
C14 C 0.9857(5) 0.7784(5) 1.1366(8)
C15 C 0.9298(5) 0.6786(4) 1.2877(8)
C16 C 0.7836(5) 0.5626(5) 1.2273(8)
C17 C 1.1424(6) 0.9069(6) 1.2078(11)
C18 C 0.4096(5) 0.5357(5) 1.2416(8)
C19 C 0.5053(6) 0.6830(5) 1.2535(9)
C20 C 0.5039(7) 0.7846(5) 1.4253(9)
C21 C 0.4054(6) 0.7438(5) 1.5828(8)
C22 C 0.3126(6) 0.5979(6) 1.5723(9)
C23 C 0.3134(5) 0.4948(5) 1.4051(9)
C24 C 0.4045(13) 0.8573(8) 1.7628(11)
H1 H 0.428(5) 0.177(4) 0.343(7)
H2 H 0.588(5) 0.121(5) 0.124(9)
H3 H 0.953(6) 0.285(4) 0.678(8)
H4 H 0.804(5) 0.363(4) 0.898(8)
H5 H 0.671(4) 0.625(4) 0.709(7)
H6 H 0.929(5) 0.836(5) 0.811(8)
H7 H 1.000(5) 0.692(5) 1.445(8)
H8 H 0.738(5) 0.488(4) 1.340(7)
H9 H 0.585(5) 0.723(5) 1.138(8)
H10 H 0.563(5) 0.890(5) 1.431(8)
H11 H 0.241(5) 0.557(4) 1.676(8)
H12 H 0.243(5) 0.389(5) 1.404(8)
H13 H 0.927(8) 0.207(8) 0.102(13)
H14 H 0.994(11) 0.153(9) 0.350(14)
H15 H 0.827(10) 0.037(10) 0.188(14)
H16 H 1.124(8) 0.992(10) 1.217(13)
H17 H 1.191(10) 0.909(9) 1.334(16)
H18 H 1.214(9) 0.911(8) 1.102(14)
H19 H 0.385(6) 0.934(6) 1.710(9)
H20 H 0.340(8) 0.808(8) 1.852(14)
H21 H 0.518(9) 0.909(7) 1.870(14)
#END
