
#######################################################################
#
#                 Cambridge Crystallographic Data Centre
#                                CCDC
#
#######################################################################
#
# If this CIF has been generated from an entry in the Cambridge
# Structural Database, then it will include bibliographic, chemical,
# crystal, experimental, refinement or atomic coordinate data resulting
# from the CCDC's data processing and validation procedures.
#
#######################################################################

data_CSD_CIF_VOBTOV01
_audit_creation_date 2003-08-07
_audit_creation_method CSD-ConQuest-V1
_database_code_CSD VOBTOV01
_database_code_depnum_ccdc_archive 'CCDC 196900'
_chemical_formula_sum 'C8 H9 N1 O1'
_chemical_formula_moiety
;
C8 H9 N1 O1
;
_journal_coden_Cambridge 177
_journal_volume 1
_journal_year 2003
_journal_page_first 1034
_journal_name_full 'Org.Biomol.Chem. '
loop_
_publ_author_name
"D.E.Hibbs"
"J.R.Hanrahan"
"M.B.Hursthouse"
"D.W.Knight"
"J.Overgaard"
"P.Turner"
"R.O.Piltz"
"M.P.Waller"
_chemical_name_systematic
;
(Z)-N-Methyl-C-phenylnitrone
;
_cell_volume   1414.393
_exptl_crystal_colour 'colorless'
_exptl_crystal_density_diffrn 1.27
_exptl_crystal_description 'block'
_exptl_crystal_preparation 'ethyl acetate/hexane(1'
_diffrn_ambient_temperature 100
_diffrn_special_details
;
charge density study

;
_refine_special_details
;
multipole refinement

;
#These two values have been output from a single CSD field.
_refine_ls_R_factor_gt 0.0388
_refine_ls_wR_factor_gt 0.0388
_symmetry_cell_setting orthorhombic
_symmetry_space_group_name_H-M 'P b c a'
_symmetry_Int_Tables_number 61
loop_
_symmetry_equiv_pos_site_id
_symmetry_equiv_pos_as_xyz
1 x,y,z
2 1/2-x,-y,1/2+z
3 1/2+x,1/2-y,-z
4 -x,1/2+y,1/2-z
5 -x,-y,-z
6 -1/2+x,y,-1/2-z
7 -1/2-x,-1/2+y,z
8 x,-1/2-y,-1/2+z
_cell_length_a 9.5444(2)
_cell_length_b 7.7466(2)
_cell_length_c 19.1298(4)
_cell_angle_alpha 90
_cell_angle_beta 90
_cell_angle_gamma 90
_cell_formula_units_Z 8
loop_
_atom_type_symbol
_atom_type_radius_bond
C 0.68
H 0.23
N 0.68
O 0.68
loop_
_atom_site_label
_atom_site_type_symbol
_atom_site_fract_x
_atom_site_fract_y
_atom_site_fract_z
O1 O 0.24075(4) 0.11384(6) 0.45928(2)
N1 N 0.12344(3) 0.19574(4) 0.46480(2)
C1 C 0.08022(4) 0.28907(4) 0.40140(2)
C2 C 0.04540(3) 0.20285(4) 0.52103(2)
C3 C 0.07825(3) 0.12770(3) 0.58864(2)
C4 C 0.19496(3) 0.02274(3) 0.60329(2)
C5 C 0.21854(3) -0.03474(4) 0.67140(2)
C6 C 0.12766(4) 0.01072(4) 0.72539(2)
C7 C 0.00953(4) 0.11116(4) 0.71097(2)
C8 C -0.01519(3) 0.16858(4) 0.64317(2)
H1 H 0.15501 0.39350 0.39356
H2 H -0.02439 0.34043 0.40746
H3 H 0.08311 0.19752 0.35806
H4 H -0.05228 0.27449 0.51618
H5 H 0.26479 -0.01258 0.56132
H6 H 0.30863 -0.11595 0.68229
H7 H 0.14809 -0.03237 0.77840
H8 H -0.06404 0.14569 0.75259
H9 H -0.10656 0.24663 0.63115
#END
