
#######################################################################
#
#                 Cambridge Crystallographic Data Centre
#                                CCDC
#
#######################################################################
#
# If this CIF has been generated from an entry in the Cambridge
# Structural Database, then it will include bibliographic, chemical,
# crystal, experimental, refinement or atomic coordinate data resulting
# from the CCDC's data processing and validation procedures.
#
#######################################################################

data_CSD_CIF_VOBZOD
_audit_creation_date 2014-02-15
_audit_creation_method CSD-ConQuest-V1
_database_code_CSD VOBZOD
_database_code_depnum_ccdc_archive 'CCDC 940820'
_chemical_formula_sum 'C12 H10 N8 O14'
_chemical_formula_moiety
;
C12 H10 N8 O14
;
_journal_coden_Cambridge 1220
_journal_volume 20
_journal_year 2014
_journal_page_first 1410
_journal_name_full 'Chem.-Eur.J. '
loop_
_publ_author_name
"M.Weyrauther"
"N.Mayr"
"T.M.Klapoetke"
"J.Stierstorfer"
_chemical_name_systematic
;
Diethyl 2,2'-(3,3'-bi-1,2,4-oxadiazole-5,5'-diyl)bis(dinitroacetate)
;
_cell_volume   1005.286
_exptl_crystal_colour 'colorless'
_exptl_crystal_density_diffrn 1.62
_exptl_crystal_description 'plate'
_diffrn_ambient_temperature 173
#These two values have been output from a single CSD field.
_refine_ls_R_factor_gt 0.0354
_refine_ls_wR_factor_gt 0.0354
_symmetry_cell_setting monoclinic
_symmetry_space_group_name_H-M 'P 21/n'
_symmetry_Int_Tables_number 14
loop_
_symmetry_equiv_pos_site_id
_symmetry_equiv_pos_as_xyz
1 x,y,z
2 1/2-x,1/2+y,1/2-z
3 -x,-y,-z
4 -1/2+x,-1/2-y,-1/2+z
_cell_length_a 10.4829(18)
_cell_length_b 7.2700(7)
_cell_length_c 13.740(2)
_cell_angle_alpha 90
_cell_angle_beta 106.253(19)
_cell_angle_gamma 90
_cell_formula_units_Z 2
loop_
_atom_type_symbol
_atom_type_radius_bond
C 0.68
H 0.23
N 0.68
O 0.68
loop_
_atom_site_label
_atom_site_type_symbol
_atom_site_fract_x
_atom_site_fract_y
_atom_site_fract_z
O1 O 0.27998(19) -0.0352(2) 0.56159(16)
O2 O 0.5017(2) 0.2777(2) 0.81431(17)
O3 O 0.50714(18) 0.0200(2) 0.72372(15)
N1 N 0.1272(2) 0.1726(3) 0.56869(19)
O4 O 0.2459(2) 0.4278(3) 0.72548(17)
C1 C 0.3667(3) 0.2550(4) 0.6408(2)
O5 O 0.3333(2) 0.5723(3) 0.62093(19)
N2 N 0.4449(3) 0.2957(4) 0.5645(2)
N3 N 0.1557(2) -0.1144(3) 0.5126(2)
C2 C 0.2509(3) 0.1326(3) 0.5908(2)
O6 O 0.5588(2) 0.3466(3) 0.59996(19)
C3 C 0.4677(3) 0.1863(4) 0.7399(3)
N4 N 0.3097(3) 0.4375(3) 0.6638(2)
O7 O 0.3863(2) 0.2777(3) 0.4761(2)
C4 C 0.6024(4) -0.0717(5) 0.8106(3)
C5 C 0.0715(3) 0.0127(4) 0.5204(2)
C6 C 0.6437(5) -0.2442(6) 0.7711(4)
H1 H 0.704(3) -0.314(3) 0.828(2)
H2 H 0.551(3) -0.081(4) 0.857(2)
H3 H 0.678(3) 0.017(3) 0.838(2)
H4 H 0.569(3) -0.327(3) 0.750(2)
H5 H 0.694(4) -0.213(5) 0.726(4)
O1B O -0.27998(19) 0.0352(2) 0.43841(16)
O2B O -0.5017(2) -0.2777(2) 0.18569(17)
O3B O -0.50714(18) -0.0200(2) 0.27628(15)
N1B N -0.1272(2) -0.1726(3) 0.43131(19)
O4B O -0.2459(2) -0.4278(3) 0.27452(17)
C1B C -0.3667(3) -0.2550(4) 0.3592(2)
O5B O -0.3333(2) -0.5723(3) 0.37907(19)
N2B N -0.4449(3) -0.2957(4) 0.4355(2)
N3B N -0.1557(2) 0.1144(3) 0.4874(2)
C2B C -0.2509(3) -0.1326(3) 0.4092(2)
O6B O -0.5588(2) -0.3466(3) 0.40004(19)
C3B C -0.4677(3) -0.1863(4) 0.2601(3)
N4B N -0.3097(3) -0.4375(3) 0.3362(2)
O7B O -0.3863(2) -0.2777(3) 0.5239(2)
C4B C -0.6024(4) 0.0717(5) 0.1894(3)
C5B C -0.0715(3) -0.0127(4) 0.4796(2)
C6B C -0.6437(5) 0.2442(6) 0.2289(4)
H1B H -0.704(3) 0.314(3) 0.172(2)
H2B H -0.551(3) 0.081(4) 0.143(2)
H3B H -0.678(3) -0.017(3) 0.162(2)
H4B H -0.569(3) 0.327(3) 0.250(2)
H5B H -0.694(4) 0.213(5) 0.274(4)
#END
