
#######################################################################
#
#                 Cambridge Crystallographic Data Centre
#                                CCDC
#
#######################################################################
#
# If this CIF has been generated from an entry in the Cambridge
# Structural Database, then it will include bibliographic, chemical,
# crystal, experimental, refinement or atomic coordinate data resulting
# from the CCDC's data processing and validation procedures.
#
#######################################################################

data_CSD_CIF_VOCHUR
_audit_creation_date 2008-08-21
_audit_creation_method CSD-ConQuest-V1
_database_code_CSD VOCHUR
_database_code_depnum_ccdc_archive 'CCDC 693715'
_chemical_formula_sum 'C9 H12 N6 O5'
_chemical_formula_moiety
;
C9 H12 N6 O5
;
_journal_coden_Cambridge 82
_journal_volume 48
_journal_year 2007
_journal_page_first 178
_journal_name_full 'Zh.Strukt.Khim.(Russ.)(J.Struct.Chem.) '
loop_
_publ_author_name
"V.V.Bakharev"
"A.A.Gidaspov"
"E.A.Kosareva"
_chemical_name_systematic
;
2-(Piperidiniumylidene)-4-(dinitromethyl)-1,3,5-triazin(1H,5H)-6-one
;
_cell_volume   1209.903
_exptl_crystal_colour 'colorless'
_exptl_crystal_density_diffrn 1.56
_exptl_crystal_description 'cube'
_exptl_crystal_preparation 'methanol/water'
_diffrn_ambient_temperature 295
#These two values have been output from a single CSD field.
_refine_ls_R_factor_gt 0.05
_refine_ls_wR_factor_gt 0.05
_symmetry_cell_setting monoclinic
_symmetry_space_group_name_H-M 'P 21/n'
_symmetry_Int_Tables_number 14
loop_
_symmetry_equiv_pos_site_id
_symmetry_equiv_pos_as_xyz
1 x,y,z
2 1/2-x,1/2+y,1/2-z
3 -x,-y,-z
4 -1/2+x,-1/2-y,-1/2+z
_cell_length_a 11.526(1)
_cell_length_b 9.211(1)
_cell_length_c 12.182(1)
_cell_angle_alpha 90
_cell_angle_beta 110.69(1)
_cell_angle_gamma 90
_cell_formula_units_Z 4
loop_
_atom_type_symbol
_atom_type_radius_bond
C 0.68
H 0.23
N 0.68
O 0.68
loop_
_atom_site_label
_atom_site_type_symbol
_atom_site_fract_x
_atom_site_fract_y
_atom_site_fract_z
O1 O 0.35654(3) 0.76948(4) 0.82195(4)
O2 O 0.06843(3) 0.63270(4) 0.96022(4)
N1 N 0.22556(3) 0.58192(4) 0.89516(3)
N2 N 0.41642(4) 0.66556(5) 0.80146(4)
N3 N 0.31660(3) 0.34940(4) 0.92324(3)
N4 N 0.14883(3) 0.40502(4) 0.98395(4)
N5 N 0.47605(4) 0.41717(4) 0.81259(4)
O3 O 0.49308(4) 0.68380(4) 0.75182(4)
C1 C 0.31115(4) 0.48480(5) 0.88580(4)
N6 N 0.23543(4) 0.17357(4) 1.00875(4)
O4 O 0.58131(4) 0.40643(5) 0.87905(4)
C2 C 0.14242(4) 0.54595(5) 0.94715(4)
O5 O 0.43369(4) 0.34075(5) 0.72778(4)
C3 C 0.23412(4) 0.30791(5) 0.97160(4)
C4 C 0.39636(4) 0.52825(5) 0.83391(4)
C5 C 0.31644(5) 0.06217(6) 0.98579(5)
C6 C 0.38706(5) -0.01946(6) 1.09510(6)
C7 C 0.15194(5) 0.11543(6) 1.06563(6)
C8 C 0.22239(7) 0.03522(7) 1.17448(7)
C9 C 0.30361(6) -0.08021(7) 1.15517(6)
H1 H 0.08313 0.37210 1.00400
H2 H 0.22770 0.67766 0.86950
H3 H 0.43215 -0.09550 1.07390
H4 H 0.11591 0.19572 1.09245
H5 H 0.37934 0.11997 0.97215
H6 H 0.17095 -0.00500 1.21407
H7 H 0.44875 0.04310 1.14720
H8 H 0.26144 -0.00453 0.93135
H9 H 0.25045 -0.15198 1.10498
H10 H 0.10531 0.05322 1.00225
H11 H 0.35465 -0.12008 1.22938
H12 H 0.27105 0.11300 1.22057
#END
