
#######################################################################
#
#                 Cambridge Crystallographic Data Centre
#                                CCDC
#
#######################################################################
#
# If this CIF has been generated from an entry in the Cambridge
# Structural Database, then it will include bibliographic, chemical,
# crystal, experimental, refinement or atomic coordinate data resulting
# from the CCDC's data processing and validation procedures.
#
#######################################################################

data_CSD_CIF_VODQEK
_audit_creation_date 2001-12-11
_audit_creation_method CSD-ConQuest-V1
_database_code_CSD VODQEK
_database_code_depnum_ccdc_archive 'CCDC 155923'
_chemical_formula_sum 'C16 H17 N1 O4'
_chemical_formula_moiety
;
C16 H17 N1 O4
;
_journal_coden_Cambridge 1088
_journal_volume 2001
_journal_year 2001
_journal_page_first 424
_journal_name_full 'Synlett '
loop_
_publ_author_name
"T.Novak"
"J.Tatai"
"P.Bako"
"M.Czugler"
"G.Keglevich"
"L.Toke"
_chemical_name_systematic
;
(+)-(S)-3-(furan-2-yl)-4-methyl-4-nitro-1-phenylpentan-1-one
;
_cell_volume    759.235
_exptl_crystal_colour 'colorless'
_exptl_crystal_density_diffrn 1.257
_exptl_special_details
;
Absolute configuration

;
_exptl_crystal_description 'prism'
_diffrn_ambient_temperature 295
#These two values have been output from a single CSD field.
_refine_ls_R_factor_gt 0.0381
_refine_ls_wR_factor_gt 0.0381
loop_
_citation_database_id_CSD
_citation_special_details
BAWJIT "is a racemate of this entry"
_symmetry_cell_setting monoclinic
_symmetry_space_group_name_H-M 'P 21'
_symmetry_Int_Tables_number 4
loop_
_symmetry_equiv_pos_site_id
_symmetry_equiv_pos_as_xyz
1 x,y,z
2 -x,1/2+y,-z
_cell_length_a 5.839(1)
_cell_length_b 11.350(1)
_cell_length_c 11.464(1)
_cell_angle_alpha 90
_cell_angle_beta 92.11(1)
_cell_angle_gamma 90
_cell_formula_units_Z 2
loop_
_atom_type_symbol
_atom_type_radius_bond
C 0.68
H 0.23
N 0.68
O 0.68
loop_
_atom_site_label
_atom_site_type_symbol
_atom_site_fract_x
_atom_site_fract_y
_atom_site_fract_z
O1 O 0.4283(2) 0.12911(13) 0.78655(11)
O2 O 0.6286(3) -0.16607(12) 0.70733(12)
O3 O 0.5092(2) -0.11993(16) 0.43553(17)
O4 O 0.8480(3) -0.18460(14) 0.44271(19)
N1 N 0.7119(2) -0.10617(13) 0.45338(11)
C1 C 0.6050(3) 0.18227(13) 0.77049(12)
C2 C 0.7659(2) 0.14541(12) 0.67658(12)
H1 H 0.92050 0.14000 0.71010
H2 H 0.76520 0.20520 0.61610
C3 C 0.6985(2) 0.02662(12) 0.62174(11)
H3 H 0.53090 0.02450 0.61320
C4 C 0.7954(2) 0.01531(12) 0.49751(12)
C5 C 0.7709(3) -0.07207(13) 0.70010(13)
C6 C 0.7358(5) -0.24518(19) 0.78140(19)
H4 H 0.67540 -0.31780 0.80200
C7 C 0.9335(5) -0.2048(2) 0.81891(18)
H5 H 1.03760 -0.24250 0.86970
C8 C 0.9598(4) -0.09220(18) 0.76741(18)
H6 H 1.08430 -0.04180 0.77820
C9 C 0.6653(3) 0.28976(14) 0.84020(12)
C10 C 0.8647(4) 0.35337(17) 0.82490(15)
H7 H 0.96930 0.32790 0.77110
C11 C 0.9092(5) 0.4550(2) 0.88958(19)
H8 H 1.04180 0.49810 0.87790
C12 C 0.7574(5) 0.49153(19) 0.97057(17)
H9 H 0.78760 0.55930 1.01400
C13 C 0.5605(5) 0.4282(3) 0.9878(2)
H10 H 0.45850 0.45280 1.04330
C14 C 0.5149(4) 0.3285(2) 0.92285(18)
H11 H 0.38100 0.28640 0.93450
C15 C 1.0536(3) 0.0176(2) 0.49512(18)
H12 H 1.10050 0.00240 0.41720
H13 H 1.11600 -0.04170 0.54680
H14 H 1.10850 0.09370 0.51980
C16 C 0.6871(4) 0.10452(16) 0.41310(15)
H15 H 0.74940 0.18130 0.42950
H16 H 0.52430 0.10600 0.42210
H17 H 0.71920 0.08260 0.33450
#END
