
#######################################################################
#
#                 Cambridge Crystallographic Data Centre
#                                CCDC
#
#######################################################################
#
# If this CIF has been generated from an entry in the Cambridge
# Structural Database, then it will include bibliographic, chemical,
# crystal, experimental, refinement or atomic coordinate data resulting
# from the CCDC's data processing and validation procedures.
#
#######################################################################

data_CSD_CIF_VOFRIS
_audit_creation_date 2009-01-06
_audit_creation_method CSD-ConQuest-V1
_database_code_CSD VOFRIS
_database_code_depnum_ccdc_archive 'CCDC 633435'
_chemical_formula_sum 'C16 H21 N1 O3'
_chemical_formula_moiety
;
C16 H21 N1 O3
;
_journal_coden_Cambridge 1291
_journal_year 2008
_journal_page_first 3943
_journal_name_full 'Eur.J.Org.Chem. '
loop_
_publ_author_name
"P.Merino"
"V.Mannucci"
"T.Tejero"
_chemical_name_systematic
;
(2R,4S,6S)-2-((S)-2,2-Dimethyl-1,3-dioxolan-4-yl)-6-phenyl-7-oxa-1-aza-bicyclo
(2.2.1)heptane
;
_chemical_melting_point 373
_cell_volume   1503.664
_exptl_crystal_colour 'colorless'
_exptl_crystal_density_diffrn 1.216
_exptl_crystal_description 'Prism'
_diffrn_ambient_temperature 293
#These two values have been output from a single CSD field.
_refine_ls_R_factor_gt 0.0367
_refine_ls_wR_factor_gt 0.0367
loop_
_citation_database_id_CSD
_citation_special_details
VOJMAJ "is a stereoisomer of this entry"
_symmetry_cell_setting orthorhombic
_symmetry_space_group_name_H-M 'P 21 21 21'
_symmetry_Int_Tables_number 19
loop_
_symmetry_equiv_pos_site_id
_symmetry_equiv_pos_as_xyz
1 x,y,z
2 1/2-x,-y,1/2+z
3 1/2+x,1/2-y,-z
4 -x,1/2+y,1/2-z
_cell_length_a 6.264(1)
_cell_length_b 11.692(2)
_cell_length_c 20.531(3)
_cell_angle_alpha 90
_cell_angle_beta 90
_cell_angle_gamma 90
_cell_formula_units_Z 4
loop_
_atom_type_symbol
_atom_type_radius_bond
C 0.68
H 0.23
N 0.68
O 0.68
loop_
_atom_site_label
_atom_site_type_symbol
_atom_site_fract_x
_atom_site_fract_y
_atom_site_fract_z
N1 N 0.4620(3) 0.72938(16) 0.76273(9)
O1 O -0.0075(4) 0.79486(18) 0.94061(10)
C1 C 0.0699(5) 0.8976(2) 0.91116(13)
C2 C -0.1187(7) 0.9713(4) 0.8947(2)
H1 H -0.073(7) 1.040(4) 0.8751(18)
H2 H -0.194(6) 0.991(4) 0.933(2)
H3 H -0.217(8) 0.938(4) 0.862(2)
C3 C 0.2324(10) 0.9566(5) 0.9546(3)
H4 H 0.155(6) 0.981(4) 0.993(2)
H5 H 0.283(9) 1.027(6) 0.933(3)
H6 H 0.372(10) 0.907(5) 0.965(2)
O2 O 0.1736(4) 0.86119(17) 0.85240(9)
C4 C 0.1419(7) 0.7069(3) 0.92330(16)
H7 H 0.061(5) 0.638(3) 0.9250(14)
H8 H 0.269(6) 0.710(3) 0.9545(16)
O3 O 0.3814(3) 0.62078(15) 0.73639(9)
C5 C 0.2055(5) 0.7400(2) 0.85366(13)
H9 H 0.108(5) 0.704(3) 0.8219(14)
C6 C 0.4309(5) 0.7079(2) 0.83429(11)
H10 H 0.529(4) 0.7557(18) 0.857(1)
C7 C 0.4737(7) 0.5768(3) 0.84232(16)
H11 H 0.594(5) 0.565(3) 0.8704(14)
H12 H 0.349(6) 0.536(3) 0.8605(16)
C8 C 0.5243(6) 0.5446(2) 0.77227(15)
H13 H 0.488(6) 0.468(3) 0.7577(14)
C9 C 0.7413(6) 0.5870(2) 0.75154(18)
H14 H 0.777(5) 0.559(3) 0.7086(14)
H15 H 0.848(5) 0.573(3) 0.7841(14)
C10 C 0.6950(4) 0.7192(2) 0.74692(12)
H16 H 0.774(4) 0.7643(19) 0.7809(10)
C11 C 0.7515(4) 0.76873(19) 0.68070(12)
C12 C 0.9545(5) 0.8145(2) 0.67046(15)
H17 H 1.041(5) 0.820(2) 0.7078(13)
C13 C 1.0118(6) 0.8577(3) 0.60934(17)
H18 H 1.147(7) 0.886(3) 0.6047(17)
C14 C 0.8682(6) 0.8561(3) 0.55844(16)
H19 H 0.911(5) 0.888(3) 0.5172(15)
C15 C 0.6670(6) 0.8115(3) 0.56784(14)
H20 H 0.573(6) 0.807(3) 0.5333(15)
C16 C 0.6075(5) 0.7672(2) 0.62853(13)
H21 H 0.476(5) 0.734(2) 0.6356(13)
#END
