
#######################################################################
#
#                 Cambridge Crystallographic Data Centre
#                                CCDC
#
#######################################################################
#
# If this CIF has been generated from an entry in the Cambridge
# Structural Database, then it will include bibliographic, chemical,
# crystal, experimental, refinement or atomic coordinate data resulting
# from the CCDC's data processing and validation procedures.
#
#######################################################################

data_CSD_CIF_VOHVUL
_audit_creation_date 2014-08-21
_audit_creation_method CSD-ConQuest-V1
_database_code_CSD VOHVUL
_database_code_depnum_ccdc_archive 'CCDC 970292'
_chemical_formula_sum 'C30 H21 N3 O5'
_chemical_formula_moiety
;
C30 H21 N3 O5
;
_journal_coden_Cambridge 1501
_journal_volume 16
_journal_year 2014
_journal_page_first 139
_journal_name_full 'ACS Comb. Sci. '
loop_
_publ_author_name
"Jin-Ming Yang"
"Yu Hu"
"Qiang Li"
"Fan Yu"
"Jian Cao"
"Dong Fang"
"Zhi-Bin Huang"
"Da-Qing Shi"
_chemical_name_systematic
;
1'-methyl-4'-(2-nitrophenyl)-2''-phenyl-2H-dispiro[acenaphthylene-1,2'-pyrroli
dine-3',4''-[1,3]oxazole]-2,5''-dione
;
_cell_volume   1226.099
_exptl_crystal_colour 'yellow'
_exptl_crystal_density_diffrn 1.364
_exptl_crystal_description 'block'
_diffrn_ambient_temperature 223
#These two values have been output from a single CSD field.
_refine_ls_R_factor_gt 0.0452
_refine_ls_wR_factor_gt 0.0452
_symmetry_cell_setting triclinic
_symmetry_space_group_name_H-M 'P -1'
_symmetry_Int_Tables_number 2
loop_
_symmetry_equiv_pos_site_id
_symmetry_equiv_pos_as_xyz
1 x,y,z
2 -x,-y,-z
_cell_length_a 7.8331(13)
_cell_length_b 10.443(2)
_cell_length_c 16.690(3)
_cell_angle_alpha 101.953(3)
_cell_angle_beta 94.064(3)
_cell_angle_gamma 111.538(4)
_cell_formula_units_Z 2
loop_
_atom_type_symbol
_atom_type_radius_bond
C 0.68
H 0.23
N 0.68
O 0.68
loop_
_atom_site_label
_atom_site_type_symbol
_atom_site_fract_x
_atom_site_fract_y
_atom_site_fract_z
O1 O -0.11830(14) 0.20108(11) 0.16044(6)
O2 O -0.30988(15) 0.24224(11) 0.24714(7)
O3 O 0.2639(2) 0.67604(14) 0.38083(11)
O4 O 0.0865(2) 0.48809(15) 0.28683(10)
O5 O 0.04484(16) -0.06267(12) 0.36091(7)
N1 N 0.05097(17) 0.11769(12) 0.23537(7)
N2 N -0.22504(17) 0.08049(12) 0.40046(7)
N3 N 0.2165(2) 0.55124(15) 0.34482(11)
C1 C -0.1887(2) 0.20170(15) 0.23428(9)
C2 C -0.0784(2) 0.14764(14) 0.28797(9)
C3 C 0.0246(2) 0.15386(14) 0.16904(9)
C4 C 0.1340(2) 0.15701(14) 0.10150(9)
C5 C 0.0808(2) 0.18422(16) 0.02778(9)
H1 H -0.02850 0.20090 0.01980
C6 C 0.1909(3) 0.18649(19) -0.03433(10)
H2 H 0.15630 0.20540 -0.08430
C7 C 0.3496(3) 0.16126(19) -0.02277(11)
H3 H 0.42160 0.16050 -0.06550
C8 C 0.4043(3) 0.13695(19) 0.05109(11)
H4 H 0.51490 0.12200 0.05910
C9 C 0.2968(2) 0.13451(17) 0.11319(10)
H5 H 0.33390 0.11760 0.16340
C10 C 0.0225(2) 0.26554(15) 0.37158(9)
H6 H -0.02720 0.34070 0.37450
C11 C -0.0445(2) 0.19087(16) 0.44023(9)
H7 H 0.04100 0.14960 0.45810
H8 H -0.05660 0.25700 0.48840
C12 C -0.3076(2) -0.01914(18) 0.45025(10)
H9 H -0.23040 -0.07160 0.45760
H10 H -0.43100 -0.08500 0.42220
H11 H -0.31620 0.03300 0.50410
C13 C -0.2036(2) 0.01523(14) 0.31743(9)
C14 C 0.2312(2) 0.33566(15) 0.37860(9)
C15 C 0.3234(2) 0.47311(16) 0.37012(10)
C16 C 0.5154(2) 0.54181(18) 0.38287(11)
H12 H 0.57160 0.63630 0.37890
C17 C 0.6219(2) 0.46968(19) 0.40133(11)
H13 H 0.75230 0.51400 0.40920
C18 C 0.5371(2) 0.33176(18) 0.40827(10)
H14 H 0.61010 0.28190 0.42010
C19 C 0.3454(2) 0.26661(17) 0.39784(9)
H15 H 0.29040 0.17330 0.40390
C20 C -0.0985(2) -0.08927(15) 0.31633(9)
C21 C -0.2163(2) -0.22565(15) 0.25708(9)
C22 C -0.1947(3) -0.35231(17) 0.23253(11)
H16 H -0.08450 -0.36140 0.25090
C23 C -0.3424(3) -0.46698(18) 0.17935(13)
H17 H -0.32800 -0.55320 0.16050
C24 C -0.5066(3) -0.45866(18) 0.15374(12)
H18 H -0.60220 -0.53900 0.11840
C25 C -0.5355(2) -0.33115(16) 0.1794(1)
C26 C -0.7000(3) -0.30747(19) 0.16250(12)
H19 H -0.80520 -0.38040 0.12780
C27 C -0.7053(2) -0.17895(19) 0.19652(12)
H20 H -0.81630 -0.16600 0.18530
C28 C -0.5510(2) -0.06406(17) 0.24802(10)
H21 H -0.56050 0.02260 0.27150
C29 C -0.3879(2) -0.08111(15) 0.26314(9)
C30 C -0.3835(2) -0.21530(15) 0.22994(9)
#END
