
#######################################################################
#
#                 Cambridge Crystallographic Data Centre
#                                CCDC
#
#######################################################################
#
# If this CIF has been generated from an entry in the Cambridge
# Structural Database, then it will include bibliographic, chemical,
# crystal, experimental, refinement or atomic coordinate data resulting
# from the CCDC's data processing and validation procedures.
#
#######################################################################

data_CSD_CIF_VOHYAT
_audit_creation_date 2009-01-06
_audit_creation_method CSD-ConQuest-V1
_database_code_CSD VOHYAT
_database_code_depnum_ccdc_archive 'CCDC 712399'
_chemical_formula_sum 'C18 H20 N4 O4'
_chemical_formula_moiety
;
C18 H20 N4 O4
;
_journal_coeditor_code "IUCr IS2354"
_journal_coden_Cambridge 1370
_journal_volume 64
_journal_year 2008
_journal_page_first o2286
_journal_name_full 'Acta Crystallogr.,Sect.E:Struct.Rep.Online '
loop_
_publ_author_name
"H.-K.Fun"
"A.Adhikari"
"P.S.Patil"
"B.Kalluraya"
"S.Chantrapromma"
_chemical_name_systematic
;
Ethyl 2-((E)-4-(dimethylamino)benzylidenehydrazino)-5-nitrobenzoate
;
_chemical_melting_point 439
_cell_volume   1714.558
_exptl_crystal_colour 'red'
_exptl_crystal_density_diffrn 1.381
_exptl_crystal_description 'Block'
_exptl_crystal_preparation 'ethanol'
_diffrn_ambient_temperature 100.00
#These two values have been output from a single CSD field.
_refine_ls_R_factor_gt 0.0383
_refine_ls_wR_factor_gt 0.0383
_symmetry_cell_setting monoclinic
_symmetry_space_group_name_H-M 'P 21/c'
_symmetry_Int_Tables_number 14
loop_
_symmetry_equiv_pos_site_id
_symmetry_equiv_pos_as_xyz
1 x,y,z
2 -x,1/2+y,1/2-z
3 -x,-y,-z
4 x,-1/2-y,-1/2+z
_cell_length_a 10.8216(4)
_cell_length_b 15.9175(6)
_cell_length_c 10.4136(4)
_cell_angle_alpha 90
_cell_angle_beta 107.091(2)
_cell_angle_gamma 90
_cell_formula_units_Z 4
loop_
_atom_type_symbol
_atom_type_radius_bond
C 0.68
H 0.23
N 0.68
O 0.68
loop_
_atom_site_label
_atom_site_type_symbol
_atom_site_fract_x
_atom_site_fract_y
_atom_site_fract_z
O1 O 0.79559(10) 0.52119(6) -0.07387(11)
O2 O 0.69063(9) 0.41140(6) -0.17045(10)
O3 O 0.81387(8) 0.14041(5) -0.00146(9)
O4 O 0.93830(9) 0.11554(6) 0.20957(9)
N1 N 1.11000(9) 0.28501(7) 0.47925(10)
N2 N 1.03176(10) 0.24883(7) 0.36376(10)
N3 N 1.51942(11) 0.31448(7) 1.07252(11)
N4 N 0.77246(10) 0.44519(7) -0.07681(11)
C1 C 1.27580(12) 0.33820(8) 0.74183(12)
H1 H 1.23080 0.38100 0.68680
C2 C 1.36107(12) 0.35818(8) 0.86484(12)
H2 H 1.37240 0.41410 0.89150
C3 C 1.43165(11) 0.29502(8) 0.95126(12)
C4 C 1.40814(11) 0.21103(8) 0.90855(12)
H3 H 1.45110 0.16790 0.96410
C5 C 1.32196(11) 0.19195(8) 0.78513(12)
H4 H 1.30780 0.13600 0.75940
C6 C 1.25546(11) 0.25480(8) 0.69791(12)
C7 C 1.16926(11) 0.23101(8) 0.56787(12)
H5 H 1.15630 0.17420 0.54770
C8 C 0.97180(11) 0.29570(8) 0.25563(12)
C9 C 0.89357(11) 0.25738(8) 0.13494(12)
C10 C 0.82866(11) 0.30810(8) 0.02772(12)
H6 H 0.77500 0.28390 -0.05000
C11 C 0.84340(11) 0.39425(8) 0.03584(12)
C12 C 0.92453(12) 0.43263(8) 0.15043(13)
H7 H 0.93620 0.49060 0.15310
C13 C 0.98667(12) 0.38414(8) 0.25861(13)
H8 H 1.03960 0.40970 0.33550
C14 C 0.88536(11) 0.16499(8) 0.12145(12)
C15 C 0.80366(13) 0.05029(8) -0.02550(13)
H9 H 0.88310 0.02330 0.02620
H10 H 0.79260 0.03940 -0.11990
C16 C 0.69201(16) 0.01346(9) 0.01292(16)
H11 H 0.68760 -0.04590 -0.00450
H12 H 0.61320 0.03960 -0.03890
H13 H 0.70380 0.02300 0.10680
C17 C 1.57956(12) 0.24807(9) 1.16534(13)
H14 H 1.62590 0.21110 1.12300
H15 H 1.51410 0.21690 1.19020
H16 H 1.63850 0.27220 1.24420
C18 C 1.53899(13) 0.40099(8) 1.11646(13)
H17 H 1.56510 0.43340 1.05110
H18 H 1.60510 0.40370 1.20120
H19 H 1.45980 0.42330 1.12620
H20 H 1.0273(15) 0.1942(11) 0.3542(16)
#END
