
#######################################################################
#
#                 Cambridge Crystallographic Data Centre
#                                CCDC
#
#######################################################################
#
# If this CIF has been generated from an entry in the Cambridge
# Structural Database, then it will include bibliographic, chemical,
# crystal, experimental, refinement or atomic coordinate data resulting
# from the CCDC's data processing and validation procedures.
#
#######################################################################

data_CSD_CIF_VOLQEU
_audit_creation_date 2014-08-21
_audit_creation_method CSD-ConQuest-V1
_database_code_CSD VOLQEU
_database_code_depnum_ccdc_archive 'CCDC 1020518'
_chemical_formula_sum 'C22 H22 N3 O1'
_chemical_formula_moiety
;
C22 H22 N3 O1
;
_journal_coden_Cambridge 4
_journal_volume 136
_journal_year 2014
_journal_page_first 7543
_journal_name_full 'J.Am.Chem.Soc. '
loop_
_publ_author_name
"Liangchun Li"
"R.Matsuda"
"I.Tanaka"
"H.Sato"
"P.Kanoo"
"Hyung Joon Jeon"
"Maw Lin Foo"
"A.Wakamiya"
"Y.Murata"
"S.Kitagawa"
_chemical_name_systematic
;
[1,1,3,3-tetramethyl-4,7-di(pyridin-4-yl)-1,3-dihydro-2H-isoindol-2-yl]oxidany
l radical
;
_cell_volume   1836.777
_exptl_crystal_colour 'yellow'
_exptl_crystal_density_diffrn 1.253
_exptl_crystal_description 'block'
_diffrn_ambient_temperature 100
#These two values have been output from a single CSD field.
_refine_ls_R_factor_gt 0.0784
_refine_ls_wR_factor_gt 0.0784
_symmetry_cell_setting orthorhombic
_symmetry_space_group_name_H-M 'P n a 21'
_symmetry_Int_Tables_number 33
loop_
_symmetry_equiv_pos_site_id
_symmetry_equiv_pos_as_xyz
1 x,y,z
2 1/2-x,1/2+y,1/2+z
3 1/2+x,1/2-y,z
4 -x,-y,1/2+z
_cell_length_a 21.125(3)
_cell_length_b 8.1140(12)
_cell_length_c 10.7158(16)
_cell_angle_alpha 90
_cell_angle_beta 90
_cell_angle_gamma 90
_cell_formula_units_Z 4
loop_
_atom_type_symbol
_atom_type_radius_bond
C 0.68
H 0.23
N 0.68
O 0.68
loop_
_atom_site_label
_atom_site_type_symbol
_atom_site_fract_x
_atom_site_fract_y
_atom_site_fract_z
O1 O 0.14314(10) 0.4911(3) 0.3074(3)
N1 N 0.14029(10) 0.6303(3) 0.3628(3)
N2 N -0.12451(10) 0.9200(4) 0.6646(3)
N3 N 0.38590(11) 1.1570(3) 0.3603(3)
C1 C 0.08234(11) 0.6828(3) 0.4311(3)
C2 C 0.10567(11) 0.8451(3) 0.4844(3)
C3 C 0.07018(11) 0.9647(3) 0.5476(3)
C4 C 0.09920(12) 1.1149(3) 0.5751(3)
C5 C 0.16088(11) 1.1463(3) 0.5391(3)
C6 C 0.19744(11) 1.0258(3) 0.4803(3)
C7 C 0.16928(11) 0.8746(3) 0.4549(3)
C8 C 0.19842(12) 0.7257(3) 0.3903(3)
C9 C 0.06477(14) 0.5505(3) 0.5265(3)
C10 C 0.02862(13) 0.7045(4) 0.3353(3)
C11 C 0.00249(12) 0.9433(3) 0.5859(3)
C12 C -0.01440(12) 0.8456(3) 0.6877(3)
C13 C -0.07804(12) 0.8384(4) 0.7224(3)
C14 C -0.10699(13) 1.0149(4) 0.5685(3)
C15 C -0.04501(12) 1.0310(4) 0.5260(3)
C16 C 0.26362(11) 1.0698(3) 0.4411(3)
C17 C 0.31684(12) 1.0091(4) 0.5009(3)
C18 C 0.37632(12) 1.0556(4) 0.4566(3)
C19 C 0.33415(13) 1.2177(4) 0.3056(3)
C20 C 0.27249(13) 1.1795(4) 0.3420(3)
C21 C 0.23283(12) 0.7610(4) 0.2687(3)
C22 C 0.24029(14) 0.6236(4) 0.4785(4)
H1 H 0.07620 1.19690 0.61920
H2 H 0.17870 1.25180 0.55460
H3 H 0.06010 0.44420 0.48420
H4 H 0.02480 0.58020 0.56700
H5 H 0.09820 0.54250 0.58960
H6 H 0.01470 0.59610 0.30570
H7 H 0.04400 0.76970 0.26450
H8 H -0.00700 0.76150 0.37470
H9 H 0.01680 0.78520 0.73240
H10 H -0.08900 0.77110 0.79170
H11 H -0.13900 1.07550 0.52640
H12 H -0.03540 1.10070 0.45730
H13 H 0.31290 0.93740 0.57050
H14 H 0.41250 1.01220 0.49780
H15 H 0.33970 1.29150 0.23760
H16 H 0.23720 1.22710 0.30040
H17 H 0.27170 0.82270 0.28620
H18 H 0.20540 0.82620 0.21390
H19 H 0.24360 0.65670 0.22770
H20 H 0.28070 0.68050 0.49150
H21 H 0.24820 0.51500 0.44150
H22 H 0.21870 0.61000 0.55880
#END
