
#######################################################################
#
#                 Cambridge Crystallographic Data Centre
#                                CCDC
#
#######################################################################
#
# If this CIF has been generated from an entry in the Cambridge
# Structural Database, then it will include bibliographic, chemical,
# crystal, experimental, refinement or atomic coordinate data resulting
# from the CCDC's data processing and validation procedures.
#
#######################################################################

data_CSD_CIF_VOLVAU
_audit_creation_date 2009-05-28
_audit_creation_method CSD-ConQuest-V1
_database_code_CSD VOLVAU
_database_code_depnum_ccdc_archive 'CCDC 674004'
_chemical_formula_sum 'C12 H11 N1 O4'
_chemical_formula_moiety
;
C12 H11 N1 O4
;
_journal_coden_Cambridge 177
_journal_volume 6
_journal_year 2008
_journal_page_first 4176
_journal_name_full 'Org.Biomol.Chem. '
loop_
_publ_author_name
"D.B.Ramachary"
"M.Kishor"
_chemical_name_systematic
;
3-Hydroxy-2-(2-nitrobenzyl)-2-cyclopenten-1-one
;
_chemical_name_common
;
2-(2-nitrobenzyl)-cyclopentane-1,3-dione
;
_cell_volume   1040.738
_exptl_crystal_colour 'colorless'
_exptl_crystal_density_diffrn 1.488
_exptl_special_details
;
The authors state that the compound exists in the enol form may be due to the 
strong intermolecular hydrogen bonding
;
_exptl_crystal_description 'needle'
_diffrn_ambient_temperature 298
#These two values have been output from a single CSD field.
_refine_ls_R_factor_gt 0.0422
_refine_ls_wR_factor_gt 0.0422
_symmetry_cell_setting monoclinic
_symmetry_space_group_name_H-M 'P 21/c'
_symmetry_Int_Tables_number 14
loop_
_symmetry_equiv_pos_site_id
_symmetry_equiv_pos_as_xyz
1 x,y,z
2 -x,1/2+y,1/2-z
3 -x,-y,-z
4 x,-1/2-y,-1/2+z
_cell_length_a 10.805(4)
_cell_length_b 12.994(5)
_cell_length_c 7.924(3)
_cell_angle_alpha 90
_cell_angle_beta 110.696(6)
_cell_angle_gamma 90
_cell_formula_units_Z 4
loop_
_atom_type_symbol
_atom_type_radius_bond
C 0.68
H 0.23
N 0.68
O 0.68
loop_
_atom_site_label
_atom_site_type_symbol
_atom_site_fract_x
_atom_site_fract_y
_atom_site_fract_z
O1 O 0.57323(12) 0.45260(9) 0.22583(19)
O2 O 0.58909(12) 0.81042(9) 0.2566(2)
H1 H 0.53190 0.85050 0.26170
O3 O 1.17518(13) 0.65402(12) 0.3847(2)
O4 O 0.98557(14) 0.63382(11) 0.1800(2)
N1 N 1.05603(15) 0.64001(11) 0.3378(2)
C1 C 0.99695(17) 0.63034(12) 0.4778(2)
C2 C 1.08522(18) 0.62445(13) 0.6525(3)
H2 H 1.17570 0.62780 0.67540
C3 C 1.0398(2) 0.61364(14) 0.7927(3)
H3 H 1.09880 0.60950 0.91100
C4 C 0.9060(2) 0.60905(15) 0.7562(3)
H4 H 0.87400 0.60220 0.85020
C5 C 0.81907(17) 0.61445(13) 0.5812(2)
H5 H 0.72890 0.61080 0.56030
C6 C 0.85964(16) 0.62517(12) 0.4342(2)
C7 C 0.75656(16) 0.63002(13) 0.2452(2)
H6 H 0.77230 0.69130 0.18580
H7 H 0.76820 0.57090 0.17750
C8 C 0.61657(16) 0.63175(12) 0.2382(2)
C9 C 0.54374(17) 0.71581(13) 0.2429(2)
C10 C 0.40659(17) 0.69117(14) 0.2333(3)
H8 H 0.34140 0.72150 0.12700
H9 H 0.39100 0.71560 0.33970
C11 C 0.40222(18) 0.57446(15) 0.2232(3)
H10 H 0.38390 0.54560 0.32480
H11 H 0.33460 0.55150 0.11230
C12 C 0.53745(17) 0.54320(14) 0.2283(3)
#END
