
#######################################################################
#
#                 Cambridge Crystallographic Data Centre
#                                CCDC
#
#######################################################################
#
# If this CIF has been generated from an entry in the Cambridge
# Structural Database, then it will include bibliographic, chemical,
# crystal, experimental, refinement or atomic coordinate data resulting
# from the CCDC's data processing and validation procedures.
#
#######################################################################

data_CSD_CIF_VOPXAZ02
_audit_creation_date 2010-04-23
_audit_creation_method CSD-ConQuest-V1
_database_code_CSD VOPXAZ02
_database_code_depnum_ccdc_archive 'CCDC 701903'
_chemical_formula_sum 'C9 H9 N1 O3'
_chemical_formula_moiety
;
C9 H9 N1 O3
;
_journal_coden_Cambridge 1350
_journal_volume 11
_journal_year 2009
_journal_page_first 638
_journal_name_full 'CrystEngComm '
loop_
_publ_author_name
"J.Harada"
"M.Harakawa"
"K.Ogawa"
_chemical_name_systematic
;
4-Methoxy-\b-nitrostyrene
;
_chemical_name_common
;
1-Methoxy-4-(2-nitrovinyl)benzene
;
_chemical_melting_point 362
_cell_volume    425.509
_exptl_crystal_colour 'yellow'
_exptl_crystal_density_diffrn 1.398
_exptl_crystal_description 'block'
_exptl_crystal_preparation 'ethanol'
_diffrn_ambient_temperature 90
#These two values have been output from a single CSD field.
_refine_ls_R_factor_gt 0.0366
_refine_ls_wR_factor_gt 0.0366
_symmetry_cell_setting triclinic
_symmetry_space_group_name_H-M 'P -1'
_symmetry_Int_Tables_number 2
loop_
_symmetry_equiv_pos_site_id
_symmetry_equiv_pos_as_xyz
1 x,y,z
2 -x,-y,-z
_cell_length_a 5.7014(3)
_cell_length_b 8.4321(5)
_cell_length_c 9.1812(5)
_cell_angle_alpha 103.481(1)
_cell_angle_beta 90.271(1)
_cell_angle_gamma 97.265(1)
_cell_formula_units_Z 2
loop_
_atom_type_symbol
_atom_type_radius_bond
C 0.68
H 0.23
N 0.68
O 0.68
loop_
_atom_site_label
_atom_site_type_symbol
_atom_site_fract_x
_atom_site_fract_y
_atom_site_fract_z
N1 N 0.32582(12) 0.40766(8) 0.62177(7)
O1 O 0.50036(11) 0.37618(8) 0.68318(7)
O2 O 0.27092(12) 0.34703(8) 0.48748(7)
O3 O -0.33201(11) 1.00654(7) 1.22304(7)
C1 C 0.07022(13) 0.69019(9) 0.94630(8)
C2 C 0.14090(13) 0.75247(9) 1.09677(8)
C3 C 0.01180(14) 0.85828(10) 1.19409(8)
C4 C -0.19263(13) 0.90319(9) 1.13982(9)
C5 C -0.26647(14) 0.84137(10) 0.98907(9)
C6 C -0.13759(13) 0.73625(9) 0.89403(8)
C7 C 0.21366(14) 0.58120(9) 0.85060(8)
C8 C 0.17307(14) 0.51705(10) 0.70395(9)
C9 C -0.26523(17) 1.07255(11) 1.37768(10)
H1 H 0.283(2) 0.7208(15) 1.1346(13)
H2 H 0.068(2) 0.8968(15) 1.2953(14)
H3 H -0.413(2) 0.8746(16) 0.9532(15)
H4 H -0.195(2) 0.6970(14) 0.7903(13)
H5 H 0.343(2) 0.5538(17) 0.8987(14)
H6 H 0.046(2) 0.5304(15) 0.6394(14)
H7 H -0.271(2) 0.9879(15) 1.4301(13)
H8 H -0.111(2) 1.1343(15) 1.3873(13)
H9 H -0.381(3) 1.1434(18) 1.4161(16)
#END
