
#######################################################################
#
#                 Cambridge Crystallographic Data Centre
#                                CCDC
#
#######################################################################
#
# If this CIF has been generated from an entry in the Cambridge
# Structural Database, then it will include bibliographic, chemical,
# crystal, experimental, refinement or atomic coordinate data resulting
# from the CCDC's data processing and validation procedures.
#
#######################################################################

data_CSD_CIF_VOPXED
_audit_creation_date 1992-09-08
_audit_creation_method CSD-ConQuest-V1
_database_code_CSD VOPXED
_chemical_formula_sum 'C9 H7 N1 O4'
_chemical_formula_moiety
;
C9 H7 N1 O4
;
_journal_coden_Cambridge 188
_journal_year 1992
_journal_page_first 311
_journal_name_full 'J.Chem.Soc.,Perkin Trans.2 '
loop_
_publ_author_name
"V.R.Pedireddi"
"J.A.R.P.Sarma"
"G.R.Desiraju"
_chemical_name_systematic
;
3,4-Methylenedioxy-\b-nitrostyrene
;
_cell_volume    813.318
_exptl_crystal_density_diffrn 1.58
_diffrn_ambient_temperature ?
_diffrn_special_details
;
The study was carried out at room temperature,in the range 283-303K

;
#These two values have been output from a single CSD field.
_refine_ls_R_factor_gt 0.038
_refine_ls_wR_factor_gt 0.038
_symmetry_cell_setting monoclinic
_symmetry_space_group_name_H-M 'P 21/c'
_symmetry_Int_Tables_number 14
loop_
_symmetry_equiv_pos_site_id
_symmetry_equiv_pos_as_xyz
1 x,y,z
2 -x,1/2+y,1/2-z
3 -x,-y,-z
4 x,-1/2-y,-1/2+z
_cell_length_a 3.746(1)
_cell_length_b 20.252(5)
_cell_length_c 10.730(2)
_cell_angle_alpha 90
_cell_angle_beta 92.38(2)
_cell_angle_gamma 90
_cell_formula_units_Z 4
loop_
_atom_type_symbol
_atom_type_radius_bond
C 0.68
H 0.23
N 0.68
O 0.68
loop_
_atom_site_label
_atom_site_type_symbol
_atom_site_fract_x
_atom_site_fract_y
_atom_site_fract_z
C1 C 0.3934(5) 0.3959(1) 0.6980(2)
C2 C 0.3300(5) 0.4577(1) 0.6403(2)
C3 C 0.4439(5) 0.5124(1) 0.7039(2)
C4 C 0.6255(5) 0.5083(1) 0.8196(2)
C5 C 0.6927(5) 0.4493(1) 0.8776(2)
C6 C 0.5722(5) 0.3930(1) 0.8150(2)
C7 C 0.2790(5) 0.3344(1) 0.6398(2)
C8 C 0.1060(5) 0.3289(1) 0.5300(2)
C9 C 0.5466(6) 0.6157(1) 0.7743(2)
N1 N 0.0026(5) 0.2657(1) 0.4795(2)
O1 O -0.1507(5) 0.2659(1) 0.3745(2)
O2 O 0.0649(5) 0.2147(1) 0.5381(2)
O3 O 0.4174(4) 0.5776(1) 0.6678(1)
O4 O 0.7279(4) 0.5704(1) 0.8586(1)
H1 H 0.2207(50) 0.4624(10) 0.5644(20)
H2 H 0.8178(56) 0.4459(11) 0.9547(21)
H3 H 0.6141(53) 0.3501(11) 0.8472(19)
H4 H 0.3191(55) 0.2928(11) 0.6799(20)
H5 H 0.0284(56) 0.3624(11) 0.4774(21)
H6 H 0.3395(52) 0.6344(10) 0.8159(19)
H7 H 0.7199(51) 0.6498(10) 0.7462(19)
#END
