
#######################################################################
#
#                 Cambridge Crystallographic Data Centre
#                                CCDC
#
#######################################################################
#
# If this CIF has been generated from an entry in the Cambridge
# Structural Database, then it will include bibliographic, chemical,
# crystal, experimental, refinement or atomic coordinate data resulting
# from the CCDC's data processing and validation procedures.
#
#######################################################################

data_CSD_CIF_VOPYEE
_audit_creation_date 1992-09-08
_audit_creation_method CSD-ConQuest-V1
_database_code_CSD VOPYEE
_chemical_formula_sum 'C15 H12 N1 O2'
_chemical_formula_moiety
;
C15 H12 N1 O2
;
_journal_coden_Cambridge 46
_journal_volume 73
_journal_year 1991
_journal_page_first 1
_journal_name_full 'Mol.Phys. '
loop_
_publ_author_name
"A.L.Maniero"
"M.Brustolon"
"M.F.Ottaviani"
"C.Rizzoli"
"P.Sgarabotto"
"F.Ugozzoli"
"P.Carloni"
"L.Greci"
_chemical_name_systematic
;
2-Methyl-2-phenylindolin-3-one-1-oxyl
;
_cell_volume   1201.788
_exptl_crystal_colour 'dark red'
_exptl_crystal_density_diffrn 1.32
_exptl_special_details
;
Isomorphous and isostructural with the 1,3-indandione analogue

;
_diffrn_ambient_temperature ?
_diffrn_special_details
;
The study was carried out at room temperature,in the range 283-303K

;
#These two values have been output from a single CSD field.
_refine_ls_R_factor_gt 0.039
_refine_ls_wR_factor_gt 0.039
_symmetry_cell_setting monoclinic
_symmetry_space_group_name_H-M 'P 21/c'
_symmetry_Int_Tables_number 14
loop_
_symmetry_equiv_pos_site_id
_symmetry_equiv_pos_as_xyz
1 x,y,z
2 -x,1/2+y,1/2-z
3 -x,-y,-z
4 x,-1/2-y,-1/2+z
_cell_length_a 10.159(2)
_cell_length_b 12.751(2)
_cell_length_c 10.394(2)
_cell_angle_alpha 90
_cell_angle_beta 116.8(1)
_cell_angle_gamma 90
_cell_formula_units_Z 4
loop_
_atom_type_symbol
_atom_type_radius_bond
C 0.68
H 0.23
N 0.68
O 0.68
loop_
_atom_site_label
_atom_site_type_symbol
_atom_site_fract_x
_atom_site_fract_y
_atom_site_fract_z
O1 O 0.7851(2) 0.6693(1) 0.2917(2)
O2 O 0.7780(1) 0.9769(1) 0.0364(1)
N1 N 0.8214(2) 0.7427(1) 0.2327(2)
C1 C 0.7224(2) 0.8331(1) 0.1581(2)
C2 C 0.8184(2) 0.8951(1) 0.1061(2)
C3 C 0.9564(2) 0.8410(1) 0.1506(2)
C4 C 1.0780(2) 0.8657(2) 0.1292(2)
C5 C 1.1936(3) 0.7948(2) 0.1789(3)
C6 C 1.1888(2) 0.7029(2) 0.2492(3)
C7 C 1.0711(2) 0.6792(2) 0.2745(2)
C8 C 0.9545(2) 0.7496(1) 0.2241(2)
C9 C 0.5859(2) 0.7919(2) 0.0283(3)
C10 C 0.6937(2) 0.9003(1) 0.2631(2)
C11 C 0.5607(2) 0.9510(2) 0.2229(2)
C12 C 0.5398(3) 1.0168(2) 0.3185(3)
C13 C 0.6511(3) 1.0326(2) 0.4546(3)
C14 C 0.7858(3) 0.9828(2) 0.4968(3)
C15 C 0.8064(2) 0.9171(2) 0.4025(2)
H1 H 1.076(3) 0.930(2) 0.085(3)
H2 H 1.286(3) 0.807(2) 0.163(3)
H3 H 1.278(3) 0.653(2) 0.287(3)
H4 H 1.066(3) 0.614(2) 0.330(3)
H5 H 0.527(3) 0.754(2) 0.062(3)
H6 H 0.614(3) 0.741(3) -0.047(4)
H7 H 0.525(3) 0.857(2) -0.027(3)
H8 H 0.480(3) 0.938(2) 0.125(3)
H9 H 0.440(3) 1.052(2) 0.283(3)
H10 H 0.632(3) 1.077(2) 0.519(3)
H11 H 0.862(3) 0.991(2) 0.592(3)
H12 H 0.897(3) 0.885(2) 0.429(3)
#END
