
#######################################################################
#
#                 Cambridge Crystallographic Data Centre
#                                CCDC
#
#######################################################################
#
# If this CIF has been generated from an entry in the Cambridge
# Structural Database, then it will include bibliographic, chemical,
# crystal, experimental, refinement or atomic coordinate data resulting
# from the CCDC's data processing and validation procedures.
#
#######################################################################

data_CSD_CIF_VOPZEF
_audit_creation_date 1992-09-08
_audit_creation_method CSD-ConQuest-V1
_database_code_CSD VOPZEF
_chemical_formula_sum 'C10 H10 N2 O2'
_chemical_formula_moiety
;
C10 H10 N2 O2
;
_journal_coden_Cambridge 614
_journal_volume 9
_journal_year 1989
_journal_page_first 295
_journal_name_full 'Revista Cubana de Fisica '
loop_
_publ_author_name
"O.Au"
"V.A.Tafeenko"
"L.A.Aslanov"
_chemical_name_systematic
;
2,8-Dimethyl-3-nitroindolizine
;
_cell_volume    892.870
_diffrn_ambient_temperature ?
_diffrn_special_details
;
The study was carried out at room temperature,in the range 283-303K

;
#These two values have been output from a single CSD field.
_refine_ls_R_factor_gt 0.039
_refine_ls_wR_factor_gt 0.039
_symmetry_cell_setting monoclinic
_symmetry_space_group_name_H-M 'P 21/a'
_symmetry_Int_Tables_number 14
loop_
_symmetry_equiv_pos_site_id
_symmetry_equiv_pos_as_xyz
1 x,y,z
2 1/2-x,1/2+y,-z
3 -x,-y,-z
4 -1/2+x,-1/2-y,z
_cell_length_a 7.028(2)
_cell_length_b 14.006(3)
_cell_length_c 9.149(1)
_cell_angle_alpha 90
_cell_angle_beta 97.50(2)
_cell_angle_gamma 90
_cell_formula_units_Z 4
loop_
_atom_type_symbol
_atom_type_radius_bond
C 0.68
H 0.23
N 0.68
O 0.68
loop_
_atom_site_label
_atom_site_type_symbol
_atom_site_fract_x
_atom_site_fract_y
_atom_site_fract_z
O1 O 0.5843(4) 0.4265(2) 0.3873(3)
O2 O 0.5312(4) 0.3200(2) 0.2146(3)
N1 N 0.5712(4) 0.3421(2) 0.3464(3)
N2 N 0.6492(3) 0.2850(2) 0.5991(3)
C1 C 0.6479(4) 0.1266(2) 0.5559(4)
C2 C 0.6009(4) 0.170(2) 0.4219(3)
C3 C 0.6013(4) 0.2689(2) 0.4483(3)
C4 C 0.6671(5) 0.3681(2) 0.6808(4)
C5 C 0.7167(5) 0.3614(2) 0.8277(4)
C6 C 0.7487(5) 0.2728(3) 0.8983(4)
C7 C 0.7286(4) 0.1899(2) 0.8202(3)
C8 C 0.6778(4) 0.1961(2) 0.6663(3)
C9 C 0.7523(5) 0.0935(2) 0.8901(4)
C10 C 0.5621(5) 0.1200(3) 0.2773(4)
H1 H 0.662(4) 0.059(2) 0.572(3)
H2 H 0.638(4) 0.429(2) 0.625(3)
H3 H 0.724(4) 0.421(2) 0.883(3)
H4 H 0.783(4) 0.270(2) 1.002(4)
H5 H 0.633(5) 0.065(2) 0.909(4)
H6 H 0.815(4) 0.045(2) 0.834(4)
H7 H 0.828(4) 0.094(2) 0.980(4)
H8 H 0.437(5) 0.128(2) 0.232(4)
H9 H 0.579(5) 0.048(2) 0.287(4)
H10 H 0.648(5) 0.141(3) 0.205(4)
#END
