
#######################################################################
#
#                 Cambridge Crystallographic Data Centre
#                                CCDC
#
#######################################################################
#
# If this CIF has been generated from an entry in the Cambridge
# Structural Database, then it will include bibliographic, chemical,
# crystal, experimental, refinement or atomic coordinate data resulting
# from the CCDC's data processing and validation procedures.
#
#######################################################################

data_CSD_CIF_VOPZIJ
_audit_creation_date 1992-09-08
_audit_creation_method CSD-ConQuest-V1
_database_code_CSD VOPZIJ
_chemical_formula_sum 'C9 H8 N2 O2'
_chemical_formula_moiety
;
C9 H8 N2 O2
;
_journal_coden_Cambridge 614
_journal_volume 9
_journal_year 1989
_journal_page_first 295
_journal_name_full 'Revista Cubana de Fisica '
loop_
_publ_author_name
"O.Au"
"V.A.Tafeenko"
"L.A.Aslanov"
_chemical_name_systematic
;
2-Methyl-1-nitroindolizine
;
_cell_volume    813.038
_diffrn_ambient_temperature ?
_diffrn_special_details
;
The study was carried out at room temperature,in the range 283-303K

;
#These two values have been output from a single CSD field.
_refine_ls_R_factor_gt 0.033
_refine_ls_wR_factor_gt 0.033
_symmetry_cell_setting monoclinic
_symmetry_space_group_name_H-M 'P 21/n'
_symmetry_Int_Tables_number 14
loop_
_symmetry_equiv_pos_site_id
_symmetry_equiv_pos_as_xyz
1 x,y,z
2 1/2-x,1/2+y,1/2-z
3 -x,-y,-z
4 -1/2+x,-1/2-y,-1/2+z
_cell_length_a 14.010(3)
_cell_length_b 4.689(2)
_cell_length_c 14.095(3)
_cell_angle_alpha 90
_cell_angle_beta 118.59(2)
_cell_angle_gamma 90
_cell_formula_units_Z 4
loop_
_atom_type_symbol
_atom_type_radius_bond
C 0.68
H 0.23
N 0.68
O 0.68
loop_
_atom_site_label
_atom_site_type_symbol
_atom_site_fract_x
_atom_site_fract_y
_atom_site_fract_z
O1 O 0.4821(1) -0.2073(5) 0.6798(2)
O2 O 0.3881(2) -0.4715(5) 0.7318(2)
N1 N 0.3936(2) -0.2905(5) 0.6705(2)
N2 N 0.1842(1) 0.0625(5) 0.4408(1)
C1 C 0.2970(2) -0.1794(6) 0.5866(2)
C2 C 0.1889(2) -0.2527(6) 0.5629(2)
C3 C 0.1215(2) -0.1028(6) 0.4730(2)
C4 C 0.1474(2) 0.2473(7) 0.3548(2)
C5 C 0.2214(2) 0.3943(7) 0.3382(2)
C6 C 0.3337(2) 0.3545(7) 0.4068(2)
C7 C 0.3701(2) 0.1709(6) 0.4921(2)
C8 C 0.2939(2) 0.0194(6) 0.5109(2)
C9 C 0.1525(2) -0.4510(7) 0.6225(2)
H1 H 0.037(2) -0.097(5) 0.429(2)
H2 H 0.060(2) 0.256(6) 0.305(2)
H3 H 0.194(2) 0.518(6) 0.277(2)
H4 H 0.389(2) 0.455(6) 0.393(2)
H5 H 0.449(2) 0.139(5) 0.544(2)
H6 H 0.178(2) -0.400(6) 0.696(2)
H7 H 0.174(2) -0.646(6) 0.622(2)
H8 H 0.065(2) -0.443(7) 0.588(2)
#END
