
#######################################################################
#
#                 Cambridge Crystallographic Data Centre
#                                CCDC
#
#######################################################################
#
# If this CIF has been generated from an entry in the Cambridge
# Structural Database, then it will include bibliographic, chemical,
# crystal, experimental, refinement or atomic coordinate data resulting
# from the CCDC's data processing and validation procedures.
#
#######################################################################

data_CSD_CIF_VOQKES
_audit_creation_date 2009-05-28
_audit_creation_method CSD-ConQuest-V1
_database_code_CSD VOQKES
_database_code_depnum_ccdc_archive 'CCDC 726432'
_chemical_formula_sum 'C15 H14 N4 O4'
_chemical_formula_moiety
;
C15 H14 N4 O4
;
_journal_coeditor_code "IUCr LH2788"
_journal_coden_Cambridge 1370
_journal_volume 65
_journal_year 2009
_journal_page_first o833
_journal_name_full 'Acta Crystallogr.,Sect.E:Struct.Rep.Online '
loop_
_publ_author_name
"R.Kia"
"H.-K.Fun"
"B.Etemadi"
"H.Kargar"
_chemical_name_systematic
;
N-(2,4-Dinitrophenyl)-N'-(1-p-tolylethylidene)hydrazine
;
_chemical_name_common
;
1-(2,4-Dinitrophenyl)-2-(1-(4-methylphenyl)ethylidene)hydrazine
;
_cell_volume   1435.920
_exptl_crystal_colour 'red'
_exptl_crystal_density_diffrn 1.454
_exptl_crystal_description 'block'
_exptl_crystal_preparation 'acetone'
_diffrn_ambient_temperature 100
#These two values have been output from a single CSD field.
_refine_ls_R_factor_gt 0.0572
_refine_ls_wR_factor_gt 0.0572
_symmetry_cell_setting monoclinic
_symmetry_space_group_name_H-M 'P 21/c'
_symmetry_Int_Tables_number 14
loop_
_symmetry_equiv_pos_site_id
_symmetry_equiv_pos_as_xyz
1 x,y,z
2 -x,1/2+y,1/2-z
3 -x,-y,-z
4 x,-1/2-y,-1/2+z
_cell_length_a 7.6948(1)
_cell_length_b 14.9092(3)
_cell_length_c 12.5224(2)
_cell_angle_alpha 90
_cell_angle_beta 91.778(1)
_cell_angle_gamma 90
_cell_formula_units_Z 4
loop_
_atom_type_symbol
_atom_type_radius_bond
C 0.68
H 0.23
N 0.68
O 0.68
loop_
_atom_site_label
_atom_site_type_symbol
_atom_site_fract_x
_atom_site_fract_y
_atom_site_fract_z
O1 O 0.17776(17) 0.87567(9) 1.02191(10)
O2 O 0.16471(16) 1.01618(9) 1.06678(9)
O3 O 0.45972(17) 1.23529(8) 0.87222(10)
O4 O 0.60603(15) 1.20508(8) 0.73223(9)
N1 N 0.62455(17) 1.04202(9) 0.66064(10)
N2 N 0.67704(16) 0.97591(9) 0.59199(10)
N3 N 0.21243(18) 0.95518(10) 1.00792(10)
N4 N 0.51408(17) 1.18141(9) 0.8069(1)
C1 C 0.47019(19) 1.08784(10) 0.81806(11)
C2 C 0.36357(19) 1.06601(10) 0.90212(11)
H1 H 0.32260 1.11050 0.94690
C3 C 0.3200(2) 0.97796(11) 0.91782(11)
C4 C 0.3812(2) 0.90980(11) 0.85198(11)
H2 H 0.35280 0.85030 0.86530
C5 C 0.4829(2) 0.93102(10) 0.76795(11)
H3 H 0.52210 0.88540 0.72410
C6 C 0.52995(19) 1.02107(10) 0.74630(11)
C7 C 0.74308(19) 1.00482(10) 0.50440(11)
C8 C 0.80349(19) 0.93424(10) 0.43032(11)
C9 C 0.7621(2) 0.84429(11) 0.44813(12)
H4 H 0.69650 0.82920 0.50660
C10 C 0.8168(2) 0.77741(11) 0.38063(13)
H5 H 0.78690 0.71820 0.39430
C11 C 0.9165(2) 0.79729(12) 0.29186(12)
C12 C 0.9582(2) 0.88663(12) 0.27404(12)
H6 H 1.02450 0.90150 0.21580
C13 C 0.9029(2) 0.95450(11) 0.34177(11)
H7 H 0.93230 1.01380 0.32790
C14 C 0.7563(2) 1.10272(11) 0.47653(12)
H8 H 0.64550 1.13100 0.48530
H9 H 0.78990 1.10880 0.40370
H10 H 0.84180 1.13080 0.52290
C15 C 0.9752(2) 0.72351(13) 0.21878(14)
H11 H 0.87830 0.68550 0.20000
H12 H 1.06420 0.68870 0.25470
H13 H 1.02050 0.74940 0.15520
H14 H 0.652(3) 1.0963(15) 0.6502(15)
#END
