
#######################################################################
#
#                 Cambridge Crystallographic Data Centre
#                                CCDC
#
#######################################################################
#
# If this CIF has been generated from an entry in the Cambridge
# Structural Database, then it will include bibliographic, chemical,
# crystal, experimental, refinement or atomic coordinate data resulting
# from the CCDC's data processing and validation procedures.
#
#######################################################################

data_CSD_CIF_VOQQAU
_audit_creation_date 2009-05-28
_audit_creation_method CSD-ConQuest-V1
_database_code_CSD VOQQAU
_database_code_depnum_ccdc_archive 'CCDC 726481'
_chemical_formula_sum 'C7 H12 N4 O10'
_chemical_formula_moiety
;
C7 H12 N4 O10
;
_journal_coeditor_code "IUCr RZ2302"
_journal_coden_Cambridge 1370
_journal_volume 65
_journal_year 2009
_journal_page_first o903
_journal_name_full 'Acta Crystallogr.,Sect.E:Struct.Rep.Online '
loop_
_publ_author_name
"Fei Liu"
"Huajun Dai"
"Zhong Huang"
"Yonggang Liu"
"Xingming Kou"
_chemical_name_systematic
;
bis(2,2-dinitropropoxy)methane
;
_chemical_name_common
;
1,1'-(Methylenebis(oxy))bis(2,2-dinitropropane); bis(2,2-dinitropropyl)formal
;
_cell_volume   1365.415
_exptl_crystal_colour 'colorless'
_exptl_crystal_density_diffrn 1.519
_exptl_crystal_description 'block'
_exptl_crystal_preparation 'diethyl ether/mineral ether'
_diffrn_ambient_temperature 291
#These two values have been output from a single CSD field.
_refine_ls_R_factor_gt 0.0462
_refine_ls_wR_factor_gt 0.0462
_symmetry_cell_setting monoclinic
_symmetry_space_group_name_H-M 'C 2/c'
_symmetry_Int_Tables_number 15
loop_
_symmetry_equiv_pos_site_id
_symmetry_equiv_pos_as_xyz
1 x,y,z
2 -x,y,1/2-z
3 1/2+x,1/2+y,z
4 1/2-x,1/2+y,1/2-z
5 -x,-y,-z
6 x,-y,-1/2+z
7 -1/2-x,-1/2-y,-z
8 -1/2+x,-1/2-y,-1/2+z
_cell_length_a 23.330(3)
_cell_length_b 6.207(3)
_cell_length_c 10.009(6)
_cell_angle_alpha 90
_cell_angle_beta 109.60(3)
_cell_angle_gamma 90
_cell_formula_units_Z 4
loop_
_atom_type_symbol
_atom_type_radius_bond
C 0.68
H 0.23
N 0.68
O 0.68
loop_
_atom_site_label
_atom_site_type_symbol
_atom_site_fract_x
_atom_site_fract_y
_atom_site_fract_z
O1 O 0.54239(7) 0.5416(3) 0.21472(18)
O2 O 0.68680(8) 0.8202(3) 0.51558(17)
O3 O 0.70016(9) 1.0217(3) 0.3547(2)
O4 O 0.60961(13) 0.8225(4) 0.0432(2)
O5 O 0.57606(12) 1.0244(4) 0.1735(3)
N1 N 0.67637(8) 0.8730(3) 0.3932(2)
N2 N 0.60412(11) 0.8729(4) 0.1542(2)
C1 C 0.50000 0.4161(6) 0.25000
H1 H 0.52110 0.32410 0.32970
C2 C 0.58346(10) 0.6513(4) 0.3320(2)
H2 H 0.59910 0.55500 0.41240
H3 H 0.56360 0.77210 0.35960
C3 C 0.63384(9) 0.7279(3) 0.2821(2)
C4 C 0.67114(13) 0.5524(5) 0.2509(4)
H4 H 0.70000 0.61350 0.21220
H5 H 0.64500 0.45420 0.18350
H6 H 0.69240 0.47650 0.33680
O1A O 0.45761(7) 0.5416(3) 0.28528(18)
O2A O 0.31320(8) 0.8202(3) -0.01558(17)
O3A O 0.29984(9) 1.0217(3) 0.1453(2)
O4A O 0.39039(13) 0.8225(4) 0.4568(2)
O5A O 0.42394(12) 1.0244(4) 0.3265(3)
N1A N 0.32363(8) 0.8730(3) 0.1068(2)
N2A N 0.39588(11) 0.8729(4) 0.3458(2)
H1A H 0.47890 0.32410 0.17030
C2A C 0.41654(10) 0.6513(4) 0.1680(2)
H2A H 0.40090 0.55500 0.08760
H3A H 0.43640 0.77210 0.14040
C3A C 0.36616(9) 0.7279(3) 0.2179(2)
C4A C 0.32886(13) 0.5524(5) 0.2491(4)
H4A H 0.30000 0.61350 0.28780
H5A H 0.35500 0.45420 0.31650
H6A H 0.30760 0.47650 0.16320
#END
