
#######################################################################
#
#                 Cambridge Crystallographic Data Centre
#                                CCDC
#
#######################################################################
#
# If this CIF has been generated from an entry in the Cambridge
# Structural Database, then it will include bibliographic, chemical,
# crystal, experimental, refinement or atomic coordinate data resulting
# from the CCDC's data processing and validation procedures.
#
#######################################################################

data_CSD_CIF_VOQSIE
_audit_creation_date 2009-05-27
_audit_creation_method CSD-ConQuest-V1
_database_code_CSD VOQSIE
_database_code_depnum_ccdc_archive 'CCDC 726493'
_chemical_formula_sum 'C17 H19 N3 O1'
_chemical_formula_moiety
;
C17 H19 N3 O1
;
_journal_coeditor_code "IUCr AT2749"
_journal_coden_Cambridge 1370
_journal_volume 65
_journal_year 2009
_journal_page_first o917
_journal_name_full 'Acta Crystallogr.,Sect.E:Struct.Rep.Online '
loop_
_publ_author_name
"B.R.D.Nayagam"
"S.R.Jebas"
"J.E.Rajkumar"
"D.Schollmeyer"
_chemical_name_systematic
;
1-(2,3,5,6-Tetramethylbenzyloxy)-1H-benzotriazole
;
_cell_volume   1449.534
_exptl_crystal_colour 'colorless'
_exptl_crystal_density_diffrn 1.289
_exptl_crystal_description 'block'
_exptl_crystal_preparation 'ethanol'
_diffrn_ambient_temperature 193
#These two values have been output from a single CSD field.
_refine_ls_R_factor_gt 0.0469
_refine_ls_wR_factor_gt 0.0469
_symmetry_cell_setting monoclinic
_symmetry_space_group_name_H-M 'P 21/c'
_symmetry_Int_Tables_number 14
loop_
_symmetry_equiv_pos_site_id
_symmetry_equiv_pos_as_xyz
1 x,y,z
2 -x,1/2+y,1/2-z
3 -x,-y,-z
4 x,-1/2-y,-1/2+z
_cell_length_a 4.9737(8)
_cell_length_b 26.3838(18)
_cell_length_c 11.490(2)
_cell_angle_alpha 90
_cell_angle_beta 105.977(7)
_cell_angle_gamma 90
_cell_formula_units_Z 4
loop_
_atom_type_symbol
_atom_type_radius_bond
C 0.68
H 0.23
N 0.68
O 0.68
loop_
_atom_site_label
_atom_site_type_symbol
_atom_site_fract_x
_atom_site_fract_y
_atom_site_fract_z
N1 N 0.4809(3) 0.32620(5) 0.62810(11)
N2 N 0.3357(3) 0.28455(5) 0.63903(13)
N3 N 0.4680(3) 0.26168(5) 0.73894(13)
C1 C 0.7028(3) 0.28997(6) 0.79380(14)
C2 C 0.9114(4) 0.28229(6) 0.90326(15)
H1 H 0.90650 0.25390 0.95360
C3 C 1.1208(4) 0.31732(7) 0.93407(15)
H2 H 1.26520 0.31310 1.00720
C4 C 1.1281(4) 0.35962(7) 0.86002(16)
H3 H 1.27790 0.38310 0.88490
C5 C 0.9264(3) 0.36815(6) 0.75324(15)
H4 H 0.93170 0.39670 0.70360
C6 C 0.7132(3) 0.33208(6) 0.72239(13)
O1 O 0.3754(2) 0.35998(4) 0.53578(9)
C7 C 0.4691(4) 0.34745(6) 0.42841(14)
H5 H 0.39040 0.31450 0.39390
H6 H 0.67570 0.34550 0.44970
C8 C 0.3636(3) 0.38958(6) 0.33973(13)
C9 C 0.5113(3) 0.43544(6) 0.35296(13)
C10 C 0.4080(3) 0.47548(6) 0.27302(14)
C11 C 0.1584(3) 0.46843(6) 0.18303(14)
H7 H 0.08690 0.49570 0.12940
C12 C 0.0095(3) 0.42330(7) 0.16838(13)
C13 C 0.1116(3) 0.38296(6) 0.24756(13)
C14 C 0.7813(3) 0.44365(7) 0.45103(15)
H8 H 0.84660 0.41130 0.49060
H9 H 0.74920 0.46760 0.51100
H10 H 0.92310 0.45740 0.41510
C15 C 0.5633(4) 0.52490(7) 0.28165(18)
H11 H 0.74510 0.51900 0.26640
H12 H 0.59170 0.53920 0.36280
H13 H 0.45410 0.54870 0.22140
C16 C -0.2599(4) 0.41887(8) 0.06843(15)
H14 H -0.30330 0.45150 0.02680
H15 H -0.41200 0.40930 0.10310
H16 H -0.23930 0.39290 0.01060
C17 C -0.0499(4) 0.33394(7) 0.23361(17)
H17 H -0.07170 0.32350 0.31240
H18 H 0.05180 0.30760 0.20290
H19 H -0.23480 0.33880 0.17650
#END
