
#######################################################################
#
#                 Cambridge Crystallographic Data Centre
#                                CCDC
#
#######################################################################
#
# If this CIF has been generated from an entry in the Cambridge
# Structural Database, then it will include bibliographic, chemical,
# crystal, experimental, refinement or atomic coordinate data resulting
# from the CCDC's data processing and validation procedures.
#
#######################################################################

data_CSD_CIF_VORFUF
_audit_creation_date 2014-08-22
_audit_creation_method CSD-ConQuest-V1
_database_code_CSD VORFUF
_database_code_depnum_ccdc_archive 'CCDC 996120'
_chemical_formula_sum 'C36 H36 N2 O4'
_chemical_formula_moiety
;
C36 H36 N2 O4
;
_journal_coden_Cambridge 16
_journal_volume 70
_journal_year 2014
_journal_page_first 5283
_journal_name_full 'Tetrahedron '
loop_
_publ_author_name
"W.M.Hewitt"
"M.Egger"
"N.B.Zuckerman"
"J.P.Konopelski"
_chemical_name_systematic
;
(2R,3R)-3-Allyl-2-((benzyloxy)methyl)-N-methoxy-N-methyl-4-oxo-1-tritylazetidi
ne-3-carboxamide
;
_chemical_melting_point 391
_cell_volume   4507.703
_exptl_crystal_colour 'colorless'
_exptl_crystal_density_diffrn 1.239
_exptl_special_details
;
Melting point range 391-393K

;
_exptl_crystal_description 'blade'
_exptl_crystal_preparation 'dichloromethane/hexanes'
_diffrn_ambient_temperature 150
#These two values have been output from a single CSD field.
_refine_ls_R_factor_gt 0.0377
_refine_ls_wR_factor_gt 0.0377
_symmetry_cell_setting hexagonal
_symmetry_space_group_name_H-M 'P 65'
_symmetry_Int_Tables_number 170
loop_
_symmetry_equiv_pos_site_id
_symmetry_equiv_pos_as_xyz
1 x,y,z
2 -y,x-y,2/3+z
3 -x+y,-x,1/3+z
4 -x,-y,1/2+z
5 y,-x+y,1/6+z
6 x-y,x,5/6+z
_cell_length_a 9.3384(13)
_cell_length_b 9.3384(13)
_cell_length_c 59.687(10)
_cell_angle_alpha 90
_cell_angle_beta 90
_cell_angle_gamma 120
_cell_formula_units_Z 6
loop_
_atom_type_symbol
_atom_type_radius_bond
C 0.68
H 0.23
N 0.68
O 0.68
loop_
_atom_site_label
_atom_site_type_symbol
_atom_site_fract_x
_atom_site_fract_y
_atom_site_fract_z
N1 N 1.03288(14) 1.32310(15) 0.03897(2)
C1 C 1.18693(17) 1.54517(18) 0.01249(2)
C2 C 1.03944(17) 1.36710(18) 0.01471(2)
C3 C 0.87474(17) 1.35697(17) 0.00849(2)
C4 C 1.48058(19) 1.7342(2) 0.01742(3)
H1 H 1.58750 1.75210 0.02100
C5 C 0.79865(18) 1.29579(19) -0.01220(2)
H2 H 0.84610 1.25370 -0.02250
C6 C 1.06671(19) 1.2477(2) -0.00028(2)
C7 C 0.9789(2) 1.0776(2) 0.00370(3)
H3 H 0.90900 1.03590 0.01650
C8 C 1.16793(19) 1.67975(19) 0.00696(3)
H4 H 1.06160 1.66230 0.00320
C9 C 1.1660(2) 1.3051(2) -0.01943(3)
H5 H 1.22650 1.42020 -0.02250
C10 C 1.34641(19) 1.5748(2) 0.01708(2)
H6 H 1.36300 1.48420 0.02000
C11 C 1.4592(2) 1.8678(2) 0.01259(3)
H7 H 1.55050 1.97740 0.01320
C12 C 0.80210(19) 1.4178(2) 0.02336(3)
H8 H 0.85130 1.45860 0.03760
C13 C 0.6540(2) 1.2958(2) -0.01789(3)
H9 H 0.60280 1.25260 -0.03200
C14 C 0.5846(2) 1.3583(2) -0.00316(3)
H10 H 0.48680 1.35970 -0.00710
C15 C 0.8354(2) 1.6399(2) 0.08681(3)
C16 C 1.3036(2) 1.8397(2) 0.00691(3)
H11 H 1.28910 1.93010 0.00290
C17 C 0.7567(2) 1.5536(2) 0.10606(3)
H12 H 0.81270 1.51870 0.11600
C18 C 1.0091(2) 1.6787(2) 0.08221(4)
H13 H 1.06840 1.78200 0.07340
H14 H 1.06920 1.69410 0.09650
C19 C 0.5911(2) 1.6525(3) 0.07730(3)
H15 H 0.53480 1.68740 0.06740
C20 C 0.9927(3) 0.9685(2) -0.01088(3)
H16 H 0.93440 0.85330 -0.00780
C21 C 0.5137(2) 1.5662(2) 0.09649(3)
H17 H 0.40370 1.54020 0.09980
C22 C 0.7505(2) 1.6884(2) 0.07239(3)
H18 H 0.80240 1.74670 0.05900
C23 C 0.6592(2) 1.4191(2) 0.01755(3)
H19 H 0.61180 1.46180 0.02770
C24 C 1.1768(2) 1.1936(3) -0.03402(3)
H20 H 1.24440 1.23380 -0.04700
C25 C 1.0906(3) 1.0266(3) -0.02978(3)
H21 H 1.09830 0.95170 -0.03980
C26 C 0.5972(2) 1.5178(2) 0.11092(3)
H22 H 0.54490 1.45960 0.12430
O1 O 1.08936(15) 1.39599(15) 0.107218(19)
O2 O 0.78550(14) 1.07436(14) 0.045947(19)
N2 N 0.82680(18) 1.19371(18) 0.10363(2)
C27 C 0.91584(18) 1.19380(18) 0.05127(2)
C28 C 1.16239(17) 1.56993(18) 0.06547(2)
H23 H 1.23210 1.61140 0.07910
H24 H 1.21560 1.65300 0.05340
C29 C 0.98134(19) 1.2878(2) 0.09556(2)
C30 C 1.0995(2) 1.1363(2) 0.07737(3)
H25 H 1.18710 1.18940 0.08890
H26 H 1.01100 1.03100 0.08370
C31 C 1.14553(17) 1.40656(17) 0.05830(2)
H27 H 1.25580 1.41530 0.05610
C32 C 1.1708(2) 1.0982(2) 0.05724(3)
H28 H 1.09650 1.02490 0.04630
C33 C 1.02662(18) 1.25122(18) 0.07250(2)
O3 O 1.00206(13) 1.54456(13) 0.069971(17)
O4 O 0.71954(16) 1.05095(16) 0.09179(2)
C34 C 0.7860(3) 1.1928(3) 0.12712(3)
H29 H 0.86680 1.29760 0.13410
H30 H 0.78860 1.10120 0.13480
H31 H 0.67520 1.17890 0.12840
C35 C 0.5850(3) 1.0683(4) 0.08342(5)
H32 H 0.50820 0.96840 0.07510
H33 H 0.62800 1.16430 0.07340
H34 H 0.52680 1.08410 0.09600
C36 C 1.3307(3) 1.1608(3) 0.05390(4)
H35 H 1.413(3) 1.235(3) 0.0648(4)
H36 H 1.375(3) 1.136(3) 0.0399(5)
#END
