
#######################################################################
#
#                 Cambridge Crystallographic Data Centre
#                                CCDC
#
#######################################################################
#
# If this CIF has been generated from an entry in the Cambridge
# Structural Database, then it will include bibliographic, chemical,
# crystal, experimental, refinement or atomic coordinate data resulting
# from the CCDC's data processing and validation procedures.
#
#######################################################################

data_CSD_CIF_VORJAO
_audit_creation_date 2009-05-27
_audit_creation_method CSD-ConQuest-V1
_database_code_CSD VORJAO
_database_code_depnum_ccdc_archive 'CCDC 730110'
_chemical_formula_sum 'C20 H24 N2 O8'
_chemical_formula_moiety
;
C20 H24 N2 O8
;
_journal_coeditor_code "IUCr GA3120"
_journal_coden_Cambridge 591
_journal_volume 65
_journal_year 2009
_journal_page_first o171
_journal_name_full 'Acta Crystallogr.,Sect.C:Cryst.Struct.Commun. '
loop_
_publ_author_name
"O.Vallat"
"A.-M.Buciumas"
"R.Neier"
"H.Stoeckli-Evans"
_chemical_name_systematic
;
rac-(1'S*,2R*)-t-Butyl 
2-(1'-hydroxy-3'-(methoxycarbonyl)propyl)-3-(2-nitrophenyl)-5-oxo-2,5-dihydro-
1H-pyrrole-1-carboxylate
;
_cell_volume   4090.274
_exptl_crystal_colour 'colorless'
_exptl_crystal_density_diffrn 1.365
_exptl_crystal_description 'plate'
_exptl_crystal_preparation 'ether/hexane'
_diffrn_ambient_temperature 153
#These two values have been output from a single CSD field.
_refine_ls_R_factor_gt 0.0439
_refine_ls_wR_factor_gt 0.0439
_symmetry_cell_setting orthorhombic
_symmetry_space_group_name_H-M 'P b c a'
_symmetry_Int_Tables_number 61
loop_
_symmetry_equiv_pos_site_id
_symmetry_equiv_pos_as_xyz
1 x,y,z
2 1/2-x,-y,1/2+z
3 1/2+x,1/2-y,-z
4 -x,1/2+y,1/2-z
5 -x,-y,-z
6 -1/2+x,y,-1/2-z
7 -1/2-x,-1/2+y,z
8 x,-1/2-y,-1/2+z
_cell_length_a 9.1439(7)
_cell_length_b 20.7113(18)
_cell_length_c 21.598(2)
_cell_angle_alpha 90
_cell_angle_beta 90
_cell_angle_gamma 90
_cell_formula_units_Z 8
loop_
_atom_type_symbol
_atom_type_radius_bond
C 0.68
H 0.23
N 0.68
O 0.68
loop_
_atom_site_label
_atom_site_type_symbol
_atom_site_fract_x
_atom_site_fract_y
_atom_site_fract_z
O1 O 0.82338(16) 1.04916(7) 1.03743(5)
O2 O 0.98587(16) 1.10030(7) 0.94111(5)
O3 O 0.95859(15) 1.04336(7) 0.85188(5)
O4 O 0.94241(16) 0.86269(7) 0.92957(5)
O5 O 1.0951(2) 0.73288(9) 0.85235(9)
O6 O 0.85174(18) 0.72804(8) 0.85811(7)
O7 O 0.46800(17) 0.97641(8) 0.87432(6)
O8 O 0.3128(2) 0.91739(10) 0.82448(6)
N1 N 0.84959(18) 1.00760(8) 0.93705(6)
N2 N 0.40953(19) 0.92421(10) 0.86356(7)
C1 C 0.7897(2) 1.01036(10) 0.99720(7)
C2 C 0.6820(2) 0.95899(10) 1.00009(7)
C3 C 0.6746(2) 0.92758(10) 0.94629(7)
C4 C 0.7851(2) 0.95408(9) 0.90103(7)
C5 C 0.9383(2) 1.0552(1) 0.91219(7)
C6 C 1.0587(2) 1.08406(10) 0.81389(7)
C7 C 0.9866(3) 1.14807(11) 0.80216(9)
C8 C 1.2068(2) 1.08975(12) 0.84463(9)
C9 C 1.0704(3) 1.04371(12) 0.75502(8)
C10 C 0.9001(2) 0.90391(10) 0.88007(7)
C11 C 0.8398(3) 0.86263(11) 0.82758(8)
C12 C 0.9515(3) 0.81462(11) 0.80205(9)
C13 C 0.9772(3) 0.75551(12) 0.84067(10)
C14 C 0.8654(3) 0.67016(13) 0.89480(11)
C15 C 0.5813(2) 0.87049(10) 0.93627(7)
C16 C 0.6175(3) 0.81437(11) 0.96806(9)
C17 C 0.5335(3) 0.75894(12) 0.96383(10)
C18 C 0.4101(3) 0.75838(13) 0.92703(10)
C19 C 0.3711(3) 0.81283(12) 0.89444(9)
C20 C 0.4561(2) 0.86762(10) 0.89889(8)
H1 H 0.62450 0.94910 1.03550
H2 H 0.73330 0.97180 0.86400
H3 H 1.00180 0.88220 0.95260
H4 H 0.89070 1.14110 0.78300
H5 H 1.04790 1.17380 0.77430
H6 H 0.97420 1.17110 0.84150
H7 H 1.19770 1.11540 0.88250
H8 H 1.27540 1.11090 0.81630
H9 H 1.24320 1.04660 0.85500
H10 H 1.11600 1.00210 0.76470
H11 H 1.13020 1.06670 0.72450
H12 H 0.97240 1.03640 0.73800
H13 H 0.98860 0.92740 0.86480
H14 H 0.80700 0.89130 0.79360
H15 H 0.75340 0.83860 0.84280
H16 H 0.91880 0.80070 0.76040
H17 H 1.04600 0.83730 0.79680
H18 H 0.91600 0.63690 0.87070
H19 H 0.76790 0.65460 0.90630
H20 H 0.92170 0.67960 0.93230
H21 H 0.70240 0.81400 0.99340
H22 H 0.56080 0.72130 0.98620
H23 H 0.35210 0.72040 0.92420
H24 H 0.28620 0.81270 0.86910
#END
