
#######################################################################
#
#                 Cambridge Crystallographic Data Centre
#                                CCDC
#
#######################################################################
#
# If this CIF has been generated from an entry in the Cambridge
# Structural Database, then it will include bibliographic, chemical,
# crystal, experimental, refinement or atomic coordinate data resulting
# from the CCDC's data processing and validation procedures.
#
#######################################################################

data_CSD_CIF_VORPIB
_audit_creation_date 1992-11-02
_audit_creation_method CSD-ConQuest-V1
_database_code_CSD VORPIB
_chemical_formula_sum 'C14 H21 N1 O9'
_chemical_formula_moiety
;
C14 H21 N1 O9
;
_journal_coden_Cambridge 156
_journal_volume 219
_journal_year 1991
_journal_page_first 9
_journal_name_full 'Carbohydr.Res. '
loop_
_publ_author_name
"Z.Ciunik"
"R.Szweda"
"Z.Smiatacz"
_chemical_name_systematic
;
Ethyl 3,4,6-tri-O-acetyl-2-deoxy-2-hydroxyimino-\a-D-arabino-hexopyranoside
;
_chemical_melting_point 412.15
_cell_volume   1721.698
_exptl_crystal_density_diffrn 1.34
_exptl_special_details
;
Melting point range 412.15-413.15K

;
_diffrn_ambient_temperature ?
_diffrn_special_details
;
The study was carried out at room temperature,in the range 283-303K

;
#These two values have been output from a single CSD field.
_refine_ls_R_factor_gt 0.051
_refine_ls_wR_factor_gt 0.051
_symmetry_cell_setting orthorhombic
_symmetry_space_group_name_H-M 'P 21 21 21'
_symmetry_Int_Tables_number 19
loop_
_symmetry_equiv_pos_site_id
_symmetry_equiv_pos_as_xyz
1 x,y,z
2 1/2+x,1/2-y,-z
3 -x,1/2+y,1/2-z
4 1/2-x,-y,1/2+z
_cell_length_a 8.998(2)
_cell_length_b 13.641(2)
_cell_length_c 14.027(3)
_cell_angle_alpha 90
_cell_angle_beta 90
_cell_angle_gamma 90
_cell_formula_units_Z 4
loop_
_atom_type_symbol
_atom_type_radius_bond
C 0.68
H 0.23
N 0.68
O 0.68
loop_
_atom_site_label
_atom_site_type_symbol
_atom_site_fract_x
_atom_site_fract_y
_atom_site_fract_z
O1 O 0.4267(3) 0.6365(2) -0.2023(2)
O2 O 0.7667(4) 0.5123(2) -0.2129(2)
O3 O 0.5590(3) 0.4459(2) 0.0356(2)
O4 O 0.3650(3) 0.5952(2) 0.1066(1)
O5 O 0.5656(3) 0.7171(2) -0.0849(2)
O6 O 0.4191(3) 0.8771(2) -0.0091(2)
O7 O 0.4338(3) 0.3307(2) -0.0450(2)
O8 O 0.5092(3) 0.6170(2) 0.2337(2)
O9 O 0.6003(4) 0.9661(3) 0.0551(3)
N1 N 0.6895(3) 0.4821(2) -0.1318(2)
C1 C 0.5629(4) 0.6415(3) -0.1543(2)
C2 C 0.5914(4) 0.5451(3) -0.1093(2)
C3 C 0.4956(4) 0.5230(2) -0.0230(2)
C4 C 0.4866(4) 0.6114(3) 0.0439(2)
C5 C 0.4540(4) 0.7048(2) -0.0137(2)
C6 C 0.4618(5) 0.7947(3) 0.0503(3)
C7 C 0.3924(6) 0.7231(3) -0.2568(3)
C8 C 0.2518(6) 0.7058(3) -0.3098(3)
C9 C 0.5212(4) 0.3526(3) 0.0130(3)
C10 C 0.6037(5) 0.2837(3) 0.0775(3)
C11 C 0.3898(4) 0.6005(3) 0.2015(2)
C12 C 0.2503(5) 0.5847(3) 0.2558(3)
C13 C 0.4985(5) 0.9596(3) -0.0005(3)
C14 C 0.4444(6) 1.0369(3) -0.0658(4)
H1 H 0.63800 0.66000 -0.20100
H2 H 0.87500 0.50000 -0.22900
H3 H 0.40100 0.49900 -0.04800
H4 H 0.58100 0.62400 0.07700
H5 H 0.36000 0.69900 -0.04400
H6 H 0.39100 0.78700 0.10300
H7 H 0.55700 0.80200 0.07900
H8 H 0.47400 0.73300 -0.30200
H9 H 0.38400 0.77700 -0.21700
H10 H 0.18400 0.68300 -0.27600
H11 H 0.22000 0.76200 -0.33900
H12 H 0.27000 0.65800 -0.35700
H13 H 0.69000 0.27300 0.06100
H14 H 0.56900 0.21200 0.09000
H15 H 0.62500 0.30800 0.13800
H16 H 0.25400 0.61100 0.30700
H17 H 0.23400 0.51800 0.26600
H18 H 0.16900 0.60700 0.22400
H19 H 0.50600 1.08700 -0.06400
H20 H 0.35000 1.05600 -0.04800
H21 H 0.43500 1.01500 -0.12600
#END
