
#######################################################################
#
#                 Cambridge Crystallographic Data Centre
#                                CCDC
#
#######################################################################
#
# If this CIF has been generated from an entry in the Cambridge
# Structural Database, then it will include bibliographic, chemical,
# crystal, experimental, refinement or atomic coordinate data resulting
# from the CCDC's data processing and validation procedures.
#
#######################################################################

data_CSD_CIF_VOSLAS
_audit_creation_date 2015-02-10
_audit_creation_method CSD-ConQuest-V1
_database_code_CSD VOSLAS
_database_code_depnum_ccdc_archive 'CCDC 1046757'
_chemical_formula_sum 'C15 H12 N2 O2'
_chemical_formula_moiety
;
C15 H12 N2 O2
;
_journal_coden_Cambridge 179
_journal_volume 53
_journal_year 2014
_journal_page_first 10495
_journal_name_full 'Angew.Chem.,Int.Ed. '
loop_
_publ_author_name
"Feng Chen"
"Xiaoqiang Huang"
"Xinyao Li"
"Tao Shen"
"Miancheng Zou"
"Ning Jiao"
_chemical_name_systematic
;
7-methoxy-3-phenylquinoxaline 1-oxide
;
_cell_volume   2366.428
_exptl_crystal_colour 'colorless'
_exptl_crystal_density_diffrn 1.416
_exptl_crystal_description 'block'
_diffrn_ambient_temperature 173
#These two values have been output from a single CSD field.
_refine_ls_R_factor_gt 0.038
_refine_ls_wR_factor_gt 0.038
_symmetry_cell_setting orthorhombic
_symmetry_space_group_name_H-M 'P b c a'
_symmetry_Int_Tables_number 61
loop_
_symmetry_equiv_pos_site_id
_symmetry_equiv_pos_as_xyz
1 x,y,z
2 1/2-x,-y,1/2+z
3 -x,1/2+y,1/2-z
4 1/2+x,1/2-y,-z
5 -x,-y,-z
6 -1/2+x,y,-1/2-z
7 x,-1/2-y,-1/2+z
8 -1/2-x,-1/2+y,z
_cell_length_a 13.2805(11)
_cell_length_b 7.0233(6)
_cell_length_c 25.371(2)
_cell_angle_alpha 90
_cell_angle_beta 90
_cell_angle_gamma 90
_cell_formula_units_Z 8
loop_
_atom_type_symbol
_atom_type_radius_bond
C 0.68
H 0.23
N 0.68
O 0.68
loop_
_atom_site_label
_atom_site_type_symbol
_atom_site_fract_x
_atom_site_fract_y
_atom_site_fract_z
O1 O 0.27127(10) 0.4390(2) 0.41481(5)
O2 O 0.44005(9) 0.2553(2) 0.58593(5)
N1 N 0.13575(11) 0.2385(2) 0.61289(6)
N2 N 0.34446(11) 0.2516(2) 0.59437(6)
C1 C 0.07234(14) 0.0506(3) 0.70755(8)
H1 H 0.03770 0.01270 0.67650
C2 C 0.03240(15) 0.0074(3) 0.75638(8)
H2 H -0.02930 -0.06060 0.75880
C3 C 0.08231(16) 0.0631(3) 0.80180(8)
H3 H 0.05460 0.03440 0.83540
C4 C 0.17241(16) 0.1606(3) 0.79815(8)
H4 H 0.20650 0.19880 0.82930
C5 C 0.21326(15) 0.2030(3) 0.74925(7)
H5 H 0.27560 0.26870 0.74700
C6 C 0.16301(14) 0.1494(2) 0.70336(7)
C7 C 0.20243(14) 0.1991(3) 0.65043(7)
C8 C 0.30662(14) 0.2026(3) 0.64149(7)
H6 H 0.35120 0.16960 0.66930
C9 C 0.27752(13) 0.2965(2) 0.55356(7)
C10 C 0.17406(13) 0.2868(2) 0.56488(7)
C11 C 0.10701(14) 0.3298(3) 0.52309(7)
H7 H 0.03640 0.32500 0.52900
C12 C 0.14238(14) 0.3777(3) 0.47462(7)
H8 H 0.09630 0.40460 0.44700
C13 C 0.24706(15) 0.3880(3) 0.46484(7)
C14 C 0.31504(14) 0.3479(3) 0.50401(7)
H9 H 0.38550 0.35480 0.49770
C15 C 0.37485(15) 0.4253(4) 0.39955(8)
H10 H 0.38220 0.46630 0.36280
H11 H 0.39740 0.29300 0.40300
H12 H 0.41580 0.50710 0.42240
#END
