
#######################################################################
#
#                 Cambridge Crystallographic Data Centre
#                                CCDC
#
#######################################################################
#
# If this CIF has been generated from an entry in the Cambridge
# Structural Database, then it will include bibliographic, chemical,
# crystal, experimental, refinement or atomic coordinate data resulting
# from the CCDC's data processing and validation procedures.
#
#######################################################################

data_CSD_CIF_VOVHAR
_audit_creation_date 2015-02-10
_audit_creation_method CSD-ConQuest-V1
_database_code_CSD VOVHAR
_database_code_depnum_ccdc_archive 'CCDC 982576'
_chemical_formula_sum 'C15 H10 N2 O3'
_chemical_formula_moiety
;
C15 H10 N2 O3
;
_journal_coden_Cambridge 119
_journal_volume 1088
_journal_year 2015
_journal_page_first 1
_journal_name_full 'J.Mol.Struct. '
loop_
_publ_author_name
"Chao-Zhi Zhang"
"Shi-Juan Li"
"Hui Cao"
"Ming-Xia Song"
"Qing-Gang Kong"
_chemical_name_systematic
;
3-(4-nitrophenyl)-2H-chromen-2-imine
;
_cell_volume   1221.639
_exptl_crystal_colour 'colorless'
_exptl_crystal_density_diffrn 1.448
_exptl_crystal_description 'block'
_diffrn_ambient_temperature 296
#These two values have been output from a single CSD field.
_refine_ls_R_factor_gt 0.0388
_refine_ls_wR_factor_gt 0.0388
_symmetry_cell_setting orthorhombic
_symmetry_space_group_name_H-M 'P 21 21 21'
_symmetry_Int_Tables_number 19
loop_
_symmetry_equiv_pos_site_id
_symmetry_equiv_pos_as_xyz
1 x,y,z
2 1/2-x,-y,1/2+z
3 -x,1/2+y,1/2-z
4 1/2+x,1/2-y,-z
_cell_length_a 3.7837(5)
_cell_length_b 14.7712(18)
_cell_length_c 21.858(3)
_cell_angle_alpha 90
_cell_angle_beta 90
_cell_angle_gamma 90
_cell_formula_units_Z 4
loop_
_atom_type_symbol
_atom_type_radius_bond
C 0.68
H 0.23
N 0.68
O 0.68
loop_
_atom_site_label
_atom_site_type_symbol
_atom_site_fract_x
_atom_site_fract_y
_atom_site_fract_z
O1 O 0.5893(5) 0.43089(9) 0.78997(6)
O2 O 0.9699(6) 0.98747(11) 0.86512(9)
O3 O 0.7442(7) 0.96569(11) 0.95388(9)
N1 N 0.4724(6) 0.57283(12) 0.75444(9)
H1 H 0.39420 0.54770 0.72160
N2 N 0.8371(7) 0.93846(13) 0.90361(10)
C1 C 0.6858(7) 0.28117(15) 0.82398(10)
H2 H 0.60020 0.25990 0.78680
C2 C 0.7990(7) 0.22186(15) 0.86852(11)
H3 H 0.78680 0.15990 0.86140
C3 C 0.9309(7) 0.25340(16) 0.92390(11)
H4 H 1.01120 0.21280 0.95330
C4 C 0.9423(7) 0.34500(15) 0.9350(1)
H5 H 1.02720 0.36600 0.97230
C5 C 0.8278(6) 0.40665(14) 0.89097(9)
C6 C 0.5892(6) 0.52393(14) 0.79689(10)
C7 C 0.7220(6) 0.56016(13) 0.85503(9)
C8 C 0.8325(6) 0.50334(15) 0.89885(9)
H6 H 0.91490 0.52720 0.93550
C9 C 0.7025(6) 0.37297(13) 0.83594(9)
C10 C 0.7319(6) 0.65973(13) 0.86407(9)
C11 C 0.8678(6) 0.71905(14) 0.82050(9)
H7 H 0.93820 0.69680 0.78260
C12 C 0.8994(6) 0.81039(14) 0.83279(10)
H8 H 0.99310 0.84960 0.80370
C13 C 0.7898(7) 0.84257(14) 0.88897(9)
C14 C 0.6462(6) 0.78617(15) 0.93263(9)
H9 H 0.56970 0.80930 0.96990
C15 C 0.6178(6) 0.69546(14) 0.92029(9)
H10 H 0.52160 0.65700 0.94960
#END
