
#######################################################################
#
#                 Cambridge Crystallographic Data Centre
#                                CCDC
#
#######################################################################
#
# If this CIF has been generated from an entry in the Cambridge
# Structural Database, then it will include bibliographic, chemical,
# crystal, experimental, refinement or atomic coordinate data resulting
# from the CCDC's data processing and validation procedures.
#
#######################################################################

data_CSD_CIF_VOWXEK10
_audit_creation_date 1994-04-11
_audit_creation_method CSD-ConQuest-V1
_database_code_CSD VOWXEK10
_chemical_formula_sum 'C18 H15 N1 O1'
_chemical_formula_moiety
;
C18 H15 N1 O1
;
_journal_coden_Cambridge 579
_journal_volume 12
_journal_year 1993
_journal_page_first 2591
_journal_name_full 'Organometallics '
loop_
_publ_author_name
"Shie-Hsiung Lin"
"Gene Hsiang Lee"
"Shie-Ming Peng"
"Rai-Shung Liu"
_chemical_name_systematic
;
3-(trans-3'-Phenyl-1'-propen-1'-yl)-5-phenylisoxazole
;
_cell_volume   1400.436
_exptl_crystal_density_diffrn 1.239
_diffrn_ambient_temperature ?
_diffrn_special_details
;
The study was carried out at room temperature,in the range 283-303K

;
#These two values have been output from a single CSD field.
_refine_ls_R_factor_gt 0.037
_refine_ls_wR_factor_gt 0.037
_symmetry_cell_setting monoclinic
_symmetry_space_group_name_H-M 'P 21/c'
_symmetry_Int_Tables_number 14
loop_
_symmetry_equiv_pos_site_id
_symmetry_equiv_pos_as_xyz
1 x,y,z
2 -x,1/2+y,1/2-z
3 -x,-y,-z
4 x,-1/2-y,-1/2+z
_cell_length_a 10.351(1)
_cell_length_b 5.723(2)
_cell_length_c 24.103(3)
_cell_angle_alpha 90
_cell_angle_beta 101.242(10)
_cell_angle_gamma 90
_cell_formula_units_Z 4
loop_
_atom_type_symbol
_atom_type_radius_bond
C 0.68
H 0.23
N 0.68
O 0.68
loop_
_atom_site_label
_atom_site_type_symbol
_atom_site_fract_x
_atom_site_fract_y
_atom_site_fract_z
C1 C 0.8223(3) 0.2944(5) 0.30127(12)
C2 C 0.9337(3) 0.3378(6) 0.34108(12)
C3 C 1.0339(3) 0.1759(6) 0.35209(12)
C4 C 1.0221(3) -0.0318(6) 0.32252(13)
C5 C 0.9103(3) -0.0775(5) 0.28245(12)
C6 C 0.8082(3) 0.0847(5) 0.27135(11)
C7 C 0.6911(3) 0.0426(5) 0.22860(12)
C8 C 0.5939(3) 0.1767(5) 0.20015(12)
C9 C 0.5102(3) 0.0260(5) 0.16317(12)
C10 C 0.3903(3) 0.0753(6) 0.12205(13)
C11 C 0.3359(3) 0.2841(6) 0.11279(12)
C12 C 0.2110(3) 0.3330(6) 0.07149(12)
C13 C 0.2280(3) 0.4916(5) 0.02334(12)
C14 C 0.1507(3) 0.6889(6) 0.01074(12)
C15 C 0.1667(3) 0.8358(6) -0.03296(14)
C16 C 0.2588(4) 0.7882(7) -0.06464(14)
C17 C 0.3349(3) 0.5906(8) -0.05383(15)
C18 C 0.3197(3) 0.4426(6) -0.00984(14)
O1 O 0.66942(20) -0.1832(4) 0.21065(9)
N1 N 0.5533(3) -0.1904(5) 0.16878(11)
H1 H 0.75300 0.41100 0.29300
H2 H 0.94300 0.48300 0.36200
H3 H 1.11300 0.21000 0.38000
H4 H 1.09200 -0.14900 0.33000
H5 H 0.89800 -0.22600 0.26200
H6 H 0.58300 0.34600 0.20500
H7 H 0.34700 -0.05500 0.09900
H8 H 0.38300 0.41700 0.13300
H9 H 0.14600 0.39700 0.09100
H10 H 0.17500 0.18300 0.05600
H11 H 0.08300 0.72300 0.03200
H12 H 0.10900 0.97200 -0.04200
H13 H 0.27300 0.89900 -0.09400
H14 H 0.40100 0.55400 -0.07800
H15 H 0.37400 0.29900 -0.00200
#END
