
#######################################################################
#
#                 Cambridge Crystallographic Data Centre
#                                CCDC
#
#######################################################################
#
# If this CIF has been generated from an entry in the Cambridge
# Structural Database, then it will include bibliographic, chemical,
# crystal, experimental, refinement or atomic coordinate data resulting
# from the CCDC's data processing and validation procedures.
#
#######################################################################

data_CSD_CIF_VOWXEK
_audit_creation_date 1992-12-10
_audit_creation_method CSD-ConQuest-V1
_database_code_CSD VOWXEK
_database_code_depnum_ccdc_archive 'CCDC 1286824'
_chemical_formula_sum 'C18 H15 N1 O1'
_chemical_formula_moiety
;
C18 H15 N1 O1
;
_journal_coden_Cambridge 182
_journal_year 1992
_journal_page_first 615
_journal_name_full 'Chem.Commun. '
loop_
_publ_author_name
"Shie-Hsiung Lin"
"Shie-Ming Peng"
"Rai-Shung Liu"
_chemical_name_systematic
;
3-(2-Benzylethenyl)-5-phenylisoxazole
;
_cell_volume   1412.635
_exptl_crystal_density_diffrn 1.23
_diffrn_ambient_temperature ?
_diffrn_special_details
;
The study was carried out at room temperature,in the range 283-303K

;
#These two values have been output from a single CSD field.
_refine_ls_R_factor_gt 0.037
_refine_ls_wR_factor_gt 0.037
_symmetry_cell_setting monoclinic
_symmetry_space_group_name_H-M 'P 21/c'
_symmetry_Int_Tables_number 14
loop_
_symmetry_equiv_pos_site_id
_symmetry_equiv_pos_as_xyz
1 x,y,z
2 -x,1/2+y,1/2-z
3 -x,-y,-z
4 x,-1/2-y,-1/2+z
_cell_length_a 10.3511(13)
_cell_length_b 5.7728(18)
_cell_length_c 24.103(3)
_cell_angle_alpha 90
_cell_angle_beta 101.242(10)
_cell_angle_gamma 90
_cell_formula_units_Z 4
loop_
_atom_type_symbol
_atom_type_radius_bond
C 0.68
H 0.23
N 0.68
O 0.68
loop_
_atom_site_label
_atom_site_type_symbol
_atom_site_fract_x
_atom_site_fract_y
_atom_site_fract_z
C1 C 0.8221(3) 0.2946(5) 0.30124(13)
C2 C 0.9336(3) 0.3383(6) 0.34105(12)
C3 C 1.0339(3) 0.1760(6) 0.35208(12)
C4 C 1.0221(3) -0.0320(6) 0.32254(13)
C5 C 0.9102(3) -0.0777(5) 0.28243(12)
C6 C 0.8083(3) 0.0845(5) 0.27137(11)
C7 C 0.6911(3) 0.0426(5) 0.22861(12)
C8 C 0.5937(3) 0.1769(5) 0.20012(12)
C9 C 0.5101(3) 0.0260(6) 0.16316(12)
C10 C 0.3903(3) 0.0752(6) 0.12198(13)
C11 C 0.3359(3) 0.2842(6) 0.11280(12)
C12 C 0.2109(3) 0.3330(6) 0.07142(12)
C13 C 0.2279(3) 0.4917(6) 0.02333(12)
C14 C 0.1504(3) 0.6889(6) 0.01079(12)
C15 C 0.1667(4) 0.8360(6) -0.03294(14)
C16 C 0.2589(4) 0.7883(7) -0.06465(14)
C17 C 0.3351(3) 0.5903(8) -0.05388(15)
C18 C 0.3198(3) 0.4424(6) -0.00984(14)
N1 N 0.5531(3) -0.1904(5) 0.16874(12)
O1 O 0.66939(20) -0.1832(4) 0.21063(9)
H1 H 0.75200 0.41700 0.29300
H2 H 0.94300 0.48300 0.36500
H3 H 1.11400 0.21000 0.38100
H4 H 1.09500 -0.15100 0.33000
H5 H 0.90200 -0.22900 0.26200
H6 H 0.58700 0.35000 0.20500
H7 H 0.34400 -0.05600 0.09900
H8 H 0.38300 0.41900 0.13300
H9 H 0.17100 0.17900 0.05700
H10 H 0.14300 0.39500 0.09200
H11 H 0.08300 0.73100 0.03400
H12 H 0.10900 0.97300 -0.04200
H13 H 0.27200 0.89400 -0.09500
H14 H 0.40300 0.55600 -0.07900
H15 H 0.37500 0.29600 -0.00100
#END
