
#######################################################################
#
#                 Cambridge Crystallographic Data Centre
#                                CCDC
#
#######################################################################
#
# If this CIF has been generated from an entry in the Cambridge
# Structural Database, then it will include bibliographic, chemical,
# crystal, experimental, refinement or atomic coordinate data resulting
# from the CCDC's data processing and validation procedures.
#
#######################################################################

data_CSD_CIF_VOXFIX
_audit_creation_date 1992-10-19
_audit_creation_method CSD-ConQuest-V1
_database_code_CSD VOXFIX
_chemical_formula_sum 'C14 H21 N3 O2'
_chemical_formula_moiety
;
C14 H21 N3 O2
;
_journal_coeditor_code "IUCr AS0547"
_journal_coden_Cambridge 591
_journal_volume 48
_journal_year 1992
_journal_page_first 1051
_journal_name_full 'Acta Crystallogr.,Sect.C:Cryst.Struct.Commun. '
loop_
_publ_author_name
"K.Yamaguchi"
"G.Matsumura"
"M.Tanno"
"S.Sueyoshi"
"N.Miyata"
_chemical_name_systematic
;
3,3-Di-isopropyl-1(Z)-nitroso-1-(p-tolyl)urea
;
_cell_volume   1482.872
_exptl_crystal_density_diffrn 1.179
_exptl_special_details
;
antitumour agent
Highly unstable at room temperature

;
_diffrn_ambient_temperature 143
#These two values have been output from a single CSD field.
_refine_ls_R_factor_gt 0.045
_refine_ls_wR_factor_gt 0.045
_symmetry_cell_setting monoclinic
_symmetry_space_group_name_H-M 'P 21/a'
_symmetry_Int_Tables_number 14
loop_
_symmetry_equiv_pos_site_id
_symmetry_equiv_pos_as_xyz
1 x,y,z
2 1/2-x,1/2+y,-z
3 -x,-y,-z
4 -1/2+x,-1/2-y,z
_cell_length_a 13.854(1)
_cell_length_b 9.071(1)
_cell_length_c 11.808(4)
_cell_angle_alpha 90
_cell_angle_beta 92.14(1)
_cell_angle_gamma 90
_cell_formula_units_Z 4
loop_
_atom_type_symbol
_atom_type_radius_bond
C 0.68
H 0.23
N 0.68
O 0.68
loop_
_atom_site_label
_atom_site_type_symbol
_atom_site_fract_x
_atom_site_fract_y
_atom_site_fract_z
N1 N 1.0070(1) 0.5036(1) 0.2937(1)
C1 C 0.9918(1) 0.6514(2) 0.2418(1)
O1 O 0.9292(1) 0.6641(1) 0.1683(1)
N2 N 1.0534(1) 0.7537(1) 0.2799(1)
N3 N 0.9501(1) 0.4517(2) 0.3723(1)
O2 O 0.8929(1) 0.5441(1) 0.4086(1)
C2 C 1.0784(1) 0.4073(2) 0.2501(1)
C3 C 1.0925(1) 0.4030(2) 0.1353(1)
C4 C 1.1631(1) 0.3121(2) 0.0936(2)
C5 C 1.2201(1) 0.2244(2) 0.1662(1)
C6 C 1.2039(1) 0.2300(2) 0.2809(2)
C7 C 1.1341(1) 0.3207(2) 0.3245(1)
C8 C 1.2975(2) 0.1272(3) 0.1212(2)
C9 C 1.0559(1) 0.8967(2) 0.2174(2)
C10 C 0.9638(2) 0.9848(3) 0.2284(2)
C11 C 1.0830(2) 0.8741(3) 0.0955(2)
C12 C 1.1229(1) 0.7318(2) 0.3769(2)
C13 C 1.2250(2) 0.7192(4) 0.3376(3)
C14 C 1.1100(2) 0.8521(3) 0.4658(2)
H1 H 1.053(1) 0.464(2) 0.081(2)
H2 H 1.172(1) 0.306(2) 0.014(2)
H3 H 1.246(1) 0.173(2) 0.335(2)
H4 H 1.125(1) 0.327(2) 0.408(2)
H5 H 1.289(2) 0.107(3) 0.047(2)
H6 H 1.307(1) 0.036(3) 0.166(2)
H7 H 1.361(2) 0.170(3) 0.130(2)
H8 H 1.111(1) 0.947(2) 0.257(2)
H9 H 0.907(1) 0.943(3) 0.189(2)
H10 H 0.949(1) 0.994(3) 0.306(2)
H11 H 0.974(2) 1.073(3) 0.197(2)
H12 H 1.034(2) 0.823(3) 0.050(2)
H13 H 1.147(2) 0.821(3) 0.093(2)
H14 H 1.089(1) 0.962(3) 0.056(2)
H15 H 1.106(1) 0.633(2) 0.414(2)
H16 H 1.230(2) 0.652(3) 0.277(2)
H17 H 1.247(2) 0.810(3) 0.299(2)
H18 H 1.259(2) 0.704(3) 0.393(2)
H19 H 1.155(2) 0.826(3) 0.531(2)
H20 H 1.038(2) 0.859(3) 0.483(2)
H21 H 1.127(2) 0.941(3) 0.440(2)
#END
