
#######################################################################
#
#                 Cambridge Crystallographic Data Centre
#                                CCDC
#
#######################################################################
#
# If this CIF has been generated from an entry in the Cambridge
# Structural Database, then it will include bibliographic, chemical,
# crystal, experimental, refinement or atomic coordinate data resulting
# from the CCDC's data processing and validation procedures.
#
#######################################################################

data_CSD_CIF_VOXFET
_audit_creation_date 1992-10-19
_audit_creation_method CSD-ConQuest-V1
_database_code_CSD VOXFET
_chemical_formula_sum 'C9 H11 N3 O3'
_chemical_formula_moiety
;
C9 H11 N3 O3
;
_journal_coeditor_code "IUCr AS0547"
_journal_coden_Cambridge 591
_journal_volume 48
_journal_year 1992
_journal_page_first 1051
_journal_name_full 'Acta Crystallogr.,Sect.C:Cryst.Struct.Commun. '
loop_
_publ_author_name
"K.Yamaguchi"
"G.Matsumura"
"M.Tanno"
"S.Sueyoshi"
"N.Miyata"
_chemical_name_systematic
;
1-(4-Methoxyphenyl)-3-methyl-1(E)-nitrosourea
;
_cell_volume   2059.729
_exptl_crystal_density_diffrn 1.349
_exptl_special_details
;
antitumour activity
Unstable at room temperature

;
_diffrn_ambient_temperature ?
_diffrn_special_details
;
The study was carried out at room temperature,in the range 283-303K

;
#These two values have been output from a single CSD field.
_refine_ls_R_factor_gt 0.049
_refine_ls_wR_factor_gt 0.049
_symmetry_cell_setting tetragonal
_symmetry_space_group_name_H-M 'P -4 21 c'
_symmetry_Int_Tables_number 114
loop_
_symmetry_equiv_pos_site_id
_symmetry_equiv_pos_as_xyz
1 x,y,z
2 -y,x,-z
3 -x,-y,z
4 y,-x,-z
5 1/2-x,1/2+y,1/2-z
6 1/2+y,1/2+x,1/2+z
7 1/2+x,1/2-y,1/2-z
8 1/2-y,1/2-x,1/2+z
_cell_length_a 14.232(1)
_cell_length_b 14.232(1)
_cell_length_c 10.169(4)
_cell_angle_alpha 90
_cell_angle_beta 90
_cell_angle_gamma 90
_cell_formula_units_Z 8
loop_
_atom_type_symbol
_atom_type_radius_bond
C 0.68
H 0.23
N 0.68
O 0.68
loop_
_atom_site_label
_atom_site_type_symbol
_atom_site_fract_x
_atom_site_fract_y
_atom_site_fract_z
N1 N 0.8325(3) 0.7807(2) -0.1467(4)
C1 C 0.8361(3) 0.6802(3) -0.1535(5)
O1 O 0.8225(3) 0.6353(2) -0.0528(3)
N2 N 0.8568(3) 0.6439(3) -0.2690(4)
N3 N 0.8477(3) 0.8285(3) -0.2602(4)
O2 O 0.8461(3) 0.9137(2) -0.2481(3)
C2 C 0.8150(3) 0.8278(3) -0.0232(4)
C3 C 0.8880(3) 0.8461(3) 0.0608(5)
C4 C 0.8709(3) 0.8879(3) 0.1816(5)
C5 C 0.7800(3) 0.9117(3) 0.2153(5)
C6 C 0.7066(3) 0.8960(3) 0.1278(5)
C7 C 0.7236(3) 0.8531(3) 0.0084(5)
O3 O 0.7545(2) 0.9512(2) 0.3329(3)
C8 C 0.8239(4) 0.9555(4) 0.4349(6)
C9 C 0.8635(6) 0.5435(5) -0.2868(6)
H1 H 0.862(4) 0.678(4) -0.328(6)
H2 H 0.948(4) 0.825(4) 0.038(6)
H3 H 0.926(4) 0.905(4) 0.230(5)
H4 H 0.640(4) 0.914(4) 0.152(6)
H5 H 0.669(4) 0.836(4) -0.053(5)
H6 H 0.854(4) 0.894(4) 0.451(5)
H7 H 0.879(4) 0.985(4) 0.402(5)
H8 H 0.783(4) 0.979(5) 0.511(7)
H9 H 0.881(4) 0.529(4) -0.368(7)
H10 H 0.914(4) 0.514(4) -0.237(7)
H11 H 0.823(6) 0.512(6) -0.253(9)
#END
