
#######################################################################
#
#                 Cambridge Crystallographic Data Centre
#                                CCDC
#
#######################################################################
#
# If this CIF has been generated from an entry in the Cambridge
# Structural Database, then it will include bibliographic, chemical,
# crystal, experimental, refinement or atomic coordinate data resulting
# from the CCDC's data processing and validation procedures.
#
#######################################################################

data_CSD_CIF_VUGMIV
_audit_creation_date 2015-06-13
_audit_creation_method CSD-ConQuest-V1
_database_code_CSD VUGMIV
_database_code_depnum_ccdc_archive 'CCDC 1050562; not CCDC 1055062 as published'
_chemical_formula_sum 'C6 H5 N5 O7'
_chemical_formula_moiety
;
C6 H5 N5 O7
;
_journal_coden_Cambridge 1135
_journal_volume 25
_journal_year 2015
_journal_page_first 193
_journal_name_full 'Mendeleev Commun. '
loop_
_publ_author_name
"I.L.Yudin"
"N.V.Palysaeva"
"B.B.Averkiev"
"A.B.Sheremetev"
_chemical_name_systematic
;
2-methoxy-3-(trinitromethyl)pyrazine
;
_cell_volume   1999.111
_exptl_crystal_colour 'colorless'
_exptl_crystal_density_diffrn 1.722
_exptl_crystal_description 'prism'
_diffrn_ambient_temperature 110
#These two values have been output from a single CSD field.
_refine_ls_R_factor_gt 0.0505
_refine_ls_wR_factor_gt 0.0505
_symmetry_cell_setting orthorhombic
_symmetry_space_group_name_H-M 'P b c a'
_symmetry_Int_Tables_number 61
loop_
_symmetry_equiv_pos_site_id
_symmetry_equiv_pos_as_xyz
1 x,y,z
2 1/2-x,-y,1/2+z
3 -x,1/2+y,1/2-z
4 1/2+x,1/2-y,-z
5 -x,-y,-z
6 -1/2+x,y,-1/2-z
7 x,-1/2-y,-1/2+z
8 -1/2-x,-1/2+y,z
_cell_length_a 12.427(2)
_cell_length_b 11.839(2)
_cell_length_c 13.588(2)
_cell_angle_alpha 90
_cell_angle_beta 90
_cell_angle_gamma 90
_cell_formula_units_Z 8
loop_
_atom_type_symbol
_atom_type_radius_bond
C 0.68
H 0.23
N 0.68
O 0.68
loop_
_atom_site_label
_atom_site_type_symbol
_atom_site_fract_x
_atom_site_fract_y
_atom_site_fract_z
O1 O 0.14499(10) 0.85978(9) 0.27786(9)
N1 N 0.12629(11) 1.15875(10) 0.24935(10)
O2 O 0.32039(10) 1.17038(9) 0.10377(9)
C1 C 0.14598(12) 1.05024(12) 0.23329(11)
O3 O 0.16601(10) 1.16317(9) 0.02781(9)
C2 C 0.12093(12) 0.96600(12) 0.30289(12)
O4 O 0.17770(11) 0.93355(11) -0.01319(9)
N2 N 0.07749(11) 0.99154(11) 0.38884(10)
O5 O 0.04721(10) 0.92390(11) 0.09295(10)
N3 N 0.23400(11) 1.12799(10) 0.08424(10)
C3 C 0.05662(12) 1.10181(14) 0.40438(12)
H1 H 0.0246(16) 1.1222(17) 0.4670(15)
O6 O 0.35354(10) 0.98850(11) 0.23924(10)
N4 N 0.13682(11) 0.95134(10) 0.06635(10)
C4 C 0.08002(13) 1.18465(13) 0.33552(13)
H2 H 0.0644(15) 1.2617(16) 0.3471(14)
O7 O 0.33892(10) 0.88268(10) 0.10898(10)
N5 N 0.30915(10) 0.95635(10) 0.16446(10)
C5 C 0.20340(12) 1.02003(11) 0.14013(11)
C6 C 0.11943(15) 0.77122(13) 0.34818(13)
H3 H 0.1647(16) 0.7835(18) 0.4081(16)
H4 H 0.1392(16) 0.7018(19) 0.3131(15)
H5 H 0.0436(19) 0.7734(18) 0.3626(16)
#END
