
#######################################################################
#
#                 Cambridge Crystallographic Data Centre
#                                CCDC
#
#######################################################################
#
# If this CIF has been generated from an entry in the Cambridge
# Structural Database, then it will include bibliographic, chemical,
# crystal, experimental, refinement or atomic coordinate data resulting
# from the CCDC's data processing and validation procedures.
#
#######################################################################

data_CSD_CIF_VUGVUQ
_audit_creation_date 2015-06-13
_audit_creation_method CSD-ConQuest-V1
_database_code_CSD VUGVUQ
_database_code_depnum_ccdc_archive 'CCDC 1405677'
_chemical_formula_sum 'C17 H17 N1 O4'
_chemical_formula_moiety
;
C17 H17 N1 O4
;
_journal_coeditor_code "ff2138"
_journal_coden_Cambridge 1828
_journal_volume 71
_journal_year 2015
_journal_page_first o485
_journal_name_full 'Acta Crystallogr.,Sect.E:Cryst.Commun. '
loop_
_publ_author_name
"J.K.Lee"
"S.-J.Min"
"Y.S.Cho"
"J.H.Kwon"
"J.Park"
_chemical_name_systematic
;
5,5-Dimethyl-2-(3-(4-nitrophenyl)prop-2-en-1-ylidene)cyclohexane-1,3-dione
;
_cell_volume   1544.791
_exptl_crystal_colour 'yellow'
_exptl_crystal_density_diffrn 1.287
_exptl_crystal_description 'block'
_exptl_crystal_preparation 'ethanol'
_diffrn_ambient_temperature 296
#These two values have been output from a single CSD field.
_refine_ls_R_factor_gt 0.0716
_refine_ls_wR_factor_gt 0.0716
_symmetry_cell_setting monoclinic
_symmetry_space_group_name_H-M 'P 21/n'
_symmetry_Int_Tables_number 14
loop_
_symmetry_equiv_pos_site_id
_symmetry_equiv_pos_as_xyz
1 x,y,z
2 1/2-x,1/2+y,1/2-z
3 -x,-y,-z
4 -1/2+x,-1/2-y,-1/2+z
_cell_length_a 13.498(2)
_cell_length_b 7.0791(9)
_cell_length_c 16.1717(19)
_cell_angle_alpha 90
_cell_angle_beta 91.420(4)
_cell_angle_gamma 90
_cell_formula_units_Z 4
loop_
_atom_type_symbol
_atom_type_radius_bond
C 0.68
H 0.23
N 0.68
O 0.68
loop_
_atom_site_label
_atom_site_type_symbol
_atom_site_fract_x
_atom_site_fract_y
_atom_site_fract_z
O1 O 0.6218(3) 0.3243(5) 0.22209(16)
O2 O 0.4678(3) -0.1508(4) 0.37594(14)
O3 O 0.8119(3) 1.2273(4) 0.56257(19)
O4 O 0.7964(3) 1.1164(5) 0.68389(19)
N1 N 0.7877(3) 1.1031(5) 0.6090(2)
C1 C 0.5711(3) 0.1820(5) 0.2258(2)
C2 C 0.5393(3) 0.0801(5) 0.1507(2)
C3 C 0.5375(3) -0.1341(5) 0.1603(2)
C4 C 0.4686(3) -0.1804(6) 0.2302(2)
C5 C 0.4923(3) -0.0828(5) 0.3103(2)
C6 C 0.5423(3) 0.1050(5) 0.30814(19)
C7 C 0.5588(3) 0.1923(5) 0.3802(3)
C8 C 0.6060(3) 0.3708(5) 0.3991(2)
C9 C 0.6183(3) 0.4260(5) 0.4772(3)
C10 C 0.6637(3) 0.6006(4) 0.50901(18)
C11 C 0.7006(3) 0.7417(5) 0.45815(19)
C12 C 0.7411(3) 0.9045(5) 0.49093(19)
C13 C 0.7450(3) 0.9282(4) 0.57532(18)
C14 C 0.7105(3) 0.7914(5) 0.62813(18)
C15 C 0.6701(3) 0.6298(5) 0.59411(19)
C16 C 0.6418(3) -0.2060(6) 0.1798(3)
C17 C 0.4986(4) -0.2254(7) 0.0804(3)
H1 H 0.58360 0.11240 0.10650
H2 H 0.47340 0.12280 0.13430
H3 H 0.40150 -0.14730 0.21280
H4 H 0.47020 -0.31570 0.23960
H5 H 0.69780 0.72560 0.40110
H6 H 0.76560 0.99750 0.45640
H7 H 0.71440 0.80790 0.68520
H8 H 0.64610 0.53710 0.62910
H9 H 0.66740 -0.14520 0.22890
H10 H 0.68380 -0.17790 0.13430
H11 H 0.63990 -0.34010 0.18840
H12 H 0.49840 -0.36030 0.08670
H13 H 0.54050 -0.19120 0.03570
H14 H 0.43230 -0.18220 0.06850
H15 H 0.603(3) 0.352(5) 0.520(2)
H16 H 0.630(3) 0.447(5) 0.350(3)
H17 H 0.540(3) 0.130(4) 0.4304(18)
#END
