
#######################################################################
#
#                 Cambridge Crystallographic Data Centre
#                                CCDC
#
#######################################################################
#
# If this CIF has been generated from an entry in the Cambridge
# Structural Database, then it will include bibliographic, chemical,
# crystal, experimental, refinement or atomic coordinate data resulting
# from the CCDC's data processing and validation procedures.
#
#######################################################################

data_CSD_CIF_VUHHOX
_audit_creation_date 2015-06-13
_audit_creation_method CSD-ConQuest-V1
_database_code_CSD VUHHOX
_database_code_depnum_ccdc_archive 'CCDC 1022820'
_chemical_formula_sum 'C21 H17 N5 O4'
_chemical_formula_moiety
;
C21 H17 N5 O4
;
_journal_coden_Cambridge 1135
_journal_volume 25
_journal_year 2015
_journal_page_first 188
_journal_name_full 'Mendeleev Commun. '
loop_
_publ_author_name
"M.I.Pleshchev"
"N.V.D.Gupta"
"M.I.Struchkova"
"A.S.Goloveshkin"
"I.S.Bushmarinov"
"D.V.Khakimov"
"N.N.Makhova"
_chemical_name_systematic
;
(1S*,3R*)-1-(4-Methoxyphenyl)-3-(4-nitrophenyl)-5-oxodihydro-1H,5H-pyrazolo[1,
2-a]pyrazole-2,2(3H)-dicarbonitrile
;
_cell_volume    984.205
_exptl_crystal_colour 'colorless'
_exptl_crystal_density_diffrn 1.361
_exptl_crystal_description 'block'
_exptl_crystal_preparation 'propan-2-ol'
_diffrn_ambient_temperature 120
#These two values have been output from a single CSD field.
_refine_ls_R_factor_gt 0.0474
_refine_ls_wR_factor_gt 0.0474
_symmetry_cell_setting triclinic
_symmetry_space_group_name_H-M 'P -1'
_symmetry_Int_Tables_number 2
loop_
_symmetry_equiv_pos_site_id
_symmetry_equiv_pos_as_xyz
1 x,y,z
2 -x,-y,-z
_cell_length_a 10.2504(6)
_cell_length_b 10.7403(6)
_cell_length_c 10.9216(7)
_cell_angle_alpha 86.646(1)
_cell_angle_beta 67.720(1)
_cell_angle_gamma 63.235(1)
_cell_formula_units_Z 2
loop_
_atom_type_symbol
_atom_type_radius_bond
C 0.68
H 0.23
N 0.68
O 0.68
loop_
_atom_site_label
_atom_site_type_symbol
_atom_site_fract_x
_atom_site_fract_y
_atom_site_fract_z
N1 N 0.83233(12) 0.72138(10) 0.16935(10)
O1 O 0.8273(1) 0.58554(9) 0.01849(9)
N2 N 0.90478(12) 0.81169(10) 0.1651(1)
C1 C 1.01704(14) 0.62531(12) 0.27143(12)
C2 C 0.73602(14) 0.63517(13) 0.38420(12)
C3 C 1.21686(14) 0.94295(13) 0.23861(13)
H1 H 1.17780 1.02640 0.29200
C4 C 1.06616(13) 0.70686(12) 0.15298(12)
H2 H 1.11940 0.64390 0.06880
O2 O 1.49063(11) 0.90644(10) 0.15411(11)
C5 C 1.17041(14) 0.76756(12) 0.15800(12)
C6 C 0.87482(14) 0.61474(12) 0.25554(12)
H3 H 0.91650 0.52220 0.20670
C7 C 0.84969(14) 0.68131(13) 0.04352(12)
C8 C 0.90157(15) 0.87737(13) 0.04178(13)
H4 H 0.99470 0.89170 -0.00170
H5 H 0.80720 0.96770 0.06310
C9 C 1.11364(14) 0.89296(13) 0.23621(12)
H6 H 1.00530 0.94420 0.28760
C10 C 0.96553(14) 0.70575(13) 0.40104(12)
C11 C 1.15025(15) 0.48610(13) 0.26032(12)
C12 C 1.37870(15) 0.86697(13) 0.16058(14)
N3 N 1.25543(15) 0.38018(12) 0.25239(12)
C13 C 0.73730(16) 0.51990(14) 0.44962(13)
H7 H 0.82430 0.43140 0.41510
N4 N 0.93037(15) 0.76567(13) 0.50056(12)
N5 N 0.34422(16) 0.68861(16) 0.73761(12)
O3 O 0.34236(15) 0.58491(14) 0.78826(11)
C14 C 0.48190(16) 0.66920(15) 0.61476(13)
C15 C 1.43706(15) 0.74157(15) 0.08127(15)
H8 H 1.54540 0.69060 0.02940
C16 C 0.90021(17) 0.77526(15) -0.04894(13)
H9 H 0.82530 0.82530 -0.09000
H10 H 1.00510 0.72130 -0.11860
C17 C 1.33349(15) 0.69317(14) 0.07989(14)
H11 H 1.37280 0.60980 0.02620
C18 C 0.60892(17) 0.53645(15) 0.56644(13)
H12 H 0.60870 0.45990 0.61090
C19 C 0.60624(16) 0.76724(15) 0.43564(14)
H13 H 0.60560 0.84420 0.39170
C20 C 0.47750(17) 0.78523(16) 0.55210(14)
H14 H 0.39030 0.87360 0.58710
O4 O 0.23753(15) 0.80893(15) 0.78336(13)
C21 C 1.43588(18) 1.03847(16) 0.2245(2)
H15 H 1.36790 1.11170 0.18960
H16 H 1.52520 1.05290 0.21400
H17 H 1.37740 1.04040 0.31750
#END
