
#######################################################################
#
#                 Cambridge Crystallographic Data Centre
#                                CCDC
#
#######################################################################
#
# If this CIF has been generated from an entry in the Cambridge
# Structural Database, then it will include bibliographic, chemical,
# crystal, experimental, refinement or atomic coordinate data resulting
# from the CCDC's data processing and validation procedures.
#
#######################################################################

data_CSD_CIF_VUHRUN
_audit_creation_date 2015-06-15
_audit_creation_method CSD-ConQuest-V1
_database_code_CSD VUHRUN
_database_code_depnum_ccdc_archive 'CCDC 1041193'
_chemical_formula_sum 'C36 H53 N2 O5'
_chemical_formula_moiety
;
C36 H53 N2 O5
;
_journal_coden_Cambridge 777
_journal_volume 11
_journal_year 2015
_journal_page_first 5563
_journal_name_full 'Soft Matter '
loop_
_publ_author_name
"Y.Takemoto"
"T.Yamamoto"
"N.Ikuma"
"Y.Uchida"
"K.Suzuki"
"S.Shimono"
"H.Takahashi"
"N.Sato"
"Yojiro Oba"
"R.Inoue"
"M.Sugiyama"
"H.Tsue"
"T.Kato"
"J.Yamauchi"
"R.Tamura"
_chemical_name_systematic
;
N-(4-(1-hydroxy-2,5-dimethyl-5-(4-(tetradecyloxy)phenyl)pyrrolidin-2-yl)benzoy
l)alanine
;
_chemical_melting_point 419
_cell_volume   3410.880
_exptl_crystal_colour 'pale yellow'
_exptl_crystal_density_diffrn 1.154
_exptl_special_details
;
Melting point range 419-421K
Magnetic properties

;
_exptl_crystal_description 'prism'
_exptl_crystal_preparation 'Methanol/water'
_diffrn_ambient_temperature 100
#These two values have been output from a single CSD field.
_refine_ls_R_factor_gt 0.0822
_refine_ls_wR_factor_gt 0.0822
_symmetry_cell_setting orthorhombic
_symmetry_space_group_name_H-M 'P 21 21 21'
_symmetry_Int_Tables_number 19
loop_
_symmetry_equiv_pos_site_id
_symmetry_equiv_pos_as_xyz
1 x,y,z
2 1/2-x,-y,1/2+z
3 1/2+x,1/2-y,-z
4 -x,1/2+y,1/2-z
_cell_length_a 9.576(3)
_cell_length_b 13.430(4)
_cell_length_c 26.522(8)
_cell_angle_alpha 90
_cell_angle_beta 90
_cell_angle_gamma 90
_cell_formula_units_Z 4
loop_
_atom_type_symbol
_atom_type_radius_bond
C 0.68
H 0.23
N 0.68
O 0.68
loop_
_atom_site_label
_atom_site_type_symbol
_atom_site_fract_x
_atom_site_fract_y
_atom_site_fract_z
C1 C 0.0611(3) -0.0342(2) 0.12402(12)
C2 C 0.1937(3) -0.0853(2) 0.10424(14)
H1 H 0.27850 -0.05620 0.11970
H2 H 0.19170 -0.15770 0.11110
C3 C 0.1889(4) -0.0644(2) 0.04736(14)
H3 H 0.25390 -0.10840 0.02880
H4 H 0.21250 0.00590 0.04000
C4 C 0.0356(4) -0.0874(2) 0.03350(12)
C5 C -0.0004(4) -0.0805(3) 0.17115(13)
H5 H -0.09050 -0.04930 0.17860
H6 H 0.06350 -0.07010 0.19950
H7 H -0.01380 -0.15200 0.16580
C6 C -0.0193(4) -0.0311(2) -0.01197(13)
H8 H -0.11800 -0.04760 -0.01720
H9 H 0.03440 -0.05010 -0.04190
H10 H -0.00980 0.04060 -0.00620
C7 C 0.0887(3) 0.0776(2) 0.13116(12)
C8 C 0.0366(3) 0.1502(2) 0.09932(13)
H11 H -0.02550 0.13150 0.07300
C9 C 0.0731(3) 0.2510(2) 0.10485(12)
H12 H 0.03620 0.29990 0.08260
C10 C 0.1634(3) 0.2779(2) 0.14305(12)
C11 C 0.2167(4) 0.2057(2) 0.17552(12)
H13 H 0.27930 0.22390 0.20170
C12 C 0.1780(4) 0.1075(2) 0.16929(12)
H14 H 0.21370 0.05890 0.19190
C13 C 0.0199(3) -0.2001(2) 0.02701(13)
C14 C 0.0863(3) -0.2456(2) -0.01396(13)
H15 H 0.13420 -0.20530 -0.03770
C15 C 0.0840(3) -0.3472(2) -0.02079(13)
H16 H 0.13050 -0.37630 -0.04880
C16 C 0.0132(3) -0.4071(2) 0.01353(12)
C17 C -0.0532(3) -0.3635(2) 0.05405(12)
H17 H -0.10130 -0.40410 0.07770
C18 C -0.0504(3) -0.2608(2) 0.06072(13)
H18 H -0.09730 -0.23190 0.08870
C19 C -0.0029(3) -0.5173(2) 0.00701(12)
C20 C 0.1669(4) 0.4501(2) 0.11826(13)
H19 H 0.06390 0.45580 0.11670
H20 H 0.20230 0.43460 0.08410
C21 C 0.2308(4) 0.5459(2) 0.13767(13)
H21 H 0.21920 0.59830 0.11170
H22 H 0.33220 0.53550 0.14260
C22 C 0.1675(4) 0.5826(2) 0.18695(13)
H23 H 0.16930 0.52780 0.21190
H24 H 0.06870 0.60090 0.18110
C23 C 0.2449(4) 0.6721(2) 0.20849(13)
H25 H 0.34340 0.65290 0.21440
H26 H 0.24470 0.72580 0.18290
C24 C 0.1855(4) 0.7134(2) 0.25735(13)
H27 H 0.18340 0.65960 0.28290
H28 H 0.08810 0.73520 0.25140
C25 C 0.2698(3) 0.8013(2) 0.27825(13)
H29 H 0.36590 0.77850 0.28570
H30 H 0.27610 0.85350 0.25200
C26 C 0.2085(4) 0.8465(3) 0.32526(14)
H31 H 0.20250 0.79410 0.35150
H32 H 0.11210 0.86870 0.31770
C27 C 0.2905(4) 0.9354(2) 0.34696(13)
H33 H 0.25020 0.95310 0.38010
H34 H 0.38840 0.91450 0.35260
C28 C 0.2904(4) 1.0274(2) 0.31365(13)
H35 H 0.19370 1.03970 0.30200
H36 H 0.34820 1.01380 0.28350
C29 C 0.3449(4) 1.1214(2) 0.33909(13)
H37 H 0.28720 1.13570 0.36920
H38 H 0.44190 1.10980 0.35060
C30 C 0.3422(4) 1.2110(2) 0.30417(13)
H39 H 0.24590 1.21930 0.29120
H40 H 0.40330 1.19700 0.27490
C31 C 0.3883(4) 1.3089(2) 0.32788(13)
H41 H 0.48350 1.30100 0.34190
H42 H 0.32470 1.32560 0.35610
C32 C 0.3881(4) 1.3945(3) 0.28966(15)
H43 H 0.45760 1.38050 0.26290
H44 H 0.29500 1.39890 0.27360
C33 C 0.4226(4) 1.4935(3) 0.31447(16)
H45 H 0.35190 1.50880 0.34010
H46 H 0.42330 1.54620 0.28890
H47 H 0.51470 1.48940 0.33040
C34 C 0.0650(3) -0.6715(2) -0.03594(13)
H48 H -0.00790 -0.69820 -0.01250
C35 C 0.1994(3) -0.7262(2) -0.02515(11)
C36 C 0.0133(4) -0.6877(3) -0.08982(15)
H49 H -0.07280 -0.64970 -0.09510
H50 H -0.00500 -0.75870 -0.09520
H51 H 0.08480 -0.66500 -0.11370
N1 N -0.0345(3) -0.05229(18) 0.08046(10)
O1 O -0.1663(2) -0.03586(16) 0.08308(8)
O2 O 0.2071(3) 0.37360(16) 0.15326(9)
O3 O -0.0965(2) -0.56146(15) 0.03088(8)
N2 N 0.0824(3) -0.56509(19) -0.02486(11)
H52 H 0.158(3) -0.535(2) -0.0350(12)
O4 O 0.3035(2) -0.68867(15) -0.00856(9)
O5 O 0.1857(2) -0.82235(15) -0.03615(9)
H53 H 0.273(5) -0.859(3) -0.0298(17)
#END
