
#######################################################################
#
#                 Cambridge Crystallographic Data Centre
#                                CCDC
#
#######################################################################
#
# If this CIF has been generated from an entry in the Cambridge
# Structural Database, then it will include bibliographic, chemical,
# crystal, experimental, refinement or atomic coordinate data resulting
# from the CCDC's data processing and validation procedures.
#
#######################################################################

data_CSD_CIF_VUJTAV
_audit_creation_date 1993-02-23
_audit_creation_method CSD-ConQuest-V1
_database_code_CSD VUJTAV
_chemical_formula_sum 'C9 H9 N1 O3'
_chemical_formula_moiety
;
C9 H9 N1 O3
;
_journal_coeditor_code "IUCr AB0273"
_journal_coden_Cambridge 591
_journal_volume 48
_journal_year 1992
_journal_page_first 2163
_journal_name_full 'Acta Crystallogr.,Sect.C:Cryst.Struct.Commun. '
loop_
_publ_author_name
"J.K.Maurin"
"I.C.Paul"
"D.Y.Curtin"
_chemical_name_systematic
;
4-(1-Hydroxyiminoethyl)benzoic acid
;
_chemical_name_common
;
p-Acetylbenzoic acid oxime
;
_chemical_melting_point 488.4
_cell_volume   1660.039
_exptl_crystal_colour 'colorless'
_exptl_crystal_density_diffrn 1.434
_exptl_special_details
;
Melting point range 488.4-490.4K

;
_diffrn_ambient_temperature ?
_diffrn_special_details
;
The study was carried out at room temperature,in the range 283-303K

;
_refine_special_details
;
The methyl group at C8 is rotationally disordered with two orientations of 
occupancies 0.53 and 0.47.
;
#These two values have been output from a single CSD field.
_refine_ls_R_factor_gt 0.0474
_refine_ls_wR_factor_gt 0.0474
_symmetry_cell_setting orthorhombic
_symmetry_space_group_name_H-M 'P b c a'
_symmetry_Int_Tables_number 61
loop_
_symmetry_equiv_pos_site_id
_symmetry_equiv_pos_as_xyz
1 x,y,z
2 1/2-x,1/2+y,z
3 x,1/2-y,1/2+z
4 1/2-x,-y,1/2+z
5 -x,-y,-z
6 -1/2+x,-1/2-y,-z
7 -x,-1/2+y,-1/2-z
8 -1/2+x,y,-1/2-z
_cell_length_a 7.137(1)
_cell_length_b 14.438(3)
_cell_length_c 16.110(3)
_cell_angle_alpha 90
_cell_angle_beta 90
_cell_angle_gamma 90
_cell_formula_units_Z 8
loop_
_atom_type_symbol
_atom_type_radius_bond
C 0.68
H 0.23
N 0.68
O 0.68
loop_
_atom_site_label
_atom_site_type_symbol
_atom_site_fract_x
_atom_site_fract_y
_atom_site_fract_z
N1 N 0.1017(3) 0.5585(1) -0.29674(9)
O1 O 0.0976(3) 0.48552(9) -0.35478(9)
O2 O 0.1094(2) 0.89671(9) 0.01270(8)
O3 O 0.1005(2) 0.78503(9) 0.10849(8)
C1 C 0.1022(3) 0.7398(1) -0.0321(1)
C2 C 0.0587(4) 0.7628(1) -0.1140(1)
C3 C 0.0559(4) 0.6948(1) -0.1747(1)
C4 C 0.0998(3) 0.6033(1) -0.1561(1)
C5 C 0.1428(3) 0.5809(1) -0.0739(1)
C6 C 0.1427(3) 0.6486(1) -0.0128(1)
C7 C 0.1005(3) 0.5299(1) -0.2211(1)
C8 C 0.0964(6) 0.4295(2) -0.1979(2)
C9 C 0.1047(3) 0.8147(1) 0.0310(1)
H1 H 0.098(4) 0.517(2) -0.401(2)
H2 H 0.104(3) 0.843(2) 0.146(2)
H3 H 0.019(4) 0.829(2) -0.129(1)
H4 H 0.015(4) 0.710(1) -0.232(1)
H5 H 0.174(3) 0.519(2) -0.060(1)
H6 H 0.179(3) 0.634(1) 0.043(1)
H7 H 0.11(1) 0.416(4) -0.145(4)
H8 H 0.175(9) 0.395(4) -0.238(4)
H9 H -0.036(9) 0.400(4) -0.210(4)
H10? H 0.082(9) 0.387(3) -0.247(3)
H11? H -0.017(8) 0.420(3) -0.158(4)
H12? H 0.214(8) 0.422(3) -0.160(3)
#END
