
#######################################################################
#
#                 Cambridge Crystallographic Data Centre
#                                CCDC
#
#######################################################################
#
# If this CIF has been generated from an entry in the Cambridge
# Structural Database, then it will include bibliographic, chemical,
# crystal, experimental, refinement or atomic coordinate data resulting
# from the CCDC's data processing and validation procedures.
#
#######################################################################

data_CSD_CIF_VUKHIS
_audit_creation_date 1993-04-29
_audit_creation_method CSD-ConQuest-V1
_database_code_CSD VUKHIS
_chemical_formula_sum 'C16 H14 N2 O4'
_chemical_formula_moiety
;
C16 H14 N2 O4
;
_journal_coeditor_code "IUCr DU0299"
_journal_coden_Cambridge 591
_journal_volume 48
_journal_year 1992
_journal_page_first 2157
_journal_name_full 'Acta Crystallogr.,Sect.C:Cryst.Struct.Commun. '
loop_
_publ_author_name
"J.P.Reboul"
"H.Rahal"
"G.Pepe"
"Y.Oddon"
"D.Siri"
"J.P.Astier"
"J.C.Soyfer"
"J.Barbe"
_chemical_name_systematic
;
2'-Diacetamido-2'-nitrobiphenyl
;
_cell_volume   1466.733
_exptl_crystal_colour 'white'
_exptl_crystal_density_diffrn 1.351
_diffrn_ambient_temperature ?
_diffrn_special_details
;
The study was carried out at room temperature,in the range 283-303K

;
#These two values have been output from a single CSD field.
_refine_ls_R_factor_gt 0.047
_refine_ls_wR_factor_gt 0.047
_symmetry_cell_setting monoclinic
_symmetry_space_group_name_H-M 'P 21/a'
_symmetry_Int_Tables_number 14
loop_
_symmetry_equiv_pos_site_id
_symmetry_equiv_pos_as_xyz
1 x,y,z
2 1/2-x,1/2+y,-z
3 -x,-y,-z
4 -1/2+x,-1/2-y,z
_cell_length_a 8.442(3)
_cell_length_b 23.706(7)
_cell_length_c 8.090(2)
_cell_angle_alpha 90
_cell_angle_beta 115.05(4)
_cell_angle_gamma 90
_cell_formula_units_Z 4
loop_
_atom_type_symbol
_atom_type_radius_bond
C 0.68
H 0.23
N 0.68
O 0.68
loop_
_atom_site_label
_atom_site_type_symbol
_atom_site_fract_x
_atom_site_fract_y
_atom_site_fract_z
C1 C 0.3849(7) 0.4089(2) 0.8489(6)
C2 C 0.2791(6) 0.4564(2) 0.7973(7)
C3 C 0.3233(9) 0.5055(3) 0.7346(8)
C4 C 0.4817(9) 0.5082(3) 0.7249(8)
C5 C 0.5936(9) 0.4623(3) 0.7790(9)
C6 C 0.5418(8) 0.4139(3) 0.8362(9)
N1 N 0.1130(6) 0.4566(2) 0.8182(8)
O1 O 0.1076(5) 0.4348(2) 0.9505(6)
O2 O -0.0121(6) 0.4801(2) 0.6967(7)
C7 C 0.3371(6) 0.3542(2) 0.9082(7)
C8 C 0.2063(6) 0.3193(2) 0.7908(7)
C9 C 0.1737(8) 0.2677(3) 0.8493(9)
C10 C 0.2698(8) 0.2508(3) 1.0275(10)
C11 C 0.4003(8) 0.2838(3) 1.1456(9)
C12 C 0.4345(8) 0.3351(3) 1.0862(9)
N2 N 0.1090(5) 0.3369(2) 0.6013(5)
C13 C 0.2068(8) 0.3379(2) 0.4957(7)
C14 C 0.1442(12) 0.3736(4) 0.3270(13)
O3 O 0.3414(5) 0.3121(2) 0.5482(5)
C15 C -0.0726(7) 0.3455(2) 0.5262(9)
C16 C -0.1633(9) 0.3427(4) 0.6491(11)
O4 O -0.1537(5) 0.3541(2) 0.3646(6)
H1 H 0.237(8) 0.539(3) 0.692(7)
H2 H 0.515(8) 0.547(3) 0.683(8)
H3 H 0.715(8) 0.461(2) 0.779(8)
H4 H 0.608(6) 0.387(2) 0.869(6)
H5 H 0.085(6) 0.248(2) 0.767(6)
H6 H 0.244(7) 0.218(3) 1.069(7)
H7 H 0.474(6) 0.270(2) 1.286(7)
H8 H 0.517(6) 0.357(2) 1.158(6)
H9 H 0.086(7) 0.407(2) 0.337(7)
H10 H 0.091(9) 0.361(4) 0.243(9)
H11 H 0.240(9) 0.384(3) 0.296(9)
H12 H -0.093(8) 0.354(2) 0.773(9)
H13 H -0.183(8) 0.306(3) 0.657(9)
H14 H -0.275(9) 0.375(3) 0.584(9)
#END
