
#######################################################################
#
#                 Cambridge Crystallographic Data Centre
#                                CCDC
#
#######################################################################
#
# If this CIF has been generated from an entry in the Cambridge
# Structural Database, then it will include bibliographic, chemical,
# crystal, experimental, refinement or atomic coordinate data resulting
# from the CCDC's data processing and validation procedures.
#
#######################################################################

data_CSD_CIF_VUKPOI
_audit_creation_date 2015-06-18
_audit_creation_method CSD-ConQuest-V1
_database_code_CSD VUKPOI
_database_code_depnum_ccdc_archive 'CCDC 999033'
_chemical_formula_sum 'C20 H18 N4 O4'
_chemical_formula_moiety
;
C20 H18 N4 O4
;
_journal_coeditor_code "lg3171"
_journal_coden_Cambridge 1777
_journal_volume 71
_journal_year 2015
_journal_page_first 578
_journal_name_full 'Acta Crystallogr.,Sect.C:Cryst.Struct.Chem. '
loop_
_publ_author_name
"W.Clegg"
"R.W.Harrington"
"K.Barati"
"M.H.Habibi"
"M.Montazerozohori"
"A.Lalegani"
_chemical_name_systematic
;
N,N'-ethane-1,2-diylbis(3-(2-nitrophenyl)prop-2-en-1-imine)
;
_cell_volume    881.597
_exptl_crystal_colour 'colorless'
_exptl_crystal_density_diffrn 1.425
_exptl_special_details
;
P21/n polymorph

;
_exptl_crystal_description 'plate'
_diffrn_ambient_temperature 120
_diffrn_radiation_probe x-ray
_diffrn_source synchrotron
_diffrn_special_details
;
twin

;
#These two values have been output from a single CSD field.
_refine_ls_R_factor_gt 0.0488
_refine_ls_wR_factor_gt 0.0488
_symmetry_cell_setting monoclinic
_symmetry_space_group_name_H-M 'P 21/n'
_symmetry_Int_Tables_number 14
loop_
_symmetry_equiv_pos_site_id
_symmetry_equiv_pos_as_xyz
1 x,y,z
2 1/2-x,1/2+y,1/2-z
3 -x,-y,-z
4 -1/2+x,-1/2-y,-1/2+z
_cell_length_a 11.441(7)
_cell_length_b 3.781(2)
_cell_length_c 20.553(12)
_cell_angle_alpha 90
_cell_angle_beta 97.444(10)
_cell_angle_gamma 90
_cell_formula_units_Z 2
loop_
_atom_type_symbol
_atom_type_radius_bond
C 0.68
H 0.23
N 0.68
O 0.68
loop_
_atom_site_label
_atom_site_type_symbol
_atom_site_fract_x
_atom_site_fract_y
_atom_site_fract_z
C1 C 0.9926(2) 0.5701(7) 0.53409(11)
H1 H 1.01090 0.38070 0.56710
H2 H 1.04790 0.76860 0.54560
C2 C 0.8147(2) 0.5585(6) 0.57802(11)
H3 H 0.85160 0.38680 0.60760
C3 C 0.6941(2) 0.6670(6) 0.58311(11)
H4 H 0.65700 0.82930 0.55170
C4 C 0.6331(2) 0.5488(6) 0.62995(11)
H5 H 0.67040 0.38400 0.66080
C5 C 0.5119(2) 0.6585(6) 0.63654(11)
C6 C 0.4326(2) 0.7507(6) 0.58151(11)
H6 H 0.45860 0.74260 0.53950
C7 C 0.3179(2) 0.8534(7) 0.58595(12)
H7 H 0.26720 0.91970 0.54760
C8 C 0.2772(2) 0.8591(7) 0.64661(11)
H8 H 0.19850 0.93020 0.64990
C9 C 0.3508(2) 0.7616(7) 0.70205(12)
H9 H 0.32290 0.76010 0.74360
C10 C 0.4660(2) 0.6657(6) 0.69655(11)
N1 N 0.87125(19) 0.6910(6) 0.53446(9)
N2 N 0.5416(2) 0.5838(6) 0.75785(10)
O1 O 0.49714(18) 0.4252(6) 0.80087(8)
O2 O 0.64449(17) 0.6823(6) 0.76401(8)
C1B C 1.0074(2) 0.4299(7) 0.46591(11)
H1B H 0.98910 0.61930 0.43290
H2B H 0.95210 0.23140 0.45440
C2B C 1.1853(2) 0.4415(6) 0.42198(11)
H3B H 1.14840 0.61320 0.39240
C3B C 1.3059(2) 0.3330(6) 0.41689(11)
H4B H 1.34300 0.17070 0.44830
C4B C 1.3669(2) 0.4512(6) 0.37005(11)
H5B H 1.32960 0.61600 0.33920
C5B C 1.4881(2) 0.3415(6) 0.36346(11)
C6B C 1.5674(2) 0.2493(6) 0.41849(11)
H6B H 1.54140 0.25740 0.46050
C7B C 1.6821(2) 0.1466(7) 0.41405(12)
H7B H 1.73280 0.08030 0.45240
C8B C 1.7228(2) 0.1409(7) 0.35339(11)
H8B H 1.80150 0.06980 0.35010
C9B C 1.6492(2) 0.2384(7) 0.29795(12)
H9B H 1.67710 0.23990 0.25640
C10B C 1.5340(2) 0.3343(6) 0.30345(11)
N1B N 1.12875(19) 0.3090(6) 0.46554(9)
N2B N 1.4584(2) 0.4162(6) 0.24215(10)
O1B O 1.50286(18) 0.5748(6) 0.19913(8)
O2B O 1.35551(17) 0.3177(6) 0.23599(8)
#END
