
#######################################################################
#
#                 Cambridge Crystallographic Data Centre
#                                CCDC
#
#######################################################################
#
# If this CIF has been generated from an entry in the Cambridge
# Structural Database, then it will include bibliographic, chemical,
# crystal, experimental, refinement or atomic coordinate data resulting
# from the CCDC's data processing and validation procedures.
#
#######################################################################

data_CSD_CIF_VUKPOI01
_audit_creation_date 2016-04-07
_audit_creation_method CSD-ConQuest-V1
_database_code_CSD VUKPOI01
_database_code_depnum_ccdc_archive 'CCDC 1458696'
_chemical_formula_sum 'C20 H18 N4 O4'
_chemical_formula_moiety
;
C20 H18 N4 O4
;
_journal_coden_Cambridge 1078
_journal_year 2016
_journal_name_full 'CSD Communication(Private Communication) '
loop_
_publ_author_name
"W.Clegg"
"R.W.Harrington"
_chemical_name_systematic
;
N,N'-ethane-1,2-diylbis(3-(2-nitrophenyl)prop-2-en-1-imine)
;
_cell_volume    906.767
_exptl_crystal_colour 'colorless'
_exptl_crystal_density_diffrn 1.386
_exptl_special_details
;
P21/c polymorph

;
_exptl_crystal_description 'block'
_diffrn_ambient_temperature 150
#These two values have been output from a single CSD field.
_refine_ls_R_factor_gt 0.0529
_refine_ls_wR_factor_gt 0.0529
_symmetry_cell_setting monoclinic
_symmetry_space_group_name_H-M 'P 21/c'
_symmetry_Int_Tables_number 14
loop_
_symmetry_equiv_pos_site_id
_symmetry_equiv_pos_as_xyz
1 x,y,z
2 -x,1/2+y,1/2-z
3 -x,-y,-z
4 x,-1/2-y,-1/2+z
_cell_length_a 6.4118(7)
_cell_length_b 22.340(2)
_cell_length_c 6.9872(8)
_cell_angle_alpha 90
_cell_angle_beta 115.0413(16)
_cell_angle_gamma 90
_cell_formula_units_Z 2
loop_
_atom_type_symbol
_atom_type_radius_bond
C 0.68
H 0.23
N 0.68
O 0.68
loop_
_atom_site_label
_atom_site_type_symbol
_atom_site_fract_x
_atom_site_fract_y
_atom_site_fract_z
O1 O 1.0312(2) 0.79382(5) 0.6441(2)
O2 O 0.7570(2) 0.73887(5) 0.6510(2)
N1 N 0.9472(2) 0.74503(6) 0.6519(2)
N2 N 0.2590(2) 0.52995(6) 0.2224(2)
C1 C 0.0202(3) 0.52853(7) 0.0647(3)
H1 H -0.01180 0.56390 -0.02900
H2 H -0.08470 0.52980 0.13550
C2 C 0.3707(3) 0.57842(7) 0.2444(2)
H3 H 0.29720 0.61220 0.16010
C3 C 0.6099(3) 0.58270(7) 0.3975(2)
H4 H 0.68130 0.54850 0.48010
C4 C 0.7329(3) 0.63275(7) 0.4264(2)
H5 H 0.65750 0.66730 0.34850
C5 C 0.9788(3) 0.63778(7) 0.5720(2)
C6 C 1.1258(3) 0.58878(7) 0.6085(3)
H6 H 1.06260 0.55150 0.54540
C7 C 1.3601(3) 0.59249(8) 0.7331(3)
H7 H 1.45410 0.55800 0.75630
C8 C 1.4576(3) 0.64677(8) 0.8244(3)
H8 H 1.61860 0.64950 0.90930
C9 C 1.3195(3) 0.69664(8) 0.7909(3)
H9 H 1.38450 0.73410 0.85070
C10 C 1.0855(3) 0.69125(7) 0.6693(2)
O1B O -1.0312(2) 0.20618(5) -0.6441(2)
O2B O -0.7570(2) 0.26113(5) -0.6510(2)
N1B N -0.9472(2) 0.25497(6) -0.6519(2)
N2B N -0.2590(2) 0.47005(6) -0.2224(2)
C1B C -0.0202(3) 0.47147(7) -0.0647(3)
H1B H 0.01180 0.43610 0.02900
H2B H 0.08470 0.47020 -0.13550
C2B C -0.3707(3) 0.42158(7) -0.2444(2)
H3B H -0.29720 0.38780 -0.16010
C3B C -0.6099(3) 0.41730(7) -0.3975(2)
H4B H -0.68130 0.45150 -0.48010
C4B C -0.7329(3) 0.36725(7) -0.4264(2)
H5B H -0.65750 0.33270 -0.34850
C5B C -0.9788(3) 0.36222(7) -0.5720(2)
C6B C -1.1258(3) 0.41122(7) -0.6085(3)
H6B H -1.06260 0.44850 -0.54540
C7B C -1.3601(3) 0.40751(8) -0.7331(3)
H7B H -1.45410 0.44200 -0.75630
C8B C -1.4576(3) 0.35323(8) -0.8244(3)
H8B H -1.61860 0.35050 -0.90930
C9B C -1.3195(3) 0.30336(8) -0.7909(3)
H9B H -1.38450 0.26590 -0.85070
C10B C -1.0855(3) 0.30875(7) -0.6693(2)
#END
