
#######################################################################
#
#                 Cambridge Crystallographic Data Centre
#                                CCDC
#
#######################################################################
#
# If this CIF has been generated from an entry in the Cambridge
# Structural Database, then it will include bibliographic, chemical,
# crystal, experimental, refinement or atomic coordinate data resulting
# from the CCDC's data processing and validation procedures.
#
#######################################################################

data_CSD_CIF_VUNFEP
_audit_creation_date 1993-05-24
_audit_creation_method CSD-ConQuest-V1
_database_code_CSD VUNFEP
_chemical_formula_sum 'C15 H17 N1 O3'
_chemical_formula_moiety
;
C15 H17 N1 O3
;
_journal_coden_Cambridge 35
_journal_volume 57
_journal_year 1992
_journal_page_first 5403
_journal_name_full 'J.Org.Chem. '
loop_
_publ_author_name
"A.Kamimura"
"K.Yoshihara"
"S.Marumo"
"A.Yamamoto"
"T.Nishiguchi"
"A.Kakehi"
"K.Hori"
_chemical_name_systematic
;
4-(1-Hydroxy-3-oxo-3-phenylpropyl)-2-oxa-3-azabicyclo(3.3.0)oct-3-ene
;
_chemical_melting_point 373.15
_cell_volume    647.851
_exptl_crystal_colour 'white'
_exptl_crystal_density_diffrn 1.329
_exptl_special_details
;
Melting point range 373.15-375.15K

;
_diffrn_ambient_temperature ?
_diffrn_special_details
;
The study was carried out at room temperature,in the range 283-303K

;
#These two values have been output from a single CSD field.
_refine_ls_R_factor_gt 0.053
_refine_ls_wR_factor_gt 0.053
_symmetry_cell_setting triclinic
_symmetry_space_group_name_H-M 'P -1'
_symmetry_Int_Tables_number 2
loop_
_symmetry_equiv_pos_site_id
_symmetry_equiv_pos_as_xyz
1 x,y,z
2 -x,-y,-z
_cell_length_a 11.490(1)
_cell_length_b 11.577(1)
_cell_length_c 5.3494(6)
_cell_angle_alpha 97.34(1)
_cell_angle_beta 102.49(1)
_cell_angle_gamma 107.587(8)
_cell_formula_units_Z 2
loop_
_atom_type_symbol
_atom_type_radius_bond
C 0.68
H 0.23
N 0.68
O 0.68
loop_
_atom_site_label
_atom_site_type_symbol
_atom_site_fract_x
_atom_site_fract_y
_atom_site_fract_z
O1 O 0.7213(2) -0.3525(2) 0.1012(3)
O2 O 0.9454(1) -0.0132(2) 0.7217(3)
O3 O 0.7652(2) 0.0992(2) 0.9340(3)
N1 N 0.7340(2) -0.2309(2) 0.2197(4)
C1 C 0.7930(2) -0.2079(2) 0.4610(4)
C2 C 0.8338(2) -0.3114(2) 0.5491(4)
C3 C 0.9773(3) -0.2856(3) 0.6122(5)
C4 C 0.9978(3) -0.3268(3) 0.3509(6)
C5 C 0.8847(3) -0.4428(2) 0.2258(5)
C6 C 0.7761(2) -0.4119(2) 0.2975(5)
C7 C 0.8134(2) -0.0868(2) 0.6363(4)
C8 C 0.7348(2) -0.0149(2) 0.5085(4)
C9 C 0.7220(2) 0.0852(2) 0.6986(4)
C10 C 0.6505(2) 0.1653(2) 0.5946(4)
C11 C 0.6522(2) 0.2681(2) 0.7624(5)
C12 C 0.5833(3) 0.3418(2) 0.6744(6)
C13 C 0.5108(2) 0.3123(2) 0.4196(6)
C14 C 0.5082(2) 0.2111(3) 0.2516(5)
C15 C 0.5780(2) 0.1380(2) 0.3360(4)
H1 H 0.79980 -0.33720 0.69010
H2 H 1.02370 -0.19940 0.68260
H3 H 1.00350 -0.33150 0.73690
H4 H 1.00100 -0.26500 0.24780
H5 H 1.07600 -0.34400 0.37230
H6 H 0.87120 -0.46120 0.03770
H7 H 0.89660 -0.51290 0.29000
H8 H 0.71260 -0.48410 0.31770
H9 H 0.78580 -0.10580 0.78940
H10 H 0.77390 0.02190 0.38320
H11 H 0.65160 -0.07140 0.41530
H12 H 0.70050 0.28750 0.94190
H13 H 0.58810 0.41310 0.79380
H14 H 0.46150 0.36300 0.35710
H15 H 0.45710 0.19000 0.07190
H16 H 0.57770 0.06750 0.21570
H17? H 0.98890 -0.01380 0.56440
#END
