
#######################################################################
#
#                 Cambridge Crystallographic Data Centre
#                                CCDC
#
#######################################################################
#
# If this CIF has been generated from an entry in the Cambridge
# Structural Database, then it will include bibliographic, chemical,
# crystal, experimental, refinement or atomic coordinate data resulting
# from the CCDC's data processing and validation procedures.
#
#######################################################################

data_CSD_CIF_VUNMEX
_audit_creation_date 2010-10-12
_audit_creation_method CSD-ConQuest-V1
_database_code_CSD VUNMEX
_database_code_depnum_ccdc_archive 'CCDC 743294'
_chemical_formula_sum 'C15 H14 N2 O2'
_chemical_formula_moiety
;
C15 H14 N2 O2
;
_journal_coden_Cambridge 644
_journal_volume 65
_journal_year 2010
_journal_page_first 185
_journal_name_full 'Z.Naturforsch.,B:Chem.Sci. '
loop_
_publ_author_name
"H.Unver"
"A.Karakas"
"T.N.Durlu"
_chemical_name_systematic
;
3,4-Dimethyl-N-(4-nitrobenzylidene)aniline
;
_cell_volume   1300.134
_exptl_crystal_density_diffrn 1.299
_diffrn_ambient_temperature 300
#These two values have been output from a single CSD field.
_refine_ls_R_factor_gt 0.0622
_refine_ls_wR_factor_gt 0.0622
_symmetry_cell_setting monoclinic
_symmetry_space_group_name_H-M 'P 21/n'
_symmetry_Int_Tables_number 14
loop_
_symmetry_equiv_pos_site_id
_symmetry_equiv_pos_as_xyz
1 x,y,z
2 1/2-x,1/2+y,1/2-z
3 -x,-y,-z
4 -1/2+x,-1/2-y,-1/2+z
_cell_length_a 9.403(1)
_cell_length_b 10.369(1)
_cell_length_c 13.392(2)
_cell_angle_alpha 90
_cell_angle_beta 95.30(1)
_cell_angle_gamma 90
_cell_formula_units_Z 4
loop_
_atom_type_symbol
_atom_type_radius_bond
C 0.68
H 0.23
N 0.68
O 0.68
loop_
_atom_site_label
_atom_site_type_symbol
_atom_site_fract_x
_atom_site_fract_y
_atom_site_fract_z
C1 C 1.10619(14) 0.79135(12) 0.13011(9)
C2 C 1.0754(2) 0.68376(15) 0.18427(10)
H1 H 1.1315(17) 0.6642(16) 0.2506(12)
C3 C 0.9706(2) 0.60007(14) 0.14299(10)
H2 H 0.9429(17) 0.5172(16) 0.1820(12)
C4 C 0.89727(14) 0.62693(12) 0.05016(9)
C5 C 0.9343(2) 0.73356(13) -0.00318(10)
H3 H 0.8850(18) 0.7485(16) -0.0647(13)
C6 C 1.0403(2) 0.81813(14) 0.03693(10)
H4 H 1.0713(17) 0.8936(16) -0.0053(12)
C7 C 0.7816(2) 0.54234(13) 0.00586(10)
H5 H 0.7302(17) 0.5680(16) -0.0580(12)
C8 C 0.63175(14) 0.36385(12) 0.00083(10)
C9 C 0.5800(2) 0.26774(15) 0.05778(11)
H6 H 0.6197(17) 0.2515(17) 0.1274(13)
C10 C 0.4755(2) 0.1839(2) 0.01412(13)
H7 H 0.4356(19) 0.1165(18) 0.0552(14)
C11 C 0.42121(15) 0.19643(13) -0.08459(11)
C12 C 0.47095(15) 0.29524(14) -0.14220(11)
C13 C 0.5766(2) 0.37834(14) -0.09836(11)
H8 H 0.6143(17) 0.4506(16) -0.1416(12)
C14 C 0.3115(2) 0.1013(2) -0.1295(2)
H9 H 0.2808(21) 0.0418(20) -0.0776(15)
H10 H 0.2291(22) 0.1419(19) -0.1647(15)
H11 H 0.3489(21) 0.0494(19) -0.1845(15)
C15 C 0.4132(3) 0.3176(2) -0.24966(14)
H12 H 0.3075(24) 0.3453(21) -0.2491(16)
H13 H 0.4114(22) 0.2338(22) -0.2871(16)
H14 H 0.4759(23) 0.3817(21) -0.2832(16)
N1 N 1.21409(14) 0.88299(12) 0.1747(1)
N2 N 0.74342(12) 0.44302(11) 0.04904(8)
O1 O 1.2355(2) 0.98110(13) 0.12835(11)
O2 O 1.27658(15) 0.85814(13) 0.25587(9)
#END
