
#######################################################################
#
#                 Cambridge Crystallographic Data Centre
#                                CCDC
#
#######################################################################
#
# If this CIF has been generated from an entry in the Cambridge
# Structural Database, then it will include bibliographic, chemical,
# crystal, experimental, refinement or atomic coordinate data resulting
# from the CCDC's data processing and validation procedures.
#
#######################################################################

data_CSD_CIF_VUPPUT
_audit_creation_date 2015-10-26
_audit_creation_method CSD-ConQuest-V1
_database_code_CSD VUPPUT
_database_code_depnum_ccdc_archive 'CCDC 1433082'
_chemical_formula_sum 'C21 H22 N2 O3'
_chemical_formula_moiety
;
C21 H22 N2 O3
;
_journal_coden_Cambridge 1078
_journal_year 2015
_journal_name_full 'CSD Communication(Private Communication) '
loop_
_publ_author_name
"K.S.Huang"
"M.J.Kurth"
"M.M.Olmstead"
_chemical_name_systematic
;
6a-allyl-N,6-diphenyltetrahydro-1H,3H-furo[3,4-c][1,2]oxazole-1-carboxamide
;
_cell_volume   1830.156
_exptl_crystal_colour 'colorless'
_exptl_crystal_density_diffrn 1.272
_exptl_crystal_description 'needle'
_exptl_crystal_preparation 'Re-crystallisation from solvent'
_diffrn_ambient_temperature 130
#These two values have been output from a single CSD field.
_refine_ls_R_factor_gt 0.0604
_refine_ls_wR_factor_gt 0.0604
_symmetry_cell_setting monoclinic
_symmetry_space_group_name_H-M 'P 21/c'
_symmetry_Int_Tables_number 14
loop_
_symmetry_equiv_pos_site_id
_symmetry_equiv_pos_as_xyz
1 x,y,z
2 -x,1/2+y,1/2-z
3 -x,-y,-z
4 x,-1/2-y,-1/2+z
_cell_length_a 9.672(3)
_cell_length_b 20.862(5)
_cell_length_c 9.199(3)
_cell_angle_alpha 90
_cell_angle_beta 99.60(3)
_cell_angle_gamma 90
_cell_formula_units_Z 4
loop_
_atom_type_symbol
_atom_type_radius_bond
C 0.68
H 0.23
N 0.68
O 0.68
loop_
_atom_site_label
_atom_site_type_symbol
_atom_site_fract_x
_atom_site_fract_y
_atom_site_fract_z
O1 O 0.4317(2) 0.29981(10) 0.1028(2)
O2 O 0.5718(2) 0.31367(11) 0.4789(2)
O3 O 0.8335(2) 0.43636(10) 0.3867(2)
N1 N 0.3800(3) 0.24830(12) 0.3073(3)
H1 H 0.412(3) 0.2440(16) 0.406(4)
N2 N 0.5570(3) 0.32389(12) 0.3248(3)
C1 C 0.2916(3) 0.20054(15) 0.2305(3)
C2 C 0.2019(3) 0.21293(17) 0.1005(3)
H2 H 0.19400 0.25510 0.06110
C3 C 0.1232(3) 0.16329(18) 0.0274(4)
H3 H 0.06330 0.17140 -0.06350
C4 C 0.1316(3) 0.10209(17) 0.0864(4)
H4 H 0.07880 0.06820 0.03520
C5 C 0.2164(3) 0.09033(16) 0.2192(4)
H5 H 0.21920 0.04860 0.26110
C6 C 0.2980(3) 0.13909(15) 0.2926(3)
H6 H 0.35730 0.13080 0.38380
C7 C 0.4515(3) 0.29179(14) 0.2359(3)
C8 C 0.5371(3) 0.37543(16) 0.5361(4)
H7 H 0.57380 0.37880 0.64300
H8 H 0.43440 0.38210 0.51980
C9 C 0.6083(3) 0.42381(15) 0.4488(3)
H9 H 0.55150 0.46390 0.43030
C10 C 0.7616(3) 0.43918(16) 0.5104(3)
H10 H 0.77010 0.48240 0.55530
H11 H 0.80070 0.40740 0.58610
C11 C 0.7773(3) 0.38034(14) 0.3085(3)
H12 H 0.80860 0.34220 0.37130
C12 C 0.6160(3) 0.38774(14) 0.3014(3)
C13 C 0.5455(3) 0.42463(14) 0.1668(3)
H13 H 0.60030 0.46410 0.15780
H14 H 0.54940 0.39820 0.07820
C14 C 0.3958(3) 0.44325(15) 0.1671(3)
H15 H 0.32970 0.41010 0.17300
C15 C 0.3504(4) 0.50344(17) 0.1596(4)
H16 H 0.41410 0.53760 0.15360
H17 H 0.25410 0.51230 0.16030
C16 C 0.8320(3) 0.37303(14) 0.1655(3)
C17 C 0.9378(3) 0.41274(16) 0.1300(4)
H18 H 0.97370 0.44660 0.19450
C18 C 0.9905(3) 0.40270(17) 0.0003(4)
H19 H 1.06230 0.42990 -0.02330
C19 C 0.9398(3) 0.35356(17) -0.0950(4)
H20 H 0.97700 0.34670 -0.18310
C20 C 0.8338(4) 0.31430(16) -0.0603(4)
H21 H 0.79710 0.28090 -0.12560
C21 C 0.7813(3) 0.32384(16) 0.0700(4)
H22 H 0.70990 0.29640 0.09380
#END
