
#######################################################################
#
#                 Cambridge Crystallographic Data Centre
#                                CCDC
#
#######################################################################
#
# If this CIF has been generated from an entry in the Cambridge
# Structural Database, then it will include bibliographic, chemical,
# crystal, experimental, refinement or atomic coordinate data resulting
# from the CCDC's data processing and validation procedures.
#
#######################################################################

data_CSD_CIF_VUPTIK
_audit_creation_date 2010-10-12
_audit_creation_method CSD-ConQuest-V1
_database_code_CSD VUPTIK
_database_code_depnum_ccdc_archive 'CCDC 767908'
_chemical_formula_sum 'C11 H19 N2 O3'
_chemical_formula_moiety
;
C11 H19 N2 O3
;
_journal_coden_Cambridge 644
_journal_volume 65
_journal_year 2010
_journal_page_first 475
_journal_name_full 'Z.Naturforsch.,B:Chem.Sci. '
loop_
_publ_author_name
"G.D.Frey"
"E.Herdtweck"
_chemical_name_systematic
;
1-oxido-N-methoxy-N,2,2,5,5-pentamethyl-2,5-dihydro-1H-pyrrole-3-carboxamide
;
_cell_volume   2464.684
_exptl_crystal_colour 'yellow'
_exptl_crystal_density_diffrn 1.225
_exptl_crystal_description 'prism'
_diffrn_ambient_temperature 123
#These two values have been output from a single CSD field.
_refine_ls_R_factor_gt 0.0317
_refine_ls_wR_factor_gt 0.0317
_symmetry_cell_setting orthorhombic
_symmetry_space_group_name_H-M 'P b c a'
_symmetry_Int_Tables_number 61
loop_
_symmetry_equiv_pos_site_id
_symmetry_equiv_pos_as_xyz
1 x,y,z
2 1/2-x,-y,1/2+z
3 1/2+x,1/2-y,-z
4 -x,1/2+y,1/2-z
5 -x,-y,-z
6 -1/2+x,y,-1/2-z
7 -1/2-x,-1/2+y,z
8 x,-1/2-y,-1/2+z
_cell_length_a 9.0213(1)
_cell_length_b 12.8625(1)
_cell_length_c 21.2406(2)
_cell_angle_alpha 90
_cell_angle_beta 90
_cell_angle_gamma 90
_cell_formula_units_Z 8
loop_
_atom_type_symbol
_atom_type_radius_bond
C 0.68
H 0.23
N 0.68
O 0.68
loop_
_atom_site_label
_atom_site_type_symbol
_atom_site_fract_x
_atom_site_fract_y
_atom_site_fract_z
O1 O 0.33094(9) 0.43259(7) 0.18691(4)
O2 O 0.78537(9) 0.27652(6) 0.05490(4)
O3 O 0.94166(9) 0.51339(6) 0.10226(4)
N1 N 0.44930(11) 0.44708(8) 0.15555(5)
N2 N 0.92845(11) 0.41355(8) 0.07707(5)
C1 C 0.54878(13) 0.36033(9) 0.13799(6)
C2 C 0.66496(13) 0.42077(9) 0.10189(5)
C3 C 0.62871(13) 0.52004(9) 0.09502(5)
C4 C 0.48263(13) 0.54683(9) 0.12417(6)
C5 C 0.46195(15) 0.28206(10) 0.09879(7)
C6 C 0.60963(15) 0.30976(11) 0.19744(6)
C7 C 0.49439(16) 0.63331(11) 0.17275(6)
C8 C 0.36377(15) 0.57136(11) 0.07554(6)
C9 C 0.79633(13) 0.36498(9) 0.07611(5)
C10 C 1.06357(15) 0.37340(11) 0.04993(7)
C11 C 0.97734(16) 0.50704(12) 0.16792(6)
H1 H 0.6841(15) 0.573(1) 0.0755(6)
H2 H 0.3765(17) 0.2582(12) 0.1230(7)
H3 H 0.4268(15) 0.3120(11) 0.0596(7)
H4 H 0.5243(16) 0.2224(12) 0.0900(7)
H5 H 0.6664(17) 0.3593(11) 0.2224(7)
H6 H 0.5267(16) 0.2829(11) 0.2217(7)
H7 H 0.6777(16) 0.2511(12) 0.1857(6)
H8 H 0.4018(18) 0.6406(11) 0.1946(7)
H9 H 0.5712(16) 0.6167(11) 0.2034(7)
H10 H 0.5210(16) 0.7005(12) 0.1526(7)
H11 H 0.3564(16) 0.5164(12) 0.0452(7)
H12 H 0.2652(18) 0.5798(11) 0.0957(7)
H13 H 0.3895(16) 0.6351(12) 0.0540(7)
H14 H 1.0995(16) 0.4201(12) 0.0186(7)
H15 H 1.1383(18) 0.3670(11) 0.0828(7)
H16 H 1.0427(16) 0.3075(13) 0.0321(7)
H17 H 0.9887(17) 0.5805(13) 0.1804(7)
H18 H 0.8944(18) 0.4757(12) 0.1914(7)
H19 H 1.0701(19) 0.4686(13) 0.1741(8)
#END
