
#######################################################################
#
#                 Cambridge Crystallographic Data Centre
#                                CCDC
#
#######################################################################
#
# If this CIF has been generated from an entry in the Cambridge
# Structural Database, then it will include bibliographic, chemical,
# crystal, experimental, refinement or atomic coordinate data resulting
# from the CCDC's data processing and validation procedures.
#
#######################################################################

data_CSD_CIF_VUQDOB
_audit_creation_date 2010-10-12
_audit_creation_method CSD-ConQuest-V1
_database_code_CSD VUQDOB
_database_code_depnum_ccdc_archive 'CCDC 636972'
_chemical_formula_sum 'C16 H19 N3 O6'
_chemical_formula_moiety
;
C16 H19 N3 O6
;
_journal_coden_Cambridge 456
_journal_volume 83
_journal_year 2009
_journal_page_first 1309
_journal_name_full 'Pol.J.Chem. '
loop_
_publ_author_name
"J.Zwawiak"
"A.Gzella"
"L.Zaprutko"
_chemical_name_systematic
;
1-(4-(3-(5-Ethoxy-4-nitro-1H-imidazol-1-yl)-2-hydroxypropoxy)phenyl)ethanone
;
_cell_volume   3354.324
_exptl_crystal_colour 'colorless'
_exptl_crystal_density_diffrn 1.384
_exptl_crystal_description 'lath'
_diffrn_ambient_temperature 293
#These two values have been output from a single CSD field.
_refine_ls_R_factor_gt 0.07
_refine_ls_wR_factor_gt 0.07
_symmetry_cell_setting orthorhombic
_symmetry_space_group_name_H-M 'P b c a'
_symmetry_Int_Tables_number 61
loop_
_symmetry_equiv_pos_site_id
_symmetry_equiv_pos_as_xyz
1 x,y,z
2 1/2-x,-y,1/2+z
3 -x,1/2+y,1/2-z
4 1/2+x,1/2-y,-z
5 -x,-y,-z
6 -1/2+x,y,-1/2-z
7 x,-1/2-y,-1/2+z
8 -1/2-x,-1/2+y,z
_cell_length_a 11.716(3)
_cell_length_b 7.7421(17)
_cell_length_c 36.980(8)
_cell_angle_alpha 90
_cell_angle_beta 90
_cell_angle_gamma 90
_cell_formula_units_Z 8
loop_
_atom_type_symbol
_atom_type_radius_bond
C 0.68
H 0.23
N 0.68
O 0.68
loop_
_atom_site_label
_atom_site_type_symbol
_atom_site_fract_x
_atom_site_fract_y
_atom_site_fract_z
N1 N 0.9242(3) 0.0651(4) 0.70508(8)
C1 C 0.8729(4) 0.1364(5) 0.73468(9)
H1 H 0.91250 0.16890 0.75540
N2 N 0.7628(3) 0.1545(4) 0.73098(7)
C2 C 0.7413(3) 0.0892(4) 0.69733(8)
C3 C 0.8394(3) 0.0338(4) 0.68120(9)
C4 C 1.0444(3) 0.0338(4) 0.69928(10)
H2 H 1.05310 -0.05880 0.68180
H3 H 1.07860 -0.00400 0.72180
C5 C 1.1080(3) 0.1930(4) 0.68566(9)
H4 H 1.05820 0.25070 0.66810
O1 O 1.1290(3) 0.3113(3) 0.71375(8)
H5 H 1.167(6) 0.260(9) 0.7272(16)
C6 C 1.2149(3) 0.1422(5) 0.66601(9)
H6 H 1.26020 0.24330 0.66020
H7 H 1.26060 0.06460 0.68070
O2 O 1.1771(3) 0.0577(4) 0.63377(7)
C7 C 1.2547(4) 0.0072(5) 0.60857(9)
C8 C 1.2083(4) -0.0647(5) 0.5773(1)
H8 H 1.12960 -0.07270 0.57470
C9 C 1.2783(4) -0.1232(5) 0.55058(10)
H9 H 1.24680 -0.17060 0.52970
C10 C 1.3957(4) -0.1133(5) 0.55402(10)
C11 C 1.4410(4) -0.0394(5) 0.58522(11)
H10 H 1.51980 -0.03070 0.58780
C12 C 1.3701(4) 0.0212(5) 0.61233(10)
H11 H 1.40100 0.07120 0.63300
C13 C 1.4759(6) -0.1810(6) 0.52624(13)
O3 O 1.5775(4) -0.1726(6) 0.53020(11)
C14 C 1.4271(7) -0.2625(8) 0.49289(13)
H12 H 1.38110 -0.17950 0.48020
H13 H 1.38090 -0.35970 0.49960
H14 H 1.48810 -0.30030 0.47750
N3 N 0.6298(3) 0.0783(4) 0.68386(9)
O4 O 0.5516(3) 0.1456(4) 0.70047(8)
O5 O 0.6160(3) 0.0031(5) 0.65489(9)
O6 O 0.8613(3) -0.0422(3) 0.64955(6)
C15 C 0.8564(5) 0.0706(7) 0.61784(11)
H15 H 0.79280 0.14990 0.62010
H16 H 0.92610 0.13790 0.61620
C16 C 0.8430(7) -0.032(1) 0.58570(12)
H17 H 0.89580 -0.12670 0.58630
H18 H 0.85770 0.03820 0.56480
H19 H 0.76640 -0.07580 0.58460
#END
