
#######################################################################
#
#                 Cambridge Crystallographic Data Centre
#                                CCDC
#
#######################################################################
#
# If this CIF has been generated from an entry in the Cambridge
# Structural Database, then it will include bibliographic, chemical,
# crystal, experimental, refinement or atomic coordinate data resulting
# from the CCDC's data processing and validation procedures.
#
#######################################################################

data_CSD_CIF_VURCUI01
_audit_creation_date 2017-02-07
_audit_creation_method CSD-ConQuest-V1
_database_code_CSD VURCUI01
_database_code_depnum_ccdc_archive 'CCDC 1443170'
_chemical_formula_sum 'C8 H9 N3 O1'
_chemical_formula_moiety
;
C8 H9 N3 O1
;
_journal_coden_Cambridge 35
_journal_volume 82
_journal_year 2017
_journal_page_first 1666
_journal_name_full 'J.Org.Chem. '
loop_
_publ_author_name
"D.A.Safin"
"M.P.Mitoraj"
"M.G.Babashkina"
"P.Kubisiak"
"K.Robeyns"
"Y.Filinchuk"
_chemical_name_systematic
;
2-hydrazono-N-hydroxy-2-phenylethanimine
;
_cell_volume    814.992
_exptl_crystal_colour 'yellowish'
_exptl_crystal_density_diffrn 1.33
_exptl_crystal_description 'rod'
_diffrn_ambient_temperature 150
#These two values have been output from a single CSD field.
_refine_ls_R_factor_gt 0.0492
_refine_ls_wR_factor_gt 0.0492
loop_
_citation_database_id_CSD
_citation_special_details
VURDAP "is a stereoisomer of this entry"
_symmetry_cell_setting monoclinic
_symmetry_space_group_name_H-M 'P 21/n'
_symmetry_Int_Tables_number 14
loop_
_symmetry_equiv_pos_site_id
_symmetry_equiv_pos_as_xyz
1 x,y,z
2 1/2-x,1/2+y,1/2-z
3 -x,-y,-z
4 -1/2+x,-1/2-y,-1/2+z
_cell_length_a 11.9213(6)
_cell_length_b 4.6621(2)
_cell_length_c 15.1386(7)
_cell_angle_alpha 90
_cell_angle_beta 104.387(5)
_cell_angle_gamma 90
_cell_formula_units_Z 4
loop_
_atom_type_symbol
_atom_type_radius_bond
C 0.68
H 0.23
N 0.68
O 0.68
loop_
_atom_site_label
_atom_site_type_symbol
_atom_site_fract_x
_atom_site_fract_y
_atom_site_fract_z
C1 C 0.68363(17) 0.4573(4) 0.43314(12)
H1 H 0.61210 0.42290 0.44820
C2 C 0.71076(18) 0.3088(4) 0.36190(13)
H2 H 0.65800 0.17060 0.32900
C3 C 0.81368(18) 0.3593(5) 0.33817(13)
H3 H 0.83160 0.25600 0.28940
C4 C 0.89036(18) 0.5607(5) 0.38569(13)
H4 H 0.96050 0.59920 0.36890
C5 C 0.86462(17) 0.7063(5) 0.45802(13)
H5 H 0.91840 0.84170 0.49130
C6 C 0.76137(16) 0.6575(4) 0.48271(12)
C7 C 0.73251(16) 0.8267(4) 0.55767(12)
N1 N 0.62484(14) 0.8886(3) 0.54738(10)
N2 N 0.59099(16) 1.0422(4) 0.61531(11)
H6 H 0.643(2) 1.164(5) 0.6421(16)
H7 H 0.521(2) 1.121(5) 0.5898(16)
C8 C 0.83008(18) 0.9021(5) 0.63458(13)
H8 H 0.90130 0.80270 0.64120
N3 N 0.82341(14) 1.0955(4) 0.69292(11)
O1 O 0.92756(13) 1.1183(4) 0.75892(10)
H9 H 0.9222(9) 1.270(7) 0.8003(18)
#END
