
#######################################################################
#
#                 Cambridge Crystallographic Data Centre
#                                CCDC
#
#######################################################################
#
# If this CIF has been generated from an entry in the Cambridge
# Structural Database, then it will include bibliographic, chemical,
# crystal, experimental, refinement or atomic coordinate data resulting
# from the CCDC's data processing and validation procedures.
#
#######################################################################

data_CSD_CIF_VURTEJ
_audit_creation_date 2015-10-26
_audit_creation_method CSD-ConQuest-V1
_database_code_CSD VURTEJ
_database_code_depnum_ccdc_archive 'CCDC 1048692'
_chemical_formula_sum 'C17 H26 N2 O2'
_chemical_formula_moiety
;
C17 H26 N2 O2
;
_journal_coden_Cambridge 1086
_journal_volume 27
_journal_year 2015
_journal_page_first 532
_journal_name_full 'Chirality '
loop_
_publ_author_name
"K.Takenaka"
"Xianjin Lin"
"S.Takizawa"
"H.Sasai"
_chemical_name_systematic
;
3,3'-diisopropyl-3,3',3a,3a',4,4',5,5'-octahydro-6,6'-spirobi[cyclopenta[c][1,
2]oxazole]
;
_cell_volume   1631.757
_exptl_crystal_colour 'colorless'
_exptl_crystal_density_diffrn 1.182
_exptl_crystal_description 'platelet'
_diffrn_ambient_temperature 93
#These two values have been output from a single CSD field.
_refine_ls_R_factor_gt 0.0541
_refine_ls_wR_factor_gt 0.0541
loop_
_citation_database_id_CSD
_citation_special_details
VURTIN "is a stereoisomer of this entry"
_symmetry_cell_setting monoclinic
_symmetry_space_group_name_H-M 'P 21/n'
_symmetry_Int_Tables_number 14
loop_
_symmetry_equiv_pos_site_id
_symmetry_equiv_pos_as_xyz
1 x,y,z
2 1/2-x,1/2+y,1/2-z
3 -x,-y,-z
4 -1/2+x,-1/2-y,-1/2+z
_cell_length_a 5.4657(15)
_cell_length_b 27.856(8)
_cell_length_c 10.747(3)
_cell_angle_alpha 90
_cell_angle_beta 94.251(5)
_cell_angle_gamma 90
_cell_formula_units_Z 4
loop_
_atom_type_symbol
_atom_type_radius_bond
C 0.68
H 0.23
N 0.68
O 0.68
loop_
_atom_site_label
_atom_site_type_symbol
_atom_site_fract_x
_atom_site_fract_y
_atom_site_fract_z
O1 O 1.0483(2) 0.13783(3) 0.63667(8)
O2 O 0.71495(18) 0.33468(3) 0.61411(8)
N1 N 1.0918(3) 0.18792(4) 0.60908(10)
N2 N 0.7673(2) 0.28423(4) 0.59589(9)
C1 C 0.9641(3) 0.24059(4) 0.4226(1)
C2 C 1.0068(3) 0.19499(4) 0.49727(11)
C3 C 0.8899(3) 0.15202(4) 0.43237(10)
C4 C 0.8525(3) 0.12112(4) 0.54582(11)
C5 C 0.6791(3) 0.17553(4) 0.35270(11)
C6 C 0.8001(3) 0.22148(4) 0.30697(10)
C7 C 0.8389(2) 0.28074(4) 0.4861(1)
C8 C 0.8593(3) 0.32703(4) 0.41514(10)
C9 C 0.8519(3) 0.36178(4) 0.52499(10)
C10 C 1.0946(3) 0.31925(5) 0.34555(11)
C11 C 1.1933(3) 0.26896(5) 0.38644(11)
C12 C 0.8733(3) 0.06730(4) 0.53064(11)
C13 C 0.6889(3) 0.05028(5) 0.42633(13)
C14 C 0.8338(3) 0.04139(5) 0.65364(12)
C15 C 0.7275(3) 0.40976(5) 0.49841(11)
C16 C 0.8726(3) 0.43807(5) 0.40692(13)
C17 C 0.7003(4) 0.43790(6) 0.61875(14)
H1 H 1.00480 0.13650 0.37920
H2 H 0.69280 0.12870 0.57680
H3 H 0.54340 0.18280 0.40290
H4 H 0.62260 0.15490 0.28380
H5 H 0.67500 0.24470 0.28010
H6 H 0.89820 0.21400 0.23790
H7 H 0.71610 0.33170 0.35600
H8 H 1.01960 0.36730 0.56090
H9 H 1.05600 0.32020 0.25600
H10 H 1.21480 0.34380 0.36920
H11 H 1.26730 0.25300 0.31840
H12 H 1.31270 0.27150 0.45750
H13 H 1.03880 0.05990 0.50680
H14 H 0.72370 0.06540 0.34930
H15 H 0.52660 0.05890 0.44680
H16 H 0.69890 0.01610 0.41740
H17 H 0.67300 0.04890 0.67840
H18 H 0.95470 0.05190 0.71720
H19 H 0.84780 0.00730 0.64230
H20 H 0.56310 0.40370 0.45880
H21 H 0.87220 0.42110 0.32920
H22 H 0.79910 0.46910 0.39290
H23 H 1.03850 0.44190 0.44150
H24 H 0.60400 0.46620 0.60060
H25 H 0.86000 0.44700 0.65420
H26 H 0.62080 0.41830 0.67720
#END
