
#######################################################################
#
#                 Cambridge Crystallographic Data Centre
#                                CCDC
#
#######################################################################
#
# If this CIF has been generated from an entry in the Cambridge
# Structural Database, then it will include bibliographic, chemical,
# crystal, experimental, refinement or atomic coordinate data resulting
# from the CCDC's data processing and validation procedures.
#
#######################################################################

data_CSD_CIF_VUWJUT
_audit_creation_date 2010-10-20
_audit_creation_method CSD-ConQuest-V1
_database_code_CSD VUWJUT
_database_code_depnum_ccdc_archive 'CCDC 775422'
_chemical_formula_sum 'C8 H17 N1 O2'
_chemical_formula_moiety
;
C8 H17 N1 O2
;
_journal_coden_Cambridge 155
_journal_volume 363
_journal_year 2010
_journal_page_first 935
_journal_name_full 'Inorg.Chim.Acta '
loop_
_publ_author_name
"G.A.Hope"
"R.Woods"
"A.N.Buckley"
"J.M.White"
"J.McLean"
_chemical_name_systematic
;
N-Hydroxyoctanamide
;
_cell_volume    447.651
_exptl_crystal_colour 'colorless'
_exptl_crystal_density_diffrn 1.181
_exptl_crystal_description 'plate'
_diffrn_ambient_temperature 130
#These two values have been output from a single CSD field.
_refine_ls_R_factor_gt 0.1041
_refine_ls_wR_factor_gt 0.1041
_symmetry_cell_setting monoclinic
_symmetry_space_group_name_H-M 'P 21'
_symmetry_Int_Tables_number 4
loop_
_symmetry_equiv_pos_site_id
_symmetry_equiv_pos_as_xyz
1 x,y,z
2 -x,1/2+y,-z
_cell_length_a 4.647(8)
_cell_length_b 4.154(7)
_cell_length_c 23.19(4)
_cell_angle_alpha 90
_cell_angle_beta 90.10(2)
_cell_angle_gamma 90
_cell_formula_units_Z 2
loop_
_atom_type_symbol
_atom_type_radius_bond
C 0.68
H 0.23
N 0.68
O 0.68
loop_
_atom_site_label
_atom_site_type_symbol
_atom_site_fract_x
_atom_site_fract_y
_atom_site_fract_z
O1 O 1.0167(13) 0.3739(15) 0.4085(2)
O2 O 0.7839(12) 0.5107(13) 0.5110(2)
H1 H 0.87770 0.64110 0.52980
N1 N 0.6942(14) 0.6526(17) 0.4596(3)
H2 H 0.56650 0.80240 0.46000
C1 C 0.702(2) 0.874(2) 0.2583(3)
H3 H 0.57980 1.05410 0.26840
H4 H 0.57800 0.69860 0.24620
C2 C 0.8061(19) 0.5557(18) 0.4104(4)
C3 C 0.887(2) 0.971(2) 0.2078(4)
H5 H 1.00610 0.78890 0.19710
H6 H 1.01370 1.14300 0.22000
C4 C 0.6572(18) 0.681(2) 0.3587(3)
H7 H 0.54610 0.86980 0.36940
H8 H 0.52400 0.51960 0.34470
C5 C 0.723(2) 1.081(2) 0.1552(4)
H9 H 0.59310 0.91100 0.14340
H10 H 0.60710 1.26640 0.16560
C6 C 0.861(2) 0.770(2) 0.3110(3)
H11 H 0.98490 0.94370 0.32390
H12 H 0.98110 0.58660 0.30190
C7 C 0.907(2) 1.170(3) 0.1050(4)
H13 H 1.02080 0.98430 0.09370
H14 H 1.03970 1.33860 0.11660
C8 C 0.736(3) 1.285(3) 0.0535(4)
H15 H 0.59040 1.12910 0.04430
H16 H 0.86170 1.31190 0.02110
H17 H 0.64620 1.48710 0.06250
#END
