
#######################################################################
#
#                 Cambridge Crystallographic Data Centre
#                                CCDC
#
#######################################################################
#
# If this CIF has been generated from an entry in the Cambridge
# Structural Database, then it will include bibliographic, chemical,
# crystal, experimental, refinement or atomic coordinate data resulting
# from the CCDC's data processing and validation procedures.
#
#######################################################################

data_CSD_CIF_VUWRIO
_audit_creation_date 1993-08-17
_audit_creation_method CSD-ConQuest-V1
_database_code_CSD VUWRIO
_chemical_formula_sum 'C25 H30 N2 O8'
_chemical_formula_moiety
;
C25 H30 N2 O8
;
_journal_coden_Cambridge 10
_journal_volume 75
_journal_year 1992
_journal_page_first 1755
_journal_name_full 'Helv.Chim.Acta '
loop_
_publ_author_name
"L.A.Paquette"
"S.W.Elmore"
"K.D.Combrink"
"E.R.Hickey"
"R.D.Rogers"
_chemical_name_systematic
;
5-(3,5-Dinitrobenzoato)-1-hydroxy-9,15,15-trimethyltetracyclo(10.2.1.0^3,10^.0
^4,9^)pentadecan-2-one
;
_chemical_name_common
;
(4R,4aR,4bS,6S,9R,10aS,10bS)-4-(3,5-Dinitrobenzoato)perhydro-6-hydroxy-10b,11,
11-trimethyl-6,9-methanobenzo(3,4)cyclobuta(1,2)cyclo-octen-5(2H)-one
;
_chemical_melting_point 436.15
_cell_volume   2386.161
_exptl_crystal_colour 'colorless'
_exptl_crystal_density_diffrn 1.35
_exptl_special_details
;
Melting point range 436.15-439.15K

;
_diffrn_ambient_temperature ?
_diffrn_special_details
;
The study was carried out at room temperature,in the range 283-303K

;
#These two values have been output from a single CSD field.
_refine_ls_R_factor_gt 0.056
_refine_ls_wR_factor_gt 0.056
_symmetry_cell_setting orthorhombic
_symmetry_space_group_name_H-M 'P 21 21 21'
_symmetry_Int_Tables_number 19
loop_
_symmetry_equiv_pos_site_id
_symmetry_equiv_pos_as_xyz
1 x,y,z
2 1/2+x,1/2-y,-z
3 -x,1/2+y,1/2-z
4 1/2-x,-y,1/2+z
_cell_length_a 6.764(3)
_cell_length_b 18.324(6)
_cell_length_c 19.252(5)
_cell_angle_alpha 90
_cell_angle_beta 90
_cell_angle_gamma 90
_cell_formula_units_Z 4
loop_
_atom_type_symbol
_atom_type_radius_bond
C 0.68
H 0.23
N 0.68
O 0.68
loop_
_atom_site_label
_atom_site_type_symbol
_atom_site_fract_x
_atom_site_fract_y
_atom_site_fract_z
O1 O -0.101(1) -0.0633(3) -0.7221(3)
O2 O 0.0042(9) -0.1741(3) -0.6486(3)
O3 O -0.191(1) -0.3977(3) -0.5355(3)
O4 O 0.048(1) -0.3471(3) -0.4713(3)
O5 O -0.126(1) -0.7264(3) -0.4846(3)
O6 O -0.330(1) -0.6488(3) -0.5301(4)
O7 O 0.564(1) -0.5277(4) -0.3950(4)
O8 O 0.461(1) -0.6359(4) -0.3685(4)
N1 N -0.177(1) -0.6640(4) -0.4992(4)
N2 N 0.439(1) -0.5765(5) -0.3945(4)
C1 C -0.226(2) -0.1232(4) -0.7298(4)
C2 C -0.152(1) -0.1833(4) -0.6795(4)
C3 C -0.278(1) -0.2492(3) -0.6717(3)
C4 C -0.216(1) -0.3175(4) -0.6318(3)
C5 C -0.284(2) -0.3278(4) -0.5560(4)
C6 C -0.499(2) -0.3376(4) -0.5475(4)
C7 C -0.582(1) -0.3968(4) -0.5951(4)
C8 C -0.545(1) -0.3761(4) -0.6721(4)
C9 C -0.324(1) -0.3639(4) -0.6885(4)
C10 C -0.284(1) -0.2985(4) -0.7377(3)
C11 C -0.423(2) -0.2757(4) -0.7970(4)
C12 C -0.438(1) -0.1915(4) -0.8089(4)
C13 C -0.576(1) -0.1525(5) -0.7572(4)
C14 C -0.441(2) -0.1043(4) -0.7104(4)
C15 C -0.224(2) -0.4357(4) -0.7092(5)
C16 C -0.246(1) -0.1471(4) -0.8071(4)
C17 C -0.283(2) -0.0774(4) -0.8501(4)
C18 C -0.059(1) -0.1841(5) -0.8343(4)
C19 C -0.041(1) -0.3987(4) -0.4954(4)
C20 C 0.021(1) -0.4771(4) -0.4795(4)
C21 C -0.101(1) -0.5345(4) -0.4988(3)
C22 C -0.043(1) -0.6042(4) -0.4817(4)
C23 C 0.129(1) -0.6192(4) -0.4473(4)
C24 C 0.253(1) -0.5614(4) -0.4302(4)
C25 C 0.201(1) -0.4895(4) -0.4453(4)
H1 H 0.02300 -0.04600 -0.69500
H2 H -0.37800 -0.22000 -0.65000
H3 H -0.08100 -0.32500 -0.62100
H4 H -0.26700 -0.28400 -0.53000
H5 H -0.56300 -0.29200 -0.55300
H6 H -0.51400 -0.35300 -0.50100
H7 H -0.53800 -0.44500 -0.58600
H8 H -0.72000 -0.39400 -0.58700
H9 H -0.59300 -0.41400 -0.70100
H10 H -0.61400 -0.33200 -0.68200
H11 H -0.17900 -0.30100 -0.77100
H12 H -0.55000 -0.29500 -0.78700
H13 H -0.37500 -0.29700 -0.83900
H14 H -0.49000 -0.19000 -0.85500
H15 H -0.64600 -0.18800 -0.73100
H16 H -0.66600 -0.12200 -0.78200
H17 H -0.46600 -0.11600 -0.66300
H18 H -0.46600 -0.05400 -0.71800
H19 H -0.08600 -0.42600 -0.71200
H20 H -0.24700 -0.48000 -0.68500
H21 H -0.27700 -0.43900 -0.75500
H22 H -0.16600 -0.05100 -0.83900
H23 H -0.29700 -0.08000 -0.89900
H24 H -0.39400 -0.05300 -0.83100
H25 H -0.02900 -0.22400 -0.80400
H26 H -0.08900 -0.20200 -0.87900
H27 H 0.05300 -0.15200 -0.83700
H28 H -0.22600 -0.52400 -0.51900
H29 H 0.15600 -0.66800 -0.43200
H30 H 0.26900 -0.44800 -0.42700
#END
