
#######################################################################
#
#                 Cambridge Crystallographic Data Centre
#                                CCDC
#
#######################################################################
#
# If this CIF has been generated from an entry in the Cambridge
# Structural Database, then it will include bibliographic, chemical,
# crystal, experimental, refinement or atomic coordinate data resulting
# from the CCDC's data processing and validation procedures.
#
#######################################################################

data_CSD_CIF_VUXBIZ
_audit_creation_date 1989-10-10
_audit_creation_method CSD-ConQuest-V1
_database_code_CSD VUXBIZ
_database_code_depnum_ccdc_archive 'CCDC 1288673'
_chemical_formula_sum 'C17 H17 N1 O7'
_chemical_formula_moiety
;
C17 H17 N1 O7
;
_journal_coeditor_code "IUCr AN0131"
_journal_coden_Cambridge 591
_journal_volume 44
_journal_year 1988
_journal_page_first 1293
_journal_name_full 'Acta Crystallogr.,Sect.C:Cryst.Struct.Commun. '
loop_
_publ_author_name
"M.Soriano-Garcia"
"R.A.Toscano"
"A.Reyes-Arellano"
"H.Salgado-Zamora"
"J.Tamariz-Mascarua"
_chemical_name_systematic
;
3-Acetoxy-4-acetyl-4-(p-nitrobenzoyloxy)-cyclohex-1-ene
;
_chemical_name_common
;
2-Acetoxy-1-acetyl-3-cyclohexen-1-yl p-nitrobenzoate
;
_chemical_melting_point 394
_cell_volume   3451.328
_exptl_crystal_colour 'colorless'
_exptl_crystal_density_diffrn 1.34
_exptl_special_details
;
Melting point range 394-395K

;
_diffrn_ambient_temperature ?
_diffrn_special_details
;
The study was carried out at room temperature,in the range 283-303K

;
#These two values have been output from a single CSD field.
_refine_ls_R_factor_gt 0.056
_refine_ls_wR_factor_gt 0.056
_symmetry_cell_setting monoclinic
_symmetry_space_group_name_H-M 'C 2/c'
_symmetry_Int_Tables_number 15
loop_
_symmetry_equiv_pos_site_id
_symmetry_equiv_pos_as_xyz
1 x,y,z
2 1/2+x,1/2+y,z
3 -x,y,1/2-z
4 1/2-x,1/2+y,1/2-z
5 -x,-y,-z
6 -1/2-x,-1/2-y,-z
7 x,-y,-1/2+z
8 -1/2+x,-1/2-y,-1/2+z
_cell_length_a 31.963(11)
_cell_length_b 5.701(2)
_cell_length_c 29.859(8)
_cell_angle_alpha 90
_cell_angle_beta 140.63(2)
_cell_angle_gamma 90
_cell_formula_units_Z 8
loop_
_atom_type_symbol
_atom_type_radius_bond
C 0.68
H 0.23
N 0.68
O 0.68
loop_
_atom_site_label
_atom_site_type_symbol
_atom_site_fract_x
_atom_site_fract_y
_atom_site_fract_z
C1 C 0.3541(1) 0.4915(4) 0.2957(1)
C2 C 0.3815(1) 0.3375(4) 0.2805(1)
C3 C 0.3405(1) 0.1150(4) 0.2432(1)
C4 C 0.2693(1) 0.1727(6) 0.1735(1)
C5 C 0.2438(2) 0.3733(6) 0.1785(2)
C6 C 0.2816(2) 0.5163(5) 0.2338(2)
O1 O 0.3725(1) 0.3727(3) 0.3523(1)
C7 C 0.4000(1) 0.4990(5) 0.4079(1)
O2 O 0.4104(1) 0.7040(4) 0.4132(1)
C8 C 0.4137(2) 0.3499(7) 0.4586(2)
C9 C 0.4562(1) 0.3061(5) 0.3493(1)
O3 O 0.4915(1) 0.4734(4) 0.3730(1)
C10 C 0.4817(2) 0.0784(6) 0.3865(2)
O4 O 0.3709(1) 0.4859(3) 0.2325(1)
C11 C 0.3976(1) 0.4134(5) 0.2157(1)
O5 O 0.4318(1) 0.2425(4) 0.2405(1)
C12 C 0.3790(1) 0.5711(5) 0.1624(1)
C13 C 0.3328(1) 0.7469(5) 0.1294(1)
C14 C 0.3166(1) 0.8914(5) 0.0801(1)
C15 C 0.3474(1) 0.8525(5) 0.0654(1)
C16 C 0.3931(1) 0.6779(6) 0.0970(2)
C17 C 0.4095(1) 0.5366(6) 0.1466(2)
N1 N 0.3294(1) 1.0035(6) 0.0121(1)
O6 O 0.2944(2) 1.1710(5) -0.0102(2)
O7 O 0.3477(2) 0.9475(7) -0.0094(2)
H1 H 0.37170 0.64740 0.30790
H2 H 0.34220 0.03320 0.27270
H3 H 0.35820 0.01700 0.23470
H4 H 0.24270 0.03750 0.15770
H5 H 0.26620 0.21010 0.13960
H6 H 0.19710 0.40200 0.13950
H7 H 0.26110 0.64020 0.23360
H8 H 0.43670 0.43990 0.49990
H9 H 0.44040 0.21890 0.47180
H10 H 0.37290 0.29380 0.43710
H11 H 0.45310 0.01880 0.38580
H12 H 0.52520 0.09930 0.43450
H13 H 0.48320 -0.03090 0.36340
H14 H 0.31180 0.76950 0.14050
H15 H 0.28480 1.01490 0.05710
H16 H 0.41340 0.65440 0.08500
H17 H 0.44180 0.41490 0.16990
#END
