
#######################################################################
#
#                 Cambridge Crystallographic Data Centre
#                                CCDC
#
#######################################################################
#
# If this CIF has been generated from an entry in the Cambridge
# Structural Database, then it will include bibliographic, chemical,
# crystal, experimental, refinement or atomic coordinate data resulting
# from the CCDC's data processing and validation procedures.
#
#######################################################################

data_CSD_CIF_VUXKOP
_audit_creation_date 2010-06-17
_audit_creation_method CSD-ConQuest-V1
_database_code_CSD VUXKOP
_database_code_depnum_ccdc_archive 'CCDC 735465'
_chemical_formula_sum 'C23 H18 N2 O7'
_chemical_formula_moiety
;
C23 H18 N2 O7
;
_journal_coden_Cambridge 1336
_journal_volume 11
_journal_year 2009
_journal_page_first 3506
_journal_name_full 'Org.Lett. '
loop_
_publ_author_name
"M.T.Jones"
"B.D.Schwartz"
"A.C.Willis"
"M.G.Banwell"
_chemical_name_systematic
;
7-Oxo-2,3a,4,5,7,12c-hexahydro-3H-[1,3]dioxolo[4,5-j]pyrrolo[3,2,1-de]phenanth
ridin-2-yl 4-nitrobenzoate
;
_cell_volume   1915.694
_exptl_crystal_colour 'yellow'
_exptl_crystal_density_diffrn 1.506
_exptl_crystal_description 'block'
_exptl_crystal_preparation 'ethyl acetate/hexane/pentane'
_diffrn_ambient_temperature 200
_refine_special_details
;
One C and one O atom are disordered over two sites with occupancies 
;
#These two values have been output from a single CSD field.
_refine_ls_R_factor_gt 0.0313
_refine_ls_wR_factor_gt 0.0313
_symmetry_cell_setting orthorhombic
_symmetry_space_group_name_H-M 'P 21 21 21'
_symmetry_Int_Tables_number 19
loop_
_symmetry_equiv_pos_site_id
_symmetry_equiv_pos_as_xyz
1 x,y,z
2 1/2+x,1/2-y,-z
3 -x,1/2+y,1/2-z
4 1/2-x,-y,1/2+z
_cell_length_a 8.4513(1)
_cell_length_b 14.5557(3)
_cell_length_c 15.5729(3)
_cell_angle_alpha 90
_cell_angle_beta 90
_cell_angle_gamma 90
_cell_formula_units_Z 4
loop_
_atom_type_symbol
_atom_type_radius_bond
C 0.68
H 0.23
N 0.68
O 0.68
loop_
_atom_site_label
_atom_site_type_symbol
_atom_site_fract_x
_atom_site_fract_y
_atom_site_fract_z
O1 O 0.17798(15) 0.49928(9) 0.05139(7)
O2 O -0.02379(17) 0.76203(9) 0.25110(9)
O3 O 0.06405(15) 0.72575(8) 0.38783(7)
O4 O 0.41773(12) 0.24855(7) 0.39358(7)
O5 O 0.6418(4) 0.2212(3) 0.4686(3)
O6 O 0.0967(2) -0.13612(10) 0.57795(12)
O7 O 0.2186(2) -0.10398(10) 0.69699(10)
O8? O 0.5716(10) 0.2623(5) 0.5032(3)
N1 N 0.38470(16) 0.44548(9) 0.12788(7)
N2 N 0.1849(2) -0.08877(11) 0.62165(13)
C1 C 0.2589(2) 0.50043(11) 0.11740(9)
C2 C 0.22012(18) 0.56167(10) 0.19215(9)
C3 C 0.1145(2) 0.63472(11) 0.17801(10)
C4 C 0.07212(19) 0.68517(11) 0.24803(11)
C5 C -0.0373(2) 0.78495(12) 0.33942(12)
C6 C 0.12619(19) 0.66447(10) 0.32986(10)
C7 C 0.22936(18) 0.59376(10) 0.34611(9)
C8 C 0.27826(17) 0.54135(10) 0.27491(9)
C9 C 0.38885(17) 0.46299(9) 0.28274(8)
C10 C 0.39864(18) 0.40584(10) 0.34936(9)
C11 C 0.49836(18) 0.32053(10) 0.34506(9)
C12 C 0.5141(2) 0.28673(10) 0.2533(1)
C13 C 0.58704(17) 0.36224(9) 0.19867(9)
C14 C 0.59109(19) 0.33967(11) 0.10175(9)
C15 C 0.4392(2) 0.37981(11) 0.06352(10)
C16 C 0.48822(17) 0.45027(10) 0.20352(8)
C17 C 0.5043(7) 0.2062(4) 0.4533(4)
C18 C 0.40577(19) 0.1345(1) 0.49927(9)
C19 C 0.27468(19) 0.09362(10) 0.46126(10)
C20 C 0.1999(2) 0.02081(11) 0.50168(11)
C21 C 0.2586(2) -0.00780(11) 0.57987(11)
C22 C 0.3848(2) 0.03285(11) 0.62048(11)
C23 C 0.4595(2) 0.10441(11) 0.57907(10)
C24? C 0.4693(13) 0.2212(7) 0.4670(7)
H1 H 0.07530 0.64810 0.12120
H2 H 0.00080 0.84760 0.34890
H3 H -0.14830 0.77500 0.35820
H4 H 0.26530 0.58070 0.40250
H5 H 0.34060 0.41900 0.40050
H6 H 0.60070 0.33150 0.37010
H7 H 0.57890 0.23090 0.24890
H8 H 0.40900 0.27080 0.23150
H9 H 0.69410 0.37420 0.21980
H10 H 0.68320 0.36810 0.07500
H11 H 0.59860 0.27390 0.09130
H12 H 0.45830 0.41120 0.00720
H13 H 0.35790 0.33110 0.05560
H14 H 0.55960 0.50430 0.19760
H15 H 0.23470 0.11720 0.40810
H16 H 0.11190 -0.00520 0.47730
H17 H 0.42160 0.01190 0.67520
H18 H 0.55110 0.13320 0.60130
#END
