
#######################################################################
#
#                 Cambridge Crystallographic Data Centre
#                                CCDC
#
#######################################################################
#
# If this CIF has been generated from an entry in the Cambridge
# Structural Database, then it will include bibliographic, chemical,
# crystal, experimental, refinement or atomic coordinate data resulting
# from the CCDC's data processing and validation procedures.
#
#######################################################################

data_CSD_CIF_VUXLUV
_audit_creation_date 1989-10-10
_audit_creation_method CSD-ConQuest-V1
_database_code_CSD VUXLUV
_database_code_depnum_ccdc_archive 'CCDC 1288741'
_chemical_formula_sum 'C7 H11 N3 O4'
_chemical_formula_moiety
;
C7 H11 N3 O4
;
_journal_coeditor_code "IUCr MU0002"
_journal_coden_Cambridge 591
_journal_volume 44
_journal_year 1988
_journal_page_first 1095
_journal_name_full 'Acta Crystallogr.,Sect.C:Cryst.Struct.Commun. '
loop_
_publ_author_name
"T.C.Jenkins"
"A.R.Walton"
_chemical_name_systematic
;
1-Methoxy-3-(2-nitro-1-imidazolyl)-2-propanol
;
_chemical_name_common
;
Misonidazole
;
_chemical_melting_point 384
_cell_volume    929.397
_exptl_crystal_colour 'pale yellow'
_exptl_crystal_density_diffrn 1.44
_exptl_special_details
;
Melting point range 384-384.5K
radiosensitising and chemosensitising activity on hypoxic tumour cells
;
_diffrn_ambient_temperature ?
_diffrn_special_details
;
The study was carried out at room temperature,in the range 283-303K

;
#These two values have been output from a single CSD field.
_refine_ls_R_factor_gt 0.049
_refine_ls_wR_factor_gt 0.049
_symmetry_cell_setting monoclinic
_symmetry_space_group_name_H-M 'P 21/c'
_symmetry_Int_Tables_number 14
loop_
_symmetry_equiv_pos_site_id
_symmetry_equiv_pos_as_xyz
1 x,y,z
2 -x,1/2+y,1/2-z
3 -x,-y,-z
4 x,-1/2-y,-1/2+z
_cell_length_a 6.997(1)
_cell_length_b 7.862(1)
_cell_length_c 17.024(3)
_cell_angle_alpha 90
_cell_angle_beta 97.06(2)
_cell_angle_gamma 90
_cell_formula_units_Z 4
loop_
_atom_type_symbol
_atom_type_radius_bond
C 0.68
H 0.23
N 0.68
O 0.68
loop_
_atom_site_label
_atom_site_type_symbol
_atom_site_fract_x
_atom_site_fract_y
_atom_site_fract_z
N1 N -0.0838(2) 0.1972(2) 0.4028(1)
C1 C -0.1125(3) 0.0262(3) 0.4017(1)
N2 N -0.2339(2) -0.0252(2) 0.4492(1)
C2 C -0.2886(3) 0.1207(3) 0.4839(1)
C3 C -0.1980(3) 0.2564(3) 0.4560(1)
N3 N -0.0177(3) -0.0904(2) 0.3545(1)
O1 O 0.1111(3) -0.0366(3) 0.3187(1)
O2 O -0.0700(3) -0.2386(2) 0.3535(1)
C4 C 0.0386(3) 0.3086(3) 0.3613(1)
C5 C 0.2418(3) 0.3249(3) 0.4044(1)
O3 O 0.2385(2) 0.3617(2) 0.4859(1)
C6 C 0.3455(3) 0.4722(3) 0.3715(1)
O4 O 0.3587(3) 0.4443(3) 0.2908(1)
C7 C 0.4638(4) 0.5746(5) 0.2584(2)
H1 H -0.38300 0.12500 0.52500
H2 H -0.21200 0.38100 0.47200
H3 H -0.01900 0.42500 0.35500
H4 H 0.04700 0.26100 0.30600
H5 H 0.31000 0.21200 0.39800
H6 H 0.24400 0.25800 0.51600
H7 H 0.47700 0.48600 0.40100
H8 H 0.27000 0.58000 0.37800
H9 H 0.47200 0.55200 0.20000
H10 H 0.39900 0.68800 0.26200
H11 H 0.59900 0.58200 0.28600
#END
