
#######################################################################
#
#                 Cambridge Crystallographic Data Centre
#                                CCDC
#
#######################################################################
#
# If this CIF has been generated from an entry in the Cambridge
# Structural Database, then it will include bibliographic, chemical,
# crystal, experimental, refinement or atomic coordinate data resulting
# from the CCDC's data processing and validation procedures.
#
#######################################################################

data_CSD_CIF_VUXVEP
_audit_creation_date 1989-10-10
_audit_creation_method CSD-ConQuest-V1
_database_code_CSD VUXVEP
_chemical_formula_sum 'C25 H31 N1 O4'
_chemical_formula_moiety
;
C25 H31 N1 O4
;
_journal_coeditor_code "IUCr AN0146"
_journal_coden_Cambridge 591
_journal_volume 44
_journal_year 1988
_journal_page_first 1621
_journal_name_full 'Acta Crystallogr.,Sect.C:Cryst.Struct.Commun. '
loop_
_publ_author_name
"A.R.Walton"
"S.Neidle"
"A.B.Foster"
"D.Nicholls"
_chemical_name_systematic
;
Ethyl 17\a-ethynyl-17-hydroxy-4-androsteno(2,3-d)isoxazole-3'-carboxylate
;
_cell_volume   2257.204
_exptl_crystal_colour 'white'
_exptl_crystal_density_diffrn 1.205
_exptl_special_details
;
pharmacological activity

;
_diffrn_ambient_temperature ?
_diffrn_special_details
;
The study was carried out at room temperature,in the range 283-303K

;
#These two values have been output from a single CSD field.
_refine_ls_R_factor_gt 0.043
_refine_ls_wR_factor_gt 0.043
_symmetry_cell_setting orthorhombic
_symmetry_space_group_name_H-M 'P 21 21 21'
_symmetry_Int_Tables_number 19
loop_
_symmetry_equiv_pos_site_id
_symmetry_equiv_pos_as_xyz
1 x,y,z
2 1/2+x,1/2-y,-z
3 -x,1/2+y,1/2-z
4 1/2-x,-y,1/2+z
_cell_length_a 7.428(2)
_cell_length_b 11.391(1)
_cell_length_c 26.677(3)
_cell_angle_alpha 90
_cell_angle_beta 90
_cell_angle_gamma 90
_cell_formula_units_Z 4
loop_
_atom_type_symbol
_atom_type_radius_bond
C 0.68
H 0.23
N 0.68
O 0.68
loop_
_atom_site_label
_atom_site_type_symbol
_atom_site_fract_x
_atom_site_fract_y
_atom_site_fract_z
C1 C 0.8107(6) 0.6386(4) 0.1000(2)
C2 C 0.7527(6) 0.5874(4) 0.0503(1)
C3 C 0.5847(6) 0.6044(4) 0.0341(2)
C4 C 0.4501(6) 0.6738(4) 0.0582(2)
C5 C 0.5005(6) 0.7404(4) 0.0970(2)
C6 C 0.3686(7) 0.8228(5) 0.1210(2)
C7 C 0.3861(6) 0.8288(4) 0.1782(2)
C8 C 0.5787(6) 0.8555(4) 0.1933(1)
C9 C 0.7058(6) 0.7619(4) 0.1721(1)
C10 C 0.6976(6) 0.7493(4) 0.1143(2)
C11 C 0.9021(6) 0.7771(4) 0.1907(2)
C12 C 0.9141(6) 0.7887(4) 0.2484(2)
C13 C 0.7914(6) 0.8863(4) 0.2673(1)
C14 C 0.6006(6) 0.8591(4) 0.2504(2)
C15 C 0.4815(7) 0.9447(4) 0.2801(2)
C16 C 0.5846(8) 0.9591(5) 0.3301(2)
C17 C 0.7639(7) 0.8938(4) 0.3248(2)
C18 C 0.8601(7) 1.0059(4) 0.2486(2)
C19 C 0.7759(7) 0.8559(4) 0.0864(2)
C20 C 0.7566(7) 0.7769(4) 0.3492(2)
O1 O 0.9120(5) 0.9572(3) 0.3466(1)
C21 C 0.7485(9) 0.6900(5) 0.3722(2)
O2 O 0.5568(5) 0.5449(3) -0.0095(1)
N1 N 0.7168(5) 0.4856(3) -0.0220(1)
C22 C 0.8315(6) 0.5126(4) 0.0140(2)
C23 C 1.0134(6) 0.4612(4) 0.0140(2)
O3 O 1.1211(4) 0.4792(3) 0.0466(1)
O4 O 1.0428(5) 0.3926(3) -0.0253(1)
C24 C 1.2156(8) 0.3325(5) -0.0275(2)
C25 C 1.2292(9) 0.2727(6) -0.0754(2)
H1 H 0.94000 0.66200 0.09800
H2 H 0.79500 0.57800 0.12700
H3 H 0.32200 0.67300 0.04600
H4 H 0.38800 0.90300 0.10700
H5 H 0.24400 0.79600 0.11200
H6 H 0.30500 0.89200 0.19100
H7 H 0.34900 0.75200 0.19300
H8 H 0.60900 0.93500 0.17900
H9 H 0.66000 0.68500 0.18600
H10 H 0.97400 0.70800 0.18000
H11 H 0.95300 0.85000 0.17500
H12 H 0.87700 0.71300 0.26400
H13 H 1.04100 0.80700 0.25800
H14 H 0.56200 0.77700 0.25800
H15 H 0.47000 1.02200 0.26200
H16 H 0.35900 0.91100 0.28600
H17 H 0.60600 1.04400 0.33700
H18 H 0.51300 0.92400 0.35800
H19 H 0.77900 1.06900 0.26100
H20 H 0.86200 1.00700 0.21100
H21 H 0.98500 1.01900 0.26200
H22 H 0.90500 0.86600 0.09600
H23 H 0.70600 0.92800 0.09600
H24 H 0.74100 0.61500 0.39200
H25 H 1.31500 0.39100 -0.02400
H26 H 1.22400 0.27400 0.00000
H27 H 1.34800 0.23100 -0.07700
H28 H 1.22100 0.33100 -0.10300
H29 H 1.13000 0.21400 -0.07800
H30 H 0.88900 0.96900 0.38200
#END
