
#######################################################################
#
#                 Cambridge Crystallographic Data Centre
#                                CCDC
#
#######################################################################
#
# If this CIF has been generated from an entry in the Cambridge
# Structural Database, then it will include bibliographic, chemical,
# crystal, experimental, refinement or atomic coordinate data resulting
# from the CCDC's data processing and validation procedures.
#
#######################################################################

data_CSD_CIF_VUXVUG
_audit_creation_date 2010-06-28
_audit_creation_method CSD-ConQuest-V1
_database_code_CSD VUXVUG
_database_code_depnum_ccdc_archive 'CCDC 733577'
_chemical_formula_sum 'C26 H31 N1 O2'
_chemical_formula_moiety
;
C26 H31 N1 O2
;
_journal_coden_Cambridge 1336
_journal_volume 11
_journal_year 2009
_journal_page_first 3254
_journal_name_full 'Org.Lett. '
loop_
_publ_author_name
"A.N.Chernega"
"S.G.Davies"
"C.J.Goodwin"
"D.Hepworth"
"W.Kurosawa"
"P.M.Roberts"
"J.E.Thomson"
_chemical_name_systematic
;
(2RS,1'RS)-N-t-Butoxy-N-1'-(1''-naphthyl)ethyl 2-benzylpropanamide
;
_cell_volume   4563.604
_exptl_crystal_colour 'colorless'
_exptl_crystal_description 'prism'
_diffrn_ambient_temperature 190
#These two values have been output from a single CSD field.
_refine_ls_R_factor_gt 0.057
_refine_ls_wR_factor_gt 0.057
_symmetry_cell_setting monoclinic
_symmetry_space_group_name_H-M 'C 2/c'
_symmetry_Int_Tables_number 15
loop_
_symmetry_equiv_pos_site_id
_symmetry_equiv_pos_as_xyz
1 x,y,z
2 -x,y,1/2-z
3 1/2+x,1/2+y,z
4 1/2-x,1/2+y,1/2-z
5 -x,-y,-z
6 x,-y,-1/2+z
7 -1/2-x,-1/2-y,-z
8 -1/2+x,-1/2-y,-1/2+z
_cell_length_a 36.434(3)
_cell_length_b 8.1030(5)
_cell_length_c 15.804(4)
_cell_angle_alpha 90
_cell_angle_beta 102.01(1)
_cell_angle_gamma 90
_cell_formula_units_Z 8
loop_
_atom_type_symbol
_atom_type_radius_bond
C 0.68
H 0.23
N 0.68
O 0.68
loop_
_atom_site_label
_atom_site_type_symbol
_atom_site_fract_x
_atom_site_fract_y
_atom_site_fract_z
O1 O 0.13923(6) 0.4281(2) 0.2387(1)
O2 O 0.11651(5) 0.0524(2) 0.3199(1)
N1 N 0.13946(5) 0.1873(2) 0.3097(1)
C1 C 0.06431(9) 0.2399(5) 0.0136(2)
C2 C 0.0378(1) 0.3420(7) -0.0337(3)
C3 C 0.0096(1) 0.2757(9) -0.1020(3)
C4 C 0.0095(1) 0.113(1) -0.1188(3)
C5 C 0.0354(1) 0.0120(7) -0.0734(3)
C6 C 0.0622(1) 0.0752(5) -0.0076(2)
C7 C 0.0946(1) 0.3042(5) 0.0863(2)
C8 C 0.09111(7) 0.2394(3) 0.1758(2)
C9 C 0.05609(8) 0.3037(5) 0.2034(2)
C10 C 0.12489(7) 0.2936(3) 0.2430(2)
C11 C 0.12850(7) -0.1125(3) 0.2935(2)
C12 C 0.09163(8) -0.1977(4) 0.2597(2)
C13 C 0.1500(1) -0.2014(4) 0.3730(2)
C14 C 0.15205(9) -0.1000(4) 0.2256(2)
C15 C 0.15897(7) 0.2636(3) 0.3928(2)
C16 C 0.12981(9) 0.3181(4) 0.4434(2)
C17 C 0.19010(7) 0.1555(3) 0.4405(2)
C18 C 0.18855(9) 0.0906(4) 0.5200(2)
C19 C 0.2168(1) -0.0098(4) 0.5653(2)
C20 C 0.2469(1) -0.0469(4) 0.5317(2)
C21 C 0.25073(7) 0.0177(3) 0.4503(2)
C22 C 0.22228(7) 0.1236(3) 0.4047(2)
C23 C 0.22704(7) 0.1934(3) 0.3250(2)
C24 C 0.25824(9) 0.1572(4) 0.2930(2)
C25 C 0.28560(9) 0.0475(4) 0.3383(3)
C26 C 0.28186(9) -0.0187(4) 0.4144(3)
H1 H 0.03900 0.47360 -0.01920
H2 H -0.01030 0.35610 -0.13760
H3 H -0.01050 0.07790 -0.16910
H4 H 0.03320 -0.11390 -0.08700
H5 H 0.08180 -0.00290 0.02960
H6 H 0.09380 0.43130 0.08650
H7 H 0.12030 0.27420 0.07470
H8 H 0.08800 0.11440 0.17330
H9 H 0.05390 0.25730 0.26180
H10 H 0.05760 0.42860 0.20980
H11 H 0.03260 0.27590 0.16060
H12 H 0.09520 -0.31310 0.24010
H13 H 0.07630 -0.20540 0.30740
H14 H 0.07580 -0.13470 0.21040
H15 H 0.15870 -0.31350 0.35610
H16 H 0.17330 -0.13630 0.39970
H17 H 0.13440 -0.21710 0.41680
H18 H 0.16040 -0.21360 0.20880
H19 H 0.17620 -0.03480 0.24820
H20 H 0.13850 -0.04440 0.17160
H21 H 0.17290 0.36930 0.38080
H22 H 0.14180 0.37210 0.49990
H23 H 0.11560 0.21720 0.45780
H24 H 0.11110 0.39650 0.40950
H25 H 0.16540 0.11710 0.54610
H26 H 0.21440 -0.05610 0.62460
H27 H 0.26720 -0.12350 0.56560
H28 H 0.20690 0.27230 0.29170
H29 H 0.26150 0.20710 0.23620
H30 H 0.30900 0.02300 0.31360
H31 H 0.30180 -0.09730 0.44620
#END
