
#######################################################################
#
#                 Cambridge Crystallographic Data Centre
#                                CCDC
#
#######################################################################
#
# If this CIF has been generated from an entry in the Cambridge
# Structural Database, then it will include bibliographic, chemical,
# crystal, experimental, refinement or atomic coordinate data resulting
# from the CCDC's data processing and validation procedures.
#
#######################################################################

data_CSD_CIF_VUYLEG
_audit_creation_date 1989-10-10
_audit_creation_method CSD-ConQuest-V1
_database_code_CSD VUYLEG
_chemical_formula_sum 'C13 H19 N3 O2'
_chemical_formula_moiety
;
C13 H19 N3 O2
;
_journal_coeditor_code "IUCr MN0727"
_journal_coden_Cambridge 591
_journal_volume 45
_journal_year 1989
_journal_page_first 433
_journal_name_full 'Acta Crystallogr.,Sect.C:Cryst.Struct.Commun. '
loop_
_publ_author_name
"E.Ciszak"
"M.Gdaniec"
"M.Jaskolski"
"Z.Kosturkiewicz"
"J.Owsianski"
"E.Tykarska"
_chemical_name_systematic
;
N,N-Dimethyl-N'-p-nitrophenyl-2,2-dimethylpropanamidine
;
_cell_volume   1358.966
_exptl_crystal_density_diffrn 1.22
_diffrn_ambient_temperature ?
_diffrn_special_details
;
The study was carried out at room temperature,in the range 283-303K

;
#These two values have been output from a single CSD field.
_refine_ls_R_factor_gt 0.041
_refine_ls_wR_factor_gt 0.041
_symmetry_cell_setting monoclinic
_symmetry_space_group_name_H-M 'P 21/c'
_symmetry_Int_Tables_number 14
loop_
_symmetry_equiv_pos_site_id
_symmetry_equiv_pos_as_xyz
1 x,y,z
2 -x,1/2+y,1/2-z
3 -x,-y,-z
4 x,-1/2-y,-1/2+z
_cell_length_a 10.084(4)
_cell_length_b 7.551(3)
_cell_length_c 19.234(5)
_cell_angle_alpha 90
_cell_angle_beta 111.89(3)
_cell_angle_gamma 90
_cell_formula_units_Z 4
loop_
_atom_type_symbol
_atom_type_radius_bond
C 0.68
H 0.23
N 0.68
O 0.68
loop_
_atom_site_label
_atom_site_type_symbol
_atom_site_fract_x
_atom_site_fract_y
_atom_site_fract_z
N1 N -0.2180(2) 0.5275(3) 0.7024(1)
N2 N -0.1602(2) 0.6664(2) 0.6073(1)
N3 N 0.2340(3) 0.1677(3) 0.5842(1)
O1 O 0.3557(2) 0.2191(3) 0.5957(1)
O2 O 0.1981(2) 0.0124(3) 0.5712(1)
C1 C -0.2422(2) 0.6476(3) 0.6449(1)
C2 C -0.0646(2) 0.5386(3) 0.6024(1)
C3 C 0.0711(3) 0.5916(3) 0.6078(1)
C4 C 0.1681(3) 0.4714(4) 0.6016(1)
C5 C 0.1292(2) 0.2956(3) 0.5879(1)
C6 C -0.0069(3) 0.2400(4) 0.5775(1)
C7 C -0.1035(3) 0.3605(3) 0.5846(1)
C8 C -0.3301(5) 0.4318(5) 0.7174(3)
C9 C -0.0758(3) 0.4634(4) 0.7458(2)
C10 C -0.3670(2) 0.7791(3) 0.6269(1)
C11 C -0.4988(3) 0.7037(5) 0.5642(2)
C12 C -0.3995(5) 0.8306(6) 0.6960(2)
C13 C -0.3254(4) 0.9500(4) 0.5966(2)
H1 H 0.100(2) 0.719(3) 0.617(1)
H2 H 0.263(3) 0.509(3) 0.606(1)
H3 H -0.037(2) 0.118(3) 0.565(1)
H4 H -0.199(3) 0.323(3) 0.577(1)
H5 H -0.425(4) 0.461(5) 0.685(2)
H6 H -0.327(4) 0.462(5) 0.768(2)
H7 H -0.315(4) 0.301(5) 0.714(2)
H8 H 0.001(4) 0.548(5) 0.739(2)
H9 H -0.062(3) 0.341(4) 0.731(1)
H10 H -0.065(3) 0.461(3) 0.798(2)
H11 H -0.530(3) 0.590(4) 0.579(2)
H12 H -0.474(3) 0.690(4) 0.512(2)
H13 H -0.581(3) 0.783(4) 0.555(2)
H14 H -0.441(4) 0.727(5) 0.712(2)
H15 H -0.466(4) 0.934(4) 0.686(2)
H16 H -0.306(4) 0.862(5) 0.738(2)
H17 H -0.307(3) 0.928(4) 0.547(2)
H18 H -0.242(4) 1.003(4) 0.640(2)
H19 H -0.408(3) 1.033(3) 0.585(1)
#END
