
#######################################################################
#
#                 Cambridge Crystallographic Data Centre
#                                CCDC
#
#######################################################################
#
# If this CIF has been generated from an entry in the Cambridge
# Structural Database, then it will include bibliographic, chemical,
# crystal, experimental, refinement or atomic coordinate data resulting
# from the CCDC's data processing and validation procedures.
#
#######################################################################

data_CSD_CIF_VUYWUI
_audit_creation_date 2010-07-30
_audit_creation_method CSD-ConQuest-V1
_database_code_CSD VUYWUI
_database_code_depnum_ccdc_archive 'CCDC 781261'
_chemical_formula_sum 'C12 H10 N2 O3'
_chemical_formula_moiety
;
C12 H10 N2 O3
;
_journal_coeditor_code "IUCr FJ2288"
_journal_coden_Cambridge 1370
_journal_volume 66
_journal_year 2010
_journal_page_first o1255
_journal_name_full 'Acta Crystallogr.,Sect.E:Struct.Rep.Online '
loop_
_publ_author_name
"H.R.Manjunath"
"M.T.Shreenivasa"
"M.Mahendra"
"T.M.Mohan Kumar"
"B.E.Kumara Swamy"
"M.A.Sridhar"
_chemical_name_systematic
;
4-Nitro-2-phenoxyaniline
;
_cell_volume   1103.495
_exptl_crystal_colour 'colorless'
_exptl_crystal_density_diffrn 1.386
_exptl_crystal_description 'block'
_diffrn_ambient_temperature 293
#These two values have been output from a single CSD field.
_refine_ls_R_factor_gt 0.0532
_refine_ls_wR_factor_gt 0.0532
_symmetry_cell_setting monoclinic
_symmetry_space_group_name_H-M 'P 21/c'
_symmetry_Int_Tables_number 14
loop_
_symmetry_equiv_pos_site_id
_symmetry_equiv_pos_as_xyz
1 x,y,z
2 -x,1/2+y,1/2-z
3 -x,-y,-z
4 x,-1/2-y,-1/2+z
_cell_length_a 10.4100(12)
_cell_length_b 15.6570(18)
_cell_length_c 6.9600(17)
_cell_angle_alpha 90
_cell_angle_beta 103.406(4)
_cell_angle_gamma 90
_cell_formula_units_Z 4
loop_
_atom_type_symbol
_atom_type_radius_bond
C 0.68
H 0.23
N 0.68
O 0.68
loop_
_atom_site_label
_atom_site_type_symbol
_atom_site_fract_x
_atom_site_fract_y
_atom_site_fract_z
C1 C 0.4153(2) 0.11783(12) 0.1849(3)
C2 C 0.4872(2) 0.04830(14) 0.2715(3)
H1 H 0.56410 0.05610 0.36920
C3 C 0.4446(2) -0.03248(13) 0.2129(3)
H2 H 0.49200 -0.07940 0.27370
C4 C 0.3320(2) -0.04544(12) 0.0647(3)
C5 C 0.2615(2) 0.02705(13) -0.0233(3)
C6 C 0.3010(2) 0.10777(13) 0.0368(3)
H3 H 0.25270 0.15500 -0.02000
N1 N 0.46086(19) 0.20258(12) 0.2446(3)
O1 O 0.39280(19) 0.26405(10) 0.1748(3)
O2 O 0.56703(18) 0.21113(11) 0.3643(3)
N2 N 0.28775(19) -0.12433(11) 0.0016(3)
H4 H 0.33000 -0.16890 0.05420
H5 H 0.21740 -0.12980 -0.09090
O3 O 0.15146(19) 0.00647(10) -0.1675(3)
C7 C 0.0845(2) 0.06917(13) -0.2929(3)
C8 C -0.0425(2) 0.08508(17) -0.2880(4)
H6 H -0.08040 0.05680 -0.19740
C9 C -0.1149(3) 0.1424(2) -0.4153(5)
H7 H -0.20220 0.15280 -0.41100
C10 C -0.0624(4) 0.18388(18) -0.5465(5)
H8 H -0.11270 0.22340 -0.63180
C11 C 0.0659(4) 0.16812(19) -0.5551(4)
H9 H 0.10240 0.19670 -0.64690
C12 C 0.1418(3) 0.10918(18) -0.4262(5)
H10 H 0.22870 0.09760 -0.43090
#END
