
#######################################################################
#
#                 Cambridge Crystallographic Data Centre
#                                CCDC
#
#######################################################################
#
# If this CIF has been generated from an entry in the Cambridge
# Structural Database, then it will include bibliographic, chemical,
# crystal, experimental, refinement or atomic coordinate data resulting
# from the CCDC's data processing and validation procedures.
#
#######################################################################

data_CSD_CIF_VUZHII
_audit_creation_date 2010-11-24
_audit_creation_method CSD-ConQuest-V1
_database_code_CSD VUZHII
_database_code_depnum_ccdc_archive 'CCDC 799523'
_chemical_formula_sum 'C15 H13 N3 O3'
_chemical_formula_moiety
;
C15 H13 N3 O3
;
_journal_coeditor_code "IUCr RZ2493"
_journal_coden_Cambridge 1370
_journal_volume 66
_journal_year 2010
_journal_page_first o2715
_journal_name_full 'Acta Crystallogr.,Sect.E:Struct.Rep.Online '
loop_
_publ_author_name
"Chun-Bao Tang"
_chemical_name_systematic
;
2-Methyl-N'-(4-nitrobenzylidene)benzohydrazide
;
_cell_volume   1392.810
_exptl_crystal_colour 'yellow'
_exptl_crystal_density_diffrn 1.351
_exptl_crystal_description 'block'
_diffrn_ambient_temperature 298
#These two values have been output from a single CSD field.
_refine_ls_R_factor_gt 0.0591
_refine_ls_wR_factor_gt 0.0591
_symmetry_cell_setting monoclinic
_symmetry_space_group_name_H-M 'P 21/n'
_symmetry_Int_Tables_number 14
loop_
_symmetry_equiv_pos_site_id
_symmetry_equiv_pos_as_xyz
1 x,y,z
2 1/2-x,1/2+y,1/2-z
3 -x,-y,-z
4 -1/2+x,-1/2-y,-1/2+z
_cell_length_a 7.416(1)
_cell_length_b 26.198(3)
_cell_length_c 7.860(2)
_cell_angle_alpha 90
_cell_angle_beta 114.206(1)
_cell_angle_gamma 90
_cell_formula_units_Z 4
loop_
_atom_type_symbol
_atom_type_radius_bond
C 0.68
H 0.23
N 0.68
O 0.68
loop_
_atom_site_label
_atom_site_type_symbol
_atom_site_fract_x
_atom_site_fract_y
_atom_site_fract_z
N1 N 0.2497(4) 0.47404(10) -0.4463(3)
N2 N 0.2408(3) 0.28740(7) 0.0842(2)
N3 N 0.2780(3) 0.25697(8) 0.2388(3)
O1 O 0.2312(4) 0.45771(9) -0.5969(3)
O2 O 0.2575(5) 0.51917(9) -0.4093(3)
O3 O 0.0631(2) 0.19571(6) 0.0688(2)
C1 C 0.2623(3) 0.43743(9) -0.3004(3)
C2 C 0.2438(3) 0.38615(9) -0.3415(3)
H1 H 0.22370 0.37470 -0.45990
C3 C 0.2557(3) 0.35214(9) -0.2037(3)
H2 H 0.24200 0.31740 -0.23010
C4 C 0.2877(3) 0.36894(8) -0.0257(3)
C5 C 0.3081(4) 0.42089(9) 0.0113(3)
H3 H 0.33160 0.43260 0.13020
C6 C 0.2938(4) 0.45538(9) -0.1266(3)
H4 H 0.30550 0.49020 -0.10190
C7 C 0.3044(3) 0.33305(9) 0.1220(3)
H5 H 0.36250 0.34360 0.24580
C8 C 0.1838(3) 0.21176(9) 0.2194(3)
C9 C 0.2356(3) 0.18386(9) 0.3991(3)
C10 C 0.2726(3) 0.13129(9) 0.4118(3)
C11 C 0.3170(4) 0.10849(11) 0.5841(4)
H6 H 0.34660 0.07380 0.59810
C12 C 0.3184(4) 0.13555(13) 0.7343(4)
H7 H 0.34600 0.11880 0.84660
C13 C 0.2796(4) 0.18702(12) 0.7209(3)
H8 H 0.28010 0.20520 0.82260
C14 C 0.2399(4) 0.21091(10) 0.5539(3)
H9 H 0.21550 0.24580 0.54370
C15 C 0.2671(4) 0.09958(10) 0.2502(4)
H10 H 0.13330 0.09700 0.15850
H11 H 0.31720 0.06600 0.29350
H12 H 0.34740 0.11540 0.19540
H13 H 0.373(3) 0.2669(10) 0.349(2)
#END
