
#######################################################################
#
#                 Cambridge Crystallographic Data Centre
#                                CCDC
#
#######################################################################
#
# If this CIF has been generated from an entry in the Cambridge
# Structural Database, then it will include bibliographic, chemical,
# crystal, experimental, refinement or atomic coordinate data resulting
# from the CCDC's data processing and validation procedures.
#
#######################################################################

data_CSD_CIF_VUZQUD
_audit_creation_date 2010-12-02
_audit_creation_method CSD-ConQuest-V1
_database_code_CSD VUZQUD
_database_code_depnum_ccdc_archive 'CCDC 799560'
_chemical_formula_sum 'C6 H6 N2 O2'
_chemical_formula_moiety
;
C6 H6 N2 O2
;
_journal_coeditor_code "IUCr CV2766"
_journal_coden_Cambridge 1370
_journal_volume 66
_journal_year 2010
_journal_page_first o2764
_journal_name_full 'Acta Crystallogr.,Sect.E:Struct.Rep.Online '
loop_
_publ_author_name
"G.Gervasio"
"D.Marabello"
"F.Bertolotti"
_chemical_name_systematic
;
N,N'-Dihydroxycyclohexa-3,5-diene-1,2-diimine
;
_chemical_name_common
;
o-Benzoquinone dioxime
;
_cell_volume    612.829
_exptl_crystal_colour 'orange'
_exptl_crystal_density_diffrn 1.497
_exptl_crystal_description 'prism'
_diffrn_ambient_temperature 293
#These two values have been output from a single CSD field.
_refine_ls_R_factor_gt 0.0336
_refine_ls_wR_factor_gt 0.0336
_chemical_compound_source
;
product of an in vitro study of the metabolism of benzofuroxan
;
_symmetry_cell_setting orthorhombic
_symmetry_space_group_name_H-M 'P c a 21'
_symmetry_Int_Tables_number 29
loop_
_symmetry_equiv_pos_site_id
_symmetry_equiv_pos_as_xyz
1 x,y,z
2 -x,-y,1/2+z
3 1/2+x,-y,z
4 1/2-x,y,1/2+z
_cell_length_a 15.009(5)
_cell_length_b 3.8181(13)
_cell_length_c 10.694(3)
_cell_angle_alpha 90
_cell_angle_beta 90
_cell_angle_gamma 90
_cell_formula_units_Z 4
loop_
_atom_type_symbol
_atom_type_radius_bond
C 0.68
H 0.23
N 0.68
O 0.68
loop_
_atom_site_label
_atom_site_type_symbol
_atom_site_fract_x
_atom_site_fract_y
_atom_site_fract_z
C1 C 0.6109(3) 0.3317(8) 0.4796(3)
C2 C 0.5481(2) 0.2457(9) 0.5795(3)
C3 C 0.5843(3) 0.0751(9) 0.6896(3)
H1 H 0.54610 0.01190 0.75430
C4 C 0.6706(3) 0.0072(9) 0.6998(3)
H2 H 0.69190 -0.10430 0.77110
C5 C 0.7312(3) 0.1027(10) 0.6031(3)
H3 H 0.79160 0.05520 0.61280
C6 C 0.7028(3) 0.2599(9) 0.4981(3)
H4 H 0.74370 0.32250 0.43680
N1 N 0.5761(2) 0.4735(7) 0.3794(3)
N2 N 0.4629(2) 0.3068(8) 0.5828(3)
O1 O 0.6388(2) 0.5573(8) 0.2905(2)
H5 H 0.603(4) 0.638(17) 0.236(6)
O2 O 0.4235(2) 0.4598(7) 0.4801(2)
H6 H 0.477(5) 0.541(17) 0.422(6)
#END
