
#######################################################################
#
#                 Cambridge Crystallographic Data Centre
#                                CCDC
#
#######################################################################
#
# If this CIF has been generated from an entry in the Cambridge
# Structural Database, then it will include bibliographic, chemical,
# crystal, experimental, refinement or atomic coordinate data resulting
# from the CCDC's data processing and validation procedures.
#
#######################################################################

data_CSD_CIF_VUZTUG
_audit_creation_date 2010-12-02
_audit_creation_method CSD-ConQuest-V1
_database_code_CSD VUZTUG
_database_code_depnum_ccdc_archive 'CCDC 799575'
_chemical_formula_sum 'C26 H23 N5 O7'
_chemical_formula_moiety
;
C26 H23 N5 O7
;
_journal_coeditor_code "IUCr HB5658"
_journal_coden_Cambridge 1370
_journal_volume 66
_journal_year 2010
_journal_page_first o2783
_journal_name_full 'Acta Crystallogr.,Sect.E:Struct.Rep.Online '
loop_
_publ_author_name
"Lei Liao"
_chemical_name_systematic
;
4-((E)-(3-Methoxy-5-nitro-4-((4-nitrobenzyl)oxy)benzylidene)amino)-1,5-dimethy
l-2-phenyl-1,2-dihydro-3H-pyrazol-3-one
;
_cell_volume   4939.717
_exptl_crystal_colour 'yellow'
_exptl_crystal_density_diffrn 1.392
_exptl_crystal_description 'block'
_exptl_crystal_preparation 'acetonitrile'
_diffrn_ambient_temperature 294
#These two values have been output from a single CSD field.
_refine_ls_R_factor_gt 0.048
_refine_ls_wR_factor_gt 0.048
_symmetry_cell_setting monoclinic
_symmetry_space_group_name_H-M 'C 2/c'
_symmetry_Int_Tables_number 15
loop_
_symmetry_equiv_pos_site_id
_symmetry_equiv_pos_as_xyz
1 x,y,z
2 -x,y,1/2-z
3 1/2+x,1/2+y,z
4 1/2-x,1/2+y,1/2-z
5 -x,-y,-z
6 x,-y,-1/2+z
7 -1/2-x,-1/2-y,-z
8 -1/2+x,-1/2-y,-1/2+z
_cell_length_a 25.671(11)
_cell_length_b 11.933(5)
_cell_length_c 16.617(7)
_cell_angle_alpha 90
_cell_angle_beta 103.972(7)
_cell_angle_gamma 90
_cell_formula_units_Z 8
loop_
_atom_type_symbol
_atom_type_radius_bond
C 0.68
H 0.23
N 0.68
O 0.68
loop_
_atom_site_label
_atom_site_type_symbol
_atom_site_fract_x
_atom_site_fract_y
_atom_site_fract_z
N1 N 0.17786(9) -0.1619(2) -0.12948(15)
N2 N 0.4546(1) 0.1575(2) 0.1025(2)
N3 N 0.65269(7) 0.10798(16) 0.27094(12)
N4 N 0.79727(7) 0.09102(16) 0.33957(12)
N5 N 0.78530(8) 0.18315(16) 0.38510(13)
O1 O 0.14745(8) -0.0959(2) -0.10853(15)
O2 O 0.16274(8) -0.23197(19) -0.18340(15)
O3 O 0.41585(6) -0.06411(14) 0.08900(11)
O4 O 0.48334(7) -0.23900(15) 0.14053(13)
O5 O 0.4572(1) 0.2406(2) 0.1478(2)
O6 O 0.42595(15) 0.1535(3) 0.0360(2)
O7 O 0.74844(6) -0.04709(15) 0.25573(11)
C1 C 0.30688(10) -0.06890(19) 0.00891(16)
H1 H 0.31900 -0.01990 0.05300
C2 C 0.25251(10) -0.0791(2) -0.02563(16)
H2 H 0.22790 -0.03690 -0.00560
C3 C 0.23550(9) -0.15309(19) -0.09037(15)
C4 C 0.27074(10) -0.2174(2) -0.12056(16)
H3 H 0.25840 -0.26790 -0.16360
C5 C 0.32471(10) -0.2054(2) -0.08570(16)
H4 H 0.34910 -0.24830 -0.10580
C6 C 0.34367(9) -0.1309(2) -0.02133(15)
C7 C 0.40340(11) -0.1185(3) 0.01048(19)
H5 H 0.42010 -0.19190 0.01560
H6 H 0.41760 -0.07520 -0.02870
C8 C 0.46952(9) -0.0463(2) 0.12145(15)
C9 C 0.50518(9) -0.1341(2) 0.14976(16)
C10 C 0.55822(9) -0.1122(2) 0.18748(16)
H7 H 0.58180 -0.17160 0.20420
C11 C 0.57716(9) -0.0028(2) 0.20097(15)
C12 C 0.54226(9) 0.0855(2) 0.17466(15)
H8 H 0.55390 0.15930 0.18390
C13 C 0.48995(9) 0.0621(2) 0.13456(16)
C14 C 0.51973(13) -0.3321(2) 0.1583(2)
H9 H 0.54250 -0.33210 0.12020
H10 H 0.49970 -0.40070 0.15280
H11 H 0.54140 -0.32560 0.21400
C15 C 0.63347(9) 0.0136(2) 0.24335(16)
H12 H 0.65630 -0.04800 0.25050
C16 C 0.70778(9) 0.11570(18) 0.30688(14)
C17 C 0.74983(9) 0.0415(2) 0.29486(15)
C18 C 0.73083(9) 0.20013(19) 0.35782(15)
C19 C 0.70450(11) 0.3001(2) 0.38397(17)
H13 H 0.71460 0.36580 0.35800
H14 H 0.71570 0.30800 0.44310
H15 H 0.66620 0.29100 0.36770
C20 C 0.82277(11) 0.2781(2) 0.39304(18)
H16 H 0.82050 0.31020 0.33940
H17 H 0.85870 0.25220 0.41600
H18 H 0.81350 0.33370 0.42900
C21 C 0.84699(9) 0.03300(19) 0.36710(16)
C22 C 0.87379(10) 0.0311(2) 0.45004(18)
H19 H 0.86010 0.06950 0.48910
C23 C 0.92118(12) -0.0284(3) 0.4743(2)
H20 H 0.93940 -0.02960 0.52990
C24 C 0.94167(12) -0.0855(3) 0.4174(3)
H21 H 0.97340 -0.12580 0.43460
C25 C 0.91524(11) -0.0832(2) 0.3348(2)
H22 H 0.92920 -0.12190 0.29620
C26 C 0.86791(10) -0.0234(2) 0.30924(19)
H23 H 0.85020 -0.02120 0.25340
#END
