
#######################################################################
#
#                 Cambridge Crystallographic Data Centre
#                                CCDC
#
#######################################################################
#
# If this CIF has been generated from an entry in the Cambridge
# Structural Database, then it will include bibliographic, chemical,
# crystal, experimental, refinement or atomic coordinate data resulting
# from the CCDC's data processing and validation procedures.
#
#######################################################################

data_CSD_CIF_WACGOW
_audit_creation_date 1993-06-17
_audit_creation_method CSD-ConQuest-V1
_database_code_CSD WACGOW
_chemical_formula_sum 'C13 H6 N6 O12'
_chemical_formula_moiety
;
C13 H6 N6 O12
;
_journal_coeditor_code "IUCr PA1007"
_journal_coden_Cambridge 591
_journal_volume 49
_journal_year 1993
_journal_page_first 609
_journal_name_full 'Acta Crystallogr.,Sect.C:Cryst.Struct.Commun. '
loop_
_publ_author_name
"A.Cousson"
"J.Lelievre"
"A.P.Chatrousse"
"F.Terrier"
"P.G.Farrell"
_chemical_name_systematic
;
2,2',4,4',6,6'-Hexanitrodiphenylmethane
;
_chemical_name_common
;
Hexanitrodiphenylmethane
;
_cell_volume   1670.346
_exptl_crystal_colour 'orange'
_exptl_crystal_density_diffrn 1.742
_diffrn_ambient_temperature ?
_diffrn_special_details
;
The study was carried out at room temperature,in the range 283-303K

;
#These two values have been output from a single CSD field.
_refine_ls_R_factor_gt 0.059
_refine_ls_wR_factor_gt 0.059
_symmetry_cell_setting monoclinic
_symmetry_space_group_name_H-M 'P 21/n'
_symmetry_Int_Tables_number 14
loop_
_symmetry_equiv_pos_site_id
_symmetry_equiv_pos_as_xyz
1 x,y,z
2 1/2-x,1/2+y,1/2-z
3 -x,-y,-z
4 -1/2+x,-1/2-y,-1/2+z
_cell_length_a 10.671(3)
_cell_length_b 12.840(2)
_cell_length_c 12.303(4)
_cell_angle_alpha 90
_cell_angle_beta 97.74(3)
_cell_angle_gamma 90
_cell_formula_units_Z 4
loop_
_atom_type_symbol
_atom_type_radius_bond
C 0.68
H 0.23
N 0.68
O 0.68
loop_
_atom_site_label
_atom_site_type_symbol
_atom_site_fract_x
_atom_site_fract_y
_atom_site_fract_z
C1 C 0.7251(5) 0.1309(4) 0.5632(4)
C2 C 0.7514(5) 0.1851(4) 0.6614(4)
C3 C 0.8413(5) 0.1571(5) 0.7465(4)
C4 C 0.9131(5) 0.0704(4) 0.7329(5)
C5 C 0.8925(5) 0.0109(4) 0.6397(5)
C6 C 0.7969(5) 0.0417(4) 0.5578(4)
C7 C 0.6510(5) 0.1693(4) 0.3564(4)
C8 C 0.7519(5) 0.2249(4) 0.3233(4)
C9 C 0.7780(5) 0.2315(4) 0.2169(5)
C10 C 0.7027(5) 0.1758(4) 0.1394(4)
C11 C 0.6012(5) 0.1185(4) 0.1626(4)
C12 C 0.5775(5) 0.1184(4) 0.2692(4)
C13 C 0.6221(5) 0.1681(5) 0.4747(4)
N1 N 0.6789(5) 0.2795(4) 0.6805(4)
N2 N 1.0140(5) 0.0406(4) 0.8219(5)
N3 N 0.7726(5) -0.0308(4) 0.4638(4)
N4 N 0.8378(5) 0.2834(4) 0.4044(4)
N5 N 0.7331(6) 0.1763(4) 0.0245(4)
N6 N 0.4645(5) 0.0590(4) 0.2900(4)
O1 O 0.7095(6) 0.3597(5) 0.6440(6)
O2 O 0.5962(7) 0.2744(5) 0.7269(8)
O3 O 1.0231(5) 0.0914(4) 0.9055(4)
O4 O 1.0818(5) -0.0307(4) 0.8041(5)
O5 O 0.8627(5) -0.0785(4) 0.4381(4)
O6 O 0.6632(4) -0.0419(3) 0.4215(3)
O7 O 0.9231(6) 0.2386(5) 0.4553(5)
O8 O 0.8257(7) 0.3721(6) 0.4130(8)
O9 O 0.8153(6) 0.2349(4) 0.0047(4)
O10 O 0.6763(5) 0.1166(5) -0.0391(4)
O11 O 0.4480(5) -0.0251(4) 0.2460(4)
O12 O 0.3906(4) 0.1001(4) 0.3454(4)
H1 H 0.85340 0.19710 0.81630
H2 H 0.94440 -0.05240 0.63090
H3 H 0.84830 0.27490 0.19710
H4 H 0.54730 0.07900 0.10390
H5 H 0.60010 0.24050 0.49360
H6 H 0.54770 0.12130 0.47680
#END
