
#######################################################################
#
#                 Cambridge Crystallographic Data Centre
#                                CCDC
#
#######################################################################
#
# If this CIF has been generated from an entry in the Cambridge
# Structural Database, then it will include bibliographic, chemical,
# crystal, experimental, refinement or atomic coordinate data resulting
# from the CCDC's data processing and validation procedures.
#
#######################################################################

data_CSD_CIF_WACTAX
_audit_creation_date 2011-01-20
_audit_creation_method CSD-ConQuest-V1
_database_code_CSD WACTAX
_database_code_depnum_ccdc_archive 'CCDC 803132'
_chemical_formula_sum 'C23 H24 N2 O3'
_chemical_formula_moiety
;
C23 H24 N2 O3
;
_journal_coeditor_code "IUCr BX2327"
_journal_coden_Cambridge 1370
_journal_volume 66
_journal_year 2010
_journal_page_first o3118
_journal_name_full 'Acta Crystallogr.,Sect.E:Struct.Rep.Online '
loop_
_publ_author_name
"Jin Mei Chen"
"Hong Zhao"
_chemical_name_systematic
;
1-((3-Methylpiperidin-1-yl)(3-nitrophenyl)methyl)naphthalen-2-ol
;
_cell_volume   3980.229
_exptl_crystal_colour 'colorless'
_exptl_crystal_density_diffrn 1.256
_exptl_crystal_description 'prism'
_exptl_crystal_preparation 'dichloromethane'
_diffrn_ambient_temperature 295
#These two values have been output from a single CSD field.
_refine_ls_R_factor_gt 0.0832
_refine_ls_wR_factor_gt 0.0832
_symmetry_cell_setting orthorhombic
_symmetry_space_group_name_H-M 'P b c a'
_symmetry_Int_Tables_number 61
loop_
_symmetry_equiv_pos_site_id
_symmetry_equiv_pos_as_xyz
1 x,y,z
2 1/2-x,-y,1/2+z
3 -x,1/2+y,1/2-z
4 1/2+x,1/2-y,-z
5 -x,-y,-z
6 -1/2+x,y,-1/2-z
7 x,-1/2-y,-1/2+z
8 -1/2-x,-1/2+y,z
_cell_length_a 11.980(2)
_cell_length_b 10.965(2)
_cell_length_c 30.30(3)
_cell_angle_alpha 90
_cell_angle_beta 90
_cell_angle_gamma 90
_cell_formula_units_Z 8
loop_
_atom_type_symbol
_atom_type_radius_bond
C 0.68
H 0.23
N 0.68
O 0.68
loop_
_atom_site_label
_atom_site_type_symbol
_atom_site_fract_x
_atom_site_fract_y
_atom_site_fract_z
C1 C 0.7000(2) 0.9558(2) 0.6500(1)
C2 C 0.6194(2) 1.0425(3) 0.64171(11)
C3 C 0.5315(3) 1.0634(3) 0.67144(13)
H1 H 0.47690 1.12060 0.66460
C4 C 0.5255(3) 1.0015(4) 0.70975(13)
H2 H 0.46610 1.01610 0.72880
C5 C 0.6075(3) 0.9147(3) 0.72156(11)
C6 C 0.6961(2) 0.8920(3) 0.69134(10)
C7 C 0.7785(3) 0.8061(3) 0.70421(10)
H3 H 0.83810 0.79050 0.68540
C8 C 0.7725(3) 0.7459(3) 0.74356(11)
H4 H 0.82790 0.69040 0.75130
C9 C 0.6840(3) 0.7671(4) 0.77209(12)
H5 H 0.67960 0.72460 0.79860
C10 C 0.6041(3) 0.8493(4) 0.76161(12)
H6 H 0.54570 0.86300 0.78120
C11 C 0.7905(2) 0.9244(2) 0.61686(9)
H7 H 0.80330 0.83630 0.61890
C12 C 0.6680(3) 0.8576(3) 0.55808(11)
H8 H 0.61060 0.85290 0.58060
H9 H 0.70440 0.77870 0.55640
C13 C 0.6143(3) 0.8861(3) 0.51400(13)
H10 H 0.57760 0.96570 0.51660
C14 C 0.7021(4) 0.8968(4) 0.47882(13)
H11 H 0.66800 0.92420 0.45150
H12 H 0.73530 0.81750 0.47360
C15 C 0.7918(3) 0.9860(4) 0.49260(11)
H13 H 0.85130 0.98510 0.47090
H14 H 0.76050 1.06760 0.49330
C16 C 0.8395(3) 0.9559(3) 0.53738(10)
H15 H 0.87760 0.87800 0.53610
H16 H 0.89360 1.01760 0.54570
C17 C 0.5250(4) 0.7925(3) 0.50331(16)
H17 H 0.48760 0.81530 0.47650
H18 H 0.47190 0.78920 0.52700
H19 H 0.55900 0.71390 0.49960
C18 C 0.9014(2) 0.9868(3) 0.62676(9)
C19 C 1.0000(2) 0.9224(3) 0.62142(9)
H20 H 0.99880 0.84100 0.61280
C20 C 1.0999(3) 0.9808(3) 0.6290(1)
C21 C 1.1060(3) 1.1004(4) 0.64166(12)
H21 H 1.17460 1.13790 0.64630
C22 C 1.0079(3) 1.1635(3) 0.64731(13)
H22 H 1.00990 1.24480 0.65600
C23 C 0.9067(3) 1.1075(3) 0.64020(11)
H23 H 0.84100 1.15120 0.64450
N1 N 0.7505(2) 0.9505(2) 0.57076(7)
N2 N 1.2039(3) 0.9098(4) 0.62304(11)
O1 O 0.61885(19) 1.11174(19) 0.60442(8)
H24 H 0.66310 1.08330 0.58650
O2 O 1.1967(2) 0.8052(3) 0.61087(11)
O3 O 1.2920(2) 0.9589(3) 0.63113(13)
#END
