
#######################################################################
#
#                 Cambridge Crystallographic Data Centre
#                                CCDC
#
#######################################################################
#
# If this CIF has been generated from an entry in the Cambridge
# Structural Database, then it will include bibliographic, chemical,
# crystal, experimental, refinement or atomic coordinate data resulting
# from the CCDC's data processing and validation procedures.
#
#######################################################################

data_CSD_CIF_WACVIG
_audit_creation_date 2003-07-25
_audit_creation_method CSD-ConQuest-V1
_database_code_CSD WACVIG
_database_code_depnum_ccdc_archive 'CCDC 199204'
_chemical_formula_sum 'C11 H16 N3 O2'
_chemical_formula_moiety
;
C11 H16 N3 O2
;
_journal_coden_Cambridge 1145
_journal_volume 13
_journal_year 2003
_journal_page_first 1011
_journal_name_full 'J.Mater.Chem. '
loop_
_publ_author_name
"J.Nakazaki"
"InGwon Chung"
"M.M.Matsushita"
"T.Sugawara"
"R.Watanabe"
"A.Izuoka"
"Y.Kawada"
_chemical_name_systematic
;
2-(Pyrrol-2'-yl)-4,4,5,5-tetramethylimidazoline 3-oxide 1-oxyl
;
_cell_volume   1141.440
_exptl_crystal_colour 'blue'
_exptl_crystal_density_diffrn 1.293
_exptl_crystal_description 'block'
_exptl_crystal_preparation 'diethyl ether'
_diffrn_ambient_temperature 288
#These two values have been output from a single CSD field.
_refine_ls_R_factor_gt 0.0479
_refine_ls_wR_factor_gt 0.0479
_symmetry_cell_setting monoclinic
_symmetry_space_group_name_H-M 'P 21/c'
_symmetry_Int_Tables_number 14
loop_
_symmetry_equiv_pos_site_id
_symmetry_equiv_pos_as_xyz
1 x,y,z
2 x,1/2-y,1/2+z
3 -x,-y,-z
4 -x,-1/2+y,-1/2-z
_cell_length_a 9.925(2)
_cell_length_b 9.317(2)
_cell_length_c 12.972(3)
_cell_angle_alpha 90
_cell_angle_beta 107.905(4)
_cell_angle_gamma 90
_cell_formula_units_Z 4
loop_
_atom_type_symbol
_atom_type_radius_bond
C 0.68
H 0.23
N 0.68
O 0.68
loop_
_atom_site_label
_atom_site_type_symbol
_atom_site_fract_x
_atom_site_fract_y
_atom_site_fract_z
O1 O 0.33129(16) 0.62156(14) 0.46359(8)
O2 O 0.16878(14) 0.62983(13) 0.09279(8)
N1 N 0.33331(12) 0.86219(12) 0.18503(9)
N2 N 0.26749(13) 0.58435(12) 0.36611(9)
N3 N 0.19073(12) 0.58772(12) 0.19015(9)
C1 C 0.33725(12) 0.79264(13) 0.2788(1)
C2 C 0.41528(15) 0.87614(16) 0.36380(13)
C3 C 0.45833(16) 0.99748(16) 0.31872(13)
C4 C 0.40703(16) 0.98587(16) 0.20968(14)
C5 C 0.26667(12) 0.65883(13) 0.27822(9)
C6 C 0.19182(15) 0.44411(14) 0.34061(12)
C7 C 0.12720(15) 0.45262(15) 0.21516(12)
C8 C 0.3028(2) 0.3282(2) 0.3802(2)
C9 C 0.0855(2) 0.4362(3) 0.40318(19)
C10 C -0.0323(2) 0.4725(4) 0.1749(2)
C11 C 0.1723(5) 0.3336(2) 0.1525(2)
H1 H 0.286(2) 0.830(2) 0.1138(16)
H2 H 0.4292(17) 0.855(2) 0.4370(15)
H3 H 0.5194(19) 1.0787(18) 0.3588(14)
H4 H 0.4143(17) 1.0429(17) 0.1543(14)
H5 H 0.2554(18) 0.232(2) 0.3661(16)
H6 H 0.376(3) 0.336(3) 0.342(2)
H7 H 0.348(2) 0.338(2) 0.4632(19)
H8 H 0.134(2) 0.443(2) 0.485(2)
H9 H 0.026(2) 0.527(2) 0.3890(17)
H10 H 0.027(3) 0.353(3) 0.3835(19)
H11 H -0.051(3) 0.554(3) 0.223(2)
H12 H -0.059(3) 0.493(3) 0.103(3)
H13 H -0.072(3) 0.384(3) 0.188(2)
H14 H 0.144(3) 0.254(3) 0.174(2)
H15 H 0.129(2) 0.347(3) 0.070(2)
H16 H 0.264(4) 0.321(5) 0.169(4)
#END
