
#######################################################################
#
#                 Cambridge Crystallographic Data Centre
#                                CCDC
#
#######################################################################
#
# If this CIF has been generated from an entry in the Cambridge
# Structural Database, then it will include bibliographic, chemical,
# crystal, experimental, refinement or atomic coordinate data resulting
# from the CCDC's data processing and validation procedures.
#
#######################################################################

data_CSD_CIF_WACVUS
_audit_creation_date 2003-07-25
_audit_creation_method CSD-ConQuest-V1
_database_code_CSD WACVUS
_database_code_depnum_ccdc_archive 'CCDC 199206'
_chemical_formula_sum 'C17 H20 N3 O2'
_chemical_formula_moiety
;
C17 H20 N3 O2
;
_journal_coden_Cambridge 1145
_journal_volume 13
_journal_year 2003
_journal_page_first 1011
_journal_name_full 'J.Mater.Chem. '
loop_
_publ_author_name
"J.Nakazaki"
"InGwon Chung"
"M.M.Matsushita"
"T.Sugawara"
"R.Watanabe"
"A.Izuoka"
"Y.Kawada"
_chemical_name_systematic
;
2-(4'-(Pyrrol-1''-yl)phenyl)-4,4,5,5-tetramethylimidazoline 3-oxide 1-oxyl
;
_cell_volume   1582.053
_exptl_crystal_colour 'blue'
_exptl_crystal_density_diffrn 1.253
_exptl_crystal_description 'prism'
_exptl_crystal_preparation 'tetrahydrofuran'
_diffrn_ambient_temperature 298.2
#These two values have been output from a single CSD field.
_refine_ls_R_factor_gt 0.0588
_refine_ls_wR_factor_gt 0.0588
_symmetry_cell_setting monoclinic
_symmetry_space_group_name_H-M 'P 21/a'
_symmetry_Int_Tables_number 14
loop_
_symmetry_equiv_pos_site_id
_symmetry_equiv_pos_as_xyz
1 x,y,z
2 1/2+x,1/2-y,z
3 -x,-y,-z
4 -1/2-x,-1/2+y,-z
_cell_length_a 12.284(4)
_cell_length_b 12.657(5)
_cell_length_c 10.953(4)
_cell_angle_alpha 90
_cell_angle_beta 111.72(2)
_cell_angle_gamma 90
_cell_formula_units_Z 4
loop_
_atom_type_symbol
_atom_type_radius_bond
C 0.68
H 0.23
N 0.68
O 0.68
loop_
_atom_site_label
_atom_site_type_symbol
_atom_site_fract_x
_atom_site_fract_y
_atom_site_fract_z
O1 O 0.70325(17) 0.25691(14) 1.2262(2)
O2 O 0.59677(17) -0.09286(13) 1.12749(18)
N1 N 0.90594(17) 0.07905(16) 0.79708(19)
N2 N 0.66230(17) 0.16382(16) 1.2272(2)
N3 N 0.61536(18) -0.00176(16) 1.18319(19)
C1 C 0.9599(3) 0.1642(2) 0.7649(3)
C2 C 1.0130(3) 0.1294(3) 0.6847(3)
C3 C 0.9928(3) 0.0201(3) 0.6661(3)
C4 C 0.9279(3) -0.0092(2) 0.7365(3)
C5 C 0.8444(2) 0.08021(19) 0.8838(2)
C6 C 0.7935(2) 0.1732(2) 0.9056(3)
C7 C 0.7354(2) 0.1733(2) 0.9915(3)
C8 C 0.7248(2) 0.08163(18) 1.0565(2)
C9 C 0.7744(2) -0.0110(2) 1.0316(2)
C10 C 0.8339(2) -0.0115(2) 0.9474(2)
C11 C 0.6680(2) 0.08210(18) 1.1514(2)
C12 C 0.5901(2) 0.1396(2) 1.3077(2)
C13 C 0.5918(2) 0.01759(19) 1.3065(2)
C14 C 0.4691(3) 0.1861(3) 1.2316(5)
C15 C 0.6447(4) 0.1905(4) 1.4416(4)
C16 C 0.6950(3) -0.0317(4) 1.4171(4)
C17 C 0.4780(3) -0.0351(3) 1.2973(3)
H1 H 0.955(2) 0.233(2) 0.797(2)
H2 H 1.057(2) 0.170(2) 0.649(2)
H3 H 1.010(2) -0.022(2) 0.612(2)
H4 H 0.897(2) -0.076(2) 0.747(3)
H5 H 0.800(2) 0.238(2) 0.857(3)
H6 H 0.700(2) 0.2382(19) 1.010(2)
H7 H 0.767(2) -0.075(2) 1.078(2)
H8 H 0.870(2) -0.0771(19) 0.936(2)
H9 H 0.413(3) 0.176(2) 1.276(3)
H10 H 0.436(4) 0.148(3) 1.145(4)
H11 H 0.476(3) 0.261(3) 1.219(3)
H12 H 0.602(3) 0.168(2) 1.499(3)
H13 H 0.644(3) 0.265(2) 1.430(3)
H14 H 0.738(3) 0.163(2) 1.493(3)
H15 H 0.682(3) -0.026(2) 1.498(3)
H16 H 0.702(3) -0.111(3) 1.392(3)
H17 H 0.769(4) 0.001(3) 1.424(3)
H18 H 0.461(3) -0.014(2) 1.379(3)
H19 H 0.486(3) -0.111(3) 1.298(3)
H20 H 0.412(3) -0.009(2) 1.212(3)
#END
