
#######################################################################
#
#                 Cambridge Crystallographic Data Centre
#                                CCDC
#
#######################################################################
#
# If this CIF has been generated from an entry in the Cambridge
# Structural Database, then it will include bibliographic, chemical,
# crystal, experimental, refinement or atomic coordinate data resulting
# from the CCDC's data processing and validation procedures.
#
#######################################################################

data_CSD_CIF_WADBEK
_audit_creation_date 2011-01-12
_audit_creation_method CSD-ConQuest-V1
_database_code_CSD WADBEK
_database_code_depnum_ccdc_archive 'CCDC 803163'
_chemical_formula_sum 'C13 H8 N4 O7'
_chemical_formula_moiety
;
C13 H8 N4 O7
;
_journal_coeditor_code "IUCr LH5155"
_journal_coden_Cambridge 1370
_journal_volume 66
_journal_year 2010
_journal_page_first o3158
_journal_name_full 'Acta Crystallogr.,Sect.E:Struct.Rep.Online '
loop_
_publ_author_name
"Yuehong Ren"
"Yu Zuo"
"Yonggang Xiang"
"Ruitao Zhu"
_chemical_name_systematic
;
anti-3,5-Dinitro-N-(4-nitrophenyl)benzamide
;
_cell_volume   1333.629
_exptl_crystal_colour 'colorless'
_exptl_crystal_density_diffrn 1.655
_exptl_crystal_description 'plate'
_diffrn_ambient_temperature 298
#These two values have been output from a single CSD field.
_refine_ls_R_factor_gt 0.046
_refine_ls_wR_factor_gt 0.046
_symmetry_cell_setting monoclinic
_symmetry_space_group_name_H-M 'P 21/c'
_symmetry_Int_Tables_number 14
loop_
_symmetry_equiv_pos_site_id
_symmetry_equiv_pos_as_xyz
1 x,y,z
2 -x,1/2+y,1/2-z
3 -x,-y,-z
4 x,-1/2-y,-1/2+z
_cell_length_a 7.8999(9)
_cell_length_b 8.019(1)
_cell_length_c 21.111(2)
_cell_angle_alpha 90
_cell_angle_beta 94.285(1)
_cell_angle_gamma 90
_cell_formula_units_Z 4
loop_
_atom_type_symbol
_atom_type_radius_bond
C 0.68
H 0.23
N 0.68
O 0.68
loop_
_atom_site_label
_atom_site_type_symbol
_atom_site_fract_x
_atom_site_fract_y
_atom_site_fract_z
N1 N 1.4744(2) 0.3431(3) 0.43550(9)
H1 H 1.52920 0.38500 0.40560
N2 N 0.8118(3) 0.6627(3) 0.33003(12)
N3 N 1.3396(3) 0.6676(4) 0.22261(10)
N4 N 1.8925(3) 0.0058(3) 0.61994(11)
O1 O 1.2103(2) 0.3154(3) 0.46823(9)
O2 O 0.7337(2) 0.6051(3) 0.37295(10)
O3 O 0.7509(3) 0.7558(3) 0.28922(11)
O4 O 1.2863(3) 0.7866(3) 0.19062(10)
O5 O 1.4673(3) 0.5907(3) 0.21316(9)
O6 O 2.0458(3) 0.0098(3) 0.6151(1)
O7 O 1.8282(3) -0.0657(4) 0.66238(11)
C1 C 1.3044(3) 0.3678(3) 0.43039(12)
C2 C 1.2337(3) 0.4698(3) 0.37448(11)
C3 C 1.0657(3) 0.5183(3) 0.37588(12)
H2 H 1.00340 0.48650 0.40960
C4 C 0.9913(3) 0.6136(3) 0.32735(12)
C5 C 1.0782(3) 0.6669(3) 0.27726(11)
H3 H 1.02720 0.73410 0.24540
C6 C 1.2440(3) 0.6163(3) 0.27634(11)
C7 C 1.3229(3) 0.5177(3) 0.32335(11)
H4 H 1.43470 0.48370 0.32070
C8 C 1.5729(3) 0.2579(3) 0.48343(11)
C9 C 1.7451(3) 0.2441(4) 0.47600(13)
H5 H 1.78940 0.28980 0.44030
C10 C 1.8513(3) 0.1638(4) 0.52054(12)
H6 H 1.96710 0.15610 0.51570
C11 C 1.7825(3) 0.0952(3) 0.57246(12)
C12 C 1.6121(3) 0.1071(4) 0.58118(12)
H7 H 1.56880 0.05960 0.61680
C13 C 1.5060(3) 0.1896(4) 0.53691(11)
H8 H 1.39080 0.19970 0.54260
#END
