
#######################################################################
#
#                 Cambridge Crystallographic Data Centre
#                                CCDC
#
#######################################################################
#
# If this CIF has been generated from an entry in the Cambridge
# Structural Database, then it will include bibliographic, chemical,
# crystal, experimental, refinement or atomic coordinate data resulting
# from the CCDC's data processing and validation procedures.
#
#######################################################################

data_CSD_CIF_WADFUE
_audit_creation_date 2011-01-04
_audit_creation_method CSD-ConQuest-V1
_database_code_CSD WADFUE
_database_code_depnum_ccdc_archive 'CCDC 803206'
_chemical_formula_sum 'C18 H22 N2 O7'
_chemical_formula_moiety
;
C18 H22 N2 O7
;
_journal_coeditor_code "IUCr XU5078"
_journal_coden_Cambridge 1370
_journal_volume 66
_journal_year 2010
_journal_page_first o3205
_journal_name_full 'Acta Crystallogr.,Sect.E:Struct.Rep.Online '
loop_
_publ_author_name
"Long He"
_chemical_name_systematic
;
Diethyl 4-acetyl-5-(2-nitrophenyl)pyrrolidine-2,2-dicarboxylate
;
_cell_volume    989.228
_exptl_crystal_colour 'colorless'
_exptl_crystal_density_diffrn 1.27
_exptl_crystal_description 'block'
_exptl_crystal_preparation 'ethyl acetate'
_diffrn_ambient_temperature 291
#These two values have been output from a single CSD field.
_refine_ls_R_factor_gt 0.0807
_refine_ls_wR_factor_gt 0.0807
_symmetry_cell_setting monoclinic
_symmetry_space_group_name_H-M 'P 21'
_symmetry_Int_Tables_number 4
loop_
_symmetry_equiv_pos_site_id
_symmetry_equiv_pos_as_xyz
1 x,y,z
2 -x,1/2+y,-z
_cell_length_a 10.687(5)
_cell_length_b 7.760(5)
_cell_length_c 12.030(5)
_cell_angle_alpha 90
_cell_angle_beta 97.455(5)
_cell_angle_gamma 90
_cell_formula_units_Z 2
loop_
_atom_type_symbol
_atom_type_radius_bond
C 0.68
H 0.23
N 0.68
O 0.68
loop_
_atom_site_label
_atom_site_type_symbol
_atom_site_fract_x
_atom_site_fract_y
_atom_site_fract_z
O1 O 0.0038(5) 0.2421(8) 0.5230(4)
N1 N 0.2698(5) 0.3189(8) 0.6658(4)
O2 O 0.1828(5) 0.4223(10) 0.8609(6)
C1 C 0.2453(6) 0.4941(9) 0.4653(6)
H1 H 0.19410 0.51840 0.52020
O3 O 0.4209(6) 0.0223(8) 0.4138(5)
C2 C 0.3126(5) 0.3415(9) 0.4718(5)
O4 O 0.4399(5) 0.1838(10) 0.8411(4)
O5 O 0.0249(5) 0.2457(11) 0.8118(5)
O6 O 0.5571(5) 0.1618(10) 0.3371(5)
C3 C 0.1956(6) 0.0846(9) 0.5533(5)
H2 H 0.22470 -0.01920 0.51800
N2 N 0.4602(6) 0.1556(10) 0.3797(5)
C4 C 0.3030(5) 0.2205(9) 0.5697(4)
H3 H 0.38410 0.16240 0.59050
C5 C 0.3875(5) 0.3157(10) 0.3870(5)
C6 C 0.1311(7) 0.2862(12) 0.8096(6)
C7 C 0.2514(6) 0.6116(10) 0.3802(6)
H4 H 0.20280 0.71130 0.37710
C8 C 0.0663(7) 0.1228(11) 0.3583(5)
H5 H -0.00970 0.17600 0.32280
H6 H 0.06200 0.00070 0.34550
H7 H 0.13750 0.16940 0.32740
C9 C 0.0803(6) 0.1578(9) 0.4820(5)
O7 O 0.2881(6) 0.0324(11) 0.9076(6)
C10 C 0.2269(6) 0.1943(11) 0.7453(5)
C11 C 0.3975(6) 0.4353(11) 0.3036(6)
H8 H 0.45110 0.41490 0.25000
C12 C 0.3357(7) 0.1387(14) 0.8371(6)
C13 C 0.1723(8) 0.0442(10) 0.6740(5)
H9 H 0.08260 0.03300 0.67820
H10 H 0.21370 -0.06250 0.69950
C14 C 0.3294(7) 0.5809(11) 0.3001(6)
H11 H 0.33500 0.66110 0.24350
C15 C 0.1066(10) 0.5318(17) 0.9259(8)
H12 H 0.01740 0.52310 0.89850
H13 H 0.13250 0.65150 0.92460
C16 C 0.385(1) -0.0385(18) 1.0007(8)
H14 H 0.38740 -0.16340 0.99940
H15 H 0.46870 0.00640 0.99540
C17 C 0.3341(11) 0.0277(19) 1.1036(8)
H16 H 0.38560 -0.01410 1.16940
H17 H 0.24900 -0.01210 1.10360
H18 H 0.33520 0.15140 1.10340
C18 C 0.1366(11) 0.455(2) 1.0415(9)
H19 H 0.08960 0.51410 1.09250
H20 H 0.22530 0.46640 1.06630
H21 H 0.11410 0.33500 1.03910
H22 H 0.342(4) 0.377(8) 0.693(5)
#END
