
#######################################################################
#
#                 Cambridge Crystallographic Data Centre
#                                CCDC
#
#######################################################################
#
# If this CIF has been generated from an entry in the Cambridge
# Structural Database, then it will include bibliographic, chemical,
# crystal, experimental, refinement or atomic coordinate data resulting
# from the CCDC's data processing and validation procedures.
#
#######################################################################

data_CSD_CIF_WADKEU
_audit_creation_date 2016-02-19
_audit_creation_method CSD-ConQuest-V1
_database_code_CSD WADKEU
_database_code_depnum_ccdc_archive 'CCDC 1436865'
_chemical_formula_sum 'C28 H47 N3 O6'
_chemical_formula_moiety
;
C28 H47 N3 O6
;
_journal_coden_Cambridge 182
_journal_volume 52
_journal_year 2016
_journal_page_first 4060
_journal_name_full 'Chem.Commun. '
loop_
_publ_author_name
"A.N.Zalewski"
"J.G.Nathanael"
"J.M.White"
"U.Wille"
_chemical_name_systematic
;
3-Methoxy-6-(nitroimino)cholestan-5-yl nitrate
;
_chemical_name_common
;
5-Nitrato-6-nitroiminocholesterylmethyl ether; 
(3S,8S,9S,10R,13R,14S,17R,E)-3-Methoxy-10,13-dimethyl-17-((R)-6-methylheptan-2
-yl)-6-(nitroimino)hexadecahydro-1H-cyclopenta(a)phenanthren-5-yl nitrate
;
_cell_volume   1420.011
_exptl_crystal_colour 'colorless'
_exptl_crystal_density_diffrn 1.22
_exptl_crystal_description 'block'
_diffrn_ambient_temperature 130
#These two values have been output from a single CSD field.
_refine_ls_R_factor_gt 0.049
_refine_ls_wR_factor_gt 0.049
_symmetry_cell_setting monoclinic
_symmetry_space_group_name_H-M 'P 21'
_symmetry_Int_Tables_number 4
loop_
_symmetry_equiv_pos_site_id
_symmetry_equiv_pos_as_xyz
1 x,y,z
2 -x,1/2+y,-z
_cell_length_a 11.5615(3)
_cell_length_b 10.1140(3)
_cell_length_c 12.3397(3)
_cell_angle_alpha 90
_cell_angle_beta 100.223(3)
_cell_angle_gamma 90
_cell_formula_units_Z 2
loop_
_atom_type_symbol
_atom_type_radius_bond
C 0.68
H 0.23
N 0.68
O 0.68
loop_
_atom_site_label
_atom_site_type_symbol
_atom_site_fract_x
_atom_site_fract_y
_atom_site_fract_z
O1 O 0.16895(11) 0.57706(14) 0.76544(11)
O2 O 0.16201(14) 0.78941(16) 0.79138(13)
O3 O 0.06322(12) 0.39558(16) 1.04018(10)
O4 O -0.00110(13) 0.69060(17) 0.72214(13)
N1 N 0.10241(14) 0.69561(17) 0.75971(13)
O5 O -0.20793(19) 0.4898(2) 0.48189(16)
N2 N -0.14150(16) 0.40321(19) 0.51492(14)
N3 N -0.07881(14) 0.40950(18) 0.62631(13)
C1 C 0.47840(16) 0.3558(2) 0.26967(14)
H1 H 0.42200 0.29510 0.22670
O6 O -0.1203(2) 0.3100(2) 0.46120(17)
C2 C 0.36635(15) 0.2887(2) 0.63221(14)
H2 H 0.42010 0.27970 0.70170
H3 H 0.33190 0.20270 0.61260
C3 C 0.55985(16) 0.3712(2) 0.08998(14)
H4 H 0.61940 0.30580 0.11720
H5 H 0.49110 0.32440 0.05220
C4 C 0.10178(14) 0.45342(18) 0.74627(13)
C5 C 0.26243(15) 0.46024(19) 0.45429(13)
H6 H 0.30520 0.53700 0.48950
C6 C 0.6059(2) 0.4601(2) 0.00791(17)
H7 H 0.67640 0.50410 0.04530
H8 H 0.54770 0.52770 -0.01670
C7 C 0.35546(15) 0.35987(18) 0.43173(13)
C8 C 0.18714(15) 0.4079(2) 0.53457(13)
H9 H 0.15410 0.32230 0.50750
C9 C 0.02396(15) 0.45825(19) 0.63343(14)
C10 C 0.28133(15) 0.3419(2) 0.85299(13)
H10 H 0.33730 0.27050 0.85290
H11 H 0.32530 0.42400 0.86390
C11 C 0.26807(14) 0.38624(18) 0.64713(13)
H12 H 0.30600 0.47120 0.66870
C12 C 0.00610(19) 0.5062(2) 1.07690(16)
H13 H 0.06340 0.57200 1.10510
H14 H -0.03540 0.47920 1.13410
H15 H -0.04850 0.54240 1.01650
C13 C 0.21601(16) 0.3220(2) 0.94932(14)
H16 H 0.17900 0.23560 0.94310
H17 H 0.27200 0.32420 1.01790
C14 C 0.19927(14) 0.34639(18) 0.73964(13)
C15 C 0.08536(17) 0.5030(2) 0.54299(15)
H18 H 0.11560 0.59180 0.55810
H19 H 0.03040 0.50440 0.47370
C16 C 0.63483(18) 0.3881(2) -0.09336(15)
H20 H 0.56580 0.33620 -0.12600
C17 C 0.3056(2) 0.5126(2) 0.27583(16)
H21 H 0.32690 0.60410 0.26650
H22 H 0.28340 0.47290 0.20360
C18 C 0.41150(16) 0.4362(2) 0.34416(14)
H23 H 0.46600 0.50170 0.38320
C19 C 0.73762(19) 0.2939(3) -0.06359(18)
H24 H 0.80600 0.34250 -0.02990
H25 H 0.75300 0.25120 -0.12900
H26 H 0.71900 0.22850 -0.01300
C20 C 0.29877(17) 0.2318(2) 0.38125(15)
H27 H 0.35890 0.16770 0.37650
H28 H 0.25560 0.24960 0.30890
H29 H 0.24630 0.19780 0.42680
C21 C 0.14010(17) 0.2105(2) 0.71490(15)
H30 H 0.19920 0.14280 0.72270
H31 H 0.09670 0.20990 0.64100
H32 H 0.08760 0.19430 0.76560
C22 C 0.03707(15) 0.4307(2) 0.84225(13)
H33 H -0.00570 0.34780 0.83160
H34 H -0.01940 0.50120 0.84420
C23 C 0.52707(19) 0.4454(2) 0.18754(17)
H35 H 0.46860 0.51180 0.16020
H36 H 0.59610 0.49090 0.22600
C24 C 0.20212(19) 0.5046(2) 0.33998(15)
H37 H 0.16470 0.59010 0.34280
H38 H 0.14380 0.44070 0.30690
C25 C 0.12351(15) 0.4266(2) 0.95222(13)
H39 H 0.16160 0.51300 0.96590
C26 C 0.57733(19) 0.2718(3) 0.33388(18)
H40 H 0.62870 0.32690 0.38440
H41 H 0.62100 0.23120 0.28350
H42 H 0.54440 0.20440 0.37400
C27 C 0.43572(15) 0.3330(2) 0.54303(13)
H43 H 0.49210 0.26490 0.53340
H44 H 0.47920 0.41280 0.56740
C28 C 0.6601(3) 0.4881(4) -0.1795(2)
H45 H 0.59320 0.54480 -0.20010
H46 H 0.67560 0.44170 -0.24340
H47 H 0.72740 0.54030 -0.14920
#END
