
#######################################################################
#
#                 Cambridge Crystallographic Data Centre
#                                CCDC
#
#######################################################################
#
# If this CIF has been generated from an entry in the Cambridge
# Structural Database, then it will include bibliographic, chemical,
# crystal, experimental, refinement or atomic coordinate data resulting
# from the CCDC's data processing and validation procedures.
#
#######################################################################

data_CSD_CIF_WADVOP
_audit_creation_date 2016-02-20
_audit_creation_method CSD-ConQuest-V1
_database_code_CSD WADVOP
_database_code_depnum_ccdc_archive 'CCDC 1454902'
_chemical_formula_sum 'C23 H29 N3 O6'
_chemical_formula_moiety
;
C23 H29 N3 O6
;
_journal_coden_Cambridge 177
_journal_volume 14
_journal_year 2016
_journal_page_first 5617
_journal_name_full 'Org.Biomol.Chem. '
loop_
_publ_author_name
"V.K.Kensy"
"G.I.Peterson"
"D.C.Church"
"N.A.Yakelis"
"A.J.Boydston"
_chemical_name_systematic
;
(3-carbamoyl-1,4,5,6,7-pentamethyl-2-oxa-3-azabicyclo[2.2.1]hept-5-en-7-yl)met
hyl (3,5-dioxo-4-azatricyclo[5.2.1.0^2,6^]dec-8-en-4-yl)acetate
;
_cell_volume   2245.479
_exptl_crystal_colour 'colorless'
_exptl_crystal_density_diffrn 1.312
_exptl_crystal_description 'prism'
_diffrn_ambient_temperature 100
#These two values have been output from a single CSD field.
_refine_ls_R_factor_gt 0.0417
_refine_ls_wR_factor_gt 0.0417
loop_
_citation_database_id_CSD
_citation_special_details
WADVUV "is a stereoisomer of this entry"
_symmetry_cell_setting monoclinic
_symmetry_space_group_name_H-M 'P 21/c'
_symmetry_Int_Tables_number 14
loop_
_symmetry_equiv_pos_site_id
_symmetry_equiv_pos_as_xyz
1 x,y,z
2 -x,1/2+y,1/2-z
3 -x,-y,-z
4 x,-1/2-y,-1/2+z
_cell_length_a 26.3331(15)
_cell_length_b 6.7154(4)
_cell_length_c 12.9775(7)
_cell_angle_alpha 90
_cell_angle_beta 101.913(3)
_cell_angle_gamma 90
_cell_formula_units_Z 4
loop_
_atom_type_symbol
_atom_type_radius_bond
C 0.68
H 0.23
N 0.68
O 0.68
loop_
_atom_site_label
_atom_site_type_symbol
_atom_site_fract_x
_atom_site_fract_y
_atom_site_fract_z
C1 C 0.42164(8) 1.4035(3) -0.01715(15)
H1 H 0.42520 1.54070 -0.03200
C2 C 0.45225(8) 1.2589(3) -0.03623(15)
H2 H 0.48140 1.27270 -0.06820
C3 C 0.37980(7) 1.3131(3) 0.03239(15)
H3 H 0.34740 1.39330 0.02720
C4 C 0.43240(7) 1.0664(3) 0.00226(14)
H4 H 0.44360 0.94060 -0.02780
C5 C 0.37367(7) 1.1092(3) -0.02178(15)
H5 H 0.35870 1.11780 -0.09820
H6 H 0.35380 1.01350 0.01240
C6 C 0.40831(7) 1.2511(3) 0.14608(15)
H7 H 0.42730 1.36490 0.18660
C7 C 0.37161(8) 1.1511(3) 0.20411(15)
C8 C 0.42930(7) 0.9040(3) 0.18075(14)
C9 C 0.44526(7) 1.0838(3) 0.12591(14)
H8 H 0.48250 1.11940 0.15350
C10 C 0.35870(7) 0.8153(3) 0.27486(15)
H9 H 0.34690 0.88250 0.33360
H10 H 0.38180 0.70400 0.30460
C11 C 0.31230(7) 0.7338(3) 0.19847(15)
C12 C 0.23413(7) 0.5574(3) 0.18568(14)
H11 H 0.24580 0.44680 0.14580
H12 H 0.21460 0.65360 0.13460
C13 C 0.19927(7) 0.4771(3) 0.25649(13)
C14 C 0.23089(7) 0.3492(3) 0.34439(14)
H13 H 0.25160 0.25260 0.31400
H14 H 0.20730 0.27820 0.38100
H15 H 0.25400 0.43470 0.39440
C15 C 0.16434(7) 0.6323(3) 0.29452(13)
C16 C 0.18832(8) 0.8029(3) 0.36270(15)
H16 H 0.16080 0.88990 0.37770
H17 H 0.21090 0.87900 0.32590
H18 H 0.20880 0.75100 0.42890
C17 C 0.12334(7) 0.5073(3) 0.32883(14)
C18 C 0.09149(8) 0.5821(3) 0.40403(15)
H19 H 0.07000 0.69390 0.37210
H20 H 0.11460 0.62650 0.46920
H21 H 0.06910 0.47470 0.42010
C19 C 0.07653(7) 0.1840(3) 0.26060(15)
H22 H 0.06180 0.18580 0.32410
H23 H 0.09280 0.05450 0.25460
H24 H 0.04880 0.20620 0.19850
C20 C 0.11638(7) 0.3452(3) 0.26759(14)
C21 C 0.15190(7) 0.3689(3) 0.18931(14)
C22 C 0.16184(8) 0.1936(3) 0.12411(15)
H25 H 0.18470 0.09870 0.16880
H26 H 0.17840 0.23930 0.06740
H27 H 0.12880 0.12840 0.09370
C23 C 0.07480(7) 0.5256(3) 0.07517(14)
N1 N 0.38740(6) 0.9548(2) 0.22446(11)
N2 N 0.12835(6) 0.5454(2) 0.12035(11)
N3 N 0.04365(6) 0.6728(2) 0.09017(12)
H28 H 0.01050 0.66900 0.06000
H29 H 0.05610 0.77450 0.13030
O1 O 0.44869(5) 0.7390(2) 0.18723(10)
O2 O 0.33332(6) 1.2202(2) 0.22891(11)
O3 O 0.30703(5) 0.7373(2) 0.10397(10)
O4 O 0.27879(5) 0.65487(19) 0.25100(9)
O5 O 0.13742(5) 0.71711(18) 0.19038(9)
O6 O 0.06085(5) 0.3777(2) 0.02035(10)
#END
