
#######################################################################
#
#                 Cambridge Crystallographic Data Centre
#                                CCDC
#
#######################################################################
#
# If this CIF has been generated from an entry in the Cambridge
# Structural Database, then it will include bibliographic, chemical,
# crystal, experimental, refinement or atomic coordinate data resulting
# from the CCDC's data processing and validation procedures.
#
#######################################################################

data_CSD_CIF_WADVUV
_audit_creation_date 2016-02-20
_audit_creation_method CSD-ConQuest-V1
_database_code_CSD WADVUV
_database_code_depnum_ccdc_archive 'CCDC 1454903'
_chemical_formula_sum 'C23 H29 N3 O6'
_chemical_formula_moiety
;
C23 H29 N3 O6
;
_journal_coden_Cambridge 177
_journal_volume 14
_journal_year 2016
_journal_page_first 5617
_journal_name_full 'Org.Biomol.Chem. '
loop_
_publ_author_name
"V.K.Kensy"
"G.I.Peterson"
"D.C.Church"
"N.A.Yakelis"
"A.J.Boydston"
_chemical_name_systematic
;
(3-carbamoyl-1,4,5,6,7-pentamethyl-2-oxa-3-azabicyclo[2.2.1]hept-5-en-7-yl)met
hyl (3,5-dioxo-4-azatricyclo[5.2.1.0^2,6^]dec-8-en-4-yl)acetate
;
_cell_volume   2245.857
_exptl_crystal_colour 'colorless'
_exptl_crystal_density_diffrn 1.312
_exptl_crystal_description 'prism'
_diffrn_ambient_temperature 100
#These two values have been output from a single CSD field.
_refine_ls_R_factor_gt 0.0581
_refine_ls_wR_factor_gt 0.0581
loop_
_citation_database_id_CSD
_citation_special_details
WADVOP "is a stereoisomer of this entry"
_symmetry_cell_setting monoclinic
_symmetry_space_group_name_H-M 'P 21/c'
_symmetry_Int_Tables_number 14
loop_
_symmetry_equiv_pos_site_id
_symmetry_equiv_pos_as_xyz
1 x,y,z
2 -x,1/2+y,1/2-z
3 -x,-y,-z
4 x,-1/2-y,-1/2+z
_cell_length_a 11.526(5)
_cell_length_b 22.824(5)
_cell_length_c 8.601(5)
_cell_angle_alpha 90
_cell_angle_beta 96.987(5)
_cell_angle_gamma 90
_cell_formula_units_Z 4
loop_
_atom_type_symbol
_atom_type_radius_bond
C 0.68
H 0.23
N 0.68
O 0.68
loop_
_atom_site_label
_atom_site_type_symbol
_atom_site_fract_x
_atom_site_fract_y
_atom_site_fract_z
C1 C 0.16263(19) -0.00011(10) 0.0056(3)
H1 H 0.14790 -0.03690 0.05120
C2 C 0.1172(2) 0.01861(10) -0.1352(3)
H2 H 0.06450 -0.00230 -0.20850
C3 C 0.24228(17) 0.04769(9) 0.0806(2)
H3 H 0.30290 0.03510 0.16730
C4 C 0.1654(2) 0.07998(10) -0.1573(2)
H4 H 0.16230 0.09400 -0.26780
C5 C 0.28816(18) 0.07295(9) -0.0664(2)
H5 H 0.32940 0.11080 -0.04640
H6 H 0.33770 0.04500 -0.11650
C6 C 0.15892(16) 0.09845(9) 0.1199(2)
H7 H 0.09870 0.08480 0.18620
C7 C 0.22697(16) 0.15092(9) 0.1905(2)
C8 C 0.14020(16) 0.18353(9) -0.0508(2)
C9 C 0.10387(17) 0.11975(9) -0.0435(2)
H8 H 0.01700 0.11490 -0.05860
C10 C 0.27871(16) 0.25117(9) 0.1082(2)
H9 H 0.28440 0.26300 0.21960
H10 H 0.23750 0.28260 0.04410
C11 C 0.40016(16) 0.24319(8) 0.0614(2)
C12 C 0.58556(16) 0.28684(8) 0.0648(2)
H11 H 0.58140 0.28520 -0.05070
H12 H 0.62900 0.25210 0.10950
C13 C 0.64623(17) 0.34304(9) 0.1271(2)
C14 C 0.6566(2) 0.34348(11) 0.3056(2)
H13 H 0.57920 0.33780 0.33920
H14 H 0.68880 0.38110 0.34500
H15 H 0.70860 0.31170 0.34730
C15 C 0.59321(16) 0.39929(8) 0.0473(2)
C16 C 0.47407(18) 0.41981(9) 0.0769(3)
H16 H 0.47000 0.42120 0.19000
H17 H 0.41480 0.39260 0.02780
H18 H 0.45970 0.45900 0.03240
C17 C 0.62193(16) 0.39318(8) -0.1200(2)
C18 C 0.54988(18) 0.41915(9) -0.2591(2)
H19 H 0.59120 0.41500 -0.35150
H20 H 0.53650 0.46080 -0.23980
H21 H 0.47470 0.39870 -0.27720
C19 C 0.79720(19) 0.35187(9) -0.2403(3)
H22 H 0.75460 0.36330 -0.34120
H23 H 0.81420 0.30980 -0.24120
H24 H 0.87060 0.37390 -0.22230
C20 C 0.72410(16) 0.36502(8) -0.1119(2)
C21 C 0.76403(16) 0.35292(8) 0.0594(2)
C22 C 0.86178(19) 0.30957(10) 0.1014(3)
H25 H 0.83650 0.27050 0.06360
H26 H 0.88180 0.30850 0.21540
H27 H 0.93050 0.32150 0.05240
C23 C 0.87193(17) 0.44860(9) 0.0617(2)
N1 N 0.21311(13) 0.19696(7) 0.08551(18)
N2 N 0.79096(15) 0.41380(7) 0.13019(19)
N3 N 0.84604(15) 0.50525(7) 0.04201(19)
H28 H 0.89690 0.52930 0.00780
H29 H 0.77810 0.51860 0.06320
O1 O 0.11337(13) 0.21833(7) -0.15473(18)
O2 O 0.28767(13) 0.15350(7) 0.31572(16)
O3 O 0.43011(13) 0.20282(7) -0.0130(2)
O4 O 0.46897(12) 0.28797(6) 0.11201(16)
O5 O 0.67835(12) 0.44315(6) 0.12132(16)
O6 O 0.96479(12) 0.42635(7) 0.0350(2)
#END
