
#######################################################################
#
#                 Cambridge Crystallographic Data Centre
#                                CCDC
#
#######################################################################
#
# If this CIF has been generated from an entry in the Cambridge
# Structural Database, then it will include bibliographic, chemical,
# crystal, experimental, refinement or atomic coordinate data resulting
# from the CCDC's data processing and validation procedures.
#
#######################################################################

data_CSD_CIF_WADWUU
_audit_creation_date 2005-02-22
_audit_creation_method CSD-ConQuest-V1
_database_code_CSD WADWUU
_chemical_formula_sum 'C6 H7 N3 O3'
_chemical_formula_moiety
;
C6 H7 N3 O3
;
_journal_coden_Cambridge 798
_journal_volume 30
_journal_year 2003
_journal_page_first 215
_journal_name_full 'Nonlinear Optics '
loop_
_publ_author_name
"A.Szemik-Hojniak"
"T.Glowiak"
"I.Deperasinska"
"A.Puszko"
"Z.Talik"
_chemical_name_systematic
;
6-Methyl-2-nitraminopyridine N-oxide
;
_cell_volume   1509.531
_exptl_crystal_colour 'dark salmon-pink'
_exptl_crystal_density_diffrn 1.489
_exptl_special_details
;
Coordinates for C6 were missing and have been estimated

;
_exptl_crystal_preparation 'methanol/water'
_diffrn_ambient_temperature 293
#These two values have been output from a single CSD field.
_refine_ls_R_factor_gt 0.0321
_refine_ls_wR_factor_gt 0.0321
_symmetry_cell_setting monoclinic
_symmetry_space_group_name_H-M 'C 2/c'
_symmetry_Int_Tables_number 15
loop_
_symmetry_equiv_pos_site_id
_symmetry_equiv_pos_as_xyz
1 x,y,z
2 -x,y,1/2-z
3 1/2+x,1/2+y,z
4 1/2-x,1/2+y,1/2-z
5 -x,-y,-z
6 x,-y,-1/2+z
7 -1/2-x,-1/2-y,-z
8 -1/2+x,-1/2-y,-1/2+z
_cell_length_a 8.172(2)
_cell_length_b 11.597(2)
_cell_length_c 16.394(3)
_cell_angle_alpha 90
_cell_angle_beta 103.69(3)
_cell_angle_gamma 90
_cell_formula_units_Z 8
loop_
_atom_type_symbol
_atom_type_radius_bond
C 0.68
N 0.68
O 0.68
loop_
_atom_site_label
_atom_site_type_symbol
_atom_site_fract_x
_atom_site_fract_y
_atom_site_fract_z
O1 O 0.0036(2) 0.5169(1) 0.1067(1)
O2 O 0.3138(2) 0.3418(2) 0.1470(1)
O3 O 0.3583(2) 0.4331(1) 0.0388(1)
N1 N -0.0645(2) 0.4146(1) 0.1114(1)
N2 N 0.1141(2) 0.3454(1) 0.0280(1)
N3 N 0.2714(2) 0.3764(2) 0.0752(1)
C1 C -0.0067(2) 0.3222(2) 0.0746(1)
C2 C -0.0695(2) 0.2142(2) 0.0802(1)
C3 C -0.1936(3) 0.1991(2) 0.1241(1)
C4 C -0.2519(3) 0.2926(2) 0.1595(1)
C5 C -0.1888(2) 0.4021(2) 0.1535(1)
C6 C -0.25400 0.50300 0.19200
#END
