
#######################################################################
#
#                 Cambridge Crystallographic Data Centre
#                                CCDC
#
#######################################################################
#
# If this CIF has been generated from an entry in the Cambridge
# Structural Database, then it will include bibliographic, chemical,
# crystal, experimental, refinement or atomic coordinate data resulting
# from the CCDC's data processing and validation procedures.
#
#######################################################################

data_CSD_CIF_WADYAD
_audit_creation_date 2011-02-02
_audit_creation_method CSD-ConQuest-V1
_database_code_CSD WADYAD
_database_code_depnum_ccdc_archive 'CCDC 803260'
_chemical_formula_sum 'C16 H13 N3 O4'
_chemical_formula_moiety
;
C16 H13 N3 O4
;
_journal_coeditor_code "IUCr HG2751"
_journal_coden_Cambridge 1370
_journal_volume 66
_journal_year 2010
_journal_page_first o3272
_journal_name_full 'Acta Crystallogr.,Sect.E:Struct.Rep.Online '
loop_
_publ_author_name
"Gui-Yun Duan"
"Yu-Juan Zhang"
"Ben-Qian Hao"
_chemical_name_systematic
;
Ethyl 8-(4-nitrophenyl)imidazo[1,2-a]pyridine-7-carboxylate
;
_cell_volume   1484.531
_exptl_crystal_colour 'colorless'
_exptl_crystal_density_diffrn 1.393
_exptl_crystal_description 'block'
_exptl_crystal_preparation 'ethyl acetate'
_diffrn_ambient_temperature 273
#These two values have been output from a single CSD field.
_refine_ls_R_factor_gt 0.0422
_refine_ls_wR_factor_gt 0.0422
_symmetry_cell_setting monoclinic
_symmetry_space_group_name_H-M 'P 21/c'
_symmetry_Int_Tables_number 14
loop_
_symmetry_equiv_pos_site_id
_symmetry_equiv_pos_as_xyz
1 x,y,z
2 -x,1/2+y,1/2-z
3 -x,-y,-z
4 x,-1/2-y,-1/2+z
_cell_length_a 8.189(4)
_cell_length_b 15.821(8)
_cell_length_c 11.884(6)
_cell_angle_alpha 90
_cell_angle_beta 105.380(8)
_cell_angle_gamma 90
_cell_formula_units_Z 4
loop_
_atom_type_symbol
_atom_type_radius_bond
C 0.68
H 0.23
N 0.68
O 0.68
loop_
_atom_site_label
_atom_site_type_symbol
_atom_site_fract_x
_atom_site_fract_y
_atom_site_fract_z
O1 O 0.4896(3) 0.09876(13) 0.56705(14)
O2 O 0.2458(2) 0.15378(13) 0.49165(14)
O3 O 0.26198(16) 0.02576(9) 0.02277(12)
O4 O 0.16766(15) 0.07201(9) -0.15928(11)
N1 N 0.3843(3) 0.12901(12) 0.48549(16)
N2 N 0.72970(16) 0.19702(9) -0.06373(12)
N3 N 0.80707(17) 0.22853(10) 0.12673(13)
C1 C 0.8789(2) 0.24074(12) -0.04309(17)
H1 H 0.93810 0.25500 -0.09720
C2 C 0.9223(2) 0.25889(13) 0.07191(18)
H2 H 1.01930 0.28860 0.10960
C3 C 0.6901(2) 0.19066(11) 0.04239(14)
C4 C 0.53881(19) 0.14865(10) 0.04674(14)
C5 C 0.4368(2) 0.11716(11) -0.05585(14)
C6 C 0.4823(2) 0.12748(12) -0.16214(14)
H3 H 0.41080 0.10700 -0.23110
C7 C 0.6262(2) 0.16622(12) -0.16469(15)
H4 H 0.65550 0.17210 -0.23470
C8 C 0.2819(2) 0.06715(11) -0.05705(15)
C9 C 0.0130(2) 0.02350(15) -0.17049(19)
H5 H 0.04050 -0.03490 -0.14840
H6 H -0.05090 0.04670 -0.11970
C10 C -0.0864(3) 0.02810(19) -0.2914(2)
H7 H -0.11000 0.08620 -0.31300
H8 H -0.19090 -0.00190 -0.30030
H9 H -0.02380 0.00310 -0.34070
C11 C 0.4992(2) 0.14378(10) 0.16178(13)
C12 C 0.6133(2) 0.10865(12) 0.25694(14)
H10 H 0.71590 0.08790 0.24900
C13 C 0.5773(2) 0.10392(12) 0.36384(15)
H11 H 0.65410 0.08010 0.42800
C14 C 0.4254(3) 0.13518(12) 0.37291(15)
C15 C 0.3104(2) 0.17153(12) 0.28087(17)
H12 H 0.20890 0.19310 0.28970
C16 C 0.3482(2) 0.17554(12) 0.17493(15)
H13 H 0.27110 0.19990 0.11140
#END
