
#######################################################################
#
#                 Cambridge Crystallographic Data Centre
#                                CCDC
#
#######################################################################
#
# If this CIF has been generated from an entry in the Cambridge
# Structural Database, then it will include bibliographic, chemical,
# crystal, experimental, refinement or atomic coordinate data resulting
# from the CCDC's data processing and validation procedures.
#
#######################################################################

data_CSD_CIF_WADZUY
_audit_creation_date 2011-02-02
_audit_creation_method CSD-ConQuest-V1
_database_code_CSD WADZUY
_database_code_depnum_ccdc_archive 'CCDC 803269'
_chemical_formula_sum 'C19 H15 N3 O3'
_chemical_formula_moiety
;
C19 H15 N3 O3
;
_journal_coeditor_code "IUCr DN2614"
_journal_coden_Cambridge 1370
_journal_volume 66
_journal_year 2010
_journal_page_first o3286
_journal_name_full 'Acta Crystallogr.,Sect.E:Struct.Rep.Online '
loop_
_publ_author_name
"Guihua Chen"
"Jian Yan"
_chemical_name_systematic
;
4-Anilino-3-nitro-N-phenylbenzamide
;
_cell_volume    773.701
_exptl_crystal_colour 'colorless'
_exptl_crystal_density_diffrn 1.431
_exptl_crystal_description 'block'
_exptl_crystal_preparation 'methanol'
_diffrn_ambient_temperature 293
#These two values have been output from a single CSD field.
_refine_ls_R_factor_gt 0.0575
_refine_ls_wR_factor_gt 0.0575
_symmetry_cell_setting triclinic
_symmetry_space_group_name_H-M 'P -1'
_symmetry_Int_Tables_number 2
loop_
_symmetry_equiv_pos_site_id
_symmetry_equiv_pos_as_xyz
1 x,y,z
2 -x,-y,-z
_cell_length_a 7.7930(16)
_cell_length_b 8.1580(16)
_cell_length_c 12.788(3)
_cell_angle_alpha 84.73(3)
_cell_angle_beta 83.82(3)
_cell_angle_gamma 73.58(3)
_cell_formula_units_Z 2
loop_
_atom_type_symbol
_atom_type_radius_bond
C 0.68
H 0.23
N 0.68
O 0.68
loop_
_atom_site_label
_atom_site_type_symbol
_atom_site_fract_x
_atom_site_fract_y
_atom_site_fract_z
O1 O 0.1624(3) 0.4949(3) 0.34191(17)
O2 O 0.4401(3) -0.0652(3) 0.68488(17)
O3 O 0.3047(3) -0.0231(3) 0.54356(17)
N1 N 0.1661(3) 0.7456(3) 0.40167(18)
H1 H 0.18920 0.78980 0.45520
N2 N 0.3633(3) 0.0321(3) 0.61399(18)
N3 N 0.4299(3) 0.2000(3) 0.79278(18)
H2 H 0.48100 0.09220 0.78920
C1 C 0.0361(4) 0.8190(4) 0.2304(2)
H3 H 0.02930 0.70780 0.22650
C2 C -0.0237(4) 0.9424(4) 0.1516(2)
H4 H -0.07420 0.91430 0.09550
C3 C -0.0102(5) 1.1066(4) 0.1543(3)
H5 H -0.04730 1.18750 0.09930
C4 C 0.0583(5) 1.1499(4) 0.2389(3)
H6 H 0.06630 1.26090 0.24200
C5 C 0.1152(4) 1.0284(4) 0.3193(2)
H7 H 0.16010 1.05880 0.37690
C6 C 0.1066(4) 0.8620(4) 0.3157(2)
C7 C 0.1915(4) 0.5740(3) 0.4114(2)
C8 C 0.2585(4) 0.4838(3) 0.5121(2)
C9 C 0.2942(4) 0.5618(4) 0.5980(2)
H8 H 0.27940 0.67940 0.59320
C10 C 0.3501(4) 0.4676(4) 0.6883(2)
H9 H 0.37210 0.52330 0.74350
C11 C 0.3756(4) 0.2896(3) 0.7005(2)
C12 C 0.3430(4) 0.2137(3) 0.6127(2)
C13 C 0.2860(4) 0.3091(3) 0.5223(2)
H10 H 0.26540 0.25390 0.46640
C14 C 0.4108(4) 0.2654(3) 0.8927(2)
C15 C 0.2639(4) 0.3943(4) 0.9262(2)
H11 H 0.17580 0.44640 0.88090
C16 C 0.2481(4) 0.4458(4) 1.0272(2)
H12 H 0.14940 0.53400 1.04900
C17 C 0.3752(5) 0.3695(5) 1.0967(2)
H13 H 0.36230 0.40450 1.16500
C18 C 0.5225(5) 0.2398(5) 1.0630(3)
H14 H 0.60980 0.18690 1.10880
C19 C 0.5402(4) 0.1891(4) 0.9619(2)
H15 H 0.64010 0.10250 0.93970
#END
