
#######################################################################
#
#                 Cambridge Crystallographic Data Centre
#                                CCDC
#
#######################################################################
#
# If this CIF has been generated from an entry in the Cambridge
# Structural Database, then it will include bibliographic, chemical,
# crystal, experimental, refinement or atomic coordinate data resulting
# from the CCDC's data processing and validation procedures.
#
#######################################################################

data_CSD_CIF_WAFPEY
_audit_creation_date 1993-10-19
_audit_creation_method CSD-ConQuest-V1
_database_code_CSD WAFPEY
_database_code_depnum_ccdc_archive 'CCDC 1289333'
_chemical_formula_sum 'C14 H14 N4 O8'
_chemical_formula_moiety
;
C14 H14 N4 O8
;
_journal_coden_Cambridge 194
_journal_volume 40
_journal_year 1992
_journal_page_first 3327
_journal_name_full 'Chem.Pharm.Bull. '
loop_
_publ_author_name
"S.Ito"
"K.Yamaguchi"
"Y.Komodo"
_chemical_name_systematic
;
4-(Nitro-oxymethyl)-7-ethoxycarbonyl-6,8-dimethyl-2-nitro-1(2H)-phthalazinone
;
_cell_volume   1585.472
_exptl_crystal_density_diffrn 1.535
_exptl_special_details
;
potent hypotensive activity

;
_diffrn_ambient_temperature ?
_diffrn_special_details
;
The study was carried out at room temperature,in the range 283-303K

;
#These two values have been output from a single CSD field.
_refine_ls_R_factor_gt 0.058
_refine_ls_wR_factor_gt 0.058
_symmetry_cell_setting monoclinic
_symmetry_space_group_name_H-M 'P 21/a'
_symmetry_Int_Tables_number 14
loop_
_symmetry_equiv_pos_site_id
_symmetry_equiv_pos_as_xyz
1 x,y,z
2 1/2-x,1/2+y,-z
3 -x,-y,-z
4 -1/2+x,-1/2-y,z
_cell_length_a 12.434(1)
_cell_length_b 14.735(1)
_cell_length_c 8.761(3)
_cell_angle_alpha 90
_cell_angle_beta 98.98(2)
_cell_angle_gamma 90
_cell_formula_units_Z 4
loop_
_atom_type_symbol
_atom_type_radius_bond
C 0.68
N 0.68
O 0.68
loop_
_atom_site_label
_atom_site_type_symbol
_atom_site_fract_x
_atom_site_fract_y
_atom_site_fract_z
C1 C 0.6154(2) 0.4181(1) 0.7608(3)
C2 C 0.5095(2) 0.3875(1) 0.7325(3)
C3 C 0.4603(2) 0.3586(1) 0.8585(3)
C4 C 0.5120(2) 0.3647(1) 1.0099(3)
C5 C 0.6196(2) 0.3980(1) 1.0365(3)
C6 C 0.6721(2) 0.4221(1) 0.9118(3)
C7 C 0.7863(2) 0.4470(1) 0.9432(3)
N1 N 0.8447(1) 0.4429(1) 1.0784(2)
N2 N 0.7932(2) 0.4143(1) 1.1952(2)
C8 C 0.6791(2) 0.4080(1) 1.1945(3)
C9 C 0.4491(3) 0.3835(2) 0.5699(4)
C10 C 0.3513(2) 0.3136(2) 0.8229(3)
O1 O 0.3402(1) 0.2332(1) 0.8094(3)
O2 O 0.2694(1) 0.3725(1) 0.8076(2)
C11 C 0.1592(20) 0.3347(3) 0.7620(5)
C12 C 0.1367(4) 0.3188(4) 0.5941(6)
C13 C 0.4541(3) 0.3323(2) 1.1392(4)
C14 C 0.8486(2) 0.4749(20) 0.8169(4)
O3 O 0.8004(1) 0.5548(1) 0.7357(2)
N3 N 0.8339(2) 0.6372(2) 0.8077(4)
O4 O 0.7871(2) 0.7009(2) 0.7453(4)
O5 O 0.9046(3) 0.6350(2) 0.9176(4)
N4 N 0.8673(2) 0.4103(2) 1.3395(3)
O6 O 0.9511(2) 0.4493(2) 1.3447(3)
O7 O 0.8393(2) 0.3678(2) 1.4396(3)
O8 O 0.6415(1) 0.4117(1) 1.3120(2)
#END
