
#######################################################################
#
#                 Cambridge Crystallographic Data Centre
#                                CCDC
#
#######################################################################
#
# If this CIF has been generated from an entry in the Cambridge
# Structural Database, then it will include bibliographic, chemical,
# crystal, experimental, refinement or atomic coordinate data resulting
# from the CCDC's data processing and validation procedures.
#
#######################################################################

data_CSD_CIF_WAFXAF
_audit_creation_date 2016-02-22
_audit_creation_method CSD-ConQuest-V1
_database_code_CSD WAFXAF
_database_code_depnum_ccdc_archive 'CCDC 1442977'
_chemical_formula_sum 'C17 H22 N2 O5'
_chemical_formula_moiety
;
C17 H22 N2 O5
;
_journal_coden_Cambridge 1336
_journal_volume 18
_journal_year 2016
_journal_page_first 696
_journal_name_full 'Org.Lett. '
loop_
_publ_author_name
"S.Izumi"
"Y.Kobayashi"
"Y.Takemoto"
_chemical_name_systematic
;
anti-t-butyl 4-(benzoylamino)-3-ethyl-5-oxo-1,2-oxazolidine-2-carboxylate
;
_chemical_melting_point 438
_cell_volume   3480.735
_exptl_crystal_colour 'colorless'
_exptl_crystal_density_diffrn 1.276
_exptl_special_details
;
Melting point range 438-439K
Moisture-sensitive

;
_exptl_crystal_description 'needle'
_exptl_crystal_preparation 'chloroform / hexane'
_diffrn_ambient_temperature 296
_refine_special_details
;
C10,C12,C14,C16,C17,O5,O8 and C10B,C12B,C14B,C16B,C17B,O5B,O8B disordered 
over two sites with occupancies 0.662:0.338.
;
#These two values have been output from a single CSD field.
_refine_ls_R_factor_gt 0.0704
_refine_ls_wR_factor_gt 0.0704
_symmetry_cell_setting orthorhombic
_symmetry_space_group_name_H-M 'P b c a'
_symmetry_Int_Tables_number 61
loop_
_symmetry_equiv_pos_site_id
_symmetry_equiv_pos_as_xyz
1 x,y,z
2 1/2-x,-y,1/2+z
3 1/2+x,1/2-y,-z
4 -x,1/2+y,1/2-z
5 -x,-y,-z
6 -1/2+x,y,-1/2-z
7 -1/2-x,-1/2+y,z
8 x,-1/2-y,-1/2+z
_cell_length_a 8.5688(10)
_cell_length_b 19.141(3)
_cell_length_c 21.222(3)
_cell_angle_alpha 90
_cell_angle_beta 90
_cell_angle_gamma 90
_cell_formula_units_Z 8
loop_
_atom_type_symbol
_atom_type_radius_bond
C 0.68
H 0.23
N 0.68
O 0.68
loop_
_atom_site_label
_atom_site_type_symbol
_atom_site_fract_x
_atom_site_fract_y
_atom_site_fract_z
O1 O 0.1759(2) 0.4801(1) 0.31023(9)
O2 O 0.4873(3) 0.32498(11) 0.22381(11)
O3 O 0.3439(3) 0.31893(11) 0.13530(11)
N1 N 0.3664(2) 0.46546(12) 0.23711(11)
H1 H 0.45680 0.47850 0.22400
N2 N 0.2221(3) 0.36103(16) 0.10642(13)
C1 C 0.4065(3) 0.54914(15) 0.32013(13)
C2 C 0.4867(3) 0.60488(16) 0.41647(15)
H2 H 0.47950 0.60920 0.46000
C3 C 0.3947(3) 0.55639(16) 0.38520(13)
H3 H 0.32510 0.52870 0.40770
C4 C 0.3066(3) 0.49597(15) 0.28885(13)
C5 C 0.5981(3) 0.64053(17) 0.31869(15)
H4 H 0.66560 0.66920 0.29620
C6 C 0.3432(4) 0.47670(18) 0.09958(14)
H5 H 0.44750 0.45720 0.10180
H6 H 0.34560 0.52240 0.11930
C7 C 0.2850(3) 0.41193(17) 0.20290(14)
H7 H 0.19320 0.39780 0.22730
C8 C 0.3845(4) 0.34910(17) 0.19160(16)
C9 C 0.2326(4) 0.43025(18) 0.13531(14)
H8 H 0.12890 0.45180 0.13650
C10 C 0.2961(4) 0.4848(2) 0.03041(16)
H9 H 0.30420 0.44040 0.00960
H10 H 0.36400 0.51780 0.01030
H11 H 0.19030 0.50120 0.02800
C11 C 0.5888(3) 0.64686(16) 0.38327(15)
H12 H 0.65090 0.67910 0.40430
C12 C 0.5082(3) 0.59194(15) 0.28700(14)
H13 H 0.51590 0.58790 0.24340
C13 C 0.0660(6) 0.3380(3) 0.0997(3)
O4 O -0.0444(4) 0.3756(2) 0.08912(15)
O5 O 0.0704(4) 0.2685(2) 0.10369(18)
C14 C -0.0776(5) 0.2278(2) 0.0969(2)
C15 C -0.1880(17) 0.2464(7) 0.1492(6)
H14 H -0.13550 0.24190 0.18890
H15 H -0.27620 0.21550 0.14810
H16 H -0.22280 0.29370 0.14380
C16 C -0.1535(16) 0.2408(7) 0.0310(6)
H17 H -0.19180 0.28790 0.02880
H18 H -0.23850 0.20890 0.02490
H19 H -0.07680 0.23370 -0.00140
C17 C -0.0183(5) 0.1539(2) 0.1023(2)
H20 H 0.04860 0.14370 0.06710
H21 H -0.10500 0.12210 0.10220
H22 H 0.03930 0.14870 0.14080
C18? C 0.1114(11) 0.2962(6) 0.1185(5)
O6? O 0.1284(7) 0.2358(3) 0.1331(3)
O7? O -0.0154(8) 0.3299(4) 0.0992(4)
C19? C -0.1613(9) 0.2875(4) 0.0891(4)
C20? C -0.123(3) 0.2332(13) 0.0411(12)
H23? H -0.07790 0.25510 0.00480
H24? H -0.21720 0.20930 0.02900
H25? H -0.05080 0.20040 0.05860
C21? C -0.214(4) 0.2549(15) 0.1536(11)
H26? H -0.31870 0.23710 0.14970
H27? H -0.21190 0.29020 0.18580
H28? H -0.14510 0.21750 0.16490
C22? C -0.2750(9) 0.3436(4) 0.0694(4)
H29? H -0.23230 0.36940 0.03460
H30? H -0.29310 0.37470 0.10410
H31? H -0.37170 0.32250 0.05690
#END
