
#######################################################################
#
#                 Cambridge Crystallographic Data Centre
#                                CCDC
#
#######################################################################
#
# If this CIF has been generated from an entry in the Cambridge
# Structural Database, then it will include bibliographic, chemical,
# crystal, experimental, refinement or atomic coordinate data resulting
# from the CCDC's data processing and validation procedures.
#
#######################################################################

data_CSD_CIF_WAHFER
_audit_creation_date 2005-02-22
_audit_creation_method CSD-ConQuest-V1
_database_code_CSD WAHFER
_database_code_depnum_ccdc_archive 'CCDC 255220'
_chemical_formula_sum 'C36 H33 N3 O4'
_chemical_formula_moiety
;
C36 H33 N3 O4
;
_journal_coden_Cambridge 1336
_journal_volume 6
_journal_year 2004
_journal_page_first 3829
_journal_name_full 'Org.Lett. '
loop_
_publ_author_name
"Sung Hee Hwang"
"A.Lehman"
"Xin Cong"
"M.M.Olmstead"
"K.S.Lam"
"C.B.Lebrilla"
"M.J.Kurth"
_chemical_name_systematic
;
7-(Benzylcarbamoyl)-3-phenyl-1-oxa-2,8-diazaspiro(4.5)dec-2-ene-8-carboxylic 
acid 9H-fluorene-9-ylmethyl ester
;
_chemical_melting_point 429.65
_cell_volume   1448.687
_exptl_crystal_colour 'colorless'
_exptl_crystal_density_diffrn 1.311
_exptl_crystal_description 'needle'
_diffrn_ambient_temperature 90
#These two values have been output from a single CSD field.
_refine_ls_R_factor_gt 0.041
_refine_ls_wR_factor_gt 0.041
_symmetry_cell_setting triclinic
_symmetry_space_group_name_H-M 'P -1'
_symmetry_Int_Tables_number 2
loop_
_symmetry_equiv_pos_site_id
_symmetry_equiv_pos_as_xyz
1 x,y,z
2 -x,-y,-z
_cell_length_a 9.2860(11)
_cell_length_b 9.9036(12)
_cell_length_c 17.026(2)
_cell_angle_alpha 86.919(2)
_cell_angle_beta 78.776(2)
_cell_angle_gamma 70.616(2)
_cell_formula_units_Z 2
loop_
_atom_type_symbol
_atom_type_radius_bond
C 0.68
H 0.23
N 0.68
O 0.68
loop_
_atom_site_label
_atom_site_type_symbol
_atom_site_fract_x
_atom_site_fract_y
_atom_site_fract_z
O1 O 0.42152(11) 0.71451(10) 0.40902(5)
O2 O 0.33087(11) 0.53954(10) 0.46686(6)
O3 O -0.06317(11) 1.05599(10) 0.67450(5)
O4 O 0.45946(11) 1.00217(10) 0.59684(5)
N1 N 0.30689(13) 0.73908(12) 0.53708(6)
N2 N -0.08845(14) 1.10614(12) 0.75387(7)
N3 N 0.56528(13) 0.76243(13) 0.58586(7)
H1 H 0.5648(17) 0.6829(16) 0.5666(8)
C1 C 0.56598(16) 0.71056(15) 0.27716(8)
H2 H 0.52420 0.81750 0.28000
C2 C 0.73005(16) 0.65929(14) 0.29381(8)
C3 C 0.78205(17) 0.67514(15) 0.36267(9)
H3 H 0.71070 0.72150 0.40890
C4 C 0.94055(18) 0.62196(15) 0.36284(9)
H4 H 0.97780 0.63150 0.40970
C5 C 1.04524(18) 0.55488(16) 0.2950(1)
H5 H 1.15340 0.52110 0.29570
C6 C 0.99421(18) 0.53681(16) 0.22673(9)
H6 H 1.06610 0.48950 0.18090
C7 C 0.83583(17) 0.58890(15) 0.22605(9)
C8 C 0.74879(17) 0.58889(15) 0.16278(8)
C9 C 0.79803(19) 0.53487(16) 0.08478(9)
H7 H 0.90490 0.48570 0.06490
C10 C 0.6889(2) 0.55388(16) 0.03675(9)
H8 H 0.72140 0.51780 -0.01670
C11 C 0.53219(19) 0.62502(16) 0.06544(9)
H9 H 0.45900 0.63730 0.03150
C12 C 0.48186(18) 0.67830(15) 0.14346(8)
H10 H 0.37460 0.72560 0.16350
C13 C 0.59100(17) 0.66102(14) 0.19136(8)
C14 C 0.45306(16) 0.64960(15) 0.33144(8)
H11 H 0.35580 0.67170 0.31030
H12 H 0.49930 0.54440 0.33480
C15 C 0.35065(15) 0.65522(15) 0.47081(8)
C16 C 0.23442(16) 0.69296(15) 0.61320(8)
H13 H 0.30460 0.67720 0.65220
H14 H 0.21880 0.60100 0.60500
C17 C 0.07864(16) 0.80393(15) 0.64690(8)
H15 H 0.03730 0.77400 0.70060
H16 H 0.00370 0.80960 0.61170
C18 C 0.09487(15) 0.95123(15) 0.65332(8)
C19 C 0.16742(15) 0.99346(14) 0.57206(8)
H17 H 0.18370 1.08610 0.57750
H18 H 0.09440 1.00700 0.53470
C20 C 0.32296(15) 0.88192(14) 0.53639(8)
H19 H 0.34920 0.90730 0.47900
C21 C 0.17295(16) 0.96579(15) 0.72231(8)
H20 H 0.22100 0.87150 0.74560
H21 H 0.25300 1.01220 0.70460
C22 C 0.03862(16) 1.05875(14) 0.78064(8)
C23 C 0.05119(17) 1.09725(14) 0.86052(8)
C24 C -0.08003(18) 1.15423(15) 0.92001(9)
H22 H -0.18050 1.16810 0.90920
C25 C -0.06464(19) 1.19062(16) 0.99444(9)
H23 H -0.15450 1.22840 1.03460
C26 C 0.0806(2) 1.17243(16) 1.01084(9)
H24 H 0.09050 1.19880 1.06190
C27 C 0.21124(19) 1.11582(16) 0.95270(9)
H25 H 0.31130 1.10300 0.96380
C28 C 0.19662(18) 1.07767(16) 0.87816(9)
H26 H 0.28710 1.03770 0.83870
C29 C 0.45440(16) 0.88679(14) 0.57627(8)
C30 C 0.69291(16) 0.76282(16) 0.62339(8)
H27 H 0.73320 0.83970 0.59970
H28 H 0.77810 0.67050 0.61160
C31 C 0.64631(15) 0.78532(15) 0.71324(8)
C32 C 0.57279(17) 0.69982(15) 0.76091(9)
H29 H 0.54770 0.62870 0.73640
C33 C 0.53570(18) 0.71649(16) 0.84321(9)
H30 H 0.48570 0.65700 0.87480
C34 C 0.57145(18) 0.82007(16) 0.87971(9)
H31 H 0.54710 0.83120 0.93630
C35 C 0.64291(17) 0.90703(16) 0.83298(9)
H32 H 0.66710 0.97850 0.85760
C36 C 0.67928(16) 0.89043(15) 0.75055(9)
H33 H 0.72730 0.95140 0.71900
#END
