
#######################################################################
#
#                 Cambridge Crystallographic Data Centre
#                                CCDC
#
#######################################################################
#
# If this CIF has been generated from an entry in the Cambridge
# Structural Database, then it will include bibliographic, chemical,
# crystal, experimental, refinement or atomic coordinate data resulting
# from the CCDC's data processing and validation procedures.
#
#######################################################################

data_CSD_CIF_WAHQEC
_audit_creation_date 2005-02-22
_audit_creation_method CSD-ConQuest-V1
_database_code_CSD WAHQEC
_database_code_depnum_ccdc_archive 'CCDC 240929'
_chemical_formula_sum 'C33 H48 N3 O4'
_chemical_formula_moiety
;
C33 H48 N3 O4
;
_journal_coden_Cambridge 182
_journal_year 2004
_journal_page_first 2310
_journal_name_full 'Chem.Commun. '
loop_
_publ_author_name
"M.Fujino"
"T.Amano"
"H.Akutsu"
"J.Yamada"
"S.Nakatsuji"
_chemical_name_systematic
;
11-(Azobenzene-4-yloxy)undecyl 
2,2,6,6-tetramethylpiperidine-1-oxyl-4-carboxylate radical
;
_cell_volume   3223.092
_exptl_crystal_colour 'orange'
_exptl_crystal_density_diffrn 1.135
_exptl_crystal_description 'plate'
_exptl_crystal_preparation 'hexane/methanol'
_diffrn_ambient_temperature 303.2
#These two values have been output from a single CSD field.
_refine_ls_R_factor_gt 0.056
_refine_ls_wR_factor_gt 0.056
_symmetry_cell_setting monoclinic
_symmetry_space_group_name_H-M 'P 21/n'
_symmetry_Int_Tables_number 14
loop_
_symmetry_equiv_pos_site_id
_symmetry_equiv_pos_as_xyz
1 x,y,z
2 1/2+x,1/2-y,1/2+z
3 -x,-y,-z
4 -1/2-x,-1/2+y,-1/2-z
_cell_length_a 5.973(6)
_cell_length_b 42.691(9)
_cell_length_c 12.856(7)
_cell_angle_alpha 90
_cell_angle_beta 100.52(7)
_cell_angle_gamma 90
_cell_formula_units_Z 4
loop_
_atom_type_symbol
_atom_type_radius_bond
C 0.68
H 0.23
N 0.68
O 0.68
loop_
_atom_site_label
_atom_site_type_symbol
_atom_site_fract_x
_atom_site_fract_y
_atom_site_fract_z
O1 O 0.745(1) -0.0332(2) 1.4519(6)
O2 O -0.986(1) 0.1366(2) 0.6869(6)
O3 O -1.299(1) 0.1127(2) 0.6042(7)
O4 O -1.775(1) 0.2379(2) 0.5309(6)
N1 N 1.408(2) -0.1125(3) 1.770(1)
N2 N 1.226(2) -0.1214(3) 1.7333(9)
N3 N -1.638(1) 0.2153(2) 0.5518(8)
C1 C 1.745(4) -0.1815(4) 1.976(1)
C2 C 1.861(2) -0.1562(5) 1.954(1)
C3 C 1.524(4) -0.1880(4) 1.930(2)
C4 C 1.745(3) -0.1347(4) 1.886(2)
C5 C 1.419(3) -0.1655(5) 1.861(1)
C6 C 1.525(4) -0.1384(4) 1.841(1)
C7 C 1.116(3) -0.0953(3) 1.664(1)
C8 C 1.205(2) -0.0673(3) 1.641(1)
C9 C 0.900(3) -0.1024(3) 1.617(1)
C10 C 1.073(2) -0.0467(2) 1.5702(9)
C11 C 0.761(2) -0.0824(3) 1.545(1)
C12 C 0.853(2) -0.0549(3) 1.523(1)
C13 C 0.524(2) -0.0409(3) 1.4015(8)
C14 C 0.459(2) -0.0110(2) 1.3324(9)
C15 C 0.211(2) -0.0125(2) 1.2653(9)
C16 C 0.151(2) 0.0166(3) 1.1986(9)
C17 C -0.083(2) 0.0180(3) 1.1343(9)
C18 C -0.135(2) 0.0468(3) 1.069(1)
C19 C -0.366(2) 0.0490(3) 1.0073(9)
C20 C -0.419(2) 0.0782(3) 0.942(1)
C21 C -0.643(2) 0.0797(2) 0.8746(9)
C22 C -0.709(2) 0.1091(3) 0.8087(9)
C23 C -0.920(2) 0.1071(3) 0.732(1)
C24 C -1.189(2) 0.1360(3) 0.6270(9)
C25 C -1.276(2) 0.1690(2) 0.5921(9)
C26 C -1.385(2) 0.1818(3) 0.6818(8)
C27 C -1.462(2) 0.1678(2) 0.4929(8)
C28 C -1.497(2) 0.2138(3) 0.6575(9)
C29 C -1.571(2) 0.1992(3) 0.462(1)
C30 C -1.313(2) 0.2394(2) 0.6686(8)
C31 C -1.644(2) 0.2212(3) 0.7383(9)
C32 C -1.784(2) 0.1928(2) 0.3788(8)
C33 C -1.414(2) 0.2186(2) 0.4107(8)
H1 H 1.82040 -0.20100 2.01480
H2 H 2.03350 -0.15160 1.99890
H3 H 1.42060 -0.20450 1.94110
H4 H 1.83070 -0.11340 1.87800
H5 H 1.24990 -0.16660 1.81900
H6 H 1.34690 -0.05420 1.66020
H7 H 0.84150 -0.12410 1.63900
H8 H 1.10480 -0.02490 1.54820
H9 H 0.60000 -0.09060 1.51320
H10 H 0.49070 -0.04440 1.31850
H11 H 0.36930 -0.03420 1.40980
H12 H 0.38340 0.00760 1.36290
H13 H 0.48350 -0.00510 1.26800
H14 H 0.16520 -0.02780 1.21410
H15 H 0.07140 -0.01040 1.30290
H16 H 0.16470 0.03740 1.23370
H17 H 0.25080 0.01960 1.14340
H18 H -0.12400 -0.00160 1.08220
H19 H -0.21150 0.01320 1.17730
H20 H -0.10110 0.06460 1.12550
H21 H -0.00770 0.04990 1.03160
H22 H -0.38180 0.03040 0.96060
H23 H -0.47400 0.04610 1.05320
H24 H -0.38510 0.09640 0.99180
H25 H -0.29180 0.08090 0.89940
H26 H -0.66440 0.06130 0.82930
H27 H -0.75750 0.07700 0.92150
H28 H -0.69470 0.12770 0.85630
H29 H -0.56650 0.11370 0.77250
H30 H -1.01070 0.09610 0.78180
H31 H -0.88380 0.08890 0.68950
H32 H -1.15970 0.18340 0.57090
H33 H -1.51450 0.16850 0.69130
H34 H -1.27660 0.17980 0.74820
H35 H -1.39320 0.15470 0.43260
H36 H -1.57530 0.15100 0.50370
H37 H -1.25470 0.24910 0.74340
H38 H -1.17140 0.23550 0.64540
H39 H -1.37080 0.25930 0.63070
H40 H -1.58590 0.22050 0.81400
H41 H -1.71370 0.24310 0.72890
H42 H -1.77490 0.20770 0.72520
H43 H -1.91850 0.19200 0.41700
H44 H -1.82900 0.21070 0.32960
H45 H -1.80890 0.17450 0.33320
H46 H -1.31020 0.23190 0.46060
H47 H -1.29160 0.20870 0.36960
H48 H -1.48380 0.23370 0.35520
#END
