
#######################################################################
#
#                 Cambridge Crystallographic Data Centre
#                                CCDC
#
#######################################################################
#
# If this CIF has been generated from an entry in the Cambridge
# Structural Database, then it will include bibliographic, chemical,
# crystal, experimental, refinement or atomic coordinate data resulting
# from the CCDC's data processing and validation procedures.
#
#######################################################################

data_CSD_CIF_WAJBAK
_audit_creation_date 1993-12-06
_audit_creation_method CSD-ConQuest-V1
_database_code_CSD WAJBAK
_chemical_formula_sum 'C15 H19 N1 O3'
_chemical_formula_moiety
;
C15 H19 N1 O3
;
_journal_coden_Cambridge 582
_journal_volume 23
_journal_year 1993
_journal_page_first 143
_journal_name_full 'J.Crystallogr.Spectrosc.Res. '
loop_
_publ_author_name
"M.Ul-Haque"
"W.Horne"
"Sk.A.Ali"
_chemical_name_systematic
;
trans-Methyl 2-phenylhexahydro-2H-isoxazolo(2,3-a)pyridine-3-carboxylate
;
_cell_volume   1417.895
_exptl_special_details
;
dx reported as 1.25; we calculate 1.22

;
_diffrn_ambient_temperature ?
_diffrn_special_details
;
The study was carried out at room temperature,in the range 283-303K

;
#These two values have been output from a single CSD field.
_refine_ls_R_factor_gt 0.038
_refine_ls_wR_factor_gt 0.038
_symmetry_cell_setting monoclinic
_symmetry_space_group_name_H-M 'P 21/c'
_symmetry_Int_Tables_number 14
loop_
_symmetry_equiv_pos_site_id
_symmetry_equiv_pos_as_xyz
1 x,y,z
2 -x,1/2+y,1/2-z
3 -x,-y,-z
4 x,-1/2-y,-1/2+z
_cell_length_a 8.199(3)
_cell_length_b 16.908(1)
_cell_length_c 10.248(2)
_cell_angle_alpha 90
_cell_angle_beta 93.58(2)
_cell_angle_gamma 90
_cell_formula_units_Z 4
loop_
_atom_type_symbol
_atom_type_radius_bond
C 0.68
H 0.23
N 0.68
O 0.68
loop_
_atom_site_label
_atom_site_type_symbol
_atom_site_fract_x
_atom_site_fract_y
_atom_site_fract_z
N1 N 0.2524(2) 0.2038(1) 0.1836(2)
O1 O 0.3517(2) 0.1330(1) 0.2041(2)
C1 C 0.5121(2) 0.1667(1) 0.2295(2)
C2 C 0.5163(2) 0.2393(1) 0.1383(2)
C3 C 0.3387(2) 0.2444(1) 0.0823(2)
C4 C 0.2566(3) 0.3234(1) 0.0564(3)
C5 C 0.0791(3) 0.3086(2) 0.0126(3)
C6 C -0.0061(3) 0.2547(2) 0.1043(3)
C7 C 0.0904(3) 0.1797(2) 0.1332(3)
C8 C 0.5737(2) 0.3125(1) 0.2098(2)
O2 O 0.5823(3) 0.3216(1) 0.3249(1)
O3 O 0.6146(2) 0.3693(1) 0.1279(1)
C9 C 0.6566(4) 0.4451(1) 0.1848(3)
C10 C 0.6351(2) 0.1030(1) 0.2109(2)
C11 C 0.7382(2) 0.0785(1) 0.3143(2)
C12 C 0.8495(3) 0.0184(1) 0.2985(3)
C13 C 0.8589(3) -0.0178(1) 0.1802(3)
C14 C 0.7574(3) 0.0064(1) 0.0759(2)
C15 C 0.6466(3) 0.0664(1) 0.0912(2)
H1 H 0.524(2) 0.187(1) 0.318(2)
H2 H 0.589(2) 0.231(1) 0.072(2)
H3 H 0.332(2) 0.214(1) -0.001(2)
H4 H 0.308(3) 0.352(2) -0.012(2)
H5 H 0.264(3) 0.355(1) 0.137(2)
H6 H 0.028(4) 0.356(2) -0.004(3)
H7 H 0.075(4) 0.283(2) -0.071(3)
H8 H -0.018(3) 0.281(2) 0.189(3)
H9 H -0.110(4) 0.238(2) 0.057(3)
H10 H 0.094(3) 0.149(2) 0.056(3)
H11 H 0.049(3) 0.146(2) 0.204(3)
H12 H 0.68700 0.48600 0.10900
H13 H 0.76000 0.43900 0.25400
H14 H 0.55400 0.46800 0.23400
H15 H 0.733(3) 0.104(1) 0.393(2)
H16 H 0.921(3) 0.004(2) 0.376(2)
H17 H 0.934(3) -0.063(2) 0.169(2)
H18 H 0.766(3) -0.019(1) -0.007(2)
H19 H 0.572(3) 0.084(1) 0.021(2)
#END
