
#######################################################################
#
#                 Cambridge Crystallographic Data Centre
#                                CCDC
#
#######################################################################
#
# If this CIF has been generated from an entry in the Cambridge
# Structural Database, then it will include bibliographic, chemical,
# crystal, experimental, refinement or atomic coordinate data resulting
# from the CCDC's data processing and validation procedures.
#
#######################################################################

data_CSD_CIF_WAJWUA
_audit_creation_date 2005-02-22
_audit_creation_method CSD-ConQuest-V1
_database_code_CSD WAJWUA
_database_code_depnum_ccdc_archive 'CCDC 259103'
_chemical_formula_sum 'C18 H16 N4 O3'
_chemical_formula_moiety
;
C18 H16 N4 O3
;
_journal_coeditor_code "IUCr CI6472"
_journal_coden_Cambridge 1370
_journal_volume 60
_journal_year 2004
_journal_page_first o2199
_journal_name_full 'Acta Crystallogr.,Sect.E:Struct.Rep.Online '
loop_
_publ_author_name
"Zong-Xiao Li"
"Xin-Li Zhang"
_chemical_name_systematic
;
1,5-Dimethyl-4-((4-nitrobenzylidene)amino)-2-phenyl-2,3-dihydro-1H-pyrazol-3-o
ne
;
_cell_volume    809.108
_exptl_crystal_colour 'yellow'
_exptl_crystal_density_diffrn 1.38
_exptl_special_details
;
potential biological activity

;
_exptl_crystal_description 'block'
_exptl_crystal_preparation 'methanol'
_diffrn_ambient_temperature 298
#These two values have been output from a single CSD field.
_refine_ls_R_factor_gt 0.0836
_refine_ls_wR_factor_gt 0.0836
_symmetry_cell_setting triclinic
_symmetry_space_group_name_H-M 'P -1'
_symmetry_Int_Tables_number 2
loop_
_symmetry_equiv_pos_site_id
_symmetry_equiv_pos_as_xyz
1 x,y,z
2 -x,-y,-z
_cell_length_a 7.003(2)
_cell_length_b 9.537(4)
_cell_length_c 12.540(3)
_cell_angle_alpha 100.3970(15)
_cell_angle_beta 98.8080(15)
_cell_angle_gamma 94.5490(15)
_cell_formula_units_Z 2
loop_
_atom_type_symbol
_atom_type_radius_bond
C 0.68
H 0.23
N 0.68
O 0.68
loop_
_atom_site_label
_atom_site_type_symbol
_atom_site_fract_x
_atom_site_fract_y
_atom_site_fract_z
N1 N 0.4885(7) 0.1496(5) 0.7237(4)
N2 N 0.6399(7) 0.0907(5) 0.6722(4)
N3 N 0.4633(7) 0.2816(5) 0.4708(4)
N4 N 0.1928(10) 0.5936(6) 0.0693(5)
O1 O 0.2355(6) 0.2768(4) 0.6678(3)
O2 O 0.0547(8) 0.6638(5) 0.0565(4)
O3 O 0.3033(8) 0.5720(6) 0.0033(4)
C1 C 0.3885(10) 0.2269(6) 0.6500(5)
C2 C 0.4982(8) 0.2224(6) 0.5644(5)
C3 C 0.6510(9) 0.1461(6) 0.5837(5)
C4 C 0.8086(9) 0.1195(7) 0.5199(5)
H1 H 0.89140 0.20720 0.52740
H2 H 0.75400 0.08500 0.44370
H3 H 0.88320 0.04910 0.54680
C5 C 0.7977(10) 0.0419(7) 0.7423(5)
H4 H 0.85740 -0.02950 0.69840
H5 H 0.74640 0.00140 0.79820
H6 H 0.89300 0.12180 0.77630
C6 C 0.3163(9) 0.3549(6) 0.4527(4)
H7 H 0.23290 0.37000 0.50370
C7 C 0.2825(10) 0.4133(6) 0.3528(4)
C8 C 0.4187(10) 0.4107(7) 0.2834(5)
H8 H 0.53390 0.37110 0.30080
C9 C 0.3856(10) 0.4662(7) 0.1889(5)
H9 H 0.47470 0.45990 0.14080
C10 C 0.2211(10) 0.5301(6) 0.1668(5)
C11 C 0.0843(10) 0.5359(6) 0.2342(5)
H10 H -0.02990 0.57660 0.21660
C12 C 0.1182(10) 0.4810(7) 0.3278(5)
H11 H 0.02910 0.48930 0.37590
C13 C 0.4010(8) 0.0799(7) 0.7964(5)
C14 C 0.3738(10) -0.0652(8) 0.7824(5)
H12 H 0.41620 -0.11980 0.72300
C15 C 0.2867(11) -0.1347(8) 0.8517(6)
H13 H 0.27130 -0.23430 0.84070
C16 C 0.2229(11) -0.0528(10) 0.9377(6)
H14 H 0.16130 -0.09730 0.98530
C17 C 0.2487(10) 0.0945(9) 0.9548(5)
H15 H 0.20590 0.14920 1.01390
C18 C 0.3387(9) 0.1607(7) 0.8834(5)
H16 H 0.35680 0.26020 0.89450
#END
