
#######################################################################
#
#                 Cambridge Crystallographic Data Centre
#                                CCDC
#
#######################################################################
#
# If this CIF has been generated from an entry in the Cambridge
# Structural Database, then it will include bibliographic, chemical,
# crystal, experimental, refinement or atomic coordinate data resulting
# from the CCDC's data processing and validation procedures.
#
#######################################################################

data_CSD_CIF_WAJXEM
_audit_creation_date 2011-04-07
_audit_creation_method CSD-ConQuest-V1
_database_code_CSD WAJXEM
_database_code_depnum_ccdc_archive 'CCDC 735632'
_chemical_formula_sum 'C12 H8 N4 O3'
_chemical_formula_moiety
;
C12 H8 N4 O3
;
_journal_coden_Cambridge 1350
_journal_volume 12
_journal_year 2010
_journal_page_first 4287
_journal_name_full 'CrystEngComm '
loop_
_publ_author_name
"Gui-Ge Hou"
"Jian-Ping Ma"
"Le Wang"
"Ping Wang"
"Yu-Bin Dong"
"Ru-Qi Huang"
_chemical_name_systematic
;
4,4'-(1,3,4-Oxadiazole-2,5-diylidene)dipyridin-1(4H)-ol
;
_cell_volume   1110.063
_exptl_crystal_colour 'yellow'
_exptl_crystal_density_diffrn 1.533
_exptl_crystal_description 'block'
_diffrn_ambient_temperature 298
#These two values have been output from a single CSD field.
_refine_ls_R_factor_gt 0.0547
_refine_ls_wR_factor_gt 0.0547
_symmetry_cell_setting orthorhombic
_symmetry_space_group_name_H-M 'P b c n'
_symmetry_Int_Tables_number 60
loop_
_symmetry_equiv_pos_site_id
_symmetry_equiv_pos_as_xyz
1 x,y,z
2 1/2-x,1/2-y,1/2+z
3 -x,y,1/2-z
4 1/2+x,1/2-y,-z
5 -x,-y,-z
6 -1/2+x,-1/2+y,-1/2-z
7 x,-y,-1/2+z
8 -1/2-x,-1/2+y,z
_cell_length_a 5.5420(17)
_cell_length_b 12.465(4)
_cell_length_c 16.069(5)
_cell_angle_alpha 90
_cell_angle_beta 90
_cell_angle_gamma 90
_cell_formula_units_Z 4
loop_
_atom_type_symbol
_atom_type_radius_bond
C 0.68
H 0.23
N 0.68
O 0.68
loop_
_atom_site_label
_atom_site_type_symbol
_atom_site_fract_x
_atom_site_fract_y
_atom_site_fract_z
C1 C 0.6953(5) 1.0077(2) 0.42568(16)
H1 H 0.80630 1.05270 0.45140
C2 C 0.5117(5) 1.0505(2) 0.38046(15)
H2 H 0.49840 1.12460 0.37560
C3 C 0.3430(4) 0.98435(18) 0.34127(15)
C4 C 0.1516(5) 1.02901(18) 0.29127(15)
C5 C 0.3682(5) 0.8749(2) 0.35158(17)
H3 H 0.25800 0.82860 0.32680
C6 C 0.5540(5) 0.8338(2) 0.39802(16)
H4 H 0.56690 0.75990 0.40510
N1 N 0.0994(4) 1.12810(15) 0.27676(13)
N2 N 0.7182(4) 0.89912(18) 0.43359(14)
O1 O 0.00000 0.96033(17) 0.25000
O2 O 0.8947(4) 0.85867(16) 0.47622(13)
C1B C -0.6953(5) 1.0077(2) 0.07432(16)
H1B H -0.80630 1.05270 0.04860
C2B C -0.5117(5) 1.0505(2) 0.11954(15)
H2B H -0.49840 1.12460 0.12440
C3B C -0.3430(4) 0.98435(18) 0.15873(15)
C4B C -0.1516(5) 1.02901(18) 0.20873(15)
C5B C -0.3682(5) 0.8749(2) 0.14842(17)
H3B H -0.25800 0.82860 0.17320
C6B C -0.5540(5) 0.8338(2) 0.10198(16)
H4B H -0.56690 0.75990 0.09490
N1B N -0.0994(4) 1.12810(15) 0.22324(13)
N2B N -0.7182(4) 0.89912(18) 0.06641(14)
O2B O -0.8947(4) 0.85867(16) 0.02378(13)
#END
