
#######################################################################
#
#                 Cambridge Crystallographic Data Centre
#                                CCDC
#
#######################################################################
#
# If this CIF has been generated from an entry in the Cambridge
# Structural Database, then it will include bibliographic, chemical,
# crystal, experimental, refinement or atomic coordinate data resulting
# from the CCDC's data processing and validation procedures.
#
#######################################################################

data_CSD_CIF_WAKDIW
_audit_creation_date 2005-02-22
_audit_creation_method CSD-ConQuest-V1
_database_code_CSD WAKDIW
_database_code_depnum_ccdc_archive 'CCDC 259851'
_chemical_formula_sum 'C16 H14 N4 O4'
_chemical_formula_moiety
;
C16 H14 N4 O4
;
_journal_coeditor_code "IUCr CV6406"
_journal_coden_Cambridge 1370
_journal_volume 60
_journal_year 2004
_journal_page_first o2473
_journal_name_full 'Acta Crystallogr.,Sect.E:Struct.Rep.Online '
loop_
_publ_author_name
"Shang Shan"
"Zheng Fan"
"Wei-Xiao Hu"
"Duan-Jun Xu"
_chemical_name_systematic
;
Benzylideneacetone 2,4-dinitrophenylhydrazone
;
_cell_volume   1556.948
_exptl_crystal_colour 'red'
_exptl_crystal_density_diffrn 1.392
_exptl_crystal_description 'prism'
_exptl_crystal_preparation 'acetone/ethyl acetate'
_diffrn_ambient_temperature 295
#These two values have been output from a single CSD field.
_refine_ls_R_factor_gt 0.048
_refine_ls_wR_factor_gt 0.048
_symmetry_cell_setting monoclinic
_symmetry_space_group_name_H-M 'P 21/n'
_symmetry_Int_Tables_number 14
loop_
_symmetry_equiv_pos_site_id
_symmetry_equiv_pos_as_xyz
1 x,y,z
2 1/2+x,1/2-y,1/2+z
3 -x,-y,-z
4 -1/2-x,-1/2+y,-1/2-z
_cell_length_a 7.3916(3)
_cell_length_b 15.7043(7)
_cell_length_c 13.7350(5)
_cell_angle_alpha 90
_cell_angle_beta 102.4362(13)
_cell_angle_gamma 90
_cell_formula_units_Z 4
loop_
_atom_type_symbol
_atom_type_radius_bond
C 0.68
H 0.23
N 0.68
O 0.68
loop_
_atom_site_label
_atom_site_type_symbol
_atom_site_fract_x
_atom_site_fract_y
_atom_site_fract_z
O1 O 0.8927(3) -0.0316(1) 0.64656(12)
O2 O 0.8462(2) -0.07379(9) 0.49397(12)
O3 O 0.3529(3) 0.20670(11) 0.26326(11)
O4 O 0.4949(3) 0.09308(11) 0.23551(10)
N1 N 0.4114(2) 0.27207(10) 0.44203(11)
H1 H 0.35840 0.28030 0.38060
N2 N 0.3922(2) 0.3320(1) 0.51249(11)
N3 N 0.4550(2) 0.14594(11) 0.29266(12)
N4 N 0.8279(2) -0.02150(11) 0.55723(13)
C1 C 0.5112(2) 0.20133(11) 0.46779(13)
C2 C 0.5347(2) 0.13764(11) 0.39821(12)
C3 C 0.6394(2) 0.06561(11) 0.42742(13)
H2 H 0.65290 0.02450 0.38080
C4 C 0.7229(2) 0.05550(11) 0.52572(13)
C5 C 0.7077(3) 0.11756(13) 0.59574(13)
H3 H 0.76780 0.11040 0.66200
C6 C 0.6052(3) 0.18852(12) 0.56755(13)
H4 H 0.59680 0.22970 0.61500
C7 C 0.3195(2) 0.40353(12) 0.47725(13)
C8 C 0.2647(3) 0.42339(13) 0.36789(14)
H5 H 0.36600 0.41050 0.33680
H6 H 0.23400 0.48270 0.35910
H7 H 0.15910 0.38960 0.33790
C9 C 0.2960(3) 0.46611(12) 0.55142(14)
H8 H 0.33310 0.45070 0.61810
C10 C 0.2256(2) 0.54362(12) 0.53139(14)
H9 H 0.18750 0.55710 0.46420
C11 C 0.2003(2) 0.61030(11) 0.60129(14)
C12 C 0.2618(3) 0.60357(13) 0.70443(15)
H10 H 0.32070 0.55400 0.73170
C13 C 0.2362(3) 0.66937(15) 0.76623(17)
H11 H 0.27940 0.66420 0.83480
C14 C 0.1472(3) 0.74283(14) 0.7274(2)
H12 H 0.12940 0.78690 0.76960
C15 C 0.0850(3) 0.75077(13) 0.6267(2)
H13 H 0.02440 0.80020 0.60030
C16 C 0.1121(3) 0.68547(12) 0.56412(17)
H14 H 0.07050 0.69180 0.49560
#END
