
#######################################################################
#
#                 Cambridge Crystallographic Data Centre
#                                CCDC
#
#######################################################################
#
# If this CIF has been generated from an entry in the Cambridge
# Structural Database, then it will include bibliographic, chemical,
# crystal, experimental, refinement or atomic coordinate data resulting
# from the CCDC's data processing and validation procedures.
#
#######################################################################

data_CSD_CIF_WAKPEE
_audit_creation_date 2005-02-22
_audit_creation_method CSD-ConQuest-V1
_database_code_CSD WAKPEE
_database_code_depnum_ccdc_archive 'CCDC 252024'
_chemical_formula_sum 'C7 H9 N7 O3'
_chemical_formula_moiety
;
C7 H9 N7 O3
;
_journal_coden_Cambridge 95
_journal_year 2004
_journal_page_first 569
_journal_name_full 'Izv.Akad.Nauk SSSR,Ser.Khim.(Russ.)(Russ.Chem.Bull.) '
loop_
_publ_author_name
"A.B.Sheremetev"
"V.G.Andrianov"
"E.V.Mantseva"
"E.V.Shatunova"
"N.S.Aleksandrova"
"I.L.Yudin"
"D.E.Dmitriev"
"B.B.Averkiev"
"M.Yu.Antipin"
_chemical_name_systematic
;
5-(4-(Morpholin-4-yl)-1,2,5-oxadiazol-3-yl)-1-hydroxy-1H-tetrazole
;
_chemical_melting_point 489.15
_cell_volume   1005.741
_exptl_crystal_colour 'colorless'
_exptl_crystal_density_diffrn 1.58
_exptl_special_details
;
Melting point range 489.15-491.15K

;
_exptl_crystal_description 'prism'
_diffrn_ambient_temperature 110
#These two values have been output from a single CSD field.
_refine_ls_R_factor_gt 0.0616
_refine_ls_wR_factor_gt 0.0616
_symmetry_cell_setting monoclinic
_symmetry_space_group_name_H-M 'P 21/c'
_symmetry_Int_Tables_number 14
loop_
_symmetry_equiv_pos_site_id
_symmetry_equiv_pos_as_xyz
1 x,y,z
2 x,1/2-y,1/2+z
3 -x,-y,-z
4 -x,-1/2+y,-1/2-z
_cell_length_a 7.320(1)
_cell_length_b 20.320(2)
_cell_length_c 6.785(1)
_cell_angle_alpha 90
_cell_angle_beta 94.757(3)
_cell_angle_gamma 90
_cell_formula_units_Z 4
loop_
_atom_type_symbol
_atom_type_radius_bond
C 0.68
H 0.23
N 0.68
O 0.68
loop_
_atom_site_label
_atom_site_type_symbol
_atom_site_fract_x
_atom_site_fract_y
_atom_site_fract_z
O1 O 0.09001(19) 0.62911(8) 0.8664(2)
H1 H 0.042(4) 0.6276(16) 0.724(5)
N1 N 0.2221(2) 0.67585(8) 0.8927(3)
N2 N 0.1806(3) 0.73864(9) 0.9286(3)
N3 N 0.3377(3) 0.76819(9) 0.9637(3)
N4 N 0.4791(3) 0.72518(9) 0.9545(3)
C1 C 0.4027(3) 0.66775(10) 0.9093(3)
C2 C 0.4979(3) 0.60597(10) 0.8771(3)
N5 N 0.4450(2) 0.56977(8) 0.7243(3)
O2 O 0.56522(19) 0.51810(7) 0.7273(2)
N6 N 0.6940(2) 0.52197(8) 0.8908(3)
C3 C 0.6544(3) 0.57615(10) 0.9831(3)
N7 N 0.7583(2) 0.59871(8) 1.1469(2)
C4 C 0.6644(3) 0.62700(11) 1.3110(3)
H2 H 0.565(3) 0.6581(12) 1.261(3)
H3 H 0.607(3) 0.5910(12) 1.393(4)
C5 C 0.8014(3) 0.66466(11) 1.4462(3)
H4 H 0.744(3) 0.6831(10) 1.561(3)
H5 H 0.856(3) 0.7012(11) 1.370(4)
O3 O 0.94954(19) 0.62182(7) 1.5162(2)
C6 C 1.0438(3) 0.59653(12) 1.3547(3)
H6 H 1.091(3) 0.6304(13) 1.282(4)
H7 H 1.146(3) 0.5673(12) 1.412(4)
C7 C 0.9142(3) 0.55696(11) 1.2170(3)
H8 H 0.980(3) 0.5423(10) 1.104(3)
H9 H 0.863(3) 0.5178(13) 1.277(4)
#END
