
#######################################################################
#
#                 Cambridge Crystallographic Data Centre
#                                CCDC
#
#######################################################################
#
# If this CIF has been generated from an entry in the Cambridge
# Structural Database, then it will include bibliographic, chemical,
# crystal, experimental, refinement or atomic coordinate data resulting
# from the CCDC's data processing and validation procedures.
#
#######################################################################

data_CSD_CIF_WAKPII
_audit_creation_date 2005-02-22
_audit_creation_method CSD-ConQuest-V1
_database_code_CSD WAKPII
_database_code_depnum_ccdc_archive 'CCDC 252025'
_chemical_formula_sum 'C12 H14 N4 O5'
_chemical_formula_moiety
;
C12 H14 N4 O5
;
_journal_coden_Cambridge 95
_journal_year 2004
_journal_page_first 569
_journal_name_full 'Izv.Akad.Nauk SSSR,Ser.Khim.(Russ.)(Russ.Chem.Bull.) '
loop_
_publ_author_name
"A.B.Sheremetev"
"V.G.Andrianov"
"E.V.Mantseva"
"E.V.Shatunova"
"N.S.Aleksandrova"
"I.L.Yudin"
"D.E.Dmitriev"
"B.B.Averkiev"
"M.Yu.Antipin"
_chemical_name_systematic
;
Ethyl 3-(4-(morpholin-4-yl)-1,2,5-oxadiazol-3-yl)isoxazole-5-carboxylate
;
_chemical_melting_point 403.15
_cell_volume   2633.879
_exptl_crystal_colour 'colorless'
_exptl_crystal_density_diffrn 1.484
_exptl_special_details
;
Melting point range 403.15-405.15K

;
_exptl_crystal_description 'plate'
_diffrn_ambient_temperature 110
#These two values have been output from a single CSD field.
_refine_ls_R_factor_gt 0.0477
_refine_ls_wR_factor_gt 0.0477
_symmetry_cell_setting monoclinic
_symmetry_space_group_name_H-M 'C 2/c'
_symmetry_Int_Tables_number 15
loop_
_symmetry_equiv_pos_site_id
_symmetry_equiv_pos_as_xyz
1 x,y,z
2 1/2+x,1/2+y,z
3 x,-y,1/2+z
4 1/2+x,1/2-y,1/2+z
5 -x,-y,-z
6 -1/2-x,-1/2-y,-z
7 -x,y,-1/2-z
8 -1/2-x,-1/2+y,-1/2-z
_cell_length_a 11.073(3)
_cell_length_b 9.822(2)
_cell_length_c 24.417(5)
_cell_angle_alpha 90
_cell_angle_beta 97.328(6)
_cell_angle_gamma 90
_cell_formula_units_Z 8
loop_
_atom_type_symbol
_atom_type_radius_bond
C 0.68
H 0.23
N 0.68
O 0.68
loop_
_atom_site_label
_atom_site_type_symbol
_atom_site_fract_x
_atom_site_fract_y
_atom_site_fract_z
N1 N -0.26541(12) 0.47602(15) 0.57541(5)
C1 C -0.13631(16) 0.51524(19) 0.58159(7)
H1 H -0.1066(17) 0.525(2) 0.5453(8)
H2 H -0.0882(16) 0.445(2) 0.6033(7)
C2 C -0.12217(18) 0.65031(19) 0.61020(7)
H3 H -0.1483(15) 0.6463(17) 0.6471(7)
H4 H -0.0344(19) 0.681(2) 0.6137(7)
O1 O -0.19202(11) 0.75285(13) 0.57917(5)
C3 C -0.31769(17) 0.7172(2) 0.57253(8)
H5 H -0.3462(17) 0.714(2) 0.6091(8)
H6 H -0.3559(17) 0.789(2) 0.5532(8)
C4 C -0.34112(17) 0.58110(19) 0.54434(7)
H7 H -0.3217(15) 0.5858(17) 0.5068(6)
H8 H -0.430(2) 0.559(2) 0.5449(8)
C5 C -0.29871(15) 0.34523(18) 0.56162(6)
N2 N -0.39601(12) 0.31961(16) 0.52639(5)
O2 O -0.40854(11) 0.17832(13) 0.52519(4)
N3 N -0.31658(13) 0.11783(15) 0.55953(5)
C6 C -0.24832(15) 0.21612(18) 0.58228(6)
C7 C -0.14332(15) 0.17478(18) 0.62156(6)
N4 N -0.08622(13) 0.26056(16) 0.65718(5)
O3 O 0.00566(10) 0.18531(13) 0.68767(4)
C8 C -0.00138(16) 0.05584(18) 0.66873(6)
C9 C -0.09327(16) 0.04209(19) 0.62735(7)
H9 H -0.1135(17) -0.037(2) 0.6091(8)
C10 C 0.08859(16) -0.0444(2) 0.69446(6)
O4 O 0.08528(13) -0.16161(15) 0.68111(6)
O5 O 0.16998(11) 0.01256(13) 0.73186(4)
C11 C 0.26343(18) -0.0790(2) 0.75942(8)
H10 H 0.2153(19) -0.139(2) 0.7841(8)
H11 H 0.296(2) -0.130(2) 0.7305(9)
C12 C 0.35866(19) 0.0090(2) 0.79015(9)
H12 H 0.423(2) -0.054(3) 0.8083(9)
H13 H 0.327(2) 0.065(3) 0.8162(9)
H14 H 0.394(2) 0.069(3) 0.7627(9)
#END
