
#######################################################################
#
#                 Cambridge Crystallographic Data Centre
#                                CCDC
#
#######################################################################
#
# If this CIF has been generated from an entry in the Cambridge
# Structural Database, then it will include bibliographic, chemical,
# crystal, experimental, refinement or atomic coordinate data resulting
# from the CCDC's data processing and validation procedures.
#
#######################################################################

data_CSD_CIF_WAKPAA
_audit_creation_date 2005-02-22
_audit_creation_method CSD-ConQuest-V1
_database_code_CSD WAKPAA
_database_code_depnum_ccdc_archive 'CCDC 252023'
_chemical_formula_sum 'C11 H11 N7 O4'
_chemical_formula_moiety
;
C11 H11 N7 O4
;
_journal_coden_Cambridge 95
_journal_year 2004
_journal_page_first 569
_journal_name_full 'Izv.Akad.Nauk SSSR,Ser.Khim.(Russ.)(Russ.Chem.Bull.) '
loop_
_publ_author_name
"A.B.Sheremetev"
"V.G.Andrianov"
"E.V.Mantseva"
"E.V.Shatunova"
"N.S.Aleksandrova"
"I.L.Yudin"
"D.E.Dmitriev"
"B.B.Averkiev"
"M.Yu.Antipin"
_chemical_name_systematic
;
4-(4-(5-(4-Methyl-1,2,5-oxadiazol-3-yl)-1,2,4-oxadiazol-3-yl)-1,2,5-oxadiazol-
3-yl)morpholine
;
_chemical_melting_point 374.15
_cell_volume   1306.297
_exptl_crystal_colour 'colorless'
_exptl_crystal_density_diffrn 1.552
_exptl_special_details
;
Melting point range 374.15-376.15K

;
_exptl_crystal_description 'plate'
_diffrn_ambient_temperature 110
#These two values have been output from a single CSD field.
_refine_ls_R_factor_gt 0.0581
_refine_ls_wR_factor_gt 0.0581
_symmetry_cell_setting monoclinic
_symmetry_space_group_name_H-M 'P 21/c'
_symmetry_Int_Tables_number 14
loop_
_symmetry_equiv_pos_site_id
_symmetry_equiv_pos_as_xyz
1 x,y,z
2 x,1/2-y,1/2+z
3 -x,-y,-z
4 -x,-1/2+y,-1/2-z
_cell_length_a 22.69(2)
_cell_length_b 7.261(5)
_cell_length_c 7.931(6)
_cell_angle_alpha 90
_cell_angle_beta 91.33(1)
_cell_angle_gamma 90
_cell_formula_units_Z 4
loop_
_atom_type_symbol
_atom_type_radius_bond
C 0.68
H 0.23
N 0.68
O 0.68
loop_
_atom_site_label
_atom_site_type_symbol
_atom_site_fract_x
_atom_site_fract_y
_atom_site_fract_z
N1 N 0.36564(6) 0.95489(18) 0.22798(16)
C1 C 0.34994(8) 1.1169(2) 0.3306(2)
H1 H 0.3121(8) 1.172(2) 0.285(2)
H2 H 0.3433(7) 1.073(2) 0.450(2)
C2 C 0.39926(8) 1.2558(2) 0.3255(2)
H3 H 0.3903(8) 1.359(3) 0.399(2)
H4 H 0.4031(8) 1.303(2) 0.207(2)
O1 O 0.45378(5) 1.17903(16) 0.38465(14)
C3 C 0.46880(8) 1.0255(3) 0.2814(2)
H5 H 0.5051(8) 0.977(3) 0.329(2)
H6 H 0.4725(8) 1.069(3) 0.164(3)
C4 C 0.42269(8) 0.8785(3) 0.2842(2)
H7 H 0.4346(8) 0.777(2) 0.209(2)
H8 H 0.4166(9) 0.817(3) 0.400(3)
C5 C 0.32208(7) 0.8245(2) 0.20367(19)
N2 N 0.33063(7) 0.6510(2) 0.24353(18)
O2 O 0.28058(5) 0.55810(17) 0.18693(15)
N3 N 0.24062(7) 0.6768(2) 0.11438(18)
C6 C 0.26450(7) 0.8398(2) 0.12254(19)
C7 C 0.23356(7) 0.9924(2) 0.0425(2)
N4 N 0.25288(6) 1.1609(2) 0.04784(18)
O3 O 0.21097(5) 1.25747(16) -0.05149(15)
C8 C 0.17163(7) 1.1316(2) -0.1040(2)
N5 N 0.18211(6) 0.9663(2) -0.05078(16)
C9 C 0.12242(8) 1.1914(3) -0.2114(2)
N6 N 0.11056(7) 1.3657(2) -0.23179(19)
O4 O 0.06176(6) 1.36953(19) -0.33560(17)
N7 N 0.04421(7) 1.1908(3) -0.37954(19)
C10 C 0.08135(7) 1.0806(3) -0.3042(2)
C11 C 0.07888(10) 0.8773(3) -0.3231(3)
H9 H 0.0745(9) 0.820(3) -0.212(3)
H10 H 0.1144(11) 0.839(3) -0.372(3)
H11 H 0.0449(10) 0.846(3) -0.386(3)
#END
