
#######################################################################
#
#                 Cambridge Crystallographic Data Centre
#                                CCDC
#
#######################################################################
#
# If this CIF has been generated from an entry in the Cambridge
# Structural Database, then it will include bibliographic, chemical,
# crystal, experimental, refinement or atomic coordinate data resulting
# from the CCDC's data processing and validation procedures.
#
#######################################################################

data_CSD_CIF_WAKWEK
_audit_creation_date 1993-12-13
_audit_creation_method CSD-ConQuest-V1
_database_code_CSD WAKWEK
_chemical_formula_sum 'C15 H11 N3 O4'
_chemical_formula_moiety
;
C15 H11 N3 O4
;
_journal_coden_Cambridge 11
_journal_volume 123
_journal_year 1993
_journal_page_first 45
_journal_name_full 'Gazz.Chim.Ital. '
loop_
_publ_author_name
"L.Eberson"
"E.Giorgini"
"L.Greci"
"G.Tosi"
"C.Rizzoli"
"P.Sgarabotto"
"F.Ugozzoli"
_chemical_name_systematic
;
1-Methyl-3,5-dinitro-2-phenylindole
;
_chemical_melting_point 521.15
_cell_volume   1369.396
_exptl_crystal_colour 'yellow'
_exptl_crystal_density_diffrn 1.44
_exptl_special_details
;
Melting point range 521.15-523.15K

;
_diffrn_ambient_temperature ?
_diffrn_special_details
;
The study was carried out at room temperature,in the range 283-303K

;
#These two values have been output from a single CSD field.
_refine_ls_R_factor_gt 0.055
_refine_ls_wR_factor_gt 0.055
_symmetry_cell_setting monoclinic
_symmetry_space_group_name_H-M 'P 21/n'
_symmetry_Int_Tables_number 14
loop_
_symmetry_equiv_pos_site_id
_symmetry_equiv_pos_as_xyz
1 x,y,z
2 1/2-x,1/2+y,1/2-z
3 -x,-y,-z
4 -1/2+x,-1/2-y,-1/2+z
_cell_length_a 14.051(3)
_cell_length_b 8.874(2)
_cell_length_c 11.349(3)
_cell_angle_alpha 90
_cell_angle_beta 104.6(1)
_cell_angle_gamma 90
_cell_formula_units_Z 4
loop_
_atom_type_symbol
_atom_type_radius_bond
C 0.68
H 0.23
N 0.68
O 0.68
loop_
_atom_site_label
_atom_site_type_symbol
_atom_site_fract_x
_atom_site_fract_y
_atom_site_fract_z
O1 O 0.3529(2) 0.4942(4) 0.7104(3)
O2 O 0.2230(2) 0.5113(5) 0.7769(4)
O3 O -0.1282(2) 0.4763(4) 0.7028(3)
O4 O -0.2157(2) 0.3002(4) 0.6014(3)
N1 N 0.1802(2) 0.2130(4) 0.4541(3)
N2 N 0.2666(2) 0.4644(4) 0.7034(3)
N3 N -0.1389(2) 0.3704(4) 0.6334(4)
C1 C 0.2547(2) 0.2932(4) 0.5273(3)
C2 C 0.2141(2) 0.3698(4) 0.6106(3)
C3 C 0.1121(2) 0.3363(4) 0.5862(3)
C4 C 0.0349(3) 0.3808(5) 0.6371(4)
C5 C -0.0564(2) 0.3237(5) 0.5832(4)
C6 C -0.0755(3) 0.2257(5) 0.4848(4)
C7 C 0.0009(3) 0.1821(6) 0.4366(4)
C8 C 0.0939(3) 0.2383(4) 0.4886(4)
C9 C 0.1900(4) 0.1113(6) 0.3559(5)
C10 C 0.3546(2) 0.2875(4) 0.5076(4)
C11 C 0.4270(4) 0.2039(7) 0.5815(6)
C12 C 0.5185(4) 0.1943(7) 0.5563(6)
C13 C 0.5384(3) 0.2673(5) 0.4610(4)
C14 C 0.4673(3) 0.3522(6) 0.3891(5)
C15 C 0.3751(3) 0.3627(5) 0.4115(4)
H1 H 0.044(2) 0.437(4) 0.703(3)
H2 H -0.165(2) 0.185(3) 0.439(3)
H3 H -0.010(3) 0.111(5) 0.378(4)
H4 H 0.131(4) 0.033(5) 0.323(5)
H5 H 0.256(4) 0.050(5) 0.400(5)
H6 H 0.203(4) 0.175(5) 0.280(5)
H7 H 0.415(4) 0.153(6) 0.655(5)
H8 H 0.564(3) 0.125(6) 0.620(5)
H9 H 0.595(3) 0.258(4) 0.440(4)
H10 H 0.478(3) 0.401(5) 0.320(4)
H11 H 0.319(4) 0.438(5) 0.367(5)
#END
