
#######################################################################
#
#                 Cambridge Crystallographic Data Centre
#                                CCDC
#
#######################################################################
#
# If this CIF has been generated from an entry in the Cambridge
# Structural Database, then it will include bibliographic, chemical,
# crystal, experimental, refinement or atomic coordinate data resulting
# from the CCDC's data processing and validation procedures.
#
#######################################################################

data_CSD_CIF_WAKZAJ
_audit_creation_date 1993-12-13
_audit_creation_method CSD-ConQuest-V1
_database_code_CSD WAKZAJ
_database_code_depnum_ccdc_archive 'CCDC 1289823'
_database_code_depnum_ccdc_fiz 'CSD 56830'
_chemical_formula_sum 'C13 H24 N2 O1'
_chemical_formula_moiety
;
C13 H24 N2 O1
;
_journal_coden_Cambridge 48
_journal_volume 126
_journal_year 1993
_journal_page_first 787
_journal_name_full 'Chem.Ber. '
loop_
_publ_author_name
"H.G.Aurich"
"G.Frnezen"
"C.Gentes"
_chemical_name_systematic
;
(1R,5R,8S)-(+)-7-Allyl-2-t-butyl-8-methyl-3-oxa-2,7-diazabicyclo(3.3.0)octane
;
_chemical_melting_point 322.15
_cell_volume   1355.997
_exptl_crystal_colour 'colorless'
_exptl_crystal_density_diffrn 1.1
_diffrn_ambient_temperature 193.15
#These two values have been output from a single CSD field.
_refine_ls_R_factor_gt 0.033
_refine_ls_wR_factor_gt 0.033
_symmetry_cell_setting monoclinic
_symmetry_space_group_name_H-M 'C 2'
_symmetry_Int_Tables_number 5
loop_
_symmetry_equiv_pos_site_id
_symmetry_equiv_pos_as_xyz
1 x,y,z
2 1/2+x,1/2+y,z
3 -x,y,-z
4 1/2-x,1/2+y,-z
_cell_length_a 17.879(4)
_cell_length_b 7.854(2)
_cell_length_c 9.852(2)
_cell_angle_alpha 90
_cell_angle_beta 101.43(3)
_cell_angle_gamma 90
_cell_formula_units_Z 4
loop_
_atom_type_symbol
_atom_type_radius_bond
C 0.68
H 0.23
N 0.68
O 0.68
loop_
_atom_site_label
_atom_site_type_symbol
_atom_site_fract_x
_atom_site_fract_y
_atom_site_fract_z
C1 C -0.1152(2) -0.1096(5) -0.0967(2)
N1 N -0.1709(1) -0.0448(4) -0.2148(2)
O1 O -0.2122(1) -0.19550 -0.2709(2)
C2 C -0.1627(2) -0.3408(5) -0.2481(3)
C3 C -0.1017(2) -0.2997(5) -0.1201(2)
C4 C -0.1129(2) -0.3872(5) 0.0141(3)
N2 N -0.1038(7) -0.2449(4) 0.1152(2)
C5 C -0.1469(2) -0.1058(5) 0.0374(2)
C6 C -0.1388(2) 0.0463(5) -0.3241(3)
C7 C -0.1113(2) 0.2172(5) -0.2597(3)
C8 C -0.0735(2) -0.0463(6) -0.3733(3)
C9 C -0.2043(1) 0.0757(5) -0.4457(2)
C10 C -0.1310(2) -0.2953(6) 0.2421(3)
C11 C -0.0784(2) -0.4226(6) 0.3234(3)
C12 C -0.0980(2) -0.5739(7) 0.3561(3)
C13 C -0.1357(2) 0.0647(6) 0.1109(3)
H1 H -0.06820 -0.04730 -0.08600
H2 H -0.19090 -0.44050 -0.23210
H3 H -0.13990 -0.36090 -0.32700
H4 H -0.05150 -0.31870 -0.13790
H5 H -0.16210 -0.44020 0.00360
H6 H -0.07410 -0.47160 0.04290
H7 H -0.20020 -0.13400 0.01680
H8 H -0.15230 0.27410 -0.22850
H9 H -0.07010 0.19820 -0.18250
H10 H -0.09370 0.28650 -0.32730
H11 H -0.09110 -0.15360 -0.41410
H12 H -0.05600 0.02310 -0.44090
H13 H -0.03230 -0.06520 -0.29610
H14 H -0.24530 0.13260 -0.41450
H15 H -0.18730 0.14440 -0.51430
H16 H -0.22170 -0.03230 -0.48540
H17 H -0.13440 -0.19620 0.29760
H18 H -0.18100 -0.34430 0.21680
H19 H -0.02850 -0.37380 0.34980
H20 H -0.06210 -0.65510 0.40420
H21 H -0.14810 -0.62270 0.33160
H22 H -0.15610 0.05790 0.19390
H23 H -0.08250 0.09280 0.13430
H24 H -0.16240 0.15110 0.05140
#END
