
#######################################################################
#
#                 Cambridge Crystallographic Data Centre
#                                CCDC
#
#######################################################################
#
# If this CIF has been generated from an entry in the Cambridge
# Structural Database, then it will include bibliographic, chemical,
# crystal, experimental, refinement or atomic coordinate data resulting
# from the CCDC's data processing and validation procedures.
#
#######################################################################

data_CSD_CIF_WALLUS
_audit_creation_date 2011-03-21
_audit_creation_method CSD-ConQuest-V1
_database_code_CSD WALLUS
_database_code_depnum_ccdc_archive 'CCDC 772059'
_chemical_formula_sum 'C17 H13 N5 O2'
_chemical_formula_moiety
;
C17 H13 N5 O2
;
_journal_coden_Cambridge 643
_journal_volume 225
_journal_year 2010
_journal_page_first 425
_journal_name_full 'Z.Krist.Cryst.Mater. '
loop_
_publ_author_name
"L.de S.Franca"
"G.M.de Lima"
"J.L.Wardell"
"S.M.S.V.Wardell"
_chemical_name_systematic
;
bis(pyridin-2-yl)ketone 2-nitrophenylhydrazone
;
_cell_volume   1434.132
_exptl_crystal_colour 'orange'
_exptl_crystal_density_diffrn 1.479
_exptl_crystal_description 'lath'
_diffrn_ambient_temperature 120
_diffrn_radiation_probe x-ray
_diffrn_source synchrotron
#These two values have been output from a single CSD field.
_refine_ls_R_factor_gt 0.0429
_refine_ls_wR_factor_gt 0.0429
_symmetry_cell_setting monoclinic
_symmetry_space_group_name_H-M 'P 21/c'
_symmetry_Int_Tables_number 14
loop_
_symmetry_equiv_pos_site_id
_symmetry_equiv_pos_as_xyz
1 x,y,z
2 -x,1/2+y,1/2-z
3 -x,-y,-z
4 x,-1/2-y,-1/2+z
_cell_length_a 17.159(2)
_cell_length_b 3.8564(5)
_cell_length_c 22.307(3)
_cell_angle_alpha 90
_cell_angle_beta 103.695(2)
_cell_angle_gamma 90
_cell_formula_units_Z 4
loop_
_atom_type_symbol
_atom_type_radius_bond
C 0.68
H 0.23
N 0.68
O 0.68
loop_
_atom_site_label
_atom_site_type_symbol
_atom_site_fract_x
_atom_site_fract_y
_atom_site_fract_z
N1 N 0.27812(5) 0.4811(3) 0.35906(4)
H1 H 0.3140(9) 0.551(4) 0.3925(7)
N2 N 0.05816(5) 0.6818(3) 0.43704(4)
C1 C 0.18124(6) 0.7220(3) 0.40160(4)
N3 N 0.19995(5) 0.5546(2) 0.35615(4)
N4 N 0.31553(5) 0.7953(3) 0.46473(4)
C2 C 0.09298(6) 0.7807(3) 0.39167(5)
N5 N 0.44498(5) 0.3498(3) 0.35413(4)
O1 O 0.51254(5) 0.3116(3) 0.34478(4)
C3 C 0.23523(6) 0.1780(3) 0.26166(5)
H2 H 0.18070 0.21940 0.26200
C4 C 0.29661(6) 0.3008(3) 0.31127(4)
C5 C 0.37631(6) 0.2298(3) 0.30760(4)
C6 C 0.39326(6) 0.0525(3) 0.25727(5)
H3 H 0.44740 0.01220 0.25590
O2 O 0.43470(5) 0.4894(3) 0.40135(4)
C7 C 0.33202(7) -0.0637(3) 0.20989(5)
H4 H 0.34330 -0.18440 0.17580
C8 C 0.25280(7) -0.0002(3) 0.21299(5)
H5 H 0.21010 -0.08180 0.18080
C9 C 0.04979(6) 0.9290(3) 0.33667(5)
H6 H 0.07610 0.99200 0.30530
C10 C 0.23656(6) 0.8577(3) 0.45830(4)
C11 C -0.02118(7) 0.7340(3) 0.42806(5)
H7 H -0.04650 0.66390 0.45960
C12 C 0.20880(7) 1.0498(3) 0.50231(5)
H8 H 0.15320 1.09720 0.49680
C13 C -0.06815(6) 0.8844(3) 0.37529(5)
H9 H -0.12400 0.91920 0.37130
C14 C 0.36775(7) 0.9141(3) 0.51476(5)
H10 H 0.42320 0.86830 0.51890
C15 C 0.26403(7) 1.1696(3) 0.55408(5)
H11 H 0.24640 1.29820 0.58470
C16 C 0.34488(7) 1.1013(3) 0.56102(5)
H12 H 0.38350 1.17990 0.59630
C17 C -0.03202(6) 0.9831(3) 0.32851(5)
H13 H -0.06260 1.08560 0.29170
#END
