
#######################################################################
#
#                 Cambridge Crystallographic Data Centre
#                                CCDC
#
#######################################################################
#
# If this CIF has been generated from an entry in the Cambridge
# Structural Database, then it will include bibliographic, chemical,
# crystal, experimental, refinement or atomic coordinate data resulting
# from the CCDC's data processing and validation procedures.
#
#######################################################################

data_CSD_CIF_WALXAI
_audit_creation_date 1993-12-13
_audit_creation_method CSD-ConQuest-V1
_database_code_CSD WALXAI
_database_code_depnum_ccdc_archive 'CCDC 1289924'
_chemical_formula_sum 'C20 H20 N2 O1'
_chemical_formula_moiety
;
C20 H20 N2 O1
;
_journal_coden_Cambridge 34
_journal_volume 30
_journal_year 1993
_journal_page_first 97
_journal_name_full 'J.Heterocycl.Chem. '
loop_
_publ_author_name
"E.Diaz"
"H.Barrios"
"F.Yuste"
"J.L.Aguilera"
"W.F.Reynolds"
"M.R.Van Calsteren"
"C.Jankowski"
_chemical_name_systematic
;
trans-3'-Phenyl-3',3a',4',5',6',7a'-hexahydro-2,1-benzisoxazole-7a'-spiro-2-(3
-phenylaziridine)
;
_cell_volume   1613.449
_exptl_crystal_density_diffrn 1.25
_diffrn_ambient_temperature ?
_diffrn_special_details
;
The study was carried out at room temperature,in the range 283-303K

;
loop_
_citation_database_id_CSD
_citation_special_details
WALWUB "is a stereoisomer of this entry"
_symmetry_cell_setting monoclinic
_symmetry_space_group_name_H-M 'P 21/n'
_symmetry_Int_Tables_number 14
loop_
_symmetry_equiv_pos_site_id
_symmetry_equiv_pos_as_xyz
1 x,y,z
2 1/2-x,1/2+y,1/2-z
3 -x,-y,-z
4 -1/2+x,-1/2-y,-1/2+z
_cell_length_a 9.567(2)
_cell_length_b 18.849(5)
_cell_length_c 9.948(3)
_cell_angle_alpha 90
_cell_angle_beta 115.92(2)
_cell_angle_gamma 90
_cell_formula_units_Z 4
loop_
_atom_type_symbol
_atom_type_radius_bond
C 0.68
H 0.23
N 0.68
O 0.68
loop_
_atom_site_label
_atom_site_type_symbol
_atom_site_fract_x
_atom_site_fract_y
_atom_site_fract_z
N1 N 1.0575(3) 0.1232(1) 0.5884(2)
C1 C 1.0226(3) 0.1511(1) 0.4405(3)
C2 C 0.9187(3) 0.1666(1) 0.5128(3)
C3 C 0.9160(3) 0.2373(1) 0.5815(3)
C4 C 0.8509(4) 0.2969(1) 0.4936(3)
C5 C 0.8507(4) 0.3613(1) 0.5574(3)
C6 C 0.9150(4) 0.3683(2) 0.7103(3)
C7 C 0.9775(4) 0.3097(2) 0.7985(3)
C8 C 0.9779(4) 0.2449(2) 0.7354(3)
N2 N 0.9447(3) 0.0375(1) 0.3109(2)
O1 O 0.8767(2) 0.0119(1) 0.1610(2)
C9 C 0.8863(4) 0.0679(1) 0.0645(3)
C10 C 0.9048(3) 0.1353(1) 0.1557(2)
C11 C 1.0174(4) 0.1911(1) 0.1492(3)
C12 C 1.0628(4) 0.2431(1) 0.2775(3)
C13 C 1.1299(4) 0.2069(1) 0.4289(3)
C14 C 0.9580(3) 0.1045(1) 0.3073(2)
C15 C 0.7481(5) 0.0649(1) -0.0850(3)
C16 C 0.6003(6) 0.0633(1) -0.0928(3)
C17 C 0.4702(4) 0.0640(1) -0.2308(3)
C18 C 0.4882(4) 0.0657(1) -0.3589(3)
C19 C 0.6346(6) 0.0665(1) -0.3524(3)
C20 C 0.7622(4) 0.0658(1) -0.2158(3)
H1 H 1.030(3) 0.083(2) 0.575(3)
H2 H 0.809(1) 0.162(1) 0.480(1)
H3 H 0.806(1) 0.293(1) 0.387(1)
H4 H 0.805(1) 0.402(1) 0.495(1)
H5 H 0.916(1) 0.414(1) 0.755(1)
H6 H 1.021(1) 0.314(1) 0.905(1)
H7 H 1.022(1) 0.205(1) 0.799(1)
H8 H 0.972(1) 0.064(1) 0.039(1)
H9 H 0.811(1) 0.163(1) 0.119(1)
H10 H 0.968(1) 0.216(1) 0.056(1)
H11 H 1.109(1) 0.168(1) 0.155(1)
H12 H 1.139(1) 0.275(1) 0.274(1)
H13 H 0.972(1) 0.269(1) 0.266(1)
H14 H 1.149(1) 0.242(1) 0.505(1)
H15 H 1.226(1) 0.185(1) 0.445(1)
H16 H 0.587(1) 0.062(1) -0.002(1)
H17 H 0.368(1) 0.063(1) -0.235(1)
H18 H 0.399(1) 0.066(1) -0.454(1)
H19 H 0.648(1) 0.067(1) -0.443(1)
H20 H 0.864(1) 0.066(1) -0.212(1)
#END
