
#######################################################################
#
#                 Cambridge Crystallographic Data Centre
#                                CCDC
#
#######################################################################
#
# If this CIF has been generated from an entry in the Cambridge
# Structural Database, then it will include bibliographic, chemical,
# crystal, experimental, refinement or atomic coordinate data resulting
# from the CCDC's data processing and validation procedures.
#
#######################################################################

data_CSD_CIF_WAMGIA
_audit_creation_date 1994-01-24
_audit_creation_method CSD-ConQuest-V1
_database_code_CSD WAMGIA
_chemical_formula_sum 'C27 H18 N2 O7'
_chemical_formula_moiety
;
C27 H18 N2 O7
;
_journal_coden_Cambridge 35
_journal_volume 58
_journal_year 1993
_journal_page_first 2128
_journal_name_full 'J.Org.Chem. '
loop_
_publ_author_name
"J.H.Penn"
"W.H.Owens"
"J.L.Petersen"
"H.O.Finklea"
"D.A.Snider"
_chemical_name_systematic
;
3,5-Dinitrobenzoic triphenylacetic anhydride
;
_chemical_melting_point 455.15
_cell_volume   1127.286
_exptl_crystal_density_diffrn 1.421
_exptl_special_details
;
Melting point range 455.15-456.15K

;
_diffrn_ambient_temperature ?
_diffrn_special_details
;
The study was carried out at room temperature,in the range 283-303K

;
#These two values have been output from a single CSD field.
_refine_ls_R_factor_gt 0.048
_refine_ls_wR_factor_gt 0.048
_symmetry_cell_setting triclinic
_symmetry_space_group_name_H-M 'P -1'
_symmetry_Int_Tables_number 2
loop_
_symmetry_equiv_pos_site_id
_symmetry_equiv_pos_as_xyz
1 x,y,z
2 -x,-y,-z
_cell_length_a 8.603(3)
_cell_length_b 9.774(2)
_cell_length_c 14.322(3)
_cell_angle_alpha 86.59(2)
_cell_angle_beta 78.34(2)
_cell_angle_gamma 72.90(2)
_cell_formula_units_Z 2
loop_
_atom_type_symbol
_atom_type_radius_bond
C 0.68
H 0.23
N 0.68
O 0.68
loop_
_atom_site_label
_atom_site_type_symbol
_atom_site_fract_x
_atom_site_fract_y
_atom_site_fract_z
O1 O 0.0138(2) 0.3632(2) 0.4240(1)
O2 O 0.2580(2) 0.4133(2) 0.3699(1)
O3 O 0.0647(2) 0.6112(2) 0.3366(1)
O4 O 0.0487(4) -0.0558(3) 0.6400(2)
O5 O 0.2413(4) -0.1221(3) 0.7175(2)
O6 O 0.6820(3) 0.1037(3) 0.6614(2)
O7 O 0.6887(3) 0.2598(4) 0.5516(2)
N1 N 0.1753(4) -0.0476(3) 0.6585(2)
N2 N 0.6252(3) 0.1780(3) 0.5986(2)
C1 C 0.1542(3) 0.3486(2) 0.4292(2)
C2 C 0.1909(3) 0.5231(2) 0.3090(2)
C3 C 0.3018(2) 0.5094(2) 0.2088(2)
C4 C 0.2438(3) 0.2501(2) 0.4967(2)
C5 C 0.1717(3) 0.1501(3) 0.5445(2)
C6 C 0.2516(3) 0.0594(3) 0.6084(2)
C7 C 0.3991(4) 0.0667(3) 0.6283(2)
C8 C 0.4671(3) 0.1667(3) 0.5797(2)
C9 C 0.3937(3) 0.2587(3) 0.5138(2)
C10 C 0.4626(2) 0.5487(2) 0.2138(2)
C11 C 0.5148(3) 0.6468(3) 0.1514(2)
C12 C 0.6595(3) 0.6794(3) 0.1537(2)
C13 C 0.7549(3) 0.6152(3) 0.2186(2)
C14 C 0.7074(3) 0.5169(4) 0.2799(2)
C15 C 0.5626(3) 0.4818(3) 0.2776(2)
C16 C 0.2013(2) 0.6126(2) 0.1426(2)
C17 C 0.1805(3) 0.5665(3) 0.0578(2)
C18 C 0.0874(3) 0.6603(3) -0.0009(2)
C19 C 0.0153(3) 0.8005(3) 0.0256(2)
C20 C 0.0373(3) 0.8494(3) 0.1086(2)
C21 C 0.1310(3) 0.7576(2) 0.1665(2)
C22 C 0.3427(3) 0.3529(2) 0.1775(1)
C23 C 0.2184(3) 0.2852(3) 0.1951(2)
C24 C 0.2500(4) 0.1454(3) 0.1684(2)
C25 C 0.4041(5) 0.0712(3) 0.1223(2)
C26 C 0.5279(4) 0.1371(3) 0.1023(2)
C27 C 0.4976(3) 0.2768(3) 0.1299(2)
H1 H 0.067(3) 0.146(3) 0.535(2)
H2 H 0.451(3) -0.002(3) 0.674(2)
H3 H 0.444(3) 0.324(3) 0.483(2)
H4 H 0.448(3) 0.689(3) 0.105(2)
H5 H 0.697(3) 0.751(3) 0.106(2)
H6 H 0.849(3) 0.642(3) 0.221(2)
H7 H 0.771(3) 0.468(3) 0.322(2)
H8 H 0.529(3) 0.404(3) 0.323(2)
H9 H 0.233(3) 0.470(3) 0.040(2)
H10 H 0.075(3) 0.624(3) -0.061(2)
H11 H -0.043(3) 0.861(3) -0.016(2)
H12 H -0.015(3) 0.946(3) 0.126(2)
H13 H 0.151(3) 0.793(3) 0.225(2)
H14 H 0.107(3) 0.337(3) 0.227(2)
H15 H 0.162(3) 0.099(3) 0.185(2)
H16 H 0.422(3) -0.022(3) 0.103(2)
H17 H 0.639(3) 0.086(3) 0.070(2)
H18 H 0.583(3) 0.327(3) 0.114(2)
#END
