
#######################################################################
#
#                 Cambridge Crystallographic Data Centre
#                                CCDC
#
#######################################################################
#
# If this CIF has been generated from an entry in the Cambridge
# Structural Database, then it will include bibliographic, chemical,
# crystal, experimental, refinement or atomic coordinate data resulting
# from the CCDC's data processing and validation procedures.
#
#######################################################################

data_CSD_CIF_WAMMAY
_audit_creation_date 1994-01-24
_audit_creation_method CSD-ConQuest-V1
_database_code_CSD WAMMAY
_chemical_formula_sum 'C21 H29 N3 O2'
_chemical_formula_moiety
;
C21 H29 N3 O2
;
_journal_coden_Cambridge 582
_journal_volume 23
_journal_year 1993
_journal_page_first 273
_journal_name_full 'J.Crystallogr.Spectrosc.Res. '
loop_
_publ_author_name
"D.R.Lisgarten"
"J.N.Lisgarten"
"R.A.Palmer"
_chemical_name_systematic
;
20-Oximino-5\a-pregn-16-ene(3,4-c)-1',2',5'-oxadiazole
;
_chemical_name_common
;
HS998
;
_chemical_melting_point 479.15
_cell_volume   1922.655
_exptl_crystal_colour 'colorless'
_exptl_crystal_density_diffrn 1.22
_exptl_special_details
;
Melting point range 479.15-482.15K
5alpha polymorph

;
_diffrn_ambient_temperature ?
_diffrn_special_details
;
The study was carried out at room temperature,in the range 283-303K

;
#These two values have been output from a single CSD field.
_refine_ls_R_factor_gt 0.06
_refine_ls_wR_factor_gt 0.06
_symmetry_cell_setting orthorhombic
_symmetry_space_group_name_H-M 'P 21 21 21'
_symmetry_Int_Tables_number 19
loop_
_symmetry_equiv_pos_site_id
_symmetry_equiv_pos_as_xyz
1 x,y,z
2 1/2+x,1/2-y,-z
3 -x,1/2+y,1/2-z
4 1/2-x,-y,1/2+z
_cell_length_a 13.29
_cell_length_b 18.978
_cell_length_c 7.623
_cell_angle_alpha 90
_cell_angle_beta 90
_cell_angle_gamma 90
_cell_formula_units_Z 4
loop_
_atom_type_symbol
_atom_type_radius_bond
C 0.68
H 0.23
N 0.68
O 0.68
loop_
_atom_site_label
_atom_site_type_symbol
_atom_site_fract_x
_atom_site_fract_y
_atom_site_fract_z
C1 C -0.0476(3) -0.0083(2) -0.1258(5)
C2 C -0.1445(3) -0.0444(2) -0.0644(6)
C3 C -0.1388(3) -0.0625(2) 0.1267(6)
C4 C -0.0609(3) -0.0399(2) 0.2404(5)
C5 C 0.0299(3) -0.0026(2) 0.1740(5)
C6 C 0.0879(3) 0.0372(2) 0.3130(4)
C7 C 0.1832(3) 0.0649(2) 0.2349(5)
C8 C 0.1649(2) 0.1113(1) 0.0721(4)
C9 C 0.0988(2) 0.0733(2) -0.0660(4)
C10 C 0.0008(2) 0.0426(2) 0.0107(4)
C11 C 0.0840(2) 0.1212(2) -0.2282(4)
C12 C 0.1812(2) 0.1499(2) -0.3088(4)
C13 C 0.2436(2) 0.1864(2) -0.1673(4)
C14 C 0.2595(2) 0.1327(2) -0.0192(4)
C15 C 0.3515(3) 0.1593(2) 0.0783(6)
C16 C 0.4092(3) 0.1901(2) -0.0724(6)
C17 C 0.3522(2) 0.2048(2) -0.2125(5)
C18 C 0.1932(3) 0.2562(2) -0.1055(6)
C19 C -0.0724(2) 0.1018(2) 0.0587(5)
C20 C 0.3857(3) 0.2397(2) -0.3721(6)
C21 C 0.4946(3) 0.2370(2) -0.4235(9)
O1 O 0.3624(2) 0.3083(2) -0.6089(5)
O2 O -0.1688(3) -0.0954(2) 0.3919(5)
N1 N -0.2050(3) -0.0966(2) 0.2202(6)
N2 N -0.0800(3) -0.0595(2) 0.3990(5)
N3 N 0.3207(2) 0.2734(2) -0.4612(5)
H1 H -0.0631(3) 0.0216(2) -0.2433(5)
H2 H 0.0073(3) -0.0486(2) -0.1544(5)
H3 H -0.1546(3) -0.0926(2) -0.1379(6)
H4 H -0.2077(3) -0.0098(2) -0.0875(6)
H5 H 0.0810(3) -0.0422(2) 0.1251(5)
H6 H 0.1049(3) 0.0031(2) 0.4224(4)
H7 H 0.0442(3) 0.0816(2) 0.3583(4)
H8 H 0.2248(3) 0.0197(2) 0.1883(5)
H9 H 0.2278(3) 0.0929(2) 0.3305(5)
H10 H 0.1264(2) 0.1564(1) 0.1287(4)
H11 H 0.1400(2) 0.0285(2) -0.1162(4)
H12 H 0.0452(2) 0.0912(2) -0.3279(4)
H13 H 0.0377(2) 0.1651(2) -0.1883(4)
H14 H 0.1638(2) 0.1874(2) -0.4110(4)
H15 H 0.2254(2) 0.1074(2) -0.3629(4)
H16 H 0.2809(2) 0.0813(2) -0.0675(4)
H17 H 0.3931(3) 0.1179(2) 0.1429(6)
H18 H 0.3300(3) 0.1988(2) 0.1734(6)
H19 H 0.1176(3) 0.2488(2) -0.0568(6)
H20 H 0.1915(3) 0.2905(2) -0.2186(6)
H21 H 0.2391(3) 0.2797(2) -0.0042(6)
H22 H 0.5313(3) 0.2100(2) -0.3166(9)
H23 H 0.5285(3) 0.2882(2) -0.4416(9)
H24 H 0.5027(3) 0.2065(2) -0.5423(9)
H25 H 0.4855(3) 0.2096(2) -0.0794(6)
H26 H -0.1339(2) 0.0751(2) 0.1234(5)
H27 H -0.0999(2) 0.1276(2) -0.0581(5)
H28 H -0.0406(2) 0.1405(2) 0.1463(5)
H29 H 0.3238(51) 0.3471(35) -0.63(1)
#END
