
#######################################################################
#
#                 Cambridge Crystallographic Data Centre
#                                CCDC
#
#######################################################################
#
# If this CIF has been generated from an entry in the Cambridge
# Structural Database, then it will include bibliographic, chemical,
# crystal, experimental, refinement or atomic coordinate data resulting
# from the CCDC's data processing and validation procedures.
#
#######################################################################

data_CSD_CIF_WAMNAZ
_audit_creation_date 1994-01-24
_audit_creation_method CSD-ConQuest-V1
_database_code_CSD WAMNAZ
_chemical_formula_sum 'C15 H19 N1 O4'
_chemical_formula_moiety
;
C15 H19 N1 O4
;
_journal_coden_Cambridge 4
_journal_volume 115
_journal_year 1993
_journal_page_first 4403
_journal_name_full 'J.Am.Chem.Soc. '
loop_
_publ_author_name
"J.Barluenga"
"F.Aznar"
"C.Valdes"
"A.Martin"
"S.Garcia-Granda"
"E.Martin"
_chemical_name_systematic
;
2-Methyl-3-methoxymethyl-4-nitro-5-phenylcyclohexanone
;
_cell_volume   1486.653
_exptl_crystal_density_diffrn 1.24
_diffrn_ambient_temperature ?
_diffrn_special_details
;
The study was carried out at room temperature,in the range 283-303K

;
#These two values have been output from a single CSD field.
_refine_ls_R_factor_gt 0.037
_refine_ls_wR_factor_gt 0.037
_symmetry_cell_setting orthorhombic
_symmetry_space_group_name_H-M 'P 21 21 21'
_symmetry_Int_Tables_number 19
loop_
_symmetry_equiv_pos_site_id
_symmetry_equiv_pos_as_xyz
1 x,y,z
2 1/2+x,1/2-y,-z
3 -x,1/2+y,1/2-z
4 1/2-x,-y,1/2+z
_cell_length_a 8.537(4)
_cell_length_b 8.883(5)
_cell_length_c 19.604(8)
_cell_angle_alpha 90
_cell_angle_beta 90
_cell_angle_gamma 90
_cell_formula_units_Z 4
loop_
_atom_type_symbol
_atom_type_radius_bond
C 0.68
H 0.23
N 0.68
O 0.68
loop_
_atom_site_label
_atom_site_type_symbol
_atom_site_fract_x
_atom_site_fract_y
_atom_site_fract_z
O1 O 0.1661(2) 0.3207(2) 0.19141(9)
O2 O 0.1043(2) 0.2972(2) 0.0298(1)
N1 N 0.6146(2) 0.2671(3) 0.2033(1)
C1 C 0.3726(3) 0.1590(3) 0.1565(1)
C2 C 0.3459(3) 0.4107(3) 0.0591(1)
C3 C 0.5499(4) 0.6874(3) 0.1031(2)
C4 C 0.5088(3) 0.2675(3) 0.1416(1)
O3 O 0.7020(3) 0.1603(3) 0.2094(2)
C5 C 0.1508(4) 0.0198(4) 0.0957(2)
C6 C 0.2815(3) 0.1352(3) 0.0892(1)
O4 O 0.6055(3) 0.3663(3) 0.2449(1)
C7 C 0.4561(3) 0.4239(3) 0.1218(1)
C8 C 0.5870(3) 0.5348(3) 0.1055(1)
C9 C 0.2300(3) 0.2830(3) 0.0596(1)
C10 C 0.7401(3) 0.4920(3) 0.0909(1)
C11 C 0.2668(4) 0.2052(3) 0.2146(1)
C12 C 0.8512(3) 0.5994(4) 0.0733(2)
C13 C 0.6613(4) 0.7926(4) 0.0854(2)
C14 C 0.8111(4) 0.7496(4) 0.0704(2)
C15 C 0.0544(5) 0.3681(5) 0.2410(2)
H1 H 0.417(3) 0.060(3) 0.167(1)
H2 H 0.411(3) 0.386(3) 0.016(1)
H3 H 0.287(4) 0.511(4) 0.050(2)
H4 H 0.443(4) 0.728(4) 0.114(2)
H5 H 0.569(3) 0.223(3) 0.106(1)
H6 H 0.187(4) -0.065(3) 0.124(2)
H7 H 0.115(4) -0.013(3) 0.049(2)
H8 H 0.070(5) 0.071(4) 0.120(2)
H9 H 0.355(3) 0.098(3) 0.056(1)
H10 H 0.392(3) 0.470(3) 0.162(1)
H11 H 0.769(3) 0.385(3) 0.089(1)
H12 H 0.317(4) 0.251(4) 0.257(2)
H13 H 0.208(4) 0.115(4) 0.231(1)
H14 H 0.971(5) 0.558(4) 0.063(2)
H15 H 0.625(4) 0.898(4) 0.085(2)
H16 H 0.885(4) 0.828(4) 0.059(2)
H17 H -0.012(5) 0.444(5) 0.214(2)
H18 H 0.109(5) 0.397(5) 0.283(2)
H19 H -0.004(5) 0.266(5) 0.263(2)
#END
