
#######################################################################
#
#                 Cambridge Crystallographic Data Centre
#                                CCDC
#
#######################################################################
#
# If this CIF has been generated from an entry in the Cambridge
# Structural Database, then it will include bibliographic, chemical,
# crystal, experimental, refinement or atomic coordinate data resulting
# from the CCDC's data processing and validation procedures.
#
#######################################################################

data_CSD_CIF_WANPOS
_audit_creation_date 2012-05-09
_audit_creation_method CSD-ConQuest-V1
_database_code_CSD WANPOS
_database_code_depnum_ccdc_archive 'CCDC 791956'
_chemical_formula_sum 'C18 H15 N1 O4'
_chemical_formula_moiety
;
C18 H15 N1 O4
;
_journal_coden_Cambridge 692
_journal_volume 44
_journal_year 2012
_journal_page_first 755
_journal_name_full 'Synthesis '
loop_
_publ_author_name
"M.Bakthadoss"
"J.Srinivasan"
"R.Selvakumar"
_chemical_name_systematic
;
Methyl 3-phenyl-3H-chromeno[4,3-c][1,2]oxazole-3a(4H)-carboxylate
;
_cell_volume   1530.926
_exptl_crystal_colour 'colorless'
_exptl_crystal_density_diffrn 1.342
_exptl_crystal_description 'block'
_diffrn_ambient_temperature 292
#These two values have been output from a single CSD field.
_refine_ls_R_factor_gt 0.0414
_refine_ls_wR_factor_gt 0.0414
_symmetry_cell_setting orthorhombic
_symmetry_space_group_name_H-M 'P 21 21 21'
_symmetry_Int_Tables_number 19
loop_
_symmetry_equiv_pos_site_id
_symmetry_equiv_pos_as_xyz
1 x,y,z
2 1/2-x,-y,1/2+z
3 -x,1/2+y,1/2-z
4 1/2+x,1/2-y,-z
_cell_length_a 9.8320(17)
_cell_length_b 9.9890(18)
_cell_length_c 15.588(3)
_cell_angle_alpha 90
_cell_angle_beta 90
_cell_angle_gamma 90
_cell_formula_units_Z 4
loop_
_atom_type_symbol
_atom_type_radius_bond
C 0.68
H 0.23
N 0.68
O 0.68
loop_
_atom_site_label
_atom_site_type_symbol
_atom_site_fract_x
_atom_site_fract_y
_atom_site_fract_z
C1 C 0.7170(3) 0.3871(2) 0.02410(18)
H1 H 0.63260 0.36080 0.00310
O1 O 1.11601(12) 0.80271(12) 0.18420(9)
O2 O 0.80063(12) 0.80751(12) 0.27848(7)
C2 C 1.01274(15) 0.87692(15) 0.15798(10)
O3 O 0.85940(14) 0.78040(12) -0.01379(7)
C3 C 0.89258(14) 0.78681(14) 0.13534(9)
O4 O 1.01362(12) 0.99504(11) 0.15118(10)
N1 N 0.75646(15) 0.86306(14) 0.02254(9)
C4 C 0.92527(16) 0.70425(14) 0.05431(9)
H2 H 1.02380 0.70640 0.04480
C5 C 0.70761(15) 0.90170(15) 0.25214(10)
C6 C 0.84395(16) 0.71217(15) 0.21507(9)
H3 H 0.76900 0.65350 0.20020
H4 H 0.91720 0.65780 0.23790
C7 C 0.87935(15) 0.56032(15) 0.05508(9)
C8 C 0.68673(14) 0.93267(15) 0.16604(10)
C9 C 0.77408(15) 0.86712(15) 0.10356(9)
C10 C 0.96689(19) 0.46419(17) 0.08648(11)
H5 H 1.05130 0.48970 0.10780
C11 C 0.58712(16) 1.02751(18) 0.14485(13)
H6 H 0.56990 1.04720 0.08760
C12 C 0.63491(18) 0.9676(2) 0.31638(12)
H7 H 0.65030 0.94800 0.37390
C13 C 1.24148(17) 0.8703(2) 0.20549(15)
H8 H 1.25240 0.94710 0.16920
H9 H 1.31660 0.81020 0.19710
H10 H 1.23890 0.89830 0.26440
C14 C 0.7525(2) 0.5218(2) 0.02478(14)
H11 H 0.69140 0.58590 0.00500
C15 C 0.54026(18) 1.0620(2) 0.29310(15)
H12 H 0.49220 1.10710 0.33560
C16 C 0.51473(18) 1.0916(2) 0.20805(15)
H13 H 0.44890 1.15450 0.19370
C17 C 0.9310(3) 0.33064(18) 0.08664(12)
H14 H 0.99060 0.26680 0.10830
C18 C 0.8070(3) 0.2925(2) 0.05466(16)
H15 H 0.78350 0.20240 0.05360
#END
