
#######################################################################
#
#                 Cambridge Crystallographic Data Centre
#                                CCDC
#
#######################################################################
#
# If this CIF has been generated from an entry in the Cambridge
# Structural Database, then it will include bibliographic, chemical,
# crystal, experimental, refinement or atomic coordinate data resulting
# from the CCDC's data processing and validation procedures.
#
#######################################################################

data_CSD_CIF_WANSAH
_audit_creation_date 2012-05-08
_audit_creation_method CSD-ConQuest-V1
_database_code_CSD WANSAH
_database_code_depnum_ccdc_archive 'CCDC 822443'
_chemical_formula_sum 'C25 H23 N1 O2'
_chemical_formula_moiety
;
C25 H23 N1 O2
;
_journal_coden_Cambridge 692
_journal_volume 44
_journal_year 2012
_journal_page_first 973
_journal_name_full 'Synthesis '
loop_
_publ_author_name
"M.Buchlovic"
"S.Man"
"M.Potacek"
_chemical_name_systematic
;
2-Methoxy-3,3-dimethyl-5-(2-(pyren-1-yl)vinyl)-3,4-dihydro-2H-pyrrole 1-oxide
;
_cell_volume   1897.543
_exptl_crystal_density_diffrn 1.293
_diffrn_ambient_temperature 120
#These two values have been output from a single CSD field.
_refine_ls_R_factor_gt 0.0329
_refine_ls_wR_factor_gt 0.0329
_symmetry_cell_setting monoclinic
_symmetry_space_group_name_H-M 'P 21/n'
_symmetry_Int_Tables_number 14
loop_
_symmetry_equiv_pos_site_id
_symmetry_equiv_pos_as_xyz
1 x,y,z
2 1/2-x,1/2+y,1/2-z
3 -x,-y,-z
4 -1/2+x,-1/2-y,-1/2+z
_cell_length_a 13.9555(5)
_cell_length_b 9.1499(2)
_cell_length_c 15.8343(6)
_cell_angle_alpha 90
_cell_angle_beta 110.200(4)
_cell_angle_gamma 90
_cell_formula_units_Z 4
loop_
_atom_type_symbol
_atom_type_radius_bond
C 0.68
H 0.23
N 0.68
O 0.68
loop_
_atom_site_label
_atom_site_type_symbol
_atom_site_fract_x
_atom_site_fract_y
_atom_site_fract_z
O1 O 0.44704(7) 0.59152(10) 0.29495(6)
O2 O 0.31735(7) 0.65092(10) 0.11918(6)
N1 N 0.40238(9) 0.71613(12) 0.27229(7)
C1 C 0.36753(11) 0.76376(15) 0.17580(9)
H1 H 0.42740 0.79690 0.15980
C2 C 0.29728(11) 0.89343(15) 0.17309(9)
C3 C 0.33720(11) 0.94756(14) 0.27183(9)
H2 H 0.38860 1.02580 0.28010
H3 H 0.28050 0.98530 0.28980
C4 C 0.38405(11) 0.81520(14) 0.32533(9)
C5 C 0.40852(10) 0.79114(15) 0.41941(9)
H4 H 0.44230 0.70300 0.44480
C6 C 0.38598(11) 0.88742(15) 0.47374(9)
H5 H 0.35800 0.97820 0.44750
C7 C 0.39975(10) 0.86789(15) 0.56901(9)
C8 C 0.42596(11) 0.73135(15) 0.61050(9)
H6 H 0.43720 0.65210 0.57630
C9 C 0.43603(11) 0.70771(15) 0.69895(10)
H7 H 0.45450 0.61340 0.72450
C10 C 0.41950(11) 0.82057(15) 0.75179(9)
C11 C 0.42613(11) 0.79893(16) 0.84347(9)
H8 H 0.44230 0.70460 0.86960
C12 C 0.40991(11) 0.90918(17) 0.89325(9)
H9 H 0.41470 0.89080 0.95360
C13 C 0.38559(10) 1.05344(16) 0.85720(9)
C14 C 0.36959(11) 1.17131(17) 0.90756(9)
H10 H 0.37490 1.15600 0.96840
C15 C 0.34639(11) 1.30846(18) 0.87053(9)
H11 H 0.33600 1.38640 0.90600
C16 C 0.33808(11) 1.33410(16) 0.78215(9)
H12 H 0.32260 1.42960 0.75770
C17 C 0.35223(10) 1.22061(15) 0.72868(9)
C18 C 0.34284(10) 1.24150(15) 0.63671(9)
H13 H 0.32590 1.33570 0.61060
C19 C 0.35745(10) 1.13093(15) 0.58600(9)
H14 H 0.35020 1.14970 0.52510
C20 C 0.38358(10) 0.98592(14) 0.62105(9)
C21 C 0.39378(10) 0.96145(15) 0.71284(9)
C22 C 0.37718(10) 1.07848(15) 0.76594(8)
C23 C 0.18679(11) 0.84452(16) 0.14915(10)
H15 H 0.16180 0.80650 0.08750
H16 H 0.14470 0.92790 0.15360
H17 H 0.18270 0.76770 0.19090
C24 C 0.30619(12) 1.01030(16) 0.10736(9)
H18 H 0.28210 0.97050 0.04610
H19 H 0.37770 1.04040 0.12360
H20 H 0.26450 1.09500 0.11020
C25 C 0.38171(12) 0.55604(18) 0.08995(11)
H21 H 0.33960 0.48250 0.04860
H22 H 0.43060 0.50720 0.14230
H23 H 0.41880 0.61360 0.05910
#END
