
#######################################################################
#
#                 Cambridge Crystallographic Data Centre
#                                CCDC
#
#######################################################################
#
# If this CIF has been generated from an entry in the Cambridge
# Structural Database, then it will include bibliographic, chemical,
# crystal, experimental, refinement or atomic coordinate data resulting
# from the CCDC's data processing and validation procedures.
#
#######################################################################

data_CSD_CIF_WANSUZ
_audit_creation_date 2000-08-21
_audit_creation_method CSD-ConQuest-V1
_database_code_CSD WANSUZ
_database_code_depnum_ccdc_archive 'CCDC 113792'
_database_code_depnum_ccdc_journal 1145/149
_chemical_formula_sum 'C22 H22 N1 O1'
_chemical_formula_moiety
;
C22 H22 N1 O1
;
_journal_coden_Cambridge 1145
_journal_volume 9
_journal_year 1999
_journal_page_first 1227
_journal_name_full 'J.Mater.Chem. '
loop_
_publ_author_name
"H.Oka"
"T.Tamura"
"Y.Miura"
"Y.Teki"
_chemical_name_systematic
;
N-t-Butyl-(2,4-diphenyl)phenylaminoxyl radical
;
_chemical_melting_point 367
_cell_volume   1836.913
_exptl_crystal_colour 'red'
_exptl_crystal_density_diffrn 1.144
_exptl_special_details
;
Melting point range 367-369K

;
_exptl_crystal_description 'prismatic'
_exptl_crystal_preparation 'hexane'
_diffrn_ambient_temperature ?
_diffrn_special_details
;
The study was carried out at room temperature,in the range 283-303K

;
_refine_special_details
;
t-Butyl group is disordered over three sites with occupancies 0.70:0.13:0.17.

;
#These two values have been output from a single CSD field.
_refine_ls_R_factor_gt 0.062
_refine_ls_wR_factor_gt 0.062
_symmetry_cell_setting monoclinic
_symmetry_space_group_name_H-M 'P 21/n'
_symmetry_Int_Tables_number 14
loop_
_symmetry_equiv_pos_site_id
_symmetry_equiv_pos_as_xyz
1 x,y,z
2 1/2-x,1/2+y,1/2-z
3 -x,-y,-z
4 -1/2+x,-1/2-y,-1/2+z
_cell_length_a 11.282(1)
_cell_length_b 7.602(2)
_cell_length_c 21.5127(8)
_cell_angle_alpha 90
_cell_angle_beta 95.384(5)
_cell_angle_gamma 90
_cell_formula_units_Z 4
loop_
_atom_type_symbol
_atom_type_radius_bond
C 0.68
H 0.23
N 0.68
O 0.68
loop_
_atom_site_label
_atom_site_type_symbol
_atom_site_fract_x
_atom_site_fract_y
_atom_site_fract_z
O1 O 0.3433(3) 0.0958(4) 0.0201(1)
N1 N 0.3342(2) -0.0073(4) 0.0658(1)
C1 C 0.4093(3) 0.0312(4) 0.1218(1)
C2 C 0.3619(3) 0.0885(4) 0.1762(1)
C3 C 0.4404(3) 0.1114(4) 0.2291(1)
C4 C 0.5618(3) 0.0845(4) 0.2305(1)
C5 C 0.6057(3) 0.0355(5) 0.1749(1)
C6 C 0.5318(3) 0.0084(5) 0.1216(1)
C7 C 0.2329(3) 0.1244(4) 0.1793(2)
C8 C 0.1761(3) 0.0616(5) 0.2294(2)
C9 C 0.0576(4) 0.0950(6) 0.2342(2)
C10 C -0.0056(4) 0.1896(8) 0.1889(4)
C11 C 0.0471(5) 0.2551(6) 0.1386(3)
C12 C 0.1683(3) 0.2222(5) 0.1337(2)
C13 C 0.6401(3) 0.1043(4) 0.2894(1)
C14 C 0.7450(3) 0.0068(5) 0.3004(2)
C15 C 0.8143(3) 0.0179(5) 0.3558(2)
C16 C 0.7843(4) 0.1303(6) 0.4017(2)
C17 C 0.6823(4) 0.2282(5) 0.3922(2)
C18 C 0.6112(3) 0.2162(5) 0.3362(1)
C19 C 0.2817(3) -0.1850(5) 0.0532(2)
C20 C 0.2437(7) -0.2628(7) 0.1095(2)
C21 C 0.3796(7) -0.305(1) 0.0319(5)
C22 C 0.183(1) -0.167(1) 0.0047(5)
H1 H 0.83040 0.13980 0.44140
H2 H 0.65670 0.30920 0.42500
H3 H 0.53880 0.28890 0.32900
H4 H 0.76560 -0.07590 0.26760
H5 H 0.88980 -0.04760 0.36160
H6 H 0.40480 0.15200 0.26860
H7 H 0.56650 -0.02660 0.08230
H8 H 0.69070 0.02230 0.17400
H9 H 0.22100 -0.01100 0.26370
H10 H 0.01810 0.05310 0.27030
H11 H -0.08900 0.21370 0.19110
H12 H -0.00010 0.33170 0.10610
H13 H 0.20750 0.26720 0.09700
H14 H 0.19140 -0.19600 0.13040
H15 H 0.21450 -0.38170 0.10410
H16 H 0.31740 -0.27900 0.14080
H17 H 0.34960 -0.41600 0.01690
H18 H 0.40970 -0.24730 -0.00590
H19 H 0.44360 -0.31710 0.06120
H20 H 0.12680 -0.09420 0.01050
H21 H 0.22160 -0.13360 -0.03540
H22 H 0.15180 -0.28690 -0.00810
O2? O 0.132(2) 0.120(2) 0.060(2)
N2? N 0.071(2) 0.084(2) 0.044(1)
C23? C 0.065(2) 0.066(2) 0.047(2)
C24? C 0.053(2) 0.056(2) 0.056(2)
C25? C 0.054(2) 0.059(2) 0.054(2)
C26? C 0.055(2) 0.054(2) 0.055(2)
C27? C 0.051(2) 0.087(2) 0.058(2)
C28? C 0.062(2) 0.090(2) 0.051(2)
C29? C 0.053(2) 0.056(2) 0.079(2)
C30? C 0.061(2) 0.082(2) 0.084(2)
C31? C 0.064(2) 0.101(3) 0.133(4)
C32? C 0.059(3) 0.089(3) 0.213(7)
C33? C 0.083(3) 0.075(3) 0.167(5)
C34? C 0.077(2) 0.066(2) 0.113(3)
C35? C 0.054(2) 0.055(2) 0.053(2)
C36? C 0.058(2) 0.073(2) 0.065(2)
C37? C 0.066(2) 0.079(2) 0.082(2)
C38? C 0.086(3) 0.087(3) 0.064(2)
C39? C 0.094(3) 0.082(3) 0.059(2)
C40? C 0.069(2) 0.070(2) 0.056(2)
C41? C 0.081(2) 0.086(3) 0.060(2)
C42? C 0.243(7) 0.089(3) 0.100(4)
C43? C 0.163(6) 0.157(6) 0.267(9)
C44? C 0.31(1) 0.155(7) 0.31(1)
#END
