
#######################################################################
#
#                 Cambridge Crystallographic Data Centre
#                                CCDC
#
#######################################################################
#
# If this CIF has been generated from an entry in the Cambridge
# Structural Database, then it will include bibliographic, chemical,
# crystal, experimental, refinement or atomic coordinate data resulting
# from the CCDC's data processing and validation procedures.
#
#######################################################################

data_CSD_CIF_WAPTAJ
_audit_creation_date 2005-09-01
_audit_creation_method CSD-ConQuest-V1
_database_code_CSD WAPTAJ
_database_code_depnum_ccdc_archive 'CCDC 272809'
_chemical_formula_sum 'C16 H14 N2 O4'
_chemical_formula_moiety
;
C16 H14 N2 O4
;
_journal_coden_Cambridge 4
_journal_volume 106
_journal_year 1984
_journal_page_first 3880
_journal_name_full 'J.Am.Chem.Soc. '
loop_
_publ_author_name
"K.N.Houk"
"S.R.Moses"
"Yun-Dong Wu"
"N.G.Rondan"
"V.Jager"
"R.Schohe"
"F.R.Fronczek"
_chemical_name_systematic
;
(3-(p-Nitrophenyl)-4,5-dihydro-5-isoxazolyl)(phenyl)methanol
;
_cell_volume   1374.041
_exptl_crystal_colour 'colorless'
_exptl_crystal_density_diffrn 1.442
_exptl_crystal_description 'lath'
_diffrn_ambient_temperature 110
#These two values have been output from a single CSD field.
_refine_ls_R_factor_gt 0.038
_refine_ls_wR_factor_gt 0.038
_symmetry_cell_setting monoclinic
_symmetry_space_group_name_H-M 'P 21/n'
_symmetry_Int_Tables_number 14
loop_
_symmetry_equiv_pos_site_id
_symmetry_equiv_pos_as_xyz
1 x,y,z
2 1/2-x,1/2+y,1/2-z
3 -x,-y,-z
4 -1/2+x,-1/2-y,-1/2+z
_cell_length_a 7.974(2)
_cell_length_b 5.582(2)
_cell_length_c 30.914(11)
_cell_angle_alpha 90
_cell_angle_beta 93.065(11)
_cell_angle_gamma 90
_cell_formula_units_Z 4
loop_
_atom_type_symbol
_atom_type_radius_bond
C 0.68
H 0.23
N 0.68
O 0.68
loop_
_atom_site_label
_atom_site_type_symbol
_atom_site_fract_x
_atom_site_fract_y
_atom_site_fract_z
O1 O 0.55608(14) 0.67330(18) 0.27455(3)
O2 O 0.29278(19) 0.2087(3) 0.52512(4)
O3 O 0.17573(18) 0.5594(2) 0.52093(4)
O4 O 0.30161(15) 0.3866(2) 0.24801(4)
H1 H 0.236(2) 0.274(3) 0.2433(6)
N1 N 0.49126(17) 0.7038(2) 0.31601(4)
N2 N 0.2593(2) 0.3977(3) 0.50594(5)
C1 C 0.5923(2) 0.4177(3) 0.26768(5)
H2 H 0.70840 0.39750 0.25750
C2 C 0.5796(2) 0.3047(3) 0.31229(5)
H3 H 0.50630 0.16160 0.31100
H4 H 0.69160 0.26010 0.32520
C3 C 0.5032(2) 0.5047(3) 0.33686(5)
C4 C 0.4629(2) 0.3192(3) 0.23397(5)
H5 H 0.47010 0.14040 0.23470
C5 C 0.4919(2) 0.4000(3) 0.18820(5)
C6 C 0.5877(2) 0.2562(3) 0.16232(6)
H6 H 0.63060 0.10900 0.17370
C7 C 0.6224(2) 0.3213(3) 0.12053(6)
H7 H 0.68770 0.21940 0.10350
C8 C 0.5611(2) 0.5364(3) 0.10379(6)
H8 H 0.58550 0.58400 0.07530
C9 C 0.4641(2) 0.6816(3) 0.12884(6)
H9 H 0.42100 0.82820 0.11730
C10 C 0.4292(2) 0.6151(3) 0.17072(5)
H10 H 0.36240 0.71610 0.18760
C11 C 0.4432(2) 0.4846(3) 0.38097(5)
C12 C 0.4870(2) 0.2825(3) 0.40588(6)
H11 H 0.55740 0.16320 0.39460
C13 C 0.4281(2) 0.2555(3) 0.44699(6)
H12 H 0.45780 0.11860 0.46400
C14 C 0.3260(2) 0.4304(3) 0.46284(5)
C15 C 0.2817(2) 0.6351(3) 0.43913(6)
H13 H 0.21240 0.75450 0.45090
C16 C 0.3408(2) 0.6607(3) 0.39815(5)
H14 H 0.31180 0.79910 0.38150
#END
