
#######################################################################
#
#                 Cambridge Crystallographic Data Centre
#                                CCDC
#
#######################################################################
#
# If this CIF has been generated from an entry in the Cambridge
# Structural Database, then it will include bibliographic, chemical,
# crystal, experimental, refinement or atomic coordinate data resulting
# from the CCDC's data processing and validation procedures.
#
#######################################################################

data_CSD_CIF_WARLIN
_audit_creation_date 2017-04-13
_audit_creation_method CSD-ConQuest-V1
_database_code_CSD WARLIN
_database_code_depnum_ccdc_archive 'CCDC 1468921'
_chemical_formula_sum 'C17 H30 N1 O5'
_chemical_formula_moiety
;
C17 H30 N1 O5
;
_journal_coden_Cambridge 1478
_journal_volume 8
_journal_year 2017
_journal_page_first 2693
_journal_name_full 'Polym.Chem. '
loop_
_publ_author_name
"S.Garmendia"
"D.Mantione"
"S.A.Castro"
"C.Jehanno"
"L.Lezama"
"J.L.Hedrick"
"D.Mecerreyes"
"L.Salassa"
"H.Sardon"
_chemical_name_systematic
;
1-oxy-2,2,6,6-tetramethylpiperidin-4-yl 
2,2,5-trimethyl-1,3-dioxane-5-carboxylate
;
_cell_volume   1814.000
_exptl_crystal_colour 'colorless'
_exptl_crystal_density_diffrn 1.203
_diffrn_ambient_temperature 150
#These two values have been output from a single CSD field.
_refine_ls_R_factor_gt 0.0338
_refine_ls_wR_factor_gt 0.0338
_symmetry_cell_setting monoclinic
_symmetry_space_group_name_H-M 'P 2/n'
_symmetry_Int_Tables_number 13
loop_
_symmetry_equiv_pos_site_id
_symmetry_equiv_pos_as_xyz
1 x,y,z
2 1/2-x,y,1/2-z
3 -x,-y,-z
4 -1/2+x,-y,-1/2+z
_cell_length_a 17.1821(2)
_cell_length_b 6.16924(7)
_cell_length_c 17.8483(2)
_cell_angle_alpha 90
_cell_angle_beta 106.5020(15)
_cell_angle_gamma 90
_cell_formula_units_Z 4
loop_
_atom_type_symbol
_atom_type_radius_bond
C 0.68
H 0.23
N 0.68
O 0.68
loop_
_atom_site_label
_atom_site_type_symbol
_atom_site_fract_x
_atom_site_fract_y
_atom_site_fract_z
O1 O 0.63057(5) 0.04880(13) 0.78718(5)
O2 O 0.61373(4) 0.35564(12) 0.84790(4)
O3 O 0.64150(4) 0.09856(12) 1.00864(4)
O4 O 0.66982(4) -0.21681(11) 0.94834(4)
O5 O 0.39829(5) 0.86282(15) 0.63451(5)
N1 N 0.44931(5) 0.74332(14) 0.68382(5)
C1 C 0.64970(6) 0.16683(16) 0.84316(6)
C2 C 0.72121(6) 0.12631(16) 0.91564(6)
C3 C 0.70550(6) 0.21526(16) 0.99000(6)
H1 H 0.75570 0.20350 1.03400
H2 H 0.69070 0.37050 0.98260
C4 C 0.65558(6) -0.12902(17) 1.01740(6)
C5 C 0.73501(6) -0.11744(17) 0.92652(6)
H3 H 0.73940 -0.18240 0.87720
H4 H 0.78660 -0.14440 0.96750
C6 C 0.79607(7) 0.23566(19) 0.90170(8)
H5 H 0.80590 0.17630 0.85430
H6 H 0.84350 0.20840 0.94650
H7 H 0.78670 0.39220 0.89550
C7 C 0.57650(7) -0.22909(19) 1.02153(7)
H8 H 0.56390 -0.17860 1.06880
H9 H 0.58160 -0.38740 1.02300
H10 H 0.53280 -0.18620 0.97540
C8 C 0.72505(7) -0.18291(18) 1.08966(6)
H11 H 0.77480 -0.11150 1.08600
H12 H 0.73340 -0.34020 1.09300
H13 H 0.71160 -0.13170 1.13650
C9 C 0.54618(6) 0.42162(17) 0.78184(6)
H14 H 0.51160 0.29440 0.75870
C10 C 0.57784(6) 0.53421(17) 0.72117(6)
H15 H 0.61070 0.43050 0.70060
H16 H 0.61380 0.65510 0.74620
C11 C 0.50927(6) 0.62356(17) 0.65291(6)
C12 C 0.42562(6) 0.67705(17) 0.75473(6)
C13 C 0.49916(6) 0.58215(17) 0.81568(6)
H17 H 0.53580 0.70190 0.84050
H18 H 0.48040 0.50950 0.85690
C14 C 0.54495(7) 0.7869(2) 0.60738(7)
H19 H 0.50190 0.84050 0.56250
H20 H 0.58720 0.71640 0.58890
H21 H 0.56860 0.90870 0.64150
C15 C 0.46581(7) 0.4415(2) 0.59822(6)
H22 H 0.44860 0.32890 0.62880
H23 H 0.50300 0.37860 0.57140
H24 H 0.41810 0.50070 0.55950
C16 C 0.35550(7) 0.5148(2) 0.73107(7)
H25 H 0.31110 0.57740 0.68940
H26 H 0.33610 0.48200 0.77640
H27 H 0.37440 0.38120 0.71220
C17 C 0.39736(7) 0.8794(2) 0.78859(7)
H28 H 0.44100 0.98750 0.80060
H29 H 0.38350 0.84130 0.83650
H30 H 0.34950 0.93960 0.75040
#END
