
#######################################################################
#
#                 Cambridge Crystallographic Data Centre
#                                CCDC
#
#######################################################################
#
# If this CIF has been generated from an entry in the Cambridge
# Structural Database, then it will include bibliographic, chemical,
# crystal, experimental, refinement or atomic coordinate data resulting
# from the CCDC's data processing and validation procedures.
#
#######################################################################

data_CSD_CIF_WARVOC
_audit_creation_date 2012-05-22
_audit_creation_method CSD-ConQuest-V1
_database_code_CSD WARVOC
_database_code_depnum_ccdc_archive 'CCDC 745616'
_chemical_formula_sum 'C14 H17 N1 O5'
_chemical_formula_moiety
;
C14 H17 N1 O5
;
_journal_coden_Cambridge 692
_journal_volume 44
_journal_year 2012
_journal_page_first 125
_journal_name_full 'Synthesis '
loop_
_publ_author_name
"A.R.Martinez"
"D.R.Vega"
"J.M.Aguirre"
"B.Lantano"
"G.Y.Moltrasio"
_chemical_name_systematic
;
(1RS,5RS,6RS)-5-(3,4-Dimethoxyphenyl)-6-nitrocyclohex-2-en-1-ol
;
_cell_volume   1381.624
_exptl_crystal_density_diffrn 1.343
_diffrn_ambient_temperature 293
#These two values have been output from a single CSD field.
_refine_ls_R_factor_gt 0.0544
_refine_ls_wR_factor_gt 0.0544
_symmetry_cell_setting monoclinic
_symmetry_space_group_name_H-M 'P 21/n'
_symmetry_Int_Tables_number 14
loop_
_symmetry_equiv_pos_site_id
_symmetry_equiv_pos_as_xyz
1 x,y,z
2 1/2-x,1/2+y,1/2-z
3 -x,-y,-z
4 -1/2+x,-1/2-y,-1/2+z
_cell_length_a 5.6170(11)
_cell_length_b 18.699(4)
_cell_length_c 13.363(3)
_cell_angle_alpha 90
_cell_angle_beta 100.14(3)
_cell_angle_gamma 90
_cell_formula_units_Z 4
loop_
_atom_type_symbol
_atom_type_radius_bond
C 0.68
H 0.23
N 0.68
O 0.68
loop_
_atom_site_label
_atom_site_type_symbol
_atom_site_fract_x
_atom_site_fract_y
_atom_site_fract_z
C1 C 0.5281(7) 0.62508(19) 0.9125(3)
H1 H 0.39060 0.62630 0.85610
C2 C 0.4368(7) 0.6307(2) 1.0105(3)
H2 H 0.36220 0.59080 1.03270
C3 C 0.4550(7) 0.6888(2) 1.0678(3)
H3 H 0.39550 0.68710 1.12840
C4 C 0.5661(8) 0.75699(19) 1.0401(3)
H4 H 0.72420 0.76260 1.08230
H5 H 0.46620 0.79690 1.05390
C5 C 0.5930(7) 0.75877(18) 0.9279(3)
H6 H 0.42930 0.76200 0.88800
C6 C 0.6968(7) 0.68727(18) 0.9017(3)
H7 H 0.84910 0.67930 0.94880
C7 C 0.7308(7) 0.82329(18) 0.9004(3)
C8 C 0.6296(7) 0.8650(2) 0.8181(3)
H8 H 0.48130 0.85200 0.77980
C9 C 0.7462(7) 0.92593(19) 0.7919(3)
C10 C 0.9687(7) 0.94591(19) 0.8490(3)
C11 C 1.0727(7) 0.9045(2) 0.9293(3)
H9 H 1.22220 0.91710 0.96700
C12 C 0.9535(8) 0.8431(2) 0.9546(3)
H10 H 1.02580 0.81500 1.00910
C13 C 0.4421(8) 0.9499(2) 0.6463(3)
H11 H 0.46150 0.90280 0.62030
H12 H 0.41050 0.98320 0.59100
H13 H 0.30900 0.94990 0.68260
C14 C 1.2798(8) 1.0355(2) 0.8767(3)
H14 H 1.25270 1.04470 0.94440
H15 H 1.32560 1.07910 0.84720
H16 H 1.40680 1.00090 0.87880
N1 N 0.7509(8) 0.68874(17) 0.7955(3)
O1 O 0.6474(7) 0.55914(14) 0.9119(2)
H17 H 0.64110 0.54580 0.85310
O2 O 0.5853(7) 0.69637(18) 0.7248(2)
O3 O 0.9593(7) 0.6823(2) 0.7848(3)
O4 O 0.6571(5) 0.97005(15) 0.7132(2)
O5 O 1.0624(5) 1.00840(14) 0.8163(2)
#END
