
#######################################################################
#
#                 Cambridge Crystallographic Data Centre
#                                CCDC
#
#######################################################################
#
# If this CIF has been generated from an entry in the Cambridge
# Structural Database, then it will include bibliographic, chemical,
# crystal, experimental, refinement or atomic coordinate data resulting
# from the CCDC's data processing and validation procedures.
#
#######################################################################

data_CSD_CIF_WASHOO
_audit_creation_date 2005-12-05
_audit_creation_method CSD-ConQuest-V1
_database_code_CSD WASHOO
_database_code_depnum_ccdc_archive 'CCDC 217528'
_chemical_formula_sum 'C18 H20 N1 O3'
_chemical_formula_moiety
;
C18 H20 N1 O3
;
_journal_coden_Cambridge 1489
_journal_volume 440
_journal_year 2005
_journal_page_first 23
_journal_name_full 'Mol.Cryst.Liq.Cryst. '
loop_
_publ_author_name
"N.Ikuma"
"R.Tamura"
"S.Shimono"
"N.Kawame"
"O.Tamada"
"N.Sakai"
"Y.Yamamoto"
"J.Yamauchi"
_chemical_name_systematic
;
trans-(+-)-2,5-bis(3-Hydroxyphenyl)-2,5-dimethylpyrrolidine-1-oxyl
;
_cell_volume   1545.277
_exptl_crystal_colour 'yellow'
_exptl_crystal_density_diffrn 1.282
_exptl_special_details
;
weakly antiferromagnetic below 20K

;
_exptl_crystal_description 'prism'
_exptl_crystal_preparation 'methanol'
_diffrn_ambient_temperature 298
#These two values have been output from a single CSD field.
_refine_ls_R_factor_gt 0.0517
_refine_ls_wR_factor_gt 0.0517
_symmetry_cell_setting orthorhombic
_symmetry_space_group_name_H-M 'P b c n'
_symmetry_Int_Tables_number 60
loop_
_symmetry_equiv_pos_site_id
_symmetry_equiv_pos_as_xyz
1 x,y,z
2 1/2-x,1/2-y,1/2+z
3 1/2+x,1/2-y,-z
4 -x,y,1/2-z
5 -x,-y,-z
6 -1/2+x,-1/2+y,-1/2-z
7 -1/2-x,-1/2+y,z
8 x,-y,-1/2+z
_cell_length_a 19.178(2)
_cell_length_b 8.9422(8)
_cell_length_c 9.0107(4)
_cell_angle_alpha 90
_cell_angle_beta 90
_cell_angle_gamma 90
_cell_formula_units_Z 4
loop_
_atom_type_symbol
_atom_type_radius_bond
C 0.68
H 0.23
N 0.68
O 0.68
loop_
_atom_site_label
_atom_site_type_symbol
_atom_site_fract_x
_atom_site_fract_y
_atom_site_fract_z
O1 O 1.00000 0.0599(3) 0.75000
N1 N 1.00000 0.2041(3) 0.75000
C1 C 0.86595(12) 0.2045(3) 1.1233(2)
C2 C 0.89108(11) 0.2878(3) 0.8749(2)
O2 O 0.88116(10) 0.1239(2) 1.24865(16)
C3 C 0.93528(11) 0.2919(3) 0.7333(2)
C4 C 0.90823(11) 0.2014(3) 0.9982(2)
C5 C 0.83139(12) 0.3744(3) 0.8806(2)
C6 C 0.80643(12) 0.2905(3) 1.1261(2)
C7 C 0.96606(14) 0.4475(3) 0.7076(3)
C8 C 0.89337(13) 0.2350(4) 0.6001(3)
C9 C 0.78954(12) 0.3758(3) 1.0049(3)
H1 H 0.91630 0.07380 1.23440
H2 H 0.94790 0.14170 0.99670
H3 H 0.81930 0.43270 0.79910
H4 H 0.77790 0.29070 1.20960
H5 H 0.97420 0.46480 0.60280
H6 H 0.93500 0.52430 0.74500
H7 H 0.92340 0.22760 0.51510
H8 H 0.85610 0.30330 0.57920
H9 H 0.87440 0.13820 0.62260
H10 H 0.74960 0.43480 1.00650
C1C C 1.13405(12) 0.2045(3) 0.3767(2)
C2C C 1.10892(11) 0.2878(3) 0.6251(2)
O2C O 1.11884(10) 0.1239(2) 0.25135(16)
C3C C 1.06472(11) 0.2919(3) 0.7667(2)
C4C C 1.09177(11) 0.2014(3) 0.5018(2)
C5C C 1.16861(12) 0.3744(3) 0.6194(2)
C6C C 1.19357(12) 0.2905(3) 0.3739(2)
C7C C 1.03394(14) 0.4475(3) 0.7924(3)
C8C C 1.10663(13) 0.2350(4) 0.8999(3)
C9C C 1.21046(12) 0.3758(3) 0.4951(3)
H1C H 1.08370 0.07380 0.26560
H2C H 1.05210 0.14170 0.50330
H3C H 1.18070 0.43270 0.70090
H4C H 1.22210 0.29070 0.29040
H5C H 1.02580 0.46480 0.89720
H6C H 1.06500 0.52430 0.75500
H7C H 1.07660 0.22760 0.98490
H8C H 1.14390 0.30330 0.92080
H9C H 1.12560 0.13820 0.87740
H10C H 1.25040 0.43480 0.49350
#END
