
#######################################################################
#
#                 Cambridge Crystallographic Data Centre
#                                CCDC
#
#######################################################################
#
# If this CIF has been generated from an entry in the Cambridge
# Structural Database, then it will include bibliographic, chemical,
# crystal, experimental, refinement or atomic coordinate data resulting
# from the CCDC's data processing and validation procedures.
#
#######################################################################

data_CSD_CIF_WASRAJ02
_audit_creation_date 2013-05-26
_audit_creation_method CSD-ConQuest-V1
_database_code_CSD WASRAJ02
_database_code_depnum_ccdc_archive 'CCDC 935513'
_chemical_formula_sum 'C6 H6 N4 O4'
_chemical_formula_moiety
;
C6 H6 N4 O4
;
_journal_coeditor_code "IUCr ds2226"
_journal_coden_Cambridge 1370
_journal_volume 69
_journal_year 2013
_journal_page_first o425
_journal_name_full 'Acta Crystallogr.,Sect.E:Struct.Rep.Online '
loop_
_publ_author_name
"K.Amimoto"
"H.Nishiguchi"
_chemical_name_systematic
;
(2,4-Dinitrophenyl)hydrazine
;
_cell_volume    746.226
_exptl_crystal_colour 'red'
_exptl_crystal_density_diffrn 1.764
_exptl_special_details
;
polymorph II

;
_exptl_crystal_description 'block'
_exptl_crystal_preparation '1,4-dioxane'
_diffrn_ambient_temperature 90
#These two values have been output from a single CSD field.
_refine_ls_R_factor_gt 0.027
_refine_ls_wR_factor_gt 0.027
_symmetry_cell_setting monoclinic
_symmetry_space_group_name_H-M 'C c'
_symmetry_Int_Tables_number 9
loop_
_symmetry_equiv_pos_site_id
_symmetry_equiv_pos_as_xyz
1 x,y,z
2 x,-y,1/2+z
3 1/2+x,1/2+y,z
4 1/2+x,1/2-y,1/2+z
_cell_length_a 12.697(5)
_cell_length_b 9.179(5)
_cell_length_c 7.662(5)
_cell_angle_alpha 90
_cell_angle_beta 123.315(5)
_cell_angle_gamma 90
_cell_formula_units_Z 4
loop_
_atom_type_symbol
_atom_type_radius_bond
C 0.68
H 0.23
N 0.68
O 0.68
loop_
_atom_site_label
_atom_site_type_symbol
_atom_site_fract_x
_atom_site_fract_y
_atom_site_fract_z
C1 C 0.22967(12) 0.03156(15) 0.6894(2)
C2 C 0.33423(13) 0.08580(17) 0.8822(2)
C3 C 0.35605(13) 0.23444(16) 0.9232(2)
C4 C 0.27641(14) 0.33162(17) 0.7701(2)
C5 C 0.17463(14) 0.28510(15) 0.5739(2)
C6 C 0.15142(14) 0.13877(16) 0.5363(2)
N1 N 0.42299(11) -0.00982(14) 1.04810(18)
N2 N 0.30055(12) 0.48633(14) 0.8159(2)
N3 N 0.20280(12) -0.11032(13) 0.6487(2)
N4 N 0.09528(12) -0.15491(14) 0.4547(2)
O1 O 0.41196(11) -0.14375(11) 1.01911(17)
O2 O 0.50714(11) 0.04357(13) 1.21641(18)
O3 O 0.38720(12) 0.52367(12) 0.99101(19)
O4 O 0.23265(12) 0.57352(12) 0.67622(19)
H1 H 0.431(2) 0.268(2) 1.060(3)
H2 H 0.252(3) -0.162(3) 0.746(4)
H3 H 0.118(2) 0.350(2) 0.464(4)
H4 H 0.033(2) -0.171(2) 0.476(4)
H5 H 0.116(3) -0.253(3) 0.422(5)
H6 H 0.082(2) 0.110(3) 0.414(4)
#END
