
#######################################################################
#
#                 Cambridge Crystallographic Data Centre
#                                CCDC
#
#######################################################################
#
# If this CIF has been generated from an entry in the Cambridge
# Structural Database, then it will include bibliographic, chemical,
# crystal, experimental, refinement or atomic coordinate data resulting
# from the CCDC's data processing and validation procedures.
#
#######################################################################

data_CSD_CIF_WASRAJ01
_audit_creation_date 2006-07-17
_audit_creation_method CSD-ConQuest-V1
_database_code_CSD WASRAJ01
_database_code_depnum_ccdc_archive 'CCDC 612449'
_chemical_formula_sum 'C6 H6 N4 O4'
_chemical_formula_moiety
;
C6 H6 N4 O4
;
_journal_coeditor_code "IUCr SK3017"
_journal_coden_Cambridge 591
_journal_volume 62
_journal_year 2006
_journal_page_first o318
_journal_name_full 'Acta Crystallogr.,Sect.C:Cryst.Struct.Commun. '
loop_
_publ_author_name
"J.L.Wardell"
"J.N.Low"
"C.Glidewell"
_chemical_name_systematic
;
2,4-Dinitrophenylhydrazine
;
_cell_volume    771.974
_exptl_crystal_colour 'orange'
_exptl_crystal_density_diffrn 1.705
_exptl_special_details
;
polymorph I

;
_exptl_crystal_description 'plate'
_exptl_crystal_preparation 'ethanol'
_diffrn_ambient_temperature 120
#These two values have been output from a single CSD field.
_refine_ls_R_factor_gt 0.0523
_refine_ls_wR_factor_gt 0.0523
_symmetry_cell_setting monoclinic
_symmetry_space_group_name_H-M 'P 21/c'
_symmetry_Int_Tables_number 14
loop_
_symmetry_equiv_pos_site_id
_symmetry_equiv_pos_as_xyz
1 x,y,z
2 -x,1/2+y,1/2-z
3 -x,-y,-z
4 x,-1/2-y,-1/2+z
_cell_length_a 4.7917(2)
_cell_length_b 11.5905(6)
_cell_length_c 14.0496(5)
_cell_angle_alpha 90
_cell_angle_beta 98.372(3)
_cell_angle_gamma 90
_cell_formula_units_Z 4
loop_
_atom_type_symbol
_atom_type_radius_bond
C 0.68
H 0.23
N 0.68
O 0.68
loop_
_atom_site_label
_atom_site_type_symbol
_atom_site_fract_x
_atom_site_fract_y
_atom_site_fract_z
O1 O 0.7714(3) 0.38510(13) 0.26608(10)
O2 O 0.4354(3) 0.48759(13) 0.31092(11)
O3 O 0.0413(3) 0.39687(14) 0.59366(11)
O4 O 0.2072(3) 0.25219(14) 0.68243(10)
N1 N 0.8872(4) 0.18027(15) 0.33876(11)
N2 N 0.5923(4) 0.40231(15) 0.32000(11)
N3 N 0.1951(4) 0.31214(16) 0.60898(12)
N4 N 1.0180(4) 0.07058(15) 0.34824(12)
C1 C 0.7212(4) 0.21498(17) 0.40275(13)
C2 C 0.5699(4) 0.32132(17) 0.39589(13)
C3 C 0.3937(4) 0.35209(18) 0.46204(13)
C4 C 0.3720(4) 0.27957(17) 0.53799(13)
C5 C 0.5205(4) 0.17504(18) 0.54867(13)
C6 C 0.6891(5) 0.14360(18) 0.48299(14)
H1 H 0.91430 0.22590 0.29090
H2 H 0.29000 0.42220 0.45490
H3 H 0.50360 0.12610 0.60180
H4 H 0.78760 0.07230 0.49090
H5 H 0.92080 0.02750 0.29500
H6 H 1.21860 0.09050 0.35110
#END
