
#######################################################################
#
#                 Cambridge Crystallographic Data Centre
#                                CCDC
#
#######################################################################
#
# If this CIF has been generated from an entry in the Cambridge
# Structural Database, then it will include bibliographic, chemical,
# crystal, experimental, refinement or atomic coordinate data resulting
# from the CCDC's data processing and validation procedures.
#
#######################################################################

data_CSD_CIF_WASTIT
_audit_creation_date 1994-02-02
_audit_creation_method CSD-ConQuest-V1
_database_code_CSD WASTIT
_chemical_formula_sum 'C21 H25 N3 O10'
_chemical_formula_moiety
;
C21 H25 N3 O10
;
_journal_coeditor_code "IUCr OH1015"
_journal_coden_Cambridge 591
_journal_volume 49
_journal_year 1993
_journal_page_first 1700
_journal_name_full 'Acta Crystallogr.,Sect.C:Cryst.Struct.Commun. '
loop_
_publ_author_name
"T.Ogawa"
"K.Matsumoto"
"K.Hatayama"
"K.Kitamura"
_chemical_name_systematic
;
(R)-(+)-3-Nitro-oxypropyl-2-methoxyethyl 
1,4-dihydro-2,6-dimethyl-4-(3-nitrophenyl)-3,5-pyridinedicarboxylate
;
_cell_volume   1129.991
_exptl_crystal_colour 'light yellow'
_exptl_crystal_density_diffrn 1.41
_exptl_special_details
;
vasodilatory activity as a calcium antagonist

;
_diffrn_ambient_temperature ?
_diffrn_special_details
;
The study was carried out at room temperature,in the range 283-303K

;
#These two values have been output from a single CSD field.
_refine_ls_R_factor_gt 0.035
_refine_ls_wR_factor_gt 0.035
_symmetry_cell_setting monoclinic
_symmetry_space_group_name_H-M 'P 21'
_symmetry_Int_Tables_number 4
loop_
_symmetry_equiv_pos_site_id
_symmetry_equiv_pos_as_xyz
1 x,y,z
2 -x,1/2+y,-z
_cell_length_a 13.216(2)
_cell_length_b 7.980(2)
_cell_length_c 10.970(2)
_cell_angle_alpha 90
_cell_angle_beta 102.39(1)
_cell_angle_gamma 90
_cell_formula_units_Z 2
loop_
_atom_type_symbol
_atom_type_radius_bond
C 0.68
H 0.23
N 0.68
O 0.68
loop_
_atom_site_label
_atom_site_type_symbol
_atom_site_fract_x
_atom_site_fract_y
_atom_site_fract_z
N1 N -0.3304(2) 0.0019(1) 0.0489(2)
C1 C -0.2535(2) 0.1029(5) 0.1163(2)
C2 C -0.2147(2) 0.0650(5) 0.2379(2)
C3 C -0.2642(2) -0.0735(5) 0.3013(2)
C4 C -0.3164(2) -0.2020(5) 0.2068(2)
C5 C -0.3523(2) -0.1557(6) 0.0863(2)
C6 C -0.3405(2) -0.0006(5) 0.3741(2)
C7 C -0.3194(2) -0.0066(5) 0.5038(2)
C8 C -0.3889(2) 0.0662(5) 0.5664(2)
C9 C -0.4797(2) 0.1412(6) 0.5059(3)
C10 C -0.5015(2) 0.1416(6) 0.3777(3)
C11 C -0.4329(2) 0.0733(5) 0.3125(2)
N2 N -0.3648(2) 0.0613(6) 0.7036(2)
O1 O -0.4198(2) 0.1369(7) 0.7594(2)
O2 O -0.2898(2) -0.0187(7) 0.7568(2)
C12 C -0.1254(2) 0.1452(5) 0.3192(2)
O3 O -0.0913(2) 0.1010(5) 0.4252(2)
O4 O -0.0842(2) 0.2735(4) 0.2684(2)
C13 C 0.0068(2) 0.3520(6) 0.3460(3)
C14 C 0.0312(2) 0.5043(6) 0.2762(3)
C15 C -0.0461(3) 0.6399(6) 0.2793(4)
O5 O -0.0231(2) 0.7889(5) 0.2141(3)
N3 N -0.0643(3) 0.7957(8) 0.0881(4)
O6 O -0.0405(4) 0.9195(8) 0.0408(4)
O7 O -0.1234(3) 0.6838(9) 0.0441(3)
C16 C -0.3286(2) -0.3726(5) 0.2499(3)
O8 O -0.3682(2) -0.4910(5) 0.1897(2)
O9 O -0.2858(2) -0.3862(4) 0.3728(2)
C17 C -0.2871(3) -0.5511(6) 0.4278(3)
C18 C -0.2148(3) -0.5471(6) 0.5527(3)
O10 O -0.2502(2) -0.4337(6) 0.6314(2)
C19 C -0.2038(6) -0.452(1) 0.7578(4)
C20 C -0.4155(3) -0.2599(7) -0.0166(3)
C21 C -0.2229(3) 0.2437(6) 0.0408(3)
H1 H -0.357(3) 0.029(6) -0.024(4)
H2 H -0.212(3) -0.128(5) 0.360(3)
H3 H -0.259(3) -0.066(5) 0.548(3)
H4 H -0.525(3) 0.183(6) 0.548(4)
H5 H -0.565(3) 0.200(6) 0.331(4)
H6 H -0.446(3) 0.074(6) 0.224(4)
H7 H -0.010(3) 0.376(6) 0.423(4)
H8 H 0.068(3) 0.276(6) 0.362(4)
H9 H 0.030(3) 0.484(6) 0.176(4)
H10 H 0.098(3) 0.551(6) 0.316(4)
H11 H -0.117(3) 0.604(6) 0.225(4)
H12 H -0.045(3) 0.666(7) 0.383(4)
H13 H -0.267(3) -0.643(6) 0.369(4)
H14 H -0.355(3) -0.571(6) 0.435(4)
H15 H -0.212(3) -0.656(7) 0.587(4)
H16 H -0.148(3) -0.507(7) 0.546(4)
H17 H -0.232(6) -0.39(1) 0.798(7)
H18 H -0.213(6) -0.56(1) 0.782(7)
H19 H -0.133(5) -0.48(1) 0.759(6)
H20 H -0.457(4) -0.192(7) -0.077(4)
H21 H -0.463(3) -0.346(7) 0.017(4)
H22 H -0.376(4) -0.321(7) -0.052(4)
H23 H -0.147(4) 0.250(6) 0.021(4)
H24 H -0.266(3) 0.269(7) -0.026(4)
H25 H -0.229(3) 0.344(7) 0.079(4)
#END
