
#######################################################################
#
#                 Cambridge Crystallographic Data Centre
#                                CCDC
#
#######################################################################
#
# If this CIF has been generated from an entry in the Cambridge
# Structural Database, then it will include bibliographic, chemical,
# crystal, experimental, refinement or atomic coordinate data resulting
# from the CCDC's data processing and validation procedures.
#
#######################################################################

data_CSD_CIF_WASTUF
_audit_creation_date 1994-02-15
_audit_creation_method CSD-ConQuest-V1
_database_code_CSD WASTUF
_database_code_depnum_ccdc_archive 'CCDC 1290420'
_chemical_formula_sum 'C19 H31 N1 O3'
_chemical_formula_moiety
;
C19 H31 N1 O3
;
_journal_coden_Cambridge 54
_journal_volume 101
_journal_year 1992
_journal_page_first 953
_journal_name_full 'Bull.Soc.Chim.Belg. '
loop_
_publ_author_name
"B.Tinant"
"J.P.Declercq"
"L.J.Lorenc"
"M.Rajkovic"
"A.Milovanovic"
"M.L.J.Mihailovic"
_chemical_name_systematic
;
N-Methyl-1\b,5-epoxyimino-19-nor-5\b-androstane-3\b,17\b-diol
;
_chemical_melting_point 481.15
_cell_volume   1757.474
_exptl_crystal_density_diffrn 1.22
_diffrn_ambient_temperature ?
_diffrn_special_details
;
The study was carried out at room temperature,in the range 283-303K

;
#These two values have been output from a single CSD field.
_refine_ls_R_factor_gt 0.036
_refine_ls_wR_factor_gt 0.036
_symmetry_cell_setting orthorhombic
_symmetry_space_group_name_H-M 'P 21 21 21'
_symmetry_Int_Tables_number 19
loop_
_symmetry_equiv_pos_site_id
_symmetry_equiv_pos_as_xyz
1 x,y,z
2 1/2+x,1/2-y,-z
3 -x,1/2+y,1/2-z
4 1/2-x,-y,1/2+z
_cell_length_a 7.922(4)
_cell_length_b 17.077(4)
_cell_length_c 12.991(3)
_cell_angle_alpha 90
_cell_angle_beta 90
_cell_angle_gamma 90
_cell_formula_units_Z 4
loop_
_atom_type_symbol
_atom_type_radius_bond
C 0.68
N 0.68
O 0.68
loop_
_atom_site_label
_atom_site_type_symbol
_atom_site_fract_x
_atom_site_fract_y
_atom_site_fract_z
C1 C -0.0238(4) 0.2997(2) 0.7537(2)
C2 C -0.0548(4) 0.2654(2) 0.8602(3)
C3 C 0.0914(4) 0.2829(2) 0.9333(2)
C4 C 0.2605(4) 0.2732(2) 0.8805(2)
C5 C 0.2662(4) 0.3062(2) 0.7705(2)
C6 C 0.4410(4) 0.2962(2) 0.7242(3)
C7 C 0.4776(4) 0.2094(2) 0.7035(3)
C8 C 0.3393(3) 0.1705(1) 0.6380(2)
C9 C 0.1631(3) 0.1802(2) 0.6864(2)
C10 C 0.1338(4) 0.2676(1) 0.7022(2)
C11 C 0.0246(4) 0.1418(2) 0.6215(3)
C12 C 0.0626(4) 0.0559(2) 0.5966(3)
C13 C 0.2364(4) 0.0468(2) 0.5481(2)
C14 C 0.3700(4) 0.0837(1) 0.6190(2)
C15 C 0.5374(4) 0.0563(2) 0.5729(3)
C16 C 0.4977(5) -0.0254(2) 0.5319(3)
C17 C 0.3070(4) -0.0374(2) 0.5438(3)
C18 C 0.2374(5) 0.0802(2) 0.4388(3)
O1 O 0.0759(3) 0.3595(1) 0.9787(2)
O2 O 0.2438(4) -0.0859(1) 0.4638(2)
O3 O 0.0174(3) 0.3822(1) 0.7610(2)
N1 N 0.2042(3) 0.3890(1) 0.7797(2)
C19 C 0.2616(5) 0.4438(2) 0.7016(3)
#END
