
#######################################################################
#
#                 Cambridge Crystallographic Data Centre
#                                CCDC
#
#######################################################################
#
# If this CIF has been generated from an entry in the Cambridge
# Structural Database, then it will include bibliographic, chemical,
# crystal, experimental, refinement or atomic coordinate data resulting
# from the CCDC's data processing and validation procedures.
#
#######################################################################

data_CSD_CIF_WAWBAY
_audit_creation_date 2005-12-05
_audit_creation_method CSD-ConQuest-V1
_database_code_CSD WAWBAY
_database_code_depnum_ccdc_archive 'CCDC 283935'
_chemical_formula_sum 'C10 H11 N3 O3'
_chemical_formula_moiety
;
C10 H11 N3 O3
;
_journal_coeditor_code "IUCr HK6034"
_journal_coden_Cambridge 1370
_journal_volume 61
_journal_year 2005
_journal_page_first o2804
_journal_name_full 'Acta Crystallogr.,Sect.E:Struct.Rep.Online '
loop_
_publ_author_name
"M.Akkurt"
"S.O.Yildirim"
"E.Orhan"
"H.Kucukbay"
"O.Buyukgungor"
_chemical_name_systematic
;
1-Methoxyethyl-5-nitrobenzimidazole
;
_chemical_melting_point 351
_cell_volume    525.251
_exptl_crystal_colour 'colorless'
_exptl_crystal_density_diffrn 1.399
_exptl_special_details
;
Melting point range 351-352K
potential biological activity

;
_exptl_crystal_description 'plate'
_exptl_crystal_preparation 'ethanol'
_diffrn_ambient_temperature 296
#These two values have been output from a single CSD field.
_refine_ls_R_factor_gt 0.0487
_refine_ls_wR_factor_gt 0.0487
_symmetry_cell_setting triclinic
_symmetry_space_group_name_H-M 'P -1'
_symmetry_Int_Tables_number 2
loop_
_symmetry_equiv_pos_site_id
_symmetry_equiv_pos_as_xyz
1 x,y,z
2 -x,-y,-z
_cell_length_a 4.7940(7)
_cell_length_b 8.4531(13)
_cell_length_c 13.411(2)
_cell_angle_alpha 97.350(12)
_cell_angle_beta 94.854(12)
_cell_angle_gamma 101.266(12)
_cell_formula_units_Z 2
loop_
_atom_type_symbol
_atom_type_radius_bond
C 0.68
H 0.23
N 0.68
O 0.68
loop_
_atom_site_label
_atom_site_type_symbol
_atom_site_fract_x
_atom_site_fract_y
_atom_site_fract_z
O1 O 0.6727(5) 0.7623(3) 0.40810(15)
O2 O 0.2956(4) 0.5922(3) 0.42843(12)
O3 O 0.2278(4) 0.47209(17) 0.89320(11)
N1 N 0.4909(5) 0.7079(3) 0.46004(14)
N2 N 0.5574(4) 0.9718(2) 0.86513(13)
N3 N 0.1970(3) 0.75853(18) 0.80550(11)
C1 C 0.5115(5) 0.7834(2) 0.56586(14)
C2 C 0.7353(6) 0.9169(3) 0.60125(18)
C3 C 0.7654(5) 0.9889(3) 0.70051(18)
C4 C 0.5711(4) 0.9250(2) 0.76324(14)
C5 C 0.3478(4) 0.7912(2) 0.72494(13)
C6 C 0.3109(5) 0.7164(2) 0.62499(14)
C7 C 0.3337(5) 0.8703(3) 0.88552(16)
C8 C -0.0468(5) 0.6251(3) 0.80638(19)
C9 C 0.0397(5) 0.4632(2) 0.80549(16)
C10 C 0.2970(8) 0.3200(3) 0.9038(2)
H1 H 0.879(6) 0.960(3) 0.559(2)
H2 H 0.927(6) 1.086(3) 0.7256(19)
H3 H 0.165(6) 0.628(3) 0.600(2)
H4 H 0.268(6) 0.869(3) 0.952(2)
H5 H -0.177(6) 0.619(3) 0.745(2)
H6 H -0.130(6) 0.650(3) 0.870(2)
H7 H -0.135(6) 0.374(3) 0.8049(19)
H8 H 0.135(6) 0.431(3) 0.743(2)
H9 H 0.370(7) 0.277(4) 0.839(3)
H10 H 0.118(7) 0.235(4) 0.910(2)
H11 H 0.423(7) 0.331(4) 0.958(3)
#END
