
#######################################################################
#
#                 Cambridge Crystallographic Data Centre
#                                CCDC
#
#######################################################################
#
# If this CIF has been generated from an entry in the Cambridge
# Structural Database, then it will include bibliographic, chemical,
# crystal, experimental, refinement or atomic coordinate data resulting
# from the CCDC's data processing and validation procedures.
#
#######################################################################

data_CSD_CIF_WAWXAV
_audit_creation_date 2012-05-09
_audit_creation_method CSD-ConQuest-V1
_database_code_CSD WAWXAV
_database_code_depnum_ccdc_archive 'CCDC 873897'
_chemical_formula_sum 'C14 H12 N2 O4'
_chemical_formula_moiety
;
C14 H12 N2 O4
;
_journal_coeditor_code "IUCr SK3430"
_journal_coden_Cambridge 591
_journal_volume 68
_journal_year 2012
_journal_page_first o131
_journal_name_full 'Acta Crystallogr.,Sect.C:Cryst.Struct.Commun. '
loop_
_publ_author_name
"M.C.Blanco"
"A.Palma"
"J.Cobo"
"C.Glidewell"
_chemical_name_systematic
;
2-exo-(5-nitrofuran-2-yl)-2,3,4,5-tetrahydro-1,4-epoxy-1H-1-benzazepine
;
_cell_volume   1235.417
_exptl_crystal_colour 'pale yellow'
_exptl_crystal_density_diffrn 1.464
_exptl_crystal_description 'block'
_diffrn_ambient_temperature 120
#These two values have been output from a single CSD field.
_refine_ls_R_factor_gt 0.0478
_refine_ls_wR_factor_gt 0.0478
_symmetry_cell_setting monoclinic
_symmetry_space_group_name_H-M 'P 21/c'
_symmetry_Int_Tables_number 14
loop_
_symmetry_equiv_pos_site_id
_symmetry_equiv_pos_as_xyz
1 x,y,z
2 -x,1/2+y,1/2-z
3 -x,-y,-z
4 x,-1/2-y,-1/2+z
_cell_length_a 7.2248(5)
_cell_length_b 18.1447(19)
_cell_length_c 9.4504(8)
_cell_angle_alpha 90
_cell_angle_beta 94.279(6)
_cell_angle_gamma 90
_cell_formula_units_Z 4
loop_
_atom_type_symbol
_atom_type_radius_bond
C 0.68
H 0.23
N 0.68
O 0.68
loop_
_atom_site_label
_atom_site_type_symbol
_atom_site_fract_x
_atom_site_fract_y
_atom_site_fract_z
O1 O 0.74199(18) 0.72903(7) 0.26127(14)
O2 O 0.51992(18) 0.53677(7) 0.20618(14)
O3 O 0.0841(2) 0.45586(9) 0.18575(17)
O4 O 0.3362(2) 0.42819(9) 0.31571(17)
N1 N 0.7940(2) 0.65364(8) 0.29746(16)
N2 N 0.2495(2) 0.46536(9) 0.22568(19)
C1 C 0.7725(3) 0.61739(11) 0.15524(19)
H1 H 0.85690 0.57370 0.15400
C2 C 0.8342(3) 0.67659(11) 0.0504(2)
H2 H 0.95540 0.66380 0.01450
H3 H 0.74100 0.68250 -0.03100
C3 C 0.8491(3) 0.74663(11) 0.1412(2)
H4 H 0.79360 0.78970 0.08720
C4 C 1.0452(3) 0.76363(11) 0.1985(2)
H5 H 1.04840 0.81190 0.24730
H6 H 1.12700 0.76650 0.11920
C5 C 1.1144(3) 0.70423(11) 0.3014(2)
C6 C 1.2998(3) 0.69754(11) 0.3510(2)
H7 H 1.38770 0.73170 0.32000
C7 C 1.3589(3) 0.64225(12) 0.4445(2)
H8 H 1.48640 0.63850 0.47640
C8 C 1.2311(3) 0.59195(11) 0.4918(2)
H9 H 1.27110 0.55420 0.55660
C9 C 1.0461(3) 0.59730(11) 0.4442(2)
H10 H 0.95860 0.56320 0.47630
C10 C 0.9884(3) 0.65272(10) 0.34914(19)
C11 C 0.5770(3) 0.59338(11) 0.1235(2)
C12 C 0.4365(3) 0.61302(12) 0.0268(2)
H11 H 0.44090 0.65050 -0.04300
C13 C 0.2833(3) 0.56748(11) 0.0493(2)
H12 H 0.16470 0.56770 -0.00130
C14 C 0.3422(3) 0.52358(11) 0.1583(2)
#END
