
#######################################################################
#
#                 Cambridge Crystallographic Data Centre
#                                CCDC
#
#######################################################################
#
# If this CIF has been generated from an entry in the Cambridge
# Structural Database, then it will include bibliographic, chemical,
# crystal, experimental, refinement or atomic coordinate data resulting
# from the CCDC's data processing and validation procedures.
#
#######################################################################

data_CSD_CIF_WAXFAE
_audit_creation_date 2012-05-08
_audit_creation_method CSD-ConQuest-V1
_database_code_CSD WAXFAE
_database_code_depnum_ccdc_archive 'CCDC 812720'
_chemical_formula_sum 'C36 H22 N10 O6'
_chemical_formula_moiety
;
C36 H22 N10 O6
;
_journal_coden_Cambridge 1037
_journal_volume 12
_journal_year 2011
_journal_page_first 213-11
_journal_name_full 'ARKIVOC '
loop_
_publ_author_name
"E.N.Hristea"
"M.Bem"
"T.S.Balaban"
"A.Eichhofer"
"M.T.Caproiu"
"C.Draghici"
"G.Ionita"
"T.Spataru"
"C.Enache"
"M.Maganu"
"A.Beteringhe"
"M.Hillebrand"
"T.Constantinescu"
"A.T.Balaban"
_chemical_name_systematic
;
4-(Diphenylhydrazono)-7-(7-(diphenylhydrazono)-6-nitro-2,1,3-benzoxadiazol-4(7
H)-ylidene)-5-nitro-4,7-dihydro-2,1,3-benzoxadiazole
;
_chemical_name_common
;
7,7'-bis(5,5'-dinitro-benzofurazanylidene)-4,4'-bis(2,2-diphenylhydrazone)
;
_cell_volume    785.662
_exptl_crystal_colour 'black'
_exptl_crystal_density_diffrn 1.46
_exptl_special_details
;
Page numbers for this paper given as 198-221 and 213-236. The latter is the 
correct range
;
_exptl_crystal_description 'platelike'
_diffrn_ambient_temperature 150
_diffrn_radiation_probe x-ray
_diffrn_source synchrotron
#These two values have been output from a single CSD field.
_refine_ls_R_factor_gt 0.0526
_refine_ls_wR_factor_gt 0.0526
_symmetry_cell_setting triclinic
_symmetry_space_group_name_H-M 'P -1'
_symmetry_Int_Tables_number 2
loop_
_symmetry_equiv_pos_site_id
_symmetry_equiv_pos_as_xyz
1 x,y,z
2 -x,-y,-z
_cell_length_a 5.4829(11)
_cell_length_b 9.6207(19)
_cell_length_c 15.613(3)
_cell_angle_alpha 106.46(3)
_cell_angle_beta 94.81(3)
_cell_angle_gamma 91.88(3)
_cell_formula_units_Z 1
loop_
_atom_type_symbol
_atom_type_radius_bond
C 0.68
H 0.23
N 0.68
O 0.68
loop_
_atom_site_label
_atom_site_type_symbol
_atom_site_fract_x
_atom_site_fract_y
_atom_site_fract_z
O1 O -0.0104(3) 0.76458(16) 0.08238(10)
O2 O -0.6682(4) 1.1747(2) 0.33410(11)
O3 O -0.9866(3) 1.12583(18) 0.23758(11)
N1 N -0.1218(4) 0.8401(2) 0.02807(11)
N2 N -0.1312(4) 0.7759(2) 0.15836(12)
N3 N -0.5226(3) 0.7528(2) 0.30497(11)
N4 N -0.5818(3) 0.87008(19) 0.28031(11)
N5 N -0.7697(4) 1.11521(19) 0.26024(12)
C1 C -0.4258(4) 0.6270(2) 0.24740(14)
C2 C -0.5471(5) 0.5608(3) 0.16356(15)
H1 H -0.688(5) 0.600(3) 0.1440(17)
C3 C -0.4507(5) 0.4407(3) 0.10864(17)
H2 H -0.537(5) 0.396(3) 0.0501(18)
C4 C -0.2396(5) 0.3854(3) 0.13783(18)
H3 H -0.180(5) 0.303(3) 0.097(2)
C5 C -0.1249(5) 0.4513(3) 0.22216(18)
H4 H 0.017(5) 0.416(3) 0.2423(15)
C6 C -0.2141(4) 0.5731(3) 0.27731(16)
H5 H -0.136(5) 0.623(3) 0.3381(17)
C7 C -0.6253(4) 0.7420(2) 0.38485(14)
C8 C -0.6415(4) 0.6090(3) 0.40325(15)
H6 H -0.580(4) 0.526(3) 0.3653(15)
C9 C -0.7446(4) 0.5994(3) 0.48000(16)
H7 H -0.752(5) 0.507(3) 0.4941(17)
C10 C -0.8306(5) 0.7199(3) 0.53750(16)
H8 H -0.907(5) 0.715(3) 0.5887(19)
C11 C -0.8126(5) 0.8520(3) 0.51900(16)
H9 H -0.866(5) 0.937(3) 0.5597(17)
C12 C -0.7108(5) 0.8642(3) 0.44297(15)
H10 H -0.692(5) 0.954(3) 0.4282(19)
C13 C -0.5008(4) 0.9083(2) 0.21337(13)
C14 C -0.6220(4) 1.0280(2) 0.19190(13)
C15 C -0.6263(4) 1.0628(2) 0.11424(13)
H11 H -0.727(5) 1.137(3) 0.1064(15)
C16 C -0.4866(4) 0.9905(2) 0.04239(14)
C17 C -0.3102(4) 0.8957(2) 0.06898(13)
C18 C -0.3171(4) 0.8545(2) 0.15040(13)
O1A O -0.9896(3) 1.23542(16) -0.08238(10)
O2A O -0.3318(4) 0.8253(2) -0.33410(11)
O3A O -0.0134(3) 0.87417(18) -0.23758(11)
N1A N -0.8782(4) 1.1599(2) -0.02807(11)
N2A N -0.8688(4) 1.2241(2) -0.15836(12)
N3A N -0.4774(3) 1.2472(2) -0.30497(11)
N4A N -0.4182(3) 1.12992(19) -0.28031(11)
N5A N -0.2303(4) 0.88479(19) -0.26024(12)
C1A C -0.5742(4) 1.3730(2) -0.24740(14)
C2A C -0.4529(5) 1.4392(3) -0.16356(15)
H1A H -0.312(5) 1.400(3) -0.1440(17)
C3A C -0.5493(5) 1.5593(3) -0.10864(17)
H2A H -0.463(5) 1.604(3) -0.0501(18)
C4A C -0.7604(5) 1.6146(3) -0.13783(18)
H3A H -0.820(5) 1.697(3) -0.097(2)
C5A C -0.8751(5) 1.5487(3) -0.22216(18)
H4A H -1.017(5) 1.584(3) -0.2423(15)
C6A C -0.7859(4) 1.4269(3) -0.27731(16)
H5A H -0.864(5) 1.377(3) -0.3381(17)
C7A C -0.3747(4) 1.2580(2) -0.38485(14)
C8A C -0.3585(4) 1.3910(3) -0.40325(15)
H6A H -0.420(4) 1.474(3) -0.3653(15)
C9A C -0.2554(4) 1.4006(3) -0.48000(16)
H7A H -0.248(5) 1.493(3) -0.4941(17)
C10A C -0.1694(5) 1.2801(3) -0.53750(16)
H8A H -0.093(5) 1.285(3) -0.5887(19)
C11A C -0.1874(5) 1.1480(3) -0.51900(16)
H9A H -0.134(5) 1.063(3) -0.5597(17)
C12A C -0.2892(5) 1.1358(3) -0.44297(15)
H10A H -0.308(5) 1.046(3) -0.4282(19)
C13A C -0.4992(4) 1.0917(2) -0.21337(13)
C14A C -0.3780(4) 0.9720(2) -0.19190(13)
C15A C -0.3737(4) 0.9372(2) -0.11424(13)
H11A H -0.273(5) 0.863(3) -0.1064(15)
C16A C -0.5134(4) 1.0095(2) -0.04239(14)
C17A C -0.6898(4) 1.1043(2) -0.06898(13)
C18A C -0.6829(4) 1.1455(2) -0.15040(13)
#END
