
#######################################################################
#
#                 Cambridge Crystallographic Data Centre
#                                CCDC
#
#######################################################################
#
# If this CIF has been generated from an entry in the Cambridge
# Structural Database, then it will include bibliographic, chemical,
# crystal, experimental, refinement or atomic coordinate data resulting
# from the CCDC's data processing and validation procedures.
#
#######################################################################

data_CSD_CIF_WECNID
_audit_creation_date 2013-01-14
_audit_creation_method CSD-ConQuest-V1
_database_code_CSD WECNID
_database_code_depnum_ccdc_archive 'CCDC 897075'
_chemical_formula_sum 'C26 H27 N1 O2'
_chemical_formula_moiety
;
C26 H27 N1 O2
;
_journal_coden_Cambridge 1336
_journal_volume 14
_journal_year 2012
_journal_page_first 3648
_journal_name_full 'Org.Lett. '
loop_
_publ_author_name
"Hongqiang Liu"
"M.El-Salfiti"
"D.I.Chai"
"J.Auffret"
"M.Lautens"
_chemical_name_systematic
;
9-(2,8-Dimethyl-3,4-dihydronaphthalen-1(2H)-ylidene)-5-nitrotetracyclo[9.2.1.0
^2,10^.0^3,8^]tetradeca-3,5,7-triene
;
_cell_volume   1005.064
_exptl_crystal_colour 'colorless'
_exptl_crystal_density_diffrn 1.274
_exptl_crystal_description 'block'
_diffrn_ambient_temperature 147
#These two values have been output from a single CSD field.
_refine_ls_R_factor_gt 0.0493
_refine_ls_wR_factor_gt 0.0493
_symmetry_cell_setting triclinic
_symmetry_space_group_name_H-M 'P -1'
_symmetry_Int_Tables_number 2
loop_
_symmetry_equiv_pos_site_id
_symmetry_equiv_pos_as_xyz
1 x,y,z
2 -x,-y,-z
_cell_length_a 9.6278(3)
_cell_length_b 9.9460(3)
_cell_length_c 11.6593(4)
_cell_angle_alpha 98.774(2)
_cell_angle_beta 99.335(2)
_cell_angle_gamma 110.505(1)
_cell_formula_units_Z 2
loop_
_atom_type_symbol
_atom_type_radius_bond
C 0.68
H 0.23
N 0.68
O 0.68
loop_
_atom_site_label
_atom_site_type_symbol
_atom_site_fract_x
_atom_site_fract_y
_atom_site_fract_z
O1 O 0.32717(15) 0.62367(15) 0.32384(12)
O2 O 0.36947(19) 0.44884(17) 0.22033(12)
N1 N 0.33970(16) 0.50402(16) 0.30952(13)
C1 C 0.27624(17) 0.22446(17) 0.69933(13)
C2 C 0.24473(19) 0.33854(17) 0.78382(14)
H1 H 0.32730 0.38430 0.85860
C3 C 0.0854(2) 0.27781(19) 0.81133(16)
H2 H 0.05830 0.18020 0.83360
C4 C 0.0710(2) 0.3991(2) 0.90191(17)
H3 H 0.16280 0.44500 0.96860
H4 H -0.01990 0.35910 0.93460
C5 C 0.0551(2) 0.51136(19) 0.82705(15)
H5 H -0.04400 0.52170 0.82400
H6 H 0.13860 0.60930 0.86000
C6 C 0.06514(19) 0.44222(18) 0.70309(15)
H7 H 0.02290 0.47900 0.63600
C7 C 0.23159(19) 0.45592(17) 0.71199(14)
H8 H 0.30550 0.55730 0.75470
C8 C 0.26627(17) 0.40761(17) 0.59540(14)
C9 C 0.27989(18) 0.48255(18) 0.50425(15)
H9 H 0.26270 0.57150 0.50970
C10 C 0.31925(18) 0.42388(18) 0.40504(14)
C11 C 0.34408(19) 0.29388(19) 0.39420(15)
H10 H 0.37060 0.25620 0.32480
C12 C 0.32984(19) 0.21954(18) 0.48527(14)
H11 H 0.34730 0.13070 0.47870
C13 C 0.28971(17) 0.27500(17) 0.58745(14)
C14 C -0.0177(2) 0.27739(19) 0.69643(16)
H12 H -0.12530 0.25110 0.70160
H13 H -0.01140 0.21380 0.62500
C15 C 0.28159(18) 0.09887(17) 0.72587(14)
C16 C 0.2685(2) -0.03412(19) 0.63447(15)
H14 H 0.221(2) -0.025(2) 0.5506(19)
C17 C 0.1579(3) -0.1780(2) 0.65727(17)
H15 H 0.09550 -0.24500 0.57980
H16 H 0.21770 -0.22780 0.69760
C18 C 0.0522(2) -0.1494(2) 0.73425(18)
H17 H -0.00890 -0.10000 0.69500
H18 H -0.01850 -0.24360 0.74580
C19 C 0.1509(2) -0.05238(19) 0.85253(16)
C20 C 0.1309(2) -0.0843(2) 0.96170(18)
H19 H 0.04350 -0.16490 0.96560
C21 C 0.2382(3) 0.0014(2) 1.06508(18)
H20 H 0.22470 -0.02010 1.14010
C22 C 0.3636(3) 0.1170(2) 1.05911(17)
H21 H 0.43720 0.17410 1.13070
C23 C 0.3868(2) 0.15378(19) 0.95099(15)
C24 C 0.27646(19) 0.06989(17) 0.84686(14)
C25 C 0.5320(2) 0.2774(2) 0.95119(17)
H22 H 0.53510 0.28670 0.86910
H23 H 0.61960 0.25630 0.98640
H24 H 0.53610 0.36970 0.99830
C26 C 0.4237(3) -0.0411(2) 0.63557(19)
H25 H 0.48930 0.04650 0.61350
H26 H 0.41180 -0.12970 0.57830
H27 H 0.47030 -0.04460 0.71570
#END
