
#######################################################################
#
#                 Cambridge Crystallographic Data Centre
#                                CCDC
#
#######################################################################
#
# If this CIF has been generated from an entry in the Cambridge
# Structural Database, then it will include bibliographic, chemical,
# crystal, experimental, refinement or atomic coordinate data resulting
# from the CCDC's data processing and validation procedures.
#
#######################################################################

data_CSD_CIF_WECZIN
_audit_creation_date 1994-06-13
_audit_creation_method CSD-ConQuest-V1
_database_code_CSD WECZIN
_database_code_depnum_ccdc_fiz 'CSD 56658'
_chemical_formula_sum 'C7 H12 N2 O3'
_chemical_formula_moiety
;
C7 H12 N2 O3
;
_journal_coden_Cambridge 644
_journal_volume 48
_journal_year 1993
_journal_page_first 1138
_journal_name_full 'Z.Naturforsch.,B:Chem.Sci. '
loop_
_publ_author_name
"D.L.Ostercamp"
"L.M.Preston"
"K.D.Onan"
_chemical_name_systematic
;
(E)-3-(t-Butylamino)-2-nitropropen-2-al
;
_chemical_melting_point 381.15
_cell_volume    890.008
_exptl_crystal_colour 'white'
_exptl_crystal_density_diffrn 1.284
_exptl_special_details
;
Melting point range 381.15-382.15K

;
_diffrn_ambient_temperature ?
_diffrn_special_details
;
The study was carried out at room temperature,in the range 283-303K

;
#These two values have been output from a single CSD field.
_refine_ls_R_factor_gt 0.067
_refine_ls_wR_factor_gt 0.067
_symmetry_cell_setting monoclinic
_symmetry_space_group_name_H-M 'P 21/n'
_symmetry_Int_Tables_number 14
loop_
_symmetry_equiv_pos_site_id
_symmetry_equiv_pos_as_xyz
1 x,y,z
2 1/2-x,1/2+y,1/2-z
3 -x,-y,-z
4 -1/2+x,-1/2-y,-1/2+z
_cell_length_a 6.821(1)
_cell_length_b 20.707(6)
_cell_length_c 6.303(1)
_cell_angle_alpha 90
_cell_angle_beta 91.34(1)
_cell_angle_gamma 90
_cell_formula_units_Z 4
loop_
_atom_type_symbol
_atom_type_radius_bond
C 0.68
H 0.23
N 0.68
O 0.68
loop_
_atom_site_label
_atom_site_type_symbol
_atom_site_fract_x
_atom_site_fract_y
_atom_site_fract_z
N1 N 0.7118(11) -0.0940(3) 0.7978(10)
C1 C 0.7453(12) -0.0401(4) 0.7068(11)
C2 C 0.7698(13) 0.0166(4) 0.8282(13)
C3 C 0.7546(14) 0.0189(4) 1.0500(13)
N2 N 0.8126(11) 0.0752(3) 0.7161(10)
O1 O 0.8323(11) 0.0733(3) 0.5219(9)
O2 O 0.8288(11) 0.1253(3) 0.8172(10)
C4 C 0.6929(13) -0.1597(4) 0.6994(12)
C5 C 0.5041(20) -0.1886(5) 0.7788(17)
C6 C 0.6869(16) -0.1567(5) 0.4594(15)
C7 C 0.8725(21) -0.1965(4) 0.7770(16)
O3 O 0.7202(10) -0.0283(3) 1.1570(8)
H1 H 0.700(15) -0.099(5) 0.937(15)
#END
