
#######################################################################
#
#                 Cambridge Crystallographic Data Centre
#                                CCDC
#
#######################################################################
#
# If this CIF has been generated from an entry in the Cambridge
# Structural Database, then it will include bibliographic, chemical,
# crystal, experimental, refinement or atomic coordinate data resulting
# from the CCDC's data processing and validation procedures.
#
#######################################################################

data_CSD_CIF_WEDGET
_audit_creation_date 2013-01-14
_audit_creation_method CSD-ConQuest-V1
_database_code_CSD WEDGET
_database_code_depnum_ccdc_archive 'CCDC 862196'
_chemical_formula_sum 'C34 H27 N1 O3'
_chemical_formula_moiety
;
C34 H27 N1 O3
;
_journal_coden_Cambridge 1366
_journal_volume 354
_journal_year 2012
_journal_page_first 2101
_journal_name_full 'Adv.Synth.Catal. '
loop_
_publ_author_name
"E.Gnanamani"
"N.Someshwar"
"C.R.Ramanathan"
_chemical_name_systematic
;
Ethyl 
16-(1-hydroxy-6-(1-naphthyl)-1\l^5^-pyridin-2-yl)tetracyclo[6.6.2.0^2,7^.0^9,1
4^]hexadeca-2,4,6,9,11,13-hexaene-15-carboxylate
;
_chemical_name_common
;
2-(trans-12-(ethoxycarbonyl)-9,10-dihydro-9,10-ethanoanthracen-11-yl)-6-(napht
halen-1-yl)pyridine 1-oxide
;
_chemical_melting_point 486
_cell_volume   2545.195
_exptl_crystal_colour 'colorless'
_exptl_crystal_density_diffrn 1.298
_exptl_crystal_description 'plate'
_diffrn_ambient_temperature 293
#These two values have been output from a single CSD field.
_refine_ls_R_factor_gt 0.0639
_refine_ls_wR_factor_gt 0.0639
_symmetry_cell_setting orthorhombic
_symmetry_space_group_name_H-M 'P 21 21 21'
_symmetry_Int_Tables_number 19
loop_
_symmetry_equiv_pos_site_id
_symmetry_equiv_pos_as_xyz
1 x,y,z
2 1/2-x,-y,1/2+z
3 -x,1/2+y,1/2-z
4 1/2+x,1/2-y,-z
_cell_length_a 7.0834(5)
_cell_length_b 14.7461(13)
_cell_length_c 24.367(2)
_cell_angle_alpha 90
_cell_angle_beta 90
_cell_angle_gamma 90
_cell_formula_units_Z 4
loop_
_atom_type_symbol
_atom_type_radius_bond
C 0.68
H 0.23
N 0.68
O 0.68
loop_
_atom_site_label
_atom_site_type_symbol
_atom_site_fract_x
_atom_site_fract_y
_atom_site_fract_z
O1 O 0.6550(3) -0.00258(14) 0.22920(9)
N1 N 0.5853(3) 0.07832(17) 0.23309(11)
O2 O 0.1100(3) -0.06296(15) 0.23656(10)
C1 C 0.1426(4) 0.0095(2) 0.38131(12)
H1 H 0.00960 0.00810 0.39240
C2 C 0.3793(3) 0.0163(2) 0.30278(12)
H2 H 0.40710 -0.03900 0.28200
C3 C 0.5551(5) -0.1411(2) 0.40309(13)
H3 H 0.68230 -0.14010 0.39370
O3 O -0.0580(3) -0.10743(16) 0.3097(1)
C4 C 0.4964(4) 0.0138(2) 0.35717(12)
H4 H 0.63230 0.01520 0.34980
C5 C 0.0589(4) -0.0590(2) 0.28879(15)
C6 C 0.4404(4) -0.0711(2) 0.38784(13)
C7 C 0.2480(4) -0.0731(2) 0.40128(13)
C8 C 0.4394(4) 0.0962(2) 0.26879(12)
C9 C 0.1639(4) 0.0156(2) 0.31805(12)
H5 H 0.10980 0.07360 0.30620
C10 C 0.6619(4) 0.1469(2) 0.20173(13)
C11 C 0.8160(4) 0.1242(2) 0.16349(14)
C12 C 0.1759(5) -0.1452(2) 0.43028(14)
H6 H 0.04840 -0.14670 0.43940
C13 C 0.4355(4) 0.0939(2) 0.39057(13)
C14 C 0.9305(4) 0.0632(2) 0.07605(15)
C15 C 0.1628(5) 0.1637(2) 0.43114(15)
H7 H 0.03530 0.16200 0.44020
C16 C 0.4835(5) -0.2134(2) 0.43236(14)
H8 H 0.56230 -0.26070 0.44300
C17 C 0.5968(4) 0.2341(2) 0.20828(13)
H9 H 0.65070 0.28060 0.18780
C18 C 0.2431(4) 0.0931(2) 0.40344(13)
C19 C 0.6053(4) 0.0347(2) 0.10203(14)
H10 H 0.50630 0.03920 0.12700
C20 C 0.3771(4) 0.1839(2) 0.27406(13)
H11 H 0.27970 0.19630 0.29850
C21 C 0.7835(4) 0.0730(2) 0.11487(14)
C22 C 0.4604(6) 0.2394(2) 0.43290(17)
H12 H 0.53360 0.28910 0.44290
C23 C 0.4538(4) 0.2540(2) 0.24440(14)
H13 H 0.41030 0.31310 0.24860
C24 C 0.8979(5) 0.0168(2) 0.02696(15)
H14 H 0.99560 0.00990 0.00180
C25 C 0.5435(5) 0.1681(2) 0.40525(14)
H15 H 0.67130 0.17000 0.39660
C26 C 1.1091(5) 0.1032(2) 0.08745(15)
H16 H 1.20760 0.09670 0.06250
C27 C 0.9900(4) 0.1626(2) 0.17161(14)
H17 H 1.01030 0.19760 0.20280
C28 C 0.2926(6) -0.2153(2) 0.44583(14)
H18 H 0.24370 -0.26400 0.46540
C29 C 1.1369(5) 0.1507(2) 0.13436(17)
H19 H 1.25490 0.17550 0.14170
C30 C 0.7258(5) -0.0180(3) 0.01567(15)
H20 H 0.70540 -0.04830 -0.01730
C31 C 0.0142(5) -0.1271(3) 0.20146(16)
H21 H -0.10750 -0.10310 0.19040
H22 H -0.00640 -0.18360 0.22100
C32 C 0.2726(6) 0.2384(3) 0.44588(16)
H23 H 0.21850 0.28710 0.46440
C33 C 0.5785(5) -0.0087(2) 0.05336(15)
H24 H 0.46040 -0.03260 0.04510
C34 C 0.1331(6) -0.1431(3) 0.15279(18)
H25 H 0.07240 -0.18630 0.12910
H26 H 0.25350 -0.16640 0.16410
H27 H 0.15070 -0.08710 0.13340
#END
