
#######################################################################
#
#                 Cambridge Crystallographic Data Centre
#                                CCDC
#
#######################################################################
#
# If this CIF has been generated from an entry in the Cambridge
# Structural Database, then it will include bibliographic, chemical,
# crystal, experimental, refinement or atomic coordinate data resulting
# from the CCDC's data processing and validation procedures.
#
#######################################################################

data_CSD_CIF_WEFBEQ
_audit_creation_date 2012-11-29
_audit_creation_method CSD-ConQuest-V1
_database_code_CSD WEFBEQ
_database_code_depnum_ccdc_archive 'CCDC 867103'
_chemical_formula_sum 'C12 H12 N4 O2'
_chemical_formula_moiety
;
C12 H12 N4 O2
;
_journal_coden_Cambridge 1350
_journal_volume 14
_journal_year 2012
_journal_page_first 6029
_journal_name_full 'CrystEngComm '
loop_
_publ_author_name
"S.Dalapati"
"Md.A.Alam"
"S.Jana"
"N.Guchhait"
_chemical_name_systematic
;
4-Nitro-N^2^-(pyridin-2-ylmethyl)benzene-1,2-diamine
;
_cell_volume   2404.179
_exptl_crystal_density_diffrn 1.355
_diffrn_ambient_temperature 293
#These two values have been output from a single CSD field.
_refine_ls_R_factor_gt 0.0469
_refine_ls_wR_factor_gt 0.0469
_symmetry_cell_setting monoclinic
_symmetry_space_group_name_H-M 'C 2/c'
_symmetry_Int_Tables_number 15
loop_
_symmetry_equiv_pos_site_id
_symmetry_equiv_pos_as_xyz
1 x,y,z
2 -x,y,1/2-z
3 1/2+x,1/2+y,z
4 1/2-x,1/2+y,1/2-z
5 -x,-y,-z
6 x,-y,-1/2+z
7 -1/2-x,-1/2-y,-z
8 -1/2+x,-1/2-y,-1/2+z
_cell_length_a 15.007(13)
_cell_length_b 10.891(9)
_cell_length_c 16.137(14)
_cell_angle_alpha 90
_cell_angle_beta 114.279(10)
_cell_angle_gamma 90
_cell_formula_units_Z 8
loop_
_atom_type_symbol
_atom_type_radius_bond
C 0.68
H 0.23
N 0.68
O 0.68
loop_
_atom_site_label
_atom_site_type_symbol
_atom_site_fract_x
_atom_site_fract_y
_atom_site_fract_z
N1 N 1.06767(14) 0.98955(18) 0.18641(12)
O1 O 0.80664(15) 0.34825(17) -0.05325(11)
C1 C 0.98376(16) 1.0093(2) 0.11266(14)
N2 N 0.89212(15) 0.83502(19) 0.13177(13)
O2 O 0.85182(16) 0.51167(17) -0.09978(12)
N3 N 0.86093(16) 0.7105(2) 0.26806(14)
C2 C 1.0968(2) 1.2052(3) 0.19316(19)
H1 H 1.13770 1.27060 0.22180
C3 C 1.12123(19) 1.0885(3) 0.22494(17)
H2 H 1.17880 1.07700 0.27670
C4 C 0.92664(17) 0.8952(2) 0.07024(14)
H3 H 0.87120 0.91670 0.01450
H4 H 0.96780 0.83910 0.05500
C5 C 0.86890(14) 0.71111(19) 0.12116(13)
C6 C 0.85997(15) 0.6458(2) 0.04444(13)
H5 H 0.86920 0.68560 -0.00250
C7 C 0.83741(16) 0.5217(2) 0.03709(13)
N4 N 0.83168(15) 0.4569(2) -0.04266(12)
C8 C 1.0115(2) 1.2244(2) 0.1187(2)
H6 H 0.99290 1.30330 0.09600
C9 C 0.95321(17) 1.1244(2) 0.07769(16)
H7 H 0.89430 1.13490 0.02730
C10 C 0.85352(15) 0.6478(2) 0.19175(13)
C11 C 0.83002(17) 0.5240(2) 0.18099(14)
H8 H 0.81930 0.48330 0.22670
C12 C 0.82203(18) 0.4592(2) 0.10474(15)
H9 H 0.80680 0.37600 0.09900
H10 H 0.9111(17) 0.864(2) 0.1805(16)
H11 H 0.8557(18) 0.670(2) 0.3083(17)
H12 H 0.881(2) 0.798(3) 0.2778(19)
#END
