
#######################################################################
#
#                 Cambridge Crystallographic Data Centre
#                                CCDC
#
#######################################################################
#
# If this CIF has been generated from an entry in the Cambridge
# Structural Database, then it will include bibliographic, chemical,
# crystal, experimental, refinement or atomic coordinate data resulting
# from the CCDC's data processing and validation procedures.
#
#######################################################################

data_CSD_CIF_WEFMIE
_audit_creation_date 2006-07-12
_audit_creation_method CSD-ConQuest-V1
_database_code_CSD WEFMIE
_database_code_depnum_ccdc_archive 'CCDC 605062'
_chemical_formula_sum 'C15 H11 N1 O4'
_chemical_formula_moiety
;
C15 H11 N1 O4
;
_journal_coeditor_code "IUCr ER6041"
_journal_coden_Cambridge 1370
_journal_volume 62
_journal_year 2006
_journal_page_first o1304
_journal_name_full 'Acta Crystallogr.,Sect.E:Struct.Rep.Online '
loop_
_publ_author_name
"Xiao-Yang Qiu"
"Wei-Sheng Liu"
"Hai-Liang Zhu"
_chemical_name_systematic
;
3-(3-Hydroxyphenyl)-1-(4-nitrophenyl)prop-2-en-1-one
;
_cell_volume   1270.212
_exptl_crystal_colour 'yellow'
_exptl_crystal_density_diffrn 1.408
_exptl_crystal_description 'block'
_exptl_crystal_preparation 'acetone'
_diffrn_ambient_temperature 298
#These two values have been output from a single CSD field.
_refine_ls_R_factor_gt 0.0999
_refine_ls_wR_factor_gt 0.0999
_symmetry_cell_setting monoclinic
_symmetry_space_group_name_H-M 'P 21/c'
_symmetry_Int_Tables_number 14
loop_
_symmetry_equiv_pos_site_id
_symmetry_equiv_pos_as_xyz
1 x,y,z
2 -x,1/2+y,1/2-z
3 -x,-y,-z
4 x,-1/2-y,-1/2+z
_cell_length_a 8.241(2)
_cell_length_b 12.698(3)
_cell_length_c 12.194(3)
_cell_angle_alpha 90
_cell_angle_beta 95.474(4)
_cell_angle_gamma 90
_cell_formula_units_Z 4
loop_
_atom_type_symbol
_atom_type_radius_bond
C 0.68
H 0.23
N 0.68
O 0.68
loop_
_atom_site_label
_atom_site_type_symbol
_atom_site_fract_x
_atom_site_fract_y
_atom_site_fract_z
O1 O 0.8414(4) 0.1393(2) -0.1355(2)
N1 N 0.5080(4) 0.4110(3) 0.2189(3)
O2 O 0.4499(4) 0.3829(2) 0.3029(2)
C1 C 0.6385(5) 0.3622(3) 0.0549(3)
H1 H 0.63590 0.43280 0.03460
C2 C 0.5758(5) 0.3301(3) 0.1495(3)
C3 C 0.8338(5) -0.0803(3) -0.0947(3)
H2 H 0.87610 -0.05620 -0.15810
C4 C 0.9019(5) -0.2591(3) -0.1562(3)
H3 H 0.94070 -0.22930 -0.21830
O3 O 0.5129(5) 0.5029(2) 0.1897(3)
C5 C 0.7797(5) 0.1055(3) -0.0552(3)
C6 C 0.8395(5) -0.1943(3) -0.0770(3)
C7 C 0.7055(5) 0.1825(3) 0.0196(3)
C8 C 0.6386(5) 0.1528(3) 0.1156(3)
H4 H 0.63810 0.08220 0.13580
O4 O 0.9627(5) -0.4339(3) -0.2158(3)
C9 C 0.7853(5) -0.2402(3) 0.0168(3)
H5 H 0.74500 -0.19820 0.07060
C10 C 0.5730(5) 0.2273(3) 0.1811(3)
H6 H 0.52810 0.20770 0.24520
C11 C 0.9058(5) -0.3666(3) -0.1421(4)
C12 C 0.7052(5) 0.2881(3) -0.0093(3)
H7 H 0.75060 0.30900 -0.07280
C13 C 0.8496(5) -0.4104(3) -0.0502(4)
H8 H 0.85060 -0.48320 -0.04160
C14 C 0.7759(5) -0.0077(3) -0.0317(3)
H9 H 0.73010 -0.02950 0.03130
C15 C 0.7918(5) -0.3476(3) 0.0293(4)
H10 H 0.75680 -0.37820 0.09220
H11 H 1.015(6) -0.400(4) -0.263(4)
#END
