
#######################################################################
#
#                 Cambridge Crystallographic Data Centre
#                                CCDC
#
#######################################################################
#
# If this CIF has been generated from an entry in the Cambridge
# Structural Database, then it will include bibliographic, chemical,
# crystal, experimental, refinement or atomic coordinate data resulting
# from the CCDC's data processing and validation procedures.
#
#######################################################################

data_CSD_CIF_WEFROR
_audit_creation_date 2017-08-23
_audit_creation_method CSD-ConQuest-V1
_database_code_CSD WEFROR
_database_code_depnum_ccdc_archive 'CCDC 1546077'
_chemical_formula_sum 'C26 H22 N2 O2'
_chemical_formula_moiety
;
C26 H22 N2 O2
;
_journal_coden_Cambridge 1267
_journal_volume 232
_journal_year 2017
_journal_page_first 639
_journal_name_full 'Z.Kristallogr.-New Cryst.Struct. '
loop_
_publ_author_name
"Yan-Bin Wang"
"Qiong Su"
_chemical_name_systematic
;
1-[({3-[N-(benzyloxy)ethanimidoyl]phenyl}imino)methyl]naphthalen-2-ol
;
_chemical_name_common
;
(E)-1-(3-((E)-((2-hydroxynaphthalen-1-yl)methylene)amino)phenyl)ethanone 
O-benzyl oxime
;
_chemical_melting_point 331
_cell_volume   2003.836
_exptl_crystal_colour 'light yellow'
_exptl_crystal_density_diffrn 1.308
_exptl_special_details
;
Melting point range 331-333K

;
_exptl_crystal_description 'block'
_diffrn_ambient_temperature 173
_refine_special_details
;
C22,C23,C25,C26 and C22',C23',C25',C26' disordered over two sites with 
occupancies 0.50:0.50; H24 and H24A disordered over two sites with 
occupancies 0.50:0.50.
;
#These two values have been output from a single CSD field.
_refine_ls_R_factor_gt 0.0639
_refine_ls_wR_factor_gt 0.0639
_symmetry_cell_setting monoclinic
_symmetry_space_group_name_H-M 'P 21/c'
_symmetry_Int_Tables_number 14
loop_
_symmetry_equiv_pos_site_id
_symmetry_equiv_pos_as_xyz
1 x,y,z
2 -x,1/2+y,1/2-z
3 -x,-y,-z
4 x,-1/2-y,-1/2+z
_cell_length_a 21.8152(18)
_cell_length_b 4.3629(2)
_cell_length_c 22.0099(12)
_cell_angle_alpha 90
_cell_angle_beta 106.951(6)
_cell_angle_gamma 90
_cell_formula_units_Z 4
loop_
_atom_type_symbol
_atom_type_radius_bond
C 0.68
H 0.23
N 0.68
O 0.68
loop_
_atom_site_label
_atom_site_type_symbol
_atom_site_fract_x
_atom_site_fract_y
_atom_site_fract_z
N1 N 0.10605(17) 0.1082(8) 0.47091(17)
O1 O 0.02905(14) -0.0204(7) 0.36222(15)
H1 H 0.04200 0.06580 0.39670
O2 O 0.34938(15) 0.9255(8) 0.62052(14)
C1 C 0.1495(2) -0.0493(10) 0.4551(2)
H2 H 0.19030 -0.06040 0.48370
C2 C 0.1856(2) -0.3908(9) 0.38058(19)
C3 C 0.13720(19) -0.2081(9) 0.39532(19)
C4 C 0.1705(2) -0.5433(10) 0.3206(2)
C5 C 0.1829(2) 0.4023(10) 0.5546(2)
H3 H 0.21500 0.36650 0.53530
C6 C 0.1223(2) 0.2772(9) 0.5279(2)
C7 C 0.2917(2) -0.6147(10) 0.4054(2)
H4 H 0.33250 -0.63640 0.43360
N2 N 0.28790(17) 0.7942(9) 0.59236(17)
C8 C 0.1964(2) 0.5795(10) 0.6093(2)
C9 C 0.2481(2) -0.4389(10) 0.4221(2)
H5 H 0.25940 -0.34720 0.46190
C10 C 0.1090(2) -0.5039(10) 0.2768(2)
H6 H 0.09920 -0.60080 0.23750
C11 C 0.2770(2) -0.7651(11) 0.3464(2)
H7 H 0.30720 -0.88780 0.33580
C12 C 0.0640(2) -0.3267(10) 0.2914(2)
H8 H 0.02430 -0.29980 0.26160
C13 C 0.0770(2) -0.183(1) 0.3511(2)
C14 C 0.4411(2) 1.1474(12) 0.5997(2)
C15 C 0.2605(2) 0.7239(10) 0.6344(2)
C16 C 0.0747(2) 0.3352(10) 0.5575(2)
H9 H 0.03370 0.25760 0.53990
C17 C 0.2166(2) -0.7258(11) 0.3049(2)
H10 H 0.20620 -0.82240 0.26550
C18 C 0.1483(2) 0.6304(10) 0.6388(2)
H11 H 0.15670 0.74700 0.67560
C19 C 0.0880(2) 0.5052(10) 0.6122(2)
H12 H 0.05610 0.53680 0.63180
C20 C 0.5673(3) 1.3328(14) 0.6474(3)
H13 H 0.61020 1.38100 0.66610
C21 C 0.3727(2) 1.0456(14) 0.5710(2)
H14 H 0.34660 1.21790 0.55080
H15 H 0.37070 0.88940 0.53910
C22 C 0.2897(3) 0.7842(13) 0.7038(2)
H16 H 0.33010 0.67990 0.71830
H17 H 0.26150 0.71070 0.72680
H18 H 0.29620 1.00050 0.71070
C23 C 0.4875(5) 1.077(3) 0.5672(5)
H19 H 0.47580 0.96350 0.52990
C24 C 0.5495(6) 1.180(3) 0.5917(6)
H20 H 0.57930 1.14400 0.56970
C25 C 0.4598(6) 1.322(3) 0.6525(5)
H21 H 0.42980 1.37960 0.67290
C26 C 0.5223(5) 1.417(3) 0.6766(5)
H22 H 0.53400 1.53870 0.71290
H23? H 0.60940 1.40060 0.66310
C27? C 0.4688(5) 1.319(3) 0.5665(5)
H24? H 0.44540 1.37790 0.52570
C28? C 0.5320(6) 1.416(3) 0.5903(7)
H25? H 0.54960 1.54150 0.56560
C29? C 0.4770(5) 1.052(3) 0.6614(5)
H26? H 0.45780 0.93180 0.68570
C30? C 0.5402(5) 1.137(3) 0.6852(5)
H27? H 0.56480 1.06930 0.72490
#END
