
#######################################################################
#
#                 Cambridge Crystallographic Data Centre
#                                CCDC
#
#######################################################################
#
# If this CIF has been generated from an entry in the Cambridge
# Structural Database, then it will include bibliographic, chemical,
# crystal, experimental, refinement or atomic coordinate data resulting
# from the CCDC's data processing and validation procedures.
#
#######################################################################

data_CSD_CIF_WEGPUV
_audit_creation_date 2012-11-29
_audit_creation_method CSD-ConQuest-V1
_database_code_CSD WEGPUV
_database_code_depnum_ccdc_archive 'CCDC 856223'
_chemical_formula_sum 'C14 H13 N1 O5'
_chemical_formula_moiety
;
C14 H13 N1 O5
;
_journal_coden_Cambridge 177
_journal_volume 10
_journal_year 2012
_journal_page_first 5825
_journal_name_full 'Org.Biomol.Chem. '
loop_
_publ_author_name
"D.B.Ramachary"
"R.Madhavachary"
"M.S.Prasad"
_chemical_name_systematic
;
4-(Nitromethyl)-2'H,4H-spiro[chromene-3,1'-cyclopentane]-2,2'-dione
;
_cell_volume   1299.022
_exptl_crystal_colour 'colorless'
_exptl_crystal_density_diffrn 1.418
_exptl_special_details
;
Absolute configuration

;
_exptl_crystal_description 'black'
_diffrn_ambient_temperature 293
#These two values have been output from a single CSD field.
_refine_ls_R_factor_gt 0.0438
_refine_ls_wR_factor_gt 0.0438
_symmetry_cell_setting orthorhombic
_symmetry_space_group_name_H-M 'P 21 21 21'
_symmetry_Int_Tables_number 19
loop_
_symmetry_equiv_pos_site_id
_symmetry_equiv_pos_as_xyz
1 x,y,z
2 1/2-x,-y,1/2+z
3 -x,1/2+y,1/2-z
4 1/2+x,1/2-y,-z
_cell_length_a 6.0553(2)
_cell_length_b 13.8095(5)
_cell_length_c 15.5347(5)
_cell_angle_alpha 90
_cell_angle_beta 90
_cell_angle_gamma 90
_cell_formula_units_Z 4
loop_
_atom_type_symbol
_atom_type_radius_bond
C 0.68
H 0.23
N 0.68
O 0.68
loop_
_atom_site_label
_atom_site_type_symbol
_atom_site_fract_x
_atom_site_fract_y
_atom_site_fract_z
C1 C 0.1323(4) 0.56083(18) 0.05592(16)
C2 C 0.3790(4) 0.57688(16) 0.05752(15)
C3 C 0.4764(3) 0.56100(16) -0.03339(14)
H1 H 0.63770 0.56530 -0.03020
C4 C 0.3919(5) 0.63692(18) -0.09728(16)
H2 H 0.23180 0.63500 -0.09880
H3 H 0.43620 0.70090 -0.07800
C5 C 0.4248(4) 0.67833(18) 0.09654(16)
C6 C 0.5078(5) 0.6665(2) 0.18664(17)
H4 H 0.43400 0.71140 0.22520
H5 H 0.66560 0.67810 0.18930
C7 C 0.4549(5) 0.5629(2) 0.21073(17)
H6 H 0.30630 0.55760 0.23350
H7 H 0.55850 0.53860 0.25320
C8 C 0.4769(4) 0.50780(18) 0.12582(15)
H8 H 0.39500 0.44750 0.12780
H9 H 0.63050 0.49360 0.11340
O1 O 0.0577(3) 0.48481(13) 0.00796(12)
O2 O 0.0004(3) 0.60745(14) 0.09504(13)
O3 O 0.3996(4) 0.75304(13) 0.05856(13)
C9 C 0.4130(4) 0.46054(16) -0.06082(15)
N1 N 0.4799(5) 0.61954(16) -0.18573(16)
C10 C 0.2057(4) 0.42678(18) -0.03789(16)
C11 C 0.5494(5) 0.39923(18) -0.10725(17)
H10 H 0.68950 0.42010 -0.12320
O4 O 0.6736(5) 0.6019(2) -0.19401(17)
O5 O 0.3497(6) 0.6261(2) -0.24511(15)
C12 C 0.1346(5) 0.3351(2) -0.06042(18)
H11 H -0.00490 0.31340 -0.04440
C13 C 0.4799(6) 0.3078(2) -0.13001(19)
H12 H 0.57340 0.26730 -0.16110
C14 C 0.2756(7) 0.2764(2) -0.1073(2)
H13 H 0.22970 0.21470 -0.12340
#END
