
#######################################################################
#
#                 Cambridge Crystallographic Data Centre
#                                CCDC
#
#######################################################################
#
# If this CIF has been generated from an entry in the Cambridge
# Structural Database, then it will include bibliographic, chemical,
# crystal, experimental, refinement or atomic coordinate data resulting
# from the CCDC's data processing and validation procedures.
#
#######################################################################

data_CSD_CIF_WEGTEJ
_audit_creation_date 2012-11-29
_audit_creation_method CSD-ConQuest-V1
_database_code_CSD WEGTEJ
_database_code_depnum_ccdc_archive 'CCDC 859931'
_chemical_formula_sum 'C22 H27 N1 O8'
_chemical_formula_moiety
;
C22 H27 N1 O8
;
_journal_coden_Cambridge 177
_journal_volume 10
_journal_year 2012
_journal_page_first 6003
_journal_name_full 'Org.Biomol.Chem. '
loop_
_publ_author_name
"Y.Hashimoto"
"A.Takada"
"H.Takikawa"
"K.Suzuki"
_chemical_name_systematic
;
3-(2-(1,3-Dioxan-2-yl)-4,6-dimethoxyphenyl)-7,7-dimethoxy-6-methyl-7,7a-dihydr
o-1,2-benzoxazol-4(3aH)-one
;
_cell_volume   1066.700
_exptl_crystal_density_diffrn 1.35
_diffrn_ambient_temperature 173
#These two values have been output from a single CSD field.
_refine_ls_R_factor_gt 0.0611
_refine_ls_wR_factor_gt 0.0611
_symmetry_cell_setting triclinic
_symmetry_space_group_name_H-M 'P -1'
_symmetry_Int_Tables_number 2
loop_
_symmetry_equiv_pos_site_id
_symmetry_equiv_pos_as_xyz
1 x,y,z
2 -x,-y,-z
_cell_length_a 8.549(4)
_cell_length_b 8.811(4)
_cell_length_c 14.226(6)
_cell_angle_alpha 88.044(16)
_cell_angle_beta 87.180(19)
_cell_angle_gamma 85.651(18)
_cell_formula_units_Z 2
loop_
_atom_type_symbol
_atom_type_radius_bond
C 0.68
H 0.23
N 0.68
O 0.68
loop_
_atom_site_label
_atom_site_type_symbol
_atom_site_fract_x
_atom_site_fract_y
_atom_site_fract_z
O1 O 0.00127(15) 0.46861(15) 0.35362(10)
O2 O -0.04891(14) 0.38962(14) 0.20365(9)
O3 O 0.20241(17) -0.07384(15) 0.2013(1)
O4 O 0.30324(13) 0.32518(14) 0.32974(8)
O5 O 0.71132(15) -0.11829(15) 0.36569(8)
O6 O 0.53984(16) -0.26541(15) 0.29400(9)
O7 O 0.50678(15) 0.25599(14) 0.04869(9)
O8 O 0.89800(15) -0.15172(15) 0.01061(9)
N1 N 0.44452(16) 0.24147(16) 0.29875(10)
C1 C 0.03029(19) 0.35233(18) 0.28799(11)
C2 C -0.0222(2) 0.2074(2) 0.33638(13)
C3 C 0.0387(2) 0.0713(2) 0.30663(13)
H1 H -0.00160 -0.01750 0.33540
C4 C 0.16336(19) 0.05099(18) 0.23258(12)
C5 C 0.24825(18) 0.19076(17) 0.19798(10)
H2 H 0.24050 0.20860 0.12850
C6 C 0.41874(18) 0.16970(17) 0.22513(11)
C7 C 0.20095(18) 0.33563(17) 0.25130(11)
H3 H 0.22430 0.42640 0.21030
C8 C 0.54626(18) 0.07901(17) 0.17422(11)
C9 C 0.58850(19) 0.12700(18) 0.08115(11)
C10 C 0.70761(19) 0.04857(19) 0.02895(11)
H4 H 0.73480 0.08170 -0.03360
C11 C 0.78719(19) -0.07977(19) 0.06942(12)
C12 C 0.74989(19) -0.12888(19) 0.16105(12)
H5 H 0.80620 -0.21520 0.18830
C13 C 0.62841(18) -0.04968(18) 0.21268(11)
C14 C 0.58210(19) -0.11590(18) 0.30791(11)
H6 H 0.49080 -0.05320 0.33670
C15 C 0.6741(3) -0.1825(2) 0.45734(12)
H7 H 0.58960 -0.11710 0.48910
H8 H 0.76770 -0.18620 0.49580
C16 C 0.6211(3) -0.3418(2) 0.45012(13)
H9 H 0.71020 -0.41170 0.42770
H10 H 0.58270 -0.37970 0.51270
C17 C 0.4907(3) -0.3366(3) 0.38160(14)
H11 H 0.46300 -0.44140 0.37060
H12 H 0.39630 -0.27880 0.40860
C18 C 0.0507(2) 0.6155(2) 0.32442(17)
H13 H 0.15890 0.62370 0.34230
H14 H -0.01850 0.69480 0.35510
H15 H 0.04530 0.62850 0.25590
C19 C -0.2166(2) 0.3974(3) 0.21157(17)
H16 H -0.25290 0.29680 0.20090
H17 H -0.25940 0.47090 0.16450
H18 H -0.25260 0.42980 0.27470
C20 C -0.1444(3) 0.2207(3) 0.41667(16)
H19 H -0.09220 0.22540 0.47620
H20 H -0.20700 0.13190 0.41860
H21 H -0.21320 0.31360 0.40730
C21 C 0.5435(2) 0.3072(2) -0.04580(13)
H22 H 0.62710 0.37740 -0.04580
H23 H 0.44980 0.35970 -0.07230
H24 H 0.57890 0.21950 -0.08400
C22 C 0.9786(2) -0.2874(2) 0.04458(15)
H25 H 1.07280 -0.26240 0.07550
H26 H 1.00900 -0.35370 -0.00820
H27 H 0.90970 -0.34000 0.08990
#END
