
#######################################################################
#
#                 Cambridge Crystallographic Data Centre
#                                CCDC
#
#######################################################################
#
# If this CIF has been generated from an entry in the Cambridge
# Structural Database, then it will include bibliographic, chemical,
# crystal, experimental, refinement or atomic coordinate data resulting
# from the CCDC's data processing and validation procedures.
#
#######################################################################

data_CSD_CIF_WEGVUB
_audit_creation_date 2012-11-29
_audit_creation_method CSD-ConQuest-V1
_database_code_CSD WEGVUB
_database_code_depnum_ccdc_archive 'CCDC 874424'
_chemical_formula_sum 'C22 H25 N1 O8'
_chemical_formula_moiety
;
C22 H25 N1 O8
;
_journal_coden_Cambridge 177
_journal_volume 10
_journal_year 2012
_journal_page_first 6003
_journal_name_full 'Org.Biomol.Chem. '
loop_
_publ_author_name
"Y.Hashimoto"
"A.Takada"
"H.Takikawa"
"K.Suzuki"
_chemical_name_systematic
;
3-(2-(1,3-Dioxan-2-yl)-3,6-dimethoxyphenyl)-7,7-dimethoxy-6-methyl-1,2-benzoxa
zol-4(7H)-one
;
_cell_volume   1078.867
_exptl_crystal_colour 'colorless'
_exptl_crystal_density_diffrn 1.328
_exptl_crystal_description 'block'
_diffrn_ambient_temperature 173
#These two values have been output from a single CSD field.
_refine_ls_R_factor_gt 0.1503
_refine_ls_wR_factor_gt 0.1503
_symmetry_cell_setting triclinic
_symmetry_space_group_name_H-M 'P -1'
_symmetry_Int_Tables_number 2
loop_
_symmetry_equiv_pos_site_id
_symmetry_equiv_pos_as_xyz
1 x,y,z
2 -x,-y,-z
_cell_length_a 7.573(6)
_cell_length_b 8.394(5)
_cell_length_c 18.258(12)
_cell_angle_alpha 87.48(2)
_cell_angle_beta 83.12(3)
_cell_angle_gamma 69.44(3)
_cell_formula_units_Z 2
loop_
_atom_type_symbol
_atom_type_radius_bond
C 0.68
H 0.23
N 0.68
O 0.68
loop_
_atom_site_label
_atom_site_type_symbol
_atom_site_fract_x
_atom_site_fract_y
_atom_site_fract_z
O1 O 0.6825(7) -0.0226(5) 0.6418(2)
O2 O 0.5670(7) -0.2283(5) 0.5465(2)
O3 O 0.8427(7) -0.3952(5) 0.5849(2)
O4 O 0.5047(6) -0.3070(5) 0.8402(2)
O5 O 0.8937(6) -0.1379(5) 0.8454(2)
O6 O 0.2435(6) 0.3671(5) 0.9644(2)
O7 O 0.2252(6) 0.1012(5) 0.7942(2)
O8 O 0.2527(7) 0.3680(5) 0.7790(3)
N1 N 0.6636(8) 0.0760(6) 0.7069(2)
C1 C 0.6443(8) -0.1620(7) 0.6633(3)
C2 C 0.6537(9) -0.2973(7) 0.6094(3)
C3 C 0.5736(9) -0.4256(7) 0.6497(3)
C4 C 0.5258(9) -0.4231(7) 0.7219(3)
H1 H 0.47890 -0.50840 0.74230
C5 C 0.5399(8) -0.2977(7) 0.7731(3)
C6 C 0.5989(8) -0.1634(7) 0.7368(3)
C7 C 0.6123(7) -0.0093(7) 0.7613(3)
C8 C 0.5867(7) 0.0558(7) 0.8381(3)
C9 C 0.7407(8) -0.0100(7) 0.8792(3)
C10 C 0.7295(8) 0.0523(7) 0.9492(3)
H2 H 0.83400 0.00720 0.97730
C11 C 0.5649(9) 0.1817(7) 0.9789(3)
H3 H 0.55930 0.22620 1.02640
C12 C 0.4130(8) 0.2434(7) 0.9394(3)
C13 C 0.4170(8) 0.1790(7) 0.8676(3)
C14 C 0.2423(8) 0.2411(7) 0.8297(3)
H4 H 0.12970 0.28930 0.86710
C15 C 0.0576(10) 0.1511(9) 0.7576(4)
H5 H -0.05570 0.19300 0.79420
H6 H 0.05140 0.05170 0.73220
C16 C 0.0589(11) 0.2880(9) 0.7027(4)
H7 H -0.06240 0.32930 0.68050
H8 H 0.16340 0.24230 0.66270
C17 C 0.0852(12) 0.4330(9) 0.7405(5)
H9 H 0.09940 0.51880 0.70360
H10 H -0.02760 0.48860 0.77600
C18 C 0.3728(11) -0.120(1) 0.5604(4)
H11 H 0.29060 -0.18800 0.56090
H12 H 0.34240 -0.03330 0.52160
H13 H 0.35220 -0.06440 0.60840
C19 C 0.9532(13) -0.3051(10) 0.5454(5)
H14 H 0.94090 -0.30570 0.49260
H15 H 1.08680 -0.36050 0.55350
H16 H 0.90770 -0.18740 0.56300
C20 C 0.5560(12) -0.5592(8) 0.6009(3)
H17 H 0.43100 -0.51760 0.58280
H18 H 0.57080 -0.66400 0.62930
H19 H 0.65500 -0.58240 0.55890
C21 C 1.0564(9) -0.2061(8) 0.8843(4)
H20 H 1.14210 -0.14250 0.87100
H21 H 1.12210 -0.32610 0.87120
H22 H 1.01670 -0.19670 0.93750
C22 C 0.2377(9) 0.4451(8) 1.0328(3)
H23 H 0.19630 0.38130 1.07340
H24 H 0.14820 0.56250 1.03310
H25 H 0.36440 0.44520 1.03890
#END
