
#######################################################################
#
#                 Cambridge Crystallographic Data Centre
#                                CCDC
#
#######################################################################
#
# If this CIF has been generated from an entry in the Cambridge
# Structural Database, then it will include bibliographic, chemical,
# crystal, experimental, refinement or atomic coordinate data resulting
# from the CCDC's data processing and validation procedures.
#
#######################################################################

data_CSD_CIF_WEGVEL
_audit_creation_date 2012-11-29
_audit_creation_method CSD-ConQuest-V1
_database_code_CSD WEGVEL
_database_code_depnum_ccdc_archive 'CCDC 859936'
_chemical_formula_sum 'C21 H23 N1 O8'
_chemical_formula_moiety
;
C21 H23 N1 O8
;
_journal_coden_Cambridge 177
_journal_volume 10
_journal_year 2012
_journal_page_first 6003
_journal_name_full 'Org.Biomol.Chem. '
loop_
_publ_author_name
"Y.Hashimoto"
"A.Takada"
"H.Takikawa"
"K.Suzuki"
_chemical_name_systematic
;
3-(2-(1,3-Dioxan-2-yl)-3,6-dimethoxyphenyl)-7,7-dimethoxy-1,2-benzoxazol-4(7H)
-one
;
_cell_volume   2041.621
_exptl_crystal_colour 'colorless'
_exptl_crystal_density_diffrn 1.358
_exptl_crystal_description 'block'
_diffrn_ambient_temperature 173
#These two values have been output from a single CSD field.
_refine_ls_R_factor_gt 0.0577
_refine_ls_wR_factor_gt 0.0577
_symmetry_cell_setting monoclinic
_symmetry_space_group_name_H-M 'P 21/c'
_symmetry_Int_Tables_number 14
loop_
_symmetry_equiv_pos_site_id
_symmetry_equiv_pos_as_xyz
1 x,y,z
2 -x,1/2+y,1/2-z
3 -x,-y,-z
4 x,-1/2-y,-1/2+z
_cell_length_a 14.467(6)
_cell_length_b 9.266(3)
_cell_length_c 15.337(4)
_cell_angle_alpha 90
_cell_angle_beta 96.767(16)
_cell_angle_gamma 90
_cell_formula_units_Z 4
loop_
_atom_type_symbol
_atom_type_radius_bond
C 0.68
H 0.23
N 0.68
O 0.68
loop_
_atom_site_label
_atom_site_type_symbol
_atom_site_fract_x
_atom_site_fract_y
_atom_site_fract_z
O1 O 0.31229(9) 0.13060(14) 0.27973(7)
O2 O 0.38697(9) 0.04181(14) 0.45815(9)
O3 O 0.26208(9) -0.08769(13) 0.40142(7)
O4 O 0.11119(10) 0.41353(16) 0.41428(9)
O5 O 0.04937(9) 0.28149(14) 0.18805(9)
O6 O 0.19984(11) 0.82426(15) 0.1653(1)
O7 O 0.32859(10) 0.55186(15) 0.33195(8)
O8 O 0.36832(10) 0.55323(16) 0.18926(9)
N1 N 0.28033(11) 0.24359(16) 0.21936(9)
C1 C 0.27098(11) 0.14877(18) 0.35228(10)
C2 C 0.29046(12) 0.05042(18) 0.4301(1)
C3 C 0.23762(14) 0.1052(2) 0.50313(11)
H1 H 0.24510 0.05400 0.55720
C4 C 0.18146(13) 0.2196(2) 0.49720(11)
H2 H 0.15130 0.24430 0.54690
C5 C 0.16340(12) 0.31043(19) 0.41758(11)
C6 C 0.21463(11) 0.26478(18) 0.34549(10)
C7 C 0.22316(11) 0.32134(17) 0.2603(1)
C8 C 0.17216(12) 0.44529(18) 0.21611(10)
C9 C 0.08018(12) 0.41955(19) 0.17992(10)
C10 C 0.02770(13) 0.5306(2) 0.13832(12)
H3 H -0.03460 0.51340 0.11350
C11 C 0.06653(14) 0.6667(2) 0.13307(12)
H4 H 0.03050 0.74250 0.10460
C12 C 0.15745(14) 0.69321(19) 0.16904(11)
C13 C 0.21122(12) 0.58198(19) 0.21135(10)
C14 C 0.42757(17) 0.1694(3) 0.49750(18)
H5 H 0.44970 0.23060 0.45220
H6 H 0.48010 0.14340 0.54100
H7 H 0.38090 0.22190 0.52650
C15 C 0.26182(15) -0.1947(2) 0.46880(13)
H8 H 0.32270 -0.24210 0.47780
H9 H 0.21350 -0.26660 0.45110
H10 H 0.24900 -0.14850 0.52360
C16 C -0.04069(14) 0.2470(2) 0.14510(14)
H11 H -0.08740 0.26450 0.18520
H12 H -0.04230 0.14520 0.12770
H13 H -0.05420 0.30770 0.09280
C17 C 0.1430(2) 0.9442(2) 0.1358(2)
H14 H 0.14070 0.95290 0.07190
H15 H 0.16930 1.03260 0.16370
H16 H 0.08000 0.92950 0.15150
C18 C 0.31029(13) 0.61307(19) 0.24762(11)
H17 H 0.32020 0.71980 0.25140
C19 C 0.42156(15) 0.5861(3) 0.36867(14)
H18 H 0.43420 0.54370 0.42810
H19 H 0.42880 0.69210 0.37400
C20 C 0.49039(16) 0.5267(3) 0.31002(18)
H20 H 0.55420 0.55880 0.33190
H21 H 0.48910 0.41990 0.31070
C21 C 0.46407(16) 0.5808(3) 0.21811(17)
H22 H 0.47600 0.68590 0.21600
H23 H 0.50320 0.53260 0.17800
#END
