
#######################################################################
#
#                 Cambridge Crystallographic Data Centre
#                                CCDC
#
#######################################################################
#
# If this CIF has been generated from an entry in the Cambridge
# Structural Database, then it will include bibliographic, chemical,
# crystal, experimental, refinement or atomic coordinate data resulting
# from the CCDC's data processing and validation procedures.
#
#######################################################################

data_CSD_CIF_WEGVIP
_audit_creation_date 2012-11-29
_audit_creation_method CSD-ConQuest-V1
_database_code_CSD WEGVIP
_database_code_depnum_ccdc_archive 'CCDC 874422'
_chemical_formula_sum 'C13 H15 N1 O5'
_chemical_formula_moiety
;
C13 H15 N1 O5
;
_journal_coden_Cambridge 177
_journal_volume 10
_journal_year 2012
_journal_page_first 6003
_journal_name_full 'Org.Biomol.Chem. '
loop_
_publ_author_name
"Y.Hashimoto"
"A.Takada"
"H.Takikawa"
"K.Suzuki"
_chemical_name_systematic
;
((2-(1,3-Dioxan-2-yl)-4,6-dimethoxyphenyl)methylidyne)azane oxide
;
_cell_volume    606.765
_exptl_crystal_colour 'colorless'
_exptl_crystal_density_diffrn 1.452
_exptl_crystal_description 'block'
_diffrn_ambient_temperature 169
#These two values have been output from a single CSD field.
_refine_ls_R_factor_gt 0.0406
_refine_ls_wR_factor_gt 0.0406
_symmetry_cell_setting triclinic
_symmetry_space_group_name_H-M 'P -1'
_symmetry_Int_Tables_number 2
loop_
_symmetry_equiv_pos_site_id
_symmetry_equiv_pos_as_xyz
1 x,y,z
2 -x,-y,-z
_cell_length_a 8.4243(18)
_cell_length_b 8.6769(16)
_cell_length_c 9.1730(17)
_cell_angle_alpha 108.968(5)
_cell_angle_beta 103.816(6)
_cell_angle_gamma 94.519(6)
_cell_formula_units_Z 2
loop_
_atom_type_symbol
_atom_type_radius_bond
C 0.68
H 0.23
N 0.68
O 0.68
loop_
_atom_site_label
_atom_site_type_symbol
_atom_site_fract_x
_atom_site_fract_y
_atom_site_fract_z
O1 O 0.21767(11) 0.47909(10) 0.80480(9)
O2 O 0.47281(13) 0.07639(13) 0.68033(13)
O3 O 0.19262(10) 0.18386(9) 0.21324(10)
O4 O 0.35792(10) 0.38830(9) 0.17587(9)
O5 O 0.11045(11) 0.8317(1) 0.50253(10)
N1 N 0.40652(12) 0.18183(12) 0.63553(12)
C1 C 0.21714(13) 0.52257(13) 0.67471(13)
C2 C 0.27910(13) 0.41315(13) 0.55833(13)
C3 C 0.27965(13) 0.44429(13) 0.41848(12)
C4 C 0.22792(13) 0.58588(13) 0.39727(13)
H1 H 0.23300 0.60930 0.30410
C5 C 0.16857(13) 0.69311(13) 0.51416(13)
C6 C 0.16147(13) 0.66121(13) 0.65243(13)
H2 H 0.11890 0.73400 0.73030
C7 C 0.34407(14) 0.27652(14) 0.59073(13)
C8 C 0.32777(13) 0.31736(13) 0.28623(12)
H3 H 0.42960 0.27820 0.33300
C9 C 0.23099(15) 0.05354(14) 0.08879(14)
H4 H 0.13560 -0.03860 0.03720
H5 H 0.32800 0.01070 0.13630
C10 C 0.26877(16) 0.11876(15) -0.03582(14)
H6 H 0.30580 0.03250 -0.11530
H7 H 0.16770 0.14870 -0.09330
C11 C 0.40392(16) 0.26960(14) 0.04791(14)
H8 H 0.50910 0.23630 0.09240
H9 H 0.42150 0.32050 -0.03040
C12 C 0.16613(16) 0.58999(15) 0.93175(14)
H10 H 0.05140 0.60290 0.89030
H11 H 0.23860 0.69790 0.97400
H12 H 0.17310 0.54510 1.01780
C13 C 0.11895(16) 0.87260(14) 0.36513(15)
H13 H 0.23460 0.88730 0.36240
H14 H 0.07550 0.97540 0.37160
H15 H 0.05260 0.78310 0.26730
#END
