
#######################################################################
#
#                 Cambridge Crystallographic Data Centre
#                                CCDC
#
#######################################################################
#
# If this CIF has been generated from an entry in the Cambridge
# Structural Database, then it will include bibliographic, chemical,
# crystal, experimental, refinement or atomic coordinate data resulting
# from the CCDC's data processing and validation procedures.
#
#######################################################################

data_CSD_CIF_WEGVAH
_audit_creation_date 2012-11-29
_audit_creation_method CSD-ConQuest-V1
_database_code_CSD WEGVAH
_database_code_depnum_ccdc_archive 'CCDC 859935'
_chemical_formula_sum 'C22 H25 N1 O9'
_chemical_formula_moiety
;
C22 H25 N1 O9
;
_journal_coden_Cambridge 177
_journal_volume 10
_journal_year 2012
_journal_page_first 6003
_journal_name_full 'Org.Biomol.Chem. '
loop_
_publ_author_name
"Y.Hashimoto"
"A.Takada"
"H.Takikawa"
"K.Suzuki"
_chemical_name_systematic
;
3-(2-(1,3-Dioxan-2-yl)-4,6-dimethoxyphenyl)-6,7,7-trimethoxy-1,2-benzoxazol-4(
7H)-one
;
_cell_volume   1036.819
_exptl_crystal_colour 'colorless'
_exptl_crystal_density_diffrn 1.433
_exptl_crystal_description 'flat plate'
_diffrn_ambient_temperature 173
#These two values have been output from a single CSD field.
_refine_ls_R_factor_gt 0.0445
_refine_ls_wR_factor_gt 0.0445
_symmetry_cell_setting triclinic
_symmetry_space_group_name_H-M 'P -1'
_symmetry_Int_Tables_number 2
loop_
_symmetry_equiv_pos_site_id
_symmetry_equiv_pos_as_xyz
1 x,y,z
2 -x,-y,-z
_cell_length_a 7.3141(14)
_cell_length_b 11.871(3)
_cell_length_c 12.579(2)
_cell_angle_alpha 72.852(10)
_cell_angle_beta 83.715(8)
_cell_angle_gamma 89.902(11)
_cell_formula_units_Z 2
loop_
_atom_type_symbol
_atom_type_radius_bond
C 0.68
H 0.23
N 0.68
O 0.68
loop_
_atom_site_label
_atom_site_type_symbol
_atom_site_fract_x
_atom_site_fract_y
_atom_site_fract_z
H1 H 0.120(2) 0.6678(13) 0.2461(13)
O1 O 0.26729(11) 0.78474(7) 0.12832(7)
O2 O 0.22393(11) 1.12969(7) 0.37333(7)
O3 O 0.30924(11) 1.24779(7) 0.14886(7)
O4 O 0.05092(11) 1.07661(7) 0.25520(7)
O5 O 0.19680(12) 0.86852(7) 0.42396(7)
O6 O 0.70741(13) 0.38001(7) 0.23389(8)
O7 O 0.64779(12) 0.91061(8) 0.12984(8)
O8 O 0.17305(13) 0.60239(8) 0.11794(8)
C1 C 0.28484(14) 0.94541(9) 0.33205(8)
C2 C 0.46864(14) 0.66480(8) 0.31571(8)
O9 O 0.68399(13) 0.67036(8) 0.43741(8)
C3 C 0.52436(14) 0.95603(9) 0.17519(9)
C4 C 0.39470(14) 0.61386(9) 0.24176(8)
C5 C 0.48261(15) 1.08131(9) 0.13201(9)
H2 H 0.55030 1.12750 0.06440
C6 C 0.40946(14) 0.89094(8) 0.27821(8)
C7 C 0.22535(15) 0.66597(10) 0.18859(9)
C8 C 0.35281(14) 1.13388(9) 0.18383(8)
C9 C 0.62214(15) 0.61527(9) 0.36667(9)
N1 N 0.26247(14) 0.75390(8) 0.42814(8)
C10 C 0.63181(16) 0.47072(9) 0.26764(9)
C11 C 0.70495(15) 0.51773(9) 0.34360(9)
H3 H 0.80890 0.48420 0.37890
C12 C 0.40729(17) 1.31865(10) 0.04543(10)
H4 H 0.53740 1.32600 0.05510
H5 H 0.35500 1.39710 0.02400
H6 H 0.39630 1.28100 -0.01340
C13 C 0.47473(16) 0.51648(9) 0.21889(9)
H7 H 0.42280 0.48090 0.17010
C14 C 0.38610(14) 0.76913(9) 0.34107(8)
C15 C 0.22624(14) 1.07137(8) 0.29083(8)
C16 C 0.88123(19) 0.33897(11) 0.27087(11)
H8 H 0.96990 0.40570 0.25140
H9 H 0.92680 0.28050 0.23420
H10 H 0.86550 0.30280 0.35220
C17 C -0.09983(17) 1.02173(12) 0.33734(11)
H11 H -0.09750 0.93600 0.35180
H12 H -0.21620 1.05070 0.30930
H13 H -0.08860 1.04110 0.40690
C18 C 0.82598(18) 0.61748(12) 0.50218(11)
H14 H 0.78960 0.53560 0.54380
H15 H 0.84670 0.66130 0.55500
H16 H 0.93960 0.61910 0.45250
C19 C 0.40210(18) 1.14747(11) 0.40366(11)
H17 H 0.46710 1.07310 0.41920
H18 H 0.38880 1.17420 0.47060
H19 H 0.47240 1.20720 0.34190
C20 C 0.00836(19) 0.64982(12) 0.06998(13)
H20 H -0.09550 0.63680 0.13020
H21 H -0.02230 0.60770 0.01670
C21 C 0.03332(18) 0.78096(12) 0.00933(11)
H22 H 0.12090 0.79350 -0.05920
H23 H -0.08600 0.81370 -0.01300
C22 C 0.10566(18) 0.84297(11) 0.08552(11)
H24 H 0.13710 0.92650 0.04360
H25 H 0.01030 0.84090 0.14840
#END
