
#######################################################################
#
#                 Cambridge Crystallographic Data Centre
#                                CCDC
#
#######################################################################
#
# If this CIF has been generated from an entry in the Cambridge
# Structural Database, then it will include bibliographic, chemical,
# crystal, experimental, refinement or atomic coordinate data resulting
# from the CCDC's data processing and validation procedures.
#
#######################################################################

data_CSD_CIF_WEGWIP
_audit_creation_date 2006-07-12
_audit_creation_method CSD-ConQuest-V1
_database_code_CSD WEGWIP
_database_code_depnum_ccdc_archive 'CCDC 607699'
_chemical_formula_sum 'C22 H19 N3 O2'
_chemical_formula_moiety
;
C22 H19 N3 O2
;
_journal_coden_Cambridge 82
_journal_volume 46
_journal_year 2005
_journal_page_first 1152
_journal_name_full 'Zh.Strukt.Khim.(Russ.)(J.Struct.Chem.) '
loop_
_publ_author_name
"V.V.D'yakonenko"
"A.V.Zbruev"
"V.A.Chebanov"
"S.M.Desenko"
"O.V.Shishkin"
_chemical_name_systematic
;
2,2-Dimethyl-4-(2-naphthyl)-6-(4-nitrophenyl)-1,3-diazabicyclo(3.1.0)hex-3-ene
;
_cell_volume    955.867
_exptl_crystal_density_diffrn 1.242
_exptl_crystal_preparation 'methanol'
_diffrn_ambient_temperature 295
#These two values have been output from a single CSD field.
_refine_ls_R_factor_gt 0.0559
_refine_ls_wR_factor_gt 0.0559
_symmetry_cell_setting triclinic
_symmetry_space_group_name_H-M 'P -1'
_symmetry_Int_Tables_number 2
loop_
_symmetry_equiv_pos_site_id
_symmetry_equiv_pos_as_xyz
1 x,y,z
2 -x,-y,-z
_cell_length_a 10.134(3)
_cell_length_b 10.313(2)
_cell_length_c 10.546(4)
_cell_angle_alpha 106.48(2)
_cell_angle_beta 96.39(3)
_cell_angle_gamma 111.31(2)
_cell_formula_units_Z 2
loop_
_atom_type_symbol
_atom_type_radius_bond
C 0.68
H 0.23
N 0.68
O 0.68
loop_
_atom_site_label
_atom_site_type_symbol
_atom_site_fract_x
_atom_site_fract_y
_atom_site_fract_z
N1 N 0.2828(4) 1.1178(3) 0.7439(3)
N2 N 0.1094(4) 0.8612(3) 0.6397(4)
N3 N 0.5437(5) 1.7677(4) 0.6781(5)
O1 O 0.4864(4) 1.8179(4) 0.6099(4)
O2 O 0.6641(4) 1.8414(4) 0.7571(4)
C1 C 0.3032(4) 1.0483(4) 0.6094(4)
H1 H 0.40100 1.07220 0.59280
C2 C 0.1891(4) 0.8894(4) 0.5567(4)
C3 C 0.1648(5) 0.9934(4) 0.7668(5)
C4 C 0.2379(4) 1.1592(4) 0.6283(4)
H2 H 0.13260 1.11880 0.59020
C5 C 0.1733(4) 0.7795(4) 0.4255(4)
C6 C 0.2441(4) 0.8173(4) 0.3303(4)
H3 H 0.30160 0.91690 0.34690
C7 C 0.2324(4) 0.7081(5) 0.2057(4)
C8 C 0.1431(4) 0.5556(5) 0.1836(5)
C9 C 0.0694(4) 0.5189(4) 0.2825(5)
H4 H 0.01180 0.42010 0.26840
C10 C 0.0817(4) 0.6258(4) 0.3971(4)
H5 H 0.02960 0.59960 0.45980
C11 C 0.2406(6) 0.9577(5) 0.8785(5)
H6 H 0.32010 0.93660 0.85140
H7 H 0.17180 0.87280 0.89190
H8 H 0.27720 1.04140 0.96200
C12 C 0.0390(6) 1.0326(5) 0.8070(5)
H9 H -0.00890 1.04950 0.73340
H10 H 0.07700 1.12080 0.88670
H11 H -0.02980 0.95190 0.82600
C13 C 0.3235(5) 1.3167(4) 0.6411(4)
C14 C 0.2673(4) 1.3757(4) 0.5550(4)
H12 H 0.18060 1.31550 0.48890
C15 C 0.3400(4) 1.5230(4) 0.5679(4)
H13 H 0.30130 1.56260 0.51230
C16 C 0.4697(4) 1.6103(4) 0.6634(4)
C17 C 0.5300(4) 1.5544(4) 0.7479(4)
H14 H 0.61810 1.61440 0.81210
C18 C 0.4558(5) 1.4073(5) 0.7343(5)
H15 H 0.49600 1.36820 0.78940
C19 C 0.3042(5) 0.7459(5) 0.1064(5)
H16 H 0.36050 0.84500 0.12030
C20 C 0.2914(6) 0.6364(7) -0.0116(5)
H17 H 0.33870 0.66240 -0.07720
C21 C 0.2079(6) 0.4863(7) -0.0338(6)
H18 H 0.20210 0.41360 -0.11300
C22 C 0.1349(6) 0.4458(6) 0.0599(5)
H19 H 0.07930 0.34580 0.04330
#END
