
#######################################################################
#
#                 Cambridge Crystallographic Data Centre
#                                CCDC
#
#######################################################################
#
# If this CIF has been generated from an entry in the Cambridge
# Structural Database, then it will include bibliographic, chemical,
# crystal, experimental, refinement or atomic coordinate data resulting
# from the CCDC's data processing and validation procedures.
#
#######################################################################

data_CSD_CIF_WEHKUQ
_audit_creation_date 2006-07-11
_audit_creation_method CSD-ConQuest-V1
_database_code_CSD WEHKUQ
_database_code_depnum_ccdc_archive 'CCDC 268377'
_chemical_formula_sum 'C16 H26 N4 O6'
_chemical_formula_moiety
;
C16 H26 N4 O6
;
_journal_coden_Cambridge 95
_journal_year 2005
_journal_page_first 2105
_journal_name_full 'Izv.Akad.Nauk SSSR,Ser.Khim.(Russ.)(Russ.Chem.Bull.) '
loop_
_publ_author_name
"E.V.Tret'yakov"
"S.E.Tolstikov"
"G.V.Romanenko"
"Yu.G.Shvedenkov"
"R.Z.Sagdeev"
"V.I.Ovcharenko"
_chemical_name_systematic
;
Diethyl 
3-(1,3-dihydroxy-4,4,5,5-tetramethylimidazolidin-2-yl)-1H-pyrazole-4,5-dicarbo
xylate
;
_chemical_melting_point 387.15
_cell_volume   1918.149
_exptl_crystal_colour 'colorless'
_exptl_crystal_density_diffrn 1.283
_exptl_special_details
;
Melting point range 387.15-391.15K

;
_diffrn_ambient_temperature 273
#These two values have been output from a single CSD field.
_refine_ls_R_factor_gt 0.0395
_refine_ls_wR_factor_gt 0.0395
_symmetry_cell_setting orthorhombic
_symmetry_space_group_name_H-M 'P 21 21 21'
_symmetry_Int_Tables_number 19
loop_
_symmetry_equiv_pos_site_id
_symmetry_equiv_pos_as_xyz
1 x,y,z
2 1/2-x,-y,1/2+z
3 -x,1/2+y,1/2-z
4 1/2+x,1/2-y,-z
_cell_length_a 11.018(2)
_cell_length_b 23.499(5)
_cell_length_c 7.4085(15)
_cell_angle_alpha 90
_cell_angle_beta 90
_cell_angle_gamma 90
_cell_formula_units_Z 4
loop_
_atom_type_symbol
_atom_type_radius_bond
C 0.68
H 0.23
N 0.68
O 0.68
loop_
_atom_site_label
_atom_site_type_symbol
_atom_site_fract_x
_atom_site_fract_y
_atom_site_fract_z
O1 O 0.61629(19) 0.18634(9) 0.3770(3)
H1 H 0.617(4) 0.2246(17) 0.415(5)
N1 N 0.5261(2) 0.18104(8) 0.2378(3)
C1 C 0.5815(3) 0.17538(13) 0.0554(4)
O2 O 0.5109(2) 0.04980(8) 0.1026(3)
H2 H 0.461(3) 0.0252(14) 0.035(5)
N2 N 0.4346(2) 0.10023(8) 0.1010(3)
C2 C 0.5966(7) 0.2361(2) -0.0171(8)
H3 H 0.660(4) 0.2536(16) 0.064(6)
H4 H 0.519(6) 0.262(2) 0.026(10)
H5 H 0.624(4) 0.2311(17) -0.141(7)
N3 N 0.2019(2) 0.20900(9) 0.4602(3)
O3 O 0.1362(2) 0.02569(8) 0.4010(4)
C3 C 0.7025(4) 0.1437(3) 0.0592(8)
H6 H 0.750(3) 0.1637(16) 0.138(6)
H7 H 0.727(4) 0.149(2) -0.066(8)
H8 H 0.700(4) 0.1054(17) 0.109(6)
O4 O 0.33536(17) 0.02866(7) 0.4294(3)
N4 N 0.3135(2) 0.20025(9) 0.3944(3)
H9 H 0.369(3) 0.2295(14) 0.367(4)
C4 C 0.4796(3) 0.14099(12) -0.0397(4)
O5 O -0.0246(2) 0.19763(9) 0.5910(4)
C5 C 0.3683(5) 0.1775(2) -0.0837(7)
H10 H 0.306(4) 0.1561(19) -0.132(6)
H11 H 0.399(4) 0.2028(19) -0.175(7)
H12 H 0.344(3) 0.2011(13) 0.021(5)
O6 O -0.02967(18) 0.10770(9) 0.5071(3)
C6 C 0.5202(5) 0.1097(2) -0.2101(5)
H13 H 0.453(4) 0.0886(16) -0.264(5)
H14 H 0.585(4) 0.0800(16) -0.187(5)
H15 H 0.549(3) 0.1405(13) -0.299(5)
C7 C 0.4571(3) 0.12894(10) 0.2748(4)
H16 H 0.494(2) 0.1044(11) 0.349(4)
C8 C 0.3395(3) 0.14531(10) 0.3625(3)
C9 C 0.2370(2) 0.11525(10) 0.4126(3)
C10 C 0.2277(3) 0.05254(11) 0.4152(4)
C11 C 0.3413(3) -0.03311(11) 0.4245(6)
H17 H 0.315(3) -0.0447(12) 0.307(4)
H18 H 0.276(3) -0.0485(15) 0.500(5)
C12 C 0.4676(4) -0.04989(18) 0.4739(8)
H19 H 0.472(3) -0.0935(16) 0.470(5)
H20 H 0.482(5) -0.0372(19) 0.612(7)
H21 H 0.519(4) -0.0361(16) 0.388(6)
C13 C 0.1530(3) 0.15741(10) 0.4683(3)
C14 C 0.0246(3) 0.15649(12) 0.5308(4)
C15 C -0.1594(3) 0.10548(18) 0.5517(7)
H22 H -0.199(3) 0.1390(14) 0.497(4)
H23 H -0.162(3) 0.1100(13) 0.686(5)
C16 C -0.2071(4) 0.0511(2) 0.4831(10)
H24 H -0.294(5) 0.0498(18) 0.521(6)
H25 H -0.170(4) 0.0220(17) 0.544(6)
H26 H -0.187(5) 0.050(2) 0.353(7)
#END
