
#######################################################################
#
#                 Cambridge Crystallographic Data Centre
#                                CCDC
#
#######################################################################
#
# If this CIF has been generated from an entry in the Cambridge
# Structural Database, then it will include bibliographic, chemical,
# crystal, experimental, refinement or atomic coordinate data resulting
# from the CCDC's data processing and validation procedures.
#
#######################################################################

data_CSD_CIF_WEHPII
_audit_creation_date 1994-07-27
_audit_creation_method CSD-ConQuest-V1
_database_code_CSD WEHPII
_chemical_formula_sum 'C17 H18 N2 O3'
_chemical_formula_moiety
;
C17 H18 N2 O3
;
_journal_coden_Cambridge 154
_journal_volume 46
_journal_year 1993
_journal_page_first 1725
_journal_name_full 'Aust.J.Chem. '
loop_
_publ_author_name
"D.St.C.Black"
"D.C.Craig"
"R.B.Deb-Das"
"N.Kumar"
"T.A.Wright"
_chemical_name_systematic
;
Methyl 
11,11b-dimethyl-5,6,11,11b-tetrahydroisoxazolo(2',3':1,2)pyrido(3,4-b)indole-1
-carboxylate
;
_chemical_melting_point 394.15
_cell_volume    749.722
_exptl_crystal_colour 'light yellow'
_exptl_crystal_density_diffrn 1.321
_exptl_special_details
;
Melting point range 394.15-395.15K

;
_diffrn_ambient_temperature ?
_diffrn_special_details
;
The study was carried out at room temperature,in the range 283-303K

;
#These two values have been output from a single CSD field.
_refine_ls_R_factor_gt 0.042
_refine_ls_wR_factor_gt 0.042
_symmetry_cell_setting triclinic
_symmetry_space_group_name_H-M 'P -1'
_symmetry_Int_Tables_number 2
loop_
_symmetry_equiv_pos_site_id
_symmetry_equiv_pos_as_xyz
1 x,y,z
2 -x,-y,-z
_cell_length_a 9.043(5)
_cell_length_b 9.691(6)
_cell_length_c 10.481(6)
_cell_angle_alpha 109.52(3)
_cell_angle_beta 114.93(3)
_cell_angle_gamma 96.47(4)
_cell_formula_units_Z 2
loop_
_atom_type_symbol
_atom_type_radius_bond
C 0.68
H 0.23
N 0.68
O 0.68
loop_
_atom_site_label
_atom_site_type_symbol
_atom_site_fract_x
_atom_site_fract_y
_atom_site_fract_z
O1 O 0.6910(2) 0.3760(2) 0.6464(2)
O2 O 0.2704(2) 0.0406(2) 0.2814(2)
O3 O 0.1888(2) 0.0060(2) 0.4450(2)
N1 N 0.2237(2) 0.4110(2) 0.6862(2)
N2 N 0.6689(2) 0.3704(2) 0.7774(2)
C1 C 0.3945(2) 0.4287(2) 0.7255(2)
C2 C 0.4756(3) 0.5804(2) 0.7810(2)
C3 C 0.3536(2) 0.6623(2) 0.7767(2)
C4 C 0.3612(3) 0.8173(2) 0.8192(2)
C5 C 0.2164(3) 0.8583(3) 0.8028(3)
C6 C 0.0629(3) 0.7482(3) 0.7454(3)
C7 C 0.0512(3) 0.5946(3) 0.7022(3)
C8 C 0.1989(2) 0.5535(2) 0.7185(2)
C9 C 0.4799(3) 0.3025(2) 0.7103(2)
C10 C 0.4346(3) 0.2079(2) 0.5417(2)
C11 C 0.5576(3) 0.2635(3) 0.5198(3)
C12 C 0.7472(3) 0.5287(3) 0.8979(3)
C13 C 0.6649(3) 0.6429(3) 0.8484(3)
C14 C 0.0887(3) 0.2739(3) 0.6341(3)
C15 C 0.4617(3) 0.2078(3) 0.7970(3)
C16 C 0.2862(3) 0.0773(2) 0.4239(3)
C17 C 0.1313(3) -0.0918(3) 0.1567(3)
H1 H 0.47140 0.89670 0.86210
H2 H 0.22030 0.96870 0.83250
H3 H -0.04080 0.78260 0.73670
H4 H -0.05890 0.51600 0.66140
H5 H 0.55110 0.22400 0.41530
H6 H 0.87010 0.56100 0.92750
H7 H 0.73760 0.53120 0.99040
H8 H 0.68960 0.65710 0.76800
H9 H 0.70960 0.74460 0.93990
H10 H -0.02450 0.28150 0.56480
H11 H 0.07570 0.26200 0.71460
H12 H 0.09880 0.17500 0.56830
H13 H 0.51970 0.12710 0.78370
H14 H 0.51540 0.27770 0.91090
H15 H 0.33780 0.15960 0.75640
H16 H 0.12980 -0.10920 0.05770
H17 H 0.14430 -0.18330 0.17980
H18 H 0.02070 -0.07400 0.14930
#END
