
#######################################################################
#
#                 Cambridge Crystallographic Data Centre
#                                CCDC
#
#######################################################################
#
# If this CIF has been generated from an entry in the Cambridge
# Structural Database, then it will include bibliographic, chemical,
# crystal, experimental, refinement or atomic coordinate data resulting
# from the CCDC's data processing and validation procedures.
#
#######################################################################

data_CSD_CIF_WEJFOJ
_audit_creation_date 2017-08-24
_audit_creation_method CSD-ConQuest-V1
_database_code_CSD WEJFOJ
_database_code_depnum_ccdc_archive 'CCDC 858078'
_chemical_formula_sum 'C24 H30 N6 O2'
_chemical_formula_moiety
;
C24 H30 N6 O2
;
_journal_coden_Cambridge 1695
_journal_volume 5
_journal_year 2017
_journal_page_first 9053
_journal_name_full 'J.Mater.Chem.C '
loop_
_publ_author_name
"Y.B.Borozdina"
"E.A.Mostovich"
"Pham Thanh Cong"
"L.Postulka"
"B.Wolf"
"Michael Lang"
"M.Baumgarten"
_chemical_name_systematic
;
2,2'-(2,2'-bipyridine-5,5'-diyl)bis(4,4,5,5-tetramethyl-4,5-dihydro-1H-imidazo
le 1-oxide)
;
_cell_volume   1123.886
_exptl_crystal_colour 'red'
_exptl_crystal_density_diffrn 1.284
_exptl_crystal_description 'prism'
_diffrn_ambient_temperature 120
_refine_special_details
;
O1 and O2 disordered over two sites with occupancies 0.6159:0.3841.

;
#These two values have been output from a single CSD field.
_refine_ls_R_factor_gt 0.0526
_refine_ls_wR_factor_gt 0.0526
_symmetry_cell_setting monoclinic
_symmetry_space_group_name_H-M 'P 21/n'
_symmetry_Int_Tables_number 14
loop_
_symmetry_equiv_pos_site_id
_symmetry_equiv_pos_as_xyz
1 x,y,z
2 1/2-x,1/2+y,1/2-z
3 -x,-y,-z
4 -1/2+x,-1/2-y,-1/2+z
_cell_length_a 6.3011(2)
_cell_length_b 10.4759(5)
_cell_length_c 17.1953(7)
_cell_angle_alpha 90
_cell_angle_beta 98.045(2)
_cell_angle_gamma 90
_cell_formula_units_Z 2
loop_
_atom_type_symbol
_atom_type_radius_bond
C 0.68
H 0.23
N 0.68
O 0.68
loop_
_atom_site_label
_atom_site_type_symbol
_atom_site_fract_x
_atom_site_fract_y
_atom_site_fract_z
N1 N -0.0508(2) 0.33480(15) 0.02166(9)
N2 N 0.5620(3) 0.11889(18) 0.17083(11)
N3 N 0.2901(2) 0.00262(14) 0.11192(9)
C1 C 0.0598(3) 0.44415(16) 0.01866(9)
C2 C 0.2756(3) 0.45461(16) 0.0487(1)
C3 C 0.3812(3) 0.34926(17) 0.08331(10)
C4 C 0.2694(3) 0.23536(15) 0.08757(9)
C5 C 0.0529(3) 0.23291(16) 0.05529(10)
C6 C 0.3726(3) 0.11924(17) 0.12332(10)
C7 C 0.6012(3) -0.0097(2) 0.20690(11)
C8 C 0.5334(4) -0.0008(2) 0.28899(11)
C9 C 0.8374(4) -0.0446(3) 0.21274(17)
C10 C 0.4486(3) -0.09241(17) 0.14889(11)
C11 C 0.3349(4) -0.19960(19) 0.18591(14)
C12 C 0.5524(5) -0.1474(2) 0.08070(14)
O1 O 0.6954(4) 0.2025(2) 0.18537(15)
H1 H 0.34920 0.53310 0.04520
H2 H 0.52870 0.35420 0.10430
H3 H -0.02440 0.15530 0.05690
H4 H 0.55600 -0.08090 0.31480
H5 H 0.61690 0.06270 0.31850
H6 H 0.38600 0.02130 0.28460
H7 H 0.86070 -0.12660 0.23590
H8 H 0.92150 0.01670 0.24400
H9 H 0.87740 -0.04570 0.16150
H10 H 0.43800 -0.25930 0.20930
H11 H 0.25750 -0.16590 0.22490
H12 H 0.23850 -0.24100 0.14640
H13 H 0.65600 -0.20980 0.09990
H14 H 0.61980 -0.08080 0.05570
H15 H 0.44440 -0.18560 0.04400
O2? O 0.1551(7) -0.0329(4) 0.0633(2)
N1B N 0.0508(2) 0.66520(15) -0.02166(9)
N2B N -0.5620(3) 0.88111(18) -0.17083(11)
N3B N -0.2901(2) 0.99738(14) -0.11192(9)
C1B C -0.0598(3) 0.55585(16) -0.01866(9)
C2B C -0.2756(3) 0.54539(16) -0.0487(1)
C3B C -0.3812(3) 0.65074(17) -0.08331(10)
C4B C -0.2694(3) 0.76464(15) -0.08757(9)
C5B C -0.0529(3) 0.76709(16) -0.05529(10)
C6B C -0.3726(3) 0.88076(17) -0.12332(10)
C7B C -0.6012(3) 1.0097(2) -0.20690(11)
C8B C -0.5334(4) 1.0008(2) -0.28899(11)
C9B C -0.8374(4) 1.0446(3) -0.21274(17)
C10B C -0.4486(3) 1.09241(17) -0.14889(11)
C11B C -0.3349(4) 1.19960(19) -0.18591(14)
C12B C -0.5524(5) 1.1474(2) -0.08070(14)
O1B O -0.6954(4) 0.7975(2) -0.18537(15)
H1B H -0.34920 0.46690 -0.04520
H2B H -0.52870 0.64580 -0.10430
H3B H 0.02440 0.84470 -0.05690
H4B H -0.55600 1.08090 -0.31480
H5B H -0.61690 0.93730 -0.31850
H6B H -0.38600 0.97870 -0.28460
H7B H -0.86070 1.12660 -0.23590
H8B H -0.92150 0.98330 -0.24400
H9B H -0.87740 1.04570 -0.16150
H10B H -0.43800 1.25930 -0.20930
H11B H -0.25750 1.16590 -0.22490
H12B H -0.23850 1.24100 -0.14640
H13B H -0.65600 1.20980 -0.09990
H14B H -0.61980 1.08080 -0.05570
H15B H -0.44440 1.18560 -0.04400
#END
