
#######################################################################
#
#                 Cambridge Crystallographic Data Centre
#                                CCDC
#
#######################################################################
#
# If this CIF has been generated from an entry in the Cambridge
# Structural Database, then it will include bibliographic, chemical,
# crystal, experimental, refinement or atomic coordinate data resulting
# from the CCDC's data processing and validation procedures.
#
#######################################################################

data_CSD_CIF_WEJGOK
_audit_creation_date 2017-08-24
_audit_creation_method CSD-ConQuest-V1
_database_code_CSD WEJGOK
_database_code_depnum_ccdc_archive 'CCDC 810139'
_chemical_formula_sum 'C28 H32 N4 O2'
_chemical_formula_moiety
;
C28 H32 N4 O2
;
_journal_coden_Cambridge 1695
_journal_volume 5
_journal_year 2017
_journal_page_first 9053
_journal_name_full 'J.Mater.Chem.C '
loop_
_publ_author_name
"Y.B.Borozdina"
"E.A.Mostovich"
"Pham Thanh Cong"
"L.Postulka"
"B.Wolf"
"Michael Lang"
"M.Baumgarten"
_chemical_name_systematic
;
2,2'-(ethyne-1,2-diyldi-4,1-phenylene)bis(4,4,5,5-tetramethyl-4,5-dihydro-1H-i
midazole 1-oxide)
;
_chemical_melting_point 501
_cell_volume   1254.789
_exptl_crystal_colour 'red'
_exptl_crystal_density_diffrn 1.208
_exptl_special_details
;
Melting point range 501-503K

;
_exptl_crystal_description 'prism'
_diffrn_ambient_temperature 120
#These two values have been output from a single CSD field.
_refine_ls_R_factor_gt 0.0401
_refine_ls_wR_factor_gt 0.0401
_symmetry_cell_setting monoclinic
_symmetry_space_group_name_H-M 'P 21/n'
_symmetry_Int_Tables_number 14
loop_
_symmetry_equiv_pos_site_id
_symmetry_equiv_pos_as_xyz
1 x,y,z
2 1/2-x,1/2+y,1/2-z
3 -x,-y,-z
4 -1/2+x,-1/2-y,-1/2+z
_cell_length_a 6.6883(2)
_cell_length_b 10.3043(4)
_cell_length_c 18.2359(5)
_cell_angle_alpha 90
_cell_angle_beta 93.231(2)
_cell_angle_gamma 90
_cell_formula_units_Z 2
loop_
_atom_type_symbol
_atom_type_radius_bond
C 0.68
H 0.23
N 0.68
O 0.68
loop_
_atom_site_label
_atom_site_type_symbol
_atom_site_fract_x
_atom_site_fract_y
_atom_site_fract_z
O1 O 1.23796(15) -0.07285(10) 0.16943(7)
N1 N 0.81573(16) 0.11589(10) 0.13254(6)
N2 N 1.10553(16) 0.01557(10) 0.16414(6)
C1 C 0.82164(19) -0.11458(11) 0.10217(7)
C2 C 0.95756(18) 0.21865(12) 0.16046(7)
C3 C 0.90993(17) 0.00672(12) 0.13232(6)
C4 C 0.9172(2) -0.23494(12) 0.10761(7)
C5 C 0.8220(2) -0.34521(12) 0.07906(8)
C6 C 1.12938(18) 0.14307(12) 0.20240(7)
C7 C 0.6324(2) -0.33762(12) 0.04405(7)
C8 C 0.5380(2) -0.45214(13) 0.01299(8)
C9 C 0.5364(2) -0.21720(13) 0.03882(8)
C10 C 0.6295(2) -0.10755(12) 0.06801(8)
C11 C 1.0274(2) 0.28623(13) 0.09170(8)
C12 C 1.0906(2) 0.11741(15) 0.28297(8)
C13 C 0.8488(2) 0.31572(14) 0.20699(9)
C14 C 1.3409(2) 0.19410(14) 0.19533(8)
H1 H 1.04780 -0.24110 0.13070
H2 H 0.88720 -0.42700 0.08350
H3 H 0.40700 -0.21060 0.01480
H4 H 0.56210 -0.02640 0.06560
H5 H 1.11850 0.35390 0.10530
H6 H 1.09200 0.22440 0.06250
H7 H 0.91500 0.32140 0.06440
H8 H 1.10490 0.19600 0.31000
H9 H 1.18350 0.05520 0.30280
H10 H 0.95820 0.08520 0.28610
H11 H 0.93930 0.38130 0.22440
H12 H 0.79650 0.27190 0.24750
H13 H 0.74210 0.35420 0.17800
H14 H 1.35520 0.27500 0.22010
H15 H 1.43440 0.13370 0.21670
H16 H 1.36500 0.20550 0.14490
O1B O -0.23796(15) -0.92715(10) -0.16943(7)
N1B N 0.18427(16) -1.11589(10) -0.13254(6)
N2B N -0.10553(16) -1.01557(10) -0.16414(6)
C1B C 0.17836(19) -0.88542(11) -0.10217(7)
C2B C 0.04244(18) -1.21865(12) -0.16046(7)
C3B C 0.09007(17) -1.00672(12) -0.13232(6)
C4B C 0.0828(2) -0.76506(12) -0.10761(7)
C5B C 0.1780(2) -0.65479(12) -0.07906(8)
C6B C -0.12938(18) -1.14307(12) -0.20240(7)
C7B C 0.3676(2) -0.66238(12) -0.04405(7)
C8B C 0.4620(2) -0.54786(13) -0.01299(8)
C9B C 0.4636(2) -0.78280(13) -0.03882(8)
C10B C 0.3705(2) -0.89245(12) -0.06801(8)
C11B C -0.0274(2) -1.28623(13) -0.09170(8)
C12B C -0.0906(2) -1.11741(15) -0.28297(8)
C13B C 0.1512(2) -1.31572(14) -0.20699(9)
C14B C -0.3409(2) -1.19410(14) -0.19533(8)
H1B H -0.04780 -0.75890 -0.13070
H2B H 0.11280 -0.57300 -0.08350
H3B H 0.59300 -0.78940 -0.01480
H4B H 0.43790 -0.97360 -0.06560
H5B H -0.11850 -1.35390 -0.10530
H6B H -0.09200 -1.22440 -0.06250
H7B H 0.08500 -1.32140 -0.06440
H8B H -0.10490 -1.19600 -0.31000
H9B H -0.18350 -1.05520 -0.30280
H10B H 0.04180 -1.08520 -0.28610
H11B H 0.06070 -1.38130 -0.22440
H12B H 0.20350 -1.27190 -0.24750
H13B H 0.25790 -1.35420 -0.17800
H14B H -0.35520 -1.27500 -0.22010
H15B H -0.43440 -1.13370 -0.21670
H16B H -0.36500 -1.20550 -0.14490
#END
