
#######################################################################
#
#                 Cambridge Crystallographic Data Centre
#                                CCDC
#
#######################################################################
#
# If this CIF has been generated from an entry in the Cambridge
# Structural Database, then it will include bibliographic, chemical,
# crystal, experimental, refinement or atomic coordinate data resulting
# from the CCDC's data processing and validation procedures.
#
#######################################################################

data_CSD_CIF_WEKCEV
_audit_creation_date 2006-11-14
_audit_creation_method CSD-ConQuest-V1
_database_code_CSD WEKCEV
_database_code_depnum_ccdc_archive 'CCDC 297570'
_chemical_formula_sum 'C35 H36 N2 O12'
_chemical_formula_moiety
;
C35 H36 N2 O12
;
_journal_coden_Cambridge 24
_journal_volume 47
_journal_year 2006
_journal_page_first 4753
_journal_name_full 'Tetrahedron Lett. '
loop_
_publ_author_name
"V.Reutrakul"
"J.Jaratjaroonphong"
"P.Tuchinda"
"C.Kuhakarn"
"P.Kongsaeree"
"S.Prabpai"
"M.Pohmakotr"
_chemical_name_systematic
;
2-Deoxy-1-O-((2,2-dimethyl-1,3-dioxolan-4-yl)carbonyl)-3-O-((3,5-dinitrophenyl
)carbonyl)-4,5-O-(1-methylethylidene)-1-C-phenyl-2-((E)-2-phenylethenyl)pentit
ol
;
_cell_volume   3430.185
_exptl_crystal_colour 'colorless'
_exptl_crystal_density_diffrn 1.31
_exptl_crystal_description 'Prism'
_diffrn_ambient_temperature 298
#These two values have been output from a single CSD field.
_refine_ls_R_factor_gt 0.0391
_refine_ls_wR_factor_gt 0.0391
_symmetry_cell_setting orthorhombic
_symmetry_space_group_name_H-M 'P 21 21 21'
_symmetry_Int_Tables_number 19
loop_
_symmetry_equiv_pos_site_id
_symmetry_equiv_pos_as_xyz
1 x,y,z
2 1/2-x,-y,1/2+z
3 1/2+x,1/2-y,-z
4 -x,1/2+y,1/2-z
_cell_length_a 11.4303(2)
_cell_length_b 13.6721(5)
_cell_length_c 21.9495(7)
_cell_angle_alpha 90
_cell_angle_beta 90
_cell_angle_gamma 90
_cell_formula_units_Z 4
loop_
_atom_type_symbol
_atom_type_radius_bond
C 0.68
H 0.23
N 0.68
O 0.68
loop_
_atom_site_label
_atom_site_type_symbol
_atom_site_fract_x
_atom_site_fract_y
_atom_site_fract_z
O1 O -0.02561(12) 0.22841(10) -0.67789(7)
O2 O 0.18559(12) 0.2447(1) -0.58235(6)
O3 O 0.01920(15) 0.34511(11) -0.78615(7)
O4 O 0.03143(14) 0.07340(12) -0.65965(9)
O5 O -0.07528(16) 0.20719(12) -0.81531(9)
O6 O 0.30513(17) 0.05342(14) -0.44471(8)
C1 C -0.16900(18) 0.11544(15) -0.64677(9)
C2 C -0.24995(18) 0.19059(17) -0.64077(10)
C3 C -0.36455(18) 0.16632(17) -0.62788(10)
N1 N -0.3581(2) -0.10314(16) -0.62242(10)
O7 O 0.16254(16) 0.01472(13) -0.51142(9)
C4 C -0.04375(19) 0.13481(15) -0.6616(1)
C5 C 0.12179(17) 0.33428(15) -0.59488(9)
C6 C 0.09129(17) 0.25586(15) -0.69839(9)
C7 C 0.24154(18) 0.38764(15) -0.68551(9)
C8 C 0.1409(2) 0.18172(17) -0.54232(11)
C9 C 0.0906(2) 0.26558(16) -0.76734(10)
N2 N -0.45275(19) 0.24421(18) -0.62527(10)
O8 O -0.55352(16) 0.22171(16) -0.61242(10)
C10 C 0.12480(17) 0.34960(15) -0.66484(9)
C11 C 0.1116(2) 0.50497(18) -0.55484(11)
C12 C -0.20366(19) 0.01875(17) -0.64076(10)
C13 C 0.17601(18) 0.41867(16) -0.56101(9)
C14 C -0.31904(19) -0.00095(16) -0.62738(10)
C15 C 0.25937(18) 0.47967(15) -0.70091(9)
O9 O -0.28633(19) -0.16729(14) -0.6297(1)
C16 C 0.37148(19) 0.52639(16) -0.71617(10)
O10 O -0.46138(18) -0.11802(15) -0.61058(11)
O11 O 0.05212(19) 0.19394(17) -0.51524(11)
C17 C 0.2221(2) 0.09492(17) -0.53721(11)
C18 C 0.4675(2) 0.4759(2) -0.73698(12)
O12 O -0.42296(18) 0.32645(17) -0.63789(13)
C19 C 0.3815(3) 0.62678(19) -0.70939(13)
C20 C 0.2911(2) 0.41705(19) -0.54067(11)
C21 C -0.4019(2) 0.07144(18) -0.62039(10)
C22 C 0.0406(2) 0.17852(18) -0.80197(12)
C23 C 0.2340(2) -0.0255(2) -0.46444(12)
C24 C -0.0702(2) 0.30962(18) -0.82632(12)
C25 C 0.3247(3) 0.1141(2) -0.49432(14)
C26 C 0.1639(3) 0.5872(2) -0.53087(13)
C27 C 0.3419(3) 0.4998(2) -0.51657(12)
C28 C 0.2789(3) 0.5846(2) -0.51244(13)
C29 C 0.4851(4) 0.6748(3) -0.72169(16)
C30 C -0.0365(3) 0.3309(2) -0.89153(13)
C31 C 0.3079(3) -0.1066(2) -0.48982(17)
C32 C 0.5787(3) 0.6232(3) -0.74212(17)
C33 C 0.5710(2) 0.5252(3) -0.75000(15)
C34 C 0.1569(4) -0.0571(3) -0.41302(19)
C35 C -0.1836(3) 0.3552(2) -0.8082(2)
H1 H -0.22560 0.25740 -0.64540
H2 H 0.04200 0.32870 -0.58160
H3 H 0.14660 0.20650 -0.68670
H4 H 0.30780 0.34460 -0.68750
H5 H 0.16900 0.27580 -0.78160
H6 H 0.06880 0.39970 -0.67420
H7 H 0.03130 0.50700 -0.56750
H8 H -0.14730 -0.03270 -0.64580
H9 H 0.19450 0.52410 -0.70310
H10 H 0.25110 0.07890 -0.57700
H11 H 0.46340 0.40630 -0.74260
H12 H 0.31430 0.66430 -0.69740
H13 H 0.33540 0.35760 -0.54330
H14 H -0.48240 0.05870 -0.61070
H15 H 0.03810 0.12090 -0.77700
H16 H 0.08210 0.16450 -0.83900
H17 H 0.32400 0.18080 -0.48060
H18 H 0.39920 0.09950 -0.51230
H19 H 0.12040 0.64690 -0.52710
H20 H 0.42190 0.49840 -0.50320
H21 H 0.31470 0.64220 -0.49580
H22 H 0.49120 0.74380 -0.71430
H23 H -0.09570 0.30760 -0.91900
H24 H 0.03600 0.29830 -0.90000
H25 H -0.02670 0.40010 -0.89690
H26 H 0.25910 -0.15960 -0.50310
H27 H 0.35990 -0.12920 -0.45850
H28 H 0.35270 -0.08250 -0.52360
H29 H 0.65080 0.65580 -0.75160
H30 H 0.63680 0.48900 -0.76520
H31 H 0.10940 -0.11070 -0.42670
H32 H 0.10740 -0.00420 -0.40040
H33 H 0.20430 -0.07800 -0.37930
H34 H -0.24480 0.33270 -0.83470
H35 H -0.17750 0.42510 -0.81100
H36 H -0.20140 0.33700 -0.76700
#END
