
#######################################################################
#
#                 Cambridge Crystallographic Data Centre
#                                CCDC
#
#######################################################################
#
# If this CIF has been generated from an entry in the Cambridge
# Structural Database, then it will include bibliographic, chemical,
# crystal, experimental, refinement or atomic coordinate data resulting
# from the CCDC's data processing and validation procedures.
#
#######################################################################

data_CSD_CIF_WEKGUP
_audit_creation_date 2006-11-14
_audit_creation_method CSD-ConQuest-V1
_database_code_CSD WEKGUP
_database_code_depnum_ccdc_archive 'CCDC 258373'
_chemical_formula_sum 'C5 H2 N4 O7'
_chemical_formula_moiety
;
C5 H2 N4 O7
;
_journal_coden_Cambridge 1003
_journal_volume 35
_journal_year 2005
_journal_page_first 943
_journal_name_full 'J.Chem.Cryst. '
loop_
_publ_author_name
"Li Jia-Rong"
"Zhao Jian-Min"
"Dong Hai-Shan"
_chemical_name_systematic
;
2,4,6-Trinitropyridine N-oxide
;
_cell_volume    815.303
_exptl_crystal_colour 'yellow'
_exptl_crystal_density_diffrn 1.875
_exptl_crystal_description 'block'
_exptl_crystal_preparation 'acetic acid/trichloromethane'
_diffrn_ambient_temperature 293
#These two values have been output from a single CSD field.
_refine_ls_R_factor_gt 0.0497
_refine_ls_wR_factor_gt 0.0497
_symmetry_cell_setting orthorhombic
_symmetry_space_group_name_H-M 'P n m a'
_symmetry_Int_Tables_number 62
loop_
_symmetry_equiv_pos_site_id
_symmetry_equiv_pos_as_xyz
1 x,y,z
2 1/2-x,-y,1/2+z
3 -x,1/2+y,-z
4 1/2+x,1/2-y,1/2-z
5 -x,-y,-z
6 -1/2+x,y,-1/2-z
7 x,-1/2-y,z
8 -1/2-x,-1/2+y,-1/2+z
_cell_length_a 9.6272(19)
_cell_length_b 14.128(3)
_cell_length_c 5.9943(12)
_cell_angle_alpha 90
_cell_angle_beta 90
_cell_angle_gamma 90
_cell_formula_units_Z 4
loop_
_atom_type_symbol
_atom_type_radius_bond
C 0.68
H 0.23
N 0.68
O 0.68
loop_
_atom_site_label
_atom_site_type_symbol
_atom_site_fract_x
_atom_site_fract_y
_atom_site_fract_z
C1 C 0.20407(16) 0.66769(10) 0.3116(2)
C2 C 0.13181(15) 0.66472(10) 0.5089(3)
H1 H 0.10760 0.60750 0.57490
C3 C 0.0965(2) 0.75000 0.6053(3)
N1 N 0.23897(18) 0.75000 0.2051(3)
N2 N 0.24865(15) 0.57998(9) 0.2011(2)
N3 N 0.0164(2) 0.75000 0.8130(3)
O1 O 0.2943(2) 0.75000 0.0106(3)
O2 O 0.37039(16) 0.57107(12) 0.1604(3)
O3 O 0.16188(18) 0.52045(11) 0.1734(4)
O4 O -0.01314(17) 0.67383(11) 0.8951(3)
C1F C 0.20407(16) 0.83231(10) 0.3116(2)
C2F C 0.13181(15) 0.83528(10) 0.5089(3)
H1F H 0.10760 0.89250 0.57490
N2F N 0.24865(15) 0.92002(9) 0.2011(2)
O2F O 0.37039(16) 0.92893(12) 0.1604(3)
O3F O 0.16188(18) 0.97955(11) 0.1734(4)
O4F O -0.01314(17) 0.82617(11) 0.8951(3)
#END
