
#######################################################################
#
#                 Cambridge Crystallographic Data Centre
#                                CCDC
#
#######################################################################
#
# If this CIF has been generated from an entry in the Cambridge
# Structural Database, then it will include bibliographic, chemical,
# crystal, experimental, refinement or atomic coordinate data resulting
# from the CCDC's data processing and validation procedures.
#
#######################################################################

data_CSD_CIF_WEKGIF
_audit_creation_date 2017-08-25
_audit_creation_method CSD-ConQuest-V1
_database_code_CSD WEKGIF
_database_code_depnum_ccdc_archive 'CCDC 1552175'
_chemical_formula_sum 'C33 H23 N7 O8'
_chemical_formula_moiety
;
C33 H23 N7 O8
;
_journal_coden_Cambridge 1350
_journal_volume 19
_journal_year 2017
_journal_page_first 5184
_journal_name_full 'CrystEngComm '
loop_
_publ_author_name
"K.Helttunen"
"R.Annala"
"A.Suhonen"
"E.Nauha"
"Juha Linnanto"
"M.Nissinen"
_chemical_name_systematic
;
N^2^,N^6^-bis{2-[(2-nitrobenzene-1-carbonyl)amino]phenyl}pyridine-2,6-dicarbox
amide
;
_cell_volume   2901.550
_exptl_crystal_colour 'colorless'
_exptl_crystal_density_diffrn 1.478
_exptl_crystal_description 'plate'
_exptl_crystal_preparation 'DMSO-d6'
_diffrn_ambient_temperature 120
#These two values have been output from a single CSD field.
_refine_ls_R_factor_gt 0.0341
_refine_ls_wR_factor_gt 0.0341
_symmetry_cell_setting monoclinic
_symmetry_space_group_name_H-M 'P 21/c'
_symmetry_Int_Tables_number 14
loop_
_symmetry_equiv_pos_site_id
_symmetry_equiv_pos_as_xyz
1 x,y,z
2 -x,1/2+y,1/2-z
3 -x,-y,-z
4 x,-1/2-y,-1/2+z
_cell_length_a 14.96763(11)
_cell_length_b 15.13591(11)
_cell_length_c 12.96566(10)
_cell_angle_alpha 90
_cell_angle_beta 98.9550(7)
_cell_angle_gamma 90
_cell_formula_units_Z 4
loop_
_atom_type_symbol
_atom_type_radius_bond
C 0.68
H 0.23
N 0.68
O 0.68
loop_
_atom_site_label
_atom_site_type_symbol
_atom_site_fract_x
_atom_site_fract_y
_atom_site_fract_z
O1 O 0.84178(6) 0.28983(6) 0.40795(7)
O2 O 0.88373(6) 0.51732(6) 0.53903(7)
O3 O 0.48670(6) 0.36048(5) 0.70030(6)
O4 O 0.54492(6) 0.43081(5) 0.33890(6)
O5 O 0.96553(7) 0.17405(7) 0.32738(7)
O6 O 0.94378(7) 0.06744(6) 0.43173(8)
O7 O 0.46085(9) 0.40679(8) -0.02852(8)
O8 O 0.42122(7) 0.39732(8) 0.12442(8)
N1 N 0.93805(6) 0.40295(6) 0.38675(8)
H1 H 0.9940(12) 0.4242(11) 0.4040(13)
N2 N 0.76097(6) 0.46729(6) 0.42644(8)
H2 H 0.7039(12) 0.4535(11) 0.4252(12)
N3 N 0.49815(6) 0.38127(6) 0.52756(8)
H3 H 0.5323(11) 0.4034(11) 0.4877(13)
N4 N 0.48028(7) 0.29323(7) 0.32265(8)
H4 H 0.4792(11) 0.2461(12) 0.2853(13)
N5 N 0.66802(6) 0.44233(6) 0.58259(7)
N6 N 0.96894(7) 0.14233(7) 0.41439(8)
N7 N 0.47566(8) 0.38689(7) 0.06424(9)
C1 C 1.00869(8) 0.19598(8) 0.50444(9)
C2 C 1.06774(8) 0.15470(8) 0.58213(10)
H5 H 1.07970 0.09320 0.57850
C3 C 1.10931(8) 0.20504(8) 0.66568(10)
H6 H 1.15060 0.17810 0.71970
C4 C 1.09053(8) 0.29471(8) 0.67022(10)
H7 H 1.11940 0.32900 0.72720
C5 C 1.02983(8) 0.33458(8) 0.59191(10)
H8 H 1.01660 0.39570 0.59640
C6 C 0.98839(7) 0.28572(7) 0.50711(9)
C7 C 0.91554(8) 0.32591(7) 0.42832(9)
C8 C 0.87721(7) 0.45034(7) 0.31142(9)
C9 C 0.90288(8) 0.46621(8) 0.21439(10)
H9 H 0.96190 0.45040 0.20290
C10 C 0.84340(9) 0.50482(9) 0.13432(10)
H10 H 0.86200 0.51580 0.06870
C11 C 0.75661(8) 0.52747(8) 0.15021(10)
H11 H 0.71480 0.55140 0.09460
C12 C 0.73136(8) 0.51499(7) 0.24748(9)
H12 H 0.67230 0.53150 0.25860
C13 C 0.79170(7) 0.47846(7) 0.32954(9)
C14 C 0.80620(8) 0.48794(7) 0.52167(9)
C15 C 0.75264(8) 0.47218(7) 0.60915(9)
C16 C 0.79217(9) 0.48814(9) 0.71168(10)
H13 H 0.85310 0.50750 0.72760
C17 C 0.74024(10) 0.47506(10) 0.79003(10)
H14 H 0.76460 0.48690 0.86080
C18 C 0.65262(9) 0.44466(8) 0.76409(9)
H15 H 0.61550 0.43550 0.81630
C19 C 0.62001(8) 0.42773(7) 0.65941(9)
C20 C 0.52770(8) 0.38728(7) 0.63113(9)
C21 C 0.41645(7) 0.34145(7) 0.48166(9)
C22 C 0.34138(8) 0.34170(8) 0.53388(9)
H16 H 0.34480 0.37190 0.59860
C23 C 0.26235(8) 0.29869(8) 0.49291(10)
H17 H 0.21210 0.29940 0.52950
C24 C 0.25659(8) 0.25471(9) 0.39874(11)
H18 H 0.20310 0.22340 0.37150
C25 C 0.32916(8) 0.25649(8) 0.34402(10)
H19 H 0.32430 0.22760 0.27840
C26 C 0.40920(8) 0.30006(7) 0.38389(9)
C27 C 0.53370(7) 0.35832(7) 0.29589(8)
C28 C 0.58863(8) 0.33265(7) 0.21200(9)
C29 C 0.67314(8) 0.29543(8) 0.24508(10)
H20 H 0.69180 0.28420 0.31730
C30 C 0.73090(8) 0.27427(8) 0.17462(11)
H21 H 0.78850 0.24910 0.19890
C31 C 0.70462(9) 0.28976(9) 0.06912(11)
H22 H 0.74410 0.27510 0.02090
C32 C 0.62075(10) 0.32660(9) 0.03384(10)
H23 H 0.60230 0.33730 -0.03850
C33 C 0.56397(8) 0.34771(8) 0.10520(9)
#END
