
#######################################################################
#
#                 Cambridge Crystallographic Data Centre
#                                CCDC
#
#######################################################################
#
# If this CIF has been generated from an entry in the Cambridge
# Structural Database, then it will include bibliographic, chemical,
# crystal, experimental, refinement or atomic coordinate data resulting
# from the CCDC's data processing and validation procedures.
#
#######################################################################

data_CSD_CIF_WEKHOM
_audit_creation_date 2017-08-25
_audit_creation_method CSD-ConQuest-V1
_database_code_CSD WEKHOM
_database_code_depnum_ccdc_archive 'CCDC 1504073'
_chemical_formula_sum 'C32 H23 N3 O5'
_chemical_formula_moiety
;
C32 H23 N3 O5
;
_journal_coden_Cambridge 1336
_journal_volume 19
_journal_year 2017
_journal_page_first 4219
_journal_name_full 'Org.Lett. '
loop_
_publ_author_name
"C.Challa"
"S.Varughese"
"C.H.Suresh"
"R.S.Lankalapalli"
_chemical_name_systematic
;
2-(1-methyl-2-((1-methyl-1H-indol-3-yl)carbonyl)-1H-indol-3-yl)phenyl 
4-nitrobenzoate
;
_cell_volume   2675.524
_exptl_crystal_colour 'colorless'
_exptl_crystal_density_diffrn 1.315
_exptl_crystal_description 'Block'
_diffrn_ambient_temperature 298
#These two values have been output from a single CSD field.
_refine_ls_R_factor_gt 0.0731
_refine_ls_wR_factor_gt 0.0731
_symmetry_cell_setting monoclinic
_symmetry_space_group_name_H-M 'P 21/n'
_symmetry_Int_Tables_number 14
loop_
_symmetry_equiv_pos_site_id
_symmetry_equiv_pos_as_xyz
1 x,y,z
2 1/2-x,1/2+y,1/2-z
3 -x,-y,-z
4 -1/2+x,-1/2-y,-1/2+z
_cell_length_a 9.274(9)
_cell_length_b 20.133(19)
_cell_length_c 14.330(13)
_cell_angle_alpha 90
_cell_angle_beta 90.443(14)
_cell_angle_gamma 90
_cell_formula_units_Z 4
loop_
_atom_type_symbol
_atom_type_radius_bond
C 0.68
H 0.23
N 0.68
O 0.68
loop_
_atom_site_label
_atom_site_type_symbol
_atom_site_fract_x
_atom_site_fract_y
_atom_site_fract_z
O1 O 0.5143(3) 0.32438(14) 0.89327(19)
O2 O 0.8615(3) 0.14629(14) 0.62010(17)
O3 O 0.7014(3) 0.19236(15) 0.5206(2)
O4 O 0.6831(4) -0.1638(2) 0.4630(3)
O5 O 0.5941(6) -0.1219(2) 0.3384(3)
N1 N 0.4620(4) 0.32902(18) 0.5743(2)
N2 N 0.5019(4) 0.17601(17) 0.8657(2)
N3 N 0.6544(5) -0.1164(2) 0.4111(3)
C1 C 0.5039(4) 0.2890(2) 0.6452(3)
H1 H 0.53520 0.24540 0.63840
C2 C 0.4935(4) 0.32231(19) 0.7296(3)
C3 C 0.4410(4) 0.3877(2) 0.7078(3)
C4 C 0.4243(4) 0.3907(2) 0.6110(3)
C5 C 0.4527(5) 0.3104(2) 0.4752(3)
H2 H 0.49920 0.26830 0.46610
H3 H 0.49960 0.34360 0.43820
H4 H 0.35330 0.30710 0.45670
C6 C 0.3755(5) 0.4470(2) 0.5637(3)
H5 H 0.36290 0.44730 0.49920
C7 C 0.3471(5) 0.5023(3) 0.6175(4)
H6 H 0.31880 0.54160 0.58860
C8 C 0.3598(5) 0.5003(2) 0.7130(4)
H7 H 0.33580 0.53790 0.74720
C9 C 0.4077(4) 0.4437(2) 0.7608(3)
H8 H 0.41700 0.44340 0.82540
C10 C 0.5305(4) 0.2945(2) 0.8188(3)
C11 C 0.5842(4) 0.2231(2) 0.8205(2)
C12 C 0.7075(4) 0.19536(19) 0.7836(2)
C13 C 0.5723(4) 0.1158(2) 0.8568(3)
C14 C 0.3550(4) 0.1838(2) 0.8988(3)
H9 H 0.34830 0.16700 0.96130
H10 H 0.29020 0.15960 0.85880
H11 H 0.32940 0.23000 0.89820
C15 C 0.5288(5) 0.0531(2) 0.8880(3)
H12 H 0.44220 0.04740 0.91930
C16 C 0.6185(5) -0.0001(2) 0.8708(3)
H13 H 0.59180 -0.04240 0.88990
C17 C 0.7501(5) 0.0093(2) 0.8247(3)
H14 H 0.81000 -0.02700 0.81460
C18 C 0.7922(4) 0.0714(2) 0.7939(2)
H15 H 0.88080 0.07730 0.76500
C19 C 0.6986(4) 0.1255(2) 0.8071(2)
C20 C 0.8252(4) 0.2325(2) 0.7375(2)
C21 C 0.8700(4) 0.2933(2) 0.7733(3)
H16 H 0.82670 0.31010 0.82660
C22 C 0.9794(5) 0.3296(2) 0.7301(3)
H17 H 1.00590 0.37080 0.75410
C23 C 1.0479(5) 0.3053(3) 0.6531(4)
H18 H 1.12170 0.32930 0.62530
C24 C 1.0056(5) 0.2444(2) 0.6172(3)
H19 H 1.05160 0.22700 0.56510
C25 C 0.8966(4) 0.2099(2) 0.6583(3)
C26 C 0.7641(5) 0.1444(2) 0.5509(3)
C27 C 0.7409(4) 0.0755(2) 0.5145(2)
C28 C 0.8110(4) 0.0206(2) 0.5526(3)
H20 H 0.87770 0.02630 0.60080
C29 C 0.7816(5) -0.0422(2) 0.5191(3)
H21 H 0.82620 -0.07930 0.54530
C30 C 0.6860(5) -0.0491(2) 0.4468(3)
C31 C 0.6170(5) 0.0043(2) 0.4058(3)
H22 H 0.55360 -0.00150 0.35590
C32 C 0.6453(5) 0.0664(2) 0.4417(3)
H23 H 0.59870 0.10310 0.41610
#END
