
#######################################################################
#
#                 Cambridge Crystallographic Data Centre
#                                CCDC
#
#######################################################################
#
# If this CIF has been generated from an entry in the Cambridge
# Structural Database, then it will include bibliographic, chemical,
# crystal, experimental, refinement or atomic coordinate data resulting
# from the CCDC's data processing and validation procedures.
#
#######################################################################

data_CSD_CIF_WELZIZ
_audit_creation_date 2017-12-22
_audit_creation_method CSD-ConQuest-V1
_database_code_CSD WELZIZ
_database_code_depnum_ccdc_archive 'CCDC 1502820'
_chemical_formula_sum 'C20 H18 N2 O6'
_chemical_formula_moiety
;
C20 H18 N2 O6
;
_journal_coden_Cambridge 1366
_journal_volume 359
_journal_year 2017
_journal_page_first 4260
_journal_name_full 'Adv.Synth.Catal. '
loop_
_publ_author_name
"Zhi-Hao You"
"Ying-Han Chen"
"Xiao-Na Wu"
"Yan-Kai Liu"
_chemical_name_systematic
;
4-(nitromethyl)-2-(3-nitrophenyl)-6-phenyl-2,3,3a,7a-tetrahydro-4H-furo[2,3-b]
pyran
;
_cell_volume   1810.651
_exptl_crystal_density_diffrn 1.403
_exptl_crystal_description 'block'
_diffrn_ambient_temperature 100.2
#These two values have been output from a single CSD field.
_refine_ls_R_factor_gt 0.0582
_refine_ls_wR_factor_gt 0.0582
_symmetry_cell_setting orthorhombic
_symmetry_space_group_name_H-M 'P 21 21 21'
_symmetry_Int_Tables_number 19
loop_
_symmetry_equiv_pos_site_id
_symmetry_equiv_pos_as_xyz
1 x,y,z
2 1/2-x,-y,1/2+z
3 1/2+x,1/2-y,-z
4 -x,1/2+y,1/2-z
_cell_length_a 7.5931(9)
_cell_length_b 10.5420(15)
_cell_length_c 22.620(2)
_cell_angle_alpha 90
_cell_angle_beta 90
_cell_angle_gamma 90
_cell_formula_units_Z 4
loop_
_atom_type_symbol
_atom_type_radius_bond
C 0.68
H 0.23
N 0.68
O 0.68
loop_
_atom_site_label
_atom_site_type_symbol
_atom_site_fract_x
_atom_site_fract_y
_atom_site_fract_z
O1 O 0.5919(4) 0.1108(4) -0.25043(13)
C1 C 0.4352(7) 0.2076(4) -0.52399(19)
N1 N -0.0262(6) -0.0806(4) -0.30502(19)
O2 O -0.0433(6) -0.0394(4) -0.35459(16)
C2 C 0.3238(7) 0.0520(4) -0.20387(19)
H1 H 0.25580 0.05110 -0.16860
C3 C 0.5489(6) 0.1785(4) -0.15128(19)
O3 O 0.6010(5) 0.1256(3) -0.35071(13)
C4 C 0.0512(6) 0.0029(5) -0.2587(2)
H2 H 0.00200 -0.01970 -0.21950
H3 H 0.02090 0.09250 -0.26700
O4 O 0.4186(8) -0.0004(4) -0.55652(16)
C5 C 0.5413(6) 0.0497(5) -0.30507(19)
H4 H 0.59650 -0.03620 -0.30770
O5 O 0.4397(8) 0.1438(4) -0.62182(14)
C6 C 0.4773(7) 0.1103(4) -0.20350(19)
N2 N 0.4327(7) 0.1102(5) -0.57083(18)
C7 C 0.2521(6) -0.0130(5) -0.25785(19)
H5 H 0.27930 -0.10560 -0.25470
C8 C 0.4593(8) 0.2619(4) -0.4227(2)
C9 C 0.3452(6) 0.0393(5) -0.31272(19)
H6 H 0.32050 -0.01840 -0.34680
C10 C 0.4524(7) 0.1696(5) -0.46607(18)
H7 H 0.45930 0.08220 -0.45610
O6 O -0.0680(6) -0.1873(4) -0.29098(17)
C11 C 0.4395(8) 0.2416(4) -0.11246(18)
H8 H 0.31640 0.24330 -0.11990
C12 C 0.7961(8) 0.2400(5) -0.0901(2)
H9 H 0.91920 0.23970 -0.08250
C13 C 0.2995(7) 0.1763(5) -0.3312(2)
H10 H 0.20380 0.17740 -0.36090
H11 H 0.26320 0.22750 -0.29660
C14 C 0.7294(7) 0.1789(5) -0.1402(2)
H12 H 0.80740 0.13760 -0.16670
C15 C 0.5044(7) 0.3021(5) -0.0633(2)
H13 H 0.42650 0.34500 -0.03720
C16 C 0.4731(8) 0.2262(5) -0.35767(18)
H14 H 0.51280 0.30200 -0.33460
C17 C 0.4465(8) 0.3886(5) -0.4386(2)
H15 H 0.45060 0.45230 -0.40890
C18 C 0.6828(9) 0.3005(5) -0.0518(2)
H16 H 0.72760 0.34110 -0.01740
C19 C 0.4216(8) 0.3322(5) -0.5413(2)
H17 H 0.40850 0.35470 -0.58170
C20 C 0.4278(9) 0.4234(5) -0.4974(3)
H18 H 0.41920 0.51060 -0.50760
#END
