
#######################################################################
#
#                 Cambridge Crystallographic Data Centre
#                                CCDC
#
#######################################################################
#
# If this CIF has been generated from an entry in the Cambridge
# Structural Database, then it will include bibliographic, chemical,
# crystal, experimental, refinement or atomic coordinate data resulting
# from the CCDC's data processing and validation procedures.
#
#######################################################################

data_CSD_CIF_WENWIW
_audit_creation_date 2006-11-14
_audit_creation_method CSD-ConQuest-V1
_database_code_CSD WENWIW
_database_code_depnum_ccdc_archive 'CCDC 624708'
_chemical_formula_sum 'C30 H25 N5 O6'
_chemical_formula_moiety
;
C30 H25 N5 O6
;
_journal_coeditor_code "IUCr HB2149"
_journal_coden_Cambridge 1370
_journal_volume 62
_journal_year 2006
_journal_page_first o4640
_journal_name_full 'Acta Crystallogr.,Sect.E:Struct.Rep.Online '
loop_
_publ_author_name
"Xiao-Chen Yan"
"Zhi-Tao Xing"
"Zhi-Qian Liu"
"Hai-Bo Wang"
_chemical_name_systematic
;
1-Acetyl-3,3-bis(3-(3-methoxyphenyl)-1,2,4-oxadiazol-5-ylmethyl)indolin-2-one
;
_cell_volume   1349.308
_exptl_crystal_colour 'colorless'
_exptl_crystal_density_diffrn 1.358
_exptl_crystal_description 'Block'
_exptl_crystal_preparation 'ethanol'
_diffrn_ambient_temperature 293
#These two values have been output from a single CSD field.
_refine_ls_R_factor_gt 0.0896
_refine_ls_wR_factor_gt 0.0896
_symmetry_cell_setting triclinic
_symmetry_space_group_name_H-M 'P -1'
_symmetry_Int_Tables_number 2
loop_
_symmetry_equiv_pos_site_id
_symmetry_equiv_pos_as_xyz
1 x,y,z
2 -x,-y,-z
_cell_length_a 8.6300(17)
_cell_length_b 11.866(2)
_cell_length_c 14.616(3)
_cell_angle_alpha 108.95(3)
_cell_angle_beta 99.02(3)
_cell_angle_gamma 101.17(3)
_cell_formula_units_Z 2
loop_
_atom_type_symbol
_atom_type_radius_bond
C 0.68
H 0.23
N 0.68
O 0.68
loop_
_atom_site_label
_atom_site_type_symbol
_atom_site_fract_x
_atom_site_fract_y
_atom_site_fract_z
O1 O 0.0119(5) -0.3145(4) 0.4303(3)
O2 O 0.5030(6) 0.2212(3) 0.4452(3)
O3 O 0.5615(5) 0.3922(3) 0.3182(3)
O4 O 0.0780(6) 0.3887(4) 0.2863(3)
O5 O 0.1912(5) 0.6866(3) 0.0801(3)
O6 O 0.4701(4) 0.1580(3) -0.0386(3)
N1 N 0.4181(7) 0.1898(4) 0.5122(4)
N2 N 0.3857(5) 0.0245(3) 0.3744(3)
N3 N 0.2838(4) 0.3007(3) 0.2621(3)
N4 N 0.4138(4) 0.3121(3) 0.0691(3)
N5 N 0.3938(5) 0.2181(3) -0.0952(3)
C1 C -0.1049(9) -0.3885(6) 0.4599(5)
H1 H -0.13940 -0.47110 0.41140
H2 H -0.19690 -0.35460 0.46520
H3 H -0.05730 -0.38990 0.52340
C2 C 0.0754(6) -0.1935(5) 0.4913(4)
C3 C 0.0434(7) -0.1397(6) 0.5813(4)
H4 H -0.02700 -0.18580 0.60590
C4 C 0.1167(8) -0.0159(6) 0.6361(4)
H5 H 0.09700 0.02060 0.69830
C5 C 0.2167(8) 0.0527(5) 0.6000(4)
H6 H 0.26410 0.13590 0.63750
C6 C 0.2492(6) 0.0003(5) 0.5080(4)
C7 C 0.1776(6) -0.1243(5) 0.4542(4)
H7 H 0.19860 -0.16160 0.39250
C8 C 0.3520(6) 0.0715(4) 0.4654(4)
C9 C 0.4787(6) 0.1180(4) 0.3653(4)
C10 C 0.5549(6) 0.1261(4) 0.2837(4)
H8 H 0.56440 0.04490 0.24580
H9 H 0.66390 0.18050 0.31190
C11 C 0.4613(5) 0.1738(4) 0.2131(4)
C12 C 0.4458(5) 0.3035(4) 0.2697(4)
C13 C 0.3420(9) 0.5227(5) 0.3626(5)
H10 H 0.28650 0.58540 0.38540
H11 H 0.41180 0.54550 0.32290
H12 H 0.40590 0.51430 0.41880
C14 C 0.2214(7) 0.4039(5) 0.3019(4)
C15 C 0.1858(5) 0.1788(4) 0.2014(3)
C16 C 0.0177(5) 0.1356(4) 0.1765(3)
H13 H -0.04890 0.18750 0.19570
C17 C -0.0438(6) 0.0129(5) 0.1224(4)
H14 H -0.15620 -0.01830 0.10310
C18 C 0.0478(6) -0.0657(4) 0.0951(4)
H15 H -0.00100 -0.14950 0.06120
C19 C 0.2209(6) -0.0203(4) 0.1184(4)
H16 H 0.28620 -0.07260 0.09730
C20 C 0.2869(5) 0.1024(3) 0.1727(3)
C21 C 0.5557(6) 0.1789(4) 0.1333(4)
H17 H 0.66290 0.23480 0.16580
H18 H 0.57000 0.09750 0.10090
C22 C 0.4775(5) 0.2193(4) 0.0562(4)
C23 C 0.3641(5) 0.3073(4) -0.0261(4)
C24 C 0.2851(5) 0.3973(4) -0.0497(3)
C25 C 0.2764(5) 0.4968(4) 0.0293(3)
H19 H 0.31720 0.50510 0.09460
C26 C 0.2048(5) 0.5848(4) 0.0086(4)
C27 C 0.1433(6) 0.5705(5) -0.0869(4)
H20 H 0.09430 0.62900 -0.09930
C28 C 0.1514(7) 0.4725(6) -0.1651(4)
H21 H 0.10870 0.46450 -0.23000
C29 C 0.2246(7) 0.3841(5) -0.1467(4)
H22 H 0.23240 0.31730 -0.19930
C30 C 0.2563(8) 0.7079(5) 0.1802(4)
H23 H 0.23740 0.78270 0.22200
H24 H 0.37110 0.71560 0.19070
H25 H 0.20490 0.64000 0.19650
#END
