
#######################################################################
#
#                 Cambridge Crystallographic Data Centre
#                                CCDC
#
#######################################################################
#
# If this CIF has been generated from an entry in the Cambridge
# Structural Database, then it will include bibliographic, chemical,
# crystal, experimental, refinement or atomic coordinate data resulting
# from the CCDC's data processing and validation procedures.
#
#######################################################################

data_CSD_CIF_WEPCEC
_audit_creation_date 2017-12-28
_audit_creation_method CSD-ConQuest-V1
_database_code_CSD WEPCEC
_database_code_depnum_ccdc_archive 'CCDC 1581117'
_chemical_formula_sum 'C35 H29 N3 O7'
_chemical_formula_moiety
;
C35 H29 N3 O7
;
_journal_coden_Cambridge 1336
_journal_volume 20
_journal_year 2017
_journal_page_first 317
_journal_name_full 'Org.Lett. '
loop_
_publ_author_name
"X.del Corte"
"A.Maestro"
"J.Vicario"
"E.M.de Marigorta"
"F.Palacios"
_chemical_name_systematic
;
methyl 
1,6-bis(4-methoxyphenyl)-4-(4-nitrophenyl)-7-oxo-5-phenyl-4,5,6,7-tetrahydro-1
H-pyrrolo[3,4-b]pyridine-2-carboxylate
;
_cell_volume   2964.589
_exptl_crystal_colour 'colorless'
_exptl_crystal_density_diffrn 1.352
_exptl_special_details
;
Absolute configuration

;
_exptl_crystal_description 'plate'
_diffrn_ambient_temperature 150
#These two values have been output from a single CSD field.
_refine_ls_R_factor_gt 0.0293
_refine_ls_wR_factor_gt 0.0293
_symmetry_cell_setting orthorhombic
_symmetry_space_group_name_H-M 'P 21 21 21'
_symmetry_Int_Tables_number 19
loop_
_symmetry_equiv_pos_site_id
_symmetry_equiv_pos_as_xyz
1 x,y,z
2 1/2-x,-y,1/2+z
3 -x,1/2+y,1/2-z
4 1/2+x,1/2-y,-z
_cell_length_a 9.95257(11)
_cell_length_b 14.32668(15)
_cell_length_c 20.7914(3)
_cell_angle_alpha 90
_cell_angle_beta 90
_cell_angle_gamma 90
_cell_formula_units_Z 4
loop_
_atom_type_symbol
_atom_type_radius_bond
C 0.68
H 0.23
N 0.68
O 0.68
loop_
_atom_site_label
_atom_site_type_symbol
_atom_site_fract_x
_atom_site_fract_y
_atom_site_fract_z
O1 O 0.49173(16) 0.00735(12) 0.28162(8)
O2 O 0.31437(15) 0.10193(11) 0.26933(7)
O3 O -0.05527(16) -0.19052(12) 0.17962(8)
O4 O 0.15312(13) 0.14518(10) 0.02959(7)
O5 O 0.17154(16) 0.26163(11) -0.27296(7)
O6 O 0.9218(2) -0.26878(15) -0.01514(14)
O7 O 1.0719(2) -0.16467(15) -0.03481(10)
N1 N 0.33352(16) 0.08547(11) 0.13741(8)
N2 N 0.35125(16) 0.15435(11) -0.02971(8)
N3 N 0.9630(2) -0.18848(15) -0.01280(11)
C1 C 0.44614(19) 0.06976(13) 0.17802(9)
C2 C 0.37212(19) 0.10626(12) 0.07410(9)
C3 C 0.27511(19) 0.13596(12) 0.02407(9)
C4 C 0.49622(18) 0.14403(12) -0.01712(9)
H1 H 0.54033 0.20661 -0.01986
C5 C 0.49755(18) 0.11133(12) 0.05163(9)
C6 C 0.62095(18) 0.09535(13) 0.09180(9)
H2 H 0.67307 0.15500 0.09294
C7 C 0.57413(19) 0.07451(13) 0.15939(9)
H3 H 0.64113 0.06397 0.19111
C8 C 0.4207(2) 0.05439(14) 0.24824(10)
C9 C 0.2789(3) 0.0865(2) 0.33618(12)
H4 H 0.35962 0.09142 0.36294
H5 H 0.23982 0.02407 0.34098
H6 H 0.21324 0.13350 0.34976
C10 C 0.22530(19) 0.01759(13) 0.14452(9)
C11 C 0.1117(2) 0.03916(14) 0.17975(10)
H7 H 0.09958 0.10081 0.19554
C12 C 0.0150(2) -0.02841(16) 0.19233(10)
H8 H -0.06224 -0.01329 0.21709
C13 C 0.0319(2) -0.11793(15) 0.16851(10)
C14 C 0.1429(2) -0.13925(14) 0.13063(10)
H9 H 0.15269 -0.19996 0.11286
C15 C 0.2389(2) -0.07139(15) 0.11898(10)
H10 H 0.31498 -0.08592 0.09323
C16 C -0.1616(3) -0.1732(2) 0.22413(14)
H11 H -0.12428 -0.14757 0.26403
H12 H -0.20857 -0.23172 0.23347
H13 H -0.22482 -0.12830 0.20544
C17 C 0.30221(19) 0.18124(13) -0.09108(9)
C18 C 0.1736(2) 0.15642(14) -0.11086(10)
H14 H 0.11724 0.12159 -0.08284
C19 C 0.1267(2) 0.18225(14) -0.17146(10)
H15 H 0.03828 0.16567 -0.18438
C20 C 0.2087(2) 0.23202(14) -0.21281(10)
C21 C 0.3373(2) 0.25645(14) -0.19355(10)
H16 H 0.39393 0.29021 -0.22204
C22 C 0.3839(2) 0.23194(14) -0.13291(10)
H17 H 0.47176 0.24975 -0.11988
C23 C 0.0474(2) 0.22679(17) -0.29745(11)
H18 H -0.02652 0.24809 -0.26999
H19 H 0.04963 0.15841 -0.29787
H20 H 0.03381 0.24995 -0.34133
C24 C 0.5643(2) 0.07772(15) -0.06362(9)
C25 C 0.5116(2) -0.01009(16) -0.07554(12)
H21 H 0.42928 -0.02852 -0.05619
C26 C 0.5800(3) -0.0712(2) -0.11604(14)
H22 H 0.54405 -0.13136 -0.12448
C27 C 0.7001(3) -0.0444(2) -0.14403(13)
H23 H 0.74660 -0.08646 -0.17148
C28 C 0.7523(3) 0.0422(2) -0.13238(13)
H24 H 0.83491 0.06027 -0.15156
C29 C 0.6841(2) 0.10354(19) -0.09248(11)
H25 H 0.71996 0.16398 -0.08483
C30 C 0.71395(19) 0.01889(13) 0.06671(9)
C31 C 0.8435(2) 0.04065(14) 0.04663(11)
H26 H 0.87509 0.10298 0.05038
C32 C 0.9268(2) -0.02706(15) 0.02131(11)
H27 H 1.01500 -0.01214 0.00721
C33 C 0.8782(2) -0.11699(15) 0.01707(10)
C34 C 0.7522(2) -0.14184(15) 0.03824(12)
H28 H 0.72241 -0.20472 0.03571
C35 C 0.6700(2) -0.07289(15) 0.06332(12)
H29 H 0.58271 -0.08857 0.07835
#END
