
#######################################################################
#
#                 Cambridge Crystallographic Data Centre
#                                CCDC
#
#######################################################################
#
# If this CIF has been generated from an entry in the Cambridge
# Structural Database, then it will include bibliographic, chemical,
# crystal, experimental, refinement or atomic coordinate data resulting
# from the CCDC's data processing and validation procedures.
#
#######################################################################

data_CSD_CIF_WEPLUB
_audit_creation_date 2017-12-29
_audit_creation_method CSD-ConQuest-V1
_database_code_CSD WEPLUB
_database_code_depnum_ccdc_archive 'CCDC 1586135'
_chemical_formula_sum 'C14 H17 N3 O4'
_chemical_formula_moiety
;
C14 H17 N3 O4
;
_journal_coden_Cambridge 1336
_journal_volume 20
_journal_year 2017
_journal_page_first 345
_journal_name_full 'Org.Lett. '
loop_
_publ_author_name
"A.Whyte"
"M.E.Olson"
"M.Lautens"
_chemical_name_systematic
;
1-methyl-8-(morpholin-4-yl)-6-nitro-3,4-dihydroquinolin-2(1H)-one
;
_chemical_melting_point 466
_cell_volume   1339.301
_exptl_crystal_colour 'orange'
_exptl_crystal_density_diffrn 1.445
_exptl_special_details
;
Melting point range 466-467K

;
_exptl_crystal_description 'needle'
_exptl_crystal_preparation 'chloroform'
_diffrn_ambient_temperature 150
#These two values have been output from a single CSD field.
_refine_ls_R_factor_gt 0.0546
_refine_ls_wR_factor_gt 0.0546
_symmetry_cell_setting monoclinic
_symmetry_space_group_name_H-M 'P 21/c'
_symmetry_Int_Tables_number 14
loop_
_symmetry_equiv_pos_site_id
_symmetry_equiv_pos_as_xyz
1 x,y,z
2 -x,1/2+y,1/2-z
3 -x,-y,-z
4 x,-1/2-y,-1/2+z
_cell_length_a 9.800(2)
_cell_length_b 17.619(4)
_cell_length_c 8.006(2)
_cell_angle_alpha 90
_cell_angle_beta 104.339(10)
_cell_angle_gamma 90
_cell_formula_units_Z 4
loop_
_atom_type_symbol
_atom_type_radius_bond
C 0.68
H 0.23
N 0.68
O 0.68
loop_
_atom_site_label
_atom_site_type_symbol
_atom_site_fract_x
_atom_site_fract_y
_atom_site_fract_z
O1 O 0.61913(17) 0.52533(8) -0.0791(2)
O2 O 0.59375(18) 0.27507(8) 0.5678(2)
O3 O 0.9559(2) 0.69433(9) 0.8843(2)
O4 O 0.94637(18) 0.58320(9) 0.9953(2)
N1 N 0.71563(19) 0.50540(9) 0.2054(2)
N2 N 0.73112(18) 0.41076(9) 0.5067(2)
N3 N 0.9279(2) 0.62589(10) 0.8702(3)
C1 C 0.6497(2) 0.55048(13) 0.0675(3)
C2 C 0.6217(3) 0.63075(12) 0.1120(3)
H1 H 0.53997 0.63212 0.16395
H2 H 0.59889 0.66205 0.00597
C3 C 0.7506(3) 0.66275(12) 0.2382(3)
H3 H 0.83064 0.66482 0.18338
H4 H 0.73090 0.71496 0.27148
C4 C 0.7876(2) 0.61286(11) 0.3956(3)
C5 C 0.8446(2) 0.64292(12) 0.5567(3)
H5 H 0.86567 0.69553 0.57022
C6 C 0.8707(2) 0.59518(12) 0.6985(3)
C7 C 0.8371(2) 0.51893(11) 0.6835(3)
H6 H 0.85461 0.48783 0.78352
C8 C 0.7777(2) 0.48754(11) 0.5226(3)
C9 C 0.7605(2) 0.53454(11) 0.3754(3)
C10 C 0.7559(3) 0.42917(11) 0.1612(3)
H7 H 0.78845 0.43163 0.05499
H8 H 0.67437 0.39525 0.14388
H9 H 0.83189 0.40973 0.25520
C11 C 0.7914(3) 0.36142(11) 0.6542(3)
H10 H 0.75949 0.37816 0.75639
H11 H 0.89547 0.36412 0.68249
C12 C 0.7433(3) 0.28093(12) 0.6073(3)
H12 H 0.77710 0.26442 0.50636
H13 H 0.78490 0.24679 0.70479
C13 C 0.5767(2) 0.40462(12) 0.4598(3)
H14 H 0.53730 0.43578 0.35617
H15 H 0.53880 0.42404 0.55525
C14 C 0.5336(3) 0.32266(12) 0.4237(3)
H16 H 0.42962 0.31880 0.39696
H17 H 0.56448 0.30490 0.32164
#END
