
#######################################################################
#
#                 Cambridge Crystallographic Data Centre
#                                CCDC
#
#######################################################################
#
# If this CIF has been generated from an entry in the Cambridge
# Structural Database, then it will include bibliographic, chemical,
# crystal, experimental, refinement or atomic coordinate data resulting
# from the CCDC's data processing and validation procedures.
#
#######################################################################

data_CSD_CIF_WEPWOE
_audit_creation_date 2006-11-14
_audit_creation_method CSD-ConQuest-V1
_database_code_CSD WEPWOE
_database_code_depnum_ccdc_archive 'CCDC 625703'
_chemical_formula_sum 'C18 H25 N1 O4'
_chemical_formula_moiety
;
C18 H25 N1 O4
;
_journal_coeditor_code "IUCr SK3048"
_journal_coden_Cambridge 591
_journal_volume 62
_journal_year 2006
_journal_page_first o628
_journal_name_full 'Acta Crystallogr.,Sect.C:Cryst.Struct.Commun. '
loop_
_publ_author_name
"J.Brown"
"D.M.Pawar"
"F.R.Fronczek"
"E.A.Noe"
_chemical_name_systematic
;
Cyclodecyl 4-nitrophenylacetate
;
_chemical_melting_point 330
_cell_volume    837.111
_exptl_crystal_colour 'colorless'
_exptl_crystal_density_diffrn 1.267
_exptl_crystal_description 'plate'
_exptl_crystal_preparation 'ethyl acetate'
_diffrn_ambient_temperature 115
#These two values have been output from a single CSD field.
_refine_ls_R_factor_gt 0.038
_refine_ls_wR_factor_gt 0.038
_symmetry_cell_setting monoclinic
_symmetry_space_group_name_H-M 'P 21'
_symmetry_Int_Tables_number 4
loop_
_symmetry_equiv_pos_site_id
_symmetry_equiv_pos_as_xyz
1 x,y,z
2 -x,1/2+y,-z
_cell_length_a 7.5050(15)
_cell_length_b 5.8492(10)
_cell_length_c 19.381(4)
_cell_angle_alpha 90
_cell_angle_beta 100.289(10)
_cell_angle_gamma 90
_cell_formula_units_Z 2
loop_
_atom_type_symbol
_atom_type_radius_bond
C 0.68
H 0.23
N 0.68
O 0.68
loop_
_atom_site_label
_atom_site_type_symbol
_atom_site_fract_x
_atom_site_fract_y
_atom_site_fract_z
O1 O 0.14233(19) 0.2770(3) 0.28109(7)
O2 O -0.02396(17) 0.5877(3) 0.29753(7)
O3 O 0.97463(18) 0.9203(3) 0.44547(8)
O4 O 0.8258(2) 1.1657(3) 0.37363(10)
N1 N 0.8345(2) 0.9897(3) 0.40891(9)
C1 C 0.0996(2) 0.4253(4) 0.3183(1)
C2 C 0.1853(2) 0.4578(4) 0.39462(9)
H1 H 0.21590 0.30680 0.41670
H2 H 0.09800 0.53380 0.41980
C3 C 0.3559(2) 0.6022(4) 0.40061(9)
C4 C 0.5205(2) 0.5201(4) 0.43639(9)
H3 H 0.52510 0.37510 0.45870
C5 C 0.6780(3) 0.6464(4) 0.43999(10)
H4 H 0.79020 0.59050 0.46470
C6 C 0.6674(3) 0.8558(4) 0.40665(10)
C7 C 0.5057(2) 0.9450(4) 0.37098(10)
H5 H 0.50220 1.09000 0.34870
C8 C 0.3493(3) 0.8171(4) 0.36871(10)
H6 H 0.23660 0.87590 0.34530
C9 C -0.1133(2) 0.5852(4) 0.22357(9)
H7 H -0.12140 0.42390 0.20620
C10 C -0.3037(3) 0.6770(4) 0.22249(10)
H8 H -0.34810 0.74570 0.17590
H9 H -0.29730 0.80040 0.25780
C11 C -0.4416(3) 0.4988(4) 0.23727(11)
H10 H -0.40740 0.45040 0.28680
H11 H -0.56130 0.57440 0.23230
C12 C -0.4634(3) 0.2840(5) 0.19159(12)
H12 H -0.54180 0.17610 0.21180
H13 H -0.34280 0.21140 0.19570
C13 C -0.5416(3) 0.3094(5) 0.11330(12)
H14 H -0.66270 0.38080 0.10930
H15 H -0.56030 0.15390 0.09320
C14 C -0.4340(3) 0.4472(5) 0.06687(10)
H16 H -0.50050 0.44220 0.01790
H17 H -0.42960 0.60880 0.08220
C15 C -0.2396(3) 0.3648(4) 0.06767(11)
H18 H -0.19450 0.29270 0.11370
H19 H -0.24260 0.24490 0.03140
C16 C -0.1040(3) 0.5483(5) 0.05495(11)
H20 H 0.01560 0.47380 0.05810
H21 H -0.14050 0.60320 0.00620
C17 C -0.0790(3) 0.7576(4) 0.10288(11)
H22 H -0.19880 0.83160 0.09990
H23 H -0.00020 0.86690 0.08340
C18 C 0.0009(3) 0.7244(4) 0.18113(11)
H24 H 0.12020 0.64890 0.18470
H25 H 0.02210 0.87720 0.20300
#END
