
#######################################################################
#
#                 Cambridge Crystallographic Data Centre
#                                CCDC
#
#######################################################################
#
# If this CIF has been generated from an entry in the Cambridge
# Structural Database, then it will include bibliographic, chemical,
# crystal, experimental, refinement or atomic coordinate data resulting
# from the CCDC's data processing and validation procedures.
#
#######################################################################

data_CSD_CIF_WERPUE
_audit_creation_date 1994-12-05
_audit_creation_method CSD-ConQuest-V1
_database_code_CSD WERPUE
_chemical_formula_sum 'C13 H13 N3 O3'
_chemical_formula_moiety
;
C13 H13 N3 O3
;
_journal_coeditor_code "IUCr NA1069"
_journal_coden_Cambridge 591
_journal_volume 50
_journal_year 1994
_journal_page_first 921
_journal_name_full 'Acta Crystallogr.,Sect.C:Cryst.Struct.Commun. '
loop_
_publ_author_name
"T.A.Olszak"
"O.M.Peeters"
"N.M.Blaton"
"C.J.De Ranter"
_chemical_name_systematic
;
2-(5-Nitro-2-styryl-1-imidazolyl)ethanol
;
_cell_volume   1252.833
_exptl_crystal_colour 'light yellow'
_diffrn_ambient_temperature ?
_diffrn_special_details
;
The study was carried out at room temperature,in the range 283-303K

;
#These two values have been output from a single CSD field.
_refine_ls_R_factor_gt 0.0361
_refine_ls_wR_factor_gt 0.0361
_symmetry_cell_setting monoclinic
_symmetry_space_group_name_H-M 'P 21/c'
_symmetry_Int_Tables_number 14
loop_
_symmetry_equiv_pos_site_id
_symmetry_equiv_pos_as_xyz
1 x,y,z
2 -x,1/2+y,1/2-z
3 -x,-y,-z
4 x,-1/2-y,-1/2+z
_cell_length_a 7.088(1)
_cell_length_b 7.116(1)
_cell_length_c 24.935(3)
_cell_angle_alpha 90
_cell_angle_beta 95.03(1)
_cell_angle_gamma 90
_cell_formula_units_Z 4
loop_
_atom_type_symbol
_atom_type_radius_bond
C 0.68
H 0.23
N 0.68
O 0.68
loop_
_atom_site_label
_atom_site_type_symbol
_atom_site_fract_x
_atom_site_fract_y
_atom_site_fract_z
N1 N 0.4152(2) 0.1911(2) 0.0450(1)
C1 C 0.2481(2) 0.1100(2) 0.0676(1)
C2 C 0.1434(2) 0.2555(3) 0.0977(1)
O1 O 0.0892(2) 0.4119(2) 0.0656(1)
C3 C 0.5749(2) 0.2478(2) 0.0748(1)
C4 C 0.6021(2) 0.2243(2) 0.1328(1)
C5 C 0.7256(2) 0.3236(2) 0.1644(1)
C6 C 0.7616(2) 0.3009(2) 0.2229(1)
C7 C 0.9276(3) 0.3713(2) 0.2490(1)
C8 C 0.9714(3) 0.3451(3) 0.3036(1)
C9 C 0.8482(3) 0.2507(3) 0.3334(1)
C10 C 0.6807(3) 0.1840(3) 0.3089(1)
C11 C 0.6366(3) 0.2078(3) 0.2541(1)
N2 N 0.7010(2) 0.3226(2) 0.0438(1)
C12 C 0.6206(2) 0.3132(2) -0.0072(1)
C13 C 0.4451(2) 0.2342(2) -0.0075(1)
N3 N 0.3158(2) 0.2043(2) -0.0534(1)
O2 O 0.1575(2) 0.1436(3) -0.0486(1)
O3 O 0.3727(2) 0.2415(2) -0.0972(1)
H1 H 0.168(3) 0.063(3) 0.0389(7)
H2 H 0.290(3) 0.011(3) 0.0915(8)
H3 H 0.227(3) 0.296(3) 0.1280(8)
H4 H 0.027(3) 0.191(3) 0.1089(8)
H5 H -0.031(4) 0.405(3) 0.0586(9)
H6 H 0.529(3) 0.129(3) 0.1478(8)
H7 H 0.804(3) 0.416(2) 0.1482(7)
H8 H 1.009(3) 0.434(3) 0.2292(8)
H9 H 1.088(4) 0.394(3) 0.321(1)
H10 H 0.885(3) 0.231(3) 0.3718(9)
H11 H 0.595(4) 0.116(3) 0.330(1)
H12 H 0.522(4) 0.167(3) 0.237(1)
H13 H 0.678(2) 0.366(2) -0.0369(7)
#END
