
#######################################################################
#
#                 Cambridge Crystallographic Data Centre
#                                CCDC
#
#######################################################################
#
# If this CIF has been generated from an entry in the Cambridge
# Structural Database, then it will include bibliographic, chemical,
# crystal, experimental, refinement or atomic coordinate data resulting
# from the CCDC's data processing and validation procedures.
#
#######################################################################

data_CSD_CIF_WERVEU01
_audit_creation_date 2016-04-04
_audit_creation_method CSD-ConQuest-V1
_database_code_CSD WERVEU01
_database_code_depnum_ccdc_archive 'CCDC 1444950'
_chemical_formula_sum 'C6 H6 N4 O4'
_chemical_formula_moiety
;
C6 H6 N4 O4
;
_journal_coeditor_code "xk5025"
_journal_coden_Cambridge 1743
_journal_volume 72
_journal_year 2016
_journal_page_first 263
_journal_name_full 'Acta Crystallogr.,Sect.B:Struct.Sci.,Cryst.Eng. and Mat. '
loop_
_publ_author_name
"D.Pogoda"
"J.Janczak"
"V.Videnova-Adrabinska"
_chemical_name_systematic
;
2-((5-nitro-2-furyl)methylene)hydrazinecarboxamide
;
_chemical_name_common
;
5-nitrofurazone; nitrofurazon; furacin; nitrofural; DrugBank: DB00336
;
_cell_volume    425.275
_exptl_crystal_colour 'yellow'
_exptl_crystal_density_diffrn 1.547
_exptl_special_details
;
beta polymorph

;
_exptl_crystal_description 'parallelepiped'
_diffrn_ambient_temperature 295
#These two values have been output from a single CSD field.
_refine_ls_R_factor_gt 0.032
_refine_ls_wR_factor_gt 0.032
_symmetry_cell_setting monoclinic
_symmetry_space_group_name_H-M 'P 21'
_symmetry_Int_Tables_number 4
loop_
_symmetry_equiv_pos_site_id
_symmetry_equiv_pos_as_xyz
1 x,y,z
2 -x,1/2+y,-z
_cell_length_a 4.1964(3)
_cell_length_b 7.0129(5)
_cell_length_c 14.4528(10)
_cell_angle_alpha 90
_cell_angle_beta 90.924(7)
_cell_angle_gamma 90
_cell_formula_units_Z 2
loop_
_atom_type_symbol
_atom_type_radius_bond
C 0.68
H 0.23
N 0.68
O 0.68
loop_
_atom_site_label
_atom_site_type_symbol
_atom_site_fract_x
_atom_site_fract_y
_atom_site_fract_z
O1 O 0.4383(3) 0.3386(2) 0.22542(8)
C1 C 0.6066(5) 0.3173(4) 0.14708(13)
C2 C 0.5733(5) 0.1441(4) 0.10957(14)
H1 H 0.66710 0.09920 0.05590
C3 C 0.3674(5) 0.0438(4) 0.16786(14)
H2 H 0.29760 -0.08120 0.16050
C4 C 0.2904(4) 0.1661(3) 0.23720(12)
N1 N 0.7921(5) 0.4765(3) 0.12053(13)
O2 O 0.9453(4) 0.4585(3) 0.04943(11)
O3 O 0.7958(5) 0.6193(3) 0.16871(13)
C5 C 0.0920(4) 0.1536(3) 0.31757(12)
H3 H 0.05620 0.25990 0.35440
N2 N -0.0334(3) -0.0075(2) 0.33688(10)
N3 N -0.2195(4) -0.0118(2) 0.41303(11)
H4 H -0.276(5) 0.095(3) 0.4419(14)
C6 C -0.3527(5) -0.1777(3) 0.44125(12)
O4 O -0.5107(4) -0.17866(19) 0.51261(9)
N4 N -0.3018(6) -0.3317(3) 0.39040(16)
H5 H -0.207(6) -0.327(4) 0.3380(17)
H6 H -0.387(6) -0.439(4) 0.4090(17)
#END
