
#######################################################################
#
#                 Cambridge Crystallographic Data Centre
#                                CCDC
#
#######################################################################
#
# If this CIF has been generated from an entry in the Cambridge
# Structural Database, then it will include bibliographic, chemical,
# crystal, experimental, refinement or atomic coordinate data resulting
# from the CCDC's data processing and validation procedures.
#
#######################################################################

data_CSD_CIF_WETGEJ
_audit_creation_date 2013-04-24
_audit_creation_method CSD-ConQuest-V1
_database_code_CSD WETGEJ
_database_code_depnum_ccdc_archive 'CCDC 906539'
_chemical_formula_sum 'C4 H3 N5 O3'
_chemical_formula_moiety
;
C4 H3 N5 O3
;
_journal_coden_Cambridge 1699
_journal_volume 1
_journal_year 2013
_journal_page_first 2863
_journal_name_full 'J.Mater.Chem.A '
loop_
_publ_author_name
"Chunlin He"
"Jiaheng Zhang"
"D.A.Parrish"
"J.M.Shreeve"
_chemical_name_systematic
;
4-Diazonio-2-methyl-5-nitro-3-oxo-2,3-dihydropyrazol-1-ide
;
_cell_volume    668.044
_exptl_crystal_colour 'yellow'
_exptl_crystal_density_diffrn 1.681
_exptl_crystal_description 'plate'
_diffrn_ambient_temperature 293
#These two values have been output from a single CSD field.
_refine_ls_R_factor_gt 0.0422
_refine_ls_wR_factor_gt 0.0422
_symmetry_cell_setting monoclinic
_symmetry_space_group_name_H-M 'P 21/n'
_symmetry_Int_Tables_number 14
loop_
_symmetry_equiv_pos_site_id
_symmetry_equiv_pos_as_xyz
1 x,y,z
2 1/2-x,1/2+y,1/2-z
3 -x,-y,-z
4 -1/2+x,-1/2-y,-1/2+z
_cell_length_a 8.7709(12)
_cell_length_b 5.7826(8)
_cell_length_c 13.3180(18)
_cell_angle_alpha 90
_cell_angle_beta 98.504(6)
_cell_angle_gamma 90
_cell_formula_units_Z 4
loop_
_atom_type_symbol
_atom_type_radius_bond
C 0.68
H 0.23
N 0.68
O 0.68
loop_
_atom_site_label
_atom_site_type_symbol
_atom_site_fract_x
_atom_site_fract_y
_atom_site_fract_z
N1 N 0.01297(18) 0.5744(3) 0.34324(14)
N2 N 0.1495(2) 0.6662(3) 0.32542(14)
C1 C 0.2547(2) 0.5218(4) 0.36492(16)
C2 C 0.1913(2) 0.3308(4) 0.40958(17)
C3 C 0.0262(3) 0.3652(4) 0.39453(17)
C4 C -0.1309(2) 0.6922(4) 0.3074(2)
H1 H -0.12270 0.85170 0.32740
H2 H -0.21310 0.62060 0.33630
H3 H -0.15220 0.68220 0.23470
N3 N 0.4145(2) 0.5632(4) 0.36142(15)
O1 O 0.45358(19) 0.7421(3) 0.32389(14)
O2 O 0.50362(17) 0.4123(3) 0.39812(13)
N4 N 0.2632(2) 0.1533(3) 0.45830(15)
N5 N 0.3195(2) 0.0020(4) 0.50070(19)
O3 O -0.07960(19) 0.2522(3) 0.41913(13)
#END
