
#######################################################################
#
#                 Cambridge Crystallographic Data Centre
#                                CCDC
#
#######################################################################
#
# If this CIF has been generated from an entry in the Cambridge
# Structural Database, then it will include bibliographic, chemical,
# crystal, experimental, refinement or atomic coordinate data resulting
# from the CCDC's data processing and validation procedures.
#
#######################################################################

data_CSD_CIF_WEVCIK
_audit_creation_date 2007-02-26
_audit_creation_method CSD-ConQuest-V1
_database_code_CSD WEVCIK
_database_code_depnum_ccdc_archive 'CCDC 619424'
_chemical_formula_sum 'C18 H23 N1 O4'
_chemical_formula_moiety
;
C18 H23 N1 O4
;
_journal_coden_Cambridge 24
_journal_volume 47
_journal_year 2006
_journal_page_first 8821
_journal_name_full 'Tetrahedron Lett. '
loop_
_publ_author_name
"B.G.Roy"
"J.K.Maity"
"M.G.B.Drew"
"B.Achari"
"S.B.Mandal"
_chemical_name_systematic
;
1-Benzyl-6,6-dimethyloctahydro-1H-[1,3]dioxola[4',5']furo[3',2':4,5]cyclopenta
[1,2-c]isoxazole
;
_cell_volume   1623.013
_exptl_crystal_colour 'white'
_exptl_crystal_density_diffrn 1.299
_exptl_crystal_description 'block'
_diffrn_ambient_temperature 150
#These two values have been output from a single CSD field.
_refine_ls_R_factor_gt 0.0424
_refine_ls_wR_factor_gt 0.0424
_symmetry_cell_setting orthorhombic
_symmetry_space_group_name_H-M 'P 21 21 21'
_symmetry_Int_Tables_number 19
loop_
_symmetry_equiv_pos_site_id
_symmetry_equiv_pos_as_xyz
1 x,y,z
2 1/2-x,-y,1/2+z
3 -x,1/2+y,1/2-z
4 1/2+x,1/2-y,-z
_cell_length_a 6.9512(5)
_cell_length_b 13.4852(10)
_cell_length_c 17.3143(13)
_cell_angle_alpha 90
_cell_angle_beta 90
_cell_angle_gamma 90
_cell_formula_units_Z 4
loop_
_atom_type_symbol
_atom_type_radius_bond
C 0.68
H 0.23
N 0.68
O 0.68
loop_
_atom_site_label
_atom_site_type_symbol
_atom_site_fract_x
_atom_site_fract_y
_atom_site_fract_z
O1 O 0.48031(13) 0.56049(8) 0.20918(6)
O2 O 0.93096(13) 0.51497(7) 0.21348(6)
C1 C 0.3372(2) 0.34482(10) 0.15746(9)
H1 H 0.20960 0.33400 0.18000
O3 O 0.46737(17) 0.32902(8) 0.03175(7)
O4 O 0.74995(14) 0.64633(7) 0.25071(8)
N1 N 0.37047(17) 0.42486(9) 0.03179(7)
C2 C 0.6513(2) 0.41551(10) 0.18575(9)
H2 H 0.73640 0.38050 0.14980
C3 C 0.35080(18) 0.4469(1) 0.11494(8)
H3 H 0.23700 0.48780 0.12510
C4 C 0.63190(19) 0.56278(11) 0.26278(9)
H4 H 0.58300 0.56120 0.31580
C5 C 0.53258(18) 0.49597(9) 0.14591(8)
H5 H 0.60510 0.53060 0.10560
C6 C 0.94469(19) 0.61444(10) 0.24157(9)
C7 C -0.1093(2) 0.51948(15) -0.01605(9)
H6 H -0.18270 0.46700 0.00250
C8 C 0.0887(2) 0.50786(12) -0.02469(8)
C9 C 0.4949(2) 0.34757(12) 0.21927(10)
H7 H 0.54540 0.28160 0.22870
H8 H 0.44540 0.37420 0.26740
C10 C 1.0493(2) 0.61709(13) 0.31811(11)
H9 H 1.05810 0.68440 0.33590
H10 H 1.17630 0.59040 0.31180
H11 H 0.98000 0.57820 0.35530
C11 C 0.76152(19) 0.47236(10) 0.24633(9)
H12 H 0.78810 0.43290 0.29260
C12 C 1.0405(2) 0.67721(12) 0.18076(11)
H13 H 1.04950 0.74440 0.19870
H14 H 0.96580 0.67520 0.13410
H15 H 1.16720 0.65200 0.17070
C13 C 0.1944(2) 0.58668(13) -0.05398(10)
H16 H 0.32640 0.57990 -0.06100
C14 C 0.1821(2) 0.40998(12) -0.00569(9)
H17 H 0.09890 0.37250 0.02850
H18 H 0.19930 0.37190 -0.05270
C15 C 0.3802(3) 0.27152(12) 0.09267(10)
H19 H 0.46750 0.22030 0.11040
H20 H 0.26260 0.24040 0.07470
C16 C -0.0912(3) 0.68643(16) -0.06295(11)
H21 H -0.15070 0.74620 -0.07510
C17 C 0.1054(3) 0.67538(15) -0.07291(11)
H22 H 0.17800 0.72770 -0.09240
C18 C -0.1980(3) 0.60794(17) -0.03476(11)
H23 H -0.33010 0.61470 -0.02830
#END
