
#######################################################################
#
#                 Cambridge Crystallographic Data Centre
#                                CCDC
#
#######################################################################
#
# If this CIF has been generated from an entry in the Cambridge
# Structural Database, then it will include bibliographic, chemical,
# crystal, experimental, refinement or atomic coordinate data resulting
# from the CCDC's data processing and validation procedures.
#
#######################################################################

data_CSD_CIF_WEWPUK
_audit_creation_date 2007-05-17
_audit_creation_method CSD-ConQuest-V1
_database_code_CSD WEWPUK
_database_code_depnum_ccdc_archive 'CCDC 638896'
_chemical_formula_sum 'C23 H33 N3 O9'
_chemical_formula_moiety
;
C23 H33 N3 O9
;
_journal_coden_Cambridge 4
_journal_volume 128
_journal_year 2006
_journal_page_first 17051
_journal_name_full 'J.Am.Chem.Soc. '
loop_
_publ_author_name
"Cheol-Kyu Jung"
"M.J.Krische"
_chemical_name_systematic
;
3,5-Dinitrobenzoic acid 
(1R,2S)-2-(t-butoxycarbonyl(methyl)amino)-4-methyl-1-((1R)-1-methyl-2-oxopropy
l)pentyl ester
;
_chemical_melting_point 372.15
_cell_volume   2628.717
_exptl_crystal_colour 'colorless'
_exptl_crystal_density_diffrn 1.252
_exptl_special_details
;
Melting point range 372.15-374.15K

;
_exptl_crystal_description 'prisms'
_diffrn_ambient_temperature 153
#These two values have been output from a single CSD field.
_refine_ls_R_factor_gt 0.0384
_refine_ls_wR_factor_gt 0.0384
_symmetry_cell_setting monoclinic
_symmetry_space_group_name_H-M 'C 2'
_symmetry_Int_Tables_number 5
loop_
_symmetry_equiv_pos_site_id
_symmetry_equiv_pos_as_xyz
1 x,y,z
2 -x,y,-z
3 1/2+x,1/2+y,z
4 1/2-x,1/2+y,-z
_cell_length_a 25.8069(5)
_cell_length_b 6.0191(2)
_cell_length_c 19.5710(5)
_cell_angle_alpha 90
_cell_angle_beta 120.152(2)
_cell_angle_gamma 90
_cell_formula_units_Z 4
loop_
_atom_type_symbol
_atom_type_radius_bond
C 0.68
H 0.23
N 0.68
O 0.68
loop_
_atom_site_label
_atom_site_type_symbol
_atom_site_fract_x
_atom_site_fract_y
_atom_site_fract_z
O1 O 0.63412(7) 0.8692(3) 0.71638(9)
O2 O 0.54370(7) 0.5704(3) 0.86271(9)
O3 O 0.61691(8) 0.8171(3) 0.93834(9)
O4 O 0.45438(7) 0.7233(3) 0.60320(8)
O5 O 0.44402(8) 1.0324(4) 0.53172(10)
O6 O 0.25658(9) 1.1102(4) 0.27701(11)
O7 O 0.21323(8) 0.8033(4) 0.21728(9)
O8 O 0.21363(8) 0.2303(4) 0.39724(10)
O9 O 0.29503(8) 0.1844(3) 0.50938(11)
N1 N 0.55843(8) 0.8853(3) 0.80972(10)
N2 N 0.24781(9) 0.9104(4) 0.27629(12)
N3 N 0.26431(9) 0.2865(4) 0.44777(12)
C1 C 0.66731(11) 0.5483(6) 0.79764(15)
H1 H 0.70660 0.62040 0.82050
H2 H 0.66860 0.40470 0.77500
H3 H 0.65710 0.52500 0.83900
C2 C 0.62079(11) 0.6935(5) 0.73403(13)
C3 C 0.55668(10) 0.6055(4) 0.68847(13)
H4 H 0.55060 0.49670 0.72250
C4 C 0.55024(12) 0.4831(5) 0.61545(15)
H5 H 0.50940 0.42440 0.58420
H6 H 0.57900 0.36030 0.63260
H7 H 0.55810 0.58690 0.58320
C5 C 0.51247(10) 0.7966(4) 0.66777(12)
H8 H 0.52660 0.92960 0.65110
C6 C 0.50119(10) 0.8588(4) 0.73547(12)
H9 H 0.47960 0.73140 0.74280
C7 C 0.4606(1) 1.0627(4) 0.71458(13)
H10 H 0.42340 1.03270 0.66400
H11 H 0.48100 1.18930 0.70560
C8 C 0.44314(11) 1.1343(4) 0.77541(15)
H12 H 0.48020 1.18370 0.82430
C9 C 0.40072(13) 1.3326(5) 0.74218(19)
H13 H 0.38920 1.38060 0.78050
H14 H 0.36480 1.28950 0.69280
H15 H 0.42090 1.45500 0.73190
C10 C 0.41508(13) 0.9474(5) 0.79765(16)
H16 H 0.40480 1.00120 0.83660
H17 H 0.44360 0.82420 0.82030
H18 H 0.37870 0.89580 0.75040
C11 C 0.59231(10) 1.0908(4) 0.82243(13)
H19 H 0.57710 1.20510 0.84350
H20 H 0.58780 1.14160 0.77210
H21 H 0.63480 1.06360 0.86020
C12 C 0.57065(11) 0.7428(4) 0.87037(13)
C13 C 0.63826(13) 0.6923(5) 1.01258(13)
C14 C 0.58818(16) 0.6633(8) 1.03046(17)
H22 H 0.55780 0.56330 0.99140
H23 H 0.57000 0.80800 1.02820
H24 H 0.60430 0.59960 1.08340
C15 C 0.66441(17) 0.4736(6) 1.00891(18)
H25 H 0.69670 0.49850 0.99720
H26 H 0.63320 0.38170 0.96730
H27 H 0.68050 0.39750 1.05990
C16 C 0.68533(17) 0.8463(6) 1.07267(15)
H28 H 0.71780 0.86460 1.06090
H29 H 0.70150 0.78300 1.12570
H30 H 0.66730 0.99130 1.07040
C17 C 0.42546(10) 0.8579(4) 0.53999(13)
C18 C 0.36684(10) 0.7614(4) 0.48034(12)
C19 C 0.33448(10) 0.8770(4) 0.40958(12)
H31 H 0.34900 1.01370 0.40150
C20 C 0.28098(10) 0.7892(4) 0.35151(12)
C21 C 0.25732(10) 0.5938(5) 0.36063(13)
H32 H 0.22080 0.53440 0.31940
C22 C 0.28949(10) 0.4885(4) 0.43307(13)
C23 C 0.34408(10) 0.5659(4) 0.49276(12)
H33 H 0.36560 0.48720 0.54120
#END
