
#######################################################################
#
#                 Cambridge Crystallographic Data Centre
#                                CCDC
#
#######################################################################
#
# If this CIF has been generated from an entry in the Cambridge
# Structural Database, then it will include bibliographic, chemical,
# crystal, experimental, refinement or atomic coordinate data resulting
# from the CCDC's data processing and validation procedures.
#
#######################################################################

data_CSD_CIF_WEWQAS
_audit_creation_date 2013-05-26
_audit_creation_method CSD-ConQuest-V1
_database_code_CSD WEWQAS
_database_code_depnum_ccdc_archive 'CCDC 765427'
_chemical_formula_sum 'C11 H9 N4 O2'
_chemical_formula_moiety
;
C11 H9 N4 O2
;
_journal_coden_Cambridge 961
_journal_volume 78
_journal_year 2009
_journal_page_first 971
_journal_name_full 'Russ.Chem.Rev.(Uspekhi Khimii) '
loop_
_publ_author_name
"E.V.Tretyakov"
"V.I.Ovcharenko"
_chemical_name_systematic
;
2-(1-Methyl-1H-pyrazol-4-yl)-1H-benzimidazole-1,3-diol
;
_cell_volume   2088.838
_exptl_crystal_density_diffrn 1.458
_diffrn_ambient_temperature 240
#These two values have been output from a single CSD field.
_refine_ls_R_factor_gt 0.0513
_refine_ls_wR_factor_gt 0.0513
_symmetry_cell_setting monoclinic
_symmetry_space_group_name_H-M 'C 2/c'
_symmetry_Int_Tables_number 15
loop_
_symmetry_equiv_pos_site_id
_symmetry_equiv_pos_as_xyz
1 x,y,z
2 -x,y,1/2-z
3 1/2+x,1/2+y,z
4 1/2-x,1/2+y,1/2-z
5 -x,-y,-z
6 x,-y,-1/2+z
7 -1/2-x,-1/2-y,-z
8 -1/2+x,-1/2-y,-1/2+z
_cell_length_a 13.514(7)
_cell_length_b 7.708(4)
_cell_length_c 20.930(11)
_cell_angle_alpha 90
_cell_angle_beta 106.645(8)
_cell_angle_gamma 90
_cell_formula_units_Z 8
loop_
_atom_type_symbol
_atom_type_radius_bond
C 0.68
H 0.23
N 0.68
O 0.68
loop_
_atom_site_label
_atom_site_type_symbol
_atom_site_fract_x
_atom_site_fract_y
_atom_site_fract_z
N1 N 0.41153(12) 0.0377(2) 0.53972(8)
O1 O 0.42210(12) -0.1239(2) 0.55189(7)
C1 C 0.45614(15) 0.1702(3) 0.58624(11)
C2 C 0.51815(18) 0.1592(4) 0.65181(12)
H1 H 0.5385(17) 0.050(3) 0.6691(12)
C3 C 0.5505(2) 0.3153(4) 0.68265(15)
H2 H 0.593(2) 0.319(4) 0.7265(15)
C4 C 0.5240(2) 0.4717(4) 0.65075(16)
H3 H 0.5524(18) 0.586(3) 0.6720(12)
C5 C 0.4626(2) 0.4815(3) 0.58544(17)
H4 H 0.4428(16) 0.586(3) 0.5591(11)
C6 C 0.42988(15) 0.3257(3) 0.55484(11)
N2 N 0.36684(12) 0.2869(2) 0.48982(9)
O2 O 0.32337(12) 0.4015(2) 0.44621(8)
C7 C 0.35814(14) 0.1120(3) 0.48153(10)
C8 C 0.30321(15) 0.0208(3) 0.42242(10)
C9 C 0.26115(18) 0.0892(4) 0.35803(12)
H5 H 0.2664(17) 0.210(3) 0.3423(12)
N3 N 0.21675(16) -0.0322(3) 0.31514(9)
N4 N 0.22927(13) -0.1799(2) 0.35140(9)
C10 C 0.1869(2) -0.3425(4) 0.31990(16)
H6 H 0.206(3) -0.430(4) 0.3536(18)
H7 H 0.217(3) -0.380(5) 0.2820(19)
H8 H 0.125(3) -0.325(4) 0.2929(19)
C11 C 0.28080(16) -0.1528(3) 0.41528(11)
H9 H 0.2975(15) -0.244(3) 0.4426(11)
#END
