
#######################################################################
#
#                 Cambridge Crystallographic Data Centre
#                                CCDC
#
#######################################################################
#
# If this CIF has been generated from an entry in the Cambridge
# Structural Database, then it will include bibliographic, chemical,
# crystal, experimental, refinement or atomic coordinate data resulting
# from the CCDC's data processing and validation procedures.
#
#######################################################################

data_CSD_CIF_WEXDIM
_audit_creation_date 1994-12-19
_audit_creation_method CSD-ConQuest-V1
_database_code_CSD WEXDIM
_chemical_formula_sum 'C10 H16 N4 O3'
_chemical_formula_moiety
;
C10 H16 N4 O3
;
_journal_coden_Cambridge 95
_journal_year 1994
_journal_page_first 894
_journal_name_full 'Izv.Akad.Nauk SSSR,Ser.Khim.(Russ.)(Russ.Chem.Bull.) '
loop_
_publ_author_name
"T.A.Berezina"
"V.A.Reznikov"
"V.I.Mamatyuk"
"P.A.Butakov"
"Yu.V.Gatilov"
"I.Yu.Bagryanskaya"
"L.B.Volodarsky"
_chemical_name_systematic
;
2-Cyano-5-nitro-4,4,6,6-tetramethylperhydroimidazo(1,5-b)isoxazole
;
_chemical_melting_point 414.15
_cell_volume   1190.054
_exptl_special_details
;
Dx given as 1.274; we calculate dx=1.34. Reported fw is incorrect; we 
calculate fw=240.35
;
_diffrn_ambient_temperature ?
_diffrn_special_details
;
The study was carried out at room temperature,in the range 283-303K

;
#These two values have been output from a single CSD field.
_refine_ls_R_factor_gt 0.062
_refine_ls_wR_factor_gt 0.062
_symmetry_cell_setting monoclinic
_symmetry_space_group_name_H-M 'P 21/c'
_symmetry_Int_Tables_number 14
loop_
_symmetry_equiv_pos_site_id
_symmetry_equiv_pos_as_xyz
1 x,y,z
2 -x,1/2+y,1/2-z
3 -x,-y,-z
4 x,-1/2-y,-1/2+z
_cell_length_a 9.381(1)
_cell_length_b 7.409(1)
_cell_length_c 17.133(2)
_cell_angle_alpha 90
_cell_angle_beta 92.04(1)
_cell_angle_gamma 90
_cell_formula_units_Z 4
loop_
_atom_type_symbol
_atom_type_radius_bond
C 0.68
N 0.68
O 0.68
loop_
_atom_site_label
_atom_site_type_symbol
_atom_site_fract_x
_atom_site_fract_y
_atom_site_fract_z
O1 O 0.3470(2) 0.0260(5) 0.5492(1)
C1 C 0.3093(4) 0.0506(7) 0.4684(2)
C2 C 0.1889(5) 0.1909(9) 0.4647(2)
C3 C 0.2259(4) 0.3704(7) 0.5967(2)
N1 N 0.2483(3) 0.2781(5) 0.6730(2)
C4 C 0.2319(4) 0.0766(7) 0.6702(2)
N2 N 0.2067(3) 0.0419(5) 0.5863(2)
C5 C 0.1549(4) 0.2113(6) 0.5514(12)
C6 C 0.2637(5) -0.1231(9) 0.4346(2)
N3 N 0.2295(4) -0.2607(8) 0.4088(2)
C7 C 0.1200(5) 0.5269(9) 0.5984(3)
C8 C 0.3694(5) 0.4367(10) 0.5675(3)
N4 N 0.2803(4) 0.3667(7) 0.7390(2)
O2 O 0.2981(4) 0.5308(6) 0.7362(2)
O3 O 0.2890(4) 0.2794(6) 0.7996(2)
C9 C 0.0951(6) 0.0229(11) 0.7093(3)
C10 C 0.3614(6) -0.0258(10) 0.7028(3)
#END
