
#######################################################################
#
#                 Cambridge Crystallographic Data Centre
#                                CCDC
#
#######################################################################
#
# If this CIF has been generated from an entry in the Cambridge
# Structural Database, then it will include bibliographic, chemical,
# crystal, experimental, refinement or atomic coordinate data resulting
# from the CCDC's data processing and validation procedures.
#
#######################################################################

data_CSD_CIF_WEYZUX
_audit_creation_date 2013-05-26
_audit_creation_method CSD-ConQuest-V1
_database_code_CSD WEYZUX
_database_code_depnum_ccdc_archive 'CCDC 696187'
_chemical_formula_sum 'C8 H8 N2 O5'
_chemical_formula_moiety
;
C8 H8 N2 O5
;
_journal_coden_Cambridge 392
_journal_volume 87
_journal_year 2013
_journal_page_first 319
_journal_name_full 'Heterocycles '
loop_
_publ_author_name
"K.Yamaguchi"
"K.Harano"
"M.Eto"
_chemical_name_systematic
;
Methyl 
5-methyl-4,6-dioxo-4,5,6,6a-tetrahydro-3aH-pyrrolo[3,4-d][1,2]oxazole-3-carbox
ylate
;
_cell_volume   1830.496
_exptl_crystal_colour 'colorless'
_exptl_crystal_density_diffrn 1.54
_exptl_crystal_description 'prismatic'
_diffrn_ambient_temperature 293.1
#These two values have been output from a single CSD field.
_refine_ls_R_factor_gt 0.0416
_refine_ls_wR_factor_gt 0.0416
_symmetry_cell_setting orthorhombic
_symmetry_space_group_name_H-M 'P b c a'
_symmetry_Int_Tables_number 61
loop_
_symmetry_equiv_pos_site_id
_symmetry_equiv_pos_as_xyz
1 x,y,z
2 1/2-x,-y,1/2+z
3 1/2+x,1/2-y,-z
4 -x,1/2+y,1/2-z
5 -x,-y,-z
6 -1/2+x,y,-1/2-z
7 -1/2-x,-1/2+y,z
8 x,-1/2-y,-1/2+z
_cell_length_a 14.402(4)
_cell_length_b 13.171(4)
_cell_length_c 9.650(4)
_cell_angle_alpha 90
_cell_angle_beta 90
_cell_angle_gamma 90
_cell_formula_units_Z 8
loop_
_atom_type_symbol
_atom_type_radius_bond
C 0.68
H 0.23
N 0.68
O 0.68
loop_
_atom_site_label
_atom_site_type_symbol
_atom_site_fract_x
_atom_site_fract_y
_atom_site_fract_z
O1 O 0.83032(7) 0.40176(8) 0.5149(1)
O2 O 0.67275(7) 0.4686(1) 0.7152(1)
O3 O 0.54940(7) 0.38908(9) 0.2988(1)
O4 O 0.53965(7) 0.38012(9) 0.7238(1)
O5 O 0.69512(9) 0.2910(1) 0.1188(1)
N1 N 0.53444(9) 0.3821(1) 0.4422(1)
N2 N 0.77265(8) 0.32373(9) 0.3216(1)
C1 C 0.6095(1) 0.4248(1) 0.6591(2)
C2 C 0.6819(1) 0.4551(1) 0.4146(1)
C3 C 0.77096(9) 0.3935(1) 0.4285(1)
C4 C 0.60495(9) 0.4176(1) 0.5063(2)
C5 C 0.7042(1) 0.3388(1) 0.2241(2)
C6 C 0.8488(1) 0.2514(2) 0.3041(2)
C7 C 0.5446(2) 0.3830(2) 0.8737(2)
C8 C 0.6436(1) 0.4263(1) 0.2740(2)
H1 H 0.697(1) 0.528(1) 0.428(1)
H2 H 0.865(2) 0.222(2) 0.394(3)
H3 H 0.902(2) 0.286(2) 0.278(2)
H4 H 0.547(2) 0.451(2) 0.903(2)
H5 H 0.601(2) 0.351(2) 0.900(2)
H6 H 0.642(1) 0.478(1) 0.207(2)
H7 H 0.833(2) 0.200(2) 0.241(2)
H8 H 0.487(1) 0.347(2) 0.908(2)
#END
