
#######################################################################
#
#                 Cambridge Crystallographic Data Centre
#                                CCDC
#
#######################################################################
#
# If this CIF has been generated from an entry in the Cambridge
# Structural Database, then it will include bibliographic, chemical,
# crystal, experimental, refinement or atomic coordinate data resulting
# from the CCDC's data processing and validation procedures.
#
#######################################################################

data_CSD_CIF_WEZKUK
_audit_creation_date 2018-05-21
_audit_creation_method CSD-ConQuest-V1
_database_code_CSD WEZKUK
_database_code_depnum_ccdc_archive 'CCDC 1572018'
_chemical_formula_sum 'C14 H23 N1 O4'
_chemical_formula_moiety
;
C14 H23 N1 O4
;
_journal_coden_Cambridge 35
_journal_volume 83
_journal_year 2018
_journal_page_first 5825
_journal_name_full 'J.Org.Chem. '
loop_
_publ_author_name
"Xin Bi"
"Wenbo Xu"
"Yanmin Yao"
"Lili Zhou"
"Guangxin Liang"
_chemical_name_systematic
;
4a-hydroxy-5-methyl-4-nitro-8-(propan-2-yl)octahydronaphthalen-1(2H)-one
;
_cell_volume   1444.123
_exptl_crystal_colour 'colorless'
_exptl_crystal_density_diffrn 1.239
_exptl_crystal_description 'prism'
_diffrn_ambient_temperature 294
#These two values have been output from a single CSD field.
_refine_ls_R_factor_gt 0.0458
_refine_ls_wR_factor_gt 0.0458
_symmetry_cell_setting orthorhombic
_symmetry_space_group_name_H-M 'P 21 21 21'
_symmetry_Int_Tables_number 19
loop_
_symmetry_equiv_pos_site_id
_symmetry_equiv_pos_as_xyz
1 x,y,z
2 1/2-x,-y,1/2+z
3 -x,1/2+y,1/2-z
4 1/2+x,1/2-y,-z
_cell_length_a 9.3072(19)
_cell_length_b 11.839(2)
_cell_length_c 13.106(3)
_cell_angle_alpha 90
_cell_angle_beta 90
_cell_angle_gamma 90
_cell_formula_units_Z 4
loop_
_atom_type_symbol
_atom_type_radius_bond
C 0.68
H 0.23
N 0.68
O 0.68
loop_
_atom_site_label
_atom_site_type_symbol
_atom_site_fract_x
_atom_site_fract_y
_atom_site_fract_z
O1 O 0.88301(17) 0.17853(12) 0.47184(10)
H1 H 0.94850 0.20670 0.43860
O2 O 0.61540(17) 0.19182(13) 0.62346(15)
O3 O 1.2512(3) 0.0820(4) 0.6721(2)
O4 O 1.0619(3) 0.0555(3) 0.7587(2)
N1 N 1.1251(3) 0.0963(2) 0.68607(19)
C1 C 1.1434(3) 0.0353(2) 0.4232(2)
H2 H 1.11010 0.08240 0.36840
H3 H 1.18860 -0.03080 0.39550
H4 H 1.21140 0.07640 0.46380
C2 C 1.0161(3) 0.00022(19) 0.48958(19)
H5 H 1.05270 -0.05070 0.54250
C3 C 0.9078(3) -0.0654(2) 0.4266(2)
H6 H 0.95610 -0.12720 0.39220
H7 H 0.86720 -0.01620 0.37490
C4 C 0.7879(3) -0.1121(2) 0.4927(2)
H8 H 0.82830 -0.16280 0.54330
H9 H 0.72210 -0.15520 0.45050
C5 C 0.7056(2) -0.01844(18) 0.54645(16)
H10 H 0.66000 0.02780 0.49350
C6 C 0.8086(2) 0.05858(16) 0.60588(15)
H11 H 0.84460 0.01560 0.66440
C7 C 0.7361(2) 0.16503(17) 0.64714(16)
C8 C 0.8275(3) 0.2338(2) 0.71803(19)
H12 H 0.84630 0.19070 0.77960
H13 H 0.77620 0.30180 0.73730
C9 C 0.9704(3) 0.2660(2) 0.6677(2)
H14 H 0.95290 0.32690 0.61970
H15 H 1.03470 0.29460 0.71990
C10 C 1.0452(2) 0.1700(2) 0.61156(19)
H16 H 1.11680 0.20420 0.56620
C11 C 0.9412(2) 0.09982(17) 0.54367(14)
C12 C 0.5841(2) -0.06601(19) 0.6150(2)
H17 H 0.54470 -0.00300 0.65450
C13 C 0.6334(3) -0.1557(2) 0.6901(2)
H18 H 0.67330 -0.21850 0.65350
H19 H 0.55290 -0.18090 0.72990
H20 H 0.70510 -0.12440 0.73460
C14 C 0.4627(3) -0.1130(3) 0.5484(3)
H21 H 0.38290 -0.13360 0.59090
H22 H 0.49640 -0.17840 0.51230
H23 H 0.43290 -0.05640 0.50040
#END
