
#######################################################################
#
#                 Cambridge Crystallographic Data Centre
#                                CCDC
#
#######################################################################
#
# If this CIF has been generated from an entry in the Cambridge
# Structural Database, then it will include bibliographic, chemical,
# crystal, experimental, refinement or atomic coordinate data resulting
# from the CCDC's data processing and validation procedures.
#
#######################################################################

data_CSD_CIF_WIBCIT
_audit_creation_date 1995-03-06
_audit_creation_method CSD-ConQuest-V1
_database_code_CSD WIBCIT
_chemical_formula_sum 'C9 H18 N2 O3'
_chemical_formula_moiety
;
C9 H18 N2 O3
;
_journal_coden_Cambridge 4
_journal_volume 116
_journal_year 1994
_journal_page_first 4079
_journal_name_full 'J.Am.Chem.Soc. '
loop_
_publ_author_name
"P.S.Engel"
"Aiyun Wu"
"K.H.Whitmire"
_chemical_name_systematic
;
3-(t-Butylazoxy)-3-methylbutanoic acid
;
_cell_volume    563.353
_exptl_crystal_colour 'colorless'
_diffrn_ambient_temperature 193.15
#These two values have been output from a single CSD field.
_refine_ls_R_factor_gt 0.0472
_refine_ls_wR_factor_gt 0.0472
_symmetry_cell_setting triclinic
_symmetry_space_group_name_H-M 'P -1'
_symmetry_Int_Tables_number 2
loop_
_symmetry_equiv_pos_site_id
_symmetry_equiv_pos_as_xyz
1 x,y,z
2 -x,-y,-z
_cell_length_a 8.226(2)
_cell_length_b 12.526(2)
_cell_length_c 6.042(2)
_cell_angle_alpha 93.927(19)
_cell_angle_beta 108.156(2)
_cell_angle_gamma 72.309(15)
_cell_formula_units_Z 2
loop_
_atom_type_symbol
_atom_type_radius_bond
C 0.68
H 0.23
N 0.68
O 0.68
loop_
_atom_site_label
_atom_site_type_symbol
_atom_site_fract_x
_atom_site_fract_y
_atom_site_fract_z
O1 O 0.4796(2) 0.3335(1) 0.6957(2)
O2 O 0.5165(2) 0.4137(1) 0.2237(2)
O3 O 0.2773(2) 0.5378(1) -0.0110(2)
N1 N 0.5237(2) 0.1805(1) 0.4752(2)
N2 N 0.4371(2) 0.2769(1) 0.5194(2)
C1 C 0.3505(2) 0.4686(1) 0.1600(3)
C2 C 0.2376(3) 0.4518(1) 0.2977(4)
C3 C 0.2536(2) 0.3295(1) 0.3435(3)
C4 C 0.2290(3) 0.2651(2) 0.1207(4)
C5 C 0.1182(3) 0.3263(2) 0.4660(4)
C6 C 0.6995(2) 0.1263(1) 0.6487(3)
C7 C 0.7642(3) 0.0129(2) 0.5453(5)
C8 C 0.6806(4) 0.1082(3) 0.8840(4)
C9 C 0.8297(3) 0.1934(2) 0.6629(6)
H1 H 0.60700 0.44470 0.11050
H2 H 0.269(3) 0.486(2) 0.446(4)
H3 H 0.118(3) 0.486(2) 0.206(3)
H4 H 0.321(3) 0.262(2) 0.043(4)
H5 H 0.110(3) 0.302(2) 0.017(3)
H6 H 0.135(3) 0.371(2) 0.606(4)
H7 H 0.001(3) 0.354(2) 0.357(4)
H8 H 0.235(3) 0.188(2) 0.143(4)
H9 H 0.137(3) 0.247(2) 0.518(4)
H10 H 0.770(3) 0.024(2) 0.394(4)
H11 H 0.885(3) -0.029(2) 0.649(4)
H12 H 0.685(3) -0.029(2) 0.527(4)
H13 H 0.595(4) 0.071(2) 0.880(5)
H14 H 0.649(3) 0.177(2) 0.964(4)
H15 H 0.798(4) 0.060(2) 0.978(4)
H16 H 0.826(4) 0.207(2) 0.505(5)
H17 H 0.946(4) 0.150(2) 0.748(4)
H18 H 0.797(3) 0.265(2) 0.747(4)
#END
