
#######################################################################
#
#                 Cambridge Crystallographic Data Centre
#                                CCDC
#
#######################################################################
#
# If this CIF has been generated from an entry in the Cambridge
# Structural Database, then it will include bibliographic, chemical,
# crystal, experimental, refinement or atomic coordinate data resulting
# from the CCDC's data processing and validation procedures.
#
#######################################################################

data_CSD_CIF_WICJAV
_audit_creation_date 2013-05-26
_audit_creation_method CSD-ConQuest-V1
_database_code_CSD WICJAV
_database_code_depnum_ccdc_archive 'CCDC 932874'
_chemical_formula_sum 'C22 H23 N1 O6'
_chemical_formula_moiety
;
C22 H23 N1 O6
;
_journal_coden_Cambridge 35
_journal_volume 77
_journal_year 2012
_journal_page_first 3609
_journal_name_full 'J.Org.Chem. '
loop_
_publ_author_name
"Le Chang"
"Hao Jiang"
"Junkai Fu"
"Bin Liu"
"Chuang-chuang Li"
"Zhen Yang"
_chemical_name_systematic
;
6,14-Dimethyl-12-oxo-13-oxatetracyclo[7.4.1.0^1,7^.0^7,11^]tetradec-2-en-14-yl
 4-nitrobenzoate
;
_cell_volume    983.996
_exptl_crystal_colour 'colorless'
_exptl_crystal_density_diffrn 1.341
_exptl_crystal_description 'prism'
_diffrn_ambient_temperature 296
#These two values have been output from a single CSD field.
_refine_ls_R_factor_gt 0.0973
_refine_ls_wR_factor_gt 0.0973
_symmetry_cell_setting triclinic
_symmetry_space_group_name_H-M 'P -1'
_symmetry_Int_Tables_number 2
loop_
_symmetry_equiv_pos_site_id
_symmetry_equiv_pos_as_xyz
1 x,y,z
2 -x,-y,-z
_cell_length_a 6.5030(13)
_cell_length_b 12.1809(11)
_cell_length_c 13.9183(19)
_cell_angle_alpha 66.72(3)
_cell_angle_beta 82.58(4)
_cell_angle_gamma 76.52(4)
_cell_formula_units_Z 2
loop_
_atom_type_symbol
_atom_type_radius_bond
C 0.68
H 0.23
N 0.68
O 0.68
loop_
_atom_site_label
_atom_site_type_symbol
_atom_site_fract_x
_atom_site_fract_y
_atom_site_fract_z
O1 O 0.2345(3) 1.07828(19) 0.27407(15)
O2 O 0.1266(4) 0.8740(2) 0.33535(16)
O3 O -0.0882(5) 0.7373(3) 0.3881(2)
O4 O 0.1860(5) 1.1541(3) 0.3984(2)
O5 O 0.7937(9) 0.5047(6) 0.7280(4)
O6 O 0.6097(8) 0.3669(4) 0.7751(3)
N1 N 0.6448(8) 0.4659(5) 0.7184(3)
C1 C 0.2244(5) 0.6934(3) 0.4800(2)
C2 C 0.0674(6) 0.7691(3) 0.3977(3)
C3 C 0.4964(7) 0.5471(4) 0.6348(3)
C4 C 0.1077(4) 1.0743(3) 0.1966(2)
C5 C 0.0000(5) 0.9577(3) 0.2460(2)
C6 C 0.1123(5) 1.1377(3) 0.3312(2)
C7 C -0.1070(5) 1.1705(3) 0.2989(2)
C8 C 0.3240(8) 0.5053(3) 0.6263(3)
C9 C -0.0860(5) 1.1800(3) 0.1839(2)
C10 C 0.2697(6) 1.0661(4) 0.1111(3)
C11 C -0.2245(6) 1.0633(4) 0.3569(3)
C12 C 0.5410(7) 0.6586(4) 0.5687(3)
C13 C -0.2722(5) 1.1261(3) 0.1764(3)
C14 C -0.0701(7) 1.3069(3) 0.1016(3)
C15 C -0.2241(5) 1.0116(3) 0.2738(3)
C16 C 0.1947(9) 1.2700(5) -0.0424(3)
C17 C -0.0327(8) 1.3099(4) -0.0099(3)
C18 C 0.0086(7) 0.8945(4) 0.1698(3)
C19 C 0.3988(6) 0.7322(3) 0.4902(3)
C20 C 0.3054(8) 1.1448(4) 0.0163(3)
C21 C -0.2674(10) 1.4014(5) 0.1076(4)
C22 C 0.1877(7) 0.5800(3) 0.5495(3)
H1 H -0.18390 1.24660 0.30590
H2 H 0.30090 0.42870 0.67130
H3 H 0.36270 0.99110 0.12840
H4 H -0.14940 1.00310 0.41770
H5 H -0.36760 1.09210 0.37880
H6 H 0.66060 0.68380 0.57600
H7 H -0.40860 1.17700 0.18210
H8 H -0.26240 1.10890 0.11340
H9 H 0.05120 1.33060 0.11780
H10 H -0.32400 0.95710 0.28960
H11 H 0.19800 1.28060 -0.11530
H12 H 0.27570 1.32550 -0.03830
H13 H -0.11660 1.25790 -0.01770
H14 H -0.08470 1.39240 -0.05790
H15 H 0.15350 0.86300 0.15490
H16 H -0.05580 0.95210 0.10610
H17 H -0.06630 0.82870 0.20060
H18 H 0.42290 0.80830 0.44450
H19 H 0.42120 1.11600 -0.02000
H20 H -0.28930 1.39970 0.17770
H21 H -0.38830 1.38270 0.08880
H22 H -0.24850 1.48110 0.06020
H23 H 0.06740 0.55470 0.54340
#END
