
#######################################################################
#
#                 Cambridge Crystallographic Data Centre
#                                CCDC
#
#######################################################################
#
# If this CIF has been generated from an entry in the Cambridge
# Structural Database, then it will include bibliographic, chemical,
# crystal, experimental, refinement or atomic coordinate data resulting
# from the CCDC's data processing and validation procedures.
#
#######################################################################

data_CSD_CIF_WICXIP
_audit_creation_date 1995-03-06
_audit_creation_method CSD-ConQuest-V1
_database_code_CSD WICXIP
_chemical_formula_sum 'C24 H22 N4 O12'
_chemical_formula_moiety
;
C24 H22 N4 O12
;
_journal_coden_Cambridge 182
_journal_year 1994
_journal_page_first 1781
_journal_name_full 'Chem.Commun. '
loop_
_publ_author_name
"A.G.M.Barrett"
"K.Kasdorf"
"D.J.Williams"
_chemical_name_systematic
;
(1R,2R)-1,2-bis((1S,2S)-2-Methylcyclopropyl)-1,2-ethanediyl 
3,5-dinitrobenzoate
;
_cell_volume   1322.801
_exptl_crystal_density_diffrn 1.402
_diffrn_ambient_temperature ?
_diffrn_special_details
;
The study was carried out at room temperature,in the range 283-303K

;
#These two values have been output from a single CSD field.
_refine_ls_R_factor_gt 0.0443
_refine_ls_wR_factor_gt 0.0443
loop_
_citation_database_id_CSD
_citation_special_details
YOMXAZ "is a stereoisomer of this entry"
_symmetry_cell_setting orthorhombic
_symmetry_space_group_name_H-M 'P 21 21 2'
_symmetry_Int_Tables_number 18
loop_
_symmetry_equiv_pos_site_id
_symmetry_equiv_pos_as_xyz
1 x,y,z
2 1/2+x,1/2-y,-z
3 1/2-x,1/2+y,-z
4 -x,-y,z
_cell_length_a 9.443(2)
_cell_length_b 21.991(8)
_cell_length_c 6.370(2)
_cell_angle_alpha 90
_cell_angle_beta 90
_cell_angle_gamma 90
_cell_formula_units_Z 2
loop_
_atom_type_symbol
_atom_type_radius_bond
C 0.68
H 0.23
N 0.68
O 0.68
loop_
_atom_site_label
_atom_site_type_symbol
_atom_site_fract_x
_atom_site_fract_y
_atom_site_fract_z
H1 H -0.37480 -0.49080 -0.16950
H2 H -0.38640 -0.46880 -0.60420
H3 H -0.24520 -0.56320 -0.38150
H4 H -0.15060 -0.46300 -0.32780
H5 H -0.14220 -0.45290 -0.57930
H6 H -0.13330 -0.59190 -0.71010
H7 H -0.21160 -0.53750 -0.81490
H8 H -0.29850 -0.59390 -0.73620
H9 H -0.41220 -0.28930 0.13590
H10 H -0.62190 -0.15830 -0.19700
H11 H -0.59810 -0.33240 -0.42140
C1 C -0.4325(5) -0.4811(1) -0.2891(7)
C2 C -0.3446(4) -0.4859(2) -0.4801(8)
C3 C -0.2374(4) -0.5370(2) -0.5016(10)
C4 C -0.1872(5) -0.4732(2) -0.4639(17)
C5 C -0.2186(7) -0.5681(3) -0.7080(11)
O1 O -0.4824(3) -0.4180(1) -0.2739(4)
C6 C -0.4405(4) -0.3832(2) -0.1168(6)
O2 O -0.3665(4) -0.3992(1) 0.0252(5)
C7 C -0.4972(3) -0.3197(1) -0.1400(6)
C8 C -0.4649(3) -0.2776(2) 0.0135(6)
C9 C -0.5108(4) -0.2181(2) -0.0139(6)
C10 C -0.5896(3) -0.1995(2) -0.1827(6)
C11 C -0.6210(3) -0.2436(2) -0.3314(6)
C12 C -0.5760(3) -0.3034(1) -0.3138(6)
N1 N -0.4729(3) -0.1725(1) 0.1467(6)
O3 O -0.4160(3) -0.1900(1) 0.3084(5)
O4 O -0.5005(4) -0.1194(1) 0.1086(6)
N2 N -0.7053(3) -0.2260(1) -0.5138(5)
O5 O -0.7575(4) -0.1753(1) -0.5135(6)
O6 O -0.7189(3) -0.2623(1) -0.6563(5)
C1C C -0.5675(5) -0.5189(1) -0.2891(7)
H1C H -0.62520 -0.50920 -0.16950
C2C C -0.6554(4) -0.5141(2) -0.4801(8)
O1C O -0.5176(3) -0.5820(1) -0.2739(4)
H2C H -0.61360 -0.53120 -0.60420
C3C C -0.7626(4) -0.4630(2) -0.5016(10)
C4C C -0.8128(5) -0.5268(2) -0.4639(17)
C6C C -0.5595(4) -0.6168(2) -0.1168(6)
H3C H -0.75480 -0.43680 -0.38150
C5C C -0.7814(7) -0.4319(3) -0.7080(11)
H4C H -0.84940 -0.53700 -0.32780
H5C H -0.85780 -0.54710 -0.57930
O2C O -0.6335(4) -0.6008(1) 0.0252(5)
C7C C -0.5028(3) -0.6803(1) -0.1400(6)
H6C H -0.86670 -0.40810 -0.71010
H7C H -0.78840 -0.46250 -0.81490
H8C H -0.70150 -0.40610 -0.73620
C8C C -0.5351(3) -0.7224(2) 0.0135(6)
C12C C -0.4240(3) -0.6966(1) -0.3138(6)
H9C H -0.58780 -0.71070 0.13590
C9C C -0.4892(4) -0.7819(2) -0.0139(6)
H11C H -0.40190 -0.66760 -0.42140
C11C C -0.3790(3) -0.7564(2) -0.3314(6)
C10C C -0.4104(3) -0.8005(2) -0.1827(6)
N1C N -0.5271(3) -0.8275(1) 0.1467(6)
N2C N -0.2947(3) -0.7740(1) -0.5138(5)
H10C H -0.37810 -0.84170 -0.19700
O3C O -0.5840(3) -0.8100(1) 0.3084(5)
O4C O -0.4995(4) -0.8806(1) 0.1086(6)
O5C O -0.2425(4) -0.8247(1) -0.5135(6)
O6C O -0.2811(3) -0.7377(1) -0.6563(5)
#END
