
#######################################################################
#
#                 Cambridge Crystallographic Data Centre
#                                CCDC
#
#######################################################################
#
# If this CIF has been generated from an entry in the Cambridge
# Structural Database, then it will include bibliographic, chemical,
# crystal, experimental, refinement or atomic coordinate data resulting
# from the CCDC's data processing and validation procedures.
#
#######################################################################

data_CSD_CIF_WIDXAK
_audit_creation_date 2013-05-26
_audit_creation_method CSD-ConQuest-V1
_database_code_CSD WIDXAK
_database_code_depnum_ccdc_archive 'CCDC 930395'
_chemical_formula_sum 'C15 H21 N2 O5'
_chemical_formula_moiety
;
C15 H21 N2 O5
;
_journal_coden_Cambridge 1147
_journal_volume 13
_journal_year 2013
_journal_page_first 893
_journal_name_full 'Cryst.Growth Des. '
loop_
_publ_author_name
"G.Seber"
"R.S.Freitas"
"N.F.Oliveira Junior"
"P.M.Lahti"
_chemical_name_systematic
;
2-(4-Hydroxy-3,5-dimethoxyphenyl)-4,4,5,5-tetramethyl-4,5-dihydro-1H-3\l^5^-im
idazole-1,3-diol
;
_cell_volume   1611.864
_exptl_crystal_colour 'blue'
_exptl_crystal_density_diffrn 1.275
_exptl_crystal_description 'long prism'
_diffrn_ambient_temperature 293
#These two values have been output from a single CSD field.
_refine_ls_R_factor_gt 0.0347
_refine_ls_wR_factor_gt 0.0347
_symmetry_cell_setting monoclinic
_symmetry_space_group_name_H-M 'C c'
_symmetry_Int_Tables_number 9
loop_
_symmetry_equiv_pos_site_id
_symmetry_equiv_pos_as_xyz
1 x,y,z
2 x,-y,1/2+z
3 1/2+x,1/2+y,z
4 1/2+x,1/2-y,1/2+z
_cell_length_a 14.2986(5)
_cell_length_b 13.6054(5)
_cell_length_c 9.8965(2)
_cell_angle_alpha 90
_cell_angle_beta 123.1518(16)
_cell_angle_gamma 90
_cell_formula_units_Z 4
loop_
_atom_type_symbol
_atom_type_radius_bond
C 0.68
H 0.23
N 0.68
O 0.68
loop_
_atom_site_label
_atom_site_type_symbol
_atom_site_fract_x
_atom_site_fract_y
_atom_site_fract_z
O1 O 0.66247(11) 0.76023(10) 0.81642(16)
H1 H 0.65440 0.80790 0.76030
O2 O 0.67043(14) 0.59461(12) 0.95562(17)
O3 O 0.50178(12) 0.8009(1) 0.50999(18)
O4 O 0.43335(16) 0.33324(11) 0.6109(2)
O5 O 0.20748(13) 0.56323(10) 0.22093(17)
C1 C 0.58247(14) 0.69232(14) 0.7255(2)
C2 C 0.58482(15) 0.60300(14) 0.7961(2)
C3 C 0.50586(16) 0.53167(14) 0.7080(2)
H2 H 0.50760 0.47250 0.75640
C4 C 0.42271(14) 0.54857(13) 0.5447(2)
C5 C 0.41903(15) 0.63876(15) 0.4742(2)
H3 H 0.36410 0.65090 0.36650
C6 C 0.49756(14) 0.70929(13) 0.5659(2)
C7 C 0.34294(14) 0.47122(12) 0.44713(19)
N1 N 0.35305(14) 0.37441(11) 0.48323(19)
C8 C 0.26743(16) 0.31340(13) 0.3439(2)
C9 C 0.17822(15) 0.39156(14) 0.2411(2)
N2 N 0.24707(13) 0.48314(11) 0.30156(17)
C10 C 0.6767(2) 0.51081(19) 1.0394(3)
H4 H 0.68340 0.45420 0.98740
H5 H 0.61030 0.50520 1.04080
H6 H 0.74070 0.51490 1.14810
C11 C 0.4022(2) 0.8424(2) 0.3860(4)
H7 H 0.34920 0.84400 0.41700
H8 H 0.37270 0.80370 0.28990
H9 H 0.41600 0.90810 0.36580
C12 C 0.3262(2) 0.27346(18) 0.2618(3)
H10 H 0.34990 0.32750 0.22520
H11 H 0.27510 0.23300 0.17150
H12 H 0.39010 0.23510 0.33810
C13 C 0.2288(3) 0.2301(2) 0.4030(3)
H13 H 0.28960 0.18520 0.46550
H14 H 0.16810 0.19610 0.31210
H15 H 0.20430 0.25600 0.46880
C14 C 0.1241(2) 0.38213(17) 0.0616(3)
H16 H 0.18080 0.37490 0.03860
H17 H 0.08080 0.44000 0.00900
H18 H 0.07620 0.32550 0.02290
C15 C 0.0888(2) 0.4029(2) 0.2791(4)
H19 H 0.12380 0.40870 0.39360
H20 H 0.04090 0.34640 0.24040
H21 H 0.04550 0.46080 0.22700
#END
