
#######################################################################
#
#                 Cambridge Crystallographic Data Centre
#                                CCDC
#
#######################################################################
#
# If this CIF has been generated from an entry in the Cambridge
# Structural Database, then it will include bibliographic, chemical,
# crystal, experimental, refinement or atomic coordinate data resulting
# from the CCDC's data processing and validation procedures.
#
#######################################################################

data_CSD_CIF_WIFFEX
_audit_creation_date 2007-09-19
_audit_creation_method CSD-ConQuest-V1
_database_code_CSD WIFFEX
_database_code_depnum_ccdc_archive 'CCDC 649486'
_chemical_formula_sum 'C17 H21 N5 O1'
_chemical_formula_moiety
;
C17 H21 N5 O1
;
_journal_coden_Cambridge 151
_journal_volume 49
_journal_year 2006
_journal_page_first 5093
_journal_name_full 'J.Med.Chem. '
loop_
_publ_author_name
"T.Kolasa"
"M.A.Matulenko"
"A.A.Hakeem"
"M.V.Patel"
"K.Mortell"
"P.Bhatia"
"R.Henry"
"M.Nakane"
"G.C.Hsieh"
"M.A.Terranova"
"M.E.Uchic"
"L.N.Miller"
"Renje Chang"
"D.L.Donnelly-Roberts"
"M.T.Namovic"
"P.R.Hollingsworth"
"B.Martino"
"O.El Kouhen"
"K.C.Marsh"
"J.M.Wetter"
"R.B.Moreland"
"J.D.Brioni"
"A.O.Stewart"
_chemical_name_systematic
;
(E)-1-Phenyl-3-(4-(pyrimidin-2-yl)piperazin-1-yl)propan-1-one oxime
;
_chemical_melting_point 448.15
_cell_volume    787.408
_exptl_crystal_density_diffrn 1.313
_exptl_special_details
;
Melting point range 448.15-450.15K
dopamine D!4$ receptor agonist

;
_diffrn_ambient_temperature 183.15
#These two values have been output from a single CSD field.
_refine_ls_R_factor_gt 0.039
_refine_ls_wR_factor_gt 0.039
_symmetry_cell_setting monoclinic
_symmetry_space_group_name_H-M 'P n'
_symmetry_Int_Tables_number 7
loop_
_symmetry_equiv_pos_site_id
_symmetry_equiv_pos_as_xyz
1 x,y,z
2 1/2+x,-y,1/2+z
_cell_length_a 5.927(4)
_cell_length_b 15.04(1)
_cell_length_c 9.018(6)
_cell_angle_alpha 90
_cell_angle_beta 101.62(1)
_cell_angle_gamma 90
_cell_formula_units_Z 2
loop_
_atom_type_symbol
_atom_type_radius_bond
C 0.68
H 0.23
N 0.68
O 0.68
loop_
_atom_site_label
_atom_site_type_symbol
_atom_site_fract_x
_atom_site_fract_y
_atom_site_fract_z
O1 O 0.368(2) -0.0598(1) -0.192(1)
N1 N 0.244(2) -0.1274(2) -0.141(1)
N2 N -0.002(2) 0.1312(1) 0.056(1)
N3 N 0.004(2) 0.3192(1) 0.094(1)
N4 N -0.123(2) 0.4223(2) -0.090(1)
N5 N 0.274(2) 0.4037(2) 0.008(1)
C1 C 0.083(2) -0.2627(2) 0.029(1)
C2 C -0.048(2) -0.3256(2) 0.082(1)
C3 C -0.235(2) -0.3016(2) 0.137(1)
C4 C -0.293(2) -0.2141(2) 0.144(1)
C5 C -0.161(2) -0.1503(2) 0.095(1)
C6 C 0.026(2) -0.1729(2) 0.034(1)
C7 C 0.162(2) -0.1048(2) -0.027(1)
C8 C 0.191(2) -0.0148(2) 0.048(1)
C9 C 0.020(2) 0.0523(2) -0.036(1)
C10 C -0.186(2) 0.1880(2) -0.026(1)
C11 C -0.212(2) 0.2716(2) 0.061(1)
C12 C 0.186(2) 0.2637(2) 0.179(1)
C13 C 0.214(2) 0.1809(2) 0.091(1)
C14 C 0.055(2) 0.3834(2) 0.000(1)
C15 C -0.070(2) 0.4873(2) -0.176(1)
C16 C 0.148(2) 0.5135(2) -0.177(1)
C17 C 0.315(2) 0.4695(2) -0.082(1)
H1 H 0.20820 -0.28030 -0.01320
H2 H -0.00810 -0.38660 0.08190
H3 H -0.32920 -0.34600 0.17200
H4 H -0.42550 -0.19800 0.18400
H5 H -0.20180 -0.08940 0.10220
H6 H 0.16570 -0.01990 0.15040
H7 H 0.34160 0.00650 0.05190
H8 H -0.15320 0.20390 -0.12030
H9 H -0.32860 0.15580 -0.04150
H10 H -0.25950 0.25640 0.15370
H11 H -0.32890 0.30830 0.00280
H12 H 0.32450 0.29620 0.19710
H13 H 0.14620 0.24770 0.27280
H14 H 0.32870 0.14500 0.15080
H15 H 0.25780 0.19720 0.00020
H16 H -0.19460 0.51740 -0.24030
H17 H 0.18120 0.56030 -0.23950
H18 H 0.46900 0.48630 -0.07700
H19 H 0.42820 -0.08030 -0.26170
H20 H -0.12900 0.02440 -0.06310
H21 H 0.06750 0.07020 -0.12520
#END
