
#######################################################################
#
#                 Cambridge Crystallographic Data Centre
#                                CCDC
#
#######################################################################
#
# If this CIF has been generated from an entry in the Cambridge
# Structural Database, then it will include bibliographic, chemical,
# crystal, experimental, refinement or atomic coordinate data resulting
# from the CCDC's data processing and validation procedures.
#
#######################################################################

data_CSD_CIF_WIFMOQ
_audit_creation_date 2018-05-22
_audit_creation_method CSD-ConQuest-V1
_database_code_CSD WIFMOQ
_database_code_depnum_ccdc_archive 'CCDC 1814881'
_chemical_formula_sum 'C28 H24 N2 O5'
_chemical_formula_moiety
;
C28 H24 N2 O5
;
_journal_coden_Cambridge 177
_journal_volume 16
_journal_year 2018
_journal_page_first 4170
_journal_name_full 'Org.Biomol.Chem. '
loop_
_publ_author_name
"Jun Cao"
"Jing Sun"
"Chao-Guo Yan"
_chemical_name_systematic
;
3-benzyl-11b-hydroxy-6-(4-nitrophenyl)-1,2,3,4,5,6,6a,11b-octahydro-7H-1,5-met
hanoindeno[1,2-d]azocine-7,12-dione
;
_cell_volume   5581.730
_exptl_crystal_colour 'yellow'
_exptl_crystal_density_diffrn 1.115
_exptl_crystal_description 'block'
_diffrn_ambient_temperature 296
#These two values have been output from a single CSD field.
_refine_ls_R_factor_gt 0.1179
_refine_ls_wR_factor_gt 0.1179
_symmetry_cell_setting monoclinic
_symmetry_space_group_name_H-M 'C 2/c'
_symmetry_Int_Tables_number 15
loop_
_symmetry_equiv_pos_site_id
_symmetry_equiv_pos_as_xyz
1 x,y,z
2 -x,y,1/2-z
3 1/2+x,1/2+y,z
4 1/2-x,1/2+y,1/2-z
5 -x,-y,-z
6 x,-y,-1/2+z
7 -1/2-x,-1/2-y,-z
8 -1/2+x,-1/2-y,-1/2+z
_cell_length_a 17.485(5)
_cell_length_b 23.214(7)
_cell_length_c 13.752(6)
_cell_angle_alpha 90
_cell_angle_beta 90.437(13)
_cell_angle_gamma 90
_cell_formula_units_Z 8
loop_
_atom_type_symbol
_atom_type_radius_bond
C 0.68
H 0.23
N 0.68
O 0.68
loop_
_atom_site_label
_atom_site_type_symbol
_atom_site_fract_x
_atom_site_fract_y
_atom_site_fract_z
C1 C 0.0856(5) -0.1392(3) 0.6254(7)
H1 H 0.07490 -0.10620 0.66110
C2 C 0.0296(6) -0.1820(5) 0.6154(8)
H2 H -0.01870 -0.17630 0.64170
C3 C 0.0452(6) -0.2312(4) 0.5679(10)
H3 H 0.00840 -0.26000 0.56220
C4 C 0.1147(6) -0.2384(4) 0.5287(10)
H4 H 0.12550 -0.27250 0.49610
C5 C 0.1717(6) -0.1956(3) 0.5356(8)
H5 H 0.21940 -0.20180 0.50810
C6 C 0.1569(4) -0.1453(3) 0.5826(6)
C7 C 0.2168(4) -0.0979(3) 0.5892(6)
H6 H 0.21270 -0.07960 0.65240
H7 H 0.26700 -0.11560 0.58610
C8 C 0.1467(5) -0.0155(3) 0.5213(6)
H8 H 0.14090 -0.00280 0.58810
H9 H 0.10090 -0.03660 0.50290
C9 C 0.1551(4) 0.0371(3) 0.4553(6)
H10 H 0.10740 0.05910 0.45640
C10 C 0.1672(5) 0.0139(3) 0.3522(6)
C11 C 0.2353(4) -0.0230(3) 0.3467(5)
H11 H 0.24020 -0.03760 0.28010
C12 C 0.2214(4) -0.0745(3) 0.4163(5)
H12 H 0.17570 -0.09520 0.39640
H13 H 0.26430 -0.10090 0.41380
C13 C 0.3112(4) 0.0102(3) 0.3757(5)
C14 C 0.3732(4) -0.0294(2) 0.4065(6)
C15 C 0.4179(5) -0.0665(3) 0.3502(7)
H14 H 0.41130 -0.06780 0.28300
C16 C 0.4708(5) -0.1003(3) 0.3943(7)
H15 H 0.50060 -0.12460 0.35650
C17 C 0.4817(5) -0.0996(3) 0.4929(7)
H16 H 0.51800 -0.12360 0.52180
C18 C 0.4377(5) -0.0625(3) 0.5494(6)
H17 H 0.44400 -0.06200 0.61660
C19 C 0.3870(4) -0.0279(3) 0.5076(6)
C20 C 0.3331(4) 0.0159(3) 0.5465(6)
C21 C 0.3006(4) 0.0503(3) 0.4650(5)
H18 H 0.33540 0.08290 0.45560
C22 C 0.2211(4) 0.0767(3) 0.4867(5)
H19 H 0.21790 0.08060 0.55750
C23 C 0.2095(4) 0.1366(3) 0.4446(6)
C24 C 0.2343(6) 0.1524(3) 0.3530(7)
H20 H 0.26100 0.12630 0.31480
C25 C 0.2191(7) 0.2071(3) 0.3189(7)
H21 H 0.23490 0.21730 0.25670
C26 C 0.1824(5) 0.2459(3) 0.3729(9)
C27 C 0.1596(5) 0.2328(3) 0.4674(9)
H22 H 0.13660 0.26030 0.50670
C28 C 0.1727(4) 0.1773(3) 0.5001(7)
H23 H 0.15610 0.16700 0.56180
N1 N 0.2125(3) -0.0531(2) 0.5146(4)
N2 N 0.1700(6) 0.3050(3) 0.3335(9)
O1 O 0.1234(3) 0.0238(2) 0.2851(5)
O2 O 0.3311(3) 0.04554(18) 0.2923(3)
O3 O 0.3244(3) 0.02557(19) 0.6342(4)
O4 O 0.1335(5) 0.3372(3) 0.3827(9)
O5 O 0.2043(8) 0.3189(3) 0.2601(8)
H24 H 0.382(2) 0.062(4) 0.297(7)
#END
