
#######################################################################
#
#                 Cambridge Crystallographic Data Centre
#                                CCDC
#
#######################################################################
#
# If this CIF has been generated from an entry in the Cambridge
# Structural Database, then it will include bibliographic, chemical,
# crystal, experimental, refinement or atomic coordinate data resulting
# from the CCDC's data processing and validation procedures.
#
#######################################################################

data_CSD_CIF_WIFQUY
_audit_creation_date 2007-09-20
_audit_creation_method CSD-ConQuest-V1
_database_code_CSD WIFQUY
_database_code_depnum_ccdc_archive 'CCDC 635861'
_chemical_formula_sum 'C24 H26 N4 O7'
_chemical_formula_moiety
;
C24 H26 N4 O7
;
_journal_coden_Cambridge 24
_journal_volume 48
_journal_year 2007
_journal_page_first 4243
_journal_name_full 'Tetrahedron Lett. '
loop_
_publ_author_name
"Jung Hyun Kim"
"Sun Ho Jung"
_chemical_name_systematic
;
4-(4-(2-((2,4-Dinitrophenyl)hydrazono)-3-phenylpropoxy)butyl)-5,6-dihydropyran
-2-one
;
_cell_volume   2392.515
_exptl_crystal_colour 'yellow'
_exptl_crystal_description 'block'
_diffrn_ambient_temperature 296.1
#These two values have been output from a single CSD field.
_refine_ls_R_factor_gt 0.055
_refine_ls_wR_factor_gt 0.055
_symmetry_cell_setting monoclinic
_symmetry_space_group_name_H-M 'P 21/c'
_symmetry_Int_Tables_number 14
loop_
_symmetry_equiv_pos_site_id
_symmetry_equiv_pos_as_xyz
1 x,y,z
2 -x,1/2+y,1/2-z
3 -x,-y,-z
4 x,-1/2-y,-1/2+z
_cell_length_a 19.874(2)
_cell_length_b 6.8051(7)
_cell_length_c 20.335(2)
_cell_angle_alpha 90
_cell_angle_beta 119.548(5)
_cell_angle_gamma 90
_cell_formula_units_Z 4
loop_
_atom_type_symbol
_atom_type_radius_bond
C 0.68
H 0.23
N 0.68
O 0.68
loop_
_atom_site_label
_atom_site_type_symbol
_atom_site_fract_x
_atom_site_fract_y
_atom_site_fract_z
O1 O 0.7386(1) 0.1666(3) 0.8310(1)
O2 O 0.6217(1) 0.1794(3) 0.8927(1)
O3 O 0.2678(1) 0.1731(3) 0.7466(1)
O4 O 0.5332(1) 0.1896(3) 0.9241(1)
O5 O 0.2284(1) 0.1735(3) 0.6265(1)
O6 O 1.0725(2) 0.8604(5) 1.2354(2)
O7 O 1.1166(1) 0.5592(6) 1.2557(1)
N1 N 0.5534(1) 0.1842(3) 0.8760(1)
N2 N 0.5859(1) 0.1838(3) 0.7500(1)
N3 N 0.5950(1) 0.2040(3) 0.6869(1)
N4 N 0.2803(1) 0.1740(4) 0.6926(2)
C1 C 0.5130(1) 0.1816(4) 0.7385(1)
C2 C 0.4941(1) 0.1818(4) 0.7974(1)
C3 C 0.4182(1) 0.1799(4) 0.7825(1)
C4 C 0.4499(1) 0.1809(4) 0.6637(1)
C5 C 0.6627(2) 0.2012(4) 0.6949(1)
C6 C 0.3598(1) 0.1773(4) 0.7090(2)
C7 C 0.3756(2) 0.1764(4) 0.6493(1)
C8 C 0.6773(2) 0.0303(4) 0.5934(1)
C9 C 0.6161(2) -0.1007(5) 0.5615(1)
C10 C 0.6666(2) 0.2253(4) 0.6223(2)
C11 C 0.7400(2) 0.1763(4) 0.7624(2)
C12 C 0.8148(2) 0.1729(5) 0.8944(2)
C13 C 0.8872(2) 0.2042(5) 1.0374(2)
C14 C 0.9940(2) 0.4528(6) 1.1124(2)
C15 C 0.6234(2) -0.2803(5) 0.5356(2)
C16 C 0.7552(2) -0.2074(7) 0.5721(2)
C17 C 1.0621(2) 0.6920(8) 1.2139(3)
C18 C 0.7477(2) -0.0252(5) 0.5995(1)
C19 C 0.8087(2) 0.1878(5) 0.9648(2)
C20 C 1.0591(2) 0.3130(5) 1.1541(2)
C21 C 0.9308(2) 0.3948(5) 1.0367(2)
C22 C 0.6920(3) -0.3321(5) 0.5407(2)
C23 C 1.0975(2) 0.3551(7) 1.2372(2)
C24 C 0.9961(2) 0.6261(6) 1.1430(2)
H1 H 0.62640 0.18720 0.79550
H2 H 0.40330 0.18390 0.82740
H3 H 0.46470 0.16060 0.62310
H4 H 0.32540 0.17600 0.59420
H5 H 0.55110 -0.04630 0.54280
H6 H 0.71820 0.31470 0.63490
H7 H 0.60820 0.28870 0.58490
H8 H 0.77890 0.30220 0.76380
H9 H 0.77890 0.05620 0.76280
H10 H 0.85240 0.29920 0.89900
H11 H 0.85640 0.05220 0.89500
H12 H 0.87670 0.24630 1.08650
H13 H 0.93360 0.11130 1.03950
H14 H 0.56850 -0.36030 0.49840
H15 H 0.81260 -0.24370 0.57490
H16 H 0.79540 0.09060 0.62070
H17 H 0.78170 0.07700 0.96850
H18 H 1.11120 0.35320 1.14330
H19 H 1.04420 0.15620 1.13830
H20 H 0.95030 0.37690 0.99570
H21 H 0.88430 0.48190 1.01370
H22 H 1.06390 0.31380 1.25540
H23 H 0.69640 -0.45700 0.52220
H24 H 0.78030 0.30390 0.96060
H25 H 0.95280 0.71120 1.11800
H26 H 1.14410 0.28120 1.26150
#END
