
#######################################################################
#
#                 Cambridge Crystallographic Data Centre
#                                CCDC
#
#######################################################################
#
# If this CIF has been generated from an entry in the Cambridge
# Structural Database, then it will include bibliographic, chemical,
# crystal, experimental, refinement or atomic coordinate data resulting
# from the CCDC's data processing and validation procedures.
#
#######################################################################

data_CSD_CIF_WIGCOF
_audit_creation_date 2007-09-20
_audit_creation_method CSD-ConQuest-V1
_database_code_CSD WIGCOF
_database_code_depnum_ccdc_archive 'CCDC 632903'
_chemical_formula_sum 'C23 H24 N2 O7'
_chemical_formula_moiety
;
C23 H24 N2 O7
;
_journal_coden_Cambridge 16
_journal_volume 63
_journal_year 2007
_journal_page_first 6287
_journal_name_full 'Tetrahedron '
loop_
_publ_author_name
"P.Kumar"
"E.J.Thomas"
"D.Tray"
_chemical_name_systematic
;
(Z)-(2SR,3'RS)-2-Methoxy-1-(3-(p-nitrophenyl)-3-(p-nitrophenylcarbonyloxy)prop
ylidene)cyclohexane
;
_chemical_melting_point 390.15
_cell_volume   1098.629
_exptl_crystal_colour 'colorless'
_exptl_crystal_density_diffrn 1.334
_exptl_special_details
;
Melting point range 390.15-392.15K

;
_exptl_crystal_description 'tabular'
_exptl_crystal_preparation 'ether'
_diffrn_ambient_temperature 296.2
_refine_special_details
;
The oxygen of the carbonyl moiety is disordered with occupancies 0.49:0.51. 
An oxygen atom of a nitro group is disordered with occupancies 0.62:0.38.
;
#These two values have been output from a single CSD field.
_refine_ls_R_factor_gt 0.0543
_refine_ls_wR_factor_gt 0.0543
_symmetry_cell_setting triclinic
_symmetry_space_group_name_H-M 'P -1'
_symmetry_Int_Tables_number 2
loop_
_symmetry_equiv_pos_site_id
_symmetry_equiv_pos_as_xyz
1 x,y,z
2 -x,-y,-z
_cell_length_a 8.8687(17)
_cell_length_b 20.469(4)
_cell_length_c 6.2009(15)
_cell_angle_alpha 93.582(17)
_cell_angle_beta 99.109(18)
_cell_angle_gamma 81.589(16)
_cell_formula_units_Z 2
loop_
_atom_type_symbol
_atom_type_radius_bond
C 0.68
H 0.23
N 0.68
O 0.68
loop_
_atom_site_label
_atom_site_type_symbol
_atom_site_fract_x
_atom_site_fract_y
_atom_site_fract_z
O1 O 0.9074(2) 0.33455(8) 0.0795(3)
O2? O 1.0444(18) 0.3111(12) -0.191(3)
O3 O 0.984(4) 0.3406(14) -0.2371(12)
O4 O 1.347(2) 0.5637(10) 0.5572(14)
O5? O 1.291(3) 0.5903(17) 0.464(9)
O6 O 1.4536(3) 0.56371(13) 0.2714(4)
O7 O 0.40712(17) 0.22137(7) 0.4684(2)
O8 O 1.1685(3) 0.04742(14) 0.6223(4)
O9 O 1.1538(3) -0.00550(12) 0.3116(5)
N1 N 1.3539(3) 0.54884(11) 0.3579(4)
N2 N 1.1313(2) 0.04463(13) 0.4252(5)
C1 C 0.8204(3) 0.27931(10) 0.0120(4)
H1 H 0.80790 0.27270 -0.14740
C2 C 1.0021(3) 0.35012(11) -0.0421(4)
C3 C 1.0937(2) 0.40194(10) 0.0653(3)
C4 C 1.0778(3) 0.42711(13) 0.2703(4)
H2 H 1.00830 0.41190 0.34610
C5 C 1.1640(3) 0.47503(14) 0.3664(5)
H3 H 1.15360 0.49200 0.50680
C6 C 1.2644(2) 0.49715(10) 0.2531(4)
C7 C 1.2859(4) 0.47207(16) 0.0545(4)
H4 H 1.35740 0.48680 -0.01880
C8 C 1.1998(4) 0.42374(16) -0.0403(4)
H5 H 1.21440 0.40580 -0.17820
C9 C 0.6639(3) 0.29992(11) 0.0837(4)
H6 H 0.67650 0.30420 0.24200
H7 H 0.61980 0.34270 0.02640
C10 C 0.5557(2) 0.25047(11) 0.0049(3)
H8 H 0.52200 0.24860 -0.14490
C11 C 0.5022(2) 0.20927(10) 0.1205(3)
H9? H 0.41390 0.24270 0.13990
C12 C 0.5413(2) 0.20371(10) 0.3636(3)
H10 H 0.61810 0.23280 0.42110
C13 C 0.6054(3) 0.13306(11) 0.4205(4)
H11 H 0.62100 0.12960 0.57800
H12 H 0.70470 0.12150 0.37140
C14 C 0.4980(3) 0.08458(12) 0.3159(5)
H13 H 0.54650 0.03980 0.34680
H14 H 0.40340 0.09240 0.37920
C15 C 0.4603(3) 0.09150(13) 0.0717(5)
H15 H 0.38630 0.06220 0.01140
H16 H 0.55310 0.07850 0.00620
C16 C 0.3942(3) 0.16198(12) 0.0150(4)
H17 H 0.37830 0.16580 -0.14240
H18 H 0.29510 0.17330 0.06520
C17 C 0.3407(3) 0.28730(13) 0.4442(5)
H19 H 0.41780 0.31570 0.49110
H20 H 0.25940 0.29720 0.53150
H21 H 0.29940 0.29420 0.29340
C18 C 0.9075(2) 0.21806(10) 0.1176(3)
C19 C 0.9712(3) 0.22017(12) 0.3371(4)
H22 H 0.96300 0.26020 0.41700
C20 C 1.0456(3) 0.16422(13) 0.4374(4)
H23 H 1.08920 0.16600 0.58390
C21 C 1.0548(2) 0.10527(12) 0.3170(4)
C22 C 0.9940(3) 0.10154(12) 0.1002(4)
H24 H 1.00260 0.06140 0.02110
C23 C 0.9200(3) 0.15817(11) 0.0016(4)
H25 H 0.87770 0.15620 -0.14540
#END
