
#######################################################################
#
#                 Cambridge Crystallographic Data Centre
#                                CCDC
#
#######################################################################
#
# If this CIF has been generated from an entry in the Cambridge
# Structural Database, then it will include bibliographic, chemical,
# crystal, experimental, refinement or atomic coordinate data resulting
# from the CCDC's data processing and validation procedures.
#
#######################################################################

data_CSD_CIF_WIGWAM
_audit_creation_date 2013-05-26
_audit_creation_method CSD-ConQuest-V1
_database_code_CSD WIGWAM
_database_code_depnum_ccdc_archive 'CCDC 935659'
_chemical_formula_sum 'C28 H18 N2 O5'
_chemical_formula_moiety
;
C28 H18 N2 O5
;
_journal_coeditor_code "IUCr sj5303"
_journal_coden_Cambridge 1370
_journal_volume 69
_journal_year 2013
_journal_page_first o543
_journal_name_full 'Acta Crystallogr.,Sect.E:Struct.Rep.Online '
loop_
_publ_author_name
"B.C.Manjunath"
"S.Madan Kumar"
"K.S.Vinay Kumar"
"M.Prabhuswamy"
"M.P.Sadashiva"
"N.K.Lokanath"
_chemical_name_systematic
;
4-(5-(4-Benzoyloxyphenyl)-1,2,4-oxadiazol-3-yl)phenyl benzoate
;
_chemical_name_common
;
4,4'-(1,2,4-Oxadiazole-3,5-diyl)bis(4,1-phenylene) dibenzoate
;
_chemical_melting_point 363.15
_cell_volume   2285.734
_exptl_crystal_colour 'white'
_exptl_crystal_density_diffrn 1.344
_exptl_crystal_description 'needle'
_exptl_crystal_preparation 'ethyl acetate/hexane'
_diffrn_ambient_temperature 300
#These two values have been output from a single CSD field.
_refine_ls_R_factor_gt 0.0678
_refine_ls_wR_factor_gt 0.0678
_symmetry_cell_setting monoclinic
_symmetry_space_group_name_H-M 'P 21/c'
_symmetry_Int_Tables_number 14
loop_
_symmetry_equiv_pos_site_id
_symmetry_equiv_pos_as_xyz
1 x,y,z
2 -x,1/2+y,1/2-z
3 -x,-y,-z
4 x,-1/2-y,-1/2+z
_cell_length_a 21.069(18)
_cell_length_b 6.063(5)
_cell_length_c 18.727(16)
_cell_angle_alpha 90
_cell_angle_beta 107.159(13)
_cell_angle_gamma 90
_cell_formula_units_Z 4
loop_
_atom_type_symbol
_atom_type_radius_bond
C 0.68
H 0.23
N 0.68
O 0.68
loop_
_atom_site_label
_atom_site_type_symbol
_atom_site_fract_x
_atom_site_fract_y
_atom_site_fract_z
O1 O 0.53828(13) 1.1931(4) 0.31832(14)
O2 O 0.76931(12) 0.6953(4) 0.21732(12)
O3 O 0.84189(14) 0.9715(5) 0.25694(17)
O4 O 0.29559(10) 0.7471(3) 0.52085(12)
O5 O 0.25276(10) 0.4910(4) 0.43300(12)
N1 N 0.48512(12) 1.1945(4) 0.35022(14)
N2 N 0.53434(12) 0.8645(4) 0.36922(13)
C1 C 0.56466(16) 0.9925(5) 0.33120(16)
C2 C 0.48632(15) 0.9947(5) 0.37851(16)
C3 C 0.62017(15) 0.9293(5) 0.30344(16)
C4 C 0.64460(17) 1.0655(5) 0.25813(18)
C5 C 0.69506(19) 0.9989(6) 0.23065(18)
C6 C 0.72168(16) 0.7925(6) 0.24910(17)
C7 C 0.69841(17) 0.6508(6) 0.29357(19)
C8 C 0.64812(17) 0.7210(6) 0.32118(19)
C9 C 0.8266(2) 0.7982(6) 0.22570(19)
C10 C 0.87083(16) 0.6675(6) 0.19119(17)
C11 C 0.9304(2) 0.7655(7) 0.1915(2)
C12 C 0.9727(2) 0.654(1) 0.1601(3)
C13 C 0.9549(3) 0.4485(10) 0.1288(3)
C14 C 0.8977(2) 0.3540(7) 0.1302(2)
C15 C 0.85597(18) 0.4614(6) 0.16063(19)
C16 C 0.43672(14) 0.9309(5) 0.41587(16)
C17 C 0.38540(16) 1.0725(5) 0.41790(18)
C18 C 0.33900(16) 1.0085(5) 0.45203(18)
C19 C 0.34337(14) 0.8044(5) 0.48421(17)
C20 C 0.39386(14) 0.6606(5) 0.48425(17)
C21 C 0.44033(14) 0.7249(5) 0.44904(18)
C22 C 0.25088(13) 0.5876(5) 0.48832(17)
C23 C 0.20080(14) 0.5533(5) 0.52860(15)
C24 C 0.18931(16) 0.7044(6) 0.57868(19)
C25 C 0.14077(19) 0.6633(7) 0.6137(2)
C26 C 0.1046(2) 0.4723(8) 0.5987(2)
C27 C 0.1155(2) 0.3225(7) 0.5490(2)
C28 C 0.16333(17) 0.3616(6) 0.51374(19)
H1 H 0.62630 1.20520 0.24610
H2 H 0.71090 1.09150 0.20020
H3 H 0.71640 0.51040 0.30460
H4 H 0.63270 0.62840 0.35200
H5 H 0.94170 0.90420 0.21260
H6 H 1.01290 0.71690 0.15990
H7 H 0.98290 0.37480 0.10660
H8 H 0.88690 0.21390 0.11010
H9 H 0.81630 0.39450 0.16090
H10 H 0.38250 1.21130 0.39600
H11 H 0.30470 1.10360 0.45330
H12 H 0.39680 0.52360 0.50730
H13 H 0.47430 0.62860 0.44770
H14 H 0.21410 0.83370 0.58900
H15 H 0.13290 0.76530 0.64710
H16 H 0.07250 0.44430 0.62250
H17 H 0.09040 0.19370 0.53890
H18 H 0.17050 0.25920 0.48000
#END
