
#######################################################################
#
#                 Cambridge Crystallographic Data Centre
#                                CCDC
#
#######################################################################
#
# If this CIF has been generated from an entry in the Cambridge
# Structural Database, then it will include bibliographic, chemical,
# crystal, experimental, refinement or atomic coordinate data resulting
# from the CCDC's data processing and validation procedures.
#
#######################################################################

data_CSD_CIF_WIGYOC
_audit_creation_date 2013-05-26
_audit_creation_method CSD-ConQuest-V1
_database_code_CSD WIGYOC
_database_code_depnum_ccdc_archive 'CCDC 935646'
_chemical_formula_sum 'C13 H10 N2 O4'
_chemical_formula_moiety
;
C13 H10 N2 O4
;
_journal_coeditor_code "IUCr tk5203"
_journal_coden_Cambridge 1370
_journal_volume 69
_journal_year 2013
_journal_page_first o526
_journal_name_full 'Acta Crystallogr.,Sect.E:Struct.Rep.Online '
loop_
_publ_author_name
"G.Waris"
"H.M.Siddiqi"
"U.Florke"
"S.Saeed"
"M.S.Butt"
_chemical_name_systematic
;
N-(4-Hydroxyphenyl)-4-nitrobenzamide
;
_cell_volume   1114.532
_exptl_crystal_colour 'yellow'
_exptl_crystal_density_diffrn 1.539
_exptl_crystal_description 'prism'
_diffrn_ambient_temperature 130
#These two values have been output from a single CSD field.
_refine_ls_R_factor_gt 0.0479
_refine_ls_wR_factor_gt 0.0479
_symmetry_cell_setting monoclinic
_symmetry_space_group_name_H-M 'P 21/c'
_symmetry_Int_Tables_number 14
loop_
_symmetry_equiv_pos_site_id
_symmetry_equiv_pos_as_xyz
1 x,y,z
2 -x,1/2+y,1/2-z
3 -x,-y,-z
4 x,-1/2-y,-1/2+z
_cell_length_a 7.5187(5)
_cell_length_b 12.5695(9)
_cell_length_c 11.7932(8)
_cell_angle_alpha 90
_cell_angle_beta 90.033(2)
_cell_angle_gamma 90
_cell_formula_units_Z 4
loop_
_atom_type_symbol
_atom_type_radius_bond
C 0.68
H 0.23
N 0.68
O 0.68
loop_
_atom_site_label
_atom_site_type_symbol
_atom_site_fract_x
_atom_site_fract_y
_atom_site_fract_z
O1 O 0.39417(17) 0.43715(9) 0.63125(11)
O2 O 0.0650(2) 0.00255(10) 0.33969(12)
O3 O -0.01095(17) 0.10678(10) 0.20187(10)
O4 O 0.41630(19) 0.95533(9) 0.66718(11)
H1 H 0.47040 0.95340 0.72950
N1 N 0.23878(18) 0.54813(10) 0.51520(12)
H2 H 0.16120 0.54840 0.45930
N2 N 0.05435(19) 0.09059(11) 0.29598(12)
C1 C 0.2983(2) 0.45176(13) 0.54794(13)
C2 C 0.2378(2) 0.35909(12) 0.47682(14)
C3 C 0.1658(2) 0.37062(13) 0.36841(14)
H3 H 0.15790 0.43930 0.33510
C4 C 0.1057(2) 0.28251(13) 0.30913(14)
H4 H 0.05410 0.29010 0.23600
C5 C 0.1225(2) 0.18327(12) 0.35856(14)
C6 C 0.1982(2) 0.16825(13) 0.46470(15)
H5 H 0.20980 0.09910 0.49620
C7 C 0.2562(2) 0.25726(13) 0.52325(14)
H6 H 0.30910 0.24910 0.59590
C8 C 0.2858(2) 0.64971(12) 0.55977(14)
C9 C 0.2564(2) 0.73771(13) 0.49077(14)
H7 H 0.20550 0.72800 0.41770
C10 C 0.3001(2) 0.83960(13) 0.52705(15)
H8 H 0.27960 0.89910 0.47910
C11 C 0.3742(2) 0.85379(13) 0.63415(14)
C12 C 0.4006(2) 0.76651(13) 0.70399(14)
H9 H 0.44980 0.77640 0.77740
C13 C 0.3560(2) 0.66451(13) 0.66782(14)
H10 H 0.37340 0.60530 0.71670
#END
