
#######################################################################
#
#                 Cambridge Crystallographic Data Centre
#                                CCDC
#
#######################################################################
#
# If this CIF has been generated from an entry in the Cambridge
# Structural Database, then it will include bibliographic, chemical,
# crystal, experimental, refinement or atomic coordinate data resulting
# from the CCDC's data processing and validation procedures.
#
#######################################################################

data_CSD_CIF_WIHBEV
_audit_creation_date 2007-09-20
_audit_creation_method CSD-ConQuest-V1
_database_code_CSD WIHBEV
_database_code_depnum_ccdc_archive 'CCDC 654952'
_chemical_formula_sum 'C14 H11 N3 O4'
_chemical_formula_moiety
;
C14 H11 N3 O4
;
_journal_coeditor_code "IUCr BI2195"
_journal_coden_Cambridge 1370
_journal_volume 63
_journal_year 2007
_journal_page_first o3208
_journal_name_full 'Acta Crystallogr.,Sect.E:Struct.Rep.Online '
loop_
_publ_author_name
"Sen-Lin Yang"
"Zhi-Gang Luo"
_chemical_name_systematic
;
N'-(2-Nitrobenzoyl)benzohydrazide
;
_cell_volume   1367.792
_exptl_crystal_colour 'colorless'
_exptl_crystal_density_diffrn 1.385
_exptl_crystal_description 'block'
_exptl_crystal_preparation 'ethyl acetate'
_diffrn_ambient_temperature 298
#These two values have been output from a single CSD field.
_refine_ls_R_factor_gt 0.042
_refine_ls_wR_factor_gt 0.042
_symmetry_cell_setting monoclinic
_symmetry_space_group_name_H-M 'P 21/n'
_symmetry_Int_Tables_number 14
loop_
_symmetry_equiv_pos_site_id
_symmetry_equiv_pos_as_xyz
1 x,y,z
2 1/2-x,1/2+y,1/2-z
3 -x,-y,-z
4 -1/2+x,-1/2-y,-1/2+z
_cell_length_a 8.2363(16)
_cell_length_b 12.834(3)
_cell_length_c 12.955(3)
_cell_angle_alpha 90
_cell_angle_beta 92.78(3)
_cell_angle_gamma 90
_cell_formula_units_Z 4
loop_
_atom_type_symbol
_atom_type_radius_bond
C 0.68
H 0.23
N 0.68
O 0.68
loop_
_atom_site_label
_atom_site_type_symbol
_atom_site_fract_x
_atom_site_fract_y
_atom_site_fract_z
O1 O 0.07092(13) -0.01088(8) 0.37340(8)
C1 C 0.19938(19) -0.05391(11) 0.39718(12)
O2 O 0.43196(14) 0.15833(9) 0.48726(9)
C2 C 0.28541(18) -0.23966(11) 0.34355(11)
N1 N 0.24453(17) 0.0493(1) 0.54726(10)
C3 C 0.31783(18) 0.14319(12) 0.54234(11)
C4 C 0.27361(17) -0.13295(11) 0.32778(11)
N2 N 0.21728(19) -0.28640(11) 0.43411(11)
O3 O 0.13109(17) -0.23342(11) 0.48638(10)
N3 N 0.29262(18) -0.02943(11) 0.48098(11)
C5 C 0.4118(2) -0.15825(13) 0.16931(13)
H1 H 0.45530 -0.13030 0.11050
C6 C 0.3380(2) -0.09398(12) 0.23843(12)
H2 H 0.33110 -0.02290 0.22490
C7 C 0.3582(2) -0.30420(12) 0.27425(13)
H3 H 0.36430 -0.37550 0.28670
C8 C 0.25532(18) 0.22508(12) 0.61152(12)
C9 C 0.4212(2) -0.26365(13) 0.18751(13)
H4 H 0.47030 -0.30720 0.14080
C10 C 0.1773(2) 0.20236(14) 0.70013(14)
H5 H 0.16000 0.13330 0.71850
O4 O 0.2459(3) -0.37735(12) 0.45241(13)
C11 C 0.2827(2) 0.32818(14) 0.58496(16)
H6 H 0.33830 0.34420 0.52620
C12 C 0.1241(2) 0.2825(2) 0.76252(16)
H7 H 0.07160 0.26730 0.82260
C13 C 0.1499(3) 0.3842(2) 0.7347(2)
H8 H 0.11470 0.43800 0.77620
C14 C 0.2263(3) 0.40685(16) 0.6470(2)
H9 H 0.24090 0.47610 0.62830
H10 H 0.146(2) 0.0389(12) 0.5726(12)
H11 H 0.382(2) -0.0660(15) 0.5020(14)
#END
