
#######################################################################
#
#                 Cambridge Crystallographic Data Centre
#                                CCDC
#
#######################################################################
#
# If this CIF has been generated from an entry in the Cambridge
# Structural Database, then it will include bibliographic, chemical,
# crystal, experimental, refinement or atomic coordinate data resulting
# from the CCDC's data processing and validation procedures.
#
#######################################################################

data_CSD_CIF_WIHBIA
_audit_creation_date 2013-05-26
_audit_creation_method CSD-ConQuest-V1
_database_code_CSD WIHBIA
_database_code_depnum_ccdc_archive 'CCDC 935637'
_chemical_formula_sum 'C16 H11 N1 O4'
_chemical_formula_moiety
;
C16 H11 N1 O4
;
_journal_coeditor_code "IUCr fj2618"
_journal_coden_Cambridge 1370
_journal_volume 69
_journal_year 2013
_journal_page_first o513
_journal_name_full 'Acta Crystallogr.,Sect.E:Struct.Rep.Online '
loop_
_publ_author_name
"K.Gopaul"
"N.A.Koorbanally"
"M.M.Shaikh"
"D.Ramjugernath"
"H.Su"
_chemical_name_systematic
;
3-(4-Nitrobenzyl)-4H-chromen-4-one
;
_cell_volume   1276.282
_exptl_crystal_colour 'colorless'
_exptl_crystal_density_diffrn 1.464
_exptl_crystal_description 'needle'
_diffrn_ambient_temperature 173
_diffrn_special_details
;
twin

;
#These two values have been output from a single CSD field.
_refine_ls_R_factor_gt 0.0504
_refine_ls_wR_factor_gt 0.0504
_symmetry_cell_setting monoclinic
_symmetry_space_group_name_H-M 'P 21/n'
_symmetry_Int_Tables_number 14
loop_
_symmetry_equiv_pos_site_id
_symmetry_equiv_pos_as_xyz
1 x,y,z
2 1/2-x,1/2+y,1/2-z
3 -x,-y,-z
4 -1/2+x,-1/2-y,-1/2+z
_cell_length_a 4.9246(9)
_cell_length_b 10.0160(19)
_cell_length_c 25.907(5)
_cell_angle_alpha 90
_cell_angle_beta 92.845(4)
_cell_angle_gamma 90
_cell_formula_units_Z 4
loop_
_atom_type_symbol
_atom_type_radius_bond
C 0.68
H 0.23
N 0.68
O 0.68
loop_
_atom_site_label
_atom_site_type_symbol
_atom_site_fract_x
_atom_site_fract_y
_atom_site_fract_z
O1 O 0.9485(3) 0.30392(15) 0.16095(6)
O2 O 0.3498(3) 0.50967(15) 0.23136(6)
O3 O 0.8175(4) 0.63590(18) 0.49727(6)
O4 O 1.1513(4) 0.7098(2) 0.45470(7)
N1 N 0.9499(4) 0.63878(18) 0.45839(7)
C1 C 0.8059(4) 0.4022(2) 0.13399(8)
C2 C 0.8774(5) 0.2756(2) 0.20963(8)
H1 H 0.97470 0.20630 0.22750
C3 C 0.6800(4) 0.33749(19) 0.23490(7)
C4 C 0.5276(4) 0.44552(19) 0.20968(7)
C5 C 0.5991(4) 0.47384(19) 0.15623(7)
C6 C 0.4653(5) 0.5734(2) 0.12658(8)
H2 H 0.32350 0.62330 0.14100
C7 C 0.5368(5) 0.6000(2) 0.07681(9)
H3 H 0.44570 0.66810 0.05720
C8 C 0.7441(5) 0.5262(3) 0.05552(8)
H4 H 0.79270 0.54450 0.02120
C9 C 0.8801(5) 0.4268(2) 0.08354(8)
H5 H 1.02050 0.37670 0.06880
C10 C 0.6125(5) 0.2953(2) 0.28877(8)
H6 H 0.69710 0.20720 0.29600
H7 H 0.41310 0.28360 0.28950
C11 C 0.7026(4) 0.39038(19) 0.33199(7)
C12 C 0.5763(5) 0.3825(2) 0.37937(8)
H8 H 0.43300 0.32030 0.38310
C13 C 0.6553(5) 0.4630(2) 0.42049(8)
H9 H 0.56820 0.45690 0.45230
C14 C 0.8652(4) 0.55301(19) 0.41435(7)
C15 C 0.9971(4) 0.5640(2) 0.36858(8)
H10 H 1.14110 0.62610 0.36530
C16 C 0.9136(4) 0.4816(2) 0.32739(8)
H11 H 1.00180 0.48790 0.29570
#END
