
#######################################################################
#
#                 Cambridge Crystallographic Data Centre
#                                CCDC
#
#######################################################################
#
# If this CIF has been generated from an entry in the Cambridge
# Structural Database, then it will include bibliographic, chemical,
# crystal, experimental, refinement or atomic coordinate data resulting
# from the CCDC's data processing and validation procedures.
#
#######################################################################

data_CSD_CIF_WIJCEX
_audit_creation_date 1995-09-08
_audit_creation_method CSD-ConQuest-V1
_database_code_CSD WIJCEX
_chemical_formula_sum 'C18 H15 N3 O2'
_chemical_formula_moiety
;
C18 H15 N3 O2
;
_journal_coden_Cambridge 35
_journal_volume 59
_journal_year 1994
_journal_page_first 5742
_journal_name_full 'J.Org.Chem. '
loop_
_publ_author_name
"Yah-Long Liang"
"Jim-Min Fang"
"Tahsin Chow"
"Tong-Ing Ho"
"Chi-Rung Lee"
"Yu Wang"
_chemical_name_systematic
;
2-(N-Methylanilino)-5-(4-nitrophenyl)-2,4-pentadienenitrile
;
_chemical_melting_point 424.15
_cell_volume   1580.575
_exptl_crystal_colour 'red'
_exptl_special_details
;
Melting point range 424.15-425.15K

;
_diffrn_ambient_temperature ?
_diffrn_special_details
;
The study was carried out at room temperature,in the range 283-303K

;
#These two values have been output from a single CSD field.
_refine_ls_R_factor_gt 0.037
_refine_ls_wR_factor_gt 0.037
_symmetry_cell_setting monoclinic
_symmetry_space_group_name_H-M 'P 21/n'
_symmetry_Int_Tables_number 14
loop_
_symmetry_equiv_pos_site_id
_symmetry_equiv_pos_as_xyz
1 x,y,z
2 1/2-x,1/2+y,1/2-z
3 -x,-y,-z
4 -1/2+x,-1/2-y,-1/2+z
_cell_length_a 11.446(2)
_cell_length_b 10.539(6)
_cell_length_c 13.391(5)
_cell_angle_alpha 90
_cell_angle_beta 101.91(2)
_cell_angle_gamma 90
_cell_formula_units_Z 4
loop_
_atom_type_symbol
_atom_type_radius_bond
C 0.68
H 0.23
N 0.68
O 0.68
loop_
_atom_site_label
_atom_site_type_symbol
_atom_site_fract_x
_atom_site_fract_y
_atom_site_fract_z
C1 C 0.89516(24) 0.9488(3) 0.13717(22)
C2 C 0.8344(3) 0.9837(3) 0.04102(23)
C3 C 0.7120(3) 0.9720(3) 0.01436(22)
C4 C 0.6509(3) 0.9260(3) 0.08441(23)
C5 C 0.70971(24) 0.8924(3) 0.18116(22)
C6 C 0.83268(24) 0.9038(3) 0.20813(21)
C7 C 0.99465(23) 0.9338(3) 0.35544(20)
C8 C 1.08809(24) 0.8858(3) 0.42265(21)
C9 C 1.18769(23) 0.9612(3) 0.47262(21)
C10 C 1.28364(24) 0.9164(3) 0.53702(21)
C11 C 1.38789(23) 0.9902(3) 0.58362(20)
C12 C 1.40069(24) 1.1188(3) 0.56427(21)
C13 C 1.5006(3) 1.1856(3) 0.60932(22)
C14 C 1.58961(24) 1.1224(3) 0.67520(21)
C15 C 1.5832(3) 0.9966(3) 0.69671(22)
C16 C 1.48241(25) 0.9305(3) 0.64972(21)
C17 C 0.8703(3) 0.7473(3) 0.34910(24)
C18 C 0.99391(24) 1.0683(3) 0.33669(21)
N1 N 0.89321(20) 0.86908(22) 0.30794(17)
N2 N 0.99859(23) 1.17582(25) 0.32818(19)
N3 N 1.69717(22) 1.1939(3) 0.72250(19)
O1 O 1.71017(22) 1.29936(24) 0.68895(19)
O2 O 1.76846(21) 1.1441(3) 0.79202(18)
H1 H 0.98400 0.95500 0.15600
H2 H 0.87900 1.01500 -0.00900
H3 H 0.66800 0.99900 -0.05400
H4 H 0.56400 0.91600 0.06600
H5 H 0.66500 0.86100 0.23300
H6 H 1.09100 0.79300 0.44200
H7 H 1.18600 1.05400 0.45900
H8 H 1.28300 0.82300 0.55100
H9 H 1.33400 1.16300 0.51700
H10 H 1.50900 1.27800 0.59300
H11 H 1.64900 0.95100 0.74400
H12 H 1.47500 0.83700 0.66400
H13 H 0.93200 0.68600 0.35000
H14 H 0.86100 0.75400 0.42100
H15 H 0.79600 0.70900 0.31400
#END
