
#######################################################################
#
#                 Cambridge Crystallographic Data Centre
#                                CCDC
#
#######################################################################
#
# If this CIF has been generated from an entry in the Cambridge
# Structural Database, then it will include bibliographic, chemical,
# crystal, experimental, refinement or atomic coordinate data resulting
# from the CCDC's data processing and validation procedures.
#
#######################################################################

data_CSD_CIF_WIJMEH
_audit_creation_date 1995-09-13
_audit_creation_method CSD-ConQuest-V1
_database_code_CSD WIJMEH
_database_code_depnum_ccdc_archive 'CCDC 1293676'
_database_code_depnum_ccdc_fiz 'CSD 58136'
_chemical_formula_sum 'C20 H25 N3 O2'
_chemical_formula_moiety
;
C20 H25 N3 O2
;
_journal_coden_Cambridge 48
_journal_volume 127
_journal_year 1994
_journal_page_first 1479
_journal_name_full 'Chem.Ber. '
loop_
_publ_author_name
"P.J.Mackert"
"K.Hafner"
"N.Nimmerfroh"
"K.Banert"
_chemical_name_systematic
;
(Z)-5-t-Butyl-3-cyano-2,2-dimethyl-6-(2-methyl-5-nitrophenylimino)-3,5-hexadie
ne
;
_chemical_melting_point 373.15
_cell_volume    983.827
_exptl_crystal_colour 'yellow'
_exptl_crystal_density_diffrn 1.146
_diffrn_ambient_temperature ?
_diffrn_special_details
;
The study was carried out at room temperature,in the range 283-303K

;
#These two values have been output from a single CSD field.
_refine_ls_R_factor_gt 0.0482
_refine_ls_wR_factor_gt 0.0482
_symmetry_cell_setting triclinic
_symmetry_space_group_name_H-M 'P -1'
_symmetry_Int_Tables_number 2
loop_
_symmetry_equiv_pos_site_id
_symmetry_equiv_pos_as_xyz
1 x,y,z
2 -x,-y,-z
_cell_length_a 8.871(1)
_cell_length_b 10.076(1)
_cell_length_c 12.103(1)
_cell_angle_alpha 71.87(1)
_cell_angle_beta 74.17(1)
_cell_angle_gamma 79.67(1)
_cell_formula_units_Z 2
loop_
_atom_type_symbol
_atom_type_radius_bond
C 0.68
H 0.23
N 0.68
O 0.68
loop_
_atom_site_label
_atom_site_type_symbol
_atom_site_fract_x
_atom_site_fract_y
_atom_site_fract_z
C1 C 0.1222(3) 0.1822(3) 0.3040(2)
C2 C 0.1988(4) 0.2108(4) 0.3774(2)
C3 C 0.2602(4) 0.0985(5) 0.4586(3)
H1 H 0.3166(30) 0.1180(27) 0.5018(24)
C4 C 0.2441(4) -0.0382(5) 0.4689(3)
H2 H 0.2937(33) -0.1196(30) 0.5286(26)
C5 C 0.1670(3) -0.0626(3) 0.3948(2)
C6 C 0.1062(3) 0.0444(3) 0.3115(2)
H3 H 0.0491(26) 0.0247(22) 0.2589(20)
N1 N 0.0567(2) 0.2970(2) 0.2215(2)
C7 C 0.0203(3) 0.2856(2) 0.1347(2)
C8 C -0.0277(3) 0.2878(2) 0.0409(2)
C9 C 0.0797(3) 0.3136(3) -0.0773(2)
H4 H 0.0332(26) 0.3563(22) -0.1442(20)
C10 C 0.2347(3) 0.2785(2) -0.1057(2)
C11 C 0.3116(3) 0.2012(3) -0.0110(2)
N2 N 0.3763(3) 0.1404(3) 0.0625(2)
N3 N 0.1459(4) -0.2086(3) 0.4034(3)
O1 O 0.0769(4) -0.2268(3) 0.3369(3)
O2 O 0.2016(3) -0.3011(3) 0.4777(2)
C12 C 0.2155(5) 0.3602(4) 0.3687(3)
H5 H 0.2903(5) 0.3560(4) 0.4270(3)
H6 H 0.1031(5) 0.4173(4) 0.3958(3)
H7 H 0.2707(5) 0.4127(4) 0.2778(3)
C13 C -0.1981(3) 0.2612(3) 0.0546(2)
C14 C -0.2850(3) 0.3972(3) -0.0104(3)
H8 H -0.2316(3) 0.4255(3) -0.1050(3)
H9 H -0.2859(3) 0.4833(3) 0.0251(3)
H10 H -0.4043(3) 0.3744(3) 0.0039(3)
C15 C -0.1954(3) 0.1432(3) 0.0000(3)
H11 H -0.1357(3) 0.1659(3) -0.0934(3)
H12 H -0.3152(3) 0.1242(3) 0.0105(3)
H13 H -0.1348(3) 0.0513(3) 0.0502(3)
C16 C -0.2845(3) 0.2195(3) 0.1863(2)
H14 H -0.2864(3) 0.2997(3) 0.2287(2)
H15 H -0.2231(3) 0.1232(3) 0.2300(2)
H16 H -0.4038(3) 0.2020(3) 0.1933(2)
C17 C 0.3404(3) 0.3068(3) -0.2314(2)
C18 C 0.4871(3) 0.3700(3) -0.2351(3)
H17 H 0.5581(3) 0.3029(3) -0.1754(3)
H18 H 0.4504(3) 0.4689(3) -0.2136(3)
H19 H 0.5554(3) 0.3883(3) -0.3262(3)
C19 C 0.3911(4) 0.1672(3) -0.2634(3)
H20 H 0.4667(4) 0.1824(3) -0.3521(3)
H21 H 0.2871(4) 0.1225(3) -0.2594(3)
H22 H 0.4535(4) 0.0968(3) -0.1991(3)
C20 C 0.2551(4) 0.4072(3) -0.3227(2)
H23 H 0.3382(4) 0.4292(3) -0.4084(2)
H24 H 0.2128(4) 0.5035(3) -0.2976(2)
H25 H 0.1571(4) 0.3619(3) -0.3287(2)
#END
