
#######################################################################
#
#                 Cambridge Crystallographic Data Centre
#                                CCDC
#
#######################################################################
#
# If this CIF has been generated from an entry in the Cambridge
# Structural Database, then it will include bibliographic, chemical,
# crystal, experimental, refinement or atomic coordinate data resulting
# from the CCDC's data processing and validation procedures.
#
#######################################################################

data_CSD_CIF_WIJRAI03
_audit_creation_date 2001-02-12
_audit_creation_method CSD-ConQuest-V1
_database_code_CSD WIJRAI03
_database_code_depnum_ccdc_archive 'CCDC 143539'
_chemical_formula_sum 'C16 H23 N2 O1'
_chemical_formula_moiety
;
C16 H23 N2 O1
;
_journal_coden_Cambridge 7
_journal_volume 73
_journal_year 2000
_journal_page_first 1333
_journal_name_full 'Bull.Chem.Soc.Jpn. '
loop_
_publ_author_name
"M.Yasui"
"E.Kan-nari"
"T.Ishida"
"T.Nogami"
"F.Iwasaki"
_chemical_name_systematic
;
4-(Benzylideneamino)-2,2,6,6-tetramethyl-1-piperidyloxyl radical
;
_cell_volume   1478.506
_exptl_crystal_colour 'orange'
_exptl_crystal_density_diffrn 1.165
_exptl_crystal_description 'prism'
_exptl_crystal_preparation 'methanol'
_diffrn_ambient_temperature 100
#These two values have been output from a single CSD field.
_refine_ls_R_factor_gt 0.039
_refine_ls_wR_factor_gt 0.039
_symmetry_cell_setting monoclinic
_symmetry_space_group_name_H-M 'P 21/c'
_symmetry_Int_Tables_number 14
loop_
_symmetry_equiv_pos_site_id
_symmetry_equiv_pos_as_xyz
1 x,y,z
2 x,1/2-y,1/2+z
3 -x,-y,-z
4 -x,-1/2+y,-1/2-z
_cell_length_a 12.5774(14)
_cell_length_b 11.6228(16)
_cell_length_c 10.8229(17)
_cell_angle_alpha 90
_cell_angle_beta 110.853(9)
_cell_angle_gamma 90
_cell_formula_units_Z 4
loop_
_atom_type_symbol
_atom_type_radius_bond
C 0.68
H 0.23
N 0.68
O 0.68
loop_
_atom_site_label
_atom_site_type_symbol
_atom_site_fract_x
_atom_site_fract_y
_atom_site_fract_z
O1 O 0.45295(12) 0.8006(1) 0.29619(13)
N1 N 0.40011(9) 0.71703(8) 0.22263(10)
N2 N 0.22557(10) 0.43224(9) -0.00318(10)
C1 C 0.47320(9) 0.62303(9) 0.20131(9)
C2 C 0.40136(9) 0.54042(8) 0.09326(9)
C3 C 0.28929(9) 0.50555(8) 0.10803(9)
C4 C 0.22008(8) 0.61414(8) 0.10325(9)
C5 C 0.27954(9) 0.70122(8) 0.21244(9)
C6 C 0.21216(8) 0.32772(8) 0.02209(9)
C7 C 0.14802(8) 0.24454(8) -0.08008(10)
C8 C 0.09896(9) 0.27623(9) -0.21344(10)
C9 C 0.03555(10) 0.1967(1) -0.30663(10)
C10 C 0.02029(10) 0.08494(10) -0.26873(12)
C11 C 0.06943(10) 0.05283(9) -0.13645(13)
C12 C 0.1332(1) 0.13198(9) -0.04276(11)
C13 C 0.53219(10) 0.56117(10) 0.33343(11)
C14 C 0.56256(10) 0.67985(12) 0.15493(12)
C15 C 0.27686(10) 0.66226(10) 0.34685(10)
C16 C 0.22007(10) 0.81807(9) 0.17697(11)
H1 H 0.30400 0.46500 0.19200
H2 H 0.24500 0.30300 0.10900
H3 H 0.10900 0.35000 -0.23900
H4 H 0.00300 0.21800 -0.39500
H5 H -0.02300 0.03300 -0.33100
H6 H 0.06000 -0.02200 -0.11100
H7 H 0.16600 0.11000 0.04500
H8 H 0.47600 0.52500 0.36200
H9 H 0.57500 0.61600 0.39900
H10 H 0.58300 0.50300 0.32300
H11 H 0.52500 0.71800 0.07200
H12 H 0.61300 0.62200 0.14500
H13 H 0.60500 0.73500 0.22000
H14 H 0.38500 0.57700 0.00800
H15 H 0.44500 0.47200 0.09500
H16 H 0.14800 0.59200 0.11100
H17 H 0.20400 0.65100 0.01800
H18 H 0.30100 0.58400 0.36300
H19 H 0.20100 0.66900 0.34700
H20 H 0.32700 0.71000 0.41600
H21 H 0.14000 0.80900 0.16000
H22 H 0.23100 0.84800 0.10000
H23 H 0.25200 0.87000 0.25000
#END
