
#######################################################################
#
#                 Cambridge Crystallographic Data Centre
#                                CCDC
#
#######################################################################
#
# If this CIF has been generated from an entry in the Cambridge
# Structural Database, then it will include bibliographic, chemical,
# crystal, experimental, refinement or atomic coordinate data resulting
# from the CCDC's data processing and validation procedures.
#
#######################################################################

data_CSD_CIF_WIJRAI01
_audit_creation_date 2000-03-09
_audit_creation_method CSD-ConQuest-V1
_database_code_CSD WIJRAI01
_database_code_depnum_ccdc_archive 'CCDC 138573'
_chemical_formula_sum 'C16 H23 N2 O1'
_chemical_formula_moiety
;
C16 H23 N2 O1
;
_journal_coeditor_code "IUCr OA0021"
_journal_coden_Cambridge 622
_journal_volume 55
_journal_year 1999
_journal_page_first 1057
_journal_name_full 'Acta Crystallogr.,Sect.B:Struct.Sci. '
loop_
_publ_author_name
"F.Iwasaki"
"J.H.Yoshikawa"
"H.Yamamoto"
"K.Takada"
"E.Kan-nari"
"M.Yasui"
"T.Ishida"
"T.Nogami"
_chemical_name_systematic
;
4-Benzylideneamino-2,2,6,6-tetramethylpiperidin-1-oxyl radical
;
_cell_volume   1528.408
_exptl_crystal_colour 'orange'
_exptl_crystal_density_diffrn 1.127
_exptl_crystal_description 'prism'
_exptl_crystal_preparation 'ethanol'
_diffrn_ambient_temperature ?
_diffrn_special_details
;
The study was carried out at room temperature,in the range 283-303K

;
#These two values have been output from a single CSD field.
_refine_ls_R_factor_gt 0.0498
_refine_ls_wR_factor_gt 0.0498
_symmetry_cell_setting monoclinic
_symmetry_space_group_name_H-M 'P 21/c'
_symmetry_Int_Tables_number 14
loop_
_symmetry_equiv_pos_site_id
_symmetry_equiv_pos_as_xyz
1 x,y,z
2 -x,1/2+y,1/2-z
3 -x,-y,-z
4 x,-1/2-y,-1/2+z
_cell_length_a 12.684(7)
_cell_length_b 11.740(2)
_cell_length_c 11.024(3)
_cell_angle_alpha 90
_cell_angle_beta 111.40(4)
_cell_angle_gamma 90
_cell_formula_units_Z 4
loop_
_atom_type_symbol
_atom_type_radius_bond
C 0.68
H 0.23
N 0.68
O 0.68
loop_
_atom_site_label
_atom_site_type_symbol
_atom_site_fract_x
_atom_site_fract_y
_atom_site_fract_z
O1 O 0.45509(13) 0.79615(11) 0.29802(15)
N1 N 0.40152(12) 0.71365(12) 0.22545(13)
N2 N 0.22404(13) 0.43611(13) -0.00187(13)
C1 C 0.47296(14) 0.62041(15) 0.20449(16)
C2 C 0.39983(15) 0.54071(17) 0.09712(17)
C3 C 0.28888(15) 0.50776(14) 0.10926(17)
C4 C 0.22180(15) 0.61558(16) 0.10554(18)
C5 C 0.28115(15) 0.70026(15) 0.21364(16)
C6 C 0.21319(15) 0.33288(15) 0.02044(18)
C7 C 0.14956(13) 0.25068(15) -0.08102(17)
C8 C 0.10021(16) 0.28265(18) -0.21091(18)
C9 C 0.03793(17) 0.2045(2) -0.3032(2)
C10 C 0.02475(18) 0.0948(2) -0.2672(2)
C11 C 0.07377(18) 0.06236(18) -0.1395(3)
C12 C 0.13617(17) 0.13984(17) -0.0463(2)
C13 C 0.5296(2) 0.5574(2) 0.3338(2)
C14 C 0.5621(2) 0.6752(3) 0.1607(3)
C15 C 0.2775(2) 0.6621(2) 0.3451(2)
C16 C 0.2248(2) 0.8166(2) 0.1788(3)
H1 H 0.3008(14) 0.4687(15) 0.1878(18)
H2 H 0.2444(16) 0.2998(16) 0.109(2)
H3 H 0.1109(15) 0.3629(17) -0.2339(17)
H4 H 0.005(2) 0.231(2) -0.394(3)
H5 H -0.0193(19) 0.038(2) -0.327(2)
H6 H 0.069(2) -0.018(2) -0.109(2)
H7 H 0.1742(19) 0.116(2) 0.040(2)
H8 H 0.472(2) 0.518(2) 0.358(2)
H9 H 0.582(2) 0.505(2) 0.330(3)
H10 H 0.571(2) 0.612(2) 0.400(3)
H11 H 0.527(2) 0.717(2) 0.080(3)
H12 H 0.611(2) 0.614(3) 0.152(3)
H13 H 0.607(2) 0.726(2) 0.229(3)
H14 H 0.3813(14) 0.5826(15) 0.0117(18)
H15 H 0.4418(17) 0.4737(18) 0.101(2)
H16 H 0.1479(15) 0.5976(16) 0.1106(16)
H17 H 0.2068(15) 0.6507(16) 0.0179(19)
H18 H 0.3057(17) 0.5859(19) 0.3645(19)
H19 H 0.200(2) 0.663(2) 0.344(2)
H20 H 0.328(2) 0.712(2) 0.417(2)
H21 H 0.145(2) 0.804(2) 0.166(3)
H22 H 0.258(2) 0.872(2) 0.250(2)
H23 H 0.238(2) 0.848(2) 0.099(3)
#END
