
#######################################################################
#
#                 Cambridge Crystallographic Data Centre
#                                CCDC
#
#######################################################################
#
# If this CIF has been generated from an entry in the Cambridge
# Structural Database, then it will include bibliographic, chemical,
# crystal, experimental, refinement or atomic coordinate data resulting
# from the CCDC's data processing and validation procedures.
#
#######################################################################

data_CSD_CIF_WIKCIE
_audit_creation_date 2013-10-18
_audit_creation_method CSD-ConQuest-V1
_database_code_CSD WIKCIE
_database_code_depnum_ccdc_archive 'CCDC 967029; CCDC 425035'
_chemical_formula_sum 'C2 H1 N7 O6'
_chemical_formula_moiety
;
C2 H1 N7 O6
;
_journal_coden_Cambridge 9
_journal_volume 52
_journal_year 2013
_journal_page_first 7249
_journal_name_full 'Inorg.Chem. '
loop_
_publ_author_name
"R.Haiges"
"K.O.Christe"
_chemical_name_systematic
;
5-(trinitromethyl)-2H-tetrazole
;
_cell_volume    758.710
_exptl_crystal_colour 'colorless'
_exptl_crystal_density_diffrn 1.918
_exptl_crystal_description 'prism'
_diffrn_ambient_temperature 100
#These two values have been output from a single CSD field.
_refine_ls_R_factor_gt 0.0318
_refine_ls_wR_factor_gt 0.0318
_symmetry_cell_setting monoclinic
_symmetry_space_group_name_H-M 'P 21/n'
_symmetry_Int_Tables_number 14
loop_
_symmetry_equiv_pos_site_id
_symmetry_equiv_pos_as_xyz
1 x,y,z
2 1/2-x,1/2+y,1/2-z
3 -x,-y,-z
4 -1/2+x,-1/2-y,-1/2+z
_cell_length_a 5.9141(3)
_cell_length_b 21.5244(11)
_cell_length_c 6.0357(3)
_cell_angle_alpha 90
_cell_angle_beta 99.076(1)
_cell_angle_gamma 90
_cell_formula_units_Z 4
loop_
_atom_type_symbol
_atom_type_radius_bond
C 0.68
H 0.23
N 0.68
O 0.68
loop_
_atom_site_label
_atom_site_type_symbol
_atom_site_fract_x
_atom_site_fract_y
_atom_site_fract_z
C1 C 0.15875(18) 0.17332(5) 0.30859(18)
C2 C 0.11317(18) 0.11341(5) 0.18554(18)
N1 N 0.01560(16) 0.19780(4) 0.43249(16)
N2 N 0.12940(16) 0.24836(5) 0.50826(16)
N3 N 0.32917(16) 0.25551(5) 0.43957(16)
N4 N 0.35166(16) 0.20713(4) 0.31038(16)
N5 N 0.11472(17) 0.11927(4) -0.06835(16)
N6 N -0.11885(16) 0.08670(4) 0.21939(16)
N7 N 0.29492(16) 0.06374(4) 0.27037(16)
O1 O 0.26785(14) 0.15175(4) -0.11883(14)
O2 O -0.02875(16) 0.09031(4) -0.19247(15)
O3 O -0.11814(14) 0.03729(4) 0.31445(15)
O4 O -0.28329(14) 0.11904(4) 0.14598(15)
O5 O 0.38370(15) 0.06949(4) 0.46477(14)
O6 O 0.32490(15) 0.02372(4) 0.13648(15)
H1 H 0.071(3) 0.2743(8) 0.599(3)
#END
