
#######################################################################
#
#                 Cambridge Crystallographic Data Centre
#                                CCDC
#
#######################################################################
#
# If this CIF has been generated from an entry in the Cambridge
# Structural Database, then it will include bibliographic, chemical,
# crystal, experimental, refinement or atomic coordinate data resulting
# from the CCDC's data processing and validation procedures.
#
#######################################################################

data_CSD_CIF_WIKYEU
_audit_creation_date 1995-04-20
_audit_creation_method CSD-ConQuest-V1
_database_code_CSD WIKYEU
_chemical_formula_sum 'C14 H18 N2 O4'
_chemical_formula_moiety
;
C14 H18 N2 O4
;
_journal_coeditor_code "IUCr SH0045"
_journal_coden_Cambridge 622
_journal_volume 50
_journal_year 1994
_journal_page_first 724
_journal_name_full 'Acta Crystallogr.,Sect.B:Struct.Sci. '
loop_
_publ_author_name
"D.J.A.De Ridder"
"H.Schenk"
_chemical_name_systematic
;
1,1,3,3,5-Pentamethyl-4,6-dinitroindan
;
_chemical_name_common
;
Musk moskene
;
_cell_volume   1438.757
_exptl_crystal_colour 'Colorless'
_exptl_crystal_density_diffrn 1.29
_exptl_special_details
;
may have pre-emergence herbicidal activity

;
_diffrn_ambient_temperature 198
#These two values have been output from a single CSD field.
_refine_ls_R_factor_gt 0.064
_refine_ls_wR_factor_gt 0.064
_symmetry_cell_setting orthorhombic
_symmetry_space_group_name_H-M 'P 21 21 21'
_symmetry_Int_Tables_number 19
loop_
_symmetry_equiv_pos_site_id
_symmetry_equiv_pos_as_xyz
1 x,y,z
2 1/2+x,1/2-y,-z
3 -x,1/2+y,1/2-z
4 1/2-x,-y,1/2+z
_cell_length_a 9.6789(9)
_cell_length_b 15.6129(15)
_cell_length_c 9.5209(12)
_cell_angle_alpha 90
_cell_angle_beta 90
_cell_angle_gamma 90
_cell_formula_units_Z 4
loop_
_atom_type_symbol
_atom_type_radius_bond
C 0.68
H 0.23
N 0.68
O 0.68
loop_
_atom_site_label
_atom_site_type_symbol
_atom_site_fract_x
_atom_site_fract_y
_atom_site_fract_z
C1 C 0.8751(4) 0.0394(3) 0.9940(5)
C2 C 0.8319(6) 0.1304(3) 0.9493(6)
C3 C 0.6770(5) 0.1455(3) 0.9888(6)
C4 C 0.4930(4) 0.0200(3) 1.0022(5)
C5 C 0.4612(4) -0.0670(3) 1.0138(5)
C6 C 0.5752(5) -0.1202(3) 1.0194(5)
C7 C 0.7117(4) -0.0920(3) 1.0150(5)
C8 C 0.7350(4) -0.0050(4) 1.0043(5)
C9 C 0.6258(4) 0.0530(3) 0.9972(4)
C10 C 0.9513(6) 0.0369(4) 1.1357(5)
C11 C 0.9645(5) -0.0018(4) 0.8813(6)
C12 C 0.6580(7) 0.1920(4) 1.1302(7)
C13 C 0.6069(7) 0.1974(4) 0.8711(6)
C14 C 0.3119(5) -0.0970(4) 1.0215(8)
N1 N 0.5547(5) -0.2136(2) 1.0317(5)
N2 N 0.3731(4) 0.0791(3) 0.9945(6)
O1 O 0.6218(5) -0.2516(3) 1.1225(5)
O2 O 0.4736(6) -0.2485(3) 0.9582(7)
O3 O 0.3415(5) 0.1172(3) 1.0998(6)
O4 O 0.3152(4) 0.0853(3) 0.8800(5)
H1 H 0.795(4) -0.137(2) 1.027(5)
H2 H 0.894(6) 0.177(3) 1.003(7)
H3 H 0.842(7) 0.124(4) 0.836(3)
H4 H 1.055(3) 0.063(3) 1.122(5)
H5 H 0.879(5) 0.065(3) 1.210(5)
H6 H 0.973(6) -0.029(2) 1.162(6)
H7 H 0.913(6) 0.000(4) 0.781(4)
H8 H 1.056(5) 0.033(4) 0.847(7)
H9 H 0.986(7) -0.062(3) 0.933(6)
H10 H 0.708(6) 0.163(3) 1.222(4)
H11 H 0.722(5) 0.250(3) 1.120(7)
H12 H 0.547(3) 0.190(4) 1.147(6)
H13 H 0.653(5) 0.260(2) 0.860(6)
H14 H 0.610(7) 0.170(4) 0.767(4)
H15 H 0.505(4) 0.210(5) 0.912(8)
H16 H 0.292(7) -0.126(3) 0.921(4)
H17 H 0.321(9) -0.149(4) 1.096(7)
H18 H 0.241(5) -0.048(3) 1.055(6)
#END
