
#######################################################################
#
#                 Cambridge Crystallographic Data Centre
#                                CCDC
#
#######################################################################
#
# If this CIF has been generated from an entry in the Cambridge
# Structural Database, then it will include bibliographic, chemical,
# crystal, experimental, refinement or atomic coordinate data resulting
# from the CCDC's data processing and validation procedures.
#
#######################################################################

data_CSD_CIF_WILBAU
_audit_creation_date 1995-04-20
_audit_creation_method CSD-ConQuest-V1
_database_code_CSD WILBAU
_chemical_formula_sum 'C11 H19 N3 O2'
_chemical_formula_moiety
;
C11 H19 N3 O2
;
_journal_coeditor_code "IUCr HE0089"
_journal_coden_Cambridge 622
_journal_volume 50
_journal_year 1994
_journal_page_first 746
_journal_name_full 'Acta Crystallogr.,Sect.B:Struct.Sci. '
loop_
_publ_author_name
"A.L.Llamas-Saiz"
"C.Foces-Foces"
"F.H.Cano"
"P.Jimenez"
"J.Laynez"
"W.Meutermans"
"J.Elguero"
"H.-H.Limbach"
"F.Aquilar-Parrilla"
_chemical_name_systematic
;
3,5-Di-t-butyl-4-nitropyrazole
;
_cell_volume   1232.981
_exptl_crystal_colour 'yellow'
_exptl_crystal_density_diffrn 1.214
_diffrn_ambient_temperature ?
_diffrn_special_details
;
The study was carried out at room temperature,in the range 283-303K

;
#These two values have been output from a single CSD field.
_refine_ls_R_factor_gt 0.049
_refine_ls_wR_factor_gt 0.049
_symmetry_cell_setting monoclinic
_symmetry_space_group_name_H-M 'P 21/c'
_symmetry_Int_Tables_number 14
loop_
_symmetry_equiv_pos_site_id
_symmetry_equiv_pos_as_xyz
1 x,y,z
2 -x,1/2+y,1/2-z
3 -x,-y,-z
4 x,-1/2-y,-1/2+z
_cell_length_a 10.6407(4)
_cell_length_b 9.6180(4)
_cell_length_c 12.6649(5)
_cell_angle_alpha 90
_cell_angle_beta 107.962(3)
_cell_angle_gamma 90
_cell_formula_units_Z 4
loop_
_atom_type_symbol
_atom_type_radius_bond
C 0.68
H 0.23
N 0.68
O 0.68
loop_
_atom_site_label
_atom_site_type_symbol
_atom_site_fract_x
_atom_site_fract_y
_atom_site_fract_z
N1 N 0.3863(1) 0.3877(2) 0.4378(1)
N2 N 0.5104(1) 0.3429(1) 0.4467(1)
C1 C 0.4965(1) 0.2322(2) 0.3811(1)
C2 C 0.3595(2) 0.2093(2) 0.3316(1)
C3 C 0.2909(1) 0.3095(2) 0.3707(1)
C4 C 0.1450(1) 0.3389(2) 0.3513(1)
C5 C 0.0882(2) 0.2282(3) 0.4106(2)
C6 C 0.0709(2) 0.3398(2) 0.2262(2)
C7 C 0.1282(2) 0.4814(2) 0.3988(2)
N3 N 0.3010(1) 0.1057(2) 0.2493(1)
O1 O 0.2098(2) 0.0360(2) 0.2595(2)
O2 O 0.3442(2) 0.0922(2) 0.1714(1)
C8 C 0.6162(2) 0.1499(2) 0.3752(1)
C9 C 0.6528(3) 0.1934(3) 0.2719(2)
C10 C 0.7330(2) 0.1797(3) 0.4780(2)
C11 C 0.5889(2) -0.0064(2) 0.3710(2)
H1 H 0.377(2) 0.458(3) 0.472(2)
H2 H -0.004(4) 0.250(4) 0.399(3)
H3 H 0.098(3) 0.135(4) 0.385(3)
H4 H 0.139(4) 0.233(4) 0.490(4)
H5 H 0.075(3) 0.250(4) 0.191(3)
H6 H -0.020(3) 0.358(3) 0.216(2)
H7 H 0.109(4) 0.415(4) 0.184(3)
H8 H 0.031(3) 0.495(3) 0.385(3)
H9 H 0.172(3) 0.483(3) 0.483(3)
H10 H 0.169(3) 0.557(4) 0.364(3)
H11 H 0.674(4) 0.295(4) 0.276(3)
H12 H 0.578(4) 0.178(4) 0.209(4)
H13 H 0.732(4) 0.145(4) 0.272(3)
H14 H 0.706(3) 0.161(4) 0.542(3)
H15 H 0.756(4) 0.277(4) 0.482(3)
H16 H 0.812(4) 0.128(4) 0.476(3)
H17 H 0.521(4) -0.029(4) 0.303(3)
H18 H 0.557(5) -0.036(5) 0.427(4)
H19 H 0.669(3) -0.055(3) 0.371(3)
#END
