
#######################################################################
#
#                 Cambridge Crystallographic Data Centre
#                                CCDC
#
#######################################################################
#
# If this CIF has been generated from an entry in the Cambridge
# Structural Database, then it will include bibliographic, chemical,
# crystal, experimental, refinement or atomic coordinate data resulting
# from the CCDC's data processing and validation procedures.
#
#######################################################################

data_CSD_CIF_WILBEY
_audit_creation_date 1995-04-20
_audit_creation_method CSD-ConQuest-V1
_database_code_CSD WILBEY
_chemical_formula_sum 'C15 H11 N3 O2'
_chemical_formula_moiety
;
C15 H11 N3 O2
;
_journal_coeditor_code "IUCr HE0089"
_journal_coden_Cambridge 622
_journal_volume 50
_journal_year 1994
_journal_page_first 746
_journal_name_full 'Acta Crystallogr.,Sect.B:Struct.Sci. '
loop_
_publ_author_name
"A.L.Llamas-Saiz"
"C.Foces-Foces"
"F.H.Cano"
"P.Jimenez"
"J.Laynez"
"W.Meutermans"
"J.Elguero"
"H.-H.Limbach"
"F.Aquilar-Parrilla"
_chemical_name_systematic
;
3,5-Diphenyl-4-nitropyrazole
;
_cell_volume   2490.861
_exptl_crystal_colour 'colorless'
_exptl_crystal_density_diffrn 1.415
_diffrn_ambient_temperature ?
_diffrn_special_details
;
The study was carried out at room temperature,in the range 283-303K

;
_refine_special_details
;
Both of the half-molecules are crystallographically disordered.

;
#These two values have been output from a single CSD field.
_refine_ls_R_factor_gt 0.082
_refine_ls_wR_factor_gt 0.082
_symmetry_cell_setting monoclinic
_symmetry_space_group_name_H-M 'P 21/c'
_symmetry_Int_Tables_number 14
loop_
_symmetry_equiv_pos_site_id
_symmetry_equiv_pos_as_xyz
1 x,y,z
2 -x,1/2+y,1/2-z
3 -x,-y,-z
4 x,-1/2-y,-1/2+z
_cell_length_a 18.1399(16)
_cell_length_b 12.0814(9)
_cell_length_c 11.5184(7)
_cell_angle_alpha 90
_cell_angle_beta 99.339(7)
_cell_angle_gamma 90
_cell_formula_units_Z 8
loop_
_atom_type_symbol
_atom_type_radius_bond
C 0.68
H 0.23
N 0.68
O 0.68
loop_
_atom_site_label
_atom_site_type_symbol
_atom_site_fract_x
_atom_site_fract_y
_atom_site_fract_z
N1 N 0.0111(3) 0.3725(3) 0.0517(4)
N2 N -0.0402(3) 0.3818(4) -0.0467(4)
C1 C -0.0418(3) 0.2831(4) -0.0997(4)
C2 C 0.0109(3) 0.2113(3) -0.0289(4)
C3 C 0.0453(3) 0.2778(3) 0.0660(4)
C4 C -0.0964(3) 0.2565(4) -0.2057(4)
C5 C -0.1084(3) 0.3375(5) -0.2933(5)
C6 C -0.1619(3) 0.3216(5) -0.3903(5)
C7 C -0.2043(4) 0.2283(5) -0.3986(5)
C8 C -0.1956(3) 0.1562(5) -0.3165(5)
C9 C -0.1432(3) 0.1597(4) -0.2106(5)
C10 C 0.1017(2) 0.2586(4) 0.1720(4)
C11 C 0.1004(3) 0.1606(4) 0.2393(4)
C12 C 0.1502(3) 0.1550(5) 0.3457(5)
C13 C 0.1981(4) 0.2407(7) 0.3825(6)
C14 C 0.2002(3) 0.3271(5) 0.3203(5)
C15 C 0.1539(3) 0.3443(4) 0.2051(5)
N3 N 0.0361(2) 0.1101(3) -0.0624(3)
O1 O 0.0122(2) 0.0734(3) -0.1637(4)
O2 O 0.0839(3) 0.0577(3) 0.0048(4)
N4? N 0.5108(6) -0.1203(7) 0.5521(9)
N5? N 0.4575(5) -0.1257(6) 0.4525(7)
C16? C 0.4565(3) -0.0041(7) 0.4183(5)
C17? C 0.5123(5) 0.0380(7) 0.4714(8)
C18? C 0.4007(3) -0.0049(4) 0.3115(5)
C19? C 0.3918(3) -0.0902(5) 0.2309(7)
C20? C 0.3392(5) -0.0823(9) 0.1313(8)
C21? C 0.2943(4) 0.0066(7) 0.1073(5)
C22? C 0.3031(4) 0.1010(5) 0.1894(5)
C23? C 0.3579(3) 0.0868(4) 0.2819(4)
N6? N 0.5405(5) 0.1438(6) 0.4327(7)
O3? O 0.5157(4) 0.1749(5) 0.3359(6)
O4? O 0.5878(4) 0.1923(5) 0.5025(6)
N7? N 0.4803(5) -0.1267(7) -0.0472(9)
N8? N 0.5367(5) -0.1325(6) 0.0513(7)
C24? C 0.5435(4) -0.0048(10) 0.0807(6)
C25? C 0.4882(5) 0.0350(6) 0.0263(8)
C26? C 0.6000(3) -0.0072(4) 0.1884(5)
C27? C 0.6468(4) 0.0783(4) 0.2113(5)
C28? C 0.7031(3) 0.0922(5) 0.3034(5)
C29? C 0.7064(3) 0.0027(6) 0.3907(5)
C30? C 0.6551(4) -0.0835(7) 0.3704(8)
C31? C 0.6044(3) -0.0885(5) 0.2714(7)
N9? N 0.4651(6) 0.1429(6) 0.0625(9)
O5? O 0.4898(4) 0.1761(5) 0.1610(6)
O6? O 0.4170(5) 0.1945(5) -0.0070(6)
H1 H 0.015(4) 0.440(6) 0.105(6)
H2 H -0.082(3) 0.401(5) -0.300(5)
H3 H -0.169(6) 0.381(9) -0.446(10)
H4 H -0.246(6) 0.213(8) -0.466(9)
H5 H -0.229(5) 0.092(7) -0.324(7)
H6 H -0.128(4) 0.105(6) -0.140(6)
H7 H 0.060(3) 0.097(5) 0.213(5)
H8 H 0.146(3) 0.088(5) 0.383(5)
H9 H 0.232(5) 0.234(8) 0.456(8)
H10 H 0.247(5) 0.381(7) 0.329(7)
H11 H 0.157(5) 0.416(7) 0.158(8)
H12? H 0.52700 -0.18100 0.59700
H13? H 0.422(5) -0.154(7) 0.244(8)
H14? H 0.335(7) -0.132(10) 0.073(11)
H15? H 0.258(5) 0.008(8) 0.040(8)
H16? H 0.273(4) 0.174(6) 0.175(6)
H17? H 0.359(3) 0.155(5) 0.336(5)
H18? H 0.45900 -0.18700 -0.08700
H19? H 0.640(3) 0.136(5) 0.157(5)
H20? H 0.735(4) 0.160(7) 0.313(6)
H21? H 0.739(4) 0.009(6) 0.455(7)
H22? H 0.657(4) -0.125(7) 0.434(8)
H23? H 0.572(5) -0.149(8) 0.260(8)
#END
