
#######################################################################
#
#                 Cambridge Crystallographic Data Centre
#                                CCDC
#
#######################################################################
#
# If this CIF has been generated from an entry in the Cambridge
# Structural Database, then it will include bibliographic, chemical,
# crystal, experimental, refinement or atomic coordinate data resulting
# from the CCDC's data processing and validation procedures.
#
#######################################################################

data_CSD_CIF_WILRUF
_audit_creation_date 2008-01-08
_audit_creation_method CSD-ConQuest-V1
_database_code_CSD WILRUF
_database_code_depnum_ccdc_archive 'CCDC 634856'
_chemical_formula_sum 'C19 H22 N2 O6'
_chemical_formula_moiety
;
C19 H22 N2 O6
;
_journal_coden_Cambridge 1090
_journal_volume 18
_journal_year 2007
_journal_page_first 1663
_journal_name_full 'Tetrahedron:Asymm. '
loop_
_publ_author_name
"A.Srikrishna"
"V.Gowri"
_chemical_name_systematic
;
(1R,3S,4R,5R)-4,7,8,8-Tetramethylbicyclo(3.3.0)oct-6-en-3-yl 
3,5-dinitrobenzoate
;
_cell_volume    945.240
_exptl_crystal_colour 'colorless'
_exptl_crystal_density_diffrn 1.315
_exptl_crystal_description 'block'
_diffrn_ambient_temperature 273
#These two values have been output from a single CSD field.
_refine_ls_R_factor_gt 0.0505
_refine_ls_wR_factor_gt 0.0505
_symmetry_cell_setting triclinic
_symmetry_space_group_name_H-M 'P -1'
_symmetry_Int_Tables_number 2
loop_
_symmetry_equiv_pos_site_id
_symmetry_equiv_pos_as_xyz
1 x,y,z
2 -x,-y,-z
_cell_length_a 6.930(5)
_cell_length_b 11.193(7)
_cell_length_c 13.047(9)
_cell_angle_alpha 74.774(11)
_cell_angle_beta 75.890(11)
_cell_angle_gamma 83.013(11)
_cell_formula_units_Z 2
loop_
_atom_type_symbol
_atom_type_radius_bond
C 0.68
H 0.23
N 0.68
O 0.68
loop_
_atom_site_label
_atom_site_type_symbol
_atom_site_fract_x
_atom_site_fract_y
_atom_site_fract_z
O1 O 0.35768(19) 0.09121(11) 0.32225(11)
C1 C 0.3021(3) -0.13230(16) 0.29315(13)
H1 H 0.21670 -0.06500 0.27050
C2 C 0.4583(3) -0.11788(16) 0.33727(14)
O2 O -0.0083(2) -0.17923(15) 0.22000(14)
C3 C 0.3976(3) -0.35188(17) 0.31702(15)
H2 H 0.37740 -0.42960 0.30980
N1 N 0.1137(3) -0.26581(17) 0.23638(14)
O3 O 0.6404(2) 0.02289(14) 0.37854(15)
C4 C 0.2768(3) -0.24939(16) 0.28382(14)
C5 C 0.5491(3) -0.33459(17) 0.36126(15)
C6 C 0.5825(3) -0.21960(18) 0.37178(15)
H3 H 0.68710 -0.21060 0.40170
C7 C 0.4979(3) 0.00612(17) 0.34893(15)
C8 C 0.1140(3) 0.31455(17) 0.23538(16)
H4 H 0.02200 0.38860 0.22920
C9 C 0.3726(3) 0.21867(17) 0.32850(16)
H5 H 0.44000 0.22050 0.38590
C10 C 0.3142(3) 0.34220(17) 0.15208(16)
H6 H 0.32020 0.43210 0.12270
N2 N 0.6803(3) -0.44304(18) 0.39860(16)
O4 O 0.1088(3) -0.36566(16) 0.21589(16)
C11 C 0.1622(3) 0.27660(17) 0.34872(16)
H7 H 0.16880 0.35350 0.36990
C12 C 0.1425(3) 0.19614(18) 0.10733(17)
O5 O 0.6481(3) -0.54354(16) 0.38837(17)
C13 C 0.0386(3) 0.21587(19) 0.20027(17)
H8 H -0.07220 0.17230 0.24080
C14 C 0.4741(3) 0.29538(19) 0.21927(17)
H9 H 0.57860 0.24530 0.18250
H10 H 0.53340 0.36490 0.22860
O6 O 0.8112(3) -0.42675(18) 0.43955(18)
C15 C 0.3132(3) 0.27991(19) 0.05859(16)
C16 C 0.0108(4) 0.1998(2) 0.43917(18)
H11 H -0.00420 0.12470 0.42020
H12 H -0.11520 0.24650 0.44850
H13 H 0.05640 0.17970 0.50590
C17 C 0.1001(5) 0.1051(3) 0.0499(2)
H14 H -0.01300 0.05990 0.09370
H15 H 0.21410 0.04820 0.03870
H16 H 0.07210 0.14900 -0.01920
C18 C 0.2664(5) 0.3787(3) -0.0401(2)
H17 H 0.24520 0.33890 -0.09300
H18 H 0.37630 0.43100 -0.07210
H19 H 0.14840 0.42810 -0.01710
C19 C 0.5084(4) 0.2065(3) 0.0215(2)
H20 H 0.52990 0.13760 0.08020
H21 H 0.61740 0.25960 0.00090
H22 H 0.50000 0.17660 -0.03970
#END
