
#######################################################################
#
#                 Cambridge Crystallographic Data Centre
#                                CCDC
#
#######################################################################
#
# If this CIF has been generated from an entry in the Cambridge
# Structural Database, then it will include bibliographic, chemical,
# crystal, experimental, refinement or atomic coordinate data resulting
# from the CCDC's data processing and validation procedures.
#
#######################################################################

data_CSD_CIF_WIMWEU
_audit_creation_date 2000-11-01
_audit_creation_method CSD-ConQuest-V1
_database_code_CSD WIMWEU
_database_code_depnum_ccdc_archive 'CCDC 143691'
_chemical_formula_sum 'C18 H20 N2 O6'
_chemical_formula_moiety
;
C18 H20 N2 O6
;
_journal_coden_Cambridge 35
_journal_volume 65
_journal_year 2000
_journal_page_first 3716
_journal_name_full 'J.Org.Chem. '
loop_
_publ_author_name
"A.G.M.Barrett"
"M.Ahmed"
"S.P.Baker"
"S.P.D.Baugh"
"D.C.Braddock"
"P.A.Procopiou"
"A.J.P.White"
"D.J.Williams"
_chemical_name_systematic
;
(+)-(2R,7R,8S)-4-Nitrobenzyl 
1-aza-8-((1R)-hydroxyethyl)-9-oxobicyclo(5.2.0)non-4-ene-2-carboxylate
;
_cell_volume   1801.221
_exptl_crystal_density_diffrn 1.329
_exptl_crystal_description 'blocks'
_diffrn_ambient_temperature ?
_diffrn_special_details
;
The study was carried out at room temperature,in the range 283-303K

;
#These two values have been output from a single CSD field.
_refine_ls_R_factor_gt 0.0431
_refine_ls_wR_factor_gt 0.0431
_symmetry_cell_setting orthorhombic
_symmetry_space_group_name_H-M 'P 21 21 21'
_symmetry_Int_Tables_number 19
loop_
_symmetry_equiv_pos_site_id
_symmetry_equiv_pos_as_xyz
1 x,y,z
2 1/2-x,-y,1/2+z
3 -x,1/2+y,1/2-z
4 1/2+x,1/2-y,-z
_cell_length_a 7.2403(4)
_cell_length_b 8.9366(15)
_cell_length_c 27.838(2)
_cell_angle_alpha 90
_cell_angle_beta 90
_cell_angle_gamma 90
_cell_formula_units_Z 4
loop_
_atom_type_symbol
_atom_type_radius_bond
C 0.68
H 0.23
N 0.68
O 0.68
loop_
_atom_site_label
_atom_site_type_symbol
_atom_site_fract_x
_atom_site_fract_y
_atom_site_fract_z
N1 N 0.6928(3) 0.3944(2) 0.80727(8)
C1 C 0.7008(4) 0.4373(3) 0.76114(9)
O1 O 0.7245(3) 0.3666(2) 0.72420(7)
C2 C 0.6684(4) 0.6015(3) 0.77441(9)
H1 H 0.5437(4) 0.6339(3) 0.76546(9)
C3 C 0.6750(4) 0.5471(3) 0.82699(10)
H2 H 0.7888(4) 0.5791(3) 0.84302(10)
C4 C 0.5085(5) 0.5693(4) 0.85883(12)
H3 H 0.4937(5) 0.6749(4) 0.86579(12)
H4 H 0.3986(5) 0.5352(4) 0.84219(12)
C5 C 0.5297(6) 0.4843(5) 0.90487(14)
H5 H 0.5331(6) 0.5387(5) 0.93335(14)
C6 C 0.5441(6) 0.3361(5) 0.90772(15)
H6 H 0.5602(6) 0.2941(5) 0.93799(15)
C7 C 0.5361(5) 0.2324(4) 0.8656(2)
H7 H 0.4216(5) 0.2501(4) 0.8484(2)
H8 H 0.5335(5) 0.1302(4) 0.8773(2)
C8 C 0.6976(5) 0.2488(3) 0.83027(11)
H9 H 0.6821(5) 0.1729(3) 0.80517(11)
C9 C 0.8113(4) 0.7133(3) 0.75848(12)
H10 H 0.8037(4) 0.7252(3) 0.72354(12)
O2 O 0.9868(3) 0.6534(2) 0.77055(10)
H11 H 1.0773(38) 0.7223(32) 0.7700(15)
C10 C 0.7808(6) 0.8642(4) 0.7821(2)
H12 H 0.8737(6) 0.9331(4) 0.7713(2)
H13 H 0.7886(6) 0.8534(4) 0.8163(2)
H14 H 0.6609(6) 0.9015(4) 0.7736(2)
C11 C 0.8844(4) 0.2233(3) 0.85363(10)
O3 O 1.0144(3) 0.3041(2) 0.85146(8)
O4 O 0.8848(3) 0.0903(2) 0.87608(7)
C12 C 1.0596(5) 0.0423(3) 0.89545(14)
H15 H 1.1045(5) 0.1145(3) 0.91871(14)
H16 H 1.1503(5) 0.0329(3) 0.87000(14)
C13 C 1.0277(4) -0.1062(3) 0.91907(10)
C14 C 0.9398(5) -0.1154(4) 0.96350(12)
H17 H 0.8973(5) -0.0286(4) 0.97822(12)
C15 C 0.9149(5) -0.2518(4) 0.98598(12)
H18 H 0.8564(5) -0.2580(4) 1.01565(12)
C16 C 0.9791(4) -0.3778(3) 0.96327(10)
C17 C 1.0635(5) -0.3741(3) 0.91935(10)
H19 H 1.1042(5) -0.4616(3) 0.90468(10)
C18 C 1.0869(5) -0.2364(3) 0.89732(10)
H20 H 1.1434(5) -0.2317(3) 0.86735(10)
N2 N 0.9583(5) -0.5244(4) 0.98795(12)
O5 O 0.8847(6) -0.5250(4) 1.02609(15)
O6 O 1.0228(7) -0.6332(3) 0.96983(12)
#END
