
#######################################################################
#
#                 Cambridge Crystallographic Data Centre
#                                CCDC
#
#######################################################################
#
# If this CIF has been generated from an entry in the Cambridge
# Structural Database, then it will include bibliographic, chemical,
# crystal, experimental, refinement or atomic coordinate data resulting
# from the CCDC's data processing and validation procedures.
#
#######################################################################

data_CSD_CIF_WIMWAQ
_audit_creation_date 2000-11-01
_audit_creation_method CSD-ConQuest-V1
_database_code_CSD WIMWAQ
_database_code_depnum_ccdc_archive 'CCDC 135542'
_chemical_formula_sum 'C15 H16 N2 O5'
_chemical_formula_moiety
;
C15 H16 N2 O5
;
_journal_coden_Cambridge 35
_journal_volume 65
_journal_year 2000
_journal_page_first 3850
_journal_name_full 'J.Org.Chem. '
loop_
_publ_author_name
"M.W.Notzel"
"M.Tamm"
"T.Labahn"
"M.Noltemeyer"
"M.Es-Sayed"
"A.de Meijere"
_chemical_name_systematic
;
(4S*,5R*,2'R*)-Methyl 
2-(4-nitrophenyl)-2'-ethyl-spiro(cyclopropane-1',4-oxazoline)-5-carboxylate
;
_chemical_melting_point 371.15
_cell_volume    732.538
_exptl_crystal_colour 'colorless'
_exptl_crystal_density_diffrn 1.38
_diffrn_ambient_temperature 133
#These two values have been output from a single CSD field.
_refine_ls_R_factor_gt 0.0773
_refine_ls_wR_factor_gt 0.0773
_symmetry_cell_setting triclinic
_symmetry_space_group_name_H-M 'P -1'
_symmetry_Int_Tables_number 2
loop_
_symmetry_equiv_pos_site_id
_symmetry_equiv_pos_as_xyz
1 x,y,z
2 -x,-y,-z
_cell_length_a 9.277(10)
_cell_length_b 9.847(11)
_cell_length_c 10.370(11)
_cell_angle_alpha 62.21(3)
_cell_angle_beta 65.64(3)
_cell_angle_gamma 65.212(18)
_cell_formula_units_Z 2
loop_
_atom_type_symbol
_atom_type_radius_bond
C 0.68
H 0.23
N 0.68
O 0.68
loop_
_atom_site_label
_atom_site_type_symbol
_atom_site_fract_x
_atom_site_fract_y
_atom_site_fract_z
O1 O 0.3408(3) 0.1647(3) 0.1522(3)
O2 O 0.5939(3) -0.1703(3) 0.3742(3)
O3 O 1.1994(4) -0.9370(3) 0.5081(3)
O4 O 0.4245(3) -0.0932(3) 0.1781(3)
O5 O 0.9611(4) -0.9742(3) 0.6438(3)
N1 N 0.8299(4) -0.1262(4) 0.1933(4)
C1 C 0.9707(5) -0.7176(4) 0.4831(4)
C2 C 0.8291(5) -0.3978(4) 0.3652(4)
N2 N 1.0494(4) -0.8883(4) 0.5494(4)
C3 C 0.8047(5) -0.6585(5) 0.5416(4)
H1 H 0.74080 -0.72740 0.62090
C4 C 0.7560(5) -0.2250(5) 0.3035(4)
C5 C 0.7334(5) -0.4966(5) 0.4820(4)
H2 H 0.61890 -0.45230 0.52050
C6 C 0.9956(5) -0.4626(4) 0.3064(4)
H3 H 1.05940 -0.39500 0.22450
C7 C 1.0685(5) -0.6227(5) 0.3653(4)
H4 H 1.18290 -0.66770 0.32670
C8 C 0.5444(5) -0.0049(5) 0.2819(4)
H5 H 0.48820 0.06440 0.34480
C9 C 0.4300(5) 0.0131(5) 0.1995(4)
C10 C 0.7560(5) 0.1672(5) 0.1471(5)
H6 H 0.87450 0.14340 0.13950
C11 C 0.7275(5) 0.1569(5) 0.0190(5)
H7 H 0.62640 0.23020 -0.01330
H8 H 0.82510 0.13160 -0.06320
C12 C 0.7081(5) 0.0284(4) 0.1734(4)
C13 C 0.2303(5) 0.2006(5) 0.0660(5)
H9 H 0.28810 0.23110 -0.04220
H10 H 0.13320 0.28900 0.08410
H11 H 0.19560 0.10570 0.09820
C14 C 0.6386(6) 0.2874(5) 0.2214(5)
H12 H 0.52500 0.30570 0.22180
H13 H 0.64200 0.24390 0.32780
C15 C 0.6802(7) 0.4433(5) 0.1415(6)
H14 H 0.78930 0.42700 0.14750
H15 H 0.59750 0.52020 0.18950
H16 H 0.68100 0.48470 0.03500
#END
