
#######################################################################
#
#                 Cambridge Crystallographic Data Centre
#                                CCDC
#
#######################################################################
#
# If this CIF has been generated from an entry in the Cambridge
# Structural Database, then it will include bibliographic, chemical,
# crystal, experimental, refinement or atomic coordinate data resulting
# from the CCDC's data processing and validation procedures.
#
#######################################################################

data_CSD_CIF_WINCON
_audit_creation_date 2013-10-18
_audit_creation_method CSD-ConQuest-V1
_database_code_CSD WINCON
_database_code_depnum_ccdc_archive 'CCDC 917551'
_chemical_formula_sum 'C15 H12 N2 O3'
_chemical_formula_moiety
;
C15 H12 N2 O3
;
_journal_coden_Cambridge 1037
_journal_volume 14
_journal_year 2013
_journal_page_first 272-4
_journal_name_full 'ARKIVOC '
loop_
_publ_author_name
"A.I.Taratayko"
"C.S.Becker"
"I.A.Grigorev"
"Y.V.Gatilov"
"T.V.Rybalova"
"V.A.Reznikov"
_chemical_name_systematic
;
2-(1-Naphthyl)-2-nitro-5-oxopentanenitrile
;
_chemical_melting_point 380
_cell_volume   1285.593
_exptl_crystal_colour 'colorless'
_exptl_crystal_density_diffrn 1.386
_exptl_crystal_description 'prism'
_diffrn_ambient_temperature 150
_refine_special_details
;
C15,N1,N2,O2,O3 and C15A,N1A,N2A,O2A,O3A disordered over two sites with 
occupancies 0.854:0.146.
;
#These two values have been output from a single CSD field.
_refine_ls_R_factor_gt 0.041
_refine_ls_wR_factor_gt 0.041
_symmetry_cell_setting monoclinic
_symmetry_space_group_name_H-M 'P 21/c'
_symmetry_Int_Tables_number 14
loop_
_symmetry_equiv_pos_site_id
_symmetry_equiv_pos_as_xyz
1 x,y,z
2 -x,1/2+y,1/2-z
3 -x,-y,-z
4 x,-1/2-y,-1/2+z
_cell_length_a 11.2063(8)
_cell_length_b 10.9032(7)
_cell_length_c 10.5235(7)
_cell_angle_alpha 90
_cell_angle_beta 91.050(2)
_cell_angle_gamma 90
_cell_formula_units_Z 4
loop_
_atom_type_symbol
_atom_type_radius_bond
C 0.68
H 0.23
N 0.68
O 0.68
loop_
_atom_site_label
_atom_site_type_symbol
_atom_site_fract_x
_atom_site_fract_y
_atom_site_fract_z
O1 O 0.65953(9) 0.81945(10) 0.43611(10)
C1 C 0.23638(10) 0.90231(10) 0.23803(10)
N1 N 0.3771(3) 0.8989(4) 0.05913(18)
O2 O 0.36812(11) 1.01084(11) 0.05081(12)
O3 O 0.40814(14) 0.83236(14) -0.02404(11)
C2 C 0.23855(11) 0.97471(11) 0.34519(11)
H1 H 0.31140 0.98560 0.39140
C3 C 0.3381(6) 0.7105(5) 0.1780(4)
N2 N 0.32722(14) 0.60720(13) 0.17423(17)
C4 C 0.13435(12) 1.03293(12) 0.38735(12)
H2 H 0.13750 1.08270 0.46150
C5 C 0.02222(10) 0.94333(10) 0.21236(11)
C6 C 0.02903(12) 1.01826(12) 0.32235(13)
H3 H -0.04060 1.05870 0.35100
C7 C -0.08760(11) 0.92859(12) 0.14461(13)
H4 H -0.15730 0.96780 0.17470
C8 C -0.09453(11) 0.85903(12) 0.03703(14)
H5 H -0.16860 0.85000 -0.00730
C9 C 0.00814(12) 0.80086(11) -0.00799(13)
H6 H 0.00300 0.75280 -0.08320
C10 C 0.1266(1) 0.8839(1) 0.16795(10)
C11 C 0.11590(11) 0.81246(10) 0.05520(11)
H7 H 0.18420 0.77220 0.02310
C12 C 0.35136(10) 0.84475(10) 0.19177(10)
C13 C 0.46409(10) 0.87031(11) 0.27346(11)
H8 H 0.47740 0.96000 0.27690
H9 H 0.45010 0.84170 0.36120
C14 C 0.57647(11) 0.80893(14) 0.22482(13)
H10 H 0.55540 0.72720 0.19020
H11 H 0.60870 0.85860 0.15460
C15 C 0.67115(11) 0.79417(13) 0.32604(14)
H12 H 0.74610 0.76240 0.30120
C16? C 0.372(4) 0.889(5) 0.057(2)
N3? N 0.3962(8) 0.9188(10) -0.0451(9)
N4? N 0.327(3) 0.703(2) 0.177(2)
O4? O 0.3757(6) 0.6421(7) 0.0957(7)
O5? O 0.2745(6) 0.6572(6) 0.2660(6)
#END
