
#######################################################################
#
#                 Cambridge Crystallographic Data Centre
#                                CCDC
#
#######################################################################
#
# If this CIF has been generated from an entry in the Cambridge
# Structural Database, then it will include bibliographic, chemical,
# crystal, experimental, refinement or atomic coordinate data resulting
# from the CCDC's data processing and validation procedures.
#
#######################################################################

data_CSD_CIF_WINRAM
_audit_creation_date 1995-06-19
_audit_creation_method CSD-ConQuest-V1
_database_code_CSD WINRAM
_chemical_formula_sum 'C17 H11 N1 O3'
_chemical_formula_moiety
;
C17 H11 N1 O3
;
_journal_coeditor_code "IUCr AB1206"
_journal_coden_Cambridge 591
_journal_volume 51
_journal_year 1995
_journal_page_first 462
_journal_name_full 'Acta Crystallogr.,Sect.C:Cryst.Struct.Commun. '
loop_
_publ_author_name
"M.Kubicki"
"T.Borowiak"
"W.Z.Antkowiak"
_chemical_name_systematic
;
4-Methoxy-11-oxo-5-azabenzo(b)fluorene N-oxide
;
_cell_volume   2571.646
_exptl_crystal_colour 'red'
_exptl_crystal_density_diffrn 1.432
_diffrn_ambient_temperature ?
_diffrn_special_details
;
The study was carried out at room temperature,in the range 283-303K

;
#These two values have been output from a single CSD field.
_refine_ls_R_factor_gt 0.038
_refine_ls_wR_factor_gt 0.038
_symmetry_cell_setting orthorhombic
_symmetry_space_group_name_H-M 'P b c a'
_symmetry_Int_Tables_number 61
loop_
_symmetry_equiv_pos_site_id
_symmetry_equiv_pos_as_xyz
1 x,y,z
2 1/2-x,-y,1/2+z
3 1/2+x,1/2-y,-z
4 -x,1/2+y,1/2-z
5 -x,-y,-z
6 -1/2+x,y,-1/2-z
7 -1/2-x,-1/2+y,z
8 x,-1/2-y,-1/2+z
_cell_length_a 21.023(1)
_cell_length_b 14.907(1)
_cell_length_c 8.2059(7)
_cell_angle_alpha 90
_cell_angle_beta 90
_cell_angle_gamma 90
_cell_formula_units_Z 8
loop_
_atom_type_symbol
_atom_type_radius_bond
C 0.68
H 0.23
N 0.68
O 0.68
loop_
_atom_site_label
_atom_site_type_symbol
_atom_site_fract_x
_atom_site_fract_y
_atom_site_fract_z
C1 C 0.57903(13) 0.6377(2) 0.2845(3)
O1 O 0.61256(10) 0.56501(12) 0.2382(3)
C2 C 0.5903(2) 0.4795(2) 0.2729(5)
H1 H 0.6197(2) 0.4358(2) 0.2316(5)
H2 H 0.5495(2) 0.4711(2) 0.2223(5)
H3 H 0.5862(2) 0.4725(2) 0.3887(5)
C3 C 0.52269(14) 0.6315(2) 0.3742(3)
H4 H 0.50602(14) 0.5751(2) 0.3973(3)
C4 C 0.49124(14) 0.7066(2) 0.4292(4)
H5 H 0.45393(14) 0.7001(2) 0.4890(4)
C5 C 0.51424(14) 0.7914(2) 0.3971(3)
H6 H 0.49353(14) 0.8423(2) 0.4356(3)
C6 C 0.56918(13) 0.7980(2) 0.3056(3)
C7 C 0.60084(13) 0.8816(2) 0.2526(4)
O2 O 0.58187(9) 0.95806(12) 0.2721(3)
C8 C 0.65757(12) 0.8533(2) 0.1595(3)
C9 C 0.70319(13) 0.9033(2) 0.0868(3)
H7 H 0.70275(13) 0.9656(2) 0.0943(3)
C10 C 0.75146(14) 0.8585(2) -0.0008(3)
C11 C 0.80213(14) 0.9031(2) -0.0782(4)
H8 H 0.80496(14) 0.9653(2) -0.0714(4)
C12 C 0.84722(14) 0.8565(2) -0.1630(4)
H9 H 0.88066(14) 0.8870(2) -0.2124(4)
C13 C 0.84325(13) 0.7635(2) -0.1757(4)
H10 H 0.87372(13) 0.7325(2) -0.2355(4)
C14 C 0.79527(13) 0.7174(2) -0.1017(3)
H11 H 0.79315(13) 0.6552(2) -0.1099(3)
C15 C 0.74956(12) 0.7642(2) -0.0137(3)
N1 N 0.69994(10) 0.71444(12) 0.0630(3)
O3 O 0.69883(10) 0.62939(11) 0.0385(3)
C16 C 0.65651(11) 0.7581(2) 0.1522(3)
C17 C 0.60206(11) 0.72315(14) 0.2462(3)
#END
