
#######################################################################
#
#                 Cambridge Crystallographic Data Centre
#                                CCDC
#
#######################################################################
#
# If this CIF has been generated from an entry in the Cambridge
# Structural Database, then it will include bibliographic, chemical,
# crystal, experimental, refinement or atomic coordinate data resulting
# from the CCDC's data processing and validation procedures.
#
#######################################################################

data_CSD_CIF_WINYUN
_audit_creation_date 1995-07-07
_audit_creation_method CSD-ConQuest-V1
_database_code_CSD WINYUN
_chemical_formula_sum 'C14 H21 N1 O1'
_chemical_formula_moiety
;
C14 H21 N1 O1
;
_journal_coeditor_code "IUCr PA1132"
_journal_coden_Cambridge 591
_journal_volume 51
_journal_year 1995
_journal_page_first 529
_journal_name_full 'Acta Crystallogr.,Sect.C:Cryst.Struct.Commun. '
loop_
_publ_author_name
"G.Bernardinelli"
"W.Oppolzer"
"A.C.Spivey"
_chemical_name_systematic
;
(2RS)-4,4-Dimethyl-2-((1SR)-1-phenylethyl)-1-pyrrolidinol
;
_chemical_melting_point 358
_cell_volume   1370.196
_exptl_crystal_colour 'colorless'
_exptl_crystal_density_diffrn 1.063
_exptl_special_details
;
Melting point range 358-359K

;
_diffrn_ambient_temperature ?
_diffrn_special_details
;
The study was carried out at room temperature,in the range 283-303K

;
_refine_special_details
;
The H-atoms of the C12 and C13 methyl substituents are disordered over two 
equally-occupied staggered positions.
;
#These two values have been output from a single CSD field.
_refine_ls_R_factor_gt 0.044
_refine_ls_wR_factor_gt 0.044
_symmetry_cell_setting monoclinic
_symmetry_space_group_name_H-M 'P 21/c'
_symmetry_Int_Tables_number 14
loop_
_symmetry_equiv_pos_site_id
_symmetry_equiv_pos_as_xyz
1 x,y,z
2 -x,1/2+y,1/2-z
3 -x,-y,-z
4 x,-1/2-y,-1/2+z
_cell_length_a 10.579(2)
_cell_length_b 11.618(2)
_cell_length_c 11.886(3)
_cell_angle_alpha 90
_cell_angle_beta 110.293(8)
_cell_angle_gamma 90
_cell_formula_units_Z 4
loop_
_atom_type_symbol
_atom_type_radius_bond
C 0.68
H 0.23
N 0.68
O 0.68
loop_
_atom_site_label
_atom_site_type_symbol
_atom_site_fract_x
_atom_site_fract_y
_atom_site_fract_z
O1 O -0.0569(4) 0.0864(3) 0.5749(3)
N1 N 0.0070(4) 0.1344(3) 0.4962(4)
C1 C 0.1298(6) 0.1929(6) 0.5679(5)
C2 C 0.1563(5) 0.2822(5) 0.4873(5)
C3 C 0.0179(6) 0.2985(5) 0.3905(5)
C4 C -0.0795(5) 0.2283(4) 0.4277(5)
C5 C -0.2057(5) 0.1831(4) 0.3313(5)
C6 C -0.3047(5) 0.2805(4) 0.2859(5)
C7 C -0.3036(5) 0.3506(5) 0.1937(5)
C8 C -0.3932(8) 0.4395(7) 0.1574(6)
C9 C -0.4842(7) 0.4596(7) 0.2115(9)
C10 C -0.4871(7) 0.3941(8) 0.3001(9)
C11 C -0.3974(7) 0.3030(6) 0.3392(6)
C12 C 0.2532(6) 0.2356(7) 0.4327(6)
C13 C 0.2085(8) 0.3890(6) 0.5515(7)
C14 C -0.1805(5) 0.1168(5) 0.2315(5)
H1 H -0.048(4) 0.016(4) 0.568(4)
H2 H 0.205(4) 0.137(3) 0.607(3)
H3 H 0.113(4) 0.224(4) 0.628(4)
H4 H 0.021(4) 0.273(4) 0.315(3)
H5 H -0.007(4) 0.380(3) 0.373(4)
H6 H -0.106(4) 0.271(3) 0.482(3)
H7 H -0.243(4) 0.133(3) 0.378(3)
H8 H -0.241(4) 0.331(3) 0.148(3)
H9 H -0.386(4) 0.481(4) 0.086(4)
H10 H -0.526(4) 0.521(4) 0.184(4)
H11 H -0.535(4) 0.406(4) 0.355(4)
H12 H -0.396(4) 0.259(4) 0.400(4)
H13 H 0.26869 0.29936 0.37069
H14 H 0.34922 0.21747 0.50278
H15 H 0.21230 0.15714 0.38358
H16? H 0.34089 0.29237 0.45450
H17? H 0.28532 0.14990 0.46704
H18? H 0.20395 0.23215 0.33523
H19 H 0.30680 0.36974 0.62301
H20 H 0.22627 0.45163 0.49092
H21 H 0.13986 0.42191 0.59236
H22? H 0.30870 0.40662 0.54509
H23? H 0.14230 0.45958 0.51491
H24? H 0.22242 0.37682 0.64662
H25 H -0.12896 0.17255 0.18859
H26 H -0.11605 0.04310 0.27193
H27 H -0.27109 0.08308 0.16267
#END
