
#######################################################################
#
#                 Cambridge Crystallographic Data Centre
#                                CCDC
#
#######################################################################
#
# If this CIF has been generated from an entry in the Cambridge
# Structural Database, then it will include bibliographic, chemical,
# crystal, experimental, refinement or atomic coordinate data resulting
# from the CCDC's data processing and validation procedures.
#
#######################################################################

data_CSD_CIF_WIPFUX
_audit_creation_date 2008-03-13
_audit_creation_method CSD-ConQuest-V1
_database_code_CSD WIPFUX
_database_code_depnum_ccdc_archive 'CCDC 677649'
_chemical_formula_sum 'C14 H12 N2 O3'
_chemical_formula_moiety
;
C14 H12 N2 O3
;
_journal_coeditor_code "IUCr AT2536"
_journal_coden_Cambridge 1370
_journal_volume 64
_journal_year 2008
_journal_page_first o521
_journal_name_full 'Acta Crystallogr.,Sect.E:Struct.Rep.Online '
loop_
_publ_author_name
"A.Saeed"
"S.Hussain"
"M.Bolte"
_chemical_name_systematic
;
N-(2-Methylphenyl)-2-nitrobenzamide
;
_cell_volume   1259.742
_exptl_crystal_colour 'light brown'
_exptl_crystal_density_diffrn 1.351
_exptl_crystal_description 'needle'
_diffrn_ambient_temperature 273
#These two values have been output from a single CSD field.
_refine_ls_R_factor_gt 0.0307
_refine_ls_wR_factor_gt 0.0307
_symmetry_cell_setting orthorhombic
_symmetry_space_group_name_H-M 'P 21 21 21'
_symmetry_Int_Tables_number 19
loop_
_symmetry_equiv_pos_site_id
_symmetry_equiv_pos_as_xyz
1 x,y,z
2 1/2-x,-y,1/2+z
3 -x,1/2+y,1/2-z
4 1/2+x,1/2-y,-z
_cell_length_a 7.8063(10)
_cell_length_b 12.2856(11)
_cell_length_c 13.1353(13)
_cell_angle_alpha 90
_cell_angle_beta 90
_cell_angle_gamma 90
_cell_formula_units_Z 4
loop_
_atom_type_symbol
_atom_type_radius_bond
C 0.68
H 0.23
N 0.68
O 0.68
loop_
_atom_site_label
_atom_site_type_symbol
_atom_site_fract_x
_atom_site_fract_y
_atom_site_fract_z
N1 N 0.6342(2) 0.68690(13) 0.54004(11)
H1 H 0.553(3) 0.726(2) 0.5746(17)
C1 C 0.7172(2) 0.73801(15) 0.46407(13)
O1 O 0.82960(19) 0.69697(10) 0.41024(10)
N2 N 0.5272(2) 0.82075(14) 0.28700(12)
O2 O 0.5146(3) 0.85091(14) 0.19817(11)
O3 O 0.4810(2) 0.73064(12) 0.31740(11)
C2 C 0.6745(2) 0.85748(16) 0.45063(13)
C3 C 0.5996(3) 0.89811(16) 0.36185(14)
C4 C 0.5832(3) 1.00790(17) 0.34180(16)
H2 H 0.53220 1.03170 0.28180
C5 C 0.6439(3) 1.08187(18) 0.41256(18)
H3 H 0.63400 1.15620 0.40040
C6 C 0.7190(3) 1.04525(17) 0.50114(18)
H4 H 0.75980 1.09520 0.54850
C7 C 0.7347(3) 0.93358(17) 0.52071(16)
H5 H 0.78560 0.91010 0.58080
C8 C 0.6503(3) 0.57434(16) 0.56687(14)
C9 C 0.6130(3) 0.54470(17) 0.66744(14)
C10 C 0.6223(3) 0.43408(19) 0.69291(17)
H6 H 0.59680 0.41240 0.75900
C11 C 0.6687(4) 0.35605(18) 0.62128(18)
H7 H 0.67560 0.28310 0.63990
C12 C 0.7045(3) 0.38710(17) 0.52281(17)
H8 H 0.73530 0.33490 0.47490
C13 C 0.6949(3) 0.49615(17) 0.49469(15)
H9 H 0.71810 0.51680 0.42800
C14 C 0.5619(3) 0.6283(2) 0.74710(14)
H10 H 0.64710 0.68460 0.75010
H11 H 0.55310 0.59350 0.81240
H12 H 0.45330 0.65950 0.72920
#END
