
#######################################################################
#
#                 Cambridge Crystallographic Data Centre
#                                CCDC
#
#######################################################################
#
# If this CIF has been generated from an entry in the Cambridge
# Structural Database, then it will include bibliographic, chemical,
# crystal, experimental, refinement or atomic coordinate data resulting
# from the CCDC's data processing and validation procedures.
#
#######################################################################

data_CSD_CIF_WIPWEZ
_audit_creation_date 2013-10-18
_audit_creation_method CSD-ConQuest-V1
_database_code_CSD WIPWEZ
_database_code_depnum_ccdc_archive 'CCDC 935797'
_chemical_formula_sum 'C16 H14 N2 O2'
_chemical_formula_moiety
;
C16 H14 N2 O2
;
_journal_coden_Cambridge 603
_journal_volume 32
_journal_year 2013
_journal_page_first 1199
_journal_name_full 'Jiegou Huaxue(Chin.)(Chin.J.Struct.Chem.) '
loop_
_publ_author_name
"Yong Wei"
"Cheng-Qiao Cao"
"Lei Jin"
"Nian-Yu Huang"
"Kun Zou"
_chemical_name_systematic
;
(((2-Phenyl-6,7-dihydro-1-benzofuran-4(5H)-ylidene)amino)oxy)acetonitrile
;
_cell_volume   1378.641
_exptl_crystal_colour 'colorless'
_exptl_crystal_density_diffrn 1.283
_exptl_crystal_description 'prism'
_diffrn_ambient_temperature 296
#These two values have been output from a single CSD field.
_refine_ls_R_factor_gt 0.0681
_refine_ls_wR_factor_gt 0.0681
_symmetry_cell_setting monoclinic
_symmetry_space_group_name_H-M 'P 21/c'
_symmetry_Int_Tables_number 14
loop_
_symmetry_equiv_pos_site_id
_symmetry_equiv_pos_as_xyz
1 x,y,z
2 -x,1/2+y,1/2-z
3 -x,-y,-z
4 x,-1/2-y,-1/2+z
_cell_length_a 8.423(8)
_cell_length_b 19.596(16)
_cell_length_c 8.770(8)
_cell_angle_alpha 90
_cell_angle_beta 107.750(12)
_cell_angle_gamma 90
_cell_formula_units_Z 4
loop_
_atom_type_symbol
_atom_type_radius_bond
C 0.68
H 0.23
N 0.68
O 0.68
loop_
_atom_site_label
_atom_site_type_symbol
_atom_site_fract_x
_atom_site_fract_y
_atom_site_fract_z
C1 C 0.2289(2) 0.59723(10) 0.7601(2)
C2 C 0.1765(3) 0.54278(10) 0.8266(3)
H1 H 0.09290 0.51220 0.77520
C3 C 0.2751(2) 0.54149(10) 0.9919(2)
C4 C 0.2846(3) 0.49517(10) 1.1253(2)
C5 C 0.3895(4) 0.51914(17) 1.2871(3)
H2 H 0.31550 0.53720 1.34300
H3 H 0.44490 0.47970 1.34680
C6 C 0.5158(4) 0.57047(18) 1.2926(3)
H4 H 0.52980 0.59670 1.38970
H5 H 0.61960 0.54620 1.30650
C7 C 0.5000(4) 0.61924(18) 1.1649(3)
H6 H 0.60780 0.62580 1.14850
H7 H 0.46390 0.66280 1.19510
C8 C 0.3793(3) 0.59557(11) 1.0151(3)
C9 C 0.1833(2) 0.62747(10) 0.6003(2)
C10 C 0.2841(3) 0.67762(11) 0.5647(3)
H8 H 0.38090 0.69150 0.64250
C11 C 0.2403(4) 0.70672(12) 0.4145(3)
H9 H 0.30820 0.74020 0.39200
C12 C 0.0973(3) 0.68689(13) 0.2966(3)
H10 H 0.06850 0.70690 0.19570
C13 C -0.0020(3) 0.63682(15) 0.3312(3)
H11 H -0.09750 0.62250 0.25240
C14 C 0.0395(3) 0.60793(13) 0.4815(3)
H12 H -0.02970 0.57490 0.50360
C15 C 0.1485(4) 0.33651(12) 1.1938(3)
H13 H 0.03550 0.34400 1.12510
H14 H 0.14240 0.31330 1.28960
C16 C 0.2362(3) 0.29307(12) 1.1106(3)
O1 O 0.35464(19) 0.63036(8) 0.87502(18)
O2 O 0.2277(3) 0.39999(8) 1.23674(19)
N1 N 0.2042(3) 0.43907(9) 1.0929(2)
N2 N 0.3033(4) 0.25867(14) 1.0456(4)
#END
