
#######################################################################
#
#                 Cambridge Crystallographic Data Centre
#                                CCDC
#
#######################################################################
#
# If this CIF has been generated from an entry in the Cambridge
# Structural Database, then it will include bibliographic, chemical,
# crystal, experimental, refinement or atomic coordinate data resulting
# from the CCDC's data processing and validation procedures.
#
#######################################################################

data_CSD_CIF_WIQDIJ01
_audit_creation_date 2002-10-24
_audit_creation_method CSD-ConQuest-V1
_database_code_CSD WIQDIJ01
_database_code_depnum_ccdc_archive 'CCDC 177115'
_chemical_formula_sum 'C8 H6 N2 O2'
_chemical_formula_moiety
;
C8 H6 N2 O2
;
_journal_coeditor_code "IUCr FG1652"
_journal_coden_Cambridge 591
_journal_volume 58
_journal_year 2002
_journal_page_first o528
_journal_name_full 'Acta Crystallogr.,Sect.C:Cryst.Struct.Commun. '
loop_
_publ_author_name
"S.Boitsov"
"J.Songstad"
"K.W.Tornroos"
_chemical_name_systematic
;
(4-Nitrophenyl)acetonitrile
;
_chemical_melting_point 387
_cell_volume    754.611
_exptl_crystal_colour 'pale yellow'
_exptl_crystal_density_diffrn 1.427
_exptl_special_details
;
Melting point range 387-388K

;
_exptl_crystal_description 'flat prism'
_diffrn_ambient_temperature 123
#These two values have been output from a single CSD field.
_refine_ls_R_factor_gt 0.039
_refine_ls_wR_factor_gt 0.039
_symmetry_cell_setting monoclinic
_symmetry_space_group_name_H-M 'P 21/c'
_symmetry_Int_Tables_number 14
loop_
_symmetry_equiv_pos_site_id
_symmetry_equiv_pos_as_xyz
1 x,y,z
2 x,1/2-y,1/2+z
3 -x,-y,-z
4 -x,-1/2+y,-1/2-z
_cell_length_a 8.1695(7)
_cell_length_b 5.9775(5)
_cell_length_c 15.7260(13)
_cell_angle_alpha 90
_cell_angle_beta 100.695(2)
_cell_angle_gamma 90
_cell_formula_units_Z 4
loop_
_atom_type_symbol
_atom_type_radius_bond
C 0.68
H 0.23
N 0.68
O 0.68
loop_
_atom_site_label
_atom_site_type_symbol
_atom_site_fract_x
_atom_site_fract_y
_atom_site_fract_z
C1 C 0.77027(10) -0.05217(14) -0.08930(5)
N1 N 1.01216(11) -0.47692(16) -0.15817(6)
O1 O 0.66473(11) 0.08971(13) 0.20532(4)
O2 O 0.57552(9) 0.39312(12) 0.13721(5)
C2 C 0.80832(11) -0.17273(14) -0.01202(5)
H1 H 0.86280 -0.31330 -0.01130
N2 N 0.64076(9) 0.20685(13) 0.13998(5)
C3 C 0.76712(11) -0.08866(14) 0.06404(5)
H2 H 0.79160 -0.17100 0.11650
C4 C 0.68949(10) 0.11821(13) 0.06097(5)
C5 C 0.65350(11) 0.24453(14) -0.01450(5)
H3 H 0.60250 0.38740 -0.01450
C6 C 0.69374(11) 0.15734(15) -0.08986(5)
H4 H 0.66910 0.24050 -0.14210
C7 C 0.80434(13) -0.14149(18) -0.17468(6)
H5 H 0.69760 -0.18970 -0.21060
H6 H 0.84940 -0.01860 -0.20570
C8 C 0.92138(11) -0.32963(16) -0.16565(5)
#END
