
#######################################################################
#
#                 Cambridge Crystallographic Data Centre
#                                CCDC
#
#######################################################################
#
# If this CIF has been generated from an entry in the Cambridge
# Structural Database, then it will include bibliographic, chemical,
# crystal, experimental, refinement or atomic coordinate data resulting
# from the CCDC's data processing and validation procedures.
#
#######################################################################

data_CSD_CIF_WISBOP
_audit_creation_date 1996-09-23
_audit_creation_method CSD-ConQuest-V1
_database_code_CSD WISBOP
_database_code_depnum_ccdc_archive 'CCDC 126892'
_chemical_formula_sum 'C12 H11 N3 O3'
_chemical_formula_moiety
;
C12 H11 N3 O3
;
_journal_coeditor_code "IUCr AB1279"
_journal_coden_Cambridge 591
_journal_volume 52
_journal_year 1996
_journal_page_first 1784
_journal_name_full 'Acta Crystallogr.,Sect.C:Cryst.Struct.Commun. '
loop_
_publ_author_name
"A.Kowalski"
_chemical_name_systematic
;
1-(p-Acetylphenyl)-2-methyl-4-nitroimidazole
;
_cell_volume    570.997
_exptl_crystal_colour 'colorless'
_exptl_crystal_density_diffrn 1.426
_diffrn_ambient_temperature ?
_diffrn_special_details
;
The study was carried out at room temperature,in the range 283-303K

;
#These two values have been output from a single CSD field.
_refine_ls_R_factor_gt 0.0424
_refine_ls_wR_factor_gt 0.0424
_symmetry_cell_setting triclinic
_symmetry_space_group_name_H-M 'P -1'
_symmetry_Int_Tables_number 2
loop_
_symmetry_equiv_pos_site_id
_symmetry_equiv_pos_as_xyz
1 x,y,z
2 -x,-y,-z
_cell_length_a 7.493(1)
_cell_length_b 8.217(2)
_cell_length_c 10.332(2)
_cell_angle_alpha 90.46(2)
_cell_angle_beta 105.24(2)
_cell_angle_gamma 110.59(2)
_cell_formula_units_Z 2
loop_
_atom_type_symbol
_atom_type_radius_bond
C 0.68
H 0.23
N 0.68
O 0.68
loop_
_atom_site_label
_atom_site_type_symbol
_atom_site_fract_x
_atom_site_fract_y
_atom_site_fract_z
O1 O 0.5960(3) -0.2303(3) 0.3401(2)
O2 O 0.4104(3) -0.3140(3) 0.4735(2)
O3 O 0.2533(3) 0.7331(3) -0.1047(2)
N1 N 0.2862(3) 0.0915(3) 0.2284(2)
N2 N 0.2342(3) -0.0779(3) 0.3919(2)
N3 N 0.4643(3) -0.2233(3) 0.3873(2)
C1 C 0.1851(4) 0.0425(3) 0.3250(2)
C2 C 0.3699(3) -0.1032(3) 0.3379(2)
C3 C 0.4055(4) -0.0039(3) 0.2371(2)
H1 H 0.4939(27) -0.0010(3) 0.1839(16)
C4 C 0.2670(3) 0.2144(3) 0.1324(2)
C5 C 0.2885(4) 0.3811(3) 0.1769(3)
H2 H 0.317(1) 0.4158(12) 0.2719(32)
C6 C 0.2687(4) 0.4975(4) 0.0835(3)
H3 H 0.2826(6) 0.6177(38) 0.1145(10)
C7 C 0.2299(3) 0.4494(3) -0.0527(2)
C8 C 0.2114(4) 0.2816(3) -0.0949(3)
H4 H 0.1857(9) 0.2471(11) -0.1898(30)
C9 C 0.2294(4) 0.1635(4) -0.0023(3)
H5 H 0.2163(6) 0.0517(37) -0.0306(10)
C10 C 0.0423(4) 0.1177(4) 0.3480(3)
H6 H -0.0239(14) 0.1464(7) 0.2653(16)
H7 H 0.1112(13) 0.2198(20) 0.4100(12)
H8 H -0.0518(19) 0.0350(16) 0.3833(7)
C11 C 0.2179(4) 0.5830(4) -0.1489(3)
C12 C 0.1649(5) 0.5318(4) -0.2971(3)
H9 H 0.0276(27) 0.4466(17) -0.3284(7)
H10 H 0.2562(18) 0.4789(11) -0.3154(5)
H11 H 0.1760(5) 0.6362(20) -0.3452(10)
#END
