
#######################################################################
#
#                 Cambridge Crystallographic Data Centre
#                                CCDC
#
#######################################################################
#
# If this CIF has been generated from an entry in the Cambridge
# Structural Database, then it will include bibliographic, chemical,
# crystal, experimental, refinement or atomic coordinate data resulting
# from the CCDC's data processing and validation procedures.
#
#######################################################################

data_CSD_CIF_WITTEA
_audit_creation_date 2014-03-04
_audit_creation_method CSD-ConQuest-V1
_database_code_CSD WITTEA
_database_code_depnum_ccdc_archive 'CCDC 971285'
_chemical_formula_sum 'C24 H18 N2 O4'
_chemical_formula_moiety
;
C24 H18 N2 O4
;
_journal_coden_Cambridge 1336
_journal_volume 16
_journal_year 2014
_journal_page_first 1104
_journal_name_full 'Org.Lett. '
loop_
_publ_author_name
"Xin-Qi Hao"
"Li-Juan Chen"
"Baozeng Ren"
"Liu-Yan Li"
"Xin-Yan Yang"
"Jun-Fang Gong"
"Jun-Long Niu"
"Mao-Ping Song"
_chemical_name_systematic
;
N-(1-Hydroxy-1\l^5^-pyridin-2-yl)-2,6-diphenoxybenzamide
;
_cell_volume    988.297
_exptl_crystal_density_diffrn 1.339
_diffrn_ambient_temperature 291.1
#These two values have been output from a single CSD field.
_refine_ls_R_factor_gt 0.053
_refine_ls_wR_factor_gt 0.053
_symmetry_cell_setting triclinic
_symmetry_space_group_name_H-M 'P -1'
_symmetry_Int_Tables_number 2
loop_
_symmetry_equiv_pos_site_id
_symmetry_equiv_pos_as_xyz
1 x,y,z
2 -x,-y,-z
_cell_length_a 7.2876(7)
_cell_length_b 12.0282(12)
_cell_length_c 12.8131(19)
_cell_angle_alpha 115.870(12)
_cell_angle_beta 93.712(10)
_cell_angle_gamma 98.655(8)
_cell_formula_units_Z 2
loop_
_atom_type_symbol
_atom_type_radius_bond
C 0.68
H 0.23
N 0.68
O 0.68
loop_
_atom_site_label
_atom_site_type_symbol
_atom_site_fract_x
_atom_site_fract_y
_atom_site_fract_z
O1 O 0.0530(2) -0.00510(13) -0.11710(12)
O2 O 0.37935(19) 0.37360(13) 0.20214(13)
O3 O 0.2770(2) 0.24223(17) 0.37167(13)
O4 O -0.08447(19) 0.36963(13) 0.14159(12)
N1 N 0.2371(2) 0.03192(14) -0.10061(14)
N2 N 0.2074(2) 0.17712(16) 0.08534(14)
H1 H 0.108(3) 0.127(2) 0.0756(19)
C1 C 0.3387(3) -0.0287(2) -0.18560(19)
H2 H 0.27780 -0.09780 -0.25450
C2 C 0.5285(3) 0.0096(2) -0.1719(2)
H3 H 0.59620 -0.03360 -0.23070
C3 C 0.6189(3) 0.1124(2) -0.0708(2)
H4 H 0.74770 0.14050 -0.06130
C4 C 0.5163(3) 0.1734(2) 0.01655(18)
H5 H 0.57630 0.24310 0.08530
C5 C 0.3251(3) 0.13150(17) 0.00220(16)
C6 C 0.2430(2) 0.29135(18) 0.18154(16)
C7 C 0.0974(2) 0.31075(17) 0.26226(15)
C8 C 0.1184(3) 0.28826(19) 0.35969(17)
C9 C -0.0118(3) 0.3119(2) 0.43687(18)
H6 H 0.00330 0.29640 0.50160
C10 C -0.1646(3) 0.3590(2) 0.41627(18)
H7 H -0.25210 0.37540 0.46810
C11 C -0.1901(3) 0.38199(19) 0.32033(18)
H8 H -0.29350 0.41350 0.30720
C12 C -0.0587(3) 0.35727(17) 0.24426(16)
C13 C 0.3090(3) 0.2189(2) 0.46771(19)
C14 C 0.2531(5) 0.1019(3) 0.4573(3)
H9 H 0.18530 0.03690 0.38800
C15 C 0.3017(7) 0.0810(4) 0.5568(4)
H10 H 0.26890 0.00180 0.55390
C16 C 0.3981(6) 0.1825(5) 0.6561(4)
H11 H 0.43060 0.17000 0.72100
C17 C 0.4481(4) 0.2978(4) 0.6655(3)
H12 H 0.51000 0.36420 0.73590
C18 C 0.4072(3) 0.3164(3) 0.5706(2)
H13 H 0.44560 0.39570 0.57480
C19 C -0.0825(3) 0.4904(2) 0.15270(18)
C20 C 0.0428(3) 0.5936(2) 0.2351(2)
H14 H 0.12280 0.58610 0.29020
C21 C 0.0486(4) 0.7095(3) 0.2351(3)
H15 H 0.13250 0.78030 0.29080
C22 C -0.0699(4) 0.7200(3) 0.1526(3)
H16 H -0.06520 0.79760 0.15240
C23 C -0.1945(4) 0.6157(3) 0.0710(3)
H17 H -0.27450 0.62310 0.01580
C24 C -0.2023(3) 0.4994(3) 0.0698(2)
H18 H -0.28660 0.42870 0.01430
#END
