
#######################################################################
#
#                 Cambridge Crystallographic Data Centre
#                                CCDC
#
#######################################################################
#
# If this CIF has been generated from an entry in the Cambridge
# Structural Database, then it will include bibliographic, chemical,
# crystal, experimental, refinement or atomic coordinate data resulting
# from the CCDC's data processing and validation procedures.
#
#######################################################################

data_CSD_CIF_WITTUQ
_audit_creation_date 2014-03-04
_audit_creation_method CSD-ConQuest-V1
_database_code_CSD WITTUQ
_database_code_depnum_ccdc_archive 'CCDC 974844'
_chemical_formula_sum 'C26 H20 N4 O12'
_chemical_formula_moiety
;
C26 H20 N4 O12
;
_journal_coden_Cambridge 1336
_journal_volume 16
_journal_year 2014
_journal_page_first 1084
_journal_name_full 'Org.Lett. '
loop_
_publ_author_name
"Xinglong Lin"
"Xincui Ye"
"Xianwei Sun"
"Yuebao Zhang"
"Lu Gao"
"Zhenlei Song"
_chemical_name_systematic
;
5-Phenylhex-1-ene-3,4-diyl bis(3,5-dinitrobenzoate)
;
_cell_volume   5490.830
_exptl_crystal_colour 'light colorless'
_exptl_crystal_density_diffrn 1.404
_exptl_special_details
;
Heat-sensitive

;
_exptl_crystal_description 'block'
_exptl_crystal_preparation 'tetrahydrofuran/methanol'
_diffrn_ambient_temperature 298
#These two values have been output from a single CSD field.
_refine_ls_R_factor_gt 0.068
_refine_ls_wR_factor_gt 0.068
_symmetry_cell_setting orthorhombic
_symmetry_space_group_name_H-M 'P b c a'
_symmetry_Int_Tables_number 61
loop_
_symmetry_equiv_pos_site_id
_symmetry_equiv_pos_as_xyz
1 x,y,z
2 1/2-x,-y,1/2+z
3 1/2+x,1/2-y,-z
4 -x,1/2+y,1/2-z
5 -x,-y,-z
6 -1/2+x,y,-1/2-z
7 -1/2-x,-1/2+y,z
8 x,-1/2-y,-1/2+z
_cell_length_a 10.2150(3)
_cell_length_b 19.3027(7)
_cell_length_c 27.8472(10)
_cell_angle_alpha 90
_cell_angle_beta 90
_cell_angle_gamma 90
_cell_formula_units_Z 8
loop_
_atom_type_symbol
_atom_type_radius_bond
C 0.68
H 0.23
N 0.68
O 0.68
loop_
_atom_site_label
_atom_site_type_symbol
_atom_site_fract_x
_atom_site_fract_y
_atom_site_fract_z
O1 O 0.3348(3) 0.60649(16) 0.23578(9)
O2 O 0.1484(4) 0.5691(2) 0.21162(11)
O3 O -0.1139(4) 0.4264(3) 0.31507(13)
O4 O -0.0305(3) 0.38833(16) 0.37974(12)
O5 O 0.3468(3) 0.51198(16) 0.45070(8)
O6 O 0.4670(2) 0.57467(11) 0.39947(7)
O7 O 0.62421(19) 0.69659(11) 0.40010(7)
O8 O 0.7371(2) 0.77371(12) 0.44423(8)
O9 O 0.6401(5) 0.7189(3) 0.22542(13)
O10 O 0.8091(6) 0.7655(3) 0.19328(14)
O11 O 1.1076(5) 0.8975(2) 0.28944(19)
O12 O 1.1081(5) 0.8806(3) 0.3668(2)
N1 N 0.2322(4) 0.57565(18) 0.24222(11)
N2 N -0.0288(3) 0.4255(2) 0.34507(13)
N3 N 0.7423(6) 0.7503(3) 0.22846(17)
N4 N 1.0599(6) 0.8754(3) 0.3261(2)
C1 C 0.2944(3) 0.55794(16) 0.32632(11)
H1 H 0.36650 0.58650 0.32150
C2 C 0.2076(3) 0.54485(18) 0.28952(11)
C3 C 0.0996(3) 0.50326(18) 0.29496(12)
H2 H 0.04110 0.49590 0.26990
C4 C 0.0821(3) 0.47321(18) 0.33893(12)
C5 C 0.1651(3) 0.48460(16) 0.37704(11)
H3 H 0.14980 0.46370 0.40660
C6 C 0.2719(3) 0.52773(15) 0.37051(10)
C7 C 0.3633(3) 0.53737(17) 0.41189(11)
C8 C 0.5714(3) 0.58676(17) 0.43460(11)
H4 H 0.54950 0.56290 0.46460
C9 C 0.5776(3) 0.66377(17) 0.44374(11)
H5 H 0.64180 0.67220 0.46920
C10 C 0.4488(4) 0.6945(2) 0.45897(14)
H6 H 0.41560 0.67950 0.48830
C11 C 0.3790(4) 0.7395(3) 0.4359(2)
H7 H 0.40750 0.75640 0.40640
H8 H 0.30030 0.75500 0.44890
C12 C 0.6926(3) 0.55305(18) 0.41248(12)
H9 H 0.68880 0.56120 0.37780
C13 C 0.8223(3) 0.58237(16) 0.43032(12)
C14 C 0.9043(3) 0.61565(17) 0.39839(13)
H10 H 0.87990 0.61990 0.36640
C15 C 1.0237(3) 0.64296(18) 0.41378(16)
H11 H 1.07880 0.66510 0.39210
C16 C 1.0591(4) 0.6370(2) 0.46085(18)
H12 H 1.13800 0.65560 0.47140
C17 C 0.9797(4) 0.6041(3) 0.49219(16)
H13 H 1.00450 0.60000 0.52420
C18 C 0.8625(4) 0.5766(2) 0.47720(14)
H14 H 0.80950 0.55360 0.49920
C19 C 0.6856(4) 0.4742(2) 0.42032(18)
H15 H 0.75910 0.45240 0.40510
H16 H 0.60590 0.45660 0.40670
H17 H 0.68730 0.46430 0.45410
C20 C 0.7085(3) 0.74895(15) 0.40637(11)
C21 C 0.7676(3) 0.77117(15) 0.36021(12)
C22 C 0.7213(4) 0.75080(19) 0.31597(12)
H18 H 0.64790 0.72250 0.31330
C23 C 0.7885(5) 0.7741(2) 0.27500(14)
C24 C 0.8981(5) 0.8158(2) 0.27866(19)
H19 H 0.94120 0.83170 0.25140
C25 C 0.9406(5) 0.8328(2) 0.32292(19)
C26 C 0.8787(4) 0.81221(16) 0.36355(14)
H20 H 0.91050 0.82550 0.39350
#END
