
#######################################################################
#
#                 Cambridge Crystallographic Data Centre
#                                CCDC
#
#######################################################################
#
# If this CIF has been generated from an entry in the Cambridge
# Structural Database, then it will include bibliographic, chemical,
# crystal, experimental, refinement or atomic coordinate data resulting
# from the CCDC's data processing and validation procedures.
#
#######################################################################

data_CSD_CIF_WIWLUJ
_audit_creation_date 2000-11-09
_audit_creation_method CSD-ConQuest-V1
_database_code_CSD WIWLUJ
_database_code_depnum_ccdc_archive 'CCDC 149701'
_database_code_depnum_ccdc_journal 186/2071
_chemical_formula_sum 'C40 H41 N1 O12'
_chemical_formula_moiety
;
C40 H41 N1 O12
;
_journal_coden_Cambridge 186
_journal_year 2000
_journal_page_first 2721
_journal_name_full 'J.Chem.Soc.,Dalton Trans. '
loop_
_publ_author_name
"J.B.Cooper"
"M.G.B.Drew"
"P.D.Beer"
_chemical_name_systematic
;
25,26,27-tris((Ethoxycarbonyl)methoxy)-28-hydroxy-17-nitrocalix(4)arene
;
_cell_volume   3717.544
_exptl_crystal_colour 'yellow'
_exptl_crystal_density_diffrn 1.301
_exptl_special_details
;
cone conformation

;
_exptl_crystal_preparation 'ethanol'
_diffrn_ambient_temperature ?
_diffrn_special_details
;
The study was carried out at room temperature,in the range 283-303K

;
#These two values have been output from a single CSD field.
_refine_ls_R_factor_gt 0.0818
_refine_ls_wR_factor_gt 0.0818
_symmetry_cell_setting monoclinic
_symmetry_space_group_name_H-M 'P 21/n'
_symmetry_Int_Tables_number 14
loop_
_symmetry_equiv_pos_site_id
_symmetry_equiv_pos_as_xyz
1 x,y,z
2 1/2+x,1/2-y,1/2+z
3 -x,-y,-z
4 -1/2-x,-1/2+y,-1/2-z
_cell_length_a 13.193(15)
_cell_length_b 21.08(2)
_cell_length_c 14.730(15)
_cell_angle_alpha 90
_cell_angle_beta 114.84(1)
_cell_angle_gamma 90
_cell_formula_units_Z 4
loop_
_atom_type_symbol
_atom_type_radius_bond
C 0.68
H 0.23
N 0.68
O 0.68
loop_
_atom_site_label
_atom_site_type_symbol
_atom_site_fract_x
_atom_site_fract_y
_atom_site_fract_z
C1 C 0.9109(3) -0.03797(15) 0.6115(3)
C2 C 0.9381(3) -0.08377(17) 0.6852(3)
H1 H 0.93470 -0.12650 0.66830
C3 C 0.9703(3) -0.06628(19) 0.7841(3)
C4 C 0.9763(3) -0.00380(18) 0.8108(3)
H2 H 0.99660 0.00670 0.87750
C5 C 0.9528(3) 0.04380(16) 0.7409(2)
C6 C 0.9203(3) 0.02639(15) 0.6411(2)
C7 C 0.9620(3) 0.11285(17) 0.7724(3)
H3 H 1.00210 0.11580 0.84450
H4 H 1.00420 0.13600 0.74280
C8 C 0.8478(3) 0.14267(16) 0.7398(3)
C9 C 0.7830(4) 0.12890(19) 0.7912(3)
H5 H 0.81150 0.10320 0.84780
C10 C 0.6762(4) 0.1533(2) 0.7584(3)
H6 H 0.63340 0.14420 0.79340
C11 C 0.6326(3) 0.19101(18) 0.6743(3)
H7 H 0.56020 0.20650 0.65270
C12 C 0.6937(3) 0.20608(15) 0.6221(3)
C13 C 0.8019(3) 0.18206(15) 0.6561(2)
C14 C 0.6428(3) 0.24696(15) 0.5284(3)
H8 H 0.61180 0.28510 0.54360
H9 H 0.70100 0.25960 0.50820
C15 C 0.5517(3) 0.21214(16) 0.4427(3)
C16 C 0.4402(3) 0.22530(17) 0.4167(3)
H10 H 0.42100 0.25780 0.44930
C17 C 0.3575(3) 0.1909(2) 0.3434(3)
H11 H 0.28280 0.20090 0.32520
C18 C 0.3857(3) 0.14196(18) 0.2974(3)
H12 H 0.32890 0.11780 0.25030
C19 C 0.4957(3) 0.12684(16) 0.3182(2)
C20 C 0.5783(3) 0.16514(15) 0.3892(2)
C21 C 0.5238(3) 0.07015(17) 0.2697(2)
H13 H 0.57490 0.08340 0.24150
H14 H 0.45600 0.05500 0.21540
C22 C 0.5765(3) 0.01609(16) 0.3431(2)
C23 C 0.5140(3) -0.01751(17) 0.3827(3)
H15 H 0.43850 -0.00820 0.36100
C24 C 0.5611(4) -0.06441(18) 0.4535(3)
H16 H 0.51720 -0.08790 0.47680
C25 C 0.6735(3) -0.07593(17) 0.4890(3)
H17 H 0.70570 -0.10610 0.53900
C26 C 0.7402(3) -0.04420(14) 0.4526(2)
C27 C 0.6888(3) -0.00082(15) 0.3756(2)
C28 C 0.8662(3) -0.05423(16) 0.5029(3)
H18 H 0.88320 -0.09820 0.49540
H19 H 0.90170 -0.02770 0.47080
N1 N 0.9999(4) -0.1148(2) 0.8613(3)
O1 O 1.0232(4) -0.09962(19) 0.9472(3)
O2 O 1.0003(5) -0.1699(2) 0.8364(3)
C29 C 0.9326(3) 0.24900(17) 0.6310(3)
H20 H 0.97720 0.24940 0.70270
H21 H 0.88550 0.28640 0.61280
C30 C 1.0063(4) 0.2486(2) 0.5776(3)
O3 O 1.0222(4) 0.2038(2) 0.5368(4)
O4 O 1.0529(3) 0.30472(16) 0.5819(3)
C31 C 1.1333(6) 0.3087(4) 0.5370(5)
H22 H 1.19460 0.27950 0.57060
H23 H 1.09710 0.29680 0.46690
C32 C 1.1749(10) 0.3717(6) 0.5460(8)
H24 H 1.24100 0.37190 0.53390
H25 H 1.19270 0.38720 0.61220
H26 H 1.11920 0.39840 0.49790
C33 C 0.7358(3) 0.16832(17) 0.3480(3)
H27 H 0.68790 0.15040 0.28340
H28 H 0.80820 0.14790 0.37010
C34 C 0.7498(4) 0.2370(2) 0.3348(4)
O5 O 0.7230(7) 0.2795(2) 0.3653(5)
O6 O 0.7996(6) 0.2443(2) 0.2768(4)
C35 C 0.812(1) 0.3122(4) 0.2499(9)
H29 H 0.74300 0.32550 0.19520
H30 H 0.82420 0.33920 0.30690
C36 C 0.8848(10) 0.3191(5) 0.2268(11)
H31 H 0.90230 0.36340 0.22860
H32 H 0.86350 0.30310 0.16020
H33 H 0.94930 0.29640 0.27230
C37 C 0.7888(3) -0.00758(19) 0.2738(3)
H34 H 0.81530 -0.04760 0.30820
H35 H 0.85220 0.01370 0.27020
C38 C 0.7055(4) -0.0214(2) 0.1699(3)
O7 O 0.7530(3) -0.04413(18) 0.1172(2)
O8 O 0.6045(3) -0.0166(3) 0.1404(3)
C39 C 0.6853(5) -0.0605(4) 0.0137(4)
H36 H 0.65340 -0.10250 0.00840
H37 H 0.62540 -0.03010 -0.01720
C40 C 0.7618(8) -0.0586(7) -0.0323(6)
H38 H 0.77540 -0.01520 -0.04390
H39 H 0.73030 -0.08090 -0.09490
H40 H 0.83090 -0.07820 0.01100
O9 O 0.8987(2) 0.06814(10) 0.56639(16)
H41 H 0.89850 0.10420 0.58720
O10 O 0.8664(2) 0.19364(10) 0.60274(17)
O11 O 0.69041(18) 0.1534(1) 0.41623(16)
O12 O 0.74968(19) 0.03005(10) 0.33178(17)
#END
