
#######################################################################
#
#                 Cambridge Crystallographic Data Centre
#                                CCDC
#
#######################################################################
#
# If this CIF has been generated from an entry in the Cambridge
# Structural Database, then it will include bibliographic, chemical,
# crystal, experimental, refinement or atomic coordinate data resulting
# from the CCDC's data processing and validation procedures.
#
#######################################################################

data_CSD_CIF_WIWYUX
_audit_creation_date 2008-07-15
_audit_creation_method CSD-ConQuest-V1
_database_code_CSD WIWYUX
_database_code_depnum_ccdc_archive 'CCDC 663473'
_chemical_formula_sum 'C24 H20 N2 O2'
_chemical_formula_moiety
;
C24 H20 N2 O2
;
_journal_coden_Cambridge 16
_journal_volume 64
_journal_year 2008
_journal_page_first 1388
_journal_name_full 'Tetrahedron '
loop_
_publ_author_name
"S.Tanaka"
"Y.Oguma"
"Y.Tanaka"
"H.Echizen"
"H.Masu"
"K.Yamaguchi"
"K.Kishikawa"
"S.Kohmoto"
"M.Yamamoto"
_chemical_name_systematic
;
erythro-(1E)-(3RS,4SR)-2-aza-1,3-dinaphthyl-4-nitropent-1-ene
;
_chemical_melting_point 400.65
_cell_volume   1891.291
_exptl_crystal_colour 'colorless'
_exptl_crystal_density_diffrn 1.294
_exptl_special_details
;
Melting point range 400.65-402.15K

;
_exptl_crystal_description 'prismatic'
_diffrn_ambient_temperature 298.1
#These two values have been output from a single CSD field.
_refine_ls_R_factor_gt 0.0529
_refine_ls_wR_factor_gt 0.0529
_symmetry_cell_setting monoclinic
_symmetry_space_group_name_H-M 'P 21/a'
_symmetry_Int_Tables_number 14
loop_
_symmetry_equiv_pos_site_id
_symmetry_equiv_pos_as_xyz
1 x,y,z
2 1/2-x,1/2+y,-z
3 -x,-y,-z
4 -1/2+x,-1/2-y,z
_cell_length_a 21.282(2)
_cell_length_b 7.9260(12)
_cell_length_c 11.2671(16)
_cell_angle_alpha 90
_cell_angle_beta 95.657(9)
_cell_angle_gamma 90
_cell_formula_units_Z 4
loop_
_atom_type_symbol
_atom_type_radius_bond
C 0.68
H 0.23
N 0.68
O 0.68
loop_
_atom_site_label
_atom_site_type_symbol
_atom_site_fract_x
_atom_site_fract_y
_atom_site_fract_z
O1 O -0.01611(11) 0.4243(3) 0.3781(2)
O2 O 0.06057(12) 0.5669(3) 0.3199(3)
N1 N 0.03947(12) 0.4431(3) 0.3657(2)
N2 N 0.04178(11) 0.1282(3) 0.2347(2)
C1 C 0.05996(18) 0.1928(4) 0.4954(3)
C2 C 0.08537(12) 0.3030(3) 0.4028(2)
C3 C 0.09930(12) 0.2135(3) 0.2858(2)
C4 C 0.15437(12) 0.0943(3) 0.3143(2)
C5 C 0.21771(12) 0.1569(3) 0.3159(2)
C6 C 0.23268(13) 0.3271(3) 0.2902(2)
C7 C 0.29405(14) 0.3805(4) 0.2902(3)
C8 C 0.34404(14) 0.2660(5) 0.3169(3)
C9 C 0.33180(13) 0.1032(4) 0.3416(2)
C10 C 0.26883(12) 0.0430(4) 0.3432(2)
C11 C 0.25571(16) -0.1273(4) 0.3691(2)
C12 C 0.19561(17) -0.1831(4) 0.3684(2)
C13 C 0.14474(14) -0.0713(4) 0.3406(2)
C14 C 0.01390(13) 0.2021(4) 0.1434(2)
C15 C -0.04775(13) 0.1569(4) 0.0791(2)
C16 C -0.07948(13) -0.0005(4) 0.0876(2)
C17 C -0.05393(14) -0.1409(4) 0.1561(2)
C18 C -0.08670(17) -0.2883(4) 0.1564(3)
C19 C -0.14577(18) -0.3090(5) 0.0914(3)
C20 C -0.17131(16) -0.1784(4) 0.0254(3)
C21 C -0.14010(12) -0.0223(4) 0.0210(2)
C22 C -0.16740(16) 0.1138(4) -0.0484(3)
C23 C -0.13570(18) 0.2628(5) -0.0555(3)
C24 C -0.07579(16) 0.2812(4) 0.0078(2)
H1 H 0.09530 0.13170 0.52980
H2 H 0.05230 0.25370 0.56080
H3 H 0.02630 0.12170 0.45280
H4 H 0.12430 0.35490 0.43770
H5 H 0.10960 0.32130 0.23410
H6 H 0.19830 0.41470 0.27090
H7 H 0.29700 0.50680 0.26380
H8 H 0.39220 0.32230 0.32400
H9 H 0.36940 0.01780 0.35950
H10 H 0.29520 -0.20220 0.39350
H11 H 0.18230 -0.30160 0.39550
H12 H 0.09880 -0.12290 0.34140
H13 H 0.02880 0.32910 0.10190
H14 H -0.00980 -0.13780 0.20280
H15 H -0.06880 -0.40080 0.20600
H16 H -0.17530 -0.43230 0.10550
H17 H -0.21530 -0.19360 -0.02760
H18 H -0.21210 0.08550 -0.09230
H19 H -0.15550 0.35730 -0.10770
H20 H -0.05450 0.40520 -0.01320
#END
