
#######################################################################
#
#                 Cambridge Crystallographic Data Centre
#                                CCDC
#
#######################################################################
#
# If this CIF has been generated from an entry in the Cambridge
# Structural Database, then it will include bibliographic, chemical,
# crystal, experimental, refinement or atomic coordinate data resulting
# from the CCDC's data processing and validation procedures.
#
#######################################################################

data_CSD_CIF_WIXGOB
_audit_creation_date 2014-03-05
_audit_creation_method CSD-ConQuest-V1
_database_code_CSD WIXGOB
_database_code_depnum_ccdc_archive 'CCDC 938775'
_chemical_formula_sum 'C20 H8 N2 O4'
_chemical_formula_moiety
;
C20 H8 N2 O4
;
_journal_coden_Cambridge 1220
_journal_volume 20
_journal_year 2014
_journal_page_first 4653
_journal_name_full 'Chem.-Eur.J. '
loop_
_publ_author_name
"M.Gulcur"
"P.Moreno-Garcia"
"Xiaotao Zhao"
"M.Baghernejad"
"A.S.Batsanov"
"Wenjing Hong"
"M.R.Bryce"
"T.Wandlowski"
_chemical_name_systematic
;
1,1'-Octa-1,3,5,7-tetrayne-1,8-diylbis(4-nitrobenzene)
;
_chemical_name_common
;
1,8-bis(4-nitrophenyl)octa-1,3,5,7-tetrayne
;
_cell_volume    780.237
_exptl_crystal_colour 'yellow'
_exptl_crystal_density_diffrn 1.448
_exptl_crystal_description 'needle'
_diffrn_ambient_temperature 120
#These two values have been output from a single CSD field.
_refine_ls_R_factor_gt 0.0496
_refine_ls_wR_factor_gt 0.0496
_symmetry_cell_setting monoclinic
_symmetry_space_group_name_H-M 'P 21/n'
_symmetry_Int_Tables_number 14
loop_
_symmetry_equiv_pos_site_id
_symmetry_equiv_pos_as_xyz
1 x,y,z
2 1/2-x,1/2+y,1/2-z
3 -x,-y,-z
4 -1/2+x,-1/2-y,-1/2+z
_cell_length_a 3.7441(4)
_cell_length_b 7.1001(7)
_cell_length_c 29.394(3)
_cell_angle_alpha 90
_cell_angle_beta 93.12(3)
_cell_angle_gamma 90
_cell_formula_units_Z 2
loop_
_atom_type_symbol
_atom_type_radius_bond
C 0.68
H 0.23
N 0.68
O 0.68
loop_
_atom_site_label
_atom_site_type_symbol
_atom_site_fract_x
_atom_site_fract_y
_atom_site_fract_z
O1 O 0.1674(6) -0.2567(3) 0.32202(8)
O2 O 0.4490(6) -0.1384(3) 0.26590(8)
N1 N 0.3471(6) -0.1324(3) 0.30470(9)
C1 C 0.4423(7) 0.0340(4) 0.33272(10)
C2 C 0.5921(8) 0.1877(4) 0.31204(10)
H1 H 0.642(7) 0.182(3) 0.2792(10)
C3 C 0.6782(8) 0.3443(4) 0.33832(10)
H2 H 0.783(6) 0.449(3) 0.3240(8)
C4 C 0.6176(8) 0.3443(4) 0.38473(10)
C5 C 0.4645(8) 0.1861(4) 0.40479(11)
H3 H 0.415(6) 0.190(3) 0.4364(9)
C6 C 0.3751(8) 0.0300(4) 0.37858(10)
H4 H 0.252(8) -0.086(4) 0.3911(9)
C7 C 0.7120(8) 0.5032(4) 0.41288(10)
C8 C 0.7916(8) 0.6330(4) 0.4376(1)
C9 C 0.8819(8) 0.7843(4) 0.46465(10)
C10 C 0.9586(8) 0.9217(4) 0.48747(10)
O1B O 1.8326(6) 2.2567(3) 0.67798(8)
O2B O 1.5510(6) 2.1384(3) 0.73410(8)
N1B N 1.6529(6) 2.1324(3) 0.69530(9)
C1B C 1.5577(7) 1.9660(4) 0.66728(10)
C2B C 1.4079(8) 1.8123(4) 0.68796(10)
H1B H 1.358(7) 1.818(3) 0.7208(10)
C3B C 1.3218(8) 1.6557(4) 0.66168(10)
H2B H 1.217(6) 1.551(3) 0.6760(8)
C4B C 1.3824(8) 1.6557(4) 0.61527(10)
C5B C 1.5355(8) 1.8139(4) 0.59521(11)
H3B H 1.585(6) 1.810(3) 0.5636(9)
C6B C 1.6249(8) 1.9700(4) 0.62142(10)
H4B H 1.748(8) 2.086(4) 0.6089(9)
C7B C 1.2880(8) 1.4968(4) 0.58712(10)
C8B C 1.2084(8) 1.3670(4) 0.5624(1)
C9B C 1.1181(8) 1.2157(4) 0.53535(10)
C10B C 1.0414(8) 1.0783(4) 0.51253(10)
#END
