
#######################################################################
#
#                 Cambridge Crystallographic Data Centre
#                                CCDC
#
#######################################################################
#
# If this CIF has been generated from an entry in the Cambridge
# Structural Database, then it will include bibliographic, chemical,
# crystal, experimental, refinement or atomic coordinate data resulting
# from the CCDC's data processing and validation procedures.
#
#######################################################################

data_CSD_CIF_WIXTUT
_audit_creation_date 2008-07-15
_audit_creation_method CSD-ConQuest-V1
_database_code_CSD WIXTUT
_database_code_depnum_ccdc_archive 'CCDC 666872'
_chemical_formula_sum 'C20 H27 N3 O7'
_chemical_formula_moiety
;
C20 H27 N3 O7
;
_journal_coden_Cambridge 1090
_journal_volume 19
_journal_year 2008
_journal_page_first 231
_journal_name_full 'Tetrahedron:Asymm. '
loop_
_publ_author_name
"S.Fioravanti"
"F.Marchetti"
"L.Pellacani"
"L.Ranieri"
"P.A.Tardella"
_chemical_name_systematic
;
t-Butyl 
(4S)-4-((2'S,3'S)-1'-(benzyloxycarbonyl)-3'-nitroaziridin-2'-yl)-2,2-dimethyl-
1,3-oxazolidine-3-carboxylate
;
_chemical_melting_point 362.15
_cell_volume   2134.058
_exptl_crystal_colour 'colorless'
_exptl_crystal_density_diffrn 1.312
_exptl_special_details
;
Melting point range 362.15-364.15K

;
_exptl_crystal_description 'needle'
_exptl_crystal_preparation 'hexane'
_diffrn_ambient_temperature 100
_diffrn_radiation_probe x-ray
_diffrn_source synchrotron
#These two values have been output from a single CSD field.
_refine_ls_R_factor_gt 0.0507
_refine_ls_wR_factor_gt 0.0507
_symmetry_cell_setting orthorhombic
_symmetry_space_group_name_H-M 'P 21 21 21'
_symmetry_Int_Tables_number 19
loop_
_symmetry_equiv_pos_site_id
_symmetry_equiv_pos_as_xyz
1 x,y,z
2 1/2-x,-y,1/2+z
3 -x,1/2+y,1/2-z
4 1/2+x,1/2-y,-z
_cell_length_a 17.937(1)
_cell_length_b 5.739(1)
_cell_length_c 20.731(2)
_cell_angle_alpha 90
_cell_angle_beta 90
_cell_angle_gamma 90
_cell_formula_units_Z 4
loop_
_atom_type_symbol
_atom_type_radius_bond
C 0.68
H 0.23
N 0.68
O 0.68
loop_
_atom_site_label
_atom_site_type_symbol
_atom_site_fract_x
_atom_site_fract_y
_atom_site_fract_z
C1 C 0.06499(9) -0.1491(2) 0.18657(7)
H1 H 0.06530 -0.28840 0.16010
H2 H 0.07550 -0.19230 0.23090
O1 O -0.00475(6) -0.03108(19) 0.18184(5)
C2 C -0.00411(8) 0.0935(2) 0.12201(7)
N1 N 0.07565(7) 0.1568(2) 0.11602(6)
C3 C 0.12179(8) 0.0283(2) 0.16198(7)
H3 H 0.16280 -0.05070 0.13960
C4 C -0.02852(9) -0.0635(3) 0.06675(7)
H4 H 0.00350 -0.19750 0.06490
H5 H -0.02540 0.02080 0.02690
H6 H -0.07900 -0.11290 0.07370
C5 C -0.05439(9) 0.3031(3) 0.12942(8)
H7 H -0.10330 0.25280 0.14210
H8 H -0.05740 0.38460 0.08910
H9 H -0.03440 0.40510 0.16180
C6 C 0.10257(9) 0.2836(2) 0.06558(7)
O2 O 0.17737(6) 0.2825(2) 0.06711(6)
O3 O 0.06355(7) 0.3828(2) 0.02641(6)
C7 C 0.15188(8) 0.1892(2) 0.21378(7)
H10 H 0.12020 0.32060 0.22650
C8 C 0.20404(9) 0.0948(3) 0.26411(7)
H11 H 0.21440 -0.07290 0.26360
N2 N 0.23136(7) 0.2311(2) 0.21152(6)
C9 C 0.2205(1) 0.4037(3) 0.01644(9)
C10 C 0.19796(13) 0.3184(3) -0.05011(9)
H12 H 0.19470 0.15140 -0.04990
H13 H 0.23460 0.36670 -0.08110
H14 H 0.15040 0.38310 -0.06140
C11 C 0.21139(12) 0.6656(3) 0.02413(10)
H15 H 0.15990 0.70670 0.01850
H16 H 0.24100 0.74430 -0.00770
H17 H 0.22750 0.71130 0.06640
C12 C 0.29947(11) 0.3293(4) 0.03237(12)
H18 H 0.31210 0.38160 0.07500
H19 H 0.33330 0.39660 0.00170
H20 H 0.30300 0.16250 0.03050
N3 N 0.19974(8) 0.2117(3) 0.32793(6)
O4 O 0.20568(9) 0.0874(3) 0.37529(7)
O5 O 0.18987(7) 0.4226(2) 0.32933(6)
C13 C 0.26489(9) 0.4488(3) 0.21955(8)
O6 O 0.32750(7) 0.4200(2) 0.25351(6)
O7 O 0.24263(7) 0.6270(2) 0.19609(6)
C14 C 0.37388(10) 0.6269(3) 0.26124(9)
H21 H 0.40760 0.60370 0.29730
H22 H 0.34230 0.75930 0.27120
C15 C 0.41850(9) 0.6795(3) 0.20184(8)
C16 C 0.47306(11) 0.5248(3) 0.18199(9)
H23 H 0.48050 0.38740 0.20480
C17 C 0.51665(13) 0.5725(4) 0.12849(10)
H24 H 0.55280 0.46660 0.11530
C18 C 0.50636(12) 0.7783(4) 0.09458(9)
H25 H 0.53610 0.81250 0.05910
C19 C 0.45182(13) 0.9313(3) 0.11400(11)
H26 H 0.44440 1.06880 0.09120
C20 C 0.40764(12) 0.8828(3) 0.16727(11)
H27 H 0.37070 0.98710 0.17970
#END
