
#######################################################################
#
#                 Cambridge Crystallographic Data Centre
#                                CCDC
#
#######################################################################
#
# If this CIF has been generated from an entry in the Cambridge
# Structural Database, then it will include bibliographic, chemical,
# crystal, experimental, refinement or atomic coordinate data resulting
# from the CCDC's data processing and validation procedures.
#
#######################################################################

data_CSD_CIF_WIZCUD
_audit_creation_date 2000-11-21
_audit_creation_method CSD-ConQuest-V1
_database_code_CSD WIZCUD
_database_code_depnum_ccdc_archive 'CCDC 148765'
_database_code_depnum_ccdc_journal 440/175
_chemical_formula_sum 'C20 H17 N1 O5'
_chemical_formula_moiety
;
C20 H17 N1 O5
;
_journal_coden_Cambridge 440
_journal_volume 24
_journal_year 2000
_journal_page_first 347
_journal_name_full 'New J.Chem. '
loop_
_publ_author_name
"K.Itoh"
"S.Kishimoto"
_chemical_name_systematic
;
3-Benzoyl-4-phenyl-5-(2-methoxycarbonyl)ethenyl-4,5-dihydro-isoxazole N-oxide
;
_chemical_melting_point 442
_cell_volume   1719.315
_exptl_special_details
;
Melting point range 442-443K

;
_exptl_crystal_description 'prismatic'
_diffrn_ambient_temperature ?
_diffrn_special_details
;
The study was carried out at room temperature,in the range 283-303K

;
#These two values have been output from a single CSD field.
_refine_ls_R_factor_gt 0.0453
_refine_ls_wR_factor_gt 0.0453
_symmetry_cell_setting monoclinic
_symmetry_space_group_name_H-M 'P 21/c'
_symmetry_Int_Tables_number 14
loop_
_symmetry_equiv_pos_site_id
_symmetry_equiv_pos_as_xyz
1 x,y,z
2 x,1/2-y,1/2+z
3 -x,-y,-z
4 -x,-1/2+y,-1/2-z
_cell_length_a 15.197(1)
_cell_length_b 5.808(2)
_cell_length_c 19.5635(9)
_cell_angle_alpha 90
_cell_angle_beta 95.321(5)
_cell_angle_gamma 90
_cell_formula_units_Z 4
loop_
_atom_type_symbol
_atom_type_radius_bond
C 0.68
H 0.23
N 0.68
O 0.68
loop_
_atom_site_label
_atom_site_type_symbol
_atom_site_fract_x
_atom_site_fract_y
_atom_site_fract_z
O1 O 0.35669(9) 0.4483(3) 1.02226(7)
O2 O 0.25636(10) 0.3920(3) 1.09712(6)
O3 O 0.5205(1) 0.0474(3) 0.90211(8)
O4 O 0.57802(10) 0.2198(3) 0.81437(8)
O5 O 0.2042(1) -0.2166(2) 0.98602(7)
N1 N 0.2849(1) 0.3187(3) 1.04445(8)
C1 C 0.3952(1) 0.3092(4) 0.97088(10)
C2 C 0.3234(1) 0.1302(4) 0.94714(9)
C3 C 0.2644(1) 0.1426(3) 1.00399(9)
C4 C 0.4232(2) 0.4698(4) 0.9180(1)
C5 C 0.4803(1) 0.4318(4) 0.8724(1)
C6 C 0.5270(1) 0.2133(4) 0.8663(1)
C7 C 0.6307(2) 0.0187(5) 0.8051(1)
C8 C 0.2737(1) 0.1707(3) 0.87694(8)
C9 C 0.2842(2) 0.0210(4) 0.82352(10)
C10 C 0.2393(2) 0.0564(4) 0.7595(1)
C11 C 0.1837(1) 0.2411(4) 0.7484(1)
C12 C 0.1731(1) 0.3909(4) 0.8010(1)
C13 C 0.2177(1) 0.3565(4) 0.86532(10)
C14 C 0.1980(1) -0.0328(4) 1.01557(9)
C15 C 0.1251(1) 0.0093(3) 1.05986(9)
C16 C 0.1019(2) -0.1647(4) 1.1029(1)
C17 C 0.0300(2) -0.1381(5) 1.1402(1)
C18 C -0.0205(2) 0.0596(5) 1.1330(1)
C19 C 0.0024(2) 0.2328(5) 1.0901(1)
C20 C 0.0760(2) 0.2096(4) 1.0540(1)
H1 H 0.444(1) 0.229(3) 0.9932(9)
H2 H 0.351(1) -0.013(3) 0.9469(8)
H3 H 0.399(1) 0.612(4) 0.918(1)
H4 H 0.495(1) 0.546(4) 0.840(1)
H5 H 0.67020 -0.00690 0.84550
H6 H 0.59370 -0.11260 0.79740
H7 H 0.66450 0.03930 0.76710
H8 H 0.322(1) -0.109(3) 0.8309(9)
H9 H 0.247(1) -0.046(4) 0.723(1)
H10 H 0.155(1) 0.264(4) 0.704(1)
H11 H 0.136(1) 0.521(3) 0.7926(9)
H12 H 0.209(1) 0.458(3) 0.8999(9)
H13 H 0.137(1) -0.300(3) 1.1055(10)
H14 H 0.014(2) -0.258(5) 1.172(1)
H15 H -0.071(1) 0.080(4) 1.160(1)
H16 H -0.033(1) 0.371(4) 1.084(1)
H17 H 0.093(1) 0.326(3) 1.0258(10)
#END
