
#######################################################################
#
#                 Cambridge Crystallographic Data Centre
#                                CCDC
#
#######################################################################
#
# If this CIF has been generated from an entry in the Cambridge
# Structural Database, then it will include bibliographic, chemical,
# crystal, experimental, refinement or atomic coordinate data resulting
# from the CCDC's data processing and validation procedures.
#
#######################################################################

data_CSD_CIF_WIZLAT
_audit_creation_date 2008-07-15
_audit_creation_method CSD-ConQuest-V1
_database_code_CSD WIZLAT
_database_code_depnum_ccdc_archive 'CCDC 686442'
_chemical_formula_sum 'C9 H13 N5 O3'
_chemical_formula_moiety
;
C9 H13 N5 O3
;
_journal_coeditor_code "IUCr GG3151"
_journal_coden_Cambridge 591
_journal_volume 64
_journal_year 2008
_journal_page_first o220
_journal_name_full 'Acta Crystallogr.,Sect.C:Cryst.Struct.Commun. '
loop_
_publ_author_name
"F.Orozco"
"B.Insuasty"
"J.N.Low"
"J.Cobo"
"C.Glidewell"
_chemical_name_systematic
;
6-Amino-3-methyl-2-(morpholin-4-yl)-5-nitrosopyrimidin-4(3H)-one
;
_chemical_melting_point 508
_cell_volume   1063.678
_exptl_crystal_colour 'violet'
_exptl_crystal_density_diffrn 1.494
_exptl_special_details
;
Melting point range 508-509K

;
_exptl_crystal_description 'block'
_exptl_crystal_preparation 'dimethylformamide/ethanol'
_diffrn_ambient_temperature 120
#These two values have been output from a single CSD field.
_refine_ls_R_factor_gt 0.0544
_refine_ls_wR_factor_gt 0.0544
_symmetry_cell_setting monoclinic
_symmetry_space_group_name_H-M 'P 21/n'
_symmetry_Int_Tables_number 14
loop_
_symmetry_equiv_pos_site_id
_symmetry_equiv_pos_as_xyz
1 x,y,z
2 1/2-x,1/2+y,1/2-z
3 -x,-y,-z
4 -1/2+x,-1/2-y,-1/2+z
_cell_length_a 8.9122(6)
_cell_length_b 11.9051(7)
_cell_length_c 10.4111(4)
_cell_angle_alpha 90
_cell_angle_beta 105.649(3)
_cell_angle_gamma 90
_cell_formula_units_Z 4
loop_
_atom_type_symbol
_atom_type_radius_bond
C 0.68
H 0.23
N 0.68
O 0.68
loop_
_atom_site_label
_atom_site_type_symbol
_atom_site_fract_x
_atom_site_fract_y
_atom_site_fract_z
O1 O 0.5236(2) 0.28531(14) 0.73638(16)
O2 O 0.7727(2) 0.56211(15) 0.86723(17)
O3 O 0.6049(2) 0.21552(14) 0.07493(16)
N1 N 0.7099(2) 0.45427(16) 0.47610(18)
N2 N 0.5643(2) 0.30250(16) 0.53066(19)
N3 N 0.6951(2) 0.47256(18) 0.82890(19)
N4 N 0.8104(2) 0.59112(16) 0.6285(2)
N5 N 0.6243(2) 0.31120(16) 0.32630(18)
C1 C 0.6354(3) 0.3583(2) 0.4473(2)
C2 C 0.4453(3) 0.2144(2) 0.4835(2)
C3 C 0.5835(3) 0.3391(2) 0.6634(2)
C4 C 0.6740(3) 0.4408(2) 0.7000(2)
C5 C 0.7298(3) 0.49742(19) 0.6002(2)
C6 C 0.6690(3) 0.1928(2) 0.3140(2)
C7 C 0.5760(3) 0.1495(2) 0.1796(2)
C8 C 0.5671(3) 0.3316(2) 0.0870(2)
C9 C 0.6585(3) 0.3795(2) 0.2200(2)
H1 H 0.40480 0.21920 0.38640
H2 H 0.35990 0.22530 0.52500
H3 H 0.49240 0.14040 0.50800
H4 H 0.84880 0.62310 0.56800
H5 H 0.82600 0.62180 0.70790
H6 H 0.64660 0.14720 0.38620
H7 H 0.78190 0.18770 0.32150
H8 H 0.60490 0.07040 0.16890
H9 H 0.46350 0.15180 0.17450
H10 H 0.45410 0.33880 0.07840
H11 H 0.59090 0.37510 0.01380
H12 H 0.77140 0.37750 0.22700
H13 H 0.62780 0.45860 0.22810
#END
