
#######################################################################
#
#                 Cambridge Crystallographic Data Centre
#                                CCDC
#
#######################################################################
#
# If this CIF has been generated from an entry in the Cambridge
# Structural Database, then it will include bibliographic, chemical,
# crystal, experimental, refinement or atomic coordinate data resulting
# from the CCDC's data processing and validation procedures.
#
#######################################################################

data_CSD_CIF_WOBHOK
_audit_creation_date 2000-11-21
_audit_creation_method CSD-ConQuest-V1
_database_code_CSD WOBHOK
_database_code_depnum_ccdc_archive 'CCDC 150328'
_chemical_formula_sum 'C16 H14 N2 O3'
_chemical_formula_moiety
;
C16 H14 N2 O3
;
_journal_coeditor_code "IUCr BM1393"
_journal_coden_Cambridge 591
_journal_volume 56
_journal_year 2000
_journal_page_first 971
_journal_name_full 'Acta Crystallogr.,Sect.C:Cryst.Struct.Commun. '
loop_
_publ_author_name
"V.N.Nesterov"
"T.V.Timofeeva"
"O.Ya.Borbulevych"
"M.Yu.Antipin"
"R.D.Clark"
_chemical_name_systematic
;
N-((E,2E)-3-(4-Methoxyphenyl)-2-propenylidene)-3-nitroaniline
;
_chemical_melting_point 414.15
_cell_volume   1347.805
_exptl_crystal_colour 'yellow'
_exptl_crystal_density_diffrn 1.391
_exptl_crystal_description 'square prism'
_exptl_crystal_preparation 'acetonitrile'
_diffrn_ambient_temperature 100
#These two values have been output from a single CSD field.
_refine_ls_R_factor_gt 0.0543
_refine_ls_wR_factor_gt 0.0543
_symmetry_cell_setting monoclinic
_symmetry_space_group_name_H-M 'P 21/n'
_symmetry_Int_Tables_number 14
loop_
_symmetry_equiv_pos_site_id
_symmetry_equiv_pos_as_xyz
1 x,y,z
2 1/2+x,1/2-y,1/2+z
3 -x,-y,-z
4 -1/2-x,-1/2+y,-1/2-z
_cell_length_a 15.7883(8)
_cell_length_b 3.9239(2)
_cell_length_c 22.6063(11)
_cell_angle_alpha 90
_cell_angle_beta 105.767(1)
_cell_angle_gamma 90
_cell_formula_units_Z 4
loop_
_atom_type_symbol
_atom_type_radius_bond
C 0.68
H 0.23
N 0.68
O 0.68
loop_
_atom_site_label
_atom_site_type_symbol
_atom_site_fract_x
_atom_site_fract_y
_atom_site_fract_z
N1 N 0.71571(7) 0.8307(3) 0.47857(5)
N2 N 0.58671(8) 1.3183(3) 0.63606(6)
O1 O 0.52247(7) 1.4097(3) 0.59496(5)
O2 O 0.59540(8) 1.3733(3) 0.69088(5)
O3 O 0.54119(6) 0.8769(2) 0.06917(4)
C1 C 0.71743(8) 0.9150(3) 0.53949(6)
C2 C 0.64822(9) 1.0745(3) 0.55690(6)
H1 H 0.5942(11) 1.138(4) 0.5271(7)
C3 C 0.65833(9) 1.1368(3) 0.61860(6)
C4 C 0.73237(9) 1.0458(3) 0.66461(6)
H2 H 0.7366(11) 1.097(4) 0.7085(7)
C5 C 0.80030(9) 0.8853(3) 0.64703(6)
H3 H 0.8529(12) 0.815(4) 0.6774(7)
C6 C 0.79286(9) 0.8229(3) 0.58547(6)
H4 H 0.8377(11) 0.714(4) 0.5731(7)
C7 C 0.66406(8) 0.9937(3) 0.43370(6)
H5 H 0.6275(10) 1.180(4) 0.4396(6)
C8 C 0.65983(9) 0.9134(3) 0.37074(6)
H6 H 0.6997(11) 0.733(4) 0.3628(7)
C9 C 0.60137(8) 1.0693(3) 0.32388(6)
H7 H 0.5599(10) 1.227(4) 0.3332(6)
C10 C 0.58973(8) 1.0143(3) 0.25832(5)
C11 C 0.51440(8) 1.1443(3) 0.21595(6)
H8 H 0.4748(11) 1.273(4) 0.2310(7)
C12 C 0.50053(8) 1.0972(3) 0.15374(6)
H9 H 0.4502(11) 1.190(4) 0.1240(7)
C13 C 0.56219(8) 0.9180(3) 0.13143(6)
C14 C 0.63867(8) 0.7953(3) 0.17250(6)
H10 H 0.6816(10) 0.670(4) 0.1561(6)
C15 C 0.65141(8) 0.8408(3) 0.23524(6)
H11 H 0.7062(10) 0.747(4) 0.2635(6)
C16 C 0.60435(10) 0.7113(4) 0.04374(7)
H12 H 0.6175(10) 0.487(4) 0.0605(6)
H13 H 0.6583(11) 0.851(4) 0.0515(7)
H14 H 0.5766(10) 0.699(4) -0.0017(7)
#END
