
#######################################################################
#
#                 Cambridge Crystallographic Data Centre
#                                CCDC
#
#######################################################################
#
# If this CIF has been generated from an entry in the Cambridge
# Structural Database, then it will include bibliographic, chemical,
# crystal, experimental, refinement or atomic coordinate data resulting
# from the CCDC's data processing and validation procedures.
#
#######################################################################

data_CSD_CIF_WOBHUQ
_audit_creation_date 2000-11-21
_audit_creation_method CSD-ConQuest-V1
_database_code_CSD WOBHUQ
_database_code_depnum_ccdc_archive 'CCDC 150329'
_chemical_formula_sum 'C16 H14 N2 O3'
_chemical_formula_moiety
;
C16 H14 N2 O3
;
_journal_coeditor_code "IUCr BM1393"
_journal_coden_Cambridge 591
_journal_volume 56
_journal_year 2000
_journal_page_first 971
_journal_name_full 'Acta Crystallogr.,Sect.C:Cryst.Struct.Commun. '
loop_
_publ_author_name
"V.N.Nesterov"
"T.V.Timofeeva"
"O.Ya.Borbulevych"
"M.Yu.Antipin"
"R.D.Clark"
_chemical_name_systematic
;
N-((E,2E)-3-(4-Methoxyphenyl)-2-propenylidene)-4-nitroaniline
;
_chemical_melting_point 420.15
_cell_volume   2849.413
_exptl_crystal_colour 'yellow'
_exptl_crystal_density_diffrn 1.316
_exptl_crystal_description 'plate'
_exptl_crystal_preparation 'acetonitrile'
_diffrn_ambient_temperature ?
_diffrn_special_details
;
The study was carried out at room temperature,in the range 283-303K

;
#These two values have been output from a single CSD field.
_refine_ls_R_factor_gt 0.0502
_refine_ls_wR_factor_gt 0.0502
_symmetry_cell_setting orthorhombic
_symmetry_space_group_name_H-M 'P b c a'
_symmetry_Int_Tables_number 61
loop_
_symmetry_equiv_pos_site_id
_symmetry_equiv_pos_as_xyz
1 x,y,z
2 1/2+x,y,1/2-z
3 x,1/2-y,1/2+z
4 1/2-x,1/2+y,z
5 -x,-y,-z
6 -1/2-x,-y,-1/2+z
7 -x,-1/2+y,-1/2-z
8 -1/2+x,-1/2-y,-z
_cell_length_a 10.413(2)
_cell_length_b 7.5990(15)
_cell_length_c 36.010(7)
_cell_angle_alpha 90
_cell_angle_beta 90
_cell_angle_gamma 90
_cell_formula_units_Z 8
loop_
_atom_type_symbol
_atom_type_radius_bond
C 0.68
H 0.23
N 0.68
O 0.68
loop_
_atom_site_label
_atom_site_type_symbol
_atom_site_fract_x
_atom_site_fract_y
_atom_site_fract_z
N1 N 0.2563(2) 0.3754(3) 0.87216(5)
N2 N 0.2493(3) 0.6600(3) 1.01598(5)
O1 O 0.3496(2) 0.6913(3) 1.03176(5)
O2 O 0.1457(2) 0.6880(4) 1.03010(6)
O3 O 0.3823(2) 0.2294(2) 0.63136(4)
C1 C 0.2604(3) 0.4497(3) 0.90804(6)
C2 C 0.3727(3) 0.4871(4) 0.92671(7)
H1 H 0.453(2) 0.465(3) 0.9170(6)
C3 C 0.3691(3) 0.5566(4) 0.96207(7)
H2 H 0.443(3) 0.581(3) 0.9752(7)
C4 C 0.2523(3) 0.5870(3) 0.97854(6)
C5 C 0.1393(3) 0.5495(4) 0.96057(7)
H3 H 0.060(3) 0.573(3) 0.9732(7)
C6 C 0.1440(3) 0.4782(4) 0.92553(7)
H4 H 0.070(2) 0.444(3) 0.9135(6)
C7 C 0.3359(3) 0.4263(3) 0.84786(6)
H5 H 0.398(2) 0.516(3) 0.8527(6)
C8 C 0.3315(3) 0.3565(3) 0.81039(6)
H6 H 0.268(2) 0.268(4) 0.8065(6)
C9 C 0.4046(3) 0.4120(3) 0.78252(6)
H7 H 0.469(3) 0.498(4) 0.7890(7)
C10 C 0.3957(2) 0.3588(3) 0.74357(6)
C11 C 0.4865(3) 0.4167(3) 0.71798(7)
H8 H 0.553(3) 0.488(3) 0.7260(6)
C12 C 0.4795(3) 0.3713(4) 0.68120(7)
H9 H 0.542(3) 0.413(3) 0.6649(7)
C13 C 0.3810(2) 0.2661(3) 0.66847(6)
C14 C 0.2888(3) 0.2071(3) 0.69320(7)
H10 H 0.223(2) 0.131(3) 0.6858(6)
C15 C 0.2969(2) 0.2547(3) 0.73006(6)
H11 H 0.232(2) 0.214(3) 0.7470(6)
C16 C 0.2855(4) 0.1184(5) 0.61684(9)
H12 H 0.305(3) 0.105(4) 0.5907(9)
H13 H 0.202(3) 0.166(4) 0.6209(7)
H14 H 0.289(3) -0.004(5) 0.6292(9)
#END
