
#######################################################################
#
#                 Cambridge Crystallographic Data Centre
#                                CCDC
#
#######################################################################
#
# If this CIF has been generated from an entry in the Cambridge
# Structural Database, then it will include bibliographic, chemical,
# crystal, experimental, refinement or atomic coordinate data resulting
# from the CCDC's data processing and validation procedures.
#
#######################################################################

data_CSD_CIF_WOCHAX
_audit_creation_date 2000-11-21
_audit_creation_method CSD-ConQuest-V1
_database_code_CSD WOCHAX
_database_code_depnum_ccdc_archive 'CCDC 150742'
_chemical_formula_sum 'C16 H10 N2 O4'
_chemical_formula_moiety
;
C16 H10 N2 O4
;
_journal_coeditor_code "IUCr QD0005"
_journal_data_validation_number IUC0000202
_journal_coden_Cambridge 591
_journal_volume 56
_journal_year 2000
_journal_page_first e408
_journal_name_full 'Acta Crystallogr.,Sect.C:Cryst.Struct.Commun. '
loop_
_publ_author_name
"A.Yu.Kovalevsky"
"I.I.Ponomarev"
"M.A.Baranova"
_chemical_name_systematic
;
2-(2-(4-nitrophenyl)ethenyl)-4H-3,1-benzoxazine-4-one
;
_chemical_melting_point 510.15
_cell_volume   1336.944
_exptl_crystal_colour 'yellow'
_exptl_crystal_density_diffrn 1.462
_exptl_special_details
;
Melting point range 510.15-512.15K

;
_exptl_crystal_description 'parallelepiped'
_diffrn_ambient_temperature 213
#These two values have been output from a single CSD field.
_refine_ls_R_factor_gt 0.081
_refine_ls_wR_factor_gt 0.081
_symmetry_cell_setting monoclinic
_symmetry_space_group_name_H-M 'C c'
_symmetry_Int_Tables_number 9
loop_
_symmetry_equiv_pos_site_id
_symmetry_equiv_pos_as_xyz
1 x,y,z
2 x,-y,1/2+z
3 1/2+x,1/2+y,z
4 1/2+x,1/2-y,1/2+z
_cell_length_a 14.627(3)
_cell_length_b 7.491(2)
_cell_length_c 12.344(5)
_cell_angle_alpha 90
_cell_angle_beta 98.71(3)
_cell_angle_gamma 90
_cell_formula_units_Z 4
loop_
_atom_type_symbol
_atom_type_radius_bond
C 0.68
H 0.23
N 0.68
O 0.68
loop_
_atom_site_label
_atom_site_type_symbol
_atom_site_fract_x
_atom_site_fract_y
_atom_site_fract_z
O1 O -0.7222(2) -0.1198(5) -0.1953(3)
O2 O -0.7517(3) -0.2956(6) -0.0621(3)
O3 O -0.1929(3) 0.1458(7) -0.4408(4)
O4 O -0.2773(3) 0.2381(8) -0.5889(4)
N1 N -0.8348(3) 0.0393(6) -0.3137(4)
N2 N -0.2673(3) 0.1752(6) -0.4957(4)
C1 C -0.9944(4) 0.0321(8) -0.2795(5)
H1 H -1.0120(4) 0.1023(8) -0.3423(5)
C2 C -1.0589(4) -0.0192(9) -0.2155(6)
H2 H -1.1199(4) 0.0230(9) -0.2322(6)
C3 C -1.0352(4) -0.1335(10) -0.1254(6)
H3 H -1.0804(4) -0.1738(10) -0.0847(6)
C4 C -0.9443(4) -0.1854(9) -0.0980(5)
H4 H -0.9269(4) -0.2580(9) -0.0362(5)
C5 C -0.8787(4) -0.1317(7) -0.1603(5)
C6 C -0.9016(3) -0.0215(7) -0.2503(4)
C7 C -0.7829(3) -0.1946(8) -0.1319(5)
C8 C -0.7522(4) -0.0056(7) -0.2827(4)
C9 C -0.6745(4) 0.0496(7) -0.3358(4)
H5 H -0.6878(4) 0.1270(7) -0.3960(4)
C10 C -0.5891(4) 0.0030(7) -0.3086(5)
H6 H -0.5772(4) -0.0732(7) -0.2476(5)
C11 C -0.5082(3) 0.0514(7) -0.3587(5)
C12 C -0.5138(3) 0.1603(7) -0.4547(4)
H7 H -0.5710(3) 0.2069(7) -0.4877(4)
C13 C -0.4349(4) 0.1959(8) -0.4978(5)
H8 H -0.4382(4) 0.2657(8) -0.5616(5)
C14 C -0.3514(3) 0.1310(7) -0.4492(4)
C15 C -0.3431(4) 0.0251(7) -0.3575(5)
H9 H -0.2852(4) -0.0198(7) -0.3256(5)
C16 C -0.4213(4) -0.0136(8) -0.3135(5)
H10 H -0.4163(4) -0.0863(8) -0.2509(5)
#END
