
#######################################################################
#
#                 Cambridge Crystallographic Data Centre
#                                CCDC
#
#######################################################################
#
# If this CIF has been generated from an entry in the Cambridge
# Structural Database, then it will include bibliographic, chemical,
# crystal, experimental, refinement or atomic coordinate data resulting
# from the CCDC's data processing and validation procedures.
#
#######################################################################

data_CSD_CIF_WODKEH
_audit_creation_date 2014-03-11
_audit_creation_method CSD-ConQuest-V1
_database_code_CSD WODKEH
_database_code_depnum_ccdc_archive 'CCDC 991193'
_chemical_formula_sum 'C13 H19 N5 O6'
_chemical_formula_moiety
;
C13 H19 N5 O6
;
_journal_coden_Cambridge 35
_journal_volume 79
_journal_year 2014
_journal_page_first 2163
_journal_name_full 'J.Org.Chem. '
loop_
_publ_author_name
"Y.Nakaike"
"N.Nishiwaki"
"M.Ariga"
"Y.Tobe"
_chemical_name_systematic
;
N-(2-(3,5-Dinitro-1-propyl-1,4-dihydropyridin-4-yl)-2-nitrovinyl)propan-1-amin
e
;
_cell_volume    770.546
_exptl_crystal_colour 'orange'
_exptl_crystal_density_diffrn 1.471
_exptl_crystal_description 'block'
_diffrn_ambient_temperature 293
#These two values have been output from a single CSD field.
_refine_ls_R_factor_gt 0.0374
_refine_ls_wR_factor_gt 0.0374
_symmetry_cell_setting triclinic
_symmetry_space_group_name_H-M 'P -1'
_symmetry_Int_Tables_number 2
loop_
_symmetry_equiv_pos_site_id
_symmetry_equiv_pos_as_xyz
1 x,y,z
2 -x,-y,-z
_cell_length_a 8.125(3)
_cell_length_b 10.053(4)
_cell_length_c 10.461(4)
_cell_angle_alpha 87.508(8)
_cell_angle_beta 74.901(8)
_cell_angle_gamma 69.292(10)
_cell_formula_units_Z 2
loop_
_atom_type_symbol
_atom_type_radius_bond
C 0.68
H 0.23
N 0.68
O 0.68
loop_
_atom_site_label
_atom_site_type_symbol
_atom_site_fract_x
_atom_site_fract_y
_atom_site_fract_z
O1 O 0.04446(12) 0.77947(11) 1.10829(9)
O2 O 0.01793(10) 0.87326(9) 0.92087(8)
O3 O 0.75327(12) 0.98228(10) 0.73666(9)
O4 O 0.51546(12) 1.02445(9) 0.66184(8)
O5 O 0.61016(11) 0.58866(8) 0.78981(8)
O6 O 0.54507(11) 0.54624(9) 0.61010(9)
N1 N 0.56144(12) 0.76366(9) 1.03616(9)
N2 N 0.10878(12) 0.82162(10) 1.00106(10)
N3 N 0.60725(13) 0.96858(10) 0.73994(9)
N4 N 0.52092(12) 0.62881(10) 0.70611(9)
N5 N 0.26948(13) 0.73331(10) 0.53684(9)
C1 C 0.39144(14) 0.75971(11) 1.05395(10)
C2 C 0.29378(13) 0.81314(11) 0.9660(1)
C3 C 0.36532(13) 0.86372(11) 0.83245(10)
C4 C 0.53652(13) 0.88536(10) 0.83972(10)
C5 C 0.62833(14) 0.83286(11) 0.93137(10)
C6 C 0.39103(14) 0.76454(11) 0.71835(10)
C7 C 0.27504(15) 0.80540(11) 0.63584(10)
C8 C 0.12305(17) 0.78190(12) 0.47038(11)
C9 C -0.00295(16) 0.69788(12) 0.50499(12)
C10 C -0.15926(17) 0.75636(14) 0.43998(12)
C11 C 0.66782(15) 0.69679(12) 1.13088(11)
C12 C 0.76301(16) 0.53777(12) 1.10296(11)
C13 C 0.87095(17) 0.47383(13) 1.20366(12)
H1 H 0.33990 0.71920 1.13030
H2 H 0.27920 0.95380 0.82250
H3 H 0.74230 0.84340 0.92290
H4 H 0.18770 0.89880 0.65310
H5 H 0.36610 0.64390 0.50710
H6 H 0.17550 0.77210 0.37730
H7 H 0.05450 0.87920 0.49630
H8 H 0.06400 0.60130 0.47490
H9 H -0.05110 0.70360 0.59840
H10 H -0.23580 0.70160 0.46280
H11 H -0.22720 0.85270 0.47050
H12 H -0.11160 0.75110 0.34660
H13 H 0.58820 0.71410 1.21760
H14 H 0.75750 0.73870 1.12580
H15 H 0.67470 0.49450 1.10790
H16 H 0.84430 0.51900 1.01670
H17 H 0.93080 0.37380 1.18420
H18 H 0.78980 0.48980 1.29020
H19 H 0.95840 0.51670 1.20000
#END
