
#######################################################################
#
#                 Cambridge Crystallographic Data Centre
#                                CCDC
#
#######################################################################
#
# If this CIF has been generated from an entry in the Cambridge
# Structural Database, then it will include bibliographic, chemical,
# crystal, experimental, refinement or atomic coordinate data resulting
# from the CCDC's data processing and validation procedures.
#
#######################################################################

data_CSD_CIF_WOFDUQ
_audit_creation_date 2000-12-19
_audit_creation_method CSD-ConQuest-V1
_database_code_CSD WOFDUQ
_chemical_formula_sum 'C30 H44 N2 O3'
_chemical_formula_moiety
;
C30 H44 N2 O3
;
_journal_coden_Cambridge 15
_journal_volume 77
_journal_year 1999
_journal_page_first 806
_journal_name_full 'Can.J.Chem. '
loop_
_publ_author_name
"J.Carter"
"M.H.Fenwick"
"Wen-wei Huang"
"V.V.Popik"
"T.T.Tidwell"
_chemical_name_systematic
;
2,2,6,6-Tetramethylpiperidinyl 
2-(1-naphthyl)-2-(2',2',6',6'-tetramethylpiperidinyloxy)acetate
;
_chemical_melting_point 420.15
_cell_volume   1397.393
_exptl_crystal_density_diffrn 1.142
_exptl_special_details
;
Melting point range 420.15-421.15K

;
_exptl_crystal_preparation 'ether/pentane'
_diffrn_ambient_temperature 125
#These two values have been output from a single CSD field.
_refine_ls_R_factor_gt 0.0385
_refine_ls_wR_factor_gt 0.0385
_symmetry_cell_setting monoclinic
_symmetry_space_group_name_H-M 'P n'
_symmetry_Int_Tables_number 7
loop_
_symmetry_equiv_pos_site_id
_symmetry_equiv_pos_as_xyz
1 x,y,z
2 1/2+x,-y,1/2+z
_cell_length_a 11.0091(5)
_cell_length_b 7.9867(7)
_cell_length_c 16.3408(7)
_cell_angle_alpha 90
_cell_angle_beta 103.448(4)
_cell_angle_gamma 90
_cell_formula_units_Z 2
loop_
_atom_type_symbol
_atom_type_radius_bond
C 0.68
H 0.23
N 0.68
O 0.68
loop_
_atom_site_label
_atom_site_type_symbol
_atom_site_fract_x
_atom_site_fract_y
_atom_site_fract_z
O1 O 0.7235(1) 0.5279(2) 0.2824(1)
O2 O 0.5274(1) 0.6368(2) 0.2663(1)
O3 O 0.7804(1) 0.7918(2) 0.1876(1)
N1 N 0.4957(2) 0.5039(3) 0.3200(1)
N2 N 0.8133(2) 0.9669(2) 0.2078(1)
C1 C 0.6447(2) 0.6279(3) 0.2531(1)
C2 C 0.6532(2) 0.7644(3) 0.1888(1)
C3 C 0.5779(2) 0.6969(3) 0.1043(1)
C4 C 0.4520(2) 0.7486(3) 0.0709(1)
C5 C 0.3848(2) 0.6719(3) -0.0045(1)
C6 C 0.4433(2) 0.5485(3) -0.0445(1)
C7 C 0.5642(2) 0.5042(3) -0.0113(2)
C8 C 0.6320(2) 0.5789(3) 0.0633(1)
C9 C 0.4074(2) 0.3887(3) 0.2631(2)
C10 C 0.3689(2) 0.2594(3) 0.3214(2)
C11 C 0.3160(2) 0.3369(4) 0.3903(2)
C12 C 0.4119(2) 0.4560(4) 0.4422(2)
C13 C 0.4547(2) 0.5939(3) 0.3886(1)
C14 C 0.4817(3) 0.3016(4) 0.2068(2)
C15 C 0.2916(2) 0.4725(4) 0.2053(2)
C16 C 0.5711(2) 0.6796(4) 0.4426(2)
C17 C 0.3530(2) 0.7246(4) 0.3609(2)
C18 C 0.9142(2) 0.9668(3) 0.2865(2)
C19 C 0.9540(3) 1.1494(4) 0.3041(2)
C20 C 0.9902(3) 1.2355(4) 0.2304(2)
C21 C 0.8805(2) 1.2255(3) 0.1550(2)
C22 C 0.8381(2) 1.0460(3) 0.1308(2)
C23 C 1.0261(2) 0.8522(4) 0.2863(2)
C24 C 0.8546(3) 0.9075(4) 0.3571(2)
C25 C 0.9314(2) 0.9523(4) 0.0906(2)
C26 C 0.7125(2) 1.0534(4) 0.0655(2)
C27 C 0.3914(2) 0.8726(3) 0.1089(2)
C28 C 0.2707(2) 0.9206(3) 0.0733(2)
C29 C 0.2039(2) 0.8430(3) -0.0014(2)
C30 C 0.2582(2) 0.7221(3) -0.0391(2)
H1 H 0.61500 0.87060 0.20340
H2 H 0.39810 0.49650 -0.09470
H3 H 0.60300 0.42230 -0.03880
H4 H 0.71640 0.54720 0.08560
H5 H 0.30560 0.18370 0.28730
H6 H 0.44270 0.19080 0.34750
H7 H 0.29530 0.24780 0.42690
H8 H 0.23840 0.39880 0.36500
H9 H 0.48570 0.39070 0.47150
H10 H 0.37550 0.50950 0.48560
H11 H 0.55750 0.25210 0.24190
H12 H 0.50460 0.38370 0.16840
H13 H 0.43040 0.21340 0.17410
H14 H 0.23220 0.50470 0.23880
H15 H 0.25150 0.39330 0.16140
H16 H 0.31780 0.57230 0.17910
H17 H 0.59670 0.77170 0.41060
H18 H 0.63910 0.59800 0.45740
H19 H 0.55170 0.72390 0.49400
H20 H 0.37260 0.79350 0.31600
H21 H 0.34820 0.79590 0.40880
H22 H 0.27260 0.66860 0.33990
H23 H 0.88440 1.21210 0.31870
H24 H 1.02590 1.15340 0.35340
H25 H 1.01180 1.35400 0.24450
H26 H 1.06390 1.17960 0.21760
H27 H 0.90380 1.27990 0.10640
H28 H 0.80960 1.28880 0.16740
H29 H 1.08100 0.90590 0.25480
H30 H 0.99610 0.74530 0.25970
H31 H 1.07250 0.83220 0.34430
H32 H 0.77460 0.96480 0.35260
H33 H 0.91050 0.93320 0.41170
H34 H 0.84060 0.78630 0.35230
H35 H 0.90930 0.83320 0.08540
H36 H 1.01580 0.96490 0.12610
H37 H 0.92850 0.99880 0.03470
H38 H 0.64870 1.10140 0.09150
H39 H 0.68760 0.94010 0.04540
H40 H 0.72130 1.12350 0.01790
H41 H 0.43480 0.92360 0.15990
H42 H 0.23220 1.00590 0.09890
H43 H 0.12020 0.87570 -0.02530
H44 H 0.21200 0.67020 -0.08900
#END
