
#######################################################################
#
#                 Cambridge Crystallographic Data Centre
#                                CCDC
#
#######################################################################
#
# If this CIF has been generated from an entry in the Cambridge
# Structural Database, then it will include bibliographic, chemical,
# crystal, experimental, refinement or atomic coordinate data resulting
# from the CCDC's data processing and validation procedures.
#
#######################################################################

data_CSD_CIF_WOFFON01
_audit_creation_date 2018-05-18
_audit_creation_method CSD-ConQuest-V1
_database_code_CSD WOFFON01
_database_code_depnum_ccdc_archive 'CCDC 1834204'
_chemical_formula_sum 'C14 H17 N3 O1'
_chemical_formula_moiety
;
C14 H17 N3 O1
;
_journal_coden_Cambridge 440
_journal_volume 42
_journal_year 2018
_journal_page_first 9373
_journal_name_full 'New J.Chem. '
loop_
_publ_author_name
"M.V.Ilin"
"D.S.Bolotin"
"V.V.Suslonov"
"V.Yu.Kukushkin"
_chemical_name_systematic
;
N-cyclohexyl-3-phenyl-1,2,4-oxadiazol-5-amine
;
_cell_volume   1273.547
_exptl_crystal_colour 'colorless'
_exptl_crystal_density_diffrn 1.269
_exptl_special_details
;
polymorph II

;
_exptl_crystal_description 'plate'
_diffrn_ambient_temperature 100
#These two values have been output from a single CSD field.
_refine_ls_R_factor_gt 0.0431
_refine_ls_wR_factor_gt 0.0431
_symmetry_cell_setting monoclinic
_symmetry_space_group_name_H-M 'P 21/n'
_symmetry_Int_Tables_number 14
loop_
_symmetry_equiv_pos_site_id
_symmetry_equiv_pos_as_xyz
1 x,y,z
2 1/2-x,1/2+y,1/2-z
3 -x,-y,-z
4 -1/2+x,-1/2-y,-1/2+z
_cell_length_a 5.8808(4)
_cell_length_b 12.3009(8)
_cell_length_c 17.6105(11)
_cell_angle_alpha 90
_cell_angle_beta 91.401(7)
_cell_angle_gamma 90
_cell_formula_units_Z 4
loop_
_atom_type_symbol
_atom_type_radius_bond
C 0.68
H 0.23
N 0.68
O 0.68
loop_
_atom_site_label
_atom_site_type_symbol
_atom_site_fract_x
_atom_site_fract_y
_atom_site_fract_z
N1 N 1.16682(18) 0.53065(9) 0.37300(6)
N2 N 1.35010(19) 0.63940(9) 0.46793(6)
H1 H 1.48650 0.62000 0.45350
N3 N 0.80323(18) 0.56139(10) 0.40930(6)
C1 C 1.1700(2) 0.59535(11) 0.43263(7)
C2 C 0.9384(2) 0.51337(11) 0.36145(7)
C3 C 0.8510(2) 0.44441(11) 0.29855(7)
C4 C 1.3323(2) 0.71883(11) 0.52984(7)
H2 H 1.21680 0.69200 0.56610
C5 C 0.6332(2) 0.46007(12) 0.26652(8)
H3 H 0.53510 0.51380 0.28640
C6 C 0.9926(2) 0.36420(11) 0.26952(8)
H4 H 1.14050 0.35380 0.29120
C7 C 1.4737(2) 0.92170(12) 0.60669(8)
H5 H 1.58850 0.95120 0.57200
H6 H 1.46020 0.97270 0.64990
C8 C 0.9187(3) 0.29943(12) 0.20922(8)
H7 H 1.01450 0.24400 0.19030
C9 C 0.5620(2) 0.39621(12) 0.20533(8)
H8 H 0.41530 0.40740 0.18290
C10 C 1.2559(3) 0.82994(12) 0.49988(8)
H9 H 1.10400 0.82320 0.47480
H10 H 1.36380 0.85570 0.46160
C11 C 0.7026(3) 0.31625(12) 0.17657(8)
H11 H 0.65190 0.27300 0.13480
C12 C 1.5615(2) 0.72707(12) 0.57198(8)
H12 H 1.68010 0.74850 0.53590
H13 H 1.60330 0.65520 0.59340
C13 C 1.5517(3) 0.81095(12) 0.63619(8)
H14 H 1.44540 0.78530 0.67510
H15 H 1.70430 0.81810 0.66070
C14 C 1.2448(3) 0.91285(12) 0.56451(8)
H16 H 1.20170 0.98480 0.54350
H17 H 1.12670 0.89050 0.60040
O1 O 0.96162(15) 0.61835(8) 0.45918(5)
#END
