
#######################################################################
#
#                 Cambridge Crystallographic Data Centre
#                                CCDC
#
#######################################################################
#
# If this CIF has been generated from an entry in the Cambridge
# Structural Database, then it will include bibliographic, chemical,
# crystal, experimental, refinement or atomic coordinate data resulting
# from the CCDC's data processing and validation procedures.
#
#######################################################################

data_CSD_CIF_WOGGEE
_audit_creation_date 2000-12-19
_audit_creation_method CSD-ConQuest-V1
_database_code_CSD WOGGEE
_database_code_depnum_ccdc_archive 'CCDC 150067'
_database_code_depnum_ccdc_journal 188/258
_chemical_formula_sum 'C17 H25 N2 O2'
_chemical_formula_moiety
;
C17 H25 N2 O2
;
_journal_coden_Cambridge 188
_journal_year 2000
_journal_page_first 1969
_journal_name_full 'J.Chem.Soc.,Perkin Trans.2 '
loop_
_publ_author_name
"S.Nakatsuji"
"Y.Ogawa"
"S.Takeuchi"
"H.Akutsu"
"J.Yamada"
"A.Naito"
"K.Sudo"
"N.Yasuoka"
_chemical_name_systematic
;
N-(2,2,6,6-Tetramethylpiperidine 
1-oxide-4-yl)tetracyclo(2.2.1.0^2,6^.0^3,5^)heptane-2-carboxamide
;
_chemical_melting_point 430.15
_cell_volume   1597.506
_exptl_crystal_colour 'pale red'
_exptl_crystal_density_diffrn 1.203
_exptl_special_details
;
Melting point range 430.15-432.15K

;
_exptl_crystal_description 'plate'
_exptl_crystal_preparation 'n-hexane/benzene'
_diffrn_ambient_temperature 273.15
#These two values have been output from a single CSD field.
_refine_ls_R_factor_gt 0.0889
_refine_ls_wR_factor_gt 0.0889
_symmetry_cell_setting monoclinic
_symmetry_space_group_name_H-M 'P 21/c'
_symmetry_Int_Tables_number 14
loop_
_symmetry_equiv_pos_site_id
_symmetry_equiv_pos_as_xyz
1 x,y,z
2 x,1/2-y,1/2+z
3 -x,-y,-z
4 -x,-1/2+y,-1/2-z
_cell_length_a 7.5297(3)
_cell_length_b 22.131(3)
_cell_length_c 9.9543(6)
_cell_angle_alpha 90
_cell_angle_beta 105.622(2)
_cell_angle_gamma 90
_cell_formula_units_Z 4
loop_
_atom_type_symbol
_atom_type_radius_bond
C 0.68
H 0.23
N 0.68
O 0.68
loop_
_atom_site_label
_atom_site_type_symbol
_atom_site_fract_x
_atom_site_fract_y
_atom_site_fract_z
O1 O 1.1808(3) 0.05167(10) 0.6553(3)
O2 O 0.6460(3) 0.27736(8) 0.4529(2)
N1 N 1.0742(3) 0.09613(10) 0.6615(2)
N2 N 0.7135(3) 0.24198(9) 0.6737(2)
C1 C 0.8071(3) 0.1885(1) 0.6393(3)
C2 C 0.8256(3) 0.1404(1) 0.7488(3)
C3 C 0.9067(3) 0.0815(1) 0.7095(3)
C4 C 1.0909(3) 0.1501(1) 0.5757(3)
C5 C 0.9971(3) 0.2038(1) 0.6240(3)
C6 C 0.9678(4) 0.0409(1) 0.8376(3)
C7 C 0.7654(4) 0.0482(1) 0.5940(4)
C8 C 1.0060(4) 0.1361(1) 0.4214(3)
C9 C 1.2968(4) 0.1641(2) 0.6012(4)
C10 C 0.6337(3) 0.2817(1) 0.5741(3)
C11 C 0.5282(3) 0.3313(1) 0.6143(3)
C12 C 0.4530(4) 0.3394(1) 0.7407(3)
C13 C 0.2737(4) 0.3648(1) 0.6470(3)
C14 C 0.3495(4) 0.3569(1) 0.5213(3)
C15 C 0.4087(4) 0.4054(1) 0.7417(3)
C16 C 0.5168(5) 0.4402(1) 0.6633(4)
C17 C 0.5184(4) 0.3943(1) 0.5516(3)
H1 H 0.73530 0.17480 0.55210
H2 H 0.90520 0.15550 0.83880
H3 H 0.70690 0.13030 0.76380
H4 H 1.07420 0.21980 0.71290
H5 H 0.99430 0.23600 0.55550
H6 H 1.08300 0.05970 0.91460
H7 H 0.85690 0.03540 0.87910
H8 H 1.02050 0.00540 0.81260
H9 H 0.65850 0.03190 0.62790
H10 H 0.70940 0.07370 0.50700
H11 H 0.82160 0.01360 0.57280
H12 H 1.02770 0.16560 0.36720
H13 H 0.86700 0.13160 0.40180
H14 H 1.04780 0.09750 0.39710
H15 H 1.34330 0.12880 0.56510
H16 H 1.30390 0.20160 0.54600
H17 H 1.35290 0.17120 0.69880
H18 H 0.69160 0.24240 0.75470
H19 H 0.46070 0.31180 0.81350
H20 H 0.14710 0.35720 0.65320
H21 H 0.28680 0.34140 0.42990
H22 H 0.37760 0.42070 0.82410
H23 H 0.45240 0.48100 0.61740
H24 H 0.64200 0.45110 0.72060
H25 H 0.56780 0.40150 0.47980
#END
