
#######################################################################
#
#                 Cambridge Crystallographic Data Centre
#                                CCDC
#
#######################################################################
#
# If this CIF has been generated from an entry in the Cambridge
# Structural Database, then it will include bibliographic, chemical,
# crystal, experimental, refinement or atomic coordinate data resulting
# from the CCDC's data processing and validation procedures.
#
#######################################################################

data_CSD_CIF_WOGNUB
_audit_creation_date 2000-12-19
_audit_creation_method CSD-ConQuest-V1
_database_code_CSD WOGNUB
_database_code_depnum_ccdc_archive 'CCDC 149368'
_database_code_depnum_ccdc_journal 440/074
_chemical_formula_sum 'C10 H8 N4 O5'
_chemical_formula_moiety
;
C10 H8 N4 O5
;
_journal_coden_Cambridge 440
_journal_volume 22
_journal_year 1998
_journal_page_first 1421
_journal_name_full 'New J.Chem. '
loop_
_publ_author_name
"C.Dardonville"
"J.Elguero"
"I.Rozas"
"C.Fernandez-Castano"
"C.Foces-Foces"
"I.Sobrados"
_chemical_name_systematic
;
1-(2',4'-Dinitrophenyl)-3-methyl-2-pyrazolin-5-one
;
_chemical_melting_point 403.15
_cell_volume   1150.651
_exptl_crystal_colour 'yellow'
_exptl_crystal_density_diffrn 1.525
_exptl_special_details
;
Melting point range 403.15-404.15K

;
_exptl_crystal_description 'plate'
_diffrn_ambient_temperature ?
_diffrn_special_details
;
The study was carried out at room temperature,in the range 283-303K

;
#These two values have been output from a single CSD field.
_refine_ls_R_factor_gt 0.047
_refine_ls_wR_factor_gt 0.047
_symmetry_cell_setting monoclinic
_symmetry_space_group_name_H-M 'P 21/c'
_symmetry_Int_Tables_number 14
loop_
_symmetry_equiv_pos_site_id
_symmetry_equiv_pos_as_xyz
1 x,y,z
2 x,1/2-y,1/2+z
3 -x,-y,-z
4 -x,-1/2+y,-1/2-z
_cell_length_a 9.4248(4)
_cell_length_b 15.9759(10)
_cell_length_c 7.6589(3)
_cell_angle_alpha 90
_cell_angle_beta 93.809(3)
_cell_angle_gamma 90
_cell_formula_units_Z 4
loop_
_atom_type_symbol
_atom_type_radius_bond
C 0.68
H 0.23
N 0.68
O 0.68
loop_
_atom_site_label
_atom_site_type_symbol
_atom_site_fract_x
_atom_site_fract_y
_atom_site_fract_z
N1 N 0.19411(16) 0.03985(9) 0.3614(2)
N2 N 0.22713(17) 0.12607(10) 0.3591(2)
C1 C 0.1282(2) 0.16273(13) 0.2663(3)
C2 C 0.0145(3) 0.10439(16) 0.1996(4)
C3 C 0.0628(2) 0.02250(13) 0.2784(3)
C4 C 0.1345(4) 0.25504(17) 0.2370(5)
O1 O 0.00478(17) -0.04485(10) 0.2762(3)
C5 C 0.27604(18) -0.01111(11) 0.4763(2)
C6 C 0.29508(19) -0.09684(12) 0.4470(3)
C7 C 0.3687(2) -0.14686(13) 0.5691(3)
C8 C 0.4295(2) -0.10976(13) 0.7166(3)
C9 C 0.4179(3) -0.02519(15) 0.7477(3)
C10 C 0.3396(2) 0.02332(14) 0.6285(3)
N3 N 0.2516(2) -0.13698(13) 0.2798(3)
O2 O 0.2704(2) -0.09862(15) 0.1461(3)
O3 O 0.2067(2) -0.20873(11) 0.2860(3)
N4 N 0.5139(2) -0.16189(16) 0.8436(3)
O4 O 0.5205(2) -0.23720(13) 0.8131(3)
O5 O 0.5754(3) -0.12704(17) 0.9692(3)
H1 H 0.328(3) 0.0805(19) 0.646(4)
H2 H 0.462(3) 0.0022(17) 0.851(4)
H3 H 0.379(3) -0.2055(18) 0.541(3)
H4 H -0.077(4) 0.119(2) 0.237(5)
H5 H 0.012(4) 0.100(2) 0.079(5)
H6 H 0.146(5) 0.262(3) 0.130(6)
H7 H 0.047(5) 0.277(3) 0.280(5)
H8 H 0.226(5) 0.280(3) 0.314(6)
#END
