
#######################################################################
#
#                 Cambridge Crystallographic Data Centre
#                                CCDC
#
#######################################################################
#
# If this CIF has been generated from an entry in the Cambridge
# Structural Database, then it will include bibliographic, chemical,
# crystal, experimental, refinement or atomic coordinate data resulting
# from the CCDC's data processing and validation procedures.
#
#######################################################################

data_CSD_CIF_WOJJUC
_audit_creation_date 2014-08-01
_audit_creation_method CSD-ConQuest-V1
_database_code_CSD WOJJUC
_database_code_depnum_ccdc_archive 'CCDC 1013341'
_chemical_formula_sum 'C19 H15 N3 O2'
_chemical_formula_moiety
;
C19 H15 N3 O2
;
_journal_coeditor_code "hb7250"
_journal_coden_Cambridge 1370
_journal_volume 70
_journal_year 2014
_journal_page_first o909
_journal_name_full 'Acta Crystallogr.,Sect.E:Struct.Rep.Online '
loop_
_publ_author_name
"M.Flores-Alamo"
"R.Melendrez-Luevano"
"J.A.Ortiz Marquez"
"E.Sansinenea Royano"
"B.M.Cabrera-Vivas"
_chemical_name_systematic
;
2-(2-Nitrobenzylidene)-1,1-diphenylhydrazine
;
_chemical_melting_point 406.15
_cell_volume   1545.923
_exptl_crystal_colour 'yellow'
_exptl_crystal_density_diffrn 1.363
_exptl_special_details
;
Melting point range 406.15-408.15K

;
_exptl_crystal_description 'block'
_exptl_crystal_preparation 'ethanol'
_diffrn_ambient_temperature 140
#These two values have been output from a single CSD field.
_refine_ls_R_factor_gt 0.0419
_refine_ls_wR_factor_gt 0.0419
_symmetry_cell_setting monoclinic
_symmetry_space_group_name_H-M 'P 21/n'
_symmetry_Int_Tables_number 14
loop_
_symmetry_equiv_pos_site_id
_symmetry_equiv_pos_as_xyz
1 x,y,z
2 1/2-x,1/2+y,1/2-z
3 -x,-y,-z
4 -1/2+x,-1/2-y,-1/2+z
_cell_length_a 11.8536(5)
_cell_length_b 12.4293(3)
_cell_length_c 11.9492(5)
_cell_angle_alpha 90
_cell_angle_beta 118.584(5)
_cell_angle_gamma 90
_cell_formula_units_Z 4
loop_
_atom_type_symbol
_atom_type_radius_bond
C 0.68
H 0.23
N 0.68
O 0.68
loop_
_atom_site_label
_atom_site_type_symbol
_atom_site_fract_x
_atom_site_fract_y
_atom_site_fract_z
N1 N 0.11331(9) 0.25147(8) 0.92802(9)
N2 N 0.22974(9) 0.29935(8) 0.97008(10)
C1 C 0.23071(11) 0.41296(9) 0.9729(1)
C2 C 0.11903(11) 0.47065(9) 0.94355(11)
H1 H 0.04200 0.43350 0.92510
C3 C 0.10253(11) 0.14893(9) 0.91111(11)
H2 H 0.17430 0.10530 0.92630
C4 C 0.12018(12) 0.58203(10) 0.94130(11)
H3 H 0.04340 0.62060 0.92030
C5 C -0.18121(12) -0.04581(10) 0.79564(12)
H4 H -0.19980 -0.11940 0.77280
C6 C -0.02595(11) 0.10233(9) 0.86714(10)
C7 C 0.23172(12) 0.63796(10) 0.96930(12)
H5 H 0.23150 0.71430 0.96550
C8 C 0.53623(12) 0.14688(10) 1.11874(12)
H6 H 0.59810 0.12240 1.20070
C9 C -0.12374(11) 0.16652(10) 0.86682(11)
H7 H -0.10550 0.23960 0.89230
C10 C 0.35602(11) 0.21828(10) 0.87944(11)
H8 H 0.29420 0.24280 0.79740
C11 C 0.34034(10) 0.23976(9) 0.98487(11)
C12 C 0.34400(12) 0.46897(10) 1.00538(13)
H9 H 0.42160 0.43080 1.02920
C13 C 0.42978(11) 0.20381(10) 1.10458(11)
H10 H 0.41820 0.21810 1.17650
O1 O 0.00953(12) -0.17689(8) 0.82260(11)
N3 N 0.02964(11) -0.08055(9) 0.81874(10)
C14 C -0.06012(11) -0.00479(9) 0.82864(11)
C15 C -0.24502(12) 0.12733(11) 0.83091(12)
H11 H -0.30910 0.17380 0.82990
C16 C 0.55296(12) 0.12539(10) 1.01392(13)
H12 H 0.62620 0.08650 1.02390
C17 C 0.46250(12) 0.16084(10) 0.89447(12)
H13 H 0.47350 0.14570 0.82240
C18 C -0.27406(12) 0.02027(11) 0.79614(12)
H14 H -0.35720 -0.00710 0.77290
O2 O 0.11844(10) -0.04545(9) 0.80403(12)
C19 C 0.34333(13) 0.58067(11) 1.00287(14)
H15 H 0.42080 0.61830 1.02460
#END
