
#######################################################################
#
#                 Cambridge Crystallographic Data Centre
#                                CCDC
#
#######################################################################
#
# If this CIF has been generated from an entry in the Cambridge
# Structural Database, then it will include bibliographic, chemical,
# crystal, experimental, refinement or atomic coordinate data resulting
# from the CCDC's data processing and validation procedures.
#
#######################################################################

data_CSD_CIF_WOJKIQ
_audit_creation_date 2009-04-29
_audit_creation_method CSD-ConQuest-V1
_database_code_CSD WOJKIQ
_database_code_depnum_ccdc_archive 'CCDC 709998'
_chemical_formula_sum 'C24 H20 N2 O7'
_chemical_formula_moiety
;
C24 H20 N2 O7
;
_journal_coden_Cambridge 4
_journal_volume 130
_journal_year 2008
_journal_page_first 13608
_journal_name_full 'J.Am.Chem.Soc. '
loop_
_publ_author_name
"J.N.Moorthy"
"S.Samanta"
"A.L.Koner"
"S.Saha"
"W.M.Nau"
_chemical_name_systematic
;
(1S,2S,3S,4R)-3-Hydroxy-2-methyl-3,4-diphenylcyclobutyl 3,5-dinitrobenzoate
;
_cell_volume   2097.427
_exptl_crystal_colour 'colorless'
_exptl_crystal_density_diffrn 1.42
_exptl_special_details
;
The deposited cif gives a diffraction temperature of 293 K

;
_exptl_crystal_description 'cluster'
_exptl_crystal_preparation 'chloroform/petroleum ether'
_diffrn_ambient_temperature 100
#These two values have been output from a single CSD field.
_refine_ls_R_factor_gt 0.0504
_refine_ls_wR_factor_gt 0.0504
_symmetry_cell_setting monoclinic
_symmetry_space_group_name_H-M 'P 21/c'
_symmetry_Int_Tables_number 14
loop_
_symmetry_equiv_pos_site_id
_symmetry_equiv_pos_as_xyz
1 x,y,z
2 -x,1/2+y,1/2-z
3 -x,-y,-z
4 x,-1/2-y,-1/2+z
_cell_length_a 10.1291(10)
_cell_length_b 13.2035(12)
_cell_length_c 15.8027(15)
_cell_angle_alpha 90
_cell_angle_beta 97.059(2)
_cell_angle_gamma 90
_cell_formula_units_Z 4
loop_
_atom_type_symbol
_atom_type_radius_bond
C 0.68
H 0.23
N 0.68
O 0.68
loop_
_atom_site_label
_atom_site_type_symbol
_atom_site_fract_x
_atom_site_fract_y
_atom_site_fract_z
O1 O 0.80948(14) 0.9896(1) 0.25803(8)
O2 O 0.81790(13) 0.71428(9) 0.11933(8)
O3 O 1.00282(14) 0.64074(10) 0.18556(9)
O4 O 0.94880(16) 0.2161(1) -0.00180(9)
O5 O 1.08239(16) 0.28796(11) 0.09771(10)
O6 O 0.56159(15) 0.39442(11) -0.13173(9)
O7 O 0.52128(14) 0.54635(10) -0.08949(9)
N1 N 0.98340(18) 0.28746(12) 0.04519(10)
N2 N 0.58994(17) 0.46936(12) -0.0883(1)
C1 C 0.70711(18) 1.04457(13) 0.11821(12)
C2 C 0.6933(2) 1.04050(16) 0.02932(13)
C3 C 0.6258(2) 1.11408(17) -0.01971(14)
C4 C 0.5672(2) 1.19514(15) 0.01888(14)
C5 C 0.5807(2) 1.20013(16) 0.10647(14)
C6 C 0.6505(2) 1.12575(15) 0.15623(14)
C7 C 1.1206(2) 0.87799(16) 0.22325(13)
C8 C 1.2458(2) 0.91670(16) 0.25107(13)
C9 C 1.2854(2) 1.01017(16) 0.22250(14)
C10 C 1.1990(2) 1.06458(16) 0.16573(14)
C11 C 1.0729(2) 1.02641(15) 0.13752(14)
C12 C 1.03197(19) 0.93367(14) 0.16666(12)
C13 C 0.86263(19) 0.54901(14) 0.07925(11)
C14 C 0.9396(2) 0.46156(14) 0.08823(12)
C15 C 0.90034(19) 0.37968(14) 0.03687(12)
C16 C 0.78856(19) 0.37989(14) -0.02235(12)
C17 C 0.71389(19) 0.46748(14) -0.02877(12)
C18 C 0.7476(2) 0.55233(15) 0.02066(12)
C19 C 0.77468(18) 0.96012(14) 0.17192(12)
C20 C 0.89213(19) 0.89897(14) 0.13796(12)
C21 C 0.83188(19) 0.80341(14) 0.17364(13)
C22 C 0.69892(19) 0.85759(14) 0.17230(13)
C23 C 0.6119(2) 0.83561(16) 0.24085(15)
C24 C 0.90373(19) 0.63873(14) 0.13465(12)
H1 H 0.8777(18) 0.8964(13) 0.0736(12)
H2 H 0.870(2) 0.7842(15) 0.2299(14)
H3 H 0.651(2) 0.8512(15) 0.1131(13)
H4 H 0.871(3) 1.0431(19) 0.2601(15)
H5 H 0.727(2) 0.9846(19) 0.0013(15)
H6 H 0.620(3) 1.1105(18) -0.0717(17)
H7 H 0.521(2) 1.2475(17) -0.0167(13)
H8 H 0.536(2) 1.2519(18) 0.1340(14)
H9 H 0.659(2) 1.1300(17) 0.2180(15)
H10 H 1.096(2) 0.8145(16) 0.2419(13)
H11 H 1.306(2) 0.8752(17) 0.2887(14)
H12 H 1.362(3) 1.0387(18) 0.2410(15)
H13 H 1.224(2) 1.1316(16) 0.1442(12)
H14 H 1.014(2) 1.0647(18) 0.0979(15)
H15 H 1.018(2) 0.4551(15) 0.1279(13)
H16 H 0.764(2) 0.3260(16) -0.0572(13)
H17 H 0.6920(19) 0.6094(15) 0.0108(11)
H18 H 0.663(2) 0.8419(16) 0.2973(14)
H19 H 0.534(3) 0.8834(18) 0.2388(15)
H20 H 0.575(2) 0.7655(17) 0.2328(13)
#END
