
#######################################################################
#
#                 Cambridge Crystallographic Data Centre
#                                CCDC
#
#######################################################################
#
# If this CIF has been generated from an entry in the Cambridge
# Structural Database, then it will include bibliographic, chemical,
# crystal, experimental, refinement or atomic coordinate data resulting
# from the CCDC's data processing and validation procedures.
#
#######################################################################

data_CSD_CIF_WOKCOO
_audit_creation_date 2000-12-19
_audit_creation_method CSD-ConQuest-V1
_database_code_CSD WOKCOO
_database_code_depnum_ccdc_archive 'CCDC 152767'
_database_code_depnum_ccdc_journal 182/1789
_chemical_formula_sum 'C26 H37 N1 O9'
_chemical_formula_moiety
;
C26 H37 N1 O9
;
_journal_coden_Cambridge 182
_journal_year 2000
_journal_page_first 2127
_journal_name_full 'Chem.Commun. '
loop_
_publ_author_name
"F.J.Duff"
"V.Vivien"
"R.H.Wightman"
_chemical_name_systematic
;
6-(5'-Benzyloxy-2'-methoxy-8',8'-dimethyl-3',7',9'-trioxabicyclo(4.2.0)nonan-4
'-yl)-2-hydroxy-11,11-dimethyl-5,10,12-trioxa-4-azatricyclo(7.3.0.0^4,8^)dodec
ane
;
_cell_volume   1351.766
_exptl_crystal_colour 'colorless'
_exptl_crystal_density_diffrn 1.247
_exptl_crystal_description 'needle'
_diffrn_ambient_temperature ?
_diffrn_special_details
;
The study was carried out at room temperature,in the range 283-303K

;
#These two values have been output from a single CSD field.
_refine_ls_R_factor_gt 0.0708
_refine_ls_wR_factor_gt 0.0708
_symmetry_cell_setting monoclinic
_symmetry_space_group_name_H-M 'P 21'
_symmetry_Int_Tables_number 4
loop_
_symmetry_equiv_pos_site_id
_symmetry_equiv_pos_as_xyz
1 x,y,z
2 -x,1/2+y,-z
_cell_length_a 14.549(4)
_cell_length_b 5.907(2)
_cell_length_c 16.345(6)
_cell_angle_alpha 90
_cell_angle_beta 105.78(2)
_cell_angle_gamma 90
_cell_formula_units_Z 2
loop_
_atom_type_symbol
_atom_type_radius_bond
C 0.68
H 0.23
N 0.68
O 0.68
loop_
_atom_site_label
_atom_site_type_symbol
_atom_site_fract_x
_atom_site_fract_y
_atom_site_fract_z
N1 N 0.1869(4) -0.6263(10) 0.3935(3)
O1 O 0.4684(3) -0.1832(8) 0.3253(3)
O2 O 0.5570(3) -0.6281(8) 0.2223(3)
O3 O 0.4625(3) -0.5610(9) 0.0877(3)
O4 O 0.2553(3) -0.5813(8) 0.0945(3)
O5 O 0.4012(3) -0.5463(8) 0.3153(3)
O6 O 0.2063(3) -0.4815(8) 0.3280(3)
O7 O 0.2754(3) -0.9740(8) 0.5380(2)
O8 O 0.1389(3) -1.1823(8) 0.5201(3)
O9 O -0.0262(3) -0.9407(9) 0.4095(3)
H1 H -0.06280 -0.83260 0.40360
C1 C 0.4820(5) -0.4118(13) 0.3113(4)
H2 H 0.53780 -0.46480 0.35560
C2 C 0.5047(5) -0.4277(14) 0.2261(4)
H3 H 0.54230 -0.29560 0.21850
C3 C 0.4199(5) -0.4577(14) 0.1471(4)
H4 H 0.39540 -0.30830 0.12570
C4 C 0.3387(5) -0.5970(13) 0.1643(4)
H5 H 0.35850 -0.75580 0.17270
C5 C 0.3177(5) -0.5074(13) 0.2452(4)
H6 H 0.30530 -0.34430 0.23920
C6 C 0.2340(5) -0.6221(12) 0.2649(4)
H7 H 0.18090 -0.63130 0.21310
C7 C 0.2540(5) -0.8586(11) 0.3059(4)
H8 H 0.20340 -0.96430 0.28020
H9 H 0.31450 -0.91840 0.30110
C8 C 0.2572(5) -0.8110(11) 0.3990(4)
H10 H 0.32070 -0.75260 0.42810
C9 C 0.2372(5) -1.0140(12) 0.4479(4)
H11 H 0.26820 -1.14760 0.43180
C10 C 0.1331(5) -1.0701(13) 0.4415(4)
H12 H 0.10800 -1.17410 0.39400
C11 C 0.0700(5) -0.8611(12) 0.4316(4)
H13 H 0.08340 -0.78070 0.48600
C12 C 0.0871(5) -0.7036(13) 0.3642(5)
H14 H 0.07630 -0.78260 0.31040
H15 H 0.04390 -0.57530 0.35640
C13 C 0.5518(5) -0.6591(14) 0.1336(4)
C14 C 0.6310(5) -0.5435(14) 0.1080(4)
H16 H 0.62420 -0.56990 0.04870
H17 H 0.69120 -0.60250 0.14080
H18 H 0.62850 -0.38370 0.11790
C15 C 0.5497(6) -0.9099(14) 0.1182(5)
H19 H 0.54640 -0.93830 0.05960
H20 H 0.49480 -0.97430 0.13120
H21 H 0.60670 -0.97740 0.15380
C16 C 0.2441(9) -0.758(3) 0.0389(8)
H22 H 0.23750 -0.89650 0.06870
H23 H 0.30130 -0.77150 0.01960
C17 C 0.1598(8) -0.735(3) -0.0367(7)
C18 C 0.1530(12) -0.626(3) -0.1139(13)
H24 H 0.20480 -0.54250 -0.12020
C19 C 0.0700(11) -0.639(3) -0.1825(9)
H25 H 0.06710 -0.57610 -0.23540
C20 C -0.0022(11) -0.743(3) -0.1672(7)
H26 H -0.05570 -0.76030 -0.21340
C21 C -0.0092(11) -0.828(3) -0.0950(11)
H27 H -0.06560 -0.88300 -0.08640
C22 C 0.0807(14) -0.825(3) -0.0307(9)
H28 H 0.08230 -0.89550 0.02050
C23 C 0.2287(5) -1.1299(12) 0.5808(4)
C24 C 0.2119(5) -1.0148(14) 0.6568(4)
H29 H 0.18080 -1.11760 0.68610
H30 H 0.17210 -0.88430 0.63890
H31 H 0.27190 -0.96840 0.69420
C25 C 0.2849(5) -1.3487(13) 0.6025(5)
H32 H 0.25180 -1.45000 0.63060
H33 H 0.34710 -1.31640 0.63940
H34 H 0.29140 -1.41790 0.55120
C26 C 0.4789(5) -0.1332(14) 0.4127(4)
H35 H 0.46860 0.02560 0.41900
H36 H 0.54220 -0.17290 0.44540
H37 H 0.43300 -0.21850 0.43240
#END
