
#######################################################################
#
#                 Cambridge Crystallographic Data Centre
#                                CCDC
#
#######################################################################
#
# If this CIF has been generated from an entry in the Cambridge
# Structural Database, then it will include bibliographic, chemical,
# crystal, experimental, refinement or atomic coordinate data resulting
# from the CCDC's data processing and validation procedures.
#
#######################################################################

data_CSD_CIF_WOKGIM
_audit_creation_date 2000-12-19
_audit_creation_method CSD-ConQuest-V1
_database_code_CSD WOKGIM
_database_code_depnum_ccdc_archive 'CCDC 152875'
_chemical_formula_sum 'C20 H28 N6 O8'
_chemical_formula_moiety
;
C20 H28 N6 O8
;
_journal_coden_Cambridge 388
_journal_volume 36
_journal_year 2000
_journal_page_first 771
_journal_name_full 'Zh.Org.Khim.(Russ.)(Russ.J.Org.Chem.) '
loop_
_publ_author_name
"Yu.M.Atroshchenko"
"E.G.Nikiforova"
"I.V.Shakhkel'dyan"
"Yu.D.Grudtsyn"
"N.G.Akhmedov"
"E.N.Alifanova"
"O.Ya.Borbulevych"
"O.V.Shishkin"
"S.S.Gitis"
"A.Ya.Kaminskii"
_chemical_name_systematic
;
1,4-bis(1,5-Dinitro-3-azabicyclo(3.3.1)non-6-ene-3-yl)butane
;
_chemical_melting_point 179
_cell_volume    578.552
_exptl_crystal_density_diffrn 1.379
_exptl_special_details
;
Melting point range 179-180K

;
_exptl_crystal_preparation 'acetone'
_diffrn_ambient_temperature ?
_diffrn_special_details
;
The study was carried out at room temperature,in the range 283-303K

;
_refine_special_details
;
The nitro groups are equally disordered over two (N1) and three (N2) 
positions.
;
#These two values have been output from a single CSD field.
_refine_ls_R_factor_gt 0.0886
_refine_ls_wR_factor_gt 0.0886
_symmetry_cell_setting triclinic
_symmetry_space_group_name_H-M 'P -1'
_symmetry_Int_Tables_number 2
loop_
_symmetry_equiv_pos_site_id
_symmetry_equiv_pos_as_xyz
1 x,y,z
2 -x,-y,-z
_cell_length_a 7.992(2)
_cell_length_b 8.405(2)
_cell_length_c 8.919(2)
_cell_angle_alpha 94.61(3)
_cell_angle_beta 96.43(3)
_cell_angle_gamma 102.20(3)
_cell_formula_units_Z 1
loop_
_atom_type_symbol
_atom_type_radius_bond
C 0.68
H 0.23
N 0.68
O 0.68
loop_
_atom_site_label
_atom_site_type_symbol
_atom_site_fract_x
_atom_site_fract_y
_atom_site_fract_z
N1 N 0.0134(5) 0.9543(5) 0.7777(4)
N2 N 0.3007(5) 0.6392(4) 0.4355(3)
N3 N 0.2735(2) 0.6410(2) 0.8520(2)
C1 C 0.1625(3) 0.8675(3) 0.7625(3)
C2 C 0.1342(3) 0.7275(3) 0.8614(3)
H1 H 0.1339(3) 0.7700(3) 0.9658(3)
H2 H 0.0237(3) 0.6533(3) 0.8265(3)
C3 C 0.2757(4) 0.5759(3) 0.6972(2)
H3 H 0.1666(4) 0.5007(3) 0.6595(2)
H4 H 0.3671(4) 0.5165(3) 0.6933(2)
C4 C 0.3056(3) 0.7165(3) 0.5992(2)
C5 C 0.4752(4) 0.8340(5) 0.6486(4)
H5 H 0.5747(4) 0.8210(5) 0.6087(4)
C6 C 0.4775(5) 0.9603(5) 0.7541(5)
H6 H 0.5834(5) 1.0309(5) 0.7889(5)
C7 C 0.3297(8) 0.9928(4) 0.8156(5)
H7 H 0.3141(8) 1.0991(4) 0.7895(5)
H8 H 0.3523(8) 0.9996(4) 0.9253(5)
C8 C 0.1579(3) 0.8035(3) 0.5984(3)
H9 H 0.1745(3) 0.8928(3) 0.5351(3)
H10 H 0.0487(3) 0.7283(3) 0.5610(3)
C9 C 0.2598(3) 0.5121(3) 0.9549(3)
H11 H 0.1590(3) 0.4261(3) 0.9166(3)
H12 H 0.2422(3) 0.5578(3) 1.0537(3)
C10 C 0.4153(3) 0.4381(3) 0.9734(3)
H13 H 0.4243(3) 0.3806(3) 0.8770(3)
H14 H 0.3981(3) 0.3581(3) 1.0460(3)
O1 O 0.0229(14) 1.0845(9) 0.7277(12)
O2 O -0.1091(7) 0.8928(10) 0.8389(10)
O3 O 0.3112(19) 0.7226(16) 0.3320(12)
O4 O 0.2861(16) 0.4932(6) 0.4074(10)
O5? O 0.0254(16) 1.0383(14) 0.8961(9)
O6? O -0.0971(7) 0.9269(12) 0.6683(6)
O7? O 0.1919(9) 0.6622(11) 0.3395(6)
O8? O 0.4031(16) 0.5583(13) 0.4051(2)
O9? O 0.1644(11) 0.5598(13) 0.3713(13)
O10? O 0.4423(10) 0.6718(13) 0.3940(14)
C10A C 0.5847(3) 0.5619(3) 1.0266(3)
C9A C 0.7402(3) 0.4879(3) 1.0451(3)
N3A N 0.7265(2) 0.3590(2) 1.1480(2)
C2A C 0.8658(3) 0.2725(3) 1.1386(3)
C1A C 0.8375(3) 0.1325(3) 1.2375(3)
N1A N 0.9866(5) 0.0457(5) 1.2223(4)
O1A O 0.9771(14) -0.0845(9) 1.2723(12)
O2A O 1.1091(7) 0.1072(10) 1.1611(10)
C7A C 0.6703(8) 0.0072(4) 1.1844(5)
C6A C 0.5225(5) 0.0397(5) 1.2459(5)
C5A C 0.5248(4) 0.1660(5) 1.3514(4)
C4A C 0.6944(3) 0.2835(3) 1.4008(2)
N2A N 0.6993(5) 0.3608(4) 1.5645(3)
O3A O 0.6888(19) 0.2774(16) 1.6680(12)
O4A O 0.7139(16) 0.5068(6) 1.5926(10)
C3A C 0.7243(4) 0.4241(3) 1.3028(2)
H3A H 0.8334(4) 0.4993(3) 1.3405(2)
H4A H 0.6329(4) 0.4835(3) 1.3067(2)
C8A C 0.8421(3) 0.1965(3) 1.4016(3)
H9A H 0.8255(3) 0.1072(3) 1.4649(3)
H10A H 0.9513(3) 0.2717(3) 1.4390(3)
H5A H 0.4253(4) 0.1790(5) 1.3913(4)
H6A H 0.4166(5) -0.0309(5) 1.2111(5)
H7A H 0.6859(8) -0.0991(4) 1.2105(5)
H8A H 0.6477(8) 0.0004(4) 1.0747(5)
H1A H 0.8661(3) 0.2300(3) 1.0342(3)
H2A H 0.9763(3) 0.3467(3) 1.1735(3)
H11A H 0.8410(3) 0.5739(3) 1.0834(3)
H12A H 0.7578(3) 0.4422(3) 0.9463(3)
H13A H 0.5757(3) 0.6194(3) 1.1230(3)
H14A H 0.6019(3) 0.6419(3) 0.9540(3)
#END
