
#######################################################################
#
#                 Cambridge Crystallographic Data Centre
#                                CCDC
#
#######################################################################
#
# If this CIF has been generated from an entry in the Cambridge
# Structural Database, then it will include bibliographic, chemical,
# crystal, experimental, refinement or atomic coordinate data resulting
# from the CCDC's data processing and validation procedures.
#
#######################################################################

data_CSD_CIF_WOKSIY
_audit_creation_date 2000-12-19
_audit_creation_method CSD-ConQuest-V1
_database_code_CSD WOKSIY
_database_code_depnum_ccdc_archive 'CCDC 152913'
_chemical_formula_sum 'C15 H16 N4 O2'
_chemical_formula_moiety
;
C15 H16 N4 O2
;
_journal_coden_Cambridge 388
_journal_volume 36
_journal_year 2000
_journal_page_first 712
_journal_name_full 'Zh.Org.Khim.(Russ.)(Russ.J.Org.Chem.) '
loop_
_publ_author_name
"Yu.M.Atroshchenko"
"N.I.Blokhina"
"I.V.Shakhkel'dyan"
"Yu.D.Grudtsyn"
"S.S.Gitis"
"O.Ya.Borbulevych"
"I.V.Blokhin"
"A.Ya.Kaminskii"
"O.V.Shishkin"
"V.F.Andrianov"
_chemical_name_systematic
;
4-Methyl-4'-dimethylamino-5-nitrophenylazobenzene
;
_chemical_melting_point 184
_cell_volume   1451.126
_exptl_crystal_density_diffrn 1.301
_exptl_special_details
;
Melting point range 184-198K

;
_diffrn_ambient_temperature ?
_diffrn_special_details
;
The study was carried out at room temperature,in the range 283-303K

;
#These two values have been output from a single CSD field.
_refine_ls_R_factor_gt 0.0632
_refine_ls_wR_factor_gt 0.0632
_symmetry_cell_setting monoclinic
_symmetry_space_group_name_H-M 'P 21/c'
_symmetry_Int_Tables_number 14
loop_
_symmetry_equiv_pos_site_id
_symmetry_equiv_pos_as_xyz
1 x,y,z
2 -x,1/2+y,1/2-z
3 -x,-y,-z
4 x,-1/2-y,-1/2+z
_cell_length_a 10.626(4)
_cell_length_b 10.692(5)
_cell_length_c 13.276(6)
_cell_angle_alpha 90
_cell_angle_beta 105.83(3)
_cell_angle_gamma 90
_cell_formula_units_Z 4
loop_
_atom_type_symbol
_atom_type_radius_bond
C 0.68
H 0.23
N 0.68
O 0.68
loop_
_atom_site_label
_atom_site_type_symbol
_atom_site_fract_x
_atom_site_fract_y
_atom_site_fract_z
N1 N 0.8849(2) 0.6589(3) 0.5587(2)
N2 N 0.8834(2) 0.6237(2) 0.4735(2)
N3 N 1.2240(3) 0.9497(3) 0.4935(2)
N4 N 0.5291(2) 0.2312(2) 0.31623(15)
O1 O 1.2134(4) 0.8954(3) 0.4132(2)
O2 O 1.2974(4) 1.0368(4) 0.5192(3)
C1 C 0.9812(2) 0.7662(2) 0.5882(2)
C2 C 0.7865(2) 0.5201(2) 0.4423(2)
C3 C 1.0599(3) 0.8075(2) 0.5253(2)
H1 H 1.0560(3) 0.7683(2) 0.4620(2)
C4 C 0.7017(3) 0.4720(2) 0.4977(2)
H2 H 0.7036(3) 0.5047(2) 0.5630(2)
C5 C 1.1452(2) 0.9098(2) 0.5601(2)
C6 C 0.6169(3) 0.3779(2) 0.4563(2)
H3 H 0.5616(3) 0.3471(2) 0.4940(2)
C7 C 1.1506(2) 0.9706(2) 0.6537(2)
C8 C 0.6114(2) 0.3265(2) 0.3579(2)
C9 C 0.6967(2) 0.3778(2) 0.3044(2)
H4 H 0.6951(2) 0.3470(2) 0.2385(2)
C10 C 1.0698(2) 0.9216(3) 0.7102(2)
H5 H 1.0713(2) 0.9594(3) 0.7736(2)
C11 C 0.7806(2) 0.4705(2) 0.3464(2)
H6 H 0.8361(2) 0.5015(2) 0.3090(2)
C12 C 0.9894(3) 0.8229(3) 0.6795(2)
H7 H 0.9392(3) 0.7941(3) 0.7222(2)
C13 C 0.4412(3) 0.1780(3) 0.3724(2)
H8 H 0.4912(3) 0.1494(17) 0.4401(7)
H9 H 0.3944(15) 0.1088(12) 0.3334(8)
H10 H 0.3801(13) 0.2407(6) 0.3808(14)
C14 C 0.5185(3) 0.1854(3) 0.2117(2)
H11 H 0.6041(3) 0.1666(17) 0.2049(5)
H12 H 0.4783(17) 0.2481(8) 0.1615(2)
H13 H 0.4659(16) 0.1110(11) 0.1994(6)
C15 C 1.2315(3) 1.0829(2) 0.6979(2)
H14 H 1.2137(16) 1.1073(12) 0.7622(9)
H15 H 1.2101(15) 1.1507(7) 0.6487(8)
H16 H 1.3226(3) 1.0627(6) 0.7110(16)
#END
