
#######################################################################
#
#                 Cambridge Crystallographic Data Centre
#                                CCDC
#
#######################################################################
#
# If this CIF has been generated from an entry in the Cambridge
# Structural Database, then it will include bibliographic, chemical,
# crystal, experimental, refinement or atomic coordinate data resulting
# from the CCDC's data processing and validation procedures.
#
#######################################################################

data_CSD_CIF_WOMREV
_audit_creation_date 2001-01-05
_audit_creation_method CSD-ConQuest-V1
_database_code_CSD WOMREV
_database_code_depnum_ccdc_archive 'CCDC 148974'
_chemical_formula_sum 'C17 H21 N1 O6'
_chemical_formula_moiety
;
C17 H21 N1 O6
;
_journal_coden_Cambridge 24
_journal_volume 41
_journal_year 2000
_journal_page_first 4029
_journal_name_full 'Tetrahedron Lett. '
loop_
_publ_author_name
"Pilho Kim"
"M.M.Olmstead"
"M.H.Nantz"
"M.J.Kurth"
_chemical_name_systematic
;
(E)-t-Butyl 6-hydroxy-2-(4-nitrobenzylidene)-3-oxohexanoate
;
_cell_volume   1668.349
_exptl_crystal_colour 'pale yellow'
_exptl_crystal_density_diffrn 1.335
_exptl_crystal_description 'needle'
_diffrn_ambient_temperature 90
#These two values have been output from a single CSD field.
_refine_ls_R_factor_gt 0.0455
_refine_ls_wR_factor_gt 0.0455
_symmetry_cell_setting monoclinic
_symmetry_space_group_name_H-M 'P 21/c'
_symmetry_Int_Tables_number 14
loop_
_symmetry_equiv_pos_site_id
_symmetry_equiv_pos_as_xyz
1 x,y,z
2 x,1/2-y,1/2+z
3 -x,-y,-z
4 -x,-1/2+y,-1/2-z
_cell_length_a 6.4430(2)
_cell_length_b 30.3339(12)
_cell_length_c 8.6077(3)
_cell_angle_alpha 90
_cell_angle_beta 97.384(1)
_cell_angle_gamma 90
_cell_formula_units_Z 4
loop_
_atom_type_symbol
_atom_type_radius_bond
C 0.68
H 0.23
N 0.68
O 0.68
loop_
_atom_site_label
_atom_site_type_symbol
_atom_site_fract_x
_atom_site_fract_y
_atom_site_fract_z
O1 O -0.34639(18) 0.19189(4) 0.52647(11)
H1 H -0.466(4) 0.1778(8) 0.485(2)
O2 O 0.25354(14) 0.15425(3) 0.37616(10)
O3 O 0.25829(14) 0.15678(3) 0.71837(9)
O4 O 0.37625(15) 0.09256(3) 0.83520(9)
O5 O 0.15035(16) -0.08674(3) -0.01892(11)
O6 O 0.23751(15) -0.02992(3) -0.14951(10)
N1 N 0.20288(16) -0.04808(3) -0.02725(12)
C1 C -0.2210(2) 0.20034(4) 0.40438(15)
H2 H -0.08200 0.21120 0.45130
H3 H -0.28780 0.22390 0.33550
C2 C -0.1921(2) 0.15978(4) 0.30649(13)
H4 H -0.11000 0.16790 0.22120
H5 H -0.33100 0.14940 0.25780
C3 C -0.0814(2) 0.12232(4) 0.40110(13)
H6 H -0.14110 0.11980 0.50110
H7 H -0.11200 0.09450 0.34270
C4 C 0.15260(19) 0.12706(4) 0.43759(12)
C5 C 0.25390(18) 0.09535(4) 0.55990(12)
C6 C 0.30462(19) 0.11393(4) 0.72222(13)
C7 C 0.3070(2) 0.18554(4) 0.85842(12)
C8 C 0.2417(2) 0.23061(4) 0.79214(15)
H8 H 0.31970 0.23740 0.70460
H9 H 0.27190 0.25300 0.87400
H10 H 0.09140 0.23050 0.75510
C9 C 0.1739(3) 0.17130(5) 0.98290(15)
H11 H 0.02610 0.17110 0.93820
H12 H 0.19410 0.19200 1.07100
H13 H 0.21560 0.14160 1.01970
C10 C 0.5400(2) 0.18417(4) 0.91307(14)
H14 H 0.57770 0.15520 0.95840
H15 H 0.57600 0.20700 0.99240
H16 H 0.61700 0.18940 0.82380
C11 C 0.29033(18) 0.05252(4) 0.53806(13)
H17 H 0.33920 0.03600 0.62920
C12 C 0.26340(18) 0.02800(4) 0.38902(13)
C13 C 0.29614(19) 0.04728(4) 0.24640(13)
H18 H 0.33180 0.07760 0.24330
C14 C 0.27703(19) 0.02255(4) 0.10909(13)
H19 H 0.30000 0.03550 0.01230
C15 C 0.22348(18) -0.02156(4) 0.11755(13)
C16 C 0.1906(2) -0.04191(4) 0.25637(14)
H20 H 0.15360 -0.07220 0.25830
C17 C 0.21292(19) -0.01698(4) 0.39204(13)
H21 H 0.19380 -0.03050 0.48870
#END
