
#######################################################################
#
#                 Cambridge Crystallographic Data Centre
#                                CCDC
#
#######################################################################
#
# If this CIF has been generated from an entry in the Cambridge
# Structural Database, then it will include bibliographic, chemical,
# crystal, experimental, refinement or atomic coordinate data resulting
# from the CCDC's data processing and validation procedures.
#
#######################################################################

data_CSD_CIF_WOMSAS
_audit_creation_date 2001-01-05
_audit_creation_method CSD-ConQuest-V1
_database_code_CSD WOMSAS
_database_code_depnum_ccdc_archive 'CCDC 149019'
_chemical_formula_sum 'C28 H26 N2 O6'
_chemical_formula_moiety
;
C28 H26 N2 O6
;
_journal_coden_Cambridge 24
_journal_volume 41
_journal_year 2000
_journal_page_first 5407
_journal_name_full 'Tetrahedron Lett. '
loop_
_publ_author_name
"N.Coskun"
"F.T.Tat"
"O.O.Guven"
"D.Ulku"
"C.Arici"
_chemical_name_systematic
;
Dimethyl 
5-(4-methoxyphenyl)-3a,6-diphenyl-3a,4,5,6-tetrahydroimidazo(1,5-b)isoxazole-2
,3-dicarboxylate
;
_cell_volume   1210.619
_diffrn_ambient_temperature ?
_diffrn_special_details
;
The study was carried out at room temperature,in the range 283-303K

;
#These two values have been output from a single CSD field.
_refine_ls_R_factor_gt 0.0524
_refine_ls_wR_factor_gt 0.0524
_symmetry_cell_setting triclinic
_symmetry_space_group_name_H-M 'P -1'
_symmetry_Int_Tables_number 2
loop_
_symmetry_equiv_pos_site_id
_symmetry_equiv_pos_as_xyz
1 x,y,z
2 -x,-y,-z
_cell_length_a 9.6286(12)
_cell_length_b 10.8825(13)
_cell_length_c 11.8879(11)
_cell_angle_alpha 103.089(2)
_cell_angle_beta 91.058(3)
_cell_angle_gamma 93.317(2)
_cell_formula_units_Z 2
loop_
_atom_type_symbol
_atom_type_radius_bond
C 0.68
H 0.23
N 0.68
O 0.68
loop_
_atom_site_label
_atom_site_type_symbol
_atom_site_fract_x
_atom_site_fract_y
_atom_site_fract_z
N1 N 0.31522(14) 0.38301(12) 0.65279(11)
N2 N 0.15651(14) 0.32852(12) 0.77207(11)
O1 O 0.32790(13) 0.38571(11) 0.52971(10)
O2 O 0.1731(2) 0.42649(15) 0.31813(12)
O3 O 0.32920(14) 0.59100(12) 0.37475(11)
O4 O 0.07924(14) 0.68875(13) 0.51935(11)
O5 O 0.10372(13) 0.73104(11) 0.71298(11)
O6 O -0.28045(15) 0.05433(14) 0.92765(12)
C1 C 0.2573(2) 0.4844(2) 0.51328(15)
C2 C 0.2086(2) 0.55655(14) 0.60831(14)
C3 C 0.2526(2) 0.50623(14) 0.71113(14)
C4 C 0.1289(2) 0.46081(15) 0.7750(2)
H1 H 0.1269(2) 0.51012(15) 0.8538(2)
H2 H 0.0412(2) 0.46620(15) 0.7355(2)
C5 C 0.2060(2) 0.28079(14) 0.65608(13)
H3 H 0.1320(2) 0.27808(14) 0.59774(13)
C6 C 0.2700(2) 0.15484(14) 0.63908(13)
C7 C 0.3651(2) 0.1321(2) 0.71961(15)
H4 H 0.3863(2) 0.1933(2) 0.78708(15)
C8 C 0.4290(2) 0.0186(2) 0.7002(2)
H5 H 0.4936(2) 0.0043(2) 0.7542(2)
C9 C 0.3970(2) -0.0730(2) 0.6011(2)
H6 H 0.4404(2) -0.1489(2) 0.5879(2)
C10 C 0.3009(2) -0.0523(2) 0.5217(2)
H7 H 0.2783(2) -0.1145(2) 0.4552(2)
C11 C 0.2380(2) 0.0612(2) 0.54084(15)
H8 H 0.1731(2) 0.0748(2) 0.48675(15)
C12 C 0.3667(2) 0.58925(14) 0.78732(14)
C13 C 0.4624(2) 0.6614(2) 0.7394(2)
H9 H 0.4527(2) 0.6629(2) 0.6618(2)
C14 C 0.5721(2) 0.7312(2) 0.8057(2)
H10 H 0.6348(2) 0.7798(2) 0.7726(2)
C15 C 0.5881(3) 0.7287(2) 0.9207(2)
H11 H 0.6616(3) 0.7755(2) 0.9655(2)
C16 C 0.4953(3) 0.6570(2) 0.9684(2)
H12 H 0.5063(3) 0.6549(2) 1.0458(2)
C17 C 0.3857(2) 0.5878(2) 0.9030(2)
H13 H 0.3235(2) 0.5395(2) 0.9368(2)
C18 C 0.0446(2) 0.25746(14) 0.81017(13)
C19 C -0.0440(2) 0.1687(2) 0.73549(14)
H14 H -0.0319(2) 0.1537(2) 0.65621(14)
C20 C -0.1499(2) 0.1027(2) 0.77834(15)
H15 H -0.2072(2) 0.0426(2) 0.72742(15)
C21 C -0.1717(2) 0.1245(2) 0.89551(15)
C22 C -0.0856(2) 0.2141(2) 0.9707(2)
H16 H -0.0999(2) 0.2310(2) 1.0498(2)
C23 C 0.0221(2) 0.2786(2) 0.92762(15)
H17 H 0.0805(2) 0.3374(2) 0.97878(15)
C24 C -0.2947(3) 0.0590(2) 1.0459(2)
H18 H -0.2151(8) 0.0252(13) 1.0749(3)
H19 H -0.3774(9) 0.0099(12) 1.0567(2)
H20 H -0.3013(16) 0.1451(3) 1.0870(3)
C25 C 0.2463(2) 0.4961(2) 0.39029(15)
C26 C 0.3290(2) 0.6130(2) 0.2593(2)
H21 H 0.2368(4) 0.6298(14) 0.2374(5)
H22 H 0.3584(15) 0.5395(6) 0.2063(3)
H23 H 0.3918(12) 0.6843(9) 0.2576(4)
C27 C 0.1241(2) 0.66392(15) 0.60630(14)
C28 C 0.0175(2) 0.8361(2) 0.7188(2)
H24 H -0.0059(13) 0.8692(9) 0.7976(3)
H25 H -0.0662(7) 0.8082(3) 0.6727(10)
H26 H 0.0672(6) 0.9010(6) 0.6899(12)
#END
