
#######################################################################
#
#                 Cambridge Crystallographic Data Centre
#                                CCDC
#
#######################################################################
#
# If this CIF has been generated from an entry in the Cambridge
# Structural Database, then it will include bibliographic, chemical,
# crystal, experimental, refinement or atomic coordinate data resulting
# from the CCDC's data processing and validation procedures.
#
#######################################################################

data_CSD_CIF_WOMWUR
_audit_creation_date 2009-04-29
_audit_creation_method CSD-ConQuest-V1
_database_code_CSD WOMWUR
_database_code_depnum_ccdc_archive 'CCDC 677249'
_chemical_formula_sum 'C13 H9 N3 O5'
_chemical_formula_moiety
;
C13 H9 N3 O5
;
_journal_coden_Cambridge 878
_journal_volume 32
_journal_year 2008
_journal_page_first 481
_journal_name_full 'Turk.J.Chem. '
loop_
_publ_author_name
"A.Saeed"
"S.Hussain"
"U.Florke"
_chemical_name_systematic
;
2-Nitro-N-(4-nitrophenyl)benzamide
;
_chemical_melting_point 425.15
_cell_volume   1199.237
_exptl_crystal_colour 'bronze'
_exptl_crystal_density_diffrn 1.591
_exptl_crystal_description 'block'
_exptl_crystal_preparation 'ethanol'
_diffrn_ambient_temperature 120
#These two values have been output from a single CSD field.
_refine_ls_R_factor_gt 0.032
_refine_ls_wR_factor_gt 0.032
_symmetry_cell_setting orthorhombic
_symmetry_space_group_name_H-M 'P 21 21 21'
_symmetry_Int_Tables_number 19
loop_
_symmetry_equiv_pos_site_id
_symmetry_equiv_pos_as_xyz
1 x,y,z
2 1/2-x,-y,1/2+z
3 -x,1/2+y,1/2-z
4 1/2+x,1/2-y,-z
_cell_length_a 8.9443(10)
_cell_length_b 9.7147(11)
_cell_length_c 13.8016(16)
_cell_angle_alpha 90
_cell_angle_beta 90
_cell_angle_gamma 90
_cell_formula_units_Z 4
loop_
_atom_type_symbol
_atom_type_radius_bond
C 0.68
H 0.23
N 0.68
O 0.68
loop_
_atom_site_label
_atom_site_type_symbol
_atom_site_fract_x
_atom_site_fract_y
_atom_site_fract_z
O1 O -0.12272(15) 0.81587(14) 0.54584(10)
O2 O 0.08808(18) 0.75428(16) 1.02521(10)
O3 O 0.26186(19) 0.60154(16) 1.00817(10)
O4 O -0.21562(17) 0.52827(15) 0.53785(10)
O5 O -0.35626(18) 0.46504(19) 0.41908(13)
N1 N 0.08191(17) 0.67893(16) 0.57198(10)
H1 H 0.15240 0.63530 0.53980
N2 N 0.16724(19) 0.67955(16) 0.97491(11)
N3 N -0.24522(18) 0.52132(16) 0.45143(12)
C1 C 0.1000(2) 0.68629(17) 0.67327(12)
C2 C 0.0150(2) 0.77255(19) 0.73246(13)
H2 H -0.05790 0.83200 0.70500
C3 C 0.0382(2) 0.77062(19) 0.83205(13)
H3 H -0.01920 0.82800 0.87350
C4 C 0.1459(2) 0.68402(19) 0.86985(13)
C5 C 0.2326(2) 0.59951(18) 0.81218(13)
H4 H 0.30660 0.54160 0.84000
C6 C 0.2093(2) 0.60097(18) 0.71338(13)
H5 H 0.26780 0.54370 0.67250
C7 C -0.03215(19) 0.73158(18) 0.51819(12)
C8 C -0.03454(19) 0.67900(17) 0.41512(12)
C9 C 0.0636(2) 0.73419(19) 0.34766(13)
H6 H 0.13820 0.79750 0.36810
C10 C 0.0539(2) 0.69773(19) 0.25067(13)
H7 H 0.12240 0.73570 0.20530
C11 C -0.0548(2) 0.60648(18) 0.21938(13)
H8 H -0.06160 0.58310 0.15270
C12 C -0.1536(2) 0.54936(18) 0.28541(14)
H9 H -0.22880 0.48680 0.26470
C13 C -0.1408(2) 0.58519(18) 0.38242(13)
#END
