
#######################################################################
#
#                 Cambridge Crystallographic Data Centre
#                                CCDC
#
#######################################################################
#
# If this CIF has been generated from an entry in the Cambridge
# Structural Database, then it will include bibliographic, chemical,
# crystal, experimental, refinement or atomic coordinate data resulting
# from the CCDC's data processing and validation procedures.
#
#######################################################################

data_CSD_CIF_WOMYOM
_audit_creation_date 2001-01-05
_audit_creation_method CSD-ConQuest-V1
_database_code_CSD WOMYOM
_database_code_depnum_ccdc_archive 'CCDC 149801'
_database_code_depnum_ccdc_journal 1350/33
_chemical_formula_sum 'C12 H10 N2 O1'
_chemical_formula_moiety
;
C12 H10 N2 O1
;
_journal_coden_Cambridge 1350
_journal_volume 2
_journal_year 2000
_journal_page_first 145
_journal_name_full 'CrystEngComm '
loop_
_publ_author_name
"C.B.Aakeroy"
"A.M.Beatty"
"D.S.Leinen"
_chemical_name_systematic
;
3-benzoyloximepyridine
;
_chemical_melting_point 427.15
_cell_volume   1037.371
_exptl_crystal_colour 'colorless'
_exptl_crystal_density_diffrn 1.269
_exptl_special_details
;
Melting point range 427.15-430.15K

;
_exptl_crystal_description 'prism'
_exptl_crystal_preparation 'ethanol'
_diffrn_ambient_temperature 173
#These two values have been output from a single CSD field.
_refine_ls_R_factor_gt 0.082
_refine_ls_wR_factor_gt 0.082
_symmetry_cell_setting monoclinic
_symmetry_space_group_name_H-M 'P 21/n'
_symmetry_Int_Tables_number 14
loop_
_symmetry_equiv_pos_site_id
_symmetry_equiv_pos_as_xyz
1 x,y,z
2 1/2+x,1/2-y,1/2+z
3 -x,-y,-z
4 -1/2-x,-1/2+y,-1/2-z
_cell_length_a 5.6485(13)
_cell_length_b 12.7373(17)
_cell_length_c 14.507(2)
_cell_angle_alpha 90
_cell_angle_beta 96.328(14)
_cell_angle_gamma 90
_cell_formula_units_Z 4
loop_
_atom_type_symbol
_atom_type_radius_bond
C 0.68
H 0.23
N 0.68
O 0.68
loop_
_atom_site_label
_atom_site_type_symbol
_atom_site_fract_x
_atom_site_fract_y
_atom_site_fract_z
O1 O 0.1753(6) 0.8902(2) 0.8769(2)
H1 H 0.25420 0.87480 0.92750
N1 N 0.0074(6) 0.6688(3) 0.5192(2)
N2 N 0.2202(6) 0.8190(3) 0.8114(2)
C1 C -0.0210(6) 0.7415(3) 0.5839(2)
H2 H -0.16570 0.78010 0.57900
C2 C 0.1502(6) 0.7632(3) 0.6575(2)
C3 C 0.3636(7) 0.7075(3) 0.6619(3)
H3 H 0.48640 0.72020 0.71080
C4 C 0.3946(7) 0.6347(3) 0.5954(3)
H4 H 0.53950 0.59640 0.59720
C5 C 0.2141(7) 0.6172(3) 0.5256(3)
H5 H 0.23740 0.56600 0.47980
C6 C 0.1001(6) 0.8395(3) 0.7298(2)
C7 C -0.0727(6) 0.9265(3) 0.7072(2)
C8 C -0.2672(7) 0.9397(4) 0.7570(3)
H6 H -0.29130 0.89310 0.80620
C9 C -0.4229(8) 1.0198(4) 0.7351(3)
H7 H -0.55580 1.02800 0.76930
C10 C -0.3926(8) 1.0882(4) 0.6655(4)
H8 H -0.50270 1.14390 0.65170
C11 C -0.1985(9) 1.0762(4) 0.6142(3)
H9 H -0.17610 1.12350 0.56530
C12 C -0.0410(8) 0.9955(3) 0.6352(3)
H10 H 0.09050 0.98670 0.60040
#END
