
#######################################################################
#
#                 Cambridge Crystallographic Data Centre
#                                CCDC
#
#######################################################################
#
# If this CIF has been generated from an entry in the Cambridge
# Structural Database, then it will include bibliographic, chemical,
# crystal, experimental, refinement or atomic coordinate data resulting
# from the CCDC's data processing and validation procedures.
#
#######################################################################

data_CSD_CIF_WOQXIL
_audit_creation_date 2014-08-06
_audit_creation_method CSD-ConQuest-V1
_database_code_CSD WOQXIL
_database_code_depnum_ccdc_archive 'CCDC 871461'
_chemical_formula_sum 'C7 H5 N3 O6'
_chemical_formula_moiety
;
C7 H5 N3 O6
;
_journal_coden_Cambridge 754
_journal_volume 112
_journal_year 2013
_journal_page_first 1587
_journal_name_full 'J.Thermal Analysis and Calorimetry '
loop_
_publ_author_name
"M.Kunduraci"
"E.Ozkaramete"
"N.Yilmaz"
"Sevi Oz"
"Ingrid Svoboda"
"E.Kubra Inal"
"O.Atakol"
_chemical_name_systematic
;
2-(hydroxycarbonoimidoyl)-4,6-dinitrophenol
;
_cell_volume    846.280
_exptl_crystal_density_diffrn 1.783
_diffrn_ambient_temperature 100
#These two values have been output from a single CSD field.
_refine_ls_R_factor_gt 0.0372
_refine_ls_wR_factor_gt 0.0372
_symmetry_cell_setting monoclinic
_symmetry_space_group_name_H-M 'P 21/c'
_symmetry_Int_Tables_number 14
loop_
_symmetry_equiv_pos_site_id
_symmetry_equiv_pos_as_xyz
1 x,y,z
2 -x,1/2+y,1/2-z
3 -x,-y,-z
4 x,-1/2-y,-1/2+z
_cell_length_a 6.6837(3)
_cell_length_b 9.5550(4)
_cell_length_c 13.4563(6)
_cell_angle_alpha 90
_cell_angle_beta 100.008(2)
_cell_angle_gamma 90
_cell_formula_units_Z 4
loop_
_atom_type_symbol
_atom_type_radius_bond
C 0.68
H 0.23
N 0.68
O 0.68
loop_
_atom_site_label
_atom_site_type_symbol
_atom_site_fract_x
_atom_site_fract_y
_atom_site_fract_z
O1 O 0.07524(16) 0.60296(12) 0.10312(8)
H1 H -0.03860 0.60470 0.06510
O2 O 0.49845(16) 0.09674(13) -0.11970(8)
O3 O 1.18325(15) 0.21958(11) 0.23705(8)
O4 O 1.05719(16) 0.38434(12) 0.31789(8)
O5 O 0.77803(17) 0.00379(12) -0.04615(9)
O6 O 0.32582(15) 0.28932(12) -0.03093(8)
H2 H 0.33340 0.23150 -0.07720
N1 N 0.19382(18) 0.49669(13) 0.07211(9)
N2 N 0.64677(18) 0.09268(13) -0.05035(9)
N3 N 1.04608(18) 0.30027(13) 0.24813(9)
C1 C 0.3656(2) 0.48827(16) 0.13026(11)
H3 H 0.39360 0.55070 0.18590
C2 C 0.5224(2) 0.38648(15) 0.11529(10)
C3 C 0.4988(2) 0.28853(15) 0.03509(10)
C4 C 0.6611(2) 0.19640(15) 0.02969(10)
C5 C 0.8404(2) 0.19828(15) 0.09888(11)
H4 H 0.94730 0.13450 0.09410
C6 C 0.8577(2) 0.29570(15) 0.17457(10)
C7 C 0.7031(2) 0.38946(15) 0.18379(10)
H5 H 0.72130 0.45580 0.23720
#END
