
#######################################################################
#
#                 Cambridge Crystallographic Data Centre
#                                CCDC
#
#######################################################################
#
# If this CIF has been generated from an entry in the Cambridge
# Structural Database, then it will include bibliographic, chemical,
# crystal, experimental, refinement or atomic coordinate data resulting
# from the CCDC's data processing and validation procedures.
#
#######################################################################

data_CSD_CIF_WORWIJ
_audit_creation_date 2001-03-23
_audit_creation_method CSD-ConQuest-V1
_database_code_CSD WORWIJ
_chemical_formula_sum 'C13 H18 N2 O5'
_chemical_formula_moiety
;
C13 H18 N2 O5
;
_journal_coden_Cambridge 35
_journal_volume 64
_journal_year 1999
_journal_page_first 7173
_journal_name_full 'J.Org.Chem. '
loop_
_publ_author_name
"R.B.Grossman"
"R.M.Rasne"
"B.O.Patrick"
_chemical_name_systematic
;
Ethyl 
(1R*,2S,3S)-1-cyano-3-methyl-3-nitro-2-(2-oxopropyl)-1-cyclopentanecarboxylate

;
_chemical_melting_point 360.15
_cell_volume   1463.892
_exptl_crystal_colour 'white'
_exptl_crystal_density_diffrn 1.286
_exptl_special_details
;
Melting point range 360.15-361.15K

;
_diffrn_ambient_temperature ?
_diffrn_special_details
;
The study was carried out at room temperature,in the range 283-303K

;
_refine_special_details
;
The ethyl carboxylate moiety is disordered.

;
#These two values have been output from a single CSD field.
_refine_ls_R_factor_gt 0.0496
_refine_ls_wR_factor_gt 0.0496
loop_
_citation_database_id_CSD
_citation_special_details
WORWOP "is a stereoisomer of this entry"
_symmetry_cell_setting monoclinic
_symmetry_space_group_name_H-M 'P 21/c'
_symmetry_Int_Tables_number 14
loop_
_symmetry_equiv_pos_site_id
_symmetry_equiv_pos_as_xyz
1 x,y,z
2 -x,1/2+y,1/2-z
3 -x,-y,-z
4 x,-1/2-y,-1/2+z
_cell_length_a 7.2426(4)
_cell_length_b 17.6167(9)
_cell_length_c 11.7551(6)
_cell_angle_alpha 90
_cell_angle_beta 102.57(1)
_cell_angle_gamma 90
_cell_formula_units_Z 4
loop_
_atom_type_symbol
_atom_type_radius_bond
C 0.68
H 0.23
N 0.68
O 0.68
loop_
_atom_site_label
_atom_site_type_symbol
_atom_site_fract_x
_atom_site_fract_y
_atom_site_fract_z
O1 O 0.5189(2) 0.7002(1) 0.3947(1)
O2 O 0.5725(3) 0.5921(1) 0.4745(2)
O3 O 0.1408(2) 0.5943(1) 0.2694(1)
O4 O 0.1544(2) 0.8738(1) 0.3699(2)
N1 N 0.4816(2) 0.6498(1) 0.4556(2)
N2 N -0.0976(2) 0.7398(1) 0.6456(2)
C1 C 0.1600(2) 0.7069(1) 0.4389(1)
C2 C 0.3202(2) 0.6618(1) 0.5207(2)
C3 C 0.4012(3) 0.7154(1) 0.6231(2)
C4 C 0.3301(3) 0.7937(1) 0.5847(2)
C5 C 0.1300(2) 0.7786(1) 0.5109(2)
C6 C -0.0230(2) 0.6651(1) 0.3878(2)
C7 C -0.0089(3) 0.6090(1) 0.2944(2)
C8 C -0.1909(3) 0.5734(1) 0.2327(2)
C9 C 0.2648(3) 0.5853(1) 0.5620(2)
C10 C -0.0009(2) 0.7593(1) 0.5870(2)
C11 C 0.0592(3) 0.8450(1) 0.4294(2)
O5 O -0.1073(21) 0.8681(8) 0.4335(12)
C12 C -0.1835(22) 0.9336(11) 0.3592(16)
C13 C -0.3584(20) 0.9553(7) 0.3876(16)
O6? O -0.1225(24) 0.8611(9) 0.4302(10)
C14? C -0.2067(24) 0.9208(10) 0.3471(10)
C15? C -0.3753(17) 0.9486(9) 0.3685(18)
H1 H 0.21140 0.72470 0.37300
H2 H 0.35790 0.70030 0.69240
H3 H 0.53860 0.71420 0.64050
H4 H 0.40980 0.81770 0.53850
H5 H 0.32540 0.82570 0.65130
H6 H -0.06430 0.63870 0.45040
H7 H -0.11950 0.70230 0.35580
H8 H -0.2521(11) 0.6057(5) 0.1699(9)
H9 H -0.2722(10) 0.5666(9) 0.2865(4)
H10 H -0.1653(4) 0.5248(4) 0.2020(12)
H11 H 0.2240(21) 0.5524(3) 0.4961(2)
H12 H 0.1634(15) 0.5918(2) 0.6020(12)
H13 H 0.3719(7) 0.5631(4) 0.6142(11)
H14 H -0.09450 0.97560 0.37350
H15 H -0.20420 0.91970 0.27750
H16 H -0.41280 0.99700 0.33880
H17 H -0.33580 0.97060 0.46790
H18 H -0.44420 0.91300 0.37510
H19? H -0.11730 0.96240 0.35170
H20? H -0.22970 0.90040 0.26860
H21? H -0.42490 0.98700 0.31190
H22? H -0.35270 0.97030 0.44530
H23? H -0.46510 0.90790 0.36300
#END
