
#######################################################################
#
#                 Cambridge Crystallographic Data Centre
#                                CCDC
#
#######################################################################
#
# If this CIF has been generated from an entry in the Cambridge
# Structural Database, then it will include bibliographic, chemical,
# crystal, experimental, refinement or atomic coordinate data resulting
# from the CCDC's data processing and validation procedures.
#
#######################################################################

data_CSD_CIF_WORWAB
_audit_creation_date 2001-03-23
_audit_creation_method CSD-ConQuest-V1
_database_code_CSD WORWAB
_chemical_formula_sum 'C14 H20 N2 O5'
_chemical_formula_moiety
;
C14 H20 N2 O5
;
_journal_coden_Cambridge 35
_journal_volume 64
_journal_year 1999
_journal_page_first 7173
_journal_name_full 'J.Org.Chem. '
loop_
_publ_author_name
"R.B.Grossman"
"R.M.Rasne"
"B.O.Patrick"
_chemical_name_systematic
;
Ethyl 
(1R*,2S,3S)-1-cyano-3-methyl-3-nitro-2-(2-oxopropyl)-1-cyclohexanecarboxylate
;
_chemical_melting_point 375.15
_cell_volume   1517.220
_exptl_crystal_colour 'white'
_exptl_crystal_density_diffrn 1.302
_exptl_special_details
;
Melting point range 375.15-376.15K

;
_diffrn_ambient_temperature ?
_diffrn_special_details
;
The study was carried out at room temperature,in the range 283-303K

;
_refine_special_details
;
The ethyl group is disordered.

;
#These two values have been output from a single CSD field.
_refine_ls_R_factor_gt 0.0558
_refine_ls_wR_factor_gt 0.0558
_symmetry_cell_setting monoclinic
_symmetry_space_group_name_H-M 'P 21/n'
_symmetry_Int_Tables_number 14
loop_
_symmetry_equiv_pos_site_id
_symmetry_equiv_pos_as_xyz
1 x,y,z
2 1/2-x,1/2+y,1/2-z
3 -x,-y,-z
4 -1/2+x,-1/2-y,-1/2+z
_cell_length_a 6.765(1)
_cell_length_b 15.696(3)
_cell_length_c 14.418(3)
_cell_angle_alpha 90
_cell_angle_beta 97.68(3)
_cell_angle_gamma 90
_cell_formula_units_Z 4
loop_
_atom_type_symbol
_atom_type_radius_bond
C 0.68
H 0.23
N 0.68
O 0.68
loop_
_atom_site_label
_atom_site_type_symbol
_atom_site_fract_x
_atom_site_fract_y
_atom_site_fract_z
O1 O -0.0267(3) 0.7281(1) 0.2117(2)
O2 O -0.2339(2) 0.6855(1) 0.3842(1)
O3 O 0.0844(2) 0.6441(1) 0.4144(1)
O4 O -0.3213(4) 0.5736(2) 0.0494(1)
O5 O -0.2115(4) 0.4551(2) 0.0093(1)
N1 N -0.2499(3) 0.5046(2) 0.0681(1)
N2 N 0.1229(3) 0.4373(1) 0.4117(1)
C1 C -0.1449(3) 0.5456(1) 0.3354(1)
C2 C -0.3533(3) 0.5149(1) 0.3537(2)
C3 C -0.4208(4) 0.4362(2) 0.2982(2)
C4 C -0.4227(3) 0.4514(2) 0.1945(2)
C5 C -0.2147(3) 0.4759(1) 0.1722(1)
C6 C -0.1352(3) 0.5556(1) 0.2280(1)
C7 C 0.0700(3) 0.5832(1) 0.2054(1)
C8 C 0.1019(4) 0.6779(1) 0.1989(1)
C9 C 0.2994(6) 0.7061(2) 0.1748(3)
C10 C -0.0745(4) 0.4003(2) 0.1788(2)
C11 C 0.0081(3) 0.4851(1) 0.3784(1)
C12 C -0.1061(3) 0.6339(1) 0.3815(1)
C13 C 0.1394(4) 0.7256(2) 0.4603(3)
C14 C 0.3572(5) 0.7300(2) 0.4761(3)
C15? C 0.2985(36) 0.7662(16) 0.4210(18)
H1 H -0.3501(32) 0.5070(14) 0.4202(17)
H2 H -0.4438(33) 0.5626(15) 0.3359(15)
H3 H -0.5522(37) 0.4207(14) 0.3112(16)
H4 H -0.3337(34) 0.3911(15) 0.3158(15)
H5 H -0.5097(38) 0.4983(18) 0.1755(17)
H6 H -0.4631(34) 0.3988(16) 0.1590(17)
H7 H -0.2280(27) 0.6026(13) 0.2102(12)
H8 H 0.1760(34) 0.5616(14) 0.2506(16)
H9 H 0.0952(29) 0.5603(12) 0.1471(15)
H10 H 0.2963(51) 0.7637(28) 0.1602(24)
H11 H 0.3270(65) 0.6755(29) 0.1242(32)
H12 H 0.3938(75) 0.6965(33) 0.2230(37)
H13 H -0.1336(38) 0.3568(18) 0.1413(18)
H14 H -0.0562(39) 0.3787(18) 0.2462(21)
H15 H 0.0579(40) 0.4137(16) 0.1569(17)
H16 H 0.0864(56) 0.7279(25) 0.5222(31)
H17 H 0.0948(59) 0.7684(27) 0.4163(29)
H18 H 0.39800 0.78280 0.50660
H19 H 0.40820 0.72690 0.41710
H20 H 0.40860 0.68310 0.51500
H21? H 0.33500 0.81800 0.45440
H22? H 0.25560 0.77910 0.35620
H23? H 0.41170 0.72870 0.42580
#END
