
#######################################################################
#
#                 Cambridge Crystallographic Data Centre
#                                CCDC
#
#######################################################################
#
# If this CIF has been generated from an entry in the Cambridge
# Structural Database, then it will include bibliographic, chemical,
# crystal, experimental, refinement or atomic coordinate data resulting
# from the CCDC's data processing and validation procedures.
#
#######################################################################

data_CSD_CIF_WORZUY
_audit_creation_date 2001-03-23
_audit_creation_method CSD-ConQuest-V1
_database_code_CSD WORZUY
_database_code_depnum_ccdc_archive 'CCDC 138498'
_database_code_depnum_ccdc_journal 1003/5758
_chemical_formula_sum 'C13 H11 N1 O6'
_chemical_formula_moiety
;
C13 H11 N1 O6
;
_journal_coden_Cambridge 1003
_journal_volume 30
_journal_year 2000
_journal_page_first 189
_journal_name_full 'J.Chem.Cryst. '
loop_
_publ_author_name
"H.N.de Armas"
"N.M.Blaton"
"O.M.Peeters"
"C.J.De Ranter"
"M.Suarez"
"E.Ochoa"
"Y.Verdecia"
"E.Salfran"
_chemical_name_systematic
;
2,2-Dimethyl-5-(4-nitrobenzyldiene)-1,3-dioxane-4,6-dione
;
_chemical_melting_point 415.15
_cell_volume   2483.633
_exptl_crystal_colour 'colorless'
_exptl_crystal_density_diffrn 1.483
_exptl_special_details
;
Melting point range 415.15-416.15K

;
_exptl_crystal_description 'plate'
_exptl_crystal_preparation 'ethanol'
_diffrn_ambient_temperature ?
_diffrn_special_details
;
The study was carried out at room temperature,in the range 283-303K

;
#These two values have been output from a single CSD field.
_refine_ls_R_factor_gt 0.0421
_refine_ls_wR_factor_gt 0.0421
_symmetry_cell_setting orthorhombic
_symmetry_space_group_name_H-M 'P b c a'
_symmetry_Int_Tables_number 61
loop_
_symmetry_equiv_pos_site_id
_symmetry_equiv_pos_as_xyz
1 x,y,z
2 1/2+x,y,1/2-z
3 x,1/2-y,1/2+z
4 1/2-x,1/2+y,z
5 -x,-y,-z
6 -1/2-x,-y,-1/2+z
7 -x,-1/2+y,-1/2-z
8 -1/2+x,-1/2-y,-z
_cell_length_a 16.008(3)
_cell_length_b 6.137(1)
_cell_length_c 25.281(5)
_cell_angle_alpha 90
_cell_angle_beta 90
_cell_angle_gamma 90
_cell_formula_units_Z 8
loop_
_atom_type_symbol
_atom_type_radius_bond
C 0.68
H 0.23
N 0.68
O 0.68
loop_
_atom_site_label
_atom_site_type_symbol
_atom_site_fract_x
_atom_site_fract_y
_atom_site_fract_z
O1 O 0.29953(8) 0.1613(2) 0.67644(5)
O2 O 0.41375(9) 0.3974(2) 0.68771(5)
O3 O 0.25177(8) 0.0772(2) 0.59752(5)
O4 O 0.47644(10) 0.5469(3) 0.61944(6)
O5 O 0.30604(11) -0.4913(3) 0.38222(7)
C1 C 0.41222(12) 0.1457(3) 0.45796(7)
H1 H 0.43770 0.28070 0.45350
O6 O 0.36316(13) -0.2501(3) 0.33191(6)
C2 C 0.41592(12) 0.2188(3) 0.55253(7)
H2 H 0.46080 0.30940 0.54460
N1 N 0.34121(11) -0.3177(3) 0.37526(7)
C3 C 0.38581(11) 0.2471(3) 0.60170(7)
C4 C 0.35882(12) -0.1810(3) 0.42175(7)
C5 C 0.39479(12) 0.0201(4) 0.41410(7)
H3 H 0.40700 0.07000 0.38020
C6 C 0.33909(13) -0.2595(4) 0.47164(8)
H4 H 0.31480 -0.39620 0.47570
C7 C 0.35615(13) -0.1314(3) 0.51513(8)
H5 H 0.34340 -0.18220 0.54880
C8 C 0.30806(11) 0.1498(3) 0.62339(7)
C9 C 0.42969(12) 0.4090(3) 0.63552(7)
C10 C 0.39234(11) 0.0741(3) 0.50901(7)
C11 C 0.37168(12) 0.2082(3) 0.70837(7)
C12 C 0.33954(17) 0.2753(4) 0.76177(8)
H6 H 0.30380 0.40000 0.75800
H7 H 0.38570 0.31140 0.78430
H8 H 0.30850 0.15720 0.77710
C13 C 0.42949(15) 0.0150(4) 0.70965(10)
H9 H 0.40020 -0.10920 0.72340
H10 H 0.47650 0.04700 0.73190
H11 H 0.44860 -0.01620 0.67450
#END
