
#######################################################################
#
#                 Cambridge Crystallographic Data Centre
#                                CCDC
#
#######################################################################
#
# If this CIF has been generated from an entry in the Cambridge
# Structural Database, then it will include bibliographic, chemical,
# crystal, experimental, refinement or atomic coordinate data resulting
# from the CCDC's data processing and validation procedures.
#
#######################################################################

data_CSD_CIF_WOTFUG
_audit_creation_date 2001-03-23
_audit_creation_method CSD-ConQuest-V1
_database_code_CSD WOTFUG
_database_code_depnum_ccdc_archive 'CCDC 156116'
_chemical_formula_sum 'C25 H35 N1 O7'
_chemical_formula_moiety
;
C25 H35 N1 O7
;
_journal_coden_Cambridge 16
_journal_volume 56
_journal_year 2000
_journal_page_first 4367
_journal_name_full 'Tetrahedron '
loop_
_publ_author_name
"R.Carter"
"K.Hodgetts"
"J.McKenna"
"P.Magnus"
"S.Wren"
_chemical_name_systematic
;
11-Isopropyl-2,5-dimethoxy-4,8-dimethyl-4-(4-nitrobenzoyloxymethyl)-3-oxabicyc
lo[5.4.0]undeca-8-ene
;
_cell_volume   2469.656
_exptl_crystal_density_diffrn 1.241
_exptl_crystal_preparation 'diethyl ether'
_diffrn_ambient_temperature 173
#These two values have been output from a single CSD field.
_refine_ls_R_factor_gt 0.0418
_refine_ls_wR_factor_gt 0.0418
_symmetry_cell_setting monoclinic
_symmetry_space_group_name_H-M 'C 2'
_symmetry_Int_Tables_number 5
loop_
_symmetry_equiv_pos_site_id
_symmetry_equiv_pos_as_xyz
1 x,y,z
2 -x,y,-z
3 1/2+x,1/2+y,z
4 1/2-x,1/2+y,-z
_cell_length_a 25.093(2)
_cell_length_b 9.134(1)
_cell_length_c 10.858(1)
_cell_angle_alpha 90
_cell_angle_beta 97.083(6)
_cell_angle_gamma 90
_cell_formula_units_Z 4
loop_
_atom_type_symbol
_atom_type_radius_bond
C 0.68
H 0.23
N 0.68
O 0.68
loop_
_atom_site_label
_atom_site_type_symbol
_atom_site_fract_x
_atom_site_fract_y
_atom_site_fract_z
C1 C 0.40614(7) 0.0066(3) 0.6717(2)
C2 C 0.44447(7) 0.0397(3) 0.7618(2)
H1 H 0.48091(7) 0.0300(3) 0.7445(2)
C3 C 0.43538(7) 0.0942(3) 0.8871(2)
H2 H 0.45857(7) 0.1761(3) 0.9092(2)
H3 H 0.44493(7) 0.0179(3) 0.9465(2)
C4 C 0.37710(7) 0.1400(3) 0.8965(2)
H4 H 0.37220(7) 0.2334(3) 0.8562(2)
C5 C 0.33728(6) 0.0344(2) 0.8226(2)
H5 H 0.34320(6) -0.0611(2) 0.8586(2)
C6 C 0.27912(7) 0.0781(2) 0.83556(15)
H6 H 0.27667(7) 0.1821(2) 0.84639(15)
O1 O 0.24111(4) 0.0326(2) 0.7345(1)
C7 C 0.22393(6) 0.1322(2) 0.6346(2)
C8 C 0.26664(7) 0.1308(2) 0.5441(2)
H7 H 0.26615(7) 0.0363(2) 0.5053(2)
C9 C 0.32373(7) 0.1578(2) 0.6069(2)
H8 H 0.32297(7) 0.2407(2) 0.6610(2)
H9 H 0.34674(7) 0.1812(2) 0.5453(2)
C10 C 0.34705(6) 0.0259(3) 0.6848(2)
H10 H 0.32845(6) -0.0594(3) 0.6503(2)
C11 C 0.41837(9) -0.0525(4) 0.5485(2)
H11 H 0.45648(9) -0.0614(4) 0.5484(2)
H12 H 0.40188(9) -0.1468(4) 0.5345(2)
H13 H 0.40415(9) 0.0135(4) 0.4838(2)
C12 C 0.36762(8) 0.1630(3) 1.0337(2)
H14 H 0.33071(8) 0.1911(3) 1.0328(2)
C13 C 0.40200(11) 0.2885(4) 1.0927(3)
H15 H 0.39536(11) 0.3015(4) 1.1772(3)
H16 H 0.43927(11) 0.2663(4) 1.0906(3)
H17 H 0.39298(11) 0.3768(4) 1.0469(3)
C14 C 0.37614(10) 0.0260(4) 1.1139(2)
H18 H 0.36921(10) 0.0478(4) 1.1970(2)
H19 H 0.35217(10) -0.0497(4) 1.0799(2)
H20 H 0.41259(10) -0.0064(4) 1.1152(2)
O2 O 0.26473(5) 0.0062(2) 0.94052(11)
C15 C 0.21767(8) 0.0654(4) 0.9834(2)
H21 H 0.20958(8) 0.0120(4) 1.0550(2)
H22 H 0.22372(8) 0.1665(4) 1.0051(2)
H23 H 0.18805(8) 0.0579(4) 0.9188(2)
C16 C 0.21142(8) 0.2854(2) 0.6774(2)
H24 H 0.18491(8) 0.2807(2) 0.7339(2)
H25 H 0.24353(8) 0.3298(2) 0.7181(2)
H26 H 0.19786(8) 0.3427(2) 0.6063(2)
C17 C 0.17466(7) 0.0587(3) 0.5662(2)
H27 H 0.18105(7) -0.0443(3) 0.5587(2)
H28 H 0.16724(7) 0.0996(3) 0.4844(2)
O3 O 0.12884(5) 0.0821(2) 0.63358(12)
C18 C 0.09050(7) -0.0197(2) 0.6192(2)
O4 O 0.09296(6) -0.1306(2) 0.56140(15)
C19 C 0.04313(7) 0.0213(3) 0.6832(2)
C20 C 0.04319(9) 0.1442(3) 0.7576(2)
H29 H 0.07427(9) 0.2062(3) 0.7696(2)
C21 C -0.00223(10) 0.1771(3) 0.8144(3)
H30 H -0.00331(10) 0.2614(3) 0.8669(3)
C22 C -0.04609(9) 0.0883(4) 0.7911(2)
C23 C -0.04748(9) -0.0338(4) 0.7184(2)
H31 H -0.07925(9) -0.0932(4) 0.7053(2)
C24 C -0.00151(8) -0.0690(3) 0.6651(2)
H32 H -0.00084(8) -0.1548(3) 0.6143(2)
N1 N -0.09538(9) 0.1270(4) 0.8469(2)
O5 O -0.09103(9) 0.2113(3) 0.9356(2)
O6 O -0.13743(8) 0.0707(4) 0.8023(2)
O7 O 0.25120(5) 0.2371(2) 0.44968(12)
C25 C 0.2648(1) 0.1934(3) 0.3312(2)
H33 H 0.25408(10) 0.2682(3) 0.2711(2)
H34 H 0.30288(10) 0.1784(3) 0.3362(2)
H35 H 0.24649(10) 0.1038(3) 0.3067(2)
#END
