
#######################################################################
#
#                 Cambridge Crystallographic Data Centre
#                                CCDC
#
#######################################################################
#
# If this CIF has been generated from an entry in the Cambridge
# Structural Database, then it will include bibliographic, chemical,
# crystal, experimental, refinement or atomic coordinate data resulting
# from the CCDC's data processing and validation procedures.
#
#######################################################################

data_CSD_CIF_WOVZEO
_audit_creation_date 2015-01-19
_audit_creation_method CSD-ConQuest-V1
_database_code_CSD WOVZEO
_database_code_depnum_ccdc_archive 'CCDC 1035363'
_chemical_formula_sum 'C19 H15 N3 O1'
_chemical_formula_moiety
;
C19 H15 N3 O1
;
_journal_coden_Cambridge 177
_journal_volume 13
_journal_year 2015
_journal_page_first 2541
_journal_name_full 'Org.Biomol.Chem. '
loop_
_publ_author_name
"Chu-Ting Yang"
"Jun Han"
"Jun Liu"
"Mei Gu"
"Yi Li"
"Jun Wen"
"Hai-Zhu Yu"
"Sheng Hu"
"Xiaolin Wang"
_chemical_name_systematic
;
4-(9H-carbazol-9-yl)-N'-hydroxybenzenecarboximidamide unknown solvate
;
_cell_volume   1824.700
_exptl_crystal_colour 'colorless'
_exptl_crystal_density_diffrn 1.09
_exptl_special_details
;
Luminescent

;
_exptl_crystal_description 'block'
_exptl_crystal_preparation 'ethyl acetate'
_diffrn_ambient_temperature 290
_refine_special_details
;
The SQUEEZE/PLATON program has been used to model some disorder.

;
#These two values have been output from a single CSD field.
_refine_ls_R_factor_gt 0.0729
_refine_ls_wR_factor_gt 0.0729
_symmetry_cell_setting monoclinic
_symmetry_space_group_name_H-M 'P 21/c'
_symmetry_Int_Tables_number 14
loop_
_symmetry_equiv_pos_site_id
_symmetry_equiv_pos_as_xyz
1 x,y,z
2 -x,1/2+y,1/2-z
3 -x,-y,-z
4 x,-1/2-y,-1/2+z
_cell_length_a 8.778(5)
_cell_length_b 27.635(5)
_cell_length_c 7.797(5)
_cell_angle_alpha 90
_cell_angle_beta 105.261(5)
_cell_angle_gamma 90
_cell_formula_units_Z 4
loop_
_atom_type_symbol
_atom_type_radius_bond
C 0.68
H 0.23
N 0.68
O 0.68
loop_
_atom_site_label
_atom_site_type_symbol
_atom_site_fract_x
_atom_site_fract_y
_atom_site_fract_z
O1 O 0.6859(3) -0.00435(9) -0.4170(3)
H1 H 0.63060 -0.01780 -0.50040
N1 N 0.3576(3) 0.14460(9) 0.2466(3)
N2 N 0.8040(4) 0.01088(16) -0.0880(4)
N3 N 0.5925(3) 0.02499(9) -0.3338(3)
C1 C 0.4328(3) 0.11617(9) 0.1411(3)
C2 C 0.4098(4) 0.12591(11) -0.0375(4)
H2 H 0.34420 0.15120 -0.08990
C3 C 0.5848(3) 0.06119(10) -0.0603(3)
C4 C 0.5337(3) 0.07924(10) 0.2188(3)
H3 H 0.55050 0.07270 0.33940
C5 C 0.3208(5) 0.19396(11) 0.4643(5)
C6 C -0.1066(7) 0.1843(2) 0.1889(10)
H4 H -0.20960 0.19450 0.17860
C7 C 0.6638(3) 0.03117(11) -0.1685(4)
C8 C 0.6085(3) 0.05237(10) 0.1192(3)
H5 H 0.67650 0.02770 0.17280
C9 C 0.4346(4) 0.16814(10) 0.4024(4)
C10 C 0.5925(5) 0.16995(11) 0.4875(4)
H6 H 0.66600 0.15300 0.44410
C11 C 0.1947(4) 0.15480(11) 0.2083(5)
C12 C 0.6390(6) 0.19769(13) 0.6396(5)
H7 H 0.74530 0.19930 0.70040
C13 C 0.4831(3) 0.09844(11) -0.1374(4)
H8 H 0.46490 0.10470 -0.25840
C14 C 0.0131(7) 0.20063(17) 0.3280(8)
H9 H -0.00840 0.22130 0.41300
C15 C 0.0724(4) 0.13768(15) 0.0713(6)
H10 H 0.09140 0.11640 -0.01320
C16 C 0.1710(5) 0.18546(12) 0.3403(5)
C17 C 0.3711(8) 0.22165(14) 0.6173(6)
H11 H 0.29850 0.23890 0.66120
C18 C -0.0761(5) 0.15294(19) 0.0640(8)
H12 H -0.15980 0.14200 -0.02750
C19 C 0.5286(9) 0.22334(14) 0.7029(6)
H13 H 0.56250 0.24200 0.80520
H14 H 0.828(4) 0.0020(15) 0.0266(19)
H15 H 0.842(5) -0.0027(16) -0.173(5)
#END
