
#######################################################################
#
#                 Cambridge Crystallographic Data Centre
#                                CCDC
#
#######################################################################
#
# If this CIF has been generated from an entry in the Cambridge
# Structural Database, then it will include bibliographic, chemical,
# crystal, experimental, refinement or atomic coordinate data resulting
# from the CCDC's data processing and validation procedures.
#
#######################################################################

data_CSD_CIF_WOYTOT
_audit_creation_date 2002-11-22
_audit_creation_method CSD-ConQuest-V1
_database_code_CSD WOYTOT
_database_code_depnum_ccdc_archive 'CCDC 189907'
_chemical_formula_sum 'C15 H12 N4 O3'
_chemical_formula_moiety
;
C15 H12 N4 O3
;
_journal_coeditor_code "IUCr CF6184"
_journal_coden_Cambridge 1370
_journal_volume 58
_journal_year 2002
_journal_page_first o769
_journal_name_full 'Acta Crystallogr.,Sect.E:Struct.Rep.Online '
loop_
_publ_author_name
"J.N.Low"
"J.Cobo"
"M.Nogueras"
"A.Sanchez"
"P.A.Cuervo"
"R.Abonia"
_chemical_name_systematic
;
3-(Benzotriazol-1-yl)-p-nitropropiophenone
;
_chemical_melting_point 405
_cell_volume   1311.028
_exptl_crystal_colour 'orange'
_exptl_crystal_density_diffrn 1.501
_exptl_crystal_description 'prism'
_exptl_crystal_preparation 'chloroform'
_diffrn_ambient_temperature 120
#These two values have been output from a single CSD field.
_refine_ls_R_factor_gt 0.0578
_refine_ls_wR_factor_gt 0.0578
_symmetry_cell_setting monoclinic
_symmetry_space_group_name_H-M 'P 21/c'
_symmetry_Int_Tables_number 14
loop_
_symmetry_equiv_pos_site_id
_symmetry_equiv_pos_as_xyz
1 x,y,z
2 x,1/2-y,1/2+z
3 -x,-y,-z
4 -x,-1/2+y,-1/2-z
_cell_length_a 5.9554(2)
_cell_length_b 6.9671(3)
_cell_length_c 31.8248(13)
_cell_angle_alpha 90
_cell_angle_beta 96.8560(17)
_cell_angle_gamma 90
_cell_formula_units_Z 4
loop_
_atom_type_symbol
_atom_type_radius_bond
C 0.68
H 0.23
N 0.68
O 0.68
loop_
_atom_site_label
_atom_site_type_symbol
_atom_site_fract_x
_atom_site_fract_y
_atom_site_fract_z
N1 N 0.3867(3) 0.0255(3) 0.30503(5)
N2 N 0.5877(3) 0.0778(3) 0.29285(5)
C1 C 0.2013(4) -0.0410(3) 0.27379(6)
C2 C 0.2318(4) 0.0403(3) 0.23038(6)
C3 C 0.0328(4) -0.0047(3) 0.19785(6)
O1 O -0.1408(3) -0.0761(2) 0.20713(4)
N3 N 0.7214(3) 0.1381(3) 0.32595(5)
C4 C 0.6024(4) 0.1241(3) 0.36072(6)
C5 C 0.6692(4) 0.1706(3) 0.40345(6)
C6 C 0.5134(4) 0.1383(3) 0.43113(6)
C7 C 0.2988(4) 0.0628(3) 0.41780(6)
C8 C 0.2296(4) 0.0174(3) 0.37601(6)
C9 C 0.3885(4) 0.0518(3) 0.34777(6)
C10 C 0.0542(4) 0.0508(3) 0.15266(6)
C11 C 0.2512(4) 0.1330(3) 0.14131(6)
C12 C 0.2689(4) 0.1819(3) 0.09939(6)
C13 C 0.0853(4) 0.1473(3) 0.06987(6)
N4 N 0.1031(4) 0.1998(3) 0.02543(5)
O2 O -0.0714(3) 0.2151(3) 0.00109(5)
O3 O 0.2927(3) 0.2255(3) 0.01534(5)
C14 C -0.1150(4) 0.0673(3) 0.07984(6)
C15 C -0.1279(4) 0.0179(3) 0.12167(6)
H1 H 0.05460 0.00170 0.28220
H2 H 0.20100 -0.18300 0.27260
H3 H 0.25090 0.18130 0.23260
H4 H 0.37100 -0.01390 0.22090
H5 H 0.81470 0.22170 0.41260
H6 H 0.55230 0.16800 0.46020
H7 H 0.19720 0.04220 0.43820
H8 H 0.08390 -0.03380 0.36700
H9 H 0.37510 0.15620 0.16240
H10 H 0.40340 0.23730 0.09150
H11 H -0.23930 0.04710 0.05870
H12 H -0.26220 -0.03900 0.12930
#END
