
#######################################################################
#
#                 Cambridge Crystallographic Data Centre
#                                CCDC
#
#######################################################################
#
# If this CIF has been generated from an entry in the Cambridge
# Structural Database, then it will include bibliographic, chemical,
# crystal, experimental, refinement or atomic coordinate data resulting
# from the CCDC's data processing and validation procedures.
#
#######################################################################

data_CSD_CIF_WUBJAG
_audit_creation_date 2015-01-22
_audit_creation_method CSD-ConQuest-V1
_database_code_CSD WUBJAG
_database_code_depnum_ccdc_archive 'CCDC 1023443'
_chemical_formula_sum 'C10 H10 N6 O14'
_chemical_formula_moiety
;
C10 H10 N6 O14
;
_journal_coden_Cambridge 1291
_journal_year 2015
_journal_page_first 1541
_journal_name_full 'Eur.J.Org.Chem. '
loop_
_publ_author_name
"Yifei Ling"
"Xiaoli Ren"
"Weipeng Lai"
"Jun Luo"
_chemical_name_systematic
;
4,4,8,8-tetranitrotricyclo[3.3.1.1^3,7^]decane-2,6-diyl dinitrate
;
_cell_volume   1571.729
_exptl_crystal_density_diffrn 1.852
_exptl_crystal_description 'block'
_diffrn_ambient_temperature 293
#These two values have been output from a single CSD field.
_refine_ls_R_factor_gt 0.049
_refine_ls_wR_factor_gt 0.049
_symmetry_cell_setting orthorhombic
_symmetry_space_group_name_H-M 'A b a 2'
_symmetry_Int_Tables_number 41
loop_
_symmetry_equiv_pos_site_id
_symmetry_equiv_pos_as_xyz
1 x,y,z
2 -x,-y,z
3 1/2+x,1/2-y,z
4 1/2-x,1/2+y,z
5 x,1/2+y,1/2+z
6 -x,1/2-y,1/2+z
7 1/2+x,-y,1/2+z
8 1/2-x,y,1/2+z
_cell_length_a 12.797(3)
_cell_length_b 13.119(3)
_cell_length_c 9.3620(19)
_cell_angle_alpha 90
_cell_angle_beta 90
_cell_angle_gamma 90
_cell_formula_units_Z 4
loop_
_atom_type_symbol
_atom_type_radius_bond
C 0.68
H 0.23
N 0.68
O 0.68
loop_
_atom_site_label
_atom_site_type_symbol
_atom_site_fract_x
_atom_site_fract_y
_atom_site_fract_z
C1 C -0.0495(2) 0.3744(3) 0.6373(3)
H1 H -0.02530 0.31690 0.69530
N1 N -0.2071(2) 0.2750(3) 0.6098(4)
O1 O -0.2797(2) 0.2597(3) 0.5334(5)
C2 C -0.08928(19) 0.4615(3) 0.7348(3)
H2 H -0.14680 0.43720 0.79500
N2 N 0.0415(2) 0.4190(3) 0.9336(3)
O2 O -0.1882(3) 0.2428(3) 0.7259(4)
N3 N 0.08339(19) 0.5359(3) 0.3378(3)
C3 C 0.00000 0.50000 0.8270(5)
O3 O -0.0048(2) 0.3403(3) 0.9435(3)
C4 C 0.03865(19) 0.4120(3) 0.5392(4)
H3 H 0.06400 0.35620 0.47880
O4 O 0.1183(2) 0.4433(3) 1.0013(3)
C5 C 0.1263(2) 0.4492(3) 0.6403(3)
H4 H 0.14850 0.39320 0.70070
H5 H 0.18590 0.47090 0.58400
O5 O 0.16517(16) 0.4887(3) 0.3303(3)
C6 C 0.00000 0.50000 0.4473(5)
O6 O 0.0590(2) 0.6079(3) 0.2640(3)
O7 O -0.13431(15) 0.34266(19) 0.5453(2)
C1A C 0.0495(2) 0.6256(3) 0.6373(3)
H1A H 0.02530 0.68310 0.69530
N1A N 0.2071(2) 0.7250(3) 0.6098(4)
O1A O 0.2797(2) 0.7403(3) 0.5334(5)
C2A C 0.08928(19) 0.5385(3) 0.7348(3)
H2A H 0.14680 0.56280 0.79500
N2A N -0.0415(2) 0.5810(3) 0.9336(3)
O2A O 0.1882(3) 0.7572(3) 0.7259(4)
N3A N -0.08339(19) 0.4641(3) 0.3378(3)
O3A O 0.0048(2) 0.6597(3) 0.9435(3)
C4A C -0.03865(19) 0.5880(3) 0.5392(4)
H3A H -0.06400 0.64380 0.47880
O4A O -0.1183(2) 0.5567(3) 1.0013(3)
C5A C -0.1263(2) 0.5508(3) 0.6403(3)
H4A H -0.14850 0.60680 0.70070
H5A H -0.18590 0.52910 0.58400
O5A O -0.16517(16) 0.5113(3) 0.3303(3)
O6A O -0.0590(2) 0.3921(3) 0.2640(3)
O7A O 0.13431(15) 0.65734(19) 0.5453(2)
#END
