
#######################################################################
#
#                 Cambridge Crystallographic Data Centre
#                                CCDC
#
#######################################################################
#
# If this CIF has been generated from an entry in the Cambridge
# Structural Database, then it will include bibliographic, chemical,
# crystal, experimental, refinement or atomic coordinate data resulting
# from the CCDC's data processing and validation procedures.
#
#######################################################################

data_CSD_CIF_WUDNAM
_audit_creation_date 2015-05-22
_audit_creation_method CSD-ConQuest-V1
_database_code_CSD WUDNAM
_database_code_depnum_ccdc_archive 'CCDC 1022286'
_chemical_formula_sum 'C10 H11 N3 O2'
_chemical_formula_moiety
;
C10 H11 N3 O2
;
_journal_coden_Cambridge 119
_journal_volume 1095
_journal_year 2015
_journal_page_first 51
_journal_name_full 'J.Mol.Struct. '
loop_
_publ_author_name
"Yunus Kaya"
"C.Icsel"
"V.T.Yilmaz"
"Orhan Buyukgungor"
_chemical_name_systematic
;
N'-(2-(hydroxyimino)-1-phenylethylidene)acetohydrazide
;
_cell_volume   2051.029
_exptl_crystal_colour 'colorless'
_exptl_crystal_density_diffrn 1.329
_exptl_crystal_description 'prism'
_diffrn_ambient_temperature 293
#These two values have been output from a single CSD field.
_refine_ls_R_factor_gt 0.0643
_refine_ls_wR_factor_gt 0.0643
_symmetry_cell_setting monoclinic
_symmetry_space_group_name_H-M 'C 2/c'
_symmetry_Int_Tables_number 15
loop_
_symmetry_equiv_pos_site_id
_symmetry_equiv_pos_as_xyz
1 x,y,z
2 -x,y,1/2-z
3 1/2+x,1/2+y,z
4 1/2-x,1/2+y,1/2-z
5 -x,-y,-z
6 x,-y,-1/2+z
7 -1/2-x,-1/2-y,-z
8 -1/2+x,-1/2-y,-1/2+z
_cell_length_a 11.2627(6)
_cell_length_b 9.4650(4)
_cell_length_c 19.9543(9)
_cell_angle_alpha 90
_cell_angle_beta 105.375(4)
_cell_angle_gamma 90
_cell_formula_units_Z 8
loop_
_atom_type_symbol
_atom_type_radius_bond
C 0.68
H 0.23
N 0.68
O 0.68
loop_
_atom_site_label
_atom_site_type_symbol
_atom_site_fract_x
_atom_site_fract_y
_atom_site_fract_z
C1 C 0.37735(14) 0.59322(14) 0.52081(7)
C2 C 0.44633(15) 0.65442(17) 0.58151(7)
H1 H 0.48150 0.74280 0.57990
C3 C 0.46383(17) 0.5859(2) 0.64477(8)
H2 H 0.51010 0.62900 0.68510
C4 C 0.41403(19) 0.4562(2) 0.64843(9)
H3 H 0.42590 0.41070 0.69100
C5 C 0.3462(2) 0.3933(2) 0.58868(9)
H4 H 0.31220 0.30440 0.59070
C6 C 0.3281(2) 0.46082(18) 0.52579(9)
H5 H 0.28190 0.41660 0.48570
C7 C 0.35313(13) 0.66437(15) 0.45188(7)
C8 C 0.40403(16) 0.80566(16) 0.44787(7)
H6 H 0.45340 0.84640 0.48810
C9 C 0.18945(14) 0.57334(16) 0.28167(7)
C10 C 0.16486(17) 0.42253(17) 0.29442(9)
H7 H 0.11660 0.38070 0.25210
H8 H 0.12060 0.41690 0.32940
H9 H 0.24150 0.37280 0.31000
N1 N 0.38286(13) 0.87380(12) 0.39141(6)
N2 N 0.28663(12) 0.59216(12) 0.40082(6)
N3 N 0.25447(12) 0.65008(13) 0.33585(6)
H10 H 0.27570 0.73530 0.32950
O1 O 0.44023(13) 1.00364(12) 0.39799(6)
H11 H 0.42050 1.04510 0.36060
O2 O 0.15517(12) 0.63025(11) 0.22420(5)
#END
