
#######################################################################
#
#                 Cambridge Crystallographic Data Centre
#                                CCDC
#
#######################################################################
#
# If this CIF has been generated from an entry in the Cambridge
# Structural Database, then it will include bibliographic, chemical,
# crystal, experimental, refinement or atomic coordinate data resulting
# from the CCDC's data processing and validation procedures.
#
#######################################################################

data_CSD_CIF_WUDRUK
_audit_creation_date 2015-05-22
_audit_creation_method CSD-ConQuest-V1
_database_code_CSD WUDRUK
_database_code_depnum_ccdc_archive 'CCDC 1061578'
_chemical_formula_sum 'C22 H21 N1 O3'
_chemical_formula_moiety
;
C22 H21 N1 O3
;
_journal_coden_Cambridge 1336
_journal_volume 17
_journal_year 2015
_journal_page_first 2490
_journal_name_full 'Org.Lett. '
loop_
_publ_author_name
"N.M.R.Capreti"
"I.D.Jurberg"
_chemical_name_systematic
;
4-((2-oxocyclohexyl)(phenyl)methyl)-3-phenyl-1,2-oxazol-5(4H)-one
;
_cell_volume    872.598
_exptl_crystal_colour 'colorless'
_exptl_crystal_density_diffrn 1.33
_exptl_crystal_description 'needle'
_diffrn_ambient_temperature 100
#These two values have been output from a single CSD field.
_refine_ls_R_factor_gt 0.041
_refine_ls_wR_factor_gt 0.041
_symmetry_cell_setting triclinic
_symmetry_space_group_name_H-M 'P -1'
_symmetry_Int_Tables_number 2
loop_
_symmetry_equiv_pos_site_id
_symmetry_equiv_pos_as_xyz
1 x,y,z
2 -x,-y,-z
_cell_length_a 9.724(4)
_cell_length_b 10.178(4)
_cell_length_c 10.676(4)
_cell_angle_alpha 62.165(7)
_cell_angle_beta 79.328(7)
_cell_angle_gamma 69.089(7)
_cell_formula_units_Z 2
loop_
_atom_type_symbol
_atom_type_radius_bond
C 0.68
H 0.23
N 0.68
O 0.68
loop_
_atom_site_label
_atom_site_type_symbol
_atom_site_fract_x
_atom_site_fract_y
_atom_site_fract_z
O1 O 0.30058(11) 0.94436(12) 0.50582(12)
O2 O 0.61528(12) 0.72038(14) 0.86214(13)
O3 O 0.82135(11) 0.65237(13) 0.74382(12)
N1 N 0.86172(13) 0.66552(16) 0.60238(15)
C1 C 0.7535(2) 0.7894(2) 0.1087(2)
H1 H 0.75510 0.80100 0.01670
C2 C 0.6239(2) 0.8519(2) 0.16863(19)
H2 H 0.53850 0.90700 0.11610
C3 C 0.62015(17) 0.83328(19) 0.30532(18)
H3 H 0.53260 0.87680 0.34430
C4 C 0.74735(16) 0.74927(18) 0.38576(17)
C5 C 0.74219(15) 0.72204(17) 0.53356(17)
C6 C 0.60625(15) 0.75207(18) 0.62045(16)
H4 H 0.55030 0.86360 0.57720
C7 C 0.50430(15) 0.65372(17) 0.64248(16)
H5 H 0.47730 0.67860 0.54810
C8 C 0.36074(15) 0.70443(17) 0.72018(17)
H6 H 0.38610 0.70210 0.80600
C9 C 0.26254(16) 0.59937(18) 0.76364(18)
H7 H 0.23710 0.59960 0.67980
H8 H 0.31670 0.49290 0.82540
C10 C 0.12231(16) 0.65559(19) 0.83973(18)
H9 H 0.06300 0.58710 0.86620
H10 H 0.14740 0.65130 0.92570
C11 C 0.03405(16) 0.82204(19) 0.74539(19)
H11 H -0.05280 0.85690 0.79720
H12 H 0.00170 0.82450 0.66340
C12 C 0.76354(17) 0.16789(19) 0.82505(19)
H13 H 0.82230 0.06390 0.86340
C13 C 0.74900(16) 0.25225(19) 0.68050(18)
H14 H 0.79720 0.20510 0.62110
C14 C 0.66234(15) 0.40748(18) 0.62379(17)
H15 H 0.65200 0.46360 0.52610
C15 C 0.59047(15) 0.48074(17) 0.71046(17)
C16 C 0.12599(16) 0.93272(19) 0.69630(18)
H16 H 0.07130 1.03580 0.62880
H17 H 0.14720 0.94180 0.77670
C17 C 0.26755(15) 0.87036(18) 0.62837(18)
C18 C 0.67165(16) 0.71120(18) 0.75602(18)
C19 C 0.8807(2) 0.7096(2) 0.1867(2)
H18 H 0.96860 0.66980 0.14580
C20 C 0.87835(17) 0.68840(19) 0.32386(19)
H19 H 0.96430 0.63340 0.37560
C21 C 0.60572(17) 0.39382(19) 0.85585(17)
H20 H 0.55840 0.44050 0.91570
C22 C 0.69114(17) 0.23735(19) 0.91285(18)
H21 H 0.69940 0.17950 1.01060
#END
