
#######################################################################
#
#                 Cambridge Crystallographic Data Centre
#                                CCDC
#
#######################################################################
#
# If this CIF has been generated from an entry in the Cambridge
# Structural Database, then it will include bibliographic, chemical,
# crystal, experimental, refinement or atomic coordinate data resulting
# from the CCDC's data processing and validation procedures.
#
#######################################################################

data_CSD_CIF_WUGHOX
_audit_creation_date 2015-05-26
_audit_creation_method CSD-ConQuest-V1
_database_code_CSD WUGHOX
_database_code_depnum_ccdc_archive 'CCDC 1403150'
_database_code_depnum_ccdc_journal 1267/4151
_chemical_formula_sum 'C17 H10 N6 O2'
_chemical_formula_moiety
;
C17 H10 N6 O2
;
_journal_coden_Cambridge 1267
_journal_volume 229
_journal_year 2014
_journal_page_first 321
_journal_name_full 'Z.Kristallogr.-New Cryst.Struct. '
loop_
_publ_author_name
"Qiang Zhang"
"Jinsong Zhang"
"Liang Qing"
"Jianpeng Dou"
_chemical_name_systematic
;
5-amino-1-(4-nitrophenyl)[1,2,3]triazolo[5,1-a]isoquinoline-6-carbonitrile
;
_cell_volume   3026.132
_exptl_crystal_colour 'colorless'
_exptl_crystal_density_diffrn 1.45
_exptl_crystal_description 'block'
_diffrn_ambient_temperature 298
_refine_special_details
;
O1,O2 and O1',O2' disordered over two sites with occupancies 0.60:0.40.

;
#These two values have been output from a single CSD field.
_refine_ls_R_factor_gt 0.038
_refine_ls_wR_factor_gt 0.038
_symmetry_cell_setting monoclinic
_symmetry_space_group_name_H-M 'C 2/c'
_symmetry_Int_Tables_number 15
loop_
_symmetry_equiv_pos_site_id
_symmetry_equiv_pos_as_xyz
1 x,y,z
2 -x,y,1/2-z
3 1/2+x,1/2+y,z
4 1/2-x,1/2+y,1/2-z
5 -x,-y,-z
6 x,-y,-1/2+z
7 -1/2-x,-1/2-y,-z
8 -1/2+x,-1/2-y,-1/2+z
_cell_length_a 23.144(3)
_cell_length_b 7.8478(9)
_cell_length_c 17.448(2)
_cell_angle_alpha 90
_cell_angle_beta 107.274(2)
_cell_angle_gamma 90
_cell_formula_units_Z 8
loop_
_atom_type_symbol
_atom_type_radius_bond
C 0.68
H 0.23
N 0.68
O 0.68
loop_
_atom_site_label
_atom_site_type_symbol
_atom_site_fract_x
_atom_site_fract_y
_atom_site_fract_z
C1 C 0.05476(8) 0.4501(2) 0.12496(10)
C2 C 0.02517(7) 0.3065(2) 0.08718(10)
H1 H -0.01640 0.30750 0.06280
C3 C 0.05864(7) 0.1618(2) 0.08649(9)
H2 H 0.03940 0.06400 0.06120
C4 C 0.12104(6) 0.16023(18) 0.12331(8)
C5 C 0.14898(7) 0.30564(19) 0.16287(9)
H3 H 0.19030 0.30440 0.18920
C6 C 0.11595(8) 0.4519(2) 0.16347(10)
H4 H 0.13470 0.54970 0.18940
C7 C 0.15710(6) 0.00552(18) 0.12463(8)
C8 C 0.15921(6) -0.10724(17) 0.06426(8)
C9 C 0.13340(6) -0.12189(18) -0.02140(8)
C10 C 0.09878(7) 0.0080(2) -0.06892(9)
H5 H 0.09200 0.10910 -0.04520
C11 C 0.07490(8) -0.0139(2) -0.15041(9)
H6 H 0.05220 0.07250 -0.18180
C12 C 0.08477(8) -0.1658(2) -0.18588(9)
H7 H 0.06740 -0.18150 -0.24080
C13 C 0.11972(7) -0.2924(2) -0.14098(9)
H8 H 0.12620 -0.39240 -0.16580
C14 C 0.14581(6) -0.27258(18) -0.05805(8)
C15 C 0.18618(6) -0.39964(18) -0.01006(8)
C16 C 0.21513(6) -0.37717(17) 0.07066(8)
C17 C 0.19908(7) -0.5491(2) -0.04831(9)
N1 N 0.01912(9) 0.6061(2) 0.12466(13)
N2 N 0.19596(6) -0.05070(17) 0.19518(7)
N3 N 0.22184(6) -0.19297(17) 0.18392(7)
N4 N 0.19953(5) -0.22904(15) 0.10426(7)
N5 N 0.20919(8) -0.6674(2) -0.0805(1)
O1 O 0.0472(2) 0.7411(5) 0.1401(9)
O2 O -0.03668(18) 0.5963(10) 0.1045(9)
N6 N 0.25561(6) -0.47822(17) 0.11994(8)
H9 H 0.2697(8) -0.455(2) 0.1709(6)
H10 H 0.2665(8) -0.5722(16) 0.1012(10)
O3? O 0.0444(5) 0.716(2) 0.1746(13)
O4? O -0.0337(3) 0.6013(14) 0.0843(7)
#END
