
#######################################################################
#
#                 Cambridge Crystallographic Data Centre
#                                CCDC
#
#######################################################################
#
# If this CIF has been generated from an entry in the Cambridge
# Structural Database, then it will include bibliographic, chemical,
# crystal, experimental, refinement or atomic coordinate data resulting
# from the CCDC's data processing and validation procedures.
#
#######################################################################

data_CSD_CIF_WUHGIP
_audit_creation_date 2003-02-14
_audit_creation_method CSD-ConQuest-V1
_database_code_CSD WUHGIP
_database_code_depnum_ccdc_archive 'CCDC 184113'
_chemical_formula_sum 'C29 H18 N2 O6'
_chemical_formula_moiety
;
C29 H18 N2 O6
;
_journal_coden_Cambridge 440
_journal_volume 26
_journal_year 2002
_journal_page_first 720
_journal_name_full 'New J.Chem. '
loop_
_publ_author_name
"J.D.Field"
"P.Turner"
"M.M.Harding"
"T.Hatzikominos"
"L.Kim"
_chemical_name_systematic
;
(+-)-2,8-bis(m-Nitrophenyl)dibenzo(b,f)bicyclo(3.3.1)nona-2,6-diene-5,11-dione
;
_chemical_melting_point 550.15
_cell_volume   2151.779
_exptl_crystal_colour 'colorless'
_exptl_crystal_density_diffrn 1.514
_exptl_special_details
;
Melting point range 550.15-553.15K

;
_exptl_crystal_description 'columnar'
_exptl_crystal_preparation 'dichloromethane/methanol'
_diffrn_ambient_temperature 123
_diffrn_radiation_probe x-ray
_diffrn_source synchrotron
#These two values have been output from a single CSD field.
_refine_ls_R_factor_gt 0.0359
_refine_ls_wR_factor_gt 0.0359
_symmetry_cell_setting orthorhombic
_symmetry_space_group_name_H-M 'P 21 21 21'
_symmetry_Int_Tables_number 19
loop_
_symmetry_equiv_pos_site_id
_symmetry_equiv_pos_as_xyz
1 x,y,z
2 1/2-x,-y,1/2+z
3 1/2+x,1/2-y,-z
4 -x,1/2+y,1/2-z
_cell_length_a 7.434(2)
_cell_length_b 9.8560(14)
_cell_length_c 29.368(9)
_cell_angle_alpha 90
_cell_angle_beta 90
_cell_angle_gamma 90
_cell_formula_units_Z 4
loop_
_atom_type_symbol
_atom_type_radius_bond
C 0.68
H 0.23
N 0.68
O 0.68
loop_
_atom_site_label
_atom_site_type_symbol
_atom_site_fract_x
_atom_site_fract_y
_atom_site_fract_z
O1 O 0.41823(16) 0.24665(12) 0.29987(4)
O2 O -0.21582(16) 0.43067(11) 0.20404(4)
O3 O -0.62821(17) -0.07851(13) 0.40536(5)
O4 O -0.53987(19) -0.22241(12) 0.45596(5)
O5 O -0.42346(17) -0.07002(13) 0.10027(5)
O6 O -0.36518(18) -0.21186(13) 0.04665(5)
N1 N -0.51359(19) -0.12389(13) 0.43081(5)
N2 N -0.32317(19) -0.11671(13) 0.07131(5)
C1 C -0.0249(2) 0.39781(15) 0.29642(5)
C2 C -0.1926(2) 0.38376(15) 0.31616(5)
H1 H -0.28850 0.44070 0.30660
C3 C -0.2227(2) 0.28817(15) 0.34957(5)
H2 H -0.33820 0.28160 0.36320
C4 C -0.0856(2) 0.20099(15) 0.36358(5)
C5 C 0.0833(2) 0.21379(15) 0.34395(5)
H3 H 0.17820 0.15580 0.35340
C6 C 0.1148(2) 0.31155(15) 0.31033(5)
C7 C 0.2946(2) 0.31868(16) 0.28829(5)
C8 C 0.3146(2) 0.41852(16) 0.24852(5)
H4 H 0.44360 0.44620 0.24560
C9 C 0.2566(2) 0.34398(15) 0.20590(5)
C10 C 0.3795(2) 0.26442(16) 0.18209(6)
H5 H 0.50230 0.26370 0.19100
C11 C 0.3236(2) 0.18634(16) 0.14557(5)
H6 H 0.40880 0.13160 0.12990
C12 C 0.1444(2) 0.18636(15) 0.13120(5)
C13 C 0.0240(2) 0.27112(15) 0.15352(5)
H7 H -0.09680 0.27690 0.14320
C14 C 0.0783(2) 0.34790(15) 0.19095(5)
C15 C -0.0600(2) 0.42851(14) 0.21564(5)
C16 C 0.0030(2) 0.50068(16) 0.25879(5)
H8 H -0.07440 0.58190 0.26450
C17 C 0.1985(2) 0.54415(16) 0.25578(6)
H9 H 0.23460 0.59070 0.28420
H10 H 0.21480 0.60810 0.23010
C18 C -0.1276(2) 0.09505(15) 0.39821(5)
C19 C -0.2982(2) 0.03790(15) 0.39931(5)
H11 H -0.38830 0.06620 0.37840
C20 C -0.3344(2) -0.06108(15) 0.43146(6)
C21 C -0.2099(2) -0.10611(16) 0.46254(6)
H12 H -0.23950 -0.17360 0.48440
C22 C -0.0410(2) -0.04977(17) 0.46083(6)
H13 H 0.04870 -0.07940 0.48160
C23 C 0.0003(2) 0.04985(16) 0.42909(5)
H14 H 0.11790 0.08760 0.42850
C24 C 0.0819(2) 0.09151(15) 0.09538(5)
C25 C -0.0915(2) 0.03878(15) 0.09757(5)
H15 H -0.17300 0.06920 0.12030
C26 C -0.1438(2) -0.05819(15) 0.06638(5)
C27 C -0.0324(2) -0.10550(16) 0.03239(5)
H16 H -0.07190 -0.17250 0.01140
C28 C 0.1388(2) -0.05173(16) 0.03008(6)
H17 H 0.21880 -0.08170 0.00700
C29 C 0.1955(2) 0.04539(16) 0.06102(5)
H18 H 0.31390 0.08110 0.05880
#END
