
#######################################################################
#
#                 Cambridge Crystallographic Data Centre
#                                CCDC
#
#######################################################################
#
# If this CIF has been generated from an entry in the Cambridge
# Structural Database, then it will include bibliographic, chemical,
# crystal, experimental, refinement or atomic coordinate data resulting
# from the CCDC's data processing and validation procedures.
#
#######################################################################

data_CSD_CIF_WUHYIH
_audit_creation_date 2003-02-14
_audit_creation_method CSD-ConQuest-V1
_database_code_CSD WUHYIH
_database_code_depnum_ccdc_archive 'CCDC 155314'
_chemical_formula_sum 'C7 H8 N2 O5'
_chemical_formula_moiety
;
C7 H8 N2 O5
;
_journal_coden_Cambridge 1086
_journal_volume 13
_journal_year 2001
_journal_page_first 523
_journal_name_full 'Chirality '
loop_
_publ_author_name
"T.N.Johansen"
"T.S.Stensbol"
"B.Nielsen"
"S.B.Vogensen"
"K.Frydenvang"
"F.A.Slok"
"H.Brauner-Osborne"
"U.Madsen"
"P.Krogsgaard-Larsen"
_chemical_name_systematic
;
(-)-(S)-2-Amino-3-(3-carboxy-4-isoxazolyl)propionic acid
;
_chemical_melting_point 523.15
_cell_volume    789.884
_exptl_crystal_colour 'colorless'
_exptl_crystal_density_diffrn 1.683
_exptl_special_details
;
Melts above 523.15K
high AMPA receptor affinity for (S)-glutamic acid

;
_exptl_crystal_preparation 'water'
_diffrn_ambient_temperature 293
#These two values have been output from a single CSD field.
_refine_ls_R_factor_gt 0.0239
_refine_ls_wR_factor_gt 0.0239
_symmetry_cell_setting orthorhombic
_symmetry_space_group_name_H-M 'P 21 21 21'
_symmetry_Int_Tables_number 19
loop_
_symmetry_equiv_pos_site_id
_symmetry_equiv_pos_as_xyz
1 x,y,z
2 1/2-x,-y,1/2+z
3 -x,1/2+y,1/2-z
4 1/2+x,1/2-y,-z
_cell_length_a 6.7876(7)
_cell_length_b 7.8880(15)
_cell_length_c 14.753(2)
_cell_angle_alpha 90
_cell_angle_beta 90
_cell_angle_gamma 90
_cell_formula_units_Z 4
loop_
_atom_type_symbol
_atom_type_radius_bond
C 0.68
H 0.23
N 0.68
O 0.68
loop_
_atom_site_label
_atom_site_type_symbol
_atom_site_fract_x
_atom_site_fract_y
_atom_site_fract_z
O1 O 0.83098(14) 0.39670(11) 0.39058(6)
O2 O 0.84544(15) -0.00335(12) 0.60381(6)
O3 O 0.93939(14) 0.49427(12) 0.52496(6)
O4 O 0.57519(13) -0.23321(12) 0.31554(6)
O5 O 0.89231(14) -0.30922(12) 0.33467(6)
H1 H 0.854(3) -0.438(2) 0.3549(13)
N1 N 0.65862(16) 0.09781(13) 0.31387(7)
H2 H 0.702(3) 0.203(2) 0.3312(12)
H3 H 0.574(3) 0.059(2) 0.3570(13)
H4 H 0.584(3) 0.103(2) 0.2602(13)
C1 C 0.75081(18) -0.20176(16) 0.31876(8)
C2 C 0.88651(19) 0.19930(15) 0.50753(8)
C3 C 0.82703(19) -0.02294(15) 0.30252(8)
H5 H 0.868(2) -0.019(2) 0.2413(12)
N2 N 0.83478(17) 0.17239(13) 0.59228(7)
C4 C 0.93386(18) 0.04597(15) 0.46130(8)
C5 C 0.99813(18) 0.02677(15) 0.36456(8)
H6 H 1.094(2) -0.067(2) 0.3602(11)
H7 H 1.054(3) 0.133(2) 0.3439(11)
C6 C 0.88727(18) 0.37959(16) 0.47306(9)
C7 C 0.90610(19) -0.07441(16) 0.52514(9)
H8 H 0.911(3) -0.196(2) 0.5229(11)
#END
