
#######################################################################
#
#                 Cambridge Crystallographic Data Centre
#                                CCDC
#
#######################################################################
#
# If this CIF has been generated from an entry in the Cambridge
# Structural Database, then it will include bibliographic, chemical,
# crystal, experimental, refinement or atomic coordinate data resulting
# from the CCDC's data processing and validation procedures.
#
#######################################################################

data_CSD_CIF_WUKNUL
_audit_creation_date 2003-02-14
_audit_creation_method CSD-ConQuest-V1
_database_code_CSD WUKNUL
_database_code_depnum_ccdc_archive 'CCDC 193931'
_chemical_formula_sum 'C13 H15 N1 O2'
_chemical_formula_moiety
;
C13 H15 N1 O2
;
_journal_coden_Cambridge 24
_journal_volume 43
_journal_year 2002
_journal_page_first 9187
_journal_name_full 'Tetrahedron Lett. '
loop_
_publ_author_name
"D.W.Knight"
"P.B.M.Lewis"
"K.M.A.Malik"
"E.V.Mshvidobadze"
"S.F.Vasilevsky"
_chemical_name_systematic
;
3-n-Butyl-2-hydroxy-1-isoquinolone
;
_chemical_melting_point 381.15
_cell_volume   1135.142
_exptl_crystal_colour 'pale yellow'
_exptl_crystal_density_diffrn 1.271
_exptl_special_details
;
Melting point range 381.15-383.15K

;
_exptl_crystal_description 'block'
_diffrn_ambient_temperature 293
#These two values have been output from a single CSD field.
_refine_ls_R_factor_gt 0.0365
_refine_ls_wR_factor_gt 0.0365
_symmetry_cell_setting monoclinic
_symmetry_space_group_name_H-M 'P 21/n'
_symmetry_Int_Tables_number 14
loop_
_symmetry_equiv_pos_site_id
_symmetry_equiv_pos_as_xyz
1 x,y,z
2 1/2+x,1/2-y,1/2+z
3 -x,-y,-z
4 -1/2-x,-1/2+y,-1/2-z
_cell_length_a 8.5853(9)
_cell_length_b 11.2315(10)
_cell_length_c 12.1506(9)
_cell_angle_alpha 90
_cell_angle_beta 104.337(7)
_cell_angle_gamma 90
_cell_formula_units_Z 4
loop_
_atom_type_symbol
_atom_type_radius_bond
C 0.68
H 0.23
N 0.68
O 0.68
loop_
_atom_site_label
_atom_site_type_symbol
_atom_site_fract_x
_atom_site_fract_y
_atom_site_fract_z
O1 O 0.21892(11) 0.97200(9) 0.62796(8)
O2 O -0.0801(1) 0.90734(8) 0.56688(7)
N1 N 0.15979(12) 0.89020(9) 0.69296(8)
C1 C 0.00169(14) 0.86007(11) 0.65519(10)
C2 C -0.05503(14) 0.77297(11) 0.72392(10)
C3 C -0.21486(15) 0.73396(12) 0.69338(11)
H1 H -0.28510 0.76390 0.62840
C4 C -0.26786(16) 0.65193(13) 0.75882(12)
H2 H -0.37410 0.62630 0.73820
C5 C -0.16321(17) 0.60652(13) 0.85641(12)
H3 H -0.20030 0.55090 0.90060
C6 C -0.00672(16) 0.64313(12) 0.88759(11)
H4 H 0.06170 0.61180 0.95270
C7 C 0.05242(14) 0.72757(11) 0.82253(10)
C8 C 0.21469(14) 0.76786(11) 0.85256(10)
H5 H 0.28480 0.73750 0.91750
C9 C 0.26912(14) 0.84873(11) 0.78934(10)
C10 C 0.43662(15) 0.89803(13) 0.81247(11)
H6 H 0.43070 0.98430 0.81370
H7 H 0.48320 0.87580 0.75040
C11 C 0.54778(14) 0.85605(12) 0.92324(11)
H8 H 0.56010 0.77030 0.92060
H9 H 0.49930 0.87430 0.98540
C12 C 0.71311(15) 0.91442(14) 0.94589(12)
H10 H 0.76130 0.89590 0.88370
H11 H 0.70030 1.00010 0.94790
C13 C 0.82584(18) 0.87416(18) 1.05651(14)
H12 H 0.92840 0.91210 1.06540
H13 H 0.83900 0.78930 1.05520
H14 H 0.78140 0.89560 1.11890
H15 H 0.12900 0.98920 0.56410
#END
