
#######################################################################
#
#                 Cambridge Crystallographic Data Centre
#                                CCDC
#
#######################################################################
#
# If this CIF has been generated from an entry in the Cambridge
# Structural Database, then it will include bibliographic, chemical,
# crystal, experimental, refinement or atomic coordinate data resulting
# from the CCDC's data processing and validation procedures.
#
#######################################################################

data_CSD_CIF_WUKPAT
_audit_creation_date 2003-02-14
_audit_creation_method CSD-ConQuest-V1
_database_code_CSD WUKPAT
_database_code_depnum_ccdc_archive 'CCDC 193932'
_chemical_formula_sum 'C15 H11 N1 O2'
_chemical_formula_moiety
;
C15 H11 N1 O2
;
_journal_coden_Cambridge 24
_journal_volume 43
_journal_year 2002
_journal_page_first 9187
_journal_name_full 'Tetrahedron Lett. '
loop_
_publ_author_name
"D.W.Knight"
"P.B.M.Lewis"
"K.M.A.Malik"
"E.V.Mshvidobadze"
"S.F.Vasilevsky"
_chemical_name_systematic
;
3-Benzylidene-2-hydroxy-1-isoindolone
;
_chemical_melting_point 445.15
_cell_volume   1171.042
_exptl_crystal_colour 'colorless'
_exptl_crystal_density_diffrn 1.346
_exptl_crystal_description 'plate-like'
_diffrn_ambient_temperature 293
#These two values have been output from a single CSD field.
_refine_ls_R_factor_gt 0.0364
_refine_ls_wR_factor_gt 0.0364
_symmetry_cell_setting monoclinic
_symmetry_space_group_name_H-M 'P 21/c'
_symmetry_Int_Tables_number 14
loop_
_symmetry_equiv_pos_site_id
_symmetry_equiv_pos_as_xyz
1 x,y,z
2 x,1/2-y,1/2+z
3 -x,-y,-z
4 -x,-1/2+y,-1/2-z
_cell_length_a 10.615(3)
_cell_length_b 7.734(2)
_cell_length_c 14.287(3)
_cell_angle_alpha 90
_cell_angle_beta 93.235(17)
_cell_angle_gamma 90
_cell_formula_units_Z 4
loop_
_atom_type_symbol
_atom_type_radius_bond
C 0.68
H 0.23
N 0.68
O 0.68
loop_
_atom_site_label
_atom_site_type_symbol
_atom_site_fract_x
_atom_site_fract_y
_atom_site_fract_z
O1 O 0.17947(11) 0.23473(17) 0.24862(8)
H1 H 0.09370 0.30790 0.24670
O2 O 0.00599(12) -0.03458(17) 0.25175(9)
N1 N 0.16068(13) 0.13249(19) 0.32572(9)
C1 C 0.07853(16) -0.0038(2) 0.32035(12)
C2 C 0.09644(16) -0.0941(2) 0.41084(12)
C3 C 0.03296(18) -0.2346(2) 0.44520(13)
H2 H -0.03050 -0.29010 0.40900
C4 C 0.06689(18) -0.2895(3) 0.53478(14)
H3 H 0.02550 -0.38340 0.55970
C5 C 0.16170(19) -0.2072(3) 0.58823(14)
H4 H 0.18290 -0.24680 0.64850
C6 C 0.22552(18) -0.0674(3) 0.55386(14)
H5 H 0.28870 -0.01200 0.59030
C7 C 0.19265(16) -0.0118(2) 0.46324(12)
C8 C 0.23821(16) 0.1352(2) 0.40893(12)
C9 C 0.33337(18) 0.2392(3) 0.43410(14)
H6 H 0.37410 0.20900 0.49110
C10 C 0.38781(17) 0.3917(3) 0.39104(13)
C11 C 0.51799(18) 0.4078(3) 0.39431(14)
H7 H 0.56720 0.32030 0.42210
C12 C 0.5763(2) 0.5483(3) 0.35791(15)
H8 H 0.66390 0.55370 0.35900
C13 C 0.5049(2) 0.6814(3) 0.31979(15)
H9 H 0.54400 0.77740 0.29510
C14 C 0.3751(2) 0.6723(3) 0.31824(15)
H10 H 0.32670 0.76360 0.29360
C15 C 0.31652(19) 0.5287(3) 0.35297(14)
H11 H 0.22890 0.52310 0.35100
#END
