
#######################################################################
#
#                 Cambridge Crystallographic Data Centre
#                                CCDC
#
#######################################################################
#
# If this CIF has been generated from an entry in the Cambridge
# Structural Database, then it will include bibliographic, chemical,
# crystal, experimental, refinement or atomic coordinate data resulting
# from the CCDC's data processing and validation procedures.
#
#######################################################################

data_CSD_CIF_WUKVOO
_audit_creation_date 2010-06-17
_audit_creation_method CSD-ConQuest-V1
_database_code_CSD WUKVOO
_database_code_depnum_ccdc_archive 'CCDC 754010'
_chemical_formula_sum 'C20 H19 N1 O4'
_chemical_formula_moiety
;
C20 H19 N1 O4
;
_journal_coden_Cambridge 1336
_journal_volume 11
_journal_year 2009
_journal_page_first 3498
_journal_name_full 'Org.Lett. '
loop_
_publ_author_name
"Silong Xu"
"Lili Zhou"
"San Zeng"
"Renqin Ma"
"Zhihong Wang"
"Zhengjie He"
_chemical_name_systematic
;
(3E,4E)-Ethyl 3-(3-nitrobenzylidene)-5-phenylpent-4-enoate
;
_chemical_melting_point 341.15
_cell_volume   1769.397
_exptl_crystal_density_diffrn 1.266
_exptl_special_details
;
Melting point range 341.15-342.15K

;
_diffrn_ambient_temperature 294
#These two values have been output from a single CSD field.
_refine_ls_R_factor_gt 0.0474
_refine_ls_wR_factor_gt 0.0474
_symmetry_cell_setting monoclinic
_symmetry_space_group_name_H-M 'P 21/c'
_symmetry_Int_Tables_number 14
loop_
_symmetry_equiv_pos_site_id
_symmetry_equiv_pos_as_xyz
1 x,y,z
2 -x,1/2+y,1/2-z
3 -x,-y,-z
4 x,-1/2-y,-1/2+z
_cell_length_a 6.854(2)
_cell_length_b 7.879(2)
_cell_length_c 32.765(10)
_cell_angle_alpha 90
_cell_angle_beta 90
_cell_angle_gamma 90
_cell_formula_units_Z 4
loop_
_atom_type_symbol
_atom_type_radius_bond
C 0.68
H 0.23
N 0.68
O 0.68
loop_
_atom_site_label
_atom_site_type_symbol
_atom_site_fract_x
_atom_site_fract_y
_atom_site_fract_z
O1 O 0.1731(3) 0.9249(2) -0.02207(6)
O2 O 0.3233(3) 1.0431(2) 0.02799(6)
O3 O 0.6996(2) 1.0069(2) 0.11601(5)
O4 O 1.0220(2) 1.00827(18) 0.10806(5)
N1 N 0.2646(3) 0.9183(3) 0.00994(7)
C1 C 0.3077(3) 0.7499(3) 0.02674(6)
C2 C 0.2325(3) 0.6093(3) 0.00761(7)
H1 H 0.15700 0.61980 -0.01580
C3 C 0.2721(3) 0.4525(3) 0.02412(7)
H2 H 0.22080 0.35540 0.01210
C4 C 0.3870(3) 0.4387(3) 0.05825(7)
H3 H 0.41220 0.33170 0.06900
C5 C 0.4664(3) 0.5803(3) 0.07715(6)
C6 C 0.4208(3) 0.7389(3) 0.06142(6)
H4 H 0.46610 0.83680 0.07410
C7 C 0.5945(3) 0.5585(3) 0.11278(6)
H5 H 0.55080 0.48280 0.13250
C8 C 0.7657(3) 0.6335(2) 0.12043(6)
C9 C 0.8704(3) 0.5972(3) 0.15810(6)
H6 H 0.80920 0.52530 0.17660
C10 C 1.0446(3) 0.6565(3) 0.16863(6)
H7 H 1.10910 0.72110 0.14910
C11 C 1.1469(3) 0.6322(3) 0.20730(6)
C12 C 1.0742(3) 0.5345(3) 0.23900(7)
H8 H 0.95780 0.47560 0.23550
C13 C 1.1718(4) 0.5232(3) 0.27560(7)
H9 H 1.12090 0.45640 0.29640
C14 C 1.3415(4) 0.6086(3) 0.28169(8)
H10 H 1.40490 0.60240 0.30670
C15 C 1.4186(4) 0.7038(3) 0.25069(8)
H11 H 1.53600 0.76080 0.25450
C16 C 1.3222(3) 0.7153(3) 0.21383(7)
H12 H 1.37610 0.78010 0.19300
C17 C 0.8593(3) 0.7567(3) 0.09123(6)
H13 H 0.99510 0.72600 0.08740
H14 H 0.79490 0.74870 0.06490
C18 C 0.8474(3) 0.9368(3) 0.10638(6)
C19 C 1.0367(3) 1.1819(3) 0.12217(8)
H15 H 0.92170 1.21230 0.13780
H16 H 1.04720 1.25860 0.09910
C20 C 1.2140(4) 1.1946(3) 0.14823(8)
H17 H 1.19730 1.12560 0.17210
H18 H 1.23340 1.31060 0.15620
H19 H 1.32550 1.15570 0.13320
#END
