
#######################################################################
#
#                 Cambridge Crystallographic Data Centre
#                                CCDC
#
#######################################################################
#
# If this CIF has been generated from an entry in the Cambridge
# Structural Database, then it will include bibliographic, chemical,
# crystal, experimental, refinement or atomic coordinate data resulting
# from the CCDC's data processing and validation procedures.
#
#######################################################################

data_CSD_CIF_WULQOJ
_audit_creation_date 2003-03-25
_audit_creation_method CSD-ConQuest-V1
_database_code_CSD WULQOJ
_database_code_depnum_ccdc_archive 'CCDC 186382'
_chemical_formula_sum 'C17 H23 N1 O8'
_chemical_formula_moiety
;
C17 H23 N1 O8
;
_journal_coden_Cambridge 179
_journal_volume 41
_journal_year 2002
_journal_page_first 3898
_journal_name_full 'Angew.Chem.,Int.Ed. '
loop_
_publ_author_name
"P.Michel"
"S.V.Ley"
_chemical_name_systematic
;
2,3-Dimethyl-2,3-dimethoxy-5-(1-(4-nitrobenzoyloxy)ethyl)-1,4-dioxane
;
_cell_volume   1822.307
_exptl_crystal_colour 'colorless'
_exptl_crystal_density_diffrn 1.346
_diffrn_ambient_temperature 180
#These two values have been output from a single CSD field.
_refine_ls_R_factor_gt 0.0397
_refine_ls_wR_factor_gt 0.0397
_symmetry_cell_setting monoclinic
_symmetry_space_group_name_H-M 'C 2'
_symmetry_Int_Tables_number 5
loop_
_symmetry_equiv_pos_site_id
_symmetry_equiv_pos_as_xyz
1 x,y,z
2 -x,y,-z
3 1/2+x,1/2+y,z
4 1/2-x,1/2+y,-z
_cell_length_a 13.4734(6)
_cell_length_b 6.3604(3)
_cell_length_c 22.079(1)
_cell_angle_alpha 90
_cell_angle_beta 105.609(3)
_cell_angle_gamma 90
_cell_formula_units_Z 4
loop_
_atom_type_symbol
_atom_type_radius_bond
C 0.68
H 0.23
N 0.68
O 0.68
loop_
_atom_site_label
_atom_site_type_symbol
_atom_site_fract_x
_atom_site_fract_y
_atom_site_fract_z
O1 O -0.07391(12) 0.4321(3) 0.15663(7)
O2 O -0.21474(12) 0.1208(3) 0.17930(7)
O3 O -0.01955(12) 0.0825(3) 0.16613(8)
O4 O -0.26085(12) 0.3008(3) 0.08405(8)
O5 O 0.01319(12) 0.4994(3) 0.28977(7)
O6 O 0.11700(15) 0.7831(3) 0.30634(9)
O7 O 0.43719(13) 0.2135(3) 0.54675(8)
O8 O 0.38317(14) -0.0765(3) 0.49691(8)
N1 N 0.38253(15) 0.1156(4) 0.50187(9)
C1 C -0.08547(18) 0.2319(4) 0.12725(11)
C2 C -0.19475(18) 0.1436(4) 0.11987(11)
C3 C -0.16133(19) 0.2636(4) 0.22728(11)
H1 H -0.09750 0.19550 0.25250
H2 H -0.20520 0.29430 0.25570
C4 C -0.13351(18) 0.4687(4) 0.20079(10)
H3 H -0.19900 0.54030 0.17800
C5 C 0.08683(18) 0.1373(5) 0.18577(12)
H4 H 0.12280 0.04290 0.21970
H5 H 0.09400 0.28270 0.20100
H6 H 0.11690 0.12400 0.15020
C6 C -0.0598(2) 0.2640(5) 0.06540(11)
H7 H 0.00750 0.33270 0.07290
H8 H -0.11270 0.35250 0.03790
H9 H -0.05770 0.12740 0.04520
C7 C -0.2112(2) -0.0693(5) 0.08878(12)
H10 H -0.27480 -0.13150 0.09420
H11 H -0.15270 -0.16080 0.10810
H12 H -0.21670 -0.05390 0.04380
C8 C -0.36806(19) 0.2536(5) 0.06957(14)
H13 H -0.40800 0.37870 0.05200
H14 H -0.38580 0.21050 0.10800
H15 H -0.38410 0.13920 0.03880
C9 C -0.07184(18) 0.6199(4) 0.24950(11)
H16 H -0.04330 0.73400 0.22790
C10 C -0.1338(2) 0.7176(5) 0.29059(13)
H17 H -0.08940 0.81230 0.32130
H18 H -0.16010 0.60630 0.31280
H19 H -0.19170 0.79720 0.26420
C11 C 0.10090(18) 0.6024(4) 0.31615(11)
C12 C 0.17600(18) 0.4645(4) 0.36102(10)
C13 C 0.15441(18) 0.2562(4) 0.37157(11)
H20 H 0.09230 0.19370 0.34740
C14 C 0.22265(18) 0.1397(4) 0.41683(11)
H21 H 0.20890 -0.00330 0.42390
C15 C 0.31192(18) 0.2367(4) 0.45183(10)
C16 C 0.33603(18) 0.4430(4) 0.44209(11)
H22 H 0.39790 0.50520 0.46670
C17 C 0.26806(18) 0.5558(4) 0.39577(11)
H23 H 0.28390 0.69660 0.38740
#END
