
#######################################################################
#
#                 Cambridge Crystallographic Data Centre
#                                CCDC
#
#######################################################################
#
# If this CIF has been generated from an entry in the Cambridge
# Structural Database, then it will include bibliographic, chemical,
# crystal, experimental, refinement or atomic coordinate data resulting
# from the CCDC's data processing and validation procedures.
#
#######################################################################

data_CSD_CIF_WULYUZ
_audit_creation_date 2015-05-27
_audit_creation_method CSD-ConQuest-V1
_database_code_CSD WULYUZ
_database_code_depnum_ccdc_archive 'CCDC 1403492'
_database_code_depnum_ccdc_journal 1267/4167
_chemical_formula_sum 'C38 H36 N2 O4'
_chemical_formula_moiety
;
C38 H36 N2 O4
;
_journal_coden_Cambridge 1267
_journal_volume 229
_journal_year 2014
_journal_page_first 347
_journal_name_full 'Z.Kristallogr.-New Cryst.Struct. '
loop_
_publ_author_name
"V.Francis"
"T.Naicker"
_chemical_name_systematic
;
2-benzyl-N-(diphenylmethyl)-6,7-dimethoxy-1-phenyl-1,2,3,4-tetrahydroisoquinol
ine-3-carboxamide 2-oxide
;
_chemical_melting_point 454
_cell_volume   3049.065
_exptl_crystal_colour 'colorless'
_exptl_crystal_density_diffrn 1.274
_exptl_crystal_description 'needle'
_diffrn_ambient_temperature 173
#These two values have been output from a single CSD field.
_refine_ls_R_factor_gt 0.0419
_refine_ls_wR_factor_gt 0.0419
_symmetry_cell_setting monoclinic
_symmetry_space_group_name_H-M 'P 21/c'
_symmetry_Int_Tables_number 14
loop_
_symmetry_equiv_pos_site_id
_symmetry_equiv_pos_as_xyz
1 x,y,z
2 -x,1/2+y,1/2-z
3 -x,-y,-z
4 x,-1/2-y,-1/2+z
_cell_length_a 12.5897(2)
_cell_length_b 11.1979(3)
_cell_length_c 21.6583(6)
_cell_angle_alpha 90
_cell_angle_beta 93.035(1)
_cell_angle_gamma 90
_cell_formula_units_Z 4
loop_
_atom_type_symbol
_atom_type_radius_bond
C 0.68
H 0.23
N 0.68
O 0.68
loop_
_atom_site_label
_atom_site_type_symbol
_atom_site_fract_x
_atom_site_fract_y
_atom_site_fract_z
O1 O 0.83595(7) 0.70063(7) 0.07555(4)
O2 O 0.81416(7) 1.24191(8) 0.25721(4)
O3 O 0.66493(8) 1.32765(8) 0.18288(4)
O4 O 0.59515(8) 0.82702(9) -0.04616(4)
N1 N 0.80052(8) 0.81745(9) 0.07897(5)
N2 N 0.72160(9) 0.68572(9) -0.02585(5)
H1 H 0.76160 0.65210 0.00380
C1 C 0.80800(9) 0.8552(1) 0.14724(5)
H2 H 0.88510 0.85430 0.16110
C2 C 0.76944(9) 0.98207(11) 0.15343(6)
C3 C 0.81227(9) 1.05161(11) 0.20266(6)
H3 H 0.86630 1.01930 0.23010
C4 C 0.77647(9) 1.16650(11) 0.21153(5)
C5 C 0.6956(1) 1.21347(11) 0.17060(6)
C6 C 0.65348(10) 1.14433(11) 0.12261(6)
H4 H 0.59900 1.17610 0.09530
C7 C 0.69016(9) 1.02742(11) 0.11360(6)
C8 C 0.64534(10) 0.95785(11) 0.05843(6)
H5 H 0.66370 1.00020 0.02030
H6 H 0.56680 0.95690 0.05950
C9 C 0.68488(9) 0.82879(11) 0.05479(6)
H7 H 0.64110 0.77990 0.08250
C10 C 0.66386(9) 0.78031(11) -0.01195(6)
C11 C 0.72212(10) 0.63474(11) -0.08779(6)
H8 H 0.68590 0.69220 -0.11730
C12 C 0.66382(9) 0.51585(12) -0.09321(6)
C13 C 0.61887(10) 0.46087(13) -0.04364(6)
H9 H 0.62200 0.49890 -0.00440
C14 C 0.56915(11) 0.35038(14) -0.05089(8)
H10 H 0.53850 0.31330 -0.01670
C15 C 0.56445(11) 0.29469(14) -0.10791(8)
H11 H 0.53120 0.21890 -0.11280
C16 C 0.60815(11) 0.34932(14) -0.15781(7)
H12 H 0.60450 0.31140 -0.19710
C17 C 0.65698(10) 0.45874(13) -0.15061(6)
H13 H 0.68650 0.49600 -0.18520
C18 C 0.8373(1) 0.62138(11) -0.10517(6)
C19 C 0.87768(12) 0.69329(14) -0.14977(7)
H14 H 0.83290 0.75000 -0.17090
C20 C 0.98362(14) 0.68330(17) -0.16410(9)
H15 H 1.01090 0.73380 -0.19480
C21 C 1.04939(12) 0.60095(15) -0.13426(8)
H16 H 1.12200 0.59520 -0.14390
C22 C 1.00929(11) 0.52724(13) -0.09051(7)
H17 H 1.05380 0.46930 -0.07020
C23 C 0.90365(10) 0.53737(12) -0.07588(6)
H18 H 0.87640 0.48620 -0.04550
C24 C 0.87004(9) 0.89666(11) 0.04014(6)
H19 H 0.85800 0.87410 -0.00390
H20 H 0.84690 0.98060 0.04440
C25 C 0.98752(10) 0.88940(11) 0.05702(6)
C26 C 1.05004(11) 0.80270(13) 0.03082(7)
H21 H 1.01790 0.74320 0.00480
C27 C 1.15961(12) 0.80302(15) 0.04273(9)
H22 H 1.20220 0.74350 0.02490
C28 C 1.20683(12) 0.88947(16) 0.08037(8)
H23 H 1.28170 0.88930 0.08840
C29 C 1.14573(12) 0.97588(15) 0.10632(7)
H24 H 1.17840 1.03530 0.13220
C30 C 1.03632(11) 0.97625(13) 0.09468(6)
H25 H 0.99440 1.03630 0.11260
C31 C 0.75129(10) 0.76703(11) 0.18827(6)
C32 C 0.79567(11) 0.65490(11) 0.20118(6)
H26 H 0.85960 0.63230 0.18290
C33 C 0.74721(13) 0.57620(13) 0.24046(6)
H27 H 0.77750 0.49960 0.24830
C34 C 0.65509(13) 0.60883(15) 0.26816(7)
H28 H 0.62230 0.55500 0.29520
C35 C 0.61094(12) 0.72026(15) 0.25629(7)
H29 H 0.54800 0.74310 0.27550
C36 C 0.65836(10) 0.79878(13) 0.21638(6)
H30 H 0.62710 0.87480 0.20820
C37 C 0.89082(11) 1.19378(13) 0.30165(6)
H31 H 0.85930 1.12660 0.32320
H32 H 0.91250 1.25580 0.33170
H33 H 0.95320 1.16600 0.28050
C38 C 0.60004(13) 1.38593(13) 0.13620(7)
H34 H 0.63730 1.38800 0.09760
H35 H 0.58510 1.46770 0.14940
H36 H 0.53300 1.34220 0.12950
#END
