
#######################################################################
#
#                 Cambridge Crystallographic Data Centre
#                                CCDC
#
#######################################################################
#
# If this CIF has been generated from an entry in the Cambridge
# Structural Database, then it will include bibliographic, chemical,
# crystal, experimental, refinement or atomic coordinate data resulting
# from the CCDC's data processing and validation procedures.
#
#######################################################################

data_CSD_CIF_WUMGAO
_audit_creation_date 2015-05-27
_audit_creation_method CSD-ConQuest-V1
_database_code_CSD WUMGAO
_database_code_depnum_ccdc_archive 'CCDC 1059467'
_chemical_formula_sum 'C11 H8 N4 O3'
_chemical_formula_moiety
;
C11 H8 N4 O3
;
_journal_coden_Cambridge 1500
_journal_volume 5
_journal_year 2015
_journal_page_first 47248
_journal_name_full 'RSC Advances '
loop_
_publ_author_name
"L.L.Fershtat"
"I.V.Ananyev"
"N.N.Makhova"
_chemical_name_systematic
;
3-(4-methyl-5-oxido-1,2,5-oxadiazol-3-yl)-5-phenyl-1,2,4-oxadiazole
;
_cell_volume   1080.943
_exptl_crystal_colour 'colorless'
_exptl_crystal_density_diffrn 1.501
_exptl_crystal_description 'prism'
_diffrn_ambient_temperature 120
#These two values have been output from a single CSD field.
_refine_ls_R_factor_gt 0.0625
_refine_ls_wR_factor_gt 0.0625
_symmetry_cell_setting monoclinic
_symmetry_space_group_name_H-M 'P 21/n'
_symmetry_Int_Tables_number 14
loop_
_symmetry_equiv_pos_site_id
_symmetry_equiv_pos_as_xyz
1 x,y,z
2 1/2-x,1/2+y,1/2-z
3 -x,-y,-z
4 -1/2+x,-1/2-y,-1/2+z
_cell_length_a 6.5740(13)
_cell_length_b 22.414(5)
_cell_length_c 7.9769(16)
_cell_angle_alpha 90
_cell_angle_beta 113.126(4)
_cell_angle_gamma 90
_cell_formula_units_Z 4
loop_
_atom_type_symbol
_atom_type_radius_bond
C 0.68
H 0.23
N 0.68
O 0.68
loop_
_atom_site_label
_atom_site_type_symbol
_atom_site_fract_x
_atom_site_fract_y
_atom_site_fract_z
O1 O 0.0890(3) 0.26456(8) -0.1618(3)
O2 O 0.3891(3) 0.21349(7) -0.1658(2)
O3 O 0.5521(3) 0.02003(7) 0.3256(2)
N1 N 0.2165(3) 0.22198(9) -0.0983(3)
N2 N 0.5077(3) 0.16381(9) -0.0809(3)
N3 N 0.4223(3) 0.07109(9) 0.2521(3)
N4 N 0.6762(3) 0.05842(9) 0.1278(3)
C1 C 0.2351(4) 0.17978(10) 0.0214(3)
C2 C 0.0892(4) 0.17734(12) 0.1225(4)
H1 H -0.04280 0.20170 0.05950
H2 H 0.16850 0.19280 0.24610
H3 H 0.04510 0.13590 0.12900
C3 C 0.4170(4) 0.14446(10) 0.0287(3)
C4 C 0.5056(3) 0.09094(10) 0.1387(3)
C5 C 0.6969(4) 0.01588(10) 0.2458(3)
C6 C 0.8537(4) -0.03369(10) 0.2948(3)
C7 C 1.0141(4) -0.03447(10) 0.2219(3)
H4 H 1.02130 -0.00290 0.14510
C8 C 1.1633(4) -0.08114(11) 0.2609(3)
H5 H 1.27090 -0.08200 0.20900
C9 C 1.1551(4) -0.12668(11) 0.3761(3)
H6 H 1.25740 -0.15880 0.40300
C10 C 0.9980(4) -0.12538(11) 0.4518(3)
H7 H 0.99460 -0.15630 0.53210
C11 C 0.8456(4) -0.07914(11) 0.4110(3)
H8 H 0.73690 -0.07850 0.46190
#END
