
#######################################################################
#
#                 Cambridge Crystallographic Data Centre
#                                CCDC
#
#######################################################################
#
# If this CIF has been generated from an entry in the Cambridge
# Structural Database, then it will include bibliographic, chemical,
# crystal, experimental, refinement or atomic coordinate data resulting
# from the CCDC's data processing and validation procedures.
#
#######################################################################

data_CSD_CIF_WUMHES
_audit_creation_date 2010-06-29
_audit_creation_method CSD-ConQuest-V1
_database_code_CSD WUMHES
_database_code_depnum_ccdc_archive 'CCDC 713684'
_chemical_formula_sum 'C9 H14 N2 O3'
_chemical_formula_moiety
;
C9 H14 N2 O3
;
_journal_coden_Cambridge 1220
_journal_volume 15
_journal_year 2009
_journal_page_first 10330
_journal_name_full 'Chem.-Eur.J. '
loop_
_publ_author_name
"A.Kamimura"
"A.Kadowaki"
"T.Yoshida"
"R.Takeuchi"
"H.Uno"
_chemical_name_systematic
;
2-Isopropyl-1-nitro-3-azabicyclo[3.1.0]hexane-3-carbaldehyde
;
_cell_volume    515.505
_exptl_crystal_colour 'colorless'
_exptl_crystal_density_diffrn 1.277
_exptl_crystal_description 'block'
_diffrn_ambient_temperature 293
#These two values have been output from a single CSD field.
_refine_ls_R_factor_gt 0.0604
_refine_ls_wR_factor_gt 0.0604
_symmetry_cell_setting triclinic
_symmetry_space_group_name_H-M 'P -1'
_symmetry_Int_Tables_number 2
loop_
_symmetry_equiv_pos_site_id
_symmetry_equiv_pos_as_xyz
1 x,y,z
2 -x,-y,-z
_cell_length_a 5.7518(12)
_cell_length_b 7.5318(17)
_cell_length_c 13.153(3)
_cell_angle_alpha 92.314(19)
_cell_angle_beta 100.68(2)
_cell_angle_gamma 111.968(14)
_cell_formula_units_Z 2
loop_
_atom_type_symbol
_atom_type_radius_bond
C 0.68
H 0.23
N 0.68
O 0.68
loop_
_atom_site_label
_atom_site_type_symbol
_atom_site_fract_x
_atom_site_fract_y
_atom_site_fract_z
O1 O 0.1680(5) -0.1326(3) 0.08306(17)
O2 O 0.2728(5) 0.6518(3) 0.32499(16)
O3 O 0.6080(4) 0.7946(3) 0.26595(18)
N1 N 0.3131(4) 0.1533(2) 0.18455(13)
N2 N 0.4249(4) 0.6514(3) 0.27261(15)
C1 C 0.2679(4) 0.2836(3) 0.25687(15)
H1 H 0.08240 0.24490 0.24990
C2 C 0.3724(4) 0.4699(3) 0.20959(15)
C3 C 0.5382(5) 0.4551(3) 0.13737(17)
H2 H 0.70140 0.56240 0.13850
C4 C 0.5250(5) 0.2519(4) 0.1348(2)
H3 H 0.49090 0.19360 0.06370
H4 H 0.68410 0.24840 0.17310
C5 C 0.2899(5) 0.4731(4) 0.09448(17)
H5 H 0.14980 0.35990 0.05500
H6 H 0.29690 0.59490 0.07060
C6 C 0.3921(4) 0.2900(3) 0.37157(16)
H7 H 0.36940 0.39300 0.41120
C7 C 0.6763(5) 0.3366(5) 0.3905(2)
H8 H 0.74650 0.35650 0.46410
H9 H 0.75850 0.45160 0.36040
H10 H 0.70500 0.23150 0.35910
C8 C 0.2554(6) 0.1040(4) 0.4133(2)
H11 H 0.28100 0.00040 0.37860
H12 H 0.07510 0.07740 0.40110
H13 H 0.32310 0.11590 0.48680
C9 C 0.1443(6) -0.0256(4) 0.1492(2)
H14 H -0.00200 -0.07230 0.17670
#END
