
#######################################################################
#
#                 Cambridge Crystallographic Data Centre
#                                CCDC
#
#######################################################################
#
# If this CIF has been generated from an entry in the Cambridge
# Structural Database, then it will include bibliographic, chemical,
# crystal, experimental, refinement or atomic coordinate data resulting
# from the CCDC's data processing and validation procedures.
#
#######################################################################

data_CSD_CIF_WUMHUI
_audit_creation_date 2010-06-29
_audit_creation_method CSD-ConQuest-V1
_database_code_CSD WUMHUI
_database_code_depnum_ccdc_archive 'CCDC 739560'
_chemical_formula_sum 'C11 H17 N1 O3'
_chemical_formula_moiety
;
C11 H17 N1 O3
;
_journal_coden_Cambridge 1220
_journal_volume 15
_journal_year 2009
_journal_page_first 10330
_journal_name_full 'Chem.-Eur.J. '
loop_
_publ_author_name
"A.Kamimura"
"A.Kadowaki"
"T.Yoshida"
"R.Takeuchi"
"H.Uno"
_chemical_name_systematic
;
2-Cyclohexyl-1-nitro-3-oxabicyclo[3.1.0]hexane
;
_cell_volume    564.957
_exptl_crystal_colour 'colorless'
_exptl_crystal_density_diffrn 1.242
_exptl_crystal_description 'block'
_diffrn_ambient_temperature 296.1
#These two values have been output from a single CSD field.
_refine_ls_R_factor_gt 0.057
_refine_ls_wR_factor_gt 0.057
_symmetry_cell_setting triclinic
_symmetry_space_group_name_H-M 'P -1'
_symmetry_Int_Tables_number 2
loop_
_symmetry_equiv_pos_site_id
_symmetry_equiv_pos_as_xyz
1 x,y,z
2 -x,-y,-z
_cell_length_a 5.7937(7)
_cell_length_b 9.4889(11)
_cell_length_c 10.8160(13)
_cell_angle_alpha 103.933(4)
_cell_angle_beta 98.570(4)
_cell_angle_gamma 95.722(4)
_cell_formula_units_Z 2
loop_
_atom_type_symbol
_atom_type_radius_bond
C 0.68
H 0.23
N 0.68
O 0.68
loop_
_atom_site_label
_atom_site_type_symbol
_atom_site_fract_x
_atom_site_fract_y
_atom_site_fract_z
O1 O 0.7702(2) 0.06330(16) 0.58925(13)
O2 O 0.4739(3) 0.2191(2) 0.92415(16)
O3 O 0.7299(3) 0.1068(2) 1.00850(16)
N1 N 0.6200(3) 0.1363(2) 0.91564(17)
C1 C 0.5816(4) -0.0987(2) 0.7431(2)
C2 C 0.6580(3) 0.0640(2) 0.78507(18)
C3 C 0.8352(4) -0.0383(2) 0.7668(2)
C4 C 0.9316(4) -0.0147(2) 0.6511(2)
C5 C 1.0060(4) 0.3406(2) 0.7915(2)
C6 C 0.7491(3) 0.3090(2) 0.72528(19)
C7 C 0.7186(4) 0.3787(2) 0.6117(2)
C8 C 1.0608(5) 0.5731(2) 0.7215(2)
C9 C 1.0957(5) 0.5042(2) 0.8336(2)
C10 C 0.6472(3) 0.1466(2) 0.68159(18)
C11 C 0.8088(6) 0.5422(2) 0.6536(2)
H1 H 0.51940 -0.14750 0.80060
H2 H 0.50300 -0.14390 0.65690
H3 H 0.93900 -0.10640 0.59350
H4 H 1.08440 0.04090 0.67660
H5 H 1.02340 0.30040 0.86430
H6 H 1.09750 0.29520 0.73140
H7 H 0.80580 0.33230 0.54960
H8 H 0.55640 0.36380 0.57380
H9 H 1.11000 0.67590 0.75080
H10 H 1.15480 0.53050 0.66160
H11 H 1.00540 0.54900 0.89460
H12 H 1.25730 0.52100 0.87290
H13 H 0.79410 0.58160 0.58040
H14 H 0.71640 0.58860 0.71270
H15 H 0.93740 -0.04920 0.84020
H16 H 0.48710 0.13750 0.64150
H17 H 0.66100 0.35670 0.78620
#END
