
#######################################################################
#
#                 Cambridge Crystallographic Data Centre
#                                CCDC
#
#######################################################################
#
# If this CIF has been generated from an entry in the Cambridge
# Structural Database, then it will include bibliographic, chemical,
# crystal, experimental, refinement or atomic coordinate data resulting
# from the CCDC's data processing and validation procedures.
#
#######################################################################

data_CSD_CIF_WUNJUM
_audit_creation_date 2015-05-28
_audit_creation_method CSD-ConQuest-V1
_database_code_CSD WUNJUM
_database_code_depnum_ccdc_archive 'CCDC 1042799'
_chemical_formula_sum 'C27 H43 N3 O3'
_chemical_formula_moiety
;
C27 H43 N3 O3
;
_journal_coden_Cambridge 1220
_journal_volume 21
_journal_year 2015
_journal_page_first 9877
_journal_name_full 'Chem.-Eur.J. '
loop_
_publ_author_name
"M.Holan"
"R.Pohl"
"I.Cisarova"
"B.Klepetarova"
"P.G.Jones"
"U.Jahn"
_chemical_name_systematic
;
t-butyl 
4,4-dicyano-3-(((2,2,6,6-tetramethylpiperidin-1-yl)oxy)methyl)spiro[4.5]decane
-1-carboxylate
;
_cell_volume   2658.016
_exptl_crystal_colour 'colorless'
_exptl_crystal_density_diffrn 1.144
_exptl_crystal_description 'prism'
_diffrn_ambient_temperature 150
#These two values have been output from a single CSD field.
_refine_ls_R_factor_gt 0.0431
_refine_ls_wR_factor_gt 0.0431
_symmetry_cell_setting monoclinic
_symmetry_space_group_name_H-M 'P 21/c'
_symmetry_Int_Tables_number 14
loop_
_symmetry_equiv_pos_site_id
_symmetry_equiv_pos_as_xyz
1 x,y,z
2 -x,1/2+y,1/2-z
3 -x,-y,-z
4 x,-1/2-y,-1/2+z
_cell_length_a 14.4669(7)
_cell_length_b 15.5547(8)
_cell_length_c 11.8241(7)
_cell_angle_alpha 90
_cell_angle_beta 92.601(2)
_cell_angle_gamma 90
_cell_formula_units_Z 4
loop_
_atom_type_symbol
_atom_type_radius_bond
C 0.68
H 0.23
N 0.68
O 0.68
loop_
_atom_site_label
_atom_site_type_symbol
_atom_site_fract_x
_atom_site_fract_y
_atom_site_fract_z
C1 C 0.68766(8) 0.11221(7) 0.17116(10)
C2 C 0.75449(9) 0.10914(8) 0.07232(10)
H1 H 0.72190 0.08160 0.00530
C3 C 0.76916(11) 0.20429(9) 0.04665(15)
H2 H 0.78230 0.21210 -0.03420
H3 H 0.82220 0.22690 0.09340
C4 C 0.67941(9) 0.25274(8) 0.07450(11)
H4 H 0.64650 0.26990 0.00180
C5 C 0.61707(8) 0.18700(7) 0.13728(10)
C6 C 0.54217(9) 0.15224(9) 0.05202(11)
H5 H 0.57160 0.13570 -0.01870
H6 H 0.51420 0.09990 0.08380
C7 C 0.46559(10) 0.21804(10) 0.02416(13)
H7 H 0.49220 0.26800 -0.01470
H8 H 0.41810 0.19170 -0.02790
C8 C 0.42035(10) 0.24843(10) 0.13083(13)
H9 H 0.37340 0.29290 0.11090
H10 H 0.38870 0.19950 0.16620
C9 C 0.49252(10) 0.28530(9) 0.21400(12)
H11 H 0.46260 0.30190 0.28440
H12 H 0.51940 0.33770 0.18130
C10 C 0.56998(9) 0.22071(8) 0.24254(11)
H13 H 0.54400 0.17150 0.28360
H14 H 0.61710 0.24850 0.29370
C11 C 0.70412(9) 0.33328(8) 0.14128(12)
O1 O 0.75451(8) 0.33394(7) 0.22533(11)
O2 O 0.66333(6) 0.40248(5) 0.09482(8)
C12 C 0.68195(10) 0.48946(8) 0.14144(13)
C13 C 0.62114(16) 0.54583(10) 0.0654(2)
H15 H 0.63910 0.53950 -0.01310
H16 H 0.62850 0.60600 0.08870
H17 H 0.55640 0.52860 0.07110
C14 C 0.65213(13) 0.49471(12) 0.26266(16)
H18 H 0.58790 0.47540 0.26610
H19 H 0.65710 0.55430 0.28920
H20 H 0.69220 0.45790 0.31100
C15 C 0.78300(12) 0.51101(10) 0.13124(17)
H21 H 0.82040 0.47590 0.18480
H22 H 0.79300 0.57200 0.14840
H23 H 0.80110 0.49900 0.05390
C16 C 0.84501(8) 0.06238(7) 0.09743(11)
H24 H 0.88030 0.05760 0.02790
H25 H 0.88320 0.09400 0.15530
O3 O 0.82252(5) -0.02077(5) 0.13803(7)
N1 N 0.90397(7) -0.07601(6) 0.14083(9)
C17 C 0.92656(10) -0.09707(9) 0.26203(11)
C18 C 1.00800(11) -0.16063(11) 0.26190(14)
H26 H 1.06320 -0.13030 0.23550
H27 H 1.02230 -0.18000 0.34050
C19 C 0.98986(11) -0.23877(10) 0.18795(16)
H28 H 0.93850 -0.27290 0.21750
H29 H 1.04570 -0.27550 0.18840
C20 C 0.96483(10) -0.20924(9) 0.06847(14)
H30 H 0.95060 -0.26030 0.02080
H31 H 1.01910 -0.18010 0.03750
C21 C 0.88174(9) -0.14760(8) 0.06061(12)
C22 C 0.7909(1) -0.19572(10) 0.08065(19)
H32 H 0.79980 -0.23380 0.14620
H33 H 0.77310 -0.22990 0.01350
H34 H 0.74200 -0.15410 0.09500
C23 C 0.87531(12) -0.10830(11) -0.05736(13)
H35 H 0.81970 -0.07240 -0.06540
H36 H 0.87190 -0.15430 -0.11410
H37 H 0.93020 -0.07290 -0.06860
C24 C 0.84579(13) -0.13202(12) 0.32819(15)
H38 H 0.79070 -0.09670 0.31190
H39 H 0.86210 -0.13010 0.40950
H40 H 0.83300 -0.19160 0.30540
C25 C 0.96072(12) -0.01402(12) 0.31936(14)
H41 H 1.00630 0.01370 0.27250
H42 H 0.98940 -0.02750 0.39390
H43 H 0.90830 0.02490 0.32830
C26 C 0.64011(9) 0.02956(8) 0.18830(13)
N2 N 0.60126(9) -0.03287(8) 0.20097(18)
C27 C 0.74017(9) 0.13101(8) 0.27884(11)
N3 N 0.78170(9) 0.14250(8) 0.36207(10)
#END
