
#######################################################################
#
#                 Cambridge Crystallographic Data Centre
#                                CCDC
#
#######################################################################
#
# If this CIF has been generated from an entry in the Cambridge
# Structural Database, then it will include bibliographic, chemical,
# crystal, experimental, refinement or atomic coordinate data resulting
# from the CCDC's data processing and validation procedures.
#
#######################################################################

data_CSD_CIF_WUNKEX
_audit_creation_date 2015-05-28
_audit_creation_method CSD-ConQuest-V1
_database_code_CSD WUNKEX
_database_code_depnum_ccdc_archive 'CCDC 1042801'
_chemical_formula_sum 'C28 H49 N1 O7'
_chemical_formula_moiety
;
C28 H49 N1 O7
;
_journal_coden_Cambridge 1220
_journal_volume 21
_journal_year 2015
_journal_page_first 9877
_journal_name_full 'Chem.-Eur.J. '
loop_
_publ_author_name
"M.Holan"
"R.Pohl"
"I.Cisarova"
"B.Klepetarova"
"P.G.Jones"
"U.Jahn"
_chemical_name_systematic
;
3-t-butyl 1,1-diethyl 
2,2-dimethyl-5-(((2,2,6,6-tetramethylpiperidin-1-yl)oxy)methyl)cyclopentane-1,
1,3-tricarboxylate
;
_cell_volume   2954.000
_exptl_crystal_colour 'colorless'
_exptl_crystal_density_diffrn 1.151
_exptl_crystal_description 'irregular bulk'
_diffrn_ambient_temperature 150
#These two values have been output from a single CSD field.
_refine_ls_R_factor_gt 0.0462
_refine_ls_wR_factor_gt 0.0462
_symmetry_cell_setting monoclinic
_symmetry_space_group_name_H-M 'P 21/c'
_symmetry_Int_Tables_number 14
loop_
_symmetry_equiv_pos_site_id
_symmetry_equiv_pos_as_xyz
1 x,y,z
2 -x,1/2+y,1/2-z
3 -x,-y,-z
4 x,-1/2-y,-1/2+z
_cell_length_a 15.845(3)
_cell_length_b 9.2286(10)
_cell_length_c 20.202(3)
_cell_angle_alpha 90
_cell_angle_beta 90.426(6)
_cell_angle_gamma 90
_cell_formula_units_Z 4
loop_
_atom_type_symbol
_atom_type_radius_bond
C 0.68
H 0.23
N 0.68
O 0.68
loop_
_atom_site_label
_atom_site_type_symbol
_atom_site_fract_x
_atom_site_fract_y
_atom_site_fract_z
N1 N 0.10760(8) 0.28246(14) 0.13822(6)
C1 C 0.33398(10) 0.32136(17) 0.30606(8)
C2 C 0.35682(10) 0.22303(17) 0.36790(8)
C3 C 0.26736(10) 0.18920(18) 0.39716(8)
H1 H 0.25500 0.26240 0.43230
C4 C 0.20246(10) 0.2091(2) 0.34037(8)
H2 H 0.17000 0.11860 0.33340
H3 H 0.16250 0.28790 0.35110
C5 C 0.25287(10) 0.24721(17) 0.27799(8)
H4 H 0.27070 0.15390 0.25720
C6 C 0.20442(10) 0.33232(17) 0.22591(8)
H5 H 0.18370 0.42470 0.24470
H6 H 0.24130 0.35450 0.18790
C7 C 0.02202(10) 0.34961(18) 0.14270(8)
C8 C -0.00693(11) 0.3807(2) 0.07138(9)
H7 H -0.06520 0.41920 0.07220
H8 H 0.02980 0.45650 0.05230
C9 C -0.00471(13) 0.2482(2) 0.02707(10)
H9 H -0.02180 0.27490 -0.01860
H10 H -0.04450 0.17400 0.04360
C10 C 0.08468(13) 0.1878(2) 0.02723(9)
H11 H 0.12280 0.26000 0.00690
H12 H 0.08590 0.09950 -0.00060
C11 C 0.11842(12) 0.14979(19) 0.09688(9)
C12 C 0.21379(13) 0.1241(2) 0.09201(10)
H13 H 0.24150 0.21350 0.07750
H14 H 0.22470 0.04680 0.05990
H15 H 0.23610 0.09570 0.13550
C13 C 0.07669(14) 0.0116(2) 0.12383(11)
H16 H 0.08870 0.00300 0.17130
H17 H 0.09930 -0.07310 0.10070
H18 H 0.01550 0.01690 0.11660
C14 C -0.04485(12) 0.2618(2) 0.18044(10)
H19 H -0.06160 0.17730 0.15400
H20 H -0.09430 0.32280 0.18840
H21 H -0.02120 0.22930 0.22290
C15 C 0.03318(12) 0.4940(2) 0.17892(9)
H22 H 0.04560 0.47570 0.22580
H23 H -0.01890 0.55080 0.17500
H24 H 0.07990 0.54800 0.15920
C16 C 0.26353(10) 0.03974(18) 0.42810(8)
C17 C 0.31273(11) -0.09368(19) 0.52691(8)
C18 C 0.35637(15) -0.2142(2) 0.48992(10)
H25 H 0.31980 -0.24810 0.45380
H26 H 0.36810 -0.29470 0.52030
H27 H 0.40950 -0.17810 0.47170
C19 C 0.22489(13) -0.1346(3) 0.55041(10)
H28 H 0.19800 -0.04990 0.57050
H29 H 0.22920 -0.21260 0.58320
H30 H 0.19090 -0.16770 0.51260
C20 C 0.36746(13) -0.0424(2) 0.58494(9)
H31 H 0.42250 -0.01090 0.56850
H32 H 0.37530 -0.12230 0.61640
H33 H 0.33960 0.03880 0.60720
C21 C 0.40066(11) 0.08309(18) 0.34358(9)
H34 H 0.45480 0.10790 0.32340
H35 H 0.36460 0.03470 0.31080
H36 H 0.41040 0.01800 0.38120
C22 C 0.41619(12) 0.2938(2) 0.41844(9)
H37 H 0.42770 0.22570 0.45460
H38 H 0.38960 0.38130 0.43630
H39 H 0.46930 0.31990 0.39690
C23 C 0.31051(11) 0.47568(18) 0.32669(8)
C24 C 0.28952(13) 0.71646(19) 0.29122(10)
H40 H 0.23250 0.71040 0.31080
H41 H 0.32730 0.76680 0.32300
C25 C 0.2858(2) 0.7967(2) 0.22891(12)
H42 H 0.34260 0.80450 0.21050
H43 H 0.26320 0.89400 0.23700
H44 H 0.24900 0.74550 0.19750
C26 C 0.40938(10) 0.32462(16) 0.25966(8)
C27 C 0.47230(11) 0.2190(2) 0.16535(9)
H45 H 0.51670 0.16800 0.19100
H46 H 0.49520 0.31300 0.15020
C28 C 0.44517(13) 0.1292(2) 0.10728(9)
H47 H 0.42140 0.03750 0.12300
H48 H 0.49400 0.10930 0.07920
H49 H 0.40240 0.18190 0.08160
O1 O 0.13479(7) 0.24342(12) 0.20511(5)
O2 O 0.22783(8) -0.06374(13) 0.40450(6)
O3 O 0.30644(7) 0.03911(12) 0.48608(5)
O4 O 0.27878(10) 0.50618(14) 0.37883(7)
O5 O 0.32178(8) 0.57013(12) 0.27777(6)
O6 O 0.47456(8) 0.38815(13) 0.27240(6)
O7 O 0.39811(7) 0.24204(12) 0.20612(5)
#END
