
#######################################################################
#
#                 Cambridge Crystallographic Data Centre
#                                CCDC
#
#######################################################################
#
# If this CIF has been generated from an entry in the Cambridge
# Structural Database, then it will include bibliographic, chemical,
# crystal, experimental, refinement or atomic coordinate data resulting
# from the CCDC's data processing and validation procedures.
#
#######################################################################

data_CSD_CIF_WUQQIJ
_audit_creation_date 2010-07-26
_audit_creation_method CSD-ConQuest-V1
_database_code_CSD WUQQIJ
_database_code_depnum_ccdc_archive 'CCDC 780786'
_chemical_formula_sum 'C15 H23 N3 O4'
_chemical_formula_moiety
;
C15 H23 N3 O4
;
_journal_coden_Cambridge 4
_journal_volume 131
_journal_year 2009
_journal_page_first 11535
_journal_name_full 'J.Am.Chem.Soc. '
loop_
_publ_author_name
"V.Voskresenska"
"R.M.Wilson"
"M.Panov"
"A.N.Tarnovsky"
"J.A.Krause"
"S.Vyas"
"A.H.Winter"
"C.M.Hadad"
_chemical_name_systematic
;
N-(4-(Diethylamino)-2-isopropoxy-3-nitrophenyl)acetamide
;
_cell_volume   1735.763
_exptl_crystal_density_diffrn 1.184
_diffrn_ambient_temperature 150
#These two values have been output from a single CSD field.
_refine_ls_R_factor_gt 0.0399
_refine_ls_wR_factor_gt 0.0399
_symmetry_cell_setting monoclinic
_symmetry_space_group_name_H-M 'P 21/c'
_symmetry_Int_Tables_number 14
loop_
_symmetry_equiv_pos_site_id
_symmetry_equiv_pos_as_xyz
1 x,y,z
2 -x,1/2+y,1/2-z
3 -x,-y,-z
4 x,-1/2-y,-1/2+z
_cell_length_a 12.24121(3)
_cell_length_b 14.8600(4)
_cell_length_c 9.7185(2)
_cell_angle_alpha 90
_cell_angle_beta 100.931(1)
_cell_angle_gamma 90
_cell_formula_units_Z 4
loop_
_atom_type_symbol
_atom_type_radius_bond
C 0.68
H 0.23
N 0.68
O 0.68
loop_
_atom_site_label
_atom_site_type_symbol
_atom_site_fract_x
_atom_site_fract_y
_atom_site_fract_z
O1 O -0.1418(1) 0.2505(1) 0.5214(1)
O2 O 0.0279(1) 0.0876(1) 0.2129(1)
O3 O 0.2592(1) -0.0337(1) 0.3793(2)
O4 O 0.2737(1) 0.0577(1) 0.2103(1)
N1 N -0.0755(1) 0.2322(1) 0.3210(1)
N2 N 0.2453(1) 0.0391(1) 0.3207(2)
N3 N 0.3617(1) 0.1212(1) 0.5612(1)
C1 C 0.0343(1) 0.2070(1) 0.3834(2)
C2 C 0.0963(1) 0.2545(1) 0.4952(2)
C3 C 0.2030(1) 0.2286(1) 0.5546(2)
C4 C 0.2537(1) 0.1550(1) 0.5036(2)
C5 C 0.1915(1) 0.1110(1) 0.3876(2)
C6 C 0.0826(1) 0.1335(1) 0.3279(1)
C7 C -0.1569(1) 0.2513(1) 0.3931(2)
C8 C -0.2681(2) 0.2723(2) 0.3051(2)
C9 C -0.0626(1) 0.0280(1) 0.2385(2)
C10 C -0.1370(2) 0.0154(2) 0.0975(2)
C11 C -0.0141(2) -0.0580(1) 0.3050(2)
C12 C 0.3550(2) 0.0540(2) 0.6725(2)
C13 C 0.4539(2) -0.0088(2) 0.6990(4)
C14 C 0.4450(2) 0.1909(2) 0.6103(2)
C15 C 0.4637(2) 0.2520(2) 0.4934(3)
H1 H -0.0926(15) 0.2307(12) 0.236(2)
H2 H 0.0609(14) 0.3055(12) 0.5302(18)
H3 H 0.2453(15) 0.2619(12) 0.632(2)
H4 H -0.2904(18) 0.3296(15) 0.325(2)
H5 H -0.2680(18) 0.2740(14) 0.207(2)
H6 H -0.3229(19) 0.2307(15) 0.321(2)
H7 H -0.1032(14) 0.0604(12) 0.3005(18)
H8 H -0.1985(19) -0.0238(16) 0.105(2)
H9 H -0.0953(19) -0.0098(15) 0.033(2)
H10 H -0.1710(18) 0.0745(16) 0.062(2)
H11 H -0.0772(19) -0.0971(16) 0.321(2)
H12 H 0.0372(19) -0.0466(15) 0.401(3)
H13 H 0.027(2) -0.0890(15) 0.240(3)
H14 H 0.3463(17) 0.0847(14) 0.764(2)
H15 H 0.2887(19) 0.0161(14) 0.642(2)
H16 H 0.445(3) -0.054(2) 0.773(4)
H17 H 0.520(3) 0.028(2) 0.738(3)
H18 H 0.456(3) -0.036(2) 0.607(4)
H19 H 0.4280(18) 0.2265(14) 0.691(2)
H20 H 0.5128(19) 0.1554(14) 0.653(2)
H21 H 0.399(2) 0.2871(18) 0.456(3)
H22 H 0.526(2) 0.2950(18) 0.525(3)
H23 H 0.483(2) 0.2133(18) 0.419(3)
#END
