
#######################################################################
#
#                 Cambridge Crystallographic Data Centre
#                                CCDC
#
#######################################################################
#
# If this CIF has been generated from an entry in the Cambridge
# Structural Database, then it will include bibliographic, chemical,
# crystal, experimental, refinement or atomic coordinate data resulting
# from the CCDC's data processing and validation procedures.
#
#######################################################################

data_CSD_CIF_WUSHIB
_audit_creation_date 2003-05-15
_audit_creation_method CSD-ConQuest-V1
_database_code_CSD WUSHIB
_database_code_depnum_ccdc_archive 'CCDC 192012'
_chemical_formula_sum 'C12 H19 N3 O4'
_chemical_formula_moiety
;
C12 H19 N3 O4
;
_journal_coden_Cambridge 16
_journal_volume 59
_journal_year 2003
_journal_page_first 1059
_journal_name_full 'Tetrahedron '
loop_
_publ_author_name
"S.D.Shaposhnikov"
"S.V.Pirogov"
"S.F.Mel'nikova"
"I.V.Tselinsky"
"C.Nather"
"T.Graening"
"T.Traulsen"
"W.Friedrichsen"
_chemical_name_systematic
;
1-(4-(Pivaloyl)-2-oxido-1,2,5-oxadiazol-3-yl)-2,2-dimethylpropan-1-one oxime
;
_chemical_melting_point 374.15
_cell_volume   1454.917
_exptl_crystal_colour 'colorless'
_exptl_crystal_density_diffrn 1.229
_exptl_special_details
;
Melting point range 374.15-375.15K

;
_exptl_crystal_description 'block'
_diffrn_ambient_temperature 170
#These two values have been output from a single CSD field.
_refine_ls_R_factor_gt 0.0387
_refine_ls_wR_factor_gt 0.0387
_symmetry_cell_setting monoclinic
_symmetry_space_group_name_H-M 'P 21/c'
_symmetry_Int_Tables_number 14
loop_
_symmetry_equiv_pos_site_id
_symmetry_equiv_pos_as_xyz
1 x,y,z
2 x,1/2-y,1/2+z
3 -x,-y,-z
4 -x,-1/2+y,-1/2-z
_cell_length_a 6.268(1)
_cell_length_b 12.180(2)
_cell_length_c 19.137(4)
_cell_angle_alpha 90
_cell_angle_beta 95.23(3)
_cell_angle_gamma 90
_cell_formula_units_Z 4
loop_
_atom_type_symbol
_atom_type_radius_bond
C 0.68
H 0.23
N 0.68
O 0.68
loop_
_atom_site_label
_atom_site_type_symbol
_atom_site_fract_x
_atom_site_fract_y
_atom_site_fract_z
O1 O 0.96901(18) 0.17864(9) 0.29232(5)
O2 O 0.4424(2) 0.31847(13) 0.40306(7)
O3 O 0.56284(17) 0.03857(10) 0.42164(6)
H1 H 0.473(3) -0.0045(17) 0.4378(10)
O4 O 1.09241(18) 0.06182(10) 0.38188(6)
N1 N 0.9679(2) 0.13602(10) 0.36459(6)
N2 N 0.8121(2) 0.25595(11) 0.28294(6)
N3 N 0.64914(17) 0.09354(9) 0.48204(6)
C1 C 0.7223(2) 0.26346(11) 0.34182(7)
C2 C 0.8192(2) 0.19159(11) 0.39395(7)
C3 C 0.5311(2) 0.33447(13) 0.35094(7)
C4 C 0.4549(3) 0.41992(14) 0.29661(8)
C5 C 0.6387(4) 0.49727(17) 0.28275(13)
H2 H 0.69770 0.53030 0.32710
H3 H 0.58500 0.55530 0.25030
H4 H 0.75110 0.45580 0.26200
C6 C 0.3724(3) 0.3624(2) 0.22813(9)
H5 H 0.48980 0.32160 0.20970
H6 H 0.31770 0.41740 0.19370
H7 H 0.25700 0.31160 0.23730
C7 C 0.2716(4) 0.48313(19) 0.32572(12)
H8 H 0.15570 0.43210 0.33420
H9 H 0.21760 0.53900 0.29180
H10 H 0.32400 0.51870 0.36990
C8 C 0.7770(2) 0.1700(1) 0.46789(7)
C9 C 0.8962(2) 0.23663(12) 0.52638(7)
C10 C 1.1307(3) 0.19793(18) 0.53435(9)
H11 H 1.13590 0.11920 0.54510
H12 H 1.20990 0.23860 0.57260
H13 H 1.19590 0.21130 0.49050
C11 C 0.8878(4) 0.35889(13) 0.50737(9)
H14 H 0.95450 0.37040 0.46360
H15 H 0.96530 0.40130 0.54510
H16 H 0.73820 0.38320 0.50130
C12 C 0.7967(3) 0.21938(14) 0.59549(8)
H17 H 0.64570 0.24130 0.58980
H18 H 0.87340 0.26400 0.63230
H19 H 0.80720 0.14170 0.60870
#END
