
#######################################################################
#
#                 Cambridge Crystallographic Data Centre
#                                CCDC
#
#######################################################################
#
# If this CIF has been generated from an entry in the Cambridge
# Structural Database, then it will include bibliographic, chemical,
# crystal, experimental, refinement or atomic coordinate data resulting
# from the CCDC's data processing and validation procedures.
#
#######################################################################

data_CSD_CIF_WUSNAA
_audit_creation_date 2010-10-28
_audit_creation_method CSD-ConQuest-V1
_database_code_CSD WUSNAA
_database_code_depnum_ccdc_archive 'CCDC 745789'
_chemical_formula_sum 'C26 H31 N1 O3'
_chemical_formula_moiety
;
C26 H31 N1 O3
;
_journal_coden_Cambridge 16
_journal_volume 66
_journal_year 2010
_journal_page_first 4167
_journal_name_full 'Tetrahedron '
loop_
_publ_author_name
"A.N.Chernega"
"S.G.Davies"
"A.M.Fletcher"
"C.J.Goodwin"
"D.Hepworth"
"R.S.Prasad"
"P.M.Roberts"
"E.D.Savory"
"A.D.Smith"
"J.E.Thomson"
_chemical_name_systematic
;
(S,S)-N-t-Butoxy-N-((R)-1-(1-naphthyl)ethyl)-3-hydroxy-2-methyl-3-phenylpropan
amide
;
_chemical_melting_point 410.15
_cell_volume   2353.875
_exptl_crystal_colour 'colorless'
_exptl_special_details
;
Melting point range 410.15-411.15K
Absolute configuration

;
_exptl_crystal_description 'prism'
_exptl_crystal_preparation 'pentane'
_diffrn_ambient_temperature 190
#These two values have been output from a single CSD field.
_refine_ls_R_factor_gt 0.041
_refine_ls_wR_factor_gt 0.041
_symmetry_cell_setting orthorhombic
_symmetry_space_group_name_H-M 'P 21 21 21'
_symmetry_Int_Tables_number 19
loop_
_symmetry_equiv_pos_site_id
_symmetry_equiv_pos_as_xyz
1 x,y,z
2 1/2+x,1/2-y,-z
3 -x,1/2+y,1/2-z
4 1/2-x,-y,1/2+z
_cell_length_a 9.0403(5)
_cell_length_b 11.4794(4)
_cell_length_c 22.682(2)
_cell_angle_alpha 90
_cell_angle_beta 90
_cell_angle_gamma 90
_cell_formula_units_Z 4
loop_
_atom_type_symbol
_atom_type_radius_bond
C 0.68
H 0.23
N 0.68
O 0.68
loop_
_atom_site_label
_atom_site_type_symbol
_atom_site_fract_x
_atom_site_fract_y
_atom_site_fract_z
O1 O -0.0076(2) -0.4603(1) -0.30520(6)
O2 O 0.2050(2) -0.2935(2) -0.20979(7)
O3 O 0.0417(2) -0.2654(2) -0.10908(8)
N1 N 0.1115(2) -0.3886(2) -0.28783(8)
C1 C 0.3277(2) -0.3246(2) -0.3507(1)
C2 C 0.3308(3) -0.2122(2) -0.3289(1)
C3 C 0.4122(4) -0.1237(2) -0.3584(2)
C4 C 0.4907(3) -0.1483(3) -0.4074(1)
C5 C 0.4910(3) -0.2611(2) -0.4314(1)
C6 C 0.4054(3) -0.3501(2) -0.4038(1)
C7 C 0.4049(3) -0.4615(2) -0.4313(1)
C8 C 0.4841(4) -0.4815(3) -0.4817(1)
C9 C 0.5727(4) -0.3957(4) -0.5064(1)
C10 C 0.5756(4) -0.2885(4) -0.4823(1)
C11 C 0.2544(2) -0.4216(2) -0.3162(1)
C12 C 0.3626(3) -0.4778(2) -0.2725(1)
C13 C -0.0983(3) -0.4137(2) -0.3538(1)
C14 C -0.1215(5) -0.2847(3) -0.3480(2)
C15 C -0.2371(3) -0.4830(3) -0.3471(1)
C16 C -0.0235(4) -0.4427(3) -0.4123(1)
C17 C 0.0998(2) -0.3466(2) -0.23212(9)
C18 C -0.0409(2) -0.3680(2) -0.19793(9)
C19 C -0.0278(4) -0.4867(2) -0.1676(1)
C20 C -0.0677(3) -0.2679(2) -0.1539(1)
C21 C -0.2184(3) -0.2784(2) -0.12537(9)
C22 C -0.2346(3) -0.2970(3) -0.0656(1)
C23 C -0.3741(4) -0.3079(3) -0.0408(1)
C24 C -0.4976(4) -0.2986(3) -0.0754(2)
C25 C -0.4836(3) -0.2779(3) -0.1347(2)
C26 C -0.3446(3) -0.2678(3) -0.1594(1)
H1 H 0.132(4) -0.270(3) -0.133(1)
H2 H 0.27650 -0.19420 -0.28990
H3 H 0.40880 -0.04030 -0.34080
H4 H 0.55650 -0.08220 -0.42660
H5 H 0.34710 -0.52600 -0.41170
H6 H 0.47280 -0.56210 -0.50250
H7 H 0.63950 -0.41430 -0.54230
H8 H 0.63900 -0.22450 -0.50140
H9 H 0.22060 -0.48020 -0.34780
H10 H 0.31630 -0.54410 -0.24920
H11 H 0.45200 -0.51170 -0.29380
H12 H 0.40050 -0.41880 -0.24320
H13 H -0.18580 -0.25060 -0.37970
H14 H -0.02710 -0.23950 -0.34580
H15 H -0.17720 -0.26740 -0.30830
H16 H -0.31270 -0.46360 -0.37920
H17 H -0.21580 -0.57110 -0.35210
H18 H -0.28400 -0.47190 -0.30820
H19 H -0.07970 -0.41240 -0.44680
H20 H -0.00910 -0.52920 -0.41690
H21 H 0.08020 -0.40570 -0.41360
H22 H -0.13110 -0.36640 -0.22560
H23 H -0.11840 -0.50580 -0.14320
H24 H -0.01140 -0.55160 -0.19640
H25 H 0.06020 -0.48620 -0.13920
H26 H -0.05960 -0.19030 -0.17600
H27 H -0.14080 -0.29830 -0.03860
H28 H -0.38390 -0.31990 0.00380
H29 H -0.60270 -0.31040 -0.05620
H30 H -0.57620 -0.27000 -0.16100
H31 H -0.33360 -0.24940 -0.20370
#END
