
#######################################################################
#
#                 Cambridge Crystallographic Data Centre
#                                CCDC
#
#######################################################################
#
# If this CIF has been generated from an entry in the Cambridge
# Structural Database, then it will include bibliographic, chemical,
# crystal, experimental, refinement or atomic coordinate data resulting
# from the CCDC's data processing and validation procedures.
#
#######################################################################

data_CSD_CIF_WUSVOW
_audit_creation_date 2010-08-06
_audit_creation_method CSD-ConQuest-V1
_database_code_CSD WUSVOW
_database_code_depnum_ccdc_archive 'CCDC 755559'
_chemical_formula_sum 'C25 H22 N2 O6'
_chemical_formula_moiety
;
C25 H22 N2 O6
;
_journal_coden_Cambridge 182
_journal_volume 46
_journal_year 2010
_journal_page_first 2504
_journal_name_full 'Chem.Commun. '
loop_
_publ_author_name
"Zhen-Jiang Xu"
"Di Zhu"
"Xiaofei Zeng"
"Fei Wang"
"Bin Tan"
"Yuxuan Hou"
"Yunbo Lv"
"Guofu Zhong"
_chemical_name_systematic
;
Ethyl 4-benzoyl-5-(4-nitrophenyl)-2-phenyl-1,2-oxazolidine-3-carboxylate
;
_cell_volume   2251.653
_exptl_crystal_colour 'colorless'
_exptl_crystal_density_diffrn 1.317
_exptl_crystal_description 'block'
_diffrn_ambient_temperature 296
#These two values have been output from a single CSD field.
_refine_ls_R_factor_gt 0.05
_refine_ls_wR_factor_gt 0.05
_symmetry_cell_setting orthorhombic
_symmetry_space_group_name_H-M 'P 21 21 21'
_symmetry_Int_Tables_number 19
loop_
_symmetry_equiv_pos_site_id
_symmetry_equiv_pos_as_xyz
1 x,y,z
2 1/2-x,-y,1/2+z
3 -x,1/2+y,1/2-z
4 1/2+x,1/2-y,-z
_cell_length_a 8.8851(3)
_cell_length_b 12.8368(5)
_cell_length_c 19.7416(9)
_cell_angle_alpha 90
_cell_angle_beta 90
_cell_angle_gamma 90
_cell_formula_units_Z 4
loop_
_atom_type_symbol
_atom_type_radius_bond
C 0.68
H 0.23
N 0.68
O 0.68
loop_
_atom_site_label
_atom_site_type_symbol
_atom_site_fract_x
_atom_site_fract_y
_atom_site_fract_z
C1 C -0.2243(8) 0.2233(5) 0.2743(3)
H1 H -0.14320 0.18170 0.26200
C2 C -0.3474(7) 0.1784(5) 0.3050(3)
H2 H -0.35030 0.10710 0.31320
C3 C -0.4643(8) 0.2404(6) 0.3231(3)
C4 C -0.4664(8) 0.3447(6) 0.3102(4)
H3 H -0.54860 0.38530 0.32250
C5 C -0.3434(7) 0.3883(5) 0.2785(3)
H4 H -0.34370 0.45910 0.26850
C6 C -0.2191(7) 0.3284(4) 0.2614(3)
C7 C -0.0881(6) 0.3792(4) 0.2291(3)
H5 H -0.10430 0.45460 0.22640
C8 C 0.0682(7) 0.3561(4) 0.2609(3)
H6 H 0.06280 0.29200 0.28780
C9 C 0.1210(7) 0.4461(4) 0.3058(3)
C10 C 0.0323(7) 0.4742(4) 0.3663(3)
C11 C -0.0563(8) 0.4035(5) 0.4005(3)
H7 H -0.06140 0.33480 0.38580
C12 C -0.1381(9) 0.4350(6) 0.4571(3)
H8 H -0.19760 0.38700 0.48010
C13 C -0.1317(10) 0.5355(7) 0.4792(4)
H9 H -0.18590 0.55560 0.51730
C14 C -0.0462(10) 0.6063(6) 0.4456(3)
H10 H -0.04490 0.67530 0.45990
C15 C 0.0393(9) 0.5763(5) 0.3900(3)
H11 H 0.10140 0.62450 0.36870
C16 C 0.1721(7) 0.3388(4) 0.1992(3)
H12 H 0.25220 0.39120 0.19960
C17 C 0.2414(8) 0.2315(5) 0.1966(3)
C18 C 0.4319(9) 0.1349(5) 0.1385(4)
H13 H 0.36220 0.07940 0.12730
H14 H 0.48700 0.11520 0.17890
C19 C 0.5383(11) 0.1535(7) 0.0809(4)
H15 H 0.48200 0.16760 0.04040
H16 H 0.59950 0.09280 0.07420
H17 H 0.60150 0.21200 0.09120
C20 C 0.0922(7) 0.4508(4) 0.1043(3)
C21 C 0.2318(9) 0.4703(5) 0.0743(3)
H18 H 0.31050 0.42320 0.07930
C22 C 0.2515(9) 0.5588(6) 0.0376(3)
H19 H 0.34510 0.57220 0.01840
C23 C 0.1367(10) 0.6287(6) 0.0283(4)
H20 H 0.15180 0.68830 0.00240
C24 C -0.0015(9) 0.6097(5) 0.0578(4)
H21 H -0.07950 0.65740 0.05250
C25 C -0.0241(8) 0.5206(5) 0.0947(3)
H22 H -0.11820 0.50720 0.11340
N1 N -0.5949(7) 0.1912(6) 0.3571(3)
N2 N 0.0772(6) 0.3538(4) 0.1383(2)
O1 O -0.5956(7) 0.0974(5) 0.3648(3)
O2 O -0.6981(7) 0.2505(5) 0.3754(3)
O3 O -0.0748(5) 0.3362(3) 0.16208(19)
O4 O 0.2322(5) 0.4978(3) 0.2901(2)
O5 O 0.2083(6) 0.1581(3) 0.2297(2)
O6 O 0.3504(5) 0.2320(3) 0.1499(2)
#END
