
#######################################################################
#
#                 Cambridge Crystallographic Data Centre
#                                CCDC
#
#######################################################################
#
# If this CIF has been generated from an entry in the Cambridge
# Structural Database, then it will include bibliographic, chemical,
# crystal, experimental, refinement or atomic coordinate data resulting
# from the CCDC's data processing and validation procedures.
#
#######################################################################

data_CSD_CIF_WUSVIQ
_audit_creation_date 2010-08-06
_audit_creation_method CSD-ConQuest-V1
_database_code_CSD WUSVIQ
_database_code_depnum_ccdc_archive 'CCDC 755558'
_chemical_formula_sum 'C16 H19 N1 O7'
_chemical_formula_moiety
;
C16 H19 N1 O7
;
_journal_coden_Cambridge 182
_journal_volume 46
_journal_year 2010
_journal_page_first 2504
_journal_name_full 'Chem.Commun. '
loop_
_publ_author_name
"Zhen-Jiang Xu"
"Di Zhu"
"Xiaofei Zeng"
"Fei Wang"
"Bin Tan"
"Yuxuan Hou"
"Yunbo Lv"
"Guofu Zhong"
_chemical_name_systematic
;
3-Ethyl 4,5-dimethyl 2-phenyl-1,2-oxazolidine-3,4,5-tricarboxylate
;
_cell_volume   3266.796
_exptl_crystal_colour 'colorless'
_exptl_crystal_density_diffrn 1.372
_exptl_crystal_description 'block'
_diffrn_ambient_temperature 173
#These two values have been output from a single CSD field.
_refine_ls_R_factor_gt 0.0463
_refine_ls_wR_factor_gt 0.0463
_symmetry_cell_setting orthorhombic
_symmetry_space_group_name_H-M 'P b c a'
_symmetry_Int_Tables_number 61
loop_
_symmetry_equiv_pos_site_id
_symmetry_equiv_pos_as_xyz
1 x,y,z
2 1/2-x,-y,1/2+z
3 -x,1/2+y,1/2-z
4 1/2+x,1/2-y,-z
5 -x,-y,-z
6 -1/2+x,y,-1/2-z
7 x,-1/2-y,-1/2+z
8 -1/2-x,-1/2+y,z
_cell_length_a 9.0084(2)
_cell_length_b 19.0142(5)
_cell_length_c 19.0720(5)
_cell_angle_alpha 90
_cell_angle_beta 90
_cell_angle_gamma 90
_cell_formula_units_Z 8
loop_
_atom_type_symbol
_atom_type_radius_bond
C 0.68
H 0.23
N 0.68
O 0.68
loop_
_atom_site_label
_atom_site_type_symbol
_atom_site_fract_x
_atom_site_fract_y
_atom_site_fract_z
C1 C 0.87692(12) 0.07815(5) 0.36372(5)
C2 C 0.80401(14) 0.09722(6) 0.30194(6)
H1 H 0.83810 0.13620 0.27530
C3 C 0.68142(15) 0.05894(7) 0.27961(7)
H2 H 0.63180 0.07190 0.23760
C4 C 0.63102(15) 0.00195(7) 0.31831(8)
H3 H 0.54610 -0.02360 0.30340
C5 C 0.70537(15) -0.01732(6) 0.37885(7)
H4 H 0.67140 -0.05650 0.40520
C6 C 0.82914(13) 0.01994(6) 0.40158(6)
H5 H 0.88070 0.00570 0.44270
C7 C 1.02211(12) 0.14864(5) 0.50039(5)
H6 H 1.09270 0.14880 0.54080
C8 C 0.86561(12) 0.13335(5) 0.52561(5)
C9 C 0.72093(18) 0.05685(9) 0.59444(9)
H7 H 0.66320 0.09640 0.61290
H8 H 0.73300 0.02120 0.63110
H9 H 0.66880 0.03620 0.55430
C10 C 1.03610(11) 0.21658(5) 0.45878(5)
H10 H 1.14430 0.22810 0.45610
C11 C 0.95799(12) 0.28149(5) 0.48507(5)
C12 C 0.93685(15) 0.35671(7) 0.58274(7)
H11 H 1.00750 0.39210 0.56590
H12 H 0.94060 0.35460 0.63410
H13 H 0.83640 0.36950 0.56780
C13 C 0.98704(12) 0.19540(5) 0.38521(5)
H14 H 0.88050 0.20810 0.37770
C14 C 1.08452(14) 0.23069(6) 0.32974(6)
C15 C 1.0897(2) 0.27391(8) 0.21307(6)
H15 H 1.05410 0.25630 0.16720
H16 H 1.19770 0.26480 0.21610
C16 C 1.0617(3) 0.34986(10) 0.2183(1)
H17 H 0.95460 0.35860 0.21600
H18 H 1.11120 0.37410 0.17950
H19 H 1.10060 0.36750 0.26300
N1 N 1.00605(10) 0.11777(5) 0.38258(4)
O1 O 1.06537(9) 0.09621(4) 0.44975(4)
O2 O 0.75675(9) 0.16245(4) 0.50340(4)
O3 O 0.86539(10) 0.08154(5) 0.57228(5)
O4 O 0.89504(11) 0.32298(5) 0.44771(5)
O5 O 0.97541(9) 0.28857(4) 0.55395(4)
O6 O 1.20783(12) 0.25074(8) 0.33981(6)
O7 O 1.01314(13) 0.23691(6) 0.26961(4)
#END
