
#######################################################################
#
#                 Cambridge Crystallographic Data Centre
#                                CCDC
#
#######################################################################
#
# If this CIF has been generated from an entry in the Cambridge
# Structural Database, then it will include bibliographic, chemical,
# crystal, experimental, refinement or atomic coordinate data resulting
# from the CCDC's data processing and validation procedures.
#
#######################################################################

data_CSD_CIF_WUTWUF
_audit_creation_date 2015-10-14
_audit_creation_method CSD-ConQuest-V1
_database_code_CSD WUTWUF
_database_code_depnum_ccdc_archive 'CCDC 984697'
_chemical_formula_sum 'C13 H13 N1 O3'
_chemical_formula_moiety
;
C13 H13 N1 O3
;
_journal_coden_Cambridge 35
_journal_volume 80
_journal_year 2015
_journal_page_first 9518
_journal_name_full 'J.Org.Chem. '
loop_
_publ_author_name
"Duangduan Chaiyaveij"
"A.S.Batsanov"
"M.A.Fox"
"T.B.Marder"
"Andrew Whiting"
_chemical_name_systematic
;
Phenyl 2-oxa-3-azabicyclo[2.2.2]oct-5-ene-3-carboxylate
;
_chemical_melting_point 401
_cell_volume   1102.320
_exptl_crystal_colour 'colorless'
_exptl_crystal_density_diffrn 1.393
_exptl_crystal_description 'tablet'
_exptl_crystal_preparation 'ether/hexane'
_diffrn_ambient_temperature 120
_refine_special_details
;
C3,C4,C6,C7,N1,O3 disordered by symmetry over two configurations with 
occupancy 0.50.
;
#These two values have been output from a single CSD field.
_refine_ls_R_factor_gt 0.0415
_refine_ls_wR_factor_gt 0.0415
_symmetry_cell_setting orthorhombic
_symmetry_space_group_name_H-M 'P n m a'
_symmetry_Int_Tables_number 62
loop_
_symmetry_equiv_pos_site_id
_symmetry_equiv_pos_as_xyz
1 x,y,z
2 1/2-x,-y,1/2+z
3 1/2+x,1/2-y,1/2-z
4 -x,1/2+y,-z
5 -x,-y,-z
6 -1/2+x,y,-1/2-z
7 -1/2-x,-1/2+y,-1/2+z
8 x,-1/2-y,z
_cell_length_a 7.6572(6)
_cell_length_b 9.1842(8)
_cell_length_c 15.6746(12)
_cell_angle_alpha 90
_cell_angle_beta 90
_cell_angle_gamma 90
_cell_formula_units_Z 4
loop_
_atom_type_symbol
_atom_type_radius_bond
C 0.68
H 0.23
N 0.68
O 0.68
loop_
_atom_site_label
_atom_site_type_symbol
_atom_site_fract_x
_atom_site_fract_y
_atom_site_fract_z
O1 O 0.28986(12) 0.25000 0.54316(6)
O2 O 0.43194(12) 0.25000 0.41518(6)
O3 O 0.13461(16) 0.2719(7) 0.33304(8)
N1 N 0.13732(18) 0.28168(16) 0.42402(9)
C1 C 0.29821(16) 0.25000 0.45582(8)
C2 C -0.04739(18) 0.25000 0.30531(9)
H1 H -0.05390 0.25000 0.24170
C3 C -0.1555(5) 0.3804(6) 0.3380(3)
H2 H -0.27600 0.37400 0.31540
H3 H -0.10300 0.47250 0.31740
C4 C -0.1562(4) 0.3743(4) 0.4353(2)
H4 H -0.11470 0.46860 0.45820
H5 H -0.27640 0.35690 0.45620
C5 C -0.03400(16) 0.25000 0.46436(8)
H6 H -0.01560 0.25000 0.52620
C6 C -0.1017(4) 0.1115(5) 0.4294(3)
H7 H -0.13500 0.03190 0.46450
C7 C -0.1091(5) 0.1131(6) 0.3442(4)
H8 H -0.15280 0.03270 0.31270
C8 C 0.45252(16) 0.25000 0.58530(8)
C9 C 0.52751(13) 0.11850(12) 0.60714(6)
H9 H 0.47340 0.02930 0.59160
C10 C 0.68446(14) 0.11914(13) 0.65236(7)
H10 H 0.73820 0.02970 0.66770
C11 C 0.7621(2) 0.25000 0.67494(9)
H11 H 0.86870 0.25000 0.70600
O3G O 0.13461(16) 0.2281(7) 0.33304(8)
N1G N 0.13732(18) 0.21832(16) 0.42402(9)
C3G C -0.1555(5) 0.1196(6) 0.3380(3)
H2G H -0.27600 0.12600 0.31540
H3G H -0.10300 0.02750 0.31740
C4G C -0.1562(4) 0.1257(4) 0.4353(2)
H4G H -0.11470 0.03140 0.45820
H5G H -0.27640 0.14310 0.45620
C6G C -0.1017(4) 0.3885(5) 0.4294(3)
H7G H -0.13500 0.46810 0.46450
C7G C -0.1091(5) 0.3869(6) 0.3442(4)
H8G H -0.15280 0.46730 0.31270
C9G C 0.52751(13) 0.38150(12) 0.60714(6)
H9G H 0.47340 0.47070 0.59160
C10G C 0.68446(14) 0.38086(13) 0.65236(7)
H10G H 0.73820 0.47030 0.66770
#END
