
#######################################################################
#
#                 Cambridge Crystallographic Data Centre
#                                CCDC
#
#######################################################################
#
# If this CIF has been generated from an entry in the Cambridge
# Structural Database, then it will include bibliographic, chemical,
# crystal, experimental, refinement or atomic coordinate data resulting
# from the CCDC's data processing and validation procedures.
#
#######################################################################

data_CSD_CIF_WUTXEQ
_audit_creation_date 2015-10-14
_audit_creation_method CSD-ConQuest-V1
_database_code_CSD WUTXEQ
_database_code_depnum_ccdc_archive 'CCDC 984699'
_chemical_formula_sum 'C13 H14 N2 O2'
_chemical_formula_moiety
;
C13 H14 N2 O2
;
_journal_coden_Cambridge 35
_journal_volume 80
_journal_year 2015
_journal_page_first 9518
_journal_name_full 'J.Org.Chem. '
loop_
_publ_author_name
"Duangduan Chaiyaveij"
"A.S.Batsanov"
"M.A.Fox"
"T.B.Marder"
"Andrew Whiting"
_chemical_name_systematic
;
N-Phenyl-2-oxa-3-azabicyclo[2.2.2]oct-5-ene-3-carboxamide
;
_chemical_melting_point 376
_cell_volume   1155.222
_exptl_crystal_colour 'colorless'
_exptl_crystal_density_diffrn 1.324
_exptl_crystal_description 'block'
_exptl_crystal_preparation 'ether'
_diffrn_ambient_temperature 120
#These two values have been output from a single CSD field.
_refine_ls_R_factor_gt 0.0321
_refine_ls_wR_factor_gt 0.0321
_symmetry_cell_setting orthorhombic
_symmetry_space_group_name_H-M 'P n a 21'
_symmetry_Int_Tables_number 33
loop_
_symmetry_equiv_pos_site_id
_symmetry_equiv_pos_as_xyz
1 x,y,z
2 -x,-y,1/2+z
3 1/2-x,1/2+y,1/2+z
4 1/2+x,1/2-y,z
_cell_length_a 10.0933(6)
_cell_length_b 8.9883(5)
_cell_length_c 12.7337(8)
_cell_angle_alpha 90
_cell_angle_beta 90
_cell_angle_gamma 90
_cell_formula_units_Z 4
loop_
_atom_type_symbol
_atom_type_radius_bond
C 0.68
H 0.23
N 0.68
O 0.68
loop_
_atom_site_label
_atom_site_type_symbol
_atom_site_fract_x
_atom_site_fract_y
_atom_site_fract_z
O1 O 0.59198(9) 0.06671(11) 0.1719(1)
O2 O 0.28667(10) 0.20501(12) 0.25601(10)
N1 N 0.4515(1) 0.09376(12) 0.16464(10)
N2 N 0.50056(10) 0.28178(12) 0.28544(10)
H1 H 0.5860(18) 0.262(2) 0.2716(16)
C1 C 0.40617(12) 0.19487(14) 0.24079(10)
C2 C 0.61864(15) -0.09363(16) 0.18159(13)
H2 H 0.71500 -0.11120 0.19480
C3 C 0.57704(16) -0.16479(19) 0.07812(14)
H3 H 0.59190 -0.27360 0.08060
H4 H 0.62950 -0.12300 0.01940
C4 C 0.42909(16) -0.1311(2) 0.06218(14)
H5 H 0.41690 -0.06940 -0.00150
H6 H 0.37950 -0.22520 0.05250
C5 C 0.37624(13) -0.04832(15) 0.15831(12)
H7 H 0.27890 -0.02940 0.15190
C6 C 0.40715(18) -0.13485(17) 0.25641(14)
H8 H 0.34170 -0.17060 0.30370
C7 C 0.5377(2) -0.15584(19) 0.26948(14)
H9 H 0.57490 -0.20520 0.32850
C8 C 0.47764(13) 0.39920(14) 0.35715(10)
C9 C 0.35269(13) 0.46030(15) 0.37636(11)
H10 H 0.27710 0.42410 0.34000
C10 C 0.34021(16) 0.57494(16) 0.44938(12)
H11 H 0.25540 0.61710 0.46200
C11 C 0.44869(18) 0.62884(17) 0.50402(13)
H12 H 0.43840 0.70640 0.55410
C12 C 0.57291(17) 0.56776(18) 0.48457(13)
H13 H 0.64800 0.60390 0.52160
C13 C 0.58802(14) 0.45444(16) 0.41145(12)
H14 H 0.67340 0.41420 0.39820
#END
