
#######################################################################
#
#                 Cambridge Crystallographic Data Centre
#                                CCDC
#
#######################################################################
#
# If this CIF has been generated from an entry in the Cambridge
# Structural Database, then it will include bibliographic, chemical,
# crystal, experimental, refinement or atomic coordinate data resulting
# from the CCDC's data processing and validation procedures.
#
#######################################################################

data_CSD_CIF_WUTXUG
_audit_creation_date 2015-10-14
_audit_creation_method CSD-ConQuest-V1
_database_code_CSD WUTXUG
_database_code_depnum_ccdc_archive 'CCDC 984702'
_chemical_formula_sum 'C12 H14 N2 O2'
_chemical_formula_moiety
;
C12 H14 N2 O2
;
_journal_coden_Cambridge 35
_journal_volume 80
_journal_year 2015
_journal_page_first 9518
_journal_name_full 'J.Org.Chem. '
loop_
_publ_author_name
"Duangduan Chaiyaveij"
"A.S.Batsanov"
"M.A.Fox"
"T.B.Marder"
"Andrew Whiting"
_chemical_name_systematic
;
(4,5-Dimethyl-3,6-dihydro-2H-1,2-oxazin-2-yl)(pyridin-2-yl)methanone
;
_chemical_melting_point 369
_cell_volume    542.281
_exptl_crystal_density_diffrn 1.337
_exptl_crystal_description 'plate'
_exptl_crystal_preparation 'diethyl ether/hexane'
_diffrn_ambient_temperature 156
#These two values have been output from a single CSD field.
_refine_ls_R_factor_gt 0.0399
_refine_ls_wR_factor_gt 0.0399
_symmetry_cell_setting triclinic
_symmetry_space_group_name_H-M 'P -1'
_symmetry_Int_Tables_number 2
loop_
_symmetry_equiv_pos_site_id
_symmetry_equiv_pos_as_xyz
1 x,y,z
2 -x,-y,-z
_cell_length_a 7.7458(6)
_cell_length_b 8.3388(6)
_cell_length_c 9.2703(7)
_cell_angle_alpha 77.293(3)
_cell_angle_beta 68.194(3)
_cell_angle_gamma 84.734(3)
_cell_formula_units_Z 2
loop_
_atom_type_symbol
_atom_type_radius_bond
C 0.68
H 0.23
N 0.68
O 0.68
loop_
_atom_site_label
_atom_site_type_symbol
_atom_site_fract_x
_atom_site_fract_y
_atom_site_fract_z
O1 O 0.57216(16) 0.46355(13) 0.33533(14)
O2 O 0.33360(17) 0.83361(14) 0.38054(16)
N1 N 0.7881(2) 0.75414(17) 0.16861(18)
N2 N 0.43694(19) 0.58558(17) 0.32450(17)
C1 C 0.2580(2) 0.5174(2) 0.3578(2)
H1 H 0.17240 0.60640 0.33490
H2 H 0.20380 0.46490 0.47140
C2 C 0.4477(2) 0.3328(2) 0.1831(2)
C3 C 0.6171(2) 0.3850(2) 0.2029(2)
H3 H 0.69620 0.28710 0.21720
H4 H 0.68990 0.46150 0.10510
C4 C 0.6594(2) 0.78555(19) 0.3037(2)
C5 C 0.2801(2) 0.3918(2) 0.2569(2)
C6 C 0.6957(3) 0.8710(2) 0.4013(2)
H5 H 0.59980 0.89130 0.49540
C7 C 0.4631(2) 0.7362(2) 0.3428(2)
C8 C 0.9590(3) 0.8109(2) 0.1303(2)
H6 H 1.05250 0.79100 0.03480
C9 C 0.8738(3) 0.9263(2) 0.3596(2)
H7 H 0.90320 0.98380 0.42510
C10 C 0.4903(3) 0.2104(2) 0.0766(2)
H8 H 0.60050 0.24550 -0.01800
H9 H 0.38410 0.20400 0.04490
H10 H 0.51400 0.10210 0.13360
C11 C 0.0998(3) 0.3434(2) 0.2540(2)
H11 H 0.02080 0.29050 0.36110
H12 H 0.12450 0.26640 0.18230
H13 H 0.03620 0.44150 0.21660
C12 C 1.0078(3) 0.8963(2) 0.2208(2)
H14 H 1.13140 0.93360 0.18810
#END
