
#######################################################################
#
#                 Cambridge Crystallographic Data Centre
#                                CCDC
#
#######################################################################
#
# If this CIF has been generated from an entry in the Cambridge
# Structural Database, then it will include bibliographic, chemical,
# crystal, experimental, refinement or atomic coordinate data resulting
# from the CCDC's data processing and validation procedures.
#
#######################################################################

data_CSD_CIF_WUTXAL
_audit_creation_date 2010-11-12
_audit_creation_method CSD-ConQuest-V1
_database_code_CSD WUTXAL
_database_code_depnum_ccdc_archive 'CCDC 738925'
_chemical_formula_sum 'C24 H27 N1 O5'
_chemical_formula_moiety
;
C24 H27 N1 O5
;
_journal_coden_Cambridge 151
_journal_volume 52
_journal_year 2009
_journal_page_first 5950
_journal_name_full 'J.Med.Chem. '
loop_
_publ_author_name
"C.E.Wagner"
"P.W.Jurutka"
"P.A.Marshall"
"T.L.Groy"
"A.van der Vaart"
"J.W.Ziller"
"J.K.Furmick"
"M.E.Graeber"
"E.Matro"
"B.V.Miguel"
"I.T.Tran"
"Jungeun Kwon"
"J.N.Tedeschi"
"S.Moosavi"
"A.Danishyar"
"J.S.Philp"
"R.O.Khamees"
"J.N.Jackson"
"D.K.Grupe"
"S.L.Badshah"
"J.W.Hart"
_chemical_name_systematic
;
Methyl 
2-nitro-4-((3,5,5,8,8-pentamethyl-5,6,7,8-tetrahydronaphthalen-2-yl)carbonyl)b
enzoate
;
_cell_volume   4214.312
_exptl_crystal_colour 'colorless'
_exptl_crystal_density_diffrn 1.291
_exptl_crystal_description 'plate'
_diffrn_ambient_temperature 173
#These two values have been output from a single CSD field.
_refine_ls_R_factor_gt 0.0462
_refine_ls_wR_factor_gt 0.0462
_symmetry_cell_setting orthorhombic
_symmetry_space_group_name_H-M 'P b c a'
_symmetry_Int_Tables_number 61
loop_
_symmetry_equiv_pos_site_id
_symmetry_equiv_pos_as_xyz
1 x,y,z
2 1/2-x,-y,1/2+z
3 -x,1/2+y,1/2-z
4 1/2+x,1/2-y,-z
5 -x,-y,-z
6 -1/2+x,y,-1/2-z
7 x,-1/2-y,-1/2+z
8 -1/2-x,-1/2+y,z
_cell_length_a 15.3267(7)
_cell_length_b 11.1999(5)
_cell_length_c 24.5507(10)
_cell_angle_alpha 90
_cell_angle_beta 90
_cell_angle_gamma 90
_cell_formula_units_Z 8
loop_
_atom_type_symbol
_atom_type_radius_bond
C 0.68
H 0.23
N 0.68
O 0.68
loop_
_atom_site_label
_atom_site_type_symbol
_atom_site_fract_x
_atom_site_fract_y
_atom_site_fract_z
O1 O -0.01491(10) 0.86961(15) 0.37982(6)
O2 O 0.12402(10) 0.83381(14) 0.37956(6)
O3 O 0.12131(9) 1.06393(12) 0.43467(6)
O4 O 0.20021(9) 1.05477(12) 0.51149(5)
O5 O -0.10801(9) 0.56447(13) 0.52415(6)
N1 N 0.05424(11) 0.84716(14) 0.40252(6)
C1 C 0.05152(11) 0.82894(16) 0.46187(7)
C2 C 0.09648(11) 0.90500(16) 0.49730(7)
C3 C 0.09358(11) 0.87747(16) 0.55229(7)
H1 H 0.12190 0.92840 0.57770
C4 C 0.05002(11) 0.77659(16) 0.57095(7)
H2 H 0.05090 0.75760 0.60870
C5 C 0.00529(11) 0.70347(16) 0.53505(7)
C6 C 0.00575(11) 0.73104(16) 0.47955(7)
H3 H -0.02520 0.68260 0.45440
C7 C -0.04902(12) 0.59920(16) 0.55332(8)
C8 C -0.02911(12) 0.53982(15) 0.60610(7)
C9 C 0.05720(12) 0.50798(15) 0.61739(7)
H4 H 0.10160 0.53370 0.59310
C10 C 0.08104(11) 0.44053(15) 0.66246(7)
C11 C 0.17723(12) 0.40506(16) 0.66912(8)
C12 C 0.19296(13) 0.34584(19) 0.72445(9)
H5 H 0.24810 0.30000 0.72280
H6 H 0.19990 0.40880 0.75240
C13 C 0.12004(12) 0.26303(18) 0.74154(8)
H7 H 0.13620 0.22300 0.77600
H8 H 0.11220 0.20060 0.71340
C14 C 0.03352(12) 0.33035(16) 0.74949(7)
C15 C 0.01490(11) 0.40492(15) 0.69858(7)
C16 C -0.07041(12) 0.44188(16) 0.68807(7)
H9 H -0.11430 0.42080 0.71360
C17 C -0.09508(12) 0.50735(16) 0.64280(8)
C18 C 0.13958(11) 1.01571(16) 0.47663(8)
C19 C 0.24570(14) 1.16214(18) 0.49514(9)
H10 H 0.28850 1.18380 0.52310
H11 H 0.20370 1.22740 0.49070
H12 H 0.27580 1.14800 0.46050
C20 C 0.20142(13) 0.31893(17) 0.62309(8)
H13 H 0.16430 0.24790 0.62510
H14 H 0.26270 0.29540 0.62680
H15 H 0.19280 0.35850 0.58790
C21 C 0.23596(13) 0.51571(18) 0.66510(9)
H16 H 0.21670 0.57560 0.69160
H17 H 0.23230 0.54910 0.62830
H18 H 0.29640 0.49310 0.67290
C22 C -0.03766(13) 0.23758(17) 0.76005(8)
H19 H -0.04750 0.19070 0.72690
H20 H -0.09180 0.27820 0.77040
H21 H -0.01930 0.18440 0.78960
C23 C 0.03944(15) 0.41361(19) 0.79883(8)
H22 H -0.01750 0.45070 0.80530
H23 H 0.08290 0.47590 0.79180
H24 H 0.05670 0.36760 0.83100
C24 C -0.18924(13) 0.5436(2) 0.63550(9)
H25 H -0.21800 0.54650 0.67110
H26 H -0.21890 0.48510 0.61230
H27 H -0.19190 0.62250 0.61840
#END
