
#######################################################################
#
#                 Cambridge Crystallographic Data Centre
#                                CCDC
#
#######################################################################
#
# If this CIF has been generated from an entry in the Cambridge
# Structural Database, then it will include bibliographic, chemical,
# crystal, experimental, refinement or atomic coordinate data resulting
# from the CCDC's data processing and validation procedures.
#
#######################################################################

data_CSD_CIF_WUTYER
_audit_creation_date 2015-10-14
_audit_creation_method CSD-ConQuest-V1
_database_code_CSD WUTYER
_database_code_depnum_ccdc_archive 'CCDC 984704'
_chemical_formula_sum 'C12 H11 N1 O3'
_chemical_formula_moiety
;
C12 H11 N1 O3
;
_journal_coden_Cambridge 35
_journal_volume 80
_journal_year 2015
_journal_page_first 9518
_journal_name_full 'J.Org.Chem. '
loop_
_publ_author_name
"Duangduan Chaiyaveij"
"A.S.Batsanov"
"M.A.Fox"
"T.B.Marder"
"Andrew Whiting"
_chemical_name_systematic
;
Phenyl 2-oxa-3-azabicyclo[2.2.1]hept-5-ene-3-carboxylate
;
_cell_volume   1050.976
_exptl_crystal_colour 'colorless'
_exptl_crystal_density_diffrn 1.373
_exptl_crystal_description 'block'
_exptl_crystal_preparation 'ether/hexane'
_diffrn_ambient_temperature 120
#These two values have been output from a single CSD field.
_refine_ls_R_factor_gt 0.0493
_refine_ls_wR_factor_gt 0.0493
_symmetry_cell_setting monoclinic
_symmetry_space_group_name_H-M 'P 21/c'
_symmetry_Int_Tables_number 14
loop_
_symmetry_equiv_pos_site_id
_symmetry_equiv_pos_as_xyz
1 x,y,z
2 -x,1/2+y,1/2-z
3 -x,-y,-z
4 x,-1/2-y,-1/2+z
_cell_length_a 5.8418(5)
_cell_length_b 8.6844(7)
_cell_length_c 20.7247(19)
_cell_angle_alpha 90
_cell_angle_beta 91.658(15)
_cell_angle_gamma 90
_cell_formula_units_Z 4
loop_
_atom_type_symbol
_atom_type_radius_bond
C 0.68
H 0.23
N 0.68
O 0.68
loop_
_atom_site_label
_atom_site_type_symbol
_atom_site_fract_x
_atom_site_fract_y
_atom_site_fract_z
O1 O 0.38372(16) 0.40154(10) 0.58992(4)
O2 O 0.22961(16) 0.16871(10) 0.61342(4)
O3 O -0.00217(15) 0.17072(10) 0.50162(4)
N1 N 0.11693(17) 0.30798(12) 0.52232(5)
C1 C 0.24623(19) 0.27773(13) 0.57822(6)
C2 C 0.0686(2) 0.14933(14) 0.43395(6)
H1 H -0.02850 0.07730 0.40730
C3 C 0.3211(2) 0.11239(16) 0.43739(6)
H2 H 0.39000 0.01570 0.42880
C4 C 0.4287(2) 0.24226(16) 0.45490(6)
H3 H 0.58930 0.25650 0.46050
C5 C 0.2447(2) 0.36189(14) 0.46399(6)
H4 H 0.29610 0.47170 0.46440
C6 C 0.0686(2) 0.31749(14) 0.41120(6)
H5 H 0.12530 0.33060 0.36700
H6 H -0.08110 0.36940 0.41560
C7 C 0.5174(2) 0.40041(14) 0.64772(6)
C8 C 0.4511(2) 0.49646(16) 0.69692(7)
H7 H 0.31310 0.55410 0.69310
C9 C 0.5914(3) 0.50664(19) 0.75223(7)
H8 H 0.54960 0.57220 0.78670
C10 C 0.7914(3) 0.42155(18) 0.75716(7)
H9 H 0.88690 0.42930 0.79490
C11 C 0.8532(2) 0.32508(16) 0.70726(7)
H10 H 0.98990 0.26610 0.71110
C12 C 0.7156(2) 0.31457(14) 0.65161(6)
H11 H 0.75730 0.24960 0.61700
#END
