
#######################################################################
#
#                 Cambridge Crystallographic Data Centre
#                                CCDC
#
#######################################################################
#
# If this CIF has been generated from an entry in the Cambridge
# Structural Database, then it will include bibliographic, chemical,
# crystal, experimental, refinement or atomic coordinate data resulting
# from the CCDC's data processing and validation procedures.
#
#######################################################################

data_CSD_CIF_WUVBIY
_audit_creation_date 2003-05-15
_audit_creation_method CSD-ConQuest-V1
_database_code_CSD WUVBIY
_database_code_depnum_ccdc_archive 'CCDC 191057'
_chemical_formula_sum 'C12 H8 N4 O2'
_chemical_formula_moiety
;
C12 H8 N4 O2
;
_journal_coden_Cambridge 1290
_journal_year 2003
_journal_page_first 405
_journal_name_full 'Eur.J.Inorg.Chem. '
loop_
_publ_author_name
"C.Richardson"
"P.J.Steel"
_chemical_name_systematic
;
3,6-Di(2-pyridyl)-1,4,2,5-dioxadiazine
;
_chemical_melting_point 427.15
_cell_volume    523.627
_exptl_crystal_colour 'colorless'
_exptl_crystal_density_diffrn 1.524
_exptl_special_details
;
Melting point range 427.15-431.15K

;
_exptl_crystal_description 'block'
_exptl_crystal_preparation 'water'
_diffrn_ambient_temperature 163
_refine_special_details
;
A nitrogen and oxygen atom of the dioxadiazine ring are disordered over two 
sites with occupancies of 0.641:0.359.
;
#These two values have been output from a single CSD field.
_refine_ls_R_factor_gt 0.0383
_refine_ls_wR_factor_gt 0.0383
_symmetry_cell_setting monoclinic
_symmetry_space_group_name_H-M 'P 21/n'
_symmetry_Int_Tables_number 14
loop_
_symmetry_equiv_pos_site_id
_symmetry_equiv_pos_as_xyz
1 x,y,z
2 1/2+x,1/2-y,1/2+z
3 -x,-y,-z
4 -1/2-x,-1/2+y,-1/2-z
_cell_length_a 6.330(2)
_cell_length_b 5.781(2)
_cell_length_c 14.431(5)
_cell_angle_alpha 90
_cell_angle_beta 97.449(4)
_cell_angle_gamma 90
_cell_formula_units_Z 2
loop_
_atom_type_symbol
_atom_type_radius_bond
C 0.68
H 0.23
N 0.68
O 0.68
loop_
_atom_site_label
_atom_site_type_symbol
_atom_site_fract_x
_atom_site_fract_y
_atom_site_fract_z
O1 O 0.57874(17) -0.1367(2) 0.43576(9)
N1 N 0.69990(17) 0.0468(2) 0.48150(9)
N2? N 0.57874(17) -0.1367(2) 0.43576(9)
O2? O 0.69990(17) 0.0468(2) 0.48150(9)
C1 C 0.3894(2) -0.1651(2) 0.45890(9)
N3 N 0.36935(16) -0.51552(18) 0.37218(7)
C2 C 0.26216(19) -0.3506(2) 0.40992(8)
C3 C 0.0450(2) -0.3451(2) 0.40484(9)
H1 H -0.02480 -0.22240 0.43250
C4 C -0.0691(2) -0.5211(3) 0.35889(9)
H2 H -0.22010 -0.52390 0.35450
C5 C 0.0377(2) -0.6927(3) 0.31939(10)
H3 H -0.03750 -0.81660 0.28680
C6 C 0.2552(2) -0.6823(2) 0.32780(9)
H4 H 0.32840 -0.80210 0.30010
C1B C 0.6106(2) 0.1651(2) 0.54110(9)
O1B O 0.42126(17) 0.1367(2) 0.56424(9)
N1B N 0.30010(17) -0.0468(2) 0.51850(9)
C2B C 0.73784(19) 0.3506(2) 0.59008(8)
N3B N 0.63065(16) 0.51552(18) 0.62782(7)
C6B C 0.7448(2) 0.6823(2) 0.67220(9)
C5B C 0.9623(2) 0.6927(3) 0.68061(10)
C4B C 1.0691(2) 0.5211(3) 0.64111(9)
C3B C 0.9550(2) 0.3451(2) 0.59516(9)
H1B H 1.02480 0.22240 0.56750
H2B H 1.22010 0.52390 0.64550
H3B H 1.03750 0.81660 0.71320
H4B H 0.67160 0.80210 0.69990
#END
