
#######################################################################
#
#                 Cambridge Crystallographic Data Centre
#                                CCDC
#
#######################################################################
#
# If this CIF has been generated from an entry in the Cambridge
# Structural Database, then it will include bibliographic, chemical,
# crystal, experimental, refinement or atomic coordinate data resulting
# from the CCDC's data processing and validation procedures.
#
#######################################################################

data_CSD_CIF_WUVLUU
_audit_creation_date 2003-05-15
_audit_creation_method CSD-ConQuest-V1
_database_code_CSD WUVLUU
_database_code_depnum_ccdc_archive 'CCDC 190072'
_chemical_formula_sum 'C20 H23 N1 O4'
_chemical_formula_moiety
;
C20 H23 N1 O4
;
_journal_coden_Cambridge 1336
_journal_volume 4
_journal_year 2002
_journal_page_first 3731
_journal_name_full 'Org.Lett. '
loop_
_publ_author_name
"J.E.Moses"
"J.E.Baldwin"
"R.Marquez"
"R.M.Adlington"
"A.R.Cowley"
_chemical_name_systematic
;
Ethyl (2E,4E,6E,8E)-4,6,8-trimethyl-9-(p-nitrophenyl)nona-2,4,6,8-tetraenoate
;
_chemical_melting_point 377.15
_cell_volume   1806.675
_exptl_crystal_colour 'yellow'
_exptl_crystal_density_diffrn 1.255
_exptl_special_details
;
Melting point range 377.15-380.15K

;
_exptl_crystal_description 'prism'
_diffrn_ambient_temperature 150
#These two values have been output from a single CSD field.
_refine_ls_R_factor_gt 0.043
_refine_ls_wR_factor_gt 0.043
_symmetry_cell_setting monoclinic
_symmetry_space_group_name_H-M 'P 21/a'
_symmetry_Int_Tables_number 14
loop_
_symmetry_equiv_pos_site_id
_symmetry_equiv_pos_as_xyz
1 x,y,z
2 1/2+x,1/2-y,z
3 -x,-y,-z
4 -1/2-x,-1/2+y,-z
_cell_length_a 15.0086(5)
_cell_length_b 8.0675(3)
_cell_length_c 15.1036(5)
_cell_angle_alpha 90
_cell_angle_beta 98.916(2)
_cell_angle_gamma 90
_cell_formula_units_Z 4
loop_
_atom_type_symbol
_atom_type_radius_bond
C 0.68
H 0.23
N 0.68
O 0.68
loop_
_atom_site_label
_atom_site_type_symbol
_atom_site_fract_x
_atom_site_fract_y
_atom_site_fract_z
N1 N 0.38234(11) 1.7337(2) 0.0257(1)
O1 O 0.80262(11) 0.17710(19) 0.47237(9)
O2 O 0.87403(9) 0.04052(16) 0.37426(8)
O3 O 0.3088(1) 1.72339(19) -0.0227(1)
O4 O 0.42421(11) 1.86436(17) 0.0395(1)
C1 C 0.49817(12) 1.2961(2) 0.14908(11)
C2 C 0.42263(13) 1.2886(2) 0.08193(12)
C3 C 0.38297(12) 1.4313(2) 0.04276(12)
C4 C 0.42126(12) 1.5826(2) 0.06972(11)
C5 C 0.49585(13) 1.5961(2) 0.13560(13)
C6 C 0.53349(13) 1.4523(2) 0.17548(12)
C7 C 0.54095(12) 1.1414(2) 0.18590(12)
C8 C 0.57436(12) 1.1091(2) 0.27212(12)
C9 C 0.61942(12) 0.9514(2) 0.29972(11)
C10 C 0.67949(11) 0.8643(2) 0.26036(11)
C11 C 0.71071(12) 0.7090(2) 0.30498(11)
C12 C 0.75767(11) 0.5792(2) 0.27978(11)
C13 C 0.77605(11) 0.4435(2) 0.34443(11)
C14 C 0.81627(12) 0.3001(2) 0.33104(11)
C15 C 0.82860(12) 0.1710(2) 0.40052(12)
C16 C 0.89105(13) -0.0958(2) 0.43715(12)
C17 C 0.95230(14) -0.2145(3) 0.39887(14)
C18 C 0.56266(13) 1.2215(3) 0.34975(12)
C19 C 0.71645(14) 0.9272(2) 0.17936(13)
C20 C 0.78999(15) 0.5545(3) 0.19118(12)
H1 H 0.39680 1.17820 0.06180
H2 H 0.32800 1.42510 -0.00390
H3 H 0.52210 1.70700 0.15410
H4 H 0.58680 1.46030 0.22400
H5 H 0.54570 1.05030 0.14200
H6 H 0.60330 0.90130 0.35570
H7 H 0.69390 0.69670 0.36620
H8 H 0.75660 0.45980 0.40420
H9 H 0.83840 0.28020 0.27280
H10 H 0.92090 -0.05420 0.49680
H11 H 0.83310 -0.15200 0.44410
H12 H 0.96590 -0.31100 0.44030
H13 H 1.00970 -0.15680 0.39180
H14 H 0.92200 -0.25460 0.33910
H15 H 0.53170 1.32590 0.32630
H16 H 0.62320 1.24880 0.38440
H17 H 0.52540 1.16390 0.38980
H18 H 0.68650 1.03440 0.15920
H19 H 0.78300 0.94500 0.19520
H20 H 0.70440 0.84390 0.12990
H21 H 0.77400 0.65400 0.15240
H22 H 0.85690 0.53920 0.20140
H23 H 0.76050 0.45400 0.16090
#END
