
#######################################################################
#
#                 Cambridge Crystallographic Data Centre
#                                CCDC
#
#######################################################################
#
# If this CIF has been generated from an entry in the Cambridge
# Structural Database, then it will include bibliographic, chemical,
# crystal, experimental, refinement or atomic coordinate data resulting
# from the CCDC's data processing and validation procedures.
#
#######################################################################

data_CSD_CIF_WUXVUI
_audit_creation_date 2015-10-16
_audit_creation_method CSD-ConQuest-V1
_database_code_CSD WUXVUI
_database_code_depnum_ccdc_archive 'CCDC 1431587'
_chemical_formula_sum 'C16 H16 N2 O3'
_chemical_formula_moiety
;
C16 H16 N2 O3
;
_journal_coden_Cambridge 1078
_journal_year 2015
_journal_name_full 'CSD Communication(Private Communication) '
loop_
_publ_author_name
"Sung Hee Hwang"
"M.J.Kurth"
"M.M.Olmstead"
_chemical_name_systematic
;
ethyl 3-(3-phenyl-4,5-dihydro-1,2-oxazol-5-yl)-1H-pyrrole-2-carboxylate
;
_cell_volume   1407.226
_exptl_crystal_colour 'colorless'
_exptl_crystal_density_diffrn 1.342
_exptl_crystal_description 'block'
_exptl_crystal_preparation 'Re-crystallisation from solvent'
_diffrn_ambient_temperature 130
#These two values have been output from a single CSD field.
_refine_ls_R_factor_gt 0.0428
_refine_ls_wR_factor_gt 0.0428
_symmetry_cell_setting monoclinic
_symmetry_space_group_name_H-M 'P 21/n'
_symmetry_Int_Tables_number 14
loop_
_symmetry_equiv_pos_site_id
_symmetry_equiv_pos_as_xyz
1 x,y,z
2 1/2-x,1/2+y,1/2-z
3 -x,-y,-z
4 -1/2+x,-1/2-y,-1/2+z
_cell_length_a 7.224(2)
_cell_length_b 13.429(3)
_cell_length_c 14.659(3)
_cell_angle_alpha 90
_cell_angle_beta 98.29(2)
_cell_angle_gamma 90
_cell_formula_units_Z 4
loop_
_atom_type_symbol
_atom_type_radius_bond
C 0.68
H 0.23
N 0.68
O 0.68
loop_
_atom_site_label
_atom_site_type_symbol
_atom_site_fract_x
_atom_site_fract_y
_atom_site_fract_z
O1 O 0.50604(19) 0.32307(10) 0.21642(9)
O2 O 0.2190(2) 0.57805(11) 0.48552(9)
O3 O 0.42555(19) 0.57781(10) 0.38322(9)
N1 N 0.4182(2) 0.32339(12) 0.12311(11)
N2 N 0.0629(2) 0.39964(13) 0.39878(12)
H1 H -0.005(4) 0.4202(19) 0.4393(19)
C1 C 0.2105(3) 0.35636(15) -0.05365(14)
H2 H 0.23030 0.28920 -0.03440
C2 C 0.1266(3) 0.37730(16) -0.14283(14)
H3 H 0.08830 0.32450 -0.18440
C3 C 0.0989(3) 0.47511(16) -0.17118(14)
H4 H 0.04410 0.48940 -0.23260
C4 C 0.1508(3) 0.55172(16) -0.11040(14)
H5 H 0.12970 0.61870 -0.12990
C5 C 0.2335(3) 0.53172(15) -0.02102(14)
H6 H 0.26800 0.58500 0.02060
C6 C 0.2660(3) 0.43389(15) 0.00782(13)
C7 C 0.3593(3) 0.41178(14) 0.10214(13)
C8 C 0.4029(3) 0.48555(15) 0.17917(13)
H7 H 0.29300 0.52730 0.18660
H8 H 0.50970 0.52890 0.17020
C9 C 0.4524(3) 0.41425(15) 0.26016(13)
H9 H 0.55960 0.44070 0.30430
C10 C 0.2883(3) 0.39033(15) 0.30964(13)
C11 C 0.1755(3) 0.30533(16) 0.29570(14)
H10 H 0.19120 0.25170 0.25530
C12 C 0.0383(3) 0.31346(16) 0.35083(15)
H11 H -0.05820 0.26630 0.35470
C13 C 0.2165(3) 0.44834(15) 0.37506(13)
C14 C 0.2811(3) 0.53993(15) 0.42045(13)
C15 C 0.5234(3) 0.66323(15) 0.42773(14)
H12 H 0.54710 0.65380 0.49540
H13 H 0.44880 0.72460 0.41400
C16 C 0.7051(3) 0.67007(16) 0.38900(15)
H14 H 0.78240 0.72310 0.42070
H15 H 0.67930 0.68510 0.32300
H16 H 0.77170 0.60650 0.39810
#END
