
#######################################################################
#
#                 Cambridge Crystallographic Data Centre
#                                CCDC
#
#######################################################################
#
# If this CIF has been generated from an entry in the Cambridge
# Structural Database, then it will include bibliographic, chemical,
# crystal, experimental, refinement or atomic coordinate data resulting
# from the CCDC's data processing and validation procedures.
#
#######################################################################

data_CSD_CIF_XACCUC
_audit_creation_date 2016-01-14
_audit_creation_method CSD-ConQuest-V1
_database_code_CSD XACCUC
_database_code_depnum_ccdc_archive 'CCDC 1447319'
_chemical_formula_sum 'C9 H4 N6 O14'
_chemical_formula_moiety
;
C9 H4 N6 O14
;
_journal_coden_Cambridge 1078
_journal_year 2016
_journal_name_full 'CSD Communication(Private Communication) '
loop_
_publ_author_name
"Xu Zhen"
_chemical_name_systematic
;
2,2,2-trinitroethyl 2,4,6-trinitrobenzoate
;
_cell_volume   1508.448
_exptl_crystal_density_diffrn 1.85
_exptl_crystal_description 'block'
_diffrn_ambient_temperature 172
#These two values have been output from a single CSD field.
_refine_ls_R_factor_gt 0.0362
_refine_ls_wR_factor_gt 0.0362
_symmetry_cell_setting monoclinic
_symmetry_space_group_name_H-M 'P 21/c'
_symmetry_Int_Tables_number 14
loop_
_symmetry_equiv_pos_site_id
_symmetry_equiv_pos_as_xyz
1 x,y,z
2 -x,1/2+y,1/2-z
3 -x,-y,-z
4 x,-1/2-y,-1/2+z
_cell_length_a 5.8335(4)
_cell_length_b 10.1818(8)
_cell_length_c 25.563(2)
_cell_angle_alpha 90
_cell_angle_beta 96.540(3)
_cell_angle_gamma 90
_cell_formula_units_Z 4
loop_
_atom_type_symbol
_atom_type_radius_bond
C 0.68
H 0.23
N 0.68
O 0.68
loop_
_atom_site_label
_atom_site_type_symbol
_atom_site_fract_x
_atom_site_fract_y
_atom_site_fract_z
C1 C 0.6687(3) 0.80559(19) 0.17613(8)
C2 C 0.7284(3) 0.83682(18) 0.12637(8)
C3 C 0.9076(3) 0.76307(18) 0.10936(8)
C4 C 1.0290(3) 0.67025(19) 0.14072(8)
H1 H 1.15110 0.62180 0.12840
C5 C 0.9671(3) 0.65039(19) 0.19042(9)
C6 C 0.7844(3) 0.7136(2) 0.20891(9)
H2 H 0.73980 0.69480 0.24270
C7 C 0.5969(3) 0.93844(19) 0.09219(8)
C8 C 0.5973(3) 1.15403(17) 0.06264(8)
H3 H 0.42740 1.14640 0.06080
H4 H 0.64230 1.14510 0.02660
C9 C 0.6761(3) 1.28462(19) 0.08589(8)
N1 N 0.4713(3) 0.87371(19) 0.19538(7)
N2 N 0.9199(3) 1.32113(18) 0.07615(7)
N3 N 0.5194(3) 1.39441(17) 0.06248(8)
N4 N 0.6686(3) 1.28938(17) 0.14513(7)
N5 N 0.9681(3) 0.78047(16) 0.05517(7)
N6 N 1.1053(3) 0.55746(17) 0.22596(8)
O1 O 0.3733(2) 0.81612(16) 0.22836(6)
O2 O 0.4176(3) 0.98112(18) 0.17712(7)
O3 O 0.7064(2) 1.05403(12) 0.09635(5)
O4 O 0.4196(2) 0.91682(14) 0.06526(6)
O5 O 1.0564(2) 1.23112(15) 0.08043(7)
O6 O 0.9579(2) 1.43439(15) 0.06552(7)
O7 O 0.4320(2) 1.37563(14) 0.01775(6)
O8 O 0.4982(3) 1.48966(14) 0.09006(7)
O9 O 0.4866(2) 1.25481(15) 0.15908(6)
O10 O 0.8414(3) 1.32596(19) 0.17219(6)
O11 O 1.1061(2) 0.70337(14) 0.04000(6)
O12 O 0.8757(3) 0.86969(14) 0.02875(6)
O13 O 1.2638(3) 0.50101(17) 0.20827(8)
O14 O 1.0538(3) 0.54521(17) 0.27042(7)
#END
