
#######################################################################
#
#                 Cambridge Crystallographic Data Centre
#                                CCDC
#
#######################################################################
#
# If this CIF has been generated from an entry in the Cambridge
# Structural Database, then it will include bibliographic, chemical,
# crystal, experimental, refinement or atomic coordinate data resulting
# from the CCDC's data processing and validation procedures.
#
#######################################################################

data_CSD_CIF_XACCIQ
_audit_creation_date 2016-01-14
_audit_creation_method CSD-ConQuest-V1
_database_code_CSD XACCIQ
_database_code_depnum_ccdc_archive 'CCDC 1447314'
_chemical_formula_sum 'C12 H6 N8 O20'
_chemical_formula_moiety
;
C12 H6 N8 O20
;
_journal_coden_Cambridge 1078
_journal_year 2016
_journal_name_full 'CSD Communication(Private Communication) '
loop_
_publ_author_name
"Xu Zhen"
_chemical_name_systematic
;
bis(2,2,2-trinitroethyl) 4,6-dinitroisophthalate
;
_cell_volume   2131.128
_exptl_crystal_density_diffrn 1.815
_exptl_crystal_description 'plate'
_diffrn_ambient_temperature 173
_refine_special_details
;
N2,O3,O4 and N2',O3',O4' disordered over two sites with occupancies 
;
#These two values have been output from a single CSD field.
_refine_ls_R_factor_gt 0.038
_refine_ls_wR_factor_gt 0.038
_symmetry_cell_setting monoclinic
_symmetry_space_group_name_H-M 'P 21/c'
_symmetry_Int_Tables_number 14
loop_
_symmetry_equiv_pos_site_id
_symmetry_equiv_pos_as_xyz
1 x,y,z
2 -x,1/2+y,1/2-z
3 -x,-y,-z
4 x,-1/2-y,-1/2+z
_cell_length_a 14.3744(16)
_cell_length_b 8.2651(10)
_cell_length_c 19.305(2)
_cell_angle_alpha 90
_cell_angle_beta 111.692(3)
_cell_angle_gamma 90
_cell_formula_units_Z 4
loop_
_atom_type_symbol
_atom_type_radius_bond
C 0.68
H 0.23
N 0.68
O 0.68
loop_
_atom_site_label
_atom_site_type_symbol
_atom_site_fract_x
_atom_site_fract_y
_atom_site_fract_z
C1 C 0.23756(14) 0.7399(2) 0.27842(10)
C2 C 0.14905(15) 0.8245(2) 0.25011(10)
H1 H 0.11490 0.83750 0.19790
C3 C 0.11176(15) 0.8894(2) 0.30021(10)
C4 C 0.15923(14) 0.8721(2) 0.37663(10)
C5 C 0.24698(15) 0.7830(2) 0.40257(10)
H2 H 0.28030 0.76800 0.45470
C6 C 0.28740(14) 0.7153(2) 0.35426(10)
C7 C 0.12192(16) 0.9395(3) 0.43417(11)
C8 C 0.16706(16) 1.1275(2) 0.53415(10)
H3 H 0.22080 1.09330 0.58100
H4 H 0.10190 1.09130 0.53520
C9 C 0.16798(15) 1.3084(3) 0.52544(10)
C10 C 0.38142(15) 0.6200(2) 0.38872(10)
C11 C 0.47380(14) 0.3962(2) 0.37494(10)
H5 H 0.50370 0.39870 0.43010
H6 H 0.52240 0.44290 0.35520
C12 C 0.44837(14) 0.2255(3) 0.3478(1)
N1 N 0.28258(13) 0.6854(2) 0.22492(9)
N2 N 0.07234(14) 1.3755(3) 0.46662(9)
N3 N 0.17896(14) 1.3945(3) 0.59795(10)
N4 N 0.25565(15) 1.3610(2) 0.50488(11)
N5 N 0.42126(13) 0.2054(2) 0.26378(9)
N6 N 0.53552(16) 0.1121(3) 0.38698(9)
N7 N 0.35942(15) 0.1650(2) 0.36513(11)
O1 O 0.37154(11) 0.71353(19) 0.24066(8)
O2 O 0.22733(12) 0.6207(2) 0.16784(8)
O3 O 0.18312(10) 1.05999(17) 0.47089(7)
O4 O 0.05496(13) 0.8868(2) 0.44863(10)
O5 O 0.01079(11) 1.2772(2) 0.43146(8)
O6 O 0.06629(14) 1.5219(2) 0.46076(10)
O7 O 0.14956(13) 1.3192(2) 0.63940(8)
O8 O 0.21380(15) 1.5296(2) 0.6072(1)
O9 O 0.33664(12) 1.3405(2) 0.5539(1)
O10 O 0.23773(14) 1.4093(2) 0.44212(10)
O11 O 0.38195(9) 0.48645(16) 0.34851(7)
O12 O 0.44637(10) 0.65484(18) 0.44640(7)
O13 O 0.40167(13) 0.3274(2) 0.22737(8)
O14 O 0.42063(14) 0.0690(2) 0.24124(9)
O15 O 0.61720(12) 0.1772(2) 0.41201(8)
O16 O 0.51652(16) -0.0299(2) 0.38932(10)
O17 O 0.37614(14) 0.1455(2) 0.43046(9)
O18 O 0.28093(13) 0.1472(2) 0.31321(10)
N8 N 0.0261(10) 1.0033(19) 0.2686(6)
O19 O 0.0144(16) 1.102(3) 0.3086(7)
O20 O -0.0244(9) 0.9966(16) 0.2046(5)
N9? N 0.0124(12) 0.968(3) 0.2726(8)
O21? O -0.0119(13) 1.040(4) 0.3171(7)
O22? O -0.0423(18) 0.947(6) 0.2105(8)
#END
