
#######################################################################
#
#                 Cambridge Crystallographic Data Centre
#                                CCDC
#
#######################################################################
#
# If this CIF has been generated from an entry in the Cambridge
# Structural Database, then it will include bibliographic, chemical,
# crystal, experimental, refinement or atomic coordinate data resulting
# from the CCDC's data processing and validation procedures.
#
#######################################################################

data_CSD_CIF_XACQEZ
_audit_creation_date 2011-03-21
_audit_creation_method CSD-ConQuest-V1
_database_code_CSD XACQEZ
_database_code_depnum_ccdc_archive 'CCDC 774736'
_chemical_formula_sum 'C15 H10 N2 O2'
_chemical_formula_moiety
;
C15 H10 N2 O2
;
_journal_coden_Cambridge 24
_journal_volume 51
_journal_year 2010
_journal_page_first 5246
_journal_name_full 'Tetrahedron Lett. '
loop_
_publ_author_name
"D.B.Ramachary"
"M.S.Prasad"
_chemical_name_systematic
;
2-(4-Nitrophenyl)-3-phenylacrylonitrile
;
_cell_volume    583.331
_exptl_crystal_colour 'colorless'
_exptl_crystal_density_diffrn 1.425
_exptl_crystal_description 'plate'
_diffrn_ambient_temperature 100
#These two values have been output from a single CSD field.
_refine_ls_R_factor_gt 0.0725
_refine_ls_wR_factor_gt 0.0725
_symmetry_cell_setting triclinic
_symmetry_space_group_name_H-M 'P -1'
_symmetry_Int_Tables_number 2
loop_
_symmetry_equiv_pos_site_id
_symmetry_equiv_pos_as_xyz
1 x,y,z
2 -x,-y,-z
_cell_length_a 6.8263(15)
_cell_length_b 7.1276(15)
_cell_length_c 13.476(3)
_cell_angle_alpha 99.393(4)
_cell_angle_beta 93.106(4)
_cell_angle_gamma 114.472(4)
_cell_formula_units_Z 2
loop_
_atom_type_symbol
_atom_type_radius_bond
C 0.68
H 0.23
N 0.68
O 0.68
loop_
_atom_site_label
_atom_site_type_symbol
_atom_site_fract_x
_atom_site_fract_y
_atom_site_fract_z
C1 C 0.1241(4) 0.1297(4) 0.3600(2)
N1 N 0.0933(5) -0.1695(4) 0.05848(19)
O1 O -0.0748(4) -0.2320(4) 0.00126(16)
C2 C 0.1051(5) -0.0621(4) 0.1622(2)
C3 C 0.3012(5) 0.2961(4) 0.5396(2)
H1 H 0.42280 0.27840 0.51660
C4 C 0.1305(4) 0.2300(4) 0.4668(2)
C5 C 0.1980(4) 0.4656(4) 0.6974(2)
H2 H 0.07230 0.45930 0.66030
C6 C 0.2830(5) -0.0174(5) 0.2316(2)
H3 H 0.39770 -0.05120 0.21150
C7 C 0.2916(5) 0.0773(5) 0.3307(2)
H4 H 0.41210 0.10700 0.37930
O2 O 0.2541(5) -0.1897(5) 0.03392(19)
C8 C 0.5190(5) 0.4045(4) 0.7046(2)
H5 H 0.61490 0.35720 0.67180
C9 C 0.2462(5) 0.5492(4) 0.7999(2)
H6 H 0.15290 0.59990 0.83300
C10 C 0.3336(4) 0.3897(4) 0.6472(2)
N2 N -0.2323(4) 0.2454(4) 0.50173(18)
C11 C -0.0684(5) 0.2427(4) 0.4889(2)
C12 C -0.0610(5) -0.0109(5) 0.1890(2)
H7 H -0.18110 -0.04130 0.14000
C13 C -0.0509(5) 0.0844(4) 0.2870(2)
H8 H -0.16500 0.12040 0.30570
C14 C 0.5649(5) 0.4865(5) 0.8078(2)
H9 H 0.68940 0.49210 0.84580
C15 C 0.4288(5) 0.5605(5) 0.8558(2)
H10 H 0.46040 0.61870 0.92650
#END
