
#######################################################################
#
#                 Cambridge Crystallographic Data Centre
#                                CCDC
#
#######################################################################
#
# If this CIF has been generated from an entry in the Cambridge
# Structural Database, then it will include bibliographic, chemical,
# crystal, experimental, refinement or atomic coordinate data resulting
# from the CCDC's data processing and validation procedures.
#
#######################################################################

data_CSD_CIF_XACVIH
_audit_creation_date 2005-01-11
_audit_creation_method CSD-ConQuest-V1
_database_code_CSD XACVIH
_database_code_depnum_ccdc_archive 'CCDC 234941'
_chemical_formula_sum 'C19 H18 N2 O4'
_chemical_formula_moiety
;
C19 H18 N2 O4
;
_journal_coden_Cambridge 35
_journal_volume 69
_journal_year 2004
_journal_page_first 4961
_journal_name_full 'J.Org.Chem. '
loop_
_publ_author_name
"S.Florio"
"P.Lorusso"
"C.Granito"
"R.Luisi"
"L.Troisi"
_chemical_name_systematic
;
(2R*,3S*)-4,4-Dimethyl-2-(2-(4-nitrophenyl)-3-phenyloxiran-2-yl)-4,5-dihydro-1
,3-oxazole
;
_chemical_melting_point 430.15
_cell_volume   3577.272
_exptl_crystal_colour 'colorless'
_exptl_special_details
;
Melting point range 430.15-432.15K

;
_exptl_crystal_description 'prism'
_diffrn_ambient_temperature 293
#These two values have been output from a single CSD field.
_refine_ls_R_factor_gt 0.0757
_refine_ls_wR_factor_gt 0.0757
_symmetry_cell_setting orthorhombic
_symmetry_space_group_name_H-M 'P b c n'
_symmetry_Int_Tables_number 60
loop_
_symmetry_equiv_pos_site_id
_symmetry_equiv_pos_as_xyz
1 x,y,z
2 1/2-x,1/2-y,1/2+z
3 1/2+x,1/2-y,-z
4 -x,y,1/2-z
5 -x,-y,-z
6 -1/2+x,-1/2+y,-1/2-z
7 -1/2-x,-1/2+y,z
8 x,-y,-1/2+z
_cell_length_a 22.6410(5)
_cell_length_b 9.4690(8)
_cell_length_c 16.6860(6)
_cell_angle_alpha 90
_cell_angle_beta 90
_cell_angle_gamma 90
_cell_formula_units_Z 8
loop_
_atom_type_symbol
_atom_type_radius_bond
C 0.68
H 0.23
N 0.68
O 0.68
loop_
_atom_site_label
_atom_site_type_symbol
_atom_site_fract_x
_atom_site_fract_y
_atom_site_fract_z
O1 O -0.20865(8) -0.3020(2) -0.24233(10)
O2 O -0.20461(12) -0.1228(3) -0.37476(12)
O3 O -0.08028(16) -0.9579(3) -0.3237(2)
O4 O 0.00231(15) -0.8528(3) -0.34528(18)
N1 N -0.16035(10) -0.2902(2) -0.44682(11)
N2 N -0.05052(17) -0.8525(3) -0.33104(15)
C1 C -0.16287(10) -0.3160(3) -0.30156(13)
C2 C -0.17551(11) -0.2468(3) -0.37980(14)
C3 C -0.2123(2) -0.0772(5) -0.4567(2)
H1 H -0.25370 -0.07360 -0.46910
H2 H -0.19560 0.01550 -0.46180
C4 C -0.17957(12) -0.1830(3) -0.50637(14)
C5 C -0.1267(2) -0.1203(6) -0.5424(4)
H3 H -0.10480 -0.07240 -0.50140
H4 H -0.13840 -0.05380 -0.58280
H5 H -0.10250 -0.19230 -0.56600
C6 C -0.2175(2) -0.2485(5) -0.5683(3)
H6 H -0.19970 -0.33390 -0.58770
H7 H -0.22280 -0.18390 -0.61200
H8 H -0.25510 -0.26980 -0.54480
C7 C -0.15498(12) -0.2236(3) -0.23052(14)
H9 H -0.16030 -0.11510 -0.23840
C8 C -0.11556(12) -0.2624(3) -0.16259(12)
C9 C -0.12687(13) -0.3768(3) -0.11312(15)
H10 H -0.16710 -0.43650 -0.12220
C10 C -0.08847(14) -0.4062(3) -0.04986(15)
H11 H -0.09380 -0.49470 -0.01690
C11 C -0.03979(14) -0.3237(3) -0.03746(15)
H12 H -0.01110 -0.34360 0.00910
C12 C -0.02842(14) -0.2106(3) -0.08636(17)
H13 H 0.00900 -0.13770 -0.07480
C13 C -0.06660(13) -0.1798(3) -0.14833(15)
H14 H -0.05940 -0.09730 -0.18590
C14 C -0.13384(10) -0.4571(2) -0.30634(11)
C15 C -0.07397(11) -0.4650(2) -0.32256(12)
H15 H -0.04810 -0.37790 -0.33040
C16 C -0.04632(11) -0.5944(3) -0.32985(13)
H16 H 0.00120 -0.60930 -0.33840
C17 C -0.07947(13) -0.7144(3) -0.32106(13)
C18 C -0.13889(14) -0.7096(3) -0.30366(16)
H17 H -0.16370 -0.80680 -0.29190
C19 C -0.16613(12) -0.5794(3) -0.29595(15)
H18 H -0.21490 -0.57070 -0.27460
#END
