
#######################################################################
#
#                 Cambridge Crystallographic Data Centre
#                                CCDC
#
#######################################################################
#
# If this CIF has been generated from an entry in the Cambridge
# Structural Database, then it will include bibliographic, chemical,
# crystal, experimental, refinement or atomic coordinate data resulting
# from the CCDC's data processing and validation procedures.
#
#######################################################################

data_CSD_CIF_XADJET
_audit_creation_date 2011-02-15
_audit_creation_method CSD-ConQuest-V1
_database_code_CSD XADJET
_database_code_depnum_ccdc_archive 'CCDC 715207'
_chemical_formula_sum 'C18 H15 N3 O2'
_chemical_formula_moiety
;
C18 H15 N3 O2
;
_journal_coden_Cambridge 584
_journal_volume 29
_journal_year 2009
_journal_page_first 1606
_journal_name_full 'Youji Huaxue(Chin.)(Chin.J.Org.Chem.) '
loop_
_publ_author_name
"Zhaohui Wang"
"Yue Wang"
"Mingsheng Feng"
"Xue Tan"
"Jingcai Cheng"
"Weiyi Hua"
"Qizheng Yao"
_chemical_name_systematic
;
1-Ethyl-3-(3-(hydroxyimino)-1,3-dihydro-2H-indol-2-ylidene)-1,3-dihydro-2H-ind
ol-2-one
;
_cell_volume   1395.912
_exptl_crystal_density_diffrn 1.453
_diffrn_ambient_temperature 293
#These two values have been output from a single CSD field.
_refine_ls_R_factor_gt 0.0616
_refine_ls_wR_factor_gt 0.0616
_symmetry_cell_setting monoclinic
_symmetry_space_group_name_H-M 'P 21/n'
_symmetry_Int_Tables_number 14
loop_
_symmetry_equiv_pos_site_id
_symmetry_equiv_pos_as_xyz
1 x,y,z
2 1/2-x,1/2+y,1/2-z
3 -x,-y,-z
4 -1/2+x,-1/2-y,-1/2+z
_cell_length_a 9.8002(14)
_cell_length_b 8.8877(13)
_cell_length_c 16.510(2)
_cell_angle_alpha 90
_cell_angle_beta 103.903(3)
_cell_angle_gamma 90
_cell_formula_units_Z 4
loop_
_atom_type_symbol
_atom_type_radius_bond
C 0.68
H 0.23
N 0.68
O 0.68
loop_
_atom_site_label
_atom_site_type_symbol
_atom_site_fract_x
_atom_site_fract_y
_atom_site_fract_z
N1 N 0.9684(2) 0.1279(3) -0.14403(13)
N2 N 0.7875(2) 0.4299(3) -0.00855(13)
H1 H 0.73460 0.42160 -0.06740
N3 N 1.0520(2) 0.3240(3) 0.16420(13)
O1 O 0.77687(19) 0.2813(2) -0.15096(10)
O2 O 1.06096(19) 0.3670(2) 0.24656(10)
H2 H 1.14230 0.31080 0.27500
C1 C 0.8915(3) 0.2280(3) -0.11195(16)
C2 C 0.9660(3) 0.2565(3) -0.02471(15)
C3 C 1.0914(3) 0.1627(3) -0.00903(16)
C4 C 1.2035(3) 0.1365(3) 0.05869(17)
H3 H 1.20930 0.16340 0.11570
C5 C 1.3096(3) 0.0385(3) 0.05019(18)
H4 H 1.38400 0.03110 0.10360
C6 C 1.3066(3) -0.0319(4) -0.02491(19)
H5 H 1.38780 -0.10390 -0.02840
C7 C 1.1950(3) -0.0081(3) -0.09337(18)
H6 H 1.20030 -0.05910 -0.15030
C8 C 1.0904(3) 0.0878(3) -0.08405(16)
C9 C 0.9213(3) 0.0567(4) -0.22597(16)
H7 H 0.81720 0.04000 -0.24110
H8 H 0.97380 -0.04040 -0.22380
C10 C 0.9627(4) 0.1452(5) -0.29330(19)
H9 H 1.06330 0.14830 -0.28300
H10 H 0.92690 0.24590 -0.29390
H11 H 0.92450 0.09840 -0.34630
C11 C 0.9081(3) 0.3501(3) 0.02367(16)
C12 C 0.9450(3) 0.3861(3) 0.11462(15)
C13 C 0.8383(3) 0.4891(3) 0.12918(16)
C14 C 0.8169(3) 0.5638(3) 0.19905(17)
H12 H 0.87990 0.54640 0.25410
C15 C 0.7036(3) 0.6612(4) 0.18998(18)
H13 H 0.69760 0.71620 0.24350
C16 C 0.6132(3) 0.6834(3) 0.11275(18)
H14 H 0.53060 0.76470 0.10780
C17 C 0.6321(3) 0.6112(3) 0.04239(18)
H15 H 0.56200 0.62480 -0.01570
C18 C 0.7448(3) 0.5138(3) 0.05217(16)
#END
