
#######################################################################
#
#                 Cambridge Crystallographic Data Centre
#                                CCDC
#
#######################################################################
#
# If this CIF has been generated from an entry in the Cambridge
# Structural Database, then it will include bibliographic, chemical,
# crystal, experimental, refinement or atomic coordinate data resulting
# from the CCDC's data processing and validation procedures.
#
#######################################################################

data_CSD_CIF_XAGCOX
_audit_creation_date 2001-01-15
_audit_creation_method CSD-ConQuest-V1
_database_code_CSD XAGCOX
_database_code_depnum_ccdc_archive 'CCDC 138912'
_database_code_depnum_ccdc_journal 1267/235
_chemical_formula_sum 'C26 H36 N2 O10'
_chemical_formula_moiety
;
C26 H36 N2 O10
;
_journal_coden_Cambridge 1267
_journal_volume 215
_journal_year 2000
_journal_page_first 133
_journal_name_full 'Z.Kristallogr.-New Cryst.Struct. '
loop_
_publ_author_name
"S.Henkel"
"M.Fengler-Veith"
"V.Jager"
_chemical_name_systematic
;
(+)-(4S,5R,2'R,4'S,5'R,1''S)-5-(2''-Acetoxy-1''-benzyloxy-ethyl)-3-(5'-acetoxy
 
;
_chemical_melting_point 365
_cell_volume   1399.189
_exptl_crystal_colour 'colorless'
_exptl_crystal_density_diffrn 1.274
_exptl_special_details
;
Melting point range 365-368K

;
_exptl_crystal_description 'block'
_exptl_crystal_preparation 'ethyl acetate/petroleum ether'
_diffrn_ambient_temperature ?
_diffrn_special_details
;
The study was carried out at room temperature,in the range 283-303K

;
#These two values have been output from a single CSD field.
_refine_ls_R_factor_gt 0.0731
_refine_ls_wR_factor_gt 0.0731
_symmetry_cell_setting monoclinic
_symmetry_space_group_name_H-M 'P 21'
_symmetry_Int_Tables_number 4
loop_
_symmetry_equiv_pos_site_id
_symmetry_equiv_pos_as_xyz
1 x,y,z
2 -x,1/2+y,-z
_cell_length_a 5.155(1)
_cell_length_b 20.146(6)
_cell_length_c 13.494(2)
_cell_angle_alpha 90
_cell_angle_beta 93.21(2)
_cell_angle_gamma 90
_cell_formula_units_Z 2
loop_
_atom_type_symbol
_atom_type_radius_bond
C 0.68
H 0.23
N 0.68
O 0.68
loop_
_atom_site_label
_atom_site_type_symbol
_atom_site_fract_x
_atom_site_fract_y
_atom_site_fract_z
C1 C 1.1523(8) 0.6042(3) 0.9604(3)
H1 H 1.0128(8) 0.6099(3) 1.0061(3)
C2 C 1.3191(9) 0.5442(3) 0.9932(4)
H2 H 1.4453(9) 0.5342(3) 0.9436(4)
C3 C 1.4564(12) 0.5578(4) 1.0924(4)
H3 H 1.3304(12) 0.5607(4) 1.1430(4)
H4 H 1.5748(12) 0.5217(4) 1.1098(4)
O1 O 1.5975(7) 0.6186(2) 1.0884(3)
C4 C 1.4351(11) 0.6722(3) 1.0592(4)
H5 H 1.3036(11) 0.6788(3) 1.1080(4)
O2 O 1.3127(7) 0.6611(2) 0.9643(2)
C5 C 1.0362(7) 0.5959(2) 0.8571(3)
N1 N 0.8300(7) 0.5613(2) 0.8431(3)
O3 O 0.7700(5) 0.5547(2) 0.7412(3)
C6 C 0.9778(7) 0.5818(2) 0.6854(3)
H6 H 0.9062(7) 0.6119(2) 0.6337(3)
C7 C 1.1476(7) 0.6211(2) 0.7628(3)
H7 H 1.3300(7) 0.6077(2) 0.7605(3)
N2 N 1.1234(6) 0.6927(2) 0.7530(3)
H8 H 0.9710(6) 0.7102(2) 0.7500(3)
C8 C 1.3334(8) 0.7327(2) 0.7483(4)
O4 O 1.5554(6) 0.7125(2) 0.7477(3)
O5 O 1.2566(6) 0.7957(2) 0.7435(3)
C9 C 1.4451(9) 0.8499(3) 0.7341(5)
C10 C 1.5987(13) 0.8415(4) 0.6421(5)
H9 H 1.4811(13) 0.8391(4) 0.5845(5)
H10 H 1.6990(13) 0.8014(4) 0.6476(5)
H11 H 1.7130(13) 0.8787(4) 0.6360(5)
C11 C 1.2729(13) 0.9109(3) 0.7258(8)
H12 H 1.1623(13) 0.9082(3) 0.6663(8)
H13 H 1.3791(13) 0.9499(3) 0.7236(8)
H14 H 1.1681(13) 0.9132(3) 0.7824(8)
C12 C 1.6199(12) 0.8541(4) 0.8280(5)
H15 H 1.7288(12) 0.8154(4) 0.8331(5)
H16 H 1.5153(12) 0.8563(4) 0.8845(5)
H17 H 1.7263(12) 0.8931(4) 0.8257(5)
C13 C 1.1301(9) 0.5261(3) 0.6387(4)
H18 H 1.2439(9) 0.5051(3) 0.6903(4)
C14 C 1.2934(11) 0.5534(4) 0.5596(4)
H19 H 1.4153(11) 0.5858(4) 0.5881(4)
H20 H 1.3914(11) 0.5178(4) 0.5307(4)
O6 O 1.1226(9) 0.5845(3) 0.4834(3)
C15 C 1.1193(11) 0.5629(3) 0.3915(4)
O7 O 1.2646(13) 0.5213(4) 0.3666(4)
C16 C 0.9126(16) 0.5944(5) 0.3274(5)
H21 H 0.8222(16) 0.6265(5) 0.3653(5)
H22 H 0.7926(16) 0.5611(5) 0.3026(5)
H23 H 0.9886(16) 0.6161(5) 0.2728(5)
O8 O 0.9530(8) 0.4788(2) 0.5997(4)
C17 C 1.0604(21) 0.4199(5) 0.5760(9)
H24 H 1.2307(21) 0.4155(5) 0.6098(9)
H25 H 1.0807(21) 0.4177(5) 0.5051(9)
C18 C 0.8811(16) 0.3631(4) 0.6080(7)
C19 C 0.9059(19) 0.3076(6) 0.5627(7)
H26 H 1.0318(19) 0.3031(6) 0.5164(7)
C20 C 0.7281(33) 0.2479(5) 0.5844(11)
H27 H 0.7274(33) 0.2076(5) 0.5508(11)
C21 C 0.5669(26) 0.2634(6) 0.6627(10)
H28 H 0.4523(26) 0.2319(6) 0.6854(10)
C22 C 0.5810(23) 0.3218(5) 0.7022(9)
H29 H 0.4749(23) 0.3295(5) 0.7545(9)
C23 C 0.7271(22) 0.3711(6) 0.6770(8)
H30 H 0.7185(22) 0.4117(6) 0.7093(8)
O9 O 1.1483(7) 0.4886(2) 1.0045(3)
C24 C 1.1476(11) 0.4385(3) 0.9393(5)
O10 O 1.2974(10) 0.4368(3) 0.8733(5)
C25 C 0.9367(13) 0.3895(4) 0.9556(6)
H31 H 0.8462(13) 0.4021(4) 1.0129(6)
H32 H 1.0112(13) 0.3462(4) 0.9659(6)
H33 H 0.8173(13) 0.3886(4) 0.8984(6)
C26 C 1.6014(16) 0.7322(4) 1.0545(6)
H34 H 1.4959(16) 0.7697(4) 1.0347(6)
H35 H 1.7306(16) 0.7252(4) 1.0070(6)
H36 H 1.6851(16) 0.7404(4) 1.1187(6)
#END
