
#######################################################################
#
#                 Cambridge Crystallographic Data Centre
#                                CCDC
#
#######################################################################
#
# If this CIF has been generated from an entry in the Cambridge
# Structural Database, then it will include bibliographic, chemical,
# crystal, experimental, refinement or atomic coordinate data resulting
# from the CCDC's data processing and validation procedures.
#
#######################################################################

data_CSD_CIF_XAGCUD
_audit_creation_date 2001-01-15
_audit_creation_method CSD-ConQuest-V1
_database_code_CSD XAGCUD
_database_code_depnum_ccdc_archive 'CCDC 138911'
_database_code_depnum_ccdc_journal 1267/234
_chemical_formula_sum 'C14 H15 N1 O5'
_chemical_formula_moiety
;
C14 H15 N1 O5
;
_journal_coden_Cambridge 1267
_journal_volume 215
_journal_year 2000
_journal_page_first 131
_journal_name_full 'Z.Kristallogr.-New Cryst.Struct. '
loop_
_publ_author_name
"S.Henkel"
"M.Fengler-Veith"
"V.Jager"
_chemical_name_systematic
;
(+)-(3aS,6aS,1'R)-6-Oxo-3-(1'-O-benzyl-1',2'-dihydroxyethyl)-3a,4,6a-tetrahydr
ofuro(3,4-d)isoxazole
;
_chemical_melting_point 358
_cell_volume   1375.618
_exptl_crystal_colour 'colorless'
_exptl_crystal_density_diffrn 1.339
_exptl_special_details
;
Melting point range 358-359K

;
_exptl_crystal_description 'block'
_exptl_crystal_preparation 'ethyl acetate/petroleum ether'
_diffrn_ambient_temperature ?
_diffrn_special_details
;
The study was carried out at room temperature,in the range 283-303K

;
#These two values have been output from a single CSD field.
_refine_ls_R_factor_gt 0.0598
_refine_ls_wR_factor_gt 0.0598
_symmetry_cell_setting orthorhombic
_symmetry_space_group_name_H-M 'P 21 21 21'
_symmetry_Int_Tables_number 19
loop_
_symmetry_equiv_pos_site_id
_symmetry_equiv_pos_as_xyz
1 x,y,z
2 1/2-x,-y,1/2+z
3 -x,1/2+y,1/2-z
4 1/2+x,1/2-y,-z
_cell_length_a 6.232(1)
_cell_length_b 8.444(1)
_cell_length_c 26.141(4)
_cell_angle_alpha 90
_cell_angle_beta 90
_cell_angle_gamma 90
_cell_formula_units_Z 4
loop_
_atom_type_symbol
_atom_type_radius_bond
C 0.68
H 0.23
N 0.68
O 0.68
loop_
_atom_site_label
_atom_site_type_symbol
_atom_site_fract_x
_atom_site_fract_y
_atom_site_fract_z
O1 O 1.0795(5) 0.3123(4) 0.80192(11)
H1 H 1.18030 0.25890 0.82740
C1 C 0.9190(7) 0.3895(4) 0.8299(2)
H2 H 0.8281(7) 0.4481(4) 0.8065(2)
H3 H 0.9856(7) 0.4652(4) 0.8529(2)
C2 C 0.7802(6) 0.2770(4) 0.86104(14)
H4 H 0.6693(6) 0.3392(4) 0.87845(14)
C3 C 0.6710(5) 0.1533(4) 0.82860(13)
N1 N 0.4674(5) 0.1521(4) 0.82703(12)
O2 O 0.3963(4) 0.0361(4) 0.79186(11)
C4 C 0.5785(6) -0.0566(4) 0.77692(14)
H5 H 0.5801(6) -0.0770(4) 0.74001(14)
C5 C 0.5833(8) -0.2082(5) 0.8075(2)
O3 O 0.4430(7) -0.3048(4) 0.81119(14)
O4 O 0.7681(6) -0.2214(3) 0.83215(12)
C6 C 0.9133(7) -0.0926(4) 0.82018(15)
H6 H 1.0266(7) -0.1285(4) 0.79754(15)
H7 H 0.9778(7) -0.0508(4) 0.85114(15)
C7 C 0.7771(6) 0.0328(4) 0.79419(13)
H8 H 0.8522(6) 0.0827(4) 0.76547(13)
O5 O 0.9112(4) 0.2038(3) 0.89885(9)
C8 C 0.7917(7) 0.1437(6) 0.9405(2)
H9 H 0.6825(7) 0.0718(6) 0.9278(2)
H10 H 0.7202(7) 0.2304(6) 0.9579(2)
C9 C 0.9330(8) 0.0586(5) 0.97725(15)
C10 C 0.8541(9) 0.0268(6) 1.0262(2)
H11 H 0.7196(9) 0.0639(6) 1.0358(2)
C11 C 0.9769(12) -0.0606(6) 1.0606(2)
H12 H 0.9236(12) -0.0831(6) 1.0930(2)
C12 C 1.1747(14) -0.1132(7) 1.0468(3)
H13 H 1.2560(14) -0.1717(7) 1.0699(3)
C13 C 1.2562(11) -0.0805(6) 0.9988(2)
H14 H 1.3921(11) -0.1163(6) 0.9898(2)
C14 C 1.1358(8) 0.0051(6) 0.9644(2)
H15 H 1.1914(8) 0.0272(6) 0.9322(2)
#END
