
#######################################################################
#
#                 Cambridge Crystallographic Data Centre
#                                CCDC
#
#######################################################################
#
# If this CIF has been generated from an entry in the Cambridge
# Structural Database, then it will include bibliographic, chemical,
# crystal, experimental, refinement or atomic coordinate data resulting
# from the CCDC's data processing and validation procedures.
#
#######################################################################

data_CSD_CIF_XAGWOR
_audit_creation_date 2001-01-15
_audit_creation_method CSD-ConQuest-V1
_database_code_CSD XAGWOR
_database_code_depnum_ccdc_archive 'CCDC 146246'
_database_code_depnum_ccdc_journal 1267/387
_chemical_formula_sum 'C17 H20 N2 O3'
_chemical_formula_moiety
;
C17 H20 N2 O3
;
_journal_coden_Cambridge 1267
_journal_volume 215
_journal_year 2000
_journal_page_first 437
_journal_name_full 'Z.Kristallogr.-New Cryst.Struct. '
loop_
_publ_author_name
"J.Frackenpohl"
"S.Roper"
"H.M.R.Hoffmann"
"R.Wartchow"
_chemical_name_systematic
;
(1S,2R,5R,6R)-2-Methoxy-6-(2-(4-nitrophenyl)ethynyl)-1-azabicyclo(3.2.2)nonane
;
_chemical_melting_point 352
_cell_volume   1596.471
_exptl_crystal_colour 'colorless'
_exptl_crystal_density_diffrn 1.25
_exptl_crystal_description 'plate'
_diffrn_ambient_temperature ?
_diffrn_special_details
;
The study was carried out at room temperature,in the range 283-303K

;
#These two values have been output from a single CSD field.
_refine_ls_R_factor_gt 0.0318
_refine_ls_wR_factor_gt 0.0318
_symmetry_cell_setting orthorhombic
_symmetry_space_group_name_H-M 'P 21 21 21'
_symmetry_Int_Tables_number 19
loop_
_symmetry_equiv_pos_site_id
_symmetry_equiv_pos_as_xyz
1 x,y,z
2 1/2+x,1/2-y,-z
3 -x,1/2+y,1/2-z
4 1/2-x,-y,1/2+z
_cell_length_a 7.096(1)
_cell_length_b 11.671(1)
_cell_length_c 19.277(2)
_cell_angle_alpha 90
_cell_angle_beta 90
_cell_angle_gamma 90
_cell_formula_units_Z 4
loop_
_atom_type_symbol
_atom_type_radius_bond
C 0.68
H 0.23
N 0.68
O 0.68
loop_
_atom_site_label
_atom_site_type_symbol
_atom_site_fract_x
_atom_site_fract_y
_atom_site_fract_z
O1 O 0.9889(3) 0.1968(2) 0.39047(10)
O2 O 0.3836(4) 0.3960(2) -0.16437(12)
O3 O 0.4110(4) 0.2128(2) -0.16312(12)
N1 N 0.6635(3) 0.1844(2) 0.37048(11)
N2 N 0.3999(3) 0.3048(3) -0.13353(15)
C1 C 0.8396(4) 0.2348(2) 0.34708(15)
H1 H 0.8645(4) 0.2091(2) 0.29955(15)
C2 C 0.8479(4) 0.3650(2) 0.34897(15)
H2 H 0.9639(4) 0.3901(2) 0.32718(15)
H3 H 0.8505(4) 0.3900(2) 0.39693(15)
C3 C 0.6819(4) 0.4216(2) 0.3124(2)
H4 H 0.6946(4) 0.4082(2) 0.2630(2)
H5 H 0.6902(4) 0.5036(2) 0.3199(2)
C4 C 0.4841(5) 0.3815(2) 0.3350(2)
H6 H 0.3967(5) 0.4448(2) 0.3258(2)
C5 C 0.4099(4) 0.2767(2) 0.29612(15)
H7 H 0.2800(4) 0.2637(2) 0.31150(15)
C6 C 0.5264(4) 0.1679(2) 0.31566(15)
H8 H 0.4396(4) 0.1080(2) 0.32976(15)
H9 H 0.5918(4) 0.1412(2) 0.27454(15)
C7 C 0.5746(4) 0.2402(2) 0.43064(15)
H10 H 0.6704(4) 0.2547(2) 0.46546(15)
H11 H 0.4831(4) 0.1880(2) 0.45063(15)
C8 C 0.4739(5) 0.3553(2) 0.4130(2)
H12 H 0.3430(5) 0.3509(2) 0.4272(2)
H13 H 0.5329(5) 0.4171(2) 0.4387(2)
C9 C 1.0265(4) 0.0781(2) 0.3814(2)
H14 H 1.1278(4) 0.0556(2) 0.4115(2)
H15 H 1.0614(4) 0.0639(2) 0.3341(2)
H16 H 0.9157(4) 0.0347(2) 0.3926(2)
C10 C 0.4052(4) 0.2935(3) 0.2202(2)
C11 C 0.4047(4) 0.3038(3) 0.1596(2)
C12 C 0.4047(4) 0.3064(3) 0.0851(2)
C13 C 0.3998(4) 0.4089(2) 0.0481(2)
H17 H 0.3980(4) 0.4780(2) 0.0721(2)
C14 C 0.3977(4) 0.4101(2) -0.0228(2)
H18 H 0.3938(4) 0.4789(2) -0.0471(2)
C15 C 0.4015(3) 0.3065(3) -0.05764(15)
C16 C 0.4062(4) 0.2041(3) -0.0232(2)
H19 H 0.4085(4) 0.1353(3) -0.0475(2)
C17 C 0.4074(4) 0.2045(3) 0.0473(2)
H20 H 0.4102(4) 0.1350(3) 0.0709(2)
#END
