
#######################################################################
#
#                 Cambridge Crystallographic Data Centre
#                                CCDC
#
#######################################################################
#
# If this CIF has been generated from an entry in the Cambridge
# Structural Database, then it will include bibliographic, chemical,
# crystal, experimental, refinement or atomic coordinate data resulting
# from the CCDC's data processing and validation procedures.
#
#######################################################################

data_CSD_CIF_XAGZIQ
_audit_creation_date 2011-02-15
_audit_creation_method CSD-ConQuest-V1
_database_code_CSD XAGZIQ
_database_code_depnum_ccdc_archive 'CCDC 797518'
_chemical_formula_sum 'C46 H42 N2 O6'
_chemical_formula_moiety
;
C46 H42 N2 O6
;
_journal_coden_Cambridge 1336
_journal_volume 12
_journal_year 2010
_journal_page_first 1472
_journal_name_full 'Org.Lett. '
loop_
_publ_author_name
"Wen-Ching Chen"
"Yi-Wei Lee"
"Chien-Tien Chen"
_chemical_name_systematic
;
(M)-5-Methyl-2-(2-(2-naphthyl)propan-2-yl)cyclohexyl 
8-(3,7-dinitro-5H-dibenzo[a,d][7]annulen-5-ylidene)-5,6,7,8-tetrahydronaphthal
ene-2-carboxylate
;
_cell_volume   1920.526
_exptl_crystal_colour 'yellow'
_exptl_crystal_density_diffrn 1.24
_exptl_crystal_description 'prism'
_diffrn_ambient_temperature 200
#These two values have been output from a single CSD field.
_refine_ls_R_factor_gt 0.074
_refine_ls_wR_factor_gt 0.074
_symmetry_cell_setting monoclinic
_symmetry_space_group_name_H-M 'P 21'
_symmetry_Int_Tables_number 4
loop_
_symmetry_equiv_pos_site_id
_symmetry_equiv_pos_as_xyz
1 x,y,z
2 -x,1/2+y,-z
_cell_length_a 10.9995(3)
_cell_length_b 14.5737(4)
_cell_length_c 12.0336(4)
_cell_angle_alpha 90
_cell_angle_beta 95.381(1)
_cell_angle_gamma 90
_cell_formula_units_Z 2
loop_
_atom_type_symbol
_atom_type_radius_bond
C 0.68
H 0.23
N 0.68
O 0.68
loop_
_atom_site_label
_atom_site_type_symbol
_atom_site_fract_x
_atom_site_fract_y
_atom_site_fract_z
O1 O 1.3714(4) 0.4534(3) 1.0249(4)
O2 O 1.3732(5) 0.5758(4) 0.9267(4)
O3 O 0.6158(4) 0.2825(4) 1.1926(3)
O4 O 0.8045(3) 0.2468(2) 1.2305(3)
O5 O 1.4967(3) 0.3036(3) 0.6142(3)
O6 O 1.2996(2) 0.3357(2) 0.5657(2)
N1 N 1.3270(4) 0.5037(3) 0.9498(4)
N2 N 0.7188(4) 0.2683(3) 1.1649(4)
C1 C 1.2151(4) 0.4745(3) 0.8841(4)
C2 C 1.1679(5) 0.5291(3) 0.7966(4)
H1 H 1.20510 0.58430 0.78070
C3 C 1.0640(4) 0.4996(3) 0.7333(4)
H2 H 1.03110 0.53530 0.67400
C4 C 1.0081(4) 0.4175(3) 0.7569(3)
C5 C 1.0585(3) 0.3626(3) 0.8454(3)
C6 C 1.1624(4) 0.3925(3) 0.9095(3)
H3 H 1.19610 0.35730 0.96920
C7 C 0.8987(4) 0.3899(3) 0.6844(4)
C8 C 0.8011(4) 0.3445(3) 0.7160(4)
C9 C 0.7817(4) 0.3153(3) 0.8302(4)
C10 C 0.6642(4) 0.3224(4) 0.8639(4)
H4 H 0.59970 0.33840 0.81190
C11 C 0.6422(4) 0.3063(4) 0.9724(4)
H5 H 0.56400 0.31240 0.99500
C12 C 0.7394(4) 0.2806(3) 1.0477(4)
C13 C 0.8542(4) 0.2681(3) 1.0161(3)
H6 H 0.91700 0.24920 1.06820
C14 C 0.8769(4) 0.2837(3) 0.9064(3)
C15 C 1.0034(3) 0.2729(3) 0.8698(3)
C16 C 1.0612(4) 0.1922(3) 0.8649(3)
C17 C 1.0097(5) 0.1035(3) 0.9043(4)
H7 H 0.99760 0.06050 0.84280
H8 H 0.93150 0.11440 0.93310
C18 C 1.1003(5) 0.0640(4) 0.9962(5)
H9 H 1.11060 0.10720 1.05770
H10 H 1.06750 0.00760 1.02400
C19 C 1.2215(5) 0.0450(4) 0.9552(5)
H11 H 1.21840 -0.01490 0.91990
H12 H 1.28220 0.04210 1.01900
C20 C 1.2627(4) 0.1135(3) 0.8743(4)
C21 C 1.1851(4) 0.1818(3) 0.8269(3)
C22 C 1.2269(4) 0.2376(3) 0.7429(3)
H13 H 1.17430 0.28080 0.70770
C23 C 1.3444(4) 0.2299(3) 0.7113(3)
C24 C 1.4234(4) 0.1648(3) 0.7631(4)
H14 H 1.50330 0.16050 0.74440
C25 C 1.3828(4) 0.1071(4) 0.8416(4)
H15 H 1.43550 0.06270 0.87430
C26 C 1.3903(4) 0.2931(3) 0.6269(3)
C27 C 1.3336(4) 0.4044(3) 0.4838(3)
H16 H 1.41600 0.39200 0.46300
C28 C 1.3309(4) 0.4961(4) 0.5434(4)
H17 H 1.25260 0.50260 0.57360
H18 H 1.39360 0.49600 0.60570
C29 C 1.3505(4) 0.5783(3) 0.4702(4)
H19 H 1.43380 0.57520 0.44790
C30 C 1.3380(6) 0.6666(4) 0.5348(6)
H20 H 1.35110 0.71810 0.48760
H21 H 1.39750 0.66750 0.59850
H22 H 1.25750 0.67020 0.55930
C31 C 1.2627(4) 0.5743(3) 0.3657(4)
H23 H 1.28180 0.62300 0.31530
H24 H 1.18010 0.58400 0.38530
C32 C 1.2697(4) 0.4821(4) 0.3069(4)
H25 H 1.35100 0.47470 0.28300
H26 H 1.21220 0.48210 0.24060
C33 C 1.2416(4) 0.3997(3) 0.3809(3)
H27 H 1.16070 0.41050 0.40630
C34 C 1.2350(4) 0.3065(3) 0.3167(3)
C35 C 1.1317(5) 0.3114(4) 0.2197(4)
H28 H 1.05520 0.32350 0.24940
H29 H 1.12680 0.25390 0.18040
H30 H 1.14900 0.35970 0.16930
C36 C 1.3558(5) 0.2874(4) 0.2653(4)
H31 H 1.37440 0.33800 0.21880
H32 H 1.34770 0.23240 0.22130
H33 H 1.42050 0.27980 0.32390
C37 C 1.2007(4) 0.2274(3) 0.3915(4)
C38 C 1.0891(4) 0.2316(3) 0.4427(4)
H34 H 1.03790 0.28180 0.42840
C39 C 1.0556(4) 0.1643(3) 0.5118(4)
H35 H 0.98230 0.16990 0.54400
C40 C 1.1293(4) 0.0862(3) 0.5359(4)
C41 C 1.2403(4) 0.0782(3) 0.4830(4)
C42 C 1.2712(4) 0.1506(3) 0.4118(4)
H36 H 1.34300 0.14550 0.37710
C43 C 1.0991(5) 0.0150(3) 0.6072(4)
H37 H 1.02690 0.01870 0.64150
C44 C 1.1736(5) -0.0601(4) 0.6275(4)
H38 H 1.15230 -0.10610 0.67550
C45 C 1.2814(5) -0.0666(4) 0.5755(5)
H39 H 1.33190 -0.11730 0.58900
C46 C 1.3137(4) 0.0005(4) 0.5050(4)
H40 H 1.38580 -0.00530 0.47100
#END
