
#######################################################################
#
#                 Cambridge Crystallographic Data Centre
#                                CCDC
#
#######################################################################
#
# If this CIF has been generated from an entry in the Cambridge
# Structural Database, then it will include bibliographic, chemical,
# crystal, experimental, refinement or atomic coordinate data resulting
# from the CCDC's data processing and validation procedures.
#
#######################################################################

data_CSD_CIF_XAHBIR
_audit_creation_date 2001-01-15
_audit_creation_method CSD-ConQuest-V1
_database_code_CSD XAHBIR
_database_code_depnum_ccdc_archive 'CCDC 152770'
_database_code_depnum_ccdc_journal 188/272
_chemical_formula_sum 'C10 H8 N4 O2'
_chemical_formula_moiety
;
C10 H8 N4 O2
;
_journal_coden_Cambridge 188
_journal_year 2000
_journal_page_first 2280
_journal_name_full 'J.Chem.Soc.,Perkin Trans.2 '
loop_
_publ_author_name
"B.G.Gowenlock"
"M.J.Maidment"
"K.G.Orrell"
"V.Sik"
"G.Mele"
"G.Vasapollo"
"M.B.Hursthouse"
"K.M.A.Malik"
_chemical_name_systematic
;
(Z)-2,2'-Azodioxypyridine
;
_cell_volume    492.382
_exptl_crystal_colour 'tan'
_exptl_crystal_density_diffrn 1.458
_diffrn_ambient_temperature ?
_diffrn_special_details
;
The study was carried out at room temperature,in the range 283-303K

;
#These two values have been output from a single CSD field.
_refine_ls_R_factor_gt 0.0604
_refine_ls_wR_factor_gt 0.0604
_symmetry_cell_setting triclinic
_symmetry_space_group_name_H-M 'P -1'
_symmetry_Int_Tables_number 2
loop_
_symmetry_equiv_pos_site_id
_symmetry_equiv_pos_as_xyz
1 x,y,z
2 -x,-y,-z
_cell_length_a 6.231(2)
_cell_length_b 8.198(3)
_cell_length_c 10.300(4)
_cell_angle_alpha 99.17(3)
_cell_angle_beta 95.29(4)
_cell_angle_gamma 106.630(16)
_cell_formula_units_Z 2
loop_
_atom_type_symbol
_atom_type_radius_bond
C 0.68
H 0.23
N 0.68
O 0.68
loop_
_atom_site_label
_atom_site_type_symbol
_atom_site_fract_x
_atom_site_fract_y
_atom_site_fract_z
N1 N 0.4160(4) 0.2169(4) 0.6712(3)
O1 O 0.2751(4) 0.2718(3) 0.6072(2)
N2 N 0.6071(5) 0.3319(4) 0.7351(3)
N3 N 0.5565(4) -0.0210(4) 0.6632(3)
O2 O 0.6521(4) 0.4880(3) 0.7224(3)
N4 N 0.6354(5) 0.2129(4) 0.9256(3)
C1 C 0.3749(6) 0.0320(4) 0.6580(3)
C2 C 0.3036(6) -0.3103(5) 0.6240(4)
C3 C 0.1190(6) -0.2502(5) 0.6152(4)
C4 C 0.1544(6) -0.0727(5) 0.6343(4)
C5 C 0.7654(7) 0.1767(5) 1.0225(4)
C6 C 0.7456(6) 0.2871(4) 0.8388(4)
C7 C 0.5157(6) -0.1924(5) 0.6469(3)
C8 C 1.1028(7) 0.2989(5) 0.9403(4)
C9 C 0.9954(6) 0.2174(5) 1.0323(4)
C10 C 0.9759(6) 0.3373(5) 0.8380(4)
H1 H 0.287(5) -0.423(4) 0.613(3)
H2 H -0.033(6) -0.335(5) 0.607(3)
H3 H 0.675(6) 0.131(5) 1.089(4)
H4 H 1.081(7) 0.190(6) 1.113(4)
H5 H 1.046(6) 0.399(5) 0.772(4)
H6 H 1.252(7) 0.326(5) 0.953(4)
H7 H 0.660(6) -0.230(5) 0.653(3)
H8 H 0.034(6) -0.030(5) 0.630(4)
#END
