
#######################################################################
#
#                 Cambridge Crystallographic Data Centre
#                                CCDC
#
#######################################################################
#
# If this CIF has been generated from an entry in the Cambridge
# Structural Database, then it will include bibliographic, chemical,
# crystal, experimental, refinement or atomic coordinate data resulting
# from the CCDC's data processing and validation procedures.
#
#######################################################################

data_CSD_CIF_XAHBEN
_audit_creation_date 2001-01-15
_audit_creation_method CSD-ConQuest-V1
_database_code_CSD XAHBEN
_database_code_depnum_ccdc_archive 'CCDC 152762'
_database_code_depnum_ccdc_journal 188/271
_chemical_formula_sum 'C20 H20 N2 O8'
_chemical_formula_moiety
;
C20 H20 N2 O8
;
_journal_coden_Cambridge 188
_journal_year 2000
_journal_page_first 2225
_journal_name_full 'J.Chem.Soc.,Perkin Trans.2 '
loop_
_publ_author_name
"J.P.Kujanpaa"
"F.G.Riddell"
_chemical_name_systematic
;
Hexane-1,6-diyl bis(p-nitrobenzoate)
;
_chemical_melting_point 393.15
_cell_volume   1016.452
_exptl_crystal_colour 'colorless'
_exptl_crystal_density_diffrn 1.36
_exptl_special_details
;
Melting point range 393.15-395.15K

;
_exptl_crystal_description 'block'
_exptl_crystal_preparation 'ethyl acetate/ethanol'
_diffrn_ambient_temperature ?
_diffrn_special_details
;
The study was carried out at room temperature,in the range 283-303K

;
#These two values have been output from a single CSD field.
_refine_ls_R_factor_gt 0.0368
_refine_ls_wR_factor_gt 0.0368
_symmetry_cell_setting monoclinic
_symmetry_space_group_name_H-M 'P 21/n'
_symmetry_Int_Tables_number 14
loop_
_symmetry_equiv_pos_site_id
_symmetry_equiv_pos_as_xyz
1 x,y,z
2 1/2-x,1/2+y,1/2-z
3 -x,-y,-z
4 -1/2+x,-1/2-y,-1/2+z
_cell_length_a 8.982(3)
_cell_length_b 12.471(3)
_cell_length_c 9.086(3)
_cell_angle_alpha 90
_cell_angle_beta 92.91(3)
_cell_angle_gamma 90
_cell_formula_units_Z 2
loop_
_atom_type_symbol
_atom_type_radius_bond
C 0.68
H 0.23
N 0.68
O 0.68
loop_
_atom_site_label
_atom_site_type_symbol
_atom_site_fract_x
_atom_site_fract_y
_atom_site_fract_z
O1 O -0.0180(3) -0.2976(2) 0.2142(3)
O2 O -0.0932(2) -0.1763(2) 0.0594(2)
O3 O 0.3534(2) 0.0780(1) 0.6359(2)
O4 O 0.2548(2) 0.2108(1) 0.5004(2)
N1 N -0.0257(3) -0.2049(2) 0.1726(3)
C1 C 0.0539(3) -0.1226(2) 0.2640(3)
C2 C 0.0343(3) -0.0175(2) 0.2258(3)
C3 C 0.1067(3) 0.0595(2) 0.3122(3)
C4 C 0.1958(3) 0.0301(2) 0.4343(3)
C5 C 0.2134(3) -0.0770(2) 0.4691(3)
C6 C 0.1423(3) -0.1543(2) 0.3833(3)
C7 C 0.2694(3) 0.1172(2) 0.5246(3)
C8 C 0.4343(3) 0.1565(2) 0.7276(3)
C9 C 0.5312(3) 0.0934(2) 0.8383(3)
C10 C 0.4472(3) 0.0300(2) 0.9443(3)
H1 H -0.02730 0.00210 0.14220
H2 H 0.09510 0.13320 0.28760
H3 H 0.27490 -0.09740 0.55260
H4 H 0.15430 -0.22820 0.40640
H5 H 0.49450 0.20010 0.66890
H6 H 0.36640 0.20050 0.77720
H7 H 0.59110 0.04560 0.78550
H8 H 0.59340 0.14250 0.89250
H9 H 0.39130 0.07700 1.00240
H10 H 0.38150 -0.01780 0.89190
C10B C 0.5528(3) -0.0300(2) 1.0557(3)
C9B C 0.4688(3) -0.0934(2) 1.1617(3)
C8B C 0.5657(3) -0.1565(2) 1.2724(3)
O3B O 0.6466(2) -0.0780(1) 1.3641(2)
C7B C 0.7306(3) -0.1172(2) 1.4754(3)
O4B O 0.7452(2) -0.2108(1) 1.4996(2)
C4B C 0.8042(3) -0.0301(2) 1.5657(3)
C3B C 0.8933(3) -0.0595(2) 1.6878(3)
C2B C 0.9657(3) 0.0175(2) 1.7742(3)
C1B C 0.9461(3) 0.1226(2) 1.7360(3)
N1B N 1.0257(3) 0.2049(2) 1.8274(3)
O1B O 1.0180(3) 0.2976(2) 1.7858(3)
O2B O 1.0932(2) 0.1763(2) 1.9406(2)
C6B C 0.8577(3) 0.1543(2) 1.6167(3)
C5B C 0.7866(3) 0.0770(2) 1.5309(3)
H3B H 0.72510 0.09740 1.44740
H4B H 0.84570 0.22820 1.59360
H1B H 1.02730 -0.00210 1.85780
H2B H 0.90490 -0.13320 1.71240
H5B H 0.50550 -0.20010 1.33110
H6B H 0.63360 -0.20050 1.22280
H7B H 0.40890 -0.04560 1.21450
H8B H 0.40660 -0.14250 1.10750
H9B H 0.60870 -0.07700 0.99760
H10B H 0.61850 0.01780 1.10810
#END
