
#######################################################################
#
#                 Cambridge Crystallographic Data Centre
#                                CCDC
#
#######################################################################
#
# If this CIF has been generated from an entry in the Cambridge
# Structural Database, then it will include bibliographic, chemical,
# crystal, experimental, refinement or atomic coordinate data resulting
# from the CCDC's data processing and validation procedures.
#
#######################################################################

data_CSD_CIF_XAJJIE
_audit_creation_date 2016-01-18
_audit_creation_method CSD-ConQuest-V1
_database_code_CSD XAJJIE
_database_code_depnum_ccdc_archive 'CCDC 1417307'
_chemical_formula_sum 'C22 H26 N2 O8'
_chemical_formula_moiety
;
C22 H26 N2 O8
;
_journal_coden_Cambridge 1194
_journal_volume 321
_journal_year 2016
_journal_page_first 41
_journal_name_full 'J.Photochem.Photobiol.A:Chem. '
loop_
_publ_author_name
"N.C.Kasuga"
"Y.Saito"
"N.Okamura"
"T.Miyazaki"
"H.Satou"
"K.Watanabe"
"T.Ohta"
"S.Morimoto"
"K.Yamaguchi"
_chemical_name_systematic
;
2-((2-(2,2-Dimethylpropanoyl)-4,5-dimethoxyphenyl)-ONN-azoxy)-4,5-dimethoxyben
zoic acid
;
_cell_volume   1112.934
_exptl_crystal_colour 'yellow'
_exptl_crystal_density_diffrn 1.332
_exptl_crystal_description 'platelet'
_diffrn_ambient_temperature 120
#These two values have been output from a single CSD field.
_refine_ls_R_factor_gt 0.0536
_refine_ls_wR_factor_gt 0.0536
_symmetry_cell_setting triclinic
_symmetry_space_group_name_H-M 'P -1'
_symmetry_Int_Tables_number 2
loop_
_symmetry_equiv_pos_site_id
_symmetry_equiv_pos_as_xyz
1 x,y,z
2 -x,-y,-z
_cell_length_a 7.423(3)
_cell_length_b 10.466(5)
_cell_length_c 15.326(8)
_cell_angle_alpha 85.928(16)
_cell_angle_beta 87.980(17)
_cell_angle_gamma 69.577(13)
_cell_formula_units_Z 2
loop_
_atom_type_symbol
_atom_type_radius_bond
C 0.68
H 0.23
N 0.68
O 0.68
loop_
_atom_site_label
_atom_site_type_symbol
_atom_site_fract_x
_atom_site_fract_y
_atom_site_fract_z
O1 O 0.41667(19) 0.16293(13) 0.78787(8)
O2 O -0.1776(2) -0.61707(13) 0.72899(9)
O3 O -0.47835(19) -0.57282(13) 0.82911(9)
O4 O -0.34320(19) -0.06452(13) 0.92330(9)
H1 H -0.42430 0.00740 0.94120
O5 O 0.1198(2) 0.20041(13) 0.88817(8)
O6 O 0.3155(2) -0.34256(14) 0.69086(9)
O7 O -0.54585(19) -0.15747(13) 0.98986(9)
N1 N -0.0542(2) -0.22806(15) 0.8333(1)
O8 O -0.0965(2) -0.16102(14) 0.68836(9)
C1 C -0.3426(3) -0.27808(18) 0.87918(12)
N2 N -0.0238(2) -0.16710(15) 0.76266(10)
C2 C 0.3755(3) -0.03084(18) 0.72302(12)
H2 H 0.48780 -0.04590 0.68760
C3 C -0.1210(3) -0.41666(19) 0.77377(12)
H3 H -0.01110 -0.43250 0.73660
C4 C 0.1589(3) 0.09467(18) 0.83519(12)
C5 C -0.2233(3) -0.50412(18) 0.77630(12)
C6 C -0.4086(3) -0.15753(18) 0.93245(12)
C7 C 0.1045(3) -0.08994(18) 0.77117(12)
C8 C 0.0504(3) 0.01155(19) 0.83075(12)
H4 H -0.05900 0.02350 0.86770
C9 C -0.4474(3) -0.36667(18) 0.88022(12)
H5 H -0.56020 -0.34880 0.91560
C10 C -0.0472(3) 0.2258(2) 0.94345(13)
H6 H -0.16100 0.24470 0.90740
H7 H -0.06240 0.30480 0.97750
H8 H -0.03230 0.14540 0.98330
C11 C -0.1786(3) -0.30410(18) 0.82593(12)
C12 C -0.3893(3) -0.47965(18) 0.83057(12)
C13 C 0.3230(3) 0.07356(19) 0.78026(12)
C14 C -0.6534(3) -0.5461(2) 0.87864(13)
H9 H -0.62780 -0.54240 0.94050
H10 H -0.70500 -0.61920 0.87200
H11 H -0.74710 -0.45850 0.85730
C15 C 0.5633(3) 0.1606(2) 0.72510(14)
H12 H 0.66660 0.07140 0.73000
H13 H 0.61500 0.23230 0.73580
H14 H 0.50940 0.17650 0.66620
C16 C 0.2642(3) -0.11458(18) 0.71693(12)
C17 C 0.3676(3) -0.2166(2) 0.56204(13)
C18 C 0.3171(3) -0.23316(19) 0.65932(12)
C19 C -0.0098(3) -0.6451(2) 0.67415(13)
H15 H -0.02740 -0.56890 0.63040
H16 H 0.01060 -0.72910 0.64460
H17 H 0.10220 -0.65640 0.70990
C20 C 0.2826(3) -0.0674(2) 0.52550(13)
H18 H 0.29310 -0.06390 0.46150
H19 H 0.35340 -0.01410 0.54870
H20 H 0.14690 -0.02910 0.54290
C21 C 0.5884(3) -0.2709(2) 0.55309(15)
H21 H 0.62510 -0.26090 0.49160
H22 H 0.63840 -0.36770 0.57340
H23 H 0.64210 -0.21890 0.58860
C22 C 0.2843(4) -0.3043(3) 0.51188(15)
H24 H 0.14420 -0.27160 0.51920
H25 H 0.33830 -0.39970 0.53470
H26 H 0.31720 -0.29790 0.44960
#END
