
#######################################################################
#
#                 Cambridge Crystallographic Data Centre
#                                CCDC
#
#######################################################################
#
# If this CIF has been generated from an entry in the Cambridge
# Structural Database, then it will include bibliographic, chemical,
# crystal, experimental, refinement or atomic coordinate data resulting
# from the CCDC's data processing and validation procedures.
#
#######################################################################

data_CSD_CIF_XAJMUR
_audit_creation_date 2005-01-11
_audit_creation_method CSD-ConQuest-V1
_database_code_CSD XAJMUR
_database_code_depnum_ccdc_archive 'CCDC 250639'
_chemical_formula_sum 'C42 H38 N2 O2'
_chemical_formula_moiety
;
C42 H38 N2 O2
;
_journal_coden_Cambridge 35
_journal_volume 69
_journal_year 2004
_journal_page_first 5926
_journal_name_full 'J.Org.Chem. '
loop_
_publ_author_name
"A.F.Bella"
"A.M.Z.Slawin"
"J.C.Walton"
_chemical_name_systematic
;
N-Benzyl-1-methyl-N-(2-(N-(trityloxy)ethanimidoyl)phenyl)-2,5-cyclohexadiene-1
-carboxamide
;
_chemical_melting_point 437.15
_cell_volume   1674.856
_exptl_crystal_colour 'colorless'
_exptl_crystal_density_diffrn 1.195
_exptl_special_details
;
Melting point range 437.15-439.15K

;
_exptl_crystal_description 'prism'
_exptl_crystal_preparation 'ethyl acetate/hexane/dichloromethane'
_diffrn_ambient_temperature 125
#These two values have been output from a single CSD field.
_refine_ls_R_factor_gt 0.0647
_refine_ls_wR_factor_gt 0.0647
_symmetry_cell_setting triclinic
_symmetry_space_group_name_H-M 'P -1'
_symmetry_Int_Tables_number 2
loop_
_symmetry_equiv_pos_site_id
_symmetry_equiv_pos_as_xyz
1 x,y,z
2 -x,-y,-z
_cell_length_a 8.4178(15)
_cell_length_b 12.781(2)
_cell_length_c 16.416(3)
_cell_angle_alpha 84.841(3)
_cell_angle_beta 83.997(3)
_cell_angle_gamma 72.819(3)
_cell_formula_units_Z 2
loop_
_atom_type_symbol
_atom_type_radius_bond
C 0.68
H 0.23
N 0.68
O 0.68
loop_
_atom_site_label
_atom_site_type_symbol
_atom_site_fract_x
_atom_site_fract_y
_atom_site_fract_z
C1 C 0.1083(3) 0.0402(2) 0.78976(16)
C2 C -0.0529(3) 0.09766(19) 0.75220(14)
H1 H -0.04930 0.14720 0.70570
C3 C -0.1990(3) 0.0837(2) 0.77967(16)
H2 H -0.29170 0.11750 0.74850
C4 C -0.2266(4) 0.0185(3) 0.85626(19)
H3 H -0.30910 0.06680 0.89440
H4 H -0.27400 -0.03970 0.84320
C5 C -0.0721(4) -0.0327(2) 0.89752(18)
H5 H -0.07990 -0.07560 0.94730
C6 C 0.0754(4) -0.0230(2) 0.86995(18)
H6 H 0.16690 -0.05720 0.90180
C7 C 0.2202(3) 0.1110(2) 0.80852(19)
O1 O 0.3697(3) 0.0677(2) 0.8116(2)
N1 N 0.1537(2) 0.22007(16) 0.82148(11)
C8 C -0.0211(3) 0.27746(17) 0.83152(13)
C9 C -0.0921(3) 0.36235(17) 0.77475(13)
C10 C -0.2619(3) 0.41706(18) 0.78719(14)
H7 H -0.31210 0.47430 0.74870
C11 C -0.3587(3) 0.38960(19) 0.85453(14)
H8 H -0.47470 0.42650 0.86140
C12 C -0.2855(3) 0.30835(19) 0.91159(14)
H9 H -0.35100 0.29000 0.95830
C13 C -0.1173(3) 0.25357(18) 0.90109(13)
H10 H -0.06690 0.19940 0.94150
C14 C 0.0080(3) 0.39855(18) 0.70285(13)
N2 N -0.0133(2) 0.50233(15) 0.69721(11)
O2 O 0.0813(2) 0.53226(12) 0.62722(9)
C15 C 0.0706(3) 0.64823(17) 0.62727(13)
C16 C -0.1105(3) 0.71758(19) 0.62222(13)
C17 C -0.1748(3) 0.8200(2) 0.65431(16)
H11 H -0.10900 0.84580 0.68690
C18 C -0.3349(3) 0.8854(2) 0.63928(18)
H12 H -0.37820 0.95480 0.66220
C19 C -0.4311(3) 0.8489(3) 0.59083(18)
H13 H -0.53920 0.89410 0.57940
C20 C -0.3690(3) 0.7470(3) 0.55937(16)
H14 H -0.43490 0.72170 0.52660
C21 C -0.2116(3) 0.6818(2) 0.57526(14)
H15 H -0.17100 0.61120 0.55390
C22 C 0.1689(3) 0.66971(18) 0.54624(13)
C23 C 0.2684(3) 0.58473(19) 0.50036(13)
H16 H 0.27750 0.51090 0.51930
C24 C 0.3549(3) 0.6066(2) 0.42696(14)
H17 H 0.42200 0.54760 0.39600
C25 C 0.3440(3) 0.7131(2) 0.39893(14)
H18 H 0.40240 0.72780 0.34850
C26 C 0.2470(3) 0.7990(2) 0.44480(15)
H19 H 0.24050 0.87270 0.42640
C27 C 0.1596(3) 0.77704(19) 0.51751(14)
H20 H 0.09240 0.83620 0.54820
C28 C 0.1539(3) 0.66393(17) 0.70197(13)
C29 C 0.0673(3) 0.6731(2) 0.77977(14)
H21 H -0.04700 0.67520 0.78560
C30 C 0.1462(4) 0.6791(2) 0.84818(15)
H22 H 0.08580 0.68500 0.90060
C31 C 0.3118(4) 0.6766(2) 0.84095(15)
H23 H 0.36560 0.68040 0.88820
C32 C 0.3994(3) 0.6685(2) 0.76437(16)
H24 H 0.51340 0.66710 0.75890
C33 C 0.3203(3) 0.66235(18) 0.69564(14)
H25 H 0.38110 0.65700 0.64330
C34 C 0.2160(4) -0.0417(2) 0.7278(2)
H26 H 0.15720 -0.09460 0.71820
H27 H 0.32280 -0.08070 0.75000
H28 H 0.23630 -0.00160 0.67590
C35 C 0.2695(3) 0.2824(2) 0.83711(15)
H29 H 0.23420 0.35610 0.80850
H30 H 0.38290 0.24440 0.81350
C36 C 0.2766(3) 0.2954(2) 0.92646(15)
C37 C 0.3479(4) 0.2072(3) 0.97827(19)
H31 H 0.39010 0.13540 0.95920
C38 C 0.3565(6) 0.2274(5) 1.0630(3)
H32 H 0.40420 0.16990 1.10180
C39 C 0.2891(7) 0.3394(7) 1.0853(3)
H33 H 0.29560 0.35580 1.13990
C40 C 0.2209(6) 0.4177(6) 1.0347(4)
H34 H 0.17490 0.48990 1.05270
C41 C 0.2138(4) 0.3986(3) 0.9567(2)
H35 H 0.16330 0.45860 0.92040
C42 C 0.1148(3) 0.32112(19) 0.64240(14)
H36 H 0.06400 0.33520 0.58990
H37 H 0.12430 0.24540 0.66330
H38 H 0.22600 0.33200 0.63430
#END
