
#######################################################################
#
#                 Cambridge Crystallographic Data Centre
#                                CCDC
#
#######################################################################
#
# If this CIF has been generated from an entry in the Cambridge
# Structural Database, then it will include bibliographic, chemical,
# crystal, experimental, refinement or atomic coordinate data resulting
# from the CCDC's data processing and validation procedures.
#
#######################################################################

data_CSD_CIF_XAKLOL
_audit_creation_date 2005-08-12
_audit_creation_method CSD-ConQuest-V1
_database_code_CSD XAKLOL
_database_code_depnum_ccdc_archive 'CCDC 268431'
_chemical_formula_sum 'C25 H25 N3 O2'
_chemical_formula_moiety
;
C25 H25 N3 O2
;
_journal_coden_Cambridge 1278
_journal_volume 109
_journal_year 2005
_journal_page_first 4377
_journal_name_full 'J.Phys.Chem.B '
loop_
_publ_author_name
"B.Bag"
"P.K.Bharadwaj"
_chemical_name_systematic
;
N,N-Dimethyl-N'-(anthracen-9-ylmethyl)-N'-(4-nitrophenyl)ethylenediamine
;
_chemical_melting_point 454.15
_cell_volume   2011.030
_exptl_crystal_colour 'yellow'
_exptl_crystal_density_diffrn 1.319
_exptl_special_details
;
temperature published as 273 K

;
_exptl_crystal_description 'block'
_exptl_crystal_preparation 'acetonitrile'
_diffrn_ambient_temperature 293
#These two values have been output from a single CSD field.
_refine_ls_R_factor_gt 0.0566
_refine_ls_wR_factor_gt 0.0566
_symmetry_cell_setting monoclinic
_symmetry_space_group_name_H-M 'P 21/c'
_symmetry_Int_Tables_number 14
loop_
_symmetry_equiv_pos_site_id
_symmetry_equiv_pos_as_xyz
1 x,y,z
2 -x,1/2+y,1/2-z
3 -x,-y,-z
4 x,-1/2-y,-1/2+z
_cell_length_a 9.3950(2)
_cell_length_b 21.4030(2)
_cell_length_c 10.1200(5)
_cell_angle_alpha 90
_cell_angle_beta 98.792(6)
_cell_angle_gamma 90
_cell_formula_units_Z 4
loop_
_atom_type_symbol
_atom_type_radius_bond
C 0.68
H 0.23
N 0.68
O 0.68
loop_
_atom_site_label
_atom_site_type_symbol
_atom_site_fract_x
_atom_site_fract_y
_atom_site_fract_z
O1 O 0.36373(16) 0.03442(7) 0.27500(14)
O2 O 0.19738(15) 0.06081(7) 0.11085(15)
N1 N 0.54051(16) 0.18683(7) -0.45437(15)
N2 N 0.74738(15) 0.10898(7) -0.15944(14)
N3 N 0.32554(18) 0.05464(7) 0.16067(16)
C1 C 0.5722(2) 0.15695(10) -0.57612(19)
H1 H 0.59700 0.11400 -0.55800
H2 H 0.65160 0.17800 -0.60640
H3 H 0.48910 0.15930 -0.64410
C2 C 0.5037(2) 0.25202(9) -0.4825(2)
H4 H 0.42400 0.25440 -0.55400
H5 H 0.58520 0.27340 -0.50800
H6 H 0.47760 0.27130 -0.40400
C3 C 0.6621(2) 0.18353(8) -0.34546(18)
H7 H 0.63800 0.20620 -0.26890
H8 H 0.74500 0.20360 -0.37350
C4 C 0.70160(19) 0.11573(8) -0.30355(17)
H9 H 0.61870 0.08910 -0.33070
H10 H 0.77860 0.10160 -0.35010
C5 C 0.64557(19) 0.09705(8) -0.07902(17)
C6 C 0.68354(19) 0.07482(8) 0.05318(17)
H11 H 0.78010 0.06890 0.08780
C7 C 0.5794(2) 0.06177(8) 0.13144(17)
H12 H 0.60570 0.04680 0.21800
C8 C 0.4350(2) 0.07105(8) 0.08055(18)
C9 C 0.39410(19) 0.09393(8) -0.04806(18)
H13 H 0.29730 0.10070 -0.08050
C10 C 0.49721(19) 0.10650(8) -0.12713(17)
H14 H 0.46930 0.12140 -0.21350
C11 C 0.90115(19) 0.10028(8) -0.10550(17)
H15 H 0.92070 0.05600 -0.09380
H16 H 0.92120 0.11990 -0.01820
C12 C 1.00100(19) 0.12740(8) -0.19438(17)
C13 C 1.02405(18) 0.19269(8) -0.19330(17)
C14 C 0.9519(2) 0.23513(9) -0.11637(18)
H17 H 0.88890 0.21950 -0.06210
C15 C 0.9740(2) 0.29804(9) -0.1212(2)
H18 H 0.92610 0.32450 -0.06990
C16 C 1.0690(2) 0.32384(9) -0.2033(2)
H19 H 1.08160 0.36690 -0.20690
C17 C 1.1411(2) 0.28544(9) -0.2763(2)
H20 H 1.20380 0.30250 -0.32930
C18 C 1.12270(19) 0.21922(9) -0.27343(18)
C19 C 1.19549(19) 0.17970(9) -0.34993(18)
H21 H 1.26140 0.19670 -0.39970
C20 C 1.17226(19) 0.11556(8) -0.35386(17)
C21 C 1.2460(2) 0.07610(9) -0.43524(18)
H22 H 1.31150 0.09360 -0.48480
C22 C 1.2222(2) 0.01379(9) -0.44126(18)
H23 H 1.27140 -0.01130 -0.49420
C23 C 1.1220(2) -0.01322(9) -0.36665(18)
H24 H 1.10550 -0.05610 -0.37200
C24 C 1.0492(2) 0.02221(8) -0.28721(18)
H25 H 0.98380 0.00320 -0.23960
C25 C 1.07184(18) 0.08844(8) -0.27588(17)
#END
