
#######################################################################
#
#                 Cambridge Crystallographic Data Centre
#                                CCDC
#
#######################################################################
#
# If this CIF has been generated from an entry in the Cambridge
# Structural Database, then it will include bibliographic, chemical,
# crystal, experimental, refinement or atomic coordinate data resulting
# from the CCDC's data processing and validation procedures.
#
#######################################################################

data_CSD_CIF_XAKMEC
_audit_creation_date 2005-08-12
_audit_creation_method CSD-ConQuest-V1
_database_code_CSD XAKMEC
_database_code_depnum_ccdc_archive 'CCDC 268434'
_chemical_formula_sum 'C23 H20 N4 O4'
_chemical_formula_moiety
;
C23 H20 N4 O4
;
_journal_coden_Cambridge 1278
_journal_volume 109
_journal_year 2005
_journal_page_first 4377
_journal_name_full 'J.Phys.Chem.B '
loop_
_publ_author_name
"B.Bag"
"P.K.Bharadwaj"
_chemical_name_systematic
;
N-(Anthracen-9-ylmethyl)-N'-(2,4-dinitrophenyl)ethylenediamine
;
_chemical_melting_point 445.15
_cell_volume    995.909
_exptl_crystal_colour 'pale brown'
_exptl_crystal_density_diffrn 1.389
_exptl_special_details
;
temperature published as 273 K

;
_exptl_crystal_description 'prism'
_exptl_crystal_preparation 'chloroform/ethanol'
_diffrn_ambient_temperature 293
#These two values have been output from a single CSD field.
_refine_ls_R_factor_gt 0.0524
_refine_ls_wR_factor_gt 0.0524
_symmetry_cell_setting monoclinic
_symmetry_space_group_name_H-M 'P 21'
_symmetry_Int_Tables_number 4
loop_
_symmetry_equiv_pos_site_id
_symmetry_equiv_pos_as_xyz
1 x,y,z
2 -x,1/2+y,-z
_cell_length_a 7.9210(8)
_cell_length_b 14.2947(14)
_cell_length_c 8.7995(9)
_cell_angle_alpha 90
_cell_angle_beta 91.710(2)
_cell_angle_gamma 90
_cell_formula_units_Z 2
loop_
_atom_type_symbol
_atom_type_radius_bond
C 0.68
H 0.23
N 0.68
O 0.68
loop_
_atom_site_label
_atom_site_type_symbol
_atom_site_fract_x
_atom_site_fract_y
_atom_site_fract_z
O1 O 0.5149(2) 0.51323(14) 0.85496(19)
O2 O 0.4247(2) 0.46329(12) 0.63569(19)
O3 O -0.1113(2) 0.54304(14) 0.42812(19)
O4 O -0.2985(2) 0.60723(14) 0.5694(2)
N1 N 0.3001(2) 0.58026(13) 1.0482(2)
H1 H 0.39960 0.55780 1.03630
N2 N 0.5702(2) 0.64083(13) 1.2287(2)
H2 H 0.64080 0.60730 1.18010
N3 N 0.4017(2) 0.50438(14) 0.7556(2)
N4 N -0.1560(3) 0.57494(14) 0.5503(2)
C1 C 0.2623(3) 0.61612(17) 1.1981(2)
H3 H 0.16770 0.58240 1.23920
H4 H 0.23290 0.68190 1.19180
C2 C 0.4198(3) 0.60284(17) 1.3004(2)
H5 H 0.40390 0.63410 1.39670
H6 H 0.43630 0.53670 1.32060
C3 C 0.5866(3) 0.74214(16) 1.2494(3)
H7 H 0.60620 0.75550 1.35650
H8 H 0.48150 0.77200 1.21740
C4 C 0.7281(3) 0.78297(15) 1.1611(2)
C5 C 0.7013(3) 0.80325(16) 1.0053(3)
C6 C 0.5476(4) 0.78192(17) 0.9251(3)
H9 H 0.46000 0.75350 0.97600
C7 C 0.5272(4) 0.8027(2) 0.7750(3)
H10 H 0.42620 0.78780 0.72410
C8 C 0.6584(5) 0.8468(2) 0.6948(3)
H11 H 0.64140 0.86160 0.59260
C9 C 0.8054(4) 0.86727(19) 0.7646(3)
H12 H 0.89030 0.89540 0.70990
C10 C 0.8349(4) 0.84665(16) 0.9221(3)
C11 C 0.9878(4) 0.86791(17) 0.9965(3)
H13 H 1.07260 0.89660 0.94240
C12 C 1.0169(3) 0.84746(16) 1.1491(3)
C13 C 1.1729(3) 0.87089(18) 1.2273(4)
H14 H 1.25690 0.90110 1.17420
C14 C 1.2011(3) 0.85044(17) 1.3751(3)
H15 H 1.30330 0.86650 1.42290
C15 C 1.0753(3) 0.80451(18) 1.4574(3)
H16 H 1.09650 0.78900 1.55890
C16 C 0.9231(3) 0.78263(17) 1.3901(3)
H17 H 0.84120 0.75380 1.44750
C17 C 0.8862(3) 0.80303(15) 1.2329(3)
C18 C 0.1938(3) 0.57910(15) 0.9273(2)
C19 C 0.2372(3) 0.54442(15) 0.7826(2)
C20 C 0.1226(3) 0.54291(15) 0.6598(2)
H18 H 0.15380 0.51900 0.56650
C21 C -0.0368(3) 0.57709(16) 0.6785(3)
C22 C -0.0874(3) 0.61197(16) 0.8187(3)
H19 H -0.19670 0.63430 0.82960
C23 C 0.0253(3) 0.61290(16) 0.9390(2)
H20 H -0.00890 0.63630 1.03170
#END
