
#######################################################################
#
#                 Cambridge Crystallographic Data Centre
#                                CCDC
#
#######################################################################
#
# If this CIF has been generated from an entry in the Cambridge
# Structural Database, then it will include bibliographic, chemical,
# crystal, experimental, refinement or atomic coordinate data resulting
# from the CCDC's data processing and validation procedures.
#
#######################################################################

data_CSD_CIF_XAKVOX
_audit_creation_date 2017-02-24
_audit_creation_method CSD-ConQuest-V1
_database_code_CSD XAKVOX
_database_code_depnum_ccdc_archive 'CCDC 1496146'
_chemical_formula_sum 'C26 H21 N1 O6'
_chemical_formula_moiety
;
C26 H21 N1 O6
;
_journal_coden_Cambridge 1336
_journal_volume 19
_journal_year 2017
_journal_page_first 778
_journal_name_full 'Org.Lett. '
loop_
_publ_author_name
"Xuanyi Li"
"Chunhua Han"
"Hequan Yao"
"Aijun Lin"
_chemical_name_systematic
;
ethyl (2-(4-nitrophenyl)-5-oxo-3,4-diphenyl-2,5-dihydrofuran-2-yl)acetate
;
_cell_volume   2196.470
_exptl_crystal_colour 'colorless'
_exptl_crystal_density_diffrn 1.341
_exptl_crystal_description 'block'
_diffrn_ambient_temperature 296
#These two values have been output from a single CSD field.
_refine_ls_R_factor_gt 0.0496
_refine_ls_wR_factor_gt 0.0496
_symmetry_cell_setting monoclinic
_symmetry_space_group_name_H-M 'P 21/c'
_symmetry_Int_Tables_number 14
loop_
_symmetry_equiv_pos_site_id
_symmetry_equiv_pos_as_xyz
1 x,y,z
2 -x,1/2+y,1/2-z
3 -x,-y,-z
4 x,-1/2-y,-1/2+z
_cell_length_a 16.642(16)
_cell_length_b 13.249(12)
_cell_length_c 10.403(10)
_cell_angle_alpha 90
_cell_angle_beta 106.747(13)
_cell_angle_gamma 90
_cell_formula_units_Z 4
loop_
_atom_type_symbol
_atom_type_radius_bond
C 0.68
H 0.23
N 0.68
O 0.68
loop_
_atom_site_label
_atom_site_type_symbol
_atom_site_fract_x
_atom_site_fract_y
_atom_site_fract_z
C1 C 0.26291(15) 0.60174(17) 0.3529(2)
C2 C 0.32216(14) 0.60702(15) 0.2722(2)
C3 C 0.41047(14) 0.63732(16) 0.3297(2)
C4 C 0.45295(16) 0.61343(19) 0.4617(2)
H1 H 0.42480 0.58010 0.51460
C5 C 0.53618(18) 0.6384(2) 0.5153(3)
H2 H 0.56400 0.62060 0.60340
C6 C 0.57824(18) 0.6890(2) 0.4406(3)
H3 H 0.63440 0.70600 0.47730
C7 C 0.53677(17) 0.7145(2) 0.3108(3)
H4 H 0.56510 0.74960 0.25980
C8 C 0.45343(15) 0.68885(18) 0.2545(2)
H5 H 0.42630 0.70630 0.16600
C9 C 0.28103(13) 0.57934(15) 0.14631(19)
C10 C 0.31513(14) 0.55918(16) 0.0317(2)
C11 C 0.36820(16) 0.47790(19) 0.0382(2)
H6 H 0.38260 0.43750 0.11460
C12 C 0.39993(18) 0.4560(2) -0.0667(3)
H7 H 0.43540 0.40090 -0.06110
C13 C 0.37944(18) 0.5151(2) -0.1795(3)
H8 H 0.40100 0.50040 -0.25050
C14 C 0.32696(18) 0.5963(2) -0.1873(2)
H9 H 0.31320 0.63670 -0.26360
C15 C 0.29464(16) 0.61814(18) -0.0828(2)
H10 H 0.25880 0.67290 -0.08920
C16 C 0.18927(13) 0.56115(16) 0.1353(2)
C17 C 0.13435(13) 0.64240(17) 0.0468(2)
C18 C 0.13956(15) 0.74066(18) 0.0937(2)
H11 H 0.17320 0.75480 0.18000
C19 C 0.09615(16) 0.81795(19) 0.0154(3)
H12 H 0.10030 0.88370 0.04810
C20 C 0.04720(15) 0.7966(2) -0.1102(2)
C21 C 0.03874(15) 0.7002(2) -0.1597(2)
H13 H 0.00380 0.68670 -0.24530
C22 C 0.08295(15) 0.62292(19) -0.0805(2)
H14 H 0.07790 0.55730 -0.11350
C23 C 0.15900(15) 0.45407(17) 0.0912(2)
H15 H 0.10110 0.44830 0.09230
H16 H 0.15970 0.44520 -0.00100
C24 C 0.20782(16) 0.36940(19) 0.1730(3)
C25 C 0.21329(19) 0.1894(2) 0.1828(3)
H17 H 0.19620 0.17430 0.26230
H18 H 0.27390 0.19540 0.20870
C26 C 0.1853(2) 0.1083(2) 0.0816(4)
H19 H 0.12510 0.10880 0.04820
H20 H 0.20360 0.04410 0.12250
H21 H 0.20890 0.11930 0.00880
N1 N 0.00366(15) 0.8795(2) -0.1972(3)
O1 O 0.27292(11) 0.61692(13) 0.47007(15)
O2 O 0.18512(9) 0.57616(12) 0.27088(14)
O3 O 0.26785(13) 0.37538(13) 0.2667(2)
O4 O 0.17461(12) 0.28259(13) 0.1218(2)
O5 O -0.03571(16) 0.85922(18) -0.3112(2)
O6 O 0.01006(15) 0.96462(19) -0.1500(2)
#END
