
#######################################################################
#
#                 Cambridge Crystallographic Data Centre
#                                CCDC
#
#######################################################################
#
# If this CIF has been generated from an entry in the Cambridge
# Structural Database, then it will include bibliographic, chemical,
# crystal, experimental, refinement or atomic coordinate data resulting
# from the CCDC's data processing and validation procedures.
#
#######################################################################

data_CSD_CIF_XAKWOV
_audit_creation_date 2001-01-24
_audit_creation_method CSD-ConQuest-V1
_database_code_CSD XAKWOV
_database_code_depnum_ccdc_archive 'CCDC 141812'
_database_code_depnum_ccdc_journal 1267/288
_chemical_formula_sum 'C26 H25 N1 O5'
_chemical_formula_moiety
;
C26 H25 N1 O5
;
_journal_coden_Cambridge 1267
_journal_volume 215
_journal_year 2000
_journal_page_first 215
_journal_name_full 'Z.Kristallogr.-New Cryst.Struct. '
loop_
_publ_author_name
"K.Peters"
"E.-M.Peters"
"V.R.Stegmann"
"W.Adam"
_chemical_name_systematic
;
(S*,S*)-1-(3,3-Dimethyl-4,4-diphenyl-2-oxetanyl)ethyl 4-nitrobenzoate
;
_cell_volume   2258.697
_exptl_crystal_colour 'colorless'
_diffrn_ambient_temperature ?
_diffrn_special_details
;
The study was carried out at room temperature,in the range 283-303K

;
#These two values have been output from a single CSD field.
_refine_ls_R_factor_gt 0.0621
_refine_ls_wR_factor_gt 0.0621
_symmetry_cell_setting monoclinic
_symmetry_space_group_name_H-M 'P 21/n'
_symmetry_Int_Tables_number 14
loop_
_symmetry_equiv_pos_site_id
_symmetry_equiv_pos_as_xyz
1 x,y,z
2 1/2-x,1/2+y,1/2-z
3 -x,-y,-z
4 -1/2+x,-1/2-y,-1/2+z
_cell_length_a 10.277(1)
_cell_length_b 18.906(1)
_cell_length_c 12.530(1)
_cell_angle_alpha 90
_cell_angle_beta 111.91(1)
_cell_angle_gamma 90
_cell_formula_units_Z 4
loop_
_atom_type_symbol
_atom_type_radius_bond
C 0.68
H 0.23
N 0.68
O 0.68
loop_
_atom_site_label
_atom_site_type_symbol
_atom_site_fract_x
_atom_site_fract_y
_atom_site_fract_z
O1 O 0.26235(15) 0.32123(8) 0.88723(13)
C1 C 0.19296(21) 0.30461(11) 0.96772(18)
C2 C 0.04576(23) 0.33096(12) 0.87528(19)
C3 C 0.12923(23) 0.33651(11) 0.79491(19)
H1 H 0.09393(23) 0.30802(11) 0.72666(19)
C4 C 0.13003(26) 0.40343(11) 0.72925(19)
H2 H 0.03392(26) 0.41457(11) 0.68440(19)
O2 O 0.19787(15) 0.45849(8) 0.81275(13)
C5 C 0.14664(23) 0.52394(12) 0.78696(19)
O3 O 0.05083(19) 0.54013(9) 0.69978(15)
C6 C 0.22240(22) 0.57531(11) 0.88075(19)
C7 C 0.31634(23) 0.55261(12) 0.98715(20)
H3 H 0.33469(23) 0.50297(12) 1.00094(20)
C8 C 0.38138(25) 0.60163(12) 1.07254(21)
H4 H 0.44435(25) 0.58693(12) 1.14733(21)
C9 C 0.35269(23) 0.67212(12) 1.04821(20)
C10 C 0.25995(25) 0.69572(12) 0.94342(21)
H5 H 0.24239(25) 0.74541(12) 0.92969(21)
C11 C 0.19422(25) 0.64647(12) 0.86009(21)
H6 H 0.12782(25) 0.66140(12) 0.78676(21)
N1 N 0.42354(21) 0.72473(11) 1.13789(19)
O4 O 0.49382(21) 0.70354(10) 1.23471(17)
O5 O 0.40856(22) 0.78713(10) 1.11281(18)
C12 C 0.20303(22) 0.22555(12) 0.99352(18)
C13 C 0.28697(24) 0.18232(13) 0.95722(21)
H7 H 0.33752(24) 0.20261(13) 0.91392(21)
C14 C 0.29901(28) 0.11070(13) 0.98277(23)
H8 H 0.35723(28) 0.08129(13) 0.95656(23)
C15 C 0.22732(30) 0.08133(14) 1.04445(24)
H9 H 0.23748(30) 0.03193(14) 1.06354(24)
C16 C 0.14217(31) 0.12379(14) 1.08097(23)
H10 H 0.08925(31) 0.10326(14) 1.12212(23)
C17 C 0.13018(26) 0.19501(13) 1.05575(21)
H11 H 0.07233(26) 0.22438(13) 1.08241(21)
C18 C 0.25943(21) 0.34679(11) 1.07690(19)
C19 C 0.39550(24) 0.37214(13) 1.10836(21)
H12 H 0.44542(24) 0.36346(13) 1.05840(21)
C20 C 0.45938(26) 0.40980(14) 1.20952(23)
H13 H 0.55375(26) 0.42652(14) 1.22965(23)
C21 C 0.38850(28) 0.42355(14) 1.28075(23)
H14 H 0.43302(28) 0.44959(14) 1.35075(23)
C22 C 0.25434(30) 0.39904(14) 1.25244(23)
H15 H 0.20417(30) 0.40903(14) 1.30178(23)
C23 C 0.18908(25) 0.36025(14) 1.15121(21)
H16 H 0.09547(25) 0.34267(14) 1.13222(21)
C24 C -0.07101(24) 0.27649(14) 0.83430(23)
H17 H -0.03396(24) 0.23281(14) 0.81859(23)
H18 H -0.14364(24) 0.29320(14) 0.76538(23)
H19 H -0.10905(24) 0.26892(14) 0.89267(23)
C25 C -0.01132(25) 0.40065(13) 0.90214(22)
H20 H 0.06338(25) 0.43463(13) 0.92827(22)
H21 H -0.04913(25) 0.39354(13) 0.96075(22)
H22 H -0.08373(25) 0.41782(13) 0.83347(22)
C26 C 0.20561(32) 0.39646(14) 0.64695(22)
H23 H 0.16173(32) 0.36063(14) 0.59072(22)
H24 H 0.30155(32) 0.38371(14) 0.68936(22)
H25 H 0.20229(32) 0.44089(14) 0.60894(22)
#END
