
#######################################################################
#
#                 Cambridge Crystallographic Data Centre
#                                CCDC
#
#######################################################################
#
# If this CIF has been generated from an entry in the Cambridge
# Structural Database, then it will include bibliographic, chemical,
# crystal, experimental, refinement or atomic coordinate data resulting
# from the CCDC's data processing and validation procedures.
#
#######################################################################

data_CSD_CIF_XALNEF
_audit_creation_date 2012-02-16
_audit_creation_method CSD-ConQuest-V1
_database_code_CSD XALNEF
_database_code_depnum_ccdc_archive 'CCDC 805801'
_chemical_formula_sum 'C16 H14 N2 O6'
_chemical_formula_moiety
;
C16 H14 N2 O6
;
_journal_coden_Cambridge 182
_journal_volume 48
_journal_year 2012
_journal_page_first 970
_journal_name_full 'Chem.Commun. '
loop_
_publ_author_name
"Qianyi Zhao"
"Xiaoyu Han"
"Yin Wei"
"Min Shi"
"Yixin Lu"
_chemical_name_systematic
;
Ethyl 
2-(2-nitrophenyl)-1,3-dioxo-1,2,3,3a,6,6a-hexahydrocyclopenta[c]pyrrole-4-carb
oxylate
;
_cell_volume   1536.114
_exptl_crystal_colour 'colorless'
_exptl_crystal_density_diffrn 1.428
_exptl_crystal_description 'block'
_diffrn_ambient_temperature 293
#These two values have been output from a single CSD field.
_refine_ls_R_factor_gt 0.0547
_refine_ls_wR_factor_gt 0.0547
_symmetry_cell_setting monoclinic
_symmetry_space_group_name_H-M 'P 21/n'
_symmetry_Int_Tables_number 14
loop_
_symmetry_equiv_pos_site_id
_symmetry_equiv_pos_as_xyz
1 x,y,z
2 1/2-x,1/2+y,1/2-z
3 -x,-y,-z
4 -1/2+x,-1/2-y,-1/2+z
_cell_length_a 14.2927(11)
_cell_length_b 6.5471(5)
_cell_length_c 16.4441(14)
_cell_angle_alpha 90
_cell_angle_beta 93.366(2)
_cell_angle_gamma 90
_cell_formula_units_Z 4
loop_
_atom_type_symbol
_atom_type_radius_bond
C 0.68
H 0.23
N 0.68
O 0.68
loop_
_atom_site_label
_atom_site_type_symbol
_atom_site_fract_x
_atom_site_fract_y
_atom_site_fract_z
N1 N 0.75462(10) -0.0673(2) 0.37207(10)
N2 N 0.76901(15) 0.2214(3) 0.50799(12)
O1 O 0.77976(11) -0.3499(2) 0.45150(12)
O2 O 0.69757(10) 0.1709(2) 0.28061(10)
O3 O 0.47144(15) 0.1706(4) 0.24775(18)
O4 O 0.40272(14) 0.1628(3) 0.36562(16)
O5 O 0.78557(16) 0.2707(4) 0.57812(12)
O6 O 0.68969(12) 0.2127(3) 0.47527(12)
C1 C 0.68884(12) 0.0104(3) 0.31499(12)
C2 C 0.60919(13) -0.1409(3) 0.30623(13)
H1 H 0.59570 -0.17920 0.24910
C3 C 0.52158(13) -0.0722(3) 0.34556(14)
C4 C 0.50005(15) -0.1944(4) 0.40566(16)
H2 H 0.44880 -0.17350 0.43700
C5 C 0.56603(16) -0.3689(4) 0.41807(18)
H3 H 0.53480 -0.49770 0.40580
H4 H 0.59270 -0.37240 0.47370
C6 C 0.64197(14) -0.3262(3) 0.35794(13)
H5 H 0.65150 -0.44550 0.32340
C7 C 0.73283(13) -0.2595(3) 0.40053(13)
C8 C 0.46447(16) 0.0995(4) 0.3137(2)
C9 C 0.3370(2) 0.3217(6) 0.3384(4)
H6 H 0.33660 0.42770 0.37950
H7 H 0.35800 0.38270 0.28890
C10 C 0.2482(2) 0.2500(6) 0.3238(3)
H8 H 0.24590 0.16270 0.27680
H9 H 0.20600 0.36270 0.31410
H10 H 0.22990 0.17400 0.37020
C11 C 0.84027(12) 0.0339(3) 0.39583(12)
C12 C 0.84854(14) 0.1725(3) 0.45953(13)
C13 C 0.93379(16) 0.2628(3) 0.48089(16)
H11 H 0.93930 0.35410 0.52420
C14 C 1.01045(16) 0.2168(4) 0.43760(17)
H12 H 1.06740 0.28130 0.45030
C15 C 1.00334(14) 0.0767(4) 0.37598(16)
H13 H 1.05600 0.04330 0.34810
C16 C 0.91855(13) -0.0155(3) 0.35492(13)
H14 H 0.91420 -0.11110 0.31300
#END
