
#######################################################################
#
#                 Cambridge Crystallographic Data Centre
#                                CCDC
#
#######################################################################
#
# If this CIF has been generated from an entry in the Cambridge
# Structural Database, then it will include bibliographic, chemical,
# crystal, experimental, refinement or atomic coordinate data resulting
# from the CCDC's data processing and validation procedures.
#
#######################################################################

data_CSD_CIF_XALQEJ
_audit_creation_date 2017-02-25
_audit_creation_method CSD-ConQuest-V1
_database_code_CSD XALQEJ
_database_code_depnum_ccdc_archive 'CCDC 1533984'
_chemical_formula_sum 'C17 H14 N2 O5'
_chemical_formula_moiety
;
C17 H14 N2 O5
;
_journal_coeditor_code "su5354"
_journal_coden_Cambridge 1828
_journal_volume 73
_journal_year 2017
_journal_page_first 441
_journal_name_full 'Acta Crystallogr.,Sect.E:Cryst.Commun. '
loop_
_publ_author_name
"V.T.Lien"
"D.E.Olberg"
"J.Klaveness"
"C.H.Gorbitz"
_chemical_name_systematic
;
6,7-dimethoxy-1-(4-nitrophenyl)quinolin-4(1H)-one
;
_cell_volume   1531.231
_exptl_crystal_colour 'yellow'
_exptl_crystal_density_diffrn 1.415
_exptl_crystal_description 'flat lens'
_diffrn_ambient_temperature 295
#These two values have been output from a single CSD field.
_refine_ls_R_factor_gt 0.047
_refine_ls_wR_factor_gt 0.047
_symmetry_cell_setting monoclinic
_symmetry_space_group_name_H-M 'P 21/n'
_symmetry_Int_Tables_number 14
loop_
_symmetry_equiv_pos_site_id
_symmetry_equiv_pos_as_xyz
1 x,y,z
2 1/2-x,1/2+y,1/2-z
3 -x,-y,-z
4 -1/2+x,-1/2-y,-1/2+z
_cell_length_a 8.3736(4)
_cell_length_b 11.7694(5)
_cell_length_c 15.5623(8)
_cell_angle_alpha 90
_cell_angle_beta 93.251(1)
_cell_angle_gamma 90
_cell_formula_units_Z 4
loop_
_atom_type_symbol
_atom_type_radius_bond
C 0.68
H 0.23
N 0.68
O 0.68
loop_
_atom_site_label
_atom_site_type_symbol
_atom_site_fract_x
_atom_site_fract_y
_atom_site_fract_z
O1 O 0.82921(15) 0.99910(12) 0.42505(8)
O2 O 0.86545(15) 0.77881(14) 0.70970(8)
O3 O 0.59678(16) 0.67943(13) 0.71853(8)
N1 N 0.41894(16) 0.81504(12) 0.43553(9)
C1 C 0.4438(2) 0.88507(16) 0.36804(11)
H1 H 0.36600 0.88870 0.32300
C2 C 0.5757(2) 0.94908(16) 0.36357(12)
H2 H 0.58500 0.99690 0.31650
C3 C 0.7020(2) 0.94582(15) 0.42906(11)
C4 C 0.7864(2) 0.86419(15) 0.57179(11)
H3 H 0.88130 0.90510 0.57040
C5 C 0.7612(2) 0.79688(16) 0.64091(11)
C6 C 0.6135(2) 0.73853(16) 0.64500(11)
C7 C 0.5013(2) 0.74416(16) 0.57787(11)
H4 H 0.40560 0.70450 0.58030
C8 C 1.0221(2) 0.8218(2) 0.70451(15)
H5 H 1.06570 0.79570 0.65230
H6 H 1.08790 0.79550 0.75300
H7 H 1.01910 0.90330 0.70470
C9 C 0.4431(3) 0.6342(2) 0.73209(14)
H8 H 0.36520 0.69410 0.72810
H9 H 0.44370 0.60020 0.78820
H10 H 0.41640 0.57770 0.68920
C10 C 0.67157(18) 0.87302(14) 0.50243(10)
C11 C 0.53089(18) 0.81007(14) 0.50514(10)
O4 O -0.2498(2) 0.57251(18) 0.39917(15)
O5 O -0.0978(2) 0.42948(16) 0.37958(14)
N2 N -0.1179(2) 0.52979(17) 0.39326(12)
C12 C 0.2824(2) 0.74056(15) 0.42899(11)
C13 C 0.1327(2) 0.78390(16) 0.43907(12)
H11 H 0.11980 0.85970 0.45400
C14 C 0.0017(2) 0.71397(17) 0.42679(13)
H12 H -0.10090 0.74210 0.43270
C15 C 0.0242(2) 0.60273(16) 0.40578(12)
C16 C 0.1729(2) 0.55765(18) 0.39643(14)
H13 H 0.18520 0.48150 0.38230
C17 C 0.3036(2) 0.62773(17) 0.40849(14)
H14 H 0.40600 0.59920 0.40280
#END
