
#######################################################################
#
#                 Cambridge Crystallographic Data Centre
#                                CCDC
#
#######################################################################
#
# If this CIF has been generated from an entry in the Cambridge
# Structural Database, then it will include bibliographic, chemical,
# crystal, experimental, refinement or atomic coordinate data resulting
# from the CCDC's data processing and validation procedures.
#
#######################################################################

data_CSD_CIF_XAMBIY
_audit_creation_date 2012-03-05
_audit_creation_method CSD-ConQuest-V1
_database_code_CSD XAMBIY
_database_code_depnum_ccdc_archive 'CCDC 828301'
_chemical_formula_sum 'C18 H14 N2 O6'
_chemical_formula_moiety
;
C18 H14 N2 O6
;
_journal_coden_Cambridge 182
_journal_volume 48
_journal_year 2012
_journal_page_first 1505
_journal_name_full 'Chem.Commun. '
loop_
_publ_author_name
"D.L.Smith"
"W.R.F.Goundry"
"Hon Wai Lam"
_chemical_name_systematic
;
2-(3-Nitrophenyl)-1-(2-oxo-1,3-oxazolidin-3-yl)vinyl benzoate
;
_cell_volume   1598.570
_exptl_crystal_colour 'colorless'
_exptl_crystal_density_diffrn 1.472
_exptl_crystal_description 'block'
_diffrn_ambient_temperature 100
#These two values have been output from a single CSD field.
_refine_ls_R_factor_gt 0.0373
_refine_ls_wR_factor_gt 0.0373
_symmetry_cell_setting monoclinic
_symmetry_space_group_name_H-M 'P 21/n'
_symmetry_Int_Tables_number 14
loop_
_symmetry_equiv_pos_site_id
_symmetry_equiv_pos_as_xyz
1 x,y,z
2 1/2-x,1/2+y,1/2-z
3 -x,-y,-z
4 -1/2+x,-1/2-y,-1/2+z
_cell_length_a 6.0115(6)
_cell_length_b 13.5318(14)
_cell_length_c 19.6570(19)
_cell_angle_alpha 90
_cell_angle_beta 91.369(5)
_cell_angle_gamma 90
_cell_formula_units_Z 4
loop_
_atom_type_symbol
_atom_type_radius_bond
C 0.68
H 0.23
N 0.68
O 0.68
loop_
_atom_site_label
_atom_site_type_symbol
_atom_site_fract_x
_atom_site_fract_y
_atom_site_fract_z
O1 O 0.6657(2) 0.12605(11) 0.60323(7)
C1 C 0.6052(3) 0.16301(16) 0.66714(10)
N1 N 0.5607(3) 0.26420(13) 0.66594(8)
C2 C 0.4617(4) 0.31560(16) 0.60695(10)
C3 C 0.4233(4) 0.41679(17) 0.63814(12)
O2 O 0.5886(3) 0.42283(11) 0.69335(8)
C4 C 0.6584(3) 0.33076(16) 0.71066(11)
O3 O 0.7815(3) 0.31499(12) 0.75849(7)
C5 C 0.5852(3) 0.10256(16) 0.71949(10)
C6 C 0.4741(3) 0.12844(15) 0.78351(10)
C7 C 0.5773(3) 0.10654(15) 0.84609(10)
C8 C 0.4663(3) 0.12781(15) 0.90507(10)
N2 N 0.5802(3) 0.10827(13) 0.97052(9)
O4 O 0.4727(3) 0.11392(12) 1.02307(7)
O5 O 0.7794(3) 0.08774(13) 0.97058(8)
C9 C 0.2556(3) 0.16851(16) 0.90490(11)
C10 C 0.1546(3) 0.19055(16) 0.84255(11)
C11 C 0.2625(3) 0.17134(16) 0.78247(11)
C12 C 0.8722(3) 0.15191(15) 0.58119(10)
O6 O 1.0090(2) 0.19051(12) 0.61780(7)
C13 C 0.8985(3) 0.12571(15) 0.50831(10)
C14 C 1.1027(3) 0.14281(15) 0.47868(11)
C15 C 1.1320(4) 0.12092(16) 0.41067(11)
C16 C 0.9595(4) 0.08023(16) 0.37226(11)
C17 C 0.7559(4) 0.06211(17) 0.40172(11)
C18 C 0.7249(3) 0.08575(16) 0.4693(1)
H1 H 0.56040 0.31620 0.56740
H2 H 0.31700 0.28360 0.59520
H3 H 0.27380 0.42110 0.65770
H4 H 0.44560 0.46960 0.60360
H5 H 0.64830 0.03720 0.71610
H6 H 0.72350 0.07820 0.84740
H7 H 0.18150 0.18100 0.94700
H8 H 0.00610 0.22020 0.84110
H9 H 0.19210 0.18530 0.73940
H10 H 1.22110 0.17190 0.50640
H11 H 1.26650 0.13380 0.39060
H12 H 0.97900 0.06420 0.32550
H13 H 0.63850 0.03220 0.37470
H14 H 0.58660 0.07440 0.48890
#END
