
#######################################################################
#
#                 Cambridge Crystallographic Data Centre
#                                CCDC
#
#######################################################################
#
# If this CIF has been generated from an entry in the Cambridge
# Structural Database, then it will include bibliographic, chemical,
# crystal, experimental, refinement or atomic coordinate data resulting
# from the CCDC's data processing and validation procedures.
#
#######################################################################

data_CSD_CIF_XAMJUT
_audit_creation_date 2017-02-26
_audit_creation_method CSD-ConQuest-V1
_database_code_CSD XAMJUT
_database_code_depnum_ccdc_archive 'CCDC 1472289'
_chemical_formula_sum 'C14 H13 N3 O4'
_chemical_formula_moiety
;
C14 H13 N3 O4
;
_journal_coden_Cambridge 315
_journal_volume 180
_journal_year 2017
_journal_page_first 144
_journal_name_full 'Spectrochim.Acta,Part A '
loop_
_publ_author_name
"M.Dostani"
"Ali Hossein Kianfar"
"W.A.K.Mahmood"
"M.Dinari"
"H.Farrokhpour"
"M.R.Sabzalian"
"F.Abyar"
"M.H.Azarian"
_chemical_name_systematic
;
4-(((2-amino-5-nitrophenyl)imino)methyl)-2-methoxyphenol
;
_cell_volume    654.723
_exptl_crystal_colour 'orange'
_exptl_crystal_density_diffrn 1.457
_exptl_crystal_description 'block'
_diffrn_ambient_temperature 100
#These two values have been output from a single CSD field.
_refine_ls_R_factor_gt 0.0351
_refine_ls_wR_factor_gt 0.0351
_symmetry_cell_setting monoclinic
_symmetry_space_group_name_H-M 'P n'
_symmetry_Int_Tables_number 7
loop_
_symmetry_equiv_pos_site_id
_symmetry_equiv_pos_as_xyz
1 x,y,z
2 1/2+x,-y,1/2+z
_cell_length_a 4.4260(4)
_cell_length_b 11.3101(10)
_cell_length_c 13.1320(11)
_cell_angle_alpha 90
_cell_angle_beta 95.1413(12)
_cell_angle_gamma 90
_cell_formula_units_Z 2
loop_
_atom_type_symbol
_atom_type_radius_bond
C 0.68
H 0.23
N 0.68
O 0.68
loop_
_atom_site_label
_atom_site_type_symbol
_atom_site_fract_x
_atom_site_fract_y
_atom_site_fract_z
O1 O 1.0113(3) 0.90380(12) 0.97915(10)
O2 O 0.8574(3) 0.97313(13) 0.78727(11)
O3 O 2.6735(4) 1.63984(13) 1.15776(13)
O4 O 2.3902(4) 1.59236(14) 1.02060(13)
N1 N 1.7826(3) 1.23862(13) 1.12076(12)
N2 N 1.9458(4) 1.21535(15) 1.32476(13)
N3 N 2.4748(4) 1.57822(14) 1.11247(14)
C1 C 1.3556(4) 1.21584(16) 0.87179(15)
H1 H 1.42880 1.28730 0.84510
C2 C 1.1547(4) 1.14568(18) 0.81090(15)
H2 H 1.09250 1.16890 0.74270
C3 C 1.0455(4) 1.04212(16) 0.84962(14)
C4 C 1.1368(4) 1.00833(16) 0.95088(13)
C5 C 1.3375(4) 1.07750(16) 1.01207(14)
H3 H 1.39800 1.05460 1.08050
C6 C 1.4507(4) 1.18234(16) 0.97163(14)
C7 C 1.6650(4) 1.25909(16) 1.02996(14)
H4 H 1.72220 1.33010 0.99820
C8 C 1.9939(3) 1.32084(15) 1.16694(13)
C9 C 2.0704(4) 1.30729(15) 1.27336(14)
C10 C 2.2810(4) 1.38443(17) 1.32492(14)
H5 H 2.33210 1.37490 1.39630
C11 C 2.4146(4) 1.47392(17) 1.27327(15)
H6 H 2.55710 1.52600 1.30810
C12 C 2.3351(4) 1.48587(16) 1.16881(14)
C13 C 2.1296(4) 1.41099(15) 1.11577(14)
H7 H 2.08160 1.42130 1.04440
C14 C 1.0938(6) 0.8655(2) 1.08122(16)
H8 H 0.99000 0.79100 1.09360
H9 H 1.03440 0.92560 1.12930
H10 H 1.31370 0.85340 1.09100
H11 H 1.783(6) 1.182(2) 1.295(2)
H12 H 0.757(8) 0.920(3) 0.814(3)
H13 H 1.931(7) 1.227(2) 1.391(3)
#END
