
#######################################################################
#
#                 Cambridge Crystallographic Data Centre
#                                CCDC
#
#######################################################################
#
# If this CIF has been generated from an entry in the Cambridge
# Structural Database, then it will include bibliographic, chemical,
# crystal, experimental, refinement or atomic coordinate data resulting
# from the CCDC's data processing and validation procedures.
#
#######################################################################

data_CSD_CIF_XANXAN
_audit_creation_date 2012-03-05
_audit_creation_method CSD-ConQuest-V1
_database_code_CSD XANXAN
_database_code_depnum_ccdc_archive 'CCDC 865957'
_chemical_formula_sum 'C18 H22 N2 O9'
_chemical_formula_moiety
;
C18 H22 N2 O9
;
_journal_coden_Cambridge 35
_journal_volume 76
_journal_year 2011
_journal_page_first 6475
_journal_name_full 'J.Org.Chem. '
loop_
_publ_author_name
"R.Bandichhor"
"A.N.Lowell"
"M.C.Kozlowski"
_chemical_name_systematic
;
2-(1,3-Dinitropropan-2-yl)-1,4,5,6,8-pentamethoxynaphthalene
;
_cell_volume   1874.412
_exptl_crystal_density_diffrn 1.454
_diffrn_ambient_temperature 143
#These two values have been output from a single CSD field.
_refine_ls_R_factor_gt 0.0762
_refine_ls_wR_factor_gt 0.0762
_symmetry_cell_setting monoclinic
_symmetry_space_group_name_H-M 'P 21/n'
_symmetry_Int_Tables_number 14
loop_
_symmetry_equiv_pos_site_id
_symmetry_equiv_pos_as_xyz
1 x,y,z
2 1/2-x,1/2+y,1/2-z
3 -x,-y,-z
4 -1/2+x,-1/2-y,-1/2+z
_cell_length_a 6.4729(7)
_cell_length_b 9.5197(10)
_cell_length_c 30.427(3)
_cell_angle_alpha 90
_cell_angle_beta 91.325(6)
_cell_angle_gamma 90
_cell_formula_units_Z 4
loop_
_atom_type_symbol
_atom_type_radius_bond
C 0.68
H 0.23
N 0.68
O 0.68
loop_
_atom_site_label
_atom_site_type_symbol
_atom_site_fract_x
_atom_site_fract_y
_atom_site_fract_z
C1 C 0.6090(4) 0.4330(3) 0.66769(10)
C2 C 0.7839(4) 0.3966(3) 0.64669(10)
C3 C 0.8619(4) 0.4761(3) 0.61127(9)
C4 C 1.0492(4) 0.4457(3) 0.58985(10)
C5 C 1.1198(5) 0.5278(3) 0.55655(10)
H1 H 1.24550 0.50730 0.54380
C6 C 1.0045(4) 0.6416(3) 0.54171(10)
C7 C 0.8201(4) 0.6744(3) 0.56033(10)
C8 C 0.7465(4) 0.5965(3) 0.59614(10)
C9 C 0.5660(4) 0.6339(3) 0.61988(10)
C10 C 0.5032(4) 0.5546(3) 0.65447(10)
H2 H 0.38690 0.58210 0.66970
C11 C 0.5388(4) 0.3452(3) 0.70573(10)
H3 H 0.57880 0.24770 0.70010
C12 C 0.6548(5) 0.3935(4) 0.74679(10)
H4 H 0.80110 0.39820 0.74070
H5 H 0.60940 0.48750 0.75410
C13 C 0.3050(4) 0.3489(3) 0.71003(11)
H6 H 0.26950 0.41900 0.73170
H7 H 0.24260 0.37700 0.68210
C14 C 0.8442(5) 0.1541(3) 0.63764(11)
H8 H 0.94120 0.08210 0.64600
H9 H 0.85530 0.17370 0.60680
H10 H 0.70660 0.12300 0.64360
C15 C 1.3230(5) 0.2826(4) 0.57834(11)
H11 H 1.37480 0.19540 0.59000
H12 H 1.43110 0.35160 0.57920
H13 H 1.27600 0.26900 0.54850
C16 C 1.2627(4) 0.7022(4) 0.4908(1)
H14 H 1.29050 0.77200 0.46890
H15 H 1.26660 0.61060 0.47770
H16 H 1.36540 0.70790 0.51400
C17 C 0.7557(5) 0.9160(4) 0.55535(13)
H17 H 0.66100 0.98250 0.54240
H18 H 0.89380 0.93840 0.54690
H19 H 0.74740 0.92000 0.58680
C18 C 0.3002(5) 0.8003(4) 0.63176(11)
H20 H 0.24380 0.88400 0.61870
H21 H 0.35020 0.82080 0.66100
H22 H 0.19470 0.72960 0.63290
N1 N 0.6254(4) 0.3001(3) 0.78554(9)
N2 N 0.2179(4) 0.2115(3) 0.72317(9)
O1 O 0.6834(4) 0.3445(3) 0.82109(8)
O2 O 0.5511(4) 0.1842(3) 0.78030(9)
O3 O 0.0944(3) 0.2096(3) 0.75272(8)
O4 O 0.2671(3) 0.1069(3) 0.70273(8)
O5 O 0.8884(3) 0.2788(2) 0.66230(7)
O6 O 1.1556(3) 0.3297(2) 0.60399(7)
O7 O 1.0637(3) 0.7262(2) 0.50827(7)
O8 O 0.7039(3) 0.7784(2) 0.54057(7)
O9 O 0.4659(3) 0.7506(2) 0.60616(7)
#END
