
#######################################################################
#
#                 Cambridge Crystallographic Data Centre
#                                CCDC
#
#######################################################################
#
# If this CIF has been generated from an entry in the Cambridge
# Structural Database, then it will include bibliographic, chemical,
# crystal, experimental, refinement or atomic coordinate data resulting
# from the CCDC's data processing and validation procedures.
#
#######################################################################

data_CSD_CIF_XAPFIF
_audit_creation_date 2012-03-05
_audit_creation_method CSD-ConQuest-V1
_database_code_CSD XAPFIF
_database_code_depnum_ccdc_archive 'CCDC 817417'
_chemical_formula_sum 'C18 H14 N4 O5'
_chemical_formula_moiety
;
C18 H14 N4 O5
;
_journal_coden_Cambridge 35
_journal_volume 76
_journal_year 2011
_journal_page_first 6946
_journal_name_full 'J.Org.Chem. '
loop_
_publ_author_name
"A.M.Said"
"G.P.Savage"
_chemical_name_systematic
;
8-Methyl-6-(2-nitrophenyl)-3-phenyl-1-oxa-2,6,8-triazaspiro[4.4]non-2-ene-7,9-
dione
;
_cell_volume   3229.433
_exptl_crystal_colour 'yellow'
_exptl_crystal_density_diffrn 1.507
_exptl_crystal_description 'prism'
_diffrn_ambient_temperature 123
#These two values have been output from a single CSD field.
_refine_ls_R_factor_gt 0.0411
_refine_ls_wR_factor_gt 0.0411
_symmetry_cell_setting orthorhombic
_symmetry_space_group_name_H-M 'P b c a'
_symmetry_Int_Tables_number 61
loop_
_symmetry_equiv_pos_site_id
_symmetry_equiv_pos_as_xyz
1 x,y,z
2 1/2-x,-y,1/2+z
3 1/2+x,1/2-y,-z
4 -x,1/2+y,1/2-z
5 -x,-y,-z
6 -1/2+x,y,-1/2-z
7 -1/2-x,-1/2+y,z
8 x,-1/2-y,-1/2+z
_cell_length_a 15.8125(6)
_cell_length_b 8.2142(2)
_cell_length_c 24.8634(8)
_cell_angle_alpha 90
_cell_angle_beta 90
_cell_angle_gamma 90
_cell_formula_units_Z 8
loop_
_atom_type_symbol
_atom_type_radius_bond
C 0.68
H 0.23
N 0.68
O 0.68
loop_
_atom_site_label
_atom_site_type_symbol
_atom_site_fract_x
_atom_site_fract_y
_atom_site_fract_z
O1 O 0.08221(5) 0.62930(9) 0.10746(3)
O2 O -0.06460(5) 0.69849(10) 0.18081(3)
N1 N 0.16589(5) 0.60575(11) 0.12774(4)
N2 N -0.00275(5) 0.39632(11) 0.09017(4)
O3 O -0.12946(5) 0.3368(1) 0.04746(4)
O4 O -0.09380(6) -0.06509(11) 0.08764(4)
N3 N -0.11785(6) 0.53943(11) 0.11206(4)
C1 C 0.07553(6) 0.43941(12) 0.17791(4)
H1 H 0.05440 0.48120 0.21280
H2 H 0.07340 0.31900 0.17810
N4 N -0.05518(6) 0.05488(11) 0.10344(4)
O5 O -0.07533(5) 0.13398(11) 0.14357(3)
C2 C -0.05666(6) 0.59774(12) 0.14596(4)
C3 C 0.02152(6) 0.10276(12) 0.07408(4)
C4 C 0.14609(7) 0.01350(14) 0.02834(5)
H3 H 0.18020 -0.07160 0.01420
C5 C 0.31992(6) 0.49551(13) 0.17616(4)
H4 H 0.32500 0.56420 0.14560
C6 C 0.06934(7) -0.02262(13) 0.05233(4)
H5 H 0.04970 -0.13180 0.05390
C7 C 0.02607(6) 0.51004(12) 0.13084(4)
C8 C 0.16326(6) 0.50094(12) 0.16597(4)
C9 C 0.12298(7) 0.29950(13) 0.04435(4)
H6 H 0.14080 0.40920 0.04010
C10 C 0.04658(6) 0.26568(12) 0.07004(4)
C11 C 0.38472(7) 0.34130(13) 0.24728(5)
H7 H 0.43410 0.30260 0.26480
C12 C -0.08773(6) 0.41420(12) 0.07920(4)
C13 C 0.23969(6) 0.44913(12) 0.19455(4)
C14 C 0.23281(7) 0.35111(13) 0.24026(4)
H8 H 0.17870 0.32090 0.25350
C15 C 0.39186(7) 0.44155(14) 0.20243(5)
H9 H 0.44620 0.47300 0.18980
C16 C 0.17322(7) 0.17368(14) 0.02484(5)
H10 H 0.22650 0.19760 0.00900
C17 C 0.30562(7) 0.29797(14) 0.26632(4)
H11 H 0.30100 0.23140 0.29740
C18 C -0.20585(7) 0.59151(15) 0.11236(5)
H12 H -0.23220 0.56360 0.07790
H13 H -0.20860 0.70960 0.11780
H14 H -0.23600 0.53640 0.14160
#END
