
#######################################################################
#
#                 Cambridge Crystallographic Data Centre
#                                CCDC
#
#######################################################################
#
# If this CIF has been generated from an entry in the Cambridge
# Structural Database, then it will include bibliographic, chemical,
# crystal, experimental, refinement or atomic coordinate data resulting
# from the CCDC's data processing and validation procedures.
#
#######################################################################

data_CSD_CIF_XAPPOW
_audit_creation_date 2017-02-28
_audit_creation_method CSD-ConQuest-V1
_database_code_CSD XAPPOW
_database_code_depnum_ccdc_archive 'CCDC 953656'
_chemical_formula_sum 'C32 H49 N1 O5'
_chemical_formula_moiety
;
C32 H49 N1 O5
;
_journal_coden_Cambridge 119
_journal_volume 1136
_journal_year 2017
_journal_page_first 173
_journal_name_full 'J.Mol.Struct. '
loop_
_publ_author_name
"Anna Froelich"
"B.Bednarczyk-Cwynar"
"L.Zaprutko"
"A.Gzella"
_chemical_name_systematic
;
3\b-acetoxy-12-hydroxyimino-18\b-oleanan-28,13\b-olide
;
_chemical_name_common
;
12-(hydroxyimino)-28-oxo-13,28-epoxyoleanan-3-yl acetate
;
_cell_volume   1429.010
_exptl_crystal_colour 'colorless'
_exptl_crystal_density_diffrn 1.226
_exptl_crystal_description 'block'
_exptl_crystal_preparation 'ethanol'
_diffrn_ambient_temperature 100
#These two values have been output from a single CSD field.
_refine_ls_R_factor_gt 0.0395
_refine_ls_wR_factor_gt 0.0395
_symmetry_cell_setting monoclinic
_symmetry_space_group_name_H-M 'P 21'
_symmetry_Int_Tables_number 4
loop_
_symmetry_equiv_pos_site_id
_symmetry_equiv_pos_as_xyz
1 x,y,z
2 -x,1/2+y,-z
_cell_length_a 7.469(1)
_cell_length_b 15.288(3)
_cell_length_c 12.943(3)
_cell_angle_alpha 90
_cell_angle_beta 104.78(3)
_cell_angle_gamma 90
_cell_formula_units_Z 2
loop_
_atom_type_symbol
_atom_type_radius_bond
C 0.68
H 0.23
N 0.68
O 0.68
loop_
_atom_site_label
_atom_site_type_symbol
_atom_site_fract_x
_atom_site_fract_y
_atom_site_fract_z
O1 O 0.36146(10) -0.00288(5) 0.17010(6)
O2 O 0.65393(12) -0.00092(7) 0.27349(8)
O3 O 0.42877(10) 0.54554(5) 0.08152(6)
O4 O -0.31242(9) 0.67460(5) 0.15926(6)
H1 H 0.508(3) 0.5903(14) 0.0894(14)
O5 O -0.09496(8) 0.57426(4) 0.15761(5)
N1 N 0.32191(11) 0.57265(6) 0.15068(6)
C1 C 0.33664(13) 0.24048(6) 0.12813(7)
H2 H 0.35750 0.27420 0.06880
H3 H 0.42560 0.25970 0.19260
C2 C 0.36922(13) 0.14382(6) 0.10968(7)
H4 H 0.28900 0.12580 0.04170
H5 H 0.49640 0.13550 0.10650
C3 C 0.33135(12) 0.08754(6) 0.19779(7)
H6 H 0.42050 0.10230 0.26520
C4 C 0.13366(12) 0.09586(6) 0.21262(7)
C5 C 0.09878(12) 0.19565(6) 0.22531(7)
H7 H 0.18910 0.21230 0.29150
C6 C -0.08971(12) 0.21664(6) 0.24613(8)
H8 H -0.11770 0.17380 0.29510
H9 H -0.18540 0.21320 0.17960
C7 C -0.08896(13) 0.30852(6) 0.29389(8)
H10 H -0.00420 0.30900 0.36450
H11 H -0.21180 0.32120 0.30220
C8 C -0.03234(12) 0.38184(6) 0.22618(7)
C9 C 0.13967(12) 0.35315(6) 0.18732(7)
H12 H 0.24220 0.35260 0.25200
C10 C 0.13818(12) 0.25896(6) 0.13920(7)
C11 C 0.19231(14) 0.42393(6) 0.11596(7)
H13 H 0.31000 0.40860 0.10210
H14 H 0.09990 0.42480 0.04800
C12 C 0.20723(12) 0.51378(6) 0.16404(7)
C13 C 0.08136(11) 0.54271(6) 0.23290(6)
C14 C 0.02863(12) 0.46677(6) 0.29935(7)
C15 C -0.12923(13) 0.49945(6) 0.34796(7)
H15 H -0.24540 0.49680 0.29340
H16 H -0.13880 0.46030 0.40520
C16 C -0.10080(13) 0.59357(6) 0.39222(7)
H17 H -0.00630 0.59320 0.45940
H18 H -0.21510 0.61400 0.40650
C17 C -0.04261(12) 0.65784(6) 0.31419(7)
C18 C 0.14148(11) 0.62963(6) 0.29301(7)
H19 H 0.16220 0.67030 0.23870
C19 C 0.30705(12) 0.64208(6) 0.38930(7)
H20 H 0.41980 0.62440 0.37090
H21 H 0.29230 0.60580 0.44810
C20 C 0.32114(13) 0.73947(6) 0.42351(7)
C21 C 0.13491(14) 0.76915(7) 0.44290(8)
H22 H 0.11640 0.73850 0.50500
H23 H 0.14270 0.83110 0.45950
C22 C -0.03547(13) 0.75350(6) 0.34874(8)
H24 H -0.14730 0.76820 0.37000
H25 H -0.02870 0.79090 0.28930
C23 C 0.13040(14) 0.04806(7) 0.31714(8)
H26 H 0.00530 0.04490 0.32360
H27 H 0.20510 0.07960 0.37690
H28 H 0.17880 -0.01000 0.31590
C24 C -0.00910(13) 0.05163(6) 0.12092(8)
H29 H 0.00730 0.07200 0.05380
H30 H -0.13170 0.06590 0.12600
H31 H 0.00780 -0.01060 0.12560
C25 C 0.00314(14) 0.24895(7) 0.02709(7)
H32 H -0.00050 0.30260 -0.01200
H33 H -0.11860 0.23570 0.03460
H34 H 0.04480 0.20240 -0.01080
C26 C -0.20272(13) 0.39815(7) 0.13105(8)
H35 H -0.24960 0.34320 0.09960
H36 H -0.16700 0.43380 0.07860
H37 H -0.29720 0.42760 0.15600
C27 C 0.20140(13) 0.44650(6) 0.39253(7)
H38 H 0.31160 0.46260 0.37190
H39 H 0.20490 0.38510 0.40850
H40 H 0.19430 0.47920 0.45470
C28 C -0.16747(12) 0.63975(6) 0.20434(7)
C29 C 0.47050(16) 0.74680(8) 0.52938(9)
H41 H 0.58670 0.72660 0.51950
H42 H 0.43590 0.71170 0.58270
H43 H 0.48230 0.80670 0.55220
C30 C 0.37744(15) 0.79745(7) 0.34054(9)
H44 H 0.40820 0.85480 0.36980
H45 H 0.27640 0.80140 0.27770
H46 H 0.48310 0.77240 0.32210
C31 C 0.53531(14) -0.03421(7) 0.20403(9)
C32 C 0.56088(19) -0.11332(8) 0.14078(10)
H47 H 0.59220 -0.09520 0.07660
H48 H 0.44810 -0.14650 0.12270
H49 H 0.65880 -0.14890 0.18270
#END
