
#######################################################################
#
#                 Cambridge Crystallographic Data Centre
#                                CCDC
#
#######################################################################
#
# If this CIF has been generated from an entry in the Cambridge
# Structural Database, then it will include bibliographic, chemical,
# crystal, experimental, refinement or atomic coordinate data resulting
# from the CCDC's data processing and validation procedures.
#
#######################################################################

data_CSD_CIF_XAQDIF
_audit_creation_date 2017-02-28
_audit_creation_method CSD-ConQuest-V1
_database_code_CSD XAQDIF
_database_code_depnum_ccdc_archive 'CCDC 1525126'
_chemical_formula_sum 'C32 H33 N3 O8'
_chemical_formula_moiety
;
C32 H33 N3 O8
;
_journal_coden_Cambridge 1336
_journal_volume 19
_journal_year 2017
_journal_page_first 942
_journal_name_full 'Org.Lett. '
loop_
_publ_author_name
"Li Liu"
"Long Wang"
"Li Bao"
"Jinwei Ren"
"B.B.Basnet"
"Ruixing Liu"
"Luwei He"
"Junjie Han"
"Wen-Bing Yin"
"Hongwei Liu"
_chemical_name_systematic
;
14-hydroxy-2-(3-hydroxy-6-(hydroxymethyl)-4-oxo-4H-pyran-2-yl)-9,9,16,16-tetra
methyl-8-oxa-14,23,25-triazaheptacyclo[17.5.2.0^1,17^.0^3,15^.0^4,13^.0^7,12^.
0^19,23^]hexacosa-3(15),4,6,10,12-pentaene-24,26-dione unknown solvate
;
_chemical_name_common
;
versicoamide F unknown solvate
;
_cell_volume   3661.266
_exptl_crystal_density_diffrn 1.066
_diffrn_ambient_temperature 102.7
_refine_special_details
;
The SQUEEZE/PLATON program has been used to model some disorder.

;
#These two values have been output from a single CSD field.
_refine_ls_R_factor_gt 0.0702
_refine_ls_wR_factor_gt 0.0702
_symmetry_cell_setting monoclinic
_symmetry_space_group_name_H-M 'C 2'
_symmetry_Int_Tables_number 5
loop_
_symmetry_equiv_pos_site_id
_symmetry_equiv_pos_as_xyz
1 x,y,z
2 -x,y,-z
3 1/2+x,1/2+y,z
4 1/2-x,1/2+y,-z
_cell_length_a 25.678(3)
_cell_length_b 11.0955(7)
_cell_length_c 19.564(2)
_cell_angle_alpha 90
_cell_angle_beta 138.94(2)
_cell_angle_gamma 90
_cell_formula_units_Z 4
loop_
_atom_type_symbol
_atom_type_radius_bond
C 0.68
H 0.23
N 0.68
O 0.68
loop_
_atom_site_label
_atom_site_type_symbol
_atom_site_fract_x
_atom_site_fract_y
_atom_site_fract_z
O1 O -0.86496(13) -0.2967(2) -0.38894(16)
O2 O -0.91656(13) -0.0981(3) 0.13435(17)
O3 O -0.67351(12) -0.1083(3) -0.00613(16)
H1 H -0.66370 -0.03590 0.00440
N1 N -0.75284(15) -0.1267(3) -0.0686(2)
O4 O -0.96994(15) 0.0307(4) -0.1610(2)
N2 N -0.78991(17) -0.2685(3) 0.1644(2)
N3 N -0.91728(15) -0.1273(3) 0.0181(2)
H2 H -0.96680 -0.11130 -0.03630
O5 O -0.83427(18) -0.3743(3) 0.0272(2)
C1 C -0.9377(2) -0.2774(4) -0.3589(2)
H3 H -0.98100 -0.31260 -0.42340
O6 O -1.19386(17) -0.0763(6) -0.4191(2)
C2 C -0.88296(18) -0.1228(4) 0.1138(2)
C3 C -0.9858(2) -0.0864(5) -0.1817(3)
O7 O -1.07359(19) -0.2409(5) -0.2859(2)
H4 H -1.12130 -0.25390 -0.33010
C4 C -0.7326(2) -0.2155(4) -0.2718(3)
H5 H -0.68680 -0.21620 -0.25290
C5 C -0.73694(17) -0.0853(3) 0.0754(2)
C6 C -0.80687(19) -0.1720(3) -0.1663(2)
C7 C -0.78368(18) -0.1195(4) -0.0338(2)
C8 C -0.8124(2) -0.2339(4) -0.3842(2)
C9 C -0.79891(18) -0.0648(4) 0.0722(2)
H6 H -0.82490 0.01230 0.03690
C10 C -0.79958(19) -0.2062(3) -0.2284(2)
C11 C -0.94178(19) -0.2452(4) -0.2937(2)
H7 H -0.98800 -0.25930 -0.31490
C12 C -0.79528(19) -0.1512(3) 0.1945(2)
C13 C -0.8597(2) -0.1582(4) -0.1109(2)
C14 C -0.8288(2) -0.2790(3) 0.0671(3)
C15 C -0.72775(19) -0.1982(4) -0.1997(2)
H8 H -0.67910 -0.18120 -0.13140
C16 C -0.7502(2) -0.1749(4) 0.3059(2)
H9 H -0.71940 -0.10480 0.34970
H10 H -0.78650 -0.19490 0.30670
C17 C -0.86581(18) -0.1614(4) 0.0106(2)
C18 C -0.8052(2) -0.3139(5) -0.4382(3)
H11 H -0.85710 -0.33910 -0.50380
H12 H -0.77410 -0.38350 -0.39580
H13 H -0.77990 -0.27070 -0.44960
C19 C -0.6935(2) 0.0350(4) 0.1091(3)
H14 H -0.73110 0.09670 0.06030
H15 H -0.65520 0.02750 0.11090
H16 H -0.66710 0.05610 0.17700
C20 C -1.1236(2) -0.0352(8) -0.3370(3)
C21 C -0.87688(19) -0.1920(4) -0.1974(2)
C22 C -0.76035(19) -0.0532(4) 0.1822(2)
H17 H -0.70340 -0.06310 0.23510
H18 H -0.77110 0.02600 0.19050
C23 C -0.86728(19) -0.2558(4) -0.3249(2)
C24 C -1.0605(2) -0.1257(6) -0.2672(3)
C25 C -0.67586(19) -0.1854(4) 0.1497(2)
H19 H -0.63440 -0.18140 0.15720
H20 H -0.70150 -0.26250 0.12190
H21 H -0.65360 -0.17470 0.21650
C26 C -0.8498(2) -0.1141(4) -0.4394(3)
H22 H -0.85280 -0.06450 -0.40220
H23 H -0.90230 -0.12740 -0.50880
H24 H -0.81820 -0.07450 -0.44210
C27 C -1.1036(3) 0.0845(7) -0.3114(4)
H25 H -1.14260 0.14360 -0.35310
C28 C -0.6960(3) -0.2815(7) 0.3432(4)
H26 H -0.64770 -0.25480 0.36860
H27 H -0.68220 -0.32560 0.39800
C29 C -1.0281(3) 0.1156(7) -0.2262(4)
C30 C -0.7460(2) -0.3580(4) 0.2461(3)
H28 H -0.71300 -0.40650 0.24880
H29 H -0.78130 -0.41050 0.23650
C31 C -0.91351(19) -0.1754(4) -0.1038(2)
H30 H -0.93420 -0.25790 -0.12590
O8 O -1.0623(4) 0.3083(8) -0.2309(6)
H31 H -1.04740 0.34590 -0.18250
C32 C -1.0011(4) 0.2365(8) -0.1941(6)
H32 H -0.95660 0.24050 -0.11870
H33 H -0.98360 0.26510 -0.22110
#END
