
#######################################################################
#
#                 Cambridge Crystallographic Data Centre
#                                CCDC
#
#######################################################################
#
# If this CIF has been generated from an entry in the Cambridge
# Structural Database, then it will include bibliographic, chemical,
# crystal, experimental, refinement or atomic coordinate data resulting
# from the CCDC's data processing and validation procedures.
#
#######################################################################

data_CSD_CIF_XARBOH
_audit_creation_date 2001-02-05
_audit_creation_method CSD-ConQuest-V1
_database_code_CSD XARBOH
_database_code_depnum_ccdc_archive 'CCDC 1295467'
_database_code_depnum_ccdc_journal 1145/153
_chemical_formula_sum 'C21 H24 N3 O2'
_chemical_formula_moiety
;
C21 H24 N3 O2
;
_journal_coden_Cambridge 1145
_journal_volume 9
_journal_year 1999
_journal_page_first 1409
_journal_name_full 'J.Mater.Chem. '
loop_
_publ_author_name
"Deqing Zhang"
"Wensheng Zhou"
"Daoben Zhu"
_chemical_name_systematic
;
2-(4-(4-Methylphenyliminomethyl)phenyl)-4,4,5,5-tetramethyl-1,3-dioxyimidazoli
ne radical
;
_chemical_name_common
;
(4-(4-Methylphenyliminomethyl)phenyl)-alpha-nitronyl aminoxyl radical, 
(4-(4-methylphenyliminomethyl)phenyl)-alpha-nitronyl nitroxide radical
;
_cell_volume   1902.673
_exptl_crystal_density_diffrn 1.23
_exptl_crystal_description 'needle'
_exptl_crystal_preparation 'hexane/ethyl acetate'
_diffrn_ambient_temperature ?
_diffrn_special_details
;
The study was carried out at room temperature,in the range 283-303K

;
#These two values have been output from a single CSD field.
_refine_ls_R_factor_gt 0.065
_refine_ls_wR_factor_gt 0.065
_symmetry_cell_setting monoclinic
_symmetry_space_group_name_H-M 'P 21/n'
_symmetry_Int_Tables_number 14
loop_
_symmetry_equiv_pos_site_id
_symmetry_equiv_pos_as_xyz
1 x,y,z
2 1/2-x,1/2+y,1/2-z
3 -x,-y,-z
4 -1/2+x,-1/2-y,-1/2+z
_cell_length_a 21.425(6)
_cell_length_b 9.133(5)
_cell_length_c 9.942(5)
_cell_angle_alpha 90
_cell_angle_beta 102.03(4)
_cell_angle_gamma 90
_cell_formula_units_Z 4
loop_
_atom_type_symbol
_atom_type_radius_bond
C 0.68
H 0.23
N 0.68
O 0.68
loop_
_atom_site_label
_atom_site_type_symbol
_atom_site_fract_x
_atom_site_fract_y
_atom_site_fract_z
O1 O 0.3354(2) 0.0733(5) 0.9179(5)
O2 O 0.4038(2) 0.2439(5) 0.5395(4)
N1 N 0.5301(2) -0.5051(5) 0.7884(5)
N2 N 0.3456(2) 0.1532(5) 0.8202(5)
N3 N 0.3757(2) 0.2312(5) 0.6378(5)
C1 C 0.6429(3) -0.8749(6) 0.7482(6)
C2 C 0.5854(3) -0.8883(6) 0.7911(6)
C3 C 0.5496(3) -0.7668(6) 0.8038(6)
C4 C 0.5686(3) -0.6266(6) 0.7717(5)
C5 C 0.6266(3) -0.6139(7) 0.7304(6)
C6 C 0.6622(3) -0.7366(7) 0.7185(6)
C7 C 0.5225(3) -0.4072(6) 0.6977(6)
C8 C 0.4855(3) -0.2719(6) 0.7079(5)
C9 C 0.4652(3) -0.2345(6) 0.8277(6)
C10 C 0.4310(3) -0.1099(6) 0.8349(6)
C11 C 0.4156(3) -0.0179(6) 0.7201(6)
C12 C 0.4353(3) -0.0553(6) 0.6005(6)
C13 C 0.4694(3) -0.1815(6) 0.5932(6)
C14 C 0.3800(3) 0.1197(6) 0.7277(6)
C15 C 0.3238(3) 0.3108(6) 0.8093(6)
C16 C 0.3739(3) 0.3950(7) 0.9119(7)
C17 C 0.2588(3) 0.3232(7) 0.8478(7)
C18 C 0.3249(3) 0.3391(6) 0.6569(6)
C19 C 0.2654(3) 0.2910(7) 0.5536(7)
C20 C 0.3441(3) 0.4929(7) 0.6232(7)
C21 C 0.6835(3) -1.0083(7) 0.7372(7)
H1 H 0.715(1) -0.988(1) 0.688(1)
H2 H 0.706(1) -1.048(1) 0.838(1)
H3 H 0.660(1) -1.091(1) 0.742(1)
H4 H 0.508(1) -0.779(1) 0.839(1)
H5 H 0.699(1) -0.719(1) 0.674(1)
H6 H 0.646(1) -0.501(1) 0.712(1)
H7 H 0.569(1) -0.995(1) 0.832(1)
H8 H 0.539(1) -0.399(1) 0.592(1)
H9 H 0.476(1) -0.316(1) 0.909(1)
H10 H 0.419(1) -0.079(1) 0.929(1)
H11 H 0.423(1) 0.019(1) 0.516(1)
H12 H 0.379(1) 0.359(1) 1.010(1)
H13 H 0.364(1) 0.493(1) 0.888(1)
H14 H 0.416(1) 0.391(1) 0.898(1)
H15 H 0.233(1) 0.297(1) 0.773(1)
H16 H 0.270(1) 0.363(1) 0.938(1)
H17 H 0.241(1) 0.429(1) 0.815(1)
H18 H 0.280(1) 0.308(1) 0.471(1)
H19 H 0.249(1) 0.206(1) 0.584(1)
H20 H 0.226(1) 0.332(1) 0.570(1)
H21 H 0.379(1) 0.503(1) 0.685(1)
H22 H 0.340(1) 0.492(1) 0.529(1)
H23 H 0.313(1) 0.568(1) 0.655(1)
H24? H 0.489(1) 0.223(1) 0.405(1)
H25? H 0.358(1) 0.092(1) 0.012(1)
H26? H 0.377(1) 0.273(1) 0.429(1)
#END
