
#######################################################################
#
#                 Cambridge Crystallographic Data Centre
#                                CCDC
#
#######################################################################
#
# If this CIF has been generated from an entry in the Cambridge
# Structural Database, then it will include bibliographic, chemical,
# crystal, experimental, refinement or atomic coordinate data resulting
# from the CCDC's data processing and validation procedures.
#
#######################################################################

data_CSD_CIF_XARMUA
_audit_creation_date 2012-03-13
_audit_creation_method CSD-ConQuest-V1
_database_code_CSD XARMUA
_database_code_depnum_ccdc_archive 'CCDC 863399'
_chemical_formula_sum 'C16 H11 N1 O3'
_chemical_formula_moiety
;
C16 H11 N1 O3
;
_journal_coden_Cambridge 1078
_journal_year 2012
_journal_name_full 'CSD Communication(Private Communication) '
loop_
_publ_author_name
"I.A.Guzei"
"H.Schenck"
_chemical_name_systematic
;
2-(3-Nitrobenzylidene)indan-1-one
;
_cell_volume    605.403
_exptl_crystal_colour 'colorless'
_exptl_crystal_density_diffrn 1.455
_exptl_special_details
;
contribution from 2124 Chemistry Department, College of Letters and Science, 
University of Wisconsin-Madison, 1101 University Ave, Madison, WI 53706, USA
;
_exptl_crystal_description 'plate'
_diffrn_ambient_temperature 100
#These two values have been output from a single CSD field.
_refine_ls_R_factor_gt 0.0437
_refine_ls_wR_factor_gt 0.0437
_symmetry_cell_setting triclinic
_symmetry_space_group_name_H-M 'P -1'
_symmetry_Int_Tables_number 2
loop_
_symmetry_equiv_pos_site_id
_symmetry_equiv_pos_as_xyz
1 x,y,z
2 -x,-y,-z
_cell_length_a 6.719(3)
_cell_length_b 7.256(3)
_cell_length_c 13.254(7)
_cell_angle_alpha 81.39(2)
_cell_angle_beta 89.764(16)
_cell_angle_gamma 71.549(18)
_cell_formula_units_Z 2
loop_
_atom_type_symbol
_atom_type_radius_bond
C 0.68
H 0.23
N 0.68
O 0.68
loop_
_atom_site_label
_atom_site_type_symbol
_atom_site_fract_x
_atom_site_fract_y
_atom_site_fract_z
O1 O 0.1309(2) 0.7299(2) 0.61505(10)
O2 O 0.0087(2) 1.1809(2) 0.10074(10)
O3 O 0.2521(2) 1.2438(2) 0.00792(9)
N1 N 0.1917(2) 1.1730(2) 0.08746(11)
C1 C 0.4482(3) 0.7368(2) 0.52863(12)
C2 C 0.3222(3) 0.6881(2) 0.61618(13)
C3 C 0.4730(3) 0.5817(2) 0.70205(12)
C4 C 0.4334(3) 0.5085(2) 0.80091(13)
H1 H 0.29410 0.52060 0.82050
C5 C 0.6023(3) 0.4179(2) 0.86934(13)
H2 H 0.57980 0.36550 0.93690
C6 C 0.8063(3) 0.4026(2) 0.84026(13)
H3 H 0.92070 0.34100 0.88860
C7 C 0.8445(3) 0.4759(2) 0.74163(13)
H4 H 0.98360 0.46500 0.72230
C8 C 0.6756(3) 0.5653(2) 0.67215(12)
C9 C 0.6784(3) 0.6564(2) 0.56195(12)
H5 H 0.74240 0.76280 0.55650
H6 H 0.75670 0.55650 0.52050
C10 C 0.3473(3) 0.8372(2) 0.44035(12)
H7 H 0.19870 0.87060 0.44050
C11 C 0.4282(3) 0.9040(2) 0.34372(12)
C12 C 0.2809(3) 1.0054(2) 0.26401(12)
H8 H 0.13520 1.02950 0.27360
C13 C 0.3497(3) 1.0703(2) 0.17094(13)
C14 C 0.5589(3) 1.0432(2) 0.15359(13)
H9 H 0.60160 1.09150 0.08930
C15 C 0.7047(3) 0.9432(2) 0.23283(13)
H10 H 0.84980 0.92210 0.22280
C16 C 0.6416(3) 0.8737(2) 0.32640(13)
H11 H 0.74410 0.80460 0.37960
#END
