
#######################################################################
#
#                 Cambridge Crystallographic Data Centre
#                                CCDC
#
#######################################################################
#
# If this CIF has been generated from an entry in the Cambridge
# Structural Database, then it will include bibliographic, chemical,
# crystal, experimental, refinement or atomic coordinate data resulting
# from the CCDC's data processing and validation procedures.
#
#######################################################################

data_CSD_CIF_XARMUA01
_audit_creation_date 2017-10-22
_audit_creation_method CSD-ConQuest-V1
_database_code_CSD XARMUA01
_database_code_depnum_ccdc_archive 'CCDC 1513693'
_chemical_formula_sum 'C16 H11 N1 O3'
_chemical_formula_moiety
;
C16 H11 N1 O3
;
_journal_coden_Cambridge 1078
_journal_year 2017
_journal_name_full 'CSD Communication(Private Communication) '
loop_
_publ_author_name
"T.C.Baddeley"
"L.R.Gomes"
"J.N.Low"
"J.M.S.Skakle"
"A.B.Turner"
"J.L.Wardell"
"G.J.R.Watson"
_chemical_name_systematic
;
(E)-2-(3-nitrobenzylidene)-2,3-dihydro-1H-inden-1-one
;
_cell_volume   1213.211
_exptl_crystal_colour 'yellow'
_exptl_crystal_density_diffrn 1.452
_exptl_crystal_description 'plate'
_diffrn_ambient_temperature 100
#These two values have been output from a single CSD field.
_refine_ls_R_factor_gt 0.0585
_refine_ls_wR_factor_gt 0.0585
_symmetry_cell_setting monoclinic
_symmetry_space_group_name_H-M 'P 21/c'
_symmetry_Int_Tables_number 14
loop_
_symmetry_equiv_pos_site_id
_symmetry_equiv_pos_as_xyz
1 x,y,z
2 -x,1/2+y,1/2-z
3 -x,-y,-z
4 x,-1/2-y,-1/2+z
_cell_length_a 14.5284(8)
_cell_length_b 6.9129(2)
_cell_length_c 12.6448(5)
_cell_angle_alpha 90
_cell_angle_beta 107.193(5)
_cell_angle_gamma 90
_cell_formula_units_Z 4
loop_
_atom_type_symbol
_atom_type_radius_bond
C 0.68
H 0.23
N 0.68
O 0.68
loop_
_atom_site_label
_atom_site_type_symbol
_atom_site_fract_x
_atom_site_fract_y
_atom_site_fract_z
O1 O 0.63350(9) 0.39719(18) 0.50575(10)
O2 O 0.12492(10) 0.3672(2) 0.29872(11)
O3 O 0.03993(9) 0.3717(2) 0.12587(11)
N1 N 0.11724(11) 0.3710(2) 0.19928(12)
C1 C 0.64246(13) 0.3880(2) 0.41247(14)
C2 C 0.56142(13) 0.3829(2) 0.30598(14)
C3 C 0.60445(12) 0.3746(2) 0.21064(13)
H1 H 0.58280 0.25730 0.16510
H2 H 0.58650 0.49040 0.16290
C4 C 0.78577(13) 0.3531(2) 0.21896(15)
H3 H 0.77210 0.34490 0.14080
C5 C 0.71167(12) 0.3688(2) 0.26732(14)
C6 C 0.88020(13) 0.3496(2) 0.28733(15)
H4 H 0.93150 0.34080 0.25530
C7 C 0.90101(13) 0.3588(2) 0.40221(15)
H5 H 0.96620 0.35490 0.44730
C8 C 0.82768(13) 0.3736(2) 0.45141(14)
H6 H 0.84150 0.38060 0.52960
C9 C 0.73291(13) 0.3778(2) 0.38217(14)
C10 C 0.37956(13) 0.3809(2) 0.21887(14)
C11 C 0.29362(12) 0.3848(2) 0.24769(14)
H7 H 0.29530 0.39500 0.32310
C12 C 0.20626(13) 0.3736(2) 0.16551(14)
C13 C 0.19873(13) 0.3628(2) 0.05436(14)
H8 H 0.13770 0.35760 -0.00030
C14 C 0.28431(13) 0.3599(2) 0.02546(14)
H9 H 0.28170 0.35200 -0.05040
C15 C 0.37270(13) 0.3684(2) 0.10546(14)
H10 H 0.42990 0.36580 0.08370
C16 C 0.47000(13) 0.3874(2) 0.30888(14)
H11 H 0.46280 0.39620 0.38100
#END
