
#######################################################################
#
#                 Cambridge Crystallographic Data Centre
#                                CCDC
#
#######################################################################
#
# If this CIF has been generated from an entry in the Cambridge
# Structural Database, then it will include bibliographic, chemical,
# crystal, experimental, refinement or atomic coordinate data resulting
# from the CCDC's data processing and validation procedures.
#
#######################################################################

data_CSD_CIF_XARXUM
_audit_creation_date 2017-03-01
_audit_creation_method CSD-ConQuest-V1
_database_code_CSD XARXUM
_database_code_depnum_ccdc_archive 'CCDC 1512450'
_chemical_formula_sum 'C11 H12 N2 O6'
_chemical_formula_moiety
;
C11 H12 N2 O6
;
_journal_coden_Cambridge 177
_journal_volume 15
_journal_year 2017
_journal_page_first 2392
_journal_name_full 'Org.Biomol.Chem. '
loop_
_publ_author_name
"K.Ramakrishna"
"C.Sivasankar"
_chemical_name_systematic
;
dimethyl 2-((4-nitrophenyl)amino)malonate
;
_cell_volume   1237.842
_exptl_crystal_colour 'colorless'
_exptl_crystal_density_diffrn 1.439
_exptl_crystal_description 'block'
_exptl_crystal_preparation 'Ethyl Acetate'
_diffrn_ambient_temperature 295
#These two values have been output from a single CSD field.
_refine_ls_R_factor_gt 0.047
_refine_ls_wR_factor_gt 0.047
_symmetry_cell_setting monoclinic
_symmetry_space_group_name_H-M 'P 21/a'
_symmetry_Int_Tables_number 14
loop_
_symmetry_equiv_pos_site_id
_symmetry_equiv_pos_as_xyz
1 x,y,z
2 1/2-x,1/2+y,-z
3 -x,-y,-z
4 -1/2+x,-1/2-y,z
_cell_length_a 7.8685(4)
_cell_length_b 15.9375(7)
_cell_length_c 10.1120(4)
_cell_angle_alpha 90
_cell_angle_beta 102.539(5)
_cell_angle_gamma 90
_cell_formula_units_Z 4
loop_
_atom_type_symbol
_atom_type_radius_bond
C 0.68
H 0.23
N 0.68
O 0.68
loop_
_atom_site_label
_atom_site_type_symbol
_atom_site_fract_x
_atom_site_fract_y
_atom_site_fract_z
O1 O 0.40350(18) 0.09776(8) 0.95139(13)
O2 O 0.17180(17) 0.16699(8) 0.83397(14)
O3 O -0.10542(16) 0.04103(8) 0.75243(14)
N1 N 0.32571(18) -0.04017(8) 0.79201(14)
H1 H 0.42130 -0.03550 0.85180
C1 C 0.2961(2) -0.11065(10) 0.71049(16)
C2 C 0.1976(2) 0.02543(10) 0.77744(16)
H2 H 0.17110 0.04390 0.68270
O4 O 0.01910(19) -0.06547(9) 0.88377(14)
C3 C 0.2717(2) 0.09986(10) 0.86589(17)
C4 C 0.2324(2) -0.2545(1) 0.55518(17)
N2 N 0.1904(2) -0.33088(10) 0.47633(16)
C5 C 0.0272(2) -0.00576(10) 0.81311(16)
C6 C 0.3750(2) -0.18651(11) 0.75793(17)
H3 H 0.45080 -0.18840 0.84240
C7 C 0.1598(3) -0.17967(11) 0.50218(17)
H4 H 0.09050 -0.17770 0.41510
C8 C 0.1912(3) -0.10819(11) 0.57945(18)
H5 H 0.14230 -0.05760 0.54440
C9 C 0.3425(3) -0.25828(11) 0.68183(18)
H6 H 0.39390 -0.30880 0.71490
O5 O 0.2585(3) -0.39691(9) 0.52272(16)
O6 O 0.0896(2) -0.32682(10) 0.36546(15)
C10 C -0.2751(3) 0.01985(16) 0.7778(3)
H7 H -0.36370 0.05050 0.71640
H8 H -0.27850 0.03430 0.86930
H9 H -0.29540 -0.03920 0.76430
C11 C 0.2323(3) 0.24377(13) 0.9056(3)
H10 H 0.14950 0.28780 0.87580
H11 H 0.34280 0.25920 0.88720
H12 H 0.24470 0.23520 1.00120
#END
