
#######################################################################
#
#                 Cambridge Crystallographic Data Centre
#                                CCDC
#
#######################################################################
#
# If this CIF has been generated from an entry in the Cambridge
# Structural Database, then it will include bibliographic, chemical,
# crystal, experimental, refinement or atomic coordinate data resulting
# from the CCDC's data processing and validation procedures.
#
#######################################################################

data_CSD_CIF_XARYIY
_audit_creation_date 2001-02-05
_audit_creation_method CSD-ConQuest-V1
_database_code_CSD XARYIY
_database_code_depnum_ccdc_archive 'CCDC 124103'
_chemical_formula_sum 'C12 H10 N4 O6'
_chemical_formula_moiety
;
C12 H10 N4 O6
;
_journal_coden_Cambridge 35
_journal_volume 64
_journal_year 1999
_journal_page_first 9254
_journal_name_full 'J.Org.Chem. '
loop_
_publ_author_name
"P.Sepulcri"
"J.C.Halle"
"R.Goumont"
"D.Riou"
"F.Terrier"
_chemical_name_systematic
;
8,10-Dinitro-4,6-diaza-5-oxatetracyclo(9.2.2.0^2,10^.0^3,7^)pentadeca-3,6,8,12
-tetraene-4-oxide
;
_chemical_melting_point 453.15
_cell_volume    631.715
_exptl_crystal_colour 'light yellow'
_exptl_crystal_density_diffrn 1.61
_exptl_crystal_description 'parallelepiped'
_exptl_crystal_preparation 'chloroform/pentane'
_diffrn_ambient_temperature ?
_diffrn_special_details
;
The study was carried out at room temperature,in the range 283-303K

;
#These two values have been output from a single CSD field.
_refine_ls_R_factor_gt 0.0431
_refine_ls_wR_factor_gt 0.0431
_symmetry_cell_setting triclinic
_symmetry_space_group_name_H-M 'P -1'
_symmetry_Int_Tables_number 2
loop_
_symmetry_equiv_pos_site_id
_symmetry_equiv_pos_as_xyz
1 x,y,z
2 -x,-y,-z
_cell_length_a 7.4532(2)
_cell_length_b 8.5642(3)
_cell_length_c 10.9340(2)
_cell_angle_alpha 82.706(2)
_cell_angle_beta 77.134(2)
_cell_angle_gamma 68.370(1)
_cell_formula_units_Z 2
loop_
_atom_type_symbol
_atom_type_radius_bond
C 0.68
H 0.23
N 0.68
O 0.68
loop_
_atom_site_label
_atom_site_type_symbol
_atom_site_fract_x
_atom_site_fract_y
_atom_site_fract_z
C1 C -0.1233(2) 1.0658(2) 0.31289(13)
C2 C -0.0059(2) 0.9175(2) 0.26991(13)
H1 H 0.1208(2) 0.8748(2) 0.28678(13)
C3 C -0.0634(2) 0.8131(2) 0.19548(13)
C4 C -0.2681(2) 0.8902(2) 0.15821(13)
H2 H -0.2486(2) 0.9025(2) 0.06636(13)
C5 C -0.3775(2) 1.0594(2) 0.20879(14)
C6 C -0.3189(2) 1.1463(2) 0.28473(14)
C7 C -0.0440(2) 0.6391(2) 0.2667(2)
H3 H 0.0860(2) 0.5846(2) 0.2890(2)
C8 C -0.0805(3) 0.5331(2) 0.1817(2)
H4 H 0.0113(3) 0.4302(2) 0.1545(2)
C9 C -0.2541(3) 0.5994(2) 0.1495(2)
H5 H -0.2951(3) 0.5470(2) 0.0972(2)
C10 C -0.3804(2) 0.7657(2) 0.2036(2)
H6 H -0.5076(2) 0.8076(2) 0.1766(2)
C11 C -0.4086(3) 0.7416(3) 0.3471(2)
H7 H -0.4867(3) 0.8482(3) 0.3849(2)
H8 H -0.4774(3) 0.6634(3) 0.3766(2)
C12 C -0.2079(3) 0.6736(2) 0.3848(2)
H9 H -0.1944(3) 0.5703(2) 0.4362(2)
H10 H -0.1961(3) 0.7546(2) 0.4341(2)
N1 N -0.5513(2) 1.1579(2) 0.18806(15)
N2 N -0.0518(2) 1.1493(2) 0.39144(12)
N3 N -0.4511(3) 1.2936(2) 0.3135(2)
N4 N 0.0999(2) 0.7766(2) 0.07476(13)
O1 O -0.6701(2) 1.1499(2) 0.12919(15)
O2 O -0.6030(2) 1.3108(2) 0.25612(15)
O3 O 0.1223(2) 1.0892(2) 0.39915(13)
O4 O -0.1725(3) 1.2698(2) 0.4475(2)
O5 O 0.0559(2) 0.8123(2) -0.02764(12)
O6 O 0.2670(2) 0.7074(3) 0.0910(2)
#END
