
#######################################################################
#
#                 Cambridge Crystallographic Data Centre
#                                CCDC
#
#######################################################################
#
# If this CIF has been generated from an entry in the Cambridge
# Structural Database, then it will include bibliographic, chemical,
# crystal, experimental, refinement or atomic coordinate data resulting
# from the CCDC's data processing and validation procedures.
#
#######################################################################

data_CSD_CIF_XATFIJ
_audit_creation_date 2012-03-30
_audit_creation_method CSD-ConQuest-V1
_database_code_CSD XATFIJ
_database_code_depnum_ccdc_archive 'CCDC 836730'
_chemical_formula_sum 'C15 H14 N2 O6'
_chemical_formula_moiety
;
C15 H14 N2 O6
;
_journal_coden_Cambridge 1078
_journal_year 2011
_journal_name_full 'CSD Communication(Private Communication) '
loop_
_publ_author_name
"R.Bates"
"S.Sridhar"
_chemical_name_systematic
;
2-vinylidenecyclohexyl 3,5-dinitrobenzoate
;
_chemical_melting_point 467.15
_cell_volume   1489.451
_exptl_crystal_colour 'colorless'
_exptl_crystal_density_diffrn 1.419
_exptl_special_details
;
Melting point range 467.15-469.15K
contribution from Nanyang Technological University,21 Nanyang Link, Singapore 
637371
;
_exptl_crystal_description 'prism'
_exptl_crystal_preparation 'ethyl acetate'
_diffrn_ambient_temperature 223
#These two values have been output from a single CSD field.
_refine_ls_R_factor_gt 0.0484
_refine_ls_wR_factor_gt 0.0484
_symmetry_cell_setting monoclinic
_symmetry_space_group_name_H-M 'P 21/c'
_symmetry_Int_Tables_number 14
loop_
_symmetry_equiv_pos_site_id
_symmetry_equiv_pos_as_xyz
1 x,y,z
2 -x,1/2+y,1/2-z
3 -x,-y,-z
4 x,-1/2-y,-1/2+z
_cell_length_a 15.6674(6)
_cell_length_b 5.4556(2)
_cell_length_c 18.5311(6)
_cell_angle_alpha 90
_cell_angle_beta 109.891(2)
_cell_angle_gamma 90
_cell_formula_units_Z 4
loop_
_atom_type_symbol
_atom_type_radius_bond
C 0.68
H 0.23
N 0.68
O 0.68
loop_
_atom_site_label
_atom_site_type_symbol
_atom_site_fract_x
_atom_site_fract_y
_atom_site_fract_z
C1 C 0.10212(14) -0.0400(5) 0.08149(12)
H1 H 0.0613(15) 0.098(4) 0.0669(13)
H2 H 0.1275(15) -0.091(4) 0.1353(12)
C2 C 0.12339(12) -0.1624(4) 0.02998(10)
C3 C 0.14434(11) -0.2813(3) -0.02315(9)
C4 C 0.09050(14) -0.4934(4) -0.06863(12)
H3 H 0.03650 -0.52070 -0.05430
H4 H 0.12750 -0.64260 -0.05660
C5 C 0.06163(13) -0.4410(4) -0.15476(12)
H5 H 0.03210 -0.58660 -0.18340
H6 H 0.01750 -0.30660 -0.16780
C6 C 0.14226(14) -0.3722(4) -0.17825(11)
H7 H 0.12100 -0.33240 -0.23310
H8 H 0.18340 -0.51280 -0.17000
C7 C 0.19381(13) -0.1532(3) -0.13263(10)
H9 H 0.24700 -0.11870 -0.14740
H10 H 0.15460 -0.00810 -0.14430
C8 C 0.22381(11) -0.2072(3) -0.04736(9)
H11 H 0.26920 -0.34090 -0.03480
C9 C 0.35327(10) 0.0386(3) 0.01962(9)
C10 C 0.38286(11) 0.2538(3) 0.07264(9)
C11 C 0.46799(11) 0.3558(3) 0.08401(9)
H12 H 0.50700 0.28830 0.06030
C12 C 0.49347(11) 0.5583(3) 0.13095(9)
C13 C 0.43980(11) 0.6600(3) 0.16910(9)
H13 H 0.45890 0.79710 0.20130
C14 C 0.35670(11) 0.5498(3) 0.15742(9)
C15 C 0.32599(11) 0.3504(3) 0.10977(9)
H14 H 0.26870 0.28150 0.10250
N1 N 0.57948(10) 0.6832(3) 0.13772(8)
N2 N 0.29666(11) 0.6542(3) 0.19666(8)
O1 O 0.26348(8) 0.0095(2) -0.00266(7)
O2 O 0.40471(8) -0.0909(2) 0.00187(7)
O3 O 0.62628(9) 0.5959(3) 0.10333(8)
O4 O 0.59821(11) 0.8704(3) 0.17649(9)
O5 O 0.31896(11) 0.8494(3) 0.22998(9)
O6 O 0.22872(10) 0.5394(3) 0.19315(8)
#END
