
#######################################################################
#
#                 Cambridge Crystallographic Data Centre
#                                CCDC
#
#######################################################################
#
# If this CIF has been generated from an entry in the Cambridge
# Structural Database, then it will include bibliographic, chemical,
# crystal, experimental, refinement or atomic coordinate data resulting
# from the CCDC's data processing and validation procedures.
#
#######################################################################

data_CSD_CIF_XATHOR
_audit_creation_date 2012-03-29
_audit_creation_method CSD-ConQuest-V1
_database_code_CSD XATHOR
_database_code_depnum_ccdc_archive 'CCDC 833258'
_chemical_formula_sum 'C14 H15 N3 O2'
_chemical_formula_moiety
;
C14 H15 N3 O2
;
_journal_coden_Cambridge 1078
_journal_year 2011
_journal_name_full 'CSD Communication(Private Communication) '
loop_
_publ_author_name
"S.Yousuf"
_chemical_name_systematic
;
1,3,3-Trimethyl-7-nitro-3,4-dihydropyrido[1,2-a]benzimidazole
;
_cell_volume   1312.297
_exptl_crystal_colour 'colorless'
_exptl_crystal_density_diffrn 1.302
_exptl_special_details
;
contribution from H.E.J. Research Institute of Chemistry, International 
Center for Chemical and Biological Sciences, University of Karachi, 
Karachi-75270, Pakistan
;
_exptl_crystal_description 'plate'
_diffrn_ambient_temperature 273
#These two values have been output from a single CSD field.
_refine_ls_R_factor_gt 0.0572
_refine_ls_wR_factor_gt 0.0572
_symmetry_cell_setting monoclinic
_symmetry_space_group_name_H-M 'P 21/c'
_symmetry_Int_Tables_number 14
loop_
_symmetry_equiv_pos_site_id
_symmetry_equiv_pos_as_xyz
1 x,y,z
2 -x,1/2+y,1/2-z
3 -x,-y,-z
4 x,-1/2-y,-1/2+z
_cell_length_a 12.371(3)
_cell_length_b 8.505(2)
_cell_length_c 13.487(3)
_cell_angle_alpha 90
_cell_angle_beta 112.365(5)
_cell_angle_gamma 90
_cell_formula_units_Z 4
loop_
_atom_type_symbol
_atom_type_radius_bond
C 0.68
H 0.23
N 0.68
O 0.68
loop_
_atom_site_label
_atom_site_type_symbol
_atom_site_fract_x
_atom_site_fract_y
_atom_site_fract_z
O1 O -0.2424(2) 0.4867(3) -0.2040(2)
O2 O -0.2768(2) 0.5094(3) -0.0601(2)
N1 N -0.2181(3) 0.5364(4) -0.1138(3)
N2 N 0.0551(2) 0.8610(3) 0.17643(18)
N3 N 0.1737(2) 0.9067(3) 0.08767(17)
C1 C 0.0566(3) 0.7486(4) -0.0811(2)
H1 H 0.10450 0.76580 -0.11910
C2 C -0.0425(3) 0.6579(4) -0.1230(2)
H2 H -0.06230 0.61240 -0.19040
C3 C -0.1129(3) 0.6338(4) -0.0657(2)
C4 C -0.0891(3) 0.6965(4) 0.0341(2)
H3 H -0.13780 0.67870 0.07110
C5 C 0.0104(3) 0.7870(4) 0.0771(2)
C6 C 0.1505(3) 0.9295(4) 0.1796(2)
C7 C 0.2302(3) 1.0293(4) 0.2665(2)
H4 H 0.22630 0.99670 0.33400
H5 H 0.20350 1.13740 0.25360
C8 C 0.3573(3) 1.0217(4) 0.2763(2)
C9 C 0.3580(3) 1.0293(4) 0.1656(2)
H6 H 0.42050 1.08030 0.15740
C10 C 0.2767(3) 0.9689(4) 0.0785(3)
C11 C 0.0828(3) 0.8139(3) 0.0200(2)
C12 C 0.2827(4) 0.9650(4) -0.0289(3)
H7 H 0.35550 1.00940 -0.02500
H8 H 0.21910 1.02490 -0.07820
H9 H 0.27730 0.85810 -0.05320
C13 C 0.4124(3) 0.8660(4) 0.3291(3)
H10 H 0.37000 0.77980 0.28570
H11 H 0.40940 0.85890 0.39900
H12 H 0.49240 0.86200 0.33550
C14 C 0.4256(3) 1.1591(4) 0.3451(3)
H13 H 0.39190 1.25660 0.31170
H14 H 0.50560 1.15370 0.35190
H15 H 0.42220 1.15300 0.41490
#END
