
#######################################################################
#
#                 Cambridge Crystallographic Data Centre
#                                CCDC
#
#######################################################################
#
# If this CIF has been generated from an entry in the Cambridge
# Structural Database, then it will include bibliographic, chemical,
# crystal, experimental, refinement or atomic coordinate data resulting
# from the CCDC's data processing and validation procedures.
#
#######################################################################

data_CSD_CIF_XAVLEL
_audit_creation_date 2001-02-05
_audit_creation_method CSD-ConQuest-V1
_database_code_CSD XAVLEL
_database_code_depnum_ccdc_archive 'CCDC 154843'
_database_code_depnum_ccdc_journal 182/1845
_chemical_formula_sum 'C22 H16 N8 O2'
_chemical_formula_moiety
;
C22 H16 N8 O2
;
_journal_coden_Cambridge 182
_journal_year 2000
_journal_page_first 1785
_journal_name_full 'Chem.Commun. '
loop_
_publ_author_name
"P.Kover"
"G.Hajos"
"Z.Riedl"
"L.Parkanyi"
"G.Kollenz"
_chemical_name_systematic
;
1-Methyl-3-phenyl-5-(4-nitrophenyl)-7-(2-pyridylimino)-[1,2,3]triazolo[4,5-d]p
yridazine
;
_chemical_melting_point 542.15
_cell_volume   1961.692
_exptl_crystal_colour 'orange'
_exptl_crystal_density_diffrn 1.437
_exptl_special_details
;
Melting point range 542.15-544.15K

;
_exptl_crystal_description 'needle'
_diffrn_ambient_temperature ?
_diffrn_special_details
;
The study was carried out at room temperature,in the range 283-303K

;
#These two values have been output from a single CSD field.
_refine_ls_R_factor_gt 0.0404
_refine_ls_wR_factor_gt 0.0404
_symmetry_cell_setting monoclinic
_symmetry_space_group_name_H-M 'P 21/c'
_symmetry_Int_Tables_number 14
loop_
_symmetry_equiv_pos_site_id
_symmetry_equiv_pos_as_xyz
1 x,y,z
2 -x,1/2+y,1/2-z
3 -x,-y,-z
4 x,-1/2-y,-1/2+z
_cell_length_a 6.163(1)
_cell_length_b 17.243(4)
_cell_length_c 18.471(1)
_cell_angle_alpha 90
_cell_angle_beta 92.00(1)
_cell_angle_gamma 90
_cell_formula_units_Z 4
loop_
_atom_type_symbol
_atom_type_radius_bond
C 0.68
H 0.23
N 0.68
O 0.68
loop_
_atom_site_label
_atom_site_type_symbol
_atom_site_fract_x
_atom_site_fract_y
_atom_site_fract_z
O1 O -1.2510(3) 0.86457(13) -0.17602(12)
O2 O -1.2849(3) 0.93100(15) -0.07896(12)
N1 N -0.3388(3) 0.77908(10) 0.06698(9)
N2 N -0.4194(3) 0.75604(10) 0.00245(9)
N3 N -0.3050(3) 0.70157(10) -0.03178(9)
N4 N 0.1852(3) 0.63666(10) 0.06680(9)
N5 N 0.1605(3) 0.6833(1) 0.12557(8)
N6 N 0.0023(3) 0.77857(11) 0.19344(9)
N7 N -1.1870(3) 0.88470(14) -0.11560(14)
N8 N -0.1285(3) 0.90099(13) 0.15725(11)
C1 C -0.1377(3) 0.68842(11) 0.0150(1)
C2 C 0.0465(3) 0.63711(12) 0.01198(10)
C3 C -0.0012(3) 0.73747(13) 0.13535(11)
C4 C -0.1588(3) 0.73659(12) 0.07484(10)
C5 C 0.3278(4) 0.67300(15) 0.18275(12)
H1 H 0.26850 0.64480 0.22230
H2 H 0.37740 0.72280 0.19950
H3 H 0.44750 0.64460 0.16400
C6 C -0.6133(3) 0.78860(12) -0.02807(11)
C7 C -0.7206(4) 0.84440(13) 0.01063(12)
H4 H -0.66610 0.86040 0.05580
C8 C -0.9093(4) 0.87612(14) -0.01843(13)
H5 H -0.98490 0.91340 0.00690
C9 C -0.9837(3) 0.85161(13) -0.08565(12)
C10 C -0.8791(4) 0.79631(14) -0.12422(12)
H6 H -0.93420 0.78070 -0.16940
C11 C -0.6917(3) 0.76410(14) -0.09548(11)
H7 H -0.61820 0.72630 -0.12090
C12 C 0.0892(3) 0.58397(11) -0.04875(10)
C13 C -0.0634(4) 0.56846(14) -0.10312(11)
H8 H -0.19740 0.59320 -0.10300
C14 C -0.0201(4) 0.51662(14) -0.15776(12)
H9 H -0.12540 0.50680 -0.19390
C15 C 0.1756(4) 0.47962(14) -0.15931(12)
H10 H 0.20340 0.44400 -0.19560
C16 C 0.3307(4) 0.49603(16) -0.10619(13)
H11 H 0.46510 0.47160 -0.10700
C17 C 0.2895(4) 0.54797(14) -0.05200(12)
H12 H 0.39740 0.55910 -0.01710
C18 C -0.1543(4) 0.83782(13) 0.19838(11)
C19 C -0.2868(5) 0.95498(16) 0.15908(14)
H13 H -0.27410 0.99910 0.13050
C20 C -0.4654(5) 0.94821(16) 0.20086(14)
H14 H -0.57370 0.98580 0.19940
C21 C -0.4797(4) 0.88492(16) 0.24449(14)
H15 H -0.59720 0.87960 0.27440
C22 C -0.3218(4) 0.82903(14) 0.24450(12)
H16 H -0.32810 0.78630 0.27500
#END
