
#######################################################################
#
#                 Cambridge Crystallographic Data Centre
#                                CCDC
#
#######################################################################
#
# If this CIF has been generated from an entry in the Cambridge
# Structural Database, then it will include bibliographic, chemical,
# crystal, experimental, refinement or atomic coordinate data resulting
# from the CCDC's data processing and validation procedures.
#
#######################################################################

data_CSD_CIF_XAVMIQ
_audit_creation_date 2001-02-05
_audit_creation_method CSD-ConQuest-V1
_database_code_CSD XAVMIQ
_database_code_depnum_ccdc_archive 'CCDC 119385'
_chemical_formula_sum 'C8 H9 N1 O2'
_chemical_formula_moiety
;
C8 H9 N1 O2
;
_journal_coden_Cambridge 98
_journal_volume 65
_journal_year 2000
_journal_page_first 1273
_journal_name_full 'Collect.Czech.Chem.Commun. '
loop_
_publ_author_name
"J.Podlaha"
"I.Cisarova"
"L.Soukupova"
"Jan Schraml"
_chemical_name_systematic
;
4-Methylbenzohydroxamic acid
;
_chemical_melting_point 422.15
_cell_volume    745.130
_exptl_crystal_colour 'colorless'
_exptl_crystal_density_diffrn 1.347
_exptl_special_details
;
Melting point range 422.15-423.15K

;
_exptl_crystal_description 'leaflet'
_exptl_crystal_preparation 'ethanol/xylene'
_diffrn_ambient_temperature ?
_diffrn_special_details
;
The study was carried out at room temperature,in the range 283-303K

;
_refine_special_details
;
Phenyl C2-C3 and C5-C6 and attached hydrogens are each disordered equally 
over two sites.
;
#These two values have been output from a single CSD field.
_refine_ls_R_factor_gt 0.0539
_refine_ls_wR_factor_gt 0.0539
_symmetry_cell_setting orthorhombic
_symmetry_space_group_name_H-M 'P n a 21'
_symmetry_Int_Tables_number 33
loop_
_symmetry_equiv_pos_site_id
_symmetry_equiv_pos_as_xyz
1 x,y,z
2 -x,-y,1/2+z
3 1/2-x,1/2+y,1/2+z
4 1/2+x,1/2-y,z
_cell_length_a 33.796(5)
_cell_length_b 4.7135(7)
_cell_length_c 4.6776(10)
_cell_angle_alpha 90
_cell_angle_beta 90
_cell_angle_gamma 90
_cell_formula_units_Z 4
loop_
_atom_type_symbol
_atom_type_radius_bond
C 0.68
H 0.23
N 0.68
O 0.68
loop_
_atom_site_label
_atom_site_type_symbol
_atom_site_fract_x
_atom_site_fract_y
_atom_site_fract_z
O1 O 1.00819(8) 0.2693(6) -0.0148(8)
H1 H 1.0201(15) 0.370(13) 0.138(17)
O2 O 0.94031(9) 0.5133(8) -0.1683(11)
N1 N 0.97204(9) 0.1929(7) 0.1010(9)
H2 H 0.9730(12) 0.0553(92) 0.249(12)
C1 C 0.90158(12) 0.2074(8) 0.1219(10)
C2 C 0.8672(2) 0.3763(20) 0.0841(23)
H3 H 0.8694(2) 0.5557(20) 0.0027(23)
C3 C 0.8316(4) 0.2744(26) 0.1629(31)
H4 H 0.8089(4) 0.3761(26) 0.1161(31)
C4 C 0.82746(11) 0.0275(10) 0.3159(13)
C5 C 0.8608(3) -0.1422(21) 0.3499(27)
H5 H 0.8583(3) -0.3232(21) 0.4270(27)
C6 C 0.8977(3) -0.0418(18) 0.2724(20)
H6 H 0.9202(3) -0.1443(18) 0.3223(20)
C7 C 0.93945(9) 0.3156(7) 0.0064(8)
C8 C 0.78787(9) -0.0747(7) 0.4167(8)
H7 H 0.78501(9) -0.0344(7) 0.6168(8)
H8 H 0.78586(9) -0.2755(7) 0.3861(8)
H9 H 0.76738(9) 0.0205(7) 0.3118(8)
C9? C 0.8669(3) 0.2522(20) -0.0397(26)
H10? H 0.8685(3) 0.3373(20) -0.2187(26)
C10? C 0.8307(4) 0.1758(26) 0.0733(33)
H11? H 0.8077(4) 0.2277(26) -0.0225(33)
C11? C 0.8624(3) -0.0178(20) 0.4789(26)
H12? H 0.8607(3) -0.1022(20) 0.6583(26)
C12? C 0.89940(9) 0.0625(7) 0.3707(8)
H13? H 0.92252(9) 0.0162(7) 0.4680(8)
#END
