
#######################################################################
#
#                 Cambridge Crystallographic Data Centre
#                                CCDC
#
#######################################################################
#
# If this CIF has been generated from an entry in the Cambridge
# Structural Database, then it will include bibliographic, chemical,
# crystal, experimental, refinement or atomic coordinate data resulting
# from the CCDC's data processing and validation procedures.
#
#######################################################################

data_CSD_CIF_XAWLAL
_audit_creation_date 2017-07-17
_audit_creation_method CSD-ConQuest-V1
_database_code_CSD XAWLAL
_database_code_depnum_ccdc_archive 'CCDC 1562772'
_chemical_formula_sum 'C20 H24 N2 O10'
_chemical_formula_moiety
;
C20 H24 N2 O10
;
_journal_coden_Cambridge 1078
_journal_year 2017
_journal_name_full 'CSD Communication(Private Communication) '
loop_
_publ_author_name
"Yanran Ai"
_chemical_name_systematic
;
2-[5-(but-3-en-2-yl)-6-hydroxyhexahydro-2H-furo[3,2-b]pyran-2-yl]-2-hydroxyeth
yl 3,5-dinitrobenzoate
;
_cell_volume   2073.801
_exptl_crystal_colour 'colorless'
_exptl_crystal_density_diffrn 1.449
_exptl_special_details
;
Absolute configuration

;
_exptl_crystal_description 'plate'
_diffrn_ambient_temperature 100
#These two values have been output from a single CSD field.
_refine_ls_R_factor_gt 0.0293
_refine_ls_wR_factor_gt 0.0293
_symmetry_cell_setting monoclinic
_symmetry_space_group_name_H-M 'C 2'
_symmetry_Int_Tables_number 5
loop_
_symmetry_equiv_pos_site_id
_symmetry_equiv_pos_as_xyz
1 x,y,z
2 -x,y,-z
3 1/2+x,1/2+y,z
4 1/2-x,1/2+y,-z
_cell_length_a 25.2712(10)
_cell_length_b 5.6984(2)
_cell_length_c 18.5928(7)
_cell_angle_alpha 90
_cell_angle_beta 129.2367(18)
_cell_angle_gamma 90
_cell_formula_units_Z 4
loop_
_atom_type_symbol
_atom_type_radius_bond
C 0.68
H 0.23
N 0.68
O 0.68
loop_
_atom_site_label
_atom_site_type_symbol
_atom_site_fract_x
_atom_site_fract_y
_atom_site_fract_z
C1 C -0.41511(12) -0.3812(4) -0.99407(16)
H1 H -0.43690 -0.31980 -0.97120
C2 C -0.42085(12) -0.2691(4) -1.06489(16)
C3 C -0.38896(12) -0.3476(5) -1.09888(16)
H2 H -0.39310 -0.26670 -1.14690
C4 C -0.35071(12) -0.5497(5) -1.05971(16)
C5 C -0.34401(12) -0.6719(5) -0.99030(16)
H3 H -0.31770 -0.81180 -0.96560
C6 C -0.37656(12) -0.5861(5) -0.95739(15)
C7 C -0.36776(12) -0.7185(5) -0.88085(16)
C8 C -0.38009(12) -0.6986(5) -0.76548(15)
H4 H -0.33040 -0.69710 -0.71300
H5 H -0.39650 -0.86260 -0.77690
C9 C -0.41715(12) -0.5480(4) -0.74327(16)
H6 H -0.46700 -0.55430 -0.79770
C10 C -0.40746(12) -0.6443(5) -0.65857(16)
H7 H -0.41420 -0.81820 -0.66460
C11 C -0.45594(12) -0.5317(5) -0.64522(17)
H8 H -0.47710 -0.38750 -0.68300
H9 H -0.49240 -0.64240 -0.66210
C12 C -0.40925(12) -0.4753(5) -0.54222(17)
H10 H -0.42710 -0.34370 -0.52740
C13 C -0.34409(12) -0.4102(4) -0.52535(16)
H11 H -0.34930 -0.25280 -0.55290
C14 C -0.28104(12) -0.4132(4) -0.42458(16)
H12 H -0.28090 -0.27190 -0.39350
H13 H -0.24000 -0.40670 -0.42040
C15 C -0.27722(12) -0.6306(4) -0.37413(15)
H14 H -0.24200 -0.60170 -0.30590
C16 C -0.34543(12) -0.6738(5) -0.39515(16)
H15 H -0.35470 -0.53990 -0.36970
C17 C -0.34931(13) -0.9028(5) -0.35577(18)
H16 H -0.35220 -1.03270 -0.39430
C18 C -0.41416(16) -0.9127(6) -0.3677(2)
H17 H -0.45000 -0.81390 -0.41500
C19 C -0.4278(2) -1.0295(8) -0.3254(4)
H18 H -0.39460 -1.13260 -0.27710
H19 H -0.47150 -1.01650 -0.34120
C20 C -0.28545(14) -0.9479(6) -0.25635(19)
H20 H -0.27920 -0.81970 -0.21640
H21 H -0.24560 -0.95650 -0.25390
H22 H -0.29040 -1.09650 -0.23460
N1 N -0.46284(10) -0.0558(4) -1.10553(14)
N2 N -0.31514(12) -0.6391(5) -1.09356(15)
O1 O -0.48977(9) 0.0159(4) -1.07365(13)
O2 O -0.46750(9) 0.0400(4) -1.16861(12)
O3 O -0.31186(12) -0.5090(4) -1.14300(15)
O4 O -0.29104(12) -0.8373(4) -1.07010(14)
O5 O -0.39409(8) -0.6008(3) -0.84829(11)
O6 O -0.33886(9) -0.9052(3) -0.85219(12)
O7 O -0.3961(1) -0.3099(3) -0.72918(13)
O8 O -0.33887(8) -0.5901(3) -0.57557(10)
O9 O -0.40003(8) -0.6865(3) -0.49394(11)
O10 O -0.25570(9) -0.8296(3) -0.39708(12)
H23 H -0.2784(17) -0.827(6) -0.454(2)
H24 H -0.351(2) -0.313(8) -0.683(3)
#END
