
#######################################################################
#
#                 Cambridge Crystallographic Data Centre
#                                CCDC
#
#######################################################################
#
# If this CIF has been generated from an entry in the Cambridge
# Structural Database, then it will include bibliographic, chemical,
# crystal, experimental, refinement or atomic coordinate data resulting
# from the CCDC's data processing and validation procedures.
#
#######################################################################

data_CSD_CIF_XAYCEF
_audit_creation_date 2001-02-22
_audit_creation_method CSD-ConQuest-V1
_database_code_CSD XAYCEF
_database_code_depnum_ccdc_archive 'CCDC 153891'
_chemical_formula_sum 'C28 H38 N4 O6'
_chemical_formula_moiety
;
C28 H38 N4 O6
;
_journal_coeditor_code "IUCr FR1242"
_journal_coden_Cambridge 591
_journal_volume 56
_journal_year 2000
_journal_page_first 1346
_journal_name_full 'Acta Crystallogr.,Sect.C:Cryst.Struct.Commun. '
loop_
_publ_author_name
"J.Duque"
"H.N.de Armas"
"R.P.Hernandez"
"M.S.Navarro"
"E.O.Rodriguez"
"E.Salfran"
"Y.V.Reyes"
"N.M.Blaton"
"O.M.Peeters"
"C.J.De Ranter"
_chemical_name_systematic
;
Ethyl methyl 
1,4-dihydro-4-(3-nitrophenyl)-2,6-bis(1-piperidylmethyl)pyridine-3,5-dicarboxy
late
;
_chemical_melting_point 504
_cell_volume   2784.576
_exptl_crystal_colour 'light yellow'
_exptl_crystal_density_diffrn 1.256
_exptl_special_details
;
Melting point range 504-506K

;
_exptl_crystal_description 'prismatic'
_exptl_crystal_preparation 'ethanol'
_diffrn_ambient_temperature ?
_diffrn_special_details
;
The study was carried out at room temperature,in the range 283-303K

;
#These two values have been output from a single CSD field.
_refine_ls_R_factor_gt 0.054
_refine_ls_wR_factor_gt 0.054
_symmetry_cell_setting monoclinic
_symmetry_space_group_name_H-M 'P 21/c'
_symmetry_Int_Tables_number 14
loop_
_symmetry_equiv_pos_site_id
_symmetry_equiv_pos_as_xyz
1 x,y,z
2 -x,1/2+y,1/2-z
3 -x,-y,-z
4 x,-1/2-y,-1/2+z
_cell_length_a 8.9714(6)
_cell_length_b 11.7112(11)
_cell_length_c 26.718(2)
_cell_angle_alpha 90
_cell_angle_beta 97.271(5)
_cell_angle_gamma 90
_cell_formula_units_Z 4
loop_
_atom_type_symbol
_atom_type_radius_bond
C 0.68
H 0.23
N 0.68
O 0.68
loop_
_atom_site_label
_atom_site_type_symbol
_atom_site_fract_x
_atom_site_fract_y
_atom_site_fract_z
O1 O 0.9166(5) 0.4428(3) 0.2188(2)
O2 O 1.0384(4) 0.3111(3) 0.2601(2)
O3 O 0.7231(4) 0.2964(3) -0.0250(1)
O4 O 0.1730(3) 0.3352(3) 0.1384(1)
O5 O 0.6325(4) 0.1440(3) 0.0117(1)
O6 O 0.2721(3) 0.1710(2) 0.1158(1)
N1 N 0.5616(3) 0.4921(3) 0.0910(1)
N2 N 0.9385(5) 0.3424(4) 0.2288(2)
N3 N 0.7760(4) 0.6109(3) 0.0569(1)
N4 N 0.4550(4) 0.6247(3) 0.1608(1)
C1 C 0.5315(4) 0.2575(3) 0.0900(1)
C2 C 0.6317(4) 0.4345(3) 0.0558(1)
C3 C 0.6453(4) 0.2166(3) 0.1336(1)
C4 C 0.4141(4) 0.3348(3) 0.1083(1)
C5 C 0.3529(4) 0.5402(3) 0.1344(2)
C6 C 0.6092(4) 0.3200(3) 0.0505(1)
C7 C 0.4411(4) 0.4490(3) 0.1117(1)
C8 C 0.7389(4) 0.2940(3) 0.1614(2)
C9 C 0.8435(4) 0.2566(4) 0.2002(2)
C10 C 0.2741(5) 0.2858(4) 0.1226(2)
C11 C 0.5228(5) 0.5800(4) 0.2093(2)
C12 C 0.6622(5) 0.1013(4) 0.1466(2)
C13 C 0.8609(5) 0.1432(4) 0.2132(2)
C14 C 0.7265(5) 0.5111(4) 0.0263(2)
C15 C 0.9083(5) 0.5834(4) 0.0928(2)
C16 C 0.6624(5) 0.2579(4) 0.0091(2)
C17 C 0.7683(5) 0.0664(4) 0.1857(2)
C18 C 0.9456(6) 0.6808(4) 0.1293(2)
C19 C 0.3773(5) 0.7318(4) 0.1679(2)
C20 C 0.5644(6) 0.7770(4) 0.2426(2)
C21 C 0.6352(5) 0.6625(4) 0.2364(2)
C22 C 0.8071(6) 0.7090(4) 0.0267(2)
C23 C 0.4870(6) 0.8199(4) 0.1926(2)
C24 C 0.1367(5) 0.1139(4) 0.1257(2)
C25 C 0.9734(7) 0.7875(5) 0.1012(2)
C26 C 0.6684(8) 0.0755(4) -0.0309(2)
C27 C 0.8426(7) 0.8115(4) 0.0606(3)
C28 C 0.0183(8) 0.1248(6) 0.0830(3)
H1 H 0.59483 0.55855 0.10045
H2 H 0.48034 0.19042 0.07398
H3 H 0.28614 0.57763 0.10802
H4 H 0.29201 0.50598 0.15794
H5 H 0.73111 0.37147 0.15385
H6 H 0.57280 0.50838 0.20403
H7 H 0.44439 0.56467 0.23033
H8 H 0.60118 0.04715 0.12864
H9 H 0.93240 0.11967 0.23941
H10 H 0.81312 0.46913 0.01790
H11 H 0.66774 0.53533 -0.00483
H12 H 0.99336 0.56856 0.07469
H13 H 0.88896 0.51498 0.11141
H14 H 0.77696 -0.01083 0.19366
H15 H 0.86293 0.69285 0.14881
H16 H 1.03430 0.66184 0.15242
H17 H 0.29850 0.71880 0.18901
H18 H 0.33101 0.76013 0.13552
H19 H 0.64111 0.83111 0.25602
H20 H 0.49175 0.77085 0.26646
H21 H 0.67277 0.63192 0.26938
H22 H 0.71958 0.67113 0.21739
H23 H 0.72040 0.72528 0.00218
H24 H 0.89163 0.69249 0.00855
H25 H 0.56175 0.83671 0.17034
H26 H 0.43360 0.89005 0.19782
H27 H 0.10231 0.14664 0.15556
H28 H 0.15797 0.03375 0.13226
H29 H 1.06510 0.77932 0.08582
H30 H 0.98619 0.85119 0.12456
H31 H 0.60179 0.09566 -0.06060
H32 H 0.65663 -0.00396 -0.02360
H33 H 0.77030 0.08994 -0.03652
H34 H 0.75462 0.83162 0.07636
H35 H 0.86733 0.87602 0.04039
H36 H -0.00631 0.20392 0.07756
H37 H -0.06925 0.08390 0.09023
H38 H 0.05283 0.09356 0.05333
#END
