
#######################################################################
#
#                 Cambridge Crystallographic Data Centre
#                                CCDC
#
#######################################################################
#
# If this CIF has been generated from an entry in the Cambridge
# Structural Database, then it will include bibliographic, chemical,
# crystal, experimental, refinement or atomic coordinate data resulting
# from the CCDC's data processing and validation procedures.
#
#######################################################################

data_CSD_CIF_XAYSAR
_audit_creation_date 2005-06-09
_audit_creation_method CSD-ConQuest-V1
_database_code_CSD XAYSAR
_database_code_depnum_ccdc_archive 'CCDC 142688'
_chemical_formula_sum 'C13 H15 N1 O8'
_chemical_formula_moiety
;
C13 H15 N1 O8
;
_journal_coden_Cambridge 156
_journal_volume 340
_journal_year 2005
_journal_page_first 587
_journal_name_full 'Carbohydr.Res. '
loop_
_publ_author_name
"O.Schulze"
"J.Voss"
"G.Adiwidjaja"
_chemical_name_systematic
;
Methyl 2-O-p-nitrobenzoyl-\a-D-xylo-furanoside
;
_chemical_melting_point 385
_cell_volume    697.195
_exptl_crystal_colour 'yellow'
_exptl_crystal_density_diffrn 1.492
_diffrn_ambient_temperature 293
#These two values have been output from a single CSD field.
_refine_ls_R_factor_gt 0.0341
_refine_ls_wR_factor_gt 0.0341
_symmetry_cell_setting monoclinic
_symmetry_space_group_name_H-M 'P 21'
_symmetry_Int_Tables_number 4
loop_
_symmetry_equiv_pos_site_id
_symmetry_equiv_pos_as_xyz
1 x,y,z
2 -x,1/2+y,-z
_cell_length_a 9.749(1)
_cell_length_b 7.310(1)
_cell_length_c 10.655(1)
_cell_angle_alpha 90
_cell_angle_beta 113.34(1)
_cell_angle_gamma 90
_cell_formula_units_Z 2
loop_
_atom_type_symbol
_atom_type_radius_bond
C 0.68
H 0.23
N 0.68
O 0.68
loop_
_atom_site_label
_atom_site_type_symbol
_atom_site_fract_x
_atom_site_fract_y
_atom_site_fract_z
O1 O -0.34030(12) -0.54076(14) -0.57524(10)
O2 O -0.29700(11) -0.21705(15) -0.43796(9)
O3 O -0.56452(15) -0.02958(18) -0.65485(13)
O4 O -0.39993(12) -0.38389(15) -0.78146(10)
O5 O -0.06202(16) -0.1507(4) -0.40556(16)
O6 O -0.55755(16) -0.1742(2) -1.02483(11)
O7 O -0.1240(3) -0.0990(5) 0.24503(19)
O8 O 0.1038(3) -0.1642(7) 0.28618(17)
N1 N -0.0249(2) -0.1389(4) 0.20939(16)
C1 C -0.30342(15) -0.3945(2) -0.63995(13)
C2 C -0.33694(16) -0.21730(19) -0.58295(13)
C3 C -0.50596(16) -0.20554(19) -0.65640(14)
C4 C -0.52613(16) -0.26417(18) -0.80112(14)
C5 C -0.52624(19) -0.1053(2) -0.89222(15)
C6 C -0.2898(2) -0.7136(2) -0.60334(17)
H1 H -0.31920 -0.80860 -0.55690
H2 H -0.18290 -0.71210 -0.57200
H3 H -0.33340 -0.73610 -0.70000
C7 C -0.15338(17) -0.1790(3) -0.36009(16)
C8 C -0.12428(15) -0.1733(2) -0.21176(14)
C9 C -0.23851(15) -0.1829(2) -0.16542(14)
C10 C -0.20707(17) -0.1716(3) -0.02691(15)
C11 C -0.05867(19) -0.1529(2) 0.06165(16)
C12 C 0.05630(19) -0.1449(3) 0.01976(19)
C13 C 0.02380(17) -0.1541(3) -0.11881(19)
H4 H -0.199(2) -0.407(3) -0.6416(19)
H5 H -0.289(2) -0.118(3) -0.6100(19)
H6 H -0.593(2) -0.031(4) -0.596(2)
H7 H -0.620(2) -0.340(3) -0.851(2)
H8 H -0.344(2) -0.185(3) -0.2324(19)
H9 H -0.285(2) -0.177(3) 0.009(2)
H10 H 0.155(3) -0.125(4) 0.079(3)
H11 H 0.097(3) -0.145(4) -0.153(3)
H12 H -0.551(2) -0.295(3) -0.6185(19)
H13 H -0.4365(19) -0.049(3) -0.8639(17)
H14 H -0.604(2) -0.021(3) -0.9009(19)
H15 H -0.577(3) -0.078(4) -1.081(3)
#END
