
#######################################################################
#
#                 Cambridge Crystallographic Data Centre
#                                CCDC
#
#######################################################################
#
# If this CIF has been generated from an entry in the Cambridge
# Structural Database, then it will include bibliographic, chemical,
# crystal, experimental, refinement or atomic coordinate data resulting
# from the CCDC's data processing and validation procedures.
#
#######################################################################

data_CSD_CIF_XAYYAA
_audit_creation_date 2017-07-19
_audit_creation_method CSD-ConQuest-V1
_database_code_CSD XAYYAA
_database_code_depnum_ccdc_archive 'CCDC 1563198'
_chemical_formula_sum 'C13 H15 N1 O4'
_chemical_formula_moiety
;
C13 H15 N1 O4
;
_journal_coden_Cambridge 1499
_journal_volume 7
_journal_year 2017
_journal_page_first 2981
_journal_name_full 'ACS Catalysis '
loop_
_publ_author_name
"R.S.Tukhvatshin"
"A.S.Kucherenko"
"Y.V.Nelyubina"
"S.G.Zlotin"
_chemical_name_systematic
;
3-(2-nitro-1-phenylethyl)pentane-2,4-dione
;
_cell_volume   1261.630
_exptl_crystal_colour 'colorless'
_exptl_crystal_density_diffrn 1.312
_exptl_special_details
;
Absolute configuration

;
_exptl_crystal_description 'needle'
_diffrn_ambient_temperature 120
#These two values have been output from a single CSD field.
_refine_ls_R_factor_gt 0.0234
_refine_ls_wR_factor_gt 0.0234
_symmetry_cell_setting orthorhombic
_symmetry_space_group_name_H-M 'P 21 21 21'
_symmetry_Int_Tables_number 19
loop_
_symmetry_equiv_pos_site_id
_symmetry_equiv_pos_as_xyz
1 x,y,z
2 1/2-x,-y,1/2+z
3 -x,1/2+y,1/2-z
4 1/2+x,1/2-y,-z
_cell_length_a 8.8677(2)
_cell_length_b 10.0871(2)
_cell_length_c 14.1044(2)
_cell_angle_alpha 90
_cell_angle_beta 90
_cell_angle_gamma 90
_cell_formula_units_Z 4
loop_
_atom_type_symbol
_atom_type_radius_bond
C 0.68
H 0.23
N 0.68
O 0.68
loop_
_atom_site_label
_atom_site_type_symbol
_atom_site_fract_x
_atom_site_fract_y
_atom_site_fract_z
N1 N 0.82644(16) 0.60494(14) 0.54312(10)
O1 O 0.86144(15) 0.48805(13) 0.54291(9)
O2 O 0.90762(15) 0.69448(14) 0.51385(10)
O3 O 0.45090(15) 0.43940(11) 0.81763(8)
O4 O 0.37945(13) 0.47171(11) 0.58794(8)
C1 C 0.64019(17) 0.56938(15) 0.67354(11)
H1 H 0.63540 0.47230 0.65960
C2 C 0.76210(17) 0.59221(15) 0.74765(11)
C3 C 0.85284(18) 0.48764(17) 0.77716(11)
H2 H 0.83990 0.40250 0.74960
C4 C 0.96198(19) 0.50609(19) 0.84632(12)
H3 H 1.02250 0.43350 0.86620
C5 C 0.98296(19) 0.6298(2) 0.88653(12)
H4 H 1.05690 0.64230 0.93440
C6 C 0.8954(2) 0.73514(18) 0.85643(12)
H5 H 0.91020 0.82050 0.88320
C7 C 0.7860(2) 0.71680(16) 0.78726(12)
H6 H 0.72700 0.79000 0.76680
C8 C 0.67504(17) 0.64252(16) 0.58100(11)
H7 H 0.59680 0.62100 0.53340
H8 H 0.67220 0.73930 0.59240
C9 C 0.48272(17) 0.61497(15) 0.70685(11)
H9 H 0.47970 0.71400 0.70950
C10 C 0.35780(17) 0.56468(15) 0.64032(11)
C11 C 0.20819(19) 0.63253(18) 0.64665(12)
H10 H 0.14030 0.59640 0.59830
H11 H 0.22150 0.72790 0.63610
H12 H 0.16480 0.61780 0.70970
C12 C 0.44685(17) 0.55800(15) 0.80562(10)
C13 C 0.4067(2) 0.65342(18) 0.88233(11)
H13 H 0.37590 0.60440 0.93910
H14 H 0.32350 0.70990 0.86110
H15 H 0.49450 0.70870 0.89730
#END
