
#######################################################################
#
#                 Cambridge Crystallographic Data Centre
#                                CCDC
#
#######################################################################
#
# If this CIF has been generated from an entry in the Cambridge
# Structural Database, then it will include bibliographic, chemical,
# crystal, experimental, refinement or atomic coordinate data resulting
# from the CCDC's data processing and validation procedures.
#
#######################################################################

data_CSD_CIF_XAYZAB
_audit_creation_date 2017-07-19
_audit_creation_method CSD-ConQuest-V1
_database_code_CSD XAYZAB
_database_code_depnum_ccdc_archive 'CCDC 1456546'
_chemical_formula_sum 'C30 H27 N3 O1'
_chemical_formula_moiety
;
C30 H27 N3 O1
;
_journal_coden_Cambridge 2066
_journal_volume 2
_journal_year 2017
_journal_page_first 1380
_journal_name_full 'ACS Omega '
loop_
_publ_author_name
"A.A.Melekhova"
"A.S.Smirnov"
"A.S.Novikov"
"T.L.Panikorovskii"
"N.A.Bokach"
"V.Yu.Kukushkin"
_chemical_name_systematic
;
2-(2-benzyl-3,3-diphenyl-2,3-dihydro-1,2,4-oxadiazol-5-yl)-1,2,3,4-tetrahydroi
soquinoline
;
_cell_volume   2311.806
_exptl_crystal_colour 'colorless'
_exptl_crystal_density_diffrn 1.28
_exptl_crystal_description 'prism'
_diffrn_ambient_temperature 100
#These two values have been output from a single CSD field.
_refine_ls_R_factor_gt 0.0371
_refine_ls_wR_factor_gt 0.0371
_symmetry_cell_setting monoclinic
_symmetry_space_group_name_H-M 'P 21/c'
_symmetry_Int_Tables_number 14
loop_
_symmetry_equiv_pos_site_id
_symmetry_equiv_pos_as_xyz
1 x,y,z
2 -x,1/2+y,1/2-z
3 -x,-y,-z
4 x,-1/2-y,-1/2+z
_cell_length_a 6.43120(13)
_cell_length_b 22.8417(5)
_cell_length_c 15.8232(3)
_cell_angle_alpha 90
_cell_angle_beta 95.972(2)
_cell_angle_gamma 90
_cell_formula_units_Z 4
loop_
_atom_type_symbol
_atom_type_radius_bond
C 0.68
H 0.23
N 0.68
O 0.68
loop_
_atom_site_label
_atom_site_type_symbol
_atom_site_fract_x
_atom_site_fract_y
_atom_site_fract_z
O1 O 0.91002(11) 0.66663(3) 0.13409(4)
N1 N 0.61679(14) 0.66903(4) 0.20498(6)
N2 N 0.94742(14) 0.66466(4) 0.04412(5)
N3 N 0.60631(14) 0.69811(4) 0.06161(6)
C1 C 0.69830(16) 0.67853(4) 0.13180(7)
C2 C 0.86181(16) 0.76907(5) 0.02086(6)
C3 C 0.59603(16) 0.59542(5) 0.31598(6)
C4 C 0.77954(16) 0.70623(5) 0.00864(6)
C5 C 0.39750(17) 0.61510(5) 0.33062(6)
C6 C 1.04881(17) 0.56164(5) 0.06993(7)
C7 C 0.71615(17) 0.69425(4) -0.08528(7)
C8 C 0.39497(16) 0.68345(5) 0.20843(7)
H1 H 0.30860 0.65800 0.17030
H2 H 0.36910 0.72360 0.19020
C9 C 1.07178(17) 0.78220(5) 0.04235(7)
H3 H 1.17070 0.75240 0.04770
C10 C 0.77796(18) 0.87238(5) 0.02343(7)
H4 H 0.67990 0.90240 0.01630
C11 C 0.90285(17) 0.60299(5) 0.01849(7)
H5 H 0.91910 0.59830 -0.04140
H6 H 0.75940 0.59350 0.02690
C12 C 0.73443(16) 0.63835(5) 0.27619(6)
H7 H 0.78960 0.66660 0.31850
H8 H 0.85140 0.61770 0.25600
C13 C 0.71590(16) 0.81455(5) 0.01065(6)
H9 H 0.57580 0.80600 -0.00490
C14 C 0.26677(17) 0.57865(5) 0.37148(7)
H10 H 0.13450 0.59160 0.38170
C15 C 0.66140(17) 0.53924(5) 0.34026(7)
H11 H 0.79270 0.52600 0.32930
C16 C 0.33804(17) 0.67575(5) 0.29904(7)
H12 H 0.41110 0.70470 0.33590
H13 H 0.18900 0.68160 0.30030
C17 C 0.51493(18) 0.67549(5) -0.11354(7)
H14 H 0.41720 0.66990 -0.07490
C18 C 0.33352(19) 0.52282(5) 0.39715(7)
H15 H 0.24630 0.49880 0.42520
C19 C 0.98098(19) 0.52974(5) 0.13676(7)
H16 H 0.84500 0.53450 0.15070
C20 C 0.98743(19) 0.88531(5) 0.04690(7)
H17 H 1.02960 0.92390 0.05650
C21 C 0.86117(19) 0.70285(5) -0.14392(7)
H18 H 0.99520 0.71590 -0.12540
C22 C 0.52927(19) 0.50289(5) 0.38115(7)
H19 H 0.57240 0.46540 0.39770
C23 C 1.13330(18) 0.84032(5) 0.05587(8)
H20 H 1.27350 0.84900 0.07110
C24 C 1.25256(19) 0.55427(5) 0.05045(8)
H21 H 1.30030 0.57560 0.00620
C25 C 1.1150(2) 0.49080(5) 0.18298(8)
H22 H 1.06810 0.46960 0.22750
C26 C 0.4602(2) 0.66508(5) -0.19988(8)
H23 H 0.32540 0.65280 -0.21880
C27 C 1.3172(2) 0.48356(5) 0.16291(8)
H24 H 1.40670 0.45750 0.19380
C28 C 1.3860(2) 0.51523(6) 0.09669(9)
H25 H 1.52220 0.51040 0.08300
C29 C 0.8061(2) 0.69198(6) -0.22993(8)
H26 H 0.90350 0.69750 -0.26870
C30 C 0.6057(2) 0.67297(6) -0.25758(7)
H27 H 0.56890 0.66550 -0.31500
#END
