
#######################################################################
#
#                 Cambridge Crystallographic Data Centre
#                                CCDC
#
#######################################################################
#
# If this CIF has been generated from an entry in the Cambridge
# Structural Database, then it will include bibliographic, chemical,
# crystal, experimental, refinement or atomic coordinate data resulting
# from the CCDC's data processing and validation procedures.
#
#######################################################################

data_CSD_CIF_XAZFOU
_audit_creation_date 2006-03-08
_audit_creation_method CSD-ConQuest-V1
_database_code_CSD XAZFOU
_database_code_depnum_ccdc_archive 'CCDC 292455'
_chemical_formula_sum 'C18 H22 N2 O6'
_chemical_formula_moiety
;
C18 H22 N2 O6
;
_journal_coden_Cambridge 1336
_journal_volume 7
_journal_year 2005
_journal_page_first 4577
_journal_name_full 'Org.Lett. '
loop_
_publ_author_name
"S.Muthusamy"
"B.Gnanaprakasam"
"E.Suresh"
_chemical_name_systematic
;
Ethyl 
7a-((4-nitrophenyl)amino)-3a-methyl-3-oxooctahydro-1-benzofuran-2-carboxylate
;
_chemical_melting_point 461.15
_cell_volume    892.365
_exptl_crystal_colour 'pale yellow'
_exptl_crystal_density_diffrn 1.349
_exptl_special_details
;
Melting point range 461.15-463.15K

;
_exptl_crystal_description 'Plates'
_diffrn_ambient_temperature 273
#These two values have been output from a single CSD field.
_refine_ls_R_factor_gt 0.0778
_refine_ls_wR_factor_gt 0.0778
_symmetry_cell_setting triclinic
_symmetry_space_group_name_H-M 'P -1'
_symmetry_Int_Tables_number 2
loop_
_symmetry_equiv_pos_site_id
_symmetry_equiv_pos_as_xyz
1 x,y,z
2 -x,-y,-z
_cell_length_a 6.6119(9)
_cell_length_b 10.4176(14)
_cell_length_c 13.0721(17)
_cell_angle_alpha 91.049(3)
_cell_angle_beta 95.024(3)
_cell_angle_gamma 95.584(3)
_cell_formula_units_Z 2
loop_
_atom_type_symbol
_atom_type_radius_bond
C 0.68
H 0.23
N 0.68
O 0.68
loop_
_atom_site_label
_atom_site_type_symbol
_atom_site_fract_x
_atom_site_fract_y
_atom_site_fract_z
O1 O 0.1214(4) 0.1612(3) 0.2837(2)
N1 N 0.4708(6) 0.1350(4) 0.3241(3)
O2 O -0.0414(5) 0.3453(3) 0.0744(3)
O3 O -0.2203(5) 0.2147(3) 0.1739(3)
O4 O 0.2971(5) 0.1583(4) 0.0393(3)
C1 C 0.5261(6) 0.2188(4) 0.4066(4)
C2 C 0.7295(7) 0.2689(4) 0.4225(4)
H1 H 0.82150 0.24660 0.37690
C3 C -0.0615(7) 0.2601(4) 0.1465(4)
C4 C 0.1456(6) 0.2275(4) 0.1917(3)
H2 H 0.23660 0.30700 0.20600
C5 C 0.6590(7) 0.3795(4) 0.5738(4)
C6 C 0.2718(6) 0.0688(4) 0.2937(3)
C7 C 0.2466(6) 0.1348(5) 0.1236(4)
C8 C 0.4573(7) 0.3332(5) 0.5577(4)
H3 H 0.36570 0.35590 0.60340
C9 C 0.7962(7) 0.3506(4) 0.5044(4)
H4 H 0.93130 0.38610 0.51330
N2 N 0.7332(8) 0.4629(4) 0.6627(4)
O5 O 0.9079(6) 0.5122(4) 0.6710(3)
C10 C 0.3895(7) 0.2533(4) 0.4741(4)
H5 H 0.25230 0.22260 0.46300
C11 C 0.2669(6) 0.0136(4) 0.1834(4)
C12 C 0.0021(7) -0.1050(5) 0.3385(5)
H6 H -0.10500 -0.04750 0.33560
H7 H -0.02840 -0.17020 0.38850
O6 O 0.6142(7) 0.4784(5) 0.7266(4)
C13 C 0.4458(7) -0.0597(5) 0.1586(4)
H8 H 0.42790 -0.08790 0.08770
H9 H 0.45160 -0.13340 0.20140
H10 H 0.57050 -0.00410 0.17090
C14 C 0.0606(7) -0.0697(5) 0.1551(4)
H11 H -0.04730 -0.01300 0.14710
H12 H 0.06640 -0.11330 0.08940
C15 C 0.0063(8) -0.1698(5) 0.2335(5)
H13 H 0.10600 -0.23230 0.23740
H14 H -0.12640 -0.21520 0.21250
C16 C 0.2050(7) -0.0291(5) 0.3723(4)
H15 H 0.30850 -0.08850 0.38360
H16 H 0.19440 0.01570 0.43700
C17 C -0.2276(8) 0.3975(5) 0.0321(4)
H17 H -0.34030 0.33010 0.02650
H18 H -0.20930 0.42960 -0.03600
C18 C -0.2745(10) 0.5054(7) 0.1015(5)
H19 H -0.30230 0.47200 0.16730
H20 H -0.39160 0.54350 0.07170
H21 H -0.15950 0.56970 0.10990
H22 H 0.564(7) 0.141(4) 0.280(4)
#END
