
#######################################################################
#
#                 Cambridge Crystallographic Data Centre
#                                CCDC
#
#######################################################################
#
# If this CIF has been generated from an entry in the Cambridge
# Structural Database, then it will include bibliographic, chemical,
# crystal, experimental, refinement or atomic coordinate data resulting
# from the CCDC's data processing and validation procedures.
#
#######################################################################

data_CSD_CIF_XAZJOZ
_audit_creation_date 2012-08-21
_audit_creation_method CSD-ConQuest-V1
_database_code_CSD XAZJOZ
_database_code_depnum_ccdc_archive 'CCDC 889734'
_chemical_formula_sum 'C20 H17 N3 O4'
_chemical_formula_moiety
;
C20 H17 N3 O4
;
_journal_coeditor_code "IUCr HB6835"
_journal_coden_Cambridge 1370
_journal_volume 68
_journal_year 2012
_journal_page_first o2044
_journal_name_full 'Acta Crystallogr.,Sect.E:Struct.Rep.Online '
loop_
_publ_author_name
"F.Chaudhry"
"M.N.Tahir"
"M.A.Khan"
"A.Q.Ather"
"N.Asif"
_chemical_name_systematic
;
(4Z)-4-((2E)-1-Hydroxy-3-(3-nitrophenyl)prop-2-en-1-ylidene)-3-methyl-1-(4-met
hylphenyl)-1H-pyrazol-5(4H)-one
;
_cell_volume   3467.914
_exptl_crystal_colour 'orange'
_exptl_crystal_density_diffrn 1.39
_exptl_crystal_description 'rod'
_exptl_crystal_preparation 'ethanol'
_diffrn_ambient_temperature 296
#These two values have been output from a single CSD field.
_refine_ls_R_factor_gt 0.0522
_refine_ls_wR_factor_gt 0.0522
_symmetry_cell_setting monoclinic
_symmetry_space_group_name_H-M 'C 2/c'
_symmetry_Int_Tables_number 15
loop_
_symmetry_equiv_pos_site_id
_symmetry_equiv_pos_as_xyz
1 x,y,z
2 -x,y,1/2-z
3 1/2+x,1/2+y,z
4 1/2-x,1/2+y,1/2-z
5 -x,-y,-z
6 x,-y,-1/2+z
7 -1/2-x,-1/2-y,-z
8 -1/2+x,-1/2-y,-1/2+z
_cell_length_a 19.8712(16)
_cell_length_b 12.1917(10)
_cell_length_c 16.733(2)
_cell_angle_alpha 90
_cell_angle_beta 121.188(4)
_cell_angle_gamma 90
_cell_formula_units_Z 8
loop_
_atom_type_symbol
_atom_type_radius_bond
C 0.68
H 0.23
N 0.68
O 0.68
loop_
_atom_site_label
_atom_site_type_symbol
_atom_site_fract_x
_atom_site_fract_y
_atom_site_fract_z
O1 O -0.08035(9) 0.17748(13) 0.26833(13)
O2 O 0.04784(9) 0.17674(14) 0.42872(13)
O3 O 0.36766(10) 0.22769(14) 0.89614(12)
O4 O 0.45928(10) 0.10845(15) 0.95844(14)
N1 N -0.12499(10) -0.00138(14) 0.21735(13)
N2 N -0.09808(10) -0.10774(14) 0.24985(14)
N3 N 0.39439(11) 0.13844(17) 0.89657(14)
C1 C -0.19601(12) 0.01116(18) 0.12989(15)
C2 C -0.23410(13) -0.0800(2) 0.07708(16)
C3 C -0.30350(13) -0.0687(2) -0.00721(17)
C4 C -0.33702(12) 0.0320(2) -0.04231(17)
C5 C -0.29776(13) 0.1220(2) 0.01114(18)
C6 C -0.22799(13) 0.11356(19) 0.09640(17)
C7 C -0.41344(14) 0.0434(3) -0.13425(18)
C8 C -0.03201(13) -0.09808(19) 0.32890(17)
C9 C 0.01174(15) -0.19835(19) 0.3795(2)
C10 C -0.01225(12) 0.01440(18) 0.35383(16)
C11 C -0.07411(12) 0.07485(18) 0.27784(16)
C12 C 0.04790(12) 0.06930(19) 0.42923(16)
C13 C 0.11229(12) 0.01857(19) 0.51147(15)
C14 C 0.16670(12) 0.07441(19) 0.58368(16)
C15 C 0.23504(12) 0.03180(18) 0.66822(15)
C16 C 0.28189(12) 0.10222(17) 0.74142(16)
C17 C 0.34695(11) 0.06209(17) 0.82033(15)
C18 C 0.36860(12) -0.04585(19) 0.83085(17)
C19 C 0.32218(13) -0.11635(19) 0.75823(18)
C20 C 0.25664(13) -0.07833(19) 0.67876(17)
H1 H -0.21290 -0.14941 0.09841
H2 H 0.00843 0.19892 0.38131
H3 H -0.32857 -0.13128 -0.04158
H4 H -0.31886 0.19129 -0.01079
H5 H -0.20295 0.17621 0.13074
H6 H -0.41585 -0.01104 -0.17713
H7 H -0.41647 0.11515 -0.15951
H8 H -0.45667 0.03326 -0.12467
H9 H 0.01385 -0.20300 0.43799
H10 H 0.06423 -0.19504 0.39072
H11 H -0.01457 -0.26184 0.34237
H12 H 0.11552 -0.05758 0.51357
H13 H 0.16074 0.15024 0.58025
H14 H 0.26930 0.17631 0.73710
H15 H 0.41302 -0.07088 0.88501
H16 H 0.33541 -0.19024 0.76316
H17 H 0.22594 -0.12729 0.63083
#END
