
#######################################################################
#
#                 Cambridge Crystallographic Data Centre
#                                CCDC
#
#######################################################################
#
# If this CIF has been generated from an entry in the Cambridge
# Structural Database, then it will include bibliographic, chemical,
# crystal, experimental, refinement or atomic coordinate data resulting
# from the CCDC's data processing and validation procedures.
#
#######################################################################

data_CSD_CIF_XAZKOY
_audit_creation_date 2001-02-22
_audit_creation_method CSD-ConQuest-V1
_database_code_CSD XAZKOY
_database_code_depnum_ccdc_archive 'CCDC 149829'
_chemical_formula_sum 'C15 H19 N1 O4'
_chemical_formula_moiety
;
C15 H19 N1 O4
;
_journal_coden_Cambridge 24
_journal_volume 41
_journal_year 2000
_journal_page_first 9239
_journal_name_full 'Tetrahedron Lett. '
loop_
_publ_author_name
"P.Merino"
"E.M.del Alamo"
"M.Bona"
"S.Franco"
"F.L.Merchan"
"T.Tejero"
"O.Vieceli"
_chemical_name_systematic
;
(3S)-2-Benzyl-3-((4S)-2,2-dimethyl-1,3-dioxolan-4-yl)-isoxazolidin-5-one
;
_chemical_melting_point 347
_cell_volume    730.101
_exptl_crystal_colour 'colorless'
_exptl_crystal_density_diffrn 1.261
_exptl_crystal_description 'block'
_diffrn_ambient_temperature ?
_diffrn_special_details
;
The study was carried out at room temperature,in the range 283-303K

;
#These two values have been output from a single CSD field.
_refine_ls_R_factor_gt 0.0657
_refine_ls_wR_factor_gt 0.0657
loop_
_citation_database_id_CSD
_citation_special_details
NIKZAI "is a stereoisomer of this entry"
_symmetry_cell_setting monoclinic
_symmetry_space_group_name_H-M 'P 21'
_symmetry_Int_Tables_number 4
loop_
_symmetry_equiv_pos_site_id
_symmetry_equiv_pos_as_xyz
1 x,y,z
2 -x,1/2+y,-z
_cell_length_a 10.330(3)
_cell_length_b 6.011(1)
_cell_length_c 11.945(3)
_cell_angle_alpha 90
_cell_angle_beta 100.15(1)
_cell_angle_gamma 90
_cell_formula_units_Z 2
loop_
_atom_type_symbol
_atom_type_radius_bond
C 0.68
H 0.23
N 0.68
O 0.68
loop_
_atom_site_label
_atom_site_type_symbol
_atom_site_fract_x
_atom_site_fract_y
_atom_site_fract_z
N1 N 0.8877(3) 0.1236(9) 0.7280(3)
O1 O 0.9625(3) 0.3222(7) 0.7030(3)
O2 O 1.1433(5) 0.3992(10) 0.6352(4)
O3 O 1.1254(3) 0.1188(7) 0.9028(3)
O4 O 1.2749(3) -0.1613(7) 0.9212(4)
C1 C 1.0727(6) 0.2539(13) 0.6638(5)
C2 C 1.0845(5) 0.0121(13) 0.6678(5)
H1 H 1.17300 -0.03310 0.70120
H2 H 1.06200 -0.05170 0.59230
C3 C 0.9868(4) -0.0577(11) 0.7418(4)
H3 H 0.94500 -0.19840 0.71420
C4 C 1.0497(5) -0.0792(10) 0.8677(5)
H4 H 0.98130 -0.09890 0.91410
C5 C 1.1507(5) -0.2688(12) 0.8910(6)
H5 H 1.13290 -0.36220 0.95280
H6 H 1.14860 -0.36010 0.82380
C6 C 1.2514(5) 0.0477(11) 0.9688(5)
C7 C 1.3534(5) 0.2129(14) 0.9479(7)
H7 H 1.33670 0.35350 0.98070
H8 H 1.34970 0.23030 0.86760
H9 H 1.43900 0.16050 0.98220
C8 C 1.2379(6) 0.0236(15) 1.0919(5)
H10 H 1.22230 0.16700 1.12230
H11 H 1.31730 -0.03830 1.13430
H12 H 1.16540 -0.07330 1.09750
C9 C 0.7860(5) 0.0979(11) 0.6239(5)
H13 H 0.82750 0.04980 0.56120
H14 H 0.74440 0.24060 0.60370
C10 C 0.5945(5) -0.0236(12) 0.7160(5)
H15 H 0.60460 0.10560 0.75950
C11 C 0.6820(4) -0.0707(11) 0.6421(4)
C12 C 0.4925(5) -0.1697(15) 0.7244(6)
H16 H 0.43400 -0.13670 0.77300
C13 C 0.4773(5) -0.3613(14) 0.6620(6)
H17 H 0.40890 -0.45870 0.66810
C14 C 0.5635(5) -0.4089(12) 0.5904(6)
H18 H 0.55260 -0.53870 0.54740
C15 C 0.6659(5) -0.2681(12) 0.5810(5)
H19 H 0.72470 -0.30530 0.53340
#END
