
#######################################################################
#
#                 Cambridge Crystallographic Data Centre
#                                CCDC
#
#######################################################################
#
# If this CIF has been generated from an entry in the Cambridge
# Structural Database, then it will include bibliographic, chemical,
# crystal, experimental, refinement or atomic coordinate data resulting
# from the CCDC's data processing and validation procedures.
#
#######################################################################

data_CSD_CIF_XAZMAO
_audit_creation_date 2012-07-19
_audit_creation_method CSD-ConQuest-V1
_database_code_CSD XAZMAO
_database_code_depnum_ccdc_archive 'CCDC 889746'
_chemical_formula_sum 'C17 H19 N1 O3'
_chemical_formula_moiety
;
C17 H19 N1 O3
;
_journal_coeditor_code "IUCr EZ2294"
_journal_coden_Cambridge 1370
_journal_volume 68
_journal_year 2012
_journal_page_first o2061
_journal_name_full 'Acta Crystallogr.,Sect.E:Struct.Rep.Online '
loop_
_publ_author_name
"S.Guner"
"K.Seftalicioglu"
_chemical_name_systematic
;
[(3R*,4R*,5R*)-2,3-Diphenylisoxazolidine-4,5-diyl]dimethanol
;
_chemical_name_common
;
(2,3-Diphenyl-1,2-oxazolidine-4,5-diyl)dimethanol
;
_cell_volume   2919.047
_exptl_crystal_colour 'colorless'
_exptl_crystal_density_diffrn 1.299
_exptl_crystal_description 'plate'
_diffrn_ambient_temperature 296
#These two values have been output from a single CSD field.
_refine_ls_R_factor_gt 0.0558
_refine_ls_wR_factor_gt 0.0558
_symmetry_cell_setting orthorhombic
_symmetry_space_group_name_H-M 'P b c a'
_symmetry_Int_Tables_number 61
loop_
_symmetry_equiv_pos_site_id
_symmetry_equiv_pos_as_xyz
1 x,y,z
2 1/2-x,-y,1/2+z
3 1/2+x,1/2-y,-z
4 -x,1/2+y,1/2-z
5 -x,-y,-z
6 -1/2+x,y,-1/2-z
7 -1/2-x,-1/2+y,z
8 x,-1/2-y,-1/2+z
_cell_length_a 8.1254(2)
_cell_length_b 11.0602(2)
_cell_length_c 32.4813(10)
_cell_angle_alpha 90
_cell_angle_beta 90
_cell_angle_gamma 90
_cell_formula_units_Z 8
loop_
_atom_type_symbol
_atom_type_radius_bond
C 0.68
H 0.23
N 0.68
O 0.68
loop_
_atom_site_label
_atom_site_type_symbol
_atom_site_fract_x
_atom_site_fract_y
_atom_site_fract_z
C1 C 0.4711(2) 0.6940(2) 0.11533(6)
C2 C 0.3582(3) 0.7318(2) 0.08617(7)
H1 H 0.35250 0.69290 0.06080
C3 C 0.2538(3) 0.8275(2) 0.09473(8)
H2 H 0.17880 0.85260 0.07490
C4 C 0.2587(3) 0.8860(2) 0.13183(8)
H3 H 0.18720 0.94960 0.13740
C5 C 0.3716(3) 0.8488(3) 0.16085(8)
H4 H 0.37740 0.88850 0.18600
C6 C 0.4761(3) 0.7535(2) 0.15292(7)
H5 H 0.55070 0.72880 0.17300
C7 C 0.7547(2) 0.6067(2) 0.11543(6)
H6 H 0.78890 0.68700 0.10600
C8 C 0.8016(3) 0.5906(2) 0.16002(7)
C9 C 0.7355(3) 0.4976(3) 0.18331(7)
H7 H 0.65900 0.44560 0.17150
C10 C 0.7812(4) 0.4808(4) 0.22366(9)
H8 H 0.73540 0.41820 0.23900
C11 C 0.8926(6) 0.5553(6) 0.24095(12)
H9 H 0.92160 0.54390 0.26840
C12 C 0.9637(5) 0.6469(5) 0.21928(15)
H10 H 1.04130 0.69690 0.23160
C13 C 0.9181(4) 0.6648(3) 0.1778(1)
H11 H 0.96640 0.72640 0.16250
C14 C 0.8311(2) 0.50842(19) 0.08718(6)
H12 H 0.87350 0.44370 0.10490
C15 C 0.6801(2) 0.4591(2) 0.06423(6)
H13 H 0.63700 0.38970 0.07960
C16 C 0.9726(2) 0.5551(2) 0.06155(7)
H14 H 1.05940 0.58360 0.07960
H15 H 1.01680 0.48960 0.04500
C17 C 0.6998(3) 0.4225(2) 0.01966(6)
H16 H 0.59340 0.40040 0.00840
H17 H 0.74200 0.49030 0.00390
N1 N 0.5745(2) 0.59162(16) 0.10899(5)
O1 O 0.56191(16) 0.55449(14) 0.06604(4)
O2 O 0.9219(2) 0.65171(15) 0.03502(5)
O3 O 0.80978(19) 0.32278(16) 0.01616(5)
H18 H 1.003(4) 0.667(3) 0.0184(9)
H19 H 0.757(4) 0.260(3) 0.0243(9)
#END
