
#######################################################################
#
#                 Cambridge Crystallographic Data Centre
#                                CCDC
#
#######################################################################
#
# If this CIF has been generated from an entry in the Cambridge
# Structural Database, then it will include bibliographic, chemical,
# crystal, experimental, refinement or atomic coordinate data resulting
# from the CCDC's data processing and validation procedures.
#
#######################################################################

data_CSD_CIF_XAZMUI
_audit_creation_date 2012-07-19
_audit_creation_method CSD-ConQuest-V1
_database_code_CSD XAZMUI
_database_code_depnum_ccdc_archive 'CCDC 889750'
_chemical_formula_sum 'C10 H11 N1 O2'
_chemical_formula_moiety
;
C10 H11 N1 O2
;
_journal_coeditor_code "IUCr ZQ2167"
_journal_coden_Cambridge 1370
_journal_volume 68
_journal_year 2012
_journal_page_first o2065
_journal_name_full 'Acta Crystallogr.,Sect.E:Struct.Rep.Online '
loop_
_publ_author_name
"Zhao-Bo Li"
"Li-Li Shen"
"Jian-An Zheng"
_chemical_name_systematic
;
1-Methyl-4-[(1E)-2-nitroprop-1-en-1-yl]benzene
;
_cell_volume   1899.361
_exptl_crystal_colour 'yellow'
_exptl_crystal_density_diffrn 1.239
_exptl_crystal_description 'chunk'
_exptl_crystal_preparation 'ethanol/ethyl acetate'
_diffrn_ambient_temperature 296
#These two values have been output from a single CSD field.
_refine_ls_R_factor_gt 0.0445
_refine_ls_wR_factor_gt 0.0445
_symmetry_cell_setting orthorhombic
_symmetry_space_group_name_H-M 'P b c a'
_symmetry_Int_Tables_number 61
loop_
_symmetry_equiv_pos_site_id
_symmetry_equiv_pos_as_xyz
1 x,y,z
2 1/2-x,-y,1/2+z
3 1/2+x,1/2-y,-z
4 -x,1/2+y,1/2-z
5 -x,-y,-z
6 -1/2+x,y,-1/2-z
7 -1/2-x,-1/2+y,z
8 x,-1/2-y,-1/2+z
_cell_length_a 11.0610(5)
_cell_length_b 7.5840(4)
_cell_length_c 22.6420(11)
_cell_angle_alpha 90
_cell_angle_beta 90
_cell_angle_gamma 90
_cell_formula_units_Z 8
loop_
_atom_type_symbol
_atom_type_radius_bond
C 0.68
H 0.23
N 0.68
O 0.68
loop_
_atom_site_label
_atom_site_type_symbol
_atom_site_fract_x
_atom_site_fract_y
_atom_site_fract_z
C1 C 0.35993(13) 0.1487(2) 0.63005(7)
C2 C 0.46387(14) 0.2326(2) 0.65095(8)
H1 H 0.52480 0.26340 0.62460
C3 C 0.47750(16) 0.2703(2) 0.71015(8)
H2 H 0.54640 0.33000 0.72270
C4 C 0.39139(17) 0.2218(2) 0.75151(8)
C5 C 0.29031(16) 0.1324(2) 0.73072(8)
H3 H 0.23180 0.09570 0.75750
C6 C 0.27416(14) 0.0963(2) 0.67157(7)
H4 H 0.20530 0.03630 0.65920
C7 C 0.4073(2) 0.2610(3) 0.81617(9)
H5 H 0.40470 0.15290 0.83820
H6 H 0.34350 0.33740 0.82920
H7 H 0.48390 0.31770 0.82230
C8 C 0.34896(14) 0.1144(2) 0.56645(7)
H8 H 0.42110 0.09630 0.54620
C9 C 0.24878(15) 0.1058(2) 0.53415(7)
C10 C 0.12094(14) 0.1404(3) 0.55103(8)
H9 H 0.07910 0.03040 0.55570
H10 H 0.08240 0.20870 0.52070
H11 H 0.11890 0.20430 0.58760
N1 N 0.26510(15) 0.0587(2) 0.47133(7)
O1 O 0.36592(15) 0.0320(3) 0.45180(6)
O2 O 0.17592(15) 0.0466(3) 0.44070(7)
#END
