
#######################################################################
#
#                 Cambridge Crystallographic Data Centre
#                                CCDC
#
#######################################################################
#
# If this CIF has been generated from an entry in the Cambridge
# Structural Database, then it will include bibliographic, chemical,
# crystal, experimental, refinement or atomic coordinate data resulting
# from the CCDC's data processing and validation procedures.
#
#######################################################################

data_CSD_CIF_XAZQAR
_audit_creation_date 2006-03-08
_audit_creation_method CSD-ConQuest-V1
_database_code_CSD XAZQAR
_database_code_depnum_ccdc_archive 'CCDC 296588'
_chemical_formula_sum 'C9 H10 N2 O2'
_chemical_formula_moiety
;
C9 H10 N2 O2
;
_journal_coeditor_code "IUCr IS6161"
_journal_coden_Cambridge 1370
_journal_volume 62
_journal_year 2006
_journal_page_first o62
_journal_name_full 'Acta Crystallogr.,Sect.E:Struct.Rep.Online '
loop_
_publ_author_name
"Jian-Ming Gu"
"Xiu-Rong Hu"
"Wei-Ming Xu"
_chemical_name_systematic
;
7-Nitro-1,2,3,4-tetrahydroquinoline
;
_cell_volume   1672.359
_exptl_crystal_colour 'red'
_exptl_crystal_density_diffrn 1.415
_exptl_crystal_description 'block'
_exptl_crystal_preparation 'acetonitrile'
_diffrn_ambient_temperature 296.0
#These two values have been output from a single CSD field.
_refine_ls_R_factor_gt 0.0348
_refine_ls_wR_factor_gt 0.0348
_symmetry_cell_setting orthorhombic
_symmetry_space_group_name_H-M 'P b c a'
_symmetry_Int_Tables_number 61
loop_
_symmetry_equiv_pos_site_id
_symmetry_equiv_pos_as_xyz
1 x,y,z
2 1/2+x,1/2-y,-z
3 -x,1/2+y,1/2-z
4 1/2-x,-y,1/2+z
5 -x,-y,-z
6 -1/2-x,-1/2+y,z
7 x,-1/2-y,-1/2+z
8 -1/2+x,y,-1/2-z
_cell_length_a 7.985(2)
_cell_length_b 10.583(4)
_cell_length_c 19.790(5)
_cell_angle_alpha 90
_cell_angle_beta 90
_cell_angle_gamma 90
_cell_formula_units_Z 8
loop_
_atom_type_symbol
_atom_type_radius_bond
C 0.68
H 0.23
N 0.68
O 0.68
loop_
_atom_site_label
_atom_site_type_symbol
_atom_site_fract_x
_atom_site_fract_y
_atom_site_fract_z
O1 O 0.63457(13) 0.46121(12) 0.09338(5)
O2 O 0.56622(13) 0.26946(12) 0.11683(4)
N1 N 0.49817(12) 0.26484(11) 0.36674(5)
N2 N 0.60753(12) 0.37617(13) 0.13382(5)
C1 C 0.56791(12) 0.34555(12) 0.32053(5)
C2 C 0.55548(12) 0.31988(12) 0.25155(6)
C3 C 0.62554(13) 0.40348(12) 0.20609(5)
C4 C 0.70973(14) 0.51039(13) 0.22548(6)
C5 C 0.72221(14) 0.53368(12) 0.29399(6)
C6 C 0.65336(13) 0.45445(12) 0.34164(5)
C7 C 0.66928(18) 0.48050(13) 0.41660(6)
C8 C 0.66406(16) 0.35882(13) 0.45633(6)
C9 C 0.50867(16) 0.28493(13) 0.43921(6)
H1 H 0.44650 0.19910 0.35200
H2 H 0.50070 0.24780 0.23630
H3 H 0.75610 0.56470 0.19360
H4 H 0.77890 0.60520 0.30890
H5 H 0.77300 0.52350 0.42520
H6 H 0.57760 0.53260 0.43100
H7 H 0.75940 0.30890 0.44360
H8 H 0.66820 0.37570 0.50400
H9 H 0.41330 0.33300 0.45370
H10 H 0.51010 0.20510 0.46220
#END
