
#######################################################################
#
#                 Cambridge Crystallographic Data Centre
#                                CCDC
#
#######################################################################
#
# If this CIF has been generated from an entry in the Cambridge
# Structural Database, then it will include bibliographic, chemical,
# crystal, experimental, refinement or atomic coordinate data resulting
# from the CCDC's data processing and validation procedures.
#
#######################################################################

data_CSD_CIF_XEBKEW
_audit_creation_date 2012-07-19
_audit_creation_method CSD-ConQuest-V1
_database_code_CSD XEBKEW
_database_code_depnum_ccdc_archive 'CCDC 889842'
_chemical_formula_sum 'C14 H9 N3 O8'
_chemical_formula_moiety
;
C14 H9 N3 O8
;
_journal_coeditor_code "IUCr TK5112"
_journal_coden_Cambridge 1370
_journal_volume 68
_journal_year 2012
_journal_page_first o2187
_journal_name_full 'Acta Crystallogr.,Sect.E:Struct.Rep.Online '
loop_
_publ_author_name
"R.Moreno-Fuquen"
"F.Mosquera"
"J.Ellena"
"J.C.Tenorio"
_chemical_name_systematic
;
2,4,6-Trinitrophenyl 3-methylbenzoate
;
_chemical_melting_point 425
_cell_volume   1488.393
_exptl_crystal_colour 'pale yellow'
_exptl_crystal_density_diffrn 1.55
_exptl_crystal_description 'block'
_diffrn_ambient_temperature 295
#These two values have been output from a single CSD field.
_refine_ls_R_factor_gt 0.0443
_refine_ls_wR_factor_gt 0.0443
_symmetry_cell_setting monoclinic
_symmetry_space_group_name_H-M 'P 21/c'
_symmetry_Int_Tables_number 14
loop_
_symmetry_equiv_pos_site_id
_symmetry_equiv_pos_as_xyz
1 x,y,z
2 -x,1/2+y,1/2-z
3 -x,-y,-z
4 x,-1/2-y,-1/2+z
_cell_length_a 7.4947(1)
_cell_length_b 8.4366(2)
_cell_length_c 23.8574(6)
_cell_angle_alpha 90
_cell_angle_beta 99.365(1)
_cell_angle_gamma 90
_cell_formula_units_Z 4
loop_
_atom_type_symbol
_atom_type_radius_bond
C 0.68
H 0.23
N 0.68
O 0.68
loop_
_atom_site_label
_atom_site_type_symbol
_atom_site_fract_x
_atom_site_fract_y
_atom_site_fract_z
O1 O 0.90799(14) 0.93604(12) 0.81583(5)
O2 O 0.89917(15) 1.20129(13) 0.81861(5)
C1 C 0.80954(19) 0.93669(16) 0.76227(6)
C2 C 0.7782(2) 0.95541(18) 0.66027(7)
H1 H 0.82530 0.98330 0.62790
C3 C 0.5283(2) 0.85846(18) 0.70267(6)
H2 H 0.41170 0.81760 0.69890
C4 C 0.95268(19) 1.08060(17) 0.84158(6)
C5 C 0.63119(19) 0.88363(17) 0.75520(6)
O3 O 1.17307(17) 1.0163(2) 0.75989(6)
C6 C 0.6059(2) 0.89658(18) 0.65603(6)
N1 N 0.54579(18) 0.85492(17) 0.80541(6)
C7 C 1.0651(2) 1.05927(19) 0.89762(6)
C8 C 0.88038(19) 0.97246(17) 0.71349(7)
O4 O 0.45102(19) 0.73845(17) 0.80489(6)
N2 N 1.06867(19) 1.02766(17) 0.71553(7)
N3 N 0.4983(2) 0.8763(2) 0.59912(6)
O5 O 0.5703(2) 0.95298(19) 0.84340(5)
C9 C 1.0733(2) 1.1822(2) 0.93617(7)
H3 H 1.01000 1.27540 0.92600
O6 O 0.5610(2) 0.9263(2) 0.55895(6)
C10 C 1.1597(2) 0.9197(2) 0.91180(8)
H4 H 1.15500 0.83730 0.88570
O7 O 1.1103(2) 1.07925(18) 0.67223(7)
O8 O 0.3529(2) 0.8124(2) 0.59560(6)
C11 C 1.2612(3) 0.9054(3) 0.96550(9)
H5 H 1.32600 0.81290 0.97560
C12 C 1.1757(3) 1.1678(3) 0.99043(7)
C13 C 1.2666(3) 1.0267(3) 1.00373(8)
H6 H 1.33350 1.01390 1.03980
C14 C 1.1835(4) 1.3021(3) 1.03270(9)
H7 H 1.11210 1.38930 1.01560
H8 H 1.30660 1.33580 1.04360
H9 H 1.13670 1.26670 1.06570
#END
