
#######################################################################
#
#                 Cambridge Crystallographic Data Centre
#                                CCDC
#
#######################################################################
#
# If this CIF has been generated from an entry in the Cambridge
# Structural Database, then it will include bibliographic, chemical,
# crystal, experimental, refinement or atomic coordinate data resulting
# from the CCDC's data processing and validation procedures.
#
#######################################################################

data_CSD_CIF_XEBNOJ
_audit_creation_date 2012-07-19
_audit_creation_method CSD-ConQuest-V1
_database_code_CSD XEBNOJ
_database_code_depnum_ccdc_archive 'CCDC 889858'
_chemical_formula_sum 'C17 H19 N1 O8'
_chemical_formula_moiety
;
C17 H19 N1 O8
;
_journal_coeditor_code "IUCr GO2056"
_journal_coden_Cambridge 1370
_journal_volume 68
_journal_year 2012
_journal_page_first o2213
_journal_name_full 'Acta Crystallogr.,Sect.E:Struct.Rep.Online '
loop_
_publ_author_name
"S.Rizwana Begum"
"R.Hema"
"K.Pandiarajan"
"S.Balasubramanian"
"A.G.Anitha"
_chemical_name_systematic
;
Dimethyl 
4-hydroxy-4-methyl-2-(3-nitrophenyl)-6-oxocyclohexane-1,3-dicarboxylate
;
_chemical_name_common
;
c-5-Hydroxy-r-2,c-4-bis(methoxycarbonyl)-t-5-methyl-t-3-(3-nitrophenyl)cyclohe
xanone
;
_chemical_melting_point 475
_cell_volume   1712.287
_exptl_crystal_colour 'colorless'
_exptl_crystal_density_diffrn 1.417
_exptl_crystal_description 'prism'
_exptl_crystal_preparation 'ethanol'
_diffrn_ambient_temperature 273
#These two values have been output from a single CSD field.
_refine_ls_R_factor_gt 0.0437
_refine_ls_wR_factor_gt 0.0437
_symmetry_cell_setting monoclinic
_symmetry_space_group_name_H-M 'C c'
_symmetry_Int_Tables_number 9
loop_
_symmetry_equiv_pos_site_id
_symmetry_equiv_pos_as_xyz
1 x,y,z
2 x,-y,1/2+z
3 1/2+x,1/2+y,z
4 1/2+x,1/2-y,1/2+z
_cell_length_a 20.1842(18)
_cell_length_b 5.7380(5)
_cell_length_c 15.5771(14)
_cell_angle_alpha 90
_cell_angle_beta 108.357(1)
_cell_angle_gamma 90
_cell_formula_units_Z 4
loop_
_atom_type_symbol
_atom_type_radius_bond
C 0.68
H 0.23
N 0.68
O 0.68
loop_
_atom_site_label
_atom_site_type_symbol
_atom_site_fract_x
_atom_site_fract_y
_atom_site_fract_z
C1 C 0.12737(18) 0.5989(6) 0.1103(2)
H1 H 0.09920 0.74120 0.09590
C2 C 0.17193(17) 0.6084(6) 0.2116(2)
H2 H 0.20080 0.46750 0.22500
C3 C 0.12635(19) 0.6086(6) 0.2729(2)
C4 C 0.0735(2) 0.4139(7) 0.2538(3)
H3 H 0.04380 0.43250 0.29160
H4 H 0.09750 0.26570 0.26860
C5 C 0.02901(18) 0.4137(6) 0.1554(3)
C6 C 0.07746(18) 0.3893(6) 0.0952(2)
H5 H 0.10520 0.24670 0.11260
C7 C 0.17510(18) 0.5939(6) 0.0524(2)
C8 C 0.1713(2) 0.7685(7) -0.0109(2)
H6 H 0.13750 0.88390 -0.01970
C9 C 0.2168(2) 0.7735(8) -0.0610(3)
H7 H 0.21270 0.89030 -0.10370
C10 C 0.2678(2) 0.6082(8) -0.0482(3)
H8 H 0.29920 0.61200 -0.08090
C11 C 0.27115(19) 0.4360(7) 0.0145(3)
C12 C 0.22569(18) 0.4240(6) 0.0639(2)
H9 H 0.22890 0.30290 0.10470
C13 C 0.03373(17) 0.3699(6) -0.0021(2)
C14 C -0.0151(3) 0.1008(8) -0.1194(3)
H10 H -0.06260 0.12880 -0.12200
H11 H -0.01000 -0.05900 -0.13450
H12 H -0.00320 0.20080 -0.16170
C15 C 0.22025(18) 0.8146(6) 0.2304(2)
C16 C 0.3365(2) 0.9385(9) 0.2956(4)
H13 H 0.34120 0.99990 0.24050
H14 H 0.38060 0.87820 0.33260
H15 H 0.32170 1.06030 0.32770
C17 C -0.0253(2) 0.2189(7) 0.1379(3)
H16 H -0.05240 0.23610 0.17820
H17 H -0.00210 0.07060 0.14790
H18 H -0.05550 0.22780 0.07650
N1 N 0.32670(18) 0.2619(7) 0.0308(2)
O1 O 0.13259(17) 0.7525(5) 0.3311(2)
O2 O 0.20216(15) 1.0111(5) 0.2094(2)
O3 O 0.28532(14) 0.7538(5) 0.2748(2)
O4 O 0.00392(16) 0.5267(5) -0.04872(19)
O5 O -0.00399(14) 0.6359(4) 0.14196(19)
H19 H -0.03310 0.64100 0.09150
O6 O 0.03014(14) 0.1479(4) -0.03018(19)
O7 O 0.32638(19) 0.1005(7) 0.0817(3)
O8 O 0.37036(18) 0.2827(8) -0.0070(2)
#END
