
#######################################################################
#
#                 Cambridge Crystallographic Data Centre
#                                CCDC
#
#######################################################################
#
# If this CIF has been generated from an entry in the Cambridge
# Structural Database, then it will include bibliographic, chemical,
# crystal, experimental, refinement or atomic coordinate data resulting
# from the CCDC's data processing and validation procedures.
#
#######################################################################

data_CSD_CIF_XEBSII
_audit_creation_date 2012-07-19
_audit_creation_method CSD-ConQuest-V1
_database_code_CSD XEBSII
_database_code_depnum_ccdc_archive 'CCDC 889877'
_chemical_formula_sum 'C13 H11 N3 O1'
_chemical_formula_moiety
;
C13 H11 N3 O1
;
_journal_coeditor_code "IUCr HB6865"
_journal_coden_Cambridge 1370
_journal_volume 68
_journal_year 2012
_journal_page_first o2239
_journal_name_full 'Acta Crystallogr.,Sect.E:Struct.Rep.Online '
loop_
_publ_author_name
"S.R.Jebas"
"P.Selvarathy Grace"
"B.Ravindran Durai Nayagam"
"D.Schollmeyer"
_chemical_name_systematic
;
1-(Benzyloxy)-1H-benzotriazole
;
_cell_volume   2237.494
_exptl_crystal_colour 'colorless'
_exptl_crystal_density_diffrn 1.337
_exptl_crystal_description 'block'
_diffrn_ambient_temperature 193
#These two values have been output from a single CSD field.
_refine_ls_R_factor_gt 0.0542
_refine_ls_wR_factor_gt 0.0542
_symmetry_cell_setting orthorhombic
_symmetry_space_group_name_H-M 'P b c a'
_symmetry_Int_Tables_number 61
loop_
_symmetry_equiv_pos_site_id
_symmetry_equiv_pos_as_xyz
1 x,y,z
2 1/2-x,-y,1/2+z
3 1/2+x,1/2-y,-z
4 -x,1/2+y,1/2-z
5 -x,-y,-z
6 -1/2+x,y,-1/2-z
7 -1/2-x,-1/2+y,z
8 x,-1/2-y,-1/2+z
_cell_length_a 11.2417(5)
_cell_length_b 7.8381(8)
_cell_length_c 25.3933(18)
_cell_angle_alpha 90
_cell_angle_beta 90
_cell_angle_gamma 90
_cell_formula_units_Z 8
loop_
_atom_type_symbol
_atom_type_radius_bond
C 0.68
H 0.23
N 0.68
O 0.68
loop_
_atom_site_label
_atom_site_type_symbol
_atom_site_fract_x
_atom_site_fract_y
_atom_site_fract_z
N1 N 0.59619(14) 0.1616(2) 0.41567(6)
N2 N 0.69169(16) 0.0710(2) 0.40089(7)
N3 N 0.74822(17) 0.0253(3) 0.44366(6)
C1 C 0.68515(16) 0.0849(3) 0.48621(7)
C2 C 0.70541(19) 0.0634(3) 0.54041(8)
H1 H 0.77240 0.00200 0.55310
C3 C 0.6242(2) 0.1348(3) 0.57406(8)
H2 H 0.63480 0.12160 0.61100
C4 C 0.5253(2) 0.2276(3) 0.55539(8)
H3 H 0.47190 0.27670 0.58020
C5 C 0.50350(18) 0.2493(3) 0.50265(9)
H4 H 0.43660 0.31110 0.49000
C6 C 0.58618(17) 0.1744(2) 0.46878(7)
O1 O 0.51465(12) 0.21382(19) 0.37887(5)
C7 C 0.56357(18) 0.3549(3) 0.34807(8)
H5 H 0.63470 0.31710 0.32830
H6 H 0.58670 0.45030 0.37150
C8 C 0.46776(17) 0.4101(3) 0.31104(7)
C9 C 0.47315(18) 0.3682(3) 0.25810(8)
H7 H 0.53770 0.30180 0.24530
C10 C 0.3853(2) 0.4220(3) 0.22357(8)
H8 H 0.39010 0.39310 0.18730
C11 C 0.29088(19) 0.5177(3) 0.24185(9)
H9 H 0.23100 0.55510 0.21810
C12 C 0.28349(19) 0.5589(3) 0.29457(9)
H10 H 0.21770 0.62290 0.30730
C13 C 0.37194(18) 0.5069(3) 0.32891(8)
H11 H 0.36730 0.53740 0.36510
#END
