
#######################################################################
#
#                 Cambridge Crystallographic Data Centre
#                                CCDC
#
#######################################################################
#
# If this CIF has been generated from an entry in the Cambridge
# Structural Database, then it will include bibliographic, chemical,
# crystal, experimental, refinement or atomic coordinate data resulting
# from the CCDC's data processing and validation procedures.
#
#######################################################################

data_CSD_CIF_XECKOG
_audit_creation_date 2006-06-05
_audit_creation_method CSD-ConQuest-V1
_database_code_CSD XECKOG
_database_code_depnum_ccdc_archive 'CCDC 262303'
_chemical_formula_sum 'C13 H11 N1 O4'
_chemical_formula_moiety
;
C13 H11 N1 O4
;
_journal_coden_Cambridge 692
_journal_volume 2005
_journal_year 2005
_journal_page_first 3541
_journal_name_full 'Synthesis '
loop_
_publ_author_name
"K.Itoh"
"H.Sakamaki"
"N.Nakazato"
"A.Horiuchi"
"E.Horn"
"C.A.Horiuchi"
_chemical_name_systematic
;
Ethyl 3-benzoylisoxazolecarboxylate
;
_chemical_melting_point 324.95
_cell_volume   2400.663
_exptl_crystal_colour 'colorless'
_exptl_crystal_density_diffrn 1.357
_exptl_special_details
;
Melting point range 324.95-326.65K

;
_exptl_crystal_description 'plate'
_diffrn_ambient_temperature 298
#These two values have been output from a single CSD field.
_refine_ls_R_factor_gt 0.0521
_refine_ls_wR_factor_gt 0.0521
_symmetry_cell_setting monoclinic
_symmetry_space_group_name_H-M 'C 2/c'
_symmetry_Int_Tables_number 15
loop_
_symmetry_equiv_pos_site_id
_symmetry_equiv_pos_as_xyz
1 x,y,z
2 1/2+x,1/2+y,z
3 -x,y,1/2-z
4 1/2-x,1/2+y,1/2-z
5 -x,-y,-z
6 -1/2-x,-1/2-y,-z
7 x,-y,-1/2+z
8 -1/2+x,-1/2-y,-1/2+z
_cell_length_a 9.887(1)
_cell_length_b 13.516(1)
_cell_length_c 18.111(2)
_cell_angle_alpha 90
_cell_angle_beta 97.289(4)
_cell_angle_gamma 90
_cell_formula_units_Z 8
loop_
_atom_type_symbol
_atom_type_radius_bond
C 0.68
H 0.23
N 0.68
O 0.68
loop_
_atom_site_label
_atom_site_type_symbol
_atom_site_fract_x
_atom_site_fract_y
_atom_site_fract_z
O1 O 0.7268(4) 0.3605(3) 0.4419(2)
O2 O 1.0062(3) 0.5016(3) 0.6200(2)
O3 O 1.1808(4) 0.4093(4) 0.7276(3)
O4 O 1.1099(5) 0.2649(4) 0.6801(3)
N1 N 0.9022(4) 0.5286(3) 0.5637(2)
C1 C 1.0067(5) 0.4022(4) 0.6258(3)
C2 C 0.9109(5) 0.3640(4) 0.5754(3)
C3 C 0.8480(5) 0.4462(4) 0.5381(3)
C4 C 0.7383(5) 0.4395(4) 0.4730(3)
C5 C 0.6488(5) 0.5244(4) 0.4487(3)
C6 C 0.5511(6) 0.5108(5) 0.3882(3)
C7 C 0.4628(7) 0.5846(6) 0.3630(4)
C8 C 0.4712(7) 0.6740(6) 0.3975(4)
C9 C 0.5659(7) 0.6892(5) 0.4568(4)
C10 C 0.6549(6) 0.6146(4) 0.4834(3)
C11 C 1.1102(6) 0.3613(6) 0.6834(3)
C12 C 1.197(1) 0.210(1) 0.7419(6)
C13 C 1.283(1) 0.166(1) 0.7183(6)
H1 H 0.89020 0.29640 0.56660
H2 H 0.54390 0.44850 0.36390
H3 H 0.39620 0.57340 0.32130
H4 H 0.41070 0.72560 0.37980
H5 H 0.57190 0.75160 0.48110
H6 H 0.72090 0.62620 0.52570
H7 H 1.23350 0.25360 0.77960
H8 H 1.14110 0.16140 0.76340
H9 H 1.33960 0.13270 0.75600
H10 H 1.24790 0.12190 0.68040
H11 H 1.33990 0.21450 0.69590
#END
