
#######################################################################
#
#                 Cambridge Crystallographic Data Centre
#                                CCDC
#
#######################################################################
#
# If this CIF has been generated from an entry in the Cambridge
# Structural Database, then it will include bibliographic, chemical,
# crystal, experimental, refinement or atomic coordinate data resulting
# from the CCDC's data processing and validation procedures.
#
#######################################################################

data_CSD_CIF_XECYIO
_audit_creation_date 2006-06-06
_audit_creation_method CSD-ConQuest-V1
_database_code_CSD XECYIO
_database_code_depnum_ccdc_archive 'CCDC 261144'
_chemical_formula_sum 'C29 H24 N4 O3'
_chemical_formula_moiety
;
C29 H24 N4 O3
;
_journal_coden_Cambridge 35
_journal_volume 71
_journal_year 2006
_journal_page_first 744
_journal_name_full 'J.Org.Chem. '
loop_
_publ_author_name
"M.Tomasulo"
"S.Sortino"
"A.J.P.White"
"F.M.Raymo"
_chemical_name_systematic
;
2-(4'-Nitrophenylazo)-5a-phenyl-6,6-dimethyl-5a,6-dihydro-12H-indolo(2,1-b)(1,
3)benzo-oxazine
;
_cell_volume   2402.786
_exptl_crystal_colour 'orange-yellow'
_exptl_crystal_density_diffrn 1.317
_exptl_crystal_description 'blocks'
_diffrn_ambient_temperature 293
#These two values have been output from a single CSD field.
_refine_ls_R_factor_gt 0.0601
_refine_ls_wR_factor_gt 0.0601
_symmetry_cell_setting monoclinic
_symmetry_space_group_name_H-M 'P 21/c'
_symmetry_Int_Tables_number 14
loop_
_symmetry_equiv_pos_site_id
_symmetry_equiv_pos_as_xyz
1 x,y,z
2 -x,1/2+y,1/2-z
3 -x,-y,-z
4 x,-1/2-y,-1/2+z
_cell_length_a 8.7976(12)
_cell_length_b 18.011(6)
_cell_length_c 15.680(4)
_cell_angle_alpha 90
_cell_angle_beta 104.74(2)
_cell_angle_gamma 90
_cell_formula_units_Z 4
loop_
_atom_type_symbol
_atom_type_radius_bond
C 0.68
H 0.23
N 0.68
O 0.68
loop_
_atom_site_label
_atom_site_type_symbol
_atom_site_fract_x
_atom_site_fract_y
_atom_site_fract_z
N1 N 0.3849(3) 0.85439(12) 0.50359(14)
C1 C 0.2606(3) 0.84308(13) 0.54312(16)
C2 C 0.2662(3) 0.82247(15) 0.62865(18)
H1 H 0.36100 0.81040 0.66830
C3 C 0.1257(4) 0.82032(18) 0.6536(2)
H2 H 0.12640 0.80650 0.71080
C4 C -0.0163(4) 0.83849(18) 0.5942(2)
H3 H -0.10900 0.83730 0.61230
C5 C -0.0198(3) 0.85835(16) 0.50825(19)
H4 H -0.11440 0.87100 0.46880
C6 C 0.1173(3) 0.85923(14) 0.48186(17)
C7 C 0.1510(3) 0.88072(15) 0.39523(17)
C8 C 0.3206(3) 0.84789(14) 0.40874(16)
O1 O 0.2979(2) 0.76932(10) 0.38383(11)
C9 C 0.4134(3) 0.72059(14) 0.42429(16)
C10 C 0.4100(3) 0.65039(15) 0.38711(18)
H5 H 0.33250 0.63890 0.33640
C11 C 0.5199(3) 0.59774(15) 0.4243(2)
H6 H 0.51760 0.55110 0.39870
C12 C 0.6350(3) 0.61496(15) 0.50099(18)
C13 C 0.6382(3) 0.68476(15) 0.53826(17)
H7 H 0.71480 0.69560 0.58960
C14 C 0.5295(3) 0.73902(14) 0.50065(17)
C15 C 0.5344(3) 0.81581(15) 0.53787(18)
H8 H 0.55700 0.81300 0.60170
H9 H 0.61820 0.84370 0.52280
C16 C 0.1531(4) 0.96603(17) 0.3899(2)
H10 H 0.04820 0.98470 0.38170
H11 H 0.19350 0.98090 0.34110
H12 H 0.21890 0.98570 0.44360
C17 C 0.0345(4) 0.84972(18) 0.31308(19)
H13 H -0.06720 0.87140 0.30780
H14 H 0.02760 0.79680 0.31830
H15 H 0.07010 0.86150 0.26170
C18 C 0.4226(2) 0.88369(10) 0.35522(11)
C19 C 0.5233(3) 0.94185(11) 0.38985(11)
H16 H 0.53050 0.95850 0.44690
C20 C 0.6132(3) 0.97506(11) 0.33926(15)
H17 H 0.68060 1.01400 0.36240
C21 C 0.6024(3) 0.95012(14) 0.25403(14)
H18 H 0.66250 0.97230 0.22020
C22 C 0.5017(3) 0.89197(13) 0.21939(10)
H19 H 0.49440 0.87530 0.16240
C23 C 0.4118(2) 0.85875(11) 0.26999(12)
H20 H 0.34440 0.81980 0.24680
N2 N 0.7548(3) 0.56526(14) 0.54588(16)
N3 N 0.7574(3) 0.50510(13) 0.50737(17)
C24 C 0.8797(3) 0.45615(16) 0.55373(19)
C25 C 0.8906(4) 0.38848(16) 0.5134(2)
H21 H 0.81990 0.37700 0.46010
C26 C 1.0058(4) 0.33813(16) 0.5520(2)
H22 H 1.01460 0.29290 0.52510
C27 C 1.1069(4) 0.35644(17) 0.6311(2)
C28 C 1.0980(5) 0.4220(2) 0.6721(2)
H23 H 1.16820 0.43260 0.72590
C29 C 0.9840(5) 0.4730(2) 0.6333(2)
H24 H 0.97740 0.51830 0.66060
N4 N 1.2290(3) 0.30194(17) 0.67292(18)
O2 O 1.2512(3) 0.24845(13) 0.63116(17)
O3 O 1.3026(5) 0.3144(2) 0.74763(19)
#END
