
#######################################################################
#
#                 Cambridge Crystallographic Data Centre
#                                CCDC
#
#######################################################################
#
# If this CIF has been generated from an entry in the Cambridge
# Structural Database, then it will include bibliographic, chemical,
# crystal, experimental, refinement or atomic coordinate data resulting
# from the CCDC's data processing and validation procedures.
#
#######################################################################

data_CSD_CIF_XEDTEG
_audit_creation_date 2006-06-06
_audit_creation_method CSD-ConQuest-V1
_database_code_CSD XEDTEG
_database_code_depnum_ccdc_archive 'CCDC 296240'
_chemical_formula_sum 'C19 H21 N7 O3'
_chemical_formula_moiety
;
C19 H21 N7 O3
;
_journal_coden_Cambridge 1135
_journal_year 2006
_journal_page_first 26
_journal_name_full 'Mendeleev Commun. '
loop_
_publ_author_name
"G.L.Rusinov"
"P.A.Slepukhin"
"V.N.Charushin"
"O.A.Dyachenko"
"O.N.Kazheva"
"A.N.Chekhlov"
"E.V.Verbitsky"
"M.I.Kodess"
"O.N.Chupakhin"
_chemical_name_systematic
;
1-methoxy-2-ethyl-10-methyl-11-nitro-1,2,4b,5,10,10a,11,11a-octahydro-2,4a,5,1
0-tetraazabenzo[b]fluorene-3,4-dicarbonitrile
;
_chemical_melting_point 436.15
_cell_volume   1944.607
_exptl_crystal_density_diffrn 1.351
_exptl_special_details
;
Melting point range 436.15-437.15K

;
_diffrn_ambient_temperature 293
#These two values have been output from a single CSD field.
_refine_ls_R_factor_gt 0.0344
_refine_ls_wR_factor_gt 0.0344
_symmetry_cell_setting monoclinic
_symmetry_space_group_name_H-M 'P 21/c'
_symmetry_Int_Tables_number 14
loop_
_symmetry_equiv_pos_site_id
_symmetry_equiv_pos_as_xyz
1 x,y,z
2 -x,1/2+y,1/2-z
3 -x,-y,-z
4 x,-1/2-y,-1/2+z
_cell_length_a 12.426(3)
_cell_length_b 17.140(4)
_cell_length_c 9.419(2)
_cell_angle_alpha 90
_cell_angle_beta 104.22(2)
_cell_angle_gamma 90
_cell_formula_units_Z 4
loop_
_atom_type_symbol
_atom_type_radius_bond
C 0.68
H 0.23
N 0.68
O 0.68
loop_
_atom_site_label
_atom_site_type_symbol
_atom_site_fract_x
_atom_site_fract_y
_atom_site_fract_z
O1 O 0.3114(2) 0.41568(11) -0.08570(19)
O2 O 0.3300(2) 0.29387(11) -0.0373(2)
O3 O 0.08207(10) 0.28845(7) 0.07644(15)
N1 N 0.31872(11) 0.42648(9) 0.44689(16)
N2 N 0.48853(10) 0.41698(8) 0.30008(16)
N3 N 0.2012(1) 0.47678(7) 0.22530(15)
N4 N 0.00861(11) 0.38214(8) 0.20569(18)
N5 N 0.31633(12) 0.35984(10) -0.00363(17)
N6 N 0.12684(13) 0.63523(10) 0.4014(2)
N7 N -0.14662(13) 0.51546(10) 0.3471(2)
C1 C 0.42035(13) 0.39126(9) 0.51456(17)
C2 C 0.43772(16) 0.36274(11) 0.6549(2)
C3 C 0.53383(18) 0.32313(12) 0.7204(3)
C4 C 0.61339(17) 0.31181(11) 0.6443(3)
C5 C 0.59840(14) 0.34063(10) 0.5037(2)
C6 C 0.50288(12) 0.38196(9) 0.43687(17)
C7 C 0.37929(13) 0.44084(10) 0.22380(19)
C8 C 0.31268(12) 0.47664(10) 0.32278(18)
C9 C 0.30047(13) 0.37605(10) 0.14595(17)
C10 C 0.18292(13) 0.40639(9) 0.13607(19)
C11 C 0.10995(13) 0.34551(9) 0.1864(2)
C12 C 0.01768(12) 0.45647(9) 0.26072(18)
C13 C 0.11034(12) 0.50100(9) 0.27687(18)
C14 C 0.11809(13) 0.57583(10) 0.3450(2)
C15 C -0.07573(14) 0.48877(10) 0.3062(2)
C16 C -0.09510(15) 0.33797(12) 0.1834(2)
C17 C -0.1754(2) 0.3541(2) 0.0411(4)
C18 C 0.1188(2) 0.21158(13) 0.1192(4)
C19 C 0.57287(19) 0.41229(16) 0.2187(3)
H1 H 0.2809(15) 0.4427(10) 0.5085(19)
H2 H 0.3804(18) 0.3702(11) 0.703(2)
H3 H 0.543(2) 0.3038(12) 0.820(3)
H4 H 0.682(2) 0.2819(12) 0.690(2)
H5 H 0.6533(16) 0.3336(10) 0.448(2)
H6 H 0.3859(13) 0.4797(9) 0.1506(18)
H7 H 0.3357(13) 0.5291(10) 0.3499(17)
H8 H 0.3135(12) 0.3277(9) 0.1995(16)
H9 H 0.1468(14) 0.4186(9) 0.035(2)
H10 H 0.1501(14) 0.3221(9) 0.2817(18)
H11 H -0.0770(17) 0.2818(13) 0.196(2)
H12 H -0.1256(18) 0.3491(11) 0.269(2)
H13 H -0.193(3) 0.411(2) 0.029(3)
H14 H -0.249(4) 0.324(2) 0.025(4)
H15 H -0.138(3) 0.3442(18) -0.036(4)
H16 H 0.097(2) 0.1975(15) 0.213(3)
H17 H 0.196(3) 0.2065(15) 0.142(3)
H18 H 0.085(2) 0.1757(16) 0.041(3)
H19 H 0.580(2) 0.3569(18) 0.183(3)
H20 H 0.553(2) 0.4476(16) 0.138(3)
H21 H 0.645(3) 0.4257(15) 0.277(3)
#END
