
#######################################################################
#
#                 Cambridge Crystallographic Data Centre
#                                CCDC
#
#######################################################################
#
# If this CIF has been generated from an entry in the Cambridge
# Structural Database, then it will include bibliographic, chemical,
# crystal, experimental, refinement or atomic coordinate data resulting
# from the CCDC's data processing and validation procedures.
#
#######################################################################

data_CSD_CIF_XEDVUA
_audit_creation_date 2017-07-21
_audit_creation_method CSD-ConQuest-V1
_database_code_CSD XEDVUA
_database_code_depnum_ccdc_archive 'CCDC 1563816'
_chemical_formula_sum 'C15 H15 N1 O2'
_chemical_formula_moiety
;
C15 H15 N1 O2
;
_journal_coden_Cambridge 1078
_journal_year 2017
_journal_name_full 'CSD Communication(Private Communication) '
loop_
_publ_author_name
"D.D.Dolliver"
"F.R.Fronczek"
_chemical_name_systematic
;
N-methoxy-1-(2-methoxyphenyl)-1-phenylmethanimine
;
_cell_volume   1266.525
_exptl_crystal_colour 'colorless'
_exptl_crystal_density_diffrn 1.265
_exptl_crystal_preparation 'hexane/ethyl acetate'
_diffrn_ambient_temperature 100
#These two values have been output from a single CSD field.
_refine_ls_R_factor_gt 0.0422
_refine_ls_wR_factor_gt 0.0422
_symmetry_cell_setting monoclinic
_symmetry_space_group_name_H-M 'P 21/c'
_symmetry_Int_Tables_number 14
loop_
_symmetry_equiv_pos_site_id
_symmetry_equiv_pos_as_xyz
1 x,y,z
2 -x,1/2+y,1/2-z
3 -x,-y,-z
4 x,-1/2-y,-1/2+z
_cell_length_a 12.613(3)
_cell_length_b 7.885(2)
_cell_length_c 12.833(3)
_cell_angle_alpha 90
_cell_angle_beta 97.091(12)
_cell_angle_gamma 90
_cell_formula_units_Z 4
loop_
_atom_type_symbol
_atom_type_radius_bond
C 0.68
H 0.23
N 0.68
O 0.68
loop_
_atom_site_label
_atom_site_type_symbol
_atom_site_fract_x
_atom_site_fract_y
_atom_site_fract_z
O1 O 0.57645(4) 0.44071(7) 0.24360(4)
O2 O 0.65736(5) 0.53883(8) 0.50266(5)
N1 N 0.65899(5) 0.56041(8) 0.24396(5)
C1 C 0.73742(5) 0.52369(9) 0.31404(5)
C2 C 0.83186(5) 0.63636(9) 0.32225(5)
C3 C 0.90123(6) 0.64101(10) 0.41590(6)
H1 H 0.88770 0.57130 0.47320
C4 C 0.98999(6) 0.74723(10) 0.42578(7)
H2 H 1.03650 0.75040 0.48990
C5 C 1.01069(6) 0.84880(11) 0.34203(7)
H3 H 1.07130 0.92130 0.34890
C6 C 0.94266(7) 0.84424(11) 0.24817(7)
H4 H 0.95700 0.91330 0.19090
C7 C 0.85379(6) 0.73873(10) 0.23810(6)
H5 H 0.80760 0.73590 0.17380
C8 C 0.73722(5) 0.37147(9) 0.38325(5)
C9 C 0.69338(6) 0.38154(9) 0.47844(5)
C10 C 0.68904(6) 0.23807(10) 0.54135(6)
H6 H 0.65950 0.24490 0.60580
C11 C 0.72862(6) 0.08412(10) 0.50840(6)
H7 H 0.72460 -0.01430 0.55050
C12 C 0.77381(6) 0.07237(10) 0.41522(6)
H8 H 0.80150 -0.03240 0.39410
C13 C 0.77773(6) 0.21762(9) 0.35309(6)
H9 H 0.80860 0.21090 0.28930
C14 C 0.60932(8) 0.55179(13) 0.59746(7)
H10 H 0.54800 0.47480 0.59410
H11 H 0.58530 0.66860 0.60610
H12 H 0.66170 0.52090 0.65730
C15 C 0.48961(6) 0.49220(11) 0.16813(6)
H13 H 0.46190 0.60150 0.18910
H14 H 0.43270 0.40690 0.16440
H15 H 0.51460 0.50350 0.09910
#END
