
#######################################################################
#
#                 Cambridge Crystallographic Data Centre
#                                CCDC
#
#######################################################################
#
# If this CIF has been generated from an entry in the Cambridge
# Structural Database, then it will include bibliographic, chemical,
# crystal, experimental, refinement or atomic coordinate data resulting
# from the CCDC's data processing and validation procedures.
#
#######################################################################

data_CSD_CIF_XEGDUJ
_audit_creation_date 2006-06-06
_audit_creation_method CSD-ConQuest-V1
_database_code_CSD XEGDUJ
_database_code_depnum_ccdc_archive 'CCDC 282324'
_chemical_formula_sum 'C17 H25 N1 O5'
_chemical_formula_moiety
;
C17 H25 N1 O5
;
_journal_coden_Cambridge 1336
_journal_volume 7
_journal_year 2005
_journal_page_first 5617
_journal_name_full 'Org.Lett. '
loop_
_publ_author_name
"S.E.Denmark"
"R.Y.Baiazitov"
_chemical_name_systematic
;
6-(3-methoxypropyl)-5-(2-methylprop-1-en-1-yl)-4,9-dioxa-3-azatricyclo[6.2.2.0
^1,6^]dodec-2-en-10-one 3-oxide
;
_cell_volume   3316.041
_exptl_crystal_colour 'colorless'
_exptl_crystal_density_diffrn 1.295
_exptl_crystal_description 'tabular'
_exptl_crystal_preparation 'ethyl acetate'
_diffrn_ambient_temperature 193
#These two values have been output from a single CSD field.
_refine_ls_R_factor_gt 0.042
_refine_ls_wR_factor_gt 0.042
loop_
_citation_database_id_CSD
_citation_special_details
REBQAR "is a stereoisomer of this entry"
_symmetry_cell_setting monoclinic
_symmetry_space_group_name_H-M 'C 2/c'
_symmetry_Int_Tables_number 15
loop_
_symmetry_equiv_pos_site_id
_symmetry_equiv_pos_as_xyz
1 x,y,z
2 1/2+x,1/2+y,z
3 -x,y,1/2-z
4 1/2-x,1/2+y,1/2-z
5 -x,-y,-z
6 -1/2-x,-1/2-y,-z
7 x,-y,-1/2+z
8 -1/2+x,-1/2-y,-1/2+z
_cell_length_a 21.0502(8)
_cell_length_b 8.8331(3)
_cell_length_c 18.6791(6)
_cell_angle_alpha 90
_cell_angle_beta 107.300(2)
_cell_angle_gamma 90
_cell_formula_units_Z 8
loop_
_atom_type_symbol
_atom_type_radius_bond
C 0.68
H 0.23
N 0.68
O 0.68
loop_
_atom_site_label
_atom_site_type_symbol
_atom_site_fract_x
_atom_site_fract_y
_atom_site_fract_z
C1 C 0.08409(8) 0.99901(18) 0.62378(8)
H1 H 0.04270 1.05030 0.61410
C2 C 0.08319(7) 0.83014(16) 0.62120(8)
C3 C 0.06605(7) 0.78210(19) 0.53852(9)
C4 C 0.07788(8) 0.54731(18) 0.59828(9)
H2 H 0.07560 0.43620 0.58760
C5 C 0.14914(7) 0.59205(16) 0.63936(8)
H3 H 0.17730 0.57910 0.60570
H4 H 0.16680 0.52550 0.68350
C6 C 0.15174(7) 0.75999(15) 0.66538(8)
C7 C 0.20340(7) 0.84820(16) 0.63932(8)
H5 H 0.19270 0.83600 0.58380
C8 C 0.27484(8) 0.80836(16) 0.67423(9)
H6 H 0.28680 0.76410 0.72280
C9 C 0.32307(8) 0.82979(17) 0.64294(9)
C10 C 0.39426(8) 0.79219(19) 0.68373(10)
H7 H 0.39750 0.75560 0.73420
H8 H 0.42170 0.88310 0.68740
H9 H 0.41000 0.71340 0.65620
C11 C 0.31290(9) 0.8971(2) 0.56669(10)
H10 H 0.26520 0.90800 0.54140
H11 H 0.33260 0.83060 0.53710
H12 H 0.33430 0.99670 0.57170
C12 C 0.02756(8) 0.76185(18) 0.64929(9)
H13 H -0.01620 0.80280 0.61980
H14 H 0.03490 0.78820 0.70270
C13 C 0.02867(8) 0.58854(18) 0.64007(9)
H15 H 0.04170 0.53950 0.69000
H16 H -0.01630 0.55210 0.61180
C14 C 0.16517(8) 0.76056(16) 0.75145(8)
H17 H 0.13200 0.69260 0.76270
H18 H 0.20940 0.71370 0.77390
C15 C 0.16424(8) 0.90841(17) 0.79284(8)
H19 H 0.19580 0.98030 0.78110
H20 H 0.11920 0.95330 0.77490
C16 C 0.18275(9) 0.8873(2) 0.87676(8)
H21 H 0.22730 0.84010 0.89510
H22 H 0.18460 0.98700 0.90150
C17 C 0.14434(9) 0.7926(2) 0.97340(9)
H23 H 0.18940 0.75770 0.99980
H24 H 0.11180 0.72370 0.98410
H25 H 0.13790 0.89490 0.99040
N1 N 0.13731(7) 1.07954(15) 0.63828(6)
O1 O 0.20148(5) 1.01093(11) 0.65615(5)
O2 O 0.14266(6) 1.22173(12) 0.64193(5)
O3 O 0.05888(5) 0.63225(12) 0.52751(6)
O4 O 0.05756(5) 0.86717(12) 0.48570(6)
O5 O 0.13557(6) 0.79467(13) 0.89511(6)
#END
