
#######################################################################
#
#                 Cambridge Crystallographic Data Centre
#                                CCDC
#
#######################################################################
#
# If this CIF has been generated from an entry in the Cambridge
# Structural Database, then it will include bibliographic, chemical,
# crystal, experimental, refinement or atomic coordinate data resulting
# from the CCDC's data processing and validation procedures.
#
#######################################################################

data_CSD_CIF_XEGHOJ
_audit_creation_date 2017-07-24
_audit_creation_method CSD-ConQuest-V1
_database_code_CSD XEGHOJ
_database_code_depnum_ccdc_archive 'CCDC 1564081'
_chemical_formula_sum 'C24 H30 N4 O4'
_chemical_formula_moiety
;
C24 H30 N4 O4
;
_journal_coden_Cambridge 1078
_journal_year 2017
_journal_name_full 'CSD Communication(Private Communication) '
loop_
_publ_author_name
"M.Haraguchi"
"E.Tretyakov"
"N.Gritsan"
"G.Romanenko"
"D.Gorbunov"
"A.Bogomyakov"
"K.Maryunina"
"Shuichi Suzuki"
"K.Masatoshi"
"D.Shiomi"
"K.Sato"
"T.Takeji"
"S.Nishihara"
"K.Inoue"
"K.Okada"
_chemical_name_systematic
;
2,2'-(azulene-1,3-diyl)bis(4,4,5,5-tetramethyl-4,5-dihydro-1H-imidazole-1-oxyl
 3-oxide)
;
_cell_volume   2264.082
_exptl_crystal_colour 'black'
_exptl_crystal_density_diffrn 1.286
_exptl_crystal_description 'prism'
_diffrn_ambient_temperature 200
#These two values have been output from a single CSD field.
_refine_ls_R_factor_gt 0.0775
_refine_ls_wR_factor_gt 0.0775
_symmetry_cell_setting monoclinic
_symmetry_space_group_name_H-M 'C 2/c'
_symmetry_Int_Tables_number 15
loop_
_symmetry_equiv_pos_site_id
_symmetry_equiv_pos_as_xyz
1 x,y,z
2 -x,y,1/2-z
3 1/2+x,1/2+y,z
4 1/2-x,1/2+y,1/2-z
5 -x,-y,-z
6 x,-y,-1/2+z
7 -1/2-x,-1/2-y,-z
8 -1/2+x,-1/2-y,-1/2+z
_cell_length_a 16.081(15)
_cell_length_b 13.902(12)
_cell_length_c 11.786(11)
_cell_angle_alpha 90
_cell_angle_beta 120.764(7)
_cell_angle_gamma 90
_cell_formula_units_Z 4
loop_
_atom_type_symbol
_atom_type_radius_bond
C 0.68
H 0.23
N 0.68
O 0.68
loop_
_atom_site_label
_atom_site_type_symbol
_atom_site_fract_x
_atom_site_fract_y
_atom_site_fract_z
O1 O 0.46382(17) 0.28746(14) 0.3974(2)
O2 O 0.31999(15) 0.06881(14) 0.53852(16)
N1 N 0.40707(15) 0.22304(13) 0.39728(19)
N2 N 0.34240(14) 0.11678(13) 0.46486(16)
C1 C 0.40385(15) 0.19221(15) 0.50338(19)
C2 C 0.32646(19) 0.17935(17) 0.2712(2)
C3 C 0.31190(16) 0.08452(16) 0.3267(2)
C4 C 0.3570(3) 0.1672(3) 0.1702(3)
C5 C 0.2397(3) 0.2479(2) 0.2203(3)
C6 C 0.3813(2) 0.00455(18) 0.3419(3)
C7 C 0.21001(19) 0.0454(3) 0.2575(3)
C8 C 0.50000(1) 0.1720(2) 0.75000(1)
C9 C 0.45689(15) 0.22949(14) 0.63706(19)
C10 C 0.47228(14) 0.32780(14) 0.67692(19)
C11 C 0.44121(16) 0.40743(14) 0.5937(2)
C12 C 0.45489(16) 0.50408(15) 0.6262(2)
C13 C 0.50000(1) 0.5472(2) 0.75000(1)
H1 H 0.42110 0.14060 0.21260
H2 H 0.31310 0.12470 0.10120
H3 H 0.35680 0.22870 0.13300
H4 H 0.22120 0.25280 0.28560
H5 H 0.25820 0.31030 0.20560
H6 H 0.18610 0.22430 0.13930
H7 H 0.44690 0.02660 0.39360
H8 H 0.37180 -0.04910 0.38530
H9 H 0.36850 -0.01510 0.25630
H10 H 0.19100 0.02410 0.17000
H11 H 0.20790 -0.00790 0.30780
H12 H 0.16640 0.09470 0.25250
H13 H 0.50000 0.10510 0.75000
H14 H 0.40630 0.39370 0.50390
H15 H 0.43080 0.54640 0.55530
H16 H 0.50000 0.61410 0.75000
O1A O 0.53618(17) 0.28746(14) 1.1026(2)
O2A O 0.68001(15) 0.06881(14) 0.96148(16)
N1A N 0.59293(15) 0.22304(13) 1.10272(19)
N2A N 0.65760(14) 0.11678(13) 1.03514(16)
C1A C 0.59615(15) 0.19221(15) 0.99662(19)
C2A C 0.67354(19) 0.17935(17) 1.2288(2)
C3A C 0.68810(16) 0.08452(16) 1.1733(2)
C4A C 0.6430(3) 0.1672(3) 1.3298(3)
C5A C 0.7603(3) 0.2479(2) 1.2797(3)
C6A C 0.6187(2) 0.00455(18) 1.1581(3)
C7A C 0.78999(19) 0.0454(3) 1.2425(3)
C9A C 0.54311(15) 0.22949(14) 0.86294(19)
C10A C 0.52772(14) 0.32780(14) 0.82308(19)
C11A C 0.55879(16) 0.40743(14) 0.9063(2)
C12A C 0.54511(16) 0.50408(15) 0.8738(2)
H1A H 0.57890 0.14060 1.28740
H2A H 0.68690 0.12470 1.39880
H3A H 0.64320 0.22870 1.36700
H4A H 0.77880 0.25280 1.21440
H5A H 0.74180 0.31030 1.29440
H6A H 0.81390 0.22430 1.36070
H7A H 0.55310 0.02660 1.10640
H8A H 0.62820 -0.04910 1.11470
H9A H 0.63150 -0.01510 1.24370
H10A H 0.80900 0.02410 1.33000
H11A H 0.79210 -0.00790 1.19220
H12A H 0.83360 0.09470 1.24750
H14A H 0.59370 0.39370 0.99610
H15A H 0.56920 0.54640 0.94470
#END
