
#######################################################################
#
#                 Cambridge Crystallographic Data Centre
#                                CCDC
#
#######################################################################
#
# If this CIF has been generated from an entry in the Cambridge
# Structural Database, then it will include bibliographic, chemical,
# crystal, experimental, refinement or atomic coordinate data resulting
# from the CCDC's data processing and validation procedures.
#
#######################################################################

data_CSD_CIF_XEGHUP
_audit_creation_date 2017-07-24
_audit_creation_method CSD-ConQuest-V1
_database_code_CSD XEGHUP
_database_code_depnum_ccdc_archive 'CCDC 1564082'
_chemical_formula_sum 'C24 H30 N4 O2'
_chemical_formula_moiety
;
C24 H30 N4 O2
;
_journal_coden_Cambridge 1078
_journal_year 2017
_journal_name_full 'CSD Communication(Private Communication) '
loop_
_publ_author_name
"M.Haraguchi"
"E.Tretyakov"
"N.Gritsan"
"G.Romanenko"
"D.Gorbunov"
"A.Bogomyakov"
"K.Maryunina"
"Shuichi Suzuki"
"K.Masatoshi"
"D.Shiomi"
"K.Sato"
"T.Takeji"
"S.Nishihara"
"K.Inoue"
"K.Okada"
_chemical_name_systematic
;
2,2'-(azulene-1,3-diyl)bis(4,4,5,5-tetramethyl-4,5-dihydro-1H-imidazole-1-oxid
e)
;
_cell_volume   4491.855
_exptl_crystal_colour 'black'
_exptl_crystal_density_diffrn 1.202
_exptl_crystal_description 'block'
_diffrn_ambient_temperature 200
#These two values have been output from a single CSD field.
_refine_ls_R_factor_gt 0.0666
_refine_ls_wR_factor_gt 0.0666
_symmetry_cell_setting tetragonal
_symmetry_space_group_name_H-M 'P -4 21 c'
_symmetry_Int_Tables_number 114
loop_
_symmetry_equiv_pos_site_id
_symmetry_equiv_pos_as_xyz
1 x,y,z
2 y,-x,-z
3 -x,-y,z
4 -y,x,-z
5 1/2-x,1/2+y,1/2-z
6 1/2-y,1/2-x,1/2+z
7 1/2+x,1/2-y,1/2-z
8 1/2+y,1/2+x,1/2+z
_cell_length_a 15.207(8)
_cell_length_b 15.207(8)
_cell_length_c 19.424(10)
_cell_angle_alpha 90
_cell_angle_beta 90
_cell_angle_gamma 90
_cell_formula_units_Z 8
loop_
_atom_type_symbol
_atom_type_radius_bond
C 0.68
H 0.23
N 0.68
O 0.68
loop_
_atom_site_label
_atom_site_type_symbol
_atom_site_fract_x
_atom_site_fract_y
_atom_site_fract_z
O1 O 0.30002(15) 0.36831(14) 0.92672(15)
O2 O 0.27394(17) 0.10959(13) 0.95054(13)
N1 N 0.24289(14) 0.42050(13) 0.90275(11)
N2 N 0.13112(14) 0.47036(12) 0.83884(11)
N3 N 0.23450(15) 0.05369(13) 0.91283(11)
N4 N 0.14667(14) -0.00070(14) 0.83106(11)
C1 C 0.17409(15) 0.40125(16) 0.85717(11)
C2 C 0.2348(2) 0.51299(16) 0.92682(14)
C3 C 0.17379(17) 0.54987(15) 0.86975(13)
C4 C 0.1883(4) 0.5066(3) 0.99695(16)
C5 C 0.3235(3) 0.5542(3) 0.9354(3)
C6 C 0.1035(3) 0.6135(2) 0.89449(17)
C7 C 0.2252(3) 0.5923(2) 0.81174(15)
C8 C 0.17637(15) 0.07058(14) 0.85778(11)
C9 C 0.25566(17) -0.04149(15) 0.91524(12)
C10 C 0.17666(19) -0.07683(15) 0.87234(13)
C11 C 0.2621(3) -0.07281(18) 0.98910(14)
C12 C 0.3445(2) -0.0501(3) 0.87896(17)
C13 C 0.0978(2) -0.1014(2) 0.91754(18)
C14 C 0.1991(3) -0.1532(2) 0.82612(19)
C15 C 0.15494(14) 0.31127(14) 0.83665(11)
C16 C 0.19307(14) 0.23555(14) 0.86555(11)
C17 C 0.15534(14) 0.15998(14) 0.83733(11)
C18 C 0.09220(14) 0.18569(14) 0.78736(11)
C19 C 0.04173(16) 0.12978(17) 0.74644(13)
C20 C -0.02046(18) 0.15018(18) 0.69630(14)
C21 C -0.04955(17) 0.23261(19) 0.67483(14)
C22 C -0.02367(16) 0.31457(19) 0.69743(13)
C23 C 0.03818(16) 0.33703(16) 0.74699(12)
C24 C 0.09141(14) 0.28329(15) 0.78689(12)
H1 H 0.12620 0.49960 0.98990
H2 H 0.19880 0.55910 1.02320
H3 H 0.21070 0.45670 1.02160
H4 H 0.31780 0.61620 0.94370
H5 H 0.35380 0.52730 0.97330
H6 H 0.35630 0.54490 0.89380
H7 H 0.08020 0.64530 0.85590
H8 H 0.05700 0.58090 0.91630
H9 H 0.12840 0.65410 0.92690
H10 H 0.18630 0.60410 0.77390
H11 H 0.25120 0.64630 0.82720
H12 H 0.27060 0.55270 0.79700
H13 H 0.21630 -0.04550 1.01560
H14 H 0.31830 -0.05650 1.00760
H15 H 0.25560 -0.13560 0.99110
H16 H 0.38960 -0.02570 0.90780
H17 H 0.34290 -0.01880 0.83610
H18 H 0.35710 -0.11100 0.87040
H19 H 0.08320 -0.05240 0.94660
H20 H 0.04820 -0.11570 0.88910
H21 H 0.11270 -0.15120 0.94560
H22 H 0.14700 -0.17740 0.80560
H23 H 0.23770 -0.13230 0.79060
H24 H 0.22840 -0.19780 0.85250
H25 H 0.23700 0.23590 0.89880
H26 H 0.05190 0.07010 0.75340
H27 H -0.04680 0.10230 0.67470
H28 H -0.09200 0.23230 0.64030
H29 H -0.05190 0.36170 0.67640
H30 H 0.04500 0.39700 0.75460
#END
