
#######################################################################
#
#                 Cambridge Crystallographic Data Centre
#                                CCDC
#
#######################################################################
#
# If this CIF has been generated from an entry in the Cambridge
# Structural Database, then it will include bibliographic, chemical,
# crystal, experimental, refinement or atomic coordinate data resulting
# from the CCDC's data processing and validation procedures.
#
#######################################################################

data_CSD_CIF_XEGTOS
_audit_creation_date 2001-02-28
_audit_creation_method CSD-ConQuest-V1
_database_code_CSD XEGTOS
_database_code_depnum_ccdc_archive 'CCDC 156207'
_chemical_formula_sum 'C18 H19 N1 O4'
_chemical_formula_moiety
;
C18 H19 N1 O4
;
_journal_coeditor_code "IUCr QA0411"
_journal_data_validation_number IUC0000299
_journal_coden_Cambridge 591
_journal_volume 56
_journal_year 2000
_journal_page_first e574
_journal_name_full 'Acta Crystallogr.,Sect.C:Cryst.Struct.Commun. '
loop_
_publ_author_name
"T.J.Miller"
"Y.Fu"
"F.R.Fronczek"
"R.P.Hammer"
_chemical_name_systematic
;
Ethyl 2-benzyl-2-nitro-3-phenylpropanoate
;
_cell_volume   1610.905
_exptl_crystal_colour 'colorless'
_exptl_crystal_density_diffrn 1.292
_exptl_crystal_description 'lath'
_exptl_crystal_preparation 'pentane'
_diffrn_ambient_temperature 120
#These two values have been output from a single CSD field.
_refine_ls_R_factor_gt 0.039
_refine_ls_wR_factor_gt 0.039
_symmetry_cell_setting monoclinic
_symmetry_space_group_name_H-M 'P 21/c'
_symmetry_Int_Tables_number 14
loop_
_symmetry_equiv_pos_site_id
_symmetry_equiv_pos_as_xyz
1 x,y,z
2 x,1/2-y,1/2+z
3 -x,-y,-z
4 -x,-1/2+y,-1/2-z
_cell_length_a 18.0850(6)
_cell_length_b 6.0670(2)
_cell_length_c 15.9830(6)
_cell_angle_alpha 90
_cell_angle_beta 113.280(2)
_cell_angle_gamma 90
_cell_formula_units_Z 4
loop_
_atom_type_symbol
_atom_type_radius_bond
C 0.68
H 0.23
N 0.68
O 0.68
loop_
_atom_site_label
_atom_site_type_symbol
_atom_site_fract_x
_atom_site_fract_y
_atom_site_fract_z
O1 O 0.19690(6) 0.44747(15) 0.81248(6)
O2 O 0.26130(5) 0.77258(14) 0.83315(6)
O3 O 0.24154(5) 0.95503(15) 0.62506(6)
O4 O 0.15004(6) 0.98732(15) 0.67960(6)
N1 N 0.19922(6) 0.87969(18) 0.66197(7)
C1 C 0.20260(7) 0.6323(2) 0.68295(8)
C2 C 0.21764(7) 0.6072(2) 0.78347(9)
C3 C 0.28908(8) 0.7509(2) 0.93147(8)
H1 H 0.31840 0.61020 0.95220
H2 H 0.24290 0.75420 0.95000
C4 C 0.34387(9) 0.9424(3) 0.9716(1)
H3 H 0.38740 0.94190 0.94970
H4 H 0.36680 0.93070 1.03820
H5 H 0.31330 1.08000 0.95330
C5 C 0.11964(7) 0.5389(2) 0.62068(8)
H6 H 0.11830 0.37950 0.63320
H7 H 0.07760 0.61180 0.63590
C6 C 0.10002(7) 0.5703(2) 0.52041(8)
C7 C 0.06529(7) 0.7666(2) 0.47761(8)
H8 H 0.05290 0.87840 0.51160
C8 C 0.04857(7) 0.8012(2) 0.38620(9)
H9 H 0.02500 0.93610 0.35800
C9 C 0.06622(7) 0.6395(2) 0.33618(9)
H10 H 0.05510 0.66350 0.27360
C10 C 0.09997(8) 0.4427(2) 0.37699(9)
H11 H 0.11170 0.33110 0.34240
C11 C 0.11678(7) 0.4080(2) 0.46869(9)
H12 H 0.13990 0.27230 0.49640
C12 C 0.27142(7) 0.5200(2) 0.66547(9)
H13 H 0.25920 0.36060 0.65600
H14 H 0.27210 0.57960 0.60810
C13 C 0.35516(7) 0.5457(2) 0.73967(8)
C14 C 0.38473(8) 0.3836(2) 0.80657(9)
H15 H 0.35280 0.25770 0.80450
C15 C 0.46038(8) 0.4052(3) 0.87614(10)
H16 H 0.47990 0.29440 0.92160
C16 C 0.50754(8) 0.5872(3) 0.87959(10)
H17 H 0.55910 0.60230 0.92770
C17 C 0.47938(8) 0.7465(3) 0.81288(9)
H18 H 0.51210 0.87040 0.81460
C18 C 0.40359(7) 0.7269(2) 0.74330(9)
H19 H 0.38460 0.83790 0.69780
#END
