
#######################################################################
#
#                 Cambridge Crystallographic Data Centre
#                                CCDC
#
#######################################################################
#
# If this CIF has been generated from an entry in the Cambridge
# Structural Database, then it will include bibliographic, chemical,
# crystal, experimental, refinement or atomic coordinate data resulting
# from the CCDC's data processing and validation procedures.
#
#######################################################################

data_CSD_CIF_XEHTUZ
_audit_creation_date 2001-02-28
_audit_creation_method CSD-ConQuest-V1
_database_code_CSD XEHTUZ
_database_code_depnum_ccdc_archive 'CCDC 156747'
_database_code_depnum_ccdc_journal 182/1836
_chemical_formula_sum 'C17 H21 N1 O3'
_chemical_formula_moiety
;
C17 H21 N1 O3
;
_journal_coden_Cambridge 182
_journal_year 2000
_journal_page_first 2451
_journal_name_full 'Chem.Commun. '
loop_
_publ_author_name
"P.D.Bailey"
"I.M.McDonald"
"G.M.Rosair"
"D.Taylor"
_chemical_name_systematic
;
3-(Ethoxycarbonyl)-2-((S)-1-phenylethyl)-1-oxa-2-azabicyclo(3.2.1)oct-5-ene
;
_cell_volume    792.118
_exptl_crystal_colour 'colorless'
_exptl_crystal_density_diffrn 1.205
_exptl_crystal_description 'plate'
_exptl_crystal_preparation 'petroleum ether'
_diffrn_ambient_temperature 160
#These two values have been output from a single CSD field.
_refine_ls_R_factor_gt 0.0303
_refine_ls_wR_factor_gt 0.0303
_symmetry_cell_setting monoclinic
_symmetry_space_group_name_H-M 'P 21'
_symmetry_Int_Tables_number 4
loop_
_symmetry_equiv_pos_site_id
_symmetry_equiv_pos_as_xyz
1 x,y,z
2 -x,1/2+y,-z
_cell_length_a 6.073
_cell_length_b 13.045(1)
_cell_length_c 10.104(1)
_cell_angle_alpha 90
_cell_angle_beta 98.28(1)
_cell_angle_gamma 90
_cell_formula_units_Z 2
loop_
_atom_type_symbol
_atom_type_radius_bond
C 0.68
H 0.23
N 0.68
O 0.68
loop_
_atom_site_label
_atom_site_type_symbol
_atom_site_fract_x
_atom_site_fract_y
_atom_site_fract_z
N1 N 0.2804(2) 0.47732(12) 0.61212(14)
O1 O 0.2173(2) 0.34318(14) 0.28791(13)
O2 O 0.5358(2) 0.38640(15) 0.41751(14)
C1 C 0.1785(3) 0.43374(15) 0.48382(16)
H1 H 0.07730 0.37920 0.50400
C2 C 0.0329(3) 0.51884(17) 0.40532(18)
H2 H -0.06240 0.49300 0.32580
C3 C -0.0948(3) 0.57468(19) 0.50161(19)
H3 H -0.23960 0.55980 0.51520
C4 C 0.0308(3) 0.64759(18) 0.56316(19)
H4 H -0.01160 0.69290 0.62590
C5 C 0.2548(3) 0.64534(15) 0.51497(19)
H5 H 0.32240 0.71360 0.51540
O3 O 0.40192(19) 0.57099(12) 0.58977(12)
C6 C 0.1925(3) 0.60364(17) 0.37409(18)
H6 H 0.32030 0.57640 0.33820
H7 H 0.11850 0.65470 0.31340
C7 C 0.3359(3) 0.38684(15) 0.39546(17)
C8 C 0.3405(4) 0.28732(18) 0.1975(2)
H8 H 0.40810 0.22650 0.24130
H9 H 0.45740 0.33020 0.17120
C9 C 0.1800(5) 0.2583(3) 0.0785(3)
H10 H 0.25590 0.22050 0.01720
H11 H 0.11570 0.31910 0.03550
H12 H 0.06450 0.21650 0.10590
C10 C 0.4432(3) 0.41545(15) 0.69842(18)
H13 H 0.58060 0.41030 0.65850
C11 C 0.3481(5) 0.30792(17) 0.7141(2)
H14 H 0.31520 0.27610 0.62780
H15 H 0.21430 0.31310 0.75400
H16 H 0.45530 0.26720 0.77030
C12 C 0.4927(3) 0.46535(15) 0.83537(17)
C13 C 0.6995(3) 0.44950(19) 0.91189(19)
H17 H 0.80870 0.41370 0.87530
C14 C 0.7452(3) 0.4862(2) 1.0416(2)
H18 H 0.88360 0.47400 1.09170
C15 C 0.5869(3) 0.54040(18) 1.09673(17)
H19 H 0.61710 0.56470 1.18400
C16 C 0.3809(3) 0.55863(18) 1.02055(19)
H20 H 0.27360 0.59610 1.05660
C17 C 0.3353(3) 0.52112(17) 0.89129(18)
H21 H 0.19690 0.53360 0.84130
#END
