
#######################################################################
#
#                 Cambridge Crystallographic Data Centre
#                                CCDC
#
#######################################################################
#
# If this CIF has been generated from an entry in the Cambridge
# Structural Database, then it will include bibliographic, chemical,
# crystal, experimental, refinement or atomic coordinate data resulting
# from the CCDC's data processing and validation procedures.
#
#######################################################################

data_CSD_CIF_XELDIB
_audit_creation_date 2001-06-11
_audit_creation_method CSD-ConQuest-V1
_database_code_CSD XELDIB
_database_code_depnum_ccdc_archive 'CCDC 139606'
_chemical_formula_sum 'C12 H9 N3 O1'
_chemical_formula_moiety
;
C12 H9 N3 O1
;
_journal_coden_Cambridge 580
_journal_volume 19
_journal_year 2000
_journal_page_first 2195
_journal_name_full 'Polyhedron '
loop_
_publ_author_name
"M.Vrbova"
"P.Baran"
"R.Boca"
"H.Fuess"
"I.Svoboda"
"W.Linert"
"U.Schubert"
"P.Wiede"
_chemical_name_systematic
;
2-(2-Benzimidazol-2-yl)pyridine-N-oxide
;
_chemical_melting_point 507.15
_cell_volume    988.038
_exptl_crystal_colour 'orange'
_exptl_crystal_density_diffrn 1.42
_exptl_special_details
;
Melting point range 507.15-508.15K

;
_exptl_crystal_description 'prisms'
_exptl_crystal_preparation 'acetone'
_diffrn_ambient_temperature ?
_diffrn_special_details
;
The study was carried out at room temperature,in the range 283-303K

;
#These two values have been output from a single CSD field.
_refine_ls_R_factor_gt 0.0265
_refine_ls_wR_factor_gt 0.0265
_symmetry_cell_setting orthorhombic
_symmetry_space_group_name_H-M 'P 21 21 21'
_symmetry_Int_Tables_number 19
loop_
_symmetry_equiv_pos_site_id
_symmetry_equiv_pos_as_xyz
1 x,y,z
2 1/2+x,1/2-y,-z
3 -x,1/2+y,1/2-z
4 1/2-x,-y,1/2+z
_cell_length_a 5.906(1)
_cell_length_b 11.650(1)
_cell_length_c 14.360(1)
_cell_angle_alpha 90
_cell_angle_beta 90
_cell_angle_gamma 90
_cell_formula_units_Z 4
loop_
_atom_type_symbol
_atom_type_radius_bond
C 0.68
H 0.23
N 0.68
O 0.68
loop_
_atom_site_label
_atom_site_type_symbol
_atom_site_fract_x
_atom_site_fract_y
_atom_site_fract_z
C1 C -0.5074(4) 0.4080(2) 0.60410(14)
H1 H -0.5528(37) 0.3324(18) 0.6225(14)
C2 C -0.6152(4) 0.5071(2) 0.62726(14)
H2 H -0.7468(35) 0.5045(19) 0.6637(13)
C3 C -0.5308(4) 0.6105(2) 0.59636(14)
H3 H -0.5989(42) 0.6809(19) 0.6096(15)
C4 C -0.3386(4) 0.6100(2) 0.54223(13)
H4 H -0.2713(36) 0.6770(18) 0.5176(15)
C5 C -0.2294(3) 0.5090(2) 0.51920(12)
C6 C -0.0284(3) 0.51081(15) 0.46094(12)
C7 C 0.2739(3) 0.4578(2) 0.38184(13)
C8 C 0.4575(4) 0.4046(2) 0.34000(14)
H5 H 0.4791(38) 0.3222(20) 0.3503(13)
C9 C 0.6043(4) 0.4728(2) 0.29090(14)
H6 H 0.7314(39) 0.4409(20) 0.2615(16)
C10 C 0.5699(4) 0.5918(2) 0.28304(15)
H7 H 0.6841(44) 0.6316(19) 0.2480(16)
C11 C 0.3890(4) 0.6441(2) 0.32393(14)
H8 H 0.3687(38) 0.7258(19) 0.3180(14)
C12 C 0.2374(3) 0.5771(2) 0.37458(13)
N1 N -0.3159(3) 0.40781(13) 0.55132(11)
N2 N 0.1005(3) 0.41855(14) 0.43655(11)
H9 H 0.0824(39) 0.3444(18) 0.4608(15)
N3 N 0.0477(3) 0.60801(13) 0.42487(11)
O1 O -0.2199(3) 0.3094(1) 0.53215(12)
#END
