
#######################################################################
#
#                 Cambridge Crystallographic Data Centre
#                                CCDC
#
#######################################################################
#
# If this CIF has been generated from an entry in the Cambridge
# Structural Database, then it will include bibliographic, chemical,
# crystal, experimental, refinement or atomic coordinate data resulting
# from the CCDC's data processing and validation procedures.
#
#######################################################################

data_CSD_CIF_XELGAX
_audit_creation_date 2006-10-31
_audit_creation_method CSD-ConQuest-V1
_database_code_CSD XELGAX
_database_code_depnum_ccdc_archive 'CCDC 280680'
_chemical_formula_sum 'C16 H16 N4 O6'
_chemical_formula_moiety
;
C16 H16 N4 O6
;
_journal_coden_Cambridge 471
_journal_volume 22
_journal_year 2006
_journal_page_first x163
_journal_name_full 'Anal.Sci.:X-Ray Struct.Anal.Online '
loop_
_publ_author_name
"T.Kakanejadifard"
"L.Mahmodi"
"A.Yari"
_chemical_name_systematic
;
3,7-bis(3-nitrophenyl)-1,5-dioxa-3,7-diazacyclooctane
;
_chemical_melting_point 498.65
_cell_volume   1572.954
_exptl_crystal_density_diffrn 1.522
_exptl_special_details
;
Melting point range 498.65-499.15K
chair chair crown conformation

;
_diffrn_ambient_temperature 120
_refine_special_details
;
Atoms of one nitrophenyl moiety were refined over two sites.

;
#These two values have been output from a single CSD field.
_refine_ls_R_factor_gt 0.0551
_refine_ls_wR_factor_gt 0.0551
_symmetry_cell_setting monoclinic
_symmetry_space_group_name_H-M 'P 21/n'
_symmetry_Int_Tables_number 14
loop_
_symmetry_equiv_pos_site_id
_symmetry_equiv_pos_as_xyz
1 x,y,z
2 1/2-x,1/2+y,1/2-z
3 -x,-y,-z
4 -1/2+x,-1/2-y,-1/2+z
_cell_length_a 6.700(2)
_cell_length_b 12.369(3)
_cell_length_c 19.003(5)
_cell_angle_alpha 90
_cell_angle_beta 92.791(6)
_cell_angle_gamma 90
_cell_formula_units_Z 4
loop_
_atom_type_symbol
_atom_type_radius_bond
C 0.68
H 0.23
N 0.68
O 0.68
loop_
_atom_site_label
_atom_site_type_symbol
_atom_site_fract_x
_atom_site_fract_y
_atom_site_fract_z
O1 O 0.3914(2) 0.3935(1) 0.1646(1)
O2 O -0.1230(2) 0.3616(1) 0.2350(1)
O3 O 0.3508(2) 0.3689(1) -0.0870(1)
O4 O 0.1212(2) 0.2860(2) -0.1489(1)
N1 N 0.0520(2) 0.4537(1) 0.1434(1)
N2 N 0.1982(2) 0.2740(1) 0.2361(1)
N3 N 0.1841(2) 0.3286(1) -0.0938(1)
C1 C 0.2583(2) 0.4831(1) 0.1560(1)
C2 C -0.0814(2) 0.4614(2) 0.2009(1)
C3 C 0.0408(3) 0.3172(2) 0.2764(1)
C4 C 0.3780(2) 0.3352(2) 0.2293(1)
C5 C -0.2009(2) 0.3533(1) 0.0736(1)
C6 C -0.2637(2) 0.3015(1) 0.0118(1)
C7 C -0.1396(2) 0.2917(1) -0.0441(1)
C8 C 0.0502(2) 0.3348(1) -0.0347(1)
C9 C 0.1209(2) 0.3858(1) 0.0265(1)
C10 C -0.0080(2) 0.3975(1) 0.0820(1)
C11 C 0.1554(4) 0.1884(2) 0.1895(1)
O5 O 0.3914(5) 0.1107(2) 0.0088(2)
O6 O 0.2952(5) -0.0549(2) 0.0198(2)
N4 N 0.2978(5) 0.0402(3) 0.0384(2)
C12 C 0.2410(7) 0.1604(3) 0.1374(2)
C13 C 0.1809(7) 0.0703(4) 0.0972(2)
C14 C 0.0127(8) 0.0113(5) 0.1099(3)
C15 C -0.1052(6) 0.0447(3) 0.1634(2)
C16 C -0.0508(6) 0.1338(3) 0.2038(2)
O7? O -0.3556(4) 0.0371(3) 0.1439(2)
O8? O -0.2225(6) -0.0866(3) 0.0797(2)
N5? N -0.2111(6) -0.0043(3) 0.1165(2)
C17? C 0.0042(6) 0.1322(3) 0.1751(2)
C18? C -0.0169(9) 0.0478(4) 0.1279(3)
C19? C 0.1419(9) 0.0132(5) 0.0880(2)
C20? C 0.3229(7) 0.0673(4) 0.0981(2)
C21? C 0.3473(7) 0.1532(4) 0.1454(2)
H1 H 0.30030 0.52750 0.11600
H2 H 0.27040 0.52850 0.19890
H3 H -0.02250 0.51200 0.23650
H4 H -0.20940 0.49300 0.18250
H5 H -0.01030 0.25890 0.30640
H6 H 0.09720 0.37420 0.30800
H7 H 0.39030 0.38740 0.26880
H8 H 0.49310 0.28510 0.23430
H9 H -0.28970 0.35910 0.11080
H10 H -0.39470 0.27210 0.00760
H11 H -0.18280 0.25710 -0.08670
H12 H 0.25400 0.41240 0.03070
H13 H 0.35260 0.20130 0.12360
H14 H -0.02170 -0.05080 0.08260
H15 H -0.22400 0.00630 0.17250
H16 H -0.13440 0.16100 0.23870
H17? H -0.11130 0.14980 0.19990
H18? H 0.12640 -0.04480 0.05540
H19? H 0.43320 0.04510 0.07200
H20? H 0.47160 0.18980 0.15160
#END
