
#######################################################################
#
#                 Cambridge Crystallographic Data Centre
#                                CCDC
#
#######################################################################
#
# If this CIF has been generated from an entry in the Cambridge
# Structural Database, then it will include bibliographic, chemical,
# crystal, experimental, refinement or atomic coordinate data resulting
# from the CCDC's data processing and validation procedures.
#
#######################################################################

data_CSD_CIF_XELYOE
_audit_creation_date 2012-12-31
_audit_creation_method CSD-ConQuest-V1
_database_code_CSD XELYOE
_database_code_depnum_ccdc_archive 'CCDC 871399'
_chemical_formula_sum 'C28 H45 N4 O5'
_chemical_formula_moiety
;
C28 H45 N4 O5
;
_journal_coden_Cambridge 95
_journal_year 2011
_journal_page_first 2280
_journal_name_full 'Izv.Akad.Nauk SSSR,Ser.Khim.(Russ.)(Russ.Chem.Bull.) '
loop_
_publ_author_name
"E.V.Tret'yakov"
"S.E.Tolstikov"
"G.V.Romanenko"
"A.S.Bogomyakov"
"V.K.Cherkasov"
"D.V.Stas'"
"V.I.Ovcharenko"
_chemical_name_systematic
;
2-(3,6-Di-t-butyl-7-oxo-4-(4,4,5,5-tetramethyl-4,5-dihydro-1H-imidazol-1-yloxy
)-4H-oxepin-2-yl)-4,4,5,5-tetramethyl-4,5-dihydro-1H-imidazol-3-oxide-1-oxyl
;
_chemical_melting_point 420.15
_cell_volume   3049.213
_exptl_crystal_colour 'violet'
_exptl_crystal_density_diffrn 1.128
_exptl_special_details
;
Melting point range 420.15-422.15K

;
_exptl_crystal_description 'bulk'
_diffrn_ambient_temperature 240
#These two values have been output from a single CSD field.
_refine_ls_R_factor_gt 0.0532
_refine_ls_wR_factor_gt 0.0532
_symmetry_cell_setting monoclinic
_symmetry_space_group_name_H-M 'P 21/c'
_symmetry_Int_Tables_number 14
loop_
_symmetry_equiv_pos_site_id
_symmetry_equiv_pos_as_xyz
1 x,y,z
2 -x,1/2+y,1/2-z
3 -x,-y,-z
4 x,-1/2-y,-1/2+z
_cell_length_a 19.461(7)
_cell_length_b 11.770(4)
_cell_length_c 13.410(5)
_cell_angle_alpha 90
_cell_angle_beta 96.928(8)
_cell_angle_gamma 90
_cell_formula_units_Z 4
loop_
_atom_type_symbol
_atom_type_radius_bond
C 0.68
H 0.23
N 0.68
O 0.68
loop_
_atom_site_label
_atom_site_type_symbol
_atom_site_fract_x
_atom_site_fract_y
_atom_site_fract_z
N1 N 0.13647(8) -0.11326(14) 0.27941(13)
O1 O 0.11247(8) -0.13383(14) 0.36232(12)
C1 C 0.09964(11) -0.14906(19) 0.17911(17)
N2 N 0.20225(9) -0.04315(15) 0.17302(13)
O2 O 0.25017(8) 0.01381(16) 0.13861(11)
C2 C 0.07523(14) -0.2714(2) 0.1838(2)
H1 H 0.03930 -0.27640 0.22790
H2 H 0.11390 -0.31940 0.20950
H3 H 0.05690 -0.29660 0.11700
O3 O 0.29081(6) 0.23725(12) 0.42661(10)
N3 N 0.35062(8) 0.25621(15) 0.37686(12)
C3 C 0.03711(11) -0.0702(2) 0.15923(19)
H4 H 0.00350 -0.08920 0.20440
H5 H 0.01620 -0.07930 0.09030
H6 H 0.05190 0.00790 0.17030
O4 O 0.10968(8) 0.25164(13) 0.40359(10)
N4 N 0.37747(9) 0.32469(16) 0.22973(13)
C4 C 0.15700(11) -0.1270(2) 0.11014(17)
O5 O 0.17411(6) 0.12100(11) 0.34687(9)
C5 C 0.13239(15) -0.0738(3) 0.00842(18)
H7 H 0.10370 -0.00820 0.01790
H8 H 0.10570 -0.12900 -0.03360
H9 H 0.17210 -0.05030 -0.02370
C6 C 0.20286(14) -0.2301(2) 0.0967(2)
H10 H 0.21770 -0.26380 0.16180
H11 H 0.24310 -0.20630 0.06590
H12 H 0.17690 -0.28560 0.05400
C7 C 0.19075(10) -0.04580(17) 0.26957(14)
C8 C 0.22167(9) 0.03088(16) 0.34836(14)
C9 C 0.28267(10) 0.02931(17) 0.40506(14)
C10 C 0.33673(10) -0.06573(19) 0.41041(16)
C11 C 0.31332(13) -0.1699(2) 0.3482(2)
H13 H 0.30270 -0.14830 0.27830
H14 H 0.27230 -0.20170 0.37220
H15 H 0.35000 -0.22620 0.35460
C12 C 0.35346(12) -0.1024(2) 0.52070(19)
H16 H 0.31200 -0.13210 0.54480
H17 H 0.37010 -0.03750 0.56110
H18 H 0.38880 -0.16090 0.52580
C13 C 0.40310(11) -0.0183(2) 0.3738(2)
H19 H 0.39340 0.00410 0.30390
H20 H 0.43880 -0.07630 0.38040
H21 H 0.41890 0.04730 0.41400
C14 C 0.29784(10) 0.12867(18) 0.47734(15)
H22 H 0.3438(9) 0.1241(14) 0.5107(13)
C15 C 0.38599(12) 0.3657(2) 0.40567(16)
C16 C 0.43217(17) 0.3500(3) 0.50535(19)
H23 H 0.40350 0.34340 0.55950
H24 H 0.46260 0.41510 0.51740
H25 H 0.45970 0.28160 0.50240
C17 C 0.33292(17) 0.4595(2) 0.4133(2)
H26 H 0.30430 0.46770 0.34920
H27 H 0.35670 0.53050 0.43070
H28 H 0.30390 0.44000 0.46480
C18 C 0.42467(11) 0.3784(2) 0.31177(17)
C19 C 0.49211(12) 0.3090(3) 0.3197(3)
H29 H 0.51440 0.32020 0.25950
H30 H 0.48160 0.22910 0.32670
H31 H 0.52290 0.33400 0.37780
C20 C 0.43887(13) 0.5010(2) 0.28326(18)
H32 H 0.39630 0.54440 0.27910
H33 H 0.45660 0.50230 0.21870
H34 H 0.47280 0.53410 0.33390
C21 C 0.33789(12) 0.2605(2) 0.27268(16)
H35 H 0.3000(9) 0.2061(16) 0.2375(14)
C22 C 0.2470(1) 0.12554(17) 0.55261(15)
H36 H 0.2653(8) 0.1037(14) 0.6198(14)
C23 C 0.17966(9) 0.14619(16) 0.53053(13)
C24 C 0.12694(9) 0.14116(17) 0.60632(13)
C25 C 0.06612(10) 0.06685(19) 0.56262(15)
H37 H 0.04510 0.09930 0.49970
H38 H 0.03200 0.06330 0.60970
H39 H 0.08270 -0.00910 0.55070
C26 C 0.15224(10) 0.18003(18) 0.42675(14)
C27 C 0.10114(11) 0.26068(19) 0.62752(16)
H40 H 0.08020 0.29480 0.56530
H41 H 0.13980 0.30700 0.65620
H42 H 0.06700 0.25600 0.67450
C28 C 0.15963(10) 0.08895(19) 0.70560(14)
H43 H 0.17600 0.01300 0.69340
H44 H 0.12530 0.08520 0.75230
H45 H 0.19820 0.13560 0.73390
#END
