
#######################################################################
#
#                 Cambridge Crystallographic Data Centre
#                                CCDC
#
#######################################################################
#
# If this CIF has been generated from an entry in the Cambridge
# Structural Database, then it will include bibliographic, chemical,
# crystal, experimental, refinement or atomic coordinate data resulting
# from the CCDC's data processing and validation procedures.
#
#######################################################################

data_CSD_CIF_XEMNOU
_audit_creation_date 2012-12-31
_audit_creation_method CSD-ConQuest-V1
_database_code_CSD XEMNOU
_database_code_depnum_ccdc_archive 'CCDC 884367'
_chemical_formula_sum 'C10 H12 N4 O4'
_chemical_formula_moiety
;
C10 H12 N4 O4
;
_journal_coden_Cambridge 95
_journal_year 2012
_journal_page_first 73
_journal_name_full 'Izv.Akad.Nauk SSSR,Ser.Khim.(Russ.)(Russ.Chem.Bull.) '
loop_
_publ_author_name
"S.Yu.Pechenkin"
"A.M.Starosotnikov"
"M.A.Bastrakov"
"I.V.Glukhov"
"S.A.Shevelev"
_chemical_name_systematic
;
4-Methoxy-7-methyl-8a-nitro-6,7,8,8a-tetrahydro-5aH-[1,2,5]oxadiazolo[3,4-e]is
oindole
;
_chemical_melting_point 365.15
_cell_volume   1155.359
_exptl_crystal_colour 'brown'
_exptl_crystal_density_diffrn 1.45
_exptl_special_details
;
Melting point range 365.15-367.15K

;
_diffrn_ambient_temperature 120
#These two values have been output from a single CSD field.
_refine_ls_R_factor_gt 0.0478
_refine_ls_wR_factor_gt 0.0478
_symmetry_cell_setting monoclinic
_symmetry_space_group_name_H-M 'P 21/c'
_symmetry_Int_Tables_number 14
loop_
_symmetry_equiv_pos_site_id
_symmetry_equiv_pos_as_xyz
1 x,y,z
2 -x,1/2+y,1/2-z
3 -x,-y,-z
4 x,-1/2-y,-1/2+z
_cell_length_a 8.3955(16)
_cell_length_b 14.535(3)
_cell_length_c 10.2904(19)
_cell_angle_alpha 90
_cell_angle_beta 113.063(4)
_cell_angle_gamma 90
_cell_formula_units_Z 4
loop_
_atom_type_symbol
_atom_type_radius_bond
C 0.68
H 0.23
N 0.68
O 0.68
loop_
_atom_site_label
_atom_site_type_symbol
_atom_site_fract_x
_atom_site_fract_y
_atom_site_fract_z
N1 N 0.6582(2) 0.32198(13) 0.47748(19)
O1 O 0.50270(19) 0.36299(10) 0.39123(16)
N2 N 0.4014(2) 0.30222(13) 0.28593(19)
C1 C 0.4487(2) 0.14089(15) 0.2311(2)
C2 C 0.7439(2) 0.08060(14) 0.3852(2)
H1 H 0.76410 0.02580 0.44500
C3 C 0.5655(3) 0.07297(15) 0.2718(2)
H2 H 0.53350 0.01660 0.22630
C4 C 0.8878(3) 0.08493(16) 0.3288(2)
H3 H 0.91090 0.02460 0.30000
H4 H 0.85770 0.12680 0.24940
N3 N 1.0365(2) 0.11892(12) 0.45006(18)
C5 C 0.7859(3) 0.16688(14) 0.4840(2)
C6 C 0.9671(3) 0.19732(15) 0.4995(2)
H5 H 0.96090 0.25130 0.44230
H6 H 1.03870 0.21130 0.59720
C7 C 0.6502(3) 0.23889(14) 0.4274(2)
C8 C 0.4923(3) 0.22704(14) 0.3085(2)
C9 C 1.1813(3) 0.14486(18) 0.4141(2)
H7 H 1.22280 0.09170 0.38170
H8 H 1.27260 0.16960 0.49600
H9 H 1.14420 0.19050 0.34080
O2 O 0.28822(17) 0.14039(10) 0.12637(15)
C10 C 0.2347(3) 0.05504(15) 0.0509(2)
H10 H 0.11930 0.06140 -0.01940
H11 H 0.23700 0.00710 0.11580
H12 H 0.31220 0.03970 0.00600
N4 N 0.7818(2) 0.13538(13) 0.62545(18)
O3 O 0.9169(2) 0.12057(13) 0.72448(16)
O4 O 0.6396(2) 0.12409(14) 0.62841(18)
#END
