
#######################################################################
#
#                 Cambridge Crystallographic Data Centre
#                                CCDC
#
#######################################################################
#
# If this CIF has been generated from an entry in the Cambridge
# Structural Database, then it will include bibliographic, chemical,
# crystal, experimental, refinement or atomic coordinate data resulting
# from the CCDC's data processing and validation procedures.
#
#######################################################################

data_CSD_CIF_XENGAZ
_audit_creation_date 2006-10-31
_audit_creation_method CSD-ConQuest-V1
_database_code_CSD XENGAZ
_database_code_depnum_ccdc_archive 'CCDC 621357'
_chemical_formula_sum 'C16 H14 N2 O3'
_chemical_formula_moiety
;
C16 H14 N2 O3
;
_journal_coeditor_code "IUCr HK2093"
_journal_coden_Cambridge 1370
_journal_volume 62
_journal_year 2006
_journal_page_first o3643
_journal_name_full 'Acta Crystallogr.,Sect.E:Struct.Rep.Online '
loop_
_publ_author_name
"Xiao-Yan Yang"
"Ying Li"
"Xiao-Lian He"
"Xue-Mei Li"
"Shu-Sheng Zhang"
_chemical_name_systematic
;
2-Methoxy-N-(3-(2-nitrophenyl)allylidene)aniline
;
_cell_volume   1427.127
_exptl_crystal_colour 'yellow'
_exptl_crystal_density_diffrn 1.314
_exptl_crystal_description 'block'
_exptl_crystal_preparation 'ethanol/water'
_diffrn_ambient_temperature 294
#These two values have been output from a single CSD field.
_refine_ls_R_factor_gt 0.0458
_refine_ls_wR_factor_gt 0.0458
_symmetry_cell_setting monoclinic
_symmetry_space_group_name_H-M 'P 21/c'
_symmetry_Int_Tables_number 14
loop_
_symmetry_equiv_pos_site_id
_symmetry_equiv_pos_as_xyz
1 x,y,z
2 -x,1/2+y,1/2-z
3 -x,-y,-z
4 x,-1/2-y,-1/2+z
_cell_length_a 14.0515(16)
_cell_length_b 5.0488(6)
_cell_length_c 20.118(2)
_cell_angle_alpha 90
_cell_angle_beta 90.706(2)
_cell_angle_gamma 90
_cell_formula_units_Z 4
loop_
_atom_type_symbol
_atom_type_radius_bond
C 0.68
H 0.23
N 0.68
O 0.68
loop_
_atom_site_label
_atom_site_type_symbol
_atom_site_fract_x
_atom_site_fract_y
_atom_site_fract_z
O1 O 0.2862(1) -0.1918(4) 0.41565(9)
O2 O 0.38646(11) -0.4750(3) 0.45093(7)
O3 O 0.17541(8) 0.8439(2) 0.10452(6)
N1 N 0.36702(11) -0.2717(3) 0.42192(7)
N2 N 0.19187(9) 0.5246(3) 0.20933(6)
C1 C 0.44503(11) -0.1106(3) 0.39505(7)
C2 C 0.53250(13) -0.1336(4) 0.42679(8)
H1 H 0.54110 -0.25530 0.46100
C3 C 0.60640(13) 0.0241(4) 0.40736(9)
H2 H 0.66540 0.01080 0.42860
C4 C 0.59322(12) 0.2022(4) 0.35645(9)
H3 H 0.64290 0.31180 0.34370
C5 C 0.50627(11) 0.2180(4) 0.32436(8)
H4 H 0.49910 0.33640 0.28920
C6 C 0.42849(11) 0.0634(3) 0.34249(7)
C7 C 0.33900(11) 0.0828(3) 0.30426(7)
H5 H 0.30130 -0.06830 0.30130
C8 C 0.30795(11) 0.2982(3) 0.27380(7)
H6 H 0.34360 0.45250 0.27830
C9 C 0.22210(11) 0.3082(3) 0.23400(7)
H7 H 0.18810 0.15300 0.22620
C10 C 0.10516(10) 0.5228(3) 0.17227(7)
C11 C 0.02780(11) 0.3663(4) 0.18824(8)
H8 H 0.03280 0.24930 0.22380
C12 C -0.05654(12) 0.3804(4) 0.1525(1)
H9 H -0.10770 0.27310 0.16370
C13 C -0.06419(13) 0.5534(4) 0.10058(10)
H10 H -0.12110 0.56500 0.07660
C14 C 0.01176(12) 0.7110(4) 0.08334(9)
H11 H 0.00590 0.82650 0.04750
C15 C 0.09631(10) 0.6988(3) 0.11876(7)
C16 C 0.17010(14) 1.0206(4) 0.04932(9)
H12 H 0.22980 1.11120 0.04490
H13 H 0.12040 1.14760 0.05640
H14 H 0.15660 0.92210 0.00950
#END
