
#######################################################################
#
#                 Cambridge Crystallographic Data Centre
#                                CCDC
#
#######################################################################
#
# If this CIF has been generated from an entry in the Cambridge
# Structural Database, then it will include bibliographic, chemical,
# crystal, experimental, refinement or atomic coordinate data resulting
# from the CCDC's data processing and validation procedures.
#
#######################################################################

data_CSD_CIF_XENJOQ
_audit_creation_date 2006-10-31
_audit_creation_method CSD-ConQuest-V1
_database_code_CSD XENJOQ
_database_code_depnum_ccdc_archive 'CCDC 621371'
_chemical_formula_sum 'C15 H16 N2 O5'
_chemical_formula_moiety
;
C15 H16 N2 O5
;
_journal_coeditor_code "IUCr HK2110"
_journal_coden_Cambridge 1370
_journal_volume 62
_journal_year 2006
_journal_page_first o4214
_journal_name_full 'Acta Crystallogr.,Sect.E:Struct.Rep.Online '
loop_
_publ_author_name
"V.Vrabel"
"S.Lubomir"
"V.Milata"
"J.Kozisek"
_chemical_name_systematic
;
3,5-Diacetyl-2,6-dimethyl-4-(5-nitro-2-furyl)-1,4-dihydropyridine
;
_cell_volume   1470.566
_exptl_crystal_colour 'yellow'
_exptl_crystal_density_diffrn 1.374
_exptl_special_details
;
potential drug activity

;
_exptl_crystal_description 'block'
_exptl_crystal_preparation 'ethanol'
_diffrn_ambient_temperature 301
#These two values have been output from a single CSD field.
_refine_ls_R_factor_gt 0.0496
_refine_ls_wR_factor_gt 0.0496
_symmetry_cell_setting monoclinic
_symmetry_space_group_name_H-M 'P 21/c'
_symmetry_Int_Tables_number 14
loop_
_symmetry_equiv_pos_site_id
_symmetry_equiv_pos_as_xyz
1 x,y,z
2 -x,1/2+y,1/2-z
3 -x,-y,-z
4 x,-1/2-y,-1/2+z
_cell_length_a 8.7056(7)
_cell_length_b 12.2393(9)
_cell_length_c 13.829(1)
_cell_angle_alpha 90
_cell_angle_beta 93.608(7)
_cell_angle_gamma 90
_cell_formula_units_Z 4
loop_
_atom_type_symbol
_atom_type_radius_bond
C 0.68
H 0.23
N 0.68
O 0.68
loop_
_atom_site_label
_atom_site_type_symbol
_atom_site_fract_x
_atom_site_fract_y
_atom_site_fract_z
N1 N 0.63135(17) 0.97750(11) 0.16414(10)
H1 H 0.63840 1.02840 0.20700
N2 N 0.9808(2) 0.48027(15) 0.12875(14)
C1 C 0.55200(18) 0.88509(12) 0.18539(11)
C2 C 0.56056(17) 0.79614(12) 0.12774(10)
C3 C 0.67584(17) 0.79579(12) 0.04902(11)
H2 H 0.63080 0.75560 -0.00710
C4 C 0.71488(18) 0.91069(12) 0.01682(11)
C5 C 0.70074(19) 0.99448(13) 0.07874(11)
C6 C 0.4556(2) 0.89752(15) 0.27033(14)
H3 H 0.42770 0.97290 0.27710
H4 H 0.51310 0.87360 0.32800
H5 H 0.36420 0.85410 0.26040
C7 C 0.46860(18) 0.69858(12) 0.14135(11)
C8 C 0.4338(2) 0.62392(15) 0.05751(14)
H6 H 0.35510 0.57320 0.07320
H7 H 0.52520 0.58460 0.04350
H8 H 0.39880 0.66600 0.00180
C9 C 0.82001(18) 0.73863(13) 0.08548(11)
C10 C 0.9580(2) 0.77283(15) 0.12357(14)
H9 H 0.98970 0.84500 0.13190
C11 C 1.0450(2) 0.67896(16) 0.14836(15)
H10 H 1.14490 0.67640 0.17640
C12 C 0.9546(2) 0.59436(15) 0.12325(13)
C13 C 0.7779(2) 0.92406(14) -0.07884(12)
C14 C 0.7787(3) 0.82811(18) -0.14525(14)
H11 H 0.82680 0.84810 -0.20330
H12 H 0.67470 0.80520 -0.16150
H13 H 0.83490 0.76930 -0.11380
C15 C 0.7507(3) 1.11024(14) 0.06494(15)
H14 H 0.71510 1.15480 0.11610
H15 H 0.70800 1.13680 0.00370
H16 H 0.86100 1.11330 0.06610
O1 O 0.41691(15) 0.67584(10) 0.21959(9)
O2 O 0.81471(13) 0.62628(9) 0.08497(8)
O3 O 0.8784(2) 0.41778(14) 0.10181(16)
O4 O 1.1090(2) 0.45193(16) 0.16101(16)
O5 O 0.8286(2) 1.01024(13) -0.10667(11)
#END
