
#######################################################################
#
#                 Cambridge Crystallographic Data Centre
#                                CCDC
#
#######################################################################
#
# If this CIF has been generated from an entry in the Cambridge
# Structural Database, then it will include bibliographic, chemical,
# crystal, experimental, refinement or atomic coordinate data resulting
# from the CCDC's data processing and validation procedures.
#
#######################################################################

data_CSD_CIF_XENQOZ
_audit_creation_date 2017-11-18
_audit_creation_method CSD-ConQuest-V1
_database_code_CSD XENQOZ
_database_code_depnum_ccdc_archive 'CCDC 1583527'
_chemical_formula_sum 'C30 H22 N2 O6'
_chemical_formula_moiety
;
C30 H22 N2 O6
;
_journal_coeditor_code "ex2002"
_journal_coden_Cambridge 1828
_journal_volume 73
_journal_year 2017
_journal_page_first 1866
_journal_name_full 'Acta Crystallogr.,Sect.E:Cryst.Commun. '
loop_
_publ_author_name
"M.Velasco Ximello"
"S.Bernes"
"A.Perez-Benitez"
"U.Hernandez Pareja"
"A.Mendoza"
"J.R.Juarez Posadas"
"J.Vazquez Bravo"
_chemical_name_systematic
;
[3,4-bis(2-nitrophenyl)cyclobutane-1,2-diyl]bis(phenylmethanone)
;
_chemical_melting_point 517
_cell_volume   1254.132
_exptl_crystal_colour 'colorless'
_exptl_crystal_density_diffrn 1.341
_exptl_crystal_description 'prism'
_diffrn_ambient_temperature 295
_refine_special_details
;
O1A,O2A and O1B,O2B disordered over two sites with occupancies 0.876:0.124.

;
#These two values have been output from a single CSD field.
_refine_ls_R_factor_gt 0.0533
_refine_ls_wR_factor_gt 0.0533
_symmetry_cell_setting triclinic
_symmetry_space_group_name_H-M 'P -1'
_symmetry_Int_Tables_number 2
loop_
_symmetry_equiv_pos_site_id
_symmetry_equiv_pos_as_xyz
1 x,y,z
2 -x,-y,-z
_cell_length_a 7.2599(5)
_cell_length_b 10.5614(5)
_cell_length_c 16.7351(8)
_cell_angle_alpha 78.863(4)
_cell_angle_beta 87.472(5)
_cell_angle_gamma 85.238(5)
_cell_formula_units_Z 2
loop_
_atom_type_symbol
_atom_type_radius_bond
C 0.68
H 0.23
N 0.68
O 0.68
loop_
_atom_site_label
_atom_site_type_symbol
_atom_site_fract_x
_atom_site_fract_y
_atom_site_fract_z
C1 C 0.6552(3) 0.64030(16) 0.23390(11)
H1 H 0.54831 0.69489 0.20985
C2 C 0.6594(3) 0.63982(16) 0.32828(11)
H2 H 0.55814 0.69916 0.34292
C3 C 0.8388(3) 0.71065(17) 0.31510(11)
H3 H 0.94269 0.65043 0.33683
C4 C 0.8326(3) 0.71816(17) 0.22142(11)
H4 H 0.93866 0.66893 0.20092
C5 C 0.6680(3) 0.51217(17) 0.20721(11)
C6 C 0.5325(3) 0.4711(2) 0.16339(15)
C7 C 0.5406(5) 0.3472(3) 0.1475(2)
H5 H 0.44764 0.32254 0.11857
C8 C 0.6849(5) 0.2614(3) 0.1744(2)
H6 H 0.69002 0.17755 0.16437
C9 C 0.8229(5) 0.2982(2) 0.21645(17)
H7 H 0.92249 0.23982 0.23410
C10 C 0.8140(3) 0.4216(2) 0.23247(13)
H8 H 0.90860 0.44516 0.26105
C11 C 0.6561(3) 0.51184(17) 0.38742(11)
C12 C 0.5073(3) 0.43324(18) 0.39869(12)
C13 C 0.5125(3) 0.3138(2) 0.45159(13)
H9 H 0.41093 0.26432 0.45696
C14 C 0.6658(4) 0.2693(2) 0.49537(13)
H10 H 0.67017 0.18949 0.53068
C15 C 0.8138(3) 0.3437(2) 0.48669(14)
H11 H 0.91955 0.31413 0.51617
C16 C 0.8071(3) 0.4627(2) 0.43438(13)
H12 H 0.90881 0.51174 0.43064
C17 C 0.8343(3) 0.83090(18) 0.35266(11)
C18 C 0.9976(3) 0.91010(17) 0.34225(11)
C19 C 0.9958(3) 1.0116(2) 0.38363(15)
H13 H 0.89206 1.03122 0.41487
C20 C 1.1465(4) 1.0838(3) 0.37887(18)
H14 H 1.14419 1.15159 0.40710
C21 C 1.3000(4) 1.0563(3) 0.33276(17)
H15 H 1.40145 1.10546 0.32971
C22 C 1.3038(3) 0.9565(2) 0.29124(15)
H16 H 1.40799 0.93788 0.25997
C23 C 1.1527(3) 0.8830(2) 0.29563(13)
H17 H 1.15568 0.81534 0.26720
C24 C 0.7924(3) 0.84768(18) 0.16696(12)
C25 C 0.8062(3) 0.85576(19) 0.07748(12)
C26 C 0.7499(3) 0.9703(2) 0.02607(14)
H18 H 0.70360 1.04117 0.04818
C27 C 0.7615(4) 0.9808(3) -0.05686(15)
H19 H 0.72360 1.05850 -0.09056
C28 C 0.8287(4) 0.8769(3) -0.09014(15)
H20 H 0.83645 0.88434 -0.14645
C29 C 0.8843(4) 0.7627(3) -0.04106(15)
H21 H 0.92940 0.69234 -0.06392
C30 C 0.8737(4) 0.7515(2) 0.04271(14)
H22 H 0.91198 0.67340 0.07596
N1 N 0.3729(4) 0.5581(3) 0.13166(19)
O1 O 0.3951(6) 0.6676(4) 0.1010(3)
O2 O 0.2222(4) 0.5095(3) 0.1392(2)
N2 N 0.3353(2) 0.47251(18) 0.35551(12)
O3 O 0.2211(3) 0.3957(2) 0.3593(2)
O4 O 0.3067(2) 0.58039(15) 0.31765(11)
O5 O 0.7042(2) 0.85530(15) 0.39699(10)
O6 O 0.7394(2) 0.94134(13) 0.19653(9)
O7? O 0.307(5) 0.642(4) 0.154(3)
O8? O 0.360(5) 0.567(3) 0.0504(17)
#END
