
#######################################################################
#
#                 Cambridge Crystallographic Data Centre
#                                CCDC
#
#######################################################################
#
# If this CIF has been generated from an entry in the Cambridge
# Structural Database, then it will include bibliographic, chemical,
# crystal, experimental, refinement or atomic coordinate data resulting
# from the CCDC's data processing and validation procedures.
#
#######################################################################

data_CSD_CIF_XENXUM
_audit_creation_date 2017-11-18
_audit_creation_method CSD-ConQuest-V1
_database_code_CSD XENXUM
_database_code_depnum_ccdc_archive 'CCDC 1492206'
_chemical_formula_sum 'C21 H33 N1 O6'
_chemical_formula_moiety
;
C21 H33 N1 O6
;
_journal_coden_Cambridge 179
_journal_volume 56
_journal_year 2017
_journal_page_first 12586
_journal_name_full 'Angew.Chem.,Int.Ed. '
loop_
_publ_author_name
"O.Hylse"
"L.Maier"
"R.Kucera"
"T.Perecko"
"A.Svobodova"
"L.Kubala"
"K.Paruch"
"J.Svenda"
_chemical_name_systematic
;
2,2,4,5a,9,9-hexamethyl-5-(3-methyl-1,2-oxazol-5-yl)decahydronaphtho[1,2-d][1,
3]dioxole-4,5,6-triol
;
_cell_volume   2026.821
_exptl_crystal_density_diffrn 1.296
_exptl_crystal_description 'block'
_diffrn_ambient_temperature 120
#These two values have been output from a single CSD field.
_refine_ls_R_factor_gt 0.0253
_refine_ls_wR_factor_gt 0.0253
_symmetry_cell_setting orthorhombic
_symmetry_space_group_name_H-M 'P n a 21'
_symmetry_Int_Tables_number 33
loop_
_symmetry_equiv_pos_site_id
_symmetry_equiv_pos_as_xyz
1 x,y,z
2 -x,-y,1/2+z
3 1/2+x,1/2-y,z
4 1/2-x,1/2+y,1/2+z
_cell_length_a 14.7321(2)
_cell_length_b 13.4832(1)
_cell_length_c 10.2037(1)
_cell_angle_alpha 90
_cell_angle_beta 90
_cell_angle_gamma 90
_cell_formula_units_Z 4
loop_
_atom_type_symbol
_atom_type_radius_bond
C 0.68
H 0.23
N 0.68
O 0.68
loop_
_atom_site_label
_atom_site_type_symbol
_atom_site_fract_x
_atom_site_fract_y
_atom_site_fract_z
O1 O 0.93171(8) 0.50683(9) 0.46830(13)
O2 O 0.81189(8) 0.43710(9) 0.57596(13)
O3 O 0.71599(10) 0.82114(9) 0.62691(14)
O4 O 0.72389(8) 0.68864(9) 0.31856(11)
H1 H 0.66880 0.69780 0.30130
O5 O 0.88886(8) 0.72342(9) 0.38198(13)
H2 H 0.85900 0.73150 0.31260
O6 O 0.55520(8) 0.68534(9) 0.37786(13)
H3 H 0.50520 0.71500 0.37260
N1 N 0.70767(14) 0.92560(12) 0.63759(18)
C1 C 0.73667(11) 0.68938(12) 0.45845(17)
C2 C 0.83933(11) 0.65884(12) 0.46936(18)
C3 C 0.85065(11) 0.55129(13) 0.41745(16)
H4 H 0.85560 0.55390 0.31980
C4 C 0.90673(12) 0.42517(14) 0.5522(2)
C5 C 0.77741(11) 0.47602(12) 0.45349(17)
H5 H 0.78030 0.42130 0.38750
C6 C 0.68006(11) 0.51385(12) 0.45569(17)
H6 H 0.66850 0.53120 0.36190
C7 C 0.60755(11) 0.43169(12) 0.48398(18)
C8 C 0.51362(11) 0.47931(13) 0.46372(18)
H7 H 0.50600 0.49530 0.36970
H8 H 0.46630 0.43050 0.48770
C9 C 0.49912(11) 0.57351(14) 0.54383(18)
H9 H 0.50290 0.55730 0.63830
H10 H 0.43760 0.59990 0.52620
C10 C 0.56959(11) 0.65293(14) 0.51089(18)
H11 H 0.56040 0.71070 0.57080
C11 C 0.66859(12) 0.61479(13) 0.52702(16)
C12 C 0.72366(11) 0.79724(13) 0.49898(18)
C13 C 0.71065(13) 0.95858(14) 0.51809(19)
C14 C 0.72053(12) 0.88054(14) 0.42587(19)
H12 H 0.72410 0.88580 0.33320
C15 C 0.88327(12) 0.67543(14) 0.60246(17)
H13 H 0.94870 0.66330 0.59590
H14 H 0.85670 0.62980 0.66660
H15 H 0.87270 0.74400 0.63060
C16 C 0.92602(14) 0.32816(15) 0.4800(3)
H16 H 0.89190 0.32690 0.39750
H17 H 0.90740 0.27210 0.53480
H18 H 0.99110 0.32330 0.46130
C17 C 0.95783(14) 0.43148(17) 0.6794(2)
H19 H 0.94020 0.49200 0.72600
H20 H 1.02320 0.43300 0.66160
H21 H 0.94350 0.37350 0.73350
C18 C 0.61872(12) 0.34985(14) 0.3807(2)
H22 H 0.56410 0.30840 0.37920
H23 H 0.67150 0.30890 0.40270
H24 H 0.62760 0.38010 0.29430
C19 C 0.61268(12) 0.38203(14) 0.61960(19)
H25 H 0.56640 0.33010 0.62560
H26 H 0.60200 0.43180 0.68790
H27 H 0.67290 0.35260 0.63170
C20 C 0.68554(12) 0.60693(13) 0.67657(17)
H28 H 0.62910 0.58800 0.72070
H29 H 0.70620 0.67120 0.71010
H30 H 0.73210 0.55660 0.69350
C21 C 0.70424(17) 1.06832(14) 0.4943(2)
H31 H 0.70210 1.10320 0.57850
H32 H 0.64900 1.08290 0.44440
H33 H 0.75740 1.09050 0.44460
#END
