
#######################################################################
#
#                 Cambridge Crystallographic Data Centre
#                                CCDC
#
#######################################################################
#
# If this CIF has been generated from an entry in the Cambridge
# Structural Database, then it will include bibliographic, chemical,
# crystal, experimental, refinement or atomic coordinate data resulting
# from the CCDC's data processing and validation procedures.
#
#######################################################################

data_CSD_CIF_XEPBIG
_audit_creation_date 2017-11-20
_audit_creation_method CSD-ConQuest-V1
_database_code_CSD XEPBIG
_database_code_depnum_ccdc_archive 'CCDC 1586477'
_chemical_formula_sum 'C29 H24 N4 O4'
_chemical_formula_moiety
;
C29 H24 N4 O4
;
_journal_coden_Cambridge 1563
_journal_volume 9
_journal_year 2017
_journal_page_first 50
_journal_name_full 'Der Pharma Chemica: J. Med. Chem. Pharm. Chem. Comput. Chem '
loop_
_publ_author_name
"Asma"
"B.Kalluraya"
"Manju N."
_chemical_name_systematic
;
4-{3-[3-methyl-5-(2-methylphenoxy)-1-phenyl-1H-pyrazol-4-yl]acryloyl}-3-(4-met
hylphenyl)-1,2,3-oxadiazol-3-ium-5-olate
;
_cell_volume   2473.602
_exptl_crystal_colour 'yellow'
_exptl_crystal_density_diffrn 1.323
_exptl_special_details
;
tested for 2,2-diphenyl-1-picrylhydrazyl (DPPH) radical scavenging activity

;
_diffrn_ambient_temperature 293
#These two values have been output from a single CSD field.
_refine_ls_R_factor_gt 0.0816
_refine_ls_wR_factor_gt 0.0816
_symmetry_cell_setting monoclinic
_symmetry_space_group_name_H-M 'P 21/c'
_symmetry_Int_Tables_number 14
loop_
_symmetry_equiv_pos_site_id
_symmetry_equiv_pos_as_xyz
1 x,y,z
2 -x,1/2+y,1/2-z
3 -x,-y,-z
4 x,-1/2-y,-1/2+z
_cell_length_a 12.9021(10)
_cell_length_b 7.6076(8)
_cell_length_c 25.311(2)
_cell_angle_alpha 90
_cell_angle_beta 95.338(8)
_cell_angle_gamma 90
_cell_formula_units_Z 4
loop_
_atom_type_symbol
_atom_type_radius_bond
C 0.68
H 0.23
N 0.68
O 0.68
loop_
_atom_site_label
_atom_site_type_symbol
_atom_site_fract_x
_atom_site_fract_y
_atom_site_fract_z
O1 O 0.31433(19) 0.0217(3) 0.18877(9)
O2 O 0.63255(19) 0.1921(4) 0.08536(10)
O3 O 0.6116(2) 0.4001(4) -0.08393(10)
O4 O 0.4513(2) 0.3035(4) -0.06816(10)
N1 N 0.1650(2) 0.0003(4) 0.12761(11)
N2 N 0.1377(2) 0.0174(4) 0.07390(11)
N3 N 0.6958(2) 0.3716(4) -0.00806(11)
N4 N 0.7059(2) 0.4272(5) -0.05598(13)
C1 C 0.1065(3) -0.1181(5) 0.20970(15)
H1 H 0.17500 -0.14160 0.22260
C2 C 0.0254(4) -0.1607(6) 0.23964(18)
H2 H 0.03960 -0.21210 0.27290
C3 C -0.0759(4) -0.1272(6) 0.22040(19)
H3 H -0.13010 -0.15560 0.24070
C4 C -0.0970(3) -0.0522(6) 0.17150(18)
H4 H -0.16560 -0.03090 0.15840
C5 C -0.0174(3) -0.0082(5) 0.14165(16)
H5 H -0.03210 0.04350 0.10850
C6 C 0.0848(3) -0.0407(5) 0.16076(14)
C7 C 0.2241(3) 0.0628(4) 0.05296(13)
C8 C 0.2185(3) 0.0987(5) -0.00512(13)
H6 H 0.26190 0.01660 -0.02160
H7 H 0.24210 0.21620 -0.01090
H8 H 0.14780 0.08640 -0.02030
C9 C 0.3094(3) 0.0726(5) 0.09209(13)
C10 C 0.2678(3) 0.0324(4) 0.13860(13)
C11 C 0.3325(2) 0.1770(5) 0.21764(13)
C12 C 0.3208(3) 0.3413(5) 0.19542(15)
H9 H 0.30030 0.35320 0.15940
C13 C 0.3397(3) 0.4896(6) 0.22681(18)
H10 H 0.33170 0.60120 0.21200
C14 C 0.3703(3) 0.4702(6) 0.27970(18)
H11 H 0.38280 0.56890 0.30100
C15 C 0.3827(3) 0.3056(6) 0.30140(16)
H12 H 0.40340 0.29480 0.33740
C16 C 0.3652(3) 0.1548(5) 0.27124(14)
C17 C 0.3796(3) -0.0260(6) 0.29505(16)
H13 H 0.31280 -0.07980 0.29720
H14 H 0.41510 -0.01690 0.33000
H15 H 0.42000 -0.09660 0.27310
C18 C 0.4170(3) 0.1168(5) 0.08841(14)
H16 H 0.46210 0.10090 0.11890
C19 C 0.4586(3) 0.1780(5) 0.04600(14)
H17 H 0.41620 0.19320 0.01450
C20 C 0.5696(3) 0.2221(5) 0.04744(14)
C21 C 0.5987(3) 0.3096(5) -0.00067(13)
C22 C 0.5403(3) 0.3305(5) -0.04999(14)
C23 C 0.7872(3) 0.3918(5) 0.02890(14)
C24 C 0.8804(3) 0.3329(5) 0.01359(15)
H18 H 0.88370 0.27500 -0.01860
C25 C 0.9689(3) 0.3620(5) 0.04726(16)
H19 H 1.03250 0.32220 0.03740
C26 C 0.9664(3) 0.4479(5) 0.09491(15)
C27 C 0.8704(3) 0.5042(5) 0.10886(16)
H20 H 0.86680 0.56100 0.14120
C28 C 0.7807(3) 0.4783(5) 0.07636(15)
H21 H 0.71700 0.51820 0.08610
C29 C 1.0642(3) 0.4766(6) 0.13048(18)
H22 H 1.08840 0.36620 0.14540
H23 H 1.05050 0.55580 0.15850
H24 H 1.11660 0.52610 0.11040
#END
