
#######################################################################
#
#                 Cambridge Crystallographic Data Centre
#                                CCDC
#
#######################################################################
#
# If this CIF has been generated from an entry in the Cambridge
# Structural Database, then it will include bibliographic, chemical,
# crystal, experimental, refinement or atomic coordinate data resulting
# from the CCDC's data processing and validation procedures.
#
#######################################################################

data_CSD_CIF_XEPYUN
_audit_creation_date 2007-02-02
_audit_creation_method CSD-ConQuest-V1
_database_code_CSD XEPYUN
_database_code_depnum_ccdc_archive 'CCDC 277671'
_chemical_formula_sum 'C13 H15 N1 O7'
_chemical_formula_moiety
;
C13 H15 N1 O7
;
_journal_coden_Cambridge 182
_journal_year 2006
_journal_page_first 4239
_journal_name_full 'Chem.Commun. '
loop_
_publ_author_name
"J.C.Ortiz"
"L.Ozores"
"F.Cagide-Fagin"
"R.Alonso"
_chemical_name_systematic
;
6-Hydroxy-3,3-dimethyl-7-nitro-8-(furan-2-yl)-2,4-dioxabicyclo(3.3.1)nonan-9-o
ne
;
_cell_volume   1411.487
_exptl_crystal_colour 'colorless'
_exptl_crystal_density_diffrn 1.399
_exptl_crystal_description 'prism'
_diffrn_ambient_temperature 293
#These two values have been output from a single CSD field.
_refine_ls_R_factor_gt 0.0469
_refine_ls_wR_factor_gt 0.0469
_symmetry_cell_setting orthorhombic
_symmetry_space_group_name_H-M 'P n a 21'
_symmetry_Int_Tables_number 33
loop_
_symmetry_equiv_pos_site_id
_symmetry_equiv_pos_as_xyz
1 x,y,z
2 -x,-y,1/2+z
3 1/2-x,1/2+y,1/2+z
4 1/2+x,1/2-y,z
_cell_length_a 18.300(4)
_cell_length_b 6.1987(18)
_cell_length_c 12.443(4)
_cell_angle_alpha 90
_cell_angle_beta 90
_cell_angle_gamma 90
_cell_formula_units_Z 4
loop_
_atom_type_symbol
_atom_type_radius_bond
C 0.68
H 0.23
N 0.68
O 0.68
loop_
_atom_site_label
_atom_site_type_symbol
_atom_site_fract_x
_atom_site_fract_y
_atom_site_fract_z
O1 O 0.47031(17) 0.8925(5) 0.6048(3)
C1 C 0.4044(3) 0.8452(8) 0.6618(4)
O2 O 0.42139(18) 0.7918(5) 0.7705(3)
C2 C 0.4629(3) 0.9482(7) 0.8288(4)
H1 H 0.43530 1.00220 0.89070
C3 C 0.4863(3) 1.1313(7) 0.7565(4)
C4 C 0.5156(3) 1.0526(8) 0.6524(4)
H2 H 0.52270 1.17340 0.60270
C5 C 0.5343(3) 0.8408(8) 0.8646(4)
H3 H 0.56360 0.94880 0.90270
C6 C 0.5769(3) 0.7692(8) 0.7656(4)
H4 H 0.55000 0.65180 0.73070
C7 C 0.5908(3) 0.9484(8) 0.6818(4)
H5 H 0.62140 1.05940 0.71520
N1 N 0.6501(3) 0.6833(9) 0.8024(4)
O3 O 0.6620(3) 0.4915(8) 0.7899(5)
O4 O 0.6920(3) 0.8071(9) 0.8441(5)
C8 C 0.6302(3) 0.8622(9) 0.5861(4)
C9 C 0.6818(3) 0.9552(13) 0.5294(6)
H6 H 0.70160 1.09190 0.53960
C10 C 0.7013(4) 0.801(2) 0.4479(6)
H7 H 0.73760 0.81970 0.39660
C11 C 0.6607(5) 0.6346(18) 0.4572(6)
H8 H 0.66230 0.51310 0.41340
O5 O 0.6134(3) 0.6655(9) 0.5445(4)
O6 O 0.5218(2) 0.6680(6) 0.9347(3)
O7 O 0.4926(2) 1.3164(5) 0.7882(4)
C12 C 0.3762(3) 0.6381(10) 0.6123(6)
H9 H 0.33080 0.59890 0.64580
H10 H 0.41130 0.52510 0.62310
H11 H 0.36860 0.65900 0.53670
C13 C 0.3492(3) 1.0269(10) 0.6534(5)
H12 H 0.36940 1.15590 0.68390
H13 H 0.30560 0.98810 0.69170
H14 H 0.33750 1.05170 0.57920
H15 H 0.507(4) 0.565(11) 0.883(6)
#END
