
#######################################################################
#
#                 Cambridge Crystallographic Data Centre
#                                CCDC
#
#######################################################################
#
# If this CIF has been generated from an entry in the Cambridge
# Structural Database, then it will include bibliographic, chemical,
# crystal, experimental, refinement or atomic coordinate data resulting
# from the CCDC's data processing and validation procedures.
#
#######################################################################

data_CSD_CIF_XEQHUX
_audit_creation_date 2007-02-02
_audit_creation_method CSD-ConQuest-V1
_database_code_CSD XEQHUX
_database_code_depnum_ccdc_archive 'CCDC 611561'
_chemical_formula_sum 'C22 H23 N1 O3'
_chemical_formula_moiety
;
C22 H23 N1 O3
;
_journal_coden_Cambridge 179
_journal_volume 45
_journal_year 2006
_journal_page_first 6842
_journal_name_full 'Angew.Chem.,Int.Ed. '
loop_
_publ_author_name
"T.Hamura"
"T.Arisawa"
"T.Matsumoto"
"K.Suzuki"
_chemical_name_systematic
;
6-t-Butyl-9-methoxy-7-phenyl-5,14-dioxa-6-azatetracyclo(9.2.1.0^2,10^.0^4,8^)t
etradeca-2(10),3,8,12-tetraene
;
_cell_volume   1835.750
_exptl_crystal_colour 'colorless'
_exptl_crystal_density_diffrn 1.264
_exptl_crystal_description 'block'
_diffrn_ambient_temperature 173
#These two values have been output from a single CSD field.
_refine_ls_R_factor_gt 0.0432
_refine_ls_wR_factor_gt 0.0432
_symmetry_cell_setting monoclinic
_symmetry_space_group_name_H-M 'P 21/n'
_symmetry_Int_Tables_number 14
loop_
_symmetry_equiv_pos_site_id
_symmetry_equiv_pos_as_xyz
1 x,y,z
2 1/2-x,1/2+y,1/2-z
3 -x,-y,-z
4 -1/2+x,-1/2-y,-1/2+z
_cell_length_a 8.5401(9)
_cell_length_b 8.0357(8)
_cell_length_c 26.763(3)
_cell_angle_alpha 90
_cell_angle_beta 91.773(2)
_cell_angle_gamma 90
_cell_formula_units_Z 4
loop_
_atom_type_symbol
_atom_type_radius_bond
C 0.68
H 0.23
N 0.68
O 0.68
loop_
_atom_site_label
_atom_site_type_symbol
_atom_site_fract_x
_atom_site_fract_y
_atom_site_fract_z
O1 O 0.54564(10) 0.03070(13) 0.17240(3)
O2 O 0.49773(11) -0.39953(12) 0.06664(3)
O3 O 1.01085(10) 0.06699(12) 0.09026(3)
N1 N 1.01469(11) 0.18468(14) 0.13350(4)
C1 C 0.86573(12) 0.15671(15) 0.16096(4)
H1 H 0.80690 0.26370 0.16380
C2 C 0.77536(13) 0.03750(15) 0.12765(4)
C3 C 0.62336(13) -0.02837(16) 0.13254(4)
C4 C 0.57384(14) -0.14439(16) 0.09724(4)
C5 C 0.42569(15) -0.25208(18) 0.08667(5)
H2 H 0.35670 -0.27020 0.11570
C6 C 0.34552(17) -0.1803(2) 0.03949(6)
H3 H 0.24930 -0.12110 0.03720
C7 C 0.43894(18) -0.2183(2) 0.00259(5)
H4 H 0.42400 -0.19130 -0.03180
C8 C 0.57607(17) -0.31453(19) 0.02683(5)
H5 H 0.63690 -0.38660 0.00400
C9 C 0.67193(15) -0.18764(16) 0.05801(5)
C10 C 0.81997(15) -0.12299(17) 0.05212(5)
H6 H 0.88450 -0.15370 0.02530
C11 C 0.86678(13) -0.00838(16) 0.08898(5)
C12 C 0.90412(13) 0.08748(15) 0.21264(4)
C13 C 0.83370(16) 0.15249(18) 0.25445(5)
H7 H 0.76110 0.24160 0.25070
C14 C 0.8686(2) 0.0881(2) 0.30166(5)
H8 H 0.81890 0.13260 0.33000
C15 C 0.9743(2) -0.0390(2) 0.30761(6)
H9 H 0.99840 -0.08220 0.34000
C16 C 1.04594(18) -0.1045(2) 0.26619(7)
H10 H 1.12010 -0.19200 0.27030
C17 C 1.00995(15) -0.04307(17) 0.21893(5)
H11 H 1.05770 -0.09020 0.19060
C18 C 1.03043(16) 0.35448(18) 0.11133(5)
C19 C 0.39211(15) -0.0315(2) 0.18126(6)
H12 H 0.32330 -0.00890 0.15210
H13 H 0.35040 0.02350 0.21070
H14 H 0.39740 -0.15180 0.18710
C20 C 1.04738(19) 0.4747(2) 0.15569(6)
H15 H 0.95010 0.47530 0.17420
H16 H 1.06850 0.58700 0.14340
H17 H 1.13430 0.43850 0.17790
C21 C 1.1834(2) 0.3547(2) 0.08320(6)
H18 H 1.27010 0.32240 0.10600
H19 H 1.20270 0.46650 0.07010
H20 H 1.17550 0.27540 0.05540
C22 C 0.8925(2) 0.4046(2) 0.07666(6)
H21 H 0.88290 0.32530 0.04890
H22 H 0.91050 0.51650 0.06350
H23 H 0.79580 0.40410 0.09540
#END
