
#######################################################################
#
#                 Cambridge Crystallographic Data Centre
#                                CCDC
#
#######################################################################
#
# If this CIF has been generated from an entry in the Cambridge
# Structural Database, then it will include bibliographic, chemical,
# crystal, experimental, refinement or atomic coordinate data resulting
# from the CCDC's data processing and validation procedures.
#
#######################################################################

data_CSD_CIF_XEQTOE
_audit_creation_date 2013-04-04
_audit_creation_method CSD-ConQuest-V1
_database_code_CSD XEQTOE
_database_code_depnum_ccdc_archive 'CCDC 846886'
_chemical_formula_sum 'C11 H13 N5 O3'
_chemical_formula_moiety
;
C11 H13 N5 O3
;
_journal_coden_Cambridge 222
_journal_volume 42
_journal_year 2013
_journal_page_first 530
_journal_name_full 'Dalton Trans. '
loop_
_publ_author_name
"S.B.Jimenez-Pulido"
"F.Hueso-Urena"
"M.P.Fernandez-Liencres"
"M.Fernandez-Gomez"
"M.N.Moreno-Carretero"
_chemical_name_systematic
;
6-(N-Hydroxyethanimidoyl)-1,3,7-trimethylpteridine-2,4(1H,3H)-dione
;
_cell_volume    557.990
_exptl_crystal_colour 'yellow'
_exptl_crystal_density_diffrn 1.567
_exptl_special_details
;
Study temperature given as 293 K and 77 K in the CIF and 293 K in the paper

;
_exptl_crystal_description 'prism'
_diffrn_ambient_temperature 293
#These two values have been output from a single CSD field.
_refine_ls_R_factor_gt 0.0766
_refine_ls_wR_factor_gt 0.0766
_symmetry_cell_setting triclinic
_symmetry_space_group_name_H-M 'P -1'
_symmetry_Int_Tables_number 2
loop_
_symmetry_equiv_pos_site_id
_symmetry_equiv_pos_as_xyz
1 x,y,z
2 -x,-y,-z
_cell_length_a 8.140(3)
_cell_length_b 8.3040(15)
_cell_length_c 9.365(5)
_cell_angle_alpha 94.10(2)
_cell_angle_beta 106.43(3)
_cell_angle_gamma 110.59(2)
_cell_formula_units_Z 2
loop_
_atom_type_symbol
_atom_type_radius_bond
C 0.68
H 0.23
N 0.68
O 0.68
loop_
_atom_site_label
_atom_site_type_symbol
_atom_site_fract_x
_atom_site_fract_y
_atom_site_fract_z
O1 O 0.4238(3) 0.0571(3) 0.8424(3)
N1 N 0.3456(4) -0.1425(3) 0.6329(3)
N2 N 0.6411(4) -0.2712(3) 0.4658(3)
C1 C 0.5870(5) -0.1940(4) 0.5631(4)
N3 N 0.2681(4) -0.3387(3) 0.4138(3)
O2 O 0.8906(3) -0.0455(3) 0.7344(3)
N4 N 0.6583(4) 0.0065(3) 0.7878(3)
C2 C 0.7264(5) -0.0757(4) 0.6988(4)
O3 O 0.5839(4) -0.6600(4) 0.0769(3)
C3 C 0.4007(5) -0.2267(4) 0.5359(4)
C4 C 0.5134(5) -0.3821(4) 0.3441(4)
C5 C 0.4735(5) -0.0216(4) 0.7602(4)
C6 C 0.3231(5) -0.4185(4) 0.3178(4)
N5 N 0.4887(4) -0.6081(4) 0.1631(3)
C7 C 0.5894(5) -0.4554(4) 0.2422(4)
C8 C 0.7947(5) 0.1265(5) 0.9263(4)
H1 H 0.83110 0.06040 1.00030
H2 H 0.74080 0.19790 0.96550
H3 H 0.90180 0.20000 0.90420
C9 C 0.1696(5) -0.5428(5) 0.1832(4)
H4 H 0.15350 -0.66090 0.19400
H5 H 0.20040 -0.52020 0.09290
H6 H 0.05640 -0.52710 0.17600
C10 C 0.1488(5) -0.1795(5) 0.6044(4)
H7 H 0.10580 -0.12370 0.52370
H8 H 0.13240 -0.13520 0.69460
H9 H 0.07890 -0.30370 0.57600
C11 C 0.7754(5) -0.3476(5) 0.2368(4)
H10 H 0.86270 -0.39710 0.28370
H11 H 0.81470 -0.23030 0.29020
H12 H 0.76940 -0.34550 0.13310
H13 H 0.495(9) -0.777(9) 0.004(8)
#END
