
#######################################################################
#
#                 Cambridge Crystallographic Data Centre
#                                CCDC
#
#######################################################################
#
# If this CIF has been generated from an entry in the Cambridge
# Structural Database, then it will include bibliographic, chemical,
# crystal, experimental, refinement or atomic coordinate data resulting
# from the CCDC's data processing and validation procedures.
#
#######################################################################

data_CSD_CIF_XEQYUO
_audit_creation_date 2007-02-02
_audit_creation_method CSD-ConQuest-V1
_database_code_CSD XEQYUO
_database_code_depnum_ccdc_archive 'CCDC 286059'
_chemical_formula_sum 'C17 H18 N2 O4'
_chemical_formula_moiety
;
C17 H18 N2 O4
;
_journal_coden_Cambridge 1003
_journal_volume 36
_journal_year 2006
_journal_page_first 551
_journal_name_full 'J.Chem.Cryst. '
loop_
_publ_author_name
"C.A.De Simone"
"R.P.Silva"
"M.O.F.Goulart"
"R.S.F.Silva"
"A.P.G.Lobato"
"M.do Carmo F.R.Pinto"
"A.V.Pinto"
_chemical_name_systematic
;
5-(3-Hydroxy-3-methylbutyl)-5-hydroxybenzo(f)quinoxalin-6(5H)-one-4-N-oxide
;
_cell_volume   1508.089
_exptl_crystal_colour 'colorless'
_exptl_crystal_description 'prism'
_diffrn_ambient_temperature 293
#These two values have been output from a single CSD field.
_refine_ls_R_factor_gt 0.06
_refine_ls_wR_factor_gt 0.06
_symmetry_cell_setting orthorhombic
_symmetry_space_group_name_H-M 'P 21 21 2'
_symmetry_Int_Tables_number 18
loop_
_symmetry_equiv_pos_site_id
_symmetry_equiv_pos_as_xyz
1 x,y,z
2 -x,-y,z
3 1/2+x,1/2-y,-z
4 1/2-x,1/2+y,-z
_cell_length_a 15.8800(5)
_cell_length_b 16.9980(17)
_cell_length_c 5.5870(19)
_cell_angle_alpha 90
_cell_angle_beta 90
_cell_angle_gamma 90
_cell_formula_units_Z 4
loop_
_atom_type_symbol
_atom_type_radius_bond
C 0.68
H 0.23
N 0.68
O 0.68
loop_
_atom_site_label
_atom_site_type_symbol
_atom_site_fract_x
_atom_site_fract_y
_atom_site_fract_z
O1 O 0.11686(16) 0.31500(17) 0.4933(4)
O2 O 0.19172(17) 0.21857(17) 0.1923(6)
C1 C -0.0618(2) 0.2287(2) 0.1708(6)
O3 O 0.1250(2) 0.4747(2) -0.2891(6)
C2 C 0.0743(2) 0.3020(2) 0.2731(6)
C3 C 0.1194(2) 0.2338(2) 0.1490(6)
C4 C 0.0813(2) 0.3759(2) 0.1081(7)
H1 H 0.05030 0.36590 -0.03840
H2 H 0.05490 0.42010 0.18790
N1 N -0.14322(19) 0.20995(19) 0.2020(6)
C5 C -0.0185(2) 0.2835(2) 0.3077(6)
N2 N -0.06433(19) 0.32417(18) 0.4737(5)
C6 C 0.1135(3) 0.1480(2) -0.2124(8)
H3 H 0.17200 0.14900 -0.21690
C7 C 0.0710(2) 0.1893(2) -0.0338(6)
C8 C 0.1714(2) 0.3981(2) 0.0439(7)
H4 H 0.19470 0.35780 -0.05960
H5 H 0.20490 0.39930 0.18910
C9 C -0.0168(2) 0.1868(2) -0.0247(6)
C10 C -0.1453(2) 0.3042(3) 0.5146(7)
H6 H -0.17570 0.32920 0.63480
C11 C -0.1824(2) 0.2468(3) 0.3779(7)
H7 H -0.23800 0.23320 0.41070
C12 C -0.0612(3) 0.1430(2) -0.1947(7)
H8 H -0.11960 0.14030 -0.18810
C13 C 0.0698(3) 0.1058(2) -0.3822(8)
H9 H 0.09840 0.07890 -0.50200
C14 C 0.1786(2) 0.4782(2) -0.0823(7)
C15 C -0.0179(3) 0.1039(2) -0.3724(7)
H10 H -0.04760 0.07580 -0.48750
C16 C 0.1535(3) 0.5457(2) 0.0823(8)
H11 H 0.15860 0.59460 -0.00230
H12 H 0.18990 0.54630 0.21960
H13 H 0.09630 0.53870 0.13330
C17 C 0.2689(3) 0.4899(3) -0.1698(10)
H14 H 0.28430 0.44730 -0.27360
H15 H 0.30640 0.49120 -0.03500
H16 H 0.27280 0.53870 -0.25580
O4 O -0.03233(18) 0.38334(17) 0.5872(5)
H17 H 0.103(4) 0.522(4) -0.292(11)
H18 H 0.091(4) 0.362(4) 0.555(13)
#END
