
#######################################################################
#
#                 Cambridge Crystallographic Data Centre
#                                CCDC
#
#######################################################################
#
# If this CIF has been generated from an entry in the Cambridge
# Structural Database, then it will include bibliographic, chemical,
# crystal, experimental, refinement or atomic coordinate data resulting
# from the CCDC's data processing and validation procedures.
#
#######################################################################

data_CSD_CIF_XERFUV
_audit_creation_date 2001-06-21
_audit_creation_method CSD-ConQuest-V1
_database_code_CSD XERFUV
_chemical_formula_sum 'C14 H17 N3 O3'
_chemical_formula_moiety
;
C14 H17 N3 O3
;
_journal_coden_Cambridge 4
_journal_volume 122
_journal_year 2000
_journal_page_first 3244
_journal_name_full 'J.Am.Chem.Soc. '
loop_
_publ_author_name
"J.D.Toker"
"P.Wentworth Junior"
"Yunfeng Hu"
"K.N.Houk"
"K.D.Janda"
_chemical_name_systematic
;
3-(4-(Acetamino)phenyl)-5-(dimethylcarbamoyl)isoxazoline
;
_cell_volume   1388.458
_exptl_crystal_density_diffrn 1.317
_diffrn_ambient_temperature ?
_diffrn_special_details
;
The study was carried out at room temperature,in the range 283-303K

;
#These two values have been output from a single CSD field.
_refine_ls_R_factor_gt 0.0392
_refine_ls_wR_factor_gt 0.0392
_symmetry_cell_setting orthorhombic
_symmetry_space_group_name_H-M 'P 21 21 21'
_symmetry_Int_Tables_number 19
loop_
_symmetry_equiv_pos_site_id
_symmetry_equiv_pos_as_xyz
1 x,y,z
2 1/2-x,-y,1/2+z
3 1/2+x,1/2-y,-z
4 -x,1/2+y,1/2-z
_cell_length_a 6.7566(12)
_cell_length_b 9.1409(11)
_cell_length_c 22.481(2)
_cell_angle_alpha 90
_cell_angle_beta 90
_cell_angle_gamma 90
_cell_formula_units_Z 4
loop_
_atom_type_symbol
_atom_type_radius_bond
C 0.68
H 0.23
N 0.68
O 0.68
loop_
_atom_site_label
_atom_site_type_symbol
_atom_site_fract_x
_atom_site_fract_y
_atom_site_fract_z
O1 O 0.9556(3) -0.0679(2) 0.2076(1)
O2 O -0.0994(3) -0.0502(3) 0.4099(1)
O3 O 0.1104(4) 0.0537(3) 0.5373(1)
N1 N 0.8881(4) 0.1495(3) 0.2515(1)
N2 N 0.0718(4) -0.0604(3) 0.3743(1)
N3 N -0.1881(5) -0.0553(4) 0.5373(1)
C1 C 1.1679(5) 0.1339(4) 0.1862(2)
C2 C 0.9963(5) 0.0618(3) 0.2157(1)
C3 C 0.7126(5) 0.1172(3) 0.2835(1)
C4 C 0.6477(5) 0.2203(3) 0.3236(1)
C5 C 0.4749(5) 0.1996(3) 0.3551(1)
C6 C 0.3628(5) 0.0741(3) 0.3477(1)
C7 C 0.4313(5) -0.0307(3) 0.3078(1)
C8 C 0.6030(4) -0.0101(3) 0.2757(1)
C9 C 0.1766(5) 0.0546(3) 0.3806(1)
C10 C 0.0907(6) 0.1628(4) 0.4227(2)
C11 C -0.0822(5) 0.0779(4) 0.4481(1)
C12 C -0.0458(5) 0.0240(4) 0.5114(1)
C13 C -0.1493(7) -0.1193(5) 0.5956(2)
C14 C -0.3775(6) -0.0894(6) 0.5101(2)
H1 H 0.93190 0.23730 0.25550
H2 H 1.23540 0.06410 0.16150
H3 H 1.25730 0.17040 0.21580
H4 H 1.12160 0.21350 0.16210
H5 H 0.72140 0.30500 0.32960
H6 H 0.43290 0.27110 0.38170
H7 H 0.35950 -0.11660 0.30260
H8 H 0.64530 -0.08110 0.24890
H9 H 0.04670 0.25030 0.40220
H10 H 0.18470 0.18960 0.45340
H11 H -0.20350 0.13660 0.44640
H12 H -0.01990 -0.09070 0.60890
H13 H -0.15590 -0.22400 0.59280
H14 H -0.24670 -0.08530 0.62350
H15 H -0.38670 -0.04200 0.47210
H16 H -0.48240 -0.05550 0.53540
H17 H -0.38880 -0.19330 0.50500
#END
