
#######################################################################
#
#                 Cambridge Crystallographic Data Centre
#                                CCDC
#
#######################################################################
#
# If this CIF has been generated from an entry in the Cambridge
# Structural Database, then it will include bibliographic, chemical,
# crystal, experimental, refinement or atomic coordinate data resulting
# from the CCDC's data processing and validation procedures.
#
#######################################################################

data_CSD_CIF_XERNIS
_audit_creation_date 2007-02-02
_audit_creation_method CSD-ConQuest-V1
_database_code_CSD XERNIS
_database_code_depnum_ccdc_archive 'CCDC 277459'
_chemical_formula_sum 'C28 H34 N2 O4'
_chemical_formula_moiety
;
C28 H34 N2 O4
;
_journal_coden_Cambridge 1093
_journal_volume 16
_journal_year 2005
_journal_page_first 605
_journal_name_full 'Heteroat.Chem. '
loop_
_publ_author_name
"A.G.Tolstikov"
"V.A.Glushkov"
"A.V.Tarantin"
"G.F.Kazanbaeva"
"A.S.Shashkov"
"K.Yu.Suponitsky"
"V.M.Dembitsky"
_chemical_name_systematic
;
Methyl 
7-isopropyl-1,4a-dimethyl-6-(3-nitrobenzylideneamino)-1,2,3,4,4a,9,10,10a-octa
hydrophenanthrene-1-carboxylate
;
_chemical_melting_point 379.15
_cell_volume   2488.129
_exptl_crystal_colour 'yellow'
_exptl_crystal_density_diffrn 1.235
_exptl_special_details
;
Melting point range 379.15-380.15K

;
_exptl_crystal_description 'prism'
_exptl_crystal_preparation 'ethanol'
_diffrn_ambient_temperature 120
#These two values have been output from a single CSD field.
_refine_ls_R_factor_gt 0.0596
_refine_ls_wR_factor_gt 0.0596
_symmetry_cell_setting orthorhombic
_symmetry_space_group_name_H-M 'P 21 21 21'
_symmetry_Int_Tables_number 19
loop_
_symmetry_equiv_pos_site_id
_symmetry_equiv_pos_as_xyz
1 x,y,z
2 1/2-x,-y,1/2+z
3 -x,1/2+y,1/2-z
4 1/2+x,1/2-y,-z
_cell_length_a 6.3403(15)
_cell_length_b 7.9683(19)
_cell_length_c 49.249(11)
_cell_angle_alpha 90
_cell_angle_beta 90
_cell_angle_gamma 90
_cell_formula_units_Z 4
loop_
_atom_type_symbol
_atom_type_radius_bond
C 0.68
H 0.23
N 0.68
O 0.68
loop_
_atom_site_label
_atom_site_type_symbol
_atom_site_fract_x
_atom_site_fract_y
_atom_site_fract_z
O1 O 1.0093(4) 0.1181(3) -0.25007(4)
O2 O 0.6861(4) 0.0944(3) -0.23273(4)
O3 O 0.5152(4) 0.3980(3) 0.06234(4)
O4 O 0.5154(4) 0.5698(3) 0.02864(4)
N1 N 0.5361(4) 0.3564(3) -0.06564(4)
N2 N 0.5150(4) 0.4264(4) 0.03785(5)
C1 C 0.8318(5) -0.0107(4) -0.14514(6)
H1 H 0.86410 -0.03200 -0.12580
H2 H 0.67950 -0.03210 -0.14790
C2 C 0.9584(5) -0.1332(4) -0.16265(6)
H3 H 1.11050 -0.11950 -0.15870
H4 H 0.91830 -0.24960 -0.15790
C3 C 0.9214(5) -0.1057(4) -0.19259(6)
H5 H 0.77210 -0.13040 -0.19690
H6 H 1.01040 -0.18460 -0.20310
C4 C 0.9731(5) 0.0766(4) -0.20140(5)
C5 C 0.8479(5) 0.1969(4) -0.18269(5)
H7 H 0.69710 0.16570 -0.18580
C6 C 0.8590(5) 0.3826(4) -0.19078(6)
H8 H 0.98880 0.43440 -0.18340
H9 H 0.86150 0.39360 -0.21080
C7 C 0.6649(5) 0.4692(4) -0.17921(6)
H10 H 0.67840 0.59190 -0.18190
H11 H 0.53850 0.43110 -0.18930
C8 C 0.6350(5) 0.4335(4) -0.14943(6)
C9 C 0.7247(5) 0.2932(4) -0.13706(5)
C10 C 0.8788(5) 0.1750(4) -0.15164(6)
C11 C 0.6872(5) 0.2690(4) -0.10945(6)
H12 H 0.75020 0.17550 -0.10070
C12 C 0.5597(4) 0.3778(4) -0.09415(5)
C13 C 0.4713(5) 0.5195(4) -0.10649(6)
C14 C 0.5082(5) 0.5413(4) -0.13386(6)
H13 H 0.44430 0.63440 -0.14270
C15 C 0.3308(5) 0.6394(4) -0.09065(6)
H14 H 0.35420 0.61700 -0.07090
C16 C 0.0991(5) 0.6109(5) -0.09642(6)
H15 H 0.01410 0.68070 -0.08420
H16 H 0.06460 0.49240 -0.09350
H17 H 0.06850 0.64120 -0.11530
C17 C 0.3880(6) 0.8220(5) -0.09586(9)
H18 H 0.30420 0.89450 -0.08390
H19 H 0.35840 0.85010 -0.11490
H20 H 0.53830 0.83920 -0.09210
C18 C 0.9000(5) 0.0995(5) -0.23058(6)
C19 C 1.2133(5) 0.1055(5) -0.20185(6)
H21 H 1.24240 0.22450 -0.20520
H22 H 1.27670 0.03760 -0.21630
H23 H 1.27360 0.07290 -0.18430
C20 C 1.1017(5) 0.2183(5) -0.14101(6)
H24 H 1.10010 0.22050 -0.12110
H25 H 1.14410 0.32860 -0.14790
H26 H 1.20220 0.13320 -0.14730
C21 C 0.6050(6) 0.1116(6) -0.25989(6)
H27 H 0.45090 0.10200 -0.25960
H28 H 0.66390 0.02300 -0.27140
H29 H 0.64490 0.22150 -0.26720
C22 C 0.5248(5) 0.2099(4) -0.05586(6)
H30 H 0.52030 0.11640 -0.06780
C23 C 0.5184(5) 0.1814(4) -0.02641(5)
C24 C 0.5174(4) 0.3172(4) -0.00838(5)
H31 H 0.51780 0.42930 -0.01500
C25 C 0.5157(5) 0.2853(4) 0.01905(5)
C26 C 0.5122(5) 0.1245(4) 0.02955(6)
H32 H 0.51020 0.10630 0.04860
C27 C 0.5116(5) -0.0091(4) 0.01169(6)
H33 H 0.50850 -0.12070 0.01850
C28 C 0.5154(5) 0.0193(4) -0.01610(6)
H34 H 0.51600 -0.07340 -0.02820
#END
