
#######################################################################
#
#                 Cambridge Crystallographic Data Centre
#                                CCDC
#
#######################################################################
#
# If this CIF has been generated from an entry in the Cambridge
# Structural Database, then it will include bibliographic, chemical,
# crystal, experimental, refinement or atomic coordinate data resulting
# from the CCDC's data processing and validation procedures.
#
#######################################################################

data_CSD_CIF_XESCEG
_audit_creation_date 2017-11-21
_audit_creation_method CSD-ConQuest-V1
_database_code_CSD XESCEG
_database_code_depnum_ccdc_archive 'CCDC 1547045'
_chemical_formula_sum 'C18 H27 N3 O3'
_chemical_formula_moiety
;
C18 H27 N3 O3
;
_journal_coden_Cambridge 1336
_journal_volume 19
_journal_year 2017
_journal_page_first 6240
_journal_name_full 'Org.Lett. '
loop_
_publ_author_name
"Yongquan Ning"
"Xue-Feng Zhao"
"Yan-Bo Wu"
"Xihe Bi"
_chemical_name_systematic
;
1-(4-methylphenyl)-2-nitro-2-((2,2,6,6-tetramethylpiperidin-1-yl)oxy)ethan-1-i
mine
;
_chemical_melting_point 428.15
_cell_volume   1856.334
_exptl_crystal_density_diffrn 1.193
_exptl_special_details
;
Melting point range 428.15-429.15K

;
_diffrn_ambient_temperature 298
#These two values have been output from a single CSD field.
_refine_ls_R_factor_gt 0.1205
_refine_ls_wR_factor_gt 0.1205
_symmetry_cell_setting monoclinic
_symmetry_space_group_name_H-M 'P 21/c'
_symmetry_Int_Tables_number 14
loop_
_symmetry_equiv_pos_site_id
_symmetry_equiv_pos_as_xyz
1 x,y,z
2 -x,1/2+y,1/2-z
3 -x,-y,-z
4 x,-1/2-y,-1/2+z
_cell_length_a 17.6776(19)
_cell_length_b 9.5929(10)
_cell_length_c 11.2126(12)
_cell_angle_alpha 90
_cell_angle_beta 102.503(2)
_cell_angle_gamma 90
_cell_formula_units_Z 4
loop_
_atom_type_symbol
_atom_type_radius_bond
C 0.68
H 0.23
N 0.68
O 0.68
loop_
_atom_site_label
_atom_site_type_symbol
_atom_site_fract_x
_atom_site_fract_y
_atom_site_fract_z
C1 C 0.0001(3) 0.7601(6) 0.6455(5)
H1 H -0.01600 0.81650 0.57370
H2 H 0.02590 0.81750 0.71210
H3 H -0.04450 0.71740 0.66620
C2 C 0.0548(2) 0.6483(5) 0.6211(4)
C3 C 0.0859(3) 0.5524(5) 0.7099(4)
H4 H 0.07250 0.55720 0.78570
C4 C 0.1361(3) 0.4495(5) 0.6894(4)
H5 H 0.15640 0.38690 0.75140
C5 C 0.1566(2) 0.4386(5) 0.5769(3)
C6 C 0.1251(3) 0.5351(5) 0.4875(4)
H6 H 0.13780 0.53030 0.41140
C7 C 0.0755(3) 0.6371(5) 0.5092(4)
H7 H 0.05540 0.70010 0.44750
C8 C 0.2099(2) 0.3298(5) 0.5489(4)
C9 C 0.2678(2) 0.2667(4) 0.6576(4)
H8 H 0.24050 0.23420 0.71970
C10 C 0.2653(3) -0.0700(5) 0.6563(4)
C11 C 0.2786(4) -0.1865(5) 0.7491(5)
H9 H 0.24790 -0.26680 0.71540
H10 H 0.26120 -0.15680 0.82140
C12 C 0.3659(4) -0.2295(6) 0.7861(6)
H11 H 0.37240 -0.30200 0.84790
H12 H 0.38250 -0.26650 0.71550
C13 C 0.4140(4) -0.1078(6) 0.8343(5)
H13 H 0.46810 -0.13560 0.85310
H14 H 0.40070 -0.07790 0.90990
C14 C 0.4037(3) 0.0173(5) 0.7438(4)
C15 C 0.2725(4) -0.1231(6) 0.5295(5)
H15 H 0.26420 -0.04710 0.47240
H16 H 0.23440 -0.19420 0.50250
H17 H 0.32330 -0.16100 0.53460
C16 C 0.1822(3) -0.0161(6) 0.6467(5)
H18 H 0.17190 0.05830 0.58820
H19 H 0.17670 0.01760 0.72500
H20 H 0.14610 -0.09060 0.62100
C17 C 0.4424(3) 0.1419(6) 0.8159(5)
H21 H 0.43730 0.22210 0.76350
H22 H 0.49620 0.12200 0.84690
H23 H 0.41790 0.16020 0.88280
C18 C 0.4430(3) -0.0095(6) 0.6361(5)
H24 H 0.41910 -0.08810 0.58990
H25 H 0.49710 -0.02830 0.66680
H26 H 0.43740 0.07140 0.58440
N1 N 0.2114(2) 0.2941(4) 0.4424(3)
H27 H 0.21250 0.26750 0.36300
N2 N 0.3249(2) 0.3844(4) 0.7101(4)
N3 N 0.31862(19) 0.0449(3) 0.7115(3)
O1 O 0.3263(2) 0.4217(4) 0.8150(3)
O2 O 0.3646(2) 0.4314(4) 0.6443(4)
O3 O 0.30733(17) 0.1576(3) 0.6188(2)
#END
