
#######################################################################
#
#                 Cambridge Crystallographic Data Centre
#                                CCDC
#
#######################################################################
#
# If this CIF has been generated from an entry in the Cambridge
# Structural Database, then it will include bibliographic, chemical,
# crystal, experimental, refinement or atomic coordinate data resulting
# from the CCDC's data processing and validation procedures.
#
#######################################################################

data_CSD_CIF_XESLUE
_audit_creation_date 2013-03-18
_audit_creation_method CSD-ConQuest-V1
_database_code_CSD XESLUE
_database_code_depnum_ccdc_archive 'CCDC 867207'
_chemical_formula_sum 'C23 H24 N2 O7'
_chemical_formula_moiety
;
C23 H24 N2 O7
;
_journal_coden_Cambridge 917
_journal_volume 8
_journal_year 2012
_journal_page_first 567
_journal_name_full 'Beilstein J.Org.Chem. '
loop_
_publ_author_name
"P.Jakubec"
"D.M.Cockfield"
"M.Helliwell"
"J.Raftery"
"D.J.Dixon"
_chemical_name_systematic
;
Methyl 
9,10-dimethoxy-1-nitro-4-oxo-2-phenyl-1,3,4,6,7,11b-hexahydro-2H-pyrido[2,1-a]
isoquinoline-3-carboxylate
;
_cell_volume   2204.667
_exptl_crystal_colour 'white'
_exptl_crystal_density_diffrn 1.327
_exptl_crystal_description 'block'
_diffrn_ambient_temperature 100
#These two values have been output from a single CSD field.
_refine_ls_R_factor_gt 0.0624
_refine_ls_wR_factor_gt 0.0624
_symmetry_cell_setting monoclinic
_symmetry_space_group_name_H-M 'P 21/c'
_symmetry_Int_Tables_number 14
loop_
_symmetry_equiv_pos_site_id
_symmetry_equiv_pos_as_xyz
1 x,y,z
2 -x,1/2+y,1/2-z
3 -x,-y,-z
4 x,-1/2-y,-1/2+z
_cell_length_a 12.1135(9)
_cell_length_b 8.1805(6)
_cell_length_c 22.5942(17)
_cell_angle_alpha 90
_cell_angle_beta 100.041(1)
_cell_angle_gamma 90
_cell_formula_units_Z 4
loop_
_atom_type_symbol
_atom_type_radius_bond
C 0.68
H 0.23
N 0.68
O 0.68
loop_
_atom_site_label
_atom_site_type_symbol
_atom_site_fract_x
_atom_site_fract_y
_atom_site_fract_z
C1 C 0.62109(18) 0.6998(3) 0.00784(10)
C2 C 0.74143(18) 0.7130(3) 0.04129(10)
H1 H 0.75860 0.83240 0.04580
C3 C 0.75809(17) 0.6422(3) 0.10492(10)
H2 H 0.74200 0.52250 0.10060
C4 C 0.67002(18) 0.7149(3) 0.13916(10)
H3 H 0.67840 0.65980 0.17920
C5 C 0.55046(18) 0.6856(3) 0.10612(9)
H4 H 0.53240 0.56870 0.11320
C6 C 0.46543(17) 0.7888(3) 0.13203(10)
C7 C 0.46783(18) 0.7844(3) 0.19435(10)
H5 H 0.51850 0.71310 0.21870
C8 C 0.39725(18) 0.8826(3) 0.22058(9)
C9 C 0.32410(18) 0.9915(3) 0.18444(10)
C10 C 0.31853(18) 0.9901(3) 0.1230(1)
H6 H 0.26690 1.05990 0.09850
C11 C 0.38797(18) 0.8870(3) 0.09615(9)
C12 C 0.37464(19) 0.8795(3) 0.02855(10)
H7 H 0.41460 0.97260 0.01380
H8 H 0.29430 0.88790 0.01060
C13 C 0.42186(18) 0.7201(3) 0.00968(10)
H9 H 0.37740 0.62690 0.02070
H10 H 0.41880 0.71870 -0.03440
C14 C 0.8165(2) 0.6454(3) 0.00007(11)
C15 C 0.8683(3) 0.4051(4) -0.04566(14)
H11 H 0.81170 0.38460 -0.08150
H12 H 0.90240 0.30120 -0.03040
H13 H 0.92640 0.47770 -0.05600
C16 C 0.87636(18) 0.6583(3) 0.14032(10)
C17 C 0.94933(19) 0.7796(3) 0.12846(10)
H14 H 0.92600 0.85580 0.09700
C18 C 1.0569(2) 0.7904(3) 0.16246(11)
H15 H 1.10670 0.87310 0.15380
C19 C 1.0912(2) 0.6813(3) 0.20866(11)
H16 H 1.16440 0.68890 0.23180
C20 C 1.0184(2) 0.5611(3) 0.22113(11)
H17 H 1.04140 0.48640 0.25310
C21 C 0.9118(2) 0.5494(3) 0.18699(11)
H18 H 0.86250 0.46590 0.19560
C22 C 0.4632(2) 0.7717(3) 0.31772(10)
H19 H 0.44710 0.66070 0.30230
H20 H 0.44920 0.77810 0.35910
H21 H 0.54180 0.79820 0.31700
C23 C 0.1943(2) 1.2113(3) 0.17948(11)
H22 H 0.24180 1.28290 0.15990
H23 H 0.15490 1.27660 0.20560
H24 H 0.13940 1.15660 0.14890
N1 N 0.53830(15) 0.7068(2) 0.04064(8)
N2 N 0.69248(15) 0.8953(2) 0.14974(8)
O1 O 0.60378(13) 0.6938(2) -0.04714(7)
O2 O 0.81496(15) 0.4825(2) 0.00082(8)
O3 O 0.86910(16) 0.7267(3) -0.02918(8)
O4 O 0.66839(15) 0.9893(2) 0.10726(7)
O5 O 0.73357(15) 0.9378(2) 0.20033(7)
O6 O 0.39188(13) 0.8860(2) 0.28068(7)
O7 O 0.26245(13) 1.0913(2) 0.21465(7)
#END
