
#######################################################################
#
#                 Cambridge Crystallographic Data Centre
#                                CCDC
#
#######################################################################
#
# If this CIF has been generated from an entry in the Cambridge
# Structural Database, then it will include bibliographic, chemical,
# crystal, experimental, refinement or atomic coordinate data resulting
# from the CCDC's data processing and validation procedures.
#
#######################################################################

data_CSD_CIF_XESMUE
_audit_creation_date 2007-02-02
_audit_creation_method CSD-ConQuest-V1
_database_code_CSD XESMUE
_database_code_depnum_ccdc_archive 'CCDC 606445'
_chemical_formula_sum 'C26 H34 N2 O4'
_chemical_formula_moiety
;
C26 H34 N2 O4
;
_journal_coden_Cambridge 1336
_journal_volume 8
_journal_year 2006
_journal_page_first 4803
_journal_name_full 'Org.Lett. '
loop_
_publ_author_name
"V.Capriati"
"L.Degennaro"
"S.Florio"
"R.Luisi"
"P.Punzi"
_chemical_name_systematic
;
7-t-butyl-3,3,10-trimethyl-9-phenyl-8-p-methoxyphenyl-9,10-epoxy-1,6-dioxa-4,7
-diazaspiro[4,5]decane
;
_chemical_melting_point 415.15
_cell_volume   1202.527
_exptl_crystal_colour 'colorless'
_exptl_crystal_density_diffrn 1.211
_exptl_special_details
;
Melting point range 415.15-417.15K

;
_exptl_crystal_description 'prism'
_diffrn_ambient_temperature 293
#These two values have been output from a single CSD field.
_refine_ls_R_factor_gt 0.0564
_refine_ls_wR_factor_gt 0.0564
_symmetry_cell_setting triclinic
_symmetry_space_group_name_H-M 'P -1'
_symmetry_Int_Tables_number 2
loop_
_symmetry_equiv_pos_site_id
_symmetry_equiv_pos_as_xyz
1 x,y,z
2 -x,-y,-z
_cell_length_a 10.1190(7)
_cell_length_b 10.1540(7)
_cell_length_c 12.7710(7)
_cell_angle_alpha 68.385(4)
_cell_angle_beta 84.875(4)
_cell_angle_gamma 80.474(4)
_cell_formula_units_Z 2
loop_
_atom_type_symbol
_atom_type_radius_bond
C 0.68
H 0.23
N 0.68
O 0.68
loop_
_atom_site_label
_atom_site_type_symbol
_atom_site_fract_x
_atom_site_fract_y
_atom_site_fract_z
O1 O 1.07740(12) 0.11169(12) 0.32343(10)
O2 O 0.77095(11) 0.19944(12) 0.32483(10)
O3 O 0.80884(14) 0.40498(12) 0.32894(11)
O4 O 0.60764(16) 0.40329(18) -0.19517(12)
N1 N 0.89415(15) 0.21253(15) 0.47504(12)
H1 H 0.89700 0.10600 0.51680
N2 N 0.82996(14) 0.06381(14) 0.31464(12)
C1 C 1.01949(16) 0.17263(17) 0.21295(14)
C2 C 1.00221(17) 0.25398(17) 0.28973(14)
C3 C 0.86996(17) 0.26152(17) 0.35738(14)
C4 C 0.90162(17) 0.09943(17) 0.20410(14)
H2 H 0.94510 0.00570 0.20400
C5 C 1.0842(2) 0.3711(2) 0.27469(18)
H3 H 1.16460 0.36030 0.24160
H4 H 1.04010 0.45840 0.22160
H5 H 1.08300 0.38000 0.35090
C6 C 0.7883(2) 0.4396(2) 0.42835(18)
H6 H 0.86590 0.49940 0.43430
H7 H 0.69910 0.49560 0.42570
C7 C 0.79852(19) 0.2981(2) 0.52695(16)
C8 C 0.6631(2) 0.2450(3) 0.5605(2)
H8 H 0.61810 0.24560 0.48660
H9 H 0.67560 0.14040 0.61810
H10 H 0.60160 0.30270 0.59670
C9 C 0.8599(3) 0.3061(3) 0.6286(2)
H11 H 0.95240 0.33550 0.60130
H12 H 0.87360 0.19550 0.69560
H13 H 0.79720 0.37030 0.66000
C10 C 0.71892(18) -0.02469(19) 0.33974(16)
C11 C 0.6948(3) -0.0759(3) 0.46642(19)
H14 H 0.62170 -0.14340 0.49270
H15 H 0.78780 -0.13530 0.50470
H16 H 0.67470 -0.01350 0.49850
C12 C 0.7663(3) -0.1528(3) 0.3048(3)
H17 H 0.84900 -0.20090 0.35380
H18 H 0.70590 -0.22260 0.33370
H19 H 0.79180 -0.13600 0.22580
C13 C 0.5881(2) 0.0561(3) 0.2825(2)
H20 H 0.51710 -0.00980 0.30130
H21 H 0.54530 0.14780 0.32100
H22 H 0.59830 0.10090 0.20360
C14 C 0.82190(16) 0.18494(17) 0.09890(14)
C15 C 0.8058(2) 0.12316(19) 0.02090(16)
H23 H 0.84440 0.02390 0.03440
C16 C 0.7338(2) 0.1981(2) -0.07521(16)
H24 H 0.72450 0.14950 -0.13050
C17 C 0.67676(18) 0.3393(2) -0.09720(15)
C18 C 0.69315(18) 0.4043(2) -0.02187(15)
H25 H 0.65350 0.50210 -0.03330
C19 C 0.76466(18) 0.32736(18) 0.07465(15)
H26 H 0.77080 0.37250 0.12680
C20 C 0.5417(2) 0.5461(3) -0.2205(2)
H27 H 0.49010 0.56710 -0.28740
H28 H 0.47830 0.54350 -0.15660
H29 H 0.60230 0.63160 -0.23510
C21 C 1.12296(17) 0.20041(17) 0.11793(15)
C22 C 1.0955(2) 0.2970(2) 0.00900(16)
H30 H 0.99990 0.35600 -0.00530
C23 C 1.1940(2) 0.3174(2) -0.07543(18)
H31 H 1.17610 0.38150 -0.15410
C24 C 1.3217(2) 0.2445(2) -0.05368(18)
H32 H 1.39050 0.25850 -0.11760
C25 C 1.3509(2) 0.1506(3) 0.05356(19)
H33 H 1.44660 0.09420 0.07290
C26 C 1.25247(18) 0.1291(2) 0.13864(17)
H34 H 1.27600 0.06960 0.21620
#END
