
#######################################################################
#
#                 Cambridge Crystallographic Data Centre
#                                CCDC
#
#######################################################################
#
# If this CIF has been generated from an entry in the Cambridge
# Structural Database, then it will include bibliographic, chemical,
# crystal, experimental, refinement or atomic coordinate data resulting
# from the CCDC's data processing and validation procedures.
#
#######################################################################

data_CSD_CIF_XESMAL
_audit_creation_date 2013-03-18
_audit_creation_method CSD-ConQuest-V1
_database_code_CSD XESMAL
_database_code_depnum_ccdc_archive 'CCDC 867208'
_chemical_formula_sum 'C19 H21 N3 O6'
_chemical_formula_moiety
;
C19 H21 N3 O6
;
_journal_coden_Cambridge 917
_journal_volume 8
_journal_year 2012
_journal_page_first 567
_journal_name_full 'Beilstein J.Org.Chem. '
loop_
_publ_author_name
"P.Jakubec"
"D.M.Cockfield"
"M.Helliwell"
"J.Raftery"
"D.J.Dixon"
_chemical_name_systematic
;
7-Allyl-2-methyl-9-nitro-1,6-dioxo-10-phenyl-2,7-diazaspiro[4.5]decane-8-carbo
xylic acid
;
_cell_volume   1852.110
_exptl_crystal_colour 'colorless'
_exptl_crystal_density_diffrn 1.389
_exptl_crystal_description 'prismatic'
_diffrn_ambient_temperature 100
#These two values have been output from a single CSD field.
_refine_ls_R_factor_gt 0.0271
_refine_ls_wR_factor_gt 0.0271
_symmetry_cell_setting orthorhombic
_symmetry_space_group_name_H-M 'P n a 21'
_symmetry_Int_Tables_number 33
loop_
_symmetry_equiv_pos_site_id
_symmetry_equiv_pos_as_xyz
1 x,y,z
2 -x,-y,1/2+z
3 1/2+x,1/2-y,z
4 1/2-x,1/2+y,1/2+z
_cell_length_a 11.405(2)
_cell_length_b 14.943(3)
_cell_length_c 10.8676(18)
_cell_angle_alpha 90
_cell_angle_beta 90
_cell_angle_gamma 90
_cell_formula_units_Z 4
loop_
_atom_type_symbol
_atom_type_radius_bond
C 0.68
H 0.23
N 0.68
O 0.68
loop_
_atom_site_label
_atom_site_type_symbol
_atom_site_fract_x
_atom_site_fract_y
_atom_site_fract_z
O1 O 0.43762(11) 0.01633(8) 0.71553(14)
O2 O 0.16616(11) -0.03207(8) 0.56022(13)
O3 O -0.07541(11) 0.18666(10) 0.68926(15)
O4 O 0.05373(13) 0.28493(9) 0.74531(14)
O5 O 0.10145(13) -0.00952(9) 0.92357(17)
O6 O 0.00425(11) 0.11973(8) 0.94774(14)
H1 H -0.04710 0.08720 0.98040
N1 N 0.28930(13) 0.08263(10) 0.81892(16)
N2 N 0.28719(13) 0.01691(10) 0.40548(16)
N3 N 0.02498(13) 0.20987(10) 0.71369(16)
C1 C 0.34703(15) 0.06020(11) 0.71396(18)
C2 C 0.30022(15) 0.09521(12) 0.59074(18)
C3 C 0.21289(15) 0.17389(11) 0.61139(18)
H2 H 0.25700 0.22230 0.65490
C4 C 0.11986(15) 0.14009(11) 0.69992(18)
H3 H 0.08550 0.08290 0.66870
C5 C 0.17479(15) 0.12541(11) 0.82734(18)
H4 H 0.18490 0.18500 0.86770
C6 C 0.34982(18) 0.07271(13) 0.93881(19)
H5 H 0.42220 0.03700 0.92800
H6 H 0.29830 0.04080 0.99750
C7 C 0.37999(18) 0.16317(14) 0.9889(2)
H7 H 0.44570 0.19340 0.95510
C8 C 0.3207(2) 0.20320(17) 1.0771(2)
H8 H 0.25460 0.17460 1.11270
H9 H 0.34420 0.26070 1.10510
C9 C 0.24319(15) 0.01854(11) 0.51775(18)
C10 C 0.40253(16) 0.12318(12) 0.50606(18)
H10 H 0.41280 0.18900 0.50670
H11 H 0.47670 0.09480 0.53280
C11 C 0.36741(17) 0.09054(12) 0.37820(19)
H12 H 0.32770 0.13840 0.33090
H13 H 0.43650 0.06940 0.33130
C12 C 0.2477(2) -0.04347(14) 0.3085(2)
H14 H 0.21960 -0.09940 0.34530
H15 H 0.31310 -0.05640 0.25280
H16 H 0.18390 -0.01520 0.26230
C13 C 0.16682(15) 0.21371(12) 0.49280(18)
C14 C 0.08034(16) 0.17149(12) 0.42340(19)
H17 H 0.04570 0.11770 0.45250
C15 C 0.04448(17) 0.20778(13) 0.31181(19)
H18 H -0.01470 0.17870 0.26500
C16 C 0.09468(18) 0.28626(14) 0.2685(2)
H19 H 0.07080 0.31040 0.19160
C17 C 0.17983(17) 0.32926(13) 0.3377(2)
H20 H 0.21400 0.38320 0.30850
C18 C 0.21520(16) 0.29360(12) 0.44973(19)
H21 H 0.27270 0.32380 0.49740
C19 C 0.09075(16) 0.06911(12) 0.90602(18)
#END
