
#######################################################################
#
#                 Cambridge Crystallographic Data Centre
#                                CCDC
#
#######################################################################
#
# If this CIF has been generated from an entry in the Cambridge
# Structural Database, then it will include bibliographic, chemical,
# crystal, experimental, refinement or atomic coordinate data resulting
# from the CCDC's data processing and validation procedures.
#
#######################################################################

data_CSD_CIF_XESMEP
_audit_creation_date 2013-03-18
_audit_creation_method CSD-ConQuest-V1
_database_code_CSD XESMEP
_database_code_depnum_ccdc_archive 'CCDC 867209'
_chemical_formula_sum 'C23 H23 N3 O4'
_chemical_formula_moiety
;
C23 H23 N3 O4
;
_journal_coden_Cambridge 917
_journal_volume 8
_journal_year 2012
_journal_page_first 567
_journal_name_full 'Beilstein J.Org.Chem. '
loop_
_publ_author_name
"P.Jakubec"
"D.M.Cockfield"
"M.Helliwell"
"J.Raftery"
"D.J.Dixon"
_chemical_name_systematic
;
(+-)-(1S,2R,3R,11bR)-1'-methyl-1-nitro-2-phenyl-1,6,7,11b-tetrahydro-2H,2'H-sp
iro[pyrido[2,1-a]isoquinoline-3,3'-pyrrolidine]-2',4-dione
;
_cell_volume    979.400
_exptl_crystal_colour 'colorless'
_exptl_crystal_density_diffrn 1.375
_exptl_crystal_description 'block'
_diffrn_ambient_temperature 100
#These two values have been output from a single CSD field.
_refine_ls_R_factor_gt 0.0273
_refine_ls_wR_factor_gt 0.0273
loop_
_citation_database_id_CSD
_citation_special_details
XESMIT "is a stereoisomer of this entry"
_symmetry_cell_setting monoclinic
_symmetry_space_group_name_H-M 'P n'
_symmetry_Int_Tables_number 7
loop_
_symmetry_equiv_pos_site_id
_symmetry_equiv_pos_as_xyz
1 x,y,z
2 1/2+x,-y,1/2+z
_cell_length_a 6.4732(5)
_cell_length_b 10.4674(7)
_cell_length_c 14.5108(10)
_cell_angle_alpha 90
_cell_angle_beta 95.050(1)
_cell_angle_gamma 90
_cell_formula_units_Z 2
loop_
_atom_type_symbol
_atom_type_radius_bond
C 0.68
H 0.23
N 0.68
O 0.68
loop_
_atom_site_label
_atom_site_type_symbol
_atom_site_fract_x
_atom_site_fract_y
_atom_site_fract_z
O1 O 0.7408(2) 0.38010(14) 1.04171(10)
O2 O 0.3475(2) 0.16668(14) 1.00985(10)
O3 O 0.0333(2) 0.28544(14) 0.71367(10)
O4 O 0.3220(2) 0.33759(14) 0.65892(9)
N1 N 0.4872(2) 0.45568(15) 0.93887(11)
N2 N 0.6346(3) 0.04195(16) 0.99788(12)
N3 N 0.2174(2) 0.31359(14) 0.72295(11)
C1 C 0.6297(3) 0.36661(18) 0.96986(13)
C2 C 0.6316(3) 0.23761(18) 0.91982(13)
C3 C 0.5216(3) 0.23899(18) 0.82045(13)
H1 H 0.61590 0.28370 0.77990
C4 C 0.3241(3) 0.31823(18) 0.81987(12)
H2 H 0.23120 0.28150 0.86460
C5 C 0.3767(3) 0.45794(17) 0.84566(13)
H3 H 0.47230 0.49230 0.80110
C6 C 0.1833(3) 0.54145(17) 0.84146(13)
C7 C 0.0925(3) 0.57972(18) 0.75488(14)
H4 H 0.15750 0.55850 0.70070
C8 C -0.0915(3) 0.64836(19) 0.74714(15)
H5 H -0.15360 0.67260 0.68800
C9 C -0.1847(3) 0.6816(2) 0.82674(16)
H6 H -0.31280 0.72650 0.82200
C10 C -0.0896(3) 0.6490(2) 0.91289(15)
H7 H -0.15110 0.67460 0.96700
C11 C 0.0942(3) 0.57940(19) 0.92151(14)
C12 C 0.2105(3) 0.5553(2) 1.01425(14)
H8 H 0.17240 0.47080 1.03830
H9 H 0.17540 0.62160 1.05900
C13 C 0.4401(3) 0.5593(2) 1.00179(15)
H10 H 0.47700 0.64270 0.97560
H11 H 0.52150 0.54830 1.06230
C14 C 0.5182(3) 0.14627(18) 0.98222(13)
C15 C 0.8237(3) 0.03939(19) 0.95074(14)
H12 H 0.80870 -0.01740 0.89600
H13 H 0.94330 0.01050 0.99280
C16 C 0.8492(3) 0.17927(19) 0.92210(13)
H14 H 0.94640 0.22450 0.96750
H15 H 0.90280 0.18460 0.86040
C17 C 0.5661(4) -0.0683(2) 1.04710(17)
H16 H 0.45150 -0.04360 1.08320
H17 H 0.68140 -0.10100 1.08880
H18 H 0.51900 -0.13490 1.00260
C18 C 0.4809(3) 0.10555(18) 0.78025(13)
C19 C 0.3182(3) 0.02969(19) 0.80597(14)
H19 H 0.23130 0.06020 0.85060
C20 C 0.2826(3) -0.0902(2) 0.76670(15)
H20 H 0.17170 -0.14120 0.78480
C21 C 0.4077(3) -0.13612(19) 0.70139(14)
H21 H 0.38170 -0.21760 0.67400
C22 C 0.5714(3) -0.0619(2) 0.67629(14)
H22 H 0.65970 -0.09360 0.63260
C23 C 0.6066(3) 0.0589(2) 0.71490(13)
H23 H 0.71720 0.10980 0.69650
#END
