
#######################################################################
#
#                 Cambridge Crystallographic Data Centre
#                                CCDC
#
#######################################################################
#
# If this CIF has been generated from an entry in the Cambridge
# Structural Database, then it will include bibliographic, chemical,
# crystal, experimental, refinement or atomic coordinate data resulting
# from the CCDC's data processing and validation procedures.
#
#######################################################################

data_CSD_CIF_XESNEP
_audit_creation_date 2007-02-02
_audit_creation_method CSD-ConQuest-V1
_database_code_CSD XESNEP
_database_code_depnum_ccdc_archive 'CCDC 606447'
_chemical_formula_sum 'C25 H38 N2 O3'
_chemical_formula_moiety
;
C25 H38 N2 O3
;
_journal_coden_Cambridge 1336
_journal_volume 8
_journal_year 2006
_journal_page_first 4803
_journal_name_full 'Org.Lett. '
loop_
_publ_author_name
"V.Capriati"
"L.Degennaro"
"S.Florio"
"R.Luisi"
"P.Punzi"
_chemical_name_systematic
;
N-t-butyl-N-hydroxy-1-cyclohexyl-3-(4,4-dimethyl-4,5-dihydro-1,3-oxazol-2-yl)-
2-phenyl-2,3-epoxybutanamine
;
_cell_volume   2404.899
_exptl_crystal_colour 'colorless'
_exptl_crystal_density_diffrn 1.145
_exptl_crystal_description 'prism'
_exptl_crystal_preparation 'hexane'
_diffrn_ambient_temperature 293
#These two values have been output from a single CSD field.
_refine_ls_R_factor_gt 0.0526
_refine_ls_wR_factor_gt 0.0526
_symmetry_cell_setting monoclinic
_symmetry_space_group_name_H-M 'P 21/c'
_symmetry_Int_Tables_number 14
loop_
_symmetry_equiv_pos_site_id
_symmetry_equiv_pos_as_xyz
1 x,y,z
2 -x,1/2+y,1/2-z
3 -x,-y,-z
4 x,-1/2-y,-1/2+z
_cell_length_a 12.8740(5)
_cell_length_b 9.6440(2)
_cell_length_c 19.5950(9)
_cell_angle_alpha 90
_cell_angle_beta 98.694(1)
_cell_angle_gamma 90
_cell_formula_units_Z 4
loop_
_atom_type_symbol
_atom_type_radius_bond
C 0.68
H 0.23
N 0.68
O 0.68
loop_
_atom_site_label
_atom_site_type_symbol
_atom_site_fract_x
_atom_site_fract_y
_atom_site_fract_z
O1 O 0.38945(9) 0.14386(13) 0.74590(6)
H1 H 0.44710 0.20750 0.75850
O2 O 0.33201(8) 0.09606(12) 0.96029(5)
O3 O 0.14266(10) 0.37660(14) 0.92311(8)
N1 N 0.30562(10) 0.20986(15) 0.77552(7)
N2 N 0.11316(11) 0.15794(16) 0.95597(9)
C1 C 0.34756(11) 0.17204(15) 0.89885(7)
C2 C 0.29530(12) 0.23655(17) 0.95421(8)
C3 C 0.35088(15) 0.3407(2) 1.00455(9)
H2 H 0.32420 0.33490 1.04800
H3 H 0.41920 0.32450 1.01180
H4 H 0.33680 0.44190 0.98070
C4 C 0.17870(12) 0.24925(17) 0.94500(8)
C5 C 0.02985(16) 0.3677(2) 0.91563(13)
H5 H 0.00520 0.44210 0.94500
H6 H -0.00040 0.38530 0.86310
C6 C 0.00691(13) 0.2219(2) 0.94039(10)
C7 C -0.05802(18) 0.1373(3) 0.88413(14)
H7 H -0.01480 0.12170 0.84170
H8 H -0.12680 0.18290 0.86970
H9 H -0.07210 0.04850 0.90430
C8 C -0.04345(16) 0.2229(3) 1.00572(12)
H10 H 0.00200 0.27950 1.04410
H11 H -0.11640 0.27710 0.99280
H12 H -0.05690 0.12280 1.02020
C9 C 0.45930(11) 0.21587(17) 0.89730(8)
C10 C 0.48048(13) 0.34035(17) 0.86590(9)
H13 H 0.42570 0.39760 0.84580
C11 C 0.58270(14) 0.3833(2) 0.86526(10)
H14 H 0.59800 0.47100 0.84340
C12 C 0.66540(14) 0.3039(2) 0.89689(11)
H15 H 0.73570 0.33270 0.89820
C13 C 0.64602(13) 0.1819(2) 0.92885(11)
H16 H 0.70520 0.12470 0.95220
C14 C 0.54367(12) 0.13738(19) 0.92928(9)
H17 H 0.52850 0.04450 0.95220
C15 C 0.28066(11) 0.11932(16) 0.83173(8)
H18 H 0.20490 0.13890 0.83540
C16 C 0.28505(12) -0.03983(17) 0.81935(9)
H19 H 0.27460 -0.05690 0.76960
C17 C 0.19200(15) -0.11139(19) 0.84508(12)
H20 H 0.12170 -0.06210 0.82290
H21 H 0.20270 -0.09860 0.90100
C18 C 0.18765(16) -0.2664(2) 0.82957(14)
H22 H 0.12550 -0.32160 0.84760
H23 H 0.17980 -0.28730 0.78030
C19 C 0.29055(19) -0.3374(2) 0.85738(14)
H24 H 0.29030 -0.44140 0.84610
H25 H 0.31000 -0.34870 0.90840
C20 C 0.38236(16) -0.2678(2) 0.83057(13)
H26 H 0.45680 -0.31480 0.85190
H27 H 0.37000 -0.27560 0.77370
C21 C 0.38748(13) -0.11353(19) 0.84801(10)
H28 H 0.45180 -0.06880 0.83260
H29 H 0.40390 -0.10900 0.90010
C22 C 0.22157(14) 0.2468(2) 0.71798(9)
C23 C 0.1773(2) 0.1239(3) 0.67402(12)
H30 H 0.13740 0.05630 0.70280
H31 H 0.12350 0.15030 0.63370
H32 H 0.24220 0.05930 0.65300
C24 C 0.2709(2) 0.3513(3) 0.67304(12)
H33 H 0.29880 0.43700 0.70510
H34 H 0.33600 0.30500 0.65510
H35 H 0.21380 0.37780 0.63390
C25 C 0.13412(17) 0.3208(3) 0.74842(12)
H36 H 0.08470 0.35080 0.70960
H37 H 0.09100 0.24760 0.77200
H38 H 0.16850 0.38910 0.78180
#END
