
#######################################################################
#
#                 Cambridge Crystallographic Data Centre
#                                CCDC
#
#######################################################################
#
# If this CIF has been generated from an entry in the Cambridge
# Structural Database, then it will include bibliographic, chemical,
# crystal, experimental, refinement or atomic coordinate data resulting
# from the CCDC's data processing and validation procedures.
#
#######################################################################

data_CSD_CIF_XESSAS
_audit_creation_date 2017-11-21
_audit_creation_method CSD-ConQuest-V1
_database_code_CSD XESSAS
_database_code_depnum_ccdc_archive 'CCDC 1456005'
_chemical_formula_sum 'C20 H16 N2 O8'
_chemical_formula_moiety
;
C20 H16 N2 O8
;
_journal_coden_Cambridge 781
_journal_volume 15
_journal_year 2018
_journal_page_first 546
_journal_name_full 'Lett.Org.Chem. '
loop_
_publ_author_name
"J.Ferreira"
"M.D.Garcia"
"X.Garcia-Mera"
"O.Caamano"
_chemical_name_systematic
;
4-((benzyloxy)carbonyl)cyclopent-2-en-1-yl 3,5-dinitrobenzoate
;
_cell_volume   1859.998
_exptl_crystal_colour 'colorless'
_exptl_crystal_density_diffrn 1.472
_exptl_crystal_description 'plate'
_diffrn_ambient_temperature 100
#These two values have been output from a single CSD field.
_refine_ls_R_factor_gt 0.067
_refine_ls_wR_factor_gt 0.067
loop_
_citation_database_id_CSD
_citation_special_details
OJOZUK "is a stereoisomer of this entry"
_symmetry_cell_setting monoclinic
_symmetry_space_group_name_H-M 'P 21/c'
_symmetry_Int_Tables_number 14
loop_
_symmetry_equiv_pos_site_id
_symmetry_equiv_pos_as_xyz
1 x,y,z
2 -x,1/2+y,1/2-z
3 -x,-y,-z
4 x,-1/2-y,-1/2+z
_cell_length_a 22.337(9)
_cell_length_b 5.149(2)
_cell_length_c 16.864(12)
_cell_angle_alpha 90
_cell_angle_beta 106.47(2)
_cell_angle_gamma 90
_cell_formula_units_Z 4
loop_
_atom_type_symbol
_atom_type_radius_bond
C 0.68
H 0.23
N 0.68
O 0.68
loop_
_atom_site_label
_atom_site_type_symbol
_atom_site_fract_x
_atom_site_fract_y
_atom_site_fract_z
C1 C 0.45965(7) 1.0972(3) 0.35075(10)
C2 C 0.41003(8) 1.2462(3) 0.3050(1)
C3 C 0.35150(8) 1.1797(4) 0.31159(10)
C4 C 0.34163(8) 0.9777(4) 0.36066(10)
C5 C 0.39324(7) 0.8383(3) 0.40684(10)
C6 C 0.45329(8) 0.8957(3) 0.40167(10)
N1 N 0.52244(6) 1.1568(3) 0.34321(9)
O1 O 0.56538(6) 1.0101(3) 0.37705(8)
O2 O 0.52819(6) 1.3483(3) 0.30250(8)
N2 N 0.29729(7) 1.3342(3) 0.26466(9)
O3 O 0.30754(7) 1.5282(3) 0.22844(9)
O4 O 0.24514(6) 1.2594(3) 0.26477(9)
C7 C 0.38664(7) 0.6230(3) 0.46411(10)
O5 O 0.43056(6) 0.5125(3) 0.50980(8)
O6 O 0.32674(5) 0.5709(3) 0.45630(8)
C8 C 0.31410(8) 0.3788(4) 0.51536(12)
C9 C 0.25048(9) 0.2531(4) 0.47653(14)
C10 C 0.20529(8) 0.3688(4) 0.52275(12)
C11 C 0.24840(9) 0.5199(4) 0.59200(12)
C12 C 0.30689(9) 0.5216(4) 0.58892(12)
C13 C 0.15675(9) 0.5420(4) 0.46649(14)
O7 O 0.16796(8) 0.7512(4) 0.44258(15)
O8 O 0.10003(6) 0.4365(3) 0.44349(10)
C14 C 0.0528(1) 0.5942(5) 0.3866(2)
C15 C -0.00895(10) 0.4541(5) 0.36491(17)
C16 C -0.02223(12) 0.2585(6) 0.4130(2)
C17 C -0.08066(13) 0.1357(7) 0.3897(3)
C18 C -0.12501(11) 0.2116(8) 0.3186(2)
C19 C -0.11216(13) 0.4101(10) 0.2710(3)
C20 C -0.05469(13) 0.5307(8) 0.2940(2)
H1 H 0.4143(10) 1.383(4) 0.2670(14)
H2 H 0.2999(10) 0.947(4) 0.3638(14)
H3 H 0.4886(10) 0.789(4) 0.4318(13)
H4 H 0.3502(11) 0.261(5) 0.5285(15)
H5 H 0.2348(11) 0.305(5) 0.4181(17)
H6 H 0.2560(13) 0.073(7) 0.4902(19)
H7 H 0.1875(12) 0.239(5) 0.5426(16)
H8 H 0.2356(10) 0.602(4) 0.6297(14)
H9 H 0.3406(12) 0.609(5) 0.6267(16)
H10 H 0.0640(17) 0.619(7) 0.336(2)
H11 H 0.0503(14) 0.760(6) 0.418(2)
H12 H 0.0077(19) 0.208(8) 0.460(2)
H13 H -0.0876(15) 0.003(6) 0.431(2)
H14 H -0.1652(17) 0.135(7) 0.298(2)
H15 H -0.143(2) 0.457(8) 0.219(3)
H16 H -0.0454(19) 0.688(9) 0.260(3)
#END
