
#######################################################################
#
#                 Cambridge Crystallographic Data Centre
#                                CCDC
#
#######################################################################
#
# If this CIF has been generated from an entry in the Cambridge
# Structural Database, then it will include bibliographic, chemical,
# crystal, experimental, refinement or atomic coordinate data resulting
# from the CCDC's data processing and validation procedures.
#
#######################################################################

data_CSD_CIF_XETJIR
_audit_creation_date 2013-05-20
_audit_creation_method CSD-ConQuest-V1
_database_code_CSD XETJIR
_database_code_depnum_ccdc_archive 'CCDC 895113'
_chemical_formula_sum 'C9 H7 N5 O5'
_chemical_formula_moiety
;
C9 H7 N5 O5
;
_journal_coden_Cambridge 1220
_journal_volume 19
_journal_year 2013
_journal_page_first 509
_journal_name_full 'Chem.-Eur.J. '
loop_
_publ_author_name
"A.S.Kumar"
"V.D.Ghule"
"S.Subramanyam"
"A.K.Sahoo"
_chemical_name_systematic
;
1-(2-Methoxy-3,5-dinitrophenyl)-1H-1,2,3-triazole
;
_cell_volume   1141.246
_exptl_crystal_density_diffrn 1.544
_diffrn_ambient_temperature 293
#These two values have been output from a single CSD field.
_refine_ls_R_factor_gt 0.0889
_refine_ls_wR_factor_gt 0.0889
_symmetry_cell_setting orthorhombic
_symmetry_space_group_name_H-M 'P 21 21 21'
_symmetry_Int_Tables_number 19
loop_
_symmetry_equiv_pos_site_id
_symmetry_equiv_pos_as_xyz
1 x,y,z
2 1/2+x,1/2-y,-z
3 1/2-x,-y,1/2+z
4 -x,1/2+y,1/2-z
_cell_length_a 5.554(3)
_cell_length_b 12.461(6)
_cell_length_c 16.49(6)
_cell_angle_alpha 90
_cell_angle_beta 90
_cell_angle_gamma 90
_cell_formula_units_Z 4
loop_
_atom_type_symbol
_atom_type_radius_bond
C 0.68
H 0.23
N 0.68
O 0.68
loop_
_atom_site_label
_atom_site_type_symbol
_atom_site_fract_x
_atom_site_fract_y
_atom_site_fract_z
N1 N 1.0489(8) 0.0989(4) 0.1641(3)
C1 C 0.8983(10) 0.1608(4) 0.2188(4)
O1 O 0.745(1) 0.2656(4) 0.1089(2)
N2 N 0.7459(12) 0.1587(5) 0.4357(3)
C2 C 0.7516(12) 0.1902(5) 0.3513(4)
N3 N 0.4574(13) 0.3861(5) 0.2160(4)
O2 O 0.8719(12) 0.0854(4) 0.4580(3)
C3 C 0.5995(11) 0.2717(5) 0.3243(4)
H1 H 0.49550 0.30660 0.35970
C4 C 0.9021(12) 0.1356(4) 0.2989(4)
H2 H 1.00450 0.08230 0.31830
O3 O 0.6011(13) 0.2061(5) 0.4805(3)
O4 O 0.2525(11) 0.3904(5) 0.2439(4)
C5 C 0.6084(12) 0.2984(5) 0.2442(4)
C6 C 0.7598(12) 0.2447(5) 0.1883(4)
C7 C 0.9760(12) 0.0371(5) 0.1021(4)
H3 H 0.81980 0.02600 0.08350
N4 N 1.2873(10) 0.0936(5) 0.1751(3)
N5 N 1.3698(9) 0.0303(5) 0.1175(4)
C8 C 1.1804(12) -0.0046(5) 0.0733(5)
H4 H 1.19080 -0.05090 0.02920
O5 O 0.5366(15) 0.4491(5) 0.1662(4)
C9 C 0.9561(19) 0.3146(7) 0.0734(5)
H5 H 0.93230 0.32310 0.01610
H6 H 1.09370 0.26970 0.08290
H7 H 0.98250 0.38360 0.09770
#END
