
#######################################################################
#
#                 Cambridge Crystallographic Data Centre
#                                CCDC
#
#######################################################################
#
# If this CIF has been generated from an entry in the Cambridge
# Structural Database, then it will include bibliographic, chemical,
# crystal, experimental, refinement or atomic coordinate data resulting
# from the CCDC's data processing and validation procedures.
#
#######################################################################

data_CSD_CIF_XETKOY
_audit_creation_date 2013-05-20
_audit_creation_method CSD-ConQuest-V1
_database_code_CSD XETKOY
_database_code_depnum_ccdc_archive 'CCDC 895107'
_chemical_formula_sum 'C9 H6 N6 O6'
_chemical_formula_moiety
;
C9 H6 N6 O6
;
_journal_coden_Cambridge 1220
_journal_volume 19
_journal_year 2013
_journal_page_first 509
_journal_name_full 'Chem.-Eur.J. '
loop_
_publ_author_name
"A.S.Kumar"
"V.D.Ghule"
"S.Subramanyam"
"A.K.Sahoo"
_chemical_name_systematic
;
1-(2,4-Dinitrobenzyl)-4-nitro-1H-1,2,3-triazole
;
_cell_volume    557.094
_exptl_crystal_density_diffrn 1.748
_diffrn_ambient_temperature 100
#These two values have been output from a single CSD field.
_refine_ls_R_factor_gt 0.0355
_refine_ls_wR_factor_gt 0.0355
_symmetry_cell_setting monoclinic
_symmetry_space_group_name_H-M 'P 21'
_symmetry_Int_Tables_number 4
loop_
_symmetry_equiv_pos_site_id
_symmetry_equiv_pos_as_xyz
1 x,y,z
2 -x,1/2+y,-z
_cell_length_a 5.5245(6)
_cell_length_b 5.5719(6)
_cell_length_c 18.1323(19)
_cell_angle_alpha 90
_cell_angle_beta 93.521(2)
_cell_angle_gamma 90
_cell_formula_units_Z 2
loop_
_atom_type_symbol
_atom_type_radius_bond
C 0.68
H 0.23
N 0.68
O 0.68
loop_
_atom_site_label
_atom_site_type_symbol
_atom_site_fract_x
_atom_site_fract_y
_atom_site_fract_z
N1 N 1.1420(3) 0.8008(3) 0.65177(10)
O1 O 1.5943(3) 0.2545(3) 0.55510(9)
N2 N 1.3847(3) 0.8434(3) 0.65956(10)
O2 O 0.6740(3) 1.2918(3) 0.73459(9)
O3 O 1.2078(3) 0.1904(3) 0.53150(9)
C1 C 0.8160(4) 0.6624(5) 0.89943(11)
N3 N 1.4931(3) 0.6712(4) 0.62578(10)
O4 O 0.3946(3) 1.1882(3) 0.80682(9)
N4 N 1.3798(3) 0.3081(3) 0.55826(10)
O5 O 0.6488(3) 0.6789(4) 1.01297(9)
N5 N 0.7627(4) 0.5577(4) 0.97096(11)
O6 O 0.8385(3) 0.3541(4) 0.98426(10)
N6 N 0.5910(3) 1.1577(4) 0.78037(10)
C2 C 0.9782(4) 0.9591(4) 0.68915(11)
H1 H 0.82540 0.97770 0.65820
H2 H 1.05350 1.11960 0.69550
C3 C 0.7366(4) 0.9504(4) 0.80593(12)
C4 C 1.3198(4) 0.5211(4) 0.59754(12)
C5 C 1.0928(4) 0.5993(4) 0.61275(11)
C6 C 1.0035(4) 0.5674(4) 0.86183(12)
H3 H 1.09610 0.43620 0.88170
C7 C 0.9217(4) 0.8605(4) 0.76423(11)
C8 C 1.0536(4) 0.6673(5) 0.79478(12)
H4 H 1.18210 0.60230 0.76860
C9 C 0.6807(4) 0.8555(4) 0.87307(12)
H5 H 0.55400 0.92060 0.90010
#END
