
#######################################################################
#
#                 Cambridge Crystallographic Data Centre
#                                CCDC
#
#######################################################################
#
# If this CIF has been generated from an entry in the Cambridge
# Structural Database, then it will include bibliographic, chemical,
# crystal, experimental, refinement or atomic coordinate data resulting
# from the CCDC's data processing and validation procedures.
#
#######################################################################

data_CSD_CIF_XETKEO
_audit_creation_date 2013-05-20
_audit_creation_method CSD-ConQuest-V1
_database_code_CSD XETKEO
_database_code_depnum_ccdc_archive 'CCDC 895109'
_chemical_formula_sum 'C9 H7 N5 O4'
_chemical_formula_moiety
;
C9 H7 N5 O4
;
_journal_coden_Cambridge 1220
_journal_volume 19
_journal_year 2013
_journal_page_first 509
_journal_name_full 'Chem.-Eur.J. '
loop_
_publ_author_name
"A.S.Kumar"
"V.D.Ghule"
"S.Subramanyam"
"A.K.Sahoo"
_chemical_name_systematic
;
1-(3,5-Dinitrobenzyl)-1H-1,2,3-triazole
;
_cell_volume   1016.723
_exptl_crystal_density_diffrn 1.628
_diffrn_ambient_temperature 100
#These two values have been output from a single CSD field.
_refine_ls_R_factor_gt 0.035
_refine_ls_wR_factor_gt 0.035
_symmetry_cell_setting monoclinic
_symmetry_space_group_name_H-M 'P 21/n'
_symmetry_Int_Tables_number 14
loop_
_symmetry_equiv_pos_site_id
_symmetry_equiv_pos_as_xyz
1 x,y,z
2 1/2-x,1/2+y,1/2-z
3 -x,-y,-z
4 -1/2+x,-1/2-y,-1/2+z
_cell_length_a 10.0567(8)
_cell_length_b 9.2416(7)
_cell_length_c 10.9434(9)
_cell_angle_alpha 90
_cell_angle_beta 91.518(1)
_cell_angle_gamma 90
_cell_formula_units_Z 4
loop_
_atom_type_symbol
_atom_type_radius_bond
C 0.68
H 0.23
N 0.68
O 0.68
loop_
_atom_site_label
_atom_site_type_symbol
_atom_site_fract_x
_atom_site_fract_y
_atom_site_fract_z
O1 O 0.74210(11) 1.10234(12) 0.16714(10)
O2 O 0.96022(12) 0.80658(14) -0.28411(10)
O3 O 1.07359(12) 0.62639(12) -0.20948(11)
N1 N 1.20697(13) 0.88992(15) 0.31513(12)
N2 N 0.73906(13) 1.03303(15) 0.07135(12)
N3 N 1.23468(13) 0.96107(15) 0.41662(12)
N4 N 1.00271(13) 0.73345(15) -0.19877(12)
N5 N 1.11356(12) 0.79117(14) 0.34204(11)
O4 O 0.65686(12) 1.05095(14) -0.01182(11)
C1 C 0.90277(15) 0.86145(17) 0.15708(14)
H1 H 0.87910 0.89140 0.23670
C2 C 1.06919(16) 0.68640(17) 0.25017(14)
H2 H 1.00780 0.61670 0.28800
H3 H 1.14710 0.63160 0.22170
C3 C 1.03117(15) 0.71355(17) 0.02435(14)
H4 H 1.09630 0.64080 0.01240
C4 C 0.84125(15) 0.92168(17) 0.05447(14)
C5 C 0.96691(15) 0.77766(17) -0.07475(14)
C6 C 0.87141(15) 0.88360(17) -0.06320(14)
H5 H 0.82900 0.92760 -0.13230
C7 C 0.99948(15) 0.75672(17) 0.14163(14)
C8 C 1.08184(16) 0.79906(17) 0.46018(14)
H6 H 1.01910 0.74190 0.50200
C9 C 1.15987(16) 0.90745(18) 0.50661(15)
H7 H 1.16140 0.94000 0.58900
#END
