
#######################################################################
#
#                 Cambridge Crystallographic Data Centre
#                                CCDC
#
#######################################################################
#
# If this CIF has been generated from an entry in the Cambridge
# Structural Database, then it will include bibliographic, chemical,
# crystal, experimental, refinement or atomic coordinate data resulting
# from the CCDC's data processing and validation procedures.
#
#######################################################################

data_CSD_CIF_XETZAZ
_audit_creation_date 2013-05-20
_audit_creation_method CSD-ConQuest-V1
_database_code_CSD XETZAZ
_database_code_depnum_ccdc_archive 'CCDC 894883'
_chemical_formula_sum 'C8 H8 N4 O2'
_chemical_formula_moiety
;
C8 H8 N4 O2
;
_journal_coden_Cambridge 16
_journal_volume 69
_journal_year 2013
_journal_page_first 1669
_journal_name_full 'Tetrahedron '
loop_
_publ_author_name
"O.Mammoliti"
"E.M.Quinton"
"K.T.J.Loones"
"Anh Tho Nguyen"
"J.Wouters"
"Guy Van Lommen"
_chemical_name_systematic
;
2-Ethyl-8-nitro[1,2,4]triazolo[1,5-a]pyridine
;
_cell_volume    833.622
_exptl_crystal_colour 'pale yellow'
_exptl_crystal_density_diffrn 1.531
_exptl_crystal_description 'needle'
_diffrn_ambient_temperature 150
#These two values have been output from a single CSD field.
_refine_ls_R_factor_gt 0.033
_refine_ls_wR_factor_gt 0.033
_symmetry_cell_setting monoclinic
_symmetry_space_group_name_H-M 'P 21/n'
_symmetry_Int_Tables_number 14
loop_
_symmetry_equiv_pos_site_id
_symmetry_equiv_pos_as_xyz
1 x,y,z
2 1/2-x,1/2+y,1/2-z
3 -x,-y,-z
4 -1/2+x,-1/2-y,-1/2+z
_cell_length_a 3.9377(1)
_cell_length_b 18.1296(5)
_cell_length_c 11.6835(3)
_cell_angle_alpha 90
_cell_angle_beta 91.883(2)
_cell_angle_gamma 90
_cell_formula_units_Z 4
loop_
_atom_type_symbol
_atom_type_radius_bond
C 0.68
H 0.23
N 0.68
O 0.68
loop_
_atom_site_label
_atom_site_type_symbol
_atom_site_fract_x
_atom_site_fract_y
_atom_site_fract_z
C1 C 0.8985(3) 0.10448(7) 0.23219(11)
C2 C 0.6220(3) 0.17082(7) 0.11351(11)
C3 C 0.4271(3) 0.22018(7) 0.04374(11)
C4 C 0.3521(3) 0.20437(8) -0.06911(11)
H1 H 0.22550 0.23740 -0.11410
C5 C 0.4678(3) 0.13787(8) -0.11654(11)
H2 H 0.41660 0.12710 -0.19300
C6 C 0.6538(3) 0.08931(8) -0.05157(11)
H3 H 0.73070 0.04530 -0.08250
C7 C 1.0597(3) 0.07994(8) 0.34350(11)
H4 H 0.89200 0.08280 0.40230
H5 H 1.24210 0.11380 0.36450
C8 C 1.2022(4) 0.00203(8) 0.34130(13)
H6 H 1.30110 -0.00990 0.41520
H7 H 1.37300 -0.00110 0.28470
H8 H 1.02250 -0.03210 0.32260
N1 N 0.7314(3) 0.17007(6) 0.22264(9)
N2 N 0.9047(3) 0.06400(6) 0.13698(9)
N3 N 0.7243(3) 0.10695(6) 0.06018(9)
N4 N 0.3101(3) 0.28951(6) 0.09212(10)
O1 O 0.0882(2) 0.32405(6) 0.03825(9)
O2 O 0.4383(3) 0.30988(6) 0.18363(9)
#END
