
#######################################################################
#
#                 Cambridge Crystallographic Data Centre
#                                CCDC
#
#######################################################################
#
# If this CIF has been generated from an entry in the Cambridge
# Structural Database, then it will include bibliographic, chemical,
# crystal, experimental, refinement or atomic coordinate data resulting
# from the CCDC's data processing and validation procedures.
#
#######################################################################

data_CSD_CIF_XEVDAG
_audit_creation_date 2018-04-06
_audit_creation_method CSD-ConQuest-V1
_database_code_CSD XEVDAG
_database_code_depnum_ccdc_archive 'CCDC 1590546'
_chemical_formula_sum 'C14 H11 N1 O5'
_chemical_formula_moiety
;
C14 H11 N1 O5
;
_journal_coden_Cambridge 1291
_journal_volume 2018
_journal_year 2018
_journal_page_first 2053
_journal_name_full 'Eur.J.Org.Chem. '
loop_
_publ_author_name
"T.Schneider"
"V.Kubyshkin"
"N.Budisa"
_chemical_name_systematic
;
4-hydroxy-3-((2-nitrophenyl)methoxy)benzaldehyde
;
_cell_volume   1231.401
_exptl_crystal_colour 'yellow'
_exptl_crystal_density_diffrn 1.474
_exptl_crystal_description 'rod'
_diffrn_ambient_temperature 150
#These two values have been output from a single CSD field.
_refine_ls_R_factor_gt 0.0346
_refine_ls_wR_factor_gt 0.0346
_symmetry_cell_setting monoclinic
_symmetry_space_group_name_H-M 'P 21/c'
_symmetry_Int_Tables_number 14
loop_
_symmetry_equiv_pos_site_id
_symmetry_equiv_pos_as_xyz
1 x,y,z
2 -x,1/2+y,1/2-z
3 -x,-y,-z
4 x,-1/2-y,-1/2+z
_cell_length_a 7.98978(19)
_cell_length_b 21.9650(4)
_cell_length_c 7.74473(18)
_cell_angle_alpha 90
_cell_angle_beta 115.042(3)
_cell_angle_gamma 90
_cell_formula_units_Z 4
loop_
_atom_type_symbol
_atom_type_radius_bond
C 0.68
H 0.23
N 0.68
O 0.68
loop_
_atom_site_label
_atom_site_type_symbol
_atom_site_fract_x
_atom_site_fract_y
_atom_site_fract_z
O1 O 0.60603(11) 0.70829(4) 0.45326(12)
O2 O 0.48311(12) 0.59589(4) 0.32434(13)
H1 H 0.428(3) 0.6327(9) 0.284(3)
O3 O 1.19918(13) 0.66220(4) 1.07789(13)
O4 O 0.82820(13) 0.86760(4) 0.70575(14)
O5 O 0.73896(15) 0.95809(4) 0.60020(16)
N1 N 0.71864(15) 0.90264(5) 0.58863(16)
C1 C 0.70750(16) 0.66059(5) 0.56098(16)
C2 C 0.63676(16) 0.60263(5) 0.48784(17)
C3 C 0.72622(17) 0.55047(6) 0.58247(18)
H2 H 0.67780 0.51150 0.53310
C4 C 0.88612(16) 0.55516(6) 0.74896(18)
H3 H 0.94830 0.51940 0.81330
C5 C 0.95593(16) 0.61202(6) 0.82223(17)
C6 C 0.86628(16) 0.66514(5) 0.72715(17)
H4 H 0.91490 0.70400 0.77720
C7 C 1.12532(17) 0.61543(6) 0.99664(18)
H5 H 1.18320 0.57810 1.05190
C8 C 0.66709(16) 0.76771(5) 0.52972(17)
H6 H 0.79290 0.77530 0.53920
H7 H 0.67130 0.77080 0.65900
C9 C 0.53440(16) 0.81415(6) 0.39989(16)
C10 C 0.55820(16) 0.87729(6) 0.42809(17)
C11 C 0.43346(19) 0.91896(6) 0.3054(2)
H8 H 0.45360 0.96140 0.32850
C12 C 0.28048(18) 0.89842(6) 0.1502(2)
H9 H 0.19390 0.92660 0.06620
C13 C 0.25389(18) 0.83641(6) 0.1176(2)
H10 H 0.14960 0.82200 0.00970
C14 C 0.37829(17) 0.79524(6) 0.24117(18)
H11 H 0.35660 0.75290 0.21710
#END
