
#######################################################################
#
#                 Cambridge Crystallographic Data Centre
#                                CCDC
#
#######################################################################
#
# If this CIF has been generated from an entry in the Cambridge
# Structural Database, then it will include bibliographic, chemical,
# crystal, experimental, refinement or atomic coordinate data resulting
# from the CCDC's data processing and validation procedures.
#
#######################################################################

data_CSD_CIF_XEVFOU
_audit_creation_date 2007-05-09
_audit_creation_method CSD-ConQuest-V1
_database_code_CSD XEVFOU
_database_code_depnum_ccdc_archive 'CCDC 631811'
_chemical_formula_sum 'C18 H17 N1 O4'
_chemical_formula_moiety
;
C18 H17 N1 O4
;
_journal_coden_Cambridge 1078
_journal_year 2006
_journal_name_full 'CSD Communication(Private Communication) '
loop_
_publ_author_name
"H.Kooijman"
"A.L.Spek"
"B.L.Feringa"
_chemical_name_systematic
;
2,3-Diphenyl-6-methoxy-3,3a,6,6a-tetrahydro-4H-furo(3,4-d)isoxazol-4-one
;
_cell_volume   1518.816
_exptl_crystal_colour 'colorless'
_exptl_crystal_density_diffrn 1.362
_exptl_special_details
;
contribution from Bijvoet Center for Biomolecular Research, Crystal and 
Structural Chemistry, Utrecht University, Padualaan 8, 3584 CH Utrecht, The 
Netherlands
;
_exptl_crystal_description 'needle'
_diffrn_ambient_temperature 298
#These two values have been output from a single CSD field.
_refine_ls_R_factor_gt 0.0572
_refine_ls_wR_factor_gt 0.0572
_symmetry_cell_setting monoclinic
_symmetry_space_group_name_H-M 'P 21/c'
_symmetry_Int_Tables_number 14
loop_
_symmetry_equiv_pos_site_id
_symmetry_equiv_pos_as_xyz
1 x,y,z
2 -x,1/2+y,1/2-z
3 -x,-y,-z
4 x,-1/2-y,-1/2+z
_cell_length_a 13.8601(13)
_cell_length_b 9.9974(10)
_cell_length_c 11.412(2)
_cell_angle_alpha 90
_cell_angle_beta 106.161(11)
_cell_angle_gamma 90
_cell_formula_units_Z 4
loop_
_atom_type_symbol
_atom_type_radius_bond
C 0.68
H 0.23
N 0.68
O 0.68
loop_
_atom_site_label
_atom_site_type_symbol
_atom_site_fract_x
_atom_site_fract_y
_atom_site_fract_z
O1 O 0.19515(12) 0.75119(15) 0.27903(14)
O2 O 0.11433(13) 0.42622(15) 0.31366(14)
O3 O 0.10403(12) 0.5704(2) 0.46774(14)
O4 O 0.04243(13) 0.3532(2) 0.12574(15)
N1 N 0.25549(14) 0.6755(2) 0.2156(2)
C1 C 0.1812(2) 0.6155(2) 0.1085(2)
C2 C 0.0898(2) 0.5880(2) 0.1590(2)
C3 C 0.0784(2) 0.4442(2) 0.1922(2)
C4 C 0.1492(2) 0.5512(2) 0.3765(2)
C5 C 0.1168(2) 0.6609(2) 0.2809(2)
C6 C 0.1362(2) 0.4776(3) 0.5671(2)
C7 C 0.3270(2) 0.7655(2) 0.1910(2)
C8 C 0.3624(2) 0.7477(3) 0.0899(2)
C9 C 0.4339(2) 0.8334(3) 0.0693(2)
C10 C 0.4711(2) 0.9368(3) 0.1473(2)
C11 C 0.4365(2) 0.9551(3) 0.2482(2)
C12 C 0.3650(2) 0.8701(2) 0.2709(2)
C13 C 0.2237(2) 0.4935(2) 0.0629(2)
C14 C 0.1967(2) 0.4648(2) -0.0607(2)
C15 C 0.2346(2) 0.3536(2) -0.1043(2)
C16 C 0.3015(2) 0.2706(2) -0.0250(2)
C17 C 0.3285(2) 0.2980(2) 0.0977(2)
C18 C 0.2899(2) 0.4087(2) 0.1421(2)
H1 H 0.16230 0.68200 0.04290
H2 H 0.02740 0.62270 0.10400
H3 H 0.22250 0.55040 0.40980
H4 H 0.05840 0.70920 0.29200
H5 H 0.10850 0.50330 0.63200
H6 H 0.20820 0.47810 0.59610
H7 H 0.11340 0.38940 0.53950
H8 H 0.33790 0.67790 0.03590
H9 H 0.45730 0.82070 0.00120
H10 H 0.51920 0.99410 0.13240
H11 H 0.46150 1.02520 0.30150
H12 H 0.34230 0.88300 0.33950
H13 H 0.15260 0.52110 -0.11500
H14 H 0.21490 0.33460 -0.18740
H15 H 0.32810 0.19670 -0.05440
H16 H 0.37310 0.24160 0.15150
H17 H 0.30850 0.42610 0.22540
#END
