
#######################################################################
#
#                 Cambridge Crystallographic Data Centre
#                                CCDC
#
#######################################################################
#
# If this CIF has been generated from an entry in the Cambridge
# Structural Database, then it will include bibliographic, chemical,
# crystal, experimental, refinement or atomic coordinate data resulting
# from the CCDC's data processing and validation procedures.
#
#######################################################################

data_CSD_CIF_XEVMET
_audit_creation_date 2018-04-06
_audit_creation_method CSD-ConQuest-V1
_database_code_CSD XEVMET
_database_code_depnum_ccdc_archive 'CCDC 1585500'
_chemical_formula_sum 'C33 H22 N4 O3'
_chemical_formula_moiety
;
C33 H22 N4 O3
;
_journal_coden_Cambridge 440
_journal_volume 42
_journal_year 2018
_journal_page_first 6609
_journal_name_full 'New J.Chem. '
loop_
_publ_author_name
"Xie Han"
"Dongyang Li"
"Xiaoxie Ma"
"Sheng Hua Liu"
"Jun Yin"
_chemical_name_systematic
;
7-nitro-N-{[4-(10-phenylphenanthren-9-yl)phenyl]methyl}-2,1,3-benzoxadiazol-4-
amine
;
_cell_volume   2605.677
_exptl_crystal_colour 'red'
_exptl_crystal_density_diffrn 1.332
_exptl_crystal_description 'block'
_diffrn_ambient_temperature 296
#These two values have been output from a single CSD field.
_refine_ls_R_factor_gt 0.0471
_refine_ls_wR_factor_gt 0.0471
_symmetry_cell_setting monoclinic
_symmetry_space_group_name_H-M 'P 21/n'
_symmetry_Int_Tables_number 14
loop_
_symmetry_equiv_pos_site_id
_symmetry_equiv_pos_as_xyz
1 x,y,z
2 1/2-x,1/2+y,1/2-z
3 -x,-y,-z
4 -1/2+x,-1/2-y,-1/2+z
_cell_length_a 14.304(3)
_cell_length_b 12.424(2)
_cell_length_c 15.281(3)
_cell_angle_alpha 90
_cell_angle_beta 106.360(3)
_cell_angle_gamma 90
_cell_formula_units_Z 4
loop_
_atom_type_symbol
_atom_type_radius_bond
C 0.68
H 0.23
N 0.68
O 0.68
loop_
_atom_site_label
_atom_site_type_symbol
_atom_site_fract_x
_atom_site_fract_y
_atom_site_fract_z
C1 C 0.45041(18) 0.3664(2) -0.21876(16)
H1 H 0.39780 0.32820 -0.21020
C2 C 0.4430(2) 0.4115(2) -0.30213(19)
H2 H 0.38610 0.40320 -0.34950
C3 C 0.5201(2) 0.4693(2) -0.3159(2)
H3 H 0.51510 0.50010 -0.37250
C4 C 0.6033(2) 0.4812(2) -0.24669(19)
H4 H 0.65420 0.52140 -0.25670
C5 C 0.61487(17) 0.43447(18) -0.16017(16)
C6 C 0.53537(16) 0.37638(17) -0.14582(15)
C7 C 0.70374(17) 0.44183(18) -0.08684(18)
C8 C 0.78585(19) 0.4989(2) -0.0963(2)
H5 H 0.78300 0.53220 -0.15150
C9 C 0.8692(2) 0.5060(2) -0.0260(2)
H6 H 0.92170 0.54550 -0.03330
C10 C 0.87622(19) 0.4551(3) 0.0559(3)
H7 H 0.93380 0.45940 0.10300
C11 C 0.79843(18) 0.3979(2) 0.0684(2)
H8 H 0.80370 0.36410 0.12390
C12 C 0.71082(16) 0.39048(18) -0.00264(17)
C13 C 0.62764(16) 0.33315(17) 0.01078(15)
C14 C 0.54348(16) 0.32750(17) -0.05808(15)
C15 C 0.63539(16) 0.2811(2) 0.10067(16)
C16 C 0.6744(2) 0.1797(2) 0.1193(2)
H9 H 0.69750 0.14410 0.07600
C17 C 0.6798(3) 0.1300(3) 0.2013(3)
H10 H 0.70610 0.06120 0.21280
C18 C 0.6468(3) 0.1814(4) 0.2655(2)
H11 H 0.65020 0.14800 0.32080
C19 C 0.6087(3) 0.2821(4) 0.2480(2)
H12 H 0.58660 0.31760 0.29200
C20 C 0.6024(2) 0.3321(3) 0.16639(19)
H13 H 0.57580 0.40080 0.15540
C21 C 0.45664(15) 0.27176(17) -0.04380(14)
C22 C 0.38365(17) 0.33040(19) -0.02362(17)
H14 H 0.38740 0.40510 -0.02220
C23 C 0.30533(18) 0.2803(2) -0.00551(17)
H15 H 0.25640 0.32200 0.00650
C24 C 0.29773(16) 0.17019(18) -0.00478(14)
C25 C 0.36964(19) 0.1118(2) -0.02567(19)
H16 H 0.36600 0.03710 -0.02630
C26 C 0.44764(19) 0.1613(2) -0.04588(19)
H17 H 0.49470 0.11940 -0.06110
C27 C 0.21394(18) 0.1146(2) 0.01937(16)
H18 H 0.16110 0.10430 -0.03590
H19 H 0.23530 0.04400 0.04410
C28 C 0.23172(16) 0.1962(2) 0.16969(16)
C29 C 0.32634(17) 0.1610(2) 0.20828(17)
H20 H 0.35440 0.11450 0.17530
C30 C 0.38022(18) 0.1931(2) 0.29442(17)
H21 H 0.44350 0.16730 0.31660
C31 C 0.34550(18) 0.2607(2) 0.34905(16)
C32 C 0.24819(18) 0.29830(19) 0.31542(15)
C33 C 0.19276(16) 0.26510(19) 0.22681(16)
N1 N 0.17711(14) 0.17380(17) 0.08516(12)
H22 H 0.11750 0.19530 0.06880
N2 N 0.10620(15) 0.30916(18) 0.20673(15)
N3 N 0.19397(18) 0.36269(19) 0.35010(16)
N4 N 0.4077(2) 0.2959(2) 0.43485(16)
O1 O 0.10589(14) 0.36908(16) 0.28182(15)
O2 O 0.3750(2) 0.3618(2) 0.47792(15)
O3 O 0.49189(17) 0.2614(2) 0.45917(15)
#END
