
#######################################################################
#
#                 Cambridge Crystallographic Data Centre
#                                CCDC
#
#######################################################################
#
# If this CIF has been generated from an entry in the Cambridge
# Structural Database, then it will include bibliographic, chemical,
# crystal, experimental, refinement or atomic coordinate data resulting
# from the CCDC's data processing and validation procedures.
#
#######################################################################

data_CSD_CIF_XEVRIB
_audit_creation_date 2013-05-20
_audit_creation_method CSD-ConQuest-V1
_database_code_CSD XEVRIB
_database_code_depnum_ccdc_archive 'CCDC 894551'
_chemical_formula_sum 'C14 H17 N1 O4'
_chemical_formula_moiety
;
C14 H17 N1 O4
;
_journal_coden_Cambridge 1220
_journal_volume 19
_journal_year 2013
_journal_page_first 1666
_journal_name_full 'Chem.-Eur.J. '
loop_
_publ_author_name
"Qipu Dai"
"H.Arman"
"J.C.-G.Zhao"
_chemical_name_systematic
;
(1S,2R,3R)-2-Nitro-3-(2-oxo-2-phenylethyl)cyclohexanol
;
_cell_volume   1255.217
_exptl_crystal_colour 'colorless'
_exptl_crystal_density_diffrn 1.393
_exptl_crystal_description 'needle'
_diffrn_ambient_temperature 98
#These two values have been output from a single CSD field.
_refine_ls_R_factor_gt 0.0436
_refine_ls_wR_factor_gt 0.0436
_symmetry_cell_setting orthorhombic
_symmetry_space_group_name_H-M 'P 21 21 21'
_symmetry_Int_Tables_number 19
loop_
_symmetry_equiv_pos_site_id
_symmetry_equiv_pos_as_xyz
1 x,y,z
2 1/2-x,-y,1/2+z
3 -x,1/2+y,1/2-z
4 1/2+x,1/2-y,-z
_cell_length_a 5.7606(16)
_cell_length_b 12.305(4)
_cell_length_c 17.708(5)
_cell_angle_alpha 90
_cell_angle_beta 90
_cell_angle_gamma 90
_cell_formula_units_Z 4
loop_
_atom_type_symbol
_atom_type_radius_bond
C 0.68
H 0.23
N 0.68
O 0.68
loop_
_atom_site_label
_atom_site_type_symbol
_atom_site_fract_x
_atom_site_fract_y
_atom_site_fract_z
O1 O 0.7926(2) 0.94217(11) 0.17405(8)
C1 C 1.3079(3) 0.81792(15) 0.09705(11)
C2 C 0.7271(3) 0.64332(14) 0.29987(11)
C3 C 1.0492(3) 0.94585(15) 0.03647(11)
C4 C 1.1002(3) 0.87670(14) 0.0975(1)
C5 C 0.7504(3) 0.76041(15) 0.27129(11)
O2 O 0.3385(2) 0.65744(12) 0.35645(9)
O3 O 0.7027(3) 0.47543(11) 0.23618(9)
O4 O 0.4752(3) 0.60339(12) 0.19732(9)
C6 C 1.2055(4) 0.95680(16) -0.02271(11)
C7 C 0.8322(3) 0.83299(15) 0.33732(11)
C8 C 1.4152(4) 0.90024(16) -0.02146(11)
C9 C 0.5741(3) 0.62912(15) 0.37094(11)
N1 N 0.6288(3) 0.56868(13) 0.23897(9)
C10 C 0.9304(3) 0.86854(14) 0.16137(11)
C11 C 1.4652(3) 0.83033(16) 0.03827(11)
C12 C 0.6760(4) 0.82122(16) 0.40558(12)
C13 C 0.6700(4) 0.70304(16) 0.43274(12)
C14 C 0.9233(4) 0.76341(15) 0.20576(12)
H1 H 0.898(4) 0.9913(19) 0.0383(13)
H2 H 0.878(5) 0.6109(19) 0.3109(14)
H3 H 0.828(5) 0.683(2) 0.4450(14)
H4 H 0.597(5) 0.7837(18) 0.2587(14)
H5 H 0.736(4) 0.8694(19) 0.4491(14)
H6 H 0.838(4) 0.9083(19) 0.3192(13)
H7 H 0.992(4) 0.8138(19) 0.3521(14)
H8 H 1.606(5) 0.7920(19) 0.0409(14)
H9 H 1.344(4) 0.7698(19) 0.1408(14)
H10 H 0.579(5) 0.6939(19) 0.4801(14)
H11 H 1.169(4) 1.004(2) -0.0670(14)
H12 H 0.523(4) 0.8467(19) 0.3963(14)
H13 H 1.530(5) 0.9096(19) -0.0641(13)
H14 H 0.278(5) 0.596(2) 0.3449(15)
H15 H 0.886(4) 0.7007(19) 0.1655(13)
H16 H 1.078(5) 0.7489(18) 0.2248(14)
H17 H 0.577(4) 0.5504(19) 0.3860(13)
#END
