
#######################################################################
#
#                 Cambridge Crystallographic Data Centre
#                                CCDC
#
#######################################################################
#
# If this CIF has been generated from an entry in the Cambridge
# Structural Database, then it will include bibliographic, chemical,
# crystal, experimental, refinement or atomic coordinate data resulting
# from the CCDC's data processing and validation procedures.
#
#######################################################################

data_CSD_CIF_XEWVIH
_audit_creation_date 2018-04-06
_audit_creation_method CSD-ConQuest-V1
_database_code_CSD XEWVIH
_database_code_depnum_ccdc_archive 'CCDC 1530733'
_chemical_formula_sum 'C26 H32 N2 O3'
_chemical_formula_moiety
;
C26 H32 N2 O3
;
_journal_coden_Cambridge 1291
_journal_volume 2018
_journal_year 2018
_journal_page_first 2048
_journal_name_full 'Eur.J.Org.Chem. '
loop_
_publ_author_name
"S.Diab"
"L.Noel-Duchesneau"
"M.Sanselme"
"Y.Kondo"
"Michael De Paolis"
"I.Chataigner"
_chemical_name_systematic
;
4a-(morpholin-4-yl)-1,2,3,4,4a,7,8,9,9a,16a-decahydro-6H-5a,16-epoxydibenzo[b,
g]naphtho[1,2-e][1,4]oxazocine
;
_cell_volume   2142.016
_exptl_crystal_colour 'colorless'
_exptl_crystal_density_diffrn 1.304
_exptl_crystal_description 'square'
_diffrn_ambient_temperature 293
#These two values have been output from a single CSD field.
_refine_ls_R_factor_gt 0.035
_refine_ls_wR_factor_gt 0.035
_symmetry_cell_setting orthorhombic
_symmetry_space_group_name_H-M 'P 21 21 21'
_symmetry_Int_Tables_number 19
loop_
_symmetry_equiv_pos_site_id
_symmetry_equiv_pos_as_xyz
1 x,y,z
2 1/2-x,-y,1/2+z
3 1/2+x,1/2-y,-z
4 -x,1/2+y,1/2-z
_cell_length_a 9.4550(15)
_cell_length_b 19.200(3)
_cell_length_c 11.7994(19)
_cell_angle_alpha 90
_cell_angle_beta 90
_cell_angle_gamma 90
_cell_formula_units_Z 4
loop_
_atom_type_symbol
_atom_type_radius_bond
C 0.68
H 0.23
N 0.68
O 0.68
loop_
_atom_site_label
_atom_site_type_symbol
_atom_site_fract_x
_atom_site_fract_y
_atom_site_fract_z
N1 N 0.74114(12) 0.15214(6) 0.22542(10)
N2 N 0.42359(12) 0.19227(6) 0.25952(10)
O1 O 0.64057(10) 0.24912(5) 0.13303(9)
O2 O 0.41751(10) 0.26312(5) 0.21892(9)
O3 O 0.98516(13) 0.08878(7) 0.32622(11)
C1 C 0.66075(17) 0.23177(8) 0.50373(14)
H1 H 0.72470 0.26580 0.52640
C2 C 0.63604(18) 0.17650(9) 0.57247(14)
H2 H 0.68560 0.17230 0.64020
C3 C 0.53597(18) 0.12523(8) 0.54244(14)
C4 C 0.5052(2) 0.06749(10) 0.61244(17)
H3 H 0.55360 0.06230 0.68050
C5 C 0.4072(2) 0.01962(10) 0.58284(19)
H4 H 0.39020 -0.01840 0.62970
C6 C 0.3309(2) 0.02725(9) 0.48164(19)
H5 H 0.26180 -0.00530 0.46300
C7 C 0.35666(17) 0.08172(8) 0.41008(16)
H6 H 0.30520 0.08610 0.34330
C8 C 0.46196(16) 0.13169(7) 0.43759(14)
C9 C 0.49549(14) 0.18891(7) 0.36602(12)
C10 C 0.59129(15) 0.23864(7) 0.39846(12)
C11 C 0.48622(14) 0.15016(7) 0.16703(12)
H7 H 0.49210 0.10190 0.19360
C12 C 0.38276(17) 0.15191(9) 0.06722(15)
H8 H 0.29870 0.12570 0.08740
H9 H 0.35440 0.19980 0.05380
C13 C 0.4438(2) 0.12215(11) -0.04158(16)
H10 H 0.46510 0.07310 -0.03140
H11 H 0.37520 0.12640 -0.10230
C14 C 0.57725(19) 0.16138(11) -0.07216(15)
H12 H 0.61400 0.14410 -0.14360
H13 H 0.55590 0.21050 -0.08110
C15 C 0.68655(17) 0.15212(9) 0.01927(13)
H14 H 0.77000 0.17870 -0.00110
H15 H 0.71360 0.10340 0.02200
C16 C 0.63848(14) 0.17457(7) 0.13801(13)
C17 C 0.55638(14) 0.29132(7) 0.20667(13)
C18 C 0.61829(15) 0.30147(7) 0.32488(13)
H16 H 0.72050 0.30910 0.31870
C19 C 0.54978(19) 0.36459(8) 0.38495(15)
H17 H 0.45470 0.35190 0.40780
H18 H 0.60320 0.37470 0.45320
C20 C 0.5421(2) 0.43025(8) 0.31360(17)
H19 H 0.49400 0.46660 0.35560
H20 H 0.63700 0.44630 0.29640
C21 C 0.46319(18) 0.41560(8) 0.20459(16)
H21 H 0.45910 0.45750 0.15870
H22 H 0.36720 0.40110 0.22150
C22 C 0.53933(16) 0.35848(7) 0.14045(14)
H23 H 0.63230 0.37530 0.11890
H24 H 0.48750 0.34860 0.07140
C23 C 0.88541(15) 0.17752(9) 0.20474(16)
H25 H 0.88350 0.22740 0.19210
H26 H 0.92340 0.15550 0.13730
C24 C 0.97838(18) 0.16136(10) 0.30447(17)
H27 H 1.07290 0.17880 0.29000
H28 H 0.94200 0.18500 0.37100
C25 C 0.8467(2) 0.06419(10) 0.34710(17)
H29 H 0.80960 0.08680 0.41430
H30 H 0.85020 0.01450 0.36180
C26 C 0.74830(18) 0.07768(8) 0.24914(15)
H31 H 0.78190 0.05310 0.18250
H32 H 0.65460 0.06040 0.26720
#END
