
#######################################################################
#
#                 Cambridge Crystallographic Data Centre
#                                CCDC
#
#######################################################################
#
# If this CIF has been generated from an entry in the Cambridge
# Structural Database, then it will include bibliographic, chemical,
# crystal, experimental, refinement or atomic coordinate data resulting
# from the CCDC's data processing and validation procedures.
#
#######################################################################

data_CSD_CIF_XEWVON
_audit_creation_date 2018-04-06
_audit_creation_method CSD-ConQuest-V1
_database_code_CSD XEWVON
_database_code_depnum_ccdc_archive 'CCDC 1530734'
_chemical_formula_sum 'C18 H20 N2 O4'
_chemical_formula_moiety
;
C18 H20 N2 O4
;
_journal_coden_Cambridge 1291
_journal_volume 2018
_journal_year 2018
_journal_page_first 2048
_journal_name_full 'Eur.J.Org.Chem. '
loop_
_publ_author_name
"S.Diab"
"L.Noel-Duchesneau"
"M.Sanselme"
"Y.Kondo"
"Michael De Paolis"
"I.Chataigner"
_chemical_name_systematic
;
1-nitro-4,5,6,7,10,11,12,13-octahydro[1,2]benzoxazino[4,3,2-jk]carbazol-7a(3bH
)-ol
;
_cell_volume   1611.942
_exptl_crystal_colour 'red'
_exptl_crystal_density_diffrn 1.353
_exptl_crystal_description 'prism'
_diffrn_ambient_temperature 293
_refine_special_details
;
C10,C9 and C10A,C9A disordered over two sites with occupancies 0.767:0.233.

;
#These two values have been output from a single CSD field.
_refine_ls_R_factor_gt 0.0641
_refine_ls_wR_factor_gt 0.0641
_symmetry_cell_setting monoclinic
_symmetry_space_group_name_H-M 'P 21/c'
_symmetry_Int_Tables_number 14
loop_
_symmetry_equiv_pos_site_id
_symmetry_equiv_pos_as_xyz
1 x,y,z
2 -x,1/2+y,1/2-z
3 -x,-y,-z
4 x,-1/2-y,-1/2+z
_cell_length_a 8.3683(8)
_cell_length_b 18.0910(17)
_cell_length_c 10.6684(10)
_cell_angle_alpha 90
_cell_angle_beta 93.583(2)
_cell_angle_gamma 90
_cell_formula_units_Z 4
loop_
_atom_type_symbol
_atom_type_radius_bond
C 0.68
H 0.23
N 0.68
O 0.68
loop_
_atom_site_label
_atom_site_type_symbol
_atom_site_fract_x
_atom_site_fract_y
_atom_site_fract_z
N1 N 0.6327(3) -0.19657(12) 0.2439(2)
N2 N 0.7753(2) 0.05175(10) 0.32490(17)
O1 O 0.5705(3) -0.23971(12) 0.1681(2)
O2 O 0.6628(4) -0.21451(13) 0.3511(3)
O3 O 0.8037(2) 0.12608(8) 0.30009(15)
O4 O 0.5516(2) 0.13823(9) 0.19490(16)
H1 H 0.51810 0.17210 0.23710
C1 C 0.6692(3) -0.12241(12) 0.2040(2)
C2 C 0.6546(3) -0.10853(14) 0.0763(2)
H2 H 0.62540 -0.14690 0.02150
C3 C 0.6824(3) -0.03904(14) 0.0277(2)
H3 H 0.67040 -0.03120 -0.05860
C4 C 0.7277(3) 0.01848(12) 0.1063(2)
C5 C 0.7432(2) 0.00155(11) 0.2330(2)
C6 C 0.7136(2) -0.06645(11) 0.2920(2)
C7 C 0.7297(3) -0.05284(13) 0.4248(2)
C8 C 0.7127(3) -0.10144(16) 0.5383(2)
H4 H 0.60040 -0.11270 0.54580
H5 H 0.76870 -0.14770 0.52660
C9 C 0.7782(9) -0.0656(4) 0.6565(5)
H6 H 0.89430 -0.06710 0.65930
H7 H 0.74380 -0.09320 0.72790
C10 C 0.7229(11) 0.0152(3) 0.6665(4)
H8 H 0.76110 0.03520 0.74720
H9 H 0.60690 0.01700 0.66140
C11 C 0.7869(3) 0.06251(15) 0.5604(2)
H10 H 0.72970 0.10910 0.55410
H11 H 0.89970 0.07300 0.57850
C12 C 0.7638(3) 0.02094(13) 0.4401(2)
C13 C 0.7124(3) 0.14785(12) 0.1816(2)
C14 C 0.7594(3) 0.09793(13) 0.0732(2)
H12 H 0.69050 0.11050 -0.00140
C15 C 0.9327(3) 0.10947(15) 0.0417(3)
H13 H 0.95250 0.08220 -0.03410
H14 H 1.00320 0.08990 0.10940
C16 C 0.9718(4) 0.19100(18) 0.0221(3)
H15 H 1.08410 0.19610 0.00610
H16 H 0.90880 0.20960 -0.05060
C17 C 0.9356(4) 0.23605(16) 0.1373(4)
H17 H 1.00340 0.21950 0.20890
H18 H 0.95890 0.28770 0.12270
C18 C 0.7618(3) 0.22764(14) 0.1655(3)
H19 H 0.69530 0.24950 0.09760
H20 H 0.74300 0.25460 0.24170
C19? C 0.705(4) -0.0454(14) 0.6561(15)
H21? H 0.59920 -0.02290 0.65190
H22? H 0.71470 -0.07440 0.73260
C20? C 0.818(4) 0.0111(13) 0.6664(13)
H23? H 0.92470 -0.00940 0.66450
H24? H 0.81000 0.03710 0.74530
#END
