
#######################################################################
#
#                 Cambridge Crystallographic Data Centre
#                                CCDC
#
#######################################################################
#
# If this CIF has been generated from an entry in the Cambridge
# Structural Database, then it will include bibliographic, chemical,
# crystal, experimental, refinement or atomic coordinate data resulting
# from the CCDC's data processing and validation procedures.
#
#######################################################################

data_CSD_CIF_XEXYII
_audit_creation_date 2001-09-06
_audit_creation_method CSD-ConQuest-V1
_database_code_CSD XEXYII
_chemical_formula_sum 'C6 H12 N6 O9'
_chemical_formula_moiety
;
C6 H12 N6 O9
;
_journal_coden_Cambridge 35
_journal_volume 65
_journal_year 2000
_journal_page_first 4743
_journal_name_full 'J.Org.Chem. '
loop_
_publ_author_name
"A.Chafin"
"L.Merwin"
_chemical_name_systematic
;
cis-2,4,6-Trimethoxy-1,3,5-trinitrohexahydro-1,3,5-triazine
;
_cell_volume   1282.669
_exptl_crystal_density_diffrn 1.617
_diffrn_ambient_temperature ?
_diffrn_special_details
;
The study was carried out at room temperature,in the range 283-303K

;
#These two values have been output from a single CSD field.
_refine_ls_R_factor_gt 0.0371
_refine_ls_wR_factor_gt 0.0371
loop_
_citation_database_id_CSD
_citation_special_details
XEXYOO "is a stereoisomer of this entry"
_symmetry_cell_setting monoclinic
_symmetry_space_group_name_H-M 'P 21/c'
_symmetry_Int_Tables_number 14
loop_
_symmetry_equiv_pos_site_id
_symmetry_equiv_pos_as_xyz
1 x,y,z
2 -x,1/2+y,1/2-z
3 -x,-y,-z
4 x,-1/2-y,-1/2+z
_cell_length_a 11.8840(6)
_cell_length_b 8.4166(3)
_cell_length_c 13.1083(6)
_cell_angle_alpha 90
_cell_angle_beta 101.960(4)
_cell_angle_gamma 90
_cell_formula_units_Z 4
loop_
_atom_type_symbol
_atom_type_radius_bond
C 0.68
H 0.23
N 0.68
O 0.68
loop_
_atom_site_label
_atom_site_type_symbol
_atom_site_fract_x
_atom_site_fract_y
_atom_site_fract_z
O1 O 0.2695(1) 0.3103(2) 0.8051(1)
O2 O 0.1430(1) 0.2183(2) 0.9709(1)
O3 O 0.1149(1) 0.0072(2) 0.7811(1)
O4 O 0.5302(1) 0.2235(2) 1.0138(1)
O5 O 0.4445(1) 0.0966(2) 1.1192(1)
O6 O 0.1451(2) -0.1013(2) 1.0867(1)
O7 O 0.1417(2) -0.2644(2) 0.9574(2)
O8 O 0.3166(2) -0.1316(2) 0.6931(1)
O9 O 0.4128(1) 0.0885(2) 0.6992(1)
N1 N 0.3391(1) 0.2002(2) 0.9711(1)
N2 N 0.2229(1) -0.0273(2) 0.9540(1)
N3 N 0.3118(1) 0.0415(2) 0.8200(1)
N4 N 0.4460(2) 0.1691(2) 1.0395(1)
N5 N 0.1648(2) -0.1384(2) 1.0020(2)
N6 N 0.3493(2) -0.0034(2) 0.7308(1)
C1 C 0.3441(2) 0.1992(2) 0.8598(1)
C2 C 0.2403(2) 0.1266(2) 1.0029(2)
C3 C 0.2156(2) -0.0486(2) 0.8422(2)
C4 C 0.3106(2) 0.4698(2) 0.8256(2)
C5 C 0.1371(2) 0.3477(3) 1.0396(2)
C6 C 0.0291(2) -0.1044(3) 0.7427(2)
H1 H 0.42270 0.22250 0.85220
H2 H 0.25600 0.11440 1.07890
H3 H 0.2293(16) -0.157(2) 0.8288(14)
H4 H 0.26060 0.54200 0.78080
H5 H 0.38700 0.47820 0.81270
H6 H 0.31180 0.49600 0.89710
H7 H 0.06290 0.39730 1.02080
H8 H 0.19580 0.42390 1.03430
H9 H 0.14860 0.30930 1.10990
H10 H -0.02800 -0.05640 0.68890
H11 H -0.00620 -0.13950 0.79830
H12 H 0.06270 -0.19360 0.71450
#END
