
#######################################################################
#
#                 Cambridge Crystallographic Data Centre
#                                CCDC
#
#######################################################################
#
# If this CIF has been generated from an entry in the Cambridge
# Structural Database, then it will include bibliographic, chemical,
# crystal, experimental, refinement or atomic coordinate data resulting
# from the CCDC's data processing and validation procedures.
#
#######################################################################

data_CSD_CIF_XEXYOO
_audit_creation_date 2001-09-06
_audit_creation_method CSD-ConQuest-V1
_database_code_CSD XEXYOO
_chemical_formula_sum 'C6 H12 N6 O9'
_chemical_formula_moiety
;
C6 H12 N6 O9
;
_journal_coden_Cambridge 35
_journal_volume 65
_journal_year 2000
_journal_page_first 4743
_journal_name_full 'J.Org.Chem. '
loop_
_publ_author_name
"A.Chafin"
"L.Merwin"
_chemical_name_systematic
;
trans-2,4,6-Trimethoxy-1,3,5-trinitrohexahydro-1,3,5-triazine
;
_cell_volume   2584.220
_exptl_crystal_density_diffrn 1.605
_diffrn_ambient_temperature ?
_diffrn_special_details
;
The study was carried out at room temperature,in the range 283-303K

;
#These two values have been output from a single CSD field.
_refine_ls_R_factor_gt 0.0383
_refine_ls_wR_factor_gt 0.0383
loop_
_citation_database_id_CSD
_citation_special_details
XEXYII "is a stereoisomer of this entry"
_symmetry_cell_setting monoclinic
_symmetry_space_group_name_H-M 'C 2/c'
_symmetry_Int_Tables_number 15
loop_
_symmetry_equiv_pos_site_id
_symmetry_equiv_pos_as_xyz
1 x,y,z
2 -x,y,1/2-z
3 1/2+x,1/2+y,z
4 1/2-x,1/2+y,1/2-z
5 -x,-y,-z
6 x,-y,-1/2+z
7 -1/2-x,-1/2-y,-z
8 -1/2+x,-1/2-y,-1/2+z
_cell_length_a 20.8483(13)
_cell_length_b 8.5859(3)
_cell_length_c 14.4404(8)
_cell_angle_alpha 90
_cell_angle_beta 91.267(7)
_cell_angle_gamma 90
_cell_formula_units_Z 8
loop_
_atom_type_symbol
_atom_type_radius_bond
C 0.68
H 0.23
N 0.68
O 0.68
loop_
_atom_site_label
_atom_site_type_symbol
_atom_site_fract_x
_atom_site_fract_y
_atom_site_fract_z
O1 O 0.1214(1) 0.2833(2) 0.5972(1)
O2 O 0.2023(1) 0.0286(2) 0.5379(1)
O3 O 0.1224(1) 0.2482(2) 0.3013(1)
O4 O 0.1470(1) 0.6082(2) 0.3994(1)
O5 O 0.0791(1) 0.5664(2) 0.5094(1)
O6 O 0.0027(1) 0.1207(2) 0.4166(1)
O7 O 0.0639(1) -0.0675(2) 0.3751(1)
O8 O 0.2658(1) -0.0128(2) 0.3606(1)
O9 O 0.2635(1) 0.2063(2) 0.2852(1)
N1 N 0.1304(1) 0.3671(2) 0.4492(1)
N2 N 0.1179(1) 0.5245(2) 0.4523(1)
N3 N 0.1024(1) 0.1079(2) 0.4763(1)
N4 N 0.0533(1) 0.0503(2) 0.4172(1)
N5 N 0.2001(1) 0.1746(2) 0.4063(1)
N6 N 0.2462(1) 0.1180(2) 0.3454(1)
C1 C 0.0943(1) 0.2672(2) 0.5104(1)
C2 C 0.0826(2) 0.2246(4) 0.6691(2)
C3 C 0.1675(1) 0.0523(2) 0.4574(1)
C4 C 0.1861(2) -0.1149(4) 0.5815(3)
C5 C 0.1636(1) 0.3054(2) 0.3703(1)
C6 C 0.0944(1) 0.3635(3) 0.2421(2)
H1 H 0.04880 0.29660 0.51000
H2 H 0.10310 0.24520 0.72800
H3 H 0.07720 0.11430 0.66140
H4 H 0.04150 0.27460 0.66630
H5 H 0.16560 -0.04370 0.42080
H6 H 0.21390 -0.13150 0.63440
H7 H 0.19100 -0.19890 0.53840
H8 H 0.14240 -0.11080 0.60090
H9 H 0.19230 0.38420 0.34490
H10 H 0.07070 0.31360 0.19270
H11 H 0.12770 0.42680 0.21670
H12 H 0.06600 0.42780 0.27700
#END
