
#######################################################################
#
#                 Cambridge Crystallographic Data Centre
#                                CCDC
#
#######################################################################
#
# If this CIF has been generated from an entry in the Cambridge
# Structural Database, then it will include bibliographic, chemical,
# crystal, experimental, refinement or atomic coordinate data resulting
# from the CCDC's data processing and validation procedures.
#
#######################################################################

data_CSD_CIF_XEYLIW
_audit_creation_date 2001-09-06
_audit_creation_method CSD-ConQuest-V1
_database_code_CSD XEYLIW
_database_code_depnum_ccdc_archive 'CCDC 153155'
_chemical_formula_sum 'C15 H11 N3 O2'
_chemical_formula_moiety
;
C15 H11 N3 O2
;
_journal_coden_Cambridge 1291
_journal_year 2001
_journal_page_first 1853
_journal_name_full 'Eur.J.Org.Chem. '
loop_
_publ_author_name
"R.-A.Fallahpour"
"M.Neuburger"
_chemical_name_systematic
;
2,2':6',2''-Terpyridine 1,1'-dioxide
;
_chemical_melting_point 452.15
_cell_volume   2408.706
_exptl_crystal_colour 'colorless'
_exptl_crystal_density_diffrn 1.46
_exptl_special_details
;
Melting point range 452.15-453.15K

;
_exptl_crystal_description 'plate'
_exptl_crystal_preparation 'ethanol'
_diffrn_ambient_temperature 293
#These two values have been output from a single CSD field.
_refine_ls_R_factor_gt 0.0449
_refine_ls_wR_factor_gt 0.0449
_symmetry_cell_setting orthorhombic
_symmetry_space_group_name_H-M 'P b c a'
_symmetry_Int_Tables_number 61
loop_
_symmetry_equiv_pos_site_id
_symmetry_equiv_pos_as_xyz
1 x,y,z
2 1/2-x,1/2+y,z
3 x,1/2-y,1/2+z
4 1/2+x,y,1/2-z
5 -x,-y,-z
6 -1/2+x,-1/2-y,-z
7 -x,-1/2+y,-1/2-z
8 -1/2-x,-y,-1/2+z
_cell_length_a 9.1823(4)
_cell_length_b 26.139(1)
_cell_length_c 10.0356(3)
_cell_angle_alpha 90
_cell_angle_beta 90
_cell_angle_gamma 90
_cell_formula_units_Z 8
loop_
_atom_type_symbol
_atom_type_radius_bond
C 0.68
H 0.23
N 0.68
O 0.68
loop_
_atom_site_label
_atom_site_type_symbol
_atom_site_fract_x
_atom_site_fract_y
_atom_site_fract_z
N1 N 0.9073(2) 0.20356(6) 0.3845(2)
O1 O 0.9968(2) 0.22584(5) 0.4673(1)
C1 C 0.9107(3) 0.21505(8) 0.2523(2)
C2 C 0.8190(3) 0.19152(8) 0.1640(2)
C3 C 0.7190(3) 0.15624(9) 0.2072(2)
C4 C 0.7151(2) 0.14485(8) 0.3421(2)
C5 C 0.8101(2) 0.16800(7) 0.4294(2)
N2 N 0.9087(2) 0.11820(6) 0.6101(1)
O2 O 0.9907(2) 0.09743(5) 0.5187(1)
C6 C 0.8133(2) 0.15643(7) 0.5737(2)
C7 C 0.7252(2) 0.17981(7) 0.6658(2)
C8 C 0.7337(2) 0.16581(8) 0.7989(2)
C9 C 0.8290(2) 0.12779(8) 0.8342(2)
C10 C 0.9162(2) 0.10285(7) 0.7411(2)
N3 N 1.0724(2) 0.06427(7) 0.9009(2)
C11 C 1.0115(2) 0.05956(8) 0.7795(2)
C12 C 1.0287(2) 0.01585(9) 0.7029(2)
C13 C 1.1080(3) -0.02466(8) 0.7519(2)
C14 C 1.1741(3) -0.01985(9) 0.8742(2)
C15 C 1.1529(3) 0.02476(9) 0.9437(2)
H1 H 0.97870 0.24010 0.22040
H2 H 0.82460 0.19980 0.07100
H3 H 0.65360 0.13990 0.14590
H4 H 0.64540 0.12060 0.37500
H5 H 0.65790 0.20580 0.63820
H6 H 0.67420 0.18230 0.86470
H7 H 0.83600 0.11800 0.92620
H8 H 0.98540 0.01390 0.61600
H9 H 1.11710 -0.05570 0.70160
H10 H 1.23320 -0.04690 0.90990
H11 H 1.19900 0.02790 1.02910
#END
