
#######################################################################
#
#                 Cambridge Crystallographic Data Centre
#                                CCDC
#
#######################################################################
#
# If this CIF has been generated from an entry in the Cambridge
# Structural Database, then it will include bibliographic, chemical,
# crystal, experimental, refinement or atomic coordinate data resulting
# from the CCDC's data processing and validation procedures.
#
#######################################################################

data_CSD_CIF_XEZXUV
_audit_creation_date 2001-09-06
_audit_creation_method CSD-ConQuest-V1
_database_code_CSD XEZXUV
_database_code_depnum_ccdc_archive 'CCDC 151569'
_chemical_formula_sum 'C20 H28 N4 O3'
_chemical_formula_moiety
;
C20 H28 N4 O3
;
_journal_coden_Cambridge 1220
_journal_volume 7
_journal_year 2001
_journal_page_first 2466
_journal_name_full 'Chem.-Eur.J. '
loop_
_publ_author_name
"L.Catala"
"J.Le Moigne"
"N.Kyritsakas"
"P.Rey"
"J.J.Novoa"
"P.Turek"
_chemical_name_systematic
;
1-(1-Oxyl-4,4,5,5-tetramethylimidazolin-2-yl)-3-(1-oxyl-3-oxo-4,4,5,5-tetramet
hylimidazolin-2-yl)benzene
;
_chemical_melting_point 456.15
_cell_volume   2072.780
_exptl_crystal_colour 'red'
_exptl_crystal_density_diffrn 1.19
_exptl_crystal_description 'prism'
_exptl_crystal_preparation 'dichloromethane/hexane'
_diffrn_ambient_temperature ?
_diffrn_special_details
;
The study was carried out at room temperature,in the range 283-303K

;
_refine_special_details
;
One oxygen atom, O1, and methyl groups C15-16 and C18-20 are equally 
disordered over two sites.
;
#These two values have been output from a single CSD field.
_refine_ls_R_factor_gt 0.103
_refine_ls_wR_factor_gt 0.103
_symmetry_cell_setting monoclinic
_symmetry_space_group_name_H-M 'P 21/n'
_symmetry_Int_Tables_number 14
loop_
_symmetry_equiv_pos_site_id
_symmetry_equiv_pos_as_xyz
1 x,y,z
2 1/2+x,1/2-y,1/2+z
3 -x,-y,-z
4 -1/2-x,-1/2+y,-1/2-z
_cell_length_a 7.2287(7)
_cell_length_b 25.462(4)
_cell_length_c 11.596(1)
_cell_angle_alpha 90
_cell_angle_beta 103.793(7)
_cell_angle_gamma 90
_cell_formula_units_Z 4
loop_
_atom_type_symbol
_atom_type_radius_bond
C 0.68
H 0.23
N 0.68
O 0.68
loop_
_atom_site_label
_atom_site_type_symbol
_atom_site_fract_x
_atom_site_fract_y
_atom_site_fract_z
C1 C 0.322(1) 0.4316(3) 0.3852(7)
N1 N 0.2025(9) 0.4364(3) 0.2821(6)
O1 O 0.039(2) 0.4211(6) 0.249(1)
C2 C 0.297(1) 0.4619(3) 0.1964(7)
C3 C 0.508(1) 0.4520(3) 0.2508(7)
N2 N 0.5022(9) 0.4459(3) 0.3784(6)
O2 O 0.6476(8) 0.4499(3) 0.4643(5)
C4 C 0.242(2) 0.5198(4) 0.195(1)
C5 C 0.218(2) 0.4374(5) 0.0736(9)
C6 C 0.642(1) 0.4953(4) 0.2387(8)
C7 C 0.581(1) 0.4001(4) 0.2160(9)
C8 C 0.275(1) 0.4121(3) 0.4926(7)
C9 C 0.096(1) 0.4217(3) 0.5121(7)
C10 C 0.045(1) 0.4014(4) 0.6088(8)
C11 C 0.172(1) 0.3718(3) 0.6901(7)
C12 C 0.352(1) 0.3604(3) 0.6726(7)
C13 C 0.403(1) 0.3812(3) 0.5737(7)
C14 C 0.481(1) 0.3269(3) 0.7569(7)
N3 N 0.480(1) 0.3203(4) 0.8685(7)
O3? O 0.391(2) 0.3480(6) 0.928(1)
N4 N 0.613(1) 0.2958(3) 0.7323(6)
O4 O 0.648(1) 0.2880(4) 0.6307(7)
C15 C 0.677(3) 0.2937(8) 0.935(2)
C16 C 0.693(2) 0.2583(6) 0.827(1)
C17 C 0.637(2) 0.2718(5) 1.048(1)
C18 C 0.854(3) 0.3301(8) 0.971(2)
C19 C 0.899(3) 0.2429(8) 0.833(2)
C20 C 0.563(4) 0.209(1) 0.819(2)
C21? C 0.565(2) 0.2670(7) 0.916(1)
C22? C 0.736(3) 0.2729(8) 0.852(2)
C23? C 0.446(3) 0.2186(9) 0.895(2)
C24? C 0.901(4) 0.304(1) 0.892(3)
C25? C 0.783(3) 0.2147(9) 0.808(2)
H1 H 0.29900 0.53830 0.14120
H2 H 0.10760 0.52320 0.17080
H3 H 0.28600 0.53410 0.27250
H4 H 0.08660 0.44550 0.04700
H5 H 0.28520 0.45110 0.01910
H6 H 0.23420 0.40040 0.07880
H7 H 0.64560 0.49890 0.15770
H8 H 0.60050 0.52720 0.26630
H9 H 0.76650 0.48710 0.28460
H10 H 0.58760 0.40140 0.13530
H11 H 0.70350 0.39320 0.26500
H12 H 0.49580 0.37280 0.22580
H13 H 0.00820 0.44270 0.45720
H14 H -0.07870 0.40780 0.62010
H15 H 0.13730 0.35900 0.75890
H16 H 0.52570 0.37430 0.56120
#END
