
#######################################################################
#
#                 Cambridge Crystallographic Data Centre
#                                CCDC
#
#######################################################################
#
# If this CIF has been generated from an entry in the Cambridge
# Structural Database, then it will include bibliographic, chemical,
# crystal, experimental, refinement or atomic coordinate data resulting
# from the CCDC's data processing and validation procedures.
#
#######################################################################

data_CSD_CIF_XEZXAB
_audit_creation_date 2001-09-06
_audit_creation_method CSD-ConQuest-V1
_database_code_CSD XEZXAB
_database_code_depnum_ccdc_archive 'CCDC 151351'
_chemical_formula_sum 'C22 H28 N4 O2'
_chemical_formula_moiety
;
C22 H28 N4 O2
;
_journal_coden_Cambridge 1220
_journal_volume 7
_journal_year 2001
_journal_page_first 2466
_journal_name_full 'Chem.-Eur.J. '
loop_
_publ_author_name
"L.Catala"
"J.Le Moigne"
"N.Kyritsakas"
"P.Rey"
"J.J.Novoa"
"P.Turek"
_chemical_name_systematic
;
1,3-bis(1-Oxy-4,4,5,5-tetramethylimidazolin-2-yl)-5-ethynylbenzene
;
_chemical_melting_point 447.15
_cell_volume   2170.354
_exptl_crystal_colour 'orange'
_exptl_crystal_density_diffrn 1.16
_exptl_crystal_description 'prism'
_exptl_crystal_preparation 'dichloromethane/hexane'
_diffrn_ambient_temperature ?
_diffrn_special_details
;
The study was carried out at room temperature,in the range 283-303K

;
_refine_special_details
;
The methyl groups, C19-22, are disordered over two sites with occupancies of 
0.40:0.60.
;
#These two values have been output from a single CSD field.
_refine_ls_R_factor_gt 0.113
_refine_ls_wR_factor_gt 0.113
_symmetry_cell_setting monoclinic
_symmetry_space_group_name_H-M 'P 21/n'
_symmetry_Int_Tables_number 14
loop_
_symmetry_equiv_pos_site_id
_symmetry_equiv_pos_as_xyz
1 x,y,z
2 1/2+x,1/2-y,1/2+z
3 -x,-y,-z
4 -1/2-x,-1/2+y,-1/2-z
_cell_length_a 12.1503(8)
_cell_length_b 10.7762(6)
_cell_length_c 16.6926(7)
_cell_angle_alpha 90
_cell_angle_beta 96.778(4)
_cell_angle_gamma 90
_cell_formula_units_Z 4
loop_
_atom_type_symbol
_atom_type_radius_bond
C 0.70
H 0.23
N 0.68
O 0.68
loop_
_atom_site_label
_atom_site_type_symbol
_atom_site_fract_x
_atom_site_fract_y
_atom_site_fract_z
C1 C 0.1428(5) -0.0827(6) 0.6023(4)
N1 N 0.0409(4) -0.1409(5) 0.5791(3)
O1 O -0.0562(4) -0.0957(5) 0.5797(4)
C2 C 0.0629(6) -0.2724(6) 0.5570(4)
C3 C 0.1824(6) -0.2594(6) 0.5397(4)
N2 N 0.2255(4) -0.1472(5) 0.5862(3)
C4 C -0.0211(7) -0.3132(7) 0.4880(5)
C5 C 0.0495(8) -0.3491(7) 0.6325(5)
C6 C 0.1929(7) -0.2296(8) 0.4516(5)
C7 C 0.2545(7) -0.3713(8) 0.5659(6)
C8 C 0.1496(5) 0.0398(5) 0.6419(4)
C9 C 0.2399(5) 0.1131(6) 0.6335(4)
C10 C 0.2515(6) 0.2291(6) 0.6703(4)
C11 C 0.1698(6) 0.2707(6) 0.7156(4)
C12 C 0.0802(6) 0.1963(6) 0.7250(4)
C13 C 0.0699(5) 0.0806(6) 0.6880(4)
C14 C 0.3473(6) 0.3077(6) 0.6620(4)
C15 C 0.4210(8) 0.3711(8) 0.6562(5)
C16 C -0.0063(6) 0.2335(7) 0.7767(4)
N3 N -0.0404(7) 0.3523(6) 0.7821(4)
O2 O -0.0183(8) 0.4350(7) 0.7409(5)
C17 C -0.1284(7) 0.3577(9) 0.8359(5)
C18 C -0.1309(8) 0.2336(9) 0.8657(6)
N4 N -0.0541(5) 0.1559(8) 0.8227(4)
C19 C -0.05350 0.46010 0.90480
C20 C -0.21920 0.45270 0.78760
C21 C -0.07570 0.22300 0.95130
C22 C -0.236(2) 0.147(3) 0.878(2)
C23? C -0.15690 0.47680 0.86910
C24? C -0.25580 0.32000 0.77040
C25? C -0.19140 0.17740 0.92290
C26? C -0.02650 0.28120 0.95890
H1 H -0.00680 -0.39670 0.47420
H2 H -0.09350 -0.30730 0.50380
H3 H -0.01590 -0.26130 0.44260
H4 H 0.06260 -0.43420 0.62200
H5 H 0.10120 -0.32140 0.67590
H6 H -0.02370 -0.33940 0.64630
H7 H 0.16660 -0.29790 0.41870
H8 H 0.15010 -0.15800 0.43580
H9 H 0.26840 -0.21440 0.44540
H10 H 0.22700 -0.44230 0.53630
H11 H 0.32860 -0.35560 0.55570
H12 H 0.25300 -0.38560 0.62190
H13 H 0.29520 0.08440 0.60220
H14 H 0.17580 0.35040 0.74000
H15 H 0.00770 0.02960 0.69450
H16 H 0.48240 0.42400 0.65130
#END
