
#######################################################################
#
#                 Cambridge Crystallographic Data Centre
#                                CCDC
#
#######################################################################
#
# If this CIF has been generated from an entry in the Cambridge
# Structural Database, then it will include bibliographic, chemical,
# crystal, experimental, refinement or atomic coordinate data resulting
# from the CCDC's data processing and validation procedures.
#
#######################################################################

data_CSD_CIF_XIBCOC
_audit_creation_date 2013-05-21
_audit_creation_method CSD-ConQuest-V1
_database_code_CSD XIBCOC
_database_code_depnum_ccdc_archive 'CCDC 892413'
_chemical_formula_sum 'C25 H24 N2 O5'
_chemical_formula_moiety
;
C25 H24 N2 O5
;
_journal_coden_Cambridge 16
_journal_volume 69
_journal_year 2013
_journal_page_first 3593
_journal_name_full 'Tetrahedron '
loop_
_publ_author_name
"Yuan-Liang Yang"
"Yin Wei"
"Qin Xu"
"Min Shi"
_chemical_name_systematic
;
Ethyl 
4-((1-allyl-2-oxo-1,2-dihydro-3H-indol-3-ylidene)(hydroxy)-\l^5^-azanyl)-2-(3-
methoxybenzylidene)but-3-enoate
;
_cell_volume   2219.431
_exptl_crystal_colour 'red'
_exptl_crystal_density_diffrn 1.294
_exptl_crystal_description 'prismatic'
_diffrn_ambient_temperature 293
#These two values have been output from a single CSD field.
_refine_ls_R_factor_gt 0.0517
_refine_ls_wR_factor_gt 0.0517
_symmetry_cell_setting monoclinic
_symmetry_space_group_name_H-M 'P 21/c'
_symmetry_Int_Tables_number 14
loop_
_symmetry_equiv_pos_site_id
_symmetry_equiv_pos_as_xyz
1 x,y,z
2 -x,1/2+y,1/2-z
3 -x,-y,-z
4 x,-1/2-y,-1/2+z
_cell_length_a 9.0687(7)
_cell_length_b 29.421(2)
_cell_length_c 8.3699(6)
_cell_angle_alpha 90
_cell_angle_beta 96.360(2)
_cell_angle_gamma 90
_cell_formula_units_Z 4
loop_
_atom_type_symbol
_atom_type_radius_bond
C 0.68
H 0.23
N 0.68
O 0.68
loop_
_atom_site_label
_atom_site_type_symbol
_atom_site_fract_x
_atom_site_fract_y
_atom_site_fract_z
N1 N 0.38579(18) 0.06337(6) 0.3835(2)
N2 N 0.69438(17) 0.07919(6) 0.67840(19)
O1 O 0.58710(17) 0.10605(6) 0.33254(18)
O2 O 0.72552(16) 0.06207(6) 0.81825(18)
O3 O 1.68432(18) 0.18852(7) 0.9206(2)
O4 O 0.9595(2) 0.16799(6) 0.38889(19)
O5 O 1.03713(18) 0.21514(5) 0.58818(18)
C1 C 0.5214(2) 0.08369(7) 0.4239(2)
C2 C 0.5643(2) 0.07088(7) 0.5942(2)
C3 C 0.4468(2) 0.04395(6) 0.6466(2)
C4 C 0.3403(2) 0.03955(7) 0.5135(2)
C5 C 0.2142(2) 0.01409(8) 0.5197(3)
H1 H 0.14480 0.01070 0.43000
C6 C 0.1946(2) -0.00638(8) 0.6643(3)
H2 H 0.11030 -0.02390 0.67140
C7 C 0.2956(2) -0.00163(8) 0.7978(3)
H3 H 0.27780 -0.01540 0.89380
C8 C 0.4236(2) 0.02356(7) 0.7909(2)
H4 H 0.49260 0.02670 0.88120
C9 C 0.8021(2) 0.10704(7) 0.6151(2)
H5 H 0.77570 0.12430 0.52340
C10 C 0.9399(2) 0.10843(7) 0.6863(2)
H6 H 0.96380 0.08880 0.77250
C11 C 1.0566(2) 0.13778(7) 0.6417(2)
C12 C 1.1962(2) 0.13246(7) 0.7106(2)
H7 H 1.21010 0.10880 0.78440
C13 C 1.3300(2) 0.15835(7) 0.6868(2)
C14 C 1.3514(2) 0.17988(8) 0.5441(3)
H8 H 1.27930 0.17800 0.45620
C15 C 1.4806(3) 0.20426(9) 0.5326(3)
H9 H 1.49390 0.21910 0.43710
C16 C 1.5887(3) 0.20683(8) 0.6596(3)
H10 H 1.67440 0.22350 0.65050
C17 C 1.5707(2) 0.18461(8) 0.8017(3)
C18 C 1.4421(2) 0.16009(7) 0.8138(3)
H11 H 1.43070 0.14460 0.90840
C19 C 1.6729(3) 0.16352(11) 1.0651(3)
H12 H 1.58670 0.17340 1.11260
H13 H 1.75990 0.16870 1.13920
H14 H 1.66450 0.13170 1.04070
C20 C 0.3127(3) 0.06190(9) 0.2188(3)
H15 H 0.37820 0.07520 0.14740
H16 H 0.29630 0.03040 0.18730
C21 C 0.1712(3) 0.08591(10) 0.1986(3)
H17 H 0.16630 0.11390 0.24930
C22 C 0.0517(3) 0.07120(12) 0.1154(3)
H18 H 0.05220 0.04330 0.06300
H19 H -0.03460 0.08850 0.10810
C23 C 1.0121(2) 0.17459(7) 0.5240(2)
C24 C 1.0123(4) 0.25428(9) 0.4808(4)
H20 H 1.03520 0.24610 0.37400
H21 H 0.90880 0.26320 0.47320
C25 C 1.1033(5) 0.29129(11) 0.5397(4)
H22 H 1.08400 0.29840 0.64740
H23 H 1.08160 0.31730 0.47210
H24 H 1.20580 0.28320 0.53950
#END
