
#######################################################################
#
#                 Cambridge Crystallographic Data Centre
#                                CCDC
#
#######################################################################
#
# If this CIF has been generated from an entry in the Cambridge
# Structural Database, then it will include bibliographic, chemical,
# crystal, experimental, refinement or atomic coordinate data resulting
# from the CCDC's data processing and validation procedures.
#
#######################################################################

data_CSD_CIF_XIBDET
_audit_creation_date 2013-05-21
_audit_creation_method CSD-ConQuest-V1
_database_code_CSD XIBDET
_database_code_depnum_ccdc_archive 'CCDC 918816'
_chemical_formula_sum 'C19 H20 N2 O5'
_chemical_formula_moiety
;
C19 H20 N2 O5
;
_journal_coden_Cambridge 119
_journal_volume 1041
_journal_year 2013
_journal_page_first 164
_journal_name_full 'J.Mol.Struct. '
loop_
_publ_author_name
"Gul Yakali"
"H.Karabiyik"
"H.Karabiyik"
"G.Goksu"
"M.Aygun"
"N.Ocal"
"S.Garcia-Granda"
_chemical_name_systematic
;
4,8-Methano-3-(2,5-dimethoxyphenyl)-6-(methylamino)-4,4a,8,exo-8a-tetrahydro-e
xo-3aH-isoxazolo [5,4-f]isoindole-5,7(6H,7aH)-endo-dione
;
_cell_volume   1696.918
_exptl_crystal_colour 'colorless'
_exptl_crystal_density_diffrn 1.395
_exptl_crystal_description 'prismatic stick'
_diffrn_ambient_temperature 296
#These two values have been output from a single CSD field.
_refine_ls_R_factor_gt 0.036
_refine_ls_wR_factor_gt 0.036
_symmetry_cell_setting monoclinic
_symmetry_space_group_name_H-M 'P 21/n'
_symmetry_Int_Tables_number 14
loop_
_symmetry_equiv_pos_site_id
_symmetry_equiv_pos_as_xyz
1 x,y,z
2 1/2-x,1/2+y,1/2-z
3 -x,-y,-z
4 -1/2+x,-1/2-y,-1/2+z
_cell_length_a 9.7183(1)
_cell_length_b 13.1735(2)
_cell_length_c 13.2880(2)
_cell_angle_alpha 90
_cell_angle_beta 94.058(1)
_cell_angle_gamma 90
_cell_formula_units_Z 4
loop_
_atom_type_symbol
_atom_type_radius_bond
C 0.68
H 0.23
N 0.68
O 0.68
loop_
_atom_site_label
_atom_site_type_symbol
_atom_site_fract_x
_atom_site_fract_y
_atom_site_fract_z
C1 C 0.2197(2) 0.37626(17) 0.47043(14)
N1 N 0.72254(13) 0.23925(9) 0.43002(9)
O1 O 0.75315(10) 0.45267(9) 0.72471(8)
O2 O 0.31385(11) 0.42758(10) 0.53951(7)
O3 O 0.48819(12) 0.22711(10) 0.40411(8)
C2 C 0.38216(13) 0.46543(10) 0.70865(10)
O4 O 0.17121(12) 0.52668(10) 0.92221(9)
C3 C 0.52770(14) 0.44797(11) 0.68936(9)
C4 C 0.27518(14) 0.44732(11) 0.6345(1)
C5 C 0.13868(15) 0.45253(13) 0.65948(12)
C6 C 0.34812(14) 0.49378(11) 0.80549(10)
C7 C 0.10696(16) 0.47880(13) 0.75597(13)
O5 O 0.94697(12) 0.23521(12) 0.49521(12)
C8 C 0.59132(14) 0.21891(11) 0.45928(10)
C9 C 0.58021(13) 0.37119(11) 0.61721(9)
C10 C 0.21231(15) 0.50128(12) 0.82880(11)
C11 C 0.53915(14) 0.26158(11) 0.64254(9)
C12 C 0.82530(16) 0.22378(12) 0.50613(13)
N2 N 0.62292(12) 0.49084(11) 0.74631(9)
C13 C 0.60367(15) 0.18770(11) 0.5683(1)
C14 C 0.63385(18) 0.24150(15) 0.73797(11)
C15 C 0.73524(14) 0.37433(12) 0.64720(11)
C16 C 0.76723(16) 0.26820(13) 0.68945(11)
C17 C 0.75846(15) 0.19259(12) 0.59980(11)
C18 C 0.7492(2) 0.27212(15) 0.32876(14)
C19 C 0.2702(2) 0.57058(18) 0.99249(15)
H1 H 0.774(3) 0.222(2) 0.2893(19)
H2 H 0.817(3) 0.315(2) 0.3323(18)
H3 H 0.677(3) 0.307(2) 0.3028(19)
H4 H 0.5567(13) 0.3882(11) 0.5461(11)
H5 H 0.7944(15) 0.3900(13) 0.5935(11)
H6 H 0.5655(17) 0.1248(15) 0.5724(12)
H7 H 0.6172(17) 0.2843(13) 0.7944(13)
H8 H 0.4380(16) 0.2535(11) 0.6474(11)
H9 H 0.7958(17) 0.1338(15) 0.6221(12)
H10 H 0.8498(18) 0.2640(14) 0.7321(13)
H11 H 0.0686(18) 0.4337(14) 0.6085(13)
H12 H 0.6343(17) 0.1740(17) 0.7601(13)
H13 H 0.4224(16) 0.5054(12) 0.8565(11)
H14 H 0.0101(18) 0.4803(14) 0.7756(12)
H15 H 0.145(2) 0.4160(17) 0.4494(15)
H16 H 0.177(2) 0.3159(17) 0.5064(15)
H17 H 0.276(2) 0.3504(19) 0.4094(17)
H18 H 0.222(2) 0.5960(17) 1.0481(16)
H19 H 0.338(2) 0.5263(18) 1.0091(15)
H20 H 0.316(2) 0.6345(17) 0.9582(15)
#END
