
#######################################################################
#
#                 Cambridge Crystallographic Data Centre
#                                CCDC
#
#######################################################################
#
# If this CIF has been generated from an entry in the Cambridge
# Structural Database, then it will include bibliographic, chemical,
# crystal, experimental, refinement or atomic coordinate data resulting
# from the CCDC's data processing and validation procedures.
#
#######################################################################

data_CSD_CIF_XICPII
_audit_creation_date 2002-05-23
_audit_creation_method CSD-ConQuest-V1
_database_code_CSD XICPII
_chemical_formula_sum 'C33 H39 N1 O11'
_chemical_formula_moiety
;
C33 H39 N1 O11
;
_journal_coden_Cambridge 1336
_journal_volume 3
_journal_year 2001
_journal_page_first 259
_journal_name_full 'Org.Lett. '
loop_
_publ_author_name
"M.B.Andrus"
"E.L.Meredith"
"B.B.V.S.Sekhar"
_chemical_name_systematic
;
(3S,5S,6S)-3-((1S,3R)-1-Methoxy-3-methyl-4-(5-nitro-2,3,6-trimethoxyphenyl)but
yl)-5,6-bis(4-methoxyphenyl)(1,4)dioxan-2-one
;
_cell_volume   3244.872
_exptl_crystal_colour 'yellow'
_exptl_crystal_density_diffrn 1.281
_diffrn_ambient_temperature 293
#These two values have been output from a single CSD field.
_refine_ls_R_factor_gt 0.0505
_refine_ls_wR_factor_gt 0.0505
_symmetry_cell_setting orthorhombic
_symmetry_space_group_name_H-M 'P 21 21 21'
_symmetry_Int_Tables_number 19
loop_
_symmetry_equiv_pos_site_id
_symmetry_equiv_pos_as_xyz
1 x,y,z
2 1/2-x,-y,1/2+z
3 1/2+x,1/2-y,-z
4 -x,1/2+y,1/2-z
_cell_length_a 9.629(6)
_cell_length_b 17.661(3)
_cell_length_c 19.081(3)
_cell_angle_alpha 90
_cell_angle_beta 90
_cell_angle_gamma 90
_cell_formula_units_Z 4
loop_
_atom_type_symbol
_atom_type_radius_bond
C 0.68
N 0.68
O 0.68
loop_
_atom_site_label
_atom_site_type_symbol
_atom_site_fract_x
_atom_site_fract_y
_atom_site_fract_z
O1 O 1.0571(4) 0.2998(2) 0.0811(2)
C1 C 1.0128(5) 0.3567(3) 0.0538(3)
O2 O 1.0057(4) 0.3586(2) -0.0168(2)
C2 C 0.9617(5) 0.4278(3) -0.0528(3)
C3 C 0.8604(5) 0.4709(3) -0.0080(2)
O3 O 0.9255(4) 0.4882(2) 0.0573(2)
C4 C 0.9665(5) 0.4234(3) 0.0964(3)
C5 C 0.9035(5) 0.4034(3) -0.1226(3)
C6 C 0.9607(6) 0.4299(3) -0.1841(3)
C7 C 0.9088(6) 0.4085(3) -0.2489(3)
C8 C 0.7997(6) 0.3598(3) -0.2524(3)
O4 O 0.7435(4) 0.3337(2) -0.3137(2)
C9 C 0.8009(9) 0.3610(4) -0.3780(3)
C10 C 0.7398(5) 0.3323(3) -0.1917(3)
C11 C 0.7910(5) 0.3541(3) -0.1277(3)
C12 C 0.8116(5) 0.5447(3) -0.0388(3)
C13 C 0.9023(6) 0.6020(3) -0.0584(3)
C14 C 0.8520(7) 0.6702(3) -0.0821(3)
C15 C 0.7120(6) 0.6834(3) -0.0868(3)
O5 O 0.6722(5) 0.7532(2) -0.1112(2)
C16 C 0.5299(8) 0.7717(4) -0.1046(5)
C17 C 0.6210(6) 0.6271(3) -0.0689(3)
C18 C 0.6713(5) 0.5590(3) -0.0460(3)
C19 C 0.8599(5) 0.3996(3) 0.1517(3)
O6 O 0.8413(5) 0.4634(2) 0.1971(2)
C20 C 0.8624(7) 0.4502(4) 0.2687(3)
C21 C 0.7209(5) 0.3755(3) 0.1221(3)
C22 C 0.6248(5) 0.3364(3) 0.1734(3)
C23 C 0.6796(8) 0.2587(3) 0.1966(5)
C24 C 0.4803(5) 0.3278(3) 0.1412(3)
C25 C 0.4026(5) 0.4011(3) 0.1346(3)
C26 C 0.3892(5) 0.4387(3) 0.0707(3)
O7 O 0.4548(4) 0.4110(2) 0.0124(2)
C27 C 0.3768(7) 0.3571(5) -0.0278(4)
C28 C 0.3226(6) 0.5080(4) 0.0707(3)
N1 N 0.3067(5) 0.5529(4) 0.0053(4)
O8 O 0.2945(6) 0.5198(3) -0.0497(3)
O9 O 0.3063(7) 0.6208(3) 0.0097(3)
C29 C 0.2654(5) 0.5399(3) 0.1298(3)
C30 C 0.2721(5) 0.5019(3) 0.1913(3)
O10 O 0.2177(4) 0.5267(2) 0.2533(2)
C31 C 0.1296(8) 0.5917(4) 0.2510(4)
C32 C 0.3411(5) 0.4326(3) 0.1937(3)
O11 O 0.3633(4) 0.3961(2) 0.2570(2)
C33 C 0.2466(8) 0.3672(4) 0.2925(4)
#END
