
#######################################################################
#
#                 Cambridge Crystallographic Data Centre
#                                CCDC
#
#######################################################################
#
# If this CIF has been generated from an entry in the Cambridge
# Structural Database, then it will include bibliographic, chemical,
# crystal, experimental, refinement or atomic coordinate data resulting
# from the CCDC's data processing and validation procedures.
#
#######################################################################

data_CSD_CIF_XICRAC
_audit_creation_date 2002-05-23
_audit_creation_method CSD-ConQuest-V1
_database_code_CSD XICRAC
_chemical_formula_sum 'C21 H32 N2 O5'
_chemical_formula_moiety
;
C21 H32 N2 O5
;
_journal_coden_Cambridge 35
_journal_volume 66
_journal_year 2001
_journal_page_first 1657
_journal_name_full 'J.Org.Chem. '
loop_
_publ_author_name
"M.C.Hillier"
"J.P.Davidson"
"S.F.Martin"
_chemical_name_systematic
;
t-butyl 
1-(hydroxy[2-((methoxy(methyl)amino)carbonyl)-3-phenylcyclopropyl]methyl)propy
lcarbamate
;
_cell_volume   1068.120
_exptl_crystal_colour 'colorless'
_exptl_crystal_density_diffrn 1.22
_exptl_crystal_description 'lath'
_exptl_crystal_preparation 'dichloromethane'
_diffrn_ambient_temperature 198
#These two values have been output from a single CSD field.
_refine_ls_R_factor_gt 0.0987
_refine_ls_wR_factor_gt 0.0987
_symmetry_cell_setting monoclinic
_symmetry_space_group_name_H-M 'P 2'
_symmetry_Int_Tables_number 3
loop_
_symmetry_equiv_pos_site_id
_symmetry_equiv_pos_as_xyz
1 x,y,z
2 -x,y,-z
_cell_length_a 12.370(8)
_cell_length_b 5.470(4)
_cell_length_c 15.80(2)
_cell_angle_alpha 90
_cell_angle_beta 92.44(6)
_cell_angle_gamma 90
_cell_formula_units_Z 2
loop_
_atom_type_symbol
_atom_type_radius_bond
C 0.68
H 0.23
N 0.68
O 0.68
loop_
_atom_site_label
_atom_site_type_symbol
_atom_site_fract_x
_atom_site_fract_y
_atom_site_fract_z
C1 C 0.2457(12) 0.4979(31) 0.4810(9)
O1 O 0.2142(7) 0.2692(22) 0.4507(5)
N1 N 0.3029(7) 0.1205(21) 0.4435(6)
C2 C 0.3511(9) 0.0383(29) 0.5227(7)
C3 C 0.3496(8) 0.1134(22) 0.3694(7)
O2 O 0.4227(6) -0.0356(16) 0.3598(5)
C4 C 0.3099(8) 0.2799(22) 0.2997(6)
C5 C 0.3936(8) 0.4391(24) 0.2602(7)
C6 C 0.3433(8) 0.2275(19) 0.2123(7)
C7 C 0.2717(8) 0.2651(23) 0.1344(7)
C8 C 0.2710(9) 0.1126(28) 0.0700(8)
C9 C 0.2052(11) 0.1421(31) -0.0059(9)
C10 C 0.1385(10) 0.350(3) -0.0086(9)
C11 C 0.1370(9) 0.5030(29) 0.0561(7)
C12 C 0.2048(8) 0.4695(26) 0.1278(7)
C13 C 0.5121(8) 0.4399(21) 0.2901(7)
O3 O 0.5244(5) 0.5172(15) 0.3755(4)
C14 C 0.5777(7) 0.5839(26) 0.2315(7)
C15 C 0.5638(9) 0.5079(31) 0.1393(7)
C16 C 0.6202(10) 0.6705(32) 0.0792(8)
N2 N 0.6925(6) 0.5720(16) 0.2604(6)
C17 C 0.7540(9) 0.7758(23) 0.2686(7)
O4 O 0.7268(6) 0.9884(16) 0.2603(5)
O5 O 0.8569(6) 0.6993(15) 0.2925(5)
C18 C 0.9468(9) 0.8867(27) 0.2986(9)
C19 C 0.9296(9) 1.0609(27) 0.3704(9)
C20 C 0.9580(9) 1.0029(33) 0.2142(8)
C21 C 1.0404(9) 0.7103(30) 0.3187(10)
H1 H 0.1818(12) 0.6021(31) 0.4859(9)
H2 H 0.2951(12) 0.5727(31) 0.4417(9)
H3 H 0.2826(12) 0.4800(31) 0.5368(9)
H4 H 0.2996(9) 0.0602(29) 0.5675(7)
H5 H 0.4166(9) 0.1340(29) 0.5362(7)
H6 H 0.3702(9) -0.1351(29) 0.5185(7)
H7 H 0.2363(8) 0.3527(22) 0.3052(6)
H8 H 0.3656(8) 0.6024(24) 0.2411(7)
H9 H 0.3923(8) 0.0829(19) 0.2085(7)
H10 H 0.3169(9) -0.0264(28) 0.0745(8)
H11 H 0.2068(11) 0.0294(31) -0.0516(9)
H12 H 0.0935(10) 0.3808(30) -0.0577(9)
H13 H 0.0891(9) 0.6389(29) 0.0535(7)
H14 H 0.2051(8) 0.5857(26) 0.1725(7)
H15 H 0.5381(8) 0.2671(21) 0.2878(7)
H16 H 0.4851(5) 0.6420(15) 0.3736(4)
H17 H 0.5547(7) 0.7586(26) 0.2354(7)
H18 H 0.5918(9) 0.3394(31) 0.1333(7)
H19 H 0.4856(9) 0.5052(31) 0.1232(7)
H20 H 0.6068(10) 0.6116(32) 0.0211(8)
H21 H 0.6982(10) 0.6693(32) 0.0931(8)
H22 H 0.5925(10) 0.8376(32) 0.0840(8)
H23 H 0.7222(6) 0.4257(16) 0.2731(6)
H24 H 0.9236(9) 0.9685(27) 0.4232(9)
H25 H 0.8629(9) 1.1541(27) 0.3588(9)
H26 H 0.9911(9) 1.1735(27) 0.3761(9)
H27 H 0.9682(9) 0.8757(33) 0.1716(8)
H28 H 1.0207(9) 1.1125(33) 0.2164(8)
H29 H 0.8925(9) 1.0967(33) 0.1990(8)
H30 H 1.0325(9) 0.6391(30) 0.3751(10)
H31 H 1.1091(9) 0.7991(30) 0.3176(10)
H32 H 1.0395(9) 0.5797(30) 0.2762(10)
#END
