
#######################################################################
#
#                 Cambridge Crystallographic Data Centre
#                                CCDC
#
#######################################################################
#
# If this CIF has been generated from an entry in the Cambridge
# Structural Database, then it will include bibliographic, chemical,
# crystal, experimental, refinement or atomic coordinate data resulting
# from the CCDC's data processing and validation procedures.
#
#######################################################################

data_CSD_CIF_XIDGIB
_audit_creation_date 2007-08-02
_audit_creation_method CSD-ConQuest-V1
_database_code_CSD XIDGIB
_database_code_depnum_ccdc_archive 'CCDC 286077'
_database_code_depnum_ccdc_journal 1135/258
_chemical_formula_sum 'C11 H19 N3 O5'
_chemical_formula_moiety
;
C11 H19 N3 O5
;
_journal_coden_Cambridge 1135
_journal_volume 17
_journal_year 2007
_journal_page_first 48
_journal_name_full 'Mendeleev Commun. '
loop_
_publ_author_name
"E.A.Mostovich"
"D.G.Mazhukin"
"Y.V.Gatilov"
"T.V.Rybalova"
_chemical_name_systematic
;
N-Methoxy-N-((1S,2R)-2-(methoxy((E)-2-nitrovinyl)amino)cyclohexyl)formamide
;
_cell_volume   2756.721
_exptl_crystal_colour 'light yellow'
_exptl_crystal_density_diffrn 1.317
_exptl_crystal_description 'prism'
_exptl_crystal_preparation 'chloroform/ethyl acetate'
_diffrn_ambient_temperature 296
#These two values have been output from a single CSD field.
_refine_ls_R_factor_gt 0.0433
_refine_ls_wR_factor_gt 0.0433
_symmetry_cell_setting orthorhombic
_symmetry_space_group_name_H-M 'P b c a'
_symmetry_Int_Tables_number 61
loop_
_symmetry_equiv_pos_site_id
_symmetry_equiv_pos_as_xyz
1 x,y,z
2 1/2-x,-y,1/2+z
3 -x,1/2+y,1/2-z
4 1/2+x,1/2-y,-z
5 -x,-y,-z
6 -1/2+x,y,-1/2-z
7 x,-1/2-y,-1/2+z
8 -1/2-x,-1/2+y,z
_cell_length_a 13.6541(12)
_cell_length_b 13.2574(8)
_cell_length_c 15.2290(9)
_cell_angle_alpha 90
_cell_angle_beta 90
_cell_angle_gamma 90
_cell_formula_units_Z 8
loop_
_atom_type_symbol
_atom_type_radius_bond
C 0.68
H 0.23
N 0.68
O 0.68
loop_
_atom_site_label
_atom_site_type_symbol
_atom_site_fract_x
_atom_site_fract_y
_atom_site_fract_z
O1 O 0.16015(8) 0.52550(9) 0.34906(8)
N1 N 0.21897(10) 0.47975(11) 0.28558(9)
C1 C 0.32454(12) 0.48374(13) 0.30117(12)
H1 H 0.3477(12) 0.4480(12) 0.2514(11)
C2 C 0.36613(12) 0.59148(13) 0.29885(11)
H2 H 0.4355(14) 0.5842(13) 0.2942(11)
N2 N 0.33732(10) 0.64476(12) 0.21882(9)
O2 O 0.09190(11) 0.47814(14) 0.18898(11)
O3 O 0.39250(9) 0.62121(11) 0.14432(8)
C3 C 0.34541(17) 0.65182(16) 0.38124(13)
H3 H 0.2748(15) 0.6609(14) 0.3904(11)
H4 H 0.3786(14) 0.7134(16) 0.3727(12)
N3 N 0.13110(15) 0.76885(14) 0.11584(14)
O4 O 0.07932(12) 0.78360(14) 0.18089(13)
C4 C 0.38527(19) 0.59497(19) 0.46107(15)
H5 H 0.4565(17) 0.5907(16) 0.4550(14)
H6 H 0.3718(18) 0.633(2) 0.5153(18)
C5 C 0.34042(17) 0.49124(18) 0.46864(13)
H7 H 0.2680(15) 0.5002(16) 0.4839(13)
H8 H 0.3679(14) 0.4557(15) 0.5191(14)
O5 O 0.10581(16) 0.79615(18) 0.04189(13)
C6 C 0.35604(15) 0.43054(16) 0.38571(13)
H9 H 0.3248(14) 0.3651(16) 0.3883(12)
H10 H 0.4264(17) 0.4161(15) 0.3775(13)
C7 C 0.17736(17) 0.46555(16) 0.20622(14)
H11 H 0.2274(15) 0.4411(15) 0.1647(13)
C8 C 0.0965(2) 0.4536(3) 0.3911(2)
H12 H 0.056(2) 0.430(2) 0.347(2)
H13 H 0.062(3) 0.493(3) 0.437(3)
H14 H 0.1338(17) 0.4016(19) 0.4187(16)
C9 C 0.25211(13) 0.68880(13) 0.20265(12)
H15 H 0.2135(12) 0.6986(12) 0.2532(12)
C10 C 0.22149(14) 0.72042(14) 0.12357(14)
H16 H 0.2550(14) 0.7122(14) 0.0711(13)
C11 C 0.47191(18) 0.6924(2) 0.1368(2)
H17 H 0.5157(19) 0.6814(19) 0.1835(18)
H18 H 0.501(2) 0.676(2) 0.0820(19)
H19 H 0.444(2) 0.763(2) 0.1356(19)
#END
