
#######################################################################
#
#                 Cambridge Crystallographic Data Centre
#                                CCDC
#
#######################################################################
#
# If this CIF has been generated from an entry in the Cambridge
# Structural Database, then it will include bibliographic, chemical,
# crystal, experimental, refinement or atomic coordinate data resulting
# from the CCDC's data processing and validation procedures.
#
#######################################################################

data_CSD_CIF_XIDQOS
_audit_creation_date 2013-05-21
_audit_creation_method CSD-ConQuest-V1
_database_code_CSD XIDQOS
_database_code_depnum_ccdc_archive 'CCDC 891133'
_chemical_formula_sum 'C18 H25 N5 O6'
_chemical_formula_moiety
;
C18 H25 N5 O6
;
_journal_coden_Cambridge 179
_journal_volume 51
_journal_year 2012
_journal_page_first 13123
_journal_name_full 'Angew.Chem.,Int.Ed. '
loop_
_publ_author_name
"S.Tashiro"
"K.Matsuoka"
"A.Minoda"
"M.Shionoya"
_chemical_name_systematic
;
Benzyl 
(13-amino-2,9-dimethyl-6,13-dioxo-4,11-dioxa-3,7,10-triazatrideca-2,9-dien-1-y
l)carbamate
;
_cell_volume   1974.863
_exptl_crystal_colour 'colorless'
_exptl_crystal_density_diffrn 1.37
_exptl_crystal_description 'needle'
_diffrn_ambient_temperature 93
#These two values have been output from a single CSD field.
_refine_ls_R_factor_gt 0.041
_refine_ls_wR_factor_gt 0.041
_symmetry_cell_setting monoclinic
_symmetry_space_group_name_H-M 'P 21/c'
_symmetry_Int_Tables_number 14
loop_
_symmetry_equiv_pos_site_id
_symmetry_equiv_pos_as_xyz
1 x,y,z
2 -x,1/2+y,1/2-z
3 -x,-y,-z
4 x,-1/2-y,-1/2+z
_cell_length_a 17.7838(9)
_cell_length_b 13.5931(7)
_cell_length_c 18.8401(10)
_cell_angle_alpha 90
_cell_angle_beta 154.3024(14)
_cell_angle_gamma 90
_cell_formula_units_Z 4
loop_
_atom_type_symbol
_atom_type_radius_bond
C 0.68
H 0.23
N 0.68
O 0.68
loop_
_atom_site_label
_atom_site_type_symbol
_atom_site_fract_x
_atom_site_fract_y
_atom_site_fract_z
O1 O 0.79479(16) 0.92574(9) 0.46490(15)
O2 O 0.77769(17) 0.79808(10) 0.37206(16)
O3 O 0.95210(15) 0.55064(8) 0.66832(15)
O4 O 1.37123(16) 0.63598(9) 0.96857(15)
O5 O 1.02485(15) 0.71439(8) 0.41169(14)
O6 O 0.61915(16) 0.63415(9) -0.00865(15)
N1 N 0.64082(19) 0.79478(11) 0.36320(18)
N2 N 0.84830(19) 0.63658(10) 0.56649(18)
N3 N 1.15191(19) 0.55937(10) 0.72242(18)
N4 N 1.07275(18) 0.62683(10) 0.48961(17)
N5 N 0.68533(19) 0.68341(11) 0.15949(18)
C1 C 1.4353(3) 0.97752(16) 1.0354(3)
C2 C 1.3363(3) 0.89306(15) 0.9581(3)
C3 C 1.1652(3) 0.89287(14) 0.7906(3)
C4 C 1.0925(3) 0.97712(13) 0.6986(3)
C5 C 1.1930(3) 1.06143(14) 0.7781(3)
C6 C 1.3641(3) 1.06186(16) 0.9462(3)
C7 C 0.9098(3) 0.97813(14) 0.5159(3)
C8 C 0.7410(3) 0.83471(13) 0.3981(2)
C9 C 0.5723(3) 0.69685(13) 0.2962(3)
C10 C 0.6259(3) 0.51318(13) 0.3405(3)
C11 C 0.6971(3) 0.61335(13) 0.4156(2)
C12 C 1.1261(3) 0.58189(13) 0.8272(2)
C13 C 1.2275(3) 0.59538(12) 0.8451(2)
C14 C 1.2316(3) 0.56009(12) 0.7201(2)
C15 C 1.2266(3) 0.74909(13) 0.6934(3)
C16 C 1.1720(3) 0.64749(12) 0.6264(2)
C17 C 0.9079(3) 0.68801(13) 0.2566(2)
C18 C 0.7249(3) 0.66593(12) 0.1256(2)
H1 H 0.61670 0.82850 0.38130
H2 H 1.55300 0.97740 1.15040
H3 H 1.38580 0.83540 1.02020
H4 H 1.04770 0.53370 0.63800
H5 H 1.09700 0.83510 0.73780
H6 H 1.14410 1.11940 0.71670
H7 H 0.57940 0.67250 0.08490
H8 H 0.76510 0.70590 0.25650
H9 H 1.43200 1.11990 0.99980
H10 H 0.86990 1.04700 0.47710
H11 H 0.90650 0.94740 0.46540
H12 H 0.52790 0.69060 0.20920
H13 H 0.47240 0.68910 0.24360
H14 H 0.52090 0.50290 0.27960
H15 H 0.71260 0.46350 0.42680
H16 H 0.59730 0.50750 0.26570
H17 H 1.18640 0.53270 0.90840
H18 H 1.12510 0.64500 0.85260
H19 H 1.20100 0.49870 0.66860
H20 H 1.35930 0.56230 0.83380
H21 H 1.12370 0.79000 0.61340
H22 H 1.29730 0.77760 0.71540
H23 H 1.29490 0.74630 0.79520
H24 H 0.95410 0.62930 0.27120
H25 H 0.90360 0.74250 0.21810
#END
