
#######################################################################
#
#                 Cambridge Crystallographic Data Centre
#                                CCDC
#
#######################################################################
#
# If this CIF has been generated from an entry in the Cambridge
# Structural Database, then it will include bibliographic, chemical,
# crystal, experimental, refinement or atomic coordinate data resulting
# from the CCDC's data processing and validation procedures.
#
#######################################################################

data_CSD_CIF_XIDSUA
_audit_creation_date 2013-05-21
_audit_creation_method CSD-ConQuest-V1
_database_code_CSD XIDSUA
_database_code_depnum_ccdc_archive 'CCDC 891095'
_chemical_formula_sum 'C21 H22 N4 O3'
_chemical_formula_moiety
;
C21 H22 N4 O3
;
_journal_coden_Cambridge 16
_journal_volume 69
_journal_year 2013
_journal_page_first 1919
_journal_name_full 'Tetrahedron '
loop_
_publ_author_name
"V.A.Ozeryanskii"
"M.P.Vlasenko"
"A.F.Pozharskii"
_chemical_name_systematic
;
N-(4,5-bis(dimethylamino)-8-nitro-1-naphthyl)benzamide
;
_cell_volume    924.677
_exptl_crystal_colour 'dark red'
_exptl_crystal_density_diffrn 1.359
_exptl_crystal_description 'prism'
_diffrn_ambient_temperature 100
#These two values have been output from a single CSD field.
_refine_ls_R_factor_gt 0.0382
_refine_ls_wR_factor_gt 0.0382
_symmetry_cell_setting triclinic
_symmetry_space_group_name_H-M 'P -1'
_symmetry_Int_Tables_number 2
loop_
_symmetry_equiv_pos_site_id
_symmetry_equiv_pos_as_xyz
1 x,y,z
2 -x,-y,-z
_cell_length_a 9.0881(7)
_cell_length_b 10.1372(8)
_cell_length_c 10.3417(8)
_cell_angle_alpha 93.145(1)
_cell_angle_beta 98.941(1)
_cell_angle_gamma 99.643(1)
_cell_formula_units_Z 2
loop_
_atom_type_symbol
_atom_type_radius_bond
C 0.68
H 0.23
N 0.68
O 0.68
loop_
_atom_site_label
_atom_site_type_symbol
_atom_site_fract_x
_atom_site_fract_y
_atom_site_fract_z
N1 N -0.11218(11) 1.10449(9) 0.84902(9)
N2 N -0.38282(10) 0.88825(9) 0.77578(10)
N3 N 0.14254(11) 0.76621(9) 0.53976(9)
N4 N 0.05099(11) 0.56582(9) 0.71715(9)
H1 H 0.02820 0.51010 0.64900
O1 O 0.06046(10) 0.66099(8) 0.48513(8)
O2 O 0.26725(10) 0.80770(9) 0.50903(10)
O3 O 0.21061(10) 0.62562(9) 0.91097(8)
C1 C -0.06098(12) 1.01912(10) 0.76765(10)
C2 C 0.05986(12) 1.06937(11) 0.70307(11)
H2 H 0.09480 1.16350 0.70720
C3 C 0.12798(12) 0.98323(11) 0.63392(11)
H3 H 0.20430 1.01900 0.58580
C4 C 0.08648(12) 0.84520(11) 0.63375(10)
C5 C -0.02977(11) 0.78739(10) 0.70321(10)
C6 C -0.05410(12) 0.65222(11) 0.73620(11)
C7 C -0.17924(13) 0.60388(11) 0.79071(12)
H4 H -0.19040 0.51600 0.81960
C8 C -0.28990(13) 0.68117(11) 0.80438(12)
H5 H -0.38090 0.64190 0.83220
C9 C -0.26815(12) 0.81595(11) 0.77747(10)
C10 C -0.12207(12) 0.87616(10) 0.74919(10)
C11 C -0.06263(15) 1.24962(11) 0.84934(13)
H6 H -0.07460 1.27520 0.75880
H7 H 0.04400 1.27390 0.89020
H8 H -0.12420 1.29680 0.89920
C12 C -0.17623(14) 1.06474(12) 0.96511(11)
H9 H -0.16330 0.97260 0.98080
H10 H -0.28430 1.06960 0.95090
H11 H -0.12410 1.12540 1.04160
C13 C -0.51887(14) 0.83313(13) 0.82582(14)
H12 H -0.49080 0.79870 0.91120
H13 H -0.57870 0.75980 0.76400
H14 H -0.57900 0.90360 0.83600
C14 C -0.40308(14) 0.98886(13) 0.68276(13)
H15 H -0.32540 0.99280 0.62650
H16 H -0.39390 1.07670 0.73070
H17 H -0.50360 0.96480 0.62840
C15 C 0.17777(12) 0.56152(11) 0.80320(11)
C16 C 0.28063(12) 0.47385(10) 0.75635(11)
C17 C 0.37551(13) 0.41999(12) 0.85021(12)
H18 H 0.36890 0.43380 0.94060
C18 C 0.48002(14) 0.34601(13) 0.81246(13)
H19 H 0.54430 0.30940 0.87700
C19 C 0.49027(15) 0.32577(12) 0.68052(13)
H20 H 0.56250 0.27630 0.65480
C20 C 0.39497(14) 0.37776(12) 0.58630(12)
H21 H 0.40090 0.36260 0.49590
C21 C 0.29063(13) 0.45206(12) 0.62387(11)
H22 H 0.22610 0.48800 0.55910
#END
