
#######################################################################
#
#                 Cambridge Crystallographic Data Centre
#                                CCDC
#
#######################################################################
#
# If this CIF has been generated from an entry in the Cambridge
# Structural Database, then it will include bibliographic, chemical,
# crystal, experimental, refinement or atomic coordinate data resulting
# from the CCDC's data processing and validation procedures.
#
#######################################################################

data_CSD_CIF_XIFGOL
_audit_creation_date 2018-04-11
_audit_creation_method CSD-ConQuest-V1
_database_code_CSD XIFGOL
_database_code_depnum_ccdc_archive 'CCDC 1543487'
_chemical_formula_sum 'C13 H27 N3 O3'
_chemical_formula_moiety
;
C13 H27 N3 O3
;
_journal_coden_Cambridge 1490
_journal_volume 9
_journal_year 2018
_journal_page_first 1297
_journal_name_full 'Nat.Commun. '
loop_
_publ_author_name
"C.Jenul"
"S.Sieber"
"C.Daeppen"
"A.Mathew"
"M.Lardi"
"G.Pessi"
"D.Hoepfner"
"M.Neuburger"
"Anthony Linden"
"K.Gademann"
"L.Eberl"
_chemical_name_systematic
;
N-[2-(hydroxy-NNO-azoxy)-3-methylbutyl]octanamide
;
_chemical_name_common
;
(-)-fragin; (R,Z)-2-hydroxy-1-(3-methyl-1-octanamidobutan-2-yl)diazene 1-oxide
;
_cell_volume   1615.598
_exptl_crystal_colour 'pale yellow'
_exptl_crystal_density_diffrn 1.124
_exptl_special_details
;
Absolute configuration
antifungal activity

;
_exptl_crystal_description 'plate'
_exptl_crystal_preparation 'Re-crystallisation from solvent'
_diffrn_ambient_temperature 230
_refine_special_details
;
The heptyl chain is possibly disordered although the disorder could not be 
modelled.
;
#These two values have been output from a single CSD field.
_refine_ls_R_factor_gt 0.0628
_refine_ls_wR_factor_gt 0.0628
_chemical_compound_source
;
isolated from the opportunistic pathogen Burkholderia cenocepacia H111.
;
loop_
_citation_database_id_CSD
_citation_special_details
NOZYIK "is a racemate of this entry"
_symmetry_cell_setting orthorhombic
_symmetry_space_group_name_H-M 'P 21 21 21'
_symmetry_Int_Tables_number 19
loop_
_symmetry_equiv_pos_site_id
_symmetry_equiv_pos_as_xyz
1 x,y,z
2 1/2-x,-y,1/2+z
3 1/2+x,1/2-y,-z
4 -x,1/2+y,1/2-z
_cell_length_a 5.78770(8)
_cell_length_b 9.54793(12)
_cell_length_c 29.2360(3)
_cell_angle_alpha 90
_cell_angle_beta 90
_cell_angle_gamma 90
_cell_formula_units_Z 4
loop_
_atom_type_symbol
_atom_type_radius_bond
C 0.68
H 0.23
N 0.68
O 0.68
loop_
_atom_site_label
_atom_site_type_symbol
_atom_site_fract_x
_atom_site_fract_y
_atom_site_fract_z
O1 O 0.6923(5) 0.4888(3) 0.21800(9)
O2 O 0.3860(4) 0.6978(3) 0.14075(8)
O3 O 0.3582(5) 0.8281(3) 0.21294(9)
H1 H 0.359(11) 0.892(7) 0.2409(19)
N1 N 0.9773(5) 0.6134(3) 0.18503(10)
H2 H 1.117(8) 0.653(4) 0.1875(14)
N2 N 0.5570(4) 0.7683(3) 0.15462(9)
N3 N 0.5646(5) 0.8409(3) 0.19118(10)
C1 C 0.7779(5) 0.7587(4) 0.12887(10)
H3 H 0.88520 0.83130 0.14040
C2 C 0.8778(6) 0.6144(4) 0.1397(1)
H4 H 0.75530 0.54380 0.13780
H5 H 0.99670 0.59060 0.11710
C3 C 0.8760(6) 0.5560(4) 0.22117(11)
C4 C 0.9853(8) 0.5838(5) 0.26676(12)
H6 H 1.13450 0.63070 0.26250
H7 H 1.01210 0.49530 0.28280
C5 C 0.8238(11) 0.6770(6) 0.29488(14)
H8 H 0.81870 0.76960 0.28050
H9 H 0.66770 0.63750 0.29320
C6 C 0.8839(11) 0.6960(7) 0.34397(16)
H10 H 1.03790 0.73830 0.34580
H11 H 0.89290 0.60340 0.35830
C7 C 0.7194(12) 0.7846(6) 0.37105(18)
H12 H 0.56470 0.74300 0.36970
H13 H 0.71110 0.87820 0.35740
C8 C 0.7933(16) 0.7971(9) 0.4202(2)
H14 H 0.77680 0.70590 0.43520
H15 H 0.95680 0.82370 0.42140
C9 C 0.6527(15) 0.9038(8) 0.4454(3)
H16 H 0.73550 0.92980 0.47330
H17 H 0.64060 0.98800 0.42630
C10 C 0.4158(16) 0.8580(11) 0.4581(3)
H18 H 0.32600 0.84200 0.43050
H19 H 0.34230 0.93010 0.47630
H20 H 0.42450 0.77190 0.47560
C11 C 0.7277(6) 0.7870(4) 0.07784(11)
H21 H 0.62240 0.71340 0.06630
C12 C 0.6105(9) 0.9288(5) 0.07236(16)
H22 H 0.47060 0.93100 0.09060
H23 H 0.57160 0.94350 0.04040
H24 H 0.71450 1.00220 0.08250
C13 C 0.9522(9) 0.7816(7) 0.05039(14)
H25 H 1.06230 0.84730 0.06330
H26 H 0.92100 0.80650 0.01880
H27 H 1.01580 0.68770 0.05170
#END
