
#######################################################################
#
#                 Cambridge Crystallographic Data Centre
#                                CCDC
#
#######################################################################
#
# If this CIF has been generated from an entry in the Cambridge
# Structural Database, then it will include bibliographic, chemical,
# crystal, experimental, refinement or atomic coordinate data resulting
# from the CCDC's data processing and validation procedures.
#
#######################################################################

data_CSD_CIF_XIFGUR
_audit_creation_date 2018-04-11
_audit_creation_method CSD-ConQuest-V1
_database_code_CSD XIFGUR
_database_code_depnum_ccdc_archive 'CCDC 1543488'
_chemical_formula_sum 'C5 H12 N2 O3'
_chemical_formula_moiety
;
C5 H12 N2 O3
;
_journal_coden_Cambridge 1490
_journal_volume 9
_journal_year 2018
_journal_page_first 1297
_journal_name_full 'Nat.Commun. '
loop_
_publ_author_name
"C.Jenul"
"S.Sieber"
"C.Daeppen"
"A.Mathew"
"M.Lardi"
"G.Pessi"
"D.Hoepfner"
"M.Neuburger"
"Anthony Linden"
"K.Gademann"
"L.Eberl"
_chemical_name_systematic
;
(R,Z)-2-hydroxy-1-(1-hydroxy-3-methylbutan-2-yl)diazene 1-oxide
;
_chemical_name_common
;
(-)-valdiazen
;
_chemical_melting_point 324.6
_cell_volume    771.075
_exptl_crystal_colour 'colorless'
_exptl_crystal_density_diffrn 1.276
_exptl_crystal_description 'plate'
_exptl_crystal_preparation 'from the pure oil'
_diffrn_ambient_temperature 160
#These two values have been output from a single CSD field.
_refine_ls_R_factor_gt 0.0379
_refine_ls_wR_factor_gt 0.0379
_symmetry_cell_setting orthorhombic
_symmetry_space_group_name_H-M 'P 21 21 21'
_symmetry_Int_Tables_number 19
loop_
_symmetry_equiv_pos_site_id
_symmetry_equiv_pos_as_xyz
1 x,y,z
2 1/2-x,-y,1/2+z
3 1/2+x,1/2-y,-z
4 -x,1/2+y,1/2-z
_cell_length_a 6.14476(18)
_cell_length_b 9.3078(3)
_cell_length_c 13.4817(5)
_cell_angle_alpha 90
_cell_angle_beta 90
_cell_angle_gamma 90
_cell_formula_units_Z 4
loop_
_atom_type_symbol
_atom_type_radius_bond
C 0.68
H 0.23
N 0.68
O 0.68
loop_
_atom_site_label
_atom_site_type_symbol
_atom_site_fract_x
_atom_site_fract_y
_atom_site_fract_z
O1 O 0.0467(3) 0.38952(17) 0.48096(13)
H1 H 0.044(7) 0.305(5) 0.471(3)
O2 O 0.5803(2) 0.40015(16) 0.55605(13)
O3 O 0.7029(3) 0.5603(2) 0.42105(15)
H2 H 0.753(6) 0.485(5) 0.447(3)
N1 N 0.4599(3) 0.50687(18) 0.53120(14)
N2 N 0.5094(3) 0.5944(2) 0.46357(16)
C1 C 0.1089(3) 0.4101(2) 0.58153(17)
H3 H 0.18370 0.32310 0.60640
H4 H -0.02210 0.42640 0.62270
C2 C 0.2601(3) 0.5388(2) 0.58948(16)
H5 H 0.18630 0.62450 0.56000
C3 C 0.3251(3) 0.5739(2) 0.69703(17)
H6 H 0.37100 0.48280 0.73040
C4 C 0.5146(4) 0.6801(3) 0.7009(2)
H7 H 0.64230 0.63760 0.66880
H8 H 0.54900 0.70230 0.77020
H9 H 0.47390 0.76870 0.66620
C5 C 0.1301(4) 0.6356(3) 0.75290(19)
H10 H 0.08200 0.72430 0.72050
H11 H 0.17210 0.65640 0.82150
H12 H 0.01100 0.56550 0.75250
#END
