
#######################################################################
#
#                 Cambridge Crystallographic Data Centre
#                                CCDC
#
#######################################################################
#
# If this CIF has been generated from an entry in the Cambridge
# Structural Database, then it will include bibliographic, chemical,
# crystal, experimental, refinement or atomic coordinate data resulting
# from the CCDC's data processing and validation procedures.
#
#######################################################################

data_CSD_CIF_XIFGUP
_audit_creation_date 2007-08-02
_audit_creation_method CSD-ConQuest-V1
_database_code_CSD XIFGUP
_database_code_depnum_ccdc_archive 'CCDC 1296470'
_chemical_formula_sum 'C30 H26 N4 O10'
_chemical_formula_moiety
;
C30 H26 N4 O10
;
_journal_coden_Cambridge 392
_journal_volume 66
_journal_year 2005
_journal_page_first 583
_journal_name_full 'Heterocycles '
loop_
_publ_author_name
"K.Yamada"
"T.Izumi"
"F.Yamada"
"M.Somei"
_chemical_name_systematic
;
4,5-dihydro-2-(1-methoxyindol-3-yl)-5,5-dimethyl-3-(p-nitrobenzoylimino)-4-(p-
nitrobenzoyloxymethyl)-3(2H)-furanone
;
_chemical_melting_point 449.65
_cell_volume   1441.814
_exptl_crystal_colour 'yellow'
_exptl_crystal_density_diffrn 1.388
_exptl_special_details
;
Melting point range 449.65-450.15K

;
_exptl_crystal_description 'prisms'
_exptl_crystal_preparation 'chloroform/methanol'
_diffrn_ambient_temperature ?
_diffrn_special_details
;
The study was carried out at room temperature,in the range 283-303K

;
#These two values have been output from a single CSD field.
_refine_ls_R_factor_gt 0.069
_refine_ls_wR_factor_gt 0.069
_symmetry_cell_setting triclinic
_symmetry_space_group_name_H-M 'P -1'
_symmetry_Int_Tables_number 2
loop_
_symmetry_equiv_pos_site_id
_symmetry_equiv_pos_as_xyz
1 x,y,z
2 -x,-y,-z
_cell_length_a 11.779(3)
_cell_length_b 12.640(3)
_cell_length_c 10.196(2)
_cell_angle_alpha 106.15(1)
_cell_angle_beta 92.30(2)
_cell_angle_gamma 97.29(2)
_cell_formula_units_Z 2
loop_
_atom_type_symbol
_atom_type_radius_bond
C 0.68
H 0.23
N 0.68
O 0.68
loop_
_atom_site_label
_atom_site_type_symbol
_atom_site_fract_x
_atom_site_fract_y
_atom_site_fract_z
O1 O -0.3048(6) 0.1165(6) 0.1842(7)
O2 O 0.1331(5) 0.2236(5) 0.3161(5)
O3 O 0.0328(5) 0.1994(4) 0.6881(5)
O4 O 0.0838(7) 0.1257(6) 0.8553(6)
O5 O -0.1747(7) 0.5326(6) 1.2894(8)
O6 O -0.244(1) 0.566(1) 1.130(1)
O7 O 0.2858(5) -0.0729(5) 0.3193(5)
O8 O 0.4093(7) -0.1116(6) 0.4656(7)
O9 O 0.526(1) -0.397(1) -0.219(1)
O10 O 0.628(2) -0.438(2) -0.094(1)
N1 N -0.2216(8) 0.1702(7) 0.2922(8)
N2 N 0.0891(6) 0.1147(5) 0.5996(6)
N3 N -0.1907(9) 0.514(1) 1.172(1)
N4 N 0.562(1) -0.387(1) -0.114(1)
C1 C -0.112(1) 0.148(1) 0.297(1)
C2 C -0.0515(8) 0.2307(8) 0.4024(9)
C3 C -0.127(1) 0.3080(8) 0.4573(9)
C4 C -0.114(1) 0.4092(9) 0.556(1)
C5 C -0.207(1) 0.467(1) 0.586(1)
C6 C -0.310(1) 0.426(1) 0.517(1)
C7 C -0.328(1) 0.325(1) 0.413(1)
C8 C -0.234(1) 0.2686(9) 0.387(1)
C9 C -0.361(1) 0.017(1) 0.200(1)
C10 C 0.0734(8) 0.2352(7) 0.4386(8)
C11 C 0.1011(7) 0.1370(7) 0.4860(8)
C12 C 0.166(1) 0.0661(8) 0.379(8)
C13 C 0.2214(8) 0.1545(8) 0.3136(9)
C14 C 0.240(1) -0.0002(8) 0.436(1)
C15 C 0.330(1) 0.222(1) 0.398(2)
C16 C 0.242(1) 0.108(1) 0.164(1)
C17 C 0.0360(9) 0.1920(8) 0.8202(9)
C18 C -0.0267(8) 0.2757(7) 0.9067(8)
C19 C -0.013(1) 0.2916(8) 1.0476(9)
C20 C -0.069(1) 0.3682(8) 1.134(1)
C21 C -0.1345(8) 0.4287(8) 1.0810(9)
C22 C -0.152(1) 0.414(1) 0.941(1)
C23 C -0.0965(9) 0.3362(9) 0.856(1)
C24 C 0.374(1) -0.1221(8) 0.351(1)
C25 C 0.4172(8) -0.1911(7) 0.226(1)
C26 C 0.500(1) -0.252(1) 0.246(1)
C27 C 0.553(2) -0.312(1) 0.136(2)
C28 C 0.512(1) -0.320(1) 0.008(1)
C29 C 0.426(1) -0.262(1) -0.014(1)
C30 C 0.379(1) -0.1985(9) 0.097(1)
H1 H -0.09(1) 0.067(8) 0.23(1)
H2 H -0.034(6) 0.434(7) 0.601(9)
H3 H -0.200(7) 0.546(8) 0.66(1)
H4 H -0.381(7) 0.477(7) 0.547(9)
H5 H -0.40370 0.29370 0.35750
H6 H -0.42760 0.01490 0.23700
H7 H -0.36870 -0.04470 0.10910
H8 H -0.30590 -0.01650 0.25390
H9 H 0.111(6) 0.309(6) 0.507(7)
H10 H 0.102(6) 0.018(6) 0.319(8)
H11 H 0.302(7) 0.037(7) 0.50(1)
H12 H 0.184(6) -0.057(7) 0.472(8)
H13 H 0.317(9) 0.247(8) 0.49(1)
H14 H 0.349(7) 0.278(8) 0.36(1)
H15 H 0.415(8) 0.178(7) 0.415(8)
H16 H 0.319(8) 0.078(7) 0.156(9)
H17 H 0.285(9) 0.188(8) 0.13(1)
H18 H 0.174(7) 0.055(7) 0.119(8)
H19 H 0.031(8) 0.238(7) 1.084(8)
H20 H -0.059(5) 0.378(6) 1.232(7)
H21 H -0.203(9) 0.460(7) 0.90(1)
H22 H -0.115(5) 0.323(6) 0.758(8)
H23 H 0.540(7) -0.22(1) 0.33(1)
H24 H 0.60(1) -0.38(1) 0.16(1)
H25 H 0.39(1) -0.278(8) -0.10(1)
H26 H 0.32(1) -0.160(9) 0.08(1)
#END
