
#######################################################################
#
#                 Cambridge Crystallographic Data Centre
#                                CCDC
#
#######################################################################
#
# If this CIF has been generated from an entry in the Cambridge
# Structural Database, then it will include bibliographic, chemical,
# crystal, experimental, refinement or atomic coordinate data resulting
# from the CCDC's data processing and validation procedures.
#
#######################################################################

data_CSD_CIF_XIJJAB
_audit_creation_date 2002-05-23
_audit_creation_method CSD-ConQuest-V1
_database_code_CSD XIJJAB
_database_code_depnum_ccdc_archive 'CCDC 183757'
_chemical_formula_sum 'C24 H28 N2 O1'
_chemical_formula_moiety
;
C24 H28 N2 O1
;
_journal_coden_Cambridge 1336
_journal_volume 4
_journal_year 2002
_journal_page_first 1047
_journal_name_full 'Org.Lett. '
loop_
_publ_author_name
"A.V.Malkov"
"M.Orsini"
"D.Pernazza"
"K.W.Muir"
"V.Langer"
"P.Meghani"
"P.Kocovsky"
_chemical_name_systematic
;
(6R,6'R,8R,8'R)-(+)-5,5',6,6',7,7',8,8'-Octahydro-7,7,7',7'-tetramethyl-bi(6,8
-methanoquinolin-2-yl)-1-oxide
;
_chemical_melting_point 475.15
_cell_volume   1967.514
_exptl_crystal_colour 'yellow'
_exptl_crystal_density_diffrn 1.217
_exptl_special_details
;
Melting point range 475.15-477.15K

;
_diffrn_ambient_temperature 100
_refine_special_details
;
The O atom is disordered over two sites.

;
#These two values have been output from a single CSD field.
_refine_ls_R_factor_gt 0.0461
_refine_ls_wR_factor_gt 0.0461
_symmetry_cell_setting orthorhombic
_symmetry_space_group_name_H-M 'P 21 21 21'
_symmetry_Int_Tables_number 19
loop_
_symmetry_equiv_pos_site_id
_symmetry_equiv_pos_as_xyz
1 x,y,z
2 1/2-x,-y,1/2+z
3 1/2+x,1/2-y,-z
4 -x,1/2+y,1/2-z
_cell_length_a 6.8339(2)
_cell_length_b 11.0443(5)
_cell_length_c 26.0682(10)
_cell_angle_alpha 90
_cell_angle_beta 90
_cell_angle_gamma 90
_cell_formula_units_Z 4
loop_
_atom_type_symbol
_atom_type_radius_bond
C 0.68
H 0.23
N 0.68
O 0.68
loop_
_atom_site_label
_atom_site_type_symbol
_atom_site_fract_x
_atom_site_fract_y
_atom_site_fract_z
O1 O 0.3004(3) 0.5275(2) -0.0980(1)
O2? O 0.6689(18) 0.3841(11) 0.0398(5)
N1 N 0.4522(3) 0.5763(1) -0.0759(1)
N2 N 0.4855(3) 0.3906(1) 0.0357(1)
C1 C 0.5017(3) 0.5492(2) -0.0262(1)
C2 C 0.6654(3) 0.6034(2) -0.0044(1)
C3 C 0.7783(3) 0.6849(2) -0.0316(1)
C4 C 0.7289(3) 0.7100(2) -0.0823(1)
C5 C 0.5672(3) 0.6536(2) -0.1039(1)
C6 C 0.8414(3) 0.7980(2) -0.1157(1)
C7 C 0.7559(4) 0.8027(2) -0.1697(1)
C8 C 0.5284(4) 0.8181(2) -0.1689(1)
C9 C 0.5229(4) 0.6771(2) -0.1593(1)
C10 C 0.7226(4) 0.6703(2) -0.1882(1)
C11 C 0.4349(4) 0.9009(2) -0.1290(1)
C12 C 0.4465(4) 0.8504(2) -0.2219(1)
C13 C 0.3808(3) 0.4627(2) 0.0037(1)
C14 C 0.1774(3) 0.4624(2) 0.0026(1)
C15 C 0.0760(3) 0.3877(2) 0.0364(1)
C16 C 0.1810(3) 0.3150(2) 0.0701(1)
C17 C 0.3859(3) 0.3165(2) 0.0670(1)
C18 C 0.0879(3) 0.2346(2) 0.1104(1)
C19 C 0.2432(3) 0.1586(2) 0.1378(1)
C20 C 0.4213(3) 0.2370(2) 0.1566(1)
C21 C 0.4948(3) 0.2288(2) 0.1000(1)
C22 C 0.3818(3) 0.1056(2) 0.0965(1)
C23 C 0.5559(4) 0.1671(2) 0.1927(1)
C24 C 0.3825(4) 0.3625(2) 0.1791(1)
H1 H 0.69960 0.58430 0.02920
H2 H 0.88530 0.72240 -0.01630
H3 H 0.97740 0.77330 -0.11750
H4 H 0.83650 0.87820 -0.10050
H5 H 0.82560 0.85510 -0.19390
H6 H 0.41310 0.63240 -0.17430
H7 H 0.71070 0.66170 -0.22510
H8 H 0.81400 0.61190 -0.17410
H9 H 0.44790 0.98360 -0.13980
H10 H 0.49930 0.89020 -0.09660
H11 H 0.29880 0.88110 -0.12560
H12 H 0.30650 0.84290 -0.22150
H13 H 0.49990 0.79640 -0.24710
H14 H 0.48170 0.93220 -0.23030
H15 H 0.11000 0.51150 -0.02040
H16 H -0.06010 0.38640 0.03640
H17 H -0.00680 0.18150 0.09420
H18 H 0.01930 0.28440 0.13520
H19 H 0.19280 0.10010 0.16280
H20 H 0.63680 0.22510 0.09510
H21 H 0.31990 0.09090 0.06360
H22 H 0.45670 0.03590 0.10780
H23 H 0.67470 0.21200 0.19780
H24 H 0.58610 0.08960 0.17800
H25 H 0.49170 0.15580 0.22510
H26 H 0.32310 0.35420 0.21230
H27 H 0.29610 0.40650 0.15680
H28 H 0.50390 0.40560 0.18240
#END
