
#######################################################################
#
#                 Cambridge Crystallographic Data Centre
#                                CCDC
#
#######################################################################
#
# If this CIF has been generated from an entry in the Cambridge
# Structural Database, then it will include bibliographic, chemical,
# crystal, experimental, refinement or atomic coordinate data resulting
# from the CCDC's data processing and validation procedures.
#
#######################################################################

data_CSD_CIF_XIJLOT
_audit_creation_date 2013-09-03
_audit_creation_method CSD-ConQuest-V1
_database_code_CSD XIJLOT
_database_code_depnum_ccdc_archive 'CCDC 893862'
_chemical_formula_sum 'C22 H18 N2 O5'
_chemical_formula_moiety
;
C22 H18 N2 O5
;
_journal_coden_Cambridge 177
_journal_volume 11
_journal_year 2013
_journal_page_first 6707
_journal_name_full 'Org.Biomol.Chem. '
loop_
_publ_author_name
"Rui Guo"
"Kang-Nan Li"
"Liu-Zhu Gong"
_chemical_name_systematic
;
10-Methyl-4-(4-nitrophenyl)-7-phenyl-8-oxa-4-azatricyclo[5.2.2.0^2,6^]undec-10
-ene-3,5-dione
;
_cell_volume   1893.076
_exptl_crystal_colour 'colorless'
_exptl_crystal_density_diffrn 1.37
_exptl_crystal_description 'block'
_diffrn_ambient_temperature 291
#These two values have been output from a single CSD field.
_refine_ls_R_factor_gt 0.0439
_refine_ls_wR_factor_gt 0.0439
_symmetry_cell_setting monoclinic
_symmetry_space_group_name_H-M 'P 21/c'
_symmetry_Int_Tables_number 14
loop_
_symmetry_equiv_pos_site_id
_symmetry_equiv_pos_as_xyz
1 x,y,z
2 -x,1/2+y,1/2-z
3 -x,-y,-z
4 x,-1/2-y,-1/2+z
_cell_length_a 12.5002(2)
_cell_length_b 21.1067(3)
_cell_length_c 7.4487(1)
_cell_angle_alpha 90
_cell_angle_beta 105.576(2)
_cell_angle_gamma 90
_cell_formula_units_Z 4
loop_
_atom_type_symbol
_atom_type_radius_bond
C 0.68
H 0.23
N 0.68
O 0.68
loop_
_atom_site_label
_atom_site_type_symbol
_atom_site_fract_x
_atom_site_fract_y
_atom_site_fract_z
O1 O 0.10265(15) 0.02137(9) 0.6691(3)
O2 O 0.38061(15) 0.06083(9) 0.3950(2)
O3 O 0.26399(16) 0.21001(8) 0.8466(3)
N1 N 0.24554(16) 0.02638(9) 0.5299(3)
C1 C 0.25465(19) -0.03995(11) 0.4977(3)
C2 C 0.17131(18) 0.05214(12) 0.6215(3)
C3 C 0.1945(2) 0.12252(11) 0.6476(3)
H1 H 0.12760 0.14680 0.58720
C4 C 0.3450(2) 0.10690(12) 0.9402(3)
H2 H 0.35410 0.08070 1.04350
C5 C 0.2390(2) 0.14316(11) 0.8573(3)
C6 C 0.1752(2) -0.13771(13) 0.3683(5)
H3 H 0.11490 -0.16130 0.30070
C7 C 0.3907(2) 0.16146(12) 0.6929(3)
H4 H 0.45150 0.16890 0.63550
C8 C 0.1519(2) 0.13928(12) 0.9643(3)
C9 C 0.0911(2) 0.19260(14) 0.9849(4)
H5 H 0.10520 0.23100 0.93440
C10 C 0.3565(2) -0.06884(13) 0.5672(4)
H6 H 0.41720 -0.04530 0.63340
C11 C 0.4242(2) 0.11536(12) 0.8538(3)
C12 C 0.1634(2) -0.07440(13) 0.4014(4)
H7 H 0.09450 -0.05490 0.35920
C13 C 0.3555(2) 0.22253(12) 0.7702(4)
H8 H 0.41730 0.23950 0.86630
H9 H 0.33400 0.25380 0.67150
C14 C 0.2862(2) 0.13529(11) 0.5499(3)
H10 H 0.26020 0.16510 0.44650
C15 C 0.31231(19) 0.07206(12) 0.4791(3)
C16 C 0.1288(2) 0.08261(14) 1.0429(4)
H11 H 0.16900 0.04630 1.03330
O4 O 0.2123(2) -0.26117(12) 0.2980(5)
N2 N 0.2900(2) -0.23281(13) 0.3972(5)
C17 C 0.0460(3) 0.08016(17) 1.1354(4)
H12 H 0.03060 0.04200 1.18570
C18 C 0.3680(2) -0.13249(13) 0.5383(4)
H13 H 0.43580 -0.15270 0.58660
C19 C 0.2773(2) -0.16567(13) 0.4363(4)
C20 C 0.5373(2) 0.08610(15) 0.9035(4)
H14 H 0.54720 0.06240 0.79910
H15 H 0.54480 0.05830 1.00810
H16 H 0.59250 0.11880 0.93520
C21 C 0.0099(3) 0.18943(18) 1.0797(5)
H17 H -0.02930 0.22570 1.09330
O5 O 0.3785(3) -0.25726(15) 0.4631(6)
C22 C -0.0130(3) 0.13336(19) 1.1533(5)
H18 H -0.06830 0.13130 1.21530
#END
