
#######################################################################
#
#                 Cambridge Crystallographic Data Centre
#                                CCDC
#
#######################################################################
#
# If this CIF has been generated from an entry in the Cambridge
# Structural Database, then it will include bibliographic, chemical,
# crystal, experimental, refinement or atomic coordinate data resulting
# from the CCDC's data processing and validation procedures.
#
#######################################################################

data_CSD_CIF_XIJWAQ
_audit_creation_date 2013-09-04
_audit_creation_method CSD-ConQuest-V1
_database_code_CSD XIJWAQ
_database_code_depnum_ccdc_archive 'CCDC 959089'
_chemical_formula_sum 'C15 H25 N4 O3'
_chemical_formula_moiety
;
C15 H25 N4 O3
;
_journal_coden_Cambridge 95
_journal_year 2012
_journal_page_first 1454
_journal_name_full 'Izv.Akad.Nauk SSSR,Ser.Khim.(Russ.)(Russ.Chem.Bull.) '
loop_
_publ_author_name
"M.V.Varaksin"
"E.V.Tretyakov"
"I.A.Utepova"
"G.V.Romanenko"
"A.S.Bogomyakov"
"D.V.Stas"
"R.Z.Sagdeev"
"V.I.Ovcharenko"
"O.N.Chupakhin"
_chemical_name_systematic
;
4,4,5,5-Tetramethyl-2-(2,2,3,3-tetramethyl-1-oxido-2,3-dihydropyrazin-5-yl)-4,
5-di-hydro-1H-imidazol-1-oxyl 3-oxide radical
;
_chemical_melting_point 443.15
_cell_volume   1684.825
_exptl_crystal_density_diffrn 1.22
_exptl_special_details
;
Melting point range 443.15-444.15K

;
_exptl_crystal_description 'prism'
_exptl_crystal_preparation 'dichloromethane/n-heptane'
_diffrn_ambient_temperature 240
#These two values have been output from a single CSD field.
_refine_ls_R_factor_gt 0.0655
_refine_ls_wR_factor_gt 0.0655
_symmetry_cell_setting monoclinic
_symmetry_space_group_name_H-M 'P 21/n'
_symmetry_Int_Tables_number 14
loop_
_symmetry_equiv_pos_site_id
_symmetry_equiv_pos_as_xyz
1 x,y,z
2 1/2-x,1/2+y,1/2-z
3 -x,-y,-z
4 -1/2+x,-1/2-y,-1/2+z
_cell_length_a 11.3433(9)
_cell_length_b 11.1876(8)
_cell_length_c 13.3776(10)
_cell_angle_alpha 90
_cell_angle_beta 97.054(5)
_cell_angle_gamma 90
_cell_formula_units_Z 4
loop_
_atom_type_symbol
_atom_type_radius_bond
C 0.68
H 0.23
N 0.68
O 0.68
loop_
_atom_site_label
_atom_site_type_symbol
_atom_site_fract_x
_atom_site_fract_y
_atom_site_fract_z
O1 O 0.7061(4) 0.2950(3) 1.0820(2)
N1 N 0.7290(3) 0.2777(2) 0.99271(19)
C1 C 0.7451(3) 0.3804(3) 0.9237(2)
C2 C 0.8598(4) 0.4402(4) 0.9662(4)
H1 H 0.84890 0.48030 1.02860
H2 H 0.88250 0.49830 0.91810
H3 H 0.92180 0.38050 0.97900
C3 C 0.6427(3) 0.4673(3) 0.9260(3)
H4 H 0.64750 0.50420 0.99200
H5 H 0.56800 0.42460 0.91230
H6 H 0.64700 0.52860 0.87530
C4 C 0.7495(3) 0.3141(3) 0.8226(2)
C5 C 0.8499(4) 0.3523(4) 0.7645(3)
H7 H 0.84600 0.30690 0.70240
H8 H 0.92540 0.33760 0.80500
H9 H 0.84240 0.43690 0.74900
C6 C 0.6324(3) 0.3117(3) 0.7544(3)
H10 H 0.64260 0.26950 0.69270
H11 H 0.60670 0.39290 0.73850
H12 H 0.57310 0.27110 0.78840
N2 N 0.7724(2) 0.1881(2) 0.85842(18)
O2 O 0.7984(3) 0.1063(2) 0.79785(18)
C7 C 0.7522(3) 0.1724(2) 0.9529(2)
C8 C 0.7560(3) 0.0561(3) 1.0056(2)
C9 C 0.8506(3) -0.0245(3) 0.9888(2)
H13 H 0.89760 -0.00950 0.93700
N3 N 0.8704(2) -0.1183(2) 1.0457(2)
O3 O 0.9528(2) -0.1935(2) 1.0353(2)
C10 C 0.8045(3) -0.1299(3) 1.1373(3)
C11 C 0.8098(3) -0.2598(3) 1.1712(3)
H14 H 0.76660 -0.30920 1.11950
H15 H 0.77420 -0.26740 1.23320
H16 H 0.89200 -0.28560 1.18250
C12 C 0.8710(3) -0.0482(4) 1.2201(3)
H17 H 0.95110 -0.07790 1.23810
H18 H 0.82910 -0.04860 1.27910
H19 H 0.87410 0.03270 1.19450
C13 C 0.6774(3) -0.0870(3) 1.1073(3)
C14 C 0.6097(3) -0.1737(3) 1.0294(3)
H20 H 0.65380 -0.18270 0.97220
H21 H 0.53150 -0.14140 1.00690
H22 H 0.60140 -0.25100 1.06070
C15 C 0.6098(3) -0.0713(3) 1.1991(3)
H23 H 0.65360 -0.01770 1.24700
H24 H 0.60110 -0.14840 1.23060
H25 H 0.53180 -0.03800 1.17760
N4 N 0.6741(2) 0.0333(2) 1.0594(2)
#END
