
#######################################################################
#
#                 Cambridge Crystallographic Data Centre
#                                CCDC
#
#######################################################################
#
# If this CIF has been generated from an entry in the Cambridge
# Structural Database, then it will include bibliographic, chemical,
# crystal, experimental, refinement or atomic coordinate data resulting
# from the CCDC's data processing and validation procedures.
#
#######################################################################

data_CSD_CIF_XIKHEH
_audit_creation_date 2018-09-06
_audit_creation_method CSD-ConQuest-V1
_database_code_CSD XIKHEH
_database_code_depnum_ccdc_archive 'CCDC 1584501'
_chemical_formula_sum 'C9 H7 N1 O5'
_chemical_formula_moiety
;
C9 H7 N1 O5
;
_journal_coden_Cambridge 1475
_journal_volume 9
_journal_year 2018
_journal_page_first 7318
_journal_name_full 'Chemical Science '
loop_
_publ_author_name
"D.K.Das"
"V.Kishore Kumar Pampana"
"Kuo Chu Hwang"
_chemical_name_systematic
;
methyl (3-nitrophenyl)(oxo)acetate
;
_cell_volume    437.693
_exptl_crystal_colour 'colorless'
_exptl_crystal_density_diffrn 1.587
_diffrn_ambient_temperature 100
#These two values have been output from a single CSD field.
_refine_ls_R_factor_gt 0.0283
_refine_ls_wR_factor_gt 0.0283
_symmetry_cell_setting triclinic
_symmetry_space_group_name_H-M 'P -1'
_symmetry_Int_Tables_number 2
loop_
_symmetry_equiv_pos_site_id
_symmetry_equiv_pos_as_xyz
1 x,y,z
2 -x,-y,-z
_cell_length_a 7.2306(4)
_cell_length_b 7.3257(4)
_cell_length_c 8.8664(5)
_cell_angle_alpha 106.573(3)
_cell_angle_beta 100.859(3)
_cell_angle_gamma 94.501(3)
_cell_formula_units_Z 2
loop_
_atom_type_symbol
_atom_type_radius_bond
C 0.68
H 0.23
N 0.68
O 0.68
loop_
_atom_site_label
_atom_site_type_symbol
_atom_site_fract_x
_atom_site_fract_y
_atom_site_fract_z
O1 O 0.00699(10) 0.39509(10) 0.64435(9)
O2 O 0.04513(12) -0.25449(12) 0.97287(10)
O3 O 0.27712(13) -0.42110(12) 1.00104(11)
O4 O 0.34933(11) 0.30761(11) 0.63089(10)
O5 O -0.08772(10) 0.09477(10) 0.64372(9)
C1 C -0.19053(15) 0.42941(16) 0.61925(14)
H1 H -0.26790 0.32360 0.52940
H2 H -0.19950 0.55070 0.59400
H3 H -0.23710 0.43710 0.71750
C2 C 0.03468(14) 0.22209(14) 0.65437(12)
C3 C 0.24809(14) 0.20112(14) 0.67266(12)
C4 C 0.32048(14) 0.04432(14) 0.73375(12)
C5 C 0.21972(14) -0.05600(14) 0.81159(12)
H4 H 0.09740 -0.02860 0.82790
C6 C 0.30359(15) -0.19703(14) 0.86452(12)
N1 N 0.20051(13) -0.29871(13) 0.95189(11)
C7 C 0.50197(14) 0.00292(14) 0.71359(12)
H5 H 0.57150 0.07310 0.66240
C8 C 0.58064(15) -0.13946(15) 0.76776(13)
H6 H 0.70340 -0.16670 0.75280
C9 C 0.48146(15) -0.24268(14) 0.84375(12)
H7 H 0.53380 -0.34140 0.88030
#END
