
#######################################################################
#
#                 Cambridge Crystallographic Data Centre
#                                CCDC
#
#######################################################################
#
# If this CIF has been generated from an entry in the Cambridge
# Structural Database, then it will include bibliographic, chemical,
# crystal, experimental, refinement or atomic coordinate data resulting
# from the CCDC's data processing and validation procedures.
#
#######################################################################

data_CSD_CIF_XIKMUC
_audit_creation_date 2018-09-06
_audit_creation_method CSD-ConQuest-V1
_database_code_CSD XIKMUC
_database_code_depnum_ccdc_archive 'CCDC 1542369'
_chemical_formula_sum 'C24 H19 N1 O7'
_chemical_formula_moiety
;
C24 H19 N1 O7
;
_journal_coden_Cambridge 2020
_journal_volume 3
_journal_year 2018
_journal_page_first 9464
_journal_name_full 'Chem. Sel. '
loop_
_publ_author_name
"A.Mishra"
"S.Singh"
"M.A.Quraishi"
"V.Srivastava"
_chemical_name_systematic
;
dimethyl 
2-[(16,18-dioxo-17-azapentacyclo[6.6.5.0^2,7^.0^9,14^.0^15,19^]nonadeca-2,4,6,
9,11,13-hexaen-17-yl)oxy]but-2-enedioate
;
_cell_volume    992.760
_exptl_crystal_colour 'colorless'
_exptl_crystal_density_diffrn 1.45
_exptl_crystal_description 'block'
_diffrn_ambient_temperature 150
#These two values have been output from a single CSD field.
_refine_ls_R_factor_gt 0.0368
_refine_ls_wR_factor_gt 0.0368
_symmetry_cell_setting triclinic
_symmetry_space_group_name_H-M 'P -1'
_symmetry_Int_Tables_number 2
loop_
_symmetry_equiv_pos_site_id
_symmetry_equiv_pos_as_xyz
1 x,y,z
2 -x,-y,-z
_cell_length_a 8.1160(3)
_cell_length_b 11.3300(5)
_cell_length_c 11.9749(5)
_cell_angle_alpha 112.984(4)
_cell_angle_beta 99.660(4)
_cell_angle_gamma 92.210(3)
_cell_formula_units_Z 2
loop_
_atom_type_symbol
_atom_type_radius_bond
C 0.68
H 0.23
N 0.68
O 0.68
loop_
_atom_site_label
_atom_site_type_symbol
_atom_site_fract_x
_atom_site_fract_y
_atom_site_fract_z
N1 N 0.19528(15) 0.82411(11) 0.11668(10)
O1 O 0.18391(13) 0.98575(9) 0.04603(10)
O2 O 0.23673(13) 0.62832(10) 0.12721(9)
O3 O 0.30073(12) 0.89759(10) 0.22945(9)
O4 O -0.21163(13) 0.9530(1) 0.20556(11)
O5 O -0.10403(14) 0.7699(1) 0.18702(12)
O6 O 0.28258(13) 1.14376(10) 0.51477(9)
O7 O 0.49575(14) 1.08001(11) 0.41492(10)
C1 C 0.14586(16) 0.87571(13) 0.02939(13)
C2 C 0.03631(16) 0.76636(12) -0.08008(12)
H1 H -0.08360 0.78460 -0.08460
C3 C 0.05569(16) 0.64429(12) -0.05177(12)
H2 H -0.05630 0.60910 -0.04660
C4 C 0.17267(17) 0.68982(13) 0.07296(12)
C5 C 0.08673(16) 0.74260(12) -0.20628(12)
H3 H 0.07330 0.81830 -0.22890
C6 C -0.02449(16) 0.62222(13) -0.30001(12)
C7 C -0.00283(16) 0.51315(13) -0.27376(12)
C8 C 0.12589(17) 0.54007(12) -0.15625(12)
H4 H 0.14260 0.46050 -0.14050
C9 C 0.26599(16) 0.70876(12) -0.19751(12)
C10 C 0.28730(17) 0.60101(12) -0.16889(12)
C11 C -0.13911(17) 0.61316(14) -0.40361(13)
H5 H -0.15380 0.68690 -0.42190
C12 C -0.23275(18) 0.49492(15) -0.48089(13)
H6 H -0.31190 0.48830 -0.55180
C13 C -0.21078(18) 0.38742(15) -0.45467(13)
H7 H -0.27500 0.30730 -0.50790
C14 C -0.09550(18) 0.39537(14) -0.35097(13)
H8 H -0.08050 0.32120 -0.33340
C15 C 0.39893(17) 0.76912(13) -0.22165(12)
H9 H 0.38500 0.84320 -0.23950
C16 C 0.55320(18) 0.71982(14) -0.21936(13)
H10 H 0.64420 0.75910 -0.23810
C17 C 0.57520(18) 0.61397(14) -0.19002(14)
H11 H 0.68110 0.58110 -0.18890
C18 C 0.44326(17) 0.55536(13) -0.16224(13)
H12 H 0.45980 0.48490 -0.13900
C19 C 0.21788(18) 0.97474(13) 0.31841(12)
C20 C 0.35030(18) 1.07153(13) 0.42074(13)
C21 C 0.3969(2) 1.24551(16) 0.61570(15)
H13 H 0.33420 1.29630 0.67790
H14 H 0.45000 1.30170 0.58380
H15 H 0.48380 1.20730 0.65360
C22 C 0.05464(18) 0.97434(14) 0.31993(13)
H16 H 0.02690 1.04110 0.38960
C23 C -0.09169(17) 0.88584(13) 0.22965(13)
C24 C -0.36219(19) 0.87874(16) 0.11739(16)
H17 H -0.44440 0.93740 0.10890
H18 H -0.41070 0.81850 0.14690
H19 H -0.33310 0.83020 0.03690
#END
