
#######################################################################
#
#                 Cambridge Crystallographic Data Centre
#                                CCDC
#
#######################################################################
#
# If this CIF has been generated from an entry in the Cambridge
# Structural Database, then it will include bibliographic, chemical,
# crystal, experimental, refinement or atomic coordinate data resulting
# from the CCDC's data processing and validation procedures.
#
#######################################################################

data_CSD_CIF_XIKMOW
_audit_creation_date 2018-09-06
_audit_creation_method CSD-ConQuest-V1
_database_code_CSD XIKMOW
_database_code_depnum_ccdc_archive 'CCDC 1542368'
_chemical_formula_sum 'C26 H23 N1 O7'
_chemical_formula_moiety
;
C26 H23 N1 O7
;
_journal_coden_Cambridge 2020
_journal_volume 3
_journal_year 2018
_journal_page_first 9464
_journal_name_full 'Chem. Sel. '
loop_
_publ_author_name
"A.Mishra"
"S.Singh"
"M.A.Quraishi"
"V.Srivastava"
_chemical_name_systematic
;
diethyl 
2-[(16,18-dioxo-17-azapentacyclo[6.6.5.0^2,7^.0^9,14^.0^15,19^]nonadeca-2,4,6,
9,11,13-hexaen-17-yl)oxy]but-2-enedioate
;
_cell_volume   2278.310
_exptl_crystal_colour 'colorless'
_exptl_crystal_density_diffrn 1.345
_exptl_crystal_description 'rod'
_diffrn_ambient_temperature 150
#These two values have been output from a single CSD field.
_refine_ls_R_factor_gt 0.0396
_refine_ls_wR_factor_gt 0.0396
_symmetry_cell_setting monoclinic
_symmetry_space_group_name_H-M 'P 21/c'
_symmetry_Int_Tables_number 14
loop_
_symmetry_equiv_pos_site_id
_symmetry_equiv_pos_as_xyz
1 x,y,z
2 -x,1/2+y,1/2-z
3 -x,-y,-z
4 x,-1/2-y,-1/2+z
_cell_length_a 9.13353(14)
_cell_length_b 9.21245(13)
_cell_length_c 27.1668(4)
_cell_angle_alpha 90
_cell_angle_beta 94.6623(14)
_cell_angle_gamma 90
_cell_formula_units_Z 4
loop_
_atom_type_symbol
_atom_type_radius_bond
C 0.68
H 0.23
N 0.68
O 0.68
loop_
_atom_site_label
_atom_site_type_symbol
_atom_site_fract_x
_atom_site_fract_y
_atom_site_fract_z
N1 N 0.39842(13) 0.14872(13) 0.16149(4)
O1 O 0.55150(12) 0.01697(11) 0.21573(4)
O2 O 0.26621(12) 0.32223(12) 0.11663(4)
O3 O 0.30683(11) 0.03228(11) 0.14759(4)
O4 O 0.64272(12) -0.11569(12) 0.03356(4)
O5 O 0.47968(12) -0.28168(11) 0.05538(4)
O6 O 0.17929(12) -0.22125(12) 0.08228(4)
O7 O 0.30587(12) -0.28572(12) 0.15390(4)
C1 C 0.36247(15) 0.29034(15) 0.14751(5)
C2 C 0.46817(15) 0.38632(15) 0.17825(5)
H1 H 0.41190 0.45460 0.19820
C3 C 0.56127(15) 0.28335(15) 0.21318(5)
H2 H 0.54280 0.30440 0.24830
C4 C 0.50906(16) 0.13261(15) 0.19957(5)
C5 C 0.57207(15) 0.47468(15) 0.14644(5)
H3 H 0.51660 0.54240 0.12300
C6 C 0.66170(16) 0.36544(16) 0.12010(5)
C7 C 0.74584(15) 0.27297(16) 0.15197(5)
C8 C 0.72808(15) 0.30271(15) 0.20596(5)
H4 H 0.79150 0.23820 0.22830
C9 C 0.67489(15) 0.55452(16) 0.18386(5)
C10 C 0.75965(15) 0.46213(16) 0.21561(5)
C11 C 0.66448(17) 0.35026(18) 0.06923(6)
H5 H 0.60710 0.41230 0.04740
C12 C 0.75224(18) 0.2431(2) 0.05069(6)
H6 H 0.75530 0.23250 0.01600
C13 C 0.83506(18) 0.15189(19) 0.08233(6)
H7 H 0.89500 0.07960 0.06920
C14 C 0.83141(16) 0.16499(17) 0.13329(6)
H8 H 0.88680 0.10080 0.15490
C15 C 0.68695(16) 0.70358(16) 0.18922(6)
H9 H 0.62910 0.76640 0.16780
C16 C 0.78452(16) 0.76059(17) 0.22620(6)
H10 H 0.79370 0.86280 0.22990
C17 C 0.86862(16) 0.66904(18) 0.25775(6)
H11 H 0.93490 0.70900 0.28290
C18 C 0.85621(16) 0.51901(17) 0.25268(5)
H12 H 0.91330 0.45630 0.27440
C19 C 0.36491(16) -0.06467(15) 0.11577(5)
C20 C 0.47861(16) -0.04303(16) 0.08925(5)
H13 H 0.52690 0.04840 0.09030
C21 C 0.53008(16) -0.16031(16) 0.05819(5)
C22 C 0.70611(18) -0.22306(19) 0.00231(6)
H14 H 0.63690 -0.24540 -0.02670
H15 H 0.72740 -0.31390 0.02100
C23 C 0.84574(18) -0.1592(2) -0.01413(6)
H16 H 0.89190 -0.22890 -0.03530
H17 H 0.91310 -0.13740 0.01490
H18 H 0.82310 -0.06960 -0.03270
C24 C 0.28080(16) -0.20496(16) 0.11967(5)
C25 C 0.1021(2) -0.36103(19) 0.08059(7)
H19 H 0.17160 -0.43920 0.09160
H20 H 0.06370 -0.38210 0.04620
C26 C -0.0211(3) -0.3580(3) 0.11293(9)
H21 H -0.07090 -0.45230 0.11160
H22 H -0.09090 -0.28190 0.10160
H23 H 0.01720 -0.33770 0.14700
#END
