
#######################################################################
#
#                 Cambridge Crystallographic Data Centre
#                                CCDC
#
#######################################################################
#
# If this CIF has been generated from an entry in the Cambridge
# Structural Database, then it will include bibliographic, chemical,
# crystal, experimental, refinement or atomic coordinate data resulting
# from the CCDC's data processing and validation procedures.
#
#######################################################################

data_CSD_CIF_XIKXUM
_audit_creation_date 2013-09-04
_audit_creation_method CSD-ConQuest-V1
_database_code_CSD XIKXUM
_database_code_depnum_ccdc_archive 'CCDC 959189'
_chemical_formula_sum 'C16 H13 N3 O2'
_chemical_formula_moiety
;
C16 H13 N3 O2
;
_journal_coden_Cambridge 444
_journal_volume 82
_journal_year 2012
_journal_page_first 833
_journal_name_full 'Zh.Obshch.Khim.(Russ.)(Russ.J.Gen.Chem.) '
loop_
_publ_author_name
"E.A.Ishmaeva"
"Ya.A.Vereshchagina"
"D.V.Chachkov"
"O.S.Vasileva"
"E.S.Ostroglyadov"
"A.A.Nikonorov"
"I.A.Litvinov"
"D.B.Krivolapov"
"A.Z.Alimova"
"V.M.Berestovitskaya"
_chemical_name_systematic
;
2-(1-Methylbenzimidazol-2-yl)-1-nitro-1-phenylethene
;
_chemical_name_common
;
1-Methyl-2-(2-nitro-2-phenylvinyl)-1H-benzimidazole
;
_cell_volume   1364.968
_exptl_crystal_colour 'colorless'
_exptl_crystal_density_diffrn 1.359
_exptl_crystal_description 'prism'
_diffrn_ambient_temperature 296
#These two values have been output from a single CSD field.
_refine_ls_R_factor_gt 0.1071
_refine_ls_wR_factor_gt 0.1071
_symmetry_cell_setting monoclinic
_symmetry_space_group_name_H-M 'P 21/c'
_symmetry_Int_Tables_number 14
loop_
_symmetry_equiv_pos_site_id
_symmetry_equiv_pos_as_xyz
1 x,y,z
2 -x,1/2+y,1/2-z
3 -x,-y,-z
4 x,-1/2-y,-1/2+z
_cell_length_a 7.469(5)
_cell_length_b 6.566(4)
_cell_length_c 27.919(18)
_cell_angle_alpha 90
_cell_angle_beta 94.500(8)
_cell_angle_gamma 90
_cell_formula_units_Z 4
loop_
_atom_type_symbol
_atom_type_radius_bond
C 0.68
H 0.23
N 0.68
O 0.68
loop_
_atom_site_label
_atom_site_type_symbol
_atom_site_fract_x
_atom_site_fract_y
_atom_site_fract_z
C1 C 0.2460(7) 0.3994(8) 0.35553(19)
C2 C 0.2490(8) 0.5244(9) 0.39317(19)
C3 C 0.2618(7) 0.4694(8) 0.44393(18)
C4 C 0.2452(7) 0.5117(8) 0.52106(19)
C5 C 0.3162(7) 0.3204(8) 0.51126(18)
C6 C 0.2190(9) 0.576(1) 0.5673(2)
C7 C 0.3647(8) 0.1861(9) 0.5490(2)
C8 C 0.3360(9) 0.2491(11) 0.5945(2)
C9 C 0.2653(10) 0.4410(11) 0.6037(2)
C10 C 0.1389(9) 0.8098(9) 0.4690(2)
C11 C 0.2483(7) 0.4576(8) 0.30448(18)
C12 C 0.3246(9) 0.641(1) 0.2920(2)
C13 C 0.1776(9) 0.3311(11) 0.2678(2)
C14 C 0.2526(9) 0.5734(12) 0.2084(2)
C15 C 0.3275(10) 0.6991(12) 0.2447(2)
C16 C 0.178(1) 0.3934(12) 0.2202(2)
N1 N 0.3241(6) 0.2953(7) 0.46219(15)
N2 N 0.2140(6) 0.6061(6) 0.47739(15)
N3 N 0.2422(8) 0.1789(8) 0.36338(17)
O1 O 0.0994(8) 0.1033(8) 0.37306(18)
O2 O 0.3795(9) 0.0848(8) 0.3589(2)
H1 H 0.165(10) 0.710(12) 0.574(3)
H2 H 0.269(9) 0.494(11) 0.632(2)
H3 H 0.374(12) 0.146(14) 0.622(3)
H4 H 0.426(10) 0.053(12) 0.543(3)
H5 H 0.115(7) 0.204(9) 0.275(2)
H6 H 0.383(10) 0.833(12) 0.233(3)
H7 H 0.250(8) 0.612(9) 0.168(2)
H8 H 0.387(9) 0.720(11) 0.316(2)
H9 H 0.111(11) 0.302(13) 0.198(3)
H10 H 0.041(10) 0.798(11) 0.445(3)
H11 H 0.237(10) 0.880(11) 0.451(2)
H12 H 0.087(11) 0.852(13) 0.496(3)
H13 H 0.246(7) 0.657(9) 0.3872(19)
#END
