
#######################################################################
#
#                 Cambridge Crystallographic Data Centre
#                                CCDC
#
#######################################################################
#
# If this CIF has been generated from an entry in the Cambridge
# Structural Database, then it will include bibliographic, chemical,
# crystal, experimental, refinement or atomic coordinate data resulting
# from the CCDC's data processing and validation procedures.
#
#######################################################################

data_CSD_CIF_XILHAE
_audit_creation_date 2018-09-07
_audit_creation_method CSD-ConQuest-V1
_database_code_CSD XILHAE
_database_code_depnum_ccdc_archive 'CCDC 1840302'
_chemical_formula_sum 'C23 H17 N5 O6'
_chemical_formula_moiety
;
C23 H17 N5 O6
;
_journal_coden_Cambridge 16
_journal_volume 74
_journal_year 2018
_journal_page_first 6288
_journal_name_full 'Tetrahedron '
loop_
_publ_author_name
"E.E.Galenko"
"V.K.Ivanov"
"M.S.Novikov"
"A.A.Zolotarev"
"A.F.Khlebnikov"
_chemical_name_systematic
;
4-{[2-(2,4-dinitrophenyl)hydrazinylidene](phenyl)methyl}-5-methoxy-3-phenyl-1,
2-oxazole
;
_cell_volume   4151.469
_exptl_crystal_colour 'colorless'
_exptl_crystal_density_diffrn 1.47
_exptl_crystal_description 'prism'
_diffrn_ambient_temperature 100
#These two values have been output from a single CSD field.
_refine_ls_R_factor_gt 0.0349
_refine_ls_wR_factor_gt 0.0349
_symmetry_cell_setting orthorhombic
_symmetry_space_group_name_H-M 'P b c a'
_symmetry_Int_Tables_number 61
loop_
_symmetry_equiv_pos_site_id
_symmetry_equiv_pos_as_xyz
1 x,y,z
2 1/2-x,-y,1/2+z
3 1/2+x,1/2-y,-z
4 -x,1/2+y,1/2-z
5 -x,-y,-z
6 -1/2+x,y,-1/2-z
7 -1/2-x,-1/2+y,z
8 x,-1/2-y,-1/2+z
_cell_length_a 15.9253(3)
_cell_length_b 9.02089(19)
_cell_length_c 28.8978(6)
_cell_angle_alpha 90
_cell_angle_beta 90
_cell_angle_gamma 90
_cell_formula_units_Z 8
loop_
_atom_type_symbol
_atom_type_radius_bond
C 0.68
H 0.23
N 0.68
O 0.68
loop_
_atom_site_label
_atom_site_type_symbol
_atom_site_fract_x
_atom_site_fract_y
_atom_site_fract_z
O1 O 0.92651(6) 0.10455(10) 0.36777(3)
O2 O 0.86159(5) 0.61786(11) 0.37556(3)
O3 O 1.21410(7) -0.12697(12) 0.20088(4)
O4 O 0.86044(5) 0.47132(10) 0.44008(3)
O5 O 0.90601(6) -0.09609(10) 0.32820(3)
N1 N 0.94499(6) 0.01833(12) 0.33567(4)
C1 C 1.16422(7) 0.70256(13) 0.34534(4)
H1 H 1.18537 0.63072 0.32542
N2 N 1.02944(6) 0.30491(12) 0.33566(3)
H2 H 0.98817 0.28962 0.35425
N3 N 1.07004(6) 0.43877(11) 0.33591(3)
N4 N 0.91763(6) 0.38256(12) 0.46589(4)
C2 C 1.11894(7) 0.22192(14) 0.27354(4)
H3 H 1.14110 0.31677 0.27039
C3 C 1.04828(7) 0.52822(13) 0.36884(4)
C4 C 1.05419(7) 0.19648(13) 0.30617(4)
C5 C 1.21115(8) 0.26171(16) 0.46831(5)
H4 H 1.26592 0.28292 0.45932
C6 C 0.98987(7) 0.39397(13) 0.44404(4)
C7 C 1.06219(8) 0.31033(13) 0.46260(4)
C8 C 1.09119(7) 0.67394(13) 0.37097(4)
C9 C 1.05957(7) 0.78505(14) 0.39977(4)
H5 H 1.01095 0.76775 0.41675
C10 C 1.19594(8) 0.14946(16) 0.50001(4)
H6 H 1.24042 0.09553 0.51232
C11 C 1.17309(8) 0.94764(14) 0.37855(4)
H7 H 1.20059 1.03818 0.38125
C12 C 1.11402(9) 0.11782(15) 0.51332(4)
H8 H 1.10380 0.04359 0.53493
C13 C 1.20503(7) 0.83790(14) 0.34966(4)
H9 H 1.25411 0.85534 0.33309
C14 C 1.01643(7) 0.05357(14) 0.30625(4)
C15 C 0.98435(7) 0.48855(13) 0.40421(4)
C16 C 1.14469(8) 0.34273(15) 0.44988(4)
H10 H 1.15533 0.41885 0.42899
C17 C 1.04752(8) 0.19646(14) 0.49453(4)
H11 H 0.99279 0.17347 0.50317
C18 C 1.14954(8) 0.10955(14) 0.24655(4)
H12 H 1.19291 0.12732 0.22572
C19 C 0.90206(8) 0.53077(14) 0.40445(4)
C20 C 1.11486(8) -0.03224(14) 0.25062(4)
C21 C 1.09992(8) 0.92121(14) 0.40333(4)
H13 H 1.07788 0.99471 0.42235
C22 C 1.04744(7) -0.06021(14) 0.27908(4)
H14 H 1.02315 -0.15392 0.28003
O6 O 1.12699(6) -0.28087(10) 0.23258(3)
N5 N 1.15386(7) -0.15460(12) 0.22608(4)
C23 C 0.77183(8) 0.63533(17) 0.38310(5)
H15 H 0.74960 0.70456 0.36104
H16 H 0.76216 0.67170 0.41386
H17 H 0.74448 0.54125 0.37937
#END
