
#######################################################################
#
#                 Cambridge Crystallographic Data Centre
#                                CCDC
#
#######################################################################
#
# If this CIF has been generated from an entry in the Cambridge
# Structural Database, then it will include bibliographic, chemical,
# crystal, experimental, refinement or atomic coordinate data resulting
# from the CCDC's data processing and validation procedures.
#
#######################################################################

data_CSD_CIF_XILVOE
_audit_creation_date 2007-11-23
_audit_creation_method CSD-ConQuest-V1
_database_code_CSD XILVOE
_database_code_depnum_ccdc_archive 'CCDC 663853'
_chemical_formula_sum 'C8 H7 N1 O5'
_chemical_formula_moiety
;
C8 H7 N1 O5
;
_journal_coeditor_code "IUCr CS2054"
_journal_coden_Cambridge 1370
_journal_volume 63
_journal_year 2007
_journal_page_first o4184
_journal_name_full 'Acta Crystallogr.,Sect.E:Struct.Rep.Online '
loop_
_publ_author_name
"R.Betz"
"F.Betzler"
"P.Klufers"
_chemical_name_systematic
;
rac-2-Hydroxy-2-(2-nitrophenyl)acetic acid
;
_chemical_name_common
;
rac-o-Nitromandelic acid
;
_cell_volume    817.861
_exptl_crystal_colour 'yellow'
_exptl_crystal_density_diffrn 1.601
_exptl_crystal_description 'block'
_exptl_crystal_preparation 'water'
_diffrn_ambient_temperature 200
#These two values have been output from a single CSD field.
_refine_ls_R_factor_gt 0.0458
_refine_ls_wR_factor_gt 0.0458
_symmetry_cell_setting monoclinic
_symmetry_space_group_name_H-M 'P 21/c'
_symmetry_Int_Tables_number 14
loop_
_symmetry_equiv_pos_site_id
_symmetry_equiv_pos_as_xyz
1 x,y,z
2 -x,1/2+y,1/2-z
3 -x,-y,-z
4 x,-1/2-y,-1/2+z
_cell_length_a 9.4343(3)
_cell_length_b 9.7690(5)
_cell_length_c 9.8842(5)
_cell_angle_alpha 90
_cell_angle_beta 116.130(2)
_cell_angle_gamma 90
_cell_formula_units_Z 4
loop_
_atom_type_symbol
_atom_type_radius_bond
C 0.68
H 0.23
N 0.68
O 0.68
loop_
_atom_site_label
_atom_site_type_symbol
_atom_site_fract_x
_atom_site_fract_y
_atom_site_fract_z
O1 O 0.99600(16) 0.23800(15) 0.14149(16)
H1 H 1.06420 0.16020 0.17550
O2 O 0.82437(14) 0.08167(15) 0.36283(14)
H2 H 0.85970 0.03290 0.44480
O3 O 1.07440(14) 0.07928(14) 0.39310(14)
O4 O 0.76077(16) -0.05081(16) -0.15598(15)
O5 O 0.89088(15) -0.03814(15) 0.08572(14)
N1 N 0.78192(16) -0.00364(15) -0.03350(16)
C1 C 0.9378(2) 0.1182(2) 0.32753(19)
C2 C 0.8853(2) 0.2223(2) 0.2006(2)
H3 H 0.88340 0.31230 0.24810
C3 C 0.7177(2) 0.20068(19) 0.07818(19)
C4 C 0.66966(19) 0.09861(18) -0.03184(18)
C5 C 0.5157(2) 0.08671(19) -0.14383(19)
H4 H 0.48820 0.01620 -0.21730
C6 C 0.4034(2) 0.1789(2) -0.1468(2)
H5 H 0.29720 0.17170 -0.22160
C7 C 0.4467(2) 0.2817(2) -0.0402(2)
H6 H 0.36990 0.34550 -0.04190
C8 C 0.6010(2) 0.2925(2) 0.0689(2)
H7 H 0.62830 0.36500 0.14000
#END
