
#######################################################################
#
#                 Cambridge Crystallographic Data Centre
#                                CCDC
#
#######################################################################
#
# If this CIF has been generated from an entry in the Cambridge
# Structural Database, then it will include bibliographic, chemical,
# crystal, experimental, refinement or atomic coordinate data resulting
# from the CCDC's data processing and validation procedures.
#
#######################################################################

data_CSD_CIF_XIMCED
_audit_creation_date 2013-09-05
_audit_creation_method CSD-ConQuest-V1
_database_code_CSD XIMCED
_database_code_depnum_ccdc_archive 'CCDC 872699'
_chemical_formula_sum 'C32 H42 N1 O7'
_chemical_formula_moiety
;
C32 H42 N1 O7
;
_journal_coden_Cambridge 35
_journal_volume 77
_journal_year 2012
_journal_page_first 5465
_journal_name_full 'J.Org.Chem. '
loop_
_publ_author_name
"A.Yu.Sukhorukov"
"Y.D.Boyko"
"Y.V.Nelyubina"
"S.Gerard"
"S.L.Ioffe"
"V.A.Tartakovsky"
_chemical_name_systematic
;
Methyl 
3-(4-(3-(cyclopentyloxy)-4-methoxyphenyl)-2-oxo-6-((2-phenylcyclohexyl)oxy)-5,
6-dihydro-4H-1,2-oxazin-3-yl)propanoate
;
_cell_volume   2838.315
_exptl_crystal_colour 'colorless'
_exptl_crystal_density_diffrn 1.291
_exptl_crystal_description 'prism'
_diffrn_ambient_temperature 100
#These two values have been output from a single CSD field.
_refine_ls_R_factor_gt 0.0339
_refine_ls_wR_factor_gt 0.0339
_symmetry_cell_setting orthorhombic
_symmetry_space_group_name_H-M 'P 21 21 21'
_symmetry_Int_Tables_number 19
loop_
_symmetry_equiv_pos_site_id
_symmetry_equiv_pos_as_xyz
1 x,y,z
2 1/2-x,-y,1/2+z
3 -x,1/2+y,1/2-z
4 1/2+x,1/2-y,-z
_cell_length_a 7.7016(3)
_cell_length_b 13.8490(5)
_cell_length_c 26.6110(11)
_cell_angle_alpha 90
_cell_angle_beta 90
_cell_angle_gamma 90
_cell_formula_units_Z 4
loop_
_atom_type_symbol
_atom_type_radius_bond
C 0.68
H 0.23
N 0.68
O 0.68
loop_
_atom_site_label
_atom_site_type_symbol
_atom_site_fract_x
_atom_site_fract_y
_atom_site_fract_z
O1 O 0.51983(13) 0.84133(6) 0.80192(4)
N1 N 0.41929(14) 0.75408(8) 0.80519(4)
O2 O 0.30049(13) 0.76232(8) 0.83743(4)
O3 O 0.79230(11) 0.77069(6) 0.81700(3)
O4 O 0.27074(11) 0.72689(6) 0.58312(3)
O5 O 0.37712(12) 0.55330(6) 0.54596(3)
O6 O -0.08527(13) 0.49451(7) 0.76242(4)
O7 O 0.11309(13) 0.45140(7) 0.81965(4)
C1 C 0.45329(16) 0.67991(9) 0.77698(4)
C2 C 0.59925(16) 0.67850(9) 0.73923(4)
H1 H 0.68830 0.63180 0.75170
C3 C 0.68831(18) 0.77666(10) 0.73396(5)
H2 H 0.80760 0.76770 0.72090
H3 H 0.62340 0.81710 0.70970
C4 C 0.69496(17) 0.82641(9) 0.78418(5)
H4 H 0.75270 0.89060 0.78000
C5 C 0.82593(16) 0.81347(9) 0.86588(4)
H5 H 0.71510 0.83950 0.88000
C6 C 0.88872(16) 0.72963(9) 0.89846(4)
H6 H 0.99130 0.70010 0.88130
C7 C 0.95006(17) 0.76659(9) 0.95007(5)
H7 H 0.84920 0.79220 0.96890
H8 H 0.99890 0.71200 0.96950
C8 C 1.08710(17) 0.84557(9) 0.94509(5)
H9 H 1.12110 0.86880 0.97890
H10 H 1.19170 0.81920 0.92840
C9 C 1.01449(17) 0.92921(9) 0.91434(5)
H11 H 1.10400 0.98010 0.91100
H12 H 0.91330 0.95740 0.93200
C10 C 0.95896(17) 0.89483(9) 0.86206(5)
H13 H 0.90810 0.94960 0.84320
H14 H 1.06200 0.87170 0.84340
C11 C 0.75314(18) 0.65077(9) 0.90495(4)
C12 C 0.8041(2) 0.55402(10) 0.90369(5)
H15 H 0.92160 0.53830 0.89650
C13 C 0.57916(18) 0.67138(10) 0.91485(5)
H16 H 0.54160 0.73670 0.91580
C14 C 0.6849(2) 0.48003(11) 0.91275(6)
H17 H 0.72210 0.41460 0.91220
C15 C 0.4601(2) 0.59782(11) 0.92327(5)
H18 H 0.34190 0.61320 0.92960
C16 C 0.5130(2) 0.50187(12) 0.92248(6)
H19 H 0.43160 0.45170 0.92860
C17 C 0.53486(16) 0.64122(9) 0.68872(4)
C18 C 0.41815(16) 0.69523(9) 0.65981(4)
H20 H 0.37320 0.75390 0.67300
C19 C 0.36673(15) 0.66530(9) 0.61254(5)
C20 C 0.42933(16) 0.57678(9) 0.59346(4)
C21 C 0.54036(16) 0.52110(9) 0.62251(5)
H21 H 0.57990 0.46050 0.61040
C22 C 0.59389(16) 0.55401(9) 0.66951(4)
H22 H 0.67220 0.51610 0.68880
C23 C 0.46075(19) 0.47336(10) 0.52259(5)
H23 H 0.41640 0.46570 0.48830
H24 H 0.43710 0.41450 0.54190
H25 H 0.58630 0.48480 0.52150
C24 C 0.09495(16) 0.69545(9) 0.57163(5)
H26 H 0.09490 0.62710 0.55950
C25 C 0.02314(18) 0.76335(11) 0.53106(5)
H27 H 0.11600 0.80600 0.51800
H28 H -0.02590 0.72590 0.50270
C26 C -0.02583(18) 0.70677(10) 0.61728(5)
H29 H -0.05270 0.64310 0.63230
H30 H 0.02840 0.74820 0.64320
C27 C -0.11819(17) 0.8227(1) 0.55677(5)
H31 H -0.06910 0.88150 0.57250
H32 H -0.20960 0.84180 0.53260
C28 C -0.18989(17) 0.75394(10) 0.59642(5)
H33 H -0.26820 0.70540 0.58120
H34 H -0.25340 0.78950 0.62300
C29 C 0.35063(17) 0.59074(10) 0.78766(5)
H35 H 0.35300 0.57850 0.82430
H36 H 0.40780 0.53540 0.77090
C30 C 0.16111(17) 0.59503(10) 0.77044(5)
H37 H 0.10500 0.65340 0.78450
H38 H 0.15650 0.59950 0.73330
C31 C 0.06439(16) 0.50632(9) 0.78754(5)
C32 C -0.1852(2) 0.41086(11) 0.77721(6)
H39 H -0.29590 0.41050 0.75900
H40 H -0.20750 0.41330 0.81340
H41 H -0.12000 0.35210 0.76920
#END
