
#######################################################################
#
#                 Cambridge Crystallographic Data Centre
#                                CCDC
#
#######################################################################
#
# If this CIF has been generated from an entry in the Cambridge
# Structural Database, then it will include bibliographic, chemical,
# crystal, experimental, refinement or atomic coordinate data resulting
# from the CCDC's data processing and validation procedures.
#
#######################################################################

data_CSD_CIF_XIMHUW
_audit_creation_date 2002-06-19
_audit_creation_method CSD-ConQuest-V1
_database_code_CSD XIMHUW
_database_code_depnum_ccdc_archive 'CCDC 184739'
_chemical_formula_sum 'C26 H22 N2 O9'
_chemical_formula_moiety
;
C26 H22 N2 O9
;
_journal_coden_Cambridge 4
_journal_volume 124
_journal_year 2002
_journal_page_first 3608
_journal_name_full 'J.Am.Chem.Soc. '
loop_
_publ_author_name
"S.R.Angle"
"N.A.El-Said"
_chemical_name_systematic
;
4-methyl-2-phenyl-3-(4-nitrobenzoato-O)-5-(4-nitrobenzoyloxymethyl)-tetrahydro
furan
;
_cell_volume   4711.367
_exptl_crystal_density_diffrn 1.428
_diffrn_ambient_temperature 213
#These two values have been output from a single CSD field.
_refine_ls_R_factor_gt 0.036
_refine_ls_wR_factor_gt 0.036
_symmetry_cell_setting monoclinic
_symmetry_space_group_name_H-M 'C 2/c'
_symmetry_Int_Tables_number 15
loop_
_symmetry_equiv_pos_site_id
_symmetry_equiv_pos_as_xyz
1 x,y,z
2 1/2+x,1/2+y,z
3 x,-y,1/2+z
4 1/2+x,1/2-y,1/2+z
5 -x,-y,-z
6 -1/2-x,-1/2-y,-z
7 -x,y,-1/2-z
8 -1/2-x,-1/2+y,-1/2-z
_cell_length_a 21.832(3)
_cell_length_b 16.948(3)
_cell_length_c 13.0648(19)
_cell_angle_alpha 90
_cell_angle_beta 102.938(3)
_cell_angle_gamma 90
_cell_formula_units_Z 8
loop_
_atom_type_symbol
_atom_type_radius_bond
C 0.68
H 0.23
N 0.68
O 0.68
loop_
_atom_site_label
_atom_site_type_symbol
_atom_site_fract_x
_atom_site_fract_y
_atom_site_fract_z
O1 O 0.31370(4) 0.18543(5) 0.06728(7)
C1 C 0.25572(6) 0.15692(7) 0.08668(10)
H1 H 0.22060 0.17480 0.02950
C2 C 0.25029(6) 0.19704(7) 0.19033(11)
H2 H 0.23560 0.15920 0.23740
C3 C 0.31657(6) 0.22652(8) 0.23949(11)
H3 H 0.31680 0.28450 0.23080
C4 C 0.35613(6) 0.19088(8) 0.16815(11)
H4 H 0.36840 0.13680 0.19310
C5 C 0.33978(8) 0.20853(11) 0.35557(12)
H5 H 0.31210 0.23320 0.39480
H6 H 0.38200 0.22900 0.37970
H7 H 0.34000 0.15190 0.36630
C6 C 0.25478(6) 0.06685(8) 0.09326(10)
C7 C 0.30164(7) 0.02226(8) 0.06494(11)
H8 H 0.33440 0.04770 0.04200
C8 C 0.30059(8) -0.05961(9) 0.07017(12)
H9 H 0.33280 -0.08910 0.05140
C9 C 0.25266(8) -0.09768(8) 0.10263(13)
H10 H 0.25210 -0.15310 0.10630
C10 C 0.20518(8) -0.05379(9) 0.12990(12)
H11 H 0.17210 -0.07960 0.15150
C11 C 0.20625(7) 0.02787(8) 0.12558(12)
H12 H 0.17400 0.05720 0.14460
O2 O 0.21043(4) 0.26632(5) 0.17272(7)
O3 O 0.12393(5) 0.19008(6) 0.13589(10)
C12 C 0.14843(6) 0.25422(8) 0.14855(11)
C13 C 0.11289(6) 0.32980(8) 0.14189(11)
C14 C 0.04805(7) 0.32610(9) 0.12369(13)
H13 H 0.02770 0.27690 0.11330
C15 C 0.01295(7) 0.39417(8) 0.12072(13)
H14 H -0.03110 0.39200 0.10910
C16 C 0.04412(6) 0.46506(8) 0.13516(10)
C17 C 0.10853(7) 0.47066(8) 0.15256(12)
H15 H 0.12860 0.52010 0.16180
C18 C 0.14300(6) 0.40220(8) 0.15616(11)
H16 H 0.18710 0.40470 0.16830
N1 N 0.00741(6) 0.53811(7) 0.13217(9)
O4 O -0.04895(5) 0.53251(7) 0.1262(1)
O5 O 0.03496(5) 0.60116(6) 0.13631(10)
C19 C 0.41413(7) 0.23474(8) 0.15907(13)
H17 H 0.44660 0.22870 0.22390
H18 H 0.43050 0.21340 0.10080
O6 O 0.39861(4) 0.31764(5) 0.14074(8)
O7 O 0.49716(5) 0.34189(6) 0.12476(9)
C20 C 0.44591(6) 0.36468(8) 0.12963(11)
C21 C 0.42678(6) 0.44960(8) 0.12566(10)
C22 C 0.47099(7) 0.50620(9) 0.11421(12)
H19 H 0.51130 0.49040 0.10830
C23 C 0.45579(7) 0.58545(9) 0.11152(12)
H20 H 0.48540 0.62400 0.10380
C24 C 0.39632(7) 0.60653(8) 0.12049(11)
C25 C 0.35164(7) 0.55187(8) 0.13220(11)
H21 H 0.31140 0.56800 0.13820
C26 C 0.36737(7) 0.47271(8) 0.13492(11)
H22 H 0.33770 0.43440 0.14310
N2 N 0.37866(7) 0.69066(7) 0.11606(10)
O8 O 0.41955(6) 0.73941(7) 0.11557(13)
O9 O 0.32411(6) 0.70791(6) 0.11230(9)
#END
