
#######################################################################
#
#                 Cambridge Crystallographic Data Centre
#                                CCDC
#
#######################################################################
#
# If this CIF has been generated from an entry in the Cambridge
# Structural Database, then it will include bibliographic, chemical,
# crystal, experimental, refinement or atomic coordinate data resulting
# from the CCDC's data processing and validation procedures.
#
#######################################################################

data_CSD_CIF_XIMJEI
_audit_creation_date 2002-06-19
_audit_creation_method CSD-ConQuest-V1
_database_code_CSD XIMJEI
_database_code_depnum_ccdc_archive 'CCDC 184741'
_chemical_formula_sum 'C21 H20 N2 O9'
_chemical_formula_moiety
;
C21 H20 N2 O9
;
_journal_coden_Cambridge 4
_journal_volume 124
_journal_year 2002
_journal_page_first 3608
_journal_name_full 'J.Am.Chem.Soc. '
loop_
_publ_author_name
"S.R.Angle"
"N.A.El-Said"
_chemical_name_systematic
;
2-Phenyl-3-(4-nitrobenzoato-O)-5-(4-nitrobenzoyloxymethyl)-tetrahydrofuran
;
_cell_volume   1016.450
_exptl_crystal_colour 'colorless'
_exptl_crystal_density_diffrn 1.452
_diffrn_ambient_temperature 213
#These two values have been output from a single CSD field.
_refine_ls_R_factor_gt 0.0356
_refine_ls_wR_factor_gt 0.0356
loop_
_citation_database_id_CSD
_citation_special_details
XIMJAE "is a stereoisomer of this entry"
_symmetry_cell_setting monoclinic
_symmetry_space_group_name_H-M 'P 21'
_symmetry_Int_Tables_number 4
loop_
_symmetry_equiv_pos_site_id
_symmetry_equiv_pos_as_xyz
1 x,y,z
2 -x,1/2+y,-z
_cell_length_a 6.962(1)
_cell_length_b 20.910(3)
_cell_length_c 7.2754(11)
_cell_angle_alpha 90
_cell_angle_beta 106.319(3)
_cell_angle_gamma 90
_cell_formula_units_Z 2
loop_
_atom_type_symbol
_atom_type_radius_bond
C 0.68
H 0.23
N 0.68
O 0.68
loop_
_atom_site_label
_atom_site_type_symbol
_atom_site_fract_x
_atom_site_fract_y
_atom_site_fract_z
O1 O 0.53174(19) 0.96897(7) 0.04237(19)
C1 C 0.6631(3) 1.00301(11) 0.2012(3)
H1 H 0.60700 1.04590 0.21140
C2 C 0.8599(3) 1.0100(1) 0.1504(3)
H2 H 0.97740 1.01030 0.26500
C3 C 0.8591(3) 0.95302(9) 0.0220(3)
H3 H 0.88870 0.91440 0.10400
C4 C 0.6394(3) 0.95063(10) -0.0902(3)
H4 H 0.61590 0.98360 -0.19170
C5 C 0.5601(3) 0.88822(10) -0.1827(3)
H5 H 0.41510 0.89130 -0.24000
H6 H 0.62240 0.87820 -0.28450
C6 C 1.0081(3) 0.95526(11) -0.0961(3)
H7 H 1.14330 0.95420 -0.01130
H8 H 0.98870 0.99430 -0.17100
H9 H 0.98730 0.91860 -0.18130
C7 C 0.6836(4) 0.96627(14) 0.3859(3)
H10 H 0.55190 0.95860 0.40210
H11 H 0.76280 0.99100 0.49330
H12 H 0.74920 0.92570 0.38030
O2 O 0.6048(2) 0.83788(7) -0.03856(19)
O3 O 0.5521(3) 0.76618(8) -0.2757(2)
C8 C 0.5920(3) 0.77861(10) -0.1078(3)
C9 C 0.6273(3) 0.72849(10) 0.0461(3)
C10 C 0.6354(3) 0.66501(11) -0.0102(3)
H13 H 0.62240 0.65530 -0.13930
C11 C 0.6623(3) 0.61643(11) 0.1226(3)
H14 H 0.67050 0.57360 0.08660
C12 C 0.6769(3) 0.63263(10) 0.3104(3)
C13 C 0.6676(3) 0.69465(10) 0.3707(3)
H15 H 0.67590 0.70380 0.49920
C14 C 0.6456(3) 0.7433(1) 0.2366(3)
H16 H 0.64310 0.78620 0.27450
N1 N 0.6984(3) 0.58020(9) 0.4502(2)
O4 O 0.7598(3) 0.52876(8) 0.4133(2)
O5 O 0.6519(3) 0.59062(8) 0.5974(2)
O6 O 0.8526(2) 1.06637(7) 0.02923(18)
O7 O 0.9016(2) 1.13205(8) 0.2825(2)
C15 C 0.8749(3) 1.12361(10) 0.1127(3)
C16 C 0.8629(3) 1.17592(10) -0.0293(3)
C17 C 0.8701(3) 1.23897(10) 0.0345(3)
H17 H 0.88250 1.24740 0.16420
C18 C 0.8591(3) 1.2893(1) -0.0920(3)
H18 H 0.85950 1.33200 -0.05100
C19 C 0.8475(3) 1.27486(10) -0.2798(3)
C20 C 0.8420(3) 1.21285(10) -0.3476(3)
H19 H 0.83480 1.20470 -0.47650
C21 C 0.8473(3) 1.16357(10) -0.2215(3)
H20 H 0.84030 1.12110 -0.26510
N2 N 0.8449(3) 1.32822(9) -0.4132(3)
O8 O 0.7884(3) 1.38028(8) -0.3750(2)
O9 O 0.9043(3) 1.31780(9) -0.5535(2)
#END
