
#######################################################################
#
#                 Cambridge Crystallographic Data Centre
#                                CCDC
#
#######################################################################
#
# If this CIF has been generated from an entry in the Cambridge
# Structural Database, then it will include bibliographic, chemical,
# crystal, experimental, refinement or atomic coordinate data resulting
# from the CCDC's data processing and validation procedures.
#
#######################################################################

data_CSD_CIF_XIMJAE
_audit_creation_date 2002-06-19
_audit_creation_method CSD-ConQuest-V1
_database_code_CSD XIMJAE
_database_code_depnum_ccdc_archive 'CCDC 184740'
_chemical_formula_sum 'C21 H20 N2 O9'
_chemical_formula_moiety
;
C21 H20 N2 O9
;
_journal_coden_Cambridge 4
_journal_volume 124
_journal_year 2002
_journal_page_first 3608
_journal_name_full 'J.Am.Chem.Soc. '
loop_
_publ_author_name
"S.R.Angle"
"N.A.El-Said"
_chemical_name_systematic
;
2,4-Dimethyl-3-(4-nitrobenzoato-O)-5-(4-nitrobenzoyloxymethyl)-tetrahydrofuran
;
_cell_volume   2150.871
_exptl_crystal_colour 'colorless'
_exptl_crystal_density_diffrn 1.372
_diffrn_ambient_temperature 213
#These two values have been output from a single CSD field.
_refine_ls_R_factor_gt 0.0359
_refine_ls_wR_factor_gt 0.0359
loop_
_citation_database_id_CSD
_citation_special_details
XIMJEI "is a stereoisomer of this entry"
_symmetry_cell_setting orthorhombic
_symmetry_space_group_name_H-M 'P 21 21 21'
_symmetry_Int_Tables_number 19
loop_
_symmetry_equiv_pos_site_id
_symmetry_equiv_pos_as_xyz
1 x,y,z
2 1/2-x,-y,1/2+z
3 -x,1/2+y,1/2-z
4 1/2+x,1/2-y,-z
_cell_length_a 7.0177(9)
_cell_length_b 13.6122(18)
_cell_length_c 22.516(3)
_cell_angle_alpha 90
_cell_angle_beta 90
_cell_angle_gamma 90
_cell_formula_units_Z 4
loop_
_atom_type_symbol
_atom_type_radius_bond
C 0.68
H 0.23
N 0.68
O 0.68
loop_
_atom_site_label
_atom_site_type_symbol
_atom_site_fract_x
_atom_site_fract_y
_atom_site_fract_z
O1 O 0.74568(18) 0.72066(8) 0.33839(4)
C1 C 0.6172(3) 0.65797(11) 0.37039(6)
H1 H 0.55120 0.69640 0.40160
C2 C 0.4707(2) 0.61865(12) 0.32558(7)
H2 H 0.49170 0.54740 0.31960
C3 C 0.5202(2) 0.67377(11) 0.26836(6)
H3 H 0.40450 0.69580 0.24700
C4 C 0.6393(3) 0.75976(11) 0.28947(6)
H4 H 0.55240 0.81110 0.30480
C5 C 0.7411(3) 0.58079(12) 0.39892(7)
H5 H 0.79990 0.53900 0.36860
H6 H 0.84220 0.61150 0.42250
C6 C 0.2650(3) 0.63598(18) 0.34465(9)
H7 H 0.23740 0.70580 0.34360
H8 H 0.24680 0.61150 0.38470
H9 H 0.17980 0.60170 0.31780
C7 C 0.7720(3) 0.80629(13) 0.24493(7)
H10 H 0.82910 0.86460 0.26210
H11 H 0.70090 0.82420 0.20960
H12 H 0.87140 0.75990 0.23440
O2 O 0.61566(17) 0.52331(7) 0.43677(4)
O3 O 0.8679(2) 0.43442(8) 0.46503(5)
C8 C 0.7002(3) 0.45206(11) 0.46745(7)
C9 C 0.5644(2) 0.39776(10) 0.50647(6)
C10 C 0.6389(3) 0.33034(11) 0.54641(6)
H13 H 0.77100 0.31910 0.54740
C11 C 0.5219(3) 0.27997(12) 0.58453(7)
H14 H 0.57220 0.23430 0.61160
C12 C 0.3300(3) 0.29792(11) 0.58210(6)
C13 C 0.2495(3) 0.36321(11) 0.54253(6)
H15 H 0.11700 0.37310 0.54150
C14 C 0.3684(3) 0.41359(11) 0.50447(7)
H16 H 0.31720 0.45860 0.47720
N1 N 0.2028(3) 0.2435(1) 0.62294(6)
O4 O 0.2754(2) 0.19509(11) 0.66240(6)
O5 O 0.0315(2) 0.24931(11) 0.61510(6)
O6 O 0.64242(15) 0.61452(7) 0.23075(4)
O7 O 0.38523(16) 0.54584(8) 0.18905(5)
C15 C 0.5554(2) 0.55377(10) 0.19297(6)
C16 C 0.6950(2) 0.49778(9) 0.15623(5)
C17 C 0.6245(2) 0.43878(10) 0.11077(6)
H17 H 0.49270 0.43650 0.10350
C18 C 0.7471(2) 0.38366(9) 0.07636(6)
H18 H 0.70050 0.34230 0.04620
C19 C 0.9392(2) 0.39087(9) 0.08741(6)
C20 C 1.0146(2) 0.44983(9) 0.13154(6)
H19 H 1.14690 0.45350 0.13770
C21 C 0.8897(2) 0.50314(9) 0.16622(6)
H20 H 0.93690 0.54330 0.19680
N2 N 1.07179(19) 0.33468(9) 0.04991(5)
O8 O 1.00798(18) 0.26396(8) 0.02288(5)
O9 O 1.23777(17) 0.36132(8) 0.04737(5)
#END
