
#######################################################################
#
#                 Cambridge Crystallographic Data Centre
#                                CCDC
#
#######################################################################
#
# If this CIF has been generated from an entry in the Cambridge
# Structural Database, then it will include bibliographic, chemical,
# crystal, experimental, refinement or atomic coordinate data resulting
# from the CCDC's data processing and validation procedures.
#
#######################################################################

data_CSD_CIF_XINJEJ
_audit_creation_date 2002-06-19
_audit_creation_method CSD-ConQuest-V1
_database_code_CSD XINJEJ
_database_code_depnum_ccdc_archive 'CCDC 185638'
_chemical_formula_sum 'C20 H19 N1 O6'
_chemical_formula_moiety
;
C20 H19 N1 O6
;
_journal_coden_Cambridge 95
_journal_year 2001
_journal_page_first 1548
_journal_name_full 'Izv.Akad.Nauk SSSR,Ser.Khim.(Russ.)(Russ.Chem.Bull.) '
loop_
_publ_author_name
"R.V.Linko"
"V.K.Belsky"
"A.V.Varlamov"
"B.E.Zaitsev"
"A.I.Chernyshev"
_chemical_name_systematic
;
2-Nitro-9,10-dihydroxy-9,10-bis(2-oxypropyl)-9,10-dihydrophenanthrene 
9,10'':10,9''-bis(hemiketal)
;
_chemical_melting_point 454.15
_cell_volume   3535.414
_exptl_crystal_colour 'yellow'
_exptl_crystal_density_diffrn 1.388
_exptl_special_details
;
Melting point range 454.15-455.15K

;
_exptl_crystal_description 'prism'
_diffrn_ambient_temperature 293
#These two values have been output from a single CSD field.
_refine_ls_R_factor_gt 0.0677
_refine_ls_wR_factor_gt 0.0677
_symmetry_cell_setting monoclinic
_symmetry_space_group_name_H-M 'C 2/c'
_symmetry_Int_Tables_number 15
loop_
_symmetry_equiv_pos_site_id
_symmetry_equiv_pos_as_xyz
1 x,y,z
2 1/2+x,1/2+y,z
3 x,-y,1/2+z
4 1/2+x,1/2-y,1/2+z
5 -x,-y,-z
6 -1/2-x,-1/2-y,-z
7 -x,y,-1/2-z
8 -1/2-x,-1/2+y,-1/2-z
_cell_length_a 27.284(5)
_cell_length_b 9.488(2)
_cell_length_c 14.229(3)
_cell_angle_alpha 90
_cell_angle_beta 106.30(3)
_cell_angle_gamma 90
_cell_formula_units_Z 8
loop_
_atom_type_symbol
_atom_type_radius_bond
C 0.68
H 0.23
N 0.68
O 0.68
loop_
_atom_site_label
_atom_site_type_symbol
_atom_site_fract_x
_atom_site_fract_y
_atom_site_fract_z
O1 O 0.4783(2) 0.3754(6) 0.4596(5)
O2 O 0.4520(2) 0.3612(6) 0.2608(4)
O3 O 0.2185(3) 0.5195(9) 0.3755(6)
O4 O 0.1603(3) 0.3728(9) 0.3865(6)
O5 O 0.3900(2) 0.3521(5) 0.4133(4)
O6 O 0.4403(2) 0.1349(6) 0.3113(4)
N1 N 0.2030(3) 0.3986(10) 0.3765(6)
C1 C 0.3174(3) 0.1989(9) 0.3626(6)
C2 C 0.2841(3) 0.3068(11) 0.3627(6)
C3 C 0.2362(3) 0.281(1) 0.3758(6)
C4 C 0.2209(3) 0.1427(13) 0.3833(7)
C5 C 0.2532(3) 0.0366(11) 0.3833(7)
C6 C 0.3025(3) 0.0584(9) 0.3715(6)
C7 C 0.3381(3) -0.0597(9) 0.3703(6)
C8 C 0.3231(4) -0.1981(10) 0.3690(7)
C9 C 0.3558(5) -0.3076(11) 0.3641(9)
C10 C 0.4039(4) -0.2794(10) 0.3565(8)
C11 C 0.4195(3) -0.1407(10) 0.3583(7)
C12 C 0.3872(3) -0.0311(8) 0.3657(5)
C13 C 0.4084(3) 0.1182(8) 0.3758(6)
C14 C 0.3687(3) 0.2355(8) 0.3493(6)
C15 C 0.4390(4) 0.1536(9) 0.4807(7)
C16 C 0.4371(3) 0.3139(10) 0.4855(6)
C17 C 0.4359(5) 0.3668(15) 0.5834(8)
C18 C 0.3668(3) 0.2702(10) 0.2450(7)
C19 C 0.4209(3) 0.2391(9) 0.2386(6)
C20 C 0.4234(5) 0.1829(16) 0.1411(8)
H1? H 0.50000 0.50000 0.50000
H2 H 0.459(3) 0.364(8) 0.338(7)
H3 H 0.290(3) 0.401(10) 0.363(6)
H4 H 0.185(4) 0.149(10) 0.405(7)
H5 H 0.245(4) -0.074(11) 0.394(7)
H6 H 0.289(3) -0.212(7) 0.383(5)
H7 H 0.344(4) -0.415(11) 0.358(7)
H8 H 0.460(3) -0.105(7) 0.361(5)
H9 H 0.420(3) 0.138(8) 0.522(6)
H10 H 0.470(3) 0.107(7) 0.512(5)
H11 H 0.404(4) 0.33(1) 0.607(7)
H12 H 0.474(5) 0.344(11) 0.631(8)
H13 H 0.433(2) 0.459(8) 0.577(5)
H14 H 0.359(2) 0.375(7) 0.237(5)
H15 H 0.344(3) 0.194(7) 0.209(5)
H16 H 0.404(3) 0.090(8) 0.120(5)
H17 H 0.402(5) 0.271(14) 0.081(10)
H18 H 0.456(3) 0.169(7) 0.135(5)
#END
