
#######################################################################
#
#                 Cambridge Crystallographic Data Centre
#                                CCDC
#
#######################################################################
#
# If this CIF has been generated from an entry in the Cambridge
# Structural Database, then it will include bibliographic, chemical,
# crystal, experimental, refinement or atomic coordinate data resulting
# from the CCDC's data processing and validation procedures.
#
#######################################################################

data_CSD_CIF_XIQKEQ
_audit_creation_date 2018-09-11
_audit_creation_method CSD-ConQuest-V1
_database_code_CSD XIQKEQ
_database_code_depnum_ccdc_archive 'CCDC 1859818'
_chemical_formula_sum 'C16 H16 N2 O6'
_chemical_formula_moiety
;
C16 H16 N2 O6
;
_journal_coden_Cambridge 4
_journal_volume 140
_journal_year 2018
_journal_page_first 11608
_journal_name_full 'J.Am.Chem.Soc. '
loop_
_publ_author_name
"Pingluan Wang"
"Yang Gao"
"D.Ma"
_chemical_name_systematic
;
1-methoxy-4'-nitro-8'H-spiro[indole-3,2'-[7]oxabicyclo[3.2.2]nonane]-2,8'(1H)-
dione
;
_cell_volume    736.178
_exptl_crystal_colour 'colorless'
_exptl_crystal_density_diffrn 1.499
_exptl_special_details
;
Absolute configuration

;
_exptl_crystal_description 'block'
_diffrn_ambient_temperature 130
#These two values have been output from a single CSD field.
_refine_ls_R_factor_gt 0.0499
_refine_ls_wR_factor_gt 0.0499
_symmetry_cell_setting monoclinic
_symmetry_space_group_name_H-M 'P 21'
_symmetry_Int_Tables_number 4
loop_
_symmetry_equiv_pos_site_id
_symmetry_equiv_pos_as_xyz
1 x,y,z
2 -x,1/2+y,-z
_cell_length_a 7.2309(7)
_cell_length_b 7.2718(7)
_cell_length_c 14.0359(14)
_cell_angle_alpha 90
_cell_angle_beta 94.061(2)
_cell_angle_gamma 90
_cell_formula_units_Z 2
loop_
_atom_type_symbol
_atom_type_radius_bond
C 0.68
H 0.23
N 0.68
O 0.68
loop_
_atom_site_label
_atom_site_type_symbol
_atom_site_fract_x
_atom_site_fract_y
_atom_site_fract_z
O1 O -0.1341(3) -0.3750(3) 0.21135(15)
O2 O -0.0593(3) -0.1155(3) 0.35892(14)
O3 O 0.1998(3) 0.3644(3) 0.22879(14)
O4 O -0.2512(3) 0.2343(3) 0.26344(15)
O5 O 0.3992(4) 0.1532(6) 0.57410(19)
O6 O 0.5688(4) 0.2043(8) 0.4662(2)
N1 N -0.0243(3) -0.2207(3) 0.20686(17)
N2 N 0.4225(3) 0.1648(4) 0.49162(18)
C1 C 0.0117(3) -0.1066(4) 0.28322(18)
C2 C 0.1573(3) 0.0320(4) 0.25340(18)
C3 C 0.2176(4) -0.0520(4) 0.16203(19)
C4 C 0.3524(4) 0.0021(4) 0.1030(2)
H1 H 0.43120 0.10370 0.11900
C5 C 0.3693(4) -0.0977(5) 0.0186(2)
H2 H 0.46140 -0.06370 -0.02310
C6 C 0.2544(4) -0.2442(5) -0.0048(2)
H3 H 0.26970 -0.30930 -0.06240
C7 C 0.1158(4) -0.3005(5) 0.0536(2)
H4 H 0.03640 -0.40150 0.03750
C8 C 0.1021(4) -0.1993(4) 0.13609(19)
C9 C -0.3260(4) -0.3242(5) 0.1962(2)
H5 H -0.34980 -0.27670 0.13110
H6 H -0.35490 -0.22880 0.24220
H7 H -0.40400 -0.43220 0.20490
C10 C 0.0652(3) 0.2231(4) 0.22834(18)
H8 H 0.00880 0.21370 0.16140
C11 C -0.0922(4) 0.2660(4) 0.29141(19)
C12 C -0.0327(4) 0.3473(5) 0.38682(19)
H9 H -0.08780 0.27590 0.43780
H10 H -0.07840 0.47540 0.38980
C13 C 0.1792(4) 0.3456(4) 0.4036(2)
H11 H 0.21300 0.41950 0.46230
C14 C 0.2557(3) 0.1498(4) 0.42054(19)
H12 H 0.15890 0.07430 0.44980
C15 C 0.3154(4) 0.0494(4) 0.33212(19)
H13 H 0.35990 -0.07510 0.35080
H14 H 0.42000 0.11660 0.30640
C16 C 0.2632(4) 0.4401(4) 0.3200(2)
H15 H 0.23170 0.57260 0.32090
H16 H 0.39990 0.42930 0.32810
#END
