
#######################################################################
#
#                 Cambridge Crystallographic Data Centre
#                                CCDC
#
#######################################################################
#
# If this CIF has been generated from an entry in the Cambridge
# Structural Database, then it will include bibliographic, chemical,
# crystal, experimental, refinement or atomic coordinate data resulting
# from the CCDC's data processing and validation procedures.
#
#######################################################################

data_CSD_CIF_XIQKAM
_audit_creation_date 2018-09-11
_audit_creation_method CSD-ConQuest-V1
_database_code_CSD XIQKAM
_database_code_depnum_ccdc_archive 'CCDC 1859817'
_chemical_formula_sum 'C26 H36 N2 O7'
_chemical_formula_moiety
;
C26 H36 N2 O7
;
_journal_coden_Cambridge 4
_journal_volume 140
_journal_year 2018
_journal_page_first 11608
_journal_name_full 'J.Am.Chem.Soc. '
loop_
_publ_author_name
"Pingluan Wang"
"Yang Gao"
"D.Ma"
_chemical_name_systematic
;
1'-hydroxy-1-methoxy-8'-{[5-methyl-2-isopropylcyclohexyl]oxy}-4'-nitrospiro[in
dole-3,2'-[7]oxabicyclo[3.3.1]nonan]-2(1H)-one
;
_cell_volume   2588.464
_exptl_crystal_colour 'colorless'
_exptl_crystal_density_diffrn 1.254
_exptl_special_details
;
Absolute configuration

;
_exptl_crystal_description 'block'
_diffrn_ambient_temperature 296.1
#These two values have been output from a single CSD field.
_refine_ls_R_factor_gt 0.0467
_refine_ls_wR_factor_gt 0.0467
_symmetry_cell_setting orthorhombic
_symmetry_space_group_name_H-M 'P 21 21 21'
_symmetry_Int_Tables_number 19
loop_
_symmetry_equiv_pos_site_id
_symmetry_equiv_pos_as_xyz
1 x,y,z
2 1/2+x,1/2-y,-z
3 -x,1/2+y,1/2-z
4 1/2-x,-y,1/2+z
_cell_length_a 9.6495(9)
_cell_length_b 11.9317(11)
_cell_length_c 22.482(2)
_cell_angle_alpha 90
_cell_angle_beta 90
_cell_angle_gamma 90
_cell_formula_units_Z 4
loop_
_atom_type_symbol
_atom_type_radius_bond
C 0.68
H 0.23
N 0.68
O 0.68
loop_
_atom_site_label
_atom_site_type_symbol
_atom_site_fract_x
_atom_site_fract_y
_atom_site_fract_z
O1 O 1.0596(2) 0.54553(15) 0.20124(9)
O2 O 1.09838(17) 0.79784(13) 0.13981(9)
H1 H 1.12140 0.86300 0.14600
O3 O 0.93086(17) 0.97572(11) 0.15009(7)
O4 O 0.73047(17) 0.86396(13) 0.15108(8)
O5 O 0.5250(3) 0.6311(4) 0.21733(16)
O6 O 0.6169(4) 0.5665(3) 0.29418(16)
O7 O 1.1989(2) 0.47109(17) 0.09907(12)
N1 N 1.0975(2) 0.55186(17) 0.10118(12)
N2 N 0.6246(4) 0.6110(3) 0.24738(14)
C1 C 1.0317(3) 0.5899(2) 0.04982(12)
C2 C 1.0612(4) 0.5659(3) -0.00861(15)
H2 H 1.13640 0.52120 -0.01910
C3 C 0.9743(4) 0.6111(3) -0.05093(14)
H3 H 0.99260 0.59790 -0.09090
C4 C 0.8623(4) 0.6746(3) -0.03587(13)
H4 H 0.80460 0.70310 -0.06540
C5 C 0.8342(3) 0.6969(2) 0.02377(12)
H5 H 0.75700 0.73920 0.03430
C6 C 0.9211(3) 0.65621(18) 0.06686(11)
C7 C 0.9164(3) 0.66358(17) 0.13427(10)
C8 C 1.0313(3) 0.58036(19) 0.15243(13)
C9 C 1.3283(4) 0.5210(4) 0.1157(2)
H6 H 1.35120 0.57950 0.08800
H7 H 1.39970 0.46500 0.11520
H8 H 1.32070 0.55210 0.15490
C10 C 0.7766(3) 0.6255(2) 0.15904(11)
H9 H 0.70300 0.66610 0.13900
H10 H 0.76420 0.54640 0.15090
C11 C 0.7655(3) 0.6452(2) 0.22549(12)
H11 H 0.83380 0.59690 0.24500
C12 C 0.7978(3) 0.7669(2) 0.24329(11)
H12 H 0.78950 0.77390 0.28660
C13 C 0.9487(3) 0.78606(19) 0.22577(10)
H13 H 0.97970 0.85850 0.24020
H14 H 1.00690 0.72870 0.24340
C14 C 0.9602(2) 0.78178(17) 0.15868(10)
C15 C 0.8688(3) 0.87467(17) 0.13274(10)
H15 H 0.87200 0.86960 0.08930
C16 C 0.7108(3) 0.8574(2) 0.21422(12)
H16 H 0.61380 0.84290 0.22240
H17 H 0.73420 0.92920 0.23180
C17 C 0.8854(3) 1.07398(17) 0.11768(10)
H18 H 0.84560 1.04980 0.07970
C18 C 1.0104(3) 1.14715(18) 0.10516(11)
H19 H 1.04800 1.16970 0.14390
C19 C 0.9611(3) 1.25458(19) 0.07420(13)
H20 H 1.03990 1.30350 0.06770
H21 H 0.92240 1.23560 0.03570
C20 C 0.8531(3) 1.31621(19) 0.11045(14)
H22 H 0.89420 1.34090 0.14760
H23 H 0.82310 1.38220 0.08880
C21 C 0.7287(3) 1.2432(2) 0.12373(15)
H24 H 0.68400 1.22460 0.08590
C22 C 0.7748(3) 1.13439(19) 0.15282(13)
H25 H 0.81010 1.15060 0.19230
H26 H 0.69510 1.08550 0.15720
C23 C 0.6244(4) 1.3044(3) 0.1617(2)
H27 H 0.54410 1.25800 0.16730
H28 H 0.59780 1.37280 0.14240
H29 H 0.66490 1.32120 0.19970
C24 C 1.1280(3) 1.0882(2) 0.07168(13)
H30 H 1.15350 1.02250 0.09550
C25 C 1.2564(4) 1.1606(3) 0.06758(18)
H31 H 1.32950 1.11910 0.04880
H32 H 1.28500 1.18230 0.10680
H33 H 1.23620 1.22640 0.04460
C26 C 1.0868(5) 1.0447(3) 0.01058(15)
H34 H 1.05620 1.10610 -0.01370
H35 H 1.01300 0.99130 0.01470
H36 H 1.16510 1.00920 -0.00780
#END
