
#######################################################################
#
#                 Cambridge Crystallographic Data Centre
#                                CCDC
#
#######################################################################
#
# If this CIF has been generated from an entry in the Cambridge
# Structural Database, then it will include bibliographic, chemical,
# crystal, experimental, refinement or atomic coordinate data resulting
# from the CCDC's data processing and validation procedures.
#
#######################################################################

data_CSD_CIF_XIQQOG
_audit_creation_date 2018-09-11
_audit_creation_method CSD-ConQuest-V1
_database_code_CSD XIQQOG
_database_code_depnum_ccdc_archive 'CCDC 1824570'
_chemical_formula_sum 'C26 H17 N3 O2'
_chemical_formula_moiety
;
C26 H17 N3 O2
;
_journal_coden_Cambridge 440
_journal_volume 42
_journal_year 2018
_journal_page_first 16036
_journal_name_full 'New J.Chem. '
loop_
_publ_author_name
"I.Idris"
"F.Derridj"
"T.Roisnel"
"H.Doucet"
"J.-F.Soule"
_chemical_name_systematic
;
2-(3'-nitro[1,1'-biphenyl]-2-yl)-3-phenylquinoxaline
;
_cell_volume   1975.367
_exptl_crystal_colour 'colorless'
_exptl_crystal_density_diffrn 1.357
_exptl_crystal_description 'prism'
_diffrn_ambient_temperature 150
#These two values have been output from a single CSD field.
_refine_ls_R_factor_gt 0.0413
_refine_ls_wR_factor_gt 0.0413
_chemical_compound_source
;
synthesis as described
;
_symmetry_cell_setting monoclinic
_symmetry_space_group_name_H-M 'P 21/c'
_symmetry_Int_Tables_number 14
loop_
_symmetry_equiv_pos_site_id
_symmetry_equiv_pos_as_xyz
1 x,y,z
2 -x,1/2+y,1/2-z
3 -x,-y,-z
4 x,-1/2-y,-1/2+z
_cell_length_a 9.3417(7)
_cell_length_b 9.4841(9)
_cell_length_c 22.2977(18)
_cell_angle_alpha 90
_cell_angle_beta 90.720(3)
_cell_angle_gamma 90
_cell_formula_units_Z 4
loop_
_atom_type_symbol
_atom_type_radius_bond
C 0.68
H 0.23
N 0.68
O 0.68
loop_
_atom_site_label
_atom_site_type_symbol
_atom_site_fract_x
_atom_site_fract_y
_atom_site_fract_z
C1 C 0.52175(14) 0.65075(14) 0.41182(6)
H1 H 0.44142 0.61016 0.43102
C2 C 0.51148(16) 0.78509(15) 0.38757(6)
H2 H 0.42414 0.83593 0.39008
C3 C 0.62842(17) 0.84547(15) 0.35964(6)
H3 H 0.62157 0.93810 0.34364
C4 C 0.75517(15) 0.77052(15) 0.35510(6)
H4 H 0.83445 0.81089 0.33508
C5 C 0.76642(14) 0.63648(14) 0.37977(6)
H5 H 0.85422 0.58639 0.37731
C6 C 0.64954(13) 0.57465(13) 0.40821(5)
C7 C 0.66588(12) 0.43192(13) 0.43497(5)
N1 N 0.78608(11) 0.40855(12) 0.46532(5)
C8 C 0.80304(13) 0.27925(14) 0.49162(5)
C9 C 0.92777(14) 0.25280(16) 0.52686(6)
H6 H 0.99953 0.32314 0.53126
C10 C 0.94335(15) 0.12449(17) 0.55446(6)
H7 H 1.02657 0.10630 0.57814
C11 C 0.83785(15) 0.01915(16) 0.54826(6)
H8 H 0.85079 -0.06869 0.56807
C12 C 0.71679(14) 0.04123(15) 0.51411(6)
H9 H 0.64703 -0.03104 0.50967
C13 C 0.69731(13) 0.17347(14) 0.48556(5)
N2 N 0.57444(11) 0.19744(11) 0.45283(5)
C14 C 0.55868(12) 0.32303(13) 0.42827(5)
C15 C 0.42271(13) 0.34749(13) 0.39369(5)
C16 C 0.29405(13) 0.33974(14) 0.42461(6)
H10 H 0.29478 0.31139 0.46547
C17 C 0.16478(14) 0.37293(16) 0.39642(7)
H11 H 0.07800 0.36913 0.41813
C18 C 0.16331(14) 0.41153(15) 0.33657(6)
H12 H 0.07542 0.43497 0.31712
C19 C 0.29048(13) 0.41602(14) 0.30488(6)
H13 H 0.28823 0.44069 0.26359
C20 C 0.42146(13) 0.38489(13) 0.33271(5)
C21 C 0.55489(13) 0.39273(13) 0.29698(5)
C22 C 0.57813(14) 0.50645(14) 0.25818(6)
H14 H 0.50860 0.57932 0.25536
C23 C 0.70060(15) 0.51481(15) 0.22378(6)
H15 H 0.71369 0.59272 0.19764
C24 C 0.80402(14) 0.41013(15) 0.22735(6)
H16 H 0.88784 0.41426 0.20373
C25 C 0.78088(13) 0.29931(13) 0.26654(6)
C26 C 0.65927(13) 0.28787(13) 0.30133(5)
H17 H 0.64731 0.21005 0.32762
N3 N 0.89051(12) 0.18844(12) 0.27220(6)
O1 O 0.99079(12) 0.19049(13) 0.23755(6)
O2 O 0.87630(12) 0.09830(12) 0.31116(6)
#END
