
#######################################################################
#
#                 Cambridge Crystallographic Data Centre
#                                CCDC
#
#######################################################################
#
# If this CIF has been generated from an entry in the Cambridge
# Structural Database, then it will include bibliographic, chemical,
# crystal, experimental, refinement or atomic coordinate data resulting
# from the CCDC's data processing and validation procedures.
#
#######################################################################

data_CSD_CIF_XIRTIC
_audit_creation_date 2008-02-21
_audit_creation_method CSD-ConQuest-V1
_database_code_CSD XIRTIC
_database_code_depnum_ccdc_archive 'CCDC 674836'
_chemical_formula_sum 'C25 H24 N2 O4'
_chemical_formula_moiety
;
C25 H24 N2 O4
;
_journal_coden_Cambridge 122
_journal_year 2006
_journal_page_first 995
_journal_name_full 'Khim.Get.Soedin.,SSSR(Russ.)(Chem.Heterocycl.Compd.) '
loop_
_publ_author_name
"B.S.Luk'yanov"
"A.N.Utenyshev"
"E.N.Shepelenko"
"V.V.Tkachev"
"M.B.Luk'yanova"
"A.V.Metelitsa"
"S.O.Bezuglyi"
"S.M.Aldoshin"
"V.I.Minkin"
_chemical_name_systematic
;
5-Nitro-1',3',3'-trimethyl-1',3',8,9,10,11-hexahydro-spiro(1-benzofuro(3,2-f)c
hromene-3,2'-indole)
;
_chemical_melting_point 412.15
_cell_volume   1041.395
_exptl_crystal_density_diffrn 1.328
_exptl_special_details
;
Melting point range 412.15-413.15K
luminescent; photochromic
light-sensitive

;
_exptl_crystal_preparation 'ethanol'
_diffrn_ambient_temperature 295
_refine_special_details
;
A cyclohexane ring is disordered over two sites with occupancies 0.539:0.461.

;
#These two values have been output from a single CSD field.
_refine_ls_R_factor_gt 0.0697
_refine_ls_wR_factor_gt 0.0697
_symmetry_cell_setting triclinic
_symmetry_space_group_name_H-M 'P -1'
_symmetry_Int_Tables_number 2
loop_
_symmetry_equiv_pos_site_id
_symmetry_equiv_pos_as_xyz
1 x,y,z
2 -x,-y,-z
_cell_length_a 6.970(1)
_cell_length_b 11.063(2)
_cell_length_c 14.153(3)
_cell_angle_alpha 75.89(3)
_cell_angle_beta 89.41(3)
_cell_angle_gamma 79.90(3)
_cell_formula_units_Z 2
loop_
_atom_type_symbol
_atom_type_radius_bond
C 0.68
H 0.23
N 0.68
O 0.68
loop_
_atom_site_label
_atom_site_type_symbol
_atom_site_fract_x
_atom_site_fract_y
_atom_site_fract_z
O1 O 0.5904(3) 0.0227(2) 0.70690(16)
O2 O 0.3560(3) 0.3124(2) 0.34200(15)
C1 C 0.2745(5) 0.1244(3) 0.6964(2)
C2 C 0.4194(5) 0.0455(3) 0.7544(2)
C3 C 0.6737(5) 0.0915(3) 0.5380(2)
C4 C 0.6039(4) 0.1665(3) 0.4459(2)
C5 C 0.0436(5) 0.3912(4) 0.4055(3)
C6 C 0.0938(5) 0.3090(4) 0.4897(2)
C7 C 0.2882(4) 0.2338(3) 0.5100(2)
C8 C 0.3570(5) 0.1575(3) 0.6018(2)
C9 C 0.5491(5) 0.0909(3) 0.6123(2)
C10 C 0.4142(5) 0.2397(3) 0.4319(2)
N1 N 0.2475(4) 0.5339(3) 0.31694(19)
C11 C 0.1836(5) 0.4146(3) 0.3248(2)
C12 C 0.1053(5) 0.4248(3) 0.2194(2)
C13 C 0.2463(6) 0.5496(4) 0.0608(3)
C14 C 0.3536(7) 0.6444(5) 0.0230(3)
C15 C 0.4316(7) 0.7030(4) 0.0818(4)
C16 C 0.4080(6) 0.6722(4) 0.1825(3)
C17 C 0.2995(5) 0.5800(3) 0.2200(2)
C18 C 0.2206(5) 0.5185(3) 0.1597(2)
C19 C -0.1136(5) 0.4867(4) 0.2082(3)
C20 C 0.1311(6) 0.2997(4) 0.1912(3)
C21 C 0.3630(7) 0.5507(4) 0.3955(3)
C22 C 0.0723(6) 0.1554(4) 0.7324(2)
H1 H -0.01030 0.10180 0.71470
H2 H 0.01600 0.24300 0.70290
C23 C 0.0859(17) 0.1328(10) 0.8462(5)
H3 H -0.04360 0.14380 0.87220
H4 H 0.15640 0.19270 0.86390
C24 C 0.1965(10) -0.0064(11) 0.8884(7)
H5 H 0.18950 -0.02840 0.95890
H6 H 0.13470 -0.06470 0.86330
C25 C 0.4131(6) -0.0186(4) 0.8595(2)
H7 H 0.48470 0.02070 0.89840
H8 H 0.47260 -0.10720 0.87080
C26? C 0.0723(6) 0.1554(4) 0.7324(2)
H9? H -0.02360 0.15380 0.68380
H10? H 0.05120 0.23960 0.74390
C27? C 0.0493(13) 0.0558(10) 0.8290(6)
H11? H -0.07330 0.08090 0.85790
H12? H 0.04980 -0.02630 0.81580
C28? C 0.2249(13) 0.0477(14) 0.9011(8)
H13? H 0.20220 -0.00110 0.96580
H14? H 0.23950 0.13190 0.90530
C29? C 0.4131(6) -0.0186(4) 0.8595(2)
H15? H 0.52830 -0.01170 0.89420
H16? H 0.40930 -0.10770 0.86720
O3 O 0.8997(4) 0.0987(3) 0.3848(2)
O4 O 0.6792(4) 0.2116(3) 0.28282(18)
N2 N 0.7357(4) 0.1603(3) 0.3655(2)
H17 H -0.08260 0.44210 0.39820
H18 H -0.00280 0.29740 0.53860
H19 H 0.46800 0.71540 0.22320
H20 H 0.50300 0.77010 0.05420
H21 H 0.37500 0.66820 -0.04600
H22 H 0.18900 0.50670 0.02040
H23 H 0.80540 0.04410 0.54750
H24 H 0.39680 0.63350 0.37970
H25 H 0.28990 0.53880 0.45300
H26 H 0.48180 0.48810 0.40550
H27 H 0.08070 0.31210 0.12590
H28 H 0.27040 0.26590 0.19270
H29 H 0.06910 0.23920 0.23500
H30 H -0.13080 0.56460 0.22770
H31 H -0.15160 0.50110 0.14150
H32 H -0.18770 0.42980 0.24850
#END
