
#######################################################################
#
#                 Cambridge Crystallographic Data Centre
#                                CCDC
#
#######################################################################
#
# If this CIF has been generated from an entry in the Cambridge
# Structural Database, then it will include bibliographic, chemical,
# crystal, experimental, refinement or atomic coordinate data resulting
# from the CCDC's data processing and validation procedures.
#
#######################################################################

data_CSD_CIF_XISLAN
_audit_creation_date 2008-02-21
_audit_creation_method CSD-ConQuest-V1
_database_code_CSD XISLAN
_database_code_depnum_ccdc_archive 'CCDC 674552'
_chemical_formula_sum 'C15 H15 N1 O3'
_chemical_formula_moiety
;
C15 H15 N1 O3
;
_journal_coeditor_code "IUCr AV2005"
_journal_coden_Cambridge 1370
_journal_volume 64
_journal_year 2008
_journal_page_first o251
_journal_name_full 'Acta Crystallogr.,Sect.E:Struct.Rep.Online '
loop_
_publ_author_name
"A.M.Graisa"
"Y.Farina"
"M.Kassim"
"Mohd.R.Rizal"
"S.W.Ng"
_chemical_name_systematic
;
3-Methoxy-N-p-tolylbenzohydroxamic acid
;
_cell_volume   1343.522
_exptl_crystal_colour 'colorless'
_exptl_crystal_density_diffrn 1.272
_exptl_crystal_description 'Irregular block'
_diffrn_ambient_temperature 293
#These two values have been output from a single CSD field.
_refine_ls_R_factor_gt 0.0437
_refine_ls_wR_factor_gt 0.0437
_symmetry_cell_setting monoclinic
_symmetry_space_group_name_H-M 'P 21/c'
_symmetry_Int_Tables_number 14
loop_
_symmetry_equiv_pos_site_id
_symmetry_equiv_pos_as_xyz
1 x,y,z
2 -x,1/2+y,1/2-z
3 -x,-y,-z
4 x,-1/2-y,-1/2+z
_cell_length_a 11.332(1)
_cell_length_b 7.939(1)
_cell_length_c 15.567(2)
_cell_angle_alpha 90
_cell_angle_beta 106.397(2)
_cell_angle_gamma 90
_cell_formula_units_Z 4
loop_
_atom_type_symbol
_atom_type_radius_bond
C 0.68
H 0.23
N 0.68
O 0.68
loop_
_atom_site_label
_atom_site_type_symbol
_atom_site_fract_x
_atom_site_fract_y
_atom_site_fract_z
O1 O 0.50151(12) 0.30374(18) 0.40770(9)
H1 H 0.494(2) 0.390(2) 0.4393(15)
O2 O 0.62368(12) 0.42304(16) 0.56320(8)
O3 O 0.94373(12) 0.18762(18) 0.82493(8)
N1 N 0.60896(13) 0.22480(18) 0.45952(9)
C1 C 0.62980(15) 0.0686(2) 0.42159(11)
C2 C 0.63120(16) 0.0638(2) 0.33340(12)
H2 H 0.61860 0.16180 0.29930
C3 C 0.65135(16) -0.0866(3) 0.29608(13)
H3 H 0.65240 -0.08900 0.23660
C4 C 0.67003(16) -0.2340(2) 0.34493(15)
C5 C 0.66643(17) -0.2264(2) 0.43301(15)
H4 H 0.67880 -0.32450 0.46700
C6 C 0.64499(16) -0.0772(2) 0.47175(13)
H5 H 0.64090 -0.07510 0.53060
C7 C 0.6942(2) -0.3978(3) 0.30416(18)
H6 H 0.63330 -0.47910 0.30820
H7 H 0.77440 -0.43870 0.33590
H8 H 0.69040 -0.38020 0.24240
C8 C 0.66747(16) 0.2968(2) 0.53701(11)
C9 C 0.78932(15) 0.2288(2) 0.58918(11)
C10 C 0.88037(16) 0.1831(2) 0.55018(13)
H9 H 0.86470 0.18390 0.48820
C11 C 0.99379(17) 0.1367(3) 0.60382(14)
H10 H 1.05480 0.10600 0.57750
C12 C 1.01962(17) 0.1344(3) 0.69602(14)
H11 H 1.09680 0.10150 0.73140
C13 C 0.92907(17) 0.1818(2) 0.73517(12)
C14 C 0.81453(16) 0.2289(2) 0.68151(12)
H12 H 0.75370 0.26100 0.70770
C15 C 1.0630(2) 0.1592(4) 0.88294(15)
H13 H 1.06060 0.16570 0.94400
H14 H 1.11840 0.24320 0.87250
H15 H 1.09110 0.04950 0.87170
#END
