
#######################################################################
#
#                 Cambridge Crystallographic Data Centre
#                                CCDC
#
#######################################################################
#
# If this CIF has been generated from an entry in the Cambridge
# Structural Database, then it will include bibliographic, chemical,
# crystal, experimental, refinement or atomic coordinate data resulting
# from the CCDC's data processing and validation procedures.
#
#######################################################################

data_CSD_CIF_XITMAP
_audit_creation_date 2008-06-10
_audit_creation_method CSD-ConQuest-V1
_database_code_CSD XITMAP
_database_code_depnum_ccdc_archive 'CCDC 621009'
_chemical_formula_sum 'C24 H24 N2 O7'
_chemical_formula_moiety
;
C24 H24 N2 O7
;
_journal_coden_Cambridge 1489
_journal_volume 474
_journal_year 2007
_journal_page_first 55
_journal_name_full 'Mol.Cryst.Liq.Cryst. '
loop_
_publ_author_name
"S.Naveen"
"S.M.Anandalwar"
"J.S.Prasad"
"R.Kakadiya"
"J.Bariwal"
"V.Virsodia"
"D.Karia"
"A.Shah"
_chemical_name_systematic
;
dimethyl 2,6-dimethyl-4-(2-nitrophenyl)-1,4-dihydropyridine-3,5-dicarboxylate
;
_chemical_melting_point 493.15
_cell_volume   2172.658
_exptl_crystal_density_diffrn 1.383
_exptl_special_details
;
flattened-boat conformer

;
_exptl_crystal_preparation 'dimethylformamide'
_diffrn_ambient_temperature 293
#These two values have been output from a single CSD field.
_refine_ls_R_factor_gt 0.0887
_refine_ls_wR_factor_gt 0.0887
_symmetry_cell_setting monoclinic
_symmetry_space_group_name_H-M 'P 21/n'
_symmetry_Int_Tables_number 14
loop_
_symmetry_equiv_pos_site_id
_symmetry_equiv_pos_as_xyz
1 x,y,z
2 1/2-x,1/2+y,1/2-z
3 -x,-y,-z
4 -1/2+x,-1/2-y,-1/2+z
_cell_length_a 10.314(9)
_cell_length_b 17.976(15)
_cell_length_c 12.762(11)
_cell_angle_alpha 90
_cell_angle_beta 113.331(3)
_cell_angle_gamma 90
_cell_formula_units_Z 4
loop_
_atom_type_symbol
_atom_type_radius_bond
C 0.68
H 0.23
N 0.68
O 0.68
loop_
_atom_site_label
_atom_site_type_symbol
_atom_site_fract_x
_atom_site_fract_y
_atom_site_fract_z
N1 N -0.0421(3) 0.0768(2) 0.2109(2)
C1 C 0.0080(3) 0.1057(2) 0.1322(2)
C2 C 0.1113(3) 0.0700(2) 0.1128(2)
C3 C 0.1820(3) 0.0002(2) 0.1778(2)
H1 H 0.19050 -0.03620 0.12370
C4 C 0.0945(3) -0.0340(2) 0.2380(2)
C5 C -0.0023(3) 0.0063(2) 0.2602(3)
C6 C -0.0742(4) -0.0185(2) 0.3357(3)
H2 H -0.05200 -0.06980 0.35620
H3 H -0.17450 -0.01310 0.29590
H4 H -0.04230 0.01140 0.40360
C7 C -0.0646(3) 0.1751(2) 0.0722(3)
H5 H -0.01910 0.19300 0.02440
H6 H -0.05930 0.21240 0.12750
H7 H -0.16180 0.16430 0.02610
C8 C -0.1338(3) 0.1227(2) 0.2461(3)
C9 C -0.0741(4) 0.1642(2) 0.3456(3)
C10 C -0.1581(4) 0.2087(2) 0.3813(4)
H8 H -0.11850 0.23550 0.44880
C11 C -0.3012(5) 0.2127(2) 0.3158(4)
H9 H -0.35740 0.24430 0.33770
C12 C -0.3620(4) 0.1702(2) 0.2176(3)
H10 H -0.45900 0.17150 0.17550
C13 C -0.2772(3) 0.1265(2) 0.1834(3)
H11 H -0.31730 0.09870 0.11670
O1 O 0.0688(2) 0.1564(2) 0.4035(2)
C14 C 0.1359(5) 0.1990(2) 0.5052(3)
H12 H 0.12240 0.25110 0.48720
H13 H 0.23510 0.18800 0.53780
H14 H 0.09540 0.18670 0.55890
C15 C 0.1697(4) 0.1001(2) 0.0334(3)
O2 O 0.1482(4) 0.1603(2) -0.0118(3)
O3 O 0.2557(3) 0.0529(2) 0.0147(2)
C16 C 0.3289(5) 0.0791(2) -0.0526(4)
H15 H 0.26230 0.09950 -0.12280
H16 H 0.37840 0.03850 -0.06900
H17 H 0.39510 0.11680 -0.01120
C17 C 0.1199(3) -0.1120(2) 0.2719(3)
O4 O 0.0671(3) -0.1483(2) 0.3247(3)
O5 O 0.2109(3) -0.1440(2) 0.2351(2)
C18 C 0.2327(5) -0.2229(2) 0.2552(5)
H18 H 0.26850 -0.23240 0.33580
H19 H 0.29950 -0.24020 0.22550
H20 H 0.14470 -0.24850 0.21780
C19 C 0.3307(3) 0.0190(2) 0.2664(2)
C20 C 0.3458(4) 0.0800(2) 0.3371(3)
H21 H 0.26620 0.10800 0.32780
C21 C 0.4742(4) 0.1008(2) 0.4208(3)
H22 H 0.47980 0.14270 0.46520
C22 C 0.5933(4) 0.0599(3) 0.4385(3)
H23 H 0.68000 0.07420 0.49400
C23 C 0.5835(4) -0.0020(3) 0.3738(3)
H24 H 0.66290 -0.03120 0.38730
C24 C 0.4548(3) -0.0214(2) 0.2877(3)
N2 N 0.4575(3) -0.0878(2) 0.2207(3)
O6 O 0.5279(3) -0.1415(2) 0.2742(3)
O7 O 0.3944(3) -0.0877(2) 0.1177(2)
#END
