
#######################################################################
#
#                 Cambridge Crystallographic Data Centre
#                                CCDC
#
#######################################################################
#
# If this CIF has been generated from an entry in the Cambridge
# Structural Database, then it will include bibliographic, chemical,
# crystal, experimental, refinement or atomic coordinate data resulting
# from the CCDC's data processing and validation procedures.
#
#######################################################################

data_CSD_CIF_XITSOJ
_audit_creation_date 2008-06-10
_audit_creation_method CSD-ConQuest-V1
_database_code_CSD XITSOJ
_database_code_depnum_ccdc_archive 'CCDC 643399'
_chemical_formula_sum 'C17 H18 N6 O4'
_chemical_formula_moiety
;
C17 H18 N6 O4
;
_journal_coden_Cambridge 35
_journal_volume 72
_journal_year 2007
_journal_page_first 9407
_journal_name_full 'J.Org.Chem. '
loop_
_publ_author_name
"D.M.Khramov"
"C.W.Bielawski"
_chemical_name_systematic
;
1-(4-Nitrophenyl)-3-(1,3-dimethyl-5,6-dimethoxybenzimidazol-2-ylidene)triazene
;
_cell_volume   1710.980
_exptl_crystal_colour 'dark orange'
_exptl_crystal_density_diffrn 1.438
_exptl_crystal_description 'plates'
_exptl_crystal_preparation 'chloroform'
_diffrn_ambient_temperature 153
#These two values have been output from a single CSD field.
_refine_ls_R_factor_gt 0.0527
_refine_ls_wR_factor_gt 0.0527
_symmetry_cell_setting monoclinic
_symmetry_space_group_name_H-M 'P 21/c'
_symmetry_Int_Tables_number 14
loop_
_symmetry_equiv_pos_site_id
_symmetry_equiv_pos_as_xyz
1 x,y,z
2 -x,1/2+y,1/2-z
3 -x,-y,-z
4 x,-1/2-y,-1/2+z
_cell_length_a 8.9005(4)
_cell_length_b 7.5544(3)
_cell_length_c 25.4468(12)
_cell_angle_alpha 90
_cell_angle_beta 90.197(2)
_cell_angle_gamma 90
_cell_formula_units_Z 4
loop_
_atom_type_symbol
_atom_type_radius_bond
C 0.68
H 0.23
N 0.68
O 0.68
loop_
_atom_site_label
_atom_site_type_symbol
_atom_site_fract_x
_atom_site_fract_y
_atom_site_fract_z
O1 O 0.8751(2) 0.8959(3) 0.53162(8)
O2 O 1.0163(2) 0.8901(3) 0.61844(8)
O3 O -0.4425(2) 0.2452(4) 0.54439(10)
O4 O -0.5316(3) 0.1339(4) 0.61665(9)
N1 N 0.4477(3) 0.6106(4) 0.62082(10)
N2 N 0.5705(3) 0.6026(4) 0.69633(10)
N3 N 0.3313(3) 0.4779(4) 0.70066(10)
N4 N 0.2098(3) 0.4390(4) 0.67118(11)
N5 N 0.1085(3) 0.3609(4) 0.69873(10)
N6 N -0.4296(3) 0.2057(4) 0.59111(13)
C1 C 0.4392(4) 0.5604(5) 0.67223(13)
C2 C 0.5889(3) 0.6886(5) 0.61309(13)
C3 C 0.6516(3) 0.7596(5) 0.56766(13)
H1 H 0.59730 0.76350 0.53500
C4 C 0.7967(4) 0.8228(5) 0.57222(13)
C5 C 0.8747(4) 0.8186(5) 0.62060(13)
C6 C 0.8096(3) 0.7511(5) 0.66541(13)
H2 H 0.86090 0.74970 0.69870
C7 C 0.6640(4) 0.6845(5) 0.65980(12)
C8 C 0.3343(3) 0.5936(5) 0.57918(11)
H3 H 0.30950 0.46830 0.57410
H4 H 0.37400 0.64250 0.54640
H5 H 0.24350 0.65860 0.58920
C9 C 0.7995(4) 0.9129(5) 0.48208(12)
H6 H 0.77120 0.79530 0.46920
H7 H 0.86660 0.96970 0.45670
H8 H 0.70900 0.98520 0.48650
C10 C 1.1042(3) 0.8880(5) 0.66567(12)
H9 H 1.05020 0.95090 0.69350
H10 H 1.20070 0.94650 0.65930
H11 H 1.12190 0.76530 0.67650
C11 C 0.6114(3) 0.5574(5) 0.75027(11)
H12 H 0.61190 0.66490 0.77180
H13 H 0.71170 0.50370 0.75080
H14 H 0.53820 0.47330 0.76440
C12 C -0.0215(4) 0.3223(5) 0.66852(13)
C13 C -0.1372(4) 0.2344(5) 0.69434(12)
H15 H -0.12350 0.20400 0.73070
C14 C -0.2696(3) 0.1937(5) 0.66933(13)
H16 H -0.34900 0.13260 0.68730
C15 C -0.2880(3) 0.2416(5) 0.61811(13)
C16 C -0.1761(4) 0.3256(5) 0.58997(13)
H17 H -0.19120 0.35350 0.55350
C17 C -0.0430(4) 0.3668(5) 0.61557(12)
H18 H 0.03610 0.42760 0.59740
#END
