
#######################################################################
#
#                 Cambridge Crystallographic Data Centre
#                                CCDC
#
#######################################################################
#
# If this CIF has been generated from an entry in the Cambridge
# Structural Database, then it will include bibliographic, chemical,
# crystal, experimental, refinement or atomic coordinate data resulting
# from the CCDC's data processing and validation procedures.
#
#######################################################################

data_CSD_CIF_XIVXAB
_audit_creation_date 2002-06-28
_audit_creation_method CSD-ConQuest-V1
_database_code_CSD XIVXAB
_database_code_depnum_ccdc_archive 'CCDC 172125'
_chemical_formula_sum 'C18 H16 N2 O1'
_chemical_formula_moiety
;
C18 H16 N2 O1
;
_journal_coden_Cambridge 16
_journal_volume 58
_journal_year 2002
_journal_page_first 3249
_journal_name_full 'Tetrahedron '
loop_
_publ_author_name
"R.Goumont"
"M.Sebban"
"P.Sepulcri"
"J.Marrot"
"F.Terrier"
_chemical_name_systematic
;
5,6,9,10-Tetramethylphenanthro(9,10-c)(1,2,5)oxadiazole
;
_chemical_melting_point 387.15
_cell_volume    717.060
_exptl_crystal_colour 'colorless'
_exptl_crystal_density_diffrn 1.28
_exptl_special_details
;
Melting point range 387.15-389.15K

;
_exptl_crystal_description 'parallelepiped'
_diffrn_ambient_temperature 296
#These two values have been output from a single CSD field.
_refine_ls_R_factor_gt 0.0877
_refine_ls_wR_factor_gt 0.0877
_symmetry_cell_setting triclinic
_symmetry_space_group_name_H-M 'P -1'
_symmetry_Int_Tables_number 2
loop_
_symmetry_equiv_pos_site_id
_symmetry_equiv_pos_as_xyz
1 x,y,z
2 -x,-y,-z
_cell_length_a 8.7431(8)
_cell_length_b 9.4247(9)
_cell_length_c 10.0659(10)
_cell_angle_alpha 75.862(2)
_cell_angle_beta 64.870(2)
_cell_angle_gamma 75.131(2)
_cell_formula_units_Z 2
loop_
_atom_type_symbol
_atom_type_radius_bond
C 0.68
H 0.23
N 0.68
O 0.68
loop_
_atom_site_label
_atom_site_type_symbol
_atom_site_fract_x
_atom_site_fract_y
_atom_site_fract_z
O1 O 0.7888(3) 0.7307(2) -0.3219(2)
N1 N 0.6866(3) 0.6863(3) -0.1755(3)
N2 N 0.8612(3) 0.8520(3) -0.3363(2)
C1 C 0.8015(3) 0.8811(3) -0.2009(3)
C2 C 0.6943(3) 0.7771(3) -0.1008(3)
C3 C 0.6115(3) 0.7829(3) 0.0566(3)
C4 C 0.6381(3) 0.8965(2) 0.1059(3)
C5 C 0.7479(3) 1.0054(3) 0.0025(3)
C6 C 0.8311(3) 0.9981(3) -0.1497(3)
C7 C 0.9355(3) 1.1032(3) -0.2480(3)
H1 H 0.98990 1.09590 -0.34860
C8 C 0.9574(3) 1.2170(3) -0.1955(3)
C9 C 0.8756(3) 1.2258(3) -0.0431(3)
C10 C 0.7738(3) 1.1201(3) 0.0533(3)
H2 H 0.72190 1.12630 0.15430
C11 C 0.5076(3) 0.6781(3) 0.1568(3)
H3 H 0.49220 0.60280 0.12130
C12 C 0.4282(3) 0.6872(3) 0.3086(3)
C13 C 0.4499(3) 0.8007(3) 0.3605(3)
C14 C 0.5540(3) 0.9042(3) 0.2612(3)
H4 H 0.56820 0.97950 0.29770
C15 C 0.3167(4) 0.5750(3) 0.4130(3)
H5 H 0.36010 0.52450 0.48840
H6 H 0.31820 0.50400 0.35820
H7 H 0.20120 0.62510 0.45850
C16 C 0.3637(5) 0.8201(4) 0.5218(3)
H8 H 0.24160 0.83300 0.55260
H9 H 0.39280 0.90590 0.53470
H10 H 0.40180 0.73360 0.58100
C17 C 0.8946(4) 1.3469(3) 0.0188(3)
H11 H 0.83150 1.33460 0.12440
H12 H 0.85080 1.44170 -0.02580
H13 H 1.01370 1.34170 -0.00250
C18 C 1.0658(4) 1.3305(3) -0.3027(3)
H14 H 1.11280 1.30610 -0.40120
H15 H 1.15740 1.32990 -0.27380
H16 H 0.99580 1.42750 -0.30100
#END
