
#######################################################################
#
#                 Cambridge Crystallographic Data Centre
#                                CCDC
#
#######################################################################
#
# If this CIF has been generated from an entry in the Cambridge
# Structural Database, then it will include bibliographic, chemical,
# crystal, experimental, refinement or atomic coordinate data resulting
# from the CCDC's data processing and validation procedures.
#
#######################################################################

data_CSD_CIF_XIWXOQ
_audit_creation_date 2002-07-26
_audit_creation_method CSD-ConQuest-V1
_database_code_CSD XIWXOQ
_chemical_formula_sum 'C21 H18 N2 O4'
_chemical_formula_moiety
;
C21 H18 N2 O4
;
_journal_coden_Cambridge 151
_journal_volume 44
_journal_year 2001
_journal_page_first 2486
_journal_name_full 'J.Med.Chem. '
loop_
_publ_author_name
"P.H.Di Chenna"
"V.Benedetti-Doctorovich"
"R.F.Baggio"
"M.T.Garland"
"G.Burton"
_chemical_name_systematic
;
2,2-Dimethyl-(Z)-6-(4-nitrophenylimino)-3,4,5,6-tetrahydro-2H-naphtho(1,2-b)ox
in-5-one
;
_chemical_name_common
;
6-(p-Nitrophenylimino)-beta-lapachone
;
_chemical_melting_point 488.15
_cell_volume    882.176
_exptl_crystal_colour 'red'
_exptl_crystal_density_diffrn 1.364
_exptl_special_details
;
Melting point range 488.15-490.15K
less cytotoxic than beta-lapachone

;
_exptl_crystal_description 'prismatic'
_exptl_crystal_preparation 'methanol'
_diffrn_ambient_temperature 293
#These two values have been output from a single CSD field.
_refine_ls_R_factor_gt 0.047
_refine_ls_wR_factor_gt 0.047
_symmetry_cell_setting triclinic
_symmetry_space_group_name_H-M 'P -1'
_symmetry_Int_Tables_number 2
loop_
_symmetry_equiv_pos_site_id
_symmetry_equiv_pos_as_xyz
1 x,y,z
2 -x,-y,-z
_cell_length_a 8.0374(14)
_cell_length_b 10.8815(14)
_cell_length_c 11.014(3)
_cell_angle_alpha 67.528(14)
_cell_angle_beta 84.503(17)
_cell_angle_gamma 82.971(12)
_cell_formula_units_Z 2
loop_
_atom_type_symbol
_atom_type_radius_bond
C 0.68
H 0.23
N 0.68
O 0.68
loop_
_atom_site_label
_atom_site_type_symbol
_atom_site_fract_x
_atom_site_fract_y
_atom_site_fract_z
O1 O 0.22808(19) 0.71703(14) 0.64252(15)
C1 C 0.2143(3) 0.5710(2) 0.6995(2)
C2 C 0.3896(4) 0.4991(3) 0.7137(3)
H1 H 0.424(3) 0.533(3) 0.602(3)
H2 H 0.378(3) 0.397(3) 0.754(3)
C3 C 0.4894(4) 0.5374(2) 0.8025(3)
H3 H 0.610(4) 0.512(3) 0.791(3)
H4 H 0.455(3) 0.498(3) 0.891(3)
C4 C 0.4675(3) 0.6859(2) 0.7665(2)
C5 C 0.5844(3) 0.7449(2) 0.8141(2)
C6 C 0.5637(3) 0.8953(2) 0.77882(19)
C7 C 0.4374(3) 0.9764(2) 0.68288(19)
C8 C 0.4256(3) 1.1158(2) 0.6350(2)
H5 H 0.503(3) 1.156(2) 0.665(2)
C9 C 0.3090(3) 1.1890(2) 0.5435(2)
H6 H 0.302(3) 1.282(3) 0.511(2)
C10 C 0.2044(3) 1.1262(2) 0.4982(2)
H7 H 0.121(3) 1.178(2) 0.433(2)
C11 C 0.2165(3) 0.9882(2) 0.5441(2)
H8 H 0.153(3) 0.946(2) 0.510(2)
C12 C 0.3321(3) 0.9117(2) 0.63720(19)
C13 C 0.3462(3) 0.7647(2) 0.68684(19)
C14 C 0.1154(4) 0.5407(3) 0.8321(3)
H9 H -0.004(5) 0.596(4) 0.810(4)
H10 H 0.107(4) 0.438(4) 0.874(3)
H11 H 0.182(4) 0.570(3) 0.894(3)
C15 C 0.1170(6) 0.5456(3) 0.6021(4)
H12 H 0.209(6) 0.571(4) 0.517(4)
H13 H 0.094(3) 0.451(3) 0.632(3)
H14 H 0.007(5) 0.592(4) 0.609(4)
O2 O 0.6986(2) 0.67821(16) 0.88377(19)
N1 N 0.6482(2) 0.95509(18) 0.82784(18)
N2 N 1.1919(3) 0.7741(2) 1.1549(3)
O3 O 1.3340(3) 0.7705(2) 1.1025(2)
O4 O 1.1654(3) 0.7473(3) 1.2726(2)
C16 C 0.7798(3) 0.8965(2) 0.9126(2)
C17 C 0.7548(3) 0.8726(2) 1.0458(2)
H15 H 0.644(3) 0.887(2) 1.079(2)
C18 C 0.8891(3) 0.8311(2) 1.1254(2)
H16 H 0.874(3) 0.818(2) 1.214(3)
C19 C 1.0483(3) 0.8156(2) 1.0718(2)
C20 C 1.0762(3) 0.8407(3) 0.9394(3)
H17 H 1.196(3) 0.830(3) 0.903(2)
C21 C 0.9425(3) 0.8816(3) 0.8602(3)
H18 H 0.962(3) 0.902(3) 0.767(3)
#END
