
#######################################################################
#
#                 Cambridge Crystallographic Data Centre
#                                CCDC
#
#######################################################################
#
# If this CIF has been generated from an entry in the Cambridge
# Structural Database, then it will include bibliographic, chemical,
# crystal, experimental, refinement or atomic coordinate data resulting
# from the CCDC's data processing and validation procedures.
#
#######################################################################

data_CSD_CIF_XIXBEM
_audit_creation_date 2008-06-10
_audit_creation_method CSD-ConQuest-V1
_database_code_CSD XIXBEM
_database_code_depnum_ccdc_archive 'CCDC 680318'
_chemical_formula_sum 'C21 H25 N1 O5'
_chemical_formula_moiety
;
C21 H25 N1 O5
;
_journal_coden_Cambridge 1336
_journal_volume 10
_journal_year 2008
_journal_page_first 665
_journal_name_full 'Org.Lett. '
loop_
_publ_author_name
"Yan-Dong Zhang"
"Wei-Wu Ren"
"Yu Lan"
"Qing Xiao"
"Kai Wang"
"Jie Xu"
"Jia-Hua Chen"
"Zhen Yang"
_chemical_name_systematic
;
(1R,5aS,8S,Z)-8-Methyl-7-oxo-2,3,4,5,5a,6,7,8,9,10-decahydro-1H-cyclohepta(8)a
nnulen-1-yl 4-nitrobenozate
;
_cell_volume   2005.041
_exptl_crystal_colour 'colorless'
_exptl_crystal_density_diffrn 1.23
_exptl_crystal_description 'plate'
_diffrn_ambient_temperature 295
#These two values have been output from a single CSD field.
_refine_ls_R_factor_gt 0.0469
_refine_ls_wR_factor_gt 0.0469
_symmetry_cell_setting monoclinic
_symmetry_space_group_name_H-M 'P 21/c'
_symmetry_Int_Tables_number 14
loop_
_symmetry_equiv_pos_site_id
_symmetry_equiv_pos_as_xyz
1 x,y,z
2 -x,1/2+y,1/2-z
3 -x,-y,-z
4 x,-1/2-y,-1/2+z
_cell_length_a 8.6159(12)
_cell_length_b 14.929(2)
_cell_length_c 15.652(2)
_cell_angle_alpha 90
_cell_angle_beta 95.181(10)
_cell_angle_gamma 90
_cell_formula_units_Z 4
loop_
_atom_type_symbol
_atom_type_radius_bond
C 0.68
H 0.23
N 0.68
O 0.68
loop_
_atom_site_label
_atom_site_type_symbol
_atom_site_fract_x
_atom_site_fract_y
_atom_site_fract_z
O1 O 0.2542(3) 0.72757(16) 0.57333(13)
O2 O 0.7292(2) 0.65128(14) 0.68442(13)
O3 O 0.5866(3) 0.52938(18) 0.66024(15)
O4 O 0.9105(4) 0.4904(2) 0.27348(16)
O5 O 1.0492(4) 0.6049(2) 0.30571(19)
N1 N 0.9536(4) 0.5500(3) 0.3215(2)
C1 C 0.4148(3) 0.7803(2) 0.78112(16)
H1 H 0.39960 0.84520 0.78500
C2 C 0.2762(3) 0.7420(2) 0.72434(17)
H2 H 0.28670 0.67740 0.72200
H3 H 0.18100 0.75530 0.75060
C3 C 0.2621(4) 0.7781(3) 0.6347(2)
C4 C 0.2549(4) 0.8786(3) 0.6221(2)
H4 H 0.23680 0.90720 0.67670
C5 C 0.4086(5) 0.9139(2) 0.59216(18)
H5 H 0.43550 0.87740 0.54440
H6 H 0.39150 0.97450 0.57100
C6 C 0.5482(4) 0.9147(2) 0.6604(2)
H7 H 0.62950 0.95170 0.63970
H8 H 0.51610 0.94270 0.71190
C7 C 0.6157(4) 0.8239(2) 0.68375(17)
H9 H 0.70380 0.80730 0.65740
C8 C 0.5631(4) 0.7646(2) 0.73802(17)
C9 C 0.6438(4) 0.6758(2) 0.75727(18)
H10 H 0.56600 0.62970 0.76640
C10 C 0.7639(4) 0.6804(2) 0.83540(18)
H11 H 0.82950 0.62750 0.83590
H12 H 0.83000 0.73220 0.82970
C11 C 0.6921(5) 0.6863(2) 0.92088(19)
H13 H 0.77530 0.69660 0.96580
H14 H 0.64570 0.62880 0.93210
C12 C 0.5686(4) 0.7587(2) 0.92749(17)
H15 H 0.54550 0.76350 0.98680
H16 H 0.61120 0.81570 0.91120
C13 C 0.4179(3) 0.7420(2) 0.87220(16)
H17 H 0.33270 0.76800 0.90020
H18 H 0.40030 0.67790 0.86830
C14 C 0.1199(5) 0.9028(3) 0.5546(2)
H19 H 0.02320 0.88270 0.57390
H20 H 0.13600 0.87440 0.50110
H21 H 0.11640 0.96660 0.54680
C15 C 0.6842(4) 0.5797(2) 0.6391(2)
C16 C 0.7644(3) 0.5708(2) 0.55984(17)
C17 C 0.7119(3) 0.5054(2) 0.50171(18)
H22 H 0.63450 0.46590 0.51540
C18 C 0.7734(4) 0.4981(2) 0.42331(19)
H23 H 0.73770 0.45470 0.38370
C19 C 0.8887(4) 0.5569(2) 0.40605(19)
C20 C 0.9464(4) 0.6209(2) 0.4632(2)
H24 H 1.02670 0.65880 0.45010
C21 C 0.8820(3) 0.6276(2) 0.54063(18)
H25 H 0.91840 0.67100 0.58010
#END
