
#######################################################################
#
#                 Cambridge Crystallographic Data Centre
#                                CCDC
#
#######################################################################
#
# If this CIF has been generated from an entry in the Cambridge
# Structural Database, then it will include bibliographic, chemical,
# crystal, experimental, refinement or atomic coordinate data resulting
# from the CCDC's data processing and validation procedures.
#
#######################################################################

data_CSD_CIF_XIXJAP
_audit_creation_date 2002-07-26
_audit_creation_method CSD-ConQuest-V1
_database_code_CSD XIXJAP
_chemical_formula_sum 'C16 H16 N2 O4'
_chemical_formula_moiety
;
C16 H16 N2 O4
;
_journal_coden_Cambridge 1364
_journal_volume 29
_journal_year 2000
_journal_page_first 171
_journal_name_full 'Rengong Jingti Xuebao(Chin.)(J.Synthetic Crystals) '
loop_
_publ_author_name
"Hong-you Zhu"
"Zong-lu Yang"
"Fu-chu Liu"
"Kai-bei Yu"
_chemical_name_systematic
;
2,5-Dimethyl-3,4-diacetyl-1-(3-nitrophenyl)pyrrole
;
_chemical_melting_point 481.15
_cell_volume   1531.452
_exptl_crystal_density_diffrn 1.302
_exptl_special_details
;
Melting point range 481.15-482.15K

;
_diffrn_ambient_temperature ?
_diffrn_special_details
;
The study was carried out at room temperature,in the range 283-303K

;
#These two values have been output from a single CSD field.
_refine_ls_R_factor_gt 0.0405
_refine_ls_wR_factor_gt 0.0405
_symmetry_cell_setting monoclinic
_symmetry_space_group_name_H-M 'P 21/c'
_symmetry_Int_Tables_number 14
loop_
_symmetry_equiv_pos_site_id
_symmetry_equiv_pos_as_xyz
1 x,y,z
2 -x,1/2+y,1/2-z
3 -x,-y,-z
4 x,-1/2-y,-1/2+z
_cell_length_a 9.375(1)
_cell_length_b 12.814(2)
_cell_length_c 12.985(1)
_cell_angle_alpha 90
_cell_angle_beta 100.96(1)
_cell_angle_gamma 90
_cell_formula_units_Z 4
loop_
_atom_type_symbol
_atom_type_radius_bond
C 0.68
N 0.68
O 0.68
loop_
_atom_site_label
_atom_site_type_symbol
_atom_site_fract_x
_atom_site_fract_y
_atom_site_fract_z
O1 O 0.5270(2) 1.1316(1) 0.3693(1)
O2 O 0.7018(2) 1.0321(1) 0.4443(1)
O3 O -0.2479(1) 0.9113(1) -0.0752(1)
O4 O -0.2733(2) 1.0370(1) 0.1970(1)
N1 N 0.5800(2) 1.0458(2) 0.3922(1)
N2 N 0.1348(1) 0.8934(1) 0.1931(1)
C1 C 0.3586(2) 0.9681(2) 0.2909(2)
C2 C 0.4915(2) 0.9533(2) 0.3561(1)
C3 C 0.5438(2) 0.8555(2) 0.3880(2)
C4 C 0.4594(2) 0.7698(2) 0.3538(2)
C5 C 0.3244(2) 0.7822(2) 0.2895(1)
C6 C 0.2755(2) 0.8813(1) 0.2591(1)
C7 C 0.0972(2) 0.8561(1) 0.0916(1)
C8 C -0.0492(2) 0.8765(1) 0.0580(1)
C9 C -0.0997(2) 0.9289(1) 0.1424(1)
C10 C 0.0158(2) 0.9391(1) 0.2243(1)
C11 C 0.2112(2) 0.8145(2) 0.0369(2)
C12 C 0.0259(3) 0.9835(2) 0.3312(2)
C13 C -0.1345(2) 0.8636(2) -0.0482(1)
C14 C -0.0851(3) 0.7922(3) -0.1254(2)
C15 C -0.2495(2) 0.9574(2) 0.1523(1)
C16 C -0.3708(3) 0.8819(3) 0.1158(2)
#END
