
#######################################################################
#
#                 Cambridge Crystallographic Data Centre
#                                CCDC
#
#######################################################################
#
# If this CIF has been generated from an entry in the Cambridge
# Structural Database, then it will include bibliographic, chemical,
# crystal, experimental, refinement or atomic coordinate data resulting
# from the CCDC's data processing and validation procedures.
#
#######################################################################

data_CSD_CIF_XIXKUK
_audit_creation_date 2002-07-25
_audit_creation_method CSD-ConQuest-V1
_database_code_CSD XIXKUK
_chemical_formula_sum 'C13 H17 N3 O4'
_chemical_formula_moiety
;
C13 H17 N3 O4
;
_journal_coden_Cambridge 154
_journal_volume 53
_journal_year 2000
_journal_page_first 715
_journal_name_full 'Aust.J.Chem. '
loop_
_publ_author_name
"M.F.Mackay"
"D.J.Gale"
"J.F.K.Wilshire"
_chemical_name_systematic
;
1-(cis-2',6'-Dimethylpiperidin-1'-yl)-2,4-dinitrobenzene
;
_cell_volume    683.413
_exptl_crystal_density_diffrn 1.357
_exptl_crystal_preparation 'hexane'
_diffrn_ambient_temperature 291.15
#These two values have been output from a single CSD field.
_refine_ls_R_factor_gt 0.048
_refine_ls_wR_factor_gt 0.048
_symmetry_cell_setting triclinic
_symmetry_space_group_name_H-M 'P -1'
_symmetry_Int_Tables_number 2
loop_
_symmetry_equiv_pos_site_id
_symmetry_equiv_pos_as_xyz
1 x,y,z
2 -x,-y,-z
_cell_length_a 8.165(1)
_cell_length_b 7.865(1)
_cell_length_c 11.148(1)
_cell_angle_alpha 95.23(1)
_cell_angle_beta 106.00(1)
_cell_angle_gamma 92.63(1)
_cell_formula_units_Z 2
loop_
_atom_type_symbol
_atom_type_radius_bond
C 0.68
H 0.23
N 0.68
O 0.68
loop_
_atom_site_label
_atom_site_type_symbol
_atom_site_fract_x
_atom_site_fract_y
_atom_site_fract_z
C1 C 0.7716(2) 0.2536(2) 0.8917(2)
C2 C 0.7390(2) 0.4044(2) 0.9594(2)
C3 C 0.6880(2) 0.4007(2) 1.0675(2)
C4 C 0.6745(2) 0.2474(2) 1.1154(2)
C5 C 0.7145(3) 0.0978(3) 1.0579(2)
C6 C 0.7630(3) 0.1016(2) 0.9503(2)
N1 N 0.7888(2) 0.5772(2) 0.9362(2)
N2 N 0.6208(3) 0.2441(3) 1.2288(2)
O1 O 0.8985(2) 0.5971(2) 0.8822(2)
O2 O 0.7235(3) 0.6978(2) 0.9791(2)
O3 O 0.6145(3) 0.1064(3) 1.2721(2)
O4 O 0.5843(3) 0.3784(3) 1.2771(2)
N3 N 0.8082(2) 0.2474(2) 0.7791(1)
C7 C 0.7186(3) 0.3506(3) 0.6791(2)
C8 C 0.8415(4) 0.4150(3) 0.6090(2)
C9 C 0.9381(4) 0.2723(4) 0.5660(3)
C10 C 1.0317(3) 0.1835(3) 0.6778(2)
C11 C 0.9096(3) 0.1089(3) 0.7452(2)
C12 C 0.5565(3) 0.2529(4) 0.5930(2)
C13 C 0.8074(4) -0.0532(3) 0.6716(3)
H1 H 0.665(3) 0.503(3) 1.108(2)
H2 H 0.782(3) -0.003(3) 0.910(2)
H3 H 0.708(3) -0.002(3) 1.089(2)
H4 H 0.682(3) 0.453(3) 0.720(2)
H5 H 0.780(3) 0.473(3) 0.542(3)
H6 H 0.924(3) 0.499(4) 0.667(3)
H7 H 0.844(4) 0.176(4) 0.499(3)
H8 H 1.023(4) 0.328(4) 0.533(3)
H9 H 1.092(4) 0.086(4) 0.657(3)
H10 H 1.122(4) 0.274(4) 0.744(3)
H11 H 0.919(3) 0.082(3) 0.826(2)
H12 H 0.579(3) 0.158(4) 0.537(3)
H13 H 0.486(4) 0.211(4) 0.646(3)
H14 H 0.494(5) 0.339(5) 0.538(4)
H15 H 0.762(3) -0.040(3) 0.584(3)
H16 H 0.704(4) -0.088(4) 0.702(3)
H17 H 0.872(5) -0.147(5) 0.675(3)
#END
