
#######################################################################
#
#                 Cambridge Crystallographic Data Centre
#                                CCDC
#
#######################################################################
#
# If this CIF has been generated from an entry in the Cambridge
# Structural Database, then it will include bibliographic, chemical,
# crystal, experimental, refinement or atomic coordinate data resulting
# from the CCDC's data processing and validation procedures.
#
#######################################################################

data_CSD_CIF_XIZDOA
_audit_creation_date 2008-06-10
_audit_creation_method CSD-ConQuest-V1
_database_code_CSD XIZDOA
_database_code_depnum_ccdc_archive 'CCDC 678802'
_chemical_formula_sum 'C28 H29 N1 O5'
_chemical_formula_moiety
;
C28 H29 N1 O5
;
_journal_coden_Cambridge 35
_journal_volume 72
_journal_year 2007
_journal_page_first 10251
_journal_name_full 'J.Org.Chem. '
loop_
_publ_author_name
"A.Karadeolian"
"M.A.Kerr"
_chemical_name_systematic
;
Dimethyl 2-benzyl-5-methyl-3,6-diphenyl-1,2-oxazinane-4,4-dicarboxylate
;
_chemical_melting_point 440.15
_cell_volume   1231.954
_exptl_crystal_colour 'colorless'
_exptl_crystal_density_diffrn 1.239
_exptl_special_details
;
Melting point range 440.15-442.15K

;
_exptl_crystal_description 'block'
_exptl_crystal_preparation 'ethyl acetate/hexanes'
_diffrn_ambient_temperature 298
#These two values have been output from a single CSD field.
_refine_ls_R_factor_gt 0.0552
_refine_ls_wR_factor_gt 0.0552
loop_
_citation_database_id_CSD
_citation_special_details
XITSAV "is a stereoisomer of this entry"
_symmetry_cell_setting triclinic
_symmetry_space_group_name_H-M 'P -1'
_symmetry_Int_Tables_number 2
loop_
_symmetry_equiv_pos_site_id
_symmetry_equiv_pos_as_xyz
1 x,y,z
2 -x,-y,-z
_cell_length_a 10.5658(7)
_cell_length_b 11.1733(4)
_cell_length_c 11.7745(6)
_cell_angle_alpha 69.202(3)
_cell_angle_beta 75.052(2)
_cell_angle_gamma 74.595(3)
_cell_formula_units_Z 2
loop_
_atom_type_symbol
_atom_type_radius_bond
C 0.68
H 0.23
N 0.68
O 0.68
loop_
_atom_site_label
_atom_site_type_symbol
_atom_site_fract_x
_atom_site_fract_y
_atom_site_fract_z
O1 O 0.43888(15) 0.28178(13) 0.22726(14)
N1 N 0.31133(18) 0.37231(15) 0.21891(16)
C1 C 0.3399(2) 0.50521(18) 0.18440(19)
H1 H 0.40510 0.51940 0.10710
C2 C 0.4036(2) 0.51478(18) 0.28690(19)
C3 C 0.5200(2) 0.39629(19) 0.3226(2)
H2 H 0.53720 0.39150 0.40210
C4 C 0.4760(2) 0.26948(19) 0.3391(2)
H3 H 0.39830 0.25850 0.40600
C5 C 0.2731(3) 0.3539(2) 0.1153(2)
H4 H 0.34980 0.35320 0.04900
H5 H 0.20390 0.42670 0.08420
C6 C 0.22317(16) 0.22890(12) 0.15323(15)
C7 C 0.09656(15) 0.22048(16) 0.22429(17)
H6 H 0.04480 0.29090 0.25000
C8 C 0.04737(17) 0.1068(2) 0.25699(18)
H7 H -0.03730 0.10120 0.30450
C9 C 0.1248(2) 0.00152(15) 0.2186(2)
H8 H 0.09190 -0.07450 0.24050
C10 C 0.2514(2) 0.00994(13) 0.1476(2)
H9 H 0.30320 -0.06050 0.12190
C11 C 0.30060(15) 0.12363(16) 0.11487(17)
H10 H 0.38530 0.12930 0.06730
C12 C 0.21164(12) 0.60329(13) 0.16039(13)
C13 C 0.09152(15) 0.58236(14) 0.23998(12)
H11 H 0.09050 0.51180 0.31190
C14 C -0.02700(12) 0.66689(18) 0.21204(16)
H12 H -0.10740 0.65290 0.26530
C15 C -0.02541(14) 0.77236(16) 0.10450(18)
H13 H -0.10470 0.82890 0.08580
C16 C 0.09470(18) 0.79329(13) 0.02491(14)
H14 H 0.09580 0.86390 -0.04700
C17 C 0.21322(14) 0.70876(14) 0.05285(12)
H15 H 0.29360 0.72280 -0.00040
C18 C 0.4626(2) 0.6380(2) 0.2341(2)
O2 O 0.46826(16) 0.70877(14) 0.12944(15)
O3 O 0.51562(16) 0.65393(14) 0.31750(14)
C19 C 0.5868(3) 0.7606(2) 0.2728(3)
H16 H 0.62030 0.76520 0.33920
H17 H 0.52740 0.84090 0.24130
H18 H 0.66010 0.74640 0.20800
C20 C 0.2985(2) 0.5243(2) 0.4016(2)
O4 O 0.26657(18) 0.43410(16) 0.48681(15)
O5 O 0.24241(16) 0.64854(14) 0.39347(14)
C21 C 0.1380(3) 0.6711(3) 0.4947(3)
H19 H 0.10580 0.76320 0.47950
H20 H 0.17280 0.63500 0.57010
H21 H 0.06590 0.63010 0.50180
C22 C 0.6495(2) 0.4106(2) 0.2278(2)
H22 H 0.71800 0.33620 0.25380
H23 H 0.67700 0.48840 0.22130
H24 H 0.63480 0.41620 0.14880
C23 C 0.58406(14) 0.14994(12) 0.36778(14)
C24 C 0.64217(17) 0.07937(15) 0.28486(14)
H25 H 0.61630 0.10700 0.20840
C25 C 0.73896(17) -0.03248(15) 0.31619(19)
H26 H 0.77780 -0.07970 0.26070
C26 C 0.77764(15) -0.07378(13) 0.4304(2)
H27 H 0.84240 -0.14860 0.45140
C27 C 0.7195(2) -0.00321(18) 0.51335(16)
H28 H 0.74540 -0.03080 0.58980
C28 C 0.62274(18) 0.10865(17) 0.48203(14)
H29 H 0.58390 0.15590 0.53750
#END
