
#######################################################################
#
#                 Cambridge Crystallographic Data Centre
#                                CCDC
#
#######################################################################
#
# If this CIF has been generated from an entry in the Cambridge
# Structural Database, then it will include bibliographic, chemical,
# crystal, experimental, refinement or atomic coordinate data resulting
# from the CCDC's data processing and validation procedures.
#
#######################################################################

data_CSD_CIF_XOBQIP
_audit_creation_date 2008-10-31
_audit_creation_method CSD-ConQuest-V1
_database_code_CSD XOBQIP
_database_code_depnum_ccdc_archive 'CCDC 686674'
_database_code_depnum_ccdc_journal 1135/09
_chemical_formula_sum 'C14 H11 N3 O4'
_chemical_formula_moiety
;
C14 H11 N3 O4
;
_journal_coden_Cambridge 1135
_journal_volume 18
_journal_year 2008
_journal_page_first 144
_journal_name_full 'Mendeleev Commun. '
loop_
_publ_author_name
"S.B.Alyabiev"
"D.V.Kravchenko"
"A.V.Ivachtchenko"
_chemical_name_systematic
;
Methyl ((3-phenylisoxazolo(5,4-d)pyrimidin-4-yl)oxy)acetate
;
_chemical_melting_point 395.15
_cell_volume   2516.356
_exptl_crystal_density_diffrn 1.506
_exptl_special_details
;
Melting point range 395.15-396.15K

;
_diffrn_ambient_temperature 100
#These two values have been output from a single CSD field.
_refine_ls_R_factor_gt 0.0631
_refine_ls_wR_factor_gt 0.0631
_symmetry_cell_setting orthorhombic
_symmetry_space_group_name_H-M 'P b c a'
_symmetry_Int_Tables_number 61
loop_
_symmetry_equiv_pos_site_id
_symmetry_equiv_pos_as_xyz
1 x,y,z
2 1/2-x,-y,1/2+z
3 1/2+x,1/2-y,-z
4 -x,1/2+y,1/2-z
5 -x,-y,-z
6 -1/2+x,y,-1/2-z
7 -1/2-x,-1/2+y,z
8 x,-1/2-y,-1/2+z
_cell_length_a 17.298(6)
_cell_length_b 7.271(3)
_cell_length_c 20.007(9)
_cell_angle_alpha 90
_cell_angle_beta 90
_cell_angle_gamma 90
_cell_formula_units_Z 8
loop_
_atom_type_symbol
_atom_type_radius_bond
C 0.68
H 0.23
N 0.68
O 0.68
loop_
_atom_site_label
_atom_site_type_symbol
_atom_site_fract_x
_atom_site_fract_y
_atom_site_fract_z
O1 O 0.8387(1) -0.1709(4) 0.3433(1)
O2 O 0.6606(1) 0.0290(3) 0.1886(1)
O3 O 0.5146(1) 0.1521(4) 0.0735(1)
O4 O 0.6386(1) 0.0623(3) 0.0640(1)
N1 N 0.8820(2) -0.1093(4) 0.2864(1)
N2 N 0.7090(2) -0.1997(4) 0.3728(1)
N3 N 0.6193(2) -0.0949(4) 0.2883(1)
C1 C 0.7629(2) -0.1507(5) 0.3289(2)
C2 C 0.7545(2) -0.0782(5) 0.2653(1)
C3 C 0.8319(2) -0.0541(5) 0.2409(2)
C4 C 0.6387(2) -0.1694(5) 0.3481(2)
C5 C 0.6762(2) -0.0496(5) 0.2476(2)
C6 C 0.5806(2) 0.0589(5) 0.1711(2)
C7 C 0.5743(2) 0.0980(5) 0.0979(2)
C8 C 0.6349(2) 0.0933(6) -0.0079(2)
C9 C 0.8627(2) 0.0125(5) 0.1760(2)
C10 C 0.8179(2) 0.0125(5) 0.1185(2)
C11 C 0.8490(2) 0.0694(5) 0.0583(2)
C12 C 0.9251(2) 0.1238(5) 0.0540(2)
C13 C 0.9708(2) 0.1203(5) 0.1110(2)
C14 C 0.9401(2) 0.0659(5) 0.1715(2)
H1 H 0.59670 -0.20450 0.37600
H2 H 0.55980 0.16390 0.19690
H3 H 0.54990 -0.05170 0.18230
H4 H 0.68180 0.04480 -0.02900
H5 H 0.63090 0.22560 -0.01670
H6 H 0.58950 0.03050 -0.02620
H7 H 0.76550 -0.02670 0.12050
H8 H 0.81750 0.07100 0.01940
H9 H 0.94610 0.16330 0.01260
H10 H 1.02360 0.15560 0.10840
H11 H 0.97180 0.06480 0.21030
#END
