
#######################################################################
#
#                 Cambridge Crystallographic Data Centre
#                                CCDC
#
#######################################################################
#
# If this CIF has been generated from an entry in the Cambridge
# Structural Database, then it will include bibliographic, chemical,
# crystal, experimental, refinement or atomic coordinate data resulting
# from the CCDC's data processing and validation procedures.
#
#######################################################################

data_CSD_CIF_XOCYUK
_audit_creation_date 2008-10-31
_audit_creation_method CSD-ConQuest-V1
_database_code_CSD XOCYUK
_database_code_depnum_ccdc_archive 'CCDC 675061'
_chemical_formula_sum 'C12 H11 N1 O7'
_chemical_formula_moiety
;
C12 H11 N1 O7
;
_journal_coden_Cambridge 177
_journal_volume 6
_journal_year 2008
_journal_page_first 2295
_journal_name_full 'Org.Biomol.Chem. '
loop_
_publ_author_name
"S.Grabowsky"
"T.Pfeuffer"
"W.Morgenroth"
"C.Paulmann"
"T.Schirmeister"
"P.Luger"
_chemical_name_systematic
;
Dimethyl 3-(4-nitrophenyl)oxirane-2,2-dicarboxylate
;
_cell_volume    619.065
_exptl_crystal_colour 'colorless'
_exptl_crystal_density_diffrn 1.509
_exptl_crystal_description 'block'
_exptl_crystal_preparation 'dichloromethane/methanol'
_diffrn_ambient_temperature 100
_diffrn_radiation_probe x-ray
_diffrn_source synchrotron
#These two values have been output from a single CSD field.
_refine_ls_R_factor_gt 0.032
_refine_ls_wR_factor_gt 0.032
_symmetry_cell_setting triclinic
_symmetry_space_group_name_H-M 'P -1'
_symmetry_Int_Tables_number 2
loop_
_symmetry_equiv_pos_site_id
_symmetry_equiv_pos_as_xyz
1 x,y,z
2 -x,-y,-z
_cell_length_a 7.746(1)
_cell_length_b 8.080(1)
_cell_length_c 11.835(1)
_cell_angle_alpha 86.198(1)
_cell_angle_beta 74.105(1)
_cell_angle_gamma 60.673(1)
_cell_formula_units_Z 2
loop_
_atom_type_symbol
_atom_type_radius_bond
C 0.68
H 0.23
N 0.68
O 0.68
loop_
_atom_site_label
_atom_site_type_symbol
_atom_site_fract_x
_atom_site_fract_y
_atom_site_fract_z
O1 O 0.22981(8) 1.24582(9) 0.54056(7)
O2 O 0.23779(9) 1.06887(10) 0.68593(6)
O3 O 0.62500(7) 0.61634(6) 0.06896(4)
O4 O 0.76238(6) 0.41570(6) 0.20079(4)
O5 O 0.40368(7) 0.17999(6) 0.16857(3)
O6 O 0.71006(6) 0.15321(6) 0.06819(4)
O7 O 0.25847(6) 0.58310(6) 0.17514(4)
N1 N 0.24031(6) 1.09956(8) 0.58320(5)
C1 C 0.29256(7) 0.53500(7) 0.28894(5)
C2 C 0.46062(6) 0.44372(6) 0.17803(4)
C3 C 0.27982(6) 0.68375(6) 0.36358(4)
C4 C 0.28329(7) 0.84596(7) 0.31613(4)
C5 C 0.26310(7) 0.65969(6) 0.48362(4)
C6 C 0.25188(7) 0.79519(7) 0.55610(4)
C7 C 0.27201(7) 0.98243(6) 0.38789(4)
C8 C 0.25616(6) 0.95414(6) 0.50648(4)
C9 C 0.62413(6) 0.50329(6) 0.14053(4)
C10 C 0.92505(7) 0.46398(7) 0.17931(4)
C11 C 0.52012(6) 0.24361(6) 0.13845(4)
C12 C 0.77604(8) -0.03540(8) 0.02078(6)
H1 H 0.22626 0.44950 0.33774
H2 H 0.29440 0.87129 0.22410
H3 H 0.25807 0.53614 0.52193
H4 H 0.23824 0.78277 0.64939
H5 H 0.27931 1.10741 0.35417
H6 H 0.85852 0.61162 0.20415
H7 H 1.00372 0.44130 0.08769
H8 H 1.01660 0.38421 0.23663
H9 H 0.92913 -0.09891 -0.03617
H10 H 0.78157 -0.13309 0.08669
H11 H 0.66799 -0.01207 -0.02642
#END
