
#######################################################################
#
#                 Cambridge Crystallographic Data Centre
#                                CCDC
#
#######################################################################
#
# If this CIF has been generated from an entry in the Cambridge
# Structural Database, then it will include bibliographic, chemical,
# crystal, experimental, refinement or atomic coordinate data resulting
# from the CCDC's data processing and validation procedures.
#
#######################################################################

data_CSD_CIF_XODMAE
_audit_creation_date 2002-09-12
_audit_creation_method CSD-ConQuest-V1
_database_code_CSD XODMAE
_database_code_depnum_ccdc_archive 'CCDC 161179'
_chemical_formula_sum 'C17 H16 N4 O2'
_chemical_formula_moiety
;
C17 H16 N4 O2
;
_journal_coden_Cambridge 369
_journal_volume 27
_journal_year 2002
_journal_page_first 455
_journal_name_full 'Transition Met.Chem. '
loop_
_publ_author_name
"Hong Liang"
"Qing Yu"
"Rui-Xiang Hu"
"Zhong-Yuan Zhou"
"Xiang-Ge Zhou"
_chemical_name_systematic
;
1,5-dimethyl-4-(((1-oxypyridin-2-yl)methylene)amino)-2-phenyl-1,2-dihydro-3H-p
yrazole-3-one
;
_chemical_name_common
;
trans-N-(N'-Oxypicolinylidene)-4-aminoantipyridine
;
_chemical_melting_point 505.15
_cell_volume   3055.567
_exptl_crystal_colour 'yellow'
_exptl_crystal_density_diffrn 1.341
_exptl_crystal_description 'rod'
_exptl_crystal_preparation 'ethanol'
_diffrn_ambient_temperature 296
#These two values have been output from a single CSD field.
_refine_ls_R_factor_gt 0.0407
_refine_ls_wR_factor_gt 0.0407
_symmetry_cell_setting orthorhombic
_symmetry_space_group_name_H-M 'P b c n'
_symmetry_Int_Tables_number 60
loop_
_symmetry_equiv_pos_site_id
_symmetry_equiv_pos_as_xyz
1 x,y,z
2 1/2-x,1/2-y,1/2+z
3 -x,y,1/2-z
4 1/2+x,1/2-y,-z
5 -x,-y,-z
6 -1/2+x,-1/2+y,-1/2-z
7 x,-y,-1/2+z
8 -1/2-x,-1/2+y,z
_cell_length_a 13.391(2)
_cell_length_b 10.259(2)
_cell_length_c 22.242(4)
_cell_angle_alpha 90
_cell_angle_beta 90
_cell_angle_gamma 90
_cell_formula_units_Z 8
loop_
_atom_type_symbol
_atom_type_radius_bond
C 0.68
H 0.23
N 0.68
O 0.68
loop_
_atom_site_label
_atom_site_type_symbol
_atom_site_fract_x
_atom_site_fract_y
_atom_site_fract_z
O1 O -0.01807(10) 0.15294(13) 0.55090(7)
O2 O -0.16473(10) 0.46562(13) 0.64477(6)
N1 N 0.06098(11) 0.20497(14) 0.52576(7)
N2 N 0.03795(11) 0.53071(14) 0.58222(6)
N3 N -0.07361(12) 0.77421(14) 0.67375(7)
N4 N -0.14779(11) 0.67766(15) 0.67826(7)
C1 C 0.11957(15) 0.13035(19) 0.48995(8)
H1 H 0.10120 0.04450 0.48230
C2 C 0.20496(15) 0.1782(2) 0.46480(9)
H2 H 0.24400 0.12540 0.44030
C3 C 0.23323(15) 0.3056(2) 0.47590(9)
H3 H 0.29190 0.33910 0.45980
C4 C 0.17276(14) 0.3812(2) 0.51121(8)
H4 H 0.19090 0.46720 0.51880
C5 C 0.08520(13) 0.33316(17) 0.53597(8)
C6 C 0.01715(14) 0.41050(18) 0.57186(8)
H5 H -0.04090 0.37360 0.58720
C7 C -0.02510(13) 0.60553(17) 0.61760(8)
C8 C -0.00428(14) 0.73194(18) 0.63408(8)
C9 C 0.07848(14) 0.8162(2) 0.61328(10)
H6 H 0.05160 0.89270 0.59440
H7 H 0.11880 0.76930 0.58490
H8 H 0.11880 0.84140 0.64700
C10 C -0.09868(15) 0.90787(18) 0.68841(10)
H9 H -0.04130 0.96230 0.68230
H10 H -0.11920 0.91300 0.72970
H11 H -0.15210 0.93690 0.66300
C11 C -0.11652(15) 0.56890(18) 0.64597(8)
C12 C -0.20999(15) 0.66868(19) 0.73060(8)
C13 C -0.29901(18) 0.7314(2) 0.73260(11)
H12 H -0.31960 0.78320 0.70060
C14 C -0.3592(2) 0.7173(3) 0.78315(14)
H13 H -0.41970 0.76160 0.78520
C15 C -0.3309(2) 0.6399(3) 0.82935(11)
H14 H -0.37150 0.63130 0.86300
C16 C -0.2421(2) 0.5742(3) 0.82617(10)
H15 H -0.22320 0.51900 0.85730
C17 C -0.18126(17) 0.5895(2) 0.77737(10)
H16 H -0.12030 0.54630 0.77580
#END
