
#######################################################################
#
#                 Cambridge Crystallographic Data Centre
#                                CCDC
#
#######################################################################
#
# If this CIF has been generated from an entry in the Cambridge
# Structural Database, then it will include bibliographic, chemical,
# crystal, experimental, refinement or atomic coordinate data resulting
# from the CCDC's data processing and validation procedures.
#
#######################################################################

data_CSD_CIF_XOFGUU
_audit_creation_date 2002-09-13
_audit_creation_method CSD-ConQuest-V1
_database_code_CSD XOFGUU
_database_code_depnum_ccdc_archive 'CCDC 184035'
_chemical_formula_sum 'C17 H20 N2 O4'
_chemical_formula_moiety
;
C17 H20 N2 O4
;
_journal_coden_Cambridge 182
_journal_year 2002
_journal_page_first 1542
_journal_name_full 'Chem.Commun. '
loop_
_publ_author_name
"A.S.Edwards"
"R.A.J.Wybrow"
"C.Johnstone"
"H.Adams"
"J.P.A.Harrity"
_chemical_name_systematic
;
1'-(4-nitrobenzoyl)spiro[7-oxabicyclo[4.1.0]heptane-2,2'-piperidine]
;
_chemical_melting_point 379.85
_cell_volume   1537.420
_exptl_crystal_colour 'colorless'
_exptl_crystal_density_diffrn 1.367
_exptl_special_details
;
Melting point range 379.85-381.55K

;
_exptl_crystal_description 'block'
_exptl_crystal_preparation 'hexane/ethanol'
_diffrn_ambient_temperature 150
#These two values have been output from a single CSD field.
_refine_ls_R_factor_gt 0.0737
_refine_ls_wR_factor_gt 0.0737
_symmetry_cell_setting monoclinic
_symmetry_space_group_name_H-M 'P 21/c'
_symmetry_Int_Tables_number 14
loop_
_symmetry_equiv_pos_site_id
_symmetry_equiv_pos_as_xyz
1 x,y,z
2 x,1/2-y,1/2+z
3 -x,-y,-z
4 -x,-1/2+y,-1/2-z
_cell_length_a 11.882(3)
_cell_length_b 9.5188(19)
_cell_length_c 13.700(3)
_cell_angle_alpha 90
_cell_angle_beta 97.160(4)
_cell_angle_gamma 90
_cell_formula_units_Z 4
loop_
_atom_type_symbol
_atom_type_radius_bond
C 0.68
H 0.23
N 0.68
O 0.68
loop_
_atom_site_label
_atom_site_type_symbol
_atom_site_fract_x
_atom_site_fract_y
_atom_site_fract_z
O1 O 0.3810(2) 0.0734(3) 0.5424(2)
O2 O 0.8692(3) 0.2291(4) 0.8486(3)
O3 O 0.7592(3) 0.2776(3) 0.9584(2)
O4 O 0.1930(2) 0.0523(4) 0.6442(2)
N1 N 0.3070(3) 0.2884(3) 0.5743(3)
N2 N 0.7754(3) 0.2518(4) 0.8742(3)
C1 C 0.3886(3) 0.1864(4) 0.5852(3)
C2 C 0.4904(3) 0.2133(4) 0.6598(3)
C3 C 0.4827(3) 0.2857(4) 0.7463(3)
H1 H 0.41220 0.32610 0.75740
C4 C 0.5760(3) 0.3004(4) 0.8172(3)
H2 H 0.57050 0.34880 0.87700
C5 C 0.6767(3) 0.2422(4) 0.7977(3)
C6 C 0.6879(3) 0.1706(4) 0.7118(3)
H3 H 0.75920 0.13300 0.70040
C7 C 0.5936(3) 0.1543(4) 0.6427(3)
H4 H 0.59910 0.10330 0.58390
C8 C 0.1932(3) 0.2554(5) 0.5204(3)
C9 C 0.1996(4) 0.2700(6) 0.4116(3)
H5 H 0.12410 0.25100 0.37470
H6 H 0.25370 0.20020 0.39100
C10 C 0.2381(5) 0.4182(7) 0.3876(4)
H7 H 0.17850 0.48650 0.39970
H8 H 0.24820 0.42320 0.31710
C11 C 0.3508(4) 0.4589(6) 0.4505(3)
H9 H 0.41370 0.40370 0.42870
H10 H 0.36660 0.55970 0.44050
C12 C 0.3456(4) 0.4322(4) 0.5581(3)
H11 H 0.42170 0.44650 0.59520
H12 H 0.29290 0.50010 0.58310
C13 C 0.1044(4) 0.3541(6) 0.5562(3)
H13 H 0.13490 0.45100 0.55850
H14 H 0.03570 0.35290 0.50720
C14 C 0.0702(4) 0.3195(6) 0.6545(3)
H15 H 0.01680 0.39170 0.67290
H16 H 0.13800 0.32040 0.70440
C15 C 0.0141(4) 0.1757(6) 0.6533(4)
H17 H 0.00650 0.14720 0.72170
H18 H -0.06310 0.18210 0.61690
C16 C 0.0781(4) 0.0693(5) 0.6078(3)
H19 H 0.03610 -0.02060 0.59220
C17 C 0.1614(4) 0.1008(5) 0.5443(3)
H20 H 0.16920 0.03030 0.49140
#END
