
#######################################################################
#
#                 Cambridge Crystallographic Data Centre
#                                CCDC
#
#######################################################################
#
# If this CIF has been generated from an entry in the Cambridge
# Structural Database, then it will include bibliographic, chemical,
# crystal, experimental, refinement or atomic coordinate data resulting
# from the CCDC's data processing and validation procedures.
#
#######################################################################

data_CSD_CIF_XOGHOR
_audit_creation_date 2008-10-31
_audit_creation_method CSD-ConQuest-V1
_database_code_CSD XOGHOR
_database_code_depnum_ccdc_archive 'CCDC 652092'
_chemical_formula_sum 'C18 H20 N2 O7'
_chemical_formula_moiety
;
C18 H20 N2 O7
;
_journal_coden_Cambridge 692
_journal_year 2008
_journal_page_first 1788
_journal_name_full 'Synthesis '
loop_
_publ_author_name
"A.Alizadeh"
"S.Rostamnia"
"Long-Guan Zhu"
_chemical_name_systematic
;
Dimethyl 2-((t-butyl)amino)-5-(4-nitrophenyl)-3,4-furandicarboxylate
;
_chemical_melting_point 450.15
_cell_volume    929.529
_exptl_crystal_density_diffrn 1.345
_exptl_special_details
;
Melting point range 450.15-452.15K

;
_exptl_crystal_preparation 'ethyl acetate/hexane'
_diffrn_ambient_temperature 295
#These two values have been output from a single CSD field.
_refine_ls_R_factor_gt 0.0475
_refine_ls_wR_factor_gt 0.0475
_symmetry_cell_setting triclinic
_symmetry_space_group_name_H-M 'P -1'
_symmetry_Int_Tables_number 2
loop_
_symmetry_equiv_pos_site_id
_symmetry_equiv_pos_as_xyz
1 x,y,z
2 -x,-y,-z
_cell_length_a 9.2280(13)
_cell_length_b 10.1177(14)
_cell_length_c 10.9028(15)
_cell_angle_alpha 91.030(2)
_cell_angle_beta 113.853(2)
_cell_angle_gamma 92.379(2)
_cell_formula_units_Z 2
loop_
_atom_type_symbol
_atom_type_radius_bond
C 0.68
H 0.23
N 0.68
O 0.68
loop_
_atom_site_label
_atom_site_type_symbol
_atom_site_fract_x
_atom_site_fract_y
_atom_site_fract_z
N1 N 0.4657(2) 0.6834(2) 0.73611(17)
C1 C 0.3333(3) 0.7146(2) 0.7738(2)
C2 C 0.1768(3) 0.6589(3) 0.6694(3)
H1 H 0.15410 0.70220 0.58640
H2 H 0.09410 0.67360 0.69940
H3 H 0.18280 0.56560 0.65590
C3 C 0.8452(3) 0.4453(3) 0.8109(3)
H4 H 0.84870 0.42810 0.89830
H5 H 0.94670 0.48150 0.81940
H6 H 0.81940 0.36420 0.75770
C4 C 0.3288(4) 0.8630(3) 0.7926(3)
H7 H 0.42860 0.89690 0.85980
H8 H 0.24530 0.88160 0.82050
H9 H 0.30970 0.90450 0.70930
C5 C 0.3699(4) 0.6480(3) 0.9059(3)
H10 H 0.46980 0.68370 0.97170
H11 H 0.37550 0.55450 0.89350
H12 H 0.28770 0.66380 0.93620
H13 H 0.525(3) 0.622(3) 0.778(3)
O1 O 0.38337(16) 0.79758(13) 0.54056(13)
O2 O 0.72557(18) 0.53884(16) 0.74654(14)
O3 O 0.78512(18) 0.53217(16) 0.56679(15)
C6 C 0.4803(2) 0.7098(2) 0.62186(19)
C7 C 0.7068(2) 0.5728(2) 0.6227(2)
O4 O 0.5725(2) 0.64667(18) 0.25116(16)
O5 O 0.7588(2) 0.78543(17) 0.39580(17)
C8 C 0.3329(2) 0.90392(19) 0.33304(19)
C9 C 0.6229(2) 0.7135(2) 0.3516(2)
C10 C 0.5825(2) 0.66506(19) 0.56809(19)
O6 O -0.0137(2) 1.25248(17) 0.08439(18)
C11 C 0.4219(2) 0.80943(19) 0.42946(18)
C12 C 0.1561(3) 1.0842(2) 0.2754(2)
H14 H 0.09370 1.14210 0.29720
N2 N 0.0810(2) 1.18874(18) 0.05938(18)
C13 C 0.1669(2) 1.08907(19) 0.15328(19)
C14 C 0.2393(2) 0.9920(2) 0.3645(2)
H15 H 0.23310 0.98820 0.44740
C15 C 0.2571(3) 1.0035(2) 0.1184(2)
H16 H 0.26310 1.00860 0.03550
C16 C 0.5417(2) 0.73014(19) 0.44395(18)
C17 C 0.3380(3) 0.9107(2) 0.2070(2)
H17 H 0.39720 0.85140 0.18280
O7 O 0.1064(3) 1.2033(2) -0.04026(19)
C18 C 0.8519(4) 0.7716(3) 0.3171(3)
H18 H 0.94760 0.82710 0.35650
H19 H 0.79160 0.79760 0.22710
H20 H 0.87840 0.68100 0.31550
#END
