
#######################################################################
#
#                 Cambridge Crystallographic Data Centre
#                                CCDC
#
#######################################################################
#
# If this CIF has been generated from an entry in the Cambridge
# Structural Database, then it will include bibliographic, chemical,
# crystal, experimental, refinement or atomic coordinate data resulting
# from the CCDC's data processing and validation procedures.
#
#######################################################################

data_CSD_CIF_XOHCII
_audit_creation_date 2014-06-26
_audit_creation_method CSD-ConQuest-V1
_database_code_CSD XOHCII
_database_code_depnum_ccdc_archive 'CCDC 957954'
_chemical_formula_sum 'C12 H15 N1 O3'
_chemical_formula_moiety
;
C12 H15 N1 O3
;
_journal_coden_Cambridge 1336
_journal_volume 16
_journal_year 2014
_journal_page_first 3166
_journal_name_full 'Org.Lett. '
loop_
_publ_author_name
"A.A.S.Gietter"
"P.G.Gildner"
"A.P.Cinderella"
"G.P.A.Yap"
"D.A.Watson"
_chemical_name_systematic
;
2-methyl-3-nitro-1-phenylpentan-1-one
;
_cell_volume    586.922
_exptl_crystal_colour 'colorless'
_exptl_crystal_density_diffrn 1.252
_exptl_crystal_description 'block'
_diffrn_ambient_temperature 200
#These two values have been output from a single CSD field.
_refine_ls_R_factor_gt 0.0854
_refine_ls_wR_factor_gt 0.0854
_symmetry_cell_setting monoclinic
_symmetry_space_group_name_H-M 'P 21'
_symmetry_Int_Tables_number 4
loop_
_symmetry_equiv_pos_site_id
_symmetry_equiv_pos_as_xyz
1 x,y,z
2 -x,1/2+y,-z
_cell_length_a 8.4867(6)
_cell_length_b 6.5654(5)
_cell_length_c 11.1325(7)
_cell_angle_alpha 90
_cell_angle_beta 108.878(3)
_cell_angle_gamma 90
_cell_formula_units_Z 2
loop_
_atom_type_symbol
_atom_type_radius_bond
C 0.68
H 0.23
N 0.68
O 0.68
loop_
_atom_site_label
_atom_site_type_symbol
_atom_site_fract_x
_atom_site_fract_y
_atom_site_fract_z
O1 O 0.3596(8) 1.0080(9) 0.7016(5)
O2 O 0.5096(7) 0.8798(11) 0.5953(5)
O3 O 0.1487(7) 1.0938(7) 0.4027(4)
N1 N 0.3769(8) 0.8925(9) 0.6213(5)
C1 C 0.2901(7) 0.8219(6) 0.1737(4)
H1 H 0.32770 0.69970 0.21970
C2 C 0.3073(7) 0.8486(8) 0.0547(4)
H2 H 0.35660 0.74460 0.01940
C3 C 0.2523(8) 1.0274(9) -0.0127(4)
H3 H 0.26400 1.04560 -0.09400
C4 C 0.1801(8) 1.1795(8) 0.0390(4)
H4 H 0.14250 1.30180 -0.00710
C5 C 0.1629(7) 1.1529(7) 0.1580(4)
H5 H 0.11360 1.25690 0.19330
C6 C 0.2179(7) 0.9741(7) 0.2253(3)
C7 C 0.1951(9) 0.9490(9) 0.3529(6)
C8 C 0.2182(9) 0.7421(9) 0.4132(6)
H6 H 0.31960 0.67740 0.40260
C9 C 0.2377(8) 0.7499(9) 0.5547(6)
H7 H 0.13190 0.80250 0.56450
C10 C 0.2777(10) 0.5441(11) 0.6207(6)
H8 H 0.18970 0.44590 0.57600
H9 H 0.38430 0.49410 0.61330
C11 C 0.2914(12) 0.5484(13) 0.7605(7)
H10 H 0.38130 0.64090 0.80650
H11 H 0.31550 0.41100 0.79620
H12 H 0.18600 0.59600 0.76890
C12 C 0.0655(10) 0.6138(11) 0.3431(6)
H13 H -0.03030 0.65970 0.36670
H14 H 0.08820 0.47020 0.36630
H15 H 0.04110 0.62930 0.25130
#END
