
#######################################################################
#
#                 Cambridge Crystallographic Data Centre
#                                CCDC
#
#######################################################################
#
# If this CIF has been generated from an entry in the Cambridge
# Structural Database, then it will include bibliographic, chemical,
# crystal, experimental, refinement or atomic coordinate data resulting
# from the CCDC's data processing and validation procedures.
#
#######################################################################

data_CSD_CIF_XOHMUC
_audit_creation_date 2002-09-13
_audit_creation_method CSD-ConQuest-V1
_database_code_CSD XOHMUC
_database_code_depnum_ccdc_archive 'CCDC 150924'
_chemical_formula_sum 'C14 H21 N1 O2'
_chemical_formula_moiety
;
C14 H21 N1 O2
;
_journal_coden_Cambridge 1206
_journal_volume 48
_journal_year 2001
_journal_page_first 229
_journal_name_full 'Acta Chim.Slov. '
loop_
_publ_author_name
"A.Krzan"
"P.Kamaras"
"M.H.Dickman"
"D.R.Crist"
"V.Horak"
_chemical_name_systematic
;
4,6-bis(t-Butyl)-1,2-benzoquinone-2-monooxime
;
_cell_volume   1407.153
_exptl_crystal_colour 'orange'
_exptl_crystal_density_diffrn 1.111
_exptl_crystal_preparation 'toluene'
_diffrn_ambient_temperature 203
#These two values have been output from a single CSD field.
_refine_ls_R_factor_gt 0.0397
_refine_ls_wR_factor_gt 0.0397
_symmetry_cell_setting monoclinic
_symmetry_space_group_name_H-M 'P 21/n'
_symmetry_Int_Tables_number 14
loop_
_symmetry_equiv_pos_site_id
_symmetry_equiv_pos_as_xyz
1 x,y,z
2 1/2-x,1/2+y,1/2-z
3 -x,-y,-z
4 -1/2+x,-1/2-y,-1/2+z
_cell_length_a 12.4470(1)
_cell_length_b 8.4190(1)
_cell_length_c 13.4310(1)
_cell_angle_alpha 90
_cell_angle_beta 91.180(1)
_cell_angle_gamma 90
_cell_formula_units_Z 4
loop_
_atom_type_symbol
_atom_type_radius_bond
C 0.68
H 0.23
N 0.68
O 0.68
loop_
_atom_site_label
_atom_site_type_symbol
_atom_site_fract_x
_atom_site_fract_y
_atom_site_fract_z
O1 O 0.4005(1) 0.2417(1) 0.6559(1)
O2 O 0.6124(1) 0.0975(1) 0.4584(1)
N1 N 0.5382(1) 0.1466(1) 0.5261(1)
C1 C 0.4793(2) 0.3256(2) 0.6446(1)
C2 C 0.5004(1) 0.4724(2) 0.7013(1)
C3 C 0.5926(1) 0.5503(2) 0.6825(1)
C4 C 0.6745(1) 0.5022(2) 0.6123(1)
C5 C 0.6581(1) 0.3711(2) 0.5575(1)
C6 C 0.5620(1) 0.2788(2) 0.5702(1)
C7 C 0.7764(1) 0.6026(2) 0.6079(1)
C8 C 0.8302(1) 0.6061(2) 0.7118(1)
C9 C 0.7473(1) 0.7715(2) 0.5751(1)
C10 C 0.8568(1) 0.5341(2) 0.5358(1)
C11 C 0.4195(1) 0.5269(2) 0.7781(1)
C12 C 0.4544(2) 0.6828(2) 0.8271(2)
C13 C 0.3093(1) 0.5534(3) 0.7276(1)
C14 C 0.4091(1) 0.4015(2) 0.8599(1)
H1 H 0.6053(1) 0.6438(2) 0.7178(1)
H2 H 0.7086(1) 0.3400(2) 0.5113(1)
H3 H 0.8945(6) 0.6690(13) 0.7097(2)
H4 H 0.8481(9) 0.4999(3) 0.7320(4)
H5 H 0.7817(4) 0.6517(14) 0.7585(2)
H6 H 0.8108(2) 0.8361(4) 0.5758(8)
H7 H 0.6961(7) 0.8154(13) 0.6200(5)
H8 H 0.7166(8) 0.7689(2) 0.5090(3)
H9 H 0.9205(4) 0.5984(8) 0.5366(6)
H10 H 0.8257(3) 0.5330(12) 0.4698(2)
H11 H 0.8750(7) 0.4276(5) 0.5554(5)
H12 H 0.4010(7) 0.7160(11) 0.8733(10)
H13 H 0.4625(13) 0.7628(6) 0.7769(2)
H14 H 0.5217(15) 0.6676(5) 0.862(1)
H15 H 0.2592(3) 0.5895(15) 0.7761(2)
H16 H 0.2841(5) 0.4555(4) 0.6989(8)
H17 H 0.3155(3) 0.6319(11) 0.6762(7)
H18 H 0.3556(7) 0.4346(7) 0.9061(5)
H19 H 0.4769(3) 0.3892(10) 0.8944(6)
H20 H 0.3881(9) 0.3019(4) 0.8305(1)
H21 H 0.5871(15) 0.0014(25) 0.4395(13)
#END
