
#######################################################################
#
#                 Cambridge Crystallographic Data Centre
#                                CCDC
#
#######################################################################
#
# If this CIF has been generated from an entry in the Cambridge
# Structural Database, then it will include bibliographic, chemical,
# crystal, experimental, refinement or atomic coordinate data resulting
# from the CCDC's data processing and validation procedures.
#
#######################################################################

data_CSD_CIF_XOKKOY
_audit_creation_date 2009-05-05
_audit_creation_method CSD-ConQuest-V1
_database_code_CSD XOKKOY
_database_code_depnum_ccdc_archive 'CCDC 655729 (not 266594 as published)'
_chemical_formula_sum 'C14 H12 N2 O4'
_chemical_formula_moiety
;
C14 H12 N2 O4
;
_journal_coden_Cambridge 644
_journal_volume 63
_journal_year 2008
_journal_page_first 1315
_journal_name_full 'Z.Naturforsch.,B:Chem.Sci. '
loop_
_publ_author_name
"H.Unver"
"A.Karakas"
"A.Elmali"
"T.N.Durlu"
_chemical_name_systematic
;
N-(2-Hydroxy-4-methoxybenzylidene)-3-nitroaniline
;
_chemical_melting_point 422.15
_cell_volume    624.749
_exptl_crystal_colour 'yellow'
_exptl_crystal_density_diffrn 1.447
_exptl_crystal_preparation 'chloroform/n-heptane'
_diffrn_ambient_temperature 299
#These two values have been output from a single CSD field.
_refine_ls_R_factor_gt 0.0456
_refine_ls_wR_factor_gt 0.0456
_symmetry_cell_setting triclinic
_symmetry_space_group_name_H-M 'P -1'
_symmetry_Int_Tables_number 2
loop_
_symmetry_equiv_pos_site_id
_symmetry_equiv_pos_as_xyz
1 x,y,z
2 -x,-y,-z
_cell_length_a 7.606(2)
_cell_length_b 8.048(3)
_cell_length_c 10.472(3)
_cell_angle_alpha 83.02(3)
_cell_angle_beta 79.62(3)
_cell_angle_gamma 85.41(3)
_cell_formula_units_Z 2
loop_
_atom_type_symbol
_atom_type_radius_bond
C 0.68
H 0.23
N 0.68
O 0.68
loop_
_atom_site_label
_atom_site_type_symbol
_atom_site_fract_x
_atom_site_fract_y
_atom_site_fract_z
C1 C -0.3602(3) 0.9012(3) 0.2593(2)
C2 C -0.3272(3) 0.8506(3) 0.3827(2)
H1 H -0.34700 0.92380 0.44670
C3 C -0.2636(4) 0.6870(3) 0.4086(2)
H2 H -0.24160 0.64780 0.49190
C4 C -0.2325(3) 0.5817(3) 0.3125(2)
H3 H -0.18790 0.47220 0.33130
C5 C -0.2659(3) 0.6348(3) 0.1881(2)
C6 C -0.3309(3) 0.7983(3) 0.1610(2)
H4 H -0.35420 0.83770 0.07810
C7 C -0.2736(3) 0.5384(3) -0.0156(2)
H5 H -0.33120 0.64020 -0.04090
C8 C -0.2376(3) 0.4132(3) -0.1046(2)
C9 C -0.1550(3) 0.2562(3) -0.0687(2)
C10 C -0.1257(3) 0.1317(3) -0.1524(2)
H6 H -0.07190 0.02790 -0.12740
C11 C -0.1772(3) 0.1639(3) -0.2720(2)
C12 C -0.2566(3) 0.3202(3) -0.3119(2)
H7 H -0.28810 0.34160 -0.39440
C13 C -0.2870(3) 0.4401(3) -0.2280(2)
H8 H -0.34230 0.54300 -0.25350
C14 C -0.0726(3) -0.1099(3) -0.3291(2)
H9 H -0.14100 -0.16440 -0.25150
H10 H 0.04620 -0.09670 -0.31430
H11 H -0.06640 -0.17670 -0.39990
N1 N -0.2290(2) 0.5147(2) 0.09809(19)
N2 N -0.4357(3) 1.0739(2) 0.2311(2)
O1 O -0.4373(3) 1.1730(2) 0.31151(17)
O2 O -0.4953(2) 1.1094(2) 0.12985(18)
O3 O -0.1017(2) 0.2212(2) 0.04778(16)
H12 H -0.136(3) 0.323(3) 0.089(2)
O4 O -0.1566(2) 0.0509(2) -0.36120(14)
#END
