
#######################################################################
#
#                 Cambridge Crystallographic Data Centre
#                                CCDC
#
#######################################################################
#
# If this CIF has been generated from an entry in the Cambridge
# Structural Database, then it will include bibliographic, chemical,
# crystal, experimental, refinement or atomic coordinate data resulting
# from the CCDC's data processing and validation procedures.
#
#######################################################################

data_CSD_CIF_XOLRUN
_audit_creation_date 2014-06-27
_audit_creation_method CSD-ConQuest-V1
_database_code_CSD XOLRUN
_database_code_depnum_ccdc_archive 'CCDC 968396'
_chemical_formula_sum 'C20 H14 N4 O2'
_chemical_formula_moiety
;
C20 H14 N4 O2
;
_journal_coden_Cambridge 1500
_journal_volume 4
_journal_year 2014
_journal_page_first 27665
_journal_name_full 'RSC Advances '
loop_
_publ_author_name
"M.Mukherjee"
"S.Pal"
"B.Sen"
"S.Lohar"
"S.Banerjee"
"S.Banerjee"
"P.Chattopadhyay"
_chemical_name_systematic
;
6-(4-Nitrophenyl)-5,6-dihydrobenzimidazo[1,2-c]quinazoline
;
_cell_volume   1666.677
_exptl_crystal_density_diffrn 1.368
_diffrn_ambient_temperature 296
#These two values have been output from a single CSD field.
_refine_ls_R_factor_gt 0.0302
_refine_ls_wR_factor_gt 0.0302
_symmetry_cell_setting orthorhombic
_symmetry_space_group_name_H-M 'P c a 21'
_symmetry_Int_Tables_number 29
loop_
_symmetry_equiv_pos_site_id
_symmetry_equiv_pos_as_xyz
1 x,y,z
2 -x,-y,1/2+z
3 1/2-x,y,1/2+z
4 1/2+x,-y,z
_cell_length_a 12.0792(5)
_cell_length_b 9.1171(4)
_cell_length_c 15.1341(7)
_cell_angle_alpha 90
_cell_angle_beta 90
_cell_angle_gamma 90
_cell_formula_units_Z 4
loop_
_atom_type_symbol
_atom_type_radius_bond
C 0.68
H 0.23
N 0.68
O 0.68
loop_
_atom_site_label
_atom_site_type_symbol
_atom_site_fract_x
_atom_site_fract_y
_atom_site_fract_z
O1 O 0.66849(13) 1.02594(17) 0.17510(12)
O2 O 0.76135(12) 0.94055(18) 0.28540(16)
C1 C 0.13451(10) 0.61389(15) 0.25697(10)
N1 N 0.21190(9) 0.62744(14) 0.32261(9)
C2 C 0.41285(10) 0.66757(15) 0.3035(1)
C3 C 0.06766(11) 0.77014(15) 0.34915(10)
C4 C 0.10390(17) 0.39441(19) 0.04863(12)
H1 H 0.05410 0.38150 0.00240
C5 C 0.08356(14) 0.49685(19) 0.11354(11)
H2 H 0.02040 0.55500 0.11000
C6 C 0.15588(11) 0.51483(15) 0.18425(10)
C7 C 0.32067(10) 0.55842(16) 0.32436(11)
H3 H 0.33320 0.52000 0.38400
C8 C 0.40553(13) 0.76016(17) 0.23184(11)
H4 H 0.34190 0.76040 0.19730
C9 C 0.49221(14) 0.85255(18) 0.21103(12)
H5 H 0.48720 0.91610 0.16310
C10 C 0.58572(11) 0.84894(16) 0.26221(12)
N2 N 0.67858(12) 0.94614(17) 0.23931(14)
C11 C 0.50760(12) 0.66797(17) 0.35564(11)
H6 H 0.51210 0.60680 0.40470
C12 C 0.59531(12) 0.75936(18) 0.33457(12)
H7 H 0.65930 0.75990 0.36880
C13 C 0.17201(11) 0.72952(17) 0.38256(10)
C14 C 0.00466(13) 0.87481(18) 0.39395(12)
H8 H -0.06480 0.90270 0.37340
C15 C 0.04870(17) 0.9355(2) 0.46964(12)
H9 H 0.00820 1.00590 0.50020
C16 C 0.15221(18) 0.8943(2) 0.50155(12)
H10 H 0.17920 0.93800 0.55270
C17 C 0.21597(15) 0.7898(2) 0.45897(12)
H11 H 0.28480 0.76150 0.48050
N3 N 0.04580(9) 0.69552(13) 0.27105(8)
C18 C 0.25258(12) 0.42866(16) 0.18940(12)
N4 N 0.31937(10) 0.43533(14) 0.26336(11)
H12 H 0.36270 0.36250 0.27390
C19 C 0.27362(14) 0.32708(19) 0.12158(14)
H13 H 0.33770 0.27070 0.12300
C20 C 0.19961(18) 0.3108(2) 0.05307(13)
H14 H 0.21410 0.24250 0.00890
#END
