
#######################################################################
#
#                 Cambridge Crystallographic Data Centre
#                                CCDC
#
#######################################################################
#
# If this CIF has been generated from an entry in the Cambridge
# Structural Database, then it will include bibliographic, chemical,
# crystal, experimental, refinement or atomic coordinate data resulting
# from the CCDC's data processing and validation procedures.
#
#######################################################################

data_CSD_CIF_XOQMAT
_audit_creation_date 2014-11-20
_audit_creation_method CSD-ConQuest-V1
_database_code_CSD XOQMAT
_database_code_depnum_ccdc_archive 'CCDC 1001621'
_chemical_formula_sum 'C40 H42 N2 O6'
_chemical_formula_moiety
;
C40 H42 N2 O6
;
_journal_coden_Cambridge 1326
_journal_volume 17
_journal_year 2015
_journal_page_first 983
_journal_name_full 'Phys.Chem.Chem.Phys.(PCCP) '
loop_
_publ_author_name
"P.Ravat"
"M.Baumgarten"
_chemical_name_systematic
;
N,N'-((4,5,9,10-tetramethoxypyrene-2,7-diyl)bis(4,1-phenylene))bis(N-oxy-t-but
ylamine) biradical
;
_cell_volume   3290.552
_exptl_crystal_colour 'red'
_exptl_crystal_density_diffrn 1.305
_exptl_special_details
;
Magnetic properties

;
_exptl_crystal_description 'prism'
_exptl_crystal_preparation 'dichloromethane'
_diffrn_ambient_temperature 120
#These two values have been output from a single CSD field.
_refine_ls_R_factor_gt 0.0664
_refine_ls_wR_factor_gt 0.0664
_symmetry_cell_setting monoclinic
_symmetry_space_group_name_H-M 'C 2/c'
_symmetry_Int_Tables_number 15
loop_
_symmetry_equiv_pos_site_id
_symmetry_equiv_pos_as_xyz
1 x,y,z
2 1/2+x,1/2+y,z
3 -x,y,1/2-z
4 1/2-x,1/2+y,1/2-z
5 -x,-y,-z
6 -1/2-x,-1/2-y,-z
7 x,-y,-1/2+z
8 -1/2+x,-1/2-y,-1/2+z
_cell_length_a 18.1306(8)
_cell_length_b 11.2298(3)
_cell_length_c 17.6135(8)
_cell_angle_alpha 90
_cell_angle_beta 113.4267(18)
_cell_angle_gamma 90
_cell_formula_units_Z 4
loop_
_atom_type_symbol
_atom_type_radius_bond
C 0.68
H 0.23
N 0.68
O 0.68
loop_
_atom_site_label
_atom_site_type_symbol
_atom_site_fract_x
_atom_site_fract_y
_atom_site_fract_z
N1 N 0.24533(16) 0.9536(2) 0.18086(14)
O1 O 0.45989(11) 1.23163(15) 0.66464(12)
O2 O 0.45899(12) 0.58238(16) 0.66448(11)
O3 O 0.2472(2) 1.0601(2) 0.15709(16)
C1 C 0.47893(15) 0.9064(2) 0.70588(15)
C2 C 0.45867(16) 1.0162(2) 0.66229(16)
C3 C 0.41811(16) 1.0145(2) 0.57631(16)
C4 C 0.39920(16) 0.9076(2) 0.53203(15)
C5 C 0.41786(16) 0.7993(2) 0.57541(15)
C6 C 0.45704(15) 0.7981(2) 0.66196(15)
C7 C 0.47871(16) 0.6881(2) 0.70810(16)
C8 C 0.48109(16) 1.1261(2) 0.70833(17)
C9 C 0.36103(16) 0.9124(2) 0.44060(15)
C10 C 0.37977(17) 1.0041(2) 0.39765(17)
C11 C 0.34301(17) 1.0134(2) 0.31292(17)
C12 C 0.28529(17) 0.9312(2) 0.26713(16)
C13 C 0.26849(17) 0.8341(2) 0.30746(17)
C14 C 0.30576(16) 0.8267(2) 0.39373(16)
C15 C 0.20145(18) 0.8625(3) 0.11527(17)
C16 C 0.1894(2) 0.9180(3) 0.03195(19)
C17 C 0.11995(18) 0.8364(3) 0.11672(19)
C18 C 0.25463(19) 0.7523(3) 0.12860(19)
C19 C 0.52474(19) 1.2827(3) 0.6483(2)
C20 C 0.39577(18) 0.5181(3) 0.6751(2)
H1 H 0.40420 1.08780 0.54680
H2 H 0.40380 0.72670 0.54530
H3 H 0.41990 1.06160 0.42820
H4 H 0.35840 1.07540 0.28470
H5 H 0.23320 0.77270 0.27660
H6 H 0.29320 0.76190 0.42170
H7 H 0.16330 0.86520 -0.01110
H8 H 0.15770 0.99000 0.02400
H9 H 0.24030 0.94110 0.03150
H10 H 0.09200 0.77800 0.07630
H11 H 0.08950 0.90740 0.10610
H12 H 0.12720 0.80670 0.17020
H13 H 0.22850 0.69340 0.08720
H14 H 0.30460 0.77240 0.12530
H15 H 0.26580 0.71810 0.18160
H16 H 0.50650 1.35440 0.61740
H17 H 0.56880 1.29960 0.69830
H18 H 0.54070 1.22810 0.61630
H19 H 0.38610 0.44600 0.64490
H20 H 0.41050 0.50140 0.73220
H21 H 0.34840 0.56560 0.65540
N1B N 0.75467(16) 0.9536(2) 1.31914(14)
O1B O 0.54011(11) 1.23163(15) 0.83536(12)
O2B O 0.54101(12) 0.58238(16) 0.83552(11)
O3B O 0.7528(2) 1.0601(2) 1.34291(16)
C1B C 0.52107(15) 0.9064(2) 0.79412(15)
C2B C 0.54133(16) 1.0162(2) 0.83771(16)
C3B C 0.58189(16) 1.0145(2) 0.92369(16)
C4B C 0.60080(16) 0.9076(2) 0.96797(15)
C5B C 0.58214(16) 0.7993(2) 0.92459(15)
C6B C 0.54296(15) 0.7981(2) 0.83804(15)
C7B C 0.52129(16) 0.6881(2) 0.79190(16)
C8B C 0.51891(16) 1.1261(2) 0.79167(17)
C9B C 0.63897(16) 0.9124(2) 1.05940(15)
C10B C 0.62023(17) 1.0041(2) 1.10235(17)
C11B C 0.65699(17) 1.0134(2) 1.18708(17)
C12B C 0.71471(17) 0.9312(2) 1.23287(16)
C13B C 0.73151(17) 0.8341(2) 1.19254(17)
C14B C 0.69424(16) 0.8267(2) 1.10627(16)
C15B C 0.79855(18) 0.8625(3) 1.38473(17)
C16B C 0.8106(2) 0.9180(3) 1.46805(19)
C17B C 0.88005(18) 0.8364(3) 1.38328(19)
C18B C 0.74537(19) 0.7523(3) 1.37140(19)
C19B C 0.47526(19) 1.2827(3) 0.8517(2)
C20B C 0.60423(18) 0.5181(3) 0.8249(2)
H1B H 0.59580 1.08780 0.95320
H2B H 0.59620 0.72670 0.95470
H3B H 0.58010 1.06160 1.07180
H4B H 0.64160 1.07540 1.21530
H5B H 0.76680 0.77270 1.22340
H6B H 0.70680 0.76190 1.07830
H7B H 0.83670 0.86520 1.51110
H8B H 0.84230 0.99000 1.47600
H9B H 0.75970 0.94110 1.46850
H10B H 0.90800 0.77800 1.42370
H11B H 0.91050 0.90740 1.39390
H12B H 0.87280 0.80670 1.32980
H13B H 0.77150 0.69340 1.41280
H14B H 0.69540 0.77240 1.37470
H15B H 0.73420 0.71810 1.31840
H16B H 0.49350 1.35440 0.88260
H17B H 0.43120 1.29960 0.80170
H18B H 0.45930 1.22810 0.88370
H19B H 0.61390 0.44600 0.85510
H20B H 0.58950 0.50140 0.76780
H21B H 0.65160 0.56560 0.84460
#END
