
#######################################################################
#
#                 Cambridge Crystallographic Data Centre
#                                CCDC
#
#######################################################################
#
# If this CIF has been generated from an entry in the Cambridge
# Structural Database, then it will include bibliographic, chemical,
# crystal, experimental, refinement or atomic coordinate data resulting
# from the CCDC's data processing and validation procedures.
#
#######################################################################

data_CSD_CIF_XOQMEX
_audit_creation_date 2014-11-20
_audit_creation_method CSD-ConQuest-V1
_database_code_CSD XOQMEX
_database_code_depnum_ccdc_archive 'CCDC 1001622'
_chemical_formula_sum 'C26 H30 N2 O2'
_chemical_formula_moiety
;
C26 H30 N2 O2
;
_journal_coden_Cambridge 1326
_journal_volume 17
_journal_year 2015
_journal_page_first 983
_journal_name_full 'Phys.Chem.Chem.Phys.(PCCP) '
loop_
_publ_author_name
"P.Ravat"
"M.Baumgarten"
_chemical_name_systematic
;
N,N'-([1,1':4',1''-terphenyl]-4,4''-diyl)bis(N-oxy-t-butylamine) biradical
;
_cell_volume   1056.788
_exptl_crystal_colour 'dark red'
_exptl_crystal_density_diffrn 1.265
_exptl_special_details
;
Magnetic properties

;
_exptl_crystal_description 'plate'
_exptl_crystal_preparation 'dichloromethane'
_diffrn_ambient_temperature 120
#These two values have been output from a single CSD field.
_refine_ls_R_factor_gt 0.0505
_refine_ls_wR_factor_gt 0.0505
_symmetry_cell_setting monoclinic
_symmetry_space_group_name_H-M 'P 21/a'
_symmetry_Int_Tables_number 14
loop_
_symmetry_equiv_pos_site_id
_symmetry_equiv_pos_as_xyz
1 x,y,z
2 1/2-x,1/2+y,-z
3 -x,-y,-z
4 -1/2+x,-1/2-y,z
_cell_length_a 8.8404(2)
_cell_length_b 8.9886(3)
_cell_length_c 13.3460(4)
_cell_angle_alpha 90
_cell_angle_beta 94.802(2)
_cell_angle_gamma 90
_cell_formula_units_Z 2
loop_
_atom_type_symbol
_atom_type_radius_bond
C 0.68
H 0.23
N 0.68
O 0.68
loop_
_atom_site_label
_atom_site_type_symbol
_atom_site_fract_x
_atom_site_fract_y
_atom_site_fract_z
O1 O 1.06551(11) 0.66135(12) 0.59817(7)
N1 N 1.08158(11) 0.55079(12) 0.65985(7)
C1 C 0.72396(13) 0.61083(14) 0.77868(9)
C2 C 0.51601(14) 0.62856(13) 0.94414(8)
C3 C 0.87671(14) 0.44248(15) 0.88271(9)
C4 C 0.61929(13) 0.51187(13) 0.93490(8)
C5 C 0.60067(14) 0.38323(13) 0.99251(9)
C6 C 0.83616(13) 0.61845(14) 0.71240(9)
C7 C 0.97123(13) 0.53696(13) 0.73001(8)
C8 C 0.74089(13) 0.52228(13) 0.86567(8)
C9 C 0.99015(14) 0.44802(15) 0.81686(9)
C10 C 1.33087(14) 0.46577(15) 0.73997(10)
C11 C 1.15436(16) 0.28600(15) 0.64059(11)
C12 C 1.21280(13) 0.44603(14) 0.65006(9)
C13 C 1.28492(17) 0.48789(17) 0.55391(10)
H1 H 0.63320 0.66650 0.76510
H2 H 0.52590 0.71700 0.90620
H3 H 0.89130 0.38250 0.94130
H4 H 0.66930 0.30260 0.98800
H5 H 0.82170 0.67960 0.65430
H6 H 1.08050 0.39170 0.83030
H7 H 1.41360 0.40000 0.73350
H8 H 1.36650 0.56550 0.74200
H9 H 1.28530 0.44400 0.80030
H10 H 1.23720 0.22040 0.63420
H11 H 1.10550 0.26080 0.69900
H12 H 1.08410 0.27740 0.58300
H13 H 1.36830 0.42370 0.54560
H14 H 1.31950 0.58790 0.55860
H15 H 1.21200 0.47800 0.49790
O1B O -0.06551(11) 0.33865(12) 1.40183(7)
N1B N -0.08158(11) 0.44921(12) 1.34015(7)
C1B C 0.27604(13) 0.38917(14) 1.22132(9)
C2B C 0.48399(14) 0.37144(13) 1.05586(8)
C3B C 0.12329(14) 0.55752(15) 1.11729(9)
C4B C 0.38071(13) 0.48813(13) 1.06510(8)
C5B C 0.39933(14) 0.61677(13) 1.00749(9)
C6B C 0.16384(13) 0.38155(14) 1.28760(9)
C7B C 0.02877(13) 0.46304(13) 1.26999(8)
C8B C 0.25911(13) 0.47772(13) 1.13433(8)
C9B C 0.00985(14) 0.55198(15) 1.18314(9)
C10B C -0.33087(14) 0.53423(15) 1.26003(10)
C11B C -0.15436(16) 0.71400(15) 1.35941(11)
C12B C -0.21280(13) 0.55397(14) 1.34994(9)
C13B C -0.28492(17) 0.51211(17) 1.44609(10)
H1B H 0.36680 0.33350 1.23490
H2B H 0.47410 0.28300 1.09380
H3B H 0.10870 0.61750 1.05870
H4B H 0.33070 0.69740 1.01200
H5B H 0.17830 0.32040 1.34570
H6B H -0.08050 0.60830 1.16970
H7B H -0.41360 0.60000 1.26650
H8B H -0.36650 0.43450 1.25800
H9B H -0.28530 0.55600 1.19970
H10B H -0.23720 0.77960 1.36580
H11B H -0.10550 0.73920 1.30100
H12B H -0.08410 0.72260 1.41700
H13B H -0.36830 0.57630 1.45440
H14B H -0.31950 0.41210 1.44140
H15B H -0.21200 0.52200 1.50210
#END
