
#######################################################################
#
#                 Cambridge Crystallographic Data Centre
#                                CCDC
#
#######################################################################
#
# If this CIF has been generated from an entry in the Cambridge
# Structural Database, then it will include bibliographic, chemical,
# crystal, experimental, refinement or atomic coordinate data resulting
# from the CCDC's data processing and validation procedures.
#
#######################################################################

data_CSD_CIF_XOQVII
_audit_creation_date 2002-10-24
_audit_creation_method CSD-ConQuest-V1
_database_code_CSD XOQVII
_chemical_formula_sum 'C18 H29 N3 O2'
_chemical_formula_moiety
;
C18 H29 N3 O2
;
_journal_coden_Cambridge 1336
_journal_volume 3
_journal_year 2001
_journal_page_first 4165
_journal_name_full 'Org.Lett. '
loop_
_publ_author_name
"H.Takayama"
"K.Katakawa"
"M.Kitajima"
"H.Seki"
"K.Yamaguchi"
"N.Aimi"
_chemical_name_systematic
;
Lycoposerramine A
;
_cell_volume   1660.355
_exptl_crystal_density_diffrn 1.278
_exptl_special_details
;
The unit cell length a was reported as 8.721 in the paper. We have used 8.782 
from the supplementary information
;
_exptl_crystal_description 'prism'
_diffrn_ambient_temperature ?
_diffrn_special_details
;
The study was carried out at room temperature,in the range 283-303K

;
#These two values have been output from a single CSD field.
_refine_ls_R_factor_gt 0.039
_refine_ls_wR_factor_gt 0.039
_chemical_compound_source
;
club moss Lycopodium serratum Thunb
;
_symmetry_cell_setting orthorhombic
_symmetry_space_group_name_H-M 'P 21 21 21'
_symmetry_Int_Tables_number 19
loop_
_symmetry_equiv_pos_site_id
_symmetry_equiv_pos_as_xyz
1 x,y,z
2 1/2-x,-y,1/2+z
3 1/2+x,1/2-y,-z
4 -x,1/2+y,1/2-z
_cell_length_a 8.782(1)
_cell_length_b 9.711(2)
_cell_length_c 19.469(3)
_cell_angle_alpha 90
_cell_angle_beta 90
_cell_angle_gamma 90
_cell_formula_units_Z 4
loop_
_atom_type_symbol
_atom_type_radius_bond
C 0.68
H 0.23
N 0.68
O 0.68
loop_
_atom_site_label
_atom_site_type_symbol
_atom_site_fract_x
_atom_site_fract_y
_atom_site_fract_z
O1 O 0.1966(3) 0.1677(3) 0.76853(12)
O2 O 0.1972(3) 0.3132(3) 0.8578(1)
N1 N 0.2927(4) 0.6796(3) 0.6170(2)
N2 N 0.0524(4) 0.3541(3) 0.7604(2)
N3 N 0.1114(3) 0.1519(3) 0.7041(2)
C1 C 0.4110(5) 0.5886(4) 0.5886(2)
C2 C 0.4718(4) 0.4888(4) 0.6432(2)
C3 C 0.3488(4) 0.4068(4) 0.6810(2)
C4 C 0.2452(4) 0.3216(4) 0.6333(2)
C5 C 0.2213(4) 0.1655(4) 0.6466(2)
C6 C 0.1286(5) 0.1239(4) 0.5836(2)
C7 C 0.0212(5) 0.2501(4) 0.5720(2)
C8 C -0.1477(5) 0.2152(4) 0.5713(2)
C9 C 0.1645(5) 0.7030(4) 0.5698(2)
C10 C 0.0736(5) 0.5724(4) 0.5565(2)
C11 C 0.0175(4) 0.4999(4) 0.6225(2)
C12 C 0.0705(4) 0.3499(4) 0.6303(2)
C13 C 0.0124(4) 0.2813(4) 0.6981(2)
C14 C -0.1561(4) 0.2444(4) 0.6982(2)
C15 C -0.1997(4) 0.1511(4) 0.6381(2)
C16 C -0.3702(4) 0.1171(4) 0.6380(2)
C17 C 0.3590(5) 0.8100(4) 0.6404(2)
C18 C 0.1514(5) 0.2863(4) 0.8015(2)
H1 H 0.36300 0.53200 0.54730
H2 H 0.48960 0.64250 0.57010
H3 H 0.52660 0.53660 0.67650
H4 H 0.55560 0.43100 0.61860
H5 H 0.39770 0.35020 0.71330
H6 H 0.28660 0.46660 0.70860
H7 H 0.29160 0.32780 0.58540
H8 H 0.31450 0.10480 0.65760
H9 H 0.07160 0.03880 0.59070
H10 H 0.19790 0.10790 0.54250
H11 H 0.04430 0.28730 0.52530
H12 H -0.17370 0.16020 0.52840
H13 H -0.20210 0.30080 0.56450
H14 H 0.20400 0.73560 0.52390
H15 H 0.10110 0.78160 0.59420
H16 H 0.13550 0.51080 0.52460
H17 H -0.01290 0.59370 0.52940
H18 H 0.05480 0.54840 0.66380
H19 H -0.09480 0.50140 0.62600
H20 H -0.18610 0.20530 0.74050
H21 H -0.21230 0.33490 0.69300
H22 H -0.14710 0.06120 0.64400
H23 H -0.40180 0.08310 0.68380
H24 H -0.38340 0.05650 0.59700
H25 H -0.43380 0.19810 0.63010
H26 H 0.45280 0.79290 0.67750
H27 H 0.40880 0.86180 0.59900
H28 H 0.29200 0.84650 0.65330
H29 H 0.00980 0.43200 0.77550
#END
