
#######################################################################
#
#                 Cambridge Crystallographic Data Centre
#                                CCDC
#
#######################################################################
#
# If this CIF has been generated from an entry in the Cambridge
# Structural Database, then it will include bibliographic, chemical,
# crystal, experimental, refinement or atomic coordinate data resulting
# from the CCDC's data processing and validation procedures.
#
#######################################################################

data_CSD_CIF_XORDUD
_audit_creation_date 2002-10-24
_audit_creation_method CSD-ConQuest-V1
_database_code_CSD XORDUD
_chemical_formula_sum 'C20 H15 N1 O4'
_chemical_formula_moiety
;
C20 H15 N1 O4
;
_journal_coden_Cambridge 151
_journal_volume 45
_journal_year 2002
_journal_page_first 177
_journal_name_full 'J.Med.Chem. '
loop_
_publ_author_name
"J.Ohkanda"
"J.W.Lockman"
"M.A.Kothare"
"Yimin Qian"
"M.A.Blaskovich"
"S.M.Sebti"
"A.D.Hamilton"
_chemical_name_systematic
;
4-Nitro-2-phenyl-3'-(methoxycarbonyl)biphenyl
;
_cell_volume    800.992
_exptl_crystal_colour 'colorless'
_exptl_crystal_density_diffrn 1.382
_exptl_crystal_description 'block'
_diffrn_ambient_temperature 183.15
#These two values have been output from a single CSD field.
_refine_ls_R_factor_gt 0.036
_refine_ls_wR_factor_gt 0.036
_symmetry_cell_setting triclinic
_symmetry_space_group_name_H-M 'P -1'
_symmetry_Int_Tables_number 2
loop_
_symmetry_equiv_pos_site_id
_symmetry_equiv_pos_as_xyz
1 x,y,z
2 -x,-y,-z
_cell_length_a 9.5537(1)
_cell_length_b 9.7090(1)
_cell_length_c 10.0313(4)
_cell_angle_alpha 103.255(3)
_cell_angle_beta 92.283(3)
_cell_angle_gamma 116.327(2)
_cell_formula_units_Z 2
loop_
_atom_type_symbol
_atom_type_radius_bond
C 0.68
H 0.23
N 0.68
O 0.68
loop_
_atom_site_label
_atom_site_type_symbol
_atom_site_fract_x
_atom_site_fract_y
_atom_site_fract_z
O1 O 0.8407(1) 1.0164(1) 0.02123(9)
O2 O 0.8716(1) 0.9972(1) -0.19394(9)
O3 O 0.6522(1) -0.1763(1) -0.51607(10)
O4 O 0.8118(1) 0.0767(1) -0.51600(9)
N1 N 0.8327(1) 0.9383(1) -0.0968(1)
C1 C 0.7759(2) 0.7658(1) -0.1227(1)
C2 C 0.7176(2) 0.6681(2) -0.2566(1)
C3 C 0.6708(2) 0.5074(2) -0.2767(1)
C4 C 0.6844(2) 0.4443(1) -0.1674(1)
C5 C 0.7446(1) 0.5468(1) -0.0313(1)
C6 C 0.7888(2) 0.7087(2) -0.0109(1)
C7 C 0.7721(2) 0.4963(1) 0.0929(1)
C8 C 0.8490(2) 0.4032(2) 0.0915(1)
C9 C 0.8847(2) 0.3698(2) 0.2115(1)
C10 C 0.8425(2) 0.4269(2) 0.3346(1)
C11 C 0.7644(2) 0.5179(2) 0.3369(2)
C12 C 0.7300(2) 0.5528(2) 0.2173(1)
C13 C 0.6328(2) 0.2692(1) -0.2034(1)
C14 C 0.5243(2) 0.1693(2) -0.1360(1)
C15 C 0.4700(2) 0.0051(2) -0.1799(1)
C16 C 0.5241(2) -0.0604(2) -0.2899(1)
C17 C 0.6353(2) 0.0381(1) -0.3562(1)
C18 C 0.6886(2) 0.2024(2) -0.3126(1)
C19 C 0.6975(2) -0.0343(2) -0.4704(1)
C20 C 0.8796(2) 0.0205(2) -0.6285(2)
H1 H 0.706(2) 0.711(1) -0.333(1)
H2 H 0.627(2) 0.435(2) -0.366(1)
H3 H 0.836(2) 0.786(2) 0.082(1)
H4 H 0.882(2) 0.366(2) 0.009(1)
H5 H 0.942(2) 0.304(2) 0.208(1)
H6 H 0.863(2) 0.398(2) 0.417(2)
H7 H 0.736(2) 0.558(2) 0.419(2)
H8 H 0.674(2) 0.612(2) 0.216(1)
H9 H 0.484(2) 0.216(2) -0.060(1)
H10 H 0.391(2) -0.060(2) -0.134(1)
H11 H 0.483(2) -0.176(2) -0.325(1)
H12 H 0.769(2) 0.274(2) -0.357(1)
H13 H 0.901(2) -0.064(2) -0.614(2)
H14 H 0.805(2) -0.018(2) -0.717(2)
H15 H 0.973(2) 0.115(2) -0.636(2)
#END
