
#######################################################################
#
#                 Cambridge Crystallographic Data Centre
#                                CCDC
#
#######################################################################
#
# If this CIF has been generated from an entry in the Cambridge
# Structural Database, then it will include bibliographic, chemical,
# crystal, experimental, refinement or atomic coordinate data resulting
# from the CCDC's data processing and validation procedures.
#
#######################################################################

data_CSD_CIF_XOTCIU
_audit_creation_date 2014-11-20
_audit_creation_method CSD-ConQuest-V1
_database_code_CSD XOTCIU
_database_code_depnum_ccdc_archive 'CCDC 950752'
_chemical_formula_sum 'C28 H34 N2 O6'
_chemical_formula_moiety
;
C28 H34 N2 O6
;
_journal_coden_Cambridge 1220
_journal_volume 20
_journal_year 2014
_journal_page_first 12041
_journal_name_full 'Chem.-Eur.J. '
loop_
_publ_author_name
"P.Ravat"
"Yoshio Teki"
"Y.Ito"
"E.Gorelik"
"M.Baumgarten"
_chemical_name_systematic
;
(4,5,9,10-tetramethoxypyrene-2,7-bis(t-butylnitroxide)) biradical
;
_cell_volume   2618.225
_exptl_crystal_colour 'dark red'
_exptl_crystal_density_diffrn 1.255
_exptl_crystal_description 'prism'
_diffrn_ambient_temperature 120
#These two values have been output from a single CSD field.
_refine_ls_R_factor_gt 0.0497
_refine_ls_wR_factor_gt 0.0497
_symmetry_cell_setting monoclinic
_symmetry_space_group_name_H-M 'C 2/c'
_symmetry_Int_Tables_number 15
loop_
_symmetry_equiv_pos_site_id
_symmetry_equiv_pos_as_xyz
1 x,y,z
2 1/2+x,1/2+y,z
3 -x,y,1/2-z
4 1/2-x,1/2+y,1/2-z
5 -x,-y,-z
6 -1/2-x,-1/2-y,-z
7 x,-y,-1/2+z
8 -1/2+x,-1/2-y,-1/2+z
_cell_length_a 23.1335(9)
_cell_length_b 10.9524(5)
_cell_length_c 10.8030(7)
_cell_angle_alpha 90
_cell_angle_beta 106.950(3)
_cell_angle_gamma 90
_cell_formula_units_Z 4
loop_
_atom_type_symbol
_atom_type_radius_bond
C 0.68
H 0.23
N 0.68
O 0.68
loop_
_atom_site_label
_atom_site_type_symbol
_atom_site_fract_x
_atom_site_fract_y
_atom_site_fract_z
N1 N 0.19017(6) 0.21425(12) 0.60660(12)
O1 O 0.05553(5) 0.54092(10) 0.34493(11)
O2 O 0.05423(5) -0.12496(9) 0.34758(10)
O3 O 0.21263(6) 0.32108(11) 0.64009(12)
C1 C 0.02713(7) 0.43294(13) 0.29650(14)
C2 C 0.05616(6) 0.32032(13) 0.35072(13)
C3 C 0.10993(6) 0.31947(13) 0.45083(13)
C4 C 0.13669(6) 0.20821(13) 0.50336(13)
C5 C 0.10954(6) 0.09689(13) 0.45231(13)
C6 C 0.05553(6) 0.09632(12) 0.35171(13)
C7 C 0.02750(6) 0.20830(13) 0.29999(13)
C8 C 0.02642(6) -0.01630(12) 0.29908(13)
C9 C 0.08520(8) 0.59547(15) 0.2589(2)
C10 C 0.03313(8) -0.17325(14) 0.45058(15)
C11 C 0.22187(7) 0.10686(14) 0.68627(14)
C12 C 0.27543(8) 0.15676(18) 0.79355(16)
C13 C 0.24656(7) 0.01963(16) 0.60280(16)
C14 C 0.17843(7) 0.04325(16) 0.74847(15)
H1 H 0.12890 0.39430 0.48430
H2 H 0.12810 0.02190 0.48640
H3 H 0.10420 0.66920 0.29600
H4 H 0.05620 0.61270 0.17830
H5 H 0.11480 0.54090 0.24570
H6 H 0.05360 -0.24760 0.48070
H7 H 0.04120 -0.11600 0.51950
H8 H -0.00910 -0.18790 0.41970
H9 H 0.29640 0.09130 0.84520
H10 H 0.26130 0.21180 0.84620
H11 H 0.30200 0.19840 0.75550
H12 H 0.26630 -0.04700 0.65420
H13 H 0.27450 0.06220 0.56940
H14 H 0.21430 -0.01010 0.53320
H15 H 0.19820 -0.02420 0.79850
H16 H 0.16610 0.09940 0.80290
H17 H 0.14400 0.01520 0.68280
N1B N -0.19017(6) 0.21425(12) -0.10660(12)
O1B O -0.05553(5) 0.54092(10) 0.15507(11)
O2B O -0.05423(5) -0.12496(9) 0.15242(10)
O3B O -0.21263(6) 0.32108(11) -0.14009(12)
C1B C -0.02713(7) 0.43294(13) 0.20350(14)
C2B C -0.05616(6) 0.32032(13) 0.14928(13)
C3B C -0.10993(6) 0.31947(13) 0.04917(13)
C4B C -0.13669(6) 0.20821(13) -0.00336(13)
C5B C -0.10954(6) 0.09689(13) 0.04769(13)
C6B C -0.05553(6) 0.09632(12) 0.14829(13)
C7B C -0.02750(6) 0.20830(13) 0.20001(13)
C8B C -0.02642(6) -0.01630(12) 0.20092(13)
C9B C -0.08520(8) 0.59547(15) 0.2411(2)
C10B C -0.03313(8) -0.17325(14) 0.04942(15)
C11B C -0.22187(7) 0.10686(14) -0.18627(14)
C12B C -0.27543(8) 0.15676(18) -0.29355(16)
C13B C -0.24656(7) 0.01963(16) -0.10280(16)
C14B C -0.17843(7) 0.04325(16) -0.24847(15)
H1B H -0.12890 0.39430 0.01570
H2B H -0.12810 0.02190 0.01360
H3B H -0.10420 0.66920 0.20400
H4B H -0.05620 0.61270 0.32170
H5B H -0.11480 0.54090 0.25430
H6B H -0.05360 -0.24760 0.01930
H7B H -0.04120 -0.11600 -0.01950
H8B H 0.00910 -0.18790 0.08030
H9B H -0.29640 0.09130 -0.34520
H10B H -0.26130 0.21180 -0.34620
H11B H -0.30200 0.19840 -0.25550
H12B H -0.26630 -0.04700 -0.15420
H13B H -0.27450 0.06220 -0.06940
H14B H -0.21430 -0.01010 -0.03320
H15B H -0.19820 -0.02420 -0.29850
H16B H -0.16610 0.09940 -0.30290
H17B H -0.14400 0.01520 -0.18280
#END
