
#######################################################################
#
#                 Cambridge Crystallographic Data Centre
#                                CCDC
#
#######################################################################
#
# If this CIF has been generated from an entry in the Cambridge
# Structural Database, then it will include bibliographic, chemical,
# crystal, experimental, refinement or atomic coordinate data resulting
# from the CCDC's data processing and validation procedures.
#
#######################################################################

data_CSD_CIF_XOTJUN
_audit_creation_date 2014-11-20
_audit_creation_method CSD-ConQuest-V1
_database_code_CSD XOTJUN
_database_code_depnum_ccdc_archive 'CCDC 929654'
_chemical_formula_sum 'C22 H19 N5 O2'
_chemical_formula_moiety
;
C22 H19 N5 O2
;
_journal_coden_Cambridge 315
_journal_volume 136
_journal_year 2015
_journal_page_first 1001
_journal_name_full 'Spectrochim.Acta,Part A '
loop_
_publ_author_name
"Tao Tao"
"Yin-Ge Wang"
"Yuan Dai"
"Hui-Fen Qian"
"Wei Huang"
_chemical_name_systematic
;
3-(benzyl(4-((4-nitrophenyl)diazenyl)phenyl)amino)propanenitrile
;
_cell_volume   1840.850
_exptl_crystal_colour 'orange'
_exptl_crystal_density_diffrn 1.391
_exptl_crystal_description 'block'
_diffrn_ambient_temperature 291
#These two values have been output from a single CSD field.
_refine_ls_R_factor_gt 0.0405
_refine_ls_wR_factor_gt 0.0405
_symmetry_cell_setting monoclinic
_symmetry_space_group_name_H-M 'P 21/c'
_symmetry_Int_Tables_number 14
loop_
_symmetry_equiv_pos_site_id
_symmetry_equiv_pos_as_xyz
1 x,y,z
2 -x,1/2+y,1/2-z
3 -x,-y,-z
4 x,-1/2-y,-1/2+z
_cell_length_a 15.890(3)
_cell_length_b 7.2728(15)
_cell_length_c 20.744(3)
_cell_angle_alpha 90
_cell_angle_beta 129.835(9)
_cell_angle_gamma 90
_cell_formula_units_Z 4
loop_
_atom_type_symbol
_atom_type_radius_bond
C 0.68
H 0.23
N 0.68
O 0.68
loop_
_atom_site_label
_atom_site_type_symbol
_atom_site_fract_x
_atom_site_fract_y
_atom_site_fract_z
C1 C -0.24080(14) 0.1553(2) 0.50675(11)
C2 C -0.29565(14) 0.0616(2) 0.43168(11)
H1 H -0.36270 0.00510 0.40680
C3 C -0.24782(14) 0.0543(2) 0.39444(11)
H2 H -0.28310 -0.00830 0.34400
C4 C -0.14857(13) 0.1388(2) 0.43142(11)
C5 C -0.09513(14) 0.2348(2) 0.50700(11)
H3 H -0.02890 0.29370 0.53140
C6 C -0.14112(14) 0.2416(2) 0.54498(11)
H4 H -0.10580 0.30340 0.59560
C7 C 0.03061(14) 0.1945(2) 0.38654(11)
C8 C -0.00809(13) 0.0894(2) 0.31573(11)
H5 H -0.07280 0.02290 0.28840
C9 C 0.04852(13) 0.0838(2) 0.28636(10)
H6 H 0.02110 0.01380 0.23900
C10 C 0.14758(13) 0.1820(2) 0.32648(10)
C11 C 0.18565(14) 0.2887(2) 0.39767(11)
H7 H 0.25000 0.35620 0.42530
C12 C 0.12754(14) 0.2929(2) 0.42614(11)
H8 H 0.15380 0.36340 0.47310
C13 C 0.28577(13) 0.3172(2) 0.32236(11)
H9 H 0.26550 0.43020 0.33420
H10 H 0.28470 0.34050 0.27580
C14 C 0.40230(13) 0.2623(2) 0.39991(11)
H11 H 0.40450 0.24570 0.44740
H12 H 0.42130 0.14600 0.38930
C15 C 0.48244(14) 0.4013(2) 0.42060(11)
C16 C 0.16878(14) 0.0516(2) 0.22838(11)
H13 H 0.10850 0.10940 0.17600
H14 H 0.14140 -0.06140 0.23390
C17 C 0.25800(13) 0.0049(2) 0.22436(11)
C18 C 0.25756(14) 0.0799(2) 0.16272(11)
H15 H 0.20160 0.15960 0.12320
C19 C 0.34002(14) 0.0370(2) 0.15939(11)
H16 H 0.33920 0.08830 0.11790
C20 C 0.42311(14) -0.0821(2) 0.21774(12)
H17 H 0.47880 -0.11010 0.21610
C21 C 0.42289(15) -0.1595(2) 0.27873(12)
H18 H 0.47830 -0.24040 0.31780
C22 C 0.34088(14) -0.1171(2) 0.28175(11)
H19 H 0.34100 -0.17070 0.32250
N1 N -0.28849(12) 0.16289(18) 0.54780(9)
N2 N -0.10489(11) 0.11814(19) 0.38941(9)
N3 N -0.01834(11) 0.21072(18) 0.42358(9)
N4 N 0.20525(11) 0.17453(18) 0.29813(9)
N5 N 0.54575(12) 0.5098(2) 0.43612(10)
O1 O -0.37249(10) 0.07425(16) 0.51692(8)
O2 O -0.24231(10) 0.25760(16) 0.61145(8)
#END
