
#######################################################################
#
#                 Cambridge Crystallographic Data Centre
#                                CCDC
#
#######################################################################
#
# If this CIF has been generated from an entry in the Cambridge
# Structural Database, then it will include bibliographic, chemical,
# crystal, experimental, refinement or atomic coordinate data resulting
# from the CCDC's data processing and validation procedures.
#
#######################################################################

data_CSD_CIF_XOTJOH
_audit_creation_date 2014-11-20
_audit_creation_method CSD-ConQuest-V1
_database_code_CSD XOTJOH
_database_code_depnum_ccdc_archive 'CCDC 929655'
_chemical_formula_sum 'C20 H22 N4 O6'
_chemical_formula_moiety
;
C20 H22 N4 O6
;
_journal_coden_Cambridge 315
_journal_volume 136
_journal_year 2015
_journal_page_first 1001
_journal_name_full 'Spectrochim.Acta,Part A '
loop_
_publ_author_name
"Tao Tao"
"Yin-Ge Wang"
"Yuan Dai"
"Hui-Fen Qian"
"Wei Huang"
_chemical_name_systematic
;
((4-((4-nitrophenyl)diazenyl)phenyl)imino)diethane-2,1-diyl diacetate
;
_cell_volume   1010.818
_exptl_crystal_colour 'orange'
_exptl_crystal_density_diffrn 1.362
_exptl_crystal_description 'block'
_diffrn_ambient_temperature 291
#These two values have been output from a single CSD field.
_refine_ls_R_factor_gt 0.0752
_refine_ls_wR_factor_gt 0.0752
_symmetry_cell_setting triclinic
_symmetry_space_group_name_H-M 'P -1'
_symmetry_Int_Tables_number 2
loop_
_symmetry_equiv_pos_site_id
_symmetry_equiv_pos_as_xyz
1 x,y,z
2 -x,-y,-z
_cell_length_a 7.589(2)
_cell_length_b 7.761(2)
_cell_length_c 17.382(5)
_cell_angle_alpha 82.290(5)
_cell_angle_beta 86.314(5)
_cell_angle_gamma 86.322(5)
_cell_formula_units_Z 2
loop_
_atom_type_symbol
_atom_type_radius_bond
C 0.68
H 0.23
N 0.68
O 0.68
loop_
_atom_site_label
_atom_site_type_symbol
_atom_site_fract_x
_atom_site_fract_y
_atom_site_fract_z
C1 C -0.2249(4) 0.7703(5) 0.58331(19)
C2 C -0.0574(5) 0.7091(6) 0.5993(2)
H1 H -0.02680 0.67100 0.65000
C3 C 0.0678(5) 0.7056(6) 0.5358(3)
H2 H 0.18410 0.66560 0.54400
C4 C 0.0159(6) 0.7624(5) 0.4609(2)
C5 C -0.1547(6) 0.8192(6) 0.4490(2)
H3 H -0.18880 0.85460 0.39860
C6 C -0.2751(6) 0.8248(6) 0.5095(2)
H4 H -0.39110 0.86540 0.50100
C7 C 0.3861(5) 0.7092(5) 0.3302(2)
C8 C 0.5512(5) 0.6295(5) 0.3404(2)
H5 H 0.57910 0.57590 0.38960
C9 C 0.6766(4) 0.6269(5) 0.27977(19)
H6 H 0.78680 0.57110 0.28890
C10 C 0.6423(4) 0.7064(4) 0.20446(18)
C11 C 0.4721(4) 0.7856(4) 0.1935(2)
H7 H 0.44300 0.83750 0.14420
C12 C 0.3480(4) 0.7873(5) 0.2549(2)
H8 H 0.23670 0.84110 0.24640
C13 C 0.9572(4) 0.6671(4) 0.1570(2)
H9 H 0.97640 0.67400 0.21120
H10 H 1.02700 0.75370 0.12570
C14 C 1.0237(4) 0.4896(4) 0.1384(2)
H11 H 0.99790 0.47590 0.08570
H12 H 1.15060 0.47430 0.14310
C15 C 0.9724(4) 0.1945(4) 0.18581(18)
C16 C 0.8706(5) 0.0790(5) 0.24624(19)
H13 H 0.81410 -0.00500 0.22190
H14 H 0.78240 0.14810 0.27240
H15 H 0.94970 0.01980 0.28330
C17 C 0.7311(5) 0.7681(4) 0.06329(18)
H16 H 0.60750 0.75070 0.05740
H17 H 0.80090 0.69460 0.03050
C18 C 0.7657(4) 0.9562(4) 0.03418(18)
H18 H 0.88550 0.98000 0.04410
H19 H 0.75190 0.97950 -0.02140
C19 C 0.6470(4) 1.2372(4) 0.05680(17)
C20 C 0.5170(5) 1.3337(5) 0.1056(2)
H20 H 0.57450 1.36590 0.14870
H21 H 0.42200 1.26070 0.12460
H22 H 0.47070 1.43670 0.07490
N1 N -0.3585(5) 0.7806(5) 0.6481(2)
N2 N 0.1294(5) 0.7681(5) 0.38713(18)
N3 N 0.2718(4) 0.7028(4) 0.4027(2)
N4 N 0.7709(3) 0.7107(3) 0.14394(14)
O1 O -0.3114(5) 0.7356(6) 0.71350(18)
O2 O -0.5073(5) 0.8304(6) 0.6331(2)
O3 O 0.9344(3) 0.3632(3) 0.19330(12)
O4 O 1.0766(3) 0.1474(3) 0.13716(14)
O5 O 0.6401(3) 1.0652(3) 0.07472(12)
O6 O 0.7468(4) 1.3037(3) 0.00649(15)
#END
