
#######################################################################
#
#                 Cambridge Crystallographic Data Centre
#                                CCDC
#
#######################################################################
#
# If this CIF has been generated from an entry in the Cambridge
# Structural Database, then it will include bibliographic, chemical,
# crystal, experimental, refinement or atomic coordinate data resulting
# from the CCDC's data processing and validation procedures.
#
#######################################################################

data_CSD_CIF_XOTQEE
_audit_creation_date 2014-11-20
_audit_creation_method CSD-ConQuest-V1
_database_code_CSD XOTQEE
_database_code_depnum_ccdc_archive 'CCDC 1035314'
_chemical_formula_sum 'C35 H25 N5 O8'
_chemical_formula_moiety
;
C35 H25 N5 O8
;
_journal_coden_Cambridge 24
_journal_volume 57
_journal_year 2016
_journal_page_first 163
_journal_name_full 'Tetrahedron Lett. '
loop_
_publ_author_name
"F.Rouatbi"
"M.Askri"
"F.Nana"
"G.Kirsch"
"D.Sriram"
"P.Yogeeswari"
_chemical_name_systematic
;
5''-nitro-3-(4-nitrobenzylidene)-1'-(4-nitrophenyl)-5',6',7',7a'-tetrahydro-1'
H-dispiro[indene-1,2'-pyrrolizine-3',3''-indole]-2,2''(1''H,3H)-dione
;
_chemical_melting_point 402.15
_cell_volume   1459.144
_exptl_crystal_colour 'brown'
_exptl_crystal_density_diffrn 1.465
_exptl_crystal_description 'prismatic'
_exptl_crystal_preparation 'cyclohexane'
_diffrn_ambient_temperature 100
#These two values have been output from a single CSD field.
_refine_ls_R_factor_gt 0.0427
_refine_ls_wR_factor_gt 0.0427
_symmetry_cell_setting triclinic
_symmetry_space_group_name_H-M 'P -1'
_symmetry_Int_Tables_number 2
loop_
_symmetry_equiv_pos_site_id
_symmetry_equiv_pos_as_xyz
1 x,y,z
2 -x,-y,-z
_cell_length_a 7.6673(3)
_cell_length_b 8.7388(3)
_cell_length_c 24.2080(9)
_cell_angle_alpha 80.740(3)
_cell_angle_beta 83.587(2)
_cell_angle_gamma 65.875(1)
_cell_formula_units_Z 2
loop_
_atom_type_symbol
_atom_type_radius_bond
C 0.68
H 0.23
N 0.68
O 0.68
loop_
_atom_site_label
_atom_site_type_symbol
_atom_site_fract_x
_atom_site_fract_y
_atom_site_fract_z
O1 O 0.18773(17) 0.34501(15) 0.49813(4)
O2 O 0.2723(2) 1.5595(2) -0.04018(7)
O3 O 0.0485(2) 1.64281(17) 0.02456(6)
O4 O 0.26098(13) 1.02803(12) 0.24196(4)
O5 O 0.06501(17) 0.36005(15) 0.41999(5)
O6 O 0.42062(15) 1.24672(12) 0.29777(4)
O7 O 1.31927(16) 0.67610(15) 0.10306(5)
O8 O 1.31711(16) 0.55987(14) 0.18908(5)
N1 N 0.15602(18) 0.40219(16) 0.44855(5)
N2 N 0.1957(2) 1.5366(2) 0.00576(6)
N3 N 0.59104(16) 1.21275(14) 0.21264(5)
H1 H 0.52230 1.31020 0.19370
N4 N 1.24869(16) 0.67690(15) 0.15127(5)
C1 C 0.23332(19) 0.52651(17) 0.42247(6)
C2 C 0.2969(2) 0.6041(2) 0.45633(6)
H2 H 0.28740 0.58030 0.49600
C3 C 0.3750(2) 0.7178(2) 0.43105(6)
H3 H 0.41790 0.77320 0.45380
C4 C 0.39174(18) 0.75242(16) 0.37246(5)
C5 C 0.47449(18) 0.88000(16) 0.34646(5)
H4 H 0.36790 0.99470 0.34540
C6 C 0.56400(18) 0.86010(15) 0.28619(5)
C7 C 0.42554(18) 0.92737(15) 0.23821(5)
C8 C 0.53233(17) 0.83440(16) 0.18940(5)
C9 C 0.54073(19) 0.88993(17) 0.13408(5)
H5 H 0.62350 0.80610 0.11170
C10 C 0.4439(2) 1.05732(18) 0.10274(5)
C11 C 0.5290(2) 1.0936(2) 0.05044(6)
H6 H 0.64260 1.00930 0.03670
C12 C 0.4493(2) 1.2506(2) 0.01874(6)
H7 H 0.50720 1.27470 -0.01650
C13 C 0.2844(2) 1.3708(2) 0.03950(6)
C14 C 0.2774(2) 1.18368(19) 0.12196(6)
H8 H 0.21810 1.16130 0.15710
C15 C 0.1967(2) 1.3413(2) 0.09075(6)
H9 H 0.08390 1.42700 0.10430
N5 N 0.77067(16) 0.92112(14) 0.33544(4)
C16 C 0.6361(2) 0.88208(17) 0.37905(5)
H10 H 0.70410 0.76730 0.39980
C17 C 0.24422(19) 0.55910(17) 0.36456(6)
H11 H 0.19800 0.50540 0.34210
C18 C 0.32412(19) 0.67201(17) 0.34014(5)
H12 H 0.33290 0.69500 0.30040
C19 C 0.5847(2) 1.0148(2) 0.41890(6)
H13 H 0.55020 0.97280 0.45720
H14 H 0.47790 1.12100 0.40530
C20 C 0.7722(3) 1.0398(2) 0.41712(6)
H15 H 0.86750 0.94670 0.44070
H16 H 0.75000 1.14870 0.42990
C21 C 0.8380(2) 1.03867(19) 0.35493(6)
H17 H 0.77980 1.15320 0.33400
H18 H 0.97900 0.99800 0.35020
C22 C 0.82602(18) 0.94822(16) 0.23082(5)
C23 C 0.75653(18) 1.09231(16) 0.19098(5)
C24 C 0.54749(19) 1.16132(16) 0.26736(6)
C25 C 0.8464(2) 1.10224(17) 0.13807(6)
H19 H 0.79840 1.20090 0.11170
C26 C 1.0087(2) 0.96255(17) 0.12524(5)
H20 H 1.07200 0.96310 0.08920
C27 C 1.07823(18) 0.82179(16) 0.16541(5)
C28 C 0.99006(18) 0.81188(16) 0.21900(5)
H21 H 1.04140 0.71520 0.24600
C29 C 0.68826(17) 0.68420(15) 0.27220(5)
C30 C 0.66863(18) 0.67205(16) 0.21637(5)
C31 C 0.77326(19) 0.52206(17) 0.19352(6)
H22 H 0.75780 0.51230 0.15600
C32 C 0.9011(2) 0.38687(17) 0.22714(6)
H23 H 0.97380 0.28370 0.21230
C33 C 0.92429(19) 0.40032(17) 0.28213(6)
H24 H 1.01470 0.30730 0.30390
C34 C 0.81651(18) 0.54847(16) 0.30548(6)
H25 H 0.83010 0.55690 0.34330
C35 C 0.68700(18) 0.97064(15) 0.28141(5)
#END
