
#######################################################################
#
#                 Cambridge Crystallographic Data Centre
#                                CCDC
#
#######################################################################
#
# If this CIF has been generated from an entry in the Cambridge
# Structural Database, then it will include bibliographic, chemical,
# crystal, experimental, refinement or atomic coordinate data resulting
# from the CCDC's data processing and validation procedures.
#
#######################################################################

data_CSD_CIF_XOVCES
_audit_creation_date 2014-11-21
_audit_creation_method CSD-ConQuest-V1
_database_code_CSD XOVCES
_database_code_depnum_ccdc_archive 'CCDC 978901'
_chemical_formula_sum 'C11 H17 N1 O5'
_chemical_formula_moiety
;
C11 H17 N1 O5
;
_journal_coden_Cambridge 156
_journal_volume 398
_journal_year 2014
_journal_page_first 13
_journal_name_full 'Carbohydr.Res. '
loop_
_publ_author_name
"A.Panda"
"S.Das"
"Shantanu Pal"
_chemical_name_systematic
;
(3aR,5S,5aS,8aS)-8a-(hydroxymethyl)-7,7-dimethyl-3,3a,4,5,5a,8a-hexahydro-[1,3
]dioxolo[4',5':5,6]benzo[1,2-c]isoxazol-5-ol
;
_chemical_name_common
;
8a-(hydroxymethyl)-7,7-dimethyl-3,3a,4,5,5a,8a-hexahydro[1,3]dioxolo[4,5-g][2,
1]benzoxazol-5-ol
;
_chemical_melting_point 415
_cell_volume   1153.067
_exptl_crystal_density_diffrn 1.401
_exptl_crystal_preparation 'Hexane, ethylacetate'
_diffrn_ambient_temperature 296
#These two values have been output from a single CSD field.
_refine_ls_R_factor_gt 0.028
_refine_ls_wR_factor_gt 0.028
_symmetry_cell_setting orthorhombic
_symmetry_space_group_name_H-M 'P 21 21 21'
_symmetry_Int_Tables_number 19
loop_
_symmetry_equiv_pos_site_id
_symmetry_equiv_pos_as_xyz
1 x,y,z
2 1/2-x,-y,1/2+z
3 -x,1/2+y,1/2-z
4 1/2+x,1/2-y,-z
_cell_length_a 9.1590(8)
_cell_length_b 10.7826(9)
_cell_length_c 11.6757(11)
_cell_angle_alpha 90
_cell_angle_beta 90
_cell_angle_gamma 90
_cell_formula_units_Z 4
loop_
_atom_type_symbol
_atom_type_radius_bond
C 0.68
H 0.23
N 0.68
O 0.68
loop_
_atom_site_label
_atom_site_type_symbol
_atom_site_fract_x
_atom_site_fract_y
_atom_site_fract_z
O1 O 0.92997(12) 0.48579(10) 0.06499(9)
O2 O 1.04373(12) 0.3613(1) 0.1942(1)
O3 O 0.74227(12) 0.68434(10) 0.08070(11)
H1 H 0.80590 0.73770 0.07840
O4 O 1.02451(13) 0.36186(12) 0.44042(10)
H2 H 0.95040 0.34570 0.47690
O5 O 0.63348(15) 0.21610(12) 0.27253(14)
C1 C 0.91255(16) 0.54317(13) 0.17344(14)
H3 H 0.99020 0.60440 0.18480
N1 N 0.78272(16) 0.24711(12) 0.25667(14)
C2 C 0.93754(16) 0.43190(14) 0.25431(13)
C3 C 0.79694(17) 0.36274(14) 0.26897(13)
C4 C 0.76425(16) 0.60770(14) 0.17829(15)
H4 H 0.76210 0.66040 0.24660
C5 C 1.04714(19) 0.40043(16) 0.07707(15)
C6 C 0.65886(17) 0.43302(15) 0.28831(15)
H5 H 0.66450 0.48150 0.35920
C7 C 0.99900(19) 0.46714(17) 0.37055(15)
H6 H 1.09000 0.51180 0.36000
H7 H 0.93100 0.52210 0.40900
C8 C 0.63761(17) 0.51744(15) 0.18548(16)
H8 H 0.63280 0.46830 0.11600
H9 H 0.54660 0.56270 0.19310
C9 C 0.5528(2) 0.32555(17) 0.30160(18)
H10 H 0.51740 0.32070 0.37980
H11 H 0.47000 0.33570 0.25070
C10 C 1.0176(3) 0.2919(2) 0.00083(19)
H12 H 1.09470 0.23220 0.00880
H13 H 1.01270 0.31930 -0.07730
H14 H 0.92640 0.25440 0.02200
C11 C 1.1916(2) 0.4632(2) 0.0541(2)
H15 H 1.19930 0.53650 0.10040
H16 H 1.19760 0.48560 -0.02540
H17 H 1.26990 0.40750 0.07270
#END
