
#######################################################################
#
#                 Cambridge Crystallographic Data Centre
#                                CCDC
#
#######################################################################
#
# If this CIF has been generated from an entry in the Cambridge
# Structural Database, then it will include bibliographic, chemical,
# crystal, experimental, refinement or atomic coordinate data resulting
# from the CCDC's data processing and validation procedures.
#
#######################################################################

data_CSD_CIF_XOWMAY
_audit_creation_date 2009-09-22
_audit_creation_method CSD-ConQuest-V1
_database_code_CSD XOWMAY
_database_code_depnum_ccdc_archive 'CCDC 276200'
_chemical_formula_sum 'C14 H12 N2 O2'
_chemical_formula_moiety
;
C14 H12 N2 O2
;
_journal_coden_Cambridge 945
_journal_volume 37
_journal_year 2007
_journal_page_first 482
_journal_name_full 'Henan Daxue Xuebao,Ziran Kexueban(Chin.)(J.Henan Univ.(Nat.Sci.)) '
loop_
_publ_author_name
"Mei Xu"
"Qi Yuan"
_chemical_name_systematic
;
2-(Benzoylmethyliminomethyl)pyridine-N-oxide
;
_cell_volume   1166.025
_exptl_crystal_colour 'red'
_exptl_crystal_density_diffrn 1.374
_exptl_crystal_description 'prism'
_diffrn_ambient_temperature 294
#These two values have been output from a single CSD field.
_refine_ls_R_factor_gt 0.0734
_refine_ls_wR_factor_gt 0.0734
_symmetry_cell_setting monoclinic
_symmetry_space_group_name_H-M 'P 21/n'
_symmetry_Int_Tables_number 14
loop_
_symmetry_equiv_pos_site_id
_symmetry_equiv_pos_as_xyz
1 x,y,z
2 1/2-x,1/2+y,1/2-z
3 -x,-y,-z
4 -1/2+x,-1/2-y,-1/2+z
_cell_length_a 8.1496(11)
_cell_length_b 15.562(2)
_cell_length_c 9.5460(14)
_cell_angle_alpha 90
_cell_angle_beta 105.607(3)
_cell_angle_gamma 90
_cell_formula_units_Z 4
loop_
_atom_type_symbol
_atom_type_radius_bond
C 0.68
H 0.23
N 0.68
O 0.68
loop_
_atom_site_label
_atom_site_type_symbol
_atom_site_fract_x
_atom_site_fract_y
_atom_site_fract_z
O1 O 0.5708(2) 0.35708(10) 0.17731(18)
O2 O 0.7974(2) 0.48081(10) 0.52896(19)
N1 N 0.4268(3) 0.37811(12) 0.0743(2)
N2 N 0.5367(2) 0.5046(1) 0.29269(17)
C1 C 0.3592(3) 0.31864(14) -0.0343(3)
H1 H 0.41230 0.26570 -0.03330
C2 C 0.2144(3) 0.33707(15) -0.1436(3)
H2 H 0.17040 0.29640 -0.21520
C3 C 0.1344(3) 0.41551(16) -0.1475(2)
H3 H 0.03790 0.42840 -0.22220
C4 C 0.1996(3) 0.47458(14) -0.0390(2)
H4 H 0.14530 0.52730 -0.04080
C5 C 0.3455(2) 0.45703(12) 0.0736(2)
C6 C 0.4097(3) 0.52121(12) 0.1865(2)
H5 H 0.35730 0.57720 0.17190
C7 C 0.5933(2) 0.56863(10) 0.39457(18)
H6 H 0.55480 0.62720 0.37850
H7 H 0.51170 0.55470 0.44760
C8 C 0.7297(3) 0.55054(13) 0.5092(2)
C9 C 0.7900(2) 0.62483(12) 0.6097(2)
C10 C 0.9599(3) 0.62613(13) 0.6899(2)
H8 H 1.03300 0.58210 0.67990
C11 C 1.0189(3) 0.69277(14) 0.7838(2)
H9 H 1.13280 0.69250 0.83680
C12 C 0.9202(2) 0.75865(11) 0.80315(19)
H10 H 0.96350 0.80360 0.86650
C13 C 0.7575(3) 0.75618(13) 0.7271(2)
H11 H 0.68680 0.80060 0.74020
C14 C 0.6868(3) 0.69193(13) 0.6298(2)
H12 H 0.57220 0.69360 0.57890
#END
