
#######################################################################
#
#                 Cambridge Crystallographic Data Centre
#                                CCDC
#
#######################################################################
#
# If this CIF has been generated from an entry in the Cambridge
# Structural Database, then it will include bibliographic, chemical,
# crystal, experimental, refinement or atomic coordinate data resulting
# from the CCDC's data processing and validation procedures.
#
#######################################################################

data_CSD_CIF_XOWNEE
_audit_creation_date 2014-11-22
_audit_creation_method CSD-ConQuest-V1
_database_code_CSD XOWNEE
_database_code_depnum_ccdc_archive 'CCDC 1030847'
_chemical_formula_sum 'C10 H9 N1 O3'
_chemical_formula_moiety
;
C10 H9 N1 O3
;
_journal_coden_Cambridge 182
_journal_volume 51
_journal_year 2015
_journal_page_first 668
_journal_name_full 'Chem.Commun. '
loop_
_publ_author_name
"Jingjing Shi"
"Jie Zhou"
"Yunnan Yan"
"Jinlong Jia"
"Xuelei Liu"
"Huacan Song"
"H.Eric Xu"
"Wei Yi"
_chemical_name_systematic
;
2-Methoxyisoquinoline-1,3(2H,4H)-dione
;
_cell_volume    882.621
_exptl_crystal_colour 'white'
_exptl_crystal_density_diffrn 1.439
_exptl_crystal_description 'plate'
_diffrn_ambient_temperature 296
#These two values have been output from a single CSD field.
_refine_ls_R_factor_gt 0.0415
_refine_ls_wR_factor_gt 0.0415
_symmetry_cell_setting monoclinic
_symmetry_space_group_name_H-M 'P 21/c'
_symmetry_Int_Tables_number 14
loop_
_symmetry_equiv_pos_site_id
_symmetry_equiv_pos_as_xyz
1 x,y,z
2 -x,1/2+y,1/2-z
3 -x,-y,-z
4 x,-1/2-y,-1/2+z
_cell_length_a 9.3511(2)
_cell_length_b 11.4869(3)
_cell_length_c 8.4156(2)
_cell_angle_alpha 90
_cell_angle_beta 102.475(2)
_cell_angle_gamma 90
_cell_formula_units_Z 4
loop_
_atom_type_symbol
_atom_type_radius_bond
C 0.68
H 0.23
N 0.68
O 0.68
loop_
_atom_site_label
_atom_site_type_symbol
_atom_site_fract_x
_atom_site_fract_y
_atom_site_fract_z
O1 O 0.01366(10) 0.79659(10) -0.01900(13)
O2 O 0.26774(13) 0.72907(12) -0.07358(16)
O3 O 0.01246(11) 0.95556(10) 0.20481(16)
N1 N 0.14310(11) 0.85002(10) 0.05931(15)
C1 C 0.66959(16) 0.96408(16) 0.2628(2)
H1 H 0.75760 0.99740 0.31590
C2 C 0.53942(17) 1.00639(14) 0.2912(2)
H2 H 0.54020 1.06820 0.36280
C3 C 0.40632(14) 0.95678(12) 0.21295(17)
C4 C 0.40864(14) 0.86489(12) 0.10706(17)
C5 C 0.27138(15) 0.80827(13) 0.02130(17)
C6 C -0.00949(18) 0.69041(14) 0.0623(2)
H3 H 0.05940 0.63270 0.04390
H4 H -0.10730 0.66290 0.02040
H5 H 0.00400 0.70470 0.17700
C7 C 0.67083(16) 0.87297(17) 0.1567(2)
H6 H 0.75920 0.84530 0.13810
C8 C 0.54055(16) 0.82281(15) 0.0780(2)
H7 H 0.54070 0.76140 0.00610
C9 C 0.26443(15) 1.00432(13) 0.2396(2)
H8 H 0.25200 1.08200 0.19350
H9 H 0.27220 1.01200 0.35600
C10 C 0.12869(14) 0.93600(11) 0.17095(18)
#END
