
#######################################################################
#
#                 Cambridge Crystallographic Data Centre
#                                CCDC
#
#######################################################################
#
# If this CIF has been generated from an entry in the Cambridge
# Structural Database, then it will include bibliographic, chemical,
# crystal, experimental, refinement or atomic coordinate data resulting
# from the CCDC's data processing and validation procedures.
#
#######################################################################

data_CSD_CIF_XOYYOA
_audit_creation_date 2009-09-22
_audit_creation_method CSD-ConQuest-V1
_database_code_CSD XOYYOA
_database_code_depnum_ccdc_archive 'CCDC 744308'
_chemical_formula_sum 'C9 H9 N3 O2'
_chemical_formula_moiety
;
C9 H9 N3 O2
;
_journal_coeditor_code "IUCr HK2724"
_journal_coden_Cambridge 1370
_journal_volume 65
_journal_year 2009
_journal_page_first o1775
_journal_name_full 'Acta Crystallogr.,Sect.E:Struct.Rep.Online '
loop_
_publ_author_name
"Yan Chen"
"Zheng Fang"
"Ping Wei"
_chemical_name_systematic
;
2,3-Dimethyl-6-nitro-2H-indazole
;
_cell_volume    444.811
_exptl_crystal_colour 'colorless'
_exptl_crystal_density_diffrn 1.427
_exptl_crystal_description 'block'
_exptl_crystal_preparation 'methanol'
_diffrn_ambient_temperature 294
#These two values have been output from a single CSD field.
_refine_ls_R_factor_gt 0.0536
_refine_ls_wR_factor_gt 0.0536
_symmetry_cell_setting triclinic
_symmetry_space_group_name_H-M 'P -1'
_symmetry_Int_Tables_number 2
loop_
_symmetry_equiv_pos_site_id
_symmetry_equiv_pos_as_xyz
1 x,y,z
2 -x,-y,-z
_cell_length_a 6.5800(13)
_cell_length_b 7.2050(14)
_cell_length_c 10.752(2)
_cell_angle_alpha 75.07(3)
_cell_angle_beta 74.67(3)
_cell_angle_gamma 66.73(3)
_cell_formula_units_Z 2
loop_
_atom_type_symbol
_atom_type_radius_bond
C 0.68
H 0.23
N 0.68
O 0.68
loop_
_atom_site_label
_atom_site_type_symbol
_atom_site_fract_x
_atom_site_fract_y
_atom_site_fract_z
O1 O 0.2155(5) 0.7495(5) -0.3831(2)
O2 O -0.1339(4) 0.7845(4) -0.33747(19)
N1 N -0.2315(3) 0.7731(3) 0.25319(18)
N2 N -0.3309(3) 0.7997(3) 0.15107(18)
N3 N 0.0392(4) 0.7648(3) -0.3051(2)
C1 C -0.3707(5) 0.7880(5) 0.3829(2)
H1 H -0.51440 0.89410 0.37580
H2 H -0.29790 0.82020 0.43680
H3 H -0.39150 0.65940 0.42180
C2 C 0.1367(5) 0.6977(4) 0.3176(3)
H4 H 0.04560 0.70870 0.40320
H5 H 0.20980 0.79710 0.29290
H6 H 0.24820 0.56250 0.31860
C3 C -0.0080(4) 0.7362(3) 0.2216(2)
C4 C -0.1582(3) 0.7777(3) 0.0489(2)
C5 C -0.1637(4) 0.7888(3) -0.0830(2)
H7 H -0.29660 0.81600 -0.11080
C6 C 0.0376(4) 0.7573(3) -0.1678(2)
C7 C 0.2431(4) 0.7224(4) -0.1315(2)
H8 H 0.37410 0.70570 -0.19430
C8 C 0.2482(4) 0.7134(3) -0.0049(2)
H9 H 0.38190 0.69100 0.02040
C9 C 0.0474(3) 0.7388(3) 0.0874(2)
#END
