
#######################################################################
#
#                 Cambridge Crystallographic Data Centre
#                                CCDC
#
#######################################################################
#
# If this CIF has been generated from an entry in the Cambridge
# Structural Database, then it will include bibliographic, chemical,
# crystal, experimental, refinement or atomic coordinate data resulting
# from the CCDC's data processing and validation procedures.
#
#######################################################################

data_CSD_CIF_XOZFEY
_audit_creation_date 2009-09-22
_audit_creation_method CSD-ConQuest-V1
_database_code_CSD XOZFEY
_database_code_depnum_ccdc_archive 'CCDC 744484'
_chemical_formula_sum 'C29 H27 N3 O5'
_chemical_formula_moiety
;
C29 H27 N3 O5
;
_journal_coeditor_code "IUCr XU2558"
_journal_coden_Cambridge 1370
_journal_volume 65
_journal_year 2009
_journal_page_first o1996
_journal_name_full 'Acta Crystallogr.,Sect.E:Struct.Rep.Online '
loop_
_publ_author_name
"Jia-Lu Luo"
"Jin-Long Wu"
_chemical_name_systematic
;
N-Cyclohexyl-1,3-dimethyl-7-nitro-11-oxo-9H,11H-[1,4]benzoxazepino[2,3,4-de]ph
enanthridine-9-carboxamide
;
_chemical_name_common
;
N-Cyclohexyl-5H,7H-13,15-dimethyl-9-nitro-5-oxophenanthrido[4,4a,5-bc][1,4]ben
zoxazepine-7-carboxamide
;
_chemical_melting_point 555
_cell_volume   2452.141
_exptl_crystal_colour 'yellow'
_exptl_crystal_density_diffrn 1.348
_exptl_crystal_description 'chunk'
_exptl_crystal_preparation 'ethyl acetate/hexane'
_diffrn_ambient_temperature 296
#These two values have been output from a single CSD field.
_refine_ls_R_factor_gt 0.0505
_refine_ls_wR_factor_gt 0.0505
_symmetry_cell_setting monoclinic
_symmetry_space_group_name_H-M 'P 21/c'
_symmetry_Int_Tables_number 14
loop_
_symmetry_equiv_pos_site_id
_symmetry_equiv_pos_as_xyz
1 x,y,z
2 -x,1/2+y,1/2-z
3 -x,-y,-z
4 x,-1/2-y,-1/2+z
_cell_length_a 10.7451(4)
_cell_length_b 27.8791(7)
_cell_length_c 8.4917(3)
_cell_angle_alpha 90
_cell_angle_beta 105.428(13)
_cell_angle_gamma 90
_cell_formula_units_Z 4
loop_
_atom_type_symbol
_atom_type_radius_bond
C 0.68
H 0.23
N 0.68
O 0.68
loop_
_atom_site_label
_atom_site_type_symbol
_atom_site_fract_x
_atom_site_fract_y
_atom_site_fract_z
O1 O 0.52077(12) 0.14876(4) 0.75758(15)
N1 N 0.30895(13) 0.12575(5) 0.46737(17)
O2 O 0.53052(13) 0.12552(5) 0.37217(15)
C1 C 0.43278(17) 0.18313(6) 0.6721(2)
C2 C 0.32745(16) 0.17213(6) 0.5375(2)
N2 N 0.63285(14) 0.07287(6) 0.56536(19)
H1 H 0.62290 0.04980 0.62810
C3 C 0.27335(18) 0.25731(7) 0.5195(2)
C4 C 0.23969(17) 0.20945(6) 0.4689(2)
C5 C 0.40912(16) 0.07561(6) 0.7002(2)
O3 O 0.20934(15) 0.07613(5) 0.25999(19)
C6 C 0.46090(18) 0.22939(7) 0.7269(2)
C7 C 0.40183(16) 0.08658(6) 0.5246(2)
H2 H 0.36570 0.05810 0.46150
C8 C 0.76257(17) 0.08427(6) 0.5510(2)
H3 H 0.75860 0.08690 0.43470
C9 C 0.10767(18) 0.15002(7) 0.2797(2)
C10 C 0.38132(19) 0.26588(7) 0.6456(2)
H4 H 0.40190 0.29740 0.67790
C11 C 0.46631(17) 0.10965(7) 0.8143(2)
C12 C 0.52969(17) 0.09773(6) 0.4828(2)
C13 C 0.21089(18) 0.11460(7) 0.3296(2)
N3 N 0.3006(2) -0.01158(8) 0.9665(3)
C14 C 0.11937(18) 0.19597(7) 0.3490(2)
C15 C 0.35448(18) 0.03542(7) 0.7497(2)
H5 H 0.31500 0.01200 0.67490
C16 C 0.3602(2) 0.03099(8) 0.9136(3)
C17 C 0.4739(2) 0.10462(8) 0.9787(2)
H6 H 0.51510 0.12760 1.05400
O4 O 0.3241(2) -0.01856(7) 1.1134(2)
C18 C 0.4187(2) 0.06458(8) 1.0275(3)
H7 H 0.42110 0.06040 1.13690
C19 C -0.0059(2) 0.13491(9) 0.1673(3)
H8 H -0.01090 0.10430 0.12230
C20 C 0.2043(2) 0.30111(7) 0.4341(3)
H9 H 0.12880 0.30710 0.47120
H10 H 0.17930 0.29570 0.31830
H11 H 0.26090 0.32830 0.45850
C21 C 0.5782(2) 0.24052(8) 0.8644(3)
H12 H 0.58200 0.27440 0.88560
H13 H 0.65440 0.23070 0.83450
H14 H 0.57290 0.22360 0.96080
C22 C 0.8092(2) 0.13172(8) 0.6321(3)
H15 H 0.81130 0.13020 0.74690
H16 H 0.74980 0.15700 0.58190
C23 C 0.0090(2) 0.22515(8) 0.3054(3)
H17 H 0.01090 0.25530 0.35290
C24 C 1.0384(2) 0.10368(9) 0.6890(3)
H18 H 1.12230 0.11110 0.67280
H19 H 1.04750 0.10170 0.80550
C25 C 0.9917(2) 0.05620(8) 0.6100(3)
H20 H 1.05080 0.03110 0.66210
H21 H 0.99100 0.05730 0.49560
O5 O 0.2348(2) -0.03785(8) 0.8627(3)
C26 C 0.85656(19) 0.04450(8) 0.6240(3)
H22 H 0.82750 0.01460 0.56760
H23 H 0.85880 0.04030 0.73820
C27 C -0.1100(2) 0.16528(10) 0.1235(3)
H24 H -0.18510 0.15570 0.04700
C28 C -0.1020(2) 0.21008(10) 0.1942(3)
H25 H -0.17290 0.23050 0.16610
C29 C 0.9432(2) 0.14320(9) 0.6151(4)
H26 H 0.93970 0.14680 0.50040
H27 H 0.97250 0.17330 0.66960
H28? H 0.62430 0.21140 0.90170
H29? H 0.55180 0.25510 0.95280
H30? H 0.63330 0.26220 0.82650
#END
