
#######################################################################
#
#                 Cambridge Crystallographic Data Centre
#                                CCDC
#
#######################################################################
#
# If this CIF has been generated from an entry in the Cambridge
# Structural Database, then it will include bibliographic, chemical,
# crystal, experimental, refinement or atomic coordinate data resulting
# from the CCDC's data processing and validation procedures.
#
#######################################################################

data_CSD_CIF_XUBRAO
_audit_creation_date 2010-05-14
_audit_creation_method CSD-ConQuest-V1
_database_code_CSD XUBRAO
_database_code_depnum_ccdc_archive 'CCDC 738123'
_chemical_formula_sum 'C18 H20 N2 O2'
_chemical_formula_moiety
;
C18 H20 N2 O2
;
_journal_coeditor_code "IUCr NG2575"
_journal_coden_Cambridge 1370
_journal_volume 65
_journal_year 2009
_journal_page_first o1193
_journal_name_full 'Acta Crystallogr.,Sect.E:Struct.Rep.Online '
loop_
_publ_author_name
"Yu-Jie Ding"
"Zhu-Lian Xue"
"Wen-Kui Dong"
"Yin-Xia Sun"
"Jian-Chao Wu"
_chemical_name_systematic
;
4,4'-Dimethyl-1,1'-[ethylenedioxybis(nitrilomethylidyne)]dibenzene
;
_chemical_melting_point 359
_cell_volume    775.755
_exptl_crystal_colour 'colorless'
_exptl_crystal_density_diffrn 1.269
_exptl_special_details
;
Melting point range 359-360K

;
_exptl_crystal_description 'column'
_exptl_crystal_preparation 'diethyl ether'
_diffrn_ambient_temperature 298
#These two values have been output from a single CSD field.
_refine_ls_R_factor_gt 0.0505
_refine_ls_wR_factor_gt 0.0505
_symmetry_cell_setting monoclinic
_symmetry_space_group_name_H-M 'P 21/c'
_symmetry_Int_Tables_number 14
loop_
_symmetry_equiv_pos_site_id
_symmetry_equiv_pos_as_xyz
1 x,y,z
2 -x,1/2+y,1/2-z
3 -x,-y,-z
4 x,-1/2-y,-1/2+z
_cell_length_a 13.6946(12)
_cell_length_b 4.8196(9)
_cell_length_c 12.1644(11)
_cell_angle_alpha 90
_cell_angle_beta 104.936(1)
_cell_angle_gamma 90
_cell_formula_units_Z 2
loop_
_atom_type_symbol
_atom_type_radius_bond
C 0.68
H 0.23
N 0.68
O 0.68
loop_
_atom_site_label
_atom_site_type_symbol
_atom_site_fract_x
_atom_site_fract_y
_atom_site_fract_z
N1 N 0.87170(11) 0.4357(3) 0.55939(12)
O1 O 0.95570(9) 0.2523(3) 0.58336(10)
C1 C 0.95420(13) 0.0920(4) 0.48465(15)
H1 H 0.95680 0.21200 0.42140
H2 H 0.89310 -0.01870 0.46310
C2 C 0.86877(13) 0.5688(4) 0.64775(16)
H3 H 0.91800 0.53420 0.71480
C3 C 0.79062(13) 0.7762(4) 0.64868(15)
C4 C 0.71621(13) 0.8512(4) 0.55207(15)
H4 H 0.71480 0.76930 0.48250
C5 C 0.64425(14) 1.0474(4) 0.55907(16)
H5 H 0.59560 1.09710 0.49340
C6 C 0.64272(13) 1.1717(4) 0.66137(17)
C7 C 0.71769(15) 1.0973(4) 0.75725(16)
H6 H 0.71890 1.17840 0.82700
C8 C 0.79055(14) 0.9047(4) 0.75058(15)
H7 H 0.84060 0.86020 0.81580
C9 C 0.56330(16) 1.3823(4) 0.6689(2)
H8 H 0.59110 1.56560 0.67090
H9 H 0.54170 1.35070 0.73690
H10 H 0.50650 1.36470 0.60380
N1B N 1.12830(11) -0.4357(3) 0.44061(12)
O1B O 1.04430(9) -0.2523(3) 0.41664(10)
C1B C 1.04580(13) -0.0920(4) 0.51535(15)
H1B H 1.04320 -0.21200 0.57860
H2B H 1.10690 0.01870 0.53690
C2B C 1.13123(13) -0.5688(4) 0.35225(16)
H3B H 1.08200 -0.53420 0.28520
C3B C 1.20938(13) -0.7762(4) 0.35132(15)
C4B C 1.28379(13) -0.8512(4) 0.44793(15)
H4B H 1.28520 -0.76930 0.51750
C5B C 1.35575(14) -1.0474(4) 0.44093(16)
H5B H 1.40440 -1.09710 0.50660
C6B C 1.35728(13) -1.1717(4) 0.33863(17)
C7B C 1.28231(15) -1.0973(4) 0.24275(16)
H6B H 1.28110 -1.17840 0.17300
C8B C 1.20945(14) -0.9047(4) 0.24942(15)
H7B H 1.15940 -0.86020 0.18420
C9B C 1.43670(16) -1.3823(4) 0.3311(2)
H8B H 1.40890 -1.56560 0.32910
H9B H 1.45830 -1.35070 0.26310
H10B H 1.49350 -1.36470 0.39620
#END
