
#######################################################################
#
#                 Cambridge Crystallographic Data Centre
#                                CCDC
#
#######################################################################
#
# If this CIF has been generated from an entry in the Cambridge
# Structural Database, then it will include bibliographic, chemical,
# crystal, experimental, refinement or atomic coordinate data resulting
# from the CCDC's data processing and validation procedures.
#
#######################################################################

data_CSD_CIF_XUBZEZ
_audit_creation_date 2002-11-19
_audit_creation_method CSD-ConQuest-V1
_database_code_CSD XUBZEZ
_database_code_depnum_ccdc_archive 'CCDC 186704'
_chemical_formula_sum 'C17 H26 N2 O7'
_chemical_formula_moiety
;
C17 H26 N2 O7
;
_journal_coden_Cambridge 207
_journal_year 2002
_journal_page_first 1954
_journal_name_full 'J.Chem.Soc.,Perkin Trans.1 '
loop_
_publ_author_name
"T.Gunnlaugsson"
"H.Q.N.Gunaratne"
"M.Nieuwenhuyzen"
"J.P.Leonard"
_chemical_name_systematic
;
13-(2-Methoxy-4-nitrophenyl)-1,4,7,10-tetraoxa-13-azacyclopentadecane
;
_chemical_melting_point 348.15
_cell_volume    867.133
_exptl_crystal_colour 'yellow'
_exptl_crystal_density_diffrn 1.419
_exptl_special_details
;
Melting point range 348.15-349.15K

;
_exptl_crystal_description 'plate'
_diffrn_ambient_temperature 153
#These two values have been output from a single CSD field.
_refine_ls_R_factor_gt 0.064
_refine_ls_wR_factor_gt 0.064
_symmetry_cell_setting triclinic
_symmetry_space_group_name_H-M 'P -1'
_symmetry_Int_Tables_number 2
loop_
_symmetry_equiv_pos_site_id
_symmetry_equiv_pos_as_xyz
1 x,y,z
2 -x,-y,-z
_cell_length_a 8.696(3)
_cell_length_b 8.943(4)
_cell_length_c 12.098(5)
_cell_angle_alpha 83.932(6)
_cell_angle_beta 71.217(6)
_cell_angle_gamma 76.937(6)
_cell_formula_units_Z 2
loop_
_atom_type_symbol
_atom_type_radius_bond
C 0.68
H 0.23
N 0.68
O 0.68
loop_
_atom_site_label
_atom_site_type_symbol
_atom_site_fract_x
_atom_site_fract_y
_atom_site_fract_z
C1 C -0.3049(5) 0.4305(5) 0.3536(4)
H1 H -0.420(5) 0.387(4) 0.382(3)
H2 H -0.332(4) 0.523(4) 0.333(3)
C2 C -0.2644(5) 0.4320(5) 0.4653(4)
H3 H -0.316(4) 0.531(4) 0.504(3)
H4 H -0.143(5) 0.424(4) 0.451(3)
O1 O -0.3251(3) 0.3121(3) 0.5423(2)
C3 C -0.2901(6) 0.3067(5) 0.6493(4)
H5 H -0.322(5) 0.408(5) 0.671(4)
H6 H -0.161(6) 0.276(5) 0.625(4)
C4 C -0.3820(6) 0.2002(5) 0.7331(4)
H7 H -0.505(5) 0.225(4) 0.728(3)
H8 H -0.372(5) 0.202(4) 0.800(3)
O2 O -0.3128(3) 0.0477(3) 0.6962(2)
C5 C -0.4012(6) -0.0603(5) 0.7672(4)
H9 H -0.402(5) -0.059(5) 0.837(3)
H10 H -0.527(5) -0.020(4) 0.758(3)
C6 C -0.3272(6) -0.2159(5) 0.7171(4)
H11 H -0.195(5) -0.241(4) 0.699(3)
H12 H -0.383(6) -0.284(5) 0.751(4)
O3 O -0.3493(3) -0.2219(3) 0.6064(2)
C7 C -0.2145(5) -0.1872(5) 0.5116(4)
H13 H -0.164(4) -0.118(4) 0.536(3)
H14 H -0.150(5) -0.280(5) 0.484(4)
C8 C -0.2806(5) -0.1129(5) 0.4160(4)
H15 H -0.345(5) -0.175(5) 0.403(4)
H16 H -0.363(5) -0.009(5) 0.444(3)
O4 O -0.1484(3) -0.0860(3) 0.3153(2)
C9 C -0.1058(6) 0.0594(5) 0.3166(4)
H17 H -0.129(5) 0.086(4) 0.413(4)
H18 H 0.001(4) 0.051(4) 0.282(3)
C10 C -0.2112(6) 0.1812(5) 0.2614(4)
H19 H -0.342(5) 0.178(5) 0.325(4)
H20 H -0.197(5) 0.161(5) 0.206(3)
N1 N -0.1810(4) 0.3351(3) 0.2638(3)
C11 C -0.0472(5) 0.3936(4) 0.1924(3)
C12 C -0.0263(5) 0.5386(4) 0.2147(3)
H21 H -0.116(5) 0.597(4) 0.303(3)
C13 C 0.0993(5) 0.6075(5) 0.1414(3)
H22 H 0.107(5) 0.708(5) 0.172(3)
C14 C 0.2096(4) 0.5311(4) 0.0468(3)
C15 C 0.1989(5) 0.3869(4) 0.0226(3)
H23 H 0.271(5) 0.334(5) -0.044(4)
C16 C 0.0732(5) 0.3183(4) 0.0925(3)
O5 O 0.0573(3) 0.1766(3) 0.0709(2)
C17 C 0.1819(6) 0.0971(5) -0.0251(4)
H24 H 0.157(5) -0.008(5) -0.019(3)
H25 H 0.294(5) 0.082(4) -0.012(3)
H26 H 0.192(5) 0.149(5) -0.113(4)
N2 N 0.3397(4) 0.6017(4) -0.0325(3)
O6 O 0.3477(3) 0.7324(3) -0.0129(2)
O7 O 0.4390(3) 0.5280(3) -0.1166(2)
#END
