
#######################################################################
#
#                 Cambridge Crystallographic Data Centre
#                                CCDC
#
#######################################################################
#
# If this CIF has been generated from an entry in the Cambridge
# Structural Database, then it will include bibliographic, chemical,
# crystal, experimental, refinement or atomic coordinate data resulting
# from the CCDC's data processing and validation procedures.
#
#######################################################################

data_CSD_CIF_XUCSOD
_audit_creation_date 2002-12-18
_audit_creation_method CSD-ConQuest-V1
_database_code_CSD XUCSOD
_chemical_formula_sum 'C17 H19 N1 O10'
_chemical_formula_moiety
;
C17 H19 N1 O10
;
_journal_coden_Cambridge 35
_journal_volume 67
_journal_year 2002
_journal_page_first 4505
_journal_name_full 'J.Org.Chem. '
loop_
_publ_author_name
"C.S.Rye"
"S.G.Withers"
_chemical_name_systematic
;
Phenyl (5S)-2,3,4-tri-O-acetyl-5-nitro-\b-D-xylopyranoside
;
_cell_volume    953.738
_exptl_crystal_colour 'colorless'
_exptl_crystal_density_diffrn 1.383
_exptl_crystal_preparation 'ethanol'
_diffrn_ambient_temperature ?
_diffrn_special_details
;
The study was carried out at room temperature,in the range 283-303K

;
#These two values have been output from a single CSD field.
_refine_ls_R_factor_gt 0.037
_refine_ls_wR_factor_gt 0.037
_symmetry_cell_setting monoclinic
_symmetry_space_group_name_H-M 'P 21'
_symmetry_Int_Tables_number 4
loop_
_symmetry_equiv_pos_site_id
_symmetry_equiv_pos_as_xyz
1 x,y,z
2 -x,1/2+y,-z
_cell_length_a 9.5935(7)
_cell_length_b 8.6039(6)
_cell_length_c 11.6119(8)
_cell_angle_alpha 90
_cell_angle_beta 95.692(5)
_cell_angle_gamma 90
_cell_formula_units_Z 2
loop_
_atom_type_symbol
_atom_type_radius_bond
C 0.68
H 0.23
N 0.68
O 0.68
loop_
_atom_site_label
_atom_site_type_symbol
_atom_site_fract_x
_atom_site_fract_y
_atom_site_fract_z
O1 O 0.1954(1) 0.33140 0.2505(1)
O2 O 0.1504(1) 0.0646(2) 0.2402(1)
O3 O 0.1426(1) 0.3021(2) -0.0076(1)
O4 O 0.0068(2) 0.1816(3) -0.1491(1)
O5 O -0.1743(1) 0.2285(2) 0.0564(1)
O6 O -0.2739(2) 0.4556(3) -0.0003(2)
O7 O -0.1675(1) 0.4044(2) 0.2730(1)
O8 O -0.3230(2) 0.2110(3) 0.2759(2)
O9 O 0.0047(2) 0.2130(4) 0.4647(2)
O10 O 0.2088(2) 0.3071(4) 0.4811(2)
N1 N 0.0975(2) 0.2885(4) 0.4283(2)
C1 C 0.1871(2) 0.1958(3) 0.1792(2)
C2 C 0.0750(2) 0.2164(3) 0.0778(2)
C3 C -0.0523(2) 0.3048(3) 0.1122(2)
C4 C -0.0609(2) 0.2993(3) 0.2428(2)
C5 C 0.0756(2) 0.3592(3) 0.3051(2)
C6 C 0.2562(2) -0.0199(3) 0.3042(2)
C7 C 0.2116(2) -0.1554(3) 0.3528(2)
C8 C 0.3087(3) -0.2477(3) 0.4161(2)
C9 C 0.4483(3) -0.2073(3) 0.4291(2)
C10 C 0.4910(2) -0.0722(4) 0.3805(2)
C11 C 0.3949(2) 0.0242(3) 0.3178(2)
C12 C 0.1022(2) 0.2670(3) -0.1201(2)
C13 C 0.1918(3) 0.3490(4) -0.1979(2)
C14 C -0.2754(2) 0.3166(4) -0.0003(2)
C15 C -0.3858(3) 0.2158(5) -0.0617(3)
C16 C -0.2965(2) 0.3464(4) 0.2854(2)
C17 C -0.3940(3) 0.4731(4) 0.3090(3)
H1 H 0.27790 0.17820 0.14960
H2 H 0.04570 0.11430 0.04660
H3 H -0.04910 0.41300 0.08610
H4 H -0.08030 0.19340 0.26780
H5 H 0.06650 0.47200 0.31350
H6 H 0.11260 -0.18550 0.34250
H7 H 0.27800 -0.34310 0.45220
H8 H 0.51680 -0.27470 0.47290
H9 H 0.59030 -0.04330 0.39010
H10 H 0.42520 0.12150 0.28410
H11 H 0.26230 0.41110 -0.15140
H12 H 0.13360 0.41750 -0.25010
H13 H 0.23870 0.27260 -0.24330
H14 H -0.43030 0.15330 -0.00500
H15 H -0.34290 0.14680 -0.11540
H16 H -0.45640 0.28110 -0.10500
H17 H -0.48130 0.42840 0.33140
H18 H -0.35100 0.53820 0.37210
H19 H -0.41420 0.53650 0.23930
#END
