
#######################################################################
#
#                 Cambridge Crystallographic Data Centre
#                                CCDC
#
#######################################################################
#
# If this CIF has been generated from an entry in the Cambridge
# Structural Database, then it will include bibliographic, chemical,
# crystal, experimental, refinement or atomic coordinate data resulting
# from the CCDC's data processing and validation procedures.
#
#######################################################################

data_CSD_CIF_XUDMAM
_audit_creation_date 2015-04-06
_audit_creation_method CSD-ConQuest-V1
_database_code_CSD XUDMAM
_database_code_depnum_ccdc_archive 'CCDC 981380'
_chemical_formula_sum 'C15 H13 N4 O1'
_chemical_formula_moiety
;
C15 H13 N4 O1
;
_journal_coden_Cambridge 16
_journal_volume 70
_journal_year 2014
_journal_page_first 7977
_journal_name_full 'Tetrahedron '
loop_
_publ_author_name
"Fung Fuh Wonga"
"Li-Ya Wang"
"N.Uramaru"
"Hui-Hsuan Chiang"
_chemical_name_systematic
;
5-Amine-4-hydroxyimino-1,3-diphenylpyrazole
;
_cell_volume   1309.283
_exptl_crystal_colour 'red'
_exptl_crystal_density_diffrn 1.346
_exptl_crystal_description 'Tabullar'
_diffrn_ambient_temperature 296
#These two values have been output from a single CSD field.
_refine_ls_R_factor_gt 0.0698
_refine_ls_wR_factor_gt 0.0698
_symmetry_cell_setting monoclinic
_symmetry_space_group_name_H-M 'P 21/c'
_symmetry_Int_Tables_number 14
loop_
_symmetry_equiv_pos_site_id
_symmetry_equiv_pos_as_xyz
1 x,y,z
2 -x,1/2+y,1/2-z
3 -x,-y,-z
4 x,-1/2-y,-1/2+z
_cell_length_a 11.1479(5)
_cell_length_b 11.0113(5)
_cell_length_c 10.8911(4)
_cell_angle_alpha 90
_cell_angle_beta 101.669(2)
_cell_angle_gamma 90
_cell_formula_units_Z 4
loop_
_atom_type_symbol
_atom_type_radius_bond
C 0.68
H 0.23
N 0.68
O 0.68
loop_
_atom_site_label
_atom_site_type_symbol
_atom_site_fract_x
_atom_site_fract_y
_atom_site_fract_z
O1 O 0.4543(2) 0.7269(2) 1.20806(19)
H1 H 0.52280 0.71310 1.19460
N1 N 0.2303(2) 0.9818(2) 0.9372(2)
N2 N 0.3059(2) 1.0353(2) 1.0414(2)
N3 N 0.4525(2) 0.9794(2) 1.2204(2)
H2 H 0.46650 1.05390 1.24250
H3 H 0.49130 0.92200 1.26520
N4 N 0.3768(2) 0.7272(2) 1.1048(2)
C1 C 0.0465(3) 0.6319(4) 0.6716(3)
H4 H 0.00170 0.58090 0.61120
C2 C 0.1141(3) 0.5845(3) 0.7784(4)
H5 H 0.11530 0.50090 0.79100
C3 C 0.1814(3) 0.6593(3) 0.8688(3)
H6 H 0.22770 0.62530 0.94120
C4 C 0.1808(3) 0.7827(2) 0.8531(3)
C5 C 0.2490(2) 0.8646(2) 0.9491(2)
C6 C 0.2982(3) 1.1639(2) 1.0598(2)
C7 C 0.3490(3) 1.2417(3) 0.9889(3)
H7 H 0.38930 1.21230 0.92810
C8 C 0.3405(4) 1.3657(3) 1.0074(3)
H8 H 0.37610 1.41960 0.95960
C9 C 0.2803(3) 1.4090(3) 1.0952(3)
H9 H 0.27470 1.49220 1.10740
C10 C 0.0441(3) 0.7552(4) 0.6529(3)
H10 H -0.00230 0.78810 0.57990
C11 C 0.1109(3) 0.8302(3) 0.7433(3)
H11 H 0.10910 0.91370 0.73060
C12 C 0.3715(2) 0.9533(2) 1.1180(2)
C13 C 0.3372(3) 0.8376(2) 1.0623(3)
C14 C 0.2287(4) 1.3303(3) 1.1646(3)
H12 H 0.18760 1.35960 1.22480
C15 C 0.2369(4) 1.2069(3) 1.1467(3)
H13 H 0.20040 1.15320 1.19390
#END
