
#######################################################################
#
#                 Cambridge Crystallographic Data Centre
#                                CCDC
#
#######################################################################
#
# If this CIF has been generated from an entry in the Cambridge
# Structural Database, then it will include bibliographic, chemical,
# crystal, experimental, refinement or atomic coordinate data resulting
# from the CCDC's data processing and validation procedures.
#
#######################################################################

data_CSD_CIF_XUFFAH
_audit_creation_date 2015-04-07
_audit_creation_method CSD-ConQuest-V1
_database_code_CSD XUFFAH
_database_code_depnum_ccdc_archive 'CCDC 1048615'
_chemical_formula_sum 'C26 H28 N2 O3'
_chemical_formula_moiety
;
C26 H28 N2 O3
;
_journal_coden_Cambridge 182
_journal_volume 51
_journal_year 2015
_journal_page_first 7653
_journal_name_full 'Chem.Commun. '
loop_
_publ_author_name
"T.K.Beng"
"H.Takeuchi"
"M.Weber"
"R.Sarpong"
_chemical_name_systematic
;
(3-t-Butyl-2-(2-naphthyl)piperidin-1-yl)(4-nitrophenyl)methanone
;
_cell_volume   2158.306
_exptl_crystal_colour 'colorless'
_exptl_crystal_density_diffrn 1.282
_exptl_crystal_description 'rod'
_diffrn_ambient_temperature 100
#These two values have been output from a single CSD field.
_refine_ls_R_factor_gt 0.039
_refine_ls_wR_factor_gt 0.039
_symmetry_cell_setting monoclinic
_symmetry_space_group_name_H-M 'P 21/c'
_symmetry_Int_Tables_number 14
loop_
_symmetry_equiv_pos_site_id
_symmetry_equiv_pos_as_xyz
1 x,y,z
2 -x,1/2+y,1/2-z
3 -x,-y,-z
4 x,-1/2-y,-1/2+z
_cell_length_a 7.2482(8)
_cell_length_b 12.3730(13)
_cell_length_c 24.270(3)
_cell_angle_alpha 90
_cell_angle_beta 97.430(2)
_cell_angle_gamma 90
_cell_formula_units_Z 4
loop_
_atom_type_symbol
_atom_type_radius_bond
C 0.68
H 0.23
N 0.68
O 0.68
loop_
_atom_site_label
_atom_site_type_symbol
_atom_site_fract_x
_atom_site_fract_y
_atom_site_fract_z
C1 C 0.47404(19) 0.31995(12) 0.53200(6)
H1 H 0.51040 0.38460 0.55480
H2 H 0.49100 0.33670 0.49310
C2 C 0.5993(2) 0.22632(13) 0.55245(6)
H3 H 0.73120 0.24870 0.55460
H4 H 0.57850 0.16520 0.52610
C3 C 0.5576(2) 0.19089(13) 0.60943(6)
H5 H 0.59140 0.25020 0.63620
H6 H 0.63670 0.12790 0.62160
C4 C 0.3530(2) 0.16036(12) 0.61112(6)
H7 H 0.33920 0.15670 0.65150
C5 C 0.2253(2) 0.25500(12) 0.58814(6)
H8 H 0.09670 0.22480 0.58000
C6 C 0.13859(19) 0.32194(12) 0.49430(6)
C7 C 0.19266(19) 0.36053(12) 0.43990(6)
C8 C 0.18403(19) 0.46995(12) 0.42731(6)
H9 H 0.15040 0.52040 0.45380
C9 C 0.22446(19) 0.50576(12) 0.37607(6)
H10 H 0.21940 0.58050 0.36710
C10 C 0.27219(19) 0.43030(12) 0.33846(6)
C11 C 0.2800(2) 0.32088(12) 0.34952(6)
H11 H 0.31190 0.27080 0.32260
C12 C 0.2400(2) 0.28592(12) 0.40088(6)
H12 H 0.24470 0.21100 0.40960
C13 C 0.2863(2) 0.04753(12) 0.58730(6)
C14 C 0.4341(2) -0.03848(13) 0.60571(7)
H13 H 0.38460 -0.11030 0.59510
H14 H 0.46700 -0.03520 0.64610
H15 H 0.54520 -0.02480 0.58760
C15 C 0.2400(2) 0.04370(13) 0.52382(6)
H16 H 0.19970 -0.02940 0.51230
H17 H 0.35090 0.06290 0.50670
H18 H 0.14000 0.09520 0.51190
C16 C 0.1092(2) 0.01615(13) 0.61240(7)
H19 H 0.01160 0.06970 0.60160
H20 H 0.13660 0.01390 0.65300
H21 H 0.06660 -0.05520 0.59860
C17 C 0.21613(19) 0.34551(12) 0.63062(6)
C18 C 0.1656(2) 0.31678(12) 0.68345(6)
H22 H 0.14110 0.24320 0.69110
C19 C 0.1515(2) 0.39290(12) 0.72339(6)
H23 H 0.11880 0.37130 0.75840
C20 C 0.18486(19) 0.50316(12) 0.71349(6)
C21 C 0.1716(2) 0.58437(13) 0.75406(6)
H24 H 0.14270 0.56450 0.78980
C22 C 0.1997(2) 0.69030(13) 0.74255(6)
H25 H 0.19240 0.74350 0.77040
C23 C 0.2396(2) 0.72141(13) 0.68945(6)
H26 H 0.25770 0.79560 0.68150
C24 C 0.2523(2) 0.64513(12) 0.64924(6)
H27 H 0.27750 0.66700 0.61340
C25 C 0.22855(19) 0.53428(12) 0.66032(6)
C26 C 0.24331(19) 0.45261(12) 0.61991(6)
H28 H 0.27300 0.47300 0.58440
N1 N 0.27659(16) 0.29547(10) 0.53488(5)
N2 N 0.31560(17) 0.46827(11) 0.28421(5)
O1 O -0.02760(14) 0.31427(9) 0.49938(4)
O2 O 0.34583(16) 0.40014(10) 0.24978(4)
O3 O 0.32024(18) 0.56586(10) 0.27598(5)
#END
