
#######################################################################
#
#                 Cambridge Crystallographic Data Centre
#                                CCDC
#
#######################################################################
#
# If this CIF has been generated from an entry in the Cambridge
# Structural Database, then it will include bibliographic, chemical,
# crystal, experimental, refinement or atomic coordinate data resulting
# from the CCDC's data processing and validation procedures.
#
#######################################################################

data_CSD_CIF_XUFSAT
_audit_creation_date 2010-04-15
_audit_creation_method CSD-ConQuest-V1
_database_code_CSD XUFSAT
_database_code_depnum_ccdc_archive 'CCDC 739202'
_chemical_formula_sum 'C12 H13 N1 O6'
_chemical_formula_moiety
;
C12 H13 N1 O6
;
_journal_coden_Cambridge 4
_journal_volume 131
_journal_year 2009
_journal_page_first 4572
_journal_name_full 'J.Am.Chem.Soc. '
loop_
_publ_author_name
"B.M.Trost"
"J.Hitce"
_chemical_name_systematic
;
3,4-Dihydroxy-5-(2-nitro-1-phenylethyl)dihydrofuran-2(3H)-one
;
_chemical_melting_point 412.15
_cell_volume   1169.584
_exptl_crystal_colour 'colorless'
_exptl_crystal_density_diffrn 1.518
_exptl_crystal_description 'block'
_exptl_crystal_preparation 'dichloromethane'
_diffrn_ambient_temperature 173
#These two values have been output from a single CSD field.
_refine_ls_R_factor_gt 0.0293
_refine_ls_wR_factor_gt 0.0293
_symmetry_cell_setting orthorhombic
_symmetry_space_group_name_H-M 'P 21 21 21'
_symmetry_Int_Tables_number 19
loop_
_symmetry_equiv_pos_site_id
_symmetry_equiv_pos_as_xyz
1 x,y,z
2 1/2-x,-y,1/2+z
3 -x,1/2+y,1/2-z
4 1/2+x,1/2-y,-z
_cell_length_a 6.0640(9)
_cell_length_b 10.0246(15)
_cell_length_c 19.240(3)
_cell_angle_alpha 90
_cell_angle_beta 90
_cell_angle_gamma 90
_cell_formula_units_Z 4
loop_
_atom_type_symbol
_atom_type_radius_bond
C 0.68
H 0.23
N 0.68
O 0.68
loop_
_atom_site_label
_atom_site_type_symbol
_atom_site_fract_x
_atom_site_fract_y
_atom_site_fract_z
O1 O 0.95352(15) 0.55131(9) 0.73487(5)
O2 O 1.10308(16) 0.40362(10) 0.80704(5)
O3 O 0.7921(3) 0.59859(14) 0.47950(6)
O4 O 1.1438(3) 0.62026(15) 0.49349(9)
O5 O 0.65000(18) 0.31138(10) 0.82943(5)
H1 H 0.62970 0.36980 0.86010
O6 O 0.49167(16) 0.56224(10) 0.79718(5)
H2 H 0.36870 0.53110 0.80900
N1 N 0.9549(3) 0.62072(12) 0.51537(7)
C1 C 0.9463(2) 0.43981(13) 0.77377(6)
C2 C 0.7206(2) 0.37275(14) 0.76762(7)
H3 H 0.72960 0.30300 0.73060
C3 C 0.5759(2) 0.48780(13) 0.74065(7)
H4 H 0.45550 0.45480 0.70960
C4 C 0.7394(2) 0.57661(13) 0.70148(6)
H5 H 0.69810 0.67210 0.70900
C5 C 0.7578(2) 0.55035(14) 0.62266(6)
H6 H 0.61050 0.57000 0.60170
C6 C 0.8130(2) 0.40619(13) 0.60593(6)
C7 C 1.0224(2) 0.35304(14) 0.61824(7)
H7 H 1.13680 0.40900 0.63520
C8 C 1.0646(3) 0.21858(15) 0.60583(7)
H8 H 1.20620 0.18260 0.61550
C9 C 0.8999(3) 0.13741(14) 0.57937(7)
H9 H 0.92870 0.04580 0.57060
C10 C 0.6932(3) 0.18990(15) 0.56563(7)
H10 H 0.58060 0.13440 0.54710
C11 C 0.6503(2) 0.32344(14) 0.57896(7)
H11 H 0.50800 0.35870 0.56950
C12 C 0.9231(3) 0.64891(14) 0.59139(7)
H12 H 0.86820 0.74120 0.59760
H13 H 1.06620 0.64110 0.61590
#END
