
#######################################################################
#
#                 Cambridge Crystallographic Data Centre
#                                CCDC
#
#######################################################################
#
# If this CIF has been generated from an entry in the Cambridge
# Structural Database, then it will include bibliographic, chemical,
# crystal, experimental, refinement or atomic coordinate data resulting
# from the CCDC's data processing and validation procedures.
#
#######################################################################

data_CSD_CIF_XUGNIW
_audit_creation_date 2002-12-18
_audit_creation_method CSD-ConQuest-V1
_database_code_CSD XUGNIW
_database_code_depnum_ccdc_archive 'CCDC 197345'
_chemical_formula_sum 'C13 H11 N3 O3'
_chemical_formula_moiety
;
C13 H11 N3 O3
;
_journal_coeditor_code "IUCr GG1133"
_journal_coden_Cambridge 591
_journal_volume 58
_journal_year 2002
_journal_page_first o624
_journal_name_full 'Acta Crystallogr.,Sect.C:Cryst.Struct.Commun. '
loop_
_publ_author_name
"Xinjiang Huang"
"G.H.Kuhn"
"V.N.Nesterov"
"B.B.Averkiev"
"B.Penn"
"M.Yu.Antipin"
"T.V.Timofeeva"
_chemical_name_systematic
;
(E)-1-(4-Methoxyphenyl)-2-(4-nitrophenyl)diazene
;
_chemical_melting_point 421
_cell_volume    607.461
_exptl_crystal_colour 'yellow'
_exptl_crystal_density_diffrn 1.406
_exptl_crystal_description 'parallelepiped prism'
_exptl_crystal_preparation 'ethanol'
_diffrn_ambient_temperature 298
#These two values have been output from a single CSD field.
_refine_ls_R_factor_gt 0.046
_refine_ls_wR_factor_gt 0.046
_symmetry_cell_setting triclinic
_symmetry_space_group_name_H-M 'P -1'
_symmetry_Int_Tables_number 2
loop_
_symmetry_equiv_pos_site_id
_symmetry_equiv_pos_as_xyz
1 x,y,z
2 -x,-y,-z
_cell_length_a 6.1530(12)
_cell_length_b 7.5500(15)
_cell_length_c 13.683(3)
_cell_angle_alpha 100.80(3)
_cell_angle_beta 102.68(3)
_cell_angle_gamma 91.74(3)
_cell_formula_units_Z 2
loop_
_atom_type_symbol
_atom_type_radius_bond
C 0.68
H 0.23
N 0.68
O 0.68
loop_
_atom_site_label
_atom_site_type_symbol
_atom_site_fract_x
_atom_site_fract_y
_atom_site_fract_z
O1 O -0.24178(19) -0.11783(17) 0.16573(9)
O2 O 1.3612(2) 0.66378(19) 0.83739(9)
O3 O 1.1712(2) 0.6266(2) 0.94592(9)
N1 N 1.1933(2) 0.60681(18) 0.85842(10)
N2 N 0.47598(19) 0.25706(16) 0.54580(9)
N3 N 0.49461(19) 0.23619(15) 0.45539(9)
C1 C 1.0110(2) 0.51416(18) 0.77543(10)
C2 C 1.0340(2) 0.49594(19) 0.67598(11)
H1 H 1.16430 0.54000 0.66200
C3 C 0.8599(2) 0.4111(2) 0.59786(11)
H2 H 0.87170 0.39750 0.53030
C4 C 0.6661(2) 0.34566(17) 0.62027(10)
C5 C 0.6484(2) 0.3642(2) 0.72077(11)
H3 H 0.51930 0.31880 0.73520
C6 C 0.8215(3) 0.4496(2) 0.79974(11)
H4 H 0.81050 0.46330 0.86740
C7 C 0.3032(2) 0.14801(17) 0.38274(10)
C8 C 0.3135(2) 0.1157(2) 0.28108(11)
H5 H 0.44240 0.15290 0.26320
C9 C 0.1339(3) 0.0283(2) 0.20552(11)
H6 H 0.14200 0.00730 0.13730
C10 C -0.0577(2) -0.0275(2) 0.23241(11)
C11 C -0.0697(2) 0.0070(2) 0.33423(11)
H7 H -0.19910 -0.02910 0.35210
C12 C 0.1078(2) 0.0939(2) 0.40852(11)
H8 H 0.09810 0.11690 0.47660
C13 C -0.2495(4) -0.1463(3) 0.05961(13)
H9 H -0.39050 -0.20750 0.02200
H10 H -0.13080 -0.21880 0.04490
H11 H -0.23240 -0.03190 0.04010
#END
