
#######################################################################
#
#                 Cambridge Crystallographic Data Centre
#                                CCDC
#
#######################################################################
#
# If this CIF has been generated from an entry in the Cambridge
# Structural Database, then it will include bibliographic, chemical,
# crystal, experimental, refinement or atomic coordinate data resulting
# from the CCDC's data processing and validation procedures.
#
#######################################################################

data_CSD_CIF_XUGXOM
_audit_creation_date 2002-12-18
_audit_creation_method CSD-ConQuest-V1
_database_code_CSD XUGXOM
_database_code_depnum_ccdc_archive 'CCDC 192241'
_chemical_formula_sum 'C18 H15 N1 O3'
_chemical_formula_moiety
;
C18 H15 N1 O3
;
_journal_coden_Cambridge 151
_journal_volume 45
_journal_year 2002
_journal_page_first 3103
_journal_name_full 'J.Med.Chem. '
loop_
_publ_author_name
"J.R.Dimmock"
"G.A.Zello"
"E.O.Oloo"
"J.W.Quail"
"H.-B.Kraatz"
"P.Perjesi"
"F.Aradi"
"K.Takacs-Novak"
"T.M.Allen"
"C.L.Santos"
"J.Balzarini"
"E.De Clerq"
"J.P.Stables"
_chemical_name_systematic
;
2-(2-Nitrophenylmethylene)-1-benzosuberone
;
_cell_volume   1387.561
_exptl_crystal_colour 'dark yellow'
_exptl_crystal_density_diffrn 1.404
_exptl_special_details
;
evaluated against murine leukemia P388 and L1210 cell as well as human Molt 
4/C8 and CEM T-lymphocytes and examined for anticonvulsant activity and 
neurotoxicity in mice
;
_exptl_crystal_description 'plates'
_diffrn_ambient_temperature 123
#These two values have been output from a single CSD field.
_refine_ls_R_factor_gt 0.0361
_refine_ls_wR_factor_gt 0.0361
_symmetry_cell_setting monoclinic
_symmetry_space_group_name_H-M 'P 21/a'
_symmetry_Int_Tables_number 14
loop_
_symmetry_equiv_pos_site_id
_symmetry_equiv_pos_as_xyz
1 x,y,z
2 1/2+x,1/2-y,z
3 -x,-y,-z
4 -1/2-x,-1/2+y,-z
_cell_length_a 10.601(7)
_cell_length_b 7.778(7)
_cell_length_c 16.946(10)
_cell_angle_alpha 90
_cell_angle_beta 96.76(7)
_cell_angle_gamma 90
_cell_formula_units_Z 4
loop_
_atom_type_symbol
_atom_type_radius_bond
C 0.68
H 0.23
N 0.68
O 0.68
loop_
_atom_site_label
_atom_site_type_symbol
_atom_site_fract_x
_atom_site_fract_y
_atom_site_fract_z
N1 N 0.38096(10) 0.35748(15) 0.91085(6)
O1 O 0.6950(1) 0.09128(12) 0.76448(6)
O2 O 0.29965(10) 0.34848(13) 0.95685(6)
O3 O 0.41393(10) 0.23344(13) 0.87381(6)
C1 C 0.71072(12) 0.22457(17) 0.72914(8)
C2 C 0.65203(12) 0.39117(17) 0.75119(8)
C3 C 0.64010(14) 0.53054(18) 0.68863(8)
H1 H 0.57420 0.61340 0.70070
H2 H 0.61160 0.47820 0.63630
C4 C 0.76560(15) 0.62858(18) 0.68330(8)
H3 H 0.76190 0.68420 0.63050
H4 H 0.77440 0.72030 0.72410
C5 C 0.88258(14) 0.51144(19) 0.69545(8)
H5 H 0.95840 0.57670 0.68380
H6 H 0.89660 0.47410 0.75160
C6 C 0.86645(12) 0.35599(18) 0.64252(8)
C7 C 0.93122(13) 0.34203(19) 0.57583(8)
H7 H 0.98800 0.43090 0.56470
C8 C 0.91464(13) 0.2017(2) 0.52544(8)
H8 H 0.95840 0.19610 0.47970
C9 C 0.83405(13) 0.06911(19) 0.54186(8)
H9 H 0.82230 -0.02750 0.50750
C10 C 0.77088(13) 0.07899(18) 0.60887(8)
H10 H 0.71740 -0.01300 0.62100
C11 C 0.78480(12) 0.22211(18) 0.65870(8)
C12 C 0.60916(12) 0.39694(17) 0.82264(8)
H11 H 0.62200 0.29680 0.85470
C13 C 0.54430(12) 0.54225(17) 0.85662(7)
C14 C 0.43989(12) 0.52531(17) 0.90006(7)
C15 C 0.38475(12) 0.66398(18) 0.93450(8)
H12 H 0.31470 0.64680 0.96380
C16 C 0.43251(13) 0.82695(18) 0.92578(8)
H13 H 0.39480 0.92310 0.94840
C17 C 0.53574(13) 0.84950(17) 0.88379(8)
H14 H 0.56940 0.96140 0.87800
C18 C 0.59020(12) 0.70952(18) 0.85023(7)
H15 H 0.66120 0.72790 0.82190
#END
