
#######################################################################
#
#                 Cambridge Crystallographic Data Centre
#                                CCDC
#
#######################################################################
#
# If this CIF has been generated from an entry in the Cambridge
# Structural Database, then it will include bibliographic, chemical,
# crystal, experimental, refinement or atomic coordinate data resulting
# from the CCDC's data processing and validation procedures.
#
#######################################################################

data_CSD_CIF_XUHPIB
_audit_creation_date 2015-04-07
_audit_creation_method CSD-ConQuest-V1
_database_code_CSD XUHPIB
_database_code_depnum_ccdc_archive 'CCDC 1058360'
_chemical_formula_sum 'C6 H7 N7 O4'
_chemical_formula_moiety
;
C6 H7 N7 O4
;
_journal_coden_Cambridge 1078
_journal_year 2015
_journal_name_full 'CSD Communication(Private Communication) '
loop_
_publ_author_name
"J.C.Gallucci"
"M.Venugopal"
"H.Shechter"
_chemical_name_systematic
;
3,3'-triaz-1-ene-1,3-diylbis(4-methoxy-1,2,5-oxadiazole)
;
_cell_volume   1007.196
_exptl_crystal_colour 'colorless'
_exptl_crystal_density_diffrn 1.591
_exptl_crystal_description 'rod'
_exptl_crystal_preparation 'dichloromethane'
_diffrn_ambient_temperature 200
#These two values have been output from a single CSD field.
_refine_ls_R_factor_gt 0.0402
_refine_ls_wR_factor_gt 0.0402
_symmetry_cell_setting monoclinic
_symmetry_space_group_name_H-M 'P 21/c'
_symmetry_Int_Tables_number 14
loop_
_symmetry_equiv_pos_site_id
_symmetry_equiv_pos_as_xyz
1 x,y,z
2 -x,1/2+y,1/2-z
3 -x,-y,-z
4 x,-1/2-y,-1/2+z
_cell_length_a 4.2319(1)
_cell_length_b 22.0771(6)
_cell_length_c 10.9432(4)
_cell_angle_alpha 90
_cell_angle_beta 99.894(1)
_cell_angle_gamma 90
_cell_formula_units_Z 4
loop_
_atom_type_symbol
_atom_type_radius_bond
C 0.68
H 0.23
N 0.68
O 0.68
loop_
_atom_site_label
_atom_site_type_symbol
_atom_site_fract_x
_atom_site_fract_y
_atom_site_fract_z
O1 O -0.5181(3) 0.63555(6) 0.73369(12)
O2 O 0.0956(3) 0.54791(6) 0.88767(11)
O3 O 0.6100(3) 0.32500(6) 0.74685(13)
O4 O 0.1159(3) 0.31075(6) 0.46419(12)
N1 N -0.2770(4) 0.62560(7) 0.83619(14)
N2 N -0.5235(4) 0.58951(7) 0.64840(14)
N3 N 0.5185(4) 0.29237(8) 0.63700(16)
N4 N 0.4214(4) 0.37700(8) 0.74870(14)
C1 C -0.1445(4) 0.57485(9) 0.81316(16)
C2 C -0.2970(4) 0.55221(8) 0.69499(16)
C3 C 0.2020(5) 0.57797(11) 1.00572(17)
H1 H 0.38020 0.55520 1.05360
H2 H 0.02410 0.57990 1.05230
H3 H 0.27340 0.61910 0.99090
N5 N -0.2540(4) 0.50089(7) 0.62469(14)
N6 N -0.0310(3) 0.46709(7) 0.67572(13)
N7 N -0.0018(4) 0.41887(7) 0.60413(15)
H4 H -0.124(5) 0.4160(9) 0.5348(19)
C4 C 0.2273(4) 0.37596(8) 0.64423(15)
C5 C 0.2840(4) 0.32340(8) 0.57496(17)
C6 C 0.2095(6) 0.25545(10) 0.4085(2)
H5 H 0.07700 0.25000 0.32660
H6 H 0.17890 0.22090 0.46150
H7 H 0.43580 0.25800 0.39990
#END
