
#######################################################################
#
#                 Cambridge Crystallographic Data Centre
#                                CCDC
#
#######################################################################
#
# If this CIF has been generated from an entry in the Cambridge
# Structural Database, then it will include bibliographic, chemical,
# crystal, experimental, refinement or atomic coordinate data resulting
# from the CCDC's data processing and validation procedures.
#
#######################################################################

data_CSD_CIF_XUMDUE
_audit_creation_date 2003-02-25
_audit_creation_method CSD-ConQuest-V1
_database_code_CSD XUMDUE
_database_code_depnum_ccdc_archive 'CCDC 200964'
_chemical_formula_sum 'C13 H13 N1 O9'
_chemical_formula_moiety
;
C13 H13 N1 O9
;
_journal_coden_Cambridge 392
_journal_volume 59
_journal_year 2003
_journal_page_first 115
_journal_name_full 'Heterocycles '
loop_
_publ_author_name
"Xiaoxiang Zhu"
"Qian-sheng Yu"
"N.H.Greig"
"J.L.Flippen-Anderson"
"A.Brossi"
_chemical_name_systematic
;
Ethyl 2-ethoxycarbonyloxycarbonyl-4-nitrophenyl carbonic acid
;
_cell_volume   1458.935
_exptl_crystal_colour 'colorless'
_exptl_crystal_density_diffrn 1.49
_exptl_crystal_preparation 'ether'
_diffrn_ambient_temperature 273
_refine_special_details
;
The molecule is disordered over two sites with occupancies 0.8133:0.1867.

;
#These two values have been output from a single CSD field.
_refine_ls_R_factor_gt 0.0476
_refine_ls_wR_factor_gt 0.0476
_symmetry_cell_setting monoclinic
_symmetry_space_group_name_H-M 'P 21/c'
_symmetry_Int_Tables_number 14
loop_
_symmetry_equiv_pos_site_id
_symmetry_equiv_pos_as_xyz
1 x,y,z
2 -x,1/2+y,1/2-z
3 -x,-y,-z
4 x,-1/2-y,-1/2+z
_cell_length_a 12.394(5)
_cell_length_b 7.873(3)
_cell_length_c 15.588(5)
_cell_angle_alpha 90
_cell_angle_beta 106.43(3)
_cell_angle_gamma 90
_cell_formula_units_Z 4
loop_
_atom_type_symbol
_atom_type_radius_bond
C 0.68
H 0.23
N 0.68
O 0.68
loop_
_atom_site_label
_atom_site_type_symbol
_atom_site_fract_x
_atom_site_fract_y
_atom_site_fract_z
O1 O 0.57219(7) 0.07133(12) 0.94618(6)
C1 C 0.48091(11) 0.04491(14) 0.87169(9)
N1 N 0.17911(11) -0.00401(16) 0.66714(9)
C2 C 0.43524(11) -0.11655(15) 0.84980(8)
O2 O 0.69488(11) 0.02557(19) 0.86518(7)
O3 O 0.74799(8) 0.06648(15) 1.01488(6)
C3 C 0.33561(12) -0.13119(18) 0.78163(9)
H1 H 0.30270 -0.23700 0.76560
C4 C 0.28611(12) 0.01342(18) 0.73801(10)
O4 O 0.42859(9) -0.40810(13) 0.88536(8)
O5 O 0.58853(8) -0.26446(12) 0.94895(6)
C5 C 0.33301(13) 0.17363(18) 0.75764(10)
H2 H 0.29910 0.26850 0.72560
O6 O 0.64352(12) -0.53652(15) 0.93290(8)
C6 C 0.43142(13) 0.18826(18) 0.82602(10)
H3 H 0.46440 0.29420 0.84140
C7 C 0.67576(10) 0.05239(19) 0.93488(8)
O7 O 0.73374(9) -0.36608(13) 1.04552(7)
O8 O 0.13543(12) -0.14108(17) 0.65218(12)
C8 C 0.86429(13) 0.0376(3) 1.01882(11)
H4 H 0.89200 0.12900 0.98900
H5 H 0.87210 -0.06860 0.98960
O9 O 0.13960(14) 0.12358(19) 0.62526(11)
C9 C 0.92882(17) 0.0310(4) 1.11511(13)
H6 H 1.00680 0.01080 1.12040
H7 H 0.90020 -0.05920 1.14390
H8 H 0.92110 0.13710 1.14310
C10 C 0.48042(10) -0.28019(15) 0.89449(9)
C11 C 0.65400(12) -0.40744(17) 0.97299(9)
C12 C 0.81680(16) -0.4996(2) 1.08021(12)
H9 H 0.87500 -0.49590 1.04970
H10 H 0.78090 -0.61010 1.06980
C13 C 0.8665(2) -0.4730(3) 1.17624(13)
H11 H 0.92150 -0.55960 1.19950
H12 H 0.80860 -0.47830 1.20610
H13 H 0.90200 -0.36350 1.18610
O10? O 0.57274(15) -0.0685(5) 0.94655(16)
C14? C 0.4816(2) -0.0437(2) 0.8718(3)
N2? N 0.1793(3) -0.0002(3) 0.6674(3)
C15? C 0.4352(3) 0.1172(2) 0.8495(3)
O11? O 0.6954(3) -0.0224(12) 0.8656(2)
O12? O 0.74816(18) -0.0618(9) 1.01539(17)
C16? C 0.3349(3) 0.1301(3) 0.7819(3)
H14? H 0.30110 0.23530 0.76590
C17? C 0.2861(3) -0.0153(3) 0.7387(3)
O13? O 0.4291(3) 0.4096(4) 0.8838(4)
O14? O 0.5881(2) 0.2653(3) 0.9489(3)
C18? C 0.3323(3) -0.1756(3) 0.7603(4)
H15? H 0.29750 -0.27140 0.72980
O15? O 0.6447(5) 0.5356(4) 0.9314(3)
C19? C 0.4312(4) -0.1884(3) 0.8282(4)
H16? H 0.46400 -0.29420 0.84460
C20? C 0.67645(18) -0.0548(12) 0.93482(18)
O16? O 0.7331(3) 0.3681(4) 1.0458(2)
O17? O 0.1294(4) 0.1324(4) 0.6569(5)
C21? C 0.8648(2) -0.0378(18) 1.0192(2)
H17? H 0.87460 0.06850 0.99080
H18? H 0.89050 -0.12980 0.98840
O18? O 0.1389(6) -0.1306(5) 0.6288(6)
C22? C 0.9299(4) -0.036(3) 1.1154(3)
H19? H 1.00830 -0.01950 1.12060
H20? H 0.91970 -0.14150 1.14260
H21? H 0.90370 0.05580 1.14500
C23? C 0.4809(2) 0.2817(3) 0.8928(3)
C24? C 0.6534(3) 0.4085(4) 0.9731(3)
C25? C 0.8152(4) 0.5035(7) 1.0799(3)
H22? H 0.86940 0.50730 1.04560
H23? H 0.77730 0.61240 1.07410
C26? C 0.8728(9) 0.4694(15) 1.1740(4)
H24? H 0.93000 0.55360 1.19600
H25? H 0.90670 0.35890 1.17960
H26? H 0.81940 0.47360 1.20820
#END
