
#######################################################################
#
#                 Cambridge Crystallographic Data Centre
#                                CCDC
#
#######################################################################
#
# If this CIF has been generated from an entry in the Cambridge
# Structural Database, then it will include bibliographic, chemical,
# crystal, experimental, refinement or atomic coordinate data resulting
# from the CCDC's data processing and validation procedures.
#
#######################################################################

data_CSD_CIF_XUMSAZ
_audit_creation_date 2003-02-25
_audit_creation_method CSD-ConQuest-V1
_database_code_CSD XUMSAZ
_database_code_depnum_ccdc_archive 'CCDC 201139'
_database_code_depnum_ccdc_journal 1267/880
_chemical_formula_sum 'C9 H13 N1 O4'
_chemical_formula_moiety
;
C9 H13 N1 O4
;
_journal_coden_Cambridge 1267
_journal_volume 217
_journal_year 2002
_journal_page_first 403
_journal_name_full 'Z.Kristallogr.-New Cryst.Struct. '
loop_
_publ_author_name
"Z.Gultekin"
"W.Frey"
"V.Jager"
_chemical_name_systematic
;
(3R,4S,5R)-3,4-O-Isopropylidenedioxy-5-vinyl-dihydrofuran-2-one oxime
;
_chemical_melting_point 426
_cell_volume    523.709
_exptl_crystal_colour 'colorless'
_exptl_crystal_density_diffrn 1.263
_exptl_special_details
;
Melting point range 426-427K

;
_exptl_crystal_description 'plates'
_exptl_crystal_preparation 'ethyl acetate/petroleum ether'
_diffrn_ambient_temperature 293
#These two values have been output from a single CSD field.
_refine_ls_R_factor_gt 0.0477
_refine_ls_wR_factor_gt 0.0477
_symmetry_cell_setting monoclinic
_symmetry_space_group_name_H-M 'P 21'
_symmetry_Int_Tables_number 4
loop_
_symmetry_equiv_pos_site_id
_symmetry_equiv_pos_as_xyz
1 x,y,z
2 -x,1/2+y,-z
_cell_length_a 6.2282(8)
_cell_length_b 8.2300(6)
_cell_length_c 10.5903(8)
_cell_angle_alpha 90
_cell_angle_beta 105.256(8)
_cell_angle_gamma 90
_cell_formula_units_Z 2
loop_
_atom_type_symbol
_atom_type_radius_bond
C 0.68
H 0.23
N 0.68
O 0.68
loop_
_atom_site_label
_atom_site_type_symbol
_atom_site_fract_x
_atom_site_fract_y
_atom_site_fract_z
O1 O 0.3220(6) 0.6008(4) 0.6937(3)
C1 C 0.2825(7) 0.8176(7) 0.9103(4)
N1 N 0.1470(7) 0.8568(6) 0.9759(4)
O2 O 0.2138(7) 0.5271(5) 0.8750(4)
C2 C 0.5358(8) 0.8379(7) 0.7878(5)
H1 H 0.67900 0.86630 0.84830
O3 O 0.0828(6) 1.0210(5) 0.9557(4)
H2 H -0.01770 1.03990 0.99050
O4 O 0.3564(5) 0.9200(4) 0.8305(3)
C3 C 0.4930(8) 0.6585(7) 0.8018(4)
H3 H 0.62880 0.59280 0.81880
C4 C 0.3773(8) 0.6498(6) 0.9124(4)
H4 H 0.48270 0.62540 0.99670
C5 C 0.1956(9) 0.4825(7) 0.7407(5)
C6 C -0.0402(9) 0.4946(11) 0.6610(7)
H5 H -0.12890 0.41560 0.69100
H6 H -0.04740 0.47460 0.57060
H7 H -0.09600 0.60150 0.67000
C7 C 0.2952(13) 0.3160(7) 0.7412(7)
H8 H 0.20700 0.23850 0.77320
H9 H 0.44420 0.31600 0.79690
H10 H 0.29790 0.28720 0.65380
C8 C 0.5331(9) 0.8970(7) 0.6546(5)
H11 H 0.41190 0.87150 0.58500
C9 C 0.6948(11) 0.9832(10) 0.6320(6)
H12 H 0.81740 1.00980 0.70040
H13 H 0.68750 1.01810 0.54740
#END
