
#######################################################################
#
#                 Cambridge Crystallographic Data Centre
#                                CCDC
#
#######################################################################
#
# If this CIF has been generated from an entry in the Cambridge
# Structural Database, then it will include bibliographic, chemical,
# crystal, experimental, refinement or atomic coordinate data resulting
# from the CCDC's data processing and validation procedures.
#
#######################################################################

data_CSD_CIF_XUMWOR
_audit_creation_date 2003-02-25
_audit_creation_method CSD-ConQuest-V1
_database_code_CSD XUMWOR
_database_code_depnum_ccdc_archive 'CCDC 171726'
_chemical_formula_sum 'C18 H18 N2 O5'
_chemical_formula_moiety
;
C18 H18 N2 O5
;
_journal_coden_Cambridge 34
_journal_volume 39
_journal_year 2002
_journal_page_first 411
_journal_name_full 'J.Heterocycl.Chem. '
loop_
_publ_author_name
"S.Pirc"
"S.Recnik"
"M.Skof"
"J.Svete"
"L.Golic"
"A.Meden"
"B.Stanovnik"
_chemical_name_systematic
;
Methyl 
(4R,5S,8S)-4-cyano-6-oxo-3-(2,4,6-trimethylphenyl)-1,7-dioxa-2-azaspiro(4.4)no
n-2-ene-8-carboxylate
;
_chemical_melting_point 423.15
_cell_volume   1763.768
_exptl_crystal_colour 'colorless'
_exptl_crystal_density_diffrn 1.289
_exptl_special_details
;
Melting point range 423.15-425.15K

;
_exptl_crystal_description 'plate'
_exptl_crystal_preparation 'ethyl acetate/petroleum ether'
_diffrn_ambient_temperature 293
#These two values have been output from a single CSD field.
_refine_ls_R_factor_gt 0.058
_refine_ls_wR_factor_gt 0.058
_symmetry_cell_setting monoclinic
_symmetry_space_group_name_H-M 'P 21/c'
_symmetry_Int_Tables_number 14
loop_
_symmetry_equiv_pos_site_id
_symmetry_equiv_pos_as_xyz
1 x,y,z
2 -x,1/2+y,1/2-z
3 -x,-y,-z
4 x,-1/2-y,-1/2+z
_cell_length_a 16.462(3)
_cell_length_b 10.251(1)
_cell_length_c 10.681(2)
_cell_angle_alpha 90
_cell_angle_beta 101.89(1)
_cell_angle_gamma 90
_cell_formula_units_Z 4
loop_
_atom_type_symbol
_atom_type_radius_bond
C 0.68
H 0.23
N 0.68
O 0.68
loop_
_atom_site_label
_atom_site_type_symbol
_atom_site_fract_x
_atom_site_fract_y
_atom_site_fract_z
O1 O 0.40631(9) -0.0062(1) 0.4421(1)
O2 O 0.4443(1) 0.0082(2) 0.7171(2)
O3 O 0.48797(9) 0.2089(1) 0.6844(1)
O4 O 0.3543(1) 0.3653(2) 0.6768(2)
O5 O 0.4027(1) 0.5063(2) 0.5490(2)
N1 N 0.3333(1) -0.0818(2) 0.4280(2)
N2 N 0.2236(2) 0.2973(3) 0.3558(3)
C1 C 0.2762(1) -0.0175(2) 0.4627(2)
C2 C 0.1918(1) -0.0706(2) 0.4603(2)
C3 C 0.1325(1) -0.0717(2) 0.3456(3)
C4 C 0.1517(2) -0.0257(3) 0.2216(3)
C5 C 0.0527(2) -0.1168(3) 0.3495(3)
C6 C 0.0316(2) -0.1596(3) 0.4615(3)
C7 C -0.0551(2) -0.2050(4) 0.4634(6)
C8 C 0.0917(2) -0.1560(2) 0.5730(3)
C9 C 0.1722(2) -0.1128(2) 0.5750(2)
C10 C 0.2349(2) -0.1114(3) 0.6994(3)
C11 C 0.3024(1) 0.1202(2) 0.5088(2)
C12 C 0.2576(1) 0.2198(2) 0.4222(3)
C13 C 0.3967(1) 0.1128(2) 0.5098(2)
C14 C 0.4448(1) 0.0998(2) 0.6489(2)
C15 C 0.4703(1) 0.3051(2) 0.5841(2)
C16 C 0.4030(1) 0.3957(2) 0.6119(2)
C17 C 0.3395(2) 0.5989(3) 0.5650(4)
C18 C 0.4393(1) 0.2271(2) 0.4612(2)
H1 H 0.190(2) 0.024(4) 0.228(3)
H2 H 0.182(2) -0.098(4) 0.174(3)
H3 H 0.111(2) -0.038(3) 0.153(4)
H4 H 0.012(2) -0.118(3) 0.266(3)
H5 H -0.059(3) -0.282(5) 0.485(4)
H6 H -0.082(3) -0.229(4) 0.375(4)
H7 H -0.078(3) -0.165(4) 0.528(4)
H8 H 0.081(2) -0.189(3) 0.651(3)
H9 H 0.221(2) -0.164(4) 0.759(3)
H10 H 0.240(2) -0.032(4) 0.737(3)
H11 H 0.290(2) -0.128(3) 0.679(3)
H12 H 0.292(2) 0.140(2) 0.590(3)
H13 H 0.517(2) 0.356(2) 0.582(2)
H14 H 0.342(2) 0.661(4) 0.507(4)
H15 H 0.289(3) 0.564(4) 0.533(3)
H16 H 0.345(2) 0.617(3) 0.653(4)
H17 H 0.406(2) 0.276(2) 0.398(2)
H18 H 0.486(2) 0.197(2) 0.427(2)
#END
