
#######################################################################
#
#                 Cambridge Crystallographic Data Centre
#                                CCDC
#
#######################################################################
#
# If this CIF has been generated from an entry in the Cambridge
# Structural Database, then it will include bibliographic, chemical,
# crystal, experimental, refinement or atomic coordinate data resulting
# from the CCDC's data processing and validation procedures.
#
#######################################################################

data_CSD_CIF_XUPYIR
_audit_creation_date 2010-09-15
_audit_creation_method CSD-ConQuest-V1
_database_code_CSD XUPYIR
_database_code_depnum_ccdc_archive 'CCDC 738431'
_chemical_formula_sum 'C31 H24 N2 O5'
_chemical_formula_moiety
;
C31 H24 N2 O5
;
_journal_coden_Cambridge 392
_journal_volume 81
_journal_year 2010
_journal_page_first 707
_journal_name_full 'Heterocycles '
loop_
_publ_author_name
"N.Jegham"
"Y.Kacem"
"B.B.Hassine"
_chemical_name_systematic
;
3',4'-bis(4-methoxyphenyl)-2-phenyl-1H,4'H-spiro[isoquinoline-4,5'-[1,2]oxazol
e]-1,3(2H)-dione
;
_chemical_name_common
;
(4S*,5:4'R*)-Spiro[3,4-bis(p-anisyl)isoxoline-5,4'-(2'-phenyl)isoquinoline-1',
3'-dione]
;
_chemical_melting_point 509.15
_cell_volume   2610.086
_exptl_crystal_colour 'white'
_exptl_crystal_density_diffrn 1.284
_exptl_crystal_description 'prism'
_diffrn_ambient_temperature 296
#These two values have been output from a single CSD field.
_refine_ls_R_factor_gt 0.0498
_refine_ls_wR_factor_gt 0.0498
_symmetry_cell_setting monoclinic
_symmetry_space_group_name_H-M 'P 21/c'
_symmetry_Int_Tables_number 14
loop_
_symmetry_equiv_pos_site_id
_symmetry_equiv_pos_as_xyz
1 x,y,z
2 -x,1/2+y,1/2-z
3 -x,-y,-z
4 x,-1/2-y,-1/2+z
_cell_length_a 12.2441(6)
_cell_length_b 9.3941(4)
_cell_length_c 23.0227(11)
_cell_angle_alpha 90
_cell_angle_beta 99.723(2)
_cell_angle_gamma 90
_cell_formula_units_Z 4
loop_
_atom_type_symbol
_atom_type_radius_bond
C 0.68
H 0.23
N 0.68
O 0.68
loop_
_atom_site_label
_atom_site_type_symbol
_atom_site_fract_x
_atom_site_fract_y
_atom_site_fract_z
O1 O 1.00034(12) 0.64053(14) 0.26766(6)
N1 N 0.75306(16) 0.51535(18) 0.32042(9)
N2 N 1.05063(15) 0.60332(19) 0.21793(8)
C1 C 0.7461(2) 0.5270(2) 0.12007(11)
C2 C 0.88784(18) 0.4679(2) 0.21132(10)
C3 C 1.02493(19) 0.4516(2) 0.13397(10)
C4 C 0.80999(19) 0.7115(2) 0.23690(9)
C5 C 0.77989(18) 0.4442(2) 0.16985(10)
O2 O 0.47989(15) 0.38103(18) 0.05847(8)
C6 C 0.98952(19) 0.5120(2) 0.18639(10)
C7 C 0.7099(2) 0.3371(2) 0.18201(11)
C8 C 0.8644(2) 0.5220(2) 0.31428(10)
C9 C 0.6694(2) 0.6002(2) 0.28847(11)
C10 C 0.7035(2) 0.7098(2) 0.24979(10)
C11 C 0.8414(2) 0.8211(2) 0.20287(11)
C12 C 0.5772(2) 0.3966(2) 0.09726(11)
C13 C 0.88740(18) 0.5901(2) 0.25779(10)
C14 C 1.0926(2) 0.3358(3) 0.03415(11)
C15 C 0.6082(2) 0.3132(3) 0.14636(12)
C16 C 0.6469(2) 0.5040(3) 0.08443(11)
C17 C 0.9778(2) 0.3287(3) 0.10811(11)
C18 C 1.0113(2) 0.2705(3) 0.05861(12)
C19 C 0.7664(2) 0.9259(3) 0.18170(12)
C20 C 0.7220(2) 0.4230(3) 0.36561(12)
C21 C 1.1406(3) 0.4589(3) 0.05944(13)
C22 C 1.1073(2) 0.5158(3) 0.10845(12)
C23 C 0.6288(2) 0.8155(3) 0.22804(13)
C24 C 0.6654(3) 0.2991(3) 0.34881(16)
C25 C 0.6606(3) 0.9231(3) 0.19385(14)
C26 C 0.4113(4) 0.2638(5) 0.0663(2)
C27 C 1.0716(3) 0.1777(4) -0.04807(15)
C28 C 0.7454(3) 0.4628(3) 0.42353(14)
C29 C 0.6506(4) 0.2530(6) 0.4482(3)
C30 C 0.7096(4) 0.3753(6) 0.46524(18)
C31 C 0.6305(4) 0.2168(4) 0.3912(3)
O3 O 1.13272(16) 0.28676(19) -0.01411(8)
O4 O 0.93529(14) 0.46513(17) 0.34906(7)
O5 O 0.57383(15) 0.58452(18) 0.29607(9)
H1 H 0.796(2) 0.599(3) 0.1095(12)
H2 H 0.912(2) 0.379(3) 0.2324(12)
H3 H 0.736(2) 0.273(3) 0.2161(12)
H4 H 0.918(2) 0.824(3) 0.1933(12)
H5 H 0.563(2) 0.239(3) 0.1552(12)
H6 H 0.621(2) 0.558(3) 0.0489(13)
H7 H 0.917(2) 0.277(3) 0.1249(12)
H8 H 0.975(2) 0.189(3) 0.0403(12)
H9 H 0.790(2) 1.005(3) 0.1571(12)
H10 H 1.196(2) 0.505(3) 0.0414(12)
H11 H 1.139(2) 0.610(3) 0.1247(12)
H12 H 0.559(2) 0.816(3) 0.2397(12)
H13 H 0.647(3) 0.275(3) 0.3074(13)
H14 H 0.604(2) 0.992(3) 0.1759(12)
H15 H 0.456(3) 0.175(3) 0.0672(14)
H16 H 0.350(3) 0.264(3) 0.0334(14)
H17 H 0.386(3) 0.266(3) 0.1045(14)
H18 H 1.079(3) 0.090(3) -0.0232(15)
H19 H 1.106(3) 0.162(3) -0.0830(14)
H20 H 0.992(3) 0.210(3) -0.0628(14)
H21 H 0.779(2) 0.556(3) 0.4343(12)
H22 H 0.630(2) 0.206(3) 0.4811(13)
H23 H 0.728(2) 0.413(3) 0.5042(13)
H24 H 0.590(3) 0.137(3) 0.3779(13)
#END
