
#######################################################################
#
#                 Cambridge Crystallographic Data Centre
#                                CCDC
#
#######################################################################
#
# If this CIF has been generated from an entry in the Cambridge
# Structural Database, then it will include bibliographic, chemical,
# crystal, experimental, refinement or atomic coordinate data resulting
# from the CCDC's data processing and validation procedures.
#
#######################################################################

data_CSD_CIF_XUQMUT
_audit_creation_date 2015-09-16
_audit_creation_method CSD-ConQuest-V1
_database_code_CSD XUQMUT
_database_code_depnum_ccdc_archive 'CCDC 1424850'
_chemical_formula_sum 'C18 H25 N1 O6'
_chemical_formula_moiety
;
C18 H25 N1 O6
;
_journal_coden_Cambridge 1336
_journal_volume 16
_journal_year 2014
_journal_page_first 1936
_journal_name_full 'Org.Lett. '
loop_
_publ_author_name
"Xiaofei Zhang"
"P.Cividino"
"J.-F.Poisson"
"P.Shpak-Kraievskyi"
"Mathieu Y.Laurent"
"A.Martel"
"G.Dujardin"
"Sandrine Py"
_chemical_name_systematic
;
dimethyl 2-((1-(benzyloxy)-3-methylbutan-2-yl)(oxido)azanylidene)succinate
;
_cell_volume    473.408
_exptl_crystal_colour 'colorless'
_exptl_crystal_density_diffrn 1.233
_exptl_crystal_description 'block'
_diffrn_ambient_temperature 297
#These two values have been output from a single CSD field.
_refine_ls_R_factor_gt 0.0526
_refine_ls_wR_factor_gt 0.0526
_symmetry_cell_setting triclinic
_symmetry_space_group_name_H-M 'P 1'
_symmetry_Int_Tables_number 1
loop_
_symmetry_equiv_pos_site_id
_symmetry_equiv_pos_as_xyz
1 x,y,z
_cell_length_a 6.5131(13)
_cell_length_b 7.9315(16)
_cell_length_c 9.954(2)
_cell_angle_alpha 90.89(3)
_cell_angle_beta 94.28(3)
_cell_angle_gamma 112.44(3)
_cell_formula_units_Z 1
loop_
_atom_type_symbol
_atom_type_radius_bond
C 0.68
H 0.23
N 0.68
O 0.68
loop_
_atom_site_label
_atom_site_type_symbol
_atom_site_fract_x
_atom_site_fract_y
_atom_site_fract_z
O1 O 1.0332(4) 0.8171(4) 0.5207(3)
O2 O 0.5071(4) 0.3533(4) 0.7110(3)
N1 N 0.8272(4) 0.7197(4) 0.5208(3)
O3 O 0.3627(4) 0.4590(5) 0.5387(3)
C1 C 0.7595(5) 0.5792(5) 0.5980(3)
C2 C 0.5222(5) 0.4639(5) 0.6086(3)
O4 O 0.7429(7) 0.5847(5) 0.2650(3)
O5 O 0.9933(6) 0.7770(5) 0.8427(3)
C3 C 0.9411(5) 0.5401(5) 0.6742(4)
H1 H 1.04870 0.53860 0.61230
H2 H 0.87790 0.41920 0.70930
O6 O 1.2527(5) 0.6590(5) 0.8264(4)
C4 C 1.0608(6) 0.6751(5) 0.7892(4)
C5 C 0.2854(8) 0.2267(7) 0.7300(7)
H3 H 0.21770 0.15890 0.64670
H4 H 0.19800 0.29270 0.75800
H5 H 0.29250 0.14410 0.79800
C6 C 0.6780(6) 0.7789(5) 0.4272(4)
H6 H 0.52280 0.69550 0.43250
C7 C 0.7036(7) 0.9730(6) 0.4709(5)
H7 H 0.85920 1.05510 0.46490
C8 C 0.7440(13) 0.7616(10) 0.2866(5)
H8 H 0.63970 0.78180 0.22030
H9 H 0.89160 0.85260 0.27690
C9 C 0.8926(9) 0.4163(7) 0.1290(4)
C10 C 0.9449(11) 0.1656(8) 0.0142(7)
H10 H 0.90870 0.07980 -0.05750
C11 C 0.5562(11) 1.0381(9) 0.3782(7)
H11 H 0.60390 1.04630 0.28880
H12 H 0.56720 1.15610 0.41060
H13 H 0.40430 0.95310 0.37670
C12 C 1.0530(9) 0.4179(8) 0.2248(5)
H14 H 1.09240 0.50160 0.29800
C13 C 0.6498(10) 0.9789(7) 0.6159(6)
H15 H 0.49530 0.90510 0.62260
H16 H 0.67930 1.10270 0.64470
H17 H 0.74060 0.93280 0.67230
C14 C 1.1564(11) 0.300(1) 0.2154(7)
H18 H 1.26590 0.30420 0.28240
C15 C 0.7747(12) 0.5437(9) 0.1312(5)
H19 H 0.86120 0.65570 0.08970
H20 H 0.63120 0.48890 0.07930
C16 C 1.1042(12) 0.1761(9) 0.1110(7)
H21 H 1.17940 0.09760 0.10620
C17 C 0.8316(9) 0.2864(10) 0.0219(5)
H22 H 0.71840 0.27910 -0.04350
C18 C 1.3820(12) 0.7698(13) 0.9415(7)
H23 H 1.41020 0.89580 0.92670
H24 H 1.52120 0.75440 0.95500
H25 H 1.30130 0.73360 1.02000
#END
