
#######################################################################
#
#                 Cambridge Crystallographic Data Centre
#                                CCDC
#
#######################################################################
#
# If this CIF has been generated from an entry in the Cambridge
# Structural Database, then it will include bibliographic, chemical,
# crystal, experimental, refinement or atomic coordinate data resulting
# from the CCDC's data processing and validation procedures.
#
#######################################################################

data_CSD_CIF_XUQNAY
_audit_creation_date 2003-04-23
_audit_creation_method CSD-ConQuest-V1
_database_code_CSD XUQNAY
_database_code_depnum_ccdc_archive 'CCDC 194628'
_chemical_formula_sum 'C21 H26 N4 O4'
_chemical_formula_moiety
;
C21 H26 N4 O4
;
_journal_coden_Cambridge 24
_journal_volume 43
_journal_year 2002
_journal_page_first 8301
_journal_name_full 'Tetrahedron Lett. '
loop_
_publ_author_name
"G.Mehta"
"A.S.K.Murthy"
"J.D.Umarye"
_chemical_name_systematic
;
3,4,4,7-Tetramethyl-1,3b,4,5,6,6a,7,7a-octahydro-2H-cyclopenta(a)pentalen-2-on
e (2,4-dinitrophenyl)hydrazone
;
_cell_volume   2043.942
_exptl_crystal_density_diffrn 1.295
_diffrn_ambient_temperature 293
#These two values have been output from a single CSD field.
_refine_ls_R_factor_gt 0.0623
_refine_ls_wR_factor_gt 0.0623
_symmetry_cell_setting monoclinic
_symmetry_space_group_name_H-M 'P 21/c'
_symmetry_Int_Tables_number 14
loop_
_symmetry_equiv_pos_site_id
_symmetry_equiv_pos_as_xyz
1 x,y,z
2 x,1/2-y,1/2+z
3 -x,-y,-z
4 -x,-1/2+y,-1/2-z
_cell_length_a 19.600(6)
_cell_length_b 7.028(2)
_cell_length_c 14.840(4)
_cell_angle_alpha 90
_cell_angle_beta 90.897(5)
_cell_angle_gamma 90
_cell_formula_units_Z 4
loop_
_atom_type_symbol
_atom_type_radius_bond
C 0.68
H 0.23
N 0.68
O 0.68
loop_
_atom_site_label
_atom_site_type_symbol
_atom_site_fract_x
_atom_site_fract_y
_atom_site_fract_z
O1 O 0.29756(10) 0.4628(3) 0.04113(16)
O2 O 0.57296(10) 0.0794(3) -0.19002(12)
N1 N 0.59392(10) 0.1627(3) -0.01961(15)
O3 O 0.47088(11) 0.0786(3) -0.24464(13)
C1 C 0.52751(11) 0.2148(3) -0.02314(16)
N2 N 0.62787(9) 0.1609(3) 0.06234(13)
N3 N 0.51165(12) 0.1166(3) -0.18434(14)
O4 O 0.29114(10) 0.4101(3) -0.10158(15)
C2 C 0.49560(12) 0.2832(3) 0.05430(17)
C3 C 0.73311(13) 0.0506(4) -0.01963(18)
C4 C 0.48680(12) 0.2029(3) -0.10282(16)
N4 N 0.32222(11) 0.4092(3) -0.02986(18)
C5 C 0.86158(13) 0.0119(4) 0.16843(19)
C6 C 0.79962(12) -0.0241(4) 0.02337(17)
C7 C 0.73277(12) 0.0997(4) 0.14185(16)
C8 C 0.87018(13) 0.0606(4) 0.0029(2)
C9 C 0.41984(12) 0.2687(3) -0.10467(18)
C10 C 0.79313(12) 0.0238(3) 0.12094(17)
C11 C 0.39236(11) 0.3393(3) -0.02793(17)
C12 C 0.91159(14) 0.0002(5) 0.0874(2)
C13 C 0.42952(12) 0.3426(4) 0.05264(19)
C14 C 0.69073(11) 0.1071(3) 0.05996(16)
C15 C 0.87543(13) -0.1690(4) 0.22548(19)
C16 C 0.89310(18) -0.3152(5) 0.1543(2)
C17 C 0.93565(19) -0.2100(6) 0.0865(3)
C18 C 0.70890(19) 0.1744(6) 0.2298(2)
C19 C 0.8155(2) -0.2301(7) 0.2830(3)
C20 C 0.8677(2) 0.2747(5) -0.0100(3)
C21 C 0.9374(2) -0.1311(8) 0.2881(3)
H1 H 0.9486(14) 0.085(4) 0.0979(17)
H2 H 0.8684(11) 0.122(4) 0.2078(15)
H3 H 0.8887(12) 0.007(3) -0.0497(18)
H4 H 0.7094(12) -0.042(4) -0.0544(17)
H5 H 0.9142(15) -0.430(5) 0.1839(19)
H6 H 0.3950(11) 0.263(3) -0.1574(16)
H7 H 0.8016(11) -0.163(4) 0.0140(15)
H8 H 0.8510(15) -0.358(4) 0.1270(19)
H9 H 0.5201(10) 0.288(3) 0.1072(15)
H10 H 0.7394(13) 0.162(4) -0.0579(18)
H11 H 0.9272(18) -0.023(6) 0.333(3)
H12 H 0.948(2) -0.245(6) 0.318(3)
H13 H 0.8269(18) -0.345(5) 0.313(3)
H14 H 0.9134(19) 0.329(5) -0.010(2)
H15 H 0.9291(17) -0.260(5) 0.025(3)
H16 H 0.4103(12) 0.392(4) 0.1041(17)
H17 H 0.9812(19) -0.211(5) 0.105(2)
H18 H 0.8423(18) 0.340(5) 0.041(2)
H19 H 0.692(2) 0.301(6) 0.224(3)
H20 H 0.6121(13) 0.118(4) -0.0689(19)
H21 H 0.8429(19) 0.306(5) -0.066(3)
H22 H 0.7442(17) 0.184(4) 0.273(2)
H23 H 0.807(2) -0.133(6) 0.334(3)
H24 H 0.7749(17) -0.250(5) 0.243(2)
H25 H 0.980(2) -0.083(7) 0.247(3)
H26 H 0.674(2) 0.103(7) 0.256(3)
#END
