
#######################################################################
#
#                 Cambridge Crystallographic Data Centre
#                                CCDC
#
#######################################################################
#
# If this CIF has been generated from an entry in the Cambridge
# Structural Database, then it will include bibliographic, chemical,
# crystal, experimental, refinement or atomic coordinate data resulting
# from the CCDC's data processing and validation procedures.
#
#######################################################################

data_CSD_CIF_XURBES
_audit_creation_date 2010-09-21
_audit_creation_method CSD-ConQuest-V1
_database_code_CSD XURBES
_database_code_depnum_ccdc_archive 'CCDC 770245'
_chemical_formula_sum 'C14 H18 N4 O5'
_chemical_formula_moiety
;
C14 H18 N4 O5
;
_journal_coden_Cambridge 35
_journal_volume 74
_journal_year 2009
_journal_page_first 6631
_journal_name_full 'J.Org.Chem. '
loop_
_publ_author_name
"S.P.McClintock"
"N.Forster"
"R.Herges"
"M.M.Haley"
_chemical_name_systematic
;
Methyl (2-(diethylamino)-5-nitro-2H-indazol-3-yl)(hydroxy)acetate
;
_cell_volume   1637.170
_exptl_crystal_colour 'colorless'
_exptl_crystal_density_diffrn 1.308
_exptl_crystal_description 'needle'
_diffrn_ambient_temperature 173
#These two values have been output from a single CSD field.
_refine_ls_R_factor_gt 0.0546
_refine_ls_wR_factor_gt 0.0546
_symmetry_cell_setting monoclinic
_symmetry_space_group_name_H-M 'P 21/c'
_symmetry_Int_Tables_number 14
loop_
_symmetry_equiv_pos_site_id
_symmetry_equiv_pos_as_xyz
1 x,y,z
2 -x,1/2+y,1/2-z
3 -x,-y,-z
4 x,-1/2-y,-1/2+z
_cell_length_a 9.739(2)
_cell_length_b 14.681(3)
_cell_length_c 11.462(3)
_cell_angle_alpha 90
_cell_angle_beta 92.569(4)
_cell_angle_gamma 90
_cell_formula_units_Z 4
loop_
_atom_type_symbol
_atom_type_radius_bond
C 0.68
H 0.23
N 0.68
O 0.68
loop_
_atom_site_label
_atom_site_type_symbol
_atom_site_fract_x
_atom_site_fract_y
_atom_site_fract_z
O1 O 0.0013(2) 0.11204(13) 0.03888(18)
O2 O -0.2580(2) 0.00063(14) -0.14006(18)
O3 O -0.2436(2) 0.02111(13) 0.05429(19)
O4 O -0.5028(3) 0.27493(17) 0.1491(2)
O5 O -0.5840(3) 0.39516(15) 0.0624(2)
N1 N -0.1149(3) 0.29005(16) -0.26486(19)
N2 N -0.0621(2) 0.20957(16) -0.22227(19)
N3 N 0.0491(3) 0.16576(17) -0.27267(19)
N4 N -0.5031(3) 0.33083(19) 0.0697(3)
C1 C -0.1233(3) 0.17710(19) -0.1280(2)
C2 C -0.2256(3) 0.23978(18) -0.1042(2)
C3 C -0.2155(3) 0.30855(19) -0.1908(2)
C4 C -0.3030(3) 0.3854(2) -0.1908(3)
C5 C -0.3959(3) 0.3901(2) -0.1062(3)
C6 C -0.4044(3) 0.3206(2) -0.0215(2)
C7 C -0.3218(3) 0.2462(2) -0.0177(3)
C8 C -0.0768(3) 0.09228(19) -0.0655(2)
C9 C -0.2010(3) 0.03392(19) -0.0410(3)
C10 C -0.3780(5) -0.0564(4) -0.1281(5)
C11 C 0.1707(4) 0.2260(3) -0.2699(3)
C12 C 0.2161(5) 0.2514(5) -0.1481(4)
C13 C 0.0095(4) 0.1344(3) -0.3916(3)
C14 C -0.1004(5) 0.0625(3) -0.3905(3)
H1 H -0.053(4) 0.135(3) 0.091(3)
H2 H -0.290(3) 0.430(2) -0.247(3)
H3 H -0.455(3) 0.4401(18) -0.102(2)
H4 H -0.329(2) 0.2044(15) 0.0412(19)
H5 H -0.016(3) 0.0591(16) -0.114(2)
H6 H -0.393(4) -0.080(3) -0.204(4)
H7 H -0.361(4) -0.104(3) -0.068(3)
H8 H -0.452(5) -0.020(3) -0.110(4)
H9 H 0.242(3) 0.190(2) -0.306(3)
H10 H 0.151(3) 0.279(2) -0.323(3)
H11 H 0.156(5) 0.294(3) -0.108(4)
H12 H 0.228(4) 0.200(3) -0.102(3)
H13 H 0.305(4) 0.288(2) -0.146(3)
H14 H -0.021(3) 0.187(2) -0.441(3)
H15 H 0.098(3) 0.111(2) -0.426(3)
H16 H -0.132(3) 0.0443(19) -0.471(3)
H17 H -0.190(4) 0.087(2) -0.357(3)
H18 H -0.068(4) 0.003(2) -0.342(3)
#END
