
#######################################################################
#
#                 Cambridge Crystallographic Data Centre
#                                CCDC
#
#######################################################################
#
# If this CIF has been generated from an entry in the Cambridge
# Structural Database, then it will include bibliographic, chemical,
# crystal, experimental, refinement or atomic coordinate data resulting
# from the CCDC's data processing and validation procedures.
#
#######################################################################

data_CSD_CIF_XURHEY
_audit_creation_date 2010-09-21
_audit_creation_method CSD-ConQuest-V1
_database_code_CSD XURHEY
_database_code_depnum_ccdc_archive 'CCDC 770295'
_chemical_formula_sum 'C19 H22 N2 O7'
_chemical_formula_moiety
;
C19 H22 N2 O7
;
_journal_coden_Cambridge 35
_journal_volume 74
_journal_year 2009
_journal_page_first 6825
_journal_name_full 'J.Org.Chem. '
loop_
_publ_author_name
"Xiaozhao Wang"
"S.C.Butler"
"J.C.Gallucci"
"L.A.Paquette"
_chemical_name_systematic
;
4a-Methyl-2-oxodecahydro-1H-benzo[7]annulen-5-yl 3,5-dinitrobenzoate
;
_cell_volume   1859.560
_exptl_crystal_colour 'colorless'
_exptl_crystal_density_diffrn 1.394
_exptl_crystal_description 'rhombus-block'
_diffrn_ambient_temperature 293
#These two values have been output from a single CSD field.
_refine_ls_R_factor_gt 0.047
_refine_ls_wR_factor_gt 0.047
_symmetry_cell_setting monoclinic
_symmetry_space_group_name_H-M 'P 21/c'
_symmetry_Int_Tables_number 14
loop_
_symmetry_equiv_pos_site_id
_symmetry_equiv_pos_as_xyz
1 x,y,z
2 -x,1/2+y,1/2-z
3 -x,-y,-z
4 x,-1/2-y,-1/2+z
_cell_length_a 16.6110(4)
_cell_length_b 11.5186(3)
_cell_length_c 9.8507(2)
_cell_angle_alpha 90
_cell_angle_beta 99.385(1)
_cell_angle_gamma 90
_cell_formula_units_Z 4
loop_
_atom_type_symbol
_atom_type_radius_bond
C 0.68
H 0.23
N 0.68
O 0.68
loop_
_atom_site_label
_atom_site_type_symbol
_atom_site_fract_x
_atom_site_fract_y
_atom_site_fract_z
C1 C 0.18263(12) 0.44900(17) 0.2271(2)
C2 C 0.20116(13) 0.32315(18) 0.2772(2)
H1 H 0.24730 0.29450 0.23810
H2 H 0.21690 0.32380 0.37640
C3 C 0.12955(15) 0.2392(2) 0.2393(3)
H3 H 0.11780 0.22940 0.14020
H4 H 0.14340 0.16390 0.28070
C4 C 0.05695(14) 0.2869(2) 0.2900(2)
C5 C 0.03292(13) 0.4047(2) 0.2347(3)
H5 H -0.01430 0.43100 0.27240
H6 H 0.01760 0.40010 0.13550
C6 C 0.10297(13) 0.4941(2) 0.2707(2)
H7 H 0.08680 0.56260 0.21380
C7 C 0.11079(15) 0.5340(2) 0.4187(3)
H8 H 0.15260 0.48770 0.47430
H9 H 0.05960 0.51880 0.45090
C8 C 0.13209(14) 0.6621(2) 0.4424(3)
H10 H 0.09110 0.70760 0.38400
H11 H 0.12790 0.68080 0.53700
C9 C 0.21553(14) 0.7013(2) 0.4161(3)
H12 H 0.25610 0.67680 0.49300
H13 H 0.21620 0.78550 0.41350
C10 C 0.24050(13) 0.65568(17) 0.2840(2)
H14 H 0.29050 0.69350 0.26890
H15 H 0.19830 0.67350 0.20660
C11 C 0.25371(11) 0.52473(17) 0.29343(19)
H16 H 0.26590 0.50420 0.39120
C12 C 0.17373(17) 0.4548(2) 0.0686(2)
H17 H 0.16770 0.53430 0.03930
H18 H 0.12650 0.41150 0.02810
H19 H 0.22140 0.42230 0.03980
C13 C 0.39726(11) 0.51660(16) 0.30088(19)
C14 C 0.46539(11) 0.47335(15) 0.23297(17)
C15 C 0.45335(11) 0.39460(15) 0.12520(17)
H20 H 0.40140 0.36670 0.09170
C16 C 0.51970(11) 0.35822(14) 0.06845(17)
C17 C 0.59780(11) 0.39704(16) 0.11488(18)
H21 H 0.64190 0.37230 0.07510
C18 C 0.60740(11) 0.47405(16) 0.22291(18)
C19 C 0.54333(11) 0.51299(15) 0.28294(17)
H22 H 0.55220 0.56510 0.35600
N1 N 0.50614(11) 0.27930(14) -0.05035(16)
N2 N 0.69003(11) 0.51752(16) 0.27598(18)
O1 O 0.02129(12) 0.2357(2) 0.3704(2)
O2 O 0.32466(8) 0.49053(11) 0.22940(13)
O3 O 0.40841(8) 0.56943(13) 0.40799(14)
O4 O 0.4391(1) 0.23386(14) -0.07874(17)
O5 O 0.56188(9) 0.26497(12) -0.11526(14)
O6 O 0.74724(11) 0.47369(19) 0.2326(2)
O7 O 0.69673(10) 0.59456(15) 0.36182(17)
#END
