
#######################################################################
#
#                 Cambridge Crystallographic Data Centre
#                                CCDC
#
#######################################################################
#
# If this CIF has been generated from an entry in the Cambridge
# Structural Database, then it will include bibliographic, chemical,
# crystal, experimental, refinement or atomic coordinate data resulting
# from the CCDC's data processing and validation procedures.
#
#######################################################################

data_CSD_CIF_XUSPIL
_audit_creation_date 2010-10-03
_audit_creation_method CSD-ConQuest-V1
_database_code_CSD XUSPIL
_database_code_depnum_ccdc_archive 'CCDC 744579'
_chemical_formula_sum 'C17 H26 N2 O2'
_chemical_formula_moiety
;
C17 H26 N2 O2
;
_journal_coden_Cambridge 222
_journal_volume 39
_journal_year 2010
_journal_page_first 1763
_journal_name_full 'Dalton Trans. '
loop_
_publ_author_name
"R.S.Forgan"
"J.E.Davidson"
"F.P.A.Fabbiani"
"S.G.Galbraith"
"D.K.Henderson"
"S.A.Moggach"
"S.Parsons"
"P.A.Tasker"
"F.J.White"
_chemical_name_systematic
;
4-t-Butyl-2-((hydroxyimino)methyl)-6-(piperidin-1-ylmethyl)phenol
;
_cell_volume   3244.541
_exptl_crystal_colour 'colorless'
_exptl_crystal_density_diffrn 1.189
_exptl_crystal_description 'block'
_exptl_crystal_preparation 'chloroform/methanol'
_diffrn_ambient_temperature 150
#These two values have been output from a single CSD field.
_refine_ls_R_factor_gt 0.0444
_refine_ls_wR_factor_gt 0.0444
_symmetry_cell_setting monoclinic
_symmetry_space_group_name_H-M 'C 2/c'
_symmetry_Int_Tables_number 15
loop_
_symmetry_equiv_pos_site_id
_symmetry_equiv_pos_as_xyz
1 x,y,z
2 1/2+x,1/2+y,z
3 -x,y,1/2-z
4 1/2-x,1/2+y,1/2-z
5 -x,-y,-z
6 -1/2-x,-1/2-y,-z
7 x,-y,-1/2+z
8 -1/2+x,-1/2-y,-1/2+z
_cell_length_a 20.1661(7)
_cell_length_b 8.5773(3)
_cell_length_c 20.6403(7)
_cell_angle_alpha 90
_cell_angle_beta 114.661(2)
_cell_angle_gamma 90
_cell_formula_units_Z 8
loop_
_atom_type_symbol
_atom_type_radius_bond
C 0.68
H 0.23
N 0.68
O 0.68
loop_
_atom_site_label
_atom_site_type_symbol
_atom_site_fract_x
_atom_site_fract_y
_atom_site_fract_z
O1 O 0.16421(5) 0.68105(10) 0.14353(4)
C1 C 0.15074(6) 0.60614(13) 0.19506(6)
O2 O 0.07976(5) 1.07853(10) 0.17121(5)
C2 C 0.11687(6) 0.68163(13) 0.23376(6)
C3 C 0.10507(6) 0.59862(13) 0.28661(6)
C4 C 0.12627(6) 0.44391(13) 0.30270(6)
C5 C 0.15974(6) 0.37360(13) 0.26299(6)
N1 N 0.14883(5) 0.26074(11) 0.11041(5)
C6 C 0.17084(6) 0.44967(13) 0.20878(6)
C7 C 0.09322(6) 0.84384(13) 0.22039(6)
N2 N 0.10955(5) 0.93003(11) 0.17848(5)
C8 C 0.11549(7) 0.35549(14) 0.36220(6)
C9 C 0.18111(8) 0.38641(19) 0.43284(7)
C10 C 0.10839(10) 0.18003(17) 0.34755(9)
C11 C 0.04642(8) 0.40871(18) 0.36946(7)
C12 C 0.20346(6) 0.36132(13) 0.16571(6)
C13 C 0.09302(6) 0.35670(13) 0.05471(6)
C14 C 0.03682(6) 0.25391(15) -0.00171(6)
C15 C 0.07318(7) 0.14631(16) -0.03583(7)
C16 C 0.13354(8) 0.05342(16) 0.02190(7)
C17 C 0.18675(7) 0.16094(15) 0.07842(7)
H1 H 0.08060 0.65280 0.31350
H2 H 0.17650 0.26330 0.27420
H3 H 0.06380 0.88920 0.24460
H4 H 0.17460 0.32930 0.47210
H5 H 0.18530 0.50070 0.44330
H6 H 0.22660 0.34900 0.42960
H7 H 0.10110 0.12580 0.38690
H8 H 0.15340 0.14050 0.34450
H9 H 0.06510 0.16010 0.30130
H10 H 0.04140 0.34910 0.40880
H11 H 0.05030 0.52290 0.38110
H12 H 0.00290 0.39000 0.32380
H13 H 0.22320 0.43800 0.14180
H14 H 0.24400 0.29410 0.19870
H15 H 0.11730 0.42420 0.03160
H16 H 0.06780 0.42350 0.07720
H17 H 0.00080 0.32170 -0.03940
H18 H 0.01100 0.18970 0.02110
H19 H 0.09450 0.20950 -0.06310
H20 H 0.03600 0.07260 -0.06900
H21 H 0.16040 -0.00820 -0.00040
H22 H 0.11100 -0.01900 0.04510
H23 H 0.21160 0.22870 0.05580
H24 H 0.22400 0.09640 0.11660
H25 H 0.1502(8) 0.7706(12) 0.1419(9)
H26 H 0.1027(8) 1.1326(18) 0.1527(8)
#END
