
#######################################################################
#
#                 Cambridge Crystallographic Data Centre
#                                CCDC
#
#######################################################################
#
# If this CIF has been generated from an entry in the Cambridge
# Structural Database, then it will include bibliographic, chemical,
# crystal, experimental, refinement or atomic coordinate data resulting
# from the CCDC's data processing and validation procedures.
#
#######################################################################

data_CSD_CIF_XUTNUV
_audit_creation_date 2003-04-23
_audit_creation_method CSD-ConQuest-V1
_database_code_CSD XUTNUV
_database_code_depnum_ccdc_archive 'CCDC 204257'
_chemical_formula_sum 'C13 H15 N1 O7'
_chemical_formula_moiety
;
C13 H15 N1 O7
;
_journal_coden_Cambridge 151
_journal_volume 45
_journal_year 2002
_journal_page_first 4774
_journal_name_full 'J.Med.Chem. '
loop_
_publ_author_name
"Fanrong Mu"
"D.J.Lee"
"D.E.Pryor"
"E.Hamel"
"M.Cushman"
_chemical_name_systematic
;
6-Methoxy-2-methyl-3-nitrobenzylidene diacetate
;
_chemical_melting_point 405.15
_cell_volume   2765.379
_exptl_crystal_colour 'colorless'
_exptl_crystal_density_diffrn 1.428
_exptl_special_details
;
Melting point range 405.15-407.15K

;
_exptl_crystal_description 'chunk'
_diffrn_ambient_temperature 150
#These two values have been output from a single CSD field.
_refine_ls_R_factor_gt 0.054
_refine_ls_wR_factor_gt 0.054
_symmetry_cell_setting monoclinic
_symmetry_space_group_name_H-M 'C 2/c'
_symmetry_Int_Tables_number 15
loop_
_symmetry_equiv_pos_site_id
_symmetry_equiv_pos_as_xyz
1 x,y,z
2 -x,y,1/2-z
3 1/2+x,1/2+y,z
4 1/2-x,1/2+y,1/2-z
5 -x,-y,-z
6 x,-y,-1/2+z
7 -1/2-x,-1/2-y,-z
8 -1/2+x,-1/2-y,-1/2+z
_cell_length_a 14.9870(4)
_cell_length_b 7.7645(3)
_cell_length_c 24.4126(8)
_cell_angle_alpha 90
_cell_angle_beta 103.2330(18)
_cell_angle_gamma 90
_cell_formula_units_Z 8
loop_
_atom_type_symbol
_atom_type_radius_bond
C 0.68
H 0.23
N 0.68
O 0.68
loop_
_atom_site_label
_atom_site_type_symbol
_atom_site_fract_x
_atom_site_fract_y
_atom_site_fract_z
O1 O -0.07761(11) -0.09341(19) 0.57200(6)
O2 O -0.09906(10) -0.5062(2) 0.63284(6)
O3 O -0.21046(12) -0.4828(3) 0.55437(7)
O4 O 0.02833(10) -0.54780(18) 0.60049(6)
O5 O 0.07689(11) -0.3748(2) 0.53942(7)
O6 O 0.22811(11) -0.2747(2) 0.78500(7)
O7 O 0.17720(12) -0.0356(2) 0.81145(7)
N1 N 0.17347(12) -0.1537(2) 0.77717(7)
C1 C -0.01695(14) -0.1021(3) 0.62262(8)
C2 C 0.00678(13) -0.2690(3) 0.64328(8)
C3 C 0.06898(13) -0.2935(3) 0.69513(8)
C4 C 0.10424(13) -0.1442(3) 0.72428(8)
C5 C 0.07949(14) 0.0199(3) 0.70462(9)
C6 C 0.01942(15) 0.0421(3) 0.65335(9)
C7 C -0.1020(2) 0.0716(3) 0.54750(12)
C8 C -0.03690(14) -0.4172(3) 0.60657(8)
C9 C -0.18583(14) -0.5348(3) 0.60123(9)
C10 C -0.24198(16) -0.6317(3) 0.63315(10)
C11 C 0.08274(15) -0.5093(3) 0.56444(8)
C12 C 0.14801(17) -0.6513(3) 0.56231(10)
C13 C 0.09258(14) -0.4727(3) 0.71827(9)
H1 H 0.10340 0.11520 0.72610
H2 H 0.00340 0.15220 0.63950
H3 H -0.06910 -0.37460 0.56950
H4 H -0.13050 0.13840 0.57190
H5 H -0.14410 0.05780 0.51170
H6 H -0.04790 0.12980 0.54250
H7 H -0.26020 -0.55650 0.65980
H8 H -0.20670 -0.72550 0.65270
H9 H -0.29550 -0.67610 0.60770
H10 H 0.18880 -0.61780 0.53910
H11 H 0.11470 -0.75230 0.54680
H12 H 0.18280 -0.67580 0.59970
H13 H 0.14650 -0.51280 0.70720
H14 H 0.04240 -0.54910 0.70370
H15 H 0.10390 -0.46990 0.75860
#END
