
#######################################################################
#
#                 Cambridge Crystallographic Data Centre
#                                CCDC
#
#######################################################################
#
# If this CIF has been generated from an entry in the Cambridge
# Structural Database, then it will include bibliographic, chemical,
# crystal, experimental, refinement or atomic coordinate data resulting
# from the CCDC's data processing and validation procedures.
#
#######################################################################

data_CSD_CIF_XUTYAO
_audit_creation_date 2015-09-17
_audit_creation_method CSD-ConQuest-V1
_database_code_CSD XUTYAO
_database_code_depnum_ccdc_archive 'CCDC 1413711'
_chemical_formula_sum 'C16 H15 N1 O6'
_chemical_formula_moiety
;
C16 H15 N1 O6
;
_journal_coden_Cambridge 24
_journal_volume 56
_journal_year 2015
_journal_page_first 6030
_journal_name_full 'Tetrahedron Lett. '
loop_
_publ_author_name
"N.R.Modugu"
"G.Mehta"
_chemical_name_systematic
;
4-Methyl-5-oxo-3-vinyl-7-oxabicyclo[4.1.0]hept-2-yl 4-nitrobenzoate
;
_cell_volume    778.332
_exptl_crystal_colour 'colorless'
_exptl_crystal_density_diffrn 1.354
_exptl_crystal_description 'needle'
_diffrn_ambient_temperature 298
#These two values have been output from a single CSD field.
_refine_ls_R_factor_gt 0.0579
_refine_ls_wR_factor_gt 0.0579
_symmetry_cell_setting triclinic
_symmetry_space_group_name_H-M 'P -1'
_symmetry_Int_Tables_number 2
loop_
_symmetry_equiv_pos_site_id
_symmetry_equiv_pos_as_xyz
1 x,y,z
2 -x,-y,-z
_cell_length_a 6.9558(7)
_cell_length_b 7.1570(6)
_cell_length_c 16.2052(15)
_cell_angle_alpha 102.706(8)
_cell_angle_beta 90.854(8)
_cell_angle_gamma 98.061(8)
_cell_formula_units_Z 2
loop_
_atom_type_symbol
_atom_type_radius_bond
C 0.68
H 0.23
N 0.68
O 0.68
loop_
_atom_site_label
_atom_site_type_symbol
_atom_site_fract_x
_atom_site_fract_y
_atom_site_fract_z
O1 O 0.1484(3) 0.2164(3) 0.06852(11)
O2 O 0.5812(3) 0.0696(4) 0.1275(2)
O3 O 0.1627(2) 0.1437(3) 0.27925(10)
O4 O -0.0874(3) 0.2005(5) 0.35961(14)
O5 O 0.7848(3) 0.3192(5) 0.62443(14)
O6 O 0.5566(4) 0.3558(5) 0.70524(14)
N1 N 0.6153(4) 0.3192(4) 0.63580(14)
C1 C -0.0375(4) -0.2393(4) 0.18920(16)
H1 H 0.0165(4) -0.2463(4) 0.24107(16)
C2 C 0.1430(4) 0.2699(4) 0.15800(17)
H2 H 0.1243(4) 0.4035(4) 0.18280(17)
C3 C 0.0474(3) 0.1156(4) 0.19993(14)
H3 H -0.0880(3) 0.1322(4) 0.21118(14)
C4 C 0.0592(3) -0.0856(3) 0.14780(14)
H4 H -0.0110(3) -0.0994(3) 0.09340(14)
C5 C 0.2706(3) -0.1157(4) 0.12904(14)
H5 H 0.3207(3) -0.1636(4) 0.17608(14)
C6 C 0.3272(4) 0.2419(4) 0.11858(18)
H6 H 0.4206(4) 0.3581(4) 0.11896(18)
C7 C 0.4069(4) 0.0640(4) 0.12376(18)
C8 C 0.0808(4) 0.1878(4) 0.35257(16)
C9 C 0.2242(3) 0.2169(4) 0.42529(14)
C10 C 0.1592(4) 0.2550(5) 0.50664(17)
H7 H 0.0276(4) 0.2591(5) 0.51467(17)
C11 C 0.2863(4) 0.2870(5) 0.57605(17)
H8 H 0.2422(4) 0.3115(5) 0.63072(17)
C12 C 0.4788(4) 0.2818(4) 0.56236(15)
C13 C 0.5475(4) 0.2418(4) 0.48281(15)
H9 H 0.6792(4) 0.2369(4) 0.47542(15)
C14 C 0.4190(4) 0.2087(4) 0.41330(15)
H10 H 0.4638(4) 0.1810(4) 0.35880(15)
C15 C 0.2786(5) -0.2733(4) 0.04876(19)
H11 H 0.196(3) -0.3894(12) 0.0536(7)
H12 H 0.235(3) -0.2302(15) 0.0006(3)
H13 H 0.4098(8) -0.299(2) 0.0418(8)
C16 C -0.1894(5) -0.3631(6) 0.1592(3)
H14 H -0.246(5) -0.354(5) 0.109(2)
H15 H -0.242(5) -0.459(5) 0.191(2)
#END
