
#######################################################################
#
#                 Cambridge Crystallographic Data Centre
#                                CCDC
#
#######################################################################
#
# If this CIF has been generated from an entry in the Cambridge
# Structural Database, then it will include bibliographic, chemical,
# crystal, experimental, refinement or atomic coordinate data resulting
# from the CCDC's data processing and validation procedures.
#
#######################################################################

data_CSD_CIF_XUWCEX
_audit_creation_date 2003-04-23
_audit_creation_method CSD-ConQuest-V1
_database_code_CSD XUWCEX
_database_code_depnum_ccdc_archive 'CCDC 197350'
_chemical_formula_sum 'C14 H10 N2 O4'
_chemical_formula_moiety
;
C14 H10 N2 O4
;
_journal_coden_Cambridge 1350
_journal_volume 5
_journal_year 2003
_journal_page_first 67
_journal_name_full 'CrystEngComm '
loop_
_publ_author_name
"S.Kluge"
"I.Dohnke"
"F.Budde"
"J.Hulliger"
_chemical_name_systematic
;
4,4'-Dinitrostilbene
;
_cell_volume    617.850
_exptl_crystal_colour 'yellow'
_exptl_crystal_density_diffrn 1.453
_exptl_crystal_description 'rod'
_diffrn_ambient_temperature 293
_diffrn_special_details
;
twinned crystal

;
#These two values have been output from a single CSD field.
_refine_ls_R_factor_gt 0.0608
_refine_ls_wR_factor_gt 0.0608
loop_
_citation_database_id_CSD
_citation_special_details
SINHON "is a stereoisomer of this entry"
_symmetry_cell_setting monoclinic
_symmetry_space_group_name_H-M 'P 21/c'
_symmetry_Int_Tables_number 14
loop_
_symmetry_equiv_pos_site_id
_symmetry_equiv_pos_as_xyz
1 x,y,z
2 -x,1/2+y,1/2-z
3 -x,-y,-z
4 x,-1/2-y,-1/2+z
_cell_length_a 3.8180(6)
_cell_length_b 13.0067(19)
_cell_length_c 12.478(2)
_cell_angle_alpha 90
_cell_angle_beta 94.371(19)
_cell_angle_gamma 90
_cell_formula_units_Z 2
loop_
_atom_type_symbol
_atom_type_radius_bond
C 0.68
H 0.23
N 0.68
O 0.68
loop_
_atom_site_label
_atom_site_type_symbol
_atom_site_fract_x
_atom_site_fract_y
_atom_site_fract_z
O1 O 0.5177(6) 0.08191(11) 0.24376(16)
O2 O 0.3054(5) -0.00426(13) 0.37017(15)
N1 N 0.3701(5) 0.07688(14) 0.32616(17)
C1 C 0.0809(5) 0.35701(14) 0.46702(16)
C2 C 0.0382(6) 0.26333(14) 0.52008(17)
H1 H -0.075(5) 0.2614(12) 0.5892(16)
C3 C 0.1310(5) 0.17119(16) 0.47444(18)
H2 H 0.117(5) 0.1101(16) 0.5133(16)
C4 C 0.2639(5) 0.17337(14) 0.37576(17)
C5 C 0.3127(7) 0.26434(15) 0.32084(18)
H3 H 0.422(6) 0.2633(14) 0.2528(18)
C6 C 0.2170(6) 0.35540(16) 0.36758(18)
H4 H 0.248(6) 0.4139(18) 0.330(2)
C7 C -0.0204(6) 0.45255(15) 0.5186(2)
H5 H -0.167(6) 0.4389(14) 0.5833(18)
O1B O -0.5177(6) 0.91809(11) 0.75624(16)
O2B O -0.3054(5) 1.00426(13) 0.62983(15)
N1B N -0.3701(5) 0.92312(14) 0.67384(17)
C1B C -0.0809(5) 0.64299(14) 0.53298(16)
C2B C -0.0382(6) 0.73667(14) 0.47992(17)
H1B H 0.075(5) 0.7386(12) 0.4108(16)
C3B C -0.1310(5) 0.82881(16) 0.52556(18)
H2B H -0.117(5) 0.8899(16) 0.4867(16)
C4B C -0.2639(5) 0.82663(14) 0.62424(17)
C5B C -0.3127(7) 0.73566(15) 0.67916(18)
H3B H -0.422(6) 0.7367(14) 0.7472(18)
C6B C -0.2170(6) 0.64460(16) 0.63242(18)
H4B H -0.248(6) 0.5861(18) 0.670(2)
C7B C 0.0204(6) 0.54745(15) 0.4814(2)
H5B H 0.167(6) 0.5611(14) 0.4167(18)
#END
