
#######################################################################
#
#                 Cambridge Crystallographic Data Centre
#                                CCDC
#
#######################################################################
#
# If this CIF has been generated from an entry in the Cambridge
# Structural Database, then it will include bibliographic, chemical,
# crystal, experimental, refinement or atomic coordinate data resulting
# from the CCDC's data processing and validation procedures.
#
#######################################################################

data_CSD_CIF_XUXFOM
_audit_creation_date 2010-09-20
_audit_creation_method CSD-ConQuest-V1
_database_code_CSD XUXFOM
_database_code_depnum_ccdc_archive 'CCDC 701496'
_chemical_formula_sum 'C24 H30 N4 O6'
_chemical_formula_moiety
;
C24 H30 N4 O6
;
_journal_coden_Cambridge 1186
_journal_volume 21
_journal_year 2009
_journal_page_first 681
_journal_name_full 'Supramol.Chem. '
loop_
_publ_author_name
"S.Kar"
"A.Dutta"
"M.G.B.Drew"
"P.Koley"
"A.Pramanik"
_chemical_name_systematic
;
N-(t-Butoxycarbonyl)phenylalanyl-2-methyl-N-(3-nitrophenyl)alaninamide
;
_chemical_name_common
;
PEPSEQ A=2 PHE*-AIB*
;
_cell_volume   2468.821
_exptl_crystal_colour 'white'
_exptl_crystal_density_diffrn 1.266
_exptl_crystal_description 'needle'
_diffrn_ambient_temperature 150
#These two values have been output from a single CSD field.
_refine_ls_R_factor_gt 0.0801
_refine_ls_wR_factor_gt 0.0801
_symmetry_cell_setting monoclinic
_symmetry_space_group_name_H-M 'P 21/n'
_symmetry_Int_Tables_number 14
loop_
_symmetry_equiv_pos_site_id
_symmetry_equiv_pos_as_xyz
1 x,y,z
2 1/2-x,1/2+y,1/2-z
3 -x,-y,-z
4 -1/2+x,-1/2-y,-1/2+z
_cell_length_a 14.7371(8)
_cell_length_b 11.1049(5)
_cell_length_c 15.1024(7)
_cell_angle_alpha 90
_cell_angle_beta 92.702(4)
_cell_angle_gamma 90
_cell_formula_units_Z 4
loop_
_atom_type_symbol
_atom_type_radius_bond
C 0.68
H 0.23
N 0.68
O 0.68
loop_
_atom_site_label
_atom_site_type_symbol
_atom_site_fract_x
_atom_site_fract_y
_atom_site_fract_z
C1 C 0.83929(19) 0.3658(2) 0.03525(18)
C2 C 0.91858(18) 0.3685(2) -0.10035(16)
H1 H 0.87600 0.31200 -0.12990
C3 C 0.88944(18) 0.4953(2) -0.12521(17)
C4 C 0.81440(19) 0.6178(2) -0.24493(17)
C5 C 0.74305(19) 0.6850(2) -0.19374(17)
C6 C 0.78165(19) 0.3555(3) 0.18644(17)
C7 C 0.7586(2) 0.4873(3) 0.1975(2)
H2 H 0.81230 0.53070 0.21680
H3 H 0.71340 0.49550 0.24070
H4 H 0.73560 0.51930 0.14180
C8 C 0.8277(2) 0.3067(3) 0.27078(18)
H5 H 0.84480 0.22430 0.26190
H6 H 0.78650 0.31120 0.31810
H7 H 0.88090 0.35360 0.28580
C9 C 0.6999(2) 0.2805(3) 0.1587(2)
H8 H 0.67020 0.31520 0.10680
H9 H 0.65850 0.27860 0.20590
H10 H 0.71890 0.20000 0.14560
C10 C 1.01376(19) 0.3433(2) -0.13280(17)
H11 H 1.01450 0.36210 -0.19550
H12 H 1.05700 0.39610 -0.10170
C11 C 1.0435(2) 0.2147(2) -0.11878(18)
C12 C 1.1143(2) 0.1875(3) -0.0601(2)
H13 H 1.14490 0.24880 -0.02920
C13 C 1.1404(3) 0.0682(4) -0.0466(3)
H14 H 1.18810 0.04990 -0.00640
C14 C 1.0960(4) -0.0223(4) -0.0925(4)
H15 H 1.11290 -0.10220 -0.08330
C15 C 1.0260(3) 0.0063(3) -0.1527(3)
H16 H 0.99560 -0.05470 -0.18420
C16 C 1.0009(3) 0.1235(3) -0.1664(3)
H17 H 0.95470 0.14180 -0.20830
C17 C 0.8963(2) 0.7007(3) -0.25631(19)
H18 H 0.92200 0.72300 -0.19910
H19 H 0.87710 0.77170 -0.28810
H20 H 0.94120 0.65910 -0.28880
C18 C 0.7698(2) 0.5869(3) -0.33611(17)
H21 H 0.81210 0.54290 -0.37020
H22 H 0.75280 0.65980 -0.36670
H23 H 0.71670 0.53860 -0.32840
C19 C 0.63009(19) 0.6685(3) -0.07855(17)
C20 C 0.6090(2) 0.6032(3) -0.00448(19)
H24 H 0.64200 0.53410 0.01030
C21 C 0.5397(2) 0.6387(3) 0.0480(2)
H25 H 0.52720 0.59470 0.09840
C22 C 0.4888(2) 0.7400(3) 0.02550(19)
H26 H 0.44150 0.76480 0.05990
C23 C 0.50998(19) 0.8021(3) -0.04839(18)
C24 C 0.57903(19) 0.7695(2) -0.10152(18)
H27 H 0.59120 0.81410 -0.15170
O1 O 0.85375(12) 0.34487(16) 0.12250(11)
O2 O 0.76689(13) 0.39222(17) -0.00291(12)
O3 O 0.91004(12) 0.58339(16) -0.07934(12)
O4 O 0.72360(14) 0.78834(17) -0.21476(13)
O5 O 0.47257(16) 0.9599(2) -0.14408(15)
O6 O 0.39901(15) 0.9453(2) -0.02410(15)
N1 N 0.91665(15) 0.34938(19) -0.00586(14)
H28 H 0.96510 0.32750 0.02380
N2 N 0.84044(14) 0.50444(18) -0.20237(13)
H29 H 0.82330 0.43880 -0.22840
N3 N 0.70049(15) 0.6254(2) -0.13023(14)
H30 H 0.71820 0.55270 -0.11990
N4 N 0.45662(18) 0.9098(2) -0.07402(18)
#END
