
#######################################################################
#
#                 Cambridge Crystallographic Data Centre
#                                CCDC
#
#######################################################################
#
# If this CIF has been generated from an entry in the Cambridge
# Structural Database, then it will include bibliographic, chemical,
# crystal, experimental, refinement or atomic coordinate data resulting
# from the CCDC's data processing and validation procedures.
#
#######################################################################

data_CSD_CIF_XUYRUG
_audit_creation_date 2016-01-13
_audit_creation_method CSD-ConQuest-V1
_database_code_CSD XUYRUG
_database_code_depnum_ccdc_archive 'CCDC 1008562'
_chemical_formula_sum 'C11 H11 N5 O1'
_chemical_formula_moiety
;
C11 H11 N5 O1
;
_journal_coden_Cambridge 493
_journal_volume 94
_journal_year 2015
_journal_page_first 237
_journal_name_full 'Eur.J.Med.Chem. '
loop_
_publ_author_name
"A.I.Stepanov"
"A.A.Astrat'ev"
"A.B.Sheremetev"
"N.K.Lagutina"
"N.V.Palysaeva"
"A.Yu.Tyurin"
"N.S.Aleksandrova"
"N.P.Sadchikova"
"K.Yu.Suponitsky"
"O.P.Atamanenko"
"L.D.Konyushkin"
"R.V.Semenov"
"S.I.Firgang"
"A.S.Kiselyov"
"M.N.Semenova"
"V.V.Semenov"
_chemical_name_systematic
;
4-(1-ethyl-1H-benzimidazol-2-yl)-1,2,5-oxadiazol-3-amine
;
_cell_volume    528.457
_exptl_crystal_colour 'pale yellow'
_exptl_crystal_density_diffrn 1.441
_exptl_special_details
;
anti-proliferative activity

;
_exptl_crystal_description 'plate'
_diffrn_ambient_temperature 120
#These two values have been output from a single CSD field.
_refine_ls_R_factor_gt 0.0667
_refine_ls_wR_factor_gt 0.0667
_symmetry_cell_setting monoclinic
_symmetry_space_group_name_H-M 'P 21'
_symmetry_Int_Tables_number 4
loop_
_symmetry_equiv_pos_site_id
_symmetry_equiv_pos_as_xyz
1 x,y,z
2 -x,1/2+y,-z
_cell_length_a 11.180(2)
_cell_length_b 4.1948(8)
_cell_length_c 11.823(2)
_cell_angle_alpha 90
_cell_angle_beta 107.621(3)
_cell_angle_gamma 90
_cell_formula_units_Z 2
loop_
_atom_type_symbol
_atom_type_radius_bond
C 0.68
H 0.23
N 0.68
O 0.68
loop_
_atom_site_label
_atom_site_type_symbol
_atom_site_fract_x
_atom_site_fract_y
_atom_site_fract_z
O1 O 0.4558(3) 0.4238(10) 0.2664(3)
N1 N 0.4828(4) 0.2229(11) 0.3657(3)
N2 N 0.5553(3) 0.4396(11) 0.2208(3)
N3 N 0.6613(3) -0.0831(11) 0.4662(3)
H1 H 0.74150 -0.14610 0.48090
H2 H 0.62280 -0.16620 0.51620
N4 N 0.8075(3) 0.3353(10) 0.1865(3)
N5 N 0.8514(3) 0.0279(11) 0.3516(3)
C1 C 0.5978(4) 0.1186(11) 0.3806(4)
C2 C 0.6427(4) 0.2574(13) 0.2879(4)
C3 C 0.7671(4) 0.2073(12) 0.2752(3)
C4 C 0.9559(4) 0.0403(11) 0.3122(3)
C5 C 1.0743(4) -0.0982(13) 0.3613(4)
H3 H 1.09250 -0.22700 0.43050
C6 C 1.1647(4) -0.0384(13) 0.3040(4)
H4 H 1.24650 -0.12550 0.33570
C7 C 1.1369(4) 0.1484(12) 0.2002(4)
H5 H 1.20040 0.18390 0.16350
C8 C 1.0195(4) 0.2815(12) 0.1502(4)
H6 H 1.00060 0.40340 0.07930
C9 C 0.9300(4) 0.2283(11) 0.2090(4)
C10 C 0.7406(4) 0.5389(12) 0.0876(4)
H7 H 0.80220 0.66980 0.06310
H8 H 0.68530 0.68560 0.11430
C11 C 0.6620(4) 0.3498(13) -0.0187(4)
H9 H 0.61530 0.49710 -0.08070
H10 H 0.60300 0.21380 0.00570
H11 H 0.71710 0.21680 -0.04950
#END
