
#######################################################################
#
#                 Cambridge Crystallographic Data Centre
#                                CCDC
#
#######################################################################
#
# If this CIF has been generated from an entry in the Cambridge
# Structural Database, then it will include bibliographic, chemical,
# crystal, experimental, refinement or atomic coordinate data resulting
# from the CCDC's data processing and validation procedures.
#
#######################################################################

data_CSD_CIF_YABBIM
_audit_creation_date 1992-11-25
_audit_creation_method CSD-ConQuest-V1
_database_code_CSD YABBIM
_database_code_depnum_ccdc_archive 'CCDC 1298230'
_chemical_formula_sum 'C28 H29 N3 O3'
_chemical_formula_moiety
;
C28 H29 N3 O3
;
_journal_coden_Cambridge 7
_journal_volume 64
_journal_year 1991
_journal_page_first 3274
_journal_name_full 'Bull.Chem.Soc.Jpn. '
loop_
_publ_author_name
"S.Kanemasa"
"T.Hayashi"
"H.Yamamoto"
"E.Wada"
"T.Sakurai"
_chemical_name_systematic
;
rac-(4RS,5RS,4'RS,5'SR)-Methyl 
trans-5-(trans-1,3-dimethyl-4,5-diphenylperhydro-2-imidazolyl)-3-phenyl-2-isox
azoline-4-carboxylate
;
_chemical_melting_point 412.15
_cell_volume   2486.272
_exptl_crystal_colour 'colorless'
_exptl_crystal_density_diffrn 1.216
_exptl_special_details
;
Melting point range 412.15-412.65K

;
_diffrn_ambient_temperature ?
_diffrn_special_details
;
The study was carried out at room temperature,in the range 283-303K

;
#These two values have been output from a single CSD field.
_refine_ls_R_factor_gt 0.051
_refine_ls_wR_factor_gt 0.051
_symmetry_cell_setting monoclinic
_symmetry_space_group_name_H-M 'P 21/n'
_symmetry_Int_Tables_number 14
loop_
_symmetry_equiv_pos_site_id
_symmetry_equiv_pos_as_xyz
1 x,y,z
2 1/2-x,1/2+y,1/2-z
3 -x,-y,-z
4 -1/2+x,-1/2-y,-1/2+z
_cell_length_a 9.13(5)
_cell_length_b 28.39(1)
_cell_length_c 10.08(1)
_cell_angle_alpha 90
_cell_angle_beta 107.9(2)
_cell_angle_gamma 90
_cell_formula_units_Z 4
loop_
_atom_type_symbol
_atom_type_radius_bond
C 0.68
H 0.23
N 0.68
O 0.68
loop_
_atom_site_label
_atom_site_type_symbol
_atom_site_fract_x
_atom_site_fract_y
_atom_site_fract_z
O1 O 0.6089(4) -0.0115(1) 0.2063(4)
O2 O 0.3180(5) -0.0305(2) 0.4221(5)
O3 O 0.1129(5) -0.0165(1) 0.2382(4)
N1 N 0.5804(6) -0.0604(2) 0.1979(5)
N2 N 0.5479(5) 0.0972(2) 0.1923(5)
N3 N 0.2982(5) 0.0758(2) 0.1701(5)
C1 C 0.4791(6) 0.0124(2) 0.2344(5)
C2 C 0.3499(7) -0.0240(2) 0.1962(5)
C3 C 0.4411(7) -0.0680(2) 0.1946(5)
C4 C 0.4399(7) 0.0580(2) 0.1497(6)
C5 C 0.5032(7) 0.1229(2) 0.2984(6)
C6 C 0.3275(7) 0.1227(2) 0.2356(7)
C7 C 0.3783(7) -0.1159(2) 0.1777(6)
C8 C 0.2246(8) -0.1240(2) 0.1466(7)
C9 C 0.1637(8) -0.1696(3) 0.1251(8)
C10 C 0.258(1) -0.2067(3) 0.1356(8)
C11 C 0.413(1) -0.1999(3) 0.1702(9)
C12 C 0.4746(7) -0.1549(3) 0.1917(7)
C13 C 0.2328(7) 0.1321(2) 0.3294(7)
C14 C 0.1165(8) 0.1652(2) 0.2966(8)
C15 C 0.0249(8) 0.1719(2) 0.383(1)
C16 C 0.0487(9) 0.1458(3) 0.503(1)
C17 C 0.1644(9) 0.1140(3) 0.5362(7)
C18 C 0.2556(7) 0.1062(2) 0.4512(8)
C19 C 0.5719(6) 0.1721(2) 0.3236(7)
C20 C 0.6261(7) 0.1900(2) 0.4578(7)
C21 C 0.6852(8) 0.2351(3) 0.4800(8)
C22 C 0.6929(9) 0.2622(3) 0.370(1)
C23 C 0.6406(9) 0.2448(3) 0.237(1)
C24 C 0.5811(8) 0.1997(2) 0.2139(7)
C25 C 0.2610(8) -0.0242(2) 0.2992(8)
C26 C 0.0194(8) -0.0129(3) 0.3293(9)
C27 C 0.7104(7) 0.0858(2) 0.2268(7)
C28 C 0.1638(7) 0.0767(2) 0.0446(7)
H1 H 0.50490 0.02020 0.33530
H2 H 0.28220 -0.01690 0.10290
H3 H 0.42530 0.05100 0.05240
H4 H 0.53040 0.10460 0.38550
H5 H 0.30240 0.14670 0.16270
H6 H 0.15350 -0.09710 0.14050
H7 H 0.04870 -0.17470 0.10260
H8 H 0.21530 -0.23880 0.11880
H9 H 0.48060 -0.22790 0.17930
H10 H 0.58840 -0.15110 0.21770
H11 H 0.10070 0.18490 0.21210
H12 H -0.06020 0.19510 0.36390
H13 H -0.01470 0.15030 0.56610
H14 H 0.17870 0.09490 0.62160
H15 H 0.34100 0.08280 0.48070
H16 H 0.62760 0.17050 0.53940
H17 H 0.72110 0.24810 0.57530
H18 H 0.73760 0.29460 0.38710
H19 H 0.64240 0.26450 0.15730
H20 H 0.54890 0.18580 0.11750
H21 H 0.05280 0.01190 0.40180
H22 H -0.08810 -0.00770 0.28600
H23 H 0.02420 -0.04200 0.38790
H24 H 0.74640 0.06600 0.30840
H25 H 0.73340 0.06890 0.15150
H26 H 0.77450 0.11350 0.24420
H27 H 0.07130 0.08630 0.06690
H28 H 0.17500 0.09880 -0.02440
H29 H 0.14200 0.04650 0.00050
#END
