
#######################################################################
#
#                 Cambridge Crystallographic Data Centre
#                                CCDC
#
#######################################################################
#
# If this CIF has been generated from an entry in the Cambridge
# Structural Database, then it will include bibliographic, chemical,
# crystal, experimental, refinement or atomic coordinate data resulting
# from the CCDC's data processing and validation procedures.
#
#######################################################################

data_CSD_CIF_YABFOX
_audit_creation_date 2004-12-09
_audit_creation_method CSD-ConQuest-V1
_database_code_CSD YABFOX
_database_code_depnum_ccdc_archive 'CCDC 226563'
_chemical_formula_sum 'C31 H32 N6 O6'
_chemical_formula_moiety
;
C31 H32 N6 O6
;
_journal_coden_Cambridge 1291
_journal_year 2004
_journal_page_first 2620
_journal_name_full 'Eur.J.Org.Chem. '
loop_
_publ_author_name
"A.Carella"
"R.Centore"
"A.Fort"
"A.Peluso"
"A.Sirigu"
"A.Tuzi"
_chemical_name_systematic
;
(E)-1-Ethyl-2-(4-((4-N,N-bis(2-acetyloxyethyl)amino)phenylazo)styryl)-6-nitrob
enzimidazole
;
_cell_volume   1459.593
_exptl_crystal_colour 'orange'
_exptl_crystal_density_diffrn 1.33
_exptl_special_details
;
low melting (134deg.C) crystal phase

;
_exptl_crystal_description 'prism'
_exptl_crystal_preparation 'chloroform/heptane'
_diffrn_ambient_temperature 293
#These two values have been output from a single CSD field.
_refine_ls_R_factor_gt 0.0519
_refine_ls_wR_factor_gt 0.0519
_symmetry_cell_setting triclinic
_symmetry_space_group_name_H-M 'P -1'
_symmetry_Int_Tables_number 2
loop_
_symmetry_equiv_pos_site_id
_symmetry_equiv_pos_as_xyz
1 x,y,z
2 -x,-y,-z
_cell_length_a 8.739(7)
_cell_length_b 12.847(3)
_cell_length_c 13.572(4)
_cell_angle_alpha 84.37(2)
_cell_angle_beta 74.31(7)
_cell_angle_gamma 89.56(6)
_cell_formula_units_Z 2
loop_
_atom_type_symbol
_atom_type_radius_bond
C 0.68
H 0.23
N 0.68
O 0.68
loop_
_atom_site_label
_atom_site_type_symbol
_atom_site_fract_x
_atom_site_fract_y
_atom_site_fract_z
C1 C 2.0270(6) -0.9086(4) 0.8427(4)
H1 H 2.09170 -0.84690 0.83640
H2 H 2.09370 -0.96590 0.81930
H3 H 1.96920 -0.92530 0.91340
C2 C 1.9135(7) -0.8895(4) 0.7794(4)
C3 C 1.8133(6) -0.7645(3) 0.6740(3)
H4 H 1.78400 -0.82510 0.64530
H5 H 1.86120 -0.71250 0.61750
C4 C 1.6675(5) -0.7209(3) 0.7415(3)
H6 H 1.58700 -0.71370 0.70430
H7 H 1.62680 -0.77070 0.80140
C5 C 1.6123(8) -0.9159(4) 1.0668(4)
H8 H 1.51280 -0.92320 1.05050
H9 H 1.59690 -0.93210 1.13940
H10 H 1.68750 -0.96310 1.03020
C6 C 1.6731(7) -0.8076(4) 1.0363(3)
C7 C 1.6206(5) -0.6410(3) 0.9678(3)
H11 H 1.65840 -0.61500 1.02190
H12 H 1.52740 -0.60170 0.96260
C8 C 1.7477(5) -0.6217(3) 0.8676(3)
H13 H 1.80010 -0.55510 0.86630
H14 H 1.82660 -0.67560 0.86500
C9 C 1.6370(4) -0.5292(3) 0.7366(3)
C10 C 1.6005(5) -0.5223(3) 0.6425(3)
H15 H 1.61660 -0.57940 0.60400
C11 C 1.5406(5) -0.4315(3) 0.6061(3)
H16 H 1.51620 -0.42890 0.54330
C12 C 1.5156(4) -0.3449(3) 0.6596(3)
C13 C 1.5584(5) -0.3493(3) 0.7510(3)
H17 H 1.54720 -0.29080 0.78730
C14 C 1.6167(5) -0.4388(3) 0.7877(3)
H18 H 1.64420 -0.44000 0.84940
C15 C 1.3677(4) -0.0927(3) 0.6172(3)
C16 C 1.3867(5) 0.0046(3) 0.6456(3)
H19 H 1.44300 0.01260 0.69360
C17 C 1.3231(5) 0.0912(3) 0.6035(3)
H20 H 1.33870 0.15700 0.62270
C18 C 1.2360(4) 0.0811(3) 0.5329(3)
C19 C 1.2159(5) -0.0181(3) 0.5066(3)
H21 H 1.15760 -0.02670 0.45980
C20 C 1.2794(4) -0.1039(3) 0.5475(3)
H22 H 1.26370 -0.16980 0.52860
C21 C 1.1702(4) 0.1735(3) 0.4889(3)
H23 H 1.16700 0.23410 0.52170
C22 C 1.1151(4) 0.1798(3) 0.4073(3)
H24 H 1.12120 0.12120 0.37140
C23 C 1.0456(4) 0.2730(3) 0.3710(3)
C24 C 0.9524(4) 0.4261(3) 0.3587(3)
C25 C 0.8997(5) 0.5280(3) 0.3736(3)
H25 H 0.90500 0.55950 0.43150
C26 C 0.8403(5) 0.5788(3) 0.2997(3)
H26 H 0.80460 0.64670 0.30680
C27 C 0.8323(5) 0.5311(3) 0.2140(3)
C28 C 0.8811(4) 0.4320(3) 0.1965(3)
H27 H 0.87410 0.40140 0.13850
C29 C 0.9421(4) 0.3799(3) 0.2720(3)
C30 C 1.0121(5) 0.2030(3) 0.2090(3)
H28 H 0.92060 0.20900 0.18130
H29 H 1.00790 0.13390 0.24550
C31 C 1.1579(6) 0.2135(4) 0.1231(4)
H30 H 1.15810 0.15990 0.07850
H31 H 1.24910 0.20640 0.14960
H32 H 1.16140 0.28090 0.08510
N1 N 1.6914(4) -0.6203(2) 0.7762(2)
N2 N 1.4500(4) -0.2575(2) 0.6149(2)
N3 N 1.4375(4) -0.1778(3) 0.6632(2)
N4 N 1.0166(4) 0.3577(2) 0.4208(2)
N5 N 1.0013(4) 0.2809(2) 0.2815(2)
N6 N 0.7687(4) 0.5908(3) 0.1371(3)
O1 O 1.8208(6) -0.9532(3) 0.7714(4)
O2 O 1.9277(4) -0.7943(2) 0.7309(2)
O3 O 1.7939(4) -0.7741(3) 1.0468(3)
O4 O 1.5758(3) -0.7488(2) 0.9959(2)
O5 O 0.7174(4) 0.6779(3) 0.1538(3)
O6 O 0.7699(4) 0.5512(3) 0.0580(3)
#END
