
#######################################################################
#
#                 Cambridge Crystallographic Data Centre
#                                CCDC
#
#######################################################################
#
# If this CIF has been generated from an entry in the Cambridge
# Structural Database, then it will include bibliographic, chemical,
# crystal, experimental, refinement or atomic coordinate data resulting
# from the CCDC's data processing and validation procedures.
#
#######################################################################

data_CSD_CIF_YABMAQ
_audit_creation_date 2004-12-09
_audit_creation_method CSD-ConQuest-V1
_database_code_CSD YABMAQ
_database_code_depnum_ccdc_archive 'CCDC 239245'
_chemical_formula_sum 'C16 H19 N3 O3'
_chemical_formula_moiety
;
C16 H19 N3 O3
;
_journal_coden_Cambridge 24
_journal_volume 45
_journal_year 2004
_journal_page_first 5287
_journal_name_full 'Tetrahedron Lett. '
loop_
_publ_author_name
"R.Deprez-Poulain"
"N.Willand"
"C.Boutillon"
"G.Nowogrocki"
"N.Azaroual"
"B.Deprez"
_chemical_name_systematic
;
(2S,3R,3aS,12aR)-2-Methyl-3-(nitromethyl)-2,3,3a,4,7,12-hexahydrocyclopenta(2,
3)pyrrolo(2,1-b)quinazolin-5(1H)-one
;
_cell_volume    741.335
_exptl_crystal_colour 'pale brown'
_exptl_crystal_density_diffrn 1.35
_exptl_crystal_description 'platelet'
_diffrn_ambient_temperature 100
#These two values have been output from a single CSD field.
_refine_ls_R_factor_gt 0.0374
_refine_ls_wR_factor_gt 0.0374
_symmetry_cell_setting monoclinic
_symmetry_space_group_name_H-M 'P 21'
_symmetry_Int_Tables_number 4
loop_
_symmetry_equiv_pos_site_id
_symmetry_equiv_pos_as_xyz
1 x,y,z
2 -x,1/2+y,-z
_cell_length_a 6.9927(14)
_cell_length_b 7.5461(15)
_cell_length_c 14.094(3)
_cell_angle_alpha 90
_cell_angle_beta 94.577(3)
_cell_angle_gamma 90
_cell_formula_units_Z 2
loop_
_atom_type_symbol
_atom_type_radius_bond
C 0.68
H 0.23
N 0.68
O 0.68
loop_
_atom_site_label
_atom_site_type_symbol
_atom_site_fract_x
_atom_site_fract_y
_atom_site_fract_z
O1 O 0.86495(18) 0.26043(19) 0.75450(9)
N1 N 0.2424(2) 0.2798(2) 0.65248(10)
C1 C 0.6919(3) 0.2843(3) 0.76111(13)
C2 C 0.3742(3) 0.2996(2) 0.82220(12)
N2 N 0.2473(2) 0.2509(2) 1.02081(11)
C3 C 0.4384(3) 0.3752(3) 0.52652(13)
O2 O 0.2362(2) 0.0929(2) 1.00101(11)
N3 N 0.5666(2) 0.3485(2) 0.69229(11)
C4 C 0.1043(3) 0.2979(3) 0.48821(14)
O3 O 0.3351(2) 0.3079(2) 1.09296(10)
C5 C 0.2604(3) 0.3189(2) 0.55617(13)
C6 C 0.1952(3) 0.5832(3) 0.81221(13)
C7 C 0.3728(2) 0.3763(3) 0.71960(13)
C8 C 0.1502(3) 0.3808(3) 0.95190(13)
C9 C 0.3244(3) 0.5762(3) 0.72894(13)
C10 C 0.2983(3) 0.3926(3) 0.36330(14)
C11 C 0.2938(3) 0.4487(2) 0.88294(13)
C12 C 0.6132(3) 0.3933(3) 0.59617(14)
C13 C 0.1241(3) 0.3361(3) 0.39280(15)
C14 C 0.4543(3) 0.4115(3) 0.43001(14)
C15 C 0.5846(3) 0.2457(3) 0.84871(14)
C16 C 0.1769(3) 0.7684(3) 0.85458(14)
H1 H 0.717(3) 0.305(3) 0.5811(13)
H2 H 0.583(3) 0.447(3) 0.4125(15)
H3 H 0.396(3) 0.503(3) 0.9186(15)
H4 H 0.438(3) 0.640(3) 0.7477(15)
H5 H 0.099(4) 0.853(4) 0.8097(17)
H6 H 0.132(3) 0.278(3) 0.6665(13)
H7 H -0.027(4) 0.257(4) 0.5074(17)
H8 H 0.294(3) 0.194(3) 0.8210(13)
H9 H 0.013(3) 0.320(3) 0.3464(15)
H10 H 0.093(3) 0.482(3) 0.9926(15)
H11 H 0.601(3) 0.120(4) 0.8655(15)
H12 H 0.070(3) 0.535(3) 0.7914(14)
H13 H 0.116(4) 0.766(4) 0.9139(17)
H14 H 0.264(3) 0.627(3) 0.6675(17)
H15 H 0.047(3) 0.309(3) 0.9128(15)
H16 H 0.668(4) 0.520(4) 0.5965(18)
H17 H 0.298(3) 0.812(3) 0.8695(15)
H18 H 0.647(3) 0.304(4) 0.9032(17)
H19 H 0.316(3) 0.425(3) 0.2941(16)
#END
