
#######################################################################
#
#                 Cambridge Crystallographic Data Centre
#                                CCDC
#
#######################################################################
#
# If this CIF has been generated from an entry in the Cambridge
# Structural Database, then it will include bibliographic, chemical,
# crystal, experimental, refinement or atomic coordinate data resulting
# from the CCDC's data processing and validation procedures.
#
#######################################################################

data_CSD_CIF_YABMOE
_audit_creation_date 2004-12-09
_audit_creation_method CSD-ConQuest-V1
_database_code_CSD YABMOE
_database_code_depnum_ccdc_archive 'CCDC 228521'
_chemical_formula_sum 'C17 H20 N2 O4'
_chemical_formula_moiety
;
C17 H20 N2 O4
;
_journal_coden_Cambridge 24
_journal_volume 45
_journal_year 2004
_journal_page_first 5287
_journal_name_full 'Tetrahedron Lett. '
loop_
_publ_author_name
"R.Deprez-Poulain"
"N.Willand"
"C.Boutillon"
"G.Nowogrocki"
"N.Azaroual"
"B.Deprez"
_chemical_name_systematic
;
(3S,6aR,7R,8S,9aR)-8-Methyl-7-(nitromethyl)-3-phenylhexahydrocyclopenta(2,3)py
rrolo(2,1-b)(1,3)oxazol-5(6H)-one
;
_cell_volume    787.382
_exptl_crystal_colour 'colorless'
_exptl_crystal_density_diffrn 1.334
_exptl_crystal_description 'irregular'
_diffrn_ambient_temperature 293
#These two values have been output from a single CSD field.
_refine_ls_R_factor_gt 0.0479
_refine_ls_wR_factor_gt 0.0479
loop_
_citation_database_id_CSD
_citation_special_details
YABMIY "is a stereoisomer of this entry"
_symmetry_cell_setting monoclinic
_symmetry_space_group_name_H-M 'P 21'
_symmetry_Int_Tables_number 4
loop_
_symmetry_equiv_pos_site_id
_symmetry_equiv_pos_as_xyz
1 x,y,z
2 -x,1/2+y,-z
_cell_length_a 11.655(12)
_cell_length_b 6.088(6)
_cell_length_c 11.803(12)
_cell_angle_alpha 90
_cell_angle_beta 109.92(2)
_cell_angle_gamma 90
_cell_formula_units_Z 2
loop_
_atom_type_symbol
_atom_type_radius_bond
C 0.68
H 0.23
N 0.68
O 0.68
loop_
_atom_site_label
_atom_site_type_symbol
_atom_site_fract_x
_atom_site_fract_y
_atom_site_fract_z
C1 C 0.0930(2) 0.5680(4) 0.7508(2)
C2 C 0.1390(2) 0.6894(5) 0.8742(2)
C3 C 0.2787(2) 0.7000(5) 0.9092(2)
C4 C 0.3076(2) 0.4808(5) 0.8656(2)
C5 C 0.20835(19) 0.4527(4) 0.7440(2)
C6 C 0.0474(2) 0.7047(5) 0.6354(2)
C7 C 0.13734(19) 0.6738(4) 0.5714(2)
O1 O 0.12769(15) 0.7372(3) 0.47153(15)
N1 N 0.23603(15) 0.5595(3) 0.64707(16)
O2 O 0.19068(15) 0.2285(3) 0.70450(16)
C8 C 0.0870(3) 0.9113(5) 0.8812(3)
N2 N -0.0455(2) 0.9053(5) 0.8671(2)
O3 O -0.0806(2) 0.7712(4) 0.9209(2)
O4 O -0.1096(3) 1.0435(7) 0.8082(3)
C9 C 0.3460(4) 0.7390(11) 1.0429(3)
C10 C 0.3057(2) 0.4102(4) 0.5987(2)
C11 C 0.2819(3) 0.1876(4) 0.6514(3)
C12 C 0.4396(2) 0.4615(4) 0.6323(2)
C13 C 0.4907(2) 0.6568(4) 0.6852(2)
C14 C 0.6136(2) 0.6967(5) 0.7120(2)
C15 C 0.6864(2) 0.5412(5) 0.6860(2)
C16 C 0.6378(2) 0.3490(5) 0.6337(2)
C17 C 0.5146(2) 0.3068(4) 0.6057(2)
H1 H 0.031(2) 0.453(4) 0.749(2)
H2 H 0.119(3) 0.597(6) 0.929(3)
H3 H 0.298(2) 0.823(5) 0.864(2)
H4 H 0.384(2) 0.479(4) 0.8596(19)
H5 H 0.298(2) 0.360(5) 0.924(2)
H6 H 0.051(2) 0.864(6) 0.653(2)
H7 H -0.032(3) 0.648(5) 0.585(3)
H8 H 0.129(2) 0.981(4) 0.969(2)
H9 H 0.100(3) 1.012(6) 0.822(3)
H10 H 0.331(4) 0.903(8) 1.054(4)
H11 H 0.441(3) 0.713(7) 1.062(3)
H12 H 0.313(4) 0.644(9) 1.085(4)
H13 H 0.2631(19) 0.401(4) 0.509(2)
H14 H 0.254(2) 0.064(5) 0.595(2)
H15 H 0.359(2) 0.140(4) 0.716(2)
H16 H 0.441(2) 0.763(4) 0.703(2)
H17 H 0.647(2) 0.844(5) 0.754(2)
H18 H 0.773(3) 0.563(5) 0.706(2)
H19 H 0.692(2) 0.238(5) 0.614(2)
H20 H 0.480(2) 0.164(5) 0.572(2)
#END
