
#######################################################################
#
#                 Cambridge Crystallographic Data Centre
#                                CCDC
#
#######################################################################
#
# If this CIF has been generated from an entry in the Cambridge
# Structural Database, then it will include bibliographic, chemical,
# crystal, experimental, refinement or atomic coordinate data resulting
# from the CCDC's data processing and validation procedures.
#
#######################################################################

data_CSD_CIF_YACLOD
_audit_creation_date 1992-12-10
_audit_creation_method CSD-ConQuest-V1
_database_code_CSD YACLOD
_database_code_depnum_ccdc_fiz 'CSD 55701'
_chemical_formula_sum 'C13 H5 N5 O8'
_chemical_formula_moiety
;
C13 H5 N5 O8
;
_journal_coden_Cambridge 643
_journal_volume 200
_journal_year 1992
_journal_page_first 189
_journal_name_full 'Z.Krist.Cryst.Mater. '
loop_
_publ_author_name
"M.Ramm"
"H.-J.Niclas"
"B.Gohrmann"
_chemical_name_systematic
;
7-(2-Oxo-2,3-dihydro-1,3-benzoxazol-3-yl)-4,6-dinitrobenzofurazan 1-oxide
;
_cell_volume   1422.278
_exptl_crystal_colour 'red-brown'
_exptl_crystal_density_diffrn 1.677
_diffrn_ambient_temperature ?
_diffrn_special_details
;
The study was carried out at room temperature,in the range 283-303K

;
#These two values have been output from a single CSD field.
_refine_ls_R_factor_gt 0.033
_refine_ls_wR_factor_gt 0.033
_symmetry_cell_setting monoclinic
_symmetry_space_group_name_H-M 'P 21/c'
_symmetry_Int_Tables_number 14
loop_
_symmetry_equiv_pos_site_id
_symmetry_equiv_pos_as_xyz
1 x,y,z
2 -x,1/2+y,1/2-z
3 -x,-y,-z
4 x,-1/2-y,-1/2+z
_cell_length_a 6.838(1)
_cell_length_b 6.754(2)
_cell_length_c 30.845(6)
_cell_angle_alpha 90
_cell_angle_beta 93.23(2)
_cell_angle_gamma 90
_cell_formula_units_Z 4
loop_
_atom_type_symbol
_atom_type_radius_bond
C 0.68
H 0.23
N 0.68
O 0.68
loop_
_atom_site_label
_atom_site_type_symbol
_atom_site_fract_x
_atom_site_fract_y
_atom_site_fract_z
O1 O 0.7842(7) 0.3546(8) 0.0880(1)
O2 O 0.902(1) 0.453(1) 0.1493(2)
O3 O 0.9430(7) -0.0640(8) 0.2565(1)
O4 O 0.6890(8) -0.2430(8) 0.2655(2)
O5 O 0.1933(6) -0.2098(7) 0.1836(1)
O6 O 0.0737(6) -0.0280(8) 0.1256(1)
O7 O 0.2983(7) 0.4896(7) 0.0522(1)
O8 O 0.4282(8) 0.5770(7) 0.1184(1)
N1 N 0.7947(9) 0.3520(9) 0.1274(2)
N2 N 0.7777(8) -0.1175(9) 0.2462(2)
N3 N 0.3640(7) -0.2224(8) 0.2095(2)
N4 N 0.2161(7) -0.0629(9) 0.1509(2)
N5 N 0.3928(8) 0.2490(7) 0.0971(2)
C1 C 0.4905(9) 0.1567(9) 0.1331(2)
C2 C 0.6740(9) 0.205(1) 0.1493(2)
C3 C 0.7621(9) 0.117(1) 0.1872(2)
C4 C 0.6755(9) -0.0316(9) 0.2081(2)
C5 C 0.4839(8) -0.0943(9) 0.1933(2)
C6 C 0.3998(9) 0.0058(9) 0.1564(2)
C7 C 0.3275(9) 0.155(1) 0.0573(2)
C8 C 0.3221(9) -0.0375(9) 0.0441(2)
C9 C 0.2564(9) -0.070(1) 0.0009(2)
C10 C 0.2013(9) 0.088(1) -0.0262(2)
C11 C 0.208(1) 0.280(1) -0.0123(2)
C12 C 0.2721(9) 0.312(1) 0.0304(2)
C13 C 0.382(1) 0.452(1) 0.0931(2)
H1 H 0.878(6) 0.168(7) 0.198(1)
H2 H 0.364(7) -0.164(9) 0.064(2)
H3 H 0.251(6) -0.215(8) -0.012(1)
H4 H 0.161(8) 0.051(9) -0.058(2)
H5 H 0.162(8) 0.396(9) -0.027(2)
#END
