
#######################################################################
#
#                 Cambridge Crystallographic Data Centre
#                                CCDC
#
#######################################################################
#
# If this CIF has been generated from an entry in the Cambridge
# Structural Database, then it will include bibliographic, chemical,
# crystal, experimental, refinement or atomic coordinate data resulting
# from the CCDC's data processing and validation procedures.
#
#######################################################################

data_CSD_CIF_YACVUW
_audit_creation_date 2016-12-07
_audit_creation_method CSD-ConQuest-V1
_database_code_CSD YACVUW
_database_code_depnum_ccdc_archive 'CCDC 1499986'
_chemical_formula_sum 'C21 H17 N1 O1'
_chemical_formula_moiety
;
C21 H17 N1 O1
;
_journal_coden_Cambridge 35
_journal_volume 81
_journal_year 2016
_journal_page_first 11819
_journal_name_full 'J.Org.Chem. '
loop_
_publ_author_name
"S.Yamada"
"N.Yamamoto"
"E.Takamori"
_chemical_name_systematic
;
12-azapentacyclo[8.6.6.0^3,8^.0^11,16^.0^17,22^]docosa-3,5,7,11,13,15,17,19,21
-nonaene 12-oxide
;
_cell_volume    727.320
_exptl_crystal_colour 'colorless'
_exptl_crystal_density_diffrn 1.367
_exptl_crystal_description 'platelet'
_exptl_crystal_preparation 'Dichloromethane/Ether'
_diffrn_ambient_temperature 123
#These two values have been output from a single CSD field.
_refine_ls_R_factor_gt 0.0647
_refine_ls_wR_factor_gt 0.0647
_symmetry_cell_setting triclinic
_symmetry_space_group_name_H-M 'P -1'
_symmetry_Int_Tables_number 2
loop_
_symmetry_equiv_pos_site_id
_symmetry_equiv_pos_as_xyz
1 x,y,z
2 -x,-y,-z
_cell_length_a 7.08828(14)
_cell_length_b 8.6929(2)
_cell_length_c 12.9545(3)
_cell_angle_alpha 80.9586(14)
_cell_angle_beta 77.7960(15)
_cell_angle_gamma 69.4027(13)
_cell_formula_units_Z 2
loop_
_atom_type_symbol
_atom_type_radius_bond
C 0.68
H 0.23
N 0.68
O 0.68
loop_
_atom_site_label
_atom_site_type_symbol
_atom_site_fract_x
_atom_site_fract_y
_atom_site_fract_z
O1 O 0.5330(3) 0.6449(3) 0.33718(18)
N1 N 0.3812(3) 0.5974(3) 0.33020(18)
C1 C 0.3265(4) 0.4830(3) 0.4042(2)
H1 H 0.40190 0.43610 0.46060
C2 C 0.1643(4) 0.4350(3) 0.3984(2)
H2 H 0.13000 0.35390 0.44970
C3 C 0.0499(4) 0.5047(3) 0.3174(2)
H3 H -0.06610 0.47570 0.31450
C4 C 0.1090(3) 0.6172(3) 0.2412(2)
C5 C 0.2773(3) 0.6595(3) 0.2463(2)
C6 C 0.3501(3) 0.7732(3) 0.1593(2)
H4 H 0.49820 0.75180 0.15940
C7 C 0.3302(4) 0.7308(3) 0.0546(2)
C8 C 0.4785(4) 0.7308(3) -0.0348(2)
H5 H 0.59770 0.75390 -0.03020
C9 C 0.4517(4) 0.6969(3) -0.1309(2)
H6 H 0.55290 0.69750 -0.19200
C10 C 0.2799(4) 0.6625(3) -0.1388(2)
H7 H 0.26350 0.63880 -0.20480
C11 C 0.1306(4) 0.6625(3) -0.0496(2)
H8 H 0.01110 0.64060 -0.05510
C12 C 0.1558(3) 0.6946(3) 0.0481(2)
C13 C -0.0001(3) 0.6976(3) 0.1474(2)
H9 H -0.08490 0.63120 0.13880
C14 C -0.1454(4) 0.8784(3) 0.1655(2)
H10 H -0.12160 0.94960 0.10000
H11 H -0.28810 0.87950 0.17460
C15 C -0.1274(4) 0.9565(3) 0.2578(2)
C16 C -0.2947(4) 0.9978(3) 0.3403(2)
H12 H -0.40860 0.96380 0.34140
C17 C -0.2972(4) 1.0876(3) 0.4205(2)
H13 H -0.41310 1.11670 0.47500
C18 C -0.1313(4) 1.1341(3) 0.4207(2)
H14 H -0.13310 1.19750 0.47450
C19 C 0.0394(4) 1.0884(3) 0.3420(2)
H15 H 0.15520 1.11800 0.34430
C20 C 0.0448(4) 1.0005(3) 0.2603(2)
C21 C 0.2316(4) 0.9607(3) 0.1740(2)
H16 H 0.32830 1.01000 0.18900
H17 H 0.18860 1.01570 0.10580
#END
