
#######################################################################
#
#                 Cambridge Crystallographic Data Centre
#                                CCDC
#
#######################################################################
#
# If this CIF has been generated from an entry in the Cambridge
# Structural Database, then it will include bibliographic, chemical,
# crystal, experimental, refinement or atomic coordinate data resulting
# from the CCDC's data processing and validation procedures.
#
#######################################################################

data_CSD_CIF_YAFHAO
_audit_creation_date 1993-01-25
_audit_creation_method CSD-ConQuest-V1
_database_code_CSD YAFHAO
_chemical_formula_sum 'C38 H36 N4 O3'
_chemical_formula_moiety
;
C38 H36 N4 O3
;
_journal_coden_Cambridge 16
_journal_volume 48
_journal_year 1992
_journal_page_first 6059
_journal_name_full 'Tetrahedron '
loop_
_publ_author_name
"S.Mitkidou"
"J.Stephanidou-Stephanatou"
"A.Terzis"
"D.Mentzafos"
_chemical_name_systematic
;
2'-Benzoyl-3,3''-bis(2,4,6-trimethylphenyl)-5'-phenyl-isoxazole-5(4H)-spiro-3'
(2'H)-pyrazole-4'-spiro-5''(4''H)-isoxazole
;
_chemical_melting_point 376.15
_cell_volume   3842.249
_exptl_crystal_density_diffrn 1.031
_exptl_special_details
;
Melting point range 376.15-378.15K

;
_diffrn_ambient_temperature ?
_diffrn_special_details
;
The study was carried out at room temperature,in the range 283-303K

;
#These two values have been output from a single CSD field.
_refine_ls_R_factor_gt 0.0516
_refine_ls_wR_factor_gt 0.0516
_symmetry_cell_setting monoclinic
_symmetry_space_group_name_H-M 'C c'
_symmetry_Int_Tables_number 9
loop_
_symmetry_equiv_pos_site_id
_symmetry_equiv_pos_as_xyz
1 x,y,z
2 1/2+x,1/2+y,z
3 x,-y,1/2+z
4 1/2+x,1/2-y,1/2+z
_cell_length_a 21.9368(8)
_cell_length_b 19.3071(7)
_cell_length_c 9.1979(3)
_cell_angle_alpha 90
_cell_angle_beta 80.503(1)
_cell_angle_gamma 90
_cell_formula_units_Z 4
loop_
_atom_type_symbol
_atom_type_radius_bond
C 0.68
H 0.23
N 0.68
O 0.68
loop_
_atom_site_label
_atom_site_type_symbol
_atom_site_fract_x
_atom_site_fract_y
_atom_site_fract_z
C1 C 0.29200 0.4657(2) 0.42520
C2 C 0.3875(2) 0.5204(2) 0.3197(4)
C3 C 0.3186(2) 0.5372(2) 0.3927(5)
N1 N 0.3313(2) 0.4165(1) 0.3932(4)
N2 N 0.3875(2) 0.4445(1) 0.3333(4)
C4 C 0.4385(2) 0.5586(2) 0.3798(5)
C5 C 0.4792(2) 0.5819(2) 0.2425(5)
N3 N 0.4547(2) 0.5729(1) 0.1268(4)
O1 O 0.3965(2) 0.5387(1) 0.1662(4)
C6 C 0.2831(2) 0.5839(2) 0.3027(5)
C7 C 0.2774(2) 0.6481(2) 0.3920(5)
N4 N 0.2956(2) 0.6431(2) 0.5167(5)
O2 O 0.3172(2) 0.5742(1) 0.5319(4)
C8 C 0.4390(2) 0.4041(2) 0.2974(5)
O3 O 0.4889(2) 0.4310(1) 0.2522(4)
C9 C 0.5430(2) 0.6087(2) 0.2306(5)
C10 C 0.5910(2) 0.5796(2) 0.1288(5)
C11 C 0.6517(2) 0.6023(3) 0.1292(6)
C12 C 0.6661(3) 0.6520(3) 0.2222(7)
C13 C 0.6184(3) 0.6813(3) 0.3191(7)
C14 C 0.5568(2) 0.6614(2) 0.3250(6)
C15 C 0.5806(2) 0.5245(2) 0.0212(6)
C16 C 0.7325(3) 0.6742(5) 0.218(1)
C17 C 0.5060(3) 0.6979(3) 0.4315(8)
C18 C 0.2508(2) 0.7131(2) 0.3408(5)
C19 C 0.1892(2) 0.7302(2) 0.3918(7)
C20 C 0.1660(3) 0.7897(3) 0.3322(8)
C21 C 0.2014(4) 0.8293(3) 0.2256(7)
C22 C 0.2608(3) 0.8104(3) 0.1790(7)
C23 C 0.2873(3) 0.7530(2) 0.2330(6)
C24 C 0.1486(3) 0.6874(3) 0.5032(9)
C25 C 0.1729(4) 0.8924(4) 0.1644(9)
C26 C 0.3537(3) 0.7339(3) 0.1774(8)
C27 C 0.4340(2) 0.3274(2) 0.3121(5)
C28 C 0.3894(2) 0.2884(2) 0.2561(6)
C29 C 0.3930(3) 0.2176(2) 0.2561(8)
C30 C 0.4391(3) 0.1843(2) 0.3118(8)
C31 C 0.4825(3) 0.2216(2) 0.3686(8)
C32 C 0.4800(2) 0.2940(2) 0.3685(6)
C33 C 0.2275(2) 0.4496(2) 0.4884(5)
C34 C 0.1895(2) 0.4980(3) 0.5690(7)
C35 C 0.1295(3) 0.4807(4) 0.6313(9)
C36 C 0.1076(3) 0.4164(4) 0.617(1)
C37 C 0.1453(3) 0.3666(4) 0.546(1)
C38 C 0.2053(3) 0.3828(3) 0.4799(8)
H1 H 0.68900 0.57900 0.05300
H2 H 0.63000 0.72200 0.39200
H3 H 0.53200 0.51200 0.03300
H4 H 0.60600 0.47800 0.04100
H5 H 0.59700 0.54300 -0.08900
H6 H 0.73400 0.71500 0.29900
H7 H 0.75200 0.69300 0.11000
H8 H 0.75900 0.63000 0.24500
H9 H 0.46200 0.67600 0.41900
H10 H 0.50700 0.75300 0.40700
H11 H 0.51400 0.69000 0.54300
H12 H 0.11900 0.80500 0.37100
H13 H 0.28800 0.84200 0.09600
H14 H 0.17500 0.64500 0.53700
H15 H 0.11000 0.66700 0.45500
H16 H 0.13100 0.71900 0.59800
H17 H 0.20600 0.91700 0.08200
H18 H 0.15800 0.92800 0.25300
H19 H 0.13400 0.87700 0.11500
H20 H 0.36600 0.68800 0.23300
H21 H 0.38300 0.77600 0.19800
H22 H 0.35900 0.72400 0.06000
H23 H 0.35200 0.31400 0.21200
H24 H 0.35900 0.18700 0.21200
H25 H 0.44100 0.12800 0.31100
H26 H 0.51800 0.19500 0.41400
H27 H 0.51400 0.32400 0.41200
H28 H 0.20700 0.55000 0.58200
H29 H 0.10000 0.51900 0.69300
H30 H 0.06000 0.40400 0.66200
H31 H 0.12800 0.31400 0.54000
H32 H 0.23400 0.34400 0.42000
H33 H 0.453(2) 0.538(2) 0.428(4)
H34 H 0.420(1) 0.599(2) 0.439(3)
H35 H 0.239(2) 0.576(2) 0.285(3)
H36 H 0.306(2) 0.592(2) 0.190(4)
#END
