
#######################################################################
#
#                 Cambridge Crystallographic Data Centre
#                                CCDC
#
#######################################################################
#
# If this CIF has been generated from an entry in the Cambridge
# Structural Database, then it will include bibliographic, chemical,
# crystal, experimental, refinement or atomic coordinate data resulting
# from the CCDC's data processing and validation procedures.
#
#######################################################################

data_CSD_CIF_YAFLAT
_audit_creation_date 2004-12-09
_audit_creation_method CSD-ConQuest-V1
_database_code_CSD YAFLAT
_database_code_depnum_ccdc_archive 'CCDC 246525'
_chemical_formula_sum 'C24 H26 N2 O4'
_chemical_formula_moiety
;
C24 H26 N2 O4
;
_journal_coden_Cambridge 1078
_journal_year 2004
_journal_name_full 'CSD Communication(Private Communication) '
loop_
_publ_author_name
"M.Nieger"
"D.Herold"
"F.Vogtle"
_chemical_name_systematic
;
trans-4,4'-bis(4-Nitrophenyl)bicyclohexylidene
;
_cell_volume   1035.412
_exptl_crystal_colour 'brown'
_exptl_crystal_density_diffrn 1.304
_exptl_special_details
;
contribution from Department of Inorganic Chemistry, University of Bonn, 
Gerhard-Domagk-Str. 1, D-53121 Bonn, Germany
;
_exptl_crystal_description 'plates'
_diffrn_ambient_temperature 200
#These two values have been output from a single CSD field.
_refine_ls_R_factor_gt 0.0508
_refine_ls_wR_factor_gt 0.0508
_symmetry_cell_setting monoclinic
_symmetry_space_group_name_H-M 'P 21/n'
_symmetry_Int_Tables_number 14
loop_
_symmetry_equiv_pos_site_id
_symmetry_equiv_pos_as_xyz
1 x,y,z
2 1/2+x,1/2-y,1/2+z
3 -x,-y,-z
4 -1/2-x,-1/2+y,-1/2-z
_cell_length_a 9.786(2)
_cell_length_b 10.762(1)
_cell_length_c 9.938(1)
_cell_angle_alpha 90
_cell_angle_beta 98.40(1)
_cell_angle_gamma 90
_cell_formula_units_Z 2
loop_
_atom_type_symbol
_atom_type_radius_bond
C 0.68
H 0.23
N 0.68
O 0.68
loop_
_atom_site_label
_atom_site_type_symbol
_atom_site_fract_x
_atom_site_fract_y
_atom_site_fract_z
C1 C 0.0477(2) 0.0049(2) 0.9592(2)
C2 C 0.0541(3) -0.0741(2) 0.8351(2)
H1 H -0.02470 -0.13270 0.82350
H2 H 0.14030 -0.12360 0.84850
C3 C 0.0497(2) 0.0046(2) 0.7063(2)
H3 H 0.05940 -0.05020 0.62830
H4 H -0.04100 0.04680 0.68700
C4 C 0.1647(2) 0.1021(2) 0.7210(2)
H5 H 0.25480 0.05670 0.73290
C5 C 0.1604(3) 0.1799(2) 0.8497(2)
H6 H 0.24020 0.23740 0.86250
H7 H 0.07500 0.23050 0.83840
C6 C 0.1643(3) 0.0982(2) 0.9755(2)
H8 H 0.25370 0.05370 0.99190
H9 H 0.15740 0.15130 1.05560
C7 C 0.1581(2) 0.1799(2) 0.5935(2)
C8 C 0.2516(2) 0.1616(2) 0.5025(2)
H10 H 0.32060 0.09940 0.52110
C9 C 0.2460(3) 0.2320(2) 0.3858(2)
H11 H 0.31020 0.21840 0.32420
C10 C 0.1462(3) 0.3221(2) 0.3601(2)
C11 C 0.0493(3) 0.3407(2) 0.4453(2)
H12 H -0.02120 0.40130 0.42430
C12 C 0.0562(2) 0.2700(2) 0.5618(2)
H13 H -0.00980 0.28290 0.62160
N1 N 0.1381(3) 0.3988(2) 0.2375(2)
O1 O 0.0592(2) 0.4879(2) 0.2254(2)
O2 O 0.2126(2) 0.37070(19) 0.1525(2)
C1B C -0.0477(2) -0.0049(2) 1.0408(2)
C2B C -0.0541(3) 0.0741(2) 1.1649(2)
H1B H 0.02470 0.13270 1.17650
H2B H -0.14030 0.12360 1.15150
C3B C -0.0497(2) -0.0046(2) 1.2937(2)
H3B H -0.05940 0.05020 1.37170
H4B H 0.04100 -0.04680 1.31300
C4B C -0.1647(2) -0.1021(2) 1.2790(2)
H5B H -0.25480 -0.05670 1.26710
C5B C -0.1604(3) -0.1799(2) 1.1503(2)
H6B H -0.24020 -0.23740 1.13750
H7B H -0.07500 -0.23050 1.16160
C6B C -0.1643(3) -0.0982(2) 1.0245(2)
H8B H -0.25370 -0.05370 1.00810
H9B H -0.15740 -0.15130 0.94440
C7B C -0.1581(2) -0.1799(2) 1.4065(2)
C8B C -0.2516(2) -0.1616(2) 1.4975(2)
H10B H -0.32060 -0.09940 1.47890
C9B C -0.2460(3) -0.2320(2) 1.6142(2)
H11B H -0.31020 -0.21840 1.67580
C10B C -0.1462(3) -0.3221(2) 1.6399(2)
C11B C -0.0493(3) -0.3407(2) 1.5547(2)
H12B H 0.02120 -0.40130 1.57570
C12B C -0.0562(2) -0.2700(2) 1.4382(2)
H13B H 0.00980 -0.28290 1.37840
N1B N -0.1381(3) -0.3988(2) 1.7625(2)
O1B O -0.0592(2) -0.4879(2) 1.7746(2)
O2B O -0.2126(2) -0.37070(19) 1.8475(2)
#END
