
#######################################################################
#
#                 Cambridge Crystallographic Data Centre
#                                CCDC
#
#######################################################################
#
# If this CIF has been generated from an entry in the Cambridge
# Structural Database, then it will include bibliographic, chemical,
# crystal, experimental, refinement or atomic coordinate data resulting
# from the CCDC's data processing and validation procedures.
#
#######################################################################

data_CSD_CIF_YAFSOP
_audit_creation_date 2011-12-21
_audit_creation_method CSD-ConQuest-V1
_database_code_CSD YAFSOP
_database_code_depnum_ccdc_archive 'CCDC 852094'
_chemical_formula_sum 'C17 H16 N2 O6'
_chemical_formula_moiety
;
C17 H16 N2 O6
;
_journal_coeditor_code "IUCr QM2031"
_journal_coden_Cambridge 1370
_journal_volume 67
_journal_year 2011
_journal_page_first o2820
_journal_name_full 'Acta Crystallogr.,Sect.E:Struct.Rep.Online '
loop_
_publ_author_name
"Juanjuan Zheng"
"Xueyuan Wang"
"Dongying Pang"
"Yan Sun"
"Wei Su"
_chemical_name_systematic
;
Dimethyl 2,6-dimethyl-4-(2-nitrophenyl)pyridine-3,5-dicarboxylate
;
_cell_volume    816.396
_exptl_crystal_colour 'yellow'
_exptl_crystal_density_diffrn 1.401
_exptl_crystal_description 'prism'
_diffrn_ambient_temperature 298
#These two values have been output from a single CSD field.
_refine_ls_R_factor_gt 0.0379
_refine_ls_wR_factor_gt 0.0379
_symmetry_cell_setting triclinic
_symmetry_space_group_name_H-M 'P -1'
_symmetry_Int_Tables_number 2
loop_
_symmetry_equiv_pos_site_id
_symmetry_equiv_pos_as_xyz
1 x,y,z
2 -x,-y,-z
_cell_length_a 7.578(4)
_cell_length_b 8.141(4)
_cell_length_c 14.235(9)
_cell_angle_alpha 103.32(2)
_cell_angle_beta 93.75(5)
_cell_angle_gamma 105.39(3)
_cell_formula_units_Z 2
loop_
_atom_type_symbol
_atom_type_radius_bond
C 0.68
H 0.23
N 0.68
O 0.68
loop_
_atom_site_label
_atom_site_type_symbol
_atom_site_fract_x
_atom_site_fract_y
_atom_site_fract_z
O1 O 0.76803(15) 0.93198(15) 0.92024(8)
O2 O 0.84798(13) 0.68996(14) 0.85050(7)
O3 O 0.40716(15) 0.78829(15) 0.70787(8)
O4 O 0.63979(19) 0.91761(16) 0.64507(10)
O5 O 0.13443(14) 0.30250(15) 0.61801(7)
O6 O 0.18628(14) 0.11367(14) 0.70271(7)
N1 N 0.26875(17) 0.55143(17) 0.95102(9)
N2 N 0.54570(19) 0.78817(18) 0.66853(9)
C1 C 0.5124(2) 0.7905(2) 1.05399(10)
H1 H 0.47990 0.89960 1.05490
H2 H 0.64710 0.81650 1.06510
H3 H 0.45820 0.74010 1.10540
C2 C 0.4386(2) 0.6606(2) 0.95644(10)
C3 C 0.53855(19) 0.65051(19) 0.87679(10)
C4 C 0.45649(19) 0.52477(19) 0.78913(10)
C5 C 0.2806(2) 0.4125(2) 0.7849(1)
C6 C 0.1892(2) 0.4295(2) 0.86757(11)
C7 C -0.0011(2) 0.3140(2) 0.86810(11)
H4 H 0.00770 0.21600 0.89540
H5 H -0.06530 0.26750 0.80130
H6 H -0.07010 0.38320 0.90800
C8 C 0.7278(2) 0.7743(2) 0.88633(11)
C9 C 1.0316(2) 0.8018(2) 0.84997(12)
H7 H 1.02280 0.89480 0.81830
H8 H 1.10380 0.73100 0.81410
H9 H 1.09250 0.85540 0.91710
C10 C 0.55534(18) 0.50220(19) 0.70104(10)
C11 C 0.6085(2) 0.3487(2) 0.67264(10)
H10 H 0.57740 0.26120 0.70770
C12 C 0.7059(2) 0.3213(2) 0.59432(11)
H11 H 0.74010 0.21540 0.57590
C13 C 0.7538(2) 0.4482(2) 0.54255(11)
H12 H 0.82180 0.42960 0.48930
C14 C 0.7024(2) 0.6014(2) 0.56854(11)
H13 H 0.73420 0.68870 0.53340
C15 C 0.60384(19) 0.6254(2) 0.64663(10)
C16 C 0.19127(19) 0.2747(2) 0.69257(11)
C17 C 0.1122(2) -0.0294(2) 0.61593(12)
H14 H -0.01390 -0.03180 0.59370
H15 H 0.11050 -0.14150 0.63070
H16 H 0.18980 -0.01160 0.56460
#END
