
#######################################################################
#
#                 Cambridge Crystallographic Data Centre
#                                CCDC
#
#######################################################################
#
# If this CIF has been generated from an entry in the Cambridge
# Structural Database, then it will include bibliographic, chemical,
# crystal, experimental, refinement or atomic coordinate data resulting
# from the CCDC's data processing and validation procedures.
#
#######################################################################

data_CSD_CIF_YAGBEP
_audit_creation_date 2011-12-21
_audit_creation_method CSD-ConQuest-V1
_database_code_CSD YAGBEP
_database_code_depnum_ccdc_archive 'CCDC 852127'
_chemical_formula_sum 'C11 H9 N1 O5'
_chemical_formula_moiety
;
C11 H9 N1 O5
;
_journal_coeditor_code "IUCr YK2020"
_journal_coden_Cambridge 1370
_journal_volume 67
_journal_year 2011
_journal_page_first o2863
_journal_name_full 'Acta Crystallogr.,Sect.E:Struct.Rep.Online '
loop_
_publ_author_name
"Haifeng Zhu"
"Miao Guo"
"Han Chen"
"Haixiao Jin"
"Hongze Liang"
_chemical_name_systematic
;
2,5-Dioxopyrrolidin-1-yl 3-(furan-2-yl)acrylate
;
_chemical_name_common
;
1-((3-(2-Furyl)acryloyl)oxy)pyrrolidine-2,5-dione
;
_cell_volume   2084.056
_exptl_crystal_colour 'brown'
_exptl_crystal_density_diffrn 1.499
_exptl_crystal_description 'needle'
_diffrn_ambient_temperature 296
#These two values have been output from a single CSD field.
_refine_ls_R_factor_gt 0.0348
_refine_ls_wR_factor_gt 0.0348
_symmetry_cell_setting orthorhombic
_symmetry_space_group_name_H-M 'P b c a'
_symmetry_Int_Tables_number 61
loop_
_symmetry_equiv_pos_site_id
_symmetry_equiv_pos_as_xyz
1 x,y,z
2 1/2-x,-y,1/2+z
3 1/2+x,1/2-y,-z
4 -x,1/2+y,1/2-z
5 -x,-y,-z
6 -1/2+x,y,-1/2-z
7 -1/2-x,-1/2+y,z
8 x,-1/2-y,-1/2+z
_cell_length_a 10.3054(13)
_cell_length_b 9.2376(12)
_cell_length_c 21.892(3)
_cell_angle_alpha 90
_cell_angle_beta 90
_cell_angle_gamma 90
_cell_formula_units_Z 8
loop_
_atom_type_symbol
_atom_type_radius_bond
C 0.68
H 0.23
N 0.68
O 0.68
loop_
_atom_site_label
_atom_site_type_symbol
_atom_site_fract_x
_atom_site_fract_y
_atom_site_fract_z
O1 O 0.80658(9) 0.22692(10) 0.28201(4)
O2 O 0.89760(9) 0.55049(10) 0.10826(4)
O3 O 0.67881(9) 0.58836(11) 0.11454(5)
O4 O 0.81461(10) 0.44760(11) -0.00431(5)
O5 O 1.01727(10) 0.81990(11) 0.09170(5)
C1 C 0.68207(13) 0.36659(14) 0.21024(6)
H1 H 0.60080 0.39440 0.19600
C2 C 0.78634(13) 0.42777(14) 0.18443(6)
H2 H 0.86860 0.40480 0.19890
N1 N 0.89355(11) 0.63213(12) 0.05495(5)
C3 C 0.68679(12) 0.26114(14) 0.25831(6)
C4 C 0.77299(13) 0.52965(14) 0.13407(6)
C5 C 0.96337(13) 0.76125(14) 0.04991(6)
C6 C 0.59420(14) 0.18035(14) 0.28687(6)
H3 H 0.50540 0.18290 0.27930
C7 C 0.85503(13) 0.56972(15) 0.00020(6)
C8 C 0.65847(14) 0.09163(15) 0.33025(6)
H4 H 0.62050 0.02490 0.35660
C9 C 0.78534(14) 0.12362(15) 0.32556(6)
H5 H 0.85030 0.08100 0.34890
C10 C 0.87575(15) 0.68378(15) -0.04765(6)
H6 H 0.79340 0.72290 -0.06140
H7 H 0.92140 0.64390 -0.08260
C11 C 0.95729(14) 0.80146(15) -0.01663(6)
H8 H 1.04380 0.80460 -0.03410
H9 H 0.91700 0.89560 -0.02170
#END
