
#######################################################################
#
#                 Cambridge Crystallographic Data Centre
#                                CCDC
#
#######################################################################
#
# If this CIF has been generated from an entry in the Cambridge
# Structural Database, then it will include bibliographic, chemical,
# crystal, experimental, refinement or atomic coordinate data resulting
# from the CCDC's data processing and validation procedures.
#
#######################################################################

data_CSD_CIF_YAGQUT
_audit_creation_date 2004-12-09
_audit_creation_method CSD-ConQuest-V1
_database_code_CSD YAGQUT
_database_code_depnum_ccdc_archive 'CCDC 247488'
_chemical_formula_sum 'C26 H35 N1 O15'
_chemical_formula_moiety
;
C26 H35 N1 O15
;
_journal_coden_Cambridge 1078
_journal_year 2004
_journal_name_full 'CSD Communication(Private Communication) '
loop_
_publ_author_name
"S.Parsons"
"A.March"
"R.Paton"
"S.Harris"
"P.A.Wood"
_chemical_name_systematic
;
3-(2,3,4,6-Tetra-O-acetyl-\b-glucopyranosyl)-5-(6-acetoxy-2,2-dimethyltetrahyd
rofuro(2,3-d)(1,3)dioxol-5-yl)-4,5-dihydroisoxazole
;
_cell_volume   1476.695
_exptl_crystal_colour 'colorless'
_exptl_crystal_density_diffrn 1.353
_exptl_special_details
;
contribution from School of Chemistry, The University of Edinburgh King's 
Buildings, West Mains Road, Edinburgh, Scotland EH9 3JJ
;
_exptl_crystal_description 'lath'
_exptl_crystal_preparation 'ethyl acetate/hexane'
_diffrn_ambient_temperature 120
#These two values have been output from a single CSD field.
_refine_ls_R_factor_gt 0.0762
_refine_ls_wR_factor_gt 0.0762
_symmetry_cell_setting monoclinic
_symmetry_space_group_name_H-M 'P 21'
_symmetry_Int_Tables_number 4
loop_
_symmetry_equiv_pos_site_id
_symmetry_equiv_pos_as_xyz
1 x,y,z
2 -x,1/2+y,-z
_cell_length_a 8.5247(16)
_cell_length_b 9.562(2)
_cell_length_c 18.277(6)
_cell_angle_alpha 90
_cell_angle_beta 97.61(3)
_cell_angle_gamma 90
_cell_formula_units_Z 2
loop_
_atom_type_symbol
_atom_type_radius_bond
C 0.68
H 0.23
N 0.68
O 0.68
loop_
_atom_site_label
_atom_site_type_symbol
_atom_site_fract_x
_atom_site_fract_y
_atom_site_fract_z
O1 O 0.6162(4) 0.7915(4) 0.7663(2)
C1 C 0.6663(6) 0.7285(6) 0.7033(3)
H1 H 0.57730 0.67890 0.67280
O2 O 0.8067(4) 0.6384(4) 0.8124(2)
C2 C 0.7982(6) 0.6250(6) 0.7355(3)
H2 H 0.77630 0.52680 0.71830
C3 C 0.9479(6) 0.6844(6) 0.7102(3)
H3 H 1.04090 0.67740 0.74960
O3 O 0.7370(4) 0.8284(4) 0.6616(2)
C4 C 0.9021(5) 0.8361(6) 0.6924(3)
H4 H 0.91250 0.89170 0.73920
O4 O 0.9267(4) 1.0515(4) 0.6281(2)
C5 C 0.9896(6) 0.9096(6) 0.6368(3)
H5 H 0.97340 0.85920 0.58840
C6 C 1.1654(6) 0.9279(6) 0.6629(3)
H6 H 1.20300 0.86270 0.70350
H7 H 1.22970 0.91570 0.62200
N1 N 1.0368(5) 1.1426(5) 0.6691(2)
C7 C 1.1666(5) 1.0766(6) 0.6890(2)
O5 O 1.4156(4) 1.1628(4) 0.67543(17)
C8 C 1.3036(5) 1.1552(5) 0.7274(2)
H8 H 1.26930 1.25170 0.73910
C9 C 1.3857(5) 1.0856(5) 0.7978(2)
H9 H 1.41890 0.98810 0.78730
C10 C 1.5290(5) 1.1742(5) 0.8268(2)
H10 H 1.49270 1.26910 0.84030
C11 C 1.6387(5) 1.1888(5) 0.7689(3)
H11 H 1.68410 1.09620 0.75750
C12 C 1.5470(5) 1.2525(5) 0.7005(3)
H12 H 1.50620 1.34640 0.71310
C13 C 1.6445(6) 1.2681(5) 0.6374(3)
H13 H 1.75320 1.29940 0.65610
H14 H 1.65100 1.17790 0.61140
C14 C 0.6607(7) 0.7012(6) 0.8279(3)
O6 O 0.9765(4) 0.6147(4) 0.64302(19)
C15 C 1.1037(7) 0.5283(7) 0.6466(3)
O7 O 1.1912(5) 0.5072(5) 0.7033(2)
C16 C 1.1206(8) 0.4675(8) 0.5731(3)
H15 H 1.21460 0.40760 0.57730
H16 H 1.13170 0.54300 0.53790
H17 H 1.02650 0.41180 0.55570
O8 O 1.2883(4) 1.0859(4) 0.85606(18)
C17 C 1.2258(6) 0.9632(6) 0.8752(3)
O9 O 1.2312(5) 0.8573(4) 0.8402(2)
C18 C 1.1587(6) 0.9759(7) 0.9463(3)
H18 H 1.24350 0.96480 0.98770
H19 H 1.07870 0.90300 0.94890
H20 H 1.10970 1.06810 0.94910
O10 O 1.6125(4) 1.1088(4) 0.89114(17)
C19 C 1.6163(6) 1.1757(6) 0.9565(3)
O11 O 1.5525(5) 1.2854(5) 0.9642(2)
C20 C 1.7129(7) 1.0940(7) 1.0164(3)
H21 H 1.65460 1.00990 1.02740
H22 H 1.73370 1.15180 1.06090
H23 H 1.81350 1.06690 1.00000
O12 O 1.7626(4) 1.2865(4) 0.79541(18)
C21 C 1.9053(5) 1.2310(5) 0.8257(3)
O13 O 1.9283(4) 1.1081(4) 0.8292(2)
C22 C 2.0181(6) 1.3450(7) 0.8503(3)
H24 H 2.06210 1.38320 0.80760
H25 H 2.10390 1.30800 0.88600
H26 H 1.96270 1.41920 0.87360
O14 O 1.5650(5) 1.3709(5) 0.5886(2)
C23 C 1.6244(8) 1.3925(8) 0.5255(3)
O15 O 1.7345(6) 1.3319(6) 0.5082(3)
C24 C 1.5259(10) 1.4967(10) 0.4787(4)
H27 H 1.52800 1.47490 0.42650
H28 H 1.56850 1.59080 0.48930
H29 H 1.41660 1.49270 0.48980
C25 C 0.5339(8) 0.5914(7) 0.8321(4)
H30 H 0.51830 0.53810 0.78590
H31 H 0.43450 0.63720 0.83970
H32 H 0.56700 0.52800 0.87340
C26 C 0.6967(8) 0.7861(7) 0.8968(3)
H33 H 0.59880 0.82780 0.90940
H34 H 0.77180 0.86040 0.88880
H35 H 0.74310 0.72570 0.93720
#END
