
#######################################################################
#
#                 Cambridge Crystallographic Data Centre
#                                CCDC
#
#######################################################################
#
# If this CIF has been generated from an entry in the Cambridge
# Structural Database, then it will include bibliographic, chemical,
# crystal, experimental, refinement or atomic coordinate data resulting
# from the CCDC's data processing and validation procedures.
#
#######################################################################

data_CSD_CIF_YAGTIL
_audit_creation_date 2011-11-29
_audit_creation_method CSD-ConQuest-V1
_database_code_CSD YAGTIL
_database_code_depnum_ccdc_archive 'CCDC 852202'
_chemical_formula_sum 'C15 H13 N3 O5'
_chemical_formula_moiety
;
C15 H13 N3 O5
;
_journal_coeditor_code "IUCr CV5171"
_journal_coden_Cambridge 1370
_journal_volume 67
_journal_year 2011
_journal_page_first o2960
_journal_name_full 'Acta Crystallogr.,Sect.E:Struct.Rep.Online '
loop_
_publ_author_name
"Chun-Bao Tang"
_chemical_name_systematic
;
N'-(2-Hydroxy-4-methoxybenzylidene)-3-nitrobenzohydrazide
;
_cell_volume   1472.813
_exptl_crystal_colour 'yellow'
_exptl_crystal_density_diffrn 1.422
_exptl_crystal_description 'prism'
_diffrn_ambient_temperature 298
#These two values have been output from a single CSD field.
_refine_ls_R_factor_gt 0.0564
_refine_ls_wR_factor_gt 0.0564
_symmetry_cell_setting monoclinic
_symmetry_space_group_name_H-M 'P 21/n'
_symmetry_Int_Tables_number 14
loop_
_symmetry_equiv_pos_site_id
_symmetry_equiv_pos_as_xyz
1 x,y,z
2 1/2-x,1/2+y,1/2-z
3 -x,-y,-z
4 -1/2+x,-1/2-y,-1/2+z
_cell_length_a 6.0099(12)
_cell_length_b 33.575(3)
_cell_length_c 7.319(2)
_cell_angle_alpha 90
_cell_angle_beta 94.235(2)
_cell_angle_gamma 90
_cell_formula_units_Z 4
loop_
_atom_type_symbol
_atom_type_radius_bond
C 0.68
H 0.23
N 0.68
O 0.68
loop_
_atom_site_label
_atom_site_type_symbol
_atom_site_fract_x
_atom_site_fract_y
_atom_site_fract_z
N1 N 0.0936(3) 0.21111(6) 0.6779(2)
N2 N 0.2422(3) 0.24250(6) 0.7037(3)
N3 N 0.2828(5) 0.42054(7) 0.6691(3)
O1 O -0.2996(3) 0.18085(5) 0.5833(2)
H1 H -0.20730 0.19870 0.60140
O2 O -0.4045(3) 0.04481(5) 0.6539(3)
O3 O 0.0352(3) 0.28027(5) 0.5016(2)
O4 O 0.0861(4) 0.42267(6) 0.6147(3)
O5 O 0.3980(4) 0.44949(6) 0.7108(4)
C1 C 0.0134(4) 0.14277(7) 0.7182(3)
C2 C -0.2087(4) 0.14565(7) 0.6411(3)
C3 C -0.3392(4) 0.11219(7) 0.6220(3)
H2 H -0.48530 0.11430 0.57140
C4 C -0.2565(4) 0.07541(7) 0.6771(4)
C5 C -0.0387(4) 0.07155(8) 0.7520(4)
H3 H 0.01830 0.04680 0.78790
C6 C 0.0911(4) 0.10532(7) 0.7716(3)
H4 H 0.23670 0.10290 0.82290
C7 C 0.1574(4) 0.17699(7) 0.7403(3)
H5 H 0.29840 0.17430 0.80050
C8 C 0.1974(4) 0.27655(7) 0.6130(3)
C9 C 0.3498(4) 0.31068(7) 0.6582(3)
C10 C 0.2601(4) 0.34854(7) 0.6341(3)
H6 H 0.11500 0.35190 0.58290
C11 C 0.3873(4) 0.38098(7) 0.6867(3)
C12 C 0.6058(4) 0.37744(8) 0.7558(3)
H7 H 0.69030 0.39990 0.78860
C13 C 0.6960(4) 0.33984(8) 0.7750(3)
H8 H 0.84360 0.33690 0.82080
C14 C 0.5706(4) 0.30664(7) 0.7273(3)
H9 H 0.63360 0.28140 0.74130
C15 C -0.3370(7) 0.00624(8) 0.7178(5)
H10 H -0.21710 -0.00310 0.64950
H11 H -0.46080 -0.01180 0.70150
H12 H -0.28770 0.00770 0.84540
H13 H 0.348(3) 0.2395(6) 0.796(2)
#END
