
#######################################################################
#
#                 Cambridge Crystallographic Data Centre
#                                CCDC
#
#######################################################################
#
# If this CIF has been generated from an entry in the Cambridge
# Structural Database, then it will include bibliographic, chemical,
# crystal, experimental, refinement or atomic coordinate data resulting
# from the CCDC's data processing and validation procedures.
#
#######################################################################

data_CSD_CIF_YAGTOR
_audit_creation_date 2011-11-29
_audit_creation_method CSD-ConQuest-V1
_database_code_CSD YAGTOR
_database_code_depnum_ccdc_archive 'CCDC 852203'
_chemical_formula_sum 'C15 H9 N1 O4'
_chemical_formula_moiety
;
C15 H9 N1 O4
;
_journal_coeditor_code "IUCr ZJ2025"
_journal_coden_Cambridge 1370
_journal_volume 67
_journal_year 2011
_journal_page_first o2961
_journal_name_full 'Acta Crystallogr.,Sect.E:Struct.Rep.Online '
loop_
_publ_author_name
"J.S.Reddy"
"N.Ravikumar"
"J.V.Prasad"
"G.G.Krishna"
"K.A.Solomon"
_chemical_name_systematic
;
(Z)-2-(4-Nitrobenzylidene)-1-benzofuran-3(2H)-one
;
_chemical_melting_point 460
_cell_volume    605.087
_exptl_crystal_colour 'yellow'
_exptl_crystal_density_diffrn 1.467
_exptl_crystal_description 'block'
_exptl_crystal_preparation 'methanol'
_diffrn_ambient_temperature 303
#These two values have been output from a single CSD field.
_refine_ls_R_factor_gt 0.0365
_refine_ls_wR_factor_gt 0.0365
_symmetry_cell_setting triclinic
_symmetry_space_group_name_H-M 'P -1'
_symmetry_Int_Tables_number 2
loop_
_symmetry_equiv_pos_site_id
_symmetry_equiv_pos_as_xyz
1 x,y,z
2 -x,-y,-z
_cell_length_a 6.6916(2)
_cell_length_b 7.4708(2)
_cell_length_c 12.6414(3)
_cell_angle_alpha 100.459(1)
_cell_angle_beta 93.019(2)
_cell_angle_gamma 102.043(1)
_cell_formula_units_Z 2
loop_
_atom_type_symbol
_atom_type_radius_bond
C 0.68
H 0.23
N 0.68
O 0.68
loop_
_atom_site_label
_atom_site_type_symbol
_atom_site_fract_x
_atom_site_fract_y
_atom_site_fract_z
C1 C 0.8384(2) 0.28398(18) -0.19093(11)
C2 C 0.7837(2) 0.3025(2) -0.29555(11)
H1 H 0.64690 0.27290 -0.32340
C3 C 0.9366(3) 0.3652(2) -0.35600(12)
H2 H 0.90370 0.37900 -0.42600
C4 C 1.1407(3) 0.4087(2) -0.31413(12)
H3 H 1.24170 0.45190 -0.35690
C5 C 1.1987(2) 0.3898(2) -0.21071(12)
H4 H 1.33550 0.41790 -0.18300
C6 C 1.0423(2) 0.32720(17) -0.15171(10)
C7 C 0.88073(19) 0.22680(18) -0.01762(11)
C8 C 0.7214(2) 0.21929(19) -0.10621(12)
C9 C 0.8470(2) 0.17046(18) 0.07516(11)
H5 H 0.71020 0.12170 0.08320
C10 C 0.9913(2) 0.17343(17) 0.16591(10)
C11 C 0.9136(2) 0.11596(19) 0.25736(11)
H6 H 0.77270 0.07330 0.25740
C12 C 1.0401(2) 0.12085(19) 0.34749(11)
H7 H 0.98660 0.08290 0.40830
C13 C 1.2473(2) 0.18320(18) 0.34544(10)
C14 C 1.3322(2) 0.23746(19) 0.25581(11)
H8 H 1.47360 0.27690 0.25620
C15 C 1.2041(2) 0.23210(18) 0.16603(11)
H9 H 1.25920 0.26770 0.10500
N1 N 1.3855(2) 0.19263(19) 0.44088(10)
O1 O 1.07162(13) 0.29789(13) -0.04757(7)
O2 O 0.53638(16) 0.16865(18) -0.10414(10)
O3 O 1.5647(2) 0.2687(3) 0.44252(12)
O4 O 1.31586(19) 0.12304(19) 0.51458(9)
#END
