
#######################################################################
#
#                 Cambridge Crystallographic Data Centre
#                                CCDC
#
#######################################################################
#
# If this CIF has been generated from an entry in the Cambridge
# Structural Database, then it will include bibliographic, chemical,
# crystal, experimental, refinement or atomic coordinate data resulting
# from the CCDC's data processing and validation procedures.
#
#######################################################################

data_CSD_CIF_YAGVAF
_audit_creation_date 2011-11-29
_audit_creation_method CSD-ConQuest-V1
_database_code_CSD YAGVAF
_database_code_depnum_ccdc_archive 'CCDC 852205'
_chemical_formula_sum 'C13 H11 N3 O3'
_chemical_formula_moiety
;
C13 H11 N3 O3
;
_journal_coeditor_code "IUCr HG5110"
_journal_coden_Cambridge 1370
_journal_volume 67
_journal_year 2011
_journal_page_first o2964
_journal_name_full 'Acta Crystallogr.,Sect.E:Struct.Rep.Online '
loop_
_publ_author_name
"G.H.Shahverdizadeh"
"S.W.Ng"
"E.R.T.Tiekink"
"B.Mirtamizdoust"
_chemical_name_systematic
;
2-(N-(3-Amino-4-nitrophenyl)carboximidoyl)phenol
;
_chemical_name_common
;
2-(((3-Amino-4-nitrophenyl)imino)methyl)phenol
;
_chemical_melting_point 432
_cell_volume    569.870
_exptl_crystal_colour 'orange'
_exptl_crystal_density_diffrn 1.499
_exptl_crystal_description 'prism'
_diffrn_ambient_temperature 100
#These two values have been output from a single CSD field.
_refine_ls_R_factor_gt 0.0346
_refine_ls_wR_factor_gt 0.0346
_symmetry_cell_setting triclinic
_symmetry_space_group_name_H-M 'P -1'
_symmetry_Int_Tables_number 2
loop_
_symmetry_equiv_pos_site_id
_symmetry_equiv_pos_as_xyz
1 x,y,z
2 -x,-y,-z
_cell_length_a 7.0961(3)
_cell_length_b 7.5168(4)
_cell_length_c 12.1627(6)
_cell_angle_alpha 100.067(4)
_cell_angle_beta 94.751(4)
_cell_angle_gamma 115.011(5)
_cell_formula_units_Z 2
loop_
_atom_type_symbol
_atom_type_radius_bond
C 0.68
H 0.23
N 0.68
O 0.68
loop_
_atom_site_label
_atom_site_type_symbol
_atom_site_fract_x
_atom_site_fract_y
_atom_site_fract_z
O1 O 0.40452(11) 0.27962(11) 0.59127(6)
H1 H 0.495(2) 0.285(3) 0.5475(13)
O2 O 1.09653(11) 0.36753(12) 0.05261(6)
O3 O 1.31365(10) 0.29051(11) 0.14605(6)
N1 N 0.71614(12) 0.25239(11) 0.50498(7)
N2 N 0.78293(13) 0.40302(13) 0.14327(7)
H2 H 0.840(2) 0.420(2) 0.0816(9)
H3 H 0.6610(15) 0.4021(18) 0.1447(10)
N3 N 1.15808(12) 0.32599(12) 0.13890(7)
C1 C 0.47038(15) 0.22517(14) 0.68163(8)
C2 C 0.36032(15) 0.21048(14) 0.77211(8)
H4 H 0.24080 0.23720 0.76900
C3 C 0.42483(16) 0.15713(14) 0.86643(8)
H5 H 0.35000 0.14910 0.92810
C4 C 0.59855(15) 0.11503(14) 0.87207(8)
H6 H 0.64050 0.07630 0.93660
C5 C 0.70904(15) 0.13020(14) 0.78289(8)
H7 H 0.82830 0.10310 0.78700
C6 C 0.64775(14) 0.18514(13) 0.68626(8)
C7 C 0.76768(14) 0.20111(13) 0.59454(8)
H8 H 0.88640 0.17330 0.60040
C8 C 0.83502(14) 0.27202(13) 0.41602(8)
C9 C 0.76291(14) 0.32620(13) 0.32488(8)
H9 H 0.64120 0.34910 0.32650
C10 C 0.86365(14) 0.34913(13) 0.22862(8)
C11 C 1.04545(14) 0.31485(13) 0.23212(8)
C12 C 1.12150(14) 0.26527(14) 0.32711(8)
H10 H 1.24630 0.24720 0.32810
C13 C 1.01929(15) 0.24257(14) 0.41788(8)
H11 H 1.07110 0.20760 0.48120
#END
