
#######################################################################
#
#                 Cambridge Crystallographic Data Centre
#                                CCDC
#
#######################################################################
#
# If this CIF has been generated from an entry in the Cambridge
# Structural Database, then it will include bibliographic, chemical,
# crystal, experimental, refinement or atomic coordinate data resulting
# from the CCDC's data processing and validation procedures.
#
#######################################################################

data_CSD_CIF_YAGYIO
_audit_creation_date 1993-04-29
_audit_creation_method CSD-ConQuest-V1
_database_code_CSD YAGYIO
_database_code_depnum_ccdc_archive 'CCDC 1298762'
_database_code_depnum_ccdc_fiz 'CSD 56184'
_chemical_formula_sum 'C32 H24 N8 O1'
_chemical_formula_moiety
;
C32 H24 N8 O1
;
_journal_coden_Cambridge 167
_journal_year 1992
_journal_page_first 547
_journal_name_full 'Liebigs Ann. '
loop_
_publ_author_name
"J.Lange"
"J.Karolak-Wojciechowska"
"H.Tondys"
_chemical_name_systematic
;
1,2-bis(5-Amino-3,6-diphenylpyridazin-4-yl)-diazene 1-oxide
;
_chemical_melting_point 519.15
_cell_volume   1357.555
_exptl_crystal_colour 'light yellow'
_exptl_crystal_density_diffrn 1.313
_exptl_special_details
;
Melting point range 519.15-521.15K

;
_diffrn_ambient_temperature ?
_diffrn_special_details
;
The study was carried out at room temperature,in the range 283-303K

;
_refine_special_details
;
The O atom is disordered over 2 equal positions.

;
#These two values have been output from a single CSD field.
_refine_ls_R_factor_gt 0.0549
_refine_ls_wR_factor_gt 0.0549
_symmetry_cell_setting monoclinic
_symmetry_space_group_name_H-M 'P 21/n'
_symmetry_Int_Tables_number 14
loop_
_symmetry_equiv_pos_site_id
_symmetry_equiv_pos_as_xyz
1 x,y,z
2 1/2-x,1/2+y,1/2-z
3 -x,-y,-z
4 -1/2+x,-1/2-y,-1/2+z
_cell_length_a 6.8770(8)
_cell_length_b 16.9480(13)
_cell_length_c 11.7799(7)
_cell_angle_alpha 90
_cell_angle_beta 98.592(8)
_cell_angle_gamma 90
_cell_formula_units_Z 2
loop_
_atom_type_symbol
_atom_type_radius_bond
C 0.68
H 0.23
N 0.68
O 0.68
loop_
_atom_site_label
_atom_site_type_symbol
_atom_site_fract_x
_atom_site_fract_y
_atom_site_fract_z
O1 O -0.1019(6) 0.0594(2) -0.1164(3)
N1 N 0.2513(4) 0.2022(1) 0.2139(2)
N2 N 0.1158(4) 0.1536(2) 0.2483(2)
N3 N 0.2290(5) 0.1512(2) -0.0886(2)
N4 N -0.0165(4) 0.0354(1) -0.0174(2)
C1 C 0.0257(4) 0.1016(2) 0.1727(2)
C2 C 0.0676(4) 0.0961(2) 0.0610(2)
C3 C 0.1905(4) 0.1515(2) 0.0202(2)
C4 C 0.2878(4) 0.2033(2) 0.1066(2)
C5 C 0.4479(5) 0.2567(2) 0.0827(2)
C6 C 0.4262(6) 0.3055(2) -0.0130(3)
C7 C 0.5835(7) 0.3502(2) -0.0378(3)
C8 C 0.7600(7) 0.3470(3) 0.0329(4)
C9 C 0.7831(6) 0.3013(2) 0.1307(4)
C10 C 0.6264(5) 0.2560(2) 0.1565(3)
C11 C -0.1274(5) 0.0522(2) 0.2146(2)
C12 C -0.0866(5) 0.0100(2) 0.3160(3)
C13 C -0.2283(6) -0.0360(2) 0.3542(3)
C14 C -0.4156(6) -0.0393(2) 0.2933(4)
C15 C -0.4589(5) 0.0035(2) 0.1938(3)
C16 C -0.3163(5) 0.0488(2) 0.1531(3)
H1 H 0.161(6) 0.119(2) -0.135(4)
H2 H 0.304(6) 0.194(2) -0.115(3)
H3 H 0.302(6) 0.307(2) -0.062(3)
H4 H 0.568(6) 0.383(3) -0.107(4)
H5 H 0.883(7) 0.373(3) 0.011(4)
H6 H 0.918(6) 0.301(2) 0.185(3)
H7 H 0.637(5) 0.222(2) 0.228(3)
H8 H 0.046(6) 0.013(2) 0.361(3)
H9 H -0.207(6) -0.065(2) 0.423(4)
H10 H -0.508(6) -0.078(2) 0.331(4)
H11 H -0.588(6) 0.000(2) 0.147(3)
H12 H -0.344(5) 0.079(2) 0.084(3)
N4B N 0.0165(4) -0.0354(1) 0.0174(2)
O1B O 0.1019(6) -0.0594(2) 0.1164(3)
C2B C -0.0676(4) -0.0961(2) -0.0610(2)
C1B C -0.0257(4) -0.1016(2) -0.1727(2)
C3B C -0.1905(4) -0.1515(2) -0.0202(2)
N2B N -0.1158(4) -0.1536(2) -0.2483(2)
C11B C 0.1274(5) -0.0522(2) -0.2146(2)
N3B N -0.2290(5) -0.1512(2) 0.0886(2)
C4B C -0.2878(4) -0.2033(2) -0.1066(2)
N1B N -0.2513(4) -0.2022(1) -0.2139(2)
C12B C 0.0866(5) -0.0100(2) -0.3160(3)
C16B C 0.3163(5) -0.0488(2) -0.1531(3)
H1B H -0.161(6) -0.119(2) 0.135(4)
H2B H -0.304(6) -0.194(2) 0.115(3)
C5B C -0.4479(5) -0.2567(2) -0.0827(2)
C13B C 0.2283(6) 0.0360(2) -0.3542(3)
H8B H -0.046(6) -0.013(2) -0.361(3)
C15B C 0.4589(5) -0.0035(2) -0.1938(3)
H12B H 0.344(5) -0.079(2) -0.084(3)
C6B C -0.4262(6) -0.3055(2) 0.0130(3)
C10B C -0.6264(5) -0.2560(2) -0.1565(3)
C14B C 0.4156(6) 0.0393(2) -0.2933(4)
H9B H 0.207(6) 0.065(2) -0.423(4)
H11B H 0.588(6) 0.000(2) -0.147(3)
C7B C -0.5835(7) -0.3502(2) 0.0378(3)
H3B H -0.302(6) -0.307(2) 0.062(3)
C9B C -0.7831(6) -0.3013(2) -0.1307(4)
H7B H -0.637(5) -0.222(2) -0.228(3)
H10B H 0.508(6) 0.078(2) -0.331(4)
C8B C -0.7600(7) -0.3470(3) -0.0329(4)
H4B H -0.568(6) -0.383(3) 0.107(4)
H6B H -0.918(6) -0.301(2) -0.185(3)
H5B H -0.883(7) -0.373(3) -0.011(4)
#END
