
#######################################################################
#
#                 Cambridge Crystallographic Data Centre
#                                CCDC
#
#######################################################################
#
# If this CIF has been generated from an entry in the Cambridge
# Structural Database, then it will include bibliographic, chemical,
# crystal, experimental, refinement or atomic coordinate data resulting
# from the CCDC's data processing and validation procedures.
#
#######################################################################

data_CSD_CIF_YAHDUG
_audit_creation_date 1993-05-24
_audit_creation_method CSD-ConQuest-V1
_database_code_CSD YAHDUG
_chemical_formula_sum 'C30 H48 N2 O6'
_chemical_formula_moiety
;
C30 H48 N2 O6
;
_journal_coden_Cambridge 82
_journal_volume 32
_journal_year 1991
_journal_page_first 150-5
_journal_name_full 'Zh.Strukt.Khim.(Russ.)(J.Struct.Chem.) '
loop_
_publ_author_name
"V.A.Tafeenko"
"L.A.Aslanov"
"V.V.Kovalev"
"E.A.Shokova"
"E.G.Rozantsev"
_chemical_name_systematic
;
1,3-bis(2,2,6,6-Tetramethyl-1-oxy-4-carbopiperidyloxy)-adamantane
;
_chemical_melting_point 448.15
_cell_volume   3038.590
_diffrn_ambient_temperature ?
_diffrn_special_details
;
The study was carried out at room temperature,in the range 283-303K

;
#These two values have been output from a single CSD field.
_refine_ls_R_factor_gt 0.037
_refine_ls_wR_factor_gt 0.037
_symmetry_cell_setting monoclinic
_symmetry_space_group_name_H-M 'P 21/c'
_symmetry_Int_Tables_number 14
loop_
_symmetry_equiv_pos_site_id
_symmetry_equiv_pos_as_xyz
1 x,y,z
2 -x,1/2+y,1/2-z
3 -x,-y,-z
4 x,-1/2-y,-1/2+z
_cell_length_a 11.872(2)
_cell_length_b 23.394(2)
_cell_length_c 11.505(2)
_cell_angle_alpha 90
_cell_angle_beta 108.02(2)
_cell_angle_gamma 90
_cell_formula_units_Z 4
loop_
_atom_type_symbol
_atom_type_radius_bond
C 0.68
H 0.23
N 0.68
O 0.68
loop_
_atom_site_label
_atom_site_type_symbol
_atom_site_fract_x
_atom_site_fract_y
_atom_site_fract_z
O1 O -0.3541(3) 0.1280(1) 0.0373(3)
O2 O 0.9287(2) -0.06462(9) 0.8422(2)
O3 O -0.0355(2) 0.1678(1) 0.5901(2)
O4 O 0.0335(1) 0.17163(9) 0.4301(2)
O5 O 0.4035(2) 0.03813(8) 0.5991(2)
O6 O 0.5601(2) 0.08690(8) 0.7127(2)
N1 N -0.2621(2) 0.1365(1) 0.1286(3)
N2 N 0.8419(2) -0.02918(9) 0.8157(2)
C1 C 0.3761(2) 0.1312(1) 0.6781(2)
C2 C 0.2458(2) 0.1261(1) 0.6023(2)
C3 C 0.1747(2) 0.1775(1) 0.6259(2)
C4 C 0.1865(2) 0.1797(1) 0.7620(2)
C5 C 0.3165(2) 0.1851(1) 0.8379(2)
C6 C 0.3860(2) 0.1338(1) 0.8148(2)
C7 C 0.4265(2) 0.1872(1) 0.6436(2)
C8 C 0.2270(2) 0.2326(1) 0.5908(3)
C9 C 0.3679(2) 0.2398(1) 0.8034(3)
C10 C 0.3572(2) 0.2383(1) 0.6682(3)
C11 C 0.0454(2) 0.1716(1) 0.5502(2)
C12 C -0.0863(2) 0.1687(1) 0.3446(2)
C13 C -0.1289(2) 0.1078(1) 0.3266(3)
C14 C -0.2541(3) 0.1031(1) 0.2388(3)
C15 C -0.1964(3) 0.1906(1) 0.1246(3)
C16 C -0.0783(3) 0.1900(1) 0.2254(3)
C17 C -0.2802(3) 0.0406(2) 0.1968(4)
C18 C -0.3465(3) 0.1211(2) 0.2970(4)
C19 C -0.1733(4) 0.1903(2) 0.0016(3)
C20 C -0.2717(3) 0.2415(2) 0.1346(5)
C21 C 0.4452(2) 0.0798(1) 0.6567(2)
C22 C 0.6399(2) 0.0399(1) 0.7093(3)
C23 C 0.6357(2) -0.0046(1) 0.8023(3)
C24 C 0.7242(2) -0.0532(1) 0.8105(3)
C25 C 0.8595(2) 0.0235(1) 0.7509(3)
C26 C 0.7612(2) 0.0665(1) 0.7458(3)
C27 C 0.6829(3) -0.0934(1) 0.7017(3)
C28 C 0.7393(3) -0.0866(1) 0.9284(3)
C29 C 0.9778(3) 0.0491(2) 0.8261(4)
C30 C 0.8621(3) 0.0082(2) 0.6229(3)
H1 H 0.237(2) 0.1246(9) 0.514(2)
H2 H 0.214(2) 0.0932(8) 0.622(2)
H3 H 0.139(2) 0.210(1) 0.778(2)
H4 H 0.148(2) 0.147(1) 0.785(2)
H5 H 0.321(2) 0.1863(9) 0.926(2)
H6 H 0.469(2) 0.1348(9) 0.863(2)
H7 H 0.353(2) 0.0995(9) 0.836(2)
H8 H 0.513(2) 0.191(1) 0.692(2)
H9 H 0.427(2) 0.1863(8) 0.559(2)
H10 H 0.219(2) 0.231(1) 0.499(2)
H11 H 0.183(2) 0.263(1) 0.606(2)
H12 H 0.326(2) 0.272(1) 0.823(2)
H13 H 0.454(2) 0.245(1) 0.854(2)
H14 H 0.392(2) 0.271(1) 0.647(2)
H15 H -0.137(2) 0.1913(9) 0.381(2)
H16? H -0.131(2) -0.095(1) 0.401(2)
H17 H -0.071(2) 0.084(1) 0.292(2)
H18 H -0.050(2) 0.225(1) 0.234(2)
H19 H -0.017(2) 0.167(1) 0.199(2)
H20 H -0.217(3) 0.028(2) 0.150(3)
H21 H -0.276(3) 0.023(2) 0.273(2)
H22 H -0.367(4) 0.040(2) 0.134(4)
H23 H -0.340(2) 0.158(1) 0.323(2)
H24 H -0.357(4) 0.104(2) 0.368(4)
H25 H -0.426(4) 0.129(2) 0.218(4)
H26 H -0.131(3) 0.219(2) -0.011(4)
H27 H -0.247(3) 0.194(2) -0.060(3)
H28 H -0.110(4) 0.162(2) -0.005(4)
H29 H -0.240(2) 0.274(1) 0.123(3)
H30 H -0.353(3) 0.237(2) 0.075(4)
H31 H -0.297(3) 0.239(2) 0.222(3)
H32 H 0.615(2) 0.0252(9) 0.621(2)
H33 H 0.556(2) -0.022(1) 0.784(2)
H34 H 0.654(2) 0.014(1) 0.885(2)
H35 H 0.775(2) 0.083(1) 0.833(2)
H36 H 0.770(2) 0.097(1) 0.688(2)
H37 H 0.608(2) -0.112(1) 0.700(3)
H38 H 0.663(2) -0.073(1) 0.616(3)
H39 H 0.748(2) -0.119(1) 0.703(2)
H40 H 0.797(2) -0.116(1) 0.934(2)
H41 H 0.771(2) -0.060(1) 1.002(3)
H42 H 0.659(3) -0.102(1) 0.928(3)
H43 H 0.987(2) 0.082(1) 0.791(3)
H44 H 0.982(3) 0.054(1) 0.920(3)
H45 H 1.043(2) 0.024(1) 0.822(3)
H46 H 0.895(2) 0.040(1) 0.587(3)
H47 H 0.925(3) -0.025(1) 0.626(3)
H48 H 0.786(3) -0.002(1) 0.568(3)
#END
