
#######################################################################
#
#                 Cambridge Crystallographic Data Centre
#                                CCDC
#
#######################################################################
#
# If this CIF has been generated from an entry in the Cambridge
# Structural Database, then it will include bibliographic, chemical,
# crystal, experimental, refinement or atomic coordinate data resulting
# from the CCDC's data processing and validation procedures.
#
#######################################################################

data_CSD_CIF_YAHDIW
_audit_creation_date 2011-11-21
_audit_creation_method CSD-ConQuest-V1
_database_code_CSD YAHDIW
_database_code_depnum_ccdc_archive 'CCDC 852242'
_chemical_formula_sum 'C13 H12 N2 O2'
_chemical_formula_moiety
;
C13 H12 N2 O2
;
_journal_coeditor_code "IUCr RK2302"
_journal_coden_Cambridge 1370
_journal_volume 67
_journal_year 2011
_journal_page_first o3013
_journal_name_full 'Acta Crystallogr.,Sect.E:Struct.Rep.Online '
loop_
_publ_author_name
"V.Stilinovic"
"T.Portada"
_chemical_name_systematic
;
N-Benzyl-3-nitroaniline
;
_cell_volume    570.040
_exptl_crystal_colour 'yellow'
_exptl_crystal_density_diffrn 1.33
_exptl_crystal_description 'plate'
_diffrn_ambient_temperature 295
#These two values have been output from a single CSD field.
_refine_ls_R_factor_gt 0.0343
_refine_ls_wR_factor_gt 0.0343
_symmetry_cell_setting monoclinic
_symmetry_space_group_name_H-M 'P 21'
_symmetry_Int_Tables_number 4
loop_
_symmetry_equiv_pos_site_id
_symmetry_equiv_pos_as_xyz
1 x,y,z
2 -x,1/2+y,-z
_cell_length_a 5.3359(2)
_cell_length_b 19.2285(6)
_cell_length_c 5.6017(2)
_cell_angle_alpha 90
_cell_angle_beta 97.334(3)
_cell_angle_gamma 90
_cell_formula_units_Z 2
loop_
_atom_type_symbol
_atom_type_radius_bond
C 0.68
H 0.23
N 0.68
O 0.68
loop_
_atom_site_label
_atom_site_type_symbol
_atom_site_fract_x
_atom_site_fract_y
_atom_site_fract_z
H1 H 0.844(5) 0.2074(13) 0.076(5)
C1 C 0.2527(3) 0.28407(9) 0.4595(3)
C2 C 0.4146(3) 0.23191(9) 0.4090(3)
H2 H 0.41810 0.18960 0.48960
C3 C 0.5737(3) 0.24414(9) 0.2335(3)
N1 N 0.0876(3) 0.27154(8) 0.6441(3)
C4 C 0.5584(3) 0.30889(10) 0.1187(4)
H3 H 0.66260 0.31800 0.00130
C5 C 0.2364(4) 0.34794(9) 0.3472(4)
H4 H 0.12440 0.38200 0.38580
N2 N 0.7446(4) 0.19560(9) 0.1759(4)
O1 O -0.0522(3) 0.31801(9) 0.6928(3)
O2 O 0.0942(3) 0.21462(8) 0.7433(3)
C6 C 0.3954(4) 0.35886(10) 0.1740(4)
H5 H 0.39050 0.40130 0.09390
C7 C 0.5655(3) 0.07735(9) 0.2164(3)
C8 C 0.7768(4) 0.12849(11) 0.2881(5)
H6 H 0.79370 0.13470 0.46120
H7 H 0.93350 0.10850 0.24920
C9 C 0.1852(4) -0.01992(12) 0.0930(5)
H8 H 0.05760 -0.05230 0.05180
C10 C 0.4114(4) 0.08153(12) -0.0021(3)
H9 H 0.43480 0.11720 -0.10930
C11 C 0.3354(5) -0.02457(12) 0.3060(5)
H10 H 0.31180 -0.06060 0.41150
C12 C 0.5222(4) 0.02354(12) 0.3673(4)
H11 H 0.62240 0.01970 0.51520
C13 C 0.2233(5) 0.03297(16) -0.0607(4)
H12 H 0.12070 0.03630 -0.20750
#END
