
#######################################################################
#
#                 Cambridge Crystallographic Data Centre
#                                CCDC
#
#######################################################################
#
# If this CIF has been generated from an entry in the Cambridge
# Structural Database, then it will include bibliographic, chemical,
# crystal, experimental, refinement or atomic coordinate data resulting
# from the CCDC's data processing and validation procedures.
#
#######################################################################

data_CSD_CIF_YAHJUN
_audit_creation_date 2004-12-09
_audit_creation_method CSD-ConQuest-V1
_database_code_CSD YAHJUN
_database_code_depnum_ccdc_archive 'CCDC 255124'
_chemical_formula_sum 'C9 H9 N3 O5'
_chemical_formula_moiety
;
C9 H9 N3 O5
;
_journal_coeditor_code "IUCr NA5014"
_journal_coden_Cambridge 622
_journal_volume 60
_journal_year 2004
_journal_page_first 609
_journal_name_full 'Acta Crystallogr.,Sect.B:Struct.Sci. '
loop_
_publ_author_name
"F.Demartin"
"G.Filippini"
"A.Gavezzotti"
"S.Rizzato"
_chemical_name_systematic
;
3-(Acetamido)-2,6-dinitrotoluene
;
_cell_volume   1085.707
_exptl_crystal_colour 'bright yellow'
_exptl_crystal_density_diffrn 1.463
_exptl_crystal_description 'column'
_diffrn_ambient_temperature 293
#These two values have been output from a single CSD field.
_refine_ls_R_factor_gt 0.0511
_refine_ls_wR_factor_gt 0.0511
_symmetry_cell_setting monoclinic
_symmetry_space_group_name_H-M 'P 21/c'
_symmetry_Int_Tables_number 14
loop_
_symmetry_equiv_pos_site_id
_symmetry_equiv_pos_as_xyz
1 x,y,z
2 x,1/2-y,1/2+z
3 -x,-y,-z
4 -x,-1/2+y,-1/2-z
_cell_length_a 9.686(2)
_cell_length_b 11.368(2)
_cell_length_c 9.976(2)
_cell_angle_alpha 90
_cell_angle_beta 98.74(2)
_cell_angle_gamma 90
_cell_formula_units_Z 4
loop_
_atom_type_symbol
_atom_type_radius_bond
C 0.68
H 0.23
N 0.68
O 0.68
loop_
_atom_site_label
_atom_site_type_symbol
_atom_site_fract_x
_atom_site_fract_y
_atom_site_fract_z
C1 C 0.7689(2) 0.12669(19) 0.0674(2)
C2 C 0.7933(2) 0.00603(19) 0.06609(19)
C3 C 0.7191(2) -0.07198(19) -0.02665(19)
C4 C 0.6158(2) -0.0250(2) -0.1244(2)
H1 H 0.56540 -0.07450 -0.18810
C5 C 0.5877(2) 0.0930(2) -0.1278(2)
H2 H 0.51950 0.12400 -0.19420
C6 C 0.6614(2) 0.16557(19) -0.0318(2)
C7 C 0.8600(3) 0.2112(2) 0.1574(3)
H3 H 0.82430 0.28960 0.14220
H4 H 0.95360 0.20770 0.13690
H5 H 0.86020 0.19010 0.25070
N1 N 0.91218(19) -0.04037(18) 0.16319(19)
O1 O 0.9153(2) -0.0159(2) 0.28279(18)
O2 O 0.99971(17) -0.09790(18) 0.1172(2)
N2 N 0.6201(2) 0.29050(19) -0.0361(2)
O3 O 0.6114(3) 0.3423(2) -0.1422(2)
O4 O 0.5892(3) 0.3343(2) 0.0650(3)
N3 N 0.7439(2) -0.19381(16) -0.02853(17)
H6 H 0.75640 -0.22470 -0.10450
C8 C 0.7499(2) -0.26651(19) 0.0804(2)
O5 O 0.73809(18) -0.22804(14) 0.19282(15)
C9 C 0.7702(3) -0.3941(2) 0.0523(3)
H7 H 0.77720 -0.40450 -0.04190
H8 H 0.69210 -0.43830 0.07420
H9 H 0.85440 -0.42150 0.10670
#END
