
#######################################################################
#
#                 Cambridge Crystallographic Data Centre
#                                CCDC
#
#######################################################################
#
# If this CIF has been generated from an entry in the Cambridge
# Structural Database, then it will include bibliographic, chemical,
# crystal, experimental, refinement or atomic coordinate data resulting
# from the CCDC's data processing and validation procedures.
#
#######################################################################

data_CSD_CIF_YAHPII
_audit_creation_date 2011-11-29
_audit_creation_method CSD-ConQuest-V1
_database_code_CSD YAHPII
_database_code_depnum_ccdc_archive 'CCDC 852286'
_chemical_formula_sum 'C22 H16 N2 O3'
_chemical_formula_moiety
;
C22 H16 N2 O3
;
_journal_coeditor_code "IUCr HG5109"
_journal_coden_Cambridge 1370
_journal_volume 67
_journal_year 2011
_journal_page_first o3068
_journal_name_full 'Acta Crystallogr.,Sect.E:Struct.Rep.Online '
loop_
_publ_author_name
"Tuanjie Li"
"Honghong Zhang"
_chemical_name_systematic
;
7-(3-Nitrophenyl)-9,10-dihydro-7H-benzo[h]cyclopenta[b]quinolin-8(11H)-one
;
_cell_volume   1634.407
_exptl_crystal_colour 'colorless'
_exptl_crystal_density_diffrn 1.448
_exptl_crystal_description 'prism'
_diffrn_ambient_temperature 113
#These two values have been output from a single CSD field.
_refine_ls_R_factor_gt 0.0546
_refine_ls_wR_factor_gt 0.0546
_symmetry_cell_setting monoclinic
_symmetry_space_group_name_H-M 'P 21/c'
_symmetry_Int_Tables_number 14
loop_
_symmetry_equiv_pos_site_id
_symmetry_equiv_pos_as_xyz
1 x,y,z
2 -x,1/2+y,1/2-z
3 -x,-y,-z
4 x,-1/2-y,-1/2+z
_cell_length_a 10.256(1)
_cell_length_b 13.7570(14)
_cell_length_c 11.9830(12)
_cell_angle_alpha 90
_cell_angle_beta 104.827(5)
_cell_angle_gamma 90
_cell_formula_units_Z 4
loop_
_atom_type_symbol
_atom_type_radius_bond
C 0.68
H 0.23
N 0.68
O 0.68
loop_
_atom_site_label
_atom_site_type_symbol
_atom_site_fract_x
_atom_site_fract_y
_atom_site_fract_z
O1 O 0.49879(12) 0.27956(8) 0.21675(10)
O2 O 0.22400(14) 0.05360(8) 0.50038(12)
O3 O 0.05702(14) 0.00451(9) 0.36064(13)
N1 N 0.40366(13) 0.59115(10) 0.34262(12)
N2 N 0.14286(15) 0.06518(10) 0.40583(15)
C1 C 0.32624(14) 0.5659(1) 0.42002(13)
C2 C 0.30280(15) 0.46920(11) 0.44074(14)
C3 C 0.36250(15) 0.38501(11) 0.38630(13)
H1 H 0.43150 0.35240 0.44940
C4 C 0.43418(15) 0.42402(11) 0.30100(14)
C5 C 0.45220(14) 0.52071(11) 0.28614(13)
C6 C 0.53292(16) 0.54216(11) 0.20092(14)
H2 H 0.61770 0.57660 0.23820
H3 H 0.48050 0.58200 0.13600
C7 C 0.56175(17) 0.44056(11) 0.15962(15)
H4 H 0.52190 0.43360 0.07560
H5 H 0.66010 0.42900 0.17610
C8 C 0.49657(16) 0.36910(12) 0.22699(14)
C9 C 0.22432(16) 0.44723(11) 0.51891(14)
H6 H 0.20630 0.38110 0.53220
C10 C 0.17360(16) 0.51798(11) 0.57591(14)
H7 H 0.12100 0.50040 0.62750
C11 C 0.19893(15) 0.61746(11) 0.55856(13)
C12 C 0.27526(14) 0.64231(10) 0.47886(13)
C13 C 0.29923(16) 0.74235(11) 0.46203(14)
H8 H 0.34810 0.76070 0.40790
C14 C 0.25244(15) 0.81264(12) 0.52334(14)
H9 H 0.26960 0.87920 0.51120
C15 C 0.17967(16) 0.78757(12) 0.60362(14)
H10 H 0.14930 0.83690 0.64640
C16 C 0.15242(15) 0.69215(12) 0.62036(14)
H11 H 0.10180 0.67570 0.67390
C17 C 0.25581(15) 0.30911(11) 0.33354(13)
C18 C 0.24757(15) 0.22350(11) 0.39195(14)
H12 H 0.30820 0.21140 0.46500
C19 C 0.14954(15) 0.15545(11) 0.34252(14)
C20 C 0.05978(16) 0.16991(12) 0.23582(15)
H13 H -0.00610 0.12230 0.20320
C21 C 0.06897(17) 0.25572(13) 0.17830(15)
H14 H 0.00880 0.26750 0.10490
C22 C 0.16534(16) 0.32482(12) 0.22678(14)
H15 H 0.16960 0.38370 0.18650
H16 H 0.4201(19) 0.6518(14) 0.3272(16)
#END
