
#######################################################################
#
#                 Cambridge Crystallographic Data Centre
#                                CCDC
#
#######################################################################
#
# If this CIF has been generated from an entry in the Cambridge
# Structural Database, then it will include bibliographic, chemical,
# crystal, experimental, refinement or atomic coordinate data resulting
# from the CCDC's data processing and validation procedures.
#
#######################################################################

data_CSD_CIF_YAHQUV
_audit_creation_date 2011-12-12
_audit_creation_method CSD-ConQuest-V1
_database_code_CSD YAHQUV
_database_code_depnum_ccdc_archive 'CCDC 852293'
_chemical_formula_sum 'C12 H10 N2 O3'
_chemical_formula_moiety
;
C12 H10 N2 O3
;
_journal_coeditor_code "IUCr HG5116"
_journal_coden_Cambridge 1370
_journal_volume 67
_journal_year 2011
_journal_page_first o3077
_journal_name_full 'Acta Crystallogr.,Sect.E:Struct.Rep.Online '
loop_
_publ_author_name
"S.B.Nasir"
"Z.A.Fairuz"
"Z.Abdullah"
"S.W.Ng"
"E.R.T.Tiekink"
_chemical_name_systematic
;
5-Nitro-2-(p-tolyloxy)pyridine
;
_cell_volume   2211.924
_exptl_crystal_colour 'colorless'
_exptl_crystal_density_diffrn 1.383
_exptl_crystal_description 'block'
_diffrn_ambient_temperature 293
#These two values have been output from a single CSD field.
_refine_ls_R_factor_gt 0.0474
_refine_ls_wR_factor_gt 0.0474
_symmetry_cell_setting orthorhombic
_symmetry_space_group_name_H-M 'P b c a'
_symmetry_Int_Tables_number 61
loop_
_symmetry_equiv_pos_site_id
_symmetry_equiv_pos_as_xyz
1 x,y,z
2 1/2-x,-y,1/2+z
3 -x,1/2+y,1/2-z
4 1/2+x,1/2-y,-z
5 -x,-y,-z
6 -1/2+x,y,-1/2-z
7 x,-1/2-y,-1/2+z
8 -1/2-x,-1/2+y,z
_cell_length_a 7.2818(18)
_cell_length_b 11.977(2)
_cell_length_c 25.362(5)
_cell_angle_alpha 90
_cell_angle_beta 90
_cell_angle_gamma 90
_cell_formula_units_Z 8
loop_
_atom_type_symbol
_atom_type_radius_bond
C 0.68
H 0.23
N 0.68
O 0.68
loop_
_atom_site_label
_atom_site_type_symbol
_atom_site_fract_x
_atom_site_fract_y
_atom_site_fract_z
O1 O 0.5542(3) 0.41426(14) 0.32750(7)
O2 O 0.8217(3) 0.59307(19) 0.54024(9)
O3 O 0.7135(4) 0.74378(19) 0.50863(8)
N1 N 0.6779(3) 0.41528(17) 0.41124(9)
N2 N 0.7486(4) 0.6456(2) 0.5049(1)
C1 C 0.6005(4) 0.4707(2) 0.37191(11)
C2 C 0.5682(3) 0.5841(2) 0.37215(10)
H1 H 0.51450 0.61910 0.34330
C3 C 0.6168(4) 0.6439(2) 0.41563(10)
H2 H 0.59780 0.72060 0.41730
C4 C 0.6950(4) 0.5868(2) 0.45701(10)
C5 C 0.7247(4) 0.4751(2) 0.45359(11)
H3 H 0.77980 0.43890 0.48190
C6 C 0.5381(4) 0.2976(2) 0.32825(10)
C7 C 0.6205(4) 0.2394(2) 0.28825(9)
H4 H 0.69430 0.27590 0.26380
C8 C 0.5920(4) 0.1252(2) 0.28494(10)
H5 H 0.64590 0.08570 0.25740
C9 C 0.4864(4) 0.0685(2) 0.32118(10)
C10 C 0.4088(4) 0.1301(2) 0.36136(11)
H6 H 0.33930 0.09360 0.38680
C11 C 0.4313(4) 0.2442(2) 0.36485(10)
H7 H 0.37470 0.28440 0.39170
C12 C 0.4559(4) -0.0556(2) 0.31771(12)
H8 H 0.47650 -0.08880 0.35170
H9 H 0.53970 -0.08710 0.29260
H10 H 0.33200 -0.07000 0.30670
#END
