
#######################################################################
#
#                 Cambridge Crystallographic Data Centre
#                                CCDC
#
#######################################################################
#
# If this CIF has been generated from an entry in the Cambridge
# Structural Database, then it will include bibliographic, chemical,
# crystal, experimental, refinement or atomic coordinate data resulting
# from the CCDC's data processing and validation procedures.
#
#######################################################################

data_CSD_CIF_YAHYUB
_audit_creation_date 1993-06-03
_audit_creation_method CSD-ConQuest-V1
_database_code_CSD YAHYUB
_chemical_formula_sum 'C24 H23 N3 O1'
_chemical_formula_moiety
;
C24 H23 N3 O1
;
_journal_coden_Cambridge 207
_journal_year 1992
_journal_page_first 3069
_journal_name_full 'J.Chem.Soc.,Perkin Trans.1 '
loop_
_publ_author_name
"D.Korbonits"
"E.Tobias-Heja"
"K.Simon"
"G.Kramer"
"P.Kolonits"
_chemical_name_systematic
;
cis-6-Benzyl-3,5-diphenyl-5,6,7,8-tetrahydro-3H-(1,2,4)-oxadiazolo(4,3-c)pyrim
idine
;
_chemical_melting_point 399.15
_cell_volume   2015.242
_exptl_crystal_colour 'white'
_exptl_crystal_density_diffrn 1.22
_exptl_special_details
;
Melting point range 399.15-402.15K

;
_diffrn_ambient_temperature ?
_diffrn_special_details
;
The study was carried out at room temperature,in the range 283-303K

;
#These two values have been output from a single CSD field.
_refine_ls_R_factor_gt 0.063
_refine_ls_wR_factor_gt 0.063
loop_
_citation_database_id_CSD
_citation_special_details
YAHYIP "is a stereoisomer of this entry"
_symmetry_cell_setting monoclinic
_symmetry_space_group_name_H-M 'C c'
_symmetry_Int_Tables_number 9
loop_
_symmetry_equiv_pos_site_id
_symmetry_equiv_pos_as_xyz
1 x,y,z
2 1/2+x,1/2+y,z
3 x,-y,1/2+z
4 1/2+x,1/2-y,1/2+z
_cell_length_a 17.630(1)
_cell_length_b 9.124(1)
_cell_length_c 12.742(1)
_cell_angle_alpha 90
_cell_angle_beta 100.51(1)
_cell_angle_gamma 90
_cell_formula_units_Z 4
loop_
_atom_type_symbol
_atom_type_radius_bond
C 0.68
H 0.23
N 0.68
O 0.68
loop_
_atom_site_label
_atom_site_type_symbol
_atom_site_fract_x
_atom_site_fract_y
_atom_site_fract_z
N1 N -0.0819(3) -0.5962(7) -0.0830(5)
O1 O -0.15600 -0.6108(5) -0.15360
C1 C -0.2050(4) -0.4866(8) -0.1351(5)
N2 N -0.1513(3) -0.3923(6) -0.0653(4)
C2 C -0.1803(3) -0.3067(7) 0.0170(5)
N3 N -0.1153(3) -0.2225(6) 0.0746(4)
C3 C -0.0549(4) -0.3242(8) 0.1268(5)
C4 C -0.0206(4) -0.4060(9) 0.0417(5)
C5 C -0.0847(4) -0.4721(8) -0.0373(5)
C6 C -0.2384(4) -0.4186(7) -0.2406(5)
C7 C -0.3175(4) -0.4265(9) -0.2774(6)
C8 C -0.3492(4) -0.362(1) -0.3735(7)
C9 C -0.3041(5) -0.289(1) -0.4327(6)
C10 C -0.2248(5) -0.281(1) -0.3977(6)
C11 C -0.1926(4) -0.3468(8) -0.3015(6)
C12 C -0.2466(3) -0.2118(7) -0.0375(5)
C13 C -0.3210(4) -0.2428(8) -0.02202(6)
C14 C -0.3824(4) -0.165(1) -0.0764(7)
C15 C -0.3709(4) -0.061(1) -0.1487(7)
C16 C -0.2978(5) -0.026(1) -0.1635(7)
C17 C -0.2355(4) -0.1037(8) -0.1089(6)
C18 C -0.1420(4) -0.1272(8) 0.1561(5)
C19 C -0.0773(4) -0.0232(7) 0.2015(5)
C20 C -0.0485(4) 0.0784(8) 0.1382(6)
C21 C 0.0086(5) 0.176(1) 0.1846(8)
C22 C 0.0357(5) 0.1705(9) 0.2938(8)
C23 C 0.0088(5) 0.071(1) 0.3520(7)
C24 C -0.0479(5) -0.0265(9) 0.3109(6)
H1 H -0.24750 -0.50970 -0.10010
H2 H -0.20200 -0.36930 0.06770
H3 H -0.35040 -0.48170 -0.23640
H4 H -0.40520 -0.36240 -0.39800
H5 H -0.32610 -0.24900 -0.50290
H6 H -0.19050 -0.23200 -0.43830
H7 H -0.13690 -0.34370 -0.27510
H8 H -0.32890 -0.31620 0.03050
H9 H -0.43530 -0.18690 -0.06700
H10 H -0.41350 -0.00530 -0.19130
H11 H -0.28870 0.05540 -0.21290
H12 H -0.18250 -0.08560 -0.11980
H13 H -0.19200 -0.06500 0.11900
H14 H -0.15700 -0.19400 0.21900
H15 H -0.06800 0.08040 0.06310
H16 H 0.02760 0.25170 0.13960
H17 H 0.07820 0.23640 0.32490
H18 H 0.03030 0.07190 0.42640
H19 H -0.06920 -0.09330 0.36020
H20 H -0.01420 -0.26930 0.17270
H21 H -0.07510 -0.39230 0.17170
H22 H 0.00870 -0.34050 0.00550
H23 H 0.01380 -0.48290 0.07300
#END
