
#######################################################################
#
#                 Cambridge Crystallographic Data Centre
#                                CCDC
#
#######################################################################
#
# If this CIF has been generated from an entry in the Cambridge
# Structural Database, then it will include bibliographic, chemical,
# crystal, experimental, refinement or atomic coordinate data resulting
# from the CCDC's data processing and validation procedures.
#
#######################################################################

data_CSD_CIF_YAJGAT
_audit_creation_date 2011-11-29
_audit_creation_method CSD-ConQuest-V1
_database_code_CSD YAJGAT
_database_code_depnum_ccdc_archive 'CCDC 835994'
_chemical_formula_sum 'C28 H32 N2 O7'
_chemical_formula_moiety
;
C28 H32 N2 O7
;
_journal_coeditor_code "IUCr GK2409"
_journal_coden_Cambridge 1370
_journal_volume 67
_journal_year 2011
_journal_page_first o2979
_journal_name_full 'Acta Crystallogr.,Sect.E:Struct.Rep.Online '
loop_
_publ_author_name
"K.Kapoor"
"V.K.Gupta"
"R.Kant"
"M.P.Pawar"
"H.S.Joshi"
_chemical_name_systematic
;
Diisopropyl 
1-(4-methoxyphenyl)-2,6-dimethyl-4-(3-nitrophenyl)-1,4-dihydropyridine-3,5-dic
arboxylate
;
_cell_volume   1339.275
_exptl_crystal_colour 'light yellow'
_exptl_crystal_density_diffrn 1.261
_exptl_crystal_description 'block'
_exptl_crystal_preparation 'ethanol'
_diffrn_ambient_temperature 293
#These two values have been output from a single CSD field.
_refine_ls_R_factor_gt 0.0691
_refine_ls_wR_factor_gt 0.0691
_symmetry_cell_setting triclinic
_symmetry_space_group_name_H-M 'P -1'
_symmetry_Int_Tables_number 2
loop_
_symmetry_equiv_pos_site_id
_symmetry_equiv_pos_as_xyz
1 x,y,z
2 -x,-y,-z
_cell_length_a 9.5043(8)
_cell_length_b 10.7570(7)
_cell_length_c 15.1279(12)
_cell_angle_alpha 90.501(6)
_cell_angle_beta 105.873(7)
_cell_angle_gamma 114.601(7)
_cell_formula_units_Z 2
loop_
_atom_type_symbol
_atom_type_radius_bond
C 0.68
H 0.23
N 0.68
O 0.68
loop_
_atom_site_label
_atom_site_type_symbol
_atom_site_fract_x
_atom_site_fract_y
_atom_site_fract_z
N1 N 0.5454(3) 0.3122(2) 0.46535(16)
C1 C 0.6907(4) 0.4335(3) 0.4872(2)
C2 C 0.7718(4) 0.4905(3) 0.5771(2)
C3 C 0.7183(3) 0.4147(3) 0.6544(2)
H1 H 0.73550 0.48370 0.70380
C4 C 0.5384(4) 0.3176(3) 0.6209(2)
C5 C 0.4637(4) 0.2640(3) 0.5308(2)
C6 C 0.7469(4) 0.4920(3) 0.4068(2)
H2 H 0.67080 0.43450 0.35000
H3 H 0.85180 0.49520 0.41340
H4 H 0.75410 0.58360 0.40540
C7 C 0.2886(4) 0.1574(4) 0.4926(2)
H5 H 0.26200 0.13410 0.42690
H6 H 0.21870 0.19450 0.50480
H7 H 0.27420 0.07610 0.52200
C8 C 0.4847(4) 0.2280(3) 0.3756(2)
C9 C 0.5215(4) 0.1169(3) 0.3684(2)
H8 H 0.58300 0.09710 0.42050
C10 C 0.4672(4) 0.0366(3) 0.2846(2)
H9 H 0.49080 -0.03840 0.28000
C11 C 0.3773(4) 0.0671(3) 0.2067(2)
C12 C 0.3389(4) 0.1750(3) 0.2140(2)
H10 H 0.27750 0.19510 0.16190
C13 C 0.3912(4) 0.2535(4) 0.2984(2)
H11 H 0.36270 0.32560 0.30330
O1 O 0.3339(3) -0.0171(2) 0.12593(16)
C14 C 0.2611(6) 0.0187(4) 0.0422(3)
H12 H 0.23670 -0.04870 -0.00850
H13 H 0.33440 0.10790 0.03330
H14 H 0.16260 0.02130 0.04480
C15 C 0.9226(4) 0.6192(3) 0.6040(2)
O2 O 0.9944(3) 0.6917(2) 0.55631(16)
O3 O 0.9781(3) 0.6499(2) 0.69719(15)
C16 C 1.1316(4) 0.7699(3) 0.7403(2)
H15 H 1.19830 0.79030 0.69830
C17 C 1.2148(5) 0.7310(5) 0.8269(3)
H16 H 1.23360 0.65380 0.81120
H17 H 1.14750 0.70640 0.86700
H18 H 1.31680 0.80790 0.85810
C18 C 1.0989(5) 0.8909(4) 0.7570(4)
H19 H 1.04820 0.91180 0.69870
H20 H 1.19950 0.96930 0.78800
H21 H 1.02810 0.86940 0.79500
C19 C 0.4521(4) 0.2803(3) 0.6907(2)
O4 O 0.3176(3) 0.1942(3) 0.68094(17)
O5 O 0.5433(3) 0.3580(3) 0.77256(16)
C20 C 0.4739(5) 0.3377(4) 0.8499(3)
H22 H 0.37170 0.25320 0.83360
C21 C 0.5956(7) 0.3234(5) 0.9321(3)
H23 H 0.60840 0.24200 0.91850
H24 H 0.55770 0.31600 0.98540
H25 H 0.69820 0.40300 0.94470
C22 C 0.4423(6) 0.4586(5) 0.8653(3)
H26 H 0.36030 0.45950 0.81190
H27 H 0.54050 0.54180 0.87500
H28 H 0.40550 0.45280 0.91890
C23 C 0.8208(3) 0.3391(3) 0.6953(2)
C24 C 0.8803(4) 0.3461(3) 0.7905(2)
H29 H 0.85850 0.39740 0.83030
C25 C 0.9715(4) 0.2768(4) 0.8259(3)
C26 C 1.0054(4) 0.2001(4) 0.7710(3)
H30 H 1.06440 0.15180 0.79710
C27 C 0.9512(4) 0.1942(3) 0.6758(3)
H31 H 0.97680 0.14480 0.63710
C28 C 0.8584(4) 0.2629(3) 0.6389(2)
H32 H 0.82040 0.25780 0.57480
N2 N 1.0345(5) 0.2876(4) 0.9286(3)
O6 O 1.1211(4) 0.2294(4) 0.9581(3)
O7 O 0.9971(5) 0.3491(4) 0.9761(2)
#END
