
#######################################################################
#
#                 Cambridge Crystallographic Data Centre
#                                CCDC
#
#######################################################################
#
# If this CIF has been generated from an entry in the Cambridge
# Structural Database, then it will include bibliographic, chemical,
# crystal, experimental, refinement or atomic coordinate data resulting
# from the CCDC's data processing and validation procedures.
#
#######################################################################

data_CSD_CIF_YAJSAE
_audit_creation_date 2005-07-12
_audit_creation_method CSD-ConQuest-V1
_database_code_CSD YAJSAE
_database_code_depnum_ccdc_archive 'CCDC 267171'
_chemical_formula_sum 'C20 H22 N4 O4'
_chemical_formula_moiety
;
C20 H22 N4 O4
;
_journal_coden_Cambridge 1336
_journal_volume 7
_journal_year 2005
_journal_page_first 557
_journal_name_full 'Org.Lett. '
loop_
_publ_author_name
"Bor-Cherng Hong"
"Fon-Len Chen"
"Shang-Hung Chen"
"Ju-Hsiou Liao"
"Gene-Hsiang Lee"
_chemical_name_systematic
;
10-(2,4-Dinitrophenylhydrazono)-2-methyltricyclo[6.4.0.0^3,7^]trideca-2,4-dien
e
;
_chemical_melting_point 413.15
_cell_volume   1892.961
_exptl_crystal_colour 'orange'
_exptl_crystal_density_diffrn 1.342
_exptl_special_details
;
Melting point range 413.15-416.15K

;
_exptl_crystal_description 'plate'
_diffrn_ambient_temperature 295
#These two values have been output from a single CSD field.
_refine_ls_R_factor_gt 0.0911
_refine_ls_wR_factor_gt 0.0911
_symmetry_cell_setting monoclinic
_symmetry_space_group_name_H-M 'P 21/c'
_symmetry_Int_Tables_number 14
loop_
_symmetry_equiv_pos_site_id
_symmetry_equiv_pos_as_xyz
1 x,y,z
2 -x,1/2+y,1/2-z
3 -x,-y,-z
4 x,-1/2-y,-1/2+z
_cell_length_a 8.2559(5)
_cell_length_b 6.0132(4)
_cell_length_c 38.196(3)
_cell_angle_alpha 90
_cell_angle_beta 93.358(2)
_cell_angle_gamma 90
_cell_formula_units_Z 4
loop_
_atom_type_symbol
_atom_type_radius_bond
C 0.68
H 0.23
N 0.68
O 0.68
loop_
_atom_site_label
_atom_site_type_symbol
_atom_site_fract_x
_atom_site_fract_y
_atom_site_fract_z
O1 O 0.6286(4) 0.9916(5) -0.09709(6)
O2 O 0.7599(4) 1.2851(5) -0.08283(7)
O3 O 0.9566(3) 1.4096(4) 0.03312(6)
O4 O 0.9324(3) 1.1753(4) 0.07445(6)
N1 N 0.6762(3) 0.6354(4) 0.07528(6)
N2 N 0.7499(3) 0.8288(4) 0.06421(6)
H1 H 0.80330 0.90990 0.07940
N3 N 0.7012(4) 1.1077(5) -0.07565(7)
N4 N 0.9062(3) 1.2341(4) 0.04384(6)
C1 C 1.0169(5) 1.0777(6) 0.22107(9)
H2 H 0.98680 1.16750 0.23940
C2 C 1.1675(5) 1.0248(8) 0.21489(11)
H3 H 1.25760 1.07390 0.22850
C3 C 1.1771(4) 0.8789(8) 0.18397(10)
H4 H 1.19890 0.72610 0.19090
H5 H 1.26070 0.92880 0.16900
C4 C 1.0084(4) 0.9018(6) 0.16556(8)
H6 H 1.01290 1.02630 0.14910
C5 C 0.9345(4) 0.7079(5) 0.14567(8)
H7 H 0.93950 0.57540 0.16020
H8 H 0.99280 0.67940 0.12480
C6 C 0.7571(4) 0.7686(4) 0.13556(7)
H9 H 0.75820 0.91510 0.12430
C7 C 0.6825(4) 0.6085(5) 0.10877(7)
C8 C 0.6165(5) 0.3961(5) 0.12232(8)
H10 H 0.70570 0.29960 0.13000
H11 H 0.55390 0.32120 0.10350
C9 C 0.5095(4) 0.4367(5) 0.15261(8)
H12 H 0.47460 0.29530 0.16180
H13 H 0.41370 0.51910 0.14440
C10 C 0.6011(4) 0.5667(5) 0.18146(8)
H14 H 0.69480 0.48170 0.19020
H15 H 0.53150 0.58980 0.20070
C11 C 0.6570(3) 0.7919(4) 0.16794(7)
H16 H 0.55900 0.87580 0.16060
C12 C 0.7477(4) 0.9278(5) 0.19644(7)
C13 C 0.6501(4) 1.0026(6) 0.22643(8)
H17 H 0.71700 1.09190 0.24230
H18 H 0.61230 0.87480 0.23860
H19 H 0.55890 1.08860 0.21750
C14 C 0.9039(4) 0.9749(5) 0.19490(7)
C15 C 0.7401(3) 0.8925(5) 0.03054(7)
C16 C 0.6562(4) 0.7659(5) 0.00439(7)
H20 H 0.60750 0.63310 0.01050
C17 C 0.6444(4) 0.8328(6) -0.02965(8)
H21 H 0.58920 0.74550 -0.04650
C18 C 0.7153(4) 1.0325(5) -0.03916(7)
C19 C 0.7988(3) 1.1607(5) -0.01504(7)
H22 H 0.84640 1.29320 -0.02170
C20 C 0.8124(3) 1.0918(5) 0.01954(7)
#END
