
#######################################################################
#
#                 Cambridge Crystallographic Data Centre
#                                CCDC
#
#######################################################################
#
# If this CIF has been generated from an entry in the Cambridge
# Structural Database, then it will include bibliographic, chemical,
# crystal, experimental, refinement or atomic coordinate data resulting
# from the CCDC's data processing and validation procedures.
#
#######################################################################

data_CSD_CIF_YAKJEZ
_audit_creation_date 1993-08-05
_audit_creation_method CSD-ConQuest-V1
_database_code_CSD YAKJEZ
_database_code_depnum_ccdc_archive 'CCDC 1299008'
_chemical_formula_sum 'C18 H14 N6 O2'
_chemical_formula_moiety
;
C18 H14 N6 O2
;
_journal_coden_Cambridge 34
_journal_volume 28
_journal_year 1991
_journal_page_first 1677
_journal_name_full 'J.Heterocycl.Chem. '
loop_
_publ_author_name
"J.W.Fischer"
"R.A.Nissan"
"C.K.Lowe-Ma"
_chemical_name_systematic
;
4,8-Dibenzyl-bis(1,2,5)oxadiazolo(3,4-b:3',4'-e)pyrazine
;
_chemical_melting_point 443.15
_cell_volume    821.152
_exptl_crystal_colour 'white'
_exptl_crystal_density_diffrn 1.4
_exptl_special_details
;
Melts with decomposition.

;
_diffrn_ambient_temperature ?
_diffrn_special_details
;
The study was carried out at room temperature,in the range 283-303K

;
#These two values have been output from a single CSD field.
_refine_ls_R_factor_gt 0.06
_refine_ls_wR_factor_gt 0.06
_symmetry_cell_setting monoclinic
_symmetry_space_group_name_H-M 'P 21/c'
_symmetry_Int_Tables_number 14
loop_
_symmetry_equiv_pos_site_id
_symmetry_equiv_pos_as_xyz
1 x,y,z
2 -x,1/2+y,1/2-z
3 -x,-y,-z
4 x,-1/2-y,-1/2+z
_cell_length_a 9.887(5)
_cell_length_b 4.703(2)
_cell_length_c 17.918
_cell_angle_alpha 90
_cell_angle_beta 99.74(4)
_cell_angle_gamma 90
_cell_formula_units_Z 2
loop_
_atom_type_symbol
_atom_type_radius_bond
C 0.68
H 0.23
N 0.68
O 0.68
loop_
_atom_site_label
_atom_site_type_symbol
_atom_site_fract_x
_atom_site_fract_y
_atom_site_fract_z
C1 C 0.5272(2) -0.1252(5) 0.0692(1)
C2 C 0.5997(2) -0.2026(5) 0.0095(1)
C3 C 0.3555(3) 0.1583(6) 0.1234(2)
C4 C 0.2531(2) -0.0601(5) 0.1392(1)
C5 C 0.2658(3) -0.1870(7) 0.2093(2)
C6 C 0.1694(4) -0.3786(7) 0.2251(2)
C7 C 0.0590(4) -0.4452(7) 0.1708(2)
C8 C 0.0456(3) -0.3218(7) 0.1009(2)
C9 C 0.1418(3) -0.1304(6) 0.0848(2)
N1 N 0.4267(2) 0.0791(4) 0.0609(1)
N2 N 0.6876(2) -0.4000(5) 0.0320(1)
N3 N 0.5710(2) -0.2741(5) 0.1290(1)
O1 O 0.6725(2) -0.4504(5) 0.1075(1)
H1 H 0.42270 0.18310 0.16830
H2 H 0.30810 0.33460 0.11080
H3 H 0.34280 -0.14120 0.24770
H4 H 0.17950 -0.46570 0.27420
H5 H -0.00870 -0.57810 0.18180
H6 H -0.03160 -0.36890 0.06280
H7 H 0.13160 -0.04540 0.03540
N1B N 0.5733(2) -0.0791(4) -0.0609(1)
C2B C 0.4003(2) 0.2026(5) -0.0095(1)
C1B C 0.4728(2) 0.1252(5) -0.0692(1)
C3B C 0.6445(3) -0.1583(6) -0.1234(2)
N2B N 0.3124(2) 0.4000(5) -0.0320(1)
N3B N 0.4290(2) 0.2741(5) -0.1290(1)
C4B C 0.7469(2) 0.0601(5) -0.1392(1)
H1B H 0.57730 -0.18310 -0.16830
H2B H 0.69190 -0.33460 -0.11080
O1B O 0.3275(2) 0.4504(5) -0.1075(1)
C5B C 0.7342(3) 0.1870(7) -0.2093(2)
C9B C 0.8582(3) 0.1304(6) -0.0848(2)
C6B C 0.8306(4) 0.3786(7) -0.2251(2)
H3B H 0.65720 0.14120 -0.24770
C8B C 0.9544(3) 0.3218(7) -0.1009(2)
H7B H 0.86840 0.04540 -0.03540
C7B C 0.9410(4) 0.4452(7) -0.1708(2)
H4B H 0.82050 0.46570 -0.27420
H6B H 1.03160 0.36890 -0.06280
H5B H 1.00870 0.57810 -0.18180
#END
