
#######################################################################
#
#                 Cambridge Crystallographic Data Centre
#                                CCDC
#
#######################################################################
#
# If this CIF has been generated from an entry in the Cambridge
# Structural Database, then it will include bibliographic, chemical,
# crystal, experimental, refinement or atomic coordinate data resulting
# from the CCDC's data processing and validation procedures.
#
#######################################################################

data_CSD_CIF_YALBUJ
_audit_creation_date 2005-07-12
_audit_creation_method CSD-ConQuest-V1
_database_code_CSD YALBUJ
_database_code_depnum_ccdc_archive 'CCDC 267630'
_chemical_formula_sum 'C52 H38 N2 O1'
_chemical_formula_moiety
;
C52 H38 N2 O1
;
_journal_coden_Cambridge 35
_journal_volume 70
_journal_year 2005
_journal_page_first 2299
_journal_name_full 'J.Org.Chem. '
loop_
_publ_author_name
"Xuefeng Mei"
"C.Wolf"
_chemical_name_systematic
;
1,8-bis(3-(3,5-Dimethylphenyl)acrid-9-yl)naphthalene-N-mono-oxide
;
_cell_volume   1825.185
_exptl_crystal_colour 'red'
_exptl_crystal_density_diffrn 1.286
_exptl_crystal_description 'prism'
_exptl_crystal_preparation 'diethyl ether/dichloromethane'
_diffrn_ambient_temperature 183
_refine_special_details
;
The O atom is disordered over two positions with occupancies 0.75:0.25.

;
#These two values have been output from a single CSD field.
_refine_ls_R_factor_gt 0.0785
_refine_ls_wR_factor_gt 0.0785
_symmetry_cell_setting triclinic
_symmetry_space_group_name_H-M 'P -1'
_symmetry_Int_Tables_number 2
loop_
_symmetry_equiv_pos_site_id
_symmetry_equiv_pos_as_xyz
1 x,y,z
2 -x,-y,-z
_cell_length_a 10.8531(14)
_cell_length_b 12.2879(16)
_cell_length_c 14.4533(19)
_cell_angle_alpha 108.655(3)
_cell_angle_beta 90.794(3)
_cell_angle_gamma 91.440(3)
_cell_formula_units_Z 2
loop_
_atom_type_symbol
_atom_type_radius_bond
C 0.68
H 0.23
N 0.68
O 0.68
loop_
_atom_site_label
_atom_site_type_symbol
_atom_site_fract_x
_atom_site_fract_y
_atom_site_fract_z
O1 O 0.2840(4) 0.6214(3) 0.0617(3)
O2? O 0.3327(14) 0.8323(12) 0.3371(10)
N1 N 0.1673(3) 0.6217(3) 0.0846(2)
N2 N 0.2375(4) 0.8408(3) 0.3307(2)
C1 C -0.2069(4) 0.6671(4) 0.1867(3)
C2 C -0.2972(4) 0.5908(4) 0.1321(3)
H1 H -0.27320 0.52380 0.08220
C3 C -0.4228(4) 0.6098(4) 0.1486(3)
H2 H -0.48210 0.55590 0.10950
C4 C -0.4613(4) 0.7044(4) 0.2199(3)
H3 H -0.54680 0.71760 0.22940
C5 C -0.4155(4) 0.8792(4) 0.3548(3)
H4 H -0.50150 0.88790 0.36480
C6 C -0.3332(5) 0.9595(4) 0.4128(3)
H5 H -0.36140 1.02430 0.46280
C7 C -0.2076(4) 0.9445(4) 0.3972(3)
H6 H -0.15170 1.00100 0.43770
C8 C -0.1602(4) 0.8535(4) 0.3271(3)
C9 C -0.2424(4) 0.7665(4) 0.2641(3)
C10 C -0.3719(4) 0.7830(4) 0.2797(3)
C11 C -0.0789(4) 0.6457(3) 0.1516(3)
C12 C -0.0148(4) 0.5502(4) 0.2730(3)
H7 H -0.09590 0.55400 0.29750
C13 C 0.0742(4) 0.5022(4) 0.3135(3)
H8 H 0.05380 0.47340 0.36530
C14 C 0.1973(4) 0.4944(4) 0.2795(3)
C15 C 0.2243(4) 0.5356(4) 0.2047(3)
H9 H 0.30600 0.53140 0.18130
C16 C 0.1144(4) 0.6869(4) -0.0490(3)
H10 H 0.19780 0.68010 -0.06850
C17 C 0.0288(4) 0.7226(4) -0.1015(3)
H11 H 0.05190 0.73750 -0.15960
C18 C -0.0926(5) 0.7376(4) -0.0710(3)
H12 H -0.15110 0.76360 -0.10810
C19 C -0.1285(4) 0.7154(4) 0.0114(3)
H13 H -0.21130 0.72810 0.03180
C20 C -0.0444(4) 0.6734(3) 0.0671(3)
C21 C 0.0781(4) 0.6598(3) 0.0352(3)
C22 C 0.1325(4) 0.5845(3) 0.1616(3)
C23 C 0.0096(4) 0.5952(4) 0.1945(3)
C24 C 0.2957(4) 0.4420(4) 0.3213(3)
C25 C 0.4150(4) 0.4917(4) 0.3346(3)
H14 H 0.42970 0.56140 0.32080
C26 C 0.5127(4) 0.4409(4) 0.3678(3)
C27 C 0.4879(4) 0.3397(4) 0.3900(3)
H15 H 0.55350 0.30320 0.41140
C28 C 0.3688(5) 0.2914(4) 0.3813(3)
C29 C 0.2748(4) 0.3433(4) 0.3469(3)
H16 H 0.19360 0.31050 0.34070
C30 C 0.6420(4) 0.4925(5) 0.3757(4)
H17 H 0.68910 0.44880 0.31930
H18 H 0.68250 0.48940 0.43580
H19 H 0.63830 0.57260 0.37730
C31 C 0.3468(5) 0.1827(4) 0.4077(3)
H20 H 0.42450 0.15990 0.43040
H21 H 0.31540 0.12100 0.35000
H22 H 0.28630 0.19680 0.45960
H23? H 0.25960 0.15860 0.39620
H24? H 0.36880 0.19750 0.47670
H25? H 0.39780 0.12170 0.36710
C32 C -0.0234(4) 0.8475(4) 0.3252(3)
C33 C -0.0034(4) 0.9357(4) 0.1931(3)
H26 H -0.09050 0.93850 0.18720
C34 C 0.0696(4) 0.9755(3) 0.1349(3)
H27 H 0.03210 1.00660 0.08950
C35 C 0.2010(4) 0.9724(3) 0.1394(3)
C36 C 0.2537(4) 0.9273(4) 0.2052(3)
H28 H 0.34100 0.92410 0.20900
C37 C 0.2355(5) 0.7598(4) 0.4599(3)
H29 H 0.32230 0.75190 0.45640
C38 C 0.1712(5) 0.7295(4) 0.5289(4)
H30 H 0.21390 0.70060 0.57350
C39 C 0.0432(5) 0.7406(4) 0.5349(3)
H31 H 0.00150 0.72250 0.58570
C40 C -0.0234(5) 0.7766(4) 0.4699(3)
H32 H -0.11070 0.77950 0.47350
C41 C 0.0396(4) 0.8103(3) 0.3961(3)
C42 C 0.1710(4) 0.8035(3) 0.3927(3)
C43 C 0.1800(4) 0.8849(3) 0.2683(3)
C44 C 0.0493(4) 0.8893(3) 0.2634(3)
C45 C 0.2768(4) 1.0174(4) 0.0744(3)
C46 C 0.2641(4) 0.9667(4) -0.0270(3)
H33 H 0.20610 0.90480 -0.05290
C47 C 0.3348(4) 1.0052(4) -0.0906(3)
C48 C 0.4106(4) 1.1016(4) -0.0520(3)
H34 H 0.45510 1.13120 -0.09520
C49 C 0.4241(4) 1.1571(4) 0.0486(4)
C50 C 0.3564(4) 1.1124(4) 0.1106(3)
H35 H 0.36500 1.14800 0.17920
C51 C 0.3278(5) 0.9413(5) -0.1994(3)
H36 H 0.32600 0.99680 -0.23530
H37 H 0.25280 0.89230 -0.21500
H38 H 0.40020 0.89360 -0.21810
C52 C 0.5030(4) 1.2645(4) 0.0879(4)
H39 H 0.50150 1.29110 0.15940
H40 H 0.47120 1.32420 0.06330
H41 H 0.58790 1.24840 0.06670
H42? H 0.53890 1.28470 0.03350
H43? H 0.56920 1.25160 0.12970
H44? H 0.45250 1.32740 0.12620
#END
