
#######################################################################
#
#                 Cambridge Crystallographic Data Centre
#                                CCDC
#
#######################################################################
#
# If this CIF has been generated from an entry in the Cambridge
# Structural Database, then it will include bibliographic, chemical,
# crystal, experimental, refinement or atomic coordinate data resulting
# from the CCDC's data processing and validation procedures.
#
#######################################################################

data_CSD_CIF_YALTUA
_audit_creation_date 1994-01-24
_audit_creation_method CSD-ConQuest-V1
_database_code_CSD YALTUA
_chemical_formula_sum 'C11 H7 N5 O6'
_chemical_formula_moiety
;
C11 H7 N5 O6
;
_journal_coden_Cambridge 582
_journal_volume 22
_journal_year 1992
_journal_page_first 705
_journal_name_full 'J.Crystallogr.Spectrosc.Res. '
loop_
_publ_author_name
"L.Forlani"
"L.P.Battaglia"
"A.B.Corradi"
"P.Sgarabotto"
_chemical_name_systematic
;
2-N-(2,4,6-Trinitrophenyl)-pyridineamine
;
_cell_volume   1266.042
_exptl_crystal_colour 'deep yellow'
_exptl_crystal_density_diffrn 1.6
_diffrn_ambient_temperature ?
_diffrn_special_details
;
The study was carried out at room temperature,in the range 283-303K

;
#These two values have been output from a single CSD field.
_refine_ls_R_factor_gt 0.038
_refine_ls_wR_factor_gt 0.038
_symmetry_cell_setting orthorhombic
_symmetry_space_group_name_H-M 'P n a 21'
_symmetry_Int_Tables_number 33
loop_
_symmetry_equiv_pos_site_id
_symmetry_equiv_pos_as_xyz
1 x,y,z
2 1/2-x,1/2+y,1/2+z
3 1/2+x,1/2-y,z
4 -x,-y,1/2+z
_cell_length_a 12.980(3)
_cell_length_b 10.875(2)
_cell_length_c 8.969(2)
_cell_angle_alpha 90
_cell_angle_beta 90
_cell_angle_gamma 90
_cell_formula_units_Z 4
loop_
_atom_type_symbol
_atom_type_radius_bond
C 0.68
N 0.68
O 0.68
loop_
_atom_site_label
_atom_site_type_symbol
_atom_site_fract_x
_atom_site_fract_y
_atom_site_fract_z
O1 O 0.4112(1) 0.1512(2) 1.0513(3)
O2 O 0.2711(2) 0.2413(2) 1.11230
O3 O -0.0446(1) 0.1202(2) 0.8882(4)
O4 O -0.0441(1) 0.0136(3) 0.6855(4)
O5 O 0.3928(1) -0.0677(2) 0.5279(3)
O6 O 0.2683(1) 0.0104(3) 0.3973(3)
N1 N 0.4330(1) 0.1077(2) 0.7600(3)
N2 N 0.3209(1) 0.1770(2) 1.0286(3)
N3 N -0.0007(1) 0.0675(2) 0.7851(3)
N4 N 0.3142(1) -0.0063(2) 0.5144(3)
N5 N 0.4320(1) 0.1973(2) 0.5235(3)
C1 C 0.3284(1) 0.0922(2) 0.7676(3)
C2 C 0.2702(2) 0.1270(2) 0.8958(3)
C3 C 0.1641(2) 0.1195(2) 0.9027(4)
C4 C 0.1119(1) 0.0734(2) 0.7824(4)
C5 C 0.1627(2) 0.0352(2) 0.6546(4)
C6 C 0.2678(1) 0.0450(2) 0.6503(3)
C7 C 0.4874(2) 0.1474(2) 0.6331(3)
C8 C 0.5941(2) 0.1370(2) 0.6319(4)
C9 C 0.6448(2) 0.1822(2) 0.5081(4)
C10 C 0.5895(2) 0.2330(3) 0.3913(4)
C11 C 0.4847(3) 0.2371(3) 0.4035(4)
#END
