
#######################################################################
#
#                 Cambridge Crystallographic Data Centre
#                                CCDC
#
#######################################################################
#
# If this CIF has been generated from an entry in the Cambridge
# Structural Database, then it will include bibliographic, chemical,
# crystal, experimental, refinement or atomic coordinate data resulting
# from the CCDC's data processing and validation procedures.
#
#######################################################################

data_CSD_CIF_YALVIR
_audit_creation_date 2005-07-12
_audit_creation_method CSD-ConQuest-V1
_database_code_CSD YALVIR
_database_code_depnum_ccdc_archive 'CCDC 198085'
_chemical_formula_sum 'C23 H21 N1 O2'
_chemical_formula_moiety
;
C23 H21 N1 O2
;
_journal_coden_Cambridge 1086
_journal_volume 17
_journal_year 2005
_journal_page_first 63
_journal_name_full 'Chirality '
loop_
_publ_author_name
"C.Uncuta"
"G.B.Caraman"
"C.I.Tanase"
"E.Bartha"
"V.Ch.Kravtsov"
"Yu.A.Simonov"
"J.Lipkowski"
"N.Vanthuyne"
"C.Roussel"
_chemical_name_systematic
;
(1R^*^)-2-((5'S^*^)-3',5'-diphenyl-4'5'-dihydroisoxazol-5'-yl) 
-1-phenylethanol
;
_chemical_melting_point 410.15
_cell_volume   1903.310
_exptl_crystal_colour 'colorless'
_exptl_crystal_density_diffrn 1.198
_exptl_special_details
;
Melting point range 410.15-411.15K

;
_exptl_crystal_description 'prism'
_diffrn_ambient_temperature 293
#These two values have been output from a single CSD field.
_refine_ls_R_factor_gt 0.0629
_refine_ls_wR_factor_gt 0.0629
_symmetry_cell_setting monoclinic
_symmetry_space_group_name_H-M 'P 21/n'
_symmetry_Int_Tables_number 14
loop_
_symmetry_equiv_pos_site_id
_symmetry_equiv_pos_as_xyz
1 x,y,z
2 1/2-x,1/2+y,1/2-z
3 -x,-y,-z
4 -1/2+x,-1/2-y,-1/2+z
_cell_length_a 10.935(5)
_cell_length_b 15.684(4)
_cell_length_c 11.302(5)
_cell_angle_alpha 90
_cell_angle_beta 100.91(4)
_cell_angle_gamma 90
_cell_formula_units_Z 4
loop_
_atom_type_symbol
_atom_type_radius_bond
C 0.68
H 0.23
N 0.68
O 0.68
loop_
_atom_site_label
_atom_site_type_symbol
_atom_site_fract_x
_atom_site_fract_y
_atom_site_fract_z
O1 O 0.3203(4) 0.1739(3) 0.2525(4)
H1 H 0.26370 0.15580 0.20040
O2 O 0.6733(3) 0.2663(3) 0.4485(3)
N1 N 0.6361(5) 0.3180(3) 0.5372(4)
C1 C 0.4330(6) 0.1278(4) 0.2476(5)
H2 H 0.45960 0.14280 0.17220
C2 C 0.5301(5) 0.1612(4) 0.3518(5)
H3 H 0.49990 0.15140 0.42600
H4 H 0.60540 0.12770 0.35580
C3 C 0.5643(5) 0.2548(4) 0.3466(5)
C4 C 0.4683(5) 0.3172(4) 0.3785(4)
H5 H 0.45620 0.36510 0.32310
H6 H 0.38880 0.28930 0.37710
C5 C 0.5256(6) 0.3457(4) 0.5042(5)
C6 C 0.4646(6) 0.3994(4) 0.5798(5)
C7 C 0.3520(7) 0.4370(5) 0.5345(6)
H7 H 0.31590 0.42720 0.45430
C8 C 0.2900(7) 0.4886(5) 0.6028(7)
H8 H 0.21440 0.51340 0.56840
C9 C 0.3413(9) 0.5032(5) 0.7224(8)
H9 H 0.30000 0.53610 0.77080
C10 C 0.4541(9) 0.4678(5) 0.7674(6)
H10 H 0.49050 0.47840 0.84720
C11 C 0.5165(7) 0.4169(4) 0.6992(6)
H11 H 0.59370 0.39420 0.73330
C12 C 0.6080(6) 0.2765(4) 0.2320(5)
C13 C 0.7307(7) 0.2709(4) 0.2217(5)
H12 H 0.78920 0.25400 0.28830
C14 C 0.7703(7) 0.2895(5) 0.1159(7)
H13 H 0.85440 0.28660 0.11200
C15 C 0.6831(8) 0.3125(5) 0.0153(7)
H14 H 0.70830 0.32500 -0.05690
C16 C 0.5624(8) 0.3169(4) 0.0225(5)
H15 H 0.50410 0.33170 -0.04550
C17 C 0.5230(6) 0.2995(4) 0.1301(5)
H16 H 0.43880 0.30340 0.13360
C18 C 0.4170(6) 0.0322(5) 0.2506(6)
C19 C 0.3509(7) -0.0055(6) 0.3308(6)
H17 H 0.31530 0.02790 0.38320
C20 C 0.3388(8) -0.0940(7) 0.3314(8)
H18 H 0.29780 -0.11980 0.38690
C21 C 0.3862(10) -0.1431(6) 0.2517(10)
H19 H 0.37400 -0.20180 0.24970
C22 C 0.4506(8) -0.1059(6) 0.1762(9)
H20 H 0.48610 -0.13990 0.12430
C23 C 0.4658(7) -0.0196(6) 0.1733(7)
H21 H 0.50970 0.00430 0.11860
#END
