
#######################################################################
#
#                 Cambridge Crystallographic Data Centre
#                                CCDC
#
#######################################################################
#
# If this CIF has been generated from an entry in the Cambridge
# Structural Database, then it will include bibliographic, chemical,
# crystal, experimental, refinement or atomic coordinate data resulting
# from the CCDC's data processing and validation procedures.
#
#######################################################################

data_CSD_CIF_YAMPEK
_audit_creation_date 2016-12-08
_audit_creation_method CSD-ConQuest-V1
_database_code_CSD YAMPEK
_database_code_depnum_ccdc_archive 'CCDC 1012962'
_chemical_formula_sum 'C16 H14 N2 O4'
_chemical_formula_moiety
;
C16 H14 N2 O4
;
_journal_coden_Cambridge 388
_journal_volume 50
_journal_year 2014
_journal_page_first 1814
_journal_name_full 'Zh.Org.Khim.(Russ.)(Russ.J.Org.Chem.) '
loop_
_publ_author_name
"L.M.Gornostaev"
"Yu.G.Khalyavina"
"T.I.Lavrikova"
"Yu.V.Gatilov"
"G.A.Stashina"
"S.I.Firgang"
_chemical_name_systematic
;
4-[(acetyloxy)imino]-2-(propan-2-yl)naphtho[2,1-d][1,3]oxazol-5(4H)-one
;
_chemical_melting_point 420
_cell_volume   2939.372
_exptl_crystal_colour 'yellow'
_exptl_crystal_density_diffrn 1.348
_exptl_crystal_description 'needle'
_diffrn_ambient_temperature 296
#These two values have been output from a single CSD field.
_refine_ls_R_factor_gt 0.0468
_refine_ls_wR_factor_gt 0.0468
_symmetry_cell_setting monoclinic
_symmetry_space_group_name_H-M 'C 2/c'
_symmetry_Int_Tables_number 15
loop_
_symmetry_equiv_pos_site_id
_symmetry_equiv_pos_as_xyz
1 x,y,z
2 -x,y,1/2-z
3 1/2+x,1/2+y,z
4 1/2-x,1/2+y,1/2-z
5 -x,-y,-z
6 x,-y,-1/2+z
7 -1/2-x,-1/2-y,-z
8 -1/2+x,-1/2-y,-1/2+z
_cell_length_a 12.6680(11)
_cell_length_b 20.2446(14)
_cell_length_c 12.8544(16)
_cell_angle_alpha 90
_cell_angle_beta 116.921(3)
_cell_angle_gamma 90
_cell_formula_units_Z 8
loop_
_atom_type_symbol
_atom_type_radius_bond
C 0.68
H 0.23
N 0.68
O 0.68
loop_
_atom_site_label
_atom_site_type_symbol
_atom_site_fract_x
_atom_site_fract_y
_atom_site_fract_z
O1 O 0.90279(15) 0.38981(7) 0.58263(13)
N1 N 0.94592(18) 0.28621(9) 0.55417(16)
C1 C 0.9575(2) 0.34805(11) 0.5368(2)
O2 O 0.73507(19) 0.20656(9) 0.77176(18)
C2 C 0.8797(2) 0.28541(10) 0.61672(19)
N2 N 0.85361(19) 0.16807(9) 0.65565(17)
O3 O 0.92558(16) 0.15920(7) 0.59942(14)
C3 C 0.8380(2) 0.23101(11) 0.66154(19)
O4 O 0.9074(2) 0.04919(9) 0.6083(2)
C4 C 0.7679(2) 0.24904(12) 0.7267(2)
C5 C 0.7415(2) 0.32053(12) 0.7354(2)
C6 C 0.6753(3) 0.33823(14) 0.7924(2)
H1 H 0.64500 0.30570 0.82250
C7 C 0.6542(3) 0.40393(15) 0.8044(2)
H2 H 0.61030 0.41540 0.84330
C8 C 0.6972(3) 0.45274(14) 0.7595(2)
H3 H 0.68240 0.49690 0.76820
C9 C 0.7624(2) 0.43631(12) 0.7017(2)
H4 H 0.79080 0.46930 0.67080
C10 C 0.7856(2) 0.37034(11) 0.68970(19)
C11 C 0.8537(2) 0.34822(11) 0.6322(2)
C12 C 1.0212(2) 0.37906(12) 0.4770(2)
H5 H 1.08830 0.40360 0.53590
C13 C 0.9420(3) 0.42854(14) 0.3850(3)
H6 H 0.91500 0.46150 0.42110
H7 H 0.87510 0.40590 0.32600
H8 H 0.98610 0.44930 0.34990
C14 C 1.0707(3) 0.32729(14) 0.4258(2)
H9 H 1.12180 0.29800 0.48640
H10 H 1.11490 0.34860 0.39120
H11 H 1.00680 0.30250 0.36720
C15 C 0.9519(3) 0.09500(12) 0.5878(2)
C16 C 1.0415(3) 0.09515(12) 0.5442(3)
H12 H 1.06140 0.05050 0.53520
H13 H 1.11120 0.11780 0.59900
H14 H 1.01020 0.11730 0.47020
#END
