
#######################################################################
#
#                 Cambridge Crystallographic Data Centre
#                                CCDC
#
#######################################################################
#
# If this CIF has been generated from an entry in the Cambridge
# Structural Database, then it will include bibliographic, chemical,
# crystal, experimental, refinement or atomic coordinate data resulting
# from the CCDC's data processing and validation procedures.
#
#######################################################################

data_CSD_CIF_YAMQUA
_audit_creation_date 2011-12-21
_audit_creation_method CSD-ConQuest-V1
_database_code_CSD YAMQUA
_database_code_depnum_ccdc_archive 'CCDC 833440'
_chemical_formula_sum 'C20 H33 N1 O5'
_chemical_formula_moiety
;
C20 H33 N1 O5
;
_journal_coden_Cambridge 16
_journal_volume 67
_journal_year 2011
_journal_page_first 8229
_journal_name_full 'Tetrahedron '
loop_
_publ_author_name
"R.Sengupta"
"J.A.Witek"
"S.M.Weinreb"
_chemical_name_systematic
;
Diethyl allyl(5-t-butyl-2-(hydroxyimino)cyclohexyl)malonate
;
_cell_volume   2170.125
_exptl_crystal_colour 'colorless'
_exptl_crystal_density_diffrn 1.125
_exptl_crystal_description 'block'
_exptl_crystal_preparation 'acetone/ethyl acetate'
_diffrn_ambient_temperature 298
#These two values have been output from a single CSD field.
_refine_ls_R_factor_gt 0.076
_refine_ls_wR_factor_gt 0.076
_symmetry_cell_setting monoclinic
_symmetry_space_group_name_H-M 'P 21/n'
_symmetry_Int_Tables_number 14
loop_
_symmetry_equiv_pos_site_id
_symmetry_equiv_pos_as_xyz
1 x,y,z
2 1/2-x,1/2+y,1/2-z
3 -x,-y,-z
4 -1/2+x,-1/2-y,-1/2+z
_cell_length_a 11.839(3)
_cell_length_b 8.2800(18)
_cell_length_c 22.774(5)
_cell_angle_alpha 90
_cell_angle_beta 103.572(3)
_cell_angle_gamma 90
_cell_formula_units_Z 4
loop_
_atom_type_symbol
_atom_type_radius_bond
C 0.68
H 0.23
N 0.68
O 0.68
loop_
_atom_site_label
_atom_site_type_symbol
_atom_site_fract_x
_atom_site_fract_y
_atom_site_fract_z
C1 C 0.54214(18) 0.3828(3) 0.34525(11)
C2 C 0.6121(2) 0.2933(3) 0.39904(12)
H1 H 0.64980 0.20160 0.38520
H2 H 0.56040 0.25240 0.42290
C3 C 0.7027(3) 0.3995(4) 0.43804(14)
H3 H 0.72460 0.35390 0.47840
H4 H 0.77130 0.40110 0.42170
C4 C 0.6611(3) 0.5686(4) 0.44192(13)
H5 H 0.58490 0.55650 0.45130
C5 C 0.6352(2) 0.6489(3) 0.38026(11)
H6 H 0.70390 0.70710 0.37590
H7 H 0.57360 0.72740 0.37840
C6 C 0.59869(17) 0.5315(3) 0.32698(10)
H8 H 0.67180 0.49330 0.31870
C7 C 0.7311(3) 0.6734(4) 0.49338(13)
C8 C 0.8552(4) 0.6880(7) 0.49007(19)
H9 H 0.88830 0.58220 0.48990
H10 H 0.89770 0.74710 0.52450
H11 H 0.85940 0.74400 0.45370
C9 C 0.7266(5) 0.6030(7) 0.55465(18)
H12 H 0.77470 0.50840 0.56240
H13 H 0.64790 0.57460 0.55450
H14 H 0.75430 0.68180 0.58560
C10 C 0.6788(6) 0.8425(6) 0.4909(2)
H15 H 0.71040 0.89770 0.52820
H16 H 0.59590 0.83440 0.48490
H17 H 0.69710 0.90170 0.45810
C11 C 0.53122(16) 0.6087(2) 0.26685(10)
C12 C 0.59462(19) 0.7650(3) 0.25775(11)
C13 C 0.5693(3) 1.0424(3) 0.23082(14)
H18 H 0.65190 1.04640 0.24940
H19 H 0.53160 1.12940 0.24750
C14 C 0.5503(3) 1.0628(4) 0.16503(16)
H20 H 0.59350 0.98220 0.14930
H21 H 0.57600 1.16830 0.15640
H22 H 0.46910 1.05120 0.14650
C15 C 0.40467(17) 0.6486(3) 0.26562(11)
C16 C 0.2758(2) 0.7514(4) 0.32120(13)
H23 H 0.22710 0.65610 0.31830
H24 H 0.24120 0.82460 0.28870
C17 C 0.2866(3) 0.8313(4) 0.38065(14)
H25 H 0.32990 0.76300 0.41200
H26 H 0.21060 0.85010 0.38740
H27 H 0.32640 0.93250 0.38100
C18 C 0.53715(18) 0.4968(3) 0.21283(10)
H28 H 0.61310 0.44620 0.22140
H29 H 0.48020 0.41160 0.21080
C19 C 0.5172(2) 0.5735(3) 0.15268(12)
H30 H 0.44680 0.62620 0.13820
C20 C 0.5906(3) 0.5722(5) 0.11905(15)
H31 H 0.66180 0.52060 0.13220
H32 H 0.57240 0.62300 0.08160
N1 N 0.44157(15) 0.3432(2) 0.31485(9)
O1 O 0.40359(14) 0.1991(2) 0.33686(8)
H33 H 0.33620 0.18100 0.31900
O2 O 0.32625(13) 0.6304(2) 0.22146(8)
O3 O 0.39213(13) 0.7071(2) 0.31729(7)
O4 O 0.52201(14) 0.88813(18) 0.24381(9)
O5 O 0.69626(14) 0.7712(2) 0.26067(10)
#END
