
#######################################################################
#
#                 Cambridge Crystallographic Data Centre
#                                CCDC
#
#######################################################################
#
# If this CIF has been generated from an entry in the Cambridge
# Structural Database, then it will include bibliographic, chemical,
# crystal, experimental, refinement or atomic coordinate data resulting
# from the CCDC's data processing and validation procedures.
#
#######################################################################

data_CSD_CIF_YAPDEA01
_audit_creation_date 2012-06-19
_audit_creation_method CSD-ConQuest-V1
_database_code_CSD YAPDEA01
_database_code_depnum_ccdc_archive 'CCDC 809171'
_chemical_formula_sum 'C19 H21 N3 O7'
_chemical_formula_moiety
;
C19 H21 N3 O7
;
_journal_coden_Cambridge 1336
_journal_volume 13
_journal_year 2011
_journal_page_first 5948
_journal_name_full 'Org.Lett. '
loop_
_publ_author_name
"Peng Fu"
"Peipei Liu"
"Xia Li"
"Yi Wang"
"Shuxia Wang"
"Kui Hong"
"Weiming Zhu"
_chemical_name_systematic
;
8-((Hydroxyimino)methyl)-3,4a-dimethoxy-2-methyl-6-(pyridin-2-yl)-3,4,4a,10a-t
etrahydro-2H-pyrano[2',3':5,6][1,4]dioxino[2,3-c]pyridin-4-ol
;
_chemical_name_common
;
Cyanogriside A
;
_cell_volume   1818.975
_exptl_crystal_colour 'colorless'
_exptl_crystal_density_diffrn 1.473
_exptl_special_details
;
Absolute configuration

;
_exptl_crystal_description 'block'
_diffrn_ambient_temperature 100
_diffrn_radiation_source 'Cu/Kalpha radiation'
#These two values have been output from a single CSD field.
_refine_ls_R_factor_gt 0.0282
_refine_ls_wR_factor_gt 0.0282
_symmetry_cell_setting orthorhombic
_symmetry_space_group_name_H-M 'P 21 21 21'
_symmetry_Int_Tables_number 19
loop_
_symmetry_equiv_pos_site_id
_symmetry_equiv_pos_as_xyz
1 x,y,z
2 1/2-x,-y,1/2+z
3 -x,1/2+y,1/2-z
4 1/2+x,1/2-y,-z
_cell_length_a 7.1319(1)
_cell_length_b 10.2706(1)
_cell_length_c 24.8328(2)
_cell_angle_alpha 90
_cell_angle_beta 90
_cell_angle_gamma 90
_cell_formula_units_Z 4
loop_
_atom_type_symbol
_atom_type_radius_bond
C 0.68
H 0.23
N 0.68
O 0.68
loop_
_atom_site_label
_atom_site_type_symbol
_atom_site_fract_x
_atom_site_fract_y
_atom_site_fract_z
O1 O 0.18288(14) 0.11623(10) 0.78447(4)
C1 C -0.0156(2) 0.12628(14) 0.77198(6)
H1 H -0.05910 0.21690 0.77990
C2 C -0.12692(19) 0.03041(14) 0.80677(6)
H2 H -0.08580 -0.06080 0.79900
O2 O -0.32194(14) 0.04415(10) 0.79548(4)
C3 C -0.09159(19) 0.06264(13) 0.86591(5)
H3 H -0.12980 0.15490 0.87250
C4 C 0.1189(2) 0.05040(13) 0.87639(5)
O3 O -0.19443(14) -0.01895(9) 0.90122(4)
H4 H -0.25840 0.02710 0.92230
O4 O 0.16480(14) -0.07969(9) 0.86951(4)
O5 O 0.16235(14) 0.08447(9) 0.93127(4)
C5 C 0.15636(19) 0.21458(13) 0.94375(5)
C6 C 0.14635(18) 0.25703(14) 0.99735(6)
N1 N 0.13823(16) 0.38578(11) 1.00883(5)
C7 C 0.13113(19) 0.47184(13) 0.96818(6)
C8 C 0.1469(2) 0.43695(14) 0.91438(5)
H5 H 0.14600 0.50090 0.88680
C9 C 0.1637(2) 0.30735(14) 0.90239(6)
O6 O 0.18394(16) 0.27316(9) 0.84939(4)
C10 C 0.2282(2) 0.13926(14) 0.83800(6)
H6 H 0.36570 0.12500 0.84330
C11 C -0.0338(2) 0.10071(17) 0.71207(6)
H7 H 0.04010 0.16500 0.69210
H8 H -0.16590 0.10750 0.70150
H9 H 0.01240 0.01310 0.70390
C12 C 0.0986(2) 0.60807(14) 0.98387(6)
H10 H 0.12520 0.63740 1.01930
N2 N 0.03338(19) 0.68595(12) 0.94823(5)
O7 O -0.00077(17) 0.80748(10) 0.97088(4)
H11 H -0.04170 0.85820 0.94710
C13 C -0.4014(2) -0.06854(17) 0.77071(7)
H12 H -0.34260 -0.08250 0.73550
H13 H -0.53660 -0.05570 0.76600
H14 H -0.37950 -0.14470 0.79360
C14 C 0.3435(2) -0.12169(15) 0.89001(6)
H15 H 0.43980 -0.05780 0.88030
H16 H 0.37560 -0.20640 0.87440
H17 H 0.33680 -0.12950 0.92930
N3 N 0.11757(17) 0.22770(11) 1.09305(5)
C15 C 0.13989(19) 0.16768(13) 1.04518(5)
C16 C 0.1549(2) 0.03279(14) 1.04165(6)
H18 H 0.17280 -0.00790 1.00770
C17 C 0.1434(2) -0.04208(14) 1.08824(6)
H19 H 0.15120 -0.13430 1.08630
C18 C 0.1207(2) 0.01872(14) 1.13716(6)
H20 H 0.11230 -0.02990 1.16960
C19 C 0.1104(2) 0.15365(14) 1.13742(6)
H21 H 0.09740 0.19620 1.17120
#END
