
#######################################################################
#
#                 Cambridge Crystallographic Data Centre
#                                CCDC
#
#######################################################################
#
# If this CIF has been generated from an entry in the Cambridge
# Structural Database, then it will include bibliographic, chemical,
# crystal, experimental, refinement or atomic coordinate data resulting
# from the CCDC's data processing and validation procedures.
#
#######################################################################

data_CSD_CIF_YAPVAM
_audit_creation_date 1994-02-15
_audit_creation_method CSD-ConQuest-V1
_database_code_CSD YAPVAM
_chemical_formula_sum 'C21 H19 N1 O2'
_chemical_formula_moiety
;
C21 H19 N1 O2
;
_journal_coden_Cambridge 207
_journal_year 1993
_journal_page_first 1277
_journal_name_full 'J.Chem.Soc.,Perkin Trans.1 '
loop_
_publ_author_name
"A.N.Boa"
"S.E.Booth"
"D.A.Dawkins"
"P.R.Jenkins"
"J.Fawcett"
"D.R.Russell"
_chemical_name_systematic
;
5-(1'-(2''-Naphthyl)ethoxy)-3-phenyl-4,5-dihydroisoxazole
;
_cell_volume    859.956
_exptl_crystal_density_diffrn 1.23
_diffrn_ambient_temperature ?
_diffrn_special_details
;
The study was carried out at room temperature,in the range 283-303K

;
#These two values have been output from a single CSD field.
_refine_ls_R_factor_gt 0.0584
_refine_ls_wR_factor_gt 0.0584
_symmetry_cell_setting monoclinic
_symmetry_space_group_name_H-M 'P 21'
_symmetry_Int_Tables_number 4
loop_
_symmetry_equiv_pos_site_id
_symmetry_equiv_pos_as_xyz
1 x,y,z
2 -x,1/2+y,-z
_cell_length_a 18.570(26)
_cell_length_b 5.829(2)
_cell_length_c 7.945(11)
_cell_angle_alpha 90
_cell_angle_beta 89.4(1)
_cell_angle_gamma 90
_cell_formula_units_Z 2
loop_
_atom_type_symbol
_atom_type_radius_bond
C 0.68
H 0.23
N 0.68
O 0.68
loop_
_atom_site_label
_atom_site_type_symbol
_atom_site_fract_x
_atom_site_fract_y
_atom_site_fract_z
C1 C 0.36692(28) -0.1249(18) 1.1308(6)
C2 C 0.3312(4) 0.08012 1.0607(8)
C3 C 0.2680(3) -0.0300(21) 0.9745(9)
C4 C 0.43964(15) -0.1356(16) 1.2010(5)
C5 C 0.46175(15) -0.3287(16) 1.2903(5)
C6 C 0.53188(15) -0.3419(16) 1.3507(5)
C7 C 0.57994(15) -0.1619(16) 1.3216(5)
C8 C 0.57786(15) 0.0313(16) 1.2323(5)
C9 C 0.48769(15) 0.0444(16) 1.1719(5)
C10 C 0.23050(29) -0.1773(19) 0.7085(7)
C11 C 0.2644(3) -0.2152(24) 0.5350(8)
C12 C 0.16152(27) -0.0394(19) 0.7017(7)
C13 C 0.09948(29) -0.1250(19) 0.7777(7)
C14 C 0.03442(27) -0.0043(17) 0.7723(6)
C15 C -0.0300(3) -0.0911(20) 0.8474(7)
C16 C -0.0915(3) 0.0292(21) 0.8374(8)
C17 C -0.0938(3) 0.2444(22) 0.7569(8)
C18 C -0.0343(4) 0.3309(20) 0.6863(8)
C19 C 0.03222(28) 0.2118(19) 0.6894(7)
C20 C 0.0958(3) 0.2993(20) 0.6160(7)
C21 C 0.1585(3) 0.1717(18) 0.6223(7)
O1 O 0.25996(20) -0.2459(18) 1.0570(5)
O2 O 0.28505(18) -0.0594(17) 0.8039(4)
N1 N 0.32686(25) -0.3046(18) 1.1314(6)
H1 H 0.2302(3) 0.0772(21) 0.9935(9)
H2 H 0.42901(15) -0.4513(16) 1.3101(5)
H3 H 0.54693(15) -0.4734(16) 1.4116(5)
H4 H 0.62772(15) -0.1708(16) 1.3627(5)
H5 H 0.59059(15) 0.1538(16) 1.2125(5)
H6 H 0.47267(15) 0.1759(16) 1.1111(5)
H7 H 0.22013(29) -0.3199(19) 0.7615(7)
H8 H 0.10165(29) -0.2773(19) 0.8201(7)
H9 H -0.0346(3) -0.2239(20) 0.9160(7)
H10 H -0.1336(3) -0.0284(21) 0.8915(8)
H11 H -0.1382(3) 0.3258(22) 0.7586(8)
H12 H -0.0401(4) 0.4818(20) 0.6433(8)
H13 H 0.0995(3) 0.4363(20) 0.5517(7)
H14 H 0.2009(3) 0.2330(18) 0.5715(7)
H15 H 0.3122(4) 0.14843 1.1638(8)
H16 H 0.3504(4) 0.21257 0.9956(8)
H17 H 0.2345(3) -0.2920(24) 0.4568(8)
H18 H 0.3079(3) -0.2989(24) 0.5481(8)
H19 H 0.2752(3) -0.0655(24) 0.4945(8)
#END
