
#######################################################################
#
#                 Cambridge Crystallographic Data Centre
#                                CCDC
#
#######################################################################
#
# If this CIF has been generated from an entry in the Cambridge
# Structural Database, then it will include bibliographic, chemical,
# crystal, experimental, refinement or atomic coordinate data resulting
# from the CCDC's data processing and validation procedures.
#
#######################################################################

data_CSD_CIF_YAPZEU
_audit_creation_date 1994-03-15
_audit_creation_method CSD-ConQuest-V1
_database_code_CSD YAPZEU
_database_code_depnum_ccdc_archive 'CCDC 1299491'
_chemical_formula_sum 'C22 H27 N1 O2'
_chemical_formula_moiety
;
C22 H27 N1 O2
;
_journal_coden_Cambridge 4
_journal_volume 115
_journal_year 1993
_journal_page_first 4868
_journal_name_full 'J.Am.Chem.Soc. '
loop_
_publ_author_name
"M.A.Viswamitra"
"R.Radhakrishnan"
"J.Bandekar"
"G.R.Desiraju"
_chemical_name_systematic
;
17\a-Pregna-2,4-dien-20-yne-(2,3-d)isoxazole-17\b-ol
;
_chemical_name_common
;
Donazole; Danazol; Cyclomen; Danocrine; Danol; DrugBank: DB01406
;
_cell_volume   1815.209
_exptl_crystal_density_diffrn 1.235
_exptl_special_details
;
antigonadotropic and anti-estrogenic activities

;
_diffrn_ambient_temperature ?
_diffrn_special_details
;
The study was carried out at room temperature,in the range 283-303K

;
#These two values have been output from a single CSD field.
_refine_ls_R_factor_gt 0.034
_refine_ls_wR_factor_gt 0.034
_symmetry_cell_setting orthorhombic
_symmetry_space_group_name_H-M 'P 21 21 21'
_symmetry_Int_Tables_number 19
loop_
_symmetry_equiv_pos_site_id
_symmetry_equiv_pos_as_xyz
1 x,y,z
2 1/2+x,1/2-y,-z
3 -x,1/2+y,1/2-z
4 1/2-x,-y,1/2+z
_cell_length_a 6.595(2)
_cell_length_b 10.519(2)
_cell_length_c 26.166(2)
_cell_angle_alpha 90
_cell_angle_beta 90
_cell_angle_gamma 90
_cell_formula_units_Z 4
loop_
_atom_type_symbol
_atom_type_radius_bond
C 0.68
H 0.23
N 0.68
O 0.68
loop_
_atom_site_label
_atom_site_type_symbol
_atom_site_fract_x
_atom_site_fract_y
_atom_site_fract_z
O1 O 0.9228(4) 1.1745(3) 0.2828(1)
O2 O 0.1892(4) 0.4002(2) 0.4935(1)
N1 N 0.9209(6) 1.2737(3) 0.3198(1)
C1 C 0.6702(6) 0.9964(3) 0.3832(1)
C2 C 0.7690(6) 1.0980(3) 0.3522(1)
C3 C 0.8295(5) 1.0727(3) 0.3042(1)
C4 C 0.7966(5) 0.9542(3) 0.2778(1)
C5 C 0.6654(5) 0.8721(3) 0.2987(1)
C6 C 0.6048(5) 0.7544(3) 0.2698(1)
C7 C 0.5941(6) 0.6374(3) 0.3038(1)
C8 C 0.4541(5) 0.6601(3) 0.3495(1)
C9 C 0.5293(5) 0.7751(3) 0.3809(1)
C10 C 0.5529(5) 0.8999(3) 0.3492(1)
C11 C 0.4027(6) 0.7937(3) 0.4297(1)
C12 C 0.3962(5) 0.6726(3) 0.4631(1)
C13 C 0.3168(5) 0.5594(3) 0.4321(1)
C14 C 0.4501(5) 0.5444(3) 0.3842(1)
C15 C 0.3807(6) 0.4159(3) 0.3619(1)
C16 C 0.3336(6) 0.3346(3) 0.4094(1)
C17 C 0.3443(5) 0.4259(3) 0.4563(1)
C18 C 0.5450(5) 0.4157(3) 0.4810(1)
C19 C 0.7068(6) 0.4079(4) 0.4988(2)
C20 C 0.0896(5) 0.5775(4) 0.4192(1)
C21 C 0.3460(6) 0.9577(3) 0.3343(1)
C22 C 0.8298(6) 1.2252(4) 0.3601(1)
H1 H 0.585(5) 1.030(3) 0.408(1)
H2 H 0.784(5) 0.952(3) 0.406(1)
H3 H 0.210(9) 0.328(5) 0.509(2)
H4 H 0.865(5) 0.941(3) 0.242(1)
H5 H 0.467(5) 0.770(3) 0.258(1)
H6 H 0.694(5) 0.747(3) 0.239(1)
H7 H 0.543(5) 0.561(3) 0.283(1)
H8 H 0.729(5) 0.619(3) 0.315(1)
H9 H 0.312(4) 0.677(3) 0.336(1)
H10 H 0.680(4) 0.749(3) 0.392(1)
H11 H 0.255(5) 0.825(3) 0.421(1)
H12 H 0.471(5) 0.862(3) 0.451(1)
H13 H 0.321(5) 0.690(3) 0.495(1)
H14 H 0.549(5) 0.654(3) 0.476(1)
H15 H 0.607(5) 0.533(3) 0.397(1)
H16 H 0.250(5) 0.423(3) 0.338(1)
H17 H 0.470(5) 0.385(3) 0.340(1)
H18 H 0.187(6) 0.295(3) 0.407(1)
H19 H 0.422(5) 0.261(3) 0.413(1)
H20 H 0.825(6) 0.408(4) 0.512(1)
H21 H 0.012(6) 0.600(3) 0.450(1)
H22 H 0.068(6) 0.649(3) 0.396(1)
H23 H 0.018(6) 0.509(4) 0.401(1)
H24 H 0.258(6) 0.980(3) 0.363(1)
H25 H 0.356(5) 1.039(3) 0.314(1)
H26 H 0.267(5) 0.899(3) 0.312(1)
H27 H 0.823(6) 1.276(3) 0.395(1)
#END
