
#######################################################################
#
#                 Cambridge Crystallographic Data Centre
#                                CCDC
#
#######################################################################
#
# If this CIF has been generated from an entry in the Cambridge
# Structural Database, then it will include bibliographic, chemical,
# crystal, experimental, refinement or atomic coordinate data resulting
# from the CCDC's data processing and validation procedures.
#
#######################################################################

data_CSD_CIF_YAQJAC
_audit_creation_date 2005-07-14
_audit_creation_method CSD-ConQuest-V1
_database_code_CSD YAQJAC
_database_code_depnum_ccdc_archive 'CCDC 256291'
_chemical_formula_sum 'C20 H23 N1 O12'
_chemical_formula_moiety
;
C20 H23 N1 O12
;
_journal_coden_Cambridge 156
_journal_volume 340
_journal_year 2005
_journal_page_first 1175
_journal_name_full 'Carbohydr.Res. '
loop_
_publ_author_name
"A.Temeriusz"
"T.Gubica"
"P.Rogowska"
"K.Paradowska"
"M.K.Cyranski"
_chemical_name_systematic
;
m-Nitrophenyl 2,3,4,6-tetra-O-acetyl-\b-D-galactopyranoside
;
_chemical_melting_point 382.15
_cell_volume   1141.553
_exptl_crystal_colour 'white'
_exptl_crystal_density_diffrn 1.366
_exptl_special_details
;
Melting point range 382.15-384.15K

;
_exptl_crystal_preparation 'ethanol'
_diffrn_ambient_temperature 293
#These two values have been output from a single CSD field.
_refine_ls_R_factor_gt 0.046
_refine_ls_wR_factor_gt 0.046
_symmetry_cell_setting monoclinic
_symmetry_space_group_name_H-M 'P 21'
_symmetry_Int_Tables_number 4
loop_
_symmetry_equiv_pos_site_id
_symmetry_equiv_pos_as_xyz
1 x,y,z
2 -x,1/2+y,-z
_cell_length_a 10.210(2)
_cell_length_b 8.4350(17)
_cell_length_c 13.577(3)
_cell_angle_alpha 90
_cell_angle_beta 102.50(3)
_cell_angle_gamma 90
_cell_formula_units_Z 2
loop_
_atom_type_symbol
_atom_type_radius_bond
C 0.68
H 0.23
N 0.68
O 0.68
loop_
_atom_site_label
_atom_site_type_symbol
_atom_site_fract_x
_atom_site_fract_y
_atom_site_fract_z
C1 C 0.6308(3) 0.4680(5) 0.6569(3)
H1 H 0.59020 0.36440 0.63680
C2 C 0.7478(3) 0.4508(5) 0.7469(2)
H2 H 0.79660 0.55110 0.76150
O1 O 0.8339(2) 0.3282(4) 0.72283(19)
C3 C 0.9673(4) 0.3527(7) 0.7465(3)
O2 O 1.0162(3) 0.4739(6) 0.7818(3)
C4 C 1.0435(5) 0.2087(8) 0.7273(4)
H3 H 1.08980 0.16470 0.79050
H4 H 1.10730 0.23760 0.68790
H5 H 0.98220 0.13160 0.69130
C5 C 0.6945(3) 0.3952(5) 0.8380(3)
H6 H 0.66340 0.28540 0.82710
O3 O 0.8055(2) 0.4010(3) 0.92274(18)
C6 C 0.8099(6) 0.2963(8) 0.9952(4)
O4 O 0.7139(6) 0.2124(8) 0.9968(4)
C7 C 0.9331(6) 0.3084(9) 1.0771(4)
H7 H 0.97270 0.20530 1.09060
H8 H 0.90990 0.34920 1.13710
H9 H 0.99610 0.37850 1.05620
C8 C 0.5790(4) 0.4987(5) 0.8561(3)
H10 H 0.53850 0.44970 0.90780
O5 O 0.6277(3) 0.6517(4) 0.88866(18)
C9 C 0.6477(5) 0.6877(8) 0.9867(4)
O6 O 0.6214(5) 0.5982(7) 1.0484(3)
C10 C 0.7049(7) 0.8486(9) 1.0062(4)
H11 H 0.74250 0.86070 1.07690
H12 H 0.63540 0.92590 0.98530
H13 H 0.77380 0.86360 0.96890
C11 C 0.4746(3) 0.5126(5) 0.7586(3)
H14 H 0.43670 0.40760 0.73910
C12 C 0.3628(4) 0.6252(6) 0.7669(3)
H15 H 0.32620 0.59900 0.82510
H16 H 0.39590 0.73340 0.77410
O7 O 0.2609(3) 0.6087(5) 0.6751(2)
C13 C 0.1668(5) 0.7146(9) 0.6531(4)
O8 O 0.1643(4) 0.8283(6) 0.7082(4)
C14 C 0.0674(6) 0.6790(12) 0.5597(4)
H17 H -0.02080 0.70480 0.56870
H18 H 0.07140 0.56830 0.54420
H19 H 0.08700 0.74070 0.50520
O9 O 0.5347(2) 0.5732(3) 0.68031(16)
O10 O 0.6799(2) 0.5365(3) 0.57756(16)
C15 C 0.6004(4) 0.5278(5) 0.4815(3)
C16 C 0.6631(4) 0.5679(6) 0.4038(3)
H20 H 0.75220 0.60080 0.41870
C17 C 0.5937(5) 0.5592(6) 0.3045(3)
H21 H 0.63630 0.58590 0.25280
C18 C 0.4613(5) 0.5109(6) 0.2821(3)
H22 H 0.41400 0.50260 0.21560
C19 C 0.4019(4) 0.4757(5) 0.3604(3)
N1 N 0.2608(4) 0.4251(6) 0.3383(4)
O11 O 0.2056(3) 0.4075(6) 0.4083(3)
O12 O 0.2046(4) 0.4029(7) 0.2507(3)
C20 C 0.4657(3) 0.4848(5) 0.4609(3)
H23 H 0.42090 0.46340 0.51220
#END
