
#######################################################################
#
#                 Cambridge Crystallographic Data Centre
#                                CCDC
#
#######################################################################
#
# If this CIF has been generated from an entry in the Cambridge
# Structural Database, then it will include bibliographic, chemical,
# crystal, experimental, refinement or atomic coordinate data resulting
# from the CCDC's data processing and validation procedures.
#
#######################################################################

data_CSD_CIF_YARHEF
_audit_creation_date 2005-07-14
_audit_creation_method CSD-ConQuest-V1
_database_code_CSD YARHEF
_database_code_depnum_ccdc_archive 'CCDC 263132'
_chemical_formula_sum 'C34 H32 N4 O6'
_chemical_formula_moiety
;
C34 H32 N4 O6
;
_journal_coden_Cambridge 1078
_journal_year 2005
_journal_name_full 'CSD Communication(Private Communication) '
loop_
_publ_author_name
"F.von Nussbaum"
"W.Steglich"
"K.Polborn"
_chemical_name_systematic
;
1,2-bis(3,4-Dihydro-6,7-dimethoxyisoquinolin-1-ylphenyl)diazene-1,2-dioxide
;
_cell_volume   1469.956
_exptl_crystal_colour 'yellow'
_exptl_special_details
;
contribution from Department Chemie, Universitat Munchen, Butenandtstr. 5-13, 
81377 Munchen, Germany
;
_exptl_crystal_description 'platelet'
_diffrn_ambient_temperature 295
#These two values have been output from a single CSD field.
_refine_ls_R_factor_gt 0.04
_refine_ls_wR_factor_gt 0.04
_symmetry_cell_setting monoclinic
_symmetry_space_group_name_H-M 'P 21/c'
_symmetry_Int_Tables_number 14
loop_
_symmetry_equiv_pos_site_id
_symmetry_equiv_pos_as_xyz
1 x,y,z
2 -x,1/2+y,1/2-z
3 -x,-y,-z
4 x,-1/2-y,-1/2+z
_cell_length_a 9.3901(11)
_cell_length_b 19.535(3)
_cell_length_c 8.7359(12)
_cell_angle_alpha 90
_cell_angle_beta 113.465(10)
_cell_angle_gamma 90
_cell_formula_units_Z 2
loop_
_atom_type_symbol
_atom_type_radius_bond
C 0.68
H 0.23
N 0.68
O 0.68
loop_
_atom_site_label
_atom_site_type_symbol
_atom_site_fract_x
_atom_site_fract_y
_atom_site_fract_z
O1 O 0.74536(17) 0.74437(7) 0.15650(19)
O2 O 0.90310(16) 0.84085(7) 0.09814(19)
O3 O 0.8718(3) 0.99361(15) 0.5805(4)
N1 N 0.47813(18) 1.03334(8) 0.2645(2)
N2 N 0.93657(17) 1.01293(8) 0.49722(19)
C1 C 0.60841(19) 1.01568(9) 0.2634(2)
C2 C 0.3638(2) 0.9786(1) 0.2399(3)
H1 H 0.30830 0.97050 0.12120
H2 H 0.28880 0.99350 0.28370
C3 C 0.4368(2) 0.91232(10) 0.3241(3)
H3 H 0.48080 0.91820 0.44420
H4 H 0.35850 0.87670 0.29580
C4 C 0.5616(2) 0.89204(9) 0.2669(2)
C5 C 0.5940(2) 0.82446(9) 0.2427(2)
H5 H 0.53810 0.78940 0.26510
C6 C 0.7072(2) 0.80860(9) 0.1862(2)
C7 C 0.7927(2) 0.86153(9) 0.1527(2)
C8 C 0.76194(19) 0.92862(9) 0.1778(2)
H6 H 0.81810 0.96370 0.15590
C9 C 0.64691(19) 0.94441(9) 0.2359(2)
C10 C 0.6655(3) 0.68871(10) 0.1920(3)
H7 H 0.70330 0.64640 0.16680
H8 H 0.55630 0.69270 0.12520
H9 H 0.68300 0.68950 0.30800
C11 C 0.9891(3) 0.89212(13) 0.0588(4)
H10 H 1.06390 0.87110 0.02430
H11 H 1.04180 0.92000 0.15540
H12 H 0.92000 0.92010 -0.03000
C12 C 0.7200(2) 1.07247(9) 0.2808(2)
C13 C 0.8777(2) 1.07100(9) 0.3874(2)
C14 C 0.9729(3) 1.12645(11) 0.4000(3)
H13 H 1.07740 1.12460 0.47120
C15 C 0.9128(3) 1.18462(12) 0.3069(3)
H14 H 0.97620 1.22250 0.31740
C16 C 0.7594(3) 1.18650(11) 0.1987(3)
H15 H 0.71970 1.22530 0.13410
C17 C 0.6643(2) 1.13138(10) 0.1853(3)
H16 H 0.56070 1.13340 0.11120
O1B O 1.25464(17) 1.25563(7) 0.84350(19)
O2B O 1.09690(16) 1.15915(7) 0.90186(19)
O3B O 1.1282(3) 1.00639(15) 0.4195(4)
N1B N 1.52187(18) 0.96666(8) 0.7355(2)
N2B N 1.06343(17) 0.98707(8) 0.50278(19)
C1B C 1.39159(19) 0.98432(9) 0.7366(2)
C2B C 1.6362(2) 1.0214(1) 0.7601(3)
H1B H 1.69170 1.02950 0.87880
H2B H 1.71120 1.00650 0.71630
C3B C 1.5632(2) 1.08768(10) 0.6759(3)
H3B H 1.51920 1.08180 0.55580
H4B H 1.64150 1.12330 0.70420
C4B C 1.4384(2) 1.10796(9) 0.7331(2)
C5B C 1.4060(2) 1.17554(9) 0.7573(2)
H5B H 1.46190 1.21060 0.73490
C6B C 1.2928(2) 1.19140(9) 0.8138(2)
C7B C 1.2073(2) 1.13847(9) 0.8473(2)
C8B C 1.23806(19) 1.07138(9) 0.8222(2)
H6B H 1.18190 1.03630 0.84410
C9B C 1.35309(19) 1.05559(9) 0.7641(2)
C10B C 1.3345(3) 1.31129(10) 0.8080(3)
H7B H 1.29670 1.35360 0.83320
H8B H 1.44370 1.30730 0.87480
H9B H 1.31700 1.31050 0.69200
C11B C 1.0109(3) 1.10788(13) 0.9412(4)
H10B H 0.93610 1.12890 0.97570
H11B H 0.95820 1.08000 0.84460
H12B H 1.08000 1.07990 1.03000
C12B C 1.2800(2) 0.92753(9) 0.7192(2)
C13B C 1.1223(2) 0.92900(9) 0.6126(2)
C14B C 1.0271(3) 0.87355(11) 0.6000(3)
H13B H 0.92260 0.87540 0.52880
C15B C 1.0872(3) 0.81538(12) 0.6931(3)
H14B H 1.02380 0.77750 0.68260
C16B C 1.2406(3) 0.81350(11) 0.8013(3)
H15B H 1.28030 0.77470 0.86590
C17B C 1.3357(2) 0.86862(10) 0.8147(3)
H16B H 1.43930 0.86660 0.88880
#END
