
#######################################################################
#
#                 Cambridge Crystallographic Data Centre
#                                CCDC
#
#######################################################################
#
# If this CIF has been generated from an entry in the Cambridge
# Structural Database, then it will include bibliographic, chemical,
# crystal, experimental, refinement or atomic coordinate data resulting
# from the CCDC's data processing and validation procedures.
#
#######################################################################

data_CSD_CIF_YARPAJ
_audit_creation_date 2005-07-14
_audit_creation_method CSD-ConQuest-V1
_database_code_CSD YARPAJ
_database_code_depnum_ccdc_archive 'CCDC 191969'
_chemical_formula_sum 'C20 H11 N3 O6'
_chemical_formula_moiety
;
C20 H11 N3 O6
;
_journal_coden_Cambridge 1078
_journal_year 2005
_journal_name_full 'CSD Communication(Private Communication) '
loop_
_publ_author_name
"Mei-Hsiu Shih"
_chemical_name_systematic
;
3-(3-(4-Methoxyphenyl)sydnon-4-yl)naphtho(2,3-d)isoxazole-4,9-dione
;
_chemical_melting_point 467
_cell_volume   1695.847
_exptl_crystal_colour 'yellow'
_exptl_crystal_density_diffrn 1.525
_exptl_special_details
;
Melting point range 467-469K
contribution from Department of Chemical Engineering, Southern Taiwan 
University of Technology
;
_exptl_crystal_description 'prism'
_exptl_crystal_preparation 'dichloromethane/ethanol'
_diffrn_ambient_temperature 298
#These two values have been output from a single CSD field.
_refine_ls_R_factor_gt 0.038
_refine_ls_wR_factor_gt 0.038
_symmetry_cell_setting monoclinic
_symmetry_space_group_name_H-M 'P 21/n'
_symmetry_Int_Tables_number 14
loop_
_symmetry_equiv_pos_site_id
_symmetry_equiv_pos_as_xyz
1 x,y,z
2 1/2-x,1/2+y,1/2-z
3 -x,-y,-z
4 -1/2+x,-1/2-y,-1/2+z
_cell_length_a 10.071(2)
_cell_length_b 7.069(2)
_cell_length_c 23.952(3)
_cell_angle_alpha 90
_cell_angle_beta 96.00(2)
_cell_angle_gamma 90
_cell_formula_units_Z 4
loop_
_atom_type_symbol
_atom_type_radius_bond
C 0.68
N 0.68
O 0.68
loop_
_atom_site_label
_atom_site_type_symbol
_atom_site_fract_x
_atom_site_fract_y
_atom_site_fract_z
O1 O 0.4375(2) 0.0451(2) 0.63516(6)
O2 O 0.2300(2) -0.0726(3) 0.64351(6)
O3 O 0.8321(1) 0.2772(3) 0.91316(6)
O4 O 0.1662(1) -0.0111(2) 0.82955(6)
O5 O 0.1877(2) -0.1213(3) 0.94462(7)
O6 O 0.5885(1) -0.2230(2) 0.81588(6)
N1 N 0.5090(2) 0.0992(2) 0.71982(7)
N2 N 0.5450(2) 0.1158(3) 0.66899(8)
N3 N 0.1981(2) 0.0362(3) 0.77492(7)
C1 C 0.3330(2) -0.0105(3) 0.66651(9)
C2 C 0.3856(2) 0.0262(3) 0.72251(8)
C3 C 0.6011(2) 0.1616(3) 0.76664(8)
C4 C 0.7297(2) 0.0949(3) 0.77190(9)
C5 C 0.8126(2) 0.1336(3) 0.82020(1)
C6 C 0.7635(2) 0.2390(3) 0.86229(9)
C7 C 0.6359(2) 0.3145(3) 0.85453(9)
C8 C 0.5533(2) 0.2758(3) 0.80680(8)
C9 C 0.9499(2) 0.1686(5) 0.92970(1)
C10 C 0.3246(2) -0.0094(3) 0.77383(8)
C11 C 0.2777(2) -0.0786(3) 0.85835(8)
C12 C 0.3794(2) -0.0862(3) 0.82649(8)
C13 C 0.2838(2) -0.1330(3) 0.91839(9)
C14 C 0.5066(2) -0.1751(3) 0.84702(9)
C15 C 0.4190(2) -0.1928(3) 0.94223(8)
C16 C 0.5256(2) -0.2097(3) 0.90910(8)
C17 C 0.6510(2) -0.2606(3) 0.9337(1)
C18 C 0.6709(2) -0.2950(3) 0.9909(1)
C19 C 0.5660(3) -0.2800(4) 1.0233(1)
C20 C 0.4407(2) -0.2302(3) 0.99949(9)
#END
