
#######################################################################
#
#                 Cambridge Crystallographic Data Centre
#                                CCDC
#
#######################################################################
#
# If this CIF has been generated from an entry in the Cambridge
# Structural Database, then it will include bibliographic, chemical,
# crystal, experimental, refinement or atomic coordinate data resulting
# from the CCDC's data processing and validation procedures.
#
#######################################################################

data_CSD_CIF_YARRAM
_audit_creation_date 2012-06-19
_audit_creation_method CSD-ConQuest-V1
_database_code_CSD YARRAM
_database_code_depnum_ccdc_archive 'CCDC 816629'
_chemical_formula_sum 'C26 H32 N4 O4'
_chemical_formula_moiety
;
C26 H32 N4 O4
;
_journal_coden_Cambridge 1147
_journal_volume 12
_journal_year 2012
_journal_page_first 54
_journal_name_full 'Cryst.Growth Des. '
loop_
_publ_author_name
"E.A.Mostovich"
"Y.Borozdina"
"V.Enkelmann"
"K.Removic-Langer"
"B.Wolf"
"M.Lang"
"M.Baumgarten"
_chemical_name_systematic
;
2,2'-(Biphenyl-4,4'-diyl)-bis(4,4,5,5-tetramethyl-4,5-dihydro-1H-imidazole-1-o
xyl-3-oxide)
;
_cell_volume   1206.233
_exptl_crystal_colour 'blue'
_exptl_crystal_density_diffrn 1.279
_exptl_crystal_description 'prism'
_exptl_crystal_preparation 'dichloromethane/hexane'
_diffrn_ambient_temperature 120
#These two values have been output from a single CSD field.
_refine_ls_R_factor_gt 0.0565
_refine_ls_wR_factor_gt 0.0565
_symmetry_cell_setting monoclinic
_symmetry_space_group_name_H-M 'P 21/n'
_symmetry_Int_Tables_number 14
loop_
_symmetry_equiv_pos_site_id
_symmetry_equiv_pos_as_xyz
1 x,y,z
2 1/2-x,1/2+y,1/2-z
3 -x,-y,-z
4 -1/2+x,-1/2-y,-1/2+z
_cell_length_a 10.26101(5)
_cell_length_b 11.1001(5)
_cell_length_c 11.4935(5)
_cell_angle_alpha 90
_cell_angle_beta 112.8641(13)
_cell_angle_gamma 90
_cell_formula_units_Z 2
loop_
_atom_type_symbol
_atom_type_radius_bond
C 0.68
H 0.23
N 0.68
O 0.68
loop_
_atom_site_label
_atom_site_type_symbol
_atom_site_fract_x
_atom_site_fract_y
_atom_site_fract_z
O1 O 0.14877(8) 0.12197(7) 0.08292(9)
O2 O 0.60806(7) -0.00362(7) 0.17985(7)
N1 N 0.25785(9) 0.05623(8) 0.11215(8)
N2 N 0.47941(8) -0.00122(8) 0.16586(7)
C1 C 0.48345(10) 0.43889(8) 0.01790(9)
C2 C 0.34891(10) 0.38697(10) -0.04389(10)
C3 C 0.31802(11) 0.27509(9) -0.01191(9)
C4 C 0.42106(10) 0.20791(9) 0.08329(9)
C5 C 0.55508(9) 0.25818(10) 0.1456(1)
C6 C 0.58472(10) 0.37296(9) 0.11517(9)
C7 C 0.38661(10) 0.09067(9) 0.11788(9)
C8 C 0.25371(11) -0.07679(10) 0.1352(1)
C9 C 0.15460(13) -0.10352(12) 0.19970(12)
C10 C 0.20215(11) -0.13619(11) 0.00496(11)
C11 C 0.41343(11) -0.09981(10) 0.21539(10)
C12 C 0.45554(13) -0.07325(11) 0.35593(10)
C13 C 0.46797(12) -0.22248(10) 0.19758(11)
H1 H 0.27820 0.43080 -0.10920
H2 H 0.22670 0.24120 -0.05450
H3 H 0.62610 0.21260 0.20880
H4 H 0.67490 0.40780 0.16060
H5 H 0.15350 -0.18780 0.21380
H6 H 0.18620 -0.06240 0.27830
H7 H 0.06190 -0.07720 0.14820
H8 H 0.19700 -0.22090 0.01390
H9 H 0.26690 -0.11850 -0.03340
H10 H 0.11120 -0.10610 -0.04650
H11 H 0.41650 -0.13330 0.39180
H12 H 0.55560 -0.07320 0.39810
H13 H 0.41950 0.00350 0.36500
H14 H 0.42510 -0.28320 0.22900
H15 H 0.56760 -0.22460 0.24280
H16 H 0.44630 -0.23630 0.11050
O1B O 0.85123(8) 0.87803(7) -0.08292(9)
O2B O 0.39194(7) 1.00362(7) -0.17985(7)
N1B N 0.74215(9) 0.94377(8) -0.11215(8)
N2B N 0.52059(8) 1.00122(8) -0.16586(7)
C1B C 0.51655(10) 0.56111(8) -0.01790(9)
C2B C 0.65109(10) 0.61303(10) 0.04389(10)
C3B C 0.68198(11) 0.72491(9) 0.01191(9)
C4B C 0.57894(10) 0.79209(9) -0.08329(9)
C5B C 0.44492(9) 0.74182(10) -0.1456(1)
C6B C 0.41528(10) 0.62704(9) -0.11517(9)
C7B C 0.61339(10) 0.90933(9) -0.11788(9)
C8B C 0.74629(11) 1.07679(10) -0.1352(1)
C9B C 0.84540(13) 1.10352(12) -0.19970(12)
C10B C 0.79785(11) 1.13619(11) -0.00496(11)
C11B C 0.58657(11) 1.09981(10) -0.21539(10)
C12B C 0.54446(13) 1.07325(11) -0.35593(10)
C13B C 0.53203(12) 1.22248(10) -0.19758(11)
H1B H 0.72180 0.56920 0.10920
H2B H 0.77330 0.75880 0.05450
H3B H 0.37390 0.78740 -0.20880
H4B H 0.32510 0.59220 -0.16060
H5B H 0.84650 1.18780 -0.21380
H6B H 0.81380 1.06240 -0.27830
H7B H 0.93810 1.07720 -0.14820
H8B H 0.80300 1.22090 -0.01390
H9B H 0.73310 1.11850 0.03340
H10B H 0.88880 1.10610 0.04650
H11B H 0.58350 1.13330 -0.39180
H12B H 0.44440 1.07320 -0.39810
H13B H 0.58050 0.99650 -0.36500
H14B H 0.57490 1.28320 -0.22900
H15B H 0.43240 1.22460 -0.24280
H16B H 0.55370 1.23630 -0.11050
#END
