
#######################################################################
#
#                 Cambridge Crystallographic Data Centre
#                                CCDC
#
#######################################################################
#
# If this CIF has been generated from an entry in the Cambridge
# Structural Database, then it will include bibliographic, chemical,
# crystal, experimental, refinement or atomic coordinate data resulting
# from the CCDC's data processing and validation procedures.
#
#######################################################################

data_CSD_CIF_YATCOL
_audit_creation_date 1994-03-29
_audit_creation_method CSD-ConQuest-V1
_database_code_CSD YATCOL
_chemical_formula_sum 'C14 H12 N2 O8'
_chemical_formula_moiety
;
C14 H12 N2 O8
;
_journal_coden_Cambridge 423
_journal_volume 289
_journal_year 1993
_journal_page_first 1960
_journal_name_full 'J.Chem.Res. '
loop_
_publ_author_name
"A.J.Blake"
"R.O.Gould"
"R.M.Paton"
"P.G.Taylor"
_chemical_name_systematic
;
1,6-Anhydro-3,4-dideoxy-2-O-(3,5-dinitrobenzoyl)-2-C-methyl-\b-D-threo-hex-3-e
nopyranose
;
_chemical_melting_point 457.15
_cell_volume   1464.655
_exptl_crystal_colour 'white'
_exptl_crystal_density_diffrn 1.525
_exptl_special_details
;
Melting point range 457.15-459.15K

;
_diffrn_ambient_temperature ?
_diffrn_special_details
;
The study was carried out at room temperature,in the range 283-303K

;
#These two values have been output from a single CSD field.
_refine_ls_R_factor_gt 0.0375
_refine_ls_wR_factor_gt 0.0375
_symmetry_cell_setting orthorhombic
_symmetry_space_group_name_H-M 'P 21 21 21'
_symmetry_Int_Tables_number 19
loop_
_symmetry_equiv_pos_site_id
_symmetry_equiv_pos_as_xyz
1 x,y,z
2 1/2+x,1/2-y,-z
3 -x,1/2+y,1/2-z
4 1/2-x,-y,1/2+z
_cell_length_a 5.8133(3)
_cell_length_b 9.7024(5)
_cell_length_c 25.9677(18)
_cell_angle_alpha 90
_cell_angle_beta 90
_cell_angle_gamma 90
_cell_formula_units_Z 4
loop_
_atom_type_symbol
_atom_type_radius_bond
C 0.68
H 0.23
N 0.68
O 0.68
loop_
_atom_site_label
_atom_site_type_symbol
_atom_site_fract_x
_atom_site_fract_y
_atom_site_fract_z
C1 C 0.7919(11) -0.0560(6) 0.08653(18)
C2 C 0.8335(9) 0.0980(5) 0.09719(17)
C3 C 0.9969(9) 0.1554(5) 0.05731(17)
C4 C 1.0600(11) 0.0810(6) 0.01720(19)
C5 C 0.9693(12) -0.0627(7) 0.01157(21)
C6 C 1.0969(12) -0.1606(6) 0.04701(22)
O1 O 0.9915(8) -0.1359(4) 0.09555(14)
O2 O 0.7427(7) -0.0686(4) 0.03313(13)
C7 C 0.6091(10) 0.1765(7) 0.09925(20)
O3 O 0.9639(6) 0.1168(3) 0.14562(10)
C8 C 0.8817(10) 0.0644(5) 0.18901(17)
O4 O 0.7065(7) -0.0007(4) 0.19335(12)
C9 C 1.0296(5) 0.0981(3) 0.23433(8)
C10 C 1.2313(5) 0.1764(3) 0.22966(8)
C11 C 1.3580(5) 0.2033(3) 0.27320(8)
C12 C 1.3009(5) 0.1541(3) 0.32156(8)
C13 C 1.0966(5) 0.0798(3) 0.32493(8)
C14 C 0.9637(5) 0.0491(3) 0.28259(8)
N1 N 1.5686(8) 0.2869(4) 0.26836(19)
O5 O 1.6114(7) 0.3342(4) 0.22591(15)
O6 O 1.6870(7) 0.3046(4) 0.30667(15)
N2 N 1.0244(12) 0.0287(5) 0.37537(19)
O7 O 1.159(1) 0.0350(5) 0.41121(13)
O8 O 0.8274(11) -0.0159(6) 0.37909(17)
H1 H 0.65530 -0.09160 0.11140
H2 H 1.06300 0.25880 0.06170
H3 H 1.17560 0.12330 -0.01130
H4 H 0.98210 -0.08880 -0.02880
H5 H 1.27830 -0.13680 0.04810
H6 H 1.07380 -0.26640 0.03510
H7 H 0.51640 0.16170 0.06360
H8 H 0.64390 0.28490 0.10460
H9 H 0.50660 0.13900 0.13100
H10 H 1.28600 0.21470 0.19260
H11 H 1.40860 0.17230 0.35480
H12 H 0.80990 -0.01240 0.28670
#END
