
#######################################################################
#
#                 Cambridge Crystallographic Data Centre
#                                CCDC
#
#######################################################################
#
# If this CIF has been generated from an entry in the Cambridge
# Structural Database, then it will include bibliographic, chemical,
# crystal, experimental, refinement or atomic coordinate data resulting
# from the CCDC's data processing and validation procedures.
#
#######################################################################

data_CSD_CIF_YATGUX
_audit_creation_date 2012-06-19
_audit_creation_method CSD-ConQuest-V1
_database_code_CSD YATGUX
_database_code_depnum_ccdc_archive 'CCDC 829576'
_chemical_formula_sum 'C26 H18 N4 O4'
_chemical_formula_moiety
;
C26 H18 N4 O4
;
_journal_coden_Cambridge 603
_journal_volume 31
_journal_year 2012
_journal_page_first 57
_journal_name_full 'Jiegou Huaxue(Chin.)(Chin.J.Struct.Chem.) '
loop_
_publ_author_name
"Zhi-Lan Lin"
"Xin-Kui You"
"Xue-Li Zhang"
"Yuan Gao"
_chemical_name_systematic
;
8-Methyl-7-(3-nitrophenyl)-10-phenyl-10,11-dihydrochromeno[4,3-b]pyrazolo[4,3-
e]pyridin-6(7H)-one
;
_cell_volume   1017.795
_exptl_crystal_colour 'yellow'
_exptl_crystal_density_diffrn 1.47
_exptl_crystal_description 'block'
_diffrn_ambient_temperature 173
#These two values have been output from a single CSD field.
_refine_ls_R_factor_gt 0.0488
_refine_ls_wR_factor_gt 0.0488
_symmetry_cell_setting triclinic
_symmetry_space_group_name_H-M 'P -1'
_symmetry_Int_Tables_number 2
loop_
_symmetry_equiv_pos_site_id
_symmetry_equiv_pos_as_xyz
1 x,y,z
2 -x,-y,-z
_cell_length_a 7.7288(15)
_cell_length_b 11.168(2)
_cell_length_c 12.645(3)
_cell_angle_alpha 107.02(3)
_cell_angle_beta 90.85(3)
_cell_angle_gamma 101.93(3)
_cell_formula_units_Z 2
loop_
_atom_type_symbol
_atom_type_radius_bond
C 0.68
H 0.23
N 0.68
O 0.68
loop_
_atom_site_label
_atom_site_type_symbol
_atom_site_fract_x
_atom_site_fract_y
_atom_site_fract_z
O1 O 0.0165(2) 0.17149(19) 1.02527(14)
O2 O 0.0858(2) 0.36217(17) 1.00811(14)
O3 O 0.14532(19) 0.27914(13) 0.49130(12)
O4 O 0.28343(18) 0.48275(13) 0.54869(12)
N1 N 0.0360(2) 0.2453(2) 0.96836(16)
N2 N -0.1322(2) 0.57812(16) 0.74056(14)
H1 H -0.10210 0.64880 0.79830
N3 N -0.5642(2) 0.38441(16) 0.74322(15)
N4 N -0.4412(2) 0.49988(16) 0.77398(15)
C1 C -0.0375(3) 0.27161(19) 0.78935(17)
H2 H -0.01990 0.36130 0.82490
C2 C -0.0070(3) 0.1903(2) 0.84821(17)
C3 C -0.0230(3) 0.0597(2) 0.7998(2)
H3 H -0.00250 0.00620 0.84260
C4 C -0.0698(3) 0.0099(2) 0.6871(2)
H4 H -0.07670 -0.07860 0.65070
C5 C -0.1067(3) 0.08933(19) 0.62688(18)
H5 H -0.14110 0.05360 0.54970
C6 C -0.0944(2) 0.21969(18) 0.67727(16)
C7 C -0.1521(3) 0.30497(18) 0.61478(17)
H6 H -0.19130 0.25260 0.53610
C8 C 0.1409(3) 0.38599(19) 0.54921(17)
C9 C -0.0027(3) 0.41774(19) 0.61619(17)
C10 C 0.0049(3) 0.54212(18) 0.67874(16)
C11 C 0.1574(3) 0.64239(18) 0.67734(16)
C12 C 0.1744(3) 0.77303(19) 0.73460(18)
H7 H 0.08400 0.79970 0.77990
C13 C 0.3200(3) 0.8628(2) 0.72597(19)
H8 H 0.32940 0.95100 0.76480
C14 C 0.4539(3) 0.8249(2) 0.66045(19)
H9 H 0.55480 0.88730 0.65530
C15 C 0.4412(3) 0.6968(2) 0.60279(18)
H10 H 0.53240 0.67070 0.55810
C16 C 0.2929(3) 0.60769(18) 0.61154(17)
C17 C -0.2843(3) 0.48312(19) 0.72993(17)
C18 C -0.3046(3) 0.35814(18) 0.66838(16)
C19 C -0.4815(3) 0.30032(19) 0.67937(17)
C20 C -0.5763(3) 0.1640(2) 0.6295(2)
H11 H -0.69780 0.15250 0.65230
H12 H -0.51400 0.10820 0.65490
H13 H -0.57970 0.14160 0.54840
C21 C -0.4800(3) 0.6047(2) 0.85892(18)
C22 C -0.4008(3) 0.7304(2) 0.86689(19)
H14 H -0.32390 0.74870 0.81300
C23 C -0.4345(3) 0.8299(2) 0.9546(2)
H15 H -0.37950 0.91630 0.96100
C24 C -0.5475(4) 0.8033(3) 1.0322(2)
H16 H -0.56890 0.87120 1.09270
C25 C -0.6293(3) 0.6777(3) 1.0217(2)
H17 H -0.70850 0.65970 1.07460
C26 C -0.5975(3) 0.5778(2) 0.9352(2)
H18 H -0.65540 0.49170 0.92800
#END
