
#######################################################################
#
#                 Cambridge Crystallographic Data Centre
#                                CCDC
#
#######################################################################
#
# If this CIF has been generated from an entry in the Cambridge
# Structural Database, then it will include bibliographic, chemical,
# crystal, experimental, refinement or atomic coordinate data resulting
# from the CCDC's data processing and validation procedures.
#
#######################################################################

data_CSD_CIF_YAVNAN
_audit_creation_date 2017-05-11
_audit_creation_method CSD-ConQuest-V1
_database_code_CSD YAVNAN
_database_code_depnum_ccdc_archive 'CCDC 1525345'
_chemical_formula_sum 'C16 H13 N3 O1'
_chemical_formula_moiety
;
C16 H13 N3 O1
;
_journal_coden_Cambridge 179
_journal_volume 56
_journal_year 2017
_journal_page_first 3344
_journal_name_full 'Angew.Chem.,Int.Ed. '
loop_
_publ_author_name
"Heejeong Kim"
"Sukbok Chang"
_chemical_name_systematic
;
8-methyl-5,13-dihydrodibenzo[d,g][1,2,6]oxadiazonine-11-carbonitrile
;
_chemical_name_common
;
(Z)-8-Methyl-11-trifluoromethyl-5,13-dihydrodibenzo[d,g][1,2,6]oxadiazonine
;
_chemical_melting_point 455.15
_cell_volume   1322.742
_exptl_crystal_colour 'colorless'
_exptl_crystal_density_diffrn 1.322
_exptl_special_details
;
Melting point range 455.15-457.15K

;
_exptl_crystal_description 'Block'
_diffrn_ambient_temperature 120
#These two values have been output from a single CSD field.
_refine_ls_R_factor_gt 0.0483
_refine_ls_wR_factor_gt 0.0483
_symmetry_cell_setting monoclinic
_symmetry_space_group_name_H-M 'P 21/n'
_symmetry_Int_Tables_number 14
loop_
_symmetry_equiv_pos_site_id
_symmetry_equiv_pos_as_xyz
1 x,y,z
2 1/2-x,1/2+y,1/2-z
3 -x,-y,-z
4 -1/2+x,-1/2-y,-1/2+z
_cell_length_a 7.9947(3)
_cell_length_b 8.5421(3)
_cell_length_c 19.4070(8)
_cell_angle_alpha 90
_cell_angle_beta 93.584(2)
_cell_angle_gamma 90
_cell_formula_units_Z 4
loop_
_atom_type_symbol
_atom_type_radius_bond
C 0.68
H 0.23
N 0.68
O 0.68
loop_
_atom_site_label
_atom_site_type_symbol
_atom_site_fract_x
_atom_site_fract_y
_atom_site_fract_z
C1 C 0.9868(3) 0.5576(3) 0.35321(12)
H1 H 1.07160 0.59670 0.38840
H2 H 1.04390 0.53540 0.31050
C2 C 0.9096(2) 0.4097(2) 0.37861(10)
C3 C 0.9716(3) 0.3375(3) 0.43887(11)
H3 H 1.06650 0.38060 0.46400
C4 C 0.8972(3) 0.2034(3) 0.46300(11)
H4 H 0.94250 0.15390 0.50380
C5 C 0.7569(3) 0.1419(3) 0.42761(11)
H5 H 0.70510 0.05040 0.44420
C6 C 0.6921(3) 0.2142(2) 0.36781(11)
H6 H 0.59540 0.17220 0.34360
C7 C 0.7675(2) 0.3476(2) 0.34311(10)
C8 C 0.5765(2) 0.5219(2) 0.26845(10)
C9 C 0.4853(2) 0.5143(2) 0.20427(10)
H7 H 0.51520 0.43810 0.17160
C10 C 0.3534(2) 0.6143(2) 0.18734(10)
C11 C 0.2590(2) 0.5935(2) 0.12203(10)
C12 C 0.3063(3) 0.7289(2) 0.23371(11)
H8 H 0.21590 0.79830 0.22230
C13 C 0.3955(3) 0.7376(2) 0.2965(1)
H9 H 0.36400 0.81450 0.32860
C14 C 0.5310(2) 0.6384(2) 0.31571(10)
C15 C 0.6119(3) 0.6676(2) 0.38603(10)
C16 C 0.5025(3) 0.6839(3) 0.44564(11)
H10 H 0.57260 0.68790 0.48890
H11 H 0.42660 0.59390 0.44660
H12 H 0.43670 0.78050 0.44040
N1 N 0.1811(2) 0.5725(2) 0.07144(9)
N2 N 0.7686(2) 0.6876(2) 0.40095(9)
N3 N 0.7051(2) 0.41302(19) 0.27830(8)
H13 H 0.75290 0.38100 0.24120
O1 O 0.86015(18) 0.67555(16) 0.33947(8)
#END
