
#######################################################################
#
#                 Cambridge Crystallographic Data Centre
#                                CCDC
#
#######################################################################
#
# If this CIF has been generated from an entry in the Cambridge
# Structural Database, then it will include bibliographic, chemical,
# crystal, experimental, refinement or atomic coordinate data resulting
# from the CCDC's data processing and validation procedures.
#
#######################################################################

data_CSD_CIF_YAWFUZ
_audit_creation_date 2012-07-02
_audit_creation_method CSD-ConQuest-V1
_database_code_CSD YAWFUZ
_database_code_depnum_ccdc_archive 'CCDC 877162'
_chemical_formula_sum 'C20 H20 N2 O3'
_chemical_formula_moiety
;
C20 H20 N2 O3
;
_journal_coeditor_code "IUCr DS2176"
_journal_coden_Cambridge 1370
_journal_volume 68
_journal_year 2012
_journal_page_first o974
_journal_name_full 'Acta Crystallogr.,Sect.E:Struct.Rep.Online '
loop_
_publ_author_name
"H.-K.Fun"
"T.S.Chia"
"P.S.Nayak"
"B.Narayana"
"B.K.Sarojini"
_chemical_name_systematic
;
(2E)-3-(3-Nitrophenyl)-1-[4-(piperidin-1-yl)phenyl]prop-2-en-1-one
;
_cell_volume   3336.402
_exptl_crystal_colour 'orange'
_exptl_crystal_density_diffrn 1.339
_exptl_crystal_description 'block'
_diffrn_ambient_temperature 100
#These two values have been output from a single CSD field.
_refine_ls_R_factor_gt 0.0562
_refine_ls_wR_factor_gt 0.0562
_symmetry_cell_setting orthorhombic
_symmetry_space_group_name_H-M 'P b c a'
_symmetry_Int_Tables_number 61
loop_
_symmetry_equiv_pos_site_id
_symmetry_equiv_pos_as_xyz
1 x,y,z
2 1/2-x,-y,1/2+z
3 -x,1/2+y,1/2-z
4 1/2+x,1/2-y,-z
5 -x,-y,-z
6 -1/2+x,y,-1/2-z
7 x,-1/2-y,-1/2+z
8 -1/2-x,-1/2+y,z
_cell_length_a 7.4268(12)
_cell_length_b 11.3884(18)
_cell_length_c 39.447(6)
_cell_angle_alpha 90
_cell_angle_beta 90
_cell_angle_gamma 90
_cell_formula_units_Z 8
loop_
_atom_type_symbol
_atom_type_radius_bond
C 0.68
H 0.23
N 0.68
O 0.68
loop_
_atom_site_label
_atom_site_type_symbol
_atom_site_fract_x
_atom_site_fract_y
_atom_site_fract_z
O1 O 0.6504(2) 0.26696(11) -0.01933(3)
O2 O 0.9010(2) 0.54808(13) 0.17630(4)
O3 O 0.8344(2) 0.37615(12) 0.15668(3)
N1 N 0.5842(2) 0.49503(12) -0.16639(4)
N2 N 0.8685(2) 0.48100(13) 0.15277(4)
C1 C 0.6185(3) 0.40300(17) -0.19185(5)
H1 H 0.57380 0.32850 -0.18340
H2 H 0.74730 0.39540 -0.19530
C2 C 0.5292(3) 0.43002(18) -0.22548(5)
H3 H 0.56380 0.37100 -0.24200
H4 H 0.39950 0.42660 -0.22280
C3 C 0.5819(3) 0.55016(19) -0.23851(5)
H5 H 0.51380 0.56810 -0.25880
H6 H 0.70890 0.55070 -0.24430
C4 C 0.5445(3) 0.64214(17) -0.21165(5)
H7 H 0.41570 0.64780 -0.20800
H8 H 0.58700 0.71790 -0.21950
C5 C 0.6370(3) 0.61159(16) -0.17848(5)
H9 H 0.76640 0.61380 -0.18170
H10 H 0.60590 0.66980 -0.16150
C6 C 0.6084(2) 0.46749(14) -0.13234(4)
C7 C 0.5554(3) 0.35640(14) -0.11964(5)
H11 H 0.50740 0.30080 -0.13440
C8 C 0.5738(3) 0.32971(14) -0.08587(4)
H12 H 0.53810 0.25600 -0.07830
C9 C 0.6450(2) 0.41027(13) -0.06242(4)
C10 C 0.6947(2) 0.52043(13) -0.07476(4)
H13 H 0.73990 0.57630 -0.05980
C11 C 0.6784(2) 0.54852(14) -0.10881(4)
H14 H 0.71440 0.62230 -0.11630
C12 C 0.6717(3) 0.37118(14) -0.02707(4)
C13 C 0.7283(3) 0.45833(14) -0.00107(4)
H15 H 0.73550 0.53750 -0.00670
C14 C 0.7688(3) 0.42367(14) 0.03032(4)
H16 H 0.76050 0.34370 0.03480
C15 C 0.8250(2) 0.49959(13) 0.05843(4)
C16 C 0.8867(2) 0.61466(14) 0.05323(5)
H17 H 0.89170 0.64490 0.03130
C17 C 0.9403(3) 0.68375(14) 0.08030(5)
H18 H 0.98260 0.75940 0.07630
C18 C 0.9318(3) 0.64173(14) 0.11314(5)
H19 H 0.96520 0.68870 0.13140
C19 C 0.8721(2) 0.52768(15) 0.11814(4)
C20 C 0.8195(2) 0.45610(14) 0.09165(4)
H20 H 0.78090 0.37980 0.09580
#END
