
#######################################################################
#
#                 Cambridge Crystallographic Data Centre
#                                CCDC
#
#######################################################################
#
# If this CIF has been generated from an entry in the Cambridge
# Structural Database, then it will include bibliographic, chemical,
# crystal, experimental, refinement or atomic coordinate data resulting
# from the CCDC's data processing and validation procedures.
#
#######################################################################

data_CSD_CIF_YAWNAL
_audit_creation_date 1994-06-28
_audit_creation_method CSD-ConQuest-V1
_database_code_CSD YAWNAL
_chemical_formula_sum 'C23 H22 N2 O8'
_chemical_formula_moiety
;
C23 H22 N2 O8
;
_journal_coden_Cambridge 1090
_journal_volume 4
_journal_year 1993
_journal_page_first 1973
_journal_name_full 'Tetrahedron:Asymm. '
loop_
_publ_author_name
"J.A.Nieman"
"M.Parvez"
"B.A.Keay"
_chemical_name_systematic
;
(+-)-cis,cis-Spiro(4.4)nonane-1,6-bis(p-nitrobenzoate)
;
_cell_volume   2180.957
_exptl_crystal_colour 'colorless'
_exptl_crystal_density_diffrn 1.38
_diffrn_ambient_temperature ?
_diffrn_special_details
;
The study was carried out at room temperature,in the range 283-303K

;
#These two values have been output from a single CSD field.
_refine_ls_R_factor_gt 0.03
_refine_ls_wR_factor_gt 0.03
_symmetry_cell_setting orthorhombic
_symmetry_space_group_name_H-M 'P c c n'
_symmetry_Int_Tables_number 56
loop_
_symmetry_equiv_pos_site_id
_symmetry_equiv_pos_as_xyz
1 x,y,z
2 1/2-x,y,1/2+z
3 x,1/2-y,1/2+z
4 1/2-x,1/2-y,z
5 -x,-y,-z
6 -1/2+x,-y,-1/2-z
7 -x,-1/2+y,-1/2-z
8 -1/2+x,-1/2+y,-z
_cell_length_a 7.112(2)
_cell_length_b 13.545(2)
_cell_length_c 22.640(2)
_cell_angle_alpha 90
_cell_angle_beta 90
_cell_angle_gamma 90
_cell_formula_units_Z 4
loop_
_atom_type_symbol
_atom_type_radius_bond
C 0.68
H 0.23
N 0.68
O 0.68
loop_
_atom_site_label
_atom_site_type_symbol
_atom_site_fract_x
_atom_site_fract_y
_atom_site_fract_z
O1 O 0.9467(4) 0.3835(2) 0.3766(1)
O2 O 0.7002(3) 0.3519(2) 0.4347(1)
O3 O 0.1030(4) 0.3616(2) 0.1992(1)
O4 O 0.3327(4) 0.3866(2) 0.1400(1)
N1 N 0.2704(5) 0.3752(2) 0.1894(1)
C1 C 0.75000 0.25000 0.5210(2)
C2 C 0.5936(8) 0.2933(3) 0.5590(2)
C3 C 0.6196(7) 0.4020(3) 0.5621(2)
C4 C 0.7963(7) 0.4260(3) 0.5271(2)
C5 C 0.8206(5) 0.3385(3) 0.4862(1)
C6 C 0.7803(6) 0.3720(3) 0.3831(1)
C7 C 0.6443(5) 0.3752(3) 0.3342(1)
C8 C 0.7107(5) 0.3827(3) 0.2771(1)
C9 C 0.5894(5) 0.3834(3) 0.2292(1)
C10 C 0.3988(5) 0.3769(3) 0.2400(1)
C11 C 0.3272(4) 0.3707(3) 0.2958(1)
C12 C 0.4516(5) 0.3698(3) 0.3433(1)
H1 H 0.47390 0.27770 0.54170
H2 H 0.59760 0.26490 0.59760
H3 H 0.51540 0.43520 0.54510
H4 H 0.63550 0.42250 0.60180
H5 H 0.77970 0.48560 0.50500
H6 H 0.90130 0.43350 0.55260
H7 H 0.94840 0.33020 0.47530
H8 H 0.84240 0.38830 0.27050
H9 H 0.63750 0.38760 0.19010
H10 H 0.19540 0.36640 0.30230
H11 H 0.40410 0.36510 0.38250
C2C C 0.9064(8) 0.2067(3) 0.5590(2)
C5C C 0.6794(5) 0.1615(3) 0.4862(1)
C3C C 0.8804(7) 0.0980(3) 0.5621(2)
H1C H 1.02610 0.22230 0.54170
H2C H 0.90240 0.23510 0.59760
O2C O 0.7998(3) 0.1481(2) 0.4347(1)
C4C C 0.7037(7) 0.0740(3) 0.5271(2)
H7C H 0.55160 0.16980 0.47530
H3C H 0.98460 0.06480 0.54510
H4C H 0.86450 0.07750 0.60180
C6C C 0.7197(6) 0.1280(3) 0.3831(1)
H5C H 0.72030 0.01440 0.50500
H6C H 0.59870 0.06650 0.55260
O1C O 0.5533(4) 0.1165(2) 0.3766(1)
C7C C 0.8557(5) 0.1248(3) 0.3342(1)
C8C C 0.7893(5) 0.1173(3) 0.2771(1)
C12C C 1.0484(5) 0.1302(3) 0.3433(1)
C9C C 0.9106(5) 0.1166(3) 0.2292(1)
H8C H 0.65760 0.11170 0.27050
C11C C 1.1728(4) 0.1293(3) 0.2958(1)
H11C H 1.09590 0.13490 0.38250
C10C C 1.1012(5) 0.1231(3) 0.2400(1)
H9C H 0.86250 0.11240 0.19010
H10C H 1.30460 0.13360 0.30230
N1C N 1.2296(5) 0.1248(2) 0.1894(1)
O3C O 1.3970(4) 0.1384(2) 0.1992(1)
O4C O 1.1673(4) 0.1134(2) 0.1400(1)
#END
