
#######################################################################
#
#                 Cambridge Crystallographic Data Centre
#                                CCDC
#
#######################################################################
#
# If this CIF has been generated from an entry in the Cambridge
# Structural Database, then it will include bibliographic, chemical,
# crystal, experimental, refinement or atomic coordinate data resulting
# from the CCDC's data processing and validation procedures.
#
#######################################################################

data_CSD_CIF_YAWNER
_audit_creation_date 2012-07-02
_audit_creation_method CSD-ConQuest-V1
_database_code_CSD YAWNER
_database_code_depnum_ccdc_archive 'CCDC 877194'
_chemical_formula_sum 'C11 H11 N3 O2'
_chemical_formula_moiety
;
C11 H11 N3 O2
;
_journal_coeditor_code "IUCr HG5187"
_journal_coden_Cambridge 1370
_journal_volume 68
_journal_year 2012
_journal_page_first o1018
_journal_name_full 'Acta Crystallogr.,Sect.E:Struct.Rep.Online '
loop_
_publ_author_name
"E.R.T.Tiekink"
"S.M.S.V.Wardell"
"J.L.Wardell"
_chemical_name_systematic
;
3,5-Dimethyl-1-(4-nitrophenyl)-1H-pyrazole
;
_cell_volume   1029.510
_exptl_crystal_colour 'light yellow'
_exptl_crystal_density_diffrn 1.402
_exptl_crystal_description 'plate'
_diffrn_ambient_temperature 120
#These two values have been output from a single CSD field.
_refine_ls_R_factor_gt 0.0371
_refine_ls_wR_factor_gt 0.0371
_symmetry_cell_setting orthorhombic
_symmetry_space_group_name_H-M 'P c a 21'
_symmetry_Int_Tables_number 29
loop_
_symmetry_equiv_pos_site_id
_symmetry_equiv_pos_as_xyz
1 x,y,z
2 -x,-y,1/2+z
3 1/2-x,y,1/2+z
4 1/2+x,-y,z
_cell_length_a 21.3909(13)
_cell_length_b 3.8653(2)
_cell_length_c 12.4514(8)
_cell_angle_alpha 90
_cell_angle_beta 90
_cell_angle_gamma 90
_cell_formula_units_Z 4
loop_
_atom_type_symbol
_atom_type_radius_bond
C 0.68
H 0.23
N 0.68
O 0.68
loop_
_atom_site_label
_atom_site_type_symbol
_atom_site_fract_x
_atom_site_fract_y
_atom_site_fract_z
O1 O 0.25661(11) 0.8154(7) 0.1996(2)
O2 O 0.19518(9) 0.7062(6) 0.0666(2)
N1 N 0.44986(9) 0.1859(5) -0.12778(15)
N2 N 0.50113(9) 0.0689(5) -0.07183(17)
N3 N 0.24680(11) 0.7002(5) 0.1097(2)
C1 C 0.45879(11) 0.1711(6) -0.23678(19)
C2 C 0.54135(11) -0.0271(6) -0.14708(19)
C3 C 0.51697(11) 0.0328(6) -0.2510(2)
H1 H 0.53710 -0.01380 -0.31750
C4 C 0.60413(11) -0.1723(7) -0.1187(2)
H2 H 0.61880 -0.06740 -0.05170
H3 H 0.63390 -0.12110 -0.17650
H4 H 0.60080 -0.42340 -0.10950
C5 C 0.41435(12) 0.3090(7) -0.3190(2)
H5 H 0.38230 0.13460 -0.33440
H6 H 0.43720 0.36370 -0.38500
H7 H 0.39430 0.51910 -0.29140
C6 C 0.39825(10) 0.3116(6) -0.06913(18)
C7 C 0.40877(11) 0.4650(6) 0.03071(18)
H8 H 0.45020 0.48720 0.05740
C8 C 0.35886(11) 0.5849(6) 0.0909(2)
H9 H 0.36540 0.68580 0.15950
C9 C 0.29891(11) 0.5547(6) 0.0488(2)
C10 C 0.28776(11) 0.4044(6) -0.0498(2)
H10 H 0.24630 0.38880 -0.07690
C11 C 0.33738(11) 0.2765(6) -0.1088(2)
H11 H 0.33020 0.16570 -0.17580
#END
