
#######################################################################
#
#                 Cambridge Crystallographic Data Centre
#                                CCDC
#
#######################################################################
#
# If this CIF has been generated from an entry in the Cambridge
# Structural Database, then it will include bibliographic, chemical,
# crystal, experimental, refinement or atomic coordinate data resulting
# from the CCDC's data processing and validation procedures.
#
#######################################################################

data_CSD_CIF_YAWPAP
_audit_creation_date 2012-07-02
_audit_creation_method CSD-ConQuest-V1
_database_code_CSD YAWPAP
_database_code_depnum_ccdc_archive 'CCDC 877198'
_chemical_formula_sum 'C30 H36 N2 O6'
_chemical_formula_moiety
;
C30 H36 N2 O6
;
_journal_coeditor_code "IUCr BT5839"
_journal_coden_Cambridge 1370
_journal_volume 68
_journal_year 2012
_journal_page_first o1022
_journal_name_full 'Acta Crystallogr.,Sect.E:Struct.Rep.Online '
loop_
_publ_author_name
"N.Wrobel"
"D.Schollmeyer"
"H.Detert"
_chemical_name_systematic
;
1,4-Dihexyloxy-2,5-bis(2-nitrophenyl)benzene
;
_chemical_name_common
;
2',5'-bis(hexyloxy)-2,2''-dinitro-1,1':4',1''-terphenyl
;
_cell_volume   1381.171
_exptl_crystal_colour 'yellow'
_exptl_crystal_density_diffrn 1.252
_exptl_crystal_description 'block'
_diffrn_ambient_temperature 193
#These two values have been output from a single CSD field.
_refine_ls_R_factor_gt 0.0437
_refine_ls_wR_factor_gt 0.0437
_symmetry_cell_setting monoclinic
_symmetry_space_group_name_H-M 'P 21/n'
_symmetry_Int_Tables_number 14
loop_
_symmetry_equiv_pos_site_id
_symmetry_equiv_pos_as_xyz
1 x,y,z
2 1/2-x,1/2+y,1/2-z
3 -x,-y,-z
4 -1/2+x,-1/2-y,-1/2+z
_cell_length_a 7.9314(4)
_cell_length_b 19.2029(17)
_cell_length_c 9.1247(5)
_cell_angle_alpha 90
_cell_angle_beta 96.368(5)
_cell_angle_gamma 90
_cell_formula_units_Z 2
loop_
_atom_type_symbol
_atom_type_radius_bond
C 0.68
H 0.23
N 0.68
O 0.68
loop_
_atom_site_label
_atom_site_type_symbol
_atom_site_fract_x
_atom_site_fract_y
_atom_site_fract_z
C1 C 0.46215(15) 0.52525(7) 0.35512(14)
C2 C 0.35820(15) 0.54228(7) 0.46442(14)
C3 C 0.60362(16) 0.48321(8) 0.39358(14)
H1 H 0.67560 0.47170 0.32060
C4 C 0.43305(15) 0.55452(7) 0.20336(14)
C5 C 0.57076(16) 0.58310(8) 0.14150(15)
H2 H 0.68010 0.58110 0.19560
C6 C 0.55321(18) 0.61424(8) 0.00394(16)
H3 H 0.65020 0.63180 -0.03620
C7 C 0.39481(18) 0.61991(8) -0.07522(16)
H4 H 0.38200 0.64320 -0.16760
C8 C 0.25493(17) 0.59149(7) -0.01925(15)
H5 H 0.14560 0.59450 -0.07320
C9 C 0.27660(15) 0.55862(7) 0.11640(14)
N1 N 0.12608(13) 0.52343(6) 0.16019(12)
O1 O -0.01207(12) 0.55180(6) 0.13048(12)
O2 O 0.14470(14) 0.46637(6) 0.21901(12)
O3 O 0.22425(12) 0.58564(6) 0.42244(10)
C10 C 0.11269(18) 0.60345(9) 0.52871(16)
H6 H 0.17480 0.63000 0.61060
H7 H 0.06650 0.56070 0.56990
C11 C -0.02962(17) 0.64694(9) 0.45359(16)
H8 H 0.01890 0.68740 0.40550
H9 H -0.09460 0.61880 0.37580
C12 C -0.1481(2) 0.67270(12) 0.5597(2)
H10 H -0.17930 0.63280 0.62010
H11 H -0.08620 0.70670 0.62740
C13 C -0.30865(18) 0.70652(8) 0.49024(18)
H12 H -0.27810 0.74650 0.42990
H13 H -0.37150 0.67260 0.42310
C14 C -0.4239(3) 0.73189(14) 0.5993(3)
H14 H -0.44920 0.69240 0.66310
H15 H -0.36260 0.76750 0.66320
C15 C -0.5889(2) 0.76264(11) 0.5319(3)
H16 H -0.56620 0.80480 0.47670
H17 H -0.65920 0.77450 0.61010
H18 H -0.64880 0.72870 0.46500
C1B C 0.53785(15) 0.47475(7) 0.64488(14)
C2B C 0.64180(15) 0.45772(7) 0.53558(14)
C3B C 0.39638(16) 0.51679(8) 0.60642(14)
H1B H 0.32440 0.52830 0.67940
C4B C 0.56695(15) 0.44548(7) 0.79664(14)
C5B C 0.42924(16) 0.41690(8) 0.85850(15)
H2B H 0.31990 0.41890 0.80440
C6B C 0.44679(18) 0.38576(8) 0.99606(16)
H3B H 0.34980 0.36820 1.03620
C7B C 0.60519(18) 0.38009(8) 1.07522(16)
H4B H 0.61800 0.35680 1.16760
C8B C 0.74507(17) 0.40851(7) 1.01925(15)
H5B H 0.85440 0.40550 1.07320
C9B C 0.72340(15) 0.44138(7) 0.88360(14)
N1B N 0.87392(13) 0.47657(6) 0.83981(12)
O1B O 1.01207(12) 0.44820(6) 0.86952(12)
O2B O 0.85530(14) 0.53363(6) 0.78099(12)
O3B O 0.77575(12) 0.41436(6) 0.57756(10)
C10B C 0.88731(18) 0.39655(9) 0.47129(16)
H6B H 0.82520 0.37000 0.38940
H7B H 0.93350 0.43930 0.43010
C11B C 1.02962(17) 0.35306(9) 0.54641(16)
H8B H 0.98110 0.31260 0.59450
H9B H 1.09460 0.38120 0.62420
C12B C 1.1481(2) 0.32730(12) 0.4403(2)
H10B H 1.17930 0.36720 0.37990
H11B H 1.08620 0.29330 0.37260
C13B C 1.30865(18) 0.29348(8) 0.50976(18)
H12B H 1.27810 0.25350 0.57010
H13B H 1.37150 0.32740 0.57690
C14B C 1.4239(3) 0.26811(14) 0.4007(3)
H14B H 1.44920 0.30760 0.33690
H15B H 1.36260 0.23250 0.33680
C15B C 1.5889(2) 0.23736(11) 0.4681(3)
H16B H 1.56620 0.19520 0.52330
H17B H 1.65920 0.22550 0.38990
H18B H 1.64880 0.27130 0.53500
#END
