
#######################################################################
#
#                 Cambridge Crystallographic Data Centre
#                                CCDC
#
#######################################################################
#
# If this CIF has been generated from an entry in the Cambridge
# Structural Database, then it will include bibliographic, chemical,
# crystal, experimental, refinement or atomic coordinate data resulting
# from the CCDC's data processing and validation procedures.
#
#######################################################################

data_CSD_CIF_YAWWIE
_audit_creation_date 2012-05-09
_audit_creation_method CSD-ConQuest-V1
_database_code_CSD YAWWIE
_database_code_depnum_ccdc_archive 'CCDC 877230'
_chemical_formula_sum 'C27 H24 N4 O5'
_chemical_formula_moiety
;
C27 H24 N4 O5
;
_journal_coeditor_code "IUCr YK2041"
_journal_coden_Cambridge 1370
_journal_volume 68
_journal_year 2012
_journal_page_first o1062
_journal_name_full 'Acta Crystallogr.,Sect.E:Struct.Rep.Online '
loop_
_publ_author_name
"Xin Zhang"
"Chen Sun"
"Fei-ran Li"
"Hua Zhang"
_chemical_name_systematic
;
Methyl 
2-([(3-methyl-5-oxo-1-phenyl-4,5-dihydro-1H-pyrazol-4-ylidene)(4-nitrophenyl)m
ethyl]amino)-3-phenylpropanoate
;
_cell_volume   1226.904
_exptl_crystal_colour 'colorless'
_exptl_crystal_density_diffrn 1.312
_exptl_crystal_description 'block'
_diffrn_ambient_temperature 296
#These two values have been output from a single CSD field.
_refine_ls_R_factor_gt 0.0399
_refine_ls_wR_factor_gt 0.0399
_symmetry_cell_setting monoclinic
_symmetry_space_group_name_H-M 'P 21'
_symmetry_Int_Tables_number 4
loop_
_symmetry_equiv_pos_site_id
_symmetry_equiv_pos_as_xyz
1 x,y,z
2 -x,1/2+y,-z
_cell_length_a 6.7713(16)
_cell_length_b 8.917(2)
_cell_length_c 20.339(5)
_cell_angle_alpha 90
_cell_angle_beta 92.489(4)
_cell_angle_gamma 90
_cell_formula_units_Z 2
loop_
_atom_type_symbol
_atom_type_radius_bond
C 0.68
H 0.23
N 0.68
O 0.68
loop_
_atom_site_label
_atom_site_type_symbol
_atom_site_fract_x
_atom_site_fract_y
_atom_site_fract_z
O1 O 0.2384(4) -0.1136(2) 0.34497(13)
O2 O -0.7694(4) 0.4350(4) 0.12919(15)
O3 O -0.5325(5) 0.4977(5) 0.06804(18)
O4 O -0.3079(4) -0.3075(3) 0.31388(15)
O5 O -0.4842(5) -0.3580(4) 0.22187(18)
N1 N 0.3237(4) 0.1290(3) 0.38007(13)
N2 N 0.2558(4) 0.2758(3) 0.36907(15)
N3 N -0.5986(4) 0.4262(4) 0.11306(16)
N4 N -0.0863(4) -0.0999(3) 0.26012(15)
H1 H -0.00860 -0.15100 0.28610
C1 C 0.6183(5) -0.0145(5) 0.4130(2)
H2 H 0.57850 -0.09090 0.38420
C2 C 0.7941(6) -0.0259(6) 0.4492(2)
H3 H 0.87270 -0.11040 0.44440
C3 C 0.8550(7) 0.0833(8) 0.4916(3)
H4 H 0.97440 0.07470 0.51560
C4 C 0.7377(8) 0.2064(9) 0.4983(3)
H5 H 0.77760 0.28030 0.52830
C5 C 0.5612(7) 0.2250(6) 0.4621(2)
H6 H 0.48520 0.31120 0.46610
C6 C 0.5025(5) 0.1097(4) 0.41960(16)
C7 C 0.1051(5) 0.2653(4) 0.32700(17)
C8 C 0.0671(4) 0.1120(3) 0.30814(15)
C9 C 0.2132(4) 0.0246(4) 0.34512(16)
C10 C 0.0044(6) 0.4069(4) 0.3050(3)
H7 H 0.05560 0.48930 0.33100
H8 H -0.13520 0.39790 0.31060
H9 H 0.02810 0.42450 0.25950
C11 C -0.0733(4) 0.0480(4) 0.26523(15)
C12 C -0.2120(4) 0.1434(3) 0.22373(15)
C13 C -0.1507(5) 0.2096(4) 0.16670(17)
H10 H -0.02360 0.19150 0.15300
C14 C -0.2753(5) 0.3019(4) 0.12978(17)
H11 H -0.23390 0.34650 0.09140
C15 C -0.4630(4) 0.3264(4) 0.15121(17)
C16 C -0.5284(5) 0.2614(4) 0.20677(18)
H12 H -0.65620 0.27910 0.21990
C17 C -0.4023(5) 0.1686(4) 0.24343(17)
H13 H -0.44540 0.12310 0.28140
C18 C -0.2165(5) -0.1856(4) 0.21573(19)
H14 H -0.30200 -0.11330 0.19200
C19 C -0.3515(6) -0.2928(4) 0.2507(2)
C20 C -0.4402(7) -0.4046(5) 0.3506(3)
H15 H -0.56920 -0.35990 0.35090
H16 H -0.38840 -0.41590 0.39500
H17 H -0.44940 -0.50120 0.32990
C21 C -0.0987(6) -0.2697(4) 0.1635(2)
H18 H -0.00130 -0.33390 0.18570
H19 H -0.18840 -0.33310 0.13750
C22 C 0.0040(6) -0.1652(4) 0.1186(2)
C23 C -0.0986(7) -0.0965(5) 0.0657(2)
H20 H -0.23110 -0.11940 0.05700
C24 C -0.0046(8) 0.0060(6) 0.0261(2)
H21 H -0.07430 0.05080 -0.00910
C25 C 0.1903(8) 0.0413(6) 0.0387(3)
H22 H 0.25280 0.11090 0.01260
C26 C 0.2911(7) -0.0259(6) 0.0894(3)
H23 H 0.42380 -0.00280 0.09760
C27 C 0.2016(6) -0.1274(5) 0.1291(2)
H24 H 0.27460 -0.17170 0.16370
#END
