
#######################################################################
#
#                 Cambridge Crystallographic Data Centre
#                                CCDC
#
#######################################################################
#
# If this CIF has been generated from an entry in the Cambridge
# Structural Database, then it will include bibliographic, chemical,
# crystal, experimental, refinement or atomic coordinate data resulting
# from the CCDC's data processing and validation procedures.
#
#######################################################################

data_CSD_CIF_YAWWEY
_audit_creation_date 1994-07-14
_audit_creation_method CSD-ConQuest-V1
_database_code_CSD YAWWEY
_chemical_formula_sum 'C21 H15 N3 O4'
_chemical_formula_moiety
;
C21 H15 N3 O4
;
_journal_coden_Cambridge 188
_journal_year 1993
_journal_page_first 2223
_journal_name_full 'J.Chem.Soc.,Perkin Trans.2 '
loop_
_publ_author_name
"V.Bertolasi"
"V.Ferretti"
"P.Gilli"
"G.Gilli"
"Y.M.Issa"
"O.E.Sherif"
_chemical_name_systematic
;
1,3-Diphenyl-1,2,3-propane-trione 2-(3-nitrophenylhydrazone)
;
_cell_volume   1794.110
_exptl_crystal_density_diffrn 1.38
_exptl_special_details
;
Strong intramolecular H-bond between N1 and O1

;
_diffrn_ambient_temperature ?
_diffrn_special_details
;
The study was carried out at room temperature,in the range 283-303K

;
#These two values have been output from a single CSD field.
_refine_ls_R_factor_gt 0.044
_refine_ls_wR_factor_gt 0.044
_symmetry_cell_setting monoclinic
_symmetry_space_group_name_H-M 'P 21/n'
_symmetry_Int_Tables_number 14
loop_
_symmetry_equiv_pos_site_id
_symmetry_equiv_pos_as_xyz
1 x,y,z
2 1/2-x,1/2+y,1/2-z
3 -x,-y,-z
4 -1/2+x,-1/2-y,-1/2+z
_cell_length_a 10.581(3)
_cell_length_b 10.548(1)
_cell_length_c 16.459(2)
_cell_angle_alpha 90
_cell_angle_beta 102.40(2)
_cell_angle_gamma 90
_cell_formula_units_Z 4
loop_
_atom_type_symbol
_atom_type_radius_bond
C 0.68
H 0.23
N 0.68
O 0.68
loop_
_atom_site_label
_atom_site_type_symbol
_atom_site_fract_x
_atom_site_fract_y
_atom_site_fract_z
O1 O 0.5356(2) 0.1229(2) -0.0842(1)
O2 O 0.4490(2) -0.2411(2) -0.0856(1)
O3 O 1.1419(2) -0.1962(2) 0.1547(2)
O4 O 1.2683(2) -0.0583(2) 0.2215(1)
N1 N 0.7463(2) 0.0490(2) 0.0186(1)
N2 N 0.7140(2) -0.0673(2) -0.0079(1)
N3 N 1.1639(2) -0.0901(2) 0.1810(1)
C1 C 1.0605(2) 0.0049(2) 0.1616(1)
C2 C 1.0744(2) 0.1167(3) 0.2054(2)
C3 C 0.9778(3) 0.2050(3) 0.1862(2)
C4 C 0.8696(2) 0.1823(2) 0.1240(2)
C5 C 0.8573(2) 0.0688(2) 0.0811(1)
C6 C 0.9532(2) -0.0221(2) 0.0991(1)
C7 C 0.6098(2) -0.0870(2) -0.0661(1)
C8 C 0.5261(2) 0.0143(2) -0.1112(1)
C9 C 0.5653(2) -0.2220(2) -0.0754(1)
C10 C 0.6567(2) -0.3296(2) -0.0717(1)
C11 C 0.7863(3) -0.3159(2) -0.0741(2)
C12 C 0.8636(3) -0.4214(3) -0.0725(2)
C13 C 0.8142(3) -0.5399(3) -0.0689(2)
C14 C 0.6869(3) -0.5550(3) -0.0678(2)
C15 C 0.6076(3) -0.4511(2) -0.0693(2)
C16 C 0.4330(2) -0.0133(2) -0.1911(1)
C17 C 0.4592(2) -0.1020(3) -0.2474(2)
C18 C 0.3709(3) -0.1205(3) -0.3216(2)
C19 C 0.2578(3) -0.0525(3) -0.3389(2)
C20 C 0.2325(3) 0.0349(3) -0.2839(2)
C21 C 0.3197(2) 0.0566(2) -0.2105(2)
H1 H 0.688(2) 0.110(2) 0.005(1)
H2 H 1.150(2) 0.131(2) 0.247(1)
H3 H 0.983(2) 0.288(2) 0.217(1)
H4 H 0.800(2) 0.246(2) 0.112(1)
H5 H 0.949(2) -0.101(2) 0.072(1)
H6? H 0.924(2) -0.235(2) -0.075(1)
H7 H 0.954(3) -0.412(3) -0.070(2)
H8 H 0.869(3) -0.614(2) -0.067(2)
H9 H 0.650(2) -0.630(2) -0.064(1)
H10 H 0.513(2) -0.458(2) -0.066(1)
H11 H 0.539(2) -0.148(2) -0.235(1)
H12 H 0.393(3) -0.181(2) -0.355(2)
H13 H 0.200(3) -0.072(3) -0.389(2)
H14 H 0.156(2) 0.078(2) -0.298(1)
H15 H 0.305(2) 0.121(2) -0.173(1)
#END
