
#######################################################################
#
#                 Cambridge Crystallographic Data Centre
#                                CCDC
#
#######################################################################
#
# If this CIF has been generated from an entry in the Cambridge
# Structural Database, then it will include bibliographic, chemical,
# crystal, experimental, refinement or atomic coordinate data resulting
# from the CCDC's data processing and validation procedures.
#
#######################################################################

data_CSD_CIF_YAXCUX
_audit_creation_date 2012-05-09
_audit_creation_method CSD-ConQuest-V1
_database_code_CSD YAXCUX
_database_code_depnum_ccdc_archive 'CCDC 877257'
_chemical_formula_sum 'C24 H22 N2 O1'
_chemical_formula_moiety
;
C24 H22 N2 O1
;
_journal_coeditor_code "IUCr BT5844"
_journal_coden_Cambridge 1370
_journal_volume 68
_journal_year 2012
_journal_page_first o1106
_journal_name_full 'Acta Crystallogr.,Sect.E:Struct.Rep.Online '
loop_
_publ_author_name
"M.Geffe"
"D.Schollmeyer"
"H.Detert"
_chemical_name_systematic
;
4-[2-(Benzylamino)phenyl]-2,6-dimethylquinoline N-oxide
;
_chemical_melting_point 449
_cell_volume   1855.452
_exptl_crystal_colour 'yellow'
_exptl_crystal_density_diffrn 1.269
_exptl_crystal_description 'needle'
_diffrn_ambient_temperature 193
#These two values have been output from a single CSD field.
_refine_ls_R_factor_gt 0.0503
_refine_ls_wR_factor_gt 0.0503
_symmetry_cell_setting monoclinic
_symmetry_space_group_name_H-M 'P 21/n'
_symmetry_Int_Tables_number 14
loop_
_symmetry_equiv_pos_site_id
_symmetry_equiv_pos_as_xyz
1 x,y,z
2 1/2-x,1/2+y,1/2-z
3 -x,-y,-z
4 -1/2+x,-1/2-y,-1/2+z
_cell_length_a 10.1656(3)
_cell_length_b 14.1135(5)
_cell_length_c 12.9372(4)
_cell_angle_alpha 90
_cell_angle_beta 91.547(3)
_cell_angle_gamma 90
_cell_formula_units_Z 4
loop_
_atom_type_symbol
_atom_type_radius_bond
C 0.68
H 0.23
N 0.68
O 0.68
loop_
_atom_site_label
_atom_site_type_symbol
_atom_site_fract_x
_atom_site_fract_y
_atom_site_fract_z
C1 C 0.71651(14) 0.61537(10) 0.20685(11)
C2 C 0.77995(15) 0.65594(11) 0.12222(12)
H1 H 0.74100 0.70890 0.08800
C3 C 0.89744(16) 0.62050(12) 0.08793(13)
H2 H 0.93840 0.64960 0.03090
C4 C 0.95605(15) 0.54320(12) 0.13561(13)
H3 H 1.03720 0.51900 0.11220
C5 C 0.89426(14) 0.50159(11) 0.21827(13)
H4 H 0.93440 0.44850 0.25130
C6 C 0.77536(14) 0.53505(10) 0.25443(11)
N1 N 0.60350(13) 0.65335(9) 0.24471(10)
H5 H 0.56850 0.62370 0.30510
C7 C 0.53902(15) 0.73596(11) 0.20054(12)
H6 H 0.60680 0.78440 0.18660
H7 H 0.47950 0.76270 0.25240
C8 C 0.46014(14) 0.71777(10) 0.10157(12)
C9 C 0.46398(16) 0.78089(11) 0.01988(13)
H8 H 0.52010 0.83460 0.02490
C10 C 0.38731(18) 0.76708(12) -0.06926(14)
H9 H 0.39140 0.81100 -0.12470
C11 C 0.30522(17) 0.68959(13) -0.07725(15)
H10 H 0.25160 0.68050 -0.13770
C12 C 0.30119(17) 0.62530(13) 0.00294(16)
H11 H 0.24560 0.57130 -0.00280
C13 C 0.37786(16) 0.63914(12) 0.09166(14)
H12 H 0.37440 0.59450 0.14650
C14 C 0.71631(14) 0.48715(10) 0.34537(12)
C15 C 0.59375(14) 0.43752(10) 0.33858(12)
C16 C 0.51672(14) 0.43056(10) 0.24628(13)
H13 H 0.54610 0.46130 0.18580
C17 C 0.40017(15) 0.38053(11) 0.24148(15)
C18 C 0.35773(17) 0.33600(13) 0.33235(18)
H14 H 0.27700 0.30200 0.33020
C19 C 0.42868(17) 0.34010(12) 0.42324(17)
H15 H 0.39780 0.30920 0.48320
C20 C 0.54775(15) 0.39039(11) 0.42727(13)
N2 N 0.62225(14) 0.39157(10) 0.51958(11)
C21 C 0.73692(17) 0.43875(11) 0.52665(13)
C22 C 0.78247(16) 0.48609(11) 0.43914(12)
H16 H 0.86360 0.51920 0.44520
C23 C 0.31976(18) 0.37395(14) 0.14289(18)
H17 H 0.24380 0.41650 0.14650
H18 H 0.28900 0.30870 0.13300
H19 H 0.37390 0.39240 0.08460
O1 O 0.57999(13) 0.34483(10) 0.59927(10)
C24 C 0.8079(2) 0.43775(15) 0.62843(14)
H20 H 0.88720 0.47700 0.62480
H21 H 0.83280 0.37260 0.64620
H22 H 0.75050 0.46310 0.68150
#END
