
#######################################################################
#
#                 Cambridge Crystallographic Data Centre
#                                CCDC
#
#######################################################################
#
# If this CIF has been generated from an entry in the Cambridge
# Structural Database, then it will include bibliographic, chemical,
# crystal, experimental, refinement or atomic coordinate data resulting
# from the CCDC's data processing and validation procedures.
#
#######################################################################

data_CSD_CIF_YAXHIQ
_audit_creation_date 2012-05-09
_audit_creation_method CSD-ConQuest-V1
_database_code_CSD YAXHIQ
_database_code_depnum_ccdc_archive 'CCDC 877275'
_chemical_formula_sum 'C15 H17 N1 O8'
_chemical_formula_moiety
;
C15 H17 N1 O8
;
_journal_coeditor_code "IUCr SU2384"
_journal_coden_Cambridge 1370
_journal_volume 68
_journal_year 2012
_journal_page_first o1128
_journal_name_full 'Acta Crystallogr.,Sect.E:Struct.Rep.Online '
loop_
_publ_author_name
"Chun-Lei Lv"
"Jian-Hui Chen"
"Yu-Zhe Zhang"
"Ding-Qiang Lu"
"Ping-Kai OuYang"
_chemical_name_systematic
;
(4R*,5R*)-Diethyl 2-(4-nitrophenyl)-1,3-dioxolane-4,5-dicarboxylate
;
_cell_volume    802.932
_exptl_crystal_colour 'colorless'
_exptl_crystal_density_diffrn 1.403
_exptl_crystal_description 'block'
_diffrn_ambient_temperature 293
#These two values have been output from a single CSD field.
_refine_ls_R_factor_gt 0.0459
_refine_ls_wR_factor_gt 0.0459
_symmetry_cell_setting monoclinic
_symmetry_space_group_name_H-M 'P 21'
_symmetry_Int_Tables_number 4
loop_
_symmetry_equiv_pos_site_id
_symmetry_equiv_pos_as_xyz
1 x,y,z
2 -x,1/2+y,-z
_cell_length_a 12.261(3)
_cell_length_b 4.5200(9)
_cell_length_c 15.656(3)
_cell_angle_alpha 90
_cell_angle_beta 112.27(3)
_cell_angle_gamma 90
_cell_formula_units_Z 2
loop_
_atom_type_symbol
_atom_type_radius_bond
C 0.68
H 0.23
N 0.68
O 0.68
loop_
_atom_site_label
_atom_site_type_symbol
_atom_site_fract_x
_atom_site_fract_y
_atom_site_fract_z
N1 N 0.1597(5) 0.1051(17) 0.6035(3)
C1 C 0.3496(4) -0.1471(14) 0.4814(3)
H1 H 0.41540 -0.26700 0.49320
O1 O 0.0820(6) 0.276(2) 0.5904(4)
C2 C 0.3039(4) -0.1052(17) 0.5489(3)
H2 H 0.33960 -0.19290 0.60660
O2 O 0.2028(4) -0.0395(18) 0.6735(3)
O3 O 0.26487(19) -0.1203(6) 0.23682(14)
C3 C 0.2075(4) 0.0631(14) 0.5303(3)
O4 O 0.40116(19) 0.2240(6) 0.31395(14)
C4 C 0.1556(4) 0.2006(17) 0.4495(3)
H3 H 0.08950 0.31840 0.43870
O5 O 0.5315(2) 0.1545(8) 0.14859(18)
C5 C 0.2020(4) 0.1647(15) 0.3817(3)
H4 H 0.16750 0.26160 0.32540
C6 C 0.2981(3) -0.0121(9) 0.3972(2)
O6 O 0.5589(3) -0.1270(9) 0.2711(2)
C7 C 0.3507(3) -0.0501(8) 0.3259(2)
H5 H 0.41160 -0.20380 0.34550
C8 C 0.4003(3) 0.2225(8) 0.2239(2)
H6 H 0.39700 0.42540 0.20100
O7 O 0.1014(2) 0.2755(6) 0.15578(16)
C9 C 0.2829(3) 0.0569(8) 0.1691(2)
H7 H 0.29420 -0.07090 0.12260
O8 O 0.1850(2) 0.4257(7) 0.05872(16)
C10 C 0.5053(3) 0.0613(9) 0.2180(3)
C11 C 0.6333(4) 0.0176(15) 0.1381(3)
H8 H 0.62290 -0.19520 0.13250
H9 H 0.70400 0.05950 0.19170
C12 C 0.6445(5) 0.1387(18) 0.0547(4)
H10 H 0.71000 0.04690 0.04570
H11 H 0.65730 0.34840 0.06160
H12 H 0.57350 0.10000 0.00220
C13 C 0.1838(3) 0.2735(8) 0.1218(2)
C14 C 0.0027(4) 0.4800(12) 0.1144(3)
H13 H 0.03010 0.66100 0.09600
H14 H -0.05620 0.39100 0.06010
C15 C -0.0484(5) 0.5452(19) 0.1824(4)
H15 H -0.11320 0.67990 0.15630
H16 H 0.01030 0.63350 0.23590
H17 H -0.07610 0.36530 0.19980
#END
