
#######################################################################
#
#                 Cambridge Crystallographic Data Centre
#                                CCDC
#
#######################################################################
#
# If this CIF has been generated from an entry in the Cambridge
# Structural Database, then it will include bibliographic, chemical,
# crystal, experimental, refinement or atomic coordinate data resulting
# from the CCDC's data processing and validation procedures.
#
#######################################################################

data_CSD_CIF_YAXPIZ
_audit_creation_date 2017-05-11
_audit_creation_method CSD-ConQuest-V1
_database_code_CSD YAXPIZ
_database_code_depnum_ccdc_archive 'CCDC 1506785'
_chemical_formula_sum 'C19 H19 N1 O3'
_chemical_formula_moiety
;
C19 H19 N1 O3
;
_journal_coden_Cambridge 179
_journal_volume 56
_journal_year 2017
_journal_page_first 3059
_journal_name_full 'Angew.Chem.,Int.Ed. '
loop_
_publ_author_name
"Jongwoo Son"
"Ki Hwan Kim"
"Dong-Liang Mo"
"D.J.Wink"
"L.L.Anderson"
_chemical_name_systematic
;
2-ethyl-6-(4-methoxyphenyl)-4-oxo-3-phenyl-2H-1,4-oxazine
;
_cell_volume   1573.331
_exptl_crystal_colour 'yellow'
_exptl_crystal_density_diffrn 1.306
_exptl_crystal_description 'needle'
_diffrn_ambient_temperature 295
#These two values have been output from a single CSD field.
_refine_ls_R_factor_gt 0.0772
_refine_ls_wR_factor_gt 0.0772
_symmetry_cell_setting monoclinic
_symmetry_space_group_name_H-M 'P 21/c'
_symmetry_Int_Tables_number 14
loop_
_symmetry_equiv_pos_site_id
_symmetry_equiv_pos_as_xyz
1 x,y,z
2 -x,1/2+y,1/2-z
3 -x,-y,-z
4 x,-1/2-y,-1/2+z
_cell_length_a 10.875(8)
_cell_length_b 5.860(4)
_cell_length_c 24.703(18)
_cell_angle_alpha 90
_cell_angle_beta 91.969(13)
_cell_angle_gamma 90
_cell_formula_units_Z 4
loop_
_atom_type_symbol
_atom_type_radius_bond
C 0.68
H 0.23
N 0.68
O 0.68
loop_
_atom_site_label
_atom_site_type_symbol
_atom_site_fract_x
_atom_site_fract_y
_atom_site_fract_z
O1 O 0.7342(2) 0.1300(4) 0.05801(9)
O2 O 0.5292(3) -0.0163(5) -0.18039(11)
O3 O 0.6916(3) -0.4248(4) 0.14986(10)
C1 C 0.9915(5) 0.2633(9) 0.05165(18)
H1 H 0.94420 0.25960 0.01810
H2 H 1.07680 0.23900 0.04460
H3 H 0.98170 0.40910 0.06870
C2 C 0.8682(4) 0.0367(8) 0.31269(17)
H4 H 0.89140 0.05770 0.34890
C3 C 0.8935(4) 0.2008(7) 0.27461(17)
H5 H 0.93270 0.33520 0.28540
C4 C 0.8613(4) 0.1674(7) 0.22113(15)
H6 H 0.88000 0.27970 0.19610
C5 C 0.8014(3) -0.0299(6) 0.20303(15)
C6 C 0.7743(3) -0.0591(6) 0.14539(15)
C7 C 0.8155(3) 0.1160(6) 0.10543(15)
H7 H 0.81310 0.26470 0.12350
C8 C 0.6997(3) -0.0711(7) 0.03570(16)
C9 C 0.6581(3) -0.0571(6) -0.02068(15)
C10 C 0.5896(4) -0.2279(6) -0.04593(16)
H8 H 0.57110 -0.35830 -0.02640
C11 C 0.5481(4) -0.2116(7) -0.09889(17)
H9 H 0.50280 -0.33010 -0.11470
C12 C 0.5738(4) -0.0181(7) -0.12871(16)
C13 C 0.5492(4) 0.1810(7) -0.21204(17)
H10 H 0.51970 0.31300 -0.19350
H11 H 0.50590 0.16610 -0.24640
H12 H 0.63560 0.19760 -0.21770
N1 N 0.7258(3) -0.2449(5) 0.12314(12)
C14 C 0.7026(4) -0.2575(7) 0.06657(15)
H13 H 0.68900 -0.39930 0.05050
C15 C 0.9472(4) 0.0780(7) 0.08858(16)
H14 H 1.00090 0.07190 0.12070
H15 H 0.95250 -0.06790 0.07020
C16 C 0.6405(4) 0.1540(7) -0.10461(16)
H16 H 0.65780 0.28520 -0.12410
C17 C 0.6824(4) 0.1340(7) -0.05137(16)
H17 H 0.72830 0.25230 -0.03570
C18 C 0.7755(4) -0.1916(7) 0.24268(16)
H18 H 0.73490 -0.32550 0.23260
C19 C 0.8084(4) -0.1574(8) 0.29608(17)
H19 H 0.78980 -0.26820 0.32150
#END
