
#######################################################################
#
#                 Cambridge Crystallographic Data Centre
#                                CCDC
#
#######################################################################
#
# If this CIF has been generated from an entry in the Cambridge
# Structural Database, then it will include bibliographic, chemical,
# crystal, experimental, refinement or atomic coordinate data resulting
# from the CCDC's data processing and validation procedures.
#
#######################################################################

data_CSD_CIF_YAXZII
_audit_creation_date 2012-05-22
_audit_creation_method CSD-ConQuest-V1
_database_code_CSD YAXZII
_database_code_depnum_ccdc_archive 'CCDC 877349'
_chemical_formula_sum 'C17 H20 N2 O3'
_chemical_formula_moiety
;
C17 H20 N2 O3
;
_journal_coeditor_code "IUCr FK2057"
_journal_coden_Cambridge 1370
_journal_volume 68
_journal_year 2012
_journal_page_first o1221
_journal_name_full 'Acta Crystallogr.,Sect.E:Struct.Rep.Online '
loop_
_publ_author_name
"Kwang Ha"
_chemical_name_systematic
;
4-Nitro-2-(((tricyclo[3.3.1.1^3,7^]decan-1-yl)iminio)methyl)phenolate
;
_chemical_name_common
;
2-((Adamantan-1-yliminio)methyl)-4-nitrophenolate
;
_cell_volume    729.706
_exptl_crystal_colour 'yellow'
_exptl_crystal_density_diffrn 1.367
_exptl_crystal_description 'block'
_diffrn_ambient_temperature 200
#These two values have been output from a single CSD field.
_refine_ls_R_factor_gt 0.0525
_refine_ls_wR_factor_gt 0.0525
_symmetry_cell_setting triclinic
_symmetry_space_group_name_H-M 'P -1'
_symmetry_Int_Tables_number 2
loop_
_symmetry_equiv_pos_site_id
_symmetry_equiv_pos_as_xyz
1 x,y,z
2 -x,-y,-z
_cell_length_a 6.3531(5)
_cell_length_b 11.0617(10)
_cell_length_c 12.1576(11)
_cell_angle_alpha 62.995(2)
_cell_angle_beta 76.446(2)
_cell_angle_gamma 75.487(2)
_cell_formula_units_Z 2
loop_
_atom_type_symbol
_atom_type_radius_bond
C 0.68
H 0.23
N 0.68
O 0.68
loop_
_atom_site_label
_atom_site_type_symbol
_atom_site_fract_x
_atom_site_fract_y
_atom_site_fract_z
O1 O 1.0883(3) 0.7989(2) -0.01074(18)
O2 O 0.9391(3) 0.5043(2) -0.3099(2)
O3 O 0.6210(3) 0.5069(2) -0.19649(19)
N1 N 0.7093(3) 0.7907(2) 0.12908(19)
H1 H 0.856(5) 0.809(3) 0.103(2)
N2 N 0.8088(4) 0.5349(2) -0.2295(2)
C1 C 1.0215(4) 0.7417(3) -0.0628(2)
C2 C 0.8046(4) 0.7034(2) -0.0257(2)
C3 C 0.7394(4) 0.6358(2) -0.0807(2)
H2 H 0.59800 0.61000 -0.05420
C4 C 0.8786(4) 0.6058(2) -0.1734(2)
C5 C 1.0878(4) 0.6442(3) -0.2144(2)
H3 H 1.18230 0.62300 -0.27870
C6 C 1.1554(4) 0.7108(3) -0.1634(2)
H4 H 1.29560 0.73820 -0.19460
C7 C 0.6570(4) 0.7319(2) 0.0713(2)
H5 H 0.51540 0.70670 0.09390
C8 C 0.5734(4) 0.8178(2) 0.2350(2)
C9 C 0.6942(4) 0.9009(3) 0.2633(2)
H6 H 0.84280 0.84950 0.28190
H7 H 0.71030 0.98940 0.18980
C10 C 0.5661(4) 0.9281(3) 0.3747(2)
H8 H 0.64610 0.98250 0.39310
C11 C 0.5428(4) 0.7919(3) 0.4882(2)
H9 H 0.68990 0.73890 0.50860
H10 H 0.46110 0.80940 0.56100
C12 C 0.4202(4) 0.7097(2) 0.4600(2)
H11 H 0.40430 0.62050 0.53450
C13 C 0.1928(4) 0.7910(3) 0.4292(2)
H12 H 0.11240 0.73700 0.41190
H13 H 0.10780 0.80910 0.50110
C14 C 0.2172(4) 0.9268(2) 0.3153(2)
H14 H 0.06830 0.98020 0.29540
C15 C 0.3463(4) 0.8987(3) 0.2030(2)
H15 H 0.26760 0.84510 0.18410
H16 H 0.36080 0.98670 0.12870
C16 C 0.5489(4) 0.6809(2) 0.3483(2)
H17 H 0.69570 0.62660 0.36790
H18 H 0.46990 0.62700 0.33000
C17 C 0.3388(4) 1.0100(3) 0.3438(3)
H19 H 0.25470 1.02920 0.41530
H20 H 0.35360 1.09890 0.27070
#END
