
#######################################################################
#
#                 Cambridge Crystallographic Data Centre
#                                CCDC
#
#######################################################################
#
# If this CIF has been generated from an entry in the Cambridge
# Structural Database, then it will include bibliographic, chemical,
# crystal, experimental, refinement or atomic coordinate data resulting
# from the CCDC's data processing and validation procedures.
#
#######################################################################

data_CSD_CIF_YAZROJ
_audit_creation_date 2017-09-14
_audit_creation_method CSD-ConQuest-V1
_database_code_CSD YAZROJ
_database_code_depnum_ccdc_archive 'CCDC 1556664'
_chemical_formula_sum 'C28 H26 N4 O7'
_chemical_formula_moiety
;
C28 H26 N4 O7
;
_journal_coden_Cambridge 177
_journal_volume 15
_journal_year 2017
_journal_page_first 8072
_journal_name_full 'Org.Biomol.Chem. '
loop_
_publ_author_name
"Yu Zhang"
"Jing Sun"
"Guo-Liang Shen"
"Chao-Guo Yan"
_chemical_name_systematic
;
diethyl 
8-cyano-7-(4-nitrophenyl)-2-oxo-3-(2-phenylethyl)-1,2,3,7-tetrahydroimidazo[1,
2-a]pyridine-5,6-dicarboxylate
;
_cell_volume   2744.840
_exptl_crystal_colour 'yellow'
_exptl_crystal_density_diffrn 1.284
_exptl_special_details
;
Absolute configuration

;
_exptl_crystal_description 'block'
_diffrn_ambient_temperature 296
#These two values have been output from a single CSD field.
_refine_ls_R_factor_gt 0.1195
_refine_ls_wR_factor_gt 0.1195
_symmetry_cell_setting monoclinic
_symmetry_space_group_name_H-M 'C 2'
_symmetry_Int_Tables_number 5
loop_
_symmetry_equiv_pos_site_id
_symmetry_equiv_pos_as_xyz
1 x,y,z
2 -x,y,-z
3 1/2+x,1/2+y,z
4 1/2-x,1/2+y,-z
_cell_length_a 26.9454(14)
_cell_length_b 5.9941(3)
_cell_length_c 20.0378(10)
_cell_angle_alpha 90
_cell_angle_beta 121.992(1)
_cell_angle_gamma 90
_cell_formula_units_Z 4
loop_
_atom_type_symbol
_atom_type_radius_bond
C 0.68
H 0.23
N 0.68
O 0.68
loop_
_atom_site_label
_atom_site_type_symbol
_atom_site_fract_x
_atom_site_fract_y
_atom_site_fract_z
C1 C 0.1030(5) 0.483(2) 0.7172(8)
H1 H 0.12490 0.59360 0.71190
C2 C 0.0431(5) 0.507(3) 0.6777(9)
H2 H 0.02460 0.62840 0.64490
C3 C 0.0120(5) 0.348(3) 0.6878(9)
C4 C 0.0380(6) 0.173(3) 0.735(1)
H3 H 0.01570 0.06810 0.74190
C5 C 0.1000(5) 0.146(2) 0.7751(8)
H4 H 0.11850 0.02450 0.80780
C6 C 0.1313(4) 0.3044(16) 0.7639(5)
C7 C 0.1979(4) 0.2795(17) 0.8045(5)
H5 H 0.20980 0.13870 0.83380
C8 C 0.2300(4) 0.4687(16) 0.8610(5)
C9 C 0.2215(4) 0.4924(17) 0.9250(6)
C10 C 0.2648(3) 0.6076(15) 0.8523(4)
C11 C 0.2133(4) 0.2721(16) 0.7415(5)
C12 C 0.1841(4) 0.0915(19) 0.6838(6)
C13 C 0.1387(5) -0.019(3) 0.5506(7)
H6 H 0.14390 0.01140 0.50710
H7 H 0.15460 -0.16600 0.57120
C14 C 0.0771(8) -0.016(5) 0.5229(12)
H8 H 0.07220 0.02150 0.56570
H9 H 0.06040 -0.15990 0.50260
H10 H 0.05770 0.09390 0.48200
C15 C 0.2494(3) 0.4209(15) 0.7387(4)
C16 C 0.2634(4) 0.422(2) 0.6749(6)
C17 C 0.3193(8) 0.235(3) 0.6288(10)
H11 H 0.31830 0.38320 0.60840
H12 H 0.35960 0.18460 0.65810
C18 C 0.2861(9) 0.093(4) 0.5687(10)
H13 H 0.27970 -0.04120 0.58910
H14 H 0.30580 0.05830 0.54190
H15 H 0.24910 0.16210 0.53260
C19 C 0.3238(4) 0.902(2) 0.8667(5)
C20 C 0.3149(4) 0.7666(18) 0.7967(5)
H16 H 0.29260 0.85640 0.74880
C21 C 0.3731(5) 0.701(2) 0.8066(6)
H17 H 0.36550 0.62210 0.75980
H18 H 0.39480 0.83510 0.81120
C22 C 0.4088(6) 0.562(3) 0.8741(9)
H19 H 0.38800 0.42410 0.86820
H20 H 0.41480 0.63730 0.92060
C23 C 0.4680(7) 0.507(3) 0.8859(12)
C24 C 0.5129(6) 0.660(3) 0.9124(10)
H21 H 0.50380 0.80440 0.91970
C25 C 0.5695(6) 0.631(3) 0.9296(12)
H22 H 0.59660 0.74570 0.94300
C26 C 0.5801(8) 0.409(3) 0.9240(13)
H23 H 0.61900 0.36640 0.94630
C27 C 0.5384(6) 0.243(3) 0.8885(12)
H24 H 0.54630 0.10640 0.87420
C28 C 0.4836(7) 0.296(3) 0.8755(12)
H25 H 0.45590 0.18220 0.85890
N1 N -0.0512(7) 0.366(5) 0.6493(13)
N2 N 0.2134(4) 0.5012(18) 0.9755(5)
N3 N 0.2776(3) 0.5862(13) 0.7948(4)
N4 N 0.2943(3) 0.7944(14) 0.8953(4)
H26 H 0.29420 0.83840 0.93600
O1 O -0.0743(5) 0.520(4) 0.6022(10)
O2 O -0.0789(5) 0.235(4) 0.6584(9)
O3 O 0.3516(3) 1.0711(15) 0.8915(4)
O4 O 0.1740(4) -0.0856(13) 0.7015(5)
O5 O 0.1697(3) 0.1477(13) 0.6120(4)
O6 O 0.2511(3) 0.5693(14) 0.6293(4)
O7 O 0.2953(3) 0.2432(13) 0.6822(4)
#END
