
#######################################################################
#
#                 Cambridge Crystallographic Data Centre
#                                CCDC
#
#######################################################################
#
# If this CIF has been generated from an entry in the Cambridge
# Structural Database, then it will include bibliographic, chemical,
# crystal, experimental, refinement or atomic coordinate data resulting
# from the CCDC's data processing and validation procedures.
#
#######################################################################

data_CSD_CIF_YAZYIH
_audit_creation_date 1994-09-20
_audit_creation_method CSD-ConQuest-V1
_database_code_CSD YAZYIH
_database_code_depnum_ccdc_archive 'CCDC 1300405'
_chemical_formula_sum 'C10 H6 N6 O4'
_chemical_formula_moiety
;
C10 H6 N6 O4
;
_journal_coden_Cambridge 34
_journal_volume 30
_journal_year 1993
_journal_page_first 1389
_journal_name_full 'J.Heterocycl.Chem. '
loop_
_publ_author_name
"R.Gilardi"
"C.George"
"J.Karle"
"P.E.Eaton"
"M.Rao"
_chemical_name_systematic
;
N-Azidocarbonyl-N'-nitro-3,5-diazahexacyclo(5.4.0.0^2,6^.0^2,10^.0^6,9^.0^8,11
^)undecan-4-one
;
_chemical_name_common
;
N-Azidocarbonyl-N'-nitrocubano-urea
;
_cell_volume    526.930
_exptl_crystal_colour 'colorless'
_exptl_crystal_density_diffrn 1.728
_diffrn_ambient_temperature 244
#These two values have been output from a single CSD field.
_refine_ls_R_factor_gt 0.037
_refine_ls_wR_factor_gt 0.037
_symmetry_cell_setting triclinic
_symmetry_space_group_name_H-M 'P -1'
_symmetry_Int_Tables_number 2
loop_
_symmetry_equiv_pos_site_id
_symmetry_equiv_pos_as_xyz
1 x,y,z
2 -x,-y,-z
_cell_length_a 6.021(2)
_cell_length_b 8.840(3)
_cell_length_c 10.036(3)
_cell_angle_alpha 89.01(3)
_cell_angle_beta 80.87(3)
_cell_angle_gamma 87.65(3)
_cell_formula_units_Z 2
loop_
_atom_type_symbol
_atom_type_radius_bond
C 0.68
N 0.68
O 0.68
loop_
_atom_site_label
_atom_site_type_symbol
_atom_site_fract_x
_atom_site_fract_y
_atom_site_fract_z
C1 C 0.2279(4) 0.2964(2) 0.2043(2)
C2 C 0.2287(4) 0.2436(2) 0.3494(2)
C3 C 0.0238(4) 0.1447(3) 0.3449(2)
C4 C 0.1932(5) 0.0128(3) 0.2929(2)
C5 C 0.3982(5) 0.1124(3) 0.3020(2)
C6 C 0.3973(5) 0.1664(3) 0.1520(3)
C7 C 0.1925(5) 0.0662(3) 0.1449(2)
C8 C 0.0217(4) 0.1990(3) 0.1944(2)
N1 N 0.2474(3) 0.3780(2) 0.4258(2)
C9 C 0.2575(4) 0.3787(3) 0.5619(2)
O1 O 0.2532(3) 0.4884(2) 0.6315(2)
N2 N 0.2707(3) 0.2261(2) 0.6058(2)
N3 N 0.2812(4) 0.2145(2) 0.7294(2)
N4 N 0.2932(5) 0.1874(3) 0.8375(3)
C10 C 0.2509(4) 0.5089(3) 0.3438(2)
O2 O 0.2571(3) 0.6371(2) 0.3789(2)
N5 N 0.2468(4) 0.4564(2) 0.2120(2)
N6 N 0.2367(3) 0.5493(2) 0.1002(2)
O3 O 0.2490(3) 0.4841(2) -0.0066(2)
O4 O 0.2180(3) 0.6856(2) 0.1170(2)
#END
