
#######################################################################
#
#                 Cambridge Crystallographic Data Centre
#                                CCDC
#
#######################################################################
#
# If this CIF has been generated from an entry in the Cambridge
# Structural Database, then it will include bibliographic, chemical,
# crystal, experimental, refinement or atomic coordinate data resulting
# from the CCDC's data processing and validation procedures.
#
#######################################################################

data_CSD_CIF_YAZZEH
_audit_creation_date 2017-09-14
_audit_creation_method CSD-ConQuest-V1
_database_code_CSD YAZZEH
_database_code_depnum_ccdc_archive 'CCDC 1523623'
_chemical_formula_sum 'C25 H20 N4 O2'
_chemical_formula_moiety
;
C25 H20 N4 O2
;
_journal_coden_Cambridge 122
_journal_volume 53
_journal_year 2017
_journal_page_first 451
_journal_name_full 'Khim.Get.Soedin.,SSSR(Russ.)(Chem.Heterocycl.Compd.) '
loop_
_publ_author_name
"A.Yi.Barkov"
"N.S.Zimnitskiy"
"V.Yu.Korotaev"
"I.B.Kutyashev"
"V.S.Moshkin"
"V.Ya.Sosnovskikh"
_chemical_name_systematic
;
1'-methyl-3'-nitro-4'-phenylspiro[indeno[1,2-b]quinoxaline-11,2'-pyrrolidine]
;
_cell_volume   2045.358
_exptl_crystal_colour 'colorless'
_exptl_crystal_density_diffrn 1.326
_exptl_crystal_description 'prism'
_diffrn_ambient_temperature 295
#These two values have been output from a single CSD field.
_refine_ls_R_factor_gt 0.0515
_refine_ls_wR_factor_gt 0.0515
_symmetry_cell_setting monoclinic
_symmetry_space_group_name_H-M 'P 21/n'
_symmetry_Int_Tables_number 14
loop_
_symmetry_equiv_pos_site_id
_symmetry_equiv_pos_as_xyz
1 x,y,z
2 1/2-x,1/2+y,1/2-z
3 -x,-y,-z
4 -1/2+x,-1/2-y,-1/2+z
_cell_length_a 10.5204(5)
_cell_length_b 13.4405(6)
_cell_length_c 14.5299(5)
_cell_angle_alpha 90
_cell_angle_beta 95.413(4)
_cell_angle_gamma 90
_cell_formula_units_Z 4
loop_
_atom_type_symbol
_atom_type_radius_bond
C 0.68
H 0.23
N 0.68
O 0.68
loop_
_atom_site_label
_atom_site_type_symbol
_atom_site_fract_x
_atom_site_fract_y
_atom_site_fract_z
C1 C 0.35456(13) 0.59034(11) 0.15561(9)
N1 N 0.18294(12) 0.59872(10) 0.03404(7)
N2 N 0.40640(11) 0.50837(10) 0.12805(7)
N3 N 0.20430(11) 0.81421(9) 0.09443(8)
C2 C 0.23711(14) 0.51405(12) 0.00086(9)
C3 C 0.34635(15) 0.46937(12) 0.04745(9)
C4 C 0.20820(13) 0.72891(11) 0.15767(9)
C5 C 0.31252(14) 0.73197(12) 0.23912(9)
C6 C 0.50669(15) 0.64583(13) 0.29638(9)
H1 H 0.56360 0.59330 0.29280
C7 C 0.39804(14) 0.65335(12) 0.23460(9)
C8 C 0.24352(13) 0.63435(11) 0.10944(9)
C9 C 0.39733(17) 0.38374(12) 0.00968(11)
H2 H 0.46780 0.35250 0.04060
C10 C 0.18343(16) 0.47262(14) -0.08265(10)
H3 H 0.11060 0.50070 -0.11340
C11 C 0.03583(14) 0.84417(12) 0.1899(1)
H4 H 0.04780 0.86330 0.25520
C12 C -0.09888(14) 0.86932(11) 0.15212(10)
O1 O 0.08180(13) 0.58445(11) 0.26279(9)
C13 C 0.23821(18) 0.39125(15) -0.11851(12)
H5 H 0.20410 0.36560 -0.17490
C14 C 0.06899(14) 0.73339(12) 0.18129(10)
N4 N 0.04912(13) 0.67123(12) 0.26457(10)
C15 C 0.13958(15) 0.89541(12) 0.13799(11)
H6 H 0.10130 0.94120 0.09180
H7 H 0.19900 0.93180 0.18070
C16 C 0.33381(16) 0.80275(13) 0.30834(9)
H8 H 0.27630 0.85450 0.31350
O2 O 0.00116(16) 0.70727(12) 0.32869(9)
C17 C 0.44246(17) 0.79481(15) 0.36972(10)
H9 H 0.45780 0.84210 0.41620
C18 C 0.34421(19) 0.34619(13) -0.07199(12)
H10 H 0.37920 0.28980 -0.09690
C19 C -0.13342(16) 0.86909(13) 0.05812(11)
H11 H -0.07380 0.85060 0.01800
C20 C 0.52798(17) 0.71829(15) 0.3632(1)
H12 H 0.60110 0.71540 0.40440
C21 C -0.25500(19) 0.89583(15) 0.02263(13)
H13 H -0.27660 0.89550 -0.04090
C22 C 0.32606(16) 0.84200(13) 0.06136(11)
H14 H 0.38210 0.86720 0.11200
H15 H 0.31220 0.89250 0.01470
H16 H 0.36400 0.78470 0.03560
C23 C -0.34307(19) 0.92260(15) 0.08068(17)
H17 H -0.42460 0.94150 0.05680
C24 C -0.19054(17) 0.89527(14) 0.20957(12)
H18 H -0.17030 0.89490 0.27330
C25 C -0.31202(19) 0.92178(15) 0.17365(17)
H19 H -0.37290 0.93920 0.21320
H20 H 0.0177(13) 0.6996(10) 0.1310(8)
#END
