
#######################################################################
#
#                 Cambridge Crystallographic Data Centre
#                                CCDC
#
#######################################################################
#
# If this CIF has been generated from an entry in the Cambridge
# Structural Database, then it will include bibliographic, chemical,
# crystal, experimental, refinement or atomic coordinate data resulting
# from the CCDC's data processing and validation procedures.
#
#######################################################################

data_CSD_CIF_YEBQON
_audit_creation_date 2013-01-14
_audit_creation_method CSD-ConQuest-V1
_database_code_CSD YEBQON
_database_code_depnum_ccdc_archive 'CCDC 861285'
_chemical_formula_sum 'C20 H19 N3 O5'
_chemical_formula_moiety
;
C20 H19 N3 O5
;
_journal_coden_Cambridge 1127
_journal_volume 22
_journal_year 2012
_journal_page_first 5384
_journal_name_full 'Bioorg.Med.Chem.Lett. '
loop_
_publ_author_name
"Yong Guo"
"Yuan-Yuan Yan"
"Chun Yang"
"Xiang Yu"
"Xiao-Yan Zhi"
"Hui Xu"
_chemical_name_systematic
;
3-(3-Furyl)-3a-methyl-7-(2-nitrobenzenecarbohydrazonoyl)-3a,4,5,6-tetrahydro-2
-benzofuran-1(3H)-one
;
_cell_volume    901.778
_exptl_crystal_colour 'colorless'
_exptl_crystal_density_diffrn 1.405
_exptl_crystal_description 'block'
_diffrn_ambient_temperature 296
#These two values have been output from a single CSD field.
_refine_ls_R_factor_gt 0.0406
_refine_ls_wR_factor_gt 0.0406
_symmetry_cell_setting monoclinic
_symmetry_space_group_name_H-M 'P 21'
_symmetry_Int_Tables_number 4
loop_
_symmetry_equiv_pos_site_id
_symmetry_equiv_pos_as_xyz
1 x,y,z
2 -x,1/2+y,-z
_cell_length_a 11.085(3)
_cell_length_b 7.784(2)
_cell_length_c 11.110(3)
_cell_angle_alpha 90
_cell_angle_beta 109.832(2)
_cell_angle_gamma 90
_cell_formula_units_Z 2
loop_
_atom_type_symbol
_atom_type_radius_bond
C 0.68
H 0.23
N 0.68
O 0.68
loop_
_atom_site_label
_atom_site_type_symbol
_atom_site_fract_x
_atom_site_fract_y
_atom_site_fract_z
C1 C -0.3651(2) -0.1145(4) 0.1341(2)
H1 H -0.38280 0.00050 0.11260
C2 C -0.3850(3) -0.3928(4) 0.1418(3)
H2 H -0.41850 -0.50340 0.12610
C3 C -0.2706(3) -0.3523(4) 0.2249(3)
H3 H -0.21140 -0.42930 0.27670
C4 C -0.25440(19) -0.1763(3) 0.2215(2)
C5 C -0.14185(18) -0.0716(3) 0.30112(19)
H4 H -0.16840 -0.00140 0.36100
C6 C -0.07593(18) 0.0457(3) 0.22987(19)
C7 C -0.1327(2) 0.2257(3) 0.2026(2)
H5 H -0.15580 0.26570 0.27450
H6 H -0.20960 0.22350 0.12750
C8 C -0.0344(2) 0.3479(3) 0.1800(2)
H7 H -0.01180 0.30710 0.10790
H8 H -0.07230 0.46100 0.15870
C9 C 0.0862(2) 0.3612(3) 0.2967(2)
H9 H 0.15380 0.41200 0.27140
H10 H 0.06970 0.43760 0.35840
C10 C 0.13207(19) 0.1907(3) 0.3604(2)
C11 C 0.05615(19) 0.0517(3) 0.3303(2)
C12 C 0.0750(2) -0.1125(3) 0.3996(2)
C13 C 0.2578(2) 0.1856(3) 0.4586(2)
H11 H 0.29420 0.08090 0.49240
C14 C 0.50038(19) 0.4483(3) 0.6533(2)
C15 C 0.4445(2) 0.6108(3) 0.6265(2)
H12 H 0.36640 0.62400 0.56070
C16 C 0.5036(3) 0.7508(4) 0.6960(3)
H13 H 0.46460 0.85780 0.67640
C17 C 0.6193(3) 0.7379(4) 0.7944(3)
H14 H 0.65750 0.83450 0.84100
C18 C 0.6770(2) 0.5808(3) 0.8223(2)
H15 H 0.75480 0.57020 0.88870
C19 C 0.6198(2) 0.4365(3) 0.7517(2)
C20 C -0.0699(2) -0.0433(4) 0.1088(2)
H16 H -0.01640 0.02230 0.07360
H17 H -0.15470 -0.05150 0.04700
H18 H -0.03470 -0.15650 0.13010
N1 N 0.31842(16) 0.3258(3) 0.49864(16)
N2 N 0.43773(16) 0.3075(3) 0.58783(17)
H19 H 0.47330 0.20790 0.60280
N3 N 0.68637(18) 0.2761(3) 0.7869(2)
O1 O -0.44534(18) -0.2490(3) 0.0834(2)
O2 O -0.04141(14) -0.1896(2) 0.37418(15)
O3 O 0.17014(17) -0.1814(3) 0.47074(19)
O4 O 0.63934(18) 0.1431(3) 0.7304(2)
O5 O 0.78937(19) 0.2740(3) 0.8730(2)
#END
