
#######################################################################
#
#                 Cambridge Crystallographic Data Centre
#                                CCDC
#
#######################################################################
#
# If this CIF has been generated from an entry in the Cambridge
# Structural Database, then it will include bibliographic, chemical,
# crystal, experimental, refinement or atomic coordinate data resulting
# from the CCDC's data processing and validation procedures.
#
#######################################################################

data_CSD_CIF_YECFIX
_audit_creation_date 2012-12-31
_audit_creation_method CSD-ConQuest-V1
_database_code_CSD YECFIX
_database_code_depnum_ccdc_archive 'CCDC 855991'
_chemical_formula_sum 'C19 H27 N3 O7'
_chemical_formula_moiety
;
C19 H27 N3 O7
;
_journal_coden_Cambridge 1566
_journal_volume 1
_journal_year 2012
_journal_page_first 134
_journal_name_full 'ChemistryOpen '
loop_
_publ_author_name
"L.Deiana"
"Gui-Ling Zhao"
"H.Leijonmarck"
"Junliang Sun"
"C.W.Lehmann"
"A.Cordova"
_chemical_name_systematic
;
Di-t-butyl 3-hydroxy-5-(3-nitrophenyl)pyrazolidine-1,2-dicarboxylate
;
_cell_volume   1083.241
_exptl_crystal_colour 'colorless'
_exptl_crystal_density_diffrn 1.255
_exptl_special_details
;
Absolute configuration

;
_exptl_crystal_description 'prism'
_diffrn_ambient_temperature 100
#These two values have been output from a single CSD field.
_refine_ls_R_factor_gt 0.037
_refine_ls_wR_factor_gt 0.037
_symmetry_cell_setting monoclinic
_symmetry_space_group_name_H-M 'P 21'
_symmetry_Int_Tables_number 4
loop_
_symmetry_equiv_pos_site_id
_symmetry_equiv_pos_as_xyz
1 x,y,z
2 -x,1/2+y,-z
_cell_length_a 10.4830(4)
_cell_length_b 6.6015(3)
_cell_length_c 15.8446(6)
_cell_angle_alpha 90
_cell_angle_beta 98.920(2)
_cell_angle_gamma 90
_cell_formula_units_Z 2
loop_
_atom_type_symbol
_atom_type_radius_bond
C 0.68
H 0.23
N 0.68
O 0.68
loop_
_atom_site_label
_atom_site_type_symbol
_atom_site_fract_x
_atom_site_fract_y
_atom_site_fract_z
O1 O 0.02383(13) 0.0588(2) 0.08861(9)
H1 H 0.00420 0.16140 0.11280
O2 O 0.27371(13) 0.0814(2) 0.29276(8)
O3 O 0.23780(12) -0.2481(2) 0.32600(8)
O4 O -0.03746(12) -0.5637(2) 0.15007(8)
O5 O -0.03999(12) -0.3174(2) 0.25046(8)
O6 O 0.58513(15) -0.9165(3) 0.25998(11)
O7 O 0.51759(13) -0.6513(2) 0.32014(10)
N1 N 0.14837(14) -0.1246(2) 0.19949(10)
N2 N 0.11994(14) -0.3260(3) 0.17287(10)
N3 N 0.52204(15) -0.7590(3) 0.25755(11)
C1 C 0.14939(18) -0.0009(3) 0.12394(13)
H2 H 0.20610 0.11670 0.13650
C2 C 0.20173(19) -0.1461(3) 0.06247(13)
H3 H 0.29470 -0.13300 0.06700
H4 H 0.16290 -0.11880 0.00400
C3 C 0.16470(17) -0.3611(3) 0.09005(12)
H5 H 0.09270 -0.41260 0.04870
C4 C 0.27556(17) -0.5074(3) 0.09634(12)
C5 C 0.30617(18) -0.5947(3) 0.02151(13)
H6 H 0.25690 -0.56260 -0.03080
C6 C 0.40861(19) -0.7280(3) 0.02408(14)
H7 H 0.42920 -0.78140 -0.02640
C7 C 0.48041(18) -0.7821(3) 0.10131(13)
H8 H 0.54820 -0.87390 0.10380
C8 C 0.44890(17) -0.6963(3) 0.17475(13)
C9 C 0.34911(17) -0.5579(3) 0.17430(12)
H9 H 0.33180 -0.50040 0.22490
C10 C 0.22785(17) -0.0846(3) 0.27595(12)
C11 C 0.29967(19) -0.2348(3) 0.41632(13)
C12 C 0.44327(19) -0.1990(4) 0.42079(15)
H10 H 0.47840 -0.29810 0.38650
H11 H 0.48490 -0.21040 0.47900
H12 H 0.45750 -0.06580 0.39980
C13 C 0.2355(2) -0.0722(4) 0.46266(14)
H13 H 0.25250 0.05830 0.44010
H14 H 0.26930 -0.07670 0.52250
H15 H 0.14400 -0.09540 0.45470
C14 C 0.2732(2) -0.4442(4) 0.44907(14)
H16 H 0.18160 -0.46540 0.44320
H17 H 0.31050 -0.45510 0.50820
H18 H 0.31060 -0.54450 0.41650
C15 C 0.00684(17) -0.4119(3) 0.18831(12)
C16 C -0.15946(18) -0.3892(3) 0.27988(13)
C17 C -0.27186(18) -0.3630(4) 0.20753(14)
H19 H -0.27040 -0.22840 0.18470
H20 H -0.35160 -0.38430 0.22890
H21 H -0.26440 -0.45980 0.16330
C18 C -0.1428(2) -0.6065(4) 0.31125(14)
H22 H -0.13710 -0.69450 0.26380
H23 H -0.21560 -0.64490 0.33770
H24 H -0.06520 -0.61740 0.35210
C19 C -0.17117(19) -0.2445(4) 0.35243(14)
H25 H -0.09870 -0.26210 0.39690
H26 H -0.24960 -0.27200 0.37460
H27 H -0.17270 -0.10770 0.33180
#END
