
#######################################################################
#
#                 Cambridge Crystallographic Data Centre
#                                CCDC
#
#######################################################################
#
# If this CIF has been generated from an entry in the Cambridge
# Structural Database, then it will include bibliographic, chemical,
# crystal, experimental, refinement or atomic coordinate data resulting
# from the CCDC's data processing and validation procedures.
#
#######################################################################

data_CSD_CIF_YEDHEU
_audit_creation_date 1995-01-12
_audit_creation_method CSD-ConQuest-V1
_database_code_CSD YEDHEU
_chemical_formula_sum 'C47 H39 N3 O6'
_chemical_formula_moiety
;
C47 H39 N3 O6
;
_journal_coden_Cambridge 653
_journal_volume 12
_journal_year 1993
_journal_page_first 605
_journal_name_full 'Nucleos.Nucleot. '
loop_
_publ_author_name
"P.Agback"
"A.Papchikhin"
"S.Neidle"
"J.Chattopadhyaya"
_chemical_name_systematic
;
2',5'-bis(O-Trityl)-oximinouridine
;
_cell_volume   1965.868
_exptl_crystal_density_diffrn 1.23
_diffrn_ambient_temperature ?
_diffrn_special_details
;
The study was carried out at room temperature,in the range 283-303K

;
#These two values have been output from a single CSD field.
_refine_ls_R_factor_gt 0.0262
_refine_ls_wR_factor_gt 0.0262
_symmetry_cell_setting monoclinic
_symmetry_space_group_name_H-M 'P 21'
_symmetry_Int_Tables_number 4
loop_
_symmetry_equiv_pos_site_id
_symmetry_equiv_pos_as_xyz
1 x,y,z
2 -x,1/2+y,-z
_cell_length_a 8.918(1)
_cell_length_b 15.921(2)
_cell_length_c 13.917(2)
_cell_angle_alpha 90
_cell_angle_beta 95.80(1)
_cell_angle_gamma 90
_cell_formula_units_Z 2
loop_
_atom_type_symbol
_atom_type_radius_bond
C 0.68
H 0.23
N 0.68
O 0.68
loop_
_atom_site_label
_atom_site_type_symbol
_atom_site_fract_x
_atom_site_fract_y
_atom_site_fract_z
O1 O 0.5135(3) 0.69500 0.6650(2)
O2 O 0.6741(2) 0.9191(1) 0.5430(1)
O3 O 0.3754(3) 1.0844(1) 0.4596(1)
O4 O 0.4728(4) 1.2995(2) 0.6715(2)
O5 O 0.3341(2) 0.9264(1) 0.6579(1)
O6 O 0.4885(2) 0.8953(1) 0.8409(1)
N1 N 0.5940(3) 0.7640(2) 0.6330(2)
N2 N 0.4398(3) 1.0519(2) 0.6177(2)
N3 N 0.4112(3) 1.1909(2) 0.5692(2)
C1 C 0.6099(3) 0.8250(2) 0.9843(2)
C2 C 0.5889(4) 0.9799(2) 0.9722(2)
C3 C 0.9045(3) 0.8548(2) 0.6197(2)
C4 C 0.3496(3) 0.8972(2) 0.9819(2)
C5 C 0.8939(4) 0.9339(2) 0.4607(2)
C6 C 0.4386(3) 0.9622(2) 0.5978(2)
C7 C 0.8741(3) 1.0178(2) 0.6047(2)
C8 C 0.5889(3) 0.9171(2) 0.6232(2)
C9 C 0.5661(5) 1.0219(2) 1.0579(3)
C10 C 0.8379(3) 0.9304(2) 0.5608(2)
C11 C 0.9213(3) 0.8542(2) 0.7202(2)
C12 C 0.6496(4) 0.8183(2) 1.0838(2)
C13 C 0.7975(4) 0.9390(3) 0.3776(2)
C14 C 0.4057(4) 1.1076(2) 0.5424(2)
C15 C 1.0043(4) 1.0333(2) 0.6664(2)
C16 C 0.2965(4) 0.8341(2) 1.0381(2)
C17 C 0.7493(4) 0.7569(2) 1.1202(2)
C18 C 0.9722(4) 0.7837(3) 0.7711(2)
C19 C 0.8579(5) 0.9484(3) 0.2884(3)
C20 C 0.6475(5) 1.0939(3) 1.0855(3)
C21 C 1.0404(4) 1.1150(2) 0.6953(3)
C22 C 0.5315(3) 0.8322(2) 0.6513(2)
C23 C 0.1485(4) 0.8363(3) 1.0622(3)
C24 C 0.3809(3) 0.8433(2) 0.6895(2)
C25 C 1.0044(4) 0.7117(3) 0.7226(3)
C26 C 0.8075(4) 0.7003(2) 1.0609(3)
C27 C 0.0533(4) 0.8993(3) 1.0298(3)
C28 C 0.4590(5) 1.2235(2) 0.6609(3)
C29 C 1.0090(5) 0.9524(3) 0.2835(3)
C30 C 0.9504(5) 1.1811(2) 0.6640(3)
C31 C 0.7506(5) 1.1248(2) 1.0274(3)
C32 C 0.7699(4) 0.7061(2) 0.9626(3)
C33 C 0.9863(4) 0.7104(2) 0.6236(3)
C34 C 0.5067(3) 0.8971(2) 0.9459(2)
C35 C 0.4860(5) 1.1605(2) 0.7343(2)
C36 C 1.1074(5) 0.9451(3) 0.3657(3)
C37 C 0.7721(4) 1.0858(2) 0.9412(3)
C38 C 0.8231(4) 1.1669(2) 0.6012(3)
C39 C 0.3781(3) 0.8379(2) 0.7969(2)
C40 C 0.1041(4) 0.9623(3) 0.9746(3)
C41 C 1.0483(4) 0.9369(3) 0.4543(2)
C42 C 0.9389(4) 0.7818(2) 0.5722(2)
C43 C 0.4753(4) 1.0799(2) 0.7118(2)
C44 C 0.6716(4) 0.7691(2) 0.9243(2)
C45 C 0.6941(4) 1.0116(2) 0.9157(2)
C46 C 0.7861(4) 1.0852(2) 0.5717(2)
C47 C 0.2510(4) 0.9616(2) 0.9510(3)
H1 H 0.565(6) 0.651(4) 0.647(3)
H2 H 0.413(3) 0.956(2) 0.524(2)
H3 H 0.638(3) 0.944(2) 0.684(2)
H4 H 0.483(4) 0.999(3) 1.108(3)
H5 H 0.896(3) 0.907(2) 0.753(2)
H6 H 0.605(3) 0.855(2) 1.126(2)
H7 H 0.689(4) 0.941(2) 0.376(2)
H8 H 1.073(3) 0.986(2) 0.686(2)
H9 H 0.356(3) 0.788(2) 1.063(2)
H10 H 0.390(4) 1.229(2) 0.520(2)
H11 H 0.768(4) 0.758(2) 1.188(2)
H12 H 0.980(4) 0.781(2) 0.847(2)
H13 H 0.792(4) 0.956(3) 0.238(2)
H14 H 1.144(4) 1.122(2) 0.734(2)
H15 H 0.121(4) 0.793(2) 1.102(7)
H16 H 0.624(5) 1.124(3) 1.149(3)
H17 H 1.030(4) 0.659(3) 0.761(3)
H18 H 0.880(4) 0.659(2) 1.088(2)
H19 H -0.055(4) 0.896(2) 1.049(2)
H20 H 1.050(4) 0.959(3) 0.227(3)
H21 H 0.978(4) 1.238(2) 0.683(2)
H22 H 0.810(5) 1.179(3) 1.052(3)
H23 H 0.312(3) 0.802(2) 0.660(2)
H24 H 1.008(4) 0.660(3) 0.580(3)
H25 H 0.521(4) 1.176(2) 0.799(2)
H26 H 1.227(5) 0.963(3) 0.351(3)
H27 H 0.846(4) 1.107(2) 0.900(2)
H28 H 0.754(4) 1.212(2) 0.572(2)
H29 H 0.030(4) 1.011(3) 0.949(2)
H30 H 0.806(3) 0.671(2) 0.917(2)
H31 H 0.924(3) 0.783(2) 0.501(2)
H32 H 0.494(3) 1.032(2) 0.756(2)
H33 H 0.653(3) 0.775(2) 0.850(2)
H34 H 0.713(3) 0.978(2) 0.858(2)
H35 H 0.712(3) 1.076(2) 0.525(2)
H36 H 0.293(4) 1.008(2) 0.916(2)
H37 H 1.126(4) 0.933(3) 0.514(3)
H38 H 0.410(3) 0.779(2) 0.818(2)
H39 H 0.270(3) 0.855(2) 0.814(2)
#END
