
#######################################################################
#
#                 Cambridge Crystallographic Data Centre
#                                CCDC
#
#######################################################################
#
# If this CIF has been generated from an entry in the Cambridge
# Structural Database, then it will include bibliographic, chemical,
# crystal, experimental, refinement or atomic coordinate data resulting
# from the CCDC's data processing and validation procedures.
#
#######################################################################

data_CSD_CIF_YEFFAR
_audit_creation_date 2006-04-19
_audit_creation_method CSD-ConQuest-V1
_database_code_CSD YEFFAR
_database_code_depnum_ccdc_archive 'CCDC 298471'
_chemical_formula_sum 'C14 H12 N4 O5'
_chemical_formula_moiety
;
C14 H12 N4 O5
;
_journal_coeditor_code "IUCr IS2002"
_journal_coden_Cambridge 1370
_journal_volume 62
_journal_year 2006
_journal_page_first o862
_journal_name_full 'Acta Crystallogr.,Sect.E:Struct.Rep.Online '
loop_
_publ_author_name
"Zuo-Liang Jing"
"Yu Liu"
"Xin Chen"
"Yu Ming"
_chemical_name_systematic
;
N-(2,4-Dinitrophenyl)-N'-(4-methoxybenzylidene)hydrazine
;
_cell_volume   1407.527
_exptl_crystal_colour 'red'
_exptl_crystal_density_diffrn 1.492
_exptl_crystal_description 'block'
_exptl_crystal_preparation 'DMF'
_diffrn_ambient_temperature 294
#These two values have been output from a single CSD field.
_refine_ls_R_factor_gt 0.0335
_refine_ls_wR_factor_gt 0.0335
_symmetry_cell_setting monoclinic
_symmetry_space_group_name_H-M 'P 21/n'
_symmetry_Int_Tables_number 14
loop_
_symmetry_equiv_pos_site_id
_symmetry_equiv_pos_as_xyz
1 x,y,z
2 1/2-x,1/2+y,1/2-z
3 -x,-y,-z
4 -1/2+x,-1/2-y,-1/2+z
_cell_length_a 6.189(2)
_cell_length_b 8.581(3)
_cell_length_c 26.669(11)
_cell_angle_alpha 90
_cell_angle_beta 96.392(5)
_cell_angle_gamma 90
_cell_formula_units_Z 4
loop_
_atom_type_symbol
_atom_type_radius_bond
C 0.68
H 0.23
N 0.68
O 0.68
loop_
_atom_site_label
_atom_site_type_symbol
_atom_site_fract_x
_atom_site_fract_y
_atom_site_fract_z
O1 O 0.3423(2) 0.45260(16) 0.24373(4)
O2 O 0.0374(2) 0.57267(15) 0.24395(4)
O3 O -0.21341(15) 0.91196(13) 0.11194(4)
O4 O -0.05330(15) 0.93642(13) 0.04464(4)
O5 O 1.16761(16) 0.67880(13) -0.15044(4)
N1 N 0.2021(2) 0.54176(16) 0.22460(5)
N2 N -0.06467(17) 0.88067(13) 0.08692(4)
N3 N 0.31318(19) 0.79195(15) 0.03573(4)
H1 H 0.218(3) 0.856(2) 0.0209(6)
N4 N 0.49046(17) 0.74551(14) 0.01246(4)
C1 C 0.4396(2) 0.63427(17) 0.10686(5)
H2 H 0.56170 0.60760 0.09140
C2 C 0.4153(2) 0.57340(18) 0.15287(6)
H3 H 0.51990 0.50630 0.16850
C3 C 0.2329(2) 0.61192(16) 0.17645(5)
C4 C 0.0793(2) 0.71209(16) 0.15458(5)
H4 H -0.04090 0.73780 0.17090
C5 C 0.1041(2) 0.77512(15) 0.10779(5)
C6 C 0.2851(2) 0.73685(15) 0.08180(5)
C7 C 0.4991(2) 0.80444(17) -0.03114(5)
H5 H 0.38980 0.87270 -0.04390
C8 C 0.6728(2) 0.76941(16) -0.06176(5)
C9 C 0.8453(2) 0.66906(16) -0.04617(5)
H6 H 0.85090 0.62030 -0.01490
C10 C 1.0061(2) 0.64189(17) -0.07647(5)
H7 H 1.11990 0.57480 -0.06570
C11 C 1.0002(2) 0.71415(16) -0.12336(5)
C12 C 0.8303(2) 0.81308(17) -0.13959(5)
H8 H 0.82450 0.86120 -0.17100
C13 C 0.6694(2) 0.83953(17) -0.10867(5)
H9 H 0.55540 0.90630 -0.11960
C14 C 1.1818(3) 0.7624(2) -0.19634(6)
H10 H 1.05980 0.73610 -0.22030
H11 H 1.31410 0.73470 -0.20980
H12 H 1.18110 0.87230 -0.18970
#END
