
#######################################################################
#
#                 Cambridge Crystallographic Data Centre
#                                CCDC
#
#######################################################################
#
# If this CIF has been generated from an entry in the Cambridge
# Structural Database, then it will include bibliographic, chemical,
# crystal, experimental, refinement or atomic coordinate data resulting
# from the CCDC's data processing and validation procedures.
#
#######################################################################

data_CSD_CIF_YEFTEL
_audit_creation_date 2017-09-15
_audit_creation_method CSD-ConQuest-V1
_database_code_CSD YEFTEL
_database_code_depnum_ccdc_archive 'CCDC 1507713'
_chemical_formula_sum 'C34 H37 N5 O6'
_chemical_formula_moiety
;
C34 H37 N5 O6
;
_journal_coden_Cambridge 440
_journal_volume 41
_journal_year 2017
_journal_page_first 11766
_journal_name_full 'New J.Chem. '
loop_
_publ_author_name
"M.Ferreira"
"E.Westphal"
"M.V.Ballottin"
"I.H.Bechtold"
"A.J.Bortoluzzi"
"D.Z.Mezalira"
"H.Gallardo"
_chemical_name_systematic
;
2,2'-(5-nitro-1,3-phenylene)bis{5-[4-(hexyloxy)phenyl]-1,3,4-oxadiazole}
;
_cell_volume   3189.237
_exptl_crystal_colour 'yellow'
_exptl_crystal_density_diffrn 1.274
_exptl_crystal_description 'prism'
_diffrn_ambient_temperature 293
#These two values have been output from a single CSD field.
_refine_ls_R_factor_gt 0.0702
_refine_ls_wR_factor_gt 0.0702
_symmetry_cell_setting monoclinic
_symmetry_space_group_name_H-M 'C 2/c'
_symmetry_Int_Tables_number 15
loop_
_symmetry_equiv_pos_site_id
_symmetry_equiv_pos_as_xyz
1 x,y,z
2 -x,y,1/2-z
3 1/2+x,1/2+y,z
4 1/2-x,1/2+y,1/2-z
5 -x,-y,-z
6 x,-y,-1/2+z
7 -1/2-x,-1/2-y,-z
8 -1/2+x,-1/2-y,-1/2+z
_cell_length_a 20.583(2)
_cell_length_b 10.965(1)
_cell_length_c 14.503(2)
_cell_angle_alpha 90
_cell_angle_beta 103.007(9)
_cell_angle_gamma 90
_cell_formula_units_Z 4
loop_
_atom_type_symbol
_atom_type_radius_bond
C 0.68
H 0.23
N 0.68
O 0.68
loop_
_atom_site_label
_atom_site_type_symbol
_atom_site_fract_x
_atom_site_fract_y
_atom_site_fract_z
N1 N 0.50000 0.6934(3) 0.25000
O1 O 0.54255(14) 0.7452(2) 0.21813(18)
C1 C 0.50000 0.5589(4) 0.25000
C2 C 0.51978(15) 0.4983(3) 0.17709(19)
H1 H 0.53320 0.54130 0.12930
C3 C 0.51911(14) 0.3718(3) 0.17722(19)
C4 C 0.50000 0.3080(4) 0.25000
H2 H 0.50000 0.22320 0.25000
C5 C 0.53887(15) 0.3080(3) 0.09892(19)
N2 N 0.54809(15) 0.3555(2) 0.02234(18)
N3 N 0.56722(16) 0.2595(2) -0.03053(19)
C6 C 0.56775(15) 0.1620(3) 0.0195(2)
O2 O 0.55015(10) 0.18553(17) 0.10370(13)
C7 C 0.58615(15) 0.0398(3) -0.0025(2)
C8 C 0.60099(17) 0.0185(3) -0.0908(2)
H3 H 0.59640 0.08120 -0.13500
C9 C 0.62236(18) -0.0946(3) -0.1125(2)
H4 H 0.63210 -0.10790 -0.17130
C10 C 0.62955(16) -0.1891(3) -0.0472(2)
C11 C 0.61210(17) -0.1705(3) 0.0393(2)
H5 H 0.61480 -0.23420 0.08230
C12 C 0.59079(16) -0.0564(3) 0.0605(2)
H6 H 0.57930 -0.04400 0.11820
O3 O 0.65381(14) -0.2947(2) -0.07433(18)
C13 C 0.6696(2) -0.3933(3) -0.0066(3)
H7 H 0.62900 -0.43080 0.00340
H8 H 0.69500 -0.36300 0.05360
C14 C 0.7112(3) -0.4869(4) -0.0488(4)
H9 H 0.75000 -0.44660 -0.06190
H10 H 0.72660 -0.55070 -0.00270
C15 C 0.6727(3) -0.5414(4) -0.1355(4)
H11 H 0.65200 -0.47710 -0.17800
H12 H 0.63750 -0.59130 -0.12060
C16 C 0.7184(4) -0.6246(6) -0.1881(5)
H13 H 0.69260 -0.64520 -0.25070
H14 H 0.75650 -0.57690 -0.19580
C17 C 0.7407(4) -0.7293(6) -0.1414(5)
H15 H 0.70360 -0.77150 -0.12430
H16 H 0.77300 -0.70980 -0.08360
C18 C 0.7733(4) -0.8136(6) -0.2036(5)
H17 H 0.78680 -0.88840 -0.17040
H18 H 0.81160 -0.77380 -0.21720
H19 H 0.74180 -0.83090 -0.26170
O1A O 0.45745(14) 0.7452(2) 0.28187(18)
C2A C 0.48022(15) 0.4983(3) 0.32291(19)
H1A H 0.46680 0.54130 0.37070
C3A C 0.48089(14) 0.3718(3) 0.32278(19)
C5A C 0.46113(15) 0.3080(3) 0.40108(19)
N2A N 0.45191(15) 0.3555(2) 0.47766(18)
N3A N 0.43278(16) 0.2595(2) 0.53053(19)
C6A C 0.43225(15) 0.1620(3) 0.4805(2)
O2A O 0.44985(10) 0.18553(17) 0.39630(13)
C7A C 0.41385(15) 0.0398(3) 0.5025(2)
C8A C 0.39901(17) 0.0185(3) 0.5908(2)
H3A H 0.40360 0.08120 0.63500
C9A C 0.37764(18) -0.0946(3) 0.6125(2)
H4A H 0.36790 -0.10790 0.67130
C10A C 0.37045(16) -0.1891(3) 0.5472(2)
C11A C 0.38790(17) -0.1705(3) 0.4607(2)
H5A H 0.38520 -0.23420 0.41770
C12A C 0.40921(16) -0.0564(3) 0.4395(2)
H6A H 0.42070 -0.04400 0.38180
O3A O 0.34619(14) -0.2947(2) 0.57433(18)
C13A C 0.3304(2) -0.3933(3) 0.5066(3)
H7A H 0.37100 -0.43080 0.49660
H8A H 0.30500 -0.36300 0.44640
C14A C 0.2888(3) -0.4869(4) 0.5488(4)
H9A H 0.25000 -0.44660 0.56190
H10A H 0.27340 -0.55070 0.50270
C15A C 0.3273(3) -0.5414(4) 0.6355(4)
H11A H 0.34800 -0.47710 0.67800
H12A H 0.36250 -0.59130 0.62060
C16A C 0.2816(4) -0.6246(6) 0.6881(5)
H13A H 0.30740 -0.64520 0.75070
H14A H 0.24350 -0.57690 0.69580
C17A C 0.2593(4) -0.7293(6) 0.6414(5)
H15A H 0.29640 -0.77150 0.62430
H16A H 0.22700 -0.70980 0.58360
C18A C 0.2267(4) -0.8136(6) 0.7036(5)
H17A H 0.21320 -0.88840 0.67040
H18A H 0.18840 -0.77380 0.71720
H19A H 0.25820 -0.83090 0.76170
#END
