
#######################################################################
#
#                 Cambridge Crystallographic Data Centre
#                                CCDC
#
#######################################################################
#
# If this CIF has been generated from an entry in the Cambridge
# Structural Database, then it will include bibliographic, chemical,
# crystal, experimental, refinement or atomic coordinate data resulting
# from the CCDC's data processing and validation procedures.
#
#######################################################################

data_CSD_CIF_YEGFOF
_audit_creation_date 1995-01-30
_audit_creation_method CSD-ConQuest-V1
_database_code_CSD YEGFOF
_chemical_formula_sum 'C13 H12 N4 O8'
_chemical_formula_moiety
;
C13 H12 N4 O8
;
_journal_coden_Cambridge 154
_journal_volume 47
_journal_year 1994
_journal_page_first 1211
_journal_name_full 'Aust.J.Chem. '
loop_
_publ_author_name
"J.L.Calvert"
"L.Eberson"
"M.P.Hartshorn"
"R.G.A.R.Maclagan"
"W.T.Robinson"
_chemical_name_systematic
;
1,3-Dimethyl-9,9,13-trinitro-10-aza-11,14-dioxatetracyclo(6.3.2.1^10,12^.0^2,7
^)tetradeca-2,4,6-triene
;
_chemical_melting_point ?
_cell_volume   2732.373
_exptl_crystal_colour 'colorless'
_exptl_crystal_density_diffrn 1.713
_exptl_special_details
;
Sublimes at 453.15K

;
_diffrn_ambient_temperature 110
#These two values have been output from a single CSD field.
_refine_ls_R_factor_gt 0.0289
_refine_ls_wR_factor_gt 0.0289
_symmetry_cell_setting monoclinic
_symmetry_space_group_name_H-M 'C 2/c'
_symmetry_Int_Tables_number 15
loop_
_symmetry_equiv_pos_site_id
_symmetry_equiv_pos_as_xyz
1 x,y,z
2 1/2+x,1/2+y,z
3 -x,y,1/2-z
4 1/2-x,1/2+y,1/2-z
5 -x,-y,-z
6 -1/2-x,-1/2-y,-z
7 x,-y,-1/2+z
8 -1/2+x,-1/2-y,-1/2+z
_cell_length_a 15.980(3)
_cell_length_b 6.864(1)
_cell_length_c 25.912(5)
_cell_angle_alpha 90
_cell_angle_beta 105.98(3)
_cell_angle_gamma 90
_cell_formula_units_Z 8
loop_
_atom_type_symbol
_atom_type_radius_bond
C 0.68
H 0.23
N 0.68
O 0.68
loop_
_atom_site_label
_atom_site_type_symbol
_atom_site_fract_x
_atom_site_fract_y
_atom_site_fract_z
O1 O 0.0821(1) -0.3377(3) 0.6128(1)
O2 O 0.1954(1) -0.4048(3) 0.5865(1)
O3 O 0.4074(1) 0.1740(3) 0.6295(1)
O4 O 0.3515(1) 0.4055(3) 0.6652(1)
O5 O 0.4008(1) -0.1799(3) 0.7159(1)
O6 O 0.4188(1) 0.0903(3) 0.7598(1)
O7 O 0.2169(1) 0.0280(3) 0.7271(1)
O8 O 0.1879(1) 0.2747(3) 0.6705(1)
N1 N 0.1590(2) -0.3213(3) 0.6155(1)
N2 N 0.3607(2) 0.2368(4) 0.6554(1)
N3 N 0.3840(1) -0.0119(4) 0.7219(1)
N4 N 0.2576(1) 0.1811(3) 0.7070(1)
C1 C 0.1234(2) 0.1243(4) 0.6446(1)
C2 C 0.1574(2) -0.0554(4) 0.6800(1)
C3 C 0.2121(2) -0.1913(4) 0.6580(1)
C4 C 0.2695(2) -0.0624(4) 0.6341(1)
C5 C 0.2314(2) 0.0139(4) 0.5367(1)
C6 C 0.1742(2) 0.0835(4) 0.4909(1)
C7 C 0.0979(2) 0.1655(4) 0.4935(1)
C8 C 0.0738(2) 0.1818(4) 0.5410(1)
C9 C 0.1319(2) 0.1102(4) 0.5874(1)
C10 C 0.2106(2) 0.0291(4) 0.5844(1)
C11 C 0.0388(2) 0.1882(4) 0.6538(1)
C12 C -0.0114(2) 0.2807(4) 0.5372(1)
C13 C 0.3119(2) 0.0837(4) 0.6774(1)
H1 H 0.1098(2) -0.1248(4) 0.6892(1)
H2 H 0.2486(2) -0.2701(4) 0.6871(1)
H3 H 0.3142(2) -0.1413(4) 0.6246(1)
H4 H 0.2836(2) -0.0429(4) 0.5354(1)
H5 H 0.1874(2) 0.0747(4) 0.4582(1)
H6 H 0.0600(2) 0.2129(4) 0.4620(1)
H7 H -0.0069(2) 0.1021(4) 0.6351(1)
H8 H 0.0257(2) 0.3186(4) 0.6406(1)
H9 H 0.0435(2) 0.1848(4) 0.6915(1)
H10 H -0.0413(2) 0.3036(4) 0.5001(1)
H11 H -0.0009(2) 0.4027(4) 0.5560(1)
H12 H -0.0464(2) 0.1990(4) 0.5530(1)
#END
