
#######################################################################
#
#                 Cambridge Crystallographic Data Centre
#                                CCDC
#
#######################################################################
#
# If this CIF has been generated from an entry in the Cambridge
# Structural Database, then it will include bibliographic, chemical,
# crystal, experimental, refinement or atomic coordinate data resulting
# from the CCDC's data processing and validation procedures.
#
#######################################################################

data_CSD_CIF_YEHDOF
_audit_creation_date 2006-09-07
_audit_creation_method CSD-ConQuest-V1
_database_code_CSD YEHDOF
_database_code_depnum_ccdc_archive 'CCDC 267108'
_chemical_formula_sum 'C19 H21 N1 O4'
_chemical_formula_moiety
;
C19 H21 N1 O4
;
_journal_coden_Cambridge 182
_journal_year 2006
_journal_page_first 2048
_journal_name_full 'Chem.Commun. '
loop_
_publ_author_name
"N.Marion"
"P.de Fremont"
"G.Lemiere"
"E.D.Stevens"
"L.Fensterbank"
"M.Malacria"
"S.P.Nolan"
_chemical_name_systematic
;
1-(2,2-Dimethylbut-3-enyl)bicyclo(3.1.0)hex-2-en-2-yl 4-nitrobenzoate
;
_cell_volume    846.633
_exptl_crystal_colour 'colorless'
_exptl_crystal_density_diffrn 1.284
_exptl_crystal_description 'Needle'
_diffrn_ambient_temperature 273
#These two values have been output from a single CSD field.
_refine_ls_R_factor_gt 0.0548
_refine_ls_wR_factor_gt 0.0548
_symmetry_cell_setting triclinic
_symmetry_space_group_name_H-M 'P -1'
_symmetry_Int_Tables_number 2
loop_
_symmetry_equiv_pos_site_id
_symmetry_equiv_pos_as_xyz
1 x,y,z
2 -x,-y,-z
_cell_length_a 7.1943(15)
_cell_length_b 8.7559(18)
_cell_length_c 13.875(3)
_cell_angle_alpha 82.241(4)
_cell_angle_beta 81.536(4)
_cell_angle_gamma 80.279(4)
_cell_formula_units_Z 2
loop_
_atom_type_symbol
_atom_type_radius_bond
C 0.68
H 0.23
N 0.68
O 0.68
loop_
_atom_site_label
_atom_site_type_symbol
_atom_site_fract_x
_atom_site_fract_y
_atom_site_fract_z
O1 O 0.3973(4) 0.5482(4) 0.7894(2)
O2 O 0.1878(6) 0.5122(4) 0.6908(2)
C1 C 0.8228(8) 0.2798(6) 0.5327(4)
O3 O 0.9530(5) 0.1192(5) 0.4100(3)
O4 O 1.1449(6) 0.2271(4) 0.4771(3)
N1 N 0.9850(7) 0.2023(5) 0.4686(3)
C2 C 0.5176(8) 0.4222(6) 0.6494(4)
C3 C 0.3427(6) 0.7195(6) 0.9185(3)
C4 C 0.8550(9) 0.3699(6) 0.5990(4)
H1 H 0.977(7) 0.392(5) 0.610(3)
C5 C 0.7023(8) 0.4426(6) 0.6581(4)
H2 H 0.728(6) 0.495(5) 0.707(4)
C6 C 0.4905(10) 0.3301(6) 0.5802(4)
H3 H 0.364(6) 0.327(4) 0.576(3)
C7 C 0.3473(9) 0.4979(5) 0.7092(4)
C8 C 0.6423(8) 0.2564(7) 0.5223(4)
H4 H 0.629(6) 0.191(5) 0.478(3)
C9 C 0.2612(8) 0.6333(6) 0.8545(4)
C10 C 0.1692(8) 0.7795(8) 0.9871(4)
H5 H 0.163(6) 0.874(6) 1.012(3)
C11 C 0.5065(8) 0.8080(7) 0.8815(4)
H6 H 0.543(5) 0.848(5) 0.935(3)
H7 H 0.622(6) 0.732(5) 0.855(3)
C12 C 0.3136(8) 0.6476(7) 1.0249(4)
H8 H 0.400(6) 0.679(5) 1.069(3)
H9 H 0.264(8) 0.530(7) 1.032(4)
C13 C 0.4536(10) 0.8915(9) 0.7036(4)
H10 H 0.575(7) 0.804(5) 0.684(3)
H11 H 0.329(7) 0.854(5) 0.711(3)
H12 H 0.445(5) 0.979(5) 0.657(3)
C14 C -0.0027(9) 0.7387(8) 0.9523(5)
H13 H -0.088(7) 0.835(6) 0.935(4)
H14 H -0.082(8) 0.694(6) 1.007(5)
C15 C 0.4804(7) 0.9480(5) 0.7994(3)
C16 C 0.6664(8) 1.0173(8) 0.7836(5)
H15 H 0.691(5) 1.068(5) 0.855(3)
H16 H 0.783(6) 0.935(5) 0.769(3)
H17 H 0.673(6) 1.104(6) 0.731(4)
C17 C 0.3197(8) 1.0683(6) 0.8348(5)
H18 H 0.352(6) 1.111(6) 0.893(4)
C18 C 0.1652(10) 1.1268(8) 0.7930(5)
H19 H 0.070(7) 1.205(6) 0.821(4)
H20 H 0.134(6) 1.075(5) 0.738(4)
C19 C 0.0731(8) 0.6385(6) 0.8726(4)
H21 H -0.010(6) 0.565(5) 0.838(3)
#END
