
#######################################################################
#
#                 Cambridge Crystallographic Data Centre
#                                CCDC
#
#######################################################################
#
# If this CIF has been generated from an entry in the Cambridge
# Structural Database, then it will include bibliographic, chemical,
# crystal, experimental, refinement or atomic coordinate data resulting
# from the CCDC's data processing and validation procedures.
#
#######################################################################

data_CSD_CIF_YEHTEM
_audit_creation_date 2012-12-31
_audit_creation_method CSD-ConQuest-V1
_database_code_CSD YEHTEM
_database_code_depnum_ccdc_archive 'CCDC 903227'
_database_code_depnum_ccdc_journal 1267/3754
_chemical_formula_sum 'C15 H12 N2 O2'
_chemical_formula_moiety
;
C15 H12 N2 O2
;
_journal_coden_Cambridge 1267
_journal_volume 227
_journal_year 2012
_journal_page_first 291
_journal_name_full 'Z.Kristallogr.-New Cryst.Struct. '
loop_
_publ_author_name
"Mei Meng"
"Huang Fang"
"Gang Chen"
_chemical_name_systematic
;
3-(N-oxido-N-benzylimino)-1,3-dihydro-2H-indol-2-one
;
_cell_volume   1227.957
_exptl_crystal_colour 'yellow'
_exptl_crystal_density_diffrn 1.365
_exptl_crystal_description 'block'
_diffrn_ambient_temperature 296
#These two values have been output from a single CSD field.
_refine_ls_R_factor_gt 0.0477
_refine_ls_wR_factor_gt 0.0477
_symmetry_cell_setting monoclinic
_symmetry_space_group_name_H-M 'P 21/n'
_symmetry_Int_Tables_number 14
loop_
_symmetry_equiv_pos_site_id
_symmetry_equiv_pos_as_xyz
1 x,y,z
2 1/2-x,1/2+y,1/2-z
3 -x,-y,-z
4 -1/2+x,-1/2-y,-1/2+z
_cell_length_a 12.343(4)
_cell_length_b 8.172(3)
_cell_length_c 13.375(5)
_cell_angle_alpha 90
_cell_angle_beta 114.466(4)
_cell_angle_gamma 90
_cell_formula_units_Z 4
loop_
_atom_type_symbol
_atom_type_radius_bond
C 0.68
H 0.23
N 0.68
O 0.68
loop_
_atom_site_label
_atom_site_type_symbol
_atom_site_fract_x
_atom_site_fract_y
_atom_site_fract_z
C1 C 0.2857(2) 0.8214(3) 0.8531(2)
H1 H 0.21410 0.84370 0.79350
C2 C 0.3692(3) 0.7247(3) 0.8388(3)
H2 H 0.35400 0.68220 0.76980
C3 C 0.4728(3) 0.6911(4) 0.9241(3)
H3 H 0.52860 0.62490 0.91370
C4 C 0.4970(2) 0.7532(4) 1.0258(3)
H4 H 0.56900 0.72990 1.08450
C5 C 0.4127(2) 0.8522(3) 1.0410(2)
H5 H 0.42870 0.89550 1.11010
C6 C 0.30681(18) 0.8856(2) 0.95475(17)
C7 C 0.21339(18) 0.9900(3) 0.96814(18)
H6 H 0.25140 1.08100 1.01660
H7 H 0.16070 1.03430 0.89730
C8 C 0.04011(16) 0.8252(2) 0.95461(15)
C9 C -0.02491(18) 0.8393(3) 0.83209(16)
C10 C -0.13148(18) 0.6805(3) 0.89968(17)
C11 C -0.2202(2) 0.5852(3) 0.9050(2)
H8 H -0.28680 0.55670 0.84210
C12 C -0.2068(2) 0.5331(3) 1.0078(2)
H9 H -0.26560 0.46830 1.01410
C13 C -0.1083(2) 0.5750(3) 1.1011(2)
H10 H -0.10160 0.53740 1.16910
C14 C -0.01904(19) 0.6720(3) 1.09565(17)
H11 H 0.04720 0.70030 1.15890
C15 C -0.03108(17) 0.7258(2) 0.99328(16)
N1 N 0.14246(14) 0.89317(19) 1.01461(13)
N2 N -0.12400(15) 0.7475(2) 0.80709(14)
H12 H -0.17660 0.73220 0.74120
O1 O 0.18933(12) 0.87867(19) 1.1194(1)
O2 O 0.00126(14) 0.9153(2) 0.76707(12)
#END
