
#######################################################################
#
#                 Cambridge Crystallographic Data Centre
#                                CCDC
#
#######################################################################
#
# If this CIF has been generated from an entry in the Cambridge
# Structural Database, then it will include bibliographic, chemical,
# crystal, experimental, refinement or atomic coordinate data resulting
# from the CCDC's data processing and validation procedures.
#
#######################################################################

data_CSD_CIF_YEJFAW
_audit_creation_date 2012-12-31
_audit_creation_method CSD-ConQuest-V1
_database_code_CSD YEJFAW
_database_code_depnum_ccdc_archive 'CCDC 903211'
_database_code_depnum_ccdc_journal 1267/3761
_chemical_formula_sum 'C17 H17 N1 O9'
_chemical_formula_moiety
;
C17 H17 N1 O9
;
_journal_coden_Cambridge 1267
_journal_volume 227
_journal_year 2012
_journal_page_first 297
_journal_name_full 'Z.Kristallogr.-New Cryst.Struct. '
loop_
_publ_author_name
"Lin-Lin Jing"
"Hui-Ping Ma"
"Qian Li"
"Lei He"
"Zheng-Ping Jia"
_chemical_name_systematic
;
(1S,4S,5S,8R)-8-Nitrooxy-2,6-dioxabicyclo[3.3.0]octan-4-yl 
3-(4-acetoxyphenyl)acrylate
;
_chemical_name_common
;
6-(Nitrooxy)hexahydrofuro[3,2-b]furan-3-yl 3-(4-acetoxyphenyl)acrylate
;
_cell_volume   1776.627
_exptl_crystal_colour 'colorless'
_exptl_crystal_density_diffrn 1.418
_exptl_crystal_description 'block'
_diffrn_ambient_temperature 296
_refine_special_details
;
O9B and O9A disordered over two sites with occupancies 0.60:0.40.

;
#These two values have been output from a single CSD field.
_refine_ls_R_factor_gt 0.0636
_refine_ls_wR_factor_gt 0.0636
_symmetry_cell_setting orthorhombic
_symmetry_space_group_name_H-M 'P 21 21 21'
_symmetry_Int_Tables_number 19
loop_
_symmetry_equiv_pos_site_id
_symmetry_equiv_pos_as_xyz
1 x,y,z
2 1/2-x,-y,1/2+z
3 -x,1/2+y,1/2-z
4 1/2+x,1/2-y,-z
_cell_length_a 5.386(3)
_cell_length_b 10.682(6)
_cell_length_c 30.880(17)
_cell_angle_alpha 90
_cell_angle_beta 90
_cell_angle_gamma 90
_cell_formula_units_Z 4
loop_
_atom_type_symbol
_atom_type_radius_bond
C 0.68
H 0.23
N 0.68
O 0.68
loop_
_atom_site_label
_atom_site_type_symbol
_atom_site_fract_x
_atom_site_fract_y
_atom_site_fract_z
C1 C 0.2508(8) 0.0576(4) 0.23778(14)
H1 H 0.09980 0.04830 0.25520
C2 C 0.4678(9) 0.1044(4) 0.26420(14)
H2 H 0.41330 0.16390 0.28590
H3 H 0.55210 0.03560 0.27850
C3 C 0.4707(8) 0.2282(4) 0.20371(12)
H4 H 0.44880 0.31610 0.21200
C4 C 0.2234(8) 0.1579(4) 0.20263(14)
H5 H 0.08730 0.21480 0.21000
C5 C 0.4299(9) 0.1077(4) 0.14001(14)
H6 H 0.41390 0.11530 0.10880
H7 H 0.51300 0.02930 0.14650
C6 C 0.5747(9) 0.2153(4) 0.15785(12)
H8 H 0.75320 0.19760 0.15820
C7 C 0.6665(10) 0.4275(5) 0.14020(14)
C8 C 0.5983(10) 0.5317(4) 0.11264(13)
H9 H 0.46130 0.52400 0.09450
C9 C 0.7249(10) 0.6366(4) 0.11259(13)
H10 H 0.85340 0.64260 0.13260
C10 C 0.6861(10) 0.7465(4) 0.08422(12)
C11 C 0.8534(10) 0.8439(5) 0.08424(16)
H11 H 0.98190 0.84390 0.10440
C12 C 0.8355(14) 0.9410(6) 0.05537(19)
H12 H 0.95370 1.00440 0.05510
C13 C 0.6426(16) 0.9428(6) 0.0272(2)
C14 C 0.4694(13) 0.8509(5) 0.02685(19)
H13 H 0.33890 0.85390 0.00720
C15 C 0.4872(12) 0.7532(5) 0.05567(15)
H14 H 0.36570 0.69130 0.05600
C16 C 0.507(2) 1.1030(7) -0.0171(3)
C17 C 0.5171(15) 1.1872(6) -0.05275(18)
H15 H 0.65220 1.24460 -0.04870
H16 H 0.36400 1.23290 -0.05460
H17 H 0.54200 1.14080 -0.07900
N1 N 0.1368(11) -0.1305(4) 0.20082(16)
O1 O 0.3305(6) -0.0594(3) 0.21891(9)
O2 O 0.2151(10) -0.2122(4) 0.17702(13)
O3 O -0.0712(8) -0.1084(4) 0.21111(17)
O4 O 0.6261(5) 0.1629(3) 0.23342(8)
O5 O 0.1904(6) 0.1109(3) 0.16008(9)
O6 O 0.8325(7) 0.4256(3) 0.16655(10)
O7 O 0.5192(6) 0.3277(3) 0.13318(9)
O8 O 0.6741(12) 1.0258(5) -0.0124(2)
O9 O 0.336(3) 1.1180(11) 0.0105(5)
O10? O 0.513(5) 1.0788(18) 0.0181(4)
#END
