
#######################################################################
#
#                 Cambridge Crystallographic Data Centre
#                                CCDC
#
#######################################################################
#
# If this CIF has been generated from an entry in the Cambridge
# Structural Database, then it will include bibliographic, chemical,
# crystal, experimental, refinement or atomic coordinate data resulting
# from the CCDC's data processing and validation procedures.
#
#######################################################################

data_CSD_CIF_YEJFIE
_audit_creation_date 2012-12-31
_audit_creation_method CSD-ConQuest-V1
_database_code_CSD YEJFIE
_database_code_depnum_ccdc_archive 'CCDC 903213'
_database_code_depnum_ccdc_journal 1267/3763
_chemical_formula_sum 'C15 H15 N1 O9'
_chemical_formula_moiety
;
C15 H15 N1 O9
;
_journal_coden_Cambridge 1267
_journal_volume 227
_journal_year 2012
_journal_page_first 301
_journal_name_full 'Z.Kristallogr.-New Cryst.Struct. '
loop_
_publ_author_name
"Lin-Lin Jing"
"Juan Yao"
"Lei He"
"Hui-Ping Ma"
"Zhen-Ping Jia"
_chemical_name_systematic
;
(1S,4S,5S,8R)-8-Nitrooxy-2,6-dioxabicyclo[3.3.0]octan-4-yl 4-acetoxybenzoate
;
_chemical_name_common
;
6-(Nitrooxy)hexahydrofuro[3,2-b]furan-3-yl 4-acetoxybenzoate
;
_cell_volume    816.804
_exptl_crystal_colour 'colorless'
_exptl_crystal_density_diffrn 1.436
_exptl_crystal_description 'block'
_diffrn_ambient_temperature 296
#These two values have been output from a single CSD field.
_refine_ls_R_factor_gt 0.0614
_refine_ls_wR_factor_gt 0.0614
_symmetry_cell_setting monoclinic
_symmetry_space_group_name_H-M 'P 21'
_symmetry_Int_Tables_number 4
loop_
_symmetry_equiv_pos_site_id
_symmetry_equiv_pos_as_xyz
1 x,y,z
2 -x,1/2+y,-z
_cell_length_a 9.554(5)
_cell_length_b 6.503(3)
_cell_length_c 13.312(6)
_cell_angle_alpha 90
_cell_angle_beta 99.037(5)
_cell_angle_gamma 90
_cell_formula_units_Z 2
loop_
_atom_type_symbol
_atom_type_radius_bond
C 0.68
H 0.23
N 0.68
O 0.68
loop_
_atom_site_label
_atom_site_type_symbol
_atom_site_fract_x
_atom_site_fract_y
_atom_site_fract_z
C1 C 0.2227(8) 0.4766(12) -0.1627(5)
H1 H 0.26810 0.41720 -0.21710
C2 C 0.2717(10) 0.6892(14) -0.1393(6)
H2 H 0.33370 0.72970 -0.18700
H3 H 0.19030 0.78020 -0.14930
C3 C 0.3508(6) 0.5286(9) 0.0066(4)
H4 H 0.45050 0.49090 0.02700
C4 C 0.2703(6) 0.3637(9) -0.0595(4)
H5 H 0.33300 0.24830 -0.06870
C5 C 0.1335(5) 0.4468(12) 0.0601(4)
H6 H 0.09600 0.38150 0.11580
H7 H 0.06600 0.54890 0.02940
C6 C 0.2743(5) 0.5446(9) 0.0976(4)
H8 H 0.26370 0.68800 0.11770
C7 C 0.4563(5) 0.5119(10) 0.2383(4)
C8 C 0.5268(5) 0.3761(9) 0.3191(4)
C9 C 0.6493(5) 0.4467(9) 0.3809(4)
H9 H 0.68260 0.57860 0.37160
C10 C 0.7210(5) 0.3223(10) 0.4555(4)
H10 H 0.80220 0.36910 0.49690
C11 C 0.6708(6) 0.1298(9) 0.4674(4)
C12 C 0.5522(5) 0.0541(9) 0.4090(4)
H11 H 0.52070 -0.07840 0.41930
C13 C 0.4802(6) 0.1775(9) 0.3346(4)
H12 H 0.39920 0.12770 0.29390
C14 C 0.8480(5) -0.1108(8) 0.5305(4)
C15 C 0.9120(6) -0.2227(11) 0.6241(4)
H13 H 0.95470 -0.34780 0.60540
H14 H 0.83960 -0.25460 0.66410
H15 H 0.98290 -0.13790 0.66300
N1 N 0.0145(9) 0.3046(14) -0.2288(5)
O1 O -0.1072(7) 0.3135(16) -0.2529(6)
O2 O 0.0928(10) 0.1631(12) -0.2326(5)
O3 O 0.3371(6) 0.7134(8) -0.0498(4)
O4 O 0.1589(4) 0.2981(7) -0.0132(3)
O5 O 0.3451(3) 0.4231(6) 0.1806(2)
O6 O 0.4945(5) 0.6833(7) 0.2238(3)
O7 O 0.7394(4) 0.0081(7) 0.5482(3)
O8 O 0.8834(4) -0.1227(7) 0.4500(3)
O9 O 0.0754(4) 0.4867(7) -0.1910(3)
#END
