
#######################################################################
#
#                 Cambridge Crystallographic Data Centre
#                                CCDC
#
#######################################################################
#
# If this CIF has been generated from an entry in the Cambridge
# Structural Database, then it will include bibliographic, chemical,
# crystal, experimental, refinement or atomic coordinate data resulting
# from the CCDC's data processing and validation procedures.
#
#######################################################################

data_CSD_CIF_YEJJEF01
_audit_creation_date 2017-09-20
_audit_creation_method CSD-ConQuest-V1
_database_code_CSD YEJJEF01
_database_code_depnum_ccdc_archive 'CCDC 1575564'
_chemical_formula_sum 'C15 H11 N1 O3'
_chemical_formula_moiety
;
C15 H11 N1 O3
;
_journal_coden_Cambridge 1078
_journal_year 2017
_journal_name_full 'CSD Communication(Private Communication) '
loop_
_publ_author_name
"W.Clegg"
"A.J.Scott"
_chemical_name_systematic
;
1-methoxy-4-[(4-nitrophenyl)ethynyl]benzene
;
_cell_volume   1222.724
_exptl_crystal_colour 'yellow'
_exptl_crystal_density_diffrn 1.376
_exptl_special_details
;
monoclinic polymorph

;
_exptl_crystal_description 'Slab'
_exptl_crystal_preparation 'methylcyclohexane'
_diffrn_ambient_temperature 160
#These two values have been output from a single CSD field.
_refine_ls_R_factor_gt 0.0697
_refine_ls_wR_factor_gt 0.0697
_symmetry_cell_setting monoclinic
_symmetry_space_group_name_H-M 'P 21/n'
_symmetry_Int_Tables_number 14
loop_
_symmetry_equiv_pos_site_id
_symmetry_equiv_pos_as_xyz
1 x,y,z
2 1/2-x,1/2+y,1/2-z
3 -x,-y,-z
4 -1/2+x,-1/2-y,-1/2+z
_cell_length_a 14.264(2)
_cell_length_b 5.2115(7)
_cell_length_c 16.453(2)
_cell_angle_alpha 90
_cell_angle_beta 91.350(3)
_cell_angle_gamma 90
_cell_formula_units_Z 4
loop_
_atom_type_symbol
_atom_type_radius_bond
C 0.68
H 0.23
N 0.68
O 0.68
loop_
_atom_site_label
_atom_site_type_symbol
_atom_site_fract_x
_atom_site_fract_y
_atom_site_fract_z
C1 C 0.92798(16) -0.2786(5) 0.55477(13)
H1 H 0.94786 -0.11989 0.58207
H2 H 0.97675 -0.40952 0.56223
H3 H 0.86950 -0.33962 0.57820
O1 O 0.91307(10) -0.2301(3) 0.46958(8)
C2 C 0.84718(13) -0.0523(4) 0.44868(12)
C3 C 0.79644(14) 0.0905(4) 0.50431(12)
H4 H 0.80663 0.06642 0.56107
C4 C 0.73149(14) 0.2666(4) 0.47622(12)
H5 H 0.69709 0.36312 0.51439
C5 C 0.71467(13) 0.3076(4) 0.39348(12)
C6 C 0.76682(13) 0.1645(4) 0.33843(12)
H6 H 0.75709 0.18987 0.28168
C7 C 0.83185(14) -0.0121(4) 0.36552(12)
H7 H 0.86667 -0.10755 0.32739
C8 C 0.64631(14) 0.4938(4) 0.36743(12)
C9 C 0.58965(14) 0.6539(4) 0.34862(12)
C10 C 0.52228(13) 0.8513(4) 0.33049(12)
C11 C 0.46283(15) 0.9370(4) 0.39137(13)
H8 H 0.46636 0.86012 0.44370
C12 C 0.39946(14) 1.1309(4) 0.37635(12)
H9 H 0.35963 1.18958 0.41792
C13 C 0.39476(13) 1.2388(4) 0.29981(12)
C14 C 0.45122(14) 1.1564(4) 0.23771(12)
H10 H 0.44615 1.23220 0.18528
C15 C 0.51481(14) 0.9629(4) 0.25311(12)
H11 H 0.55394 0.90451 0.21099
N1 N 0.32855(11) 1.4490(3) 0.28372(11)
O2 O 0.27983(10) 1.5226(3) 0.33994(9)
O3 O 0.32517(10) 1.5433(3) 0.21565(9)
#END
