
#######################################################################
#
#                 Cambridge Crystallographic Data Centre
#                                CCDC
#
#######################################################################
#
# If this CIF has been generated from an entry in the Cambridge
# Structural Database, then it will include bibliographic, chemical,
# crystal, experimental, refinement or atomic coordinate data resulting
# from the CCDC's data processing and validation procedures.
#
#######################################################################

data_CSD_CIF_YEJLOO
_audit_creation_date 2001-10-24
_audit_creation_method CSD-ConQuest-V1
_database_code_CSD YEJLOO
_database_code_depnum_ccdc_archive 'CCDC 170190'
_chemical_formula_sum 'C12 H10 N2 O2'
_chemical_formula_moiety
;
C12 H10 N2 O2
;
_journal_coeditor_code "IUCr SK1481"
_journal_coden_Cambridge 591
_journal_volume 57
_journal_year 2001
_journal_page_first 946
_journal_name_full 'Acta Crystallogr.,Sect.C:Cryst.Struct.Commun. '
loop_
_publ_author_name
"S.A.McWilliam"
"J.M.S.Skakle"
"J.L.Wardell"
"J.N.Low"
"C.Glidewell"
_chemical_name_systematic
;
2-Nitrodiphenylamine
;
_cell_volume   1014.322
_exptl_crystal_colour 'orange'
_exptl_crystal_density_diffrn 1.403
_exptl_crystal_description 'plate'
_exptl_crystal_preparation 'ethanol'
_diffrn_ambient_temperature 150
#These two values have been output from a single CSD field.
_refine_ls_R_factor_gt 0.0456
_refine_ls_wR_factor_gt 0.0456
_symmetry_cell_setting orthorhombic
_symmetry_space_group_name_H-M 'P c a 21'
_symmetry_Int_Tables_number 29
loop_
_symmetry_equiv_pos_site_id
_symmetry_equiv_pos_as_xyz
1 x,y,z
2 -x,-y,1/2+z
3 1/2+x,-y,z
4 1/2-x,y,1/2+z
_cell_length_a 14.7077(5)
_cell_length_b 10.1602(4)
_cell_length_c 6.7878(2)
_cell_angle_alpha 90
_cell_angle_beta 90
_cell_angle_gamma 90
_cell_formula_units_Z 4
loop_
_atom_type_symbol
_atom_type_radius_bond
C 0.68
H 0.23
N 0.68
O 0.68
loop_
_atom_site_label
_atom_site_type_symbol
_atom_site_fract_x
_atom_site_fract_y
_atom_site_fract_z
C1 C 0.10776(15) 0.6247(2) 0.2121(4)
N1 N 0.08211(14) 0.74980(18) 0.2639(4)
C2 C 0.19915(16) 0.5831(2) 0.2064(4)
N2 N 0.27326(12) 0.6698(2) 0.2587(3)
O1 O 0.25536(13) 0.77348(15) 0.3512(3)
O2 O 0.35155(11) 0.63978(18) 0.2152(3)
C3 C 0.22414(16) 0.4559(2) 0.1465(4)
C4 C 0.15829(16) 0.3664(2) 0.0961(4)
C5 C 0.06768(16) 0.4027(2) 0.1096(4)
C6 C 0.04220(16) 0.5275(2) 0.1662(4)
C7 C -0.00247(15) 0.8114(2) 0.2271(4)
C8 C -0.05434(12) 0.78654(16) 0.0613(3)
C9 C -0.13509(12) 0.85409(16) 0.0307(3)
C10 C -0.16349(17) 0.9484(2) 0.1644(5)
C11 C -0.11106(17) 0.9761(2) 0.3274(5)
C12 C -0.03084(17) 0.9069(2) 0.3609(4)
H1 H 0.12290 0.79710 0.32710
H2 H 0.28650 0.43180 0.14090
H3 H 0.17460 0.28070 0.05250
H4 H 0.02200 0.33980 0.07910
H5 H -0.02060 0.54870 0.17460
H6 H -0.03460 0.72300 -0.03200
H7 H -0.17100 0.83560 -0.08240
H8 H -0.21910 0.99390 0.14390
H9 H -0.12970 1.04260 0.41710
H10 H 0.00450 0.92490 0.47480
#END
