
#######################################################################
#
#                 Cambridge Crystallographic Data Centre
#                                CCDC
#
#######################################################################
#
# If this CIF has been generated from an entry in the Cambridge
# Structural Database, then it will include bibliographic, chemical,
# crystal, experimental, refinement or atomic coordinate data resulting
# from the CCDC's data processing and validation procedures.
#
#######################################################################

data_CSD_CIF_YEJTOY
_audit_creation_date 2012-10-16
_audit_creation_method CSD-ConQuest-V1
_database_code_CSD YEJTOY
_database_code_depnum_ccdc_archive 'CCDC 901258'
_chemical_formula_sum 'C29 H38 N2 O3'
_chemical_formula_moiety
;
C29 H38 N2 O3
;
_journal_coden_Cambridge 1078
_journal_year 2012
_journal_name_full 'CSD Communication(Private Communication) '
loop_
_publ_author_name
"R.Y.Chi"
"S.Gellman"
"I.A.Guzei"
_chemical_name_systematic
;
4-Isopropyl-3-(2-(methoxy(diphenyl)methyl)pyrrolidin-1-yl)-hexahydro-3H-2,1-be
nxoxazinium 1-oxyl
;
_cell_volume   2526.519
_exptl_crystal_colour 'colorless'
_exptl_crystal_density_diffrn 1.216
_exptl_special_details
;
contribution from 2124 Chemistry Department, University of Wisconsin-Madison, 
1101 University Ave, Madison, WI 53706, USA
;
_exptl_crystal_description 'needle'
_diffrn_ambient_temperature 100
#These two values have been output from a single CSD field.
_refine_ls_R_factor_gt 0.032
_refine_ls_wR_factor_gt 0.032
_symmetry_cell_setting orthorhombic
_symmetry_space_group_name_H-M 'P 21 21 21'
_symmetry_Int_Tables_number 19
loop_
_symmetry_equiv_pos_site_id
_symmetry_equiv_pos_as_xyz
1 x,y,z
2 1/2-x,-y,1/2+z
3 -x,1/2+y,1/2-z
4 1/2+x,1/2-y,-z
_cell_length_a 8.8456(8)
_cell_length_b 11.8369(11)
_cell_length_c 24.130(2)
_cell_angle_alpha 90
_cell_angle_beta 90
_cell_angle_gamma 90
_cell_formula_units_Z 4
loop_
_atom_type_symbol
_atom_type_radius_bond
C 0.68
H 0.23
N 0.68
O 0.68
loop_
_atom_site_label
_atom_site_type_symbol
_atom_site_fract_x
_atom_site_fract_y
_atom_site_fract_z
O1 O 1.19442(15) 0.88744(12) 0.88103(6)
O2 O 0.97198(14) 0.83828(11) 0.91766(5)
O3 O 0.70396(16) 0.68656(11) 0.80489(5)
N1 N 1.06030(18) 0.92007(13) 0.89005(6)
N2 N 0.74315(18) 0.73956(13) 0.91461(6)
C1 C 0.9964(2) 1.01488(16) 0.87727(8)
C2 C 1.0880(2) 1.10500(17) 0.85002(9)
H1 H 1.03760 1.13000 0.81550
H2 H 1.18910 1.07510 0.84030
C3 C 1.1044(2) 1.20509(18) 0.88992(10)
H3 H 1.17140 1.18320 0.92100
H4 H 1.15240 1.26910 0.87020
C4 C 0.9518(3) 1.24269(17) 0.91288(10)
H5 H 0.89060 1.27540 0.88250
H6 H 0.96790 1.30230 0.94100
C5 C 0.8651(2) 1.14477(16) 0.93909(9)
H7 H 0.76580 1.17210 0.95250
H8 H 0.92220 1.11580 0.97140
C6 C 0.8407(2) 1.04811(16) 0.89700(8)
H9 H 0.78660 1.08130 0.86450
C7 C 0.7427(2) 0.94982(15) 0.91849(8)
H10 H 0.74870 0.94950 0.95990
C8 C 0.8126(2) 0.84070(16) 0.89747(7)
H11 H 0.81360 0.84270 0.85600
C9 C 0.5738(2) 0.95924(16) 0.90197(8)
H12 H 0.52040 0.89400 0.91960
C10 C 0.4998(2) 1.06644(18) 0.92414(9)
H13 H 0.39040 1.06280 0.91790
H14 H 0.54140 1.13230 0.90480
H15 H 0.52000 1.07320 0.96390
C11 C 0.5473(2) 0.95009(17) 0.83948(8)
H16 H 0.59330 0.88030 0.82560
H17 H 0.59310 1.01520 0.82080
H18 H 0.43840 0.94890 0.83200
C12 C 0.7233(2) 0.72363(16) 0.97522(7)
H19 H 0.62740 0.75790 0.98810
H20 H 0.80840 0.75760 0.99600
C13 C 0.7206(2) 0.59596(16) 0.98234(8)
H21 H 0.61850 0.56500 0.97510
H22 H 0.75270 0.57390 1.02010
C14 C 0.8338(2) 0.55583(16) 0.93891(8)
H23 H 0.81200 0.47710 0.92750
H24 H 0.93830 0.55980 0.95340
C15 C 0.8125(2) 0.63749(15) 0.89006(8)
H25 H 0.91470 0.65830 0.87550
C16 C 0.7170(2) 0.58931(16) 0.84102(7)
C17 C 0.5617(2) 0.55332(16) 0.86287(7)
C18 C 0.4478(2) 0.63325(16) 0.86969(8)
H26 H 0.46410 0.70840 0.85730
C19 C 0.3106(2) 0.60525(18) 0.89432(8)
H27 H 0.23410 0.66100 0.89860
C20 C 0.2857(2) 0.49561(18) 0.91261(8)
H28 H 0.19200 0.47570 0.92910
C21 C 0.3985(2) 0.41573(17) 0.90664(8)
H29 H 0.38230 0.34090 0.91960
C22 C 0.5350(2) 0.44360(16) 0.88186(8)
H30 H 0.61110 0.38760 0.87780
C23 C 0.8034(2) 0.49558(16) 0.80986(7)
C24 C 0.7267(2) 0.41531(17) 0.77821(8)
H31 H 0.61930 0.41540 0.77800
C25 C 0.8036(3) 0.33527(18) 0.74693(8)
H32 H 0.74860 0.28150 0.72580
C26 C 0.9607(3) 0.33364(18) 0.74652(8)
H33 H 1.01380 0.27850 0.72560
C27 C 1.0382(2) 0.41331(18) 0.77702(8)
H34 H 1.14560 0.41320 0.77670
C28 C 0.9618(2) 0.49376(17) 0.80817(8)
H35 H 1.01760 0.54830 0.82860
C29 C 0.6187(2) 0.67146(17) 0.75526(7)
H36 H 0.51630 0.64650 0.76460
H37 H 0.66780 0.61430 0.73200
H38 H 0.61360 0.74320 0.73510
#END
