
#######################################################################
#
#                 Cambridge Crystallographic Data Centre
#                                CCDC
#
#######################################################################
#
# If this CIF has been generated from an entry in the Cambridge
# Structural Database, then it will include bibliographic, chemical,
# crystal, experimental, refinement or atomic coordinate data resulting
# from the CCDC's data processing and validation procedures.
#
#######################################################################

data_CSD_CIF_YEJVIU
_audit_creation_date 2012-10-16
_audit_creation_method CSD-ConQuest-V1
_database_code_CSD YEJVIU
_database_code_depnum_ccdc_archive 'CCDC 834924'
_chemical_formula_sum 'C9 H14 N4 O6'
_chemical_formula_moiety
;
C9 H14 N4 O6
;
_journal_coden_Cambridge 1320
_journal_year 2009
_journal_name_full 'Thesis '
loop_
_publ_author_name
"J.Duchek"
"A.Vasella"
_chemical_name_systematic
;
1-(6-Azido-2,2-dimethyltetrahydrofuro[3,4-d][1,3]dioxol-4-yl)-2-nitroethanol
;
_cell_volume   1265.422
_exptl_crystal_colour 'colorless'
_exptl_crystal_density_diffrn 1.439
_exptl_special_details
;
contribution from the thesis of J.Duchek; Laboratorium fur Organische Chemie, 
ETH Zurich, Wolfgang-Pauli Strasse 10, CH-8093 Zurich, Switzerland
;
_exptl_crystal_description 'needle'
_diffrn_ambient_temperature 223
#These two values have been output from a single CSD field.
_refine_ls_R_factor_gt 0.0502
_refine_ls_wR_factor_gt 0.0502
_symmetry_cell_setting orthorhombic
_symmetry_space_group_name_H-M 'P 21 21 21'
_symmetry_Int_Tables_number 19
loop_
_symmetry_equiv_pos_site_id
_symmetry_equiv_pos_as_xyz
1 x,y,z
2 1/2-x,-y,1/2+z
3 1/2+x,1/2-y,-z
4 -x,1/2+y,1/2-z
_cell_length_a 5.6750(3)
_cell_length_b 14.0782(8)
_cell_length_c 15.8388(7)
_cell_angle_alpha 90
_cell_angle_beta 90
_cell_angle_gamma 90
_cell_formula_units_Z 4
loop_
_atom_type_symbol
_atom_type_radius_bond
C 0.68
H 0.23
N 0.68
O 0.68
loop_
_atom_site_label
_atom_site_type_symbol
_atom_site_fract_x
_atom_site_fract_y
_atom_site_fract_z
O1 O 0.5588(3) 0.31572(13) 0.22043(11)
O2 O 0.5788(4) 0.16351(14) 0.03388(12)
O3 O 0.9340(6) 0.0432(2) 0.1979(2)
O4 O 0.6524(6) -0.03829(18) 0.14228(18)
O5 O 0.6479(4) 0.51473(13) 0.14562(12)
O6 O 0.4320(3) 0.43002(12) 0.05379(12)
N1 N 0.7309(5) 0.03393(17) 0.17352(17)
N2 N 0.9826(4) 0.31760(19) 0.22802(15)
N3 N 1.0303(5) 0.28702(17) 0.29933(17)
N4 N 1.0932(8) 0.2547(3) 0.3609(2)
C1 C 0.7618(5) 0.37424(18) 0.22330(15)
C2 C 0.7703(5) 0.42655(17) 0.13925(17)
C3 C 0.6172(4) 0.36627(17) 0.07894(15)
C4 C 0.5218(4) 0.28609(16) 0.13440(15)
C5 C 0.6484(5) 0.19174(18) 0.11624(15)
C6 C 0.5723(6) 0.1183(2) 0.18155(19)
C7 C 0.5199(5) 0.52495(18) 0.06885(17)
C8 C 0.6762(7) 0.5563(2) -0.0032(2)
C9 C 0.3142(6) 0.5911(2) 0.0835(2)
H1 H 0.750(6) 0.413(2) 0.271(2)
H2 H 0.918(7) 0.438(2) 0.119(2)
H3 H 0.697(5) 0.3438(19) 0.0296(18)
H4 H 0.350(6) 0.276(2) 0.1286(19)
H5 H 0.814(7) 0.202(2) 0.119(2)
H6 H 0.412(9) 0.096(3) 0.171(3)
H7 H 0.589(8) 0.142(3) 0.243(3)
H8 H 0.688(10) 0.137(3) 0.013(3)
H9 H 0.581(9) 0.563(3) -0.057(3)
H10 H 0.742(10) 0.617(4) 0.002(3)
H11 H 0.805(9) 0.510(3) -0.008(3)
H12 H 0.232(8) 0.597(3) 0.028(3)
H13 H 0.378(11) 0.658(4) 0.095(3)
H14 H 0.208(8) 0.568(3) 0.129(3)
#END
