
#######################################################################
#
#                 Cambridge Crystallographic Data Centre
#                                CCDC
#
#######################################################################
#
# If this CIF has been generated from an entry in the Cambridge
# Structural Database, then it will include bibliographic, chemical,
# crystal, experimental, refinement or atomic coordinate data resulting
# from the CCDC's data processing and validation procedures.
#
#######################################################################

data_CSD_CIF_YEKJII
_audit_creation_date 2006-09-07
_audit_creation_method CSD-ConQuest-V1
_database_code_CSD YEKJII
_database_code_depnum_ccdc_archive 'CCDC 612813'
_chemical_formula_sum 'C19 H28 N5 O3'
_chemical_formula_moiety
;
C19 H28 N5 O3
;
_journal_coden_Cambridge 151
_journal_volume 48
_journal_year 2005
_journal_page_first 2108
_journal_name_full 'J.Med.Chem. '
loop_
_publ_author_name
"J.Ilas"
"S.Pecar"
"J.Hockemeyer"
"H.Euler"
"A.Kirfel"
"C.E.Muller"
_chemical_name_systematic
;
8-(1-Oxyl-2,2,5,5-tetramethyl-2,5-dihydro-1H-pyrrol-3-yl)-1,3-di-n-propylxanth
ine
;
_cell_volume   2042.348
_exptl_crystal_colour 'yellow'
_exptl_crystal_density_diffrn 1.218
_exptl_special_details
;
A potent and highly selective spin-labelled A1 antagonist

;
_exptl_crystal_description 'irregular'
_exptl_crystal_preparation 'dichloromethane/diethyl ether'
_diffrn_ambient_temperature 295
#These two values have been output from a single CSD field.
_refine_ls_R_factor_gt 0.0364
_refine_ls_wR_factor_gt 0.0364
_symmetry_cell_setting monoclinic
_symmetry_space_group_name_H-M 'P 21/c'
_symmetry_Int_Tables_number 14
loop_
_symmetry_equiv_pos_site_id
_symmetry_equiv_pos_as_xyz
1 x,y,z
2 -x,1/2+y,1/2-z
3 -x,-y,-z
4 x,-1/2-y,-1/2+z
_cell_length_a 13.051(2)
_cell_length_b 17.505(3)
_cell_length_c 9.188(1)
_cell_angle_alpha 90
_cell_angle_beta 103.35(1)
_cell_angle_gamma 90
_cell_formula_units_Z 4
loop_
_atom_type_symbol
_atom_type_radius_bond
C 0.68
H 0.23
N 0.68
O 0.68
loop_
_atom_site_label
_atom_site_type_symbol
_atom_site_fract_x
_atom_site_fract_y
_atom_site_fract_z
N1 N 0.68964(18) 1.11513(13) -0.3230(3)
C1 C 0.6406(3) 1.08174(17) -0.2221(3)
N2 N 0.70402(16) 1.03890(13) -0.1058(2)
C2 C 0.8131(2) 1.03033(16) -0.0787(3)
C3 C 0.8564(2) 1.06867(15) -0.1852(3)
C4 C 0.7968(2) 1.10748(15) -0.3038(3)
N3 N 0.95743(18) 1.07191(13) -0.2061(3)
H1 H 1.014(2) 1.0502(17) -0.145(3)
C5 C 0.9531(2) 1.11150(15) -0.3334(3)
N4 N 0.85479(18) 1.13434(12) -0.3976(2)
C6 C 1.0435(2) 1.12607(14) -0.3966(3)
C7 C 1.1433(2) 1.11226(17) -0.3305(4)
H2 H 1.168(2) 1.0934(14) -0.234(3)
C8 C 1.2192(2) 1.12869(17) -0.4264(3)
N5 N 1.1430(2) 1.15170(16) -0.5635(3)
C9 C 1.0324(2) 1.15846(17) -0.5517(3)
C10 C 1.2796(4) 1.0577(3) -0.4542(6)
H3 H 1.310(3) 1.070(2) -0.535(4)
H4 H 1.333(4) 1.044(3) -0.366(5)
H5 H 1.231(3) 1.018(3) -0.492(5)
C11 C 1.2942(4) 1.1938(3) -0.3690(6)
H6 H 1.327(3) 1.2038(18) -0.451(4)
H7 H 1.349(3) 1.179(2) -0.276(5)
H8 H 1.258(3) 1.239(2) -0.338(4)
C12 C 1.0001(4) 1.2418(2) -0.5609(6)
H9 H 1.006(3) 1.258(2) -0.650(4)
H10 H 0.929(3) 1.2504(19) -0.548(4)
H11 H 1.051(3) 1.275(2) -0.481(4)
C13 C 0.9616(4) 1.1113(3) -0.6745(4)
H12 H 0.974(2) 1.1269(18) -0.766(4)
H13 H 0.886(3) 1.119(2) -0.674(4)
H14 H 0.985(3) 1.057(2) -0.660(4)
C14 C 0.6253(3) 1.1552(2) -0.4535(4)
H15 H 0.664(2) 1.1525(17) -0.530(3)
H16 H 0.559(3) 1.1287(19) -0.483(4)
C15 C 0.5990(4) 1.2359(3) -0.4201(6)
H17 H 0.555(3) 1.261(2) -0.516(4)
H18 H 0.565(3) 1.240(3) -0.331(5)
C16 C 0.6914(5) 1.2876(3) -0.3746(9)
H19 H 0.742(4) 1.261(3) -0.282(5)
H20 H 0.674(4) 1.339(3) -0.360(6)
H21 H 0.726(4) 1.280(3) -0.462(6)
C17 C 0.6499(3) 0.9978(2) -0.0043(4)
H22 H 0.582(2) 1.0259(16) -0.012(3)
H23 H 0.693(2) 1.0050(14) 0.095(3)
C18 C 0.6337(3) 0.9143(2) -0.0416(5)
H24 H 0.598(3) 0.891(2) 0.029(4)
H25 H 0.702(3) 0.886(2) -0.050(4)
C19 C 0.5673(4) 0.8984(3) -0.1963(5)
H26 H 0.559(3) 0.843(3) -0.218(4)
H27 H 0.495(4) 0.925(3) -0.204(5)
H28 H 0.607(3) 0.916(2) -0.265(4)
O1 O 0.54599(17) 1.08774(13) -0.2330(2)
O2 O 0.86032(14) 0.99210(11) 0.0280(2)
O3 O 1.1714(2) 1.16955(19) -0.6827(3)
#END
