
#######################################################################
#
#                 Cambridge Crystallographic Data Centre
#                                CCDC
#
#######################################################################
#
# If this CIF has been generated from an entry in the Cambridge
# Structural Database, then it will include bibliographic, chemical,
# crystal, experimental, refinement or atomic coordinate data resulting
# from the CCDC's data processing and validation procedures.
#
#######################################################################

data_CSD_CIF_YEKQAG
_audit_creation_date 2001-10-23
_audit_creation_method CSD-ConQuest-V1
_database_code_CSD YEKQAG
_database_code_depnum_ccdc_archive 'CCDC 170788'
_chemical_formula_sum 'C4 H4 N6 O5'
_chemical_formula_moiety
;
C4 H4 N6 O5
;
_journal_coeditor_code "IUCr CF6082"
_journal_coden_Cambridge 1370
_journal_volume 57
_journal_year 2001
_journal_page_first o657
_journal_name_full 'Acta Crystallogr.,Sect.E:Struct.Rep.Online '
loop_
_publ_author_name
"R.D.Gilardi"
"R.J.Butcher"
_chemical_name_systematic
;
2,6-Diamino-3,5-dinitro-1,4-pyrazine 1-oxide
;
_cell_volume    748.155
_exptl_crystal_colour 'yellow'
_exptl_crystal_density_diffrn 1.919
_exptl_crystal_description 'chunky prism'
_diffrn_ambient_temperature 294
#These two values have been output from a single CSD field.
_refine_ls_R_factor_gt 0.0399
_refine_ls_wR_factor_gt 0.0399
_symmetry_cell_setting monoclinic
_symmetry_space_group_name_H-M 'P 21/n'
_symmetry_Int_Tables_number 14
loop_
_symmetry_equiv_pos_site_id
_symmetry_equiv_pos_as_xyz
1 x,y,z
2 1/2-x,1/2+y,1/2-z
3 -x,-y,-z
4 -1/2+x,-1/2-y,-1/2+z
_cell_length_a 5.7159(8)
_cell_length_b 15.8498(14)
_cell_length_c 8.4139(7)
_cell_angle_alpha 90
_cell_angle_beta 101.041(7)
_cell_angle_gamma 90
_cell_formula_units_Z 4
loop_
_atom_type_symbol
_atom_type_radius_bond
C 0.68
H 0.23
N 0.68
O 0.68
loop_
_atom_site_label
_atom_site_type_symbol
_atom_site_fract_x
_atom_site_fract_y
_atom_site_fract_z
N1 N -0.1565(3) 0.90540(9) 0.47096(18)
O1 O -0.3630(2) 0.93827(9) 0.40265(17)
C1 C -0.0702(3) 0.92079(11) 0.6322(2)
N2 N -0.2081(3) 0.96805(11) 0.7048(2)
H1 H -0.344(4) 0.9849(15) 0.639(3)
H2 H -0.159(4) 0.9802(16) 0.814(3)
C2 C 0.1558(3) 0.88493(11) 0.6943(2)
N3 N 0.2748(3) 0.89943(10) 0.86104(19)
O2 O 0.1754(3) 0.94651(10) 0.94385(17)
O3 O 0.4660(3) 0.86564(10) 0.91133(17)
N4 N 0.2750(3) 0.83913(9) 0.60789(18)
C3 C 0.1862(3) 0.82688(11) 0.4549(2)
N5 N 0.3341(3) 0.77874(10) 0.36491(18)
O4 O 0.2944(3) 0.78509(11) 0.21769(16)
O5 O 0.4921(3) 0.73514(10) 0.43965(17)
C4 C -0.0360(3) 0.85960(11) 0.3750(2)
N6 N -0.1406(3) 0.85208(11) 0.2225(2)
H3 H -0.069(4) 0.8211(15) 0.153(3)
H4 H -0.286(4) 0.8754(15) 0.191(3)
#END
