
#######################################################################
#
#                 Cambridge Crystallographic Data Centre
#                                CCDC
#
#######################################################################
#
# If this CIF has been generated from an entry in the Cambridge
# Structural Database, then it will include bibliographic, chemical,
# crystal, experimental, refinement or atomic coordinate data resulting
# from the CCDC's data processing and validation procedures.
#
#######################################################################

data_CSD_CIF_YEKTUE
_audit_creation_date 2006-09-07
_audit_creation_method CSD-ConQuest-V1
_database_code_CSD YEKTUE
_database_code_depnum_ccdc_archive 'CCDC 611197'
_chemical_formula_sum 'C22 H18 N2 O6'
_chemical_formula_moiety
;
C22 H18 N2 O6
;
_journal_coden_Cambridge 1336
_journal_volume 8
_journal_year 2006
_journal_page_first 1819
_journal_name_full 'Org.Lett. '
loop_
_publ_author_name
"H.M.Konig"
"R.Abbel"
"D.Schollmeyer"
"A.F.M.Kilbinger"
_chemical_name_systematic
;
N-(4-methoxybenzyl)-4-(4-nitrobenzamido)benzoic acid
;
_chemical_melting_point 461.45
_cell_volume   2038.700
_exptl_crystal_colour 'colorless'
_exptl_crystal_density_diffrn 1.324
_exptl_crystal_description 'plate'
_exptl_crystal_preparation 'ethanol'
_diffrn_ambient_temperature 298
#These two values have been output from a single CSD field.
_refine_ls_R_factor_gt 0.0534
_refine_ls_wR_factor_gt 0.0534
_symmetry_cell_setting orthorhombic
_symmetry_space_group_name_H-M 'P n a 21'
_symmetry_Int_Tables_number 33
loop_
_symmetry_equiv_pos_site_id
_symmetry_equiv_pos_as_xyz
1 x,y,z
2 -x,-y,1/2+z
3 1/2-x,1/2+y,1/2+z
4 1/2+x,1/2-y,z
_cell_length_a 16.0866(8)
_cell_length_b 17.8033(10)
_cell_length_c 7.1185(4)
_cell_angle_alpha 90
_cell_angle_beta 90
_cell_angle_gamma 90
_cell_formula_units_Z 4
loop_
_atom_type_symbol
_atom_type_radius_bond
C 0.68
H 0.23
N 0.68
O 0.68
loop_
_atom_site_label
_atom_site_type_symbol
_atom_site_fract_x
_atom_site_fract_y
_atom_site_fract_z
N1 N 0.28893(12) 0.24987(14) 0.3935(3)
C1 C 0.23562(15) 0.18210(17) 0.4080(4)
H1 H 0.21810 0.16720 0.28310
H2 H 0.18620 0.19440 0.47980
C2 C 0.27946(15) 0.11737(18) 0.5003(4)
C3 C 0.3061(2) 0.0559(2) 0.4016(5)
H3 H 0.29520 0.05330 0.27350
C4 C 0.3483(2) -0.0018(2) 0.4852(5)
H4 H 0.36530 -0.04300 0.41450
C5 C 0.36551(18) 0.0013(2) 0.6737(5)
C6 C 0.3384(2) 0.06066(19) 0.7778(5)
H5 H 0.34920 0.06290 0.90600
C7 C 0.29483(18) 0.11739(18) 0.6898(4)
H6 H 0.27510 0.15720 0.76190
O1 O 0.41036(17) -0.05841(16) 0.7479(4)
C8 C 0.4321(3) -0.0553(3) 0.9426(7)
H7 H 0.46310 -0.09940 0.97570
H8 H 0.38240 -0.05290 1.01710
H9 H 0.46530 -0.01140 0.96560
C9 C 0.36513(14) 0.24184(14) 0.2872(3)
C10 C 0.44014(15) 0.25060(19) 0.3749(4)
H10 H 0.44230 0.26070 0.50300
C11 C 0.51276(15) 0.24434(18) 0.2722(4)
H11 H 0.56380 0.25140 0.33110
C12 C 0.51022(14) 0.22789(15) 0.0841(4)
C13 C 0.43433(14) 0.21794(17) -0.0007(4)
H12 H 0.43210 0.20590 -0.12780
C14 C 0.36160(15) 0.22549(16) 0.0991(4)
H13 H 0.31050 0.21960 0.03960
C15 C 0.58882(16) 0.2218(2) -0.0248(4)
O2 O 0.65570(13) 0.23798(17) 0.0377(3)
O3 O 0.57903(11) 0.19674(14) -0.1961(3)
H14 H 0.63770 0.19680 -0.26790
C16 C 0.26926(17) 0.3139(2) 0.4806(4)
O4 O 0.21315(15) 0.31813(16) 0.5988(4)
C17 C 0.31508(18) 0.38344(18) 0.4280(4)
C18 C 0.3495(3) 0.4301(3) 0.5670(6)
H15 H 0.34460 0.41810 0.69360
C19 C 0.3920(3) 0.4964(3) 0.509(1)
H16 H 0.41770 0.52720 0.59710
C20 C 0.3945(3) 0.5137(2) 0.3263(11)
C21 C 0.3588(2) 0.4719(2) 0.1931(7)
H17 H 0.36090 0.48680 0.06800
C22 C 0.31858(19) 0.4064(2) 0.2435(5)
H18 H 0.29340 0.37720 0.15110
N2 N 0.4401(3) 0.5841(3) 0.2652(12)
O5 O 0.4335(3) 0.6058(3) 0.1121(12)
O6 O 0.4880(3) 0.6093(2) 0.3822(11)
#END
