
#######################################################################
#
#                 Cambridge Crystallographic Data Centre
#                                CCDC
#
#######################################################################
#
# If this CIF has been generated from an entry in the Cambridge
# Structural Database, then it will include bibliographic, chemical,
# crystal, experimental, refinement or atomic coordinate data resulting
# from the CCDC's data processing and validation procedures.
#
#######################################################################

data_CSD_CIF_YELPUD
_audit_creation_date 2018-01-25
_audit_creation_method CSD-ConQuest-V1
_database_code_CSD YELPUD
_database_code_depnum_ccdc_archive 'CCDC 1589617'
_chemical_formula_sum 'C13 H10 N2 O6'
_chemical_formula_moiety
;
C13 H10 N2 O6
;
_journal_coden_Cambridge 1500
_journal_volume 8
_journal_year 2018
_journal_page_first 4773
_journal_name_full 'RSC Advances '
loop_
_publ_author_name
"R.G.M.Silva"
"M.J.V.da Silva"
"A.P.Jacomini"
"S.Moura"
"D.F.Back"
"E.A.Basso"
"F.A.Rosa"
_chemical_name_systematic
;
ethyl (5-(4-nitrophenyl)-1,2-oxazol-4-yl)(oxo)acetate
;
_cell_volume   1296.613
_exptl_crystal_colour 'yellow'
_exptl_crystal_density_diffrn 1.487
_exptl_crystal_description 'block'
_diffrn_ambient_temperature 297
#These two values have been output from a single CSD field.
_refine_ls_R_factor_gt 0.0563
_refine_ls_wR_factor_gt 0.0563
_symmetry_cell_setting monoclinic
_symmetry_space_group_name_H-M 'P 21/c'
_symmetry_Int_Tables_number 14
loop_
_symmetry_equiv_pos_site_id
_symmetry_equiv_pos_as_xyz
1 x,y,z
2 -x,1/2+y,1/2-z
3 -x,-y,-z
4 x,-1/2-y,-1/2+z
_cell_length_a 12.6326(13)
_cell_length_b 14.5578(13)
_cell_length_c 7.3585(7)
_cell_angle_alpha 90
_cell_angle_beta 106.635(3)
_cell_angle_gamma 90
_cell_formula_units_Z 4
loop_
_atom_type_symbol
_atom_type_radius_bond
C 0.68
H 0.23
N 0.68
O 0.68
loop_
_atom_site_label
_atom_site_type_symbol
_atom_site_fract_x
_atom_site_fract_y
_atom_site_fract_z
O1 O 0.34502(10) 0.51702(9) 0.25844(16)
O2 O 0.69463(10) 0.78833(9) 0.5020(2)
O3 O 0.50967(11) 0.74539(9) 0.5829(2)
O4 O 0.71555(11) 0.63897(9) 0.4504(2)
N1 N 0.42424(13) 0.50657(11) 0.1570(2)
C1 C 0.47912(12) 0.61585(9) 0.38300(19)
C2 C 0.54340(12) 0.69231(10) 0.4862(2)
C3 C 0.66189(12) 0.70282(11) 0.4735(2)
C4 C 0.37914(12) 0.58282(10) 0.39092(19)
O5 O 0.11513(17) 0.67235(16) 0.9859(3)
C5 C 0.50124(14) 0.56463(10) 0.2325(2)
H1 H 0.56440 0.57230 0.19320
C6 C 0.30289(12) 0.60068(10) 0.5044(2)
C7 C 0.26787(14) 0.64804(12) 0.7951(2)
H2 H 0.29250 0.67040 0.91850
C8 C 0.34092(13) 0.63346(11) 0.6892(2)
H3 H 0.41570 0.64560 0.74190
C9 C 0.15785(14) 0.62862(12) 0.7131(3)
C10 C 0.19126(14) 0.58108(14) 0.4267(3)
H4 H 0.16590 0.55820 0.30390
C11 C 0.11804(15) 0.59566(15) 0.5318(3)
H5 H 0.04320 0.58330 0.48060
C12 C 0.80710(16) 0.80893(17) 0.4988(4)
H6 H 0.80930 0.81650 0.36900
H7 H 0.85600 0.75880 0.55550
C13 C 0.84309(17) 0.89357(17) 0.6056(3)
H8 H 0.91720 0.90780 0.60510
H9 H 0.84080 0.88550 0.73390
H10 H 0.79480 0.94300 0.54780
N2 N 0.08027(15) 0.64200(14) 0.8255(3)
O6 O -0.01560(15) 0.6192(2) 0.7544(3)
#END
