
#######################################################################
#
#                 Cambridge Crystallographic Data Centre
#                                CCDC
#
#######################################################################
#
# If this CIF has been generated from an entry in the Cambridge
# Structural Database, then it will include bibliographic, chemical,
# crystal, experimental, refinement or atomic coordinate data resulting
# from the CCDC's data processing and validation procedures.
#
#######################################################################

data_CSD_CIF_YELQAK
_audit_creation_date 2018-01-25
_audit_creation_method CSD-ConQuest-V1
_database_code_CSD YELQAK
_database_code_depnum_ccdc_archive 'CCDC 1589618'
_chemical_formula_sum 'C13 H10 N2 O6'
_chemical_formula_moiety
;
C13 H10 N2 O6
;
_journal_coden_Cambridge 1500
_journal_volume 8
_journal_year 2018
_journal_page_first 4773
_journal_name_full 'RSC Advances '
loop_
_publ_author_name
"R.G.M.Silva"
"M.J.V.da Silva"
"A.P.Jacomini"
"S.Moura"
"D.F.Back"
"E.A.Basso"
"F.A.Rosa"
_chemical_name_systematic
;
ethyl 4-(4-nitrobenzoyl)-1,2-oxazole-5-carboxylate
;
_cell_volume    661.755
_exptl_crystal_colour 'yellow'
_exptl_crystal_density_diffrn 1.457
_exptl_crystal_description 'block'
_diffrn_ambient_temperature 296
#These two values have been output from a single CSD field.
_refine_ls_R_factor_gt 0.06
_refine_ls_wR_factor_gt 0.06
_symmetry_cell_setting triclinic
_symmetry_space_group_name_H-M 'P -1'
_symmetry_Int_Tables_number 2
loop_
_symmetry_equiv_pos_site_id
_symmetry_equiv_pos_as_xyz
1 x,y,z
2 -x,-y,-z
_cell_length_a 6.6907(15)
_cell_length_b 8.7715(16)
_cell_length_c 12.002(4)
_cell_angle_alpha 97.212(18)
_cell_angle_beta 93.54(2)
_cell_angle_gamma 107.759(18)
_cell_formula_units_Z 2
loop_
_atom_type_symbol
_atom_type_radius_bond
C 0.68
H 0.23
N 0.68
O 0.68
loop_
_atom_site_label
_atom_site_type_symbol
_atom_site_fract_x
_atom_site_fract_y
_atom_site_fract_z
O1 O 0.3366(3) 0.6470(2) 1.03853(14)
O2 O 0.0730(3) 0.6050(2) 0.68629(16)
O3 O 0.1010(4) 0.2812(2) 0.85824(16)
O4 O 0.1828(4) 0.3247(3) 1.04585(18)
O5 O 0.7366(4) 0.1351(3) 0.4990(2)
O6 O 0.5144(4) 0.1279(3) 0.3578(2)
N1 N 0.4072(4) 0.8034(3) 1.0109(2)
N2 N 0.5874(5) 0.1686(3) 0.4571(2)
C1 C 0.4931(4) 0.4296(3) 0.70467(19)
H1 H 0.55590 0.47790 0.77710
C2 C 0.3090(4) 0.4539(3) 0.66366(18)
C3 C 0.2092(4) 0.5606(3) 0.7301(2)
C4 C 0.2643(4) 0.5410(3) 0.9416(2)
C5 C 0.2158(4) 0.3816(3) 0.5555(2)
H2 H 0.09140 0.39700 0.52810
C6 C 0.1784(4) 0.3703(3) 0.9562(2)
C7 C 0.2825(4) 0.6210(3) 0.85203(19)
C8 C 0.3051(5) 0.2882(3) 0.4890(2)
H3 H 0.24330 0.24040 0.41630
C9 C 0.3727(4) 0.7852(3) 0.9020(2)
H4 H 0.40370 0.87100 0.86090
C10 C 0.5840(4) 0.3335(3) 0.6381(2)
H5 H 0.70660 0.31520 0.66520
C11 C 0.4882(4) 0.2660(3) 0.5311(2)
C12 C 0.0232(8) 0.1064(4) 0.8580(4)
H6 H 0.09740 0.07880 0.92050
H7 H -0.12580 0.07380 0.86820
C13 C 0.0527(9) 0.0234(4) 0.7573(4)
H8 H 0.00460 -0.09090 0.75980
H9 H 0.19990 0.05690 0.74660
H10 H -0.02600 0.04680 0.69570
#END
