
#######################################################################
#
#                 Cambridge Crystallographic Data Centre
#                                CCDC
#
#######################################################################
#
# If this CIF has been generated from an entry in the Cambridge
# Structural Database, then it will include bibliographic, chemical,
# crystal, experimental, refinement or atomic coordinate data resulting
# from the CCDC's data processing and validation procedures.
#
#######################################################################

data_CSD_CIF_YELQEO
_audit_creation_date 2018-01-25
_audit_creation_method CSD-ConQuest-V1
_database_code_CSD YELQEO
_database_code_depnum_ccdc_archive 'CCDC 1589619'
_chemical_formula_sum 'C13 H10 N2 O6'
_chemical_formula_moiety
;
C13 H10 N2 O6
;
_journal_coden_Cambridge 1500
_journal_volume 8
_journal_year 2018
_journal_page_first 4773
_journal_name_full 'RSC Advances '
loop_
_publ_author_name
"R.G.M.Silva"
"M.J.V.da Silva"
"A.P.Jacomini"
"S.Moura"
"D.F.Back"
"E.A.Basso"
"F.A.Rosa"
_chemical_name_systematic
;
ethyl 4-(4-nitrobenzoyl)-1,2-oxazole-3-carboxylate
;
_cell_volume   1306.070
_exptl_crystal_colour 'yellow'
_exptl_crystal_density_diffrn 1.476
_exptl_crystal_description 'block'
_diffrn_ambient_temperature 296
#These two values have been output from a single CSD field.
_refine_ls_R_factor_gt 0.0403
_refine_ls_wR_factor_gt 0.0403
_symmetry_cell_setting monoclinic
_symmetry_space_group_name_H-M 'P 21/c'
_symmetry_Int_Tables_number 14
loop_
_symmetry_equiv_pos_site_id
_symmetry_equiv_pos_as_xyz
1 x,y,z
2 -x,1/2+y,1/2-z
3 -x,-y,-z
4 x,-1/2-y,-1/2+z
_cell_length_a 7.3487(2)
_cell_length_b 17.1804(4)
_cell_length_c 10.4508(3)
_cell_angle_alpha 90
_cell_angle_beta 98.167(1)
_cell_angle_gamma 90
_cell_formula_units_Z 4
loop_
_atom_type_symbol
_atom_type_radius_bond
C 0.68
H 0.23
N 0.68
O 0.68
loop_
_atom_site_label
_atom_site_type_symbol
_atom_site_fract_x
_atom_site_fract_y
_atom_site_fract_z
O1 O 0.84444(15) 0.43890(7) 1.0387(1)
O2 O 0.49635(17) 0.59672(7) 0.76124(10)
O3 O 0.57181(16) 0.64059(6) 0.96413(10)
O4 O 0.71333(19) 0.39164(7) 0.64253(11)
N1 N 0.74125(17) 0.50775(8) 1.03408(11)
O5 O 0.8929(2) 0.69188(9) 0.24553(12)
N2 N 0.91860(19) 0.70310(8) 0.36231(13)
O6 O 0.9781(2) 0.76394(8) 0.41128(14)
C1 C 0.79180(18) 0.52184(8) 0.60566(12)
C2 C 0.69621(19) 0.52285(8) 0.91083(13)
C3 C 0.76382(19) 0.46551(8) 0.83108(13)
C4 C 0.57667(19) 0.59093(8) 0.86876(13)
C5 C 0.7367(2) 0.51691(9) 0.47260(13)
H1 H 0.67170 0.47350 0.43800
C6 C 0.87498(19) 0.63932(8) 0.44670(14)
C7 C 0.9335(2) 0.64562(8) 0.57759(14)
H2 H 1.00000 0.68880 0.61140
C8 C 0.8908(2) 0.58623(8) 0.65720(13)
H3 H 0.92840 0.58930 0.74590
C9 C 0.74953(19) 0.45551(8) 0.68833(14)
C10 C 0.7778(2) 0.57588(9) 0.39194(13)
H4 H 0.74110 0.57300 0.30320
C11 C 0.8533(2) 0.41555(9) 0.91764(14)
H5 H 0.91320 0.37080 0.89600
C12 C 0.4598(2) 0.71040(9) 0.93570(15)
H6 H 0.33610 0.69650 0.89730
H7 H 0.51300 0.74380 0.87600
C13 C 0.4567(3) 0.75105(10) 1.06206(17)
H8 H 0.38430 0.79760 1.04820
H9 H 0.58000 0.76440 1.09890
H10 H 0.40400 0.71730 1.12010
#END
