
#######################################################################
#
#                 Cambridge Crystallographic Data Centre
#                                CCDC
#
#######################################################################
#
# If this CIF has been generated from an entry in the Cambridge
# Structural Database, then it will include bibliographic, chemical,
# crystal, experimental, refinement or atomic coordinate data resulting
# from the CCDC's data processing and validation procedures.
#
#######################################################################

data_CSD_CIF_YELRUD
_audit_creation_date 2006-09-07
_audit_creation_method CSD-ConQuest-V1
_database_code_CSD YELRUD
_database_code_depnum_ccdc_archive 'CCDC 296358'
_chemical_formula_sum 'C5 H5 N1 O2'
_chemical_formula_moiety
;
C5 H5 N1 O2
;
_journal_coden_Cambridge 1147
_journal_volume 6
_journal_year 2006
_journal_page_first 1278
_journal_name_full 'Cryst.Growth Des. '
loop_
_publ_author_name
"B.K.Saha"
"A.Nangia"
"J.-F.Nicoud"
_chemical_name_systematic
;
3-Hydroxypyridine-N-oxide
;
_cell_volume    237.592
_exptl_crystal_colour 'colorless'
_exptl_crystal_density_diffrn 1.553
_exptl_crystal_description 'needle'
_diffrn_ambient_temperature 298
_refine_special_details
;
The N atom, one C atom and the hydroxy proton are each disordered over two 
sites with equal occupancy.
;
#These two values have been output from a single CSD field.
_refine_ls_R_factor_gt 0.0398
_refine_ls_wR_factor_gt 0.0398
_symmetry_cell_setting triclinic
_symmetry_space_group_name_H-M 'P -1'
_symmetry_Int_Tables_number 2
loop_
_symmetry_equiv_pos_site_id
_symmetry_equiv_pos_as_xyz
1 x,y,z
2 -x,-y,-z
_cell_length_a 6.3536(8)
_cell_length_b 6.5014(8)
_cell_length_c 6.9499(8)
_cell_angle_alpha 113.794(2)
_cell_angle_beta 99.650(2)
_cell_angle_gamma 106.930(2)
_cell_formula_units_Z 2
loop_
_atom_type_symbol
_atom_type_radius_bond
C 0.68
H 0.23
N 0.68
O 0.68
loop_
_atom_site_label
_atom_site_type_symbol
_atom_site_fract_x
_atom_site_fract_y
_atom_site_fract_z
O1 O -0.28571(17) 0.54182(17) 0.57176(16)
H1? H -0.437(6) 0.534(7) 0.513(7)
N1? N -0.1469(4) 0.7794(4) 0.6634(4)
C1? C 0.2328(5) 1.0897(4) 0.8564(5)
C2 C -0.2335(2) 0.9486(2) 0.6569(2)
H2 H -0.39160 0.90110 0.59100
C3 C 0.08315(16) 0.84862(17) 0.76051(14)
H3 H 0.13980 0.73230 0.76220
N2 N 0.23194(16) 1.08872(17) 0.85555(14)
C4 C -0.14797(16) 0.77876(17) 0.66221(14)
C5 C 0.15291(16) 1.26261(17) 0.85131(14)
H4 H 0.25490 1.42580 0.91550
O2 O 0.45889(16) 1.15843(19) 0.9546(2)
H5? H 0.475(7) 1.049(7) 0.981(7)
C6 C -0.0808(2) 1.1902(2) 0.75014(19)
H6 H -0.13660 1.30560 0.74450
#END
