
#######################################################################
#
#                 Cambridge Crystallographic Data Centre
#                                CCDC
#
#######################################################################
#
# If this CIF has been generated from an entry in the Cambridge
# Structural Database, then it will include bibliographic, chemical,
# crystal, experimental, refinement or atomic coordinate data resulting
# from the CCDC's data processing and validation procedures.
#
#######################################################################

data_CSD_CIF_YELSIS
_audit_creation_date 2006-09-07
_audit_creation_method CSD-ConQuest-V1
_database_code_CSD YELSIS
_database_code_depnum_ccdc_archive 'CCDC 245398'
_chemical_formula_sum 'C26 H27 N1 O8'
_chemical_formula_moiety
;
C26 H27 N1 O8
;
_journal_coden_Cambridge 179
_journal_volume 45
_journal_year 2006
_journal_page_first 3492
_journal_name_full 'Angew.Chem.,Int.Ed. '
loop_
_publ_author_name
"H.Takikawa"
"Y.Hachisu"
"J.W.Bode"
"K.Suzuki"
_chemical_name_systematic
;
10-(Methoxymethoxy)-6-oxo-4,5-dihydro-3H-anthra[9,1-cd]isoxazol-5a(6H)-yl 
4,7,7-trimethyl-3-oxo-2-oxabicyclo[2.2.1]heptane-1-carboxylate
;
_chemical_melting_point 440.15
_cell_volume   2374.627
_exptl_crystal_colour 'colorless'
_exptl_crystal_density_diffrn 1.347
_exptl_special_details
;
Melts with decomposition.

;
_exptl_crystal_preparation 'ethyl acetate'
_diffrn_ambient_temperature 297
#These two values have been output from a single CSD field.
_refine_ls_R_factor_gt 0.0783
_refine_ls_wR_factor_gt 0.0783
_symmetry_cell_setting orthorhombic
_symmetry_space_group_name_H-M 'P 21 21 21'
_symmetry_Int_Tables_number 19
loop_
_symmetry_equiv_pos_site_id
_symmetry_equiv_pos_as_xyz
1 x,y,z
2 1/2-x,-y,1/2+z
3 -x,1/2+y,1/2-z
4 1/2+x,1/2-y,-z
_cell_length_a 7.1566(4)
_cell_length_b 11.0127(6)
_cell_length_c 30.1297(15)
_cell_angle_alpha 90
_cell_angle_beta 90
_cell_angle_gamma 90
_cell_formula_units_Z 4
loop_
_atom_type_symbol
_atom_type_radius_bond
C 0.68
H 0.23
N 0.68
O 0.68
loop_
_atom_site_label
_atom_site_type_symbol
_atom_site_fract_x
_atom_site_fract_y
_atom_site_fract_z
O1 O 0.6852(10) 0.4070(4) 1.05761(14)
O2 O 0.7407(9) 0.3969(9) 1.13166(18)
O3 O 0.3002(5) 0.5783(5) 0.89473(13)
O4 O 0.6893(4) 0.5515(2) 0.86735(7)
O5 O 0.9611(5) 0.6900(3) 0.99125(10)
O6 O 0.6944(5) 0.3765(3) 0.90504(10)
O7 O 0.7803(4) 0.2474(2) 0.83357(9)
O8 O 0.7807(5) 0.0927(3) 0.78445(12)
N1 N 0.8552(6) 0.5985(3) 1.01459(12)
C1 C 0.5355(12) 0.4143(5) 1.03065(19)
C2 C 0.3626(16) 0.3595(6) 1.0380(3)
H1 H 0.34370 0.31470 1.06380
C3 C 0.2252(14) 0.3701(7) 1.0090(3)
H2 H 0.11390 0.32830 1.01350
C4 C 0.2450(8) 0.4419(5) 0.9723(2)
H3 H 0.14460 0.45230 0.95300
C5 C 0.4152(7) 0.4998(4) 0.96333(16)
C6 C 0.4310(7) 0.5670(5) 0.92065(15)
C7 C 0.6239(5) 0.6213(3) 0.90654(11)
C8 C 0.6153(7) 0.7517(4) 0.88859(14)
H4 H 0.54130 0.75340 0.86160
H5 H 0.55530 0.80390 0.91030
C9 C 0.8104(8) 0.7985(4) 0.87894(14)
H6 H 0.80050 0.87960 0.86660
H7 H 0.86680 0.74700 0.85650
C10 C 0.9407(8) 0.8030(5) 0.91936(17)
H8 H 1.06960 0.79480 0.90990
H9 H 0.92720 0.88020 0.93450
C11 C 0.8908(7) 0.7021(4) 0.94978(13)
C12 C 0.7532(6) 0.6209(3) 0.94401(11)
C13 C 0.7286(6) 0.5620(4) 0.98524(12)
C14 C 0.5639(8) 0.4890(4) 0.99343(14)
C15 C 0.7247(5) 0.4324(3) 0.87149(12)
C16 C 0.7963(5) 0.3797(3) 0.82883(11)
C17 C 1.0031(5) 0.4029(4) 0.81814(14)
H10 H 1.08500 0.36030 0.83850
H11 H 1.03250 0.48890 0.81860
C18 C 1.0149(5) 0.3493(4) 0.77012(14)
H12 H 1.05510 0.41060 0.74910
H13 H 1.10120 0.28150 0.76900
C19 C 0.8117(5) 0.3069(4) 0.75998(13)
C20 C 0.7868(5) 0.2013(4) 0.79141(14)
C21 C 0.6935(5) 0.4056(3) 0.78473(12)
C22 C 0.7162(6) 0.5341(4) 0.76589(13)
H14 H 0.65610 0.53890 0.73750
H15 H 0.84670 0.55230 0.76270
H16 H 0.65990 0.59160 0.78580
C23 C 0.4836(5) 0.3721(5) 0.78698(16)
H17 H 0.43090 0.37480 0.75770
H18 H 0.41960 0.42890 0.80570
H19 H 0.47030 0.29170 0.79890
C24 C 0.7717(8) 0.2771(5) 0.71222(15)
H20 H 0.64110 0.25990 0.70870
H21 H 0.84350 0.20740 0.70350
H22 H 0.80510 0.34500 0.69390
C25 C 0.683(3) 0.3405(10) 1.0992(3)
H23 H 0.55520 0.31520 1.10510
H24 H 0.75740 0.26770 1.09570
C26 C 0.9197(19) 0.4192(11) 1.1251(3)
H25 H 0.93300 0.48910 1.10640
H26 H 0.97700 0.35030 1.11110
H27 H 0.97940 0.43430 1.15310
#END
