
#######################################################################
#
#                 Cambridge Crystallographic Data Centre
#                                CCDC
#
#######################################################################
#
# If this CIF has been generated from an entry in the Cambridge
# Structural Database, then it will include bibliographic, chemical,
# crystal, experimental, refinement or atomic coordinate data resulting
# from the CCDC's data processing and validation procedures.
#
#######################################################################

data_CSD_CIF_YELWES
_audit_creation_date 2006-09-07
_audit_creation_method CSD-ConQuest-V1
_database_code_CSD YELWES
_database_code_depnum_ccdc_archive 'CCDC 614061'
_chemical_formula_sum 'C9 H10 N2 O3'
_chemical_formula_moiety
;
C9 H10 N2 O3
;
_journal_coden_Cambridge 24
_journal_volume 47
_journal_year 2006
_journal_page_first 3173
_journal_name_full 'Tetrahedron Lett. '
loop_
_publ_author_name
"R.M.Srivastava"
"L.P.F.de Morais"
"S.C.de M.Souto"
"G.B.Carpenter"
"L.T.de Carvalho"
_chemical_name_systematic
;
3-Phenyl-trans-5,6-dihydroxy-5,6-dihydro-1,2,4-oxadiazine
;
_chemical_melting_point 434.15
_cell_volume   1889.604
_exptl_crystal_colour 'colorless'
_exptl_crystal_density_diffrn 1.365
_exptl_special_details
;
Melting point range 434.15-435.15K

;
_exptl_crystal_description 'cut prism'
_exptl_crystal_preparation 'isopropanol'
_diffrn_ambient_temperature 298
#These two values have been output from a single CSD field.
_refine_ls_R_factor_gt 0.0734
_refine_ls_wR_factor_gt 0.0734
_symmetry_cell_setting orthorhombic
_symmetry_space_group_name_H-M 'P b c a'
_symmetry_Int_Tables_number 61
loop_
_symmetry_equiv_pos_site_id
_symmetry_equiv_pos_as_xyz
1 x,y,z
2 1/2-x,-y,1/2+z
3 -x,1/2+y,1/2-z
4 1/2+x,1/2-y,-z
5 -x,-y,-z
6 -1/2+x,y,-1/2-z
7 x,-1/2-y,-1/2+z
8 -1/2-x,-1/2+y,z
_cell_length_a 9.6581(14)
_cell_length_b 9.7140(15)
_cell_length_c 20.141(3)
_cell_angle_alpha 90
_cell_angle_beta 90
_cell_angle_gamma 90
_cell_formula_units_Z 8
loop_
_atom_type_symbol
_atom_type_radius_bond
C 0.68
H 0.23
N 0.68
O 0.68
loop_
_atom_site_label
_atom_site_type_symbol
_atom_site_fract_x
_atom_site_fract_y
_atom_site_fract_z
O1 O 0.17982(17) 0.15288(19) 0.54217(10)
N1 N 0.1901(2) 0.1384(2) 0.47110(12)
C1 C 0.3150(3) 0.1413(3) 0.44775(14)
N2 N 0.4316(2) 0.1569(2) 0.48393(11)
H1 H 0.51040 0.15880 0.46400
C2 C 0.4270(3) 0.1702(3) 0.55456(13)
H2 H 0.50690 0.12310 0.57420
C3 C 0.2948(3) 0.1015(3) 0.57777(14)
H3 H 0.28170 0.12080 0.62510
O2 O 0.42462(19) 0.30881(18) 0.57604(10)
H4 H 0.49550 0.34770 0.56380
O3 O 0.31338(19) -0.03961(19) 0.56920(12)
H5 H 0.23840 -0.07870 0.57210
C4 C 0.3315(3) 0.1238(3) 0.37521(15)
C5 C 0.2484(4) 0.0326(4) 0.34092(17)
H6 H 0.18100 -0.01760 0.36330
C6 C 0.2655(5) 0.0161(5) 0.2735(2)
H7 H 0.20940 -0.04560 0.25060
C7 C 0.3640(5) 0.0895(5) 0.2397(2)
H8 H 0.37450 0.07770 0.19420
C8 C 0.4468(4) 0.1801(5) 0.27307(19)
H9 H 0.51350 0.23020 0.25020
C9 C 0.4315(3) 0.1975(4) 0.34106(17)
H10 H 0.48840 0.25880 0.36370
#END
