
#######################################################################
#
#                 Cambridge Crystallographic Data Centre
#                                CCDC
#
#######################################################################
#
# If this CIF has been generated from an entry in the Cambridge
# Structural Database, then it will include bibliographic, chemical,
# crystal, experimental, refinement or atomic coordinate data resulting
# from the CCDC's data processing and validation procedures.
#
#######################################################################

data_CSD_CIF_YEMGIJ
_audit_creation_date 2018-01-26
_audit_creation_method CSD-ConQuest-V1
_database_code_CSD YEMGIJ
_database_code_depnum_ccdc_archive 'CCDC 1585384'
_chemical_formula_sum 'C26 H17 N3 O2'
_chemical_formula_moiety
;
C26 H17 N3 O2
;
_journal_coden_Cambridge 2137
_journal_volume 2
_journal_year 2018
_journal_page_first 362
_journal_name_full 'ChemPhotoChem '
loop_
_publ_author_name
"K.Sonne"
"S.L.Broman"
"M.D.Kilde"
"A.U.Petersen"
"M.B.Nielsen"
_chemical_name_systematic
;
10-(4-nitrophenyl)-5,11a-dihydronaphtho[2,1-a]azulene-12,12(6H)-dicarbonitrile
;
_chemical_melting_point 502
_cell_volume   3947.183
_exptl_crystal_colour 'brown'
_exptl_crystal_density_diffrn 1.358
_exptl_special_details
;
Melting point range 502-503K

;
_exptl_crystal_description 'prisms'
_exptl_crystal_preparation 'dichloromethane/heptane'
_diffrn_ambient_temperature 122
#These two values have been output from a single CSD field.
_refine_ls_R_factor_gt 0.0575
_refine_ls_wR_factor_gt 0.0575
_symmetry_cell_setting orthorhombic
_symmetry_space_group_name_H-M 'P b c a'
_symmetry_Int_Tables_number 61
loop_
_symmetry_equiv_pos_site_id
_symmetry_equiv_pos_as_xyz
1 x,y,z
2 1/2-x,-y,1/2+z
3 1/2+x,1/2-y,-z
4 -x,1/2+y,1/2-z
5 -x,-y,-z
6 -1/2+x,y,-1/2-z
7 -1/2-x,-1/2+y,z
8 x,-1/2-y,-1/2+z
_cell_length_a 11.4682(8)
_cell_length_b 13.7856(9)
_cell_length_c 24.967(2)
_cell_angle_alpha 90
_cell_angle_beta 90
_cell_angle_gamma 90
_cell_formula_units_Z 8
loop_
_atom_type_symbol
_atom_type_radius_bond
C 0.68
H 0.23
N 0.68
O 0.68
loop_
_atom_site_label
_atom_site_type_symbol
_atom_site_fract_x
_atom_site_fract_y
_atom_site_fract_z
O1 O 0.71116(13) 0.06786(11) 0.47842(6)
O2 O 0.84102(14) 0.15706(10) 0.43962(7)
N1 N 0.80537(15) 0.07849(12) 0.45541(7)
C1 C 1.07629(16) -0.57201(13) 0.33800(7)
C2 C 1.09266(16) -0.43671(13) 0.40186(8)
N2 N 0.80953(16) -0.46537(13) 0.34618(7)
C3 C 1.08596(17) -0.25735(13) 0.41847(8)
C4 C 0.99126(16) -0.59003(13) 0.43045(8)
C5 C 0.89579(17) -0.49108(13) 0.36404(7)
C6 C 0.83440(18) -0.09736(14) 0.46126(8)
C7 C 0.90376(18) -0.17821(14) 0.45238(8)
C8 C 1.01379(17) -0.16976(13) 0.42871(8)
C9 C 1.03226(17) -0.34053(13) 0.40509(8)
C10 C 1.18851(16) -0.43752(13) 0.36005(8)
C11 C 0.98599(18) 0.00388(14) 0.42350(9)
N3 N 0.97902(17) -0.64064(13) 0.46586(7)
C12 C 1.01089(16) -0.52396(13) 0.38460(7)
C13 C 1.03884(17) -0.65952(14) 0.30951(8)
C14 C 1.27934(17) -0.37542(14) 0.36072(8)
C15 C 1.21193(17) -0.24803(14) 0.42537(8)
C16 C 1.29509(17) -0.29865(14) 0.39946(9)
C17 C 0.87773(17) -0.00761(13) 0.44618(8)
C18 C 1.05448(18) -0.07744(14) 0.41489(9)
C19 C 1.17159(16) -0.51988(13) 0.32471(8)
C20 C 1.0958(2) -0.67973(15) 0.26081(9)
C21 C 0.95230(18) -0.72240(15) 0.32789(9)
C22 C 0.9837(2) -0.82641(17) 0.25224(10)
C23 C 0.9246(2) -0.80542(17) 0.29961(10)
C24 C 1.0676(2) -0.76434(18) 0.23321(10)
C25 C 1.2494(2) -0.55154(18) 0.27951(9)
H1 H 0.948(2) -0.3390(15) 0.3999(9)
H2 H 1.132(2) -0.0713(17) 0.3989(10)
H3 H 1.378(2) -0.2809(16) 0.4055(9)
H4 H 0.911(2) -0.7108(16) 0.362(1)
H5 H 1.1279(19) -0.4527(16) 0.4370(9)
H6 H 1.009(2) 0.0669(19) 0.4134(10)
H7 H 1.238(2) -0.1977(17) 0.4486(9)
H8 H 1.338(2) -0.3853(16) 0.3350(9)
H9 H 0.876(2) -0.2414(17) 0.4651(10)
H10 H 0.757(2) -0.1023(18) 0.4781(10)
H11 H 0.863(2) -0.8489(18) 0.3132(10)
H12 H 1.108(2) -0.7746(18) 0.1991(11)
H13 H 0.970(2) -0.883(2) 0.2343(11)
H14 H 1.288(2) -0.4976(18) 0.2642(10)
H15 H 1.303(3) -0.602(2) 0.2920(13)
C26 C 1.1776(2) -0.60624(19) 0.2370(1)
H16 H 1.122(3) -0.552(2) 0.2164(12)
H17 H 1.239(2) -0.641(2) 0.2103(11)
#END
