
#######################################################################
#
#                 Cambridge Crystallographic Data Centre
#                                CCDC
#
#######################################################################
#
# If this CIF has been generated from an entry in the Cambridge
# Structural Database, then it will include bibliographic, chemical,
# crystal, experimental, refinement or atomic coordinate data resulting
# from the CCDC's data processing and validation procedures.
#
#######################################################################

data_CSD_CIF_YEMZOH
_audit_creation_date 2013-04-24
_audit_creation_method CSD-ConQuest-V1
_database_code_CSD YEMZOH
_database_code_depnum_ccdc_archive 'CCDC 850844'
_chemical_formula_sum 'C10 H7 N3 O2'
_chemical_formula_moiety
;
C10 H7 N3 O2
;
_journal_coden_Cambridge 1352
_journal_volume 14
_journal_year 2013
_journal_page_first 372
_journal_name_full 'ChemBioChem '
loop_
_publ_author_name
"K.Lommel"
"G.Schafer"
"K.Grenader"
"C.Ruland"
"A.Terfort"
"W.Mantele"
"G.Wille"
_chemical_name_systematic
;
2,2'-(5-Nitro-1,3-phenylene)diacetonitrile
;
_cell_volume    461.427
_exptl_crystal_colour 'colorless'
_exptl_crystal_density_diffrn 1.448
_exptl_crystal_description 'block'
_diffrn_ambient_temperature 173
#These two values have been output from a single CSD field.
_refine_ls_R_factor_gt 0.0333
_refine_ls_wR_factor_gt 0.0333
_symmetry_cell_setting triclinic
_symmetry_space_group_name_H-M 'P -1'
_symmetry_Int_Tables_number 2
loop_
_symmetry_equiv_pos_site_id
_symmetry_equiv_pos_as_xyz
1 x,y,z
2 -x,-y,-z
_cell_length_a 8.0125(10)
_cell_length_b 8.0705(10)
_cell_length_c 8.8205(11)
_cell_angle_alpha 89.926(10)
_cell_angle_beta 71.106(10)
_cell_angle_gamma 60.593(9)
_cell_formula_units_Z 2
loop_
_atom_type_symbol
_atom_type_radius_bond
C 0.68
H 0.23
N 0.68
O 0.68
loop_
_atom_site_label
_atom_site_type_symbol
_atom_site_fract_x
_atom_site_fract_y
_atom_site_fract_z
O1 O 0.67846(14) 0.34531(12) 0.53902(11)
O2 O 0.90256(16) 0.23351(13) 0.29275(12)
N1 N 0.79404(15) 0.35929(13) 0.41615(12)
N2 N 0.29947(18) 0.97676(18) 0.93693(14)
N3 N 1.35301(19) 0.43317(18) -0.08821(15)
C1 C 0.80813(17) 0.53494(15) 0.41859(14)
C2 C 0.68563(17) 0.67644(16) 0.55835(14)
H1 H 0.59030 0.66430 0.64830
C3 C 0.70672(16) 0.83803(15) 0.56297(13)
C4 C 0.84685(17) 0.85055(15) 0.42856(14)
H2 H 0.85960 0.96130 0.43170
C5 C 0.96901(16) 0.70578(15) 0.28951(14)
C6 C 0.94899(17) 0.54378(15) 0.28390(14)
H3 H 1.02980 0.44280 0.19030
C7 C 0.58938(18) 0.99758(16) 0.71251(14)
H4 H 0.68800 0.99160 0.76010
H5 H 0.52850 1.12430 0.67820
C8 C 0.42529(18) 0.98758(16) 0.83845(14)
C9 C 1.12173(18) 0.72948(17) 0.15076(14)
H6 H 1.04480 0.84670 0.10940
H7 H 1.21120 0.75050 0.19360
C10 C 1.25153(18) 0.56477(17) 0.01545(14)
#END
