
#######################################################################
#
#                 Cambridge Crystallographic Data Centre
#                                CCDC
#
#######################################################################
#
# If this CIF has been generated from an entry in the Cambridge
# Structural Database, then it will include bibliographic, chemical,
# crystal, experimental, refinement or atomic coordinate data resulting
# from the CCDC's data processing and validation procedures.
#
#######################################################################

data_CSD_CIF_YEPJIM
_audit_creation_date 1995-06-12
_audit_creation_method CSD-ConQuest-V1
_database_code_CSD YEPJIM
_database_code_depnum_ccdc_fiz 'CSD 400605'
_chemical_formula_sum 'C23 H31 N1 O7'
_chemical_formula_moiety
;
C23 H31 N1 O7
;
_journal_coden_Cambridge 643
_journal_volume 209
_journal_year 1994
_journal_page_first 903
_journal_name_full 'Z.Krist.Cryst.Mater. '
loop_
_publ_author_name
"T.Arnold"
"H.-U.Reissig"
"J.Richter"
"H.J.Linder"
"H.Paulus"
_chemical_name_systematic
;
3-O-(5,6-Dihydro-5-methyl-3-phenyl-4H-1,2-oxazin-6-yl)-1,2:5,6-di-O-isopropyli
dene-\a-D-glucofuranose
;
_cell_volume   2351.755
_exptl_crystal_colour 'colorless'
_diffrn_ambient_temperature ?
_diffrn_special_details
;
The study was carried out at room temperature,in the range 283-303K

;
#These two values have been output from a single CSD field.
_refine_ls_R_factor_gt 0.048
_refine_ls_wR_factor_gt 0.048
_symmetry_cell_setting orthorhombic
_symmetry_space_group_name_H-M 'P 21 21 21'
_symmetry_Int_Tables_number 19
loop_
_symmetry_equiv_pos_site_id
_symmetry_equiv_pos_as_xyz
1 x,y,z
2 1/2-x,-y,1/2+z
3 1/2+x,1/2-y,-z
4 -x,1/2+y,1/2-z
_cell_length_a 6.947(2)
_cell_length_b 12.478(7)
_cell_length_c 27.13(7)
_cell_angle_alpha 90
_cell_angle_beta 90
_cell_angle_gamma 90
_cell_formula_units_Z 4
loop_
_atom_type_symbol
_atom_type_radius_bond
C 0.68
H 0.23
N 0.68
O 0.68
loop_
_atom_site_label
_atom_site_type_symbol
_atom_site_fract_x
_atom_site_fract_y
_atom_site_fract_z
O1 O -0.21355(29) -0.87683(15) -0.83901(7)
C1 C -0.26999(35) -0.82833(21) -0.8826(1)
H1 H -0.16147(35) -0.77065(21) -0.89302(10)
C2 C -0.30335(40) -0.91725(22) -0.92072(9)
H2 H -0.21212(40) -0.91467(22) -0.95294(9)
C3 C -0.27357(37) -1.02080(21) -0.89163(10)
H3 H -0.37287(37) -1.08415(21) -0.90107(10)
C4 C -0.29323(42) -0.98306(22) -0.8389(1)
H4 H -0.44289(42) -0.98885(22) -0.82846(10)
C5 C -0.18980(57) -1.04865(24) -0.80079(11)
H5 H -0.03872(57) -1.03775(24) -0.80871(11)
C6 C -0.23604(77) -1.01662(32) -0.74742(12)
H6 H -0.37080(77) -0.97364(32) -0.74562(12)
H7 H -0.12257(77) -0.96743(32) -0.73229(12)
O2 O -0.25884(43) -1.15452(19) -0.80303(8)
O3 O -0.24875(54) -1.11247(25) -0.72248(9)
C7 C -0.29992(74) -1.19275(32) -0.75536(12)
C8 C -0.5089(12) -1.21522(68) -0.75218(19)
H8 H -0.5621(12) -1.23465(68) -0.71585(19)
H9 H -0.5713(12) -1.26932(68) -0.77884(19)
H10 H -0.5481(12) -1.13384(68) -0.76128(19)
C9 C -0.1829(15) -1.29199(58) -0.74573(25)
H11 H -0.1433(15) -1.34718(58) -0.77467(25)
H12 H -0.2345(15) -1.33636(58) -0.71421(25)
H13 H -0.0588(15) -1.24517(58) -0.73522(25)
O4 O -0.45297(28) -0.77943(15) -0.87701(7)
O5 O -0.49969(28) -0.90722(16) -0.93425(8)
C10 C -0.56491(40) -0.80420(23) -0.91906(11)
C11 C -0.53373(56) -0.72232(32) -0.95934(13)
H14 H -0.60262(56) -0.75775(32) -0.99110(13)
H15 H -0.38266(56) -0.71048(32) -0.96700(13)
H16 H -0.60011(56) -0.64605(32) -0.95126(13)
C12 C -0.77170(46) -0.81560(34) -0.90413(17)
H17 H -0.81873(46) -0.73918(34) -0.88985(17)
H18 H -0.79468(46) -0.87692(34) -0.87666(17)
H19 H -0.85295(46) -0.83483(34) -0.93690(17)
O6 O -0.08679(25) -1.06305(13) -0.90082(7)
C13 C -0.08789(44) -1.16421(21) -0.92288(10)
H20 H -0.16939(44) -1.21946(21) -0.90044(10)
C14 C 0.11765(46) -1.20413(22) -0.92690(11)
H21 H 0.11887(46) -1.28450(22) -0.94168(11)
C15 C 0.22377(40) -1.13064(23) -0.96143(11)
H22 H 0.3543(4) -1.16984(23) -0.97337(11)
H23 H 0.25973(40) -1.05782(23) -0.94198(11)
C16 C 0.10637(39) -1.10256(21) -1.00581(10)
O7 O -0.17955(30) -1.16054(18) -0.96965(8)
N1 N -0.07713(37) -1.11474(21) -1.00987(9)
C17 C 0.21468(64) -1.21460(34) -0.87707(14)
H24 H 0.13302(64) -1.26847(34) -0.85397(14)
H25 H 0.22465(64) -1.13720(34) -0.85944(14)
H26 H 0.35749(64) -1.24660(34) -0.88261(14)
C18 C 0.19881(46) -1.05533(22) -1.04993(11)
C19 C 0.38973(54) -1.02297(27) -1.04826(14)
H27 H 0.47110(54) -1.03234(27) -1.01461(14)
C20 C 0.47746(71) -0.97845(32) -1.08969(19)
H28 H 0.62716(71) -0.95532(32) -1.08826(19)
C21 C 0.37364(96) -0.96382(37) -1.13265(18)
H29 H 0.44002(96) -0.92782(37) -1.16462(18)
C22 C 0.18744(98) -0.99531(42) -1.13394(16)
H30 H 0.10583(98) -0.98417(42) -1.16744(16)
C23 C 0.09889(65) -1.04136(29) -1.09359(13)
H31 H -0.04946(65) -1.06664(29) -1.09613(13)
#END
