
#######################################################################
#
#                 Cambridge Crystallographic Data Centre
#                                CCDC
#
#######################################################################
#
# If this CIF has been generated from an entry in the Cambridge
# Structural Database, then it will include bibliographic, chemical,
# crystal, experimental, refinement or atomic coordinate data resulting
# from the CCDC's data processing and validation procedures.
#
#######################################################################

data_CSD_CIF_YEPWAS
_audit_creation_date 2006-12-18
_audit_creation_method CSD-ConQuest-V1
_database_code_CSD YEPWAS
_database_code_depnum_ccdc_archive 'CCDC 623007'
_chemical_formula_sum 'C25 H32 N2 O5'
_chemical_formula_moiety
;
C25 H32 N2 O5
;
_journal_coden_Cambridge 35
_journal_volume 71
_journal_year 2006
_journal_page_first 6851
_journal_name_full 'J.Org.Chem. '
loop_
_publ_author_name
"G.Baghdasarian"
"K.A.Woerpel"
_chemical_name_systematic
;
1-((1-Methoxy-4-phenylethyl)cyclohexyl)-3-(4-nitrophenylaminocarbonyloxy)propa
ne
;
_cell_volume   1144.288
_exptl_crystal_colour 'colorless'
_exptl_crystal_density_diffrn 1.279
_exptl_crystal_description 'plate'
_diffrn_ambient_temperature 163
#These two values have been output from a single CSD field.
_refine_ls_R_factor_gt 0.0383
_refine_ls_wR_factor_gt 0.0383
_symmetry_cell_setting triclinic
_symmetry_space_group_name_H-M 'P -1'
_symmetry_Int_Tables_number 2
loop_
_symmetry_equiv_pos_site_id
_symmetry_equiv_pos_as_xyz
1 x,y,z
2 -x,-y,-z
_cell_length_a 8.0052(15)
_cell_length_b 11.777(2)
_cell_length_c 12.237(2)
_cell_angle_alpha 87.037(4)
_cell_angle_beta 84.042(3)
_cell_angle_gamma 86.669(3)
_cell_formula_units_Z 2
loop_
_atom_type_symbol
_atom_type_radius_bond
C 0.68
H 0.23
N 0.68
O 0.68
loop_
_atom_site_label
_atom_site_type_symbol
_atom_site_fract_x
_atom_site_fract_y
_atom_site_fract_z
O1 O 0.10110(12) 0.21993(8) 0.20336(8)
O2 O -0.25229(13) 0.04614(9) -0.08907(9)
O3 O -0.51919(14) 0.09986(9) -0.12112(9)
O4 O -0.86050(15) -0.05946(10) -0.58024(10)
O5 O -0.69591(17) -0.20541(12) -0.61902(12)
N1 N -0.37505(17) -0.05139(11) -0.20625(11)
N2 N -0.74238(16) -0.12598(11) -0.56132(11)
C1 C 0.06398(18) 0.30606(12) 0.11818(12)
C2 C 0.03674(19) 0.42384(13) 0.16705(14)
C3 C 0.18979(19) 0.45922(13) 0.21910(13)
C4 C 0.34911(19) 0.45770(12) 0.13802(13)
C5 C 0.37660(19) 0.34195(12) 0.08507(13)
C6 C 0.22214(19) 0.30353(13) 0.03674(12)
C7 C -0.0919(2) 0.27690(13) 0.06467(14)
C8 C -0.0857(2) 0.16083(13) 0.01284(14)
C9 C -0.2590(2) 0.14275(14) -0.01935(15)
C10 C -0.39473(19) 0.03780(12) -0.13727(12)
C11 C -0.47554(18) -0.07017(12) -0.28983(12)
C12 C -0.4283(2) -0.16197(13) -0.35682(13)
C13 C -0.5152(2) -0.18162(13) -0.44486(13)
C14 C -0.65121(18) -0.10812(12) -0.46638(12)
C15 C -0.70195(19) -0.01781(13) -0.40097(13)
C16 C -0.61579(19) 0.00099(13) -0.31221(13)
C17 C -0.0245(2) 0.20583(18) 0.29340(16)
C18 C 0.5055(2) 0.48386(13) 0.19256(14)
C19 C 0.4958(2) 0.59903(14) 0.24553(16)
C20 C 0.64748(19) 0.61888(13) 0.30466(13)
C21 C 0.6808(2) 0.55290(15) 0.39849(14)
C22 C 0.8164(2) 0.57364(16) 0.45511(15)
C23 C 0.9215(2) 0.65960(16) 0.41839(16)
C24 C 0.8916(2) 0.72463(15) 0.32524(16)
C25 C 0.7555(2) 0.70441(13) 0.26896(14)
H1 H -0.282(2) -0.0971(16) -0.2016(15)
H2 H -0.063(2) 0.4274(14) 0.2212(15)
H3 H 0.013(2) 0.4805(14) 0.1061(14)
H4 H 0.2087(19) 0.4060(14) 0.2845(13)
H5 H 0.164(2) 0.5345(15) 0.2481(14)
H6 H 0.331(2) 0.5193(14) 0.0787(13)
H7 H 0.4132(19) 0.2827(13) 0.1412(13)
H8 H 0.473(2) 0.3440(14) 0.0290(14)
H9 H 0.197(2) 0.3560(14) -0.0296(14)
H10 H 0.2435(19) 0.2254(14) 0.0110(13)
H11 H -0.111(2) 0.3373(15) 0.0077(15)
H12 H -0.192(2) 0.2827(14) 0.1204(14)
H13 H -0.004(2) 0.1583(15) -0.0519(16)
H14 H -0.052(2) 0.0981(15) 0.0661(14)
H15 H -0.338(2) 0.1256(14) 0.0512(15)
H16 H -0.298(2) 0.2088(16) -0.0591(15)
H17 H -0.331(2) -0.2106(14) -0.3433(14)
H18 H -0.481(2) -0.2406(15) -0.4900(14)
H19 H -0.797(2) 0.0317(14) -0.4184(14)
H20 H -0.649(2) 0.0622(14) -0.2671(14)
H21 H -0.046(3) 0.2783(19) 0.3387(18)
H22 H -0.134(3) 0.1907(18) 0.2706(18)
H23 H 0.017(3) 0.1441(17) 0.3429(17)
H24 H 0.525(2) 0.4214(14) 0.2488(14)
H25 H 0.602(2) 0.4787(14) 0.1389(14)
H26 H 0.397(3) 0.6020(16) 0.2998(17)
H27 H 0.481(2) 0.6621(17) 0.1884(16)
H28 H 0.607(2) 0.4907(15) 0.4253(14)
H29 H 0.835(3) 0.5257(17) 0.5189(18)
H30 H 1.015(3) 0.6758(17) 0.4585(17)
H31 H 0.971(2) 0.7827(17) 0.2974(16)
H32 H 0.735(2) 0.7506(15) 0.2053(15)
#END
