
#######################################################################
#
#                 Cambridge Crystallographic Data Centre
#                                CCDC
#
#######################################################################
#
# If this CIF has been generated from an entry in the Cambridge
# Structural Database, then it will include bibliographic, chemical,
# crystal, experimental, refinement or atomic coordinate data resulting
# from the CCDC's data processing and validation procedures.
#
#######################################################################

data_CSD_CIF_YERTOF
_audit_creation_date 2006-12-18
_audit_creation_method CSD-ConQuest-V1
_database_code_CSD YERTOF
_database_code_depnum_ccdc_archive 'CCDC 624885'
_chemical_formula_sum 'C27 H25 N5 O8'
_chemical_formula_moiety
;
C27 H25 N5 O8
;
_journal_coeditor_code "IUCr IS2075"
_journal_coden_Cambridge 1370
_journal_volume 62
_journal_year 2006
_journal_page_first o4482
_journal_name_full 'Acta Crystallogr.,Sect.E:Struct.Rep.Online '
loop_
_publ_author_name
"Chun-Hua Diao"
"Ming Yu"
_chemical_name_systematic
;
(E)-4-(2-(2-(2,4-Dinitrophenoxy)ethoxy)-3-methoxybenzylideneamino)-1,5-dimethy
l-2-phenyl-1H-pyrazol-3(2H)-one
;
_cell_volume   1295.568
_exptl_crystal_colour 'yellow'
_exptl_crystal_density_diffrn 1.404
_exptl_crystal_description 'block'
_exptl_crystal_preparation 'acetonitrile'
_diffrn_ambient_temperature 294
#These two values have been output from a single CSD field.
_refine_ls_R_factor_gt 0.0445
_refine_ls_wR_factor_gt 0.0445
_symmetry_cell_setting triclinic
_symmetry_space_group_name_H-M 'P -1'
_symmetry_Int_Tables_number 2
loop_
_symmetry_equiv_pos_site_id
_symmetry_equiv_pos_as_xyz
1 x,y,z
2 -x,-y,-z
_cell_length_a 9.307(7)
_cell_length_b 12.13(1)
_cell_length_c 12.718(10)
_cell_angle_alpha 67.920(13)
_cell_angle_beta 89.065(13)
_cell_angle_gamma 77.497(12)
_cell_formula_units_Z 2
loop_
_atom_type_symbol
_atom_type_radius_bond
C 0.68
H 0.23
N 0.68
O 0.68
loop_
_atom_site_label
_atom_site_type_symbol
_atom_site_fract_x
_atom_site_fract_y
_atom_site_fract_z
O1 O 0.5960(2) -0.36950(18) 0.88966(17)
O2 O 0.5262(2) -0.24335(19) 0.97340(17)
O3 O 0.18376(19) 0.13644(17) 0.77325(17)
O4 O 0.0484(2) 0.14903(19) 0.63122(17)
O5 O 0.19790(17) 0.06103(14) 0.49367(13)
O6 O 0.15683(16) 0.24641(14) 0.27387(12)
O7 O -0.05455(18) 0.31832(15) 0.10204(13)
O8 O 0.41731(17) 0.20054(15) 0.58410(13)
N1 N 0.5293(2) -0.2715(2) 0.89018(19)
N2 N 0.1572(2) 0.1023(2) 0.69760(19)
N3 N 0.21490(19) 0.46098(17) 0.44141(15)
N4 N 0.4485(2) 0.43169(18) 0.67365(15)
N5 N 0.4808(2) 0.31009(18) 0.68486(16)
C1 C 0.2624(2) -0.0035(2) 0.6903(2)
C2 C 0.3434(3) -0.0840(2) 0.7893(2)
H1 H 0.32860 -0.07240 0.85730
C3 C 0.4465(3) -0.1817(2) 0.7850(2)
C4 C 0.4736(3) -0.1978(2) 0.6838(2)
H2 H 0.54620 -0.26320 0.68240
C5 C 0.3927(3) -0.1165(2) 0.5855(2)
H3 H 0.41170 -0.12660 0.51730
C6 C 0.2823(2) -0.0191(2) 0.58679(19)
C7 C 0.2059(3) 0.0369(2) 0.39068(19)
H4 H 0.18070 -0.04050 0.40380
H5 H 0.30470 0.03360 0.36470
C8 C 0.0974(3) 0.1397(2) 0.3042(2)
H6 H 0.08370 0.12110 0.23770
H7 H 0.00270 0.15280 0.33590
C9 C 0.0580(2) 0.3580(2) 0.24405(18)
C10 C -0.0492(2) 0.3993(2) 0.15299(19)
C11 C -0.1388(3) 0.5151(2) 0.1201(2)
H8 H -0.20970 0.54340 0.05960
C12 C -0.1224(3) 0.5889(2) 0.1778(2)
H9 H -0.18270 0.66700 0.15550
C13 C -0.0188(2) 0.5488(2) 0.26726(19)
H10 H -0.01010 0.59960 0.30510
C14 C 0.0738(2) 0.4324(2) 0.30229(18)
C15 C -0.1691(3) 0.3530(3) 0.0141(2)
H11 H -0.26310 0.37410 0.04230
H12 H -0.16730 0.28600 -0.00910
H13 H -0.15360 0.42220 -0.04990
C16 C 0.1813(2) 0.3867(2) 0.40096(18)
H14 H 0.22520 0.30370 0.43420
C17 C 0.3141(2) 0.4183(2) 0.53702(18)
C18 C 0.4018(2) 0.2986(2) 0.59851(19)
C19 C 0.3442(2) 0.4949(2) 0.58669(19)
C20 C 0.2751(3) 0.6259(2) 0.5573(2)
H15 H 0.22830 0.63630 0.62190
H16 H 0.20270 0.65350 0.49460
H17 H 0.34940 0.67260 0.53650
C21 C 0.4920(3) 0.4677(2) 0.7630(2)
H18 H 0.42790 0.54380 0.75670
H19 H 0.59180 0.47720 0.75550
H20 H 0.48490 0.40600 0.83590
C22 C 0.5946(2) 0.2192(2) 0.76237(19)
C23 C 0.7349(3) 0.2380(3) 0.7683(2)
H21 H 0.75740 0.31090 0.72100
C24 C 0.8412(3) 0.1471(3) 0.8452(2)
H22 H 0.93490 0.15980 0.85210
C25 C 0.8090(3) 0.0376(3) 0.9119(3)
H23 H 0.88190 -0.02410 0.96240
C26 C 0.6697(3) 0.0187(3) 0.9043(2)
H24 H 0.64850 -0.05560 0.94940
C27 C 0.5619(3) 0.1099(2) 0.8298(2)
H25 H 0.46730 0.09780 0.82500
#END
