
#######################################################################
#
#                 Cambridge Crystallographic Data Centre
#                                CCDC
#
#######################################################################
#
# If this CIF has been generated from an entry in the Cambridge
# Structural Database, then it will include bibliographic, chemical,
# crystal, experimental, refinement or atomic coordinate data resulting
# from the CCDC's data processing and validation procedures.
#
#######################################################################

data_CSD_CIF_YESFEK
_audit_creation_date 2018-01-30
_audit_creation_method CSD-ConQuest-V1
_database_code_CSD YESFEK
_database_code_depnum_ccdc_archive 'CCDC 1575872'
_chemical_formula_sum 'C21 H25 N1 O6'
_chemical_formula_moiety
;
C21 H25 N1 O6
;
_journal_coden_Cambridge 1291
_journal_year 2018
_journal_page_first 355
_journal_name_full 'Eur.J.Org.Chem. '
loop_
_publ_author_name
"V.G.Goz"
"I.Pinter"
"V.Harmat"
"A.Perczel"
_chemical_name_systematic
;
Methyl 2,3-di-O-benzyl-\a-D-xylopyranoside-4-ulose oxime
;
_cell_volume   2073.039
_exptl_crystal_colour 'colorless'
_exptl_crystal_density_diffrn 1.241
_exptl_crystal_description 'prism'
_exptl_crystal_preparation 'Re-crystallisation from solvent'
_diffrn_ambient_temperature 293
#These two values have been output from a single CSD field.
_refine_ls_R_factor_gt 0.0433
_refine_ls_wR_factor_gt 0.0433
_symmetry_cell_setting orthorhombic
_symmetry_space_group_name_H-M 'P 21 21 21'
_symmetry_Int_Tables_number 19
loop_
_symmetry_equiv_pos_site_id
_symmetry_equiv_pos_as_xyz
1 x,y,z
2 1/2-x,-y,1/2+z
3 1/2+x,1/2-y,-z
4 -x,1/2+y,1/2-z
_cell_length_a 8.37267(15)
_cell_length_b 10.46205(16)
_cell_length_c 23.6661(3)
_cell_angle_alpha 90
_cell_angle_beta 90
_cell_angle_gamma 90
_cell_formula_units_Z 4
loop_
_atom_type_symbol
_atom_type_radius_bond
C 0.68
H 0.23
N 0.68
O 0.68
loop_
_atom_site_label
_atom_site_type_symbol
_atom_site_fract_x
_atom_site_fract_y
_atom_site_fract_z
C1 C 0.4382(3) 0.5595(3) 0.21981(11)
H1 H 0.33660 0.51620 0.21240
O1 O 0.4297(3) 0.6853(2) 0.19899(7)
C2 C 0.4639(3) 0.5683(2) 0.28353(10)
H2 H 0.48020 0.48220 0.29870
O2 O 0.3319(3) 0.62529(19) 0.31117(8)
C3 C 0.6106(3) 0.6487(2) 0.29577(10)
H3 H 0.57930 0.73890 0.29680
O3 O 0.6656(3) 0.61224(17) 0.35033(7)
C4 C 0.7385(3) 0.6310(2) 0.25102(10)
N1 N 0.8607(3) 0.7029(2) 0.25649(10)
O4 O 0.9774(3) 0.6802(2) 0.21541(9)
H4 H 1.04790 0.73440 0.21800
C5 C 0.7214(3) 0.5372(3) 0.20258(11)
H5 H 0.75080 0.58190 0.16770
O5 O 0.5623(2) 0.48858(19) 0.19552(8)
C6 C 0.8291(4) 0.4207(3) 0.20795(13)
H6 H 0.80910 0.36290 0.17670
H7 H 0.94000 0.44730 0.20610
O6 O 0.8016(2) 0.3564(2) 0.25927(9)
H8 H 0.72770 0.30580 0.25530
C7 C 0.3823(5) 0.6953(4) 0.14091(13)
H9 H 0.46450 0.66020 0.11720
H10 H 0.36590 0.78350 0.13140
H11 H 0.28480 0.64870 0.13520
C8 C 0.2102(4) 0.5362(4) 0.32785(14)
H12 H 0.19300 0.47580 0.29740
H13 H 0.11110 0.58230 0.33380
C9 C 0.2510(4) 0.4631(3) 0.38118(12)
C10 C 0.3526(5) 0.5109(4) 0.42176(14)
H14 H 0.40260 0.58910 0.41590
C11 C 0.3814(6) 0.4437(5) 0.47134(16)
H15 H 0.45200 0.47680 0.49790
C12 C 0.3082(6) 0.3310(4) 0.48140(18)
H16 H 0.32590 0.28760 0.51510
C13 C 0.2082(7) 0.2817(4) 0.4417(2)
H17 H 0.15810 0.20380 0.44830
C14 C 0.1797(5) 0.3462(3) 0.39110(16)
H18 H 0.11270 0.31040 0.36400
C15 C 0.7259(6) 0.7129(3) 0.38342(12)
H19 H 0.64800 0.78140 0.38570
H20 H 0.82260 0.74670 0.36650
C16 C 0.7614(4) 0.6619(3) 0.44165(11)
C17 C 0.7296(6) 0.6709(5) 0.54204(14)
H21 H 0.68400 0.70910 0.57370
C18 C 0.8310(6) 0.5699(4) 0.54854(12)
H22 H 0.85490 0.53910 0.58440
C19 C 0.8973(5) 0.5142(4) 0.50153(15)
H23 H 0.96680 0.44540 0.50550
C20 C 0.8614(4) 0.5599(3) 0.44849(12)
H24 H 0.90580 0.52080 0.41690
C21 C 0.6937(6) 0.7172(4) 0.48821(14)
H25 H 0.62380 0.78560 0.48400
#END
