
#######################################################################
#
#                 Cambridge Crystallographic Data Centre
#                                CCDC
#
#######################################################################
#
# If this CIF has been generated from an entry in the Cambridge
# Structural Database, then it will include bibliographic, chemical,
# crystal, experimental, refinement or atomic coordinate data resulting
# from the CCDC's data processing and validation procedures.
#
#######################################################################

data_CSD_CIF_YESJEM
_audit_creation_date 2006-12-18
_audit_creation_method CSD-ConQuest-V1
_database_code_CSD YESJEM
_database_code_depnum_ccdc_archive 'CCDC 627685'
_chemical_formula_sum 'C24 H21 N3 O3'
_chemical_formula_moiety
;
C24 H21 N3 O3
;
_journal_coeditor_code "IUCr HB2168"
_journal_coden_Cambridge 1370
_journal_volume 62
_journal_year 2006
_journal_page_first o4950
_journal_name_full 'Acta Crystallogr.,Sect.E:Struct.Rep.Online '
loop_
_publ_author_name
"Wei-Lin Ding"
"Pin-Liang Wang"
"Zhi-Tao Xing"
"Hai-Bo Wang"
_chemical_name_systematic
;
N-(2,6-Dimethylphenyl)-2-(2-(3-phenyl-1,2,4-oxadiazol-5-yl)phenoxy)acetamide
;
_cell_volume   2062.537
_exptl_crystal_colour 'colorless'
_exptl_crystal_density_diffrn 1.286
_exptl_crystal_description 'block'
_exptl_crystal_preparation 'ethanol'
_diffrn_ambient_temperature 293
#These two values have been output from a single CSD field.
_refine_ls_R_factor_gt 0.0872
_refine_ls_wR_factor_gt 0.0872
_symmetry_cell_setting monoclinic
_symmetry_space_group_name_H-M 'P 21/c'
_symmetry_Int_Tables_number 14
loop_
_symmetry_equiv_pos_site_id
_symmetry_equiv_pos_as_xyz
1 x,y,z
2 -x,1/2+y,1/2-z
3 -x,-y,-z
4 x,-1/2-y,-1/2+z
_cell_length_a 12.685(3)
_cell_length_b 20.073(4)
_cell_length_c 8.3090(17)
_cell_angle_alpha 90
_cell_angle_beta 102.87(3)
_cell_angle_gamma 90
_cell_formula_units_Z 4
loop_
_atom_type_symbol
_atom_type_radius_bond
C 0.68
H 0.23
N 0.68
O 0.68
loop_
_atom_site_label
_atom_site_type_symbol
_atom_site_fract_x
_atom_site_fract_y
_atom_site_fract_z
O1 O 0.4458(3) -0.02171(15) 0.1781(5)
O2 O 0.4765(2) 0.15165(14) 0.2083(4)
N1 N 0.2603(4) 0.32816(19) 0.3534(5)
N2 N 0.3344(3) 0.06194(16) 0.2132(4)
H1 H 0.32540 0.10440 0.21230
N3 N 0.3137(3) 0.22876(16) 0.2763(4)
O3 O 0.3643(3) 0.33285(14) 0.3182(4)
C1 C 0.3037(5) 0.0520(3) 0.5412(6)
H2 H 0.28120 0.04230 0.64160
H3 H 0.29730 0.09900 0.51970
H4 H 0.37760 0.03860 0.55210
C2 C 0.2021(4) -0.0064(2) -0.0643(6)
H5 H 0.14960 -0.03300 -0.13800
H6 H 0.27350 -0.02140 -0.06710
H7 H 0.19400 0.03940 -0.09800
C3 C 0.1849(4) -0.0129(2) 0.1089(6)
C4 C 0.2483(3) 0.02079(19) 0.2395(5)
C5 C 0.2330(4) 0.0147(2) 0.4002(6)
C6 C 0.1476(4) -0.0246(2) 0.4231(6)
H8 H 0.13390 -0.02810 0.52810
C7 C 0.0832(4) -0.0583(2) 0.2957(7)
H9 H 0.02750 -0.08520 0.31450
C8 C 0.1014(4) -0.0522(2) 0.1384(6)
H10 H 0.05700 -0.07480 0.05130
C9 C 0.4281(4) 0.0383(2) 0.1901(6)
C10 C 0.5120(4) 0.0880(2) 0.1717(7)
H11 H 0.58020 0.07730 0.24650
H12 H 0.52270 0.08710 0.05970
C11 C 0.5356(4) 0.2063(2) 0.1897(5)
C12 C 0.6332(4) 0.2042(2) 0.1433(6)
H13 H 0.66260 0.16350 0.12230
C13 C 0.6872(4) 0.2627(3) 0.1281(6)
H14 H 0.75240 0.26130 0.09480
C14 C 0.6459(5) 0.3229(3) 0.1613(6)
H15 H 0.68380 0.36200 0.15370
C15 C 0.5492(4) 0.3249(2) 0.2054(6)
H16 H 0.52050 0.36600 0.22490
C16 C 0.4921(3) 0.2675(2) 0.2223(5)
C17 C 0.3887(4) 0.27175(19) 0.2707(5)
C18 C 0.2356(4) 0.2655(2) 0.3269(5)
C19 C 0.1334(4) 0.2393(2) 0.3497(5)
C20 C 0.1080(4) 0.1724(2) 0.3200(6)
H17 H 0.15720 0.14420 0.28660
C21 C 0.0104(4) 0.1478(3) 0.3397(7)
H18 H -0.00590 0.10300 0.32030
C22 C -0.0619(5) 0.1887(3) 0.3873(7)
H19 H -0.12800 0.17180 0.39950
C23 C -0.0384(5) 0.2539(3) 0.4171(7)
H20 H -0.08810 0.28160 0.45090
C24 C 0.0581(4) 0.2791(2) 0.3975(6)
H21 H 0.07300 0.32410 0.41710
#END
