
#######################################################################
#
#                 Cambridge Crystallographic Data Centre
#                                CCDC
#
#######################################################################
#
# If this CIF has been generated from an entry in the Cambridge
# Structural Database, then it will include bibliographic, chemical,
# crystal, experimental, refinement or atomic coordinate data resulting
# from the CCDC's data processing and validation procedures.
#
#######################################################################

data_CSD_CIF_YEYVEF
_audit_creation_date 2013-06-16
_audit_creation_method CSD-ConQuest-V1
_database_code_CSD YEYVEF
_database_code_depnum_ccdc_archive 'CCDC 946234'
_chemical_formula_sum 'C21 H31 N1 O5'
_chemical_formula_moiety
;
C21 H31 N1 O5
;
_journal_coden_Cambridge 4
_journal_volume 134
_journal_year 2012
_journal_page_first 16991
_journal_name_full 'J.Am.Chem.Soc. '
loop_
_publ_author_name
"Zhi Ren"
"Fanyang Mo"
"Guangbin Dong"
_chemical_name_systematic
;
1-(2-(((2,6-Dimethoxybenzylidene)amino)oxy)-3-isopropylcyclopentyl)ethyl 
acetate
;
_cell_volume   1031.711
_exptl_crystal_colour 'colorless'
_exptl_crystal_density_diffrn 1.215
_exptl_crystal_description 'needle'
_diffrn_ambient_temperature 100
#These two values have been output from a single CSD field.
_refine_ls_R_factor_gt 0.0484
_refine_ls_wR_factor_gt 0.0484
_symmetry_cell_setting monoclinic
_symmetry_space_group_name_H-M 'P 21'
_symmetry_Int_Tables_number 4
loop_
_symmetry_equiv_pos_site_id
_symmetry_equiv_pos_as_xyz
1 x,y,z
2 -x,1/2+y,-z
_cell_length_a 13.5787(15)
_cell_length_b 5.2656(8)
_cell_length_c 14.435(2)
_cell_angle_alpha 90
_cell_angle_beta 91.579(4)
_cell_angle_gamma 90
_cell_formula_units_Z 2
loop_
_atom_type_symbol
_atom_type_radius_bond
C 0.68
H 0.23
N 0.68
O 0.68
loop_
_atom_site_label
_atom_site_type_symbol
_atom_site_fract_x
_atom_site_fract_y
_atom_site_fract_z
C1 C 0.8365(2) 0.3869(6) 0.30261(18)
H1 H 0.79960 0.22320 0.29640
C2 C 0.9350(2) 0.3792(6) 0.25259(19)
H2 H 0.96910 0.21700 0.26990
C3 C 0.9945(2) 0.6000(7) 0.2964(2)
H3 H 0.98870 0.75410 0.25740
H4 H 1.06490 0.55390 0.30360
C4 C 0.9490(2) 0.6460(7) 0.3921(2)
H5 H 1.00010 0.63270 0.44210
H6 H 0.91890 0.81710 0.39460
C5 C 0.8701(2) 0.4398(6) 0.40330(19)
H7 H 0.90430 0.28370 0.42710
C6 C 0.9266(2) 0.3920(7) 0.14751(19)
H8 H 0.89530 0.55630 0.12830
C7 C 1.0257(2) 0.3652(8) 0.1018(2)
H9 H 1.01580 0.36380 0.03430
H10 H 1.05700 0.20600 0.12180
H11 H 1.06810 0.50860 0.11980
C8 C 0.8130(2) 0.2032(6) 0.0381(2)
C9 C 0.7490(2) -0.0229(7) 0.0191(2)
H12 H 0.71010 0.00490 -0.03830
H13 H 0.70460 -0.04760 0.07070
H14 H 0.79020 -0.17400 0.01230
C10 C 0.7887(2) 0.5040(6) 0.47064(19)
H15 H 0.75030 0.65040 0.44430
C11 C 0.8310(2) 0.5839(8) 0.5656(2)
H16 H 0.86870 0.74140 0.55930
H17 H 0.87440 0.44980 0.59020
H18 H 0.77710 0.61170 0.60820
C12 C 0.7182(2) 0.2795(7) 0.4799(2)
H19 H 0.75480 0.13100 0.50300
H20 H 0.68790 0.24030 0.41920
H21 H 0.66670 0.32330 0.52340
C13 C 0.6295(2) 0.7460(6) 0.25401(19)
H22 H 0.66400 0.90140 0.24670
C14 C 0.5211(2) 0.7479(6) 0.24684(19)
C15 C 0.4765(2) 0.9197(6) 0.18408(19)
C16 C 0.3747(2) 0.9311(7) 0.1702(2)
H23 H 0.34570 1.04860 0.12760
C17 C 0.3170(2) 0.7673(7) 0.2200(2)
H24 H 0.24740 0.77220 0.21080
C18 C 0.3577(2) 0.5955(7) 0.2832(2)
H25 H 0.31630 0.48510 0.31670
C19 C 0.4592(2) 0.5857(7) 0.29717(19)
C20 C 0.5043(3) 1.2726(7) 0.0823(2)
H26 H 0.46100 1.37670 0.12000
H27 H 0.46710 1.20760 0.02820
H28 H 0.55940 1.37640 0.06150
C21 C 0.4466(2) 0.2510(7) 0.4075(2)
H29 H 0.41180 0.14170 0.36240
H30 H 0.39850 0.34240 0.44430
H31 H 0.48860 0.14640 0.44850
N1 N 0.67867(17) 0.5438(5) 0.26970(16)
O1 O 0.86273(16) 0.1813(4) 0.11948(14)
O2 O 0.82024(17) 0.3847(5) -0.01301(15)
O3 O 0.78073(14) 0.5975(4) 0.26633(13)
O4 O 0.54151(15) 1.0645(5) 0.13631(14)
O5 O 0.50605(15) 0.4291(5) 0.35974(14)
#END
