
#######################################################################
#
#                 Cambridge Crystallographic Data Centre
#                                CCDC
#
#######################################################################
#
# If this CIF has been generated from an entry in the Cambridge
# Structural Database, then it will include bibliographic, chemical,
# crystal, experimental, refinement or atomic coordinate data resulting
# from the CCDC's data processing and validation procedures.
#
#######################################################################

data_CSD_CIF_YEZQOL
_audit_creation_date 2013-06-16
_audit_creation_method CSD-ConQuest-V1
_database_code_CSD YEZQOL
_database_code_depnum_ccdc_archive 'CCDC 944845'
_chemical_formula_sum 'C23 H34 N2 O4'
_chemical_formula_moiety
;
C23 H34 N2 O4
;
_journal_coden_Cambridge 4
_journal_volume 134
_journal_year 2012
_journal_page_first 20009
_journal_name_full 'J.Am.Chem.Soc. '
loop_
_publ_author_name
"Lijun Zhou"
"Zhiming Li"
"Yue Zou"
"Quanrui Wang"
"I.A.Sanhueza"
"F.Schoenebeck"
"A.Goeke"
_chemical_name_systematic
;
1-Methoxy-14-methyl-16-(4-nitrophenyl)azacyclohexadec-13-en-2-one
;
_cell_volume   2255.696
_exptl_crystal_colour 'colorless'
_exptl_crystal_density_diffrn 1.185
_exptl_crystal_description 'block'
_diffrn_ambient_temperature 293
#These two values have been output from a single CSD field.
_refine_ls_R_factor_gt 0.0619
_refine_ls_wR_factor_gt 0.0619
_symmetry_cell_setting monoclinic
_symmetry_space_group_name_H-M 'P 21/n'
_symmetry_Int_Tables_number 14
loop_
_symmetry_equiv_pos_site_id
_symmetry_equiv_pos_as_xyz
1 x,y,z
2 1/2-x,1/2+y,1/2-z
3 -x,-y,-z
4 -1/2+x,-1/2-y,-1/2+z
_cell_length_a 9.849(4)
_cell_length_b 11.546(5)
_cell_length_c 19.915(8)
_cell_angle_alpha 90
_cell_angle_beta 95.101(5)
_cell_angle_gamma 90
_cell_formula_units_Z 4
loop_
_atom_type_symbol
_atom_type_radius_bond
C 0.68
H 0.23
N 0.68
O 0.68
loop_
_atom_site_label
_atom_site_type_symbol
_atom_site_fract_x
_atom_site_fract_y
_atom_site_fract_z
N1 N 0.6480(2) 0.4959(2) 0.07148(14)
N2 N 0.09052(17) 0.28031(15) 0.16011(8)
O1 O 0.6924(2) 0.4637(2) 0.02029(13)
O2 O 0.6895(3) 0.5788(3) 0.10117(16)
O3 O 0.05879(15) 0.27787(14) 0.08967(7)
O4 O 0.01239(16) 0.22399(16) 0.25731(8)
C1 C 0.5369(2) 0.4294(2) 0.09804(12)
C2 C 0.4852(2) 0.4656(2) 0.15607(12)
H1 H 0.51650 0.53310 0.17780
C3 C 0.3853(2) 0.3990(2) 0.18140(11)
H2 H 0.35010 0.42160 0.22120
C4 C 0.3364(2) 0.29997(18) 0.14934(10)
C5 C 0.3898(2) 0.26787(19) 0.09014(11)
H3 H 0.35700 0.20180 0.06750
C6 C 0.4905(2) 0.3322(2) 0.06430(12)
H4 H 0.52620 0.30990 0.02460
C7 C 0.2262(2) 0.23034(18) 0.17934(10)
H5 H 0.24250 0.23670 0.22850
C8 C 0.2243(2) 0.10106(19) 0.16220(12)
H6 H 0.15140 0.06490 0.18440
H7 H 0.20200 0.09290 0.11400
C9 C 0.3531(2) 0.0355(2) 0.18118(12)
C10 C 0.4025(2) -0.0433(2) 0.14196(13)
H8 H 0.48070 -0.08130 0.15990
C11 C 0.3493(3) -0.0798(2) 0.07248(13)
H9 H 0.42310 -0.07670 0.04330
H10 H 0.27980 -0.02540 0.05510
C12 C 0.2890(3) -0.2014(2) 0.06986(15)
H11 H 0.26550 -0.22200 0.02300
H12 H 0.35850 -0.25520 0.08800
C13 C 0.1635(3) -0.2171(2) 0.10795(15)
H13 H 0.14220 -0.29910 0.10880
H14 H 0.18600 -0.19260 0.15420
C14 C 0.0370(3) -0.1530(2) 0.08050(14)
H15 H 0.01610 -0.17360 0.03350
H16 H 0.05480 -0.07030 0.08270
C15 C -0.0858(3) -0.1798(3) 0.11903(17)
H17 H -0.10290 -0.26250 0.11620
H18 H -0.06250 -0.16130 0.16620
C16 C -0.2160(4) -0.1175(3) 0.0958(2)
H19 H -0.28960 -0.15350 0.11760
H20 H -0.23420 -0.13020 0.04770
C17 C -0.2216(3) 0.0126(3) 0.10860(16)
H21 H -0.14810 0.04950 0.08720
H22 H -0.30680 0.04250 0.08730
C18 C -0.2105(3) 0.0452(3) 0.18052(15)
H23 H -0.11720 0.03250 0.19900
H24 H -0.26800 -0.00640 0.20400
C19 C -0.2502(3) 0.1714(3) 0.19596(15)
H25 H -0.34340 0.18470 0.17750
H26 H -0.24710 0.18120 0.24440
C20 C -0.1589(2) 0.2623(2) 0.16764(14)
H27 H -0.16040 0.25260 0.11920
H28 H -0.19360 0.33890 0.17640
C21 C -0.0142(2) 0.25206(19) 0.19893(12)
C22 C 0.0526(3) 0.3934(2) 0.06325(14)
H29 H -0.02060 0.43470 0.08130
H30 H 0.03700 0.39060 0.01500
H31 H 0.13720 0.43240 0.07580
C23 C 0.4205(3) 0.0601(2) 0.25032(12)
H32 H 0.49420 0.00670 0.26030
H33 H 0.35510 0.05150 0.28300
H34 H 0.45510 0.13790 0.25190
#END
