
#######################################################################
#
#                 Cambridge Crystallographic Data Centre
#                                CCDC
#
#######################################################################
#
# If this CIF has been generated from an entry in the Cambridge
# Structural Database, then it will include bibliographic, chemical,
# crystal, experimental, refinement or atomic coordinate data resulting
# from the CCDC's data processing and validation procedures.
#
#######################################################################

data_CSD_CIF_YEZRIH
_audit_creation_date 2018-06-12
_audit_creation_method CSD-ConQuest-V1
_database_code_CSD YEZRIH
_database_code_depnum_ccdc_archive 'CCDC 1815935'
_chemical_formula_sum 'C24 H26 N3 O1'
_chemical_formula_moiety
;
C24 H26 N3 O1
;
_journal_coden_Cambridge 4
_journal_volume 140
_journal_year 2018
_journal_page_first 6969
_journal_name_full 'J.Am.Chem.Soc. '
loop_
_publ_author_name
"Wei Cao"
"Wei David Wang"
"Hai-Sen Xu"
"I.V.Sergeyev"
"J.Struppe"
"Xiaoling Wang"
"F.Mentink-Vigier"
"Zhehong Gan"
"Ming-Xing Xiao"
"Lu-Yao Wang"
"Guo-Peng Chen"
"San-Yuan Ding"
"Shi Bai"
"Wei Wang"
_chemical_name_systematic
;
[4,7-bis(4-aminophenyl)-1,1,3,3-tetramethyl-1,3-dihydro-2H-isoindol-2-yl]oxida
nyl radical
;
_cell_volume   4833.492
_exptl_crystal_density_diffrn 1.024
_diffrn_ambient_temperature 293
#These two values have been output from a single CSD field.
_refine_ls_R_factor_gt 0.1165
_refine_ls_wR_factor_gt 0.1165
_symmetry_cell_setting tetragonal
_symmetry_space_group_name_H-M 'I -4'
_symmetry_Int_Tables_number 82
loop_
_symmetry_equiv_pos_site_id
_symmetry_equiv_pos_as_xyz
1 x,y,z
2 y,-x,-z
3 -x,-y,z
4 -y,x,-z
5 1/2+x,1/2+y,1/2+z
6 1/2+y,1/2-x,1/2-z
7 1/2-x,1/2-y,1/2+z
8 1/2-y,1/2+x,1/2-z
_cell_length_a 17.4658(8)
_cell_length_b 17.4658(8)
_cell_length_c 15.8447(9)
_cell_angle_alpha 90
_cell_angle_beta 90
_cell_angle_gamma 90
_cell_formula_units_Z 8
loop_
_atom_type_symbol
_atom_type_radius_bond
C 0.68
H 0.23
N 0.68
O 0.68
loop_
_atom_site_label
_atom_site_type_symbol
_atom_site_fract_x
_atom_site_fract_y
_atom_site_fract_z
O1 O -0.1831(6) -0.2072(4) -0.0512(5)
N1 N -0.3767(6) -0.4878(5) -0.4646(6)
H1 H -0.41940 -0.47380 -0.48670
H2 H -0.34300 -0.51090 -0.49490
N2 N -0.2327(8) -0.4454(6) 0.4179(5)
H3 H -0.18470 -0.43560 0.42970
H4 H -0.26070 -0.40900 0.44000
N3 N -0.2151(6) -0.2728(5) -0.0448(6)
C1 C -0.2830(7) -0.4927(7) -0.2586(7)
H5 H -0.23850 -0.51310 -0.23550
C2 C -0.2966(7) -0.5018(7) -0.3441(7)
H6 H -0.26110 -0.52740 -0.37760
C3 C -0.3621(7) -0.4733(6) -0.3796(6)
C4 C -0.4132(7) -0.4371(7) -0.3286(7)
H7 H -0.45790 -0.41780 -0.35230
C5 C -0.4018(7) -0.4280(7) -0.2453(7)
H8 H -0.43910 -0.40410 -0.21260
C6 C -0.3335(6) -0.4543(6) -0.2067(6)
C7 C -0.3192(6) -0.4449(6) -0.1129(6)
C8 C -0.3468(8) -0.5013(6) -0.0601(7)
H9 H -0.37640 -0.54060 -0.08260
C9 C -0.3316(7) -0.5008(6) 0.0256(7)
H10 H -0.34950 -0.54080 0.05900
C10 C -0.2908(6) -0.4431(6) 0.0621(6)
C11 C -0.2666(6) -0.3834(5) 0.0104(6)
C12 C -0.2801(6) -0.3852(5) -0.0756(6)
C13 C -0.2467(7) -0.3120(7) -0.1202(6)
C14 C -0.2245(7) -0.3116(7) 0.0381(6)
C15 C -0.2749(6) -0.4451(6) 0.1555(6)
C16 C -0.3266(7) -0.4173(6) 0.2131(7)
H11 H -0.37290 -0.39750 0.19370
C17 C -0.3119(8) -0.4178(6) 0.3008(7)
H12 H -0.34790 -0.39810 0.33830
C18 C -0.2439(8) -0.4478(6) 0.3305(7)
C19 C -0.1954(7) -0.4826(8) 0.2734(7)
H13 H -0.15250 -0.50850 0.29330
C20 C -0.2089(8) -0.4800(7) 0.1884(7)
H14 H -0.17360 -0.50180 0.15160
C21 C -0.1849(7) -0.3271(9) -0.1823(8)
H15 H -0.14460 -0.35550 -0.15560
H16 H -0.16510 -0.27930 -0.20280
H17 H -0.20520 -0.35610 -0.22860
C22 C -0.3101(8) -0.2630(6) -0.1577(8)
H18 H -0.33530 -0.29090 -0.20190
H19 H -0.28850 -0.21680 -0.18040
H20 H -0.34650 -0.25040 -0.11450
C23 C -0.1462(10) -0.3245(11) 0.0785(11)
H21 H -0.15280 -0.34380 0.13480
H22 H -0.11870 -0.27690 0.08050
H23 H -0.11780 -0.36090 0.04570
C24 C -0.2741(11) -0.2587(8) 0.0936(8)
H24 H -0.32690 -0.26390 0.07760
H25 H -0.25830 -0.20650 0.08580
H26 H -0.26810 -0.27270 0.15180
#END
