
#######################################################################
#
#                 Cambridge Crystallographic Data Centre
#                                CCDC
#
#######################################################################
#
# If this CIF has been generated from an entry in the Cambridge
# Structural Database, then it will include bibliographic, chemical,
# crystal, experimental, refinement or atomic coordinate data resulting
# from the CCDC's data processing and validation procedures.
#
#######################################################################

data_CSD_CIF_YIBZAK
_audit_creation_date 1995-07-26
_audit_creation_method CSD-ConQuest-V1
_database_code_CSD YIBZAK
_chemical_formula_sum 'C5 H5 N5 O2'
_chemical_formula_moiety
;
C5 H5 N5 O2
;
_journal_coden_Cambridge 1003
_journal_volume 24
_journal_year 1994
_journal_page_first 483
_journal_name_full 'J.Chem.Cryst. '
loop_
_publ_author_name
"S.Ryng"
"Z.Machon"
"T.Glowiak"
_chemical_name_systematic
;
5-Amino-3-methyl-4-isoxazolecarboxylic acid azide
;
_chemical_melting_point 416.15
_cell_volume    362.695
_exptl_crystal_colour 'colorless'
_exptl_crystal_density_diffrn 1.53
_diffrn_ambient_temperature ?
_diffrn_special_details
;
The study was carried out at room temperature,in the range 283-303K

;
#These two values have been output from a single CSD field.
_refine_ls_R_factor_gt 0.033
_refine_ls_wR_factor_gt 0.033
_symmetry_cell_setting monoclinic
_symmetry_space_group_name_H-M 'P n'
_symmetry_Int_Tables_number 7
loop_
_symmetry_equiv_pos_site_id
_symmetry_equiv_pos_as_xyz
1 x,y,z
2 1/2+x,-y,1/2+z
_cell_length_a 3.775
_cell_length_b 11.593
_cell_length_c 8.443
_cell_angle_alpha 90
_cell_angle_beta 101.01
_cell_angle_gamma 90
_cell_formula_units_Z 2
loop_
_atom_type_symbol
_atom_type_radius_bond
C 0.68
H 0.23
N 0.68
O 0.68
loop_
_atom_site_label
_atom_site_type_symbol
_atom_site_fract_x
_atom_site_fract_y
_atom_site_fract_z
O1 O 0.2000(1) 0.4570(2) 0.2000(1)
O2 O 0.0142(1) 0.1087(2) 0.2776(3)
N1 N 0.2956(1) 0.4441(2) 0.0423(4)
N2 N 0.0281(1) 0.3439(3) 0.3927(3)
N3 N 0.1802(1) 0.0793(2) 0.0306(4)
N4 N 0.1547(1) -0.0251(2) 0.0584(4)
N5 N 0.1459(1) -0.1209(3) 0.0731(5)
C1 C 0.1240(1) 0.3522(3) 0.2499(4)
C2 C 0.1685(1) 0.2691(2) 0.1373(4)
C3 C 0.2693(1) 0.3345(3) 0.0097(4)
C4 C 0.3427(1) 0.2934(3) -0.1493(4)
C5 C 0.1104(1) 0.1499(3) 0.1599(4)
H1 H -0.043(9) 0.271(3) 0.421(4)
H2 H -0.051(9) 0.415(3) 0.457(5)
H3 H 0.397(9) 0.360(4) -0.225(5)
H4 H 0.145(9) 0.245(3) -0.215(5)
H5 H 0.501(9) 0.218(3) -0.128(4)
#END
