
#######################################################################
#
#                 Cambridge Crystallographic Data Centre
#                                CCDC
#
#######################################################################
#
# If this CIF has been generated from an entry in the Cambridge
# Structural Database, then it will include bibliographic, chemical,
# crystal, experimental, refinement or atomic coordinate data resulting
# from the CCDC's data processing and validation procedures.
#
#######################################################################

data_CSD_CIF_YICHIC
_audit_creation_date 2007-07-26
_audit_creation_method CSD-ConQuest-V1
_database_code_CSD YICHIC
_database_code_depnum_ccdc_archive 'CCDC 647336'
_chemical_formula_sum 'C17 H13 N1 O3'
_chemical_formula_moiety
;
C17 H13 N1 O3
;
_journal_coeditor_code "IUCr SJ2268"
_journal_coden_Cambridge 1370
_journal_volume 63
_journal_year 2007
_journal_page_first o2122
_journal_name_full 'Acta Crystallogr.,Sect.E:Struct.Rep.Online '
loop_
_publ_author_name
"P.S.Patil"
"J.Bee-Jan Teh"
"H.-K.Fun"
"I.A.Razak"
"S.M.Dharmaprakash"
_chemical_name_systematic
;
(2E,4E)-1-(3-Nitrophenyl)-5-phenylpenta-2,4-dien-1-one
;
_cell_volume   1378.382
_exptl_crystal_colour 'yellow'
_exptl_crystal_density_diffrn 1.346
_exptl_crystal_description 'block'
_exptl_crystal_preparation 'acetone'
_diffrn_ambient_temperature ?
_diffrn_special_details
;
The study was carried out at room temperature,in the range 283-303K

;
#These two values have been output from a single CSD field.
_refine_ls_R_factor_gt 0.0417
_refine_ls_wR_factor_gt 0.0417
_symmetry_cell_setting orthorhombic
_symmetry_space_group_name_H-M 'P 21 21 21'
_symmetry_Int_Tables_number 19
loop_
_symmetry_equiv_pos_site_id
_symmetry_equiv_pos_as_xyz
1 x,y,z
2 1/2-x,-y,1/2+z
3 -x,1/2+y,1/2-z
4 1/2+x,1/2-y,-z
_cell_length_a 7.0167(1)
_cell_length_b 12.1953(2)
_cell_length_c 16.1081(3)
_cell_angle_alpha 90
_cell_angle_beta 90
_cell_angle_gamma 90
_cell_formula_units_Z 4
loop_
_atom_type_symbol
_atom_type_radius_bond
C 0.68
H 0.23
N 0.68
O 0.68
loop_
_atom_site_label
_atom_site_type_symbol
_atom_site_fract_x
_atom_site_fract_y
_atom_site_fract_z
O1 O 0.34727(18) 0.73359(9) 0.12193(7)
O2 O 0.94246(17) 0.62305(9) 0.23880(7)
O3 O 1.09835(18) 0.72784(10) 0.32353(8)
N1 N 0.95979(18) 0.70772(10) 0.27986(7)
C1 C -0.4708(2) 1.09237(11) 0.05561(9)
H1 H -0.38360 1.12380 0.09200
C2 C -0.6389(2) 1.14710(12) 0.03679(10)
H2 H -0.66300 1.21520 0.06050
C3 C -0.7714(2) 1.10129(13) -0.01699(9)
H3 H -0.88370 1.13840 -0.02920
C4 C -0.7352(2) 0.99967(13) -0.05238(8)
H4 H -0.82400 0.96810 -0.08800
C5 C -0.5666(2) 0.94528(11) -0.03472(8)
H5 H -0.54230 0.87790 -0.05960
C6 C -0.43218(19) 0.98992(11) 0.01995(8)
C7 C -0.2572(2) 0.92819(11) 0.03565(8)
H6 H -0.23630 0.86720 0.00220
C8 C -0.12297(19) 0.94964(11) 0.09310(8)
H7 H -0.13700 1.01020 0.12770
C9 C 0.0413(2) 0.88066(11) 0.10181(8)
H8 H 0.05400 0.82270 0.06470
C10 C 0.1788(2) 0.89318(11) 0.15938(8)
H9 H 0.17060 0.95070 0.19710
C11 C 0.3408(2) 0.81782(10) 0.16367(8)
C12 C 0.50404(19) 0.84422(10) 0.22038(8)
C13 C 0.6496(2) 0.76658(10) 0.22655(8)
H10 H 0.64140 0.70060 0.19790
C14 C 0.80556(19) 0.78903(10) 0.27573(8)
C15 C 0.8250(2) 0.88628(11) 0.31965(8)
H11 H 0.93150 0.89920 0.35260
C16 C 0.6810(2) 0.96359(11) 0.31295(9)
H12 H 0.69080 1.02970 0.34140
C17 C 0.5215(2) 0.94281(11) 0.26378(8)
H13 H 0.42560 0.99520 0.25990
#END
