
#######################################################################
#
#                 Cambridge Crystallographic Data Centre
#                                CCDC
#
#######################################################################
#
# If this CIF has been generated from an entry in the Cambridge
# Structural Database, then it will include bibliographic, chemical,
# crystal, experimental, refinement or atomic coordinate data resulting
# from the CCDC's data processing and validation procedures.
#
#######################################################################

data_CSD_CIF_YICNAA
_audit_creation_date 2007-07-26
_audit_creation_method CSD-ConQuest-V1
_database_code_CSD YICNAA
_database_code_depnum_ccdc_archive 'CCDC 646738'
_chemical_formula_sum 'C13 H8 N8 O2'
_chemical_formula_moiety
;
C13 H8 N8 O2
;
_journal_coeditor_code "IUCr BI2182"
_journal_coden_Cambridge 1370
_journal_volume 63
_journal_year 2007
_journal_page_first o2486
_journal_name_full 'Acta Crystallogr.,Sect.E:Struct.Rep.Online '
loop_
_publ_author_name
"A.S.Lyakhov"
"N.G.Egorova"
"T.V.Artamonova"
"P.N.Gaponik"
"G.I.Koldobskii"
_chemical_name_systematic
;
1-(1-(4-Nitrophenyl)-1H-tetrazol-5-yl)-1H-1,2,3-benzotriazole
;
_chemical_melting_point 498
_cell_volume   1342.059
_exptl_crystal_colour 'colorless'
_exptl_crystal_density_diffrn 1.526
_exptl_special_details
;
Melting point range 498-499K

;
_exptl_crystal_description 'prism'
_exptl_crystal_preparation 'ethanol-DMF'
_diffrn_ambient_temperature 292
#These two values have been output from a single CSD field.
_refine_ls_R_factor_gt 0.0506
_refine_ls_wR_factor_gt 0.0506
_symmetry_cell_setting monoclinic
_symmetry_space_group_name_H-M 'P 21/c'
_symmetry_Int_Tables_number 14
loop_
_symmetry_equiv_pos_site_id
_symmetry_equiv_pos_as_xyz
1 x,y,z
2 -x,1/2+y,1/2-z
3 -x,-y,-z
4 x,-1/2-y,-1/2+z
_cell_length_a 5.0841(17)
_cell_length_b 14.024(4)
_cell_length_c 18.836(6)
_cell_angle_alpha 90
_cell_angle_beta 92.14(3)
_cell_angle_gamma 90
_cell_formula_units_Z 4
loop_
_atom_type_symbol
_atom_type_radius_bond
C 0.68
H 0.23
N 0.68
O 0.68
loop_
_atom_site_label
_atom_site_type_symbol
_atom_site_fract_x
_atom_site_fract_y
_atom_site_fract_z
N1 N 0.6158(3) 0.31499(11) 0.29397(8)
N2 N 0.4191(4) 0.31325(13) 0.24291(9)
N3 N 0.3741(4) 0.40077(14) 0.22523(10)
N4 N 0.5351(4) 0.46136(12) 0.26266(9)
C1 C 0.6809(4) 0.40678(13) 0.30419(10)
C2 C 0.7030(4) 0.22744(13) 0.32688(10)
C3 C 0.5776(4) 0.19458(15) 0.38561(11)
H1 H 0.434(5) 0.2338(19) 0.4074(13)
C4 C 0.6546(5) 0.10808(16) 0.41490(12)
H2 H 0.566(5) 0.0798(17) 0.4542(13)
C5 C 0.8540(4) 0.05880(13) 0.3843(1)
C6 C 0.9809(5) 0.09145(16) 0.32622(12)
H3 H 1.118(5) 0.0559(18) 0.3070(14)
C7 C 0.9015(5) 0.17740(15) 0.29685(12)
H4 H 0.976(5) 0.2008(18) 0.2562(15)
N5 N 0.9347(4) -0.03395(13) 0.41478(10)
O1 O 0.7978(4) -0.06972(12) 0.45968(9)
O2 O 1.1346(4) -0.07028(13) 0.39405(12)
N6 N 0.8742(3) 0.44022(11) 0.35164(8)
N7 N 1.0711(3) 0.38140(12) 0.37885(10)
N8 N 1.2266(3) 0.43208(13) 0.41887(10)
C8 C 1.1376(4) 0.52520(14) 0.41924(10)
C9 C 0.9123(4) 0.53254(13) 0.37556(10)
C10 C 0.7788(5) 0.61738(15) 0.36410(12)
H5 H 0.625(5) 0.6206(17) 0.3331(12)
C11 C 0.8827(5) 0.69506(16) 0.39936(13)
H6 H 0.797(5) 0.754(2) 0.3943(13)
C12 C 1.1087(5) 0.68945(17) 0.44400(13)
H7 H 1.172(5) 0.742(2) 0.4681(14)
C13 C 1.2392(5) 0.60524(16) 0.45541(12)
H8 H 1.383(5) 0.6018(17) 0.4837(12)
#END
