
#######################################################################
#
#                 Cambridge Crystallographic Data Centre
#                                CCDC
#
#######################################################################
#
# If this CIF has been generated from an entry in the Cambridge
# Structural Database, then it will include bibliographic, chemical,
# crystal, experimental, refinement or atomic coordinate data resulting
# from the CCDC's data processing and validation procedures.
#
#######################################################################

data_CSD_CIF_YICNUT
_audit_creation_date 1995-08-02
_audit_creation_method CSD-ConQuest-V1
_database_code_CSD YICNUT
_chemical_formula_sum 'C17 H19 N3 O3'
_chemical_formula_moiety
;
C17 H19 N3 O3
;
_journal_coden_Cambridge 1121
_journal_volume 91
_journal_year 1995
_journal_page_first 77
_journal_name_full 'J.Chem.Soc.,Faraday Trans. '
loop_
_publ_author_name
"K.Wozniak"
"Heyong He"
"J.Klinowski"
"W.Jones"
"T.Dziembowska"
"E.Grech"
_chemical_name_systematic
;
N-(3-Nitrosalicylidene)-4-diethylaminoaniline
;
_cell_volume   1603.927
_exptl_crystal_colour 'red'
_exptl_crystal_density_diffrn 1.298
_diffrn_ambient_temperature ?
_diffrn_special_details
;
The study was carried out at room temperature,in the range 283-303K

;
_refine_special_details
;
The structure can be refined with disordered hydrogen bonding.

;
#These two values have been output from a single CSD field.
_refine_ls_R_factor_gt 0.039
_refine_ls_wR_factor_gt 0.039
_symmetry_cell_setting monoclinic
_symmetry_space_group_name_H-M 'P 21/n'
_symmetry_Int_Tables_number 14
loop_
_symmetry_equiv_pos_site_id
_symmetry_equiv_pos_as_xyz
1 x,y,z
2 1/2-x,1/2+y,1/2-z
3 -x,-y,-z
4 -1/2+x,-1/2-y,-1/2+z
_cell_length_a 7.437
_cell_length_b 14.673
_cell_length_c 14.702
_cell_angle_alpha 90
_cell_angle_beta 91.28
_cell_angle_gamma 90
_cell_formula_units_Z 4
loop_
_atom_type_symbol
_atom_type_radius_bond
C 0.68
H 0.23
N 0.68
O 0.68
loop_
_atom_site_label
_atom_site_type_symbol
_atom_site_fract_x
_atom_site_fract_y
_atom_site_fract_z
O1 O 0.2165(2) 0.2996(1) 1.0995(1)
O2 O 0.1030(2) 0.1789(1) 1.3175(1)
O3 O 0.2665(2) 0.1425(1) 1.2056(1)
N1 N 0.3514(2) 0.6297(1) 0.6881(1)
N2 N 0.1152(3) 0.3959(1) 0.9634(1)
N3 N 0.1308(2) 0.1754(1) 1.2363(1)
C1 C 0.2936(2) 0.5712(1) 0.7544(1)
C2 C 0.1138(2) 0.5439(1) 0.7580(1)
C3 C 0.0519(2) 0.4884(1) 0.8255(1)
C4 C 0.1675(2) 0.4551(1) 0.8928(1)
C5 C 0.3461(2) 0.4802(1) 0.8897(1)
C6 C 0.4097(2) 0.5364(1) 0.8226(1)
C7 C 0.5349(3) 0.6617(2) 0.6858(2)
C8 C 0.6560(4) 0.6040(3) 0.6299(3)
C9 C 0.2320(3) 0.6567(2) 0.6131(2)
C10 C 0.2011(5) 0.5842(3) 0.5423(2)
C11 C -0.0461(3) 0.3677(1) 0.9740(1)
C12 C -0.0898(2) 0.3044(1) 1.0458(1)
C13 C 0.0469(2) 0.2719(1) 1.1054(1)
C14 C -0.0054(2) 0.2116(1) 1.1735(1)
C15 C -0.1809(2) 0.1852(1) 1.1842(1)
C16 C -0.3127(3) 0.2158(1) 1.1244(1)
C17 C -0.2658(2) 0.2749(1) 1.0561(1)
H1 H 0.2119(35) 0.3367(22) 1.0500(26)
H2? H 0.1881(80) 0.3718(43) 0.9841(49)
H3 H 0.0311(25) 0.5650(12) 0.7131(13)
H4 H -0.0682(26) 0.4724(13) 0.8253(12)
H5 H 0.4254(25) 0.4584(12) 0.9380(13)
H6 H 0.5294(27) 0.5487(12) 0.8220(12)
H7 H -0.1427(25) 0.3850(11) 0.9369(12)
H8 H -0.2019(27) 0.1462(14) 1.2299(14)
H9 H -0.4328(27) 0.1999(13) 1.1325(12)
H10 H -0.3603(26) 0.2957(12) 1.0144(13)
H11 H 0.5296(28) 0.7250(17) 0.6607(15)
H12 H 0.5768(31) 0.6697(15) 0.7486(17)
H13 H 0.6593(34) 0.5421(21) 0.6553(18)
H14 H 0.7734(50) 0.6311(23) 0.6271(22)
H15 H 0.6057(41) 0.6020(21) 0.5657(24)
H16 H 0.1124(29) 0.6767(14) 0.6378(14)
H17 H 0.2861(29) 0.7125(16) 0.5845(14)
H18 H 0.1405(40) 0.5283(24) 0.5674(22)
H19 H 0.1178(44) 0.6034(22) 0.4987(24)
H20 H 0.3132(45) 0.5735(21) 0.5138(22)
#END
