
#######################################################################
#
#                 Cambridge Crystallographic Data Centre
#                                CCDC
#
#######################################################################
#
# If this CIF has been generated from an entry in the Cambridge
# Structural Database, then it will include bibliographic, chemical,
# crystal, experimental, refinement or atomic coordinate data resulting
# from the CCDC's data processing and validation procedures.
#
#######################################################################

data_CSD_CIF_YICREJ
_audit_creation_date 2013-06-16
_audit_creation_method CSD-ConQuest-V1
_database_code_CSD YICREJ
_database_code_depnum_ccdc_archive 'CCDC 928335'
_chemical_formula_sum 'C20 H18 N2 O5'
_chemical_formula_moiety
;
C20 H18 N2 O5
;
_journal_coden_Cambridge 1500
_journal_volume 3
_journal_year 2013
_journal_page_first 10644
_journal_name_full 'RSC Advances '
loop_
_publ_author_name
"P.K.Jaiswal"
"S.Biswas"
"Shivendra Singh"
"B.Pathak"
"S.M.Mobin"
"S.Samanta"
_chemical_name_systematic
;
Methyl 
4-hydroxy-3-nitro-2-phenyl-2,3,4,9-tetrahydro-1H-carbazole-1-carboxylate
;
_cell_volume   1727.539
_exptl_crystal_colour 'colorless'
_exptl_crystal_density_diffrn 1.409
_exptl_crystal_description 'block'
_diffrn_ambient_temperature 150
#These two values have been output from a single CSD field.
_refine_ls_R_factor_gt 0.0832
_refine_ls_wR_factor_gt 0.0832
loop_
_citation_database_id_CSD
_citation_special_details
YICRIN "is a stereoisomer of this entry"
_symmetry_cell_setting monoclinic
_symmetry_space_group_name_H-M 'P 21/n'
_symmetry_Int_Tables_number 14
loop_
_symmetry_equiv_pos_site_id
_symmetry_equiv_pos_as_xyz
1 x,y,z
2 1/2-x,1/2+y,1/2-z
3 -x,-y,-z
4 -1/2+x,-1/2-y,-1/2+z
_cell_length_a 8.8760(2)
_cell_length_b 11.1516(2)
_cell_length_c 17.9923(6)
_cell_angle_alpha 90
_cell_angle_beta 104.062(3)
_cell_angle_gamma 90
_cell_formula_units_Z 4
loop_
_atom_type_symbol
_atom_type_radius_bond
C 0.68
H 0.23
N 0.68
O 0.68
loop_
_atom_site_label
_atom_site_type_symbol
_atom_site_fract_x
_atom_site_fract_y
_atom_site_fract_z
O1 O -0.1140(4) -0.1745(3) 0.77988(16)
O2 O 0.1051(3) -0.1335(3) 0.86797(16)
O3 O -0.3962(3) -0.5491(3) 0.8580(2)
H1 H -0.34300 -0.59890 0.84030
O4 O -0.6177(4) -0.3322(3) 0.8105(2)
O5 O -0.5491(4) -0.3081(3) 0.9319(2)
N1 N 0.1110(3) -0.4109(3) 0.90372(17)
H2 H 0.19270 -0.36410 0.90900
N2 N -0.5191(4) -0.3210(3) 0.8702(2)
C1 C -0.3014(4) -0.4594(3) 0.8953(2)
H3 H -0.30830 -0.46210 0.95000
C2 C -0.1332(4) -0.4701(3) 0.8964(2)
C3 C -0.0364(4) -0.3740(3) 0.90432(19)
C4 C -0.0812(4) -0.2442(3) 0.9092(2)
H4 H -0.01620 -0.21130 0.95830
C5 C -0.2545(4) -0.2347(3) 0.9129(2)
H5 H -0.25580 -0.25100 0.96740
C6 C -0.3524(4) -0.3324(3) 0.8657(2)
H6 H -0.34640 -0.32520 0.81110
C7 C -0.3178(4) -0.1088(3) 0.8956(2)
C8 C -0.3931(5) -0.0662(4) 0.8246(2)
H7 H -0.40980 -0.11830 0.78160
C9 C -0.4449(5) 0.0506(4) 0.8145(3)
H8 H -0.49620 0.07820 0.76490
C10 C -0.4227(5) 0.1269(4) 0.8756(3)
H9 H -0.45770 0.20750 0.86850
C11 C -0.3496(6) 0.0861(4) 0.9472(3)
H10 H -0.33510 0.13870 0.98990
C12 C -0.2971(5) -0.0305(4) 0.9577(3)
H11 H -0.24640 -0.05770 1.00760
C13 C -0.0364(4) -0.1786(3) 0.8443(2)
C14 C 0.1735(6) -0.0821(4) 0.8111(3)
H12 H 0.17470 -0.14180 0.77120
H13 H 0.28020 -0.05710 0.83490
H14 H 0.11270 -0.01230 0.78810
C15 C 0.1095(4) -0.5335(3) 0.89354(19)
C16 C 0.2278(4) -0.6113(3) 0.8857(2)
H15 H 0.32980 -0.58310 0.88790
C17 C 0.1898(5) -0.7306(4) 0.8748(2)
H16 H 0.26750 -0.78580 0.86880
C18 C 0.0412(5) -0.7730(3) 0.8722(2)
H17 H 0.02030 -0.85630 0.86500
C19 C -0.0762(4) -0.6968(3) 0.8798(2)
H18 H -0.17730 -0.72650 0.87800
C20 C -0.0428(4) -0.5739(3) 0.89013(18)
#END
