
#######################################################################
#
#                 Cambridge Crystallographic Data Centre
#                                CCDC
#
#######################################################################
#
# If this CIF has been generated from an entry in the Cambridge
# Structural Database, then it will include bibliographic, chemical,
# crystal, experimental, refinement or atomic coordinate data resulting
# from the CCDC's data processing and validation procedures.
#
#######################################################################

data_CSD_CIF_YIDLEC01
_audit_creation_date 1995-07-26
_audit_creation_method CSD-ConQuest-V1
_database_code_CSD YIDLEC01
_chemical_formula_sum 'C8 H6 N2 O5'
_chemical_formula_moiety
;
C8 H6 N2 O5
;
_journal_coden_Cambridge 456
_journal_volume 66
_journal_year 1992
_journal_page_first 1805
_journal_name_full 'Pol.J.Chem. '
loop_
_publ_author_name
"Z.Urbancyzk-Lipkowska"
"M.Y.Lee"
_chemical_name_systematic
;
2-Nitro-4-(2-nitroethenyl)phenol
;
_chemical_melting_point 424.15
_cell_volume    870.331
_exptl_crystal_colour 'yellow'
_exptl_crystal_density_diffrn 1.605
_exptl_special_details
;
Melting point range 424.15-425.15K
deep yellow polymorph

;
_diffrn_ambient_temperature ?
_diffrn_special_details
;
The study was carried out at room temperature,in the range 283-303K

;
#These two values have been output from a single CSD field.
_refine_ls_R_factor_gt 0.078
_refine_ls_wR_factor_gt 0.078
_symmetry_cell_setting monoclinic
_symmetry_space_group_name_H-M 'P 21/c'
_symmetry_Int_Tables_number 14
loop_
_symmetry_equiv_pos_site_id
_symmetry_equiv_pos_as_xyz
1 x,y,z
2 -x,1/2+y,1/2-z
3 -x,-y,-z
4 x,-1/2-y,-1/2+z
_cell_length_a 5.483
_cell_length_b 20.202
_cell_length_c 7.859
_cell_angle_alpha 90
_cell_angle_beta 91.2
_cell_angle_gamma 90
_cell_formula_units_Z 4
loop_
_atom_type_symbol
_atom_type_radius_bond
C 0.68
H 0.23
N 0.68
O 0.68
loop_
_atom_site_label
_atom_site_type_symbol
_atom_site_fract_x
_atom_site_fract_y
_atom_site_fract_z
C1 C 0.3563(6) 0.0089(2) 0.8187(4)
C2 C 0.5649(6) -0.0025(2) 0.7229(4)
C3 C 0.7130(6) 0.0485(2) 0.6740(4)
C4 C 0.6648(6) 0.1134(2) 0.7179(5)
C5 C 0.4538(7) 0.1252(2) 0.8145(5)
C6 C 0.3055(6) 0.0745(2) 0.8631(5)
O1 O 0.1995(5) -0.0375(1) 0.8674(4)
N1 N 0.6271(6) -0.0692(2) 0.6700(4)
O2 O 0.8075(5) -0.0772(1) 0.5833(4)
O3 O 0.4994(6) -0.1158(1) 0.7139(4)
C7 C 0.8280(7) 0.1647(2) 0.6603(5)
C8 C 0.8008(7) 0.2295(2) 0.6745(5)
N2 N 0.9847(6) 0.2723(2) 0.6082(5)
O4 O 0.9453(7) 0.3318(2) 0.6100(5)
O5 O 1.1744(6) 0.2503(2) 0.5522(5)
H1 H 0.839(8) 0.039(2) 0.596(5)
H2 H 0.405(9) 0.170(2) 0.841(6)
H3 H 0.155(7) 0.083(2) 0.922(4)
H4 H 1.000(9) 0.153(2) 0.608(5)
H5 H 0.660(9) 0.248(2) 0.716(6)
H6 H 0.220(9) -0.082(3) 0.814(7)
#END
