
#######################################################################
#
#                 Cambridge Crystallographic Data Centre
#                                CCDC
#
#######################################################################
#
# If this CIF has been generated from an entry in the Cambridge
# Structural Database, then it will include bibliographic, chemical,
# crystal, experimental, refinement or atomic coordinate data resulting
# from the CCDC's data processing and validation procedures.
#
#######################################################################

data_CSD_CIF_YIDLEC
_audit_creation_date 1995-07-26
_audit_creation_method CSD-ConQuest-V1
_database_code_CSD YIDLEC
_chemical_formula_sum 'C8 H6 N2 O5'
_chemical_formula_moiety
;
C8 H6 N2 O5
;
_journal_coden_Cambridge 456
_journal_volume 66
_journal_year 1992
_journal_page_first 1805
_journal_name_full 'Pol.J.Chem. '
loop_
_publ_author_name
"Z.Urbancyzk-Lipkowska"
"M.Y.Lee"
_chemical_name_systematic
;
2-Nitro-4-(2-nitroethenyl)phenol
;
_chemical_melting_point 420.15
_cell_volume    898.454
_exptl_crystal_colour 'orange'
_exptl_crystal_density_diffrn 1.553
_exptl_special_details
;
Melting point range 420.15-421.15K
pale orange polymorph
Intramolecular hydrogen bonding between the hydroxy and nitro groups
;
_diffrn_ambient_temperature ?
_diffrn_special_details
;
The study was carried out at room temperature,in the range 283-303K

;
#These two values have been output from a single CSD field.
_refine_ls_R_factor_gt 0.084
_refine_ls_wR_factor_gt 0.084
_symmetry_cell_setting monoclinic
_symmetry_space_group_name_H-M 'P 21/c'
_symmetry_Int_Tables_number 14
loop_
_symmetry_equiv_pos_site_id
_symmetry_equiv_pos_as_xyz
1 x,y,z
2 -x,1/2+y,1/2-z
3 -x,-y,-z
4 x,-1/2-y,-1/2+z
_cell_length_a 8.244
_cell_length_b 7.327
_cell_length_c 14.938
_cell_angle_alpha 90
_cell_angle_beta 95.3
_cell_angle_gamma 90
_cell_formula_units_Z 4
loop_
_atom_type_symbol
_atom_type_radius_bond
C 0.68
H 0.23
N 0.68
O 0.68
loop_
_atom_site_label
_atom_site_type_symbol
_atom_site_fract_x
_atom_site_fract_y
_atom_site_fract_z
C1 C 1.3772(9) 0.722(1) -0.0614(4)
C2 C 1.3301(7) 0.56330 -0.1050(4)
C3 C 1.2521(8) 0.426(1) -0.0660(5)
C4 C 1.2129(8) 0.4439(9) 0.0201(5)
C5 C 1.2546(8) 0.607(1) 0.0675(4)
C6 C 1.3336(9) 0.743(1) 0.0284(4)
O1 O 1.4585(6) 0.8567(7) -0.0962(7)
N1 N 1.3693(7) 0.536(1) -0.1977(4)
O2 O 1.4479(8) 0.649(1) -0.2329(3)
O3 O 1.3169(9) 0.4051(9) -0.2369(4)
C7 C 1.126(1) 0.287(1) 0.057(5)
C8 C 1.075(1) 0.285(1) 0.1314(5)
N2 N 0.9796(7) 0.1215(7) 0.1595(3)
O4 O 0.9716(9) -0.0221(8) 0.1216(4)
O5 O 0.9180(7) 0.1515(8) 0.2274(3)
H1 H 1.227(9) 0.31(1) -0.109(4)
H2 H 1.236(8) 0.627(9) 0.122(4)
H3 H 1.362(8) 0.850(9) 0.057(4)
H4 H 1.103(9) 0.16(1) 0.027(5)
H5 H 1.094(9) 0.38(1) 0.172(5)
H6 H 1.46(1) 0.82(1) -0.162(6)
#END
