
#######################################################################
#
#                 Cambridge Crystallographic Data Centre
#                                CCDC
#
#######################################################################
#
# If this CIF has been generated from an entry in the Cambridge
# Structural Database, then it will include bibliographic, chemical,
# crystal, experimental, refinement or atomic coordinate data resulting
# from the CCDC's data processing and validation procedures.
#
#######################################################################

data_CSD_CIF_YIFNUY
_audit_creation_date 2013-06-16
_audit_creation_method CSD-ConQuest-V1
_database_code_CSD YIFNUY
_database_code_depnum_ccdc_archive 'CCDC 922353'
_chemical_formula_sum 'C18 H22 N4 O4'
_chemical_formula_moiety
;
C18 H22 N4 O4
;
_journal_coden_Cambridge 1366
_journal_volume 355
_journal_year 2013
_journal_page_first 1640
_journal_name_full 'Adv.Synth.Catal. '
loop_
_publ_author_name
"G.Broggini"
"V.Barbera"
"E.M.Beccalli"
"Ugo Chiacchio"
"A.Fasana"
"S.Galli"
"S.Gazzola"
_chemical_name_systematic
;
7-Cyclohexyl-3-((2-nitrophenyl)imino)tetrahydro[1,3]oxazolo[3,4-a]pyrazin-6(5H
)-one
;
_cell_volume   1781.331
_exptl_crystal_colour 'yellow'
_exptl_crystal_density_diffrn 1.336
_exptl_crystal_description 'prism'
_diffrn_ambient_temperature 298
#These two values have been output from a single CSD field.
_refine_ls_R_factor_gt 0.0667
_refine_ls_wR_factor_gt 0.0667
_symmetry_cell_setting monoclinic
_symmetry_space_group_name_H-M 'P 21/n'
_symmetry_Int_Tables_number 14
loop_
_symmetry_equiv_pos_site_id
_symmetry_equiv_pos_as_xyz
1 x,y,z
2 1/2-x,1/2+y,1/2-z
3 -x,-y,-z
4 -1/2+x,-1/2-y,-1/2+z
_cell_length_a 12.26(1)
_cell_length_b 9.818(7)
_cell_length_c 15.414(9)
_cell_angle_alpha 90
_cell_angle_beta 106.24(6)
_cell_angle_gamma 90
_cell_formula_units_Z 4
loop_
_atom_type_symbol
_atom_type_radius_bond
C 0.68
H 0.23
N 0.68
O 0.68
loop_
_atom_site_label
_atom_site_type_symbol
_atom_site_fract_x
_atom_site_fract_y
_atom_site_fract_z
C1 C 0.3999(3) 0.0650(3) 0.1652(2)
H1 H 0.45850 0.08680 0.22120
C2 C 0.4474(3) -0.0460(4) 0.1191(3)
H2 H 0.51520 -0.01300 0.10510
H3 H 0.39210 -0.06980 0.06270
C3 C 0.4766(4) -0.1715(4) 0.1785(3)
H4 H 0.50150 -0.24370 0.14540
H5 H 0.53870 -0.15050 0.23150
C4 C 0.3756(4) -0.2196(4) 0.2075(3)
H6 H 0.31760 -0.25220 0.15500
H7 H 0.39840 -0.29530 0.24900
C5 C 0.3266(5) -0.1098(4) 0.2522(3)
H8 H 0.38080 -0.08540 0.30900
H9 H 0.25840 -0.14330 0.26520
C6 C 0.2976(5) 0.0159(4) 0.1921(3)
H10 H 0.23700 -0.00580 0.13840
H11 H 0.27100 0.08780 0.22430
N1 N 0.3778(2) 0.1914(3) 0.11090(16)
C7 C 0.2780(3) 0.2006(4) 0.0315(2)
H12 H 0.25670 0.10970 0.00810
H13 H 0.21480 0.23850 0.04970
C8 C 0.2990(3) 0.2833(4) -0.0386(2)
H14 H 0.35420 0.23650 -0.06330
C9 C 0.1974(4) 0.3252(4) -0.1170(2)
H15 H 0.20380 0.28670 -0.17330
H16 H 0.12700 0.29360 -0.10680
O1 O 0.1994(2) 0.4717(2) -0.12030(14)
C10 C 0.2829(3) 0.5184(4) -0.0493(2)
N2 N 0.3445(2) 0.4134(3) -0.00501(17)
C11 C 0.4218(3) 0.4281(3) 0.0847(2)
H17 H 0.39010 0.49380 0.11790
H18 H 0.49300 0.46480 0.07930
C12 C 0.4457(3) 0.2984(3) 0.1381(2)
N3 N 0.3026(2) 0.6420(3) -0.02817(18)
C13 C 0.2261(3) 0.7426(3) -0.0709(2)
C14 C 0.1300(3) 0.7791(4) -0.0446(2)
C15 C 0.0629(3) 0.8896(5) -0.0808(3)
H19 H 0.00010 0.91120 -0.06080
C16 C 0.0883(4) 0.9666(4) -0.1457(3)
H20 H 0.04250 1.04000 -0.17100
C17 C 0.1817(4) 0.9353(4) -0.1733(3)
H21 H 0.19950 0.98810 -0.21760
C18 C 0.2507(3) 0.8257(4) -0.1361(2)
H22 H 0.31470 0.80740 -0.15530
O2 O 0.5274(2) 0.2966(2) 0.20529(15)
N4 N 0.0980(3) 0.7020(5) 0.0256(3)
O3 O 0.0520(4) 0.7660(5) 0.0740(3)
O4 O 0.1217(3) 0.5835(4) 0.0382(2)
#END
