
#######################################################################
#
#                 Cambridge Crystallographic Data Centre
#                                CCDC
#
#######################################################################
#
# If this CIF has been generated from an entry in the Cambridge
# Structural Database, then it will include bibliographic, chemical,
# crystal, experimental, refinement or atomic coordinate data resulting
# from the CCDC's data processing and validation procedures.
#
#######################################################################

data_CSD_CIF_YIFYAQ01
_audit_creation_date 2018-06-14
_audit_creation_method CSD-ConQuest-V1
_database_code_CSD YIFYAQ01
_database_code_depnum_ccdc_archive 'CCDC 1499617'
_chemical_formula_sum 'C22 H29 N1 O7'
_chemical_formula_moiety
;
C22 H29 N1 O7
;
_journal_coden_Cambridge 1291
_journal_year 2017
_journal_page_first 1086
_journal_name_full 'Eur.J.Org.Chem. '
loop_
_publ_author_name
"T.Malatinsky"
"M.Spisakova"
"M.Babjak"
"J.Dohanosova"
"J.Marek"
"J.Moncol"
"R.Fischer"
_chemical_name_systematic
;
(4-(2,2-dimethyl-1,3-dioxolan-4-yl)-2,2-dimethylhexahydro[1,3]dioxolo[3,4]pyrr
olo[1,2-b][1,2]oxazol-7-yl)methyl benzoate
;
_cell_volume   2154.323
_exptl_crystal_colour 'colorless'
_exptl_crystal_density_diffrn 1.293
_exptl_special_details
;
Absolute configuration

;
_exptl_crystal_description 'block'
_diffrn_ambient_temperature 120
#These two values have been output from a single CSD field.
_refine_ls_R_factor_gt 0.028
_refine_ls_wR_factor_gt 0.028
loop_
_citation_database_id_CSD
_citation_special_details
YIFPOV "is a stereoisomer of this entry"
_symmetry_cell_setting orthorhombic
_symmetry_space_group_name_H-M 'P 21 21 21'
_symmetry_Int_Tables_number 19
loop_
_symmetry_equiv_pos_site_id
_symmetry_equiv_pos_as_xyz
1 x,y,z
2 1/2-x,-y,1/2+z
3 1/2+x,1/2-y,-z
4 -x,1/2+y,1/2-z
_cell_length_a 10.2308(10)
_cell_length_b 10.4653(10)
_cell_length_c 20.121(2)
_cell_angle_alpha 90
_cell_angle_beta 90
_cell_angle_gamma 90
_cell_formula_units_Z 4
loop_
_atom_type_symbol
_atom_type_radius_bond
C 0.68
H 0.23
N 0.68
O 0.68
loop_
_atom_site_label
_atom_site_type_symbol
_atom_site_fract_x
_atom_site_fract_y
_atom_site_fract_z
O1 O 1.66268(12) 1.47301(11) 1.40547(6)
C1 C 1.65044(19) 1.34443(17) 1.38270(9)
O2 O 1.70591(15) 1.26952(13) 1.43383(7)
C2 C 1.8124(2) 1.34055(19) 1.46015(10)
H1 H 1.89552 1.31503 1.43876
H2 H 1.82004 1.32732 1.50872
C3 C 1.77934(16) 1.48099(17) 1.44426(9)
H3 H 1.85102 1.51951 1.41705
C4 C 1.5060(2) 1.3150(2) 1.37771(13)
H4 H 1.46408 1.33114 1.42070
H5 H 1.49408 1.22510 1.36546
H6 H 1.46616 1.36965 1.34373
C5 C 1.7236(2) 1.3255(2) 1.31787(10)
H7 H 1.68401 1.37877 1.28323
H8 H 1.71873 1.23548 1.30468
H9 H 1.81530 1.35002 1.32380
C6 C 1.75497(16) 1.56282(16) 1.50562(8)
H10 H 1.83785 1.56863 1.53179
C7 C 1.70820(16) 1.69824(17) 1.48919(8)
H11 H 1.72740 1.72202 1.44205
C8 C 1.56013(16) 1.69989(17) 1.50406(8)
H12 H 1.50836 1.71769 1.46293
C9 C 1.52791(15) 1.56691(17) 1.53239(8)
H13 H 1.47843 1.51657 1.49846
N1 N 1.65385(14) 1.50143(14) 1.54718(7)
O3 O 1.76194(11) 1.78812(12) 1.53507(6)
C10 C 1.66009(17) 1.87297(17) 1.55462(9)
O4 O 1.54344(12) 1.79899(12) 1.55209(7)
C11 C 1.6834(2) 1.9123(2) 1.62555(11)
H14 H 1.69439 1.83597 1.65319
H15 H 1.60839 1.96174 1.64161
H16 H 1.76249 1.96488 1.62806
C12 C 1.6514(2) 1.98495(19) 1.50701(11)
H17 H 1.73347 2.03313 1.50807
H18 H 1.57912 2.04087 1.52031
H19 H 1.63585 1.95323 1.46186
C13 C 1.45363(17) 1.56427(19) 1.59847(9)
H20 H 1.38358 1.49901 1.59786
H21 H 1.41472 1.64869 1.60853
C14 C 1.56077(18) 1.52962(18) 1.64915(9)
H22 H 1.55542 1.58808 1.68837
O5 O 1.68187(11) 1.54798(12) 1.61555(6)
C15 C 1.54365(18) 1.39280(18) 1.67142(9)
H23 H 1.45986 1.38303 1.69551
H24 H 1.54263 1.33517 1.63241
O6 O 1.65155(13) 1.36080(12) 1.71458(6)
C16 C 1.65902(18) 1.23740(16) 1.73189(8)
O7 O 1.57715(14) 1.15919(13) 1.71748(7)
C17 C 1.78148(17) 1.20892(17) 1.76893(8)
C18 C 1.86507(19) 1.30442(18) 1.79009(9)
H25 H 1.84291 1.39149 1.78295
C19 C 1.9810(2) 1.2733(2) 1.82167(10)
H26 H 2.03786 1.33932 1.83634
C20 C 2.0145(2) 1.1471(2) 1.83199(10)
H27 H 2.09457 1.12599 1.85319
C21 C 1.9300(2) 1.0513(2) 1.81112(11)
H28 H 1.95274 0.96430 1.81805
C22 C 1.8132(2) 1.08140(19) 1.78034(9)
H29 H 1.75499 1.01548 1.76706
#END
