
#######################################################################
#
#                 Cambridge Crystallographic Data Centre
#                                CCDC
#
#######################################################################
#
# If this CIF has been generated from an entry in the Cambridge
# Structural Database, then it will include bibliographic, chemical,
# crystal, experimental, refinement or atomic coordinate data resulting
# from the CCDC's data processing and validation procedures.
#
#######################################################################

data_CSD_CIF_YIHHUT
_audit_creation_date 2007-11-27
_audit_creation_method CSD-ConQuest-V1
_database_code_CSD YIHHUT
_database_code_depnum_ccdc_archive 'CCDC 198244'
_chemical_formula_sum 'C11 H13 N5 O1'
_chemical_formula_moiety
;
C11 H13 N5 O1
;
_journal_coden_Cambridge 1255
_journal_volume 12
_journal_year 2006
_journal_page_first 259
_journal_name_full 'Heterocyclic Communications '
loop_
_publ_author_name
"E.Abele"
"K.Rubina"
"S.Belyakov"
"M.Fleisher"
"J.Popelis"
_chemical_name_systematic
;
Benzaldehyde O-(3-(5-tetrazolyl)propyl)oxime
;
_chemical_melting_point 363.15
_cell_volume   1181.221
_exptl_crystal_colour 'colorless'
_exptl_crystal_density_diffrn 1.3
_exptl_special_details
;
Melting point range 363.15-365.15K

;
_exptl_crystal_description 'Plate'
_exptl_crystal_preparation 'ethyl acetate'
_diffrn_ambient_temperature 298
#These two values have been output from a single CSD field.
_refine_ls_R_factor_gt 0.0587
_refine_ls_wR_factor_gt 0.0587
_symmetry_cell_setting monoclinic
_symmetry_space_group_name_H-M 'P 21/c'
_symmetry_Int_Tables_number 14
loop_
_symmetry_equiv_pos_site_id
_symmetry_equiv_pos_as_xyz
1 x,y,z
2 -x,1/2+y,1/2-z
3 -x,-y,-z
4 x,-1/2-y,-1/2+z
_cell_length_a 7.7748(3)
_cell_length_b 16.5350(9)
_cell_length_c 9.7161(4)
_cell_angle_alpha 90
_cell_angle_beta 108.971(3)
_cell_angle_gamma 90
_cell_formula_units_Z 4
loop_
_atom_type_symbol
_atom_type_radius_bond
C 0.68
H 0.23
N 0.68
O 0.68
loop_
_atom_site_label
_atom_site_type_symbol
_atom_site_fract_x
_atom_site_fract_y
_atom_site_fract_z
C1 C 0.3433(3) 0.21867(11) 0.11125(17)
N1 N 0.3302(2) 0.27860(9) 0.01791(15)
H1 H 0.34100 0.27350 -0.06700
N2 N 0.2905(3) 0.33083(10) 0.20239(17)
N3 N 0.2974(3) 0.3485(1) 0.07554(17)
N4 N 0.3184(2) 0.24993(10) 0.22839(16)
O1 O 0.1965(2) -0.06520(8) 0.14962(16)
C2 C 0.1644(3) -0.28241(12) 0.1419(2)
C3 C 0.1448(3) -0.19585(12) 0.1639(2)
H2 H 0.06570 -0.17810 0.21160
N5 N 0.2359(3) -0.14488(10) 0.11782(19)
C4 C 0.2679(3) 0.07303(12) 0.1355(2)
H3 H 0.28680 0.08030 0.23840
H4 H 0.14040 0.08270 0.08270
C5 C 0.3834(3) 0.13325(11) 0.0867(2)
H5 H 0.51070 0.12250 0.13880
H6 H 0.36390 0.12530 -0.01610
C6 C 0.0925(3) -0.33824(13) 0.2149(2)
H7 H 0.03210 -0.32030 0.27760
C7 C 0.3168(3) -0.01182(12) 0.1083(2)
H8 H 0.30310 -0.01900 0.00620
H9 H 0.44210 -0.02320 0.16550
C8 C 0.1099(3) -0.42023(14) 0.1952(3)
H10 H 0.06130 -0.45720 0.24470
C9 C 0.2534(3) -0.31103(14) 0.0484(2)
H11 H 0.30140 -0.27450 -0.00220
C10 C 0.1983(4) -0.44712(14) 0.1031(3)
H12 H 0.20940 -0.50230 0.08980
C11 C 0.2710(4) -0.39260(15) 0.0301(3)
H13 H 0.33210 -0.41100 -0.03180
#END
