
#######################################################################
#
#                 Cambridge Crystallographic Data Centre
#                                CCDC
#
#######################################################################
#
# If this CIF has been generated from an entry in the Cambridge
# Structural Database, then it will include bibliographic, chemical,
# crystal, experimental, refinement or atomic coordinate data resulting
# from the CCDC's data processing and validation procedures.
#
#######################################################################

data_CSD_CIF_YIJCAV
_audit_creation_date 1995-08-01
_audit_creation_method CSD-ConQuest-V1
_database_code_CSD YIJCAV
_database_code_depnum_ccdc_archive 'CCDC 1302950'
_chemical_formula_sum 'C20 H23 N1 O7'
_chemical_formula_moiety
;
C20 H23 N1 O7
;
_journal_coden_Cambridge 392
_journal_volume 38
_journal_year 1994
_journal_page_first 2631
_journal_name_full 'Heterocycles '
loop_
_publ_author_name
"T.Tsuno"
"K.Sugiyama"
"H.Ago"
_chemical_name_systematic
;
(2R,3S,6R,7S,10R)-7-Isopropyl-10-methyl-2-(4-nitrophenyl)-1,5,12-trioxadispiro
(2.2.5.2)tridecane-4,13-dione
;
_chemical_melting_point 462.15
_cell_volume   1938.941
_exptl_crystal_colour 'colorless'
_exptl_crystal_density_diffrn 1.33
_exptl_special_details
;
Melting point range 462.15-464.15K
y(C20) is positive

;
_diffrn_ambient_temperature ?
_diffrn_special_details
;
The study was carried out at room temperature,in the range 283-303K

;
#These two values have been output from a single CSD field.
_refine_ls_R_factor_gt 0.036
_refine_ls_wR_factor_gt 0.036
loop_
_citation_database_id_CSD
_citation_special_details
YIJBUO "is a stereoisomer of this entry"
_symmetry_cell_setting orthorhombic
_symmetry_space_group_name_H-M 'P 21 21 21'
_symmetry_Int_Tables_number 19
loop_
_symmetry_equiv_pos_site_id
_symmetry_equiv_pos_as_xyz
1 x,y,z
2 1/2-x,-y,1/2+z
3 1/2+x,1/2-y,-z
4 -x,1/2+y,1/2-z
_cell_length_a 10.896(2)
_cell_length_b 17.652(4)
_cell_length_c 10.081(2)
_cell_angle_alpha 90
_cell_angle_beta 90
_cell_angle_gamma 90
_cell_formula_units_Z 4
loop_
_atom_type_symbol
_atom_type_radius_bond
C 0.68
N 0.68
O 0.68
loop_
_atom_site_label
_atom_site_type_symbol
_atom_site_fract_x
_atom_site_fract_y
_atom_site_fract_z
O1 O -0.4438(2) -0.1977(1) -0.7874(2)
O2 O -0.2604(2) -0.1723(1) -1.0866(2)
O3 O -0.5908(2) -0.1101(1) -0.9570(2)
O4 O -0.1594(3) -0.5526(2) -0.7387(3)
C1 C -0.4797(3) -0.2598(2) -0.8675(3)
C2 C -0.2868(3) -0.1948(1) -0.9619(3)
C3 C -0.4983(3) -0.1357(2) -0.9988(3)
C4 C -0.3888(3) -0.0906(2) -1.3971(3)
C5 C -0.4944(3) -0.2154(2) -1.3540(3)
C6 C -0.4175(3) -0.3336(2) -0.8513(3)
C7 C -0.3865(3) -0.4606(2) -0.9302(3)
C8 C -0.2796(3) -0.4174(2) -0.7356(3)
C9 C -0.5370(4) -0.2897(2) -1.4144(4)
C10 C -0.1310(3) -0.0082(2) -1.3169(4)
O5 O -0.2052(2) -0.2139(1) -0.8895(2)
O6 O -0.4532(2) -0.1137(1) -1.1180(2)
O7 O -0.2753(3) -0.5966(1) -0.8935(3)
N1 N -0.2426(3) -0.5458(2) -0.8187(3)
C11 C -0.4187(3) -0.1912(2) -0.9255(3)
C12 C -0.3567(3) -0.1558(2) -1.1810(3)
C13 C -0.2977(3) -0.1048(2) -1.2856(3)
C14 C -0.4343(3) -0.1641(2) -1.4584(3)
C15 C -0.4065(3) -0.2286(2) -1.2396(3)
C16 C -0.4429(3) -0.3909(2) -0.9414(3)
C17 C -0.3052(3) -0.4722(2) -0.8289(3)
C18 C -0.3365(3) -0.3473(2) -0.7489(3)
C19 C -0.2376(3) -0.0319(2) -1.2295(3)
C20 C -0.3237(4) 0.0349(2) -1.2118(5)
#END
