
#######################################################################
#
#                 Cambridge Crystallographic Data Centre
#                                CCDC
#
#######################################################################
#
# If this CIF has been generated from an entry in the Cambridge
# Structural Database, then it will include bibliographic, chemical,
# crystal, experimental, refinement or atomic coordinate data resulting
# from the CCDC's data processing and validation procedures.
#
#######################################################################

data_CSD_CIF_YIKSEQ
_audit_creation_date 2002-03-22
_audit_creation_method CSD-ConQuest-V1
_database_code_CSD YIKSEQ
_database_code_depnum_ccdc_archive 'CCDC 178253'
_chemical_formula_sum 'C12 H11 N1 O2'
_chemical_formula_moiety
;
C12 H11 N1 O2
;
_journal_coden_Cambridge 15
_journal_volume 79
_journal_year 2001
_journal_page_first 1272
_journal_name_full 'Can.J.Chem. '
loop_
_publ_author_name
"S.Wolfe"
"Yih-Huang Hsieh"
"R.J.Batchelor"
"F.W.B.Einstein"
"I.D.Gay"
_chemical_name_systematic
;
1-Benzyloxy-2-pyridone
;
_cell_volume   1031.004
_exptl_crystal_colour 'colorless'
_exptl_crystal_density_diffrn 1.296
_exptl_crystal_description 'prism'
_exptl_crystal_preparation 'hexane'
_diffrn_ambient_temperature 293
#These two values have been output from a single CSD field.
_refine_ls_R_factor_gt 0.031
_refine_ls_wR_factor_gt 0.031
_symmetry_cell_setting orthorhombic
_symmetry_space_group_name_H-M 'P c 21 b'
_symmetry_Int_Tables_number 29
loop_
_symmetry_equiv_pos_site_id
_symmetry_equiv_pos_as_xyz
1 x,y,z
2 -x,y,1/2+z
3 -x,1/2+y,-z
4 x,1/2+y,1/2-z
_cell_length_a 5.8898(5)
_cell_length_b 13.0782(14)
_cell_length_c 13.3848(12)
_cell_angle_alpha 90
_cell_angle_beta 90
_cell_angle_gamma 90
_cell_formula_units_Z 4
loop_
_atom_type_symbol
_atom_type_radius_bond
C 0.68
H 0.23
N 0.68
O 0.68
loop_
_atom_site_label
_atom_site_type_symbol
_atom_site_fract_x
_atom_site_fract_y
_atom_site_fract_z
O1 O 0.3120(6) 0.0705(3) 0.0879(3)
O2 O 0.6843(6) -0.0452(3) 0.07865(24)
N1 N 0.6402(7) 0.0301(3) 0.0080(3)
C1 C 0.4402(9) 0.0871(5) 0.0179(5)
C2 C 0.4115(10) 0.1575(5) -0.0622(4)
C3 C 0.5656(10) 0.1698(6) -0.1357(4)
C4 C 0.7629(10) 0.1120(4) -0.1376(3)
C5 C 0.7989(9) 0.0429(4) -0.0646(3)
C6 C 0.7963(9) 0.0008(4) 0.1642(3)
C7 C 0.8254(9) -0.0785(4) 0.2426(3)
C8 C 0.6571(10) -0.0935(4) 0.3117(3)
C9 C 0.6820(11) -0.1634(5) 0.3875(4)
C10 C 0.8781(12) -0.2189(4) 0.3931(4)
C11 C 1.0472(10) -0.2066(6) 0.3243(5)
C12 C 1.0189(9) -0.1353(5) 0.2488(5)
H1 H 0.277(1) 0.1976(5) -0.0641(4)
H2 H 0.5388(10) 0.2189(6) -0.1867(4)
H3 H 0.8709(10) 0.1210(4) -0.1895(3)
H4 H 0.9344(9) 0.0035(4) -0.0639(3)
H5 H 0.521(1) -0.0548(4) 0.3072(3)
H6 H 0.5646(11) -0.1731(5) 0.4353(4)
H7 H 0.8974(12) -0.2667(4) 0.4459(4)
H8 H 1.1818(10) -0.2464(6) 0.3280(5)
H9 H 1.1359(9) -0.1257(5) 0.2008(5)
H10 H 0.9407(9) 0.0264(4) 0.1448(3)
H11 H 0.7063(9) 0.0553(4) 0.1894(3)
#END
