
#######################################################################
#
#                 Cambridge Crystallographic Data Centre
#                                CCDC
#
#######################################################################
#
# If this CIF has been generated from an entry in the Cambridge
# Structural Database, then it will include bibliographic, chemical,
# crystal, experimental, refinement or atomic coordinate data resulting
# from the CCDC's data processing and validation procedures.
#
#######################################################################

data_CSD_CIF_YILNIS
_audit_creation_date 2013-11-01
_audit_creation_method CSD-ConQuest-V1
_database_code_CSD YILNIS
_database_code_depnum_ccdc_archive 'CCDC 924426'
_chemical_formula_sum 'C4 H2 N6 O2'
_chemical_formula_moiety
;
C4 H2 N6 O2
;
_journal_coden_Cambridge 122
_journal_year 2013
_journal_page_first 819
_journal_name_full 'Khim.Get.Soedin.,SSSR(Russ.)(Chem.Heterocycl.Compd.) '
loop_
_publ_author_name
"E.B.Gorbunov"
"R.K.Novikova"
"P.V.Plekhanov"
"P.A.Slepukhin"
"G.L.Rusinov"
"V.L.Rusinov"
"V.N.Charushin"
"O.N.Chupakhin"
_chemical_name_systematic
;
2-Azido-5-nitropyrimidine
;
_cell_volume    649.157
_exptl_crystal_colour 'colorless'
_exptl_crystal_density_diffrn 1.7
_exptl_crystal_description 'prism'
_diffrn_ambient_temperature 112
#These two values have been output from a single CSD field.
_refine_ls_R_factor_gt 0.0327
_refine_ls_wR_factor_gt 0.0327
_symmetry_cell_setting monoclinic
_symmetry_space_group_name_H-M 'P 21/n'
_symmetry_Int_Tables_number 14
loop_
_symmetry_equiv_pos_site_id
_symmetry_equiv_pos_as_xyz
1 x,y,z
2 1/2-x,1/2+y,1/2-z
3 -x,-y,-z
4 -1/2+x,-1/2-y,-1/2+z
_cell_length_a 9.8556(14)
_cell_length_b 6.2595(9)
_cell_length_c 11.5071(18)
_cell_angle_alpha 90
_cell_angle_beta 113.872(14)
_cell_angle_gamma 90
_cell_formula_units_Z 4
loop_
_atom_type_symbol
_atom_type_radius_bond
C 0.68
H 0.23
N 0.68
O 0.68
loop_
_atom_site_label
_atom_site_type_symbol
_atom_site_fract_x
_atom_site_fract_y
_atom_site_fract_z
C1 C 0.15444(8) 0.87207(13) 0.17008(7)
C2 C -0.11052(8) 0.78048(13) 0.15660(7)
N1 N -0.25960(7) 0.73578(11) 0.14694(6)
O1 O -0.29495(7) 0.80283(11) 0.23137(6)
N2 N 0.06504(7) 0.76705(11) 0.06552(6)
N3 N 0.32506(7) 0.87588(12) 0.08895(7)
C3 C -0.06982(8) 0.71965(13) 0.05936(7)
N4 N 0.12573(7) 0.93374(11) 0.26948(6)
N5 N 0.29624(7) 0.93109(12) 0.18224(6)
O2 O -0.34248(6) 0.63422(11) 0.05431(5)
C4 C -0.00922(9) 0.88669(13) 0.26189(7)
N6 N 0.36547(8) 0.84132(14) 0.01311(7)
H1 H -0.1346(11) 0.6460(17) -0.0155(9)
H2 H -0.0314(11) 0.9292(18) 0.3314(10)
#END
