
#######################################################################
#
#                 Cambridge Crystallographic Data Centre
#                                CCDC
#
#######################################################################
#
# If this CIF has been generated from an entry in the Cambridge
# Structural Database, then it will include bibliographic, chemical,
# crystal, experimental, refinement or atomic coordinate data resulting
# from the CCDC's data processing and validation procedures.
#
#######################################################################

data_CSD_CIF_YILNOY
_audit_creation_date 2013-11-01
_audit_creation_method CSD-ConQuest-V1
_database_code_CSD YILNOY
_database_code_depnum_ccdc_archive 'CCDC 924425'
_chemical_formula_sum 'C4 H4 N6 O3'
_chemical_formula_moiety
;
C4 H4 N6 O3
;
_journal_coden_Cambridge 122
_journal_year 2013
_journal_page_first 819
_journal_name_full 'Khim.Get.Soedin.,SSSR(Russ.)(Chem.Heterocycl.Compd.) '
loop_
_publ_author_name
"E.B.Gorbunov"
"R.K.Novikova"
"P.V.Plekhanov"
"P.A.Slepukhin"
"G.L.Rusinov"
"V.L.Rusinov"
"V.N.Charushin"
"O.N.Chupakhin"
_chemical_name_systematic
;
6-Nitro-4,7-dihydrotetrazolo[1,5-a]pyrimidin-7-ol
;
_cell_volume    698.700
_exptl_crystal_colour 'yellow'
_exptl_crystal_density_diffrn 1.75
_exptl_crystal_description 'plate'
_diffrn_ambient_temperature 295
#These two values have been output from a single CSD field.
_refine_ls_R_factor_gt 0.0426
_refine_ls_wR_factor_gt 0.0426
_symmetry_cell_setting orthorhombic
_symmetry_space_group_name_H-M 'P 21 21 21'
_symmetry_Int_Tables_number 19
loop_
_symmetry_equiv_pos_site_id
_symmetry_equiv_pos_as_xyz
1 x,y,z
2 1/2-x,-y,1/2+z
3 -x,1/2+y,1/2-z
4 1/2+x,1/2-y,-z
_cell_length_a 6.6135(9)
_cell_length_b 8.0429(11)
_cell_length_c 13.1355(18)
_cell_angle_alpha 90
_cell_angle_beta 90
_cell_angle_gamma 90
_cell_formula_units_Z 4
loop_
_atom_type_symbol
_atom_type_radius_bond
C 0.68
H 0.23
N 0.68
O 0.68
loop_
_atom_site_label
_atom_site_type_symbol
_atom_site_fract_x
_atom_site_fract_y
_atom_site_fract_z
N1 N 0.0701(4) 0.2190(4) 0.7665(2)
O1 O 0.2004(5) 0.0708(3) 0.6313(2)
N2 N 0.3245(4) 0.3074(4) 0.8707(3)
N3 N -0.1580(5) 0.1512(4) 0.8692(3)
C1 C 0.3675(5) 0.3157(5) 0.6933(3)
O2 O 0.6505(5) 0.4297(4) 0.6250(3)
O3 O 0.4101(5) 0.3495(5) 0.5264(2)
C2 C 0.1699(5) 0.2301(4) 0.6692(2)
H1 H 0.08970 0.29670 0.62150
N4 N 0.4873(6) 0.3684(4) 0.6104(3)
C3 C 0.4395(6) 0.3458(5) 0.7890(3)
N5 N -0.0026(5) 0.2027(4) 0.9276(2)
C4 C 0.1386(5) 0.2449(4) 0.8582(3)
N6 N -0.1261(4) 0.1548(5) 0.7750(2)
H2 H 0.562(5) 0.399(4) 0.799(2)
H3 H 0.146(6) 0.066(5) 0.586(3)
H4 H 0.388(5) 0.306(5) 0.929(3)
#END
