
#######################################################################
#
#                 Cambridge Crystallographic Data Centre
#                                CCDC
#
#######################################################################
#
# If this CIF has been generated from an entry in the Cambridge
# Structural Database, then it will include bibliographic, chemical,
# crystal, experimental, refinement or atomic coordinate data resulting
# from the CCDC's data processing and validation procedures.
#
#######################################################################

data_CSD_CIF_YILNOW
_audit_creation_date 1995-08-02
_audit_creation_method CSD-ConQuest-V1
_database_code_CSD YILNOW
_chemical_formula_sum 'C36 H33 N3 O11'
_chemical_formula_moiety
;
C36 H33 N3 O11
;
_journal_coden_Cambridge 456
_journal_volume 68
_journal_year 1994
_journal_page_first 2071
_journal_name_full 'Pol.J.Chem. '
loop_
_publ_author_name
"Z.Urbanczyk-Lipowska"
_chemical_name_systematic
;
(1R,2S,3R,7R,8S)-6-Aza-1,2,8-tribenzyloxy-3-benzyloxymethyl-4-oxa-bicyclo(2.5.
0)nonan-9-one
;
_chemical_melting_point 464.15
_cell_volume   3409.683
_exptl_special_details
;
Melting point range 464.15-465.15K
Dx reported as 1.304; we calculate 1.33. The coordinates have been amended by 
the author
;
_diffrn_ambient_temperature ?
_diffrn_special_details
;
The study was carried out at room temperature,in the range 283-303K

;
#These two values have been output from a single CSD field.
_refine_ls_R_factor_gt 0.038
_refine_ls_wR_factor_gt 0.038
_symmetry_cell_setting orthorhombic
_symmetry_space_group_name_H-M 'P 21 21 21'
_symmetry_Int_Tables_number 19
loop_
_symmetry_equiv_pos_site_id
_symmetry_equiv_pos_as_xyz
1 x,y,z
2 1/2-x,-y,1/2+z
3 1/2+x,1/2-y,-z
4 -x,1/2+y,1/2-z
_cell_length_a 7.117
_cell_length_b 13.94
_cell_length_c 34.368
_cell_angle_alpha 90
_cell_angle_beta 90
_cell_angle_gamma 90
_cell_formula_units_Z 4
loop_
_atom_type_symbol
_atom_type_radius_bond
C 0.68
H 0.23
N 0.68
O 0.68
loop_
_atom_site_label
_atom_site_type_symbol
_atom_site_fract_x
_atom_site_fract_y
_atom_site_fract_z
N1 N -0.0651(8) 0.7353(4) 0.7631(1)
C1 C -0.0219(13) 0.6402(5) 0.7581(2)
C2 C -0.2316(11) 0.6164(5) 0.7582(2)
C3 C -0.2647(10) 0.7206(4) 0.7727(2)
C4 C 0.0499(9) 0.8183(5) 0.7696(2)
O1 O 0.0132(6) 0.8589(3) 0.8069(1)
C5 C -0.1683(10) 0.9030(4) 0.8086(2)
C6 C -0.3025(8) 0.8356(4) 0.8308(1)
C7 C -0.3032(8) 0.7314(4) 0.8161(2)
O2 O 0.1226(8) 0.5975(4) 0.7545(1)
O3 O -0.2880(7) 0.5392(3) 0.7812(1)
C8 C -0.4665(12) 0.5044(5) 0.7721(2)
C9 C -0.5200(14) 0.4223(5) 0.7976(2)
C10 C -0.7040(13) 0.4101(5) 0.8078(2)
C11 C -0.7635(12) 0.3318(7) 0.8296(2)
C12 C -0.6308(19) 0.2681(6) 0.8427(3)
C13 C -0.4476(15) 0.2801(6) 0.8341(3)
C14 C -0.3912(11) 0.3563(6) 0.8115(2)
C15 C -0.1484(9) 0.9984(4) 0.8269(1)
O4 O -0.0863(6) 0.9856(2) 0.8673(1)
C16 C -0.0502(9) 1.0665(4) 0.8869(2)
O5 O -0.0606(7) 1.1449(3) 0.8726(1)
C17 C 0.0027(8) 1.0485(4) 0.9279(1)
C18 C 0.0191(9) 0.9576(4) 0.9430(2)
C19 C 0.0708(9) 0.9477(4) 0.9814(2)
C20 C 0.1036(10) 1.0247(4) 1.0055(2)
C21 C 0.0828(10) 1.1129(4) 0.9888(2)
C22 C 0.0351(9) 1.1281(4) 0.9507(2)
N2 N 0.0903(10) 0.8508(4) 0.9981(2)
O6 O 0.0724(11) 0.7838(3) 0.9760(1)
O7 O 0.1255(9) 0.8435(3) 1.0318(1)
N3 N 0.1242(11) 1.1982(4) 1.0135(2)
O8 O 0.1442(11) 1.2738(4) 0.9974(3)
O9 O 0.1341(10) 1.1876(3) 1.0482(1)
O10 O -0.4848(6) 0.8772(2) 0.8251(1)
C23 C -0.6086(9) 0.8601(4) 0.8572(2)
C24 C -0.5503(9) 0.9138(4) 0.8935(2)
C25 C -0.5454(10) 1.0131(4) 0.8926(2)
C26 C -0.4959(11) 1.0627(4) 0.9257(2)
C27 C -0.4560(11) 1.0148(5) 0.9599(2)
C28 C -0.4631(11) 0.9171(5) 0.9609(2)
C29 C -0.5129(10) 0.8661(4) 0.9278(2)
O11 O -0.1652(5) 0.6770(2) 0.8365(1)
C30 C -0.2393(10) 0.6287(5) 0.8694(2)
C31 C -0.0890(12) 0.5717(5) 0.8882(2)
C32 C -0.1164(12) 0.4800(6) 0.8968(2)
C33 C 0.0194(18) 0.4256(7) 0.9156(3)
C34 C 0.1813(19) 0.4675(9) 0.9253(3)
C35 C 0.2182(14) 0.5618(8) 0.9169(3)
C36 C 0.0762(16) 0.6143(6) 0.8986(3)
H1 H -0.2704(67) 0.6078(29) 0.7335(11)
H2 H -0.3478(57) 0.7645(24) 0.7572(9)
H3 H 0.1682(66) 0.7983(31) 0.7730(12)
H4 H 0.0201(74) 0.8692(29) 0.7445(12)
H5 H -0.2195(57) 0.9160(26) 0.7820(9)
H6 H -0.2617(52) 0.8400(23) 0.8615(9)
H7 H -0.4499(61) 0.7031(26) 0.8191(10)
H8 H -0.4647(79) 0.4893(33) 0.7455(14)
H9 H -0.5381(89) 0.5684(39) 0.7805(14)
H10 H -0.7861(70) 0.4505(32) 0.7993(11)
H11 H -0.9019(94) 0.3220(41) 0.8348(15)
H12 H -0.6743(87) 0.2147(39) 0.8653(15)
H13 H -0.3531(86) 0.2296(37) 0.8419(12)
H14 H -0.2495(76) 0.363(43) 0.8094(12)
H15 H -0.0516(67) 1.0432(31) 0.8113(11)
H16 H -0.2652(65) 1.0375(28) 0.8259(11)
H17 H 0.0156(60) 1.1923(26) 0.9403(10)
H18 H -0.0050(61) 0.9025(25) 0.9266(10)
H19 H 0.1379(67) 1.0133(29) 1.0345(12)
H20 H -0.6314(72) 0.7927(31) 0.8610(12)
H21 H -0.7428(79) 0.8828(35) 0.8465(13)
H22 H -0.5596(60) 1.0505(26) 0.8687(10)
H23 H -0.4946(72) 1.1323(31) 0.9191(12)
H24 H -0.4334(88) 1.0522(36) 0.9889(13)
H25 H -0.4308(74) 0.8831(29) 0.9849(12)
H26 H -0.4966(65) 0.7866(26) 0.9309(11)
H27 H -0.3307(80) 0.5899(36) 0.8616(14)
H28 H -0.2714(76) 0.6874(36) 0.8892(14)
H29 H -0.2346(91) 0.4523(39) 0.8883(15)
H30 H 0.013(13) 0.3552(52) 0.9253(20)
H31 H 0.27(1) 0.4260(43) 0.9362(16)
H32 H 0.274(10) 0.6026(42) 0.9303(16)
H33 H 0.07(1) 0.6844(46) 0.8897(17)
#END
