
#######################################################################
#
#                 Cambridge Crystallographic Data Centre
#                                CCDC
#
#######################################################################
#
# If this CIF has been generated from an entry in the Cambridge
# Structural Database, then it will include bibliographic, chemical,
# crystal, experimental, refinement or atomic coordinate data resulting
# from the CCDC's data processing and validation procedures.
#
#######################################################################

data_CSD_CIF_YILPUE
_audit_creation_date 1995-08-02
_audit_creation_method CSD-ConQuest-V1
_database_code_CSD YILPUE
_database_code_depnum_ccdc_archive 'CCDC 1303195'
_chemical_formula_sum 'C13 H12 N4 O8'
_chemical_formula_moiety
;
C13 H12 N4 O8
;
_journal_coden_Cambridge 3
_journal_volume 48
_journal_year 1994
_journal_page_first 917
_journal_name_full 'Acta Chem.Scand. '
loop_
_publ_author_name
"J.L.Calvert"
"L.Eberson"
"M.P.Hartshorn"
"W.T.Robinson"
"D.J.Timmerman-Vaughan"
_chemical_name_systematic
;
cis-2,6-Dimethyl-1-nitro-4-trinitromethyl-1,4-dihydronaphthalene
;
_chemical_melting_point 407.15
_cell_volume    737.326
_exptl_crystal_colour 'colorless'
_exptl_crystal_density_diffrn 1.587
_exptl_special_details
;
Melting point range 407.15-409.15K

;
_diffrn_ambient_temperature 130
#These two values have been output from a single CSD field.
_refine_ls_R_factor_gt 0.0446
_refine_ls_wR_factor_gt 0.0446
loop_
_citation_database_id_CSD
_citation_special_details
YILPOY "is a stereoisomer of this entry"
_symmetry_cell_setting triclinic
_symmetry_space_group_name_H-M 'P -1'
_symmetry_Int_Tables_number 2
loop_
_symmetry_equiv_pos_site_id
_symmetry_equiv_pos_as_xyz
1 x,y,z
2 -x,-y,-z
_cell_length_a 6.58
_cell_length_b 7.7
_cell_length_c 15.225
_cell_angle_alpha 80.44
_cell_angle_beta 89.95
_cell_angle_gamma 75.96
_cell_formula_units_Z 2
loop_
_atom_type_symbol
_atom_type_radius_bond
C 0.68
H 0.23
N 0.68
O 0.68
loop_
_atom_site_label
_atom_site_type_symbol
_atom_site_fract_x
_atom_site_fract_y
_atom_site_fract_z
O1 O 0.0427(4) 0.8241(3) 0.3432(2)
O2 O 0.6416(4) 0.1439(3) 0.2806(2)
O3 O 0.1940(4) 0.5417(3) 0.2645(2)
O4 O 0.1516(3) 1.0628(3) 0.2897(2)
O5 O 0.4501(4) 0.2910(3) 0.1646(2)
O6 O -0.0833(4) 1.0178(3) 0.1342(2)
N1 N 0.5884(4) 0.2746(3) 0.2208(2)
N2 N 0.1557(4) 0.6616(3) 0.1998(2)
O7 O 0.2100(4) 1.0422(3) 0.0744(2)
C1 C 0.7095(5) 0.4228(4) 0.2162(2)
O8 O 0.0828(3) 0.6534(3) 0.1279(2)
N3 N 0.1280(4) 0.9110(3) 0.2889(2)
C2 C 0.6793(4) 0.5072(4) 0.2988(2)
C3 C 0.5662(4) 0.6864(4) 0.2958(2)
N4 N 0.1066(4) 0.9779(3) 0.1306(2)
C4 C 0.2220(5) 0.8330(4) 0.2076(2)
C5 C 0.5619(4) 0.7638(4) 0.3724(2)
C6 C 0.5479(4) 0.7222(4) 0.1282(2)
C7 C 0.6570(4) 0.5525(4) 0.1303(2)
C8 C 0.7656(5) 0.4867(4) 0.4542(2)
C9 C 0.6594(4) 0.6665(4) 0.4523(2)
C10 C 0.4626(4) 0.8009(4) 0.2087(2)
C11 C 0.7788(4) 0.4098(4) 0.3789(2)
C12 C 0.7457(5) 0.4820(5) 0.0486(2)
C13 C 0.6578(5) 0.7558(4) 0.5325(2)
H1 H 0.8587(5) 0.3621(4) 0.2159(2)
H2 H 0.4912(4) 0.8849(4) 0.3698(2)
H3 H 0.5222(4) 0.7982(4) 0.0731(2)
H4 H 0.8289(5) 0.4173(4) 0.5074(2)
H5 H 0.4943(4) 0.9200(4) 0.2040(2)
H6 H 0.8556(4) 0.2904(4) 0.3813(2)
H7 H 0.8188(5) 0.3564(5) 0.0646(2)
H8 H 0.8412(5) 0.5509(5) 0.0230(2)
H9 H 0.6338(5) 0.4934(5) 0.0060(2)
H10 H 0.7323(5) 0.6687(4) 0.5816(2)
H11 H 0.5157(5) 0.8014(4) 0.5480(2)
H12 H 0.7246(5) 0.8545(4) 0.5195(2)
#END
