
#######################################################################
#
#                 Cambridge Crystallographic Data Centre
#                                CCDC
#
#######################################################################
#
# If this CIF has been generated from an entry in the Cambridge
# Structural Database, then it will include bibliographic, chemical,
# crystal, experimental, refinement or atomic coordinate data resulting
# from the CCDC's data processing and validation procedures.
#
#######################################################################

data_CSD_CIF_YILRIU
_audit_creation_date 1995-08-02
_audit_creation_method CSD-ConQuest-V1
_database_code_CSD YILRIU
_database_code_depnum_ccdc_archive 'CCDC 1303197'
_chemical_formula_sum 'C13 H13 N3 O7'
_chemical_formula_moiety
;
C13 H13 N3 O7
;
_journal_coden_Cambridge 3
_journal_volume 48
_journal_year 1994
_journal_page_first 917
_journal_name_full 'Acta Chem.Scand. '
loop_
_publ_author_name
"J.L.Calvert"
"L.Eberson"
"M.P.Hartshorn"
"W.T.Robinson"
"D.J.Timmerman-Vaughan"
_chemical_name_systematic
;
5,12-Dimethyl-9,9-dinitro-13-hydroxy-10-aza-11,14-dioxatetracyclo(6.3.2.1^10,1
2^.0^1,9^)tetradeca-2,4,6-triene
;
_chemical_melting_point 456.15
_cell_volume   2700.578
_exptl_crystal_colour 'colorless'
_exptl_crystal_density_diffrn 1.59
_exptl_special_details
;
Melting point range 456.15-457.15K

;
_diffrn_ambient_temperature 130
#These two values have been output from a single CSD field.
_refine_ls_R_factor_gt 0.0731
_refine_ls_wR_factor_gt 0.0731
_symmetry_cell_setting orthorhombic
_symmetry_space_group_name_H-M 'P b c a'
_symmetry_Int_Tables_number 61
loop_
_symmetry_equiv_pos_site_id
_symmetry_equiv_pos_as_xyz
1 x,y,z
2 1/2-x,-y,1/2+z
3 1/2+x,1/2-y,-z
4 -x,1/2+y,1/2-z
5 -x,-y,-z
6 -1/2+x,y,-1/2-z
7 -1/2-x,-1/2+y,z
8 x,-1/2-y,-1/2+z
_cell_length_a 15.028
_cell_length_b 10.71
_cell_length_c 16.779
_cell_angle_alpha 90
_cell_angle_beta 90
_cell_angle_gamma 90
_cell_formula_units_Z 8
loop_
_atom_type_symbol
_atom_type_radius_bond
C 0.68
H 0.23
N 0.68
O 0.68
loop_
_atom_site_label
_atom_site_type_symbol
_atom_site_fract_x
_atom_site_fract_y
_atom_site_fract_z
O1 O 0.0878(2) 0.3994(3) 0.1734(2)
O2 O 0.0047(2) 0.3338(4) 0.2740(2)
O3 O -0.0036(3) 0.3502(4) 0.0352(2)
O4 O -0.0348(3) 0.1524(4) 0.0277(3)
O5 O -0.1265(3) 0.0995(4) 0.2008(3)
O6 O 0.1359(3) 0.0532(4) 0.2903(2)
N1 N 0.0013(3) 0.3568(5) 0.1904(3)
N2 N -0.0172(3) 0.2487(6) 0.0639(3)
N3 N -0.1101(3) 0.2014(5) 0.1739(3)
C1 C 0.1503(3) 0.3266(6) 0.2232(3)
C2 C 0.0890(4) 0.2679(6) 0.2869(4)
C3 C 0.0661(4) 0.1333(6) 0.2680(3)
C4 C 0.0500(4) 0.1275(6) 0.1775(3)
C5 C 0.1411(4) 0.1406(5) 0.1388(3)
C6 C 0.1729(4) 0.0594(6) 0.0823(3)
C7 C 0.2601(4) 0.0686(6) 0.0554(3)
C8 C 0.3139(4) 0.1601(6) 0.0885(3)
C9 C 0.2817(4) 0.2449(6) 0.1439(4)
C10 C 0.1945(4) 0.2351(5) 0.1687(3)
C11 C 0.1166(4) 0.2908(6) 0.3721(3)
C12 C 0.2951(4) -0.0221(6) -0.0059(4)
C13 C -0.0123(4) 0.2325(5) 0.1542(3)
O7 O -0.1633(3) 0.2846(4) 0.1612(3)
H1 H 0.1149(3) -0.0143(4) 0.3075(2)
H2 H 0.1953(3) 0.3828(6) 0.2485(3)
H3 H 0.0103(4) 0.1095(6) 0.2966(3)
H4 H 0.0231(4) 0.0452(6) 0.1629(3)
H5 H 0.1351(4) -0.0039(6) 0.0616(3)
H6 H 0.3745(4) 0.1649(6) 0.0727(3)
H7 H 0.3193(4) 0.3084(6) 0.1646(4)
H8 H 0.1739(4) 0.2500(6) 0.3823(3)
H9 H 0.0715(4) 0.2565(6) 0.4082(3)
H10 H 0.1224(4) 0.3808(6) 0.3812(3)
H11 H 0.3602(4) -0.0170(6) -0.0076(4)
H12 H 0.2708(4) -0.0011(6) -0.0584(4)
H13 H 0.2772(4) -0.1072(6) 0.0085(4)
#END
