
#######################################################################
#
#                 Cambridge Crystallographic Data Centre
#                                CCDC
#
#######################################################################
#
# If this CIF has been generated from an entry in the Cambridge
# Structural Database, then it will include bibliographic, chemical,
# crystal, experimental, refinement or atomic coordinate data resulting
# from the CCDC's data processing and validation procedures.
#
#######################################################################

data_CSD_CIF_YILRAM
_audit_creation_date 1995-08-02
_audit_creation_method CSD-ConQuest-V1
_database_code_CSD YILRAM
_database_code_depnum_ccdc_archive 'CCDC 1303196'
_chemical_formula_sum 'C13 H12 N4 O8'
_chemical_formula_moiety
;
C13 H12 N4 O8
;
_journal_coden_Cambridge 3
_journal_volume 48
_journal_year 1994
_journal_page_first 917
_journal_name_full 'Acta Chem.Scand. '
loop_
_publ_author_name
"J.L.Calvert"
"L.Eberson"
"M.P.Hartshorn"
"W.T.Robinson"
"D.J.Timmerman-Vaughan"
_chemical_name_systematic
;
5,12-Dimethyl-9,9,13-trinitro-10-aza-11,14-dioxa-tetracyclo(6.3.2.1^10,12^.0^1
,9^)tetradeca-2,4,6-triene
;
_chemical_melting_point 442.15
_cell_volume   1462.504
_exptl_crystal_colour 'colorless'
_exptl_crystal_density_diffrn 1.6
_exptl_special_details
;
Melts with decomposition.

;
_diffrn_ambient_temperature 132
#These two values have been output from a single CSD field.
_refine_ls_R_factor_gt 0.0425
_refine_ls_wR_factor_gt 0.0425
_symmetry_cell_setting monoclinic
_symmetry_space_group_name_H-M 'P 21/c'
_symmetry_Int_Tables_number 14
loop_
_symmetry_equiv_pos_site_id
_symmetry_equiv_pos_as_xyz
1 x,y,z
2 -x,1/2+y,1/2-z
3 -x,-y,-z
4 x,-1/2-y,-1/2+z
_cell_length_a 15.234
_cell_length_b 11.663
_cell_length_c 8.531
_cell_angle_alpha 90
_cell_angle_beta 105.23
_cell_angle_gamma 90
_cell_formula_units_Z 4
loop_
_atom_type_symbol
_atom_type_radius_bond
C 0.68
H 0.23
N 0.68
O 0.68
loop_
_atom_site_label
_atom_site_type_symbol
_atom_site_fract_x
_atom_site_fract_y
_atom_site_fract_z
O1 O 0.7633(1) 0.1813(1) 0.7944(2)
O2 O 0.6166(1) 0.1463(1) 0.6932(2)
O3 O 0.8477(1) 0.1082(2) 0.5588(2)
O4 O 0.8175(1) -0.0713(2) 0.5051(2)
O5 O 0.6482(2) 0.0794(2) 0.3348(2)
O6 O 0.5783(1) -0.0486(1) 0.4401(2)
O7 O 0.6540(1) -0.0912(2) 1.0724(2)
O8 O 0.6203(2) -0.2226(2) 0.8900(3)
N1 N 0.6998(1) 0.1505(2) 0.6492(2)
N2 N 0.8015(1) 0.0231(2) 0.5512(2)
N3 N 0.6400(1) 0.0174(2) 0.4441(2)
N4 N 0.6349(1) -0.1237(2) 0.9320(3)
C1 C 0.7376(2) 0.1219(2) 0.9277(3)
C2 C 0.6372(1) 0.0870(2) 0.8501(3)
C3 C 0.6301(2) -0.0384(2) 0.7977(3)
C4 C 0.7108(1) -0.0646(2) 0.7257(3)
C5 C 0.7951(1) -0.0653(2) 0.8669(3)
C6 C 0.8571(2) -0.1540(2) 0.8994(3)
C7 C 0.9285(2) -0.1533(2) 1.0397(3)
C8 C 0.9348(2) -0.0633(2) 1.1480(3)
C9 C 0.8723(2) 0.0254(2) 1.1177(3)
C10 C 0.8033(2) 0.0250(2) 0.9772(3)
C11 C 0.5677(2) 0.1294(2) 0.9331(3)
C12 C 0.9970(2) -0.2488(2) 1.0749(3)
C13 C 0.7139(2) 0.0302(2) 0.6044(3)
H1 H 0.7415(2) 0.1753(2) 1.0210(3)
H2 H 0.5719(2) -0.0500(2) 0.7117(3)
H3 H 0.7024(1) -0.1410(2) 0.6703(3)
H4 H 0.8509(2) -0.2161(2) 0.8252(3)
H5 H 0.9829(2) -0.0625(2) 1.2450(3)
H6 H 0.8771(2) 0.0861(2) 1.1937(3)
H7 H 0.5070(2) 0.1043(11) 0.8718(10)
H8 H 0.5695(7) 0.2133(2) 0.9382(16)
H9 H 0.5813(6) 0.0981(10) 1.0435(7)
H10 H 1.0561(9) -0.2188(10) 1.1364(58)
H11 H 1.0027(27) -0.2818(31) 0.9724(3)
H12 H 0.9768(19) -0.3083(22) 1.1388(57)
H13? H 0.9676(9) -0.3205(9) 1.0287(58)
H14? H 1.0210(28) -0.2574(31) 1.1927(3)
H15? H 1.0469(19) -0.2310(22) 1.0262(57)
#END
