
#######################################################################
#
#                 Cambridge Crystallographic Data Centre
#                                CCDC
#
#######################################################################
#
# If this CIF has been generated from an entry in the Cambridge
# Structural Database, then it will include bibliographic, chemical,
# crystal, experimental, refinement or atomic coordinate data resulting
# from the CCDC's data processing and validation procedures.
#
#######################################################################

data_CSD_CIF_YILYOJ
_audit_creation_date 2013-11-01
_audit_creation_method CSD-ConQuest-V1
_database_code_CSD YILYOJ
_database_code_depnum_ccdc_archive 'CCDC 928052'
_chemical_formula_sum 'C25 H37 N1 O4'
_chemical_formula_moiety
;
C25 H37 N1 O4
;
_journal_coden_Cambridge 179
_journal_volume 52
_journal_year 2013
_journal_page_first 8968
_journal_name_full 'Angew.Chem.,Int.Ed. '
loop_
_publ_author_name
"M.C.Pischl"
"C.F.Weise"
"M.-A.Mueller"
"A.Pfaltz"
"C.Schneider"
_chemical_name_systematic
;
Octadec-1-yn-3-yl 4-nitrobenzoate
;
_cell_volume   2376.615
_exptl_crystal_colour 'colorless'
_exptl_crystal_density_diffrn 1.161
_exptl_special_details
;
Absolute configuration

;
_exptl_crystal_description 'needles'
_diffrn_ambient_temperature 130
#These two values have been output from a single CSD field.
_refine_ls_R_factor_gt 0.0291
_refine_ls_wR_factor_gt 0.0291
_symmetry_cell_setting orthorhombic
_symmetry_space_group_name_H-M 'P 21 21 21'
_symmetry_Int_Tables_number 19
loop_
_symmetry_equiv_pos_site_id
_symmetry_equiv_pos_as_xyz
1 x,y,z
2 1/2-x,-y,1/2+z
3 -x,1/2+y,1/2-z
4 1/2+x,1/2-y,-z
_cell_length_a 6.6149(1)
_cell_length_b 8.5006(1)
_cell_length_c 42.2655(5)
_cell_angle_alpha 90
_cell_angle_beta 90
_cell_angle_gamma 90
_cell_formula_units_Z 4
loop_
_atom_type_symbol
_atom_type_radius_bond
C 0.68
H 0.23
N 0.68
O 0.68
loop_
_atom_site_label
_atom_site_type_symbol
_atom_site_fract_x
_atom_site_fract_y
_atom_site_fract_z
O1 O 0.13323(15) 0.50564(14) 1.04897(2)
O2 O 0.35676(16) 0.64116(14) 1.07377(2)
O3 O 1.02378(13) 0.52522(10) 0.949837(19)
O4 O 0.79838(11) 0.35525(9) 0.929439(17)
N1 N 0.30102(16) 0.56470(12) 1.05115(2)
C1 C 0.44431(18) 0.53795(14) 1.02493(3)
C2 C 0.3848(2) 0.44304(16) 1.00020(3)
C3 C 0.5201(2) 0.41671(16) 0.97570(3)
C4 C 0.71029(18) 0.48547(13) 0.97657(2)
C5 C 0.76508(19) 0.58190(13) 1.00182(3)
C6 C 0.63140(19) 0.60902(14) 1.02630(3)
C7 C 0.86314(17) 0.46025(12) 0.95091(2)
C8 C 0.93284(17) 0.32754(13) 0.90264(2)
C9 C 1.11175(18) 0.23806(13) 0.91255(2)
C10 C 1.25413(19) 0.15902(15) 0.91866(3)
C11 C 0.80902(17) 0.23818(13) 0.87826(3)
C12 C 0.63140(17) 0.33160(13) 0.86521(2)
C13 C 0.51029(17) 0.23798(13) 0.84105(3)
C14 C 0.33085(17) 0.32877(13) 0.82773(3)
C15 C 0.20953(17) 0.23688(13) 0.80340(3)
C16 C 0.03079(17) 0.32827(13) 0.78994(2)
C17 C -0.09081(17) 0.23671(13) 0.76551(3)
C18 C -0.26942(17) 0.32811(13) 0.75221(2)
C19 C -0.39124(18) 0.23687(13) 0.72770(2)
C20 C -0.56961(16) 0.32824(13) 0.71432(2)
C21 C -0.68996(17) 0.23742(13) 0.68964(3)
C22 C -0.86863(18) 0.32850(13) 0.67626(3)
C23 C -0.99030(17) 0.23747(14) 0.65175(3)
C24 C -1.17289(18) 0.32717(14) 0.63922(3)
C25 C -1.2975(2) 0.23373(16) 0.61549(3)
H1 H 0.261(3) 0.4042(18) 0.9994(3)
H2 H 0.481(2) 0.3485(19) 0.9588(3)
H3 H 0.895(2) 0.6293(17) 1.0021(3)
H4 H 0.662(2) 0.6725(17) 1.0434(3)
H5 H 0.971(2) 0.4331(15) 0.8951(3)
H6 H 1.366(3) 0.103(2) 0.9228(4)
H7 H 0.760(2) 0.1396(16) 0.8877(3)
H8 H 0.896(2) 0.2069(16) 0.8610(3)
H9 H 0.542(2) 0.3597(15) 0.8826(3)
H10 H 0.684(2) 0.4289(17) 0.8554(3)
H11 H 0.460(2) 0.1404(17) 0.8508(3)
H12 H 0.596(2) 0.2093(16) 0.8233(3)
H13 H 0.243(2) 0.3553(16) 0.8450(3)
H14 H 0.377(2) 0.4263(19) 0.8183(3)
H15 H 0.155(2) 0.1402(17) 0.8134(3)
H16 H 0.299(2) 0.2073(16) 0.7864(4)
H17 H -0.059(2) 0.3549(16) 0.8071(3)
H18 H 0.080(2) 0.4292(18) 0.7802(3)
H19 H -0.144(2) 0.1371(17) 0.7754(3)
H20 H -0.005(2) 0.2098(17) 0.7482(4)
H21 H -0.361(2) 0.3592(15) 0.7697(3)
H22 H -0.219(2) 0.4276(18) 0.7427(3)
H23 H -0.441(2) 0.1385(17) 0.7377(3)
H24 H -0.303(2) 0.2096(16) 0.7101(3)
H25 H -0.662(2) 0.3551(16) 0.7326(3)
H26 H -0.521(2) 0.4308(17) 0.7048(3)
H27 H -0.743(2) 0.1384(18) 0.6996(3)
H28 H -0.601(2) 0.2129(16) 0.6724(3)
H29 H -0.961(2) 0.3582(17) 0.6937(3)
H30 H -0.822(2) 0.4257(17) 0.6664(3)
H31 H -1.032(2) 0.1379(17) 0.6611(3)
H32 H -0.904(2) 0.2138(16) 0.6346(3)
H33 H -1.263(2) 0.3574(17) 0.6573(3)
H34 H -1.130(2) 0.4225(19) 0.6292(3)
H35 H -1.345(2) 0.140(2) 0.6251(4)
H36 H -1.221(3) 0.2023(19) 0.5966(4)
H37 H -1.413(2) 0.2973(18) 0.6075(3)
#END
