
#######################################################################
#
#                 Cambridge Crystallographic Data Centre
#                                CCDC
#
#######################################################################
#
# If this CIF has been generated from an entry in the Cambridge
# Structural Database, then it will include bibliographic, chemical,
# crystal, experimental, refinement or atomic coordinate data resulting
# from the CCDC's data processing and validation procedures.
#
#######################################################################

data_CSD_CIF_YINFIM
_audit_creation_date 2013-11-04
_audit_creation_method CSD-ConQuest-V1
_database_code_CSD YINFIM
_database_code_depnum_ccdc_archive 'CCDC 714913'
_chemical_formula_sum 'C20 H20 N4 O6'
_chemical_formula_moiety
;
C20 H20 N4 O6
;
_journal_coden_Cambridge 24
_journal_volume 54
_journal_year 2013
_journal_page_first 5155
_journal_name_full 'Tetrahedron Lett. '
loop_
_publ_author_name
"N.Kalyanam"
"K.R.Rapole"
"R.Rajendran"
"M.Majeed"
"D.M.Ho"
_chemical_name_systematic
;
Methyl 
2,3-bis(2-nitrophenyl)tetrahydro-1H-pyrrolo[1,2-a]imidazole-7a(5H)-carboxylate

;
_chemical_melting_point 399
_cell_volume   1974.893
_exptl_crystal_colour 'colorless'
_exptl_crystal_density_diffrn 1.387
_exptl_special_details
;
Melting point range 399-401K

;
_exptl_crystal_description 'Prism'
_diffrn_ambient_temperature 200
_refine_special_details
;
C17,C18,C19,C20,C21,C22,N23,O24,O25 and C17*,C18*, 
C19*,C20*,C21*,C22*,N23*,O24*,O25* disordered over two sites with occupancies 
0.56:0.44.
;
#These two values have been output from a single CSD field.
_refine_ls_R_factor_gt 0.0471
_refine_ls_wR_factor_gt 0.0471
_symmetry_cell_setting monoclinic
_symmetry_space_group_name_H-M 'P 21/c'
_symmetry_Int_Tables_number 14
loop_
_symmetry_equiv_pos_site_id
_symmetry_equiv_pos_as_xyz
1 x,y,z
2 -x,1/2+y,1/2-z
3 -x,-y,-z
4 x,-1/2-y,-1/2+z
_cell_length_a 11.6597(4)
_cell_length_b 7.5080(2)
_cell_length_c 22.9561(6)
_cell_angle_alpha 90
_cell_angle_beta 100.664(2)
_cell_angle_gamma 90
_cell_formula_units_Z 4
loop_
_atom_type_symbol
_atom_type_radius_bond
C 0.68
H 0.23
N 0.68
O 0.68
loop_
_atom_site_label
_atom_site_type_symbol
_atom_site_fract_x
_atom_site_fract_y
_atom_site_fract_z
N1 N 0.12741(12) 0.6455(2) 0.27607(6)
H1 H 0.1641(19) 0.5370(29) 0.2837(9)
C1 C 0.15903(13) 0.7644(2) 0.32695(6)
H2 H 0.09937 0.86150 0.32277
C2 C 0.27810(13) 0.8509(2) 0.31838(6)
H3 H 0.28546 0.97330 0.33581
N2 N 0.26434(11) 0.8615(2) 0.25359(5)
C3 C 0.2283(2) 1.0405(2) 0.22998(8)
H4 H 0.29680 1.11130 0.22394
H5 H 0.18690 1.10590 0.25730
C4 C 0.1475(2) 1.0039(2) 0.17120(8)
H6 H 0.09480 1.10600 0.15883
H7 H 0.19210 0.97710 0.13953
C5 C 0.08042(15) 0.8428(2) 0.18583(7)
H8 H 0.04788 0.77520 0.14949
H9 H 0.01575 0.87850 0.20586
C6 C 0.17118(13) 0.7312(2) 0.22737(6)
C7 C 0.15791(13) 0.6719(2) 0.38526(7)
C8 C 0.10888(14) 0.7463(2) 0.43085(7)
C9 C 0.1071(2) 0.6601(3) 0.48432(7)
H10 H 0.07140 0.71490 0.51374
C10 C 0.1573(2) 0.4958(3) 0.49400(8)
H11 H 0.15860 0.43690 0.53074
C11 C 0.2059(2) 0.4159(3) 0.45034(8)
H12 H 0.24000 0.30100 0.45686
C12 C 0.20525(15) 0.5025(2) 0.39681(7)
H13 H 0.23822 0.44420 0.36708
N3 N 0.05460(14) 0.9223(2) 0.42385(7)
O1 O 0.10689(14) 1.0428(2) 0.40429(7)
O2 O -0.04044(13) 0.9409(3) 0.43832(7)
C13 C 0.3838(15) 0.7399(26) 0.3449(4)
C14 C 0.4346(12) 0.7369(16) 0.4052(4)
C15 C 0.5220(11) 0.6190(16) 0.4301(4)
H14 H 0.55120 0.61970 0.47160
C16 C 0.5653(10) 0.5019(15) 0.3938(5)
H15 H 0.62530 0.42070 0.41000
C17 C 0.5214(12) 0.5023(19) 0.3336(4)
H16 H 0.55280 0.42380 0.30810
C18 C 0.4312(9) 0.6178(15) 0.3103(5)
H17 H 0.40050 0.61310 0.26900
N4 N 0.3971(10) 0.8617(13) 0.4472(3)
O3 O 0.383(1) 1.0190(12) 0.4332(4)
O4 O 0.3860(6) 0.8056(15) 0.4958(2)
C19 C 0.21932(14) 0.5844(2) 0.19263(7)
O5 O 0.2058(2) 0.4299(2) 0.20033(6)
O6 O 0.27662(12) 0.6460(2) 0.15255(6)
C20 C 0.3259(2) 0.5123(3) 0.11855(10)
H18 H 0.37450 0.57070 0.09360
H19 H 0.26260 0.44700 0.09340
H20 H 0.37370 0.42920 0.14569
H21? H 0.28199 0.97470 0.33463
C21? C 0.3850(17) 0.7502(34) 0.3487(6)
C22? C 0.4323(16) 0.7815(22) 0.4083(5)
C23? C 0.5188(14) 0.6725(23) 0.4389(6)
H22? H 0.54870 0.69500 0.47960
C24? C 0.5615(14) 0.5331(21) 0.4112(7)
H23? H 0.61830 0.45570 0.43290
C25? C 0.5219(15) 0.5052(23) 0.3516(7)
H24? H 0.55370 0.41180 0.33160
C26? C 0.4353(16) 0.6143(23) 0.3208(7)
H25? H 0.40960 0.59570 0.27950
N5? N 0.3945(12) 0.9332(22) 0.4399(5)
O7? O 0.3903(10) 1.0799(19) 0.4166(7)
O8? O 0.3722(8) 0.9068(32) 0.4891(4)
#END
