
#######################################################################
#
#                 Cambridge Crystallographic Data Centre
#                                CCDC
#
#######################################################################
#
# If this CIF has been generated from an entry in the Cambridge
# Structural Database, then it will include bibliographic, chemical,
# crystal, experimental, refinement or atomic coordinate data resulting
# from the CCDC's data processing and validation procedures.
#
#######################################################################

data_CSD_CIF_YINFAD
_audit_creation_date 2008-02-19
_audit_creation_method CSD-ConQuest-V1
_database_code_CSD YINFAD
_database_code_depnum_ccdc_archive 'CCDC 265461'
_chemical_formula_sum 'C19 H26 N2 O2'
_chemical_formula_moiety
;
C19 H26 N2 O2
;
_journal_coden_Cambridge 471
_journal_volume 23
_journal_year 2007
_journal_page_first x185
_journal_name_full 'Anal.Sci.:X-Ray Struct.Anal.Online '
loop_
_publ_author_name
"O.Celik"
"M.Ulusoy"
"E.Tas"
"S.Ide"
_chemical_name_systematic
;
N-(5-Methylisoxazol-3-yl)-3,5-di-t-butylsalicylaldimine
;
_cell_volume   1784.063
_exptl_crystal_density_diffrn 1.171
_exptl_crystal_description 'prism'
_exptl_crystal_preparation 'ethanol'
_diffrn_ambient_temperature 293
#These two values have been output from a single CSD field.
_refine_ls_R_factor_gt 0.0542
_refine_ls_wR_factor_gt 0.0542
_symmetry_cell_setting monoclinic
_symmetry_space_group_name_H-M 'P 21/n'
_symmetry_Int_Tables_number 14
loop_
_symmetry_equiv_pos_site_id
_symmetry_equiv_pos_as_xyz
1 x,y,z
2 1/2-x,1/2+y,1/2-z
3 -x,-y,-z
4 -1/2+x,-1/2-y,-1/2+z
_cell_length_a 9.0244(15)
_cell_length_b 22.592(10)
_cell_length_c 9.782(3)
_cell_angle_alpha 90
_cell_angle_beta 116.548(18)
_cell_angle_gamma 90
_cell_formula_units_Z 4
loop_
_atom_type_symbol
_atom_type_radius_bond
C 0.68
H 0.23
N 0.68
O 0.68
loop_
_atom_site_label
_atom_site_type_symbol
_atom_site_fract_x
_atom_site_fract_y
_atom_site_fract_z
O1 O 0.3423(2) 0.05516(9) 0.6660(2)
H1 H 0.38550 0.02260 0.67310
C1 C 0.7599(4) -0.22540(14) 0.7986(4)
H2 H 0.86230 -0.20600 0.86280
H3 H 0.77410 -0.24890 0.72360
H4 H 0.72750 -0.25050 0.85980
C2 C -0.1511(5) 0.12275(18) -0.0146(4)
H5 H -0.24020 0.12830 -0.11500
H6 H -0.05570 0.10780 -0.02270
H7 H -0.12420 0.15990 0.03860
H8 H 0.219(3) -0.0708(12) 0.377(3)
H9 H 0.709(4) -0.0936(13) 0.774(3)
C3 C 0.0319(3) 0.01941(12) 0.2778(3)
H10 H 0.00330 -0.01230 0.21000
C4 C 0.2105(3) 0.06035(12) 0.5268(3)
N1 N 0.3877(3) -0.05054(10) 0.5858(3)
C5 C -0.0137(3) 0.11618(12) 0.3433(3)
H11 H -0.07580 0.15090 0.31610
C6 C 0.1180(3) 0.11321(12) 0.4885(3)
C7 C 0.2601(4) -0.04159(13) 0.4584(3)
C8 C -0.0601(3) 0.07026(11) 0.2340(3)
O2 O 0.4790(3) -0.20204(9) 0.6256(3)
C9 C 0.1686(3) 0.01367(12) 0.4225(3)
C10 C 0.1617(3) 0.16500(12) 0.6021(3)
C11 C 0.4586(3) -0.10740(13) 0.6173(3)
N2 N 0.3688(3) -0.15474(11) 0.5601(3)
C12 C -0.2036(3) 0.07856(12) 0.0735(3)
C13 C 0.6301(3) -0.18044(13) 0.7210(3)
C14 C 0.6226(4) -0.12138(13) 0.7194(3)
C15 C 0.0464(4) 0.21788(12) 0.5349(4)
H12 H 0.07850 0.24920 0.60900
H13 H -0.06550 0.20620 0.50820
H14 H 0.05380 0.23150 0.44510
C16 C 0.3393(4) 0.18628(14) 0.6461(4)
H15 H 0.36640 0.21830 0.71790
H16 H 0.34680 0.19960 0.55630
H17 H 0.41530 0.15420 0.69170
C17 C 0.1471(5) 0.14552(15) 0.7463(4)
H18 H 0.17660 0.17790 0.81710
H19 H 0.22050 0.11280 0.79300
H20 H 0.03520 0.13360 0.71880
C18 C -0.3582(4) 0.10136(19) 0.0812(4)
H21 H -0.44530 0.10640 -0.02050
H22 H -0.33440 0.13870 0.13370
H23 H -0.39250 0.07340 0.13530
C19 C -0.2501(4) 0.02042(15) -0.0161(4)
H24 H -0.33950 0.02730 -0.11570
H25 H -0.28410 -0.00790 0.03740
H26 H -0.15600 0.00540 -0.02620
#END
