
#######################################################################
#
#                 Cambridge Crystallographic Data Centre
#                                CCDC
#
#######################################################################
#
# If this CIF has been generated from an entry in the Cambridge
# Structural Database, then it will include bibliographic, chemical,
# crystal, experimental, refinement or atomic coordinate data resulting
# from the CCDC's data processing and validation procedures.
#
#######################################################################

data_CSD_CIF_YIPMAM
_audit_creation_date 2008-02-19
_audit_creation_method CSD-ConQuest-V1
_database_code_CSD YIPMAM
_database_code_depnum_ccdc_archive 'CCDC 659166'
_chemical_formula_sum 'C28 H28 N2 O7'
_chemical_formula_moiety
;
C28 H28 N2 O7
;
_journal_coden_Cambridge 1090
_journal_volume 18
_journal_year 2007
_journal_page_first 2491
_journal_name_full 'Tetrahedron:Asymm. '
loop_
_publ_author_name
"M.Calmes"
"F.Escale"
"C.Didierjean"
"G.Cazals"
"J.Martinez"
_chemical_name_systematic
;
(1R,2R,3R,4S,3'S)-(N-(4-Benzyloxycarbonylphenyl)-4,4-dimethyl-2-oxopyrrolidin-
3-yl) 3-nitrobicyclo[2.2.1]hept-5-ene-2-carboxylate
;
_chemical_melting_point 392.15
_cell_volume   2472.999
_exptl_crystal_colour 'colorless'
_exptl_crystal_density_diffrn 1.355
_exptl_crystal_description 'prism'
_exptl_crystal_preparation 'acetonitrile'
_diffrn_ambient_temperature 100
#These two values have been output from a single CSD field.
_refine_ls_R_factor_gt 0.0593
_refine_ls_wR_factor_gt 0.0593
_symmetry_cell_setting orthorhombic
_symmetry_space_group_name_H-M 'P 21 21 21'
_symmetry_Int_Tables_number 19
loop_
_symmetry_equiv_pos_site_id
_symmetry_equiv_pos_as_xyz
1 x,y,z
2 1/2-x,-y,1/2+z
3 1/2+x,1/2-y,-z
4 -x,1/2+y,1/2-z
_cell_length_a 6.1315(5)
_cell_length_b 9.3117(7)
_cell_length_c 43.314(3)
_cell_angle_alpha 90
_cell_angle_beta 90
_cell_angle_gamma 90
_cell_formula_units_Z 4
loop_
_atom_type_symbol
_atom_type_radius_bond
C 0.68
H 0.23
N 0.68
O 0.68
loop_
_atom_site_label
_atom_site_type_symbol
_atom_site_fract_x
_atom_site_fract_y
_atom_site_fract_z
O1 O 0.4984(6) 0.2869(3) 0.22215(7)
O2 O 0.5271(7) 0.1465(4) 0.26139(7)
O3 O 0.4305(5) -0.0675(3) 0.15571(6)
O4 O 0.5302(5) 0.1397(3) 0.13226(6)
O5 O 0.7304(5) -0.0225(3) 0.08490(6)
O6 O 0.7617(6) -0.3089(4) -0.06136(7)
O7 O 0.5373(5) -0.1544(3) -0.08516(6)
N1 N 0.5440(6) 0.1711(4) 0.23383(8)
N2 N 0.4779(6) 0.0865(4) 0.05215(7)
C1 C 0.6163(7) 0.0484(4) 0.21359(9)
H1 H 0.49580 -0.02360 0.21210
C2 C 0.8228(7) -0.0257(4) 0.22670(9)
H2 H 0.80200 -0.08410 0.24580
C3 C 0.8905(7) -0.1091(4) 0.19743(9)
H3 H 1.02860 -0.16280 0.20000
H4 H 0.77440 -0.17360 0.18970
C4 C 0.9171(7) 0.0274(5) 0.17785(9)
H5 H 0.97370 0.01340 0.15640
C5 C 1.0001(7) 0.0870(4) 0.22786(9)
H6 H 1.06040 0.12840 0.24600
C6 C 1.0566(7) 0.1179(4) 0.19907(9)
H7 H 1.16520 0.18480 0.19290
C7 C 0.6833(6) 0.0969(4) 0.18067(9)
H8 H 0.69440 0.20400 0.17980
C8 C 0.5323(7) 0.0433(4) 0.15575(9)
C9 C 0.4114(7) 0.1040(4) 0.10491(8)
H9 H 0.29810 0.03040 0.10990
C10 C 0.3041(7) 0.2330(4) 0.08983(9)
C11 C 0.4554(7) 0.3632(4) 0.08996(9)
H10 H 0.38160 0.44480 0.08020
H11 H 0.58870 0.34050 0.07850
H12 H 0.49310 0.38800 0.11130
C12 C 0.0833(7) 0.2707(5) 0.10421(10)
H13 H 0.02130 0.35420 0.09360
H14 H 0.10310 0.29320 0.12610
H15 H -0.01600 0.18880 0.10210
C13 C 0.2789(7) 0.1736(4) 0.05657(9)
H16 H 0.14610 0.11370 0.05470
H17 H 0.27150 0.25260 0.04130
C14 C 0.5643(7) 0.0457(4) 0.08020(9)
C15 C 0.5302(7) 0.0235(4) 0.02340(8)
C16 C 0.3844(7) 0.0391(5) -0.00117(9)
H18 H 0.25820 0.09720 0.00110
C17 C 0.4242(7) -0.0304(5) -0.02895(9)
H19 H 0.32560 -0.01850 -0.04570
C18 C 0.7184(7) -0.0564(5) 0.01944(9)
H20 H 0.82230 -0.06240 0.03570
C19 C 0.7554(7) -0.1278(5) -0.00820(9)
H21 H 0.88300 -0.18460 -0.01060
C20 C 0.6063(7) -0.1168(4) -0.03252(9)
C21 C 0.6458(7) -0.2041(5) -0.06058(9)
C22 C 0.5660(8) -0.2390(4) -0.11336(9)
H22 H 0.47040 -0.32460 -0.11290
H23 H 0.71920 -0.27150 -0.11520
C23 C 0.5072(7) -0.1446(4) -0.14016(8)
C24 C 0.2956(7) -0.0939(4) -0.14413(9)
H24 H 0.18610 -0.11660 -0.12940
C25 C 0.2442(7) -0.0098(5) -0.16965(9)
H25 H 0.09970 0.02490 -0.17230
C26 C 0.4033(7) 0.0235(5) -0.19128(9)
H26 H 0.36710 0.07980 -0.20880
C27 C 0.6146(7) -0.0253(5) -0.18729(9)
H27 H 0.72360 -0.00160 -0.20200
C28 C 0.6679(7) -0.1088(4) -0.16175(9)
H28 H 0.81330 -0.14140 -0.15900
#END
