
#######################################################################
#
#                 Cambridge Crystallographic Data Centre
#                                CCDC
#
#######################################################################
#
# If this CIF has been generated from an entry in the Cambridge
# Structural Database, then it will include bibliographic, chemical,
# crystal, experimental, refinement or atomic coordinate data resulting
# from the CCDC's data processing and validation procedures.
#
#######################################################################

data_CSD_CIF_YIPQUL
_audit_creation_date 2013-11-04
_audit_creation_method CSD-ConQuest-V1
_database_code_CSD YIPQUL
_database_code_depnum_ccdc_archive 'CCDC 930107'
_chemical_formula_sum 'C21 H19 N1 O5'
_chemical_formula_moiety
;
C21 H19 N1 O5
;
_journal_coden_Cambridge 16
_journal_volume 69
_journal_year 2013
_journal_page_first 8751
_journal_name_full 'Tetrahedron '
loop_
_publ_author_name
"S.Roy"
"M.Amireddy"
"Kwunmin Chen"
_chemical_name_systematic
;
2-Hydroxy-2-methyl-5-nitro-6-phenylspiro[cyclohexane-1,2'-indene]-1',3'-dione
;
_cell_volume   1853.555
_exptl_crystal_colour 'colorless'
_exptl_crystal_density_diffrn 1.309
_exptl_crystal_description 'prism'
_diffrn_ambient_temperature 296
#These two values have been output from a single CSD field.
_refine_ls_R_factor_gt 0.0441
_refine_ls_wR_factor_gt 0.0441
_symmetry_cell_setting monoclinic
_symmetry_space_group_name_H-M 'P 21/n'
_symmetry_Int_Tables_number 14
loop_
_symmetry_equiv_pos_site_id
_symmetry_equiv_pos_as_xyz
1 x,y,z
2 1/2-x,1/2+y,1/2-z
3 -x,-y,-z
4 -1/2+x,-1/2-y,-1/2+z
_cell_length_a 8.966(3)
_cell_length_b 11.088(3)
_cell_length_c 19.147(6)
_cell_angle_alpha 90
_cell_angle_beta 103.154(5)
_cell_angle_gamma 90
_cell_formula_units_Z 4
loop_
_atom_type_symbol
_atom_type_radius_bond
C 0.68
H 0.23
N 0.68
O 0.68
loop_
_atom_site_label
_atom_site_type_symbol
_atom_site_fract_x
_atom_site_fract_y
_atom_site_fract_z
C1 C 0.5946(2) 0.94932(19) 0.84179(11)
C2 C 0.5982(2) 0.9164(2) 0.76790(11)
C3 C 0.5831(3) 0.9893(3) 0.70827(13)
H1 H 0.56620 1.07180 0.71070
C4 C 0.5940(3) 0.9345(4) 0.64466(14)
H2 H 0.58270 0.98080 0.60330
C5 C 0.6212(3) 0.8126(4) 0.64154(15)
H3 H 0.62960 0.77870 0.59820
C6 C 0.6363(3) 0.7401(3) 0.70069(14)
H4 H 0.65480 0.65790 0.69820
C7 C 0.6230(2) 0.7938(2) 0.76445(11)
C8 C 0.6273(2) 0.7371(2) 0.83373(12)
C9 C 0.6035(2) 0.83479(16) 0.88684(10)
C10 C 0.7396(2) 0.84222(19) 0.95426(12)
C11 C 0.8909(3) 0.8571(3) 0.93184(15)
H5 H 0.88850 0.93000 0.90450
H6 H 0.90660 0.78940 0.90300
H7 H 0.97320 0.86120 0.97380
C12 C 0.7403(3) 0.7317(2) 1.00131(13)
H8 H 0.76290 0.66100 0.97570
H9 H 0.82120 0.74030 1.04430
C13 C 0.5894(3) 0.7124(2) 1.02277(12)
H10 H 0.57070 0.77880 1.05260
H11 H 0.59400 0.63860 1.05030
C14 C 0.4599(2) 0.70444(18) 0.95626(11)
H12 H 0.47550 0.63410 0.92780
C15 C 0.4496(2) 0.81774(16) 0.91041(10)
H13 H 0.43990 0.88610 0.94150
C16 C 0.3120(2) 0.82213(16) 0.84749(10)
C17 C 0.2241(2) 0.92503(19) 0.83583(11)
H14 H 0.24700 0.98920 0.86770
C18 C 0.1015(3) 0.9340(3) 0.77688(14)
H15 H 0.04280 1.00390 0.76960
C19 C 0.0669(3) 0.8410(3) 0.72966(15)
H16 H -0.01470 0.84750 0.69000
C20 C 0.1518(3) 0.7387(3) 0.74075(15)
H17 H 0.12840 0.67520 0.70840
C21 C 0.2728(3) 0.7282(2) 0.79972(13)
H18 H 0.32860 0.65680 0.80730
N1 N 0.3130(2) 0.6898(2) 0.98070(11)
O1 O 0.58911(17) 1.05104(13) 0.86465(8)
O2 O 0.64196(19) 0.62971(14) 0.84630(9)
O3 O 0.71549(17) 0.94240(14) 0.99766(7)
H19 H 0.70100 1.02230 0.96710
O4 O 0.2575(2) 0.77689(17) 1.00291(9)
O5 O 0.2569(3) 0.5906(2) 0.97755(15)
#END
