
#######################################################################
#
#                 Cambridge Crystallographic Data Centre
#                                CCDC
#
#######################################################################
#
# If this CIF has been generated from an entry in the Cambridge
# Structural Database, then it will include bibliographic, chemical,
# crystal, experimental, refinement or atomic coordinate data resulting
# from the CCDC's data processing and validation procedures.
#
#######################################################################

data_CSD_CIF_YIPXAY
_audit_creation_date 2013-11-04
_audit_creation_method CSD-ConQuest-V1
_database_code_CSD YIPXAY
_database_code_depnum_ccdc_archive 'CCDC 928935'
_chemical_formula_sum 'C22 H22 N4 O3'
_chemical_formula_moiety
;
C22 H22 N4 O3
;
_journal_coden_Cambridge 1500
_journal_volume 3
_journal_year 2013
_journal_page_first 25410
_journal_name_full 'RSC Advances '
loop_
_publ_author_name
"L.Antonov"
"V.Deneva"
"V.Kurteva"
"D.Nedeltcheva"
"A.Crochet"
"K.M.Fromm"
_chemical_name_systematic
;
4-((4-Nitrophenyl)diazenyl)-2-(piperidin-1-ylmethyl)naphthalen-1-ol
;
_cell_volume    948.157
_exptl_crystal_colour 'red'
_exptl_crystal_density_diffrn 1.368
_exptl_crystal_description 'needle'
_diffrn_ambient_temperature 200
#These two values have been output from a single CSD field.
_refine_ls_R_factor_gt 0.0605
_refine_ls_wR_factor_gt 0.0605
_symmetry_cell_setting triclinic
_symmetry_space_group_name_H-M 'P -1'
_symmetry_Int_Tables_number 2
loop_
_symmetry_equiv_pos_site_id
_symmetry_equiv_pos_as_xyz
1 x,y,z
2 -x,-y,-z
_cell_length_a 5.2175(7)
_cell_length_b 10.7215(16)
_cell_length_c 17.295(3)
_cell_angle_alpha 82.197(12)
_cell_angle_beta 81.572(12)
_cell_angle_gamma 89.056(12)
_cell_formula_units_Z 2
loop_
_atom_type_symbol
_atom_type_radius_bond
C 0.68
H 0.23
N 0.68
O 0.68
loop_
_atom_site_label
_atom_site_type_symbol
_atom_site_fract_x
_atom_site_fract_y
_atom_site_fract_z
C1 C 1.7527(7) 0.6878(4) 0.0332(2)
C2 C 1.8738(8) 0.7952(4) 0.0439(2)
H1 H 1.80910 0.83890 0.08550
C3 C 2.0932(8) 0.8389(4) -0.0074(2)
H2 H 2.18210 0.90950 0.00040
C4 C 2.1752(7) 0.7751(4) -0.0698(2)
C5 C 2.0552(8) 0.6684(4) -0.0827(2)
H3 H 2.11740 0.62690 -0.12550
C6 C 1.8383(8) 0.6241(4) -0.0302(2)
H4 H 1.75160 0.55250 -0.03750
C7 C 1.2291(7) 0.6498(4) 0.1913(2)
C8 C 1.0573(7) 0.7367(4) 0.2264(2)
C9 C 1.0856(8) 0.8687(4) 0.2087(2)
H5 H 1.22930 0.90210 0.17420
C10 C 0.9069(9) 0.9485(4) 0.2410(2)
H6 H 0.93130 1.03520 0.22960
C11 C 0.6845(8) 0.8988(4) 0.2919(3)
H7 H 0.55800 0.95300 0.31160
C12 C 0.6545(8) 0.7730(4) 0.3122(2)
H8 H 0.51030 0.74180 0.34720
C13 C 0.8392(7) 0.6881(4) 0.2808(2)
C14 C 0.8157(7) 0.5575(4) 0.3040(2)
C15 C 0.9939(7) 0.4738(4) 0.2720(2)
C16 C 1.1987(8) 0.5232(4) 0.2145(2)
H9 H 1.31680 0.46820 0.19150
C17 C 0.9650(9) 0.3343(4) 0.2982(2)
H10 H 0.83490 0.30100 0.27170
H11 H 1.12790 0.29310 0.28310
C18 C 0.8191(8) 0.1739(4) 0.4081(2)
H12 H 0.96670 0.12170 0.39290
H13 H 0.67900 0.15280 0.38090
C19 C 0.7357(8) 0.1463(4) 0.4960(2)
H14 H 0.69990 0.05700 0.51020
H15 H 0.57670 0.19140 0.51010
C20 C 0.9410(8) 0.1843(4) 0.5425(2)
H16 H 0.87350 0.17410 0.59830
H17 H 1.09210 0.13090 0.53490
C21 C 1.0161(8) 0.3206(4) 0.5141(2)
H18 H 0.86970 0.37440 0.52780
H19 H 1.15720 0.34350 0.54030
C22 C 1.0982(7) 0.3412(4) 0.4263(2)
H20 H 1.14360 0.42900 0.40950
H21 H 1.25070 0.29100 0.41300
N1 N 1.5360(6) 0.6300(3) 0.08699(19)
N2 N 1.4343(6) 0.7039(3) 0.13416(19)
N3 N 2.4130(7) 0.8208(4) -0.1237(2)
N4 N 0.8890(6) 0.3061(3) 0.38409(18)
O1 O 0.6186(5) 0.5146(3) 0.36107(17)
O2 O 2.4731(6) 0.7695(3) -0.18328(19)
O3 O 2.5323(6) 0.9081(3) -0.1071(2)
H22 H 0.671(12) 0.419(6) 0.384(3)
#END
