
#######################################################################
#
#                 Cambridge Crystallographic Data Centre
#                                CCDC
#
#######################################################################
#
# If this CIF has been generated from an entry in the Cambridge
# Structural Database, then it will include bibliographic, chemical,
# crystal, experimental, refinement or atomic coordinate data resulting
# from the CCDC's data processing and validation procedures.
#
#######################################################################

data_CSD_CIF_YIQRUL
_audit_creation_date 2002-03-22
_audit_creation_method CSD-ConQuest-V1
_database_code_CSD YIQRUL
_database_code_depnum_ccdc_archive 'CCDC 168096'
_chemical_formula_sum 'C25 H17 N1 O3'
_chemical_formula_moiety
;
C25 H17 N1 O3
;
_journal_coden_Cambridge 36
_journal_volume 633
_journal_year 2001
_journal_page_first 162
_journal_name_full 'J.Organomet.Chem. '
loop_
_publ_author_name
"W.Tully"
"L.Main"
"B.K.Nicholson"
_chemical_name_systematic
;
2-Nitro-3,5,7-triphenylcyclohepta-2,4,6-trien-1-one
;
_chemical_name_common
;
2-Nitro-3,5,7-triphenyltropone
;
_chemical_melting_point 473.15
_cell_volume   1904.084
_exptl_crystal_colour 'yellow'
_exptl_crystal_density_diffrn 1.324
_exptl_crystal_description 'needle'
_exptl_crystal_preparation 'ethyl acetate/pentane'
_diffrn_ambient_temperature 130
#These two values have been output from a single CSD field.
_refine_ls_R_factor_gt 0.0774
_refine_ls_wR_factor_gt 0.0774
_symmetry_cell_setting monoclinic
_symmetry_space_group_name_H-M 'P 21/n'
_symmetry_Int_Tables_number 14
loop_
_symmetry_equiv_pos_site_id
_symmetry_equiv_pos_as_xyz
1 x,y,z
2 1/2-x,1/2+y,1/2-z
3 -x,-y,-z
4 -1/2+x,-1/2-y,-1/2+z
_cell_length_a 9.483(7)
_cell_length_b 10.393(7)
_cell_length_c 19.320(12)
_cell_angle_alpha 90
_cell_angle_beta 90.34(4)
_cell_angle_gamma 90
_cell_formula_units_Z 4
loop_
_atom_type_symbol
_atom_type_radius_bond
C 0.68
H 0.23
N 0.68
O 0.68
loop_
_atom_site_label
_atom_site_type_symbol
_atom_site_fract_x
_atom_site_fract_y
_atom_site_fract_z
O1 O 0.3920(6) 0.5246(5) 0.3752(3)
O2 O 0.5297(6) 0.3014(5) 0.4269(3)
O3 O 0.3315(6) 0.2182(5) 0.3932(3)
N1 N 0.4014(8) 0.2976(6) 0.4262(3)
C1 C 0.3173(8) 0.5128(6) 0.4286(3)
C2 C 0.3276(8) 0.3940(6) 0.4680(3)
C3 C 0.2783(7) 0.3543(6) 0.5308(3)
C4 C 0.2181(7) 0.4383(7) 0.5804(3)
C5 C 0.1744(7) 0.5614(7) 0.5745(3)
C6 C 0.1642(7) 0.6329(7) 0.5112(3)
C7 C 0.2196(7) 0.6132(6) 0.4469(3)
C8 C 0.2919(7) 0.2166(7) 0.5521(3)
C9 C 0.4197(8) 0.1587(7) 0.5632(3)
C10 C 0.4243(9) 0.0317(7) 0.5849(3)
C11 C 0.3032(9) -0.0364(7) 0.5954(3)
C12 C 0.1758(9) 0.0225(7) 0.5849(3)
C13 C 0.1697(8) 0.1486(7) 0.5637(3)
C14 C 0.12843(7) 0.6287(7) 0.6383(3)
C15 C 0.2143(8) 0.6253(7) 0.6959(3)
C16 C 0.1744(9) 0.6870(8) 0.7562(3)
C17 C 0.0473(9) 0.7506(7) 0.7594(3)
C18 C -0.0383(9) 0.7527(7) 0.7021(3)
C19 C 0.0014(8) 0.6927(7) 0.6415(3)
C20 C 0.1855(7) 0.7070(7) 0.3914(3)
C21 C 0.2057(8) 0.8365(7) 0.4022(3)
C22 C 0.1728(8) 0.9219(8) 0.3501(3)
C23 C 0.1146(9) 0.8808(9) 0.2885(3)
C24 C 0.0944(8) 0.7527(9) 0.2787(3)
C25 C 0.1299(8) 0.6640(9) 0.3291(3)
H1 H 0.20705 0.40274 0.62421
H2 H 0.10927 0.70672 0.51454
H3 H 0.50281 0.20434 0.55626
H4 H 0.51107 -0.00775 0.59230
H5 H 0.30727 -0.12179 0.60957
H6 H 0.09279 -0.02311 0.59223
H7 H 0.08265 0.18812 0.55709
H8 H 0.29964 0.58130 0.69430
H9 H 0.23379 0.68549 0.79466
H10 H 0.01999 0.79157 0.80000
H11 H -0.12456 0.79518 0.70406
H12 H -0.05751 0.69548 0.60290
H13 H 0.24125 0.86613 0.44425
H14 H 0.19032 1.00918 0.35655
H15 H 0.08945 0.93954 0.25433
H16 H 0.05590 0.72407 0.23710
H17 H 0.11663 0.57651 0.32132
#END
