
#######################################################################
#
#                 Cambridge Crystallographic Data Centre
#                                CCDC
#
#######################################################################
#
# If this CIF has been generated from an entry in the Cambridge
# Structural Database, then it will include bibliographic, chemical,
# crystal, experimental, refinement or atomic coordinate data resulting
# from the CCDC's data processing and validation procedures.
#
#######################################################################

data_CSD_CIF_YISCOS
_audit_creation_date 1995-07-20
_audit_creation_method CSD-ConQuest-V1
_database_code_CSD YISCOS
_database_code_depnum_ccdc_archive 'CCDC 1303595'
_chemical_formula_sum 'C14 H19 N2 O3'
_chemical_formula_moiety
;
C14 H19 N2 O3
;
_journal_coden_Cambridge 1145
_journal_volume 4
_journal_year 1994
_journal_page_first 1047
_journal_name_full 'J.Mater.Chem. '
loop_
_publ_author_name
"L.Angeloni"
"A.Caneschi"
"L.David"
"A.Fabretti"
"F.Ferraro"
"D.Gatteschi"
"A.le Lirzin"
"R.Sessoli"
_chemical_name_systematic
;
2-(o-Methoxyphenyl)-4,4,5,5-tetramethylimidazoline-1-oxyl-3-oxide
;
_cell_volume   2806.465
_exptl_crystal_density_diffrn 1.25
_diffrn_ambient_temperature ?
_diffrn_special_details
;
The study was carried out at room temperature,in the range 283-303K

;
#These two values have been output from a single CSD field.
_refine_ls_R_factor_gt 0.075
_refine_ls_wR_factor_gt 0.075
_symmetry_cell_setting orthorhombic
_symmetry_space_group_name_H-M 'P b c a'
_symmetry_Int_Tables_number 61
loop_
_symmetry_equiv_pos_site_id
_symmetry_equiv_pos_as_xyz
1 x,y,z
2 1/2-x,-y,1/2+z
3 1/2+x,1/2-y,-z
4 -x,1/2+y,1/2-z
5 -x,-y,-z
6 -1/2+x,y,-1/2-z
7 -1/2-x,-1/2+y,z
8 x,-1/2-y,-1/2+z
_cell_length_a 12.203(6)
_cell_length_b 15.677(6)
_cell_length_c 14.670(3)
_cell_angle_alpha 90
_cell_angle_beta 90
_cell_angle_gamma 90
_cell_formula_units_Z 8
loop_
_atom_type_symbol
_atom_type_radius_bond
C 0.68
H 0.23
N 0.68
O 0.68
loop_
_atom_site_label
_atom_site_type_symbol
_atom_site_fract_x
_atom_site_fract_y
_atom_site_fract_z
O1 O 0.3476(6) -0.0602(3) 0.1785(4)
O2 O 0.2352(5) 0.1514(3) 0.3762(3)
O3 O 0.1338(4) 0.1618(3) 0.1785(4)
N1 N 0.3064(6) -0.0219(4) 0.2488(5)
N2 N 0.2543(6) 0.0785(4) 0.3439(4)
C1 C 0.2915(6) 0.0622(5) 0.2584(6)
C2 C 0.3196(5) 0.1265(3) 0.1905(3)
C3 C 0.2394(5) 0.1784(3) 0.1518(3)
C4 C 0.2684(5) 0.2397(3) 0.0872(3)
C5 C 0.3777(5) 0.2489(3) 0.0612(3)
C6 C 0.4580(5) 0.1969(3) 0.0999(3)
C7 C 0.4290(5) 0.1357(3) 0.1645(3)
C8 C 0.2602(9) -0.0732(5) 0.3280(5)
C9 C 0.2480(9) -0.0023(5) 0.4012(5)
C10 C 0.3449(9) 0.0054(6) 0.4652(7)
C11 C 0.3350(9) -0.1473(6) 0.3499(6)
C12 C 0.1415(8) -0.0049(6) 0.4537(6)
C13 C 0.1529(9) -0.1108(6) 0.2937(7)
C14 C 0.0502(7) 0.2160(6) 0.1373(5)
H1 H 0.2062(5) 0.2799(3) 0.0572(3)
H2 H 0.4002(5) 0.2963(3) 0.0111(3)
H3 H 0.5427(5) 0.2041(3) 0.0798(3)
H4 H 0.4911(5) 0.0955(3) 0.1945(3)
H5 H 0.3445(9) -0.0511(6) 0.5073(7)
H6 H 0.3311(9) 0.0609(6) 0.5072(7)
H7 H 0.4233(9) 0.0110(6) 0.415(7)
H8 H 0.4081(9) -0.1123(6) 0.3676(6)
H9 H 0.3514(9) -0.1875(6) 0.2917(6)
H10 H 0.3104(9) -0.1865(6) 0.4070(6)
H11 H 0.0762(8) -0.0148(6) 0.4051(6)
H12 H 0.1242(8) 0.0512(6) 0.4939(6)
H13 H 0.1475(8) -0.0597(6) 0.4981(6)
H14 H 0.0950(9) -0.0606(6) 0.2787(7)
H15 H 0.1161(9) -0.1558(6) 0.3403(7)
H16 H 0.1751(9) -0.1431(6) 0.2313(7)
H17 H -0.0291(7) 0.2039(6) 0.1673(5)
H18 H 0.0472(7) 0.2020(6) 0.0653(5)
H19 H 0.0718(7) 0.2822(6) 0.1471(5)
#END
