
#######################################################################
#
#                 Cambridge Crystallographic Data Centre
#                                CCDC
#
#######################################################################
#
# If this CIF has been generated from an entry in the Cambridge
# Structural Database, then it will include bibliographic, chemical,
# crystal, experimental, refinement or atomic coordinate data resulting
# from the CCDC's data processing and validation procedures.
#
#######################################################################

data_CSD_CIF_YISFUB
_audit_creation_date 1995-07-19
_audit_creation_method CSD-ConQuest-V1
_database_code_CSD YISFUB
_database_code_depnum_ccdc_fiz 'CSD 57243'
_chemical_formula_sum 'C23 H25 N3 O4'
_chemical_formula_moiety
;
C23 H25 N3 O4
;
_journal_coden_Cambridge 16
_journal_volume 50
_journal_year 1994
_journal_page_first 11865
_journal_name_full 'Tetrahedron '
loop_
_publ_author_name
"H.Waldmann"
"G.Schmidt"
"M.Jansen"
"J.Geb"
_chemical_name_systematic
;
2-((S)-1-Methoxycarbonyl-2-methylpropyl)-1-(R)-p-nitrophenyl-1,2,3,4-tetrahydr
o-9H-pyrido(3,4-b)indole
;
_chemical_melting_point 481.15
_cell_volume   2162.482
_exptl_crystal_colour 'yellow'
_exptl_special_details
;
z(C4) is 0.7200, not 0.7110

;
_diffrn_ambient_temperature ?
_diffrn_special_details
;
The study was carried out at room temperature,in the range 283-303K

;
#These two values have been output from a single CSD field.
_refine_ls_R_factor_gt 0.0425
_refine_ls_wR_factor_gt 0.0425
_symmetry_cell_setting orthorhombic
_symmetry_space_group_name_H-M 'P 21 21 21'
_symmetry_Int_Tables_number 19
loop_
_symmetry_equiv_pos_site_id
_symmetry_equiv_pos_as_xyz
1 x,y,z
2 1/2+x,1/2-y,-z
3 -x,1/2+y,1/2-z
4 1/2-x,-y,1/2+z
_cell_length_a 10.204(5)
_cell_length_b 11.4678(6)
_cell_length_c 18.48(1)
_cell_angle_alpha 90
_cell_angle_beta 90
_cell_angle_gamma 90
_cell_formula_units_Z 4
loop_
_atom_type_symbol
_atom_type_radius_bond
C 0.68
H 0.23
N 0.68
O 0.68
loop_
_atom_site_label
_atom_site_type_symbol
_atom_site_fract_x
_atom_site_fract_y
_atom_site_fract_z
C1 C -0.1510(3) 0.1976(3) 0.6949(1)
H1 H -0.1469(3) 0.2869(3) 0.6765(1)
C2 C -0.2294(3) 0.1354(3) 0.7403(2)
H2 H -0.3140(3) 0.1569(3) 0.7727(2)
C3 C -0.2075(3) 0.0166(3) 0.7532(2)
H3 H -0.2827(3) -0.0067(3) 0.7917(2)
C4 C -0.1098(3) -0.0432(3) 0.7200(1)
H4 H -0.0752(3) -0.1322(3) 0.7206(1)
C5 C -0.0263(3) 0.0178(2) 0.6719(1)
C6 C -0.0476(2) 0.1378(2) 0.6612(1)
N1 N 0.0507(2) 0.1785(2) 0.6155(1)
H5 H 0.0492(2) 0.2701(2) 0.6021(1)
C7 C 0.1299(2) 0.0854(2) 0.5979(1)
C8 C 0.1543(3) -0.1272(2) 0.6196(1)
H6 H 0.2089(3) -0.1498(2) 0.6677(2)
H7 H 0.0824(3) -0.1941(2) 0.6087(2)
C9 C 0.0871(2) -0.0131(2) 0.6306(1)
C10 C 0.2481(3) -0.1168(2) 0.5553(1)
H8 H 0.1922(3) -0.1107(2) 0.5058(1)
H9 H 0.3105(3) -0.1928(2) 0.5532(1)
N2 N 0.3289(2) -0.0121(2) 0.5637(1)
C11 C 0.2530(2) 0.0967(2) 0.5534(1)
H10 H 0.2292(2) 0.1098(2) 0.4970(1)
C12 C 0.4551(2) -0.0125(2) 0.5261(1)
H11 H 0.5014(2) 0.0681(2) 0.5422(1)
C13 C 0.4432(3) -0.0078(2) 0.4447(1)
O1 O 0.4682(3) 0.0747(2) 0.4087(1)
O2 O 0.4002(2) -0.1068(1) 0.4162(1)
C14 C 0.3855(3) -0.1135(3) 0.3383(1)
H12 H 0.3498(3) -0.1989(3) 0.3235(1)
H13 H 0.4792(3) -0.0984(3) 0.3128(1)
H14 H 0.3164(3) -0.0481(3) 0.3204(1)
C15 C 0.5463(3) -0.1126(2) 0.5507(1)
H15 H 0.5088(3) -0.1939(2) 0.5298(1)
C16 C 0.5489(3) -0.1221(3) 0.6337(1)
H16 H 0.4506(3) -0.1360(3) 0.6536(1)
H17 H 0.5877(3) -0.0424(3) 0.6564(1)
H18 H 0.6103(3) -0.1945(3) 0.6494(1)
C17 C 0.3328(2) 0.2010(2) 0.5779(1)
C18 C 0.3856(3) 0.2038(1) 0.6481(1)
H19 H 0.3573(3) 0.1207(2) 0.6717(1)
C19 C 0.3516(2) 0.2961(2) 0.5329(1)
H20 H 0.3021(2) 0.2734(2) 0.4832(1)
C20 C 0.4216(2) 0.3912(2) 0.5562(2)
H21 H 0.4500(2) 0.4737(2) 0.5328(1)
C21 C 0.4555(3) 0.2965(2) 0.6721(1)
H22 H 0.5053(3) 0.3189(2) 0.7217(1)
C22 C 0.4718(3) 0.3903(2) 0.6253(2)
N3 N 0.5440(3) 0.4930(3) 0.6516(2)
O3 O 0.5962(3) 0.4871(3) 0.7106(2)
C23 C 0.6830(3) -0.0930(3) 0.5210(2)
H23 H 0.7464(3) -0.1631(3) 0.5384(2)
H24 H 0.7207(3) -0.0110(2) 0.5409(2)
H25 H 0.6793(3) -0.0910(3) 0.4626(2)
O4 O 0.5461(4) 0.5796(3) 0.6139(2)
#END
