
#######################################################################
#
#                 Cambridge Crystallographic Data Centre
#                                CCDC
#
#######################################################################
#
# If this CIF has been generated from an entry in the Cambridge
# Structural Database, then it will include bibliographic, chemical,
# crystal, experimental, refinement or atomic coordinate data resulting
# from the CCDC's data processing and validation procedures.
#
#######################################################################

data_CSD_CIF_YISGOW
_audit_creation_date 1995-07-06
_audit_creation_method CSD-ConQuest-V1
_database_code_CSD YISGOW
_chemical_formula_sum 'C19 H15 N1 O8'
_chemical_formula_moiety
;
C19 H15 N1 O8
;
_journal_coden_Cambridge 1090
_journal_volume 5
_journal_year 1994
_journal_page_first 2535
_journal_name_full 'Tetrahedron:Asymm. '
loop_
_publ_author_name
"So-Yeop Han"
"M.M.Joullie"
"V.V.Fokin"
"N.A.Petasis"
_chemical_name_systematic
;
3,5-O-(S)-Benzylidene-2-O-(p-nitro)benzoyl-D-xylono-1,4-lactone
;
_chemical_melting_point 464.15
_cell_volume   1731.678
_exptl_crystal_colour 'white'
_exptl_crystal_density_diffrn 1.478
_exptl_special_details
;
Melting point range 464.15-465.15K

;
_diffrn_ambient_temperature ?
_diffrn_special_details
;
The study was carried out at room temperature,in the range 283-303K

;
#These two values have been output from a single CSD field.
_refine_ls_R_factor_gt 0.038
_refine_ls_wR_factor_gt 0.038
_symmetry_cell_setting orthorhombic
_symmetry_space_group_name_H-M 'P 21 21 21'
_symmetry_Int_Tables_number 19
loop_
_symmetry_equiv_pos_site_id
_symmetry_equiv_pos_as_xyz
1 x,y,z
2 1/2+x,1/2-y,-z
3 -x,1/2+y,1/2-z
4 1/2-x,-y,1/2+z
_cell_length_a 7.052(1)
_cell_length_b 12.482(2)
_cell_length_c 19.673(2)
_cell_angle_alpha 90
_cell_angle_beta 90
_cell_angle_gamma 90
_cell_formula_units_Z 4
loop_
_atom_type_symbol
_atom_type_radius_bond
C 0.68
H 0.23
N 0.68
O 0.68
loop_
_atom_site_label
_atom_site_type_symbol
_atom_site_fract_x
_atom_site_fract_y
_atom_site_fract_z
C1 C 0.1321(5) 0.9365(2) 0.1549(1)
C2 C 0.1046(4) 0.9441(3) 0.2304(1)
C3 C 0.1221(5) 0.8535(3) 0.2708(2)
C4 C 0.1094(6) 0.8628(4) 0.3414(2)
C5 C 0.0802(5) 0.9588(5) 0.3712(2)
C6 C 0.0599(6) 1.0489(4) 0.3306(2)
C7 C 0.0709(5) 1.0427(3) 0.2602(2)
C8 C 0.1314(5) 0.8202(3) 0.0621(2)
C9 C 0.0282(5) 0.9024(2) 0.0212(1)
C10 C 0.0357(4) 1.0147(2) 0.0511(1)
C11 C -0.1469(5) 1.0633(2) 0.0259(1)
C12 C -0.2789(5) 0.9659(3) 0.0252(1)
C13 C -0.0978(5) 1.2002(2) -0.0554(1)
C14 C -0.0855(4) 1.2254(2) -0.1290(1)
C15 C -0.1306(5) 1.1518(2) -0.1786(1)
C16 C -0.1120(5) 1.1794(2) -0.2458(1)
C17 C -0.0441(4) 1.2784(2) -0.2628(1)
C18 C 0.0007(5) 1.3543(2) -0.2135(2)
C19 C -0.0226(5) 1.3279(2) -0.1471(2)
N1 N -0.0173(4) 1.3064(2) -0.3352(1)
O1 O 0.0900(3) 0.8321(2) 0.1332(1)
O2 O 0.0125(3) 1.0118(2) 0.12319(9)
O3 O -0.1745(3) 0.8775(2) 0.0201(1)
O4 O -0.4472(3) 0.9659(2) 0.0279(1)
O5 O -0.1331(3) 1.0963(2) -0.04415(9)
O6 O -0.0730(6) 1.2630(2) -0.0106(1)
O7 O 0.0633(5) 1.3900(2) -0.3486(1)
O8 O -0.0737(5) 1.2437(2) -0.3772(1)
H1 H 0.26040 0.95310 0.14250
H2 H 0.08830 0.90080 -0.02230
H3 H 0.15430 1.04860 0.03930
H4 H -0.18330 1.12380 0.05280
H5 H 0.14130 0.78560 0.24960
H6 H 0.11950 0.79930 0.36900
H7 H 0.07530 0.96790 0.41960
H8 H 0.03520 1.11730 0.35240
H9 H 0.06120 1.10650 0.23170
H10 H 0.26420 0.82870 0.05510
H11 H 0.09370 0.75110 0.04730
H12 H -0.17470 1.08220 -0.16600
H13 H -0.14540 1.13010 -0.28070
H14 H 0.04930 1.42380 -0.22590
H15 H 0.00070 1.38020 -0.11220
#END
