
#######################################################################
#
#                 Cambridge Crystallographic Data Centre
#                                CCDC
#
#######################################################################
#
# If this CIF has been generated from an entry in the Cambridge
# Structural Database, then it will include bibliographic, chemical,
# crystal, experimental, refinement or atomic coordinate data resulting
# from the CCDC's data processing and validation procedures.
#
#######################################################################

data_CSD_CIF_YISYOQ
_audit_creation_date 2013-11-06
_audit_creation_method CSD-ConQuest-V1
_database_code_CSD YISYOQ
_database_code_depnum_ccdc_archive 'CCDC 939607'
_chemical_formula_sum 'C17 H13 N1 O6'
_chemical_formula_moiety
;
C17 H13 N1 O6
;
_journal_coden_Cambridge 24
_journal_volume 54
_journal_year 2013
_journal_page_first 5734
_journal_name_full 'Tetrahedron Lett. '
loop_
_publ_author_name
"R.A.Irgashev"
"A.A.Karmatsky"
"P.A.Slepukhin"
"G.L.Rusinov"
"V.N.Charushin"
_chemical_name_systematic
;
3-(4,5-Dimethoxy-2-nitrophenyl)-2H-chromen-2-one
;
_cell_volume    740.970
_exptl_crystal_colour 'yellow'
_exptl_crystal_density_diffrn 1.467
_exptl_crystal_description 'prism'
_diffrn_ambient_temperature 295
#These two values have been output from a single CSD field.
_refine_ls_R_factor_gt 0.0354
_refine_ls_wR_factor_gt 0.0354
_symmetry_cell_setting triclinic
_symmetry_space_group_name_H-M 'P -1'
_symmetry_Int_Tables_number 2
loop_
_symmetry_equiv_pos_site_id
_symmetry_equiv_pos_as_xyz
1 x,y,z
2 -x,-y,-z
_cell_length_a 6.6935(9)
_cell_length_b 7.5212(7)
_cell_length_c 15.399(2)
_cell_angle_alpha 76.398(10)
_cell_angle_beta 82.687(11)
_cell_angle_gamma 81.04(1)
_cell_formula_units_Z 2
loop_
_atom_type_symbol
_atom_type_radius_bond
C 0.68
H 0.23
N 0.68
O 0.68
loop_
_atom_site_label
_atom_site_type_symbol
_atom_site_fract_x
_atom_site_fract_y
_atom_site_fract_z
O1 O 0.35927(14) 0.78803(14) 0.04035(7)
C1 C 0.0665(2) 0.7189(2) 0.59904(10)
H1 H 0.00760 0.73630 0.65710
H2 H 0.17660 0.79120 0.57920
H3 H 0.11660 0.59080 0.60280
O2 O -0.34746(13) 0.91921(12) 0.42364(6)
C2 C 0.3129(2) 0.79904(19) 0.1284(1)
O3 O -0.08417(14) 0.77574(13) 0.53672(6)
C3 C 0.10963(19) 0.76229(17) 0.16958(9)
O4 O 0.44433(15) 0.83791(15) 0.16509(7)
C4 C -0.03178(19) 0.75162(17) 0.11683(9)
H4 H -0.16470 0.74210 0.14190
C5 C 0.01672(19) 0.75449(17) 0.02307(9)
C6 C -0.1215(2) 0.73501(19) -0.03387(10)
H5 H -0.25790 0.73320 -0.01290
C7 C -0.0581(2) 0.7184(2) -0.12035(11)
H6 H -0.15150 0.70630 -0.15780
C8 C 0.1448(3) 0.7198(2) -0.15169(11)
H7 H 0.18790 0.70390 -0.20950
C9 C 0.2175(2) 0.76294(18) -0.01172(9)
C10 C 0.2837(2) 0.7445(2) -0.09826(10)
H8 H 0.41940 0.74870 -0.12000
C11 C -0.4959(2) 1.0120(2) 0.3636(1)
H9 H -0.61420 1.06090 0.39700
H10 H -0.53270 0.92650 0.33280
H11 H -0.44050 1.11100 0.32060
C12 C 0.06523(18) 0.75088(16) 0.26727(9)
C13 C 0.19533(18) 0.66105(16) 0.33215(9)
C14 C 0.15519(19) 0.66834(17) 0.42197(10)
H12 H 0.25050 0.61210 0.46230
C15 C -0.02630(19) 0.75924(17) 0.45095(9)
C16 C -0.16941(18) 0.84060(16) 0.38849(9)
C17 C -0.12028(18) 0.83999(16) 0.29891(9)
H13 H -0.21310 0.90060 0.25810
O5 O 0.52415(16) 0.52352(17) 0.35249(9)
O6 O 0.37557(16) 0.45727(14) 0.24988(8)
N1 N 0.37848(18) 0.54060(16) 0.30917(9)
#END
