
#######################################################################
#
#                 Cambridge Crystallographic Data Centre
#                                CCDC
#
#######################################################################
#
# If this CIF has been generated from an entry in the Cambridge
# Structural Database, then it will include bibliographic, chemical,
# crystal, experimental, refinement or atomic coordinate data resulting
# from the CCDC's data processing and validation procedures.
#
#######################################################################

data_CSD_CIF_YITBIM
_audit_creation_date 1995-11-06
_audit_creation_method CSD-ConQuest-V1
_database_code_CSD YITBIM
_database_code_depnum_ccdc_archive 'CCDC 1303676'
_chemical_formula_sum 'C13 H19 N3 O1'
_chemical_formula_moiety
;
C13 H19 N3 O1
;
_journal_coden_Cambridge 95
_journal_year 1993
_journal_page_first 539
_journal_name_full 'Izv.Akad.Nauk SSSR,Ser.Khim.(Russ.)(Russ.Chem.Bull.) '
loop_
_publ_author_name
"A.Kh.Khanamiryan"
"A.L.Gyulbudagyan"
"P.S.Vartanyan"
"M.Kh.Dzhafarov"
"Yu.T.Struchkov"
_chemical_name_systematic
;
4-Hydroxyimino-2-methyl-1-phenethyl-hexahydropyridazine
;
_cell_volume   1265.696
_exptl_special_details
;
possible biological activity as a local anaesthetic or as an antihistaminic 
and anticonvulsive agent
Dx reported as 1.161, we calculate 1.224
;
_diffrn_ambient_temperature ?
_diffrn_special_details
;
The study was carried out at room temperature,in the range 283-303K

;
#These two values have been output from a single CSD field.
_refine_ls_R_factor_gt 0.049
_refine_ls_wR_factor_gt 0.049
_symmetry_cell_setting monoclinic
_symmetry_space_group_name_H-M 'P 21/c'
_symmetry_Int_Tables_number 14
loop_
_symmetry_equiv_pos_site_id
_symmetry_equiv_pos_as_xyz
1 x,y,z
2 -x,1/2+y,1/2-z
3 -x,-y,-z
4 x,-1/2-y,-1/2+z
_cell_length_a 12.002
_cell_length_b 10.543
_cell_length_c 10.848
_cell_angle_alpha 90
_cell_angle_beta 112.77
_cell_angle_gamma 90
_cell_formula_units_Z 4
loop_
_atom_type_symbol
_atom_type_radius_bond
C 0.68
H 0.23
N 0.68
O 0.68
loop_
_atom_site_label
_atom_site_type_symbol
_atom_site_fract_x
_atom_site_fract_y
_atom_site_fract_z
O1 O 0.0967(4) -0.0877(5) 0.2076(5)
N1 N -0.2358(4) 0.2010(5) 0.1572(4)
N2 N -0.2380(4) 0.0985(5) 0.2464(5)
N3 N 0.0280(4) -0.0673(5) 0.2866(5)
C1 C -0.1127(6) 0.0658(7) 0.3291(6)
C2 C -0.0400(5) 0.0288(6) 0.2471(6)
C3 C -0.0541(6) 0.1140(7) 0.1323(7)
C4 C -0.1842(5) 0.1599(7) 0.0608(6)
C5 C -0.3074(7) -0.0137(7) 0.1804(8)
C6 C -0.3583(5) 0.2513(8) 0.0880(7)
C7 C -0.4129(6) 0.2982(7) 0.1862(7)
C8 C -0.5481(5) 0.2831(6) 0.1312(6)
C9 C -0.6246(6) 0.3587(7) 0.0268(7)
C10 C -0.7489(6) 0.3379(9) -0.0259(7)
C11 C -0.7982(7) 0.2454(9) 0.0233(8)
C12 C -0.7259(7) 0.1711(8) 0.1270(8)
C13 C -0.6025(7) 0.1900(7) 0.1790(7)
H1 H 0.132(5) -0.150(6) 0.235(6)
H2 H -0.077(5) 0.140(5) 0.383(5)
H3 H -0.110(5) -0.007(7) 0.386(6)
H4 H -0.021(5) 0.077(5) 0.073(5)
H5 H -0.010(4) 0.182(4) 0.164(4)
H6 H -0.244(5) 0.088(7) -0.008(6)
H7 H -0.193(4) 0.213(4) 0.003(4)
H8 H -0.302(6) -0.077(7) 0.241(7)
H9 H -0.389(6) 0.012(7) 0.122(7)
H10 H -0.286(5) -0.055(6) 0.109(6)
H11 H -0.357(5) 0.324(6) 0.032(5)
H12 H -0.411(4) 0.193(5) 0.027(5)
H13 H -0.393(5) 0.387(6) 0.203(6)
H14 H -0.381(5) 0.243(6) 0.268(6)
H15 H -0.589(5) 0.422(6) 0.002(6)
H16 H -0.789(5) 0.382(6) -0.099(6)
H17 H -0.884(6) 0.236(7) -0.011(6)
H18 H -0.761(6) 0.098(8) 0.164(7)
H19 H -0.553(5) 0.144(6) 0.251(6)
#END
