
#######################################################################
#
#                 Cambridge Crystallographic Data Centre
#                                CCDC
#
#######################################################################
#
# If this CIF has been generated from an entry in the Cambridge
# Structural Database, then it will include bibliographic, chemical,
# crystal, experimental, refinement or atomic coordinate data resulting
# from the CCDC's data processing and validation procedures.
#
#######################################################################

data_CSD_CIF_YITJOC
_audit_creation_date 2013-11-06
_audit_creation_method CSD-ConQuest-V1
_database_code_CSD YITJOC
_database_code_depnum_ccdc_archive 'CCDC 940416'
_chemical_formula_sum 'C5 H8 N6 O10'
_chemical_formula_moiety
;
C5 H8 N6 O10
;
_journal_coden_Cambridge 1290
_journal_year 2013
_journal_page_first 6028
_journal_name_full 'Eur.J.Inorg.Chem. '
loop_
_publ_author_name
"Bianca Aas"
"M.A.Kettner"
"T.M.Klapotke"
"M.Suceska"
"C.Zoller"
_chemical_name_systematic
;
2,2,2-Trinitroethyl ((methyl(nitro)amino)methyl)carbamate
;
_chemical_name_common
;
2,2,2-trinitroethyl-(2-nitro-2-azapropyl)-carbamate
;
_cell_volume   1178.641
_exptl_crystal_colour 'colorless'
_exptl_crystal_density_diffrn 1.759
_exptl_crystal_description 'block'
_exptl_crystal_preparation 'dichloromethane'
_diffrn_ambient_temperature 173
#These two values have been output from a single CSD field.
_refine_ls_R_factor_gt 0.0343
_refine_ls_wR_factor_gt 0.0343
_symmetry_cell_setting monoclinic
_symmetry_space_group_name_H-M 'P 21/c'
_symmetry_Int_Tables_number 14
loop_
_symmetry_equiv_pos_site_id
_symmetry_equiv_pos_as_xyz
1 x,y,z
2 -x,1/2+y,1/2-z
3 -x,-y,-z
4 x,-1/2-y,-1/2+z
_cell_length_a 9.3504(6)
_cell_length_b 9.3568(6)
_cell_length_c 13.5574(8)
_cell_angle_alpha 90
_cell_angle_beta 96.444(6)
_cell_angle_gamma 90
_cell_formula_units_Z 4
loop_
_atom_type_symbol
_atom_type_radius_bond
C 0.68
H 0.23
N 0.68
O 0.68
loop_
_atom_site_label
_atom_site_type_symbol
_atom_site_fract_x
_atom_site_fract_y
_atom_site_fract_z
O1 O 0.53944(12) 0.35657(12) 0.30657(9)
O2 O 0.64257(11) 0.13678(11) 0.32677(8)
O3 O 0.49411(13) 0.24350(14) 0.50176(9)
O4 O 0.86081(15) 0.25744(15) 0.6498(1)
O5 O 0.15049(13) 0.01034(12) 0.18399(9)
O6 O 0.64398(15) 0.03579(15) 0.60348(10)
N1 N 0.19577(15) 0.22900(14) 0.24216(11)
O7 O 0.77024(15) -0.04642(13) 0.49029(9)
O8 O 0.05210(12) 0.08238(13) 0.31430(9)
O9 O 0.97546(14) 0.28180(18) 0.51965(11)
N2 N 0.13000(14) 0.10076(15) 0.24732(10)
N3 N 0.44191(15) 0.16245(16) 0.22254(10)
N4 N 0.87155(16) 0.25172(15) 0.56147(11)
O10 O 0.64572(14) 0.41834(14) 0.53729(10)
N5 N 0.61390(15) 0.29541(15) 0.51546(10)
N6 N 0.71204(15) 0.04840(15) 0.5327(1)
C1 C 0.76154(17) 0.20110(19) 0.38587(12)
C2 C 0.73761(17) 0.19932(17) 0.49461(12)
C3 C 0.53877(17) 0.23057(17) 0.28567(11)
C4 C 0.1848(2) 0.3291(2) 0.32414(14)
C5 C 0.31319(18) 0.23549(19) 0.17976(13)
H1 H 0.845(2) 0.147(2) 0.3786(13)
H2 H 0.2784(18) 0.1984(19) 0.1182(14)
H3 H 0.3330(18) 0.335(2) 0.1732(13)
H4 H 0.7722(19) 0.297(2) 0.3681(13)
H5 H 0.084(2) 0.351(2) 0.3274(15)
H6 H 0.229(2) 0.286(2) 0.3834(16)
H7 H 0.237(2) 0.415(3) 0.3079(16)
H8 H 0.448(2) 0.082(2) 0.2161(16)
#END
