
#######################################################################
#
#                 Cambridge Crystallographic Data Centre
#                                CCDC
#
#######################################################################
#
# If this CIF has been generated from an entry in the Cambridge
# Structural Database, then it will include bibliographic, chemical,
# crystal, experimental, refinement or atomic coordinate data resulting
# from the CCDC's data processing and validation procedures.
#
#######################################################################

data_CSD_CIF_YITLEU
_audit_creation_date 2013-11-06
_audit_creation_method CSD-ConQuest-V1
_database_code_CSD YITLEU
_database_code_depnum_ccdc_archive 'CCDC 947936'
_chemical_formula_sum 'C18 H18 N2 O1'
_chemical_formula_moiety
;
C18 H18 N2 O1
;
_journal_coden_Cambridge 24
_journal_volume 54
_journal_year 2013
_journal_page_first 6337
_journal_name_full 'Tetrahedron Lett. '
loop_
_publ_author_name
"Fan Jia"
"Kaisheng Liu"
"Hui Xi"
"Shenglin Lu"
"Zhiping Li"
_chemical_name_systematic
;
4a,9-Dimethyl-3-phenyl-4,4a,9,9a-tetrahydro[1,2]oxazino[6,5-b]indole
;
_cell_volume   5761.926
_exptl_crystal_density_diffrn 1.283
_diffrn_ambient_temperature 180
#These two values have been output from a single CSD field.
_refine_ls_R_factor_gt 0.0348
_refine_ls_wR_factor_gt 0.0348
_symmetry_cell_setting orthorhombic
_symmetry_space_group_name_H-M 'F d d 2'
_symmetry_Int_Tables_number 43
loop_
_symmetry_equiv_pos_site_id
_symmetry_equiv_pos_as_xyz
1 x,y,z
2 -x,-y,z
3 1/4-x,1/4+y,1/4+z
4 1/4+x,1/4-y,1/4+z
5 x,1/2+y,1/2+z
6 -x,1/2-y,1/2+z
7 1/4-x,3/4+y,3/4+z
8 1/4+x,3/4-y,3/4+z
9 1/2+x,y,1/2+z
10 1/2-x,-y,1/2+z
11 3/4-x,1/4+y,3/4+z
12 3/4+x,1/4-y,3/4+z
13 1/2+x,1/2+y,z
14 1/2-x,1/2-y,z
15 3/4-x,3/4+y,1/4+z
16 3/4+x,3/4-y,1/4+z
_cell_length_a 31.1967(18)
_cell_length_b 13.6387(6)
_cell_length_c 13.5421(6)
_cell_angle_alpha 90
_cell_angle_beta 90
_cell_angle_gamma 90
_cell_formula_units_Z 16
loop_
_atom_type_symbol
_atom_type_radius_bond
C 0.68
H 0.23
N 0.68
O 0.68
loop_
_atom_site_label
_atom_site_type_symbol
_atom_site_fract_x
_atom_site_fract_y
_atom_site_fract_z
C1 C 0.27231(5) 0.90352(11) 0.14143(12)
C2 C 0.24701(5) 0.95128(11) 0.22296(13)
H1 H 0.25970 0.93350 0.28750
H2 H 0.21720 0.92650 0.22160
C3 C 0.24667(5) 1.06372(11) 0.21207(12)
C4 C 0.29040(5) 1.10607(11) 0.23453(12)
C5 C 0.31278(5) 1.11063(12) 0.32255(13)
H3 H 0.30070 1.08520 0.38160
C6 C 0.35335(6) 1.15326(12) 0.32297(13)
H4 H 0.36910 1.15750 0.38290
C7 C 0.37093(5) 1.18959(12) 0.23623(14)
H5 H 0.39890 1.21700 0.23730
C8 C 0.34847(5) 1.18661(11) 0.14813(13)
H6 H 0.36050 1.21220 0.08910
C9 C 0.30798(5) 1.14525(11) 0.14855(12)
C10 C 0.24092(5) 1.08724(13) 0.10068(13)
H7 H 0.21590 1.13230 0.09310
C11 C 0.21136(5) 1.10810(14) 0.27618(13)
H8 H 0.21640 1.09100 0.34550
H9 H 0.18350 1.08220 0.25530
H10 H 0.21150 1.17960 0.26890
C12 C 0.29017(7) 1.15557(15) -0.03011(13)
H11 H 0.30690 1.21620 -0.03550
H12 H 0.26400 1.16150 -0.06960
H13 H 0.30730 1.10040 -0.05460
C13 C 0.30380(5) 0.82434(11) 0.16006(12)
C14 C 0.32588(5) 0.81803(13) 0.24906(13)
H14 H 0.32010 0.86410 0.30000
C15 C 0.35625(6) 0.74546(14) 0.26442(16)
H15 H 0.37130 0.74230 0.32530
C16 C 0.36455(6) 0.67759(13) 0.19100(15)
H16 H 0.38560 0.62810 0.20090
C17 C 0.34215(6) 0.68205(13) 0.10321(14)
H17 H 0.34740 0.63450 0.05330
C18 C 0.31234(6) 0.75481(12) 0.08730(13)
H18 H 0.29750 0.75760 0.02620
N1 N 0.26670(5) 0.92844(10) 0.05143(11)
N2 N 0.27901(5) 1.13885(11) 0.07167(11)
O1 O 0.23351(4) 1.00138(9) 0.04116(9)
#END
