
#######################################################################
#
#                 Cambridge Crystallographic Data Centre
#                                CCDC
#
#######################################################################
#
# If this CIF has been generated from an entry in the Cambridge
# Structural Database, then it will include bibliographic, chemical,
# crystal, experimental, refinement or atomic coordinate data resulting
# from the CCDC's data processing and validation procedures.
#
#######################################################################

data_CSD_CIF_YIVFUF
_audit_creation_date 2008-05-23
_audit_creation_method CSD-ConQuest-V1
_database_code_CSD YIVFUF
_database_code_depnum_ccdc_archive 'CCDC 655258'
_chemical_formula_sum 'C12 H15 N1 O6'
_chemical_formula_moiety
;
C12 H15 N1 O6
;
_journal_coden_Cambridge 35
_journal_volume 73
_journal_year 2008
_journal_page_first 241
_journal_name_full 'J.Org.Chem. '
loop_
_publ_author_name
"K.Usui"
"M.Aso"
"M.Fukuda"
"H.Suemune"
_chemical_name_systematic
;
2-Nitrobenzyloxy-2'-deoxy-D-ribofuranoside
;
_cell_volume    613.973
_exptl_crystal_density_diffrn 1.456
_diffrn_ambient_temperature 123.1
#These two values have been output from a single CSD field.
_refine_ls_R_factor_gt 0.034
_refine_ls_wR_factor_gt 0.034
_symmetry_cell_setting monoclinic
_symmetry_space_group_name_H-M 'P 21'
_symmetry_Int_Tables_number 4
loop_
_symmetry_equiv_pos_site_id
_symmetry_equiv_pos_as_xyz
1 x,y,z
2 -x,1/2+y,-z
_cell_length_a 5.214(3)
_cell_length_b 6.055(3)
_cell_length_c 19.48(1)
_cell_angle_alpha 90
_cell_angle_beta 93.31(2)
_cell_angle_gamma 90
_cell_formula_units_Z 2
loop_
_atom_type_symbol
_atom_type_radius_bond
C 0.68
H 0.23
N 0.68
O 0.68
loop_
_atom_site_label
_atom_site_type_symbol
_atom_site_fract_x
_atom_site_fract_y
_atom_site_fract_z
O1 O 0.7490(2) -0.3910(2) 0.52834(6)
O2 O 1.1320(2) -0.0931(2) 0.72036(5)
O3 O 1.4177(2) -0.6597(2) 0.58344(6)
O4 O 0.9095(2) -0.4126(2) 0.68171(6)
O5 O 1.1530(2) -0.3112(2) 0.91927(6)
O6 O 0.8105(3) -0.3186(2) 0.97704(6)
N1 N 0.9397(3) -0.2409(2) 0.93236(7)
C1 C 0.9327(3) -0.0010(3) 0.82803(8)
C2 C 0.9812(3) -0.3290(3) 0.56633(8)
C3 C 0.5561(3) 0.2619(3) 0.88867(9)
C4 C 1.3125(3) -0.5485(3) 0.64041(8)
C5 C 0.9186(3) -0.1778(3) 0.68030(8)
C6 C 0.8348(3) 0.1909(3) 0.79644(8)
C7 C 0.8375(3) -0.0507(2) 0.89203(8)
C8 C 1.0310(3) -0.4997(2) 0.62308(8)
C9 C 0.6521(3) 0.3208(3) 0.82608(9)
C10 C 0.9545(4) -0.1112(3) 0.60568(8)
C11 C 1.1255(3) -0.1422(3) 0.79226(8)
C12 C 0.6504(3) 0.0741(3) 0.92193(8)
H1 H 1.532(4) -0.568(3) 0.565(1)
H2 H 0.731(4) -0.313(5) 0.495(1)
H3 H 0.42520 0.34740 0.90780
H4 H 0.89670 0.23430 0.75360
H5 H 0.59250 0.45170 0.80350
H6 H 0.58920 0.03190 0.96500
H7 H 1.33100 -0.63690 0.68070
H8 H 1.40130 -0.41290 0.64800
H9 H 1.10470 -0.02360 0.60290
H10 H 0.80960 -0.03090 0.58740
H11 H 1.08090 -0.29320 0.79740
H12 H 1.29140 -0.11660 0.81360
H13 H 1.12140 -0.32220 0.53740
H14 H 0.76290 -0.11830 0.69540
H15 H 0.94800 -0.63360 0.60930
#END
