
#######################################################################
#
#                 Cambridge Crystallographic Data Centre
#                                CCDC
#
#######################################################################
#
# If this CIF has been generated from an entry in the Cambridge
# Structural Database, then it will include bibliographic, chemical,
# crystal, experimental, refinement or atomic coordinate data resulting
# from the CCDC's data processing and validation procedures.
#
#######################################################################

data_CSD_CIF_YIWYEI
_audit_creation_date 1995-11-06
_audit_creation_method CSD-ConQuest-V1
_database_code_CSD YIWYEI
_chemical_formula_sum 'C15 H11 N1 O2'
_chemical_formula_moiety
;
C15 H11 N1 O2
;
_journal_coden_Cambridge 41
_journal_volume 38
_journal_year 1993
_journal_page_first 236A
_journal_name_full 'Kristallografiya(Russ.)(Crystallogr.Rep.) '
loop_
_publ_author_name
"A.E.Obodovskaya"
"Z.A.Starikova"
"L.N.Eliseeva"
"I.E.Pokrovskaya"
_chemical_name_systematic
;
cis-N-Phenylpropynyloyl-N-phenylhydroxylamine
;
_cell_volume   1211.649
_exptl_crystal_density_diffrn 1.3
_diffrn_ambient_temperature ?
_diffrn_special_details
;
The study was carried out at room temperature,in the range 283-303K

;
#These two values have been output from a single CSD field.
_refine_ls_R_factor_gt 0.047
_refine_ls_wR_factor_gt 0.047
_symmetry_cell_setting monoclinic
_symmetry_space_group_name_H-M 'P 21/c'
_symmetry_Int_Tables_number 14
loop_
_symmetry_equiv_pos_site_id
_symmetry_equiv_pos_as_xyz
1 x,y,z
2 -x,1/2+y,1/2-z
3 -x,-y,-z
4 x,-1/2-y,-1/2+z
_cell_length_a 6.431(2)
_cell_length_b 16.572(3)
_cell_length_c 11.495(5)
_cell_angle_alpha 90
_cell_angle_beta 98.49(3)
_cell_angle_gamma 90
_cell_formula_units_Z 4
loop_
_atom_type_symbol
_atom_type_radius_bond
C 0.68
H 0.23
N 0.68
O 0.68
loop_
_atom_site_label
_atom_site_type_symbol
_atom_site_fract_x
_atom_site_fract_y
_atom_site_fract_z
O1 O 0.8907(5) 0.1197(2) 0.9512(3)
O2 O 0.7721(4) -0.0332(2) 0.9514(2)
N1 N 0.7049(5) 0.0929(2) 0.8844(3)
C1 C 0.6598(6) 0.0143(2) 0.8886(3)
C2 C 0.4701(6) -0.0107(2) 0.8123(3)
C3 C 0.3251(6) -0.0370(2) 0.7490(3)
C4 C 0.5961(6) 0.1550(2) 0.8138(3)
C5 C 0.6927(6) 0.1910(2) 0.7283(3)
C6 C 0.5917(7) 0.2533(2) 0.6629(4)
C7 C 0.3976(7) 0.2774(2) 0.6823(4)
C8 C 0.3003(7) 0.2407(2) 0.7670(4)
C9 C 0.3998(6) 0.1789(2) 0.8345(3)
C10 C 0.1450(6) -0.0646(2) 0.6705(3)
C11 C -0.0428(6) -0.0227(2) 0.6619(3)
C12 C -0.2155(6) -0.0471(3) 0.5841(3)
C13 C -0.2009(7) -0.1143(3) 0.5150(3)
C14 C -0.0165(7) -0.1567(2) 0.5234(3)
C15 C 0.1569(6) -0.1326(2) 0.6007(3)
H1 H 0.969(8) 0.071(3) 0.986(4)
H2 H 0.828(5) 0.173(2) 0.717(3)
H3 H 0.661(7) 0.280(2) 0.605(3)
H4 H 0.330(5) 0.324(2) 0.640(3)
H5 H 0.162(6) 0.256(2) 0.783(3)
H6 H 0.334(6) 0.153(2) 0.892(3)
H7 H -0.040(6) 0.024(2) 0.706(3)
H8 H -0.348(6) -0.013(2) 0.581(3)
H9 H -0.322(6) -0.133(2) 0.459(3)
H10 H -0.004(7) -0.213(2) 0.482(3)
H11 H 0.292(5) -0.162(2) 0.606(2)
#END
