
#######################################################################
#
#                 Cambridge Crystallographic Data Centre
#                                CCDC
#
#######################################################################
#
# If this CIF has been generated from an entry in the Cambridge
# Structural Database, then it will include bibliographic, chemical,
# crystal, experimental, refinement or atomic coordinate data resulting
# from the CCDC's data processing and validation procedures.
#
#######################################################################

data_CSD_CIF_YIYNIF
_audit_creation_date 2014-04-03
_audit_creation_method CSD-ConQuest-V1
_database_code_CSD YIYNIF
_database_code_depnum_ccdc_archive 'CCDC 983303'
_chemical_formula_sum 'C33 H31 N3 O6'
_chemical_formula_moiety
;
C33 H31 N3 O6
;
_journal_coden_Cambridge 1220
_journal_volume 20
_journal_year 2014
_journal_page_first 5905
_journal_name_full 'Chem.-Eur.J. '
loop_
_publ_author_name
"Shikuan Su"
"Chunju Li"
"Xueshun Jia"
"Jian Li"
_chemical_name_systematic
;
1-t-butyl-3-(2-(1-methyl-2-oxo-2,3-dihydro-1H-indol-3-yl)-3-oxo-3-phenylpropyl
)-4-(4-nitrobenzyl)-1H-pyrrole-2,5-dione
;
_cell_volume   2955.228
_exptl_crystal_density_diffrn 1.271
_diffrn_ambient_temperature 296
#These two values have been output from a single CSD field.
_refine_ls_R_factor_gt 0.0547
_refine_ls_wR_factor_gt 0.0547
_symmetry_cell_setting monoclinic
_symmetry_space_group_name_H-M 'P 21/n'
_symmetry_Int_Tables_number 14
loop_
_symmetry_equiv_pos_site_id
_symmetry_equiv_pos_as_xyz
1 x,y,z
2 1/2-x,1/2+y,1/2-z
3 -x,-y,-z
4 -1/2+x,-1/2-y,-1/2+z
_cell_length_a 12.742(2)
_cell_length_b 16.912(3)
_cell_length_c 13.716(2)
_cell_angle_alpha 90
_cell_angle_beta 91.022(2)
_cell_angle_gamma 90
_cell_formula_units_Z 4
loop_
_atom_type_symbol
_atom_type_radius_bond
C 0.68
H 0.23
N 0.68
O 0.68
loop_
_atom_site_label
_atom_site_type_symbol
_atom_site_fract_x
_atom_site_fract_y
_atom_site_fract_z
C1 C 0.5648(2) 0.27511(15) 0.71250(18)
C2 C 0.5085(2) 0.2817(2) 0.6255(2)
H1 H 0.51830 0.32450 0.58400
C3 C 0.4374(3) 0.2228(2) 0.6022(2)
H2 H 0.39800 0.22610 0.54460
C4 C 0.4242(3) 0.1596(2) 0.6629(2)
H3 H 0.37600 0.12050 0.64580
C5 C 0.4816(2) 0.15272(17) 0.7500(2)
H4 H 0.47180 0.10950 0.79080
C6 C 0.55305(18) 0.21067(14) 0.77483(17)
C7 C 0.62472(17) 0.22207(13) 0.86239(16)
H5 H 0.58110 0.23060 0.91960
C8 C 0.6793(2) 0.30008(14) 0.8384(2)
C9 C 0.70660(16) 0.15787(12) 0.88814(15)
H6 H 0.75960 0.18190 0.93150
C10 C 0.65815(17) 0.08929(13) 0.94226(15)
C11 C 0.72662(16) 0.03307(13) 0.99835(15)
C12 C 0.68244(18) -0.03787(13) 1.02872(17)
H7 H 0.61280 -0.04930 1.01300
C13 C 0.7417(2) -0.09128(15) 1.0822(2)
H8 H 0.71190 -0.13870 1.10200
C14 C 0.8439(2) -0.07504(17) 1.1060(2)
H9 H 0.88330 -0.11110 1.14240
C15 C 0.8885(2) -0.00540(18) 1.0763(2)
H10 H 0.95810 0.00550 1.09260
C16 C 0.83056(19) 0.04855(16) 1.02231(19)
H11 H 0.86150 0.09540 1.00200
C17 C 0.76388(16) 0.12456(12) 0.79858(15)
H12 H 0.80880 0.08130 0.81970
H13 H 0.71210 0.10320 0.75300
C18 C 0.82876(15) 0.18415(11) 0.74699(15)
C19 C 0.82543(15) 0.20980(12) 0.65526(15)
C20 C 0.91198(17) 0.26843(13) 0.64335(16)
C21 C 0.92021(16) 0.22253(12) 0.79774(15)
C22 C 1.0512(2) 0.33419(16) 0.7536(2)
C23 C 1.0700(4) 0.3435(3) 0.8600(3)
H14 H 1.00550 0.35760 0.89070
H15 H 1.12110 0.38440 0.87130
H16 H 1.09560 0.29460 0.88680
C24 C 1.0235(3) 0.41357(18) 0.7101(3)
H17 H 1.01120 0.40790 0.64120
H18 H 1.08030 0.44990 0.72150
H19 H 0.96120 0.43350 0.73990
C25 C 1.1478(3) 0.3023(3) 0.7033(4)
H20 H 1.17500 0.25780 0.73920
H21 H 1.20040 0.34290 0.70090
H22 H 1.12910 0.28610 0.63820
C26 C 0.75586(17) 0.18668(14) 0.57057(16)
H23 H 0.74250 0.23260 0.52980
H24 H 0.68910 0.16810 0.59450
C27 C 0.80580(16) 0.12246(13) 0.51040(15)
C28 C 0.7854(2) 0.04384(14) 0.52826(17)
H25 H 0.73880 0.03040 0.57700
C29 C 0.8327(2) -0.01556(14) 0.47546(18)
H26 H 0.81890 -0.06850 0.48830
C30 C 0.90047(18) 0.00584(14) 0.40378(17)
C31 C 0.92118(19) 0.08283(16) 0.38256(19)
H27 H 0.96640 0.09580 0.33260
C32 C 0.87415(19) 0.14097(15) 0.43626(18)
H28 H 0.88840 0.19370 0.42270
C33 C 0.6804(3) 0.39640(17) 0.7022(3)
H29 H 0.73230 0.42150 0.74330
H30 H 0.62430 0.43290 0.68860
H31 H 0.71180 0.38060 0.64210
N1 N 0.63924(17) 0.32719(12) 0.75135(17)
N2 N 0.96238(14) 0.27786(10) 0.73379(13)
N3 N 0.95360(19) -0.05724(16) 0.34850(18)
O1 O 0.74806(16) 0.33224(11) 0.88709(16)
O2 O 0.56410(12) 0.07903(11) 0.93873(13)
O3 O 0.95279(12) 0.20573(9) 0.87833(11)
O4 O 0.93381(14) 0.30101(10) 0.56793(12)
O5 O 0.9319(2) -0.12525(15) 0.3659(2)
O6 O 1.01780(17) -0.03746(14) 0.28819(16)
#END
