
#######################################################################
#
#                 Cambridge Crystallographic Data Centre
#                                CCDC
#
#######################################################################
#
# If this CIF has been generated from an entry in the Cambridge
# Structural Database, then it will include bibliographic, chemical,
# crystal, experimental, refinement or atomic coordinate data resulting
# from the CCDC's data processing and validation procedures.
#
#######################################################################

data_CSD_CIF_YIZDAM
_audit_creation_date 1996-02-22
_audit_creation_method CSD-ConQuest-V1
_database_code_CSD YIZDAM
_database_code_depnum_ccdc_archive 'CCDC 1304153'
_chemical_formula_sum 'C11 H14 N4 O8'
_chemical_formula_moiety
;
C11 H14 N4 O8
;
_journal_coden_Cambridge 3
_journal_volume 49
_journal_year 1995
_journal_page_first 76
_journal_name_full 'Acta Chem.Scand. '
loop_
_publ_author_name
"C.P.Butts"
"L.Eberson"
"G.J.Foulds"
"K.L.Fulton"
"M.P.Hartshorn"
"W.T.Robinson"
_chemical_name_systematic
;
1,2,3,4-Tetramethyl-6,6,9-trinitro-7-aza-8,10-dioxatricyclo(3.3.1.1^2,7^)dec-3
-ene
;
_chemical_melting_point 410.15
_cell_volume    668.532
_exptl_crystal_colour 'colorless'
_exptl_crystal_density_diffrn 1.641
_exptl_special_details
;
Melts with decomposition.

;
_diffrn_ambient_temperature 130
#These two values have been output from a single CSD field.
_refine_ls_R_factor_gt 0.0683
_refine_ls_wR_factor_gt 0.0683
_symmetry_cell_setting triclinic
_symmetry_space_group_name_H-M 'P -1'
_symmetry_Int_Tables_number 2
loop_
_symmetry_equiv_pos_site_id
_symmetry_equiv_pos_as_xyz
1 x,y,z
2 -x,-y,-z
_cell_length_a 6.628(1)
_cell_length_b 8.637(2)
_cell_length_c 12.691(3)
_cell_angle_alpha 99.97(3)
_cell_angle_beta 103.13(3)
_cell_angle_gamma 103.37(3)
_cell_formula_units_Z 2
loop_
_atom_type_symbol
_atom_type_radius_bond
C 0.68
H 0.23
N 0.68
O 0.68
loop_
_atom_site_label
_atom_site_type_symbol
_atom_site_fract_x
_atom_site_fract_y
_atom_site_fract_z
O1 O 0.6542(5) 0.4778(3) 0.9194(2)
O2 O 0.3124(4) 0.3454(3) 0.8352(2)
O3 O 0.3200(5) 0.5419(4) 0.5784(3)
O4 O 0.1669(5) 0.5654(4) 0.7110(3)
O5 O 0.8470(5) 0.7045(4) 0.7678(3)
O6 O 0.6068(5) 0.8018(4) 0.8235(3)
O7 O 0.8214(5) 0.0909(4) 0.7513(3)
O8 O 0.8848(5) 0.2319(4) 0.6320(2)
N1 N 0.4623(6) 0.4975(4) 0.8542(3)
N2 N 0.3117(6) 0.5421(4) 0.6730(3)
N3 N 0.6702(6) 0.6910(4) 0.7820(3)
N4 N 0.8285(5) 0.2126(4) 0.7145(3)
C1 C 0.6675(6) 0.3161(5) 0.8684(3)
C2 C 0.4218(6) 0.2134(5) 0.8217(3)
C3 C 0.3567(6) 0.1356(5) 0.6977(3)
C4 C 0.4231(6) 0.2276(5) 0.6315(3)
C5 C 0.5942(6) 0.3913(5) 0.6881(3)
C6 C 0.7663(6) 0.3524(5) 0.7756(3)
C7 C 0.8048(7) 0.2660(6) 0.9615(4)
C8 C 0.3471(7) 0.1049(5) 0.8936(4)
C9 C 0.2183(7) -0.0365(5) 0.6581(4)
C10 C 0.3672(7) 0.1811(6) 0.5071(4)
C11 C 0.5108(6) 0.5192(5) 0.7498(3)
H1 H 0.6589(6) 0.4347(5) 0.6332(3)
H2 H 0.8930(6) 0.4484(5) 0.8056(3)
H3 H 0.9534(9) 0.3264(26) 0.9761(17)
H4 H 0.7898(36) 0.1508(9) 0.9399(10)
H5 H 0.7586(31) 0.2889(33) 1.0274(8)
H6 H 0.4074(38) 0.0139(19) 0.8872(19)
H7 H 0.1923(7) 0.0650(29) 0.8699(16)
H8 H 0.3935(40) 0.1661(11) 0.9697(5)
H9 H 0.0893(22) -0.0455(9) 0.6817(20)
H10 H 0.2955(18) -0.1071(7) 0.6887(19)
H11 H 0.1806(37) -0.0680(12) 0.5782(4)
H12 H 0.4961(9) 0.1822(34) 0.4845(4)
H13 H 0.3016(42) 0.2581(21) 0.4772(4)
H14 H 0.2680(37) 0.0733(15) 0.4799(4)
#END
