
#######################################################################
#
#                 Cambridge Crystallographic Data Centre
#                                CCDC
#
#######################################################################
#
# If this CIF has been generated from an entry in the Cambridge
# Structural Database, then it will include bibliographic, chemical,
# crystal, experimental, refinement or atomic coordinate data resulting
# from the CCDC's data processing and validation procedures.
#
#######################################################################

data_CSD_CIF_YIZGUK
_audit_creation_date 2008-09-22
_audit_creation_method CSD-ConQuest-V1
_database_code_CSD YIZGUK
_database_code_depnum_ccdc_archive 'CCDC 251422'
_chemical_formula_sum 'C36 H37 N1 O3'
_chemical_formula_moiety
;
C36 H37 N1 O3
;
_journal_coden_Cambridge 34
_journal_volume 44
_journal_year 2007
_journal_page_first 1105
_journal_name_full 'J.Heterocycl.Chem. '
loop_
_publ_author_name
"S.R.Jayapradha"
"V.Sridharan"
"S.Muthusubramanian"
"K.Polborn"
_chemical_name_systematic
;
(E)-1-(3-(2-Methoxy-5-t-pentylphenyl)-2,5-diphenylisoxazolidin-4-yl)-3-phenylp
rop-2-en-1-one
;
_chemical_melting_point 411.15
_cell_volume   3029.769
_exptl_crystal_colour 'colorless'
_exptl_crystal_density_diffrn 1.166
_exptl_crystal_description 'plate'
_diffrn_ambient_temperature 295
#These two values have been output from a single CSD field.
_refine_ls_R_factor_gt 0.0499
_refine_ls_wR_factor_gt 0.0499
_symmetry_cell_setting monoclinic
_symmetry_space_group_name_H-M 'P 21/n'
_symmetry_Int_Tables_number 14
loop_
_symmetry_equiv_pos_site_id
_symmetry_equiv_pos_as_xyz
1 x,y,z
2 1/2-x,1/2+y,1/2-z
3 -x,-y,-z
4 -1/2+x,-1/2-y,-1/2+z
_cell_length_a 10.197(3)
_cell_length_b 15.141(5)
_cell_length_c 19.743(3)
_cell_angle_alpha 90
_cell_angle_beta 96.30(2)
_cell_angle_gamma 90
_cell_formula_units_Z 4
loop_
_atom_type_symbol
_atom_type_radius_bond
C 0.68
H 0.23
N 0.68
O 0.68
loop_
_atom_site_label
_atom_site_type_symbol
_atom_site_fract_x
_atom_site_fract_y
_atom_site_fract_z
O1 O 0.15795(14) 0.15852(9) 0.30938(7)
O2 O 0.4780(2) 0.10790(13) 0.15104(9)
O3 O 0.1507(2) 0.11872(12) 0.10639(8)
N1 N 0.2283(2) 0.22410(11) 0.27536(8)
C1 C 0.3069(2) 0.17362(13) 0.2298(1)
H1 H 0.3027(2) 0.20407(13) 0.18581(10)
C2 C 0.2370(2) 0.08259(13) 0.21907(10)
H2 H 0.2926(2) 0.03569(13) 0.24108(10)
C3 C 0.1133(2) 0.09631(14) 0.25664(11)
H3 H 0.0436(2) 0.12359(14) 0.22542(11)
C4 C 0.1392(2) 0.28947(13) 0.24477(10)
C5 C 0.0173(2) 0.3025(2) 0.26781(12)
H4 H -0.0102(2) 0.2657(2) 0.30119(12)
C6 C -0.0637(3) 0.3704(2) 0.24117(15)
H5 H -0.1455(3) 0.3788(2) 0.25694(15)
C7 C -0.0249(3) 0.4255(2) 0.19181(15)
H6 H -0.0801(3) 0.4705(2) 0.17383(15)
C8 C 0.0958(3) 0.4132(2) 0.16947(13)
H7 H 0.1225(3) 0.4503(2) 0.13603(13)
C9 C 0.1791(2) 0.34637(14) 0.19578(12)
H8 H 0.2618(2) 0.33960(14) 0.18067(12)
C10 C 0.4500(2) 0.16432(14) 0.25839(11)
C11 C 0.5365(2) 0.13045(15) 0.21447(12)
C12 C 0.6694(2) 0.1224(2) 0.23682(14)
H9 H 0.7275(2) 0.1012(2) 0.20747(14)
C13 C 0.7157(2) 0.1459(2) 0.30273(13)
H10 H 0.8052(2) 0.1397(2) 0.31706(13)
C14 C 0.6337(2) 0.1780(2) 0.34792(12)
C15 C 0.4991(2) 0.1869(2) 0.32353(11)
H11 H 0.4414(2) 0.2089(2) 0.35277(11)
C16 C 0.5562(3) 0.0704(3) 0.1036(2)
H12 H 0.5013(5) 0.0559(15) 0.0625(5)
H13 H 0.5981(18) 0.0178(9) 0.1226(5)
H14 H 0.6223(15) 0.1121(6) 0.0935(9)
C17 C 0.6834(3) 0.2057(3) 0.42095(15)
C18 C 0.8291(3) 0.1987(4) 0.4368(2)
H15 H 0.8715(3) 0.2339(16) 0.4051(10)
H16 H 0.8555(4) 0.1381(5) 0.4333(15)
H17 H 0.8545(5) 0.2195(19) 0.4823(6)
C19 C 0.6593(6) 0.3160(4) 0.4263(3)
H18 H 0.5780(23) 0.3318(6) 0.3999(20)
H19 H 0.7311(24) 0.3467(4) 0.4091(22)
H20 H 0.6553(46) 0.3322(6) 0.4731(4)
C20 C 0.6059(5) 0.1699(6) 0.4711(2)
H21 H 0.5125(5) 0.1809(6) 0.4589(2)
H22 H 0.6326(5) 0.1943(6) 0.5159(2)
C21 C 0.6360(12) 0.0761(6) 0.4684(4)
H23 H 0.5791(58) 0.0488(12) 0.4324(29)
H24 H 0.6227(83) 0.0491(12) 0.5111(16)
H25 H 0.7263(26) 0.0686(6) 0.4599(43)
C22 C 0.2019(2) 0.06207(15) 0.14429(11)
C23 C 0.2274(2) -0.0272(2) 0.11945(11)
H26 H 0.2711(2) -0.0680(2) 0.14912(11)
C24 C 0.1894(2) -0.0508(2) 0.05550(11)
H27 H 0.1474(2) -0.0070(2) 0.02806(11)
C25 C 0.2045(2) -0.1355(2) 0.02242(11)
C26 C 0.1378(2) -0.1498(2) -0.04178(12)
H28 H 0.0879(2) -0.1044(2) -0.06333(12)
C27 C 0.1441(3) -0.2302(2) -0.07426(14)
H29 H 0.0969(3) -0.2393(2) -0.11675(14)
C28 C 0.2203(3) -0.2967(2) -0.04347(15)
H30 H 0.2257(3) -0.3509(2) -0.06523(15)
C29 C 0.2886(3) -0.2831(2) 0.01951(15)
H31 H 0.3408(3) -0.3281(2) 0.04009(15)
C30 C 0.2805(3) -0.2035(2) 0.05251(13)
H32 H 0.3265(3) -0.1955(2) 0.09540(13)
C31 C 0.0589(2) 0.01566(14) 0.28852(12)
C32 C -0.0102(2) -0.0465(2) 0.2472(2)
H33 H -0.0231(2) -0.0374(2) 0.2004(2)
C33 C -0.0600(3) -0.1214(2) 0.2743(2)
H34 H -0.1042(3) -0.1630(2) 0.2456(2)
C34 C -0.0449(3) -0.1348(2) 0.3421(2)
H35 H -0.0795(3) -0.1853(2) 0.3602(2)
C35 C 0.0215(4) -0.0739(2) 0.3847(2)
H36 H 0.0309(4) -0.0829(2) 0.4316(2)
C36 C 0.0750(3) 0.0017(2) 0.35746(14)
H37 H 0.1215(3) 0.0423(2) 0.38616(14)
#END
