
#######################################################################
#
#                 Cambridge Crystallographic Data Centre
#                                CCDC
#
#######################################################################
#
# If this CIF has been generated from an entry in the Cambridge
# Structural Database, then it will include bibliographic, chemical,
# crystal, experimental, refinement or atomic coordinate data resulting
# from the CCDC's data processing and validation procedures.
#
#######################################################################

data_CSD_CIF_YIZHIZ
_audit_creation_date 2008-09-22
_audit_creation_method CSD-ConQuest-V1
_database_code_CSD YIZHIZ
_database_code_depnum_ccdc_archive 'CCDC 235162'
_chemical_formula_sum 'C21 H17 N3 O5'
_chemical_formula_moiety
;
C21 H17 N3 O5
;
_journal_coden_Cambridge 34
_journal_volume 44
_journal_year 2007
_journal_page_first 1045
_journal_name_full 'J.Heterocycl.Chem. '
loop_
_publ_author_name
"A.Banerji"
"M.Gupta"
"P.K.Biswas"
"T.Prange"
"A.Neuman"
_chemical_name_systematic
;
3RS(3R*,4S*,5R*)-2,5-Diphenyl-3-(4-nitrophenyl)-4-nitroisoxazolidine
;
_chemical_melting_point 399.15
_cell_volume    926.152
_exptl_crystal_colour 'colorless'
_exptl_crystal_density_diffrn 1.403
_exptl_crystal_description 'plate'
_diffrn_ambient_temperature 113
_diffrn_radiation_probe x-ray
_diffrn_source synchrotron
#These two values have been output from a single CSD field.
_refine_ls_R_factor_gt 0.0799
_refine_ls_wR_factor_gt 0.0799
_symmetry_cell_setting triclinic
_symmetry_space_group_name_H-M 'P -1'
_symmetry_Int_Tables_number 2
loop_
_symmetry_equiv_pos_site_id
_symmetry_equiv_pos_as_xyz
1 x,y,z
2 -x,-y,-z
_cell_length_a 7.242(2)
_cell_length_b 8.371(2)
_cell_length_c 16.587(2)
_cell_angle_alpha 84.32(10)
_cell_angle_beta 78.72(10)
_cell_angle_gamma 70.01(10)
_cell_formula_units_Z 2
loop_
_atom_type_symbol
_atom_type_radius_bond
C 0.68
H 0.23
N 0.68
O 0.68
loop_
_atom_site_label
_atom_site_type_symbol
_atom_site_fract_x
_atom_site_fract_y
_atom_site_fract_z
O1 O 0.4027(3) 0.8347(2) 0.67675(11)
N1 N 0.4826(4) 0.9282(3) 0.72108(13)
C1 C 0.5025(5) 1.0776(3) 0.67605(16)
C2 C 0.5638(5) 1.1881(4) 0.71306(19)
H1 H 0.57340 1.17240 0.76860
C3 C 0.6109(6) 1.3217(4) 0.66785(19)
H2 H 0.65310 1.39420 0.69310
C4 C 0.5954(6) 1.3473(4) 0.58631(18)
H3 H 0.62650 1.43750 0.55630
C5 C 0.5333(5) 1.2383(4) 0.54829(18)
H4 H 0.52250 1.25530 0.49290
C6 C 0.4875(5) 1.1041(4) 0.59360(17)
H5 H 0.44630 1.03110 0.56820
C7 C 0.3601(5) 0.9470(3) 0.80394(16)
H6 H 0.32100 1.06470 0.82060
C8 C 0.4739(5) 0.8275(3) 0.86607(16)
C9 C 0.4097(6) 0.8595(4) 0.94910(18)
H7 H 0.29980 0.95400 0.96610
C10 C 0.5103(6) 0.7496(4) 1.00720(19)
H8 H 0.46940 0.77040 1.06300
C11 C 0.6697(5) 0.6112(4) 0.98059(18)
N2 N 0.7729(6) 0.4909(4) 1.0427(2)
O2 O 0.9004(5) 0.3587(3) 1.01976(16)
O3 O 0.7192(5) 0.5314(4) 1.11407(19)
C12 C 0.7361(6) 0.5746(4) 0.8989(2)
H9 H 0.84460 0.47860 0.88250
C13 C 0.6358(6) 0.6857(4) 0.84182(19)
H10 H 0.67850 0.66430 0.78610
C14 C 0.1716(5) 0.9057(3) 0.79451(16)
H11 H 0.17490 0.79500 0.82100
N3 N -0.0207(5) 1.0418(3) 0.82780(16)
O4 O -0.1532(4) 0.9948(3) 0.86807(15)
O5 O -0.0363(4) 1.1901(3) 0.81048(14)
C15 C 0.1907(5) 0.8988(3) 0.70200(16)
H12 H 0.13910 1.01460 0.67900
C16 C 0.1004(5) 0.7871(3) 0.66960(17)
C17 C -0.0066(5) 0.8462(4) 0.60712(18)
H13 H -0.03140 0.95830 0.58750
C18 C -0.0786(6) 0.7390(4) 0.57284(19)
H14 H -0.14950 0.77810 0.52970
C19 C -0.0428(6) 0.5717(4) 0.6040(2)
H15 H -0.09230 0.50000 0.58190
C20 C 0.0653(6) 0.5115(4) 0.66726(19)
H16 H 0.09000 0.39990 0.68750
C21 C 0.1358(6) 0.6206(4) 0.69968(18)
H17 H 0.20810 0.58190 0.74240
#END
