
#######################################################################
#
#                 Cambridge Crystallographic Data Centre
#                                CCDC
#
#######################################################################
#
# If this CIF has been generated from an entry in the Cambridge
# Structural Database, then it will include bibliographic, chemical,
# crystal, experimental, refinement or atomic coordinate data resulting
# from the CCDC's data processing and validation procedures.
#
#######################################################################

data_CSD_CIF_YOCSEP
_audit_creation_date 2008-09-23
_audit_creation_method CSD-ConQuest-V1
_database_code_CSD YOCSEP
_database_code_depnum_ccdc_archive 'CCDC 696483'
_chemical_formula_sum 'C32 H20 N2 O6'
_chemical_formula_moiety
;
C32 H20 N2 O6
;
_journal_coeditor_code "IUCr KP2173"
_journal_coden_Cambridge 1370
_journal_volume 64
_journal_year 2008
_journal_page_first o1198
_journal_name_full 'Acta Crystallogr.,Sect.E:Struct.Rep.Online '
loop_
_publ_author_name
"Wen-Xian Liang"
"Zhi-Rong Qu"
_chemical_name_systematic
;
2,2'-bis(4-nitrophenoxy)-1,1'-binaphthyl
;
_chemical_name_common
;
2-(4-nitrophenoxy)-1-(2-(4-nitrophenoxy)naphthalen-1-yl)naphthalene
;
_cell_volume   2538.232
_exptl_crystal_colour 'colorless'
_exptl_crystal_density_diffrn 1.383
_exptl_crystal_description 'block'
_exptl_crystal_preparation 'ethanol'
_diffrn_ambient_temperature 296
#These two values have been output from a single CSD field.
_refine_ls_R_factor_gt 0.0538
_refine_ls_wR_factor_gt 0.0538
_symmetry_cell_setting monoclinic
_symmetry_space_group_name_H-M 'P 21/c'
_symmetry_Int_Tables_number 14
loop_
_symmetry_equiv_pos_site_id
_symmetry_equiv_pos_as_xyz
1 x,y,z
2 -x,1/2+y,1/2-z
3 -x,-y,-z
4 x,-1/2-y,-1/2+z
_cell_length_a 7.6159(9)
_cell_length_b 24.810(3)
_cell_length_c 13.5022(15)
_cell_angle_alpha 90
_cell_angle_beta 95.790(3)
_cell_angle_gamma 90
_cell_formula_units_Z 4
loop_
_atom_type_symbol
_atom_type_radius_bond
C 0.68
H 0.23
N 0.68
O 0.68
loop_
_atom_site_label
_atom_site_type_symbol
_atom_site_fract_x
_atom_site_fract_y
_atom_site_fract_z
O1 O 1.3508(2) 0.39839(7) 0.26199(13)
O2 O 0.9879(2) 0.43838(7) 0.17323(12)
N1 N 0.4540(3) 0.59046(10) 0.10343(16)
C1 C 1.0230(4) 0.40498(9) 0.44518(18)
C2 C 1.0031(3) 0.36017(9) 0.27505(17)
C3 C 1.1008(3) 0.39169(9) 0.35680(17)
C4 C 0.8489(4) 0.4736(1) 0.15533(17)
C5 C 1.2690(4) 0.40833(9) 0.34837(19)
C6 C 0.8491(4) 0.39068(10) 0.46109(19)
H1 H 0.77970 0.37200 0.41180
C7 C 0.6795(4) 0.46179(10) 0.17407(18)
H2 H 0.65270 0.42790 0.19800
C8 C 1.0293(4) 0.27455(11) 0.37128(19)
H3 H 1.07820 0.29310 0.42730
O3 O 0.4934(3) 0.63407(8) 0.07056(14)
C9 C 0.9767(3) 0.30318(10) 0.28363(18)
C10 C 0.5925(4) 0.54981(11) 0.12233(18)
C11 C 0.8464(4) 0.30174(12) 0.1116(2)
H4 H 0.79370 0.28280 0.05700
C12 C 0.9496(3) 0.38393(10) 0.18595(19)
C13 C 1.3749(3) 0.34527(11) 0.23632(19)
N2 N 1.4260(4) 0.18672(11) 0.1414(2)
C14 C 0.7607(4) 0.56203(11) 0.10407(18)
H5 H 0.78720 0.59610 0.08080
C15 C 0.8700(4) 0.35544(12) 0.10426(19)
H6 H 0.83360 0.37330 0.04520
C16 C 0.7803(4) 0.40373(11) 0.5478(2)
H7 H 0.66550 0.39370 0.55710
C17 C 1.4198(3) 0.30571(11) 0.30582(19)
H8 H 1.43690 0.31430 0.37320
O4 O 0.3041(3) 0.57870(8) 0.12092(16)
C18 C 0.9002(4) 0.27407(11) 0.2002(2)
C19 C 0.8915(4) 0.52370(11) 0.12019(17)
H9 H 1.00660 0.53150 0.10760
C20 C 1.1244(4) 0.43468(10) 0.52074(19)
C21 C 1.3671(4) 0.43793(10) 0.4217(2)
H10 H 1.48070 0.44910 0.41220
C22 C 0.5496(4) 0.50002(11) 0.15740(19)
H11 H 0.43430 0.49230 0.16960
C23 C 1.4392(4) 0.25318(11) 0.27459(19)
H12 H 1.46980 0.22590 0.32030
C24 C 1.2974(4) 0.45038(11) 0.5068(2)
H13 H 1.36420 0.46950 0.55640
C25 C 1.4125(4) 0.24221(11) 0.1749(2)
C26 C 0.8843(4) 0.21737(12) 0.2078(2)
H14 H 0.83630 0.19780 0.15290
O5 O 1.4527(3) 0.15122(9) 0.20191(16)
C27 C 1.0481(5) 0.44692(12) 0.6088(2)
H15 H 1.11410 0.46580 0.65910
C28 C 1.3761(4) 0.28167(12) 0.10560(19)
H16 H 1.36430 0.27330 0.03810
C29 C 1.3571(3) 0.33380(11) 0.13642(19)
H17 H 1.33230 0.36110 0.09000
C30 C 0.9374(5) 0.19142(12) 0.2932(3)
H18 H 0.92560 0.15420 0.29690
O6 O 1.4102(4) 0.17823(9) 0.05245(17)
C31 C 1.0096(4) 0.22003(12) 0.3755(2)
H19 H 1.04510 0.20180 0.43440
C32 C 0.8817(5) 0.43195(13) 0.6221(2)
H20 H 0.83470 0.44050 0.68110
#END
