
#######################################################################
#
#                 Cambridge Crystallographic Data Centre
#                                CCDC
#
#######################################################################
#
# If this CIF has been generated from an entry in the Cambridge
# Structural Database, then it will include bibliographic, chemical,
# crystal, experimental, refinement or atomic coordinate data resulting
# from the CCDC's data processing and validation procedures.
#
#######################################################################

data_CSD_CIF_YODFUT01
_audit_creation_date 2009-07-30
_audit_creation_method CSD-ConQuest-V1
_database_code_CSD YODFUT01
_database_code_depnum_ccdc_archive 'CCDC 738273'
_chemical_formula_sum 'C12 H16 N2 O4'
_chemical_formula_moiety
;
C12 H16 N2 O4
;
_journal_coeditor_code "IUCr HK2690"
_journal_coden_Cambridge 1370
_journal_volume 65
_journal_year 2009
_journal_page_first o1380
_journal_name_full 'Acta Crystallogr.,Sect.E:Struct.Rep.Online '
loop_
_publ_author_name
"Guo-Hua Zhang"
"Yong-Zhong Wu"
"Hao-Yuan Li"
"Bo-Nian Liu"
"Cheng Guo"
_chemical_name_systematic
;
Ethyl 3-nitro-4-(n-propylamino)benzoate
;
_cell_volume    643.059
_exptl_crystal_colour 'colorless'
_exptl_crystal_density_diffrn 1.303
_exptl_crystal_description 'block'
_exptl_crystal_preparation 'ethanol'
_diffrn_ambient_temperature 294
#These two values have been output from a single CSD field.
_refine_ls_R_factor_gt 0.0669
_refine_ls_wR_factor_gt 0.0669
_symmetry_cell_setting triclinic
_symmetry_space_group_name_H-M 'P -1'
_symmetry_Int_Tables_number 2
loop_
_symmetry_equiv_pos_site_id
_symmetry_equiv_pos_as_xyz
1 x,y,z
2 -x,-y,-z
_cell_length_a 4.4400(9)
_cell_length_b 12.606(3)
_cell_length_c 13.209(3)
_cell_angle_alpha 61.710(19)
_cell_angle_beta 83.02(3)
_cell_angle_gamma 81.75(3)
_cell_formula_units_Z 2
loop_
_atom_type_symbol
_atom_type_radius_bond
C 0.68
H 0.23
N 0.68
O 0.68
loop_
_atom_site_label
_atom_site_type_symbol
_atom_site_fract_x
_atom_site_fract_y
_atom_site_fract_z
O1 O -0.3870(7) -0.0274(2) 0.8647(2)
O2 O -0.2837(8) -0.1310(3) 0.7632(3)
O3 O -0.0492(8) 0.3592(2) 0.7202(2)
O4 O 0.2630(7) 0.4310(3) 0.5801(2)
N1 N 0.1072(8) 0.3526(3) 0.6413(3)
N2 N 0.4396(8) 0.3293(3) 0.4457(3)
H1 H 0.44910 0.39360 0.45210
C1 C -0.3968(13) -0.2145(4) 1.0388(4)
H2 H -0.52670 -0.27460 1.09180
H3 H -0.30790 -0.18110 1.07880
H4 H -0.23790 -0.25110 1.00580
C2 C -0.5738(10) -0.1193(4) 0.9484(4)
H5 H -0.73390 -0.08250 0.98190
H6 H -0.66960 -0.15380 0.91000
C3 C -0.2502(11) -0.0448(4) 0.7781(4)
C4 C -0.0655(9) 0.0540(3) 0.6944(3)
C5 C -0.0537(8) 0.1582(3) 0.7019(3)
H7 H -0.16380 0.16780 0.76200
C6 C 0.1163(8) 0.2486(3) 0.6230(3)
C7 C 0.2859(8) 0.2413(3) 0.5268(3)
C8 C 0.2554(10) 0.1315(4) 0.5233(3)
H8 H 0.35030 0.12170 0.46120
C9 C 0.1030(11) 0.0445(4) 0.6018(4)
H9 H 0.10640 -0.02640 0.59610
C10 C 0.5976(13) 0.3193(4) 0.3427(4)
H10 H 0.80400 0.28210 0.36100
H11 H 0.49270 0.26590 0.32810
C11 C 0.6104(14) 0.4292(5) 0.2425(4)
H12 H 0.71990 0.48210 0.25610
H13 H 0.40460 0.46740 0.22460
C12 C 0.7633(11) 0.4158(4) 0.1409(3)
H14 H 0.77680 0.49440 0.07580
H15 H 0.64650 0.36920 0.12290
H16 H 0.96450 0.37520 0.15910
#END
