
#######################################################################
#
#                 Cambridge Crystallographic Data Centre
#                                CCDC
#
#######################################################################
#
# If this CIF has been generated from an entry in the Cambridge
# Structural Database, then it will include bibliographic, chemical,
# crystal, experimental, refinement or atomic coordinate data resulting
# from the CCDC's data processing and validation procedures.
#
#######################################################################

data_CSD_CIF_YODKIN
_audit_creation_date 2014-04-04
_audit_creation_method CSD-ConQuest-V1
_database_code_CSD YODKIN
_database_code_depnum_ccdc_archive 'CCDC 983191'
_chemical_formula_sum 'C15 H25 N1 O2'
_chemical_formula_moiety
;
C15 H25 N1 O2
;
_journal_coden_Cambridge 222
_journal_volume 43
_journal_year 2014
_journal_page_first 6300
_journal_name_full 'Dalton Trans. '
loop_
_publ_author_name
"W.L.Dorfner"
"P.J.Carroll"
"E.J.Schelter"
_chemical_name_systematic
;
N,5-di-t-butyl-N-hydroxy-2-methoxyaniline
;
_cell_volume   1517.592
_exptl_crystal_colour 'colorless'
_exptl_crystal_density_diffrn 1.1
_exptl_crystal_description 'block'
_diffrn_ambient_temperature 100
#These two values have been output from a single CSD field.
_refine_ls_R_factor_gt 0.0347
_refine_ls_wR_factor_gt 0.0347
_symmetry_cell_setting monoclinic
_symmetry_space_group_name_H-M 'P 21/c'
_symmetry_Int_Tables_number 14
loop_
_symmetry_equiv_pos_site_id
_symmetry_equiv_pos_as_xyz
1 x,y,z
2 -x,1/2+y,1/2-z
3 -x,-y,-z
4 x,-1/2-y,-1/2+z
_cell_length_a 11.3920(7)
_cell_length_b 10.5969(6)
_cell_length_c 12.6402(8)
_cell_angle_alpha 90
_cell_angle_beta 95.990(3)
_cell_angle_gamma 90
_cell_formula_units_Z 4
loop_
_atom_type_symbol
_atom_type_radius_bond
C 0.68
H 0.23
N 0.68
O 0.68
loop_
_atom_site_label
_atom_site_type_symbol
_atom_site_fract_x
_atom_site_fract_y
_atom_site_fract_z
C1 C 0.33526(8) 0.40525(8) 0.36391(7)
C2 C 0.38540(8) 0.39923(9) 0.26694(7)
C3 C 0.35056(8) 0.30395(9) 0.19523(7)
H1 H 0.38310 0.29940 0.13090
C4 C 0.26701(8) 0.21495(9) 0.21900(7)
H2 H 0.24420 0.15220 0.16970
C5 C 0.21706(8) 0.21796(8) 0.31481(7)
C6 C 0.25392(8) 0.31424(8) 0.38650(7)
H3 H 0.22280 0.31730 0.45160
C7 C 0.29960(8) 0.61953(9) 0.43582(8)
C8 C 0.17398(9) 0.59066(11) 0.46125(9)
H4 H 0.13640 0.53510 0.40800
H5 H 0.12990 0.66780 0.46200
H6 H 0.17680 0.55090 0.52970
C9 C 0.3592(1) 0.71078(10) 0.51865(8)
H7 H 0.35890 0.67490 0.58830
H8 H 0.31700 0.78930 0.51540
H9 H 0.43910 0.72540 0.50420
C10 C 0.29671(10) 0.67808(10) 0.32508(8)
H10 H 0.37590 0.69530 0.30960
H11 H 0.25250 0.75530 0.32290
H12 H 0.26000 0.62040 0.27320
C11 C 0.50648(9) 0.4985(1) 0.14850(8)
H13 H 0.55080 0.42450 0.13420
H14 H 0.55540 0.57190 0.14500
H15 H 0.43900 0.50540 0.09660
C12 C 0.12458(8) 0.12219(9) 0.34370(8)
C13 C 0.00899(9) 0.19181(10) 0.35676(10)
H16 H 0.02290 0.25500 0.41110
H17 H -0.04870 0.13270 0.37670
H18 H -0.01960 0.23130 0.29070
C14 C 0.16807(10) 0.05522(10) 0.44804(9)
H19 H 0.24280 0.01590 0.44120
H20 H 0.11180 -0.00780 0.46340
H21 H 0.17690 0.11570 0.50480
C15 C 0.09980(11) 0.0213(1) 0.25761(9)
H22 H 0.07060 0.06080 0.19170
H23 H 0.04190 -0.03680 0.27860
H24 H 0.17140 -0.02340 0.24850
N1 N 0.37617(7) 0.50320(7) 0.43864(6)
O1 O 0.37690(6) 0.44951(6) 0.54423(5)
H25 H 0.44390 0.45300 0.57490
O2 O 0.46837(6) 0.48918(7) 0.25153(5)
#END
