
#######################################################################
#
#                 Cambridge Crystallographic Data Centre
#                                CCDC
#
#######################################################################
#
# If this CIF has been generated from an entry in the Cambridge
# Structural Database, then it will include bibliographic, chemical,
# crystal, experimental, refinement or atomic coordinate data resulting
# from the CCDC's data processing and validation procedures.
#
#######################################################################

data_CSD_CIF_YODMOT
_audit_creation_date 1995-11-27
_audit_creation_method CSD-ConQuest-V1
_database_code_CSD YODMOT
_chemical_formula_sum 'C6 H7 N3 O8'
_chemical_formula_moiety
;
C6 H7 N3 O8
;
_journal_coden_Cambridge 95
_journal_year 1994
_journal_page_first 2207
_journal_name_full 'Izv.Akad.Nauk SSSR,Ser.Khim.(Russ.)(Russ.Chem.Bull.) '
loop_
_publ_author_name
"B.S.Federov"
"M.A.Fadeev"
"V.V.Arakcheeva"
"G.V.Strukov"
"N.I.Golovina"
"R.F.Trofimova"
"G.V.Shilov"
"L.O.Atovmyan"
_chemical_name_systematic
;
4-Acetoxy-5,5-dinitro-5,6-dihydro-2H-1,3-oxazine N-oxide
;
_chemical_melting_point 373.15
_cell_volume   1973.283
_exptl_crystal_colour 'colorless'
_exptl_crystal_density_diffrn 1.676
_exptl_special_details
;
Melting point range 373.15-374.15K
The coordinates of O8 have been supplied by the author
;
_diffrn_ambient_temperature ?
_diffrn_special_details
;
The study was carried out at room temperature,in the range 283-303K

;
#These two values have been output from a single CSD field.
_refine_ls_R_factor_gt 0.051
_refine_ls_wR_factor_gt 0.051
_symmetry_cell_setting orthorhombic
_symmetry_space_group_name_H-M 'P c a b'
_symmetry_Int_Tables_number 61
loop_
_symmetry_equiv_pos_site_id
_symmetry_equiv_pos_as_xyz
1 x,y,z
2 -x,1/2-y,1/2+z
3 1/2+x,-y,1/2-z
4 1/2-x,1/2+y,-z
5 -x,-y,-z
6 x,-1/2+y,-1/2-z
7 -1/2-x,y,-1/2+z
8 -1/2+x,-1/2-y,z
_cell_length_a 23.413
_cell_length_b 14.285
_cell_length_c 5.9
_cell_angle_alpha 90
_cell_angle_beta 90
_cell_angle_gamma 90
_cell_formula_units_Z 8
loop_
_atom_type_symbol
_atom_type_radius_bond
C 0.68
H 0.23
N 0.68
O 0.68
loop_
_atom_site_label
_atom_site_type_symbol
_atom_site_fract_x
_atom_site_fract_y
_atom_site_fract_z
O1 O 0.3422(2) 0.4502(7) 0.0381(8)
O2 O 0.3957(2) 0.4480(6) -0.2789(8)
O3 O 0.4762(3) 0.2934(6) 0.2441(9)
O4 O 0.2960(3) 0.3487(6) 0.3984(9)
O5 O 0.3026(2) 0.2021(7) 0.2952(9)
O6 O 0.4034(3) 0.1891(6) -0.0918(9)
O7 O 0.3293(3) 0.2723(6) -0.1655(9)
O8 O 0.43635(3) 0.53324(7) 0.17503(8)
N1 N 0.3185(3) 0.2840(7) 0.2991(8)
N2 N 0.3693(3) 0.2481(7) -0.0467(8)
N3 N 0.4325(3) 0.4480(7) 0.2010(8)
C1 C 0.3848(4) 0.3985(8) 0.1405(9)
C2 C 0.3759(3) 0.3043(8) 0.1793(9)
C3 C 0.4234(4) 0.2610(8) 0.3225(9)
C4 C 0.4823(4) 0.3904(8) 0.2935(9)
C5 C 0.3536(4) 0.4737(8) -0.1899(9)
C6 C 0.3049(4) 0.5304(9) -0.2727(9)
H1 H 0.3155(10) 0.5496(15) -0.4177(25)
H2 H 0.3133(15) 0.5979(20) -0.1581(30)
H3 H 0.2754(15) 0.503(2) -0.3288(35)
H4 H 0.5136(10) 0.4005(17) 0.1727(40)
H5 H 0.4994(15) 0.3986(17) 0.4574(35)
H6 H 0.4335(10) 0.1909(20) 0.3602(40)
H7 H 0.4130(15) 0.2855(20) 0.4974(35)
#END
