
#######################################################################
#
#                 Cambridge Crystallographic Data Centre
#                                CCDC
#
#######################################################################
#
# If this CIF has been generated from an entry in the Cambridge
# Structural Database, then it will include bibliographic, chemical,
# crystal, experimental, refinement or atomic coordinate data resulting
# from the CCDC's data processing and validation procedures.
#
#######################################################################

data_CSD_CIF_YODNEL
_audit_creation_date 2008-09-23
_audit_creation_method CSD-ConQuest-V1
_database_code_CSD YODNEL
_database_code_depnum_ccdc_archive 'CCDC 700601'
_chemical_formula_sum 'C11 H11 N3 O5'
_chemical_formula_moiety
;
C11 H11 N3 O5
;
_journal_coeditor_code "IUCr CS2083"
_journal_coden_Cambridge 1370
_journal_volume 64
_journal_year 2008
_journal_page_first o1608
_journal_name_full 'Acta Crystallogr.,Sect.E:Struct.Rep.Online '
loop_
_publ_author_name
"Yong-Hong Liu"
"Gui-You Sun"
"Jian-Feng Liu"
"Jun Ye"
"Xiao-Lan Liu"
_chemical_name_systematic
;
methyl 2-((E)-(4-nitrophenyl)hydrazono)-3-oxobutyrate
;
_chemical_melting_point 400
_cell_volume   1221.570
_exptl_crystal_colour 'yellow'
_exptl_crystal_density_diffrn 1.442
_exptl_crystal_description 'block'
_exptl_crystal_preparation 'dichloromethane'
_diffrn_ambient_temperature 296
#These two values have been output from a single CSD field.
_refine_ls_R_factor_gt 0.0416
_refine_ls_wR_factor_gt 0.0416
_symmetry_cell_setting orthorhombic
_symmetry_space_group_name_H-M 'P b c m'
_symmetry_Int_Tables_number 57
loop_
_symmetry_equiv_pos_site_id
_symmetry_equiv_pos_as_xyz
1 x,y,z
2 -x,-y,1/2+z
3 x,1/2-y,-z
4 -x,1/2+y,1/2-z
5 -x,-y,-z
6 x,y,-1/2-z
7 -x,-1/2+y,z
8 x,-1/2-y,-1/2+z
_cell_length_a 12.880(3)
_cell_length_b 14.299(3)
_cell_length_c 6.6328(14)
_cell_angle_alpha 90
_cell_angle_beta 90
_cell_angle_gamma 90
_cell_formula_units_Z 4
loop_
_atom_type_symbol
_atom_type_radius_bond
C 0.68
H 0.23
N 0.68
O 0.68
loop_
_atom_site_label
_atom_site_type_symbol
_atom_site_fract_x
_atom_site_fract_y
_atom_site_fract_z
O1 O 0.68298(15) 0.51128(12) 0.25000
O2 O 1.00596(16) 0.52888(14) 0.25000
O3 O 0.68240(17) -0.10594(13) 0.25000
O4 O 0.52310(17) -0.06963(13) 0.25000
N1 N 0.61352(18) -0.04820(14) 0.25000
N2 N 0.72021(14) 0.33126(12) 0.25000
H1 H 0.67210 0.37300 0.25000
N3 N 0.81817(14) 0.35582(13) 0.25000
C1 C 0.7757(2) 0.52229(16) 0.25000
C2 C 0.69506(16) 0.23623(15) 0.25000
C3 C 0.9648(2) 0.45339(18) 0.25000
C4 C 0.59053(17) 0.21060(14) 0.25000
H2 H 0.53920 0.25630 0.25000
C5 C 0.74469(18) 0.07505(15) 0.25000
H3 H 0.79570 0.02900 0.25000
C6 C 0.56352(18) 0.11723(15) 0.25000
H4 H 0.49410 0.09930 0.25000
O5 O 0.81917(15) 0.60575(12) 0.25000
C7 C 0.64146(18) 0.05094(15) 0.25000
C8 C 0.77167(17) 0.16807(15) 0.25000
H5 H 0.84130 0.18530 0.25000
C9 C 0.84922(18) 0.44293(16) 0.25000
C10 C 1.0288(2) 0.3663(2) 0.25000
H6? H 1.03180 0.34120 0.11580
H7? H 0.99800 0.32110 0.33870
H8? H 1.09780 0.38060 0.29540
C11 C 0.7477(3) 0.68338(19) 0.25000
H9? H 0.71530 0.68820 0.12010
H10? H 0.78470 0.74010 0.27880
H11? H 0.69550 0.67350 0.35110
#END
