
#######################################################################
#
#                 Cambridge Crystallographic Data Centre
#                                CCDC
#
#######################################################################
#
# If this CIF has been generated from an entry in the Cambridge
# Structural Database, then it will include bibliographic, chemical,
# crystal, experimental, refinement or atomic coordinate data resulting
# from the CCDC's data processing and validation procedures.
#
#######################################################################

data_CSD_CIF_YODZIA
_audit_creation_date 1995-11-27
_audit_creation_method CSD-ConQuest-V1
_database_code_CSD YODZIA
_chemical_formula_sum 'C8 H8 N6 O10'
_chemical_formula_moiety
;
C8 H8 N6 O10
;
_journal_coden_Cambridge 388
_journal_volume 29
_journal_year 1993
_journal_page_first 1231
_journal_name_full 'Zh.Org.Khim.(Russ.)(Russ.J.Org.Chem.) '
loop_
_publ_author_name
"T.D.Ladyzhnikova"
"K.V.Altukhov"
"D.V.Manuel"
_chemical_name_systematic
;
5-Methoxycarbonyl-2-methoxycarbonylmethyl-4-trinitromethyl-1,2,3-triazole
;
_chemical_melting_point 357.15
_cell_volume   1479.803
_exptl_crystal_density_diffrn 1.578
_exptl_special_details
;
Melting point range 357.15-358.15K

;
_diffrn_ambient_temperature ?
_diffrn_special_details
;
The study was carried out at room temperature,in the range 283-303K

;
#These two values have been output from a single CSD field.
_refine_ls_R_factor_gt 0.063
_refine_ls_wR_factor_gt 0.063
_symmetry_cell_setting monoclinic
_symmetry_space_group_name_H-M 'P 21/n'
_symmetry_Int_Tables_number 14
loop_
_symmetry_equiv_pos_site_id
_symmetry_equiv_pos_as_xyz
1 x,y,z
2 1/2-x,1/2+y,1/2-z
3 -x,-y,-z
4 -1/2+x,-1/2-y,-1/2+z
_cell_length_a 10.335
_cell_length_b 12.7642
_cell_length_c 11.558
_cell_angle_alpha 90
_cell_angle_beta 103.94
_cell_angle_gamma 90
_cell_formula_units_Z 4
loop_
_atom_type_symbol
_atom_type_radius_bond
C 0.68
N 0.68
O 0.68
loop_
_atom_site_label
_atom_site_type_symbol
_atom_site_fract_x
_atom_site_fract_y
_atom_site_fract_z
N1 N 0.1010(2) 0.9536(2) 0.3286(2)
N2 N 0.0494(2) 0.9777(2) 0.2149(2)
N3 N 0.1012(2) 0.9266(2) 0.1362(2)
C1 C 0.1945(3) 0.8657(2) 0.2032(2)
C2 C 0.1944(3) 0.8832(2) 0.3230(2)
C3 C 0.2744(3) 0.7896(2) 0.1526(2)
O1 O 0.3492(3) 0.7287(2) 0.2136(2)
O2 O 0.2500(2) 0.7973(2) 0.0360(2)
C4 C 0.3170(6) 0.7217(4) -0.0251(4)
C5 C 0.2721(3) 0.8322(2) 0.4333(2)
N4 N 0.4204(3) 0.8587(3) 0.4676(3)
O3 O 0.4647(3) 0.8977(3) 0.3911(3)
O4 O 0.4794(3) 0.8394(3) 0.5693(3)
N5 N 0.2589(3) 0.7107(2) 0.4260(2)
O5 O 0.1482(3) 0.6811(2) 0.3797(3)
O6 O 0.3562(3) 0.6589(2) 0.4667(2)
N6 N 0.2203(3) 0.8687(2) 0.5411(2)
O7 O 0.1550(3) 0.8068(3) 0.5819(3)
O8 O 0.2493(3) 0.9584(2) 0.5722(2)
C6 C -0.0712(3) 1.0403(2) 0.1789(3)
C7 C -0.1896(3) 0.9724(2) 0.1859(2)
O9 O -0.1824(2) 0.8825(2) 0.2179(2)
O10 O -0.3007(2) 1.0275(2) 0.1513(2)
C8 C -0.4217(5) 0.9718(5) 0.1591(5)
#END
