
#######################################################################
#
#                 Cambridge Crystallographic Data Centre
#                                CCDC
#
#######################################################################
#
# If this CIF has been generated from an entry in the Cambridge
# Structural Database, then it will include bibliographic, chemical,
# crystal, experimental, refinement or atomic coordinate data resulting
# from the CCDC's data processing and validation procedures.
#
#######################################################################

data_CSD_CIF_YOFVIA
_audit_creation_date 2014-04-04
_audit_creation_method CSD-ConQuest-V1
_database_code_CSD YOFVIA
_database_code_depnum_ccdc_archive 'CCDC 909650'
_chemical_formula_sum 'C22 H33 N4 O3'
_chemical_formula_moiety
;
C22 H33 N4 O3
;
_journal_coden_Cambridge 371
_journal_year 2013
_journal_page_first 264
_journal_name_full 'Khim.Prir.Soedin(Russ.)(Chem.Nat.Compd.) '
loop_
_publ_author_name
"Yu.F.Polienko"
"V.I.Vinogradova"
"Sh.Sh.Sagdullaev"
"N.D.Abdullaev"
"Yu.V.Gatilov"
"I.A.Grigor'ev"
_chemical_name_systematic
;
N-(1-oxyl-2,2,6,6-tetramethylpiperidin-4-yl)-2-(6-oxo-7,11-diazatricyclo[7.3.1
.0^2,7^]trideca-2,4-dien-11-yl)acetamide
;
_chemical_melting_point 445
_cell_volume   2178.586
_exptl_crystal_colour 'orange'
_exptl_crystal_density_diffrn 1.224
_exptl_crystal_description 'prism'
_diffrn_ambient_temperature 200
#These two values have been output from a single CSD field.
_refine_ls_R_factor_gt 0.0373
_refine_ls_wR_factor_gt 0.0373
_symmetry_cell_setting orthorhombic
_symmetry_space_group_name_H-M 'P 21 21 21'
_symmetry_Int_Tables_number 19
loop_
_symmetry_equiv_pos_site_id
_symmetry_equiv_pos_as_xyz
1 x,y,z
2 1/2-x,-y,1/2+z
3 -x,1/2+y,1/2-z
4 1/2+x,1/2-y,-z
_cell_length_a 9.1213(2)
_cell_length_b 14.4864(3)
_cell_length_c 16.4876(5)
_cell_angle_alpha 90
_cell_angle_beta 90
_cell_angle_gamma 90
_cell_formula_units_Z 4
loop_
_atom_type_symbol
_atom_type_radius_bond
C 0.68
H 0.23
N 0.68
O 0.68
loop_
_atom_site_label
_atom_site_type_symbol
_atom_site_fract_x
_atom_site_fract_y
_atom_site_fract_z
O1 O 1.03074(12) 0.33026(7) 0.93482(6)
O2 O 0.96907(16) 0.08077(8) 0.60335(7)
O3 O 0.43318(16) 0.29536(9) 0.70353(9)
C1 C 0.91026(15) 0.35826(9) 0.91316(7)
N1 N 0.44420(13) 0.40884(8) 0.79954(7)
N2 N 0.93761(13) 0.13947(7) 0.65895(6)
N3 N 0.84824(13) 0.33706(7) 0.84158(6)
H1 H 0.76130 0.36010 0.83030
N4 N 0.66773(12) 0.43063(7) 0.93838(6)
C2 C 0.92518(16) 0.23811(9) 0.63225(7)
C3 C 0.91876(14) 0.27763(8) 0.78199(7)
H2 H 1.02630 0.29100 0.78080
C4 C 0.85356(15) 0.29548(8) 0.69860(7)
H3 H 0.74740 0.28140 0.70010
H4 H 0.86480 0.36170 0.68530
C5 C 0.57523(16) 0.36195(11) 0.97858(8)
H5 H 0.57490 0.37380 1.03770
H6 H 0.61690 0.29970 0.96950
C6 C 0.89477(14) 0.17636(8) 0.80274(7)
H7 H 0.78830 0.16320 0.80230
H8 H 0.93130 0.16460 0.85830
C7 C 0.81972(15) 0.42355(9) 0.96515(7)
H9 H 0.82160 0.40170 1.02200
H10 H 0.86500 0.48560 0.96380
C8 C 0.48697(16) 0.56466(11) 0.76281(11)
H11 H 0.49930 0.62760 0.77750
C9 C 0.97179(14) 0.11045(9) 0.74391(8)
C10 C 1.07828(19) 0.27401(12) 0.61048(9)
H12 H 1.06960 0.33440 0.58420
H13 H 1.12610 0.23060 0.57340
H14 H 1.13700 0.28000 0.66000
C11 C 0.46110(15) 0.50002(9) 0.82104(10)
C12 C 0.41792(17) 0.36433(12) 0.94693(10)
H15 H 0.35830 0.32030 0.98000
C13 C 0.60702(17) 0.52309(9) 0.94692(9)
H16 H 0.67110 0.56820 0.91900
H17 H 0.60210 0.54000 1.00500
C14 C 0.45105(18) 0.37800(12) 0.71881(10)
C15 C 0.40725(19) 0.33532(11) 0.85885(10)
H18 H 0.47380 0.28230 0.84990
H19 H 0.30610 0.31390 0.84810
C16 C 0.8281(2) 0.23974(11) 0.55660(8)
H20 H 0.73200 0.21330 0.56960
H21 H 0.87430 0.20330 0.51350
H22 H 0.81570 0.30360 0.53820
C17 C 0.45321(18) 0.52588(11) 0.9099(1)
H23 H 0.41390 0.59010 0.91460
C18 C 0.4789(2) 0.44876(14) 0.65972(11)
H24 H 0.48590 0.43240 0.60410
C19 C 1.13833(16) 0.10871(11) 0.75648(9)
H25 H 1.18320 0.06720 0.71670
H26 H 1.16040 0.08670 0.81140
H27 H 1.17790 0.17110 0.74950
C20 C 0.35246(19) 0.46022(14) 0.95703(11)
H28 H 0.34900 0.47760 1.01510
H29 H 0.25170 0.46220 0.93480
C21 C 0.49535(19) 0.53831(13) 0.68168(12)
H30 H 0.51280 0.58370 0.64120
C22 C 0.91148(18) 0.01282(9) 0.75627(9)
H31 H 0.80630 0.01220 0.74420
H32 H 0.92710 -0.00620 0.81270
H33 H 0.96240 -0.03000 0.71990
#END
