
#######################################################################
#
#                 Cambridge Crystallographic Data Centre
#                                CCDC
#
#######################################################################
#
# If this CIF has been generated from an entry in the Cambridge
# Structural Database, then it will include bibliographic, chemical,
# crystal, experimental, refinement or atomic coordinate data resulting
# from the CCDC's data processing and validation procedures.
#
#######################################################################

data_CSD_CIF_YOFVOG
_audit_creation_date 2014-04-04
_audit_creation_method CSD-ConQuest-V1
_database_code_CSD YOFVOG
_database_code_depnum_ccdc_archive 'CCDC 905034'
_chemical_formula_sum 'C36 H50 N2 O7'
_chemical_formula_moiety
;
C36 H50 N2 O7
;
_journal_coden_Cambridge 371
_journal_year 2013
_journal_page_first 217
_journal_name_full 'Khim.Prir.Soedin(Russ.)(Chem.Nat.Compd.) '
loop_
_publ_author_name
"Yu.V.Yushkova"
"E.I.Chernyak"
"Yu.V.Polienko"
"Yu.V.Gatilov"
"S.V.Morozov"
"I.A.Grigorev"
_chemical_name_systematic
;
6-hydroxy-N-(1-(((6-hydroxy-2,5,7,8-tetramethyl-3,4-dihydro-2H-chromen-2-yl)ca
rbonyl)oxy)-2,2,5,5-tetramethylpyrrolidin-3-yl)-2,5,7,8-tetramethylchromane-2-
carboxamide
;
_chemical_melting_point 449
_cell_volume   1667.420
_exptl_crystal_colour 'colorless'
_exptl_crystal_density_diffrn 1.24
_exptl_crystal_description 'plate'
_exptl_crystal_preparation 'acetonitrile'
_diffrn_ambient_temperature 200
#These two values have been output from a single CSD field.
_refine_ls_R_factor_gt 0.0571
_refine_ls_wR_factor_gt 0.0571
_symmetry_cell_setting monoclinic
_symmetry_space_group_name_H-M 'P 21'
_symmetry_Int_Tables_number 4
loop_
_symmetry_equiv_pos_site_id
_symmetry_equiv_pos_as_xyz
1 x,y,z
2 -x,1/2+y,-z
_cell_length_a 12.307(5)
_cell_length_b 10.737(5)
_cell_length_c 13.738(5)
_cell_angle_alpha 90
_cell_angle_beta 113.29(2)
_cell_angle_gamma 90
_cell_formula_units_Z 2
loop_
_atom_type_symbol
_atom_type_radius_bond
C 0.68
H 0.23
N 0.68
O 0.68
loop_
_atom_site_label
_atom_site_type_symbol
_atom_site_fract_x
_atom_site_fract_y
_atom_site_fract_z
O1 O 0.8556(4) 0.6314(4) 0.5224(3)
C1 C 0.8777(6) 0.5036(6) 0.5560(5)
C2 C 1.0094(6) 0.4818(7) 0.6083(5)
H1 H 1.04500 0.49840 0.55640
H2 H 1.02420 0.39330 0.62980
C3 C 1.0688(6) 0.5640(6) 0.7051(5)
H3 H 1.05400 0.52970 0.76560
H4 H 1.15530 0.56450 0.72460
C4 C 1.0778(6) 0.7909(6) 0.7551(5)
C5 C 1.0312(6) 0.9107(6) 0.7348(5)
C6 C 0.9301(6) 0.9390(7) 0.6443(5)
C7 C 0.8720(6) 0.8428(7) 0.5746(5)
C8 C 0.9200(6) 0.7230(6) 0.5961(5)
C9 C 1.0222(6) 0.6947(6) 0.6831(5)
C10 C 0.8207(7) 0.4259(7) 0.4566(5)
H5 H 0.85970 0.44280 0.40810
H6 H 0.73660 0.44720 0.42190
H7 H 0.82880 0.33730 0.47540
C11 C 1.1877(6) 0.7660(7) 0.8533(5)
H8 H 1.21440 0.84360 0.89310
H9 H 1.25020 0.73380 0.83280
H10 H 1.17000 0.70450 0.89760
C12 C 0.8869(6) 1.0709(7) 0.6224(5)
H11 H 0.82740 1.07730 0.54970
H12 H 0.95350 1.12610 0.63110
H13 H 0.85160 1.09530 0.67220
C13 C 0.7584(6) 0.8651(7) 0.4793(5)
H14 H 0.73410 0.78810 0.43810
H15 H 0.77080 0.93050 0.43500
H16 H 0.69650 0.89130 0.50290
O2 O 1.0903(5) 1.0006(5) 0.8071(4)
H17 H 1.054(6) 1.069(4) 0.794(6)
C14 C 0.8170(6) 0.4719(7) 0.6318(5)
N1 N 0.7298(5) 0.5478(6) 0.6279(4)
H18 H 0.732(5) 0.618(3) 0.598(4)
C15 C 0.6672(6) 0.5343(7) 0.6996(5)
H19 H 0.69020 0.45390 0.73930
C16 C 0.5327(6) 0.5394(7) 0.6389(6)
H20 H 0.49360 0.48320 0.67220
H21 H 0.51080 0.51280 0.56460
C17 C 0.4933(6) 0.6747(7) 0.6425(5)
N2 N 0.6102(5) 0.7340(5) 0.7048(4)
C18 C 0.6931(6) 0.6421(7) 0.7772(5)
O3 O 0.5972(4) 0.8408(5) 0.7640(3)
C19 C 0.6189(6) 0.9504(8) 0.7271(6)
C20 C 0.6185(6) 1.0606(7) 0.7973(5)
O4 O 0.6039(4) 1.0219(4) 0.8896(3)
C21 C 0.6992(6) 0.9602(7) 0.9656(5)
C22 C 0.6723(6) 0.8903(7) 1.0380(5)
C23 C 0.7607(7) 0.8242(7) 1.1140(5)
C24 C 0.8739(6) 0.8268(7) 1.1129(5)
C25 C 0.9020(6) 0.8965(7) 1.0416(5)
C26 C 0.8121(6) 0.9669(7) 0.9676(5)
C27 C 0.8384(6) 1.0472(7) 0.8884(5)
H22 H 0.85480 0.99320 0.83730
H23 H 0.90960 1.09840 0.92610
C28 C 0.7330(7) 1.1322(7) 0.8286(5)
H24 H 0.73260 1.20330 0.87430
H25 H 0.74050 1.16560 0.76440
C29 C 0.5458(6) 0.8866(9) 1.0288(6)
H26 H 0.49670 0.93990 0.96990
H27 H 0.54250 0.91660 1.09490
H28 H 0.51640 0.80080 1.01550
C30 C 0.7377(7) 0.7466(8) 1.1950(6)
H29 H 0.70080 0.66770 1.16270
H30 H 0.68460 0.79180 1.22020
H31 H 0.81260 0.72960 1.25480
C31 C 1.0230(6) 0.8891(7) 1.0403(5)
H32 H 1.02670 0.94300 0.98410
H33 H 1.03960 0.80290 1.02700
H34 H 1.08190 0.91640 1.10890
C32 C 0.5135(7) 1.1430(7) 0.7379(6)
H35 H 0.51560 1.21650 0.78090
H36 H 0.44030 1.09650 0.72360
H37 H 0.51670 1.16930 0.67080
C33 C 0.4031(6) 0.6833(8) 0.6952(5)
H38 H 0.38520 0.77100 0.70220
H39 H 0.43670 0.64470 0.76550
H40 H 0.33020 0.63970 0.65120
C34 C 0.4419(6) 0.7370(8) 0.5333(5)
H41 H 0.49950 0.73220 0.50050
H42 H 0.42450 0.82460 0.54130
H43 H 0.36900 0.69430 0.48830
C35 C 0.6676(6) 0.6040(7) 0.8732(5)
H44 H 0.59210 0.55930 0.84930
H45 H 0.66320 0.67860 0.91270
H46 H 0.73110 0.54970 0.91930
C36 C 0.8174(6) 0.6959(7) 0.8150(5)
H47 H 0.82940 0.75520 0.87250
H48 H 0.82730 0.73870 0.75600
H49 H 0.87540 0.62840 0.84070
O5 O 0.6340(5) 0.9644(5) 0.6465(4)
O6 O 0.8447(4) 0.3781(4) 0.6877(4)
O7 O 0.9606(5) 0.7519(5) 1.1870(4)
H50 H 1.019(5) 0.798(6) 1.219(5)
H51? H 1.20860 0.67760 0.85590
H52? H 1.17290 0.78750 0.91620
H53? H 1.25310 0.81680 0.85140
H54? H 0.54030 0.83170 1.08360
H55? H 0.49460 0.85490 0.95870
H56? H 0.52060 0.97080 1.03800
#END
