
#######################################################################
#
#                 Cambridge Crystallographic Data Centre
#                                CCDC
#
#######################################################################
#
# If this CIF has been generated from an entry in the Cambridge
# Structural Database, then it will include bibliographic, chemical,
# crystal, experimental, refinement or atomic coordinate data resulting
# from the CCDC's data processing and validation procedures.
#
#######################################################################

data_CSD_CIF_YOHFAE
_audit_creation_date 2014-08-22
_audit_creation_method CSD-ConQuest-V1
_database_code_CSD YOHFAE
_database_code_depnum_ccdc_archive 'CCDC 1017641'
_chemical_formula_sum 'C8 H9 N1 O2'
_chemical_formula_moiety
;
C8 H9 N1 O2
;
_journal_coeditor_code "IUCr gz3272"
_journal_coden_Cambridge 1777
_journal_volume 70
_journal_year 2014
_journal_page_first 872
_journal_name_full 'Acta Crystallogr.,Sect.C:Cryst.Struct.Chem. '
loop_
_publ_author_name
"H.A.Sparkes"
"H.J.Sage"
"D.S.Yufit"
_chemical_name_systematic
;
2,4-dimethyl-1-nitrobenzene
;
_cell_volume    766.048
_exptl_crystal_colour 'colorless'
_exptl_crystal_density_diffrn 1.311
_exptl_crystal_description 'block'
_exptl_crystal_preparation 'in-situ crystallisation at 248K'
_diffrn_ambient_temperature 240
#These two values have been output from a single CSD field.
_refine_ls_R_factor_gt 0.0768
_refine_ls_wR_factor_gt 0.0768
_symmetry_cell_setting monoclinic
_symmetry_space_group_name_H-M 'P 21/c'
_symmetry_Int_Tables_number 14
loop_
_symmetry_equiv_pos_site_id
_symmetry_equiv_pos_as_xyz
1 x,y,z
2 -x,1/2+y,1/2-z
3 -x,-y,-z
4 x,-1/2-y,-1/2+z
_cell_length_a 11.693(4)
_cell_length_b 9.738(3)
_cell_length_c 7.018(1)
_cell_angle_alpha 90
_cell_angle_beta 106.54(2)
_cell_angle_gamma 90
_cell_formula_units_Z 4
loop_
_atom_type_symbol
_atom_type_radius_bond
C 0.68
H 0.23
N 0.68
O 0.68
loop_
_atom_site_label
_atom_site_type_symbol
_atom_site_fract_x
_atom_site_fract_y
_atom_site_fract_z
O1 O 0.8287(3) 0.4693(4) 0.5670(6)
O2 O 0.6397(4) 0.4692(4) 0.4495(6)
N1 N 0.7348(4) 0.5290(4) 0.5065(6)
C1 C 0.7338(4) 0.6810(4) 0.5029(6)
C2 C 0.8391(3) 0.7559(4) 0.5680(6)
C3 C 0.8255(3) 0.8982(4) 0.5585(6)
H1 H 0.89510 0.95310 0.60420
C4 C 0.7169(3) 0.9646(4) 0.4866(6)
C5 C 0.6155(4) 0.8839(5) 0.4221(6)
H2 H 0.53970 0.92610 0.37130
C6 C 0.6240(4) 0.7436(4) 0.4311(6)
H3 H 0.55400 0.68910 0.38770
C7 C 0.9632(4) 0.6996(5) 0.6481(8)
H4 H 0.96620 0.63820 0.76010
H5 H 1.01940 0.77550 0.69320
H6 H 0.98480 0.64830 0.54330
C8 C 0.7098(5) 1.1195(5) 0.4804(7)
H7 H 0.76550 1.15560 0.41160
H8 H 0.73090 1.15560 0.61640
H9 H 0.62840 1.14790 0.40940
#END
