
#######################################################################
#
#                 Cambridge Crystallographic Data Centre
#                                CCDC
#
#######################################################################
#
# If this CIF has been generated from an entry in the Cambridge
# Structural Database, then it will include bibliographic, chemical,
# crystal, experimental, refinement or atomic coordinate data resulting
# from the CCDC's data processing and validation procedures.
#
#######################################################################

data_CSD_CIF_YOHHUA
_audit_creation_date 2014-08-22
_audit_creation_method CSD-ConQuest-V1
_database_code_CSD YOHHUA
_database_code_depnum_ccdc_archive 'CCDC 1019755'
_chemical_formula_sum 'C28 H22 N2 O8'
_chemical_formula_moiety
;
C28 H22 N2 O8
;
_journal_coeditor_code "IUCr is5370"
_journal_coden_Cambridge 1370
_journal_volume 70
_journal_year 2014
_journal_page_first 138
_journal_name_full 'Acta Crystallogr.,Sect.E:Struct.Rep.Online '
loop_
_publ_author_name
"S.Mohri"
"S.Ohisa"
"K.Noguchi"
"N.Yonezawa"
"A.Okamoto"
_chemical_name_systematic
;
(2,7-Diethoxynaphthalene-1,8-diyl)bis((4-nitrophenyl)methanone)
;
_cell_volume   2479.909
_exptl_crystal_colour 'yellow'
_exptl_crystal_density_diffrn 1.378
_exptl_crystal_description 'block'
_diffrn_ambient_temperature 193
#These two values have been output from a single CSD field.
_refine_ls_R_factor_gt 0.0365
_refine_ls_wR_factor_gt 0.0365
_symmetry_cell_setting monoclinic
_symmetry_space_group_name_H-M 'C 2/c'
_symmetry_Int_Tables_number 15
loop_
_symmetry_equiv_pos_site_id
_symmetry_equiv_pos_as_xyz
1 x,y,z
2 -x,y,1/2-z
3 1/2+x,1/2+y,z
4 1/2-x,1/2+y,1/2-z
5 -x,-y,-z
6 x,-y,-1/2+z
7 -1/2-x,-1/2-y,-z
8 -1/2+x,-1/2-y,-1/2+z
_cell_length_a 23.5359(16)
_cell_length_b 10.2522(5)
_cell_length_c 10.3605(11)
_cell_angle_alpha 90
_cell_angle_beta 97.257(14)
_cell_angle_gamma 90
_cell_formula_units_Z 4
loop_
_atom_type_symbol
_atom_type_radius_bond
C 0.68
H 0.23
N 0.68
O 0.68
loop_
_atom_site_label
_atom_site_type_symbol
_atom_site_fract_x
_atom_site_fract_y
_atom_site_fract_z
O1 O 0.48373(3) 0.18553(8) 0.10345(8)
O2 O 0.60134(4) 0.37631(9) 0.01960(9)
O3 O 0.72391(7) -0.19473(16) 0.10952(14)
O4 O 0.76491(5) -0.08350(14) 0.27145(16)
N1 N 0.72522(6) -0.10377(14) 0.18632(14)
C1 C 0.53601(5) 0.37563(12) 0.16932(11)
C2 C 0.57104(5) 0.44716(13) 0.09761(11)
C3 C 0.57153(5) 0.58479(13) 0.10108(12)
H1 H 0.59620 0.63270 0.05280
C4 C 0.53620(5) 0.64790(13) 0.17435(12)
H2 H 0.53590 0.74060 0.17460
C5 C 0.50000 0.58029(16) 0.25000
C6 C 0.50000 0.44053(16) 0.25000
C7 C 0.53051(5) 0.23260(12) 0.14003(11)
C8 C 0.58275(5) 0.14797(11) 0.15282(11)
C9 C 0.63069(5) 0.17560(12) 0.24136(12)
H3 H 0.63130 0.25220 0.29320
C10 C 0.67737(5) 0.09281(13) 0.25474(13)
H4 H 0.70990 0.11020 0.31640
C11 C 0.67537(6) -0.01629(13) 0.17554(14)
C12 C 0.62879(6) -0.04532(13) 0.08520(14)
H5 H 0.62880 -0.12040 0.03140
C13 C 0.58214(6) 0.03741(13) 0.07495(13)
H6 H 0.54940 0.01870 0.01430
C14 C 0.64361(6) 0.43699(15) -0.04805(14)
H7 H 0.66980 0.49130 0.01210
H8 H 0.62520 0.49300 -0.11930
C15 C 0.67573(7) 0.32734(18) -0.10160(18)
H9 H 0.69520 0.27560 -0.02970
H10 H 0.70410 0.36310 -0.15350
H11 H 0.64880 0.27170 -0.15670
O1A O 0.51627(3) 0.18553(8) 0.39655(8)
O2A O 0.39866(4) 0.37631(9) 0.48040(9)
O3A O 0.27609(7) -0.19473(16) 0.39048(14)
O4A O 0.23509(5) -0.08350(14) 0.22855(16)
N1A N 0.27478(6) -0.10377(14) 0.31368(14)
C1A C 0.46399(5) 0.37563(12) 0.33068(11)
C2A C 0.42896(5) 0.44716(13) 0.40239(11)
C3A C 0.42847(5) 0.58479(13) 0.39892(12)
H1A H 0.40380 0.63270 0.44720
C4A C 0.46380(5) 0.64790(13) 0.32565(12)
H2A H 0.46410 0.74060 0.32540
C7A C 0.46949(5) 0.23260(12) 0.35997(11)
C8A C 0.41725(5) 0.14797(11) 0.34718(11)
C9A C 0.36931(5) 0.17560(12) 0.25864(12)
H3A H 0.36870 0.25220 0.20680
C10A C 0.32263(5) 0.09281(13) 0.24526(13)
H4A H 0.29010 0.11020 0.18360
C11A C 0.32463(6) -0.01629(13) 0.32446(14)
C12A C 0.37121(6) -0.04532(13) 0.41480(14)
H5A H 0.37120 -0.12040 0.46860
C13A C 0.41786(6) 0.03741(13) 0.42505(13)
H6A H 0.45060 0.01870 0.48570
C14A C 0.35639(6) 0.43699(15) 0.54805(14)
H7A H 0.33020 0.49130 0.48790
H8A H 0.37480 0.49300 0.61930
C15A C 0.32427(7) 0.32734(18) 0.60160(18)
H9A H 0.30480 0.27560 0.52970
H10A H 0.29590 0.36310 0.65350
H11A H 0.35120 0.27170 0.65670
#END
