
#######################################################################
#
#                 Cambridge Crystallographic Data Centre
#                                CCDC
#
#######################################################################
#
# If this CIF has been generated from an entry in the Cambridge
# Structural Database, then it will include bibliographic, chemical,
# crystal, experimental, refinement or atomic coordinate data resulting
# from the CCDC's data processing and validation procedures.
#
#######################################################################

data_CSD_CIF_YOHPES
_audit_creation_date 2014-08-22
_audit_creation_method CSD-ConQuest-V1
_database_code_CSD YOHPES
_database_code_depnum_ccdc_archive 'CCDC 1006711'
_chemical_formula_sum 'C23 H34 N2 O3'
_chemical_formula_moiety
;
C23 H34 N2 O3
;
_journal_coden_Cambridge 1220
_journal_volume 20
_journal_year 2014
_journal_page_first 12740
_journal_name_full 'Chem.-Eur.J. '
loop_
_publ_author_name
"Fan Xu"
"Lin Zhu"
"Shaobin Zhu"
"Xiaomei Yan"
"Hai-Chao Xu"
_chemical_name_systematic
;
1-phenyl-6-((2,2,6,6-tetramethylpiperidin-1-yl)oxy)-3-oxa-1-azaspiro[4.5]decan
-2-one
;
_cell_volume   2120.448
_exptl_crystal_colour 'colorless'
_exptl_crystal_density_diffrn 1.211
_diffrn_ambient_temperature 173
#These two values have been output from a single CSD field.
_refine_ls_R_factor_gt 0.047
_refine_ls_wR_factor_gt 0.047
_symmetry_cell_setting orthorhombic
_symmetry_space_group_name_H-M 'P 21 c n'
_symmetry_Int_Tables_number 33
loop_
_symmetry_equiv_pos_site_id
_symmetry_equiv_pos_as_xyz
1 x,y,z
2 1/2+x,-y,-z
3 1/2+x,1/2+y,1/2-z
4 x,1/2-y,1/2+z
_cell_length_a 9.025
_cell_length_b 12.747
_cell_length_c 18.432
_cell_angle_alpha 90
_cell_angle_beta 90
_cell_angle_gamma 90
_cell_formula_units_Z 4
loop_
_atom_type_symbol
_atom_type_radius_bond
C 0.68
H 0.23
N 0.68
O 0.68
loop_
_atom_site_label
_atom_site_type_symbol
_atom_site_fract_x
_atom_site_fract_y
_atom_site_fract_z
O1 O -0.2092(3) -0.37819(14) -0.35439(9)
O2 O -0.3123(3) -0.38975(16) -0.50898(12)
N1 N -0.2306(3) -0.23508(16) -0.46891(12)
N2 N -0.2006(4) -0.42665(16) -0.28209(11)
O3 O -0.4778(3) -0.2600(2) -0.49531(16)
C1 C 0.0654(4) -0.3971(3) -0.36844(17)
H1 H 0.08320 -0.40820 -0.31600
H2 H 0.04910 -0.46660 -0.39110
C2 C -0.0989(4) -0.3041(2) -0.45928(14)
C3 C -0.3513(5) -0.2900(3) -0.49073(18)
C4 C -0.2610(4) -0.5351(2) -0.29187(15)
C5 C -0.2427(4) -0.1298(2) -0.44120(15)
C6 C 0.0399(4) -0.2555(3) -0.49180(17)
H3 H 0.05970 -0.18740 -0.46790
H4 H 0.02340 -0.24200 -0.54410
C7 C -0.1641(5) -0.0490(2) -0.47281(17)
H5 H -0.10210 -0.06260 -0.51340
C8 C -0.1531(4) -0.3986(2) -0.50352(16)
H6 H -0.10780 -0.39810 -0.55240
H7 H -0.12570 -0.46480 -0.47900
C9 C -0.1529(5) -0.5993(2) -0.33652(18)
H8 H -0.15400 -0.57460 -0.38690
H9 H -0.18190 -0.67340 -0.33500
H10 H -0.05290 -0.59150 -0.31650
C10 C -0.0724(4) -0.3301(2) -0.37834(15)
H11 H -0.05840 -0.26290 -0.35120
C11 C 0.1743(4) -0.3266(3) -0.48275(17)
H12 H 0.26260 -0.29310 -0.50460
H13 H 0.15680 -0.39410 -0.50790
C12 C 0.2011(4) -0.3462(3) -0.40216(16)
H14 H 0.28820 -0.39260 -0.39590
H15 H 0.22220 -0.27880 -0.37740
C13 C -0.4130(5) -0.5423(3) -0.32868(18)
H16 H -0.49030 -0.52170 -0.29420
H17 H -0.43040 -0.61460 -0.34460
H18 H -0.41540 -0.49540 -0.37080
C14 C -0.3496(6) -0.5221(3) -0.16004(18)
H19 H -0.34110 -0.55600 -0.11190
H20 H -0.45590 -0.51820 -0.17300
C15 C -0.2835(4) -0.3562(2) -0.23077(15)
C16 C -0.2679(5) -0.5856(3) -0.21564(16)
H21 H -0.31620 -0.65510 -0.21980
H22 H -0.16540 -0.59730 -0.19830
C17 C -0.3368(5) -0.1084(2) -0.38422(18)
H23 H -0.39340 -0.16350 -0.36320
C18 C -0.4398(5) -0.3251(3) -0.2542(2)
H24 H -0.44290 -0.31730 -0.30700
H25 H -0.46680 -0.25850 -0.23120
H26 H -0.50990 -0.37970 -0.23920
C19 C -0.2844(6) -0.4127(3) -0.15711(17)
H27 H -0.18140 -0.41720 -0.13890
H28 H -0.34200 -0.37020 -0.12210
C20 C -0.1904(6) -0.2563(2) -0.22187(17)
H29 H -0.08620 -0.27540 -0.21480
H30 H -0.22570 -0.21680 -0.17970
H31 H -0.19980 -0.21290 -0.26550
C21 C -0.2677(6) 0.0722(3) -0.3875(2)
H32 H -0.27470 0.14120 -0.36830
C22 C -0.3497(6) -0.0074(3) -0.3573(2)
H33 H -0.41490 0.00680 -0.31810
C23 C -0.1756(6) 0.0526(2) -0.4454(2)
H34 H -0.12000 0.10800 -0.46660
#END
