
#######################################################################
#
#                 Cambridge Crystallographic Data Centre
#                                CCDC
#
#######################################################################
#
# If this CIF has been generated from an entry in the Cambridge
# Structural Database, then it will include bibliographic, chemical,
# crystal, experimental, refinement or atomic coordinate data resulting
# from the CCDC's data processing and validation procedures.
#
#######################################################################

data_CSD_CIF_YOKLIV
_audit_creation_date 2014-08-25
_audit_creation_method CSD-ConQuest-V1
_database_code_CSD YOKLIV
_database_code_depnum_ccdc_archive 'CCDC 906247'
_chemical_formula_sum 'C21 H23 N1 O4'
_chemical_formula_moiety
;
C21 H23 N1 O4
;
_journal_coden_Cambridge 179
_journal_volume 53
_journal_year 2014
_journal_page_first 7619
_journal_name_full 'Angew.Chem.,Int.Ed. '
loop_
_publ_author_name
"N.K.Rana"
"Huicai Huang"
"J.C.-G Zhao"
_chemical_name_systematic
;
2-(4-(hydroxymethyl)-2-nitro-3-phenylcyclohexyl)-1-phenylethanone
;
_cell_volume   1768.729
_exptl_crystal_colour 'colorless'
_exptl_crystal_density_diffrn 1.327
_exptl_crystal_description 'needle'
_diffrn_ambient_temperature 98
_refine_special_details
;
O4A and O4B disordered over two sites with occupancies 0.60:0.40.

;
#These two values have been output from a single CSD field.
_refine_ls_R_factor_gt 0.05
_refine_ls_wR_factor_gt 0.05
_symmetry_cell_setting monoclinic
_symmetry_space_group_name_H-M 'C 2'
_symmetry_Int_Tables_number 5
loop_
_symmetry_equiv_pos_site_id
_symmetry_equiv_pos_as_xyz
1 x,y,z
2 -x,y,-z
3 1/2+x,1/2+y,z
4 1/2-x,1/2+y,-z
_cell_length_a 20.369(6)
_cell_length_b 5.5606(15)
_cell_length_c 16.081(5)
_cell_angle_alpha 90
_cell_angle_beta 103.812(5)
_cell_angle_gamma 90
_cell_formula_units_Z 4
loop_
_atom_type_symbol
_atom_type_radius_bond
C 0.68
H 0.23
N 0.68
O 0.68
loop_
_atom_site_label
_atom_site_type_symbol
_atom_site_fract_x
_atom_site_fract_y
_atom_site_fract_z
C1 C 0.07186(12) 0.4543(5) 0.32064(14)
H1 H 0.04990 0.29670 0.31020
C2 C 0.11390(11) 0.4907(5) 0.25399(14)
H2 H 0.13580 0.64860 0.26320
C3 C 0.15976(11) 0.6440(5) 0.44088(14)
H3 H 0.16370 0.76980 0.40430
C4 C 0.07134(13) 0.4770(6) 0.16121(15)
H4 H 0.04900 0.31980 0.15240
C5 C 0.11569(11) 0.4550(5) 0.41129(14)
C6 C 0.01595(12) 0.6466(6) 0.30697(15)
H5 H 0.03720 0.80520 0.31780
C7 C 0.19811(12) 0.6458(5) 0.52529(14)
H6 H 0.22760 0.77240 0.54470
C8 C 0.11026(13) 0.2693(5) 0.46708(16)
H7 H 0.08100 0.14190 0.44800
C9 C 0.14846(14) 0.2729(5) 0.55155(15)
H8 H 0.14430 0.14870 0.58870
N1 N 0.16760(12) 0.2995(5) 0.26622(13)
C10 C 0.19232(13) 0.4599(5) 0.57999(15)
H9 H 0.21810 0.46100 0.63610
C11 C -0.02816(13) 0.6068(7) 0.36966(17)
H10 H -0.04970 0.45050 0.35980
H11 H -0.00060 0.61090 0.42790
C12 C 0.11407(13) 0.5081(6) 0.09502(16)
H12 H 0.09950 0.65310 0.06230
H13 H 0.16090 0.53050 0.12530
C13 C 0.01735(13) 0.6711(8) 0.15070(16)
H14 H -0.01110 0.66450 0.09300
H15 H 0.03890 0.82780 0.15870
O1 O -0.07787(11) 0.7891(5) 0.35836(15)
C14 C 0.14474(10) 0.3170(3) -0.03623(11)
C15 C 0.13526(12) 0.1273(3) -0.09416(14)
H16 H 0.10780 -0.00140 -0.08760
C16 C 0.16686(12) 0.1300(3) -0.16180(12)
H17 H 0.16050 0.00310 -0.20060
C17 C 0.20793(9) 0.3225(4) -0.17153(9)
H18 H 0.22910 0.32430 -0.21680
C18 C 0.21742(8) 0.5122(3) -0.1136(1)
H19 H 0.24490 0.64100 -0.12010
C19 C 0.18582(9) 0.5095(3) -0.04596(9)
H20 H 0.19220 0.63640 -0.00720
C20 C 0.1102(2) 0.3083(7) 0.0359(2)
O2 O 0.15107(13) 0.0896(4) 0.27157(12)
C21 C -0.02649(13) 0.6400(9) 0.21515(16)
H21 H -0.06000 0.76730 0.20700
H22 H -0.05020 0.48770 0.20490
O3 O 0.22557(11) 0.3619(5) 0.27018(19)
O4 O 0.10885(19) 0.1025(7) 0.0739(2)
H23 H -0.1136(18) 0.740(7) 0.381(2)
O5? O 0.0485(2) 0.1905(10) 0.0160(3)
#END
