
#######################################################################
#
#                 Cambridge Crystallographic Data Centre
#                                CCDC
#
#######################################################################
#
# If this CIF has been generated from an entry in the Cambridge
# Structural Database, then it will include bibliographic, chemical,
# crystal, experimental, refinement or atomic coordinate data resulting
# from the CCDC's data processing and validation procedures.
#
#######################################################################

data_CSD_CIF_YOKWIF
_audit_creation_date 2009-02-13
_audit_creation_method CSD-ConQuest-V1
_database_code_CSD YOKWIF
_database_code_depnum_ccdc_archive 'CCDC 688700'
_chemical_formula_sum 'C20 H31 N1 O6'
_chemical_formula_moiety
;
C20 H31 N1 O6
;
_journal_coden_Cambridge 179
_journal_volume 47
_journal_year 2008
_journal_page_first 7539
_journal_name_full 'Angew.Chem.,Int.Ed. '
loop_
_publ_author_name
"D.Enders"
"Chuan Wang"
"J.W.Bats"
_chemical_name_systematic
;
(2-(nitromethyl)-1-isopropylcyclopentyl)methyl 
4,7,7-trimethyl-3-oxo-2-oxabicyclo[2.2.1]heptane-1-carboxylate
;
_cell_volume    999.537
_exptl_crystal_colour 'colorless'
_exptl_crystal_density_diffrn 1.267
_exptl_crystal_description 'plate'
_diffrn_ambient_temperature 161
#These two values have been output from a single CSD field.
_refine_ls_R_factor_gt 0.0391
_refine_ls_wR_factor_gt 0.0391
_symmetry_cell_setting monoclinic
_symmetry_space_group_name_H-M 'P 21'
_symmetry_Int_Tables_number 4
loop_
_symmetry_equiv_pos_site_id
_symmetry_equiv_pos_as_xyz
1 x,y,z
2 -x,1/2+y,-z
_cell_length_a 6.3298(9)
_cell_length_b 11.183(3)
_cell_length_c 14.163(2)
_cell_angle_alpha 90
_cell_angle_beta 94.439(12)
_cell_angle_gamma 90
_cell_formula_units_Z 2
loop_
_atom_type_symbol
_atom_type_radius_bond
C 0.68
H 0.23
N 0.68
O 0.68
loop_
_atom_site_label
_atom_site_type_symbol
_atom_site_fract_x
_atom_site_fract_y
_atom_site_fract_z
O1 O 0.3881(2) 0.59869(12) 0.78123(10)
C1 C 0.2886(3) 0.39565(17) 0.82361(12)
O2 O -0.1799(2) 0.50959(16) 1.01650(11)
C2 C 0.1408(3) 0.39377(18) 0.73048(13)
H1 H 0.07570 0.47500 0.72280
O3 O 0.7192(2) 0.66898(16) 0.77602(13)
N1 N -0.0156(3) 0.56572(16) 1.01128(12)
C3 C 0.5307(3) 0.68315(18) 0.76537(13)
C4 C 0.1703(3) 0.42273(17) 0.91361(13)
H2 H 0.04040 0.37160 0.91120
C5 C 0.4206(3) 0.79727(17) 0.73239(13)
C6 C 0.1011(3) 0.55243(17) 0.92356(13)
H3 H 0.22690 0.60530 0.92760
H4 H 0.00790 0.57620 0.86730
O4 O 0.5820(2) 0.88985(14) 0.73014(11)
C7 C 0.3135(3) 0.80052(18) 0.62944(13)
O5 O 0.5933(3) 1.06710(17) 0.65558(16)
C8 C -0.0413(3) 0.3035(2) 0.73024(15)
H5 H -0.13890 0.31620 0.67400
H6 H -0.11730 0.31450 0.78730
H7 H 0.01590 0.22210 0.72920
C9 C 0.4724(3) 0.48296(17) 0.81422(14)
H8 H 0.55370 0.49260 0.87630
H9 H 0.56900 0.45110 0.76860
C10 C 0.3213(3) 0.3798(2) 0.99780(14)
H10 H 0.41050 0.44660 1.02370
H11 H 0.23970 0.34730 1.04890
C11 C 0.4597(3) 0.28118(19) 0.95739(15)
H12 H 0.61160 0.30270 0.96660
H13 H 0.43790 0.20390 0.98930
C12 C 0.2757(3) 0.93867(19) 0.63733(15)
C13 C 0.3888(3) 0.27256(17) 0.85134(14)
H14 H 0.28360 0.20770 0.83970
H15 H 0.51160 0.25620 0.81400
C14 C 0.2508(3) 0.84737(19) 0.79305(15)
H16 H 0.31420 0.87950 0.85390
H17 H 0.14400 0.78590 0.80570
C15 C 0.2653(4) 0.3710(2) 0.64322(15)
H18 H 0.16640 0.36550 0.58660
H19 H 0.34440 0.29600 0.65160
H20 H 0.36440 0.43710 0.63580
C16 C 0.4968(4) 0.9778(2) 0.67101(17)
C17 C 0.1099(3) 0.7276(2) 0.61358(15)
H21 H 0.14430 0.64220 0.61560
H22 H 0.03900 0.74760 0.55160
H23 H 0.01580 0.74630 0.66330
C18 C 0.1533(4) 0.9482(2) 0.72834(16)
H24 H 0.17530 1.02750 0.75870
H25 H -0.00040 0.93530 0.71360
O6 O 0.0586(3) 0.6315(2) 1.07364(14)
C19 C 0.1786(4) 1.0062(2) 0.55222(18)
H26 H 0.18790 1.09230 0.56460
H27 H 0.02950 0.98320 0.54020
H28 H 0.25530 0.98690 0.49670
C20 C 0.4667(4) 0.7669(3) 0.55564(16)
H29 H 0.50070 0.68160 0.56110
H30 H 0.59700 0.81390 0.56640
H31 H 0.40080 0.78360 0.49210
#END
