
#######################################################################
#
#                 Cambridge Crystallographic Data Centre
#                                CCDC
#
#######################################################################
#
# If this CIF has been generated from an entry in the Cambridge
# Structural Database, then it will include bibliographic, chemical,
# crystal, experimental, refinement or atomic coordinate data resulting
# from the CCDC's data processing and validation procedures.
#
#######################################################################

data_CSD_CIF_YOLXAY
_audit_creation_date 1995-12-04
_audit_creation_method CSD-ConQuest-V1
_database_code_CSD YOLXAY
_chemical_formula_sum 'C6 H14 N2 O2'
_chemical_formula_moiety
;
C6 H14 N2 O2
;
_journal_coden_Cambridge 95
_journal_year 1993
_journal_page_first 896
_journal_name_full 'Izv.Akad.Nauk SSSR,Ser.Khim.(Russ.)(Russ.Chem.Bull.) '
loop_
_publ_author_name
"D.G.Mazhukin"
"A.Ya.Tikhonov"
"L.B.Volodarskii"
"E.P.Konovalova"
"L.A.Tikhonova"
"I.Yu.Bagryanskaya"
"Yu.V.Gatilov"
_chemical_name_systematic
;
cis-1,2-bis(Hydroxylamino)cyclohexane
;
_chemical_melting_point 403.15
_cell_volume   1466.481
_exptl_special_details
;
Melting point range 403.15-406.15K

;
_diffrn_ambient_temperature ?
_diffrn_special_details
;
The study was carried out at room temperature,in the range 283-303K

;
#These two values have been output from a single CSD field.
_refine_ls_R_factor_gt 0.04
_refine_ls_wR_factor_gt 0.04
_symmetry_cell_setting monoclinic
_symmetry_space_group_name_H-M 'C 2/c'
_symmetry_Int_Tables_number 15
loop_
_symmetry_equiv_pos_site_id
_symmetry_equiv_pos_as_xyz
1 x,y,z
2 -x,y,1/2-z
3 1/2+x,1/2+y,z
4 1/2-x,1/2+y,1/2-z
5 -x,-y,-z
6 x,-y,-1/2+z
7 -1/2-x,-1/2-y,-z
8 -1/2+x,-1/2-y,-1/2+z
_cell_length_a 22.818
_cell_length_b 5.6478
_cell_length_c 11.455
_cell_angle_alpha 90
_cell_angle_beta 96.586
_cell_angle_gamma 90
_cell_formula_units_Z 8
loop_
_atom_type_symbol
_atom_type_radius_bond
C 0.68
N 0.68
O 0.68
loop_
_atom_site_label
_atom_site_type_symbol
_atom_site_fract_x
_atom_site_fract_y
_atom_site_fract_z
C1 C 0.1081(1) 0.2814(2) -0.0236(1)
C2 C 0.0990(1) 0.1649(2) 0.0934(1)
C3 C 0.1590(1) 0.1497(3) 0.1691(1)
C4 C 0.1915(1) 0.3862(3) 0.1832(1)
C5 C 0.1971(1) 0.5033(3) 0.0659(1)
C6 C 0.1366(1) 0.5245(3) -0.0059(1)
N1 N 0.0539(1) 0.2959(2) -0.1069(1)
N2 N 0.05820 0.2909(2) 0.1616(1)
O1 O 0.0714(1) 0.2567(2) -0.2235(1)
O2 O -0.00110 0.2592(2) 0.1022(1)
#END
