
#######################################################################
#
#                 Cambridge Crystallographic Data Centre
#                                CCDC
#
#######################################################################
#
# If this CIF has been generated from an entry in the Cambridge
# Structural Database, then it will include bibliographic, chemical,
# crystal, experimental, refinement or atomic coordinate data resulting
# from the CCDC's data processing and validation procedures.
#
#######################################################################

data_CSD_CIF_YOLXEC
_audit_creation_date 1995-12-04
_audit_creation_method CSD-ConQuest-V1
_database_code_CSD YOLXEC
_chemical_formula_sum 'C7 H16 N2 O2'
_chemical_formula_moiety
;
C7 H16 N2 O2
;
_journal_coden_Cambridge 95
_journal_year 1993
_journal_page_first 896
_journal_name_full 'Izv.Akad.Nauk SSSR,Ser.Khim.(Russ.)(Russ.Chem.Bull.) '
loop_
_publ_author_name
"D.G.Mazhukin"
"A.Ya.Tikhonov"
"L.B.Volodarskii"
"E.P.Konovalova"
"L.A.Tikhonova"
"I.Yu.Bagryanskaya"
"Yu.V.Gatilov"
_chemical_name_systematic
;
cis-1,2-bis(Hydroxylamino)cycloheptane
;
_chemical_melting_point 385.15
_cell_volume    527.501
_exptl_special_details
;
Melting point range 385.15-386.15K

;
_diffrn_ambient_temperature ?
_diffrn_special_details
;
The study was carried out at room temperature,in the range 283-303K

;
#These two values have been output from a single CSD field.
_refine_ls_R_factor_gt 0.04
_refine_ls_wR_factor_gt 0.04
_symmetry_cell_setting monoclinic
_symmetry_space_group_name_H-M 'P 21/c'
_symmetry_Int_Tables_number 14
loop_
_symmetry_equiv_pos_site_id
_symmetry_equiv_pos_as_xyz
1 x,y,z
2 -x,1/2+y,1/2-z
3 -x,-y,-z
4 x,-1/2-y,-1/2+z
_cell_length_a 13.182
_cell_length_b 3.424
_cell_length_c 11.745
_cell_angle_alpha 90
_cell_angle_beta 95.69
_cell_angle_gamma 90
_cell_formula_units_Z 4
loop_
_atom_type_symbol
_atom_type_radius_bond
C 0.68
N 0.68
O 0.68
loop_
_atom_site_label
_atom_site_type_symbol
_atom_site_fract_x
_atom_site_fract_y
_atom_site_fract_z
C1 C 0.8102(2) 0.8072(4) 0.3936(2)
C2 C 0.8370(2) 0.9737(5) 0.2955(2)
C3 C 0.7451(2) 1.1134(5) 0.2376(2)
C4 C 0.6416(2) 0.9853(6) 0.2271(2)
C5 C 0.5836(2) 1.0127(6) 0.3320(3)
C6 C 0.6263(2) 0.8706(6) 0.4371(3)
C7 C 0.7385(2) 0.9155(5) 0.4748(2)
N1 N 0.9034(1) 0.7193(3) 0.4610(2)
N2 N 0.9138(1) 1.1630(4) 0.3326(2)
O1 O 0.8819(1) 0.4872(3) 0.5143(1)
O2 O 1.0138(1) 1.0485(3) 0.3441(2)
#END
