
#######################################################################
#
#                 Cambridge Crystallographic Data Centre
#                                CCDC
#
#######################################################################
#
# If this CIF has been generated from an entry in the Cambridge
# Structural Database, then it will include bibliographic, chemical,
# crystal, experimental, refinement or atomic coordinate data resulting
# from the CCDC's data processing and validation procedures.
#
#######################################################################

data_CSD_CIF_YOLYIJ
_audit_creation_date 2014-08-26
_audit_creation_method CSD-ConQuest-V1
_database_code_CSD YOLYIJ
_database_code_depnum_ccdc_archive 'CCDC 1016218'
_chemical_formula_sum 'C24 H18 N2 O5'
_chemical_formula_moiety
;
C24 H18 N2 O5
;
_journal_coden_Cambridge 1500
_journal_volume 4
_journal_year 2014
_journal_page_first 38425
_journal_name_full 'RSC Advances '
loop_
_publ_author_name
"J.S.Kapure"
"C.N.Reddy"
"P.R.Adiyala"
"R.Nayak"
"V.Lakshma Nayak"
"J.B.Nanubolu"
"K.K.Singarapu"
"R.A.Maurya"
_chemical_name_systematic
;
2-(4-methoxybenzoyl)-3-(4-nitrophenyl)spiro[cyclopropane-1,3'-indol]-2'(1'H)-o
ne
;
_cell_volume   2033.712
_exptl_crystal_colour 'yellow'
_exptl_crystal_density_diffrn 1.353
_exptl_crystal_description 'block'
_diffrn_ambient_temperature 293
#These two values have been output from a single CSD field.
_refine_ls_R_factor_gt 0.0377
_refine_ls_wR_factor_gt 0.0377
_symmetry_cell_setting monoclinic
_symmetry_space_group_name_H-M 'P 21/n'
_symmetry_Int_Tables_number 14
loop_
_symmetry_equiv_pos_site_id
_symmetry_equiv_pos_as_xyz
1 x,y,z
2 1/2-x,1/2+y,1/2-z
3 -x,-y,-z
4 -1/2+x,-1/2-y,-1/2+z
_cell_length_a 10.2802(8)
_cell_length_b 11.3015(9)
_cell_length_c 18.0590(14)
_cell_angle_alpha 90
_cell_angle_beta 104.234(1)
_cell_angle_gamma 90
_cell_formula_units_Z 4
loop_
_atom_type_symbol
_atom_type_radius_bond
C 0.68
H 0.23
N 0.68
O 0.68
loop_
_atom_site_label
_atom_site_type_symbol
_atom_site_fract_x
_atom_site_fract_y
_atom_site_fract_z
O1 O 0.50394(11) 0.37031(9) 0.15954(7)
O2 O 0.95105(11) 0.6105(1) 0.16079(6)
C1 C 0.90059(14) 0.33918(12) 0.12947(8)
C2 C 0.77538(12) 0.48686(11) 0.28988(7)
N1 N 0.93381(13) 0.62498(11) 0.28484(7)
C3 C 0.47192(13) 0.57395(12) 0.13426(8)
C4 C 1.12322(14) 0.28431(13) 0.07765(8)
C5 C 0.79887(12) 0.48572(11) 0.21240(7)
C6 C 0.69239(13) 0.47055(12) 0.13634(8)
H1 H 0.70720 0.51600 0.09290
O3 O 1.31666(12) 0.17868(11) 0.08196(7)
C7 C 0.55014(13) 0.46319(12) 0.14295(8)
C8 C 0.86026(13) 0.57241(11) 0.33174(8)
C9 C 0.32402(15) 0.78148(13) 0.12939(9)
C10 C 0.90460(13) 0.57899(12) 0.21346(8)
N2 N 1.24575(13) 0.26098(12) 0.05261(7)
O4 O 0.26260(12) 0.88793(11) 0.12794(8)
C11 C 0.34343(14) 0.57259(13) 0.14682(8)
H2 H 0.30690 0.50090 0.15700
C12 C 0.69785(15) 0.41852(14) 0.32605(9)
H3 H 0.64200 0.35970 0.29960
C13 C 0.52336(14) 0.68238(13) 0.11783(8)
H4 H 0.60850 0.68540 0.10870
C14 C 0.78843(13) 0.37284(12) 0.16414(8)
H5 H 0.74890 0.30570 0.18510
C15 C 0.26919(14) 0.67446(14) 0.14451(9)
H6 H 0.18360 0.67170 0.15290
C16 C 1.11373(16) 0.24104(15) 0.14718(9)
H7 H 1.18150 0.19410 0.17640
C17 C 0.45053(15) 0.78459(13) 0.11492(9)
H8 H 0.48580 0.85600 0.10330
C18 C 0.86814(16) 0.59400(14) 0.40755(9)
H9 H 0.92500 0.65190 0.43440
C19 C 0.91044(16) 0.37597(14) 0.05824(8)
H10 H 0.84060 0.41920 0.02750
C20 C 1.00188(16) 0.26870(15) 0.17266(9)
H11 H 0.99400 0.23970 0.21960
O5 O 1.27119(14) 0.32497(14) 0.00376(8)
C21 C 0.78814(17) 0.52623(16) 0.44247(9)
H12 H 0.79030 0.53930 0.49360
C22 C 0.70526(16) 0.43960(16) 0.40245(9)
H13 H 0.65330 0.39450 0.42730
C23 C 1.02222(16) 0.34977(14) 0.03172(8)
H14 H 1.02900 0.37580 -0.01610
C24 C 0.1348(2) 0.8913(2) 0.1434(2)
H15 H 0.07500 0.83980 0.10860
H16 H 0.10070 0.97070 0.13720
H17 H 0.14170 0.86560 0.19490
H18 H 0.9874(18) 0.6819(16) 0.299(1)
#END
