
#######################################################################
#
#                 Cambridge Crystallographic Data Centre
#                                CCDC
#
#######################################################################
#
# If this CIF has been generated from an entry in the Cambridge
# Structural Database, then it will include bibliographic, chemical,
# crystal, experimental, refinement or atomic coordinate data resulting
# from the CCDC's data processing and validation procedures.
#
#######################################################################

data_CSD_CIF_YOMXAZ
_audit_creation_date 1996-01-03
_audit_creation_method CSD-ConQuest-V1
_database_code_CSD YOMXAZ
_database_code_depnum_ccdc_archive 'CCDC 1305159'
_chemical_formula_sum 'C24 H22 N4 O12'
_chemical_formula_moiety
;
C24 H22 N4 O12
;
_journal_coden_Cambridge 182
_journal_year 1995
_journal_page_first 649
_journal_name_full 'Chem.Commun. '
loop_
_publ_author_name
"A.G.M.Barrett"
"K.Kasdorf"
"A.J.P.White"
"D.J.Williams"
_chemical_name_systematic
;
(1R,2S)-1,2-bis((1S,2S)-2-Methylcyclopropyl)-1,2-ethanediyl 
3,5-dinitrobenzoate
;
_cell_volume   1249.915
_exptl_crystal_density_diffrn 1.484
_diffrn_ambient_temperature ?
_diffrn_special_details
;
The study was carried out at room temperature,in the range 283-303K

;
#These two values have been output from a single CSD field.
_refine_ls_R_factor_gt 0.0511
_refine_ls_wR_factor_gt 0.0511
loop_
_citation_database_id_CSD
_citation_special_details
WICXIP "is a stereoisomer of this entry"
_symmetry_cell_setting monoclinic
_symmetry_space_group_name_H-M 'P 21'
_symmetry_Int_Tables_number 4
loop_
_symmetry_equiv_pos_site_id
_symmetry_equiv_pos_as_xyz
1 x,y,z
2 -x,1/2+y,-z
_cell_length_a 7.303(6)
_cell_length_b 17.373(9)
_cell_length_c 10.167(8)
_cell_angle_alpha 90
_cell_angle_beta 104.31(2)
_cell_angle_gamma 90
_cell_formula_units_Z 2
loop_
_atom_type_symbol
_atom_type_radius_bond
C 0.68
H 0.23
N 0.68
O 0.68
loop_
_atom_site_label
_atom_site_type_symbol
_atom_site_fract_x
_atom_site_fract_y
_atom_site_fract_z
C1 C 0.3703(9) 0.30520 0.0086(6)
C2 C 0.3558(9) 0.3913(5) 0.0107(6)
C3 C 0.3792(10) 0.4361(6) -0.1111(7)
C4 C 0.5301(10) 0.4383(6) 0.0161(8)
C5 C 0.2627(12) 0.5070(6) -0.1602(8)
O1 O 0.4581(6) 0.2806(4) 0.1475(4)
C6 C 0.6121(9) 0.2370(5) 0.1656(7)
O2 O 0.6830(8) 0.2158(5) 0.0786(5)
C7 C 0.6783(8) 0.2121(5) 0.3106(6)
C8 C 0.8519(9) 0.1747(5) 0.3437(6)
C9 C 0.9237(9) 0.1511(5) 0.4766(6)
C10 C 0.8299(9) 0.1623(5) 0.5767(6)
C11 C 0.6566(9) 0.1990(5) 0.5382(7)
C12 C 0.5781(10) 0.2243(5) 0.4068(6)
N1 N 1.1089(9) 0.1129(5) 0.5110(6)
O3 O 1.1909(8) 0.1022(5) 0.4235(6)
O4 O 1.1705(8) 0.0924(6) 0.6290(5)
N2 N 0.5539(9) 0.2136(6) 0.6436(6)
O5 O 0.6183(10) 0.1886(7) 0.7546(5)
O6 O 0.4098(9) 0.2497(6) 0.6136(6)
C13 C 0.1838(9) 0.2619(4) -0.0330(6)
C14 C 0.2025(9) 0.1771(5) -0.0362(6)
C15 C 0.0454(10) 0.1252(6) -0.0224(7)
C16 C 0.2139(10) 0.1343(6) 0.0935(7)
C17 C 0.0126(11) 0.0498(6) -0.0979(8)
O7 O 0.0949(6) 0.2893(4) -0.1717(4)
C18 C -0.0444(10) 0.3394(5) -0.1889(7)
O8 O -0.1148(8) 0.3629(5) -0.1014(5)
C19 C -0.1110(9) 0.3658(5) -0.3322(6)
C20 C -0.2807(8) 0.4068(5) -0.3703(7)
C21 C -0.3447(8) 0.4293(5) -0.5022(6)
C22 C -0.2476(9) 0.4157(5) -0.5993(7)
C23 C -0.0781(9) 0.3756(5) -0.5608(6)
C24 C -0.0070(9) 0.3505(5) -0.4272(6)
N3 N -0.5243(9) 0.4724(5) -0.5409(7)
O9 O -0.6085(10) 0.4845(6) -0.4551(7)
O10 O -0.5775(9) 0.4931(6) -0.6575(6)
N4 N 0.0292(9) 0.3582(5) -0.6616(5)
O11 O -0.0398(10) 0.3766(6) -0.7768(6)
O12 O 0.1743(10) 0.3251(6) -0.6267(6)
H1 H 0.44910 0.29190 -0.05030
H2 H 0.26750 0.41180 0.05760
H3 H 0.40510 0.40520 -0.18270
H4 H 0.64470 0.41050 0.01930
H5 H 0.54650 0.48550 0.06690
H6 H 0.13320 0.49370 -0.19980
H7 H 0.31320 0.53450 -0.22510
H8 H 0.27030 0.53980 -0.08300
H9 H 0.92050 0.16570 0.27590
H10 H 0.88170 0.14480 0.66800
H11 H 0.45640 0.24870 0.38250
H12 H 0.10600 0.27570 0.02690
H13 H 0.27920 0.15760 -0.09300
H14 H -0.06630 0.15100 -0.01190
H15 H 0.20310 0.16390 0.17090
H16 H 0.29860 0.09120 0.11390
H17 H 0.11240 0.04200 -0.14260
H18 H -0.10510 0.05110 -0.16580
H19 H 0.01130 0.00840 -0.03560
H20 H -0.35140 0.41840 -0.30470
H21 H -0.29590 0.43270 -0.69120
H22 H 0.11120 0.32340 -0.40250
#END
