
#######################################################################
#
#                 Cambridge Crystallographic Data Centre
#                                CCDC
#
#######################################################################
#
# If this CIF has been generated from an entry in the Cambridge
# Structural Database, then it will include bibliographic, chemical,
# crystal, experimental, refinement or atomic coordinate data resulting
# from the CCDC's data processing and validation procedures.
#
#######################################################################

data_CSD_CIF_YONDEL
_audit_creation_date 2009-08-17
_audit_creation_method CSD-ConQuest-V1
_database_code_CSD YONDEL
_database_code_depnum_ccdc_archive 'CCDC 694742'
_chemical_formula_sum 'C10 H12 N2 O4'
_chemical_formula_moiety
;
C10 H12 N2 O4
;
_journal_coden_Cambridge 644
_journal_volume 63
_journal_year 2008
_journal_page_first 1402
_journal_name_full 'Z.Naturforsch.,B:Chem.Sci. '
loop_
_publ_author_name
"M.Simon"
"C.Csunderlik"
"P.G.Jones"
_chemical_name_systematic
;
4-Nitrophenyl isopropylcarbamate
;
_cell_volume   2158.301
_exptl_crystal_colour 'colorless'
_exptl_crystal_density_diffrn 1.38
_exptl_crystal_description 'tablet'
_exptl_crystal_preparation 'dichloromethane/n-hexane'
_diffrn_ambient_temperature 133
#These two values have been output from a single CSD field.
_refine_ls_R_factor_gt 0.0556
_refine_ls_wR_factor_gt 0.0556
_symmetry_cell_setting monoclinic
_symmetry_space_group_name_H-M 'C 2/c'
_symmetry_Int_Tables_number 15
loop_
_symmetry_equiv_pos_site_id
_symmetry_equiv_pos_as_xyz
1 x,y,z
2 -x,y,1/2-z
3 1/2+x,1/2+y,z
4 1/2-x,1/2+y,1/2-z
5 -x,-y,-z
6 x,-y,-1/2+z
7 -1/2-x,-1/2-y,-z
8 -1/2+x,-1/2-y,-1/2+z
_cell_length_a 21.429(5)
_cell_length_b 5.0431(11)
_cell_length_c 22.145(5)
_cell_angle_alpha 90
_cell_angle_beta 115.597(11)
_cell_angle_gamma 90
_cell_formula_units_Z 8
loop_
_atom_type_symbol
_atom_type_radius_bond
C 0.68
H 0.23
N 0.68
O 0.68
loop_
_atom_site_label
_atom_site_type_symbol
_atom_site_fract_x
_atom_site_fract_y
_atom_site_fract_z
C1 C 0.12249(7) 0.0425(2) 0.48164(6)
C2 C 0.13590(7) -0.1405(3) 0.38538(6)
H1 H 0.12930 0.04930 0.37090
C3 C 0.20967(9) -0.2206(4) 0.40075(9)
H2 H 0.24220 -0.10450 0.43570
H3 H 0.21690 -0.20410 0.36010
H4 H 0.21750 -0.40480 0.41640
C4 C 0.08310(9) -0.3071(3) 0.32922(7)
H5 H 0.08970 -0.49470 0.34200
H6 H 0.08930 -0.28170 0.28830
H7 H 0.03630 -0.25220 0.32120
C5 C 0.11356(7) 0.1632(2) 0.58056(6)
C6 C 0.17362(7) 0.2248(3) 0.63636(7)
H8 H 0.21560 0.13620 0.64450
C7 C 0.17197(7) 0.4169(3) 0.68032(7)
H9 H 0.21280 0.46320 0.71890
C8 C 0.10962(7) 0.5402(2) 0.66694(6)
C9 C 0.04917(7) 0.4803(3) 0.61122(7)
H10 H 0.00720 0.56950 0.60300
C10 C 0.05126(7) 0.2867(3) 0.56751(7)
H11 H 0.01040 0.23950 0.52910
N1 N 0.12427(6) -0.1642(2) 0.44579(5)
H12 H 0.1239(9) -0.323(3) 0.4621(8)
N2 N 0.10783(7) 0.7465(2) 0.71314(6)
O1 O 0.12546(7) 0.27543(18) 0.46938(5)
O2 O 0.11537(5) -0.03947(17) 0.53819(4)
O3 O 0.16175(6) 0.8005(2) 0.76233(5)
O4 O 0.05241(6) 0.8539(2) 0.70069(6)
#END
