
#######################################################################
#
#                 Cambridge Crystallographic Data Centre
#                                CCDC
#
#######################################################################
#
# If this CIF has been generated from an entry in the Cambridge
# Structural Database, then it will include bibliographic, chemical,
# crystal, experimental, refinement or atomic coordinate data resulting
# from the CCDC's data processing and validation procedures.
#
#######################################################################

data_CSD_CIF_YONDUB
_audit_creation_date 2009-08-17
_audit_creation_method CSD-ConQuest-V1
_database_code_CSD YONDUB
_database_code_depnum_ccdc_archive 'CCDC 694745'
_chemical_formula_sum 'C21 H18 N2 O4'
_chemical_formula_moiety
;
C21 H18 N2 O4
;
_journal_coden_Cambridge 644
_journal_volume 63
_journal_year 2008
_journal_page_first 1402
_journal_name_full 'Z.Naturforsch.,B:Chem.Sci. '
loop_
_publ_author_name
"M.Simon"
"C.Csunderlik"
"P.G.Jones"
_chemical_name_systematic
;
2-Nitrophenyl dibenzylcarbamate
;
_cell_volume   1760.835
_exptl_crystal_colour 'colorless'
_exptl_crystal_density_diffrn 1.367
_exptl_crystal_description 'tablet'
_exptl_crystal_preparation 'dichloromethane/n-hexane'
_diffrn_ambient_temperature 133
#These two values have been output from a single CSD field.
_refine_ls_R_factor_gt 0.0412
_refine_ls_wR_factor_gt 0.0412
_symmetry_cell_setting monoclinic
_symmetry_space_group_name_H-M 'P 21/c'
_symmetry_Int_Tables_number 14
loop_
_symmetry_equiv_pos_site_id
_symmetry_equiv_pos_as_xyz
1 x,y,z
2 -x,1/2+y,1/2-z
3 -x,-y,-z
4 x,-1/2-y,-1/2+z
_cell_length_a 11.3754(11)
_cell_length_b 18.8820(16)
_cell_length_c 8.4719(8)
_cell_angle_alpha 90
_cell_angle_beta 104.611(4)
_cell_angle_gamma 90
_cell_formula_units_Z 4
loop_
_atom_type_symbol
_atom_type_radius_bond
C 0.68
H 0.23
N 0.68
O 0.68
loop_
_atom_site_label
_atom_site_type_symbol
_atom_site_fract_x
_atom_site_fract_y
_atom_site_fract_z
C1 C 0.66637(10) 0.60227(6) 0.39439(14)
C2 C 0.72383(10) 0.50416(6) 0.26185(14)
C3 C 0.83078(10) 0.50246(6) 0.21056(14)
C4 C 0.83616(11) 0.46530(6) 0.07158(15)
H1 H 0.90930 0.46460 0.03690
C5 C 0.73522(12) 0.42936(7) -0.01655(15)
H2 H 0.73890 0.40380 -0.11170
C6 C 0.62873(12) 0.43063(7) 0.03386(16)
H3 H 0.55920 0.40590 -0.02660
C7 C 0.62345(11) 0.46788(7) 0.17211(16)
H4 H 0.55000 0.46860 0.20600
C8 C 0.70206(11) 0.58800(6) 0.69496(13)
H5 H 0.73780 0.54230 0.67370
H6 H 0.63060 0.57770 0.73790
C9 C 0.79439(10) 0.62860(6) 0.82133(13)
C10 C 0.90631(11) 0.64613(6) 0.79396(14)
H7 H 0.92420 0.63330 0.69410
C11 C 0.99194(11) 0.68231(6) 0.91178(15)
H8 H 1.06810 0.69440 0.89220
C12 C 0.96684(11) 0.70094(7) 1.05789(15)
H9 H 1.02610 0.72520 1.13890
C13 C 0.85565(11) 0.68423(7) 1.08594(15)
H10 H 0.83800 0.69750 1.18560
C14 C 0.76968(11) 0.64795(6) 0.96808(14)
H11 H 0.69340 0.63630 0.98790
C15 C 0.59914(10) 0.69444(6) 0.54759(14)
H12 H 0.60290 0.72350 0.45170
H13 H 0.64210 0.72060 0.64660
C16 C 0.4673(1) 0.68528(6) 0.55022(13)
C17 C 0.41496(11) 0.73243(6) 0.63854(15)
H14 H 0.46280 0.76940 0.69850
C18 C 0.29386(11) 0.72616(7) 0.64026(17)
H15 H 0.25970 0.75830 0.70260
C19 C 0.22266(11) 0.67324(7) 0.55164(15)
H16 H 0.13950 0.66930 0.55200
C20 C 0.27328(11) 0.62610(6) 0.46251(14)
H17 H 0.22470 0.58970 0.40120
C21 C 0.39494(11) 0.63188(6) 0.46247(14)
H18 H 0.42920 0.59900 0.40180
N1 N 0.66226(8) 0.62743(5) 0.54082(11)
N2 N 0.94156(10) 0.53895(6) 0.29926(13)
O1 O 0.62975(7) 0.63215(4) 0.26428(10)
O2 O 0.71646(8) 0.53568(4) 0.40675(10)
O3 O 0.93655(9) 0.57973(6) 0.40936(12)
O4 O 1.03452(9) 0.52736(6) 0.25508(14)
#END
