
#######################################################################
#
#                 Cambridge Crystallographic Data Centre
#                                CCDC
#
#######################################################################
#
# If this CIF has been generated from an entry in the Cambridge
# Structural Database, then it will include bibliographic, chemical,
# crystal, experimental, refinement or atomic coordinate data resulting
# from the CCDC's data processing and validation procedures.
#
#######################################################################

data_CSD_CIF_YONPEW
_audit_creation_date 1996-01-18
_audit_creation_method CSD-ConQuest-V1
_database_code_CSD YONPEW
_chemical_formula_sum 'C25 H30 N2 O7'
_chemical_formula_moiety
;
C25 H30 N2 O7
;
_journal_coden_Cambridge 151
_journal_volume 38
_journal_year 1995
_journal_page_first 686
_journal_name_full 'J.Med.Chem. '
loop_
_publ_author_name
"A.W.Faull"
"A.G.Brewster"
"G.R.Brown"
"M.J.Smithers"
"R.Jackson"
_chemical_name_systematic
;
4(Z)-6-((2S,4S,5R)-(2-(1-Methyl)-1-(2-nitro-4-methylphenoxy)ethyl)-4-(3-pyridy
l)-dioxan-5-yl)hex-4-enoic acid
;
_chemical_melting_point 386.15
_cell_volume   2447.247
_exptl_crystal_colour 'white'
_exptl_crystal_density_diffrn 1.274
_exptl_special_details
;
Melting point range 386.15-388.15K
potent thromboxane synthase inhibitor and weak thromboxane antagonist 
;
_diffrn_ambient_temperature ?
_diffrn_special_details
;
The study was carried out at room temperature,in the range 283-303K

;
#These two values have been output from a single CSD field.
_refine_ls_R_factor_gt 0.108
_refine_ls_wR_factor_gt 0.108
_symmetry_cell_setting orthorhombic
_symmetry_space_group_name_H-M 'P 21 21 21'
_symmetry_Int_Tables_number 19
loop_
_symmetry_equiv_pos_site_id
_symmetry_equiv_pos_as_xyz
1 x,y,z
2 1/2-x,-y,1/2+z
3 1/2+x,1/2-y,-z
4 -x,1/2+y,1/2-z
_cell_length_a 11.456(3)
_cell_length_b 11.477(3)
_cell_length_c 18.613(4)
_cell_angle_alpha 90
_cell_angle_beta 90
_cell_angle_gamma 90
_cell_formula_units_Z 4
loop_
_atom_type_symbol
_atom_type_radius_bond
C 0.68
H 0.23
N 0.68
O 0.68
loop_
_atom_site_label
_atom_site_type_symbol
_atom_site_fract_x
_atom_site_fract_y
_atom_site_fract_z
O1 O 0.1439(10) 0.0029(10) 0.0633(6)
O2 O 0.2235(12) -0.0633(12) 0.1614(7)
O3 O -0.4140(21) -0.0371(17) 0.0952(8)
O4 O -0.2840(17) -0.1019(14) 0.1514(9)
O5 O -0.0182(9) 0.3008(8) 0.1941(5)
C1 C -0.1282(13) 0.3410(13) 0.1697(8)
O6 O -0.1144(8) 0.4326(9) 0.1175(5)
C2 C -0.0548(13) 0.5307(13) 0.1492(8)
C3 C 0.0702(14) 0.4968(13) 0.1748(8)
C4 C 0.0461(14) 0.3929(12) 0.2280(8)
C5 C -0.3069(15) 0.2773(14) 0.0966(8)
C6 C -0.1908(15) 0.2420(14) 0.1269(8)
C7 C -0.1069(13) 0.1891(12) 0.0710(8)
O7 O -0.2051(9) 0.1469(9) 0.1817(5)
N1 N 0.0056(13) 0.8212(11) 0.0605(7)
C8 C 0.0097(15) 0.7303(13) 0.1077(8)
C9 C -0.0614(14) 0.6308(14) 0.0985(8)
C10 C -0.1398(14) 0.6324(14) 0.0419(8)
C11 C -0.1480(16) 0.7284(17) -0.0024(9)
C12 C -0.0724(16) 0.8220(15) 0.0106(9)
C13 C 0.218(2) 0.0067(21) 0.1108(13)
C14 C 0.2905(20) 0.1204(18) 0.1062(11)
C15 C 0.2407(22) 0.2067(20) 0.1421(13)
C16 C 0.3094(17) 0.3260(17) 0.1396(9)
C17 C 0.2648(16) 0.4276(16) 0.1309(9)
C18 C 0.1412(13) 0.4566(14) 0.1081(8)
N2 N -0.3562(17) -0.0341(15) 0.1448(9)
C19 C -0.3075(10) 0.1380(8) 0.2187(5)
C20 C -0.3816(10) 0.0458(8) 0.2013(5)
C21 C -0.4858(10) 0.0303(8) 0.2388(5)
C22 C -0.516(1) 0.1071(8) 0.2939(5)
C23 C -0.4419(10) 0.1993(8) 0.3114(5)
C24 C -0.3377(10) 0.2147(8) 0.2738(5)
C25 C -0.6322(18) 0.0934(17) 0.3403(10)
H1 H -0.17640 0.36980 0.21630
H2 H -0.09540 0.55890 0.19850
H3 H 0.11980 0.56550 0.20000
H4 H -0.00640 0.42520 0.27190
H5 H 0.12800 0.36030 0.24860
H6 H -0.29540 0.34550 0.05720
H7 H -0.36200 0.30860 0.13960
H8 H -0.34740 0.20270 0.07150
H9 H -0.09040 0.25150 0.02880
H10 H -0.14530 0.11150 0.04830
H11 H -0.02570 0.16690 0.09710
H12 H 0.06900 0.73470 0.15270
H13 H -0.19440 0.55730 0.03240
H14 H -0.21370 0.73340 -0.04390
H15 H -0.07540 0.89620 -0.02500
H16 H 0.29160 0.14840 0.05080
H17 H 0.37870 0.10480 0.12420
H18 H 0.15130 0.21910 0.12540
H19 H 0.24260 0.17910 0.19760
H20 H 0.40330 0.32260 0.14440
H21 H 0.32240 0.50060 0.14010
H22 H 0.14230 0.52520 0.06840
H23 H 0.10150 0.37960 0.08540
H24 H -0.54380 -0.03840 0.22720
H25 H -0.45910 0.26260 0.35320
H26 H -0.27530 0.28630 0.28490
H27 H -0.68050 0.01880 0.32120
H28 H -0.68410 0.17110 0.33340
H29 H -0.61190 0.08200 0.39660
#END
