
#######################################################################
#
#                 Cambridge Crystallographic Data Centre
#                                CCDC
#
#######################################################################
#
# If this CIF has been generated from an entry in the Cambridge
# Structural Database, then it will include bibliographic, chemical,
# crystal, experimental, refinement or atomic coordinate data resulting
# from the CCDC's data processing and validation procedures.
#
#######################################################################

data_CSD_CIF_YONTOL
_audit_creation_date 2009-08-17
_audit_creation_method CSD-ConQuest-V1
_database_code_CSD YONTOL
_database_code_depnum_ccdc_archive 'CCDC 711614 (not 661282 as published)'
_chemical_formula_sum 'C28 H23 N1 O3'
_chemical_formula_moiety
;
C28 H23 N1 O3
;
_journal_coden_Cambridge 179
_journal_volume 48
_journal_year 2009
_journal_page_first 1447
_journal_name_full 'Angew.Chem.,Int.Ed. '
loop_
_publ_author_name
"K.M.Gericke"
"D.I.Chai"
"N.Bieler"
"M.Lautens"
_chemical_name_systematic
;
(7E)-7-(2,3-dihydrophenanthren-4(1H)-ylidene)-4-nitro-2,2a,7,7a,8,8a-hexahydro
-1aH-2,8-methanofluoreno[2,3-b]oxirene
;
_chemical_name_common
;
9-(2,3-Dihydro-4(1H)-phenanthrenylidene)-5-nitro-13-oxapentacyclo[9.3.1.0$2,10
!.0$3,8!.0$12,14!]pentadeca-3,5,7-triene
;
_chemical_melting_point 536.15
_cell_volume   2073.652
_exptl_crystal_colour 'yellow'
_exptl_crystal_density_diffrn 1.35
_exptl_special_details
;
Melting point range 536.15-538.15K

;
_exptl_crystal_description 'needle'
_diffrn_ambient_temperature 150
#These two values have been output from a single CSD field.
_refine_ls_R_factor_gt 0.0514
_refine_ls_wR_factor_gt 0.0514
_symmetry_cell_setting monoclinic
_symmetry_space_group_name_H-M 'P 21/n'
_symmetry_Int_Tables_number 14
loop_
_symmetry_equiv_pos_site_id
_symmetry_equiv_pos_as_xyz
1 x,y,z
2 1/2-x,1/2+y,1/2-z
3 -x,-y,-z
4 -1/2+x,-1/2-y,-1/2+z
_cell_length_a 15.2962(10)
_cell_length_b 9.9891(3)
_cell_length_c 15.3941(11)
_cell_angle_alpha 90
_cell_angle_beta 118.164(2)
_cell_angle_gamma 90
_cell_formula_units_Z 4
loop_
_atom_type_symbol
_atom_type_radius_bond
C 0.68
H 0.23
N 0.68
O 0.68
loop_
_atom_site_label
_atom_site_type_symbol
_atom_site_fract_x
_atom_site_fract_y
_atom_site_fract_z
O1 O 0.58019(12) 1.02496(13) 0.83161(12)
O2 O 0.56555(13) 0.17227(15) 0.58811(13)
O3 O 0.68633(14) 0.31195(17) 0.66250(14)
N1 N 0.59799(16) 0.28417(19) 0.62089(15)
C1 C 0.49610(18) 1.0071(2) 0.73544(18)
H1 H 0.46940 1.08490 0.68940
C2 C 0.59258(17) 0.9502(2) 0.75811(17)
H2 H 0.63180 0.98900 0.72750
C3 C 0.57917(16) 0.79983(19) 0.75861(17)
H3 H 0.64140 0.74630 0.79470
C4 C 0.51437(15) 0.76458(19) 0.64861(16)
H4 H 0.54170 0.80520 0.60710
C5 C 0.41098(15) 0.82543(19) 0.62344(16)
H5 H 0.39060 0.89520 0.57090
C6 C 0.42997(17) 0.88746(19) 0.72331(17)
H6 H 0.36960 0.90620 0.73070
C7 C 0.50368(16) 0.7873(2) 0.79674(17)
H7 H 0.53050 0.81700 0.86600
H8 H 0.47580 0.69600 0.78870
C8 C 0.49335(16) 0.61775(19) 0.62693(16)
C9 C 0.56114(17) 0.5190(2) 0.63702(16)
H9 H 0.62950 0.53930 0.66190
C10 C 0.52639(17) 0.3902(2) 0.60979(16)
C11 C 0.42705(18) 0.3572(2) 0.57065(17)
H10 H 0.40540 0.26800 0.55060
C12 C 0.35976(17) 0.45616(19) 0.56120(17)
H11 H 0.29130 0.43530 0.53390
C13 C 0.39258(16) 0.58703(19) 0.59191(15)
C14 C 0.33744(15) 0.70892(19) 0.59078(15)
C15 C 0.24232(16) 0.71593(18) 0.57446(15)
C16 C 0.18244(16) 0.59191(19) 0.57107(17)
H12 H 0.15300 0.55290 0.50410
H13 H 0.22770 0.52440 0.61760
C17 C 0.09970(17) 0.6213(2) 0.59713(18)
H14 H 0.03940 0.64990 0.53720
H15 H 0.08360 0.53890 0.62230
C18 C 0.13104(18) 0.7311(2) 0.67496(18)
H16 H 0.07890 0.74540 0.69480
H17 H 0.19320 0.70560 0.73400
C19 C 0.14644(16) 0.8566(2) 0.62991(17)
C20 C 0.10828(17) 0.9811(2) 0.63950(18)
H18 H 0.07740 0.98800 0.68030
C21 C 0.11504(18) 1.0915(2) 0.59101(18)
H19 H 0.09220 1.17530 0.60150
C22 C 0.15528(16) 1.08381(19) 0.52561(17)
C23 C 0.15459(17) 1.1938(2) 0.46753(19)
H20 H 0.12910 1.27730 0.47500
C24 C 0.18931(17) 1.1836(2) 0.40148(18)
H21 H 0.18860 1.25930 0.36390
C25 C 0.22635(17) 1.0602(2) 0.38884(17)
H22 H 0.25010 1.05260 0.34210
C26 C 0.22835(16) 0.9515(2) 0.44341(16)
H23 H 0.25320 0.86900 0.43350
C27 C 0.19449(15) 0.95848(19) 0.51435(16)
C28 C 0.19436(16) 0.84592(19) 0.57331(16)
#END
