
#######################################################################
#
#                 Cambridge Crystallographic Data Centre
#                                CCDC
#
#######################################################################
#
# If this CIF has been generated from an entry in the Cambridge
# Structural Database, then it will include bibliographic, chemical,
# crystal, experimental, refinement or atomic coordinate data resulting
# from the CCDC's data processing and validation procedures.
#
#######################################################################

data_CSD_CIF_YONTUR
_audit_creation_date 2009-08-17
_audit_creation_method CSD-ConQuest-V1
_database_code_CSD YONTUR
_database_code_depnum_ccdc_archive 'CCDC 711735 (not 661282 as published)'
_chemical_formula_sum 'C25 H25 N1 O2'
_chemical_formula_moiety
;
C25 H25 N1 O2
;
_journal_coden_Cambridge 179
_journal_volume 48
_journal_year 2009
_journal_page_first 1447
_journal_name_full 'Angew.Chem.,Int.Ed. '
loop_
_publ_author_name
"K.M.Gericke"
"D.I.Chai"
"N.Bieler"
"M.Lautens"
_chemical_name_systematic
;
9-(8-Methyl-3,4-dihydro-1(2H)-naphthalenylidene)-5-nitrotetracyclo[9.2.1.0^2,1
0^.0^3,8^]tetradeca-3,5,7-triene
;
_cell_volume   1939.996
_exptl_crystal_colour 'yellow'
_exptl_crystal_density_diffrn 1.272
_exptl_crystal_description 'needle'
_diffrn_ambient_temperature 150
#These two values have been output from a single CSD field.
_refine_ls_R_factor_gt 0.0588
_refine_ls_wR_factor_gt 0.0588
_symmetry_cell_setting monoclinic
_symmetry_space_group_name_H-M 'P 21/c'
_symmetry_Int_Tables_number 14
loop_
_symmetry_equiv_pos_site_id
_symmetry_equiv_pos_as_xyz
1 x,y,z
2 -x,1/2+y,1/2-z
3 -x,-y,-z
4 x,-1/2-y,-1/2+z
_cell_length_a 12.3320(7)
_cell_length_b 12.7841(9)
_cell_length_c 13.6455(6)
_cell_angle_alpha 90
_cell_angle_beta 115.605(3)
_cell_angle_gamma 90
_cell_formula_units_Z 4
loop_
_atom_type_symbol
_atom_type_radius_bond
C 0.68
H 0.23
N 0.68
O 0.68
loop_
_atom_site_label
_atom_site_type_symbol
_atom_site_fract_x
_atom_site_fract_y
_atom_site_fract_z
O1 O 0.20043(17) 0.68497(14) 0.04292(15)
O2 O 0.38182(16) 0.67057(13) 0.16909(14)
N1 N 0.28037(19) 0.63515(15) 0.11423(16)
C1 C 0.21265(19) 0.32249(17) 0.17133(17)
C2 C 0.31013(19) 0.37828(18) 0.24916(17)
C3 C 0.3873(2) 0.31238(17) 0.34444(17)
H1 H 0.47230 0.31030 0.35370
C4 C 0.3815(2) 0.34055(18) 0.45189(17)
H2 H 0.38630 0.41720 0.46790
C5 C 0.4746(2) 0.27439(19) 0.54208(18)
H3 H 0.48450 0.29790 0.61460
H4 H 0.55360 0.27700 0.53950
C6 C 0.4191(2) 0.16268(19) 0.51555(18)
H5 H 0.47200 0.11420 0.49950
H6 H 0.40530 0.13420 0.57670
C7 C 0.2995(2) 0.17986(18) 0.41454(17)
H7 H 0.23790 0.12410 0.40160
C8 C 0.3281(2) 0.20211(18) 0.31707(17)
H8 H 0.38490 0.14890 0.31210
C9 C 0.21609(19) 0.21331(17) 0.20838(16)
C10 C 0.2635(2) 0.28892(19) 0.43751(18)
H9 H 0.19250 0.31770 0.37530
H10 H 0.25080 0.29120 0.50440
C11 C 0.1340(2) 0.13642(18) 0.16201(17)
C12 C 0.00832(19) 0.15677(18) 0.07202(18)
H11 H 0.00910 0.14520 0.00060
H12 H -0.01350 0.23080 0.07530
C13 C -0.0876(2) 0.08548(18) 0.08137(18)
H13 H -0.16500 0.12350 0.05530
H14 H -0.09970 0.02290 0.03510
C14 C -0.0484(2) 0.05160(19) 0.19933(19)
H15 H -0.03140 0.11370 0.24710
H16 H -0.11270 0.01020 0.20600
C15 C 0.0629(2) -0.01340(18) 0.23114(17)
C16 C 0.0755(2) -0.11150(19) 0.27631(18)
H17 H 0.01510 -0.13830 0.29510
C17 C 0.1765(2) -0.1714(2) 0.2945(2)
H18 H 0.18700 -0.23790 0.32850
C18 C 0.2613(2) -0.13397(19) 0.26294(19)
H19 H 0.32830 -0.17670 0.27270
C19 C 0.2514(2) -0.03540(18) 0.21722(17)
C20 C 0.15357(19) 0.02774(17) 0.20516(16)
C21 C 0.3440(2) -0.00426(19) 0.1777(2)
H20 H 0.31750 0.05950 0.13380
H21 H 0.35320 -0.06080 0.13330
H22 H 0.42120 0.00870 0.24020
C22 C 0.1374(2) 0.37221(18) 0.07464(17)
H23 H 0.07180 0.33520 0.02100
C23 C 0.1582(2) 0.47562(18) 0.05659(18)
H24 H 0.10690 0.50990 -0.00890
C24 C 0.2550(2) 0.52815(17) 0.13570(17)
C25 C 0.3310(2) 0.48137(18) 0.23220(17)
H25 H 0.39600 0.51910 0.28560
#END
