
#######################################################################
#
#                 Cambridge Crystallographic Data Centre
#                                CCDC
#
#######################################################################
#
# If this CIF has been generated from an entry in the Cambridge
# Structural Database, then it will include bibliographic, chemical,
# crystal, experimental, refinement or atomic coordinate data resulting
# from the CCDC's data processing and validation procedures.
#
#######################################################################

data_CSD_CIF_YORSEF
_audit_creation_date 2014-08-28
_audit_creation_method CSD-ConQuest-V1
_database_code_CSD YORSEF
_database_code_depnum_ccdc_archive 'CCDC 1021598'
_chemical_formula_sum 'C13 H11 N1 O2'
_chemical_formula_moiety
;
C13 H11 N1 O2
;
_journal_coden_Cambridge 35
_journal_volume 79
_journal_year 2014
_journal_page_first 7250
_journal_name_full 'J.Org.Chem. '
loop_
_publ_author_name
"E.B.Castillo-Contreras"
"A.M.Stahl"
"G.R.Dake"
_chemical_name_systematic
;
3,4,5,5a-Tetrahydroxantheno[9,1-cd][1,2]oxazole
;
_cell_volume    991.157
_exptl_crystal_colour 'colorless'
_exptl_crystal_density_diffrn 1.429
_exptl_crystal_description 'blade'
_diffrn_ambient_temperature 90
#These two values have been output from a single CSD field.
_refine_ls_R_factor_gt 0.0463
_refine_ls_wR_factor_gt 0.0463
_symmetry_cell_setting orthorhombic
_symmetry_space_group_name_H-M 'P 21 21 21'
_symmetry_Int_Tables_number 19
loop_
_symmetry_equiv_pos_site_id
_symmetry_equiv_pos_as_xyz
1 x,y,z
2 1/2+x,1/2-y,-z
3 -x,1/2+y,1/2-z
4 1/2-x,-y,1/2+z
_cell_length_a 7.6193(4)
_cell_length_b 10.9706(7)
_cell_length_c 11.8576(9)
_cell_angle_alpha 90
_cell_angle_beta 90
_cell_angle_gamma 90
_cell_formula_units_Z 4
loop_
_atom_type_symbol
_atom_type_radius_bond
C 0.68
H 0.23
N 0.68
O 0.68
loop_
_atom_site_label
_atom_site_type_symbol
_atom_site_fract_x
_atom_site_fract_y
_atom_site_fract_z
C1 C 0.1117(3) 0.39356(19) -0.04401(17)
C2 C 0.1307(3) 0.51275(19) 0.01390(18)
H1 H 0.04520 0.57220 -0.01670
H2 H 0.25050 0.54550 0.00260
C3 C 0.0956(3) 0.49041(19) 0.14139(18)
H3 H 0.14580 0.55940 0.18450
H4 H -0.03280 0.49080 0.15400
C4 C 0.1710(3) 0.37045(19) 0.18965(17)
H5 H 0.29990 0.36890 0.17890
H6 H 0.14670 0.36600 0.27160
C5 C 0.0885(3) 0.26099(18) 0.13046(17)
H7 H -0.03540 0.24990 0.15630
C6 C 0.1594(3) 0.05458(18) 0.07600(18)
C7 C 0.1888(3) -0.0617(2) 0.11706(18)
H8 H 0.22210 -0.07290 0.19360
C8 C 0.1695(3) -0.1620(2) 0.04656(19)
H9 H 0.19000 -0.24150 0.07550
C9 C 0.1210(3) -0.14767(19) -0.06542(18)
H10 H 0.10580 -0.21700 -0.11250
C10 C 0.0948(3) -0.03206(19) -0.10792(17)
H11 H 0.06200 -0.02190 -0.18460
C11 C 0.1161(3) 0.0705(2) -0.03883(17)
C12 C 0.1050(3) 0.19744(18) -0.07626(17)
C13 C 0.0927(3) 0.28639(19) 0.00844(17)
N1 N 0.1240(2) 0.24529(15) -0.17669(15)
O1 O 0.1267(2) 0.37503(13) -0.15648(12)
O2 O 0.1889(2) 0.14968(13) 0.15013(12)
#END
