
#######################################################################
#
#                 Cambridge Crystallographic Data Centre
#                                CCDC
#
#######################################################################
#
# If this CIF has been generated from an entry in the Cambridge
# Structural Database, then it will include bibliographic, chemical,
# crystal, experimental, refinement or atomic coordinate data resulting
# from the CCDC's data processing and validation procedures.
#
#######################################################################

data_CSD_CIF_YOTJAU
_audit_creation_date 2015-02-16
_audit_creation_method CSD-ConQuest-V1
_database_code_CSD YOTJAU
_database_code_depnum_ccdc_archive 'CCDC 1012861'
_chemical_formula_sum 'C18 H22 N2 O4'
_chemical_formula_moiety
;
C18 H22 N2 O4
;
_journal_coden_Cambridge 1336
_journal_volume 16
_journal_year 2014
_journal_page_first 4766
_journal_name_full 'Org.Lett. '
loop_
_publ_author_name
"C.V.S.Kumar"
"C.V.Ramana"
_chemical_name_systematic
;
t-Butyl 
2-oxo-10-oxa-9,14-diazatetracyclo[9.4.1.0^1,9^.0^3,8^]hexadeca-3,5,7-triene-14
-carboxylate
;
_cell_volume   3428.094
_diffrn_ambient_temperature 296
#These two values have been output from a single CSD field.
_refine_ls_R_factor_gt 0.054
_refine_ls_wR_factor_gt 0.054
_symmetry_cell_setting monoclinic
_symmetry_space_group_name_H-M 'C 2/c'
_symmetry_Int_Tables_number 15
loop_
_symmetry_equiv_pos_site_id
_symmetry_equiv_pos_as_xyz
1 x,y,z
2 -x,y,1/2-z
3 1/2+x,1/2+y,z
4 1/2-x,1/2+y,1/2-z
5 -x,-y,-z
6 x,-y,-1/2+z
7 -1/2-x,-1/2-y,-z
8 -1/2+x,-1/2-y,-1/2+z
_cell_length_a 26.4774(18)
_cell_length_b 8.7506(6)
_cell_length_c 17.7496(12)
_cell_angle_alpha 90
_cell_angle_beta 123.531(3)
_cell_angle_gamma 90
_cell_formula_units_Z 8
loop_
_atom_type_symbol
_atom_type_radius_bond
C 0.68
H 0.23
N 0.68
O 0.68
loop_
_atom_site_label
_atom_site_type_symbol
_atom_site_fract_x
_atom_site_fract_y
_atom_site_fract_z
O1 O 0.36780(6) -0.04146(17) 0.74304(10)
C1 C 0.08932(12) -0.4095(3) 0.54489(18)
H1 H 0.13130 -0.43810 0.58060
H2 H 0.06470 -0.49730 0.53540
H3 H 0.08200 -0.33200 0.57600
C2 C 0.07359(9) -0.3489(2) 0.45536(14)
O2 O 0.10439(6) -0.20228(17) 0.46754(10)
C3 C 0.16548(9) -0.1942(2) 0.51680(14)
N1 N 0.18382(7) -0.04799(19) 0.52144(11)
C4 C 0.24836(8) -0.0170(2) 0.56909(14)
H4 H 0.25690 0.02590 0.52680
H5 H 0.27030 -0.11270 0.59120
C5 C 0.27183(8) 0.0931(2) 0.64887(12)
C6 C 0.34114(9) 0.0780(2) 0.71141(13)
C7 C 0.36565(9) 0.2323(2) 0.72283(13)
C8 C 0.42496(10) 0.2855(3) 0.77336(16)
H6 H 0.45740 0.21810 0.80420
C9 C 0.43445(10) 0.4403(3) 0.77647(17)
H7 H 0.47380 0.47830 0.80940
C10 C 0.00795(10) -0.3043(3) 0.3954(2)
H8 H -0.00180 -0.23340 0.42670
H9 H -0.01690 -0.39380 0.37970
H10 H 0.00070 -0.25740 0.34130
O3 O 0.19910(7) -0.30225(17) 0.55140(12)
C11 C 0.14297(9) 0.0838(2) 0.49101(14)
H11 H 0.10440 0.05620 0.43680
H12 H 0.16010 0.16660 0.47560
C12 C 0.13218(9) 0.1393(3) 0.56192(15)
H13 H 0.10280 0.22170 0.53640
H14 H 0.11470 0.05640 0.57650
C13 C 0.18869(9) 0.1955(3) 0.64864(15)
H15 H 0.17730 0.23110 0.68960
O4 O 0.21574(6) 0.32089(16) 0.63028(11)
N2 N 0.26198(7) 0.25533(18) 0.61895(10)
C14 C 0.23984(9) 0.0795(3) 0.69843(14)
H16 H 0.22420 -0.02280 0.69340
H17 H 0.26680 0.10580 0.76180
C15 C 0.38562(10) 0.5409(3) 0.73073(16)
H18 H 0.39310 0.64540 0.73530
C16 C 0.32669(9) 0.4901(2) 0.67909(14)
H19 H 0.29440 0.55790 0.64840
C17 C 0.31751(8) 0.3333(2) 0.67485(12)
C18 C 0.09020(13) -0.4632(3) 0.4080(2)
H20 H 0.08400 -0.41770 0.35430
H21 H 0.06510 -0.55230 0.39210
H22 H 0.13200 -0.49190 0.44780
#END
