
#######################################################################
#
#                 Cambridge Crystallographic Data Centre
#                                CCDC
#
#######################################################################
#
# If this CIF has been generated from an entry in the Cambridge
# Structural Database, then it will include bibliographic, chemical,
# crystal, experimental, refinement or atomic coordinate data resulting
# from the CCDC's data processing and validation procedures.
#
#######################################################################

data_CSD_CIF_YOTNAX
_audit_creation_date 2009-08-17
_audit_creation_method CSD-ConQuest-V1
_database_code_CSD YOTNAX
_database_code_depnum_ccdc_archive 'CCDC 738216'
_chemical_formula_sum 'C20 H20 N2 O6'
_chemical_formula_moiety
;
C20 H20 N2 O6
;
_journal_coeditor_code "IUCr AT2778"
_journal_coden_Cambridge 1370
_journal_volume 65
_journal_year 2009
_journal_page_first o1309
_journal_name_full 'Acta Crystallogr.,Sect.E:Struct.Rep.Online '
loop_
_publ_author_name
"B.Etemadi"
"R.Kia"
"H.Sharghi"
"M.H.Sarvari"
_chemical_name_systematic
;
1,12-bis(2-Hydroxyphenyl)-3,10-dioxa-2,11-diazadodeca-1,11-diene-4,9-dione
;
_cell_volume   1845.011
_exptl_crystal_colour 'colorless'
_exptl_crystal_density_diffrn 1.384
_exptl_crystal_description 'needle'
_exptl_crystal_preparation 'ethanol'
_diffrn_ambient_temperature 120
#These two values have been output from a single CSD field.
_refine_ls_R_factor_gt 0.0473
_refine_ls_wR_factor_gt 0.0473
_symmetry_cell_setting monoclinic
_symmetry_space_group_name_H-M 'C 2/c'
_symmetry_Int_Tables_number 15
loop_
_symmetry_equiv_pos_site_id
_symmetry_equiv_pos_as_xyz
1 x,y,z
2 -x,y,1/2-z
3 1/2+x,1/2+y,z
4 1/2-x,1/2+y,1/2-z
5 -x,-y,-z
6 x,-y,-1/2+z
7 -1/2-x,-1/2-y,-z
8 -1/2+x,-1/2-y,-1/2+z
_cell_length_a 13.0293(11)
_cell_length_b 5.5464(4)
_cell_length_c 25.538(2)
_cell_angle_alpha 90
_cell_angle_beta 91.348(7)
_cell_angle_gamma 90
_cell_formula_units_Z 4
loop_
_atom_type_symbol
_atom_type_radius_bond
C 0.68
H 0.23
N 0.68
O 0.68
loop_
_atom_site_label
_atom_site_type_symbol
_atom_site_fract_x
_atom_site_fract_y
_atom_site_fract_z
C1 C 0.79600(9) -0.3740(2) 0.32698(5)
C2 C 0.73433(10) -0.5276(2) 0.29667(5)
H1 H 0.76200 -0.66770 0.28280
C3 C 0.63188(10) -0.4721(2) 0.28720(5)
H2 H 0.59090 -0.57680 0.26740
C4 C 0.58953(9) -0.2610(3) 0.30699(5)
H3 H 0.52070 -0.22450 0.30040
C5 C 0.65095(9) -0.1061(2) 0.33650(5)
H4 H 0.62300 0.03550 0.34950
C6 C 0.75482(9) -0.1590(2) 0.34720(5)
C7 C 0.81678(10) 0.0064(2) 0.37953(5)
H5 H 0.7866(13) 0.154(3) 0.3912(7)
C8 C 1.05836(10) 0.0434(2) 0.43627(5)
C9 C 1.1126(1) 0.2321(2) 0.46898(5)
H6 H 1.07410 0.26170 0.50040
H7 H 1.11550 0.38160 0.44940
C10 C 1.22133(10) 0.1530(2) 0.48435(5)
H8 H 1.25880 0.11670 0.45290
H9 H 1.21810 0.00690 0.50510
N1 N 0.90918(8) -0.0542(2) 0.39115(4)
O1 O 0.89508(7) -0.4424(2) 0.33553(4)
H10 H 0.9268(18) -0.333(5) 0.3572(10)
O2 O 0.96033(7) 0.11970(18) 0.42331(4)
O3 O 1.09270(8) -0.14750(19) 0.42343(4)
C1F C 1.70400(9) 0.8740(2) 0.67302(5)
C2F C 1.76567(10) 1.0276(2) 0.70333(5)
H1F H 1.73800 1.16770 0.71720
C3F C 1.86812(10) 0.9721(2) 0.71280(5)
H2F H 1.90910 1.07680 0.73260
C4F C 1.91047(9) 0.7610(3) 0.69301(5)
H3F H 1.97930 0.72450 0.69960
C5F C 1.84905(9) 0.6061(2) 0.66350(5)
H4F H 1.87700 0.46450 0.65050
C6F C 1.74518(9) 0.6590(2) 0.65280(5)
C7F C 1.68322(10) 0.4936(2) 0.62047(5)
H5F H 1.7134(13) 0.346(3) 0.6088(7)
C8F C 1.44164(10) 0.4566(2) 0.56373(5)
C9F C 1.3874(1) 0.2679(2) 0.53102(5)
H6F H 1.42590 0.23830 0.49960
H7F H 1.38450 0.11840 0.55060
C10F C 1.27867(10) 0.3470(2) 0.51565(5)
H8F H 1.24120 0.38330 0.54710
H9F H 1.28190 0.49310 0.49490
N1F N 1.59082(8) 0.5542(2) 0.60885(4)
O1F O 1.60492(7) 0.9424(2) 0.66447(4)
H10F H 1.5732(18) 0.833(5) 0.6428(10)
O2F O 1.53967(7) 0.38030(18) 0.57669(4)
O3F O 1.40730(8) 0.64750(19) 0.57657(4)
#END
