
#######################################################################
#
#                 Cambridge Crystallographic Data Centre
#                                CCDC
#
#######################################################################
#
# If this CIF has been generated from an entry in the Cambridge
# Structural Database, then it will include bibliographic, chemical,
# crystal, experimental, refinement or atomic coordinate data resulting
# from the CCDC's data processing and validation procedures.
#
#######################################################################

data_CSD_CIF_YOTSUW
_audit_creation_date 2009-08-17
_audit_creation_method CSD-ConQuest-V1
_database_code_CSD YOTSUW
_database_code_depnum_ccdc_archive 'CCDC 738241'
_chemical_formula_sum 'C11 H15 N3 O3'
_chemical_formula_moiety
;
C11 H15 N3 O3
;
_journal_coeditor_code "IUCr DN2453"
_journal_coden_Cambridge 1370
_journal_volume 65
_journal_year 2009
_journal_page_first o1342
_journal_name_full 'Acta Crystallogr.,Sect.E:Struct.Rep.Online '
loop_
_publ_author_name
"H.-K.Fun"
"S.R.Jebas"
"B.Chandrakantha"
"V.Padmar"
"A.M.Isloor"
_chemical_name_systematic
;
5-(Dimethylamino)-N,N-dimethyl-2-nitrobenzamide
;
_chemical_melting_point 458
_cell_volume    583.090
_exptl_crystal_colour 'yellow'
_exptl_crystal_density_diffrn 1.351
_exptl_special_details
;
Melting point range 458-461K

;
_exptl_crystal_description 'block'
_diffrn_ambient_temperature 100
#These two values have been output from a single CSD field.
_refine_ls_R_factor_gt 0.0375
_refine_ls_wR_factor_gt 0.0375
_symmetry_cell_setting monoclinic
_symmetry_space_group_name_H-M 'P 21'
_symmetry_Int_Tables_number 4
loop_
_symmetry_equiv_pos_site_id
_symmetry_equiv_pos_as_xyz
1 x,y,z
2 -x,1/2+y,-z
_cell_length_a 7.8581(2)
_cell_length_b 7.2921(2)
_cell_length_c 10.5183(3)
_cell_angle_alpha 90
_cell_angle_beta 104.663(1)
_cell_angle_gamma 90
_cell_formula_units_Z 2
loop_
_atom_type_symbol
_atom_type_radius_bond
C 0.68
H 0.23
N 0.68
O 0.68
loop_
_atom_site_label
_atom_site_type_symbol
_atom_site_fract_x
_atom_site_fract_y
_atom_site_fract_z
O1 O 0.42663(10) 1.04274(10) 0.31204(7)
O2 O 0.81992(10) 0.62755(17) 0.20077(10)
O3 O 0.71314(10) 0.76718(13) 0.34531(8)
N1 N 0.32548(10) 0.78907(13) 0.39646(8)
N2 N 0.03825(10) 0.70383(12) -0.13123(8)
N3 N 0.69532(10) 0.69824(13) 0.23538(9)
C1 C 0.21826(10) 0.78067(12) 0.08485(8)
H1 H 0.12100 0.83090 0.10720
C2 C 0.19805(10) 0.70835(12) -0.04364(9)
C3 C 0.35014(11) 0.63797(13) -0.07614(9)
H2 H 0.34270 0.59500 -0.16060
C4 C 0.50889(12) 0.63311(14) 0.01717(10)
H3 H 0.60700 0.58370 -0.00450
C5 C 0.52463(11) 0.70133(13) 0.14373(9)
C6 C 0.3788(1) 0.77846(12) 0.17780(8)
C7 C 0.38381(11) 0.87931(13) 0.30423(8)
C8 C 0.30516(14) 0.88622(18) 0.51258(10)
H4 H 0.34090 1.01160 0.50880
H5 H 0.37700 0.82900 0.58990
H6 H 0.18420 0.88220 0.51560
C9 C 0.26858(13) 0.59813(16) 0.38621(11)
H7 H 0.31490 0.53680 0.32150
H8 H 0.14240 0.59300 0.36060
H9 H 0.31090 0.53890 0.46980
C10 C -0.11334(12) 0.79019(15) -0.10016(10)
H10 H -0.12200 0.75030 -0.01510
H11 H -0.21830 0.75620 -0.16500
H12 H -0.09970 0.92100 -0.09990
C11 C 0.02302(13) 0.65472(17) -0.26808(10)
H13 H 0.06640 0.53240 -0.27240
H14 H 0.09080 0.73880 -0.30560
H15 H -0.09820 0.66070 -0.31630
#END
