
#######################################################################
#
#                 Cambridge Crystallographic Data Centre
#                                CCDC
#
#######################################################################
#
# If this CIF has been generated from an entry in the Cambridge
# Structural Database, then it will include bibliographic, chemical,
# crystal, experimental, refinement or atomic coordinate data resulting
# from the CCDC's data processing and validation procedures.
#
#######################################################################

data_CSD_CIF_YOVCOD
_audit_creation_date 2015-02-16
_audit_creation_method CSD-ConQuest-V1
_database_code_CSD YOVCOD
_database_code_depnum_ccdc_archive 'CCDC 1049650'
_chemical_formula_sum 'C12 H17 N1 O3'
_chemical_formula_moiety
;
C12 H17 N1 O3
;
_journal_coden_Cambridge 1147
_journal_volume 14
_journal_year 2014
_journal_page_first 4364
_journal_name_full 'Cryst.Growth Des. '
loop_
_publ_author_name
"E.Nauha"
"J.Bernstein"
_chemical_name_systematic
;
2-(4-butoxyphenyl)-N-hydroxyacetamide
;
_chemical_name_common
;
bufexamac
;
_cell_volume   2399.190
_exptl_crystal_colour 'colorless'
_exptl_crystal_density_diffrn 1.236
_exptl_special_details
;
low-temperature polymorph
anti-inflammatory activity

;
_exptl_crystal_description 'plate'
_diffrn_ambient_temperature 198
#These two values have been output from a single CSD field.
_refine_ls_R_factor_gt 0.0329
_refine_ls_wR_factor_gt 0.0329
_symmetry_cell_setting monoclinic
_symmetry_space_group_name_H-M 'C 2/c'
_symmetry_Int_Tables_number 15
loop_
_symmetry_equiv_pos_site_id
_symmetry_equiv_pos_as_xyz
1 x,y,z
2 -x,y,1/2-z
3 1/2+x,1/2+y,z
4 1/2-x,1/2+y,1/2-z
5 -x,-y,-z
6 x,-y,-1/2+z
7 -1/2-x,-1/2-y,-z
8 -1/2+x,-1/2-y,-1/2+z
_cell_length_a 47.0072(17)
_cell_length_b 5.4802(2)
_cell_length_c 9.5037(4)
_cell_angle_alpha 90
_cell_angle_beta 101.488(2)
_cell_angle_gamma 90
_cell_formula_units_Z 8
loop_
_atom_type_symbol
_atom_type_radius_bond
C 0.68
H 0.23
N 0.68
O 0.68
loop_
_atom_site_label
_atom_site_type_symbol
_atom_site_fract_x
_atom_site_fract_y
_atom_site_fract_z
O1 O 0.01598(3) 0.8453(2) 0.11972(14)
H1 H -0.0023(3) 0.791(4) 0.116(2)
O2 O 0.03481(2) 0.6137(2) 0.37543(12)
O3 O 0.15677(2) 0.2289(2) 0.71696(12)
N1 N 0.03245(3) 0.6342(3) 0.13682(16)
H2 H 0.0357(4) 0.568(3) 0.0550(18)
C1 C 0.04099(3) 0.5324(3) 0.26332(18)
C2 C 0.05871(4) 0.3046(3) 0.26096(19)
H3 H 0.06600 0.30040 0.17030
H4 H 0.04600 0.16100 0.26170
C3 C 0.08420(3) 0.2846(3) 0.38581(18)
C4 C 0.10667(4) 0.4537(3) 0.40542(19)
H5 H 0.10570 0.58730 0.34100
C5 C 0.13033(4) 0.4315(3) 0.51644(19)
H6 H 0.14540 0.54960 0.52800
C6 C 0.13218(3) 0.2378(3) 0.61116(17)
C7 C 0.11002(3) 0.0693(3) 0.59464(18)
H7 H 0.11090 -0.06330 0.65980
C8 C 0.08625(3) 0.0945(3) 0.48173(19)
H8 H 0.07110 -0.02260 0.47080
C9 C 0.15920(4) 0.0315(4) 0.8171(2)
H9 H 0.15880 -0.12640 0.76610
H10 H 0.14280 0.03520 0.86820
C10 C 0.18756(4) 0.0600(4) 0.9225(2)
H11 H 0.18870 0.22790 0.96160
H12 H 0.18770 -0.05380 1.00360
C11 C 0.21402(4) 0.0131(4) 0.8607(3)
H13 H 0.23130 0.07070 0.93000
H14 H 0.21260 0.11090 0.77200
C12 C 0.21858(6) -0.2514(5) 0.8255(3)
H15 H 0.21930 -0.35120 0.91170
H16 H 0.23690 -0.26800 0.79200
H17 H 0.20250 -0.30620 0.75000
#END
