
#######################################################################
#
#                 Cambridge Crystallographic Data Centre
#                                CCDC
#
#######################################################################
#
# If this CIF has been generated from an entry in the Cambridge
# Structural Database, then it will include bibliographic, chemical,
# crystal, experimental, refinement or atomic coordinate data resulting
# from the CCDC's data processing and validation procedures.
#
#######################################################################

data_CSD_CIF_YOVHIB
_audit_creation_date 2009-08-17
_audit_creation_method CSD-ConQuest-V1
_database_code_CSD YOVHIB
_database_code_depnum_ccdc_archive 'CCDC 741629'
_chemical_formula_sum 'C16 H17 N3 O2'
_chemical_formula_moiety
;
C16 H17 N3 O2
;
_journal_coeditor_code "IUCr IM2123"
_journal_coden_Cambridge 1370
_journal_volume 65
_journal_year 2009
_journal_page_first o1604
_journal_name_full 'Acta Crystallogr.,Sect.E:Struct.Rep.Online '
loop_
_publ_author_name
"O.Ozel Guven"
"T.Erdogan"
"S.J.Coles"
"T.Hokelek"
_chemical_name_systematic
;
2-(1H-Benzimidazol-1-yl)-1-(2-furyl)ethanone O-isopropyloxime
;
_chemical_name_common
;
2-(1H-Benzimidazol-1-yl)-1-(2-furyl)-N-isopropoxyethanimine
;
_cell_volume   1472.771
_exptl_crystal_colour 'yellow'
_exptl_crystal_density_diffrn 1.278
_exptl_crystal_description 'plate'
_exptl_crystal_preparation 'ethyl acetate'
_diffrn_ambient_temperature 120
#These two values have been output from a single CSD field.
_refine_ls_R_factor_gt 0.0418
_refine_ls_wR_factor_gt 0.0418
_symmetry_cell_setting monoclinic
_symmetry_space_group_name_H-M 'P 21/c'
_symmetry_Int_Tables_number 14
loop_
_symmetry_equiv_pos_site_id
_symmetry_equiv_pos_as_xyz
1 x,y,z
2 -x,1/2+y,1/2-z
3 -x,-y,-z
4 x,-1/2-y,-1/2+z
_cell_length_a 8.4290(2)
_cell_length_b 17.7606(3)
_cell_length_c 10.6017(2)
_cell_angle_alpha 90
_cell_angle_beta 111.882(1)
_cell_angle_gamma 90
_cell_formula_units_Z 4
loop_
_atom_type_symbol
_atom_type_radius_bond
C 0.68
H 0.23
N 0.68
O 0.68
loop_
_atom_site_label
_atom_site_type_symbol
_atom_site_fract_x
_atom_site_fract_y
_atom_site_fract_z
O1 O 0.58682(11) 0.47550(5) 0.80555(8)
O2 O 0.41827(11) 0.33276(5) 1.02341(8)
N1 N 0.19899(13) 0.45752(5) 0.64047(9)
N2 N 0.18669(14) 0.44880(6) 0.42568(10)
N3 N 0.30106(13) 0.38505(6) 0.9415(1)
C1 C 0.25496(17) 0.48323(7) 0.54285(12)
H1 H 0.3367(18) 0.5250(8) 0.5619(14)
C2 C 0.07716(15) 0.39595(7) 0.44673(12)
C3 C -0.03026(17) 0.34334(8) 0.35695(13)
H2 H -0.032(2) 0.3408(9) 0.2646(17)
C4 C -0.12897(19) 0.29830(9) 0.40499(15)
H3 H -0.203(2) 0.2612(11) 0.3450(18)
C5 C -0.12247(18) 0.30444(8) 0.53863(15)
H4 H -0.196(2) 0.2724(10) 0.5696(17)
C6 C -0.01575(16) 0.35542(7) 0.62975(14)
H5 H -0.0111(19) 0.3597(8) 0.7232(16)
C7 C 0.08317(14) 0.40074(6) 0.58065(11)
C8 C 0.25028(16) 0.48361(7) 0.78092(12)
H6 H 0.3035(17) 0.5328(8) 0.7868(13)
H7 H 0.1471(19) 0.4885(8) 0.8028(14)
C9 C 0.37140(15) 0.42870(6) 0.87967(11)
C10 C 0.54860(15) 0.42703(6) 0.89174(11)
C11 C 0.69233(16) 0.38863(7) 0.96787(12)
H8 H 0.6964(19) 0.3507(9) 1.0364(15)
C12 C 0.82605(17) 0.41455(7) 0.92724(13)
H9 H 0.941(2) 0.3979(9) 0.9589(17)
C13 C 0.75635(17) 0.46619(8) 0.82951(13)
H10 H 0.799(2) 0.4959(9) 0.7728(16)
C14 C 0.33484(16) 0.28212(7) 1.08724(13)
H11 H 0.219(2) 0.2716(9) 1.0207(15)
C15 C 0.3264(3) 0.31843(10) 1.21285(18)
H12 H 0.446(3) 0.3321(12) 1.281(2)
H13 H 0.254(3) 0.3634(12) 1.189(2)
H14 H 0.272(3) 0.2848(11) 1.2585(19)
C16 C 0.44161(18) 0.21125(8) 1.11657(14)
H15 H 0.446(2) 0.1863(10) 1.0273(18)
H16 H 0.398(2) 0.1768(10) 1.1676(18)
H17 H 0.559(2) 0.2239(9) 1.1768(17)
#END
