
#######################################################################
#
#                 Cambridge Crystallographic Data Centre
#                                CCDC
#
#######################################################################
#
# If this CIF has been generated from an entry in the Cambridge
# Structural Database, then it will include bibliographic, chemical,
# crystal, experimental, refinement or atomic coordinate data resulting
# from the CCDC's data processing and validation procedures.
#
#######################################################################

data_CSD_CIF_YOVKIE
_audit_creation_date 2009-08-17
_audit_creation_method CSD-ConQuest-V1
_database_code_CSD YOVKIE
_database_code_depnum_ccdc_archive 'CCDC 741640'
_chemical_formula_sum 'C15 H15 N3 O2'
_chemical_formula_moiety
;
C15 H15 N3 O2
;
_journal_coeditor_code "IUCr XU2539"
_journal_coden_Cambridge 1370
_journal_volume 65
_journal_year 2009
_journal_page_first o1621
_journal_name_full 'Acta Crystallogr.,Sect.E:Struct.Rep.Online '
loop_
_publ_author_name
"O.Ozel Guven"
"T.Erdogan"
"M.N.Tahir"
"T.Hokelek"
_chemical_name_systematic
;
2-(1H-Benzimidazol-1-yl)-1-(2-furyl)ethanone O-ethyloxime
;
_chemical_name_common
;
2-(1H-Benzimidazol-1-yl)-N-ethoxy-1-(2-furyl)ethanimine
;
_cell_volume   1436.379
_exptl_crystal_colour 'yellow'
_exptl_crystal_density_diffrn 1.245
_exptl_crystal_description 'block'
_exptl_crystal_preparation 'ethyl acetate/hexane'
_diffrn_ambient_temperature 296
#These two values have been output from a single CSD field.
_refine_ls_R_factor_gt 0.0465
_refine_ls_wR_factor_gt 0.0465
_symmetry_cell_setting monoclinic
_symmetry_space_group_name_H-M 'P 21/c'
_symmetry_Int_Tables_number 14
loop_
_symmetry_equiv_pos_site_id
_symmetry_equiv_pos_as_xyz
1 x,y,z
2 -x,1/2+y,1/2-z
3 -x,-y,-z
4 x,-1/2-y,-1/2+z
_cell_length_a 8.4448(5)
_cell_length_b 17.6345(11)
_cell_length_c 10.3147(6)
_cell_angle_alpha 90
_cell_angle_beta 110.755(2)
_cell_angle_gamma 90
_cell_formula_units_Z 4
loop_
_atom_type_symbol
_atom_type_radius_bond
C 0.68
H 0.23
N 0.68
O 0.68
loop_
_atom_site_label
_atom_site_type_symbol
_atom_site_fract_x
_atom_site_fract_y
_atom_site_fract_z
O1 O -0.07624(14) 0.47405(6) 0.69126(11)
O2 O 0.12331(14) 0.34870(6) 0.45867(12)
N1 N 0.30309(17) 0.45287(7) 0.87568(13)
N2 N 0.2926(2) 0.43475(9) 1.08660(15)
N3 N 0.23041(17) 0.39663(8) 0.55862(13)
C1 C 0.2331(2) 0.47207(11) 0.97034(18)
H1 H 0.14940 0.50890 0.95380
C2 C 0.4123(2) 0.3866(1) 1.06784(16)
C3 C 0.5178(2) 0.33399(11) 1.15764(18)
H2 H 0.51260 0.32570 1.24510
C4 C 0.6289(3) 0.29490(12) 1.1144(2)
H3 H 0.70020 0.25940 1.17320
C5 C 0.6378(2) 0.30710(12) 0.9839(2)
H4 H 0.71680 0.28020 0.95830
C6 C 0.5329(2) 0.35802(10) 0.89142(19)
H5 H 0.53730 0.36550 0.80350
C7 C 0.42077(19) 0.39732(8) 0.93684(15)
C8 C 0.2629(2) 0.48404(9) 0.73688(16)
H6 H 0.36720 0.49310 0.72000
H7 H 0.20600 0.53240 0.73130
C9 C 0.15179(19) 0.43200(8) 0.62662(14)
C10 C -0.02592(19) 0.42668(8) 0.60758(15)
C11 C -0.1609(2) 0.38634(9) 0.52731(17)
H8 H -0.16160 0.35010 0.46160
C12 C -0.3007(2) 0.40962(11) 0.5621(2)
H9 H -0.41120 0.39180 0.52370
C13 C -0.2438(2) 0.46193(11) 0.6602(2)
H10 H -0.31020 0.48690 0.70200
C14 C 0.2185(2) 0.31439(13) 0.3830(2)
H11 H 0.31350 0.28630 0.44600
H12 H 0.26250 0.35340 0.33860
C15 C 0.1095(3) 0.26391(19) 0.2798(3)
H13 H 0.17420 0.23820 0.23310
H14 H 0.02060 0.29260 0.21360
H15 H 0.06100 0.22730 0.32380
#END
