
#######################################################################
#
#                 Cambridge Crystallographic Data Centre
#                                CCDC
#
#######################################################################
#
# If this CIF has been generated from an entry in the Cambridge
# Structural Database, then it will include bibliographic, chemical,
# crystal, experimental, refinement or atomic coordinate data resulting
# from the CCDC's data processing and validation procedures.
#
#######################################################################

data_CSD_CIF_YOWFEX
_audit_creation_date 2015-02-16
_audit_creation_method CSD-ConQuest-V1
_database_code_CSD YOWFEX
_database_code_depnum_ccdc_archive 'CCDC 975284'
_chemical_formula_sum 'C32 H34 N1 O1'
_chemical_formula_moiety
;
C32 H34 N1 O1
;
_journal_coden_Cambridge 1490
_journal_volume 6
_journal_year 2015
_journal_page_first 6070
_journal_name_full 'Nat.Commun. '
loop_
_publ_author_name
"M.Amar"
"S.Bar"
"M.A.Iron"
"H.Toledo"
"B.Tumanskii"
"L.J.W.Shimon"
"M.Botoshansky"
"N.Fridman"
"A.M.Szpilman"
_chemical_name_systematic
;
1,3-dimesityl-4,9-dimethyl-1H-benzo[de]isoquinolin-2(3H)-ol
;
_cell_volume   1265.387
_exptl_crystal_colour 'colorless'
_exptl_crystal_density_diffrn 1.177
_diffrn_ambient_temperature 293
#These two values have been output from a single CSD field.
_refine_ls_R_factor_gt 0.0571
_refine_ls_wR_factor_gt 0.0571
_symmetry_cell_setting triclinic
_symmetry_space_group_name_H-M 'P -1'
_symmetry_Int_Tables_number 2
loop_
_symmetry_equiv_pos_site_id
_symmetry_equiv_pos_as_xyz
1 x,y,z
2 -x,-y,-z
_cell_length_a 7.736(2)
_cell_length_b 12.285(2)
_cell_length_c 14.643(3)
_cell_angle_alpha 71.82(2)
_cell_angle_beta 88.31(2)
_cell_angle_gamma 73.55(2)
_cell_formula_units_Z 2
loop_
_atom_type_symbol
_atom_type_radius_bond
C 0.68
H 0.23
N 0.68
O 0.68
loop_
_atom_site_label
_atom_site_type_symbol
_atom_site_fract_x
_atom_site_fract_y
_atom_site_fract_z
O1 O 0.9480(3) 0.36415(19) 0.22879(16)
N1 N 0.9282(3) 0.24598(19) 0.26005(15)
C1 C 0.8183(3) 0.2353(2) 0.34433(18)
H1 H 0.89740 0.23370 0.39600
C2 C 0.7913(3) 0.1120(2) 0.3754(2)
C3 C 0.8026(3) 0.0489(2) 0.3067(2)
C4 C 0.8234(3) 0.1037(2) 0.2072(2)
C5 C 0.8567(3) 0.2263(2) 0.17636(19)
H2 H 0.74020 0.28700 0.15390
C6 C 0.7601(3) 0.0606(3) 0.4700(2)
C7 C 0.7434(4) -0.0564(3) 0.4991(3)
H3 H 0.72690 -0.09250 0.56350
C8 C 0.7507(4) -0.1179(3) 0.4362(3)
H4 H 0.73830 -0.19490 0.45760
C9 C 0.7769(4) -0.0659(3) 0.3384(3)
C10 C 0.7715(4) -0.1236(3) 0.2691(3)
H5 H 0.76110 -0.20100 0.28900
C11 C 0.7812(4) -0.0683(3) 0.1751(3)
H6 H 0.77160 -0.10720 0.13110
C12 C 0.8057(3) 0.0473(2) 0.1408(2)
C13 C 0.7430(4) 0.1255(3) 0.5435(2)
H7 H 0.72100 0.07500 0.60480
H8 H 0.64420 0.19760 0.52330
H9 H 0.85280 0.14520 0.54930
C14 C 0.8017(4) 0.1035(3) 0.0333(2)
H10 H 0.78880 0.04800 0.00190
H11 H 0.91230 0.12360 0.01660
H12 H 0.70160 0.17470 0.01290
C15 C 0.6519(3) 0.3436(2) 0.33624(18)
C16 C 0.4799(3) 0.3571(3) 0.29601(19)
C17 C 0.3437(4) 0.4622(3) 0.2870(2)
H13 H 0.23170 0.47090 0.25960
C18 C 0.3637(5) 0.5540(3) 0.3159(2)
C19 C 0.5292(5) 0.5372(3) 0.3595(2)
H14 H 0.54510 0.59640 0.38260
C20 C 0.6742(4) 0.4342(3) 0.3702(2)
C21 C 0.9869(3) 0.2472(2) 0.09667(19)
C22 C 1.1641(3) 0.1702(2) 0.10579(19)
C23 C 1.2774(4) 0.1954(3) 0.0326(2)
H15 H 1.39450 0.14470 0.03930
C24 C 1.2248(4) 0.2922(3) -0.0498(2)
C25 C 1.0520(4) 0.3664(3) -0.0573(2)
H16 H 1.01380 0.43250 -0.11230
C26 C 0.9322(4) 0.3463(2) 0.0141(2)
C27 C 0.4293(3) 0.2660(3) 0.2625(2)
H17 H 0.53250 0.19740 0.27120
H18 H 0.38920 0.30010 0.19550
H19 H 0.33380 0.24210 0.29920
C28 C 0.2104(6) 0.6690(3) 0.2992(3)
H20 H 0.10690 0.66270 0.26890
H21 H 0.24790 0.73510 0.25830
H22 H 0.17980 0.68170 0.35980
C29 C 0.8492(5) 0.4287(3) 0.4175(3)
H23 H 0.83340 0.49950 0.43550
H24 H 0.94270 0.42360 0.37320
H25 H 0.88240 0.35960 0.47400
C30 C 1.2340(4) 0.0591(3) 0.1924(2)
H26 H 1.35670 0.01900 0.18450
H27 H 1.16070 0.00640 0.19760
H28 H 1.22870 0.08180 0.24970
C31 C 1.3522(5) 0.3179(3) -0.1292(2)
H29 H 1.46710 0.25810 -0.11150
H30 H 1.36780 0.39540 -0.13840
H31 H 1.30240 0.31660 -0.18790
C32 C 0.7447(4) 0.4350(3) -0.0028(2)
H32 H 0.73570 0.49600 -0.06380
H33 H 0.72410 0.47110 0.04760
H34 H 0.65580 0.39410 -0.00270
#END
