
#######################################################################
#
#                 Cambridge Crystallographic Data Centre
#                                CCDC
#
#######################################################################
#
# If this CIF has been generated from an entry in the Cambridge
# Structural Database, then it will include bibliographic, chemical,
# crystal, experimental, refinement or atomic coordinate data resulting
# from the CCDC's data processing and validation procedures.
#
#######################################################################

data_CSD_CIF_YOWFEX01
_audit_creation_date 2015-09-10
_audit_creation_method CSD-ConQuest-V1
_database_code_CSD YOWFEX01
_database_code_depnum_ccdc_archive 'CCDC 1419966'
_chemical_formula_sum 'C32 H35 N1 O1'
_chemical_formula_moiety
;
C32 H35 N1 O1
;
_journal_coden_Cambridge 177
_journal_volume 13
_journal_year 2015
_journal_page_first 10726
_journal_name_full 'Org.Biomol.Chem. '
loop_
_publ_author_name
"H.Toledo"
"M.Amar"
"S.Bar"
"M.A.Iron"
"N.Fridman"
"B.Tumanskii"
"L.J.W.Shimon"
"M.Botoshansky"
"A.M.Szpilman"
_chemical_name_systematic
;
1,3-Dimesityl-4,9-dimethyl-1H-benzo[de]isoquinolin-2(3H)-ol
;
_cell_volume   1265.387
_exptl_crystal_colour 'colorless'
_exptl_crystal_density_diffrn 1.177
_exptl_crystal_description 'prism'
_diffrn_ambient_temperature 293
#These two values have been output from a single CSD field.
_refine_ls_R_factor_gt 0.0494
_refine_ls_wR_factor_gt 0.0494
_symmetry_cell_setting triclinic
_symmetry_space_group_name_H-M 'P -1'
_symmetry_Int_Tables_number 2
loop_
_symmetry_equiv_pos_site_id
_symmetry_equiv_pos_as_xyz
1 x,y,z
2 -x,-y,-z
_cell_length_a 7.736(2)
_cell_length_b 12.285(2)
_cell_length_c 14.643(3)
_cell_angle_alpha 71.82(2)
_cell_angle_beta 88.31(2)
_cell_angle_gamma 73.55(2)
_cell_formula_units_Z 2
loop_
_atom_type_symbol
_atom_type_radius_bond
C 0.68
H 0.23
N 0.68
O 0.68
loop_
_atom_site_label
_atom_site_type_symbol
_atom_site_fract_x
_atom_site_fract_y
_atom_site_fract_z
O1 O 0.9485(2) 0.36389(16) 0.22890(13)
N1 N 0.9280(2) 0.24585(16) 0.25993(13)
C1 C 0.8182(3) 0.2354(2) 0.34434(16)
H1 H 0.89750 0.23400 0.39600
C2 C 0.7916(3) 0.1119(2) 0.37541(18)
C3 C 0.8024(3) 0.0492(2) 0.30683(18)
C4 C 0.8234(3) 0.1036(2) 0.20708(18)
C5 C 0.8573(3) 0.2262(2) 0.17649(16)
H2 H 0.74100 0.28710 0.15390
C6 C 0.7598(3) 0.0608(2) 0.46997(19)
C7 C 0.7423(3) -0.0563(3) 0.4986(2)
H3 H 0.72410 -0.09210 0.56280
C8 C 0.7509(3) -0.1180(3) 0.4363(3)
H4 H 0.73940 -0.19510 0.45800
C9 C 0.7772(3) -0.0663(2) 0.3385(2)
C10 C 0.7712(3) -0.1236(2) 0.2694(3)
H5 H 0.76010 -0.20080 0.28920
C11 C 0.7814(3) -0.0680(2) 0.1747(2)
H6 H 0.77240 -0.10690 0.13060
C12 C 0.8052(3) 0.0473(2) 0.14093(19)
C13 C 0.7424(4) 0.1253(3) 0.54332(19)
H7 H 0.69260 0.08360 0.59970
H8 H 0.66420 0.20530 0.51660
H9 H 0.85940 0.12830 0.56050
C14 C 0.8014(4) 0.1034(3) 0.0333(2)
H10 H 0.75140 0.06040 0.00180
H11 H 0.92210 0.10040 0.01440
H12 H 0.72830 0.18530 0.01530
C15 C 0.6521(3) 0.3432(2) 0.33635(15)
C16 C 0.4800(3) 0.3574(2) 0.29604(16)
C17 C 0.3440(3) 0.4622(3) 0.28707(19)
H13 H 0.23200 0.47080 0.25970
C18 C 0.3641(4) 0.5539(3) 0.3160(2)
C19 C 0.5289(4) 0.5366(3) 0.35968(19)
H14 H 0.54450 0.59550 0.38330
C20 C 0.6736(3) 0.4345(2) 0.37010(17)
C21 C 0.9873(3) 0.24679(19) 0.09692(16)
C22 C 1.1637(3) 0.1703(2) 0.10587(16)
C23 C 1.2777(3) 0.1951(2) 0.03277(18)
H15 H 1.39460 0.14420 0.03960
C24 C 1.2256(3) 0.2920(2) -0.04983(18)
C25 C 1.0515(4) 0.3664(2) -0.05740(18)
H16 H 1.01320 0.43240 -0.11250
C26 C 0.9317(3) 0.3465(2) 0.01413(18)
C27 C 0.4291(3) 0.2657(2) 0.26240(19)
H17 H 0.46250 0.18980 0.31250
H18 H 0.49140 0.25830 0.20600
H19 H 0.30120 0.29060 0.24740
C28 C 0.2128(5) 0.6694(3) 0.2993(3)
H20 H 0.14260 0.68580 0.24100
H21 H 0.26320 0.73400 0.29380
H22 H 0.13670 0.66140 0.35260
C29 C 0.8497(4) 0.4286(3) 0.4175(2)
H23 H 0.83370 0.49860 0.43660
H24 H 0.94250 0.42500 0.37260
H25 H 0.88420 0.35850 0.47310
C30 C 1.2347(3) 0.0594(2) 0.19218(18)
H26 H 1.36430 0.03500 0.19540
H27 H 1.19120 -0.00390 0.18580
H28 H 1.19350 0.07680 0.25000
C31 C 1.3529(4) 0.3175(3) -0.1283(2)
H29 H 1.42910 0.24340 -0.13380
H30 H 1.42620 0.36140 -0.11270
H31 H 1.28460 0.36400 -0.18830
C32 C 0.7440(3) 0.4348(2) -0.0030(2)
H32 H 0.73960 0.50100 -0.05990
H33 H 0.71680 0.46320 0.05130
H34 H 0.65690 0.39580 -0.01120
#END
