
#######################################################################
#
#                 Cambridge Crystallographic Data Centre
#                                CCDC
#
#######################################################################
#
# If this CIF has been generated from an entry in the Cambridge
# Structural Database, then it will include bibliographic, chemical,
# crystal, experimental, refinement or atomic coordinate data resulting
# from the CCDC's data processing and validation procedures.
#
#######################################################################

data_CSD_CIF_YOWLUS
_audit_creation_date 2009-11-24
_audit_creation_method CSD-ConQuest-V1
_database_code_CSD YOWLUS
_database_code_depnum_ccdc_archive 'CCDC'
_chemical_formula_sum 'C7 H10 N6 O5'
_chemical_formula_moiety
;
C7 H10 N6 O5
;
_journal_coden_Cambridge 388
_journal_volume 43
_journal_year 2007
_journal_page_first 1241
_journal_name_full 'Zh.Org.Khim.(Russ.)(Russ.J.Org.Chem.) '
loop_
_publ_author_name
"V.V.Bakharev"
"A.A.Gidaspov"
_chemical_name_systematic
;
(6-(ethylamino)-4-methoxy-1,3,5-triazin-1-ium-2-yl)(dinitro)methanide
;
_chemical_melting_point 402.15
_cell_volume   1106.146
_exptl_crystal_colour 'yellow'
_exptl_crystal_density_diffrn 1.562
_exptl_special_details
;
Melts with decomposition.

;
_exptl_crystal_preparation 'methanol/water'
_diffrn_ambient_temperature 295
#These two values have been output from a single CSD field.
_refine_ls_R_factor_gt 0.043
_refine_ls_wR_factor_gt 0.043
_symmetry_cell_setting monoclinic
_symmetry_space_group_name_H-M 'P 21/n'
_symmetry_Int_Tables_number 14
loop_
_symmetry_equiv_pos_site_id
_symmetry_equiv_pos_as_xyz
1 x,y,z
2 1/2-x,1/2+y,1/2-z
3 -x,-y,-z
4 -1/2+x,-1/2-y,-1/2+z
_cell_length_a 7.306(1)
_cell_length_b 13.267(1)
_cell_length_c 11.780(1)
_cell_angle_alpha 90
_cell_angle_beta 104.36(1)
_cell_angle_gamma 90
_cell_formula_units_Z 4
loop_
_atom_type_symbol
_atom_type_radius_bond
C 0.68
H 0.23
N 0.68
O 0.68
loop_
_atom_site_label
_atom_site_type_symbol
_atom_site_fract_x
_atom_site_fract_y
_atom_site_fract_z
O1 O -0.13926(4) 0.27491(2) 0.11805(3)
N1 N 0.09796(5) 0.27068(3) 0.02506(3)
N2 N 0.26597(5) 0.11821(2) 0.04015(3)
O2 O 0.41014(5) -0.06479(2) 0.05861(3)
N3 N 0.33636(5) 0.25016(3) -0.06916(3)
O3 O 0.32233(5) -0.17553(2) 0.17157(3)
N4 N 0.09490(6) -0.05036(3) 0.24291(3)
C1 C 0.16216(6) 0.08047(3) 0.11117(4)
N5 N 0.02754(5) 0.13353(3) 0.14005(3)
O4 O 0.16164(6) -0.02533(3) 0.34254(3)
C2 C 0.19462(6) -0.01890(3) 0.15562(4)
C3 C 0.00234(6) 0.22600(3) 0.09229(4)
C4 C 0.23262(6) 0.21447(3) -0.00197(4)
N6 N 0.31125(5) -0.08881(3) 0.12883(3)
C5 C 0.30775(7) 0.35152(3) -0.12198(4)
C6 C 0.13026(8) 0.36018(4) -0.21913(5)
O5 O -0.04949(7) -0.09574(4) 0.21249(4)
C7 C -0.18302(8) 0.37476(4) 0.06884(5)
H1 H 0.29835 0.39902 -0.05748
H2 H 0.42185 0.35942 -0.16318
H3 H 0.36297 0.08101 0.02495
H4 H 0.43356 0.20406 -0.08836
H5 H -0.28322 0.39476 0.10144
H6 H 0.00446 0.34758 -0.19073
H7 H 0.13556 0.31098 -0.27963
H8 H -0.21022 0.36766 -0.01496
H9 H -0.07522 0.41446 0.09124
H10 H 0.12956 0.43538 -0.24913
#END
