
#######################################################################
#
#                 Cambridge Crystallographic Data Centre
#                                CCDC
#
#######################################################################
#
# If this CIF has been generated from an entry in the Cambridge
# Structural Database, then it will include bibliographic, chemical,
# crystal, experimental, refinement or atomic coordinate data resulting
# from the CCDC's data processing and validation procedures.
#
#######################################################################

data_CSD_CIF_YOWLOM
_audit_creation_date 2009-11-24
_audit_creation_method CSD-ConQuest-V1
_database_code_CSD YOWLOM
_database_code_depnum_ccdc_archive 'CCDC'
_chemical_formula_sum 'C7 H10 N6 O5'
_chemical_formula_moiety
;
C7 H10 N6 O5
;
_journal_coden_Cambridge 388
_journal_volume 43
_journal_year 2007
_journal_page_first 1241
_journal_name_full 'Zh.Org.Khim.(Russ.)(Russ.J.Org.Chem.) '
loop_
_publ_author_name
"V.V.Bakharev"
"A.A.Gidaspov"
_chemical_name_systematic
;
(4-(dimethylamino)-6-methoxy-1,3,5-triazin-1-ium-2-yl)(dinitro)methanide
;
_chemical_melting_point 383.15
_cell_volume    558.655
_exptl_crystal_colour 'yellow'
_exptl_crystal_density_diffrn 1.535
_exptl_special_details
;
Melts with decomposition.

;
_exptl_crystal_preparation 'methanol/water'
_diffrn_ambient_temperature 295
_refine_special_details
;
An O atom is disordered equally over two sites.

;
#These two values have been output from a single CSD field.
_refine_ls_R_factor_gt 0.047
_refine_ls_wR_factor_gt 0.047
_symmetry_cell_setting monoclinic
_symmetry_space_group_name_H-M 'P 21/m'
_symmetry_Int_Tables_number 11
loop_
_symmetry_equiv_pos_site_id
_symmetry_equiv_pos_as_xyz
1 x,y,z
2 -x,1/2+y,-z
3 -x,-y,-z
4 x,-1/2-y,z
_cell_length_a 9.651(1)
_cell_length_b 6.603(1)
_cell_length_c 9.877(1)
_cell_angle_alpha 90
_cell_angle_beta 117.43(1)
_cell_angle_gamma 90
_cell_formula_units_Z 2
loop_
_atom_type_symbol
_atom_type_radius_bond
C 0.68
H 0.23
N 0.68
O 0.68
loop_
_atom_site_label
_atom_site_type_symbol
_atom_site_fract_x
_atom_site_fract_y
_atom_site_fract_z
N1 N 0.59113(4) 0.25000 0.16612(4)
N2 N 0.74808(4) 0.25000 0.43891(4)
N3 N 0.47536(4) 0.25000 0.32800(4)
N4 N 0.50971(5) 0.25000 0.63629(5)
C1 C 0.62871(5) 0.25000 0.59948(5)
C2 C 0.46838(5) 0.25000 0.18779(5)
O1 O 0.37143(4) 0.25000 0.53172(4)
N5 N 0.85934(4) 0.25000 0.27712(5)
C3 C 0.73060(5) 0.25000 0.29463(5)
N6 N 0.78316(6) 0.25000 0.72898(5)
C4 C 1.01476(6) 0.25000 0.40634(6)
O2 O 0.32517(3) 0.25000 0.07704(4)
C5 C 0.85376(6) 0.25000 0.12614(6)
C6 C 0.61850(5) 0.25000 0.45267(5)
O3 O 0.53948(4) 0.25000 0.77309(4)
C7 C 0.30755(6) 0.25000 -0.07699(6)
O4 O 0.8274(3) 0.4322(4) 0.7809(3)
O5? O 0.8610(3) 0.1151(5) 0.7769(4)
H1 H 0.39419 0.25000 0.35318
H2 H 1.00598 0.25000 0.49934
H3 H 1.07038 0.36870 0.40264
H4 H 1.07038 0.13130 0.40264
H5 H 0.74708 0.25000 0.04834
H6 H 0.90553 0.13130 0.11571
H7 H 0.90553 0.36870 0.11571
H8 H 0.19847 0.25000 -0.14839
H9 H 0.35601 0.13130 -0.09238
H10 H 0.35601 0.36870 -0.09238
O4C O 0.8274(3) 0.0678(4) 0.7809(3)
#END
