
#######################################################################
#
#                 Cambridge Crystallographic Data Centre
#                                CCDC
#
#######################################################################
#
# If this CIF has been generated from an entry in the Cambridge
# Structural Database, then it will include bibliographic, chemical,
# crystal, experimental, refinement or atomic coordinate data resulting
# from the CCDC's data processing and validation procedures.
#
#######################################################################

data_CSD_CIF_YOWXIS
_audit_creation_date 2009-11-24
_audit_creation_method CSD-ConQuest-V1
_database_code_CSD YOWXIS
_database_code_depnum_ccdc_archive 'CCDC 715931'
_chemical_formula_sum 'C11 H15 N4 O3'
_chemical_formula_moiety
;
C11 H15 N4 O3
;
_journal_coden_Cambridge 35
_journal_volume 74
_journal_year 2009
_journal_page_first 2870
_journal_name_full 'J.Org.Chem. '
loop_
_publ_author_name
"O.N.Chupakhin"
"I.A.Utepova"
"M.V.Varaksin"
"E.V.Tretyakov"
"G.V.Romanenko"
"D.V.Stass"
"V.I.Ovcharenko"
_chemical_name_systematic
;
4,4,5,5-Tetramethyl-2-(1-oxidopyrazin-2-yl)-3-oxido-4,5-dihydro-1H-imidazole-1
-oxyl
;
_chemical_melting_point 467.15
_cell_volume   2436.538
_exptl_crystal_colour 'red-brown'
_exptl_crystal_density_diffrn 1.37
_exptl_special_details
;
Melting point range 467.15-469.15K
magnetic study

;
_exptl_crystal_preparation 'n-heptane/dichloromethane'
_diffrn_ambient_temperature 293
#These two values have been output from a single CSD field.
_refine_ls_R_factor_gt 0.0668
_refine_ls_wR_factor_gt 0.0668
_symmetry_cell_setting orthorhombic
_symmetry_space_group_name_H-M 'P b c a'
_symmetry_Int_Tables_number 61
loop_
_symmetry_equiv_pos_site_id
_symmetry_equiv_pos_as_xyz
1 x,y,z
2 1/2-x,-y,1/2+z
3 -x,1/2+y,1/2-z
4 1/2+x,1/2-y,-z
5 -x,-y,-z
6 -1/2+x,y,-1/2-z
7 x,-1/2-y,-1/2+z
8 -1/2-x,-1/2+y,z
_cell_length_a 10.644(2)
_cell_length_b 14.876(3)
_cell_length_c 15.388(3)
_cell_angle_alpha 90
_cell_angle_beta 90
_cell_angle_gamma 90
_cell_formula_units_Z 8
loop_
_atom_type_symbol
_atom_type_radius_bond
C 0.68
H 0.23
N 0.68
O 0.68
loop_
_atom_site_label
_atom_site_type_symbol
_atom_site_fract_x
_atom_site_fract_y
_atom_site_fract_z
N1 N 0.3019(2) -0.01759(15) 0.75751(14)
O1 O 0.3413(3) -0.05049(16) 0.82825(14)
C1 C 0.2912(2) -0.07270(18) 0.67672(17)
N2 N 0.2296(2) 0.07972(13) 0.66463(13)
O2 O 0.1844(3) 0.15249(13) 0.63402(14)
C2 C 0.1917(4) -0.1443(3) 0.6938(3)
H1 H 0.22250 -0.18620 0.73630
H2 H 0.17350 -0.17570 0.64070
H3 H 0.11650 -0.11630 0.71500
N3 N 0.1283(2) 0.15646(15) 0.83753(15)
O3 O 0.03344(18) 0.12178(18) 0.79887(15)
C3 C 0.4149(3) -0.1176(3) 0.6588(3)
H4 H 0.43250 -0.16040 0.70380
H5 H 0.48020 -0.07310 0.65730
H6 H 0.41100 -0.14780 0.60370
N4 N 0.3343(3) 0.22620(17) 0.92612(16)
C4 C 0.2498(2) -0.00120(17) 0.60856(16)
C5 C 0.3511(4) 0.0227(3) 0.5431(3)
H7 H 0.31940 0.06690 0.50330
H8 H 0.37510 -0.03020 0.51150
H9 H 0.42290 0.04640 0.57300
C6 C 0.1283(3) -0.0198(3) 0.5615(3)
H10 H 0.11150 0.02810 0.52130
H11 H 0.06100 -0.02370 0.60280
H12 H 0.13500 -0.07550 0.53040
C7 C 0.2600(2) 0.06597(16) 0.74669(15)
C8 C 0.2476(2) 0.13237(15) 0.81595(14)
C9 C 0.1134(3) 0.2172(2) 0.9025(2)
H13 H 0.03350 0.23620 0.91850
C10 C 0.2165(4) 0.2499(2) 0.94416(19)
H14 H 0.20380 0.29170 0.98830
C11 C 0.3465(3) 0.16824(17) 0.86154(18)
H15 H 0.42720 0.15060 0.84600
#END
