
#######################################################################
#
#                 Cambridge Crystallographic Data Centre
#                                CCDC
#
#######################################################################
#
# If this CIF has been generated from an entry in the Cambridge
# Structural Database, then it will include bibliographic, chemical,
# crystal, experimental, refinement or atomic coordinate data resulting
# from the CCDC's data processing and validation procedures.
#
#######################################################################

data_CSD_CIF_YOWXEO
_audit_creation_date 2009-11-24
_audit_creation_method CSD-ConQuest-V1
_database_code_CSD YOWXEO
_database_code_depnum_ccdc_archive 'CCDC 715930'
_chemical_formula_sum 'C17 H19 N4 O3'
_chemical_formula_moiety
;
C17 H19 N4 O3
;
_journal_coden_Cambridge 35
_journal_volume 74
_journal_year 2009
_journal_page_first 2870
_journal_name_full 'J.Org.Chem. '
loop_
_publ_author_name
"O.N.Chupakhin"
"I.A.Utepova"
"M.V.Varaksin"
"E.V.Tretyakov"
"G.V.Romanenko"
"D.V.Stass"
"V.I.Ovcharenko"
_chemical_name_systematic
;
4,4,5,5-Tetramethyl-2-(6-(pyridin-2-yl)-1-oxidopyridin-2-yl)-3-oxido-4,5-dihyd
ro-1H-imidazole-1-oxyl
;
_chemical_melting_point 476.15
_cell_volume   1611.069
_exptl_crystal_colour 'claret red'
_exptl_crystal_density_diffrn 1.35
_exptl_special_details
;
Melting point range 476.15-477.15K
magnetic study

;
_exptl_crystal_preparation 'n-heptane/dichloromethane'
_diffrn_ambient_temperature 240
#These two values have been output from a single CSD field.
_refine_ls_R_factor_gt 0.0595
_refine_ls_wR_factor_gt 0.0595
_symmetry_cell_setting monoclinic
_symmetry_space_group_name_H-M 'P 21/c'
_symmetry_Int_Tables_number 14
loop_
_symmetry_equiv_pos_site_id
_symmetry_equiv_pos_as_xyz
1 x,y,z
2 -x,1/2+y,1/2-z
3 -x,-y,-z
4 x,-1/2-y,-1/2+z
_cell_length_a 7.874(5)
_cell_length_b 18.647(13)
_cell_length_c 10.976(8)
_cell_angle_alpha 90
_cell_angle_beta 91.425(12)
_cell_angle_gamma 90
_cell_formula_units_Z 4
loop_
_atom_type_symbol
_atom_type_radius_bond
C 0.68
H 0.23
N 0.68
O 0.68
loop_
_atom_site_label
_atom_site_type_symbol
_atom_site_fract_x
_atom_site_fract_y
_atom_site_fract_z
O1 O 0.4761(2) 0.14672(9) -0.09997(17)
N1 N 0.3336(2) 0.17339(10) -0.13184(17)
C1 C 0.1708(3) 0.13338(12) -0.1206(2)
O2 O 0.0749(2) 0.31185(10) -0.2165(2)
N2 N 0.1427(2) 0.25217(11) -0.18654(18)
C2 C 0.1909(5) 0.05943(19) -0.1736(5)
H1 H 0.279(5) 0.036(2) -0.120(3)
H2 H 0.221(4) 0.0662(16) -0.258(3)
H3 H 0.084(4) 0.0376(17) -0.179(3)
O3 O 0.40309(19) 0.32031(9) 0.01891(14)
N3 N 0.4852(2) 0.33304(10) -0.07958(16)
C3 C 0.1438(5) 0.1293(3) 0.0162(3)
H4 H 0.124(6) 0.182(3) 0.045(4)
H5 H 0.240(4) 0.1030(17) 0.046(3)
H6 H 0.044(4) 0.1024(17) 0.023(3)
C4 C 0.0457(3) 0.18328(13) -0.1881(2)
C5 C 0.0195(4) 0.1649(2) -0.3216(3)
H7 H 0.12890 0.15830 -0.35870
H8 H -0.04140 0.20350 -0.36250
H9 H -0.04590 0.12090 -0.32920
C6 C -0.1221(4) 0.1941(2) -0.1284(4)
H10 H -0.102(4) 0.2082(16) -0.038(3)
H11 H -0.177(4) 0.1513(18) -0.125(3)
H12 H -0.193(5) 0.229(2) -0.177(3)
C7 C 0.3067(3) 0.24120(12) -0.1644(2)
C8 C 0.4402(3) 0.29410(12) -0.1808(2)
C9 C 0.6103(3) 0.38353(11) -0.0862(2)
C10 C 0.6555(3) 0.43049(12) 0.0185(2)
C11 C 0.6005(3) 0.42348(14) 0.1360(2)
H13 H 0.529(3) 0.3818(14) 0.158(2)
C12 C 0.6516(3) 0.47281(14) 0.2219(2)
H14 H 0.615(3) 0.4714(13) 0.300(2)
C13 C 0.7566(3) 0.52770(15) 0.1903(2)
H15 H 0.784(3) 0.5624(15) 0.245(2)
C14 C 0.8072(3) 0.53067(14) 0.0725(2)
H16 H 0.884(3) 0.5666(15) 0.047(2)
N4 N 0.7604(2) 0.48368(10) -0.01315(18)
C15 C 0.6911(3) 0.39087(13) -0.1958(2)
H17 H 0.771(3) 0.4259(13) -0.196(2)
C16 C 0.6455(3) 0.35305(13) -0.2971(2)
H18 H 0.700(3) 0.3594(13) -0.370(2)
C17 C 0.5167(3) 0.30408(13) -0.2892(2)
H19 H 0.481(3) 0.2744(12) -0.358(2)
#END
