
#######################################################################
#
#                 Cambridge Crystallographic Data Centre
#                                CCDC
#
#######################################################################
#
# If this CIF has been generated from an entry in the Cambridge
# Structural Database, then it will include bibliographic, chemical,
# crystal, experimental, refinement or atomic coordinate data resulting
# from the CCDC's data processing and validation procedures.
#
#######################################################################

data_CSD_CIF_YOWYIT
_audit_creation_date 2009-11-24
_audit_creation_method CSD-ConQuest-V1
_database_code_CSD YOWYIT
_database_code_depnum_ccdc_archive 'CCDC 715936'
_chemical_formula_sum 'C22 H28 N6 O6'
_chemical_formula_moiety
;
C22 H28 N6 O6
;
_journal_coden_Cambridge 35
_journal_volume 74
_journal_year 2009
_journal_page_first 2870
_journal_name_full 'J.Org.Chem. '
loop_
_publ_author_name
"O.N.Chupakhin"
"I.A.Utepova"
"M.V.Varaksin"
"E.V.Tretyakov"
"G.V.Romanenko"
"D.V.Stass"
"V.I.Ovcharenko"
_chemical_name_systematic
;
2,3-bis(4,4,5,5-Tetramethyl-3-oxido-1-oxyl-4,5-dihydro-1H-imidazol-2-yl)quinox
aline 1,4-dioxide
;
_chemical_melting_point 471.15
_cell_volume   2249.859
_exptl_crystal_colour 'orange-brown'
_exptl_crystal_density_diffrn 1.395
_exptl_special_details
;
Melting point range 471.15-473.15K
magnetic study

;
_exptl_crystal_preparation 'n-heptane/dichloromethane'
_diffrn_ambient_temperature 295
#These two values have been output from a single CSD field.
_refine_ls_R_factor_gt 0.0549
_refine_ls_wR_factor_gt 0.0549
_symmetry_cell_setting monoclinic
_symmetry_space_group_name_H-M 'P 21/c'
_symmetry_Int_Tables_number 14
loop_
_symmetry_equiv_pos_site_id
_symmetry_equiv_pos_as_xyz
1 x,y,z
2 -x,1/2+y,1/2-z
3 -x,-y,-z
4 x,-1/2-y,-1/2+z
_cell_length_a 7.3405(9)
_cell_length_b 17.496(2)
_cell_length_c 17.596(2)
_cell_angle_alpha 90
_cell_angle_beta 95.388(2)
_cell_angle_gamma 90
_cell_formula_units_Z 4
loop_
_atom_type_symbol
_atom_type_radius_bond
C 0.68
H 0.23
N 0.68
O 0.68
loop_
_atom_site_label
_atom_site_type_symbol
_atom_site_fract_x
_atom_site_fract_y
_atom_site_fract_z
O1 O 0.1477(2) 0.01484(9) 0.28108(9)
N1 N 0.2651(2) 0.06856(10) 0.28614(9)
C1 C 0.3253(3) 0.10692(12) 0.36100(11)
C2 C 0.3826(4) 0.04671(17) 0.42049(15)
H1 H 0.271(4) 0.0178(16) 0.4343(16)
H2 H 0.427(4) 0.0715(16) 0.4654(16)
H3 H 0.471(4) 0.0122(16) 0.4032(15)
C3 C 0.1605(4) 0.15070(17) 0.38271(16)
H4 H 0.061(4) 0.1132(16) 0.3921(15)
H5 H 0.118(3) 0.1891(14) 0.3447(14)
H6 H 0.190(3) 0.1751(13) 0.4320(15)
C4 C 0.4841(3) 0.15797(13) 0.33806(12)
C5 C 0.6706(4) 0.1189(2) 0.3460(2)
H7 H 0.752(5) 0.1459(19) 0.3208(19)
H8 H 0.658(4) 0.0637(18) 0.3217(16)
H9 H 0.718(4) 0.1144(16) 0.3986(18)
C6 C 0.4927(6) 0.2364(2) 0.37418(19)
H10 H 0.572(4) 0.2632(17) 0.3525(16)
H11 H 0.516(4) 0.2300(16) 0.4250(19)
H12 H 0.376(6) 0.269(3) 0.362(2)
N2 N 0.4365(2) 0.16408(10) 0.2533(1)
O2 O 0.5138(2) 0.21104(10) 0.21161(9)
C7 C 0.3274(3) 0.10643(12) 0.22762(11)
C8 C 0.2831(3) 0.08903(12) 0.14683(11)
C9 C 0.2116(3) 0.14503(12) 0.09518(11)
C10 C 0.1580(3) 0.22047(12) 0.12093(11)
O3 O -0.0480(2) 0.17718(8) 0.20411(9)
N3 N 0.0301(2) 0.23029(9) 0.16985(10)
C11 C -0.0273(3) 0.31254(12) 0.17230(13)
C12 C -0.0691(6) 0.33264(17) 0.25269(18)
H13 H 0.033(4) 0.3226(18) 0.2914(18)
H14 H -0.170(4) 0.3016(16) 0.2650(15)
H15 H -0.101(3) 0.3873(16) 0.2550(14)
C13 C -0.2000(4) 0.31793(18) 0.1169(2)
H16 H -0.175(3) 0.3071(15) 0.0628(16)
H17 H -0.248(4) 0.3677(18) 0.1172(16)
H18 H -0.295(4) 0.2822(15) 0.1329(14)
C14 C 0.1414(3) 0.35291(12) 0.14308(12)
C15 C 0.2870(4) 0.37619(18) 0.20589(17)
H19 H 0.397(4) 0.3908(17) 0.1829(16)
H20 H 0.319(3) 0.3341(15) 0.2434(15)
H21 H 0.238(4) 0.4245(18) 0.2324(16)
C16 C 0.0968(4) 0.41976(15) 0.08961(16)
H22 H 0.018(3) 0.4030(13) 0.0426(14)
H23 H 0.211(4) 0.4367(15) 0.0739(15)
H24 H 0.042(4) 0.4587(16) 0.1150(15)
O4 O 0.3498(2) 0.29858(9) 0.05683(8)
N4 N 0.2221(2) 0.28829(10) 0.09995(9)
O5 O 0.1028(2) 0.17930(9) -0.02676(9)
N5 N 0.1755(2) 0.12926(10) 0.0206(1)
C17 C 0.2110(3) 0.05557(13) -0.00559(12)
C18 C 0.1723(4) 0.03713(16) -0.08257(14)
H25 H 0.118(4) 0.0710(17) -0.1142(16)
C19 C 0.2066(4) -0.03491(16) -0.10713(16)
H26 H 0.178(3) -0.0440(15) -0.1582(15)
C20 C 0.2780(4) -0.09028(16) -0.05622(16)
H27 H 0.304(3) -0.1412(15) -0.0720(14)
C21 C 0.3151(4) -0.07400(14) 0.01955(16)
H28 H 0.362(3) -0.1091(14) 0.0558(14)
C22 C 0.2813(3) -0.00041(12) 0.04578(12)
N6 N 0.3213(2) 0.01746(10) 0.12349(10)
O6 O 0.3963(2) -0.03218(9) 0.16960(9)
#END
