
#######################################################################
#
#                 Cambridge Crystallographic Data Centre
#                                CCDC
#
#######################################################################
#
# If this CIF has been generated from an entry in the Cambridge
# Structural Database, then it will include bibliographic, chemical,
# crystal, experimental, refinement or atomic coordinate data resulting
# from the CCDC's data processing and validation procedures.
#
#######################################################################

data_CSD_CIF_YOWYUE
_audit_creation_date 1995-09-14
_audit_creation_method CSD-ConQuest-V1
_database_code_CSD YOWYUE
_chemical_formula_sum 'C30 H47 N1 O3'
_chemical_formula_moiety
;
C30 H47 N1 O3
;
_journal_coeditor_code "IUCr NA1127"
_journal_coden_Cambridge 591
_journal_volume 51
_journal_year 1995
_journal_page_first 958
_journal_name_full 'Acta Crystallogr.,Sect.C:Cryst.Struct.Commun. '
loop_
_publ_author_name
"G.Argay"
"A.Kalman"
"S.Vladimirov"
"D.Zivanov-Stakic"
"B.Ribar"
_chemical_name_systematic
;
3-Hydroxyimino-5\a,13\a,14\b,17\a-lanosta-8,24-dien-20-oic acid
;
_chemical_melting_point 491
_cell_volume   1392.960
_exptl_crystal_colour 'Colorless'
_exptl_crystal_density_diffrn 1.12
_exptl_special_details
;
Melting point range 491-492K
Absolute configuration

;
_diffrn_ambient_temperature ?
_diffrn_special_details
;
The study was carried out at room temperature,in the range 283-303K

;
#These two values have been output from a single CSD field.
_refine_ls_R_factor_gt 0.0337
_refine_ls_wR_factor_gt 0.0337
_symmetry_cell_setting monoclinic
_symmetry_space_group_name_H-M 'P 21'
_symmetry_Int_Tables_number 4
loop_
_symmetry_equiv_pos_site_id
_symmetry_equiv_pos_as_xyz
1 x,y,z
2 -x,1/2+y,-z
_cell_length_a 12.995(1)
_cell_length_b 7.161(1)
_cell_length_c 16.187(1)
_cell_angle_alpha 90
_cell_angle_beta 112.37(1)
_cell_angle_gamma 90
_cell_formula_units_Z 2
loop_
_atom_type_symbol
_atom_type_radius_bond
C 0.68
H 0.23
N 0.68
O 0.68
loop_
_atom_site_label
_atom_site_type_symbol
_atom_site_fract_x
_atom_site_fract_y
_atom_site_fract_z
C1 C 0.22063(11) 1.00000 0.60864(9)
H1 H 0.20087(11) 1.12500 0.58474(9)
H2 H 0.15247(11) 0.92840 0.59290(9)
C2 C 0.27744(13) 1.0112(3) 0.71077(9)
H3 H 0.34495(13) 1.0849(3) 0.72761(9)
H4 H 0.22818(13) 1.0698(3) 0.73546(9)
C3 C 0.30450(11) 0.8164(3) 0.74582(8)
N1 N 0.25738(10) 0.7344(3) 0.79196(7)
O1 O 0.18243(11) 0.8491(2) 0.81233(8)
H5 H 0.1495(13) 0.7869(7) 0.8371(13)
C4 C 0.38394(11) 0.7060(3) 0.71550(9)
C5 C 0.38977(14) 0.5009(3) 0.74442(10)
H6 H 0.4475(7) 0.4383(5) 0.7318(7)
H7 H 0.3197(3) 0.4413(5) 0.7122(6)
H8 H 0.4058(10) 0.4947(3) 0.8074(2)
C6 C 0.50272(12) 0.7877(4) 0.76061(11)
H9 H 0.5514(3) 0.7285(14) 0.7364(7)
H10 H 0.5296(5) 0.7657(18) 0.8238(2)
H11 H 0.5008(2) 0.9197(5) 0.7496(8)
C7 C 0.33519(10) 0.7151(3) 0.61076(8)
H12 H 0.26759(10) 0.6387(3) 0.59225(8)
C8 C 0.40827(12) 0.6202(3) 0.56869(10)
H13 H 0.47105(12) 0.6999(3) 0.57462(10)
H14 H 0.43681(12) 0.5036(3) 0.59934(10)
C9 C 0.34091(13) 0.5824(3) 0.47061(10)
H15 H 0.39200(13) 0.5646(3) 0.44049(10)
H16 H 0.30048(13) 0.4664(3) 0.46577(10)
C10 C 0.26028(10) 0.7305(3) 0.42310(8)
C11 C 0.23237(11) 0.8747(3) 0.46507(9)
C12 C 0.29527(10) 0.9090(3) 0.56565(8)
C13 C 0.14680(13) 1.0188(3) 0.41379(9)
H17 H 0.18304(13) 1.1398(3) 0.42459(9)
H18 H 0.09006(13) 1.0224(3) 0.43905(9)
C14 C 0.08790(13) 0.9941(3) 0.31216(9)
H19 H 0.01137(13) 1.0357(3) 0.29357(9)
H20 H 0.12439(13) 1.0712(3) 0.28218(9)
C15 C 0.08971(10) 0.7903(3) 0.28431(8)
C16 C 0.21247(10) 0.7217(3) 0.32213(9)
C17 C 0.29067(13) 0.8416(4) 0.29173(11)
H21 H 0.2856(9) 0.9700(5) 0.3069(9)
H22 H 0.2690(8) 0.8303(17) 0.2283(2)
H23 H 0.3659(2) 0.7989(14) 0.3212(8)
C18 C 0.2020(2) 0.5302(3) 0.27737(11)
H24 H 0.1766(2) 0.4366(3) 0.30865(11)
H25 H 0.2726(2) 0.4908(3) 0.27572(11)
C19 C 0.11439(13) 0.5626(3) 0.18174(10)
H26 H 0.06062(13) 0.4616(3) 0.16479(10)
H27 H 0.15033(13) 0.5679(3) 0.13911(10)
C20 C 0.05567(10) 0.7511(3) 0.18297(8)
H28 H 0.09079(10) 0.8470(3) 0.15925(8)
C21 C 0.01816(12) 0.6722(3) 0.32160(9)
H29 H 0.0088(8) 0.5492(6) 0.2962(6)
H30 H -0.0534(4) 0.7300(9) 0.3064(7)
H31 H 0.0544(5) 0.6638(14) 0.38539(12)
C22 C 0.38958(13) 1.0466(3) 0.57331(11)
H32 H 0.4401(6) 0.9889(7) 0.5505(8)
H33 H 0.4288(7) 1.0796(15) 0.63485(15)
H34 H 0.3586(2) 1.1570(8) 0.5393(7)
C23 C -0.06877(10) 0.7441(3) 0.12138(8)
H35 H -0.10389(10) 0.6357(3) 0.13683(8)
C24 C -0.08122(12) 0.7299(3) 0.02281(8)
H36 H -0.05271(12) 0.8437(3) 0.00680(8)
H37 H -0.03568(12) 0.6273(3) 0.01712(8)
C25 C -0.20097(14) 0.6998(3) -0.04353(9)
H38 H -0.25008(14) 0.7811(3) -0.02742(9)
H39 H -0.20595(14) 0.7355(3) -0.10275(9)
C26 C -0.24002(12) 0.5037(3) -0.04643(9)
H40 H -0.19928(12) 0.4148(3) -0.06295(9)
C27 C -0.32470(12) 0.4382(3) -0.02876(9)
C28 C -0.3542(2) 0.2333(4) -0.04188(14)
H41 H -0.4284(5) 0.2195(4) -0.0856(7)
H42 H -0.3500(12) 0.1800(6) 0.0137(3)
H43 H -0.3029(8) 0.1701(5) -0.0621(10)
C29 C -0.3960(2) 0.5518(4) 0.00540(13)
H44 H -0.3872(10) 0.5088(15) 0.0639(5)
H45 H -0.4725(2) 0.5393(18) -0.0342(6)
H46 H -0.3743(9) 0.6806(5) 0.0086(10)
C30 C -0.12621(10) 0.9203(3) 0.13182(8)
O2 O -0.10347(9) 1.0745(2) 0.11244(7)
O3 O -0.20319(9) 0.8921(2) 0.16563(7)
H47 H -0.2327(12) 0.9917(5) 0.1685(13)
#END
