
#######################################################################
#
#                 Cambridge Crystallographic Data Centre
#                                CCDC
#
#######################################################################
#
# If this CIF has been generated from an entry in the Cambridge
# Structural Database, then it will include bibliographic, chemical,
# crystal, experimental, refinement or atomic coordinate data resulting
# from the CCDC's data processing and validation procedures.
#
#######################################################################

data_CSD_CIF_YOXMAB
_audit_creation_date 2015-02-20
_audit_creation_method CSD-ConQuest-V1
_database_code_CSD YOXMAB
_database_code_depnum_ccdc_archive 'CCDC 1050433'
_chemical_formula_sum 'C23 H27 N1 O7'
_chemical_formula_moiety
;
C23 H27 N1 O7
;
_journal_coden_Cambridge 1336
_journal_volume 16
_journal_year 2014
_journal_page_first 5776
_journal_name_full 'Org.Lett. '
loop_
_publ_author_name
"S.D.Fontaine"
"A.G.DiPasquale"
"A.R.Renslo"
_chemical_name_systematic
;
dispiro[cyclohexane-1,3'-[1,2,4]trioxolane-5',2''-tricyclo[3.3.1.1^3,7^]decan]
-3-yl 4-nitrobenzoate
;
_cell_volume   4130.054
_exptl_crystal_colour 'colorless'
_exptl_crystal_density_diffrn 1.381
_exptl_crystal_description 'plate'
_diffrn_ambient_temperature 100
#These two values have been output from a single CSD field.
_refine_ls_R_factor_gt 0.0712
_refine_ls_wR_factor_gt 0.0712
_symmetry_cell_setting orthorhombic
_symmetry_space_group_name_H-M 'P b c a'
_symmetry_Int_Tables_number 61
loop_
_symmetry_equiv_pos_site_id
_symmetry_equiv_pos_as_xyz
1 x,y,z
2 1/2-x,-y,1/2+z
3 -x,1/2+y,1/2-z
4 1/2+x,1/2-y,-z
5 -x,-y,-z
6 -1/2+x,y,-1/2-z
7 x,-1/2-y,-1/2+z
8 -1/2-x,-1/2+y,z
_cell_length_a 6.6484(4)
_cell_length_b 12.9963(8)
_cell_length_c 47.799(3)
_cell_angle_alpha 90
_cell_angle_beta 90
_cell_angle_gamma 90
_cell_formula_units_Z 8
loop_
_atom_type_symbol
_atom_type_radius_bond
C 0.68
H 0.23
N 0.68
O 0.68
loop_
_atom_site_label
_atom_site_type_symbol
_atom_site_fract_x
_atom_site_fract_y
_atom_site_fract_z
C1 C 0.3580(5) 0.7135(2) 0.41610(6)
C2 C 0.2926(5) 0.6016(2) 0.41700(7)
H1 H 0.30070 0.57080 0.39790
C3 C 0.0777(5) 0.5934(3) 0.42818(8)
H2 H -0.01540 0.63060 0.41560
H3 H 0.03630 0.52020 0.42880
C4 C 0.0663(5) 0.6394(3) 0.45751(8)
H4 H -0.07430 0.63310 0.46470
C5 C 0.2096(6) 0.5820(3) 0.47704(8)
H5 H 0.17160 0.50850 0.47800
H6 H 0.20070 0.61120 0.49610
C6 C 0.4254(6) 0.5924(3) 0.46603(7)
H7 H 0.52010 0.55580 0.47890
C7 C 0.4809(6) 0.7072(3) 0.46465(7)
H8 H 0.47110 0.73800 0.48350
H9 H 0.62130 0.71480 0.45810
C8 C 0.3398(5) 0.7627(2) 0.44484(6)
H10 H 0.37790 0.83700 0.44370
C9 C 0.1219(5) 0.7527(3) 0.45529(7)
H11 H 0.10850 0.78600 0.47380
H12 H 0.02960 0.78770 0.44210
C10 C 0.4374(5) 0.5453(3) 0.43696(8)
H13 H 0.40130 0.47150 0.43790
H14 H 0.57670 0.55070 0.42980
C11 C 0.5638(5) 0.8012(2) 0.38544(6)
C12 C 0.7300(5) 0.8764(2) 0.39197(6)
H15 H 0.85900 0.83880 0.39350
H16 H 0.70270 0.90960 0.41020
C13 C 0.7485(5) 0.9594(2) 0.36928(6)
H17 H 0.62530 1.00220 0.36900
H18 H 0.86420 1.00480 0.37350
C14 C 0.7785(5) 0.9092(3) 0.34054(6)
H19 H 0.78760 0.96300 0.32600
H20 H 0.90550 0.86940 0.34040
C15 C 0.6036(5) 0.8384(2) 0.33430(6)
H21 H 0.47670 0.87940 0.33300
C16 C 0.5803(5) 0.7548(2) 0.35632(6)
H22 H 0.69770 0.70800 0.35560
H23 H 0.45820 0.71380 0.35230
C17 C 0.6133(4) 0.8328(2) 0.28411(6)
C18 C 0.6374(4) 0.7628(2) 0.25946(6)
C19 C 0.6145(4) 0.8050(2) 0.23288(6)
H24 H 0.58370 0.87600 0.23090
C20 C 0.6366(4) 0.7438(2) 0.20938(6)
H25 H 0.61940 0.77160 0.19120
C21 C 0.6842(4) 0.6411(2) 0.21312(6)
C22 C 0.7081(4) 0.5968(2) 0.23930(6)
H26 H 0.74100 0.52600 0.24120
C23 C 0.6828(4) 0.6587(2) 0.26264(6)
H27 H 0.69640 0.63020 0.28080
N1 N 0.7121(4) 0.57632(19) 0.18823(5)
O1 O 0.2415(3) 0.76623(17) 0.39532(4)
O2 O 0.3754(3) 0.85311(16) 0.38911(4)
O3 O 0.5597(3) 0.72065(17) 0.40577(4)
O4 O 0.6345(3) 0.78127(15) 0.30827(4)
O5 O 0.5783(3) 0.92387(15) 0.28225(4)
O6 O 0.8163(3) 0.49884(17) 0.19051(4)
O7 O 0.6305(4) 0.60306(18) 0.16646(4)
#END
