
#######################################################################
#
#                 Cambridge Crystallographic Data Centre
#                                CCDC
#
#######################################################################
#
# If this CIF has been generated from an entry in the Cambridge
# Structural Database, then it will include bibliographic, chemical,
# crystal, experimental, refinement or atomic coordinate data resulting
# from the CCDC's data processing and validation procedures.
#
#######################################################################

data_CSD_CIF_YOZBOG
_audit_creation_date 2015-02-20
_audit_creation_method CSD-ConQuest-V1
_database_code_CSD YOZBOG
_database_code_depnum_ccdc_archive 'CCDC 1049994'
_chemical_formula_sum 'C25 H22 N2 O1'
_chemical_formula_moiety
;
C25 H22 N2 O1
;
_journal_coden_Cambridge 1336
_journal_volume 16
_journal_year 2014
_journal_page_first 6476
_journal_name_full 'Org.Lett. '
loop_
_publ_author_name
"Xiu-Long Yang"
"Fei Chen"
"Neng-Neng Zhou"
"Wei Yu"
"Bing Han"
_chemical_name_systematic
;
6-((4,4-dimethyl-3-phenyl-4,5-dihydro-1,2-oxazol-5-yl)methyl)phenanthridine
;
_cell_volume   3826.513
_exptl_crystal_colour 'light yellow'
_exptl_crystal_density_diffrn 1.272
_exptl_crystal_description 'block'
_diffrn_ambient_temperature 296
#These two values have been output from a single CSD field.
_refine_ls_R_factor_gt 0.0712
_refine_ls_wR_factor_gt 0.0712
_symmetry_cell_setting monoclinic
_symmetry_space_group_name_H-M 'I 2/c'
_symmetry_Int_Tables_number 15
loop_
_symmetry_equiv_pos_site_id
_symmetry_equiv_pos_as_xyz
1 x,y,z
2 -x,y,1/2-z
3 1/2+x,1/2+y,1/2+z
4 1/2-x,1/2+y,-z
5 -x,-y,-z
6 x,-y,-1/2+z
7 -1/2-x,-1/2-y,-1/2-z
8 -1/2+x,-1/2-y,z
_cell_length_a 17.6880(16)
_cell_length_b 10.0067(7)
_cell_length_c 21.9732(18)
_cell_angle_alpha 90
_cell_angle_beta 100.303(8)
_cell_angle_gamma 90
_cell_formula_units_Z 8
loop_
_atom_type_symbol
_atom_type_radius_bond
C 0.68
H 0.23
N 0.68
O 0.68
loop_
_atom_site_label
_atom_site_type_symbol
_atom_site_fract_x
_atom_site_fract_y
_atom_site_fract_z
O1 O 0.32769(13) 0.13250(18) 0.52047(10)
N1 N 0.38331(14) 0.1201(2) 0.48204(11)
N2 N 0.30243(15) 0.1696(2) 0.65018(11)
C1 C 0.24394(18) 0.2319(3) 0.61778(13)
C2 C 0.16868(17) 0.2328(3) 0.63385(12)
C3 C 0.10603(19) 0.3060(3) 0.60015(14)
H1 H 0.11320 0.35610 0.56600
C4 C 0.03573(19) 0.3038(3) 0.61710(16)
H2 H -0.00480 0.35120 0.59410
C5 C 0.0241(2) 0.2324(3) 0.66768(16)
H3 H -0.02410 0.23170 0.67890
C6 C 0.08336(18) 0.1618(3) 0.70184(14)
H4 H 0.07480 0.11440 0.73640
C7 C 0.15697(16) 0.1593(3) 0.68584(12)
C8 C 0.22057(17) 0.0848(3) 0.72035(12)
C9 C 0.2151(2) 0.0024(3) 0.77144(15)
H5 H 0.16830 -0.00620 0.78470
C10 C 0.2781(2) -0.0652(4) 0.80166(17)
H6 H 0.27350 -0.11990 0.83500
C11 C 0.3489(2) -0.0529(4) 0.78299(16)
H7 H 0.39160 -0.09820 0.80410
C12 C 0.35547(19) 0.0255(3) 0.73377(14)
H8 H 0.40280 0.03320 0.72120
C13 C 0.29222(18) 0.0946(3) 0.70178(13)
C14 C 0.25506(19) 0.3032(3) 0.55888(15)
H9 H 0.21260 0.28030 0.52610
H10 H 0.25320 0.39880 0.56560
C15 C 0.32767(18) 0.2708(3) 0.53812(14)
H11 H 0.36960 0.28370 0.57340
C16 C 0.34903(16) 0.3463(3) 0.48255(12)
C17 C 0.39805(15) 0.2358(2) 0.46271(12)
C18 C 0.45787(15) 0.2459(2) 0.42336(12)
C19 C 0.45804(18) 0.3467(3) 0.38023(14)
H12 H 0.42090 0.41350 0.37630
C20 C 0.5134(2) 0.3482(3) 0.34287(16)
H13 H 0.51310 0.41620 0.31400
C21 C 0.5684(2) 0.2507(3) 0.34797(16)
H14 H 0.60490 0.25180 0.32230
C22 C 0.56942(18) 0.1514(3) 0.39118(16)
H15 H 0.60670 0.08490 0.39480
C23 C 0.51547(16) 0.1499(3) 0.42927(13)
H16 H 0.51760 0.08390 0.45930
C24 C 0.3907(2) 0.4755(3) 0.50355(16)
H17 H 0.35760 0.53230 0.52220
H18 H 0.40480 0.52010 0.46850
H19 H 0.43620 0.45580 0.53320
C25 C 0.28088(17) 0.3717(3) 0.43074(15)
H20 H 0.24870 0.43990 0.44330
H21 H 0.25180 0.29080 0.42190
H22 H 0.29920 0.40050 0.39430
#END
