
#######################################################################
#
#                 Cambridge Crystallographic Data Centre
#                                CCDC
#
#######################################################################
#
# If this CIF has been generated from an entry in the Cambridge
# Structural Database, then it will include bibliographic, chemical,
# crystal, experimental, refinement or atomic coordinate data resulting
# from the CCDC's data processing and validation procedures.
#
#######################################################################

data_CSD_CIF_YUBWIB
_audit_creation_date 1996-01-18
_audit_creation_method CSD-ConQuest-V1
_database_code_CSD YUBWIB
_database_code_depnum_ccdc_archive 'CCDC 1306182'
_chemical_formula_sum 'C17 H25 N3 O3'
_chemical_formula_moiety
;
C17 H25 N3 O3
;
_journal_coden_Cambridge 179
_journal_volume 34
_journal_year 1995
_journal_page_first 927
_journal_name_full 'Angew.Chem.,Int.Ed. '
loop_
_publ_author_name
"K.Inoue"
"H.Iwamura"
_chemical_name_systematic
;
2-(p-(N-t-Butyl-N-oxyamino)phenyl)-4,4,5,5-tetramethyl-4,5-dihydroimidazol-3-o
xide-1-oxyl
;
_chemical_melting_point 453.15
_cell_volume   1735.894
_exptl_crystal_colour 'violet'
_exptl_crystal_density_diffrn 1.222
_exptl_special_details
;
Melts with decomposition.

;
_diffrn_ambient_temperature ?
_diffrn_special_details
;
The study was carried out at room temperature,in the range 283-303K

;
#These two values have been output from a single CSD field.
_refine_ls_R_factor_gt 0.052
_refine_ls_wR_factor_gt 0.052
_symmetry_cell_setting monoclinic
_symmetry_space_group_name_H-M 'P 21/n'
_symmetry_Int_Tables_number 14
loop_
_symmetry_equiv_pos_site_id
_symmetry_equiv_pos_as_xyz
1 x,y,z
2 1/2-x,1/2+y,1/2-z
3 -x,-y,-z
4 -1/2+x,-1/2-y,-1/2+z
_cell_length_a 6.155(2)
_cell_length_b 11.356(2)
_cell_length_c 24.995(2)
_cell_angle_alpha 90
_cell_angle_beta 96.48(2)
_cell_angle_gamma 90
_cell_formula_units_Z 4
loop_
_atom_type_symbol
_atom_type_radius_bond
C 0.68
H 0.23
N 0.68
O 0.68
loop_
_atom_site_label
_atom_site_type_symbol
_atom_site_fract_x
_atom_site_fract_y
_atom_site_fract_z
O1 O 0.7270(3) 0.1366(2) 0.13045(9)
O2 O 0.3375(4) 0.4004(2) 0.22257(9)
O3 O 1.0919(4) 0.6750(3) 0.0580(1)
N1 N 0.6043(4) 0.1799(2) 0.1632(1)
N2 N 0.4181(4) 0.3047(2) 0.2062(1)
N3 N 0.8866(4) 0.6753(2) 0.0555(1)
C1 C 0.6362(4) 0.3920(2) 0.1378(1)
C2 C 0.5142(5) 0.4942(2) 0.1284(1)
C3 C 0.5868(5) 0.5861(3) 0.1000(1)
C4 C 0.7895(4) 0.5801(2) 0.0809(1)
C5 C 0.9129(5) 0.4776(3) 0.0893(1)
C6 C 0.8361(5) 0.3849(3) 0.1170(1)
C7 C 0.5564(4) 0.2947(2) 0.1682(1)
C8 C 0.7671(5) 0.7758(2) 0.0264(1)
C9 C 0.6996(7) 0.8633(3) 0.0671(2)
C10 C 0.9270(7) 0.8341(3) -0.0072(2)
C11 C 0.5711(6) 0.7300(3) -0.0096(1)
C12 C 0.3899(4) 0.1915(2) 0.2354(1)
C13 C 0.4696(4) 0.1018(2) 0.1950(1)
C14 C 0.6104(5) 0.0021(3) 0.2196(1)
C15 C 0.2848(5) 0.0528(3) 0.1553(1)
C16 C 0.1551(5) 0.1799(3) 0.2461(1)
C17 C 0.5377(6) 0.2000(3) 0.2881(1)
H1 H 0.379(4) 0.500(2) 0.141(1)
H2 H 0.506(4) 0.652(2) 0.093(1)
H3 H 1.057(4) 0.474(2) 0.075(1)
H4 H 0.929(5) 0.317(3) 0.123(1)
H5 H 0.82710 0.89210 0.09090
H6 H 0.62530 0.92970 0.05180
H7 H 0.60660 0.82620 0.09150
H8 H 1.05440 0.86050 0.01450
H9 H 0.97130 0.77810 -0.03300
H10 H 0.86090 0.89940 -0.02700
H11 H 0.48940 0.79420 -0.02870
H12 H 0.60990 0.67610 -0.03560
H13 H 0.46760 0.69150 0.01130
H14 H 0.52510 -0.05000 0.23910
H15 H 0.66610 -0.04380 0.19150
H16 H 0.72870 0.03140 0.24280
H17 H 0.19920 0.11590 0.13860
H18 H 0.34450 0.00880 0.12770
H19 H 0.19320 0.00280 0.17320
H20 H 0.11320 0.24280 0.26750
H21 H 0.06080 0.17760 0.21300
H22 H 0.13470 0.10680 0.26500
H23 H 0.52580 0.12960 0.30890
H24 H 0.68540 0.20940 0.28150
H25 H 0.49580 0.26520 0.30870
#END
