
#######################################################################
#
#                 Cambridge Crystallographic Data Centre
#                                CCDC
#
#######################################################################
#
# If this CIF has been generated from an entry in the Cambridge
# Structural Database, then it will include bibliographic, chemical,
# crystal, experimental, refinement or atomic coordinate data resulting
# from the CCDC's data processing and validation procedures.
#
#######################################################################

data_CSD_CIF_YUCGUA
_audit_creation_date 2015-02-20
_audit_creation_method CSD-ConQuest-V1
_database_code_CSD YUCGUA
_database_code_depnum_ccdc_archive 'CCDC 1039571'
_chemical_formula_sum 'C20 H17 N1 O9'
_chemical_formula_moiety
;
C20 H17 N1 O9
;
_journal_coden_Cambridge 891
_journal_volume 10
_journal_year 2015
_journal_page_first 629
_journal_name_full 'ChemMedChem '
loop_
_publ_author_name
"M.Brautigam"
"N.Teusch"
"T.Schenk"
"M.Sheikh"
"R.Z.Aricioglu"
"S.H.Borowski"
"J.-M.Neudorfl"
"U.Baumann"
"A.G.Griesbeck"
"M.Pietsch"
_chemical_name_systematic
;
methyl 4-((2-(3-(4-nitrophenyl)-1,2,4-trioxan-6-yl)acryloyl)oxy)benzoate
;
_cell_volume   3786.955
_exptl_crystal_colour 'colorless'
_exptl_crystal_density_diffrn 1.457
_exptl_crystal_description 'prism'
_exptl_crystal_preparation '1,2-dichloroethane/heptane'
_diffrn_ambient_temperature 100
#These two values have been output from a single CSD field.
_refine_ls_R_factor_gt 0.0403
_refine_ls_wR_factor_gt 0.0403
_symmetry_cell_setting orthorhombic
_symmetry_space_group_name_H-M 'P b c a'
_symmetry_Int_Tables_number 61
loop_
_symmetry_equiv_pos_site_id
_symmetry_equiv_pos_as_xyz
1 x,y,z
2 1/2-x,-y,1/2+z
3 1/2+x,1/2-y,-z
4 -x,1/2+y,1/2-z
5 -x,-y,-z
6 -1/2+x,y,-1/2-z
7 -1/2-x,-1/2+y,z
8 x,-1/2-y,-1/2+z
_cell_length_a 10.0669(5)
_cell_length_b 9.2847(4)
_cell_length_c 40.516(2)
_cell_angle_alpha 90
_cell_angle_beta 90
_cell_angle_gamma 90
_cell_formula_units_Z 8
loop_
_atom_type_symbol
_atom_type_radius_bond
C 0.68
H 0.23
N 0.68
O 0.68
loop_
_atom_site_label
_atom_site_type_symbol
_atom_site_fract_x
_atom_site_fract_y
_atom_site_fract_z
O1 O 0.29901(11) 0.09920(11) -0.13348(2)
O2 O 0.28246(10) 0.20303(12) -0.16107(3)
O3 O 0.46518(10) 0.24168(12) -0.11112(2)
O4 O 0.24734(13) -0.23502(14) 0.01731(3)
O5 O 0.45019(13) -0.28449(15) 0.00627(3)
O6 O 0.35127(12) 0.34153(12) -0.25650(3)
O7 O 0.29726(11) 0.03031(12) -0.39443(3)
O8 O 0.45835(12) 0.18728(13) -0.40722(3)
O9 O 0.43153(13) 0.13688(13) -0.23427(3)
N1 N 0.34887(15) -0.21739(15) 0.00120(3)
C1 C 0.41477(14) 0.25439(17) -0.16899(4)
H1 H 0.47430 0.17050 -0.17350
C2 C 0.46496(17) 0.33528(17) -0.13950(4)
H2 H 0.55610 0.37050 -0.14380
H3 H 0.40730 0.41960 -0.13520
C3 C 0.33864(16) 0.18377(16) -0.10578(4)
H4 H 0.27280 0.26220 -0.10160
C4 C 0.34324(15) 0.08107(16) -0.07709(4)
C5 C 0.22609(16) 0.04782(17) -0.06050(4)
H5 H 0.14510 0.09200 -0.06700
C6 C 0.22717(16) -0.04968(17) -0.03452(4)
H6 H 0.14780 -0.07330 -0.02310
C7 C 0.34667(16) -0.11109(16) -0.02584(4)
C8 C 0.46460(16) -0.07982(19) -0.04164(4)
H7 H 0.54550 -0.12370 -0.03490
C9 C 0.46158(17) 0.01756(19) -0.06755(4)
H8 H 0.54140 0.04090 -0.07890
C10 C 0.40011(14) 0.34329(16) -0.19964(4)
C11 C 0.39680(16) 0.25984(18) -0.23114(4)
C12 C 0.35838(16) 0.28441(16) -0.28864(4)
C13 C 0.26960(16) 0.18061(17) -0.29877(4)
H9 H 0.20620 0.14190 -0.28390
C14 C 0.27487(15) 0.13381(17) -0.33123(4)
H10 H 0.21500 0.06170 -0.33870
C15 C 0.36743(15) 0.19186(17) -0.35302(4)
C16 C 0.37991(15) 0.14006(18) -0.38767(4)
C17 C 0.31572(18) -0.0379(2) -0.42640(4)
H11 H 0.30270 0.03350 -0.44390
H12 H 0.25100 -0.11590 -0.42900
H13 H 0.40590 -0.07730 -0.42780
C18 C 0.45543(15) 0.29657(17) -0.34216(4)
H14 H 0.51820 0.33680 -0.35700
C19 C 0.45198(16) 0.34283(17) -0.30952(4)
H15 H 0.51290 0.41330 -0.30180
C20 C 0.39599(17) 0.48575(18) -0.20002(4)
H16 H 0.39090 0.53570 -0.22040
H17 H 0.39810 0.53800 -0.17990
#END
