
#######################################################################
#
#                 Cambridge Crystallographic Data Centre
#                                CCDC
#
#######################################################################
#
# If this CIF has been generated from an entry in the Cambridge
# Structural Database, then it will include bibliographic, chemical,
# crystal, experimental, refinement or atomic coordinate data resulting
# from the CCDC's data processing and validation procedures.
#
#######################################################################

data_CSD_CIF_YUCPOC
_audit_creation_date 2009-11-24
_audit_creation_method CSD-ConQuest-V1
_database_code_CSD YUCPOC
_database_code_depnum_ccdc_archive 'CCDC 749708'
_chemical_formula_sum 'C16 H13 N5 O2'
_chemical_formula_moiety
;
C16 H13 N5 O2
;
_journal_coeditor_code "IUCr GG3208"
_journal_coden_Cambridge 591
_journal_volume 65
_journal_year 2009
_journal_page_first o438
_journal_name_full 'Acta Crystallogr.,Sect.C:Cryst.Struct.Commun. '
loop_
_publ_author_name
"R.Rodriguez"
"M.Nogueras"
"J.Cobo"
"C.Glidewell"
_chemical_name_systematic
;
5-Nitro-N,N'-diphenylpyrimidine-4,6-diamine
;
_chemical_melting_point 441
_cell_volume   1344.170
_exptl_crystal_colour 'yellow'
_exptl_crystal_density_diffrn 1.519
_exptl_special_details
;
Melting point range 441-443K

;
_exptl_crystal_description 'plate'
_exptl_crystal_preparation 'DMSO'
_diffrn_ambient_temperature 120
#These two values have been output from a single CSD field.
_refine_ls_R_factor_gt 0.0566
_refine_ls_wR_factor_gt 0.0566
_symmetry_cell_setting monoclinic
_symmetry_space_group_name_H-M 'P 21/c'
_symmetry_Int_Tables_number 14
loop_
_symmetry_equiv_pos_site_id
_symmetry_equiv_pos_as_xyz
1 x,y,z
2 -x,1/2+y,1/2-z
3 -x,-y,-z
4 x,-1/2-y,-1/2+z
_cell_length_a 7.9112(11)
_cell_length_b 5.5582(6)
_cell_length_c 30.665(3)
_cell_angle_alpha 90
_cell_angle_beta 94.541(10)
_cell_angle_gamma 90
_cell_formula_units_Z 4
loop_
_atom_type_symbol
_atom_type_radius_bond
C 0.68
H 0.23
N 0.68
O 0.68
loop_
_atom_site_label
_atom_site_type_symbol
_atom_site_fract_x
_atom_site_fract_y
_atom_site_fract_z
N1 N 0.3389(3) 0.3814(4) 0.42872(6)
C1 C 0.3661(3) 0.3644(5) 0.38694(8)
H1 H 0.43270 0.23020 0.37970
N2 N 0.3157(3) 0.5033(4) 0.35383(6)
C2 C 0.2250(3) 0.6966(4) 0.36356(8)
C3 C 0.1861(3) 0.7393(4) 0.40724(7)
C4 C 0.2467(3) 0.5718(5) 0.43984(8)
N3 N 0.1781(3) 0.8435(4) 0.33035(6)
H2 H 0.11810 0.97140 0.33610
C5 C 0.2175(3) 0.8092(5) 0.28647(8)
C6 C 0.1616(3) 0.6076(5) 0.26331(8)
H3 H 0.09850 0.48700 0.27680
C7 C 0.1981(3) 0.5835(5) 0.22052(8)
H4 H 0.16030 0.44550 0.20430
C8 C 0.2893(4) 0.7583(5) 0.20110(8)
H5 H 0.31490 0.74020 0.17150
C9 C 0.3435(4) 0.9590(5) 0.22427(9)
H6 H 0.40660 1.07930 0.21070
C10 C 0.3068(3) 0.9865(5) 0.26701(8)
H7 H 0.34270 1.12630 0.28300
N4 N 0.0890(3) 0.9413(4) 0.41752(7)
O1 O 0.0345(2) 1.0828(3) 0.38809(5)
O2 O 0.0566(2) 0.9798(3) 0.45583(5)
N5 N 0.2137(3) 0.5944(4) 0.48158(6)
H8 H 0.15380 0.72280 0.48710
C11 C 0.2574(3) 0.4496(4) 0.51860(8)
C12 C 0.3513(3) 0.2398(5) 0.51946(8)
H9 H 0.39370 0.18020 0.49340
C13 C 0.3830(3) 0.1181(5) 0.55825(8)
H10 H 0.44760 -0.02610 0.55870
C14 C 0.3234(3) 0.2002(5) 0.59642(8)
H11 H 0.34600 0.11380 0.62300
C15 C 0.2297(3) 0.4110(5) 0.59559(8)
H12 H 0.18850 0.47080 0.62180
C16 C 0.1966(3) 0.5333(5) 0.55710(8)
H13 H 0.13130 0.67690 0.55670
#END
