
#######################################################################
#
#                 Cambridge Crystallographic Data Centre
#                                CCDC
#
#######################################################################
#
# If this CIF has been generated from an entry in the Cambridge
# Structural Database, then it will include bibliographic, chemical,
# crystal, experimental, refinement or atomic coordinate data resulting
# from the CCDC's data processing and validation procedures.
#
#######################################################################

data_CSD_CIF_YUCPUI
_audit_creation_date 2009-11-24
_audit_creation_method CSD-ConQuest-V1
_database_code_CSD YUCPUI
_database_code_depnum_ccdc_archive 'CCDC 749709'
_chemical_formula_sum 'C12 H13 N5 O3'
_chemical_formula_moiety
;
C12 H13 N5 O3
;
_journal_coeditor_code "IUCr DN3119"
_journal_coden_Cambridge 591
_journal_volume 65
_journal_year 2009
_journal_page_first o441
_journal_name_full 'Acta Crystallogr.,Sect.C:Cryst.Struct.Commun. '
loop_
_publ_author_name
"R.Rodriguez"
"M.Nogueras"
"J.Cobo"
"C.Glidewell"
_chemical_name_systematic
;
2-Amino-3-methyl-6-(methyl(phenyl)amino)-5-nitropyrimidin-4(3H)-one
;
_chemical_melting_point 549
_cell_volume   1194.916
_exptl_crystal_colour 'colorless'
_exptl_crystal_density_diffrn 1.53
_exptl_special_details
;
Melting point range 549-551K

;
_exptl_crystal_description 'block'
_exptl_crystal_preparation 'DMSO'
_diffrn_ambient_temperature 120
#These two values have been output from a single CSD field.
_refine_ls_R_factor_gt 0.0503
_refine_ls_wR_factor_gt 0.0503
_symmetry_cell_setting monoclinic
_symmetry_space_group_name_H-M 'P 21/n'
_symmetry_Int_Tables_number 14
loop_
_symmetry_equiv_pos_site_id
_symmetry_equiv_pos_as_xyz
1 x,y,z
2 1/2-x,1/2+y,1/2-z
3 -x,-y,-z
4 -1/2+x,-1/2-y,-1/2+z
_cell_length_a 9.158(2)
_cell_length_b 12.178(3)
_cell_length_c 11.103(2)
_cell_angle_alpha 90
_cell_angle_beta 105.207(18)
_cell_angle_gamma 90
_cell_formula_units_Z 4
loop_
_atom_type_symbol
_atom_type_radius_bond
C 0.68
H 0.23
N 0.68
O 0.68
loop_
_atom_site_label
_atom_site_type_symbol
_atom_site_fract_x
_atom_site_fract_y
_atom_site_fract_z
N1 N 0.1759(2) 0.47934(14) 0.40280(16)
C1 C 0.1998(2) 0.40033(17) 0.32896(19)
N2 N 0.3054(2) 0.32090(15) 0.36588(16)
C2 C 0.4036(2) 0.32139(17) 0.48588(19)
C3 C 0.3709(2) 0.40218(17) 0.56549(18)
C4 C 0.2581(2) 0.48040(17) 0.52184(19)
N3 N 0.1148(2) 0.39955(15) 0.21103(16)
H1 H 0.04570 0.45060 0.18510
H2 H 0.12790 0.34800 0.15930
C5 C 0.3418(3) 0.2459(2) 0.2744(2)
H3 H 0.25300 0.20090 0.23640
H4 H 0.42600 0.19820 0.31640
H5 H 0.37070 0.28860 0.20950
O1 O 0.51071(17) 0.25681(13) 0.51191(14)
N4 N 0.4768(2) 0.41103(15) 0.68542(17)
O2 O 0.5049(2) 0.32873(13) 0.75131(15)
O3 O 0.53541(18) 0.50020(13) 0.71759(14)
N5 N 0.2209(2) 0.55972(14) 0.59422(16)
C6 C 0.2429(2) 0.54730(18) 0.72536(19)
C7 C 0.1980(2) 0.45233(18) 0.7732(2)
H6 H 0.15540 0.39370 0.71890
C8 C 0.2151(3) 0.44235(19) 0.9004(2)
H7 H 0.18410 0.37680 0.93300
C9 C 0.2765(3) 0.5267(2) 0.9796(2)
H8 H 0.28900 0.51960 1.06690
C10 C 0.3199(3) 0.6215(2) 0.9313(2)
H9 H 0.36180 0.68020 0.98570
C11 C 0.3034(3) 0.63213(18) 0.8051(2)
H10 H 0.33380 0.69810 0.77280
C12 C 0.1278(3) 0.65095(18) 0.5342(2)
H11 H 0.17580 0.68660 0.47530
H12 H 0.11710 0.70410 0.59760
H13 H 0.02770 0.62370 0.48920
#END
