
#######################################################################
#
#                 Cambridge Crystallographic Data Centre
#                                CCDC
#
#######################################################################
#
# If this CIF has been generated from an entry in the Cambridge
# Structural Database, then it will include bibliographic, chemical,
# crystal, experimental, refinement or atomic coordinate data resulting
# from the CCDC's data processing and validation procedures.
#
#######################################################################

data_CSD_CIF_YUCWUQ
_audit_creation_date 2015-02-20
_audit_creation_method CSD-ConQuest-V1
_database_code_CSD YUCWUQ
_database_code_depnum_ccdc_archive 'CCDC 1033502'
_chemical_formula_sum 'C20 H16 N2 O5'
_chemical_formula_moiety
;
C20 H16 N2 O5
;
_journal_coden_Cambridge 16
_journal_volume 71
_journal_year 2015
_journal_page_first 1940
_journal_name_full 'Tetrahedron '
loop_
_publ_author_name
"A.V.Galenko"
"A.F.Khlebnikov"
"M.S.Novikov"
"M.S.Avdontceva"
_chemical_name_systematic
;
Ethyl (2-(3-nitrophenyl)-4-phenyl-1H-pyrrol-3-yl)(oxo)acetate
;
_cell_volume    881.968
_exptl_crystal_density_diffrn 1.372
_diffrn_ambient_temperature 100
#These two values have been output from a single CSD field.
_refine_ls_R_factor_gt 0.0583
_refine_ls_wR_factor_gt 0.0583
_symmetry_cell_setting triclinic
_symmetry_space_group_name_H-M 'P -1'
_symmetry_Int_Tables_number 2
loop_
_symmetry_equiv_pos_site_id
_symmetry_equiv_pos_as_xyz
1 x,y,z
2 -x,-y,-z
_cell_length_a 8.5223(10)
_cell_length_b 8.7710(14)
_cell_length_c 12.1780(15)
_cell_angle_alpha 95.236(12)
_cell_angle_beta 95.048(10)
_cell_angle_gamma 101.813(12)
_cell_formula_units_Z 2
loop_
_atom_type_symbol
_atom_type_radius_bond
C 0.68
H 0.23
N 0.68
O 0.68
loop_
_atom_site_label
_atom_site_type_symbol
_atom_site_fract_x
_atom_site_fract_y
_atom_site_fract_z
O1 O 0.95144(18) 0.83059(18) 0.82167(13)
O2 O 1.09572(18) 0.7109(2) 0.93778(13)
O3 O 0.7314(2) 0.7009(2) 1.37967(14)
O4 O 0.88542(19) 0.8205(2) 1.08180(14)
O5 O 0.6150(2) 0.8495(2) 1.48150(14)
N1 N 0.4121(2) 0.6835(2) 0.90258(15)
H1 H 0.31550 0.69560 0.90900
N2 N 0.6416(2) 0.7925(2) 1.39083(16)
C1 C 0.9772(3) 0.7613(3) 0.91149(19)
C2 C 0.6749(2) 0.6950(2) 0.93906(18)
C3 C 0.6206(3) 0.6134(2) 0.82920(18)
C4 C 0.5137(3) 0.8087(3) 1.09171(18)
C5 C 0.5383(3) 0.7329(3) 0.98231(18)
C6 C 0.7131(3) 0.5316(3) 0.75463(19)
C7 C 0.4595(3) 0.6118(3) 0.81047(19)
H2 H 0.39300 0.56880 0.74570
C8 C 0.5602(3) 0.8366(2) 1.29008(18)
C9 C 0.5934(3) 0.7738(2) 1.18842(18)
H3 H 0.66750 0.70950 1.18460
C10 C 0.4039(3) 0.9062(3) 1.10152(19)
H4 H 0.34920 0.92930 1.03780
C11 C 0.8403(3) 0.7587(3) 0.98655(19)
C12 C 0.8189(3) 0.4443(3) 0.79740(19)
H5 H 0.83180 0.43840 0.87340
C13 C 0.3748(3) 0.9693(3) 1.20474(19)
H6 H 0.30230 1.03520 1.20930
C14 C 0.6938(3) 0.5370(3) 0.63925(19)
H7 H 0.62350 0.59390 0.60870
C15 C 0.4531(3) 0.9346(3) 1.30068(19)
H8 H 0.43430 0.97590 1.37020
C16 C 0.9053(3) 0.3659(3) 0.7286(2)
H9 H 0.97590 0.30870 0.75860
C17 C 1.0747(3) 0.8395(3) 0.7443(2)
H10 H 1.08570 0.73510 0.71730
H11 H 1.17820 0.89740 0.78100
C18 C 0.7799(3) 0.4573(3) 0.5709(2)
H12 H 0.76580 0.46050 0.49470
C19 C 0.8861(3) 0.3731(3) 0.6148(2)
H13 H 0.94450 0.32170 0.56840
C20 C 1.0208(3) 0.9219(3) 0.6499(2)
H14 H 1.09740 0.92720 0.59630
H15 H 1.01350 1.02600 0.67730
H16 H 0.91710 0.86500 0.61550
#END
