
#######################################################################
#
#                 Cambridge Crystallographic Data Centre
#                                CCDC
#
#######################################################################
#
# If this CIF has been generated from an entry in the Cambridge
# Structural Database, then it will include bibliographic, chemical,
# crystal, experimental, refinement or atomic coordinate data resulting
# from the CCDC's data processing and validation procedures.
#
#######################################################################

data_CSD_CIF_YUDMOZ
_audit_creation_date 1996-01-25
_audit_creation_method CSD-ConQuest-V1
_database_code_CSD YUDMOZ
_database_code_depnum_ccdc_archive 'CCDC 1306346'
_database_code_depnum_ccdc_fiz 'CSD 58491'
_chemical_formula_sum 'C18 H24 N4 O6'
_chemical_formula_moiety
;
C18 H24 N4 O6
;
_journal_coden_Cambridge 167
_journal_year 1995
_journal_page_first 523
_journal_name_full 'Liebigs Ann. '
loop_
_publ_author_name
"P.Camps"
"M.Font-Bardia"
"D.Munoz-Torrero"
"X.Solans"
_chemical_name_systematic
;
3,3'-bis(7-Nitro-3-nitrosotricyclo(3.3.1.0^3,7^)nonane)
;
_cell_volume    887.034
_exptl_crystal_density_diffrn 1.469
_diffrn_ambient_temperature ?
_diffrn_special_details
;
The study was carried out at room temperature,in the range 283-303K

;
#These two values have been output from a single CSD field.
_refine_ls_R_factor_gt 0.039
_refine_ls_wR_factor_gt 0.039
_symmetry_cell_setting monoclinic
_symmetry_space_group_name_H-M 'P 21/a'
_symmetry_Int_Tables_number 14
loop_
_symmetry_equiv_pos_site_id
_symmetry_equiv_pos_as_xyz
1 x,y,z
2 1/2-x,1/2+y,-z
3 -x,-y,-z
4 -1/2+x,-1/2-y,z
_cell_length_a 13.419(2)
_cell_length_b 10.231(2)
_cell_length_c 6.627(10)
_cell_angle_alpha 90
_cell_angle_beta 102.85(4)
_cell_angle_gamma 90
_cell_formula_units_Z 2
loop_
_atom_type_symbol
_atom_type_radius_bond
C 0.68
H 0.23
N 0.68
O 0.68
loop_
_atom_site_label
_atom_site_type_symbol
_atom_site_fract_x
_atom_site_fract_y
_atom_site_fract_z
O1 O 0.5848(1) 0.0297(1) 0.3487(2)
O2 O 0.3230(1) 0.0631(2) 0.2239(3)
O3 O 0.2061(1) -0.0493(2) 0.3212(4)
N1 N 0.5137(1) -0.0244(2) 0.4191(3)
N2 N 0.2888(1) -0.0397(2) 0.2759(3)
C1 C 0.3478(1) -0.1621(2) 0.2626(3)
C2 C 0.3202(2) -0.2765(2) 0.3875(4)
C3 C 0.4150(2) -0.3621(2) 0.4006(3)
C4 C 0.4993(2) -0.2645(2) 0.4879(3)
C5 C 0.4694(1) -0.1515(2) 0.3326(3)
C6 C 0.5060(2) -0.1883(2) 0.1356(3)
C7 C 0.4232(2) -0.2867(2) 0.0392(3)
C8 C 0.3283(2) -0.2026(2) 0.0331(3)
C9 C 0.4233(2) -0.4056(2) 0.1823(4)
H1 H 0.2568(19) -0.3186(24) 0.3173(38)
H2 H 0.3158(18) -0.2501(24) 0.5275(40)
H3 H 0.4116(18) -0.4392(27) 0.4879(39)
H4 H 0.5712(19) -0.2990(25) 0.4866(38)
H5 H 0.4939(19) -0.2392(25) 0.6198(43)
H6 H 0.5060(19) -0.1101(25) 0.0355(39)
H7 H 0.5791(19) -0.2245(25) 0.1734(38)
H8 H 0.4275(17) -0.3166(25) -0.1021(39)
H9 H 0.3322(19) -0.1291(26) -0.0581(39)
H10 H 0.2654(19) -0.2533(25) -0.0008(36)
H11 H 0.4875(20) -0.4550(25) 0.187(4)
H12 H 0.3624(19) -0.4615(25) 0.1227(41)
N1B N 0.4863(1) 0.0244(2) 0.5809(3)
O1B O 0.4152(1) -0.0297(1) 0.6513(2)
C5B C 0.5306(1) 0.1515(2) 0.6674(3)
C1B C 0.6522(1) 0.1621(2) 0.7374(3)
C4B C 0.5007(2) 0.2645(2) 0.5121(3)
C6B C 0.4940(2) 0.1883(2) 0.8644(3)
N2B N 0.7112(1) 0.0397(2) 0.7241(3)
C2B C 0.6798(2) 0.2765(2) 0.6125(4)
C8B C 0.6717(2) 0.2026(2) 0.9669(3)
C3B C 0.5850(2) 0.3621(2) 0.5994(3)
H4B H 0.4288(19) 0.2990(25) 0.5134(38)
H5B H 0.5061(19) 0.2392(25) 0.3802(43)
C7B C 0.5768(2) 0.2867(2) 0.9608(3)
H6B H 0.4940(19) 0.1101(25) 0.9645(39)
H7B H 0.4209(19) 0.2245(25) 0.8266(38)
O2B O 0.6770(1) -0.0631(2) 0.7761(3)
O3B O 0.7939(1) 0.0493(2) 0.6788(4)
H1B H 0.7432(19) 0.3186(24) 0.6827(38)
H2B H 0.6842(18) 0.2501(24) 0.4725(40)
H9B H 0.6678(19) 0.1291(26) 1.0581(39)
H10B H 0.7346(19) 0.2533(25) 1.0008(36)
C9B C 0.5767(2) 0.4056(2) 0.8177(4)
H3B H 0.5884(18) 0.4392(27) 0.5121(39)
H8B H 0.5725(17) 0.3166(25) 1.1021(39)
H11B H 0.5125(20) 0.4550(25) 0.813(4)
H12B H 0.6376(19) 0.4615(25) 0.8773(41)
#END
