
#######################################################################
#
#                 Cambridge Crystallographic Data Centre
#                                CCDC
#
#######################################################################
#
# If this CIF has been generated from an entry in the Cambridge
# Structural Database, then it will include bibliographic, chemical,
# crystal, experimental, refinement or atomic coordinate data resulting
# from the CCDC's data processing and validation procedures.
#
#######################################################################

data_CSD_CIF_YUFJEQ
_audit_creation_date 2015-06-30
_audit_creation_method CSD-ConQuest-V1
_database_code_CSD YUFJEQ
_database_code_depnum_ccdc_archive 'CCDC 1408457'
_chemical_formula_sum 'C31 H27 N4 O1'
_chemical_formula_moiety
;
C31 H27 N4 O1
;
_journal_coeditor_code "lh5769"
_journal_coden_Cambridge 1828
_journal_volume 71
_journal_year 2015
_journal_page_first 870
_journal_name_full 'Acta Crystallogr.,Sect.E:Cryst.Commun. '
loop_
_publ_author_name
"A.Meyer"
"J.Wiecek"
"G.Schnakenburg"
"O.Schiemann"
_chemical_name_systematic
;
(2,2,5,5-tetramethyl-3-((4-(2,2':6',2''-terpyridin-4'-yl)phenyl)ethynyl)-2,5-d
ihydro-1H-pyrrol-1-yl)oxidanyl radical
;
_cell_volume   2538.096
_exptl_crystal_colour 'yellow'
_exptl_crystal_density_diffrn 1.234
_exptl_crystal_description 'needle'
_diffrn_ambient_temperature 123
#These two values have been output from a single CSD field.
_refine_ls_R_factor_gt 0.0492
_refine_ls_wR_factor_gt 0.0492
_symmetry_cell_setting monoclinic
_symmetry_space_group_name_H-M 'P 21/c'
_symmetry_Int_Tables_number 14
loop_
_symmetry_equiv_pos_site_id
_symmetry_equiv_pos_as_xyz
1 x,y,z
2 -x,1/2+y,1/2-z
3 -x,-y,-z
4 x,-1/2-y,-1/2+z
_cell_length_a 18.5666(8)
_cell_length_b 20.2009(9)
_cell_length_c 6.7749(2)
_cell_angle_alpha 90
_cell_angle_beta 92.743(3)
_cell_angle_gamma 90
_cell_formula_units_Z 4
loop_
_atom_type_symbol
_atom_type_radius_bond
C 0.68
H 0.23
N 0.68
O 0.68
loop_
_atom_site_label
_atom_site_type_symbol
_atom_site_fract_x
_atom_site_fract_y
_atom_site_fract_z
O1 O 0.58556(7) 0.39166(8) 0.02921(17)
N1 N -0.08706(7) 0.29387(7) 0.87301(18)
N2 N -0.09424(7) 0.47223(8) 0.87295(19)
N3 N 0.55647(8) 0.38695(8) 0.1947(2)
N4 N -0.01906(7) 0.12743(7) 0.83306(19)
C1 C -0.06315(9) 0.35653(9) 0.8599(2)
C2 C 0.00840(9) 0.37160(9) 0.8258(2)
H1 H 0.02340 0.41640 0.81580
C3 C 0.05751(9) 0.32063(9) 0.8067(2)
C4 C 0.03323(9) 0.25616(9) 0.8239(2)
H2 H 0.06580 0.22020 0.81490
C5 C -0.03946(9) 0.24445(9) 0.8545(2)
C6 C -0.11788(9) 0.40962(9) 0.8820(2)
C7 C -0.19006(9) 0.39411(9) 0.9094(2)
H3 H -0.20540 0.34930 0.91300
C8 C -0.2388(1) 0.44516(10) 0.9310(2)
H4 H -0.28820 0.43590 0.94940
C9 C -0.21466(10) 0.50989(10) 0.9254(2)
H5 H -0.24670 0.54590 0.94260
C10 C -0.1422(1) 0.52080(9) 0.8941(2)
H6 H -0.12580 0.56530 0.88720
C11 C 0.13389(9) 0.33241(9) 0.7586(2)
C12 C 0.14938(9) 0.37194(9) 0.5973(2)
H7 H 0.11130 0.39370 0.52450
C13 C 0.21936(9) 0.37982(9) 0.5426(2)
H8 H 0.22900 0.40690 0.43230
C14 C 0.27657(9) 0.34827(9) 0.6476(2)
C15 C 0.26114(9) 0.30872(9) 0.8088(2)
H9 H 0.29920 0.28700 0.88180
C16 C 0.19076(9) 0.30096(9) 0.8632(2)
H10 H 0.18100 0.27380 0.97330
C17 C 0.34837(10) 0.35565(9) 0.5825(2)
C18 C 0.40740(9) 0.36297(9) 0.5209(2)
C19 C 0.47510(9) 0.37261(9) 0.4332(2)
C20 C 0.47826(9) 0.37532(10) 0.2098(2)
C21 C 0.59915(9) 0.38953(10) 0.3860(2)
C22 C 0.53960(9) 0.38011(10) 0.5256(3)
H11 H 0.54710 0.37960 0.66530
C23 C 0.45763(11) 0.30952(11) 0.1131(3)
H12 H 0.46430 0.31220 -0.02930
H13 H 0.40700 0.29970 0.13570
H14 H 0.48830 0.27430 0.17060
C24 C 0.43549(11) 0.43246(11) 0.1165(3)
H15 H 0.45110 0.47410 0.17910
H16 H 0.38400 0.42570 0.13540
H17 H 0.44380 0.43440 -0.02520
C25 C 0.63565(10) 0.45658(10) 0.4093(3)
H18 H 0.66860 0.46310 0.30230
H19 H 0.66280 0.45840 0.53680
H20 H 0.59900 0.49150 0.40390
C26 C 0.65362(10) 0.33278(11) 0.3968(3)
H21 H 0.62800 0.29040 0.38490
H22 H 0.68120 0.33440 0.52360
H23 H 0.68660 0.33710 0.28870
C27 C -0.06712(9) 0.17596(9) 0.8639(2)
C28 C -0.13860(9) 0.16253(9) 0.9022(2)
H24 H -0.17140 0.19760 0.92380
C29 C -0.16099(10) 0.09759(9) 0.9083(2)
H25 H -0.20950 0.08730 0.93480
C30 C -0.11244(10) 0.04767(9) 0.8756(2)
H26 H -0.12680 0.00250 0.87890
C31 C -0.04244(10) 0.06489(9) 0.8381(2)
H27 H -0.00910 0.03040 0.81450
#END
