
#######################################################################
#
#                 Cambridge Crystallographic Data Centre
#                                CCDC
#
#######################################################################
#
# If this CIF has been generated from an entry in the Cambridge
# Structural Database, then it will include bibliographic, chemical,
# crystal, experimental, refinement or atomic coordinate data resulting
# from the CCDC's data processing and validation procedures.
#
#######################################################################

data_CSD_CIF_YUFROI
_audit_creation_date 2015-06-30
_audit_creation_method CSD-ConQuest-V1
_database_code_CSD YUFROI
_database_code_depnum_ccdc_archive 'CCDC 1053757'
_chemical_formula_sum 'C5 H6 N6 O12'
_chemical_formula_moiety
;
C5 H6 N6 O12
;
_journal_coden_Cambridge 35
_journal_volume 80
_journal_year 2015
_journal_page_first 6329
_journal_name_full 'J.Org.Chem. '
loop_
_publ_author_name
"Q.J.Axthammer"
"B.Krumm"
"T.M.Klapotke"
_chemical_name_systematic
;
2,2-dinitropropane-1,3-diyl bis(nitrocarbamate)
;
_cell_volume   2552.182
_exptl_crystal_colour 'colorless'
_exptl_crystal_density_diffrn 1.781
_exptl_crystal_description 'needle'
_diffrn_ambient_temperature 100
#These two values have been output from a single CSD field.
_refine_ls_R_factor_gt 0.0295
_refine_ls_wR_factor_gt 0.0295
_symmetry_cell_setting orthorhombic
_symmetry_space_group_name_H-M 'P b c a'
_symmetry_Int_Tables_number 61
loop_
_symmetry_equiv_pos_site_id
_symmetry_equiv_pos_as_xyz
1 x,y,z
2 1/2-x,-y,1/2+z
3 -x,1/2+y,1/2-z
4 1/2+x,1/2-y,-z
5 -x,-y,-z
6 -1/2+x,y,-1/2-z
7 x,-1/2-y,-1/2+z
8 -1/2-x,-1/2+y,z
_cell_length_a 10.1269(5)
_cell_length_b 9.6783(4)
_cell_length_c 26.0397(12)
_cell_angle_alpha 90
_cell_angle_beta 90
_cell_angle_gamma 90
_cell_formula_units_Z 8
loop_
_atom_type_symbol
_atom_type_radius_bond
C 0.68
H 0.23
N 0.68
O 0.68
loop_
_atom_site_label
_atom_site_type_symbol
_atom_site_fract_x
_atom_site_fract_y
_atom_site_fract_z
H1 H 1.0404(18) 0.0301(17) 0.6211(6)
H2 H 1.2690(18) 0.2815(19) 0.5286(7)
H3 H 1.1831(18) 0.0073(17) 0.6407(6)
H4 H 0.9477(16) 0.3046(15) 0.7055(6)
H5 H 0.6790(18) 0.055(2) 0.6333(7)
H6 H 0.9857(17) 0.3195(17) 0.6475(7)
O1 O 0.85759(10) 0.16978(9) 0.66012(4)
O2 O 0.73742(11) 0.35951(10) 0.63955(4)
O3 O 1.21147(12) -0.02207(10) 0.54849(4)
O4 O 1.16807(10) 0.16749(9) 0.59581(4)
C1 C 1.08207(14) 0.15803(14) 0.68019(5)
O5 O 1.19192(11) 0.36390(11) 0.70146(4)
O6 O 0.46076(11) 0.06245(11) 0.61289(4)
N1 N 1.20274(12) 0.23886(12) 0.69824(5)
O7 O 1.00867(11) -0.05454(10) 0.71273(4)
N2 N 0.66285(12) 0.13541(13) 0.62722(5)
N3 N 1.05185(12) 0.05841(12) 0.72446(4)
O8 O 1.30146(11) 0.17153(12) 0.70768(5)
C2 C 1.11725(16) 0.07174(15) 0.63340(5)
N4 N 1.34221(15) 0.16369(14) 0.47857(5)
N5 N 0.53555(13) 0.16127(13) 0.61083(5)
C3 C 0.75083(14) 0.23648(14) 0.64198(5)
O9 O 1.07132(12) 0.10102(12) 0.76800(4)
N6 N 1.26475(14) 0.19827(14) 0.52056(5)
C4 C 1.21559(15) 0.10068(14) 0.55411(5)
C5 C 0.96718(14) 0.25726(14) 0.67362(6)
O10 O 1.35484(17) 0.04311(13) 0.46733(5)
O11 O 1.39024(13) 0.26289(13) 0.45610(4)
O12 O 0.50934(14) 0.27572(12) 0.59482(6)
#END
