
#######################################################################
#
#                 Cambridge Crystallographic Data Centre
#                                CCDC
#
#######################################################################
#
# If this CIF has been generated from an entry in the Cambridge
# Structural Database, then it will include bibliographic, chemical,
# crystal, experimental, refinement or atomic coordinate data resulting
# from the CCDC's data processing and validation procedures.
#
#######################################################################

data_CSD_CIF_YUGFIR
_audit_creation_date 2015-06-30
_audit_creation_method CSD-ConQuest-V1
_database_code_CSD YUGFIR
_database_code_depnum_ccdc_archive 'CCDC 1053755'
_chemical_formula_sum 'C5 H8 N4 O8'
_chemical_formula_moiety
;
C5 H8 N4 O8
;
_journal_coden_Cambridge 35
_journal_volume 80
_journal_year 2015
_journal_page_first 6329
_journal_name_full 'J.Org.Chem. '
loop_
_publ_author_name
"Q.J.Axthammer"
"B.Krumm"
"T.M.Klapotke"
_chemical_name_systematic
;
4,4,4-Trinitrobutyl carbamate
;
_cell_volume   1022.478
_exptl_crystal_colour 'colorless'
_exptl_crystal_density_diffrn 1.638
_exptl_crystal_description 'plate'
_diffrn_ambient_temperature 173
#These two values have been output from a single CSD field.
_refine_ls_R_factor_gt 0.0573
_refine_ls_wR_factor_gt 0.0573
_symmetry_cell_setting monoclinic
_symmetry_space_group_name_H-M 'P 21/c'
_symmetry_Int_Tables_number 14
loop_
_symmetry_equiv_pos_site_id
_symmetry_equiv_pos_as_xyz
1 x,y,z
2 -x,1/2+y,1/2-z
3 -x,-y,-z
4 x,-1/2-y,-1/2+z
_cell_length_a 13.4255(8)
_cell_length_b 10.2488(6)
_cell_length_c 7.4690(5)
_cell_angle_alpha 90
_cell_angle_beta 95.778(6)
_cell_angle_gamma 90
_cell_formula_units_Z 4
loop_
_atom_type_symbol
_atom_type_radius_bond
C 0.68
H 0.23
N 0.68
O 0.68
loop_
_atom_site_label
_atom_site_type_symbol
_atom_site_fract_x
_atom_site_fract_y
_atom_site_fract_z
C1 C 0.33815(19) 0.4780(3) 0.2383(4)
C2 C 0.2892(2) 0.5162(3) 0.4041(4)
C3 C 0.1851(2) 0.5743(3) 0.3631(4)
C4 C 0.1385(2) 0.6076(3) 0.5339(4)
C5 C 0.07182(18) 0.4987(2) 0.7722(3)
N1 N 0.32482(19) 0.5854(3) 0.0949(4)
N2 N 0.44935(18) 0.4544(3) 0.2790(4)
N3 N 0.2966(2) 0.3538(3) 0.1496(4)
N4 N 0.05607(19) 0.3836(2) 0.8459(3)
O1 O 0.2841(2) 0.5536(5) -0.0504(4)
O2 O 0.3531(2) 0.6913(3) 0.1445(4)
O3 O 0.47153(18) 0.3802(3) 0.4061(4)
O4 O 0.50675(18) 0.5138(3) 0.1949(4)
O5 O 0.3499(3) 0.3010(5) 0.0547(7)
O6 O 0.21806(18) 0.3150(2) 0.1830(3)
O7 O 0.11717(13) 0.48621(16) 0.6199(2)
O8 O 0.04725(16) 0.60372(18) 0.8292(3)
H1 H 0.288(2) 0.444(3) 0.478(4)
H2 H 0.332(2) 0.573(3) 0.458(4)
H3 H 0.142(3) 0.514(3) 0.287(5)
H4 H 0.191(2) 0.657(4) 0.303(5)
H5 H 0.187(2) 0.655(3) 0.617(4)
H6 H 0.077(2) 0.658(3) 0.502(4)
H7 H 0.023(2) 0.383(3) 0.933(4)
H8 H 0.072(2) 0.316(4) 0.796(5)
#END
