
#######################################################################
#
#                 Cambridge Crystallographic Data Centre
#                                CCDC
#
#######################################################################
#
# If this CIF has been generated from an entry in the Cambridge
# Structural Database, then it will include bibliographic, chemical,
# crystal, experimental, refinement or atomic coordinate data resulting
# from the CCDC's data processing and validation procedures.
#
#######################################################################

data_CSD_CIF_YUGFEN
_audit_creation_date 2015-06-30
_audit_creation_method CSD-ConQuest-V1
_database_code_CSD YUGFEN
_database_code_depnum_ccdc_archive 'CCDC 1053754'
_chemical_formula_sum 'C4 H7 N3 O6'
_chemical_formula_moiety
;
C4 H7 N3 O6
;
_journal_coden_Cambridge 35
_journal_volume 80
_journal_year 2015
_journal_page_first 6329
_journal_name_full 'J.Org.Chem. '
loop_
_publ_author_name
"Q.J.Axthammer"
"B.Krumm"
"T.M.Klapotke"
_chemical_name_systematic
;
2,2-Dinitropropyl carbamate
;
_cell_volume    804.595
_exptl_crystal_colour 'colorless'
_exptl_crystal_density_diffrn 1.594
_exptl_crystal_description 'plate'
_diffrn_ambient_temperature 100
#These two values have been output from a single CSD field.
_refine_ls_R_factor_gt 0.0507
_refine_ls_wR_factor_gt 0.0507
_symmetry_cell_setting monoclinic
_symmetry_space_group_name_H-M 'P 21/c'
_symmetry_Int_Tables_number 14
loop_
_symmetry_equiv_pos_site_id
_symmetry_equiv_pos_as_xyz
1 x,y,z
2 -x,1/2+y,1/2-z
3 -x,-y,-z
4 x,-1/2-y,-1/2+z
_cell_length_a 13.471(3)
_cell_length_b 6.3990(7)
_cell_length_c 9.7370(13)
_cell_angle_alpha 90
_cell_angle_beta 106.543(18)
_cell_angle_gamma 90
_cell_formula_units_Z 4
loop_
_atom_type_symbol
_atom_type_radius_bond
C 0.68
H 0.23
N 0.68
O 0.68
loop_
_atom_site_label
_atom_site_type_symbol
_atom_site_fract_x
_atom_site_fract_y
_atom_site_fract_z
C1 C 0.1553(2) -0.2357(4) 0.6732(3)
H1 H 0.2129(10) -0.3136(17) 0.6528(18)
H2 H 0.0980(14) -0.2207(4) 0.5840(18)
H3 H 0.1304(13) -0.3129(18) 0.7451(15)
C2 C 0.19266(18) -0.0223(4) 0.7309(2)
C3 C 0.2851(2) -0.0236(5) 0.8630(2)
C4 C 0.43175(18) -0.2421(3) 0.9011(2)
N1 N 0.10363(16) 0.0923(3) 0.7643(2)
N2 N 0.22144(16) 0.1107(3) 0.61768(19)
N3 N 0.49611(17) -0.3279(3) 0.8365(2)
O1 O 0.09575(13) 0.0729(3) 0.88455(16)
O2 O 0.04536(18) 0.1895(4) 0.6681(2)
O3 O 0.25557(16) 0.2849(3) 0.6578(2)
O4 O 0.21407(17) 0.0366(3) 0.50149(17)
O5 O 0.36804(12) -0.1028(3) 0.81393(14)
O6 O 0.42847(13) -0.2757(3) 1.02316(14)
H4 H 0.304(2) 0.113(5) 0.898(3)
H5 H 0.2722(18) -0.113(4) 0.931(3)
H6 H 0.4853(18) -0.310(4) 0.753(3)
H7 H 0.535(2) -0.432(4) 0.886(3)
#END
