
#######################################################################
#
#                 Cambridge Crystallographic Data Centre
#                                CCDC
#
#######################################################################
#
# If this CIF has been generated from an entry in the Cambridge
# Structural Database, then it will include bibliographic, chemical,
# crystal, experimental, refinement or atomic coordinate data resulting
# from the CCDC's data processing and validation procedures.
#
#######################################################################

data_CSD_CIF_YUGRUO
_audit_creation_date 2010-08-06
_audit_creation_method CSD-ConQuest-V1
_database_code_CSD YUGRUO
_database_code_depnum_ccdc_archive 'CCDC 734096'
_chemical_formula_sum 'C20 H28 N4 O6'
_chemical_formula_moiety
;
C20 H28 N4 O6
;
_journal_coden_Cambridge 1037
_journal_volume 10
_journal_year 2009
_journal_page_first 43-12
_journal_name_full 'ARKIVOC '
loop_
_publ_author_name
"S.Kar"
"M.G.B.Drew"
"A.Pramanik"
_chemical_name_systematic
;
N-(t-butoxycarbonyl)-prolyl-\a-aminoisobutyric acid N-(3-nitrophenyl)amide
;
_chemical_name_common
;
PEPSEQ A=2 PRO*-AIB*
;
_cell_volume   2204.862
_exptl_crystal_colour 'white'
_exptl_crystal_density_diffrn 1.258
_exptl_crystal_description 'needle'
_exptl_crystal_preparation 'acetone'
_diffrn_ambient_temperature 150
#These two values have been output from a single CSD field.
_refine_ls_R_factor_gt 0.0554
_refine_ls_wR_factor_gt 0.0554
_symmetry_cell_setting orthorhombic
_symmetry_space_group_name_H-M 'P 21 21 2'
_symmetry_Int_Tables_number 18
loop_
_symmetry_equiv_pos_site_id
_symmetry_equiv_pos_as_xyz
1 x,y,z
2 -x,-y,z
3 1/2-x,1/2+y,-z
4 1/2+x,1/2-y,-z
_cell_length_a 28.9256(13)
_cell_length_b 13.1584(5)
_cell_length_c 5.7929(2)
_cell_angle_alpha 90
_cell_angle_beta 90
_cell_angle_gamma 90
_cell_formula_units_Z 4
loop_
_atom_type_symbol
_atom_type_radius_bond
C 0.68
H 0.23
N 0.68
O 0.68
loop_
_atom_site_label
_atom_site_type_symbol
_atom_site_fract_x
_atom_site_fract_y
_atom_site_fract_z
C1 C 0.90232(8) 0.64205(17) 0.8239(4)
N1 N 0.93961(6) 0.68518(14) 0.9181(3)
C2 C 0.94353(8) 0.79547(16) 0.9388(4)
H1 H 0.92370 0.82030 1.06370
C3 C 0.93151(7) 0.84889(16) 0.7124(4)
C4 C 0.89059(7) 0.99775(16) 0.5434(4)
C5 C 0.86240(7) 0.94494(16) 0.3517(4)
C6 C 0.80795(7) 0.80326(16) 0.2755(4)
C7 C 0.79409(8) 0.70894(18) 0.3586(5)
H2 H 0.80760 0.68320 0.49190
C8 C 0.76067(9) 0.65308(18) 0.2467(5)
H3 H 0.75220 0.58980 0.30460
C9 C 0.73961(8) 0.68947(18) 0.0505(5)
H4 H 0.71680 0.65240 -0.02510
C10 C 0.75376(8) 0.78320(16) -0.0295(4)
C11 C 0.78747(7) 0.84170(17) 0.0762(4)
H5 H 0.79610 0.90440 0.01620
C12 C 0.98069(8) 0.63105(18) 1.0049(4)
H6 H 0.98870 0.56310 0.98590
C13 C 1.00659(9) 0.71383(18) 1.1330(4)
H7 H 1.02540 0.70710 1.26220
C14 C 0.99475(8) 0.81009(18) 1.0018(4)
H8 H 1.01390 0.86490 0.96760
C15 C 0.93315(9) 1.04689(19) 0.4357(4)
H9 H 0.95230 0.99530 0.36790
H10 H 0.95030 1.08220 0.55280
H11 H 0.92370 1.09410 0.31860
C16 C 0.85859(9) 1.07872(17) 0.6440(4)
H12 H 0.87500 1.11750 0.75780
H13 H 0.83240 1.04650 0.71470
H14 H 0.84820 1.12300 0.52290
C17 C 0.87307(9) 0.47545(17) 0.6975(4)
C18 C 0.87706(9) 0.4993(2) 0.4403(5)
H15 H 0.90810 0.48600 0.38930
H16 H 0.86970 0.56960 0.41440
H17 H 0.85590 0.45730 0.35540
C19 C 0.82434(9) 0.4888(2) 0.7918(4)
H18 H 0.81340 0.55580 0.75610
H19 H 0.82460 0.47950 0.95610
H20 H 0.80420 0.43940 0.72250
C20 C 0.89011(11) 0.36901(19) 0.7503(6)
H21 H 0.89190 0.35990 0.91450
H22 H 0.92020 0.35950 0.68360
H23 H 0.86900 0.32020 0.68630
O1 O 0.90663(6) 0.53979(11) 0.8232(3)
O2 O 0.86912(5) 0.69001(12) 0.7539(3)
O3 O 0.94814(6) 0.82233(13) 0.5274(3)
O4 O 0.85769(5) 0.98769(12) 0.1650(3)
O5 O 0.69693(7) 0.78089(14) -0.3109(4)
O6 O 0.74681(6) 0.90297(13) -0.3205(3)
N2 N 0.90275(6) 0.92896(13) 0.7322(3)
H24 H 0.89070 0.94040 0.86540
N3 N 0.84138(6) 0.85612(14) 0.4069(3)
H25 H 0.84920 0.82890 0.53610
N4 N 0.73086(7) 0.82512(15) -0.2346(4)
#END
