
#######################################################################
#
#                 Cambridge Crystallographic Data Centre
#                                CCDC
#
#######################################################################
#
# If this CIF has been generated from an entry in the Cambridge
# Structural Database, then it will include bibliographic, chemical,
# crystal, experimental, refinement or atomic coordinate data resulting
# from the CCDC's data processing and validation procedures.
#
#######################################################################

data_CSD_CIF_YUJGIT02
_audit_creation_date 2016-06-09
_audit_creation_method CSD-ConQuest-V1
_database_code_CSD YUJGIT02
_database_code_depnum_ccdc_archive 'CCDC 1050240'
_chemical_formula_sum 'C13 H11 N3 O2'
_chemical_formula_moiety
;
C13 H11 N3 O2
;
_journal_coden_Cambridge 1268
_journal_volume 20
_journal_year 2015
_journal_page_first 9929
_journal_name_full 'Molecules '
loop_
_publ_author_name
"Y.Toledano-Magana"
"J.C.Garcia-Ramos"
"M.Navarro-Olivarria"
"M.Flores-Alamo"
"M.Manzanera-Estrada"
"L.Ortiz-Frade"
"R.Galindo-Murillo"
"L.Ruiz-Azuara"
"R.Ma Melendrez-Luevano"
"B.M.Cabrera-Vivas"
_chemical_name_systematic
;
(E)-1-(4-nitrobenzylidene)-2-phenylhydrazine
;
_cell_volume   1171.248
_exptl_crystal_colour 'dark red'
_exptl_crystal_density_diffrn 1.368
_exptl_special_details
;
orthorhombic polymorph

;
_exptl_crystal_description 'prism'
_diffrn_ambient_temperature 298
#These two values have been output from a single CSD field.
_refine_ls_R_factor_gt 0.0389
_refine_ls_wR_factor_gt 0.0389
_symmetry_cell_setting orthorhombic
_symmetry_space_group_name_H-M 'P 21 21 21'
_symmetry_Int_Tables_number 19
loop_
_symmetry_equiv_pos_site_id
_symmetry_equiv_pos_as_xyz
1 x,y,z
2 1/2-x,-y,1/2+z
3 1/2+x,1/2-y,-z
4 -x,1/2+y,1/2-z
_cell_length_a 6.0462(11)
_cell_length_b 11.3924(17)
_cell_length_c 17.004(3)
_cell_angle_alpha 90
_cell_angle_beta 90
_cell_angle_gamma 90
_cell_formula_units_Z 4
loop_
_atom_type_symbol
_atom_type_radius_bond
C 0.68
H 0.23
N 0.68
O 0.68
loop_
_atom_site_label
_atom_site_type_symbol
_atom_site_fract_x
_atom_site_fract_y
_atom_site_fract_z
C1 C 0.5302(3) 0.69793(16) 0.82352(11)
C2 C 0.4448(3) 0.67503(17) 0.89817(12)
H1 H 0.51780 0.62320 0.93150
C3 C 0.2525(4) 0.72891(18) 0.92265(13)
H2 H 0.19690 0.71380 0.97260
C4 C 0.1416(4) 0.80561(18) 0.87293(14)
H3 H 0.01150 0.84170 0.88920
C5 C 0.2263(4) 0.82768(17) 0.79906(14)
H4 H 0.15120 0.87840 0.76550
C6 C 0.4210(3) 0.77572(16) 0.77389(12)
H5 H 0.47800 0.79270 0.72440
C7 C 0.9976(3) 0.60308(16) 0.71839(11)
H6 H 1.07280 0.57290 0.76160
C8 C 1.0998(3) 0.59765(15) 0.64140(12)
C9 C 1.3097(3) 0.54708(16) 0.63453(13)
H7 H 1.38160 0.52010 0.67940
C10 C 1.4114(3) 0.53651(17) 0.56263(12)
H8 H 1.55100 0.50270 0.55830
C11 C 1.3008(3) 0.57749(16) 0.49661(12)
C12 C 1.0931(4) 0.62812(16) 0.50104(12)
H9 H 1.02190 0.65480 0.45600
C13 C 0.9945(3) 0.63811(15) 0.57338(11)
H10 H 0.85530 0.67230 0.57730
N1 N 0.7236(3) 0.64152(15) 0.80171(11)
N2 N 0.8050(3) 0.64881(13) 0.72814(10)
N3 N 1.4066(3) 0.56599(14) 0.42001(11)
O1 O 1.3009(3) 0.59073(14) 0.36076(10)
O2 O 1.6001(3) 0.53085(16) 0.41787(10)
H11 H 0.795(5) 0.598(2) 0.8392(16)
#END
