
#######################################################################
#
#                 Cambridge Crystallographic Data Centre
#                                CCDC
#
#######################################################################
#
# If this CIF has been generated from an entry in the Cambridge
# Structural Database, then it will include bibliographic, chemical,
# crystal, experimental, refinement or atomic coordinate data resulting
# from the CCDC's data processing and validation procedures.
#
#######################################################################

data_CSD_CIF_YUJGIT
_audit_creation_date 1995-10-09
_audit_creation_method CSD-ConQuest-V1
_database_code_CSD YUJGIT
_database_code_depnum_ccdc_archive 'CCDC 1306668'
_chemical_formula_sum 'C13 H11 N3 O2'
_chemical_formula_moiety
;
C13 H11 N3 O2
;
_journal_coeditor_code "IUCr LI1127"
_journal_coden_Cambridge 591
_journal_volume 51
_journal_year 1995
_journal_page_first 1227
_journal_name_full 'Acta Crystallogr.,Sect.C:Cryst.Struct.Commun. '
loop_
_publ_author_name
"R.Velavan"
"K.Sivakumar"
"M.Anbu"
_chemical_name_systematic
;
(E)-4-Nitrobenzaldehyde phenylhydrazone
;
_cell_volume   1212.408
_exptl_crystal_colour 'dark red'
_exptl_crystal_density_diffrn 1.322
_exptl_special_details
;
Absolute configuration
orthorhombic polymorph

;
_diffrn_ambient_temperature ?
_diffrn_special_details
;
The study was carried out at room temperature,in the range 283-303K

;
#These two values have been output from a single CSD field.
_refine_ls_R_factor_gt 0.0368
_refine_ls_wR_factor_gt 0.0368
_symmetry_cell_setting orthorhombic
_symmetry_space_group_name_H-M 'P 21 21 21'
_symmetry_Int_Tables_number 19
loop_
_symmetry_equiv_pos_site_id
_symmetry_equiv_pos_as_xyz
1 x,y,z
2 1/2-x,-y,1/2+z
3 1/2+x,1/2-y,-z
4 -x,1/2+y,1/2-z
_cell_length_a 6.059(1)
_cell_length_b 11.598(2)
_cell_length_c 17.253(4)
_cell_angle_alpha 90
_cell_angle_beta 90
_cell_angle_gamma 90
_cell_formula_units_Z 4
loop_
_atom_type_symbol
_atom_type_radius_bond
C 0.68
H 0.23
N 0.68
O 0.68
loop_
_atom_site_label
_atom_site_type_symbol
_atom_site_fract_x
_atom_site_fract_y
_atom_site_fract_z
C1 C 0.5723(5) -0.2300(3) -0.2271(2)
C2 C 0.7647(6) -0.1775(3) -0.2015(2)
C3 C 0.8446(6) -0.1960(3) -0.1280(2)
C4 C 0.7324(6) -0.2702(3) -0.0797(2)
C5 C 0.5433(5) -0.3241(3) -0.1041(2)
C6 C 0.4619(4) -0.3048(2) -0.1782(2)
N1 N 0.2713(4) -0.3617(3) -0.2001(1)
N2 N 0.1912(4) -0.3559(2) -0.2734(1)
C7 C 0.0005(5) -0.4027(3) -0.2841(2)
C8 C -0.1000(5) -0.4069(2) -0.3601(2)
C9 C 0.0070(5) -0.3645(2) -0.4269(2)
C10 C -0.0906(5) -0.3737(3) -0.4983(2)
C11 C -0.2965(5) -0.4247(3) -0.5038(2)
C12 C -0.4054(6) -0.4658(3) -0.4397(2)
C13 C -0.3058(5) -0.4573(3) -0.3685(2)
N3 N -0.4001(5) -0.4353(2) -0.5795(2)
O1 O -0.2933(5) -0.4091(3) -0.6377(2)
O2 O -0.5900(5) -0.4696(3) -0.5831(2)
H1 H 0.5177(55) -0.2217(25) -0.2753(18)
H2 H 0.8736(63) -0.1351(30) -0.2372(20)
H3 H 0.9994(76) -0.1590(32) -0.1108(22)
H4 H 0.7768(63) -0.2775(32) -0.0343(20)
H5 H 0.4660(57) -0.3700(25) -0.0657(18)
H6 H 0.2049(71) -0.4105(34) -0.1565(22)
H7 H -0.0830(56) -0.4411(26) -0.2395(17)
H8 H 0.1732(60) -0.3381(29) -0.4181(18)
H9 H -0.0312(50) -0.3456(22) -0.5442(16)
H10 H -0.5271(68) -0.4911(30) -0.4481(19)
H11 H -0.3775(62) -0.4834(30) -0.3232(18)
#END
