
#######################################################################
#
#                 Cambridge Crystallographic Data Centre
#                                CCDC
#
#######################################################################
#
# If this CIF has been generated from an entry in the Cambridge
# Structural Database, then it will include bibliographic, chemical,
# crystal, experimental, refinement or atomic coordinate data resulting
# from the CCDC's data processing and validation procedures.
#
#######################################################################

data_CSD_CIF_YUJLIY01
_audit_creation_date 1998-06-02
_audit_creation_method CSD-ConQuest-V1
_database_code_CSD YUJLIY01
_database_code_depnum_ccdc_archive 'CCDC 1306689'
_chemical_formula_sum 'C21 H28 N2 O8'
_chemical_formula_moiety
;
C21 H28 N2 O8
;
_journal_coden_Cambridge 54
_journal_volume 104
_journal_year 1995
_journal_page_first 729
_journal_name_full 'Bull.Soc.Chim.Belg. '
loop_
_publ_author_name
"J.Feneau-Dupont"
"J.P.Declerq"
"R.Tamion"
_chemical_name_systematic
;
5-(1-(Di-isopropylcarbamoyloxy)ethylenyl)-3-methoxy-4-nitrobenzoyloxolane
;
_cell_volume   1122.943
_exptl_crystal_density_diffrn 1.29
_exptl_crystal_description 'parallelepiped'
_exptl_crystal_preparation 'ether/hexane'
_diffrn_ambient_temperature ?
_diffrn_special_details
;
The study was carried out at room temperature,in the range 283-303K

;
#These two values have been output from a single CSD field.
_refine_ls_R_factor_gt 0.051
_refine_ls_wR_factor_gt 0.051
_symmetry_cell_setting monoclinic
_symmetry_space_group_name_H-M 'P 21'
_symmetry_Int_Tables_number 4
loop_
_symmetry_equiv_pos_site_id
_symmetry_equiv_pos_as_xyz
1 x,y,z
2 -x,1/2+y,-z
_cell_length_a 7.280(1)
_cell_length_b 17.283(2)
_cell_length_c 9.227(1)
_cell_angle_alpha 90
_cell_angle_beta 104.70(1)
_cell_angle_gamma 90
_cell_formula_units_Z 2
loop_
_atom_type_symbol
_atom_type_radius_bond
C 0.68
N 0.68
O 0.68
loop_
_atom_site_label
_atom_site_type_symbol
_atom_site_fract_x
_atom_site_fract_y
_atom_site_fract_z
O1 O 0.3493(4) 0.6509(2) 0.0417(3)
C1 C 0.2584(6) 0.5788(3) 0.0127(4)
C2 C 0.1319(4) 0.5636(2) 0.1160(4)
C3 C 0.2088(4) 0.6190(2) 0.2473(3)
C4 C 0.2842(5) 0.6860(2) 0.1716(3)
C5 C 0.4478(5) 0.7318(2) 0.2660(3)
O2 O 0.4406(3) 0.7529(1) 0.4114(2)
C6 C 0.2755(5) 0.7736(2) 0.4462(4)
N1 N 0.3078(3) 0.7866(2) 0.5944(3)
C7 C 0.5040(5) 0.7909(3) 0.6947(4)
C8 C 0.1439(5) 0.7898(2) 0.6615(4)
C9 C 0.0247(6) 0.8627(3) 0.6174(5)
C10 C 0.0276(6) 0.7163(3) 0.6347(5)
C11 C 0.5530(6) 0.7151(3) 0.7802(4)
C12 C 0.5271(6) 0.8611(3) 0.7938(5)
O3 O 0.1248(3) 0.7773(1) 0.3547(2)
C13 C 0.6026(5) 0.7503(2) 0.2276(4)
O4 O -0.0564(3) 0.5836(2) 0.0389(3)
C14 C -0.1949(5) 0.5599(3) 0.1125(5)
O5 O 0.3678(3) 0.5824(1) 0.3508(2)
C15 C 0.3273(5) 0.5452(2) 0.4664(4)
O6 O 0.1697(3) 0.5398(2) 0.4831(3)
C16 C 0.4996(4) 0.5111(2) 0.5713(3)
C17 C 0.4700(5) 0.4647(2) 0.6863(4)
C18 C 0.6243(5) 0.4325(2) 0.7863(4)
C19 C 0.8031(5) 0.4452(2) 0.7687(4)
C20 C 0.8350(5) 0.4916(2) 0.6557(4)
C21 C 0.6817(4) 0.5244(2) 0.5564(3)
N2 N 0.9665(5) 0.4090(2) 0.8750(3)
O7 O 0.9370(4) 0.3727(2) 0.9795(3)
O8 O 1.1242(4) 0.4175(2) 0.8535(3)
#END
