
#######################################################################
#
#                 Cambridge Crystallographic Data Centre
#                                CCDC
#
#######################################################################
#
# If this CIF has been generated from an entry in the Cambridge
# Structural Database, then it will include bibliographic, chemical,
# crystal, experimental, refinement or atomic coordinate data resulting
# from the CCDC's data processing and validation procedures.
#
#######################################################################

data_CSD_CIF_YUJYEI
_audit_creation_date 2010-08-06
_audit_creation_method CSD-ConQuest-V1
_database_code_CSD YUJYEI
_database_code_depnum_ccdc_archive 'CCDC 649534'
_chemical_formula_sum 'C14 H19 N3 O14'
_chemical_formula_moiety
;
C14 H19 N3 O14
;
_journal_coden_Cambridge 156
_journal_volume 344
_journal_year 2009
_journal_page_first 2439
_journal_name_full 'Carbohydr.Res. '
loop_
_publ_author_name
"Feng-Wu Liu"
"Zhen-Ji Wang"
"Xiao-Ping Song"
"Sai-Yang Zhang"
"Hong-Min Liu"
_chemical_name_systematic
;
3,3'-Dihydroxy-3-(1-nitroethyl)dodecahydro-2,3'-bifuro[3,2-b]furan-6,6'-diyl 
dinitrate
;
_chemical_name_common
;
(2S)-(1,4:3,6-Dianhydro-D-mannitol-2-yl)-2-nitroethyl-1,4:3,6-dianhydro-D-mann
itol 5,5'-dinitrate
;
_chemical_melting_point 465.15
_cell_volume    927.524
_exptl_crystal_colour 'colorless'
_exptl_crystal_density_diffrn 1.623
_exptl_special_details
;
Melting point range 465.15-466.15K

;
_exptl_crystal_description 'prismatic'
_diffrn_ambient_temperature 291
#These two values have been output from a single CSD field.
_refine_ls_R_factor_gt 0.0454
_refine_ls_wR_factor_gt 0.0454
_symmetry_cell_setting monoclinic
_symmetry_space_group_name_H-M 'P 21'
_symmetry_Int_Tables_number 4
loop_
_symmetry_equiv_pos_site_id
_symmetry_equiv_pos_as_xyz
1 x,y,z
2 -x,1/2+y,-z
_cell_length_a 11.795(2)
_cell_length_b 6.4386(13)
_cell_length_c 13.180(3)
_cell_angle_alpha 90
_cell_angle_beta 112.08(3)
_cell_angle_gamma 90
_cell_formula_units_Z 2
loop_
_atom_type_symbol
_atom_type_radius_bond
C 0.68
H 0.23
N 0.68
O 0.68
loop_
_atom_site_label
_atom_site_type_symbol
_atom_site_fract_x
_atom_site_fract_y
_atom_site_fract_z
O1 O 0.1615(2) 0.3251(4) 0.2905(2)
O2 O 0.0102(2) 0.0929(5) 0.0824(2)
O3 O 0.1381(2) -0.1454(4) 0.2386(2)
O4 O 0.37073(19) 0.1381(4) 0.34734(19)
O5 O 0.4860(3) 0.4084(6) 0.3684(3)
O6 O 0.3976(3) 0.3611(6) 0.4838(2)
O7 O -0.1785(2) 0.1675(4) 0.23976(19)
O8 O -0.1468(2) -0.2557(4) 0.1720(2)
O9 O -0.3634(3) -0.2360(6) 0.1724(3)
O10 O -0.2179(3) -0.0483(6) 0.3917(2)
O11 O -0.0486(4) 0.0547(11) 0.5202(3)
O12 O -0.1942(4) 0.2830(8) 0.4479(3)
O13 O -0.4114(3) -0.3236(9) -0.0712(5)
O14 O -0.2547(4) -0.4926(6) -0.0568(4)
N1 N 0.4212(2) 0.3156(6) 0.4059(2)
N2 N -0.1486(4) 0.1139(9) 0.4585(3)
N3 N -0.3051(3) -0.3344(5) -0.0483(3)
C1 C 0.0354(3) 0.3530(6) 0.2209(3)
H1 H 0.02790 0.44430 0.16010
H2 H -0.01050 0.41170 0.26160
C2 C -0.0109(2) 0.1340(5) 0.1797(2)
C3 C 0.0696(3) -0.0034(5) 0.2772(2)
H3 H 0.02150 -0.07430 0.31330
C4 C 0.1630(3) 0.1465(5) 0.3535(3)
H4 H 0.14400 0.18060 0.41790
C5 C 0.2857(3) 0.0310(6) 0.3854(3)
H5 H 0.32210 0.00560 0.46440
C6 C 0.2543(3) -0.1712(6) 0.3219(3)
H6 H 0.31460 -0.20230 0.29040
H7 H 0.25290 -0.28460 0.36980
C7 C -0.1495(2) 0.1203(5) 0.1464(2)
H8 H -0.18780 0.22500 0.08990
C8 C -0.2136(3) -0.0909(5) 0.1062(3)
C9 C -0.3345(3) -0.0558(7) 0.1245(3)
H9 H -0.40170 -0.01630 0.05660
C10 C -0.3042(3) 0.1177(7) 0.2108(3)
H10 H -0.35590 0.23980 0.18200
C11 C -0.3289(3) 0.0221(9) 0.3075(3)
H11 H -0.37450 0.11720 0.33620
C12 C -0.4021(4) -0.1696(9) 0.2576(4)
H12 H -0.38710 -0.27760 0.31240
H13 H -0.48890 -0.13800 0.22810
C13 C -0.2282(3) -0.1405(6) -0.0126(3)
H14 H -0.14670 -0.17330 -0.01170
C14 C -0.2824(5) 0.0247(8) -0.0985(3)
H15 H -0.28590 -0.02560 -0.16820
H16 H -0.23230 0.14700 -0.07900
H17 H -0.36350 0.05780 -0.10290
H18 H 0.059(5) 0.008(11) 0.096(4)
H19 H -0.198(8) -0.304(16) 0.210(6)
#END
