
#######################################################################
#
#                 Cambridge Crystallographic Data Centre
#                                CCDC
#
#######################################################################
#
# If this CIF has been generated from an entry in the Cambridge
# Structural Database, then it will include bibliographic, chemical,
# crystal, experimental, refinement or atomic coordinate data resulting
# from the CCDC's data processing and validation procedures.
#
#######################################################################

data_CSD_CIF_YUJYIL01
_audit_creation_date 1999-06-09
_audit_creation_method CSD-ConQuest-V1
_database_code_CSD YUJYIL01
_database_code_depnum_ccdc_archive 'CCDC 132067'
_chemical_formula_sum 'C22 H27 N2 O1'
_chemical_formula_moiety
;
C22 H27 N2 O1
;
_journal_coeditor_code "IUCr OA0019"
_journal_coden_Cambridge 622
_journal_volume 55
_journal_year 1999
_journal_page_first 231
_journal_name_full 'Acta Crystallogr.,Sect.B:Struct.Sci. '
loop_
_publ_author_name
"F.Iwasaki"
"J.H.Yoshikawa"
"H.Yamamoto"
"E.Kan-nari"
"K.Takada"
"M.Yasui"
"T.Ishida"
"T.Nogami"
_chemical_name_systematic
;
4-((4-Phenylbenzylidene)amino)-2,2,6,6-tetramethylpiperidine-1-oxyl radical
;
_chemical_name_common
;
4-(Biphenyl-4-yl)-methyleneamino-2,2,6,6-tetramethylpiperidin-1-oxyl radical
;
_cell_volume   1916.541
_exptl_crystal_colour 'orange'
_exptl_crystal_density_diffrn 1.163
_exptl_crystal_description 'prism'
_exptl_crystal_preparation 'ethanol'
_diffrn_ambient_temperature ?
_diffrn_special_details
;
The study was carried out at room temperature,in the range 283-303K

;
#These two values have been output from a single CSD field.
_refine_ls_R_factor_gt 0.0624
_refine_ls_wR_factor_gt 0.0624
_symmetry_cell_setting monoclinic
_symmetry_space_group_name_H-M 'P 21/c'
_symmetry_Int_Tables_number 14
loop_
_symmetry_equiv_pos_site_id
_symmetry_equiv_pos_as_xyz
1 x,y,z
2 -x,1/2+y,1/2-z
3 -x,-y,-z
4 x,-1/2-y,-1/2+z
_cell_length_a 5.955(1)
_cell_length_b 28.488(5)
_cell_length_c 11.796(2)
_cell_angle_alpha 90
_cell_angle_beta 106.72(2)
_cell_angle_gamma 90
_cell_formula_units_Z 4
loop_
_atom_type_symbol
_atom_type_radius_bond
C 0.68
H 0.23
N 0.68
O 0.68
loop_
_atom_site_label
_atom_site_type_symbol
_atom_site_fract_x
_atom_site_fract_y
_atom_site_fract_z
O1 O -0.2026(3) 0.22330(7) 0.61910(15)
N1 N -0.0943(3) 0.20482(7) 0.55047(15)
N2 N 0.1857(4) 0.13859(8) 0.30386(17)
C1 C -0.0380(4) 0.23685(8) 0.46225(19)
C2 C 0.0168(5) 0.20741(9) 0.3655(2)
C3 C 0.1819(4) 0.16641(8) 0.4082(2)
C4 C 0.0833(5) 0.13554(9) 0.4874(2)
C5 C 0.0346(4) 0.16040(8) 0.59225(19)
C6 C 0.3585(5) 0.13943(9) 0.2654(2)
C7 C 0.3634(4) 0.11384(8) 0.1576(2)
C8 C 0.1862(6) 0.08486(13) 0.1029(3)
C9 C 0.1850(7) 0.06131(14) 0.0009(3)
C10 C 0.3603(4) 0.06534(8) -0.05117(19)
C11 C 0.5345(6) 0.09551(16) 0.0024(3)
C12 C 0.5377(6) 0.11921(17) 0.1053(3)
C13 C 0.1670(6) 0.26881(11) 0.5243(3)
C14 C -0.2572(7) 0.26630(13) 0.4070(3)
C15 C 0.3546(5) 0.03879(8) -0.1609(2)
C16 C 0.1828(7) 0.00671(14) -0.2074(3)
C17 C 0.1731(9) -0.01843(17) -0.3096(4)
C18 C 0.3387(8) -0.01204(14) -0.3654(3)
C19 C 0.5088(8) 0.02003(15) -0.3224(3)
C20 C 0.5178(6) 0.04565(12) -0.2207(3)
C21 C 0.2610(6) 0.17127(14) 0.6900(3)
C22 C -0.1236(7) 0.12947(12) 0.6428(3)
H1 H 0.344(4) 0.1780(8) 0.4514(19)
H2 H 0.495(5) 0.1584(10) 0.306(3)
H3 H 0.060(7) 0.0831(14) 0.135(3)
H4 H 0.070(7) 0.0412(15) -0.023(4)
H5 H 0.644(7) 0.1022(14) -0.036(3)
H6 H 0.644(7) 0.1408(15) 0.133(4)
H7 H 0.322(5) 0.2500(11) 0.553(3)
H8 H 0.139(5) 0.2830(11) 0.593(3)
H9 H 0.181(5) 0.2931(11) 0.466(3)
H10 H -0.282(5) 0.2879(11) 0.468(3)
H11 H -0.406(6) 0.2459(13) 0.374(3)
H12 H -0.237(5) 0.2841(11) 0.342(3)
H13 H 0.082(5) 0.2276(9) 0.316(2)
H14 H -0.130(5) 0.1947(9) 0.312(2)
H15 H 0.072(7) 0.0027(14) -0.174(3)
H16 H 0.063(9) -0.0409(17) -0.332(4)
H17 H 0.323(7) -0.0274(14) -0.434(4)
H18 H 0.634(8) 0.0267(14) -0.361(4)
H19 H 0.650(6) 0.0680(13) -0.189(3)
H20 H 0.186(5) 0.1099(10) 0.517(2)
H21 H -0.065(5) 0.1205(9) 0.435(2)
H22 H 0.377(5) 0.1892(11) 0.660(3)
H23 H 0.332(6) 0.1423(12) 0.723(3)
H24 H 0.225(5) 0.1914(11) 0.753(3)
H25 H -0.042(6) 0.0988(12) 0.662(3)
H26 H -0.153(6) 0.1435(12) 0.718(3)
H27 H -0.278(6) 0.1247(10) 0.581(3)
#END
