
#######################################################################
#
#                 Cambridge Crystallographic Data Centre
#                                CCDC
#
#######################################################################
#
# If this CIF has been generated from an entry in the Cambridge
# Structural Database, then it will include bibliographic, chemical,
# crystal, experimental, refinement or atomic coordinate data resulting
# from the CCDC's data processing and validation procedures.
#
#######################################################################

data_CSD_CIF_YUJYAE
_audit_creation_date 2010-08-06
_audit_creation_method CSD-ConQuest-V1
_database_code_CSD YUJYAE
_database_code_depnum_ccdc_archive 'CCDC 649533'
_chemical_formula_sum 'C13 H17 N3 O14'
_chemical_formula_moiety
;
C13 H17 N3 O14
;
_journal_coden_Cambridge 156
_journal_volume 344
_journal_year 2009
_journal_page_first 2439
_journal_name_full 'Carbohydr.Res. '
loop_
_publ_author_name
"Feng-Wu Liu"
"Zhen-Ji Wang"
"Xiao-Ping Song"
"Sai-Yang Zhang"
"Hong-Min Liu"
_chemical_name_systematic
;
3,3'-Dihydroxy-3-(nitromethyl)dodecahydro-2,3'-bifuro[3,2-b]furan-6,6'-diyl 
dinitrate
;
_chemical_name_common
;
(2R)-(1,4:3,6-Dianhydro-D-mannitol-2-yl)-2-nitromethyl-1,4:3,6-dianhydro-D-glu
citol 5,5'-dinitrate
;
_chemical_melting_point 457.15
_cell_volume   1748.194
_exptl_crystal_colour 'colorless'
_exptl_crystal_density_diffrn 1.669
_exptl_special_details
;
Melting point range 457.15-459.15K

;
_exptl_crystal_description 'prismatic'
_diffrn_ambient_temperature 291
#These two values have been output from a single CSD field.
_refine_ls_R_factor_gt 0.0308
_refine_ls_wR_factor_gt 0.0308
_symmetry_cell_setting orthorhombic
_symmetry_space_group_name_H-M 'P 21 21 21'
_symmetry_Int_Tables_number 19
loop_
_symmetry_equiv_pos_site_id
_symmetry_equiv_pos_as_xyz
1 x,y,z
2 1/2-x,-y,1/2+z
3 -x,1/2+y,1/2-z
4 1/2+x,1/2-y,-z
_cell_length_a 9.0163(18)
_cell_length_b 9.6196(19)
_cell_length_c 20.156(4)
_cell_angle_alpha 90
_cell_angle_beta 90
_cell_angle_gamma 90
_cell_formula_units_Z 4
loop_
_atom_type_symbol
_atom_type_radius_bond
C 0.68
H 0.23
N 0.68
O 0.68
loop_
_atom_site_label
_atom_site_type_symbol
_atom_site_fract_x
_atom_site_fract_y
_atom_site_fract_z
C1 C 0.6209(3) 0.1857(3) 0.30745(12)
H1 H 0.52390 0.16750 0.28850
H2 H 0.68950 0.11530 0.29180
C2 C 0.6744(3) 0.3294(3) 0.28813(12)
C3 C 0.7635(3) 0.3766(3) 0.35041(11)
H3 H 0.86920 0.38610 0.34000
C4 C 0.7387(3) 0.2622(3) 0.40095(12)
H4 H 0.82670 0.20350 0.40660
C5 C 0.6983(3) 0.3383(3) 0.46421(12)
H5 H 0.78690 0.36160 0.49010
C6 C 0.6224(4) 0.4686(3) 0.43790(12)
H6 H 0.51940 0.45040 0.42710
H7 H 0.62700 0.54350 0.47010
C7 C 0.7694(3) 0.3367(3) 0.22553(11)
H8 H 0.80780 0.43160 0.22140
C8 C 0.7046(3) 0.2935(3) 0.15804(13)
C9 C 0.8481(3) 0.2736(3) 0.11836(13)
H9 H 0.83530 0.21180 0.08010
C10 C 0.9575(3) 0.2156(3) 0.16985(13)
H10 H 0.97310 0.11560 0.16340
C11 C 1.1028(3) 0.2977(3) 0.15765(13)
H11 H 1.18520 0.23580 0.14610
C12 C 1.0638(4) 0.3934(4) 0.10143(14)
H12 H 1.10990 0.48350 0.10800
H13 H 1.09880 0.35510 0.05970
C13 C 0.5975(3) 0.4005(3) 0.13133(12)
H14 H 0.51880 0.41550 0.16340
H15 H 0.64900 0.48800 0.12500
O1 O 0.6134(2) 0.1845(2) 0.37860(8)
O2 O 0.5499(2) 0.4196(3) 0.27804(10)
H16 H 0.566(4) 0.481(4) 0.3012(15)
O3 O 0.5883(2) 0.2672(2) 0.50476(9)
O4 O 0.7066(2) 0.50238(19) 0.37898(8)
O5 O 0.89440(19) 0.24358(19) 0.23410(8)
O6 O 0.6264(2) 0.1652(2) 0.16211(9)
H17 H 0.688(3) 0.097(3) 0.1647(16)
O7 O 1.1397(2) 0.3870(2) 0.21364(9)
O8 O 0.9060(2) 0.4072(2) 0.10028(8)
O9 O 0.7682(2) 0.1104(3) 0.52448(10)
O10 O 0.5441(2) 0.0769(3) 0.5598(1)
O11 O 1.2084(3) 0.3893(3) 0.31671(10)
O12 O 1.2171(3) 0.1935(3) 0.26411(12)
O13 O 0.6153(3) 0.3440(3) 0.0196(1)
O14 O 0.4001(3) 0.3334(3) 0.06325(11)
N1 N 0.6404(3) 0.1415(3) 0.53208(11)
N2 N 1.1928(3) 0.3151(4) 0.26858(14)
N3 N 0.5313(3) 0.3548(3) 0.06672(12)
#END
