
#######################################################################
#
#                 Cambridge Crystallographic Data Centre
#                                CCDC
#
#######################################################################
#
# If this CIF has been generated from an entry in the Cambridge
# Structural Database, then it will include bibliographic, chemical,
# crystal, experimental, refinement or atomic coordinate data resulting
# from the CCDC's data processing and validation procedures.
#
#######################################################################

data_CSD_CIF_YULTUV
_audit_creation_date 2010-08-06
_audit_creation_method CSD-ConQuest-V1
_database_code_CSD YULTUV
_database_code_depnum_ccdc_archive 'CCDC 763432'
_chemical_formula_sum 'C19 H21 N1 O6'
_chemical_formula_moiety
;
C19 H21 N1 O6
;
_journal_coden_Cambridge 1336
_journal_volume 11
_journal_year 2009
_journal_page_first 5654
_journal_name_full 'Org.Lett. '
loop_
_publ_author_name
"P.G.McGarraugh"
"S.E.Brenner"
_chemical_name_systematic
;
Ethyl 
7-formyl-4-hydroxy-6-(4-nitrophenyl)-2,3,3a,6,7,7a-hexahydro-1H-indene-5-carbo
xylate
;
_cell_volume    886.634
_exptl_crystal_density_diffrn 1.346
_diffrn_ambient_temperature 100
#These two values have been output from a single CSD field.
_refine_ls_R_factor_gt 0.0331
_refine_ls_wR_factor_gt 0.0331
_symmetry_cell_setting monoclinic
_symmetry_space_group_name_H-M 'P 21'
_symmetry_Int_Tables_number 4
loop_
_symmetry_equiv_pos_site_id
_symmetry_equiv_pos_as_xyz
1 x,y,z
2 -x,1/2+y,-z
_cell_length_a 9.2930(19)
_cell_length_b 8.0650(16)
_cell_length_c 11.846(2)
_cell_angle_alpha 90
_cell_angle_beta 92.98(3)
_cell_angle_gamma 90
_cell_formula_units_Z 2
loop_
_atom_type_symbol
_atom_type_radius_bond
C 0.68
H 0.23
N 0.68
O 0.68
loop_
_atom_site_label
_atom_site_type_symbol
_atom_site_fract_x
_atom_site_fract_y
_atom_site_fract_z
O1 O 0.40716(14) 0.8717(2) 0.49393(11)
H1 H 0.35180 0.88630 0.43650
O2 O 0.34410(14) 0.9576(2) 0.28329(12)
O3 O 0.53097(14) 0.99358(19) 0.17204(11)
O4 O 0.88210(17) 0.3128(2) -0.00978(13)
O5 O 0.87610(19) 0.1734(2) 0.14608(14)
O6 O 1.08811(14) 0.8399(2) 0.44939(13)
N1 N 0.86585(17) 0.3038(2) 0.09252(15)
C1 C 0.54521(19) 0.8767(2) 0.46398(16)
C2 C 0.58454(19) 0.9129(2) 0.35829(16)
C3 C 0.74055(18) 0.9065(2) 0.32695(16)
H2 H 0.75560 0.99970 0.27310
C4 C 0.84166(18) 0.9372(3) 0.43299(16)
H3 H 0.82630 1.05470 0.45660
C5 C 0.81002(18) 0.8286(3) 0.53406(15)
H4 H 0.83860 0.71170 0.51810
C6 C 0.64819(19) 0.8330(3) 0.56060(16)
H5 H 0.62200 0.71950 0.58670
C7 C 0.6412(2) 0.9498(4) 0.66302(17)
H6 H 0.64160 1.06750 0.63940
H7 H 0.55440 0.92810 0.70570
C8 C 0.7791(2) 0.9049(4) 0.73283(19)
H8 H 0.80580 0.99350 0.78790
H9 H 0.76750 0.79930 0.77400
C9 C 0.8916(2) 0.8883(3) 0.64424(17)
H10 H 0.96640 0.80680 0.66910
H11 H 0.93880 0.99640 0.63180
C10 C 0.47432(19) 0.9549(3) 0.27065(16)
C11 C 0.4313(2) 1.0443(3) 0.08029(16)
H12 H 0.38390 1.14990 0.09910
H13 H 0.35600 0.95880 0.06620
C12 C 0.5186(2) 1.0657(3) -0.02261(17)
H14 H 0.56230 0.95940 -0.04180
H15 H 0.59470 1.14780 -0.00660
H16 H 0.45570 1.10370 -0.08630
C13 C 0.77255(18) 0.7451(3) 0.26544(16)
C14 C 0.73170(18) 0.5916(3) 0.30807(15)
H17 H 0.68140 0.58760 0.37580
C15 C 0.76296(19) 0.4455(3) 0.25366(16)
H18 H 0.73770 0.34120 0.28420
C16 C 0.83253(18) 0.4558(3) 0.15286(17)
C17 C 0.8729(2) 0.6052(3) 0.10691(17)
H19 H 0.91930 0.60880 0.03740
C18 C 0.8440(2) 0.7497(3) 0.16479(18)
H20 H 0.87320 0.85340 0.13550
C19 C 0.9971(2) 0.9240(3) 0.40072(17)
H21 H 1.02490 0.98650 0.33750
#END
