
#######################################################################
#
#                 Cambridge Crystallographic Data Centre
#                                CCDC
#
#######################################################################
#
# If this CIF has been generated from an entry in the Cambridge
# Structural Database, then it will include bibliographic, chemical,
# crystal, experimental, refinement or atomic coordinate data resulting
# from the CCDC's data processing and validation procedures.
#
#######################################################################

data_CSD_CIF_YULVUY
_audit_creation_date 2015-07-01
_audit_creation_method CSD-ConQuest-V1
_database_code_CSD YULVUY
_database_code_depnum_ccdc_archive 'CCDC 1035973'
_chemical_formula_sum 'C17 H15 N3 O7'
_chemical_formula_moiety
;
C17 H15 N3 O7
;
_journal_coden_Cambridge 6
_journal_volume 7
_journal_year 2015
_journal_page_first 668
_journal_name_full 'Nature (London) '
loop_
_publ_author_name
"I.Pusterla"
"J.W.Bode"
_chemical_name_systematic
;
(2-benzyl-1,2-oxazetidin-3-yl)methyl 3,5-dinitrobenzoate
;
_cell_volume   1616.256
_exptl_crystal_colour 'colorless'
_exptl_crystal_density_diffrn 1.534
_exptl_crystal_preparation 'dichloromethane/pentane'
_diffrn_ambient_temperature 100
#These two values have been output from a single CSD field.
_refine_ls_R_factor_gt 0.0371
_refine_ls_wR_factor_gt 0.0371
_symmetry_cell_setting monoclinic
_symmetry_space_group_name_H-M 'P 21/c'
_symmetry_Int_Tables_number 14
loop_
_symmetry_equiv_pos_site_id
_symmetry_equiv_pos_as_xyz
1 x,y,z
2 -x,1/2+y,1/2-z
3 -x,-y,-z
4 x,-1/2-y,-1/2+z
_cell_length_a 10.5058(3)
_cell_length_b 12.1536(4)
_cell_length_c 13.0043(4)
_cell_angle_alpha 90
_cell_angle_beta 103.246(1)
_cell_angle_gamma 90
_cell_formula_units_Z 4
loop_
_atom_type_symbol
_atom_type_radius_bond
C 0.68
H 0.23
N 0.68
O 0.68
loop_
_atom_site_label
_atom_site_type_symbol
_atom_site_fract_x
_atom_site_fract_y
_atom_site_fract_z
O1 O 0.50922(10) 0.60664(8) -0.17764(9)
O2 O 0.95120(7) 0.18843(6) -0.00026(6)
O3 O 0.35421(8) 0.22760(7) -0.15365(8)
O4 O 0.67331(9) 0.65392(7) -0.05182(8)
O5 O 1.02064(8) 0.36311(7) 0.03271(7)
O6 O 1.27186(8) 0.01617(7) 0.21150(8)
O7 O 0.48891(9) 0.11252(7) -0.05815(8)
N1 N 0.60330(9) 0.58496(8) -0.10595(8)
N2 N 1.12934(9) 0.04487(8) 0.18150(8)
N3 N 0.46174(10) 0.20201(8) -0.09992(8)
C1 C 0.63409(10) 0.46871(8) -0.08311(8)
C2 C 0.76336(10) 0.43965(9) -0.04323(8)
C3 C 0.79296(10) 0.32856(8) -0.02746(8)
C4 C 0.93384(10) 0.29714(9) 0.00625(8)
C5 C 1.08506(11) 0.15175(9) 0.00999(9)
C6 C 1.16166(10) 0.14324(9) 0.12276(9)
C7 C 1.09107(12) 0.07256(11) 0.27985(9)
C8 C 0.95180(11) 0.11203(9) 0.25167(8)
C9 C 0.85078(11) 0.03675(9) 0.21693(9)
C10 C 0.72235(12) 0.07176(10) 0.18699(9)
C11 C 0.69319(12) 0.18282(10) 0.19250(9)
C12 C 0.56644(10) 0.28491(9) -0.08310(8)
C13 C 0.69396(10) 0.24978(8) -0.04644(8)
C14 C 0.53243(10) 0.39384(9) -0.10570(8)
C15 C 0.79207(12) 0.25816(10) 0.22781(9)
C16 C 0.92120(12) 0.22285(9) 0.25609(9)
C17 C 1.29809(12) 0.09459(10) 0.1355(1)
H1 H 1.1589(14) 0.2084(13) 0.1640(12)
H2 H 1.1255(15) 0.2033(12) -0.0289(12)
H3 H 0.4442(15) 0.4173(12) -0.1343(12)
H4 H 0.7133(14) 0.1744(13) -0.0368(11)
H5 H 1.0749(14) 0.0811(12) -0.0241(12)
H6 H 1.3765(17) 0.1401(14) 0.1628(13)
H7 H 1.1496(16) 0.1313(14) 0.3231(14)
H8 H 0.8677(15) -0.0389(14) 0.2127(12)
H9 H 1.3127(14) 0.0626(11) 0.0761(13)
H10 H 1.0998(15) 0.0041(14) 0.3220(14)
H11 H 0.7696(15) 0.3367(13) 0.2351(12)
H12 H 0.8287(14) 0.4903(13) -0.0337(12)
H13 H 0.9913(14) 0.2769(12) 0.2786(12)
H14 H 0.6547(17) 0.0246(15) 0.1643(15)
H15 H 0.6052(18) 0.2081(14) 0.1698(14)
#END
