
#######################################################################
#
#                 Cambridge Crystallographic Data Centre
#                                CCDC
#
#######################################################################
#
# If this CIF has been generated from an entry in the Cambridge
# Structural Database, then it will include bibliographic, chemical,
# crystal, experimental, refinement or atomic coordinate data resulting
# from the CCDC's data processing and validation procedures.
#
#######################################################################

data_CSD_CIF_YUMBUE
_audit_creation_date 2010-08-06
_audit_creation_method CSD-ConQuest-V1
_database_code_CSD YUMBUE
_database_code_depnum_ccdc_archive 'CCDC 746717'
_chemical_formula_sum 'C21 H21 N1 O4'
_chemical_formula_moiety
;
C21 H21 N1 O4
;
_journal_coden_Cambridge 1336
_journal_volume 11
_journal_year 2009
_journal_page_first 5246
_journal_name_full 'Org.Lett. '
loop_
_publ_author_name
"Bor-Cherng Hong"
"Rei-Hau Jan"
"Chih-Wei Tsai"
"R.Y.Nimje"
"Ju-Hsiou Liao"
"Gene-Hsiang Lee"
_chemical_name_systematic
;
Ethyl 5-nitro-4,6-diphenylcyclohex-1-ene-1-carboxylate
;
_cell_volume   1812.820
_exptl_crystal_colour 'colorless'
_exptl_crystal_density_diffrn 1.287
_exptl_crystal_description 'parallelepiped'
_diffrn_ambient_temperature 294
#These two values have been output from a single CSD field.
_refine_ls_R_factor_gt 0.058
_refine_ls_wR_factor_gt 0.058
loop_
_citation_database_id_CSD
_citation_special_details
YUMBOY "is a stereoisomer of this entry"
_symmetry_cell_setting monoclinic
_symmetry_space_group_name_H-M 'P 21/c'
_symmetry_Int_Tables_number 14
loop_
_symmetry_equiv_pos_site_id
_symmetry_equiv_pos_as_xyz
1 x,y,z
2 -x,1/2+y,1/2-z
3 -x,-y,-z
4 x,-1/2-y,-1/2+z
_cell_length_a 7.7034(9)
_cell_length_b 23.256(3)
_cell_length_c 10.1217(12)
_cell_angle_alpha 90
_cell_angle_beta 91.325(2)
_cell_angle_gamma 90
_cell_formula_units_Z 4
loop_
_atom_type_symbol
_atom_type_radius_bond
C 0.68
H 0.23
N 0.68
O 0.68
loop_
_atom_site_label
_atom_site_type_symbol
_atom_site_fract_x
_atom_site_fract_y
_atom_site_fract_z
C1 C 0.3120(2) 0.69928(8) 0.46687(17)
H1 H 0.25540 0.71970 0.53210
C2 C 0.2744(3) 0.71080(9) 0.3348(2)
H2 H 0.19420 0.73920 0.31210
C3 C 0.3549(3) 0.68059(8) 0.23768(18)
H3 H 0.32940 0.68830 0.14920
C4 C 0.4726(3) 0.63906(9) 0.27147(18)
H4 H 0.52660 0.61820 0.20570
C5 C 0.5125(2) 0.62772(8) 0.40292(17)
H5 H 0.59390 0.59950 0.42450
C6 C 0.43272(19) 0.65779(7) 0.50251(15)
C7 C 0.47678(19) 0.64715(7) 0.64832(14)
H6 H 0.46590 0.68400 0.69450
C8 C 0.6620(2) 0.62691(8) 0.66804(16)
C9 C 0.7054(2) 0.57434(9) 0.70723(18)
H7 H 0.82290 0.56560 0.71530
C10 C 0.5790(2) 0.52861(9) 0.7390(2)
H8 H 0.57760 0.52350 0.83410
H9 H 0.61680 0.49270 0.70030
C11 C 0.3941(2) 0.54214(7) 0.68817(16)
H10 H 0.39660 0.53660 0.59230
C12 C 0.3448(2) 0.60537(7) 0.70778(15)
H11 H 0.23200 0.61190 0.66370
C13 C 0.2573(2) 0.50069(7) 0.73652(17)
C14 C 0.2441(3) 0.48604(9) 0.86861(19)
H12 H 0.32200 0.50160 0.93040
C15 C 0.1168(3) 0.44867(10) 0.9097(2)
H13 H 0.10960 0.43950 0.99890
C16 C 0.0015(3) 0.42513(10) 0.8208(3)
H14 H -0.08410 0.40010 0.84910
C17 C 0.0128(3) 0.43862(10) 0.6896(3)
H15 H -0.06480 0.42240 0.62850
C18 C 0.1394(2) 0.47636(8) 0.64750(19)
H16 H 0.14530 0.48550 0.55820
C19 C 0.8014(2) 0.66861(10) 0.6367(2)
C20 C 0.8527(4) 0.76788(14) 0.5874(4)
H17 H 0.84490 0.79970 0.64890
H18 H 0.97170 0.75410 0.58990
C21 C 0.8118(5) 0.7866(2) 0.4640(4)
H19 H 0.82870 0.75600 0.40200
H20 H 0.88500 0.81850 0.44230
H21 H 0.69250 0.79860 0.46010
N1 N 0.3270(2) 0.61901(7) 0.85304(15)
O1 O 0.95070(18) 0.65650(9) 0.6212(2)
O2 O 0.73864(18) 0.72212(7) 0.62868(18)
O3 O 0.4524(2) 0.61533(10) 0.92537(15)
O4 O 0.1871(3) 0.63145(11) 0.89139(18)
#END
