
#######################################################################
#
#                 Cambridge Crystallographic Data Centre
#                                CCDC
#
#######################################################################
#
# If this CIF has been generated from an entry in the Cambridge
# Structural Database, then it will include bibliographic, chemical,
# crystal, experimental, refinement or atomic coordinate data resulting
# from the CCDC's data processing and validation procedures.
#
#######################################################################

data_CSD_CIF_YUMNEA
_audit_creation_date 2010-02-16
_audit_creation_method CSD-ConQuest-V1
_database_code_CSD YUMNEA
_database_code_depnum_ccdc_archive 'CCDC 676397'
_chemical_formula_sum 'C19 H19 N3 O4'
_chemical_formula_moiety
;
C19 H19 N3 O4
;
_journal_coden_Cambridge 1088
_journal_year 2009
_journal_page_first 1014
_journal_name_full 'Synlett '
loop_
_publ_author_name
"M.Bakthadoss"
"N.Sivakumar"
_chemical_name_systematic
;
3'-(Hydroxymethyl)-1'-methyl-3'-nitro-4'-phenylspiro(indole-3,2'-pyrrolidin)-2
(1H)-one
;
_chemical_melting_point 433.15
_cell_volume   3501.741
_exptl_crystal_colour 'colorless'
_exptl_crystal_density_diffrn 1.341
_exptl_special_details
;
Melting point range 433.15-435.15K

;
_exptl_crystal_description 'block'
_diffrn_ambient_temperature 293
#These two values have been output from a single CSD field.
_refine_ls_R_factor_gt 0.0462
_refine_ls_wR_factor_gt 0.0462
_symmetry_cell_setting tetragonal
_symmetry_space_group_name_H-M 'P 42/n'
_symmetry_Int_Tables_number 86
loop_
_symmetry_equiv_pos_site_id
_symmetry_equiv_pos_as_xyz
1 x,y,z
2 1/2-x,1/2-y,z
3 -y,1/2+x,1/2+z
4 1/2+y,-x,1/2+z
5 -x,-y,-z
6 -1/2+x,-1/2+y,-z
7 y,-1/2-x,-1/2-z
8 -1/2-y,x,-1/2-z
_cell_length_a 17.6049(6)
_cell_length_b 17.6049(6)
_cell_length_c 11.2984(6)
_cell_angle_alpha 90
_cell_angle_beta 90
_cell_angle_gamma 90
_cell_formula_units_Z 8
loop_
_atom_type_symbol
_atom_type_radius_bond
C 0.68
H 0.23
N 0.68
O 0.68
loop_
_atom_site_label
_atom_site_type_symbol
_atom_site_fract_x
_atom_site_fract_y
_atom_site_fract_z
C1 C 0.47483(10) 0.24821(9) 0.23898(18)
H1 H 0.50950 0.25040 0.30100
C2 C 0.42796(13) 0.30909(11) 0.2177(2)
H2 H 0.43130 0.35200 0.26550
C3 C 0.37681(12) 0.30729(12) 0.1276(2)
H3 H 0.34430 0.34810 0.11510
C4 C 0.37354(12) 0.24501(12) 0.0555(2)
H4 H 0.33960 0.24400 -0.00750
C5 C 0.4208(1) 0.18324(10) 0.07604(18)
H5 H 0.41840 0.14120 0.02630
C6 C 0.47104(8) 0.18358(8) 0.16916(15)
C7 C 0.51738(8) 0.11283(8) 0.19462(15)
H6 H 0.48900 0.06990 0.16170
C8 C 0.59862(8) 0.10970(9) 0.13910(14)
C9 C 0.65197(8) 0.08457(8) 0.24302(13)
C10 C 0.53025(9) 0.09529(10) 0.32529(16)
H7 H 0.53660 0.14170 0.37050
H8 H 0.48790 0.06690 0.35780
C11 C 0.72019(9) 0.03532(9) 0.21637(15)
C12 C 0.72589(12) -0.03833(11) 0.1779(2)
H9 H 0.68260 -0.06650 0.16040
C13 C 0.79798(14) -0.06991(15) 0.1657(3)
H10 H 0.80290 -0.11950 0.13850
C14 C 0.86183(13) -0.02898(16) 0.1933(2)
H11 H 0.90930 -0.05130 0.18380
C15 C 0.85722(11) 0.04413(14) 0.2346(2)
H12 H 0.90060 0.07170 0.25380
C16 C 0.78558(9) 0.07514(10) 0.24656(15)
C17 C 0.69111(9) 0.15674(8) 0.29395(14)
C18 C 0.62301(9) 0.18175(11) 0.07614(15)
H13 H 0.59560 0.18590 0.00190
H14 H 0.60950 0.22530 0.12450
C19 C 0.62980(11) 0.03854(12) 0.44570(17)
H15 H 0.63970 0.08690 0.48190
H16 H 0.67620 0.01010 0.44080
H17 H 0.59360 0.01100 0.49250
N1 N 0.76632(8) 0.14564(9) 0.29354(14)
N2 N 0.59936(7) 0.05016(7) 0.32703(12)
N3 N 0.59887(10) 0.04455(12) 0.04883(16)
O1 O 0.65761(7) 0.21255(6) 0.33191(11)
O2 O 0.56716(10) -0.01463(10) 0.07560(19)
O3 O 0.63298(13) 0.05426(13) -0.04387(15)
O4 O 0.70199(8) 0.18343(11) 0.05308(13)
H18 H 0.71020 0.16620 -0.01320
H19 H 0.7986(13) 0.1813(13) 0.3149(19)
#END
