
#######################################################################
#
#                 Cambridge Crystallographic Data Centre
#                                CCDC
#
#######################################################################
#
# If this CIF has been generated from an entry in the Cambridge
# Structural Database, then it will include bibliographic, chemical,
# crystal, experimental, refinement or atomic coordinate data resulting
# from the CCDC's data processing and validation procedures.
#
#######################################################################

data_CSD_CIF_YUNXOU
_audit_creation_date 1996-02-22
_audit_creation_method CSD-ConQuest-V1
_database_code_CSD YUNXOU
_chemical_formula_sum 'C14 H12 N2 O4'
_chemical_formula_moiety
;
C14 H12 N2 O4
;
_journal_coden_Cambridge 4
_journal_volume 117
_journal_year 1995
_journal_page_first 4479
_journal_name_full 'J.Am.Chem.Soc. '
loop_
_publ_author_name
"B.Kahr"
"C.A.Mitchell"
"J.M.Chance"
"R.V.Clark"
"P.Gantzel"
"K.K.Baldridge"
"J.S.Siegel"
_chemical_name_systematic
;
1,2-bis(4-Nitrophenyl)ethane
;
_chemical_name_common
;
4,4'-Dinitro-dibenzyl
;
_cell_volume    634.353
_exptl_crystal_colour 'red'
_exptl_crystal_density_diffrn 1.426
_diffrn_ambient_temperature ?
_diffrn_special_details
;
The study was carried out at room temperature,in the range 283-303K

;
#These two values have been output from a single CSD field.
_refine_ls_R_factor_gt 0.0468
_refine_ls_wR_factor_gt 0.0468
_symmetry_cell_setting monoclinic
_symmetry_space_group_name_H-M 'P 21/c'
_symmetry_Int_Tables_number 14
loop_
_symmetry_equiv_pos_site_id
_symmetry_equiv_pos_as_xyz
1 x,y,z
2 -x,1/2+y,1/2-z
3 -x,-y,-z
4 x,-1/2-y,-1/2+z
_cell_length_a 4.487(2)
_cell_length_b 13.281(6)
_cell_length_c 10.756(5)
_cell_angle_alpha 90
_cell_angle_beta 98.24(3)
_cell_angle_gamma 90
_cell_formula_units_Z 2
loop_
_atom_type_symbol
_atom_type_radius_bond
C 0.68
H 0.23
N 0.68
O 0.68
loop_
_atom_site_label
_atom_site_type_symbol
_atom_site_fract_x
_atom_site_fract_y
_atom_site_fract_z
O1 O -0.14592(42) 0.65369(13) 0.99378(15)
O2 O -0.13344(42) 0.79270(12) 0.89057(16)
N1 N -0.06647(43) 0.70396(14) 0.90858(17)
C1 C 0.11721(47) 0.65491(15) 0.82338(19)
C2 C 0.21547(49) 0.71156(15) 0.72915(19)
C3 C 0.38023(49) 0.66437(16) 0.64711(19)
C4 C 0.44469(45) 0.56201(16) 0.65721(18)
C5 C 0.34513(49) 0.50780(16) 0.75436(19)
C6 C 0.18226(51) 0.55386(16) 0.83851(20)
C7 C 0.60691(48) 0.51037(17) 0.56104(19)
H1 H 0.16900 0.78130 0.72130
H2 H 0.45120 0.70290 0.58250
H3 H 0.39060 0.43800 0.76240
H4 H 0.11770 0.51630 0.90530
H5 H 0.69360 0.44930 0.59430
H6 H 0.76640 0.55270 0.54140
C7B C 0.39309(48) 0.48963(17) 0.43896(19)
C4B C 0.55531(45) 0.43799(16) 0.34279(18)
H5B H 0.30640 0.55070 0.40570
H6B H 0.23360 0.44730 0.45860
C3B C 0.61977(49) 0.33563(16) 0.35289(19)
C5B C 0.65487(49) 0.49220(16) 0.24564(19)
C2B C 0.78453(49) 0.28844(15) 0.27085(19)
H2B H 0.54880 0.29710 0.41750
C6B C 0.81774(51) 0.44614(16) 0.16149(20)
H3B H 0.60940 0.56200 0.23760
C1B C 0.88279(47) 0.34509(15) 0.17662(19)
H1B H 0.83100 0.21870 0.27870
H4B H 0.88230 0.48370 0.09470
N1B N 1.06647(43) 0.29604(14) 0.09142(17)
O1B O 1.14592(42) 0.34631(13) 0.00622(15)
O2B O 1.13344(42) 0.20730(12) 0.10943(16)
#END
