
#######################################################################
#
#                 Cambridge Crystallographic Data Centre
#                                CCDC
#
#######################################################################
#
# If this CIF has been generated from an entry in the Cambridge
# Structural Database, then it will include bibliographic, chemical,
# crystal, experimental, refinement or atomic coordinate data resulting
# from the CCDC's data processing and validation procedures.
#
#######################################################################

data_CSD_CIF_YURBAP
_audit_creation_date 2010-08-06
_audit_creation_method CSD-ConQuest-V1
_database_code_CSD YURBAP
_database_code_depnum_ccdc_archive 'CCDC 708864'
_chemical_formula_sum 'C31 H30 N6 O4'
_chemical_formula_moiety
;
C31 H30 N6 O4
;
_journal_coden_Cambridge 493
_journal_volume 44
_journal_year 2009
_journal_page_first 4985
_journal_name_full 'Eur.J.Med.Chem. '
loop_
_publ_author_name
"H.A.Abdel-Aziz"
"A.A.I.Mekawey"
_chemical_name_systematic
;
(1E,2Z,3E)-1-(Piperidin-1-yl)-1-((4-nitrophenyl)hydrazono)-2-((3-methylbenzofu
ran-2-oyl)hydrazono)-4-phenylbut-3-ene
;
_chemical_melting_point 534.15
_cell_volume   2861.087
_exptl_crystal_colour 'red'
_exptl_crystal_density_diffrn 1.278
_exptl_special_details
;
Melting point range 534.15-536.15K
tested for antibacterial and antifungal activity
;
_exptl_crystal_description 'prismatic'
_diffrn_ambient_temperature 298
#These two values have been output from a single CSD field.
_refine_ls_R_factor_gt 0.047
_refine_ls_wR_factor_gt 0.047
_symmetry_cell_setting monoclinic
_symmetry_space_group_name_H-M 'P 21/c'
_symmetry_Int_Tables_number 14
loop_
_symmetry_equiv_pos_site_id
_symmetry_equiv_pos_as_xyz
1 x,y,z
2 -x,1/2+y,1/2-z
3 -x,-y,-z
4 x,-1/2-y,-1/2+z
_cell_length_a 13.8406(7)
_cell_length_b 12.1451(6)
_cell_length_c 20.5992(13)
_cell_angle_alpha 90
_cell_angle_beta 124.282(18)
_cell_angle_gamma 90
_cell_formula_units_Z 4
loop_
_atom_type_symbol
_atom_type_radius_bond
C 0.68
H 0.23
N 0.68
O 0.68
loop_
_atom_site_label
_atom_site_type_symbol
_atom_site_fract_x
_atom_site_fract_y
_atom_site_fract_z
N1 N 0.5811(4) -0.0155(3) 0.9561(2)
O1 O 0.8009(3) -0.0755(3) 1.0738(2)
N2 N 0.6781(4) 0.0467(3) 0.9778(2)
O2 O 0.8574(3) 0.1618(3) 1.0000(2)
N3 N 0.4195(3) 0.2123(3) 0.8608(2)
N4 N 0.5162(3) 0.1280(3) 0.8134(2)
N5 N 0.3866(3) 0.2097(3) 0.9131(2)
C1 C 0.4812(4) 0.0185(3) 0.8974(3)
C2 C 0.3450(4) 0.3059(4) 0.9957(3)
C3 C 0.3819(4) -0.0511(4) 0.8726(3)
O3 O 0.3313(4) 0.6903(3) 0.9983(2)
O4 O 0.3047(4) 0.5951(3) 1.0766(3)
C4 C 0.3664(4) 0.3060(3) 0.9369(3)
C5 C 0.5239(5) 0.0284(4) 0.7759(3)
N6 N 0.3210(4) 0.6016(4) 1.0239(3)
C6 C 0.7855(5) 0.0078(4) 1.0362(3)
C7 C 0.4655(4) 0.1245(3) 0.8551(3)
C8 C 0.3527(5) 0.5040(4) 0.9333(3)
C9 C 0.3699(5) 0.4080(4) 0.9059(3)
C10 C 0.3285(4) 0.4019(4) 1.0227(3)
C11 C 1.0458(5) 0.1764(4) 1.1018(4)
C12 C 0.5159(5) 0.2302(4) 0.7759(3)
C13 C 0.2754(5) -0.0337(4) 0.8087(3)
C14 C 0.3333(4) 0.5004(4) 0.9919(3)
C15 C 0.1717(5) -0.1034(4) 0.7766(3)
C16 C 0.9972(5) 0.0801(4) 1.1134(3)
C17 C 0.6320(5) 0.1355(4) 0.7331(3)
C18 C 0.8841(5) 0.0767(4) 1.0525(3)
C19 C 0.1694(5) -0.1948(5) 0.8164(3)
C20 C 0.6300(5) 0.0316(4) 0.7736(3)
C21 C 0.6211(5) 0.2359(4) 0.7722(3)
C22 C 0.9593(5) 0.2219(5) 1.0321(4)
C23 C 0.0701(7) -0.2581(5) 0.7829(5)
C24 C 1.1683(6) 0.3252(6) 1.1160(4)
C25 C 1.0589(5) 0.0037(5) 1.1821(4)
C26 C 1.1545(5) 0.2298(5) 1.1459(4)
C27 C 1.0800(7) 0.3658(6) 1.0446(5)
C28 C 0.0728(7) -0.0803(5) 0.7028(4)
C29 C -0.0265(7) -0.2343(7) 0.7103(6)
C30 C 0.9720(6) 0.3160(6) 1.0011(4)
C31 C -0.0263(7) -0.1456(8) 0.6714(5)
H1 H 0.34082 0.23617 1.01590
H2 H 0.39197 -0.11500 0.90326
H3 H 0.52654 -0.03502 0.80468
H4 H 0.45651 0.02388 0.72273
H5 H 0.35294 0.57289 0.91056
H6 H 0.38648 0.40881 0.86653
H7 H 0.31519 0.40056 1.06366
H8 H 0.44709 0.23308 0.72320
H9 H 0.51543 0.29089 0.80555
H10 H 0.26247 0.03261 0.77947
H11 H 0.70216 0.13850 0.73417
H12 H 0.56532 0.13250 0.67964
H13 H 0.23834 -0.21257 0.86697
H14 H 0.69725 0.03432 0.82690
H15 H 0.63426 -0.03272 0.74823
H16 H 0.61944 0.30132 0.74549
H17 H 0.68932 0.23679 0.82522
H18 H 0.06853 -0.31974 0.81148
H19 H 1.24045 0.36541 1.14578
H20 H 1.00712 -0.05450 1.17544
H21 H 1.08457 0.04339 1.22948
H22 H 1.12548 -0.02711 1.18540
H23 H 1.21588 0.19735 1.19459
H24 H 1.09278 0.43112 1.02418
H25 H 0.07565 -0.01726 0.67579
H26 H -0.09479 -0.28001 0.68765
H27 H 0.90690 0.34122 0.95106
H28 H -0.09472 -0.12918 0.62025
H29 H 0.37864 0.13984 0.93137
H30 H 0.66786 0.11545 0.95166
#END
