
#######################################################################
#
#                 Cambridge Crystallographic Data Centre
#                                CCDC
#
#######################################################################
#
# If this CIF has been generated from an entry in the Cambridge
# Structural Database, then it will include bibliographic, chemical,
# crystal, experimental, refinement or atomic coordinate data resulting
# from the CCDC's data processing and validation procedures.
#
#######################################################################

data_CSD_CIF_YURHEZ
_audit_creation_date 2010-11-04
_audit_creation_method CSD-ConQuest-V1
_database_code_CSD YURHEZ
_database_code_depnum_ccdc_archive 'CCDC 777140 (not 741055 as published)'
_chemical_formula_sum 'C25 H28 N2 O6'
_chemical_formula_moiety
;
C25 H28 N2 O6
;
_journal_coden_Cambridge 1350
_journal_volume 12
_journal_year 2010
_journal_page_first 1027
_journal_name_full 'CrystEngComm '
loop_
_publ_author_name
"C.B.Aakeroy"
"E.P.Hurley"
"J.Desper"
"M.Natali"
"A.Douglawi"
"S.Giordani"
_chemical_name_systematic
;
Ethyl 
4-(8-methoxy-3',3'-dimethyl-6-nitrospiro[chromene-2,2'-indol]-1'(3'H)-yl)butan
oate
;
_cell_volume   2255.870
_exptl_crystal_colour 'colorless'
_exptl_crystal_density_diffrn 1.332
_exptl_crystal_description 'prism'
_diffrn_ambient_temperature 120
#These two values have been output from a single CSD field.
_refine_ls_R_factor_gt 0.0406
_refine_ls_wR_factor_gt 0.0406
_symmetry_cell_setting monoclinic
_symmetry_space_group_name_H-M 'C c'
_symmetry_Int_Tables_number 9
loop_
_symmetry_equiv_pos_site_id
_symmetry_equiv_pos_as_xyz
1 x,y,z
2 x,-y,1/2+z
3 1/2+x,1/2+y,z
4 1/2+x,1/2-y,1/2+z
_cell_length_a 15.1881(13)
_cell_length_b 12.6063(10)
_cell_length_c 12.1356(10)
_cell_angle_alpha 90
_cell_angle_beta 103.863(3)
_cell_angle_gamma 90
_cell_formula_units_Z 4
loop_
_atom_type_symbol
_atom_type_radius_bond
C 0.68
H 0.23
N 0.68
O 0.68
loop_
_atom_site_label
_atom_site_type_symbol
_atom_site_fract_x
_atom_site_fract_y
_atom_site_fract_z
N1 N 0.74189(10) 0.62159(12) 0.92194(12)
C1 C 0.65874(11) 0.63521(14) 0.83462(13)
C2 C 0.63105(11) 0.75301(14) 0.84965(14)
C3 C 0.67462(12) 0.76950(14) 0.97478(14)
C4 C 0.66144(14) 0.84903(16) 1.04805(16)
H1 H 0.61720 0.90260 1.02310
C5 C 0.71467(16) 0.84883(19) 1.15982(17)
H2 H 0.70640 0.90270 1.21120
C6 C 0.77899(15) 0.7707(2) 1.19560(17)
H3 H 0.81450 0.77210 1.27150
C7 C 0.79323(13) 0.68931(18) 1.12264(16)
H4 H 0.83740 0.63570 1.14770
C8 C 0.73975(12) 0.69057(15) 1.01189(14)
C9 C 0.52841(13) 0.77032(17) 0.81515(16)
H5 H 0.51520 0.84610 0.81910
H6 H 0.49970 0.73100 0.86680
H7 H 0.50460 0.74490 0.73740
C10 C 0.67576(14) 0.82892(15) 0.77932(15)
H8 H 0.66510 0.90250 0.79880
H9 H 0.64940 0.81720 0.69830
H10 H 0.74110 0.81530 0.79620
C11 C 0.78615(13) 0.51755(15) 0.93692(16)
H11 H 0.74350 0.46350 0.89550
H12 H 0.80110 0.49860 1.01850
C12 C 0.87307(13) 0.51577(16) 0.89372(16)
H13 H 0.89500 0.44180 0.89370
H14 H 0.85960 0.54220 0.81460
C13 C 0.94680(14) 0.58390(16) 0.96735(17)
H15 H 0.91990 0.65270 0.98140
H16 H 0.96880 0.54840 1.04160
C14 C 1.02704(13) 0.60508(17) 0.91675(16)
O1 O 1.04016(10) 0.56509(13) 0.83241(13)
O2 O 1.08277(10) 0.67742(12) 0.98030(12)
C15 C 1.16252(15) 0.70785(19) 0.94134(18)
H17 H 1.18330 0.77880 0.97190
H18 H 1.14650 0.71250 0.85750
C16 C 1.23842(15) 0.6284(2) 0.97914(19)
H19 H 1.29220 0.65260 0.95500
H20 H 1.21930 0.55920 0.94490
H21 H 1.25300 0.62210 1.06200
C17 C 0.67127(12) 0.60497(15) 0.71987(14)
H22 H 0.70870 0.64850 0.68630
C18 C 0.63268(12) 0.52035(14) 0.66272(14)
H23 H 0.64580 0.50310 0.59220
C19 C 0.55015(11) 0.48465(14) 0.80794(13)
O3 O 0.58822(9) 0.56992(11) 0.86821(10)
C20 C 0.48575(11) 0.42832(15) 0.85210(14)
O4 O 0.46931(9) 0.46828(11) 0.94930(11)
C21 C 0.44415(12) 0.33994(14) 0.79440(14)
H24 H 0.40090 0.30050 0.82250
C22 C 0.46709(12) 0.31007(15) 0.69389(15)
N2 N 0.42070(12) 0.21900(13) 0.63192(14)
O5 O 0.3590(1) 0.17689(12) 0.66568(13)
O6 O 0.44423(15) 0.18877(17) 0.54760(17)
C23 C 0.52912(12) 0.36428(14) 0.64901(14)
H25 H 0.54330 0.34130 0.58070
C24 C 0.57068(11) 0.45394(14) 0.70659(14)
C25 C 0.41229(15) 0.40743(19) 1.00356(17)
H26 H 0.40680 0.44360 1.07310
H27 H 0.43890 0.33700 1.02260
H28 H 0.35210 0.40000 0.95210
#END
