
#######################################################################
#
#                 Cambridge Crystallographic Data Centre
#                                CCDC
#
#######################################################################
#
# If this CIF has been generated from an entry in the Cambridge
# Structural Database, then it will include bibliographic, chemical,
# crystal, experimental, refinement or atomic coordinate data resulting
# from the CCDC's data processing and validation procedures.
#
#######################################################################

data_CSD_CIF_YUWPEL
_audit_creation_date 1996-01-25
_audit_creation_method CSD-ConQuest-V1
_database_code_CSD YUWPEL
_chemical_formula_sum 'C18 H24 N2 O5'
_chemical_formula_moiety
;
C18 H24 N2 O5
;
_journal_coden_Cambridge 188
_journal_year 1995
_journal_page_first 609
_journal_name_full 'J.Chem.Soc.,Perkin Trans.2 '
loop_
_publ_author_name
"C.Di Bugno"
"S.M.Colombani"
"P.Dapporto"
"R.Giorgi"
"P.Paoli"
_chemical_name_systematic
;
(1S,2R)-cis-2-(Benzyloxyaminocarbonylmethyl(N-methyl)aminocarbonyl)cyclohexane
carboxylic acid
;
_cell_volume   1841.713
_exptl_crystal_density_diffrn 1.26
_exptl_special_details
;
related to a novel compound with ACE inhibitory activity

;
_diffrn_ambient_temperature ?
_diffrn_special_details
;
The study was carried out at room temperature,in the range 283-303K

;
#These two values have been output from a single CSD field.
_refine_ls_R_factor_gt 0.035
_refine_ls_wR_factor_gt 0.035
_symmetry_cell_setting orthorhombic
_symmetry_space_group_name_H-M 'P 21 21 21'
_symmetry_Int_Tables_number 19
loop_
_symmetry_equiv_pos_site_id
_symmetry_equiv_pos_as_xyz
1 x,y,z
2 1/2-x,-y,1/2+z
3 1/2+x,1/2-y,-z
4 -x,1/2+y,1/2-z
_cell_length_a 6.987(3)
_cell_length_b 11.502(9)
_cell_length_c 22.917(5)
_cell_angle_alpha 90
_cell_angle_beta 90
_cell_angle_gamma 90
_cell_formula_units_Z 4
loop_
_atom_type_symbol
_atom_type_radius_bond
C 0.68
H 0.23
N 0.68
O 0.68
loop_
_atom_site_label
_atom_site_type_symbol
_atom_site_fract_x
_atom_site_fract_y
_atom_site_fract_z
O1 O -0.7552(3) 0.0127(2) -0.8023(1)
O2 O -0.8887(4) -0.0836(2) -0.8752(1)
O3 O -0.7039(3) 0.2479(2) -0.8713(1)
O4 O -0.8175(3) 0.3999(2) -0.6957(1)
O5 O -0.9708(3) 0.1883(2) -0.6914(1)
N1 N -0.4994(3) 0.2573(2) -0.7964(1)
N2 N -0.8137(4) 0.2138(2) -0.7267(1)
C1 C -0.4598(4) 0.1012(2) -0.8695(1)
C2 C -0.5995(4) 0.0130(2) -0.8957(1)
C3 C -0.6768(5) 0.0459(3) -0.9561(1)
C4 C -0.5161(5) 0.0790(3) -0.9973(1)
C5 C -0.3890(5) 0.1732(3) -0.9722(1)
C6 C -0.3048(5) 0.1355(3) -0.9138(1)
C7 C -0.7551(4) -0.0171(2) -0.8531(1)
C8 C -0.5645(4) 0.2072(2) -0.8463(1)
C9 C -0.3368(5) 0.2171(3) -0.7625(2)
C10 C -0.6048(4) 0.3538(2) -0.7723(1)
C11 C -0.7563(4) 0.3243(3) -0.7280(1)
C12 C -0.9310(5) 0.0873(3) -0.6558(1)
C13 C -0.7592(4) 0.0997(2) -0.6181(1)
C14 C -0.7284(5) 0.1976(3) -0.5843(1)
C15 C -0.5679(5) 0.2068(3) -0.5498(1)
C16 C -0.4367(5) 0.1180(3) -0.5478(2)
C17 C -0.4659(5) 0.0202(3) -0.5804(2)
C18 C -0.6251(5) 0.0108(3) -0.6150(1)
H1 H -0.9667(54) -0.0966(32) -0.8468(16)
H2 H -0.7863(54) 0.1591(31) -0.7546(15)
H3 H -0.3959(4) 0.0638(2) -0.8364(1)
H4 H -0.5257(4) -0.0586(2) -0.9013(1)
H5 H -0.7469(5) -0.0194(3) -0.9723(1)
H6 H -0.7647(5) 0.1107(3) -0.9523(1)
H7 H -0.5704(5) 0.1061(3) -1.0338(1)
H8 H -0.4392(5) 0.0108(3) -1.0056(1)
H9 H -0.4632(5) 0.2437(3) -0.9668(1)
H10 H -0.2862(5) 0.1900(3) -0.9993(1)
H11 H -0.2291(5) 0.1987(3) -0.8979(1)
H12 H -0.2201(5) 0.0698(3) -0.9201(1)
H13 H -0.3805(6) 0.1652(14) -0.7325(6)
H14 H -0.2737(18) 0.2825(4) -0.7450(7)
H15 H -0.2489(15) 0.1769(15) -0.7876(2)
H16 H -0.6654(4) 0.3952(2) -0.8042(1)
H17 H -0.5142(4) 0.4067(2) -0.7543(1)
H18 H -0.9133(5) 0.0206(3) -0.6811(1)
H19 H -1.0412(5) 0.0718(3) -0.6313(1)
H20 H -0.8171(5) 0.2579(3) -0.5849(1)
H21 H -0.5482(5) 0.2736(3) -0.5277(1)
H22 H -0.3284(5) 0.1245(3) -0.5244(2)
H23 H -0.3776(5) -0.0402(3) -0.5790(2)
H24 H -0.6437(5) -0.0564(3) -0.6368(1)
#END
