
#######################################################################
#
#                 Cambridge Crystallographic Data Centre
#                                CCDC
#
#######################################################################
#
# If this CIF has been generated from an entry in the Cambridge
# Structural Database, then it will include bibliographic, chemical,
# crystal, experimental, refinement or atomic coordinate data resulting
# from the CCDC's data processing and validation procedures.
#
#######################################################################

data_CSD_CIF_YUXCUR
_audit_creation_date 2015-11-06
_audit_creation_method CSD-ConQuest-V1
_database_code_CSD YUXCUR
_database_code_depnum_ccdc_archive 'CCDC 1012804'
_chemical_formula_sum 'C14 H29 N1 O2'
_chemical_formula_moiety
;
C14 H29 N1 O2
;
_journal_coden_Cambridge 1291
_journal_year 2015
_journal_page_first 7785
_journal_name_full 'Eur.J.Org.Chem. '
loop_
_publ_author_name
"E.Jahn"
"J.Smrcek"
"R.Pohl"
"I.Cisarova"
"P.G.Jones"
"U.Jahn"
_chemical_name_systematic
;
2-((2,2,6,6-tetramethylpiperidin-1-yl)oxy)pentan-3-ol
;
_cell_volume   2891.602
_exptl_crystal_colour 'colorless'
_exptl_crystal_density_diffrn 1.118
_exptl_crystal_description 'prism'
_diffrn_ambient_temperature 150
#These two values have been output from a single CSD field.
_refine_ls_R_factor_gt 0.039
_refine_ls_wR_factor_gt 0.039
_symmetry_cell_setting monoclinic
_symmetry_space_group_name_H-M 'C 2/c'
_symmetry_Int_Tables_number 15
loop_
_symmetry_equiv_pos_site_id
_symmetry_equiv_pos_as_xyz
1 x,y,z
2 -x,y,1/2-z
3 1/2+x,1/2+y,z
4 1/2-x,1/2+y,1/2-z
5 -x,-y,-z
6 x,-y,-1/2+z
7 -1/2-x,-1/2-y,-z
8 -1/2+x,-1/2-y,-1/2+z
_cell_length_a 19.6669(8)
_cell_length_b 7.7958(3)
_cell_length_c 18.9890(6)
_cell_angle_alpha 90
_cell_angle_beta 96.682(1)
_cell_angle_gamma 90
_cell_formula_units_Z 8
loop_
_atom_type_symbol
_atom_type_radius_bond
C 0.68
H 0.23
N 0.68
O 0.68
loop_
_atom_site_label
_atom_site_type_symbol
_atom_site_fract_x
_atom_site_fract_y
_atom_site_fract_z
O1 O 0.72331(4) 0.33822(12) -0.11943(4)
H1 H 0.7582(9) 0.277(2) -0.1059(9)
O2 O 0.62247(4) 0.43502(10) 0.02820(4)
N1 N 0.64646(4) 0.34988(12) 0.09489(4)
C1 C 0.66362(6) 0.63192(16) -0.05282(6)
H2 H 0.61550 0.64430 -0.07220
H3 H 0.69270 0.64410 -0.09110
H4 H 0.67550 0.72080 -0.01700
C2 C 0.67480(5) 0.45589(15) -0.01894(5)
H5 H 0.72090 0.45290 0.00950
C3 C 0.67063(6) 0.31241(15) -0.07443(6)
H6 H 0.67850 0.19990 -0.04950
C4 C 0.60216(6) 0.30593(17) -0.12073(6)
H7 H 0.56480 0.31220 -0.09010
H8 H 0.59820 0.40710 -0.15250
C5 C 0.59367(7) 0.14386(19) -0.16531(7)
H9 H 0.63000 0.13820 -0.19650
H10 H 0.54890 0.14550 -0.19410
H11 H 0.59660 0.04330 -0.13410
C6 C 0.59564(6) 0.20939(14) 0.10419(6)
C7 C 0.61443(6) 0.13195(16) 0.17847(6)
H12 H 0.57910 0.04670 0.18740
H13 H 0.65860 0.07040 0.17930
C8 C 0.62052(7) 0.26291(17) 0.23798(6)
H14 H 0.57550 0.31720 0.24130
H15 H 0.63550 0.20580 0.28370
C9 C 0.67234(6) 0.39810(16) 0.22280(6)
H16 H 0.71790 0.34350 0.22340
H17 H 0.67560 0.48530 0.26100
C10 C 0.65400(6) 0.48764(14) 0.15112(6)
C11 C 0.60429(7) 0.06876(15) 0.05001(6)
H18 H 0.58730 0.10990 0.00240
H19 H 0.57820 -0.03290 0.06120
H20 H 0.65290 0.03900 0.05170
C12 C 0.52009(6) 0.26613(17) 0.09372(7)
H21 H 0.50940 0.32930 0.13570
H22 H 0.49060 0.16480 0.08690
H23 H 0.51220 0.34040 0.05190
C13 C 0.71491(6) 0.59978(17) 0.13752(6)
H24 H 0.75440 0.52670 0.13180
H25 H 0.72630 0.67730 0.17780
H26 H 0.70310 0.66720 0.09430
C14 C 0.59165(7) 0.60595(16) 0.15237(7)
H27 H 0.57340 0.63570 0.10370
H28 H 0.60550 0.71080 0.17870
H29 H 0.55630 0.54680 0.17550
#END
