
#######################################################################
#
#                 Cambridge Crystallographic Data Centre
#                                CCDC
#
#######################################################################
#
# If this CIF has been generated from an entry in the Cambridge
# Structural Database, then it will include bibliographic, chemical,
# crystal, experimental, refinement or atomic coordinate data resulting
# from the CCDC's data processing and validation procedures.
#
#######################################################################

data_CSD_CIF_YUXCUQ
_audit_creation_date 2010-12-02
_audit_creation_method CSD-ConQuest-V1
_database_code_CSD YUXCUQ
_database_code_depnum_ccdc_archive 'CCDC 776605'
_chemical_formula_sum 'C13 H22 N2 O5'
_chemical_formula_moiety
;
C13 H22 N2 O5
;
_journal_coden_Cambridge 644
_journal_volume 65
_journal_year 2010
_journal_page_first 821
_journal_name_full 'Z.Naturforsch.,B:Chem.Sci. '
loop_
_publ_author_name
"V.Jager"
"W.Frey"
"Y.Bathich"
"S.Shiva"
"M.Ibrahim"
"M.Hennebohle"
"P.-Y.LeRoy"
"M.Imerhasan"
_chemical_name_systematic
;
3-(1,4-Dioxaspiro[4.5]dec-2-yl)-2-methyl-3-(nitromethyl)-1,2-oxazolidine
;
_cell_volume    751.696
_exptl_crystal_colour 'colorless'
_exptl_crystal_density_diffrn 1.265
_exptl_crystal_description 'plates'
_diffrn_ambient_temperature 293
#These two values have been output from a single CSD field.
_refine_ls_R_factor_gt 0.0552
_refine_ls_wR_factor_gt 0.0552
_symmetry_cell_setting monoclinic
_symmetry_space_group_name_H-M 'P 21'
_symmetry_Int_Tables_number 4
loop_
_symmetry_equiv_pos_site_id
_symmetry_equiv_pos_as_xyz
1 x,y,z
2 -x,1/2+y,-z
_cell_length_a 5.9247(3)
_cell_length_b 9.4529(4)
_cell_length_c 13.5600(6)
_cell_angle_alpha 90
_cell_angle_beta 98.187(4)
_cell_angle_gamma 90
_cell_formula_units_Z 2
loop_
_atom_type_symbol
_atom_type_radius_bond
C 0.68
H 0.23
N 0.68
O 0.68
loop_
_atom_site_label
_atom_site_type_symbol
_atom_site_fract_x
_atom_site_fract_y
_atom_site_fract_z
O1 O 0.3968(5) 0.2392(4) 0.3936(2)
N1 N 0.4351(6) 0.0869(4) 0.4020(3)
C1 C 0.3849(8) 0.2625(7) 0.2890(3)
H1 H 0.42830 0.35880 0.27580
H2 H 0.23120 0.24600 0.25550
O2 O 0.8015(6) -0.1110(4) 0.2557(3)
N2 N 0.8962(6) 0.2548(5) 0.4334(4)
C2 C 0.5498(8) 0.1584(6) 0.2530(3)
H3 H 0.67820 0.20740 0.23150
H4 H 0.47470 0.10230 0.19800
C3 C 0.6283(6) 0.0644(5) 0.3448(3)
O3 O 0.4717(7) -0.1885(5) 0.1703(3)
O4 O 0.9226(6) 0.2790(5) 0.5220(3)
C4 C 0.6340(7) -0.0930(5) 0.3211(3)
H5 H 0.67980 -0.14630 0.38270
O5 O 0.8963(6) 0.3444(4) 0.3683(4)
C5 C 0.4146(9) -0.1544(7) 0.2663(3)
H6 H 0.36910 -0.23820 0.29970
H7 H 0.29200 -0.08560 0.26120
C6 C 0.7137(9) -0.2051(6) 0.1829(4)
C7 C 0.7828(14) -0.3587(7) 0.2074(4)
H8 H 0.94710 -0.36250 0.22570
H9 H 0.71470 -0.38820 0.26500
C8 C 0.7180(16) -0.4580(9) 0.1280(5)
H10 H 0.55310 -0.46470 0.11480
H11 H 0.77800 -0.55080 0.14770
C9 C 0.8124(18) -0.4094(9) 0.0317(6)
H12 H 0.97780 -0.41020 0.04300
H13 H 0.76140 -0.47390 -0.02250
C10 C 0.7283(18) -0.2631(11) 0.0048(5)
H14 H 0.78920 -0.23220 -0.05430
H15 H 0.56330 -0.26460 -0.01070
C11 C 0.7947(14) -0.1630(8) 0.0849(4)
H16 H 0.73260 -0.07080 0.06480
H17 H 0.95960 -0.15480 0.09560
C12 C 0.8676(7) 0.1025(5) 0.4006(4)
H18 H 0.89910 0.04240 0.45890
H19 H 0.98040 0.08120 0.35750
C13 C 0.4730(8) 0.0558(6) 0.5072(3)
H20 H 0.34030 0.08150 0.53630
H21 H 0.60200 0.10870 0.53850
H22 H 0.50210 -0.04350 0.51680
#END
