
#######################################################################
#
#                 Cambridge Crystallographic Data Centre
#                                CCDC
#
#######################################################################
#
# If this CIF has been generated from an entry in the Cambridge
# Structural Database, then it will include bibliographic, chemical,
# crystal, experimental, refinement or atomic coordinate data resulting
# from the CCDC's data processing and validation procedures.
#
#######################################################################

data_CSD_CIF_YUXDEC
_audit_creation_date 2015-11-06
_audit_creation_method CSD-ConQuest-V1
_database_code_CSD YUXDEC
_database_code_depnum_ccdc_archive 'CCDC 1048882'
_chemical_formula_sum 'C16 H29 N1 O2'
_chemical_formula_moiety
;
C16 H29 N1 O2
;
_journal_coden_Cambridge 1291
_journal_year 2015
_journal_page_first 7785
_journal_name_full 'Eur.J.Org.Chem. '
loop_
_publ_author_name
"E.Jahn"
"J.Smrcek"
"R.Pohl"
"I.Cisarova"
"P.G.Jones"
"U.Jahn"
_chemical_name_systematic
;
2-methyl-6-((2,2,6,6-tetramethylpiperidin-1-yl)oxy)cyclohexanone
;
_cell_volume   1556.086
_exptl_crystal_colour 'colorless'
_exptl_crystal_density_diffrn 1.141
_exptl_crystal_description 'prism'
_diffrn_ambient_temperature 150
#These two values have been output from a single CSD field.
_refine_ls_R_factor_gt 0.0327
_refine_ls_wR_factor_gt 0.0327
_symmetry_cell_setting orthorhombic
_symmetry_space_group_name_H-M 'P 21 21 21'
_symmetry_Int_Tables_number 19
loop_
_symmetry_equiv_pos_site_id
_symmetry_equiv_pos_as_xyz
1 x,y,z
2 1/2+x,1/2-y,-z
3 -x,1/2+y,1/2-z
4 1/2-x,-y,1/2+z
_cell_length_a 9.8543(3)
_cell_length_b 9.9562(3)
_cell_length_c 15.8604(5)
_cell_angle_alpha 90
_cell_angle_beta 90
_cell_angle_gamma 90
_cell_formula_units_Z 4
loop_
_atom_type_symbol
_atom_type_radius_bond
C 0.68
H 0.23
N 0.68
O 0.68
loop_
_atom_site_label
_atom_site_type_symbol
_atom_site_fract_x
_atom_site_fract_y
_atom_site_fract_z
C1 C 0.57071(12) 0.86489(11) 0.79135(7)
C2 C 0.53187(12) 0.96681(11) 0.85945(7)
H1 H 0.47640 1.03970 0.83320
C3 C 0.66231(13) 1.02855(12) 0.89603(8)
H2 H 0.63810 1.10030 0.93650
H3 H 0.71350 0.95860 0.92690
C4 C 0.75169(13) 1.08712(13) 0.82656(8)
H4 H 0.70400 1.16340 0.79960
H5 H 0.83680 1.12170 0.85170
C5 C 0.78544(13) 0.98276(13) 0.76041(8)
H6 H 0.83910 0.90980 0.78660
H7 H 0.84160 1.02440 0.71580
C6 C 0.65647(13) 0.92335(12) 0.72074(7)
H8 H 0.60430 0.99830 0.69420
C7 C 0.68806(16) 0.81997(14) 0.65270(8)
H9 H 0.74560 0.74910 0.67640
H10 H 0.73570 0.86380 0.60590
H11 H 0.60320 0.78060 0.63200
C8 C 0.21394(12) 0.90195(12) 0.89881(7)
C9 C 0.08199(13) 0.97307(13) 0.92393(8)
H12 H 0.08090 1.06360 0.89820
H13 H 0.00430 0.92210 0.90070
C10 C 0.06340(13) 0.98720(15) 1.01877(8)
H14 H -0.02080 1.03780 1.03100
H15 H 0.05600 0.89730 1.04510
C11 C 0.18502(14) 1.06136(14) 1.05409(8)
H16 H 0.17480 1.06910 1.11600
H17 H 0.18670 1.15340 1.03050
C12 C 0.32094(13) 0.99208(12) 1.03443(7)
C13 C 0.20713(14) 0.75077(13) 0.91752(9)
H18 H 0.29830 0.71210 0.91360
H19 H 0.14750 0.70700 0.87640
H20 H 0.17120 0.73680 0.97450
C14 C 0.23044(14) 0.91902(14) 0.80319(7)
H21 H 0.24730 1.01380 0.79010
H22 H 0.14740 0.88950 0.77470
H23 H 0.30720 0.86470 0.78360
C15 C 0.33547(15) 0.86162(14) 1.08548(8)
H24 H 0.24920 0.81260 1.08470
H25 H 0.35980 0.88340 1.14380
H26 H 0.40670 0.80570 1.06040
C16 C 0.43583(14) 1.08699(15) 1.05981(8)
H27 H 0.52310 1.04110 1.05310
H28 H 0.42420 1.11380 1.11880
H29 H 0.43380 1.16690 1.02380
N1 N 0.32776(10) 0.97615(9) 0.94055(6)
O1 O 0.53964(9) 0.74727(8) 0.79482(5)
O2 O 0.45268(8) 0.90200(8) 0.92326(5)
#END
