
#######################################################################
#
#                 Cambridge Crystallographic Data Centre
#                                CCDC
#
#######################################################################
#
# If this CIF has been generated from an entry in the Cambridge
# Structural Database, then it will include bibliographic, chemical,
# crystal, experimental, refinement or atomic coordinate data resulting
# from the CCDC's data processing and validation procedures.
#
#######################################################################

data_CSD_CIF_YUXHAB
_audit_creation_date 2010-08-24
_audit_creation_method CSD-ConQuest-V1
_database_code_CSD YUXHAB
_database_code_depnum_ccdc_archive 'CCDC 772530'
_chemical_formula_sum 'C18 H20 N2 O2'
_chemical_formula_moiety
;
C18 H20 N2 O2
;
_journal_coden_Cambridge 182
_journal_volume 46
_journal_year 2010
_journal_page_first 5064
_journal_name_full 'Chem.Commun. '
loop_
_publ_author_name
"A.D.Burrows"
"C.G.Frost"
"M.F.Mahon"
"P.R.Raithby"
"C.Richardson"
"A.J.Stevenson"
_chemical_name_systematic
;
4,4'-(1,4-Phenylenebis(methylene))bis(3,5-dimethyl-1,2-oxazole)
;
_chemical_name_common
;
1,4-bis((3,5-Dimethylisoxazol-4-yl)methyl)benzene
;
_cell_volume    822.051
_exptl_crystal_colour 'colorless'
_exptl_crystal_density_diffrn 1.197
_exptl_crystal_description 'parallelepiped'
_exptl_crystal_preparation 'ethanol/water'
_diffrn_ambient_temperature 150
#These two values have been output from a single CSD field.
_refine_ls_R_factor_gt 0.0546
_refine_ls_wR_factor_gt 0.0546
_symmetry_cell_setting monoclinic
_symmetry_space_group_name_H-M 'P 21/n'
_symmetry_Int_Tables_number 14
loop_
_symmetry_equiv_pos_site_id
_symmetry_equiv_pos_as_xyz
1 x,y,z
2 1/2-x,1/2+y,1/2-z
3 -x,-y,-z
4 -1/2+x,-1/2-y,-1/2+z
_cell_length_a 7.0310(3)
_cell_length_b 14.2330(6)
_cell_length_c 8.3650(5)
_cell_angle_alpha 90
_cell_angle_beta 100.882(2)
_cell_angle_gamma 90
_cell_formula_units_Z 2
loop_
_atom_type_symbol
_atom_type_radius_bond
C 0.68
H 0.23
N 0.68
O 0.68
loop_
_atom_site_label
_atom_site_type_symbol
_atom_site_fract_x
_atom_site_fract_y
_atom_site_fract_z
O1 O 0.0713(3) 0.62726(12) 0.0288(2)
N1 N 0.1303(3) 0.64916(14) -0.1208(3)
C1 C -0.2176(6) 0.5973(2) 0.1397(3)
H1 H -0.20160 0.64930 0.21780
H2 H -0.15680 0.54060 0.19310
H3 H -0.35590 0.58560 0.10050
C2 C -0.1243(4) 0.62194(15) -0.0003(3)
C3 C -0.1948(3) 0.63978(12) -0.1585(2)
C4 C -0.0281(3) 0.65530(14) -0.2262(3)
C5 C -0.0188(4) 0.6758(2) -0.3990(3)
H4 H 0.11410 0.69270 -0.40720
H5 H -0.10590 0.72810 -0.43810
H6 H -0.05860 0.62000 -0.46560
C6 C -0.3994(3) 0.64349(14) -0.2479(3)
H7 H -0.42380 0.70630 -0.29870
H8 H -0.48650 0.63620 -0.16860
C7 C -0.4507(2) 0.56908(13) -0.3795(2)
C8 C -0.3986(3) 0.47625(13) -0.3495(2)
H9 H -0.32760 0.45870 -0.24560
C9 C -0.5515(3) 0.59180(14) -0.5310(2)
H10 H -0.58800 0.65530 -0.55480
O1B O -1.0713(3) 0.37274(12) -1.0288(2)
N1B N -1.1303(3) 0.35084(14) -0.8792(3)
C1B C -0.7824(6) 0.4027(2) -1.1397(3)
H1B H -0.79840 0.35070 -1.21780
H2B H -0.84320 0.45940 -1.19310
H3B H -0.64410 0.41440 -1.10050
C2B C -0.8757(4) 0.37806(15) -0.9997(3)
C3B C -0.8052(3) 0.36022(12) -0.8415(2)
C4B C -0.9719(3) 0.34470(14) -0.7738(3)
C5B C -0.9812(4) 0.3242(2) -0.6010(3)
H4B H -1.11410 0.30730 -0.59280
H5B H -0.89410 0.27190 -0.56190
H6B H -0.94140 0.38000 -0.53440
C6B C -0.6006(3) 0.35651(14) -0.7521(3)
H7B H -0.57620 0.29370 -0.70130
H8B H -0.51350 0.36380 -0.83140
C7B C -0.5493(2) 0.43092(13) -0.6205(2)
C8B C -0.6014(3) 0.52375(13) -0.6505(2)
H9B H -0.67240 0.54130 -0.75440
C9B C -0.4485(3) 0.40820(14) -0.4690(2)
H10B H -0.41200 0.34470 -0.44520
#END
