
#######################################################################
#
#                 Cambridge Crystallographic Data Centre
#                                CCDC
#
#######################################################################
#
# If this CIF has been generated from an entry in the Cambridge
# Structural Database, then it will include bibliographic, chemical,
# crystal, experimental, refinement or atomic coordinate data resulting
# from the CCDC's data processing and validation procedures.
#
#######################################################################

data_CSD_CIF_YUXMIO
_audit_creation_date 2010-12-02
_audit_creation_method CSD-ConQuest-V1
_database_code_CSD YUXMIO
_database_code_depnum_ccdc_archive 'CCDC 746515'
_chemical_formula_sum 'C25 H23 N3 O9'
_chemical_formula_moiety
;
C25 H23 N3 O9
;
_journal_coden_Cambridge 4
_journal_volume 132
_journal_year 2010
_journal_page_first 5869
_journal_name_full 'J.Am.Chem.Soc. '
loop_
_publ_author_name
"Yan Yan"
"Bo Qin"
"Changliang Ren"
"Xiuying Chen"
"Yeow Kwan Yip"
"Ruijuan Ye"
"Dawei Zhang"
"Haibin Su"
"Huaqiang Zeng"
_chemical_name_systematic
;
Methyl 
2-methoxy-3-((2-methoxy-3-((2-methoxy-3-nitrobenzoyl)amino)benzoyl)amino)benzo
ate
;
_cell_volume   2325.091
_exptl_crystal_colour 'colorless'
_exptl_crystal_density_diffrn 1.455
_exptl_crystal_description 'block'
_diffrn_ambient_temperature 223
#These two values have been output from a single CSD field.
_refine_ls_R_factor_gt 0.0493
_refine_ls_wR_factor_gt 0.0493
_symmetry_cell_setting monoclinic
_symmetry_space_group_name_H-M 'P 21/n'
_symmetry_Int_Tables_number 14
loop_
_symmetry_equiv_pos_site_id
_symmetry_equiv_pos_as_xyz
1 x,y,z
2 1/2-x,1/2+y,1/2-z
3 -x,-y,-z
4 -1/2+x,-1/2-y,-1/2+z
_cell_length_a 7.0390(6)
_cell_length_b 24.783(2)
_cell_length_c 13.5449(12)
_cell_angle_alpha 90
_cell_angle_beta 100.260(2)
_cell_angle_gamma 90
_cell_formula_units_Z 4
loop_
_atom_type_symbol
_atom_type_radius_bond
C 0.68
H 0.23
N 0.68
O 0.68
loop_
_atom_site_label
_atom_site_type_symbol
_atom_site_fract_x
_atom_site_fract_y
_atom_site_fract_z
O1 O 0.7137(2) -0.06194(5) -0.0735(1)
O2 O 0.73904(19) 0.10638(5) -0.09268(9)
O3 O 0.6026(2) 0.18386(6) -0.2405(1)
O4 O 0.8022(2) 0.17379(6) -0.34295(12)
O5 O 0.85507(17) 0.08987(4) 0.15281(8)
O6 O 0.8658(2) 0.06177(7) 0.45118(10)
O7 O 1.33470(18) 0.14926(5) 0.28362(9)
O8 O 1.6938(2) 0.26090(6) 0.46458(10)
O9 O 1.6345(4) 0.22226(11) 0.31727(17)
N1 N 0.7452(2) 0.01650(6) 0.01346(10)
N2 N 1.0500(2) 0.10200(6) 0.35070(11)
N3 N 0.7021(2) 0.15584(7) -0.28548(11)
C1 C 0.7194(2) -0.01281(7) -0.07189(13)
C2 C 0.6975(2) 0.01875(7) -0.16874(12)
C3 C 0.7141(2) 0.07493(7) -0.17708(12)
C4 C 0.6961(2) 0.09717(7) -0.27286(13)
C5 C 0.6665(3) 0.06627(8) -0.35904(13)
H1 H 0.66160 0.08240 -0.42230
C6 C 0.6442(3) 0.01135(8) -0.35047(14)
H2 H 0.61970 -0.01040 -0.40820
C7 C 0.6581(3) -0.01163(7) -0.25676(13)
H3 H 0.64040 -0.04910 -0.25200
C8 C 0.8997(3) 0.14339(8) -0.07417(15)
H4 H 0.96230 0.14460 -0.13240
H5 H 0.99140 0.13140 -0.01620
H6 H 0.85330 0.17910 -0.06140
C9 C 0.7730(2) -0.00152(7) 0.11301(12)
C10 C 0.8264(2) 0.03832(6) 0.18646(12)
C11 C 0.8548(2) 0.02541(7) 0.28799(12)
C12 C 0.8290(3) -0.02784(7) 0.31589(13)
H7 H 0.84680 -0.03710 0.38420
C13 C 0.7775(3) -0.06702(7) 0.24412(14)
H8 H 0.76170 -0.10280 0.26410
C14 C 0.7487(2) -0.05447(7) 0.14286(13)
H9 H 0.71280 -0.08160 0.09460
C15 C 0.7045(3) 0.12757(8) 0.16470(16)
H10 H 0.58320 0.11570 0.12500
H11 H 0.73680 0.16300 0.14230
H12 H 0.69220 0.12930 0.23480
C16 C 0.9201(3) 0.06523(7) 0.37151(13)
C17 C 1.1567(3) 0.14002(7) 0.41489(12)
C18 C 1.3082(3) 0.16532(7) 0.37721(12)
C19 C 1.4282(3) 0.20248(7) 0.43576(13)
C20 C 1.3904(3) 0.21508(7) 0.53109(13)
H13 H 1.46970 0.24000 0.57150
C21 C 1.2389(3) 0.19146(8) 0.56628(13)
H14 H 1.21420 0.20110 0.62990
C22 C 1.1214(3) 0.15356(7) 0.50941(13)
H15 H 1.01930 0.13730 0.53470
C23 C 1.2524(4) 0.18413(9) 0.20298(15)
H16 H 1.12530 0.19570 0.21260
H17 H 1.24140 0.16490 0.13990
H18 H 1.33470 0.21540 0.20180
C24 C 1.5956(3) 0.22754(8) 0.39866(16)
C25 C 1.8593(3) 0.28634(9) 0.43499(18)
H19 H 1.95210 0.25900 0.42440
H20 H 1.91850 0.31090 0.48740
H21 H 1.81860 0.30630 0.37330
H22 H 1.077(3) 0.1015(8) 0.2906(16)
H23 H 0.752(3) 0.0500(9) 0.0080(16)
#END
