
#######################################################################
#
#                 Cambridge Crystallographic Data Centre
#                                CCDC
#
#######################################################################
#
# If this CIF has been generated from an entry in the Cambridge
# Structural Database, then it will include bibliographic, chemical,
# crystal, experimental, refinement or atomic coordinate data resulting
# from the CCDC's data processing and validation procedures.
#
#######################################################################

data_CSD_CIF_YUXMUA
_audit_creation_date 2010-12-02
_audit_creation_method CSD-ConQuest-V1
_database_code_CSD YUXMUA
_database_code_depnum_ccdc_archive 'CCDC 746517'
_chemical_formula_sum 'C25 H32 N2 O8'
_chemical_formula_moiety
;
C25 H32 N2 O8
;
_journal_coden_Cambridge 4
_journal_volume 132
_journal_year 2010
_journal_page_first 5869
_journal_name_full 'J.Am.Chem.Soc. '
loop_
_publ_author_name
"Yan Yan"
"Bo Qin"
"Changliang Ren"
"Xiuying Chen"
"Yeow Kwan Yip"
"Ruijuan Ye"
"Dawei Zhang"
"Haibin Su"
"Huaqiang Zeng"
_chemical_name_systematic
;
Methyl 2-methoxy-3-((2-methoxy-3-nitro-5-(octyloxy)benzoyl)amino)benzoate
;
_cell_volume   1249.750
_exptl_crystal_colour 'yellow'
_exptl_crystal_density_diffrn 1.298
_exptl_crystal_description 'block'
_diffrn_ambient_temperature 293
_refine_special_details
;
N2A,O7A,O8A and N2B,O7B,O8B disordered over two sites with occupancies 
0.505:0.495.
;
#These two values have been output from a single CSD field.
_refine_ls_R_factor_gt 0.0535
_refine_ls_wR_factor_gt 0.0535
_symmetry_cell_setting triclinic
_symmetry_space_group_name_H-M 'P -1'
_symmetry_Int_Tables_number 2
loop_
_symmetry_equiv_pos_site_id
_symmetry_equiv_pos_as_xyz
1 x,y,z
2 -x,-y,-z
_cell_length_a 8.6807(5)
_cell_length_b 12.2715(8)
_cell_length_c 12.4359(8)
_cell_angle_alpha 80.749(2)
_cell_angle_beta 73.924(2)
_cell_angle_gamma 81.848(2)
_cell_formula_units_Z 2
loop_
_atom_type_symbol
_atom_type_radius_bond
C 0.68
H 0.23
N 0.68
O 0.68
loop_
_atom_site_label
_atom_site_type_symbol
_atom_site_fract_x
_atom_site_fract_y
_atom_site_fract_z
N1 N 0.5130(9) 0.3961(5) 0.1536(4)
O1 O 0.5318(6) 0.2947(3) 0.1603(4)
O2 O 0.5334(5) 0.4551(2) 0.0621(2)
O3 O -0.00375(12) 0.15882(8) 0.56557(8)
O4 O 0.15596(15) 0.50048(10) 0.62997(10)
O5 O -0.33910(15) 0.02139(10) 0.85489(10)
O6 O -0.22563(16) 0.00524(10) 0.67433(11)
O7 O 0.29508(12) 0.30517(8) 0.36314(9)
O8 O 0.53508(13) 0.70498(8) 0.34596(9)
N2 N 0.08984(14) 0.35682(10) 0.56355(10)
H1 H 0.115(2) 0.3180(14) 0.5076(13)
C1 C -0.08071(16) 0.21392(11) 0.65636(11)
C2 C -0.19665(16) 0.16791(11) 0.74928(12)
C3 C -0.25976(17) 0.22642(12) 0.84171(12)
H2 H -0.33570 0.19620 0.90390
C4 C -0.21128(17) 0.32833(13) 0.84229(12)
H3 H -0.25600 0.36670 0.90420
C5 C -0.09682(17) 0.37407(12) 0.75166(12)
H4 H -0.06470 0.44300 0.75270
C6 C -0.02939(16) 0.31686(11) 0.65859(11)
C7 C -0.0879(2) 0.16850(15) 0.47892(14)
H5 H -0.19870 0.15640 0.51310
H6 H -0.03900 0.11410 0.42880
H7 H -0.08210 0.24140 0.43720
C8 C -0.25154(17) 0.05754(12) 0.75169(13)
C9 C -0.4004(2) -0.08438(14) 0.86717(16)
H8 H -0.47900 -0.07800 0.82470
H9 H -0.44970 -0.10680 0.94540
H10 H -0.31330 -0.13880 0.83960
C10 C 0.17575(17) 0.44320(11) 0.55522(12)
C11 C 0.35573(17) 0.40463(11) 0.35597(12)
C12 C 0.30149(16) 0.46964(11) 0.44517(12)
C13 C 0.36569(16) 0.56865(11) 0.43639(12)
H11 H 0.33040 0.61060 0.49620
C14 C 0.48081(17) 0.60735(11) 0.34138(13)
C15 C 0.53226(18) 0.54652(12) 0.25168(13)
H12 H 0.60810 0.57170 0.18670
C16 C 0.46863(18) 0.44703(12) 0.26038(12)
C17 C 0.3966(2) 0.20971(12) 0.39742(15)
H13 H 0.49860 0.20500 0.34210
H14 H 0.34540 0.14370 0.40400
H15 H 0.41330 0.21700 0.46900
C18 C 0.64810(18) 0.75351(12) 0.24761(13)
H16 H 0.60200 0.76800 0.18340
H17 H 0.74630 0.70380 0.22910
C19 C 0.68290(17) 0.86010(12) 0.27684(13)
H18 H 0.73230 0.84310 0.33940
H19 H 0.58190 0.90550 0.30160
C20 C 0.79332(18) 0.92670(11) 0.17920(12)
H20 H 0.89390 0.88130 0.15310
H21 H 0.74300 0.94590 0.11720
C21 C 0.82845(18) 1.03216(12) 0.21333(13)
H22 H 0.88540 1.01190 0.27180
H23 H 0.72690 1.07390 0.24540
C22 C 0.9278(2) 1.10670(12) 0.11709(13)
H24 H 0.87050 1.12820 0.05900
H25 H 1.02910 1.06510 0.08430
C23 C 0.9626(2) 1.21074(13) 0.15443(14)
H26 H 0.86110 1.25010 0.19040
H27 H 1.02350 1.18880 0.21050
C24 C 1.0558(2) 1.28973(14) 0.05946(14)
H28 H 1.15770 1.25100 0.02300
H29 H 0.99490 1.31320 0.00360
C25 C 1.0881(3) 1.39151(17) 0.10203(19)
H30 H 0.98760 1.43010 0.13820
H31 H 1.14510 1.43990 0.03960
H32 H 1.15210 1.36890 0.15510
N3? N 0.5367(9) 0.3818(6) 0.1659(5)
O9? O 0.4567(7) 0.3183(5) 0.1470(5)
O10? O 0.6676(3) 0.4026(3) 0.1063(2)
#END
