
#######################################################################
#
#                 Cambridge Crystallographic Data Centre
#                                CCDC
#
#######################################################################
#
# If this CIF has been generated from an entry in the Cambridge
# Structural Database, then it will include bibliographic, chemical,
# crystal, experimental, refinement or atomic coordinate data resulting
# from the CCDC's data processing and validation procedures.
#
#######################################################################

data_CSD_CIF_YUXMOU
_audit_creation_date 2010-12-02
_audit_creation_method CSD-ConQuest-V1
_database_code_CSD YUXMOU
_database_code_depnum_ccdc_archive 'CCDC 746516'
_chemical_formula_sum 'C33 H30 N4 O11'
_chemical_formula_moiety
;
C33 H30 N4 O11
;
_journal_coden_Cambridge 4
_journal_volume 132
_journal_year 2010
_journal_page_first 5869
_journal_name_full 'J.Am.Chem.Soc. '
loop_
_publ_author_name
"Yan Yan"
"Bo Qin"
"Changliang Ren"
"Xiuying Chen"
"Yeow Kwan Yip"
"Ruijuan Ye"
"Dawei Zhang"
"Haibin Su"
"Huaqiang Zeng"
_chemical_name_systematic
;
Methyl 
2-methoxy-3-((2-methoxy-3-((2-methoxy-3-((2-methoxy-3-nitrobenzoyl)amino)benzo
yl)amino)benzoyl)amino)benzoate
;
_cell_volume   1481.717
_exptl_crystal_colour 'colorless'
_exptl_crystal_density_diffrn 1.476
_exptl_crystal_description 'block'
_diffrn_ambient_temperature 223
#These two values have been output from a single CSD field.
_refine_ls_R_factor_gt 0.0616
_refine_ls_wR_factor_gt 0.0616
_symmetry_cell_setting triclinic
_symmetry_space_group_name_H-M 'P -1'
_symmetry_Int_Tables_number 2
loop_
_symmetry_equiv_pos_site_id
_symmetry_equiv_pos_as_xyz
1 x,y,z
2 -x,-y,-z
_cell_length_a 8.0316(10)
_cell_length_b 13.8306(17)
_cell_length_c 15.0009(18)
_cell_angle_alpha 109.279(2)
_cell_angle_beta 93.852(2)
_cell_angle_gamma 106.744(2)
_cell_formula_units_Z 2
loop_
_atom_type_symbol
_atom_type_radius_bond
C 0.68
H 0.23
N 0.68
O 0.68
loop_
_atom_site_label
_atom_site_type_symbol
_atom_site_fract_x
_atom_site_fract_y
_atom_site_fract_z
O1 O 0.0335(3) -0.1851(2) 0.7932(3)
O2 O 0.0124(3) -0.04180(18) 0.89033(19)
O3 O 0.2662(2) 0.12890(12) 0.87552(11)
O4 O 0.8191(2) 0.25818(14) 0.93577(14)
O5 O 0.34252(19) 0.35271(12) 0.80980(11)
O6 O 0.4437(2) 0.65549(13) 0.81382(13)
O7 O 0.0370(2) 0.30060(12) 0.64336(11)
O8 O -0.4849(2) 0.30941(13) 0.60558(13)
O9 O -0.1740(2) 0.06408(13) 0.62831(12)
O10 O -0.2287(2) -0.14411(14) 0.62325(15)
O11 O -0.5060(2) -0.24292(14) 0.61536(13)
N1 N 0.0993(3) -0.09283(18) 0.84807(18)
N2 N 0.5740(3) 0.27885(16) 0.87202(14)
H1 H 0.468(3) 0.2482(19) 0.8516(17)
N3 N 0.3109(3) 0.48424(16) 0.70529(14)
H2 H 0.308(3) 0.4146(19) 0.6953(17)
N4 N -0.3096(3) 0.21325(16) 0.62716(15)
H3 H -0.200(4) 0.215(2) 0.634(2)
C1 C 0.3706(3) 0.06621(18) 0.87824(16)
C2 C 0.2928(3) -0.04361(19) 0.86290(17)
C3 C 0.3904(4) -0.1113(2) 0.85899(18)
H4 H 0.33410 -0.18520 0.84710
C4 C 0.5724(4) -0.0694(2) 0.87274(18)
H5 H 0.64130 -0.11450 0.87050
C5 C 0.6518(3) 0.0388(2) 0.88969(18)
H6 H 0.77590 0.06740 0.90110
C6 C 0.5536(3) 0.10768(18) 0.89045(16)
C7 C 0.2345(4) 0.1882(2) 0.96868(18)
H7 H 0.18760 0.13820 1.00060
H8 H 0.15000 0.22390 0.96040
H9 H 0.34460 0.24220 1.00740
C8 C 0.6612(3) 0.22267(19) 0.90316(17)
C9 C 0.5167(3) 0.41995(17) 0.83232(16)
C10 C 0.6414(3) 0.38247(17) 0.86622(16)
C11 C 0.8177(3) 0.44664(19) 0.89071(17)
H10 H 0.90330 0.42240 0.91380
C12 C 0.8673(3) 0.54664(18) 0.88098(17)
H11 H 0.98690 0.59040 0.89840
C13 C 0.7435(3) 0.58284(18) 0.84608(16)
H12 H 0.77950 0.65090 0.83970
C14 C 0.5659(3) 0.51949(17) 0.82021(16)
C15 C 0.2345(3) 0.3933(2) 0.8753(2)
H13 H 0.28560 0.40540 0.94020
H14 H 0.11640 0.34070 0.85810
H15 H 0.22860 0.46110 0.87200
C16 C 0.4352(3) 0.56080(18) 0.78094(17)
C17 C 0.0001(3) 0.39348(18) 0.64575(16)
C18 C 0.1452(3) 0.48968(18) 0.67388(17)
C19 C 0.1178(3) 0.58318(19) 0.66973(18)
H16 H 0.21350 0.64780 0.68620
C20 C -0.0520(3) 0.5800(2) 0.64112(18)
H17 H -0.07000 0.64170 0.63460
C21 C -0.1953(3) 0.48741(19) 0.62203(17)
H18 H -0.30990 0.48830 0.60600
C22 C -0.1726(3) 0.39284(18) 0.62612(16)
C23 C 0.0782(3) 0.24407(19) 0.55170(18)
H19 H -0.01070 0.23550 0.50000
H20 H 0.07960 0.17320 0.54890
H21 H 0.19330 0.28580 0.54500
C24 C -0.3379(3) 0.30075(18) 0.61717(16)
C25 C -0.3525(3) 0.03697(18) 0.62823(16)
C26 C -0.4289(3) 0.11557(18) 0.62573(16)
C27 C -0.6090(3) 0.0945(2) 0.62303(18)
H22 H -0.66020 0.14730 0.62190
C28 C -0.7132(3) -0.00536(19) 0.62202(18)
H23 H -0.83540 -0.02000 0.62020
C29 C -0.6390(3) -0.08324(19) 0.62364(17)
H24 H -0.71140 -0.15050 0.62290
C30 C -0.4575(3) -0.06358(18) 0.62636(16)
C31 C -0.0673(3) 0.0971(2) 0.72061(19)
H25 H -0.10530 0.14960 0.76800
H26 H 0.05560 0.12980 0.71790
H27 H -0.08000 0.03430 0.73840
C32 C -0.3812(3) -0.15128(19) 0.62205(17)
C33 C -0.4439(4) -0.3330(2) 0.6057(2)
H28 H -0.39170 -0.34930 0.54840
H29 H -0.54240 -0.39600 0.60070
H30 H -0.35590 -0.31450 0.66150
#END
