
#######################################################################
#
#                 Cambridge Crystallographic Data Centre
#                                CCDC
#
#######################################################################
#
# If this CIF has been generated from an entry in the Cambridge
# Structural Database, then it will include bibliographic, chemical,
# crystal, experimental, refinement or atomic coordinate data resulting
# from the CCDC's data processing and validation procedures.
#
#######################################################################

data_CSD_CIF_YUXNEL
_audit_creation_date 2010-12-02
_audit_creation_method CSD-ConQuest-V1
_database_code_CSD YUXNEL
_database_code_depnum_ccdc_archive 'CCDC 746519'
_chemical_formula_sum 'C27 H27 N3 O11'
_chemical_formula_moiety
;
C27 H27 N3 O11
;
_journal_coden_Cambridge 4
_journal_volume 132
_journal_year 2010
_journal_page_first 5869
_journal_name_full 'J.Am.Chem.Soc. '
loop_
_publ_author_name
"Yan Yan"
"Bo Qin"
"Changliang Ren"
"Xiuying Chen"
"Yeow Kwan Yip"
"Ruijuan Ye"
"Dawei Zhang"
"Haibin Su"
"Huaqiang Zeng"
_chemical_name_systematic
;
Methyl 
3-((3-((2,5-dimethoxy-3-nitrobenzoyl)amino)-2-methoxybenzoyl)amino)-2,5-dimeth
oxybenzoate
;
_cell_volume   1251.768
_exptl_crystal_colour 'yellow'
_exptl_crystal_density_diffrn 1.511
_exptl_crystal_description 'block'
_diffrn_ambient_temperature 100
#These two values have been output from a single CSD field.
_refine_ls_R_factor_gt 0.0429
_refine_ls_wR_factor_gt 0.0429
_symmetry_cell_setting triclinic
_symmetry_space_group_name_H-M 'P -1'
_symmetry_Int_Tables_number 2
loop_
_symmetry_equiv_pos_site_id
_symmetry_equiv_pos_as_xyz
1 x,y,z
2 -x,-y,-z
_cell_length_a 7.8202(4)
_cell_length_b 11.1046(5)
_cell_length_c 15.2948(7)
_cell_angle_alpha 102.786(1)
_cell_angle_beta 93.960(1)
_cell_angle_gamma 103.068(1)
_cell_formula_units_Z 2
loop_
_atom_type_symbol
_atom_type_radius_bond
C 0.68
H 0.23
N 0.68
O 0.68
loop_
_atom_site_label
_atom_site_type_symbol
_atom_site_fract_x
_atom_site_fract_y
_atom_site_fract_z
O1 O 0.02926(13) 0.09598(9) 0.19733(6)
O2 O -0.37713(13) -0.18907(9) 0.01611(7)
O3 O -0.21870(18) -0.13787(10) 0.15170(7)
O4 O -0.23225(13) 0.17577(9) -0.12388(6)
O5 O 0.20422(13) 0.48167(9) 0.08987(6)
O6 O 0.44411(12) 0.32400(9) 0.27453(6)
O7 O 0.78650(14) 0.63009(9) 0.54073(7)
O8 O 0.68932(13) 0.23532(9) 0.42722(6)
O9 O 0.80996(17) 0.03267(10) 0.45182(7)
O10 O 0.82819(15) 0.02285(10) 0.59135(7)
O11 O 1.07821(12) 0.47522(9) 0.76164(6)
N1 N 0.15333(15) 0.31344(11) 0.15583(8)
H1 H 0.189(2) 0.2870(17) 0.2006(13)
N2 N 0.66044(15) 0.46811(11) 0.41794(7)
H2 H 0.644(2) 0.387(2) 0.3975(13)
N3 N 0.82943(15) 0.08237(11) 0.53256(8)
C1 C -0.05277(17) 0.11060(13) 0.11913(8)
C2 C -0.18625(17) 0.01575(12) 0.06123(9)
C3 C -0.25082(17) 0.03613(12) -0.02100(9)
H3 H -0.34190 -0.02800 -0.06070
C4 C -0.18188(17) 0.14942(12) -0.04404(8)
C5 C -0.05117(17) 0.24619(12) 0.01404(9)
H4 H -0.00790 0.32490 -0.00140
C6 C 0.01485(16) 0.22611(12) 0.09467(8)
C7 C -0.0606(2) 0.12113(14) 0.27598(9)
H5 H -0.08800 0.20440 0.28310
H6 H 0.01570 0.12140 0.32970
H7 H -0.17070 0.05470 0.26870
C8 C -0.25858(18) -0.10960(13) 0.08329(9)
C9 C -0.4586(2) -0.31205(13) 0.03147(10)
H8 H -0.37220 -0.36410 0.02810
H9 H -0.56020 -0.35510 -0.01470
H10 H -0.49840 -0.30020 0.09140
C10 C -0.33385(19) 0.07180(13) -0.19393(9)
H11 H -0.27780 0.00030 -0.20090
H12 H -0.33990 0.09840 -0.25080
H13 H -0.45370 0.04520 -0.17820
C11 C 0.23790(17) 0.43274(13) 0.15104(9)
C12 C 0.46573(17) 0.45454(12) 0.28802(9)
C13 C 0.37508(16) 0.50704(12) 0.23056(9)
C14 C 0.40673(17) 0.63979(13) 0.24825(9)
H14 H 0.34680 0.67720 0.20950
C15 C 0.52410(17) 0.71701(12) 0.32142(9)
H15 H 0.54570 0.80700 0.33160
C16 C 0.61130(17) 0.66482(13) 0.38046(9)
H16 H 0.69040 0.71860 0.43120
C17 C 0.58094(16) 0.53250(13) 0.36421(9)
C18 C 0.55509(19) 0.27469(13) 0.2113(1)
H17 H 0.50630 0.27100 0.14970
H18 H 0.55940 0.18890 0.21620
H19 H 0.67490 0.33070 0.22500
C19 C 0.75424(17) 0.51757(13) 0.50116(9)
C20 C 0.78643(16) 0.29079(12) 0.51038(8)
C21 C 0.82099(16) 0.42377(12) 0.54504(8)
C22 C 0.92176(16) 0.47941(12) 0.62796(9)
H20 H 0.94740 0.56930 0.65010
C23 C 0.98715(16) 0.40766(13) 0.68035(8)
C24 C 0.95445(16) 0.27702(12) 0.64794(9)
H21 H 0.99760 0.22650 0.68260
C25 C 0.85681(17) 0.22134(12) 0.56325(9)
C26 C 0.51899(19) 0.14849(14) 0.42465(10)
H22 H 0.51120 0.12520 0.48270
H23 H 0.50620 0.07150 0.37620
H24 H 0.42450 0.19000 0.41330
C27 C 1.13007(19) 0.40412(14) 0.82228(9)
H25 H 1.02600 0.34130 0.83050
H26 H 1.18210 0.46250 0.88080
H27 H 1.21740 0.36010 0.79690
#END
