
#######################################################################
#
#                 Cambridge Crystallographic Data Centre
#                                CCDC
#
#######################################################################
#
# If this CIF has been generated from an entry in the Cambridge
# Structural Database, then it will include bibliographic, chemical,
# crystal, experimental, refinement or atomic coordinate data resulting
# from the CCDC's data processing and validation procedures.
#
#######################################################################

data_CSD_CIF_YUXNUB
_audit_creation_date 2010-12-02
_audit_creation_method CSD-ConQuest-V1
_database_code_CSD YUXNUB
_database_code_depnum_ccdc_archive 'CCDC 746522'
_chemical_formula_sum 'C35 H43 N3 O12'
_chemical_formula_moiety
;
C35 H43 N3 O12
;
_journal_coden_Cambridge 4
_journal_volume 132
_journal_year 2010
_journal_page_first 5869
_journal_name_full 'J.Am.Chem.Soc. '
loop_
_publ_author_name
"Yan Yan"
"Bo Qin"
"Changliang Ren"
"Xiuying Chen"
"Yeow Kwan Yip"
"Ruijuan Ye"
"Dawei Zhang"
"Haibin Su"
"Huaqiang Zeng"
_chemical_name_systematic
;
Methyl 
3-((3-((2,5-dimethoxy-3-nitrobenzoyl)amino)-2-methoxy-5-(octyloxy)benzoyl)amin
o)-2,5-dimethoxybenzoate
;
_cell_volume   1737.147
_exptl_crystal_colour 'colorless'
_exptl_crystal_density_diffrn 1.334
_exptl_crystal_description 'needle'
_diffrn_ambient_temperature 223
#These two values have been output from a single CSD field.
_refine_ls_R_factor_gt 0.0643
_refine_ls_wR_factor_gt 0.0643
_symmetry_cell_setting triclinic
_symmetry_space_group_name_H-M 'P -1'
_symmetry_Int_Tables_number 2
loop_
_symmetry_equiv_pos_site_id
_symmetry_equiv_pos_as_xyz
1 x,y,z
2 -x,-y,-z
_cell_length_a 6.8316(8)
_cell_length_b 15.8889(18)
_cell_length_c 16.4300(18)
_cell_angle_alpha 83.062(2)
_cell_angle_beta 78.939(3)
_cell_angle_gamma 87.588(2)
_cell_formula_units_Z 2
loop_
_atom_type_symbol
_atom_type_radius_bond
C 0.68
H 0.23
N 0.68
O 0.68
loop_
_atom_site_label
_atom_site_type_symbol
_atom_site_fract_x
_atom_site_fract_y
_atom_site_fract_z
O1 O 0.6364(3) 0.91162(11) 0.20970(13)
O2 O -0.0325(3) 0.90422(11) 0.36319(13)
O3 O 0.7400(3) 0.61218(11) 0.13556(11)
O4 O -0.7151(3) 0.92268(11) 0.51760(13)
O5 O -0.2349(2) 0.65404(10) 0.4089(1)
O6 O -0.7312(3) 0.60187(13) 0.56481(12)
O7 O -0.5944(3) 0.57558(12) 0.44066(12)
O8 O 1.0426(3) 0.33305(13) 0.11850(13)
O9 O 0.5463(3) 0.15304(12) 0.28972(15)
O10 O 0.3104(3) 0.22788(13) 0.36212(14)
O11 O 0.3412(3) 0.40312(11) 0.32932(11)
O12 O 0.1942(2) 0.62181(10) 0.29788(10)
N1 N 0.0387(3) 0.76743(14) 0.34324(14)
H1 H -0.013(4) 0.7168(19) 0.3514(17)
N2 N 0.5441(3) 0.53292(13) 0.24197(14)
H2 H 0.446(5) 0.535(2) 0.283(2)
N3 N -0.6289(3) 0.62130(13) 0.49598(14)
C1 C 0.2343(4) 0.77005(15) 0.29661(15)
C2 C 0.3460(4) 0.84236(16) 0.27490(16)
H3 H 0.29340 0.89460 0.29150
C3 C 0.5386(4) 0.83684(16) 0.22775(16)
C4 C 0.6159(4) 0.76058(16) 0.20309(15)
H4 H 0.74430 0.75820 0.17010
C5 C 0.5051(3) 0.68655(15) 0.22668(14)
C6 C 0.3139(3) 0.69184(15) 0.27298(15)
C7 C -0.0815(4) 0.83065(15) 0.37288(15)
C8 C -0.2871(4) 0.80429(15) 0.41934(15)
C9 C -0.4143(4) 0.86892(16) 0.44788(16)
H5 H -0.36930 0.92500 0.43700
C10 C -0.6065(4) 0.85359(16) 0.49208(16)
C11 C -0.6729(4) 0.77177(17) 0.50890(16)
H6 H -0.80110 0.75990 0.54000
C12 C -0.5482(4) 0.70774(15) 0.47935(15)
C13 C -0.3552(4) 0.72049(15) 0.43596(15)
C14 C 0.6052(4) 0.60708(16) 0.19681(15)
C15 C 0.6201(4) 0.45048(15) 0.22897(15)
C16 C 0.7986(4) 0.43620(16) 0.17506(16)
H7 H 0.87170 0.48190 0.14370
C17 C 0.8670(4) 0.35361(17) 0.16831(16)
C18 C 0.7587(4) 0.28641(17) 0.21295(17)
H8 H 0.80670 0.23070 0.20710
C19 C 0.5793(4) 0.29987(16) 0.26655(16)
C20 C 0.5110(4) 0.38300(16) 0.27492(15)
C21 C 0.8371(4) 0.91233(17) 0.16383(18)
H9 H 0.84050 0.89640 0.10780
H10 H 0.92070 0.87190 0.19240
C22 C 0.9119(4) 1.00026(18) 0.1583(2)
H11 H 0.90730 1.01510 0.21480
H12 H 0.82360 1.04000 0.13150
C23 C 1.1242(4) 1.00990(19) 0.1092(2)
H13 H 1.21350 0.97280 0.13830
H14 H 1.13050 0.99110 0.05410
C24 C 1.1974(5) 1.0991(2) 0.0980(2)
H15 H 1.18840 1.11810 0.15320
H16 H 1.10850 1.13590 0.06850
C25 C 1.4094(5) 1.1105(2) 0.0504(3)
H17 H 1.49970 1.07710 0.08200
H18 H 1.42120 1.08790 -0.00330
C26 C 1.4747(5) 1.2006(2) 0.0346(2)
H19 H 1.46070 1.22310 0.08840
H20 H 1.38420 1.23360 0.00280
C27 C 1.6868(5) 1.2143(3) -0.0122(3)
H21 H 1.77890 1.18180 0.01920
H22 H 1.70210 1.19290 -0.06670
C28 C 1.7407(7) 1.3066(3) -0.0250(3)
H23 H 1.66150 1.33770 -0.06220
H24 H 1.88120 1.31210 -0.04950
H25 H 1.71410 1.32930 0.02830
C29 C 0.0688(4) 0.60916(18) 0.23974(18)
H26 H 0.00750 0.66280 0.22240
H27 H -0.03440 0.56930 0.26620
H28 H 0.14840 0.58680 0.19130
C30 C -0.9086(4) 0.90740(19) 0.5678(2)
H29 H -0.98940 0.87930 0.53710
H30 H -0.97190 0.96090 0.58170
H31 H -0.89560 0.87160 0.61870
C31 C -0.1548(4) 0.60277(18) 0.47379(18)
H32 H -0.09370 0.63900 0.50490
H33 H -0.05530 0.56330 0.44900
H34 H -0.26150 0.57150 0.51120
C32 C 1.1486(5) 0.3994(2) 0.0642(2)
H35 H 1.06130 0.42910 0.02970
H36 H 1.26250 0.37560 0.02880
H37 H 1.19430 0.43870 0.09700
C33 C 0.4616(4) 0.22526(17) 0.31160(17)
C34 C 0.4386(5) 0.07664(18) 0.3247(2)
H38 H 0.41490 0.07280 0.38520
H39 H 0.51670 0.02770 0.30640
H40 H 0.31200 0.07820 0.30610
C35 C 0.1603(4) 0.3951(2) 0.2997(2)
H41 H 0.17270 0.42370 0.24340
H42 H 0.05080 0.42050 0.33600
H43 H 0.13460 0.33550 0.29960
#END
