
#######################################################################
#
#                 Cambridge Crystallographic Data Centre
#                                CCDC
#
#######################################################################
#
# If this CIF has been generated from an entry in the Cambridge
# Structural Database, then it will include bibliographic, chemical,
# crystal, experimental, refinement or atomic coordinate data resulting
# from the CCDC's data processing and validation procedures.
#
#######################################################################

data_CSD_CIF_YUYCOK
_audit_creation_date 1995-10-19
_audit_creation_method CSD-ConQuest-V1
_database_code_CSD YUYCOK
_chemical_formula_sum 'C5 H4 N2 O4'
_chemical_formula_moiety
;
C5 H4 N2 O4
;
_journal_coeditor_code "IUCr AS1123"
_journal_coden_Cambridge 591
_journal_volume 51
_journal_year 1995
_journal_page_first 1303
_journal_name_full 'Acta Crystallogr.,Sect.C:Cryst.Struct.Commun. '
loop_
_publ_author_name
"A.I.Stash"
"V.E.Zavodnik"
"V.K.Belsky"
_chemical_name_systematic
;
(Z)-5-Nitrofuran-2-aldoxime
;
_chemical_melting_point 391
_cell_volume    321.155
_exptl_crystal_colour 'Colorless'
_exptl_crystal_density_diffrn 1.61
_exptl_special_details
;
Melting point range 391-393K

;
_diffrn_ambient_temperature ?
_diffrn_special_details
;
The study was carried out at room temperature,in the range 283-303K

;
#These two values have been output from a single CSD field.
_refine_ls_R_factor_gt 0.03
_refine_ls_wR_factor_gt 0.03
loop_
_citation_database_id_CSD
_citation_special_details
SOJGED "is a stereoisomer of this entry"
_symmetry_cell_setting monoclinic
_symmetry_space_group_name_H-M 'P 21'
_symmetry_Int_Tables_number 4
loop_
_symmetry_equiv_pos_site_id
_symmetry_equiv_pos_as_xyz
1 x,y,z
2 -x,1/2+y,-z
_cell_length_a 6.466(3)
_cell_length_b 4.634(2)
_cell_length_c 10.755(5)
_cell_angle_alpha 90
_cell_angle_beta 94.74(4)
_cell_angle_gamma 90
_cell_formula_units_Z 2
loop_
_atom_type_symbol
_atom_type_radius_bond
C 0.68
H 0.23
N 0.68
O 0.68
loop_
_atom_site_label
_atom_site_type_symbol
_atom_site_fract_x
_atom_site_fract_y
_atom_site_fract_z
O1 O 0.8168(2) 0.48390 0.2696(2)
O2 O 0.8653(4) -0.0586(8) 0.0535(2)
O3 O 1.0886(3) 0.1174(8) 0.1948(2)
O4 O 0.7920(3) 1.1446(8) 0.5261(2)
N1 N 0.9158(4) 0.1098(9) 0.1390(2)
N2 N 0.8180(3) 0.9223(8) 0.4431(2)
C1 C 0.6377(4) 0.6235(10) 0.2922(2)
C2 C 0.4776(4) 0.5279(9) 0.2132(3)
C3 C 0.5575(4) 0.3163(10) 0.1381(3)
C4 C 0.7612(4) 0.2999(9) 0.1757(2)
C5 C 0.6468(4) 0.8476(9) 0.3854(3)
H1 H 0.3385(52) 0.5946(96) 0.2087(30)
H2 H 0.4831(44) 0.2119(90) 0.0802(27)
H3 H 0.5335(46) 0.9416(99) 0.4016(25)
H4 H 0.9207(68) 1.2391(14) 0.5531(40)
#END
