
#######################################################################
#
#                 Cambridge Crystallographic Data Centre
#                                CCDC
#
#######################################################################
#
# If this CIF has been generated from an entry in the Cambridge
# Structural Database, then it will include bibliographic, chemical,
# crystal, experimental, refinement or atomic coordinate data resulting
# from the CCDC's data processing and validation procedures.
#
#######################################################################

data_CSD_CIF_YUYNUC
_audit_creation_date 2010-11-24
_audit_creation_method CSD-ConQuest-V1
_database_code_CSD YUYNUC
_database_code_depnum_ccdc_archive 'CCDC 722412'
_chemical_formula_sum 'C11 H10 N4 O6'
_chemical_formula_moiety
;
C11 H10 N4 O6
;
_journal_coden_Cambridge 644
_journal_volume 65
_journal_year 2010
_journal_page_first 745
_journal_name_full 'Z.Naturforsch.,B:Chem.Sci. '
loop_
_publ_author_name
"J.Marten"
"W.Seichter"
"J.Wagler"
"E.Weber"
_chemical_name_systematic
;
3-((2,4-Dinitrophenyl)hydrazono)pentane-2,4-dione
;
_chemical_melting_point 481.15
_cell_volume   1255.558
_exptl_crystal_colour 'yellow'
_exptl_crystal_density_diffrn 1.556
_exptl_special_details
;
Melting point range 481.15-483.15K

;
_exptl_crystal_description 'needle'
_exptl_crystal_preparation 'ethanol'
_diffrn_ambient_temperature 153
#These two values have been output from a single CSD field.
_refine_ls_R_factor_gt 0.0367
_refine_ls_wR_factor_gt 0.0367
_symmetry_cell_setting monoclinic
_symmetry_space_group_name_H-M 'P 21/c'
_symmetry_Int_Tables_number 14
loop_
_symmetry_equiv_pos_site_id
_symmetry_equiv_pos_as_xyz
1 x,y,z
2 -x,1/2+y,1/2-z
3 -x,-y,-z
4 x,-1/2-y,-1/2+z
_cell_length_a 4.8914(6)
_cell_length_b 17.676(3)
_cell_length_c 14.564(2)
_cell_angle_alpha 90
_cell_angle_beta 94.364(6)
_cell_angle_gamma 90
_cell_formula_units_Z 4
loop_
_atom_type_symbol
_atom_type_radius_bond
C 0.68
H 0.23
N 0.68
O 0.68
loop_
_atom_site_label
_atom_site_type_symbol
_atom_site_fract_x
_atom_site_fract_y
_atom_site_fract_z
O1 O 0.8256(4) 0.32901(12) 0.40631(13)
O2 O 1.0366(4) 0.46881(11) 0.19803(13)
O3 O 0.3925(4) 0.21494(12) 0.44450(13)
O4 O 0.0380(5) 0.14652(13) 0.46246(14)
O5 O -0.5510(4) 0.06209(11) 0.21295(15)
O6 O -0.4756(4) 0.09262(12) 0.07308(16)
N1 N 0.5269(4) 0.33969(12) 0.23269(14)
N2 N 0.4313(4) 0.28878(12) 0.29008(16)
H1 H 0.510(5) 0.2821(16) 0.351(2)
N3 N 0.1831(5) 0.18325(13) 0.41423(15)
N4 N -0.4250(5) 0.09688(13) 0.1566(2)
C1 C 1.0592(6) 0.44410(16) 0.3895(2)
H2 H 1.11440 0.43600 0.45480
H3 H 0.96500 0.49290 0.38170
H4 H 1.22210 0.44410 0.35430
C2 C 0.8711(5) 0.38244(16) 0.35558(19)
C3 C 0.7304(5) 0.38395(14) 0.26041(17)
C4 C 0.8187(5) 0.43570(15) 0.18718(18)
C5 C 0.6387(6) 0.44335(17) 0.10039(19)
H5 H 0.72410 0.47790 0.05840
H6 H 0.46010 0.46360 0.11450
H7 H 0.61340 0.39360 0.07120
C6 C 0.2206(5) 0.24132(15) 0.25737(18)
C7 C 0.0972(5) 0.18992(15) 0.31551(17)
C8 C -0.1148(5) 0.14308(15) 0.28275(18)
H8 H -0.19850 0.10920 0.32280
C9 C -0.2010(5) 0.14662(15) 0.19131(19)
C10 C -0.0838(5) 0.19572(15) 0.13106(19)
H9 H -0.14690 0.19680 0.06780
C11 C 0.1252(5) 0.24276(15) 0.16443(18)
H10 H 0.20570 0.27670 0.12370
#END
