
#######################################################################
#
#                 Cambridge Crystallographic Data Centre
#                                CCDC
#
#######################################################################
#
# If this CIF has been generated from an entry in the Cambridge
# Structural Database, then it will include bibliographic, chemical,
# crystal, experimental, refinement or atomic coordinate data resulting
# from the CCDC's data processing and validation procedures.
#
#######################################################################

data_CSD_CIF_YUYQEP
_audit_creation_date 2010-11-24
_audit_creation_method CSD-ConQuest-V1
_database_code_CSD YUYQEP
_database_code_depnum_ccdc_archive 'CCDC 752878'
_chemical_formula_sum 'C11 H16 N4 O2'
_chemical_formula_moiety
;
C11 H16 N4 O2
;
_journal_coden_Cambridge 644
_journal_volume 65
_journal_year 2010
_journal_page_first 873
_journal_name_full 'Z.Naturforsch.,B:Chem.Sci. '
loop_
_publ_author_name
"W.Kantlehner"
"J.Mezger"
"R.Kress"
"H.Hartmann"
"T.Moschny"
"I.Tiritiris"
"B.Iliev"
"O.Scherr"
"G.Ziegler"
"B.Souley"
"W.Frey"
"I.C.Ivanov"
"M.G.Bogdanov"
"U.Jager"
"G.Dospil"
"T.Viefhaus"
_chemical_name_systematic
;
N,N,N',N'-Tetramethyl-N''-(p-nitrophenyl)-guanidine
;
_chemical_name_common
;
1,1,3,3-Tetramethyl-2-(4-nitrophenyl)guanidine
;
_chemical_melting_point 358.15
_cell_volume   1271.245
_exptl_crystal_colour 'yellow'
_exptl_crystal_density_diffrn 1.235
_exptl_special_details
;
Melting point range 358.15-359.15K

;
_exptl_crystal_description 'polyhedral'
_diffrn_ambient_temperature 293
#These two values have been output from a single CSD field.
_refine_ls_R_factor_gt 0.0516
_refine_ls_wR_factor_gt 0.0516
_symmetry_cell_setting monoclinic
_symmetry_space_group_name_H-M 'P 21/n'
_symmetry_Int_Tables_number 14
loop_
_symmetry_equiv_pos_site_id
_symmetry_equiv_pos_as_xyz
1 x,y,z
2 1/2-x,1/2+y,1/2-z
3 -x,-y,-z
4 -1/2+x,-1/2-y,-1/2+z
_cell_length_a 8.1532(3)
_cell_length_b 9.0285(4)
_cell_length_c 17.2766(8)
_cell_angle_alpha 90
_cell_angle_beta 91.615(2)
_cell_angle_gamma 90
_cell_formula_units_Z 4
loop_
_atom_type_symbol
_atom_type_radius_bond
C 0.68
H 0.23
N 0.68
O 0.68
loop_
_atom_site_label
_atom_site_type_symbol
_atom_site_fract_x
_atom_site_fract_y
_atom_site_fract_z
O1 O 0.7555(3) 0.3530(4) 0.12333(15)
O2 O 0.8265(4) 0.5687(4) 0.16349(19)
N1 N 0.0020(3) 0.3409(3) 0.41779(14)
N2 N 0.2665(3) 0.2500(2) 0.43298(13)
N3 N 0.2120(3) 0.4755(3) 0.36732(14)
N4 N 0.7336(3) 0.4621(4) 0.16432(16)
C1 C 0.1627(3) 0.3567(3) 0.40345(16)
C2 C -0.1182(4) 0.4295(4) 0.3745(2)
H1 H -0.14380 0.51660 0.40370
H2 H -0.21620 0.37240 0.36540
H3 H -0.07390 0.45810 0.32580
C3 C -0.0586(4) 0.2678(4) 0.4861(2)
H4 H 0.03240 0.23620 0.51840
H5 H -0.12310 0.18330 0.47070
H6 H -0.12530 0.33560 0.51430
C4 C 0.4343(3) 0.2849(3) 0.45597(18)
H7 H 0.50620 0.25650 0.41550
H8 H 0.46380 0.23180 0.50250
H9 H 0.44420 0.38940 0.46520
C5 C 0.2307(4) 0.0931(3) 0.42558(19)
H10 H 0.12040 0.08030 0.40580
H11 H 0.24210 0.04670 0.47540
H12 H 0.30580 0.04860 0.39060
C6 C 0.3425(3) 0.4678(3) 0.31868(16)
C7 C 0.4480(3) 0.5895(3) 0.31171(17)
H13 H 0.43130 0.67330 0.34180
C8 C 0.5738(4) 0.5876(3) 0.26195(18)
H14 H 0.64340 0.66890 0.25870
C9 C 0.5982(3) 0.4644(3) 0.21593(15)
C10 C 0.4961(4) 0.3439(3) 0.21983(16)
H15 H 0.51240 0.26180 0.18850
C11 C 0.3709(3) 0.3462(3) 0.27003(16)
H16 H 0.30160 0.26450 0.27230
#END
