
#######################################################################
#
#                 Cambridge Crystallographic Data Centre
#                                CCDC
#
#######################################################################
#
# If this CIF has been generated from an entry in the Cambridge
# Structural Database, then it will include bibliographic, chemical,
# crystal, experimental, refinement or atomic coordinate data resulting
# from the CCDC's data processing and validation procedures.
#
#######################################################################

data_CSD_CIF_YUZJIO
_audit_creation_date 2015-11-10
_audit_creation_method CSD-ConQuest-V1
_database_code_CSD YUZJIO
_database_code_depnum_ccdc_archive 'CCDC 1427940'
_chemical_formula_sum 'C12 H16 N2 O2'
_chemical_formula_moiety
;
C12 H16 N2 O2
;
_journal_coden_Cambridge 177
_journal_volume 14
_journal_year 2016
_journal_page_first 694
_journal_name_full 'Org.Biomol.Chem. '
loop_
_publ_author_name
"T.Soeta"
"S.Takashita"
"Y.Sakata"
"Y.Ukaji"
_chemical_name_systematic
;
N-t-butyl-2-(hydroxyimino)-2-phenylacetamide
;
_cell_volume   1254.436
_exptl_crystal_colour 'colorless'
_exptl_crystal_density_diffrn 1.166
_exptl_crystal_description 'prismatic'
_diffrn_ambient_temperature 93
#These two values have been output from a single CSD field.
_refine_ls_R_factor_gt 0.0533
_refine_ls_wR_factor_gt 0.0533
_symmetry_cell_setting monoclinic
_symmetry_space_group_name_H-M 'P 21/a'
_symmetry_Int_Tables_number 14
loop_
_symmetry_equiv_pos_site_id
_symmetry_equiv_pos_as_xyz
1 x,y,z
2 1/2-x,1/2+y,-z
3 -x,-y,-z
4 -1/2+x,-1/2-y,z
_cell_length_a 10.604(2)
_cell_length_b 10.844(2)
_cell_length_c 11.111(3)
_cell_angle_alpha 90
_cell_angle_beta 100.939(5)
_cell_angle_gamma 90
_cell_formula_units_Z 4
loop_
_atom_type_symbol
_atom_type_radius_bond
C 0.68
H 0.23
N 0.68
O 0.68
loop_
_atom_site_label
_atom_site_type_symbol
_atom_site_fract_x
_atom_site_fract_y
_atom_site_fract_z
C1 C 0.05061(14) 0.22609(14) -0.11540(15)
C2 C -0.01756(16) 0.32196(16) -0.07501(17)
H1 H -0.02010 0.32990 0.00960
C3 C -0.08223(18) 0.40636(18) -0.1592(2)
H2 H -0.12880 0.47210 -0.13170
C4 C -0.0790(2) 0.39511(19) -0.2814(2)
H3 H -0.12530 0.45160 -0.33870
C5 C -0.0087(2) 0.3018(2) -0.32134(18)
H4 H -0.00560 0.29490 -0.40600
C6 C 0.05680(19) 0.21878(16) -0.23909(16)
H5 H 0.10670 0.15590 -0.26690
C7 C 0.11601(14) 0.13329(14) -0.02834(14)
N1 N 0.12667(12) 0.02347(12) -0.06841(12)
O1 O 0.19587(12) -0.05394(11) 0.02100(11)
H6 H 0.20590 -0.12300 -0.01010
C8 C 0.17510(14) 0.17330(14) 0.10031(14)
O2 O 0.26677(12) 0.24467(12) 0.11584(12)
N2 N 0.12212(12) 0.12728(12) 0.18936(11)
H7 H 0.05000 0.08590 0.16770
C9 C 0.17374(17) 0.13945(16) 0.32198(15)
C10 C 0.1839(3) 0.2736(2) 0.3596(2)
H8 H 0.24470 0.31560 0.31720
H9 H 0.21420 0.27950 0.44840
H10 H 0.09930 0.31270 0.33750
C11 C 0.0803(3) 0.0747(3) 0.3885(2)
H11 H -0.00500 0.11190 0.36470
H12 H 0.10980 0.08320 0.47710
H13 H 0.07580 -0.01290 0.36650
C12 C 0.3045(3) 0.0770(3) 0.3492(2)
H14 H 0.29540 -0.00960 0.32390
H15 H 0.33940 0.08160 0.43740
H16 H 0.36290 0.11870 0.30400
#END
