
#######################################################################
#
#                 Cambridge Crystallographic Data Centre
#                                CCDC
#
#######################################################################
#
# If this CIF has been generated from an entry in the Cambridge
# Structural Database, then it will include bibliographic, chemical,
# crystal, experimental, refinement or atomic coordinate data resulting
# from the CCDC's data processing and validation procedures.
#
#######################################################################

data_CSD_CIF_ZADXAG
_audit_creation_date 2016-01-06
_audit_creation_method CSD-ConQuest-V1
_database_code_CSD ZADXAG
_database_code_depnum_ccdc_archive 'CCDC 1422051'
_chemical_formula_sum 'C29 H26 N2 O6'
_chemical_formula_moiety
;
C29 H26 N2 O6
;
_journal_coden_Cambridge 4
_journal_volume 137
_journal_year 2015
_journal_page_first 16016
_journal_name_full 'J.Am.Chem.Soc. '
loop_
_publ_author_name
"T.Hashimoto"
"A.O.Galvez"
"K.Maruoka"
_chemical_name_systematic
;
N-(7'-benzoyl-5'-(4-methoxyphenyl)spiro[1,3-dioxolane-2,8'-[6]oxa[7]azabicyclo
[3.2.1]oct[3]en]-3'-yl)benzamide
;
_cell_volume   2473.805
_exptl_crystal_colour 'colorless'
_exptl_crystal_density_diffrn 1.338
_exptl_crystal_description 'platelet'
_diffrn_ambient_temperature 123
#These two values have been output from a single CSD field.
_refine_ls_R_factor_gt 0.1071
_refine_ls_wR_factor_gt 0.1071
_symmetry_cell_setting monoclinic
_symmetry_space_group_name_H-M 'P 21/c'
_symmetry_Int_Tables_number 14
loop_
_symmetry_equiv_pos_site_id
_symmetry_equiv_pos_as_xyz
1 x,y,z
2 -x,1/2+y,1/2-z
3 -x,-y,-z
4 x,-1/2-y,-1/2+z
_cell_length_a 9.7137(4)
_cell_length_b 22.2005(7)
_cell_length_c 11.5536(5)
_cell_angle_alpha 90
_cell_angle_beta 96.837(2)
_cell_angle_gamma 90
_cell_formula_units_Z 4
loop_
_atom_type_symbol
_atom_type_radius_bond
C 0.68
H 0.23
N 0.68
O 0.68
loop_
_atom_site_label
_atom_site_type_symbol
_atom_site_fract_x
_atom_site_fract_y
_atom_site_fract_z
O1 O 0.7968(4) 0.06426(14) 0.0717(3)
O2 O 1.0037(4) -0.17043(15) 0.3465(3)
O3 O 1.0793(4) 0.07851(14) 0.1236(3)
O4 O 0.7874(4) 0.19700(15) -0.0988(3)
O5 O 1.0479(4) 0.12005(14) 0.2997(3)
O6 O 0.5144(4) 0.11762(15) 0.3839(3)
N1 N 0.8119(5) 0.12570(18) 0.0361(4)
N2 N 0.6526(5) 0.19245(18) 0.3252(4)
C1 C 0.8907(5) -0.0122(2) 0.3513(5)
C2 C 0.9601(6) -0.1132(2) 0.3155(5)
C3 C 0.9120(5) -0.0430(2) 0.1569(5)
C4 C 0.8350(6) 0.1976(2) 0.1993(5)
C5 C 0.8523(6) 0.0651(2) 0.1968(5)
C6 C 0.7581(6) 0.1447(3) -0.0697(5)
C7 C 0.9114(6) 0.1586(2) 0.1192(5)
C8 C 0.9794(6) 0.1053(2) 0.1874(5)
C9 C 0.8826(5) 0.0022(2) 0.2342(5)
C10 C 0.4586(6) 0.2191(2) 0.4282(5)
C11 C 0.7445(6) 0.1583(2) 0.2653(5)
C12 C 0.5738(6) 0.0641(2) -0.1108(5)
C13 C 1.0394(6) -0.1807(2) 0.4694(5)
C14 C 0.4389(6) 0.2761(2) 0.3788(5)
C15 C 0.6707(6) 0.1036(2) -0.1484(5)
C16 C 0.9493(6) -0.1003(2) 0.1968(5)
C17 C 0.6037(6) 0.0722(3) -0.3468(6)
C18 C 0.7515(6) 0.0981(2) 0.2638(5)
C19 C 0.6830(6) 0.1083(2) -0.2671(5)
C20 C 1.1962(6) 0.0612(3) 0.2054(5)
C21 C 0.3522(6) 0.3173(3) 0.4246(6)
C22 C 0.5437(6) 0.1722(3) 0.3781(5)
C23 C 0.4914(6) 0.0301(3) -0.1908(5)
C24 C 0.5069(6) 0.0328(3) -0.3084(6)
C25 C 0.3904(6) 0.2038(3) 0.5237(5)
C26 C 1.1941(6) 0.1095(3) 0.2979(5)
C27 C 0.3056(7) 0.2456(3) 0.5705(6)
C28 C 0.2863(7) 0.3022(3) 0.5194(6)
C29 C 0.9307(6) -0.0694(2) 0.3935(5)
H1 H 0.66766 0.23153 0.32876
H2 H 0.86843 0.01776 0.40476
H3 H 0.90642 -0.03449 0.07588
H4 H 0.90270 0.21947 0.25483
H5 H 0.77711 0.22767 0.15260
H6 H 0.97930 0.18233 0.07915
H7 H 0.56467 0.06074 -0.03012
H8 H 0.95886 -0.17216 0.51032
H9 H 1.11626 -0.15421 0.49901
H10 H 1.06737 -0.22283 0.48243
H11 H 0.48470 0.28682 0.31363
H12 H 0.96756 -0.13086 0.14310
H13 H 0.61509 0.07420 -0.42727
H14 H 0.69126 0.07550 0.30617
H15 H 0.74610 0.13648 -0.29340
H16 H 1.28358 0.06215 0.16930
H17 H 1.18337 0.02057 0.23776
H18 H 0.33853 0.35601 0.39024
H19 H 0.42309 0.00429 -0.16516
H20 H 0.45178 0.00801 -0.36263
H21 H 0.40175 0.16465 0.55683
H22 H 1.23825 0.09514 0.37457
H23 H 1.24195 0.14649 0.27617
H24 H 0.26129 0.23562 0.63687
H25 H 0.22726 0.33062 0.55027
H26 H 0.93740 -0.07793 0.47452
#END
