
#######################################################################
#
#                 Cambridge Crystallographic Data Centre
#                                CCDC
#
#######################################################################
#
# If this CIF has been generated from an entry in the Cambridge
# Structural Database, then it will include bibliographic, chemical,
# crystal, experimental, refinement or atomic coordinate data resulting
# from the CCDC's data processing and validation procedures.
#
#######################################################################

data_CSD_CIF_ZAGGOD
_audit_creation_date 1996-03-13
_audit_creation_method CSD-ConQuest-V1
_database_code_CSD ZAGGOD
_chemical_formula_sum 'C19 H21 N3 O8'
_chemical_formula_moiety
;
C19 H21 N3 O8
;
_journal_coden_Cambridge 4
_journal_volume 117
_journal_year 1995
_journal_page_first 6390
_journal_name_full 'J.Am.Chem.Soc. '
loop_
_publ_author_name
"Byeang Hyean Kim"
"Eun Jeong Jeong"
"Won Hee Jung"
_chemical_name_systematic
;
2,6-(3,3'-bis(1,2-Oxazacyclopent-2-en-5-yl)-1,12-dioxo-2,5,8,11-tetraoxadodeca
ne-1,12-diyl)-pyridine
;
_chemical_melting_point 473.35
_cell_volume   4033.514
_exptl_crystal_density_diffrn 1.38
_exptl_special_details
;
Melting point range 473.35-474.15K
Cell parameters a and b have been transposed
;
_diffrn_ambient_temperature ?
_diffrn_special_details
;
The study was carried out at room temperature,in the range 283-303K

;
#These two values have been output from a single CSD field.
_refine_ls_R_factor_gt 0.063
_refine_ls_wR_factor_gt 0.063
_symmetry_cell_setting orthorhombic
_symmetry_space_group_name_H-M 'P b c a'
_symmetry_Int_Tables_number 61
loop_
_symmetry_equiv_pos_site_id
_symmetry_equiv_pos_as_xyz
1 x,y,z
2 1/2-x,-y,1/2+z
3 1/2+x,1/2-y,-z
4 -x,1/2+y,1/2-z
5 -x,-y,-z
6 -1/2+x,y,-1/2-z
7 -1/2-x,-1/2+y,z
8 x,-1/2-y,-1/2+z
_cell_length_a 11.469(2)
_cell_length_b 8.6721(11)
_cell_length_c 40.554(5)
_cell_angle_alpha 90
_cell_angle_beta 90
_cell_angle_gamma 90
_cell_formula_units_Z 8
loop_
_atom_type_symbol
_atom_type_radius_bond
C 0.68
N 0.68
O 0.68
loop_
_atom_site_label
_atom_site_type_symbol
_atom_site_fract_x
_atom_site_fract_y
_atom_site_fract_z
O1 O 0.2131(4) -0.0507(5) 0.31731(9)
O2 O 0.7229(4) -0.0632(5) 0.48476(9)
O3 O 0.9195(5) -0.1192(6) 0.4492(1)
O4 O 0.8854(4) 0.0845(4) 0.41700(9)
O5 O 0.8639(4) 0.0392(5) 0.3466(1)
O6 O 0.7357(4) -0.0889(4) 0.2920(1)
O7 O 0.4882(4) -0.0086(4) 0.27735(9)
O8 O 0.3693(5) -0.2157(5) 0.2815(1)
N1 N 0.2092(5) -0.1079(6) 0.3497(1)
N2 N 0.4230(5) -0.0743(5) 0.4118(1)
N3 N 0.6086(5) -0.1233(5) 0.4811(1)
C1 C 0.3264(6) 0.0184(6) 0.3114(1)
C2 C 0.3840(6) 0.0262(6) 0.3454(1)
C3 C 0.3007(5) -0.0684(6) 0.3650(1)
C4 C 0.3198(6) -0.1173(6) 0.3995(1)
C5 C 0.2392(6) -0.2001(7) 0.4174(1)
C6 C 0.2658(7) -0.2447(8) 0.4492(1)
C7 C 0.3719(7) -0.2051(7) 0.4619(1)
C8 C 0.4485(6) -0.1208(6) 0.4429(1)
C9 C 0.5659(6) -0.0738(5) 0.4538(1)
C10 C 0.6447(7) 0.0217(7) 0.4339(2)
C11 C 0.7495(7) 0.0382(6) 0.4574(1)
C12 C 0.8603(6) -0.0139(7) 0.4416(2)
C13 C 0.9818(7) 0.0464(7) 0.3955(2)
C14 C 0.9550(7) 0.1177(7) 0.3628(2)
C15 C 0.9060(7) -0.0769(8) 0.3250(2)
C16 C 0.8108(7) -0.1729(7) 0.3123(2)
C17 C 0.6531(7) -0.1860(7) 0.2767(1)
C18 C 0.5702(7) -0.0951(7) 0.2570(1)
C19 C 0.3953(6) -0.0859(6) 0.2884(1)
#END
