
#######################################################################
#
#                 Cambridge Crystallographic Data Centre
#                                CCDC
#
#######################################################################
#
# If this CIF has been generated from an entry in the Cambridge
# Structural Database, then it will include bibliographic, chemical,
# crystal, experimental, refinement or atomic coordinate data resulting
# from the CCDC's data processing and validation procedures.
#
#######################################################################

data_CSD_CIF_ZAKWIU
_audit_creation_date 2017-02-14
_audit_creation_method CSD-ConQuest-V1
_database_code_CSD ZAKWIU
_database_code_depnum_ccdc_archive 'CCDC 997679'
_chemical_formula_sum 'C15 H13 N3 O5'
_chemical_formula_moiety
;
C15 H13 N3 O5
;
_journal_coden_Cambridge 41
_journal_volume 61
_journal_year 2016
_journal_page_first 1051
_journal_name_full 'Kristallografiya(Russ.)(Crystallogr.Rep.) '
loop_
_publ_author_name
"S.Sharma"
"B.Banerjee"
"G.Brahmachari"
"R.Kanta"
"V.K.Gupta"
_chemical_name_systematic
;
methyl 6-amino-5-cyano-2-methyl-4-(2-nitrophenyl)-4H-pyran-3-carboxylate
;
_cell_volume   2952.022
_exptl_crystal_colour 'white'
_exptl_crystal_density_diffrn 1.245
_exptl_crystal_description 'block'
_diffrn_ambient_temperature 293
#These two values have been output from a single CSD field.
_refine_ls_R_factor_gt 0.059
_refine_ls_wR_factor_gt 0.059
_symmetry_cell_setting monoclinic
_symmetry_space_group_name_H-M 'C 2/c'
_symmetry_Int_Tables_number 15
loop_
_symmetry_equiv_pos_site_id
_symmetry_equiv_pos_as_xyz
1 x,y,z
2 -x,y,1/2-z
3 1/2+x,1/2+y,z
4 1/2-x,1/2+y,1/2-z
5 -x,-y,-z
6 x,-y,-1/2+z
7 -1/2-x,-1/2-y,-z
8 -1/2+x,-1/2-y,-1/2+z
_cell_length_a 12.3069(8)
_cell_length_b 9.7023(7)
_cell_length_c 24.812(2)
_cell_angle_alpha 90
_cell_angle_beta 94.862(6)
_cell_angle_gamma 90
_cell_formula_units_Z 8
loop_
_atom_type_symbol
_atom_type_radius_bond
C 0.68
H 0.23
N 0.68
O 0.68
loop_
_atom_site_label
_atom_site_type_symbol
_atom_site_fract_x
_atom_site_fract_y
_atom_site_fract_z
O1 O 0.63798(14) 0.05751(19) 0.54280(8)
C1 C 0.7328(2) 0.0241(3) 0.57479(12)
C2 C 0.7979(2) 0.1190(3) 0.59845(11)
C3 C 0.7752(2) 0.2729(3) 0.59284(10)
H1 H 0.83570 0.31520 0.57560
C4 C 0.6717(2) 0.2966(3) 0.55670(11)
C5 C 0.6103(2) 0.1933(3) 0.53500(11)
C6 C 0.8986(2) 0.0774(3) 0.63142(12)
O2 O 0.92041(18) -0.0354(2) 0.64965(10)
O3 O 0.96592(14) 0.1861(2) 0.63985(9)
C7 C 1.0653(2) 0.1606(4) 0.67349(15)
H2 H 1.10720 0.24400 0.67720
H3 H 1.10690 0.09080 0.65710
H4 H 1.04780 0.12990 0.70850
C8 C 0.76873(19) 0.3405(3) 0.64779(11)
C9 C 0.8390(2) 0.4422(3) 0.66987(12)
C10 C 0.8361(3) 0.4924(3) 0.72194(15)
H5 H 0.88720 0.55680 0.73560
C11 C 0.7571(2) 0.4459(4) 0.75319(14)
H6 H 0.75340 0.48000 0.78800
C12 C 0.6837(2) 0.3494(3) 0.73289(13)
H7 H 0.62930 0.31870 0.75380
C13 C 0.6900(2) 0.2967(3) 0.68103(12)
H8 H 0.63990 0.23010 0.66820
N1 N 0.9219(2) 0.5026(3) 0.63738(14)
O4 O 0.89507(19) 0.5351(3) 0.59075(12)
O5 O 1.0142(2) 0.5202(3) 0.65979(13)
C14 C 0.7442(3) -0.1294(3) 0.57398(15)
H9 H 0.68260 -0.16890 0.55320
H10 H 0.74760 -0.16410 0.61030
H11 H 0.80980 -0.15370 0.55790
N2 N 0.51850(18) 0.2030(3) 0.50193(10)
H12 H 0.49290 0.28270 0.49240
H13 H 0.48530 0.12950 0.49020
C15 C 0.6370(2) 0.4343(3) 0.54644(12)
N3 N 0.6094(2) 0.5457(3) 0.53835(12)
#END
