
#######################################################################
#
#                 Cambridge Crystallographic Data Centre
#                                CCDC
#
#######################################################################
#
# If this CIF has been generated from an entry in the Cambridge
# Structural Database, then it will include bibliographic, chemical,
# crystal, experimental, refinement or atomic coordinate data resulting
# from the CCDC's data processing and validation procedures.
#
#######################################################################

data_CSD_CIF_ZAMKIH
_audit_creation_date 1995-10-19
_audit_creation_method CSD-ConQuest-V1
_database_code_CSD ZAMKIH
_chemical_formula_sum 'C19 H23 N1 O4'
_chemical_formula_moiety
;
C19 H23 N1 O4
;
_journal_coeditor_code "IUCr KA1093"
_journal_coden_Cambridge 591
_journal_volume 51
_journal_year 1995
_journal_page_first 1581
_journal_name_full 'Acta Crystallogr.,Sect.C:Cryst.Struct.Commun. '
loop_
_publ_author_name
"S.Stankovic"
"D.Lazar"
"J.Petrovic"
"D.Miljovic"
"V.Pejanovic"
"C.Courseille"
_chemical_name_systematic
;
17\b-Hydroxy-3-methoxyestra-1,3,5(10)-triene-6,7-dione 7-oxime
;
_cell_volume   3498.717
_exptl_crystal_colour 'pale yellow'
_exptl_crystal_density_diffrn 1.25
_diffrn_ambient_temperature ?
_diffrn_special_details
;
The study was carried out at room temperature,in the range 283-303K

;
#These two values have been output from a single CSD field.
_refine_ls_R_factor_gt 0.06
_refine_ls_wR_factor_gt 0.06
_symmetry_cell_setting tetragonal
_symmetry_space_group_name_H-M 'P 41 21 2'
_symmetry_Int_Tables_number 92
loop_
_symmetry_equiv_pos_site_id
_symmetry_equiv_pos_as_xyz
1 x,y,z
2 1/2-y,1/2+x,1/4+z
3 1/2+x,1/2-y,3/4-z
4 -x,-y,1/2+z
5 y,x,-z
6 1/2+y,1/2-x,3/4+z
7 1/2-x,1/2+y,1/4-z
8 -y,-x,1/2-z
_cell_length_a 9.441(1)
_cell_length_b 9.441(1)
_cell_length_c 39.253(5)
_cell_angle_alpha 90
_cell_angle_beta 90
_cell_angle_gamma 90
_cell_formula_units_Z 8
loop_
_atom_type_symbol
_atom_type_radius_bond
C 0.68
H 0.23
N 0.68
O 0.68
loop_
_atom_site_label
_atom_site_type_symbol
_atom_site_fract_x
_atom_site_fract_y
_atom_site_fract_z
C1 C 0.4685(8) 0.5063(8) 0.1506(2)
C2 C 0.3889(9) 0.6016(10) 0.1697(2)
C3 C 0.3724(8) 0.7404(10) 0.1586(2)
C4 C 0.4295(7) 0.7814(8) 0.1280(2)
C5 C 0.5093(7) 0.6850(7) 0.1091(1)
C6 C 0.5788(8) 0.7391(8) 0.0783(2)
C7 C 0.6796(7) 0.6420(7) 0.0614(2)
C8 C 0.6361(7) 0.4879(5) 0.0625(1)
C9 C 0.6280(7) 0.4455(6) 0.1006(1)
C10 C 0.5337(6) 0.5459(7) 0.1203(1)
C11 C 0.5842(7) 0.2887(6) 0.1057(2)
C12 C 0.6751(7) 0.1882(6) 0.0835(2)
C13 C 0.6684(6) 0.2283(6) 0.0462(1)
C14 C 0.7244(6) 0.3811(6) 0.0420(1)
C15 C 0.7381(8) 0.3971(7) 0.0035(2)
C16 C 0.7966(8) 0.2497(7) -0.0073(2)
C17 C 0.7796(7) 0.1557(7) 0.0238(2)
C18 C 0.5200(7) 0.2026(7) 0.0317(2)
C19 C 0.3029(9) 0.9742(11) 0.1735(2)
N1 N 0.7911(7) 0.7071(6) 0.0508(1)
O1 O 0.2962(6) 0.8273(7) 0.1794(1)
O2 O 0.7472(6) 0.0137(5) 0.0134(1)
O3 O 0.8996(6) 0.6233(6) 0.0397(2)
O4 O 0.5571(7) 0.8591(6) 0.0676(2)
H1 H 0.480(1) 0.399(1) 0.16000
H2 H 0.340(1) 0.567(1) 0.19300
H3 H 0.413(1) 0.888(1) 0.11900
H4 H 0.535(1) 0.481(1) 0.05000
H5 H 0.733(1) 0.455(1) 0.11100
H6 H 0.474(1) 0.277(1) 0.09900
H7 H 0.598(1) 0.260(1) 0.13200
H8 H 0.636(1) 0.081(1) 0.08600
H9 H 0.784(1) 0.193(1) 0.09200
H10 H 0.827(1) 0.404(1) 0.05300
H11 H 0.636(1) 0.417(1) -0.00800
H12 H 0.810(1) 0.481(1) -0.00300
H13 H 0.907(1) 0.259(1) -0.01400
H14 H 0.737(1) 0.208(1) -0.02900
H15 H 0.876(1) 0.144(1) 0.03900
H16 H 0.442(1) 0.254(1) 0.04800
H17 H 0.499(1) 0.090(1) 0.03100
H18 H 0.514(1) 0.245(1) 0.00600
H19 H 0.238(1) 1.029(1) 0.19200
H20 H 0.264(1) 0.996(1) 0.14800
H21 H 0.411(1) 1.010(1) 0.17600
H22 H 0.700(14) -0.011(14) -0.001(3)
H23 H 0.934(14) 0.579(16) 0.017(3)
#END
