
#######################################################################
#
#                 Cambridge Crystallographic Data Centre
#                                CCDC
#
#######################################################################
#
# If this CIF has been generated from an entry in the Cambridge
# Structural Database, then it will include bibliographic, chemical,
# crystal, experimental, refinement or atomic coordinate data resulting
# from the CCDC's data processing and validation procedures.
#
#######################################################################

data_CSD_CIF_ZAMWEP
_audit_creation_date 1995-10-19
_audit_creation_method CSD-ConQuest-V1
_database_code_CSD ZAMWEP
_chemical_formula_sum 'C10 H9 N3 O2'
_chemical_formula_moiety
;
C10 H9 N3 O2
;
_journal_coeditor_code "IUCr AB1197"
_journal_coden_Cambridge 591
_journal_volume 51
_journal_year 1995
_journal_page_first 1670
_journal_name_full 'Acta Crystallogr.,Sect.C:Cryst.Struct.Commun. '
loop_
_publ_author_name
"A.Kowalski"
_chemical_name_systematic
;
2-Methyl-1-phenyl-4-nitroimidazole
;
_cell_volume    955.558
_exptl_crystal_colour 'colorless'
_exptl_crystal_density_diffrn 1.412
_diffrn_ambient_temperature ?
_diffrn_special_details
;
The study was carried out at room temperature,in the range 283-303K

;
#These two values have been output from a single CSD field.
_refine_ls_R_factor_gt 0.0364
_refine_ls_wR_factor_gt 0.0364
_symmetry_cell_setting monoclinic
_symmetry_space_group_name_H-M 'P 21/n'
_symmetry_Int_Tables_number 14
loop_
_symmetry_equiv_pos_site_id
_symmetry_equiv_pos_as_xyz
1 x,y,z
2 1/2-x,1/2+y,1/2-z
3 -x,-y,-z
4 -1/2+x,-1/2-y,-1/2+z
_cell_length_a 8.234(4)
_cell_length_b 7.678(5)
_cell_length_c 15.345(8)
_cell_angle_alpha 90
_cell_angle_beta 99.94(4)
_cell_angle_gamma 90
_cell_formula_units_Z 4
loop_
_atom_type_symbol
_atom_type_radius_bond
C 0.68
H 0.23
N 0.68
O 0.68
loop_
_atom_site_label
_atom_site_type_symbol
_atom_site_fract_x
_atom_site_fract_y
_atom_site_fract_z
O1 O 0.1818(2) 0.1024(2) 0.64850(8)
O2 O 0.3670(2) -0.0338(2) 0.59277(9)
N1 N 0.13878(14) 0.1805(2) 0.36256(7)
N2 N 0.0507(2) 0.2358(2) 0.48802(8)
N3 N 0.2486(2) 0.0633(2) 0.58621(9)
C1 C 0.0238(2) 0.2646(2) 0.40278(9)
C2 C 0.1849(2) 0.1316(2) 0.50149(9)
C3 C 0.2431(2) 0.0961(2) 0.42644(9)
C4 C 0.1486(2) 0.1726(2) 0.27056(9)
C5 C 0.0130(2) 0.1261(2) 0.21028(10)
C6 C 0.0265(3) 0.1154(3) 0.12221(12)
C7 C 0.1738(3) 0.1478(3) 0.09556(12)
C8 C 0.3086(3) 0.1930(3) 0.15628(13)
C9 C 0.2974(2) 0.2066(2) 0.24437(12)
C10 C -0.1102(2) 0.3741(3) 0.35570(13)
H1 H 0.3333(25) 0.0309(26) 0.4166(12)
H2 H -0.0935(31) 0.1061(29) 0.2296(15)
H3 H -0.0798(39) 0.0897(39) 0.0808(21)
H4 H 0.1847(31) 0.1420(36) 0.0291(20)
H5 H 0.4099(35) 0.2134(33) 0.1373(18)
H6 H 0.3924(28) 0.2368(29) 0.2889(15)
H7 H -0.209(4) 0.3060(37) 0.3385(19)
H8 H -0.0811(29) 0.4221(31) 0.3018(19)
H9 H -0.1285(42) 0.4744(49) 0.3924(25)
#END
