
#######################################################################
#
#                 Cambridge Crystallographic Data Centre
#                                CCDC
#
#######################################################################
#
# If this CIF has been generated from an entry in the Cambridge
# Structural Database, then it will include bibliographic, chemical,
# crystal, experimental, refinement or atomic coordinate data resulting
# from the CCDC's data processing and validation procedures.
#
#######################################################################

data_CSD_CIF_ZAPTOB
_audit_creation_date 2012-06-01
_audit_creation_method CSD-ConQuest-V1
_database_code_CSD ZAPTOB
_database_code_depnum_ccdc_archive 'CCDC 880213'
_chemical_formula_sum 'C17 H16 N4 O6'
_chemical_formula_moiety
;
C17 H16 N4 O6
;
_journal_coeditor_code "IUCr ZL2472"
_journal_coden_Cambridge 1370
_journal_volume 68
_journal_year 2012
_journal_page_first o1399
_journal_name_full 'Acta Crystallogr.,Sect.E:Struct.Rep.Online '
loop_
_publ_author_name
"Kwang Ha"
_chemical_name_systematic
;
4,4'-Dinitro-2,2'-[propane-1,3-diylbis(iminiumylmethanylylidene)]diphenolate
;
_cell_volume   3324.895
_exptl_crystal_colour 'yellow'
_exptl_crystal_density_diffrn 1.488
_exptl_crystal_description 'block'
_diffrn_ambient_temperature 200
#These two values have been output from a single CSD field.
_refine_ls_R_factor_gt 0.0515
_refine_ls_wR_factor_gt 0.0515
_symmetry_cell_setting orthorhombic
_symmetry_space_group_name_H-M 'P b c a'
_symmetry_Int_Tables_number 61
loop_
_symmetry_equiv_pos_site_id
_symmetry_equiv_pos_as_xyz
1 x,y,z
2 1/2-x,-y,1/2+z
3 -x,1/2+y,1/2-z
4 1/2+x,1/2-y,-z
5 -x,-y,-z
6 -1/2+x,y,-1/2-z
7 x,-1/2-y,-1/2+z
8 -1/2-x,-1/2+y,z
_cell_length_a 11.5698(5)
_cell_length_b 13.0393(6)
_cell_length_c 22.0393(10)
_cell_angle_alpha 90
_cell_angle_beta 90
_cell_angle_gamma 90
_cell_formula_units_Z 8
loop_
_atom_type_symbol
_atom_type_radius_bond
C 0.68
H 0.23
N 0.68
O 0.68
loop_
_atom_site_label
_atom_site_type_symbol
_atom_site_fract_x
_atom_site_fract_y
_atom_site_fract_z
O1 O 0.18305(12) 0.22185(11) 0.21082(6)
O2 O 0.63010(14) 0.28176(13) 0.05617(7)
O3 O 0.50263(15) 0.25797(13) -0.01460(7)
O4 O 0.62220(12) -0.00556(11) 0.48734(6)
O5 O 0.96696(14) -0.02327(15) 0.27155(8)
O6 O 1.08562(13) -0.02659(13) 0.34711(8)
N1 N 0.52991(16) 0.26527(13) 0.03929(9)
N2 N 0.34001(16) 0.22765(13) 0.29410(8)
H1 H 0.491(2) 0.0128(18) 0.4342(13)
N3 N 0.48198(14) 0.01663(13) 0.39362(9)
H2 H 0.266(3) 0.2203(19) 0.2781(13)
N4 N 0.98619(16) -0.02418(14) 0.32658(9)
C1 C 0.26324(17) 0.23326(14) 0.17156(9)
C2 C 0.23969(18) 0.23465(14) 0.10807(9)
H3 H 0.16190 0.22900 0.09470
C3 C 0.32499(18) 0.24381(14) 0.06613(9)
H4 H 0.30650 0.24330 0.02410
C4 C 0.44063(18) 0.25404(14) 0.08474(9)
C5 C 0.46937(17) 0.25358(14) 0.14490(9)
H5 H 0.54790 0.26080 0.15670
C6 C 0.38325(17) 0.24253(14) 0.18915(9)
C7 C 0.41546(18) 0.23887(14) 0.25139(9)
H6 H 0.49480 0.24490 0.26190
C8 C 0.36602(19) 0.22306(16) 0.35868(9)
H7 H 0.33650 0.28580 0.37870
H8 H 0.45080 0.22080 0.36440
C9 C 0.31172(18) 0.12934(15) 0.38808(9)
H9 H 0.22850 0.12800 0.37770
H10 H 0.31790 0.13640 0.43270
C10 C 0.36533(17) 0.02741(15) 0.36953(9)
H11 H 0.31660 -0.02950 0.38470
H12 H 0.36780 0.02290 0.32470
C11 C 0.57442(17) 0.00744(14) 0.36110(9)
H13 H 0.56650 0.00980 0.31820
C12 C 0.68702(17) -0.00597(14) 0.38544(8)
C13 C 0.70501(18) -0.01066(14) 0.45046(9)
C14 C 0.82265(18) -0.02299(16) 0.47050(9)
H14 H 0.83820 -0.02770 0.51270
C15 C 0.91170(18) -0.02810(16) 0.43079(9)
H15 H 0.98850 -0.03580 0.44530
C16 C 0.89073(17) -0.02195(15) 0.36768(9)
C17 C 0.78028(17) -0.01169(14) 0.34546(9)
H16 H 0.76750 -0.00850 0.30290
#END
