
#######################################################################
#
#                 Cambridge Crystallographic Data Centre
#                                CCDC
#
#######################################################################
#
# If this CIF has been generated from an entry in the Cambridge
# Structural Database, then it will include bibliographic, chemical,
# crystal, experimental, refinement or atomic coordinate data resulting
# from the CCDC's data processing and validation procedures.
#
#######################################################################

data_CSD_CIF_ZAQMUZ
_audit_creation_date 1996-03-13
_audit_creation_method CSD-ConQuest-V1
_database_code_CSD ZAQMUZ
_chemical_formula_sum 'C29 H28 N2 O4'
_chemical_formula_moiety
;
C29 H28 N2 O4
;
_journal_coden_Cambridge 35
_journal_volume 60
_journal_year 1995
_journal_page_first 3184
_journal_name_full 'J.Org.Chem. '
loop_
_publ_author_name
"M.Atfani"
"W.D.Lubell"
_chemical_name_systematic
;
(S)-2-(N-(9-(9-Phenylfluorenyl))amino)-3-(3-t-butyl-5-oxo-2H-isoxazol-4-yl)pro
pionic acid
;
_cell_volume   2453.256
_exptl_crystal_density_diffrn 1.269
_diffrn_ambient_temperature ?
_diffrn_special_details
;
The study was carried out at room temperature,in the range 283-303K

;
_refine_special_details
;
The t-butyl group is disordered over two sites with occupancies of 0.35 and 
0.65.
;
#These two values have been output from a single CSD field.
_refine_ls_R_factor_gt 0.035
_refine_ls_wR_factor_gt 0.035
_symmetry_cell_setting orthorhombic
_symmetry_space_group_name_H-M 'P 21 21 21'
_symmetry_Int_Tables_number 19
loop_
_symmetry_equiv_pos_site_id
_symmetry_equiv_pos_as_xyz
1 x,y,z
2 1/2-x,-y,1/2+z
3 1/2+x,1/2-y,-z
4 -x,1/2+y,1/2-z
_cell_length_a 8.593(2)
_cell_length_b 13.606(3)
_cell_length_c 20.983(3)
_cell_angle_alpha 90
_cell_angle_beta 90
_cell_angle_gamma 90
_cell_formula_units_Z 4
loop_
_atom_type_symbol
_atom_type_radius_bond
C 0.68
H 0.23
N 0.68
O 0.68
loop_
_atom_site_label
_atom_site_type_symbol
_atom_site_fract_x
_atom_site_fract_y
_atom_site_fract_z
O1 O 0.6271(2) 0.7428(1) 0.6665(1)
N1 N 0.4912(3) 0.6886(1) 0.6519(1)
C1 C 0.5171(3) 0.5919(2) 0.6663(1)
C2 C 0.6695(3) 0.5798(2) 0.6838(1)
C3 C 0.7396(3) 0.6746(2) 0.6826(1)
O2 O 0.8736(2) 0.7030(1) 0.6909(1)
C4 C 0.3852(3) 0.5196(2) 0.6554(1)
C5 C 0.2307(5) 0.5693(3) 0.6460(3)
C6 C 0.4245(6) 0.4574(3) 0.5980(2)
C7 C 0.3667(5) 0.4498(3) 0.7146(2)
C8? C 0.2536(14) 0.5764(8) 0.6162(7)
C9? C 0.4385(10) 0.4411(6) 0.6089(7)
C10? C 0.3284(15) 0.4895(12) 0.7125(5)
C11 C 0.7599(3) 0.4902(2) 0.7021(1)
C12 C 0.7550(3) 0.4686(2) 0.7739(1)
C13 C 0.8322(3) 0.3698(2) 0.7866(1)
O3 O 0.7624(2) 0.2944(1) 0.7916(1)
O4 O 0.9858(2) 0.3750(1) 0.7887(1)
N2 N 0.8187(2) 0.5516(1) 0.8081(1)
C14 C 0.7631(3) 0.5688(2) 0.8731(1)
C15 C 0.7717(3) 0.4810(2) 0.9187(1)
C16 C 0.9003(3) 0.4289(2) 0.9390(1)
C17 C 0.8813(4) 0.3542(2) 0.9830(1)
C18 C 0.7356(4) 0.3317(2) 1.0066(1)
C19 C 0.6058(4) 0.3823(2) 0.9865(1)
C20 C 0.6241(3) 0.4573(2) 0.9421(1)
C21 C 0.5102(3) 0.5237(2) 0.9131(1)
C22 C 0.3486(3) 0.5302(2) 0.9200(1)
C23 C 0.2701(3) 0.6009(2) 0.8863(2)
C24 C 0.3458(3) 0.6643(2) 0.8457(1)
C25 C 0.5071(3) 0.6583(2) 0.8385(1)
C26 C 0.5867(3) 0.5882(2) 0.8724(1)
C27 C 0.8488(3) 0.6592(2) 0.8990(1)
C28 C 0.8761(3) 0.6716(2) 0.9634(1)
C29 C 0.9526(4) 0.7544(2) 0.9855(1)
C30 C 1.0031(4) 0.8256(2) 0.9440(1)
C31 C 0.9754(3) 0.8142(2) 0.8805(1)
C32 C 0.8982(3) 0.7319(2) 0.8574(1)
H1 H 0.409(3) 0.723(2) 0.669(1)
H2 H 0.149(5) 0.522(3) 0.638(2)
H3 H 0.207(4) 0.607(3) 0.686(2)
H4 H 0.236(5) 0.617(3) 0.609(2)
H5 H 0.352(5) 0.415(3) 0.584(2)
H6 H 0.420(5) 0.512(3) 0.556(2)
H7 H 0.532(4) 0.426(2) 0.601(2)
H8 H 0.281(5) 0.402(3) 0.705(2)
H9 H 0.463(4) 0.400(2) 0.714(2)
H10 H 0.353(4) 0.482(3) 0.755(2)
H11? H 0.175(7) 0.519(5) 0.598(3)
H12? H 0.205(7) 0.636(4) 0.648(3)
H13? H 0.287(16) 0.610(9) 0.574(6)
H14? H 0.356(11) 0.393(6) 0.602(4)
H15? H 0.495(11) 0.390(6) 0.636(4)
H16? H 0.238(10) 0.437(6) 0.713(4)
H17? H 0.399(8) 0.437(5) 0.738(3)
H18? H 0.316(11) 0.540(6) 0.742(4)
H19 H 0.729(2) 0.433(2) 0.681(1)
H20 H 0.868(3) 0.504(2) 0.691(1)
H21 H 0.649(2) 0.463(1) 0.787(1)
H22 H 1.028(4) 0.312(2) 0.797(1)
H23 H 0.903(3) 0.554(2) 0.806(1)
H24 H 0.998(3) 0.446(2) 0.922(1)
H25 H 0.965(3) 0.316(2) 0.995(1)
H26 H 0.725(3) 0.280(2) 1.037(1)
H27 H 0.512(3) 0.366(2) 1.005(1)
H28 H 0.298(3) 0.484(2) 0.951(1)
H29 H 0.162(4) 0.604(2) 0.891(1)
H30 H 0.290(3) 0.716(2) 0.820(1)
H31 H 0.557(3) 0.698(2) 0.810(1)
H32 H 0.845(3) 0.621(2) 0.994(1)
H33 H 0.965(3) 0.759(2) 1.028(1)
H34 H 1.049(3) 0.886(2) 0.960(1)
H35 H 1.002(3) 0.866(2) 0.848(1)
H36 H 0.889(2) 0.725(1) 0.812(1)
#END
