
#######################################################################
#
#                 Cambridge Crystallographic Data Centre
#                                CCDC
#
#######################################################################
#
# If this CIF has been generated from an entry in the Cambridge
# Structural Database, then it will include bibliographic, chemical,
# crystal, experimental, refinement or atomic coordinate data resulting
# from the CCDC's data processing and validation procedures.
#
#######################################################################

data_CSD_CIF_ZAQNAG
_audit_creation_date 1996-03-13
_audit_creation_method CSD-ConQuest-V1
_database_code_CSD ZAQNAG
_chemical_formula_sum 'C31 H32 N2 O4'
_chemical_formula_moiety
;
C31 H32 N2 O4
;
_journal_coden_Cambridge 35
_journal_volume 60
_journal_year 1995
_journal_page_first 3184
_journal_name_full 'J.Org.Chem. '
loop_
_publ_author_name
"M.Atfani"
"W.D.Lubell"
_chemical_name_systematic
;
(2S,4S)-Methyl 
2-(N-(9-(9-phenylfluorenyl))amino)-3-(3-t-butyl-4-methyl-5-oxo-4H-isoxazol-4-y
l)propionate
;
_chemical_melting_point 458.15
_cell_volume   2702.088
_exptl_crystal_density_diffrn 1.221
_exptl_special_details
;
Melting point range 458.15-460.15K

;
_diffrn_ambient_temperature ?
_diffrn_special_details
;
The study was carried out at room temperature,in the range 283-303K

;
#These two values have been output from a single CSD field.
_refine_ls_R_factor_gt 0.042
_refine_ls_wR_factor_gt 0.042
_symmetry_cell_setting orthorhombic
_symmetry_space_group_name_H-M 'P 21 21 21'
_symmetry_Int_Tables_number 19
loop_
_symmetry_equiv_pos_site_id
_symmetry_equiv_pos_as_xyz
1 x,y,z
2 1/2-x,-y,1/2+z
3 1/2+x,1/2-y,-z
4 -x,1/2+y,1/2-z
_cell_length_a 9.5671(4)
_cell_length_b 10.2749(10)
_cell_length_c 27.4879(11)
_cell_angle_alpha 90
_cell_angle_beta 90
_cell_angle_gamma 90
_cell_formula_units_Z 4
loop_
_atom_type_symbol
_atom_type_radius_bond
C 0.68
H 0.23
N 0.68
O 0.68
loop_
_atom_site_label
_atom_site_type_symbol
_atom_site_fract_x
_atom_site_fract_y
_atom_site_fract_z
O1 O 0.7317(3) 0.3369(2) 0.8156(1)
N1 N 0.8373(3) 0.3995(3) 0.7855(1)
C1 C 0.7835(4) 0.5009(3) 0.7661(1)
C2 C 0.6335(3) 0.5213(3) 0.7806(1)
C3 C 0.5318(4) 0.5065(4) 0.7368(1)
C4 C 0.6111(4) 0.4060(3) 0.8137(1)
O2 O 0.5077(3) 0.3696(2) 0.8342(1)
C5 C 0.8741(4) 0.5758(3) 0.7304(1)
C6 C 1.0290(5) 0.5802(5) 0.7496(2)
C7 C 0.8320(5) 0.7181(4) 0.7259(2)
C8 C 0.8725(7) 0.5067(6) 0.6821(2)
C9 C 0.5984(3) 0.6492(3) 0.8068(1)
C10 C 0.6932(3) 0.6897(3) 0.8493(1)
C11 C 0.6390(3) 0.8241(3) 0.8645(1)
O3 O 0.5267(2) 0.8398(2) 0.8827(1)
O4 O 0.7285(2) 0.9174(2) 0.8532(1)
C12 C 0.6892(4) 1.0491(3) 0.8678(1)
N2 N 0.6906(2) 0.5921(2) 0.8875(1)
C13 C 0.7989(3) 0.6040(2) 0.9258(1)
C14 C 0.8092(3) 0.7399(2) 0.9482(1)
C15 C 0.7110(3) 0.8049(3) 0.9755(1)
C16 C 0.7417(3) 0.9288(3) 0.9929(1)
C17 C 0.8691(3) 0.9850(3) 0.9830(1)
C18 C 0.9679(3) 0.9209(3) 0.9558(1)
C19 C 0.9383(3) 0.7969(3) 0.9384(1)
C20 C 1.0230(3) 0.7032(3) 0.9117(1)
C21 C 1.1626(3) 0.7096(3) 0.8972(1)
C22 C 1.2216(3) 0.6010(4) 0.8765(1)
C23 C 1.1467(3) 0.4877(3) 0.8704(1)
C24 C 1.0064(3) 0.4797(3) 0.8840(1)
C25 C 0.9461(3) 0.5903(3) 0.9046(1)
C26 C 0.7749(3) 0.4993(3) 0.9643(1)
C27 C 0.6929(3) 0.3908(3) 0.9553(1)
C28 C 0.6753(4) 0.2961(3) 0.9911(1)
C29 C 0.7417(4) 0.3078(3) 1.0352(1)
C30 C 0.8252(3) 0.4135(3) 1.0443(1)
C31 C 0.8413(3) 0.5096(3) 1.0092(1)
H1 H 0.444(3) 0.500(2) 0.751(1)
H2 H 0.571(4) 0.425(3) 0.714(1)
H3 H 0.543(4) 0.582(3) 0.712(1)
H4 H 1.084(5) 0.637(4) 0.725(1)
H5 H 1.059(4) 0.471(4) 0.750(2)
H6 H 1.013(5) 0.630(4) 0.783(1)
H7 H 0.904(4) 0.761(3) 0.699(1)
H8 H 0.832(4) 0.765(3) 0.757(1)
H9 H 0.738(4) 0.695(4) 0.700(1)
H10 H 0.937(4) 0.544(3) 0.661(1)
H11 H 0.762(5) 0.520(4) 0.676(1)
H12 H 0.899(4) 0.428(4) 0.693(2)
H13 H 0.503(3) 0.644(2) 0.821(1)
H14 H 0.590(3) 0.720(2) 0.783(1)
H15 H 0.787(2) 0.700(2) 0.838(1)
H16 H 0.757(4) 1.106(4) 0.859(1)
H17 H 0.685(4) 1.056(4) 0.901(1)
H18 H 0.603(4) 1.076(4) 0.852(1)
H19 H 0.608(3) 0.578(3) 0.900(1)
H20 H 0.627(2) 0.769(2) 0.983(1)
H21 H 0.669(3) 0.971(3) 1.014(1)
H22 H 0.889(3) 1.067(3) 0.995(1)
H23 H 1.056(3) 0.959(3) 0.946(1)
H24 H 1.215(3) 0.789(2) 0.902(1)
H25 H 1.325(3) 0.596(3) 0.866(1)
H26 H 1.189(3) 0.410(3) 0.856(1)
H27 H 0.949(2) 0.391(2) 0.882(1)
H28 H 0.642(3) 0.381(2) 0.923(1)
H29 H 0.613(3) 0.225(3) 0.984(1)
H30 H 0.730(3) 0.246(3) 1.063(1)
H31 H 0.864(3) 0.431(3) 1.079(1)
H32 H 0.901(3) 0.591(3) 1.016(1)
#END
