
#######################################################################
#
#                 Cambridge Crystallographic Data Centre
#                                CCDC
#
#######################################################################
#
# If this CIF has been generated from an entry in the Cambridge
# Structural Database, then it will include bibliographic, chemical,
# crystal, experimental, refinement or atomic coordinate data resulting
# from the CCDC's data processing and validation procedures.
#
#######################################################################

data_CSD_CIF_ZARDAZ
_audit_creation_date 2012-06-01
_audit_creation_method CSD-ConQuest-V1
_database_code_CSD ZARDAZ
_database_code_depnum_ccdc_archive 'CCDC 838513'
_chemical_formula_sum 'C20 H21 N1 O5'
_chemical_formula_moiety
;
C20 H21 N1 O5
;
_journal_coeditor_code "IUCr RN2100"
_journal_coden_Cambridge 1370
_journal_volume 68
_journal_year 2012
_journal_page_first o1373
_journal_name_full 'Acta Crystallogr.,Sect.E:Struct.Rep.Online '
loop_
_publ_author_name
"E.Govindan"
"G.Ganesh"
"J.Srinivasan"
"M.Bakthadoss"
"A.SubbiahPandi"
_chemical_name_systematic
;
(E)-Methyl 
2-((2-ethoxy-6-[(E)-(hydroxyimino)methyl]phenoxy)methyl)-3-phenylacrylate
;
_cell_volume   1808.550
_exptl_crystal_colour 'white'
_exptl_crystal_density_diffrn 1.305
_exptl_crystal_description 'block'
_diffrn_ambient_temperature 293
#These two values have been output from a single CSD field.
_refine_ls_R_factor_gt 0.0527
_refine_ls_wR_factor_gt 0.0527
_symmetry_cell_setting monoclinic
_symmetry_space_group_name_H-M 'P 21/n'
_symmetry_Int_Tables_number 14
loop_
_symmetry_equiv_pos_site_id
_symmetry_equiv_pos_as_xyz
1 x,y,z
2 1/2-x,1/2+y,1/2-z
3 -x,-y,-z
4 -1/2+x,-1/2-y,-1/2+z
_cell_length_a 7.4009(3)
_cell_length_b 22.1125(10)
_cell_length_c 11.3681(5)
_cell_angle_alpha 90
_cell_angle_beta 103.561(1)
_cell_angle_gamma 90
_cell_formula_units_Z 4
loop_
_atom_type_symbol
_atom_type_radius_bond
C 0.68
H 0.23
N 0.68
O 0.68
loop_
_atom_site_label
_atom_site_type_symbol
_atom_site_fract_x
_atom_site_fract_y
_atom_site_fract_z
C1 C 0.66305(18) 0.04722(6) 0.86324(12)
H1 H 0.63480 0.04140 0.77990
C2 C 0.52766(17) 0.07679(6) 0.91943(11)
C3 C 0.5530(2) 0.08059(6) 1.04563(12)
H2 H 0.65890 0.06410 1.09600
C4 C 0.4225(2) 0.10847(7) 1.09493(12)
H3 H 0.43920 0.10970 1.17860
C5 C 0.2661(2) 0.13482(7) 1.02182(13)
H4 H 0.17910 0.15390 1.05630
C6 C 0.23961(18) 0.13273(6) 0.89702(11)
C7 C 0.36826(16) 0.10210(5) 0.8456(1)
C8 C -0.0070(3) 0.20593(10) 0.86177(17)
H5 H 0.07400 0.22930 0.92500
H6 H -0.10260 0.18720 0.89510
C9 C -0.0933(3) 0.24597(10) 0.7579(2)
H7 H 0.00130 0.26080 0.72020
H8 H -0.15320 0.27950 0.78670
H9 H -0.18340 0.22340 0.70000
C10 C 0.17647(18) 0.06976(7) 0.65716(11)
H10 H 0.07620 0.09890 0.63490
H11 H 0.14010 0.03930 0.70850
C11 C 0.21243(17) 0.04080(6) 0.54594(11)
C12 C 0.28726(19) -0.02179(7) 0.56460(13)
C13 C 0.3504(3) -0.11301(8) 0.4760(2)
H12 H 0.46690 -0.11610 0.53460
H13 H 0.36420 -0.12830 0.39960
H14 H 0.25800 -0.13620 0.50280
C14 C 0.17680(17) 0.06620(6) 0.43559(11)
H15 H 0.20150 0.04210 0.37420
C15 C 0.10419(17) 0.12684(6) 0.39869(11)
C16 C 0.1278(2) 0.17773(7) 0.47358(14)
H16 H 0.19680 0.17470 0.55310
C17 C 0.0490(2) 0.23275(7) 0.43013(16)
H17 H 0.06510 0.26630 0.48080
C18 C -0.0529(2) 0.23794(8) 0.31254(17)
H18 H -0.10720 0.27470 0.28440
C19 C -0.0744(2) 0.18858(8) 0.23667(15)
H19 H -0.14200 0.19210 0.15700
C20 C 0.0045(2) 0.13382(7) 0.27890(13)
H20 H -0.00910 0.10090 0.22660
N1 N 0.81897(15) 0.02940(6) 0.92689(10)
O1 O 0.92841(16) 0.00226(6) 0.85611(10)
H21 H 1.02540 -0.01010 0.90010
O2 O 0.09792(15) 0.16043(5) 0.81645(9)
O3 O 0.34510(11) 0.09991(4) 0.72187(7)
O4 O 0.3345(2) -0.04452(6) 0.66304(12)
O5 O 0.29384(17) -0.05077(5) 0.46293(10)
#END
