
#######################################################################
#
#                 Cambridge Crystallographic Data Centre
#                                CCDC
#
#######################################################################
#
# If this CIF has been generated from an entry in the Cambridge
# Structural Database, then it will include bibliographic, chemical,
# crystal, experimental, refinement or atomic coordinate data resulting
# from the CCDC's data processing and validation procedures.
#
#######################################################################

data_CSD_CIF_ZARJOU
_audit_creation_date 2017-02-21
_audit_creation_method CSD-ConQuest-V1
_database_code_CSD ZARJOU
_database_code_depnum_ccdc_archive 'CCDC 1511199'
_chemical_formula_sum 'C26 H24 N2 O5'
_chemical_formula_moiety
;
C26 H24 N2 O5
;
_journal_coden_Cambridge 179
_journal_volume 56
_journal_year 2017
_journal_page_first 2059
_journal_name_full 'Angew.Chem.,Int.Ed. '
loop_
_publ_author_name
"I.Urruzuno"
"O.Mugica"
"M.Oiarbide"
"C.Palomo"
_chemical_name_systematic
;
6,8-dinitro-5,7-diphenyl-5,6,7,8,9,10-hexahydrophenanthren-8a(4bH)-ol
;
_cell_volume   1098.795
_exptl_crystal_colour 'colorless'
_exptl_crystal_density_diffrn 1.343
_exptl_special_details
;
Absolute configuration

;
_exptl_crystal_description 'prism'
_diffrn_ambient_temperature 150.0
#These two values have been output from a single CSD field.
_refine_ls_R_factor_gt 0.0325
_refine_ls_wR_factor_gt 0.0325
_symmetry_cell_setting monoclinic
_symmetry_space_group_name_H-M 'P 21'
_symmetry_Int_Tables_number 4
loop_
_symmetry_equiv_pos_site_id
_symmetry_equiv_pos_as_xyz
1 x,y,z
2 -x,1/2+y,-z
_cell_length_a 11.27005(16)
_cell_length_b 5.58600(8)
_cell_length_c 17.8191(2)
_cell_angle_alpha 90
_cell_angle_beta 101.6217(13)
_cell_angle_gamma 90
_cell_formula_units_Z 2
loop_
_atom_type_symbol
_atom_type_radius_bond
C 0.68
H 0.23
N 0.68
O 0.68
loop_
_atom_site_label
_atom_site_type_symbol
_atom_site_fract_x
_atom_site_fract_y
_atom_site_fract_z
O1 O 0.57102(15) 0.7953(3) 0.14946(9)
O2 O 0.63860(16) 0.3689(4) 0.00307(9)
O3 O 0.70027(16) 0.7347(4) 0.02194(10)
O4 O 1.01410(14) 0.3714(4) 0.31111(10)
O5 O 0.85131(15) 0.1900(3) 0.25519(10)
N1 N 0.68222(16) 0.5350(4) 0.04514(10)
N2 N 0.91011(15) 0.3722(4) 0.27526(10)
C1 C 0.59770(19) 0.5475(4) 0.16359(12)
C2 C 0.71249(18) 0.4888(4) 0.13070(12)
H1 H 0.73380 0.31610 0.14010
C3 C 0.82101(18) 0.6432(4) 0.16653(11)
H2 H 0.79500 0.81340 0.15660
C4 C 0.85066(19) 0.6127(4) 0.25405(12)
H3 H 0.91150 0.73840 0.27500
C5 C 0.74055(19) 0.6501(4) 0.29185(12)
H4 H 0.71960 0.82390 0.28570
C6 C 0.62728(18) 0.5132(4) 0.25199(11)
H5 H 0.64250 0.33880 0.26250
C7 C 0.5132(2) 0.5806(4) 0.28033(12)
C8 C 0.5055(2) 0.7587(5) 0.33363(13)
H6 H 0.57570 0.84750 0.35590
C9 C 0.3957(2) 0.8075(5) 0.35450(15)
H7 H 0.39080 0.93070 0.39050
C10 C 0.2933(2) 0.6771(6) 0.32295(15)
H8 H 0.21880 0.70760 0.33840
C11 C 0.2996(2) 0.5025(5) 0.26898(14)
H9 H 0.22900 0.41430 0.24710
C12 C 0.4085(2) 0.4546(4) 0.24645(13)
C13 C 0.4206(2) 0.2781(4) 0.18536(13)
H10 H 0.33900 0.22840 0.15810
H11 H 0.46340 0.13400 0.20930
C14 C 0.49071(19) 0.3835(4) 0.12737(12)
H12 H 0.43380 0.47660 0.08860
H13 H 0.52230 0.25030 0.10040
C15 C 0.93456(19) 0.6111(4) 0.13343(12)
C16 C 0.95690(18) 0.4082(4) 0.09324(12)
H14 H 0.89990 0.28090 0.08540
C17 C 1.06298(19) 0.3910(5) 0.06426(12)
H15 H 1.07690 0.25330 0.03590
C18 C 1.1474(2) 0.5727(5) 0.07658(13)
H16 H 1.21950 0.56010 0.05690
C19 C 1.1269(2) 0.7742(4) 0.11783(14)
H17 H 1.18540 0.89890 0.12680
C20 C 1.0211(2) 0.7935(4) 0.14596(12)
H18 H 1.00740 0.93190 0.17400
C21 C 0.77769(19) 0.6064(4) 0.37776(12)
C22 C 0.8489(2) 0.7767(4) 0.42312(13)
H19 H 0.87400 0.91540 0.39970
C23 C 0.8839(2) 0.7480(5) 0.50172(14)
H20 H 0.93230 0.86640 0.53160
C24 C 0.8481(2) 0.5460(5) 0.53663(13)
H21 H 0.87090 0.52620 0.59060
C25 C 0.7789(2) 0.3735(5) 0.49210(13)
H22 H 0.75500 0.23410 0.51580
C26 C 0.7440(2) 0.4017(5) 0.41329(12)
H23 H 0.69710 0.28120 0.38340
H24 H 0.5179(19) 0.809(6) 0.1119(11)
#END
