
#######################################################################
#
#                 Cambridge Crystallographic Data Centre
#                                CCDC
#
#######################################################################
#
# If this CIF has been generated from an entry in the Cambridge
# Structural Database, then it will include bibliographic, chemical,
# crystal, experimental, refinement or atomic coordinate data resulting
# from the CCDC's data processing and validation procedures.
#
#######################################################################

data_CSD_CIF_ZASXID
_audit_creation_date 2017-02-21
_audit_creation_method CSD-ConQuest-V1
_database_code_CSD ZASXID
_database_code_depnum_ccdc_archive 'CCDC 1525437'
_chemical_formula_sum 'C33 H45 N7 O3'
_chemical_formula_moiety
;
C33 H45 N7 O3
;
_journal_coden_Cambridge 222
_journal_volume 46
_journal_year 2017
_journal_page_first 3192
_journal_name_full 'Dalton Trans. '
loop_
_publ_author_name
"I.Carreira-Barral"
"M.Mato-Iglesias"
"A.de Blas"
"C.Platas-Iglesias"
"P.A.Tasker"
"D.Esteban-Gomez"
_chemical_name_systematic
;
1-(2-((7-(4-t-butylbenzyl)-1,4,7,10-tetraazacyclododecan-1-yl)methyl)phenyl)-3
-(3-nitrophenyl)urea
;
_cell_volume   3203.129
_exptl_crystal_colour 'colorless'
_exptl_crystal_density_diffrn 1.219
_exptl_crystal_description 'prism'
_diffrn_ambient_temperature 100
#These two values have been output from a single CSD field.
_refine_ls_R_factor_gt 0.0483
_refine_ls_wR_factor_gt 0.0483
_symmetry_cell_setting monoclinic
_symmetry_space_group_name_H-M 'P 21/c'
_symmetry_Int_Tables_number 14
loop_
_symmetry_equiv_pos_site_id
_symmetry_equiv_pos_as_xyz
1 x,y,z
2 -x,1/2+y,1/2-z
3 -x,-y,-z
4 x,-1/2-y,-1/2+z
_cell_length_a 14.9008(10)
_cell_length_b 11.9675(8)
_cell_length_c 17.9866(13)
_cell_angle_alpha 90
_cell_angle_beta 92.980(5)
_cell_angle_gamma 90
_cell_formula_units_Z 4
loop_
_atom_type_symbol
_atom_type_radius_bond
C 0.68
H 0.23
N 0.68
O 0.68
loop_
_atom_site_label
_atom_site_type_symbol
_atom_site_fract_x
_atom_site_fract_y
_atom_site_fract_z
C1 C 0.60058(10) 0.85953(15) 0.03219(9)
C2 C 0.57907(12) 0.8984(2) 0.10096(10)
H1 H 0.51900 0.91660 0.11140
C3 C 0.64846(13) 0.9097(2) 0.15421(10)
H2 H 0.63550 0.93620 0.20230
C4 C 0.73625(11) 0.88346(17) 0.13984(9)
H3 H 0.78270 0.89230 0.17760
C5 C 0.75613(10) 0.84404(13) 0.06966(8)
C6 C 0.68677(10) 0.83268(13) 0.01500(8)
H4 H 0.69890 0.80680 -0.03340
C7 C 0.92143(10) 0.82780(12) 0.09088(8)
C8 C 1.08542(10) 0.83425(12) 0.07212(8)
C9 C 1.11832(10) 0.82046(13) 0.14530(8)
H5 H 1.07950 0.79630 0.18230
C10 C 1.20835(11) 0.84212(14) 0.16400(9)
H6 H 1.23060 0.83480 0.21420
C11 C 1.26576(11) 0.87427(14) 0.10998(9)
H7 H 1.32750 0.88740 0.12280
C12 C 1.23282(10) 0.88736(13) 0.03690(9)
H8 H 1.27270 0.90850 -0.00020
C13 C 1.14267(10) 0.87016(12) 0.01704(8)
C14 C 1.10537(10) 0.89914(13) -0.06014(8)
H9 H 1.06230 0.96170 -0.05630
H10 H 1.15530 0.92570 -0.08980
C15 C 1.12534(10) 0.72489(13) -0.12483(8)
H11 H 1.16890 0.70860 -0.08280
H12 H 1.15900 0.75830 -0.16540
C16 C 1.08312(10) 0.61612(13) -0.15225(8)
H13 H 1.04410 0.63080 -0.19750
H14 H 1.13100 0.56380 -0.16590
C17 C 0.98340(11) 0.46303(13) -0.12293(9)
H15 H 0.97330 0.41240 -0.08060
H16 H 1.02140 0.42340 -0.15790
C18 C 0.89383(10) 0.49252(13) -0.16214(8)
H17 H 0.90280 0.55260 -0.19880
H18 H 0.86970 0.42630 -0.18940
C19 C 0.76261(10) 0.60884(13) -0.14068(8)
H19 H 0.71770 0.62460 -0.10340
H20 H 0.73070 0.57350 -0.18420
C20 C 0.80286(10) 0.71840(13) -0.16499(8)
H21 H 0.83550 0.70590 -0.21090
H22 H 0.75390 0.77240 -0.17680
C21 C 0.90691(10) 0.87001(13) -0.13294(9)
H23 H 0.91160 0.92400 -0.09120
H24 H 0.86790 0.90350 -0.17320
C22 C 0.99977(10) 0.85025(13) -0.16138(8)
H25 H 0.99590 0.79600 -0.20300
H26 H 1.02420 0.92120 -0.18010
C23 C 0.78308(11) 0.43287(13) -0.07840(9)
H27 H 0.82850 0.37480 -0.06540
H28 H 0.74130 0.40170 -0.11770
C24 C 0.73094(10) 0.45738(13) -0.01057(8)
C25 C 0.65825(11) 0.39039(15) 0.00463(9)
H29 H 0.64090 0.33180 -0.02870
C26 C 0.61073(11) 0.40765(16) 0.06750(9)
H30 H 0.56140 0.36020 0.07660
C27 C 0.63326(10) 0.49286(15) 0.11793(8)
C28 C 0.70656(10) 0.55892(14) 0.10274(9)
H31 H 0.72440 0.61710 0.13630
C29 C 0.75456(10) 0.54178(13) 0.03935(8)
H32 H 0.80420 0.58870 0.03020
C30 C 0.57711(11) 0.51198(18) 0.18567(9)
C31 C 0.55688(14) 0.3979(2) 0.22251(11)
H33 H 0.61350 0.35910 0.23540
H34 H 0.52010 0.35200 0.18760
H35 H 0.52430 0.41050 0.26770
C32 C 0.48858(13) 0.5662(2) 0.15982(12)
H36 H 0.45230 0.57970 0.20290
H37 H 0.45580 0.51650 0.12460
H38 H 0.50050 0.63740 0.13530
C33 C 0.62578(14) 0.5844(2) 0.24408(10)
H39 H 0.63490 0.65920 0.22370
H40 H 0.68420 0.55090 0.25830
H41 H 0.58970 0.58990 0.28800
N1 N 0.52855(9) 0.84782(13) -0.02584(8)
N2 N 0.84256(8) 0.81705(11) 0.04835(7)
N3 N 0.99515(8) 0.81318(11) 0.04897(7)
N4 N 1.05967(8) 0.8065(1) -0.10034(7)
N5 N 0.82866(8) 0.52989(11) -0.10865(7)
O1 O 0.45112(8) 0.86852(13) -0.00964(7)
O2 O 0.54819(8) 0.81771(13) -0.08810(7)
O3 O 0.92632(7) 0.85030(9) 0.15725(6)
H42 H 0.8442(11) 0.7987(15) 0.0013(10)
H43 H 0.9877(11) 0.7975(15) 0.0033(11)
N6 N 0.86497(8) 0.76606(11) -0.10732(7)
H44 H 0.9076(11) 0.7142(15) -0.0984(9)
N7 N 1.02977(9) 0.56445(11) -0.09550(7)
H45 H 1.0685(11) 0.5459(15) -0.0565(10)
#END
