
#######################################################################
#
#                 Cambridge Crystallographic Data Centre
#                                CCDC
#
#######################################################################
#
# If this CIF has been generated from an entry in the Cambridge
# Structural Database, then it will include bibliographic, chemical,
# crystal, experimental, refinement or atomic coordinate data resulting
# from the CCDC's data processing and validation procedures.
#
#######################################################################

data_CSD_CIF_ZATKUA
_audit_creation_date 1996-04-12
_audit_creation_method CSD-ConQuest-V1
_database_code_CSD ZATKUA
_chemical_formula_sum 'C9 H12 N2 O2'
_chemical_formula_moiety
;
C9 H12 N2 O2
;
_journal_coden_Cambridge 580
_journal_volume 14
_journal_year 1995
_journal_page_first 2547
_journal_name_full 'Polyhedron '
loop_
_publ_author_name
"J.Charalambous"
"R.G.Rees"
"T.A.Thomas"
"O.Carugo"
"C.B.Castellani"
_chemical_name_systematic
;
5-Ethylamino-4-methyl-1,2-benzoquinone-2-oxime
;
_chemical_melting_point 425.15
_cell_volume    890.266
_exptl_crystal_colour 'orange'
_exptl_crystal_density_diffrn 1.344
_exptl_special_details
;
Melting point range 425.15-426.15K

;
_diffrn_ambient_temperature ?
_diffrn_special_details
;
The study was carried out at room temperature,in the range 283-303K

;
#These two values have been output from a single CSD field.
_refine_ls_R_factor_gt 0.042
_refine_ls_wR_factor_gt 0.042
_symmetry_cell_setting monoclinic
_symmetry_space_group_name_H-M 'P 21/n'
_symmetry_Int_Tables_number 14
loop_
_symmetry_equiv_pos_site_id
_symmetry_equiv_pos_as_xyz
1 x,y,z
2 1/2-x,1/2+y,1/2-z
3 -x,-y,-z
4 -1/2+x,-1/2-y,-1/2+z
_cell_length_a 4.086(1)
_cell_length_b 17.098(1)
_cell_length_c 12.792(1)
_cell_angle_alpha 90
_cell_angle_beta 95.01(1)
_cell_angle_gamma 90
_cell_formula_units_Z 4
loop_
_atom_type_symbol
_atom_type_radius_bond
C 0.68
H 0.23
N 0.68
O 0.68
loop_
_atom_site_label
_atom_site_type_symbol
_atom_site_fract_x
_atom_site_fract_y
_atom_site_fract_z
O1 O 0.5692(5) 0.0114(1) 0.7776(1)
O2 O 0.2943(5) 0.1361(1) 0.8192(1)
N1 N 0.4724(6) 0.0208(1) 0.6733(2)
N2 N -0.2307(5) 0.2769(1) 0.5347(1)
C1 C 0.3001(6) 0.0832(1) 0.6480(2)
C2 C 0.1987(6) 0.1432(1) 0.7217(2)
C3 C 0.0101(6) 0.2049(1) 0.6809(2)
C4 C -0.0662(5) 0.2142(1) 0.5732(2)
C5 C 0.0339(6) 0.1551(1) 0.4993(2)
C6 C 0.2051(6) 0.0933(1) 0.5374(2)
C7 C -0.3453(6) 0.3392(1) 0.6017(2)
C8 C -0.5188(7) 0.4024(2) 0.5378(2)
C9 C -0.0624(7) 0.1640(1) 0.3838(2)
H1 H 0.481(7) 0.057(2) 0.813(2)
H2 H -0.270(7) 0.287(2) 0.455(2)
H3 H -0.049(6) 0.242(1) 0.727(2)
H4 H 0.255(6) 0.054(1) 0.486(2)
H5 H -0.139(6) 0.363(1) 0.645(2)
H6 H -0.509(6) 0.317(1) 0.648(2)
H7 H -0.360(7) 0.430(2) 0.497(2)
H8 H -0.700(7) 0.382(2) 0.492(2)
H9 H -0.610(7) 0.442(2) 0.592(2)
H10 H 0.009(6) 0.214(2) 0.362(2)
H11 H -0.311(6) 0.164(2) 0.369(2)
H12 H 0.026(7) 0.117(2) 0.349(2)
#END
