
#######################################################################
#
#                 Cambridge Crystallographic Data Centre
#                                CCDC
#
#######################################################################
#
# If this CIF has been generated from an entry in the Cambridge
# Structural Database, then it will include bibliographic, chemical,
# crystal, experimental, refinement or atomic coordinate data resulting
# from the CCDC's data processing and validation procedures.
#
#######################################################################

data_CSD_CIF_ZATMUC
_audit_creation_date 1996-04-12
_audit_creation_method CSD-ConQuest-V1
_database_code_CSD ZATMUC
_database_code_depnum_ccdc_archive 'CCDC 1309485'
_chemical_formula_sum 'C13 H14 N3 O7'
_chemical_formula_moiety
;
C13 H14 N3 O7
;
_journal_coden_Cambridge 3
_journal_volume 49
_journal_year 1995
_journal_page_first 389
_journal_name_full 'Acta Chem.Scand. '
loop_
_publ_author_name
"C.P.Butts"
"L.Eberson"
"M.P.Hartshorn"
"W.T.Robinson"
_chemical_name_systematic
;
1,6-Dimethyl-10,13-dinitro-8-hydroxy-11-aza-12-oxa-tricyclo(7.3.1.0^2,7^)tride
ca-2,4,6-trien-11-one
;
_chemical_melting_point 430.15
_cell_volume   2658.176
_exptl_crystal_colour 'colorless'
_exptl_special_details
;
Melts with decomposition.

;
_diffrn_ambient_temperature 130
#These two values have been output from a single CSD field.
_refine_ls_R_factor_gt 0.0368
_refine_ls_wR_factor_gt 0.0368
_symmetry_cell_setting orthorhombic
_symmetry_space_group_name_H-M 'P b c a'
_symmetry_Int_Tables_number 61
loop_
_symmetry_equiv_pos_site_id
_symmetry_equiv_pos_as_xyz
1 x,y,z
2 1/2-x,-y,1/2+z
3 1/2+x,1/2-y,-z
4 -x,1/2+y,1/2-z
5 -x,-y,-z
6 -1/2+x,y,-1/2-z
7 -1/2-x,-1/2+y,z
8 x,-1/2-y,-1/2+z
_cell_length_a 13.119(2)
_cell_length_b 9.269(4)
_cell_length_c 21.86(1)
_cell_angle_alpha 90
_cell_angle_beta 90
_cell_angle_gamma 90
_cell_formula_units_Z 8
loop_
_atom_type_symbol
_atom_type_radius_bond
C 0.68
H 0.23
N 0.68
O 0.68
loop_
_atom_site_label
_atom_site_type_symbol
_atom_site_fract_x
_atom_site_fract_y
_atom_site_fract_z
O1 O 0.5880(2) 0.5933(3) 0.6843(1)
O2 O 0.7323(2) 0.2388(3) 0.6465(1)
O3 O 0.6790(2) 0.0537(3) 0.5939(1)
O4 O 0.3849(2) 0.1857(3) 0.6269(1)
O5 O 0.4847(2) 0.0470(3) 0.5730(1)
O6 O 0.4961(2) 0.4380(3) 0.7985(1)
O7 O 0.3747(2) 0.5404(3) 0.7474(1)
C1 C 0.3762(3) 0.4464(4) 0.6117(2)
N1 N 0.6635(3) 0.1638(4) 0.6229(2)
N2 N 0.4851(2) 0.1478(3) 0.6090(1)
N3 N 0.4383(2) 0.4461(3) 0.7546(2)
C2 C 0.4676(3) 0.5213(4) 0.6042(2)
C3 C 0.5629(3) 0.4841(4) 0.6407(2)
C4 C 0.5516(3) 0.3419(4) 0.6763(2)
C5 C 0.4487(3) 0.3280(4) 0.7074(2)
C6 C 0.3672(3) 0.3258(4) 0.6583(2)
C7 C 0.2922(3) 0.4807(4) 0.5758(2)
C8 C 0.2980(3) 0.5914(4) 0.5339(2)
C9 C 0.3877(3) 0.6677(4) 0.5271(2)
C10 C 0.4735(3) 0.6342(4) 0.5612(2)
C11 C 0.5625(3) 0.2169(4) 0.6342(2)
C12 C 0.2605(3) 0.3017(4) 0.6839(2)
C13 C 0.5703(3) 0.7189(4) 0.5515(2)
H1 H 0.5649(2) 0.6709(3) 0.6729(1)
H2 H 0.6200(3) 0.4742(4) 0.6121(2)
H3 H 0.6053(3) 0.3367(4) 0.7074(2)
H4 H 0.4469(3) 0.2352(4) 0.7289(2)
H5 H 0.2320(3) 0.4289(4) 0.5801(2)
H6 H 0.2415(3) 0.6147(4) 0.5102(2)
H7 H 0.3906(3) 0.7433(4) 0.4992(2)
H8 H 0.2336(3) 0.3916(4) 0.6986(2)
H9 H 0.2636(3) 0.2338(4) 0.7170(2)
H10 H 0.2170(3) 0.2645(4) 0.6523(2)
H11 H 0.6258(3) 0.6534(4) 0.5446(2)
H12 H 0.5842(3) 0.7762(4) 0.5872(2)
H13 H 0.5626(3) 0.7809(4) 0.5167(2)
#END
