
#######################################################################
#
#                 Cambridge Crystallographic Data Centre
#                                CCDC
#
#######################################################################
#
# If this CIF has been generated from an entry in the Cambridge
# Structural Database, then it will include bibliographic, chemical,
# crystal, experimental, refinement or atomic coordinate data resulting
# from the CCDC's data processing and validation procedures.
#
#######################################################################

data_CSD_CIF_ZATNIR
_audit_creation_date 1996-04-11
_audit_creation_method CSD-ConQuest-V1
_database_code_CSD ZATNIR
_chemical_formula_sum 'C12 H15 N1 O3'
_chemical_formula_moiety
;
C12 H15 N1 O3
;
_journal_coden_Cambridge 1088
_journal_year 1995
_journal_page_first 617
_journal_name_full 'Synlett '
loop_
_publ_author_name
"I.A.O'Neil"
"N.D.Miller"
"J.V.Barkley"
"C.M.R.Low"
"S.B.Kalindjian"
_chemical_name_systematic
;
1-Benzyl-(1R)-oxide-(2S)-proline
;
_cell_volume   1161.045
_exptl_crystal_density_diffrn 1.253
_diffrn_ambient_temperature ?
_diffrn_special_details
;
The study was carried out at room temperature,in the range 283-303K

;
#These two values have been output from a single CSD field.
_refine_ls_R_factor_gt 0.037
_refine_ls_wR_factor_gt 0.037
_symmetry_cell_setting orthorhombic
_symmetry_space_group_name_H-M 'P 21 21 21'
_symmetry_Int_Tables_number 19
loop_
_symmetry_equiv_pos_site_id
_symmetry_equiv_pos_as_xyz
1 x,y,z
2 1/2-x,-y,1/2+z
3 1/2+x,1/2-y,-z
4 -x,1/2+y,1/2-z
_cell_length_a 8.673(5)
_cell_length_b 20.463(4)
_cell_length_c 6.542(3)
_cell_angle_alpha 90
_cell_angle_beta 90
_cell_angle_gamma 90
_cell_formula_units_Z 4
loop_
_atom_type_symbol
_atom_type_radius_bond
C 0.68
H 0.23
N 0.68
O 0.68
loop_
_atom_site_label
_atom_site_type_symbol
_atom_site_fract_x
_atom_site_fract_y
_atom_site_fract_z
O1 O 0.0793(2) 0.0768(1) 0.6117(3)
O2 O -0.0435(3) -0.0234(1) 0.7383(4)
O3 O -0.1870(3) -0.0842(1) 0.5312(4)
N1 N -0.0360(3) 0.0796(1) 0.4590(4)
C1 C 0.0370(4) 0.1081(2) 0.2721(5)
C2 C 0.1324(4) 0.0537(2) 0.1863(5)
C3 C 0.0537(4) -0.0096(2) 0.2513(5)
C4 C -0.0769(3) 0.0103(1) 0.3921(5)
C5 C -0.1063(4) -0.0370(2) 0.5676(5)
C6 C -0.1713(4) 0.1173(2) 0.5377(5)
C7 C -0.1371(4) 0.1879(2) 0.5777(7)
C8 C -0.0812(5) 0.2082(2) 0.7623(7)
C9 C -0.0484(6) 0.2739(3) 0.7963(8)
C10 C -0.0718(6) 0.3182(2) 0.646(1)
C11 C -0.1309(6) 0.2993(2) 0.466(1)
C12 C -0.1642(5) 0.2338(2) 0.4279(7)
H1 H -0.03840 0.12250 0.17800
H2 H 0.09930 0.14570 0.30800
H3 H 0.13980 0.05570 0.04220
H4 H 0.23510 0.05450 0.24200
H5 H 0.02050 -0.03340 0.13260
H6 H 0.12710 -0.03820 0.32130
H7 H -0.16790 0.01250 0.31190
H8 H -0.25260 0.11480 0.43140
H9 H -0.21260 0.09700 0.65550
H10 H -0.06890 0.17530 0.87240
H11 H -0.00150 0.28740 0.93250
H12 H -0.04620 0.36380 0.66500
H13 H -0.15010 0.33200 0.35880
H14 H -0.20690 0.21960 0.29370
H15 H 0.03370 0.03150 0.70050
#END
