
#######################################################################
#
#                 Cambridge Crystallographic Data Centre
#                                CCDC
#
#######################################################################
#
# If this CIF has been generated from an entry in the Cambridge
# Structural Database, then it will include bibliographic, chemical,
# crystal, experimental, refinement or atomic coordinate data resulting
# from the CCDC's data processing and validation procedures.
#
#######################################################################

data_CSD_CIF_ZATNOX
_audit_creation_date 1996-04-12
_audit_creation_method CSD-ConQuest-V1
_database_code_CSD ZATNOX
_chemical_formula_sum 'C11 H21 N3 O3'
_chemical_formula_moiety
;
C11 H21 N3 O3
;
_journal_coden_Cambridge 1088
_journal_year 1995
_journal_page_first 619
_journal_name_full 'Synlett '
loop_
_publ_author_name
"I.A.O'Neil"
"N.D.Miller"
"J.V.Barkley"
"C.M.R.Low"
"S.B.Kalindjian"
_chemical_name_systematic
;
1-Acetamide-(1R)-oxide-(2S)-proline t-butyl amide
;
_chemical_melting_point 427.15
_cell_volume   1305.446
_exptl_crystal_density_diffrn 1.253
_exptl_special_details
;
Melting point range 427.15-429.15K

;
_diffrn_ambient_temperature ?
_diffrn_special_details
;
The study was carried out at room temperature,in the range 283-303K

;
#These two values have been output from a single CSD field.
_refine_ls_R_factor_gt 0.045
_refine_ls_wR_factor_gt 0.045
_symmetry_cell_setting orthorhombic
_symmetry_space_group_name_H-M 'P 21 21 21'
_symmetry_Int_Tables_number 19
loop_
_symmetry_equiv_pos_site_id
_symmetry_equiv_pos_as_xyz
1 x,y,z
2 1/2-x,-y,1/2+z
3 1/2+x,1/2-y,-z
4 -x,1/2+y,1/2-z
_cell_length_a 10.094(7)
_cell_length_b 22.606(3)
_cell_length_c 5.721(2)
_cell_angle_alpha 90
_cell_angle_beta 90
_cell_angle_gamma 90
_cell_formula_units_Z 4
loop_
_atom_type_symbol
_atom_type_radius_bond
C 0.68
H 0.23
N 0.68
O 0.68
loop_
_atom_site_label
_atom_site_type_symbol
_atom_site_fract_x
_atom_site_fract_y
_atom_site_fract_z
O1 O 0.0655(3) 0.8934(1) 0.1037(5)
O2 O 0.3038(3) 0.7819(1) 0.5101(6)
O3 O -0.1961(3) 0.9407(1) 0.6435(6)
N1 N 0.0103(3) 0.8528(1) 0.2610(6)
N2 N 0.2884(3) 0.8719(1) 0.3300(6)
N3 N -0.1349(4) 0.9617(2) 0.2719(8)
C1 C -0.1051(4) 0.8220(2) 0.1446(8)
C2 C -0.0446(4) 0.7702(2) 0.0100(8)
C3 C 0.1006(4) 0.7684(2) 0.0784(8)
C4 C 0.1065(4) 0.8020(2) 0.3067(7)
C5 C 0.2437(4) 0.8189(2) 0.3926(8)
C6 C -0.0280(4) 0.8818(2) 0.4856(8)
C7 C -0.1285(4) 0.9315(2) 0.469(1)
C8 C 0.4124(5) 0.8997(2) 0.4101(8)
C9 C 0.4136(7) 0.9028(2) 0.6750(9)
C10 C 0.4116(6) 0.9618(2) 0.310(1)
C11 C 0.5313(5) 0.8657(3) 0.319(1)
H1 H -0.14880 0.84940 0.03820
H2 H -0.16870 0.80980 0.25670
H3 H -0.05600 0.77440 -0.15630
H4 H -0.08960 0.73330 0.05260
H5 H 0.15570 0.78600 -0.03860
H6 H 0.13190 0.72760 0.09800
H7 H 0.06760 0.77780 0.42850
H8 H 0.05130 0.89610 0.55920
H9 H -0.06380 0.85130 0.58810
H10 H 0.49460 0.91960 0.73230
H11 H 0.40670 0.86340 0.74150
H12 H 0.34150 0.92550 0.73300
H13 H 0.48940 0.98300 0.35030
H14 H 0.33580 0.98330 0.36340
H15 H 0.40640 0.96070 0.13980
H16 H 0.52980 0.82670 0.36720
H17 H 0.61120 0.88490 0.36720
H18 H 0.53060 0.86700 0.14750
H19 H 0.22160 0.89410 0.21070
H20 H -0.05730 0.95510 0.13760
H21 H -0.20210 1.00300 0.23620
#END
