
#######################################################################
#
#                 Cambridge Crystallographic Data Centre
#                                CCDC
#
#######################################################################
#
# If this CIF has been generated from an entry in the Cambridge
# Structural Database, then it will include bibliographic, chemical,
# crystal, experimental, refinement or atomic coordinate data resulting
# from the CCDC's data processing and validation procedures.
#
#######################################################################

data_CSD_CIF_ZAVJIS
_audit_creation_date 2017-07-04
_audit_creation_method CSD-ConQuest-V1
_database_code_CSD ZAVJIS
_database_code_depnum_ccdc_archive 'CCDC 1522951'
_chemical_formula_sum 'C21 H16 N4 O2'
_chemical_formula_moiety
;
C21 H16 N4 O2
;
_journal_coden_Cambridge 16
_journal_volume 73
_journal_year 2017
_journal_page_first 5072
_journal_name_full 'Tetrahedron '
loop_
_publ_author_name
"A.Danel"
"K.Wojtasik"
"P.Szlachcic"
"M.Gryl"
"K.Stadnicka"
_chemical_name_systematic
;
N-(2-nitrophenyl)-1,3-diphenyl-1H-pyrazol-5-amine
;
_cell_volume   1683.646
_exptl_crystal_colour 'red'
_exptl_crystal_density_diffrn 1.406
_exptl_crystal_description 'plate'
_diffrn_ambient_temperature 120
#These two values have been output from a single CSD field.
_refine_ls_R_factor_gt 0.0317
_refine_ls_wR_factor_gt 0.0317
_symmetry_cell_setting orthorhombic
_symmetry_space_group_name_H-M 'P 21 21 21'
_symmetry_Int_Tables_number 19
loop_
_symmetry_equiv_pos_site_id
_symmetry_equiv_pos_as_xyz
1 x,y,z
2 1/2-x,-y,1/2+z
3 1/2+x,1/2-y,-z
4 -x,1/2+y,1/2-z
_cell_length_a 5.5230(1)
_cell_length_b 10.2091(2)
_cell_length_c 29.8599(5)
_cell_angle_alpha 90
_cell_angle_beta 90
_cell_angle_gamma 90
_cell_formula_units_Z 4
loop_
_atom_type_symbol
_atom_type_radius_bond
C 0.68
H 0.23
N 0.68
O 0.68
loop_
_atom_site_label
_atom_site_type_symbol
_atom_site_fract_x
_atom_site_fract_y
_atom_site_fract_z
N1 N 0.2143(3) -0.03766(16) 0.12638(5)
N2 N 0.3988(3) -0.06073(15) 0.15598(5)
C1 C 0.4039(4) 0.04527(17) 0.18191(6)
C2 C 0.2258(4) 0.13676(17) 0.16946(6)
H1 H 0.19470 0.21960 0.18280
C3 C 0.1064(4) 0.08077(17) 0.13390(6)
C4 C 0.1344(4) -0.14392(18) 0.09835(6)
C5 C -0.0864(4) -0.2033(2) 0.10716(6)
H2 H -0.19150 -0.16890 0.12940
C6 C -0.1516(4) -0.3142(2) 0.08283(7)
H3 H -0.30170 -0.35620 0.08870
C7 C 0.0004(4) -0.36366(19) 0.05015(7)
H4 H -0.04370 -0.44040 0.03410
C8 C 0.2172(4) -0.3009(2) 0.04089(7)
H5 H 0.31990 -0.33380 0.01800
C9 C 0.2857(4) -0.19001(19) 0.06489(6)
H6 H 0.43390 -0.14670 0.05840
C10 C 0.5812(4) 0.05402(17) 0.21890(6)
C11 C 0.7643(4) -0.03858(19) 0.22400(6)
H7 H 0.77480 -0.10970 0.20360
C12 C 0.9315(4) -0.0286(2) 0.25848(6)
H8 H 1.05680 -0.09190 0.26120
C13 C 0.9161(4) 0.0738(2) 0.28898(7)
H9 H 1.03020 0.08050 0.31270
C14 C 0.7343(4) 0.1657(2) 0.28467(7)
H10 H 0.72300 0.23580 0.30550
C15 C 0.5671(4) 0.15610(19) 0.24983(7)
H11 H 0.44240 0.21970 0.24710
N3 N -0.0768(3) 0.11734(15) 0.10467(5)
H12 H -0.091(5) 0.0683(19) 0.0802(5)
C16 C -0.2425(4) 0.21710(17) 0.10812(6)
C17 C -0.2466(4) 0.30409(19) 0.14488(6)
H13 H -0.12960 0.29460 0.16800
C18 C -0.4164(4) 0.40228(19) 0.14797(6)
H14 H -0.41580 0.45800 0.17350
C19 C -0.5890(4) 0.42202(19) 0.11467(7)
H15 H -0.70280 0.49150 0.11690
C20 C -0.5914(4) 0.33905(19) 0.07849(6)
H16 H -0.70850 0.35100 0.05550
C21 C -0.4235(4) 0.23733(18) 0.07511(6)
N4 N -0.4483(3) 0.15217(16) 0.03664(5)
O1 O -0.3020(3) 0.06030(14) 0.03120(5)
O2 O -0.6134(3) 0.17094(16) 0.00997(5)
#END
