
#######################################################################
#
#                 Cambridge Crystallographic Data Centre
#                                CCDC
#
#######################################################################
#
# If this CIF has been generated from an entry in the Cambridge
# Structural Database, then it will include bibliographic, chemical,
# crystal, experimental, refinement or atomic coordinate data resulting
# from the CCDC's data processing and validation procedures.
#
#######################################################################

data_CSD_CIF_ZAWNOD
_audit_creation_date 2017-07-04
_audit_creation_method CSD-ConQuest-V1
_database_code_CSD ZAWNOD
_database_code_depnum_ccdc_archive 'CCDC 1528950'
_chemical_formula_sum 'C32 H32 N4 O6'
_chemical_formula_moiety
;
C32 H32 N4 O6
;
_journal_coden_Cambridge 1220
_journal_volume 23
_journal_year 2017
_journal_page_first 6286
_journal_name_full 'Chem.-Eur.J. '
loop_
_publ_author_name
"Gu Zhan"
"Ming-Lin Shi"
"Wei-Jia Lin"
"Qin Ouyang"
"Wei Du"
"Ying-Chun Chen"
_chemical_name_systematic
;
t-butyl 
2'-hydroxy-5'-methyl-3'-(4-methylphenyl)-4'-(nitromethyl)-2-oxo-2',3',4',5'-te
trahydrospiro[indole-3,1'-pyrido[4,3-b]indole]-1(2H)-carboxylate
;
_cell_volume   3425.826
_exptl_crystal_colour 'yellow'
_exptl_crystal_density_diffrn 1.104
_exptl_special_details
;
The assignment of a hydrogen to the nitrogen with the hydroxy substituent 
appears to be incorrect; we have suppressed this hydrogen atom
;
_exptl_crystal_description 'plate'
_diffrn_ambient_temperature 110
#These two values have been output from a single CSD field.
_refine_ls_R_factor_gt 0.0626
_refine_ls_wR_factor_gt 0.0626
_symmetry_cell_setting monoclinic
_symmetry_space_group_name_H-M 'P 21/c'
_symmetry_Int_Tables_number 14
loop_
_symmetry_equiv_pos_site_id
_symmetry_equiv_pos_as_xyz
1 x,y,z
2 -x,1/2+y,1/2-z
3 -x,-y,-z
4 x,-1/2-y,-1/2+z
_cell_length_a 12.3654(3)
_cell_length_b 10.6094(2)
_cell_length_c 26.4117(5)
_cell_angle_alpha 90
_cell_angle_beta 98.6169(19)
_cell_angle_gamma 90
_cell_formula_units_Z 4
loop_
_atom_type_symbol
_atom_type_radius_bond
C 0.68
H 0.23
N 0.68
O 0.68
loop_
_atom_site_label
_atom_site_type_symbol
_atom_site_fract_x
_atom_site_fract_y
_atom_site_fract_z
O1 O 0.30749(10) 0.52467(12) 0.72345(5)
H1 H 0.32190 0.47980 0.74980
O2 O 0.33609(11) 0.70244(12) 0.62503(5)
O3 O 0.49188(13) 0.87049(12) 0.62537(5)
O4 O 0.62931(12) 0.86026(12) 0.69210(5)
N1 N 0.31832(11) 0.44983(13) 0.67853(5)
N2 N 0.35160(12) 0.35690(13) 0.53197(5)
N3 N 0.51196(12) 0.69490(13) 0.67198(5)
C1 C 0.46345(14) 0.35780(15) 0.53428(7)
C2 C 0.41442(13) 0.50096(14) 0.65870(6)
C3 C 0.32678(13) 0.40784(15) 0.57683(6)
C4 C 0.51592(13) 0.48723(15) 0.69748(6)
C5 C 0.42055(13) 0.43872(14) 0.60813(6)
C6 C 0.51080(13) 0.40823(14) 0.58219(6)
C7 C 0.57205(14) 0.60080(16) 0.70342(6)
C8 C 0.21386(13) 0.42561(19) 0.58871(7)
H2 H 0.17310 0.34430 0.58260
O5 O -0.01488(14) 0.4312(3) 0.55259(7)
C9 C 0.52674(16) 0.31615(17) 0.49806(7)
H3 H 0.49390 0.28320 0.46600
C10 C 0.55507(13) 0.38168(15) 0.72462(6)
H4 H 0.51570 0.30450 0.72090
C11 C 0.21181(13) 0.46798(17) 0.64531(6)
H5 H 0.19320 0.55970 0.64520
C12 C 0.55074(16) 0.81762(16) 0.66480(7)
C13 C 0.41068(14) 0.64502(15) 0.64881(6)
C14 C 0.62488(14) 0.41568(17) 0.59379(7)
H6 H 0.65870 0.44920 0.62560
C15 C 0.67105(15) 0.61126(18) 0.73575(7)
H7 H 0.71010 0.68860 0.73950
C16 C 0.12335(14) 0.39602(19) 0.66723(7)
C17 C 0.63858(17) 0.32469(18) 0.51068(8)
H8 H 0.68370 0.29700 0.48680
C18 C 0.65349(14) 0.39059(17) 0.75763(7)
H9 H 0.68170 0.31920 0.77700
C19 C 0.68757(16) 0.37321(19) 0.55791(8)
H10 H 0.76510 0.37710 0.56550
C20 C 0.71051(15) 0.50353(19) 0.76237(7)
H11 H 0.77850 0.50750 0.78440
C21 C 0.03071(16) 0.4571(2) 0.67802(8)
H12 H 0.02630 0.54640 0.67590
C22 C 0.27513(17) 0.3040(2) 0.48995(7)
H13 H 0.26560 0.36320 0.46110
H14 H 0.20440 0.28930 0.50140
H15 H 0.30400 0.22410 0.47910
O6 O -0.00661(18) 0.6308(3) 0.56373(9)
C23 C 0.5096(2) 1.00365(17) 0.61010(8)
C24 C 0.12964(14) 0.2664(2) 0.67319(8)
H16 H 0.19380 0.22320 0.66720
C25 C 0.15494(15) 0.5270(2) 0.55325(8)
H17 H 0.18780 0.61040 0.56270
H18 H 0.16460 0.50890 0.51740
N4 N 0.03528(16) 0.5306(3) 0.55716(7)
C26 C 0.04355(16) 0.1991(2) 0.68778(9)
H19 H 0.04960 0.11030 0.69180
C27 C -0.05157(16) 0.2592(2) 0.69661(9)
C28 C 0.5003(3) 1.0912(2) 0.65388(9)
H20 H 0.43160 1.07480 0.66700
H21 H 0.50120 1.17860 0.64200
H22 H 0.56200 1.07720 0.68120
C29 C -0.05640(17) 0.3884(2) 0.69205(10)
H23 H -0.12020 0.43160 0.69860
C30 C 0.6182(3) 1.0134(2) 0.59244(11)
H24 H 0.67600 0.99280 0.62080
H25 H 0.62880 1.09960 0.58070
H26 H 0.62120 0.95440 0.56420
C31 C 0.4171(3) 1.0207(2) 0.56632(11)
H27 H 0.42400 0.95840 0.53960
H28 H 0.42040 1.10580 0.55210
H29 H 0.34710 1.00920 0.57880
C32 C -0.1467(2) 0.1837(3) 0.70990(14)
H30 H -0.13850 0.09540 0.70030
H31 H -0.21510 0.21740 0.69120
H32 H -0.14850 0.18940 0.74680
H33? H 0.32970 0.35900 0.68790
#END
