
#######################################################################
#
#                 Cambridge Crystallographic Data Centre
#                                CCDC
#
#######################################################################
#
# If this CIF has been generated from an entry in the Cambridge
# Structural Database, then it will include bibliographic, chemical,
# crystal, experimental, refinement or atomic coordinate data resulting
# from the CCDC's data processing and validation procedures.
#
#######################################################################

data_CSD_CIF_ZAYGIS
_audit_creation_date 2017-07-05
_audit_creation_method CSD-ConQuest-V1
_database_code_CSD ZAYGIS
_database_code_depnum_ccdc_archive 'CCDC 1538331'
_chemical_formula_sum 'C5 H6 N4 O10'
_chemical_formula_moiety
;
C5 H6 N4 O10
;
_journal_coden_Cambridge 1291
_journal_year 2017
_journal_page_first 3666
_journal_name_full 'Eur.J.Org.Chem. '
loop_
_publ_author_name
"T.M.Klapotke"
"B.Krumm"
"T.Reith"
_chemical_name_systematic
;
3-Nitro-4,4-bis(nitrooxymethyl)oxazolidone
;
_chemical_name_common
;
(3-nitro-2-oxo-1,3-oxazolidine-4,4-diyl)bis(methylene) dinitrate
;
_cell_volume   1002.420
_exptl_crystal_colour 'colorless'
_exptl_crystal_density_diffrn 1.869
_exptl_crystal_description 'block'
_diffrn_ambient_temperature 173
#These two values have been output from a single CSD field.
_refine_ls_R_factor_gt 0.0476
_refine_ls_wR_factor_gt 0.0476
_symmetry_cell_setting monoclinic
_symmetry_space_group_name_H-M 'P 21/c'
_symmetry_Int_Tables_number 14
loop_
_symmetry_equiv_pos_site_id
_symmetry_equiv_pos_as_xyz
1 x,y,z
2 -x,1/2+y,1/2-z
3 -x,-y,-z
4 x,-1/2-y,-1/2+z
_cell_length_a 10.8221(10)
_cell_length_b 6.8962(5)
_cell_length_c 13.9313(11)
_cell_angle_alpha 90
_cell_angle_beta 105.392(8)
_cell_angle_gamma 90
_cell_formula_units_Z 4
loop_
_atom_type_symbol
_atom_type_radius_bond
C 0.68
H 0.23
N 0.68
O 0.68
loop_
_atom_site_label
_atom_site_type_symbol
_atom_site_fract_x
_atom_site_fract_y
_atom_site_fract_z
O1 O 0.35236(19) -0.2266(3) 0.47165(14)
O2 O 0.37730(18) 0.0673(3) 0.52839(13)
O3 O 0.16160(18) -0.2675(3) 0.30697(14)
O4 O 0.12308(17) 0.0151(2) 0.22630(13)
O5 O 0.44078(16) 0.2662(2) 0.32078(14)
O6 O 0.6234(2) 0.2932(3) 0.28624(17)
O7 O 0.56741(19) 0.5248(3) 0.37181(15)
O8 O 0.04418(17) 0.1715(3) 0.39202(14)
O9 O -0.0154(2) 0.3101(3) 0.5166(2)
O10 O -0.1325(2) 0.0862(3) 0.42535(17)
N1 N 0.26882(19) 0.0193(3) 0.37186(15)
N2 N 0.3363(2) -0.0538(3) 0.46424(16)
N3 N -0.0420(3) 0.1936(4) 0.4496(2)
N4 N 0.5531(2) 0.3732(4) 0.32733(18)
C1 C 0.2399(2) 0.2258(3) 0.35433(19)
C2 C 0.1827(2) -0.0998(4) 0.30246(19)
C3 C 0.1700(3) 0.2115(4) 0.2430(2)
C4 C 0.3574(3) 0.3581(4) 0.3724(2)
C5 C 0.1533(3) 0.2999(4) 0.4169(2)
H1 H 0.130(3) 0.417(4) 0.399(2)
H2 H 0.108(3) 0.290(4) 0.227(2)
H3 H 0.402(2) 0.365(3) 0.442(2)
H4 H 0.330(2) 0.485(4) 0.3443(19)
H5 H 0.198(3) 0.292(3) 0.489(2)
H6 H 0.231(3) 0.237(3) 0.205(2)
#END
