
#######################################################################
#
#                 Cambridge Crystallographic Data Centre
#                                CCDC
#
#######################################################################
#
# If this CIF has been generated from an entry in the Cambridge
# Structural Database, then it will include bibliographic, chemical,
# crystal, experimental, refinement or atomic coordinate data resulting
# from the CCDC's data processing and validation procedures.
#
#######################################################################

data_CSD_CIF_ZAZVED
_audit_creation_date 2013-01-17
_audit_creation_method CSD-ConQuest-V1
_database_code_CSD ZAZVED
_database_code_depnum_ccdc_archive 'CCDC 868893'
_chemical_formula_sum 'C16 H17 N1 O3'
_chemical_formula_moiety
;
C16 H17 N1 O3
;
_journal_coden_Cambridge 692
_journal_volume 44
_journal_year 2012
_journal_page_first 2413
_journal_name_full 'Synthesis '
loop_
_publ_author_name
"T.Kukosha"
"N.Trufilkina"
"S.Belyakov"
"M.Katkevics"
_chemical_name_systematic
;
N-Methoxy-N-(3-methoxyphenyl)-2-phenylacetamide
;
_cell_volume   1422.337
_exptl_crystal_colour 'colorless'
_exptl_crystal_density_diffrn 1.267
_exptl_crystal_description 'prism'
_diffrn_ambient_temperature 173
#These two values have been output from a single CSD field.
_refine_ls_R_factor_gt 0.055
_refine_ls_wR_factor_gt 0.055
_symmetry_cell_setting monoclinic
_symmetry_space_group_name_H-M 'P 21/n'
_symmetry_Int_Tables_number 14
loop_
_symmetry_equiv_pos_site_id
_symmetry_equiv_pos_as_xyz
1 x,y,z
2 1/2-x,1/2+y,1/2-z
3 -x,-y,-z
4 -1/2+x,-1/2-y,-1/2+z
_cell_length_a 9.4803(2)
_cell_length_b 10.1234(3)
_cell_length_c 15.1953(4)
_cell_angle_alpha 90
_cell_angle_beta 102.7571(10)
_cell_angle_gamma 90
_cell_formula_units_Z 4
loop_
_atom_type_symbol
_atom_type_radius_bond
C 0.68
H 0.23
N 0.68
O 0.68
loop_
_atom_site_label
_atom_site_type_symbol
_atom_site_fract_x
_atom_site_fract_y
_atom_site_fract_z
O1 O 1.28520(12) -0.14236(12) 0.36404(9)
O2 O 0.71940(13) -0.25260(11) 0.11606(9)
O3 O 0.94166(13) 0.02092(13) 0.12442(11)
N1 N 0.83836(14) -0.17122(13) 0.14957(10)
C1 C 0.96121(17) -0.23571(16) 0.20389(11)
C2 C 1.06837(17) -0.16136(15) 0.25901(11)
C3 C 1.20014(18) -0.36204(17) 0.31058(11)
C4 C 0.69093(16) 0.13483(16) 0.02540(11)
C5 C 0.96982(17) -0.37349(17) 0.20300(11)
C6 C 1.08973(18) -0.43379(16) 0.25658(12)
C7 C 1.18772(17) -0.22523(16) 0.31219(11)
C8 C 0.69368(17) -0.00965(17) 0.04768(12)
C9 C 0.83608(17) -0.04950(16) 0.11001(12)
C10 C 0.62458(19) 0.22392(18) 0.07328(12)
C11 C 0.75533(18) 0.18384(17) -0.04214(12)
C12 C 1.4114(2) -0.1972(2) 0.42094(14)
C13 C 0.6325(2) -0.2662(2) 0.18219(17)
C14 C 0.6255(2) 0.35839(19) 0.05605(14)
C15 C 0.69033(19) 0.40549(17) -0.01060(13)
C16 C 0.75427(18) 0.31846(18) -0.05969(13)
H1 H 1.10112 -0.52639 0.25188
H2 H 1.07097 -0.06146 0.26441
H3 H 0.89702 -0.43079 0.16240
H4 H 0.79566 0.36506 -0.10629
H5 H 1.28326 -0.40696 0.34523
H6 H 0.69175 0.49626 -0.02097
H7 H 0.56914 0.42223 0.08964
H8 H 1.46975 -0.12766 0.45319
H9 H 1.46571 -0.24382 0.38444
H10 H 1.38404 -0.25721 0.46316
H11 H 0.62259 -0.02769 0.08090
H12 H 0.68630 -0.06247 -0.00278
H13 H 0.80025 0.12423 -0.07679
H14 H 0.57759 0.19246 0.11910
H15 H 0.55096 -0.32198 0.15894
H16 H 0.59919 -0.18062 0.19581
H17 H 0.68986 -0.30465 0.23611
#END
