
#######################################################################
#
#                 Cambridge Crystallographic Data Centre
#                                CCDC
#
#######################################################################
#
# If this CIF has been generated from an entry in the Cambridge
# Structural Database, then it will include bibliographic, chemical,
# crystal, experimental, refinement or atomic coordinate data resulting
# from the CCDC's data processing and validation procedures.
#
#######################################################################

data_CSD_CIF_ZEBBEQ
_audit_creation_date 2017-07-06
_audit_creation_method CSD-ConQuest-V1
_database_code_CSD ZEBBEQ
_database_code_depnum_ccdc_archive 'CCDC 788554'
_chemical_formula_sum 'C14 H12 N2 O5'
_chemical_formula_moiety
;
C14 H12 N2 O5
;
_journal_coden_Cambridge 1003
_journal_volume 47
_journal_year 2017
_journal_page_first 80
_journal_name_full 'J.Chem.Cryst. '
loop_
_publ_author_name
"W.E.Noland"
"G.C.Gullickson"
"Henrik van Lengerich"
"P.J.Erdman"
"K.J.Tritch"
_chemical_name_systematic
;
rac-(3R)-1-[(S)-hydroxy(2-nitrophenyl)methyl]-1,3-dihydro-2,1-benzisoxazol-3-o
l
;
_chemical_name_common
;
1-[hydroxy(2-nitrophenyl)methyl]-1,3-dihydro-2,1-benzoxazol-3-ol; 
agnotobenzaldehyde
;
_chemical_melting_point 372
_cell_volume   2660.939
_exptl_crystal_colour 'colorless'
_exptl_crystal_density_diffrn 1.439
_exptl_special_details
;
light-sensitive

;
_exptl_crystal_description 'needle'
_exptl_crystal_preparation 'ethyl acetate/hexane'
_diffrn_ambient_temperature 173
#These two values have been output from a single CSD field.
_refine_ls_R_factor_gt 0.0363
_refine_ls_wR_factor_gt 0.0363
_symmetry_cell_setting orthorhombic
_symmetry_space_group_name_H-M 'P b c a'
_symmetry_Int_Tables_number 61
loop_
_symmetry_equiv_pos_site_id
_symmetry_equiv_pos_as_xyz
1 x,y,z
2 1/2-x,-y,1/2+z
3 -x,1/2+y,1/2-z
4 1/2+x,1/2-y,-z
5 -x,-y,-z
6 -1/2+x,y,-1/2-z
7 x,-1/2-y,-1/2+z
8 -1/2-x,-1/2+y,z
_cell_length_a 13.8066(14)
_cell_length_b 8.4412(9)
_cell_length_c 22.832(2)
_cell_angle_alpha 90
_cell_angle_beta 90
_cell_angle_gamma 90
_cell_formula_units_Z 8
loop_
_atom_type_symbol
_atom_type_radius_bond
C 0.68
H 0.23
N 0.68
O 0.68
loop_
_atom_site_label
_atom_site_type_symbol
_atom_site_fract_x
_atom_site_fract_y
_atom_site_fract_z
O1 O 0.38127(10) 0.16279(15) 0.36935(6)
O2 O 0.21962(10) 0.24591(18) 0.36308(6)
H1 H 0.1917(16) 0.164(3) 0.3829(10)
O3 O 0.34039(10) 0.47039(17) 0.41614(6)
H2 H 0.2985(16) 0.400(3) 0.4097(9)
O4 O 0.63730(11) 0.3883(2) 0.40139(7)
O5 O 0.68902(11) 0.1541(2) 0.42317(7)
N1 N 0.44611(11) 0.29858(18) 0.36091(7)
N2 N 0.63219(12) 0.2644(2) 0.42936(8)
C1 C 0.29817(14) 0.1789(2) 0.33207(8)
H3 H 0.27980 0.07490 0.31430
C2 C 0.33156(14) 0.2927(2) 0.28628(8)
C3 C 0.29016(16) 0.3384(2) 0.23350(8)
H4 H 0.23290 0.28900 0.21940
C4 C 0.33472(17) 0.4578(3) 0.20198(9)
H5 H 0.30770 0.49120 0.16580
C5 C 0.41805(17) 0.5290(3) 0.22260(9)
H6 H 0.44730 0.61070 0.20010
C6 C 0.46032(16) 0.4844(3) 0.27531(9)
H7 H 0.51760 0.53380 0.28940
C7 C 0.41494(14) 0.3643(2) 0.30640(8)
C8 C 0.43469(14) 0.4059(2) 0.41106(8)
H8 H 0.48060 0.49620 0.40540
C9 C 0.46509(14) 0.3191(2) 0.46648(8)
C10 C 0.55574(14) 0.2481(2) 0.47381(9)
C11 C 0.57945(16) 0.1610(3) 0.52306(10)
H9 H 0.64090 0.11070 0.52580
C12 C 0.51356(17) 0.1474(3) 0.56811(10)
H10 H 0.52960 0.08970 0.60250
C13 C 0.42429(17) 0.2183(2) 0.56284(9)
H11 H 0.37860 0.20980 0.59380
C14 C 0.40064(15) 0.3019(2) 0.51265(9)
H12 H 0.33830 0.34890 0.50970
#END
