
#######################################################################
#
#                 Cambridge Crystallographic Data Centre
#                                CCDC
#
#######################################################################
#
# If this CIF has been generated from an entry in the Cambridge
# Structural Database, then it will include bibliographic, chemical,
# crystal, experimental, refinement or atomic coordinate data resulting
# from the CCDC's data processing and validation procedures.
#
#######################################################################

data_CSD_CIF_ZECPIG
_audit_creation_date 1996-05-16
_audit_creation_method CSD-ConQuest-V1
_database_code_CSD ZECPIG
_chemical_formula_sum 'C31 H25 N1 O8'
_chemical_formula_moiety
;
C31 H25 N1 O8
;
_journal_coden_Cambridge 24
_journal_volume 36
_journal_year 1995
_journal_page_first 5295
_journal_name_full 'Tetrahedron Lett. '
loop_
_publ_author_name
"K.Matsumoto"
"Y.Ikemi"
"A.Kakehi"
"A.Shigihara"
"J.W.Lown"
_chemical_name_systematic
;
2-p-Nitrophenyl-4,6-diphenyl-1,7-bis(methoxycarbonyl)-10-oxatricyclo(5.2.0.1^2
,6^)dec-3-en-5-one
;
_cell_volume   2532.638
_exptl_crystal_colour 'white'
_exptl_crystal_density_diffrn 1.415
_diffrn_ambient_temperature ?
_diffrn_special_details
;
The study was carried out at room temperature,in the range 283-303K

;
#These two values have been output from a single CSD field.
_refine_ls_R_factor_gt 0.05
_refine_ls_wR_factor_gt 0.05
_symmetry_cell_setting monoclinic
_symmetry_space_group_name_H-M 'P 21/n'
_symmetry_Int_Tables_number 14
loop_
_symmetry_equiv_pos_site_id
_symmetry_equiv_pos_as_xyz
1 x,y,z
2 1/2-x,1/2+y,1/2-z
3 -x,-y,-z
4 -1/2+x,-1/2-y,-1/2+z
_cell_length_a 17.722(2)
_cell_length_b 18.308(3)
_cell_length_c 7.806(3)
_cell_angle_alpha 90
_cell_angle_beta 90.37(2)
_cell_angle_gamma 90
_cell_formula_units_Z 4
loop_
_atom_type_symbol
_atom_type_radius_bond
C 0.68
H 0.23
N 0.68
O 0.68
loop_
_atom_site_label
_atom_site_type_symbol
_atom_site_fract_x
_atom_site_fract_y
_atom_site_fract_z
O1 O 0.0583(2) 0.2316(2) 0.7969(4)
O2 O 0.1677(2) 0.2714(2) 1.1582(4)
O3 O -0.0924(3) 0.0057(3) 0.1965(6)
O4 O 0.0205(3) -0.0401(3) 0.1496(6)
O5 O 0.2605(2) 0.2322(2) 0.5151(5)
O6 O 0.2416(2) 0.3530(2) 0.4888(5)
O7 O 0.2586(2) 0.3473(2) 0.8725(5)
O8 O 0.1864(2) 0.4472(2) 0.8684(5)
N1 N -0.0232(4) 0.0055(3) 0.2138(7)
C1 C 0.0924(3) 0.2868(3) 0.9040(6)
C2 C 0.1540(3) 0.2486(3) 1.0151(7)
C3 C 0.1930(3) 0.1860(3) 0.9370(6)
C4 C 0.1753(3) 0.1696(3) 0.7739(7)
C5 C 0.1149(3) 0.2103(3) 0.6761(6)
C6 C 0.1432(3) 0.2853(3) 0.6111(6)
C7 C 0.0834(3) 0.3299(3) 0.5102(7)
C8 C 0.0747(4) 0.3838(3) 0.6591(7)
C9 C 0.1309(3) 0.3384(3) 0.7699(6)
C10 C 0.0320(3) 0.3185(3) 1.0168(6)
C11 C 0.0290(3) 0.3911(3) 1.0603(7)
C12 C -0.0266(4) 0.4177(4) 1.1683(7)
C13 C -0.0790(4) 0.3707(4) 1.2348(8)
C14 C -0.0761(4) 0.2978(4) 1.1953(8)
C15 C -0.0210(3) 0.2713(4) 1.0880(7)
C16 C 0.2513(3) 0.1447(3) 1.0332(6)
C17 C 0.3056(3) 0.1800(3) 1.1312(7)
C18 C 0.3608(4) 0.1412(4) 1.2172(8)
C19 C 0.3622(4) 0.0660(4) 1.2067(8)
C20 C 0.3095(3) 0.0301(3) 1.1099(8)
C21 C 0.2537(3) 0.0692(3) 1.0246(7)
C22 C 0.0771(3) 0.1625(3) 0.5425(6)
C23 C 0.1204(3) 0.1260(3) 0.4195(7)
C24 C 0.0875(4) 0.0773(4) 0.3093(8)
C25 C 0.0113(3) 0.0644(3) 0.3196(7)
C26 C -0.0344(4) 0.1031(4) 0.4305(8)
C27 C 0.0001(3) 0.1516(3) 0.5427(7)
C28 C 0.2212(3) 0.2849(3) 0.5346(6)
C29 C 0.3168(6) 0.3608(6) 0.418(2)
C30 C 0.2002(3) 0.3765(3) 0.8406(7)
C31 C 0.2471(5) 0.4890(4) 0.945(1)
H1 H 0.206(3) 0.129(3) 0.720(7)
H2 H 0.039(3) 0.302(2) 0.492(5)
H3 H 0.105(3) 0.351(3) 0.403(7)
H4 H 0.018(3) 0.393(3) 0.694(7)
H5 H 0.099(3) 0.430(3) 0.635(7)
H6 H 0.062(3) 0.426(3) 1.018(6)
H7 H -0.025(4) 0.472(4) 1.194(8)
H8 H -0.117(3) 0.393(3) 1.304(7)
H9 H -0.108(3) 0.269(3) 1.232(7)
H10 H -0.021(2) 0.225(2) 1.052(6)
H11 H 0.301(3) 0.234(3) 1.129(6)
H12 H 0.396(3) 0.171(3) 1.286(6)
H13 H 0.411(3) 0.039(3) 1.262(7)
H14 H 0.309(3) -0.026(3) 1.105(6)
H15 H 0.217(2) 0.045(2) 0.960(5)
H16 H 0.174(3) 0.133(2) 0.416(6)
H17 H 0.113(3) 0.046(3) 0.226(7)
H18 H -0.087(3) 0.095(3) 0.435(6)
H19 H -0.030(3) 0.177(3) 0.617(6)
H20 H 0.314(5) 0.353(5) 0.31(1)
H21 H 0.351(5) 0.337(5) 0.48(1)
H22 H 0.324(5) 0.409(5) 0.43(1)
H23 H 0.262(3) 0.461(3) 1.060(8)
H24 H 0.287(3) 0.488(3) 0.866(8)
H25 H 0.224(4) 0.539(4) 0.960(9)
#END
