
#######################################################################
#
#                 Cambridge Crystallographic Data Centre
#                                CCDC
#
#######################################################################
#
# If this CIF has been generated from an entry in the Cambridge
# Structural Database, then it will include bibliographic, chemical,
# crystal, experimental, refinement or atomic coordinate data resulting
# from the CCDC's data processing and validation procedures.
#
#######################################################################

data_CSD_CIF_ZEDLUS
_audit_creation_date 2017-07-07
_audit_creation_method CSD-ConQuest-V1
_database_code_CSD ZEDLUS
_database_code_depnum_ccdc_archive 'CCDC 1560913'
_chemical_formula_sum 'C18 H22 N4 O5'
_chemical_formula_moiety
;
C18 H22 N4 O5
;
_journal_coden_Cambridge 920
_journal_volume 12
_journal_year 2017
_journal_page_first 289
_journal_name_full 'Chem.Asian J. '
loop_
_publ_author_name
"Lei Guo"
"Yanyu Chen"
"Rong Zhang"
"Qiujun Peng"
"Lanting Xu"
"Xianhua Pan"
_chemical_name_systematic
;
methyl 3-{1-[bis(propan-2-yl)carbamoyl]-5-nitro-1H-indazol-7-yl}prop-2-enoate
;
_cell_volume    941.443
_exptl_crystal_density_diffrn 1.321
_diffrn_ambient_temperature 293
#These two values have been output from a single CSD field.
_refine_ls_R_factor_gt 0.0603
_refine_ls_wR_factor_gt 0.0603
_symmetry_cell_setting triclinic
_symmetry_space_group_name_H-M 'P -1'
_symmetry_Int_Tables_number 2
loop_
_symmetry_equiv_pos_site_id
_symmetry_equiv_pos_as_xyz
1 x,y,z
2 -x,-y,-z
_cell_length_a 7.5054(16)
_cell_length_b 7.5538(15)
_cell_length_c 16.847(3)
_cell_angle_alpha 97.046(5)
_cell_angle_beta 96.419(5)
_cell_angle_gamma 91.110(4)
_cell_formula_units_Z 2
loop_
_atom_type_symbol
_atom_type_radius_bond
C 0.68
H 0.23
N 0.68
O 0.68
loop_
_atom_site_label
_atom_site_type_symbol
_atom_site_fract_x
_atom_site_fract_y
_atom_site_fract_z
N1 N 0.0233(2) 0.6363(3) 0.2327(1)
N2 N -0.1257(3) 0.5461(3) 0.2520(1)
N3 N -0.1931(3) 0.7000(3) -0.0874(1)
N4 N 0.2297(3) 0.6029(3) 0.3454(1)
O1 O 0.6787(3) 1.0624(3) 0.0986(1)
O2 O 0.6138(2) 0.9689(3) 0.2120(1)
O3 O 0.1768(2) 0.8756(2) 0.3069(1)
O4 O -0.3406(3) 0.6323(3) -0.1134(1)
O5 O -0.0969(3) 0.7706(3) -0.1284(1)
C1 C -0.2378(3) 0.5242(4) 0.1862(2)
C2 C -0.1704(3) 0.5995(3) 0.1222(2)
C3 C -0.2363(3) 0.6074(3) 0.0427(2)
C4 C -0.1302(3) 0.6917(3) -0.0025(2)
C5 C 0.0383(3) 0.7665(3) 0.0280(2)
C6 C 0.1103(3) 0.7592(3) 0.1070(1)
C7 C -0.0021(3) 0.6744(3) 0.1545(2)
C8 C 0.2896(3) 0.8324(3) 0.1378(2)
C9 C 0.4061(3) 0.9035(4) 0.0983(2)
C10 C 0.5788(3) 0.9861(4) 0.1344(2)
C11 C 0.7785(4) 1.0517(4) 0.2532(2)
C12 C 0.1510(3) 0.7150(4) 0.2984(2)
C13 C 0.2117(4) 0.4054(3) 0.3294(2)
C14 C 0.1095(4) 0.3314(4) 0.3911(2)
C15 C 0.3931(4) 0.3210(4) 0.3244(2)
C16 C 0.3433(4) 0.6805(4) 0.4193(2)
C17 C 0.2388(6) 0.8004(5) 0.4750(2)
C18 C 0.5142(5) 0.7698(5) 0.4008(2)
H1 H -0.34930 0.46570 0.18180
H2 H -0.34800 0.55720 0.02100
H3 H 0.10460 0.82310 -0.00560
H4 H 0.32490 0.82760 0.19220
H5 H 0.37740 0.90160 0.04300
H6 H 0.87360 1.02880 0.22010
H7 H 0.80710 1.00350 0.30300
H8 H 0.76460 1.17810 0.26400
H9 H 0.14100 0.37540 0.27670
H10 H 0.17550 0.35880 0.44350
H11 H 0.09410 0.20430 0.37800
H12 H -0.00590 0.38410 0.39090
H13 H 0.45500 0.37320 0.28570
H14 H 0.37580 0.19490 0.30820
H15 H 0.46290 0.34140 0.37620
H16 H 0.38060 0.58020 0.44830
H17 H 0.21010 0.90750 0.45150
H18 H 0.31010 0.83070 0.52600
H19 H 0.13000 0.73910 0.48260
H20 H 0.57650 0.68680 0.36690
H21 H 0.58950 0.80730 0.45010
H22 H 0.48460 0.87180 0.37370
#END
