
#######################################################################
#
#                 Cambridge Crystallographic Data Centre
#                                CCDC
#
#######################################################################
#
# If this CIF has been generated from an entry in the Cambridge
# Structural Database, then it will include bibliographic, chemical,
# crystal, experimental, refinement or atomic coordinate data resulting
# from the CCDC's data processing and validation procedures.
#
#######################################################################

data_CSD_CIF_ZEDMAZ
_audit_creation_date 2017-07-07
_audit_creation_method CSD-ConQuest-V1
_database_code_CSD ZEDMAZ
_database_code_depnum_ccdc_archive 'CCDC 1473882'
_chemical_formula_sum 'C18 H12 N2 O3'
_chemical_formula_moiety
;
C18 H12 N2 O3
;
_journal_coden_Cambridge 574
_journal_volume 140
_journal_year 2017
_journal_page_first 250
_journal_name_full 'Dyes Pigm. '
loop_
_publ_author_name
"A.Matta"
"N.Jacobs"
"V.Bahadur"
"J.Van der Eycken"
"B.K.Singh"
_chemical_name_systematic
;
4-(3-(3-methylphenyl)-1,2,4-oxadiazol-5-yl)-2H-chromen-2-one
;
_chemical_melting_point 453
_cell_volume    844.500
_exptl_crystal_colour 'yellow'
_exptl_crystal_density_diffrn 1.197
_exptl_special_details
;
Melting point range 453-454K

;
_exptl_crystal_description 'triclinic'
_diffrn_ambient_temperature 293
#These two values have been output from a single CSD field.
_refine_ls_R_factor_gt 0.0606
_refine_ls_wR_factor_gt 0.0606
_symmetry_cell_setting triclinic
_symmetry_space_group_name_H-M 'P -1'
_symmetry_Int_Tables_number 2
loop_
_symmetry_equiv_pos_site_id
_symmetry_equiv_pos_as_xyz
1 x,y,z
2 -x,-y,-z
_cell_length_a 7.7250(11)
_cell_length_b 8.9012(12)
_cell_length_c 12.6079(16)
_cell_angle_alpha 78.161(11)
_cell_angle_beta 84.633(11)
_cell_angle_gamma 87.462(11)
_cell_formula_units_Z 2
loop_
_atom_type_symbol
_atom_type_radius_bond
C 0.68
H 0.23
N 0.68
O 0.68
loop_
_atom_site_label
_atom_site_type_symbol
_atom_site_fract_x
_atom_site_fract_y
_atom_site_fract_z
O1 O 0.3957(11) 0.9567(11) 0.7467(6)
C1 C 0.3384(14) 0.7388(12) 0.9382(9)
O2 O 0.1494(11) 0.5436(11) 1.0415(7)
C2 C 0.6614(12) 1.0321(11) 0.7942(8)
H1 H 0.66930 1.10250 0.72840
C3 C 0.4976(12) 0.8289(12) 0.9199(8)
C4 C 0.2223(16) 0.7579(14) 0.8628(8)
H2 H 0.12450 0.69780 0.87190
C5 C 0.7786(14) 0.9046(12) 0.9667(9)
H3 H 0.86370 0.89630 1.01530
N1 N 0.4049(11) 0.5705(12) 1.1222(7)
C6 C 0.5204(17) 0.9396(13) 0.8249(9)
C7 C 0.6380(14) 0.8143(12) 0.9866(8)
H4 H 0.63310 0.73690 1.04870
C8 C 0.3072(13) 0.6232(12) 1.0342(8)
C9 C 0.7877(15) 1.0174(15) 0.8623(9)
H5 H 0.88360 1.08000 0.84330
O3 O 0.1437(10) 0.8936(10) 0.6913(5)
C10 C 0.2589(14) 0.8810(14) 0.7635(8)
N2 N 0.1350(13) 0.4350(12) 1.1403(8)
C11 C 0.4863(16) 0.4033(13) 1.3287(8)
H6 H 0.56050 0.47770 1.28850
C12 C 0.3406(14) 0.3737(12) 1.2920(9)
C13 C 0.2965(15) 0.4647(13) 1.1863(8)
C14 C 0.5284(19) 0.3143(13) 1.4360(8)
C15 C 0.2562(17) 0.1808(14) 1.4453(11)
H7 H 0.18170 0.10750 1.48660
C16 C 0.421(2) 0.2059(18) 1.4879(11)
H8 H 0.45070 0.14420 1.55290
C17 C 0.2108(14) 0.2559(13) 1.3533(9)
H9 H 0.10660 0.23970 1.32640
C18 C 0.690(2) 0.333(2) 1.4716(11)
H10 H 0.75160 0.41110 1.42010
H11 H 0.75580 0.23760 1.47820
H12 H 0.67400 0.36190 1.54110
#END
