
#######################################################################
#
#                 Cambridge Crystallographic Data Centre
#                                CCDC
#
#######################################################################
#
# If this CIF has been generated from an entry in the Cambridge
# Structural Database, then it will include bibliographic, chemical,
# crystal, experimental, refinement or atomic coordinate data resulting
# from the CCDC's data processing and validation procedures.
#
#######################################################################

data_CSD_CIF_ZEDVAI
_audit_creation_date 2017-07-07
_audit_creation_method CSD-ConQuest-V1
_database_code_CSD ZEDVAI
_database_code_depnum_ccdc_archive 'CCDC 1473881'
_chemical_formula_sum 'C19 H14 N2 O4'
_chemical_formula_moiety
;
C19 H14 N2 O4
;
_journal_coden_Cambridge 574
_journal_volume 140
_journal_year 2017
_journal_page_first 250
_journal_name_full 'Dyes Pigm. '
loop_
_publ_author_name
"A.Matta"
"N.Jacobs"
"V.Bahadur"
"J.Van der Eycken"
"B.K.Singh"
_chemical_name_systematic
;
6. 7-ethoxy-4-(3-phenyl-1,2,4-oxadiazol-5-yl)-2H-chromen-2-one
;
_chemical_melting_point 445
_cell_volume    757.406
_exptl_crystal_colour 'yellow'
_exptl_crystal_density_diffrn 1.466
_exptl_special_details
;
Melting point range 445-448K

;
_diffrn_ambient_temperature 293
#These two values have been output from a single CSD field.
_refine_ls_R_factor_gt 0.0409
_refine_ls_wR_factor_gt 0.0409
_symmetry_cell_setting triclinic
_symmetry_space_group_name_H-M 'P -1'
_symmetry_Int_Tables_number 2
loop_
_symmetry_equiv_pos_site_id
_symmetry_equiv_pos_as_xyz
1 x,y,z
2 -x,-y,-z
_cell_length_a 6.6736(4)
_cell_length_b 7.9834(6)
_cell_length_c 14.6236(9)
_cell_angle_alpha 97.925(5)
_cell_angle_beta 97.936(5)
_cell_angle_gamma 96.447(5)
_cell_formula_units_Z 2
loop_
_atom_type_symbol
_atom_type_radius_bond
C 0.68
H 0.23
N 0.68
O 0.68
loop_
_atom_site_label
_atom_site_type_symbol
_atom_site_fract_x
_atom_site_fract_y
_atom_site_fract_z
C1 C 0.87076(19) 0.02572(16) 0.83749(8)
H1 H 0.88920 0.04940 0.90240
O1 O 0.25455(15) 0.21716(13) 0.60509(6)
O2 O 0.52794(14) 0.08731(12) 0.62886(6)
O3 O 1.13006(14) -0.17977(12) 0.66242(6)
O4 O 0.66442(15) 0.15507(14) 0.98590(6)
N1 N 0.39286(17) 0.28417(14) 0.95767(7)
C2 C 0.54176(19) 0.16240(15) 0.82160(8)
N2 N 0.60808(19) 0.21085(17) 1.07358(8)
C3 C 0.3384(2) 0.36463(15) 1.12344(8)
C4 C 1.00987(19) -0.05697(17) 0.79479(9)
H2 H 1.12190 -0.08780 0.83080
C5 C 0.69976(19) 0.07586(15) 0.78512(8)
C6 C 0.3071(2) 0.45364(17) 1.28385(9)
H3 H 0.35750 0.46340 1.34720
C7 C 0.68338(19) 0.03909(16) 0.68787(8)
C8 C 0.8202(2) -0.04711(16) 0.64255(8)
H4 H 0.80220 -0.07160 0.57770
C9 C 1.1038(2) -0.23220(18) 0.56263(9)
H5 H 1.10970 -0.13310 0.53100
H6 H 0.97250 -0.30150 0.54080
C10 C 0.52845(19) 0.20385(16) 0.92167(8)
C11 C 1.2734(2) -0.3335(2) 0.54282(10)
H7 H 1.26050 -0.37070 0.47670
H8 H 1.26590 -0.43110 0.57450
H9 H 1.40240 -0.26350 0.56460
C12 C 0.0478(2) 0.49685(18) 1.16194(10)
H10 H -0.07530 0.53570 1.14310
C13 C 0.1245(2) 0.51313(17) 1.25617(10)
H11 H 0.05380 0.56380 1.30070
C14 C 0.3812(2) 0.17554(16) 0.66182(9)
C15 C 0.1546(2) 0.42267(18) 1.09564(9)
H12 H 0.10290 0.41180 1.03240
C16 C 0.98443(19) -0.09564(16) 0.69692(9)
C17 C 0.3912(2) 0.20927(16) 0.76211(8)
H13 H 0.29090 0.26500 0.78670
C18 C 0.44861(19) 0.28599(16) 1.05211(8)
C19 C 0.4155(2) 0.37971(17) 1.21829(9)
H14 H 0.53830 0.34060 1.23730
#END
