
#######################################################################
#
#                 Cambridge Crystallographic Data Centre
#                                CCDC
#
#######################################################################
#
# If this CIF has been generated from an entry in the Cambridge
# Structural Database, then it will include bibliographic, chemical,
# crystal, experimental, refinement or atomic coordinate data resulting
# from the CCDC's data processing and validation procedures.
#
#######################################################################

data_CSD_CIF_ZEHDAT
_audit_creation_date 2013-02-01
_audit_creation_method CSD-ConQuest-V1
_database_code_CSD ZEHDAT
_database_code_depnum_ccdc_archive 'CCDC 883509'
_chemical_formula_sum 'C12 H14 N4 O1'
_chemical_formula_moiety
;
C12 H14 N4 O1
;
_journal_coden_Cambridge 1500
_journal_volume 2
_journal_year 2012
_journal_page_first 8941
_journal_name_full 'RSC Advances '
loop_
_publ_author_name
"J.-C.M.Monbaliu"
"L.K.Beagle"
"J.Kovacs"
"M.Zeller"
"C.V.Stevens"
"A.R.Katritzky"
_chemical_name_systematic
;
2-(1-Nitrosocyclohexyl)-2H-benzotriazole
;
_cell_volume   1138.629
_exptl_crystal_colour 'blue'
_exptl_crystal_density_diffrn 1.349
_exptl_crystal_description 'plate'
_diffrn_ambient_temperature 100
_refine_special_details
;
The nitroso group is mixed disordered with a nitro group with NO:NO2 
occupancies 0.937:0.063, respectively.
;
#These two values have been output from a single CSD field.
_refine_ls_R_factor_gt 0.0376
_refine_ls_wR_factor_gt 0.0376
_symmetry_cell_setting monoclinic
_symmetry_space_group_name_H-M 'P 21/c'
_symmetry_Int_Tables_number 14
loop_
_symmetry_equiv_pos_site_id
_symmetry_equiv_pos_as_xyz
1 x,y,z
2 -x,1/2+y,1/2-z
3 -x,-y,-z
4 x,-1/2-y,-1/2+z
_cell_length_a 11.7352(5)
_cell_length_b 8.5659(3)
_cell_length_c 12.1021(4)
_cell_angle_alpha 90
_cell_angle_beta 110.616(2)
_cell_angle_gamma 90
_cell_formula_units_Z 4
loop_
_atom_type_symbol
_atom_type_radius_bond
C 0.68
H 0.23
N 0.68
O 0.68
loop_
_atom_site_label
_atom_site_type_symbol
_atom_site_fract_x
_atom_site_fract_y
_atom_site_fract_z
C1 C 0.77567(9) -0.10940(11) 0.14620(8)
C2 C 0.7917(1) -0.21211(12) 0.24239(9)
H1 H 0.73440 -0.21730 0.28150
C3 C 0.89408(10) -0.30345(13) 0.27611(9)
H2 H 0.90790 -0.37370 0.34030
C4 C 0.98056(10) -0.29652(13) 0.21796(10)
H3 H 1.05030 -0.36190 0.24500
C5 C 0.96646(9) -0.19876(12) 0.12438(9)
H4 H 1.02430 -0.19500 0.08580
C6 C 0.86122(9) -0.10387(11) 0.08839(8)
C7 C 0.64136(9) 0.16085(11) -0.07875(8)
C8 C 0.56363(9) 0.26087(12) -0.02825(9)
H5 H 0.49730 0.31050 -0.09360
H6 H 0.52630 0.19380 0.01630
C9 C 0.64082(10) 0.38689(12) 0.05335(9)
H7 H 0.58800 0.45320 0.08220
H8 H 0.70220 0.33690 0.12260
C10 C 0.70532(10) 0.48886(12) -0.00985(10)
H9 H 0.75560 0.56820 0.04540
H10 H 0.64430 0.54390 -0.07660
C11 C 0.78618(9) 0.38774(12) -0.05585(9)
H11 H 0.85090 0.33910 0.01160
H12 H 0.82570 0.45400 -0.09900
C12 C 0.71149(9) 0.26027(12) -0.13809(8)
H13 H 0.65330 0.30920 -0.20990
H14 H 0.76660 0.19230 -0.16260
N1 N 0.68601(8) -0.00531(9) 0.09413(7)
N2 N 0.72175(7) 0.05757(9) 0.01071(7)
N3 N 0.82457(8) 0.00343(10) 0.00114(7)
N4 N 0.5531(2) 0.06439(18) -0.17882(19)
O1 O 0.57028(14) -0.07450(18) -0.17046(12)
N5? N 0.561(4) 0.041(4) -0.168(4)
O2? O 0.4827(12) 0.1029(15) -0.2428(12)
O3? O 0.589(3) -0.093(4) -0.147(2)
#END
