
#######################################################################
#
#                 Cambridge Crystallographic Data Centre
#                                CCDC
#
#######################################################################
#
# If this CIF has been generated from an entry in the Cambridge
# Structural Database, then it will include bibliographic, chemical,
# crystal, experimental, refinement or atomic coordinate data resulting
# from the CCDC's data processing and validation procedures.
#
#######################################################################

data_CSD_CIF_ZEJTUD
_audit_creation_date 1996-05-17
_audit_creation_method CSD-ConQuest-V1
_database_code_CSD ZEJTUD
_chemical_formula_sum 'C15 H16 N4 O2'
_chemical_formula_moiety
;
C15 H16 N4 O2
;
_journal_coden_Cambridge 1096
_journal_volume 7
_journal_year 1995
_journal_page_first 1198
_journal_name_full 'Chem.Mater. '
loop_
_publ_author_name
"C.Serbutoviez"
"C.Bosshard"
"G.Knopfle"
"P.Wyss"
"P.Pretre"
"P.Gunter"
"K.Schenk"
"E.Solari"
"G.Chapuis"
_chemical_name_systematic
;
4-(Dimethylamino)benzaldehyde 4-nitrophenylhydrazone
;
_cell_volume   1466.827
_exptl_crystal_colour 'red-green'
_exptl_crystal_density_diffrn 1.287
_diffrn_ambient_temperature ?
_diffrn_special_details
;
The study was carried out at room temperature,in the range 283-303K

;
#These two values have been output from a single CSD field.
_refine_ls_R_factor_gt 0.043
_refine_ls_wR_factor_gt 0.043
_symmetry_cell_setting monoclinic
_symmetry_space_group_name_H-M 'C c'
_symmetry_Int_Tables_number 9
loop_
_symmetry_equiv_pos_site_id
_symmetry_equiv_pos_as_xyz
1 x,y,z
2 x,-y,1/2+z
3 1/2+x,1/2+y,z
4 1/2+x,1/2-y,1/2+z
_cell_length_a 6.281(2)
_cell_length_b 28.133(8)
_cell_length_c 8.380(2)
_cell_angle_alpha 90
_cell_angle_beta 97.87(2)
_cell_angle_gamma 90
_cell_formula_units_Z 4
loop_
_atom_type_symbol
_atom_type_radius_bond
C 0.68
H 0.23
N 0.68
O 0.68
loop_
_atom_site_label
_atom_site_type_symbol
_atom_site_fract_x
_atom_site_fract_y
_atom_site_fract_z
N1 N 0.1083(13) 0.4199(2) 0.5649(10)
C1 C -0.3902(13) 0.4786(2) 0.7662(9)
C2 C 0.3249(14) 0.3572(2) 0.5296(10)
N2 N 0.15280 0.3726(2) 0.58350
C3 C -0.0548(13) 0.4388(2) 0.6349(10)
C4 C -0.1871(14) 0.4106(2) 0.7224(9)
C5 C 0.3894(15) 0.3084(2) 0.5425(10)
C6 C -0.0928(14) 0.4877(2) 0.6168(9)
O1 O -0.5976(12) 0.5436(2) 0.8195(8)
C7 C -0.2641(14) 0.5078(2) 0.6848(10)
O2 O -0.6760(12) 0.4754(2) 0.9141(8)
C8 C 0.2662(15) 0.2731(3) 0.5990(12)
C9 C 0.5263(15) 0.2118(3) 0.5727(10)
C10 C 0.5863(14) 0.2938(3) 0.5008(11)
C11 C -0.3527(14) 0.4315(3) 0.7829(11)
N3 N -0.5628(14) 0.5009(2) 0.8385(9)
N4 N 0.5898(14) 0.1657(2) 0.5837(10)
C12 C 0.6568(16) 0.2471(3) 0.5173(11)
C13 C 0.3326(16) 0.2261(3) 0.6177(13)
C14 C 0.4601(18) 0.1304(3) 0.6509(15)
C15 C 0.8035(19) 0.1511(3) 0.5437(14)
H1 H 0.18740 0.43840 0.50810
H2 H 0.40940 0.37950 0.47810
H3 H -0.16110 0.37710 0.73600
H4 H -0.01150 0.50670 0.55570
H5 H -0.28960 0.54140 0.67810
H6 H 0.12790 0.28150 0.62730
H7 H 0.68050 0.31720 0.46480
H8 H -0.44420 0.41250 0.84040
H9 H 0.79060 0.23840 0.48090
H10 H 0.24450 0.20330 0.66330
H11 H 0.32570 0.14370 0.67120
H12 H 0.43350 0.10420 0.57740
H13 H 0.53890 0.11940 0.75030
H14 H 0.87600 0.17680 0.49800
H15 H 0.88850 0.14050 0.64110
H16 H 0.78310 0.12530 0.46820
#END
