
#######################################################################
#
#                 Cambridge Crystallographic Data Centre
#                                CCDC
#
#######################################################################
#
# If this CIF has been generated from an entry in the Cambridge
# Structural Database, then it will include bibliographic, chemical,
# crystal, experimental, refinement or atomic coordinate data resulting
# from the CCDC's data processing and validation procedures.
#
#######################################################################

data_CSD_CIF_ZEJVAL
_audit_creation_date 1996-05-17
_audit_creation_method CSD-ConQuest-V1
_database_code_CSD ZEJVAL
_chemical_formula_sum 'C19 H22 N4 O2'
_chemical_formula_moiety
;
C19 H22 N4 O2
;
_journal_coden_Cambridge 1096
_journal_volume 7
_journal_year 1995
_journal_page_first 1198
_journal_name_full 'Chem.Mater. '
loop_
_publ_author_name
"C.Serbutoviez"
"C.Bosshard"
"G.Knopfle"
"P.Wyss"
"P.Pretre"
"P.Gunter"
"K.Schenk"
"E.Solari"
"G.Chapuis"
_chemical_name_systematic
;
4-(1-Azacycloheptyl)benzaldehyde 4-nitrophenylhydrazone
;
_cell_volume   1692.309
_exptl_crystal_colour 'dark red'
_exptl_crystal_density_diffrn 1.328
_diffrn_ambient_temperature ?
_diffrn_special_details
;
The study was carried out at room temperature,in the range 283-303K

;
#These two values have been output from a single CSD field.
_refine_ls_R_factor_gt 0.052
_refine_ls_wR_factor_gt 0.052
_symmetry_cell_setting orthorhombic
_symmetry_space_group_name_H-M 'P c a 21'
_symmetry_Int_Tables_number 29
loop_
_symmetry_equiv_pos_site_id
_symmetry_equiv_pos_as_xyz
1 x,y,z
2 -x,-y,1/2+z
3 1/2-x,y,1/2+z
4 1/2+x,-y,z
_cell_length_a 31.878(6)
_cell_length_b 7.144(1)
_cell_length_c 7.431(1)
_cell_angle_alpha 90
_cell_angle_beta 90
_cell_angle_gamma 90
_cell_formula_units_Z 4
loop_
_atom_type_symbol
_atom_type_radius_bond
C 0.68
H 0.23
N 0.68
O 0.68
loop_
_atom_site_label
_atom_site_type_symbol
_atom_site_fract_x
_atom_site_fract_y
_atom_site_fract_z
C1 C 0.3748(2) -0.0355(9) 0.2901(13)
N1 N 0.3606(2) 0.1258(8) 0.33230
N2 N 0.3175(2) 0.1472(8) 0.3119(13)
C2 C 0.2985(2) 0.3087(10) 0.3625(14)
C3 C 0.3198(2) 0.4627(9) 0.4281(13)
C4 C 0.2988(2) 0.6212(10) 0.4823(15)
C5 C 0.2550(2) 0.6277(9) 0.4655(14)
C6 C 0.2332(2) 0.4769(10) 0.3962(14)
C7 C 0.2541(2) 0.3178(9) 0.3458(14)
N3 N 0.2332(2) 0.7905(9) 0.5268(13)
O1 O 0.2524(2) 0.9170(6) 0.6062(13)
O2 O 0.1946(2) 0.7965(8) 0.5010(12)
C8 C 0.4194(2) -0.0847(9) 0.2898(13)
C9 C 0.4314(2) -0.2666(9) 0.2574(13)
C10 C 0.4730(2) -0.3209(9) 0.2421(13)
C11 C 0.5050(2) -0.1845(9) 0.2651(13)
C12 C 0.4927(2) 0.0006(10) 0.3037(14)
C13 C 0.4508(2) 0.0507(10) 0.3138(13)
N4 N 0.5467(2) -0.2351(7) 0.2472(13)
C14 C 0.5583(2) -0.3981(9) 0.1418(14)
C15 C 0.5679(2) -0.5701(9) 0.2554(14)
C16 C 0.6099(2) -0.5574(10) 0.3538(14)
C17 C 0.6167(2) -0.3804(10) 0.4621(14)
C18 C 0.6214(2) -0.2047(10) 0.3447(14)
C19 C 0.5800(2) -0.1027(10) 0.3002(14)
H1 H 0.35500 -0.13050 0.25630
H2 H 0.30220 0.05290 0.26560
H3 H 0.34980 0.45890 0.43640
H4 H 0.31400 0.72620 0.53000
H5 H 0.20330 0.48370 0.38240
H6 H 0.23880 0.21250 0.29960
H7 H 0.40990 -0.36000 0.24530
H8 H 0.48020 -0.44850 0.21570
H9 H 0.51380 0.09390 0.32490
H10 H 0.44330 0.17870 0.33660
H11 H 0.58270 -0.36770 0.07190
H12 H 0.53600 -0.42680 0.05950
H13 H 0.56810 -0.67810 0.17860
H14 H 0.54580 -0.58650 0.34180
H15 H 0.61200 -0.66220 0.43410
H16 H 0.63210 -0.56860 0.26720
H17 H 0.59340 -0.36310 0.54230
H18 H 0.64150 -0.39460 0.53410
H19 H 0.63960 -0.11830 0.40530
H20 H 0.63480 -0.24000 0.23410
H21 H 0.57100 -0.03140 0.40270
H22 H 0.58480 -0.01710 0.20270
#END
