
#######################################################################
#
#                 Cambridge Crystallographic Data Centre
#                                CCDC
#
#######################################################################
#
# If this CIF has been generated from an entry in the Cambridge
# Structural Database, then it will include bibliographic, chemical,
# crystal, experimental, refinement or atomic coordinate data resulting
# from the CCDC's data processing and validation procedures.
#
#######################################################################

data_CSD_CIF_ZEJWUJ
_audit_creation_date 2017-11-03
_audit_creation_method CSD-ConQuest-V1
_database_code_CSD ZEJWUJ
_database_code_depnum_ccdc_archive 'CCDC 1571225'
_chemical_formula_sum 'C13 H12 N2 O5'
_chemical_formula_moiety
;
C13 H12 N2 O5
;
_journal_coden_Cambridge 1500
_journal_volume 7
_journal_year 2017
_journal_page_first 51352
_journal_name_full 'RSC Advances '
loop_
_publ_author_name
"Luyi Zhu"
"Peipei Yan"
"Lvye Zhang"
"Zhangtao Chen"
"Xiaofei Zeng"
"Guofu Zhong"
_chemical_name_systematic
;
ethyl (1-methyl-2-oxo-1,2-dihydro-3H-indol-3-ylidene)(nitro)acetate
;
_cell_volume    627.684
_exptl_crystal_colour 'metallic dark red'
_exptl_crystal_density_diffrn 1.462
_exptl_crystal_description 'block'
_diffrn_ambient_temperature 294.3
#These two values have been output from a single CSD field.
_refine_ls_R_factor_gt 0.0447
_refine_ls_wR_factor_gt 0.0447
_symmetry_cell_setting triclinic
_symmetry_space_group_name_H-M 'P -1'
_symmetry_Int_Tables_number 2
loop_
_symmetry_equiv_pos_site_id
_symmetry_equiv_pos_as_xyz
1 x,y,z
2 -x,-y,-z
_cell_length_a 8.4937(9)
_cell_length_b 8.684(1)
_cell_length_c 10.0187(9)
_cell_angle_alpha 70.661(10)
_cell_angle_beta 81.940(8)
_cell_angle_gamma 64.185(11)
_cell_formula_units_Z 2
loop_
_atom_type_symbol
_atom_type_radius_bond
C 0.68
H 0.23
N 0.68
O 0.68
loop_
_atom_site_label
_atom_site_type_symbol
_atom_site_fract_x
_atom_site_fract_y
_atom_site_fract_z
O1 O 0.81954(13) 0.83912(15) 0.28901(13)
O2 O 0.71557(16) 0.75931(17) 0.06578(13)
O3 O 0.67162(15) 0.58658(13) 0.26535(13)
O4 O 0.17375(15) 0.97213(19) 0.20449(14)
O5 O 0.34526(14) 0.79015(14) 0.07831(12)
N1 N 0.65669(15) 1.09310(16) 0.35469(12)
N2 N 0.63670(16) 0.73190(16) 0.17541(13)
C1 C 0.47937(18) 1.21040(18) 0.35333(14)
C2 C 0.4077(2) 1.3600(2) 0.39897(16)
H1 H 0.47710 1.39340 0.43730
C3 C 0.2275(2) 1.4593(2) 0.38566(18)
H2 H 0.17520 1.56060 0.41630
C4 C 0.1256(2) 1.4103(2) 0.32796(18)
H3 H 0.00550 1.47930 0.31960
C5 C 0.19934(19) 1.2591(2) 0.28189(16)
H4 H 0.12940 1.22760 0.24230
C6 C 0.37843(18) 1.15569(17) 0.29559(14)
C7 C 0.49947(17) 0.99463(17) 0.25895(14)
C8 C 0.68180(18) 0.95976(18) 0.30082(15)
C9 C 0.7988(2) 1.1090(2) 0.40637(18)
H5 H 0.79480 1.22670 0.35970
H6 H 0.90860 1.02050 0.38700
H7 H 0.78700 1.09040 0.50650
C10 C 0.47977(18) 0.88459(18) 0.20153(14)
C11 C 0.31411(19) 0.88983(19) 0.16223(15)
C12 C 0.1914(2) 0.7836(2) 0.03308(17)
H8 H 0.12940 0.89230 -0.04190
H9 H 0.11220 0.77290 0.11180
C13 C 0.2559(2) 0.6234(2) -0.01892(19)
H10 H 0.33540 0.63470 -0.09590
H11 H 0.15850 0.61620 -0.05080
H12 H 0.31520 0.51650 0.05660
#END
