
#######################################################################
#
#                 Cambridge Crystallographic Data Centre
#                                CCDC
#
#######################################################################
#
# If this CIF has been generated from an entry in the Cambridge
# Structural Database, then it will include bibliographic, chemical,
# crystal, experimental, refinement or atomic coordinate data resulting
# from the CCDC's data processing and validation procedures.
#
#######################################################################

data_CSD_CIF_ZEKNIO
_audit_creation_date 2012-12-31
_audit_creation_method CSD-ConQuest-V1
_database_code_CSD ZEKNIO
_database_code_depnum_ccdc_archive 'CCDC 885517'
_chemical_formula_sum 'C15 H14 N4 O4'
_chemical_formula_moiety
;
C15 H14 N4 O4
;
_journal_coden_Cambridge 182
_journal_volume 48
_journal_year 2012
_journal_page_first 10490
_journal_name_full 'Chem.Commun. '
loop_
_publ_author_name
"Xin Su"
"M.Lokov"
"A.Kutt"
"I.Leito"
"I.Aprahamian"
_chemical_name_systematic
;
Ethyl ((4-nitrophenyl)hydrazono)(pyridin-2-yl)acetate
;
_cell_volume   3030.895
_exptl_crystal_colour 'yellow'
_exptl_crystal_density_diffrn 1.378
_exptl_crystal_description 'needle'
_diffrn_ambient_temperature 173
#These two values have been output from a single CSD field.
_refine_ls_R_factor_gt 0.036
_refine_ls_wR_factor_gt 0.036
_symmetry_cell_setting orthorhombic
_symmetry_space_group_name_H-M 'P b c a'
_symmetry_Int_Tables_number 61
loop_
_symmetry_equiv_pos_site_id
_symmetry_equiv_pos_as_xyz
1 x,y,z
2 1/2+x,1/2-y,-z
3 -x,1/2+y,1/2-z
4 1/2-x,-y,1/2+z
5 -x,-y,-z
6 -1/2-x,-1/2+y,z
7 x,-1/2-y,-1/2+z
8 -1/2+x,y,-1/2-z
_cell_length_a 6.6841(5)
_cell_length_b 19.9101(15)
_cell_length_c 22.7748(17)
_cell_angle_alpha 90
_cell_angle_beta 90
_cell_angle_gamma 90
_cell_formula_units_Z 8
loop_
_atom_type_symbol
_atom_type_radius_bond
C 0.68
H 0.23
N 0.68
O 0.68
loop_
_atom_site_label
_atom_site_type_symbol
_atom_site_fract_x
_atom_site_fract_y
_atom_site_fract_z
O1 O 0.16227(16) 1.06306(5) 0.68916(4)
O2 O 0.16781(19) 1.10544(5) 0.77972(5)
O3 O -0.0913(2) 0.73650(6) 0.49052(5)
O4 O -0.20912(19) 0.66088(6) 0.54898(5)
N1 N 0.01054(18) 0.88407(6) 0.73245(5)
H1 H -0.016(3) 0.8722(9) 0.7709(8)
N2 N 0.06571(17) 0.94756(6) 0.72335(5)
N3 N 0.01735(18) 0.91107(6) 0.84425(5)
N4 N -0.1356(2) 0.71660(6) 0.53987(6)
C1 C 0.1042(2) 0.98777(7) 0.76722(6)
C2 C 0.1494(2) 1.05782(7) 0.74740(6)
C3 C 0.1870(3) 1.13058(9) 0.66629(8)
H2 H 0.308(3) 1.1507(9) 0.6843(7)
H3 H 0.070(3) 1.1575(9) 0.6782(7)
C4 C 0.2033(4) 1.12423(12) 0.60096(8)
H4 H 0.330(4) 1.0972(11) 0.5902(9)
H5 H 0.215(3) 1.1689(11) 0.5846(9)
H6 H 0.087(4) 1.1037(11) 0.5838(9)
C5 C 0.1022(2) 0.97076(7) 0.83056(6)
C6 C 0.1865(3) 1.01146(9) 0.87397(6)
H7 H 0.249(3) 1.0536(10) 0.8627(8)
C7 C 0.1777(3) 0.99089(9) 0.93177(7)
H8 H 0.238(3) 1.0198(9) 0.9620(7)
C8 C 0.0877(3) 0.93072(9) 0.94572(7)
H9 H 0.076(2) 0.9151(8) 0.9860(7)
C9 C 0.0116(2) 0.89247(9) 0.90067(7)
H10 H -0.048(2) 0.8490(9) 0.9075(7)
C10 C -0.0241(2) 0.84344(7) 0.68399(6)
C11 C 0.0197(2) 0.86514(7) 0.62720(6)
H11 H 0.073(2) 0.9092(8) 0.6211(6)
C12 C -0.0172(2) 0.82367(7) 0.58004(7)
H12 H 0.016(2) 0.8376(8) 0.5410(7)
C13 C -0.0988(2) 0.76070(7) 0.58976(6)
C14 C -0.1424(2) 0.73813(8) 0.64592(7)
H13 H -0.194(2) 0.6951(9) 0.6517(7)
C15 C -0.1046(2) 0.77945(7) 0.69312(7)
H14 H -0.137(2) 0.7651(8) 0.7337(7)
#END
