
#######################################################################
#
#                 Cambridge Crystallographic Data Centre
#                                CCDC
#
#######################################################################
#
# If this CIF has been generated from an entry in the Cambridge
# Structural Database, then it will include bibliographic, chemical,
# crystal, experimental, refinement or atomic coordinate data resulting
# from the CCDC's data processing and validation procedures.
#
#######################################################################

data_CSD_CIF_ZELQOW
_audit_creation_date 1996-05-02
_audit_creation_method CSD-ConQuest-V1
_database_code_CSD ZELQOW
_chemical_formula_sum 'C3 H5 N5 O3'
_chemical_formula_moiety
;
C3 H5 N5 O3
;
_journal_coden_Cambridge 1135
_journal_year 1995
_journal_page_first 194
_journal_name_full 'Mendeleev Commun. '
loop_
_publ_author_name
"T.I.Godovikova"
"S.P.Golova"
"S.A.Vozchikova"
"E.L.Ignat'eva"
"M.V.Povorin"
"V.S.Kuz'min"
"L.I.Khmel'nitskii"
_chemical_name_systematic
;
4-Amino-2-methyl-5-nitro-1,2,3-triazole 1-oxide
;
_chemical_melting_point 491.15
_cell_volume    622.406
_exptl_crystal_density_diffrn 1.698
_exptl_special_details
;
Melts with decomposition.
y(H33) is 0.287, not 0.247

;
_diffrn_ambient_temperature ?
_diffrn_special_details
;
The study was carried out at room temperature,in the range 283-303K

;
#These two values have been output from a single CSD field.
_refine_ls_R_factor_gt 0.042
_refine_ls_wR_factor_gt 0.042
_symmetry_cell_setting monoclinic
_symmetry_space_group_name_H-M 'P 21/c'
_symmetry_Int_Tables_number 14
loop_
_symmetry_equiv_pos_site_id
_symmetry_equiv_pos_as_xyz
1 x,y,z
2 -x,1/2+y,1/2-z
3 -x,-y,-z
4 x,-1/2-y,-1/2+z
_cell_length_a 4.6011(4)
_cell_length_b 9.518(2)
_cell_length_c 14.461(2)
_cell_angle_alpha 90
_cell_angle_beta 100.64(1)
_cell_angle_gamma 90
_cell_formula_units_Z 4
loop_
_atom_type_symbol
_atom_type_radius_bond
C 0.68
H 0.23
N 0.68
O 0.68
loop_
_atom_site_label
_atom_site_type_symbol
_atom_site_fract_x
_atom_site_fract_y
_atom_site_fract_z
C1 C 0.8168(5) 0.3994(2) 0.2197(1)
C2 C 0.9198(5) 0.4528(2) 0.1414(2)
C3 C 0.3892(7) 0.2052(3) 0.0327(2)
N1 N 0.6034(4) 0.3018(2) 0.1868(1)
N2 N 0.9069(5) 0.4326(2) 0.3151(1)
N3 N 0.7719(4) 0.3904(2) 0.0633(1)
N4 N 0.5835(5) 0.3001(2) 0.0938(1)
N5 N 1.1307(5) 0.5482(2) 0.1383(2)
O1 O 0.7880(5) 0.3765(2) 0.3746(1)
O2 O 1.1070(4) 0.5200(2) 0.3330(1)
O3 O 0.4446(4) 0.2248(2) 0.2287(1)
H1 H 1.227(6) 0.588(3) 0.189(2)
H2 H 1.165(6) 0.572(3) 0.087(2)
H3 H 0.209(8) 0.192(3) 0.052(3)
H4 H 0.467(8) 0.120(5) 0.038(3)
H5 H 0.343(9) 0.2870(4) -0.027(3)
#END
