
#######################################################################
#
#                 Cambridge Crystallographic Data Centre
#                                CCDC
#
#######################################################################
#
# If this CIF has been generated from an entry in the Cambridge
# Structural Database, then it will include bibliographic, chemical,
# crystal, experimental, refinement or atomic coordinate data resulting
# from the CCDC's data processing and validation procedures.
#
#######################################################################

data_CSD_CIF_ZELSUE
_audit_creation_date 1996-05-01
_audit_creation_method CSD-ConQuest-V1
_database_code_CSD ZELSUE
_database_code_depnum_ccdc_archive 'CCDC 1310947'
_chemical_formula_sum 'C30 H24 N2 O4'
_chemical_formula_moiety
;
C30 H24 N2 O4
;
_journal_coden_Cambridge 154
_journal_volume 48
_journal_year 1995
_journal_page_first 1511
_journal_name_full 'Aust.J.Chem. '
loop_
_publ_author_name
"S.G.Pyne"
"J.Safaei-G."
"B.W.Skelton"
"A.H.White"
_chemical_name_systematic
;
(3S,5S,7R)-6-Benzoyl-2,3,7-triphenyl-1,8-dioxa-2,6-diazaspiro(4.4)nonan-9-one
;
_chemical_melting_point 433.15
_cell_volume   1240.805
_exptl_crystal_density_diffrn 1.28
_exptl_special_details
;
Melts with decomposition.

;
_diffrn_ambient_temperature ?
_diffrn_special_details
;
The study was carried out at room temperature,in the range 283-303K

;
#These two values have been output from a single CSD field.
_refine_ls_R_factor_gt 0.065
_refine_ls_wR_factor_gt 0.065
_symmetry_cell_setting monoclinic
_symmetry_space_group_name_H-M 'P 21'
_symmetry_Int_Tables_number 4
loop_
_symmetry_equiv_pos_site_id
_symmetry_equiv_pos_as_xyz
1 x,y,z
2 -x,1/2+y,-z
_cell_length_a 10.06(1)
_cell_length_b 5.79(1)
_cell_length_c 21.398(7)
_cell_angle_alpha 90
_cell_angle_beta 95.42(7)
_cell_angle_gamma 90
_cell_formula_units_Z 2
loop_
_atom_type_symbol
_atom_type_radius_bond
C 0.68
H 0.23
N 0.68
O 0.68
loop_
_atom_site_label
_atom_site_type_symbol
_atom_site_fract_x
_atom_site_fract_y
_atom_site_fract_z
O1 O 0.4715(5) 0.76400 0.6438(2)
C1 C 0.3602(7) 0.627(2) 0.6161(3)
C2 C 0.3259(7) 0.700(2) 0.5499(3)
C3 C 0.2535(9) 0.898(2) 0.5342(4)
C4 C 0.229(1) 0.968(2) 0.4752(5)
C5 C 0.268(1) 0.836(2) 0.4269(4)
C6 C 0.3419(9) 0.638(2) 0.4408(4)
C7 C 0.3677(7) 0.571(2) 0.5016(4)
N1 N 0.2539(6) 0.679(1) 0.6574(3)
C8 C 0.1460(8) 0.523(2) 0.6526(3)
O2 O 0.1485(6) 0.359(1) 0.6188(3)
C9 C 0.0271(6) 0.584(2) 0.6852(3)
C10 C -0.0188(8) 0.428(2) 0.7269(4)
C11 C -0.1308(8) 0.473(2) 0.7564(4)
C12 C -0.2027(7) 0.673(2) 0.7434(4)
C13 C -0.1610(8) 0.822(2) 0.7004(4)
C14 C -0.0463(7) 0.783(2) 0.6700(4)
C15 C 0.3094(7) 0.777(2) 0.7149(3)
C16 C 0.4451(7) 0.863(2) 0.6974(4)
O3 O 0.5183(5) 0.991(1) 0.7267(3)
C17 C 0.2362(6) 0.963(2) 0.7482(3)
C18 C 0.2852(6) 0.942(1) 0.8153(3)
C19 C 0.1808(7) 1.002(2) 0.8584(3)
C20 C 0.1844(8) 1.206(2) 0.8891(4)
C21 C 0.082(1) 1.273(2) 0.9261(4)
C22 C -0.021(1) 1.118(2) 0.9318(4)
C23 C -0.0247(9) 0.918(2) 0.9012(4)
C24 C 0.0783(7) 0.851(2) 0.8651(4)
N2 N 0.3319(5) 0.697(1) 0.8227(3)
C25 C 0.4486(6) 0.648(2) 0.8602(3)
C26 C 0.5304(6) 0.463(2) 0.8466(3)
C27 C 0.6377(8) 0.407(2) 0.8886(4)
C28 C 0.6691(8) 0.532(2) 0.9430(4)
C29 C 0.5880(8) 0.713(2) 0.9552(4)
C30 C 0.4817(8) 0.772(2) 0.9145(4)
O4 O 0.3313(5) 0.599(1) 0.7613(2)
H1 H 0.39930 0.46880 0.61970
H2 H 0.22210 0.98720 0.56550
H3 H 0.17020 1.09530 0.46020
H4 H 0.24520 0.89940 0.38160
H5 H 0.37930 0.52930 0.40060
H6 H 0.42500 0.43710 0.51550
H7 H -0.01800 0.87490 0.63350
H8 H -0.21340 0.95540 0.68770
H9 H -0.27520 0.71520 0.76550
H10 H -0.15440 0.40360 0.79090
H11 H 0.04660 0.30170 0.73920
H12 H 0.24120 1.09570 0.73050
H13 H 0.14270 0.92580 0.74020
H14 H 0.36360 1.05100 0.82800
H15 H 0.26520 1.29330 0.88350
H16 H 0.09600 1.40660 0.95190
H17 H -0.09900 1.15630 0.94740
H18 H -0.10540 0.79870 0.90400
H19 H 0.05500 0.71290 0.84590
H20 H 0.48650 0.36660 0.80500
H21 H 0.69220 0.26550 0.87480
H22 H 0.73810 0.49240 0.96940
H23 H 0.61200 0.81230 0.99740
H24 H 0.42780 0.88970 0.92760
#END
