
#######################################################################
#
#                 Cambridge Crystallographic Data Centre
#                                CCDC
#
#######################################################################
#
# If this CIF has been generated from an entry in the Cambridge
# Structural Database, then it will include bibliographic, chemical,
# crystal, experimental, refinement or atomic coordinate data resulting
# from the CCDC's data processing and validation procedures.
#
#######################################################################

data_CSD_CIF_ZELVER
_audit_creation_date 1996-05-01
_audit_creation_method CSD-ConQuest-V1
_database_code_CSD ZELVER
_database_code_depnum_ccdc_archive 'CCDC 1310954'
_chemical_formula_sum 'C24 H18 N2 O4'
_chemical_formula_moiety
;
C24 H18 N2 O4
;
_journal_coden_Cambridge 154
_journal_volume 48
_journal_year 1995
_journal_page_first 1511
_journal_name_full 'Aust.J.Chem. '
loop_
_publ_author_name
"S.G.Pyne"
"J.Safaei-G."
"B.W.Skelton"
"A.H.White"
_chemical_name_systematic
;
(5S,7R)-6-Benzoyl-3,7-diphenyl-1,8-dioxa-2,6-diazaspiro(4.4)non-2-en-9-one
;
_chemical_melting_point 403.15
_cell_volume   1012.919
_exptl_crystal_density_diffrn 1.31
_exptl_special_details
;
Melting point range 403.15-405.15K

;
_diffrn_ambient_temperature ?
_diffrn_special_details
;
The study was carried out at room temperature,in the range 283-303K

;
#These two values have been output from a single CSD field.
_refine_ls_R_factor_gt 0.037
_refine_ls_wR_factor_gt 0.037
loop_
_citation_database_id_CSD
_citation_special_details
ZELVIV "is a stereoisomer of this entry"
_symmetry_cell_setting monoclinic
_symmetry_space_group_name_H-M 'P 21'
_symmetry_Int_Tables_number 4
loop_
_symmetry_equiv_pos_site_id
_symmetry_equiv_pos_as_xyz
1 x,y,z
2 -x,1/2+y,-z
_cell_length_a 12.820(4)
_cell_length_b 7.994(5)
_cell_length_c 10.111(7)
_cell_angle_alpha 90
_cell_angle_beta 102.17(4)
_cell_angle_gamma 90
_cell_formula_units_Z 2
loop_
_atom_type_symbol
_atom_type_radius_bond
C 0.68
H 0.23
N 0.68
O 0.68
loop_
_atom_site_label
_atom_site_type_symbol
_atom_site_fract_x
_atom_site_fract_y
_atom_site_fract_z
O1 O 0.5042(2) 0.00000 0.7281(3)
C1 C 0.4899(4) 0.1476(8) 0.6440(5)
C2 C 0.5893(3) 0.2523(8) 0.6727(5)
C3 C 0.6305(4) 0.308(1) 0.8019(6)
C4 C 0.7222(5) 0.404(1) 0.8283(8)
C5 C 0.7712(6) 0.444(1) 0.725(1)
C6 C 0.7316(5) 0.388(1) 0.5958(9)
C7 C 0.6391(4) 0.2922(9) 0.5714(6)
N1 N 0.3966(3) 0.2307(7) 0.6808(4)
C8 C 0.3476(4) 0.3530(8) 0.5960(5)
O2 O 0.3829(3) 0.3917(7) 0.4990(4)
C9 C 0.2519(4) 0.4364(8) 0.6278(5)
C10 C 0.2624(6) 0.569(1) 0.7149(7)
C11 C 0.1748(7) 0.654(1) 0.7388(9)
C12 C 0.0754(7) 0.605(1) 0.6739(8)
C13 C 0.0625(5) 0.474(1) 0.5866(8)
C14 C 0.1507(4) 0.391(1) 0.5616(6)
C15 C 0.3578(4) 0.1406(8) 0.7846(5)
C16 C 0.4351(4) -0.0062(9) 0.8106(5)
O3 O 0.4348(3) -0.1156(7) 0.8908(4)
C17 C 0.3486(4) 0.232(1) 0.9124(6)
C18 C 0.2309(3) 0.2252(8) 0.9063(5)
C19 C 0.1778(4) 0.3104(8) 1.0018(5)
C20 C 0.2361(4) 0.3740(9) 1.1225(5)
C21 C 0.1865(5) 0.450(1) 1.2141(6)
C22 C 0.0772(5) 0.4624(9) 1.1872(6)
C23 C 0.0181(5) 0.404(1) 1.0681(6)
C24 C 0.0666(4) 0.3267(9) 0.9749(6)
N2 N 0.1803(1) 0.1348(7) 0.8104(4)
O4 O 0.2527(2) 0.0709(6) 0.7328(3)
H1 H 0.475(3) 0.112(5) 0.546(4)
H2 H 0.594(3) 0.278(7) 0.870(5)
H3 H 0.753(4) 0.449(9) 0.932(5)
H4 H 0.837(5) 0.498(8) 0.736(5)
H5 H 0.763(4) 0.417(8) 0.521(5)
H6 H 0.609(3) 0.264(7) 0.482(5)
H7 H 0.327(4) 0.603(7) 0.760(5)
H8 H 0.185(5) 0.74(1) 0.811(7)
H9 H 0.015(4) 0.663(7) 0.697(5)
H10 H -0.005(5) 0.441(9) 0.534(5)
H11 H 0.142(3) 0.293(7) 0.499(4)
H12 H 0.375(3) 0.334(6) 0.909(4)
H13 H 0.394(3) 0.184(6) 0.994(4)
H14 H 0.318(3) 0.354(6) 1.143(4)
H15 H 0.227(4) 0.485(8) 1.296(5)
H16 H 0.048(4) 0.526(8) 1.248(5)
H17 H -0.054(4) 0.425(7) 1.040(5)
H18 H 0.029(3) 0.288(6) 0.884(4)
#END
