
#######################################################################
#
#                 Cambridge Crystallographic Data Centre
#                                CCDC
#
#######################################################################
#
# If this CIF has been generated from an entry in the Cambridge
# Structural Database, then it will include bibliographic, chemical,
# crystal, experimental, refinement or atomic coordinate data resulting
# from the CCDC's data processing and validation procedures.
#
#######################################################################

data_CSD_CIF_ZELVIV
_audit_creation_date 1996-05-01
_audit_creation_method CSD-ConQuest-V1
_database_code_CSD ZELVIV
_database_code_depnum_ccdc_archive 'CCDC 1310955'
_chemical_formula_sum 'C24 H18 N2 O4'
_chemical_formula_moiety
;
C24 H18 N2 O4
;
_journal_coden_Cambridge 154
_journal_volume 48
_journal_year 1995
_journal_page_first 1511
_journal_name_full 'Aust.J.Chem. '
loop_
_publ_author_name
"S.G.Pyne"
"J.Safaei-G."
"B.W.Skelton"
"A.H.White"
_chemical_name_systematic
;
(5R,7R)-6-Benzoyl-3,7-diphenyl-1,8-dioxa-2,6-diazaspiro(4.4)non-2-en-9-one
;
_chemical_melting_point 495.15
_cell_volume   1998.558
_exptl_crystal_density_diffrn 1.32
_exptl_special_details
;
Melting point range 495.15-496.15K

;
_diffrn_ambient_temperature ?
_diffrn_special_details
;
The study was carried out at room temperature,in the range 283-303K

;
#These two values have been output from a single CSD field.
_refine_ls_R_factor_gt 0.042
_refine_ls_wR_factor_gt 0.042
loop_
_citation_database_id_CSD
_citation_special_details
ZELVER "is a stereoisomer of this entry"
_symmetry_cell_setting orthorhombic
_symmetry_space_group_name_H-M 'P 21 21 21'
_symmetry_Int_Tables_number 19
loop_
_symmetry_equiv_pos_site_id
_symmetry_equiv_pos_as_xyz
1 x,y,z
2 1/2-x,-y,1/2+z
3 1/2+x,1/2-y,-z
4 -x,1/2+y,1/2-z
_cell_length_a 16.38(1)
_cell_length_b 15.989(7)
_cell_length_c 7.631(3)
_cell_angle_alpha 90
_cell_angle_beta 90
_cell_angle_gamma 90
_cell_formula_units_Z 4
loop_
_atom_type_symbol
_atom_type_radius_bond
C 0.68
H 0.23
N 0.68
O 0.68
loop_
_atom_site_label
_atom_site_type_symbol
_atom_site_fract_x
_atom_site_fract_y
_atom_site_fract_z
O1 O 0.7672(2) 0.3082(2) 0.4588(4)
C1 C 0.7822(3) 0.3648(3) 0.6038(7)
C2 C 0.8215(3) 0.3172(3) 0.7508(7)
C3 C 0.7771(3) 0.2760(3) 0.8771(8)
C4 C 0.8173(5) 0.2289(4) 1.0019(9)
C5 C 0.9009(5) 0.2230(4) 0.999(1)
C6 C 0.9459(4) 0.2642(4) 0.873(1)
C7 C 0.9062(3) 0.3110(4) 0.7490(8)
N1 N 0.7006(2) 0.3993(2) 0.6435(5)
C8 C 0.6976(3) 0.4696(3) 0.7423(7)
O2 O 0.7598(2) 0.5031(2) 0.7923(5)
C9 C 0.6148(3) 0.5018(3) 0.7935(7)
C10 C 0.5646(3) 0.4566(4) 0.8988(8)
C11 C 0.4912(4) 0.4905(4) 0.9558(9)
C12 C 0.4700(4) 0.5689(5) 0.907(1)
C13 C 0.5201(4) 0.6148(4) 0.8013(9)
C14 C 0.5923(3) 0.5828(3) 0.7469(9)
C15 C 0.6391(3) 0.3647(3) 0.5297(7)
C16 C 0.6893(3) 0.3096(3) 0.4085(7)
O3 O 0.6636(2) 0.2716(3) 0.2867(6)
C17 C 0.5806(3) 0.4220(4) 0.4320(7)
C18 C 0.5004(3) 0.3950(3) 0.5002(7)
C19 C 0.4209(3) 0.4331(3) 0.4580(7)
C20 C 0.4169(4) 0.5157(4) 0.4028(9)
C21 C 0.3424(4) 0.5512(5) 0.359(1)
C22 C 0.2735(4) 0.5021(6) 0.370(1)
C23 C 0.2760(4) 0.4215(5) 0.424(1)
C24 C 0.3497(3) 0.3882(4) 0.468(1)
N2 N 0.5032(2) 0.3324(2) 0.6034(6)
O4 O 0.5865(2) 0.3073(2) 0.6241(5)
H1 H 0.821(2) 0.408(2) 0.558(6)
H2 H 0.711(3) 0.278(3) 0.867(6)
H3 H 0.788(3) 0.202(3) 1.101(7)
H4 H 0.920(3) 0.202(3) 1.083(7)
H5 H 1.008(4) 0.262(4) 0.855(9)
H6 H 0.939(3) 0.339(3) 0.658(7)
H7 H 0.576(3) 0.401(3) 0.933(7)
H8 H 0.453(3) 0.459(3) 1.014(7)
H9 H 0.420(4) 0.591(3) 0.943(9)
H10 H 0.505(3) 0.685(4) 0.751(9)
H11 H 0.629(3) 0.610(3) 0.685(7)
H12 H 0.591(3) 0.410(3) 0.306(6)
H13 H 0.594(2) 0.475(3) 0.448(5)
H14 H 0.467(3) 0.550(3) 0.398(6)
H15 H 0.344(3) 0.608(3) 0.324(7)
H16 H 0.232(4) 0.528(4) 0.334(9)
H17 H 0.219(4) 0.391(4) 0.452(9)
H18 H 0.354(3) 0.330(4) 0.516(8)
#END
