
#######################################################################
#
#                 Cambridge Crystallographic Data Centre
#                                CCDC
#
#######################################################################
#
# If this CIF has been generated from an entry in the Cambridge
# Structural Database, then it will include bibliographic, chemical,
# crystal, experimental, refinement or atomic coordinate data resulting
# from the CCDC's data processing and validation procedures.
#
#######################################################################

data_CSD_CIF_ZEPFIJ
_audit_creation_date 1996-01-25
_audit_creation_method CSD-ConQuest-V1
_database_code_CSD ZEPFIJ
_database_code_depnum_ccdc_archive 'CCDC 131522'
_chemical_formula_sum 'C22 H20 N2 O1'
_chemical_formula_moiety
;
C22 H20 N2 O1
;
_journal_coeditor_code "IUCr PA0301"
_journal_coden_Cambridge 622
_journal_volume 51
_journal_year 1995
_journal_page_first 867
_journal_name_full 'Acta Crystallogr.,Sect.B:Struct.Sci. '
loop_
_publ_author_name
"P.K.Olszewski "
"P.Milart"
"K.Stadnicka"
_chemical_name_systematic
;
(Z,Z)-N-((2-(4-Methylphenyl)-2-(4-methylphenyl)imino)ethylidene)aniline 
N-oxide
;
_chemical_melting_point 464.15
_cell_volume   1769.658
_exptl_crystal_colour 'yellow'
_exptl_crystal_density_diffrn 1.233
_exptl_special_details
;
Melting point range 464.15-465.15K

;
_exptl_crystal_preparation 'ethanol'
_diffrn_ambient_temperature ?
_diffrn_special_details
;
The study was carried out at room temperature,in the range 283-303K

;
#These two values have been output from a single CSD field.
_refine_ls_R_factor_gt 0.037
_refine_ls_wR_factor_gt 0.037
_symmetry_cell_setting orthorhombic
_symmetry_space_group_name_H-M 'P n a 21'
_symmetry_Int_Tables_number 33
loop_
_symmetry_equiv_pos_site_id
_symmetry_equiv_pos_as_xyz
1 x,y,z
2 -x,-y,1/2+z
3 1/2-x,1/2+y,1/2+z
4 1/2+x,1/2-y,z
_cell_length_a 8.6190(6)
_cell_length_b 10.9705(6)
_cell_length_c 18.7157(6)
_cell_angle_alpha 90
_cell_angle_beta 90
_cell_angle_gamma 90
_cell_formula_units_Z 4
loop_
_atom_type_symbol
_atom_type_radius_bond
C 0.68
H 0.23
N 0.68
O 0.68
loop_
_atom_site_label
_atom_site_type_symbol
_atom_site_fract_x
_atom_site_fract_y
_atom_site_fract_z
O1 O 0.0769(3) 0.7252(2) 0.57780
N1 N 0.1728(3) 0.7230(2) 0.3673(2)
N2 N 0.1769(3) 0.6493(2) 0.5523(2)
C1 C 0.1869(3) 0.8781(3) 0.4553(2)
C2 C 0.2704(4) 0.9216(3) 0.5138(2)
C3 C 0.2714(4) 1.0445(3) 0.5285(2)
C4 C 0.1891(4) 1.1274(3) 0.4877(2)
C5 C 0.1041(5) 1.0826(3) 0.4306(2)
C6 C 0.1037(4) 0.9602(3) 0.4141(2)
C7 C 0.1891(4) 0.7474(3) 0.4345(2)
C8 C 0.1649(4) 0.6007(3) 0.3420(2)
C9 C 0.0559(4) 0.5183(3) 0.3651(2)
C10 C 0.0456(5) 0.4032(3) 0.3336(2)
C11 C 0.1451(4) 0.3692(3) 0.2793(2)
C12 C 0.2535(4) 0.4534(3) 0.2565(2)
C13 C 0.2628(4) 0.5680(3) 0.2862(2)
C14 C 0.2280(4) 0.6513(3) 0.4863(2)
C15 C 0.2301(3) 0.5543(2) 0.6010(2)
C16 C 0.3818(4) 0.5138(3) 0.5984(2)
C17 C 0.4282(5) 0.4235(3) 0.6460(2)
C18 C 0.3240(5) 0.3777(4) 0.6957(2)
C19 C 0.1752(5) 0.4204(4) 0.6977(2)
C20 C 0.1255(4) 0.5091(3) 0.6504(2)
C21 C 0.1900(9) 1.2623(4) 0.5055(4)
C22 C 0.1333(8) 0.2445(4) 0.2448(3)
H1 H 0.3321(36) 0.8592(30) 0.5390(16)
H2 H 0.3282(40) 1.0714(33) 0.5704(20)
H3 H 0.0439(39) 1.1321(32) 0.3999(19)
H4 H 0.0527(39) 0.9337(32) 0.3742(20)
H5 H -0.0151(48) 0.5368(35) 0.4019(22)
H6 H -0.0317(42) 0.3558(33) 0.3500(17)
H7 H 0.3247(37) 0.4274(29) 0.2147(18)
H8 H 0.3431(36) 0.6345(32) 0.2674(16)
H9 H 0.3057(43) 0.5787(33) 0.4723(18)
H10 H 0.4630(38) 0.5532(31) 0.5644(19)
H11 H 0.5324(44) 0.3926(34) 0.6423(19)
H12 H 0.3552(51) 0.3140(39) 0.7301(25)
H13 H 0.1028(47) 0.3887(37) 0.7369(22)
H14 H 0.0127(44) 0.5369(33) 0.6494(19)
H15 H 0.2343(69) 1.3000(57) 0.4671(36)
H16 H 0.096(15) 1.2879(93) 0.4927(59)
H17 H 0.187(8) 1.2762(59) 0.5544(42)
H18 H 0.1353(90) 0.1858(72) 0.2756(39)
H19 H 0.0508(62) 0.2449(41) 0.2074(28)
H20 H 0.2225(97) 0.2412(68) 0.2147(40)
#END
