
#######################################################################
#
#                 Cambridge Crystallographic Data Centre
#                                CCDC
#
#######################################################################
#
# If this CIF has been generated from an entry in the Cambridge
# Structural Database, then it will include bibliographic, chemical,
# crystal, experimental, refinement or atomic coordinate data resulting
# from the CCDC's data processing and validation procedures.
#
#######################################################################

data_CSD_CIF_ZERJIR
_audit_creation_date 2013-04-23
_audit_creation_method CSD-ConQuest-V1
_database_code_CSD ZERJIR
_database_code_depnum_ccdc_archive 'CCDC 776711; not CCDC 626122 as published'
_chemical_formula_sum 'C7 H8 N4 O2'
_chemical_formula_moiety
;
C7 H8 N4 O2
;
_journal_coden_Cambridge 82
_journal_volume 53
_journal_year 2012
_journal_page_first 1031
_journal_name_full 'Zh.Strukt.Khim.(Russ.)(J.Struct.Chem.) '
loop_
_publ_author_name
"A.Vasiliev"
"A.Astachov"
"V.Revenko"
_chemical_name_systematic
;
1-Phenyl-2-nitroguanidine
;
_cell_volume    844.892
_exptl_crystal_density_diffrn 1.416
_exptl_crystal_description 'needle'
_exptl_crystal_preparation 'ethanol'
_diffrn_ambient_temperature 295
#These two values have been output from a single CSD field.
_refine_ls_R_factor_gt 0.037
_refine_ls_wR_factor_gt 0.037
_symmetry_cell_setting monoclinic
_symmetry_space_group_name_H-M 'P 21/n'
_symmetry_Int_Tables_number 14
loop_
_symmetry_equiv_pos_site_id
_symmetry_equiv_pos_as_xyz
1 x,y,z
2 1/2-x,1/2+y,1/2-z
3 -x,-y,-z
4 -1/2+x,-1/2-y,-1/2+z
_cell_length_a 7.1079(8)
_cell_length_b 10.225(2)
_cell_length_c 11.945(2)
_cell_angle_alpha 90
_cell_angle_beta 103.29(1)
_cell_angle_gamma 90
_cell_formula_units_Z 4
loop_
_atom_type_symbol
_atom_type_radius_bond
C 0.68
H 0.23
N 0.68
O 0.68
loop_
_atom_site_label
_atom_site_type_symbol
_atom_site_fract_x
_atom_site_fract_y
_atom_site_fract_z
O1 O 1.04726(17) 0.33646(12) 0.67724(10)
N1 N 1.01675(18) 0.15119(12) 0.56811(10)
O2 O 1.27568(16) 0.19360(13) 0.69984(10)
N2 N 0.7653(2) 0.09976(13) 0.42490(12)
H1 H 0.65600 0.11470 0.37820
H2 H 0.82450 0.02710 0.42120
C1 C 0.8424(2) 0.18842(14) 0.50244(12)
N3 N 1.11342(18) 0.23100(13) 0.64996(11)
N4 N 0.75303(18) 0.30063(13) 0.50921(11)
H3 H 0.80780 0.35480 0.56180
C2 C 0.5727(2) 0.33924(15) 0.43622(13)
C3 C 0.4050(2) 0.27142(17) 0.43698(15)
H4 H 0.40800 0.19930 0.48470
C4 C 0.2328(2) 0.3117(2) 0.36620(17)
H5 H 0.11980 0.26570 0.36560
C5 C 0.2274(3) 0.4185(2) 0.29710(17)
H6 H 0.11120 0.44450 0.24900
C6 C 0.3921(3) 0.48696(19) 0.29859(16)
H7 H 0.38710 0.56060 0.25240
C7 C 0.5679(2) 0.44800(16) 0.36853(14)
H8 H 0.68020 0.49500 0.36930
#END
