
#######################################################################
#
#                 Cambridge Crystallographic Data Centre
#                                CCDC
#
#######################################################################
#
# If this CIF has been generated from an entry in the Cambridge
# Structural Database, then it will include bibliographic, chemical,
# crystal, experimental, refinement or atomic coordinate data resulting
# from the CCDC's data processing and validation procedures.
#
#######################################################################

data_CSD_CIF_ZERJOX
_audit_creation_date 2013-04-23
_audit_creation_method CSD-ConQuest-V1
_database_code_CSD ZERJOX
_database_code_depnum_ccdc_archive 'CCDC 796619'
_chemical_formula_sum 'C30 H44 N2 O7'
_chemical_formula_moiety
;
C30 H44 N2 O7
;
_journal_coden_Cambridge 371
_journal_year 2012
_journal_page_first 732
_journal_name_full 'Khim.Prir.Soedin(Russ.)(Chem.Nat.Compd.) '
loop_
_publ_author_name
"A.V.Shernyukov"
"I.Ya.Mainagashev"
"D.V.Korchagina"
"Yu.V.Gatilov"
"N.F.Salakhutdinov"
"G.A.Tolstikov"
_chemical_name_systematic
;
2,2-Dinitro-28-oxo-19\b,28-epoxy-18\a-olean-3-one
;
_chemical_melting_point 495.35
_cell_volume   2744.471
_exptl_crystal_density_diffrn 1.318
_diffrn_ambient_temperature 150
#These two values have been output from a single CSD field.
_refine_ls_R_factor_gt 0.0366
_refine_ls_wR_factor_gt 0.0366
_symmetry_cell_setting orthorhombic
_symmetry_space_group_name_H-M 'P 21 21 21'
_symmetry_Int_Tables_number 19
loop_
_symmetry_equiv_pos_site_id
_symmetry_equiv_pos_as_xyz
1 x,y,z
2 1/2-x,-y,1/2+z
3 1/2+x,1/2-y,-z
4 -x,1/2+y,1/2-z
_cell_length_a 9.6201(7)
_cell_length_b 14.5738(12)
_cell_length_c 19.5752(13)
_cell_angle_alpha 90
_cell_angle_beta 90
_cell_angle_gamma 90
_cell_formula_units_Z 4
loop_
_atom_type_symbol
_atom_type_radius_bond
C 0.68
H 0.23
N 0.68
O 0.68
loop_
_atom_site_label
_atom_site_type_symbol
_atom_site_fract_x
_atom_site_fract_y
_atom_site_fract_z
O1 O -0.42662(11) 0.69971(7) 0.81997(5)
O2 O -0.41451(9) 0.54899(6) 0.80125(4)
C1 C -0.20478(12) 0.54245(8) 0.73980(6)
H1 H -0.15870 0.52190 0.69660
O3 O 0.70831(11) 0.41859(8) 0.93757(6)
O4 O 0.55464(11) 0.44022(8) 1.07429(5)
O5 O 0.36356(12) 0.28301(8) 1.03626(6)
O6 O 0.57527(13) 0.25302(9) 1.00781(7)
O7 O 0.59090(12) 0.32998(8) 0.87033(5)
N1 N 0.47060(12) 0.29899(8) 1.00589(6)
N2 N 0.60322(11) 0.37856(8) 0.92028(6)
C2 C 0.00388(12) 0.61292(8) 0.80570(6)
C3 C 0.36300(12) 0.57162(8) 0.94481(5)
H2 H 0.41710 0.56910 0.90120
C4 C -0.10499(12) 0.53457(8) 0.80123(6)
H3 H -0.16360 0.53900 0.84330
C5 C -0.07266(14) 0.70627(8) 0.80165(6)
H4 H -0.13130 0.71350 0.84290
H5 H -0.00280 0.75620 0.80200
C6 C -0.26772(12) 0.63872(9) 0.73166(6)
C7 C 0.08430(12) 0.60277(8) 0.87667(6)
C8 C 0.19746(13) 0.67723(8) 0.88276(6)
H6 H 0.25570 0.67610 0.84110
H7 H 0.15220 0.73810 0.88530
C9 C 0.25866(12) 0.49082(8) 0.94129(5)
C10 C -0.03393(13) 0.44060(8) 0.80345(6)
H8 H 0.02730 0.43390 0.76310
H9 H -0.10540 0.39180 0.80130
C11 C 0.47270(12) 0.56408(9) 1.00343(6)
C12 C 0.05253(12) 0.42874(8) 0.86877(6)
H10 H 0.10330 0.36970 0.86640
H11 H -0.01080 0.42610 0.90860
C13 C -0.16422(14) 0.71674(9) 0.73823(6)
H12 H -0.21520 0.77570 0.74080
H13 H -0.10460 0.71840 0.69700
C14 C 0.10423(13) 0.60937(10) 0.74365(6)
H14 H 0.15650 0.66700 0.74090
H15 H 0.05050 0.60080 0.70160
H16 H 0.16910 0.55810 0.74930
C15 C 0.34309(13) 0.40342(9) 0.92292(6)
H17 H 0.28230 0.34920 0.92860
H18 H 0.37000 0.40670 0.87420
C16 C 0.29074(13) 0.66493(8) 0.94506(6)
H19 H 0.23410 0.67080 0.98710
H20 H 0.36180 0.71410 0.94560
C17 C 0.18391(12) 0.47300(9) 1.00946(6)
H21 H 0.14570 0.53070 1.02690
H22 H 0.25010 0.44790 1.04260
H23 H 0.10830 0.42900 1.00230
C18 C -0.34049(12) 0.48929(9) 0.75226(6)
H24 H -0.32060 0.42800 0.77310
C19 C 0.15734(12) 0.50699(8) 0.87928(5)
H25 H 0.21820 0.50530 0.83790
C20 C -0.43335(13) 0.47882(9) 0.68882(6)
C21 C -0.47005(14) 0.57508(10) 0.66154(6)
H26 H -0.50270 0.56920 0.61380
H27 H -0.54780 0.60010 0.68890
C22 C 0.50659(12) 0.46476(9) 1.02038(6)
C23 C 0.47445(13) 0.38960(8) 0.96589(6)
C24 C -0.34907(14) 0.64321(9) 0.66354(6)
H28 H -0.38560 0.70610 0.65710
H29 H -0.28490 0.62990 0.62530
C25 C -0.37637(13) 0.63742(9) 0.78872(6)
C26 C 0.60887(13) 0.61147(10) 0.97993(7)
H30 H 0.64220 0.58240 0.93790
H31 H 0.67950 0.60530 1.01570
H32 H 0.59090 0.67660 0.97140
C27 C -0.01961(13) 0.61383(9) 0.93692(6)
H33 H -0.09170 0.65820 0.92440
H34 H 0.03020 0.63580 0.97740
H35 H -0.06280 0.55440 0.94700
C28 C -0.35532(16) 0.42241(11) 0.63484(7)
H36 H -0.41960 0.40500 0.59820
H37 H -0.31710 0.36700 0.65610
H38 H -0.27940 0.45920 0.61580
C29 C -0.56645(14) 0.42788(11) 0.70897(7)
H39 H -0.54290 0.36570 0.72420
H40 H -0.62870 0.42430 0.66940
H41 H -0.61280 0.46100 0.74610
C30 C 0.42976(15) 0.6098(1) 1.07140(6)
H42 H 0.50350 0.60100 1.10530
H43 H 0.34360 0.58180 1.08810
H44 H 0.41490 0.67560 1.06400
#END
