
#######################################################################
#
#                 Cambridge Crystallographic Data Centre
#                                CCDC
#
#######################################################################
#
# If this CIF has been generated from an entry in the Cambridge
# Structural Database, then it will include bibliographic, chemical,
# crystal, experimental, refinement or atomic coordinate data resulting
# from the CCDC's data processing and validation procedures.
#
#######################################################################

data_CSD_CIF_ZERWUR
_audit_creation_date 2018-03-21
_audit_creation_method CSD-ConQuest-V1
_database_code_CSD ZERWUR
_database_code_depnum_ccdc_archive 'CCDC 1556035'
_chemical_formula_sum 'C18 H15 N1 O4'
_chemical_formula_moiety
;
C18 H15 N1 O4
;
_journal_coden_Cambridge 493
_journal_volume 150
_journal_year 2018
_journal_page_first 864
_journal_name_full 'Eur.J.Med.Chem. '
loop_
_publ_author_name
"D.S.Reddy"
"M.Kongot"
"S.P.Netalkar"
"M.M.Kurjogi"
"R.Kumar"
"F.Avecilla"
"A.Kumar"
_chemical_name_systematic
;
1-({[(3-oxobutan-2-ylidene)amino]oxy}methyl)-3H-naphtho[2,1-b]pyran-3-one
;
_cell_volume   1448.572
_exptl_crystal_colour 'colorless'
_exptl_crystal_density_diffrn 1.418
_exptl_crystal_description 'block'
_diffrn_ambient_temperature 100
#These two values have been output from a single CSD field.
_refine_ls_R_factor_gt 0.0386
_refine_ls_wR_factor_gt 0.0386
_symmetry_cell_setting monoclinic
_symmetry_space_group_name_H-M 'P 21/c'
_symmetry_Int_Tables_number 14
loop_
_symmetry_equiv_pos_site_id
_symmetry_equiv_pos_as_xyz
1 x,y,z
2 -x,1/2+y,1/2-z
3 -x,-y,-z
4 x,-1/2-y,-1/2+z
_cell_length_a 7.1714(2)
_cell_length_b 19.3308(6)
_cell_length_c 10.6997(3)
_cell_angle_alpha 90
_cell_angle_beta 102.4205(10)
_cell_angle_gamma 90
_cell_formula_units_Z 4
loop_
_atom_type_symbol
_atom_type_radius_bond
C 0.68
H 0.23
N 0.68
O 0.68
loop_
_atom_site_label
_atom_site_type_symbol
_atom_site_fract_x
_atom_site_fract_y
_atom_site_fract_z
O1 O 0.21968(11) 0.42640(4) 0.74948(8)
N1 N -0.06692(12) 0.68137(4) 0.65466(8)
C1 C 0.21830(16) 0.46850(6) 0.64617(10)
O2 O 0.22043(14) 0.44104(5) 0.54522(8)
C2 C 0.21002(15) 0.54167(5) 0.66984(10)
H1 H 0.19430 0.57240 0.59910
C3 C 0.22356(13) 0.56858(5) 0.78786(10)
O3 O 0.13312(10) 0.67807(4) 0.67780(7)
O4 O -0.42305(12) 0.74200(4) 0.41199(8)
C4 C 0.24510(14) 0.52244(5) 0.89796(9)
C5 C 0.26635(14) 0.54227(5) 1.03092(9)
C6 C 0.30595(15) 0.61050(6) 1.07818(10)
H2 H 0.32450 0.64610 1.02080
C7 C 0.31820(17) 0.62633(7) 1.20533(11)
H3 H 0.34380 0.67260 1.23410
C8 C 0.29326(17) 0.57493(8) 1.29259(11)
H4 H 0.29740 0.58660 1.37940
C9 C 0.26305(16) 0.50811(7) 1.25239(11)
H5 H 0.24920 0.47320 1.31230
C10 C 0.25193(15) 0.48992(6) 1.12263(10)
C11 C 0.23064(16) 0.41961(6) 1.08473(11)
H6 H 0.22130 0.38520 1.14640
C12 C 0.22342(16) 0.40081(6) 0.96163(11)
H7 H 0.21350 0.35340 0.93760
C13 C 0.23078(15) 0.45231(5) 0.86991(10)
C14 C 0.20394(14) 0.64623(5) 0.79913(9)
H8 H 0.11600 0.65640 0.85650
H9 H 0.33010 0.66630 0.83810
C15 C -0.13568(15) 0.70255(5) 0.54093(10)
C16 C -0.02321(16) 0.71893(6) 0.44261(11)
H10 H 0.08520 0.74850 0.48050
H11 H -0.10480 0.74310 0.37070
H12 H 0.02390 0.67590 0.41200
C17 C -0.34815(15) 0.71151(5) 0.50936(10)
C18 C -0.46025(16) 0.68381(7) 0.60091(12)
H13 H -0.59580 0.69460 0.56950
H14 H -0.41510 0.70510 0.68510
H15 H -0.44340 0.63360 0.60820
#END
