
#######################################################################
#
#                 Cambridge Crystallographic Data Centre
#                                CCDC
#
#######################################################################
#
# If this CIF has been generated from an entry in the Cambridge
# Structural Database, then it will include bibliographic, chemical,
# crystal, experimental, refinement or atomic coordinate data resulting
# from the CCDC's data processing and validation procedures.
#
#######################################################################

data_CSD_CIF_ZESGAF
_audit_creation_date 1996-06-03
_audit_creation_method CSD-ConQuest-V1
_database_code_CSD ZESGAF
_chemical_formula_sum 'C22 H28 N2 O6'
_chemical_formula_moiety
;
C22 H28 N2 O6
;
_journal_coden_Cambridge 4
_journal_volume 117
_journal_year 1995
_journal_page_first 9180
_journal_name_full 'J.Am.Chem.Soc. '
loop_
_publ_author_name
"L.Fitjer"
"A.Malich"
"C.Paschke"
"S.Kluge"
"R.Gerke"
"B.Rissom"
"J.Weiser"
"M.Noltemeyer"
_chemical_name_systematic
;
(1S,2R,5R,6S,9R)-2,6,10,10-Tetramethyltricyclo(7.2.0.0^2,5^)undec-6-yl 
3',5'-dinitrobenzoate
;
_chemical_melting_point 409.15
_cell_volume   2136.864
_exptl_crystal_colour 'colorless'
_exptl_crystal_density_diffrn 1.295
_diffrn_ambient_temperature ?
_diffrn_special_details
;
The study was carried out at room temperature,in the range 283-303K

;
#These two values have been output from a single CSD field.
_refine_ls_R_factor_gt 0.0527
_refine_ls_wR_factor_gt 0.0527
_symmetry_cell_setting orthorhombic
_symmetry_space_group_name_H-M 'P 21 21 21'
_symmetry_Int_Tables_number 19
loop_
_symmetry_equiv_pos_site_id
_symmetry_equiv_pos_as_xyz
1 x,y,z
2 1/2-x,-y,1/2+z
3 1/2+x,1/2-y,-z
4 -x,1/2+y,1/2-z
_cell_length_a 8.283(2)
_cell_length_b 12.947(3)
_cell_length_c 19.926(4)
_cell_angle_alpha 90
_cell_angle_beta 90
_cell_angle_gamma 90
_cell_formula_units_Z 4
loop_
_atom_type_symbol
_atom_type_radius_bond
C 0.68
H 0.23
N 0.68
O 0.68
loop_
_atom_site_label
_atom_site_type_symbol
_atom_site_fract_x
_atom_site_fract_y
_atom_site_fract_z
C1 C -0.1062(4) -0.5431(2) -0.3059(2)
C2 C 0.0365(4) -0.4794(3) -0.3306(2)
C3 C 0.1122(4) -0.5106(3) -0.3990(2)
C4 C 0.0945(4) -0.3991(3) -0.4248(2)
C5 C -0.0087(4) -0.3704(2) -0.3621(2)
C6 C -0.1829(4) -0.3379(2) -0.3763(2)
C7 C -0.2879(4) -0.3257(2) -0.3132(2)
C8 C -0.3523(4) -0.4236(2) -0.2792(2)
C9 C -0.2200(4) -0.4930(2) -0.2536(2)
C10 C -0.2522(4) -0.6033(2) -0.2243(2)
C11 C -0.0908(4) -0.6374(2) -0.2579(2)
C12 C 0.1675(5) -0.4661(3) -0.2775(2)
C13 C -0.1801(4) -0.2364(3) -0.4153(2)
C14 C -0.3972(4) -0.6556(3) -0.2562(2)
C15 C -0.2604(6) -0.6104(3) -0.1479(2)
O1 O -0.2456(3) -0.4207(2) -0.4215(1)
C16 C -0.3949(4) -0.4164(3) -0.4459(2)
O2 O -0.4954(3) -0.3519(2) -0.4329(1)
C17 C -0.4260(4) -0.5036(2) -0.4943(2)
C18 C -0.5802(4) -0.5113(3) -0.5216(2)
C19 C -0.6104(5) -0.5878(3) -0.5683(2)
C20 C -0.4946(5) -0.6562(3) -0.5899(2)
C21 C -0.3429(5) -0.6471(3) -0.5610(2)
C22 C -0.3064(4) -0.5730(2) -0.5135(2)
N1 N -0.7766(4) -0.5963(3) -0.5956(2)
O3 O -0.8032(4) -0.6676(3) -0.6348(2)
O4 O -0.8763(4) -0.5333(3) -0.5777(2)
N2 N -0.2159(4) -0.7189(2) -0.5831(2)
O5 O -0.2308(4) -0.7598(2) -0.6384(1)
O6 O -0.1031(4) -0.7348(2) -0.5443(1)
H1 H -0.1694(4) -0.5635(2) -0.3441(2)
H2 H 0.2222(4) -0.5334(3) -0.3956(2)
H3 H 0.0482(4) -0.5596(3) -0.4235(2)
H4 H 0.0362(4) -0.3936(3) -0.4662(2)
H5 H 0.1951(4) -0.3624(3) -0.4272(2)
H6 H 0.0447(4) -0.3167(2) -0.3373(2)
H7 H -0.3788(4) -0.2836(2) -0.3252(2)
H8 H -0.2265(4) -0.2879(2) -0.2805(2)
H9 H -0.4208(4) -0.4043(2) -0.2425(2)
H10 H -0.4168(4) -0.4614(2) -0.3108(2)
H11 H -0.1558(4) -0.4549(2) -0.2221(2)
H12 H -0.0967(4) -0.7031(2) -0.2802(2)
H13 H 0.0011(4) -0.6342(2) -0.2286(2)
H14 H 0.1939(5) -0.5322(3) -0.2587(2)
H15 H 0.1288(5) -0.4212(3) -0.2428(2)
H16 H 0.2620(5) -0.4366(3) -0.2977(2)
H17 H -0.1143(4) -0.2442(3) -0.4546(2)
H18 H -0.1361(4) -0.1828(3) -0.3874(2)
H19 H -0.2880(4) -0.2183(3) -0.4283(2)
H20 H -0.4117(4) -0.7227(3) -0.2367(2)
H21 H -0.3797(4) -0.6625(3) -0.3036(2)
H22 H -0.4918(4) -0.6145(3) -0.2484(2)
H23 H -0.2804(6) -0.6806(3) -0.1349(2)
H24 H -0.3464(6) -0.5672(3) -0.1319(2)
H25 H -0.1600(6) -0.5877(3) -0.1290(2)
H26 H -0.6641(4) -0.4646(3) -0.5082(2)
H27 H -0.5178(5) -0.7079(3) -0.6230(2)
H28 H -0.2007(4) -0.5696(2) -0.4939(2)
#END
