
#######################################################################
#
#                 Cambridge Crystallographic Data Centre
#                                CCDC
#
#######################################################################
#
# If this CIF has been generated from an entry in the Cambridge
# Structural Database, then it will include bibliographic, chemical,
# crystal, experimental, refinement or atomic coordinate data resulting
# from the CCDC's data processing and validation procedures.
#
#######################################################################

data_CSD_CIF_ZESNUG
_audit_creation_date 1996-06-03
_audit_creation_method CSD-ConQuest-V1
_database_code_CSD ZESNUG
_database_code_depnum_ccdc_archive 'CCDC 1311370'
_chemical_formula_sum 'C13 H12 N4 O8'
_chemical_formula_moiety
;
C13 H12 N4 O8
;
_journal_coden_Cambridge 3
_journal_volume 49
_journal_year 1995
_journal_page_first 482
_journal_name_full 'Acta Chem.Scand. '
loop_
_publ_author_name
"L.Eberson"
"M.P.Hartshorn"
"O.Persson"
"W.T.Robinson"
"D.J.Timmerman-Vaughan"
_chemical_name_systematic
;
3,5-Dimethyl-9,9,14-trinitro-11,13-dioxa-10-azatetracyclo(8.2.1.1^8,12^.0^2,7^
)tetradeca-2,4,6-triene
;
_chemical_melting_point 468.15
_cell_volume   2888.598
_exptl_crystal_colour 'colorless'
_exptl_crystal_density_diffrn 1.62
_exptl_special_details
;
Melts with decomposition.

;
_diffrn_ambient_temperature 120
#These two values have been output from a single CSD field.
_refine_ls_R_factor_gt 0.035
_refine_ls_wR_factor_gt 0.035
_symmetry_cell_setting orthorhombic
_symmetry_space_group_name_H-M 'P b c a'
_symmetry_Int_Tables_number 61
loop_
_symmetry_equiv_pos_site_id
_symmetry_equiv_pos_as_xyz
1 x,y,z
2 1/2-x,-y,1/2+z
3 1/2+x,1/2-y,-z
4 -x,1/2+y,1/2-z
5 -x,-y,-z
6 -1/2+x,y,-1/2-z
7 -1/2-x,-1/2+y,z
8 x,-1/2-y,-1/2+z
_cell_length_a 16.023(4)
_cell_length_b 7.361(2)
_cell_length_c 24.491(6)
_cell_angle_alpha 90
_cell_angle_beta 90
_cell_angle_gamma 90
_cell_formula_units_Z 8
loop_
_atom_type_symbol
_atom_type_radius_bond
C 0.68
H 0.23
N 0.68
O 0.68
loop_
_atom_site_label
_atom_site_type_symbol
_atom_site_fract_x
_atom_site_fract_y
_atom_site_fract_z
O1 O 0.5953(1) -0.3899(3) 0.5791(1)
O2 O 0.5945(1) -0.4349(3) 0.6671(1)
O3 O 0.7025(1) 0.0180(3) 0.5778(1)
O4 O 0.7490(1) -0.1697(3) 0.6400(1)
O5 O 0.5268(1) -0.1278(3) 0.7167(1)
O6 O 0.6111(1) 0.1014(3) 0.6966(1)
O7 O 0.4577(1) 0.2416(3) 0.5397(1)
O8 O 0.4242(1) 0.3640(3) 0.6177(1)
N1 N 0.5973(2) -0.3375(4) 0.6268(1)
N2 N 0.6937(1) -0.0902(4) 0.6151(1)
N3 N 0.6065(1) -0.0921(4) 0.6939(1)
N4 N 0.4672(1) 0.2646(4) 0.5891(1)
C1 C 0.5392(2) -0.0361(4) 0.5979(1)
C2 C 0.5383(2) 0.1638(4) 0.6158(1)
C3 C 0.5302(2) 0.1635(4) 0.6782(1)
C4 C 0.4691(2) 0.0176(4) 0.6994(1)
C5 C 0.4132(2) -0.0651(4) 0.6566(1)
C6 C 0.3296(2) -0.1098(4) 0.6658(1)
C7 C 0.2885(2) -0.2023(4) 0.6244(1)
C8 C 0.3253(2) -0.2518(5) 0.5754(1)
C9 C 0.4086(2) -0.2018(4) 0.5670(1)
C10 C 0.4511(2) -0.1103(4) 0.6069(1)
C11 C 0.6032(2) -0.1327(4) 0.6338(1)
C12 C 0.2851(2) -0.0648(4) 0.7186(1)
C13 C 0.2784(2) -0.3514(4) 0.5310(1)
H1 H 0.5552(2) -0.0462(4) 0.5585(1)
H2 H 0.5923(2) 0.2222(4) 0.6052(1)
H3 H 0.5165(2) 0.2869(4) 0.6927(1)
H4 H 0.4358(2) 0.0642(4) 0.7309(1)
H5 H 0.2317(2) -0.2337(4) 0.6301(1)
H6 H 0.4356(2) -0.2313(4) 0.5336(1)
H7 H 0.2992(8) 0.0592(9) 0.7298(4)
H8 H 0.3026(8) -0.1503(15) 0.7471(2)
H9 H 0.2246(2) -0.0744(22) 0.7132(2)
H10 H 0.3022(7) -0.4731(9) 0.5264(5)
H11 H 0.2830(9) -0.2840(13) 0.4967(2)
H12 H 0.2194(3) -0.3618(21) 0.5413(3)
#END
