
#######################################################################
#
#                 Cambridge Crystallographic Data Centre
#                                CCDC
#
#######################################################################
#
# If this CIF has been generated from an entry in the Cambridge
# Structural Database, then it will include bibliographic, chemical,
# crystal, experimental, refinement or atomic coordinate data resulting
# from the CCDC's data processing and validation procedures.
#
#######################################################################

data_CSD_CIF_ZESNIU
_audit_creation_date 1996-06-03
_audit_creation_method CSD-ConQuest-V1
_database_code_CSD ZESNIU
_database_code_depnum_ccdc_archive 'CCDC 1311368'
_chemical_formula_sum 'C13 H12 N4 O8'
_chemical_formula_moiety
;
C13 H12 N4 O8
;
_journal_coden_Cambridge 3
_journal_volume 49
_journal_year 1995
_journal_page_first 482
_journal_name_full 'Acta Chem.Scand. '
loop_
_publ_author_name
"L.Eberson"
"M.P.Hartshorn"
"O.Persson"
"W.T.Robinson"
"D.J.Timmerman-Vaughan"
_chemical_name_systematic
;
1,14-Dimethyl-9,9,14-trinitro-11,13-dioxa-10-azatetracyclo(8.2.1.1^8,12^.0^2,7
^)tetradeca-2,4,6-triene
;
_chemical_melting_point 452.65
_cell_volume   1422.628
_exptl_crystal_colour 'colorless'
_exptl_crystal_density_diffrn 1.645
_exptl_special_details
;
Melting point range 452.65-453.65K

;
_diffrn_ambient_temperature 120
#These two values have been output from a single CSD field.
_refine_ls_R_factor_gt 0.0595
_refine_ls_wR_factor_gt 0.0595
_symmetry_cell_setting monoclinic
_symmetry_space_group_name_H-M 'P 21/c'
_symmetry_Int_Tables_number 14
loop_
_symmetry_equiv_pos_site_id
_symmetry_equiv_pos_as_xyz
1 x,y,z
2 -x,1/2+y,1/2-z
3 -x,-y,-z
4 x,-1/2-y,-1/2+z
_cell_length_a 7.594(2)
_cell_length_b 23.672(5)
_cell_length_c 8.179(2)
_cell_angle_alpha 90
_cell_angle_beta 104.63(3)
_cell_angle_gamma 90
_cell_formula_units_Z 4
loop_
_atom_type_symbol
_atom_type_radius_bond
C 0.68
H 0.23
N 0.68
O 0.68
loop_
_atom_site_label
_atom_site_type_symbol
_atom_site_fract_x
_atom_site_fract_y
_atom_site_fract_z
O1 O 0.3277(5) 0.3385(2) 0.0590(4)
O2 O 0.4378(5) 0.4225(2) 0.1267(4)
O3 O -0.1088(5) 0.3649(2) 0.0147(4)
O4 O 0.0232(5) 0.4393(2) -0.0546(4)
O5 O 0.3426(4) 0.4538(1) 0.4144(4)
O6 O 0.0417(4) 0.4587(1) 0.3554(4)
O7 O 0.0104(5) 0.2697(1) 0.5221(4)
O8 O 0.0731(4) 0.3360(1) 0.7108(4)
N1 N 0.3284(5) 0.3848(2) 0.1231(5)
N2 N 0.0103(6) 0.4007(2) 0.0392(5)
N3 N 0.1891(5) 0.4527(2) 0.2761(5)
N4 N 0.0366(5) 0.3196(2) 0.5641(5)
C1 C 0.1437(6) 0.3449(2) 0.3114(6)
C2 C 0.0158(6) 0.3634(2) 0.4246(6)
C3 C 0.0885(6) 0.4198(2) 0.4980(6)
C4 C 0.2988(6) 0.4235(2) 0.5577(6)
C5 C 0.3938(6) 0.3672(2) 0.5650(6)
C6 C 0.5497(6) 0.3526(2) 0.6853(6)
C7 C 0.6368(6) 0.3019(2) 0.6738(6)
C8 C 0.5676(6) 0.2655(2) 0.5424(6)
C9 C 0.4093(6) 0.2790(2) 0.4219(6)
C10 C 0.3243(6) 0.3296(2) 0.4323(6)
C11 C 0.1656(6) 0.3953(2) 0.2008(6)
C12 C -0.1908(6) 0.3642(2) 0.3442(6)
C13 C 0.3633(7) 0.4610(2) 0.7104(6)
H1 H 0.0915(6) 0.3117(2) 0.2399(6)
H2 H 0.0308(6) 0.4315(2) 0.5898(6)
H3 H 0.5976(6) 0.3775(2) 0.7768(6)
H4 H 0.7447(6) 0.2923(2) 0.7568(6)
H5 H 0.6284(6) 0.2309(2) 0.5343(6)
H6 H 0.3600(6) 0.2535(2) 0.3324(6)
H7 H -0.2188(9) 0.3929(9) 0.2549(25)
H8 H -0.2550(7) 0.3733(12) 0.4309(10)
H9 H -0.2301(9) 0.3271(4) 0.2957(33)
H10 H 0.3481(38) 0.4412(5) 0.8112(8)
H11 H 0.2916(28) 0.4959(6) 0.6947(18)
H12 H 0.4921(13) 0.4701(10) 0.7245(23)
#END
