
#######################################################################
#
#                 Cambridge Crystallographic Data Centre
#                                CCDC
#
#######################################################################
#
# If this CIF has been generated from an entry in the Cambridge
# Structural Database, then it will include bibliographic, chemical,
# crystal, experimental, refinement or atomic coordinate data resulting
# from the CCDC's data processing and validation procedures.
#
#######################################################################

data_CSD_CIF_ZESNOA
_audit_creation_date 1996-06-03
_audit_creation_method CSD-ConQuest-V1
_database_code_CSD ZESNOA
_database_code_depnum_ccdc_archive 'CCDC 1311369'
_chemical_formula_sum 'C13 H12 N4 O8'
_chemical_formula_moiety
;
C13 H12 N4 O8
;
_journal_coden_Cambridge 3
_journal_volume 49
_journal_year 1995
_journal_page_first 482
_journal_name_full 'Acta Chem.Scand. '
loop_
_publ_author_name
"L.Eberson"
"M.P.Hartshorn"
"O.Persson"
"W.T.Robinson"
"D.J.Timmerman-Vaughan"
_chemical_name_systematic
;
6,8-Dimethyl-r-1-nitro-c-4-trinitromethyl-1,4-dihydronaphthalene
;
_chemical_melting_point 402.15
_cell_volume   1494.234
_exptl_crystal_colour 'colorless'
_exptl_crystal_density_diffrn 1.566
_exptl_special_details
;
Melts with decomposition.

;
_diffrn_ambient_temperature 130
#These two values have been output from a single CSD field.
_refine_ls_R_factor_gt 0.059
_refine_ls_wR_factor_gt 0.059
loop_
_citation_database_id_CSD
_citation_special_details
ZESNEQ "is a stereoisomer of this entry"
_symmetry_cell_setting monoclinic
_symmetry_space_group_name_H-M 'P 21/c'
_symmetry_Int_Tables_number 14
loop_
_symmetry_equiv_pos_site_id
_symmetry_equiv_pos_as_xyz
1 x,y,z
2 -x,1/2+y,1/2-z
3 -x,-y,-z
4 x,-1/2-y,-1/2+z
_cell_length_a 7.881(2)
_cell_length_b 17.684(4)
_cell_length_c 10.973(2)
_cell_angle_alpha 90
_cell_angle_beta 102.29(3)
_cell_angle_gamma 90
_cell_formula_units_Z 4
loop_
_atom_type_symbol
_atom_type_radius_bond
C 0.68
H 0.23
N 0.68
O 0.68
loop_
_atom_site_label
_atom_site_type_symbol
_atom_site_fract_x
_atom_site_fract_y
_atom_site_fract_z
O1 O 0.9690(4) 0.6970(2) 0.5414(3)
O2 O 0.8461(4) 0.7587(2) 0.3786(3)
O3 O 0.5674(4) 0.6660(2) 0.2554(3)
O4 O 0.5838(4) 0.5550(2) 0.3410(3)
O5 O 0.2508(4) 0.5052(2) 0.2745(3)
O6 O 0.2234(4) 0.5369(2) 0.4608(3)
O7 O 0.2434(5) 0.6666(2) 0.1299(3)
O8 O 0.0553(4) 0.6560(2) 0.2464(3)
N1 N 0.8494(4) 0.7334(2) 0.4816(3)
N2 N 0.5103(4) 0.6134(2) 0.3066(3)
N3 N 0.2644(4) 0.5486(2) 0.3616(3)
N4 N 0.2011(5) 0.6531(2) 0.2272(3)
C1 C 0.7006(5) 0.7520(2) 0.5475(3)
C2 C 0.6442(5) 0.6797(2) 0.5997(3)
C3 C 0.4909(5) 0.6496(2) 0.5589(3)
C4 C 0.3572(5) 0.6813(2) 0.4523(3)
C5 C 0.3954(5) 0.7628(2) 0.4200(3)
C6 C 0.2602(5) 0.8063(2) 0.3538(3)
C7 C 0.2825(5) 0.8826(2) 0.3300(3)
C8 C 0.4451(5) 0.9142(2) 0.3766(4)
C9 C 0.5819(5) 0.8734(2) 0.4448(3)
C10 C 0.5577(5) 0.7955(2) 0.4662(3)
C11 C 0.3366(5) 0.6276(2) 0.3397(4)
C12 C 0.1327(5) 0.9297(2) 0.2620(4)
C13 C 0.7515(5) 0.9126(2) 0.4963(4)
H1 H 0.7502(5) 0.7852(2) 0.6202(3)
H2 H 0.7232(5) 0.6549(2) 0.6650(3)
H3 H 0.4623(5) 0.6051(2) 0.5988(3)
H4 H 0.2438(5) 0.6817(2) 0.4794(3)
H5 H 0.1500(5) 0.7835(2) 0.3240(3)
H6 H 0.4625(5) 0.9661(2) 0.3607(4)
H7 H 0.0573(19) 0.9429(13) 0.3192(8)
H8 H 0.0661(20) 0.9007(6) 0.1917(15)
H9 H 0.1771(6) 0.9760(7) 0.2309(21)
H10 H 0.8432(8) 0.8901(10) 0.4601(19)
H11 H 0.7810(18) 0.9068(13) 0.5872(5)
H12 H 0.7407(11) 0.9665(4) 0.4751(21)
#END
