
#######################################################################
#
#                 Cambridge Crystallographic Data Centre
#                                CCDC
#
#######################################################################
#
# If this CIF has been generated from an entry in the Cambridge
# Structural Database, then it will include bibliographic, chemical,
# crystal, experimental, refinement or atomic coordinate data resulting
# from the CCDC's data processing and validation procedures.
#
#######################################################################

data_CSD_CIF_ZESPAO
_audit_creation_date 1996-06-03
_audit_creation_method CSD-ConQuest-V1
_database_code_CSD ZESPAO
_database_code_depnum_ccdc_archive 'CCDC 1311371'
_chemical_formula_sum 'C15 H16 N4 O8'
_chemical_formula_moiety
;
C15 H16 N4 O8
;
_journal_coden_Cambridge 3
_journal_volume 49
_journal_year 1995
_journal_page_first 571
_journal_name_full 'Acta Chem.Scand. '
loop_
_publ_author_name
"L.Eberson"
"M.P.Hartshorn"
"W.T.Robinson"
"D.J.Timmerman-Vaughan"
_chemical_name_systematic
;
1,4,6,7-Tetramethyl-r-1-nitro-t-4-trinitromethyl-1,4-dihydronaphthalene
;
_chemical_melting_point 362.15
_cell_volume   1654.803
_exptl_crystal_colour 'colorless'
_exptl_crystal_density_diffrn 1.527
_exptl_special_details
;
Melts with decomposition.

;
_diffrn_ambient_temperature 130
#These two values have been output from a single CSD field.
_refine_ls_R_factor_gt 0.0804
_refine_ls_wR_factor_gt 0.0804
_symmetry_cell_setting monoclinic
_symmetry_space_group_name_H-M 'P 21/c'
_symmetry_Int_Tables_number 14
loop_
_symmetry_equiv_pos_site_id
_symmetry_equiv_pos_as_xyz
1 x,y,z
2 -x,1/2+y,1/2-z
3 -x,-y,-z
4 x,-1/2-y,-1/2+z
_cell_length_a 16.054(3)
_cell_length_b 9.085(1)
_cell_length_c 11.909(2)
_cell_angle_alpha 90
_cell_angle_beta 107.69(2)
_cell_angle_gamma 90
_cell_formula_units_Z 4
loop_
_atom_type_symbol
_atom_type_radius_bond
C 0.68
H 0.23
N 0.68
O 0.68
loop_
_atom_site_label
_atom_site_type_symbol
_atom_site_fract_x
_atom_site_fract_y
_atom_site_fract_z
O1 O 0.8284(2) -0.2933(4) 0.7746(4)
O2 O 0.8173(2) -0.3931(4) 0.9339(4)
O3 O 0.5031(2) 0.1311(4) 0.7376(4)
O4 O 0.6213(2) 0.1368(4) 0.8861(4)
O5 O 0.5481(2) 0.1473(4) 0.5087(3)
O6 O 0.5266(2) 0.3598(4) 0.5790(3)
O7 O 0.7058(2) 0.4215(4) 0.6828(4)
O8 O 0.6485(3) 0.4178(4) 0.8259(4)
N1 N 0.7981(3) -0.2992(4) 0.8570(5)
N2 N 0.5794(3) 0.1563(4) 0.7817(4)
N3 N 0.5635(2) 0.2404(5) 0.5847(4)
N4 N 0.6668(3) 0.3647(4) 0.7439(5)
C1 C 0.7309(3) -0.1766(5) 0.8635(5)
C2 C 0.6692(3) -0.1693(5) 0.7409(5)
C3 C 0.6568(3) -0.0541(5) 0.6741(5)
C4 C 0.7050(3) 0.0915(5) 0.7040(5)
C5 C 0.7749(3) 0.0843(5) 0.8265(4)
C6 C 0.8330(3) 0.2012(5) 0.8644(5)
C7 C 0.8982(3) 0.2005(5) 0.9714(5)
C8 C 0.9054(3) 0.0778(5) 1.0455(5)
C9 C 0.8502(3) -0.0382(5) 1.0064(5)
C10 C 0.7859(3) -0.0377(5) 0.8975(5)
C11 C 0.6856(3) -0.2222(5) 0.9520(5)
C12 C 0.7487(3) 0.1253(5) 0.6091(5)
C13 C 0.9583(3) 0.3296(5) 1.0062(5)
C14 C 0.9738(3) 0.0723(6) 1.1648(5)
C15 C 0.6334(3) 0.2084(5) 0.7045(5)
H1 H 0.6368(3) -0.2555(5) 0.7099(5)
H2 H 0.6136(3) -0.0612(5) 0.5993(5)
H3 H 0.8275(3) 0.2847(5) 0.8147(5)
H4 H 0.8559(3) -0.1225(5) 1.0553(5)
H5 H 0.7289(5) -0.2313(35) 1.0301(7)
H6 H 0.6566(18) -0.3172(18) 0.9287(16)
H7 H 0.6421(15) -0.1479(19) 0.9547(22)
H8 H 0.7793(18) 0.2199(18) 0.6264(16)
H9 H 0.7041(4) 0.1302(36) 0.5319(6)
H10 H 0.7908(16) 0.0473(19) 0.6083(20)
H11 H 1.0185(4) 0.2980(9) 1.0163(29)
H12 H 0.9543(16) 0.3704(23) 1.0806(15)
H13 H 0.9415(14) 0.4051(16) 0.9446(14)
H14 H 0.9675(15) 0.1584(22) 1.2111(12)
H15 H 1.0322(3) 0.0727(40) 1.1547(5)
H16 H 0.9663(15) -0.0176(21) 1.2060(14)
#END
