
#######################################################################
#
#                 Cambridge Crystallographic Data Centre
#                                CCDC
#
#######################################################################
#
# If this CIF has been generated from an entry in the Cambridge
# Structural Database, then it will include bibliographic, chemical,
# crystal, experimental, refinement or atomic coordinate data resulting
# from the CCDC's data processing and validation procedures.
#
#######################################################################

data_CSD_CIF_ZETXOO
_audit_creation_date 2018-03-22
_audit_creation_method CSD-ConQuest-V1
_database_code_CSD ZETXOO
_database_code_depnum_ccdc_archive 'CCDC 1578570; not CCDC 1579570 as published'
_chemical_formula_sum 'C10 H8 N2 O7'
_chemical_formula_moiety
;
C10 H8 N2 O7
;
_journal_coden_Cambridge 35
_journal_volume 83
_journal_year 2018
_journal_page_first 3367
_journal_name_full 'J.Org.Chem. '
loop_
_publ_author_name
"A.H.Cleveland"
"F.R.Fronczek"
"R.Kartika"
_chemical_name_systematic
;
(oxiran-2-yl)methyl 3,5-dinitrobenzoate
;
_cell_volume   1072.616
_exptl_crystal_colour 'colorless'
_exptl_crystal_density_diffrn 1.661
_exptl_special_details
;
Absolute configuration

;
_exptl_crystal_description 'needle'
_exptl_crystal_preparation 'dichloromethane'
_diffrn_ambient_temperature 100
#These two values have been output from a single CSD field.
_refine_ls_R_factor_gt 0.0224
_refine_ls_wR_factor_gt 0.0224
_symmetry_cell_setting orthorhombic
_symmetry_space_group_name_H-M 'P 21 21 21'
_symmetry_Int_Tables_number 19
loop_
_symmetry_equiv_pos_site_id
_symmetry_equiv_pos_as_xyz
1 x,y,z
2 1/2-x,-y,1/2+z
3 -x,1/2+y,1/2-z
4 1/2+x,1/2-y,-z
_cell_length_a 5.3640(2)
_cell_length_b 10.4478(3)
_cell_length_c 19.1395(6)
_cell_angle_alpha 90
_cell_angle_beta 90
_cell_angle_gamma 90
_cell_formula_units_Z 4
loop_
_atom_type_symbol
_atom_type_radius_bond
C 0.68
H 0.23
N 0.68
O 0.68
loop_
_atom_site_label
_atom_site_type_symbol
_atom_site_fract_x
_atom_site_fract_y
_atom_site_fract_z
O1 O 0.8468(2) 0.57954(11) 0.39938(5)
O2 O 0.5855(2) 0.67566(11) 0.47513(5)
O3 O 1.3516(2) 0.42621(11) 0.39952(5)
O4 O 0.6941(2) 0.61947(12) 0.14811(6)
O5 O 0.3303(2) 0.68559(11) 0.11484(5)
O6 O -0.1304(2) 0.96413(11) 0.26987(6)
O7 O -0.1150(2) 0.91981(11) 0.38059(6)
N1 N 0.4912(2) 0.66941(13) 0.15933(7)
N2 N -0.0373(2) 0.91046(12) 0.32079(6)
C1 C 0.5123(3) 0.69992(14) 0.35328(8)
C2 C 0.5776(3) 0.66451(14) 0.28559(8)
H1 H 0.71560 0.60970 0.27710
C3 C 0.4353(3) 0.71153(14) 0.23090(8)
C4 C 0.2354(3) 0.79325(15) 0.24017(8)
H2 H 0.14150 0.82490 0.20180
C5 C 0.1793(3) 0.82661(14) 0.30863(8)
C6 C 0.3114(3) 0.78136(14) 0.36533(8)
H3 H 0.26630 0.80520 0.41150
C7 C 0.6494(3) 0.65123(14) 0.41625(7)
C8 C 0.9861(3) 0.52823(16) 0.45851(8)
H4 H 0.87100 0.50810 0.49740
H5 H 1.10870 0.59210 0.47520
C9 C 1.1167(3) 0.41033(15) 0.43530(7)
H6 H 1.013(4) 0.344(2) 0.4168(10)
C10 C 1.3484(3) 0.37475(15) 0.46989(8)
H7 H 1.413(4) 0.429(2) 0.5034(10)
H8 H 1.393(4) 0.286(2) 0.4726(10)
#END
