
#######################################################################
#
#                 Cambridge Crystallographic Data Centre
#                                CCDC
#
#######################################################################
#
# If this CIF has been generated from an entry in the Cambridge
# Structural Database, then it will include bibliographic, chemical,
# crystal, experimental, refinement or atomic coordinate data resulting
# from the CCDC's data processing and validation procedures.
#
#######################################################################

data_CSD_CIF_ZEVJOB
_audit_creation_date 2013-05-20
_audit_creation_method CSD-ConQuest-V1
_database_code_CSD ZEVJOB
_database_code_depnum_ccdc_archive 'CCDC 905069'
_chemical_formula_sum 'C14 H12 N2 O3'
_chemical_formula_moiety
;
C14 H12 N2 O3
;
_journal_coden_Cambridge 16
_journal_volume 69
_journal_year 2013
_journal_page_first 3249
_journal_name_full 'Tetrahedron '
loop_
_publ_author_name
"P.A.Nikitina"
"L.G.Kuzmina"
"V.P.Perevalov"
"I.I.Tkach"
_chemical_name_systematic
;
3-(3-Hydroxy-4,5-dimethyl-1H-3\l^5^-imidazol-2-yl)-4H-chromen-4-one
;
_cell_volume   1147.271
_exptl_crystal_colour 'colorless'
_exptl_crystal_density_diffrn 1.484
_exptl_crystal_description 'block'
_diffrn_ambient_temperature 123
#These two values have been output from a single CSD field.
_refine_ls_R_factor_gt 0.0758
_refine_ls_wR_factor_gt 0.0758
_symmetry_cell_setting orthorhombic
_symmetry_space_group_name_H-M 'P c a 21'
_symmetry_Int_Tables_number 29
loop_
_symmetry_equiv_pos_site_id
_symmetry_equiv_pos_as_xyz
1 x,y,z
2 -x,-y,1/2+z
3 1/2+x,-y,z
4 1/2-x,y,1/2+z
_cell_length_a 20.8148(15)
_cell_length_b 4.4300(4)
_cell_length_c 12.442(1)
_cell_angle_alpha 90
_cell_angle_beta 90
_cell_angle_gamma 90
_cell_formula_units_Z 4
loop_
_atom_type_symbol
_atom_type_radius_bond
C 0.68
H 0.23
N 0.68
O 0.68
loop_
_atom_site_label
_atom_site_type_symbol
_atom_site_fract_x
_atom_site_fract_y
_atom_site_fract_z
O1 O 0.62465(12) 0.2288(7) 0.2078(2)
O2 O 0.57760(13) 0.5861(6) 0.5017(2)
O3 O 0.72872(13) 0.0528(6) 0.5792(2)
N1 N 0.73761(15) -0.0231(8) 0.4753(2)
N2 N 0.72881(13) -0.0611(7) 0.3023(2)
H1 H 0.71490 -0.03860 0.23600
C1 C 0.61158(17) 0.3433(9) 0.2960(3)
C2 C 0.64803(16) 0.2760(8) 0.3942(3)
C3 C 0.62920(17) 0.4002(10) 0.4897(3)
H2 H 0.65380 0.35380 0.55190
C4 C 0.54290(18) 0.6657(9) 0.4113(3)
C5 C 0.55814(18) 0.5555(9) 0.3100(3)
C6 C 0.52042(18) 0.6508(9) 0.2227(3)
H3 H 0.53010 0.58090 0.15240
C7 C 0.46964(18) 0.844(1) 0.2381(3)
H4 H 0.44460 0.90790 0.17840
C8 C 0.4545(2) 0.9481(9) 0.3425(3)
H5 H 0.41890 1.07950 0.35300
C9 C 0.49122(19) 0.8589(9) 0.4291(3)
H6 H 0.48150 0.92800 0.49950
C10 C 0.70266(17) 0.0747(8) 0.3912(3)
C11 C 0.78000(18) -0.2372(8) 0.3324(3)
C12 C 0.78653(18) -0.2172(10) 0.4411(3)
C13 C 0.83116(19) -0.3577(9) 0.5193(3)
H7 H 0.86200 -0.48570 0.48100
H8 H 0.80670 -0.48090 0.57040
H9 H 0.85430 -0.19940 0.55840
C14 C 0.81801(19) -0.4185(10) 0.2523(3)
H10 H 0.85230 -0.52800 0.28970
H11 H 0.83690 -0.28260 0.19880
H12 H 0.78960 -0.56290 0.21640
#END
