
#######################################################################
#
#                 Cambridge Crystallographic Data Centre
#                                CCDC
#
#######################################################################
#
# If this CIF has been generated from an entry in the Cambridge
# Structural Database, then it will include bibliographic, chemical,
# crystal, experimental, refinement or atomic coordinate data resulting
# from the CCDC's data processing and validation procedures.
#
#######################################################################

data_CSD_CIF_ZEWTON
_audit_creation_date 2018-03-24
_audit_creation_method CSD-ConQuest-V1
_database_code_CSD ZEWTON
_database_code_depnum_ccdc_archive 'CCDC 1587837'
_chemical_formula_sum 'C17 H18 N2 O8'
_chemical_formula_moiety
;
C17 H18 N2 O8
;
_journal_coden_Cambridge 16
_journal_volume 74
_journal_year 2018
_journal_page_first 5000
_journal_name_full 'Tetrahedron '
loop_
_publ_author_name
"Xinghua Ma"
"Xin Liu"
"P.Yates"
"W.Rafferty"
"M.G.Banwell"
"Chenxi Ma"
"A.C.Willis"
"P.D.Carr"
_chemical_name_systematic
;
1-(6,8-dioxabicyclo[3.2.1]oct-3-en-2-yl)-2-methylpropan-2-yl 
3,5-dinitrobenzoate
;
_cell_volume    864.299
_exptl_crystal_colour 'colorless'
_exptl_crystal_density_diffrn 1.454
_exptl_special_details
;
Absolute configuration

;
_exptl_crystal_description 'plate'
_diffrn_ambient_temperature 150
#These two values have been output from a single CSD field.
_refine_ls_R_factor_gt 0.0578
_refine_ls_wR_factor_gt 0.0578
_symmetry_cell_setting monoclinic
_symmetry_space_group_name_H-M 'P 21'
_symmetry_Int_Tables_number 4
loop_
_symmetry_equiv_pos_site_id
_symmetry_equiv_pos_as_xyz
1 x,y,z
2 -x,1/2+y,-z
_cell_length_a 9.7352(6)
_cell_length_b 5.8003(4)
_cell_length_c 15.9527(15)
_cell_angle_alpha 90
_cell_angle_beta 106.367(8)
_cell_angle_gamma 90
_cell_formula_units_Z 2
loop_
_atom_type_symbol
_atom_type_radius_bond
C 0.68
H 0.23
N 0.68
O 0.68
loop_
_atom_site_label
_atom_site_type_symbol
_atom_site_fract_x
_atom_site_fract_y
_atom_site_fract_z
C1 C 1.2695(5) 0.8935(10) 0.8598(3)
C2 C 1.1887(5) 0.7648(10) 0.7790(3)
C3 C 1.1046(4) 0.5908(9) 0.7839(3)
C4 C 1.0834(4) 0.5176(7) 0.8705(3)
C5 C 1.1983(5) 0.6422(9) 0.9424(3)
C6 C 1.3535(5) 0.5837(13) 0.9414(5)
C7 C 0.9339(4) 0.5733(7) 0.8797(2)
C8 C 0.8044(4) 0.4594(7) 0.8166(3)
C9 C 0.6695(4) 0.5169(8) 0.8430(3)
C10 C 0.8279(4) 0.2020(7) 0.8093(3)
C11 C 0.7162(4) 0.6395(6) 0.5814(3)
C12 C 0.7980(3) 0.8403(7) 0.5899(2)
C13 C 0.8048(4) 0.9504(7) 0.5142(3)
C14 C 0.7400(4) 0.8701(7) 0.4315(2)
C15 C 0.6614(4) 0.6665(7) 0.4262(2)
C16 C 0.6474(3) 0.5533(8) 0.4990(2)
C17 C 0.7059(4) 0.5029(7) 0.6586(2)
H1 H 1.28780 1.05730 0.84690
H2 H 1.19780 0.81290 0.72390
H3 H 1.05660 0.50990 0.73270
H4 H 1.09890 0.34900 0.87730
H5 H 1.18600 0.61820 1.00080
H6 H 1.41250 0.56100 0.99960
H7 H 1.35420 0.44100 0.90810
H8 H 0.93600 0.52690 0.93900
H9 H 0.92110 0.74140 0.87580
H10 H 0.58610 0.44960 0.80150
H11 H 0.68010 0.45640 0.90050
H12 H 0.65800 0.68390 0.84440
H13 H 0.74170 0.12440 0.77850
H14 H 0.86160 0.13770 0.86670
H15 H 0.89820 0.17510 0.77860
H16 H 0.84640 0.89810 0.64600
H17 H 0.74560 0.94620 0.38080
H18 H 0.59170 0.41420 0.49230
N1 N 0.8919(3) 1.1615(6) 0.5229(2)
N2 N 0.5959(3) 0.5667(7) 0.3396(2)
O1 O 1.3993(3) 0.7742(8) 0.9013(3)
O2 O 1.1911(3) 0.8824(6) 0.9229(2)
O3 O 0.7938(3) 0.5779(5) 0.73226(17)
O4 O 0.6260(3) 0.3376(6) 0.6501(2)
O5 O 0.9541(3) 1.2292(6) 0.5964(2)
O6 O 0.8937(3) 1.2631(5) 0.4558(2)
O7 O 0.6114(3) 0.6696(6) 0.27603(19)
O8 O 0.5311(3) 0.3857(6) 0.3361(2)
#END
