
#######################################################################
#
#                 Cambridge Crystallographic Data Centre
#                                CCDC
#
#######################################################################
#
# If this CIF has been generated from an entry in the Cambridge
# Structural Database, then it will include bibliographic, chemical,
# crystal, experimental, refinement or atomic coordinate data resulting
# from the CCDC's data processing and validation procedures.
#
#######################################################################

data_CSD_CIF_ZEWVUU
_audit_creation_date 2013-05-20
_audit_creation_method CSD-ConQuest-V1
_database_code_CSD ZEWVUU
_database_code_depnum_ccdc_archive 'CCDC 897458'
_chemical_formula_sum 'C10 H10 N6 O4'
_chemical_formula_moiety
;
C10 H10 N6 O4
;
_journal_coden_Cambridge 222
_journal_volume 42
_journal_year 2013
_journal_page_first 4931
_journal_name_full 'Dalton Trans. '
loop_
_publ_author_name
"C.Cheadle"
"N.Gerasimchuk"
"C.L.Barnes"
"S.I.Tyukhtenko"
"S.Silchenko"
_chemical_name_systematic
;
3,3'-Piperazine-1,4-diylbis(2-(hydroxyimino)-3-oxopropanenitrile)
;
_chemical_melting_point 446
_cell_volume    614.173
_exptl_crystal_colour 'colorless'
_exptl_crystal_density_diffrn 1.505
_exptl_crystal_description 'needle'
_diffrn_ambient_temperature 120
_diffrn_special_details
;
twin

;
_refine_special_details
;
N1,O1 and N1A,O1A disordered over two sites with occupancies 0.525:0.475.

;
#These two values have been output from a single CSD field.
_refine_ls_R_factor_gt 0.0627
_refine_ls_wR_factor_gt 0.0627
_symmetry_cell_setting monoclinic
_symmetry_space_group_name_H-M 'P 21/n'
_symmetry_Int_Tables_number 14
loop_
_symmetry_equiv_pos_site_id
_symmetry_equiv_pos_as_xyz
1 x,y,z
2 1/2-x,1/2+y,1/2-z
3 -x,-y,-z
4 -1/2+x,-1/2-y,-1/2+z
_cell_length_a 6.298(5)
_cell_length_b 15.488(12)
_cell_length_c 6.453(5)
_cell_angle_alpha 90
_cell_angle_beta 102.648(13)
_cell_angle_gamma 90
_cell_formula_units_Z 2
loop_
_atom_type_symbol
_atom_type_radius_bond
C 0.68
H 0.23
N 0.68
O 0.68
loop_
_atom_site_label
_atom_site_type_symbol
_atom_site_fract_x
_atom_site_fract_y
_atom_site_fract_z
C1 C 0.8258(4) 0.66538(19) 0.6016(4)
C2 C 0.8843(5) 0.7497(2) 0.5405(6)
C3 C 1.0085(4) 0.60206(18) 0.6648(4)
C4 C 0.9162(5) 0.58508(18) 1.0176(4)
H1 H 0.80490 0.62960 0.96430
H2 H 1.02180 0.60960 1.14000
C5 C 1.1916(4) 0.49339(18) 0.9115(5)
H3 H 1.30970 0.51390 1.02880
H4 H 1.25610 0.47820 0.78960
N1 N 0.9302(6) 0.8171(2) 0.4963(6)
N2 N 1.0288(4) 0.56181(14) 0.8496(3)
O1 O 0.5645(8) 0.5815(3) 0.5957(7)
H5 H 0.42840 0.57730 0.57270
O2 O 1.1287(3) 0.59134(13) 0.5385(3)
N3 N 0.6193(12) 0.6629(5) 0.5570(13)
N4? N 0.6380(6) 0.6297(5) 0.5932(13)
O3? O 0.4727(10) 0.6845(3) 0.5068(8)
H6? H 0.35380 0.65780 0.48600
C1B C 1.1742(4) 0.33462(19) 1.3984(4)
C2B C 1.1157(5) 0.2503(2) 1.4595(6)
C3B C 0.9915(4) 0.39794(18) 1.3352(4)
C4B C 1.0838(5) 0.41492(18) 0.9824(4)
H1B H 1.19510 0.37040 1.03570
H2B H 0.97820 0.39040 0.86000
C5B C 0.8084(4) 0.50661(18) 1.0885(5)
H3B H 0.69030 0.48610 0.97120
H4B H 0.74390 0.52180 1.21040
N1B N 1.0698(6) 0.1829(2) 1.5037(6)
N2B N 0.9712(4) 0.43819(14) 1.1504(3)
O1B O 1.4355(8) 0.4185(3) 1.4043(7)
H5B H 1.57160 0.42270 1.42730
O2B O 0.8713(3) 0.40866(13) 1.4615(3)
N3B N 1.3807(12) 0.3371(5) 1.4430(13)
#END
