
#######################################################################
#
#                 Cambridge Crystallographic Data Centre
#                                CCDC
#
#######################################################################
#
# If this CIF has been generated from an entry in the Cambridge
# Structural Database, then it will include bibliographic, chemical,
# crystal, experimental, refinement or atomic coordinate data resulting
# from the CCDC's data processing and validation procedures.
#
#######################################################################

data_CSD_CIF_ZEYROM
_audit_creation_date 2013-05-20
_audit_creation_method CSD-ConQuest-V1
_database_code_CSD ZEYROM
_database_code_depnum_ccdc_archive 'CCDC 896742'
_chemical_formula_sum 'C19 H24 N2 O4'
_chemical_formula_moiety
;
C19 H24 N2 O4
;
_journal_coden_Cambridge 16
_journal_volume 69
_journal_year 2013
_journal_page_first 242
_journal_name_full 'Tetrahedron '
loop_
_publ_author_name
"D.A.Goff"
_chemical_name_systematic
;
11-Methoxy-2-methyl-3-(nitromethyl)-2,3,3a,4,8,9-hexahydro-7H-cyclopenta[2,3]p
yrrolo[2,1-a][2]benzazepin-5(1H)-one
;
_cell_volume   1776.859
_exptl_crystal_colour 'colorless'
_exptl_crystal_density_diffrn 1.287
_exptl_crystal_description 'block'
_diffrn_ambient_temperature 100
#These two values have been output from a single CSD field.
_refine_ls_R_factor_gt 0.0331
_refine_ls_wR_factor_gt 0.0331
_symmetry_cell_setting orthorhombic
_symmetry_space_group_name_H-M 'P 21 21 21'
_symmetry_Int_Tables_number 19
loop_
_symmetry_equiv_pos_site_id
_symmetry_equiv_pos_as_xyz
1 x,y,z
2 1/2-x,-y,1/2+z
3 -x,1/2+y,1/2-z
4 1/2+x,1/2-y,-z
_cell_length_a 11.2140(5)
_cell_length_b 11.4764(5)
_cell_length_c 13.8066(7)
_cell_angle_alpha 90
_cell_angle_beta 90
_cell_angle_gamma 90
_cell_formula_units_Z 4
loop_
_atom_type_symbol
_atom_type_radius_bond
C 0.68
H 0.23
N 0.68
O 0.68
loop_
_atom_site_label
_atom_site_type_symbol
_atom_site_fract_x
_atom_site_fract_y
_atom_site_fract_z
C1 C 1.26928(15) -0.06346(18) -0.06400(14)
H1 H 1.23860 -0.14230 -0.05290
H2 H 1.35260 -0.06780 -0.08500
H3 H 1.22160 -0.02520 -0.11430
O1 O 1.26196(9) 0.0018(1) 0.02342(8)
C2 C 1.15006(13) 0.02886(13) 0.05642(11)
C3 C 1.14532(13) 0.09901(13) 0.13835(11)
H4 H 1.21780 0.12450 0.16710
C4 C 1.03718(12) 0.13318(12) 0.17974(10)
C5 C 0.92997(12) 0.09384(12) 0.13785(10)
C6 C 0.93728(12) 0.02436(12) 0.05504(10)
H5 H 0.86530 -0.00170 0.02590
C7 C 1.04483(13) -0.00838(13) 0.01342(10)
H6 H 1.04640 -0.05530 -0.04330
C8 C 1.04211(13) 0.21836(13) 0.26357(11)
H7 H 1.12480 0.24750 0.27060
H8 H 1.02070 0.17710 0.32410
C9 C 0.95771(13) 0.32240(13) 0.24977(11)
H9 H 0.99040 0.39130 0.28370
H10 H 0.95160 0.34130 0.18000
C10 C 0.83434(13) 0.29448(12) 0.28956(11)
H11 H 0.83340 0.30920 0.36020
H12 H 0.77500 0.34680 0.25910
N1 N 0.80088(10) 0.17371(11) 0.27125(8)
C11 C 0.80383(12) 0.12018(12) 0.17458(10)
C12 C 0.76899(12) 0.10172(13) 0.34415(11)
C13 C 0.73924(13) -0.01631(13) 0.30168(10)
H13 H 0.66250 -0.04550 0.32740
H14 H 0.80250 -0.07360 0.31680
C14 C 0.73106(12) 0.00474(12) 0.19237(10)
H15 H 0.76810 -0.06150 0.15620
O2 O 0.76629(9) 0.12785(10) 0.43029(7)
C15 C 0.60605(12) 0.03025(12) 0.1528(1)
H16 H 0.55820 0.07210 0.20300
C16 C 0.62759(11) 0.11124(12) 0.06594(10)
H17 H 0.65760 0.06360 0.01040
C17 C 0.72852(12) 0.19173(12) 0.1009(1)
H18 H 0.69510 0.26200 0.13240
H19 H 0.77860 0.21660 0.04560
C18 C 0.53859(13) -0.07800(13) 0.1193(1)
H20 H 0.46030 -0.05480 0.09240
H21 H 0.58430 -0.11730 0.06740
N2 N 0.52018(12) -0.16045(12) 0.20167(10)
O3 O 0.57367(16) -0.25309(12) 0.20131(11)
O4 O 0.45525(10) -0.12811(13) 0.26779(9)
C19 C 0.51665(13) 0.17752(14) 0.03348(11)
H22 H 0.48360 0.22070 0.08850
H23 H 0.45710 0.12220 0.00930
H24 H 0.53810 0.23220 -0.01820
#END
