
#######################################################################
#
#                 Cambridge Crystallographic Data Centre
#                                CCDC
#
#######################################################################
#
# If this CIF has been generated from an entry in the Cambridge
# Structural Database, then it will include bibliographic, chemical,
# crystal, experimental, refinement or atomic coordinate data resulting
# from the CCDC's data processing and validation procedures.
#
#######################################################################

data_CSD_CIF_ZEZDAL
_audit_creation_date 2013-05-20
_audit_creation_method CSD-ConQuest-V1
_database_code_CSD ZEZDAL
_database_code_depnum_ccdc_archive 'CCDC 896656'
_chemical_formula_sum 'C10 H9 N5 O5'
_chemical_formula_moiety
;
C10 H9 N5 O5
;
_journal_coden_Cambridge 1220
_journal_volume 19
_journal_year 2013
_journal_page_first 509
_journal_name_full 'Chem.-Eur.J. '
loop_
_publ_author_name
"A.S.Kumar"
"V.D.Ghule"
"S.Subramanyam"
"A.K.Sahoo"
_chemical_name_systematic
;
1-(4-Methoxy-3,5-dinitrobenzyl)-1H-1,2,3-triazole
;
_cell_volume   1240.448
_exptl_crystal_density_diffrn 1.359
_diffrn_ambient_temperature 293
#These two values have been output from a single CSD field.
_refine_ls_R_factor_gt 0.0733
_refine_ls_wR_factor_gt 0.0733
_symmetry_cell_setting monoclinic
_symmetry_space_group_name_H-M 'P 21/n'
_symmetry_Int_Tables_number 14
loop_
_symmetry_equiv_pos_site_id
_symmetry_equiv_pos_as_xyz
1 x,y,z
2 1/2-x,1/2+y,1/2-z
3 -x,-y,-z
4 -1/2+x,-1/2-y,-1/2+z
_cell_length_a 11.6392(8)
_cell_length_b 5.4843(3)
_cell_length_c 19.6637(14)
_cell_angle_alpha 90
_cell_angle_beta 98.790(7)
_cell_angle_gamma 90
_cell_formula_units_Z 4
loop_
_atom_type_symbol
_atom_type_radius_bond
C 0.68
H 0.23
N 0.68
O 0.68
loop_
_atom_site_label
_atom_site_type_symbol
_atom_site_fract_x
_atom_site_fract_y
_atom_site_fract_z
N1 N 0.9143(2) 0.3187(4) 0.05986(11)
C1 C 1.0028(2) 0.1650(5) 0.17343(14)
C2 C 0.9316(2) 0.0083(5) 0.20257(13)
H1 H 0.88250 -0.09670 0.17460
C3 C 0.9325(2) 0.0054(5) 0.27284(14)
O1 O 1.0151(2) 0.1375(4) 0.3865(1)
C4 C 1.0768(2) 0.3138(5) 0.21610(15)
H2 H 1.12610 0.42040 0.19770
N2 N 0.9210(2) 0.5597(4) 0.06725(13)
N3 N 0.8572(2) -0.1741(5) 0.29976(14)
C5 C 1.0776(2) 0.3042(5) 0.28635(15)
C6 C 1.0052(3) 0.1639(5) 0.09749(14)
H3 H 1.08050 0.22060 0.08890
H4 H 0.99490 -0.00190 0.08050
C7 C 1.0049(2) 0.1535(5) 0.31709(13)
N4 N 0.8318(3) 0.6508(4) 0.02621(14)
C8 C 0.8227(3) 0.2547(5) 0.01478(14)
H5 H 0.79910 0.09790 0.00110
O2 O 0.8396(2) -0.3638(4) 0.26892(14)
N5 N 1.1614(3) 0.4521(7) 0.33072(17)
O3 O 0.8156(3) -0.1239(5) 0.35050(14)
C9 C 0.7710(3) 0.4670(6) -0.00695(16)
H6 H 0.70450 0.48320 -0.03940
C10 C 0.9437(5) 0.3010(8) 0.4200(2)
H7 H 0.97070 0.46540 0.41670
H8 H 0.94860 0.25660 0.46760
H9 H 0.86440 0.28950 0.39800
O4 O 1.2598(3) 0.3793(7) 0.3407(2)
O5 O 1.1401(4) 0.6251(9) 0.3518(4)
#END
