
#######################################################################
#
#                 Cambridge Crystallographic Data Centre
#                                CCDC
#
#######################################################################
#
# If this CIF has been generated from an entry in the Cambridge
# Structural Database, then it will include bibliographic, chemical,
# crystal, experimental, refinement or atomic coordinate data resulting
# from the CCDC's data processing and validation procedures.
#
#######################################################################

data_CSD_CIF_ZIBVAH
_audit_creation_date 1996-06-20
_audit_creation_method CSD-ConQuest-V1
_database_code_CSD ZIBVAH
_database_code_depnum_ccdc_archive 'CCDC 1312006'
_chemical_formula_sum 'C18 H19 N1 O4'
_chemical_formula_moiety
;
C18 H19 N1 O4
;
_journal_coden_Cambridge 4
_journal_volume 117
_journal_year 1995
_journal_page_first 10575
_journal_name_full 'J.Am.Chem.Soc. '
loop_
_publ_author_name
"P.M.Bodnar"
"W.S.Palmer"
"J.T.Shaw"
"J.H.Smitrovich"
"J.D.Sonnenberg"
"A.L.Presley"
"K.A.Woerpel"
_chemical_name_systematic
;
4,5-Dimethyl-2-(4-nitrophenyl)-6-phenyl-1,3-dioxane
;
_chemical_melting_point 398.15
_cell_volume   1640.995
_exptl_crystal_colour 'colorless'
_exptl_crystal_density_diffrn 1.268
_exptl_special_details
;
Melting point range 398.15-400.15K

;
_diffrn_ambient_temperature ?
_diffrn_special_details
;
The study was carried out at room temperature,in the range 283-303K

;
_refine_special_details
;
The O-atoms of the nitro group are disordered over two equally-occupied 
positions.
;
#These two values have been output from a single CSD field.
_refine_ls_R_factor_gt 0.039
_refine_ls_wR_factor_gt 0.039
_symmetry_cell_setting monoclinic
_symmetry_space_group_name_H-M 'P 21/c'
_symmetry_Int_Tables_number 14
loop_
_symmetry_equiv_pos_site_id
_symmetry_equiv_pos_as_xyz
1 x,y,z
2 -x,1/2+y,1/2-z
3 -x,-y,-z
4 x,-1/2-y,-1/2+z
_cell_length_a 10.8012(4)
_cell_length_b 21.7888(9)
_cell_length_c 6.9963(3)
_cell_angle_alpha 90
_cell_angle_beta 94.706(3)
_cell_angle_gamma 90
_cell_formula_units_Z 4
loop_
_atom_type_symbol
_atom_type_radius_bond
C 0.68
H 0.23
N 0.68
O 0.68
loop_
_atom_site_label
_atom_site_type_symbol
_atom_site_fract_x
_atom_site_fract_y
_atom_site_fract_z
C1 C 0.91925(16) 0.16653(8) 0.09062(25)
C2 C 0.76775(16) 0.09212(9) 0.13588(25)
C3 C 0.72765(18) 0.09225(8) -0.08000(25)
C4 C 0.75718(17) 0.15569(9) -0.15645(27)
C5 C 1.05600(16) 0.17989(8) 0.12393(24)
C6 C 1.09608(17) 0.23754(9) 0.18126(25)
C7 C 1.22194(19) 0.2503(1) 0.20993(28)
C8 C 1.30483(16) 0.20422(10) 0.17773(27)
C9 C 1.26749(19) 0.14683(11) 0.11707(31)
C10 C 1.14178(18) 0.13466(9) 0.08925(30)
C11 C 0.74861(18) 0.03144(8) 0.23446(25)
C12 C 0.84589(24) -0.00543(10) 0.29969(30)
C13 C 0.82314(33) -0.06177(12) 0.38748(37)
C14 C 0.70400(37) -0.08018(13) 0.40719(37)
C15 C 0.60636(33) -0.04313(14) 0.34217(37)
C16 C 0.62787(23) 0.01242(12) 0.25777(33)
C17 C 0.78591(28) 0.03998(11) -0.18483(35)
C18 C 0.73510(29) 0.16311(13) -0.37154(35)
N1 N 1.43824(19) 0.21721(14) 0.21175(33)
O1 O 0.89684(10) 0.10792(5) 0.16481(16)
O2 O 0.88781(10) 0.16906(5) -0.10908(17)
O3 O 1.5157(14) 0.17553(94) 0.1872(29)
O4 O 1.4696(18) 0.2680(12) 0.2818(19)
H1 H 0.8673(15) 0.1978(8) 0.1525(24)
H2 H 0.7180(15) 0.1233(8) 0.1964(24)
H3 H 0.6399(17) 0.0871(7) -0.0938(24)
H4 H 0.7060(16) 0.1885(8) -0.0849(26)
H5 H 1.0337(17) 0.2692(8) 0.2031(25)
H6 H 1.2531(19) 0.2895(10) 0.2448(31)
H7 H 1.3245(19) 0.1178(9) 0.0956(29)
H8 H 1.1133(19) 0.093(1) 0.0378(31)
H9 H 0.9288(21) 0.0080(9) 0.2818(30)
H10 H 0.8911(24) -0.0842(12) 0.4288(38)
H11 H 0.6878(23) -0.1221(12) 0.4544(38)
H12 H 0.5231(24) -0.0529(12) 0.3445(36)
H13 H 0.5484(24) 0.0408(11) 0.2065(37)
H14 H 0.7537(22) 0.0019(13) -0.1302(36)
H15 H 0.8767(25) 0.0436(11) -0.1910(36)
H16 H 0.7610(23) 0.0404(11) -0.3184(43)
H17 H 0.6646(24) 0.1504(11) -0.4073(36)
H18 H 0.7478(22) 0.2052(12) -0.4153(35)
H19 H 0.7982(25) 0.1362(12) -0.4350(36)
O5? O 1.5074(10) 0.17536(66) 0.2153(25)
O6? O 1.4697(19) 0.2708(11) 0.2121(20)
#END
