
#######################################################################
#
#                 Cambridge Crystallographic Data Centre
#                                CCDC
#
#######################################################################
#
# If this CIF has been generated from an entry in the Cambridge
# Structural Database, then it will include bibliographic, chemical,
# crystal, experimental, refinement or atomic coordinate data resulting
# from the CCDC's data processing and validation procedures.
#
#######################################################################

data_CSD_CIF_ZIBXOA
_audit_creation_date 2018-03-27
_audit_creation_method CSD-ConQuest-V1
_database_code_CSD ZIBXOA
_database_code_depnum_ccdc_archive 'CCDC 1560146'
_chemical_formula_sum 'C23 H17 N3 O2'
_chemical_formula_moiety
;
C23 H17 N3 O2
;
_journal_coden_Cambridge 574
_journal_volume 156
_journal_year 2018
_journal_page_first 116
_journal_name_full 'Dyes Pigm. '
loop_
_publ_author_name
"S.Redon"
"G.Eucat"
"M.Ipuy"
"E.Jeanneau"
"I.Gautier-Luneau"
"A.Ibanez"
"C.Andraud"
"Y.Bretonniere"
_chemical_name_systematic
;
3-(9-ethyl-9H-carbazol-3-yl)-2-(4-nitrophenyl)prop-2-enenitrile
;
_cell_volume   7227.319
_exptl_crystal_colour 'red'
_exptl_crystal_density_diffrn 1.351
_exptl_crystal_description 'plate'
_diffrn_ambient_temperature 160
#These two values have been output from a single CSD field.
_refine_ls_R_factor_gt 0.0558
_refine_ls_wR_factor_gt 0.0558
_symmetry_cell_setting orthorhombic
_symmetry_space_group_name_H-M 'F d d 2'
_symmetry_Int_Tables_number 43
loop_
_symmetry_equiv_pos_site_id
_symmetry_equiv_pos_as_xyz
1 x,y,z
2 x,1/2+y,1/2+z
3 1/2+x,y,1/2+z
4 1/2+x,1/2+y,z
5 -x,-y,z
6 -x,1/2-y,1/2+z
7 1/2-x,-y,1/2+z
8 1/2-x,1/2-y,z
9 1/4-x,1/4+y,1/4+z
10 1/4-x,3/4+y,3/4+z
11 3/4-x,1/4+y,3/4+z
12 3/4-x,3/4+y,1/4+z
13 1/4+x,1/4-y,1/4+z
14 1/4+x,3/4-y,3/4+z
15 3/4+x,1/4-y,3/4+z
16 3/4+x,3/4-y,1/4+z
_cell_length_a 9.1067(7)
_cell_length_b 55.697(5)
_cell_length_c 14.249(1)
_cell_angle_alpha 90
_cell_angle_beta 90
_cell_angle_gamma 90
_cell_formula_units_Z 16
loop_
_atom_type_symbol
_atom_type_radius_bond
C 0.68
H 0.23
N 0.68
O 0.68
loop_
_atom_site_label
_atom_site_type_symbol
_atom_site_fract_x
_atom_site_fract_y
_atom_site_fract_z
O1 O 0.7359(3) 0.58912(4) 0.3404(2)
N1 N 0.6844(3) 0.57507(4) 0.28269(19)
O2 O 0.7173(3) 0.57517(4) 0.19929(19)
C1 C 0.5786(3) 0.55748(4) 0.3156(2)
C2 C 0.5458(3) 0.55655(4) 0.4094(2)
C3 C 0.4479(3) 0.53955(4) 0.4418(2)
C4 C 0.3798(2) 0.52373(4) 0.3801(2)
C5 C 0.2772(2) 0.50515(4) 0.41601(19)
C6 C 0.1953(3) 0.49106(4) 0.35850(19)
C7 C 0.0923(2) 0.47175(4) 0.3776(2)
C8 C 0.0244(2) 0.46150(4) 0.29869(19)
C9 C -0.0745(2) 0.44271(4) 0.3100(2)
C10 C -0.1058(2) 0.43413(4) 0.40104(19)
N2 N -0.2070(2) 0.41589(3) 0.39473(17)
C11 C -0.2402(3) 0.41207(4) 0.3009(2)
C12 C -0.1608(2) 0.42853(4) 0.2451(2)
C13 C -0.1798(3) 0.42849(5) 0.1488(2)
C14 C -0.2748(3) 0.41195(5) 0.1085(2)
C15 C -0.3503(3) 0.39553(5) 0.1649(2)
C16 C -0.3353(3) 0.39552(4) 0.2613(2)
H1 H -0.38830 0.38460 0.29900
H2 H -0.41350 0.38450 0.13660
H3 H -0.28690 0.41160 0.04180
H4 H -0.12770 0.44010 0.11250
C17 C -0.2646(3) 0.40184(4) 0.4724(2)
C18 C -0.1817(4) 0.37880(6) 0.4880(3)
H5 H -0.21770 0.37070 0.54420
H6 H -0.07890 0.38240 0.49450
H7 H -0.19490 0.36810 0.43420
H8 H -0.25800 0.41130 0.52850
H9 H -0.36820 0.39820 0.45770
C19 C -0.0395(3) 0.44399(4) 0.4803(2)
C20 C 0.0586(3) 0.46253(4) 0.4673(2)
H10 H 0.10540 0.46940 0.52140
H11 H -0.06040 0.43820 0.54080
H12 H 0.04730 0.46750 0.23910
H13 H 0.20890 0.49450 0.29390
C21 C 0.2729(3) 0.50300(5) 0.5162(2)
N3 N 0.2749(4) 0.50194(6) 0.5970(2)
C22 C 0.4133(3) 0.52534(5) 0.2850(2)
C23 C 0.5140(3) 0.54193(5) 0.2518(2)
H14 H 0.53950 0.54310 0.18770
H15 H 0.36690 0.51470 0.24390
H16 H 0.42840 0.53870 0.50680
H17 H 0.59010 0.56730 0.45130
#END
