
#######################################################################
#
#                 Cambridge Crystallographic Data Centre
#                                CCDC
#
#######################################################################
#
# If this CIF has been generated from an entry in the Cambridge
# Structural Database, then it will include bibliographic, chemical,
# crystal, experimental, refinement or atomic coordinate data resulting
# from the CCDC's data processing and validation procedures.
#
#######################################################################

data_CSD_CIF_ZIBZUF
_audit_creation_date 1996-06-21
_audit_creation_method CSD-ConQuest-V1
_database_code_CSD ZIBZUF
_chemical_formula_sum 'C16 H15 N1 O3'
_chemical_formula_moiety
;
C16 H15 N1 O3
;
_journal_coden_Cambridge 16
_journal_volume 51
_journal_year 1995
_journal_page_first 11473
_journal_name_full 'Tetrahedron '
loop_
_publ_author_name
"D.S.Brown"
"P.T.Gallagher"
"A.P.Lightfoot"
"C.J.Moody"
"A.M.Z.Slawin"
"E.Swann"
_chemical_name_systematic
;
O-(1-Methoxycarbonylbenzyl)benzaldoxime
;
_chemical_melting_point 323.15
_cell_volume   1434.988
_exptl_crystal_colour 'colorless'
_exptl_crystal_density_diffrn 1.246
_exptl_special_details
;
Melting point range 323.15-333.15K

;
_diffrn_ambient_temperature ?
_diffrn_special_details
;
The study was carried out at room temperature,in the range 283-303K

;
#These two values have been output from a single CSD field.
_refine_ls_R_factor_gt 0.063
_refine_ls_wR_factor_gt 0.063
_symmetry_cell_setting monoclinic
_symmetry_space_group_name_H-M 'P 21/c'
_symmetry_Int_Tables_number 14
loop_
_symmetry_equiv_pos_site_id
_symmetry_equiv_pos_as_xyz
1 x,y,z
2 -x,1/2+y,1/2-z
3 -x,-y,-z
4 x,-1/2-y,-1/2+z
_cell_length_a 6.24(1)
_cell_length_b 31.310(5)
_cell_length_c 8.078(1)
_cell_angle_alpha 90
_cell_angle_beta 114.6(1)
_cell_angle_gamma 90
_cell_formula_units_Z 4
loop_
_atom_type_symbol
_atom_type_radius_bond
C 0.68
H 0.23
N 0.68
O 0.68
loop_
_atom_site_label
_atom_site_type_symbol
_atom_site_fract_x
_atom_site_fract_y
_atom_site_fract_z
O1 O 0.3745(4) 0.6126(1) 0.4800(3)
N1 N 0.3291(4) 0.5724(1) 0.3885(3)
C1 C 0.5418(5) 0.6408(1) 0.2808(4)
C2 C 0.0493(5) 0.5160(1) 0.2913(4)
O2 O 0.7441(4) 0.6380(1) 0.2612(3)
C3 C 0.5829(5) 0.6292(1) 0.4738(4)
C4 C 0.6533(5) 0.6687(1) 0.5934(4)
O3 O 0.3600(4) 0.6525(1) 0.1628(3)
C5 C 0.1114(6) 0.4485(1) 0.1785(5)
C6 C 0.1334(5) 0.5579(1) 0.3766(4)
C7 C 0.4857(6) 0.6976(1) 0.5941(5)
C8 C 0.1978(6) 0.4873(1) 0.2623(4)
C9 C 0.8884(6) 0.6769(1) 0.6984(4)
C10 C 0.9554(8) 0.7133(1) 0.8061(5)
C11 C -0.2693(6) 0.4664(1) 0.1582(5)
C12 C -0.1831(6) 0.5053(1) 0.2430(5)
C13 C 0.5539(8) 0.7339(1) 0.7021(5)
C14 C -0.1211(6) 0.4381(1) 0.1270(4)
C15 C 0.7865(9) 0.7416(1) 0.8055(5)
C16 C 0.7418(9) 0.6502(1) 0.0881(6)
H1 H 0.7123(45) 0.6049(8) 0.5175(33)
H2 H 0.0224(48) 0.5753(8) 0.4225(35)
H3 H 0.3563(57) 0.4941(9) 0.2947(40)
H4 H -0.2942(68) 0.5253(11) 0.2762(50)
H5 H 1.0079(62) 0.6579(11) 0.6959(46)
H6 H 0.2233(61) 0.4273(11) 0.1629(45)
H7 H -0.1809(58) 0.4103(10) 0.0702(43)
H8 H 0.3266(52) 0.6922(9) 0.5343(38)
H9 H -0.4354(64) 0.4552(11) 0.1341(47)
H10 H 0.8435(65) 0.7675(11) 0.8836(51)
H11 H 1.1313(79) 0.7188(13) 0.8709(59)
H12 H 0.4255(67) 0.7517(12) 0.7096(50)
H13 H 0.67750 0.68130 0.06080
H14 H 0.61740 0.63590 -0.02320
H15 H 0.91530 0.64520 0.10230
#END
