
#######################################################################
#
#                 Cambridge Crystallographic Data Centre
#                                CCDC
#
#######################################################################
#
# If this CIF has been generated from an entry in the Cambridge
# Structural Database, then it will include bibliographic, chemical,
# crystal, experimental, refinement or atomic coordinate data resulting
# from the CCDC's data processing and validation procedures.
#
#######################################################################

data_CSD_CIF_ZIFLIL
_audit_creation_date 2013-08-14
_audit_creation_method CSD-ConQuest-V1
_database_code_CSD ZIFLIL
_database_code_depnum_ccdc_archive 'CCDC 935875'
_chemical_formula_sum 'C26 H15 N3 O2'
_chemical_formula_moiety
;
C26 H15 N3 O2
;
_journal_coden_Cambridge 182
_journal_volume 50
_journal_year 2014
_journal_page_first 5304
_journal_name_full 'Chem.Commun. '
loop_
_publ_author_name
"Chia-Jui Lee"
"Chia-Ning Sheu"
"Cheng-Che Tsai"
"Zong-Ze Wu"
"Wenwei Lin"
_chemical_name_systematic
;
10-(4-Nitrophenyl)-9-phenylacenaphtho[1,2-c]pyridazine
;
_cell_volume    975.883
_exptl_crystal_colour 'pale yellow'
_exptl_crystal_density_diffrn 1.366
_exptl_crystal_description 'prism'
_diffrn_ambient_temperature 200
#These two values have been output from a single CSD field.
_refine_ls_R_factor_gt 0.0716
_refine_ls_wR_factor_gt 0.0716
_symmetry_cell_setting triclinic
_symmetry_space_group_name_H-M 'P -1'
_symmetry_Int_Tables_number 2
loop_
_symmetry_equiv_pos_site_id
_symmetry_equiv_pos_as_xyz
1 x,y,z
2 -x,-y,-z
_cell_length_a 8.1355(10)
_cell_length_b 9.9649(11)
_cell_length_c 12.9125(16)
_cell_angle_alpha 70.085(7)
_cell_angle_beta 83.705(9)
_cell_angle_gamma 84.108(8)
_cell_formula_units_Z 2
loop_
_atom_type_symbol
_atom_type_radius_bond
C 0.68
H 0.23
N 0.68
O 0.68
loop_
_atom_site_label
_atom_site_type_symbol
_atom_site_fract_x
_atom_site_fract_y
_atom_site_fract_z
C1 C 0.2874(4) 0.9761(3) 0.6330(3)
C2 C 0.4138(4) 0.9550(4) 0.7016(3)
H1 H 0.50550 1.01310 0.67960
C3 C 0.4031(4) 0.8472(3) 0.8028(3)
H2 H 0.48890 0.83030 0.85110
C4 C 0.2684(4) 0.7632(3) 0.8348(3)
C5 C 0.1419(4) 0.7890(3) 0.7647(3)
H3 H 0.04870 0.73270 0.78700
C6 C 0.1508(4) 0.8960(4) 0.6626(3)
H4 H 0.06500 0.91370 0.61420
C7 C 0.2602(4) 0.6417(3) 0.9430(3)
C8 C 0.2474(4) 0.6638(3) 1.0433(3)
C9 C 0.2419(4) 0.7909(3) 1.0795(3)
C10 C 0.2549(4) 0.9358(3) 1.0281(3)
H5 H 0.27190 0.97490 0.94990
C11 C 0.2423(5) 1.0251(4) 1.0937(3)
H6 H 0.25160 1.12490 1.05800
C12 C 0.2173(4) 0.9738(4) 1.2065(3)
H7 H 0.21090 1.03770 1.24740
C13 C 0.2011(4) 0.8253(4) 1.2627(3)
C14 C 0.2161(4) 0.7386(3) 1.1962(3)
C15 C 0.2011(4) 0.5889(4) 1.2382(3)
C16 C 0.1711(5) 0.5234(4) 1.3497(3)
H8 H 0.15950 0.42330 1.38000
C17 C 0.1580(5) 0.6085(4) 1.4187(3)
H9 H 0.13780 0.56340 1.49620
C18 C 0.1733(5) 0.7543(4) 1.3783(3)
H10 H 0.16520 0.80710 1.42780
C19 C 0.2225(4) 0.5419(3) 1.1412(3)
C20 C 0.2591(4) 0.4966(3) 0.9475(3)
C21 C 0.2805(4) 0.4500(3) 0.8485(3)
C22 C 0.1934(4) 0.3371(4) 0.8467(3)
H11 H 0.11780 0.29330 0.90760
C23 C 0.2157(5) 0.2887(4) 0.7582(3)
H12 H 0.15640 0.21110 0.75880
C24 C 0.3231(5) 0.3515(4) 0.6690(4)
H13 H 0.33840 0.31680 0.60840
C25 C 0.4087(5) 0.4647(4) 0.6670(3)
H14 H 0.48050 0.50970 0.60420
C26 C 0.3899(5) 0.5132(4) 0.7572(3)
H15 H 0.45160 0.58940 0.75670
N1 N 0.3010(4) 1.0867(3) 0.5222(2)
N2 N 0.2163(4) 0.4090(3) 1.1416(2)
N3 N 0.2389(4) 0.3869(3) 1.0425(2)
O1 O 0.4231(3) 1.1582(3) 0.4961(2)
O2 O 0.1915(4) 1.1026(3) 0.4608(2)
#END
