
#######################################################################
#
#                 Cambridge Crystallographic Data Centre
#                                CCDC
#
#######################################################################
#
# If this CIF has been generated from an entry in the Cambridge
# Structural Database, then it will include bibliographic, chemical,
# crystal, experimental, refinement or atomic coordinate data resulting
# from the CCDC's data processing and validation procedures.
#
#######################################################################

data_CSD_CIF_ZIFLOS
_audit_creation_date 2018-08-20
_audit_creation_method CSD-ConQuest-V1
_database_code_CSD ZIFLOS
_database_code_depnum_ccdc_archive 'CCDC 1850422; not CCDC 1550422 as published'
_chemical_formula_sum 'C18 H14 N2 O2'
_chemical_formula_moiety
;
C18 H14 N2 O2
;
_journal_coden_Cambridge 1490
_journal_volume 9
_journal_year 2018
_journal_page_first 3044
_journal_name_full 'Nat.Commun. '
loop_
_publ_author_name
"Weijun Zhao"
"Zikai He"
"Qian Peng"
"J.W.Y.Lam"
"Huili Ma"
"Zijie Qiu"
"Yuncong Chen"
"Zheng Zhao"
"Zhigang Shuai"
"Yongqiang Dong"
"Ben Zhong Tang"
_chemical_name_systematic
;
4-nitro-N,N-diphenylaniline
;
_cell_volume   2885.432
_exptl_crystal_colour 'dull yellow'
_exptl_crystal_density_diffrn 1.337
_exptl_crystal_description 'block'
_diffrn_ambient_temperature 173
#These two values have been output from a single CSD field.
_refine_ls_R_factor_gt 0.048
_refine_ls_wR_factor_gt 0.048
_symmetry_cell_setting orthorhombic
_symmetry_space_group_name_H-M 'P b c a'
_symmetry_Int_Tables_number 61
loop_
_symmetry_equiv_pos_site_id
_symmetry_equiv_pos_as_xyz
1 x,y,z
2 1/2-x,-y,1/2+z
3 -x,1/2+y,1/2-z
4 1/2+x,1/2-y,-z
5 -x,-y,-z
6 -1/2+x,y,-1/2-z
7 x,-1/2-y,-1/2+z
8 -1/2-x,-1/2+y,z
_cell_length_a 12.9061(6)
_cell_length_b 12.9356(8)
_cell_length_c 17.2834(9)
_cell_angle_alpha 90
_cell_angle_beta 90
_cell_angle_gamma 90
_cell_formula_units_Z 8
loop_
_atom_type_symbol
_atom_type_radius_bond
C 0.68
H 0.23
N 0.68
O 0.68
loop_
_atom_site_label
_atom_site_type_symbol
_atom_site_fract_x
_atom_site_fract_y
_atom_site_fract_z
O1 O 0.52096(9) 0.3183(1) 0.54585(7)
O2 O 0.36284(9) 0.30422(9) 0.50579(7)
N1 N 0.45257(11) 0.33518(10) 0.49792(8)
N2 N 0.55069(10) 0.55897(10) 0.22898(8)
C1 C 0.47867(12) 0.39424(11) 0.42931(9)
C2 C 0.52686(12) 0.50474(11) 0.29619(9)
C3 C 0.57877(12) 0.43065(11) 0.41866(9)
H1 H 0.62940 0.41810 0.45580
C4 C 0.40274(12) 0.41220(11) 0.37453(9)
H2 H 0.33590 0.38740 0.38220
C5 C 0.60257(12) 0.48552(11) 0.35284(9)
H3 H 0.66960 0.51020 0.34570
C6 C 0.48416(12) 0.55276(12) 0.16245(9)
C7 C 0.63333(12) 0.63283(11) 0.22721(9)
C8 C 0.43999(12) 0.64132(12) 0.13255(10)
H4 H 0.45460 0.70510 0.15480
C9 C 0.42649(12) 0.46686(12) 0.30874(9)
H5 H 0.37530 0.47890 0.27200
C10 C 0.64641(12) 0.70293(12) 0.28737(10)
H6 H 0.60090 0.70260 0.32910
C11 C 0.46401(13) 0.45821(12) 0.12771(10)
H7 H 0.49500 0.39850 0.14660
C12 C 0.35263(13) 0.54133(14) 0.03613(10)
H8 H 0.30770 0.53740 -0.00590
C13 C 0.39786(14) 0.45275(13) 0.06501(10)
H9 H 0.38380 0.38920 0.04220
C14 C 0.72684(13) 0.77289(13) 0.28511(11)
H10 H 0.73590 0.81900 0.32580
C15 C 0.37414(13) 0.63552(13) 0.06961(10)
H11 H 0.34430 0.69540 0.04980
C16 C 0.69991(13) 0.63577(13) 0.16473(11)
H12 H 0.69100 0.59000 0.12380
C17 C 0.78028(13) 0.70718(15) 0.16306(12)
H13 H 0.82520 0.70900 0.12100
C18 C 0.79371(13) 0.77523(15) 0.22350(12)
H14 H 0.84790 0.82260 0.22250
#END
