
#######################################################################
#
#                 Cambridge Crystallographic Data Centre
#                                CCDC
#
#######################################################################
#
# If this CIF has been generated from an entry in the Cambridge
# Structural Database, then it will include bibliographic, chemical,
# crystal, experimental, refinement or atomic coordinate data resulting
# from the CCDC's data processing and validation procedures.
#
#######################################################################

data_CSD_CIF_ZIFMEI
_audit_creation_date 2013-08-14
_audit_creation_method CSD-ConQuest-V1
_database_code_CSD ZIFMEI
_database_code_depnum_ccdc_archive 'CCDC 935871'
_chemical_formula_sum 'C29 H24 N2 O5'
_chemical_formula_moiety
;
C29 H24 N2 O5
;
_journal_coden_Cambridge 182
_journal_volume 50
_journal_year 2014
_journal_page_first 5304
_journal_name_full 'Chem.Commun. '
loop_
_publ_author_name
"Chia-Jui Lee"
"Chia-Ning Sheu"
"Cheng-Che Tsai"
"Zong-Ze Wu"
"Wenwei Lin"
_chemical_name_systematic
;
1-Benzoyl-3-(2-cyclohexyl-1-(4-nitrophenyl)-2-oxoethylidene)-1,3-dihydro-2H-in
dol-2-one
;
_cell_volume   2432.418
_exptl_crystal_colour 'pale yellow'
_exptl_crystal_density_diffrn 1.312
_exptl_crystal_description 'prism'
_diffrn_ambient_temperature 200
#These two values have been output from a single CSD field.
_refine_ls_R_factor_gt 0.0563
_refine_ls_wR_factor_gt 0.0563
_symmetry_cell_setting monoclinic
_symmetry_space_group_name_H-M 'P 21/c'
_symmetry_Int_Tables_number 14
loop_
_symmetry_equiv_pos_site_id
_symmetry_equiv_pos_as_xyz
1 x,y,z
2 -x,1/2+y,1/2-z
3 -x,-y,-z
4 x,-1/2-y,-1/2+z
_cell_length_a 12.4059(11)
_cell_length_b 19.6766(16)
_cell_length_c 10.5992(9)
_cell_angle_alpha 90
_cell_angle_beta 109.927(3)
_cell_angle_gamma 90
_cell_formula_units_Z 4
loop_
_atom_type_symbol
_atom_type_radius_bond
C 0.68
H 0.23
N 0.68
O 0.68
loop_
_atom_site_label
_atom_site_type_symbol
_atom_site_fract_x
_atom_site_fract_y
_atom_site_fract_z
C1 C 0.1461(2) 0.00827(15) 0.1762(3)
C2 C 0.1450(3) 0.02218(16) 0.3020(3)
H1 H 0.12400 -0.01160 0.35330
C3 C 0.1753(3) 0.08705(16) 0.3525(3)
H2 H 0.17680 0.09760 0.44060
C4 C 0.2033(2) 0.13665(14) 0.2767(3)
C5 C 0.2063(2) 0.11999(16) 0.1510(3)
H3 H 0.22760 0.15350 0.09930
C6 C 0.1786(3) 0.05493(16) 0.0997(3)
H4 H 0.18210 0.04300 0.01430
C7 C 0.2340(2) 0.20654(15) 0.3286(3)
C8 C 0.3285(2) 0.21036(14) 0.4642(3)
C9 C 0.4514(2) 0.21374(16) 0.4714(3)
H5 H 0.45730 0.24560 0.40060
C10 C 0.4907(3) 0.14242(18) 0.4442(4)
H6 H 0.47600 0.10930 0.50680
H7 H 0.44540 0.12830 0.35160
C11 C 0.6178(3) 0.1415(2) 0.4615(4)
H8 H 0.64110 0.09440 0.45040
H9 H 0.63080 0.16980 0.39090
C12 C 0.6908(3) 0.1677(2) 0.5976(4)
H10 H 0.77230 0.16850 0.60390
H11 H 0.68360 0.13710 0.66840
C13 C 0.6529(3) 0.2389(2) 0.6188(4)
H12 H 0.70080 0.25550 0.70850
H13 H 0.66410 0.26990 0.55070
C14 C 0.5281(3) 0.23960(18) 0.6079(3)
H14 H 0.50530 0.28650 0.62140
H15 H 0.51770 0.21060 0.67930
C15 C 0.1817(2) 0.26287(15) 0.2630(3)
C16 C 0.2281(2) 0.33203(15) 0.3087(3)
C17 C 0.0690(2) 0.34285(15) 0.1161(3)
C18 C -0.0180(2) 0.36882(17) 0.0079(3)
H16 H -0.02500 0.41630 -0.00920
C19 C -0.0944(3) 0.32330(19) -0.0746(4)
H17 H -0.15380 0.33970 -0.15160
C20 C -0.0866(3) 0.2540(2) -0.0478(4)
H18 H -0.14140 0.22390 -0.10520
C21 C 0.0007(3) 0.22849(18) 0.0622(4)
H19 H 0.00560 0.18120 0.08120
C22 C 0.0807(2) 0.27321(15) 0.1441(3)
C23 C 0.1761(3) 0.44953(15) 0.2141(3)
C24 C 0.2933(2) 0.47784(15) 0.2702(3)
C25 C 0.3868(3) 0.44801(17) 0.2473(3)
H20 H 0.37850 0.40530 0.20300
C26 C 0.4917(3) 0.48067(19) 0.2890(4)
H21 H 0.55500 0.46110 0.27110
C27 C 0.5045(3) 0.5416(2) 0.3565(4)
H22 H 0.57690 0.56370 0.38580
C28 C 0.4127(3) 0.57062(18) 0.3818(4)
H23 H 0.42270 0.61200 0.43060
C29 C 0.3063(3) 0.53974(16) 0.3364(3)
H24 H 0.24240 0.56080 0.35040
N1 N 0.1103(2) -0.05948(15) 0.1194(3)
N2 N 0.16185(18) 0.37832(12) 0.2119(2)
O1 O 0.1272(3) -0.07477(15) 0.0176(3)
O2 O 0.0621(2) -0.09625(12) 0.1745(3)
O3 O 0.30184(18) 0.20376(11) 0.5636(2)
O4 O 0.30688(17) 0.34698(10) 0.4095(2)
O5 O 0.09375(19) 0.48538(11) 0.1630(3)
#END
