
#######################################################################
#
#                 Cambridge Crystallographic Data Centre
#                                CCDC
#
#######################################################################
#
# If this CIF has been generated from an entry in the Cambridge
# Structural Database, then it will include bibliographic, chemical,
# crystal, experimental, refinement or atomic coordinate data resulting
# from the CCDC's data processing and validation procedures.
#
#######################################################################

data_CSD_CIF_ZIGDUO
_audit_creation_date 1996-07-16
_audit_creation_method CSD-ConQuest-V1
_database_code_CSD ZIGDUO
_database_code_depnum_ccdc_archive 'CCDC 1312330'
_chemical_formula_sum 'C12 H20 N1 O3'
_chemical_formula_moiety
;
C12 H20 N1 O3
;
_journal_coden_Cambridge 7
_journal_volume 67
_journal_year 1994
_journal_page_first 2373
_journal_name_full 'Bull.Chem.Soc.Jpn. '
loop_
_publ_author_name
"A.Kajiwara"
"H.Sugimoto"
"M.Kamachi"
_chemical_name_systematic
;
4-Acryloyloxy-2,2,6,6-tetramethyl-1-piperidinyloxyl
;
_cell_volume    641.744
_exptl_crystal_colour 'pale orange'
_exptl_crystal_density_diffrn 1.171
_exptl_special_details
;
P21 polymorph

;
_diffrn_ambient_temperature ?
_diffrn_special_details
;
The study was carried out at room temperature,in the range 283-303K

;
#These two values have been output from a single CSD field.
_refine_ls_R_factor_gt 0.072
_refine_ls_wR_factor_gt 0.072
_symmetry_cell_setting monoclinic
_symmetry_space_group_name_H-M 'P 21'
_symmetry_Int_Tables_number 4
loop_
_symmetry_equiv_pos_site_id
_symmetry_equiv_pos_as_xyz
1 x,y,z
2 -x,1/2+y,-z
_cell_length_a 5.965(2)
_cell_length_b 11.254(2)
_cell_length_c 9.677(2)
_cell_angle_alpha 90
_cell_angle_beta 98.93(2)
_cell_angle_gamma 90
_cell_formula_units_Z 2
loop_
_atom_type_symbol
_atom_type_radius_bond
C 0.68
H 0.23
N 0.68
O 0.68
loop_
_atom_site_label
_atom_site_type_symbol
_atom_site_fract_x
_atom_site_fract_y
_atom_site_fract_z
O1 O 0.6073(8) 0.25000 0.5981(5)
O2 O 0.1967(6) 0.253(1) 1.0606(3)
O3 O -0.1233(9) 0.177(5) 1.0280(5)
N1 N 0.5019(7) 0.259(5) 0.7041(4)
C1 C 0.409(1) 0.372(1) 0.7421(8)
C2 C 0.350(1) 0.364(1) 0.8889(9)
C3 C 0.2211(9) 0.265(1) 0.9136(5)
C4 C 0.356(2) 0.147(1) 0.889(1)
C5 C 0.416(2) 0.140(1) 0.740(1)
C6 C 0.207(2) 0.406(1) 0.639(1)
C7 C 0.596(2) 0.459(1) 0.737(1)
C8 C 0.204(2) 0.106(1) 0.633(1)
C9 C 0.600(2) 0.044(1) 0.740(1)
C10 C 0.011(1) 0.260(2) 1.1021(6)
C11 C 0.004(1) 0.251(2) 1.2497(5)
C12 C -0.182(1) 0.251(1) 1.3030(6)
H1 H 0.48760 0.36070 0.95290
H2 H 0.26660 0.43220 0.90580
H3 H 0.07720 0.26550 0.85590
H4 H 0.49170 0.14260 0.95470
H5 H 0.26360 0.07880 0.90310
H6 H 0.16160 0.48380 0.65710
H7 H 0.24560 0.40180 0.54690
H8 H 0.08620 0.35180 0.64520
H9 H 0.72610 0.43410 0.80020
H10 H 0.63130 0.46210 0.64520
H11 H 0.54940 0.53490 0.76400
H12 H 0.08500 0.15980 0.63950
H13 H 0.24100 0.10640 0.54120
H14 H 0.15520 0.02710 0.65320
H15 H 0.54430 -0.03130 0.76590
H16 H 0.63880 0.03650 0.64780
H17 H 0.73160 0.06410 0.80330
H18 H 0.14390 0.24320 1.31150
H19 H -0.17620 0.24330 1.40130
H20 H -0.32390 0.25660 1.24370
#END
