
#######################################################################
#
#                 Cambridge Crystallographic Data Centre
#                                CCDC
#
#######################################################################
#
# If this CIF has been generated from an entry in the Cambridge
# Structural Database, then it will include bibliographic, chemical,
# crystal, experimental, refinement or atomic coordinate data resulting
# from the CCDC's data processing and validation procedures.
#
#######################################################################

data_CSD_CIF_ZIGDOI01
_audit_creation_date 2015-05-15
_audit_creation_method CSD-ConQuest-V1
_database_code_CSD ZIGDOI01
_database_code_depnum_ccdc_archive 'CCDC 1401020'
_chemical_formula_sum 'C13 H22 N1 O3'
_chemical_formula_moiety
;
C13 H22 N1 O3
;
_journal_coden_Cambridge 1078
_journal_year 2015
_journal_name_full 'CSD Communication(Private Communication) '
loop_
_publ_author_name
"S.K.Goswami"
"L.R.Hanton"
"C.John McAdam"
"S.C.Moratti"
"Jim Simpson"
_chemical_name_systematic
;
1-oxyl-2,2,6,6-tetramethylpiperidin-4-yl methacrylate
;
_chemical_name_common
;
4-(methacryloyloxy)-2,2,6,6-tetramethylpiperidin-1-oxyl
;
_cell_volume    660.646
_exptl_crystal_colour 'colorless'
_exptl_crystal_density_diffrn 1.208
_exptl_crystal_description 'needle'
_diffrn_ambient_temperature 100
#These two values have been output from a single CSD field.
_refine_ls_R_factor_gt 0.0446
_refine_ls_wR_factor_gt 0.0446
_symmetry_cell_setting monoclinic
_symmetry_space_group_name_H-M 'P 21'
_symmetry_Int_Tables_number 4
loop_
_symmetry_equiv_pos_site_id
_symmetry_equiv_pos_as_xyz
1 x,y,z
2 -x,1/2+y,-z
_cell_length_a 5.9486(2)
_cell_length_b 9.7334(3)
_cell_length_c 11.6869(3)
_cell_angle_alpha 90
_cell_angle_beta 102.495(3)
_cell_angle_gamma 90
_cell_formula_units_Z 2
loop_
_atom_type_symbol
_atom_type_radius_bond
C 0.68
H 0.23
N 0.68
O 0.68
loop_
_atom_site_label
_atom_site_type_symbol
_atom_site_fract_x
_atom_site_fract_y
_atom_site_fract_z
O1 O 1.2215(3) 0.4504(3) 0.73843(18)
N1 N 1.0763(4) 0.3522(3) 0.7370(2)
C1 C 0.9962(4) 0.3265(3) 0.8479(2)
C2 C 1.2089(5) 0.3341(3) 0.9492(2)
H1 H 1.32530 0.26880 0.93500
H2 H 1.16470 0.31100 1.02290
H3 H 1.27240 0.42740 0.95420
C3 C 0.8249(5) 0.4391(3) 0.8657(2)
H4 H 0.88470 0.52930 0.84980
H5 H 0.80470 0.43630 0.94670
H6 H 0.67620 0.42330 0.81190
C4 C 0.8919(4) 0.1818(3) 0.8441(2)
H7 H 1.01740 0.11300 0.85470
H8 H 0.81270 0.17150 0.90990
C5 C 0.7218(4) 0.1533(3) 0.7295(2)
H9 H 0.58410 0.21450 0.72080
C6 C 0.8376(5) 0.1702(3) 0.6268(2)
H10 H 0.72380 0.15090 0.55340
H11 H 0.96270 0.10160 0.63390
C7 C 0.9380(4) 0.3131(3) 0.6187(2)
C8 C 1.1010(5) 0.3079(3) 0.5340(2)
H12 H 1.16620 0.39940 0.52790
H13 H 1.01570 0.27840 0.45650
H14 H 1.22550 0.24260 0.56320
C9 C 0.7521(5) 0.4223(3) 0.5767(2)
H15 H 0.63530 0.41720 0.62420
H16 H 0.67960 0.40560 0.49420
H17 H 0.82280 0.51370 0.58480
O2 O 0.6535(3) 0.0081(2) 0.72412(17)
C10 C 0.4849(4) -0.0266(3) 0.7785(2)
O3 O 0.3959(3) 0.0535(3) 0.8341(2)
C11 C 0.4165(4) -0.1742(3) 0.7632(2)
C12 C 0.5258(5) -0.2618(3) 0.7044(3)
H18 H 0.47980 -0.35540 0.69600
H19 H 0.64890 -0.23000 0.67150
C13 C 0.2233(5) -0.2161(4) 0.8170(3)
H20 H 0.18960 -0.31370 0.80130
H21 H 0.08660 -0.16140 0.78330
H22 H 0.26580 -0.20070 0.90180
#END
