
#######################################################################
#
#                 Cambridge Crystallographic Data Centre
#                                CCDC
#
#######################################################################
#
# If this CIF has been generated from an entry in the Cambridge
# Structural Database, then it will include bibliographic, chemical,
# crystal, experimental, refinement or atomic coordinate data resulting
# from the CCDC's data processing and validation procedures.
#
#######################################################################

data_CSD_CIF_ZIHKOT
_audit_creation_date 2018-08-21
_audit_creation_method CSD-ConQuest-V1
_database_code_CSD ZIHKOT
_database_code_depnum_ccdc_archive 'CCDC 1857538'
_chemical_formula_sum 'C20 H19 N1 O5'
_chemical_formula_moiety
;
C20 H19 N1 O5
;
_journal_coden_Cambridge 182
_journal_volume 54
_journal_year 2018
_journal_page_first 10128
_journal_name_full 'Chem.Commun. '
loop_
_publ_author_name
"Zhe-Hao Wang"
"Huan-Huan Zhang"
"Peng-Fei Xu"
"Yong-Chun Luo"
_chemical_name_systematic
;
dimethyl 2,5-diphenyl-4,5-dihydro-3H-pyrrole-3,3-dicarboxylate N-oxide
;
_cell_volume    876.513
_exptl_crystal_colour 'colorless'
_exptl_crystal_density_diffrn 1.339
_exptl_special_details
;
Absolute configuration

;
_exptl_crystal_description 'block'
_diffrn_ambient_temperature 173
#These two values have been output from a single CSD field.
_refine_ls_R_factor_gt 0.0283
_refine_ls_wR_factor_gt 0.0283
_symmetry_cell_setting monoclinic
_symmetry_space_group_name_H-M 'P 21'
_symmetry_Int_Tables_number 4
loop_
_symmetry_equiv_pos_site_id
_symmetry_equiv_pos_as_xyz
1 x,y,z
2 -x,1/2+y,-z
_cell_length_a 8.2648(2)
_cell_length_b 10.1169(2)
_cell_length_c 10.9096(3)
_cell_angle_alpha 90
_cell_angle_beta 106.079(3)
_cell_angle_gamma 90
_cell_formula_units_Z 2
loop_
_atom_type_symbol
_atom_type_radius_bond
C 0.68
H 0.23
N 0.68
O 0.68
loop_
_atom_site_label
_atom_site_type_symbol
_atom_site_fract_x
_atom_site_fract_y
_atom_site_fract_z
O1 O 0.44989(15) 0.12263(14) 0.53766(11)
O2 O 0.10047(19) -0.29261(14) 0.25914(17)
O3 O 0.29903(16) -0.14880(13) 0.24652(12)
O4 O -0.14192(15) 0.00212(13) 0.39305(13)
O5 O -0.15320(17) -0.08832(16) 0.20406(13)
N1 N 0.33247(16) 0.03759(15) 0.49543(13)
C1 C 0.21204(19) 0.04230(17) 0.38749(15)
C2 C 0.1127(2) -0.08517(16) 0.36825(15)
C3 C 0.1553(2) -0.14097(19) 0.50580(16)
H1 H 0.07320 -0.11200 0.54870
H2 H 0.15750 -0.23680 0.50500
C4 C 0.3294(2) -0.08532(17) 0.57182(15)
H3 H 0.41690 -0.14690 0.56270
C5 C 0.17809(19) 0.15795(18) 0.30485(16)
C6 C 0.1128(2) 0.1455(2) 0.17275(18)
H4 H 0.09840 0.06220 0.13520
C7 C 0.0695(3) 0.2581(2) 0.0975(2)
H5 H 0.02720 0.24980 0.00950
C8 C 0.0890(3) 0.3819(2) 0.1526(2)
H6 H 0.05930 0.45680 0.10200
C9 C 0.1529(3) 0.3945(2) 0.2836(2)
H7 H 0.16490 0.47780 0.32100
C10 C 0.1984(2) 0.28405(19) 0.35810(19)
H8 H 0.24370 0.29360 0.44570
C11 C 0.1674(2) -0.18730(16) 0.28379(17)
C12 C 0.3677(3) -0.2485(2) 0.1779(2)
H9 H 0.28760 -0.26650 0.09730
H10 H 0.39020 -0.32820 0.22750
H11 H 0.47030 -0.21620 0.16380
C13 C -0.0763(2) -0.05949(17) 0.31001(16)
C14 C -0.3199(2) 0.0339(3) 0.3457(3)
H12 H -0.33680 0.09390 0.27520
H13 H -0.35750 0.07440 0.41260
H14 H -0.38290 -0.04560 0.31820
C15 C 0.3562(2) -0.05049(18) 0.71041(15)
C16 C 0.4808(2) -0.1129(2) 0.80444(17)
H15 H 0.54620 -0.17870 0.78240
C17 C 0.5079(3) -0.0772(2) 0.93150(18)
H16 H 0.59140 -0.11900 0.99450
C18 C 0.4109(2) 0.0204(2) 0.96416(17)
H17 H 0.43020 0.04490 1.04910
C19 C 0.2853(2) 0.0817(2) 0.87136(18)
H18 H 0.21920 0.14660 0.89400
C20 C 0.2580(2) 0.0466(2) 0.74480(17)
H19 H 0.17350 0.08810 0.68230
#END
