
#######################################################################
#
#                 Cambridge Crystallographic Data Centre
#                                CCDC
#
#######################################################################
#
# If this CIF has been generated from an entry in the Cambridge
# Structural Database, then it will include bibliographic, chemical,
# crystal, experimental, refinement or atomic coordinate data resulting
# from the CCDC's data processing and validation procedures.
#
#######################################################################

data_CSD_CIF_ZILMUC
_audit_creation_date 1996-01-30
_audit_creation_method CSD-ConQuest-V1
_database_code_CSD ZILMUC
_database_code_depnum_ccdc_archive 'CCDC 131830'
_chemical_formula_sum 'C24 H31 N1 O9'
_chemical_formula_moiety
;
C24 H31 N1 O9
;
_journal_coeditor_code "IUCr CR0493"
_journal_coden_Cambridge 622
_journal_volume 51
_journal_year 1995
_journal_page_first 1063
_journal_name_full 'Acta Crystallogr.,Sect.B:Struct.Sci. '
loop_
_publ_author_name
"J.M.Karle"
"A.J.Lin"
_chemical_name_systematic
;
3(R)-(p-Nitrophenyl)-3-(10\b-dihydroartemisininoxy)propionic acid
;
_cell_volume   2430.088
_exptl_crystal_colour 'colorless'
_exptl_crystal_density_diffrn 1.305
_exptl_special_details
;
acid form of synthetic analogue of antimalarial agent

;
_diffrn_ambient_temperature ?
_diffrn_special_details
;
The study was carried out at room temperature,in the range 283-303K

;
#These two values have been output from a single CSD field.
_refine_ls_R_factor_gt 0.05
_refine_ls_wR_factor_gt 0.05
_symmetry_cell_setting monoclinic
_symmetry_space_group_name_H-M 'C 2'
_symmetry_Int_Tables_number 5
loop_
_symmetry_equiv_pos_site_id
_symmetry_equiv_pos_as_xyz
1 x,y,z
2 -x,y,-z
3 1/2+x,1/2+y,z
4 1/2-x,1/2+y,-z
_cell_length_a 26.555(3)
_cell_length_b 8.737(1)
_cell_length_c 11.494(1)
_cell_angle_alpha 90
_cell_angle_beta 114.32(2)
_cell_angle_gamma 90
_cell_formula_units_Z 4
loop_
_atom_type_symbol
_atom_type_radius_bond
C 0.68
H 0.23
N 0.68
O 0.68
loop_
_atom_site_label
_atom_site_type_symbol
_atom_site_fract_x
_atom_site_fract_y
_atom_site_fract_z
O1 O 0.5840(1) 0.75110 0.6544(3)
O2 O 0.6250(2) 0.6494(6) 0.7428(3)
C1 C 0.6719(2) 0.7347(9) 0.8126(5)
C2 C 0.6589(2) 0.8803(9) 0.8696(5)
C3 C 0.6521(2) 1.0205(8) 0.7879(5)
C4 C 0.6083(2) 1.0113(7) 0.6494(5)
C5 C 0.6128(3) 1.1442(8) 0.5673(7)
C6 C 0.5727(3) 1.1301(9) 0.4312(7)
C7 C 0.5765(2) 0.9783(8) 0.3727(5)
C8 C 0.5662(2) 0.8458(7) 0.4485(4)
C9 C 0.5654(2) 0.6852(8) 0.3971(4)
C10 C 0.6225(2) 0.6310(7) 0.4166(3)
O3 O 0.6613(1) 0.6513(5) 0.5456(2)
C11 C 0.6632(2) 0.7963(7) 0.6032(4)
C12 C 0.6068(2) 0.8530(6) 0.5893(4)
O4 O 0.6998(1) 0.7740(6) 0.7312(2)
C13 C 0.7098(3) 0.6248(12) 0.91296(5)
C14 C 0.6069(5) 1.2967(9) 0.6247(9)
C15 C 0.5244(2) 0.6641(12) 0.2577(5)
O5 O 0.6403(1) 0.7070(5) 0.3315(2)
C16 C 0.6796(2) 0.6215(7) 0.3026(3)
C17 C 0.6509(2) 0.4922(7) 0.21110(4)
C18 C 0.6062(2) 0.5231(8) 0.0967(4)
C19 C 0.5788(2) 0.4029(9) 0.0171(5)
C20 C 0.5955(2) 0.2556(9) 0.0540(5)
C21 C 0.6395(2) 0.2248(8) 0.1625(5)
C22 C 0.6671(2) 0.3434(8) 0.2416(5)
N1 N 0.5633(3) 0.1279(11) -0.0293(7)
O6 O 0.5258(3) 0.1604(11) -0.1307(6)
O7 O 0.5776(3) -0.0015(9) 0.0081(7)
C23 C 0.7061(2) 0.7356(7) 0.2469(4)
C24 C 0.7427(2) 0.8476(8) 0.3451(4)
O8 O 0.7624(2) 0.8274(7) 0.4564(3)
O9 O 0.7527(2) 0.9697(7) 0.2920(3)
H1 H 0.68860 0.89830 0.95150
H2 H 0.62520 0.86430 0.88000
H3 H 0.64240 1.10430 0.82860
H4 H 0.68710 1.04100 0.78500
H5 H 0.57300 1.02320 0.65250
H6 H 0.64890 1.14000 0.56720
H7 H 0.53600 1.14130 0.42680
H8 H 0.57980 1.21040 0.38300
H9 H 0.54920 0.97480 0.28610
H10 H 0.61260 0.96760 0.37380
H11 H 0.52890 0.86290 0.43860
H12 H 0.55240 0.62190 0.44720
H13 H 0.62030 0.52330 0.39850
H14 H 0.67530 0.87530 0.56250
H15 H 0.74350 0.67650 0.96500
H16 H 0.71810 0.53920 0.87120
H17 H 0.69190 0.58930 0.96500
H18 H 0.63330 1.30190 0.71200
H19 H 0.57030 1.30550 0.62090
H20 H 0.61350 1.37890 0.57730
H21 H 0.48860 0.69900 0.24710
H22 H 0.52250 0.55770 0.23540
H23 H 0.53660 0.72220 0.20320
H24 H 0.70710 0.57330 0.37650
H25 H 0.59430 0.62660 0.07300
H26 H 0.54840 0.42270 -0.06330
H27 H 0.65160 0.12110 0.18480
H28 H 0.69830 0.32140 0.32000
H29 H 0.72810 0.68110 0.21180
H30 H 0.67760 0.79140 0.18020
H31 H 0.7836(28) 1.0595(88) 0.3744(60)
#END
