
#######################################################################
#
#                 Cambridge Crystallographic Data Centre
#                                CCDC
#
#######################################################################
#
# If this CIF has been generated from an entry in the Cambridge
# Structural Database, then it will include bibliographic, chemical,
# crystal, experimental, refinement or atomic coordinate data resulting
# from the CCDC's data processing and validation procedures.
#
#######################################################################

data_CSD_CIF_ZILPIV
_audit_creation_date 2013-08-21
_audit_creation_method CSD-ConQuest-V1
_database_code_CSD ZILPIV
_database_code_depnum_ccdc_archive 'CCDC 805384'
_chemical_formula_sum 'C16 H15 N1 O2'
_chemical_formula_moiety
;
C16 H15 N1 O2
;
_journal_coden_Cambridge 34
_journal_volume 49
_journal_year 2012
_journal_page_first 1462
_journal_name_full 'J.Heterocycl.Chem. '
loop_
_publ_author_name
"Meihua Xie"
"Ming Li"
"Changqing Liu"
"Jitan Zhang"
"Chengyou Feng"
_chemical_name_systematic
;
5-(4-Methylphenyl)-3-phenyl-4,5-dihydro-1,2-oxazol-5-ol
;
_cell_volume   1325.672
_exptl_crystal_density_diffrn 1.269
_diffrn_ambient_temperature 293
#These two values have been output from a single CSD field.
_refine_ls_R_factor_gt 0.0374
_refine_ls_wR_factor_gt 0.0374
_symmetry_cell_setting monoclinic
_symmetry_space_group_name_H-M 'P 21/c'
_symmetry_Int_Tables_number 14
loop_
_symmetry_equiv_pos_site_id
_symmetry_equiv_pos_as_xyz
1 x,y,z
2 -x,1/2+y,1/2-z
3 -x,-y,-z
4 x,-1/2-y,-1/2+z
_cell_length_a 10.1203(9)
_cell_length_b 9.4778(8)
_cell_length_c 14.0262(13)
_cell_angle_alpha 90
_cell_angle_beta 99.816(1)
_cell_angle_gamma 90
_cell_formula_units_Z 4
loop_
_atom_type_symbol
_atom_type_radius_bond
C 0.68
H 0.23
N 0.68
O 0.68
loop_
_atom_site_label
_atom_site_type_symbol
_atom_site_fract_x
_atom_site_fract_y
_atom_site_fract_z
C1 C 0.39595(13) 0.36718(13) 0.54253(8)
H1 H 0.47080 0.32440 0.57870
N1 N 0.45673(11) 0.27371(11) 0.30182(7)
O1 O 0.55589(9) 0.18279(9) 0.27592(5)
C2 C 0.30883(15) 0.44310(15) 0.58852(10)
H2 H 0.32550 0.45170 0.65550
O2 O 0.53224(9) -0.02942(9) 0.35437(6)
H3 H 0.54320 -0.07560 0.30690
C3 C 0.19751(15) 0.50600(16) 0.53572(11)
H4 H 0.13830 0.55570 0.56710
C4 C 0.17366(15) 0.49522(18) 0.43569(12)
H5 H 0.09920 0.53920 0.39990
C5 C 0.25981(14) 0.41973(16) 0.38932(10)
H6 H 0.24300 0.41220 0.32220
C6 C 0.37217(11) 0.35444(12) 0.44226(8)
C7 C 0.46437(11) 0.27154(12) 0.39404(8)
C8 C 0.57510(12) 0.17983(12) 0.44356(8)
H7 H 0.54530 0.11990 0.49180
H8 H 0.65150 0.23520 0.47380
C9 C 0.60777(12) 0.09391(12) 0.35864(8)
C10 C 0.75424(12) 0.06796(12) 0.35581(8)
C11 C 0.83174(14) 0.16931(15) 0.3206(1)
H9 H 0.79310 0.25460 0.29790
C12 C 0.96607(15) 0.14527(18) 0.31880(11)
H10 H 1.01610 0.21490 0.29470
C13 C 1.02782(14) 0.02025(17) 0.35200(9)
C14 C 0.94983(14) -0.07999(16) 0.38712(10)
H11 H 0.98870 -0.16500 0.41010
C15 C 0.81524(13) -0.05749(14) 0.38913(9)
H12 H 0.76530 -0.12740 0.41310
C16 C 1.17483(16) -0.0033(2) 0.35099(13)
H13 H 1.22700 0.04780 0.40340
H14 H 1.19640 0.02950 0.29070
H15 H 1.19470 -0.10210 0.35820
#END
