
#######################################################################
#
#                 Cambridge Crystallographic Data Centre
#                                CCDC
#
#######################################################################
#
# If this CIF has been generated from an entry in the Cambridge
# Structural Database, then it will include bibliographic, chemical,
# crystal, experimental, refinement or atomic coordinate data resulting
# from the CCDC's data processing and validation procedures.
#
#######################################################################

data_CSD_CIF_ZIMLAL
_audit_creation_date 2018-08-23
_audit_creation_method CSD-ConQuest-V1
_database_code_CSD ZIMLAL
_database_code_depnum_ccdc_archive 'CCDC 1575308'
_chemical_formula_sum 'C17 H15 N3 O2'
_chemical_formula_moiety
;
C17 H15 N3 O2
;
_journal_coden_Cambridge 35
_journal_volume 83
_journal_year 2018
_journal_page_first 9125
_journal_name_full 'J.Org.Chem. '
loop_
_publ_author_name
"Cheng Zhang"
"Sailan Chang"
"Shanliang Dong"
"Lihua Qiu"
"Xinfang Xu"
_chemical_name_systematic
;
12-(methoxyimino)-7-methyl-7,12-dihydroindazolo[2,3-b]isoquinolin-7-ol
;
_cell_volume   1446.012
_exptl_crystal_colour 'colorless'
_exptl_crystal_density_diffrn 1.347
_exptl_crystal_description 'block'
_diffrn_ambient_temperature 294.7
#These two values have been output from a single CSD field.
_refine_ls_R_factor_gt 0.0553
_refine_ls_wR_factor_gt 0.0553
_symmetry_cell_setting monoclinic
_symmetry_space_group_name_H-M 'P 21/n'
_symmetry_Int_Tables_number 14
loop_
_symmetry_equiv_pos_site_id
_symmetry_equiv_pos_as_xyz
1 x,y,z
2 1/2-x,1/2+y,1/2-z
3 -x,-y,-z
4 -1/2+x,-1/2-y,-1/2+z
_cell_length_a 8.8381(8)
_cell_length_b 10.2546(11)
_cell_length_c 16.1701(19)
_cell_angle_alpha 90
_cell_angle_beta 99.358(10)
_cell_angle_gamma 90
_cell_formula_units_Z 4
loop_
_atom_type_symbol
_atom_type_radius_bond
C 0.68
H 0.23
N 0.68
O 0.68
loop_
_atom_site_label
_atom_site_type_symbol
_atom_site_fract_x
_atom_site_fract_y
_atom_site_fract_z
O1 O 0.58642(17) 0.52369(16) 0.12048(11)
H1 H 0.51010 0.52440 0.08410
O2 O 1.07000(18) 0.11375(18) 0.08394(12)
N1 N 0.6912(2) 0.4307(2) -0.01839(13)
N2 N 0.74392(19) 0.38351(19) 0.05834(13)
N3 N 1.0386(2) 0.1654(2) 0.15837(14)
C1 C 0.8027(2) 0.4021(2) -0.06400(17)
C2 C 0.8046(3) 0.4334(2) -0.14842(18)
H2 H 0.72170 0.47470 -0.18070
C3 C 0.9314(3) 0.4011(2) -0.18133(18)
H3 H 0.93480 0.42020 -0.23720
C4 C 1.0585(3) 0.3392(2) -0.13256(18)
H4 H 1.14490 0.32140 -0.15670
C5 C 1.0579(3) 0.3050(2) -0.05172(18)
H5 H 1.14200 0.26340 -0.02070
C6 C 0.9257(2) 0.3342(2) -0.01529(16)
C7 C 0.8817(2) 0.3214(2) 0.06382(16)
C8 C 0.9445(2) 0.2638(2) 0.14479(17)
C9 C 0.8932(2) 0.3196(2) 0.21909(16)
C10 C 0.7562(2) 0.3899(2) 0.20993(16)
C11 C 0.6504(2) 0.3996(2) 0.12609(17)
C12 C 0.5280(3) 0.2927(3) 0.11598(17)
H6 H 0.46530 0.30190 0.15880
H7 H 0.57680 0.20870 0.12090
H8 H 0.46520 0.30020 0.06190
C13 C 0.7116(3) 0.4488(2) 0.27952(17)
H9 H 0.62110 0.49680 0.27330
C14 C 0.7999(3) 0.4370(3) 0.35764(18)
H10 H 0.76900 0.47710 0.40370
C15 C 0.9345(3) 0.3657(3) 0.36759(18)
H11 H 0.99340 0.35710 0.42050
C16 C 0.9814(3) 0.3075(2) 0.29943(18)
H12 H 1.07210 0.25970 0.30650
C17 C 1.1689(3) 0.0031(3) 0.1024(2)
H13 H 1.17510 -0.04350 0.05160
H14 H 1.12850 -0.05330 0.14090
H15 H 1.26940 0.03210 0.12720
#END
