
#######################################################################
#
#                 Cambridge Crystallographic Data Centre
#                                CCDC
#
#######################################################################
#
# If this CIF has been generated from an entry in the Cambridge
# Structural Database, then it will include bibliographic, chemical,
# crystal, experimental, refinement or atomic coordinate data resulting
# from the CCDC's data processing and validation procedures.
#
#######################################################################

data_CSD_CIF_ZIPSUO
_audit_creation_date 2014-01-08
_audit_creation_method CSD-ConQuest-V1
_database_code_CSD ZIPSUO
_database_code_depnum_ccdc_archive 'CCDC 800450'
_chemical_formula_sum 'C7 H6 N6 O6'
_chemical_formula_moiety
;
C7 H6 N6 O6
;
_journal_coden_Cambridge 34
_journal_volume 50
_journal_year 2013
_journal_page_first 949
_journal_name_full 'J.Heterocycl.Chem. '
loop_
_publ_author_name
"R.L.Willer"
"R.F.Storey"
"J.R.Deschamps"
"M.Frisch"
_chemical_name_systematic
;
4,4'-(Methylenediimino)bis(1,2,5-oxadiazole-3-carboxylic acid)
;
_cell_volume    997.178
_exptl_crystal_colour 'colorless'
_exptl_crystal_density_diffrn 1.8
_exptl_crystal_description 'plate'
_exptl_crystal_preparation 'methanol'
_diffrn_ambient_temperature 298
#These two values have been output from a single CSD field.
_refine_ls_R_factor_gt 0.0508
_refine_ls_wR_factor_gt 0.0508
_symmetry_cell_setting monoclinic
_symmetry_space_group_name_H-M 'C 2/c'
_symmetry_Int_Tables_number 15
loop_
_symmetry_equiv_pos_site_id
_symmetry_equiv_pos_as_xyz
1 x,y,z
2 -x,y,1/2-z
3 1/2+x,1/2+y,z
4 1/2-x,1/2+y,1/2-z
5 -x,-y,-z
6 x,-y,-1/2+z
7 -1/2-x,-1/2-y,-z
8 -1/2+x,-1/2-y,-1/2+z
_cell_length_a 18.0547(7)
_cell_length_b 4.9647(2)
_cell_length_c 14.0765(9)
_cell_angle_alpha 90
_cell_angle_beta 127.786(2)
_cell_angle_gamma 90
_cell_formula_units_Z 4
loop_
_atom_type_symbol
_atom_type_radius_bond
C 0.68
H 0.23
N 0.68
O 0.68
loop_
_atom_site_label
_atom_site_type_symbol
_atom_site_fract_x
_atom_site_fract_y
_atom_site_fract_z
N1 N 0.64372(15) 1.1154(4) 0.36536(18)
O1 O 0.70890(14) 0.9195(4) 0.38859(16)
N2 N 0.70455(16) 0.8794(5) 0.28951(19)
C1 C 0.64094(16) 1.0408(5) 0.2080(2)
C2 C 0.60171(16) 1.1921(5) 0.2541(2)
N3 N 0.53146(15) 1.3721(4) 0.19457(18)
H1 H 0.50360 1.39450 0.11910
C3 C 0.50000 1.5303(7) 0.25000
H2 H 0.55100 1.64570 0.31060
C4 C 0.61709(16) 1.0598(5) 0.0867(2)
O2 O 0.56460(13) 1.2315(4) 0.01593(15)
O3 O 0.65737(13) 0.8710(4) 0.06816(15)
H3 H 0.71410 0.89780 0.11100
H4? H 0.55100 1.64570 0.31060
N1A N 0.35628(15) 1.1154(4) 0.13464(18)
O1A O 0.29110(14) 0.9195(4) 0.11141(16)
N2A N 0.29545(16) 0.8794(5) 0.21049(19)
C1A C 0.35906(16) 1.0408(5) 0.2920(2)
C2A C 0.39829(16) 1.1921(5) 0.2459(2)
N3A N 0.46854(15) 1.3721(4) 0.30543(18)
H1A H 0.49640 1.39450 0.38090
H2A H 0.44900 1.64570 0.18940
C4A C 0.38291(16) 1.0598(5) 0.4133(2)
O2A O 0.43540(13) 1.2315(4) 0.48407(15)
O3A O 0.34263(13) 0.8710(4) 0.43184(15)
H3A H 0.28590 0.89780 0.38900
#END
