
#######################################################################
#
#                 Cambridge Crystallographic Data Centre
#                                CCDC
#
#######################################################################
#
# If this CIF has been generated from an entry in the Cambridge
# Structural Database, then it will include bibliographic, chemical,
# crystal, experimental, refinement or atomic coordinate data resulting
# from the CCDC's data processing and validation procedures.
#
#######################################################################

data_CSD_CIF_ZIRKES
_audit_creation_date 2014-01-09
_audit_creation_method CSD-ConQuest-V1
_database_code_CSD ZIRKES
_database_code_depnum_ccdc_archive 'CCDC 967684'
_chemical_formula_sum 'C21 H17 N5 O3'
_chemical_formula_moiety
;
C21 H17 N5 O3
;
_journal_coden_Cambridge 1475
_journal_volume 5
_journal_year 2014
_journal_page_first 1102
_journal_name_full 'Chemical Science '
loop_
_publ_author_name
"Bin Wu"
"J.C.Gallucci"
"J.R.Parquette"
"T.V.RajanBabu"
_chemical_name_systematic
;
N-(2-Azido-1,2-diphenylethyl)-4-nitrobenzamide
;
_chemical_name_common
;
1,2-Diphenyl-1-azido-2-[N-(4-nitrobenzoyl)amino]ethane
;
_cell_volume   1850.340
_exptl_crystal_colour 'colorless'
_exptl_crystal_density_diffrn 1.391
_exptl_crystal_description 'very thin rod'
_diffrn_ambient_temperature 150
#These two values have been output from a single CSD field.
_refine_ls_R_factor_gt 0.0373
_refine_ls_wR_factor_gt 0.0373
_symmetry_cell_setting orthorhombic
_symmetry_space_group_name_H-M 'P 21 21 21'
_symmetry_Int_Tables_number 19
loop_
_symmetry_equiv_pos_site_id
_symmetry_equiv_pos_as_xyz
1 x,y,z
2 1/2-x,-y,1/2+z
3 1/2+x,1/2-y,-z
4 -x,1/2+y,1/2-z
_cell_length_a 5.1209(1)
_cell_length_b 13.4823(2)
_cell_length_c 26.8004(5)
_cell_angle_alpha 90
_cell_angle_beta 90
_cell_angle_gamma 90
_cell_formula_units_Z 4
loop_
_atom_type_symbol
_atom_type_radius_bond
C 0.68
H 0.23
N 0.68
O 0.68
loop_
_atom_site_label
_atom_site_type_symbol
_atom_site_fract_x
_atom_site_fract_y
_atom_site_fract_z
C1 C 0.1697(4) 0.73912(13) 0.18731(6)
H1 H 0.35370 0.75690 0.17850
C2 C -0.0081(4) 0.82389(12) 0.16811(6)
H2 H -0.19450 0.80190 0.16920
C3 C 0.0642(4) 0.85109(14) 0.11498(7)
C4 C 0.2815(4) 0.90915(14) 0.10540(8)
H3 H 0.38310 0.93350 0.13240
C5 C 0.3527(4) 0.93215(15) 0.05680(8)
H4 H 0.50250 0.97190 0.05070
C6 C 0.2064(4) 0.89737(16) 0.01744(8)
H5 H 0.25460 0.91340 -0.01580
C7 C -0.0088(4) 0.83954(15) 0.02630(7)
H6 H -0.11010 0.81550 -0.00080
C8 C -0.0789(4) 0.81602(15) 0.07495(7)
H7 H -0.22720 0.77530 0.08080
C9 C 0.1065(4) 0.64183(13) 0.16119(6)
C10 C 0.2538(4) 0.61071(15) 0.12072(7)
H8 H 0.39610 0.65000 0.10950
C11 C 0.1949(5) 0.52249(15) 0.09646(8)
H9 H 0.29660 0.50200 0.06870
C12 C -0.0097(4) 0.46473(15) 0.11242(7)
H10 H -0.05000 0.40440 0.09580
C13 C -0.1556(4) 0.49490(15) 0.15268(8)
H11 H -0.29590 0.45480 0.16410
C14 C -0.1003(4) 0.58293(14) 0.17664(7)
H12 H -0.20490 0.60350 0.20400
C15 C 0.3684(4) 0.72914(13) 0.27006(6)
C16 C 0.3290(4) 0.71259(12) 0.32460(6)
C17 C 0.1311(4) 0.65211(13) 0.34304(6)
H13 H 0.00730 0.62400 0.32070
C18 C 0.1133(4) 0.63254(13) 0.39359(7)
H14 H -0.02060 0.59090 0.40640
C19 C 0.2951(4) 0.67502(14) 0.42494(6)
C20 C 0.4917(4) 0.73635(13) 0.40832(6)
H15 H 0.61210 0.76540 0.43100
C21 C 0.5084(4) 0.75445(13) 0.35759(6)
H16 H 0.64360 0.79580 0.34510
N1 N 0.0265(3) 0.91234(12) 0.20087(6)
N2 N -0.1721(4) 0.93971(13) 0.22299(6)
N3 N -0.3386(5) 0.97430(16) 0.24475(8)
N4 N 0.1565(3) 0.72997(12) 0.24133(6)
H17 H 0.018(4) 0.7281(13) 0.2536(6)
N5 N 0.2802(4) 0.65126(12) 0.47864(6)
O1 O 0.5919(2) 0.74071(10) 0.25332(4)
O2 O 0.4591(3) 0.67886(10) 0.50579(5)
O3 O 0.0897(3) 0.60441(10) 0.49343(5)
#END
