
#######################################################################
#
#                 Cambridge Crystallographic Data Centre
#                                CCDC
#
#######################################################################
#
# If this CIF has been generated from an entry in the Cambridge
# Structural Database, then it will include bibliographic, chemical,
# crystal, experimental, refinement or atomic coordinate data resulting
# from the CCDC's data processing and validation procedures.
#
#######################################################################

data_CSD_CIF_ZITHUH
_audit_creation_date 2014-01-10
_audit_creation_method CSD-ConQuest-V1
_database_code_CSD ZITHUH
_database_code_depnum_ccdc_archive 'CCDC 929064'
_chemical_formula_sum 'C8 H7 N3 O4'
_chemical_formula_moiety
;
C8 H7 N3 O4
;
_journal_coden_Cambridge 122
_journal_year 2013
_journal_page_first 1282
_journal_name_full 'Khim.Get.Soedin.,SSSR(Russ.)(Chem.Heterocycl.Compd.) '
loop_
_publ_author_name
"V.G.Shtamburg"
"O.V.Shishkin"
"V.V.Shtamburg"
"R.I.Zubatyuk"
"A.V.Mazepa"
"R.G.Kostyanovsky"
_chemical_name_systematic
;
1-Methoxy-6-nitro-1,3-dihydro-2H-benzimidazol-2-one
;
_chemical_name_common
;
1-carbomoyl-3,4-dihydro-1H-2,1-benzoxazine
;
_cell_volume    865.524
_exptl_crystal_density_diffrn 1.605
_diffrn_ambient_temperature 293
#These two values have been output from a single CSD field.
_refine_ls_R_factor_gt 0.0639
_refine_ls_wR_factor_gt 0.0639
_symmetry_cell_setting orthorhombic
_symmetry_space_group_name_H-M 'P n a 21'
_symmetry_Int_Tables_number 33
loop_
_symmetry_equiv_pos_site_id
_symmetry_equiv_pos_as_xyz
1 x,y,z
2 -x,-y,1/2+z
3 1/2-x,1/2+y,1/2+z
4 1/2+x,1/2-y,z
_cell_length_a 25.895(3)
_cell_length_b 3.8783(8)
_cell_length_c 8.6183(11)
_cell_angle_alpha 90
_cell_angle_beta 90
_cell_angle_gamma 90
_cell_formula_units_Z 4
loop_
_atom_type_symbol
_atom_type_radius_bond
C 0.68
H 0.23
N 0.68
O 0.68
loop_
_atom_site_label
_atom_site_type_symbol
_atom_site_fract_x
_atom_site_fract_y
_atom_site_fract_z
O1 O -0.23808(13) -0.233(1) -0.0167(5)
O2 O -0.33086(13) -0.4972(9) -0.1449(5)
O3 O -0.52026(15) -0.4577(14) 0.1147(7)
O4 O -0.52835(15) -0.1401(14) 0.3174(7)
N1 N -0.29104(14) -0.0619(11) 0.1893(5)
H1 H -0.26870 0.03050 0.25030
N2 N -0.32715(14) -0.3111(12) -0.0111(5)
N3 N -0.50232(17) -0.2745(12) 0.2152(7)
C1 C -0.28001(17) -0.2039(14) 0.0470(6)
C2 C -0.36646(17) -0.2466(11) 0.0940(6)
C3 C -0.41872(17) -0.3195(12) 0.0867(6)
H2 H -0.43390 -0.43040 0.00260
C4 C -0.44655(17) -0.2124(12) 0.2162(6)
C5 C -0.42481(17) -0.0452(14) 0.3424(6)
H3 H -0.44570 0.02560 0.42420
C6 C -0.37204(18) 0.0171(12) 0.3475(6)
H4 H -0.35660 0.12470 0.43200
C7 C -0.34362(16) -0.0890(13) 0.2203(6)
C8 C -0.3468(2) -0.2813(15) -0.2730(7)
H5 H -0.37880 -0.17050 -0.24790
H6 H -0.35120 -0.42050 -0.36420
H7 H -0.32080 -0.10960 -0.29210
#END
