
#######################################################################
#
#                 Cambridge Crystallographic Data Centre
#                                CCDC
#
#######################################################################
#
# If this CIF has been generated from an entry in the Cambridge
# Structural Database, then it will include bibliographic, chemical,
# crystal, experimental, refinement or atomic coordinate data resulting
# from the CCDC's data processing and validation procedures.
#
#######################################################################

data_CSD_CIF_ZITKAQ
_audit_creation_date 2014-01-10
_audit_creation_method CSD-ConQuest-V1
_database_code_CSD ZITKAQ
_database_code_depnum_ccdc_archive 'CCDC 933417'
_chemical_formula_sum 'C9 H10 N2 O2'
_chemical_formula_moiety
;
C9 H10 N2 O2
;
_journal_coden_Cambridge 122
_journal_year 2013
_journal_page_first 1282
_journal_name_full 'Khim.Get.Soedin.,SSSR(Russ.)(Chem.Heterocycl.Compd.) '
loop_
_publ_author_name
"V.G.Shtamburg"
"O.V.Shishkin"
"V.V.Shtamburg"
"R.I.Zubatyuk"
"A.V.Mazepa"
"R.G.Kostyanovsky"
_chemical_name_systematic
;
3,4-Dihydro-1H-2,1-benzoxazine-1-carboxamide
;
_cell_volume    832.826
_exptl_crystal_density_diffrn 1.421
_diffrn_ambient_temperature 100.2
#These two values have been output from a single CSD field.
_refine_ls_R_factor_gt 0.0665
_refine_ls_wR_factor_gt 0.0665
_symmetry_cell_setting monoclinic
_symmetry_space_group_name_H-M 'P 21/n'
_symmetry_Int_Tables_number 14
loop_
_symmetry_equiv_pos_site_id
_symmetry_equiv_pos_as_xyz
1 x,y,z
2 1/2-x,1/2+y,1/2-z
3 -x,-y,-z
4 -1/2+x,-1/2-y,-1/2+z
_cell_length_a 7.3957(18)
_cell_length_b 16.120(3)
_cell_length_c 7.606(2)
_cell_angle_alpha 90
_cell_angle_beta 113.30(3)
_cell_angle_gamma 90
_cell_formula_units_Z 4
loop_
_atom_type_symbol
_atom_type_radius_bond
C 0.68
H 0.23
N 0.68
O 0.68
loop_
_atom_site_label
_atom_site_type_symbol
_atom_site_fract_x
_atom_site_fract_y
_atom_site_fract_z
O1 O 0.1582(3) 0.13405(11) 0.2274(3)
O2 O 0.4842(3) 0.11373(11) -0.0030(3)
N1 N 0.2970(3) 0.15949(14) 0.1536(3)
N2 N 0.3052(3) 0.02053(13) 0.0862(3)
H1 H 0.34700 -0.02200 0.04000
H2 H 0.22220 0.01260 0.14150
C1 C 0.3064(4) 0.24616(16) 0.1247(4)
C2 C 0.4785(4) 0.28154(16) 0.1257(4)
H3 H 0.59050 0.24790 0.14600
C3 C 0.4852(4) 0.36605(17) 0.0967(4)
H4 H 0.60200 0.39060 0.09680
C4 C 0.3216(4) 0.41499(17) 0.0676(4)
H5 H 0.32490 0.47280 0.04470
C5 C 0.1545(4) 0.37943(17) 0.0721(4)
H6 H 0.04400 0.41370 0.05410
C6 C 0.1423(4) 0.29503(16) 0.1020(4)
C7 C -0.0371(4) 0.25733(15) 0.1159(4)
H7 H -0.15630 0.27930 0.01150
H8 H -0.04280 0.27350 0.23920
C8 C -0.0356(4) 0.16354(16) 0.1024(4)
H9 H -0.13690 0.13950 0.14200
H10 H -0.06540 0.14650 -0.03120
C9 C 0.3680(4) 0.09741(16) 0.0724(4)
#END
