
#######################################################################
#
#                 Cambridge Crystallographic Data Centre
#                                CCDC
#
#######################################################################
#
# If this CIF has been generated from an entry in the Cambridge
# Structural Database, then it will include bibliographic, chemical,
# crystal, experimental, refinement or atomic coordinate data resulting
# from the CCDC's data processing and validation procedures.
#
#######################################################################

data_CSD_CIF_ZIVCAI
_audit_creation_date 1996-04-05
_audit_creation_method CSD-ConQuest-V1
_database_code_CSD ZIVCAI
_database_code_depnum_ccdc_archive 'CCDC 126275'
_chemical_formula_sum 'C9 H10 N2 O4'
_chemical_formula_moiety
;
C9 H10 N2 O4
;
_journal_coeditor_code "IUCr TA1035"
_journal_coden_Cambridge 591
_journal_volume 52
_journal_year 1996
_journal_page_first 101
_journal_name_full 'Acta Crystallogr.,Sect.C:Cryst.Struct.Commun. '
loop_
_publ_author_name
"J.M.Waters"
"T.M.Kitson"
_chemical_name_systematic
;
p-Nitrophenyl dimethylcarbamate
;
_cell_volume   1006.310
_exptl_crystal_colour 'colorless'
_exptl_crystal_density_diffrn 1.387
_exptl_special_details
;
enzyme modification activity

;
_diffrn_ambient_temperature ?
_diffrn_special_details
;
The study was carried out at room temperature,in the range 283-303K

;
#These two values have been output from a single CSD field.
_refine_ls_R_factor_gt 0.0465
_refine_ls_wR_factor_gt 0.0465
_symmetry_cell_setting orthorhombic
_symmetry_space_group_name_H-M 'P c a 21'
_symmetry_Int_Tables_number 29
loop_
_symmetry_equiv_pos_site_id
_symmetry_equiv_pos_as_xyz
1 x,y,z
2 -x,-y,1/2+z
3 1/2-x,y,1/2+z
4 1/2+x,-y,z
_cell_length_a 11.207(2)
_cell_length_b 12.195(1)
_cell_length_c 7.3631(9)
_cell_angle_alpha 90
_cell_angle_beta 90
_cell_angle_gamma 90
_cell_formula_units_Z 4
loop_
_atom_type_symbol
_atom_type_radius_bond
C 0.68
H 0.23
N 0.68
O 0.68
loop_
_atom_site_label
_atom_site_type_symbol
_atom_site_fract_x
_atom_site_fract_y
_atom_site_fract_z
O1 O 0.0693(2) 0.34979(14) 0.3098(3)
O2 O 0.2431(3) 0.3098(2) 0.4537(4)
O3 O 0.2260(3) 0.8285(2) 0.1249(6)
O4 O 0.0548(3) 0.8586(2) 0.2501(7)
N1 N 0.1191(2) 0.1755(2) 0.3557(4)
N2 N 0.1359(3) 0.7973(2) 0.2030(5)
C1 C 0.0953(2) 0.4610(2) 0.2955(4)
C2 C 0.2009(2) 0.4990(2) 0.2218(4)
H1 H 0.2618(2) 0.4505(2) 0.1914(4)
C3 C 0.2141(2) 0.6101(2) 0.1942(4)
H2 H 0.2844(2) 0.6376(2) 0.1449(4)
C4 C 0.1227(2) 0.6799(2) 0.2399(4)
C5 C 0.0183(2) 0.6428(2) 0.3166(5)
H3 H -0.0422(2) 0.6916(2) 0.3478(5)
C6 C 0.0054(2) 0.5316(2) 0.3461(4)
H4 H -0.0637(2) 0.5046(2) 0.3999(4)
C7 C 0.1531(2) 0.2788(2) 0.3783(4)
C8 C 0.0117(3) 0.1424(3) 0.2588(7)
H5 H 0.0054(3) 0.0639(3) 0.2597(7)
H6 H 0.0158(3) 0.1679(3) 0.1356(7)
H7 H -0.0570(3) 0.1736(3) 0.3172(7)
C9 C 0.1906(4) 0.0890(3) 0.4371(7)
H8 H 0.1556(4) 0.0191(3) 0.4097(7)
H9 H 0.1932(4) 0.0990(3) 0.5663(7)
H10 H 0.2701(4) 0.0918(3) 0.3889(7)
#END
