
#######################################################################
#
#                 Cambridge Crystallographic Data Centre
#                                CCDC
#
#######################################################################
#
# If this CIF has been generated from an entry in the Cambridge
# Structural Database, then it will include bibliographic, chemical,
# crystal, experimental, refinement or atomic coordinate data resulting
# from the CCDC's data processing and validation procedures.
#
#######################################################################

data_CSD_CIF_ZIVJET
_audit_creation_date 1996-04-05
_audit_creation_method CSD-ConQuest-V1
_database_code_CSD ZIVJET
_database_code_depnum_ccdc_archive 'CCDC 126247'
_chemical_formula_sum 'C8 H9 N1 O3'
_chemical_formula_moiety
;
C8 H9 N1 O3
;
_journal_coeditor_code "IUCr NA1176"
_journal_coden_Cambridge 591
_journal_volume 52
_journal_year 1996
_journal_page_first 153
_journal_name_full 'Acta Crystallogr.,Sect.C:Cryst.Struct.Commun. '
loop_
_publ_author_name
"O.Carugo"
"J.Charalambous"
"D.V.Raghvani"
"N.Sardone"
_chemical_name_systematic
;
5-Ethoxy-1,2-benzoquinone 2-oxime
;
_cell_volume    804.096
_exptl_crystal_colour 'yellow'
_exptl_crystal_density_diffrn 1.381
_diffrn_ambient_temperature ?
_diffrn_special_details
;
The study was carried out at room temperature,in the range 283-303K

;
#These two values have been output from a single CSD field.
_refine_ls_R_factor_gt 0.057
_refine_ls_wR_factor_gt 0.057
_symmetry_cell_setting monoclinic
_symmetry_space_group_name_H-M 'P 21/n'
_symmetry_Int_Tables_number 14
loop_
_symmetry_equiv_pos_site_id
_symmetry_equiv_pos_as_xyz
1 x,y,z
2 1/2-x,1/2+y,1/2-z
3 -x,-y,-z
4 -1/2+x,-1/2-y,-1/2+z
_cell_length_a 3.979(1)
_cell_length_b 10.800(2)
_cell_length_c 18.713(5)
_cell_angle_alpha 90
_cell_angle_beta 90.71(3)
_cell_angle_gamma 90
_cell_formula_units_Z 4
loop_
_atom_type_symbol
_atom_type_radius_bond
C 0.68
H 0.23
N 0.68
O 0.68
loop_
_atom_site_label
_atom_site_type_symbol
_atom_site_fract_x
_atom_site_fract_y
_atom_site_fract_z
O1 O 0.485(1) 0.4210(3) 0.1627(2)
O2 O 0.2673(9) 0.1075(3) 0.2683(2)
O3 O 0.7843(8) -0.1180(3) 0.0822(2)
N1 N 0.406(1) 0.3179(4) 0.2010(2)
C1 C 0.518(1) 0.2172(4) 0.1728(2)
C2 C 0.422(1) 0.1009(4) 0.2109(2)
C3 C 0.521(1) -0.0147(4) 0.1803(2)
C4 C 0.684(1) -0.0156(4) 0.1168(2)
C5 C 0.778(1) 0.0965(4) 0.0806(2)
C6 C 0.699(1) 0.2082(4) 0.1069(2)
C7 C 0.715(1) -0.2376(4) 0.1144(2)
C8 C 0.818(1) -0.3354(5) 0.0617(3)
H1 H 0.36(1) 0.481(5) 0.192(3)
H2 H 0.45890 -0.08200 0.21870
H3 H 0.91600 0.11520 0.04100
H4 H 0.79100 0.26560 0.07220
H5 H 0.83390 -0.25000 0.16790
H6 H 0.45890 -0.23430 0.14640
H7 H 0.79290 -0.43350 0.06250
H8 H 0.66790 -0.31830 0.02140
H9 H 1.05630 -0.32140 0.06740
#END
