
#######################################################################
#
#                 Cambridge Crystallographic Data Centre
#                                CCDC
#
#######################################################################
#
# If this CIF has been generated from an entry in the Cambridge
# Structural Database, then it will include bibliographic, chemical,
# crystal, experimental, refinement or atomic coordinate data resulting
# from the CCDC's data processing and validation procedures.
#
#######################################################################

data_CSD_CIF_ZIVMOG
_audit_creation_date 1996-04-05
_audit_creation_method CSD-ConQuest-V1
_database_code_CSD ZIVMOG
_database_code_depnum_ccdc_archive 'CCDC 126263'
_chemical_formula_sum 'C22 H17 N3 O2'
_chemical_formula_moiety
;
C22 H17 N3 O2
;
_journal_coeditor_code "IUCr SZ1038"
_journal_coden_Cambridge 591
_journal_volume 52
_journal_year 1996
_journal_page_first 189
_journal_name_full 'Acta Crystallogr.,Sect.C:Cryst.Struct.Commun. '
loop_
_publ_author_name
"E.Skrzypczak-Jankun"
"R.G.Kurumbail"
_chemical_name_systematic
;
1-Trityl-4-nitroimidazole
;
_cell_volume   1774.824
_exptl_crystal_density_diffrn 1.33
_exptl_special_details
;
antifungal activity

;
_diffrn_ambient_temperature ?
_diffrn_special_details
;
The study was carried out at room temperature,in the range 283-303K

;
#These two values have been output from a single CSD field.
_refine_ls_R_factor_gt 0.039
_refine_ls_wR_factor_gt 0.039
_symmetry_cell_setting monoclinic
_symmetry_space_group_name_H-M 'P 21/c'
_symmetry_Int_Tables_number 14
loop_
_symmetry_equiv_pos_site_id
_symmetry_equiv_pos_as_xyz
1 x,y,z
2 -x,1/2+y,1/2-z
3 -x,-y,-z
4 x,-1/2-y,-1/2+z
_cell_length_a 9.830(2)
_cell_length_b 9.239(2)
_cell_length_c 19.654(2)
_cell_angle_alpha 90
_cell_angle_beta 96.11(1)
_cell_angle_gamma 90
_cell_formula_units_Z 4
loop_
_atom_type_symbol
_atom_type_radius_bond
C 0.68
H 0.23
N 0.68
O 0.68
loop_
_atom_site_label
_atom_site_type_symbol
_atom_site_fract_x
_atom_site_fract_y
_atom_site_fract_z
N1 N 0.6578(1) 0.2057(1) 0.11484(6)
C1 C 0.5314(2) 0.2303(2) 0.08069(8)
N2 N 0.4551(1) 0.3157(1) 0.11365(7)
C2 C 0.5381(1) 0.3474(2) 0.17163(7)
C3 C 0.6627(1) 0.2827(2) 0.17407(7)
N3 N 0.4952(1) 0.4443(2) 0.22220(7)
O1 O 0.5812(1) 0.4804(2) 0.26863(6)
O2 O 0.3771(1) 0.4862(1) 0.21678(7)
C4 C 0.7680(1) 0.1155(2) 0.08808(7)
C5 C 0.9015(1) 0.1378(2) 0.13590(7)
C6 C 1.0100(2) 0.2193(2) 0.11782(9)
C7 C 1.1259(2) 0.2397(2) 0.1636(1)
C8 C 1.1346(2) 0.1793(2) 0.2278(1)
C9 C 1.0287(2) 0.0947(2) 0.24584(9)
C10 C 0.9134(2) 0.0732(2) 0.20012(8)
C11 C 0.7284(1) -0.0457(2) 0.08935(7)
C12 C 0.6024(1) -0.0945(2) 0.10579(8)
C13 C 0.5734(2) -0.2418(2) 0.10536(9)
C14 C 0.6683(2) -0.3402(2) 0.0880(1)
C15 C 0.7954(2) -0.2938(2) 0.0730(1)
C16 C 0.8253(1) -0.1476(2) 0.07450(8)
C17 C 0.7792(1) 0.1710(2) 0.01466(7)
C18 C 0.7845(2) 0.0805(2) -0.04121(8)
C19 C 0.7979(2) 0.1381(2) -0.10557(8)
C20 C 0.8049(2) 0.2850(2) -0.11542(9)
C21 C 0.7965(2) 0.3762(2) -0.0606(1)
C22 C 0.7844(2) 0.3192(2) 0.00363(9)
H1 H 0.50400 0.19430 0.03400
H2 H 0.74450 0.28730 0.21010
H3 H 1.00130 0.26090 0.07200
H4 H 1.19990 0.29560 0.15060
H5 H 1.21000 0.20240 0.25760
H6 H 1.03810 0.04180 0.29210
H7 H 0.84440 0.00890 0.21510
H8 H 0.52980 -0.02050 0.12150
H9 H 0.47620 -0.27670 0.11250
H10 H 0.65140 -0.43890 0.08660
H11 H 0.87210 -0.36290 0.06510
H12 H 0.91440 -0.11060 0.06440
H13 H 0.78450 -0.02520 -0.03540
H14 H 0.80060 0.07460 -0.14340
H15 H 0.80900 0.33460 -0.16280
H16 H 0.79840 0.48100 -0.06650
H17 H 0.77640 0.38860 0.04160
#END
