
#######################################################################
#
#                 Cambridge Crystallographic Data Centre
#                                CCDC
#
#######################################################################
#
# If this CIF has been generated from an entry in the Cambridge
# Structural Database, then it will include bibliographic, chemical,
# crystal, experimental, refinement or atomic coordinate data resulting
# from the CCDC's data processing and validation procedures.
#
#######################################################################

data_CSD_CIF_ZIWQED01
_audit_creation_date 2016-06-08
_audit_creation_method CSD-ConQuest-V1
_database_code_CSD ZIWQED01
_database_code_depnum_ccdc_archive 'CCDC 1475210'
_chemical_formula_sum 'C6 H8 N2 O1'
_chemical_formula_moiety
;
C6 H8 N2 O1
;
_journal_coden_Cambridge 1078
_journal_year 2016
_journal_name_full 'CSD Communication(Private Communication) '
loop_
_publ_author_name
"Bi-Yun Su"
"Xiao-Teng Li"
_chemical_name_systematic
;
(Z)-N-hydroxy-1-(1H-pyrrol-2-yl)ethanimine
;
_chemical_name_common
;
(Z)-1-(1H-pyrrol-2-yl)ethanone oxime
;
_chemical_melting_point 416.95
_cell_volume    633.282
_exptl_crystal_colour 'colorless'
_exptl_crystal_density_diffrn 1.302
_exptl_special_details
;
Melting point range 416.95-418.35K
The College of Chemistry and Chemical Engineering, Xi an Shiyou University, 
Xi an, China
;
_exptl_crystal_description 'needle-like'
_diffrn_ambient_temperature 296
#These two values have been output from a single CSD field.
_refine_ls_R_factor_gt 0.1092
_refine_ls_wR_factor_gt 0.1092
_symmetry_cell_setting orthorhombic
_symmetry_space_group_name_H-M 'P 21 21 21'
_symmetry_Int_Tables_number 19
loop_
_symmetry_equiv_pos_site_id
_symmetry_equiv_pos_as_xyz
1 x,y,z
2 1/2-x,-y,1/2+z
3 1/2+x,1/2-y,-z
4 -x,1/2+y,1/2-z
_cell_length_a 4.634(7)
_cell_length_b 7.836(10)
_cell_length_c 17.44(2)
_cell_angle_alpha 90
_cell_angle_beta 90
_cell_angle_gamma 90
_cell_formula_units_Z 4
loop_
_atom_type_symbol
_atom_type_radius_bond
C 0.68
H 0.23
N 0.68
O 0.68
loop_
_atom_site_label
_atom_site_type_symbol
_atom_site_fract_x
_atom_site_fract_y
_atom_site_fract_z
N1 N 0.5994(13) 0.2214(7) 0.0749(4)
H1 H 0.69760 0.18350 0.03670
N2 N 0.4406(12) -0.1513(8) 0.0542(3)
O1 O 0.6497(11) -0.0744(5) 0.0073(3)
H2 H 0.73120 -0.14780 -0.01820
C1 C 0.6138(19) 0.3796(9) 0.1024(5)
H3 H 0.72740 0.46710 0.08280
C2 C 0.439(2) 0.3916(11) 0.1625(6)
H4 H 0.41350 0.48810 0.19270
C3 C 0.3018(19) 0.2363(10) 0.1725(5)
H5 H 0.16590 0.21020 0.20990
C4 C 0.4039(15) 0.1277(9) 0.1168(4)
C5 C 0.3338(14) -0.0497(9) 0.1048(4)
C6 C 0.1126(17) -0.1283(10) 0.1560(4)
H6 H 0.08660 -0.24600 0.14220
H7 H -0.06710 -0.06870 0.15030
H8 H 0.17600 -0.12100 0.20830
#END
