
#######################################################################
#
#                 Cambridge Crystallographic Data Centre
#                                CCDC
#
#######################################################################
#
# If this CIF has been generated from an entry in the Cambridge
# Structural Database, then it will include bibliographic, chemical,
# crystal, experimental, refinement or atomic coordinate data resulting
# from the CCDC's data processing and validation procedures.
#
#######################################################################

data_CSD_CIF_ZIWQIH
_audit_creation_date 2014-01-13
_audit_creation_method CSD-ConQuest-V1
_database_code_CSD ZIWQIH
_database_code_depnum_ccdc_archive 'CCDC 969872'
_chemical_formula_sum 'C8 H10 N2 O1'
_chemical_formula_moiety
;
C8 H10 N2 O1
;
_journal_coden_Cambridge 1078
_journal_year 2013
_journal_name_full 'CSD Communication(Private Communication) '
loop_
_publ_author_name
"P.Jones"
_chemical_name_systematic
;
3-(N-hydroxyethanimidoyl)aniline
;
_cell_volume    771.222
_exptl_crystal_colour 'colorless'
_exptl_crystal_density_diffrn 1.293
_exptl_special_details
;
contribution from Institut fur Anorganische und Analytische Chemie, 
Technische Universitat Braunschweig, Postfach 3329, 38023 Braunschweig, 
Germany
;
_exptl_crystal_description 'prism'
_diffrn_ambient_temperature 133
#These two values have been output from a single CSD field.
_refine_ls_R_factor_gt 0.051
_refine_ls_wR_factor_gt 0.051
_symmetry_cell_setting monoclinic
_symmetry_space_group_name_H-M 'P 21/n'
_symmetry_Int_Tables_number 14
loop_
_symmetry_equiv_pos_site_id
_symmetry_equiv_pos_as_xyz
1 x,y,z
2 1/2-x,1/2+y,1/2-z
3 -x,-y,-z
4 -1/2+x,-1/2-y,-1/2+z
_cell_length_a 10.5085(11)
_cell_length_b 5.9769(7)
_cell_length_c 12.7871(14)
_cell_angle_alpha 90
_cell_angle_beta 106.206(4)
_cell_angle_gamma 90
_cell_formula_units_Z 4
loop_
_atom_type_symbol
_atom_type_radius_bond
C 0.68
H 0.23
N 0.68
O 0.68
loop_
_atom_site_label
_atom_site_type_symbol
_atom_site_fract_x
_atom_site_fract_y
_atom_site_fract_z
C1 C 0.30697(15) 0.5211(3) 0.35817(11)
H1 H 0.30400 0.38080 0.31800
H2 H 0.39770 0.57980 0.37870
H3 H 0.24740 0.63040 0.31210
C2 C 0.26398(12) 0.4790(2) 0.45872(10)
C3 C 0.32385(12) 0.6082(2) 0.56001(10)
C4 C 0.37623(13) 0.8226(2) 0.55531(11)
H4 H 0.37200 0.88900 0.48690
C5 C 0.43453(14) 0.9375(2) 0.65156(12)
H5 H 0.47010 1.08260 0.64810
C6 C 0.44171(13) 0.8439(2) 0.75249(11)
H6 H 0.48230 0.92400 0.81740
C7 C 0.38874(11) 0.6308(2) 0.75787(10)
C8 C 0.33095(12) 0.5148(2) 0.66196(10)
H7 H 0.29570 0.36960 0.66570
N1 N 0.17774(10) 0.33067(18) 0.46469(8)
N2 N 0.40126(11) 0.5291(2) 0.86032(9)
H8 H 0.396(2) 0.629(4) 0.9124(18)
H9 H 0.340(2) 0.428(4) 0.8564(16)
O1 O 0.13271(10) 0.20998(17) 0.36671(7)
H10 H 0.063(2) 0.136(4) 0.3722(16)
#END
