
#######################################################################
#
#                 Cambridge Crystallographic Data Centre
#                                CCDC
#
#######################################################################
#
# If this CIF has been generated from an entry in the Cambridge
# Structural Database, then it will include bibliographic, chemical,
# crystal, experimental, refinement or atomic coordinate data resulting
# from the CCDC's data processing and validation procedures.
#
#######################################################################

data_CSD_CIF_ZIWQAZ
_audit_creation_date 2014-01-13
_audit_creation_method CSD-ConQuest-V1
_database_code_CSD ZIWQAZ
_database_code_depnum_ccdc_archive 'CCDC 969870'
_chemical_formula_sum 'C10 H14 N2 O3'
_chemical_formula_moiety
;
C10 H14 N2 O3
;
_journal_coden_Cambridge 1078
_journal_year 2013
_journal_name_full 'CSD Communication(Private Communication) '
loop_
_publ_author_name
"P.Jones"
_chemical_name_systematic
;
2-(N-hydroxyethanimidoyl)-4,5-dimethoxyaniline
;
_cell_volume    514.099
_exptl_crystal_colour 'colorless'
_exptl_crystal_density_diffrn 1.358
_exptl_special_details
;
contribution from Institut fur Anorganische und Analytische Chemie, 
Technische Universitat Braunschweig, Postfach 3329, 38023 Braunschweig, 
Germany
;
_exptl_crystal_description 'prism'
_diffrn_ambient_temperature 133
#These two values have been output from a single CSD field.
_refine_ls_R_factor_gt 0.0427
_refine_ls_wR_factor_gt 0.0427
_symmetry_cell_setting monoclinic
_symmetry_space_group_name_H-M 'P 21'
_symmetry_Int_Tables_number 4
loop_
_symmetry_equiv_pos_site_id
_symmetry_equiv_pos_as_xyz
1 x,y,z
2 -x,1/2+y,-z
_cell_length_a 9.7354(12)
_cell_length_b 5.0703(6)
_cell_length_c 10.4692(13)
_cell_angle_alpha 90
_cell_angle_beta 95.833(4)
_cell_angle_gamma 90
_cell_formula_units_Z 2
loop_
_atom_type_symbol
_atom_type_radius_bond
C 0.68
H 0.23
N 0.68
O 0.68
loop_
_atom_site_label
_atom_site_type_symbol
_atom_site_fract_x
_atom_site_fract_y
_atom_site_fract_z
C1 C 0.36429(19) 0.7690(5) 0.38609(19)
H1 H 0.26880 0.80800 0.40170
H2 H 0.40650 0.92700 0.35300
H3 H 0.41680 0.71460 0.46660
C2 C 0.36542(16) 0.5494(4) 0.28901(15)
C3 C 0.49912(16) 0.4518(4) 0.25202(15)
C4 C 0.62145(16) 0.5697(4) 0.31162(15)
H4 H 0.61390 0.70740 0.37200
C5 C 0.75044(17) 0.4911(4) 0.28479(16)
C6 C 0.76314(17) 0.2899(4) 0.19435(15)
C7 C 0.64628(18) 0.1681(4) 0.13533(15)
H5 H 0.65550 0.02930 0.07590
C8 C 0.51319(17) 0.2483(4) 0.16264(15)
C9 C 0.9154(2) 0.0156(5) 0.08628(18)
H6 H 1.01430 -0.01300 0.08180
H7 H 0.87100 0.05920 0.00060
H8 H 0.87390 -0.14530 0.11730
C10 C 0.86676(19) 0.7891(4) 0.43671(18)
H9 H 0.96060 0.83910 0.47090
H10 H 0.81730 0.71850 0.50620
H11 H 0.81790 0.94450 0.39960
N1 N 0.25330(15) 0.4408(4) 0.23758(14)
N2 N 0.40076(17) 0.1282(4) 0.09489(15)
H12 H 0.321(2) 0.149(6) 0.122(2)
H13 H 0.415(2) -0.010(5) 0.054(2)
O1 O 0.13496(13) 0.5583(4) 0.28135(14)
H14 H 0.074(3) 0.466(7) 0.244(3)
O2 O 0.87319(12) 0.5932(3) 0.33998(13)
O3 O 0.89615(13) 0.2290(3) 0.17276(13)
#END
