
#######################################################################
#
#                 Cambridge Crystallographic Data Centre
#                                CCDC
#
#######################################################################
#
# If this CIF has been generated from an entry in the Cambridge
# Structural Database, then it will include bibliographic, chemical,
# crystal, experimental, refinement or atomic coordinate data resulting
# from the CCDC's data processing and validation procedures.
#
#######################################################################

data_CSD_CIF_ZIWRAA
_audit_creation_date 2014-01-13
_audit_creation_method CSD-ConQuest-V1
_database_code_CSD ZIWRAA
_database_code_depnum_ccdc_archive 'CCDC 969885'
_chemical_formula_sum 'C14 H11 N3 O1'
_chemical_formula_moiety
;
C14 H11 N3 O1
;
_journal_coden_Cambridge 1078
_journal_year 2013
_journal_name_full 'CSD Communication(Private Communication) '
loop_
_publ_author_name
"P.Jones"
_chemical_name_systematic
;
4,4'-(3-methyl-1,2-oxazole-4,5-diyl)dipyridine
;
_cell_volume    584.955
_exptl_crystal_colour 'colorless'
_exptl_crystal_density_diffrn 1.347
_exptl_special_details
;
contribution from Institut fur Anorganische und Analytische Chemie, 
Technische Universitat Braunschweig, Postfach 3329, 38023 Braunschweig, 
Germany
;
_exptl_crystal_description 'tablet'
_diffrn_ambient_temperature 133
#These two values have been output from a single CSD field.
_refine_ls_R_factor_gt 0.0416
_refine_ls_wR_factor_gt 0.0416
_symmetry_cell_setting triclinic
_symmetry_space_group_name_H-M 'P -1'
_symmetry_Int_Tables_number 2
loop_
_symmetry_equiv_pos_site_id
_symmetry_equiv_pos_as_xyz
1 x,y,z
2 -x,-y,-z
_cell_length_a 7.2521(11)
_cell_length_b 8.5693(12)
_cell_length_c 10.3402(16)
_cell_angle_alpha 108.678(4)
_cell_angle_beta 103.365(4)
_cell_angle_gamma 94.034(4)
_cell_formula_units_Z 2
loop_
_atom_type_symbol
_atom_type_radius_bond
C 0.68
H 0.23
N 0.68
O 0.68
loop_
_atom_site_label
_atom_site_type_symbol
_atom_site_fract_x
_atom_site_fract_y
_atom_site_fract_z
C1 C 0.26320(13) 0.68433(12) 0.65342(10)
C2 C 0.28124(15) 0.81997(13) 0.79134(11)
H1 H 0.28990 0.92820 0.77810
H2 H 0.39720 0.81750 0.86120
H3 H 0.16850 0.80320 0.82520
C3 C 0.26506(13) 0.51026(11) 0.62856(9)
C4 C 0.24680(13) 0.44224(12) 0.48688(10)
C5 C 0.29008(13) 0.43052(11) 0.73736(9)
C6 C 0.16034(14) 0.43866(13) 0.81935(10)
H4 H 0.05260 0.49420 0.80520
C7 C 0.19145(15) 0.36420(13) 0.92193(10)
H5 H 0.10040 0.36850 0.97550
C8 C 0.46566(15) 0.28040(12) 0.87131(11)
H6 H 0.57380 0.22650 0.88960
C9 C 0.44548(14) 0.34813(12) 0.76429(10)
H7 H 0.53640 0.33840 0.71030
C10 C 0.22810(13) 0.27278(12) 0.38629(9)
C11 C 0.18638(15) 0.13244(13) 0.42159(10)
H8 H 0.17410 0.14420 0.51360
C12 C 0.16320(17) -0.02464(13) 0.31962(11)
H9 H 0.13690 -0.11920 0.34530
C13 C 0.21627(15) 0.08457(14) 0.15479(10)
H10 H 0.22620 0.06890 0.06160
C14 C 0.24473(14) 0.24667(13) 0.24953(10)
H11 H 0.27510 0.33850 0.22160
N1 N 0.24667(13) 0.71847(11) 0.53685(9)
N2 N 0.34167(13) 0.28671(11) 0.95016(9)
N3 N 0.17574(14) -0.05097(12) 0.18697(10)
O1 O 0.23575(10) 0.56436(9) 0.42882(7)
#END
