
#######################################################################
#
#                 Cambridge Crystallographic Data Centre
#                                CCDC
#
#######################################################################
#
# If this CIF has been generated from an entry in the Cambridge
# Structural Database, then it will include bibliographic, chemical,
# crystal, experimental, refinement or atomic coordinate data resulting
# from the CCDC's data processing and validation procedures.
#
#######################################################################

data_CSD_CIF_ZIWWEH
_audit_creation_date 1996-07-01
_audit_creation_method CSD-ConQuest-V1
_database_code_CSD ZIWWEH
_chemical_formula_sum 'C17 H13 N1 O6'
_chemical_formula_moiety
;
C17 H13 N1 O6
;
_journal_coden_Cambridge 35
_journal_volume 60
_journal_year 1995
_journal_page_first 6499
_journal_name_full 'J.Org.Chem. '
loop_
_publ_author_name
"K.Thakkar"
"M.Cushman"
_chemical_name_systematic
;
(Z)-4,5-Dimethoxy-4'-nitrobenzylidenebenzofuran-3(2H)-one
;
_cell_volume   1477.965
_exptl_crystal_colour 'yellow'
_exptl_crystal_density_diffrn 1.471
_diffrn_ambient_temperature ?
_diffrn_special_details
;
The study was carried out at room temperature,in the range 283-303K

;
#These two values have been output from a single CSD field.
_refine_ls_R_factor_gt 0.083
_refine_ls_wR_factor_gt 0.083
_symmetry_cell_setting monoclinic
_symmetry_space_group_name_H-M 'P 21/n'
_symmetry_Int_Tables_number 14
loop_
_symmetry_equiv_pos_site_id
_symmetry_equiv_pos_as_xyz
1 x,y,z
2 1/2-x,1/2+y,1/2-z
3 -x,-y,-z
4 -1/2+x,-1/2-y,-1/2+z
_cell_length_a 18.076(2)
_cell_length_b 3.9761(5)
_cell_length_c 21.039(3)
_cell_angle_alpha 90
_cell_angle_beta 102.20(1)
_cell_angle_gamma 90
_cell_formula_units_Z 4
loop_
_atom_type_symbol
_atom_type_radius_bond
C 0.68
H 0.23
N 0.68
O 0.68
loop_
_atom_site_label
_atom_site_type_symbol
_atom_site_fract_x
_atom_site_fract_y
_atom_site_fract_z
O1 O 0.1501(3) 0.042(2) 0.1535(3)
O2 O 0.1123(4) -0.365(2) 0.0016(3)
O3 O 0.2824(5) -0.272(2) -0.0055(3)
O4 O 0.4132(4) -0.003(3) 0.0630(5)
O5 O -0.1131(4) 0.229(3) 0.3450(3)
O6 O -0.2027(4) -0.084(3) 0.2915(4)
N1 N -0.1407(5) 0.053(3) 0.2983(4)
C1 C 0.0999(5) -0.117(3) 0.1028(4)
C2 C 0.1402(5) -0.215(3) 0.0512(4)
C3 C 0.2182(5) -0.102(3) 0.0754(4)
C4 C 0.2831(5) -0.115(3) 0.0508(5)
C5 C 0.3493(6) 0.026(3) 0.0883(5)
C6 C 0.3482(6) 0.162(3) 0.1489(5)
C7 C 0.2849(6) 0.182(3) 0.1742(5)
C8 C 0.2202(5) 0.043(3) 0.1361(4)
C9 C -0.0145(5) -0.096(3) 0.1530(4)
C10 C 0.0281(5) -0.169(3) 0.1039(4)
C11 C -0.0899(5) -0.213(3) 0.1439(4)
C12 C -0.1302(5) -0.170(3) 0.1916(5)
C13 C -0.0976(5) 0.003(3) 0.2470(4)
C14 C -0.0248(5) 0.132(3) 0.2575(5)
C15 C 0.2858(9) -0.123(5) -0.0589(7)
C16 C 0.0157(5) 0.081(3) 0.2098(4)
C17 C 0.4651(7) 0.216(4) 0.0720(6)
H1 H 0.39800 0.24100 0.17300
H2 H 0.28400 0.27400 0.21700
H3 H -0.00200 -0.27100 0.06300
H4 H -0.11200 -0.32900 0.10400
H5 H -0.18200 -0.25400 0.18600
H6 H -0.00300 0.24700 0.29800
H7 H 0.33500 -0.14500 -0.07100
H8 H 0.28000 0.12800 -0.05500
H9 H 0.24900 -0.18500 -0.09600
H10 H 0.06800 0.17000 0.21600
H11 H 0.47700 0.31600 0.11700
H12 H 0.45600 0.41700 0.04400
H13 H 0.51600 0.13700 0.06800
#END
