
#######################################################################
#
#                 Cambridge Crystallographic Data Centre
#                                CCDC
#
#######################################################################
#
# If this CIF has been generated from an entry in the Cambridge
# Structural Database, then it will include bibliographic, chemical,
# crystal, experimental, refinement or atomic coordinate data resulting
# from the CCDC's data processing and validation procedures.
#
#######################################################################

data_CSD_CIF_ZIWXOS
_audit_creation_date 1996-07-01
_audit_creation_method CSD-ConQuest-V1
_database_code_CSD ZIWXOS
_database_code_depnum_ccdc_archive 'CCDC 711379'
_chemical_formula_sum 'C21 H24 N2 O2'
_chemical_formula_moiety
;
C21 H24 N2 O2
;
_journal_coden_Cambridge 35
_journal_volume 60
_journal_year 1995
_journal_page_first 7411
_journal_name_full 'J.Org.Chem. '
loop_
_publ_author_name
"M.Gdaniec"
"M.J.Milewska"
"T.Polonski"
_chemical_name_systematic
;
N-Nitroso-3,3,5,5-tetramethyl-cis-diphenylpiperidin-4-one
;
_chemical_melting_point 440.15
_cell_volume   1853.172
_exptl_crystal_colour 'colorless'
_exptl_crystal_density_diffrn 1.206
_exptl_special_details
;
Melting point range 440.15-441.15K

;
_diffrn_ambient_temperature ?
_diffrn_special_details
;
The study was carried out at room temperature,in the range 283-303K

;
_refine_special_details
;
The NNO group is disordered over two positions.

;
#These two values have been output from a single CSD field.
_refine_ls_R_factor_gt 0.072
_refine_ls_wR_factor_gt 0.072
_symmetry_cell_setting monoclinic
_symmetry_space_group_name_H-M 'P 21/c'
_symmetry_Int_Tables_number 14
loop_
_symmetry_equiv_pos_site_id
_symmetry_equiv_pos_as_xyz
1 x,y,z
2 -x,1/2+y,1/2-z
3 -x,-y,-z
4 x,-1/2-y,-1/2+z
_cell_length_a 13.212(3)
_cell_length_b 8.103(2)
_cell_length_c 17.357(2)
_cell_angle_alpha 90
_cell_angle_beta 94.21(1)
_cell_angle_gamma 90
_cell_formula_units_Z 4
loop_
_atom_type_symbol
_atom_type_radius_bond
C 0.68
H 0.23
N 0.68
O 0.68
loop_
_atom_site_label
_atom_site_type_symbol
_atom_site_fract_x
_atom_site_fract_y
_atom_site_fract_z
O1 O 0.1070(1) -0.0156(2) 1.0670(1)
N1 N 0.3322(1) 0.1607(2) 0.9405(1)
O2 O 0.4909(2) 0.1441(4) 0.9250(2)
O3? O 0.4438(3) 0.3448(8) 0.9336(4)
N2 N 0.4207(3) 0.2367(7) 0.9345(8)
N3? N 0.4287(7) 0.1959(10) 0.9308(19)
C1 C 0.3261(2) -0.0205(2) 0.9451(1)
C2 C 0.2230(2) -0.0835(2) 0.9731(1)
C3 C 0.1765(2) 0.0330(3) 1.0309(1)
C4 C 0.2197(2) 0.2051(3) 1.0441(1)
C5 C 0.2556(2) 0.2743(2) 0.9675(1)
C6 C 0.1767(2) 0.3200(2) 0.9026(1)
C7 C 0.2115(2) 0.4140(3) 0.8423(2)
C8 C 0.1458(3) 0.4635(4) 0.7814(2)
C9 C 0.0448(3) 0.4212(4) 0.7786(2)
C10 C 0.0090(3) 0.3273(4) 0.8378(2)
C11 C 0.0744(2) 0.2783(3) 0.8991(2)
C12 C 0.3124(2) 0.1841(4) 1.1025(1)
C13 C 0.1444(2) 0.3211(3) 1.0797(2)
C14 C 0.2443(3) -0.2481(3) 1.0154(2)
C15 C 0.1431(2) -0.1148(3) 0.9064(2)
C16 C 0.3529(2) -0.1002(3) 0.8703(1)
C17 C 0.3209(3) -0.0354(4) 0.7984(2)
C18 C 0.3447(3) -0.1151(5) 0.7315(2)
C19 C 0.4000(3) -0.2583(5) 0.7352(2)
C20 C 0.4335(2) -0.3221(5) 0.8054(2)
C21 C 0.4098(2) -0.2435(4) 0.8733(2)
H1 H 0.2887(22) 0.3728(40) 0.9804(16)
H2 H 0.3710(18) -0.0505(29) 0.9819(14)
H3 H 0.2926(27) 0.4346(40) 0.8468(18)
H4 H 0.1661(28) 0.5182(52) 0.7396(22)
H5 H -0.0064(38) 0.4622(59) 0.7357(26)
H6 H -0.0645(38) 0.2968(59) 0.8325(27)
H7 H 0.0530(22) 0.2048(41) 0.9412(18)
H8 H 0.36060 0.09830 1.08620
H9 H 0.34610 0.28710 1.10910
H10 H 0.29510 0.15430 1.15350
H11 H 0.08880 0.34950 1.04230
H12 H 0.13230 0.28450 1.13070
H13 H 0.16490 0.42020 1.08680
H14 H 0.28710 -0.21990 1.06390
H15 H 0.17840 -0.29420 1.03000
H16 H 0.26720 -0.33390 0.97990
H17 H 0.07810 -0.14270 0.92660
H18 H 0.13430 -0.00900 0.87190
H19 H 0.16430 -0.21100 0.87320
H20 H 0.2728(35) 0.0816(62) 0.7982(26)
H21 H 0.3218(34) -0.0882(58) 0.6736(26)
H22 H 0.4094(36) -0.2942(64) 0.6865(29)
H23 H 0.4739(36) -0.4242(59) 0.8142(25)
H24 H 0.4321(20) -0.2807(34) 0.9194(16)
#END
