
#######################################################################
#
#                 Cambridge Crystallographic Data Centre
#                                CCDC
#
#######################################################################
#
# If this CIF has been generated from an entry in the Cambridge
# Structural Database, then it will include bibliographic, chemical,
# crystal, experimental, refinement or atomic coordinate data resulting
# from the CCDC's data processing and validation procedures.
#
#######################################################################

data_CSD_CIF_ZIXZIR
_audit_creation_date 2014-01-13
_audit_creation_method CSD-ConQuest-V1
_database_code_CSD ZIXZIR
_database_code_depnum_ccdc_archive 'CCDC 957148'
_chemical_formula_sum 'C16 H19 N3 O6'
_chemical_formula_moiety
;
C16 H19 N3 O6
;
_journal_coden_Cambridge 1078
_journal_year 2013
_journal_name_full 'CSD Communication(Private Communication) '
loop_
_publ_author_name
"S.Yousuf"
_chemical_name_systematic
;
1-(2-Methyl-5-nitro-1H-imidazol-1-yl)propan-2-yl 3,4-dimethoxybenzoate
;
_cell_volume   1700.806
_exptl_crystal_colour 'colorless'
_exptl_crystal_density_diffrn 1.364
_exptl_special_details
;
H.E.J. Research Institute of Chemistry, International Center for Chemical and 
Biological Sciences, University of Karachi, Karachi-75270, Pakistan
;
_exptl_crystal_description 'Block'
_diffrn_ambient_temperature 273
#These two values have been output from a single CSD field.
_refine_ls_R_factor_gt 0.0529
_refine_ls_wR_factor_gt 0.0529
_symmetry_cell_setting monoclinic
_symmetry_space_group_name_H-M 'P 21/c'
_symmetry_Int_Tables_number 14
loop_
_symmetry_equiv_pos_site_id
_symmetry_equiv_pos_as_xyz
1 x,y,z
2 -x,1/2+y,1/2-z
3 -x,-y,-z
4 x,-1/2-y,-1/2+z
_cell_length_a 8.1613(12)
_cell_length_b 9.4787(14)
_cell_length_c 22.072(3)
_cell_angle_alpha 90
_cell_angle_beta 95.059(4)
_cell_angle_gamma 90
_cell_formula_units_Z 4
loop_
_atom_type_symbol
_atom_type_radius_bond
C 0.68
H 0.23
N 0.68
O 0.68
loop_
_atom_site_label
_atom_site_type_symbol
_atom_site_fract_x
_atom_site_fract_y
_atom_site_fract_z
O1 O 0.0904(3) 1.0089(3) 0.08405(10)
O2 O 0.0335(3) 0.8214(3) 0.13326(11)
O3 O 0.2895(2) 0.84481(18) 0.31331(8)
O4 O 0.0989(3) 0.9974(2) 0.33924(10)
O5 O 0.7282(2) 1.2290(2) 0.49547(9)
O6 O 0.4427(2) 1.3390(2) 0.47872(9)
N1 N 0.3539(3) 0.8170(2) 0.19022(10)
N2 N 0.1280(3) 0.9138(3) 0.12018(11)
N3 N 0.5545(3) 0.9636(3) 0.16942(12)
C1 C 0.5139(4) 0.8528(3) 0.20179(13)
C2 C 0.4154(4) 1.0003(3) 0.13556(14)
H1 H 0.40600 1.07460 0.10800
C3 C 0.2915(3) 0.9129(3) 0.14772(12)
C4 C 0.6341(4) 0.7760(4) 0.24425(14)
H2 H 0.57940 0.70040 0.26320
H3 H 0.68050 0.83980 0.27490
H4 H 0.72030 0.73830 0.22210
C5 C 0.2660(3) 0.7108(3) 0.22274(12)
H5 H 0.34450 0.64390 0.24170
H6 H 0.19170 0.65950 0.19390
C6 C 0.1689(3) 0.7753(3) 0.27091(11)
H7 H 0.09190 0.84540 0.25220
C7 C 0.2386(4) 0.9557(3) 0.34461(12)
C8 C 0.3727(3) 1.0197(3) 0.38482(11)
C9 C 0.5260(4) 0.9596(3) 0.39511(12)
H8 H 0.54770 0.87350 0.37720
C10 C 0.6482(3) 1.0265(3) 0.43199(13)
H9 H 0.75190 0.98550 0.43840
C11 C 0.6175(3) 1.1527(3) 0.45916(12)
C12 C 0.4612(3) 1.2144(3) 0.44976(12)
C13 C 0.3406(3) 1.1478(3) 0.41260(11)
H10 H 0.23690 1.18850 0.40600
C14 C 0.8882(4) 1.1728(3) 0.50847(15)
H11 H 0.95320 1.23680 0.53430
H12 H 0.93880 1.15970 0.47120
H13 H 0.88110 1.08360 0.52870
C15 C 0.2891(3) 1.4104(3) 0.46694(14)
H14 H 0.29150 1.49690 0.48960
H15 H 0.20200 1.35150 0.47910
H16 H 0.27060 1.43070 0.42430
C16 C 0.0758(4) 0.6659(3) 0.30328(14)
H17 H 0.01470 0.71100 0.33300
H18 H 0.15190 0.59980 0.32310
H19 H 0.00150 0.61700 0.27440
#END
