
#######################################################################
#
#                 Cambridge Crystallographic Data Centre
#                                CCDC
#
#######################################################################
#
# If this CIF has been generated from an entry in the Cambridge
# Structural Database, then it will include bibliographic, chemical,
# crystal, experimental, refinement or atomic coordinate data resulting
# from the CCDC's data processing and validation procedures.
#
#######################################################################

data_CSD_CIF_ZIYBAM
_audit_creation_date 2014-01-13
_audit_creation_method CSD-ConQuest-V1
_database_code_CSD ZIYBAM
_database_code_depnum_ccdc_archive 'CCDC 957151'
_chemical_formula_sum 'C15 H17 N3 O4'
_chemical_formula_moiety
;
C15 H17 N3 O4
;
_journal_coden_Cambridge 1078
_journal_year 2013
_journal_name_full 'CSD Communication(Private Communication) '
loop_
_publ_author_name
"S.Yousuf"
_chemical_name_systematic
;
1-(2-Methyl-5-nitro-1H-imidazol-1-yl)propan-2-yl 4-methylbenzoate
;
_cell_volume    768.153
_exptl_crystal_colour 'colorless'
_exptl_crystal_density_diffrn 1.311
_exptl_special_details
;
H.E.J. Research Institute of Chemistry, International Center for Chemical and 
Biological Sciences, University of Karachi, Karachi-75270, Pakistan
;
_exptl_crystal_description 'Plate'
_diffrn_ambient_temperature 273
#These two values have been output from a single CSD field.
_refine_ls_R_factor_gt 0.0503
_refine_ls_wR_factor_gt 0.0503
_symmetry_cell_setting monoclinic
_symmetry_space_group_name_H-M 'P 21'
_symmetry_Int_Tables_number 4
loop_
_symmetry_equiv_pos_site_id
_symmetry_equiv_pos_as_xyz
1 x,y,z
2 -x,1/2+y,-z
_cell_length_a 6.4619(17)
_cell_length_b 8.983(2)
_cell_length_c 13.447(4)
_cell_angle_alpha 90
_cell_angle_beta 100.230(6)
_cell_angle_gamma 90
_cell_formula_units_Z 2
loop_
_atom_type_symbol
_atom_type_radius_bond
C 0.68
H 0.23
N 0.68
O 0.68
loop_
_atom_site_label
_atom_site_type_symbol
_atom_site_fract_x
_atom_site_fract_y
_atom_site_fract_z
O1 O 0.2795(6) 0.2279(4) 0.2510(3)
O2 O 0.2453(7) 0.4709(5) 0.2810(3)
O3 O 0.5376(6) 0.2168(5) 0.5654(3)
O4 O 0.3474(7) 0.1760(5) 0.6787(3)
N1 N 0.2662(6) 0.0380(4) 0.4272(3)
N2 N -0.0431(7) -0.0497(5) 0.4521(4)
N3 N 0.3828(8) 0.1608(5) 0.5923(4)
C1 C 0.0901(8) -0.0401(6) 0.3878(4)
C2 C 0.0489(9) 0.0258(7) 0.5355(5)
H1 H -0.01040 0.03980 0.59300
C3 C 0.2391(8) 0.0778(6) 0.5234(4)
C4 C 0.4484(7) 0.0635(6) 0.3781(4)
H2 H 0.44490 -0.00760 0.32360
H3 H 0.57590 0.04590 0.42680
C5 C 0.4555(8) 0.2199(7) 0.3360(4)
H4 H 0.43720 0.29350 0.38750
C6 C 0.1909(9) 0.3620(7) 0.2307(5)
C7 C 0.0159(9) 0.3600(6) 0.1424(4)
C8 C -0.1199(10) 0.4816(7) 0.1322(5)
H5 H -0.09720 0.56040 0.17770
C9 C -0.2903(10) 0.4833(7) 0.0526(5)
H6 H -0.38330 0.56310 0.04590
C10 C -0.3229(10) 0.3697(8) -0.0158(5)
C11 C -0.1874(10) 0.2542(8) -0.0065(5)
H7 H -0.20720 0.17820 -0.05420
C12 C -0.0178(10) 0.2470(7) 0.0738(5)
H8 H 0.07200 0.16530 0.08040
C13 C -0.5098(12) 0.3757(9) -0.1019(5)
H9 H -0.58930 0.46470 -0.09620
H10 H -0.59760 0.29030 -0.09860
H11 H -0.46070 0.37600 -0.16520
C14 C 0.6576(8) 0.2469(8) 0.2996(5)
H12 H 0.65930 0.34670 0.27430
H13 H 0.67040 0.17770 0.24670
H14 H 0.77310 0.23360 0.35460
C15 C 0.0583(9) -0.1085(7) 0.2863(5)
H15 H -0.07410 -0.15980 0.27400
H16 H 0.16980 -0.17780 0.28280
H17 H 0.05860 -0.03220 0.23630
#END
