
#######################################################################
#
#                 Cambridge Crystallographic Data Centre
#                                CCDC
#
#######################################################################
#
# If this CIF has been generated from an entry in the Cambridge
# Structural Database, then it will include bibliographic, chemical,
# crystal, experimental, refinement or atomic coordinate data resulting
# from the CCDC's data processing and validation procedures.
#
#######################################################################

data_CSD_CIF_ZIYTIK
_audit_creation_date 1996-07-31
_audit_creation_method CSD-ConQuest-V1
_database_code_CSD ZIYTIK
_database_code_depnum_ccdc_archive 'CCDC 1313612'
_chemical_formula_sum 'C16 H17 N1 O2'
_chemical_formula_moiety
;
C16 H17 N1 O2
;
_journal_coden_Cambridge 440
_journal_volume 19
_journal_year 1995
_journal_page_first 1099
_journal_name_full 'New J.Chem. '
loop_
_publ_author_name
"R.Glaser"
"I.Adin"
"M.Drouin"
"J.B.Bremner"
_chemical_name_systematic
;
(+-)-4-Methyl-6-phenyl-3,4-dihydro-2H,6H-1,5,4-benzodioxazocine
;
_chemical_melting_point 376.15
_cell_volume   1350.702
_exptl_crystal_colour 'colorless'
_exptl_crystal_density_diffrn 1.255
_exptl_special_details
;
Melting point range 376.15-377.15K

;
_diffrn_ambient_temperature ?
_diffrn_special_details
;
The study was carried out at room temperature,in the range 283-303K

;
#These two values have been output from a single CSD field.
_refine_ls_R_factor_gt 0.045
_refine_ls_wR_factor_gt 0.045
_symmetry_cell_setting monoclinic
_symmetry_space_group_name_H-M 'P 21/n'
_symmetry_Int_Tables_number 14
loop_
_symmetry_equiv_pos_site_id
_symmetry_equiv_pos_as_xyz
1 x,y,z
2 1/2-x,1/2+y,1/2-z
3 -x,-y,-z
4 -1/2+x,-1/2-y,-1/2+z
_cell_length_a 13.309(1)
_cell_length_b 6.1615(6)
_cell_length_c 16.753(1)
_cell_angle_alpha 90
_cell_angle_beta 100.522(5)
_cell_angle_gamma 90
_cell_formula_units_Z 4
loop_
_atom_type_symbol
_atom_type_radius_bond
C 0.68
H 0.23
N 0.68
O 0.68
loop_
_atom_site_label
_atom_site_type_symbol
_atom_site_fract_x
_atom_site_fract_y
_atom_site_fract_z
C1 C 0.9863(2) 0.1753(4) 0.6653(1)
O1 O 1.0120(1) 0.2922(3) 0.59846(8)
N1 N 1.1216(1) 0.2792(4) 0.5998(1)
C2 C 1.1523(2) 0.5057(5) 0.5928(1)
C3 C 1.1657(2) 0.6233(5) 0.6725(2)
O2 O 1.0733(1) 0.6239(3) 0.70625(9)
C4 C 1.1101(2) 0.5314(5) 0.8455(2)
C5 C 1.1068(2) 0.3901(6) 0.9084(1)
C6 C 1.0677(2) 0.1845(5) 0.8935(2)
C7 C 1.0317(2) 0.1221(4) 0.8135(1)
C8 C 1.0328(2) 0.2616(4) 0.7487(1)
C9 C 1.0721(2) 0.4689(4) 0.7659(1)
C10 C 1.1288(2) 0.1577(5) 0.5255(2)
C11 C 0.8704(2) 0.1806(4) 0.6529(1)
C12 C 0.8173(2) 0.3681(4) 0.6277(1)
C13 C 0.7119(2) 0.3725(6) 0.6173(2)
C14 C 0.6592(2) 0.1916(7) 0.6327(2)
C15 C 0.7107(3) 0.0054(6) 0.6592(2)
C16 C 0.8169(2) -0.0021(5) 0.6684(1)
H1 H 1.008(2) 0.014(3) 0.658(1)
H2 H 1.221(2) 0.507(4) 0.574(1)
H3 H 1.103(2) 0.582(4) 0.547(1)
H4 H 1.180(2) 0.790(4) 0.664(1)
H5 H 1.219(2) 0.547(3) 0.711(1)
H6 H 1.142(2) 0.683(3) 0.854(1)
H7 H 1.131(2) 0.439(4) 0.965(1)
H8 H 1.063(2) 0.083(4) 0.939(1)
H9 H 1.004(2) -0.040(4) 0.801(1)
H10 H 1.085(2) 0.229(3) 0.474(1)
H11 H 1.107(2) -0.003(5) 0.536(1)
H12 H 1.201(2) 0.166(4) 0.518(1)
H13 H 0.856(2) 0.503(4) 0.619(1)
H14 H 0.676(2) 0.509(4) 0.600(1)
H15 H 0.584(2) 0.201(4) 0.629(1)
H16 H 0.679(2) -0.123(4) 0.669(2)
H17 H 0.856(2) -0.137(3) 0.686(1)
#END
