
#######################################################################
#
#                 Cambridge Crystallographic Data Centre
#                                CCDC
#
#######################################################################
#
# If this CIF has been generated from an entry in the Cambridge
# Structural Database, then it will include bibliographic, chemical,
# crystal, experimental, refinement or atomic coordinate data resulting
# from the CCDC's data processing and validation procedures.
#
#######################################################################

data_CSD_CIF_ZIZCES
_audit_creation_date 2014-01-15
_audit_creation_method CSD-ConQuest-V1
_database_code_CSD ZIZCES
_database_code_depnum_ccdc_archive 'CCDC 635910'
_chemical_formula_sum 'C14 H11 N3 O3'
_chemical_formula_moiety
;
C14 H11 N3 O3
;
_journal_coden_Cambridge 34
_journal_volume 50
_journal_year 2013
_journal_page_first 1272
_journal_name_full 'J.Heterocycl.Chem. '
loop_
_publ_author_name
"S.Balalaie"
"M.M.Hashemi"
"S.Hadi Khezri"
"F.Rominger"
"E.Ghabraie"
"T.Oeser"
_chemical_name_systematic
;
5,6-Dimethyl-4-(3-nitrophenyl)-2-oxo-1,2-dihydropyridine-3-carbonitrile
;
_cell_volume   1278.545
_exptl_crystal_colour 'yellow'
_exptl_crystal_density_diffrn 1.399
_exptl_crystal_description 'polyhedron'
_diffrn_ambient_temperature 296
#These two values have been output from a single CSD field.
_refine_ls_R_factor_gt 0.0514
_refine_ls_wR_factor_gt 0.0514
_symmetry_cell_setting monoclinic
_symmetry_space_group_name_H-M 'P 21/c'
_symmetry_Int_Tables_number 14
loop_
_symmetry_equiv_pos_site_id
_symmetry_equiv_pos_as_xyz
1 x,y,z
2 -x,1/2+y,1/2-z
3 -x,-y,-z
4 x,-1/2-y,-1/2+z
_cell_length_a 5.7992(5)
_cell_length_b 17.2087(14)
_cell_length_c 12.8130(11)
_cell_angle_alpha 90
_cell_angle_beta 90.877(2)
_cell_angle_gamma 90
_cell_formula_units_Z 4
loop_
_atom_type_symbol
_atom_type_radius_bond
C 0.68
H 0.23
N 0.68
O 0.68
loop_
_atom_site_label
_atom_site_type_symbol
_atom_site_fract_x
_atom_site_fract_y
_atom_site_fract_z
C1 C 0.7213(2) 0.60928(8) 0.27402(11)
C2 C 0.6959(3) 0.59394(9) 0.37987(12)
H1 H 0.59180 0.55660 0.40230
C3 C 0.8285(3) 0.63540(9) 0.45083(11)
N1 N 0.8024(3) 0.61856(10) 0.56230(11)
O1 O 0.7029(4) 0.55945(12) 0.58682(12)
O2 O 0.8830(2) 0.66387(9) 0.62522(10)
C4 C 0.9854(3) 0.69077(10) 0.42158(13)
H2 H 1.07290 0.71770 0.47110
C5 C 1.0089(3) 0.70513(10) 0.31649(13)
H3 H 1.11440 0.74220 0.29450
C6 C 0.8771(3) 0.66502(9) 0.24301(12)
H4 H 0.89380 0.67580 0.17240
C7 C 0.5725(2) 0.56500(8) 0.19891(10)
C8 C 0.4167(2) 0.60470(8) 0.13476(11)
C9 C 0.2474(2) 0.56410(8) 0.07297(11)
N2 N 0.2589(2) 0.48487(7) 0.08057(9)
H5 H 0.145(4) 0.4579(12) 0.0476(16)
C10 C 0.4173(2) 0.44447(8) 0.13737(11)
C11 C 0.5810(3) 0.48304(8) 0.19692(11)
C12 C 0.4109(2) 0.68761(9) 0.12831(12)
N3 N 0.4051(3) 0.75336(8) 0.11915(13)
O3 O 0.09660(19) 0.59606(6) 0.01724(9)
C13 C 0.3985(3) 0.35808(9) 0.13186(13)
H6 H 0.27230 0.34410 0.08620
H7 H 0.37180 0.33770 0.20040
H8 H 0.53910 0.33690 0.10540
C14 C 0.7630(3) 0.4373(1) 0.25480(14)
H9 H 0.69620 0.41300 0.31460
H10 H 0.88470 0.47150 0.27710
H11 H 0.82420 0.39810 0.20960
#END
