
#######################################################################
#
#                 Cambridge Crystallographic Data Centre
#                                CCDC
#
#######################################################################
#
# If this CIF has been generated from an entry in the Cambridge
# Structural Database, then it will include bibliographic, chemical,
# crystal, experimental, refinement or atomic coordinate data resulting
# from the CCDC's data processing and validation procedures.
#
#######################################################################

data_CSD_CIF_ZOBCEY
_audit_creation_date 1996-08-14
_audit_creation_method CSD-ConQuest-V1
_database_code_CSD ZOBCEY
_chemical_formula_sum 'C9 H10 N10 O12'
_chemical_formula_moiety
;
C9 H10 N10 O12
;
_journal_coden_Cambridge 122
_journal_year 1995
_journal_page_first 679
_journal_name_full 'Khim.Get.Soedin.,SSSR(Russ.)(Chem.Heterocycl.Compd.) '
loop_
_publ_author_name
"A.V.Shastin"
"T.I.Godovikova"
"S.P.Golova"
"M.V.Povorin"
"D.E.Dmitriev"
"M.O.Dekaprilevich"
"Yu.A.Strelenko"
"Yu.T.Struchkov"
"L.I.Khmel'nitsky"
"B.L.Korsunsky"
_chemical_name_systematic
;
2-(t-Butylamino)-4,6-bis(trinitromethyl)-1,3,5-triazine
;
_chemical_melting_point 419.15
_cell_volume   1829.820
_diffrn_ambient_temperature 178
#These two values have been output from a single CSD field.
_refine_ls_R_factor_gt 0.085
_refine_ls_wR_factor_gt 0.085
_symmetry_cell_setting monoclinic
_symmetry_space_group_name_H-M 'P 21/c'
_symmetry_Int_Tables_number 14
loop_
_symmetry_equiv_pos_site_id
_symmetry_equiv_pos_as_xyz
1 x,y,z
2 -x,1/2+y,1/2-z
3 -x,-y,-z
4 x,-1/2-y,-1/2+z
_cell_length_a 14.086(7)
_cell_length_b 7.331(3)
_cell_length_c 18.892(9)
_cell_angle_alpha 90
_cell_angle_beta 110.29(4)
_cell_angle_gamma 90
_cell_formula_units_Z 4
loop_
_atom_type_symbol
_atom_type_radius_bond
C 0.68
H 0.23
N 0.68
O 0.68
loop_
_atom_site_label
_atom_site_type_symbol
_atom_site_fract_x
_atom_site_fract_y
_atom_site_fract_z
O1 O 0.5440(3) 0.4807(5) 0.3611(2)
O2 O 0.6299(41) 0.6779(8) 0.4414(3)
O3 O 0.5694(4) 0.8981(7) 0.3194(3)
O4 O 0.4647(4) 1.0653(5) 0.3493(3)
O5 O 0.3474(4) 0.8588(8) 0.4196(3)
O6 O 0.4722(5) 0.7037(9) 0.4935(3)
O7 O 0.2635(4) 0.1562(5) 0.1984(3)
O8 O 0.1865(3) 0.0014(4) 0.2607(2)
O9 O 0.2684(3) 0.2330(5) 0.3893(2)
O10 O 0.1108(4) 0.3064(6) 0.3627(2)
O11 O 0.0377(3) 0.4961(6) 0.2310(3)
O12 O 0.0357(3) 0.2485(6) 0.1667(2)
N1 N 0.2173(3) 0.5495(4) 0.1901(2)
N2 N 0.2549(3) 0.7705(4) 0.1143(2)
N3 N 0.3571(3) 0.7561(4) 0.2380(2)
N4 N 0.5489(4) 0.6158(5) 0.3952(2)
N5 N 0.3230(3) 0.5361(4) 0.3200(2)
N6 N 0.5053(3) 0.9223(5) 0.3460(2)
N7 N 0.4261(4) 0.7942(8) 0.4347(2)
N8 N 0.2149(3) 0.1412(5) 0.2398(2)
N9 N 0.1877(4) 0.2823(5) 0.3473(2)
N10 N 0.0745(3) 0.3561(6) 0.2170(3)
C1 C 0.1677(3) 0.7328(5) 0.0435(2)
C2 C 0.2755(3) 0.6897(4) 0.1807(2)
C3 C 0.4610(3) 0.7495(5) 0.3686(2)
C4 C 0.3733(3) 0.6761(5) 0.3029(2)
C5 C 0.1819(3) 0.3208(5) 0.2667(2)
C6 C 0.2472(3) 0.4836(4) 0.2599(2)
C7 C 0.1804(5) 0.8760(8) -0.0127(3)
C8 C 0.1752(5) 0.5404(6) 0.0153(3)
C9 C 0.0684(4) 0.7652(7) 0.0570(3)
H1 H 0.297(4) 0.857(8) 0.115(3)
#END
