
#######################################################################
#
#                 Cambridge Crystallographic Data Centre
#                                CCDC
#
#######################################################################
#
# If this CIF has been generated from an entry in the Cambridge
# Structural Database, then it will include bibliographic, chemical,
# crystal, experimental, refinement or atomic coordinate data resulting
# from the CCDC's data processing and validation procedures.
#
#######################################################################

data_CSD_CIF_ZOFYAW
_audit_creation_date 2014-06-13
_audit_creation_method CSD-ConQuest-V1
_database_code_CSD ZOFYAW
_database_code_depnum_ccdc_archive 'CCDC 973122'
_chemical_formula_sum 'C15 H18 N2 O3'
_chemical_formula_moiety
;
C15 H18 N2 O3
;
_journal_coden_Cambridge 177
_journal_volume 12
_journal_year 2014
_journal_page_first 5267
_journal_name_full 'Org.Biomol.Chem. '
loop_
_publ_author_name
"A.K.Weber"
"J.Schachtner"
"R.Fichtler"
"T.M.Leermann"
"J.M.Neudorfl"
"Axel Jacobi von Wangelin"
_chemical_name_systematic
;
trans-N-(3-Methyl-6-nitro-5-phenylcyclohex-2-en-1-yl)acetamide
;
_cell_volume   2745.644
_exptl_crystal_colour 'colorless'
_exptl_crystal_density_diffrn 1.327
_exptl_crystal_description 'prism'
_diffrn_ambient_temperature 100
#These two values have been output from a single CSD field.
_refine_ls_R_factor_gt 0.054
_refine_ls_wR_factor_gt 0.054
loop_
_citation_database_id_CSD
_citation_special_details
ZOFXUP "is a stereoisomer of this entry"
_symmetry_cell_setting monoclinic
_symmetry_space_group_name_H-M 'C 2/c'
_symmetry_Int_Tables_number 15
loop_
_symmetry_equiv_pos_site_id
_symmetry_equiv_pos_as_xyz
1 x,y,z
2 -x,y,1/2-z
3 1/2+x,1/2+y,z
4 1/2-x,1/2+y,1/2-z
5 -x,-y,-z
6 x,-y,-1/2+z
7 -1/2-x,-1/2-y,-z
8 -1/2+x,-1/2-y,-1/2+z
_cell_length_a 19.0719(12)
_cell_length_b 5.2738(3)
_cell_length_c 27.2994(14)
_cell_angle_alpha 90
_cell_angle_beta 90.632(4)
_cell_angle_gamma 90
_cell_formula_units_Z 8
loop_
_atom_type_symbol
_atom_type_radius_bond
C 0.68
H 0.23
N 0.68
O 0.68
loop_
_atom_site_label
_atom_site_type_symbol
_atom_site_fract_x
_atom_site_fract_y
_atom_site_fract_z
O1 O 0.16795(9) 1.2672(3) 0.13160(5)
O2 O 0.23949(8) 0.9603(3) 0.11791(6)
O3 O 0.13969(8) 1.2996(3) 0.01176(5)
N1 N 0.18035(9) 1.0443(3) 0.12277(6)
N2 N 0.12442(9) 0.8825(4) 0.02754(6)
C1 C 0.12052(11) 0.8611(4) 0.11767(7)
H1 H 0.13980 0.68510 0.11550
C2 C 0.08011(11) 0.9222(4) 0.06974(7)
H2 H 0.06520 1.10390 0.07050
C3 C 0.15088(11) 1.0768(4) 0.00080(7)
C4 C 0.19345(11) 1.0031(5) -0.04269(7)
H3 H 0.17100 1.06840 -0.07260
H4 H 0.19650 0.81780 -0.04460
H5 H 0.24070 1.07460 -0.03940
C5 C 0.01599(11) 0.7580(4) 0.06701(7)
H6 H -0.00630 0.73920 0.03590
C6 C -0.01224(11) 0.6364(4) 0.10478(7)
C7 C 0.01776(11) 0.6638(4) 0.15594(7)
H7 H 0.04000 0.50160 0.16570
H8 H -0.02110 0.69700 0.17880
C8 C 0.07195(11) 0.8766(4) 0.16097(7)
H9 H 0.04580 1.04010 0.15780
C9 C 0.10858(11) 0.8812(4) 0.21058(7)
C10 C 0.09463(12) 1.0765(4) 0.24305(8)
H10 H 0.06240 1.20590 0.23380
C11 C 0.12696(13) 1.0859(5) 0.28872(8)
H11 H 0.11660 1.22100 0.31050
C12 C 0.17390(12) 0.9010(4) 0.30269(7)
H12 H 0.19590 0.90780 0.33400
C13 C 0.18876(12) 0.7058(5) 0.27094(8)
H13 H 0.22120 0.57760 0.28040
C14 C 0.15663(12) 0.6956(4) 0.22512(8)
H14 H 0.16750 0.56070 0.20340
C15 C -0.07414(11) 0.4639(5) 0.09893(7)
H15 H -0.09050 0.46720 0.06480
H16 H -0.11190 0.52100 0.12030
H17 H -0.06050 0.29060 0.10780
H18 H 0.1326(11) 0.733(5) 0.0189(7)
#END
