
#######################################################################
#
#                 Cambridge Crystallographic Data Centre
#                                CCDC
#
#######################################################################
#
# If this CIF has been generated from an entry in the Cambridge
# Structural Database, then it will include bibliographic, chemical,
# crystal, experimental, refinement or atomic coordinate data resulting
# from the CCDC's data processing and validation procedures.
#
#######################################################################

data_CSD_CIF_ZOGQAN05
_audit_creation_date 2004-07-21
_audit_creation_method CSD-ConQuest-V1
_database_code_CSD ZOGQAN05
_database_code_depnum_ccdc_archive 'CCDC 241472'
_chemical_formula_sum 'C17 H12 N4 O4'
_chemical_formula_moiety
;
C17 H12 N4 O4
;
_journal_coeditor_code "IUCr OG0001"
_journal_coden_Cambridge 622
_journal_volume 60
_journal_year 2004
_journal_page_first 343
_journal_name_full 'Acta Crystallogr.,Sect.B:Struct.Sci. '
loop_
_publ_author_name
"P.Naumov"
"Y.Ohashi"
_chemical_name_systematic
;
6-(2',4'-Dinitrobenzyl)-2,2'-bipyridine
;
_cell_volume   1500.235
_exptl_crystal_colour 'colorless'
_exptl_crystal_density_diffrn 1.489
_exptl_special_details
;
photochromic
photoactive monoclinic gamma polymorph
light-sensitive

;
_exptl_crystal_description 'plate'
_exptl_crystal_preparation 'acetone/methanol'
_diffrn_ambient_temperature 78
#These two values have been output from a single CSD field.
_refine_ls_R_factor_gt 0.0489
_refine_ls_wR_factor_gt 0.0489
_symmetry_cell_setting monoclinic
_symmetry_space_group_name_H-M 'P 21/c'
_symmetry_Int_Tables_number 14
loop_
_symmetry_equiv_pos_site_id
_symmetry_equiv_pos_as_xyz
1 x,y,z
2 x,1/2-y,1/2+z
3 -x,-y,-z
4 -x,-1/2+y,-1/2-z
_cell_length_a 20.8360(3)
_cell_length_b 5.2746(1)
_cell_length_c 14.0971(2)
_cell_angle_alpha 90
_cell_angle_beta 104.457(1)
_cell_angle_gamma 90
_cell_formula_units_Z 4
loop_
_atom_type_symbol
_atom_type_radius_bond
C 0.68
H 0.23
N 0.68
O 0.68
loop_
_atom_site_label
_atom_site_type_symbol
_atom_site_fract_x
_atom_site_fract_y
_atom_site_fract_z
O1 O 0.81007(5) 0.6028(2) 0.22845(8)
O2 O 0.81247(5) 0.9763(2) 0.29337(8)
O3 O 0.96491(6) 1.5705(2) 0.20348(10)
O4 O 1.01989(6) 1.4242(3) 0.10337(10)
N1 N 0.69744(6) 0.8705(2) 0.08211(8)
N2 N 0.82012(6) 0.8321(2) 0.22873(8)
N3 N 0.97264(7) 1.4211(3) 0.14122(10)
N4 N 0.56525(6) 1.1212(2) 0.17702(9)
C1 C 0.63491(7) 0.9080(3) 0.08969(10)
C2 C 0.58149(7) 0.7649(3) 0.03705(10)
H1 H 0.53780 0.79830 0.04260
C3 C 0.59349(7) 0.5736(3) -0.02329(11)
H2 H 0.55800 0.47240 -0.05950
C4 C 0.65760(7) 0.5307(3) -0.03051(10)
H3 H 0.66700 0.39990 -0.07140
C5 C 0.70826(7) 0.6842(3) 0.02375(10)
C6 C 0.77891(7) 0.6300(3) 0.01972(11)
C7 C 0.82868(7) 0.8387(3) 0.05481(10)
C8 C 0.84580(6) 0.9399(3) 0.14952(10)
C9 C 0.89044(7) 1.1354(3) 0.17801(10)
H4 H 0.89860 1.20710 0.24170
C10 C 0.92269(7) 1.2221(3) 0.11014(11)
C11 C 0.90986(8) 1.1284(3) 0.01600(11)
H5 H 0.93340 1.18930 -0.02900
C12 C 0.86145(7) 0.9421(3) -0.01124(11)
H6 H 0.85030 0.88340 -0.07700
C13 C 0.62558(7) 1.1097(3) 0.15857(10)
C14 C 0.67691(7) 1.2751(3) 0.20159(10)
H7 H 0.71890 1.26210 0.18690
C15 C 0.66582(7) 1.4580(3) 0.26585(11)
H8 H 0.69990 1.57320 0.29580
C16 C 0.60399(7) 1.4704(3) 0.28583(11)
H9 H 0.59490 1.59330 0.33000
C17 C 0.55597(7) 1.2994(3) 0.23989(11)
H10 H 0.51370 1.30900 0.25380
H11 H 0.79350 0.47490 0.05550
H12 H 0.77880 0.57990 -0.04680
#END
