
#######################################################################
#
#                 Cambridge Crystallographic Data Centre
#                                CCDC
#
#######################################################################
#
# If this CIF has been generated from an entry in the Cambridge
# Structural Database, then it will include bibliographic, chemical,
# crystal, experimental, refinement or atomic coordinate data resulting
# from the CCDC's data processing and validation procedures.
#
#######################################################################

data_CSD_CIF_ZOKWED
_audit_creation_date 2014-06-18
_audit_creation_method CSD-ConQuest-V1
_database_code_CSD ZOKWED
_database_code_depnum_ccdc_archive 'CCDC 1008199'
_chemical_formula_sum 'C15 H17 N3 O4'
_chemical_formula_moiety
;
C15 H17 N3 O4
;
_journal_coden_Cambridge 1616
_journal_volume 6
_journal_year 2014
_journal_page_first 5596
_journal_name_full 'Analytical Methods '
loop_
_publ_author_name
"A.Subhasri"
"C.Anbuselvan"
_chemical_name_systematic
;
5,5-dimethyl-2-((4-methyl-2-nitrophenyl)hydrazono)cyclohexane-1,3-dione
;
_cell_volume   2926.645
_exptl_crystal_colour 'red'
_exptl_crystal_density_diffrn 1.377
_diffrn_ambient_temperature 273
#These two values have been output from a single CSD field.
_refine_ls_R_factor_gt 0.0548
_refine_ls_wR_factor_gt 0.0548
_symmetry_cell_setting monoclinic
_symmetry_space_group_name_H-M 'C 2/c'
_symmetry_Int_Tables_number 15
loop_
_symmetry_equiv_pos_site_id
_symmetry_equiv_pos_as_xyz
1 x,y,z
2 -x,y,1/2-z
3 1/2+x,1/2+y,z
4 1/2-x,1/2+y,1/2-z
5 -x,-y,-z
6 x,-y,-1/2+z
7 -1/2-x,-1/2-y,-z
8 -1/2+x,-1/2-y,-1/2+z
_cell_length_a 21.628(5)
_cell_length_b 6.8734(11)
_cell_length_c 21.792(5)
_cell_angle_alpha 90
_cell_angle_beta 115.39(3)
_cell_angle_gamma 90
_cell_formula_units_Z 8
loop_
_atom_type_symbol
_atom_type_radius_bond
C 0.68
H 0.23
N 0.68
O 0.68
loop_
_atom_site_label
_atom_site_type_symbol
_atom_site_fract_x
_atom_site_fract_y
_atom_site_fract_z
N1 N 0.57315(9) 0.8201(2) 0.60734(8)
N2 N 0.42945(9) 0.8018(2) 0.50881(9)
N3 N 0.63833(8) 0.8260(2) 0.65043(8)
O1 O 0.44126(8) 0.8321(2) 0.56804(8)
O2 O 0.77180(8) 0.8468(2) 0.73770(8)
O3 O 0.37189(8) 0.8110(3) 0.46305(8)
O4 O 0.54438(8) 0.9368(3) 0.70325(7)
C1 C 0.55395(10) 0.7650(3) 0.54044(9)
C2 C 0.65491(10) 0.8812(3) 0.71312(10)
C3 C 0.48603(10) 0.7558(2) 0.49204(10)
C4 C 0.75120(12) 0.9241(4) 0.83277(11)
C5 C 0.69763(10) 0.8953(3) 0.85946(10)
C6 C 0.46856(12) 0.7010(3) 0.42529(11)
C7 C 0.58518(13) 0.6653(3) 0.45197(11)
C8 C 0.51728(13) 0.6546(3) 0.40411(11)
C9 C 0.72979(11) 0.8793(3) 0.75926(10)
C10 C 0.60596(11) 0.9386(3) 0.73974(10)
C11 C 0.63331(12) 1.0025(4) 0.81195(11)
C12 C 0.60340(12) 0.7188(3) 0.51795(11)
C13 C 0.72352(15) 0.9819(5) 0.93049(13)
C14 C 0.4990(2) 0.5943(5) 0.33223(14)
C15 C 0.68228(17) 0.6809(4) 0.86216(16)
H1 H 0.4228(10) 0.700(3) 0.3965(9)
H2 H 0.6478(11) 0.729(3) 0.5482(10)
H3 H 0.7903(14) 0.848(3) 0.8575(12)
H4 H 0.5400(13) 0.853(3) 0.6223(11)
H5 H 0.7301(15) 1.126(4) 0.9308(13)
H6 H 0.6494(13) 0.664(3) 0.8779(11)
H7 H 0.6185(11) 0.635(3) 0.4381(10)
H8 H 0.5967(11) 0.998(3) 0.8263(10)
H9 H 0.7656(13) 1.068(4) 0.8375(12)
H10 H 0.6437(12) 1.142(3) 0.8116(11)
H11 H 0.7252(14) 0.610(4) 0.8925(13)
H12 H 0.6890(13) 0.974(3) 0.9488(12)
H13 H 0.7648(14) 0.918(3) 0.9616(12)
H14 H 0.6690(12) 0.615(3) 0.8171(13)
H15 H 0.4517(19) 0.585(5) 0.3085(16)
H16 H 0.5080(15) 0.694(4) 0.3081(14)
H17 H 0.5128(16) 0.467(5) 0.3278(15)
#END
