
#######################################################################
#
#                 Cambridge Crystallographic Data Centre
#                                CCDC
#
#######################################################################
#
# If this CIF has been generated from an entry in the Cambridge
# Structural Database, then it will include bibliographic, chemical,
# crystal, experimental, refinement or atomic coordinate data resulting
# from the CCDC's data processing and validation procedures.
#
#######################################################################

data_CSD_CIF_ZOMGAJ
_audit_creation_date 1996-08-20
_audit_creation_method CSD-ConQuest-V1
_database_code_CSD ZOMGAJ
_database_code_depnum_ccdc_fiz 'CSD 57989'
_chemical_formula_sum 'C21 H25 N3 O3'
_chemical_formula_moiety
;
C21 H25 N3 O3
;
_journal_coden_Cambridge 214
_journal_volume 125
_journal_year 1994
_journal_page_first 909
_journal_name_full 'Monatsh.Chem. '
loop_
_publ_author_name
"L.Fisera"
"F.Sauter"
"J.Frohlich"
"Y.Feng"
"K.Mereiter"
_chemical_name_systematic
;
2-(4-Nitrophenyl)-4-phenyl-9-methyl-1-oxa-3,9-diazaspiro(5.5)undecane
;
_chemical_melting_point 443.15
_cell_volume   1893.557
_exptl_crystal_colour 'yellowish'
_exptl_crystal_density_diffrn 1.289
_exptl_special_details
;
Melting point range 443.15-453.15K

;
_diffrn_ambient_temperature ?
_diffrn_special_details
;
The study was carried out at room temperature,in the range 283-303K

;
#These two values have been output from a single CSD field.
_refine_ls_R_factor_gt 0.044
_refine_ls_wR_factor_gt 0.044
_symmetry_cell_setting monoclinic
_symmetry_space_group_name_H-M 'P 21/n'
_symmetry_Int_Tables_number 14
loop_
_symmetry_equiv_pos_site_id
_symmetry_equiv_pos_as_xyz
1 x,y,z
2 1/2-x,1/2+y,1/2-z
3 -x,-y,-z
4 -1/2+x,-1/2-y,-1/2+z
_cell_length_a 16.844(3)
_cell_length_b 7.342(2)
_cell_length_c 16.187(3)
_cell_angle_alpha 90
_cell_angle_beta 108.93(1)
_cell_angle_gamma 90
_cell_formula_units_Z 4
loop_
_atom_type_symbol
_atom_type_radius_bond
C 0.68
H 0.23
N 0.68
O 0.68
loop_
_atom_site_label
_atom_site_type_symbol
_atom_site_fract_x
_atom_site_fract_y
_atom_site_fract_z
O1 O 0.2495(2) 0.4589(4) 0.5039(2)
C1 C 0.3308(2) 0.4663(7) 0.4945(3)
N1 N 0.3769(2) 0.6340(6) 0.5261(2)
C2 C 0.3813(3) 0.6715(7) 0.6171(3)
C3 C 0.2933(3) 0.6707(7) 0.6248(3)
C4 C 0.2474(3) 0.4936(7) 0.5914(3)
C5 C 0.2822(3) 0.3316(7) 0.6513(3)
C6 C 0.2301(3) 0.1606(7) 0.6242(3)
N2 N 0.1430(2) 0.1947(6) 0.6191(2)
C7 C 0.1057(3) 0.3341(7) 0.5540(3)
C8 C 0.1543(3) 0.5117(7) 0.5790(3)
C9 C 0.0938(3) 0.0256(7) 0.5994(3)
C10 C 0.3197(3) 0.4471(7) 0.3989(3)
C11 C 0.2434(3) 0.4763(7) 0.3351(3)
C12 C 0.2355(3) 0.4738(7) 0.2478(3)
C13 C 0.3054(3) 0.4387(7) 0.2245(3)
C14 C 0.3819(3) 0.4010(7) 0.2867(3)
C15 C 0.3884(3) 0.4078(7) 0.3730(3)
C16 C 0.4280(3) 0.8487(7) 0.6502(3)
C17 C 0.4557(3) 0.9671(8) 0.5993(3)
C18 C 0.5008(3) 1.1210(8) 0.6349(4)
C19 C 0.5187(3) 1.1622(8) 0.7216(4)
C20 C 0.4904(3) 1.0461(8) 0.7729(3)
C21 C 0.4456(3) 0.8927(7) 0.7380(3)
N3 N 0.2990(4) 0.4396(7) 0.1315(3)
O2 O 0.2300(3) 0.4687(6) 0.0780(2)
O3 O 0.3619(3) 0.4105(8) 0.1130(3)
H1 H 0.36330 0.36970 0.52940
H2 H 0.34890 0.73330 0.48970
H3 H 0.41290 0.57640 0.65400
H4 H 0.26180 0.77000 0.59110
H5 H 0.29780 0.68600 0.68500
H6 H 0.28410 0.36330 0.70950
H7 H 0.33800 0.30680 0.65080
H8 H 0.25310 0.06640 0.66630
H9 H 0.23150 0.12230 0.56790
H10 H 0.10740 0.29450 0.49810
H11 H 0.04840 0.35350 0.55090
H12 H 0.14830 0.55450 0.63270
H13 H 0.13050 0.59930 0.53360
H14 H 0.11950 -0.06420 0.64310
H15 H 0.09220 -0.01870 0.54310
H16 H 0.03770 0.04920 0.59930
H17 H 0.19460 0.49900 0.35200
H18 H 0.18220 0.49610 0.20410
H19 H 0.42970 0.37050 0.26960
H20 H 0.44170 0.38490 0.41650
H21 H 0.44340 0.94200 0.53830
H22 H 0.52000 1.20060 0.59830
H23 H 0.55020 1.26940 0.74600
H24 H 0.50210 1.07290 0.83380
H25 H 0.42610 0.81420 0.77470
#END
