
#######################################################################
#
#                 Cambridge Crystallographic Data Centre
#                                CCDC
#
#######################################################################
#
# If this CIF has been generated from an entry in the Cambridge
# Structural Database, then it will include bibliographic, chemical,
# crystal, experimental, refinement or atomic coordinate data resulting
# from the CCDC's data processing and validation procedures.
#
#######################################################################

data_CSD_CIF_ZONJOB
_audit_creation_date 1996-09-09
_audit_creation_method CSD-ConQuest-V1
_database_code_CSD ZONJOB
_database_code_depnum_ccdc_archive 'CCDC 1314800'
_chemical_formula_sum 'C16 H18 N2 O4'
_chemical_formula_moiety
;
C16 H18 N2 O4
;
_journal_coden_Cambridge 7
_journal_volume 68
_journal_year 1995
_journal_page_first 3247
_journal_name_full 'Bull.Chem.Soc.Jpn. '
loop_
_publ_author_name
"Y.Mazaki"
"K.Mutai"
_chemical_name_systematic
;
1-(p-(Dimethylamino)phenoxy)-2-(p-nitrophenoxy)ethane
;
_chemical_melting_point 389.15
_cell_volume   1537.075
_exptl_crystal_colour 'dark red'
_exptl_crystal_density_diffrn 1.306
_exptl_special_details
;
Melting point range 389.15-390.15K

;
_diffrn_ambient_temperature ?
_diffrn_special_details
;
The study was carried out at room temperature,in the range 283-303K

;
#These two values have been output from a single CSD field.
_refine_ls_R_factor_gt 0.073
_refine_ls_wR_factor_gt 0.073
_symmetry_cell_setting monoclinic
_symmetry_space_group_name_H-M 'P 21/c'
_symmetry_Int_Tables_number 14
loop_
_symmetry_equiv_pos_site_id
_symmetry_equiv_pos_as_xyz
1 x,y,z
2 -x,1/2+y,1/2-z
3 -x,-y,-z
4 x,-1/2-y,-1/2+z
_cell_length_a 15.242(3)
_cell_length_b 11.258(4)
_cell_length_c 9.017(3)
_cell_angle_alpha 90
_cell_angle_beta 96.58(2)
_cell_angle_gamma 90
_cell_formula_units_Z 4
loop_
_atom_type_symbol
_atom_type_radius_bond
C 0.68
H 0.23
N 0.68
O 0.68
loop_
_atom_site_label
_atom_site_type_symbol
_atom_site_fract_x
_atom_site_fract_y
_atom_site_fract_z
C1 C 0.4005(3) 0.1090(4) 0.4051(5)
C2 C 0.3128(3) 0.2166(4) 0.5666(5)
C3 C 0.3904(3) 0.2024(4) 0.5014(5)
C4 C 0.6708(3) 0.1160(4) 0.0546(5)
C5 C 0.2412(3) 0.1367(4) 0.5388(5)
C6 C 0.3311(3) 0.0291(4) 0.3748(5)
C7 C 0.2540(3) 0.0430(5) 0.4407(6)
C8 C 0.7538(3) 0.2281(5) -0.1051(6)
C9 C 0.5818(3) 0.0084(4) 0.2091(5)
C10 C 0.8194(3) 0.0567(5) 0.0241(6)
C11 C 0.6773(3) 0.2109(4) -0.0420(5)
C12 C 0.4894(3) 0.0073(4) 0.2481(5)
C13 C 0.8241(3) 0.1507(5) -0.0715(5)
C14 C 0.7420(3) 0.0393(4) 0.0881(5)
C15 C 0.0904(4) 0.0711(6) 0.5593(8)
C16 C 0.1420(4) 0.2558(6) 0.6734(8)
N1 N 0.1646(3) 0.1479(4) 0.6077(5)
N2 N 0.9058(3) 0.1681(5) -0.1426(5)
O1 O 0.4799(2) 0.1028(3) 0.3472(4)
O2 O 0.5926(2) 0.1057(3) 0.1112(3)
O3 O 0.9113(3) 0.2528(5) -0.2207(6)
O4 O 0.9651(3) 0.0982(5) -0.1165(6)
H1 H 0.588(2) -0.065(3) 0.153(4)
H2 H 0.451(3) 0.005(4) 0.144(5)
H3 H 0.619(2) 0.019(3) 0.301(4)
H4 H 0.065(3) 0.086(4) 0.445(5)
H5 H 0.039(3) 0.090(4) 0.613(5)
H6 H 0.479(3) -0.072(4) 0.293(4)
H7 H 0.343(3) -0.039(4) 0.302(4)
H8 H 0.623(3) 0.266(4) -0.059(4)
H9 H 0.739(3) -0.019(4) 0.153(4)
H10 H 0.760(3) 0.294(4) -0.168(5)
H11 H 0.202(2) -0.009(4) 0.415(4)
H12 H 0.446(2) 0.260(4) 0.532(4)
H13 H 0.104(3) -0.012(5) 0.579(5)
H14 H 0.312(3) 0.285(4) 0.635(4)
H15 H 0.877(3) 0.000(4) 0.051(4)
H16 H 0.082(3) 0.251(4) 0.723(5)
H17 H 0.135(3) 0.322(4) 0.592(5)
H18 H 0.189(3) 0.280(4) 0.751(5)
#END
