
#######################################################################
#
#                 Cambridge Crystallographic Data Centre
#                                CCDC
#
#######################################################################
#
# If this CIF has been generated from an entry in the Cambridge
# Structural Database, then it will include bibliographic, chemical,
# crystal, experimental, refinement or atomic coordinate data resulting
# from the CCDC's data processing and validation procedures.
#
#######################################################################

data_CSD_CIF_ZONKES
_audit_creation_date 1996-09-09
_audit_creation_method CSD-ConQuest-V1
_database_code_CSD ZONKES
_database_code_depnum_ccdc_archive 'CCDC 1314803'
_chemical_formula_sum 'C16 H18 N2 O4'
_chemical_formula_moiety
;
C16 H18 N2 O4
;
_journal_coden_Cambridge 7
_journal_volume 68
_journal_year 1995
_journal_page_first 3247
_journal_name_full 'Bull.Chem.Soc.Jpn. '
loop_
_publ_author_name
"Y.Mazaki"
"K.Mutai"
_chemical_name_systematic
;
1-(N-Methyl-p-anisidino)-2-(p-nitrophenoxy)ethane
;
_chemical_melting_point 333.15
_cell_volume   1541.692
_exptl_crystal_colour 'orange'
_exptl_crystal_density_diffrn 1.303
_exptl_special_details
;
Melting point range 333.15-334.15K

;
_diffrn_ambient_temperature ?
_diffrn_special_details
;
The study was carried out at room temperature,in the range 283-303K

;
#These two values have been output from a single CSD field.
_refine_ls_R_factor_gt 0.117
_refine_ls_wR_factor_gt 0.117
_symmetry_cell_setting monoclinic
_symmetry_space_group_name_H-M 'P 21/n'
_symmetry_Int_Tables_number 14
loop_
_symmetry_equiv_pos_site_id
_symmetry_equiv_pos_as_xyz
1 x,y,z
2 1/2-x,1/2+y,1/2-z
3 -x,-y,-z
4 -1/2+x,-1/2-y,-1/2+z
_cell_length_a 12.579(3)
_cell_length_b 12.934(3)
_cell_length_c 10.205(2)
_cell_angle_alpha 90
_cell_angle_beta 111.79(2)
_cell_angle_gamma 90
_cell_formula_units_Z 4
loop_
_atom_type_symbol
_atom_type_radius_bond
C 0.68
H 0.23
N 0.68
O 0.68
loop_
_atom_site_label
_atom_site_type_symbol
_atom_site_fract_x
_atom_site_fract_y
_atom_site_fract_z
N1 N 0.4195(7) 0.2962(8) 0.7436(10)
N2 N 0.9430(7) 0.7164(8) 1.1488(11)
O1 O 0.7413(6) 0.5832(6) 1.0601(8)
O2 O 0.3320(7) 0.3300(7) 0.6526(10)
O3 O 0.4376(7) 0.2037(6) 0.7680(11)
O4 O 0.6628(7) 1.0411(7) 0.8615(9)
C1 C 0.5689(8) 0.5450(8) 0.8829(10)
C2 C 0.8767(8) 0.7975(9) 1.0737(11)
C3 C 0.4851(9) 0.4780(8) 0.8037(11)
C4 C 0.6868(9) 0.4024(9) 1.0076(12)
C5 C 0.7744(10) 0.8214(10) 1.0923(13)
C6 C 0.5046(8) 0.3720(9) 0.8269(11)
C7 C 0.6679(10) 0.5083(8) 0.9864(11)
C8 C 0.9099(10) 0.6466(10) 1.2376(12)
C9 C 0.7379(10) 0.9612(10) 0.9301(11)
C10 C 0.7067(9) 0.9044(10) 1.0232(12)
C11 C 0.6043(9) 0.3329(9) 0.9286(12)
C12 C 0.8496(9) 0.5497(9) 1.1689(12)
C13 C 0.8397(11) 0.9413(11) 0.9109(14)
C14 C 0.9067(10) 0.8592(11) 0.9799(12)
C15 C 1.0423(11) 0.6875(11) 1.1176(16)
C16 C 0.6915(13) 1.1016(12) 0.7670(17)
H1 H 0.550(7) 0.627(7) 0.860(9)
H2 H 0.416(8) 0.508(8) 0.73(1)
H3 H 0.752(8) 0.376(7) 1.077(10)
H4 H 0.743(6) 0.781(6) 1.149(8)
H5 H 0.863(10) 0.701(9) 1.278(12)
H6 H 0.983(6) 0.625(6) 1.317(8)
H7 H 0.635(9) 0.916(8) 1.046(11)
H8 H 0.614(9) 0.253(9) 0.938(11)
H9 H 0.904(8) 0.510(8) 1.116(10)
H10 H 0.822(9) 0.504(9) 1.243(12)
H11 H 0.855(9) 0.982(9) 0.848(12)
H12 H 0.983(10) 0.838(10) 0.961(13)
H13 H 1.083(7) 0.625(7) 1.178(9)
H14 H 1.018(10) 0.647(10) 1.018(13)
H15 H 1.094(10) 0.741(10) 1.131(12)
H16 H 0.626(6) 1.146(6) 0.724(8)
H17 H 0.761(11) 1.132(10) 0.822(13)
H18 H 0.693(9) 1.056(9) 0.683(11)
#END
