
#######################################################################
#
#                 Cambridge Crystallographic Data Centre
#                                CCDC
#
#######################################################################
#
# If this CIF has been generated from an entry in the Cambridge
# Structural Database, then it will include bibliographic, chemical,
# crystal, experimental, refinement or atomic coordinate data resulting
# from the CCDC's data processing and validation procedures.
#
#######################################################################

data_CSD_CIF_ZOPYOU
_audit_creation_date 2014-11-13
_audit_creation_method CSD-ConQuest-V1
_database_code_CSD ZOPYOU
_database_code_depnum_ccdc_archive 'CCDC 977958'
_chemical_formula_sum 'C28 H40 N2 O5'
_chemical_formula_moiety
;
C28 H40 N2 O5
;
_journal_coden_Cambridge 179
_journal_volume 53
_journal_year 2014
_journal_page_first 9944
_journal_name_full 'Angew.Chem.,Int.Ed. '
loop_
_publ_author_name
"I.F.Kafka"
"I.M.Holan"
"D.Hidasova"
"R.Pohl"
"I.Cisarova"
"B.Klepetarova"
"U.Jahn"
_chemical_name_systematic
;
Diethyl 
3-cyano-2-phenyl-5-(((2,2,6,6-tetramethylpiperidin-1-yl)oxy)methyl)cyclopentan
e-1,1-dicarboxylate
;
_cell_volume   1322.531
_exptl_crystal_colour 'colorless'
_exptl_crystal_density_diffrn 1.217
_exptl_crystal_description 'prism'
_diffrn_ambient_temperature 150
#These two values have been output from a single CSD field.
_refine_ls_R_factor_gt 0.0413
_refine_ls_wR_factor_gt 0.0413
_symmetry_cell_setting triclinic
_symmetry_space_group_name_H-M 'P -1'
_symmetry_Int_Tables_number 2
loop_
_symmetry_equiv_pos_site_id
_symmetry_equiv_pos_as_xyz
1 x,y,z
2 -x,-y,-z
_cell_length_a 9.9857(3)
_cell_length_b 12.2276(4)
_cell_length_c 12.6579(4)
_cell_angle_alpha 69.380(1)
_cell_angle_beta 81.479(1)
_cell_angle_gamma 66.106(1)
_cell_formula_units_Z 2
loop_
_atom_type_symbol
_atom_type_radius_bond
C 0.68
H 0.23
N 0.68
O 0.68
loop_
_atom_site_label
_atom_site_type_symbol
_atom_site_fract_x
_atom_site_fract_y
_atom_site_fract_z
C1 C 0.86941(12) 0.72704(11) 0.15871(10)
C2 C 0.98199(12) 0.62107(11) 0.25107(10)
H1 H 0.96870 0.65200 0.31680
C3 C 0.92213(13) 0.51454(11) 0.28693(10)
H2 H 0.95400 0.46990 0.22940
C4 C 0.75316(13) 0.58212(12) 0.28237(12)
H3 H 0.71010 0.54370 0.24670
H4 H 0.71190 0.57530 0.35940
C5 C 0.71951(12) 0.72217(11) 0.21148(11)
H5 H 0.65000 0.74820 0.14980
C6 C 0.65272(13) 0.80769(12) 0.28421(11)
H6 H 0.71890 0.78200 0.34710
H7 H 0.63450 0.89680 0.23870
C7 C 0.30211(13) 0.96813(13) 0.33484(12)
C8 C 0.21976(16) 1.05287(15) 0.40750(14)
H8 H 0.27200 1.10800 0.40320
H9 H 0.12080 1.10810 0.37580
C9 C 0.20457(17) 0.98009(17) 0.53064(14)
H10 H 0.14140 0.93310 0.53720
H11 H 0.15840 1.03960 0.57410
C10 C 0.35537(16) 0.88824(16) 0.57797(13)
H12 H 0.34460 0.83930 0.65760
H13 H 0.41450 0.93690 0.57700
C11 C 0.43762(14) 0.79593(14) 0.51196(11)
C12 C 0.20574(15) 0.90907(15) 0.31020(14)
H14 H 0.26660 0.84100 0.27960
H15 H 0.13070 0.97390 0.25510
H16 H 0.15840 0.87470 0.38020
C13 C 0.34264(17) 1.04973(15) 0.22242(13)
H17 H 0.40560 1.08730 0.23640
H18 H 0.25330 1.11710 0.18420
H19 H 0.39500 0.99710 0.17470
C14 C 0.36944(17) 0.69795(15) 0.53037(13)
H20 H 0.26290 0.74090 0.52220
H21 H 0.39290 0.63640 0.60640
H22 H 0.40910 0.65420 0.47430
C15 C 0.59598(16) 0.72333(16) 0.55371(12)
H23 H 0.64610 0.65710 0.51870
H24 H 0.59620 0.68470 0.63600
H25 H 0.64690 0.78170 0.53310
C16 C 0.97585(14) 0.42138(12) 0.39747(11)
C17 C 1.14311(12) 0.58076(11) 0.21947(10)
C18 C 1.22891(13) 0.62499(12) 0.25743(11)
H26 H 1.18620 0.67720 0.30370
C19 C 1.37622(14) 0.59369(14) 0.22841(13)
H27 H 1.43330 0.62530 0.25410
C20 C 1.43982(14) 0.51664(14) 0.16219(12)
H28 H 1.54050 0.49560 0.14190
C21 C 1.35674(15) 0.47030(14) 0.12560(12)
H29 H 1.40070 0.41660 0.08070
C22 C 1.20911(14) 0.50163(13) 0.15407(11)
H30 H 1.15290 0.46890 0.12880
C23 C 0.89729(13) 0.69293(11) 0.05043(10)
C24 C 1.04414(15) 0.68864(13) -0.11323(11)
H31 H 0.95860 0.71520 -0.16030
H32 H 1.09180 0.59530 -0.08880
C25 C 1.14998(18) 0.74627(16) -0.17934(13)
H33 H 1.10220 0.83860 -0.20200
H34 H 1.18180 0.72020 -0.24680
H35 H 1.23520 0.71780 -0.13250
C26 C 0.87413(13) 0.85659(12) 0.13526(10)
C27 C 0.78051(17) 1.07020(13) 0.01026(13)
H36 H 0.79320 1.10180 -0.07260
H37 H 0.85880 1.07450 0.04650
C28 C 0.6354(2) 1.14979(16) 0.04357(19)
H38 H 0.55840 1.13880 0.01360
H39 H 0.62390 1.23870 0.01300
H40 H 0.62800 1.12460 0.12610
N1 N 0.44330(11) 0.87664(10) 0.39304(9)
N2 N 1.01599(15) 0.34744(12) 0.48349(11)
O1 O 0.51790(9) 0.79276(8) 0.32654(7)
O2 O 0.84017(10) 0.63288(9) 0.02935(8)
O3 O 0.99731(9) 0.73170(8) -0.01526(7)
O4 O 0.93720(11) 0.88156(9) 0.19114(8)
O5 O 0.79173(10) 0.93934(8) 0.04512(8)
#END
