
#######################################################################
#
#                 Cambridge Crystallographic Data Centre
#                                CCDC
#
#######################################################################
#
# If this CIF has been generated from an entry in the Cambridge
# Structural Database, then it will include bibliographic, chemical,
# crystal, experimental, refinement or atomic coordinate data resulting
# from the CCDC's data processing and validation procedures.
#
#######################################################################

data_CSD_CIF_ZOPZEL
_audit_creation_date 2014-11-13
_audit_creation_method CSD-ConQuest-V1
_database_code_CSD ZOPZEL
_database_code_depnum_ccdc_archive 'CCDC 978532'
_chemical_formula_sum 'C34 H45 N1 O6'
_chemical_formula_moiety
;
C34 H45 N1 O6
;
_journal_coden_Cambridge 179
_journal_volume 53
_journal_year 2014
_journal_page_first 9944
_journal_name_full 'Angew.Chem.,Int.Ed. '
loop_
_publ_author_name
"I.F.Kafka"
"I.M.Holan"
"D.Hidasova"
"R.Pohl"
"I.Cisarova"
"B.Klepetarova"
"U.Jahn"
_chemical_name_systematic
;
(2S*,3S*,5R*)-Diethyl 
3-benzoyl-2-phenyl-5-[(2,2,6,6-tetramethylpiperidin-1-yloxy)methyl]cyclopentan
e-1,1-dicarboxylate
;
_cell_volume   3183.354
_exptl_crystal_colour 'colorless'
_exptl_crystal_density_diffrn 1.176
_exptl_crystal_description 'prism'
_diffrn_ambient_temperature 150
#These two values have been output from a single CSD field.
_refine_ls_R_factor_gt 0.0858
_refine_ls_wR_factor_gt 0.0858
_symmetry_cell_setting monoclinic
_symmetry_space_group_name_H-M 'P 21/n'
_symmetry_Int_Tables_number 14
loop_
_symmetry_equiv_pos_site_id
_symmetry_equiv_pos_as_xyz
1 x,y,z
2 1/2-x,1/2+y,1/2-z
3 -x,-y,-z
4 -1/2+x,-1/2-y,-1/2+z
_cell_length_a 18.028(2)
_cell_length_b 7.7037(11)
_cell_length_c 23.563(2)
_cell_angle_alpha 90
_cell_angle_beta 103.403(11)
_cell_angle_gamma 90
_cell_formula_units_Z 4
loop_
_atom_type_symbol
_atom_type_radius_bond
C 0.68
H 0.23
N 0.68
O 0.68
loop_
_atom_site_label
_atom_site_type_symbol
_atom_site_fract_x
_atom_site_fract_y
_atom_site_fract_z
O1 O 0.43334(11) 0.3218(3) 0.64811(8)
O2 O 0.48939(13) 0.7556(3) 0.77691(9)
O3 O 0.45051(11) 0.7049(3) 0.85908(8)
O4 O 0.40262(12) 0.2723(3) 0.85879(9)
O5 O 0.34075(11) 0.4691(3) 0.79516(9)
O6 O 0.64746(13) 0.0944(3) 0.86888(10)
C1 C 0.47465(15) 0.4574(4) 0.80723(11)
C2 C 0.54875(15) 0.3830(4) 0.84974(11)
C3 C 0.60291(15) 0.3429(4) 0.81063(11)
C4 C 0.54895(16) 0.2705(4) 0.75531(12)
C5 C 0.48228(15) 0.3992(4) 0.74469(11)
C6 C 0.41160(16) 0.3303(4) 0.70277(11)
C7 C 0.34183(19) 0.3704(4) 0.56017(13)
C8 C 0.2828(2) 0.2741(5) 0.51270(15)
C9 C 0.3165(2) 0.1235(5) 0.48692(14)
C10 C 0.3518(2) -0.0024(5) 0.53488(14)
C11 C 0.41101(18) 0.0814(4) 0.58510(12)
C12 C 0.3989(3) 0.4707(5) 0.53339(16)
C13 C 0.2993(2) 0.5006(6) 0.58960(17)
C14 C 0.4268(2) -0.0455(5) 0.63614(14)
C15 C 0.4864(2) 0.1139(6) 0.56714(16)
C16 C 0.66286(16) 0.2086(4) 0.83739(12)
C17 C 0.58313(15) 0.4871(4) 0.90367(12)
C18 C 0.57467(17) 0.4291(4) 0.95765(12)
C19 C 0.60423(17) 0.5218(4) 1.00795(13)
C20 C 0.64346(17) 0.6748(4) 1.00553(13)
C21 C 0.65329(17) 0.7335(4) 0.95249(14)
C22 C 0.62447(16) 0.6401(4) 0.90186(13)
C23 C 0.47189(15) 0.6549(4) 0.81105(11)
C24 C 0.45610(19) 0.8899(4) 0.87246(12)
C25 C 0.4414(2) 0.9100(5) 0.93197(13)
C26 C 0.40343(15) 0.3864(4) 0.82447(11)
C27 C 0.26814(17) 0.4201(5) 0.80810(15)
C28 C 0.20968(18) 0.4149(5) 0.75174(15)
C29 C 0.74115(16) 0.2161(4) 0.82480(12)
C30 C 0.7585(2) 0.3274(5) 0.78377(17)
C31 C 0.8311(2) 0.3281(6) 0.7740(2)
C32 C 0.88720(19) 0.2219(5) 0.80525(19)
C33 C 0.8698(2) 0.1106(6) 0.84582(16)
C34 C 0.79669(17) 0.1034(5) 0.85519(14)
N1 N 0.37472(13) 0.2363(3) 0.60447(10)
H1 H 0.53450 0.27050 0.86350
H2 H 0.54790 0.32480 0.95980
H3 H 0.59860 0.48140 1.04420
H4 H 0.66260 0.73830 1.03990
H5 H 0.67990 0.83770 0.94970
H6 H 0.63110 0.68050 0.86560
H7 H 0.62630 0.45040 0.80140
H8 H 0.78470 0.02440 0.88290
H9 H 0.90730 0.03580 0.86720
H10 H 0.93720 0.22550 0.79860
H11 H 0.84220 0.40230 0.74530
H12 H 0.72130 0.40430 0.76300
H13 H 0.53320 0.15320 0.76390
H14 H 0.57070 0.26640 0.72130
H15 H 0.49710 0.50410 0.72600
H16 H 0.39880 0.21460 0.71460
H17 H 0.36790 0.40580 0.69960
H18 H 0.44620 -0.15440 0.62430
H19 H 0.38030 -0.06830 0.64890
H20 H 0.46310 0.00410 0.66940
H21 H 0.31120 -0.04510 0.55270
H22 H 0.37440 -0.10030 0.51940
H23 H 0.27750 0.06350 0.45810
H24 H 0.35500 0.16430 0.46740
H25 H 0.26190 0.35660 0.48110
H26 H 0.24270 0.23260 0.53130
H27 H 0.27020 0.57590 0.55960
H28 H 0.26550 0.43970 0.60920
H29 H 0.33550 0.56990 0.61790
H30 H 0.37380 0.57380 0.51410
H31 H 0.41520 0.39770 0.50500
H32 H 0.44190 0.50270 0.56450
H33 H 0.51290 0.00420 0.56640
H34 H 0.47710 0.16760 0.52910
H35 H 0.51820 0.18980 0.59550
H36 H 0.27370 0.30560 0.82730
H37 H 0.25560 0.50490 0.83520
H38 H 0.16020 0.39070 0.75820
H39 H 0.22180 0.32460 0.72650
H40 H 0.20730 0.52590 0.73150
H41 H 0.41940 0.95470 0.84220
H42 H 0.50770 0.93020 0.87240
H43 H 0.44660 1.03080 0.94270
H44 H 0.39030 0.87240 0.93130
H45 H 0.47710 0.84310 0.96090
#END
