
#######################################################################
#
#                 Cambridge Crystallographic Data Centre
#                                CCDC
#
#######################################################################
#
# If this CIF has been generated from an entry in the Cambridge
# Structural Database, then it will include bibliographic, chemical,
# crystal, experimental, refinement or atomic coordinate data resulting
# from the CCDC's data processing and validation procedures.
#
#######################################################################

data_CSD_CIF_ZOPZAH
_audit_creation_date 2014-11-13
_audit_creation_method CSD-ConQuest-V1
_database_code_CSD ZOPZAH
_database_code_depnum_ccdc_archive 'CCDC 978531'
_chemical_formula_sum 'C30 H50 N2 O3'
_chemical_formula_moiety
;
C30 H50 N2 O3
;
_journal_coden_Cambridge 179
_journal_volume 53
_journal_year 2014
_journal_page_first 9944
_journal_name_full 'Angew.Chem.,Int.Ed. '
loop_
_publ_author_name
"I.F.Kafka"
"I.M.Holan"
"D.Hidasova"
"R.Pohl"
"I.Cisarova"
"B.Klepetarova"
"U.Jahn"
_chemical_name_systematic
;
t-Butyl 
(2R,3S,4R)-2-methyl-4-[1-methyl-1-(2,2,6,6-tetramethyl-piperidin-1-yloxy)ethyl
]-1-((R)-1-phenylethyl)pyrrolidine-3-carboxylate
;
_cell_volume   2953.871
_exptl_crystal_colour 'colorless'
_exptl_crystal_density_diffrn 1.094
_exptl_special_details
;
Absolute configuration

;
_exptl_crystal_description 'prism'
_diffrn_ambient_temperature 150
#These two values have been output from a single CSD field.
_refine_ls_R_factor_gt 0.0374
_refine_ls_wR_factor_gt 0.0374
_symmetry_cell_setting orthorhombic
_symmetry_space_group_name_H-M 'P 21 21 21'
_symmetry_Int_Tables_number 19
loop_
_symmetry_equiv_pos_site_id
_symmetry_equiv_pos_as_xyz
1 x,y,z
2 1/2+x,1/2-y,-z
3 -x,1/2+y,1/2-z
4 1/2-x,-y,1/2+z
_cell_length_a 8.60020(16)
_cell_length_b 11.5287(2)
_cell_length_c 29.7922(6)
_cell_angle_alpha 90
_cell_angle_beta 90
_cell_angle_gamma 90
_cell_formula_units_Z 4
loop_
_atom_type_symbol
_atom_type_radius_bond
C 0.68
H 0.23
N 0.68
O 0.68
loop_
_atom_site_label
_atom_site_type_symbol
_atom_site_fract_x
_atom_site_fract_y
_atom_site_fract_z
N1 N 0.52674(11) 0.40910(8) 0.69723(3)
N2 N 0.91507(10) 0.57018(8) 0.54980(3)
O1 O 0.70395(11) 0.18051(7) 0.64488(4)
O2 O 0.95306(9) 0.23743(7) 0.63493(3)
O3 O 0.85731(9) 0.47250(7) 0.57587(3)
C1 C 1.19060(14) 0.69628(11) 0.51933(4)
C2 C 1.08235(14) 0.74316(10) 0.55508(4)
C3 C 0.99804(13) 0.64883(10) 0.58221(4)
C4 C 1.11230(15) 0.58749(15) 0.61387(4)
C5 C 0.87604(17) 0.71111(12) 0.61075(5)
C6 C 0.90301(18) 0.46277(13) 0.47903(4)
C7 C 1.13017(16) 0.42609(11) 0.52800(5)
C8 C 0.76922(15) 0.47002(17) 0.73682(4)
C9 C 0.69326(13) 0.38004(11) 0.70629(4)
C10 C 0.77601(12) 0.37853(9) 0.65997(3)
C11 C 0.66065(12) 0.44814(9) 0.63059(3)
C12 C 0.50399(12) 0.40561(9) 0.64823(4)
C13 C 0.68914(12) 0.45352(9) 0.57941(3)
C14 C 0.65073(16) 0.33968(10) 0.55553(4)
C15 C 0.59128(13) 0.5500(1) 0.55899(4)
C16 C 0.80283(13) 0.25444(10) 0.64544(4)
C17 C 0.41505(14) 0.33515(10) 0.72148(4)
C18 C 0.24843(14) 0.37666(14) 0.71261(5)
C19 C 0.45001(13) 0.33456(10) 0.77140(4)
C20 C 0.50316(14) 0.23388(10) 0.79185(4)
C21 C 0.54140(15) 0.23350(12) 0.83728(5)
C22 C 0.52650(16) 0.33307(13) 0.86264(4)
C23 C 0.47109(16) 0.43323(11) 0.84276(4)
C24 C 0.43302(15) 0.43396(10) 0.79764(4)
C25 C 1.01190(16) 0.12013(11) 0.62398(4)
C26 C 0.9399(2) 0.07809(14) 0.58056(6)
C27 C 1.18496(18) 0.14126(15) 0.61788(6)
C28 C 0.9832(2) 0.03792(13) 0.66278(6)
C29 C 1.01280(14) 0.51869(10) 0.51298(4)
C30 C 1.09513(15) 0.61865(11) 0.48853(4)
H1 H 1.15660 0.58830 0.46380
H2 H 1.00640 0.66800 0.47590
H3 H 1.27270 0.65300 0.53330
H4 H 1.23820 0.76450 0.50270
H5 H 1.13860 0.79350 0.57590
H6 H 0.99740 0.78690 0.54050
H7 H 0.91820 0.77580 0.62670
H8 H 0.83290 0.65570 0.63210
H9 H 0.79640 0.74010 0.59050
H10 H 1.11870 0.62570 0.64200
H11 H 1.08370 0.50890 0.61970
H12 H 1.21580 0.58340 0.60040
H13 H 0.96120 0.44500 0.45250
H14 H 0.86710 0.39200 0.49110
H15 H 0.81660 0.51740 0.47210
H16 H 1.17370 0.38650 0.50210
H17 H 1.21720 0.46060 0.54490
H18 H 1.07800 0.36890 0.54620
H19 H 0.66910 0.52390 0.64090
H20 H 0.87680 0.42240 0.66130
H21 H 0.99220 0.00730 0.57100
H22 H 0.83040 0.06110 0.58560
H23 H 0.94770 0.13620 0.55740
H24 H 1.23550 0.07130 0.60920
H25 H 1.23140 0.16580 0.64540
H26 H 1.20390 0.19930 0.59510
H27 H 1.04570 -0.03040 0.65850
H28 H 1.01440 0.07360 0.69120
H29 H 0.87390 0.01570 0.66420
H30 H 0.70040 0.30630 0.72090
H31 H 0.42900 0.45980 0.63910
H32 H 0.47140 0.32970 0.63780
H33 H 0.42890 0.25310 0.71060
H34 H 0.50700 0.16490 0.77480
H35 H 0.56960 0.16490 0.85100
H36 H 0.56390 0.33290 0.89350
H37 H 0.45410 0.50040 0.85980
H38 H 0.39610 0.50360 0.78470
H39 H 0.16820 0.32720 0.72850
H40 H 0.24140 0.45450 0.72220
H41 H 0.22840 0.37450 0.68060
H42 H 0.71770 0.46660 0.76590
H43 H 0.87450 0.44980 0.74060
H44 H 0.76060 0.54750 0.72450
H45 H 0.48040 0.53040 0.56060
H46 H 0.60850 0.62240 0.57500
H47 H 0.62590 0.56520 0.52800
H48 H 0.55200 0.31130 0.56560
H49 H 0.73060 0.28300 0.56190
H50 H 0.64910 0.35260 0.52370
#END
