
#######################################################################
#
#                 Cambridge Crystallographic Data Centre
#                                CCDC
#
#######################################################################
#
# If this CIF has been generated from an entry in the Cambridge
# Structural Database, then it will include bibliographic, chemical,
# crystal, experimental, refinement or atomic coordinate data resulting
# from the CCDC's data processing and validation procedures.
#
#######################################################################

data_CSD_CIF_ZORJOF
_audit_creation_date 1996-11-18
_audit_creation_method CSD-ConQuest-V1
_database_code_CSD ZORJOF
_database_code_depnum_ccdc_archive 'CCDC 1315124'
_chemical_formula_sum 'C10 H11 N3 O6'
_chemical_formula_moiety
;
C10 H11 N3 O6
;
_journal_coden_Cambridge 3
_journal_volume 50
_journal_year 1996
_journal_page_first 29
_journal_name_full 'Acta Chem.Scand. '
loop_
_publ_author_name
"C.P.Butts"
"L.Eberson"
"M.P.Hartshorn"
"W.T.Robinson"
"D.J.Timmerman-Vaughan"
"D.A.W.Young"
_chemical_name_systematic
;
3,4,5-Trimethyl-1-trinitromethylbenzene
;
_chemical_melting_point 364.15
_cell_volume   1205.118
_exptl_crystal_density_diffrn 1.484
_exptl_special_details
;
Melts with decomposition.
Space group not given - assumed to be P21/c

;
_diffrn_ambient_temperature 130
#These two values have been output from a single CSD field.
_refine_ls_R_factor_gt 0.0401
_refine_ls_wR_factor_gt 0.0401
_symmetry_cell_setting monoclinic
_symmetry_space_group_name_H-M 'P 21/c'
_symmetry_Int_Tables_number 14
loop_
_symmetry_equiv_pos_site_id
_symmetry_equiv_pos_as_xyz
1 x,y,z
2 -x,1/2+y,1/2-z
3 -x,-y,-z
4 x,-1/2-y,-1/2+z
_cell_length_a 9.602(2)
_cell_length_b 7.528(2)
_cell_length_c 16.923(3)
_cell_angle_alpha 90
_cell_angle_beta 99.88(3)
_cell_angle_gamma 90
_cell_formula_units_Z 4
loop_
_atom_type_symbol
_atom_type_radius_bond
C 0.68
H 0.23
N 0.68
O 0.68
loop_
_atom_site_label
_atom_site_type_symbol
_atom_site_fract_x
_atom_site_fract_y
_atom_site_fract_z
C1 C 0.7806(3) 0.0139(3) 0.3114(2)
C2 C 0.7085(3) 0.0156(3) 0.2327(2)
C3 C 0.7803(3) 0.0170(3) 0.1693(2)
C4 C 0.9290(3) 0.0142(3) 0.1840(2)
C5 C 1.0015(3) 0.0115(3) 0.2628(2)
C6 C 0.9272(3) 0.0111(3) 0.3259(2)
C7 C 0.6975(3) 0.0075(3) 0.3772(2)
C8 C 0.6980(3) 0.0240(4) 0.0854(2)
C9 C 1.0077(3) 0.0127(4) 0.1148(2)
C10 C 1.1607(3) 0.0084(4) 0.2815(2)
N1 N 0.7872(2) -0.0074(3) 0.4596(1)
N2 N 0.5928(2) -0.1502(3) 0.3649(1)
N3 N 0.6040(2) 0.1715(3) 0.3852(2)
O1 O 0.7886(2) -0.1447(3) 0.4961(1)
O2 O 0.8550(2) 0.1247(3) 0.4818(1)
O3 O 0.6450(2) -0.2932(3) 0.3592(1)
O4 O 0.4688(2) -0.1166(3) 0.3588(1)
O5 O 0.5821(2) 0.2721(3) 0.3292(1)
O6 O 0.5590(2) 0.1828(3) 0.4474(1)
H1 H 0.6080(3) 0.0159(3) 0.2227(2)
H2 H 0.9769(3) 0.0089(3) 0.3795(2)
H3 H 0.7190(14) -0.0818(11) 0.0558(3)
H4 H 0.7247(13) 0.1306(12) 0.0583(4)
H5 H 0.5966(3) 0.0276(22) 0.0874(2)
H6 H 0.9766(13) 0.1129(13) 0.0791(5)
H7 H 0.9887(14) -0.0988(10) 0.0850(6)
H8 H 1.1094(3) 0.0230(22) 0.1349(2)
H9 H 1.1916(3) 0.0045(22) 0.3398(2)
H10 H 1.1982(3) 0.1156(11) 0.2599(9)
H11 H 1.1958(3) -0.0969(12) 0.2571(9)
#END
