
#######################################################################
#
#                 Cambridge Crystallographic Data Centre
#                                CCDC
#
#######################################################################
#
# If this CIF has been generated from an entry in the Cambridge
# Structural Database, then it will include bibliographic, chemical,
# crystal, experimental, refinement or atomic coordinate data resulting
# from the CCDC's data processing and validation procedures.
#
#######################################################################

data_CSD_CIF_ZOSKAT
_audit_creation_date 1996-11-25
_audit_creation_method CSD-ConQuest-V1
_database_code_CSD ZOSKAT
_chemical_formula_sum 'C14 H17 N3 O2'
_chemical_formula_moiety
;
C14 H17 N3 O2
;
_journal_coden_Cambridge 388
_journal_volume 31
_journal_year 1995
_journal_page_first 570
_journal_name_full 'Zh.Org.Khim.(Russ.)(Russ.J.Org.Chem.) '
loop_
_publ_author_name
"A.F.Pozharskii"
"V.V.Kuz'menko"
"G.G.Aleksandrov"
"D.V.Dmitrienko"
_chemical_name_systematic
;
4-Nitro-1,8-bis(dimethylamino)naphthalene
;
_chemical_melting_point 408.15
_cell_volume   1296.873
_exptl_crystal_colour 'cherry-red'
_exptl_special_details
;
Melting point range 408.15-409.15K

;
_diffrn_ambient_temperature ?
_diffrn_special_details
;
The study was carried out at room temperature,in the range 283-303K

;
#These two values have been output from a single CSD field.
_refine_ls_R_factor_gt 0.0334
_refine_ls_wR_factor_gt 0.0334
_symmetry_cell_setting orthorhombic
_symmetry_space_group_name_H-M 'P n a 21'
_symmetry_Int_Tables_number 33
loop_
_symmetry_equiv_pos_site_id
_symmetry_equiv_pos_as_xyz
1 x,y,z
2 -x,-y,1/2+z
3 1/2-x,1/2+y,1/2+z
4 1/2+x,1/2-y,z
_cell_length_a 20.45(3)
_cell_length_b 7.152(1)
_cell_length_c 8.867(1)
_cell_angle_alpha 90
_cell_angle_beta 90
_cell_angle_gamma 90
_cell_formula_units_Z 4
loop_
_atom_type_symbol
_atom_type_radius_bond
C 0.68
H 0.23
N 0.68
O 0.68
loop_
_atom_site_label
_atom_site_type_symbol
_atom_site_fract_x
_atom_site_fract_y
_atom_site_fract_z
O1 O 0.4081(2) 0.3119(6) 0.1503(8)
O2 O 0.4103(2) 0.1656(5) -0.0605(7)
N1 N 0.1119(2) 0.3381(5) -0.0320(6)
N2 N 0.0940(2) 0.1637(5) 0.25520
N3 N 0.3796(2) 0.2372(6) 0.0437(8)
C1 C 0.1746(2) 0.2790(5) -0.0049(7)
C2 C 0.2163(2) 0.2442(7) -0.1252(8)
C3 C 0.2820(3) 0.2214(7) -0.1042(8)
C4 C 0.3098(2) 0.2376(6) 0.0385(8)
C5 C 0.2938(3) 0.2571(6) 0.3166(9)
C6 C 0.2521(3) 0.2500(7) 0.4378(8)
C7 C 0.1856(3) 0.2236(7) 0.4170(8)
C8 C 0.1589(2) 0.2119(6) 0.2758(8)
C9 C 0.1999(2) 0.2499(6) 0.1477(8)
C10 C 0.2702(3) 0.2521(6) 0.1705(8)
C11 C 0.0831(3) 0.3183(9) -0.1779(7)
C12 C 0.0796(3) 0.4750(7) 0.0640(8)
C13 C 0.0776(2) 0.0103(7) 0.154(1)
C14 C 0.0498(3) 0.1831(7) 0.3812(9)
H1 H 0.200(3) 0.252(7) -0.235(5)
H2 H 0.309(2) 0.208(7) -0.195(6)
H3 H 0.339(2) 0.261(6) 0.339(7)
H4 H 0.269(3) 0.259(8) 0.549(5)
H5 H 0.159(2) 0.213(8) 0.510(5)
H6 H 0.095(2) 0.194(6) -0.226(7)
H7 H 0.035(2) 0.349(6) -0.178(6)
H8 H 0.096(2) 0.431(6) -0.235(6)
H9 H 0.109(2) 0.506(7) 0.152(6)
H10 H 0.071(2) 0.588(6) 0.001(5)
H11 H 0.036(2) 0.442(7) 0.094(6)
H12 H 0.107(2) -0.004(6) 0.065(6)
H13 H 0.078(2) -0.115(6) 0.194(6)
H14 H 0.039(2) 0.026(7) 0.104(6)
H15 H 0.053(3) 0.310(6) 0.432(6)
H16? H 0.070(2) 0.191(7) 0.341(6)
H17 H 0.054(3) 0.092(6) 0.458(6)
#END
