
#######################################################################
#
#                 Cambridge Crystallographic Data Centre
#                                CCDC
#
#######################################################################
#
# If this CIF has been generated from an entry in the Cambridge
# Structural Database, then it will include bibliographic, chemical,
# crystal, experimental, refinement or atomic coordinate data resulting
# from the CCDC's data processing and validation procedures.
#
#######################################################################

data_CSD_CIF_ZOSTEG
_audit_creation_date 1996-08-20
_audit_creation_method CSD-ConQuest-V1
_database_code_CSD ZOSTEG
_database_code_depnum_ccdc_archive 'CCDC 1315269'
_chemical_formula_sum 'C15 H13 N1 O2'
_chemical_formula_moiety
;
C15 H13 N1 O2
;
_journal_coden_Cambridge 1489
_journal_volume 257
_journal_year 1994
_journal_page_first 259
_journal_name_full 'Mol.Cryst.Liq.Cryst. '
loop_
_publ_author_name
"A.N.Utienyshev"
"S.M.Aldoshin"
"I.I.Chuev"
"L.O.Atovmyan"
"M.I.Knyazhanskii"
_chemical_name_systematic
;
N-(3-(2-Hydroxyphenyl)prop-2-enylidene)aniline N-oxide
;
_cell_volume   2475.212
_exptl_crystal_colour 'bright yellow'
_exptl_crystal_density_diffrn 1.284
_diffrn_ambient_temperature ?
_diffrn_special_details
;
The study was carried out at room temperature,in the range 283-303K

;
#These two values have been output from a single CSD field.
_refine_ls_R_factor_gt 0.069
_refine_ls_wR_factor_gt 0.069
_symmetry_cell_setting orthorhombic
_symmetry_space_group_name_H-M 'P b n a'
_symmetry_Int_Tables_number 60
loop_
_symmetry_equiv_pos_site_id
_symmetry_equiv_pos_as_xyz
1 x,y,z
2 1/2-x,-y,1/2+z
3 x,1/2-y,-z
4 1/2-x,1/2+y,1/2-z
5 -x,-y,-z
6 -1/2+x,y,-1/2-z
7 -x,-1/2+y,z
8 -1/2+x,-1/2-y,-1/2+z
_cell_length_a 12.760(4)
_cell_length_b 19.784(6)
_cell_length_c 9.805(4)
_cell_angle_alpha 90
_cell_angle_beta 90
_cell_angle_gamma 90
_cell_formula_units_Z 8
loop_
_atom_type_symbol
_atom_type_radius_bond
C 0.68
H 0.23
N 0.68
O 0.68
loop_
_atom_site_label
_atom_site_type_symbol
_atom_site_fract_x
_atom_site_fract_y
_atom_site_fract_z
N1 N 0.2549(3) -0.0794(2) 0.1856(4)
O1 O 0.2774(3) -0.0795(2) 0.0557(3)
O2 O 0.5693(3) 0.0570(2) 0.1143(3)
C1 C 0.3013(4) -0.0401(2) 0.2709(4)
C2 C 0.3855(3) 0.0038(2) 0.2412(4)
C3 C 0.4319(4) 0.0388(2) 0.3419(4)
C4 C 0.5237(3) 0.0821(2) 0.3424(4)
C5 C 0.5487(4) 0.1167(2) 0.4620(5)
C6 C 0.6327(4) 0.1573(2) 0.4756(5)
C7 C 0.6985(4) 0.1634(2) 0.3672(5)
C8 C 0.6783(4) 0.1305(2) 0.2446(5)
C9 C 0.5914(3) 0.0893(2) 0.2315(4)
C10 C 0.1768(3) -0.1278(2) 0.2248(4)
C11 C 0.1737(4) -0.1891(3) 0.1596(5)
C12 C 0.1003(4) -0.2360(3) 0.1922(5)
C13 C 0.0291(4) -0.2234(3) 0.2939(5)
C14 C 0.0320(4) -0.1622(3) 0.3566(5)
C15 C 0.1059(4) -0.1130(2) 0.3273(5)
H1 H 0.270(1) -0.038(1) 0.347(1)
H2 H 0.419(1) 0.003(1) 0.146(1)
H3 H 0.402(1) 0.037(1) 0.439(1)
H4 H 0.505(1) 0.110(1) 0.521(1)
H5 H 0.649(1) 0.189(1) 0.544(1)
H6 H 0.756(1) 0.194(1) 0.386(1)
H7 H 0.720(1) 0.130(1) 0.168(1)
H8 H 0.224(1) -0.189(1) 0.092(1)
H9 H 0.095(1) -0.282(1) 0.151(1)
H10 H -0.022(1) -0.259(1) 0.322(1)
H11 H -0.012(1) -0.153(1) 0.418(1)
H12 H 0.103(1) -0.057(1) 0.365(1)
H13 H 0.626(1) 0.058(1) 0.045(1)
#END
