
#######################################################################
#
#                 Cambridge Crystallographic Data Centre
#                                CCDC
#
#######################################################################
#
# If this CIF has been generated from an entry in the Cambridge
# Structural Database, then it will include bibliographic, chemical,
# crystal, experimental, refinement or atomic coordinate data resulting
# from the CCDC's data processing and validation procedures.
#
#######################################################################

data_CSD_CIF_ZOWDOE
_audit_creation_date 1996-09-23
_audit_creation_method CSD-ConQuest-V1
_database_code_CSD ZOWDOE
_chemical_formula_sum 'C9 H10 N6 O2'
_chemical_formula_moiety
;
C9 H10 N6 O2
;
_journal_coden_Cambridge 151
_journal_volume 39
_journal_year 1996
_journal_page_first 842
_journal_name_full 'J.Med.Chem. '
loop_
_publ_author_name
"J.L.Castro"
"R.G.Ball"
"H.B.Broughton"
"M.G.N.Russell"
"D.Rathbone"
"A.P.Watt"
"R.Baker"
"K.L.Chapman"
"A.E.Fletcher"
"S.Patel"
"A.J.Smith"
"G.R.Marshall"
"W.Ryecroft"
"V.G.Matassa"
_chemical_name_systematic
;
4-Methyl-3-(N-methyl-N-tetrazol-5-ylamino)nitrobenzene
;
_chemical_melting_point 474.15
_cell_volume   1090.551
_exptl_special_details
;
Melting point range 474.15-478.15K
The author has confirmed that the space group is P21/c not P21 as published
;
_diffrn_ambient_temperature ?
_diffrn_special_details
;
The study was carried out at room temperature,in the range 283-303K

;
#These two values have been output from a single CSD field.
_refine_ls_R_factor_gt 0.047
_refine_ls_wR_factor_gt 0.047
_symmetry_cell_setting monoclinic
_symmetry_space_group_name_H-M 'P 21/c'
_symmetry_Int_Tables_number 14
loop_
_symmetry_equiv_pos_site_id
_symmetry_equiv_pos_as_xyz
1 x,y,z
2 -x,1/2+y,1/2-z
3 -x,-y,-z
4 x,-1/2-y,-1/2+z
_cell_length_a 11.634(1)
_cell_length_b 9.738(2)
_cell_length_c 9.749(2)
_cell_angle_alpha 90
_cell_angle_beta 99.11(1)
_cell_angle_gamma 90
_cell_formula_units_Z 4
loop_
_atom_type_symbol
_atom_type_radius_bond
C 0.68
H 0.23
N 0.68
O 0.68
loop_
_atom_site_label
_atom_site_type_symbol
_atom_site_fract_x
_atom_site_fract_y
_atom_site_fract_z
N1 N 0.1122(2) 0.2431(2) 0.8058(2)
N2 N 0.0490(2) 0.3597(3) 0.7705(2)
N3 N 0.0489(2) 0.3924(3) 0.6422(2)
N4 N 0.1156(2) 0.2952(2) 0.5909(2)
C1 C 0.1523(2) 0.2050(3) 0.6919(2)
N5 N 0.2162(2) 0.0924(2) 0.6792(2)
C2 C 0.2753(2) 0.0757(3) 0.5620(2)
C3 C 0.2466(2) -0.0322(3) 0.4699(3)
C4 C 0.3074(2) -0.0440(3) 0.3576(3)
C5 C 0.3933(2) 0.0477(3) 0.3366(3)
C6 C 0.4180(2) 0.1536(3) 0.4299(3)
C7 C 0.3611(2) 0.1699(3) 0.5430(3)
C8 C 0.2455(3) 0.0017(3) 0.7996(3)
C9 C 0.1521(3) -0.1331(3) 0.4853(3)
N6 N 0.5103(2) 0.2516(3) 0.4125(2)
O1 O 0.5649(2) 0.2318(3) 0.3171(2)
O2 O 0.5273(2) 0.3485(2) 0.4912(3)
H1 H 0.28690 -0.11910 0.29340
H2 H 0.43300 0.03670 0.25800
H3 H 0.37870 0.24480 0.60850
H4 H 0.29450 0.04790 0.87350
H5 H 0.17680 -0.02800 0.83350
H6 H 0.28620 -0.07850 0.77560
H7 H 0.10220 -0.09720 0.54630
H8 H 0.10620 -0.15180 0.39770
H9 H 0.18540 -0.21680 0.52400
H10 H 0.10940 0.27930 0.50000
#END
