
#######################################################################
#
#                 Cambridge Crystallographic Data Centre
#                                CCDC
#
#######################################################################
#
# If this CIF has been generated from an entry in the Cambridge
# Structural Database, then it will include bibliographic, chemical,
# crystal, experimental, refinement or atomic coordinate data resulting
# from the CCDC's data processing and validation procedures.
#
#######################################################################

data_CSD_CIF_ZOWDEU
_audit_creation_date 1996-09-23
_audit_creation_method CSD-ConQuest-V1
_database_code_CSD ZOWDEU
_chemical_formula_sum 'C8 H8 N6 O2'
_chemical_formula_moiety
;
C8 H8 N6 O2
;
_journal_coden_Cambridge 151
_journal_volume 39
_journal_year 1996
_journal_page_first 842
_journal_name_full 'J.Med.Chem. '
loop_
_publ_author_name
"J.L.Castro"
"R.G.Ball"
"H.B.Broughton"
"M.G.N.Russell"
"D.Rathbone"
"A.P.Watt"
"R.Baker"
"K.L.Chapman"
"A.E.Fletcher"
"S.Patel"
"A.J.Smith"
"G.R.Marshall"
"W.Ryecroft"
"V.G.Matassa"
_chemical_name_systematic
;
4-Methyl-3-(N-tetrazol-5-ylamino)nitrobenzene
;
_chemical_melting_point 518.15
_cell_volume    474.263
_exptl_special_details
;
Melting point range 518.15-522.15K

;
_diffrn_ambient_temperature ?
_diffrn_special_details
;
The study was carried out at room temperature,in the range 283-303K

;
#These two values have been output from a single CSD field.
_refine_ls_R_factor_gt 0.038
_refine_ls_wR_factor_gt 0.038
_symmetry_cell_setting monoclinic
_symmetry_space_group_name_H-M 'P 21'
_symmetry_Int_Tables_number 4
loop_
_symmetry_equiv_pos_site_id
_symmetry_equiv_pos_as_xyz
1 x,y,z
2 -x,1/2+y,-z
_cell_length_a 6.082(3)
_cell_length_b 4.932(2)
_cell_length_c 15.864(2)
_cell_angle_alpha 90
_cell_angle_beta 94.70(2)
_cell_angle_gamma 90
_cell_formula_units_Z 2
loop_
_atom_type_symbol
_atom_type_radius_bond
C 0.68
H 0.23
N 0.68
O 0.68
loop_
_atom_site_label
_atom_site_type_symbol
_atom_site_fract_x
_atom_site_fract_y
_atom_site_fract_z
O1 O 0.3744(4) 0.50300 0.3959(2)
O2 O 0.6662(4) 0.5184(7) 0.4830(2)
N1 N 0.4182(5) 0.2676(6) 0.1170(2)
N2 N 0.2772(5) 0.3365(7) 0.0488(2)
N3 N 0.1899(5) 0.1266(8) 0.0119(2)
N4 N 0.2746(5) -0.0906(7) 0.0556(2)
N5 N 0.5289(5) -0.1650(7) 0.1749(2)
N6 N 0.5612(5) 0.4281(7) 0.4201(2)
C1 C 0.4152(5) 0.0008(8) 0.1198(2)
C2 C 0.6454(5) -0.0687(8) 0.2507(2)
C3 C 0.8528(5) -0.1744(9) 0.2754(2)
C4 C 0.9616(5) -0.077(1) 0.3511(2)
C5 C 0.8675(6) 0.121(1) 0.3988(2)
C6 C 0.6626(6) 0.2178(8) 0.3716(2)
C7 C 0.5470(5) 0.1234(9) 0.2987(2)
C8 C 0.9601(6) -0.382(1) 0.2238(2)
H1 H 0.536(6) -0.34(1) 0.160(2)
H2 H 1.10000 -0.15000 0.37000
H3 H 0.94000 0.19000 0.45000
H4 H 0.40000 0.19000 0.28000
H5 H 0.92000 -0.56000 0.24000
H6 H 0.91000 -0.36000 0.17000
H7 H 1.11000 -0.36000 0.23000
H8 H 0.24000 -0.28000 0.04000
#END
