
#######################################################################
#
#                 Cambridge Crystallographic Data Centre
#                                CCDC
#
#######################################################################
#
# If this CIF has been generated from an entry in the Cambridge
# Structural Database, then it will include bibliographic, chemical,
# crystal, experimental, refinement or atomic coordinate data resulting
# from the CCDC's data processing and validation procedures.
#
#######################################################################

data_CSD_CIF_ZOYHOM
_audit_creation_date 2015-03-27
_audit_creation_method CSD-ConQuest-V1
_database_code_CSD ZOYHOM
_database_code_depnum_ccdc_archive 'CCDC 1056570'
_chemical_formula_sum 'C23 H24 N4 O8'
_chemical_formula_moiety
;
C23 H24 N4 O8
;
_journal_coden_Cambridge 1220
_journal_volume 21
_journal_year 2015
_journal_page_first 9998
_journal_name_full 'Chem.-Eur.J. '
loop_
_publ_author_name
"Dongdong Cao"
"Jiaxing Zhang"
"Hongyu Wang"
"Gang Zhao"
_chemical_name_systematic
;
Dimethyl 
2-(2-((2,4-dinitrophenyl)hydrazono)-2-phenylethyl)cyclopentane-1,1-dicarboxyla
te
;
_cell_volume   1154.857
_exptl_crystal_colour 'red'
_exptl_crystal_density_diffrn 1.393
_exptl_special_details
;
Absolute configuration

;
_exptl_crystal_description 'column'
_diffrn_ambient_temperature 296
#These two values have been output from a single CSD field.
_refine_ls_R_factor_gt 0.0324
_refine_ls_wR_factor_gt 0.0324
_symmetry_cell_setting monoclinic
_symmetry_space_group_name_H-M 'P 21'
_symmetry_Int_Tables_number 4
loop_
_symmetry_equiv_pos_site_id
_symmetry_equiv_pos_as_xyz
1 x,y,z
2 -x,1/2+y,-z
_cell_length_a 12.185(2)
_cell_length_b 7.1012(14)
_cell_length_c 13.398(3)
_cell_angle_alpha 90
_cell_angle_beta 95.02(3)
_cell_angle_gamma 90
_cell_formula_units_Z 2
loop_
_atom_type_symbol
_atom_type_radius_bond
C 0.68
H 0.23
N 0.68
O 0.68
loop_
_atom_site_label
_atom_site_type_symbol
_atom_site_fract_x
_atom_site_fract_y
_atom_site_fract_z
O1 O 0.5180(2) 0.3787(3) 0.87297(11)
O2 O 0.50739(12) 0.6700(2) 0.81700(9)
O3 O 0.51114(12) 0.6674(2) 0.56951(11)
O4 O 0.65943(10) 0.5670(2) 0.66440(11)
O5 O 0.21267(14) 0.4716(4) 1.11672(11)
O6 O 0.26762(14) 0.4884(5) 0.97088(13)
O7 O -0.15797(15) 0.4457(3) 1.17828(12)
O8 O -0.28339(17) 0.4786(7) 1.06054(17)
N1 N 0.09788(12) 0.5278(2) 0.71179(11)
N2 N 0.12835(13) 0.5035(3) 0.81222(11)
N3 N 0.19406(14) 0.4785(4) 1.02661(12)
N4 N -0.18856(16) 0.4632(3) 1.09032(14)
C1 C 0.36539(14) 0.4224(2) 0.66158(12)
H1 H 0.35870 0.41370 0.58830
C2 C 0.48998(14) 0.4308(2) 0.69584(11)
C3 C 0.52825(17) 0.2247(3) 0.68128(15)
H2 H 0.55860 0.21080 0.61710
H3 H 0.58430 0.18990 0.73390
C4 C 0.42616(19) 0.1007(3) 0.6856(2)
H4 H 0.41170 0.03100 0.62360
H5 H 0.43680 0.01170 0.74050
C5 C 0.33043(17) 0.2328(3) 0.70139(18)
H6 H 0.26320 0.18910 0.66460
H7 H 0.31850 0.24150 0.77190
C6 C 0.29570(14) 0.5912(3) 0.68937(13)
H8 H 0.30370 0.60830 0.76150
H9 H 0.32260 0.70420 0.65890
C7 C 0.17530(13) 0.5647(2) 0.65507(12)
C8 C 0.13955(13) 0.5798(3) 0.54643(12)
C9 C 0.20420(15) 0.6695(3) 0.47963(14)
H10 H 0.27210 0.71990 0.50300
C10 C 0.16870(17) 0.6840(3) 0.37965(14)
H11 H 0.21260 0.74500 0.33630
C11 C 0.06938(18) 0.6097(3) 0.34324(14)
H12 H 0.04590 0.62010 0.27550
C12 C 0.00470(18) 0.5197(3) 0.40747(15)
H13 H -0.06280 0.46900 0.38310
C13 C 0.03927(16) 0.5040(3) 0.50802(14)
H14 H -0.00500 0.44200 0.55060
C14 C 0.05208(15) 0.4918(3) 0.87883(12)
C15 C 0.08074(15) 0.4769(3) 0.98363(13)
C16 C 0.00118(16) 0.4664(3) 1.05100(13)
H15 H 0.02170 0.45610 1.11930
C17 C -0.10699(16) 0.4713(3) 1.01679(14)
C18 C -0.13924(16) 0.4849(3) 0.91463(15)
H16 H -0.21370 0.48730 0.89220
C19 C -0.06165(15) 0.4947(3) 0.84781(13)
H17 H -0.08410 0.50350 0.77980
C20 C 0.50827(14) 0.4865(3) 0.80600(12)
C21 C 0.5177(2) 0.7425(4) 0.91907(17)
H18 H 0.51620 0.87760 0.91750
H19 H 0.58610 0.70070 0.95280
H20 H 0.45760 0.69690 0.95410
C22 C 0.55149(14) 0.5694(3) 0.63502(13)
C23 C 0.7268(2) 0.7017(5) 0.6171(3)
H21 H 0.80230 0.68700 0.64300
H22 H 0.70250 0.82700 0.63080
H23 H 0.72050 0.68080 0.54610
H24 H 0.198(2) 0.512(4) 0.8325(19)
#END
