
#######################################################################
#
#                 Cambridge Crystallographic Data Centre
#                                CCDC
#
#######################################################################
#
# If this CIF has been generated from an entry in the Cambridge
# Structural Database, then it will include bibliographic, chemical,
# crystal, experimental, refinement or atomic coordinate data resulting
# from the CCDC's data processing and validation procedures.
#
#######################################################################

data_CSD_CIF_ZOZZIX
_audit_creation_date 1996-06-14
_audit_creation_method CSD-ConQuest-V1
_database_code_CSD ZOZZIX
_database_code_depnum_ccdc_archive 'CCDC 126468'
_chemical_formula_sum 'C27 H32 N4 O2'
_chemical_formula_moiety
;
C27 H32 N4 O2
;
_journal_coeditor_code "IUCr PA1199"
_journal_coden_Cambridge 591
_journal_volume 52
_journal_year 1996
_journal_page_first 736
_journal_name_full 'Acta Crystallogr.,Sect.C:Cryst.Struct.Commun. '
loop_
_publ_author_name
"M.Pierrot"
"M.Giorgi"
"M.El Messaoudi"
"A.Hasnaoui"
"M.El Aatmani"
"J.P.Lavergne"
_chemical_name_systematic
;
3,12-Dimesityl-6,8-dimethyl-5,10-dioxa-1,2,4,11-tetra-azatricyclo(7.3.1.0^2,6^
)trideca-3,7,11-triene
;
_cell_volume   1207.334
_exptl_crystal_colour 'colorless'
_exptl_crystal_density_diffrn 1.223
_exptl_special_details
;
Isostructural with the 6,8,13-trimethyl analogue

;
_diffrn_ambient_temperature ?
_diffrn_special_details
;
The study was carried out at room temperature,in the range 283-303K

;
#These two values have been output from a single CSD field.
_refine_ls_R_factor_gt 0.041
_refine_ls_wR_factor_gt 0.041
_symmetry_cell_setting triclinic
_symmetry_space_group_name_H-M 'P -1'
_symmetry_Int_Tables_number 2
loop_
_symmetry_equiv_pos_site_id
_symmetry_equiv_pos_as_xyz
1 x,y,z
2 -x,-y,-z
_cell_length_a 10.169(3)
_cell_length_b 8.748(2)
_cell_length_c 15.254(5)
_cell_angle_alpha 104.45(5)
_cell_angle_beta 97.40(5)
_cell_angle_gamma 109.22(5)
_cell_formula_units_Z 2
loop_
_atom_type_symbol
_atom_type_radius_bond
C 0.68
H 0.23
N 0.68
O 0.68
loop_
_atom_site_label
_atom_site_type_symbol
_atom_site_fract_x
_atom_site_fract_y
_atom_site_fract_z
O1 O 0.2462(2) -0.0139(2) 0.5009(1)
O2 O -0.1943(2) -0.2830(2) 0.2469(1)
N1 N 0.1016(2) -0.1713(2) 0.2846(1)
N2 N 0.2111(2) -0.1779(2) 0.3502(1)
N3 N 0.3565(2) 0.0708(2) 0.4608(1)
N4 N -0.1259(2) -0.3819(2) 0.1974(1)
C1 C 0.3323(2) -0.0202(3) 0.3770(2)
C2 C 0.1817(2) -0.1908(3) 0.4409(2)
C3 C 0.2682(3) -0.2839(3) 0.4768(2)
C4 C 0.0279(2) -0.2672(3) 0.4454(2)
C5 C -0.0929(2) -0.2621(3) 0.4035(2)
C6 C -0.2338(3) -0.3680(3) 0.4180(2)
C7 C -0.1092(2) -0.1656(3) 0.3361(2)
C8 C 0.0110(2) -0.3303(3) 0.2222(1)
C9 C 0.0293(2) -0.0586(3) 0.3202(2)
C10 C 0.4165(2) 0.0314(3) 0.3100(2)
C11 C 0.4794(2) -0.0746(3) 0.2630(2)
C12 C 0.4725(2) -0.2365(3) 0.2832(2)
C13 C 0.5519(2) -0.0264(3) 0.1979(2)
C14 C 0.5655(3) 0.1235(3) 0.1774(2)
C15 C 0.6397(3) 0.1703(4) 0.1032(2)
C16 C 0.5065(3) 0.2283(3) 0.2270(3)
C17 C 0.4328(2) 0.1873(3) 0.2935(2)
C18 C 0.3759(3) 0.3124(3) 0.3459(2)
C19 C 0.0787(2) -0.4401(3) 0.1712(2)
C20 C 0.0691(3) -0.5924(3) 0.1880(2)
C21 C -0.0043(3) -0.6504(3) 0.2600(2)
C22 C 0.1313(3) -0.6930(3) 0.1364(2)
C23 C 0.1988(3) -0.6466(3) 0.0700(2)
C24 C 0.2578(4) -0.7642(5) 0.0102(3)
C25 C 0.2057(3) -0.4956(4) 0.0532(2)
C26 C 0.1462(2) -0.3900(3) 0.1034(2)
C27 C 0.1527(3) -0.2311(3) 0.0807(2)
H1 H 0.015(3) -0.328(3) 0.484(2)
H2 H 0.599(3) -0.098(4) 0.166(2)
H3 H 0.514(3) 0.346(4) 0.218(2)
H4 H 0.117(3) -0.806(4) 0.143(2)
H5 H 0.250(3) -0.461(4) 0.002(2)
H6 H 0.363(3) -0.234(4) 0.474(2)
H7 H 0.262(3) -0.272(4) 0.549(2)
H8 H 0.229(3) -0.402(4) 0.433(2)
H9 H -0.222(3) -0.422(4) 0.468(2)
H10 H -0.293(3) -0.305(4) 0.436(2)
H11 H -0.285(3) -0.468(4) 0.364(2)
H12 H -0.174(3) -0.100(3) 0.353(2)
H13 H 0.009(3) -0.006(3) 0.276(2)
H14 H 0.094(3) 0.033(3) 0.380(2)
H15 H 0.502(3) -0.210(3) 0.356(2)
H16 H 0.375(3) -0.323(3) 0.262(2)
H17 H 0.539(3) -0.275(3) 0.258(2)
H18 H 0.703(3) 0.110(4) 0.092(2)
H19 H 0.563(3) 0.152(4) 0.043(2)
H20 H 0.702(3) 0.279(4) 0.127(2)
H21 H 0.381(3) 0.402(4) 0.314(2)
H22 H 0.277(3) 0.266(4) 0.345(2)
H23 H 0.434(3) 0.370(4) 0.416(2)
H24 H -0.074(3) -0.593(4) 0.272(2)
H25 H -0.071(3) -0.761(4) 0.235(2)
H26 H 0.062(3) -0.650(4) 0.316(2)
H27 H 0.287(4) -0.832(5) 0.044(3)
H28 H 0.214(4) -0.799(5) -0.060(3)
H29 H 0.364(4) -0.698(5) 0.023(3)
H30 H 0.149(3) -0.242(4) 0.018(2)
H31 H 0.057(3) -0.205(4) 0.083(2)
H32 H 0.230(3) -0.134(3) 0.114(2)
#END
