
#######################################################################
#
#                 Cambridge Crystallographic Data Centre
#                                CCDC
#
#######################################################################
#
# If this CIF has been generated from an entry in the Cambridge
# Structural Database, then it will include bibliographic, chemical,
# crystal, experimental, refinement or atomic coordinate data resulting
# from the CCDC's data processing and validation procedures.
#
#######################################################################

data_CSD_CIF_ZUDGOU
_audit_creation_date 1996-09-23
_audit_creation_method CSD-ConQuest-V1
_database_code_CSD ZUDGOU
_database_code_depnum_ccdc_archive 'CCDC 1316039'
_chemical_formula_sum 'C9 H10 N4 O9'
_chemical_formula_moiety
;
C9 H10 N4 O9
;
_journal_coden_Cambridge 3
_journal_volume 50
_journal_year 1996
_journal_page_first 122
_journal_name_full 'Acta Chem.Scand. '
loop_
_publ_author_name
"C.P.Butts"
"L.Eberson"
"M.P.Hartshorn"
"W.T.Robinson"
_chemical_name_systematic
;
1-Methoxy-4-methyl-3-nitro-6-trinitromethylcyclohexa-1,4-diene
;
_chemical_melting_point 331.15
_cell_volume   1297.477
_exptl_crystal_colour 'colorless'
_exptl_crystal_density_diffrn 1.629
_exptl_special_details
;
Melts with decomposition.

;
_diffrn_ambient_temperature 130
#These two values have been output from a single CSD field.
_refine_ls_R_factor_gt 0.028
_refine_ls_wR_factor_gt 0.028
_symmetry_cell_setting orthorhombic
_symmetry_space_group_name_H-M 'P 21 21 21'
_symmetry_Int_Tables_number 19
loop_
_symmetry_equiv_pos_site_id
_symmetry_equiv_pos_as_xyz
1 x,y,z
2 1/2-x,-y,1/2+z
3 1/2+x,1/2-y,-z
4 -x,1/2+y,1/2-z
_cell_length_a 6.786(1)
_cell_length_b 11.817(5)
_cell_length_c 16.180(2)
_cell_angle_alpha 90
_cell_angle_beta 90
_cell_angle_gamma 90
_cell_formula_units_Z 4
loop_
_atom_type_symbol
_atom_type_radius_bond
C 0.68
H 0.23
N 0.68
O 0.68
loop_
_atom_site_label
_atom_site_type_symbol
_atom_site_fract_x
_atom_site_fract_y
_atom_site_fract_z
O1 O 0.1476(2) 0.9513(1) 0.9488(1)
O2 O 0.0147(3) 1.3476(1) 1.1427(1)
O3 O 0.2879(3) 1.2569(1) 1.1262(1)
O4 O 0.6933(3) 0.8312(1) 1.1478(1)
O5 O 0.4038(3) 0.7841(1) 1.1937(1)
O6 O 0.6227(3) 0.9090(1) 0.9654(1)
O7 O 0.4161(3) 0.7730(1) 0.9924(1)
O8 O 0.5723(2) 1.0531(1) 1.1711(1)
O9 O 0.5270(2) 1.0972(1) 1.0415(1)
N1 N 0.1095(3) 1.2616(1) 1.1295(1)
N2 N 0.5139(3) 0.8378(1) 1.1501(1)
N3 N 0.4938(3) 0.8644(1) 1.0055(1)
N4 N 0.5209(3) 1.0330(1) 1.1003(1)
C1 C 0.1173(3) 1.0042(2) 1.0225(1)
C2 C 0.0291(3) 1.1028(2) 1.0339(1)
C3 C -0.0071(3) 1.1504(2) 1.1182(1)
C4 C 0.0468(3) 1.0738(2) 1.1888(1)
C5 C 0.1357(3) 0.9754(2) 1.1760(1)
C6 C 0.1970(3) 0.9315(2) 1.0919(1)
C7 C 0.0634(3) 1.0049(2) 0.8771(1)
C8 C 0.4229(3) 0.9198(2) 1.0863(1)
C9 C -0.0131(3) 1.1132(2) 1.2733(1)
H1 H -0.0128(3) 1.1447(2) 0.9869(1)
H2 H -0.1507(3) 1.1685(2) 1.1229(1)
H3 H 0.1628(3) 0.9293(2) 1.2227(1)
H4 H 0.1394(3) 0.8542(2) 1.0853(1)
H5 H 0.0881(18) 0.9580(6) 0.8282(2)
H6 H 0.0127(16) 1.0795(5) 0.8693(5)
H7 H -0.0790(5) 1.0137(11) 0.8849(4)
H8 H -0.1551(5) 1.1282(11) 1.2741(3)
H9 H 0.0585(15) 1.1827(7) 1.2871(4)
H10 H 0.0183(19) 1.0545(5) 1.3140(2)
#END
