
#######################################################################
#
#                 Cambridge Crystallographic Data Centre
#                                CCDC
#
#######################################################################
#
# If this CIF has been generated from an entry in the Cambridge
# Structural Database, then it will include bibliographic, chemical,
# crystal, experimental, refinement or atomic coordinate data resulting
# from the CCDC's data processing and validation procedures.
#
#######################################################################

data_CSD_CIF_ZUGPOJ
_audit_creation_date 1996-06-26
_audit_creation_method CSD-ConQuest-V1
_database_code_CSD ZUGPOJ
_database_code_depnum_ccdc_archive 'CCDC 131542'
_chemical_formula_sum 'C7 H3 N3 O4'
_chemical_formula_moiety
;
C7 H3 N3 O4
;
_journal_coeditor_code "IUCr CR0483"
_journal_coden_Cambridge 622
_journal_volume 52
_journal_year 1996
_journal_page_first 344
_journal_name_full 'Acta Crystallogr.,Sect.B:Struct.Sci. '
loop_
_publ_author_name
"D.Britton"
"C.J.Cramer"
_chemical_name_systematic
;
2,6-Dinitrobenzonitrile
;
_cell_volume    772.848
_exptl_crystal_colour 'yellow'
_exptl_crystal_density_diffrn 1.66
_diffrn_ambient_temperature ?
_diffrn_special_details
;
The study was carried out at room temperature,in the range 283-303K

;
#These two values have been output from a single CSD field.
_refine_ls_R_factor_gt 0.065
_refine_ls_wR_factor_gt 0.065
_symmetry_cell_setting orthorhombic
_symmetry_space_group_name_H-M 'P b c n'
_symmetry_Int_Tables_number 60
loop_
_symmetry_equiv_pos_site_id
_symmetry_equiv_pos_as_xyz
1 x,y,z
2 1/2-x,1/2-y,1/2+z
3 1/2+x,1/2-y,-z
4 -x,y,1/2-z
5 -x,-y,-z
6 -1/2+x,-1/2+y,-1/2-z
7 -1/2-x,-1/2+y,z
8 x,-y,-1/2+z
_cell_length_a 13.081(6)
_cell_length_b 9.027(4)
_cell_length_c 6.545(3)
_cell_angle_alpha 90
_cell_angle_beta 90
_cell_angle_gamma 90
_cell_formula_units_Z 4
loop_
_atom_type_symbol
_atom_type_radius_bond
C 0.68
H 0.23
N 0.68
O 0.68
loop_
_atom_site_label
_atom_site_type_symbol
_atom_site_fract_x
_atom_site_fract_y
_atom_site_fract_z
O1 O 0.3163(1) 0.0250(1) 0.0799(2)
O2 O 0.2360(1) 0.1952(1) 0.2460(2)
N1 N 0.50000 -0.1532(2) 0.25000
N2 N 0.3137(1) 0.1392(1) 0.1797(2)
C1 C 0.50000 0.1330(2) 0.25000
C2 C 0.4108(1) 0.2149(1) 0.2206(2)
C3 C 0.4099(1) 0.3676(2) 0.2238(3)
C4 C 0.50000 0.4434(3) 0.25000
C5 C 0.50000 -0.0277(2) 0.25000
H1 H 0.347(1) 0.412(2) 0.203(3)
H2 H 0.50000 0.543(3) 0.25000
C2C C 0.5892(1) 0.2149(1) 0.2794(2)
N2C N 0.6863(1) 0.1392(1) 0.3203(2)
O1C O 0.6837(1) 0.0250(1) 0.4201(2)
O2C O 0.7640(1) 0.1952(1) 0.2540(2)
C3C C 0.5901(1) 0.3676(2) 0.2762(3)
H1C H 0.653(1) 0.412(2) 0.297(3)
#END
