
#######################################################################
#
#                 Cambridge Crystallographic Data Centre
#                                CCDC
#
#######################################################################
#
# If this CIF has been generated from an entry in the Cambridge
# Structural Database, then it will include bibliographic, chemical,
# crystal, experimental, refinement or atomic coordinate data resulting
# from the CCDC's data processing and validation procedures.
#
#######################################################################

data_CSD_CIF_ZUGXUW
_audit_creation_date 2015-04-01
_audit_creation_method CSD-ConQuest-V1
_database_code_CSD ZUGXUW
_database_code_depnum_ccdc_archive 'CCDC 927030'
_chemical_formula_sum 'C16 H11 N1 O3'
_chemical_formula_moiety
;
C16 H11 N1 O3
;
_journal_coden_Cambridge 902
_journal_volume 104
_journal_year 2015
_journal_page_first 85
_journal_name_full 'Bioelectrochemistry '
loop_
_publ_author_name
"M.Shabbir"
"Z.Akhter"
"I.Ahmad"
"S.Ahmed"
"H.Ismail"
"B.Mirza"
"V.Mckee"
"M.Bolte"
_chemical_name_systematic
;
2-naphthyl 4-nitrophenyl ether
;
_cell_volume   2479.377
_exptl_crystal_colour 'pink'
_exptl_crystal_density_diffrn 1.421
_exptl_crystal_description 'block'
_diffrn_ambient_temperature 150
#These two values have been output from a single CSD field.
_refine_ls_R_factor_gt 0.0378
_refine_ls_wR_factor_gt 0.0378
_symmetry_cell_setting orthorhombic
_symmetry_space_group_name_H-M 'P b c a'
_symmetry_Int_Tables_number 61
loop_
_symmetry_equiv_pos_site_id
_symmetry_equiv_pos_as_xyz
1 x,y,z
2 1/2-x,-y,1/2+z
3 -x,1/2+y,1/2-z
4 1/2+x,1/2-y,-z
5 -x,-y,-z
6 -1/2+x,y,-1/2-z
7 x,-1/2-y,-1/2+z
8 -1/2-x,-1/2+y,z
_cell_length_a 12.4521(10)
_cell_length_b 7.8391(7)
_cell_length_c 25.400(2)
_cell_angle_alpha 90
_cell_angle_beta 90
_cell_angle_gamma 90
_cell_formula_units_Z 8
loop_
_atom_type_symbol
_atom_type_radius_bond
C 0.68
H 0.23
N 0.68
O 0.68
loop_
_atom_site_label
_atom_site_type_symbol
_atom_site_fract_x
_atom_site_fract_y
_atom_site_fract_z
O1 O 0.81871(6) 0.15201(12) 0.44653(3)
C1 C 0.92504(9) 0.11412(15) 0.43752(4)
C2 C 0.95760(9) -0.00660(15) 0.40065(5)
H1 H 0.90600 -0.06490 0.37980
C3 C 1.06614(10) -0.04097(15) 0.39468(5)
H2 H 1.09010 -0.12180 0.36940
C4 C 1.13900(9) 0.04455(15) 0.42623(5)
N1 N 1.25370(8) 0.01334(14) 0.41849(4)
O2 O 1.28147(8) -0.07905(14) 0.38183(4)
O3 O 1.31759(7) 0.08066(14) 0.44883(4)
C5 C 1.10727(9) 0.16056(15) 0.46430(5)
H3 H 1.15890 0.21470 0.48620
C6 C 0.99899(9) 0.19623(15) 0.46985(4)
H4 H 0.97540 0.27600 0.49550
C7 C 0.74463(9) 0.13281(15) 0.40575(4)
C8 C 0.76468(9) 0.18622(15) 0.35563(5)
H5 H 0.83170 0.23730 0.34710
C9 C 0.68503(9) 0.16518(15) 0.31626(5)
C10 C 0.70401(11) 0.20943(17) 0.26294(5)
H6 H 0.77080 0.25860 0.25310
C11 C 0.62672(12) 0.18165(19) 0.22567(5)
H7 H 0.64100 0.20880 0.18990
C12 C 0.52616(12) 0.1132(2) 0.23981(6)
H8 H 0.47310 0.09500 0.21350
C13 C 0.50428(11) 0.07277(18) 0.29099(5)
H9 H 0.43550 0.02950 0.30020
C14 C 0.58356(9) 0.09491(15) 0.33057(5)
C15 C 0.56550(9) 0.04678(15) 0.38355(5)
H10 H 0.49750 0.00260 0.39360
C16 C 0.64462(9) 0.06305(15) 0.42045(5)
H11 H 0.63240 0.02770 0.45570
#END
