
#######################################################################
#
#                 Cambridge Crystallographic Data Centre
#                                CCDC
#
#######################################################################
#
# If this CIF has been generated from an entry in the Cambridge
# Structural Database, then it will include bibliographic, chemical,
# crystal, experimental, refinement or atomic coordinate data resulting
# from the CCDC's data processing and validation procedures.
#
#######################################################################

data_CSD_CIF_ZUHQOI
_audit_creation_date 1996-06-26
_audit_creation_method CSD-ConQuest-V1
_database_code_CSD ZUHQOI
_database_code_depnum_ccdc_archive 'CCDC 126537'
_chemical_formula_sum 'C7 H10 N4 O5'
_chemical_formula_moiety
;
C7 H10 N4 O5
;
_journal_coeditor_code "IUCr FG1098"
_journal_coden_Cambridge 591
_journal_volume 52
_journal_year 1996
_journal_page_first 993
_journal_name_full 'Acta Crystallogr.,Sect.C:Cryst.Struct.Commun. '
loop_
_publ_author_name
"J.R.Deschamps"
"C.George"
"R.D.Gilardi"
"J.L.Gagnon"
"W.W.Zajac Junior"
_chemical_name_systematic
;
cis-1,5-Dimethyl-2,4-dinitro-2,4-diazabicyclo(3,2.0)heptan-3-one
;
_chemical_melting_point 473
_cell_volume    959.874
_exptl_crystal_colour 'colorless'
_exptl_crystal_density_diffrn 1.593
_exptl_special_details
;
Melting point range 473-475K

;
_diffrn_ambient_temperature ?
_diffrn_special_details
;
The study was carried out at room temperature,in the range 283-303K

;
#These two values have been output from a single CSD field.
_refine_ls_R_factor_gt 0.0333
_refine_ls_wR_factor_gt 0.0333
_symmetry_cell_setting orthorhombic
_symmetry_space_group_name_H-M 'P 21 21 21'
_symmetry_Int_Tables_number 19
loop_
_symmetry_equiv_pos_site_id
_symmetry_equiv_pos_as_xyz
1 x,y,z
2 1/2-x,-y,1/2+z
3 1/2+x,1/2-y,-z
4 -x,1/2+y,1/2-z
_cell_length_a 5.934(2)
_cell_length_b 9.237(2)
_cell_length_c 17.512(5)
_cell_angle_alpha 90
_cell_angle_beta 90
_cell_angle_gamma 90
_cell_formula_units_Z 4
loop_
_atom_type_symbol
_atom_type_radius_bond
C 0.68
H 0.23
N 0.68
O 0.68
loop_
_atom_site_label
_atom_site_type_symbol
_atom_site_fract_x
_atom_site_fract_y
_atom_site_fract_z
C1 C -0.3134(4) 0.4052(3) 0.16664(14)
C2 C -0.2248(6) 0.4260(3) 0.24757(14)
H1 H -0.06400 0.43690 0.24624
H2 H -0.26320 0.34300 0.27793
H3 H -0.29150 0.51100 0.26954
N1 N -0.1702(4) 0.3061(2) 0.12258(12)
N2 N -0.1665(5) 0.1586(3) 0.14015(15)
O1 O -0.0449(5) 0.0807(3) 0.10335(15)
O2 O -0.2830(4) 0.1224(2) 0.19406(13)
C3 C -0.1003(4) 0.3559(3) 0.05025(15)
O3 O 0.0071(4) 0.2939(2) 0.00368(12)
N3 N -0.1801(4) 0.4984(2) 0.04900(12)
N4 N -0.1875(5) 0.5771(3) -0.02011(13)
O4 O -0.0622(5) 0.5412(3) -0.07003(12)
O5 O -0.3201(5) 0.6775(2) -0.02069(13)
C4 C -0.3203(5) 0.5427(3) 0.11386(14)
C5 C -0.2430(7) 0.6844(3) 0.1475(2)
H4 H -0.08160 0.68480 0.15130
H5 H -0.30720 0.69610 0.19740
H6 H -0.29090 0.76260 0.11530
C6 C -0.5750(5) 0.5180(3) 0.1025(2)
H7 H -0.66720 0.59650 0.12190
H8 H -0.61560 0.49490 0.05030
C7 C -0.5696(5) 0.3853(3) 0.1553(2)
H9 H -0.60930 0.29560 0.12980
H10 H -0.65640 0.39760 0.20170
#END
