
#######################################################################
#
#                 Cambridge Crystallographic Data Centre
#                                CCDC
#
#######################################################################
#
# If this CIF has been generated from an entry in the Cambridge
# Structural Database, then it will include bibliographic, chemical,
# crystal, experimental, refinement or atomic coordinate data resulting
# from the CCDC's data processing and validation procedures.
#
#######################################################################

data_CSD_CIF_ZUHQUO
_audit_creation_date 1996-06-26
_audit_creation_method CSD-ConQuest-V1
_database_code_CSD ZUHQUO
_database_code_depnum_ccdc_archive 'CCDC 126538'
_chemical_formula_sum 'C6 H8 N4 O5'
_chemical_formula_moiety
;
C6 H8 N4 O5
;
_journal_coeditor_code "IUCr FG1098"
_journal_coden_Cambridge 591
_journal_volume 52
_journal_year 1996
_journal_page_first 993
_journal_name_full 'Acta Crystallogr.,Sect.C:Cryst.Struct.Commun. '
loop_
_publ_author_name
"J.R.Deschamps"
"C.George"
"R.D.Gilardi"
"J.L.Gagnon"
"W.W.Zajac Junior"
_chemical_name_systematic
;
cis-1,5-Dimethyl-2,4-dinitro-2,4-diazabicyclo(3,1.0)hexan-3-one
;
_chemical_melting_point 513
_cell_volume    911.669
_exptl_crystal_colour 'colorless'
_exptl_crystal_density_diffrn 1.575
_diffrn_ambient_temperature ?
_diffrn_special_details
;
The study was carried out at room temperature,in the range 283-303K

;
#These two values have been output from a single CSD field.
_refine_ls_R_factor_gt 0.0547
_refine_ls_wR_factor_gt 0.0547
_symmetry_cell_setting monoclinic
_symmetry_space_group_name_H-M 'P 21/c'
_symmetry_Int_Tables_number 14
loop_
_symmetry_equiv_pos_site_id
_symmetry_equiv_pos_as_xyz
1 x,y,z
2 -x,1/2+y,1/2-z
3 -x,-y,-z
4 x,-1/2-y,-1/2+z
_cell_length_a 7.306(1)
_cell_length_b 10.830(2)
_cell_length_c 11.525(2)
_cell_angle_alpha 90
_cell_angle_beta 91.30(2)
_cell_angle_gamma 90
_cell_formula_units_Z 4
loop_
_atom_type_symbol
_atom_type_radius_bond
C 0.68
H 0.23
N 0.68
O 0.68
loop_
_atom_site_label
_atom_site_type_symbol
_atom_site_fract_x
_atom_site_fract_y
_atom_site_fract_z
C1 C 0.7650(4) 0.2613(3) 0.9270(3)
C2 C 0.8368(5) 0.3875(4) 0.8975(4)
H1 H 0.74170 0.43470 0.85950
H2 H 0.93860 0.37950 0.84680
H3 H 0.87590 0.42890 0.96740
N1 N 0.5676(4) 0.2505(3) 0.9352(3)
N2 N 0.4702(5) 0.3219(3) 1.0147(3)
O1 O 0.5631(4) 0.3823(3) 1.0819(3)
O2 O 0.3043(4) 0.3205(3) 1.0058(3)
C3 C 0.4966(5) 0.1355(3) 0.8996(3)
O3 O 0.3492(3) 0.0934(3) 0.9163(2)
N3 N 0.6466(4) 0.0810(3) 0.8447(3)
N4 N 0.6488(5) -0.0473(3) 0.8245(3)
O4 O 0.5023(4) -0.1002(3) 0.8158(3)
O5 O 0.7999(4) -0.0925(3) 0.8167(3)
C4 C 0.8185(5) 0.1468(3) 0.8617(3)
C5 C 0.9476(5) 0.1506(4) 0.7617(4)
H4 H 0.87980 0.13840 0.69020
H5 H 1.03730 0.08640 0.77090
H6 H 1.00780 0.22930 0.76020
C6 C 0.8759(5) 0.1623(3) 0.9871(3)
H7 H 0.81540 0.11170 1.04410
H8 H 1.00390 0.17950 1.00450
#END
