
#######################################################################
#
#                 Cambridge Crystallographic Data Centre
#                                CCDC
#
#######################################################################
#
# If this CIF has been generated from an entry in the Cambridge
# Structural Database, then it will include bibliographic, chemical,
# crystal, experimental, refinement or atomic coordinate data resulting
# from the CCDC's data processing and validation procedures.
#
#######################################################################

data_CSD_CIF_ZUHRID02
_audit_creation_date 2004-05-06
_audit_creation_method CSD-ConQuest-V1
_database_code_CSD ZUHRID02
_chemical_formula_sum 'C11 H14 N2 O3'
_chemical_formula_moiety
;
C11 H14 N2 O3
;
_journal_coden_Cambridge 1278
_journal_volume 104
_journal_year 2000
_journal_page_first 10191
_journal_name_full 'J.Phys.Chem.B '
loop_
_publ_author_name
"S.Sharma"
"T.P.Radhakrishnan"
_chemical_name_systematic
;
4-(4-Hydroxypiperidinyl)nitrobenzene
;
_cell_volume   1053.774
_exptl_crystal_colour 'yellow'
_exptl_crystal_density_diffrn 1.401
_exptl_special_details
;
centrosymmetric polymorph

;
_exptl_crystal_description 'needle'
_exptl_crystal_preparation 'chloroform/toluene'
_diffrn_ambient_temperature 293
#These two values have been output from a single CSD field.
_refine_ls_R_factor_gt 0.0444
_refine_ls_wR_factor_gt 0.0444
_symmetry_cell_setting monoclinic
_symmetry_space_group_name_H-M 'P 21/c'
_symmetry_Int_Tables_number 14
loop_
_symmetry_equiv_pos_site_id
_symmetry_equiv_pos_as_xyz
1 x,y,z
2 -x,1/2+y,1/2-z
3 -x,-y,-z
4 x,-1/2-y,-1/2+z
_cell_length_a 4.8693(11)
_cell_length_b 10.8070(16)
_cell_length_c 20.143(2)
_cell_angle_alpha 90
_cell_angle_beta 96.201(12)
_cell_angle_gamma 90
_cell_formula_units_Z 4
loop_
_atom_type_symbol
_atom_type_radius_bond
C 0.68
H 0.23
N 0.68
O 0.68
loop_
_atom_site_label
_atom_site_type_symbol
_atom_site_fract_x
_atom_site_fract_y
_atom_site_fract_z
C1 C -0.7358(5) 0.2594(2) -0.0742(1)
C2 C -0.6866(5) 0.3445(2) -0.0209(1)
C3 C -0.4782(5) 0.3264(2) 0.0297(1)
C4 C -0.3115(5) 0.2233(2) 0.0293(1)
C5 C -0.3576(5) 0.1365(2) -0.0212(1)
C6 C -0.5650(5) 0.1534(2) -0.0715(1)
N1 N -0.0867(4) 0.2069(2) 0.0807(1)
O1 O 0.0469(4) 0.1092(2) 0.0821(1)
O2 O -0.0315(4) 0.2901(2) 0.1217(1)
N2 N -0.9382(4) 0.2783(2) -0.1253(1)
C7 C -1.0810(6) 0.3956(2) -0.1378(1)
C8 C -1.0081(6) 0.4519(2) -0.2026(1)
C9 C -1.0745(5) 0.3648(2) -0.2601(1)
C10 C -0.9379(5) 0.2409(2) -0.2453(1)
C11 C -1.0096(6) 0.1896(2) -0.1791(1)
O3 O -0.9878(4) 0.4183(2) -0.3189(1)
H1 H -1.1150(6) 0.4010(3) -0.3517(15)
H2 H -0.79800 0.41420 -0.02010
H3 H -0.44950 0.38360 0.06430
H4 H -0.24670 0.06640 -0.02080
H5 H -0.59460 0.09380 -0.10490
H6 H -1.02870 0.45200 -0.10110
H7 H -1.27890 0.38240 -0.14040
H8 H -1.11050 0.52820 -0.21120
H9 H -0.81270 0.47160 -0.19840
H10 H -1.27510 0.35260 -0.26690
H11 H -0.72920 0.25010 -0.24380
H12 H -0.99810 0.18320 -0.28080
H13 H -1.20570 0.17160 -0.18220
H14 H -0.90970 0.11300 -0.16920
#END
