
#######################################################################
#
#                 Cambridge Crystallographic Data Centre
#                                CCDC
#
#######################################################################
#
# If this CIF has been generated from an entry in the Cambridge
# Structural Database, then it will include bibliographic, chemical,
# crystal, experimental, refinement or atomic coordinate data resulting
# from the CCDC's data processing and validation procedures.
#
#######################################################################

data_CSD_CIF_ZUHXAB
_audit_creation_date 1996-06-26
_audit_creation_method CSD-ConQuest-V1
_database_code_CSD ZUHXAB
_database_code_depnum_ccdc_archive 'CCDC 126546'
_chemical_formula_sum 'C17 H16 N8 O8'
_chemical_formula_moiety
;
C17 H16 N8 O8
;
_journal_coeditor_code "IUCr HA1101"
_journal_coden_Cambridge 591
_journal_volume 52
_journal_year 1996
_journal_page_first 1054
_journal_name_full 'Acta Crystallogr.,Sect.C:Cryst.Struct.Commun. '
loop_
_publ_author_name
"S.M.Naidu"
"M.Krishnaiah"
"K.Sivakumar"
"R.P.Sharma"
_chemical_name_systematic
;
2,4-Pentanedione bis(2,4-dinitrophenylhydrazone)
;
_cell_volume    995.650
_exptl_crystal_colour 'golden yellow'
_exptl_crystal_density_diffrn 1.544
_exptl_special_details
;
P-1 polymorph

;
_diffrn_ambient_temperature ?
_diffrn_special_details
;
The study was carried out at room temperature,in the range 283-303K

;
#These two values have been output from a single CSD field.
_refine_ls_R_factor_gt 0.06
_refine_ls_wR_factor_gt 0.06
_symmetry_cell_setting triclinic
_symmetry_space_group_name_H-M 'P -1'
_symmetry_Int_Tables_number 2
loop_
_symmetry_equiv_pos_site_id
_symmetry_equiv_pos_as_xyz
1 x,y,z
2 -x,-y,-z
_cell_length_a 4.987(5)
_cell_length_b 9.998(3)
_cell_length_c 20.567(1)
_cell_angle_alpha 101.81(2)
_cell_angle_beta 94.21(2)
_cell_angle_gamma 94.95(2)
_cell_formula_units_Z 2
loop_
_atom_type_symbol
_atom_type_radius_bond
C 0.68
H 0.23
N 0.68
O 0.68
loop_
_atom_site_label
_atom_site_type_symbol
_atom_site_fract_x
_atom_site_fract_y
_atom_site_fract_z
O1 O 1.1648(9) -0.5023(4) 0.7722(2)
O2 O 1.4768(11) -0.5819(5) 0.8242(2)
O3 O 1.8637(8) -0.3699(4) 1.0406(2)
O4 O 1.7557(10) -0.1703(5) 1.0863(2)
O5 O -0.4411(8) 0.1461(4) 0.4390(2)
O6 O -0.1558(9) 0.3050(5) 0.4208(2)
O7 O 0.6012(6) 0.4879(4) 0.5751(2)
O8 O 0.6894(7) 0.4146(3) 0.6634(2)
N1 N 1.3213(10) -0.4968(4) 0.8209(2)
N2 N 1.7268(9) -0.2743(5) 1.0415(2)
N3 N 0.9680(8) -0.2767(4) 0.8269(2)
N4 N 0.7964(7) -0.1740(4) 0.8339(2)
N5 N 0.3691(7) 0.0788(3) 0.7098(2)
N6 N 0.4243(8) 0.1892(4) 0.6812(2)
N7 N -0.2327(9) 0.2244(5) 0.4538(2)
N8 N 0.5473(8) 0.4099(4) 0.6112(2)
C1 C 1.3221(9) -0.3849(4) 0.8788(2)
C2 C 1.5093(10) -0.3822(5) 0.9320(2)
C3 C 1.5216(9) -0.2780(5) 0.9868(2)
C4 C 1.3523(10) -0.1749(5) 0.9902(3)
C5 C 1.1707(10) -0.1757(5) 0.9376(2)
C6 C 1.1448(8) -0.2807(4) 0.8788(2)
C7 C 0.6648(9) -0.1597(4) 0.7802(2)
C8 C 0.6856(13) -0.2381(5) 0.7115(3)
C9 C 0.4682(12) -0.0524(6) 0.7895(2)
C10 C 0.5391(8) 0.0658(4) 0.7580(2)
C11 C 0.7931(9) 0.1562(5) 0.7843(2)
C12 C 0.2613(8) 0.2025(4) 0.6276(2)
C13 C 0.0291(9) 0.1101(4) 0.6045(2)
C14 C -0.1304(10) 0.1195(5) 0.5495(2)
C15 C -0.0655(9) 0.2204(4) 0.5146(2)
C16 C 0.1552(9) 0.3138(5) 0.5351(2)
C17 C 0.3162(9) 0.3076(4) 0.5918(2)
H1 H 0.968(10) -0.341(5) 0.791(2)
H2 H 0.578(11) 0.244(5) 0.695(2)
H3 H 1.611(9) -0.449(4) 0.926(2)
H4 H 1.374(9) -0.107(5) 1.029(2)
H5 H 1.043(10) -0.106(5) 0.941(2)
H6 H 0.554(9) -0.204(5) 0.675(2)
H7 H 0.640(9) -0.346(5) 0.707(2)
H8 H 0.896(9) -0.220(5) 0.698(2)
H9 H 0.305(9) -0.095(4) 0.773(2)
H10 H 0.456(10) -0.019(5) 0.836(2)
H11 H 0.896(9) 0.119(5) 0.824(2)
H12 H 0.750(9) 0.260(5) 0.803(2)
H13 H 0.929(9) 0.156(5) 0.745(2)
H14 H -0.039(8) 0.042(4) 0.628(2)
H15 H -0.289(9) 0.056(4) 0.537(2)
H16 H 0.191(8) 0.384(4) 0.515(2)
#END
