
#######################################################################
#
#                 Cambridge Crystallographic Data Centre
#                                CCDC
#
#######################################################################
#
# If this CIF has been generated from an entry in the Cambridge
# Structural Database, then it will include bibliographic, chemical,
# crystal, experimental, refinement or atomic coordinate data resulting
# from the CCDC's data processing and validation procedures.
#
#######################################################################

data_CSD_CIF_ZUKMAT
_audit_creation_date 1996-10-04
_audit_creation_method CSD-ConQuest-V1
_database_code_CSD ZUKMAT
_chemical_formula_sum 'C25 H39 N1 O14'
_chemical_formula_moiety
;
C25 H39 N1 O14
;
_journal_coden_Cambridge 35
_journal_volume 61
_journal_year 1996
_journal_page_first 1880
_journal_name_full 'J.Org.Chem. '
loop_
_publ_author_name
"M.Avalos"
"R.Babiano"
"P.Cintas"
"F.J.Higes"
"J.L.Jimenez"
"J.C.Palacios"
"M.A.Silva"
_chemical_name_systematic
;
(2R,4R,5S,7S)-2,7-Diethoxy-5-(1',2',3',4',5'-penta-O-acetyl-D-galacto-pentitol
-1-yl)perhydroisoxazolo(2,3-b)(1,2)oxazine
;
_chemical_melting_point 389.15
_cell_volume    772.162
_exptl_crystal_colour 'colorless'
_exptl_crystal_density_diffrn 1.242
_diffrn_ambient_temperature ?
_diffrn_special_details
;
The study was carried out at room temperature,in the range 283-303K

;
#These two values have been output from a single CSD field.
_refine_ls_R_factor_gt 0.0638
_refine_ls_wR_factor_gt 0.0638
_symmetry_cell_setting triclinic
_symmetry_space_group_name_H-M 'P 1'
_symmetry_Int_Tables_number 1
loop_
_symmetry_equiv_pos_site_id
_symmetry_equiv_pos_as_xyz
1 x,y,z
_cell_length_a 5.769(2)
_cell_length_b 9.956(2)
_cell_length_c 14.280(2)
_cell_angle_alpha 92.67(2)
_cell_angle_beta 99.98(2)
_cell_angle_gamma 106.11(2)
_cell_formula_units_Z 1
loop_
_atom_type_symbol
_atom_type_radius_bond
C 0.68
H 0.23
N 0.68
O 0.68
loop_
_atom_site_label
_atom_site_type_symbol
_atom_site_fract_x
_atom_site_fract_y
_atom_site_fract_z
O1 O 0.14320 0.96100 0.57650
O2 O 0.3138(8) 0.9248(4) 0.3751(3)
O3 O 0.5659(8) 1.2070(3) 0.4620(3)
O4 O 0.3450(8) 1.2416(4) 0.6674(3)
C1 C 0.3265(11) 1.1273(5) 0.4766(4)
C2 C 0.4984(11) 1.1510(6) 0.6548(4)
C3 C 0.3777(11) 1.0513(5) 0.5653(4)
C4 C 0.1854(12) 1.0288(6) 0.3885(4)
C5 C 0.4573(15) 1.3845(6) 0.6787(5)
C6 C 0.5339(12) 1.0778(6) 0.7452(4)
O5 O 0.2871(10) 0.7725(5) 0.5781(4)
C7 C 0.1694(13) 1.1031(6) 0.2986(4)
C8 C 0.6221(11) 1.1818(6) 0.8368(4)
C9 C 0.1206(13) 0.8206(6) 0.5803(4)
O6 O -0.0006(12) 1.0121(5) 0.2224(4)
O7 O 0.4382(11) 1.3988(5) 0.4412(5)
O8 O -0.0382(10) 0.7505(5) 0.3506(4)
O9 O 0.674(1) 0.9808(5) 0.9074(3)
O10 O 0.6676(11) 1.4339(5) 0.6790(4)
C10 C 0.5954(13) 1.3426(6) 0.4419(4)
O11 O 0.7829(12) 1.1893(5) 0.9967(3)
C11 C 0.7191(13) 0.9945(6) 0.7430(4)
N1 N 0.7968(11) 1.1325(5) 0.9060(4)
C12 C 0.7146(13) 0.9091(7) 0.8279(4)
C13 C -0.1299(13) 0.7413(6) 0.5874(5)
C14 C 0.1756(14) 0.7892(6) 0.3546(4)
C15 C 0.2731(16) 1.4600(7) 0.6908(6)
C16 C -0.2265(16) 1.0267(8) 0.2042(5)
O12 O -0.2802(12) 1.1203(7) 0.2396(5)
C17 C 0.4306(14) 1.1965(7) 0.8916(5)
O13 O 0.9358(11) 0.8701(5) 0.8455(3)
C18 C 0.3362(14) 0.6977(6) 0.3391(5)
C19 C -0.3999(17) 0.9126(9) 0.1322(5)
O14 O 0.6412(14) 1.3822(6) 1.0128(4)
C20 C 0.8439(14) 1.4039(7) 0.4222(5)
C21 C 0.5716(15) 1.2378(8) 0.9921(5)
C22 C 1.0852(25) 0.6858(10) 0.9041(8)
C23 C 0.9374(21) 0.7697(11) 0.9136(7)
C24 C 0.7168(59) 1.4292(11) 1.1109(7)
C25 C 0.5943(38) 1.4942(17) 1.1467(9)
H1 H 0.23550 1.19100 0.48990
H2 H 0.65590 1.20800 0.64630
H3 H 0.48210 0.99450 0.55420
H4 H 0.02250 0.98240 0.39780
H5 H 0.37860 1.01330 0.74940
H6 H 0.32860 1.13270 0.28170
H7 H 0.11770 1.18510 0.30990
H8 H 0.70590 1.27270 0.82060
H9 H 0.88090 1.05730 0.74640
H10 H 0.67560 0.93350 0.68470
H11 H 0.58040 0.82460 0.81040
H12 H -0.14000 0.64370 0.58990
H13 H -0.17030 0.77630 0.64440
H14 H -0.24350 0.75190 0.53260
H15 H 0.35140 1.55940 0.69880
H16 H 0.14380 1.43680 0.63530
H17 H 0.20540 1.43230 0.74620
H18 H 0.30320 1.10940 0.88700
H19 H 0.35840 1.26790 0.86890
H20 H 0.23700 0.60160 0.32470
H21 H 0.41640 0.72680 0.28680
H22 H 0.45770 0.70620 0.39600
H23 H -0.56000 0.92670 0.12110
H24 H -0.34020 0.91510 0.07340
H25 H -0.41010 0.82290 0.15610
H26 H 0.86310 1.49930 0.40820
H27 H 0.96470 1.40200 0.47720
H28 H 0.86560 1.35040 0.36850
H29 H 0.47350 1.19310 1.03610
H30 H 1.07460 0.62250 0.95290
H31 H 1.03170 0.63300 0.84240
H32 H 1.25240 0.74270 0.91030
H33 H 0.77200 0.71110 0.90930
H34 H 0.99000 0.81940 0.97640
H35 H 0.88290 1.48910 1.12090
H36 H 0.71940 1.34890 1.14540
H37 H 0.66420 1.52050 1.21330
H38 H 0.59430 1.57710 1.11490
H39 H 0.42850 1.43490 1.13970
#END
