
#######################################################################
#
#                 Cambridge Crystallographic Data Centre
#                                CCDC
#
#######################################################################
#
# If this CIF has been generated from an entry in the Cambridge
# Structural Database, then it will include bibliographic, chemical,
# crystal, experimental, refinement or atomic coordinate data resulting
# from the CCDC's data processing and validation procedures.
#
#######################################################################

data_CSD_CIF_ZUKNEY
_audit_creation_date 1996-10-04
_audit_creation_method CSD-ConQuest-V1
_database_code_CSD ZUKNEY
_chemical_formula_sum 'C22 H14 N2 O4'
_chemical_formula_moiety
;
C22 H14 N2 O4
;
_journal_coden_Cambridge 35
_journal_volume 61
_journal_year 1996
_journal_page_first 2247
_journal_name_full 'J.Org.Chem. '
loop_
_publ_author_name
"D.Ramkumar"
"M.Kalpana"
"B.Varghese"
"S.Sankararaman"
_chemical_name_systematic
;
3,8-Dinitro-2,8-diphenylbenzofulvene
;
_cell_volume   1825.173
_exptl_crystal_colour 'orange'
_exptl_crystal_density_diffrn 1.348
_diffrn_ambient_temperature ?
_diffrn_special_details
;
The study was carried out at room temperature,in the range 283-303K

;
#These two values have been output from a single CSD field.
_refine_ls_R_factor_gt 0.055
_refine_ls_wR_factor_gt 0.055
_symmetry_cell_setting monoclinic
_symmetry_space_group_name_H-M 'P 21/c'
_symmetry_Int_Tables_number 14
loop_
_symmetry_equiv_pos_site_id
_symmetry_equiv_pos_as_xyz
1 x,y,z
2 -x,1/2+y,1/2-z
3 -x,-y,-z
4 x,-1/2-y,-1/2+z
_cell_length_a 10.377(4)
_cell_length_b 10.270(4)
_cell_length_c 17.848(5)
_cell_angle_alpha 90
_cell_angle_beta 106.35(4)
_cell_angle_gamma 90
_cell_formula_units_Z 4
loop_
_atom_type_symbol
_atom_type_radius_bond
C 0.68
H 0.23
N 0.68
O 0.68
loop_
_atom_site_label
_atom_site_type_symbol
_atom_site_fract_x
_atom_site_fract_y
_atom_site_fract_z
O1 O 0.6557(3) -0.2966(3) 0.3181(2)
O2 O 0.8609(4) -0.2532(4) 0.3787(2)
O3 O 0.6540(4) 0.3992(3) 0.2297(2)
O4 O 0.5989(3) 0.2999(3) 0.1198(1)
N1 N 0.7613(3) -0.2424(4) 0.3252(2)
N2 N 0.6383(3) 0.3013(3) 0.1905(2)
C1 C 0.6703(4) -0.0159(4) 0.4010(2)
C2 C 0.6286(4) 0.0687(5) 0.4505(2)
C3 C 0.5983(4) 0.1959(5) 0.4305(2)
C4 C 0.6050(4) 0.2434(4) 0.3595(2)
C5 C 0.6648(4) 0.1780(4) 0.2321(2)
C6 C 0.7099(4) 0.0711(4) 0.2045(2)
C7 C 0.7235(3) -0.0304(4) 0.2653(2)
C8 C 0.6779(3) 0.0294(4) 0.3293(2)
C9 C 0.6453(4) 0.1598(4) 0.3098(2)
C10 C 0.7386(3) 0.0538(4) 0.1282(2)
C11 C 0.8381(4) 0.1235(4) 0.1085(2)
C12 C 0.8647(4) 0.1017(4) 0.0376(2)
C13 C 0.7928(4) 0.0117(4) -0.0135(2)
C14 C 0.6909(4) -0.0584(4) 0.0043(2)
C15 C 0.6658(4) -0.0360(4) 0.0758(2)
C16 C 0.7724(4) -0.1497(4) 0.2623(2)
C17 C 0.8421(4) -0.2124(4) 0.2104(2)
C18 C 0.9552(4) -0.1567(4) 0.1974(2)
C19 C 1.0229(4) -0.2165(5) 0.1500(2)
C20 C 0.9807(5) -0.3324(5) 0.1172(3)
C21 C 0.8699(5) -0.3917(5) 0.1303(3)
C22 C 0.8013(4) -0.3322(5) 0.1775(3)
H1 H 0.690(3) -0.105(3) 0.414(1)
H2 H 0.622(3) 0.038(3) 0.499(2)
H3 H 0.561(3) 0.253(3) 0.464(2)
H4 H 0.586(3) 0.325(4) 0.342(2)
H5 H 0.884(3) 0.182(3) 0.142(2)
H6 H 0.929(3) 0.155(4) 0.023(2)
H7 H 0.811(3) -0.001(3) -0.064(1)
H8 H 0.637(4) -0.120(4) -0.028(2)
H9 H 0.604(2) -0.091(2) 0.088(1)
H10 H 0.980(3) -0.080(3) 0.218(1)
H11 H 1.094(3) -0.167(3) 0.140(2)
H12 H 1.019(4) -0.377(4) 0.082(2)
H13 H 0.841(4) -0.472(4) 0.110(2)
H14 H 0.733(3) -0.363(3) 0.184(2)
#END
