
#######################################################################
#
#                 Cambridge Crystallographic Data Centre
#                                CCDC
#
#######################################################################
#
# If this CIF has been generated from an entry in the Cambridge
# Structural Database, then it will include bibliographic, chemical,
# crystal, experimental, refinement or atomic coordinate data resulting
# from the CCDC's data processing and validation procedures.
#
#######################################################################

data_CSD_CIF_ZUKQUR
_audit_creation_date 1996-10-04
_audit_creation_method CSD-ConQuest-V1
_database_code_CSD ZUKQUR
_chemical_formula_sum 'C31 H38 N2 O8'
_chemical_formula_moiety
;
C31 H38 N2 O8
;
_journal_coden_Cambridge 16
_journal_volume 52
_journal_year 1996
_journal_page_first 825
_journal_name_full 'Tetrahedron '
loop_
_publ_author_name
"A.P.Marchand"
"Dongxia Xing"
"S.G.Bott"
_chemical_name_systematic
;
threo-1-(3',5'-Dinitrobenzoyloxy)-2-acetoxy-1,2-bis(1-adamantyl)ethane
;
_chemical_melting_point 468.15
_cell_volume   2898.637
_exptl_crystal_colour 'colorless'
_exptl_crystal_density_diffrn 1.298
_exptl_special_details
;
Melting point range 468.15-469.15K

;
_diffrn_ambient_temperature ?
_diffrn_special_details
;
The study was carried out at room temperature,in the range 283-303K

;
#These two values have been output from a single CSD field.
_refine_ls_R_factor_gt 0.0636
_refine_ls_wR_factor_gt 0.0636
_symmetry_cell_setting monoclinic
_symmetry_space_group_name_H-M 'P 21/c'
_symmetry_Int_Tables_number 14
loop_
_symmetry_equiv_pos_site_id
_symmetry_equiv_pos_as_xyz
1 x,y,z
2 -x,1/2+y,1/2-z
3 -x,-y,-z
4 x,-1/2-y,-1/2+z
_cell_length_a 15.060(2)
_cell_length_b 10.260(2)
_cell_length_c 20.203(2)
_cell_angle_alpha 90
_cell_angle_beta 111.79(1)
_cell_angle_gamma 90
_cell_formula_units_Z 4
loop_
_atom_type_symbol
_atom_type_radius_bond
C 0.68
H 0.23
N 0.68
O 0.68
loop_
_atom_site_label
_atom_site_type_symbol
_atom_site_fract_x
_atom_site_fract_y
_atom_site_fract_z
O1 O 0.3413(5) 0.2596(9) -0.0177(4)
O2 O 0.3914(6) 0.4052(9) -0.0794(5)
O3 O 0.2572(5) 0.2395(9) 0.0656(4)
O4 O 0.1274(5) 0.1663(8) 0.0835(4)
O5 O 0.2056(6) -0.067(1) 0.3136(4)
O6 O 0.3334(7) -0.183(1) 0.3518(5)
O7 O 0.5537(7) 0.011(1) 0.1704(6)
O8 O 0.5755(7) -0.126(1) 0.2540(6)
N1 N 0.2828(7) -0.101(1) 0.3132(5)
N2 N 0.5279(8) -0.046(1) 0.2116(6)
C1 C 0.2423(8) 0.300(1) -0.0523(6)
C2 C 0.2034(8) 0.323(1) 0.0062(6)
C3 C 0.1828(7) 0.198(1) -0.1087(6)
C4 C 0.2364(9) 0.180(1) -0.1615(7)
C5 C 0.1794(9) 0.090(1) -0.2219(7)
C6 C 0.0836(9) 0.143(1) -0.2594(7)
C7 C 0.0294(9) 0.160(1) -0.2122(6)
C8 C 0.0854(8) 0.255(1) -0.1510(6)
C9 C 0.1755(9) 0.070(1) -0.0795(7)
C10 C 0.1162(9) -0.028(1) -0.1406(7)
C11 C 0.1726(9) -0.042(1) -0.1886(7)
C12 C 0.2116(8) 0.469(1) 0.0315(6)
C13 C 0.3093(9) 0.524(1) 0.0563(6)
C14 C 0.3121(9) 0.671(1) 0.0824(7)
C15 C 0.2456(9) 0.746(2) 0.0224(7)
C16 C 0.1438(9) 0.695(1) -0.0043(7)
C17 C 0.1420(9) 0.551(1) -0.0279(7)
C18 C 0.1729(9) 0.476(1) 0.0931(7)
C19 C 0.1707(9) 0.619(1) 0.1179(7)
C20 C 0.273(1) 0.667(2) 0.1431(8)
C21 C 0.0201(9) 0.029(1) -0.1784(7)
C22 C 0.4080(8) 0.318(1) -0.0393(6)
C23 C 0.499(1) 0.253(2) -0.0024(9)
C24 C 0.108(1) 0.695(1) 0.0556(7)
C25 C 0.2106(8) 0.167(1) 0.0983(6)
C26 C 0.2815(8) 0.090(1) 0.1557(6)
C27 C 0.2533(7) 0.036(1) 0.2069(6)
C28 C 0.3149(8) -0.040(1) 0.2600(6)
C29 C 0.4044(8) -0.067(1) 0.2632(6)
C30 C 0.4331(8) -0.012(1) 0.2116(6)
C31 C 0.3715(8) 0.064(1) 0.1566(6)
H1 H 0.23780 0.37860 -0.07850
H2 H 0.13690 0.30390 -0.01190
H3 H 0.29770 0.14350 -0.13660
H4 H 0.24340 0.26260 -0.18040
H5 H 0.20970 0.08180 -0.25530
H6 H 0.04930 0.08410 -0.29660
H7 H 0.08910 0.22470 -0.27910
H8 H -0.03230 0.19330 -0.23940
H9 H 0.09280 0.33620 -0.17060
H10 H 0.05090 0.26680 -0.12050
H11 H 0.14450 0.07820 -0.04640
H12 H 0.23790 0.03530 -0.05580
H13 H 0.10700 -0.11110 -0.12370
H14 H 0.23510 -0.07200 -0.16130
H15 H 0.14140 -0.10240 -0.22530
H16 H 0.33170 0.52110 0.01810
H17 H 0.34990 0.47260 0.09480
H18 H 0.37420 0.70830 0.09770
H19 H 0.26780 0.74300 -0.01580
H20 H 0.24530 0.83370 0.03730
H21 H 0.10590 0.74950 -0.04250
H22 H 0.07910 0.51780 -0.03990
H23 H 0.15940 0.54750 -0.06850
H24 H 0.21320 0.42550 0.13220
H25 H 0.10990 0.44100 0.07670
H26 H 0.14680 0.62780 0.15500
H27 H 0.27520 0.75270 0.16170
H28 H 0.31160 0.61070 0.17950
H29 H -0.01710 -0.02870 -0.21460
H30 H -0.01030 0.04300 -0.14530
H31 H 0.54720 0.29110 -0.01610
H32 H 0.51650 0.26160 0.04760
H33 H 0.49330 0.16290 -0.01460
H34 H 0.04580 0.65680 0.03910
H35 H 0.10440 0.78190 0.07010
H36 H 0.19050 0.05210 0.20570
H37 H 0.39120 0.09650 0.12020
H38 H 0.44620 -0.12070 0.29960
#END
