
#######################################################################
#
#                 Cambridge Crystallographic Data Centre
#                                CCDC
#
#######################################################################
#
# If this CIF has been generated from an entry in the Cambridge
# Structural Database, then it will include bibliographic, chemical,
# crystal, experimental, refinement or atomic coordinate data resulting
# from the CCDC's data processing and validation procedures.
#
#######################################################################

data_CSD_CIF_ZULNUP
_audit_creation_date 1996-11-18
_audit_creation_method CSD-ConQuest-V1
_database_code_CSD ZULNUP
_database_code_depnum_ccdc_archive 'CCDC 1316504'
_chemical_formula_sum 'C19 H20 N2 O7'
_chemical_formula_moiety
;
C19 H20 N2 O7
;
_journal_coden_Cambridge 34
_journal_volume 32
_journal_year 1995
_journal_page_first 831
_journal_name_full 'J.Heterocycl.Chem. '
loop_
_publ_author_name
"I.Menconi"
"E.Angeles"
"L.Martinez"
"M.E.Posada"
"R.A.Toscano"
"R.Martinez"
_chemical_name_systematic
;
2-Methyl-3-ethoxycarbonyl-4-ethoxycarbonylmethyl-6-(2-hydroxy-5-nitrophenyl)py
ridine
;
_chemical_melting_point 449.15
_cell_volume   1864.819
_exptl_crystal_colour 'pale yellow'
_exptl_crystal_density_diffrn 1.383
_exptl_special_details
;
Analgesic and antiinflamatory activity

;
_diffrn_ambient_temperature ?
_diffrn_special_details
;
The study was carried out at room temperature,in the range 283-303K

;
#These two values have been output from a single CSD field.
_refine_ls_R_factor_gt 0.073
_refine_ls_wR_factor_gt 0.073
_symmetry_cell_setting monoclinic
_symmetry_space_group_name_H-M 'P 21/c'
_symmetry_Int_Tables_number 14
loop_
_symmetry_equiv_pos_site_id
_symmetry_equiv_pos_as_xyz
1 x,y,z
2 -x,1/2+y,1/2-z
3 -x,-y,-z
4 x,-1/2-y,-1/2+z
_cell_length_a 7.301(2)
_cell_length_b 33.186(7)
_cell_length_c 7.704(2)
_cell_angle_alpha 90
_cell_angle_beta 92.51(3)
_cell_angle_gamma 90
_cell_formula_units_Z 4
loop_
_atom_type_symbol
_atom_type_radius_bond
C 0.68
H 0.23
N 0.68
O 0.68
loop_
_atom_site_label
_atom_site_type_symbol
_atom_site_fract_x
_atom_site_fract_y
_atom_site_fract_z
O1 O 0.2347(6) 0.5264(1) 0.5982(6)
O2 O 0.9885(8) 0.6035(2) 0.8017(7)
O3 O 1.0163(7) 0.5480(2) 0.9391(7)
O4 O 0.1907(8) 0.3278(2) 0.6949(8)
O5 O 0.2493(8) 0.3340(2) 0.9768(8)
O6 O 0.6868(10) 0.2963(2) 0.9272(8)
O7 O 0.6672(7) 0.3348(1) 0.6943(7)
N1 N 0.9278(8) 0.5708(2) 0.8457(7)
N2 N 0.2871(7) 0.4562(2) 0.7139(6)
C1 C 0.4043(9) 0.5354(2) 0.6618(8)
C2 C 0.5165(8) 0.5071(2) 0.7479(7)
C3 C 0.6891(9) 0.5199(2) 0.8071(7)
C4 C 0.7472(9) 0.5585(2) 0.7795(7)
C5 C 0.6358(10) 0.5862(2) 0.6923(8)
C6 C 0.4655(10) 0.5751(2) 0.6349(8)
C7 C 0.4575(9) 0.4652(2) 0.7739(7)
C8 C 0.2200(9) 0.4187(2) 0.7276(7)
C9 C 0.3258(9) 0.3880(2) 0.8048(8)
C10 C 0.5037(8) 0.3966(2) 0.8705(7)
C11 C 0.5680(9) 0.4357(2) 0.8526(7)
C12 C 0.0294(9) 0.4126(2) 0.6565(9)
C13 C 0.2484(9) 0.3467(2) 0.8162(11)
C14 C 0.6249(8) 0.3658(2) 0.9621(8)
C15 C 0.6607(10) 0.3284(2) 0.862(1)
C16 C 0.1818(17) 0.2941(3) 1.0079(16)
C17 C 0.1629(25) 0.2860(4) 1.1672(22)
C18 C 0.7052(15) 0.3004(3) 0.5857(12)
C19 C 0.7014(22) 0.3104(3) 0.4201(15)
H1 H 0.2091(70) 0.5002(18) 0.6523(68)
H2 H 0.76850 0.50150 0.87060
H3 H 0.68110 0.61290 0.67280
H4 H 0.38630 0.59410 0.57460
H5 H 0.69010 0.44240 0.89440
H6 H -0.02450 0.42570 0.55550
H7 H -0.04880 0.41880 0.74990
H8 H 0.01690 0.38420 0.63550
H9 H 0.56930 0.35820 1.06780
H10 H 0.74010 0.37840 0.99290
H11 H 0.26640 0.27480 0.96420
H12 H 0.06510 0.29040 0.94770
H13 H 0.27830 0.29100 1.22770
H14 H 0.12620 0.25890 1.19090
H15 H 0.07260 0.30440 1.20790
H16 H 0.61840 0.27940 0.60560
H17 H 0.82630 0.29030 0.61280
H18 H 0.57240 0.31000 0.39020
H19 H 0.75380 0.28900 0.35450
H20 H 0.75740 0.33610 0.40150
#END
