
#######################################################################
#
#                 Cambridge Crystallographic Data Centre
#                                CCDC
#
#######################################################################
#
# If this CIF has been generated from an entry in the Cambridge
# Structural Database, then it will include bibliographic, chemical,
# crystal, experimental, refinement or atomic coordinate data resulting
# from the CCDC's data processing and validation procedures.
#
#######################################################################

data_CSD_CIF_ZULYEK
_audit_creation_date 1996-11-18
_audit_creation_method CSD-ConQuest-V1
_database_code_CSD ZULYEK
_chemical_formula_sum 'C15 H12 N2 O2'
_chemical_formula_moiety
;
C15 H12 N2 O2
;
_journal_coden_Cambridge 16
_journal_volume 51
_journal_year 1995
_journal_page_first 12667
_journal_name_full 'Tetrahedron '
loop_
_publ_author_name
"S.B.Mahato"
"N.B.Mandal"
"S.Chattopadhyay"
"P.Luger"
"M.Weber"
_chemical_name_systematic
;
2-Methyl-3-(4-nitrophenyl)indole
;
_chemical_melting_point 484.15
_cell_volume   2477.441
_exptl_crystal_density_diffrn 1.351
_exptl_special_details
;
Melting point range 484.15-485.15K
The space group is Pcab, not Pbca

;
_diffrn_ambient_temperature ?
_diffrn_special_details
;
The study was carried out at room temperature,in the range 283-303K

;
#These two values have been output from a single CSD field.
_refine_ls_R_factor_gt 0.043
_refine_ls_wR_factor_gt 0.043
_symmetry_cell_setting orthorhombic
_symmetry_space_group_name_H-M 'P c a b'
_symmetry_Int_Tables_number 61
loop_
_symmetry_equiv_pos_site_id
_symmetry_equiv_pos_as_xyz
1 x,y,z
2 -x,1/2-y,1/2+z
3 1/2+x,-y,1/2-z
4 1/2-x,1/2+y,-z
5 -x,-y,-z
6 x,-1/2+y,-1/2-z
7 -1/2-x,y,-1/2+z
8 -1/2+x,-1/2-y,z
_cell_length_a 7.646(1)
_cell_length_b 12.865(1)
_cell_length_c 25.186(2)
_cell_angle_alpha 90
_cell_angle_beta 90
_cell_angle_gamma 90
_cell_formula_units_Z 8
loop_
_atom_type_symbol
_atom_type_radius_bond
C 0.68
H 0.23
N 0.68
O 0.68
loop_
_atom_site_label
_atom_site_type_symbol
_atom_site_fract_x
_atom_site_fract_y
_atom_site_fract_z
N1 N 0.1832(2) 0.4766(1) 0.2920(1)
H1 H 0.2390(3) 0.4240(2) 0.2854(8)
C1 C 0.1289(2) 0.5059(1) 0.3416(1)
C2 C 0.1690(4) 0.4379(2) 0.3881(1)
H2 H 0.0580(4) 0.3920(2) 0.3980(1)
H3 H 0.2790(4) 0.3990(2) 0.3850(1)
H4 H 0.1750(3) 0.4800(2) 0.4229(9)
C3 C 0.0451(2) 0.6006(1) 0.3379(1)
C4 C 0.0490(2) 0.6299(1) 0.2827(1)
C5 C -0.0198(2) 0.7134(1) 0.2528(1)
H5 H -0.0890(2) 0.7700(1) 0.2709(7)
C6 C 0.0056(3) 0.7147(2) 0.1988(1)
H6 H -0.0440(3) 0.7710(2) 0.1771(8)
C7 C 0.0980(3) 0.6357(2) 0.1727(1)
H7 H 0.1130(3) 0.6400(2) 0.1318(8)
C8 C 0.1639(3) 0.5522(2) 0.2008(1)
H8 H 0.2230(3) 0.4930(2) 0.1816(9)
C9 C 0.1366(2) 0.5506(1) 0.2551(1)
C10 C -0.0259(2) 0.6605(1) 0.3823(1)
C11 C -0.0118(3) 0.7693(1) 0.3832(1)
H9 H 0.0390(3) 0.8060(1) 0.3515(8)
C12 C -0.0712(3) 0.8254(2) 0.4261(1)
H10 H -0.0600(3) 0.8940(2) 0.4272(8)
C13 C -0.1465(3) 0.7739(2) 0.4681(1)
C14 C -0.1664(3) 0.6676(2) 0.4681(1)
H11 H -0.2240(3) 0.6350(2) 0.4967(9)
C15 C -0.1060(3) 0.6118(2) 0.4253(1)
H12 H -0.1260(3) 0.5420(2) 0.4248(8)
N2 N -0.2092(3) 0.8331(2) 0.5136(1)
O1 O -0.2908(3) 0.7880(2) 0.5487(1)
O2 O -0.1772(4) 0.9258(2) 0.5152(1)
#END
