
#######################################################################
#
#                 Cambridge Crystallographic Data Centre
#                                CCDC
#
#######################################################################
#
# If this CIF has been generated from an entry in the Cambridge
# Structural Database, then it will include bibliographic, chemical,
# crystal, experimental, refinement or atomic coordinate data resulting
# from the CCDC's data processing and validation procedures.
#
#######################################################################

data_CSD_CIF_ZUMHUM
_audit_creation_date 2015-09-02
_audit_creation_method CSD-ConQuest-V1
_database_code_CSD ZUMHUM
_database_code_depnum_ccdc_archive 'CCDC 1421946'
_chemical_formula_sum 'C17 H31 N3 O5'
_chemical_formula_moiety
;
C17 H31 N3 O5
;
_journal_coden_Cambridge 35
_journal_volume 75
_journal_year 2010
_journal_page_first 4796
_journal_name_full 'J.Org.Chem. '
loop_
_publ_author_name
"Dan Yang"
"Xiao-Wei Chang"
"Dan-Wei Zhang"
"Ze-Feng Jiang"
"Ke-Sheng Song"
"Yu-Hui Zhang"
"Nian-Yong Zhu"
"Lin-Hong Weng"
"Min-Qin Chen"
_chemical_name_systematic
;
N-Isobutyl-1-(((2-((isobutyrylamino)oxy)-3-methylbutanoyl)amino)oxy)cyclopropa
necarboxamide
;
_cell_volume   2086.198
_exptl_crystal_density_diffrn 1.138
_diffrn_ambient_temperature 298
#These two values have been output from a single CSD field.
_refine_ls_R_factor_gt 0.0385
_refine_ls_wR_factor_gt 0.0385
_symmetry_cell_setting orthorhombic
_symmetry_space_group_name_H-M 'P 21 21 21'
_symmetry_Int_Tables_number 19
loop_
_symmetry_equiv_pos_site_id
_symmetry_equiv_pos_as_xyz
1 x,y,z
2 1/2-x,-y,1/2+z
3 -x,1/2+y,1/2-z
4 1/2+x,1/2-y,-z
_cell_length_a 8.869(2)
_cell_length_b 12.673(3)
_cell_length_c 18.561(5)
_cell_angle_alpha 90
_cell_angle_beta 90
_cell_angle_gamma 90
_cell_formula_units_Z 4
loop_
_atom_type_symbol
_atom_type_radius_bond
C 0.68
H 0.23
N 0.68
O 0.68
loop_
_atom_site_label
_atom_site_type_symbol
_atom_site_fract_x
_atom_site_fract_y
_atom_site_fract_z
N1 N 0.6679(2) 0.52426(17) 0.33842(11)
N2 N 0.74047(19) 0.47548(14) 0.17083(9)
N3 N 1.03011(18) 0.35730(15) 0.12760(9)
O1 O 0.7943(2) 0.67630(14) 0.35405(9)
O2 O 0.64297(14) 0.55632(12) 0.19369(9)
O3 O 0.6139(2) 0.35560(14) 0.2374(1)
O4 O 0.89095(14) 0.32823(11) 0.09737(7)
O5 O 0.99742(15) 0.52324(11) 0.08844(8)
C1 C 0.7740(6) 0.3447(3) 0.49385(16)
H1 H 0.82690 0.27870 0.49540
H2 H 0.67240 0.33470 0.51040
H3 H 0.82410 0.39480 0.52430
C2 C 0.7716(4) 0.3849(2) 0.41863(15)
H4 H 0.72020 0.33170 0.38930
C3 C 0.6812(3) 0.4863(2) 0.41209(13)
H5 H 0.58090 0.47450 0.43140
H6 H 0.72900 0.54050 0.44110
C4 C 0.7303(2) 0.61232(17) 0.31466(12)
C5 C 0.7164(2) 0.63355(17) 0.23591(12)
C6 C 0.8324(3) 0.70041(18) 0.19959(14)
H7 H 0.91430 0.72780 0.22880
H8 H 0.85980 0.68270 0.15040
C7 C 0.6796(3) 0.7428(2) 0.21249(16)
H9 H 0.61360 0.75110 0.17120
H10 H 0.66800 0.79610 0.24950
C8 C 0.7062(2) 0.37715(17) 0.19054(11)
C9 C 0.7886(2) 0.29018(16) 0.15164(10)
H11 H 0.84550 0.24860 0.18690
C10 C 0.6757(2) 0.21849(17) 0.11421(11)
H12 H 0.60290 0.19560 0.15070
C11 C 0.5878(3) 0.2760(2) 0.05594(15)
H13 H 0.65550 0.29750 0.01830
H14 H 0.54010 0.33710 0.07630
H15 H 0.51240 0.22980 0.03640
C12 C 0.7518(3) 0.12025(19) 0.08520(16)
H16 H 0.67700 0.07340 0.06590
H17 H 0.80520 0.08550 0.12350
H18 H 0.82150 0.13960 0.04790
C13 C 1.0780(2) 0.45588(16) 0.11465(10)
C14 C 1.2367(2) 0.47832(17) 0.14019(10)
H19 H 1.29080 0.41120 0.14420
C15 C 1.3180(3) 0.5467(2) 0.08666(14)
H20 H 1.32440 0.51060 0.04130
H21 H 1.41770 0.56160 0.10400
H22 H 1.26370 0.61170 0.08050
C16 C 1.2294(3) 0.5279(3) 0.21319(14)
H23 H 1.19310 0.59900 0.20890
H24 H 1.32820 0.52840 0.23430
H25 H 1.16210 0.48810 0.24330
C17 C 0.9238(5) 0.3953(5) 0.3904(3)
H26 H 0.98150 0.44060 0.42140
H27 H 0.92000 0.42510 0.34290
H28 H 0.97050 0.32700 0.38840
H29 H 1.091(2) 0.3055(17) 0.1357(10)
H30 H 0.624(2) 0.4827(18) 0.3044(12)
H31 H 0.7990(19) 0.4929(13) 0.1338(9)
#END
