
#######################################################################
#
#                 Cambridge Crystallographic Data Centre
#                                CCDC
#
#######################################################################
#
# If this CIF has been generated from an entry in the Cambridge
# Structural Database, then it will include bibliographic, chemical,
# crystal, experimental, refinement or atomic coordinate data resulting
# from the CCDC's data processing and validation procedures.
#
#######################################################################

data_CSD_CIF_ZUMLIE
_audit_creation_date 2015-09-02
_audit_creation_method CSD-ConQuest-V1
_database_code_CSD ZUMLIE
_database_code_depnum_ccdc_archive 'CCDC 1024288; not CCDC 1024287 as published'
_chemical_formula_sum 'C21 H19 N3 O6'
_chemical_formula_moiety
;
C21 H19 N3 O6
;
_journal_coden_Cambridge 119
_journal_volume 1098
_journal_year 2015
_journal_page_first 365
_journal_name_full 'J.Mol.Struct. '
loop_
_publ_author_name
"A.Barakat"
"S.M.Soliman"
"A.M.Al-Majid"
"G.Lotfy"
"H.A.Ghabbour"
"Hoong-Kun Fun"
"S.Yousuf"
"M.Iqbal Choudhary"
"A.Wadood"
_chemical_name_systematic
;
1,3-dimethyl-5-(1-(3-nitrophenyl)-3-oxo-3-phenylpropyl)pyrimidine-2,4,6(1H,3H,
5H)-trione
;
_cell_volume   1931.383
_exptl_crystal_colour 'colorless'
_exptl_crystal_density_diffrn 1.408
_exptl_crystal_description 'block'
_diffrn_ambient_temperature 293
#These two values have been output from a single CSD field.
_refine_ls_R_factor_gt 0.0503
_refine_ls_wR_factor_gt 0.0503
_symmetry_cell_setting monoclinic
_symmetry_space_group_name_H-M 'P 21/c'
_symmetry_Int_Tables_number 14
loop_
_symmetry_equiv_pos_site_id
_symmetry_equiv_pos_as_xyz
1 x,y,z
2 -x,1/2+y,1/2-z
3 -x,-y,-z
4 x,-1/2-y,-1/2+z
_cell_length_a 9.5053(2)
_cell_length_b 12.1670(2)
_cell_length_c 17.5962(3)
_cell_angle_alpha 90
_cell_angle_beta 108.364(1)
_cell_angle_gamma 90
_cell_formula_units_Z 4
loop_
_atom_type_symbol
_atom_type_radius_bond
C 0.68
H 0.23
N 0.68
O 0.68
loop_
_atom_site_label
_atom_site_type_symbol
_atom_site_fract_x
_atom_site_fract_y
_atom_site_fract_z
O1 O 0.3337(2) -0.11506(12) 0.11297(12)
O2 O 0.18904(17) -0.46915(11) 0.11182(8)
O3 O 0.48339(16) -0.35654(14) -0.04077(10)
O4 O 0.18188(18) -0.63701(11) -0.09186(9)
O5 O 0.2321(2) -0.03687(14) -0.17014(13)
O6 O 0.0542(2) 0.06392(13) -0.16214(14)
N1 N 0.26194(16) -0.29208(12) 0.11524(8)
N2 N 0.41986(16) -0.23738(12) 0.04089(10)
N3 N 0.1201(2) -0.02296(12) -0.15194(10)
C1 C 0.40944(18) -0.33646(15) 0.00261(11)
C2 C 0.3366(2) -0.20862(15) 0.09054(12)
C3 C 0.24765(18) -0.39743(14) 0.08486(10)
C4 C 0.29631(18) -0.41566(13) 0.01266(10)
H1 H 0.33920 -0.48950 0.01690
C5 C 0.15362(18) -0.41398(13) -0.06342(9)
H2 H 0.08300 -0.46590 -0.05310
C6 C 0.1865(2) -0.45460(14) -0.13844(11)
H3 H 0.10230 -0.43800 -0.18510
H4 H 0.27130 -0.41480 -0.14370
C7 C 0.21801(19) -0.57667(13) -0.1372(1)
C8 C 0.28900(18) -0.62241(13) -0.19473(10)
C9 C 0.2660(2) -0.73323(15) -0.21502(11)
H5 H 0.20610 -0.77540 -0.19360
C10 C 0.3311(3) -0.78071(18) -0.26651(13)
H6 H 0.31450 -0.85450 -0.28010
C11 C 0.4205(3) -0.7194(2) -0.29786(13)
H7 H 0.46500 -0.75180 -0.33240
C12 C 0.4446(3) -0.6100(2) -0.27850(14)
H8 H 0.50550 -0.56880 -0.29980
C13 C 0.3786(2) -0.56110(16) -0.22737(12)
H9 H 0.39440 -0.48690 -0.21490
C14 C 0.08036(17) -0.30167(13) -0.07429(9)
C15 C 0.12964(18) -0.21558(13) -0.11088(9)
H10 H 0.20630 -0.22620 -0.13240
C16 C 0.06314(19) -0.11357(13) -0.11496(10)
C17 C -0.0512(2) -0.09334(15) -0.08472(11)
H11 H -0.09450 -0.02410 -0.08870
C18 C -0.0992(2) -0.17899(17) -0.04847(13)
H12 H -0.17610 -0.16780 -0.02720
C19 C -0.03469(19) -0.28182(15) -0.04319(11)
H13 H -0.06890 -0.33870 -0.01840
C20 C 0.5178(3) -0.1538(2) 0.02480(17)
H14 H 0.60830 -0.18780 0.02370
H15 H 0.53960 -0.09910 0.06620
H16 H 0.46970 -0.11980 -0.02600
C21 C 0.1888(3) -0.2651(2) 0.17468(14)
H17 H 0.18250 -0.32990 0.20460
H18 H 0.09090 -0.23790 0.14800
H19 H 0.24510 -0.20990 0.21040
#END
