
#######################################################################
#
#                 Cambridge Crystallographic Data Centre
#                                CCDC
#
#######################################################################
#
# If this CIF has been generated from an entry in the Cambridge
# Structural Database, then it will include bibliographic, chemical,
# crystal, experimental, refinement or atomic coordinate data resulting
# from the CCDC's data processing and validation procedures.
#
#######################################################################

data_CSD_CIF_ZURLOP
_audit_creation_date 2015-09-04
_audit_creation_method CSD-ConQuest-V1
_database_code_CSD ZURLOP
_database_code_depnum_ccdc_archive 'CCDC 1005293'
_chemical_formula_sum 'C15 H25 N3 O3'
_chemical_formula_moiety
;
C15 H25 N3 O3
;
_journal_coden_Cambridge 154
_journal_volume 68
_journal_year 2015
_journal_page_first 970
_journal_name_full 'Aust.J.Chem. '
loop_
_publ_author_name
"E.V.Tretyakov"
"G.V.Romanenko"
"S.L.Veber"
"M.V.Fedin"
"A.V.Polushkin"
"A.O.Tkacheva"
"V.I.Ovcharenko"
_chemical_name_systematic
;
1-(1-butyl-1H-pyrazol-4-yl)-3,3,4-trimethyl-4-nitropentan-1-one
;
_cell_volume   1661.277
_exptl_crystal_colour 'colorless'
_exptl_crystal_density_diffrn 1.181
_exptl_crystal_description 'bulk'
_diffrn_ambient_temperature 296
#These two values have been output from a single CSD field.
_refine_ls_R_factor_gt 0.0389
_refine_ls_wR_factor_gt 0.0389
_symmetry_cell_setting monoclinic
_symmetry_space_group_name_H-M 'C c'
_symmetry_Int_Tables_number 9
loop_
_symmetry_equiv_pos_site_id
_symmetry_equiv_pos_as_xyz
1 x,y,z
2 x,-y,1/2+z
3 1/2+x,1/2+y,z
4 1/2+x,1/2-y,1/2+z
_cell_length_a 6.7564(11)
_cell_length_b 23.443(3)
_cell_length_c 10.4906(16)
_cell_angle_alpha 90
_cell_angle_beta 91.146(11)
_cell_angle_gamma 90
_cell_formula_units_Z 4
loop_
_atom_type_symbol
_atom_type_radius_bond
C 0.68
H 0.23
N 0.68
O 0.68
loop_
_atom_site_label
_atom_site_type_symbol
_atom_site_fract_x
_atom_site_fract_y
_atom_site_fract_z
N1 N 0.4481(5) 0.28839(11) 0.8531(3)
O1 O 0.5792(6) 0.29737(14) 0.7809(3)
O2 O 0.2846(5) 0.30743(12) 0.8347(3)
O3 O 0.1293(4) 0.12119(10) 0.7367(2)
N2 N -0.0634(4) 0.03486(10) 1.1044(2)
N3 N -0.0846(4) 0.00403(9) 0.9956(2)
C1 C 0.4864(5) 0.14735(14) 1.0428(3)
H1 H 0.45160 0.10880 1.02120
H2 H 0.41850 0.15860 1.11830
H3 H 0.62670 0.14990 1.05790
C2 C 0.5315(5) 0.16858(15) 0.8123(3)
H4 H 0.49220 0.13040 0.79030
H5 H 0.67210 0.16970 0.82750
H6 H 0.49690 0.19390 0.74340
C3 C 0.4261(4) 0.18717(10) 0.9319(2)
C4 C 0.7062(5) 0.25632(18) 1.0044(4)
H7 H 0.73310 0.29520 1.02790
H8 H 0.78320 0.24630 0.93180
H9 H 0.74050 0.23170 1.07450
C5 C 0.3645(6) 0.27448(15) 1.0774(4)
H10 H 0.40920 0.31250 1.09650
H11 H 0.37870 0.25110 1.15200
H12 H 0.22780 0.27560 1.05070
C6 C 0.4873(4) 0.24976(12) 0.9712(3)
C7 C 0.1991(4) 0.18368(10) 0.9109(3)
H13 H 0.13640 0.18910 0.99240
H14 H 0.15790 0.21490 0.85570
C8 C 0.1245(4) 0.12862(12) 0.8534(3)
C9 C 0.0412(4) 0.08478(10) 0.9348(3)
C10 C 0.0126(4) 0.08383(12) 1.0668(3)
H15 H 0.04350 0.11400 1.12120
C11 C -0.0263(4) 0.03175(11) 0.8937(3)
H16 H -0.02970 0.01840 0.81020
C12 C -0.1590(6) -0.05516(12) 1.0013(4)
H17 H -0.07530 -0.07730 1.05890
H18 H -0.15310 -0.07230 0.91730
C13 C -0.3707(7) -0.05665(18) 1.0469(4)
H19 H -0.40790 -0.09620 1.05910
H20 H -0.37440 -0.03810 1.12940
C14 C -0.5226(8) -0.02940(19) 0.9620(6)
H21 H -0.47770 0.00860 0.93980
H22 H -0.64440 -0.02530 1.00860
C15 C -0.5663(10) -0.0622(3) 0.8406(6)
H23 H -0.66750 -0.04290 0.79180
H24 H -0.61090 -0.09990 0.86150
H25 H -0.44820 -0.06480 0.79150
#END
