
#######################################################################
#
#                 Cambridge Crystallographic Data Centre
#                                CCDC
#
#######################################################################
#
# If this CIF has been generated from an entry in the Cambridge
# Structural Database, then it will include bibliographic, chemical,
# crystal, experimental, refinement or atomic coordinate data resulting
# from the CCDC's data processing and validation procedures.
#
#######################################################################

data_CSD_CIF_ZURVAL
_audit_creation_date 2015-09-04
_audit_creation_method CSD-ConQuest-V1
_database_code_CSD ZURVAL
_database_code_depnum_ccdc_archive 'CCDC 1042626'
_chemical_formula_sum 'C13 H10 N4 O5'
_chemical_formula_moiety
;
C13 H10 N4 O5
;
_journal_coden_Cambridge 1350
_journal_volume 17
_journal_year 2015
_journal_page_first 2815
_journal_name_full 'CrystEngComm '
loop_
_publ_author_name
"I.L.Kirby"
"M.B.Pitak"
"C.Wilson"
"P.A.Gale"
"S.J.Coles"
_chemical_name_systematic
;
1,3-bis(4-nitrophenyl)urea
;
_cell_volume   1242.642
_exptl_crystal_colour 'yellow'
_exptl_crystal_density_diffrn 1.616
_exptl_crystal_description 'lath'
_diffrn_ambient_temperature 35
#These two values have been output from a single CSD field.
_refine_ls_R_factor_gt 0.0424
_refine_ls_wR_factor_gt 0.0424
_symmetry_cell_setting orthorhombic
_symmetry_space_group_name_H-M 'P n a 21'
_symmetry_Int_Tables_number 33
loop_
_symmetry_equiv_pos_site_id
_symmetry_equiv_pos_as_xyz
1 x,y,z
2 -x,-y,1/2+z
3 1/2+x,1/2-y,z
4 1/2-x,1/2+y,1/2+z
_cell_length_a 13.8899(18)
_cell_length_b 24.389(3)
_cell_length_c 3.6682(4)
_cell_angle_alpha 90
_cell_angle_beta 90
_cell_angle_gamma 90
_cell_formula_units_Z 4
loop_
_atom_type_symbol
_atom_type_radius_bond
C 0.68
H 0.23
N 0.68
O 0.68
loop_
_atom_site_label
_atom_site_type_symbol
_atom_site_fract_x
_atom_site_fract_y
_atom_site_fract_z
C1 C 1.33117(9) 1.06155(5) 0.6045(4)
C2 C 1.37660(9) 1.01661(5) 0.4441(4)
H1 H 1.44330 1.01780 0.38740
C3 C 1.32239(9) 0.97025(5) 0.3693(4)
H2 H 1.35240 0.93910 0.26310
C4 C 1.22304(9) 0.96893(5) 0.4495(4)
C5 C 1.17803(9) 1.01536(5) 0.6020(4)
H3 H 1.11080 1.01520 0.65040
C6 C 1.23305(9) 1.06142(5) 0.6808(4)
H4 H 1.20370 1.09280 0.78670
C7 C 1.08715(9) 0.90305(5) 0.5057(4)
C8 C 0.99999(10) 0.81401(5) 0.5664(4)
C9 C 1.01305(9) 0.75693(5) 0.5263(4)
H5 H 1.07070 0.74330 0.42000
C10 C 0.94271(9) 0.72067(5) 0.6403(4)
H6 H 0.95120 0.68220 0.61410
C11 C 0.85890(9) 0.74210(5) 0.7950(4)
C12 C 0.84388(8) 0.79835(5) 0.8367(4)
H7 H 0.78580 0.81160 0.94160
C13 C 0.91481(9) 0.83475(5) 0.7229(4)
H8 H 0.90600 0.87320 0.75040
N1 N 1.38906(9) 1.10924(4) 0.7040(4)
N2 N 1.17557(8) 0.92010(4) 0.3695(4)
H9 H 1.20460 0.89770 0.21690
N3 N 1.07490(8) 0.84717(5) 0.4442(3)
H10 H 1.11960 0.83090 0.31300
N4 N 0.78707(8) 0.70450(5) 0.9289(3)
O1 O 1.03008(7) 0.93222(4) 0.6627(3)
O2 O 1.34874(8) 1.14806(4) 0.8583(3)
O3 O 1.47594(7) 1.10842(4) 0.6331(4)
O4 O 0.79812(7) 0.65456(4) 0.8824(4)
O5 O 0.71670(7) 0.72351(4) 1.0937(4)
#END
