
#######################################################################
#
#                 Cambridge Crystallographic Data Centre
#                                CCDC
#
#######################################################################
#
# If this CIF has been generated from an entry in the Cambridge
# Structural Database, then it will include bibliographic, chemical,
# crystal, experimental, refinement or atomic coordinate data resulting
# from the CCDC's data processing and validation procedures.
#
#######################################################################

data_CSD_CIF_ZURXER
_audit_creation_date 2015-09-04
_audit_creation_method CSD-ConQuest-V1
_database_code_CSD ZURXER
_database_code_depnum_ccdc_archive 'CCDC 1061137'
_chemical_formula_sum 'C27 H25 N3 O6'
_chemical_formula_moiety
;
C27 H25 N3 O6
;
_journal_coden_Cambridge 1336
_journal_volume 17
_journal_year 2015
_journal_page_first 4148
_journal_name_full 'Org.Lett. '
loop_
_publ_author_name
"N.V.Rostovskii"
"P.A.Sakharov"
"M.S.Novikov"
"A.F.Khlebnikov"
"G.L.Starova"
_chemical_name_systematic
;
1-(4-Methoxybenzyl)-3-(4-methoxyphenyl)-3-(2-(4-nitrophenyl)aziridin-2-yl)pyrr
olidine-2,4-dione
;
_cell_volume   2310.772
_exptl_crystal_colour 'colorless'
_exptl_crystal_density_diffrn 1.401
_exptl_crystal_description 'prism'
_diffrn_ambient_temperature 100
#These two values have been output from a single CSD field.
_refine_ls_R_factor_gt 0.051
_refine_ls_wR_factor_gt 0.051
_symmetry_cell_setting monoclinic
_symmetry_space_group_name_H-M 'P 21/n'
_symmetry_Int_Tables_number 14
loop_
_symmetry_equiv_pos_site_id
_symmetry_equiv_pos_as_xyz
1 x,y,z
2 1/2-x,1/2+y,1/2-z
3 -x,-y,-z
4 -1/2+x,-1/2-y,-1/2+z
_cell_length_a 10.2124(3)
_cell_length_b 18.4158(7)
_cell_length_c 12.9366(3)
_cell_angle_alpha 90
_cell_angle_beta 108.237(3)
_cell_angle_gamma 90
_cell_formula_units_Z 4
loop_
_atom_type_symbol
_atom_type_radius_bond
C 0.68
H 0.23
N 0.68
O 0.68
loop_
_atom_site_label
_atom_site_type_symbol
_atom_site_fract_x
_atom_site_fract_y
_atom_site_fract_z
O1 O 0.23440(13) 0.03708(8) 0.68898(10)
O2 O 0.55150(13) 0.16744(9) 0.34603(10)
O3 O 0.14595(14) 0.28679(9) 0.62032(11)
O4 O 0.04577(15) 0.06722(10) 1.18951(11)
N1 N 0.28321(16) 0.14029(10) 0.79183(12)
O5 O -0.43984(16) 0.23524(12) 0.72539(13)
C1 C 0.4585(2) 0.09915(12) 0.46828(15)
H1 H 0.51060 0.05820 0.46530
N2 N -0.00762(16) 0.16007(11) 0.41507(12)
C2 C -0.19405(19) 0.10323(13) 0.70375(14)
H2 H -0.21040 0.06710 0.74840
C3 C 0.23635(17) 0.10327(12) 0.69807(13)
C4 C 0.46921(19) 0.16126(13) 0.41062(14)
C5 C 0.29101(17) 0.15917(12) 0.53770(13)
C6 C 0.30460(18) 0.22166(12) 0.48044(14)
H3 H 0.25370 0.26290 0.48440
C7 C -0.06975(18) 0.14871(12) 0.58614(13)
C8 C -0.24765(19) 0.22271(13) 0.62075(14)
H4 H -0.29880 0.26540 0.61070
C9 C 0.1119(2) 0.07991(12) 1.11438(15)
C10 C 0.39308(19) 0.22305(12) 0.41772(14)
H5 H 0.40160 0.26510 0.38050
C11 C -0.09392(19) 0.09430(12) 0.65295(14)
H6 H -0.04250 0.05170 0.66350
C12 C 0.01981(18) 0.08259(12) 0.44614(14)
H7 H -0.05870 0.05030 0.43360
H8 H 0.10170 0.06050 0.43690
O6 O -0.3883(2) 0.13101(14) 0.80233(16)
C13 C -0.14751(19) 0.21274(12) 0.57033(14)
H9 H -0.13180 0.24900 0.52550
C14 C 0.35375(19) 0.10596(14) 0.89543(14)
H10 H 0.43630 0.13360 0.93150
H11 H 0.38230 0.05760 0.88170
C15 C 0.19209(18) 0.23008(12) 0.66182(14)
C16 C 0.1247(2) 0.10608(13) 0.93558(14)
H12 H 0.08040 0.11710 0.86280
N3 N -0.37398(18) 0.17850(13) 0.74166(14)
C17 C 0.2671(2) 0.09990(12) 0.97174(14)
C18 C -0.26973(18) 0.16782(13) 0.68622(14)
C19 C 0.2554(2) 0.07447(14) 1.15248(15)
H13 H 0.29980 0.06400 1.22540
C20 C 0.3687(2) 0.09852(12) 0.53115(15)
H14 H 0.36100 0.05670 0.56910
C21 C 0.0457(2) 0.09626(13) 1.00555(15)
H15 H -0.04980 0.10060 0.97960
C22 C 0.03901(18) 0.13926(11) 0.53062(13)
C23 C 0.26256(19) 0.21859(12) 0.78259(14)
C24 C 0.6298(2) 0.10479(13) 0.33668(15)
H16 H 0.68510 0.11590 0.29090
H17 H 0.56820 0.06560 0.30540
H18 H 0.68850 0.09090 0.40750
C25 C -0.0992(2) 0.08092(14) 1.15637(16)
H19 H -0.14440 0.05160 1.09400
H20 H -0.11610 0.13130 1.13800
H21 H -0.13460 0.06900 1.21480
C26 C 0.3320(2) 0.08463(14) 1.08168(15)
H22 H 0.42760 0.08120 1.10790
C27 C 0.18738(18) 0.15748(12) 0.60278(13)
H23 H 0.205(3) 0.2350(16) 0.817(2)
H24 H 0.350(3) 0.2446(18) 0.808(2)
H25 H 0.067(3) 0.1756(16) 0.394(2)
#END
