
#######################################################################
#
#                 Cambridge Crystallographic Data Centre
#                                CCDC
#
#######################################################################
#
# If this CIF has been generated from an entry in the Cambridge
# Structural Database, then it will include bibliographic, chemical,
# crystal, experimental, refinement or atomic coordinate data resulting
# from the CCDC's data processing and validation procedures.
#
#######################################################################

data_CSD_CIF_ZURYIW
_audit_creation_date 2015-09-04
_audit_creation_method CSD-ConQuest-V1
_database_code_CSD ZURYIW
_database_code_depnum_ccdc_archive 'CCDC 1409310'
_chemical_formula_sum 'C28 H29 N5 O4'
_chemical_formula_moiety
;
C28 H29 N5 O4
;
_journal_coden_Cambridge 1336
_journal_volume 17
_journal_year 2015
_journal_page_first 4140
_journal_name_full 'Org.Lett. '
loop_
_publ_author_name
"R.Samanta"
"B.Sathish Kumar"
"P.K.Panda"
_chemical_name_systematic
;
2,2',2'',2'''-((4-Nitro-1,2-phenylene)bis(oxypropane-1,2,2-triyl))tetrakis(1H-
pyrrole)
;
_cell_volume   1223.954
_exptl_crystal_colour 'colorless'
_exptl_crystal_density_diffrn 1.356
_exptl_crystal_description 'block'
_diffrn_ambient_temperature 293
#These two values have been output from a single CSD field.
_refine_ls_R_factor_gt 0.0722
_refine_ls_wR_factor_gt 0.0722
_symmetry_cell_setting triclinic
_symmetry_space_group_name_H-M 'P -1'
_symmetry_Int_Tables_number 2
loop_
_symmetry_equiv_pos_site_id
_symmetry_equiv_pos_as_xyz
1 x,y,z
2 -x,-y,-z
_cell_length_a 7.7823(8)
_cell_length_b 10.8987(12)
_cell_length_c 15.2414(18)
_cell_angle_alpha 72.781(10)
_cell_angle_beta 83.016(9)
_cell_angle_gamma 85.094(9)
_cell_formula_units_Z 2
loop_
_atom_type_symbol
_atom_type_radius_bond
C 0.68
H 0.23
N 0.68
O 0.68
loop_
_atom_site_label
_atom_site_type_symbol
_atom_site_fract_x
_atom_site_fract_y
_atom_site_fract_z
O1 O 0.2192(3) 0.0832(2) 0.12148(14)
O2 O 0.1459(3) 0.2649(2) 0.18818(15)
N1 N 0.0952(5) 0.1817(3) 0.4769(2)
N2 N 0.2125(4) -0.0605(3) 0.2984(2)
C1 C 0.2495(4) 0.1975(4) 0.0609(2)
C2 C 0.2102(4) 0.3007(4) 0.0983(2)
N3 N -0.1814(4) -0.1656(4) 0.2341(2)
C3 C -0.1131(4) 0.4009(3) 0.3575(2)
C4 C 0.1957(4) -0.1566(4) 0.2599(2)
C5 C -0.0106(4) 0.2975(3) 0.3248(2)
C6 C 0.2388(5) 0.4234(4) 0.0452(2)
H1 H 0.21140 0.49310 0.06860
C7 C 0.3457(5) 0.3432(4) -0.0835(2)
H2 H 0.39050 0.35950 -0.14510
C8 C 0.1302(4) 0.2414(3) 0.3853(2)
C9 C 0.2234(5) -0.0296(4) 0.0934(2)
H3 H 0.34250 -0.06110 0.08340
H4 H 0.17110 -0.01120 0.03600
C10 C 0.3145(4) 0.2201(4) -0.0301(2)
H5 H 0.33730 0.15190 -0.05560
C11 C 0.2415(4) -0.2682(4) 0.3221(2)
H6 H 0.24210 -0.34990 0.31470
C12 C 0.2704(4) -0.1107(4) 0.3818(2)
H7 H 0.29440 -0.06410 0.42070
N4 N 0.3510(5) 0.5702(4) -0.1004(3)
C13 C -0.0635(4) -0.0850(4) 0.1774(2)
C14 C 0.0675(5) 0.3618(3) 0.2272(2)
H8 H -0.02220 0.41060 0.19040
H9 H 0.15350 0.42050 0.22840
C15 C -0.1507(5) 0.0270(4) 0.1400(2)
H10 H -0.10320 0.09980 0.09830
C16 C 0.3100(5) 0.4398(4) -0.0449(2)
C17 C 0.1239(4) -0.1305(3) 0.1685(2)
N5 N -0.2844(5) 0.4302(4) 0.3483(3)
O3 O 0.4390(4) 0.5835(3) -0.17436(19)
C18 C -0.1305(4) 0.1926(4) 0.3243(2)
H11 H -0.06350 0.12600 0.30420
H12 H -0.21720 0.22960 0.28290
H13 H -0.18570 0.15690 0.38550
C19 C 0.2453(5) 0.1409(4) 0.5159(3)
H14 H 0.25470 0.09950 0.57810
C20 C 0.2881(4) -0.2396(4) 0.3998(2)
H15 H 0.32420 -0.29810 0.45320
C21 C -0.0574(5) 0.4826(4) 0.3978(2)
H16 H 0.05490 0.48460 0.41220
C22 C 0.3035(5) 0.2337(4) 0.3679(3)
H17 H 0.36580 0.26540 0.31050
O4 O 0.2972(6) 0.6585(4) -0.0700(2)
C23 C 0.1411(5) -0.2520(4) 0.1369(3)
H18 H 0.08210 -0.31970 0.18300
H19 H 0.26150 -0.27780 0.12810
H20 H 0.09060 -0.23480 0.07980
C24 C 0.3753(5) 0.1698(4) 0.4508(3)
H21 H 0.49250 0.15140 0.45820
C25 C -0.3404(5) -0.1039(4) 0.2325(3)
H22 H -0.44210 -0.13830 0.26580
C26 C -0.3260(5) 0.0147(4) 0.1752(3)
H23 H -0.41530 0.07750 0.16110
C27 C -0.3325(7) 0.5328(5) 0.3842(3)
H24 H -0.44290 0.57250 0.38640
C28 C -0.1990(8) 0.5639(5) 0.4140(3)
H25 H -0.19730 0.62930 0.44160
H26 H 0.195(5) 0.019(4) 0.270(3)
H27 H -0.005(5) 0.185(4) 0.505(2)
H28 H -0.157(5) -0.239(4) 0.274(3)
H29 H -0.347(8) 0.399(7) 0.314(4)
#END
