
#######################################################################
#
#                 Cambridge Crystallographic Data Centre
#                                CCDC
#
#######################################################################
#
# If this CIF has been generated from an entry in the Cambridge
# Structural Database, then it will include bibliographic, chemical,
# crystal, experimental, refinement or atomic coordinate data resulting
# from the CCDC's data processing and validation procedures.
#
#######################################################################

data_CSD_CIF_ZUTCUO
_audit_creation_date 2015-09-04
_audit_creation_method CSD-ConQuest-V1
_database_code_CSD ZUTCUO
_database_code_depnum_ccdc_archive 'CCDC 891156'
_chemical_formula_sum 'C20 H18 N2 O3'
_chemical_formula_moiety
;
C20 H18 N2 O3
;
_journal_coden_Cambridge 35
_journal_volume 78
_journal_year 2013
_journal_page_first 3503
_journal_name_full 'J.Org.Chem. '
loop_
_publ_author_name
"Hu Chen"
"Zhaofeng Wang"
"Yingnan Zhang"
"Yong Huang"
_chemical_name_systematic
;
(3R,3aS,6aR)-5-Methyl-2-phenyl-3-((E)-styryl)-dihydro-2H-pyrrolo(3,4-d)isoxazo
le-4,6(5H,6aH)-dione
;
_cell_volume   3310.994
_exptl_crystal_colour 'colorless'
_exptl_crystal_density_diffrn 1.342
_exptl_crystal_description 'block'
_diffrn_ambient_temperature 298
#These two values have been output from a single CSD field.
_refine_ls_R_factor_gt 0.0847
_refine_ls_wR_factor_gt 0.0847
loop_
_citation_database_id_CSD
_citation_special_details
ZUTDAV "is a stereoisomer of this entry"
_symmetry_cell_setting orthorhombic
_symmetry_space_group_name_H-M 'P b c a'
_symmetry_Int_Tables_number 61
loop_
_symmetry_equiv_pos_site_id
_symmetry_equiv_pos_as_xyz
1 x,y,z
2 1/2-x,-y,1/2+z
3 1/2+x,1/2-y,-z
4 -x,1/2+y,1/2-z
5 -x,-y,-z
6 -1/2+x,y,-1/2-z
7 -1/2-x,-1/2+y,z
8 x,-1/2-y,-1/2+z
_cell_length_a 10.6882(2)
_cell_length_b 16.7476(4)
_cell_length_c 18.4970(13)
_cell_angle_alpha 90
_cell_angle_beta 90
_cell_angle_gamma 90
_cell_formula_units_Z 8
loop_
_atom_type_symbol
_atom_type_radius_bond
C 0.68
H 0.23
N 0.68
O 0.68
loop_
_atom_site_label
_atom_site_type_symbol
_atom_site_fract_x
_atom_site_fract_y
_atom_site_fract_z
O1 O 0.8744(2) 0.03697(14) 0.61885(12)
O2 O 0.4797(2) 0.09809(18) 0.55559(14)
O3 O 0.7332(3) 0.0827(2) 0.75218(13)
N1 N 0.8505(2) 0.09765(16) 0.56245(13)
N2 N 0.5912(2) 0.10290(17) 0.66103(15)
C1 C 0.6969(3) 0.1046(2) 0.45904(17)
H1 H 0.68130 0.15790 0.46990
C2 C 0.6594(3) 0.0758(2) 0.39579(17)
H2 H 0.69560 0.02800 0.38110
C3 C 0.5675(3) 0.1109(2) 0.34665(17)
C4 C 0.5688(3) 0.0764(2) 0.59147(19)
C5 C 0.7636(3) 0.05411(19) 0.51351(16)
H3 H 0.80800 0.01060 0.48920
C6 C 0.6712(3) 0.0198(2) 0.56974(16)
H4 H 0.63730 -0.03180 0.55420
C7 C 0.4952(3) 0.1766(2) 0.36500(19)
H5 H 0.50970 0.20260 0.40860
C8 C 0.9706(3) 0.12074(19) 0.53599(17)
C9 C 0.5423(4) 0.0725(2) 0.28092(18)
H6 H 0.58890 0.02810 0.26740
C10 C 0.6942(3) 0.0684(2) 0.69199(18)
C11 C 0.7514(3) 0.0114(2) 0.63740(17)
H7 H 0.75130 -0.04360 0.65540
C12 C 0.9881(3) 0.1458(3) 0.4660(2)
H8 H 0.92200 0.14410 0.43340
C13 C 1.0716(3) 0.1236(2) 0.5841(2)
H9 H 1.06170 0.10660 0.63160
C14 C 1.1041(4) 0.1736(3) 0.4441(2)
H10 H 1.11480 0.19050 0.39660
C15 C 0.4019(4) 0.2042(3) 0.3197(2)
H11 H 0.35510 0.24880 0.33270
C16 C 1.1860(3) 0.1519(2) 0.5606(2)
H12 H 1.25260 0.15390 0.59290
C17 C 0.5130(4) 0.1607(3) 0.6984(2)
H13 H 0.44580 0.17690 0.66730
H14 H 0.56230 0.20640 0.71130
H15 H 0.47920 0.13680 0.74140
C18 C 1.2034(4) 0.1770(2) 0.4909(2)
H16 H 1.28080 0.19580 0.47560
C19 C 0.4484(4) 0.1003(3) 0.2362(2)
H17 H 0.43300 0.07430 0.19270
C20 C 0.3778(4) 0.1653(3) 0.2545(2)
H18 H 0.31470 0.18330 0.22400
#END
