
#######################################################################
#
#                 Cambridge Crystallographic Data Centre
#                                CCDC
#
#######################################################################
#
# If this CIF has been generated from an entry in the Cambridge
# Structural Database, then it will include bibliographic, chemical,
# crystal, experimental, refinement or atomic coordinate data resulting
# from the CCDC's data processing and validation procedures.
#
#######################################################################

data_CSD_CIF_ZUXRAN
_audit_creation_date 2016-01-04
_audit_creation_method CSD-ConQuest-V1
_database_code_CSD ZUXRAN
_database_code_depnum_ccdc_archive 'CCDC 1404695'
_chemical_formula_sum 'C16 H10 N4 O2'
_chemical_formula_moiety
;
C16 H10 N4 O2
;
_journal_coden_Cambridge 35
_journal_volume 81
_journal_year 2016
_journal_page_first 146
_journal_name_full 'J.Org.Chem. '
loop_
_publ_author_name
"L.Senica"
"K.Stopar"
"M.Friedrich"
"U.Groselj"
"J.Plavec"
"M.Pockaj"
"C.Podlipnik"
"B.Stefane"
"J.Svete"
_chemical_name_systematic
;
5-(2-Nitrophenyl)-1-phenyl-1H-pyrazole-4-carbonitrile
;
_cell_volume    716.928
_exptl_crystal_colour 'colorless'
_exptl_crystal_density_diffrn 1.345
_exptl_crystal_description 'prism'
_diffrn_ambient_temperature 293
#These two values have been output from a single CSD field.
_refine_ls_R_factor_gt 0.0652
_refine_ls_wR_factor_gt 0.0652
_symmetry_cell_setting triclinic
_symmetry_space_group_name_H-M 'P -1'
_symmetry_Int_Tables_number 2
loop_
_symmetry_equiv_pos_site_id
_symmetry_equiv_pos_as_xyz
1 x,y,z
2 -x,-y,-z
_cell_length_a 7.9251(4)
_cell_length_b 8.5930(5)
_cell_length_c 11.6468(7)
_cell_angle_alpha 69.962(5)
_cell_angle_beta 74.221(5)
_cell_angle_gamma 85.653(4)
_cell_formula_units_Z 2
loop_
_atom_type_symbol
_atom_type_radius_bond
C 0.68
H 0.23
N 0.68
O 0.68
loop_
_atom_site_label
_atom_site_type_symbol
_atom_site_fract_x
_atom_site_fract_y
_atom_site_fract_z
O1 O 0.7253(4) 0.8350(3) 0.8144(4)
O2 O 0.6039(3) 0.6024(3) 0.8656(2)
N1 N 0.7441(3) 0.4419(2) 0.67026(19)
N2 N 0.6303(3) 0.3341(2) 0.6652(2)
N3 N 0.7714(4) 0.0307(4) 1.0394(4)
N4 N 0.7305(3) 0.6879(3) 0.8396(2)
C1 C 0.6255(4) 0.2018(3) 0.7666(3)
H1 H 0.55830 0.10680 0.78820
C2 C 0.7343(3) 0.2225(3) 0.8373(2)
C3 C 0.8082(3) 0.3800(3) 0.7729(2)
C4 C 0.7618(3) 0.1012(3) 0.9612(3)
C5 C 0.9348(3) 0.4655(3) 0.8040(2)
C6 C 0.9032(3) 0.6117(3) 0.8321(2)
C7 C 1.0280(3) 0.6903(3) 0.8563(2)
H2 H 1.00250 0.78850 0.87390
C8 C 1.1916(3) 0.6212(3) 0.8539(2)
H3 H 1.27780 0.67330 0.86920
C9 C 1.2262(3) 0.4762(4) 0.8290(3)
H4 H 1.33580 0.42890 0.82900
C10 C 1.1003(3) 0.3983(3) 0.8038(2)
H5 H 1.12680 0.30000 0.78650
C11 C 0.7671(3) 0.6047(3) 0.5772(2)
C12 C 0.6229(4) 0.6785(3) 0.5360(3)
H6 H 0.51550 0.62220 0.56640
C13 C 0.6411(5) 0.8362(4) 0.4492(3)
H7 H 0.54500 0.88720 0.42130
C14 C 0.7995(6) 0.9193(4) 0.4036(3)
H8 H 0.81000 1.02660 0.34590
C15 C 0.9443(5) 0.8431(4) 0.4436(3)
H9 H 1.05190 0.89920 0.41190
C16 C 0.9291(4) 0.6843(3) 0.5302(2)
H10 H 1.02590 0.63210 0.55630
#END
