
#######################################################################
#
#                 Cambridge Crystallographic Data Centre
#                                CCDC
#
#######################################################################
#
# If this CIF has been generated from an entry in the Cambridge
# Structural Database, then it will include bibliographic, chemical,
# crystal, experimental, refinement or atomic coordinate data resulting
# from the CCDC's data processing and validation procedures.
#
#######################################################################

data_CSD_CIF_ZUXSES
_audit_creation_date 2016-01-04
_audit_creation_method CSD-ConQuest-V1
_database_code_CSD ZUXSES
_database_code_depnum_ccdc_archive 'CCDC 1047892'
_chemical_formula_sum 'C22 H24 N2 O7'
_chemical_formula_moiety
;
C22 H24 N2 O7
;
_journal_coden_Cambridge 35
_journal_volume 80
_journal_year 2015
_journal_page_first 12058
_journal_name_full 'J.Org.Chem. '
loop_
_publ_author_name
"J.F.Hooper"
"N.C.James"
"E.Bozkurt"
"V.Aviyente"
"J.M.White"
"M.C.Holland"
"Ryan Gilmour"
"A.B.Holmes"
"K.N.Houk"
_chemical_name_systematic
;
(6-Methyl-14-oxatricyclo[6.5.1.0^2,7^]tetradeca-5,10-dien-3-yl)methyl 
3,5-dinitrobenzoate
;
_cell_volume   2043.326
_exptl_crystal_colour 'colorless'
_exptl_crystal_density_diffrn 1.393
_exptl_crystal_description 'needle'
_diffrn_ambient_temperature 130
#These two values have been output from a single CSD field.
_refine_ls_R_factor_gt 0.0576
_refine_ls_wR_factor_gt 0.0576
_symmetry_cell_setting orthorhombic
_symmetry_space_group_name_H-M 'P 21 21 21'
_symmetry_Int_Tables_number 19
loop_
_symmetry_equiv_pos_site_id
_symmetry_equiv_pos_as_xyz
1 x,y,z
2 1/2-x,-y,1/2+z
3 1/2+x,1/2-y,-z
4 -x,1/2+y,1/2-z
_cell_length_a 5.8916(2)
_cell_length_b 9.3511(3)
_cell_length_c 37.0887(11)
_cell_angle_alpha 90
_cell_angle_beta 90
_cell_angle_gamma 90
_cell_formula_units_Z 4
loop_
_atom_type_symbol
_atom_type_radius_bond
C 0.68
H 0.23
N 0.68
O 0.68
loop_
_atom_site_label
_atom_site_type_symbol
_atom_site_fract_x
_atom_site_fract_y
_atom_site_fract_z
C1 C 0.9754(9) 1.1515(6) 0.71002(13)
H1 H 0.94940 1.12830 0.73550
C2 C 1.1142(11) 1.2888(6) 0.70786(15)
H2 H 1.01470 1.36870 0.71320
H3 H 1.22930 1.28580 0.72650
C3 C 1.2288(11) 1.3177(6) 0.67275(16)
H4 H 1.38480 1.33250 0.67360
C4 C 1.1323(11) 1.3246(6) 0.64041(17)
H5 H 1.23050 1.34310 0.62130
C5 C 0.8886(11) 1.3069(6) 0.63039(16)
H6 H 0.86210 1.35550 0.60770
H7 H 0.79590 1.35330 0.64850
C6 C 0.8102(10) 1.1499(5) 0.62666(13)
H8 H 0.93330 1.09470 0.61630
H9 H 0.68390 1.14650 0.60990
C7 C 0.7361(10) 1.0777(5) 0.66242(13)
H10 H 0.57650 1.04950 0.66030
C8 C 0.8722(9) 0.9487(5) 0.67503(12)
H11 H 0.78760 0.90420 0.69480
C9 C 1.0791(9) 1.0208(5) 0.69129(13)
H12 H 1.17100 1.05650 0.67120
C10 C 1.2249(10) 0.9159(6) 0.71202(12)
C11 C 1.2224(10) 0.7808(6) 0.70146(13)
H13 H 1.31970 0.71850 0.71340
C12 C 1.0775(10) 0.7175(6) 0.67188(14)
H14 H 0.96930 0.65180 0.68260
H15 H 1.17400 0.66290 0.65580
C13 C 0.9473(9) 0.8293(5) 0.64972(12)
H16 H 1.05200 0.87020 0.63200
C14 C 1.3718(11) 0.9715(7) 0.74177(14)
H17 H 1.44570 0.89290 0.75360
H18 H 1.28000 1.02240 0.75890
H19 H 1.48410 1.03490 0.73190
C15 C 0.7487(10) 0.7657(6) 0.62968(13)
H20 H 0.65540 0.70980 0.64600
H21 H 0.65590 0.84100 0.61940
C16 C 0.7153(9) 0.6676(5) 0.57096(13)
C17 C 0.8454(9) 0.5966(5) 0.54058(12)
C18 C 1.0488(9) 0.5267(5) 0.54506(12)
H22 H 1.11760 0.52180 0.56760
C19 C 1.1490(9) 0.4637(5) 0.51520(13)
C20 C 1.0529(9) 0.4690(5) 0.48108(13)
H23 H 1.12230 0.42670 0.46120
C21 C 0.8511(9) 0.5397(5) 0.47819(12)
C22 C 0.7435(9) 0.6048(5) 0.50676(11)
H24 H 0.60670 0.65280 0.50360
N1 N 1.3581(8) 0.3796(4) 0.51978(12)
N2 N 0.7338(9) 0.5419(4) 0.44266(10)
O1 O 0.7581(6) 1.1730(4) 0.69262(8)
O2 O 0.8408(6) 0.6738(4) 0.60089(8)
O3 O 0.5281(7) 0.7125(4) 0.56763(9)
O4 O 1.4267(7) 0.3576(4) 0.55064(10)
O5 O 1.4527(6) 0.3360(4) 0.49246(9)
O6 O 0.8332(7) 0.4861(4) 0.41717(9)
O7 O 0.5457(7) 0.5955(4) 0.44134(9)
#END
