
#######################################################################
#
#                 Cambridge Crystallographic Data Centre
#                                CCDC
#
#######################################################################
#
# If this CIF has been generated from an entry in the Cambridge
# Structural Database, then it will include bibliographic, chemical,
# crystal, experimental, refinement or atomic coordinate data resulting
# from the CCDC's data processing and validation procedures.
#
#######################################################################

data_CSD_CIF_ZZZFYW02
_audit_creation_date 1999-12-03
_audit_creation_method CSD-ConQuest-V1
_database_code_CSD ZZZFYW02
_chemical_formula_sum 'C6 H4 N2 O4'
_chemical_formula_moiety
;
C6 H4 N2 O4
;
_journal_coden_Cambridge 119
_journal_volume 445
_journal_year 1998
_journal_page_first 89
_journal_name_full 'J.Mol.Struct. '
loop_
_publ_author_name
"J.K.Laerdahl"
"K.Faegri Junior"
"C.Romming"
"O.Swang"
"T.Midtgard"
"K.Schoffel"
_chemical_name_systematic
;
1,2-Dinitrobenzene
;
_cell_volume    679.954
_exptl_crystal_density_diffrn 1.642
_diffrn_ambient_temperature 138.15
#These two values have been output from a single CSD field.
_refine_ls_R_factor_gt 0.033
_refine_ls_wR_factor_gt 0.033
_symmetry_cell_setting monoclinic
_symmetry_space_group_name_H-M 'P 21/a'
_symmetry_Int_Tables_number 14
loop_
_symmetry_equiv_pos_site_id
_symmetry_equiv_pos_as_xyz
1 x,y,z
2 1/2-x,1/2+y,-z
3 -x,-y,-z
4 -1/2+x,-1/2-y,z
_cell_length_a 7.258(1)
_cell_length_b 12.866(2)
_cell_length_c 7.915(1)
_cell_angle_alpha 90
_cell_angle_beta 113.08(1)
_cell_angle_gamma 90
_cell_formula_units_Z 4
loop_
_atom_type_symbol
_atom_type_radius_bond
C 0.68
N 0.68
O 0.68
loop_
_atom_site_label
_atom_site_type_symbol
_atom_site_fract_x
_atom_site_fract_y
_atom_site_fract_z
O1 O 0.83936(16) 0.21128(8) -0.15560(9)
O2 O 0.64888(13) 0.09859(6) -0.09614(9)
O3 O 0.94979(12) 0.00345(5) 0.1892(1)
O4 O 0.77954(13) -0.00724(6) 0.36206(13)
N1 N 0.76762(11) 0.17125(5) -0.05423(8)
N2 N 0.85789(10) 0.04199(4) 0.27472(9)
C1 C 0.82229(10) 0.21704(5) 0.12853(7)
C2 C 0.84786(9) 0.15564(4) 0.28122(8)
C3 C 0.87818(11) 0.20099(5) 0.44895(8)
C4 C 0.88384(11) 0.30908(6) 0.46331(9)
C5 C 0.86060(12) 0.37053(5) 0.31147(10)
C6 C 0.82908(11) 0.32466(5) 0.14243(9)
#END
