
#######################################################################
#
#                 Cambridge Crystallographic Data Centre
#                                CCDC
#
#######################################################################
#
# If this CIF has been generated from an entry in the Cambridge
# Structural Database, then it will include bibliographic, chemical,
# crystal, experimental, refinement or atomic coordinate data resulting
# from the CCDC's data processing and validation procedures.
#
#######################################################################

data_CSD_CIF_ZZZGUG01
_audit_creation_date 2000-07-13
_audit_creation_method CSD-ConQuest-V1
_database_code_CSD ZZZGUG01
_database_code_depnum_ccdc_archive 'CCDC 145540'
_chemical_formula_sum 'C10 H7 N1 O3'
_chemical_formula_moiety
;
C10 H7 N1 O3
;
_journal_coeditor_code "IUCr DE1129"
_journal_coden_Cambridge 591
_journal_volume 56
_journal_year 2000
_journal_page_first 577
_journal_name_full 'Acta Crystallogr.,Sect.C:Cryst.Struct.Commun. '
loop_
_publ_author_name
"T.Steiner"
"A.M.M.Schreurs"
"M.Lutz"
"J.Kroon"
_chemical_name_systematic
;
2-Carboxyquinoline-N-oxide
;
_chemical_name_common
;
Quinaldic acid N-oxide
;
_cell_volume    810.441
_exptl_crystal_colour 'yellow'
_exptl_crystal_density_diffrn 1.55
_exptl_crystal_description 'needle'
_exptl_crystal_preparation 'methanol'
_diffrn_ambient_temperature 125
#These two values have been output from a single CSD field.
_refine_ls_R_factor_gt 0.0439
_refine_ls_wR_factor_gt 0.0439
_symmetry_cell_setting monoclinic
_symmetry_space_group_name_H-M 'P 21/n'
_symmetry_Int_Tables_number 14
loop_
_symmetry_equiv_pos_site_id
_symmetry_equiv_pos_as_xyz
1 x,y,z
2 1/2-x,1/2+y,1/2-z
3 -x,-y,-z
4 -1/2+x,-1/2-y,-1/2+z
_cell_length_a 3.821(3)
_cell_length_b 16.2406(10)
_cell_length_c 13.062(3)
_cell_angle_alpha 90
_cell_angle_beta 91.01(1)
_cell_angle_gamma 90
_cell_formula_units_Z 4
loop_
_atom_type_symbol
_atom_type_radius_bond
C 0.68
H 0.23
N 0.68
O 0.68
loop_
_atom_site_label
_atom_site_type_symbol
_atom_site_fract_x
_atom_site_fract_y
_atom_site_fract_z
O1 O 0.1911(3) 0.59674(8) 0.01160(9)
O2 O -0.1087(3) 0.71560(8) -0.06214(9)
H1 H 0.030(7) 0.6661(18) -0.0461(19)
O3 O -0.3819(4) 0.80210(8) 0.04224(10)
N1 N 0.0758(3) 0.61709(8) 0.10397(10)
C1 C -0.1093(4) 0.68663(10) 0.11830(12)
C2 C -0.2132(4) 0.7088(1) 0.21682(13)
H2 H -0.348(5) 0.7586(13) 0.2224(15)
C3 C -0.1263(4) 0.66081(10) 0.29952(13)
H3 H -0.193(5) 0.6760(12) 0.3695(15)
C4 C 0.0599(4) 0.58659(10) 0.28427(12)
C5 C 0.1561(4) 0.56377(10) 0.18441(12)
C6 C 0.3294(4) 0.48881(10) 0.16478(14)
H4 H 0.385(5) 0.4746(13) 0.0945(16)
C7 C 0.4025(4) 0.43789(11) 0.24559(15)
H5 H 0.513(5) 0.3856(15) 0.2322(16)
C8 C 0.3184(4) 0.45986(11) 0.34693(14)
H6 H 0.375(5) 0.4235(13) 0.4030(16)
C9 C 0.1524(4) 0.53244(11) 0.36586(14)
H7 H 0.100(5) 0.5497(12) 0.4338(14)
C10 C -0.2104(4) 0.74042(11) 0.02758(13)
#END
