
#######################################################################
#
#                 Cambridge Crystallographic Data Centre
#                                CCDC
#
#######################################################################
#
# If this CIF has been generated from an entry in the Cambridge
# Structural Database, then it will include bibliographic, chemical,
# crystal, experimental, refinement or atomic coordinate data resulting
# from the CCDC's data processing and validation procedures.
#
#######################################################################

data_CSD_CIF_ZZZMGS02
_audit_creation_date 2008-12-09
_audit_creation_method CSD-ConQuest-V1
_database_code_CSD ZZZMGS02
_database_code_depnum_ccdc_archive 'CCDC 673766'
_chemical_formula_sum 'C13 H10 N4 O6'
_chemical_formula_moiety
;
C13 H10 N4 O6
;
_journal_coden_Cambridge 1147
_journal_volume 8
_journal_year 2008
_journal_page_first 1977
_journal_name_full 'Cryst.Growth Des. '
loop_
_publ_author_name
"D.E.Braun"
"T.Gelbrich"
"R.K.R.Jetti"
"V.Kahlenberg"
"S.L.Price"
"U.J.Griesser"
_chemical_name_systematic
;
(p-Tolyl)-(2,4,6-trinitrophenyl)amine
;
_chemical_name_common
;
N-Picryl-p-toluidine
;
_chemical_melting_point 439
_cell_volume   1359.200
_exptl_crystal_colour 'red'
_exptl_crystal_density_diffrn 1.555
_exptl_special_details
;
polymorph I

;
_exptl_crystal_description 'lath'
_diffrn_ambient_temperature 173
#These two values have been output from a single CSD field.
_refine_ls_R_factor_gt 0.0633
_refine_ls_wR_factor_gt 0.0633
_symmetry_cell_setting monoclinic
_symmetry_space_group_name_H-M 'P 21/a'
_symmetry_Int_Tables_number 14
loop_
_symmetry_equiv_pos_site_id
_symmetry_equiv_pos_as_xyz
1 x,y,z
2 1/2-x,1/2+y,-z
3 -x,-y,-z
4 -1/2+x,-1/2-y,z
_cell_length_a 6.0603(9)
_cell_length_b 17.465(3)
_cell_length_c 13.132(2)
_cell_angle_alpha 90
_cell_angle_beta 102.0710(12)
_cell_angle_gamma 90
_cell_formula_units_Z 4
loop_
_atom_type_symbol
_atom_type_radius_bond
C 0.68
H 0.23
N 0.68
O 0.68
loop_
_atom_site_label
_atom_site_type_symbol
_atom_site_fract_x
_atom_site_fract_y
_atom_site_fract_z
O1 O 0.2812(4) -0.00408(13) 0.14754(19)
O2 O 0.9231(4) 0.20045(14) 0.29583(19)
N1 N 0.5617(5) 0.13345(17) 0.1860(2)
H1 H 0.694(7) 0.152(2) 0.185(3)
O3 O -0.0217(4) 0.03425(14) 0.19746(19)
N2 N 0.3421(5) 0.08215(16) 0.5766(2)
C1 C 0.3249(5) 0.07342(17) 0.2927(3)
O4 O 0.9774(4) 0.20325(14) 0.46346(19)
O5 O 0.1668(5) 0.04847(16) 0.5783(2)
N3 N 0.8650(4) 0.18391(15) 0.3783(2)
N4 N 0.1840(5) 0.03180(15) 0.2050(2)
C2 C 0.6037(5) 0.12871(18) 0.4710(3)
H2 H 0.70100 0.14630 0.53290
O6 O 0.4663(5) 0.10856(19) 0.6538(2)
C3 C 0.6592(5) 0.14042(18) 0.3756(3)
C4 C 0.4067(5) 0.09142(18) 0.4759(3)
C5 C 0.2667(5) 0.06232(18) 0.3869(3)
H3 H 0.13310 0.03520 0.39130
C6 C 0.5178(5) 0.11633(18) 0.2791(3)
C7 C 0.4740(6) 0.11195(19) -0.0003(3)
H4 H 0.61580 0.08730 0.00540
C8 C 0.0589(5) 0.18352(19) -0.0179(3)
H5 H -0.08370 0.20760 -0.02340
C9 C 0.1245(6) 0.15786(19) -0.1075(3)
C10 C 0.1997(5) 0.17434(18) 0.0798(3)
H6 H 0.15420 0.19250 0.14040
C11 C 0.3322(6) 0.12182(19) -0.0969(3)
H7 H 0.37830 0.10350 -0.15730
C12 C 0.4064(5) 0.13847(18) 0.0879(3)
C13 C -0.0267(6) 0.1706(2) -0.2134(3)
H8 H -0.00870 0.22330 -0.23610
H9 H -0.18420 0.16200 -0.20900
H10 H 0.01490 0.13480 -0.26370
#END
