
#######################################################################
#
#                 Cambridge Crystallographic Data Centre
#                                CCDC
#
#######################################################################
#
# If this CIF has been generated from an entry in the Cambridge
# Structural Database, then it will include bibliographic, chemical,
# crystal, experimental, refinement or atomic coordinate data resulting
# from the CCDC's data processing and validation procedures.
#
#######################################################################

data_CSD_CIF_ZZZNQQ01
_audit_creation_date 2006-07-10
_audit_creation_method CSD-ConQuest-V1
_database_code_CSD ZZZNQQ01
_database_code_depnum_ccdc_archive 'CCDC 608331'
_chemical_formula_sum 'C9 H7 N1 O4'
_chemical_formula_moiety
;
C9 H7 N1 O4
;
_journal_coeditor_code "IUCr FL2018"
_journal_coden_Cambridge 1370
_journal_volume 62
_journal_year 2006
_journal_page_first o2024
_journal_name_full 'Acta Crystallogr.,Sect.E:Struct.Rep.Online '
loop_
_publ_author_name
"G.Smith"
"U.D.Wermuth"
"D.J.Young"
"J.M.White"
_chemical_name_systematic
;
trans-3-(2-nitrophenyl)prop-2-enoic acid
;
_chemical_name_common
;
beta-2-nitro-trans-cinnamic acid
;
_chemical_melting_point 513
_cell_volume    417.406
_exptl_crystal_colour 'yellow'
_exptl_crystal_density_diffrn 1.537
_exptl_special_details
;
monoclinic P21 polymorph

;
_exptl_crystal_description 'plate'
_exptl_crystal_preparation '2-propanol/water'
_diffrn_ambient_temperature 130
#These two values have been output from a single CSD field.
_refine_ls_R_factor_gt 0.0628
_refine_ls_wR_factor_gt 0.0628
_symmetry_cell_setting monoclinic
_symmetry_space_group_name_H-M 'P 21'
_symmetry_Int_Tables_number 4
loop_
_symmetry_equiv_pos_site_id
_symmetry_equiv_pos_as_xyz
1 x,y,z
2 -x,1/2+y,-z
_cell_length_a 3.6850(18)
_cell_length_b 7.074(4)
_cell_length_c 16.073(8)
_cell_angle_alpha 90
_cell_angle_beta 94.978(11)
_cell_angle_gamma 90
_cell_formula_units_Z 2
loop_
_atom_type_symbol
_atom_type_radius_bond
C 0.68
H 0.23
N 0.68
O 0.68
loop_
_atom_site_label
_atom_site_type_symbol
_atom_site_fract_x
_atom_site_fract_y
_atom_site_fract_z
O1 O 1.0466(11) 0.3100(5) 0.8391(2)
O2 O 0.7878(12) 0.3815(5) 0.9506(3)
O3 O 0.8097(14) 0.1389(6) 0.5897(3)
O4 O 0.9943(14) 0.3380(6) 0.4917(3)
N1 N 0.8583(13) 0.4136(6) 0.8786(3)
C1 C 0.6333(18) 0.5951(9) 0.7522(4)
C2 C 0.6942(16) 0.5846(8) 0.8373(4)
C3 C 0.6254(18) 0.7309(8) 0.8899(4)
C4 C 0.4812(18) 0.8990(9) 0.8554(5)
C5 C 0.4196(17) 0.9123(9) 0.7716(4)
C6 C 0.4842(17) 0.7682(7) 0.7196(4)
C7 C 0.697(2) 0.4400(9) 0.6943(4)
C8 C 0.803(3) 0.4654(9) 0.6161(5)
C9 C 0.8736(19) 0.3128(10) 0.5586(4)
H1 H 0.67490 0.71810 0.94870
H2 H 0.42760 1.00190 0.89030
H3 H 0.32700 1.02770 0.74820
H4 H 0.42980 0.78250 0.66110
H5 H 0.66210 0.31420 0.71260
H6 H 0.83370 0.59150 0.59770
H7 H 0.87700 0.03600 0.56200
#END
