
#######################################################################
#
#                 Cambridge Crystallographic Data Centre
#                                CCDC
#
#######################################################################
#
# If this CIF has been generated from an entry in the Cambridge
# Structural Database, then it will include bibliographic, chemical,
# crystal, experimental, refinement or atomic coordinate data resulting
# from the CCDC's data processing and validation procedures.
#
#######################################################################

data_CSD_CIF_ZZZQSC02
_audit_creation_date 2005-06-02
_audit_creation_method CSD-ConQuest-V1
_database_code_CSD ZZZQSC02
_database_code_depnum_ccdc_archive 'CCDC 225824'
_chemical_formula_sum 'C7 H6 N2 O4'
_chemical_formula_moiety
;
C7 H6 N2 O4
;
_journal_coden_Cambridge 423
_journal_year 2004
_journal_page_first 667
_journal_name_full 'J.Chem.Res. '
loop_
_publ_author_name
"J.R.Hanson"
"P.B.Hitchcock"
"H.Saberi"
_chemical_name_systematic
;
2,6-Dinitrotoluene
;
_cell_volume    768.949
_exptl_crystal_colour 'colorless'
_exptl_crystal_density_diffrn 1.573
_exptl_crystal_description 'needle'
_diffrn_ambient_temperature 173
#These two values have been output from a single CSD field.
_refine_ls_R_factor_gt 0.0303
_refine_ls_wR_factor_gt 0.0303
_symmetry_cell_setting orthorhombic
_symmetry_space_group_name_H-M 'P 21 21 21'
_symmetry_Int_Tables_number 19
loop_
_symmetry_equiv_pos_site_id
_symmetry_equiv_pos_as_xyz
1 x,y,z
2 1/2-x,-y,1/2+z
3 1/2+x,1/2-y,-z
4 -x,1/2+y,1/2-z
_cell_length_a 7.2244(1)
_cell_length_b 7.7856(2)
_cell_length_c 13.6711(3)
_cell_angle_alpha 90
_cell_angle_beta 90
_cell_angle_gamma 90
_cell_formula_units_Z 4
loop_
_atom_type_symbol
_atom_type_radius_bond
C 0.68
H 0.23
N 0.68
O 0.68
loop_
_atom_site_label
_atom_site_type_symbol
_atom_site_fract_x
_atom_site_fract_y
_atom_site_fract_z
O1 O -0.01517(19) 0.83047(16) 0.23638(8)
O2 O 0.22210(17) 0.65992(13) 0.23865(7)
O3 O -0.02069(16) 1.10688(13) -0.11918(8)
O4 O 0.1558(2) 0.96139(16) -0.21619(8)
N1 N 0.10052(17) 0.73980(14) 0.19627(8)
N2 N 0.07200(18) 0.97972(15) -0.13936(9)
C1 C 0.08580(19) 0.87182(16) 0.03155(9)
C2 C 0.0911(2) 0.72314(16) 0.08882(9)
C3 C 0.0899(2) 0.55710(17) 0.05265(10)
H1 H 0.097(3) 0.461(2) 0.0940(12)
C4 C 0.0836(2) 0.53285(17) -0.04788(10)
H2 H 0.082(3) 0.414(2) -0.0748(14)
C5 C 0.0806(2) 0.67354(18) -0.10925(10)
H3 H 0.082(3) 0.658(2) -0.1788(13)
C6 C 0.07989(19) 0.83707(16) -0.06872(9)
C7 C 0.0989(3) 1.05033(18) 0.07420(11)
H4 H -0.029(3) 1.093(3) 0.0823(15)
H5 H 0.165(3) 1.124(2) 0.0303(13)
H6 H 0.167(2) 1.047(2) 0.1362(15)
#END
