
#######################################################################
#
#                 Cambridge Crystallographic Data Centre
#                                CCDC
#
#######################################################################
#
# If this CIF has been generated from an entry in the Cambridge
# Structural Database, then it will include bibliographic, chemical,
# crystal, experimental, refinement or atomic coordinate data resulting
# from the CCDC's data processing and validation procedures.
#
#######################################################################

data_CSD_CIF_ZZZTQC01
_audit_creation_date 1976-08-18
_audit_creation_method CSD-ConQuest-V1
_database_code_CSD ZZZTQC01
_chemical_formula_sum 'C14 H10 N2 O1'
_chemical_formula_moiety
;
C14 H10 N2 O1
;
_journal_coeditor_code "IUCr A13282"
_journal_coden_Cambridge 107
_journal_volume 32
_journal_year 1976
_journal_page_first 1079
_journal_name_full 'Acta Crystallogr.,Sect.B:Struct.Crystallogr.Cryst.Chem. '
loop_
_publ_author_name
"M.Mellini"
"S.Merlino"
_chemical_name_systematic
;
3,4-Diphenyl-1,2,5-oxadiazole
;
_cell_volume   1164.905
_exptl_crystal_density_diffrn 1.264
_diffrn_ambient_temperature ?
_diffrn_special_details
;
The study was carried out at room temperature,in the range 283-303K

;
#These two values have been output from a single CSD field.
_refine_ls_R_factor_gt 0.089
_refine_ls_wR_factor_gt 0.089
_symmetry_cell_setting monoclinic
_symmetry_space_group_name_H-M 'P 21/c'
_symmetry_Int_Tables_number 14
loop_
_symmetry_equiv_pos_site_id
_symmetry_equiv_pos_as_xyz
1 x,y,z
2 -x,1/2+y,1/2-z
3 -x,-y,-z
4 x,-1/2-y,-1/2+z
_cell_length_a 15.26(2)
_cell_length_b 6.07(1)
_cell_length_c 12.61(2)
_cell_angle_alpha 90
_cell_angle_beta 94.2(1)
_cell_angle_gamma 90
_cell_formula_units_Z 4
loop_
_atom_type_symbol
_atom_type_radius_bond
C 0.68
H 0.23
N 0.68
O 0.68
loop_
_atom_site_label
_atom_site_type_symbol
_atom_site_fract_x
_atom_site_fract_y
_atom_site_fract_z
C1 C 0.28830 -0.10600 0.35800
C2 C 0.16740 -0.47970 0.25660
C3 C 0.11970 -0.66250 0.21970
C4 C 0.07060 -0.78280 0.28490
C5 C 0.06730 -0.71830 0.38700
C6 C 0.11550 -0.53670 0.42770
C7 C 0.21580 -0.22070 0.40040
C8 C 0.33780 -0.15480 0.26580
C9 C 0.34080 0.00050 0.18440
C10 C 0.39080 -0.04610 0.09910
C11 C 0.43590 -0.24100 0.09400
C12 C 0.43270 -0.39210 0.17460
C13 C 0.38360 -0.35220 0.26000
C14 C 0.16580 -0.41300 0.36180
H1 H 0.20300 -0.39600 0.20600
H2 H 0.14100 -0.69000 0.12300
H3 H 0.02600 -0.93800 0.26400
H4 H 0.03100 -0.78900 0.43400
H5 H 0.12400 -0.46300 0.50800
H6 H 0.30700 0.14400 0.19400
H7 H 0.38900 0.07400 0.04500
H8 H 0.46400 -0.28000 0.03900
H9 H 0.46000 -0.50700 0.18100
H10 H 0.38800 -0.46500 0.32500
N1 N 0.31250 0.07060 0.42020
N2 N 0.19580 -0.11680 0.48830
O1 O 0.25390 0.05820 0.50160
#END
