
#######################################################################
#
#                 Cambridge Crystallographic Data Centre
#                                CCDC
#
#######################################################################
#
# If this CIF has been generated from an entry in the Cambridge
# Structural Database, then it will include bibliographic, chemical,
# crystal, experimental, refinement or atomic coordinate data resulting
# from the CCDC's data processing and validation procedures.
#
#######################################################################

data_CSD_CIF_ZZZVIU01
_audit_creation_date 1997-02-10
_audit_creation_method CSD-ConQuest-V1
_database_code_CSD ZZZVIU01
_database_code_depnum_ccdc_archive 'CCDC 112591'
_database_code_depnum_ccdc_fiz 'CSD 402034'
_chemical_formula_sum 'C14 H6 N2 O6'
_chemical_formula_moiety
;
C14 H6 N2 O6
;
_journal_coden_Cambridge 643
_journal_volume 211
_journal_year 1996
_journal_page_first 319
_journal_name_full 'Z.Krist.Cryst.Mater. '
loop_
_publ_author_name
"H.-D.Becker"
"H.-C.Becker"
"V.Langer"
"J.Sieler"
_chemical_name_systematic
;
2,7-Dinitro-9,10-anthraquinone
;
_chemical_melting_point 563
_cell_volume   1180.226
_exptl_crystal_colour 'yellow'
_exptl_special_details
;
Melting point range 563-564K

;
_diffrn_ambient_temperature ?
_diffrn_special_details
;
The study was carried out at room temperature,in the range 283-303K

;
#These two values have been output from a single CSD field.
_refine_ls_R_factor_gt 0.034
_refine_ls_wR_factor_gt 0.034
_symmetry_cell_setting monoclinic
_symmetry_space_group_name_H-M 'P 21/c'
_symmetry_Int_Tables_number 14
loop_
_symmetry_equiv_pos_site_id
_symmetry_equiv_pos_as_xyz
1 x,y,z
2 -x,1/2+y,1/2-z
3 -x,-y,-z
4 x,-1/2-y,-1/2+z
_cell_length_a 3.8708(3)
_cell_length_b 12.3379(6)
_cell_length_c 24.7479(2)
_cell_angle_alpha 90
_cell_angle_beta 93.049(5)
_cell_angle_gamma 90
_cell_formula_units_Z 4
loop_
_atom_type_symbol
_atom_type_radius_bond
C 0.68
N 0.68
O 0.68
loop_
_atom_site_label
_atom_site_type_symbol
_atom_site_fract_x
_atom_site_fract_y
_atom_site_fract_z
O1 O -0.2654(4) 0.5484(1) 0.0535(1)
O2 O 0.4039(4) 0.9273(1) 0.0764(1)
O3 O -0.4460(5) 0.6224(2) -0.1410(1)
O4 O -0.1454(5) 0.7462(2) -0.1765(1)
O5 O -0.0298(6) 0.4776(2) 0.2459(1)
O6 O 0.3245(6) 0.5770(2) 0.2922(1)
N1 N -0.2501(5) 0.6988(2) -0.1377(1)
N2 N 0.1497(6) 0.5565(2) 0.2514(1)
C1 C -0.1795(5) 0.6701(2) -0.0398(1)
C2 C -0.1269(5) 0.7361(2) -0.0834(1)
C3 C 0.0362(5) 0.8357(2) -0.0785(1)
C4 C 0.1514(5) 0.8698(2) -0.0279(1)
C5 C 0.3342(5) 0.8016(2) 0.1697(1)
C6 C 0.3152(6) 0.7335(2) 0.2134(1)
C7 C 0.1623(5) 0.6329(2) 0.2054(1)
C8 C 0.0198(5) 0.5992(2) 0.1560(1)
C9 C -0.1053(5) 0.6326(1) 0.0585(1)
C10 C 0.2491(5) 0.8419(1) 0.0714(1)
C11 C -0.0573(5) 0.7043(1) 0.0111(1)
C12 C 0.1095(5) 0.8048(1) 0.0172(1)
C13 C 0.0435(5) 0.6684(1) 0.1120(1)
C14 C 0.2052(5) 0.7695(1) 0.1188(1)
#END
