
#######################################################################
#
#                 Cambridge Crystallographic Data Centre
#                                CCDC
#
#######################################################################
#
# If this CIF has been generated from an entry in the Cambridge
# Structural Database, then it will include bibliographic, chemical,
# crystal, experimental, refinement or atomic coordinate data resulting
# from the CCDC's data processing and validation procedures.
#
#######################################################################

data_CSD_CIF_ABECAL
_audit_creation_date 2001-10-17
_audit_creation_method CSD-ConQuest-V1
_database_code_CSD ABECAL
_database_code_depnum_ccdc_archive 'CCDC 103871'
_chemical_formula_sum 'C28 H18'
_chemical_formula_moiety
;
C28 H18
;
_journal_coden_Cambridge 1336
_journal_volume 2
_journal_year 2000
_journal_page_first 2353
_journal_name_full 'Org.Lett. '
loop_
_publ_author_name
"K.M.Shea"
"K.L.Lee"
"R.L.Danheiser"
_chemical_name_systematic
;
9-(4-biphenyl)cyclopenta[a]phenalene
;
_chemical_melting_point 482
_cell_volume   1786.222
_exptl_crystal_colour 'dark green'
_exptl_crystal_density_diffrn 1.318
_exptl_special_details
;
Melting point range 482-484K

;
_exptl_crystal_description 'plate'
_diffrn_ambient_temperature 188
#These two values have been output from a single CSD field.
_refine_ls_R_factor_gt 0.0536
_refine_ls_wR_factor_gt 0.0536
_symmetry_cell_setting monoclinic
_symmetry_space_group_name_H-M 'P 21/n'
_symmetry_Int_Tables_number 14
loop_
_symmetry_equiv_pos_site_id
_symmetry_equiv_pos_as_xyz
1 x,y,z
2 1/2-x,1/2+y,1/2-z
3 -x,-y,-z
4 -1/2+x,-1/2-y,-1/2+z
_cell_length_a 10.060(2)
_cell_length_b 7.841(2)
_cell_length_c 22.693(6)
_cell_angle_alpha 90
_cell_angle_beta 93.74(2)
_cell_angle_gamma 90
_cell_formula_units_Z 4
loop_
_atom_type_symbol
_atom_type_radius_bond
C 0.68
H 0.23
loop_
_atom_site_label
_atom_site_type_symbol
_atom_site_fract_x
_atom_site_fract_y
_atom_site_fract_z
C1 C 0.6197(2) 0.2305(2) 0.0216(1)
C2 C 0.5678(2) 0.3221(2) 0.0671(1)
C3 C 0.5415(2) 0.1909(2) -0.0300(1)
C4 C 0.4111(2) 0.2414(2) -0.0369(1)
C5 C 0.3525(2) 0.3338(2) 0.0083(1)
C6 C 0.2181(2) 0.3901(2) 0.0023(1)
C7 C 0.1649(2) 0.4816(3) 0.0465(1)
C8 C 0.2409(2) 0.5202(2) 0.0983(1)
C9 C 0.3730(2) 0.4697(2) 0.1065(1)
C10 C 0.4524(2) 0.5161(2) 0.1591(1)
C11 C 0.5832(2) 0.4725(2) 0.1660(1)
C12 C 0.6838(2) 0.5060(2) 0.2124(1)
C13 C 0.8007(2) 0.4347(2) 0.1971(1)
C14 C 0.7765(2) 0.3523(2) 0.1392(1)
C15 C 0.4315(2) 0.3736(2) 0.0610(1)
C16 C 0.6455(2) 0.3736(2) 0.1204(1)
C17 C 0.9299(2) 0.4385(2) 0.2314(1)
C18 C 0.9454(2) 0.5213(2) 0.2860(1)
C19 C 1.0664(2) 0.5256(2) 0.3183(1)
C20 C 1.1801(2) 0.4470(2) 0.2984(1)
C21 C 1.1643(2) 0.3654(2) 0.2437(1)
C22 C 1.0428(2) 0.3607(2) 0.2114(1)
C23 C 1.3099(2) 0.4487(2) 0.3341(1)
C24 C 1.3262(2) 0.5387(2) 0.3872(1)
C25 C 1.4464(2) 0.5380(2) 0.4208(1)
C26 C 1.5537(2) 0.4473(2) 0.4022(1)
C27 C 1.5407(2) 0.3578(3) 0.3498(1)
C28 C 1.4205(2) 0.3587(2) 0.3162(1)
H1 H 0.7197(18) 0.194(2) 0.0248(6)
H2 H 0.5807(17) 0.1251(22) -0.0623(7)
H3 H 0.3571(16) 0.2195(20) -0.0760(7)
H4 H 0.1636(17) 0.3655(21) -0.0349(7)
H5 H 0.0686(19) 0.5211(23) 0.0416(8)
H6 H 0.2028(16) 0.5936(21) 0.1297(7)
H7 H 0.4109(17) 0.5858(22) 0.1901(7)
H8 H 0.6683(17) 0.5738(22) 0.2485(7)
H9 H 0.8456(16) 0.2886(20) 0.1183(7)
H10 H 0.8686(18) 0.5800(22) 0.3022(7)
H11 H 1.0722(17) 0.5832(22) 0.3560(8)
H12 H 1.2428(18) 0.3074(22) 0.2264(7)
H13 H 1.0392(15) 0.3005(20) 0.1737(7)
H14 H 1.2492(18) 0.6070(22) 0.4020(7)
H15 H 1.4577(17) 0.6040(22) 0.4569(7)
H16 H 1.6431(18) 0.4492(20) 0.4260(7)
H17 H 1.6160(19) 0.2931(25) 0.3352(8)
H18 H 1.4122(17) 0.2892(23) 0.2785(8)
loop_
_geom_bond_atom_site_label_1
_geom_bond_atom_site_label_2
_geom_bond_distance
_geom_bond_site_symmetry_1
_geom_bond_site_symmetry_2
C1 C2 1.387 1_555 1_555
C2 C15 1.427 1_555 1_555
C3 C1 1.402 1_555 1_555
C4 C3 1.369 1_555 1_555
C5 C4 1.415 1_555 1_555
C6 C5 1.420 1_555 1_555
C7 C6 1.370 1_555 1_555
C8 C7 1.393 1_555 1_555
C9 C8 1.388 1_555 1_555
C10 C9 1.439 1_555 1_555
C11 C10 1.359 1_555 1_555
C12 C11 1.436 1_555 1_555
C13 C12 1.367 1_555 1_555
C14 C13 1.470 1_555 1_555
C15 C5 1.427 1_555 1_555
C16 C2 1.454 1_555 1_555
C17 C13 1.471 1_555 1_555
C18 C17 1.399 1_555 1_555
C19 C18 1.380 1_555 1_555
C20 C19 1.400 1_555 1_555
C21 C20 1.396 1_555 1_555
C22 C17 1.391 1_555 1_555
C23 C20 1.491 1_555 1_555
C24 C23 1.397 1_555 1_555
C25 C24 1.387 1_555 1_555
C26 C25 1.382 1_555 1_555
C27 C26 1.380 1_555 1_555
C28 C23 1.400 1_555 1_555
H1 C1 1.044 1_555 1_555
H2 C3 0.998 1_555 1_555
H3 C4 1.024 1_555 1_555
H4 C6 0.995 1_555 1_555
H5 C7 1.016 1_555 1_555
H6 C8 1.011 1_555 1_555
H7 C10 1.003 1_555 1_555
H8 C12 0.997 1_555 1_555
H9 C14 1.000 1_555 1_555
H10 C18 0.990 1_555 1_555
H11 C19 0.966 1_555 1_555
H12 C21 1.012 1_555 1_555
H13 C22 0.976 1_555 1_555
H14 C24 1.017 1_555 1_555
H15 C25 0.969 1_555 1_555
H16 C26 1.019 1_555 1_555
H17 C27 0.987 1_555 1_555
H18 C28 1.013 1_555 1_555
C9 C15 1.435 1_555 1_555
C11 C16 1.466 1_555 1_555
C14 C16 1.369 1_555 1_555
C21 C22 1.384 1_555 1_555
C27 C28 1.387 1_555 1_555
#END
