
#######################################################################
#
#                 Cambridge Crystallographic Data Centre
#                                CCDC
#
#######################################################################
#
# If this CIF has been generated from an entry in the Cambridge
# Structural Database, then it will include bibliographic, chemical,
# crystal, experimental, refinement or atomic coordinate data resulting
# from the CCDC's data processing and validation procedures.
#
#######################################################################

data_CSD_CIF_ABEJIC
_audit_creation_date 2011-11-29
_audit_creation_method CSD-ConQuest-V1
_database_code_CSD ABEJIC
_database_code_depnum_ccdc_archive 'CCDC 848252'
_chemical_formula_sum 'C30 H18'
_chemical_formula_moiety
;
C30 H18
;
_journal_coden_Cambridge 1336
_journal_volume 13
_journal_year 2011
_journal_page_first 3660
_journal_name_full 'Org.Lett. '
loop_
_publ_author_name
"N.V.Korovina"
"M.L.Chang"
"T.T.Nguyen"
"R.Fernandez"
"H.J.Walker"
"M.M.Olmstead"
"B.F.Gherman"
"J.D.Spence"
_chemical_name_systematic
;
1,1'-(1,2-Phenylenediethyne-2,1-diyl)dinaphthalene
;
_cell_volume    993.965
_exptl_crystal_colour 'colorless'
_exptl_crystal_density_diffrn 1.264
_exptl_crystal_description 'needle'
_diffrn_ambient_temperature 90
#These two values have been output from a single CSD field.
_refine_ls_R_factor_gt 0.04
_refine_ls_wR_factor_gt 0.04
_symmetry_cell_setting triclinic
_symmetry_space_group_name_H-M 'P -1'
_symmetry_Int_Tables_number 2
loop_
_symmetry_equiv_pos_site_id
_symmetry_equiv_pos_as_xyz
1 x,y,z
2 -x,-y,-z
_cell_length_a 10.4374(4)
_cell_length_b 10.5171(4)
_cell_length_c 11.0370(5)
_cell_angle_alpha 104.297(4)
_cell_angle_beta 97.447(4)
_cell_angle_gamma 117.915(4)
_cell_formula_units_Z 2
loop_
_atom_type_symbol
_atom_type_radius_bond
C 0.68
H 0.23
loop_
_atom_site_label
_atom_site_type_symbol
_atom_site_fract_x
_atom_site_fract_y
_atom_site_fract_z
C1 C 0.17489(9) -0.13587(9) 0.22917(8)
C2 C 0.28047(10) -0.06956(10) 0.35433(9)
H1 H 0.35510 0.03690 0.38680
C3 C 0.27566(11) -0.15770(11) 0.42869(9)
H2 H 0.34670 -0.11180 0.51240
C4 C 0.16563(11) -0.31656(11) 0.38164(10)
H3 H 0.16320 -0.37680 0.43380
C5 C 0.06265(10) -0.38386(10) 0.26140(9)
H4 H -0.01060 -0.49070 0.23070
C6 C 0.06387(9) -0.29591(9) 0.18174(9)
C7 C -0.04127(10) -0.36293(10) 0.05645(9)
H5 H -0.11700 -0.46900 0.02510
C8 C -0.03485(10) -0.2764(1) -0.01994(9)
H6 H -0.10500 -0.32340 -0.10420
C9 C 0.07514(10) -0.11813(10) 0.02563(9)
H7 H 0.07920 -0.05970 -0.02870
C10 C 0.17699(9) -0.04722(9) 0.14839(8)
C11 C 0.2829(1) 0.11547(10) 0.19752(9)
C12 C 0.37098(10) 0.25177(10) 0.24456(9)
C13 C 0.4782(1) 0.41384(10) 0.30055(8)
C14 C 0.4296(1) 0.51858(10) 0.32667(9)
H8 H 0.32440 0.48180 0.30750
C15 C 0.53347(11) 0.67559(10) 0.38028(9)
H9 H 0.49910 0.74560 0.39710
C16 C 0.68798(10) 0.73063(10) 0.40940(9)
H10 H 0.75880 0.83810 0.44630
C17 C 0.73875(10) 0.62877(10) 0.38459(9)
H11 H 0.84430 0.66710 0.40430
C18 C 0.63551(10) 0.46975(9) 0.33061(8)
C19 C 0.68702(9) 0.36387(10) 0.30657(8)
C20 C 0.72865(9) 0.27358(10) 0.28698(8)
C21 C 0.77591(10) 0.16411(10) 0.26551(8)
C22 C 0.92466(10) 0.2102(1) 0.32051(9)
H12 H 0.99600 0.31550 0.36980
C23 C 0.97154(10) 0.10276(11) 0.30428(9)
H13 H 1.07360 0.13600 0.34360
C24 C 0.87049(10) -0.04941(11) 0.23205(9)
H14 H 0.90310 -0.12090 0.22250
C25 C 0.71763(10) -0.10143(10) 0.17135(9)
C26 C 0.61271(11) -0.25752(10) 0.09275(10)
H15 H 0.64510 -0.32930 0.07920
C27 C 0.46528(11) -0.30586(10) 0.03622(10)
H16 H 0.39660 -0.41040 -0.01710
C28 C 0.41511(10) -0.20083(10) 0.05699(9)
H17 H 0.31220 -0.23560 0.01900
C29 C 0.51407(10) -0.0487(1) 0.13174(9)
H18 H 0.47910 0.02100 0.14490
C30 C 0.66802(9) 0.00516(9) 0.18939(8)
loop_
_geom_bond_atom_site_label_1
_geom_bond_atom_site_label_2
_geom_bond_distance
_geom_bond_site_symmetry_1
_geom_bond_site_symmetry_2
C1 C2 1.421 1_555 1_555
C2 H1 0.950 1_555 1_555
C3 C2 1.370 1_555 1_555
H2 C3 0.950 1_555 1_555
C4 C3 1.414 1_555 1_555
H3 C4 0.950 1_555 1_555
C5 C4 1.368 1_555 1_555
H4 C5 0.950 1_555 1_555
C6 C1 1.425 1_555 1_555
C7 C6 1.419 1_555 1_555
H5 C7 0.950 1_555 1_555
C8 C7 1.371 1_555 1_555
H6 C8 0.950 1_555 1_555
C9 C8 1.410 1_555 1_555
H7 C9 0.950 1_555 1_555
C10 C1 1.436 1_555 1_555
C11 C10 1.435 1_555 1_555
C12 C11 1.202 1_555 1_555
C13 C12 1.433 1_555 1_555
C14 C13 1.399 1_555 1_555
H8 C14 0.950 1_555 1_555
C15 C14 1.388 1_555 1_555
H9 C15 0.950 1_555 1_555
C16 C15 1.392 1_555 1_555
H10 C16 0.950 1_555 1_555
C17 C16 1.388 1_555 1_555
H11 C17 0.950 1_555 1_555
C18 C13 1.418 1_555 1_555
C19 C18 1.432 1_555 1_555
C20 C19 1.203 1_555 1_555
C21 C20 1.433 1_555 1_555
C22 C21 1.386 1_555 1_555
H12 C22 0.950 1_555 1_555
C23 C22 1.410 1_555 1_555
H13 C23 0.950 1_555 1_555
C24 C23 1.371 1_555 1_555
H14 C24 0.950 1_555 1_555
C25 C24 1.421 1_555 1_555
C26 C25 1.419 1_555 1_555
H15 C26 0.950 1_555 1_555
C27 C26 1.370 1_555 1_555
H16 C27 0.950 1_555 1_555
C28 C27 1.412 1_555 1_555
H17 C28 0.950 1_555 1_555
C29 C28 1.374 1_555 1_555
H18 C29 0.950 1_555 1_555
C30 C21 1.438 1_555 1_555
C5 C6 1.422 1_555 1_555
C9 C10 1.381 1_555 1_555
C17 C18 1.403 1_555 1_555
C25 C30 1.423 1_555 1_555
C29 C30 1.419 1_555 1_555
#END
