
#######################################################################
#
#                 Cambridge Crystallographic Data Centre
#                                CCDC
#
#######################################################################
#
# If this CIF has been generated from an entry in the Cambridge
# Structural Database, then it will include bibliographic, chemical,
# crystal, experimental, refinement or atomic coordinate data resulting
# from the CCDC's data processing and validation procedures.
#
#######################################################################

data_CSD_CIF_ACENAP04
_audit_creation_date 2015-08-31
_audit_creation_method CSD-ConQuest-V1
_database_code_CSD ACENAP04
_database_code_depnum_ccdc_archive 'CCDC 1011192'
_chemical_formula_sum 'C12 H10'
_chemical_formula_moiety
;
C12 H10
;
_journal_coden_Cambridge 1237
_journal_volume 80
_journal_year 2015
_journal_page_first 1489
_journal_name_full 'J.Serb.Chem.Soc. '
loop_
_publ_author_name
"W.Smiszek-Lindert"
"Anna Michta"
"A.Tyl"
"G.Malecki"
"E.Chelmecka"
"S.Maslanka"
_chemical_name_systematic
;
1,2-Dihydroacenaphthylene
;
_chemical_name_common
;
Acenaphthene
;
_cell_volume    832.413
_exptl_crystal_colour 'colorless'
_exptl_crystal_density_diffrn 1.23
_exptl_crystal_description 'plate'
_diffrn_ambient_temperature 295
#These two values have been output from a single CSD field.
_refine_ls_R_factor_gt 0.0442
_refine_ls_wR_factor_gt 0.0442
_symmetry_cell_setting orthorhombic
_symmetry_space_group_name_H-M 'P 21 m a'
_symmetry_Int_Tables_number 26
loop_
_symmetry_equiv_pos_site_id
_symmetry_equiv_pos_as_xyz
1 x,y,z
2 1/2+x,-y,-z
3 1/2+x,y,-z
4 x,-y,z
_cell_length_a 7.2053(9)
_cell_length_b 13.9800(15)
_cell_length_c 8.2638(8)
_cell_angle_alpha 90
_cell_angle_beta 90
_cell_angle_gamma 90
_cell_formula_units_Z 4
loop_
_atom_type_symbol
_atom_type_radius_bond
C 0.68
H 0.23
loop_
_atom_site_label
_atom_site_type_symbol
_atom_site_fract_x
_atom_site_fract_y
_atom_site_fract_z
C1 C 0.2342(3) 0.91652(11) 0.4593(2)
C2 C 0.2336(4) 1.00000 0.3657(3)
C3 C 0.2347(5) 1.00000 0.1965(3)
C4 C 0.2350(4) 0.90926(14) 0.1221(3)
H1 H 0.23470 0.90480 0.00980
C5 C 0.2357(4) 0.82825(14) 0.2130(3)
H2 H 0.23700 0.76930 0.16090
C6 C 0.2345(3) 0.83060(12) 0.3827(3)
H3 H 0.23400 0.77400 0.44190
C7 C 0.2348(4) 0.94465(13) 0.6352(2)
H4 H 0.34450 0.92010 0.68920
H5 H 0.12550 0.92010 0.68980
C8 C 0.5718(3) 0.41660(11) 0.2880(2)
C9 C 0.6489(3) 0.33063(13) 0.2516(3)
H6 H 0.58920 0.27400 0.27970
C10 C 0.8195(4) 0.32861(16) 0.1712(3)
H7 H 0.87180 0.26960 0.14640
C11 C 0.9119(4) 0.40897(14) 0.1279(3)
H8 H 1.02500 0.40430 0.07420
C12 C 0.8369(4) 0.50000 0.1639(3)
C13 C 0.6663(4) 0.50000 0.2432(3)
C14 C 0.3957(4) 0.44514(15) 0.3726(3)
H9 H 0.39390 0.42070 0.48240
H10 H 0.28820 0.42070 0.31530
C1C C 0.2342(3) 1.08348(11) 0.4593(2)
C4C C 0.2350(4) 1.09074(14) 0.1221(3)
H1C H 0.23470 1.09520 0.00980
C5C C 0.2357(4) 1.17175(14) 0.2130(3)
H2C H 0.23700 1.23070 0.16090
C6C C 0.2345(3) 1.16940(12) 0.3827(3)
H3C H 0.23400 1.22600 0.44190
C7C C 0.2348(4) 1.05535(13) 0.6352(2)
H4C H 0.34450 1.07990 0.68920
H5C H 0.12550 1.07990 0.68980
C8C C 0.5718(3) 0.58340(11) 0.2880(2)
C9C C 0.6489(3) 0.66937(13) 0.2516(3)
H6C H 0.58920 0.72600 0.27970
C10C C 0.8195(4) 0.67139(16) 0.1712(3)
H7C H 0.87180 0.73040 0.14640
C11C C 0.9119(4) 0.59103(14) 0.1279(3)
H8C H 1.02500 0.59570 0.07420
C14C C 0.3957(4) 0.55486(15) 0.3726(3)
H9C H 0.39390 0.57930 0.48240
H10C H 0.28820 0.57930 0.31530
loop_
_geom_bond_atom_site_label_1
_geom_bond_atom_site_label_2
_geom_bond_distance
_geom_bond_site_symmetry_1
_geom_bond_site_symmetry_2
C1 C2 1.400 1_555 1_555
C2 C3 1.398 1_555 1_555
C3 C4 1.410 1_555 1_555
C4 H1 0.930 1_555 1_555
C5 C4 1.359 1_555 1_555
H2 C5 0.930 1_555 1_555
C6 C1 1.358 1_555 1_555
H3 C6 0.930 1_555 1_555
C7 C1 1.506 1_555 1_555
H4 C7 0.970 1_555 1_555
H5 C7 0.970 1_555 1_555
C8 C9 1.358 1_555 1_555
C9 H6 0.930 1_555 1_555
C10 C9 1.398 1_555 1_555
H7 C10 0.930 1_555 1_555
C11 C10 1.354 1_555 1_555
H8 C11 0.930 1_555 1_555
C12 C11 1.414 1_555 1_555
C13 C8 1.400 1_555 1_555
C14 C8 1.503 1_555 1_555
H9 C14 0.970 1_555 1_555
H10 C14 0.970 1_555 1_555
C1C C2 1.400 1_555 1_555
C4C C3 1.410 1_555 1_555
H1C C4C 0.930 1_555 1_555
C5C C4C 1.359 1_555 1_555
H2C C5C 0.930 1_555 1_555
C6C C1C 1.358 1_555 1_555
H3C C6C 0.930 1_555 1_555
C7C C7 1.548 1_555 1_555
H4C C7C 0.970 1_555 1_555
H5C C7C 0.970 1_555 1_555
C8C C13 1.400 1_555 1_555
C9C C8C 1.358 1_555 1_555
H6C C9C 0.930 1_555 1_555
C10C C9C 1.398 1_555 1_555
H7C C10C 0.930 1_555 1_555
C11C C12 1.414 1_555 1_555
H8C C11C 0.930 1_555 1_555
C14C C14 1.534 1_555 1_555
H9C C14C 0.970 1_555 1_555
H10C C14C 0.970 1_555 1_555
C5 C6 1.403 1_555 1_555
C12 C13 1.393 1_555 1_555
C1C C7C 1.506 1_555 1_555
C5C C6C 1.403 1_555 1_555
C8C C14C 1.503 1_555 1_555
C10C C11C 1.354 1_555 1_555
#END
