
#######################################################################
#
#                 Cambridge Crystallographic Data Centre
#                                CCDC
#
#######################################################################
#
# If this CIF has been generated from an entry in the Cambridge
# Structural Database, then it will include bibliographic, chemical,
# crystal, experimental, refinement or atomic coordinate data resulting
# from the CCDC's data processing and validation procedures.
#
#######################################################################

data_CSD_CIF_ACENAP
_audit_creation_date 1971-12-31
_audit_creation_method CSD-ConQuest-V1
_database_code_CSD ACENAP
_database_code_depnum_ccdc_archive 'CCDC 1100613'
_chemical_formula_sum 'C12 H10'
_chemical_formula_moiety
;
C12 H10
;
_journal_coeditor_code "IUCr A02136"
_journal_coden_Cambridge 1
_journal_volume 10
_journal_year 1957
_journal_page_first 699
_journal_name_full 'Acta Crystallogr. '
loop_
_publ_author_name
"H.W.W.Ehrlich"
_chemical_name_systematic
;
Acenaphthene
;
_cell_volume    838.534
_exptl_crystal_density_diffrn 1.22
_diffrn_ambient_temperature ?
_diffrn_special_details
;
The study was carried out at room temperature,in the range 283-303K

;
#These two values have been output from a single CSD field.
_refine_ls_R_factor_gt 0.081
_refine_ls_wR_factor_gt 0.081
_symmetry_cell_setting orthorhombic
_symmetry_space_group_name_H-M 'P c m 21'
_symmetry_Int_Tables_number 26
loop_
_symmetry_equiv_pos_site_id
_symmetry_equiv_pos_as_xyz
1 x,y,z
2 -x,y,1/2+z
3 x,-y,z
4 -x,-y,1/2+z
_cell_length_a 8.290(4)
_cell_length_b 14.000(7)
_cell_length_c 7.225(4)
_cell_angle_alpha 90
_cell_angle_beta 90
_cell_angle_gamma 90
_cell_formula_units_Z 4
loop_
_atom_type_symbol
_atom_type_radius_bond
C 0.68
H 0.23
loop_
_atom_site_label
_atom_site_type_symbol
_atom_site_fract_x
_atom_site_fract_y
_atom_site_fract_z
C1 C 0.46000 0.41650 0.00000
C2 C 0.38300 0.32950 0.00000
C3 C 0.21000 0.32800 0.00000
C4 C 0.12300 0.40900 0.00000
C5 C 0.19600 0.50000 0.00000
C6 C 0.36500 0.50000 0.00000
C7 C 0.63800 0.44500 0.00000
H1 H 0.44000 0.27000 0.00000
H2 H 0.18000 0.26000 0.00000
H3 H 0.01000 0.41000 0.00000
H4 H 0.69000 0.42000 0.11000
H5 H 0.69000 0.42000 -0.10000
C8 C 0.28800 0.08350 -0.32500
C9 C 0.25200 0.17050 -0.40100
C10 C 0.17100 0.17200 -0.57200
C11 C 0.12700 0.09100 -0.66500
C12 C 0.16500 0.00000 -0.58500
C13 C 0.24400 0.00000 -0.41800
C14 C 0.37100 0.05500 -0.15000
H6 H 0.26000 0.23000 -0.37000
H7 H 0.14000 0.24000 -0.62000
H8 H 0.08000 0.09000 -0.75000
H9 H 0.48000 0.08000 -0.15000
H10 H 0.34000 0.08000 -0.02000
C4B C 0.12300 0.59100 0.00000
C1B C 0.46000 0.58350 0.00000
C7B C 0.63800 0.55500 0.00000
C3B C 0.21000 0.67200 0.00000
H3B H 0.01000 0.59000 0.00000
C2B C 0.38300 0.67050 0.00000
H4B H 0.69000 0.58000 0.11000
H5B H 0.69000 0.58000 -0.10000
H2B H 0.18000 0.74000 0.00000
H1B H 0.44000 0.73000 0.00000
C11B C 0.12700 -0.09100 -0.66500
C8B C 0.28800 -0.08350 -0.32500
C14B C 0.37100 -0.05500 -0.15000
C10B C 0.17100 -0.17200 -0.57200
H8B H 0.08000 -0.09000 -0.75000
C9B C 0.25200 -0.17050 -0.40100
H9B H 0.48000 -0.08000 -0.15000
H10B H 0.34000 -0.08000 -0.02000
H7B H 0.14000 -0.24000 -0.62000
H6B H 0.26000 -0.23000 -0.37000
loop_
_geom_bond_atom_site_label_1
_geom_bond_atom_site_label_2
_geom_bond_distance
_geom_bond_site_symmetry_1
_geom_bond_site_symmetry_2
C1 C2 1.375 1_555 1_555
C2 C3 1.434 1_555 1_555
C3 C4 1.344 1_555 1_555
C4 C5 1.410 1_555 1_555
C5 C6 1.401 1_555 1_555
C6 C1 1.410 1_555 1_555
C7 C1 1.529 1_555 1_555
H1 C2 0.958 1_555 1_555
H2 C3 0.984 1_555 1_555
H3 C4 0.937 1_555 1_555
H4 C7 0.970 1_555 1_555
H5 C7 0.911 1_555 1_555
C8 C9 1.369 1_555 1_555
C9 C10 1.406 1_555 1_555
C10 C11 1.368 1_555 1_555
C11 C12 1.434 1_555 1_555
C12 C13 1.373 1_555 1_555
C13 C8 1.397 1_555 1_555
C14 C8 1.494 1_555 1_555
H6 C9 0.865 1_555 1_555
H7 C10 1.045 1_555 1_555
H8 C11 0.727 1_555 1_555
H9 C14 0.969 1_555 1_555
H10 C14 1.035 1_555 1_555
C4B C5 1.410 1_555 1_555
C1B C6 1.410 1_555 1_555
C7B C7 1.540 1_555 1_555
C3B C4B 1.344 1_555 1_555
H3B C4B 0.937 1_555 1_555
C2B C1B 1.375 1_555 1_555
H4B C7B 0.970 1_555 1_555
H5B C7B 0.911 1_555 1_555
H2B C3B 0.984 1_555 1_555
H1B C2B 0.958 1_555 1_555
C11B C12 1.434 1_555 1_555
C8B C13 1.397 1_555 1_555
C14B C14 1.540 1_555 1_555
C10B C11B 1.368 1_555 1_555
H8B C11B 0.727 1_555 1_555
C9B C8B 1.369 1_555 1_555
H9B C14B 0.969 1_555 1_555
H10B C14B 1.035 1_555 1_555
H7B C10B 1.045 1_555 1_555
H6B C9B 0.865 1_555 1_555
C1B C7B 1.529 1_555 1_555
C3B C2B 1.434 1_555 1_555
C8B C14B 1.494 1_555 1_555
C10B C9B 1.406 1_555 1_555
#END
