
#######################################################################
#
#                 Cambridge Crystallographic Data Centre
#                                CCDC
#
#######################################################################
#
# If this CIF has been generated from an entry in the Cambridge
# Structural Database, then it will include bibliographic, chemical,
# crystal, experimental, refinement or atomic coordinate data resulting
# from the CCDC's data processing and validation procedures.
#
#######################################################################

data_CSD_CIF_ACNPCD
_audit_creation_date 1971-12-31
_audit_creation_method CSD-ConQuest-V1
_database_code_CSD ACNPCD
_chemical_formula_sum 'C24 H16'
_chemical_formula_moiety
;
C24 H16
;
_journal_coeditor_code "IUCr A08061"
_journal_coden_Cambridge 107
_journal_volume 27
_journal_year 1971
_journal_page_first 360
_journal_name_full 'Acta Crystallogr.,Sect.B:Struct.Crystallogr.Cryst.Chem. '
loop_
_publ_author_name
"T.R.Welberry"
_chemical_name_systematic
;
Acenaphthylene cis-dimer
;
_cell_volume   1588.433
_diffrn_ambient_temperature ?
_diffrn_special_details
;
The study was carried out at room temperature,in the range 283-303K

;
#These two values have been output from a single CSD field.
_refine_ls_R_factor_gt 0.07
_refine_ls_wR_factor_gt 0.07
loop_
_citation_database_id_CSD
_citation_special_details
ZZZNNM "is a stereoisomer of this entry"
_symmetry_cell_setting monoclinic
_symmetry_space_group_name_H-M 'P 21/c'
_symmetry_Int_Tables_number 14
loop_
_symmetry_equiv_pos_site_id
_symmetry_equiv_pos_as_xyz
1 x,y,z
2 -x,1/2+y,1/2-z
3 -x,-y,-z
4 x,-1/2-y,-1/2+z
_cell_length_a 11.966(5)
_cell_length_b 13.930(5)
_cell_length_c 10.003(5)
_cell_angle_alpha 90
_cell_angle_beta 107.7(1)
_cell_angle_gamma 90
_cell_formula_units_Z 4
loop_
_atom_type_symbol
_atom_type_radius_bond
C 0.68
H 0.20
loop_
_atom_site_label
_atom_site_type_symbol
_atom_site_fract_x
_atom_site_fract_y
_atom_site_fract_z
C1 C 0.10607 0.15748 0.31576
C2 C 0.45850 0.04693 0.64135
C3 C 0.29242 0.11539 0.46833
C4 C 0.41519 0.11599 0.53388
C5 C 0.05575 0.09084 0.18724
C6 C 0.03649 0.00846 0.28374
C7 C 0.14074 0.04691 0.11728
C8 C 0.10634 -0.07795 0.26163
C9 C 0.19463 0.08481 0.02709
C10 C 0.12093 -0.16703 0.31372
C11 C 0.27524 0.02451 -0.01440
C12 C 0.09198 0.07420 0.41471
C13 C 0.19483 -0.23044 0.26872
C14 C 0.29594 -0.06915 0.02517
C15 C 0.25210 -0.20344 0.17259
C16 C 0.16431 -0.04692 0.16349
C17 C 0.23951 -0.11021 0.12093
C18 C 0.23650 0.17954 0.35934
C19 C 0.21523 0.05301 0.50714
C20 C 0.29940 0.24378 0.30990
C21 C 0.25988 -0.01492 0.60916
C22 C 0.42411 0.24543 0.37609
C23 C 0.38514 -0.01607 0.67698
C24 C 0.48240 0.18439 0.48589
H1 H 0.06419 0.21442 0.34057
H2 H -0.05373 -0.00779 0.24506
H3 H 0.18138 0.15363 -0.00718
H4 H 0.07430 -0.18853 0.38127
H5 H 0.31354 0.04859 -0.08657
H6 H 0.20820 -0.29890 0.30383
H7 H 0.35049 -0.11356 -0.00803
H8 H 0.30840 -0.24970 0.14590
H9 H 0.04554 0.09709 0.47555
H10 H 0.26221 0.29100 0.23468
H11 H 0.20546 -0.06046 0.63855
H12 H 0.47311 0.29316 0.34449
H13 H 0.42019 -0.06150 0.75436
H14 H 0.56753 0.18508 0.52834
H15 H 0.54567 0.04558 0.68900
H16 H -0.01816 0.10659 0.11548
loop_
_geom_bond_atom_site_label_1
_geom_bond_atom_site_label_2
_geom_bond_distance
_geom_bond_site_symmetry_1
_geom_bond_site_symmetry_2
C1 C5 1.551 1_555 1_555
C2 C4 1.418 1_555 1_555
C3 C4 1.415 1_555 1_555
C4 C24 1.421 1_555 1_555
C5 C6 1.561 1_555 1_555
C6 C8 1.519 1_555 1_555
C7 C5 1.527 1_555 1_555
C8 C10 1.337 1_555 1_555
C9 C7 1.365 1_555 1_555
C10 C13 1.417 1_555 1_555
C11 C9 1.432 1_555 1_555
C12 C1 1.567 1_555 1_555
C13 C15 1.392 1_555 1_555
C14 C11 1.364 1_555 1_555
C15 C17 1.389 1_555 1_555
C16 C7 1.386 1_555 1_555
C17 C14 1.447 1_555 1_555
C18 C1 1.519 1_555 1_555
C19 C3 1.406 1_555 1_555
C20 C18 1.356 1_555 1_555
C21 C19 1.375 1_555 1_555
C22 C20 1.437 1_555 1_555
C23 C2 1.363 1_555 1_555
C24 C22 1.396 1_555 1_555
H1 C1 1.009 1_555 1_555
H2 C6 1.055 1_555 1_555
H3 C9 1.014 1_555 1_555
H4 C10 1.043 1_555 1_555
H5 C11 1.022 1_555 1_555
H6 C13 1.012 1_555 1_555
H7 C14 1.025 1_555 1_555
H8 C15 1.025 1_555 1_555
H9 C12 0.993 1_555 1_555
H10 C20 0.997 1_555 1_555
H11 C21 1.015 1_555 1_555
H12 C22 0.999 1_555 1_555
H13 C23 0.989 1_555 1_555
H14 C24 0.977 1_555 1_555
H15 C2 1.007 1_555 1_555
H16 C5 0.980 1_555 1_555
C3 C18 1.411 1_555 1_555
C6 C12 1.571 1_555 1_555
C8 C16 1.430 1_555 1_555
C12 C19 1.513 1_555 1_555
C16 C17 1.415 1_555 1_555
C21 C23 1.445 1_555 1_555
#END
