
#######################################################################
#
#                 Cambridge Crystallographic Data Centre
#                                CCDC
#
#######################################################################
#
# If this CIF has been generated from an entry in the Cambridge
# Structural Database, then it will include bibliographic, chemical,
# crystal, experimental, refinement or atomic coordinate data resulting
# from the CCDC's data processing and validation procedures.
#
#######################################################################

data_CSD_CIF_ACNPCD01
_audit_creation_date 2014-05-06
_audit_creation_method CSD-ConQuest-V1
_database_code_CSD ACNPCD01
_database_code_depnum_ccdc_archive 'CCDC 1001275'
_chemical_formula_sum 'C24 H16'
_chemical_formula_moiety
;
C24 H16
;
_journal_coden_Cambridge 1078
_journal_year 2014
_journal_name_full 'CSD Communication(Private Communication) '
loop_
_publ_author_name
"A.Sygula"
"F.R.Fronczek"
_chemical_name_systematic
;
cis-6b,6c,12b,12c-Tetrahydroacenaphtho[1',2':3,4]cyclobuta[1,2-a]acenaphthylen
e
;
_cell_volume   1587.404
_exptl_crystal_colour 'colorless'
_exptl_crystal_density_diffrn 1.274
_exptl_crystal_description 'plate'
_diffrn_ambient_temperature 299
#These two values have been output from a single CSD field.
_refine_ls_R_factor_gt 0.0407
_refine_ls_wR_factor_gt 0.0407
_symmetry_cell_setting monoclinic
_symmetry_space_group_name_H-M 'P 21/c'
_symmetry_Int_Tables_number 14
loop_
_symmetry_equiv_pos_site_id
_symmetry_equiv_pos_as_xyz
1 x,y,z
2 -x,1/2+y,1/2-z
3 -x,-y,-z
4 x,-1/2-y,-1/2+z
_cell_length_a 11.9765(14)
_cell_length_b 13.9227(16)
_cell_length_c 9.9979(12)
_cell_angle_alpha 90
_cell_angle_beta 107.788(9)
_cell_angle_gamma 90
_cell_formula_units_Z 4
loop_
_atom_type_symbol
_atom_type_radius_bond
C 0.68
H 0.23
loop_
_atom_site_label
_atom_site_type_symbol
_atom_site_fract_x
_atom_site_fract_y
_atom_site_fract_z
C1 C 0.10796(16) 0.65749(14) 0.3166(2)
H1 H 0.05900 0.71380 0.31710
C2 C 0.45763(19) 0.54677(17) 0.6403(2)
H2 H 0.53770 0.54320 0.68650
C3 C 0.29311(15) 0.61624(12) 0.46936(18)
C4 C 0.41449(16) 0.61601(14) 0.5339(2)
C5 C 0.05666(16) 0.58969(15) 0.1863(2)
H3 H -0.01590 0.61370 0.11920
C6 C 0.03678(16) 0.50900(15) 0.2847(2)
H4 H -0.04610 0.49460 0.27040
C7 C 0.14145(17) 0.54753(14) 0.11795(19)
C8 C 0.10581(15) 0.42448(14) 0.26002(19)
C9 C 0.1959(2) 0.58355(16) 0.0285(2)
H5 H 0.18220 0.64650 -0.00340
C10 C 0.12207(19) 0.33378(15) 0.3135(2)
H6 H 0.08610 0.31400 0.37910
C11 C 0.2734(2) 0.52468(17) -0.0157(2)
H7 H 0.31140 0.55010 -0.07610
C12 C 0.09309(16) 0.57497(14) 0.4154(2)
H8 H 0.03930 0.59090 0.46880
C13 C 0.1945(2) 0.27044(15) 0.2675(2)
H9 H 0.20370 0.20790 0.30180
C14 C 0.29484(18) 0.43165(16) 0.0272(2)
H10 H 0.34610 0.39470 -0.00490
C15 C 0.25175(17) 0.29713(14) 0.1746(2)
H11 H 0.29890 0.25310 0.14720
C16 C 0.16455(14) 0.45223(13) 0.16408(17)
C17 C 0.23976(15) 0.39121(13) 0.11993(18)
C18 C 0.23669(16) 0.67921(13) 0.35998(19)
C19 C 0.21593(16) 0.55289(13) 0.50656(18)
C20 C 0.3029(2) 0.74313(14) 0.3136(2)
H12 H 0.26780 0.78530 0.24070
C21 C 0.26071(19) 0.48694(15) 0.6096(2)
H13 H 0.21170 0.44400 0.63580
C22 C 0.4253(2) 0.74444(17) 0.3776(3)
H14 H 0.47020 0.78820 0.34590
C23 C 0.3830(2) 0.48508(16) 0.6758(2)
H15 H 0.41380 0.44010 0.74620
C24 C 0.47986(19) 0.68400(18) 0.4838(2)
H16 H 0.56080 0.68730 0.52390
loop_
_geom_bond_atom_site_label_1
_geom_bond_atom_site_label_2
_geom_bond_distance
_geom_bond_site_symmetry_1
_geom_bond_site_symmetry_2
C1 H1 0.980 1_555 1_555
C2 H2 0.930 1_555 1_555
C3 C4 1.399 1_555 1_555
C4 C2 1.411 1_555 1_555
C5 C1 1.574 1_555 1_555
H3 C5 0.980 1_555 1_555
C6 C5 1.559 1_555 1_555
H4 C6 0.979 1_555 1_555
C7 C5 1.506 1_555 1_555
C8 C6 1.501 1_555 1_555
C9 C7 1.354 1_555 1_555
H5 C9 0.930 1_555 1_555
C10 C8 1.362 1_555 1_555
H6 C10 0.930 1_555 1_555
C11 C9 1.407 1_555 1_555
H7 C11 0.930 1_555 1_555
C12 C1 1.560 1_555 1_555
H8 C12 0.979 1_555 1_555
C13 C10 1.409 1_555 1_555
H9 C13 0.930 1_555 1_555
C14 C11 1.364 1_555 1_555
H10 C14 0.930 1_555 1_555
C15 C13 1.364 1_555 1_555
H11 C15 0.930 1_555 1_555
C16 C7 1.404 1_555 1_555
C17 C14 1.409 1_555 1_555
C18 C1 1.499 1_555 1_555
C19 C3 1.407 1_555 1_555
C20 C18 1.364 1_555 1_555
H12 C20 0.930 1_555 1_555
C21 C19 1.362 1_555 1_555
H13 C21 0.930 1_555 1_555
C22 C20 1.409 1_555 1_555
H14 C22 0.930 1_555 1_555
C23 C2 1.362 1_555 1_555
H15 C23 0.930 1_555 1_555
C24 C4 1.414 1_555 1_555
H16 C24 0.930 1_555 1_555
C3 C18 1.403 1_555 1_555
C6 C12 1.571 1_555 1_555
C8 C16 1.406 1_555 1_555
C12 C19 1.507 1_555 1_555
C15 C17 1.410 1_555 1_555
C16 C17 1.404 1_555 1_555
C21 C23 1.411 1_555 1_555
C22 C24 1.356 1_555 1_555
#END
