
#######################################################################
#
#                 Cambridge Crystallographic Data Centre
#                                CCDC
#
#######################################################################
#
# If this CIF has been generated from an entry in the Cambridge
# Structural Database, then it will include bibliographic, chemical,
# crystal, experimental, refinement or atomic coordinate data resulting
# from the CCDC's data processing and validation procedures.
#
#######################################################################

data_CSD_CIF_ACUDEI
_audit_creation_date 2006-07-26
_audit_creation_method CSD-ConQuest-V1
_database_code_CSD ACUDEI
_database_code_depnum_ccdc_archive 'CCDC 605340'
_chemical_formula_sum 'C42 H26'
_chemical_formula_moiety
;
C42 H26
;
_journal_coden_Cambridge 1096
_journal_volume 18
_journal_year 2006
_journal_page_first 244
_journal_name_full 'Chem.Mater. '
loop_
_publ_author_name
"R.Zeis"
"C.Besnard"
"T.Siegrist"
"C.Schlockermann"
"Xiaoliu Chi"
"C.Kloc"
_chemical_name_systematic
;
4b,8b-Diphenyl-4b,8b-dihydrodi-indeno(1,2,3-fg:1',2',3'-op)tetracene
;
_cell_volume   1387.709
_exptl_crystal_colour 'white'
_exptl_crystal_density_diffrn 1.27
_exptl_crystal_description 'prism'
_diffrn_ambient_temperature 293
#These two values have been output from a single CSD field.
_refine_ls_R_factor_gt 0.1068
_refine_ls_wR_factor_gt 0.1068
_symmetry_cell_setting triclinic
_symmetry_space_group_name_H-M 'P -1'
_symmetry_Int_Tables_number 2
loop_
_symmetry_equiv_pos_site_id
_symmetry_equiv_pos_as_xyz
1 x,y,z
2 -x,-y,-z
_cell_length_a 10.315(4)
_cell_length_b 12.055(4)
_cell_length_c 12.583(5)
_cell_angle_alpha 92.83(3)
_cell_angle_beta 84.46(3)
_cell_angle_gamma 116.99(4)
_cell_formula_units_Z 2
loop_
_atom_type_symbol
_atom_type_radius_bond
C 0.68
H 0.23
loop_
_atom_site_label
_atom_site_type_symbol
_atom_site_fract_x
_atom_site_fract_y
_atom_site_fract_z
C1 C 0.4586(12) 0.5399(9) 0.8493(8)
C2 C 0.5430(12) 0.4843(9) 0.8271(8)
C3 C 0.4938(12) 0.3717(9) 0.7737(8)
C4 C 0.3512(11) 0.3125(8) 0.7441(7)
C5 C 0.2598(10) 0.3697(8) 0.7675(7)
C6 C 0.3164(11) 0.4841(8) 0.8213(7)
C7 C 0.100(1) 0.3056(8) 0.7394(7)
C8 C 0.049(1) 0.1707(8) 0.7628(7)
C9 C 0.138(1) 0.1143(8) 0.7392(7)
C10 C 0.2900(11) 0.1842(8) 0.6871(7)
C11 C 0.3536(13) 0.0938(9) 0.7108(8)
C12 C 0.4906(17) 0.1049(13) 0.6774(11)
C13 C 0.5210(19) 0.0089(15) 0.7016(13)
C14 C 0.4183(19) -0.0949(14) 0.7556(12)
C15 C 0.2840(16) -0.1065(11) 0.7861(10)
C16 C 0.2443(12) -0.0116(9) 0.7641(8)
C17 C 0.1129(11) 0.0043(8) 0.7861(7)
C18 C -0.0213(11) -0.0586(8) 0.8522(7)
C19 C -0.0618(12) -0.1768(9) 0.8977(8)
C20 C -0.1862(13) -0.2312(9) 0.9665(8)
C21 C -0.2739(12) -0.1758(9) 0.9875(8)
C22 C -0.2408(12) -0.0651(9) 0.9449(8)
C23 C -0.1121(11) -0.0021(8) 0.8754(7)
C24 C -0.0714(11) 0.1178(8) 0.8345(7)
C25 C -0.1140(12) 0.2168(9) 0.8641(8)
C26 C -0.2278(14) 0.2221(11) 0.9299(10)
C27 C -0.2368(16) 0.3331(12) 0.9442(10)
C28 C -0.1388(16) 0.4393(12) 0.8951(11)
C29 C -0.0250(14) 0.4391(11) 0.8262(9)
C30 C -0.0145(12) 0.3282(9) 0.8133(8)
C31 C 0.0809(12) 0.3279(9) 0.6244(8)
C32 C 0.1742(16) 0.4320(12) 0.5714(11)
C33 C 0.151(2) 0.4530(15) 0.4612(14)
C34 C 0.0389(19) 0.3636(15) 0.4184(12)
C35 C -0.0648(17) 0.2630(14) 0.4694(12)
C36 C -0.0360(14) 0.2452(11) 0.5736(10)
C37 C 0.2984(11) 0.1979(8) 0.5650(7)
C38 C 0.4044(13) 0.301(1) 0.5150(8)
C39 C 0.4094(13) 0.3106(10) 0.4026(9)
C40 C 0.3119(12) 0.2180(9) 0.3451(8)
C41 C 0.2084(12) 0.1165(9) 0.3952(8)
C42 C 0.1978(11) 0.1049(9) 0.5060(8)
H1 H 0.49410 0.62150 0.88670
H2 H 0.64700 0.52590 0.84760
H3 H 0.55930 0.33130 0.75550
H4 H 0.25080 0.52500 0.83990
H5 H 0.56330 0.17820 0.63740
H6 H 0.61510 0.01080 0.67690
H7 H 0.43680 -0.16620 0.77450
H8 H 0.20400 -0.18060 0.82410
H9 H 0.00040 -0.22030 0.88040
H10 H -0.20860 -0.31510 0.99910
H11 H -0.36290 -0.21780 1.03750
H12 H -0.30930 -0.02620 0.96020
H13 H -0.30190 0.14510 0.96540
H14 H -0.31840 0.33370 0.99530
H15 H -0.14730 0.51800 0.90540
H16 H 0.04810 0.51680 0.78710
H17 H 0.25610 0.49930 0.60450
H18 H 0.22370 0.52770 0.42260
H19 H 0.01630 0.38310 0.34580
H20 H -0.14570 0.19740 0.43520
H21 H -0.10850 0.16920 0.61350
H22 H 0.47880 0.37050 0.55330
H23 H 0.48530 0.38700 0.36650
H24 H 0.31390 0.22730 0.26570
H25 H 0.13590 0.04710 0.35510
H26 H 0.12230 0.02880 0.54260
loop_
_geom_bond_atom_site_label_1
_geom_bond_atom_site_label_2
_geom_bond_distance
_geom_bond_site_symmetry_1
_geom_bond_site_symmetry_2
C1 C2 1.323 1_555 1_555
C2 C3 1.379 1_555 1_555
C3 C4 1.392 1_555 1_555
C4 C5 1.403 1_555 1_555
C5 C6 1.398 1_555 1_555
C6 C1 1.382 1_555 1_555
C7 C5 1.539 1_555 1_555
C8 C7 1.500 1_555 1_555
C9 C8 1.374 1_555 1_555
C10 C4 1.548 1_555 1_555
C11 C10 1.557 1_555 1_555
C12 C11 1.382 1_555 1_555
C13 C12 1.383 1_555 1_555
C14 C13 1.375 1_555 1_555
C15 C14 1.346 1_555 1_555
C16 C11 1.405 1_555 1_555
C17 C9 1.382 1_555 1_555
C18 C17 1.439 1_555 1_555
C19 C18 1.424 1_555 1_555
C20 C19 1.380 1_555 1_555
C21 C20 1.349 1_555 1_555
C22 C21 1.344 1_555 1_555
C23 C18 1.390 1_555 1_555
C24 C8 1.373 1_555 1_555
C25 C24 1.469 1_555 1_555
C26 C25 1.394 1_555 1_555
C27 C26 1.385 1_555 1_555
C28 C27 1.351 1_555 1_555
C29 C28 1.391 1_555 1_555
C30 C7 1.546 1_555 1_555
C31 C7 1.532 1_555 1_555
C32 C31 1.345 1_555 1_555
C33 C32 1.483 1_555 1_555
C34 C33 1.312 1_555 1_555
C35 C34 1.339 1_555 1_555
C36 C31 1.361 1_555 1_555
C37 C10 1.543 1_555 1_555
C38 C37 1.359 1_555 1_555
C39 C38 1.419 1_555 1_555
C40 C39 1.350 1_555 1_555
C41 C40 1.340 1_555 1_555
C42 C37 1.377 1_555 1_555
H1 C1 0.992 1_555 1_555
H2 C2 1.011 1_555 1_555
H3 C3 1.002 1_555 1_555
H4 C6 1.008 1_555 1_555
H5 C12 0.983 1_555 1_555
H6 C13 0.981 1_555 1_555
H7 C14 1.005 1_555 1_555
H8 C15 1.002 1_555 1_555
H9 C19 1.001 1_555 1_555
H10 C20 1.027 1_555 1_555
H11 C21 0.996 1_555 1_555
H12 C22 1.011 1_555 1_555
H13 C26 0.988 1_555 1_555
H14 C27 1.011 1_555 1_555
H15 C28 0.993 1_555 1_555
H16 C29 1.010 1_555 1_555
H17 C32 0.979 1_555 1_555
H18 C33 0.984 1_555 1_555
H19 C34 1.028 1_555 1_555
H20 C35 0.971 1_555 1_555
H21 C36 1.001 1_555 1_555
H22 C38 0.985 1_555 1_555
H23 C39 0.993 1_555 1_555
H24 C40 1.008 1_555 1_555
H25 C41 0.988 1_555 1_555
H26 C42 0.992 1_555 1_555
C9 C10 1.502 1_555 1_555
C15 C16 1.425 1_555 1_555
C16 C17 1.452 1_555 1_555
C22 C23 1.425 1_555 1_555
C23 C24 1.418 1_555 1_555
C25 C30 1.404 1_555 1_555
C29 C30 1.390 1_555 1_555
C35 C36 1.419 1_555 1_555
C41 C42 1.397 1_555 1_555
#END
