
#######################################################################
#
#                 Cambridge Crystallographic Data Centre
#                                CCDC
#
#######################################################################
#
# If this CIF has been generated from an entry in the Cambridge
# Structural Database, then it will include bibliographic, chemical,
# crystal, experimental, refinement or atomic coordinate data resulting
# from the CCDC's data processing and validation procedures.
#
#######################################################################

data_CSD_CIF_ACUDEI01
_audit_creation_date 2016-01-25
_audit_creation_method CSD-ConQuest-V1
_database_code_CSD ACUDEI01
_database_code_depnum_ccdc_archive 'CCDC 1423235'
_chemical_formula_sum 'C42 H26'
_chemical_formula_moiety
;
C42 H26
;
_journal_coden_Cambridge 1291
_journal_year 2016
_journal_page_first 569
_journal_name_full 'Eur.J.Org.Chem. '
loop_
_publ_author_name
"T.Wombacher"
"S.Foro"
"J.J.Schneider"
_chemical_name_systematic
;
4b,8b-diphenyl-4b,8b-dihydrodiindeno[1,2,3-fg:1',2',3'-op]tetracene
;
_cell_volume   2726.415
_exptl_crystal_colour 'colorless'
_exptl_crystal_density_diffrn 1.293
_exptl_crystal_description 'prism'
_diffrn_ambient_temperature 293
#These two values have been output from a single CSD field.
_refine_ls_R_factor_gt 0.0722
_refine_ls_wR_factor_gt 0.0722
_symmetry_cell_setting monoclinic
_symmetry_space_group_name_H-M 'P 21/c'
_symmetry_Int_Tables_number 14
loop_
_symmetry_equiv_pos_site_id
_symmetry_equiv_pos_as_xyz
1 x,y,z
2 -x,1/2+y,1/2-z
3 -x,-y,-z
4 x,-1/2-y,-1/2+z
_cell_length_a 12.905(2)
_cell_length_b 11.772(1)
_cell_length_c 18.918(3)
_cell_angle_alpha 90
_cell_angle_beta 108.44(1)
_cell_angle_gamma 90
_cell_formula_units_Z 4
loop_
_atom_type_symbol
_atom_type_radius_bond
C 0.68
H 0.23
loop_
_atom_site_label
_atom_site_type_symbol
_atom_site_fract_x
_atom_site_fract_y
_atom_site_fract_z
C1 C 0.2579(3) 0.5405(3) 0.36436(19)
C2 C 0.2309(3) 0.4355(3) 0.40147(18)
C3 C 0.3020(3) 0.4589(3) 0.48214(19)
C4 C 0.3134(3) 0.3928(3) 0.5446(2)
H1 H 0.27300 0.32650 0.54100
C5 C 0.3858(3) 0.4267(4) 0.6125(2)
H2 H 0.39580 0.38160 0.65450
C6 C 0.4429(3) 0.5269(4) 0.6180(2)
H3 H 0.49240 0.54790 0.66370
C7 C 0.4280(3) 0.5968(3) 0.5569(2)
H4 H 0.46530 0.66540 0.56170
C8 C 0.3566(3) 0.5637(3) 0.48789(18)
C9 C 0.3298(3) 0.6132(3) 0.41253(19)
C10 C 0.3761(3) 0.7050(3) 0.3823(2)
C11 C 0.4439(3) 0.7887(3) 0.4276(2)
H5 H 0.45440 0.78830 0.47850
C12 C 0.4946(3) 0.8705(3) 0.3987(2)
H6 H 0.53920 0.92410 0.43000
C13 C 0.4791(3) 0.8731(3) 0.3227(3)
H7 H 0.51440 0.92790 0.30330
C14 C 0.4123(3) 0.7957(3) 0.2764(2)
H8 H 0.40180 0.80000 0.22550
C15 C 0.3586(3) 0.7089(3) 0.3033(2)
C16 C 0.2932(3) 0.6221(3) 0.25676(19)
C17 C 0.2765(3) 0.5842(3) 0.17900(19)
C18 C 0.2997(3) 0.6344(4) 0.1188(2)
H9 H 0.33680 0.70330 0.12490
C19 C 0.2673(4) 0.5813(4) 0.0504(2)
H10 H 0.28250 0.61510 0.01030
C20 C 0.2129(4) 0.4790(4) 0.0403(2)
H11 H 0.19200 0.44430 -0.00630
C21 C 0.1891(3) 0.4276(4) 0.0991(2)
H12 H 0.15120 0.35920 0.09200
C22 C 0.2220(3) 0.4787(3) 0.16813(19)
C23 C 0.1931(3) 0.4455(3) 0.23839(18)
C24 C 0.2415(3) 0.5442(3) 0.28811(18)
C25 C 0.2680(2) 0.3353(3) 0.36184(18)
C26 C 0.3223(3) 0.2425(3) 0.4011(2)
H13 H 0.33310 0.23850 0.45200
C27 C 0.3611(3) 0.1554(3) 0.3675(2)
H14 H 0.39720 0.09380 0.39530
C28 C 0.3457(3) 0.1610(3) 0.2925(2)
H15 H 0.37220 0.10320 0.26940
C29 C 0.2912(3) 0.2518(3) 0.2510(2)
H16 H 0.28090 0.25370 0.20010
C30 C 0.2514(3) 0.3403(3) 0.28341(19)
C31 C 0.1108(3) 0.4246(3) 0.39857(18)
C32 C 0.0489(3) 0.5198(4) 0.3980(2)
H17 H 0.07920 0.59120 0.39700
C33 C -0.0569(4) 0.5115(5) 0.3991(3)
H18 H -0.09760 0.57710 0.39780
C34 C -0.1027(4) 0.4076(5) 0.4019(3)
H19 H -0.17430 0.40200 0.40240
C35 C -0.0414(4) 0.3117(5) 0.4040(3)
H20 H -0.07110 0.24050 0.40690
C36 C 0.0644(4) 0.3206(4) 0.4020(3)
H21 H 0.10490 0.25500 0.40290
C37 C 0.0685(3) 0.4361(3) 0.21687(18)
C38 C 0.0070(3) 0.5339(3) 0.2066(2)
H22 H 0.04210 0.60400 0.21400
C39 C -0.1046(3) 0.5302(3) 0.1857(2)
H23 H -0.14440 0.59730 0.17960
C40 C -0.1578(3) 0.4277(4) 0.1736(2)
H24 H -0.23360 0.42500 0.16010
C41 C -0.0986(3) 0.3294(4) 0.1817(3)
H25 H -0.13410 0.25970 0.17240
C42 C 0.0147(3) 0.3339(3) 0.2038(2)
H26 H 0.05460 0.26680 0.20980
loop_
_geom_bond_atom_site_label_1
_geom_bond_atom_site_label_2
_geom_bond_distance
_geom_bond_site_symmetry_1
_geom_bond_site_symmetry_2
C1 C2 1.516 1_555 1_555
C2 C3 1.537 1_555 1_555
C3 C4 1.383 1_555 1_555
C4 H1 0.929 1_555 1_555
C5 C4 1.387 1_555 1_555
H2 C5 0.930 1_555 1_555
C6 C5 1.377 1_555 1_555
H3 C6 0.931 1_555 1_555
C7 C6 1.382 1_555 1_555
H4 C7 0.930 1_555 1_555
C8 C3 1.408 1_555 1_555
C9 C1 1.374 1_555 1_555
C10 C9 1.438 1_555 1_555
C11 C10 1.413 1_555 1_555
H5 C11 0.929 1_555 1_555
C12 C11 1.371 1_555 1_555
H6 C12 0.930 1_555 1_555
C13 C12 1.388 1_555 1_555
H7 C13 0.930 1_555 1_555
C14 C13 1.365 1_555 1_555
H8 C14 0.930 1_555 1_555
C15 C10 1.440 1_555 1_555
C16 C15 1.436 1_555 1_555
C17 C16 1.486 1_555 1_555
C18 C17 1.397 1_555 1_555
H9 C18 0.930 1_555 1_555
C19 C18 1.378 1_555 1_555
H10 C19 0.931 1_555 1_555
C20 C19 1.377 1_555 1_555
H11 C20 0.931 1_555 1_555
C21 C20 1.383 1_555 1_555
H12 C21 0.930 1_555 1_555
C22 C17 1.410 1_555 1_555
C23 C22 1.540 1_555 1_555
C24 C1 1.391 1_555 1_555
C25 C2 1.552 1_555 1_555
C26 C25 1.381 1_555 1_555
H13 C26 0.929 1_555 1_555
C27 C26 1.381 1_555 1_555
H14 C27 0.930 1_555 1_555
C28 C27 1.371 1_555 1_555
H15 C28 0.930 1_555 1_555
C29 C28 1.380 1_555 1_555
H16 C29 0.930 1_555 1_555
C30 C23 1.556 1_555 1_555
C31 C2 1.539 1_555 1_555
C32 C31 1.374 1_555 1_555
H17 C32 0.930 1_555 1_555
C33 C32 1.376 1_555 1_555
H18 C33 0.930 1_555 1_555
C34 C33 1.367 1_555 1_555
H19 C34 0.929 1_555 1_555
C35 C34 1.372 1_555 1_555
H20 C35 0.930 1_555 1_555
C36 C31 1.373 1_555 1_555
H21 C36 0.930 1_555 1_555
C37 C23 1.533 1_555 1_555
C38 C37 1.377 1_555 1_555
H22 C38 0.930 1_555 1_555
C39 C38 1.368 1_555 1_555
H23 C39 0.929 1_555 1_555
C40 C39 1.371 1_555 1_555
H24 C40 0.930 1_555 1_555
C41 C40 1.368 1_555 1_555
H25 C41 0.929 1_555 1_555
C42 C37 1.372 1_555 1_555
H26 C42 0.930 1_555 1_555
C7 C8 1.394 1_555 1_555
C8 C9 1.476 1_555 1_555
C14 C15 1.416 1_555 1_555
C16 C24 1.374 1_555 1_555
C21 C22 1.377 1_555 1_555
C23 C24 1.501 1_555 1_555
C25 C30 1.432 1_555 1_555
C29 C30 1.387 1_555 1_555
C35 C36 1.382 1_555 1_555
C41 C42 1.389 1_555 1_555
#END
