
#######################################################################
#
#                 Cambridge Crystallographic Data Centre
#                                CCDC
#
#######################################################################
#
# If this CIF has been generated from an entry in the Cambridge
# Structural Database, then it will include bibliographic, chemical,
# crystal, experimental, refinement or atomic coordinate data resulting
# from the CCDC's data processing and validation procedures.
#
#######################################################################

data_CSD_CIF_ADETUA
_audit_creation_date 2013-02-01
_audit_creation_method CSD-ConQuest-V1
_database_code_CSD ADETUA
_database_code_depnum_ccdc_archive 'CCDC 847918'
_chemical_formula_sum 'C18 H16'
_chemical_formula_moiety
;
C18 H16
;
_journal_coden_Cambridge 579
_journal_volume 31
_journal_year 2012
_journal_page_first 644
_journal_name_full 'Organometallics '
loop_
_publ_author_name
"A.S.K.Hashmi"
"I.Braun"
"M.Rudolph"
"F.Rominger"
_chemical_name_systematic
;
2,3-Dimethyl-6-phenylnaphthalene
;
_cell_volume   1207.975
_exptl_crystal_density_diffrn 1.278
_diffrn_ambient_temperature 200
#These two values have been output from a single CSD field.
_refine_ls_R_factor_gt 0.0846
_refine_ls_wR_factor_gt 0.0846
_symmetry_cell_setting monoclinic
_symmetry_space_group_name_H-M 'P 21/n'
_symmetry_Int_Tables_number 14
loop_
_symmetry_equiv_pos_site_id
_symmetry_equiv_pos_as_xyz
1 x,y,z
2 1/2-x,1/2+y,1/2-z
3 -x,-y,-z
4 -1/2+x,-1/2-y,-1/2+z
_cell_length_a 6.234(3)
_cell_length_b 30.753(16)
_cell_length_c 6.611(4)
_cell_angle_alpha 90
_cell_angle_beta 107.618(10)
_cell_angle_gamma 90
_cell_formula_units_Z 4
loop_
_atom_type_symbol
_atom_type_radius_bond
C 0.68
H 0.23
loop_
_atom_site_label
_atom_site_type_symbol
_atom_site_fract_x
_atom_site_fract_y
_atom_site_fract_z
C1 C 0.6808(7) 0.17320(13) 0.6958(6)
C2 C 0.5863(7) 0.17771(13) 0.8571(7)
H1 H 0.44900 0.16320 0.84770
C3 C 0.6854(8) 0.20243(14) 1.0295(7)
H2 H 0.61600 0.20550 1.13840
C4 C 0.8847(8) 0.22300(14) 1.0476(7)
H3 H 0.95480 0.24010 1.16930
C5 C 0.9822(7) 0.21874(14) 0.8898(7)
H4 H 1.12010 0.23310 0.90110
C6 C 0.8833(7) 0.19408(14) 0.7171(7)
H5 H 0.95380 0.19110 0.60900
C7 C 0.5684(6) 0.14820(13) 0.5050(6)
C8 C 0.6791(6) 0.12120(12) 0.4096(6)
H6 H 0.83600 0.11680 0.47270
C9 C 0.5690(6) 0.09969(12) 0.2210(6)
C10 C 0.6803(6) 0.07257(12) 0.1142(6)
H7 H 0.83630 0.06700 0.17730
C11 C 0.5746(6) 0.05413(12) -0.0741(6)
C12 C 0.3426(6) 0.06174(12) -0.1689(6)
C13 C 0.2309(6) 0.08694(13) -0.0661(6)
H8 H 0.07410 0.09150 -0.12940
C14 C 0.3363(6) 0.10640(12) 0.1277(6)
C15 C 0.2249(7) 0.13369(13) 0.2301(6)
H9 H 0.06760 0.13830 0.17010
C16 C 0.3354(7) 0.15369(13) 0.4123(6)
H10 H 0.25460 0.17190 0.47990
C17 C 0.6971(7) 0.02618(13) -0.1848(7)
H11 H 0.85760 0.02590 -0.10470
H12 H 0.67740 0.03770 -0.32760
H13 H 0.63740 -0.00350 -0.19520
C18 C 0.2235(7) 0.04174(14) -0.3772(7)
H14 H 0.06460 0.05030 -0.41970
H15 H 0.23510 0.01000 -0.36520
H16 H 0.29210 0.05180 -0.48410
loop_
_geom_bond_atom_site_label_1
_geom_bond_atom_site_label_2
_geom_bond_distance
_geom_bond_site_symmetry_1
_geom_bond_site_symmetry_2
C1 C2 1.372 1_555 1_555
C2 H1 0.950 1_555 1_555
C3 C2 1.354 1_555 1_555
H2 C3 0.950 1_555 1_555
C4 C3 1.367 1_555 1_555
H3 C4 0.950 1_555 1_555
C5 C4 1.363 1_555 1_555
H4 C5 0.949 1_555 1_555
C6 C1 1.385 1_555 1_555
H5 C6 0.950 1_555 1_555
C7 C1 1.462 1_555 1_555
C8 C7 1.352 1_555 1_555
H6 C8 0.950 1_555 1_555
C9 C8 1.395 1_555 1_555
C10 C9 1.404 1_555 1_555
H7 C10 0.951 1_555 1_555
C11 C10 1.345 1_555 1_555
C12 C11 1.411 1_555 1_555
C13 C12 1.354 1_555 1_555
H8 C13 0.950 1_555 1_555
C14 C9 1.409 1_555 1_555
C15 C14 1.389 1_555 1_555
H9 C15 0.951 1_555 1_555
C16 C7 1.405 1_555 1_555
H10 C16 0.950 1_555 1_555
C17 C11 1.482 1_555 1_555
H11 C17 0.980 1_555 1_555
H12 C17 0.981 1_555 1_555
H13 C17 0.980 1_555 1_555
C18 C12 1.486 1_555 1_555
H14 C18 0.980 1_555 1_555
H15 C18 0.980 1_555 1_555
H16 C18 0.980 1_555 1_555
C5 C6 1.354 1_555 1_555
C13 C14 1.386 1_555 1_555
C15 C16 1.342 1_555 1_555
#END
