
#######################################################################
#
#                 Cambridge Crystallographic Data Centre
#                                CCDC
#
#######################################################################
#
# If this CIF has been generated from an entry in the Cambridge
# Structural Database, then it will include bibliographic, chemical,
# crystal, experimental, refinement or atomic coordinate data resulting
# from the CCDC's data processing and validation procedures.
#
#######################################################################

data_CSD_CIF_ADILAC
_audit_creation_date 2013-02-01
_audit_creation_method CSD-ConQuest-V1
_database_code_CSD ADILAC
_database_code_depnum_ccdc_archive 'CCDC 813806'
_chemical_formula_sum 'C30 H26'
_chemical_formula_moiety
;
C30 H26
;
_journal_coden_Cambridge 35
_journal_volume 77
_journal_year 2012
_journal_page_first 1422
_journal_name_full 'J.Org.Chem. '
loop_
_publ_author_name
"Wen-Xue Niu"
"Er-Qun Yang"
"Zi-Fa Shi"
"Xiao-Ping Cao"
"D.Kuck"
_chemical_name_systematic
;
4b,8b,14b,14d-Tetramethyl-4b,8b,14b,14d-tetrahydrobenzo[5,6]indeno[1',2',3':3,
4]pentaleno[1,2-b]naphthalene
;
_cell_volume   2107.645
_exptl_crystal_colour 'colorless'
_exptl_crystal_density_diffrn 1.218
_exptl_crystal_description 'block'
_diffrn_ambient_temperature 296
#These two values have been output from a single CSD field.
_refine_ls_R_factor_gt 0.0369
_refine_ls_wR_factor_gt 0.0369
_symmetry_cell_setting orthorhombic
_symmetry_space_group_name_H-M 'P 21 21 21'
_symmetry_Int_Tables_number 19
loop_
_symmetry_equiv_pos_site_id
_symmetry_equiv_pos_as_xyz
1 x,y,z
2 1/2-x,-y,1/2+z
3 -x,1/2+y,1/2-z
4 1/2+x,1/2-y,-z
_cell_length_a 10.927(3)
_cell_length_b 12.053(3)
_cell_length_c 16.003(4)
_cell_angle_alpha 90
_cell_angle_beta 90
_cell_angle_gamma 90
_cell_formula_units_Z 4
loop_
_atom_type_symbol
_atom_type_radius_bond
C 0.68
H 0.23
loop_
_atom_site_label
_atom_site_type_symbol
_atom_site_fract_x
_atom_site_fract_y
_atom_site_fract_z
C1 C 0.82730(16) -0.03997(15) 0.91223(11)
H1 H 0.84960 -0.02720 0.85700
C2 C 0.91138(16) -0.09253(13) 0.96700(11)
C3 C 1.03342(17) -0.12035(15) 0.94231(14)
H2 H 1.05880 -0.10670 0.88780
C4 C 1.11346(19) -0.16702(16) 0.99826(17)
H3 H 1.19310 -0.18320 0.98170
C5 C 1.07622(19) -0.19046(17) 1.07998(17)
H4 H 1.13100 -0.22280 1.11720
C6 C 0.96015(18) -0.16626(16) 1.10559(14)
H5 H 0.93630 -0.18390 1.15980
C7 C 0.87466(16) -0.11431(13) 1.05062(11)
C8 C 0.75587(16) -0.08226(15) 1.07651(11)
H6 H 0.73020 -0.09790 1.13070
C9 C 0.67802(15) -0.02836(14) 1.02277(10)
C10 C 0.71376(14) -0.00762(13) 0.93936(10)
C11 C 0.61486(15) 0.05149(14) 0.88979(10)
C12 C 0.65130(14) 0.16931(14) 0.86499(10)
C13 C 0.74180(16) 0.20091(17) 0.80836(11)
H7 H 0.78980 0.14730 0.78240
C14 C 0.76004(18) 0.31226(19) 0.79081(13)
H8 H 0.82110 0.33350 0.75360
C15 C 0.68721(19) 0.39231(17) 0.82879(13)
H9 H 0.69810 0.46680 0.81570
C16 C 0.59907(18) 0.36157(15) 0.88578(12)
H10 H 0.55120 0.41540 0.91160
C17 C 0.58165(14) 0.24993(14) 0.90478(10)
C18 C 0.49321(15) 0.19969(14) 0.96778(10)
C19 C 0.53673(14) 0.21911(14) 1.05717(10)
C20 C 0.54922(16) 0.31971(15) 1.09852(12)
H11 H 0.53170 0.38580 1.07090
C21 C 0.58787(17) 0.32149(17) 1.18114(12)
H12 H 0.59700 0.38890 1.20870
C22 C 0.6127(2) 0.22380(18) 1.22248(12)
H13 H 0.63670 0.22530 1.27820
C23 C 0.60199(19) 0.12324(17) 1.18103(11)
H14 H 0.61980 0.05750 1.20890
C24 C 0.56466(14) 0.12025(14) 1.0979(1)
C25 C 0.55172(15) 0.01922(14) 1.04202(10)
C26 C 0.50521(15) 0.06903(14) 0.95488(10)
C27 C 0.58311(19) -0.01572(17) 0.81015(11)
H15 H 0.51920 0.02140 0.78000
H16 H 0.55610 -0.08860 0.82580
H17 H 0.65440 -0.02160 0.77540
C28 C 0.36379(16) 0.24995(17) 0.95728(13)
H18 H 0.36670 0.32810 0.96850
H19 H 0.30850 0.21490 0.99570
H20 H 0.33590 0.23800 0.90110
C29 C 0.46857(17) -0.06948(16) 1.08233(12)
H21 H 0.50460 -0.09450 1.13370
H22 H 0.45980 -0.13110 1.04480
H23 H 0.38960 -0.03800 1.09350
C30 C 0.38510(18) 0.01604(18) 0.92500(13)
H24 H 0.39640 -0.06250 0.91850
H25 H 0.36180 0.04790 0.87240
H26 H 0.32200 0.02960 0.96550
loop_
_geom_bond_atom_site_label_1
_geom_bond_atom_site_label_2
_geom_bond_distance
_geom_bond_site_symmetry_1
_geom_bond_site_symmetry_2
C1 H1 0.930 1_555 1_555
C2 C1 1.419 1_555 1_555
C3 C2 1.431 1_555 1_555
H2 C3 0.930 1_555 1_555
C4 C3 1.372 1_555 1_555
H3 C4 0.930 1_555 1_555
C5 C4 1.398 1_555 1_555
H4 C5 0.930 1_555 1_555
C6 C5 1.364 1_555 1_555
H5 C6 0.930 1_555 1_555
C7 C2 1.421 1_555 1_555
C8 C7 1.416 1_555 1_555
H6 C8 0.931 1_555 1_555
C9 C8 1.373 1_555 1_555
C10 C1 1.371 1_555 1_555
C11 C10 1.518 1_555 1_555
C12 C11 1.527 1_555 1_555
C13 C12 1.394 1_555 1_555
H7 C13 0.930 1_555 1_555
C14 C13 1.386 1_555 1_555
H8 C14 0.930 1_555 1_555
C15 C14 1.391 1_555 1_555
H9 C15 0.930 1_555 1_555
C16 C15 1.377 1_555 1_555
H10 C16 0.930 1_555 1_555
C17 C12 1.389 1_555 1_555
C18 C17 1.522 1_555 1_555
C19 C18 1.526 1_555 1_555
C20 C19 1.388 1_555 1_555
H11 C20 0.931 1_555 1_555
C21 C20 1.388 1_555 1_555
H12 C21 0.930 1_555 1_555
C22 C21 1.378 1_555 1_555
H13 C22 0.930 1_555 1_555
C23 C22 1.387 1_555 1_555
H14 C23 0.930 1_555 1_555
C24 C19 1.392 1_555 1_555
C25 C9 1.526 1_555 1_555
C26 C11 1.602 1_555 1_555
C27 C11 1.549 1_555 1_555
H15 C27 0.960 1_555 1_555
H16 C27 0.960 1_555 1_555
H17 C27 0.960 1_555 1_555
C28 C18 1.548 1_555 1_555
H18 C28 0.959 1_555 1_555
H19 C28 0.960 1_555 1_555
H20 C28 0.960 1_555 1_555
C29 C25 1.544 1_555 1_555
H21 C29 0.960 1_555 1_555
H22 C29 0.960 1_555 1_555
H23 C29 0.959 1_555 1_555
C30 C26 1.536 1_555 1_555
H24 C30 0.960 1_555 1_555
H25 C30 0.960 1_555 1_555
H26 C30 0.960 1_555 1_555
C6 C7 1.428 1_555 1_555
C9 C10 1.413 1_555 1_555
C16 C17 1.393 1_555 1_555
C18 C26 1.594 1_555 1_555
C23 C24 1.392 1_555 1_555
C24 C25 1.517 1_555 1_555
C25 C26 1.601 1_555 1_555
#END
