
#######################################################################
#
#                 Cambridge Crystallographic Data Centre
#                                CCDC
#
#######################################################################
#
# If this CIF has been generated from an entry in the Cambridge
# Structural Database, then it will include bibliographic, chemical,
# crystal, experimental, refinement or atomic coordinate data resulting
# from the CCDC's data processing and validation procedures.
#
#######################################################################

data_CSD_CIF_ADOLAJ
_audit_creation_date 2017-10-03
_audit_creation_method CSD-ConQuest-V1
_database_code_CSD ADOLAJ
_database_code_depnum_ccdc_archive 'CCDC 1542112'
_chemical_formula_sum 'C46 H38'
_chemical_formula_moiety
;
C46 H38
;
_journal_coden_Cambridge 177
_journal_volume 15
_journal_year 2017
_journal_page_first 6913
_journal_name_full 'Org.Biomol.Chem. '
loop_
_publ_author_name
"R.Kaiser"
"Jiri Mosinger"
"I.Cisarova"
"M.Kotora"
_chemical_name_systematic
;
2,3-diethyl-4-(phenanthren-9-yl)-1-propyl-9,9'-spirobi[fluorene]
;
_cell_volume   3338.487
_exptl_crystal_colour 'colorless'
_exptl_crystal_density_diffrn 1.175
_exptl_crystal_description 'bar'
_diffrn_ambient_temperature 120
#These two values have been output from a single CSD field.
_refine_ls_R_factor_gt 0.0574
_refine_ls_wR_factor_gt 0.0574
_symmetry_cell_setting monoclinic
_symmetry_space_group_name_H-M 'P 21/c'
_symmetry_Int_Tables_number 14
loop_
_symmetry_equiv_pos_site_id
_symmetry_equiv_pos_as_xyz
1 x,y,z
2 -x,1/2+y,1/2-z
3 -x,-y,-z
4 x,-1/2-y,-1/2+z
_cell_length_a 16.8419(5)
_cell_length_b 8.6097(2)
_cell_length_c 23.3066(6)
_cell_angle_alpha 90
_cell_angle_beta 98.940(1)
_cell_angle_gamma 90
_cell_formula_units_Z 4
loop_
_atom_type_symbol
_atom_type_radius_bond
C 0.68
H 0.23
loop_
_atom_site_label
_atom_site_type_symbol
_atom_site_fract_x
_atom_site_fract_y
_atom_site_fract_z
C1 C 0.27543(11) 0.4935(2) 0.60468(8)
C2 C 0.35243(11) 0.4375(2) 0.62492(8)
C3 C 0.38494(11) 0.4664(2) 0.68333(8)
C4 C 0.34007(12) 0.5450(2) 0.72060(8)
C5 C 0.26172(11) 0.5980(2) 0.69965(8)
C6 C 0.23087(11) 0.5743(2) 0.64132(8)
C7 C 0.15409(11) 0.6262(2) 0.60673(8)
C8 C 0.08961(11) 0.7132(2) 0.62073(9)
H1 H 0.08900 0.74680 0.65950
C9 C 0.02651(12) 0.7496(2) 0.57711(10)
H2 H -0.01770 0.80830 0.58620
C10 C 0.02709(12) 0.7012(2) 0.52029(10)
H3 H -0.01630 0.72840 0.49090
C11 C 0.09039(12) 0.6137(2) 0.50614(9)
H4 H 0.09090 0.58050 0.46730
C12 C 0.15276(11) 0.5757(2) 0.54970(8)
C13 C 0.22788(11) 0.4822(2) 0.54355(8)
C14 C 0.20727(11) 0.3163(2) 0.52302(8)
C15 C 0.17532(11) 0.1982(2) 0.55250(9)
H5 H 0.16340 0.21460 0.59060
C16 C 0.16085(12) 0.0540(2) 0.52511(10)
H6 H 0.13970 -0.02900 0.54490
C17 C 0.17718(13) 0.0317(3) 0.46942(10)
H7 H 0.16580 -0.06600 0.45100
C18 C 0.20999(13) 0.1496(3) 0.43993(10)
H8 H 0.22150 0.13310 0.40180
C19 C 0.22566(12) 0.2925(2) 0.46730(9)
C20 C 0.26282(12) 0.4350(3) 0.44892(9)
C21 C 0.29341(15) 0.4702(3) 0.39833(10)
H9 H 0.29140 0.39620 0.36790
C22 C 0.32671(16) 0.6151(3) 0.39330(11)
H10 H 0.34780 0.64050 0.35900
C23 C 0.32998(15) 0.7238(3) 0.43722(12)
H11 H 0.35290 0.82290 0.43250
C24 C 0.30009(13) 0.6901(3) 0.48828(10)
H12 H 0.30240 0.76460 0.51850
C25 C 0.26690(11) 0.5446(2) 0.49359(8)
C26 C 0.39878(11) 0.3484(2) 0.58465(9)
H13 H 0.45580 0.38130 0.59230
H14 H 0.37720 0.37640 0.54400
C27 C 0.39501(13) 0.1713(3) 0.59106(11)
H15 H 0.42060 0.14140 0.63070
H16 H 0.33810 0.13800 0.58600
C28 C 0.43743(17) 0.0887(3) 0.54661(14)
H17 H 0.41110 0.11550 0.50740
H18 H 0.43460 -0.02390 0.55220
H19 H 0.49380 0.12130 0.55160
C29 C 0.47149(12) 0.4230(2) 0.70510(9)
H20 H 0.48560 0.32860 0.68460
H21 H 0.47770 0.39890 0.74710
C30 C 0.52904(13) 0.5550(3) 0.69523(11)
H22 H 0.52480 0.57570 0.65350
H23 H 0.58430 0.52470 0.71080
H24 H 0.51480 0.64890 0.71510
C31 C 0.37416(13) 0.5720(2) 0.78379(9)
H25 H 0.34960 0.66690 0.79740
H26 H 0.43270 0.59020 0.78710
C32 C 0.35970(15) 0.4368(3) 0.82319(9)
H27 H 0.30190 0.42570 0.82370
H28 H 0.38730 0.45700 0.86270
H29 H 0.38060 0.34090 0.80850
C33 C 0.21204(11) 0.6830(2) 0.73713(8)
C34 C 0.21182(11) 0.8518(2) 0.73703(8)
C35 C 0.26412(12) 0.9344(2) 0.70703(9)
H30 H 0.30130 0.87930 0.68800
C36 C 0.26243(13) 1.0938(2) 0.70474(10)
H31 H 0.29880 1.14860 0.68480
C37 C 0.20705(14) 1.1743(3) 0.73189(10)
H32 H 0.20480 1.28450 0.72950
C38 C 0.15562(14) 1.0968(3) 0.76207(10)
H33 H 0.11870 1.15440 0.78060
C39 C 0.15633(12) 0.9329(2) 0.76612(8)
C40 C 0.10216(12) 0.8472(2) 0.79718(8)
C41 C 0.04513(13) 0.9190(3) 0.82715(9)
H34 H 0.04140 1.02910 0.82740
C42 C -0.00486(14) 0.8334(3) 0.85587(10)
H35 H -0.04260 0.88480 0.87560
C43 C -0.00089(14) 0.6711(3) 0.85642(10)
H36 H -0.03540 0.61220 0.87660
C44 C 0.05332(13) 0.5983(3) 0.82757(9)
H37 H 0.05580 0.48800 0.82760
C45 C 0.10549(12) 0.6835(2) 0.79781(9)
C46 C 0.16107(12) 0.6061(2) 0.76673(9)
H38 H 0.16220 0.49580 0.76690
loop_
_geom_bond_atom_site_label_1
_geom_bond_atom_site_label_2
_geom_bond_distance
_geom_bond_site_symmetry_1
_geom_bond_site_symmetry_2
C1 C2 1.395 1_555 1_555
C2 C3 1.408 1_555 1_555
C3 C4 1.410 1_555 1_555
C4 C5 1.410 1_555 1_555
C5 C6 1.393 1_555 1_555
C6 C1 1.406 1_555 1_555
C7 C6 1.482 1_555 1_555
C8 C7 1.399 1_555 1_555
H1 C8 0.950 1_555 1_555
C9 C8 1.388 1_555 1_555
H2 C9 0.951 1_555 1_555
C10 C9 1.390 1_555 1_555
H3 C10 0.950 1_555 1_555
C11 C10 1.386 1_555 1_555
H4 C11 0.951 1_555 1_555
C12 C7 1.395 1_555 1_555
C13 C1 1.525 1_555 1_555
C14 C13 1.529 1_555 1_555
C15 C14 1.382 1_555 1_555
H5 C15 0.951 1_555 1_555
C16 C15 1.400 1_555 1_555
H6 C16 0.949 1_555 1_555
C17 C16 1.381 1_555 1_555
H7 C17 0.950 1_555 1_555
C18 C17 1.388 1_555 1_555
H8 C18 0.949 1_555 1_555
C19 C14 1.396 1_555 1_555
C20 C19 1.471 1_555 1_555
C21 C20 1.392 1_555 1_555
H9 C21 0.950 1_555 1_555
C22 C21 1.380 1_555 1_555
H10 C22 0.949 1_555 1_555
C23 C22 1.382 1_555 1_555
H11 C23 0.950 1_555 1_555
C24 C23 1.393 1_555 1_555
H12 C24 0.949 1_555 1_555
C25 C13 1.521 1_555 1_555
C26 C2 1.519 1_555 1_555
H13 C26 0.990 1_555 1_555
H14 C26 0.990 1_555 1_555
C27 C26 1.534 1_555 1_555
H15 C27 0.991 1_555 1_555
H16 C27 0.990 1_555 1_555
C28 C27 1.523 1_555 1_555
H17 C28 0.979 1_555 1_555
H18 C28 0.980 1_555 1_555
H19 C28 0.979 1_555 1_555
C29 C3 1.514 1_555 1_555
H20 C29 0.990 1_555 1_555
H21 C29 0.990 1_555 1_555
C30 C29 1.534 1_555 1_555
H22 C30 0.980 1_555 1_555
H23 C30 0.980 1_555 1_555
H24 C30 0.980 1_555 1_555
C31 C4 1.513 1_555 1_555
H25 C31 0.990 1_555 1_555
H26 C31 0.989 1_555 1_555
C32 C31 1.525 1_555 1_555
H27 C32 0.980 1_555 1_555
H28 C32 0.980 1_555 1_555
H29 C32 0.980 1_555 1_555
C33 C5 1.492 1_555 1_555
C34 C33 1.453 1_555 1_555
C35 C34 1.401 1_555 1_555
H30 C35 0.949 1_555 1_555
C36 C35 1.374 1_555 1_555
H31 C36 0.950 1_555 1_555
C37 C36 1.391 1_555 1_555
H32 C37 0.951 1_555 1_555
C38 C37 1.371 1_555 1_555
H33 C38 0.950 1_555 1_555
C39 C34 1.420 1_555 1_555
C40 C39 1.451 1_555 1_555
C41 C40 1.415 1_555 1_555
H34 C41 0.950 1_555 1_555
C42 C41 1.369 1_555 1_555
H35 C42 0.950 1_555 1_555
C43 C42 1.399 1_555 1_555
H36 C43 0.949 1_555 1_555
C44 C43 1.367 1_555 1_555
H37 C44 0.951 1_555 1_555
C45 C40 1.411 1_555 1_555
C46 C33 1.355 1_555 1_555
H38 C46 0.950 1_555 1_555
C11 C12 1.382 1_555 1_555
C12 C13 1.525 1_555 1_555
C18 C19 1.392 1_555 1_555
C20 C25 1.399 1_555 1_555
C24 C25 1.385 1_555 1_555
C38 C39 1.414 1_555 1_555
C44 C45 1.407 1_555 1_555
C45 C46 1.434 1_555 1_555
#END
