
#######################################################################
#
#                 Cambridge Crystallographic Data Centre
#                                CCDC
#
#######################################################################
#
# If this CIF has been generated from an entry in the Cambridge
# Structural Database, then it will include bibliographic, chemical,
# crystal, experimental, refinement or atomic coordinate data resulting
# from the CCDC's data processing and validation procedures.
#
#######################################################################

data_CSD_CIF_AHEMUW
_audit_creation_date 2010-03-08
_audit_creation_method CSD-ConQuest-V1
_database_code_CSD AHEMUW
_database_code_depnum_ccdc_archive 'CCDC 708481'
_chemical_formula_sum 'C32 H20'
_chemical_formula_moiety
;
C32 H20
;
_journal_coden_Cambridge 1291
_journal_year 2009
_journal_page_first 2621
_journal_name_full 'Eur.J.Org.Chem. '
loop_
_publ_author_name
"C.Werner"
"H.Hopf"
"J.Grunenberg"
"L.Ernst"
"P.G.Jones"
"F.Kohler"
"R.Herges"
_chemical_name_systematic
;
1,8(1,4)-Dinaphthalenacyclotetradecaphane-2,9-diyne-4,6,11,13-tetraene
;
_cell_volume   2099.368
_exptl_crystal_colour 'yellow'
_exptl_crystal_density_diffrn 1.28
_exptl_crystal_description 'tablet'
_exptl_crystal_preparation 'dichloromethane/cyclohexane'
_diffrn_ambient_temperature 143
#These two values have been output from a single CSD field.
_refine_ls_R_factor_gt 0.0477
_refine_ls_wR_factor_gt 0.0477
_symmetry_cell_setting monoclinic
_symmetry_space_group_name_H-M 'P 2/c'
_symmetry_Int_Tables_number 13
loop_
_symmetry_equiv_pos_site_id
_symmetry_equiv_pos_as_xyz
1 x,y,z
2 -x,y,1/2-z
3 -x,-y,-z
4 x,-y,-1/2+z
_cell_length_a 16.934(3)
_cell_length_b 7.652(2)
_cell_length_c 16.220(3)
_cell_angle_alpha 90
_cell_angle_beta 92.74(2)
_cell_angle_gamma 90
_cell_formula_units_Z 4
loop_
_atom_type_symbol
_atom_type_radius_bond
C 0.68
H 0.23
loop_
_atom_site_label
_atom_site_type_symbol
_atom_site_fract_x
_atom_site_fract_y
_atom_site_fract_z
C1 C 0.31729(12) 0.1974(3) 0.14417(13)
C2 C 0.34566(13) 0.2925(3) 0.09472(13)
C3 C 0.37464(13) 0.3995(3) 0.03178(14)
H1 H 0.36630 0.35770 -0.02310
C4 C 0.41246(14) 0.5529(3) 0.04038(14)
H2 H 0.42770 0.60410 -0.00980
C5 C 0.43384(14) 0.6530(3) 0.11392(14)
H3 H 0.48240 0.71420 0.11100
C6 C 0.39853(13) 0.6760(3) 0.18515(14)
H4 H 0.42730 0.74990 0.22290
C7 C 0.32418(12) 0.6101(3) 0.21690(13)
C8 C 0.32635(13) 0.5509(3) 0.29699(13)
H5 H 0.37390 0.56340 0.33000
C9 C 0.26099(13) 0.4730(3) 0.33164(13)
H6 H 0.26520 0.43050 0.38670
C10 C 0.19059(12) 0.4577(3) 0.28633(13)
C11 C 0.18319(12) 0.5312(3) 0.20496(13)
C12 C 0.11040(13) 0.5292(3) 0.15851(14)
H7 H 0.06520 0.47870 0.18150
C13 C 0.10432(15) 0.5989(3) 0.08107(15)
H8 H 0.05530 0.59400 0.05010
C14 C 0.16975(14) 0.6776(3) 0.04711(14)
H9 H 0.16490 0.72760 -0.00650
C15 C 0.24075(13) 0.6830(3) 0.09074(13)
H10 H 0.28450 0.73910 0.06740
C16 C 0.25026(12) 0.6064(3) 0.17005(13)
C17 C 0.12657(13) 0.3597(3) 0.31801(13)
C18 C 0.07717(13) 0.2594(3) 0.34073(13)
C19 C 0.01526(13) 0.1446(3) 0.36049(14)
H11 H -0.03670 0.18630 0.34730
C20 C 0.01935(13) -0.0145(3) 0.39516(14)
H12 H -0.03080 -0.06790 0.40020
C21 C 0.08504(13) -0.1221(3) 0.42669(14)
H13 H 0.07190 -0.19620 0.47100
C22 C 0.16023(13) -0.1372(3) 0.40560(14)
H14 H 0.19200 -0.21270 0.43980
C23 C 0.20120(12) -0.0556(3) 0.33802(13)
C24 C 0.16590(13) -0.0377(3) 0.26068(13)
H15 H 0.11360 -0.07990 0.25060
C25 C 0.20482(12) 0.0410(3) 0.19619(13)
H16 H 0.17820 0.05340 0.14360
C26 C 0.28110(12) 0.1006(3) 0.20780(12)
C27 C 0.32197(12) 0.0765(3) 0.28580(13)
C28 C 0.40148(12) 0.1290(3) 0.29985(13)
H17 H 0.42890 0.17930 0.25590
C29 C 0.43972(13) 0.1090(3) 0.37515(14)
H18 H 0.49360 0.14200 0.38310
C30 C 0.39885(13) 0.0392(3) 0.44093(14)
H19 H 0.42510 0.02690 0.49370
C31 C 0.32201(13) -0.0109(3) 0.42977(13)
H20 H 0.29500 -0.05490 0.47540
C32 C 0.28146(12) 0.0012(3) 0.35153(12)
loop_
_geom_bond_atom_site_label_1
_geom_bond_atom_site_label_2
_geom_bond_distance
_geom_bond_site_symmetry_1
_geom_bond_site_symmetry_2
C1 C2 1.200 1_555 1_555
C2 C3 1.415 1_555 1_555
C3 H1 0.950 1_555 1_555
C4 C3 1.341 1_555 1_555
H2 C4 0.950 1_555 1_555
C5 C4 1.449 1_555 1_555
H3 C5 0.949 1_555 1_555
C6 C5 1.338 1_555 1_555
H4 C6 0.951 1_555 1_555
C7 C6 1.472 1_555 1_555
C8 C7 1.375 1_555 1_555
H5 C8 0.950 1_555 1_555
C9 C8 1.398 1_555 1_555
H6 C9 0.950 1_555 1_555
C10 C9 1.375 1_555 1_555
C11 C10 1.435 1_555 1_555
C12 C11 1.414 1_555 1_555
H7 C12 0.949 1_555 1_555
C13 C12 1.364 1_555 1_555
H8 C13 0.950 1_555 1_555
C14 C13 1.397 1_555 1_555
H9 C14 0.950 1_555 1_555
C15 C14 1.366 1_555 1_555
H10 C15 0.950 1_555 1_555
C16 C7 1.433 1_555 1_555
C17 C10 1.434 1_555 1_555
C18 C17 1.206 1_555 1_555
C19 C18 1.416 1_555 1_555
H11 C19 0.951 1_555 1_555
C20 C19 1.341 1_555 1_555
H12 C20 0.949 1_555 1_555
C21 C20 1.457 1_555 1_555
H13 C21 0.950 1_555 1_555
C22 C21 1.339 1_555 1_555
H14 C22 0.950 1_555 1_555
C23 C22 1.465 1_555 1_555
C24 C23 1.370 1_555 1_555
H15 C24 0.949 1_555 1_555
C25 C24 1.399 1_555 1_555
H16 C25 0.950 1_555 1_555
C26 C1 1.432 1_555 1_555
C27 C26 1.425 1_555 1_555
C28 C27 1.413 1_555 1_555
H17 C28 0.951 1_555 1_555
C29 C28 1.363 1_555 1_555
H18 C29 0.950 1_555 1_555
C30 C29 1.405 1_555 1_555
H19 C30 0.950 1_555 1_555
C31 C30 1.360 1_555 1_555
H20 C31 0.950 1_555 1_555
C32 C23 1.434 1_555 1_555
C11 C16 1.415 1_555 1_555
C15 C16 1.416 1_555 1_555
C25 C26 1.374 1_555 1_555
C27 C32 1.417 1_555 1_555
C31 C32 1.417 1_555 1_555
#END
