
#######################################################################
#
#                 Cambridge Crystallographic Data Centre
#                                CCDC
#
#######################################################################
#
# If this CIF has been generated from an entry in the Cambridge
# Structural Database, then it will include bibliographic, chemical,
# crystal, experimental, refinement or atomic coordinate data resulting
# from the CCDC's data processing and validation procedures.
#
#######################################################################

data_CSD_CIF_AKUSEG
_audit_creation_date 2016-04-18
_audit_creation_method CSD-ConQuest-V1
_database_code_CSD AKUSEG
_database_code_depnum_ccdc_archive 'CCDC 1474866'
_chemical_formula_sum 'C38 H22'
_chemical_formula_moiety
;
C38 H22
;
_journal_coden_Cambridge 1336
_journal_volume 18
_journal_year 2016
_journal_page_first 1868
_journal_name_full 'Org.Lett. '
loop_
_publ_author_name
"Ya-Chu Hsieh"
"Tsun-Cheng Wu"
"Jen-Yi Li"
"Yi-Ting Chen"
"Ming-Yu Kuo"
"Pi-Tai Chou"
"Yao-Ting Wu"
_chemical_name_systematic
;
2,11-dimethylbenzo[a]dinaphtho[2,1,8-cde:1',2',3',4'-ghi]perylene
;
_cell_volume   2235.489
_exptl_crystal_colour 'red'
_exptl_crystal_density_diffrn 1.422
_exptl_crystal_description 'Blade'
_diffrn_ambient_temperature 100
#These two values have been output from a single CSD field.
_refine_ls_R_factor_gt 0.0454
_refine_ls_wR_factor_gt 0.0454
_symmetry_cell_setting monoclinic
_symmetry_space_group_name_H-M 'P 21/n'
_symmetry_Int_Tables_number 14
loop_
_symmetry_equiv_pos_site_id
_symmetry_equiv_pos_as_xyz
1 x,y,z
2 1/2-x,1/2+y,1/2-z
3 -x,-y,-z
4 -1/2+x,-1/2-y,-1/2+z
_cell_length_a 17.4392(6)
_cell_length_b 7.3355(2)
_cell_length_c 17.5242(6)
_cell_angle_alpha 90
_cell_angle_beta 94.296(3)
_cell_angle_gamma 90
_cell_formula_units_Z 4
loop_
_atom_type_symbol
_atom_type_radius_bond
C 0.68
H 0.23
loop_
_atom_site_label
_atom_site_type_symbol
_atom_site_fract_x
_atom_site_fract_y
_atom_site_fract_z
C1 C 0.71637(11) 0.1907(2) -0.10213(10)
H1 H 0.71730 0.05800 -0.10840
H2 H 0.75740 0.24550 -0.12970
H3 H 0.66650 0.23810 -0.12270
C2 C 0.72843(10) 0.2375(2) -0.01849(9)
C3 C 0.66845(10) 0.2922(2) 0.02275(9)
H4 H 0.61890 0.30610 -0.00300
C4 C 0.67797(9) 0.3283(2) 0.10219(9)
C5 C 0.61316(9) 0.3702(2) 0.14557(9)
C6 C 0.53914(10) 0.4137(2) 0.10959(9)
H5 H 0.53230 0.41750 0.05530
C7 C 0.47855(9) 0.4497(2) 0.15132(10)
H6 H 0.43060 0.48330 0.12580
C8 C 0.48532(9) 0.4380(2) 0.23252(9)
C9 C 0.42278(9) 0.4768(2) 0.27618(10)
H7 H 0.37410 0.50710 0.25140
C10 C 0.43223(9) 0.4708(2) 0.35466(10)
H8 H 0.39080 0.50420 0.38400
C11 C 0.50210(9) 0.4162(2) 0.39175(9)
H9 H 0.50710 0.41200 0.44610
C12 C 0.56483(9) 0.3675(2) 0.35083(9)
C13 C 0.63895(9) 0.3083(2) 0.38764(9)
C14 C 0.64753(9) 0.2377(2) 0.46498(9)
C15 C 0.58580(9) 0.1598(2) 0.50238(9)
H10 H 0.53650 0.15130 0.47550
C16 C 0.5953(1) 0.0965(2) 0.57606(9)
H11 H 0.55280 0.04450 0.59910
C17 C 0.66727(10) 0.1075(2) 0.61823(9)
C18 C 0.67554(10) 0.0477(3) 0.70101(9)
H12 H 0.73010 0.04760 0.71920
H13 H 0.65450 -0.07540 0.70540
H14 H 0.64740 0.13220 0.73200
C19 C 0.72843(9) 0.1716(2) 0.58148(9)
H15 H 0.77750 0.17550 0.60880
C20 C 0.72167(9) 0.2322(2) 0.50463(9)
C21 C 0.78822(9) 0.2817(2) 0.46495(9)
C22 C 0.86291(9) 0.2954(2) 0.50334(9)
H16 H 0.86930 0.27330 0.55690
C23 C 0.92508(9) 0.3394(2) 0.46497(10)
H17 H 0.97400 0.34990 0.49230
C24 C 0.91853(9) 0.3701(2) 0.38489(9)
C25 C 0.98226(9) 0.4232(2) 0.34533(10)
H18 H 1.03150 0.43460 0.37200
C26 C 0.97338(9) 0.4585(2) 0.26855(10)
H19 H 1.01600 0.50060 0.24280
C27 C 0.90235(9) 0.4332(2) 0.22757(9)
H20 H 0.89770 0.45790 0.17420
C28 C 0.83789(9) 0.3725(2) 0.26331(9)
C29 C 0.76259(9) 0.3448(2) 0.22238(9)
C30 C 0.75246(9) 0.3131(2) 0.14083(9)
C31 C 0.81293(10) 0.2515(2) 0.09728(9)
H21 H 0.86270 0.23440 0.12210
C32 C 0.80137(10) 0.2162(2) 0.02070(9)
H22 H 0.84330 0.17650 -0.00660
C33 C 0.55766(9) 0.3894(2) 0.26985(9)
C34 C 0.62242(9) 0.3646(2) 0.22547(9)
C35 C 0.69763(9) 0.3472(2) 0.26452(9)
C36 C 0.70431(9) 0.3244(2) 0.34651(9)
C37 C 0.77946(9) 0.3126(2) 0.38588(9)
C38 C 0.84524(9) 0.3500(2) 0.34404(9)
loop_
_geom_bond_atom_site_label_1
_geom_bond_atom_site_label_2
_geom_bond_distance
_geom_bond_site_symmetry_1
_geom_bond_site_symmetry_2
C1 H1 0.980 1_555 1_555
H2 C1 0.979 1_555 1_555
H3 C1 0.980 1_555 1_555
C2 C1 1.505 1_555 1_555
C3 C2 1.375 1_555 1_555
H4 C3 0.950 1_555 1_555
C4 C3 1.415 1_555 1_555
C5 C4 1.442 1_555 1_555
C6 C5 1.430 1_555 1_555
H5 C6 0.950 1_555 1_555
C7 C6 1.355 1_555 1_555
H6 C7 0.951 1_555 1_555
C8 C7 1.422 1_555 1_555
C9 C8 1.407 1_555 1_555
H7 C9 0.950 1_555 1_555
C10 C9 1.374 1_555 1_555
H8 C10 0.950 1_555 1_555
C11 C10 1.396 1_555 1_555
H9 C11 0.950 1_555 1_555
C12 C11 1.399 1_555 1_555
C13 C12 1.466 1_555 1_555
C14 C13 1.448 1_555 1_555
C15 C14 1.422 1_555 1_555
H10 C15 0.951 1_555 1_555
C16 C15 1.370 1_555 1_555
H11 C16 0.950 1_555 1_555
C17 C16 1.410 1_555 1_555
C18 C17 1.512 1_555 1_555
H12 C18 0.981 1_555 1_555
H13 C18 0.980 1_555 1_555
H14 C18 0.980 1_555 1_555
C19 C17 1.370 1_555 1_555
H15 C19 0.949 1_555 1_555
C20 C14 1.422 1_555 1_555
C21 C20 1.443 1_555 1_555
C22 C21 1.424 1_555 1_555
H16 C22 0.951 1_555 1_555
C23 C22 1.357 1_555 1_555
H17 C23 0.950 1_555 1_555
C24 C23 1.417 1_555 1_555
C25 C24 1.408 1_555 1_555
H18 C25 0.950 1_555 1_555
C26 C25 1.368 1_555 1_555
H19 C26 0.950 1_555 1_555
C27 C26 1.397 1_555 1_555
H20 C27 0.950 1_555 1_555
C28 C27 1.400 1_555 1_555
C29 C28 1.463 1_555 1_555
C30 C4 1.424 1_555 1_555
C31 C30 1.421 1_555 1_555
H21 C31 0.950 1_555 1_555
C32 C2 1.408 1_555 1_555
H22 C32 0.949 1_555 1_555
C33 C8 1.422 1_555 1_555
C34 C5 1.398 1_555 1_555
C35 C29 1.398 1_555 1_555
C36 C13 1.398 1_555 1_555
C37 C21 1.401 1_555 1_555
C38 C24 1.425 1_555 1_555
C12 C33 1.424 1_555 1_555
C19 C20 1.415 1_555 1_555
C28 C38 1.421 1_555 1_555
C29 C30 1.446 1_555 1_555
C31 C32 1.367 1_555 1_555
C33 C34 1.430 1_555 1_555
C34 C35 1.439 1_555 1_555
C35 C36 1.443 1_555 1_555
C36 C37 1.437 1_555 1_555
C37 C38 1.433 1_555 1_555
#END
