
#######################################################################
#
#                 Cambridge Crystallographic Data Centre
#                                CCDC
#
#######################################################################
#
# If this CIF has been generated from an entry in the Cambridge
# Structural Database, then it will include bibliographic, chemical,
# crystal, experimental, refinement or atomic coordinate data resulting
# from the CCDC's data processing and validation procedures.
#
#######################################################################

data_CSD_CIF_ANTCEN01
_audit_creation_date 1971-12-31
_audit_creation_method CSD-ConQuest-V1
_database_code_CSD ANTCEN01
_database_code_depnum_ccdc_archive 'CCDC 1103063'
_chemical_formula_sum 'C14 H10'
_chemical_formula_moiety
;
C14 H10
;
_journal_coeditor_code "IUCr A04170"
_journal_coden_Cambridge 1
_journal_volume 17
_journal_year 1964
_journal_page_first 547
_journal_name_full 'Acta Crystallogr. '
loop_
_publ_author_name
"R.Mason"
_chemical_name_systematic
;
Anthracene
;
_cell_volume    458.351
_exptl_special_details
;
stable monoclinic polymorph

;
_diffrn_ambient_temperature 95
_symmetry_cell_setting monoclinic
_symmetry_space_group_name_H-M 'P 21/a'
_symmetry_Int_Tables_number 14
loop_
_symmetry_equiv_pos_site_id
_symmetry_equiv_pos_as_xyz
1 x,y,z
2 1/2-x,1/2+y,-z
3 -x,-y,-z
4 -1/2+x,-1/2-y,z
_cell_length_a 8.443
_cell_length_b 6.002
_cell_length_c 11.124
_cell_angle_alpha 90
_cell_angle_beta 125.6
_cell_angle_gamma 90
_cell_formula_units_Z 2
loop_
_atom_type_symbol
_atom_type_radius_bond
C 0.68
H 0.20
loop_
_atom_site_label
_atom_site_type_symbol
_atom_site_fract_x
_atom_site_fract_y
_atom_site_fract_z
C1 C 0.08617 0.02613 0.36813
C2 C 0.11793 0.15850 0.28352
C3 C 0.05886 0.07899 0.14027
C4 C 0.08783 0.20916 0.05076
C5 C -0.03011 -0.13488 0.08974
C6 C -0.06123 -0.26634 0.18215
C7 C -0.00391 -0.18761 0.31834
H1 H 0.14055 0.09695 0.47524
H2 H 0.18064 0.31937 0.31510
H3 H 0.14645 0.38503 0.06789
H4 H -0.12817 -0.44830 0.14122
H5 H -0.02216 -0.34492 0.38234
C5B C 0.03011 0.13488 -0.08974
C4B C -0.08783 -0.20916 -0.05076
C3B C -0.05886 -0.07899 -0.14027
C6B C 0.06123 0.26634 -0.18215
H3B H -0.14645 -0.38503 -0.06789
C2B C -0.11793 -0.15850 -0.28352
C7B C 0.00391 0.18761 -0.31834
H4B H 0.12817 0.44830 -0.14122
C1B C -0.08617 -0.02613 -0.36813
H2B H -0.18064 -0.31937 -0.31510
H5B H 0.02216 0.34492 -0.38234
H1B H -0.14055 -0.09695 -0.47524
loop_
_geom_bond_atom_site_label_1
_geom_bond_atom_site_label_2
_geom_bond_distance
_geom_bond_site_symmetry_1
_geom_bond_site_symmetry_2
C1 C2 1.372 1_555 1_555
C2 C3 1.446 1_555 1_555
C3 C4 1.395 1_555 1_555
C4 H3 1.134 1_555 1_555
C5 C3 1.427 1_555 1_555
C6 C5 1.436 1_555 1_555
C7 C1 1.428 1_555 1_555
H1 C1 1.084 1_555 1_555
H2 C2 1.058 1_555 1_555
H4 C6 1.192 1_555 1_555
H5 C7 1.245 1_555 1_555
C5B C4 1.411 1_555 1_555
C4B C5 1.411 1_555 1_555
C3B C5B 1.427 1_555 1_555
C6B C5B 1.436 1_555 1_555
H3B C4B 1.134 1_555 1_555
C2B C3B 1.446 1_555 1_555
C7B C6B 1.378 1_555 1_555
H4B C6B 1.192 1_555 1_555
C1B C2B 1.372 1_555 1_555
H2B C2B 1.058 1_555 1_555
H5B C7B 1.245 1_555 1_555
H1B C1B 1.084 1_555 1_555
C6 C7 1.378 1_555 1_555
C4B C3B 1.395 1_555 1_555
C7B C1B 1.428 1_555 1_555
#END
