
#######################################################################
#
#                 Cambridge Crystallographic Data Centre
#                                CCDC
#
#######################################################################
#
# If this CIF has been generated from an entry in the Cambridge
# Structural Database, then it will include bibliographic, chemical,
# crystal, experimental, refinement or atomic coordinate data resulting
# from the CCDC's data processing and validation procedures.
#
#######################################################################

data_CSD_CIF_ANTCEN
_audit_creation_date 1971-12-31
_audit_creation_method CSD-ConQuest-V1
_database_code_CSD ANTCEN
_database_code_depnum_ccdc_archive 'CCDC 1103062'
_chemical_formula_sum 'C14 H10'
_chemical_formula_moiety
;
C14 H10
;
_journal_coeditor_code "IUCr A04170"
_journal_coden_Cambridge 1
_journal_volume 17
_journal_year 1964
_journal_page_first 547
_journal_name_full 'Acta Crystallogr. '
loop_
_publ_author_name
"R.Mason"
_chemical_name_systematic
;
Anthracene
;
_cell_volume    475.350
_exptl_special_details
;
stable monoclinic polymorph

;
_diffrn_ambient_temperature ?
_diffrn_special_details
;
The study was carried out at room temperature,in the range 283-303K

;
#These two values have been output from a single CSD field.
_refine_ls_R_factor_gt 0.043
_refine_ls_wR_factor_gt 0.043
_symmetry_cell_setting monoclinic
_symmetry_space_group_name_H-M 'P 21/a'
_symmetry_Int_Tables_number 14
loop_
_symmetry_equiv_pos_site_id
_symmetry_equiv_pos_as_xyz
1 x,y,z
2 1/2-x,1/2+y,-z
3 -x,-y,-z
4 -1/2+x,-1/2-y,z
_cell_length_a 8.562
_cell_length_b 6.038
_cell_length_c 11.184
_cell_angle_alpha 90
_cell_angle_beta 124.7
_cell_angle_gamma 90
_cell_formula_units_Z 2
loop_
_atom_type_symbol
_atom_type_radius_bond
C 0.68
H 0.20
loop_
_atom_site_label
_atom_site_type_symbol
_atom_site_fract_x
_atom_site_fract_y
_atom_site_fract_z
C1 C 0.08728 0.02712 0.36562
C2 C 0.11875 0.15775 0.28072
C3 C 0.05864 0.08030 0.13816
C4 C 0.08786 0.20936 0.04738
C5 C -0.03038 -0.13067 0.08990
C6 C -0.06055 -0.25943 0.18346
C7 C -0.00336 -0.18060 0.31659
H1 H 0.13078 0.10834 0.47185
H2 H 0.19592 0.32463 0.31666
H3 H 0.15459 0.37636 0.08519
H4 H -0.12072 -0.43044 0.14316
H5 H -0.02393 -0.32391 0.37912
C5B C 0.03038 0.13067 -0.08990
C4B C -0.08786 -0.20936 -0.04738
C3B C -0.05864 -0.08030 -0.13816
C6B C 0.06055 0.25943 -0.18346
H3B H -0.15459 -0.37636 -0.08519
C2B C -0.11875 -0.15775 -0.28072
C7B C 0.00336 0.18060 -0.31659
H4B H 0.12072 0.43044 -0.14316
C1B C -0.08728 -0.02712 -0.36562
H2B H -0.19592 -0.32463 -0.31666
H5B H 0.02393 0.32391 -0.37912
H1B H -0.13078 -0.10834 -0.47185
loop_
_geom_bond_atom_site_label_1
_geom_bond_atom_site_label_2
_geom_bond_distance
_geom_bond_site_symmetry_1
_geom_bond_site_symmetry_2
C1 C2 1.374 1_555 1_555
C2 C3 1.446 1_555 1_555
C3 C4 1.411 1_555 1_555
C4 H3 1.117 1_555 1_555
C5 C3 1.424 1_555 1_555
C6 C5 1.440 1_555 1_555
C7 C1 1.411 1_555 1_555
H1 C1 1.134 1_555 1_555
H2 C2 1.145 1_555 1_555
H4 C6 1.127 1_555 1_555
H5 C7 1.187 1_555 1_555
C5B C4 1.402 1_555 1_555
C4B C5 1.402 1_555 1_555
C3B C5B 1.424 1_555 1_555
C6B C5B 1.440 1_555 1_555
H3B C4B 1.117 1_555 1_555
C2B C3B 1.446 1_555 1_555
C7B C6B 1.361 1_555 1_555
H4B C6B 1.127 1_555 1_555
C1B C2B 1.374 1_555 1_555
H2B C2B 1.145 1_555 1_555
H5B C7B 1.187 1_555 1_555
H1B C1B 1.134 1_555 1_555
C6 C7 1.361 1_555 1_555
C4B C3B 1.411 1_555 1_555
C7B C1B 1.411 1_555 1_555
#END
