
#######################################################################
#
#                 Cambridge Crystallographic Data Centre
#                                CCDC
#
#######################################################################
#
# If this CIF has been generated from an entry in the Cambridge
# Structural Database, then it will include bibliographic, chemical,
# crystal, experimental, refinement or atomic coordinate data resulting
# from the CCDC's data processing and validation procedures.
#
#######################################################################

data_CSD_CIF_ANTCEN08
_audit_creation_date 1984-06-02
_audit_creation_method CSD-ConQuest-V1
_database_code_CSD ANTCEN08
_database_code_depnum_ccdc_archive 'CCDC 1103068'
_chemical_formula_sum 'C14 H10'
_chemical_formula_moiety
;
C14 H10
;
_journal_coden_Cambridge 41
_journal_volume 28
_journal_year 1983
_journal_page_first 674
_journal_name_full 'Kristallografiya(Russ.)(Crystallogr.Rep.) '
loop_
_publ_author_name
"V.I.Ponomarev"
"G.V.Shilov"
_chemical_name_systematic
;
Anthracene
;
_cell_volume    457.031
_exptl_special_details
;
stable monoclinic polymorph

;
_diffrn_ambient_temperature 100
#These two values have been output from a single CSD field.
_refine_ls_R_factor_gt 0.061
_refine_ls_wR_factor_gt 0.061
_symmetry_cell_setting monoclinic
_symmetry_space_group_name_H-M 'P 1 1 21/b'
_symmetry_Int_Tables_number 14
loop_
_symmetry_equiv_pos_site_id
_symmetry_equiv_pos_as_xyz
1 x,y,z
2 -x,1/2-y,1/2+z
3 -x,-y,-z
4 x,-1/2+y,-1/2-z
_cell_length_a 11.092(4)
_cell_length_b 8.407(3)
_cell_length_c 6.006(6)
_cell_angle_alpha 90
_cell_angle_beta 90
_cell_angle_gamma 125.31(2)
_cell_formula_units_Z 2
loop_
_atom_type_symbol
_atom_type_radius_bond
C 0.68
H 0.23
loop_
_atom_site_label
_atom_site_type_symbol
_atom_site_fract_x
_atom_site_fract_y
_atom_site_fract_z
C1 C 0.36880 0.08640 0.02560
C2 C 0.28320 0.11760 0.15680
C3 C 0.13990 0.05850 0.08130
C4 C 0.04940 0.08740 0.21180
C5 C 0.08970 -0.03060 -0.13410
C6 C 0.18290 -0.06070 -0.26520
C7 C 0.31800 -0.00500 -0.18590
H1 H 0.46360 0.12520 0.07160
H2 H 0.31770 0.18480 0.29400
H3 H 0.09410 0.15340 0.34540
H4 H 0.15000 -0.11530 -0.40600
H5 H 0.37670 -0.02460 -0.28240
C5B C -0.08970 0.03060 0.13410
C4B C -0.04940 -0.08740 -0.21180
C3B C -0.13990 -0.05850 -0.08130
C6B C -0.18290 0.06070 0.26520
H3B H -0.09410 -0.15340 -0.34540
C2B C -0.28320 -0.11760 -0.15680
C7B C -0.31800 0.00500 0.18590
H4B H -0.15000 0.11530 0.40600
C1B C -0.36880 -0.08640 -0.02560
H2B H -0.31770 -0.18480 -0.29400
H5B H -0.37670 0.02460 0.28240
H1B H -0.46360 -0.12520 -0.07160
loop_
_geom_bond_atom_site_label_1
_geom_bond_atom_site_label_2
_geom_bond_distance
_geom_bond_site_symmetry_1
_geom_bond_site_symmetry_2
C1 C2 1.371 1_555 1_555
C2 C3 1.437 1_555 1_555
C3 C4 1.401 1_555 1_555
C4 H3 0.938 1_555 1_555
C5 C3 1.436 1_555 1_555
C6 C5 1.434 1_555 1_555
C7 C1 1.422 1_555 1_555
H1 C1 0.944 1_555 1_555
H2 C2 0.946 1_555 1_555
H4 C6 0.930 1_555 1_555
H5 C7 0.954 1_555 1_555
C5B C4 1.405 1_555 1_555
C4B C5 1.405 1_555 1_555
C3B C5B 1.436 1_555 1_555
C6B C5B 1.434 1_555 1_555
H3B C4B 0.938 1_555 1_555
C2B C3B 1.437 1_555 1_555
C7B C6B 1.371 1_555 1_555
H4B C6B 0.930 1_555 1_555
C1B C2B 1.371 1_555 1_555
H2B C2B 0.946 1_555 1_555
H5B C7B 0.954 1_555 1_555
H1B C1B 0.944 1_555 1_555
C6 C7 1.371 1_555 1_555
C4B C3B 1.401 1_555 1_555
C7B C1B 1.422 1_555 1_555
#END
