
#######################################################################
#
#                 Cambridge Crystallographic Data Centre
#                                CCDC
#
#######################################################################
#
# If this CIF has been generated from an entry in the Cambridge
# Structural Database, then it will include bibliographic, chemical,
# crystal, experimental, refinement or atomic coordinate data resulting
# from the CCDC's data processing and validation procedures.
#
#######################################################################

data_CSD_CIF_ANTCEN17
_audit_creation_date 2003-08-14
_audit_creation_method CSD-ConQuest-V1
_database_code_CSD ANTCEN17
_database_code_depnum_ccdc_archive 'CCDC 215297'
_chemical_formula_sum 'C14 H10'
_chemical_formula_moiety
;
C14 H10
;
_journal_coden_Cambridge 1489
_journal_volume 373
_journal_year 2002
_journal_page_first 237
_journal_name_full 'Mol.Cryst.Liq.Cryst. '
loop_
_publ_author_name
"B.Marciniak"
"V.Pavlyuk"
_chemical_name_systematic
;
Anthracene
;
_cell_volume    947.369
_exptl_crystal_density_diffrn 1.25
_exptl_special_details
;
metastable monoclinic polymorph

;
_exptl_crystal_description 'plate'
_exptl_crystal_preparation 'sublimation'
_diffrn_ambient_temperature 293
#These two values have been output from a single CSD field.
_refine_ls_R_factor_gt 0.043
_refine_ls_wR_factor_gt 0.043
_symmetry_cell_setting monoclinic
_symmetry_space_group_name_H-M 'P 21/n'
_symmetry_Int_Tables_number 14
loop_
_symmetry_equiv_pos_site_id
_symmetry_equiv_pos_as_xyz
1 x,y,z
2 1/2-x,1/2+y,1/2-z
3 -x,-y,-z
4 -1/2+x,-1/2-y,-1/2+z
_cell_length_a 8.553(2)
_cell_length_b 6.021(1)
_cell_length_c 22.333(4)
_cell_angle_alpha 90
_cell_angle_beta 124.54(3)
_cell_angle_gamma 90
_cell_formula_units_Z 4
loop_
_atom_type_symbol
_atom_type_radius_bond
C 0.68
H 0.23
loop_
_atom_site_label
_atom_site_type_symbol
_atom_site_fract_x
_atom_site_fract_y
_atom_site_fract_z
C1 C 0.101(4) 0.053(6) 0.188(2)
C2 C 0.113(3) 0.166(3) 0.1388(16)
C3 C 0.053(3) 0.081(4) 0.074(2)
C4 C 0.084(3) 0.209(4) 0.021(3)
C5 C -0.032(3) -0.126(5) 0.051(2)
C6 C -0.064(3) -0.257(3) 0.0929(17)
C7 C -0.003(4) -0.174(5) 0.1601(17)
H1 H 0.14(3) -0.09(5) 0.236(14)
H2 H 0.219(14) 0.27(2) 0.181(6)
H3 H 0.115(11) 0.336(15) -0.001(4)
H4 H -0.17(2) -0.39(2) 0.080(7)
H5 H 0.02(2) -0.34(2) 0.201(8)
C8 C 0.436(2) 0.580(4) 0.9325(9)
C9 C 0.527(3) 0.360(4) 0.9576(10)
C10 C 0.500(5) 0.319(6) 0.8435(19)
C11 C 0.419(3) 0.519(4) 0.8211(14)
C12 C 0.552(4) 0.241(5) 0.907(3)
C13 C 0.372(3) 0.648(5) 0.8600(14)
C14 C 0.407(3) 0.710(4) 0.9751(12)
H6 H 0.56(2) 0.22(3) 0.817(9)
H7 H 0.355(11) 0.569(18) 0.763(5)
H8 H 0.62(1) 0.064(14) 0.928(4)
H9 H 0.319(9) 0.816(13) 0.854(4)
H10 H 0.370(15) 0.90(2) 0.951(6)
C5B C 0.032(3) 0.126(5) -0.051(2)
C3B C -0.053(3) -0.081(4) -0.074(2)
C2B C -0.113(3) -0.166(3) -0.1388(16)
C1B C -0.101(4) -0.053(6) -0.188(2)
C7B C 0.003(4) 0.174(5) -0.1601(17)
C6B C 0.064(3) 0.257(3) -0.0929(17)
H4B H 0.17(2) 0.39(2) -0.080(7)
H5B H -0.02(2) 0.34(2) -0.201(8)
H1B H -0.14(3) 0.09(5) -0.236(14)
H2B H -0.219(14) -0.27(2) -0.181(6)
C4B C -0.084(3) -0.209(4) -0.021(3)
H3B H -0.115(11) -0.336(15) 0.001(4)
C9B C 0.473(3) 0.640(4) 1.0424(10)
C8B C 0.564(2) 0.420(4) 1.0675(9)
C13B C 0.628(3) 0.352(5) 1.1400(14)
C11B C 0.581(3) 0.481(4) 1.1789(14)
C10B C 0.500(5) 0.681(6) 1.1565(19)
C12B C 0.448(4) 0.759(5) 1.093(3)
H8B H 0.38(1) 0.936(14) 1.072(4)
H6B H 0.44(2) 0.78(3) 1.183(9)
H7B H 0.645(11) 0.431(18) 1.237(5)
H9B H 0.681(9) 0.184(13) 1.146(4)
C14B C 0.593(3) 0.290(4) 1.0249(12)
H10B H 0.630(15) 0.10(2) 1.049(6)
loop_
_geom_bond_atom_site_label_1
_geom_bond_atom_site_label_2
_geom_bond_distance
_geom_bond_site_symmetry_1
_geom_bond_site_symmetry_2
C1 C2 1.345 1_555 1_555
C2 C3 1.333 1_555 1_555
C3 C4 1.556 1_555 1_555
C4 H3 1.022 1_555 1_555
C5 C3 1.386 1_555 1_555
C6 C5 1.365 1_555 1_555
C7 C1 1.555 1_555 1_555
H1 C1 1.263 1_555 1_555
H2 C2 1.065 1_555 1_555
H4 C6 1.118 1_555 1_555
H5 C7 1.292 1_555 1_555
C8 C9 1.476 1_555 1_555
C9 C12 1.453 1_555 1_555
C10 C11 1.337 1_555 1_555
C11 C13 1.384 1_555 1_555
C12 C10 1.309 1_555 1_555
C13 C8 1.444 1_555 1_555
C14 C8 1.359 1_555 1_555
H6 C10 1.146 1_555 1_555
H7 C11 1.126 1_555 1_555
H8 C12 1.177 1_555 1_555
H9 C13 1.085 1_555 1_555
H10 C14 1.227 1_555 1_555
C5B C4 1.491 1_555 1_555
C3B C5B 1.386 1_555 1_555
C2B C3B 1.333 1_555 1_555
C1B C2B 1.345 1_555 1_555
C7B C1B 1.555 1_555 1_555
C6B C5B 1.365 1_555 1_555
H4B C6B 1.118 1_555 1_555
H5B C7B 1.292 1_555 1_555
H1B C1B 1.263 1_555 1_555
H2B C2B 1.065 1_555 1_555
C4B C5 1.491 1_555 1_555
H3B C4B 1.022 1_555 1_555
C9B C14 1.339 1_555 1_555
C8B C9B 1.476 1_555 1_555
C13B C8B 1.444 1_555 1_555
C11B C13B 1.384 1_555 1_555
C10B C11B 1.337 1_555 1_555
C12B C9B 1.453 1_555 1_555
H8B C12B 1.177 1_555 1_555
H6B C10B 1.146 1_555 1_555
H7B C11B 1.126 1_555 1_555
H9B C13B 1.085 1_555 1_555
C14B C9 1.339 1_555 1_555
H10B C14B 1.227 1_555 1_555
C6 C7 1.373 1_555 1_555
C3B C4B 1.556 1_555 1_555
C7B C6B 1.373 1_555 1_555
C8B C14B 1.359 1_555 1_555
C10B C12B 1.309 1_555 1_555
#END
