
#######################################################################
#
#                 Cambridge Crystallographic Data Centre
#                                CCDC
#
#######################################################################
#
# If this CIF has been generated from an entry in the Cambridge
# Structural Database, then it will include bibliographic, chemical,
# crystal, experimental, refinement or atomic coordinate data resulting
# from the CCDC's data processing and validation procedures.
#
#######################################################################

data_CSD_CIF_ANTCEN20
_audit_creation_date 2015-09-23
_audit_creation_method CSD-ConQuest-V1
_database_code_CSD ANTCEN20
_database_code_depnum_ccdc_archive 'CCDC 1047883'
_chemical_formula_sum 'C14 H10'
_chemical_formula_moiety
;
C14 H10
;
_journal_coden_Cambridge 1147
_journal_volume 15
_journal_year 2015
_journal_page_first 4098
_journal_name_full 'Cryst.Growth Des. '
loop_
_publ_author_name
"M.Lusi"
"I.J.Vitorica-Yrezabal"
"M.J.Zaworotko"
_chemical_name_systematic
;
Anthracene
;
_cell_volume    456.333
_exptl_crystal_colour 'colorless'
_exptl_crystal_density_diffrn 1.297
_exptl_special_details
;
Crystal formed from initial mixture with 1

;
_exptl_crystal_description 'prism'
_exptl_crystal_preparation 'ethanol'
_diffrn_ambient_temperature 100
#These two values have been output from a single CSD field.
_refine_ls_R_factor_gt 0.0521
_refine_ls_wR_factor_gt 0.0521
_symmetry_cell_setting monoclinic
_symmetry_space_group_name_H-M 'P 21/c'
_symmetry_Int_Tables_number 14
loop_
_symmetry_equiv_pos_site_id
_symmetry_equiv_pos_as_xyz
1 x,y,z
2 -x,1/2+y,1/2-z
3 -x,-y,-z
4 x,-1/2-y,-1/2+z
_cell_length_a 9.2689(6)
_cell_length_b 5.9954(3)
_cell_length_c 8.4104(6)
_cell_angle_alpha 90
_cell_angle_beta 102.478(7)
_cell_angle_gamma 90
_cell_formula_units_Z 2
loop_
_atom_type_symbol
_atom_type_radius_bond
C 0.68
H 0.23
loop_
_atom_site_label
_atom_site_type_symbol
_atom_site_fract_x
_atom_site_fract_y
_atom_site_fract_z
C1 C 0.45105(13) 0.2110(2) 0.53806(14)
H1 H 0.41800 0.35380 0.56370
C2 C 0.58951(13) 0.1345(2) 0.62029(14)
C3 C 0.68279(13) 0.2642(2) 0.74323(15)
H2 H 0.65060 0.40690 0.77040
C4 C 0.81743(14) 0.1865(2) 0.82226(15)
H3 H 0.87770 0.27470 0.90440
C5 C 0.36031(13) 0.0815(2) 0.41880(14)
C6 C 0.21747(13) 0.1551(2) 0.33436(15)
H4 H 0.18180 0.29630 0.36010
C7 C 0.13178(14) 0.0263(2) 0.21777(15)
H5 H 0.03740 0.07850 0.16270
C1B C 0.54895(13) -0.2110(2) 0.46194(14)
H1B H 0.58200 -0.35380 0.43630
C2B C 0.41049(13) -0.1345(2) 0.37971(14)
C3B C 0.31721(13) -0.2642(2) 0.25677(15)
H2B H 0.34940 -0.40690 0.22960
C4B C 0.18257(14) -0.1865(2) 0.17774(15)
H3B H 0.12230 -0.27470 0.09560
C5B C 0.63969(13) -0.0815(2) 0.58120(14)
C6B C 0.78253(13) -0.1551(2) 0.66564(15)
H4B H 0.81820 -0.29630 0.63990
C7B C 0.86822(14) -0.0263(2) 0.78223(15)
H5B H 0.96260 -0.07850 0.83730
loop_
_geom_bond_atom_site_label_1
_geom_bond_atom_site_label_2
_geom_bond_distance
_geom_bond_site_symmetry_1
_geom_bond_site_symmetry_2
C1 H1 0.950 1_555 1_555
C2 C1 1.397 1_555 1_555
C3 C2 1.427 1_555 1_555
H2 C3 0.950 1_555 1_555
C4 C3 1.363 1_555 1_555
H3 C4 0.950 1_555 1_555
C5 C1 1.397 1_555 1_555
C6 C5 1.430 1_555 1_555
H4 C6 0.951 1_555 1_555
C7 C6 1.361 1_555 1_555
H5 C7 0.950 1_555 1_555
C1B H1B 0.950 1_555 1_555
C2B C5 1.438 1_555 1_555
C3B C2B 1.427 1_555 1_555
H2B C3B 0.950 1_555 1_555
C4B C7 1.425 1_555 1_555
H3B C4B 0.950 1_555 1_555
C5B C2 1.438 1_555 1_555
C6B C5B 1.430 1_555 1_555
H4B C6B 0.951 1_555 1_555
C7B C4 1.425 1_555 1_555
H5B C7B 0.950 1_555 1_555
C1B C2B 1.397 1_555 1_555
C1B C5B 1.397 1_555 1_555
C3B C4B 1.363 1_555 1_555
C6B C7B 1.361 1_555 1_555
#END
