
#######################################################################
#
#                 Cambridge Crystallographic Data Centre
#                                CCDC
#
#######################################################################
#
# If this CIF has been generated from an entry in the Cambridge
# Structural Database, then it will include bibliographic, chemical,
# crystal, experimental, refinement or atomic coordinate data resulting
# from the CCDC's data processing and validation procedures.
#
#######################################################################

data_CSD_CIF_ANTCEN11
_audit_creation_date 1991-07-31
_audit_creation_method CSD-ConQuest-V1
_database_code_CSD ANTCEN11
_database_code_depnum_ccdc_archive 'CCDC 1103071'
_chemical_formula_sum 'C14 H10'
_chemical_formula_moiety
;
C14 H10
;
_journal_coeditor_code "IUCr CR0217"
_journal_coden_Cambridge 622
_journal_volume 46
_journal_year 1990
_journal_page_first 795
_journal_name_full 'Acta Crystallogr.,Sect.B:Struct.Sci. '
loop_
_publ_author_name
"C.P.Brock"
"J.D.Dunitz"
_chemical_name_systematic
;
Anthracene
;
_cell_volume    462.590
_exptl_special_details
;
stable monoclinic polymorph

;
_diffrn_ambient_temperature 181
#These two values have been output from a single CSD field.
_refine_ls_R_factor_gt 0.039
_refine_ls_wR_factor_gt 0.039
_symmetry_cell_setting monoclinic
_symmetry_space_group_name_H-M 'P 21/a'
_symmetry_Int_Tables_number 14
loop_
_symmetry_equiv_pos_site_id
_symmetry_equiv_pos_as_xyz
1 x,y,z
2 1/2-x,1/2+y,-z
3 -x,-y,-z
4 -1/2+x,-1/2-y,z
_cell_length_a 8.4673(18)
_cell_length_b 5.9994(17)
_cell_length_c 11.1244(17)
_cell_angle_alpha 90
_cell_angle_beta 125.056(18)
_cell_angle_gamma 90
_cell_formula_units_Z 2
loop_
_atom_type_symbol
_atom_type_radius_bond
C 0.68
H 0.23
loop_
_atom_site_label
_atom_site_type_symbol
_atom_site_fract_x
_atom_site_fract_y
_atom_site_fract_z
C1 C 0.0865(3) 0.0276(3) 0.3667(2)
C2 C 0.1174(2) 0.1553(3) 0.2819(2)
C3 C 0.0586(2) 0.0815(3) 0.1392(2)
C4 C 0.0873(2) 0.2097(3) 0.0486(2)
C5 C -0.0306(2) -0.1332(3) 0.0895(2)
C6 C -0.0600(2) -0.2619(3) 0.1832(2)
C7 C -0.0046(3) -0.1845(3) 0.3166(2)
H1 H 0.123(2) 0.078(3) 0.463(2)
H2 H 0.181(2) 0.301(3) 0.316(2)
H3 H 0.152(2) 0.353(3) 0.084(2)
H4 H -0.123(2) -0.409(3) 0.146(2)
H5 H -0.030(2) -0.275(3) 0.380(2)
C5B C 0.0306(2) 0.1332(3) -0.0895(2)
C4B C -0.0873(2) -0.2097(3) -0.0486(2)
C3B C -0.0586(2) -0.0815(3) -0.1392(2)
C6B C 0.0600(2) 0.2619(3) -0.1832(2)
H3B H -0.152(2) -0.353(3) -0.084(2)
C2B C -0.1174(2) -0.1553(3) -0.2819(2)
C7B C 0.0046(3) 0.1845(3) -0.3166(2)
H4B H 0.123(2) 0.409(3) -0.146(2)
C1B C -0.0865(3) -0.0276(3) -0.3667(2)
H2B H -0.181(2) -0.301(3) -0.316(2)
H5B H 0.030(2) 0.275(3) -0.380(2)
H1B H -0.123(2) -0.078(3) -0.463(2)
loop_
_geom_bond_atom_site_label_1
_geom_bond_atom_site_label_2
_geom_bond_distance
_geom_bond_site_symmetry_1
_geom_bond_site_symmetry_2
C1 C2 1.352 1_555 1_555
C2 C3 1.434 1_555 1_555
C3 C4 1.396 1_555 1_555
C4 H3 0.973 1_555 1_555
C5 C3 1.434 1_555 1_555
C6 C5 1.429 1_555 1_555
C7 C1 1.425 1_555 1_555
H1 C1 0.977 1_555 1_555
H2 C2 0.981 1_555 1_555
H4 C6 0.990 1_555 1_555
H5 C7 1.006 1_555 1_555
C5B C4 1.398 1_555 1_555
C4B C5 1.398 1_555 1_555
C3B C5B 1.434 1_555 1_555
C6B C5B 1.429 1_555 1_555
H3B C4B 0.973 1_555 1_555
C2B C3B 1.434 1_555 1_555
C7B C6B 1.356 1_555 1_555
H4B C6B 0.990 1_555 1_555
C1B C2B 1.352 1_555 1_555
H2B C2B 0.981 1_555 1_555
H5B C7B 1.006 1_555 1_555
H1B C1B 0.977 1_555 1_555
C6 C7 1.356 1_555 1_555
C4B C3B 1.396 1_555 1_555
C7B C1B 1.425 1_555 1_555
#END
