
#######################################################################
#
#                 Cambridge Crystallographic Data Centre
#                                CCDC
#
#######################################################################
#
# If this CIF has been generated from an entry in the Cambridge
# Structural Database, then it will include bibliographic, chemical,
# crystal, experimental, refinement or atomic coordinate data resulting
# from the CCDC's data processing and validation procedures.
#
#######################################################################

data_CSD_CIF_ANTCEN19
_audit_creation_date 2014-01-13
_audit_creation_method CSD-ConQuest-V1
_database_code_CSD ANTCEN19
_database_code_depnum_ccdc_archive 'CCDC 950158'
_chemical_formula_sum 'C14 H10'
_chemical_formula_moiety
;
C14 H10
;
_journal_coden_Cambridge 1078
_journal_year 2013
_journal_name_full 'CSD Communication(Private Communication) '
loop_
_publ_author_name
"J.G.Malecki"
_chemical_name_systematic
;
Anthracene
;
_cell_volume    472.846
_exptl_crystal_colour 'colorless'
_exptl_crystal_density_diffrn 1.252
_exptl_special_details
;
stable monoclinic polymorph
University of Silesia, Institute of Chemistry, Katowice, Poland
;
_exptl_crystal_description 'needle'
_diffrn_ambient_temperature 295
#These two values have been output from a single CSD field.
_refine_ls_R_factor_gt 0.0496
_refine_ls_wR_factor_gt 0.0496
_symmetry_cell_setting monoclinic
_symmetry_space_group_name_H-M 'P 21/c'
_symmetry_Int_Tables_number 14
loop_
_symmetry_equiv_pos_site_id
_symmetry_equiv_pos_as_xyz
1 x,y,z
2 -x,1/2+y,1/2-z
3 -x,-y,-z
4 x,-1/2-y,-1/2+z
_cell_length_a 9.4583(16)
_cell_length_b 6.010(1)
_cell_length_c 8.5576(15)
_cell_angle_alpha 90
_cell_angle_beta 103.583(18)
_cell_angle_gamma 90
_cell_formula_units_Z 2
loop_
_atom_type_symbol
_atom_type_radius_bond
C 0.68
H 0.23
loop_
_atom_site_label
_atom_site_type_symbol
_atom_site_fract_x
_atom_site_fract_y
_atom_site_fract_z
C1 C 0.63805(19) 0.5817(3) 0.57906(16)
C2 C 0.7793(2) 0.6542(3) 0.6617(2)
H1 H 0.8106(17) 0.801(3) 0.6312(16)
C3 C 0.8638(2) 0.5294(4) 0.7772(2)
H2 H 0.961(2) 0.580(3) 0.834(2)
C4 C 0.8153(2) 0.3205(4) 0.8191(2)
H3 H 0.877(2) 0.226(3) 0.904(2)
C5 C 0.6832(2) 0.2430(3) 0.74293(19)
H4 H 0.6438(18) 0.088(3) 0.7673(16)
C6 C 0.58905(18) 0.3686(3) 0.61967(16)
C7 C 0.54721(19) 0.7069(3) 0.45989(17)
H5 H 0.5837(18) 0.859(3) 0.4324(15)
C1B C 0.36195(19) 0.4183(3) 0.42094(16)
C2B C 0.2207(2) 0.3458(3) 0.3383(2)
H1B H 0.1894(17) 0.199(3) 0.3688(16)
C3B C 0.1362(2) 0.4706(4) 0.2228(2)
H2B H 0.039(2) 0.420(3) 0.166(2)
C4B C 0.1847(2) 0.6795(4) 0.1809(2)
H3B H 0.123(2) 0.774(3) 0.096(2)
C5B C 0.3168(2) 0.7570(3) 0.25707(19)
H4B H 0.3562(18) 0.912(3) 0.2327(16)
C6B C 0.41095(18) 0.6314(3) 0.38033(16)
C7B C 0.45279(19) 0.2931(3) 0.54011(17)
H5B H 0.4163(18) 0.141(3) 0.5676(15)
loop_
_geom_bond_atom_site_label_1
_geom_bond_atom_site_label_2
_geom_bond_distance
_geom_bond_site_symmetry_1
_geom_bond_site_symmetry_2
C1 C2 1.425 1_555 1_555
C2 H1 0.985 1_555 1_555
C3 C2 1.344 1_555 1_555
H2 C3 0.982 1_555 1_555
C4 C3 1.412 1_555 1_555
H3 C4 0.996 1_555 1_555
C5 C4 1.349 1_555 1_555
H4 C5 1.042 1_555 1_555
C6 C1 1.432 1_555 1_555
C7 C1 1.390 1_555 1_555
H5 C7 1.024 1_555 1_555
C1B C2B 1.425 1_555 1_555
C2B H1B 0.985 1_555 1_555
C3B C2B 1.344 1_555 1_555
H2B C3B 0.982 1_555 1_555
C4B C3B 1.412 1_555 1_555
H3B C4B 0.996 1_555 1_555
C5B C4B 1.349 1_555 1_555
H4B C5B 1.042 1_555 1_555
C6B C7 1.385 1_555 1_555
C7B C6 1.385 1_555 1_555
H5B C7B 1.024 1_555 1_555
C5 C6 1.426 1_555 1_555
C1B C6B 1.432 1_555 1_555
C1B C7B 1.390 1_555 1_555
C5B C6B 1.426 1_555 1_555
#END
