
#######################################################################
#
#                 Cambridge Crystallographic Data Centre
#                                CCDC
#
#######################################################################
#
# If this CIF has been generated from an entry in the Cambridge
# Structural Database, then it will include bibliographic, chemical,
# crystal, experimental, refinement or atomic coordinate data resulting
# from the CCDC's data processing and validation procedures.
#
#######################################################################

data_CSD_CIF_ANTCEN12
_audit_creation_date 1991-07-31
_audit_creation_method CSD-ConQuest-V1
_database_code_CSD ANTCEN12
_database_code_depnum_ccdc_archive 'CCDC 1103072'
_chemical_formula_sum 'C14 H10'
_chemical_formula_moiety
;
C14 H10
;
_journal_coeditor_code "IUCr CR0217"
_journal_coden_Cambridge 622
_journal_volume 46
_journal_year 1990
_journal_page_first 795
_journal_name_full 'Acta Crystallogr.,Sect.B:Struct.Sci. '
loop_
_publ_author_name
"C.P.Brock"
"J.D.Dunitz"
_chemical_name_systematic
;
Anthracene
;
_cell_volume    465.982
_exptl_special_details
;
stable monoclinic polymorph

;
_diffrn_ambient_temperature 220
#These two values have been output from a single CSD field.
_refine_ls_R_factor_gt 0.037
_refine_ls_wR_factor_gt 0.037
_symmetry_cell_setting monoclinic
_symmetry_space_group_name_H-M 'P 21/a'
_symmetry_Int_Tables_number 14
loop_
_symmetry_equiv_pos_site_id
_symmetry_equiv_pos_as_xyz
1 x,y,z
2 1/2-x,1/2+y,-z
3 -x,-y,-z
4 -1/2+x,-1/2-y,z
_cell_length_a 8.4959(17)
_cell_length_b 6.0033(13)
_cell_length_c 11.1407(12)
_cell_angle_alpha 90
_cell_angle_beta 124.907(14)
_cell_angle_gamma 90
_cell_formula_units_Z 2
loop_
_atom_type_symbol
_atom_type_radius_bond
C 0.68
H 0.23
loop_
_atom_site_label
_atom_site_type_symbol
_atom_site_fract_x
_atom_site_fract_y
_atom_site_fract_z
C1 C 0.0866(3) 0.0282(3) 0.3661(2)
C2 C 0.1175(2) 0.1552(3) 0.2811(2)
C3 C 0.0588(2) 0.0818(3) 0.1390(2)
C4 C 0.0874(2) 0.2092(3) 0.0484(2)
C5 C -0.0306(2) -0.1327(3) 0.0896(2)
C6 C -0.0600(2) -0.2610(3) 0.1832(2)
C7 C -0.0043(3) -0.1829(4) 0.3163(2)
H1 H 0.130(2) 0.079(3) 0.466(2)
H2 H 0.183(2) 0.302(3) 0.315(2)
H3 H 0.149(2) 0.353(3) 0.082(2)
H4 H -0.124(2) -0.408(3) 0.147(2)
H5 H -0.025(2) -0.275(3) 0.384(2)
C5B C 0.0306(2) 0.1327(3) -0.0896(2)
C4B C -0.0874(2) -0.2092(3) -0.0484(2)
C3B C -0.0588(2) -0.0818(3) -0.1390(2)
C6B C 0.0600(2) 0.2610(3) -0.1832(2)
H3B H -0.149(2) -0.353(3) -0.082(2)
C2B C -0.1175(2) -0.1552(3) -0.2811(2)
C7B C 0.0043(3) 0.1829(4) -0.3163(2)
H4B H 0.124(2) 0.408(3) -0.147(2)
C1B C -0.0866(3) -0.0282(3) -0.3661(2)
H2B H -0.183(2) -0.302(3) -0.315(2)
H5B H 0.025(2) 0.275(3) -0.384(2)
H1B H -0.130(2) -0.079(3) -0.466(2)
loop_
_geom_bond_atom_site_label_1
_geom_bond_atom_site_label_2
_geom_bond_distance
_geom_bond_site_symmetry_1
_geom_bond_site_symmetry_2
C1 C2 1.353 1_555 1_555
C2 C3 1.430 1_555 1_555
C3 C4 1.394 1_555 1_555
C4 H3 0.967 1_555 1_555
C5 C3 1.435 1_555 1_555
C6 C5 1.429 1_555 1_555
C7 C1 1.421 1_555 1_555
H1 C1 0.999 1_555 1_555
H2 C2 0.994 1_555 1_555
H4 C6 0.993 1_555 1_555
H5 C7 1.028 1_555 1_555
C5B C4 1.399 1_555 1_555
C4B C5 1.399 1_555 1_555
C3B C5B 1.435 1_555 1_555
C6B C5B 1.429 1_555 1_555
H3B C4B 0.967 1_555 1_555
C2B C3B 1.430 1_555 1_555
C7B C6B 1.356 1_555 1_555
H4B C6B 0.993 1_555 1_555
C1B C2B 1.353 1_555 1_555
H2B C2B 0.994 1_555 1_555
H5B C7B 1.028 1_555 1_555
H1B C1B 0.999 1_555 1_555
C6 C7 1.356 1_555 1_555
C4B C3B 1.394 1_555 1_555
C7B C1B 1.421 1_555 1_555
#END
