
#######################################################################
#
#                 Cambridge Crystallographic Data Centre
#                                CCDC
#
#######################################################################
#
# If this CIF has been generated from an entry in the Cambridge
# Structural Database, then it will include bibliographic, chemical,
# crystal, experimental, refinement or atomic coordinate data resulting
# from the CCDC's data processing and validation procedures.
#
#######################################################################

data_CSD_CIF_ANTMEU
_audit_creation_date 1977-07-22
_audit_creation_method CSD-ConQuest-V1
_database_code_CSD ANTMEU
_database_code_depnum_ccdc_archive 'CCDC 1103118'
_chemical_formula_sum 'C32 H24'
_chemical_formula_moiety
;
C32 H24
;
_journal_coeditor_code "IUCr A14399"
_journal_coden_Cambridge 107
_journal_volume 33
_journal_year 1977
_journal_page_first 355
_journal_name_full 'Acta Crystallogr.,Sect.B:Struct.Crystallogr.Cryst.Chem. '
loop_
_publ_author_name
"A.Wada"
"J.Tanaka"
_chemical_name_systematic
;
Bi(anthracene-9,10-dimethylene)
;
_cell_volume   1025.487
_exptl_crystal_density_diffrn 1.322
_exptl_special_details
;
beta polymorph

;
_diffrn_ambient_temperature ?
_diffrn_special_details
;
The study was carried out at room temperature,in the range 283-303K

;
#These two values have been output from a single CSD field.
_refine_ls_R_factor_gt 0.04
_refine_ls_wR_factor_gt 0.04
_symmetry_cell_setting monoclinic
_symmetry_space_group_name_H-M 'P 21/c'
_symmetry_Int_Tables_number 14
loop_
_symmetry_equiv_pos_site_id
_symmetry_equiv_pos_as_xyz
1 x,y,z
2 -x,1/2+y,1/2-z
3 -x,-y,-z
4 x,-1/2-y,-1/2+z
_cell_length_a 10.277(1)
_cell_length_b 12.794(2)
_cell_length_c 8.466(1)
_cell_angle_alpha 90
_cell_angle_beta 112.89(1)
_cell_angle_gamma 90
_cell_formula_units_Z 2
loop_
_atom_type_symbol
_atom_type_radius_bond
C 0.68
H 0.23
loop_
_atom_site_label
_atom_site_type_symbol
_atom_site_fract_x
_atom_site_fract_y
_atom_site_fract_z
C1 C 0.73062 0.21471 0.06750
C2 C 0.86946 0.21052 0.16845
C3 C 0.92099 0.13639 0.29941
C4 C 0.83230 0.06715 0.32652
C5 C 0.34813 -0.02086 0.25488
C6 C 0.20977 0.00716 0.19207
C7 C 0.15685 0.08106 0.05964
C8 C 0.24395 0.12640 -0.00787
C9 C 0.48414 0.15111 -0.00525
C10 C 0.58936 0.00079 0.25854
C11 C 0.62959 0.14694 0.09468
C12 C 0.68251 0.07046 0.22892
C13 C 0.44484 0.02776 0.19471
C14 C 0.39149 0.10365 0.05911
C15 C 0.42747 0.19454 -0.18697
C16 C 0.63412 -0.10853 0.32799
H1 H 0.69820 0.26360 -0.02270
H2 H 0.93900 0.26710 0.14670
H3 H 1.02810 0.13690 0.37530
H4 H 0.86910 0.01320 0.41680
H5 H 0.38360 -0.07640 0.34710
H6 H 0.14750 -0.02550 0.24390
H7 H 0.05870 0.10580 0.01890
H8 H 0.20430 0.18060 -0.10310
H9 H 0.51040 0.22970 -0.21660
H10 H 0.35670 0.25020 -0.20250
H11 H 0.75110 -0.11670 0.37340
H12 H 0.61790 -0.12730 0.42160
C16B C 0.36588 0.10853 -0.32799
C15B C 0.57253 -0.19454 0.18697
C10B C 0.41064 -0.00079 -0.25854
H11B H 0.24890 0.11670 -0.37340
H12B H 0.38210 0.12730 -0.42160
C9B C 0.51586 -0.15111 0.00525
H9B H 0.48960 -0.22970 0.21660
H10B H 0.64330 -0.25020 0.20250
C12B C 0.31749 -0.07046 -0.22892
C13B C 0.55516 -0.02776 -0.19471
C11B C 0.37041 -0.14694 -0.09468
C14B C 0.60851 -0.10365 -0.05911
C4B C 0.16770 -0.06715 -0.32652
C5B C 0.65187 0.02086 -0.25488
C1B C 0.26938 -0.21471 -0.06750
C8B C 0.75605 -0.12640 0.00787
C3B C 0.07901 -0.13639 -0.29941
H4B H 0.13090 -0.01320 -0.41680
C6B C 0.79023 -0.00716 -0.19207
H5B H 0.61640 0.07640 -0.34710
C2B C 0.13054 -0.21052 -0.16845
H1B H 0.30180 -0.26360 0.02270
C7B C 0.84315 -0.08106 -0.05964
H8B H 0.79570 -0.18060 0.10310
H3B H -0.02810 -0.13690 -0.37530
H6B H 0.85250 0.02550 -0.24390
H2B H 0.06100 -0.26710 -0.14670
H7B H 0.94130 -0.10580 -0.01890
loop_
_geom_bond_atom_site_label_1
_geom_bond_atom_site_label_2
_geom_bond_distance
_geom_bond_site_symmetry_1
_geom_bond_site_symmetry_2
C1 C2 1.349 1_555 1_555
C2 C3 1.397 1_555 1_555
C3 C4 1.353 1_555 1_555
C4 C12 1.437 1_555 1_555
C5 C6 1.358 1_555 1_555
C6 C7 1.404 1_555 1_555
C7 C8 1.365 1_555 1_555
C8 C14 1.427 1_555 1_555
C9 C11 1.403 1_555 1_555
C10 C12 1.400 1_555 1_555
C11 C1 1.438 1_555 1_555
C12 C11 1.437 1_555 1_555
C13 C5 1.424 1_555 1_555
C14 C9 1.406 1_555 1_555
C15 C9 1.522 1_555 1_555
C16 C10 1.518 1_555 1_555
H1 C1 0.942 1_555 1_555
H2 C2 1.082 1_555 1_555
H3 C3 1.037 1_555 1_555
H4 C4 0.989 1_555 1_555
H5 C5 1.013 1_555 1_555
H6 C6 0.998 1_555 1_555
H7 C7 0.983 1_555 1_555
H8 C8 1.020 1_555 1_555
H9 C15 1.076 1_555 1_555
H10 C15 0.989 1_555 1_555
H11 C16 1.116 1_555 1_555
H12 C16 0.903 1_555 1_555
C16B C15 1.565 1_555 1_555
C15B C16 1.565 1_555 1_555
C10B C16B 1.518 1_555 1_555
H11B C16B 1.116 1_555 1_555
H12B C16B 0.903 1_555 1_555
C9B C15B 1.522 1_555 1_555
H9B C15B 1.076 1_555 1_555
H10B C15B 0.989 1_555 1_555
C12B C10B 1.400 1_555 1_555
C13B C10B 1.412 1_555 1_555
C11B C9B 1.403 1_555 1_555
C14B C9B 1.406 1_555 1_555
C4B C12B 1.437 1_555 1_555
C5B C13B 1.424 1_555 1_555
C1B C11B 1.438 1_555 1_555
C8B C14B 1.427 1_555 1_555
C3B C4B 1.353 1_555 1_555
H4B C4B 0.989 1_555 1_555
C6B C5B 1.358 1_555 1_555
H5B C5B 1.013 1_555 1_555
C2B C1B 1.349 1_555 1_555
H1B C1B 0.942 1_555 1_555
C7B C8B 1.365 1_555 1_555
H8B C8B 1.020 1_555 1_555
H3B C3B 1.037 1_555 1_555
H6B C6B 0.998 1_555 1_555
H2B C2B 1.082 1_555 1_555
H7B C7B 0.983 1_555 1_555
C10 C13 1.412 1_555 1_555
C13 C14 1.439 1_555 1_555
C12B C11B 1.437 1_555 1_555
C13B C14B 1.439 1_555 1_555
C3B C2B 1.397 1_555 1_555
C6B C7B 1.404 1_555 1_555
#END
