
#######################################################################
#
#                 Cambridge Crystallographic Data Centre
#                                CCDC
#
#######################################################################
#
# If this CIF has been generated from an entry in the Cambridge
# Structural Database, then it will include bibliographic, chemical,
# crystal, experimental, refinement or atomic coordinate data resulting
# from the CCDC's data processing and validation procedures.
#
#######################################################################

data_CSD_CIF_ANTMEU01
_audit_creation_date 1996-05-17
_audit_creation_method CSD-ConQuest-V1
_database_code_CSD ANTMEU01
_database_code_depnum_ccdc_archive 'CCDC 1103119'
_chemical_formula_sum 'C32 H24'
_chemical_formula_moiety
;
C32 H24
;
_journal_coden_Cambridge 241
_journal_year 1995
_journal_page_first 751
_journal_name_full 'Chem.Lett. '
loop_
_publ_author_name
"J.Harada"
"K.Ogawa"
"S.Tomoda"
_chemical_name_systematic
;
1,4(9,10)-Dianthracenacyclohexaphane
;
_chemical_name_common
;
Bi(anthracene-9,10-dimethylene)
;
_cell_volume    997.327
_exptl_crystal_colour 'orange'
_exptl_crystal_density_diffrn 1.36
_exptl_special_details
;
beta polymorph

;
_diffrn_ambient_temperature 90
#These two values have been output from a single CSD field.
_refine_ls_R_factor_gt 0.048
_refine_ls_wR_factor_gt 0.048
_symmetry_cell_setting monoclinic
_symmetry_space_group_name_H-M 'P 21/a'
_symmetry_Int_Tables_number 14
loop_
_symmetry_equiv_pos_site_id
_symmetry_equiv_pos_as_xyz
1 x,y,z
2 1/2-x,1/2+y,-z
3 -x,-y,-z
4 -1/2+x,-1/2-y,z
_cell_length_a 8.446(2)
_cell_length_b 12.583(3)
_cell_length_c 10.105(2)
_cell_angle_alpha 90
_cell_angle_beta 111.77(1)
_cell_angle_gamma 90
_cell_formula_units_Z 2
loop_
_atom_type_symbol
_atom_type_radius_bond
C 0.68
H 0.23
loop_
_atom_site_label
_atom_site_type_symbol
_atom_site_fract_x
_atom_site_fract_y
_atom_site_fract_z
C1 C 0.8261(3) 0.5679(2) 1.3402(3)
C2 C 0.8002(3) 0.6389(2) 1.4316(3)
C3 C 0.6688(3) 0.7161(2) 1.3803(3)
C4 C 0.5680(3) 0.7193(2) 1.2396(3)
C5 C 0.4934(3) 0.6265(2) 0.7471(3)
C6 C 0.5594(3) 0.5805(2) 0.6570(3)
C7 C 0.6925(3) 0.5043(2) 0.7095(3)
C8 C 0.7546(3) 0.4772(2) 0.8493(3)
C9 C 0.7586(3) 0.4997(2) 1.0941(3)
C10 C 0.4957(3) 0.6532(2) 0.9910(3)
C11 C 0.5599(3) 0.6044(2) 0.8957(3)
C12 C 0.6949(3) 0.5272(2) 0.9489(3)
C13 C 0.7296(3) 0.5708(2) 1.1908(2)
C14 C 0.5954(3) 0.6496(2) 1.1374(2)
C15 C 0.3166(3) 0.6986(2) 0.9354(3)
C16 C 0.8252(3) 0.3880(2) 1.1376(3)
H1 H 0.911(4) 0.511(2) 1.375(3)
H2 H 0.873(3) 0.636(2) 1.534(3)
H3 H 0.652(4) 0.768(2) 1.452(3)
H4 H 0.476(4) 0.777(2) 1.204(3)
H5 H 0.400(3) 0.677(2) 0.711(3)
H6 H 0.514(4) 0.601(2) 0.555(3)
H7 H 0.736(4) 0.469(2) 0.642(3)
H8 H 0.846(3) 0.421(2) 0.884(2)
H9 H 0.292(3) 0.733(2) 1.019(3)
H10 H 0.301(4) 0.759(2) 0.859(3)
H11 H 0.865(3) 0.382(2) 1.244(3)
H12 H 0.930(3) 0.374(2) 1.111(2)
C15B C 0.6834(3) 0.3014(2) 1.0646(3)
C10B C 0.5043(3) 0.3468(2) 1.0090(3)
C11B C 0.4401(3) 0.3956(2) 1.1043(3)
C5B C 0.5066(3) 0.3735(2) 1.2529(3)
C6B C 0.4406(3) 0.4195(2) 1.3430(3)
C7B C 0.3075(3) 0.4957(2) 1.2905(3)
C8B C 0.2454(3) 0.5228(2) 1.1507(3)
C12B C 0.3051(3) 0.4728(2) 1.0511(3)
C9B C 0.2414(3) 0.5003(2) 0.9059(3)
C13B C 0.2704(3) 0.4292(2) 0.8092(2)
C1B C 0.1739(3) 0.4321(2) 0.6598(3)
C2B C 0.1998(3) 0.3611(2) 0.5684(3)
C3B C 0.3312(3) 0.2839(2) 0.6197(3)
C4B C 0.4320(3) 0.2807(2) 0.7604(3)
C14B C 0.4046(3) 0.3504(2) 0.8626(2)
H4B H 0.524(4) 0.223(2) 0.796(3)
H3B H 0.348(4) 0.232(2) 0.548(3)
H2B H 0.127(3) 0.364(2) 0.466(3)
H1B H 0.089(4) 0.489(2) 0.625(3)
C16B C 0.1748(3) 0.6120(2) 0.8624(3)
H11B H 0.135(3) 0.618(2) 0.756(3)
H12B H 0.070(3) 0.626(2) 0.889(2)
H8B H 0.154(3) 0.579(2) 1.116(2)
H7B H 0.264(4) 0.531(2) 1.358(3)
H6B H 0.486(4) 0.399(2) 1.445(3)
H5B H 0.600(3) 0.323(2) 1.289(3)
H9B H 0.708(3) 0.267(2) 0.981(3)
H10B H 0.699(4) 0.241(2) 1.141(3)
loop_
_geom_bond_atom_site_label_1
_geom_bond_atom_site_label_2
_geom_bond_distance
_geom_bond_site_symmetry_1
_geom_bond_site_symmetry_2
C1 C2 1.360 1_555 1_555
C2 C3 1.420 1_555 1_555
C3 C4 1.360 1_555 1_555
C4 C14 1.438 1_555 1_555
C5 C6 1.361 1_555 1_555
C6 C7 1.422 1_555 1_555
C7 C8 1.356 1_555 1_555
C8 C12 1.428 1_555 1_555
C9 C12 1.406 1_555 1_555
C10 C11 1.409 1_555 1_555
C11 C5 1.422 1_555 1_555
C12 C11 1.442 1_555 1_555
C13 C1 1.426 1_555 1_555
C14 C10 1.406 1_555 1_555
C15 C10 1.517 1_555 1_555
C16 C9 1.517 1_555 1_555
H1 C1 0.982 1_555 1_555
H2 C2 0.989 1_555 1_555
H3 C3 1.024 1_555 1_555
H4 C4 1.026 1_555 1_555
H5 C5 0.972 1_555 1_555
H6 C6 0.991 1_555 1_555
H7 C7 0.992 1_555 1_555
H8 C8 1.009 1_555 1_555
H9 C15 1.037 1_555 1_555
H10 C15 1.056 1_555 1_555
H11 C16 1.003 1_555 1_555
H12 C16 1.031 1_555 1_555
C15B C16 1.584 1_555 1_555
C10B C15B 1.517 1_555 1_555
C11B C10B 1.409 1_555 1_555
C5B C11B 1.422 1_555 1_555
C6B C5B 1.361 1_555 1_555
C7B C6B 1.422 1_555 1_555
C8B C7B 1.356 1_555 1_555
C12B C11B 1.442 1_555 1_555
C9B C12B 1.406 1_555 1_555
C13B C9B 1.412 1_555 1_555
C1B C13B 1.426 1_555 1_555
C2B C1B 1.360 1_555 1_555
C3B C2B 1.420 1_555 1_555
C4B C3B 1.360 1_555 1_555
C14B C10B 1.406 1_555 1_555
H4B C4B 1.026 1_555 1_555
H3B C3B 1.024 1_555 1_555
H2B C2B 0.989 1_555 1_555
H1B C1B 0.982 1_555 1_555
C16B C15 1.584 1_555 1_555
H11B C16B 1.003 1_555 1_555
H12B C16B 1.031 1_555 1_555
H8B C8B 1.009 1_555 1_555
H7B C7B 0.992 1_555 1_555
H6B C6B 0.991 1_555 1_555
H5B C5B 0.972 1_555 1_555
H9B C15B 1.037 1_555 1_555
H10B C15B 1.056 1_555 1_555
C9 C13 1.412 1_555 1_555
C13 C14 1.451 1_555 1_555
C8B C12B 1.428 1_555 1_555
C9B C16B 1.517 1_555 1_555
C13B C14B 1.451 1_555 1_555
C4B C14B 1.438 1_555 1_555
#END
