
#######################################################################
#
#                 Cambridge Crystallographic Data Centre
#                                CCDC
#
#######################################################################
#
# If this CIF has been generated from an entry in the Cambridge
# Structural Database, then it will include bibliographic, chemical,
# crystal, experimental, refinement or atomic coordinate data resulting
# from the CCDC's data processing and validation procedures.
#
#######################################################################

data_CSD_CIF_ANTMEU03
_audit_creation_date 2008-10-10
_audit_creation_method CSD-ConQuest-V1
_database_code_CSD ANTMEU03
_database_code_depnum_ccdc_archive 'CCDC 691539'
_chemical_formula_sum 'C32 H24'
_chemical_formula_moiety
;
C32 H24
;
_journal_coeditor_code "IUCr BK5072"
_journal_coden_Cambridge 622
_journal_volume 64
_journal_year 2008
_journal_page_first 375
_journal_name_full 'Acta Crystallogr.,Sect.B:Struct.Sci. '
loop_
_publ_author_name
"E.Trzop"
"I.Turowska-Tyrk"
_chemical_name_systematic
;
Bi(anthracene-9,10-dimethylene)
;
_chemical_name_common
;
1,4(9,10)-Dianthracenacyclohexaphane
;
_cell_volume   1020.505
_exptl_crystal_colour 'orange'
_exptl_crystal_density_diffrn 1.329
_exptl_special_details
;
beta polymorph
light-sensitive

;
_exptl_crystal_description 'plate'
_exptl_crystal_preparation 'chloroform/toluene'
_diffrn_ambient_temperature 299
_diffrn_special_details
;
crystal 1

;
#These two values have been output from a single CSD field.
_refine_ls_R_factor_gt 0.0409
_refine_ls_wR_factor_gt 0.0409
_symmetry_cell_setting monoclinic
_symmetry_space_group_name_H-M 'P 21/c'
_symmetry_Int_Tables_number 14
loop_
_symmetry_equiv_pos_site_id
_symmetry_equiv_pos_as_xyz
1 x,y,z
2 -x,1/2+y,1/2-z
3 -x,-y,-z
4 x,-1/2-y,-1/2+z
_cell_length_a 10.266(2)
_cell_length_b 12.773(2)
_cell_length_c 8.4459(16)
_cell_angle_alpha 90
_cell_angle_beta 112.86(2)
_cell_angle_gamma 90
_cell_formula_units_Z 2
loop_
_atom_type_symbol
_atom_type_radius_bond
C 0.68
H 0.23
loop_
_atom_site_label
_atom_site_type_symbol
_atom_site_fract_x
_atom_site_fract_y
_atom_site_fract_z
C1 C 0.33221(19) 0.56799(15) 0.8253(2)
H1 H 0.36940 0.51690 0.90940
C2 C 0.4208(2) 0.63661(16) 0.7987(3)
H2 H 0.51670 0.63460 0.86780
C3 C 0.3700(2) 0.71015(16) 0.6690(3)
H3 H 0.43220 0.75720 0.65130
C4 C 0.2306(2) 0.71437(13) 0.5677(2)
H4 H 0.19950 0.76240 0.47800
C5 C -0.2551(2) 0.62601(15) 0.4930(3)
H5 H -0.29260 0.67260 0.40180
C6 C -0.3416(2) 0.58108(19) 0.5596(3)
H6 H -0.43670 0.59950 0.51740
C7 C -0.2895(3) 0.5067(2) 0.6919(3)
H7 H -0.35030 0.47600 0.73630
C8 C -0.1514(2) 0.47938(16) 0.7552(2)
H8 H -0.11910 0.42810 0.83970
C9 C 0.08859(17) 0.50080(12) 0.75868(18)
C10 C -0.01637(18) 0.65106(11) 0.4943(2)
C11 C -0.10858(17) 0.60372(12) 0.5592(2)
C12 C -0.05477(18) 0.52768(12) 0.69495(19)
C13 C 0.18260(17) 0.57055(12) 0.72886(18)
C14 C 0.12930(17) 0.64705(11) 0.59462(19)
C15 C -0.0724(2) 0.69401(13) 0.3137(2)
H9 H 0.00340 0.73040 0.29510
H10 H -0.14590 0.74480 0.30190
C16 C 0.1337(2) 0.39144(13) 0.8273(2)
H11 H 0.10230 0.37770 0.91980
H12 H 0.23610 0.38740 0.87440
C1B C -0.33221(19) 0.43201(15) 0.1747(2)
H1B H -0.36940 0.48310 0.09060
C2B C -0.4208(2) 0.36339(16) 0.2013(3)
H2B H -0.51670 0.36540 0.13220
C3B C -0.3700(2) 0.28985(16) 0.3310(3)
H3B H -0.43220 0.24280 0.34870
C4B C -0.2306(2) 0.28563(13) 0.4323(2)
H4B H -0.19950 0.23760 0.52200
C5B C 0.2551(2) 0.37399(15) 0.5070(3)
H5B H 0.29260 0.32740 0.59820
C6B C 0.3416(2) 0.41892(19) 0.4404(3)
H6B H 0.43670 0.40050 0.48260
C7B C 0.2895(3) 0.4933(2) 0.3081(3)
H7B H 0.35030 0.52400 0.26370
C8B C 0.1514(2) 0.52062(16) 0.2448(2)
H8B H 0.11910 0.57190 0.16030
C9B C -0.08859(17) 0.49920(12) 0.24132(18)
C10B C 0.01637(18) 0.34894(11) 0.5057(2)
C11B C 0.10858(17) 0.39628(12) 0.4408(2)
C12B C 0.05477(18) 0.47232(12) 0.30505(19)
C13B C -0.18260(17) 0.42945(12) 0.27114(18)
C14B C -0.12930(17) 0.35295(11) 0.40538(19)
C15B C 0.0724(2) 0.30599(13) 0.6863(2)
H9B H -0.00340 0.26960 0.70490
H10B H 0.14590 0.25520 0.69810
C16B C -0.1337(2) 0.60856(13) 0.1727(2)
H11B H -0.10230 0.62230 0.08020
H12B H -0.23610 0.61260 0.12560
loop_
_geom_bond_atom_site_label_1
_geom_bond_atom_site_label_2
_geom_bond_distance
_geom_bond_site_symmetry_1
_geom_bond_site_symmetry_2
C1 H1 0.930 1_555 1_555
C2 C1 1.343 1_555 1_555
H2 C2 0.930 1_555 1_555
C3 C2 1.382 1_555 1_555
H3 C3 0.930 1_555 1_555
C4 C3 1.353 1_555 1_555
H4 C4 0.930 1_555 1_555
C5 H5 0.930 1_555 1_555
C6 C5 1.350 1_555 1_555
H6 C6 0.930 1_555 1_555
C7 C6 1.405 1_555 1_555
H7 C7 0.931 1_555 1_555
C8 C7 1.352 1_555 1_555
H8 C8 0.930 1_555 1_555
C9 C12 1.399 1_555 1_555
C10 C11 1.402 1_555 1_555
C11 C5 1.415 1_555 1_555
C12 C8 1.420 1_555 1_555
C13 C1 1.432 1_555 1_555
C14 C4 1.434 1_555 1_555
C15 C10 1.509 1_555 1_555
H9 C15 0.970 1_555 1_555
H10 C15 0.970 1_555 1_555
C16 C9 1.514 1_555 1_555
H11 C16 0.970 1_555 1_555
H12 C16 0.970 1_555 1_555
C1B H1B 0.930 1_555 1_555
C2B C1B 1.343 1_555 1_555
H2B C2B 0.930 1_555 1_555
C3B C2B 1.382 1_555 1_555
H3B C3B 0.930 1_555 1_555
C4B C3B 1.353 1_555 1_555
H4B C4B 0.930 1_555 1_555
C5B H5B 0.930 1_555 1_555
C6B C5B 1.350 1_555 1_555
H6B C6B 0.930 1_555 1_555
C7B C6B 1.405 1_555 1_555
H7B C7B 0.931 1_555 1_555
C8B C7B 1.352 1_555 1_555
H8B C8B 0.930 1_555 1_555
C9B C12B 1.399 1_555 1_555
C10B C11B 1.402 1_555 1_555
C11B C5B 1.415 1_555 1_555
C12B C8B 1.420 1_555 1_555
C13B C1B 1.432 1_555 1_555
C14B C4B 1.434 1_555 1_555
C15B C16 1.557 1_555 1_555
H9B C15B 0.970 1_555 1_555
H10B C15B 0.970 1_555 1_555
C16B C15 1.557 1_555 1_555
H11B C16B 0.970 1_555 1_555
H12B C16B 0.970 1_555 1_555
C9 C13 1.406 1_555 1_555
C10 C14 1.404 1_555 1_555
C11 C12 1.439 1_555 1_555
C13 C14 1.434 1_555 1_555
C9B C13B 1.406 1_555 1_555
C9B C16B 1.514 1_555 1_555
C10B C14B 1.404 1_555 1_555
C10B C15B 1.509 1_555 1_555
C11B C12B 1.439 1_555 1_555
C13B C14B 1.434 1_555 1_555
#END
