
#######################################################################
#
#                 Cambridge Crystallographic Data Centre
#                                CCDC
#
#######################################################################
#
# If this CIF has been generated from an entry in the Cambridge
# Structural Database, then it will include bibliographic, chemical,
# crystal, experimental, refinement or atomic coordinate data resulting
# from the CCDC's data processing and validation procedures.
#
#######################################################################

data_CSD_CIF_APOVUX
_audit_creation_date 2011-07-10
_audit_creation_method CSD-ConQuest-V1
_database_code_CSD APOVUX
_database_code_depnum_ccdc_archive 'CCDC 756588'
_chemical_formula_sum 'C32 H22'
_chemical_formula_moiety
;
C32 H22
;
_journal_coden_Cambridge 1291
_journal_year 2010
_journal_page_first 5203
_journal_name_full 'Eur.J.Org.Chem. '
loop_
_publ_author_name
"K.Nikitin"
"C.Fleming"
"H.Muller-Bunz"
"Y.Ortin"
"M.J.McGlinchey"
_chemical_name_systematic
;
9,10-bis(1H-Inden-2-yl)anthracene
;
_chemical_melting_point 613.15
_cell_volume   1058.910
_exptl_crystal_colour 'colorless'
_exptl_crystal_density_diffrn 1.275
_exptl_special_details
;
Melts above 613.15K

;
_exptl_crystal_description 'plate'
_diffrn_ambient_temperature 100
#These two values have been output from a single CSD field.
_refine_ls_R_factor_gt 0.05
_refine_ls_wR_factor_gt 0.05
_symmetry_cell_setting monoclinic
_symmetry_space_group_name_H-M 'P 21/n'
_symmetry_Int_Tables_number 14
loop_
_symmetry_equiv_pos_site_id
_symmetry_equiv_pos_as_xyz
1 x,y,z
2 1/2-x,1/2+y,1/2-z
3 -x,-y,-z
4 -1/2+x,-1/2-y,-1/2+z
_cell_length_a 6.7890(13)
_cell_length_b 9.1933(18)
_cell_length_c 17.284(3)
_cell_angle_alpha 90
_cell_angle_beta 101.006(5)
_cell_angle_gamma 90
_cell_formula_units_Z 2
loop_
_atom_type_symbol
_atom_type_radius_bond
C 0.68
H 0.23
loop_
_atom_site_label
_atom_site_type_symbol
_atom_site_fract_x
_atom_site_fract_y
_atom_site_fract_z
C1 C 0.0352(3) 0.1981(2) 0.53384(13)
H1 H -0.06280 0.13160 0.50800
C2 C 0.1910(3) 0.1476(2) 0.58773(13)
H2 H 0.19950 0.04670 0.59980
C3 C 0.3409(4) 0.2425(3) 0.62624(13)
H3 H 0.45170 0.20550 0.66300
C4 C 0.3264(3) 0.3872(2) 0.61056(13)
H4 H 0.42800 0.45060 0.63690
C5 C 0.1633(3) 0.4465(2) 0.55579(12)
C6 C 0.0143(3) 0.3492(2) 0.51489(12)
C7 C 0.1464(3) 0.5970(2) 0.54119(12)
C8 C 0.2954(3) 0.6986(2) 0.58711(13)
C9 C 0.2879(3) 0.7469(2) 0.66410(13)
H5 H 0.29420 0.66310 0.70050
H6 H 0.16200 0.80100 0.66440
C10 C 0.4643(3) 0.8434(2) 0.68865(13)
C11 C 0.5291(3) 0.9211(3) 0.75743(13)
H7 H 0.45800 0.91530 0.79960
C12 C 0.6980(3) 1.0069(3) 0.76406(14)
H8 H 0.74280 1.06150 0.81080
C13 C 0.8029(4) 1.0137(3) 0.70231(14)
H9 H 0.91900 1.07310 0.70720
C14 C 0.7392(3) 0.9342(3) 0.63364(14)
H10 H 0.81240 0.93790 0.59200
C15 C 0.5704(3) 0.8510(2) 0.62683(13)
C16 C 0.4654(4) 0.7577(3) 0.56123(14)
H11 H 0.50430 0.74100 0.51200
H12? H 0.18950 0.72240 0.69430
H13? H 0.42300 0.81620 0.51280
H14? H 0.55510 0.67890 0.54980
C1B C -0.0352(3) 0.8019(2) 0.46616(13)
H1B H 0.06280 0.86840 0.49200
C2B C -0.1910(3) 0.8524(2) 0.41227(13)
H2B H -0.19950 0.95330 0.40020
C3B C -0.3409(4) 0.7575(3) 0.37376(13)
H3B H -0.45170 0.79450 0.33700
C4B C -0.3264(3) 0.6128(2) 0.38944(13)
H4B H -0.42800 0.54940 0.36310
C5B C -0.1633(3) 0.5535(2) 0.44421(12)
C6B C -0.0143(3) 0.6508(2) 0.48511(12)
C7B C -0.1464(3) 0.4030(2) 0.45881(12)
C8B C -0.2954(3) 0.3014(2) 0.41289(13)
C9B C -0.2879(3) 0.2531(2) 0.33590(13)
H5B H -0.29420 0.33690 0.29950
H6B H -0.16200 0.19900 0.33560
C10B C -0.4643(3) 0.1566(2) 0.31135(13)
C11B C -0.5291(3) 0.0789(3) 0.24257(13)
H7B H -0.45800 0.08470 0.20040
C12B C -0.6980(3) -0.0069(3) 0.23594(14)
H8B H -0.74280 -0.06150 0.18920
C13B C -0.8029(4) -0.0137(3) 0.29769(14)
H9B H -0.91900 -0.07310 0.29280
C14B C -0.7392(3) 0.0658(3) 0.36636(14)
H10B H -0.81240 0.06210 0.40800
C15B C -0.5704(3) 0.1490(2) 0.37317(13)
C16B C -0.4654(4) 0.2423(3) 0.43877(14)
H11B H -0.50430 0.25900 0.48800
loop_
_geom_bond_atom_site_label_1
_geom_bond_atom_site_label_2
_geom_bond_distance
_geom_bond_site_symmetry_1
_geom_bond_site_symmetry_2
C1 H1 0.950 1_555 1_555
C2 C1 1.351 1_555 1_555
H2 C2 0.950 1_555 1_555
C3 C2 1.408 1_555 1_555
H3 C3 0.950 1_555 1_555
C4 C3 1.357 1_555 1_555
H4 C4 0.950 1_555 1_555
C5 C4 1.421 1_555 1_555
C6 C1 1.428 1_555 1_555
C7 C5 1.407 1_555 1_555
C8 C7 1.490 1_555 1_555
C9 C8 1.413 1_555 1_555
H5 C9 0.990 1_555 1_555
H6 C9 0.990 1_555 1_555
C10 C9 1.486 1_555 1_555
C11 C10 1.385 1_555 1_555
H7 C11 0.949 1_555 1_555
C12 C11 1.378 1_555 1_555
H8 C12 0.950 1_555 1_555
C13 C12 1.393 1_555 1_555
H9 C13 0.949 1_555 1_555
C14 C13 1.391 1_555 1_555
H10 C14 0.950 1_555 1_555
C15 C10 1.400 1_555 1_555
C16 C8 1.423 1_555 1_555
H11 C16 0.950 1_555 1_555
C1B H1B 0.950 1_555 1_555
C2B C1B 1.351 1_555 1_555
H2B C2B 0.950 1_555 1_555
C3B C2B 1.408 1_555 1_555
H3B C3B 0.950 1_555 1_555
C4B C3B 1.357 1_555 1_555
H4B C4B 0.950 1_555 1_555
C5B C4B 1.421 1_555 1_555
C6B C7 1.404 1_555 1_555
C7B C6 1.404 1_555 1_555
C8B C7B 1.490 1_555 1_555
C9B C8B 1.413 1_555 1_555
H5B C9B 0.990 1_555 1_555
H6B C9B 0.990 1_555 1_555
C10B C9B 1.486 1_555 1_555
C11B C10B 1.385 1_555 1_555
H7B C11B 0.949 1_555 1_555
C12B C11B 1.378 1_555 1_555
H8B C12B 0.950 1_555 1_555
C13B C12B 1.393 1_555 1_555
H9B C13B 0.949 1_555 1_555
C14B C13B 1.391 1_555 1_555
H10B C14B 0.950 1_555 1_555
C15B C10B 1.400 1_555 1_555
C16B C8B 1.423 1_555 1_555
H11B C16B 0.950 1_555 1_555
C5 C6 1.432 1_555 1_555
C14 C15 1.364 1_555 1_555
C15 C16 1.490 1_555 1_555
C1B C6B 1.428 1_555 1_555
C5B C6B 1.432 1_555 1_555
C5B C7B 1.407 1_555 1_555
C14B C15B 1.364 1_555 1_555
C15B C16B 1.490 1_555 1_555
#END
