
#######################################################################
#
#                 Cambridge Crystallographic Data Centre
#                                CCDC
#
#######################################################################
#
# If this CIF has been generated from an entry in the Cambridge
# Structural Database, then it will include bibliographic, chemical,
# crystal, experimental, refinement or atomic coordinate data resulting
# from the CCDC's data processing and validation procedures.
#
#######################################################################

data_CSD_CIF_AQABID
_audit_creation_date 2004-04-27
_audit_creation_method CSD-ConQuest-V1
_database_code_CSD AQABID
_database_code_depnum_ccdc_archive 'CCDC 228107'
_chemical_formula_sum 'C28 H24'
_chemical_formula_moiety
;
C28 H24
;
_journal_coden_Cambridge 4
_journal_volume 125
_journal_year 2003
_journal_page_first 15076
_journal_name_full 'J.Am.Chem.Soc. '
loop_
_publ_author_name
"M.K.J.ter Wiel"
"R.A.van Delden"
"A.Meetsma"
"B.L.Feringa"
_chemical_name_systematic
;
(2R*,2'R*)-(P*,P*)-(Z)-(+-)-2,2'-dimethyl-2,2',3,3'-tetrahydro-1,1'-bicyclopen
ta(a)naphthalenylidene
;
_chemical_melting_point 451.75
_cell_volume   2018.463
_exptl_crystal_colour 'colorless'
_exptl_crystal_density_diffrn 1.186
_exptl_special_details
;
Melting point range 451.75-452.75K

;
_exptl_crystal_description 'block'
_exptl_crystal_preparation 'ethanol/ethyl acetate'
_diffrn_ambient_temperature 100
#These two values have been output from a single CSD field.
_refine_ls_R_factor_gt 0.0824
_refine_ls_wR_factor_gt 0.0824
loop_
_citation_database_id_CSD
_citation_special_details
AQABOJ "is a stereoisomer of this entry"
_symmetry_cell_setting monoclinic
_symmetry_space_group_name_H-M 'P 21'
_symmetry_Int_Tables_number 4
loop_
_symmetry_equiv_pos_site_id
_symmetry_equiv_pos_as_xyz
1 x,y,z
2 -x,1/2+y,-z
_cell_length_a 10.144(1)
_cell_length_b 15.382(2)
_cell_length_c 13.469(2)
_cell_angle_alpha 90
_cell_angle_beta 106.173(2)
_cell_angle_gamma 90
_cell_formula_units_Z 4
loop_
_atom_type_symbol
_atom_type_radius_bond
C 0.68
H 0.23
loop_
_atom_site_label
_atom_site_type_symbol
_atom_site_fract_x
_atom_site_fract_y
_atom_site_fract_z
C1 C 0.3868(3) 0.0393(2) 0.1582(3)
C2 C 0.5275(3) 0.0553(2) 0.1402(3)
C3 C 0.4917(3) 0.0864(2) 0.0264(3)
C4 C 0.2736(3) 0.1728(2) -0.0778(3)
C5 C 0.1439(3) 0.2025(2) -0.0807(3)
C6 C -0.0406(3) 0.2230(2) 0.0053(3)
C7 C -0.0895(3) 0.2130(2) 0.0903(3)
C8 C -0.0100(3) 0.1690(2) 0.1782(3)
C9 C 0.1147(3) 0.1325(2) 0.1782(3)
C10 C 0.1643(3) 0.1377(2) 0.0913(3)
C11 C 0.0881(3) 0.1871(2) 0.0035(3)
C12 C 0.3475(3) 0.1222(2) 0.0072(3)
C13 C 0.2916(3) 0.0994(2) 0.0860(3)
C14 C 0.6080(3) 0.1261(3) 0.2141(3)
C15 C 0.3681(3) -0.0245(2) 0.2234(3)
C16 C 0.4893(3) -0.0726(2) 0.2962(3)
C17 C 0.4405(3) -0.0849(2) 0.3952(3)
C18 C 0.1882(4) -0.1112(2) 0.4041(3)
C19 C 0.0505(4) -0.1072(3) 0.3524(3)
C20 C -0.1365(4) -0.0814(3) 0.1904(3)
C21 C -0.1788(4) -0.0642(3) 0.0870(3)
C22 C -0.0800(4) -0.0498(2) 0.0318(3)
C23 C 0.0580(3) -0.0481(2) 0.0834(3)
C24 C 0.1039(3) -0.0615(2) 0.1920(3)
C25 C 0.0060(3) -0.0833(2) 0.2461(3)
C26 C 0.2848(3) -0.0858(2) 0.3517(3)
C27 C 0.2456(3) -0.0567(2) 0.2516(3)
C28 C 0.5136(4) -0.1614(2) 0.2516(3)
H1 H 0.58153 0.00003 0.14892
H2 H 0.55613 0.13208 0.01742
H3 H 0.49393 0.03747 -0.02082
H4 H 0.31264 0.18626 -0.13235
H5 H 0.09163 0.23343 -0.13951
H6 H -0.09356 0.25425 -0.05308
H7 H -0.17672 0.23590 0.08954
H8 H -0.04217 0.16431 0.23780
H9 H 0.16754 0.10333 0.23833
H10 H 0.55388 0.17974 0.20468
H11 H 0.69545 0.13715 0.19882
H12 H 0.62571 0.10619 0.28579
H13 H 0.57435 -0.03621 0.31146
H14 H 0.47465 -0.14032 0.43044
H15 H 0.47126 -0.03620 0.44427
H16 H 0.218(4) -0.131(3) 0.474(3)
H17 H -0.016(4) -0.120(3) 0.388(3)
H18 H -0.203(5) -0.092(3) 0.226(3)
H19 H -0.274(5) -0.062(3) 0.052(3)
H20 H -0.109(4) -0.041(3) -0.041(3)
H21 H 0.123(4) -0.038(3) 0.046(3)
H22 H 0.43016 -0.19664 0.23919
H23 H 0.58947 -0.19131 0.30092
H24 H 0.53672 -0.15268 0.18634
C29 C 0.2296(3) 0.0645(2) 0.6247(3)
C30 C 0.1058(3) 0.1093(2) 0.5490(3)
C31 C 0.1563(3) 0.1232(2) 0.4516(3)
C32 C 0.4054(4) 0.1610(3) 0.4435(3)
C33 C 0.5420(4) 0.1645(3) 0.4982(3)
C34 C 0.7284(4) 0.1490(3) 0.6600(3)
C35 C 0.7719(4) 0.1300(3) 0.7633(3)
C36 C 0.6757(3) 0.1063(2) 0.8171(3)
C37 C 0.5384(3) 0.0969(2) 0.7644(3)
C38 C 0.4912(3) 0.1101(2) 0.6559(3)
C39 C 0.5877(3) 0.1405(3) 0.6031(3)
C40 C 0.3099(3) 0.1287(2) 0.4948(3)
C41 C 0.3518(3) 0.0992(2) 0.5959(3)
C42 C 0.0759(4) 0.1968(3) 0.5919(3)
C43 C 0.2135(3) 0.0029(2) 0.6920(3)
C44 C 0.0729(3) -0.0155(2) 0.7113(3)
C45 C 0.1145(3) -0.0380(2) 0.8287(3)
C46 C 0.3356(4) -0.1201(2) 0.9355(3)
C47 C 0.4622(3) -0.1494(2) 0.9366(3)
C48 C 0.6472(3) -0.1718(2) 0.8516(3)
C49 C 0.6955(3) -0.1645(2) 0.7662(3)
C50 C 0.6125(3) -0.1252(2) 0.6748(3)
C51 C 0.4886(3) -0.0899(2) 0.6726(3)
C52 C 0.4382(3) -0.0918(2) 0.7621(3)
C53 C 0.5171(3) -0.1371(2) 0.8513(3)
C54 C 0.2577(3) -0.0734(2) 0.8483(3)
C55 C 0.3109(3) -0.0540(2) 0.7660(3)
C56 C -0.0001(4) -0.0919(3) 0.6457(3)
H25 H 0.02301 0.07088 0.53320
H26 H 0.12981 0.07381 0.40298
H27 H 0.11860 0.17761 0.41534
H28 H 0.37560 0.17962 0.37356
H29 H 0.60717 0.18367 0.46423
H30 H 0.79312 0.16817 0.62563
H31 H 0.86685 0.13274 0.79899
H32 H 0.70551 0.09680 0.88963
H33 H 0.47467 0.08144 0.80135
H34 H 0.05399 0.18767 0.65760
H35 H -0.00227 0.22453 0.54241
H36 H 0.15673 0.23442 0.60337
H37 H 0.01388 0.03764 0.69738
H38 H 0.11339 0.01445 0.87095
H39 H 0.05203 -0.08214 0.84426
H40 H 0.300(4) -0.131(3) 0.992(3)
H41 H 0.516(4) -0.179(3) 0.996(3)
H42 H 0.701(4) -0.200(3) 0.912(3)
H43 H 0.784(4) -0.186(3) 0.768(3)
H44 H 0.644(4) -0.124(3) 0.615(3)
H45 H 0.435(4) -0.064(3) 0.611(3)
H46 H -0.01736 -0.07778 0.57225
H47 H -0.08760 -0.10305 0.66098
H48 H 0.05784 -0.14389 0.66191
loop_
_geom_bond_atom_site_label_1
_geom_bond_atom_site_label_2
_geom_bond_distance
_geom_bond_site_symmetry_1
_geom_bond_site_symmetry_2
C1 C2 1.533 1_555 1_555
C2 C3 1.549 1_555 1_555
C3 C12 1.516 1_555 1_555
C4 C5 1.383 1_555 1_555
C5 C11 1.421 1_555 1_555
C6 C7 1.377 1_555 1_555
C7 C8 1.406 1_555 1_555
C8 C9 1.384 1_555 1_555
C9 C10 1.399 1_555 1_555
C10 C11 1.437 1_555 1_555
C11 C6 1.424 1_555 1_555
C12 C4 1.414 1_555 1_555
C13 C1 1.487 1_555 1_555
C14 C2 1.546 1_555 1_555
C15 C1 1.365 1_555 1_555
C16 C15 1.533 1_555 1_555
C17 C16 1.558 1_555 1_555
C18 C19 1.378 1_555 1_555
C19 C25 1.424 1_555 1_555
C20 C21 1.364 1_555 1_555
C21 C22 1.422 1_555 1_555
C22 C23 1.379 1_555 1_555
C23 C24 1.421 1_555 1_555
C24 C25 1.426 1_555 1_555
C25 C20 1.431 1_555 1_555
C26 C17 1.524 1_555 1_555
C27 C15 1.482 1_555 1_555
C28 C16 1.539 1_555 1_555
H1 C2 1.001 1_555 1_555
H2 C3 0.990 1_555 1_555
H3 C3 0.990 1_555 1_555
H4 C4 0.950 1_555 1_555
H5 C5 0.949 1_555 1_555
H6 C6 0.950 1_555 1_555
H7 C7 0.950 1_555 1_555
H8 C8 0.950 1_555 1_555
H9 C9 0.950 1_555 1_555
H10 C14 0.980 1_555 1_555
H11 C14 0.980 1_555 1_555
H12 C14 0.981 1_555 1_555
H13 C16 1.001 1_555 1_555
H14 C17 0.990 1_555 1_555
H15 C17 0.990 1_555 1_555
H16 C18 0.955 1_555 1_555
H17 C19 0.951 1_555 1_555
H18 C20 0.944 1_555 1_555
H19 C21 0.950 1_555 1_555
H20 C22 0.952 1_555 1_555
H21 C23 0.947 1_555 1_555
H22 C28 0.979 1_555 1_555
H23 C28 0.980 1_555 1_555
H24 C28 0.980 1_555 1_555
C29 C30 1.542 1_555 1_555
C30 C31 1.550 1_555 1_555
C31 C40 1.506 1_555 1_555
C32 C33 1.377 1_555 1_555
C33 C39 1.408 1_555 1_555
C34 C35 1.369 1_555 1_555
C35 C36 1.416 1_555 1_555
C36 C37 1.383 1_555 1_555
C37 C38 1.420 1_555 1_555
C38 C39 1.439 1_555 1_555
C39 C34 1.426 1_555 1_555
C40 C32 1.427 1_555 1_555
C41 C29 1.497 1_555 1_555
C42 C30 1.528 1_555 1_555
C43 C29 1.352 1_555 1_555
C44 C43 1.545 1_555 1_555
C45 C44 1.558 1_555 1_555
C46 C47 1.357 1_555 1_555
C47 C53 1.422 1_555 1_555
C48 C49 1.375 1_555 1_555
C49 C50 1.419 1_555 1_555
C50 C51 1.362 1_555 1_555
C51 C52 1.435 1_555 1_555
C52 C53 1.426 1_555 1_555
C53 C48 1.423 1_555 1_555
C54 C45 1.504 1_555 1_555
C55 C43 1.479 1_555 1_555
C56 C44 1.532 1_555 1_555
H25 C30 1.000 1_555 1_555
H26 C31 0.990 1_555 1_555
H27 C31 0.991 1_555 1_555
H28 C32 0.950 1_555 1_555
H29 C33 0.950 1_555 1_555
H30 C34 0.950 1_555 1_555
H31 C35 0.950 1_555 1_555
H32 C36 0.950 1_555 1_555
H33 C37 0.949 1_555 1_555
H34 C42 0.981 1_555 1_555
H35 C42 0.980 1_555 1_555
H36 C42 0.980 1_555 1_555
H37 C44 1.000 1_555 1_555
H38 C45 0.989 1_555 1_555
H39 C45 0.990 1_555 1_555
H40 C46 0.944 1_555 1_555
H41 C47 0.950 1_555 1_555
H42 C48 0.949 1_555 1_555
H43 C49 0.951 1_555 1_555
H44 C50 0.946 1_555 1_555
H45 C51 0.944 1_555 1_555
H46 C56 0.980 1_555 1_555
H47 C56 0.980 1_555 1_555
H48 C56 0.980 1_555 1_555
C10 C13 1.439 1_555 1_555
C12 C13 1.381 1_555 1_555
C18 C26 1.413 1_555 1_555
C24 C27 1.440 1_555 1_555
C26 C27 1.370 1_555 1_555
C38 C41 1.430 1_555 1_555
C40 C41 1.385 1_555 1_555
C46 C54 1.415 1_555 1_555
C52 C55 1.430 1_555 1_555
C54 C55 1.394 1_555 1_555
#END
