
#######################################################################
#
#                 Cambridge Crystallographic Data Centre
#                                CCDC
#
#######################################################################
#
# If this CIF has been generated from an entry in the Cambridge
# Structural Database, then it will include bibliographic, chemical,
# crystal, experimental, refinement or atomic coordinate data resulting
# from the CCDC's data processing and validation procedures.
#
#######################################################################

data_CSD_CIF_AQABOJ
_audit_creation_date 2004-04-27
_audit_creation_method CSD-ConQuest-V1
_database_code_CSD AQABOJ
_database_code_depnum_ccdc_archive 'CCDC 228108'
_chemical_formula_sum 'C28 H24'
_chemical_formula_moiety
;
C28 H24
;
_journal_coden_Cambridge 4
_journal_volume 125
_journal_year 2003
_journal_page_first 15076
_journal_name_full 'J.Am.Chem.Soc. '
loop_
_publ_author_name
"M.K.J.ter Wiel"
"R.A.van Delden"
"A.Meetsma"
"B.L.Feringa"
_chemical_name_systematic
;
(2R*,2'R*)-(P*,P*)-(E)-(+-)-2,2'-dimethyl-2,2',3,3'-tetrahydro-1,1'-bicyclopen
ta(a)naphthalenylidene
;
_chemical_melting_point 465.85
_cell_volume   3900.481
_exptl_crystal_colour 'light yellow'
_exptl_crystal_density_diffrn 1.228
_exptl_special_details
;
Melting point range 465.85-466.35K
A study carried out by Fujita et al, Eu J Org Chem 2005,4533 succeeded in the 
direct synthesis of the chiral molecular motor and hence in the unambiguous 
determination of the absolute stereochemistry which disagrees with that in 
this paper (AQABOJ01)
;
_exptl_crystal_description 'platelet'
_exptl_crystal_preparation 'ethyl acetate'
_diffrn_ambient_temperature 100
#These two values have been output from a single CSD field.
_refine_ls_R_factor_gt 0.0446
_refine_ls_wR_factor_gt 0.0446
loop_
_citation_database_id_CSD
_citation_special_details
AQABID "is a stereoisomer of this entry"
_symmetry_cell_setting orthorhombic
_symmetry_space_group_name_H-M 'P b c a'
_symmetry_Int_Tables_number 61
loop_
_symmetry_equiv_pos_site_id
_symmetry_equiv_pos_as_xyz
1 x,y,z
2 1/2+x,y,1/2-z
3 1/2-x,1/2+y,z
4 x,1/2-y,1/2+z
5 -x,-y,-z
6 -1/2-x,-y,-1/2+z
7 -1/2+x,-1/2-y,-z
8 -x,-1/2+y,-1/2-z
_cell_length_a 9.3938(5)
_cell_length_b 18.939(1)
_cell_length_c 21.924(1)
_cell_angle_alpha 90
_cell_angle_beta 90
_cell_angle_gamma 90
_cell_formula_units_Z 8
loop_
_atom_type_symbol
_atom_type_radius_bond
C 0.68
H 0.23
loop_
_atom_site_label
_atom_site_type_symbol
_atom_site_fract_x
_atom_site_fract_y
_atom_site_fract_z
C1 C 0.37682(12) 0.42323(6) -0.01087(5)
C2 C 0.34719(11) 0.39669(5) 0.05392(5)
C3 C 0.18577(12) 0.38288(6) 0.06081(5)
C4 C 0.13033(11) 0.45425(6) 0.07989(5)
C5 C -0.01204(12) 0.47724(6) 0.07901(5)
C6 C -0.04346(12) 0.54401(7) 0.09784(5)
C7 C 0.06550(11) 0.59188(6) 0.11473(5)
C8 C 0.03343(12) 0.66301(7) 0.12952(5)
C9 C 0.13856(14) 0.71045(6) 0.14245(5)
C10 C 0.28242(13) 0.68889(6) 0.14013(5)
C11 C 0.31724(12) 0.62030(6) 0.12686(5)
C12 C 0.21074(11) 0.56909(5) 0.11530(5)
C13 C 0.23968(11) 0.49719(5) 0.10031(4)
C14 C 0.37262(11) 0.45405(5) 0.10175(5)
C15 C 0.47223(11) 0.45275(5) 0.14610(5)
C16 C 0.57397(11) 0.39460(5) 0.16047(5)
C17 C 0.66349(11) 0.35141(5) 0.12338(5)
C18 C 0.68489(11) 0.36202(6) 0.06007(5)
C19 C 0.77685(12) 0.32054(6) 0.02715(5)
C20 C 0.85346(12) 0.26602(6) 0.05608(6)
C21 C 0.83671(12) 0.25457(6) 0.11714(6)
C22 C 0.74387(12) 0.29699(5) 0.15267(5)
C23 C 0.73359(13) 0.28727(6) 0.21658(6)
C24 C 0.65368(13) 0.33200(6) 0.25141(5)
C25 C 0.57621(12) 0.38647(6) 0.22321(5)
C26 C 0.48875(13) 0.44258(6) 0.25435(5)
C27 C 0.47265(11) 0.49856(5) 0.20353(5)
C28 C 0.60100(12) 0.54868(6) 0.20569(5)
H1 H 0.3174(16) 0.4668(7) -0.0198(7)
H2 H 0.4777(16) 0.4365(7) -0.0172(6)
H3 H 0.3563(15) 0.3857(7) -0.0414(6)
H4 H 0.4052(14) 0.3536(7) 0.0627(6)
H5 H 0.1660(15) 0.3471(7) 0.0929(6)
H6 H 0.1430(16) 0.3657(7) 0.0225(7)
H7 H -0.0863(18) 0.4438(8) 0.0659(7)
H8 H -0.1428(18) 0.5615(8) 0.0984(7)
H9 H -0.0651(17) 0.6773(8) 0.1297(7)
H10 H 0.1133(16) 0.7601(8) 0.1525(7)
H11 H 0.3583(17) 0.7230(8) 0.1479(7)
H12 H 0.4172(16) 0.6052(7) 0.1245(6)
H13 H 0.6358(15) 0.4015(7) 0.0401(6)
H14 H 0.7895(16) 0.3297(8) -0.0163(7)
H15 H 0.9196(16) 0.2378(8) 0.0325(7)
H16 H 0.8881(17) 0.2162(8) 0.1377(7)
H17 H 0.7888(17) 0.2492(8) 0.2348(7)
H18 H 0.6521(17) 0.3272(8) 0.2960(7)
H19 H 0.5352(16) 0.4621(8) 0.2924(7)
H20 H 0.3945(16) 0.4221(7) 0.2674(7)
H21 H 0.3819(15) 0.5258(7) 0.2074(6)
H22 H 0.5941(16) 0.5783(7) 0.2425(7)
H23 H 0.6046(16) 0.5810(8) 0.1701(7)
H24 H 0.6907(17) 0.5211(8) 0.2071(7)
loop_
_geom_bond_atom_site_label_1
_geom_bond_atom_site_label_2
_geom_bond_distance
_geom_bond_site_symmetry_1
_geom_bond_site_symmetry_2
C1 C2 1.532 1_555 1_555
C2 C3 1.546 1_555 1_555
C3 C4 1.508 1_555 1_555
C4 C5 1.407 1_555 1_555
C5 C6 1.363 1_555 1_555
C6 C7 1.417 1_555 1_555
C7 C8 1.418 1_555 1_555
C8 C9 1.365 1_555 1_555
C9 C10 1.413 1_555 1_555
C10 C11 1.371 1_555 1_555
C11 C12 1.416 1_555 1_555
C12 C7 1.431 1_555 1_555
C13 C4 1.385 1_555 1_555
C14 C2 1.529 1_555 1_555
C15 C14 1.350 1_555 1_555
C16 C15 1.492 1_555 1_555
C17 C16 1.427 1_555 1_555
C18 C17 1.417 1_555 1_555
C19 C18 1.373 1_555 1_555
C20 C19 1.409 1_555 1_555
C21 C20 1.365 1_555 1_555
C22 C17 1.430 1_555 1_555
C23 C22 1.416 1_555 1_555
C24 C23 1.365 1_555 1_555
C25 C16 1.384 1_555 1_555
C26 C25 1.507 1_555 1_555
C27 C15 1.529 1_555 1_555
C28 C27 1.535 1_555 1_555
H1 C1 1.015 1_555 1_555
H2 C1 0.990 1_555 1_555
H3 C1 0.995 1_555 1_555
H4 C2 1.000 1_555 1_555
H5 C3 0.994 1_555 1_555
H6 C3 0.986 1_555 1_555
H7 C5 0.985 1_555 1_555
H8 C6 0.990 1_555 1_555
H9 C8 0.964 1_555 1_555
H10 C9 0.995 1_555 1_555
H11 C10 0.977 1_555 1_555
H12 C11 0.983 1_555 1_555
H13 C18 0.982 1_555 1_555
H14 C19 0.976 1_555 1_555
H15 C20 0.969 1_555 1_555
H16 C21 0.982 1_555 1_555
H17 C23 0.974 1_555 1_555
H18 C24 0.982 1_555 1_555
H19 C26 1.011 1_555 1_555
H20 C26 1.008 1_555 1_555
H21 C27 1.000 1_555 1_555
H22 C28 0.985 1_555 1_555
H23 C28 0.992 1_555 1_555
H24 C28 0.992 1_555 1_555
C12 C13 1.427 1_555 1_555
C13 C14 1.493 1_555 1_555
C21 C22 1.419 1_555 1_555
C24 C25 1.406 1_555 1_555
C26 C27 1.545 1_555 1_555
#END
