
#######################################################################
#
#                 Cambridge Crystallographic Data Centre
#                                CCDC
#
#######################################################################
#
# If this CIF has been generated from an entry in the Cambridge
# Structural Database, then it will include bibliographic, chemical,
# crystal, experimental, refinement or atomic coordinate data resulting
# from the CCDC's data processing and validation procedures.
#
#######################################################################

data_CSD_CIF_AQOPIH
_audit_creation_date 2016-07-21
_audit_creation_method CSD-ConQuest-V1
_database_code_CSD AQOPIH
_database_code_depnum_ccdc_archive 'CCDC 1476770'
_chemical_formula_sum 'C29 H16'
_chemical_formula_moiety
;
C29 H16
;
_journal_coden_Cambridge 182
_journal_volume 52
_journal_year 2016
_journal_page_first 9957
_journal_name_full 'Chem.Commun. '
loop_
_publ_author_name
"V.Rajeshkumar"
"M.C.Stuparu"
_chemical_name_systematic
;
11-methylacenaphtho[3,2,1,8-stuva]picene
;
_cell_volume   1737.834
_exptl_crystal_colour 'light yellow'
_exptl_crystal_density_diffrn 1.393
_exptl_crystal_description 'plate'
_diffrn_ambient_temperature 103
#These two values have been output from a single CSD field.
_refine_ls_R_factor_gt 0.0526
_refine_ls_wR_factor_gt 0.0526
_symmetry_cell_setting monoclinic
_symmetry_space_group_name_H-M 'P 21/c'
_symmetry_Int_Tables_number 14
loop_
_symmetry_equiv_pos_site_id
_symmetry_equiv_pos_as_xyz
1 x,y,z
2 -x,1/2+y,1/2-z
3 -x,-y,-z
4 x,-1/2-y,-1/2+z
_cell_length_a 11.856(2)
_cell_length_b 7.3071(12)
_cell_length_c 20.186(4)
_cell_angle_alpha 90
_cell_angle_beta 96.412(5)
_cell_angle_gamma 90
_cell_formula_units_Z 4
loop_
_atom_type_symbol
_atom_type_radius_bond
C 0.68
H 0.23
loop_
_atom_site_label
_atom_site_type_symbol
_atom_site_fract_x
_atom_site_fract_y
_atom_site_fract_z
C1 C 0.88633(17) 0.3550(3) 0.33946(10)
C2 C 0.94647(17) 0.5061(3) 0.31773(10)
H1 H 1.02560 0.49580 0.31460
C3 C 0.89186(17) 0.6677(3) 0.30115(10)
H2 H 0.93320 0.76640 0.28500
C4 C 0.77532(16) 0.6901(3) 0.3076(1)
C5 C 0.71799(17) 0.8563(3) 0.28968(10)
H3 H 0.75870 0.95550 0.27330
C6 C 0.60566(16) 0.8755(3) 0.29556(10)
H4 H 0.56870 0.98620 0.28130
C7 C 0.54170(16) 0.7347(2) 0.32249(9)
C8 C 0.42184(16) 0.7662(2) 0.32972(9)
C9 C 0.35971(17) 0.9360(3) 0.33002(10)
H5 H 0.39090 1.04290 0.31240
C10 C 0.25601(16) 0.9479(3) 0.35517(10)
H6 H 0.21750 1.06210 0.35350
C11 C 0.20485(16) 0.7922(3) 0.3838(1)
C12 C 0.12367(17) 0.7861(3) 0.43202(11)
H7 H 0.07730 0.89010 0.43700
C13 C 0.11140(17) 0.6342(3) 0.47110(11)
H8 H 0.05640 0.63650 0.50190
C14 C 0.17975(16) 0.4713(3) 0.46665(10)
C15 C 0.20629(17) 0.3277(3) 0.51523(10)
H9 H 0.15440 0.30210 0.54660
C16 C 0.30523(17) 0.2269(3) 0.5171(1)
H10 H 0.31990 0.13430 0.55000
C17 C 0.38684(16) 0.2587(2) 0.47041(10)
C18 C 0.50719(16) 0.2270(3) 0.47692(10)
H11 H 0.53950 0.14680 0.51090
C19 C 0.57748(17) 0.3089(2) 0.43562(10)
H12 H 0.65640 0.28270 0.44240
C20 C 0.53628(16) 0.4333(2) 0.38230(9)
C21 C 0.59746(16) 0.5682(2) 0.34489(10)
C22 C 0.71435(16) 0.5429(3) 0.33317(10)
C23 C 0.77255(17) 0.3739(3) 0.34562(10)
H13 H 0.73150 0.27070 0.35860
C24 C 0.36416(16) 0.6164(2) 0.34892(9)
C25 C 0.25828(16) 0.6277(3) 0.37472(10)
C26 C 0.24708(16) 0.4730(2) 0.41564(10)
C27 C 0.34814(16) 0.3687(2) 0.41697(10)
C28 C 0.42040(16) 0.4540(2) 0.37522(9)
C29 C 0.94801(18) 0.1773(3) 0.35677(12)
H14 H 0.89670 0.09160 0.37570
H15 H 1.01390 0.20090 0.38940
H16 H 0.97340 0.12420 0.31640
loop_
_geom_bond_atom_site_label_1
_geom_bond_atom_site_label_2
_geom_bond_distance
_geom_bond_site_symmetry_1
_geom_bond_site_symmetry_2
C1 C2 1.411 1_555 1_555
C2 H1 0.950 1_555 1_555
C3 C2 1.370 1_555 1_555
H2 C3 0.950 1_555 1_555
C4 C3 1.412 1_555 1_555
C5 C4 1.419 1_555 1_555
H3 C5 0.950 1_555 1_555
C6 C5 1.357 1_555 1_555
H4 C6 0.949 1_555 1_555
C7 C6 1.422 1_555 1_555
C8 C7 1.463 1_555 1_555
C9 C8 1.443 1_555 1_555
H5 C9 0.950 1_555 1_555
C10 C9 1.384 1_555 1_555
H6 C10 0.950 1_555 1_555
C11 C10 1.440 1_555 1_555
C12 C11 1.444 1_555 1_555
H7 C12 0.950 1_555 1_555
C13 C12 1.379 1_555 1_555
H8 C13 0.950 1_555 1_555
C14 C13 1.448 1_555 1_555
C15 C14 1.447 1_555 1_555
H9 C15 0.949 1_555 1_555
C16 C15 1.382 1_555 1_555
H10 C16 0.950 1_555 1_555
C17 C16 1.443 1_555 1_555
C18 C17 1.437 1_555 1_555
H11 C18 0.950 1_555 1_555
C19 C18 1.379 1_555 1_555
H12 C19 0.950 1_555 1_555
C20 C19 1.451 1_555 1_555
C21 C7 1.434 1_555 1_555
C22 C4 1.425 1_555 1_555
C23 C1 1.375 1_555 1_555
H13 C23 0.950 1_555 1_555
C24 C8 1.369 1_555 1_555
C25 C11 1.380 1_555 1_555
C26 C14 1.372 1_555 1_555
C27 C17 1.382 1_555 1_555
C28 C20 1.374 1_555 1_555
C29 C1 1.512 1_555 1_555
H14 C29 0.980 1_555 1_555
H15 C29 0.979 1_555 1_555
H16 C29 0.980 1_555 1_555
C20 C21 1.480 1_555 1_555
C21 C22 1.444 1_555 1_555
C22 C23 1.423 1_555 1_555
C24 C25 1.414 1_555 1_555
C24 C28 1.434 1_555 1_555
C25 C26 1.415 1_555 1_555
C26 C27 1.418 1_555 1_555
C27 C28 1.412 1_555 1_555
#END
