
#######################################################################
#
#                 Cambridge Crystallographic Data Centre
#                                CCDC
#
#######################################################################
#
# If this CIF has been generated from an entry in the Cambridge
# Structural Database, then it will include bibliographic, chemical,
# crystal, experimental, refinement or atomic coordinate data resulting
# from the CCDC's data processing and validation procedures.
#
#######################################################################

data_CSD_CIF_AQOTAC
_audit_creation_date 2011-08-02
_audit_creation_method CSD-ConQuest-V1
_database_code_CSD AQOTAC
_database_code_depnum_ccdc_archive 'CCDC 755289'
_chemical_formula_sum 'C36 H24'
_chemical_formula_moiety
;
C36 H24
;
_journal_coden_Cambridge 1145
_journal_volume 21
_journal_year 2011
_journal_page_first 7210
_journal_name_full 'J.Mater.Chem. '
loop_
_publ_author_name
"Zujin Zhao"
"Shuming Chen"
"J.W.Y.Lam"
"Zhiming Wang"
"Ping Lu"
"F.Mahtab"
"H.H.Y.Sung"
"I.D.Williams"
"Yuguang Ma"
"Hoi Sing Kwok"
"Ben Zhong Tang"
_chemical_name_systematic
;
1-(Triphenylvinyl)pyrene
;
_chemical_name_common
;
1,2,2-Triphenyl-1-pyrenylethene
;
_chemical_melting_point 476.15
_cell_volume   1212.236
_exptl_crystal_colour 'yellow'
_exptl_crystal_density_diffrn 1.251
_exptl_crystal_description 'block'
_diffrn_ambient_temperature 173
#These two values have been output from a single CSD field.
_refine_ls_R_factor_gt 0.0381
_refine_ls_wR_factor_gt 0.0381
_symmetry_cell_setting triclinic
_symmetry_space_group_name_H-M 'P -1'
_symmetry_Int_Tables_number 2
loop_
_symmetry_equiv_pos_site_id
_symmetry_equiv_pos_as_xyz
1 x,y,z
2 -x,-y,-z
_cell_length_a 9.5346(6)
_cell_length_b 9.5932(6)
_cell_length_c 13.9476(9)
_cell_angle_alpha 96.674(5)
_cell_angle_beta 105.479(6)
_cell_angle_gamma 94.841(5)
_cell_formula_units_Z 2
loop_
_atom_type_symbol
_atom_type_radius_bond
C 0.68
H 0.23
loop_
_atom_site_label
_atom_site_type_symbol
_atom_site_fract_x
_atom_site_fract_y
_atom_site_fract_z
C1 C 0.63119(13) 0.52058(13) 0.23015(9)
C2 C 0.63727(13) 0.40136(13) 0.17042(9)
C3 C 0.51824(14) 0.53872(13) 0.28597(9)
C4 C 0.47979(15) 0.43693(15) 0.34159(9)
H1 H 0.52800 0.35420 0.34620
C5 C 0.37168(17) 0.45598(16) 0.39012(11)
H2 H 0.34630 0.38610 0.42760
C6 C 0.30091(17) 0.57562(17) 0.38430(11)
H3 H 0.22560 0.58710 0.41640
C7 C 0.33988(17) 0.67907(17) 0.33149(12)
H4 H 0.29250 0.76230 0.32820
C8 C 0.44850(15) 0.66060(15) 0.28331(10)
H5 H 0.47570 0.73240 0.24790
C9 C 0.52900(14) 0.27069(13) 0.14721(9)
C10 C 0.37825(14) 0.27619(14) 0.12350(9)
H6 H 0.34110 0.36480 0.12000
C11 C 0.28228(15) 0.15299(14) 0.10499(10)
H7 H 0.17980 0.15820 0.09010
C12 C 0.33367(17) 0.02311(15) 0.10794(11)
H8 H 0.26720 -0.06060 0.09660
C13 C 0.48215(17) 0.01539(15) 0.12740(11)
H9 H 0.51810 -0.07400 0.12750
C14 C 0.57910(15) 0.13851(14) 0.14679(10)
H10 H 0.68130 0.13240 0.16000
C15 C 0.76001(14) 0.38805(13) 0.12293(9)
C16 C 0.90495(15) 0.40088(14) 0.18038(10)
H11 H 0.92810 0.42350 0.25140
C17 C 1.01655(15) 0.38104(15) 0.13547(11)
H12 H 1.11520 0.38890 0.17570
C18 C 0.98399(16) 0.34972(14) 0.03169(11)
H13 H 1.06030 0.33650 0.00080
C19 C 0.84066(16) 0.33791(14) -0.02647(10)
H14 H 0.81840 0.31740 -0.09760
C20 C 0.72868(15) 0.35592(14) 0.01846(10)
H15 H 0.63000 0.34640 -0.02210
C21 C 0.73740(13) 0.64968(13) 0.23891(9)
C22 C 0.84670(13) 0.70154(13) 0.32966(9)
C23 C 0.86325(15) 0.63590(14) 0.41877(9)
H16 H 0.79580 0.55690 0.41820
C24 C 0.97279(16) 0.68384(14) 0.50364(10)
H17 H 0.97930 0.63860 0.56150
C25 C 1.07935(15) 0.80139(14) 0.50828(10)
C26 C 1.06566(14) 0.87006(13) 0.42195(10)
C27 C 0.94888(14) 0.82138(13) 0.33293(9)
C28 C 0.93705(15) 0.89000(14) 0.24647(10)
C29 C 0.82540(15) 0.83802(14) 0.15952(10)
H18 H 0.81460 0.88470 0.10200
C30 C 0.72944(15) 0.71873(14) 0.15554(10)
H19 H 0.65660 0.68340 0.09430
C31 C 1.19731(17) 0.84817(16) 0.59352(12)
H20 H 1.20760 0.80230 0.65140
C32 C 1.29923(18) 0.96048(18) 0.59452(13)
H21 H 1.37890 0.99060 0.65300
C33 C 1.28618(17) 1.02909(16) 0.51131(12)
H22 H 1.35690 1.10610 0.51340
C34 C 1.17044(16) 0.98685(15) 0.42409(11)
C35 C 1.15343(17) 1.05457(15) 0.33597(12)
H23 H 1.22200 1.13270 0.33650
C36 C 1.04198(17) 1.00960(15) 0.25216(11)
H24 H 1.03270 1.05820 0.19560
loop_
_geom_bond_atom_site_label_1
_geom_bond_atom_site_label_2
_geom_bond_distance
_geom_bond_site_symmetry_1
_geom_bond_site_symmetry_2
C1 C2 1.349 1_555 1_555
C2 C9 1.500 1_555 1_555
C3 C1 1.498 1_555 1_555
C4 C3 1.399 1_555 1_555
H1 C4 0.950 1_555 1_555
C5 C4 1.389 1_555 1_555
H2 C5 0.950 1_555 1_555
C6 C5 1.379 1_555 1_555
H3 C6 0.950 1_555 1_555
C7 C6 1.385 1_555 1_555
H4 C7 0.950 1_555 1_555
C8 C3 1.392 1_555 1_555
H5 C8 0.950 1_555 1_555
C9 C10 1.393 1_555 1_555
C10 H6 0.950 1_555 1_555
C11 C10 1.386 1_555 1_555
H7 C11 0.950 1_555 1_555
C12 C11 1.378 1_555 1_555
H8 C12 0.950 1_555 1_555
C13 C12 1.379 1_555 1_555
H9 C13 0.950 1_555 1_555
C14 C9 1.392 1_555 1_555
H10 C14 0.950 1_555 1_555
C15 C2 1.498 1_555 1_555
C16 C15 1.387 1_555 1_555
H11 C16 0.950 1_555 1_555
C17 C16 1.387 1_555 1_555
H12 C17 0.950 1_555 1_555
C18 C17 1.388 1_555 1_555
H13 C18 0.949 1_555 1_555
C19 C18 1.378 1_555 1_555
H14 C19 0.950 1_555 1_555
C20 C15 1.398 1_555 1_555
H15 C20 0.950 1_555 1_555
C21 C1 1.504 1_555 1_555
C22 C21 1.413 1_555 1_555
C23 C22 1.435 1_555 1_555
H16 C23 0.950 1_555 1_555
C24 C23 1.355 1_555 1_555
H17 C24 0.950 1_555 1_555
C25 C24 1.436 1_555 1_555
C26 C25 1.420 1_555 1_555
C27 C22 1.431 1_555 1_555
C28 C27 1.423 1_555 1_555
C29 C28 1.390 1_555 1_555
H18 C29 0.950 1_555 1_555
C30 C21 1.392 1_555 1_555
H19 C30 0.950 1_555 1_555
C31 C25 1.399 1_555 1_555
H20 C31 0.950 1_555 1_555
C32 C31 1.385 1_555 1_555
H21 C32 0.950 1_555 1_555
C33 C32 1.382 1_555 1_555
H22 C33 0.950 1_555 1_555
C34 C26 1.429 1_555 1_555
C35 C34 1.434 1_555 1_555
H23 C35 0.950 1_555 1_555
C36 C28 1.437 1_555 1_555
H24 C36 0.950 1_555 1_555
C7 C8 1.389 1_555 1_555
C13 C14 1.389 1_555 1_555
C19 C20 1.388 1_555 1_555
C26 C27 1.428 1_555 1_555
C29 C30 1.390 1_555 1_555
C33 C34 1.398 1_555 1_555
C35 C36 1.351 1_555 1_555
#END
