
#######################################################################
#
#                 Cambridge Crystallographic Data Centre
#                                CCDC
#
#######################################################################
#
# If this CIF has been generated from an entry in the Cambridge
# Structural Database, then it will include bibliographic, chemical,
# crystal, experimental, refinement or atomic coordinate data resulting
# from the CCDC's data processing and validation procedures.
#
#######################################################################

data_CSD_CIF_ARAGAC
_audit_creation_date 2011-08-02
_audit_creation_method CSD-ConQuest-V1
_database_code_CSD ARAGAC
_database_code_depnum_ccdc_archive 'CCDC 749292'
_chemical_formula_sum 'C42 H30'
_chemical_formula_moiety
;
C42 H30
;
_journal_coden_Cambridge 1220
_journal_volume 16
_journal_year 2010
_journal_page_first 5909
_journal_name_full 'Chem.-Eur.J. '
loop_
_publ_author_name
"Yun-Hua Kung"
"Yu-Sung Chen"
"Chia-Cheng Tai"
"Wei-Szu Liu"
"Chien-Chueh Shin"
"Chih-Chung Ma"
"Yi-Chan Tsai"
"Tsun-Cheng Wu"
"Ming-Yu Kuo"
"Yao-Ting Wu"
_chemical_name_systematic
;
1,4,9,10-Tetramethyl-7,12-diphenylbenzo[k]indeno[1,2,3-cd]fluoranthene
;
_cell_volume   3145.120
_exptl_crystal_colour 'red'
_exptl_crystal_density_diffrn 1.129
_diffrn_ambient_temperature 295
#These two values have been output from a single CSD field.
_refine_ls_R_factor_gt 0.061
_refine_ls_wR_factor_gt 0.061
_symmetry_cell_setting monoclinic
_symmetry_space_group_name_H-M 'P 21/n'
_symmetry_Int_Tables_number 14
loop_
_symmetry_equiv_pos_site_id
_symmetry_equiv_pos_as_xyz
1 x,y,z
2 1/2-x,1/2+y,1/2-z
3 -x,-y,-z
4 -1/2+x,-1/2-y,-1/2+z
_cell_length_a 16.167(3)
_cell_length_b 8.4914(14)
_cell_length_c 22.917(4)
_cell_angle_alpha 90
_cell_angle_beta 91.398(3)
_cell_angle_gamma 90
_cell_formula_units_Z 4
loop_
_atom_type_symbol
_atom_type_radius_bond
C 0.68
H 0.23
loop_
_atom_site_label
_atom_site_type_symbol
_atom_site_fract_x
_atom_site_fract_y
_atom_site_fract_z
C1 C -0.08103(14) -0.3281(3) 0.06748(11)
C2 C -0.14056(15) -0.4134(3) 0.03658(12)
H1 H -0.18290 -0.46170 0.05670
C3 C -0.13871(15) -0.4287(3) -0.02384(12)
H2 H -0.18010 -0.48660 -0.04280
C4 C -0.07799(14) -0.3613(3) -0.05638(11)
C5 C -0.01737(13) -0.2748(3) -0.02698(10)
C6 C 0.05677(13) -0.1929(3) -0.04799(9)
C7 C 0.09601(14) -0.1622(3) -0.10013(10)
H3 H 0.07220 -0.19710 -0.13510
C8 C 0.17250(14) -0.0777(3) -0.10057(10)
H4 H 0.19750 -0.05910 -0.13600
C9 C 0.21017(13) -0.0231(3) -0.05003(9)
C10 C 0.28647(13) 0.0596(3) -0.03064(9)
C11 C 0.35200(13) 0.1155(3) -0.06159(9)
C12 C 0.42187(13) 0.1798(3) -0.02985(10)
C13 C 0.49340(13) 0.2307(3) -0.0587(1)
H5 H 0.49480 0.22100 -0.09910
C14 C 0.56140(14) 0.2943(3) -0.02945(11)
C15 C 0.55890(14) 0.3122(3) 0.03133(11)
C16 C 0.49052(13) 0.2657(3) 0.05997(10)
H6 H 0.48930 0.28020 0.10020
C17 C 0.42080(13) 0.1958(3) 0.03130(9)
C18 C 0.35031(13) 0.1423(3) 0.06327(9)
C19 C 0.28611(13) 0.0730(3) 0.03323(9)
C20 C 0.20880(13) 0.0005(3) 0.05345(9)
C21 C 0.16981(14) -0.0312(3) 0.10522(10)
H7 H 0.19410 0.00190 0.14030
C22 C 0.09285(14) -0.1138(3) 0.10567(10)
H8 H 0.06770 -0.13220 0.14110
C23 C 0.05494(13) -0.1672(3) 0.05464(9)
C24 C -0.01859(13) -0.2581(3) 0.0353(1)
C25 C 0.09577(13) -0.1344(3) 0.00292(9)
C26 C 0.16854(14) -0.0533(3) 0.00202(9)
C27 C -0.08360(16) -0.3103(4) 0.13259(11)
H9 H -0.02940 -0.32830 0.14930
H10 H -0.12160 -0.38550 0.14800
H11 H -0.10140 -0.20580 0.14210
C28 C -0.07845(17) -0.3792(4) -0.12164(11)
H12 H -0.11500 -0.46350 -0.13300
H13 H -0.02350 -0.40260 -0.13400
H14 H -0.09710 -0.28300 -0.13960
C29 C 0.34815(13) 0.1144(3) -0.12654(9)
C30 C 0.30508(17) 0.2302(3) -0.15640(11)
H15 H 0.27990 0.31020 -0.13560
C31 C 0.2984(2) 0.2302(4) -0.21608(12)
H16 H 0.26780 0.30830 -0.23510
C32 C 0.33626(18) 0.1166(4) -0.24781(12)
H17 H 0.33230 0.11730 -0.28840
C33 C 0.3791(2) 0.0042(4) -0.21971(11)
H18 H 0.40500 -0.07380 -0.24110
C34 C 0.38574(17) 0.0012(3) -0.15897(11)
H19 H 0.41590 -0.07830 -0.14040
C35 C 0.63594(16) 0.3433(4) -0.06306(14)
H20 H 0.62900 0.31090 -0.10300
H21 H 0.68450 0.29450 -0.04630
H22 H 0.64180 0.45570 -0.06130
C36 C 0.63182(16) 0.3841(4) 0.06484(13)
H23 H 0.62100 0.38300 0.10580
H24 H 0.63970 0.49080 0.05220
H25 H 0.68080 0.32410 0.05760
C37 C 0.34645(13) 0.1614(3) 0.12802(10)
C38 C 0.38747(17) 0.0607(3) 0.16618(11)
H26 H 0.42020 -0.01920 0.15140
C39 C 0.3809(2) 0.0761(4) 0.22564(12)
H27 H 0.40990 0.00780 0.25050
C40 C 0.33216(19) 0.1910(4) 0.24851(12)
H28 H 0.32640 0.20020 0.28860
C41 C 0.29212(19) 0.2922(4) 0.21105(13)
H29 H 0.25970 0.37230 0.22610
C42 C 0.29866(16) 0.2781(3) 0.15193(11)
H30 H 0.27040 0.34820 0.12750
loop_
_geom_bond_atom_site_label_1
_geom_bond_atom_site_label_2
_geom_bond_distance
_geom_bond_site_symmetry_1
_geom_bond_site_symmetry_2
C1 C2 1.385 1_555 1_555
C2 H1 0.930 1_555 1_555
C3 C2 1.392 1_555 1_555
H2 C3 0.930 1_555 1_555
C4 C3 1.372 1_555 1_555
C5 C4 1.386 1_555 1_555
C6 C5 1.477 1_555 1_555
C7 C6 1.391 1_555 1_555
H3 C7 0.929 1_555 1_555
C8 C7 1.430 1_555 1_555
H4 C8 0.929 1_555 1_555
C9 C8 1.376 1_555 1_555
C10 C9 1.478 1_555 1_555
C11 C10 1.374 1_555 1_555
C12 C11 1.436 1_555 1_555
C13 C12 1.414 1_555 1_555
H5 C13 0.930 1_555 1_555
C14 C13 1.383 1_555 1_555
C15 C14 1.403 1_555 1_555
C16 C15 1.358 1_555 1_555
H6 C16 0.931 1_555 1_555
C17 C12 1.408 1_555 1_555
C18 C17 1.443 1_555 1_555
C19 C10 1.468 1_555 1_555
C20 C19 1.478 1_555 1_555
C21 C20 1.383 1_555 1_555
H7 C21 0.930 1_555 1_555
C22 C21 1.429 1_555 1_555
H8 C22 0.930 1_555 1_555
C23 C22 1.383 1_555 1_555
C24 C1 1.397 1_555 1_555
C25 C6 1.403 1_555 1_555
C26 C9 1.407 1_555 1_555
C27 C1 1.501 1_555 1_555
H9 C27 0.960 1_555 1_555
H10 C27 0.959 1_555 1_555
H11 C27 0.960 1_555 1_555
C28 C4 1.503 1_555 1_555
H12 C28 0.960 1_555 1_555
H13 C28 0.960 1_555 1_555
H14 C28 0.960 1_555 1_555
C29 C11 1.488 1_555 1_555
C30 C29 1.377 1_555 1_555
H15 C30 0.929 1_555 1_555
C31 C30 1.369 1_555 1_555
H16 C31 0.930 1_555 1_555
C32 C31 1.362 1_555 1_555
H17 C32 0.931 1_555 1_555
C33 C32 1.336 1_555 1_555
H18 C33 0.930 1_555 1_555
C34 C29 1.367 1_555 1_555
H19 C34 0.930 1_555 1_555
C35 C14 1.505 1_555 1_555
H20 C35 0.960 1_555 1_555
H21 C35 0.960 1_555 1_555
H22 C35 0.960 1_555 1_555
C36 C15 1.519 1_555 1_555
H23 C36 0.959 1_555 1_555
H24 C36 0.961 1_555 1_555
H25 C36 0.959 1_555 1_555
C37 C18 1.496 1_555 1_555
C38 C37 1.381 1_555 1_555
H26 C38 0.929 1_555 1_555
C39 C38 1.376 1_555 1_555
H27 C39 0.932 1_555 1_555
C40 C39 1.367 1_555 1_555
H28 C40 0.929 1_555 1_555
C41 C40 1.367 1_555 1_555
H29 C41 0.930 1_555 1_555
C42 C37 1.378 1_555 1_555
H30 C42 0.930 1_555 1_555
C5 C24 1.435 1_555 1_555
C16 C17 1.421 1_555 1_555
C18 C19 1.365 1_555 1_555
C20 C26 1.409 1_555 1_555
C23 C24 1.476 1_555 1_555
C23 C25 1.399 1_555 1_555
C25 C26 1.364 1_555 1_555
C33 C34 1.394 1_555 1_555
C41 C42 1.367 1_555 1_555
#END
