
#######################################################################
#
#                 Cambridge Crystallographic Data Centre
#                                CCDC
#
#######################################################################
#
# If this CIF has been generated from an entry in the Cambridge
# Structural Database, then it will include bibliographic, chemical,
# crystal, experimental, refinement or atomic coordinate data resulting
# from the CCDC's data processing and validation procedures.
#
#######################################################################

data_CSD_CIF_ARAGOQ
_audit_creation_date 2011-08-01
_audit_creation_method CSD-ConQuest-V1
_database_code_CSD ARAGOQ
_database_code_depnum_ccdc_archive 'CCDC 749295'
_chemical_formula_sum 'C32 H28'
_chemical_formula_moiety
;
C32 H28
;
_journal_coden_Cambridge 1220
_journal_volume 16
_journal_year 2010
_journal_page_first 5909
_journal_name_full 'Chem.-Eur.J. '
loop_
_publ_author_name
"Yun-Hua Kung"
"Yu-Sung Chen"
"Chia-Cheng Tai"
"Wei-Szu Liu"
"Chien-Chueh Shin"
"Chih-Chung Ma"
"Yi-Chan Tsai"
"Tsun-Cheng Wu"
"Ming-Yu Kuo"
"Yao-Ting Wu"
_chemical_name_systematic
;
7-Butyl-9,10-dimethyl-12-phenylbenzo[k]fluoranthene
;
_cell_volume   1136.860
_exptl_crystal_colour 'colorless'
_exptl_crystal_density_diffrn 1.205
_exptl_crystal_description 'tabular'
_diffrn_ambient_temperature 296
#These two values have been output from a single CSD field.
_refine_ls_R_factor_gt 0.0838
_refine_ls_wR_factor_gt 0.0838
_symmetry_cell_setting triclinic
_symmetry_space_group_name_H-M 'P -1'
_symmetry_Int_Tables_number 2
loop_
_symmetry_equiv_pos_site_id
_symmetry_equiv_pos_as_xyz
1 x,y,z
2 -x,-y,-z
_cell_length_a 10.6072(3)
_cell_length_b 10.6637(3)
_cell_length_c 11.8750(4)
_cell_angle_alpha 89.211(2)
_cell_angle_beta 75.182(2)
_cell_angle_gamma 61.934(2)
_cell_formula_units_Z 2
loop_
_atom_type_symbol
_atom_type_radius_bond
C 0.68
H 0.23
loop_
_atom_site_label
_atom_site_type_symbol
_atom_site_fract_x
_atom_site_fract_y
_atom_site_fract_z
C1 C 0.3722(3) 0.9028(4) 0.5763(3)
C2 C 0.3536(3) 0.9584(4) 0.4723(3)
C3 C 0.4339(3) 0.8645(3) 0.3648(2)
H1 H 0.41950 0.90250 0.29530
C4 C 0.5339(3) 0.7175(3) 0.3576(2)
C5 C 0.6136(3) 0.6278(3) 0.2502(2)
C6 C 0.7148(3) 0.4876(3) 0.2507(2)
C7 C 0.8182(3) 0.3752(3) 0.1530(2)
C8 C 0.8510(3) 0.3645(3) 0.0352(2)
H2 H 0.79780 0.44150 -0.00180
C9 C 0.9684(4) 0.2334(4) -0.0320(3)
H3 H 0.98910 0.22600 -0.11330
C10 C 1.0503(3) 0.1205(3) 0.0163(3)
H4 H 1.12900 0.03850 -0.03120
C11 C 1.0157(3) 0.1264(3) 0.1440(3)
C12 C 1.0911(3) 0.0165(3) 0.2081(3)
H5 H 1.17020 -0.07090 0.16910
C13 C 1.0478(4) 0.0395(4) 0.3253(3)
H6 H 1.09620 -0.03470 0.36650
C14 C 0.9303(3) 0.1729(3) 0.3904(3)
H7 H 0.90360 0.18590 0.47200
C15 C 0.8590(3) 0.2798(3) 0.3298(2)
C16 C 0.7394(3) 0.4300(3) 0.3594(2)
C17 C 0.6612(3) 0.5141(3) 0.4655(2)
C18 C 0.5548(3) 0.6619(3) 0.4669(2)
C19 C 0.4701(3) 0.7587(3) 0.5715(3)
H8 H 0.48120 0.72280 0.64220
C20 C 0.9028(3) 0.2529(3) 0.2069(2)
C21 C 0.2870(4) 0.9978(4) 0.6890(3)
H9 H 0.30720 1.07660 0.68780
H10 H 0.31600 0.94470 0.75230
H11 H 0.18240 1.03350 0.70010
C22 C 0.2557(3) 1.1167(3) 0.4691(3)
H12 H 0.15420 1.14400 0.51030
H13 H 0.26240 1.13520 0.38900
H14 H 0.28830 1.17110 0.50590
C23 C 0.5888(3) 0.6826(3) 0.1364(2)
C24 C 0.6690(4) 0.7464(4) 0.0739(3)
H15 H 0.73760 0.75580 0.10350
C25 C 0.6477(4) 0.7960(4) -0.0319(3)
H16 H 0.70130 0.83900 -0.07240
C26 C 0.5483(4) 0.7816(4) -0.0766(3)
H17 H 0.53470 0.81390 -0.14800
C27 C 0.4685(3) 0.7194(3) -0.0160(3)
H18 H 0.40020 0.71010 -0.04610
C28 C 0.4888(3) 0.6710(3) 0.0887(2)
H19 H 0.43360 0.62910 0.12860
C29 C 0.6941(3) 0.4576(3) 0.5773(2)
H20 H 0.60440 0.50590 0.64230
H21 H 0.72520 0.35610 0.57120
C30 C 0.8148(3) 0.4808(3) 0.6011(2)
H22 H 0.78310 0.58250 0.60510
H23 H 0.90330 0.43270 0.53510
C31 C 0.8564(3) 0.4289(3) 0.7123(2)
H24 H 0.76770 0.47280 0.77870
H25 H 0.89520 0.32600 0.70690
C32 C 0.9716(4) 0.4641(4) 0.7335(3)
H26 H 1.06090 0.41810 0.66940
H27 H 0.99350 0.43070 0.80530
H28 H 0.93350 0.56600 0.73940
loop_
_geom_bond_atom_site_label_1
_geom_bond_atom_site_label_2
_geom_bond_distance
_geom_bond_site_symmetry_1
_geom_bond_site_symmetry_2
C1 C2 1.382 1_555 1_555
C2 C3 1.426 1_555 1_555
C3 H1 0.930 1_555 1_555
C4 C3 1.408 1_555 1_555
C5 C4 1.406 1_555 1_555
C6 C5 1.371 1_555 1_555
C7 C6 1.462 1_555 1_555
C8 C7 1.345 1_555 1_555
H2 C8 0.931 1_555 1_555
C9 C8 1.423 1_555 1_555
H3 C9 0.929 1_555 1_555
C10 C9 1.336 1_555 1_555
H4 C10 0.930 1_555 1_555
C11 C10 1.461 1_555 1_555
C12 C11 1.413 1_555 1_555
H5 C12 0.930 1_555 1_555
C13 C12 1.336 1_555 1_555
H6 C13 0.930 1_555 1_555
C14 C13 1.430 1_555 1_555
H7 C14 0.930 1_555 1_555
C15 C14 1.354 1_555 1_555
C16 C6 1.453 1_555 1_555
C17 C16 1.370 1_555 1_555
C18 C4 1.445 1_555 1_555
C19 C1 1.383 1_555 1_555
H8 C19 0.930 1_555 1_555
C20 C7 1.444 1_555 1_555
C21 C1 1.480 1_555 1_555
H9 C21 0.959 1_555 1_555
H10 C21 0.961 1_555 1_555
H11 C21 0.960 1_555 1_555
C22 C2 1.516 1_555 1_555
H12 C22 0.961 1_555 1_555
H13 C22 0.960 1_555 1_555
H14 C22 0.959 1_555 1_555
C23 C5 1.501 1_555 1_555
C24 C23 1.395 1_555 1_555
H15 C24 0.929 1_555 1_555
C25 C24 1.387 1_555 1_555
H16 C25 0.930 1_555 1_555
C26 C25 1.363 1_555 1_555
H17 C26 0.931 1_555 1_555
C27 C26 1.370 1_555 1_555
H18 C27 0.929 1_555 1_555
C28 C23 1.376 1_555 1_555
H19 C28 0.930 1_555 1_555
C29 C17 1.505 1_555 1_555
H20 C29 0.970 1_555 1_555
H21 C29 0.969 1_555 1_555
C30 C29 1.505 1_555 1_555
H22 C30 0.970 1_555 1_555
H23 C30 0.970 1_555 1_555
C31 C30 1.514 1_555 1_555
H24 C31 0.971 1_555 1_555
H25 C31 0.970 1_555 1_555
C32 C31 1.513 1_555 1_555
H26 C32 0.960 1_555 1_555
H27 C32 0.961 1_555 1_555
H28 C32 0.961 1_555 1_555
C11 C20 1.364 1_555 1_555
C15 C16 1.474 1_555 1_555
C15 C20 1.403 1_555 1_555
C17 C18 1.441 1_555 1_555
C18 C19 1.417 1_555 1_555
C27 C28 1.369 1_555 1_555
#END
