
#######################################################################
#
#                 Cambridge Crystallographic Data Centre
#                                CCDC
#
#######################################################################
#
# If this CIF has been generated from an entry in the Cambridge
# Structural Database, then it will include bibliographic, chemical,
# crystal, experimental, refinement or atomic coordinate data resulting
# from the CCDC's data processing and validation procedures.
#
#######################################################################

data_CSD_CIF_ARUGEB
_audit_creation_date 2016-07-27
_audit_creation_method CSD-ConQuest-V1
_database_code_CSD ARUGEB
_database_code_depnum_ccdc_archive 'CCDC 1472205'
_chemical_formula_sum 'C54 H38'
_chemical_formula_moiety
;
C54 H38
;
_journal_coden_Cambridge 4
_journal_volume 138
_journal_year 2016
_journal_page_first 8364
_journal_name_full 'J.Am.Chem.Soc. '
loop_
_publ_author_name
"Junzhi Liu"
"S.Osella"
"Ji Ma"
"R.Berger"
"D.Beljonne"
"D.Schollmeyer"
"Xinliang Feng"
"K.Mullen"
_chemical_name_systematic
;
7,14-bis(4-t-butylphenyl)dinaphtho[1,2,3,4,5-ijklm:1',2',3',4',5'-uvwxa]rubice
ne
;
_cell_volume   3641.621
_exptl_crystal_colour 'brown'
_exptl_crystal_density_diffrn 1.253
_exptl_crystal_description 'block'
_diffrn_ambient_temperature 193
#These two values have been output from a single CSD field.
_refine_ls_R_factor_gt 0.0681
_refine_ls_wR_factor_gt 0.0681
_symmetry_cell_setting monoclinic
_symmetry_space_group_name_H-M 'P 21/c'
_symmetry_Int_Tables_number 14
loop_
_symmetry_equiv_pos_site_id
_symmetry_equiv_pos_as_xyz
1 x,y,z
2 -x,1/2+y,1/2-z
3 -x,-y,-z
4 x,-1/2-y,-1/2+z
_cell_length_a 21.7706(5)
_cell_length_b 10.2389(3)
_cell_length_c 17.6237(4)
_cell_angle_alpha 90
_cell_angle_beta 112.030(2)
_cell_angle_gamma 90
_cell_formula_units_Z 4
loop_
_atom_type_symbol
_atom_type_radius_bond
C 0.68
H 0.23
loop_
_atom_site_label
_atom_site_type_symbol
_atom_site_fract_x
_atom_site_fract_y
_atom_site_fract_z
C1 C 0.32055(9) 0.28092(19) 0.54853(11)
C2 C 0.27207(10) 0.27284(19) 0.58971(11)
C3 C 0.33929(8) 0.40484(18) 0.53330(11)
C4 C 0.32667(8) 0.62587(18) 0.51951(10)
C5 C 0.27580(9) 0.82059(18) 0.44455(11)
C6 C 0.31782(8) 0.51781(18) 0.56158(10)
C7 C 0.22333(10) 0.91356(19) 0.42455(12)
C8 C 0.24454(9) 0.73479(18) 0.55365(11)
C9 C 0.1747(1) 0.9042(2) 0.46569(12)
C10 C 0.45930(9) 0.6009(2) 0.24307(12)
C11 C 0.23575(9) 0.62672(18) 0.59596(10)
C12 C 0.24418(9) 0.39097(19) 0.60712(11)
C13 C 0.27064(8) 0.51264(18) 0.59709(10)
C14 C -0.0995(1) 0.5352(2) 0.67865(12)
C15 C 0.28708(8) 0.73501(18) 0.51144(11)
C16 C -0.03544(10) 0.5298(2) 0.66197(12)
C17 C 0.48888(9) 0.5895(2) 0.32767(12)
H1 H 0.53440 0.56620 0.35170
C18 C 0.18726(9) 0.81327(19) 0.52882(11)
C19 C 0.36739(8) 0.4396(2) 0.47473(11)
C20 C 0.34230(11) 0.1792(2) 0.51062(14)
H2 H 0.33430 0.09070 0.52030
C21 C 0.35641(9) 0.5877(2) 0.46262(11)
C22 C -0.02673(11) 0.4396(2) 0.60688(14)
H3 H -0.06190 0.38190 0.57810
C23 C 0.45401(10) 0.6111(2) 0.37796(12)
H4 H 0.47580 0.60130 0.43550
C24 C 0.17249(9) 0.6285(2) 0.60302(11)
C25 C 0.14131(10) 0.7593(2) 0.56104(12)
C26 C 0.4996(1) 0.5839(2) 0.18904(12)
C27 C 0.07674(10) 0.6048(2) 0.69012(12)
H5 H 0.11140 0.66420 0.71810
C28 C 0.31372(9) 0.7967(2) 0.39494(12)
C29 C 0.26135(12) 0.9911(2) 0.32071(14)
H6 H 0.25990 1.05690 0.28210
C30 C 0.39158(10) 0.6318(2) 0.21070(12)
H7 H 0.36940 0.63760 0.15300
C31 C 0.18509(10) 0.3924(2) 0.62468(12)
C32 C 0.38669(10) 0.3367(2) 0.43811(13)
H8 H 0.40710 0.35190 0.39980
C33 C 0.11128(12) 0.9605(3) 0.44057(15)
H9 H 0.09850 1.02610 0.39950
C34 C 0.03225(11) 0.4326(2) 0.59346(13)
H10 H 0.03650 0.37060 0.55560
C35 C 0.35309(9) 0.6761(2) 0.40246(12)
C36 C 0.37543(11) 0.2091(2) 0.45903(15)
H11 H 0.39150 0.13880 0.43650
C37 C 0.14861(10) 0.5146(2) 0.62127(12)
C38 C 0.35589(10) 0.6542(2) 0.26033(12)
H12 H 0.31000 0.67430 0.23620
C39 C 0.01853(10) 0.6074(2) 0.70432(13)
H13 H 0.01540 0.66510 0.74500
C40 C 0.08501(10) 0.5148(2) 0.63449(12)
C41 C 0.21798(12) 0.9999(2) 0.36124(14)
H14 H 0.18440 1.06500 0.34580
C42 C 0.30649(11) 0.8910(2) 0.33389(13)
H15 H 0.33290 0.88550 0.30160
C43 C 0.38682(9) 0.6474(2) 0.34524(12)
C44 C 0.08023(11) 0.8188(2) 0.53496(14)
H16 H 0.04780 0.79250 0.55590
C45 C 0.19342(14) 0.1551(2) 0.63008(17)
H17 H 0.17810 0.07410 0.64260
C46 C 0.24602(12) 0.1549(2) 0.60358(14)
H18 H 0.26420 0.07450 0.59490
C47 C -0.08263(13) 0.5007(3) 0.76914(16)
H19 H -0.12350 0.49590 0.78000
H20 H -0.05360 0.56810 0.80390
H21 H -0.06000 0.41600 0.78120
C48 C 0.06682(12) 0.9191(3) 0.47679(15)
H22 H 0.02510 0.96180 0.46080
C49 C 0.16275(12) 0.2677(2) 0.63884(14)
H23 H 0.12570 0.26240 0.65480
C50 C 0.56753(11) 0.6499(3) 0.22837(15)
H24 H 0.59310 0.63670 0.19350
H25 H 0.59150 0.61140 0.28240
H26 H 0.56140 0.74360 0.23430
C51 C 0.51015(16) 0.4386(3) 0.1783(2)
H27 H 0.46710 0.39480 0.15480
H28 H 0.53590 0.39990 0.23170
H29 H 0.53420 0.42790 0.14160
C52 C 0.46502(13) 0.6435(3) 0.10454(15)
H30 H 0.49320 0.63350 0.07260
H31 H 0.45690 0.73650 0.11010
H32 H 0.42270 0.59880 0.07650
C53 C -0.12875(16) 0.6716(3) 0.6626(2)
H33 H -0.13820 0.69560 0.60550
H34 H -0.09710 0.73380 0.69900
H35 H -0.16990 0.67360 0.67310
C54 C -0.15079(14) 0.4368(4) 0.6274(2)
H36 H -0.16360 0.45770 0.56920
H37 H -0.18990 0.44060 0.64210
H38 H -0.13180 0.34870 0.63790
loop_
_geom_bond_atom_site_label_1
_geom_bond_atom_site_label_2
_geom_bond_distance
_geom_bond_site_symmetry_1
_geom_bond_site_symmetry_2
C1 C2 1.491 1_555 1_555
C2 C12 1.437 1_555 1_555
C3 C1 1.389 1_555 1_555
C4 C6 1.385 1_555 1_555
C5 C7 1.426 1_555 1_555
C6 C3 1.407 1_555 1_555
C7 C9 1.494 1_555 1_555
C8 C11 1.387 1_555 1_555
C9 C18 1.397 1_555 1_555
C10 C17 1.390 1_555 1_555
C11 C13 1.389 1_555 1_555
C12 C13 1.411 1_555 1_555
C13 C6 1.390 1_555 1_555
C14 C16 1.530 1_555 1_555
C15 C4 1.386 1_555 1_555
C16 C22 1.403 1_555 1_555
C17 H1 0.951 1_555 1_555
C18 C8 1.408 1_555 1_555
C19 C3 1.428 1_555 1_555
C20 C1 1.412 1_555 1_555
H2 C20 0.950 1_555 1_555
C21 C4 1.437 1_555 1_555
C22 H3 0.949 1_555 1_555
C23 C17 1.384 1_555 1_555
H4 C23 0.950 1_555 1_555
C24 C11 1.429 1_555 1_555
C25 C18 1.433 1_555 1_555
C26 C10 1.528 1_555 1_555
C27 H5 0.950 1_555 1_555
C28 C5 1.431 1_555 1_555
C29 H6 0.950 1_555 1_555
C30 C10 1.403 1_555 1_555
H7 C30 0.950 1_555 1_555
C31 C12 1.432 1_555 1_555
C32 C19 1.381 1_555 1_555
H8 C32 0.950 1_555 1_555
C33 C9 1.406 1_555 1_555
H9 C33 0.949 1_555 1_555
C34 C22 1.392 1_555 1_555
H10 C34 0.950 1_555 1_555
C35 C21 1.375 1_555 1_555
C36 C20 1.390 1_555 1_555
H11 C36 0.950 1_555 1_555
C37 C24 1.364 1_555 1_555
C38 C30 1.390 1_555 1_555
H12 C38 0.950 1_555 1_555
C39 C16 1.382 1_555 1_555
H13 C39 0.951 1_555 1_555
C40 C27 1.405 1_555 1_555
C41 C7 1.394 1_555 1_555
H14 C41 0.951 1_555 1_555
C42 C28 1.410 1_555 1_555
H15 C42 0.950 1_555 1_555
C43 C23 1.406 1_555 1_555
C44 C25 1.376 1_555 1_555
H16 C44 0.950 1_555 1_555
C45 H17 0.950 1_555 1_555
C46 C2 1.394 1_555 1_555
H18 C46 0.950 1_555 1_555
C47 C14 1.537 1_555 1_555
H19 C47 0.979 1_555 1_555
H20 C47 0.980 1_555 1_555
H21 C47 0.981 1_555 1_555
C48 C33 1.410 1_555 1_555
H22 C48 0.951 1_555 1_555
C49 C31 1.421 1_555 1_555
H23 C49 0.950 1_555 1_555
C50 C26 1.535 1_555 1_555
H24 C50 0.981 1_555 1_555
H25 C50 0.981 1_555 1_555
H26 C50 0.980 1_555 1_555
C51 C26 1.528 1_555 1_555
H27 C51 0.980 1_555 1_555
H28 C51 0.980 1_555 1_555
H29 C51 0.979 1_555 1_555
C52 C26 1.522 1_555 1_555
H30 C52 0.981 1_555 1_555
H31 C52 0.980 1_555 1_555
H32 C52 0.980 1_555 1_555
C53 C14 1.517 1_555 1_555
H33 C53 0.980 1_555 1_555
H34 C53 0.980 1_555 1_555
H35 C53 0.981 1_555 1_555
C54 C14 1.524 1_555 1_555
H36 C54 0.980 1_555 1_555
H37 C54 0.979 1_555 1_555
H38 C54 0.981 1_555 1_555
C5 C15 1.414 1_555 1_555
C8 C15 1.388 1_555 1_555
C19 C21 1.537 1_555 1_555
C24 C25 1.557 1_555 1_555
C27 C39 1.381 1_555 1_555
C28 C35 1.480 1_555 1_555
C29 C41 1.384 1_555 1_555
C29 C42 1.378 1_555 1_555
C31 C37 1.471 1_555 1_555
C32 C36 1.404 1_555 1_555
C34 C40 1.388 1_555 1_555
C35 C43 1.483 1_555 1_555
C37 C40 1.488 1_555 1_555
C38 C43 1.393 1_555 1_555
C44 C48 1.402 1_555 1_555
C45 C46 1.389 1_555 1_555
C45 C49 1.370 1_555 1_555
#END
