
#######################################################################
#
#                 Cambridge Crystallographic Data Centre
#                                CCDC
#
#######################################################################
#
# If this CIF has been generated from an entry in the Cambridge
# Structural Database, then it will include bibliographic, chemical,
# crystal, experimental, refinement or atomic coordinate data resulting
# from the CCDC's data processing and validation procedures.
#
#######################################################################

data_CSD_CIF_ASEPUJ
_audit_creation_date 2004-06-09
_audit_creation_method CSD-ConQuest-V1
_database_code_CSD ASEPUJ
_database_code_depnum_ccdc_archive 'CCDC 196337'
_chemical_formula_sum 'C26 H22'
_chemical_formula_moiety
;
C26 H22
;
_journal_coden_Cambridge 1089
_journal_volume 15
_journal_year 2003
_journal_page_first 1090
_journal_name_full 'Adv.Mater. '
loop_
_publ_author_name
"Hong Meng"
"M.Bendikov"
"G.Mitchell"
"R.Helgeson"
"F.Wudl"
"Zhenan Bao"
"T.Siegrist"
"C.Kloc"
"Cheng-Hsuan Chen"
_chemical_name_systematic
;
2,3,9,10-Tetramethylpentacene
;
_chemical_melting_point 573.15
_cell_volume   1695.364
_exptl_crystal_colour 'blue violet'
_exptl_crystal_density_diffrn 1.31
_exptl_special_details
;
Melts above 573.15K

;
_exptl_crystal_preparation 'sublimation'
_diffrn_ambient_temperature 293
#These two values have been output from a single CSD field.
_refine_ls_R_factor_gt 0.034
_refine_ls_wR_factor_gt 0.034
_symmetry_cell_setting monoclinic
_symmetry_space_group_name_H-M 'P 21/c'
_symmetry_Int_Tables_number 14
loop_
_symmetry_equiv_pos_site_id
_symmetry_equiv_pos_as_xyz
1 x,y,z
2 -x,1/2+y,1/2-z
3 -x,-y,-z
4 x,-1/2-y,-1/2+z
_cell_length_a 6.166(2)
_cell_length_b 7.661(2)
_cell_length_c 35.989(12)
_cell_angle_alpha 90
_cell_angle_beta 94.25(3)
_cell_angle_gamma 90
_cell_formula_units_Z 4
loop_
_atom_type_symbol
_atom_type_radius_bond
C 0.68
H 0.23
loop_
_atom_site_label
_atom_site_type_symbol
_atom_site_fract_x
_atom_site_fract_y
_atom_site_fract_z
C1 C 0.4123(4) 0.2885(3) 0.22767(7)
C2 C 0.0542(4) 0.1652(3) 0.20826(7)
C3 C 0.5441(4) 0.2865(4) 0.29382(7)
C4 C 0.1850(4) 0.1637(3) 0.27404(7)
C5 C 0.2830(4) 0.2861(4) 0.16138(7)
C6 C 0.0271(4) 0.1256(3) 0.24547(8)
C7 C 0.1597(4) 0.1218(4) 0.31152(7)
C8 C -0.0731(4) 0.1623(4) 0.14243(7)
C9 C 0.2543(4) 0.2487(3) 0.19903(7)
C10 C -0.1038(4) 0.1256(4) 0.17917(7)
C11 C 0.3845(4) 0.2484(3) 0.26481(7)
C12 C 0.3183(4) 0.1589(3) 0.33962(7)
C13 C 0.6769(4) 0.2799(4) 0.36030(8)
C14 C 0.1267(4) 0.2443(4) 0.13331(7)
C15 C 0.2954(4) 0.1159(4) 0.37773(7)
C16 C -0.2291(4) 0.1207(4) 0.11244(8)
C17 C 0.1560(5) 0.2777(4) 0.09497(7)
C18 C 0.5163(4) 0.2444(3) 0.33048(7)
C19 C -0.1957(4) 0.1535(4) 0.07636(7)
C20 C 0.0053(4) 0.2347(4) 0.06715(7)
C21 C 0.4506(4) 0.1521(4) 0.40536(7)
C22 C 0.8256(5) 0.2726(5) 0.42647(9)
C23 C -0.3625(5) 0.1033(5) 0.04560(9)
C24 C 0.4165(6) 0.1063(5) 0.44494(8)
C25 C 0.6499(4) 0.2367(4) 0.39616(7)
C26 C 0.0448(6) 0.2684(5) 0.02706(8)
H1 H 0.157(5) 0.066(4) 0.3843(8)
H2 H 0.809(5) 0.341(4) 0.3536(8)
H3 H 0.295(5) 0.342(4) 0.0883(8)
H4 H -0.109(5) 0.075(4) 0.2519(8)
H5 H 0.023(5) 0.070(4) 0.3186(8)
H6 H -0.240(5) 0.073(4) 0.1855(8)
H7 H 0.943(5) 0.335(4) 0.4170(8)
H8 H 0.548(5) 0.352(4) 0.2213(8)
H9 H -0.369(5) 0.065(4) 0.1190(8)
H10 H 0.421(5) 0.351(4) 0.1553(8)
H11 H 0.184(5) 0.340(4) 0.0239(8)
H12 H -0.406(5) 0.210(4) 0.0256(8)
H13 H 0.679(5) 0.351(4) 0.2874(8)
H14 H 0.422(5) 0.214(4) 0.4634(8)
H15 H -0.076(5) 0.340(4) 0.0123(8)
H16 H 0.880(5) 0.154(4) 0.4416(8)
H17 H 0.275(5) 0.055(4) 0.4481(8)
H18 H -0.298(5) 0.033(4) 0.0249(8)
H19 H -0.493(5) 0.053(4) 0.0555(8)
H20 H 0.769(5) 0.349(4) 0.4499(8)
H21 H 0.543(5) 0.049(4) 0.4588(8)
H22 H 0.033(5) 0.148(4) 0.0120(8)
loop_
_geom_bond_atom_site_label_1
_geom_bond_atom_site_label_2
_geom_bond_distance
_geom_bond_site_symmetry_1
_geom_bond_site_symmetry_2
C1 C9 1.398 1_555 1_555
C2 C6 1.395 1_555 1_555
C3 C11 1.411 1_555 1_555
C4 C6 1.394 1_555 1_555
C5 C9 1.409 1_555 1_555
C6 H4 0.968 1_555 1_555
C7 C4 1.406 1_555 1_555
C8 C10 1.379 1_555 1_555
C9 C2 1.450 1_555 1_555
C10 C2 1.409 1_555 1_555
C11 C1 1.394 1_555 1_555
C12 C7 1.383 1_555 1_555
C13 C18 1.431 1_555 1_555
C14 C5 1.381 1_555 1_555
C15 C12 1.428 1_555 1_555
C16 C8 1.428 1_555 1_555
C17 C14 1.428 1_555 1_555
C18 C3 1.381 1_555 1_555
C19 C16 1.353 1_555 1_555
C20 C17 1.355 1_555 1_555
C21 C15 1.357 1_555 1_555
C22 C25 1.505 1_555 1_555
C23 C19 1.504 1_555 1_555
C24 C21 1.497 1_555 1_555
C25 C13 1.354 1_555 1_555
C26 C20 1.503 1_555 1_555
H1 C15 0.980 1_555 1_555
H2 C13 0.985 1_555 1_555
H3 C17 1.032 1_555 1_555
H5 C7 0.982 1_555 1_555
H6 C10 0.974 1_555 1_555
H7 C22 0.951 1_555 1_555
H8 C1 1.009 1_555 1_555
H9 C16 1.006 1_555 1_555
H10 C5 1.023 1_555 1_555
H11 C26 1.032 1_555 1_555
H12 C23 1.109 1_555 1_555
H13 C3 1.009 1_555 1_555
H14 C24 1.058 1_555 1_555
H15 C26 1.039 1_555 1_555
H16 C22 1.099 1_555 1_555
H17 C24 0.971 1_555 1_555
H18 C23 1.023 1_555 1_555
H19 C23 0.983 1_555 1_555
H20 C22 1.104 1_555 1_555
H21 C24 0.996 1_555 1_555
H22 C26 1.070 1_555 1_555
C4 C11 1.451 1_555 1_555
C8 C14 1.442 1_555 1_555
C12 C18 1.445 1_555 1_555
C19 C20 1.447 1_555 1_555
C21 C25 1.449 1_555 1_555
#END
