
#######################################################################
#
#                 Cambridge Crystallographic Data Centre
#                                CCDC
#
#######################################################################
#
# If this CIF has been generated from an entry in the Cambridge
# Structural Database, then it will include bibliographic, chemical,
# crystal, experimental, refinement or atomic coordinate data resulting
# from the CCDC's data processing and validation procedures.
#
#######################################################################

data_CSD_CIF_AVIMAT
_audit_creation_date 2004-07-21
_audit_creation_method CSD-ConQuest-V1
_database_code_CSD AVIMAT
_database_code_depnum_ccdc_archive 'CCDC 234402'
_chemical_formula_sum 'C27 H24'
_chemical_formula_moiety
;
C27 H24
;
_journal_coden_Cambridge 1078
_journal_year 2004
_journal_name_full 'CSD Communication(Private Communication) '
loop_
_publ_author_name
"M.Nieger"
"F.Ott"
"F.Vogtle"
_chemical_name_systematic
;
1(2,6)-Naphthalena-4,6(1,4)-dibenzenacyclo-octaphane
;
_chemical_name_common
;
(2)(2,6)Naphthaleno(2)(4,4')diphenylmethanophane
;
_cell_volume   1977.336
_exptl_crystal_colour 'colorless'
_exptl_crystal_density_diffrn 1.171
_exptl_special_details
;
contribution from Department of Inorganic Chemistry, Universitat Bonn, 
Gerhard-Domagk-Str. 1, D-53121 Bonn, Germany
;
_exptl_crystal_description 'prisms'
_diffrn_ambient_temperature 293
#These two values have been output from a single CSD field.
_refine_ls_R_factor_gt 0.0575
_refine_ls_wR_factor_gt 0.0575
_symmetry_cell_setting monoclinic
_symmetry_space_group_name_H-M 'P 21/n'
_symmetry_Int_Tables_number 14
loop_
_symmetry_equiv_pos_site_id
_symmetry_equiv_pos_as_xyz
1 x,y,z
2 1/2+x,1/2-y,1/2+z
3 -x,-y,-z
4 -1/2-x,-1/2+y,-1/2-z
_cell_length_a 10.705(2)
_cell_length_b 11.602(2)
_cell_length_c 16.090(3)
_cell_angle_alpha 90
_cell_angle_beta 98.32(1)
_cell_angle_gamma 90
_cell_formula_units_Z 4
loop_
_atom_type_symbol
_atom_type_radius_bond
C 0.68
H 0.23
loop_
_atom_site_label
_atom_site_type_symbol
_atom_site_fract_x
_atom_site_fract_y
_atom_site_fract_z
C1 C 0.3821(3) 0.4241(4) 0.4075(2)
H1 H 0.36000 0.48700 0.44230
H2 H 0.41800 0.36280 0.44440
C2 C 0.2629(3) 0.3800(3) 0.3541(2)
H3 H 0.21870 0.32960 0.38810
H4 H 0.20810 0.44500 0.33700
C3 C 0.2870(3) 0.3149(3) 0.27613(19)
C4 C 0.3660(3) 0.2204(3) 0.2803(2)
H5 H 0.39800 0.19010 0.33260
C5 C 0.3990(3) 0.1694(3) 0.2089(2)
H6 H 0.45290 0.10610 0.21400
C6 C 0.3530(3) 0.2111(3) 0.1305(2)
C7 C 0.2703(3) 0.3015(4) 0.1256(2)
H7 H 0.23390 0.32830 0.07310
C8 C 0.2395(3) 0.3541(3) 0.1974(2)
H8 H 0.18550 0.41730 0.19200
C9 C 0.3982(3) 0.1616(4) 0.0528(2)
H9 H 0.40490 0.07840 0.05780
H10 H 0.33760 0.17930 0.00360
C10 C 0.5255(3) 0.2116(3) 0.04230(18)
C11 C 0.6349(3) 0.1590(3) 0.0780(2)
H11 H 0.63050 0.08710 0.10310
C12 C 0.7511(3) 0.2096(3) 0.0778(2)
H12 H 0.82310 0.17180 0.10340
C13 C 0.7632(3) 0.3151(3) 0.04042(18)
C14 C 0.6542(3) 0.3659(3) 0.0003(2)
H13 H 0.65960 0.43500 -0.02820
C15 C 0.5369(3) 0.3160(3) 0.0017(2)
H14 H 0.46480 0.35290 -0.02480
C16 C 0.8893(3) 0.3748(4) 0.0478(2)
H15 H 0.90660 0.39360 -0.00810
H16 H 0.95410 0.32160 0.07250
C17 C 0.8984(3) 0.4847(3) 0.1003(2)
H17 H 0.98660 0.50110 0.11990
H18 H 0.86440 0.54840 0.06510
C18 C 0.8287(3) 0.4763(3) 0.17469(19)
C19 C 0.7223(3) 0.5410(3) 0.17691(19)
H19 H 0.70110 0.59810 0.13670
C20 C 0.6431(3) 0.5222(3) 0.24020(18)
C21 C 0.5297(3) 0.5819(3) 0.2413(2)
H20 H 0.50770 0.64130 0.20320
C22 C 0.4517(3) 0.5537(3) 0.2976(2)
H21 H 0.37690 0.59470 0.29690
C23 C 0.4796(3) 0.4653(3) 0.35641(19)
C24 C 0.5938(3) 0.4097(3) 0.35900(18)
H22 H 0.61590 0.35330 0.39960
C25 C 0.6788(3) 0.4359(3) 0.30143(17)
C26 C 0.7929(3) 0.3771(3) 0.2995(2)
H23 H 0.81990 0.32330 0.34110
C27 C 0.8644(3) 0.3973(3) 0.2383(2)
H24 H 0.93960 0.35710 0.23880
loop_
_geom_bond_atom_site_label_1
_geom_bond_atom_site_label_2
_geom_bond_distance
_geom_bond_site_symmetry_1
_geom_bond_site_symmetry_2
C1 H1 0.970 1_555 1_555
H2 C1 0.970 1_555 1_555
C2 C1 1.520 1_555 1_555
H3 C2 0.970 1_555 1_555
H4 C2 0.970 1_555 1_555
C3 C2 1.518 1_555 1_555
C4 C3 1.380 1_555 1_555
H5 C4 0.930 1_555 1_555
C5 C4 1.383 1_555 1_555
H6 C5 0.930 1_555 1_555
C6 C5 1.374 1_555 1_555
C7 C6 1.367 1_555 1_555
H7 C7 0.931 1_555 1_555
C8 C3 1.372 1_555 1_555
H8 C8 0.930 1_555 1_555
C9 C6 1.517 1_555 1_555
H9 C9 0.970 1_555 1_555
H10 C9 0.970 1_555 1_555
C10 C9 1.513 1_555 1_555
C11 C10 1.371 1_555 1_555
H11 C11 0.931 1_555 1_555
C12 C11 1.376 1_555 1_555
H12 C12 0.930 1_555 1_555
C13 C12 1.378 1_555 1_555
C14 C13 1.381 1_555 1_555
H13 C14 0.930 1_555 1_555
C15 C10 1.390 1_555 1_555
H14 C15 0.930 1_555 1_555
C16 C13 1.507 1_555 1_555
H15 C16 0.969 1_555 1_555
H16 C16 0.970 1_555 1_555
C17 C16 1.525 1_555 1_555
H17 C17 0.970 1_555 1_555
H18 C17 0.969 1_555 1_555
C18 C17 1.502 1_555 1_555
C19 C18 1.369 1_555 1_555
H19 C19 0.931 1_555 1_555
C20 C19 1.433 1_555 1_555
C21 C20 1.400 1_555 1_555
H20 C21 0.930 1_555 1_555
C22 C21 1.358 1_555 1_555
H21 C22 0.930 1_555 1_555
C23 C1 1.497 1_555 1_555
C24 C23 1.378 1_555 1_555
H22 C24 0.931 1_555 1_555
C25 C20 1.418 1_555 1_555
C26 C25 1.403 1_555 1_555
H23 C26 0.930 1_555 1_555
C27 C18 1.386 1_555 1_555
H24 C27 0.929 1_555 1_555
C7 C8 1.388 1_555 1_555
C14 C15 1.386 1_555 1_555
C22 C23 1.398 1_555 1_555
C24 C25 1.422 1_555 1_555
C26 C27 1.352 1_555 1_555
#END
