
#######################################################################
#
#                 Cambridge Crystallographic Data Centre
#                                CCDC
#
#######################################################################
#
# If this CIF has been generated from an entry in the Cambridge
# Structural Database, then it will include bibliographic, chemical,
# crystal, experimental, refinement or atomic coordinate data resulting
# from the CCDC's data processing and validation procedures.
#
#######################################################################

data_CSD_CIF_AYOCIA
_audit_creation_date 2004-10-19
_audit_creation_method CSD-ConQuest-V1
_database_code_CSD AYOCIA
_database_code_depnum_ccdc_archive 'CCDC 241753'
_chemical_formula_sum 'C23 H16'
_chemical_formula_moiety
;
C23 H16
;
_journal_coden_Cambridge 579
_journal_volume 23
_journal_year 2004
_journal_page_first 2884
_journal_name_full 'Organometallics '
loop_
_publ_author_name
"L.E.Harrington"
"L.S.Cahill"
"M.J.McGlinchey"
_chemical_name_systematic
;
9-(Indenyl)anthracene
;
_chemical_melting_point 415
_cell_volume   1570.364
_exptl_crystal_colour 'colorless'
_exptl_crystal_density_diffrn 1.237
_exptl_special_details
;
Melting point range 415-418K

;
_diffrn_ambient_temperature 143
#These two values have been output from a single CSD field.
_refine_ls_R_factor_gt 0.0502
_refine_ls_wR_factor_gt 0.0502
_symmetry_cell_setting monoclinic
_symmetry_space_group_name_H-M 'P 21/n'
_symmetry_Int_Tables_number 14
loop_
_symmetry_equiv_pos_site_id
_symmetry_equiv_pos_as_xyz
1 x,y,z
2 1/2+x,1/2-y,1/2+z
3 -x,-y,-z
4 -1/2-x,-1/2+y,-1/2-z
_cell_length_a 8.1708(3)
_cell_length_b 7.4691(2)
_cell_length_c 25.9547(8)
_cell_angle_alpha 90
_cell_angle_beta 97.517(2)
_cell_angle_gamma 90
_cell_formula_units_Z 4
loop_
_atom_type_symbol
_atom_type_radius_bond
C 0.68
H 0.23
loop_
_atom_site_label
_atom_site_type_symbol
_atom_site_fract_x
_atom_site_fract_y
_atom_site_fract_z
C1 C 0.33653(18) 0.32137(19) 0.09235(5)
H1 H 0.28140 0.21780 0.07760
C2 C 0.48254(19) 0.3697(2) 0.07703(6)
H2 H 0.52890 0.29920 0.05210
C3 C 0.56669(19) 0.5251(2) 0.09796(6)
H3 H 0.66810 0.55910 0.08660
C4 C 0.35176(17) 0.57740(18) 0.15207(5)
C5 C 0.50314(18) 0.6246(2) 0.13397(6)
H4 H 0.56070 0.72840 0.14750
C6 C 0.08768(17) 0.70905(19) 0.25315(5)
H5 H 0.14750 0.80900 0.26840
C7 C -0.04985(17) 0.6554(2) 0.27242(6)
H6 H -0.08360 0.71480 0.30160
C8 C -0.14415(18) 0.5100(2) 0.24901(6)
H7 H -0.24270 0.47470 0.26200
C9 C 0.05411(16) 0.46800(17) 0.18792(5)
C10 C -0.09385(17) 0.42114(19) 0.20812(6)
H8 H -0.15920 0.32530 0.19260
C11 C 0.11532(16) 0.37074(17) 0.14799(5)
C12 C 0.26380(17) 0.42220(17) 0.13009(5)
C13 C 0.14570(16) 0.61972(17) 0.21047(5)
C14 C 0.28996(17) 0.67118(17) 0.19161(5)
H9 H 0.34810 0.77330 0.20610
C15 C 0.02775(16) 0.20665(18) 0.12632(5)
C16 C 0.02315(19) 0.04766(18) 0.14986(6)
H10 H 0.07680 0.02240 0.18380
C17 C -0.13550(17) 0.02253(18) 0.06799(5)
C18 C -0.0775(2) -0.08590(19) 0.11587(6)
H11 H -0.17190 -0.13030 0.13260
H12 H -0.00930 -0.18880 0.10760
C19 C -0.23552(18) -0.0226(2) 0.02281(6)
H13 H -0.28150 -0.13930 0.01840
C20 C -0.26785(18) 0.1057(2) -0.01613(6)
H14 H -0.33670 0.07620 -0.04740
C21 C -0.20060(18) 0.2759(2) -0.00979(6)
H15 H -0.22290 0.36140 -0.03690
C22 C -0.06974(16) 0.19593(17) 0.07468(5)
C23 C -0.10098(17) 0.32290(18) 0.03576(5)
H16 H -0.05520 0.43970 0.04010
loop_
_geom_bond_atom_site_label_1
_geom_bond_atom_site_label_2
_geom_bond_distance
_geom_bond_site_symmetry_1
_geom_bond_site_symmetry_2
C1 H1 0.950 1_555 1_555
C2 C1 1.355 1_555 1_555
H2 C2 0.951 1_555 1_555
C3 C2 1.420 1_555 1_555
H3 C3 0.950 1_555 1_555
C4 C5 1.424 1_555 1_555
C5 C3 1.350 1_555 1_555
H4 C5 0.950 1_555 1_555
C6 H5 0.950 1_555 1_555
C7 C6 1.349 1_555 1_555
H6 C7 0.949 1_555 1_555
C8 C7 1.421 1_555 1_555
H7 C8 0.950 1_555 1_555
C9 C10 1.423 1_555 1_555
C10 C8 1.360 1_555 1_555
H8 C10 0.951 1_555 1_555
C11 C9 1.410 1_555 1_555
C12 C1 1.426 1_555 1_555
C13 C6 1.426 1_555 1_555
C14 C4 1.391 1_555 1_555
H9 C14 0.950 1_555 1_555
C15 C11 1.492 1_555 1_555
C16 C15 1.338 1_555 1_555
H10 C16 0.950 1_555 1_555
C17 C18 1.507 1_555 1_555
C18 C16 1.503 1_555 1_555
H11 C18 0.991 1_555 1_555
H12 C18 0.989 1_555 1_555
C19 C17 1.381 1_555 1_555
H13 C19 0.950 1_555 1_555
C20 C19 1.393 1_555 1_555
H14 C20 0.951 1_555 1_555
C21 C20 1.386 1_555 1_555
H15 C21 0.950 1_555 1_555
C22 C15 1.469 1_555 1_555
C23 C21 1.390 1_555 1_555
H16 C23 0.950 1_555 1_555
C4 C12 1.442 1_555 1_555
C9 C13 1.440 1_555 1_555
C11 C12 1.408 1_555 1_555
C13 C14 1.388 1_555 1_555
C17 C22 1.404 1_555 1_555
C22 C23 1.385 1_555 1_555
#END
