
#######################################################################
#
#                 Cambridge Crystallographic Data Centre
#                                CCDC
#
#######################################################################
#
# If this CIF has been generated from an entry in the Cambridge
# Structural Database, then it will include bibliographic, chemical,
# crystal, experimental, refinement or atomic coordinate data resulting
# from the CCDC's data processing and validation procedures.
#
#######################################################################

data_CSD_CIF_AZIWAJ
_audit_creation_date 2016-11-22
_audit_creation_method CSD-ConQuest-V1
_database_code_CSD AZIWAJ
_database_code_depnum_ccdc_archive 'CCDC 1497329'
_chemical_formula_sum 'C66 H58'
_chemical_formula_moiety
;
C66 H58
;
_journal_coden_Cambridge 179
_journal_volume 55
_journal_year 2016
_journal_page_first 15594
_journal_name_full 'Angew.Chem.,Int.Ed. '
loop_
_publ_author_name
"K.Baumgartner"
"Ana Lucia Meza Chincha"
"A.Dreuw"
"F.Rominger"
"M.Mastalerz"
_chemical_name_systematic
;
9,24,28,50-tetra-t-butyltetradecacyclo[34.6.6.2^12,19^.0^2,35^.0^4,33^.0^5,14^
.0^6,11^.0^13,18^.0^15,32^.0^16,25^.0^17,22^.0^26,31^.0^37,42^.0^43,48^]pentac
onta-2,4,6,8,10,12(50),13,15,17,19(49),20,22,24,26,28,30,32,34,37,39,41,43,45,
47-tetracosaene
;
_cell_volume   4770.845
_exptl_crystal_colour 'orange'
_exptl_crystal_density_diffrn 1.185
_exptl_crystal_description 'polyhedron'
_diffrn_ambient_temperature 200
#These two values have been output from a single CSD field.
_refine_ls_R_factor_gt 0.0707
_refine_ls_wR_factor_gt 0.0707
_symmetry_cell_setting monoclinic
_symmetry_space_group_name_H-M 'P 21/c'
_symmetry_Int_Tables_number 14
loop_
_symmetry_equiv_pos_site_id
_symmetry_equiv_pos_as_xyz
1 x,y,z
2 -x,1/2+y,1/2-z
3 -x,-y,-z
4 x,-1/2-y,-1/2+z
_cell_length_a 14.0133(17)
_cell_length_b 24.004(3)
_cell_length_c 14.1842(16)
_cell_angle_alpha 90
_cell_angle_beta 90.712(3)
_cell_angle_gamma 90
_cell_formula_units_Z 4
loop_
_atom_type_symbol
_atom_type_radius_bond
C 0.68
H 0.23
loop_
_atom_site_label
_atom_site_type_symbol
_atom_site_fract_x
_atom_site_fract_y
_atom_site_fract_z
C1 C 0.4723(4) 0.3578(3) 0.6575(4)
H1 H 0.53300 0.33930 0.67780
C2 C 0.3147(5) 0.4051(3) 0.6065(4)
H2 H 0.25350 0.42340 0.58680
C3 C 0.5728(4) 0.3581(3) 0.2352(4)
C4 C 0.6347(4) 0.3279(3) 0.1727(4)
C5 C 0.5994(4) 0.3120(3) 0.0828(4)
C6 C 0.5062(4) 0.3296(3) 0.0505(4)
C7 C 0.4487(4) 0.3636(3) 0.1074(4)
C8 C 0.4799(4) 0.3759(3) 0.2030(4)
C9 C 0.4494(5) 0.4090(3) 0.7154(5)
C10 C 0.4993(5) 0.4289(3) 0.7919(5)
H3 H 0.55630 0.41060 0.81150
C11 C 0.4685(6) 0.4750(3) 0.8410(5)
H4 H 0.50320 0.48820 0.89450
C12 C 0.3849(6) 0.5018(3) 0.8103(5)
H5 H 0.36370 0.53430 0.84190
C13 C 0.3329(5) 0.4813(3) 0.7344(5)
H6 H 0.27560 0.49930 0.71500
C14 C 0.3641(5) 0.4351(3) 0.6869(4)
C15 C 0.3857(5) 0.3196(3) 0.6639(4)
C16 C 0.3854(5) 0.2646(3) 0.6925(4)
H7 H 0.44380 0.24610 0.70670
C17 C 0.2992(5) 0.2365(3) 0.7003(5)
H8 H 0.29790 0.19880 0.72020
C18 C 0.2165(5) 0.2638(3) 0.6790(5)
H9 H 0.15770 0.24490 0.68760
C19 C 0.2145(5) 0.3180(3) 0.6454(5)
H10 H 0.15610 0.33540 0.62730
C20 C 0.3007(5) 0.3460(3) 0.6391(4)
C21 C 0.4739(4) 0.3777(3) 0.5555(4)
C22 C 0.5443(4) 0.3698(3) 0.4923(4)
H11 H 0.60420 0.35580 0.51350
C23 C 0.5307(4) 0.3819(3) 0.3956(4)
C24 C 0.6026(4) 0.3691(3) 0.3271(4)
C25 C 0.7046(4) 0.3697(3) 0.3455(4)
C26 C 0.7449(5) 0.4022(3) 0.4181(4)
H12 H 0.70400 0.41730 0.46460
C27 C 0.8404(4) 0.4129(3) 0.4244(4)
H13 H 0.86490 0.43470 0.47510
C28 C 0.9028(4) 0.3917(3) 0.3559(5)
C29 C 0.8639(4) 0.3589(3) 0.2856(5)
H14 H 0.90490 0.34510 0.23820
C30 C 0.7660(4) 0.3447(3) 0.2805(4)
C31 C 0.7285(4) 0.3129(3) 0.2017(4)
C32 C 0.7779(4) 0.2710(3) 0.1482(5)
C33 C 0.7424(4) 0.2581(3) 0.0600(4)
H15 H 0.77830 0.23360 0.02170
C34 C 0.6559(4) 0.2793(3) 0.0235(4)
C35 C 0.6220(5) 0.2655(3) -0.0682(5)
H16 H 0.66100 0.24420 -0.10900
C36 C 0.5347(5) 0.2824(3) -0.0981(5)
H17 H 0.51320 0.27270 -0.15970
C37 C 0.4748(4) 0.3144(3) -0.0395(4)
C38 C 0.3790(4) 0.3264(3) -0.0637(5)
H18 H 0.35540 0.31260 -0.12230
C39 C 0.3171(4) 0.3565(3) -0.0089(4)
C40 C 0.3578(4) 0.3815(3) 0.0745(4)
C41 C 0.3170(4) 0.4279(3) 0.1256(4)
C42 C 0.2610(4) 0.4682(3) 0.0784(5)
H19 H 0.24600 0.46230 0.01360
C43 C 0.2275(4) 0.5148(3) 0.1201(5)
C44 C 0.2520(4) 0.5239(3) 0.2161(5)
H20 H 0.22750 0.55550 0.24780
C45 C 0.3101(5) 0.4877(3) 0.2632(5)
H21 H 0.32700 0.49540 0.32690
C46 C 0.3463(4) 0.4388(3) 0.2204(4)
C47 C 0.4212(4) 0.4052(3) 0.2639(4)
C48 C 0.4399(4) 0.4020(3) 0.3635(4)
C49 C 0.3701(4) 0.4124(3) 0.4327(4)
H22 H 0.31030 0.42770 0.41360
C50 C 0.3858(4) 0.4013(3) 0.5261(4)
C51 C 1.0078(5) 0.4088(4) 0.3574(5)
C52 C 1.0627(5) 0.3864(5) 0.2781(6)
H23 H 1.03230 0.39760 0.21850
H24 H 1.12800 0.40100 0.28100
H25 H 1.06440 0.34560 0.28210
C53 C 1.0519(6) 0.3927(5) 0.4504(6)
H26 H 1.01390 0.40820 0.50170
H27 H 1.05350 0.35200 0.45570
H28 H 1.11700 0.40740 0.45460
C54 C 1.0165(7) 0.4721(4) 0.3550(7)
H29 H 0.98050 0.48820 0.40720
H30 H 1.08380 0.48260 0.36130
H31 H 0.99080 0.48610 0.29500
C55 C 0.8602(5) 0.2329(3) 0.1835(5)
C56 C 0.8322(5) 0.1720(3) 0.1595(5)
H32 H 0.81820 0.16890 0.09190
H33 H 0.88520 0.14710 0.17630
H34 H 0.77560 0.16150 0.19530
C57 C 0.9524(5) 0.2464(3) 0.1297(5)
H35 H 0.93890 0.24600 0.06180
H36 H 0.97560 0.28330 0.14840
H37 H 1.00110 0.21840 0.14480
C58 C 0.8805(5) 0.2335(3) 0.2897(5)
H38 H 0.82170 0.22490 0.32350
H39 H 0.92910 0.20540 0.30500
H40 H 0.90370 0.27040 0.30860
C59 C 0.2091(4) 0.3518(3) -0.0373(4)
C60 C 0.1884(5) 0.2902(3) -0.0626(5)
H41 H 0.20130 0.26660 -0.00750
H42 H 0.12140 0.28620 -0.08190
H43 H 0.22950 0.27870 -0.11450
C61 C 0.1882(5) 0.3867(3) -0.1247(4)
H44 H 0.23300 0.37660 -0.17440
H45 H 0.12270 0.37950 -0.14670
H46 H 0.19540 0.42630 -0.10930
C62 C 0.1409(4) 0.3660(3) 0.0427(4)
H47 H 0.15620 0.34290 0.09790
H48 H 0.14770 0.40540 0.05940
H49 H 0.07510 0.35870 0.02210
C63 C 0.1693(5) 0.5590(3) 0.0674(5)
C64 C 0.1442(6) 0.5413(3) -0.0329(5)
H50 H 0.10700 0.50670 -0.03150
H51 H 0.10650 0.57060 -0.06380
H52 H 0.20300 0.53510 -0.06820
C65 C 0.0776(5) 0.5704(4) 0.1192(5)
H53 H 0.03990 0.53600 0.12260
H54 H 0.09260 0.58340 0.18310
H55 H 0.04090 0.59900 0.08540
C66 C 0.2265(6) 0.6122(3) 0.0628(6)
H56 H 0.28610 0.60530 0.02940
H57 H 0.18940 0.64080 0.02920
H58 H 0.24110 0.62520 0.12690
loop_
_geom_bond_atom_site_label_1
_geom_bond_atom_site_label_2
_geom_bond_distance
_geom_bond_site_symmetry_1
_geom_bond_site_symmetry_2
C1 H1 0.999 1_555 1_555
C2 H2 1.000 1_555 1_555
C3 C4 1.443 1_555 1_555
C4 C5 1.414 1_555 1_555
C5 C6 1.442 1_555 1_555
C6 C7 1.408 1_555 1_555
C7 C8 1.450 1_555 1_555
C8 C3 1.439 1_555 1_555
C9 C1 1.515 1_555 1_555
C10 C9 1.370 1_555 1_555
H3 C10 0.950 1_555 1_555
C11 C10 1.380 1_555 1_555
H4 C11 0.951 1_555 1_555
C12 C11 1.401 1_555 1_555
H5 C12 0.949 1_555 1_555
C13 C12 1.383 1_555 1_555
H6 C13 0.950 1_555 1_555
C14 C2 1.510 1_555 1_555
C15 C1 1.525 1_555 1_555
C16 C15 1.381 1_555 1_555
H7 C16 0.950 1_555 1_555
C17 C16 1.389 1_555 1_555
H8 C17 0.948 1_555 1_555
C18 C17 1.362 1_555 1_555
H9 C18 0.950 1_555 1_555
C19 C18 1.386 1_555 1_555
H10 C19 0.951 1_555 1_555
C20 C2 1.506 1_555 1_555
C21 C1 1.524 1_555 1_555
C22 C21 1.355 1_555 1_555
H11 C22 0.950 1_555 1_555
C23 C22 1.413 1_555 1_555
C24 C3 1.389 1_555 1_555
C25 C24 1.450 1_555 1_555
C26 C25 1.405 1_555 1_555
H12 C26 0.951 1_555 1_555
C27 C26 1.365 1_555 1_555
H13 C27 0.950 1_555 1_555
C28 C27 1.410 1_555 1_555
C29 C28 1.378 1_555 1_555
H14 C29 0.949 1_555 1_555
C30 C25 1.404 1_555 1_555
C31 C4 1.419 1_555 1_555
C32 C31 1.442 1_555 1_555
C33 C32 1.376 1_555 1_555
H15 C33 0.949 1_555 1_555
C34 C5 1.403 1_555 1_555
C35 C34 1.418 1_555 1_555
H16 C35 0.950 1_555 1_555
C36 C35 1.352 1_555 1_555
H17 C36 0.950 1_555 1_555
C37 C6 1.394 1_555 1_555
C38 C37 1.411 1_555 1_555
H18 C38 0.950 1_555 1_555
C39 C38 1.377 1_555 1_555
C40 C7 1.418 1_555 1_555
C41 C40 1.450 1_555 1_555
C42 C41 1.410 1_555 1_555
H19 C42 0.951 1_555 1_555
C43 C42 1.352 1_555 1_555
C44 C43 1.417 1_555 1_555
H20 C44 0.948 1_555 1_555
C45 C44 1.360 1_555 1_555
H21 C45 0.949 1_555 1_555
C46 C41 1.425 1_555 1_555
C47 C8 1.391 1_555 1_555
C48 C23 1.430 1_555 1_555
C49 C48 1.416 1_555 1_555
H22 C49 0.951 1_555 1_555
C50 C2 1.526 1_555 1_555
C51 C28 1.527 1_555 1_555
C52 C51 1.472 1_555 1_555
H23 C52 0.980 1_555 1_555
H24 C52 0.980 1_555 1_555
H25 C52 0.981 1_555 1_555
C53 C51 1.500 1_555 1_555
H26 C53 0.980 1_555 1_555
H27 C53 0.980 1_555 1_555
H28 C53 0.979 1_555 1_555
C54 C51 1.525 1_555 1_555
H29 C54 0.980 1_555 1_555
H30 C54 0.979 1_555 1_555
H31 C54 0.979 1_555 1_555
C55 C32 1.550 1_555 1_555
C56 C55 1.550 1_555 1_555
H32 C56 0.979 1_555 1_555
H33 C56 0.980 1_555 1_555
H34 C56 0.980 1_555 1_555
C57 C55 1.543 1_555 1_555
H35 C57 0.979 1_555 1_555
H36 C57 0.979 1_555 1_555
H37 C57 0.980 1_555 1_555
C58 C55 1.530 1_555 1_555
H38 C58 0.980 1_555 1_555
H39 C58 0.981 1_555 1_555
H40 C58 0.980 1_555 1_555
C59 C39 1.565 1_555 1_555
C60 C59 1.548 1_555 1_555
H41 C60 0.980 1_555 1_555
H42 C60 0.979 1_555 1_555
H43 C60 0.980 1_555 1_555
C61 C59 1.522 1_555 1_555
H44 C61 0.980 1_555 1_555
H45 C61 0.981 1_555 1_555
H46 C61 0.980 1_555 1_555
C62 C59 1.531 1_555 1_555
H47 C62 0.981 1_555 1_555
H48 C62 0.979 1_555 1_555
H49 C62 0.980 1_555 1_555
C63 C43 1.528 1_555 1_555
C64 C63 1.522 1_555 1_555
H50 C64 0.981 1_555 1_555
H51 C64 0.980 1_555 1_555
H52 C64 0.981 1_555 1_555
C65 C63 1.513 1_555 1_555
H53 C65 0.982 1_555 1_555
H54 C65 0.979 1_555 1_555
H55 C65 0.980 1_555 1_555
C66 C63 1.510 1_555 1_555
H56 C66 0.979 1_555 1_555
H57 C66 0.981 1_555 1_555
H58 C66 0.980 1_555 1_555
C9 C14 1.405 1_555 1_555
C13 C14 1.372 1_555 1_555
C15 C20 1.391 1_555 1_555
C19 C20 1.386 1_555 1_555
C21 C50 1.416 1_555 1_555
C23 C24 1.442 1_555 1_555
C29 C30 1.415 1_555 1_555
C30 C31 1.447 1_555 1_555
C33 C34 1.407 1_555 1_555
C36 C37 1.415 1_555 1_555
C39 C40 1.438 1_555 1_555
C45 C46 1.418 1_555 1_555
C46 C47 1.455 1_555 1_555
C47 C48 1.436 1_555 1_555
C49 C50 1.366 1_555 1_555
#END
