
#######################################################################
#
#                 Cambridge Crystallographic Data Centre
#                                CCDC
#
#######################################################################
#
# If this CIF has been generated from an entry in the Cambridge
# Structural Database, then it will include bibliographic, chemical,
# crystal, experimental, refinement or atomic coordinate data resulting
# from the CCDC's data processing and validation procedures.
#
#######################################################################

data_CSD_CIF_AZOYIY
_audit_creation_date 2011-11-29
_audit_creation_method CSD-ConQuest-V1
_database_code_CSD AZOYIY
_database_code_depnum_ccdc_archive 'CCDC 850533'
_chemical_formula_sum 'C28 H32'
_chemical_formula_moiety
;
C28 H32
;
_journal_coeditor_code "IUCr LD2024"
_journal_coden_Cambridge 1370
_journal_volume 67
_journal_year 2011
_journal_page_first o2611
_journal_name_full 'Acta Crystallogr.,Sect.E:Struct.Rep.Online '
loop_
_publ_author_name
"C.Kitamura"
"H.Kano"
"T.Kawase"
"T.Kobayashi"
"H.Naito"
_chemical_name_systematic
;
1,7-Diethyl-4,10-diisopropyltetracene
;
_cell_volume   1060.965
_exptl_crystal_colour 'yellow'
_exptl_crystal_density_diffrn 1.154
_exptl_crystal_description 'prism'
_exptl_crystal_preparation 'diethyl ether'
_diffrn_ambient_temperature 203
#These two values have been output from a single CSD field.
_refine_ls_R_factor_gt 0.0814
_refine_ls_wR_factor_gt 0.0814
_symmetry_cell_setting monoclinic
_symmetry_space_group_name_H-M 'P 21/n'
_symmetry_Int_Tables_number 14
loop_
_symmetry_equiv_pos_site_id
_symmetry_equiv_pos_as_xyz
1 x,y,z
2 1/2-x,1/2+y,1/2-z
3 -x,-y,-z
4 -1/2+x,-1/2-y,-1/2+z
_cell_length_a 12.901(4)
_cell_length_b 5.057(2)
_cell_length_c 16.962(6)
_cell_angle_alpha 90
_cell_angle_beta 106.513(9)
_cell_angle_gamma 90
_cell_formula_units_Z 2
loop_
_atom_type_symbol
_atom_type_radius_bond
C 0.68
H 0.23
loop_
_atom_site_label
_atom_site_type_symbol
_atom_site_fract_x
_atom_site_fract_y
_atom_site_fract_z
C1 C 0.2359(2) 0.9140(5) -0.04992(16)
C2 C 0.3434(2) 0.8926(5) -0.01162(17)
H1 H 0.39180 1.00270 -0.02860
C3 C 0.3853(2) 0.7094(5) 0.05323(17)
H2 H 0.46060 0.70050 0.07660
C4 C 0.32137(19) 0.5464(5) 0.08311(16)
C5 C 0.20585(18) 0.5603(5) 0.04493(15)
C6 C 0.16283(19) 0.7463(4) -0.02117(16)
C7 C 0.05225(19) 0.7561(5) -0.05762(16)
H3 H 0.02500 0.87650 -0.10080
C8 C -0.02107(19) 0.5923(5) -0.03256(16)
C9 C -0.13335(19) 0.6016(5) -0.06961(16)
H4 H -0.16060 0.72200 -0.11280
C10 C 0.1906(2) 1.0987(5) -0.12112(17)
H5 H 0.13950 1.21880 -0.10630
H6 H 0.14970 0.99370 -0.16830
C11 C 0.2731(2) 1.2644(6) -0.14795(19)
H7 H 0.32200 1.14860 -0.16580
H8 H 0.31400 1.37120 -0.10210
H9 H 0.23600 1.37890 -0.19300
C12 C 0.36829(19) 0.3617(5) 0.15477(17)
H10 H 0.32690 0.19430 0.14370
C13 C 0.4870(2) 0.2951(6) 0.16758(19)
H11 H 0.53060 0.45200 0.18550
H12 H 0.49740 0.23240 0.11630
H13 H 0.50880 0.15830 0.20910
C14 C 0.3535(2) 0.4794(6) 0.23422(18)
H14 H 0.27720 0.50900 0.22760
H15 H 0.39200 0.64620 0.24600
H16 H 0.38190 0.35760 0.27940
C1B C -0.2359(2) 0.0860(5) 0.04992(16)
C2B C -0.3434(2) 0.1074(5) 0.01162(17)
H1B H -0.39180 -0.00270 0.02860
C3B C -0.3853(2) 0.2906(5) -0.05323(17)
H2B H -0.46060 0.29950 -0.07660
C4B C -0.32137(19) 0.4536(5) -0.08311(16)
C5B C -0.20585(18) 0.4397(5) -0.04493(15)
C6B C -0.16283(19) 0.2537(4) 0.02117(16)
C7B C -0.05225(19) 0.2439(5) 0.05762(16)
H3B H -0.02500 0.12350 0.10080
C8B C 0.02107(19) 0.4077(5) 0.03256(16)
C9B C 0.13335(19) 0.3984(5) 0.06961(16)
H4B H 0.16060 0.27800 0.11280
C10B C -0.1906(2) -0.0987(5) 0.12112(17)
H5B H -0.13950 -0.21880 0.10630
H6B H -0.14970 0.00630 0.16830
C11B C -0.2731(2) -0.2644(6) 0.14795(19)
H7B H -0.32200 -0.14860 0.16580
H8B H -0.31400 -0.37120 0.10210
H9B H -0.23600 -0.37890 0.19300
C12B C -0.36829(19) 0.6383(5) -0.15477(17)
H10B H -0.32690 0.80570 -0.14370
C13B C -0.4870(2) 0.7049(6) -0.16758(19)
H11B H -0.53060 0.54800 -0.18550
H12B H -0.49740 0.76760 -0.11630
H13B H -0.50880 0.84170 -0.20910
C14B C -0.3535(2) 0.5206(6) -0.23422(18)
H14B H -0.27720 0.49100 -0.22760
H15B H -0.39200 0.35380 -0.24600
H16B H -0.38190 0.64240 -0.27940
loop_
_geom_bond_atom_site_label_1
_geom_bond_atom_site_label_2
_geom_bond_distance
_geom_bond_site_symmetry_1
_geom_bond_site_symmetry_2
C1 C2 1.358 1_555 1_555
C2 H1 0.941 1_555 1_555
C3 C2 1.422 1_555 1_555
H2 C3 0.940 1_555 1_555
C4 C3 1.362 1_555 1_555
C5 C4 1.448 1_555 1_555
C6 C1 1.452 1_555 1_555
C7 C6 1.385 1_555 1_555
H3 C7 0.940 1_555 1_555
C8 C7 1.411 1_555 1_555
C9 C8 1.406 1_555 1_555
H4 C9 0.941 1_555 1_555
C10 C1 1.507 1_555 1_555
H5 C10 0.980 1_555 1_555
H6 C10 0.980 1_555 1_555
C11 C10 1.522 1_555 1_555
H7 C11 0.970 1_555 1_555
H8 C11 0.970 1_555 1_555
H9 C11 0.970 1_555 1_555
C12 C4 1.516 1_555 1_555
H10 C12 0.990 1_555 1_555
C13 C12 1.522 1_555 1_555
H11 C13 0.970 1_555 1_555
H12 C13 0.970 1_555 1_555
H13 C13 0.970 1_555 1_555
C14 C12 1.534 1_555 1_555
H14 C14 0.970 1_555 1_555
H15 C14 0.970 1_555 1_555
H16 C14 0.970 1_555 1_555
C1B C2B 1.358 1_555 1_555
C2B H1B 0.941 1_555 1_555
C3B C2B 1.422 1_555 1_555
H2B C3B 0.940 1_555 1_555
C4B C3B 1.362 1_555 1_555
C5B C9 1.394 1_555 1_555
C6B C1B 1.452 1_555 1_555
C7B C6B 1.385 1_555 1_555
H3B C7B 0.940 1_555 1_555
C8B C8 1.430 1_555 1_555
C9B C5 1.394 1_555 1_555
H4B C9B 0.941 1_555 1_555
C10B C1B 1.507 1_555 1_555
H5B C10B 0.980 1_555 1_555
H6B C10B 0.980 1_555 1_555
C11B C10B 1.522 1_555 1_555
H7B C11B 0.970 1_555 1_555
H8B C11B 0.970 1_555 1_555
H9B C11B 0.970 1_555 1_555
C12B C4B 1.516 1_555 1_555
H10B C12B 0.990 1_555 1_555
C13B C12B 1.522 1_555 1_555
H11B C13B 0.970 1_555 1_555
H12B C13B 0.970 1_555 1_555
H13B C13B 0.970 1_555 1_555
C14B C12B 1.534 1_555 1_555
H14B C14B 0.970 1_555 1_555
H15B C14B 0.970 1_555 1_555
H16B C14B 0.970 1_555 1_555
C5 C6 1.448 1_555 1_555
C4B C5B 1.448 1_555 1_555
C5B C6B 1.448 1_555 1_555
C7B C8B 1.411 1_555 1_555
C8B C9B 1.406 1_555 1_555
#END
