
#######################################################################
#
#                 Cambridge Crystallographic Data Centre
#                                CCDC
#
#######################################################################
#
# If this CIF has been generated from an entry in the Cambridge
# Structural Database, then it will include bibliographic, chemical,
# crystal, experimental, refinement or atomic coordinate data resulting
# from the CCDC's data processing and validation procedures.
#
#######################################################################

data_CSD_CIF_BACXOS01
_audit_creation_date 2007-06-28
_audit_creation_method CSD-ConQuest-V1
_database_code_CSD BACXOS01
_database_code_depnum_ccdc_archive 'CCDC 643131'
_chemical_formula_sum 'C31 H24'
_chemical_formula_moiety
;
C31 H24
;
_journal_coeditor_code "IUCr WK2044"
_journal_coden_Cambridge 1370
_journal_volume 63
_journal_year 2007
_journal_page_first o1800
_journal_name_full 'Acta Crystallogr.,Sect.E:Struct.Rep.Online '
loop_
_publ_author_name
"M.Arslan"
"E.Asker"
"J.Masnovi"
"R.J.Baker"
_chemical_name_systematic
;
1,3-Di-9-anthrylpropane
;
_chemical_melting_point 468
_cell_volume   6517.406
_exptl_crystal_colour 'yellow'
_exptl_crystal_density_diffrn 1.212
_exptl_special_details
;
Melting point range 468-469K

;
_exptl_crystal_description 'cube'
_exptl_crystal_preparation 'hexane/dichloromethane'
_diffrn_ambient_temperature 295
#These two values have been output from a single CSD field.
_refine_ls_R_factor_gt 0.0436
_refine_ls_wR_factor_gt 0.0436
_symmetry_cell_setting orthorhombic
_symmetry_space_group_name_H-M 'P 21 21 21'
_symmetry_Int_Tables_number 19
loop_
_symmetry_equiv_pos_site_id
_symmetry_equiv_pos_as_xyz
1 x,y,z
2 1/2-x,-y,1/2+z
3 1/2+x,1/2-y,-z
4 -x,1/2+y,1/2-z
_cell_length_a 13.478(2)
_cell_length_b 19.1167(14)
_cell_length_c 25.2951(17)
_cell_angle_alpha 90
_cell_angle_beta 90
_cell_angle_gamma 90
_cell_formula_units_Z 12
loop_
_atom_type_symbol
_atom_type_radius_bond
C 0.68
H 0.23
loop_
_atom_site_label
_atom_site_type_symbol
_atom_site_fract_x
_atom_site_fract_y
_atom_site_fract_z
C1 C 0.2641(3) 0.5128(2) 0.15327(14)
H1 H 0.20030 0.49860 0.14450
C2 C 0.2918(4) 0.5786(2) 0.14214(16)
H2 H 0.24690 0.60900 0.12610
C3 C 0.3868(5) 0.6019(2) 0.15435(19)
H3 H 0.40500 0.64750 0.14600
C4 C 0.4533(4) 0.5590(3) 0.17826(16)
H4 H 0.51640 0.57540 0.18650
C5 C 0.4260(3) 0.4882(2) 0.19086(13)
C6 C 0.4916(3) 0.4431(3) 0.21520(14)
H5 H 0.55550 0.45860 0.22250
C7 C 0.4656(3) 0.3757(2) 0.22916(14)
C8 C 0.5314(4) 0.3299(3) 0.25529(19)
H6 H 0.59530 0.34510 0.26310
C9 C 0.5042(5) 0.2652(4) 0.2691(2)
H7 H 0.54970 0.23580 0.28570
C10 C 0.4086(4) 0.2414(3) 0.2590(2)
H8 H 0.39020 0.19680 0.26990
C11 C 0.3415(3) 0.2826(2) 0.23333(16)
H9 H 0.27810 0.26560 0.22650
C12 C 0.3677(3) 0.35143(19) 0.21689(13)
C13 C 0.3009(2) 0.39509(18) 0.19015(12)
C14 C 0.3288(2) 0.46373(19) 0.17806(12)
C15 C 0.1972(2) 0.37153(19) 0.17555(13)
H10 H 0.19640 0.32100 0.17250
H11 H 0.17990 0.39090 0.14130
C16 C 0.1191(2) 0.3941(2) 0.21631(13)
H12 H 0.12500 0.36490 0.24750
H13 H 0.13190 0.44210 0.22680
C17 C 0.0150(2) 0.3886(2) 0.19484(13)
H14 H 0.00140 0.34000 0.18650
H15 H 0.01120 0.41500 0.16210
C18 C -0.0646(2) 0.4149(2) 0.23188(13)
C19 C -0.1138(2) 0.36860(19) 0.26588(13)
C20 C -0.0916(3) 0.2954(2) 0.26877(17)
H16 H -0.04120 0.27730 0.24780
C21 C -0.1427(3) 0.2517(2) 0.30157(19)
H17 H -0.12820 0.20420 0.30190
C22 C -0.2169(3) 0.2782(3) 0.33477(19)
H18 H -0.25070 0.24820 0.35740
C23 C -0.2397(3) 0.3463(2) 0.33418(17)
H19 H -0.28860 0.36290 0.35690
C24 C -0.1909(2) 0.3937(2) 0.29971(14)
C25 C -0.2175(3) 0.4634(2) 0.29794(14)
H20 H -0.26900 0.47930 0.31930
C26 C -0.1691(3) 0.5103(2) 0.26510(14)
C27 C -0.1965(3) 0.5828(2) 0.26341(18)
H21 H -0.24790 0.59870 0.28480
C28 C -0.1491(4) 0.6282(3) 0.2314(2)
H22 H -0.16810 0.67490 0.23070
C29 C -0.0710(4) 0.6047(3) 0.1991(2)
H23 H -0.03790 0.63620 0.17740
C30 C -0.0437(3) 0.5369(2) 0.19930(16)
H24 H 0.00820 0.52300 0.17750
C31 C -0.0911(2) 0.4856(2) 0.23160(13)
C32 C -0.4132(3) 0.6551(2) 0.37783(16)
H25 H -0.46240 0.65940 0.35230
C33 C -0.3619(4) 0.7133(2) 0.3932(2)
H26 H -0.37760 0.75650 0.37860
C34 C -0.2871(4) 0.7087(3) 0.4302(2)
H27 H -0.25260 0.74880 0.43990
C35 C -0.2634(3) 0.6471(3) 0.45236(19)
H28 H -0.21270 0.64500 0.47720
C36 C -0.3153(3) 0.5845(2) 0.43821(15)
C37 C -0.2927(3) 0.5213(3) 0.46072(16)
H29 H -0.24070 0.51880 0.48480
C38 C -0.3447(3) 0.4614(2) 0.44873(15)
C39 C -0.3226(4) 0.3966(3) 0.4727(2)
H30 H -0.27110 0.39430 0.49710
C40 C -0.3733(5) 0.3381(3) 0.4616(2)
H31 H -0.35740 0.29640 0.47850
C41 C -0.4505(4) 0.3399(3) 0.4243(2)
H32 H -0.48530 0.29910 0.41670
C42 C -0.4752(3) 0.4005(2) 0.39902(18)
H33 H -0.52640 0.40070 0.37440
C43 C -0.4228(3) 0.4637(2) 0.41029(14)
C44 C -0.4456(2) 0.52750(18) 0.38519(12)
C45 C -0.3932(2) 0.58780(19) 0.40002(13)
C46 C -0.5245(2) 0.5289(2) 0.34326(13)
H34 H -0.51750 0.48750 0.32140
H35 H -0.51350 0.56930 0.32080
C47 C -0.6308(2) 0.53173(19) 0.36429(12)
H36 H -0.63960 0.49570 0.39090
H37 H -0.64210 0.57670 0.38100
C48 C -0.7069(2) 0.52122(19) 0.32017(12)
H38 H -0.70930 0.56310 0.29860
H39 H -0.68530 0.48290 0.29780
C49 C -0.8101(2) 0.50550(18) 0.34059(12)
C50 C -0.8359(2) 0.43663(18) 0.35291(12)
C51 C -0.7685(3) 0.3788(2) 0.34762(14)
H40 H -0.70440 0.38690 0.33540
C52 C -0.7963(4) 0.3130(2) 0.36009(18)
H41 H -0.75130 0.27660 0.35610
C53 C -0.8916(5) 0.2988(3) 0.37892(19)
H42 H -0.90940 0.25310 0.38740
C54 C -0.9577(4) 0.3510(3) 0.38490(16)
H43 H -1.02070 0.34090 0.39780
C55 C -0.9332(3) 0.4215(2) 0.37188(13)
C56 C -1.0010(3) 0.4754(2) 0.37738(13)
H44 H -1.06500 0.46510 0.38860
C57 C -0.9764(3) 0.5440(2) 0.36674(13)
C58 C -1.0456(3) 0.6001(3) 0.37440(15)
H45 H -1.11010 0.58980 0.38470
C59 C -1.0198(4) 0.6668(3) 0.36711(18)
H46 H -1.06560 0.70230 0.37300
C60 C -0.9233(4) 0.6828(2) 0.35052(17)
H47 H -0.90490 0.72940 0.34620
C61 C -0.8564(3) 0.6317(2) 0.34072(15)
H48 H -0.79370 0.64400 0.32850
C62 C -0.8789(3) 0.55987(19) 0.34847(12)
C63 C 0.5307(3) 0.5831(2) 0.02686(15)
H49 H 0.48260 0.57170 0.00190
C64 C 0.5558(3) 0.6510(2) 0.03419(18)
H50 H 0.52390 0.68550 0.01460
C65 C 0.6287(3) 0.6699(2) 0.07063(19)
H51 H 0.64480 0.71680 0.07530
C66 C 0.6758(3) 0.6204(2) 0.09914(16)
H52 H 0.72460 0.63360 0.12310
C67 C 0.6519(2) 0.54854(19) 0.09302(13)
C68 C 0.6983(3) 0.4970(2) 0.12245(14)
H53 H 0.74830 0.50970 0.14590
C69 C 0.6730(2) 0.42731(19) 0.11809(13)
C70 C 0.7203(3) 0.3758(2) 0.14946(17)
H54 H 0.77010 0.38930 0.17280
C71 C 0.6950(3) 0.3081(2) 0.14639(19)
H55 H 0.72680 0.27530 0.16770
C72 C 0.6203(3) 0.2864(2) 0.11093(19)
H56 H 0.60390 0.23920 0.10830
C73 C 0.5722(3) 0.3345(2) 0.08049(16)
H57 H 0.52170 0.31960 0.05810
C74 C 0.5970(2) 0.40649(18) 0.08204(13)
C75 C 0.5499(2) 0.45740(19) 0.05031(12)
C76 C 0.5765(2) 0.52865(19) 0.05652(13)
C77 C 0.4699(2) 0.4377(2) 0.01102(13)
H58 H 0.47830 0.38900 0.00130
H59 H 0.47860 0.46560 -0.02070
C78 C 0.3645(2) 0.44831(19) 0.03162(12)
H60 H 0.34920 0.41160 0.05680
H61 H 0.36110 0.49260 0.05020
C79 C 0.2869(2) 0.4477(2) -0.01217(13)
H62 H 0.30850 0.47820 -0.04060
H63 H 0.28120 0.40070 -0.02630
C80 C 0.1864(2) 0.47158(19) 0.00730(12)
C81 C 0.1114(3) 0.42385(18) 0.02068(13)
C82 C 0.1198(3) 0.3503(2) 0.01235(15)
H64 H 0.17740 0.33240 -0.00270
C83 C 0.0455(4) 0.3061(2) 0.0259(2)
H65 H 0.05370 0.25840 0.02030
C84 C -0.0429(4) 0.3302(3) 0.0478(2)
H66 H -0.09300 0.29880 0.05670
C85 C -0.0550(3) 0.3987(3) 0.05604(16)
H67 H -0.11440 0.41470 0.07040
C86 C 0.0208(3) 0.4479(2) 0.04331(13)
C87 C 0.0091(3) 0.5189(2) 0.05316(14)
H68 H -0.04910 0.53450 0.06900
C88 C 0.0814(3) 0.5669(2) 0.04001(15)
C89 C 0.0685(4) 0.6401(3) 0.05033(18)
H69 H 0.01100 0.65570 0.06680
C90 C 0.1396(6) 0.6866(3) 0.0363(2)
H70 H 0.13240 0.73370 0.04470
C91 C 0.2243(5) 0.6636(3) 0.0090(2)
H71 H 0.27060 0.69620 -0.00270
C92 C 0.2394(3) 0.5958(3) -0.00049(16)
H72 H 0.29710 0.58210 -0.01790
C93 C 0.1700(3) 0.54366(19) 0.01523(13)
loop_
_geom_bond_atom_site_label_1
_geom_bond_atom_site_label_2
_geom_bond_distance
_geom_bond_site_symmetry_1
_geom_bond_site_symmetry_2
C1 H1 0.929 1_555 1_555
C2 C1 1.342 1_555 1_555
H2 C2 0.932 1_555 1_555
C3 C2 1.390 1_555 1_555
H3 C3 0.930 1_555 1_555
C4 C3 1.357 1_555 1_555
H4 C4 0.930 1_555 1_555
C5 C4 1.438 1_555 1_555
C6 C5 1.380 1_555 1_555
H5 C6 0.929 1_555 1_555
C7 C6 1.381 1_555 1_555
C8 C7 1.411 1_555 1_555
H6 C8 0.930 1_555 1_555
C9 C8 1.336 1_555 1_555
H7 C9 0.932 1_555 1_555
C10 C9 1.390 1_555 1_555
H8 C10 0.930 1_555 1_555
C11 C10 1.364 1_555 1_555
H9 C11 0.930 1_555 1_555
C12 C7 1.433 1_555 1_555
C13 C12 1.402 1_555 1_555
C14 C1 1.426 1_555 1_555
C15 C13 1.514 1_555 1_555
H10 C15 0.969 1_555 1_555
H11 C15 0.971 1_555 1_555
C16 C15 1.535 1_555 1_555
H12 C16 0.970 1_555 1_555
H13 C16 0.971 1_555 1_555
C17 C16 1.508 1_555 1_555
H14 C17 0.970 1_555 1_555
H15 C17 0.971 1_555 1_555
C18 C17 1.511 1_555 1_555
C19 C18 1.401 1_555 1_555
C20 C19 1.433 1_555 1_555
H16 C20 0.929 1_555 1_555
C21 C20 1.364 1_555 1_555
H17 C21 0.929 1_555 1_555
C22 C21 1.401 1_555 1_555
H18 C22 0.930 1_555 1_555
C23 C22 1.338 1_555 1_555
H19 C23 0.930 1_555 1_555
C24 C19 1.429 1_555 1_555
C25 C24 1.381 1_555 1_555
H20 C25 0.931 1_555 1_555
C26 C25 1.385 1_555 1_555
C27 C26 1.435 1_555 1_555
H21 C27 0.930 1_555 1_555
C28 C27 1.348 1_555 1_555
H22 C28 0.929 1_555 1_555
C29 C28 1.406 1_555 1_555
H23 C29 0.929 1_555 1_555
C30 C29 1.347 1_555 1_555
H24 C30 0.930 1_555 1_555
C31 C18 1.398 1_555 1_555
C32 H25 0.929 1_555 1_555
C33 C32 1.366 1_555 1_555
H26 C33 0.929 1_555 1_555
C34 C33 1.378 1_555 1_555
H27 C34 0.930 1_555 1_555
C35 C34 1.343 1_555 1_555
H28 C35 0.929 1_555 1_555
C36 C35 1.432 1_555 1_555
C37 C36 1.370 1_555 1_555
H29 C37 0.930 1_555 1_555
C38 C37 1.376 1_555 1_555
C39 C38 1.411 1_555 1_555
H30 C39 0.930 1_555 1_555
C40 C39 1.340 1_555 1_555
H31 C40 0.930 1_555 1_555
C41 C40 1.405 1_555 1_555
H32 C41 0.930 1_555 1_555
C42 C41 1.364 1_555 1_555
H33 C42 0.930 1_555 1_555
C43 C38 1.434 1_555 1_555
C44 C43 1.409 1_555 1_555
C45 C32 1.429 1_555 1_555
C46 C44 1.502 1_555 1_555
H34 C46 0.970 1_555 1_555
H35 C46 0.970 1_555 1_555
C47 C46 1.529 1_555 1_555
H36 C47 0.970 1_555 1_555
H37 C47 0.970 1_555 1_555
C48 C47 1.529 1_555 1_555
H38 C48 0.969 1_555 1_555
H39 C48 0.970 1_555 1_555
C49 C48 1.514 1_555 1_555
C50 C49 1.397 1_555 1_555
C51 C50 1.437 1_555 1_555
H40 C51 0.931 1_555 1_555
C52 C51 1.350 1_555 1_555
H41 C52 0.929 1_555 1_555
C53 C52 1.397 1_555 1_555
H42 C53 0.931 1_555 1_555
C54 C53 1.346 1_555 1_555
H43 C54 0.930 1_555 1_555
C55 C50 1.426 1_555 1_555
C56 C55 1.384 1_555 1_555
H44 C56 0.929 1_555 1_555
C57 C56 1.379 1_555 1_555
C58 C57 1.434 1_555 1_555
H45 C58 0.929 1_555 1_555
C59 C58 1.334 1_555 1_555
H46 C59 0.929 1_555 1_555
C60 C59 1.400 1_555 1_555
H47 C60 0.931 1_555 1_555
C61 C60 1.352 1_555 1_555
H48 C61 0.930 1_555 1_555
C62 C49 1.407 1_555 1_555
C63 H49 0.931 1_555 1_555
C64 C63 1.354 1_555 1_555
H50 C64 0.930 1_555 1_555
C65 C64 1.395 1_555 1_555
H51 C65 0.930 1_555 1_555
C66 C65 1.349 1_555 1_555
H52 C66 0.929 1_555 1_555
C67 C66 1.419 1_555 1_555
C68 C67 1.384 1_555 1_555
H53 C68 0.930 1_555 1_555
C69 C68 1.380 1_555 1_555
C70 C69 1.416 1_555 1_555
H54 C70 0.930 1_555 1_555
C71 C70 1.341 1_555 1_555
H55 C71 0.931 1_555 1_555
C72 C71 1.411 1_555 1_555
H56 C72 0.931 1_555 1_555
C73 C72 1.363 1_555 1_555
H57 C73 0.930 1_555 1_555
C74 C69 1.428 1_555 1_555
C75 C74 1.412 1_555 1_555
C76 C63 1.424 1_555 1_555
C77 C75 1.514 1_555 1_555
H58 C77 0.970 1_555 1_555
H59 C77 0.971 1_555 1_555
C78 C77 1.527 1_555 1_555
H60 C78 0.970 1_555 1_555
H61 C78 0.969 1_555 1_555
C79 C78 1.523 1_555 1_555
H62 C79 0.971 1_555 1_555
H63 C79 0.970 1_555 1_555
C80 C79 1.512 1_555 1_555
C81 C80 1.403 1_555 1_555
C82 C81 1.426 1_555 1_555
H64 C82 0.930 1_555 1_555
C83 C82 1.354 1_555 1_555
H65 C83 0.929 1_555 1_555
C84 C83 1.392 1_555 1_555
H66 C84 0.931 1_555 1_555
C85 C84 1.336 1_555 1_555
H67 C85 0.931 1_555 1_555
C86 C81 1.425 1_555 1_555
C87 C86 1.389 1_555 1_555
H68 C87 0.930 1_555 1_555
C88 C87 1.379 1_555 1_555
C89 C88 1.434 1_555 1_555
H69 C89 0.929 1_555 1_555
C90 C89 1.354 1_555 1_555
H70 C90 0.930 1_555 1_555
C91 C90 1.405 1_555 1_555
H71 C91 0.930 1_555 1_555
C92 C91 1.334 1_555 1_555
H72 C92 0.931 1_555 1_555
C93 C80 1.410 1_555 1_555
C5 C14 1.428 1_555 1_555
C11 C12 1.424 1_555 1_555
C13 C14 1.399 1_555 1_555
C23 C24 1.419 1_555 1_555
C26 C31 1.430 1_555 1_555
C30 C31 1.427 1_555 1_555
C36 C45 1.428 1_555 1_555
C42 C43 1.428 1_555 1_555
C44 C45 1.403 1_555 1_555
C54 C55 1.426 1_555 1_555
C57 C62 1.426 1_555 1_555
C61 C62 1.420 1_555 1_555
C67 C76 1.425 1_555 1_555
C73 C74 1.417 1_555 1_555
C75 C76 1.417 1_555 1_555
C85 C86 1.425 1_555 1_555
C88 C93 1.420 1_555 1_555
C92 C93 1.424 1_555 1_555
#END
