
#######################################################################
#
#                 Cambridge Crystallographic Data Centre
#                                CCDC
#
#######################################################################
#
# If this CIF has been generated from an entry in the Cambridge
# Structural Database, then it will include bibliographic, chemical,
# crystal, experimental, refinement or atomic coordinate data resulting
# from the CCDC's data processing and validation procedures.
#
#######################################################################

data_CSD_CIF_BALQAI
_audit_creation_date 2012-02-16
_audit_creation_method CSD-ConQuest-V1
_database_code_CSD BALQAI
_database_code_depnum_ccdc_archive 'CCDC 821919'
_chemical_formula_sum 'C27 H20'
_chemical_formula_moiety
;
C27 H20
;
_journal_coden_Cambridge 177
_journal_volume 10
_journal_year 2012
_journal_page_first 225
_journal_name_full 'Org.Biomol.Chem. '
loop_
_publ_author_name
"Shiyong Peng"
"Lei Wang"
"Jian Wang"
_chemical_name_systematic
;
1-(1,1-Diphenylpent-1-en-4-yn-3-yl)naphthalene
;
_cell_volume   1904.184
_exptl_crystal_colour 'colorless'
_exptl_crystal_density_diffrn 1.201
_exptl_crystal_description 'block'
_diffrn_ambient_temperature 100
#These two values have been output from a single CSD field.
_refine_ls_R_factor_gt 0.0494
_refine_ls_wR_factor_gt 0.0494
_symmetry_cell_setting monoclinic
_symmetry_space_group_name_H-M 'P 21/c'
_symmetry_Int_Tables_number 14
loop_
_symmetry_equiv_pos_site_id
_symmetry_equiv_pos_as_xyz
1 x,y,z
2 -x,1/2+y,1/2-z
3 -x,-y,-z
4 x,-1/2-y,-1/2+z
_cell_length_a 13.908(2)
_cell_length_b 11.0651(18)
_cell_length_c 12.376(2)
_cell_angle_alpha 90
_cell_angle_beta 91.176(4)
_cell_angle_gamma 90
_cell_formula_units_Z 4
loop_
_atom_type_symbol
_atom_type_radius_bond
C 0.68
H 0.23
loop_
_atom_site_label
_atom_site_type_symbol
_atom_site_fract_x
_atom_site_fract_y
_atom_site_fract_z
C1 C 0.89961(11) -0.18675(13) -0.02843(12)
H1 H 0.94820 -0.24490 -0.04170
C2 C 0.83903(10) -0.11431(12) -0.01189(11)
C3 C 0.76723(9) -0.01944(11) 0.00936(10)
H2 H 0.72660 -0.04700 0.07040
C4 C 0.70080(9) 0.00574(11) -0.0889(1)
C5 C 0.72372(10) -0.03563(12) -0.18967(11)
H3 H 0.78110 -0.08080 -0.19840
C6 C 0.66354(11) -0.01234(13) -0.28075(11)
H4 H 0.68120 -0.04110 -0.34990
C7 C 0.58044(11) 0.05102(13) -0.26998(11)
H5 H 0.54030 0.06550 -0.33160
C8 C 0.55318(10) 0.09568(12) -0.16747(11)
C9 C 0.46672(10) 0.16082(12) -0.15444(12)
H6 H 0.42640 0.17640 -0.21580
C10 C 0.44011(10) 0.20173(12) -0.05545(12)
H7 H 0.38170 0.24530 -0.04830
C11 C 0.49922(10) 0.17933(12) 0.03617(11)
H8 H 0.48020 0.20720 0.10510
C12 C 0.58398(9) 0.11763(11) 0.02653(10)
H9 H 0.62330 0.10400 0.08900
C13 C 0.61427(9) 0.07358(11) -0.07519(10)
C14 C 0.81892(9) 0.09541(11) 0.0441(1)
H10 H 0.85460 0.13580 -0.00970
C15 C 0.81968(8) 0.14599(11) 0.14254(10)
C16 C 0.77180(9) 0.08923(11) 0.23670(9)
C17 C 0.78750(9) -0.03161(11) 0.26555(10)
H11 H 0.83300 -0.07830 0.22740
C18 C 0.73723(10) -0.08386(12) 0.34929(10)
H12 H 0.74860 -0.16580 0.36840
C19 C 0.67047(10) -0.01633(12) 0.40498(10)
H13 H 0.63500 -0.05270 0.46110
C20 C 0.65539(10) 0.10397(12) 0.37903(10)
H14 H 0.61020 0.15040 0.41790
C21 C 0.70642(9) 0.15647(11) 0.29625(10)
H15 H 0.69680 0.23950 0.27970
C22 C 0.86457(9) 0.26697(11) 0.15937(10)
C23 C 0.91152(9) 0.29628(12) 0.25718(10)
H16 H 0.91320 0.23890 0.31430
C24 C 0.95554(9) 0.40789(12) 0.27189(11)
H17 H 0.98780 0.42600 0.33830
C25 C 0.95238(10) 0.49270(13) 0.18960(12)
H18 H 0.98290 0.56880 0.19930
C26 C 0.90445(10) 0.46624(13) 0.09287(12)
H19 H 0.90140 0.52480 0.03680
C27 C 0.86100(9) 0.35452(12) 0.07800(11)
H20 H 0.82840 0.33730 0.01160
loop_
_geom_bond_atom_site_label_1
_geom_bond_atom_site_label_2
_geom_bond_distance
_geom_bond_site_symmetry_1
_geom_bond_site_symmetry_2
C1 H1 0.950 1_555 1_555
C2 C1 1.184 1_555 1_555
C3 C2 1.476 1_555 1_555
H2 C3 1.000 1_555 1_555
C4 C3 1.538 1_555 1_555
C5 C4 1.372 1_555 1_555
H3 C5 0.950 1_555 1_555
C6 C5 1.414 1_555 1_555
H4 C6 0.950 1_555 1_555
C7 C6 1.361 1_555 1_555
H5 C7 0.949 1_555 1_555
C8 C7 1.420 1_555 1_555
C9 C8 1.414 1_555 1_555
H6 C9 0.950 1_555 1_555
C10 C9 1.364 1_555 1_555
H7 C10 0.950 1_555 1_555
C11 C10 1.409 1_555 1_555
H8 C11 0.950 1_555 1_555
C12 C11 1.370 1_555 1_555
H9 C12 0.950 1_555 1_555
C13 C4 1.431 1_555 1_555
C14 C3 1.518 1_555 1_555
H10 C14 0.950 1_555 1_555
C15 C14 1.341 1_555 1_555
C16 C15 1.493 1_555 1_555
C17 C16 1.400 1_555 1_555
H11 C17 0.950 1_555 1_555
C18 C17 1.388 1_555 1_555
H12 C18 0.949 1_555 1_555
C19 C18 1.386 1_555 1_555
H13 C19 0.950 1_555 1_555
C20 C19 1.384 1_555 1_555
H14 C20 0.950 1_555 1_555
C21 C16 1.397 1_555 1_555
H15 C21 0.950 1_555 1_555
C22 C15 1.490 1_555 1_555
C23 C22 1.402 1_555 1_555
H16 C23 0.950 1_555 1_555
C24 C23 1.389 1_555 1_555
H17 C24 0.950 1_555 1_555
C25 C24 1.385 1_555 1_555
H18 C25 0.950 1_555 1_555
C26 C25 1.389 1_555 1_555
H19 C26 0.950 1_555 1_555
C27 C22 1.398 1_555 1_555
H20 C27 0.950 1_555 1_555
C8 C13 1.430 1_555 1_555
C12 C13 1.422 1_555 1_555
C20 C21 1.386 1_555 1_555
C26 C27 1.387 1_555 1_555
#END
