
#######################################################################
#
#                 Cambridge Crystallographic Data Centre
#                                CCDC
#
#######################################################################
#
# If this CIF has been generated from an entry in the Cambridge
# Structural Database, then it will include bibliographic, chemical,
# crystal, experimental, refinement or atomic coordinate data resulting
# from the CCDC's data processing and validation procedures.
#
#######################################################################

data_CSD_CIF_BCHNAP
_audit_creation_date 1979-01-19
_audit_creation_method CSD-ConQuest-V1
_database_code_CSD BCHNAP
_database_code_depnum_ccdc_archive 'CCDC 1107221'
_chemical_formula_sum 'C18 H12'
_chemical_formula_moiety
;
C18 H12
;
_journal_coeditor_code "IUCr A16458"
_journal_coden_Cambridge 107
_journal_volume 34
_journal_year 1978
_journal_page_first 3037
_journal_name_full 'Acta Crystallogr.,Sect.B:Struct.Crystallogr.Cryst.Chem. '
loop_
_publ_author_name
"A.C.Hazell"
_chemical_name_systematic
;
Benzo(4,5)cyclohepta(1,2,3-de)naphthalene
;
_cell_volume   1184.402
_exptl_crystal_density_diffrn 1.24
_diffrn_ambient_temperature ?
_diffrn_special_details
;
The study was carried out at room temperature,in the range 283-303K

;
#These two values have been output from a single CSD field.
_refine_ls_R_factor_gt 0.036
_refine_ls_wR_factor_gt 0.036
_symmetry_cell_setting orthorhombic
_symmetry_space_group_name_H-M 'P c a 21'
_symmetry_Int_Tables_number 29
loop_
_symmetry_equiv_pos_site_id
_symmetry_equiv_pos_as_xyz
1 x,y,z
2 1/2-x,y,1/2+z
3 1/2+x,-y,z
4 -x,-y,1/2+z
_cell_length_a 14.110(4)
_cell_length_b 10.883(3)
_cell_length_c 7.713(3)
_cell_angle_alpha 90
_cell_angle_beta 90
_cell_angle_gamma 90
_cell_formula_units_Z 4
loop_
_atom_type_symbol
_atom_type_radius_bond
C 0.68
H 0.23
loop_
_atom_site_label
_atom_site_type_symbol
_atom_site_fract_x
_atom_site_fract_y
_atom_site_fract_z
C1 C 0.85330 0.23520 0.14230
C2 C 0.79630 0.34100 0.18100
C3 C 0.69870 0.32730 0.18200
C4 C 0.65410 0.22000 0.12540
C5 C 0.70640 0.12620 0.06280
C6 C 0.80640 0.13020 0.07120
C7 C 0.85980 0.02770 0.01230
C8 C 0.95470 0.02370 0.03050
C9 C 1.00050 0.11910 0.11700
C10 C 0.95340 0.22370 0.17480
C11 C 1.00860 0.30570 0.28420
C12 C 0.99140 0.41890 0.33980
C13 C 0.91670 0.50470 0.28870
C14 C 0.83200 0.46950 0.20400
C15 C 0.77460 0.56380 0.13850
C16 C 0.79520 0.68680 0.16530
C17 C 0.87460 0.71890 0.25860
C18 C 0.93360 0.62880 0.31780
H1 H 0.66100 0.40000 0.21400
H2 H 0.58400 0.21200 0.13200
H3 H 0.68300 0.05400 0.01100
H4 H 0.82300 -0.04000 -0.03500
H5 H 0.99200 -0.05300 -0.01000
H6 H 1.06500 0.11300 0.13800
H7 H 1.06700 0.26600 0.32600
H8 H 1.03900 0.45800 0.41100
H9 H 0.72300 0.54100 0.06700
H10 H 0.75700 0.74500 0.12000
H11 H 0.88400 0.80600 0.27500
H12 H 0.99500 0.64500 0.37800
loop_
_geom_bond_atom_site_label_1
_geom_bond_atom_site_label_2
_geom_bond_distance
_geom_bond_site_symmetry_1
_geom_bond_site_symmetry_2
C1 C2 1.436 1_555 1_555
C2 C3 1.385 1_555 1_555
C3 C4 1.397 1_555 1_555
C4 C5 1.349 1_555 1_555
C5 C6 1.413 1_555 1_555
C6 C1 1.430 1_555 1_555
C7 C6 1.421 1_555 1_555
C8 C7 1.347 1_555 1_555
C9 C8 1.393 1_555 1_555
C10 C1 1.440 1_555 1_555
C11 C10 1.454 1_555 1_555
C12 C11 1.327 1_555 1_555
C13 C12 1.462 1_555 1_555
C14 C2 1.497 1_555 1_555
C15 C14 1.402 1_555 1_555
C16 C15 1.385 1_555 1_555
C17 C16 1.377 1_555 1_555
C18 C13 1.390 1_555 1_555
H1 C3 0.985 1_555 1_555
H2 C4 0.994 1_555 1_555
H3 C5 0.941 1_555 1_555
H4 C7 0.972 1_555 1_555
H5 C8 1.035 1_555 1_555
H6 C9 0.927 1_555 1_555
H7 C11 0.985 1_555 1_555
H8 C12 0.966 1_555 1_555
H9 C15 0.946 1_555 1_555
H10 C16 0.902 1_555 1_555
H11 C17 0.965 1_555 1_555
H12 C18 0.999 1_555 1_555
C9 C10 1.392 1_555 1_555
C13 C14 1.415 1_555 1_555
C17 C18 1.365 1_555 1_555
#END
