
#######################################################################
#
#                 Cambridge Crystallographic Data Centre
#                                CCDC
#
#######################################################################
#
# If this CIF has been generated from an entry in the Cambridge
# Structural Database, then it will include bibliographic, chemical,
# crystal, experimental, refinement or atomic coordinate data resulting
# from the CCDC's data processing and validation procedures.
#
#######################################################################

data_CSD_CIF_BEANTR
_audit_creation_date 1971-12-31
_audit_creation_method CSD-ConQuest-V1
_database_code_CSD BEANTR
_chemical_formula_sum 'C18 H12'
_chemical_formula_moiety
;
C18 H12
;
_journal_coden_Cambridge 6
_journal_volume 178
_journal_year 1956
_journal_page_first 999
_journal_name_full 'Nature (London) '
loop_
_publ_author_name
"P.H.Friedlander"
"D.Sayre"
_chemical_name_systematic
;
1,2-Benzanthracene
;
_cell_volume    615.814
_exptl_special_details
;
y-Coordinate of C18 should be .0849 not .1049

;
_diffrn_ambient_temperature ?
_diffrn_special_details
;
The study was carried out at room temperature,in the range 283-303K

;
#These two values have been output from a single CSD field.
_refine_ls_R_factor_gt 0.215
_refine_ls_wR_factor_gt 0.215
_symmetry_cell_setting monoclinic
_symmetry_space_group_name_H-M 'P 21'
_symmetry_Int_Tables_number 4
loop_
_symmetry_equiv_pos_site_id
_symmetry_equiv_pos_as_xyz
1 x,y,z
2 -x,1/2+y,-z
_cell_length_a 7.95
_cell_length_b 6.5
_cell_length_c 12.12
_cell_angle_alpha 90
_cell_angle_beta 100.5
_cell_angle_gamma 90
_cell_formula_units_Z 2
loop_
_atom_type_symbol
_atom_type_radius_bond
C 0.68
loop_
_atom_site_label
_atom_site_type_symbol
_atom_site_fract_x
_atom_site_fract_y
_atom_site_fract_z
C1 C 0.11900 -0.05330 0.37010
C2 C 0.18850 0.00730 0.48920
C3 C 0.16470 -0.13440 0.57600
C4 C 0.32880 0.26170 0.64340
C5 C 0.27920 0.20800 0.51260
C6 C 0.30250 0.33890 0.43620
C7 C 0.21410 -0.07020 0.68160
C8 C 0.28730 0.11180 0.72090
C9 C 0.32750 0.13070 0.84500
C10 C 0.41470 0.32400 0.87610
C11 C 0.45120 0.46720 0.79620
C12 C 0.40910 0.43200 0.68070
C13 C 0.23490 0.29250 0.32490
C14 C 0.26360 0.46260 0.24120
C15 C 0.19510 0.41430 0.13180
C16 C 0.11570 0.23260 0.10570
C17 C 0.09010 0.09880 0.17610
C18 C 0.15380 0.08490 0.28760
loop_
_geom_bond_atom_site_label_1
_geom_bond_atom_site_label_2
_geom_bond_distance
_geom_bond_site_symmetry_1
_geom_bond_site_symmetry_2
C1 C2 1.501 1_555 1_555
C2 C3 1.436 1_555 1_555
C3 C7 1.335 1_555 1_555
C4 C5 1.601 1_555 1_555
C5 C2 1.493 1_555 1_555
C6 C5 1.295 1_555 1_555
C7 C8 1.365 1_555 1_555
C8 C4 1.433 1_555 1_555
C9 C8 1.485 1_555 1_555
C10 C9 1.451 1_555 1_555
C11 C10 1.411 1_555 1_555
C12 C4 1.316 1_555 1_555
C13 C6 1.391 1_555 1_555
C14 C13 1.545 1_555 1_555
C15 C14 1.375 1_555 1_555
C16 C15 1.349 1_555 1_555
C17 C16 1.261 1_555 1_555
C18 C1 1.409 1_555 1_555
C11 C12 1.398 1_555 1_555
C13 C18 1.528 1_555 1_555
C17 C18 1.357 1_555 1_555
#END
