
#######################################################################
#
#                 Cambridge Crystallographic Data Centre
#                                CCDC
#
#######################################################################
#
# If this CIF has been generated from an entry in the Cambridge
# Structural Database, then it will include bibliographic, chemical,
# crystal, experimental, refinement or atomic coordinate data resulting
# from the CCDC's data processing and validation procedures.
#
#######################################################################

data_CSD_CIF_BEBCOD
_audit_creation_date 2017-06-09
_audit_creation_method CSD-ConQuest-V1
_database_code_CSD BEBCOD
_database_code_depnum_ccdc_archive 'CCDC 859993'
_chemical_formula_sum 'C33 H22'
_chemical_formula_moiety
;
C33 H22
;
_journal_coden_Cambridge 1078
_journal_year 2017
_journal_name_full 'CSD Communication(Private Communication) '
loop_
_publ_author_name
"wen wan"
_chemical_name_systematic
;
9-(9H-fluoren-9-yl)-10-phenylanthracene
;
_cell_volume   4603.240
_exptl_crystal_density_diffrn 1.208
_diffrn_ambient_temperature 296
#These two values have been output from a single CSD field.
_refine_ls_R_factor_gt 0.0523
_refine_ls_wR_factor_gt 0.0523
_symmetry_cell_setting orthorhombic
_symmetry_space_group_name_H-M 'P b c a'
_symmetry_Int_Tables_number 61
loop_
_symmetry_equiv_pos_site_id
_symmetry_equiv_pos_as_xyz
1 x,y,z
2 1/2-x,-y,1/2+z
3 -x,1/2+y,1/2-z
4 1/2+x,1/2-y,-z
5 -x,-y,-z
6 -1/2+x,y,-1/2-z
7 x,-1/2-y,-1/2+z
8 -1/2-x,-1/2+y,z
_cell_length_a 11.059(3)
_cell_length_b 11.352(3)
_cell_length_c 36.667(10)
_cell_angle_alpha 90
_cell_angle_beta 90
_cell_angle_gamma 90
_cell_formula_units_Z 8
loop_
_atom_type_symbol
_atom_type_radius_bond
C 0.68
H 0.23
loop_
_atom_site_label
_atom_site_type_symbol
_atom_site_fract_x
_atom_site_fract_y
_atom_site_fract_z
C1 C -0.3362(3) 0.2422(4) 0.47624(10)
H1 H -0.40600 0.25530 0.48980
C2 C -0.2383(3) 0.3115(3) 0.48141(8)
H2 H -0.24050 0.37150 0.49870
C3 C -0.1351(2) 0.2934(2) 0.46110(6)
H3 H -0.06810 0.34140 0.46490
C4 C -0.12961(18) 0.20539(18) 0.43517(5)
C5 C -0.2290(2) 0.1347(2) 0.43052(7)
H4 H -0.22690 0.07410 0.41350
C6 C -0.3334(3) 0.1530(3) 0.45119(10)
H5 H -0.40050 0.10480 0.44790
C7 C -0.01942(16) 0.19095(16) 0.41212(5)
C8 C 0.06800(16) 0.10567(16) 0.42032(4)
C9 C 0.05406(18) 0.02741(17) 0.45071(5)
H6 H -0.01510 0.03280 0.46500
C10 C 0.13839(19) -0.05369(18) 0.45906(5)
H7 H 0.12680 -0.10350 0.47890
C11 C 0.24392(19) -0.06335(19) 0.43789(5)
H8 H 0.30230 -0.11890 0.44400
C12 C 0.26110(18) 0.00743(17) 0.40873(5)
H9 H 0.33190 -0.00030 0.39530
C13 C 0.17401(15) 0.09387(15) 0.39786(4)
C14 C 0.18810(15) 0.16577(15) 0.36675(4)
C15 C 0.10119(15) 0.25291(15) 0.35908(4)
C16 C 0.11298(16) 0.33191(15) 0.32893(5)
H10 H 0.18070 0.32620 0.31400
C17 C 0.02891(17) 0.41454(17) 0.32151(5)
H11 H 0.03860 0.46350 0.30140
C18 C -0.07323(18) 0.4273(2) 0.34393(6)
H12 H -0.13010 0.48540 0.33890
C19 C -0.08861(17) 0.35510(19) 0.37289(6)
H13 H -0.15700 0.36400 0.38740
C20 C -0.00305(16) 0.26564(16) 0.38188(5)
C21 C 0.29613(16) 0.14762(16) 0.34192(4)
H14 H 0.33170 0.07220 0.34930
C22 C 0.39765(16) 0.23592(17) 0.34399(5)
C23 C 0.45270(19) 0.2821(2) 0.37447(7)
H15 H 0.42500 0.26300 0.39770
C24 C 0.5490(2) 0.3567(3) 0.37003(11)
H16 H 0.58720 0.38810 0.39040
C25 C 0.5894(2) 0.3856(3) 0.33584(13)
H17 H 0.65380 0.43770 0.33350
C26 C 0.5366(2) 0.3389(2) 0.30455(9)
H18 H 0.56580 0.35770 0.28150
C27 C 0.43867(17) 0.26302(18) 0.30890(6)
C28 C 0.36313(17) 0.20152(18) 0.28239(5)
C29 C 0.3652(2) 0.2012(2) 0.24457(6)
H19 H 0.42350 0.24370 0.23190
C30 C 0.2800(3) 0.1373(3) 0.22634(7)
H20 H 0.27990 0.13720 0.20100
C31 C 0.1947(3) 0.0733(3) 0.24471(7)
H21 H 0.13800 0.02990 0.23160
C32 C 0.1914(2) 0.0720(2) 0.28251(6)
H22 H 0.13390 0.02790 0.29500
C33 C 0.27573(17) 0.13778(16) 0.30105(5)
loop_
_geom_bond_atom_site_label_1
_geom_bond_atom_site_label_2
_geom_bond_distance
_geom_bond_site_symmetry_1
_geom_bond_site_symmetry_2
C1 H1 0.930 1_555 1_555
C2 C1 1.352 1_555 1_555
H2 C2 0.931 1_555 1_555
C3 C2 1.378 1_555 1_555
H3 C3 0.930 1_555 1_555
C4 C3 1.381 1_555 1_555
C5 C4 1.372 1_555 1_555
H4 C5 0.929 1_555 1_555
C6 C1 1.367 1_555 1_555
H5 C6 0.930 1_555 1_555
C7 C4 1.492 1_555 1_555
C8 C7 1.401 1_555 1_555
C9 C8 1.433 1_555 1_555
H6 C9 0.929 1_555 1_555
C10 C9 1.346 1_555 1_555
H7 C10 0.930 1_555 1_555
C11 C10 1.406 1_555 1_555
H8 C11 0.930 1_555 1_555
C12 C11 1.351 1_555 1_555
H9 C12 0.929 1_555 1_555
C13 C8 1.439 1_555 1_555
C14 C13 1.411 1_555 1_555
C15 C14 1.408 1_555 1_555
C16 C15 1.429 1_555 1_555
H10 C16 0.930 1_555 1_555
C17 C16 1.348 1_555 1_555
H11 C17 0.930 1_555 1_555
C18 C17 1.405 1_555 1_555
H12 C18 0.930 1_555 1_555
C19 C18 1.352 1_555 1_555
H13 C19 0.930 1_555 1_555
C20 C7 1.408 1_555 1_555
C21 C14 1.516 1_555 1_555
H14 C21 0.980 1_555 1_555
C22 C21 1.507 1_555 1_555
C23 C22 1.376 1_555 1_555
H15 C23 0.931 1_555 1_555
C24 C23 1.370 1_555 1_555
H16 C24 0.929 1_555 1_555
C25 C24 1.371 1_555 1_555
H17 C25 0.930 1_555 1_555
C26 C25 1.392 1_555 1_555
H18 C26 0.930 1_555 1_555
C27 C22 1.399 1_555 1_555
C28 C27 1.460 1_555 1_555
C29 C28 1.387 1_555 1_555
H19 C29 0.930 1_555 1_555
C30 C29 1.364 1_555 1_555
H20 C30 0.929 1_555 1_555
C31 C30 1.368 1_555 1_555
H21 C31 0.931 1_555 1_555
C32 C31 1.387 1_555 1_555
H22 C32 0.930 1_555 1_555
C33 C21 1.520 1_555 1_555
C5 C6 1.397 1_555 1_555
C12 C13 1.432 1_555 1_555
C15 C20 1.431 1_555 1_555
C19 C20 1.427 1_555 1_555
C26 C27 1.393 1_555 1_555
C28 C33 1.388 1_555 1_555
C32 C33 1.375 1_555 1_555
#END
