
#######################################################################
#
#                 Cambridge Crystallographic Data Centre
#                                CCDC
#
#######################################################################
#
# If this CIF has been generated from an entry in the Cambridge
# Structural Database, then it will include bibliographic, chemical,
# crystal, experimental, refinement or atomic coordinate data resulting
# from the CCDC's data processing and validation procedures.
#
#######################################################################

data_CSD_CIF_BEFJUT
_audit_creation_date 2012-11-29
_audit_creation_method CSD-ConQuest-V1
_database_code_CSD BEFJUT
_database_code_depnum_ccdc_archive 'CCDC 883061'
_chemical_formula_sum 'C18 H22'
_chemical_formula_moiety
;
C18 H22
;
_journal_coden_Cambridge 179
_journal_volume 51
_journal_year 2012
_journal_page_first 10633
_journal_name_full 'Angew.Chem.,Int.Ed. '
loop_
_publ_author_name
"A.S.K.Hashmi"
"M.Wieteck"
"I.Braun"
"M.Rudolph"
"F.Rominger"
_chemical_name_systematic
;
1,2-Diethyl-6,7-dimethyl-1,2-dihydrocyclobuta[a]naphthalene
;
_cell_volume    705.316
_exptl_crystal_colour 'colorless'
_exptl_crystal_density_diffrn 1.122
_exptl_crystal_description 'needle'
_diffrn_ambient_temperature 200
#These two values have been output from a single CSD field.
_refine_ls_R_factor_gt 0.0665
_refine_ls_wR_factor_gt 0.0665
_symmetry_cell_setting triclinic
_symmetry_space_group_name_H-M 'P -1'
_symmetry_Int_Tables_number 2
loop_
_symmetry_equiv_pos_site_id
_symmetry_equiv_pos_as_xyz
1 x,y,z
2 -x,-y,-z
_cell_length_a 5.5924(19)
_cell_length_b 7.313(2)
_cell_length_c 17.510(6)
_cell_angle_alpha 81.839(9)
_cell_angle_beta 88.898(9)
_cell_angle_gamma 84.277(9)
_cell_formula_units_Z 2
loop_
_atom_type_symbol
_atom_type_radius_bond
C 0.68
H 0.23
loop_
_atom_site_label
_atom_site_type_symbol
_atom_site_fract_x
_atom_site_fract_y
_atom_site_fract_z
C1 C 0.5604(8) 0.1901(6) 0.1728(3)
H1 H 0.65740 0.07270 0.19480
C2 C 0.7151(8) 0.3645(6) 0.1656(3)
H2 H 0.87810 0.32510 0.18810
C3 C 0.4287(9) 0.1664(6) 0.1015(3)
H3 H 0.54850 0.14500 0.06050
H4 H 0.32930 0.28390 0.08370
C4 C 0.2678(9) 0.0098(6) 0.1107(3)
H5 H 0.18990 0.00560 0.06140
H6 H 0.14500 0.03080 0.15000
H7 H 0.36450 -0.10830 0.12660
C5 C 0.7370(9) 0.4874(6) 0.0909(3)
H8 H 0.57460 0.53740 0.07190
H9 H 0.81470 0.41390 0.05230
C6 C 0.8851(9) 0.6488(7) 0.0995(3)
H10 H 0.89470 0.72770 0.04960
H11 H 1.04740 0.59970 0.11690
H12 H 0.80790 0.72230 0.13740
C7 C 0.4189(8) 0.2823(6) 0.2362(2)
C8 C 0.5453(8) 0.4347(6) 0.2270(2)
C9 C 0.5005(9) 0.5791(6) 0.2716(3)
H13 H 0.58910 0.68460 0.26430
C10 C 0.3236(9) 0.5611(6) 0.3259(3)
H14 H 0.28720 0.65770 0.35650
C11 C 0.1912(8) 0.4032(5) 0.3386(2)
C12 C 0.0117(8) 0.3850(6) 0.3961(2)
H15 H -0.02150 0.48250 0.42650
C13 C -0.1169(8) 0.2339(6) 0.4105(2)
C14 C -0.0671(8) 0.0863(6) 0.3659(2)
C15 C 0.1070(8) 0.0987(6) 0.3102(2)
H16 H 0.14130 -0.00200 0.28160
C16 C 0.2386(7) 0.2556(5) 0.2932(2)
C17 C -0.3097(8) 0.2227(7) 0.4715(3)
H17 H -0.32870 0.33860 0.49410
H18 H -0.26430 0.11860 0.51190
H19 H -0.46180 0.20380 0.44830
C18 C -0.2063(8) -0.0819(6) 0.3801(3)
H20 H -0.14150 -0.17330 0.34730
H21 H -0.37590 -0.04480 0.36780
H22 H -0.19170 -0.13670 0.43440
loop_
_geom_bond_atom_site_label_1
_geom_bond_atom_site_label_2
_geom_bond_distance
_geom_bond_site_symmetry_1
_geom_bond_site_symmetry_2
C1 H1 1.001 1_555 1_555
C2 C1 1.600 1_555 1_555
H2 C2 0.999 1_555 1_555
C3 C1 1.501 1_555 1_555
H3 C3 0.991 1_555 1_555
H4 C3 0.990 1_555 1_555
C4 C3 1.515 1_555 1_555
H5 C4 0.980 1_555 1_555
H6 C4 0.980 1_555 1_555
H7 C4 0.980 1_555 1_555
C5 C2 1.489 1_555 1_555
H8 C5 0.990 1_555 1_555
H9 C5 0.990 1_555 1_555
C6 C5 1.534 1_555 1_555
H10 C6 0.980 1_555 1_555
H11 C6 0.980 1_555 1_555
H12 C6 0.980 1_555 1_555
C7 C1 1.545 1_555 1_555
C8 C2 1.530 1_555 1_555
C9 C8 1.401 1_555 1_555
H13 C9 0.950 1_555 1_555
C10 C9 1.362 1_555 1_555
H14 C10 0.950 1_555 1_555
C11 C10 1.422 1_555 1_555
C12 C11 1.410 1_555 1_555
H15 C12 0.951 1_555 1_555
C13 C12 1.369 1_555 1_555
C14 C13 1.423 1_555 1_555
C15 C14 1.365 1_555 1_555
H16 C15 0.950 1_555 1_555
C16 C7 1.413 1_555 1_555
C17 C13 1.503 1_555 1_555
H17 C17 0.981 1_555 1_555
H18 C17 0.980 1_555 1_555
H19 C17 0.980 1_555 1_555
C18 C14 1.509 1_555 1_555
H20 C18 0.980 1_555 1_555
H21 C18 0.980 1_555 1_555
H22 C18 0.980 1_555 1_555
C7 C8 1.367 1_555 1_555
C11 C16 1.430 1_555 1_555
C15 C16 1.418 1_555 1_555
#END
