
#######################################################################
#
#                 Cambridge Crystallographic Data Centre
#                                CCDC
#
#######################################################################
#
# If this CIF has been generated from an entry in the Cambridge
# Structural Database, then it will include bibliographic, chemical,
# crystal, experimental, refinement or atomic coordinate data resulting
# from the CCDC's data processing and validation procedures.
#
#######################################################################

data_CSD_CIF_BEFJON
_audit_creation_date 2012-11-29
_audit_creation_method CSD-ConQuest-V1
_database_code_CSD BEFJON
_database_code_depnum_ccdc_archive 'CCDC 883060'
_chemical_formula_sum 'C18 H20'
_chemical_formula_moiety
;
C18 H20
;
_journal_coden_Cambridge 179
_journal_volume 51
_journal_year 2012
_journal_page_first 10633
_journal_name_full 'Angew.Chem.,Int.Ed. '
loop_
_publ_author_name
"A.S.K.Hashmi"
"M.Wieteck"
"I.Braun"
"M.Rudolph"
"F.Rominger"
_chemical_name_systematic
;
2,3-Dimethyl-6b,7,8,9,10,10a-hexahydrobenzo[a]biphenylene
;
_cell_volume    658.472
_exptl_crystal_colour 'colorless'
_exptl_crystal_density_diffrn 1.192
_exptl_crystal_description 'plate'
_diffrn_ambient_temperature 200
#These two values have been output from a single CSD field.
_refine_ls_R_factor_gt 0.0426
_refine_ls_wR_factor_gt 0.0426
_symmetry_cell_setting triclinic
_symmetry_space_group_name_H-M 'P -1'
_symmetry_Int_Tables_number 2
loop_
_symmetry_equiv_pos_site_id
_symmetry_equiv_pos_as_xyz
1 x,y,z
2 -x,-y,-z
_cell_length_a 5.2488(3)
_cell_length_b 6.8764(4)
_cell_length_c 19.2213(11)
_cell_angle_alpha 94.799(1)
_cell_angle_beta 93.357(1)
_cell_angle_gamma 107.035(1)
_cell_formula_units_Z 2
loop_
_atom_type_symbol
_atom_type_radius_bond
C 0.68
H 0.23
loop_
_atom_site_label
_atom_site_type_symbol
_atom_site_fract_x
_atom_site_fract_y
_atom_site_fract_z
C1 C -0.1980(4) 0.1145(3) 0.05537(9)
H1 H -0.134(4) 0.141(3) 0.0091(11)
H2 H -0.325(5) -0.027(4) 0.0505(12)
H3 H -0.297(4) 0.213(3) 0.0659(11)
C2 C 0.0260(3) 0.1355(2) 0.11119(7)
C3 C 0.0282(3) -0.0259(2) 0.14798(8)
H4 H -0.120(3) -0.157(3) 0.1371(9)
C4 C 0.2326(3) -0.0159(2) 0.20084(7)
C5 C 0.2341(3) -0.1880(2) 0.23701(8)
H5 H 0.085(4) -0.315(3) 0.2235(9)
C6 C 0.4308(3) -0.1818(2) 0.28816(8)
H6 H 0.430(3) -0.302(3) 0.3109(9)
C7 C 0.6307(3) 0.0057(2) 0.30410(7)
C8 C 0.8853(3) 0.1130(2) 0.35114(7)
H7 H 1.037(3) 0.060(2) 0.3403(8)
C9 C 0.8616(3) 0.1394(3) 0.42960(8)
H8 H 0.834(3) 0.006(3) 0.4491(9)
H9 H 1.031(3) 0.228(3) 0.4520(9)
C10 C 0.6331(3) 0.2266(3) 0.44703(8)
H10 H 0.456(4) 0.116(3) 0.4322(9)
H11 H 0.642(4) 0.258(3) 0.4977(10)
C11 C 0.6343(3) 0.4173(2) 0.41007(8)
H12 H 0.461(3) 0.385(2) 0.3792(9)
H13 H 0.641(4) 0.531(3) 0.4447(10)
C12 C 0.8655(3) 0.4855(2) 0.36385(8)
H14 H 0.841(3) 0.595(3) 0.3365(8)
H15 H 1.036(3) 0.542(2) 0.3949(9)
C13 C 0.8885(3) 0.3097(2) 0.31329(7)
H16 H 1.044(3) 0.357(2) 0.2839(8)
C14 C 0.6341(3) 0.1744(2) 0.27108(7)
C15 C 0.4394(3) 0.1740(2) 0.21713(7)
C16 C 0.4338(3) 0.3395(2) 0.17864(7)
H17 H 0.575(3) 0.471(3) 0.1896(8)
C17 C 0.2367(3) 0.3232(2) 0.12625(7)
C18 C 0.2445(4) 0.4993(3) 0.08404(10)
H18 H 0.263(4) 0.464(3) 0.0333(12)
H19 H 0.390(5) 0.625(4) 0.1032(12)
H20 H 0.070(5) 0.535(3) 0.0839(12)
loop_
_geom_bond_atom_site_label_1
_geom_bond_atom_site_label_2
_geom_bond_distance
_geom_bond_site_symmetry_1
_geom_bond_site_symmetry_2
C1 H1 0.981 1_555 1_555
H2 C1 0.999 1_555 1_555
H3 C1 0.983 1_555 1_555
C2 C1 1.510 1_555 1_555
C3 C2 1.367 1_555 1_555
H4 C3 1.000 1_555 1_555
C4 C3 1.416 1_555 1_555
C5 C4 1.424 1_555 1_555
H5 C5 0.990 1_555 1_555
C6 C5 1.372 1_555 1_555
H6 C6 0.966 1_555 1_555
C7 C6 1.400 1_555 1_555
C8 C7 1.522 1_555 1_555
H7 C8 0.993 1_555 1_555
C9 C8 1.521 1_555 1_555
H8 C9 0.994 1_555 1_555
H9 C9 0.970 1_555 1_555
C10 C9 1.531 1_555 1_555
H10 C10 1.021 1_555 1_555
H11 C10 0.975 1_555 1_555
C11 C10 1.541 1_555 1_555
H12 C11 1.013 1_555 1_555
H13 C11 0.975 1_555 1_555
C12 C11 1.531 1_555 1_555
H14 C12 0.987 1_555 1_555
H15 C12 1.001 1_555 1_555
C13 C8 1.585 1_555 1_555
H16 C13 1.010 1_555 1_555
C14 C7 1.364 1_555 1_555
C15 C4 1.429 1_555 1_555
C16 C15 1.415 1_555 1_555
H17 C16 0.984 1_555 1_555
C17 C2 1.427 1_555 1_555
C18 C17 1.505 1_555 1_555
H18 C18 1.002 1_555 1_555
H19 C18 0.997 1_555 1_555
H20 C18 1.015 1_555 1_555
C12 C13 1.524 1_555 1_555
C13 C14 1.525 1_555 1_555
C14 C15 1.412 1_555 1_555
C16 C17 1.374 1_555 1_555
#END
