
#######################################################################
#
#                 Cambridge Crystallographic Data Centre
#                                CCDC
#
#######################################################################
#
# If this CIF has been generated from an entry in the Cambridge
# Structural Database, then it will include bibliographic, chemical,
# crystal, experimental, refinement or atomic coordinate data resulting
# from the CCDC's data processing and validation procedures.
#
#######################################################################

data_CSD_CIF_BEFKEE
_audit_creation_date 2012-11-29
_audit_creation_method CSD-ConQuest-V1
_database_code_CSD BEFKEE
_database_code_depnum_ccdc_archive 'CCDC 883063'
_chemical_formula_sum 'C18 H22'
_chemical_formula_moiety
;
C18 H22
;
_journal_coden_Cambridge 179
_journal_volume 51
_journal_year 2012
_journal_page_first 10633
_journal_name_full 'Angew.Chem.,Int.Ed. '
loop_
_publ_author_name
"A.S.K.Hashmi"
"M.Wieteck"
"I.Braun"
"M.Rudolph"
"F.Rominger"
_chemical_name_systematic
;
6-Cyclohexyl-2,3-dimethylnaphthalene
;
_cell_volume    681.804
_exptl_crystal_colour 'colorless'
_exptl_crystal_density_diffrn 1.161
_exptl_crystal_description 'needle'
_diffrn_ambient_temperature 200
#These two values have been output from a single CSD field.
_refine_ls_R_factor_gt 0.0549
_refine_ls_wR_factor_gt 0.0549
_symmetry_cell_setting triclinic
_symmetry_space_group_name_H-M 'P -1'
_symmetry_Int_Tables_number 2
loop_
_symmetry_equiv_pos_site_id
_symmetry_equiv_pos_as_xyz
1 x,y,z
2 -x,-y,-z
_cell_length_a 6.3932(8)
_cell_length_b 8.6441(10)
_cell_length_c 13.0666(15)
_cell_angle_alpha 105.942(3)
_cell_angle_beta 99.427(3)
_cell_angle_gamma 92.632(3)
_cell_formula_units_Z 2
loop_
_atom_type_symbol
_atom_type_radius_bond
C 0.68
H 0.23
loop_
_atom_site_label
_atom_site_type_symbol
_atom_site_fract_x
_atom_site_fract_y
_atom_site_fract_z
C1 C -0.1777(4) 0.4426(3) 0.1944(2)
H1 H -0.31930 0.45580 0.16460
C2 C -0.0681(4) 0.3307(3) 0.1331(2)
C3 C 0.1443(4) 0.3163(3) 0.1803(2)
H2 H 0.22450 0.24060 0.13960
C4 C 0.2363(4) 0.4070(3) 0.2813(2)
H3 H 0.37850 0.39330 0.30970
C5 C 0.1242(4) 0.5216(3) 0.3451(2)
C6 C 0.2125(4) 0.6188(3) 0.4513(2)
H4 H 0.35470 0.60740 0.48130
C7 C 0.1017(5) 0.7282(3) 0.5122(2)
C8 C -0.1128(4) 0.7461(3) 0.4671(2)
C9 C -0.1997(4) 0.6535(3) 0.3650(2)
H5 H -0.34180 0.66620 0.33570
C10 C -0.0869(4) 0.5390(3) 0.3007(2)
C11 C -0.1585(4) 0.2259(4) 0.0193(2)
H6 H -0.14680 0.11100 0.01960
C12 C -0.3913(5) 0.2407(4) -0.0203(2)
H7 H -0.40970 0.35460 -0.01790
H8 H -0.47730 0.21140 0.02930
C13 C -0.4742(5) 0.1332(5) -0.1351(2)
H9 H -0.47220 0.01840 -0.13610
H10 H -0.62350 0.15270 -0.15840
C14 C -0.3405(5) 0.1667(4) -0.2131(2)
H11 H -0.39250 0.09070 -0.28590
H12 H -0.35560 0.27790 -0.21820
C15 C -0.1089(5) 0.1485(4) -0.1769(2)
H13 H -0.02400 0.17730 -0.22700
H14 H -0.09160 0.03440 -0.17920
C16 C -0.0272(5) 0.2567(4) -0.0625(2)
H15 H -0.03030 0.37110 -0.06250
H16 H 0.12280 0.23840 -0.03960
C17 C 0.1992(5) 0.8290(3) 0.6253(2)
H17 H 0.34530 0.80230 0.64380
H18 H 0.11470 0.80660 0.67660
H19 H 0.20110 0.94390 0.62890
C18 C -0.2378(5) 0.8662(3) 0.5327(2)
H20 H -0.37970 0.86440 0.49020
H21 H -0.16340 0.97470 0.55170
H22 H -0.25190 0.83760 0.59900
loop_
_geom_bond_atom_site_label_1
_geom_bond_atom_site_label_2
_geom_bond_distance
_geom_bond_site_symmetry_1
_geom_bond_site_symmetry_2
C1 H1 0.950 1_555 1_555
C2 C1 1.374 1_555 1_555
C3 C2 1.422 1_555 1_555
H2 C3 0.950 1_555 1_555
C4 C3 1.355 1_555 1_555
H3 C4 0.950 1_555 1_555
C5 C4 1.413 1_555 1_555
C6 C5 1.418 1_555 1_555
H4 C6 0.950 1_555 1_555
C7 C6 1.365 1_555 1_555
C8 C7 1.434 1_555 1_555
C9 C8 1.363 1_555 1_555
H5 C9 0.950 1_555 1_555
C10 C1 1.420 1_555 1_555
C11 C2 1.515 1_555 1_555
H6 C11 1.000 1_555 1_555
C12 C11 1.517 1_555 1_555
H7 C12 0.989 1_555 1_555
H8 C12 0.990 1_555 1_555
C13 C12 1.524 1_555 1_555
H9 C13 0.990 1_555 1_555
H10 C13 0.990 1_555 1_555
C14 C13 1.509 1_555 1_555
H11 C14 0.990 1_555 1_555
H12 C14 0.990 1_555 1_555
C15 C14 1.508 1_555 1_555
H13 C15 0.989 1_555 1_555
H14 C15 0.990 1_555 1_555
C16 C11 1.532 1_555 1_555
H15 C16 0.990 1_555 1_555
H16 C16 0.990 1_555 1_555
C17 C7 1.508 1_555 1_555
H17 C17 0.980 1_555 1_555
H18 C17 0.979 1_555 1_555
H19 C17 0.981 1_555 1_555
C18 C8 1.504 1_555 1_555
H20 C18 0.980 1_555 1_555
H21 C18 0.980 1_555 1_555
H22 C18 0.980 1_555 1_555
C5 C10 1.411 1_555 1_555
C9 C10 1.419 1_555 1_555
C15 C16 1.521 1_555 1_555
#END
