
#######################################################################
#
#                 Cambridge Crystallographic Data Centre
#                                CCDC
#
#######################################################################
#
# If this CIF has been generated from an entry in the Cambridge
# Structural Database, then it will include bibliographic, chemical,
# crystal, experimental, refinement or atomic coordinate data resulting
# from the CCDC's data processing and validation procedures.
#
#######################################################################

data_CSD_CIF_BEFXES
_audit_creation_date 2017-10-17
_audit_creation_method CSD-ConQuest-V1
_database_code_CSD BEFXES
_database_code_depnum_ccdc_archive 'CCDC 1501502'
_chemical_formula_sum 'C32 H16'
_chemical_formula_moiety
;
C32 H16
;
_journal_coden_Cambridge 15
_journal_volume 95
_journal_year 2017
_journal_page_first 329
_journal_name_full 'Can.J.Chem. '
loop_
_publ_author_name
"K.Kato"
"Y.Segawa"
"K.Itami"
_chemical_name_systematic
;
acenaphtho[3,2,1,8-stuva]benzo[j]picene
;
_cell_volume   3725.408
_exptl_crystal_colour 'colorless'
_exptl_crystal_density_diffrn 1.428
_exptl_crystal_description 'Block'
_diffrn_ambient_temperature 123
#These two values have been output from a single CSD field.
_refine_ls_R_factor_gt 0.0288
_refine_ls_wR_factor_gt 0.0288
_symmetry_cell_setting orthorhombic
_symmetry_space_group_name_H-M 'P 21 21 21'
_symmetry_Int_Tables_number 19
loop_
_symmetry_equiv_pos_site_id
_symmetry_equiv_pos_as_xyz
1 x,y,z
2 1/2-x,-y,1/2+z
3 1/2+x,1/2-y,-z
4 -x,1/2+y,1/2-z
_cell_length_a 13.9301(11)
_cell_length_b 14.6900(11)
_cell_length_c 18.2053(15)
_cell_angle_alpha 90
_cell_angle_beta 90
_cell_angle_gamma 90
_cell_formula_units_Z 8
loop_
_atom_type_symbol
_atom_type_radius_bond
C 0.68
H 0.23
loop_
_atom_site_label
_atom_site_type_symbol
_atom_site_fract_x
_atom_site_fract_y
_atom_site_fract_z
C1 C 0.05960(13) 0.24056(13) 0.11140(11)
C2 C 0.02565(13) 0.16134(14) 0.14705(11)
C3 C 0.02502(14) 0.17773(14) 0.22398(12)
C4 C 0.06453(14) 0.26546(14) 0.23574(11)
C5 C 0.08460(13) 0.30535(13) 0.16658(11)
C6 C 0.15438(14) 0.37022(13) 0.15590(11)
C7 C 0.20485(14) 0.39594(14) 0.22246(11)
H1 H 0.25270 0.44190 0.21970
C8 C 0.18602(15) 0.35627(14) 0.28966(11)
H2 H 0.22100 0.37630 0.33140
C9 C 0.11548(14) 0.28583(14) 0.29887(11)
C10 C 0.10500(14) 0.22022(14) 0.35782(11)
H3 H 0.12820 0.23530 0.40540
C11 C 0.06242(14) 0.13678(15) 0.34685(12)
H4 H 0.05470 0.09670 0.38740
C12 C 0.02923(14) 0.10879(14) 0.27513(11)
C13 C 0.02170(14) 0.01799(15) 0.24535(13)
H5 H 0.01310 -0.03190 0.27790
C14 C 0.02675(14) 0.00202(14) 0.17095(12)
H6 H 0.02420 -0.05900 0.15370
C15 C 0.03583(14) 0.07506(14) 0.11825(12)
C16 C 0.07350(14) 0.07254(14) 0.04487(11)
H7 H 0.07640 0.01590 0.01980
C17 C 0.10563(14) 0.14985(13) 0.00960(11)
H8 H 0.13080 0.14420 -0.03870
C18 C 0.10264(13) 0.23922(13) 0.04312(10)
C19 C 0.15301(14) 0.32383(13) 0.02324(11)
C20 C 0.17833(14) 0.38796(13) 0.07820(11)
C21 C 0.23433(14) 0.46797(13) 0.05757(11)
C22 C 0.24649(14) 0.54170(13) 0.10601(11)
H9 H 0.21020 0.54330 0.15020
C23 C 0.30950(15) 0.61154(14) 0.09121(12)
H10 H 0.31750 0.65990 0.12530
C24 C 0.36141(16) 0.61063(14) 0.02585(12)
H11 H 0.40830 0.65620 0.01680
C25 C 0.34490(14) 0.54377(13) -0.02565(12)
H12 H 0.37810 0.54580 -0.07120
C26 C 0.27979(14) 0.47266(13) -0.01209(11)
C27 C 0.25251(13) 0.40721(13) -0.06884(11)
C28 C 0.28713(14) 0.41388(14) -0.14135(11)
H13 H 0.33690 0.45600 -0.15220
C29 C 0.25027(14) 0.36067(14) -0.19662(11)
H14 H 0.27650 0.36440 -0.24470
C30 C 0.17443(14) 0.30122(14) -0.18231(11)
H15 H 0.14580 0.26780 -0.22130
C31 C 0.14126(14) 0.29109(13) -0.11161(11)
H16 H 0.08970 0.25040 -0.10220
C32 C 0.18258(13) 0.34010(13) -0.05260(11)
C33 C 0.40620(13) 0.19273(13) 0.29666(11)
C34 C 0.42343(14) 0.23059(14) 0.22631(11)
C35 C 0.46660(14) 0.31714(14) 0.23614(12)
C36 C 0.47254(14) 0.33430(14) 0.31233(12)
C37 C 0.43764(13) 0.25731(13) 0.35028(11)
C38 C 0.39915(14) 0.26116(14) 0.41978(11)
C39 C 0.40250(14) 0.35113(14) 0.45254(12)
H17 H 0.38070 0.35850 0.50160
C40 C 0.43616(14) 0.42644(15) 0.41520(12)
H18 H 0.43770 0.48350 0.43980
C41 C 0.46881(14) 0.42158(14) 0.34061(13)
C42 C 0.47804(15) 0.49355(15) 0.28663(14)
H19 H 0.48630 0.55450 0.30300
C43 C 0.47523(15) 0.47617(15) 0.21229(13)
H20 H 0.48290 0.52530 0.17890
C44 C 0.46098(14) 0.38515(15) 0.18362(13)
C45 C 0.42272(14) 0.35672(15) 0.11390(12)
H21 H 0.42810 0.39640 0.07290
C46 C 0.37862(15) 0.27385(15) 0.10491(12)
H22 H 0.35320 0.25830 0.05820
C47 C 0.36988(14) 0.20940(14) 0.16489(11)
C48 C 0.29971(14) 0.13922(14) 0.17652(11)
H23 H 0.26360 0.11770 0.13580
C49 C 0.28306(14) 0.10201(14) 0.24512(11)
H24 H 0.23520 0.05630 0.24970
C50 C 0.33519(13) 0.12954(13) 0.31026(11)
C51 C 0.31452(14) 0.11517(13) 0.38891(11)
C52 C 0.25630(13) 0.03802(13) 0.41288(11)
C53 C 0.23992(15) -0.03770(13) 0.36650(12)
H25 H 0.27430 -0.04240 0.32160
C54 C 0.17529(15) -0.10475(14) 0.38509(12)
H26 H 0.16460 -0.15450 0.35280
C55 C 0.12557(15) -0.09948(15) 0.45129(12)
H27 H 0.07740 -0.14310 0.46260
C56 C 0.14639(15) -0.03102(14) 0.50017(12)
H28 H 0.11480 -0.03010 0.54640
C57 C 0.21335(14) 0.03784(13) 0.48349(11)
C58 C 0.24696(14) 0.10260(14) 0.53817(11)
C59 C 0.21744(15) 0.09805(14) 0.61249(12)
H29 H 0.16590 0.05900 0.62570
C60 C 0.26170(16) 0.14875(15) 0.66578(11)
H30 H 0.23930 0.14600 0.71500
C61 C 0.33973(16) 0.20461(14) 0.64804(12)
H31 H 0.37310 0.23670 0.68550
C62 C 0.36754(15) 0.21253(14) 0.57594(11)
H32 H 0.42040 0.25060 0.56400
C63 C 0.31970(14) 0.16565(13) 0.51910(11)
C64 C 0.34527(13) 0.17931(13) 0.44190(11)
loop_
_geom_bond_atom_site_label_1
_geom_bond_atom_site_label_2
_geom_bond_distance
_geom_bond_site_symmetry_1
_geom_bond_site_symmetry_2
C1 C2 1.414 1_555 1_555
C2 C3 1.421 1_555 1_555
C3 C4 1.418 1_555 1_555
C4 C5 1.417 1_555 1_555
C5 C1 1.427 1_555 1_555
C6 C5 1.375 1_555 1_555
C7 C6 1.451 1_555 1_555
H1 C7 0.950 1_555 1_555
C8 C7 1.380 1_555 1_555
H2 C8 0.949 1_555 1_555
C9 C4 1.384 1_555 1_555
C10 C9 1.450 1_555 1_555
H3 C10 0.951 1_555 1_555
C11 C10 1.376 1_555 1_555
H4 C11 0.950 1_555 1_555
C12 C3 1.377 1_555 1_555
C13 C12 1.444 1_555 1_555
H5 C13 0.950 1_555 1_555
C14 C13 1.376 1_555 1_555
H6 C14 0.950 1_555 1_555
C15 C2 1.379 1_555 1_555
C16 C15 1.436 1_555 1_555
H7 C16 0.950 1_555 1_555
C17 C16 1.379 1_555 1_555
H8 C17 0.950 1_555 1_555
C18 C1 1.380 1_555 1_555
C19 C18 1.472 1_555 1_555
C20 C6 1.477 1_555 1_555
C21 C20 1.460 1_555 1_555
C22 C21 1.407 1_555 1_555
H9 C22 0.950 1_555 1_555
C23 C22 1.377 1_555 1_555
H10 C23 0.950 1_555 1_555
C24 C23 1.392 1_555 1_555
H11 C24 0.950 1_555 1_555
C25 C24 1.377 1_555 1_555
H12 C25 0.950 1_555 1_555
C26 C21 1.419 1_555 1_555
C27 C26 1.462 1_555 1_555
C28 C27 1.409 1_555 1_555
H13 C28 0.950 1_555 1_555
C29 C28 1.374 1_555 1_555
H14 C29 0.950 1_555 1_555
C30 C29 1.395 1_555 1_555
H15 C30 0.951 1_555 1_555
C31 C30 1.376 1_555 1_555
H16 C31 0.950 1_555 1_555
C32 C19 1.461 1_555 1_555
C33 C34 1.417 1_555 1_555
C34 C35 1.418 1_555 1_555
C35 C36 1.412 1_555 1_555
C36 C37 1.412 1_555 1_555
C37 C33 1.430 1_555 1_555
C38 C37 1.375 1_555 1_555
C39 C38 1.451 1_555 1_555
H17 C39 0.950 1_555 1_555
C40 C39 1.381 1_555 1_555
H18 C40 0.951 1_555 1_555
C41 C36 1.383 1_555 1_555
C42 C41 1.449 1_555 1_555
H19 C42 0.951 1_555 1_555
C43 C42 1.378 1_555 1_555
H20 C43 0.950 1_555 1_555
C44 C35 1.385 1_555 1_555
C45 C44 1.439 1_555 1_555
H21 C45 0.950 1_555 1_555
C46 C45 1.373 1_555 1_555
H22 C46 0.949 1_555 1_555
C47 C34 1.380 1_555 1_555
C48 C47 1.436 1_555 1_555
H23 C48 0.950 1_555 1_555
C49 C48 1.383 1_555 1_555
H24 C49 0.950 1_555 1_555
C50 C33 1.379 1_555 1_555
C51 C50 1.476 1_555 1_555
C52 C51 1.460 1_555 1_555
C53 C52 1.415 1_555 1_555
H25 C53 0.950 1_555 1_555
C54 C53 1.377 1_555 1_555
H26 C54 0.950 1_555 1_555
C55 C54 1.392 1_555 1_555
H27 C55 0.950 1_555 1_555
C56 C55 1.374 1_555 1_555
H28 C56 0.950 1_555 1_555
C57 C52 1.418 1_555 1_555
C58 C57 1.454 1_555 1_555
C59 C58 1.416 1_555 1_555
H29 C59 0.950 1_555 1_555
C60 C59 1.370 1_555 1_555
H30 C60 0.950 1_555 1_555
C61 C60 1.400 1_555 1_555
H31 C61 0.950 1_555 1_555
C62 C61 1.374 1_555 1_555
H32 C62 0.950 1_555 1_555
C63 C58 1.416 1_555 1_555
C64 C38 1.474 1_555 1_555
C8 C9 1.437 1_555 1_555
C11 C12 1.445 1_555 1_555
C14 C15 1.445 1_555 1_555
C17 C18 1.448 1_555 1_555
C19 C20 1.419 1_555 1_555
C25 C26 1.405 1_555 1_555
C27 C32 1.417 1_555 1_555
C31 C32 1.416 1_555 1_555
C40 C41 1.434 1_555 1_555
C43 C44 1.449 1_555 1_555
C46 C47 1.450 1_555 1_555
C49 C50 1.448 1_555 1_555
C51 C64 1.415 1_555 1_555
C56 C57 1.409 1_555 1_555
C62 C63 1.410 1_555 1_555
C63 C64 1.464 1_555 1_555
#END
