
#######################################################################
#
#                 Cambridge Crystallographic Data Centre
#                                CCDC
#
#######################################################################
#
# If this CIF has been generated from an entry in the Cambridge
# Structural Database, then it will include bibliographic, chemical,
# crystal, experimental, refinement or atomic coordinate data resulting
# from the CCDC's data processing and validation procedures.
#
#######################################################################

data_CSD_CIF_BEHXOB
_audit_creation_date 1982-11-15
_audit_creation_method CSD-ConQuest-V1
_database_code_CSD BEHXOB
_chemical_formula_sum 'C33 H20'
_chemical_formula_moiety
;
C33 H20
;
_journal_coeditor_code "IUCr A21169"
_journal_coden_Cambridge 107
_journal_volume 38
_journal_year 1982
_journal_page_first 1380
_journal_name_full 'Acta Crystallogr.,Sect.B:Struct.Crystallogr.Cryst.Chem. '
loop_
_publ_author_name
"S.Seth"
"S.Chakraborty"
_chemical_name_systematic
;
14-Methyl-7-phenyl-acenaphtho(1,2-k)fluoranthene
;
_cell_volume   1085.931
_exptl_crystal_colour 'yellow-brown'
_exptl_crystal_density_diffrn 1.274
_diffrn_ambient_temperature ?
_diffrn_special_details
;
The study was carried out at room temperature,in the range 283-303K

;
#These two values have been output from a single CSD field.
_refine_ls_R_factor_gt 0.051
_refine_ls_wR_factor_gt 0.051
_symmetry_cell_setting triclinic
_symmetry_space_group_name_H-M 'P -1'
_symmetry_Int_Tables_number 2
loop_
_symmetry_equiv_pos_site_id
_symmetry_equiv_pos_as_xyz
1 x,y,z
2 -x,-y,-z
_cell_length_a 12.184(7)
_cell_length_b 12.507(6)
_cell_length_c 8.542(3)
_cell_angle_alpha 97.64(4)
_cell_angle_beta 104.45(4)
_cell_angle_gamma 116.19(3)
_cell_formula_units_Z 2
loop_
_atom_type_symbol
_atom_type_radius_bond
C 0.68
H 0.23
loop_
_atom_site_label
_atom_site_type_symbol
_atom_site_fract_x
_atom_site_fract_y
_atom_site_fract_z
C1 C 1.03310 -0.12710 0.27440
C2 C 0.97470 -0.04340 0.26390
C3 C 0.85660 -0.07420 0.28940
C4 C 0.76900 -0.18300 0.33340
C5 C 0.77010 -0.28660 0.37100
C6 C 0.66590 -0.37010 0.41510
C7 C 0.56270 -0.35440 0.41860
C8 C 0.55700 -0.24970 0.38020
C9 C 0.45950 -0.21720 0.38150
C10 C 0.47060 -0.11050 0.34530
C11 C 0.57910 -0.02700 0.30800
C12 C 0.67570 -0.05530 0.30630
C13 C 0.80040 0.00430 0.27660
C14 C 0.86380 0.11840 0.24410
C15 C 0.98120 0.14950 0.21780
C16 C 1.06800 0.26010 0.17590
C17 C 1.06720 0.36610 0.14970
C18 C 1.16950 0.45190 0.10550
C19 C 1.27030 0.43360 0.09120
C20 C 1.27400 0.32570 0.11800
C21 C 1.37090 0.29360 0.10840
C22 C 1.36040 0.18620 0.14000
C23 C 1.25480 0.10210 0.18070
C24 C 1.15850 0.12950 0.19050
C25 C 1.03530 0.06940 0.22660
C26 C 0.66190 -0.16740 0.34020
C27 C 1.17180 0.24220 0.16010
C28 C 0.81150 0.20590 0.24080
C29 C 0.72430 0.19830 0.09430
C30 C 0.68070 0.28370 0.09020
C31 C 0.72430 0.37700 0.23300
C32 C 0.80900 0.38520 0.38110
C33 C 0.85230 0.29880 0.38470
H1 H 0.96900 -0.21400 0.22300
H2 H 1.07200 -0.12400 0.38000
H3 H 1.09100 -0.11800 0.20900
H4 H 0.84600 -0.29900 0.37200
H5 H 0.67000 -0.44300 0.44400
H6 H 0.49200 -0.41600 0.44700
H7 H 0.38200 -0.27400 0.40800
H8 H 0.40200 -0.08800 0.34600
H9 H 0.58500 0.05400 0.28800
H10 H 0.99700 0.38300 0.16000
H11 H 1.16600 0.52800 0.07900
H12 H 1.34000 0.49500 0.05900
H13 H 1.44300 0.35000 0.07500
H14 H 1.43100 0.16700 0.13200
H15 H 1.25400 0.02500 0.20200
H16 H 0.69400 0.12900 -0.00700
H17 H 0.61700 0.27700 -0.02000
H18 H 0.69600 0.43800 0.23100
H19 H 0.84100 0.45800 0.49000
H20 H 0.91400 0.30700 0.49100
loop_
_geom_bond_atom_site_label_1
_geom_bond_atom_site_label_2
_geom_bond_distance
_geom_bond_site_symmetry_1
_geom_bond_site_symmetry_2
C1 C2 1.504 1_555 1_555
C2 C3 1.399 1_555 1_555
C3 C4 1.479 1_555 1_555
C4 C5 1.381 1_555 1_555
C5 C6 1.420 1_555 1_555
C6 C7 1.362 1_555 1_555
C7 C8 1.418 1_555 1_555
C8 C9 1.417 1_555 1_555
C9 C10 1.366 1_555 1_555
C10 C11 1.421 1_555 1_555
C11 C12 1.373 1_555 1_555
C12 C13 1.474 1_555 1_555
C13 C3 1.425 1_555 1_555
C14 C13 1.396 1_555 1_555
C15 C14 1.393 1_555 1_555
C16 C15 1.480 1_555 1_555
C17 C16 1.377 1_555 1_555
C18 C17 1.418 1_555 1_555
C19 C18 1.375 1_555 1_555
C20 C19 1.416 1_555 1_555
C21 C20 1.421 1_555 1_555
C22 C21 1.362 1_555 1_555
C23 C22 1.417 1_555 1_555
C24 C23 1.377 1_555 1_555
C25 C2 1.398 1_555 1_555
C26 C4 1.416 1_555 1_555
C27 C16 1.412 1_555 1_555
C28 C14 1.490 1_555 1_555
C29 C28 1.385 1_555 1_555
C30 C29 1.388 1_555 1_555
C31 C30 1.372 1_555 1_555
C32 C31 1.377 1_555 1_555
C33 C28 1.383 1_555 1_555
H1 C1 0.968 1_555 1_555
H2 C1 0.895 1_555 1_555
H3 C1 0.983 1_555 1_555
H4 C5 1.001 1_555 1_555
H5 C6 0.994 1_555 1_555
H6 C7 0.981 1_555 1_555
H7 C9 1.002 1_555 1_555
H8 C10 0.994 1_555 1_555
H9 C11 1.024 1_555 1_555
H10 C17 0.988 1_555 1_555
H11 C18 1.023 1_555 1_555
H12 C19 0.992 1_555 1_555
H13 C21 0.991 1_555 1_555
H14 C22 1.005 1_555 1_555
H15 C23 1.001 1_555 1_555
H16 C29 0.997 1_555 1_555
H17 C30 1.026 1_555 1_555
H18 C31 0.966 1_555 1_555
H19 C32 1.062 1_555 1_555
H20 C33 0.983 1_555 1_555
C8 C26 1.400 1_555 1_555
C12 C26 1.415 1_555 1_555
C15 C25 1.422 1_555 1_555
C20 C27 1.395 1_555 1_555
C24 C25 1.487 1_555 1_555
C24 C27 1.413 1_555 1_555
C32 C33 1.397 1_555 1_555
#END
