
#######################################################################
#
#                 Cambridge Crystallographic Data Centre
#                                CCDC
#
#######################################################################
#
# If this CIF has been generated from an entry in the Cambridge
# Structural Database, then it will include bibliographic, chemical,
# crystal, experimental, refinement or atomic coordinate data resulting
# from the CCDC's data processing and validation procedures.
#
#######################################################################

data_CSD_CIF_BELSUJ
_audit_creation_date 2017-10-18
_audit_creation_method CSD-ConQuest-V1
_database_code_CSD BELSUJ
_database_code_depnum_ccdc_archive 'CCDC 1502839'
_chemical_formula_sum 'C28 H18'
_chemical_formula_moiety
;
C28 H18
;
_journal_coden_Cambridge 1366
_journal_volume 359
_journal_year 2017
_journal_page_first 225
_journal_name_full 'Adv.Synth.Catal. '
loop_
_publ_author_name
"J.Bucher"
"T.Wurm"
"S.Taschinski"
"E.Sachs"
"D.Ascough"
"M.Rudolph"
"F.Rominger"
"A.Stephen K.Has"
_chemical_name_systematic
;
5,10-dihydrodiindeno[2,1-b:1',2'-h]phenanthrene
;
_cell_volume   1787.713
_exptl_crystal_colour 'yellow'
_exptl_crystal_density_diffrn 1.317
_exptl_crystal_description 'plate'
_diffrn_ambient_temperature 200
#These two values have been output from a single CSD field.
_refine_ls_R_factor_gt 0.0669
_refine_ls_wR_factor_gt 0.0669
_symmetry_cell_setting monoclinic
_symmetry_space_group_name_H-M 'P 21/n'
_symmetry_Int_Tables_number 14
loop_
_symmetry_equiv_pos_site_id
_symmetry_equiv_pos_as_xyz
1 x,y,z
2 1/2-x,1/2+y,1/2-z
3 -x,-y,-z
4 -1/2+x,-1/2-y,-1/2+z
_cell_length_a 11.761(5)
_cell_length_b 6.131(3)
_cell_length_c 24.804(10)
_cell_angle_alpha 90
_cell_angle_beta 91.736(9)
_cell_angle_gamma 90
_cell_formula_units_Z 4
loop_
_atom_type_symbol
_atom_type_radius_bond
C 0.68
H 0.23
loop_
_atom_site_label
_atom_site_type_symbol
_atom_site_fract_x
_atom_site_fract_y
_atom_site_fract_z
C1 C 0.4516(4) 0.0500(8) 0.4022(2)
H1 H 0.41520 -0.07440 0.41660
C2 C 0.4482(3) 0.0822(7) 0.34524(19)
C3 C 0.3924(3) -0.0656(7) 0.3099(2)
H2 H 0.35870 -0.19340 0.32410
C4 C 0.3857(3) -0.0285(7) 0.25547(19)
C5 C 0.3253(4) -0.1517(8) 0.21080(19)
H3 H 0.35890 -0.29840 0.20630
H4 H 0.24340 -0.16730 0.21790
C6 C 0.3431(3) -0.0136(8) 0.1622(2)
C7 C 0.3042(4) -0.0417(9) 0.1095(2)
H5 H 0.25970 -0.16580 0.09980
C8 C 0.3307(4) 0.1129(9) 0.0710(2)
H6 H 0.30290 0.09460 0.03490
C9 C 0.3967(4) 0.2932(8) 0.0841(2)
H7 H 0.41530 0.39570 0.05700
C10 C 0.4360(4) 0.3240(8) 0.1372(2)
H8 H 0.479(3) 0.457(7) 0.1462(17)
C11 C 0.4084(3) 0.1700(7) 0.17600(19)
C12 C 0.4364(3) 0.1603(7) 0.23400(19)
C13 C 0.4938(3) 0.3088(8) 0.2673(2)
H9 H 0.527(4) 0.446(8) 0.2511(18)
C14 C 0.5019(3) 0.2731(7) 0.32364(18)
C15 C 0.5618(3) 0.4213(7) 0.36040(19)
C16 C 0.6221(3) 0.6060(7) 0.3420(2)
H10 H 0.619(3) 0.648(6) 0.2993(17)
C17 C 0.6820(3) 0.7370(7) 0.37790(19)
C18 C 0.7499(3) 0.9354(7) 0.3692(2)
C19 C 0.7743(4) 1.0476(8) 0.3221(2)
H11 H 0.740(3) 1.000(6) 0.2846(16)
C20 C 0.8405(3) 1.2351(7) 0.3256(2)
H12 H 0.85770 1.31410 0.29390
C21 C 0.8817(4) 1.3069(8) 0.3762(2)
H13 H 0.92480 1.43780 0.37830
C22 C 0.8616(4) 1.1925(8) 0.4232(2)
H14 H 0.89310 1.23980 0.45690
C23 C 0.7945(4) 1.0081(8) 0.41947(19)
C24 C 0.7566(4) 0.8594(8) 0.46421(19)
H15 H 0.71240 0.94040 0.49100
H16 H 0.82240 0.78810 0.48270
C25 C 0.6824(4) 0.6934(8) 0.43381(19)
C26 C 0.6223(3) 0.5170(8) 0.45304(19)
H17 H 0.62110 0.48840 0.49070
C27 C 0.5632(4) 0.3808(7) 0.41636(19)
C28 C 0.5050(3) 0.1907(8) 0.43623(19)
H18 H 0.50440 0.16440 0.47400
loop_
_geom_bond_atom_site_label_1
_geom_bond_atom_site_label_2
_geom_bond_distance
_geom_bond_site_symmetry_1
_geom_bond_site_symmetry_2
C1 H1 0.950 1_555 1_555
C2 C1 1.426 1_555 1_555
C3 C2 1.409 1_555 1_555
H2 C3 0.951 1_555 1_555
C4 C3 1.369 1_555 1_555
C5 C4 1.502 1_555 1_555
H3 C5 0.990 1_555 1_555
H4 C5 0.989 1_555 1_555
C6 C5 1.493 1_555 1_555
C7 C6 1.383 1_555 1_555
H5 C7 0.950 1_555 1_555
C8 C7 1.388 1_555 1_555
H6 C8 0.951 1_555 1_555
C9 C8 1.384 1_555 1_555
H7 C9 0.951 1_555 1_555
C10 C9 1.395 1_555 1_555
H8 C10 0.982 1_555 1_555
C11 C6 1.399 1_555 1_555
C12 C4 1.414 1_555 1_555
C13 C12 1.390 1_555 1_555
H9 C13 1.015 1_555 1_555
C14 C2 1.441 1_555 1_555
C15 C14 1.454 1_555 1_555
C16 C15 1.419 1_555 1_555
H10 C16 1.090 1_555 1_555
C17 C16 1.377 1_555 1_555
C18 C17 1.475 1_555 1_555
C19 C18 1.393 1_555 1_555
H11 C19 1.044 1_555 1_555
C20 C19 1.390 1_555 1_555
H12 C20 0.950 1_555 1_555
C21 C20 1.402 1_555 1_555
H13 C21 0.950 1_555 1_555
C22 C21 1.387 1_555 1_555
H14 C22 0.949 1_555 1_555
C23 C18 1.410 1_555 1_555
C24 C23 1.514 1_555 1_555
H15 C24 0.990 1_555 1_555
H16 C24 0.989 1_555 1_555
C25 C17 1.412 1_555 1_555
C26 C25 1.385 1_555 1_555
H17 C26 0.951 1_555 1_555
C27 C15 1.410 1_555 1_555
C28 C1 1.349 1_555 1_555
H18 C28 0.951 1_555 1_555
C10 C11 1.394 1_555 1_555
C11 C12 1.467 1_555 1_555
C13 C14 1.415 1_555 1_555
C22 C23 1.380 1_555 1_555
C24 C25 1.525 1_555 1_555
C26 C27 1.404 1_555 1_555
C27 C28 1.446 1_555 1_555
#END
