
#######################################################################
#
#                 Cambridge Crystallographic Data Centre
#                                CCDC
#
#######################################################################
#
# If this CIF has been generated from an entry in the Cambridge
# Structural Database, then it will include bibliographic, chemical,
# crystal, experimental, refinement or atomic coordinate data resulting
# from the CCDC's data processing and validation procedures.
#
#######################################################################

data_CSD_CIF_BENANT01
_audit_creation_date 1971-12-31
_audit_creation_method CSD-ConQuest-V1
_database_code_CSD BENANT01
_database_code_depnum_ccdc_archive 'CCDC 1108601'
_chemical_formula_sum 'C20 H16'
_chemical_formula_moiety
;
C20 H16
;
_journal_coden_Cambridge 6
_journal_volume 201
_journal_year 1964
_journal_page_first 916
_journal_name_full 'Nature (London) '
loop_
_publ_author_name
"J.Iball"
_chemical_name_systematic
;
9,10-Dimethyl-1,2-benzanthracene
;
_cell_volume   1386.598
_exptl_special_details
;
Z-COORD OF C7 GIVEN AS 3.1752 IN TAB1 SHOULD BE 3.2752

;
_diffrn_ambient_temperature ?
_diffrn_special_details
;
The study was carried out at room temperature,in the range 283-303K

;
#These two values have been output from a single CSD field.
_refine_ls_R_factor_gt 0.07
_refine_ls_wR_factor_gt 0.07
loop_
_citation_database_id_CSD
_citation_special_details
BENANT "is reinterpreted by this entry"
_symmetry_cell_setting orthorhombic
_symmetry_space_group_name_H-M 'P 21 n b'
_symmetry_Int_Tables_number 33
loop_
_symmetry_equiv_pos_site_id
_symmetry_equiv_pos_as_xyz
1 x,y,z
2 1/2+x,1/2-y,1/2+z
3 x,1/2+y,1/2-z
4 1/2+x,-y,-z
_cell_length_a 7.62
_cell_length_b 8.62
_cell_length_c 21.11
_cell_angle_alpha 90
_cell_angle_beta 90
_cell_angle_gamma 90
_cell_formula_units_Z 4
loop_
_atom_type_symbol
_atom_type_radius_bond
C 0.68
loop_
_atom_site_label
_atom_site_type_symbol
_atom_site_fract_x
_atom_site_fract_y
_atom_site_fract_z
C1 C 0.24920 0.25144 0.09763
C2 C 0.32185 0.32329 -0.07731
C3 C 0.32724 0.34031 -0.01180
C4 C 0.14591 0.16126 0.13837
C5 C 0.26579 0.18173 -0.10351
C6 C 0.23185 0.05224 -0.06310
C7 C 0.27140 0.21573 0.02948
C8 C 0.24255 -0.07829 0.04374
C9 C 0.37591 0.45481 -0.12088
C10 C 0.32551 0.38976 0.12178
C11 C 0.12820 0.19800 0.20187
C12 C 0.40350 0.49840 0.07978
C13 C 0.21743 0.32697 0.22726
C14 C 0.39571 0.47992 0.01705
C15 C 0.30984 0.42092 0.18775
C16 C 0.24364 0.15945 -0.17088
C17 C 0.19017 0.02248 -0.19527
C18 C 0.16001 -0.10574 -0.15515
C19 C 0.18266 -0.09171 -0.09112
C20 C 0.24507 0.06816 0.00411
loop_
_geom_bond_atom_site_label_1
_geom_bond_atom_site_label_2
_geom_bond_distance
_geom_bond_site_symmetry_1
_geom_bond_site_symmetry_2
C1 C4 1.401 1_555 1_555
C2 C3 1.391 1_555 1_555
C3 C7 1.447 1_555 1_555
C4 C11 1.384 1_555 1_555
C5 C2 1.406 1_555 1_555
C6 C5 1.428 1_555 1_555
C7 C1 1.481 1_555 1_555
C8 C20 1.515 1_555 1_555
C9 C2 1.517 1_555 1_555
C10 C1 1.421 1_555 1_555
C11 C13 1.409 1_555 1_555
C12 C10 1.420 1_555 1_555
C13 C15 1.359 1_555 1_555
C14 C3 1.446 1_555 1_555
C15 C10 1.423 1_555 1_555
C16 C5 1.445 1_555 1_555
C17 C16 1.351 1_555 1_555
C18 C17 1.411 1_555 1_555
C19 C6 1.425 1_555 1_555
C20 C6 1.429 1_555 1_555
C7 C20 1.395 1_555 1_555
C12 C14 1.335 1_555 1_555
C18 C19 1.368 1_555 1_555
#END
