
#######################################################################
#
#                 Cambridge Crystallographic Data Centre
#                                CCDC
#
#######################################################################
#
# If this CIF has been generated from an entry in the Cambridge
# Structural Database, then it will include bibliographic, chemical,
# crystal, experimental, refinement or atomic coordinate data resulting
# from the CCDC's data processing and validation procedures.
#
#######################################################################

data_CSD_CIF_BENANT03
_audit_creation_date 1988-09-05
_audit_creation_method CSD-ConQuest-V1
_database_code_CSD BENANT03
_database_code_depnum_ccdc_archive 'CCDC 1108603'
_chemical_formula_sum 'C20 H16'
_chemical_formula_moiety
;
C20 H16
;
_journal_coden_Cambridge 557
_journal_volume 8
_journal_year 1987
_journal_page_first 5
_journal_name_full 'Carcinogenesis '
loop_
_publ_author_name
"C.L.Klein"
"E.D.Stevens"
"D.E.Zacharias"
"J.P.Glusker"
_chemical_name_systematic
;
7,12-Dimethylbenz(a)anthracene
;
_cell_volume   1343.422
_exptl_crystal_density_diffrn 1.267
_exptl_special_details
;
carcinogenic agent

;
_diffrn_ambient_temperature 180
_refine_special_details
;
multipole refinement

;
#These two values have been output from a single CSD field.
_refine_ls_R_factor_gt 0.036
_refine_ls_wR_factor_gt 0.036
_symmetry_cell_setting orthorhombic
_symmetry_space_group_name_H-M 'P n a 21'
_symmetry_Int_Tables_number 33
loop_
_symmetry_equiv_pos_site_id
_symmetry_equiv_pos_as_xyz
1 x,y,z
2 1/2-x,1/2+y,1/2+z
3 1/2+x,1/2-y,z
4 -x,-y,1/2+z
_cell_length_a 8.615(2)
_cell_length_b 21.036(4)
_cell_length_c 7.413(2)
_cell_angle_alpha 90
_cell_angle_beta 90
_cell_angle_gamma 90
_cell_formula_units_Z 4
loop_
_atom_type_symbol
_atom_type_radius_bond
C 0.68
H 0.23
loop_
_atom_site_label
_atom_site_type_symbol
_atom_site_fract_x
_atom_site_fract_y
_atom_site_fract_z
C1 C 0.1626(3) 0.1389(1) 0.1537(4)
C2 C 0.2023(3) 0.2027(1) 0.1386(4)
C3 C 0.3343(2) 0.2269(1) 0.2258(4)
C4 C 0.4309(2) 0.1854(1) 0.3165(4)
C5 C 0.5066(2) 0.0766(1) 0.4038(4)
C6 C 0.4818(2) 0.0131(1) 0.3971(4)
C7 C 0.3188(2) -0.0799(1) 0.3247(3)
C8 C 0.1487(2) -0.1713(1) 0.2447(4)
C9 C 0.0070(2) -0.1950(1) 0.1943(4)
C10 C -0.1208(2) -0.1533(1) 0.1693(4)
C11 C -0.1026(2) -0.0893(1) 0.1943(4)
C12 C 0.0651(2) 0.0045(1) 0.2552(3)
C13 C 0.2151(2) 0.0290(1) 0.2784(3)
C14 C 0.2539(2) 0.0966(1) 0.25620
C15 C 0.3955(2) 0.1201(1) 0.3288(4)
C16 C 0.3390(2) -0.0138(1) 0.3305(3)
C17 C 0.1731(2) -0.1048(1) 0.2694(3)
C18 C 0.0444(2) -0.0625(1) 0.2413(4)
C19 C -0.0798(2) 0.0457(1) 0.2600(4)
C20 C 0.4492(2) -0.1247(1) 0.3717(4)
H1 H 0.06120 0.12200 0.08620
H2 H 0.13120 0.23380 0.05950
H3 H 0.35920 0.27680 0.22220
H4 H 0.53520 0.20330 0.37870
H5 H 0.61070 0.09460 0.46600
H6 H 0.57190 -0.01830 0.44320
H7 H 0.24360 -0.20360 0.26640
H8 H -0.00720 -0.24520 0.17390
H9 H -0.23220 -0.17210 0.13100
H10 H -0.20120 -0.05830 0.17810
H11 H -0.16320 0.02060 0.33990
H12 H -0.12460 0.05110 0.12440
H13 H -0.04770 0.09080 0.31730
H14 H 0.49850 -0.14760 0.25650
H15 H 0.53840 -0.10310 0.45070
H16 H 0.39480 -0.16020 0.45340
loop_
_geom_bond_atom_site_label_1
_geom_bond_atom_site_label_2
_geom_bond_distance
_geom_bond_site_symmetry_1
_geom_bond_site_symmetry_2
C1 C2 1.390 1_555 1_555
C2 C3 1.404 1_555 1_555
C3 C4 1.381 1_555 1_555
C4 C15 1.410 1_555 1_555
C5 C6 1.354 1_555 1_555
C6 C16 1.441 1_555 1_555
C7 C16 1.402 1_555 1_555
C8 C9 1.371 1_555 1_555
C9 C10 1.420 1_555 1_555
C10 C11 1.368 1_555 1_555
C11 C18 1.429 1_555 1_555
C12 C13 1.402 1_555 1_555
C13 C14 1.470 1_555 1_555
C14 C1 1.410 1_555 1_555
C15 C5 1.436 1_555 1_555
C16 C13 1.449 1_555 1_555
C17 C7 1.421 1_555 1_555
C18 C12 1.424 1_555 1_555
C19 C12 1.520 1_555 1_555
C20 C7 1.507 1_555 1_555
H1 C1 1.068 1_555 1_555
H2 C2 1.071 1_555 1_555
H3 C3 1.072 1_555 1_555
H4 C4 1.078 1_555 1_555
H5 C5 1.077 1_555 1_555
H6 C6 1.075 1_555 1_555
H7 C8 1.075 1_555 1_555
H8 C9 1.074 1_555 1_555
H9 C10 1.076 1_555 1_555
H10 C11 1.078 1_555 1_555
H11 C19 1.070 1_555 1_555
H12 C19 1.083 1_555 1_555
H13 C19 1.076 1_555 1_555
H14 C20 1.069 1_555 1_555
H15 C20 1.068 1_555 1_555
H16 C20 1.070 1_555 1_555
C8 C17 1.426 1_555 1_555
C14 C15 1.422 1_555 1_555
C17 C18 1.437 1_555 1_555
#END
