
#######################################################################
#
#                 Cambridge Crystallographic Data Centre
#                                CCDC
#
#######################################################################
#
# If this CIF has been generated from an entry in the Cambridge
# Structural Database, then it will include bibliographic, chemical,
# crystal, experimental, refinement or atomic coordinate data resulting
# from the CCDC's data processing and validation procedures.
#
#######################################################################

data_CSD_CIF_BENANT
_audit_creation_date 1971-12-31
_audit_creation_method CSD-ConQuest-V1
_database_code_CSD BENANT
_database_code_depnum_ccdc_archive 'CCDC 1108600'
_chemical_formula_sum 'C20 H16'
_chemical_formula_moiety
;
C20 H16
;
_journal_coden_Cambridge 6
_journal_volume 187
_journal_year 1960
_journal_page_first 139
_journal_name_full 'Nature (London) '
loop_
_publ_author_name
"D.Sayre"
"P.H.Friedlander"
_chemical_name_systematic
;
9,10-Dimethyl-1,2-benzanthracene
;
_cell_volume   1386.598
_diffrn_ambient_temperature ?
_diffrn_special_details
;
The study was carried out at room temperature,in the range 283-303K

;
#These two values have been output from a single CSD field.
_refine_ls_R_factor_gt 0.135
_refine_ls_wR_factor_gt 0.135
loop_
_citation_database_id_CSD
_citation_special_details
BENANT01 "is a reinterpretation of this cif"
_symmetry_cell_setting orthorhombic
_symmetry_space_group_name_H-M 'P 21 n b'
_symmetry_Int_Tables_number 33
loop_
_symmetry_equiv_pos_site_id
_symmetry_equiv_pos_as_xyz
1 x,y,z
2 1/2+x,1/2-y,1/2+z
3 x,1/2+y,1/2-z
4 1/2+x,-y,-z
_cell_length_a 7.62
_cell_length_b 8.62
_cell_length_c 21.11
_cell_angle_alpha 90
_cell_angle_beta 90
_cell_angle_gamma 90
_cell_formula_units_Z 4
loop_
_atom_type_symbol
_atom_type_radius_bond
C 0.68
loop_
_atom_site_label
_atom_site_type_symbol
_atom_site_fract_x
_atom_site_fract_y
_atom_site_fract_z
C1 C 0.24790 0.25220 0.09770
C2 C 0.32220 0.32230 -0.07690
C3 C 0.32790 0.34000 -0.01150
C4 C 0.26600 0.18190 -0.10320
C5 C 0.23320 0.05240 -0.06320
C6 C 0.27080 0.21560 0.02950
C7 C 0.24360 -0.07830 0.04350
C8 C 0.37450 0.45530 -0.12120
C9 C 0.14440 0.16180 0.13800
C10 C 0.12750 0.19770 0.20230
C11 C 0.21750 0.32660 0.22650
C12 C 0.32660 0.38970 0.12120
C13 C 0.30930 0.42130 0.18800
C14 C 0.40340 0.49950 0.07990
C15 C 0.39590 0.47960 0.01700
C16 C 0.24360 0.15950 -0.17060
C17 C 0.19090 0.02250 -0.19490
C18 C 0.15790 -0.10460 -0.15580
C19 C 0.18420 -0.09190 -0.09140
C20 C 0.24470 0.06760 0.00460
loop_
_geom_bond_atom_site_label_1
_geom_bond_atom_site_label_2
_geom_bond_distance
_geom_bond_site_symmetry_1
_geom_bond_site_symmetry_2
C1 C6 1.484 1_555 1_555
C2 C3 1.390 1_555 1_555
C3 C6 1.445 1_555 1_555
C4 C2 1.399 1_555 1_555
C5 C4 1.422 1_555 1_555
C6 C20 1.394 1_555 1_555
C7 C20 1.502 1_555 1_555
C8 C2 1.532 1_555 1_555
C9 C1 1.397 1_555 1_555
C10 C9 1.398 1_555 1_555
C11 C10 1.402 1_555 1_555
C12 C1 1.418 1_555 1_555
C13 C11 1.348 1_555 1_555
C14 C12 1.414 1_555 1_555
C15 C3 1.442 1_555 1_555
C16 C4 1.446 1_555 1_555
C17 C16 1.349 1_555 1_555
C18 C17 1.395 1_555 1_555
C19 C5 1.429 1_555 1_555
C20 C5 1.440 1_555 1_555
C12 C13 1.442 1_555 1_555
C14 C15 1.340 1_555 1_555
C18 C19 1.379 1_555 1_555
#END
