
#######################################################################
#
#                 Cambridge Crystallographic Data Centre
#                                CCDC
#
#######################################################################
#
# If this CIF has been generated from an entry in the Cambridge
# Structural Database, then it will include bibliographic, chemical,
# crystal, experimental, refinement or atomic coordinate data resulting
# from the CCDC's data processing and validation procedures.
#
#######################################################################

data_CSD_CIF_BEQYIG
_audit_creation_date 2004-09-14
_audit_creation_method CSD-ConQuest-V1
_database_code_CSD BEQYIG
_database_code_depnum_ccdc_archive 'CCDC 229716'
_chemical_formula_sum 'C64 H32'
_chemical_formula_moiety
;
C64 H32
;
_journal_coden_Cambridge 179
_journal_volume 43
_journal_year 2004
_journal_page_first 2248
_journal_name_full 'Angew.Chem.,Int.Ed. '
loop_
_publ_author_name
"S.Toyota"
"M.Goichi"
"M.Kotani"
_chemical_name_systematic
;
1,4,7,10(1,8)-Tetra-anthracenacyclododecaphane-2,5,8,11-tetrayne
;
_chemical_melting_point 623.15
_cell_volume   4029.328
_exptl_crystal_colour 'orange'
_exptl_crystal_density_diffrn 1.32
_exptl_special_details
;
Melts above 623.15K

;
_exptl_crystal_description 'platelet'
_exptl_crystal_preparation 'chlorobenzene'
_diffrn_ambient_temperature 93.2
#These two values have been output from a single CSD field.
_refine_ls_R_factor_gt 0.0675
_refine_ls_wR_factor_gt 0.0675
_symmetry_cell_setting monoclinic
_symmetry_space_group_name_H-M 'P 21/n'
_symmetry_Int_Tables_number 14
loop_
_symmetry_equiv_pos_site_id
_symmetry_equiv_pos_as_xyz
1 x,y,z
2 1/2+x,1/2-y,1/2+z
3 -x,-y,-z
4 -1/2-x,-1/2+y,-1/2-z
_cell_length_a 11.8063(8)
_cell_length_b 19.016(2)
_cell_length_c 18.221(2)
_cell_angle_alpha 90
_cell_angle_beta 99.943(7)
_cell_angle_gamma 90
_cell_formula_units_Z 4
loop_
_atom_type_symbol
_atom_type_radius_bond
C 0.68
H 0.23
loop_
_atom_site_label
_atom_site_type_symbol
_atom_site_fract_x
_atom_site_fract_y
_atom_site_fract_z
C1 C 0.2085(3) 0.0092(2) 0.4175(2)
C2 C 0.1419(3) -0.0186(2) 0.4647(2)
C3 C 0.0680(3) -0.0760(2) 0.4439(2)
C4 C 0.0607(3) -0.1052(2) 0.3752(2)
C5 C 0.1829(3) -0.1142(2) 0.1298(2)
C6 C 0.2450(3) -0.0878(2) 0.0801(2)
C7 C 0.3174(3) -0.0280(2) 0.0991(2)
C8 C 0.3248(2) 0.0035(2) 0.1675(2)
C9 C 0.2647(3) 0.0072(2) 0.2924(2)
C10 C 0.1205(3) -0.1078(2) 0.2521(2)
C11 C 0.2015(3) -0.0198(2) 0.3434(2)
C12 C 0.1267(3) -0.0780(2) 0.3225(2)
C13 C 0.1860(3) -0.0824(2) 0.2010(2)
C14 C 0.2595(3) -0.0229(2) 0.2218(2)
C15 C 0.5610(3) 0.1596(2) 0.2156(2)
C16 C 0.5500(3) 0.2218(2) 0.2504(2)
C17 C 0.6390(3) 0.2727(2) 0.2589(2)
C18 C 0.7378(3) 0.2598(2) 0.2327(2)
C19 C 0.9875(3) 0.0923(2) 0.1278(2)
C20 C 1.0041(3) 0.0293(2) 0.0974(2)
C21 C 0.9126(3) -0.0205(2) 0.0844(2)
C22 C 0.8062(3) -0.0058(2) 0.1021(2)
C23 C 0.6825(3) 0.0786(2) 0.1559(2)
C24 C 0.8599(3) 0.1768(2) 0.1756(2)
C25 C 0.6655(3) 0.1429(2) 0.1886(2)
C26 C 0.7563(3) 0.1942(2) 0.1980(2)
C27 C 0.8787(3) 0.1117(2) 0.1464(2)
C28 C 0.7865(3) 0.0614(2) 0.1338(2)
C29 C 0.5577(3) -0.1556(2) 0.0526(2)
C30 C 0.5395(3) -0.1819(2) -0.0186(2)
C31 C 0.4615(3) -0.2380(2) -0.0384(2)
C32 C 0.4036(3) -0.2678(2) 0.0120(2)
C33 C 0.2981(3) -0.2662(2) 0.2627(2)
C34 C 0.3045(3) -0.2350(2) 0.3300(2)
C35 C 0.3794(3) -0.1778(2) 0.3517(2)
C36 C 0.4473(3) -0.1523(2) 0.3040(2)
C37 C 0.5038(2) -0.1556(2) 0.1787(2)
C38 C 0.3568(3) -0.2689(2) 0.1389(2)
C39 C 0.4939(3) -0.1834(2) 0.1074(2)
C40 C 0.4172(3) -0.2415(2) 0.0862(2)
C41 C 0.3650(3) -0.2408(2) 0.2101(2)
C42 C 0.4403(3) -0.1821(2) 0.2307(2)
C43 C 0.6919(3) -0.0003(2) 0.3434(2)
C44 C 0.7938(3) -0.0127(2) 0.3183(2)
C45 C 0.8802(3) 0.0396(2) 0.3242(2)
C46 C 0.8659(3) 0.1031(2) 0.3558(2)
C47 C 0.6215(3) 0.2664(2) 0.4689(2)
C48 C 0.5204(3) 0.2804(2) 0.4926(2)
C49 C 0.4336(3) 0.2287(2) 0.4891(2)
C50 C 0.4480(3) 0.1637(2) 0.4605(2)
C51 C 0.5725(3) 0.0810(2) 0.4044(2)
C52 C 0.7441(3) 0.1832(2) 0.4148(2)
C53 C 0.6736(3) 0.0662(2) 0.3776(2)
C54 C 0.7623(3) 0.1186(2) 0.3829(2)
C55 C 0.6422(3) 0.1985(2) 0.4405(2)
C56 C 0.5546(3) 0.1460(2) 0.4350(2)
C57 C 0.3601(3) 0.1109(2) 0.4525(2)
C58 C 0.2888(3) 0.0655(2) 0.4402(2)
C59 C 0.4013(3) 0.0620(2) 0.1869(2)
C60 C 0.4690(3) 0.1083(2) 0.2030(2)
C61 C 0.7159(3) -0.0573(2) 0.0877(2)
C62 C 0.6416(3) -0.1003(2) 0.0729(2)
C63 C 0.5297(3) -0.0971(2) 0.3249(2)
C64 C 0.6037(3) -0.0533(2) 0.3348(2)
H1 H 0.14590 0.00170 0.51380
H2 H 0.02160 -0.09440 0.47790
H3 H 0.01110 -0.14550 0.36120
H4 H 0.13570 -0.15490 0.11770
H5 H 0.24140 -0.10990 0.03160
H6 H 0.36240 -0.00950 0.06450
H7 H 0.31400 0.04760 0.30630
H8 H 0.06850 -0.14660 0.23900
H9 H 0.48030 0.23190 0.26900
H10 H 0.62990 0.31630 0.28350
H11 H 0.79590 0.29550 0.23770
H12 H 1.05040 0.12610 0.13720
H13 H 1.07890 0.01760 0.08490
H14 H 0.92300 -0.06530 0.06220
H15 H 0.62060 0.04540 0.14830
H16 H 0.92050 0.21130 0.17980
H17 H 0.57970 -0.16170 -0.05560
H18 H 0.45070 -0.25590 -0.08880
H19 H 0.35240 -0.30650 -0.00180
H20 H 0.24800 -0.30600 0.24970
H21 H 0.25560 -0.25230 0.36310
H22 H 0.38410 -0.15650 0.40030
H23 H 0.55610 -0.11690 0.19240
H24 H 0.30560 -0.30760 0.12500
H25 H 0.80390 -0.05770 0.29600
H26 H 0.95130 0.03000 0.30760
H27 H 0.92560 0.13830 0.35830
H28 H 0.68070 0.30230 0.47070
H29 H 0.50740 0.32640 0.51200
H30 H 0.36370 0.23830 0.50860
H31 H 0.51490 0.04530 0.40100
H32 H 0.80340 0.21830 0.41770
loop_
_geom_bond_atom_site_label_1
_geom_bond_atom_site_label_2
_geom_bond_distance
_geom_bond_site_symmetry_1
_geom_bond_site_symmetry_2
C1 C2 1.368 1_555 1_555
C2 C3 1.408 1_555 1_555
C3 C4 1.358 1_555 1_555
C4 C12 1.434 1_555 1_555
C5 C6 1.356 1_555 1_555
C6 C7 1.429 1_555 1_555
C7 C8 1.372 1_555 1_555
C8 C14 1.445 1_555 1_555
C9 C11 1.387 1_555 1_555
C10 C12 1.393 1_555 1_555
C11 C1 1.448 1_555 1_555
C12 C11 1.426 1_555 1_555
C13 C5 1.426 1_555 1_555
C14 C9 1.400 1_555 1_555
C15 C16 1.359 1_555 1_555
C16 C17 1.417 1_555 1_555
C17 C18 1.357 1_555 1_555
C18 C26 1.432 1_555 1_555
C19 C20 1.348 1_555 1_555
C20 C21 1.425 1_555 1_555
C21 C22 1.378 1_555 1_555
C22 C28 1.438 1_555 1_555
C23 C25 1.390 1_555 1_555
C24 C26 1.394 1_555 1_555
C25 C15 1.440 1_555 1_555
C26 C25 1.438 1_555 1_555
C27 C19 1.432 1_555 1_555
C28 C23 1.396 1_555 1_555
C29 C30 1.372 1_555 1_555
C30 C31 1.415 1_555 1_555
C31 C32 1.360 1_555 1_555
C32 C40 1.424 1_555 1_555
C33 C34 1.353 1_555 1_555
C34 C35 1.414 1_555 1_555
C35 C36 1.369 1_555 1_555
C36 C42 1.440 1_555 1_555
C37 C39 1.389 1_555 1_555
C38 C40 1.392 1_555 1_555
C39 C29 1.450 1_555 1_555
C40 C39 1.438 1_555 1_555
C41 C33 1.427 1_555 1_555
C42 C37 1.400 1_555 1_555
C43 C44 1.379 1_555 1_555
C44 C45 1.415 1_555 1_555
C45 C46 1.361 1_555 1_555
C46 C54 1.427 1_555 1_555
C47 C48 1.364 1_555 1_555
C48 C49 1.414 1_555 1_555
C49 C50 1.363 1_555 1_555
C50 C56 1.454 1_555 1_555
C51 C53 1.394 1_555 1_555
C52 C54 1.391 1_555 1_555
C53 C43 1.442 1_555 1_555
C54 C53 1.437 1_555 1_555
C55 C47 1.428 1_555 1_555
C56 C51 1.387 1_555 1_555
C57 C50 1.433 1_555 1_555
C58 C1 1.442 1_555 1_555
C59 C8 1.438 1_555 1_555
C60 C15 1.448 1_555 1_555
C61 C22 1.438 1_555 1_555
C62 C29 1.448 1_555 1_555
C63 C36 1.437 1_555 1_555
C64 C43 1.438 1_555 1_555
H1 C2 0.968 1_555 1_555
H2 C3 0.961 1_555 1_555
H3 C4 0.971 1_555 1_555
H4 C5 0.957 1_555 1_555
H5 C6 0.973 1_555 1_555
H6 C7 0.959 1_555 1_555
H7 C9 0.971 1_555 1_555
H8 C10 0.963 1_555 1_555
H9 C16 0.962 1_555 1_555
H10 C17 0.957 1_555 1_555
H11 C18 0.958 1_555 1_555
H12 C19 0.975 1_555 1_555
H13 C20 0.975 1_555 1_555
H14 C21 0.960 1_555 1_555
H15 C23 0.958 1_555 1_555
H16 C24 0.964 1_555 1_555
H17 C30 0.968 1_555 1_555
H18 C31 0.967 1_555 1_555
H19 C32 0.958 1_555 1_555
H20 C33 0.965 1_555 1_555
H21 C34 0.962 1_555 1_555
H22 C35 0.967 1_555 1_555
H23 C37 0.965 1_555 1_555
H24 C38 0.958 1_555 1_555
H25 C44 0.963 1_555 1_555
H26 C45 0.958 1_555 1_555
H27 C46 0.967 1_555 1_555
H28 C47 0.974 1_555 1_555
H29 C48 0.966 1_555 1_555
H30 C49 0.971 1_555 1_555
H31 C51 0.955 1_555 1_555
H32 C52 0.962 1_555 1_555
C10 C13 1.395 1_555 1_555
C13 C14 1.436 1_555 1_555
C24 C27 1.380 1_555 1_555
C27 C28 1.437 1_555 1_555
C38 C41 1.391 1_555 1_555
C41 C42 1.436 1_555 1_555
C52 C55 1.395 1_555 1_555
C55 C56 1.428 1_555 1_555
C57 C58 1.200 1_555 1_555
C59 C60 1.191 1_555 1_555
C61 C62 1.195 1_555 1_555
C63 C64 1.198 1_555 1_555
#END
