
#######################################################################
#
#                 Cambridge Crystallographic Data Centre
#                                CCDC
#
#######################################################################
#
# If this CIF has been generated from an entry in the Cambridge
# Structural Database, then it will include bibliographic, chemical,
# crystal, experimental, refinement or atomic coordinate data resulting
# from the CCDC's data processing and validation procedures.
#
#######################################################################

data_CSD_CIF_BIGJUX
_audit_creation_date 2005-01-20
_audit_creation_method CSD-ConQuest-V1
_database_code_CSD BIGJUX
_database_code_depnum_ccdc_archive 'CCDC 252291'
_chemical_formula_sum 'C74 H46'
_chemical_formula_moiety
;
C74 H46
;
_journal_coden_Cambridge 4
_journal_volume 126
_journal_year 2004
_journal_page_first 11168
_journal_name_full 'J.Am.Chem.Soc. '
loop_
_publ_author_name
"Jun Lu"
"D.M.Ho"
"N.J.Vogelaar"
"C.M.Kraml"
"R.A.Pascal Junior"
_chemical_name_systematic
;
9,10,11,20,21,22-Hexaphenyltetrabenzo(a,c,l,n)pentacene
;
_chemical_melting_point 743
_cell_volume   4898.674
_exptl_crystal_colour 'orange'
_exptl_crystal_density_diffrn 1.268
_exptl_special_details
;
Melts above 743K

;
_exptl_crystal_description 'needle'
_exptl_crystal_preparation 'benzene/ethanol'
_diffrn_ambient_temperature 100
_diffrn_radiation_probe x-ray
_diffrn_source synchrotron
_diffrn_special_details
;
The structure was refined as a non-merohedral twin

;
#These two values have been output from a single CSD field.
_refine_ls_R_factor_gt 0.0635
_refine_ls_wR_factor_gt 0.0635
_symmetry_cell_setting monoclinic
_symmetry_space_group_name_H-M 'P 21/c'
_symmetry_Int_Tables_number 14
loop_
_symmetry_equiv_pos_site_id
_symmetry_equiv_pos_as_xyz
1 x,y,z
2 -x,1/2+y,1/2-z
3 -x,-y,-z
4 x,-1/2-y,-1/2+z
_cell_length_a 15.5738(5)
_cell_length_b 17.2429(8)
_cell_length_c 18.2439(8)
_cell_angle_alpha 90
_cell_angle_beta 90.816(2)
_cell_angle_gamma 90
_cell_formula_units_Z 4
loop_
_atom_type_symbol
_atom_type_radius_bond
C 0.68
H 0.23
loop_
_atom_site_label
_atom_site_type_symbol
_atom_site_fract_x
_atom_site_fract_y
_atom_site_fract_z
C1 C 0.1107(2) -0.0871(2) 0.3866(2)
H1 H 0.08920 -0.11120 0.34330
C2 C 0.0641(2) -0.0915(2) 0.4503(2)
H2 H 0.01080 -0.11830 0.45030
C3 C 0.0947(2) -0.0571(2) 0.5141(2)
H3 H 0.06260 -0.06030 0.55790
C4 C 0.1717(2) -0.0183(2) 0.5135(2)
H4 H 0.19240 0.00530 0.55740
C5 C 0.2204(2) -0.0127(2) 0.45018(15)
C6 C 0.3020(2) 0.0300(2) 0.44864(15)
C7 C 0.3536(2) 0.0395(2) 0.5118(2)
H5 H 0.33500 0.01850 0.55710
C8 C 0.4304(2) 0.0786(2) 0.5095(2)
H6 H 0.46430 0.08490 0.55280
C9 C 0.4581(2) 0.1087(2) 0.44353(15)
H7 H 0.51150 0.13530 0.44150
C10 C 0.4089(2) 0.1003(2) 0.3812(2)
H8 H 0.42860 0.12160 0.33650
C11 C 0.3296(2) 0.0608(2) 0.38171(14)
C12 C 0.2809(2) 0.0417(2) 0.31435(14)
C13 C 0.2805(2) 0.0834(2) 0.24934(14)
C14 C 0.2522(2) 0.0444(2) 0.18283(13)
C15 C 0.2267(2) 0.0825(2) 0.11725(14)
C16 C 0.2262(2) 0.03972(15) 0.05068(14)
C17 C 0.1843(2) 0.0610(2) -0.01771(14)
C18 C 0.2050(2) 0.0213(2) -0.08108(14)
C19 C 0.1503(2) 0.0185(2) -0.14842(15)
C20 C 0.0610(2) 0.0249(2) -0.1474(2)
H9 H 0.03390 0.03820 -0.10280
C21 C 0.0110(2) 0.0127(2) -0.2091(2)
H10 H -0.04970 0.01750 -0.20650
C22 C 0.0486(2) -0.0067(2) -0.2745(2)
H11 H 0.01420 -0.01530 -0.31710
C23 C 0.1363(2) -0.0135(2) -0.2777(2)
H12 H 0.16200 -0.02670 -0.32290
C24 C 0.1892(2) -0.0014(2) -0.21518(15)
C25 C 0.2824(2) -0.0108(2) -0.21731(14)
C26 C 0.3268(2) -0.0029(2) -0.2826(2)
H13 H 0.29570 0.00870 -0.32630
C27 C 0.4141(2) -0.0115(2) -0.2855(2)
H14 H 0.44290 -0.00590 -0.33080
C28 C 0.4598(2) -0.0282(2) -0.2222(2)
H15 H 0.52030 -0.03440 -0.22380
C29 C 0.4178(2) -0.0361(2) -0.1562(2)
H16 H 0.45020 -0.04750 -0.11300
C30 C 0.3288(2) -0.02767(15) -0.15196(15)
C31 C 0.2827(2) -0.02540(15) -0.08139(15)
C32 C 0.3099(2) -0.0579(2) -0.01596(14)
C33 C 0.2691(2) -0.03412(15) 0.05122(14)
C34 C 0.2713(2) -0.07746(15) 0.11713(14)
C35 C 0.2530(2) -0.0396(2) 0.18375(14)
C36 C 0.2312(2) -0.0761(2) 0.25272(14)
C37 C 0.2348(2) -0.0314(2) 0.31564(14)
C38 C 0.1896(2) -0.0475(2) 0.38495(14)
C39 C 0.3168(2) 0.1637(2) 0.24852(15)
C40 C 0.2881(2) 0.2185(2) 0.2990(2)
H17 H 0.24070 0.20660 0.32920
C41 C 0.3280(2) 0.2902(2) 0.3053(2)
H18 H 0.30720 0.32740 0.33910
C42 C 0.3975(2) 0.3072(2) 0.2628(2)
H19 H 0.42620 0.35550 0.26860
C43 C 0.4254(2) 0.2545(2) 0.2119(2)
H20 H 0.47290 0.26690 0.18200
C44 C 0.3848(2) 0.1834(2) 0.2040(2)
H21 H 0.40380 0.14790 0.16780
C45 C 0.2016(2) 0.16574(15) 0.12011(15)
C46 C 0.1394(2) 0.1909(2) 0.1687(2)
H22 H 0.11190 0.15420 0.19920
C47 C 0.1170(2) 0.2683(2) 0.1732(2)
H23 H 0.07470 0.28450 0.20700
C48 C 0.1556(2) 0.3212(2) 0.1292(2)
H24 H 0.14030 0.37440 0.13250
C49 C 0.2170(2) 0.2981(2) 0.0797(2)
H25 H 0.24340 0.33530 0.04880
C50 C 0.2402(2) 0.2202(2) 0.0752(2)
H26 H 0.28250 0.20430 0.04130
C51 C 0.1163(2) 0.1214(2) -0.01992(15)
C52 C 0.0452(2) 0.1183(2) 0.0236(2)
H27 H 0.03980 0.07770 0.05840
C53 C -0.0190(2) 0.1739(3) 0.0173(2)
H28 H -0.06770 0.17190 0.04790
C54 C -0.0109(3) 0.2326(2) -0.0345(2)
H29 H -0.05580 0.26950 -0.04030
C55 C 0.0610(3) 0.2384(2) -0.0775(2)
H30 H 0.06740 0.27970 -0.11140
C56 C 0.1222(2) 0.1827(2) -0.0695(2)
H31 H 0.17160 0.18570 -0.09930
C57 C 0.3871(2) -0.1090(2) -0.00900(14)
C58 C 0.3946(2) -0.1793(2) -0.0453(2)
H32 H 0.34950 -0.19690 -0.07680
C59 C 0.4679(2) -0.2239(2) -0.0357(2)
H33 H 0.47210 -0.27260 -0.05990
C60 C 0.5351(2) -0.1984(2) 0.0088(2)
H34 H 0.58490 -0.22960 0.01530
C61 C 0.5294(2) -0.1283(2) 0.0433(2)
H35 H 0.57600 -0.10960 0.07250
C62 C 0.4553(2) -0.0846(2) 0.0354(2)
H36 H 0.45080 -0.03670 0.06080
C63 C 0.2884(2) -0.16233(15) 0.11396(14)
C64 C 0.2405(2) -0.2078(2) 0.0651(2)
H37 H 0.19830 -0.18390 0.03460
C65 C 0.2531(2) -0.2871(2) 0.0601(2)
H38 H 0.22030 -0.31710 0.02630
C66 C 0.3140(2) -0.3221(2) 0.1050(2)
H39 H 0.32250 -0.37660 0.10250
C67 C 0.3626(2) -0.2779(2) 0.1536(2)
H40 H 0.40470 -0.30210 0.18400
C68 C 0.3502(2) -0.1984(2) 0.15795(15)
H41 H 0.38400 -0.16850 0.19120
C69 C 0.1990(2) -0.1572(2) 0.25795(14)
C70 C 0.1305(2) -0.1842(2) 0.2153(2)
H42 H 0.10860 -0.15330 0.17610
C71 C 0.0941(2) -0.2559(2) 0.2296(2)
H43 H 0.04710 -0.27370 0.20040
C72 C 0.1254(2) -0.3016(2) 0.2860(2)
H44 H 0.09860 -0.34970 0.29660
C73 C 0.1951(2) -0.2776(2) 0.3266(2)
H45 H 0.21810 -0.31010 0.36420
C74 C 0.2321(2) -0.2060(2) 0.3129(2)
H46 H 0.28060 -0.18980 0.34110
loop_
_geom_bond_atom_site_label_1
_geom_bond_atom_site_label_2
_geom_bond_distance
_geom_bond_site_symmetry_1
_geom_bond_site_symmetry_2
C1 H1 0.949 1_555 1_555
C2 C1 1.381 1_555 1_555
H2 C2 0.950 1_555 1_555
C3 C2 1.385 1_555 1_555
H3 C3 0.950 1_555 1_555
C4 C3 1.373 1_555 1_555
H4 C4 0.951 1_555 1_555
C5 C4 1.394 1_555 1_555
C6 C5 1.469 1_555 1_555
C7 C6 1.405 1_555 1_555
H5 C7 0.951 1_555 1_555
C8 C7 1.374 1_555 1_555
H6 C8 0.950 1_555 1_555
C9 C8 1.385 1_555 1_555
H7 C9 0.951 1_555 1_555
C10 C9 1.370 1_555 1_555
H8 C10 0.949 1_555 1_555
C11 C6 1.405 1_555 1_555
C12 C11 1.472 1_555 1_555
C13 C12 1.387 1_555 1_555
C14 C13 1.450 1_555 1_555
C15 C14 1.417 1_555 1_555
C16 C15 1.421 1_555 1_555
C17 C16 1.447 1_555 1_555
C18 C17 1.386 1_555 1_555
C19 C18 1.486 1_555 1_555
C20 C19 1.395 1_555 1_555
H9 C20 0.950 1_555 1_555
C21 C20 1.376 1_555 1_555
H10 C21 0.951 1_555 1_555
C22 C21 1.378 1_555 1_555
H11 C22 0.949 1_555 1_555
C23 C22 1.373 1_555 1_555
H12 C23 0.949 1_555 1_555
C24 C19 1.410 1_555 1_555
C25 C24 1.462 1_555 1_555
C26 C25 1.392 1_555 1_555
H13 C26 0.948 1_555 1_555
C27 C26 1.369 1_555 1_555
H14 C27 0.951 1_555 1_555
C28 C27 1.378 1_555 1_555
H15 C28 0.949 1_555 1_555
C29 C28 1.385 1_555 1_555
H16 C29 0.950 1_555 1_555
C30 C25 1.416 1_555 1_555
C31 C18 1.454 1_555 1_555
C32 C31 1.380 1_555 1_555
C33 C16 1.438 1_555 1_555
C34 C33 1.416 1_555 1_555
C35 C14 1.449 1_555 1_555
C36 C35 1.451 1_555 1_555
C37 C12 1.451 1_555 1_555
C38 C1 1.406 1_555 1_555
C39 C13 1.496 1_555 1_555
C40 C39 1.397 1_555 1_555
H17 C40 0.950 1_555 1_555
C41 C40 1.388 1_555 1_555
H18 C41 0.950 1_555 1_555
C42 C41 1.372 1_555 1_555
H19 C42 0.950 1_555 1_555
C43 C42 1.374 1_555 1_555
H20 C43 0.950 1_555 1_555
C44 C39 1.386 1_555 1_555
H21 C44 0.951 1_555 1_555
C45 C15 1.489 1_555 1_555
C46 C45 1.392 1_555 1_555
H22 C46 0.949 1_555 1_555
C47 C46 1.382 1_555 1_555
H23 C47 0.951 1_555 1_555
C48 C47 1.361 1_555 1_555
H24 C48 0.950 1_555 1_555
C49 C48 1.383 1_555 1_555
H25 C49 0.951 1_555 1_555
C50 C45 1.389 1_555 1_555
H26 C50 0.950 1_555 1_555
C51 C17 1.485 1_555 1_555
C52 C51 1.373 1_555 1_555
H27 C52 0.950 1_555 1_555
C53 C52 1.389 1_555 1_555
H28 C53 0.949 1_555 1_555
C54 C53 1.392 1_555 1_555
H29 C54 0.950 1_555 1_555
C55 C54 1.380 1_555 1_555
H30 C55 0.949 1_555 1_555
C56 C51 1.395 1_555 1_555
H31 C56 0.950 1_555 1_555
C57 C32 1.495 1_555 1_555
C58 C57 1.387 1_555 1_555
H32 C58 0.951 1_555 1_555
C59 C58 1.385 1_555 1_555
H33 C59 0.951 1_555 1_555
C60 C59 1.387 1_555 1_555
H34 C60 0.950 1_555 1_555
C61 C60 1.366 1_555 1_555
H35 C61 0.950 1_555 1_555
C62 C57 1.392 1_555 1_555
H36 C62 0.950 1_555 1_555
C63 C34 1.489 1_555 1_555
C64 C63 1.395 1_555 1_555
H37 C64 0.949 1_555 1_555
C65 C64 1.385 1_555 1_555
H38 C65 0.949 1_555 1_555
C66 C65 1.383 1_555 1_555
H39 C66 0.950 1_555 1_555
C67 C66 1.386 1_555 1_555
H40 C67 0.949 1_555 1_555
C68 C63 1.391 1_555 1_555
H41 C68 0.950 1_555 1_555
C69 C36 1.489 1_555 1_555
C70 C69 1.392 1_555 1_555
H42 C70 0.951 1_555 1_555
C71 C70 1.386 1_555 1_555
H43 C71 0.950 1_555 1_555
C72 C71 1.380 1_555 1_555
H44 C72 0.950 1_555 1_555
C73 C72 1.369 1_555 1_555
H45 C73 0.952 1_555 1_555
C74 C69 1.401 1_555 1_555
H46 C74 0.950 1_555 1_555
C5 C38 1.411 1_555 1_555
C10 C11 1.411 1_555 1_555
C23 C24 1.413 1_555 1_555
C29 C30 1.397 1_555 1_555
C30 C31 1.484 1_555 1_555
C32 C33 1.448 1_555 1_555
C34 C35 1.412 1_555 1_555
C36 C37 1.383 1_555 1_555
C37 C38 1.482 1_555 1_555
C43 C44 1.386 1_555 1_555
C49 C50 1.394 1_555 1_555
C55 C56 1.359 1_555 1_555
C61 C62 1.384 1_555 1_555
C67 C68 1.387 1_555 1_555
C73 C74 1.387 1_555 1_555
#END
