
#######################################################################
#
#                 Cambridge Crystallographic Data Centre
#                                CCDC
#
#######################################################################
#
# If this CIF has been generated from an entry in the Cambridge
# Structural Database, then it will include bibliographic, chemical,
# crystal, experimental, refinement or atomic coordinate data resulting
# from the CCDC's data processing and validation procedures.
#
#######################################################################

data_CSD_CIF_BINAPH14
_audit_creation_date 2018-02-06
_audit_creation_method CSD-ConQuest-V1
_database_code_CSD BINAPH14
_database_code_depnum_ccdc_archive 'CCDC 1531187'
_chemical_formula_sum 'C20 H14'
_chemical_formula_moiety
;
C20 H14
;
_journal_coden_Cambridge 1326
_journal_volume 20
_journal_year 2018
_journal_page_first 5305
_journal_name_full 'Phys.Chem.Chem.Phys.(PCCP) '
loop_
_publ_author_name
"Kinga Roszak"
"A.Katrusiak"
_chemical_name_systematic
;
(+-)-1,1'-binaphthalene
;
_chemical_name_common
;
(+-)-1,1'-binaphthyl
;
_cell_volume   1322.844
_exptl_crystal_colour 'colorless'
_exptl_crystal_density_diffrn 1.277
_exptl_crystal_description 'plate'
_diffrn_ambient_temperature 296
_diffrn_ambient_pressure 1000.0
#These two values have been output from a single CSD field.
_refine_ls_R_factor_gt 0.0436
_refine_ls_wR_factor_gt 0.0436
loop_
_citation_database_id_CSD
_citation_special_details
BNPHTA "is a stereoisomer of this entry"
_symmetry_cell_setting monoclinic
_symmetry_space_group_name_H-M 'C 2/c'
_symmetry_Int_Tables_number 15
loop_
_symmetry_equiv_pos_site_id
_symmetry_equiv_pos_as_xyz
1 x,y,z
2 -x,y,1/2-z
3 1/2+x,1/2+y,z
4 1/2-x,1/2+y,1/2-z
5 -x,-y,-z
6 x,-y,-1/2+z
7 -1/2-x,-1/2-y,-z
8 -1/2+x,-1/2-y,-1/2+z
_cell_length_a 21.1362(19)
_cell_length_b 6.3427(4)
_cell_length_c 10.2203(9)
_cell_angle_alpha 90
_cell_angle_beta 105.098(12)
_cell_angle_gamma 90
_cell_formula_units_Z 4
loop_
_atom_type_symbol
_atom_type_radius_bond
C 0.68
H 0.23
loop_
_atom_site_label
_atom_site_type_symbol
_atom_site_fract_x
_atom_site_fract_y
_atom_site_fract_z
C1 C 0.46431(7) 0.1071(2) 0.24670(13)
C2 C 0.43896(8) -0.0506(2) 0.31025(16)
H1 H 0.46690 -0.15350 0.35810
C3 C 0.37161(8) -0.0601(3) 0.30463(17)
H2 H 0.35580 -0.16860 0.34850
C4 C 0.32988(7) 0.0886(3) 0.23541(16)
H3 H 0.28560 0.08110 0.23230
C5 C 0.31071(7) 0.4125(3) 0.09507(16)
H4 H 0.26640 0.40880 0.09260
C6 C 0.33341(8) 0.5689(3) 0.02870(17)
H5 H 0.30470 0.67030 -0.01910
C7 C 0.40018(8) 0.5774(2) 0.03222(16)
H6 H 0.41560 0.68440 -0.01360
C8 C 0.44255(7) 0.4304(2) 0.10217(14)
H7 H 0.48670 0.43880 0.10370
C9 C 0.42087(6) 0.2645(2) 0.17275(12)
C10 C 0.35305(6) 0.2548(2) 0.16800(13)
C1A C 0.53569(7) 0.1071(2) 0.25330(13)
C2A C 0.56104(8) -0.0506(2) 0.18975(16)
H1A H 0.53310 -0.15350 0.14190
C3A C 0.62839(8) -0.0601(3) 0.19537(17)
H2A H 0.64420 -0.16860 0.15150
C4A C 0.67012(7) 0.0886(3) 0.26459(16)
H3A H 0.71440 0.08110 0.26770
C5A C 0.68929(7) 0.4125(3) 0.40493(16)
H4A H 0.73360 0.40880 0.40740
C6A C 0.66659(8) 0.5689(3) 0.47130(17)
H5A H 0.69530 0.67030 0.51910
C7A C 0.59982(8) 0.5774(2) 0.46778(16)
H6A H 0.58440 0.68440 0.51360
C8A C 0.55745(7) 0.4304(2) 0.39783(14)
H7A H 0.51330 0.43880 0.39630
C9A C 0.57913(6) 0.2645(2) 0.32725(12)
C10A C 0.64695(6) 0.2548(2) 0.33200(13)
loop_
_geom_bond_atom_site_label_1
_geom_bond_atom_site_label_2
_geom_bond_distance
_geom_bond_site_symmetry_1
_geom_bond_site_symmetry_2
C1 C2 1.375 1_555 1_555
C2 H1 0.929 1_555 1_555
C3 C2 1.411 1_555 1_555
H2 C3 0.930 1_555 1_555
C4 C3 1.358 1_555 1_555
H3 C4 0.929 1_555 1_555
C5 H4 0.931 1_555 1_555
C6 C5 1.358 1_555 1_555
H5 C6 0.931 1_555 1_555
C7 C6 1.403 1_555 1_555
H6 C7 0.930 1_555 1_555
C8 C7 1.360 1_555 1_555
H7 C8 0.931 1_555 1_555
C9 C1 1.432 1_555 1_555
C10 C4 1.415 1_555 1_555
C1A C1 1.493 1_555 1_555
C2A C1A 1.375 1_555 1_555
H1A C2A 0.929 1_555 1_555
C3A C2A 1.411 1_555 1_555
H2A C3A 0.930 1_555 1_555
C4A C3A 1.358 1_555 1_555
H3A C4A 0.929 1_555 1_555
C5A H4A 0.931 1_555 1_555
C6A C5A 1.358 1_555 1_555
H5A C6A 0.931 1_555 1_555
C7A C6A 1.403 1_555 1_555
H6A C7A 0.930 1_555 1_555
C8A C7A 1.360 1_555 1_555
H7A C8A 0.931 1_555 1_555
C9A C1A 1.432 1_555 1_555
C10A C4A 1.415 1_555 1_555
C5 C10 1.418 1_555 1_555
C8 C9 1.418 1_555 1_555
C9 C10 1.423 1_555 1_555
C5A C10A 1.418 1_555 1_555
C8A C9A 1.418 1_555 1_555
C9A C10A 1.423 1_555 1_555
#END
