
#######################################################################
#
#                 Cambridge Crystallographic Data Centre
#                                CCDC
#
#######################################################################
#
# If this CIF has been generated from an entry in the Cambridge
# Structural Database, then it will include bibliographic, chemical,
# crystal, experimental, refinement or atomic coordinate data resulting
# from the CCDC's data processing and validation procedures.
#
#######################################################################

data_CSD_CIF_BINAPH19
_audit_creation_date 2018-02-06
_audit_creation_method CSD-ConQuest-V1
_database_code_CSD BINAPH19
_database_code_depnum_ccdc_archive 'CCDC 1531192'
_chemical_formula_sum 'C20 H14'
_chemical_formula_moiety
;
C20 H14
;
_journal_coden_Cambridge 1326
_journal_volume 20
_journal_year 2018
_journal_page_first 5305
_journal_name_full 'Phys.Chem.Chem.Phys.(PCCP) '
loop_
_publ_author_name
"Kinga Roszak"
"A.Katrusiak"
_chemical_name_systematic
;
(+-)-1,1'-binaphthalene
;
_chemical_name_common
;
(+-)-1,1'-binaphthyl
;
_cell_volume   1247.358
_exptl_crystal_colour 'colorless'
_exptl_crystal_density_diffrn 1.354
_exptl_crystal_description 'plate'
_diffrn_ambient_temperature 296
_diffrn_ambient_pressure 550000.0
#These two values have been output from a single CSD field.
_refine_ls_R_factor_gt 0.0665
_refine_ls_wR_factor_gt 0.0665
loop_
_citation_database_id_CSD
_citation_special_details
BNPHTA "is a stereoisomer of this entry"
_symmetry_cell_setting monoclinic
_symmetry_space_group_name_H-M 'C 2/c'
_symmetry_Int_Tables_number 15
loop_
_symmetry_equiv_pos_site_id
_symmetry_equiv_pos_as_xyz
1 x,y,z
2 -x,y,1/2-z
3 1/2+x,1/2+y,z
4 1/2-x,1/2+y,1/2-z
5 -x,-y,-z
6 x,-y,-1/2+z
7 -1/2-x,-1/2-y,-z
8 -1/2+x,-1/2-y,-1/2+z
_cell_length_a 20.809(16)
_cell_length_b 6.185(2)
_cell_length_c 10.044(4)
_cell_angle_alpha 90
_cell_angle_beta 105.22(1)
_cell_angle_gamma 90
_cell_formula_units_Z 4
loop_
_atom_type_symbol
_atom_type_radius_bond
C 0.68
H 0.23
loop_
_atom_site_label
_atom_site_type_symbol
_atom_site_fract_x
_atom_site_fract_y
_atom_site_fract_z
C1 C 0.4250(19) 0.263(2) 0.1656(16)
C2 C 0.469(2) 0.0961(11) 0.245(2)
C3 C 0.4381(16) -0.0629(15) 0.3077(10)
H1 H 0.46450 -0.17480 0.35420
C4 C 0.3621(18) -0.065(2) 0.3044(17)
H2 H 0.34400 -0.16950 0.35050
C5 C 0.3258(14) 0.0895(13) 0.2330(9)
H3 H 0.28000 0.09170 0.22310
C6 C 0.3560(19) 0.2559(18) 0.1697(11)
C7 C 0.3062(14) 0.4133(13) 0.0943(9)
H4 H 0.26140 0.39770 0.09140
C8 C 0.3262(17) 0.574(2) 0.0321(14)
H5 H 0.29630 0.68170 -0.00810
C9 C 0.4009(16) 0.5862(18) 0.0242(11)
H6 H 0.41550 0.69000 -0.02820
C10 C 0.4425(13) 0.4357(11) 0.0990(7)
H7 H 0.48760 0.45230 0.10540
C1A C 0.5750(19) 0.263(2) 0.3344(16)
C2A C 0.531(2) 0.0961(11) 0.255(2)
C3A C 0.5619(16) -0.0629(15) 0.1923(10)
H1A H 0.53550 -0.17480 0.14580
C4A C 0.6379(18) -0.065(2) 0.1956(17)
H2A H 0.65600 -0.16950 0.14950
C5A C 0.6742(14) 0.0895(13) 0.2670(9)
H3A H 0.72000 0.09170 0.27690
C6A C 0.6440(19) 0.2559(18) 0.3303(11)
C7A C 0.6938(14) 0.4133(13) 0.4057(9)
H4A H 0.73860 0.39770 0.40860
C8A C 0.6738(17) 0.574(2) 0.4679(14)
H5A H 0.70370 0.68170 0.50810
C9A C 0.5991(16) 0.5862(18) 0.4758(11)
H6A H 0.58450 0.69000 0.52820
C10A C 0.5575(13) 0.4357(11) 0.4010(7)
H7A H 0.51240 0.45230 0.39460
loop_
_geom_bond_atom_site_label_1
_geom_bond_atom_site_label_2
_geom_bond_distance
_geom_bond_site_symmetry_1
_geom_bond_site_symmetry_2
C1 C2 1.469 1_555 1_555
C2 C3 1.411 1_555 1_555
C3 H1 0.930 1_555 1_555
C4 C3 1.573 1_555 1_555
H2 C4 0.930 1_555 1_555
C5 C4 1.309 1_555 1_555
H3 C5 0.932 1_555 1_555
C6 C1 1.448 1_555 1_555
C7 C6 1.478 1_555 1_555
H4 C7 0.930 1_555 1_555
C8 C7 1.299 1_555 1_555
H5 C8 0.928 1_555 1_555
C9 C8 1.579 1_555 1_555
H6 C9 0.930 1_555 1_555
C10 C1 1.360 1_555 1_555
H7 C10 0.929 1_555 1_555
C1A C2A 1.469 1_555 1_555
C2A C2 1.268 1_555 1_555
C3A C2A 1.411 1_555 1_555
H1A C3A 0.930 1_555 1_555
C4A C3A 1.573 1_555 1_555
H2A C4A 0.930 1_555 1_555
C5A C4A 1.309 1_555 1_555
H3A C5A 0.932 1_555 1_555
C6A C1A 1.448 1_555 1_555
C7A C6A 1.478 1_555 1_555
H4A C7A 0.930 1_555 1_555
C8A C7A 1.299 1_555 1_555
H5A C8A 0.928 1_555 1_555
C9A C8A 1.579 1_555 1_555
H6A C9A 0.930 1_555 1_555
C10A C1A 1.360 1_555 1_555
H7A C10A 0.929 1_555 1_555
C5 C6 1.438 1_555 1_555
C9 C10 1.356 1_555 1_555
C5A C6A 1.438 1_555 1_555
C9A C10A 1.356 1_555 1_555
#END
