
#######################################################################
#
#                 Cambridge Crystallographic Data Centre
#                                CCDC
#
#######################################################################
#
# If this CIF has been generated from an entry in the Cambridge
# Structural Database, then it will include bibliographic, chemical,
# crystal, experimental, refinement or atomic coordinate data resulting
# from the CCDC's data processing and validation procedures.
#
#######################################################################

data_CSD_CIF_BINAPH12
_audit_creation_date 2017-04-05
_audit_creation_method CSD-ConQuest-V1
_database_code_CSD BINAPH12
_database_code_depnum_ccdc_archive 'CCDC 1542234'
_chemical_formula_sum 'C20 H14'
_chemical_formula_moiety
;
C20 H14
;
_journal_coden_Cambridge 1078
_journal_year 2017
_journal_name_full 'CSD Communication(Private Communication) '
loop_
_publ_author_name
"M.Bolte"
_chemical_name_systematic
;
1,1'-binaphthalene
;
_cell_volume   1299.002
_exptl_crystal_colour 'colorless'
_exptl_crystal_density_diffrn 1.3
_exptl_crystal_description 'block'
_diffrn_ambient_temperature 173
#These two values have been output from a single CSD field.
_refine_ls_R_factor_gt 0.0443
_refine_ls_wR_factor_gt 0.0443
loop_
_citation_database_id_CSD
_citation_special_details
BNPHTA "is a stereoisomer of this entry"
_symmetry_cell_setting monoclinic
_symmetry_space_group_name_H-M 'C 2/c'
_symmetry_Int_Tables_number 15
loop_
_symmetry_equiv_pos_site_id
_symmetry_equiv_pos_as_xyz
1 x,y,z
2 -x,y,1/2-z
3 1/2+x,1/2+y,z
4 1/2-x,1/2+y,1/2-z
5 -x,-y,-z
6 x,-y,-1/2+z
7 -1/2-x,-1/2-y,-z
8 -1/2+x,-1/2-y,-1/2+z
_cell_length_a 21.071(6)
_cell_length_b 6.2995(17)
_cell_length_c 10.132(2)
_cell_angle_alpha 90
_cell_angle_beta 105.01(2)
_cell_angle_gamma 90
_cell_formula_units_Z 4
loop_
_atom_type_symbol
_atom_type_radius_bond
C 0.68
H 0.23
loop_
_atom_site_label
_atom_site_type_symbol
_atom_site_fract_x
_atom_site_fract_y
_atom_site_fract_z
C1 C 0.96414(11) 0.3954(3) 0.7468(2)
C2 C 0.92076(12) 0.2360(3) 0.6724(2)
C3 C 0.94290(12) 0.0684(4) 0.6017(2)
H1 H 0.98814 0.06022 0.60355
C4 C 0.90025(12) -0.0822(4) 0.5305(2)
H2 H 0.91607 -0.19272 0.48375
C5 C 0.83306(12) -0.0723(4) 0.5272(2)
H3 H 0.80368 -0.17672 0.47837
C6 C 0.80994(12) 0.0862(4) 0.5937(2)
H4 H 0.76452 0.09052 0.59070
C7 C 0.85258(11) 0.2450(4) 0.6674(2)
C8 C 0.82897(12) 0.4134(4) 0.7346(2)
H5 H 0.78352 0.42112 0.73091
C9 C 0.87079(12) 0.5644(4) 0.8042(2)
H6 H 0.85438 0.67648 0.84877
C10 C 0.93845(12) 0.5548(4) 0.8105(2)
H7 H 0.96698 0.66083 0.85985
C1A C 1.03586(11) 0.3954(3) 0.7532(2)
C2A C 1.07924(12) 0.2360(3) 0.8276(2)
C3A C 1.05710(12) 0.0684(4) 0.8983(2)
H1A H 1.01186 0.06022 0.89645
C4A C 1.09975(12) -0.0822(4) 0.9695(2)
H2A H 1.08393 -0.19272 1.01625
C5A C 1.16694(12) -0.0723(4) 0.9728(2)
H3A H 1.19632 -0.17672 1.02163
C6A C 1.19006(12) 0.0862(4) 0.9063(2)
H4A H 1.23548 0.09052 0.90930
C7A C 1.14742(11) 0.2450(4) 0.8326(2)
C8A C 1.17103(12) 0.4134(4) 0.7654(2)
H5A H 1.21648 0.42112 0.76909
C9A C 1.12921(12) 0.5644(4) 0.6958(2)
H6A H 1.14562 0.67648 0.65123
C10A C 1.06155(12) 0.5548(4) 0.6895(2)
H7A H 1.03302 0.66083 0.64015
loop_
_geom_bond_atom_site_label_1
_geom_bond_atom_site_label_2
_geom_bond_distance
_geom_bond_site_symmetry_1
_geom_bond_site_symmetry_2
C1 C2 1.434 1_555 1_555
C2 C3 1.421 1_555 1_555
C3 H1 0.950 1_555 1_555
C4 C3 1.376 1_555 1_555
H2 C4 0.950 1_555 1_555
C5 C4 1.409 1_555 1_555
H3 C5 0.950 1_555 1_555
C6 C5 1.363 1_555 1_555
H4 C6 0.950 1_555 1_555
C7 C2 1.425 1_555 1_555
C8 C7 1.418 1_555 1_555
H5 C8 0.950 1_555 1_555
C9 C8 1.363 1_555 1_555
H6 C9 0.950 1_555 1_555
C10 C1 1.378 1_555 1_555
H7 C10 0.950 1_555 1_555
C1A C1 1.496 1_555 1_555
C2A C1A 1.434 1_555 1_555
C3A C2A 1.421 1_555 1_555
H1A C3A 0.950 1_555 1_555
C4A C3A 1.376 1_555 1_555
H2A C4A 0.950 1_555 1_555
C5A C4A 1.409 1_555 1_555
H3A C5A 0.950 1_555 1_555
C6A C5A 1.363 1_555 1_555
H4A C6A 0.950 1_555 1_555
C7A C2A 1.425 1_555 1_555
C8A C7A 1.418 1_555 1_555
H5A C8A 0.950 1_555 1_555
C9A C8A 1.363 1_555 1_555
H6A C9A 0.950 1_555 1_555
C10A C1A 1.378 1_555 1_555
H7A C10A 0.950 1_555 1_555
C6 C7 1.421 1_555 1_555
C9 C10 1.412 1_555 1_555
C6A C7A 1.421 1_555 1_555
C9A C10A 1.412 1_555 1_555
#END
