
#######################################################################
#
#                 Cambridge Crystallographic Data Centre
#                                CCDC
#
#######################################################################
#
# If this CIF has been generated from an entry in the Cambridge
# Structural Database, then it will include bibliographic, chemical,
# crystal, experimental, refinement or atomic coordinate data resulting
# from the CCDC's data processing and validation procedures.
#
#######################################################################

data_CSD_CIF_BINAPH13
_audit_creation_date 2018-02-06
_audit_creation_method CSD-ConQuest-V1
_database_code_CSD BINAPH13
_database_code_depnum_ccdc_archive 'CCDC 1531186'
_chemical_formula_sum 'C20 H14'
_chemical_formula_moiety
;
C20 H14
;
_journal_coden_Cambridge 1326
_journal_volume 20
_journal_year 2018
_journal_page_first 5305
_journal_name_full 'Phys.Chem.Chem.Phys.(PCCP) '
loop_
_publ_author_name
"Kinga Roszak"
"A.Katrusiak"
_chemical_name_systematic
;
(+-)-1,1'-binaphthalene
;
_chemical_name_common
;
(+-)-1,1'-binaphthyl
;
_cell_volume   1317.041
_exptl_crystal_colour 'colorless'
_exptl_crystal_density_diffrn 1.283
_exptl_crystal_description 'plate'
_diffrn_ambient_temperature 280
_diffrn_ambient_pressure 1000.0
#These two values have been output from a single CSD field.
_refine_ls_R_factor_gt 0.0425
_refine_ls_wR_factor_gt 0.0425
loop_
_citation_database_id_CSD
_citation_special_details
BNPHTA "is a stereoisomer of this entry"
_symmetry_cell_setting monoclinic
_symmetry_space_group_name_H-M 'C 2/c'
_symmetry_Int_Tables_number 15
loop_
_symmetry_equiv_pos_site_id
_symmetry_equiv_pos_as_xyz
1 x,y,z
2 -x,y,1/2-z
3 1/2+x,1/2+y,z
4 1/2-x,1/2+y,1/2-z
5 -x,-y,-z
6 x,-y,-1/2+z
7 -1/2-x,-1/2-y,-z
8 -1/2+x,-1/2-y,-1/2+z
_cell_length_a 21.107(2)
_cell_length_b 6.3354(5)
_cell_length_c 10.2009(9)
_cell_angle_alpha 90
_cell_angle_beta 105.090(13)
_cell_angle_gamma 90
_cell_formula_units_Z 4
loop_
_atom_type_symbol
_atom_type_radius_bond
C 0.68
H 0.23
loop_
_atom_site_label
_atom_site_type_symbol
_atom_site_fract_x
_atom_site_fract_y
_atom_site_fract_z
C1 C 0.46422(6) 0.1067(2) 0.74670(13)
C2 C 0.43889(7) -0.0513(2) 0.81040(16)
H1 H 0.46690 -0.15420 0.85850
C3 C 0.37152(8) -0.0608(2) 0.80450(16)
H2 H 0.35560 -0.16960 0.84830
C4 C 0.32974(7) 0.0880(2) 0.73520(15)
H3 H 0.28540 0.08030 0.73190
C5 C 0.31049(7) 0.4127(2) 0.59476(15)
H4 H 0.26610 0.40870 0.59210
C6 C 0.33333(7) 0.5695(2) 0.52853(16)
H5 H 0.30460 0.67110 0.48090
C7 C 0.40013(7) 0.5784(2) 0.53194(15)
H6 H 0.41550 0.68560 0.48610
C8 C 0.44262(6) 0.4305(2) 0.60209(14)
H7 H 0.48680 0.43880 0.60360
C9 C 0.42092(6) 0.2648(2) 0.67267(12)
C10 C 0.35292(6) 0.2549(2) 0.66789(13)
C1A C 0.53578(6) 0.1067(2) 0.75330(13)
C2A C 0.56111(7) -0.0513(2) 0.68960(16)
H1A H 0.53310 -0.15420 0.64150
C3A C 0.62848(8) -0.0608(2) 0.69550(16)
H2A H 0.64440 -0.16960 0.65170
C4A C 0.67026(7) 0.0880(2) 0.76480(15)
H3A H 0.71460 0.08030 0.76810
C5A C 0.68951(7) 0.4127(2) 0.90524(15)
H4A H 0.73390 0.40870 0.90790
C6A C 0.66667(7) 0.5695(2) 0.97147(16)
H5A H 0.69540 0.67110 1.01910
C7A C 0.59987(7) 0.5784(2) 0.96806(15)
H6A H 0.58450 0.68560 1.01390
C8A C 0.55738(6) 0.4305(2) 0.89791(14)
H7A H 0.51320 0.43880 0.89640
C9A C 0.57908(6) 0.2648(2) 0.82733(12)
C10A C 0.64708(6) 0.2549(2) 0.83211(13)
loop_
_geom_bond_atom_site_label_1
_geom_bond_atom_site_label_2
_geom_bond_distance
_geom_bond_site_symmetry_1
_geom_bond_site_symmetry_2
C1 C2 1.375 1_555 1_555
C2 H1 0.930 1_555 1_555
C3 C2 1.409 1_555 1_555
H2 C3 0.931 1_555 1_555
C4 C3 1.357 1_555 1_555
H3 C4 0.929 1_555 1_555
C5 H4 0.931 1_555 1_555
C6 C5 1.358 1_555 1_555
H5 C6 0.930 1_555 1_555
C7 C6 1.402 1_555 1_555
H6 C7 0.930 1_555 1_555
C8 C7 1.364 1_555 1_555
H7 C8 0.930 1_555 1_555
C9 C1 1.432 1_555 1_555
C10 C4 1.416 1_555 1_555
C1A C1 1.494 1_555 1_555
C2A C1A 1.375 1_555 1_555
H1A C2A 0.930 1_555 1_555
C3A C2A 1.409 1_555 1_555
H2A C3A 0.931 1_555 1_555
C4A C3A 1.357 1_555 1_555
H3A C4A 0.929 1_555 1_555
C5A H4A 0.931 1_555 1_555
C6A C5A 1.358 1_555 1_555
H5A C6A 0.930 1_555 1_555
C7A C6A 1.402 1_555 1_555
H6A C7A 0.930 1_555 1_555
C8A C7A 1.364 1_555 1_555
H7A C8A 0.930 1_555 1_555
C9A C1A 1.432 1_555 1_555
C10A C4A 1.416 1_555 1_555
C5 C10 1.418 1_555 1_555
C8 C9 1.415 1_555 1_555
C9 C10 1.425 1_555 1_555
C5A C10A 1.418 1_555 1_555
C8A C9A 1.415 1_555 1_555
C9A C10A 1.425 1_555 1_555
#END
