
#######################################################################
#
#                 Cambridge Crystallographic Data Centre
#                                CCDC
#
#######################################################################
#
# If this CIF has been generated from an entry in the Cambridge
# Structural Database, then it will include bibliographic, chemical,
# crystal, experimental, refinement or atomic coordinate data resulting
# from the CCDC's data processing and validation procedures.
#
#######################################################################

data_CSD_CIF_BINAPH15
_audit_creation_date 2018-02-06
_audit_creation_method CSD-ConQuest-V1
_database_code_CSD BINAPH15
_database_code_depnum_ccdc_archive 'CCDC 1531188'
_chemical_formula_sum 'C20 H14'
_chemical_formula_moiety
;
C20 H14
;
_journal_coden_Cambridge 1326
_journal_volume 20
_journal_year 2018
_journal_page_first 5305
_journal_name_full 'Phys.Chem.Chem.Phys.(PCCP) '
loop_
_publ_author_name
"Kinga Roszak"
"A.Katrusiak"
_chemical_name_systematic
;
(+-)-1,1'-binaphthalene
;
_chemical_name_common
;
(+-)-1,1'-binaphthyl
;
_cell_volume   1317.998
_exptl_crystal_colour 'colorless'
_exptl_crystal_density_diffrn 1.282
_exptl_crystal_description 'plate'
_diffrn_ambient_temperature 296
_diffrn_ambient_pressure 50000.0
#These two values have been output from a single CSD field.
_refine_ls_R_factor_gt 0.0869
_refine_ls_wR_factor_gt 0.0869
loop_
_citation_database_id_CSD
_citation_special_details
BNPHTA "is a stereoisomer of this entry"
_symmetry_cell_setting monoclinic
_symmetry_space_group_name_H-M 'C 2/c'
_symmetry_Int_Tables_number 15
loop_
_symmetry_equiv_pos_site_id
_symmetry_equiv_pos_as_xyz
1 x,y,z
2 -x,y,1/2-z
3 1/2+x,1/2+y,z
4 1/2-x,1/2+y,1/2-z
5 -x,-y,-z
6 x,-y,-1/2+z
7 -1/2-x,-1/2-y,-z
8 -1/2+x,-1/2-y,-1/2+z
_cell_length_a 21.124(19)
_cell_length_b 6.342(5)
_cell_length_c 10.189(9)
_cell_angle_alpha 90
_cell_angle_beta 105.08(1)
_cell_angle_gamma 90
_cell_formula_units_Z 4
loop_
_atom_type_symbol
_atom_type_radius_bond
C 0.68
H 0.23
loop_
_atom_site_label
_atom_site_type_symbol
_atom_site_fract_x
_atom_site_fract_y
_atom_site_fract_z
C1 C 0.4220(8) 0.2638(10) 0.1735(14)
C2 C 0.4645(6) 0.1075(10) 0.2469(13)
C3 C 0.4391(7) -0.0499(11) 0.3067(15)
H1 H 0.46680 -0.15510 0.35280
C4 C 0.3701(6) -0.0595(9) 0.3012(12)
H2 H 0.35420 -0.16790 0.34520
C5 C 0.3283(6) 0.0896(9) 0.2319(12)
H3 H 0.28390 0.08260 0.22730
C6 C 0.3530(8) 0.2553(12) 0.1667(15)
C7 C 0.3101(8) 0.4122(13) 0.0924(17)
H4 H 0.26560 0.40760 0.08780
C8 C 0.3341(8) 0.5667(11) 0.0289(15)
H5 H 0.30570 0.66950 -0.01840
C9 C 0.3998(9) 0.5765(13) 0.0323(16)
H6 H 0.41460 0.68310 -0.01490
C10 C 0.4439(8) 0.4308(11) 0.1047(14)
H7 H 0.48820 0.44270 0.10810
C1A C 0.5780(8) 0.2638(10) 0.3265(14)
C2A C 0.5355(6) 0.1075(10) 0.2531(13)
C3A C 0.5609(7) -0.0499(11) 0.1933(15)
H1A H 0.53320 -0.15510 0.14720
C4A C 0.6299(6) -0.0595(9) 0.1988(12)
H2A H 0.64580 -0.16790 0.15480
C5A C 0.6717(6) 0.0896(9) 0.2681(12)
H3A H 0.71610 0.08260 0.27270
C6A C 0.6470(8) 0.2553(12) 0.3333(15)
C7A C 0.6899(8) 0.4122(13) 0.4076(17)
H4A H 0.73440 0.40760 0.41220
C8A C 0.6659(8) 0.5667(11) 0.4711(15)
H5A H 0.69430 0.66950 0.51840
C9A C 0.6002(9) 0.5765(13) 0.4677(16)
H6A H 0.58540 0.68310 0.51490
C10A C 0.5561(8) 0.4308(11) 0.3953(14)
H7A H 0.51180 0.44270 0.39190
loop_
_geom_bond_atom_site_label_1
_geom_bond_atom_site_label_2
_geom_bond_distance
_geom_bond_site_symmetry_1
_geom_bond_site_symmetry_2
C1 C2 1.414 1_555 1_555
C2 C3 1.351 1_555 1_555
C3 H1 0.930 1_555 1_555
C4 C3 1.445 1_555 1_555
H2 C4 0.930 1_555 1_555
C5 C4 1.359 1_555 1_555
H3 C5 0.928 1_555 1_555
C6 C1 1.442 1_555 1_555
C7 C6 1.424 1_555 1_555
H4 C7 0.929 1_555 1_555
C8 C7 1.344 1_555 1_555
H5 C8 0.931 1_555 1_555
C9 C8 1.381 1_555 1_555
H6 C9 0.930 1_555 1_555
C10 C1 1.413 1_555 1_555
H7 C10 0.930 1_555 1_555
C1A C2A 1.414 1_555 1_555
C2A C2 1.485 1_555 1_555
C3A C2A 1.351 1_555 1_555
H1A C3A 0.930 1_555 1_555
C4A C3A 1.445 1_555 1_555
H2A C4A 0.930 1_555 1_555
C5A C4A 1.359 1_555 1_555
H3A C5A 0.928 1_555 1_555
C6A C1A 1.442 1_555 1_555
C7A C6A 1.424 1_555 1_555
H4A C7A 0.929 1_555 1_555
C8A C7A 1.344 1_555 1_555
H5A C8A 0.931 1_555 1_555
C9A C8A 1.381 1_555 1_555
H6A C9A 0.930 1_555 1_555
C10A C1A 1.413 1_555 1_555
H7A C10A 0.930 1_555 1_555
C5 C6 1.414 1_555 1_555
C9 C10 1.381 1_555 1_555
C5A C6A 1.414 1_555 1_555
C9A C10A 1.381 1_555 1_555
#END
