
#######################################################################
#
#                 Cambridge Crystallographic Data Centre
#                                CCDC
#
#######################################################################
#
# If this CIF has been generated from an entry in the Cambridge
# Structural Database, then it will include bibliographic, chemical,
# crystal, experimental, refinement or atomic coordinate data resulting
# from the CCDC's data processing and validation procedures.
#
#######################################################################

data_CSD_CIF_BINAPH20
_audit_creation_date 2018-02-06
_audit_creation_method CSD-ConQuest-V1
_database_code_CSD BINAPH20
_database_code_depnum_ccdc_archive 'CCDC 1531193'
_chemical_formula_sum 'C20 H14'
_chemical_formula_moiety
;
C20 H14
;
_journal_coden_Cambridge 1326
_journal_volume 20
_journal_year 2018
_journal_page_first 5305
_journal_name_full 'Phys.Chem.Chem.Phys.(PCCP) '
loop_
_publ_author_name
"Kinga Roszak"
"A.Katrusiak"
_chemical_name_systematic
;
(+-)-1,1'-binaphthalene
;
_chemical_name_common
;
(+-)-1,1'-binaphthyl
;
_cell_volume   1231.494
_exptl_crystal_colour 'colorless'
_exptl_crystal_density_diffrn 1.371
_exptl_crystal_description 'plate'
_diffrn_ambient_temperature 296
_diffrn_ambient_pressure 700000.0
#These two values have been output from a single CSD field.
_refine_ls_R_factor_gt 0.0889
_refine_ls_wR_factor_gt 0.0889
loop_
_citation_database_id_CSD
_citation_special_details
BNPHTA "is a stereoisomer of this entry"
_symmetry_cell_setting monoclinic
_symmetry_space_group_name_H-M 'C 2/c'
_symmetry_Int_Tables_number 15
loop_
_symmetry_equiv_pos_site_id
_symmetry_equiv_pos_as_xyz
1 x,y,z
2 -x,y,1/2-z
3 1/2+x,1/2+y,z
4 1/2-x,1/2+y,1/2-z
5 -x,-y,-z
6 x,-y,-1/2+z
7 -1/2-x,-1/2-y,-z
8 -1/2+x,-1/2-y,-1/2+z
_cell_length_a 20.770(5)
_cell_length_b 6.1526(14)
_cell_length_c 9.991(1)
_cell_angle_alpha 90
_cell_angle_beta 105.30(2)
_cell_angle_gamma 90
_cell_formula_units_Z 4
loop_
_atom_type_symbol
_atom_type_radius_bond
C 0.68
H 0.23
loop_
_atom_site_label
_atom_site_type_symbol
_atom_site_fract_x
_atom_site_fract_y
_atom_site_fract_z
C1 C 0.4212(6) 0.2500(2) 0.1714(2)
C2 C 0.4662(7) 0.0965(4) 0.2450(1)
C3 C 0.4363(9) -0.0665(6) 0.3075(4)
H1 H 0.46310 -0.18040 0.35120
C4 C 0.3630(2) -0.0690(2) 0.3082(1)
H2 H 0.34530 -0.17080 0.35730
C5 C 0.3278(1) 0.0837(1) 0.2340(3)
H3 H 0.28220 0.08480 0.22700
C6 C 0.3512(7) 0.2380(1) 0.1676(1)
C7 C 0.3079(6) 0.4194(1) 0.0918(1)
H4 H 0.26300 0.42300 0.09040
C8 C 0.3330(2) 0.5780(2) 0.0252(5)
H5 H 0.30460 0.68430 -0.02410
C9 C 0.4010(2) 0.5860(2) 0.0294(6)
H6 H 0.41670 0.69640 -0.01690
C10 C 0.4433(5) 0.4341(1) 0.0999(1)
H7 H 0.48830 0.44490 0.10300
C1A C 0.5788(6) 0.2500(2) 0.3286(2)
C2A C 0.5338(7) 0.0965(4) 0.2550(1)
C3A C 0.5637(9) -0.0665(6) 0.1925(4)
H1A H 0.53690 -0.18040 0.14880
C4A C 0.6370(2) -0.0690(2) 0.1918(1)
H2A H 0.65470 -0.17080 0.14270
C5A C 0.6722(1) 0.0837(1) 0.2660(3)
H3A H 0.71780 0.08480 0.27300
C6A C 0.6488(7) 0.2380(1) 0.3324(1)
C7A C 0.6921(6) 0.4194(1) 0.4082(1)
H4A H 0.73700 0.42300 0.40960
C8A C 0.6670(2) 0.5780(2) 0.4748(5)
H5A H 0.69540 0.68430 0.52410
C9A C 0.5990(2) 0.5860(2) 0.4706(6)
H6A H 0.58330 0.69640 0.51690
C10A C 0.5567(5) 0.4341(1) 0.4001(1)
H7A H 0.51170 0.44490 0.39700
loop_
_geom_bond_atom_site_label_1
_geom_bond_atom_site_label_2
_geom_bond_distance
_geom_bond_site_symmetry_1
_geom_bond_site_symmetry_2
C1 C2 1.394 1_555 1_555
C2 C3 1.409 1_555 1_555
C3 H1 0.929 1_555 1_555
C4 C3 1.524 1_555 1_555
H2 C4 0.929 1_555 1_555
C5 C4 1.296 1_555 1_555
H3 C5 0.931 1_555 1_555
C6 C1 1.446 1_555 1_555
C7 C6 1.506 1_555 1_555
H4 C7 0.929 1_555 1_555
C8 C7 1.360 1_555 1_555
H5 C8 0.930 1_555 1_555
C9 C8 1.403 1_555 1_555
H6 C9 0.928 1_555 1_555
C10 C1 1.475 1_555 1_555
H7 C10 0.929 1_555 1_555
C1A C2A 1.394 1_555 1_555
C2A C2 1.381 1_555 1_555
C3A C2A 1.409 1_555 1_555
H1A C3A 0.929 1_555 1_555
C4A C3A 1.524 1_555 1_555
H2A C4A 0.929 1_555 1_555
C5A C4A 1.296 1_555 1_555
H3A C5A 0.931 1_555 1_555
C6A C1A 1.446 1_555 1_555
C7A C6A 1.506 1_555 1_555
H4A C7A 0.929 1_555 1_555
C8A C7A 1.360 1_555 1_555
H5A C8A 0.930 1_555 1_555
C9A C8A 1.403 1_555 1_555
H6A C9A 0.928 1_555 1_555
C10A C1A 1.475 1_555 1_555
H7A C10A 0.929 1_555 1_555
C5 C6 1.322 1_555 1_555
C9 C10 1.347 1_555 1_555
C5A C6A 1.322 1_555 1_555
C9A C10A 1.347 1_555 1_555
#END
