
#######################################################################
#
#                 Cambridge Crystallographic Data Centre
#                                CCDC
#
#######################################################################
#
# If this CIF has been generated from an entry in the Cambridge
# Structural Database, then it will include bibliographic, chemical,
# crystal, experimental, refinement or atomic coordinate data resulting
# from the CCDC's data processing and validation procedures.
#
#######################################################################

data_CSD_CIF_BINAPH01
_audit_creation_date 1981-07-07
_audit_creation_method CSD-ConQuest-V1
_database_code_CSD BINAPH01
_database_code_depnum_ccdc_archive 'CCDC 1111197'
_chemical_formula_sum 'C20 H14'
_chemical_formula_moiety
;
C20 H14
;
_journal_coden_Cambridge 4
_journal_volume 102
_journal_year 1980
_journal_page_first 7709
_journal_name_full 'J.Am.Chem.Soc. '
loop_
_publ_author_name
"R.B.Kress"
"E.N.Duesler"
"M.C.Etter"
"I.C.Paul"
"D.Y.Curtin"
_chemical_name_systematic
;
cis-1,1'-Binaphthyl
;
_chemical_melting_point 418.15
_cell_volume   1321.188
_exptl_crystal_colour 'colorless'
_exptl_crystal_density_diffrn 1.279
_diffrn_ambient_temperature ?
_diffrn_special_details
;
The study was carried out at room temperature,in the range 283-303K

;
#These two values have been output from a single CSD field.
_refine_ls_R_factor_gt 0.05
_refine_ls_wR_factor_gt 0.05
loop_
_citation_database_id_CSD
_citation_special_details
BNPHTA "is a stereoisomer of this entry"
_symmetry_cell_setting monoclinic
_symmetry_space_group_name_H-M 'C 2/c'
_symmetry_Int_Tables_number 15
loop_
_symmetry_equiv_pos_site_id
_symmetry_equiv_pos_as_xyz
1 x,y,z
2 1/2+x,1/2+y,z
3 -x,y,1/2-z
4 1/2-x,1/2+y,1/2-z
5 -x,-y,-z
6 -1/2-x,-1/2-y,-z
7 x,-y,-1/2+z
8 -1/2+x,-1/2-y,-1/2+z
_cell_length_a 21.126(2)
_cell_length_b 6.342(1)
_cell_length_c 10.218(5)
_cell_angle_alpha 90
_cell_angle_beta 105.19(2)
_cell_angle_gamma 90
_cell_formula_units_Z 4
loop_
_atom_type_symbol
_atom_type_radius_bond
C 0.68
H 0.23
loop_
_atom_site_label
_atom_site_type_symbol
_atom_site_fract_x
_atom_site_fract_y
_atom_site_fract_z
C1 C 0.46449 0.39310 0.24710
C2 C 0.43905 0.55110 0.31060
C3 C 0.37173 0.56040 0.30470
C4 C 0.32982 0.41200 0.23530
C5 C 0.35336 0.24490 0.16820
C6 C 0.31044 0.08760 0.09520
C7 C 0.33369 -0.06990 0.02860
C8 C 0.39997 -0.07760 0.03240
C9 C 0.44279 0.06900 0.10210
C10 C 0.42072 0.23540 0.17310
H1 H 0.47110 0.66500 0.37100
H2 H 0.35610 0.67700 0.34900
H3 H 0.27670 0.40800 0.22300
H4 H 0.26220 0.09300 0.09400
H5 H 0.30440 -0.18100 -0.01600
H6 H 0.41580 -0.18800 0.00100
H7 H 0.49220 0.05700 0.10900
C1B C 0.53551 0.39310 0.25290
C2B C 0.56095 0.55110 0.18940
C10B C 0.57928 0.23540 0.32690
C3B C 0.62827 0.56040 0.19530
H1B H 0.52890 0.66500 0.12900
C5B C 0.64664 0.24490 0.33180
C9B C 0.55721 0.06900 0.39790
C4B C 0.67018 0.41200 0.26470
H2B H 0.64390 0.67700 0.15100
C6B C 0.68956 0.08760 0.40480
C8B C 0.60003 -0.07760 0.46760
H7B H 0.50780 0.05700 0.39100
H3B H 0.72330 0.40800 0.27700
C7B C 0.66631 -0.06990 0.47140
H4B H 0.73780 0.09300 0.40600
H6B H 0.58420 -0.18800 0.49900
H5B H 0.69560 -0.18100 0.51600
loop_
_geom_bond_atom_site_label_1
_geom_bond_atom_site_label_2
_geom_bond_distance
_geom_bond_site_symmetry_1
_geom_bond_site_symmetry_2
C1 C2 1.377 1_555 1_555
C2 C3 1.409 1_555 1_555
C3 C4 1.358 1_555 1_555
C4 C5 1.421 1_555 1_555
C5 C6 1.421 1_555 1_555
C6 C7 1.370 1_555 1_555
C7 C8 1.391 1_555 1_555
C8 C9 1.361 1_555 1_555
C9 C10 1.426 1_555 1_555
C10 C1 1.435 1_555 1_555
H1 C2 1.069 1_555 1_555
H2 C3 0.969 1_555 1_555
H3 C4 1.096 1_555 1_555
H4 C6 1.017 1_555 1_555
H5 C7 0.969 1_555 1_555
H6 C8 0.872 1_555 1_555
H7 C9 1.030 1_555 1_555
C1B C1 1.486 1_555 1_555
C2B C1B 1.377 1_555 1_555
C10B C1B 1.435 1_555 1_555
C3B C2B 1.409 1_555 1_555
H1B C2B 1.069 1_555 1_555
C5B C10B 1.412 1_555 1_555
C9B C10B 1.426 1_555 1_555
C4B C3B 1.358 1_555 1_555
H2B C3B 0.969 1_555 1_555
C6B C5B 1.421 1_555 1_555
C8B C9B 1.361 1_555 1_555
H7B C9B 1.030 1_555 1_555
H3B C4B 1.096 1_555 1_555
C7B C6B 1.370 1_555 1_555
H4B C6B 1.017 1_555 1_555
H6B C8B 0.872 1_555 1_555
H5B C7B 0.969 1_555 1_555
C5 C10 1.412 1_555 1_555
C5B C4B 1.421 1_555 1_555
C8B C7B 1.391 1_555 1_555
#END
