
#######################################################################
#
#                 Cambridge Crystallographic Data Centre
#                                CCDC
#
#######################################################################
#
# If this CIF has been generated from an entry in the Cambridge
# Structural Database, then it will include bibliographic, chemical,
# crystal, experimental, refinement or atomic coordinate data resulting
# from the CCDC's data processing and validation procedures.
#
#######################################################################

data_CSD_CIF_BINAPH11
_audit_creation_date 2006-08-21
_audit_creation_method CSD-ConQuest-V1
_database_code_CSD BINAPH11
_database_code_depnum_ccdc_archive 'CCDC 604806'
_chemical_formula_sum 'C20 H14'
_chemical_formula_moiety
;
C20 H14
;
_journal_coden_Cambridge 1078
_journal_year 2006
_journal_name_full 'CSD Communication(Private Communication) '
loop_
_publ_author_name
"R.T.Stibrany"
"J.A.Potenza"
_chemical_name_systematic
;
cis-1,1'-Binaphthyl
;
_cell_volume   1278.582
_exptl_crystal_colour 'pale yellow'
_exptl_crystal_density_diffrn 1.321
_exptl_special_details
;
contribution from Department of Chemistry and Chemical Biology, Rutgers, The 
State University of New Jersey, 610 Taylor Road, Piscataway, New Jersey 
08801, USA
;
_exptl_crystal_description 'block'
_diffrn_ambient_temperature 100
#These two values have been output from a single CSD field.
_refine_ls_R_factor_gt 0.0355
_refine_ls_wR_factor_gt 0.0355
loop_
_citation_database_id_CSD
_citation_special_details
BNPHTA "is a stereoisomer of this entry"
_symmetry_cell_setting monoclinic
_symmetry_space_group_name_H-M 'C 2/c'
_symmetry_Int_Tables_number 15
loop_
_symmetry_equiv_pos_site_id
_symmetry_equiv_pos_as_xyz
1 x,y,z
2 1/2+x,1/2+y,z
3 -x,y,1/2-z
4 1/2-x,1/2+y,1/2-z
5 -x,-y,-z
6 -1/2-x,-1/2-y,-z
7 x,-y,-1/2+z
8 -1/2+x,-1/2-y,-1/2+z
_cell_length_a 20.994(4)
_cell_length_b 6.2563(11)
_cell_length_c 10.0885(17)
_cell_angle_alpha 90
_cell_angle_beta 105.222(3)
_cell_angle_gamma 90
_cell_formula_units_Z 4
loop_
_atom_type_symbol
_atom_type_radius_bond
C 0.68
H 0.23
loop_
_atom_site_label
_atom_site_type_symbol
_atom_site_fract_x
_atom_site_fract_y
_atom_site_fract_z
C1 C 0.46389(5) 0.10307(15) 0.24658(10)
C2 C 0.43856(5) -0.05740(15) 0.31076(10)
H1 H 0.46670 -0.16190 0.35930
C3 C 0.37054(5) -0.06672(16) 0.30443(11)
H2 H 0.35450 -0.17700 0.34840
C4 C 0.32839(5) 0.08515(16) 0.2342(1)
H3 H 0.28370 0.07750 0.23060
C5 C 0.35197(5) 0.25469(15) 0.16665(10)
C6 C 0.30931(5) 0.41498(16) 0.09279(11)
H4 H 0.26470 0.41120 0.08990
C7 C 0.33249(5) 0.57451(16) 0.02584(10)
H5 H 0.30370 0.67780 -0.02230
C8 C 0.40017(5) 0.58281(15) 0.02963(10)
H6 H 0.41580 0.69110 -0.01660
C9 C 0.44279(5) 0.43218(15) 0.10101(10)
H7 H 0.48730 0.44030 0.10310
C10 C 0.42062(4) 0.26394(15) 0.17183(9)
C1B C 0.53611(5) 0.10307(15) 0.25342(10)
C2B C 0.56144(5) -0.05740(15) 0.18924(10)
H1B H 0.53330 -0.16190 0.14070
C3B C 0.62946(5) -0.06672(16) 0.19557(11)
H2B H 0.64550 -0.17700 0.15160
C4B C 0.67161(5) 0.08515(16) 0.2658(1)
H3B H 0.71630 0.07750 0.26940
C5B C 0.64803(5) 0.25469(15) 0.33335(10)
C6B C 0.69069(5) 0.41498(16) 0.40721(11)
H4B H 0.73530 0.41120 0.41010
C7B C 0.66751(5) 0.57451(16) 0.47416(10)
H5B H 0.69630 0.67780 0.52230
C8B C 0.59983(5) 0.58281(15) 0.47037(10)
H6B H 0.58420 0.69110 0.51660
C9B C 0.55721(5) 0.43218(15) 0.39899(10)
H7B H 0.51270 0.44030 0.39690
C10B C 0.57938(4) 0.26394(15) 0.32817(9)
loop_
_geom_bond_atom_site_label_1
_geom_bond_atom_site_label_2
_geom_bond_distance
_geom_bond_site_symmetry_1
_geom_bond_site_symmetry_2
C1 C2 1.375 1_555 1_555
C2 H1 0.930 1_555 1_555
C3 C2 1.414 1_555 1_555
H2 C3 0.930 1_555 1_555
C4 C3 1.363 1_555 1_555
H3 C4 0.931 1_555 1_555
C5 C4 1.418 1_555 1_555
C6 C5 1.419 1_555 1_555
H4 C6 0.930 1_555 1_555
C7 C6 1.364 1_555 1_555
H5 C7 0.930 1_555 1_555
C8 C7 1.412 1_555 1_555
H6 C8 0.930 1_555 1_555
C9 C8 1.367 1_555 1_555
H7 C9 0.931 1_555 1_555
C10 C1 1.431 1_555 1_555
C1B C1 1.500 1_555 1_555
C2B C1B 1.375 1_555 1_555
H1B C2B 0.930 1_555 1_555
C3B C2B 1.414 1_555 1_555
H2B C3B 0.930 1_555 1_555
C4B C3B 1.363 1_555 1_555
H3B C4B 0.931 1_555 1_555
C5B C4B 1.418 1_555 1_555
C6B C5B 1.419 1_555 1_555
H4B C6B 0.930 1_555 1_555
C7B C6B 1.364 1_555 1_555
H5B C7B 0.930 1_555 1_555
C8B C7B 1.412 1_555 1_555
H6B C8B 0.930 1_555 1_555
C9B C8B 1.367 1_555 1_555
H7B C9B 0.931 1_555 1_555
C10B C1B 1.431 1_555 1_555
C5 C10 1.430 1_555 1_555
C9 C10 1.418 1_555 1_555
C5B C10B 1.430 1_555 1_555
C9B C10B 1.418 1_555 1_555
#END
