
#######################################################################
#
#                 Cambridge Crystallographic Data Centre
#                                CCDC
#
#######################################################################
#
# If this CIF has been generated from an entry in the Cambridge
# Structural Database, then it will include bibliographic, chemical,
# crystal, experimental, refinement or atomic coordinate data resulting
# from the CCDC's data processing and validation procedures.
#
#######################################################################

data_CSD_CIF_BINAPH17
_audit_creation_date 2018-02-06
_audit_creation_method CSD-ConQuest-V1
_database_code_CSD BINAPH17
_database_code_depnum_ccdc_archive 'CCDC 1531190'
_chemical_formula_sum 'C20 H14'
_chemical_formula_moiety
;
C20 H14
;
_journal_coden_Cambridge 1326
_journal_volume 20
_journal_year 2018
_journal_page_first 5305
_journal_name_full 'Phys.Chem.Chem.Phys.(PCCP) '
loop_
_publ_author_name
"Kinga Roszak"
"A.Katrusiak"
_chemical_name_systematic
;
(+-)-1,1'-binaphthalene
;
_chemical_name_common
;
(+-)-1,1'-binaphthyl
;
_cell_volume   1271.512
_exptl_crystal_colour 'colorless'
_exptl_crystal_density_diffrn 1.329
_exptl_crystal_description 'plate'
_diffrn_ambient_temperature 296
_diffrn_ambient_pressure 300000.0
#These two values have been output from a single CSD field.
_refine_ls_R_factor_gt 0.0617
_refine_ls_wR_factor_gt 0.0617
loop_
_citation_database_id_CSD
_citation_special_details
BNPHTA "is a stereoisomer of this entry"
_symmetry_cell_setting monoclinic
_symmetry_space_group_name_H-M 'C 2/c'
_symmetry_Int_Tables_number 15
loop_
_symmetry_equiv_pos_site_id
_symmetry_equiv_pos_as_xyz
1 x,y,z
2 -x,y,1/2-z
3 1/2+x,1/2+y,z
4 1/2-x,1/2+y,1/2-z
5 -x,-y,-z
6 x,-y,-1/2+z
7 -1/2-x,-1/2-y,-z
8 -1/2+x,-1/2-y,-1/2+z
_cell_length_a 20.922(17)
_cell_length_b 6.238(4)
_cell_length_c 10.090(4)
_cell_angle_alpha 90
_cell_angle_beta 105.08(3)
_cell_angle_gamma 90
_cell_formula_units_Z 4
loop_
_atom_type_symbol
_atom_type_radius_bond
C 0.68
H 0.23
loop_
_atom_site_label
_atom_site_type_symbol
_atom_site_fract_x
_atom_site_fract_y
_atom_site_fract_z
C1 C 0.426(2) 0.2611(18) 0.1729(18)
C2 C 0.459(2) 0.0996(11) 0.240(2)
C3 C 0.4407(19) -0.0616(17) 0.3148(17)
H1 H 0.47010 -0.15810 0.36910
C4 C 0.363(2) -0.063(2) 0.296(2)
H2 H 0.34340 -0.17570 0.33230
C5 C 0.3266(14) 0.0892(13) 0.2327(12)
H3 H 0.28180 0.09170 0.22970
C6 C 0.3539(19) 0.2585(17) 0.1649(17)
C7 C 0.3045(13) 0.4088(14) 0.0915(11)
H4 H 0.26010 0.39940 0.09120
C8 C 0.328(2) 0.565(2) 0.023(2)
H5 H 0.29890 0.66070 -0.03170
C9 C 0.3987(18) 0.5844(15) 0.0339(17)
H6 H 0.41350 0.70170 -0.00680
C10 C 0.4449(13) 0.4351(11) 0.1026(11)
H7 H 0.48900 0.45040 0.10200
C1A C 0.574(2) 0.2611(18) 0.3271(18)
C2A C 0.541(2) 0.0996(11) 0.260(2)
C3A C 0.5593(19) -0.0616(17) 0.1852(17)
H1A H 0.52990 -0.15810 0.13090
C4A C 0.637(2) -0.063(2) 0.204(2)
H2A H 0.65660 -0.17570 0.16770
C5A C 0.6734(14) 0.0892(13) 0.2673(12)
H3A H 0.71820 0.09170 0.27030
C6A C 0.6461(19) 0.2585(17) 0.3351(17)
C7A C 0.6955(13) 0.4088(14) 0.4085(11)
H4A H 0.73990 0.39940 0.40880
C8A C 0.672(2) 0.565(2) 0.477(2)
H5A H 0.70110 0.66070 0.53170
C9A C 0.6013(18) 0.5844(15) 0.4661(17)
H6A H 0.58650 0.70170 0.50680
C10A C 0.5551(13) 0.4351(11) 0.3974(11)
H7A H 0.51100 0.45040 0.39800
loop_
_geom_bond_atom_site_label_1
_geom_bond_atom_site_label_2
_geom_bond_distance
_geom_bond_site_symmetry_1
_geom_bond_site_symmetry_2
C1 C2 1.306 1_555 1_555
C2 C3 1.370 1_555 1_555
C3 H1 0.930 1_555 1_555
C4 C3 1.587 1_555 1_555
H2 C4 0.935 1_555 1_555
C5 C4 1.279 1_555 1_555
H3 C5 0.930 1_555 1_555
C6 C1 1.490 1_555 1_555
C7 C6 1.448 1_555 1_555
H4 C7 0.930 1_555 1_555
C8 C7 1.359 1_555 1_555
H5 C8 0.926 1_555 1_555
C9 C8 1.459 1_555 1_555
H6 C9 0.931 1_555 1_555
C10 C1 1.408 1_555 1_555
H7 C10 0.929 1_555 1_555
C1A C2A 1.306 1_555 1_555
C2A C2 1.674 1_555 1_555
C3A C2A 1.370 1_555 1_555
H1A C3A 0.930 1_555 1_555
C4A C3A 1.587 1_555 1_555
H2A C4A 0.935 1_555 1_555
C5A C4A 1.279 1_555 1_555
H3A C5A 0.930 1_555 1_555
C6A C1A 1.490 1_555 1_555
C7A C6A 1.448 1_555 1_555
H4A C7A 0.930 1_555 1_555
C8A C7A 1.359 1_555 1_555
H5A C8A 0.926 1_555 1_555
C9A C8A 1.459 1_555 1_555
H6A C9A 0.931 1_555 1_555
C10A C1A 1.408 1_555 1_555
H7A C10A 0.929 1_555 1_555
C5 C6 1.454 1_555 1_555
C9 C10 1.391 1_555 1_555
C5A C6A 1.454 1_555 1_555
C9A C10A 1.391 1_555 1_555
#END
