
#######################################################################
#
#                 Cambridge Crystallographic Data Centre
#                                CCDC
#
#######################################################################
#
# If this CIF has been generated from an entry in the Cambridge
# Structural Database, then it will include bibliographic, chemical,
# crystal, experimental, refinement or atomic coordinate data resulting
# from the CCDC's data processing and validation procedures.
#
#######################################################################

data_CSD_CIF_BINAPH18
_audit_creation_date 2018-02-06
_audit_creation_method CSD-ConQuest-V1
_database_code_CSD BINAPH18
_database_code_depnum_ccdc_archive 'CCDC 1531191'
_chemical_formula_sum 'C20 H14'
_chemical_formula_moiety
;
C20 H14
;
_journal_coden_Cambridge 1326
_journal_volume 20
_journal_year 2018
_journal_page_first 5305
_journal_name_full 'Phys.Chem.Chem.Phys.(PCCP) '
loop_
_publ_author_name
"Kinga Roszak"
"A.Katrusiak"
_chemical_name_systematic
;
(+-)-1,1'-binaphthalene
;
_chemical_name_common
;
1,1'-binaphthyl
;
_cell_volume   1252.408
_exptl_crystal_colour 'colorless'
_exptl_crystal_density_diffrn 1.349
_exptl_crystal_description 'plate'
_diffrn_ambient_temperature 296
_diffrn_ambient_pressure 450000.0
#These two values have been output from a single CSD field.
_refine_ls_R_factor_gt 0.0702
_refine_ls_wR_factor_gt 0.0702
loop_
_citation_database_id_CSD
_citation_special_details
BNPHTA "is a stereoisomer of this entry"
_symmetry_cell_setting monoclinic
_symmetry_space_group_name_H-M 'C 2/c'
_symmetry_Int_Tables_number 15
loop_
_symmetry_equiv_pos_site_id
_symmetry_equiv_pos_as_xyz
1 x,y,z
2 -x,y,1/2-z
3 1/2+x,1/2+y,z
4 1/2-x,1/2+y,1/2-z
5 -x,-y,-z
6 x,-y,-1/2+z
7 -1/2-x,-1/2-y,-z
8 -1/2+x,-1/2-y,-1/2+z
_cell_length_a 20.89(1)
_cell_length_b 6.204(5)
_cell_length_c 10.011(5)
_cell_angle_alpha 90
_cell_angle_beta 105.14(4)
_cell_angle_gamma 90
_cell_formula_units_Z 4
loop_
_atom_type_symbol
_atom_type_radius_bond
C 0.68
H 0.23
loop_
_atom_site_label
_atom_site_type_symbol
_atom_site_fract_x
_atom_site_fract_y
_atom_site_fract_z
C1 C 0.4188(7) 0.2620(7) 0.1700(7)
C2 C 0.4613(7) 0.1039(11) 0.2416(8)
C3 C 0.4368(7) -0.0602(8) 0.3088(6)
H1 H 0.46520 -0.16600 0.35670
C4 C 0.3698(7) -0.0661(8) 0.3045(6)
H2 H 0.35330 -0.17580 0.34950
C5 C 0.3273(7) 0.0921(11) 0.2329(7)
H3 H 0.28240 0.08820 0.23000
C6 C 0.3518(7) 0.2561(8) 0.1656(6)
C7 C 0.3060(14) 0.4118(14) 0.0916(12)
H4 H 0.26150 0.40480 0.09160
C8 C 0.327(2) 0.568(2) 0.022(2)
H5 H 0.29780 0.66520 -0.03290
C9 C 0.3987(19) 0.5832(17) 0.0340(18)
H6 H 0.41380 0.70030 -0.00720
C10 C 0.4450(14) 0.4344(13) 0.1028(12)
H7 H 0.48980 0.44460 0.10560
C1A C 0.5812(7) 0.2620(7) 0.3300(7)
C2A C 0.5387(7) 0.1039(11) 0.2584(8)
C3A C 0.5632(7) -0.0602(8) 0.1912(6)
H1A H 0.53480 -0.16600 0.14330
C4A C 0.6302(7) -0.0661(8) 0.1955(6)
H2A H 0.64670 -0.17580 0.15050
C5A C 0.6727(7) 0.0921(11) 0.2671(7)
H3A H 0.71760 0.08820 0.27000
C6A C 0.6482(7) 0.2561(8) 0.3344(6)
C7A C 0.6940(14) 0.4118(14) 0.4084(12)
H4A H 0.73850 0.40480 0.40840
C8A C 0.673(2) 0.568(2) 0.478(2)
H5A H 0.70220 0.66520 0.53290
C9A C 0.6013(19) 0.5832(17) 0.4660(18)
H6A H 0.58620 0.70030 0.50720
C10A C 0.5550(14) 0.4344(13) 0.3972(12)
H7A H 0.51020 0.44460 0.39440
loop_
_geom_bond_atom_site_label_1
_geom_bond_atom_site_label_2
_geom_bond_distance
_geom_bond_site_symmetry_1
_geom_bond_site_symmetry_2
C1 C2 1.390 1_555 1_555
C2 C3 1.390 1_555 1_555
C3 H1 0.930 1_555 1_555
C4 C3 1.389 1_555 1_555
H2 C4 0.931 1_555 1_555
C5 C4 1.390 1_555 1_555
H3 C5 0.931 1_555 1_555
C6 C1 1.389 1_555 1_555
C7 C6 1.424 1_555 1_555
H4 C7 0.931 1_555 1_555
C8 C7 1.333 1_555 1_555
H5 C8 0.929 1_555 1_555
C9 C8 1.474 1_555 1_555
H6 C9 0.930 1_555 1_555
C10 C1 1.445 1_555 1_555
H7 C10 0.931 1_555 1_555
C1A C2A 1.390 1_555 1_555
C2A C2 1.581 1_555 1_555
C3A C2A 1.390 1_555 1_555
H1A C3A 0.930 1_555 1_555
C4A C3A 1.389 1_555 1_555
H2A C4A 0.931 1_555 1_555
C5A C4A 1.390 1_555 1_555
H3A C5A 0.931 1_555 1_555
C6A C1A 1.389 1_555 1_555
C7A C6A 1.424 1_555 1_555
H4A C7A 0.931 1_555 1_555
C8A C7A 1.333 1_555 1_555
H5A C8A 0.929 1_555 1_555
C9A C8A 1.474 1_555 1_555
H6A C9A 0.930 1_555 1_555
C10A C1A 1.445 1_555 1_555
H7A C10A 0.931 1_555 1_555
C5 C6 1.390 1_555 1_555
C9 C10 1.384 1_555 1_555
C5A C6A 1.390 1_555 1_555
C9A C10A 1.384 1_555 1_555
#END
