
#######################################################################
#
#                 Cambridge Crystallographic Data Centre
#                                CCDC
#
#######################################################################
#
# If this CIF has been generated from an entry in the Cambridge
# Structural Database, then it will include bibliographic, chemical,
# crystal, experimental, refinement or atomic coordinate data resulting
# from the CCDC's data processing and validation procedures.
#
#######################################################################

data_CSD_CIF_BIPHEB
_audit_creation_date 1981-11-16
_audit_creation_method CSD-ConQuest-V1
_database_code_CSD BIPHEB
_chemical_formula_sum 'C28 H16'
_chemical_formula_moiety
;
C28 H16
;
_journal_coeditor_code "IUCr A20139"
_journal_coden_Cambridge 107
_journal_volume 37
_journal_year 1981
_journal_page_first 1218
_journal_name_full 'Acta Crystallogr.,Sect.B:Struct.Crystallogr.Cryst.Chem. '
loop_
_publ_author_name
"M.van Meerssche"
"G.Germain"
"J.P.Declercq"
"B.Soubrier-Payen"
"H.P.Figeys"
"P.Vanommeslaeghe"
_chemical_name_systematic
;
Benzo(g)biphenyleno(2,3-c)phenanthrene
;
_cell_volume    883.745
_exptl_crystal_density_diffrn 1.32
_diffrn_ambient_temperature ?
_diffrn_special_details
;
The study was carried out at room temperature,in the range 283-303K

;
#These two values have been output from a single CSD field.
_refine_ls_R_factor_gt 0.053
_refine_ls_wR_factor_gt 0.053
_symmetry_cell_setting monoclinic
_symmetry_space_group_name_H-M 'P 21'
_symmetry_Int_Tables_number 4
loop_
_symmetry_equiv_pos_site_id
_symmetry_equiv_pos_as_xyz
1 x,y,z
2 -x,1/2+y,-z
_cell_length_a 13.656(4)
_cell_length_b 5.463(2)
_cell_length_c 12.450(4)
_cell_angle_alpha 90
_cell_angle_beta 107.92(2)
_cell_angle_gamma 90
_cell_formula_units_Z 2
loop_
_atom_type_symbol
_atom_type_radius_bond
C 0.68
loop_
_atom_site_label
_atom_site_type_symbol
_atom_site_fract_x
_atom_site_fract_y
_atom_site_fract_z
C1 C 0.16250 1.23890 0.61810
C2 C 0.13450 1.18340 0.49930
C3 C 0.17930 0.98350 0.45870
C4 C 0.24740 0.81780 0.53780
C5 C 0.37450 0.61330 0.84040
C6 C 0.38870 0.66220 0.95770
C7 C 0.34610 0.85710 0.99360
C8 C 0.28730 1.03710 0.92150
C9 C 0.27350 0.99200 0.80840
C10 C 0.22370 1.07840 0.68850
C11 C 0.26500 0.86430 0.64820
C12 C 0.31500 0.78570 0.77010
C13 C 0.05160 1.31560 0.42480
C14 C 0.00770 1.23150 0.31800
C15 C 0.04780 1.02610 0.27390
C16 C 0.14340 0.92620 0.33850
C17 C -0.00530 0.91250 0.16910
C18 C 0.03350 0.71410 0.13300
C19 C 0.13580 0.63780 0.18780
C20 C 0.19530 0.76440 0.28420
C21 C 0.18170 0.44030 0.14390
C22 C 0.28220 0.39060 0.18490
C23 C 0.35060 0.55380 0.26490
C24 C 0.30740 0.74200 0.31590
C25 C 0.45930 0.54170 0.28740
C26 C 0.52200 0.71720 0.35230
C27 C 0.47960 0.90850 0.39890
C28 C 0.37630 0.91910 0.38140
loop_
_geom_bond_atom_site_label_1
_geom_bond_atom_site_label_2
_geom_bond_distance
_geom_bond_site_symmetry_1
_geom_bond_site_symmetry_2
C1 C2 1.441 1_555 1_555
C2 C3 1.419 1_555 1_555
C3 C4 1.446 1_555 1_555
C4 C11 1.345 1_555 1_555
C5 C6 1.438 1_555 1_555
C6 C7 1.353 1_555 1_555
C7 C8 1.405 1_555 1_555
C8 C9 1.384 1_555 1_555
C9 C10 1.513 1_555 1_555
C10 C1 1.336 1_555 1_555
C11 C10 1.453 1_555 1_555
C12 C5 1.370 1_555 1_555
C13 C2 1.420 1_555 1_555
C14 C13 1.359 1_555 1_555
C15 C14 1.430 1_555 1_555
C16 C3 1.458 1_555 1_555
C17 C15 1.425 1_555 1_555
C18 C17 1.343 1_555 1_555
C19 C18 1.416 1_555 1_555
C20 C16 1.427 1_555 1_555
C21 C19 1.438 1_555 1_555
C22 C21 1.337 1_555 1_555
C23 C22 1.445 1_555 1_555
C24 C20 1.464 1_555 1_555
C25 C23 1.425 1_555 1_555
C26 C25 1.371 1_555 1_555
C27 C26 1.404 1_555 1_555
C28 C24 1.419 1_555 1_555
C9 C12 1.409 1_555 1_555
C11 C12 1.522 1_555 1_555
C15 C16 1.415 1_555 1_555
C19 C20 1.407 1_555 1_555
C23 C24 1.428 1_555 1_555
C27 C28 1.361 1_555 1_555
#END
