
#######################################################################
#
#                 Cambridge Crystallographic Data Centre
#                                CCDC
#
#######################################################################
#
# If this CIF has been generated from an entry in the Cambridge
# Structural Database, then it will include bibliographic, chemical,
# crystal, experimental, refinement or atomic coordinate data resulting
# from the CCDC's data processing and validation procedures.
#
#######################################################################

data_CSD_CIF_BITSUS
_audit_creation_date 1983-05-14
_audit_creation_method CSD-ConQuest-V1
_database_code_CSD BITSUS
_chemical_formula_sum 'C33 H32'
_chemical_formula_moiety
;
C33 H32
;
_journal_coeditor_code "IUCr A21553"
_journal_coden_Cambridge 107
_journal_volume 38
_journal_year 1982
_journal_page_first 2715
_journal_name_full 'Acta Crystallogr.,Sect.B:Struct.Crystallogr.Cryst.Chem. '
loop_
_publ_author_name
"H.Nakai"
"M.Shiro"
"S.Imajo"
"H.Kuritani"
"K.Shingu"
_chemical_name_systematic
;
(9S,P)-(+)-7,9-Di-t-butyl-9H-naphtho(1',2':3,4)cyclopenta(1,2-c)phenanthrene
;
_cell_volume   2470.237
_exptl_crystal_colour 'yellow'
_exptl_crystal_density_diffrn 1.152
_diffrn_ambient_temperature ?
_diffrn_special_details
;
The study was carried out at room temperature,in the range 283-303K

;
#These two values have been output from a single CSD field.
_refine_ls_R_factor_gt 0.056
_refine_ls_wR_factor_gt 0.056
_symmetry_cell_setting orthorhombic
_symmetry_space_group_name_H-M 'P 21 21 21'
_symmetry_Int_Tables_number 19
loop_
_symmetry_equiv_pos_site_id
_symmetry_equiv_pos_as_xyz
1 x,y,z
2 1/2+x,1/2-y,-z
3 -x,1/2+y,1/2-z
4 1/2-x,-y,1/2+z
_cell_length_a 11.148(1)
_cell_length_b 22.163(2)
_cell_length_c 9.998(1)
_cell_angle_alpha 90
_cell_angle_beta 90
_cell_angle_gamma 90
_cell_formula_units_Z 4
loop_
_atom_type_symbol
_atom_type_radius_bond
C 0.68
H 0.23
loop_
_atom_site_label
_atom_site_type_symbol
_atom_site_fract_x
_atom_site_fract_y
_atom_site_fract_z
C1 C 0.44370 0.15100 0.59150
C2 C 0.39120 0.17450 0.47820
C3 C 0.42250 0.23230 0.43380
C4 C 0.50290 0.26550 0.50470
C5 C 0.62850 0.28030 0.70520
C6 C 0.66080 0.26240 0.82970
C7 C 0.64890 0.18710 1.01940
C8 C 0.60400 0.13230 1.06250
C9 C 0.50730 0.02800 0.99930
C10 C 0.49610 -0.06030 0.82780
C11 C 0.51610 -0.07920 0.69870
C12 C 0.59380 -0.06030 0.47290
C13 C 0.65120 -0.02350 0.38430
C14 C 0.67980 0.03680 0.42070
C15 C 0.64450 0.05910 0.54180
C16 C 0.58240 0.02270 0.63580
C17 C 0.56140 -0.03900 0.60190
C18 C 0.54730 0.04220 0.76700
C19 C 0.51330 0.00040 0.86140
C20 C 0.56270 0.10110 0.83530
C21 C 0.55930 0.09030 0.97180
C22 C 0.57900 0.16110 0.79020
C23 C 0.63120 0.20350 0.88270
C24 C 0.52970 0.18370 0.66520
C25 C 0.55520 0.24310 0.62190
C26 C 0.71040 0.22970 1.12200
C27 C 0.83930 0.24510 1.07440
C28 C 0.63430 0.28760 1.14480
C29 C 0.72350 0.19920 1.26040
C30 C 0.37710 0.03140 1.06280
C31 C 0.29170 0.06480 0.96710
C32 C 0.37890 0.06470 1.19490
C33 C 0.32840 -0.03190 1.08750
H1 H 0.42000 0.11100 0.62200
H2 H 0.33000 0.15200 0.42200
H3 H 0.38800 0.25100 0.35800
H4 H 0.52700 0.30700 0.47100
H5 H 0.64400 0.32100 0.67800
H6 H 0.70300 0.29200 0.89000
H7 H 0.60400 0.12300 1.15800
H8 H 0.56400 0.00700 1.06200
H9 H 0.47200 -0.09100 0.90600
H10 H 0.50400 -0.12500 0.66800
H11 H 0.57900 -0.10500 0.44700
H12 H 0.67200 -0.03700 0.29800
H13 H 0.72600 0.06300 0.34900
H14 H 0.66300 0.10200 0.56600
H15 H 0.87800 0.27000 1.13900
H16 H 0.88900 0.20700 1.06000
H17 H 0.84800 0.27000 0.98800
H18 H 0.62900 0.31500 1.05500
H19 H 0.56000 0.27400 1.19200
H20 H 0.68000 0.31400 1.20900
H21 H 0.76800 0.22900 1.32100
H22 H 0.63600 0.19100 1.30600
H23 H 0.77600 0.16100 1.25000
H24 H 0.28300 0.04100 0.88300
H25 H 0.33300 0.11300 0.95300
H26 H 0.20200 0.06500 1.01700
H27 H 0.39800 0.11100 1.17800
H28 H 0.29600 0.05900 1.24100
H29 H 0.43900 0.05200 1.25900
H30 H 0.32100 -0.05200 1.00500
H31 H 0.25600 -0.03200 1.14000
H32 H 0.37200 -0.05300 1.14600
loop_
_geom_bond_atom_site_label_1
_geom_bond_atom_site_label_2
_geom_bond_distance
_geom_bond_site_symmetry_1
_geom_bond_site_symmetry_2
C1 C2 1.377 1_555 1_555
C2 C3 1.400 1_555 1_555
C3 C4 1.359 1_555 1_555
C4 C25 1.400 1_555 1_555
C5 C6 1.355 1_555 1_555
C6 C23 1.447 1_555 1_555
C7 C8 1.383 1_555 1_555
C8 C21 1.392 1_555 1_555
C9 C19 1.510 1_555 1_555
C10 C11 1.375 1_555 1_555
C11 C17 1.409 1_555 1_555
C12 C13 1.364 1_555 1_555
C13 C14 1.421 1_555 1_555
C14 C15 1.366 1_555 1_555
C15 C16 1.419 1_555 1_555
C16 C17 1.428 1_555 1_555
C17 C12 1.420 1_555 1_555
C18 C16 1.435 1_555 1_555
C19 C10 1.400 1_555 1_555
C20 C18 1.483 1_555 1_555
C21 C9 1.523 1_555 1_555
C22 C20 1.416 1_555 1_555
C23 C7 1.428 1_555 1_555
C24 C1 1.410 1_555 1_555
C25 C5 1.429 1_555 1_555
C26 C7 1.554 1_555 1_555
C27 C26 1.552 1_555 1_555
C28 C26 1.555 1_555 1_555
C29 C26 1.547 1_555 1_555
C30 C9 1.586 1_555 1_555
C31 C30 1.539 1_555 1_555
C32 C30 1.513 1_555 1_555
C33 C30 1.524 1_555 1_555
H1 C1 0.974 1_555 1_555
H2 C2 1.015 1_555 1_555
H3 C3 0.946 1_555 1_555
H4 C4 1.016 1_555 1_555
H5 C5 0.958 1_555 1_555
H6 C6 1.008 1_555 1_555
H7 C8 0.977 1_555 1_555
H8 C9 1.005 1_555 1_555
H9 C10 1.071 1_555 1_555
H10 C11 1.069 1_555 1_555
H11 C12 1.037 1_555 1_555
H12 C13 0.942 1_555 1_555
H13 C14 1.057 1_555 1_555
H14 C15 1.003 1_555 1_555
H15 C27 0.953 1_555 1_555
H16 C27 1.020 1_555 1_555
H17 C27 1.030 1_555 1_555
H18 C28 1.086 1_555 1_555
H19 C28 1.000 1_555 1_555
H20 C28 1.007 1_555 1_555
H21 C29 1.024 1_555 1_555
H22 C29 1.092 1_555 1_555
H23 C29 1.034 1_555 1_555
H24 C31 0.997 1_555 1_555
H25 C31 1.172 1_555 1_555
H26 C31 1.118 1_555 1_555
H27 C32 1.062 1_555 1_555
H28 C32 1.040 1_555 1_555
H29 C32 0.969 1_555 1_555
H30 C33 0.941 1_555 1_555
H31 C33 0.963 1_555 1_555
H32 C33 0.893 1_555 1_555
C18 C19 1.376 1_555 1_555
C20 C21 1.386 1_555 1_555
C22 C23 1.441 1_555 1_555
C22 C24 1.454 1_555 1_555
C24 C25 1.415 1_555 1_555
#END
