
#######################################################################
#
#                 Cambridge Crystallographic Data Centre
#                                CCDC
#
#######################################################################
#
# If this CIF has been generated from an entry in the Cambridge
# Structural Database, then it will include bibliographic, chemical,
# crystal, experimental, refinement or atomic coordinate data resulting
# from the CCDC's data processing and validation procedures.
#
#######################################################################

data_CSD_CIF_BNAFTH
_audit_creation_date 1981-11-16
_audit_creation_method CSD-ConQuest-V1
_database_code_CSD BNAFTH
_database_code_depnum_ccdc_archive 'CCDC 1112657'
_chemical_formula_sum 'C34 H30'
_chemical_formula_moiety
;
C34 H30
;
_journal_coeditor_code "IUCr A20116"
_journal_coden_Cambridge 107
_journal_volume 37
_journal_year 1981
_journal_page_first 1144
_journal_name_full 'Acta Crystallogr.,Sect.B:Struct.Crystallogr.Cryst.Chem. '
loop_
_publ_author_name
"S.Seth"
"S.Chakraborty"
_chemical_name_systematic
;
7,14-Dibutylacenaphtho(1,2-k)fluoranthene
;
_cell_volume   1177.850
_exptl_crystal_colour 'brown'
_exptl_crystal_density_diffrn 1.235
_diffrn_ambient_temperature ?
_diffrn_special_details
;
The study was carried out at room temperature,in the range 283-303K

;
#These two values have been output from a single CSD field.
_refine_ls_R_factor_gt 0.085
_refine_ls_wR_factor_gt 0.085
_symmetry_cell_setting monoclinic
_symmetry_space_group_name_H-M 'P 21/c'
_symmetry_Int_Tables_number 14
loop_
_symmetry_equiv_pos_site_id
_symmetry_equiv_pos_as_xyz
1 x,y,z
2 -x,1/2+y,1/2-z
3 -x,-y,-z
4 x,-1/2-y,-1/2+z
_cell_length_a 4.704(2)
_cell_length_b 12.52(1)
_cell_length_c 20.11(1)
_cell_angle_alpha 90
_cell_angle_beta 96.01(2)
_cell_angle_gamma 90
_cell_formula_units_Z 2
loop_
_atom_type_symbol
_atom_type_radius_bond
C 0.68
H 0.23
loop_
_atom_site_label
_atom_site_type_symbol
_atom_site_fract_x
_atom_site_fract_y
_atom_site_fract_z
C1 C -0.22240 0.46330 1.09880
C2 C -0.39020 0.37020 1.06580
C3 C -0.20590 0.27400 1.05720
C4 C -0.37730 0.18240 1.02270
C5 C -0.18580 0.08900 1.01150
C6 C -0.04200 0.08220 0.95470
C7 C -0.03770 0.15660 0.89760
C8 C -0.15730 0.25410 0.88110
C9 C -0.09640 0.30020 0.81930
C10 C 0.07550 0.25440 0.77720
C11 C 0.20530 0.15470 0.79410
C12 C 0.39400 0.09910 0.75670
C13 C 0.50420 0.00310 0.77950
C14 C 0.43560 -0.04270 0.84050
C15 C 0.25550 0.01110 0.87860
C16 C -0.13930 0.00590 1.05750
C17 C 0.14420 0.10990 0.85390
H1 H -0.11700 0.43300 1.13600
H2 H -0.37900 0.52700 1.11500
H3 H -0.06900 0.49400 1.06600
H4 H -0.50600 0.38300 1.02400
H5 H -0.57100 0.34300 1.09600
H6 H -0.09900 0.24800 1.10300
H7 H -0.02000 0.28800 1.02800
H8 H -0.47900 0.21000 0.98000
H9 H -0.54000 0.16400 1.04800
H10 H -0.29200 0.28900 0.91600
H11 H -0.20400 0.37200 0.80700
H12 H 0.12700 0.28700 0.73000
H13 H 0.44900 0.13400 0.71300
H14 H 0.64800 -0.03700 0.75400
H15 H 0.52300 -0.12100 0.85700
C16B C 0.13930 -0.00590 0.94250
C6B C 0.04200 -0.08220 1.04530
C15B C -0.25550 -0.01110 1.12140
C5B C 0.18580 -0.08900 0.98850
C7B C 0.03770 -0.15660 1.10240
C14B C -0.43560 0.04270 1.15950
C17B C -0.14420 -0.10990 1.14610
C4B C 0.37730 -0.18240 0.97730
C8B C 0.15730 -0.25410 1.11890
C13B C -0.50420 -0.00310 1.22050
H15B H -0.52300 0.12100 1.14300
C11B C -0.20530 -0.15470 1.20590
C3B C 0.20590 -0.27400 0.94280
H8B H 0.47900 -0.21000 1.02000
H9B H 0.54000 -0.16400 0.95200
C9B C 0.09640 -0.30020 1.18070
H10B H 0.29200 -0.28900 1.08400
C12B C -0.39400 -0.09910 1.24330
H14B H -0.64800 0.03700 1.24600
C10B C -0.07550 -0.25440 1.22280
C2B C 0.39020 -0.37020 0.93420
H6B H 0.09900 -0.24800 0.89700
H7B H 0.02000 -0.28800 0.97200
H11B H 0.20400 -0.37200 1.19300
H13B H -0.44900 -0.13400 1.28700
H12B H -0.12700 -0.28700 1.27000
C1B C 0.22240 -0.46330 0.90120
H4B H 0.50600 -0.38300 0.97600
H5B H 0.57100 -0.34300 0.90400
H1B H 0.11700 -0.43300 0.86400
H2B H 0.37900 -0.52700 0.88500
H3B H 0.06900 -0.49400 0.93400
loop_
_geom_bond_atom_site_label_1
_geom_bond_atom_site_label_2
_geom_bond_distance
_geom_bond_site_symmetry_1
_geom_bond_site_symmetry_2
C1 C2 1.521 1_555 1_555
C2 C3 1.505 1_555 1_555
C3 C4 1.526 1_555 1_555
C4 C5 1.507 1_555 1_555
C5 C6 1.390 1_555 1_555
C6 C7 1.480 1_555 1_555
C7 C8 1.370 1_555 1_555
C8 C9 1.426 1_555 1_555
C9 C10 1.358 1_555 1_555
C10 C11 1.415 1_555 1_555
C11 C12 1.406 1_555 1_555
C12 C13 1.369 1_555 1_555
C13 C14 1.421 1_555 1_555
C14 C15 1.376 1_555 1_555
C15 C17 1.413 1_555 1_555
C16 C5 1.394 1_555 1_555
C17 C7 1.416 1_555 1_555
H1 C1 0.934 1_555 1_555
H2 C1 1.155 1_555 1_555
H3 C1 1.097 1_555 1_555
H4 C2 0.966 1_555 1_555
H5 C2 1.147 1_555 1_555
H6 C3 1.054 1_555 1_555
H7 C3 1.117 1_555 1_555
H8 C4 1.000 1_555 1_555
H9 C4 0.990 1_555 1_555
H10 C8 1.085 1_555 1_555
H11 C9 1.048 1_555 1_555
H12 C10 1.084 1_555 1_555
H13 C12 1.038 1_555 1_555
H14 C13 1.022 1_555 1_555
H15 C14 1.101 1_555 1_555
C16B C6 1.431 1_555 1_555
C6B C16 1.431 1_555 1_555
C15B C16 1.464 1_555 1_555
C5B C16B 1.394 1_555 1_555
C7B C6B 1.480 1_555 1_555
C14B C15B 1.376 1_555 1_555
C17B C15B 1.413 1_555 1_555
C4B C5B 1.507 1_555 1_555
C8B C7B 1.370 1_555 1_555
C13B C14B 1.421 1_555 1_555
H15B C14B 1.101 1_555 1_555
C11B C17B 1.384 1_555 1_555
C3B C4B 1.526 1_555 1_555
H8B C4B 1.000 1_555 1_555
H9B C4B 0.990 1_555 1_555
C9B C8B 1.426 1_555 1_555
H10B C8B 1.085 1_555 1_555
C12B C13B 1.369 1_555 1_555
H14B C13B 1.022 1_555 1_555
C10B C11B 1.415 1_555 1_555
C2B C3B 1.505 1_555 1_555
H6B C3B 1.054 1_555 1_555
H7B C3B 1.117 1_555 1_555
H11B C9B 1.048 1_555 1_555
H13B C12B 1.038 1_555 1_555
H12B C10B 1.084 1_555 1_555
C1B C2B 1.521 1_555 1_555
H4B C2B 0.966 1_555 1_555
H5B C2B 1.147 1_555 1_555
H1B C1B 0.934 1_555 1_555
H2B C1B 1.155 1_555 1_555
H3B C1B 1.097 1_555 1_555
C11 C17 1.384 1_555 1_555
C15 C16B 1.464 1_555 1_555
C6B C5B 1.390 1_555 1_555
C7B C17B 1.416 1_555 1_555
C11B C12B 1.406 1_555 1_555
C9B C10B 1.358 1_555 1_555
#END
