
#######################################################################
#
#                 Cambridge Crystallographic Data Centre
#                                CCDC
#
#######################################################################
#
# If this CIF has been generated from an entry in the Cambridge
# Structural Database, then it will include bibliographic, chemical,
# crystal, experimental, refinement or atomic coordinate data resulting
# from the CCDC's data processing and validation procedures.
#
#######################################################################

data_CSD_CIF_BNFLAN
_audit_creation_date 1971-12-31
_audit_creation_method CSD-ConQuest-V1
_database_code_CSD BNFLAN
_chemical_formula_sum 'C18 H10'
_chemical_formula_moiety
;
C18 H10
;
_journal_coeditor_code "IUCr A01752"
_journal_coden_Cambridge 1
_journal_volume 9
_journal_year 1956
_journal_page_first 602
_journal_name_full 'Acta Crystallogr. '
loop_
_publ_author_name
"H.W.W.Ehrlich"
"C.A.Beevers"
_chemical_name_systematic
;
1,10-Benzofluoranthene
;
_cell_volume   1115.315
_exptl_crystal_density_diffrn 1.348
_diffrn_ambient_temperature ?
_diffrn_special_details
;
The study was carried out at room temperature,in the range 283-303K

;
#These two values have been output from a single CSD field.
_refine_ls_R_factor_gt 0.118
_refine_ls_wR_factor_gt 0.118
_symmetry_cell_setting monoclinic
_symmetry_space_group_name_H-M 'P 21/a'
_symmetry_Int_Tables_number 14
loop_
_symmetry_equiv_pos_site_id
_symmetry_equiv_pos_as_xyz
1 x,y,z
2 1/2-x,1/2+y,-z
3 -x,-y,-z
4 -1/2+x,-1/2-y,z
_cell_length_a 19.03(3)
_cell_length_b 4.762(5)
_cell_length_c 15.81(3)
_cell_angle_alpha 90
_cell_angle_beta 128.88(5)
_cell_angle_gamma 90
_cell_formula_units_Z 4
loop_
_atom_type_symbol
_atom_type_radius_bond
C 0.68
loop_
_atom_site_label
_atom_site_type_symbol
_atom_site_fract_x
_atom_site_fract_y
_atom_site_fract_z
C1 C -0.06900 0.42800 0.05800
C2 C -0.14200 0.56300 0.04700
C3 C -0.16600 0.50400 0.11300
C4 C -0.11400 0.31300 0.20000
C5 C -0.12500 0.20600 0.27700
C6 C -0.07000 0.00300 0.35500
C7 C 0.00500 -0.12500 0.36200
C8 C 0.07300 -0.33800 0.43500
C9 C 0.13800 -0.42400 0.42700
C10 C 0.14000 -0.30800 0.34300
C11 C 0.20100 -0.37600 0.32000
C12 C 0.18900 -0.24400 0.23200
C13 C 0.12100 -0.03000 0.16700
C14 C 0.06300 0.04100 0.18700
C15 C -0.01700 0.22800 0.14300
C16 C -0.04500 0.19200 0.20700
C17 C 0.01200 -0.03000 0.28700
C18 C 0.07600 -0.11200 0.27600
loop_
_geom_bond_atom_site_label_1
_geom_bond_atom_site_label_2
_geom_bond_distance
_geom_bond_site_symmetry_1
_geom_bond_site_symmetry_2
C1 C2 1.439 1_555 1_555
C2 C3 1.405 1_555 1_555
C3 C4 1.411 1_555 1_555
C4 C5 1.451 1_555 1_555
C5 C6 1.389 1_555 1_555
C6 C7 1.491 1_555 1_555
C7 C8 1.470 1_555 1_555
C8 C9 1.382 1_555 1_555
C9 C10 1.461 1_555 1_555
C10 C11 1.454 1_555 1_555
C11 C12 1.409 1_555 1_555
C12 C13 1.449 1_555 1_555
C13 C14 1.368 1_555 1_555
C14 C15 1.505 1_555 1_555
C15 C1 1.422 1_555 1_555
C16 C4 1.373 1_555 1_555
C17 C7 1.352 1_555 1_555
C18 C10 1.363 1_555 1_555
C14 C18 1.461 1_555 1_555
C15 C16 1.419 1_555 1_555
C16 C17 1.474 1_555 1_555
C17 C18 1.390 1_555 1_555
#END
