
#######################################################################
#
#                 Cambridge Crystallographic Data Centre
#                                CCDC
#
#######################################################################
#
# If this CIF has been generated from an entry in the Cambridge
# Structural Database, then it will include bibliographic, chemical,
# crystal, experimental, refinement or atomic coordinate data resulting
# from the CCDC's data processing and validation procedures.
#
#######################################################################

data_CSD_CIF_BNPERY01
_audit_creation_date 1971-12-31
_audit_creation_method CSD-ConQuest-V1
_database_code_CSD BNPERY01
_database_code_depnum_ccdc_archive 'CCDC 1112689'
_chemical_formula_sum 'C22 H12'
_chemical_formula_moiety
;
C22 H12
;
_journal_coeditor_code "IUCr A02671"
_journal_coden_Cambridge 1
_journal_volume 12
_journal_year 1959
_journal_page_first 889
_journal_name_full 'Acta Crystallogr. '
loop_
_publ_author_name
"J.Trotter"
_chemical_name_systematic
;
1,12-Benzoperylene
;
_cell_volume   1361.895
_exptl_crystal_density_diffrn 1.338
_diffrn_ambient_temperature ?
_diffrn_special_details
;
The study was carried out at room temperature,in the range 283-303K

;
_symmetry_cell_setting monoclinic
_symmetry_space_group_name_H-M 'P 21/a'
_symmetry_Int_Tables_number 14
loop_
_symmetry_equiv_pos_site_id
_symmetry_equiv_pos_as_xyz
1 x,y,z
2 1/2-x,1/2+y,-z
3 -x,-y,-z
4 -1/2+x,-1/2-y,z
_cell_length_a 11.72(5)
_cell_length_b 11.88(5)
_cell_length_c 9.89(3)
_cell_angle_alpha 90
_cell_angle_beta 98.5(2)
_cell_angle_gamma 90
_cell_formula_units_Z 4
loop_
_atom_type_symbol
_atom_type_radius_bond
C 0.68
loop_
_atom_site_label
_atom_site_type_symbol
_atom_site_fract_x
_atom_site_fract_y
_atom_site_fract_z
C1 C 0.15970 -0.17550 0.33570
C2 C 0.23180 -0.08850 0.39430
C3 C 0.26200 -0.00140 0.31500
C4 C 0.22630 0.00290 0.16830
C5 C 0.25460 0.09020 0.08620
C6 C 0.21670 0.09280 -0.05250
C7 C 0.14380 0.00810 -0.11730
C8 C 0.10570 0.00900 -0.26320
C9 C 0.03580 -0.07550 -0.31730
C10 C -0.00110 -0.16510 -0.24020
C11 C -0.07420 -0.25080 -0.29910
C12 C -0.10510 -0.33970 -0.21900
C13 C -0.06930 -0.34230 -0.07540
C14 C 0.01510 -0.34760 0.21390
C15 C 0.05000 -0.35020 0.35750
C16 C 0.12350 -0.26370 0.41300
C17 C 0.11700 -0.17340 0.19200
C18 C 0.14980 -0.08420 0.10850
C19 C 0.11040 -0.08160 -0.03390
C20 C 0.03670 -0.16800 -0.09850
C21 C 0.00320 -0.25630 -0.01800
C22 C 0.04440 -0.25880 0.13060
loop_
_geom_bond_atom_site_label_1
_geom_bond_atom_site_label_2
_geom_bond_distance
_geom_bond_site_symmetry_1
_geom_bond_site_symmetry_2
C1 C2 1.405 1_555 1_555
C2 C3 1.376 1_555 1_555
C3 C4 1.450 1_555 1_555
C4 C5 1.387 1_555 1_555
C5 C6 1.378 1_555 1_555
C6 C7 1.411 1_555 1_555
C7 C8 1.446 1_555 1_555
C8 C9 1.355 1_555 1_555
C9 C10 1.414 1_555 1_555
C10 C11 1.401 1_555 1_555
C11 C12 1.400 1_555 1_555
C12 C13 1.421 1_555 1_555
C13 C21 1.395 1_555 1_555
C14 C15 1.419 1_555 1_555
C15 C16 1.400 1_555 1_555
C16 C1 1.399 1_555 1_555
C17 C1 1.435 1_555 1_555
C18 C4 1.438 1_555 1_555
C19 C7 1.437 1_555 1_555
C20 C10 1.406 1_555 1_555
C21 C20 1.407 1_555 1_555
C22 C14 1.412 1_555 1_555
C17 C18 1.431 1_555 1_555
C17 C22 1.403 1_555 1_555
C18 C19 1.416 1_555 1_555
C19 C20 1.430 1_555 1_555
C21 C22 1.478 1_555 1_555
#END
