
#######################################################################
#
#                 Cambridge Crystallographic Data Centre
#                                CCDC
#
#######################################################################
#
# If this CIF has been generated from an entry in the Cambridge
# Structural Database, then it will include bibliographic, chemical,
# crystal, experimental, refinement or atomic coordinate data resulting
# from the CCDC's data processing and validation procedures.
#
#######################################################################

data_CSD_CIF_BNPERY02
_audit_creation_date 2000-06-26
_audit_creation_method CSD-ConQuest-V1
_database_code_CSD BNPERY02
_database_code_depnum_ccdc_archive 'CCDC 1112690'
_chemical_formula_sum 'C22 H12'
_chemical_formula_moiety
;
C22 H12
;
_journal_coden_Cambridge 4
_journal_volume 121
_journal_year 1999
_journal_page_first 4968
_journal_name_full 'J.Am.Chem.Soc. '
loop_
_publ_author_name
"M.Munakata"
"L.P.Wu"
"G.L.Ning"
"T.Kuroda-Sowa"
"M.Maekawa"
"Y.Suenaga"
"N.Maeno"
_chemical_name_systematic
;
Benzo(ghi)perylene
;
_cell_volume   1347.272
_exptl_crystal_colour 'yellow'
_exptl_crystal_density_diffrn 1.362
_exptl_crystal_description 'prismatic'
_diffrn_ambient_temperature ?
_diffrn_special_details
;
The study was carried out at room temperature,in the range 283-303K

;
#These two values have been output from a single CSD field.
_refine_ls_R_factor_gt 0.058
_refine_ls_wR_factor_gt 0.058
_symmetry_cell_setting monoclinic
_symmetry_space_group_name_H-M 'P 21/c'
_symmetry_Int_Tables_number 14
loop_
_symmetry_equiv_pos_site_id
_symmetry_equiv_pos_as_xyz
1 x,y,z
2 -x,1/2+y,1/2-z
3 -x,-y,-z
4 x,-1/2-y,-1/2+z
_cell_length_a 9.837(5)
_cell_length_b 11.874(6)
_cell_length_c 11.658(2)
_cell_angle_alpha 90
_cell_angle_beta 98.35(3)
_cell_angle_gamma 90
_cell_formula_units_Z 4
loop_
_atom_type_symbol
_atom_type_radius_bond
C 0.68
H 0.23
loop_
_atom_site_label
_atom_site_type_symbol
_atom_site_fract_x
_atom_site_fract_y
_atom_site_fract_z
C1 C 0.7205(5) 0.1528(4) 0.5131(4)
C2 C 0.8608(5) 0.1552(5) 0.5560(5)
C3 C 0.9168(5) 0.2399(5) 0.6279(5)
C4 C 0.8362(5) 0.3268(4) 0.6606(4)
C5 C 0.8911(5) 0.4178(5) 0.7331(4)
C6 C 0.8133(6) 0.5017(5) 0.7623(4)
C7 C 0.6669(5) 0.5028(4) 0.7222(4)
C8 C 0.5849(6) 0.5899(4) 0.7527(4)
C9 C 0.4438(6) 0.5904(4) 0.7123(4)
C10 C 0.3821(5) 0.5026(4) 0.6429(4)
C11 C 0.2360(5) 0.5025(5) 0.6041(4)
C12 C 0.1784(5) 0.4178(4) 0.5364(4)
C13 C 0.2596(4) 0.3274(4) 0.5016(4)
C14 C 0.2020(5) 0.2403(5) 0.4311(4)
C15 C 0.2823(5) 0.1550(5) 0.3966(4)
C16 C 0.4234(5) 0.1534(4) 0.4315(4)
C17 C 0.4852(4) 0.2371(4) 0.5028(4)
C18 C 0.4052(4) 0.3252(4) 0.5386(3)
C19 C 0.4638(4) 0.4144(4) 0.6111(3)
C20 C 0.6091(4) 0.4137(4) 0.6514(3)
C21 C 0.6913(4) 0.3254(4) 0.6179(4)
C22 C 0.6352(4) 0.2375(4) 0.5440(3)
H1 H 0.67580 0.09020 0.44450
H2 H 0.94220 0.09990 0.53020
H3 H 1.02420 0.24630 0.65500
H4 H 1.00870 0.41808 0.75650
H5 H 0.84430 0.56210 0.83190
H6 H 0.61150 0.66190 0.80430
H7 H 0.37220 0.64950 0.74530
H8 H 0.15980 0.56230 0.62110
H9 H 0.06890 0.41270 0.50000
H10 H 0.10050 0.22910 0.41210
H11 H 0.23760 0.08960 0.33250
H12 H 0.49340 0.08990 0.41230
loop_
_geom_bond_atom_site_label_1
_geom_bond_atom_site_label_2
_geom_bond_distance
_geom_bond_site_symmetry_1
_geom_bond_site_symmetry_2
C1 C2 1.398 1_555 1_555
C2 C3 1.372 1_555 1_555
C3 C4 1.388 1_555 1_555
C4 C5 1.429 1_555 1_555
C5 C6 1.330 1_555 1_555
C6 C7 1.448 1_555 1_555
C7 C8 1.389 1_555 1_555
C8 C9 1.399 1_555 1_555
C9 C10 1.403 1_555 1_555
C10 C11 1.443 1_555 1_555
C11 C12 1.351 1_555 1_555
C12 C13 1.431 1_555 1_555
C13 C14 1.390 1_555 1_555
C14 C15 1.380 1_555 1_555
C15 C16 1.389 1_555 1_555
C16 C17 1.379 1_555 1_555
C17 C18 1.408 1_555 1_555
C18 C13 1.435 1_555 1_555
C19 C10 1.402 1_555 1_555
C20 C7 1.410 1_555 1_555
C21 C4 1.440 1_555 1_555
C22 C1 1.390 1_555 1_555
H1 C1 1.133 1_555 1_555
H2 C2 1.110 1_555 1_555
H3 C3 1.061 1_555 1_555
H4 C5 1.149 1_555 1_555
H5 C6 1.093 1_555 1_555
H6 C8 1.056 1_555 1_555
H7 C9 1.102 1_555 1_555
H8 C11 1.072 1_555 1_555
H9 C12 1.101 1_555 1_555
H10 C14 1.000 1_555 1_555
H11 C15 1.122 1_555 1_555
H12 C16 1.067 1_555 1_555
C17 C22 1.484 1_555 1_555
C18 C19 1.424 1_555 1_555
C19 C20 1.438 1_555 1_555
C20 C21 1.413 1_555 1_555
C21 C22 1.414 1_555 1_555
#END
