
#######################################################################
#
#                 Cambridge Crystallographic Data Centre
#                                CCDC
#
#######################################################################
#
# If this CIF has been generated from an entry in the Cambridge
# Structural Database, then it will include bibliographic, chemical,
# crystal, experimental, refinement or atomic coordinate data resulting
# from the CCDC's data processing and validation procedures.
#
#######################################################################

data_CSD_CIF_BNPHTA09
_audit_creation_date 2018-02-06
_audit_creation_method CSD-ConQuest-V1
_database_code_CSD BNPHTA09
_database_code_depnum_ccdc_archive 'CCDC 1531204'
_chemical_formula_sum 'C20 H14'
_chemical_formula_moiety
;
C20 H14
;
_journal_coden_Cambridge 1326
_journal_volume 20
_journal_year 2018
_journal_page_first 5305
_journal_name_full 'Phys.Chem.Chem.Phys.(PCCP) '
loop_
_publ_author_name
"Kinga Roszak"
"A.Katrusiak"
_chemical_name_systematic
;
(-)-1,1'-binaphthalene
;
_chemical_name_common
;
(-)-1,1'-binaphthyl
;
_cell_volume   1208.226
_exptl_crystal_colour 'colorless'
_exptl_crystal_density_diffrn 1.398
_exptl_crystal_description 'tetragonal-bipyramidal'
_diffrn_ambient_temperature 296
_diffrn_ambient_pressure 2370000.0
#These two values have been output from a single CSD field.
_refine_ls_R_factor_gt 0.0995
_refine_ls_wR_factor_gt 0.0995
loop_
_citation_database_id_CSD
_citation_special_details
BINAPH "is a racemate of this entry"
_symmetry_cell_setting tetragonal
_symmetry_space_group_name_H-M 'P 41 21 2'
_symmetry_Int_Tables_number 92
loop_
_symmetry_equiv_pos_site_id
_symmetry_equiv_pos_as_xyz
1 x,y,z
2 -x,-y,1/2+z
3 1/2-y,1/2+x,1/4+z
4 1/2+y,1/2-x,3/4+z
5 1/2-x,1/2+y,1/4-z
6 1/2+x,1/2-y,3/4-z
7 y,x,-z
8 -y,-x,1/2-z
_cell_length_a 6.7514(15)
_cell_length_b 6.7514(15)
_cell_length_c 26.507(10)
_cell_angle_alpha 90
_cell_angle_beta 90
_cell_angle_gamma 90
_cell_formula_units_Z 4
loop_
_atom_type_symbol
_atom_type_radius_bond
C 0.68
H 0.23
loop_
_atom_site_label
_atom_site_type_symbol
_atom_site_fract_x
_atom_site_fract_y
_atom_site_fract_z
C1 C 0.127(4) 0.982(4) 0.0091(8)
C2 C 0.308(3) 0.961(3) -0.0142(7)
H1 H 0.34000 1.04600 -0.04050
C3 C 0.444(3) 0.821(3) -0.0006(6)
H2 H 0.55810 0.80610 -0.01990
C4 C 0.417(3) 0.701(3) 0.0406(6)
H3 H 0.51360 0.61180 0.05140
C5 C 0.191(3) 0.631(3) 0.1127(7)
H4 H 0.28840 0.55270 0.12730
C6 C 0.013(3) 0.657(4) 0.1366(7)
H5 H -0.01390 0.58580 0.16580
C7 C -0.124(3) 0.783(3) 0.1183(7)
H6 H -0.24200 0.80280 0.13580
C8 C -0.090(3) 0.883(4) 0.0746(7)
H7 H -0.18750 0.96400 0.06070
C9 C 0.091(4) 0.862(4) 0.0509(8)
C10 C 0.224(3) 0.722(3) 0.0668(7)
C1F C -0.018(4) 1.127(4) -0.0091(8)
C2F C -0.039(3) 1.308(3) 0.0142(7)
H1F H 0.04600 1.34000 0.04050
C3F C -0.179(3) 1.444(3) 0.0006(6)
H2F H -0.19390 1.55810 0.01990
C4F C -0.299(3) 1.417(3) -0.0406(6)
H3F H -0.38820 1.51360 -0.05140
C5F C -0.369(3) 1.191(3) -0.1127(7)
H4F H -0.44730 1.28840 -0.12730
C6F C -0.343(3) 1.013(4) -0.1366(7)
H5F H -0.41420 0.98610 -0.16580
C7F C -0.217(3) 0.876(3) -0.1183(7)
H6F H -0.19720 0.75800 -0.13580
C8F C -0.117(3) 0.910(4) -0.0746(7)
H7F H -0.03600 0.81250 -0.06070
C9F C -0.138(4) 1.091(4) -0.0509(8)
C10F C -0.278(3) 1.224(3) -0.0668(7)
loop_
_geom_bond_atom_site_label_1
_geom_bond_atom_site_label_2
_geom_bond_distance
_geom_bond_site_symmetry_1
_geom_bond_site_symmetry_2
C1 C2 1.377 1_555 1_555
C2 H1 0.928 1_555 1_555
C3 C2 1.366 1_555 1_555
H2 C3 0.930 1_555 1_555
C4 C3 1.372 1_555 1_555
H3 C4 0.933 1_555 1_555
C5 H4 0.928 1_555 1_555
C6 C5 1.370 1_555 1_555
H5 C6 0.929 1_555 1_555
C7 C6 1.347 1_555 1_555
H6 C7 0.932 1_555 1_555
C8 C7 1.360 1_555 1_555
H7 C8 0.932 1_555 1_555
C9 C1 1.394 1_555 1_555
C10 C4 1.483 1_555 1_555
C1F C1 1.466 1_555 1_555
C2F C1F 1.377 1_555 1_555
H1F C2F 0.928 1_555 1_555
C3F C2F 1.366 1_555 1_555
H2F C3F 0.930 1_555 1_555
C4F C3F 1.372 1_555 1_555
H3F C4F 0.933 1_555 1_555
C5F H4F 0.928 1_555 1_555
C6F C5F 1.370 1_555 1_555
H5F C6F 0.929 1_555 1_555
C7F C6F 1.347 1_555 1_555
H6F C7F 0.932 1_555 1_555
C8F C7F 1.360 1_555 1_555
H7F C8F 0.932 1_555 1_555
C9F C1F 1.394 1_555 1_555
C10F C4F 1.483 1_555 1_555
C5 C10 1.381 1_555 1_555
C8 C9 1.381 1_555 1_555
C9 C10 1.370 1_555 1_555
C5F C10F 1.381 1_555 1_555
C8F C9F 1.381 1_555 1_555
C9F C10F 1.370 1_555 1_555
#END
