
#######################################################################
#
#                 Cambridge Crystallographic Data Centre
#                                CCDC
#
#######################################################################
#
# If this CIF has been generated from an entry in the Cambridge
# Structural Database, then it will include bibliographic, chemical,
# crystal, experimental, refinement or atomic coordinate data resulting
# from the CCDC's data processing and validation procedures.
#
#######################################################################

data_CSD_CIF_BNPHTA
_audit_creation_date 1981-07-07
_audit_creation_method CSD-ConQuest-V1
_database_code_CSD BNPHTA
_database_code_depnum_ccdc_archive 'CCDC 1112692'
_chemical_formula_sum 'C20 H14'
_chemical_formula_moiety
;
C20 H14
;
_journal_coden_Cambridge 4
_journal_volume 102
_journal_year 1980
_journal_page_first 7709
_journal_name_full 'J.Am.Chem.Soc. '
loop_
_publ_author_name
"R.B.Kress"
"E.N.Duesler"
"M.C.Etter"
"I.C.Paul"
"D.Y.Curtin"
_chemical_name_systematic
;
(R)-(-)-trans-1,1'-Binaphthyl
;
_chemical_melting_point 432.15
_cell_volume   1427.420
_exptl_crystal_colour 'colorless'
_exptl_crystal_density_diffrn 1.18
_diffrn_ambient_temperature ?
_diffrn_special_details
;
The study was carried out at room temperature,in the range 283-303K

;
#These two values have been output from a single CSD field.
_refine_ls_R_factor_gt 0.043
_refine_ls_wR_factor_gt 0.043
loop_
_citation_database_id_CSD
_citation_special_details
BINAPH "is a racemate of this entry"
_symmetry_cell_setting tetragonal
_symmetry_space_group_name_H-M 'P 41 21 2'
_symmetry_Int_Tables_number 92
loop_
_symmetry_equiv_pos_site_id
_symmetry_equiv_pos_as_xyz
1 x,y,z
2 1/2-y,1/2+x,1/4+z
3 -x,-y,1/2+z
4 1/2+y,1/2-x,3/4+z
5 y,x,-z
6 1/2+x,1/2-y,3/4-z
7 -y,-x,1/2-z
8 1/2-x,1/2+y,1/4-z
_cell_length_a 7.181(2)
_cell_length_b 7.181(2)
_cell_length_c 27.681(10)
_cell_angle_alpha 90
_cell_angle_beta 90
_cell_angle_gamma 90
_cell_formula_units_Z 4
loop_
_atom_type_symbol
_atom_type_radius_bond
C 0.68
H 0.23
loop_
_atom_site_label
_atom_site_type_symbol
_atom_site_fract_x
_atom_site_fract_y
_atom_site_fract_z
C1 C 0.48550 0.37420 0.25830
C2 C 0.46650 0.20800 0.23451
C3 C 0.33540 0.07430 0.24926
C4 C 0.22490 0.10670 0.28800
C5 C 0.23980 0.27570 0.31407
C6 C 0.13080 0.31150 0.35551
C7 C 0.14880 0.47250 0.38076
C8 C 0.27480 0.60930 0.36530
C9 C 0.38320 0.58100 0.32535
C10 C 0.37060 0.41180 0.29876
H1 H 0.54800 0.18100 0.20600
H2 H 0.32400 -0.04500 0.23100
H3 H 0.13200 0.01100 0.29830
H4 H 0.03800 0.21600 0.36650
H5 H 0.07200 0.49400 0.41040
H6 H 0.28500 0.72900 0.38370
H7 H 0.47200 0.68000 0.31470
C1F C 0.62580 0.51450 0.24170
C2F C 0.79200 0.53350 0.26549
C10F C 0.58820 0.62940 0.20124
C3F C 0.92570 0.66460 0.25074
H1F H 0.81900 0.45200 0.29400
C5F C 0.72430 0.76020 0.18593
C9F C 0.41900 0.61680 0.17465
C4F C 0.89330 0.77510 0.21200
H2F H 1.04500 0.67600 0.26900
C6F C 0.68850 0.86920 0.14449
C8F C 0.39070 0.72520 0.13470
H7F H 0.32000 0.52800 0.18530
H3F H 0.98900 0.86800 0.20170
C7F C 0.52750 0.85120 0.11924
H4F H 0.78400 0.96200 0.13350
H6F H 0.27100 0.71500 0.11630
H5F H 0.50600 0.92800 0.08960
loop_
_geom_bond_atom_site_label_1
_geom_bond_atom_site_label_2
_geom_bond_distance
_geom_bond_site_symmetry_1
_geom_bond_site_symmetry_2
C1 C2 1.370 1_555 1_555
C2 C3 1.405 1_555 1_555
C3 C4 1.354 1_555 1_555
C4 C5 1.416 1_555 1_555
C5 C6 1.412 1_555 1_555
C6 C7 1.357 1_555 1_555
C7 C8 1.402 1_555 1_555
C8 C9 1.368 1_555 1_555
C9 C10 1.423 1_555 1_555
C10 C1 1.417 1_555 1_555
H1 C2 1.001 1_555 1_555
H2 C3 0.998 1_555 1_555
H3 C4 0.999 1_555 1_555
H4 C6 1.003 1_555 1_555
H5 C7 1.001 1_555 1_555
H6 C8 1.002 1_555 1_555
H7 C9 0.999 1_555 1_555
C1F C1 1.497 1_555 1_555
C2F C1F 1.370 1_555 1_555
C10F C1F 1.417 1_555 1_555
C3F C2F 1.405 1_555 1_555
H1F C2F 1.001 1_555 1_555
C5F C10F 1.420 1_555 1_555
C9F C10F 1.423 1_555 1_555
C4F C3F 1.354 1_555 1_555
H2F C3F 0.998 1_555 1_555
C6F C5F 1.412 1_555 1_555
C8F C9F 1.368 1_555 1_555
H7F C9F 0.999 1_555 1_555
H3F C4F 0.999 1_555 1_555
C7F C6F 1.357 1_555 1_555
H4F C6F 1.003 1_555 1_555
H6F C8F 1.002 1_555 1_555
H5F C7F 1.001 1_555 1_555
C5 C10 1.420 1_555 1_555
C5F C4F 1.416 1_555 1_555
C8F C7F 1.402 1_555 1_555
#END
