
#######################################################################
#
#                 Cambridge Crystallographic Data Centre
#                                CCDC
#
#######################################################################
#
# If this CIF has been generated from an entry in the Cambridge
# Structural Database, then it will include bibliographic, chemical,
# crystal, experimental, refinement or atomic coordinate data resulting
# from the CCDC's data processing and validation procedures.
#
#######################################################################

data_CSD_CIF_BNPHTA04
_audit_creation_date 2018-02-06
_audit_creation_method CSD-ConQuest-V1
_database_code_CSD BNPHTA04
_database_code_depnum_ccdc_archive 'CCDC 1531199'
_chemical_formula_sum 'C20 H14'
_chemical_formula_moiety
;
C20 H14
;
_journal_coden_Cambridge 1326
_journal_volume 20
_journal_year 2018
_journal_page_first 5305
_journal_name_full 'Phys.Chem.Chem.Phys.(PCCP) '
loop_
_publ_author_name
"Kinga Roszak"
"A.Katrusiak"
_chemical_name_systematic
;
(-)-1,1'-binaphthalene
;
_chemical_name_common
;
(-)-1,1'-binaphthyl
;
_cell_volume   1387.332
_exptl_crystal_colour 'colorless'
_exptl_crystal_density_diffrn 1.218
_exptl_crystal_description 'tetragonal-bipyramidal'
_diffrn_ambient_temperature 150
_diffrn_ambient_pressure 1000.0
#These two values have been output from a single CSD field.
_refine_ls_R_factor_gt 0.0724
_refine_ls_wR_factor_gt 0.0724
loop_
_citation_database_id_CSD
_citation_special_details
BINAPH "is a racemate of this entry"
_symmetry_cell_setting tetragonal
_symmetry_space_group_name_H-M 'P 41 21 2'
_symmetry_Int_Tables_number 92
loop_
_symmetry_equiv_pos_site_id
_symmetry_equiv_pos_as_xyz
1 x,y,z
2 -x,-y,1/2+z
3 1/2-y,1/2+x,1/4+z
4 1/2+y,1/2-x,3/4+z
5 1/2-x,1/2+y,1/4-z
6 1/2+x,1/2-y,3/4-z
7 y,x,-z
8 -y,-x,1/2-z
_cell_length_a 7.1071(2)
_cell_length_b 7.1071(2)
_cell_length_c 27.466(2)
_cell_angle_alpha 90
_cell_angle_beta 90
_cell_angle_gamma 90
_cell_formula_units_Z 4
loop_
_atom_type_symbol
_atom_type_radius_bond
C 0.68
H 0.23
loop_
_atom_site_label
_atom_site_type_symbol
_atom_site_fract_x
_atom_site_fract_y
_atom_site_fract_z
C1 C 0.1286(3) 0.9863(3) 0.00839(8)
C2 C 0.2952(4) 0.9671(4) -0.01571(9)
H1 H 0.32000 1.04360 -0.04240
C3 C 0.4304(4) 0.8344(4) -0.00105(9)
H2 H 0.54270 0.82320 -0.01820
C4 C 0.3976(4) 0.7222(4) 0.03824(9)
H3 H 0.48760 0.63500 0.04800
C5 C 0.1898(4) 0.6290(4) 0.10587(9)
H4 H 0.27890 0.54190 0.11620
C6 C 0.0270(4) 0.6476(4) 0.13145(10)
H5 H 0.00710 0.57590 0.15930
C7 C -0.1106(4) 0.7748(4) 0.11576(9)
H6 H -0.22300 0.78530 0.13290
C8 C -0.0814(4) 0.8833(4) 0.07559(8)
H7 H -0.17440 0.96660 0.06550
C9 C 0.0902(4) 0.8710(3) 0.04881(8)
C10 C 0.2270(4) 0.7385(4) 0.06418(8)
C1F C -0.0137(3) 1.1286(3) -0.00839(8)
C2F C -0.0329(4) 1.2952(4) 0.01571(9)
H1F H 0.04360 1.32000 0.04240
C3F C -0.1656(4) 1.4304(4) 0.00105(9)
H2F H -0.17680 1.54270 0.01820
C4F C -0.2778(4) 1.3976(4) -0.03824(9)
H3F H -0.36500 1.48760 -0.04800
C5F C -0.3710(4) 1.1898(4) -0.10587(9)
H4F H -0.45810 1.27890 -0.11620
C6F C -0.3524(4) 1.0270(4) -0.13145(10)
H5F H -0.42410 1.00710 -0.15930
C7F C -0.2252(4) 0.8894(4) -0.11576(9)
H6F H -0.21470 0.77700 -0.13290
C8F C -0.1167(4) 0.9186(4) -0.07559(8)
H7F H -0.03340 0.82560 -0.06550
C9F C -0.1290(4) 1.0902(3) -0.04881(8)
C10F C -0.2615(4) 1.2270(4) -0.06418(8)
loop_
_geom_bond_atom_site_label_1
_geom_bond_atom_site_label_2
_geom_bond_distance
_geom_bond_site_symmetry_1
_geom_bond_site_symmetry_2
C1 C2 1.363 1_555 1_555
C2 H1 0.930 1_555 1_555
C3 C2 1.405 1_555 1_555
H2 C3 0.930 1_555 1_555
C4 C3 1.362 1_555 1_555
H3 C4 0.930 1_555 1_555
C5 H4 0.930 1_555 1_555
C6 C5 1.360 1_555 1_555
H5 C6 0.930 1_555 1_555
C7 C6 1.400 1_555 1_555
H6 C7 0.930 1_555 1_555
C8 C7 1.362 1_555 1_555
H7 C8 0.930 1_555 1_555
C9 C1 1.407 1_555 1_555
C10 C4 1.411 1_555 1_555
C1F C1 1.503 1_555 1_555
C2F C1F 1.363 1_555 1_555
H1F C2F 0.930 1_555 1_555
C3F C2F 1.405 1_555 1_555
H2F C3F 0.930 1_555 1_555
C4F C3F 1.362 1_555 1_555
H3F C4F 0.930 1_555 1_555
C5F H4F 0.930 1_555 1_555
C6F C5F 1.360 1_555 1_555
H5F C6F 0.930 1_555 1_555
C7F C6F 1.400 1_555 1_555
H6F C7F 0.930 1_555 1_555
C8F C7F 1.362 1_555 1_555
H7F C8F 0.930 1_555 1_555
C9F C1F 1.407 1_555 1_555
C10F C4F 1.411 1_555 1_555
C5 C10 1.410 1_555 1_555
C8 C9 1.427 1_555 1_555
C9 C10 1.418 1_555 1_555
C5F C10F 1.410 1_555 1_555
C8F C9F 1.427 1_555 1_555
C9F C10F 1.418 1_555 1_555
#END
