
#######################################################################
#
#                 Cambridge Crystallographic Data Centre
#                                CCDC
#
#######################################################################
#
# If this CIF has been generated from an entry in the Cambridge
# Structural Database, then it will include bibliographic, chemical,
# crystal, experimental, refinement or atomic coordinate data resulting
# from the CCDC's data processing and validation procedures.
#
#######################################################################

data_CSD_CIF_BOBNEN
_audit_creation_date 2014-05-09
_audit_creation_method CSD-ConQuest-V1
_database_code_CSD BOBNEN
_database_code_depnum_ccdc_archive 'CCDC 924099'
_chemical_formula_sum 'C24 H16'
_chemical_formula_moiety
;
C24 H16
;
_journal_coden_Cambridge 4
_journal_volume 135
_journal_year 2013
_journal_page_first 18815
_journal_name_full 'J.Am.Chem.Soc. '
loop_
_publ_author_name
"J.Carreras"
"G.Gopakumar"
"Liangu Gu"
"Ana Gimeno"
"P.Linowski"
"J.Petuskova"
"W.Thiel"
"M.Alcarazo"
_chemical_name_systematic
;
1-phenylbenzo[c]phenanthrene
;
_cell_volume   3161.719
_exptl_crystal_colour 'yellow'
_exptl_crystal_density_diffrn 1.279
_exptl_crystal_description 'prism'
_exptl_crystal_preparation 'methanol'
_diffrn_ambient_temperature 100
#These two values have been output from a single CSD field.
_refine_ls_R_factor_gt 0.0575
_refine_ls_wR_factor_gt 0.0575
_symmetry_cell_setting monoclinic
_symmetry_space_group_name_H-M 'C c'
_symmetry_Int_Tables_number 9
loop_
_symmetry_equiv_pos_site_id
_symmetry_equiv_pos_as_xyz
1 x,y,z
2 x,-y,1/2+z
3 1/2+x,1/2+y,z
4 1/2+x,1/2-y,1/2+z
_cell_length_a 15.4509(5)
_cell_length_b 10.9866(12)
_cell_length_c 19.235(3)
_cell_angle_alpha 90
_cell_angle_beta 104.463(8)
_cell_angle_gamma 90
_cell_formula_units_Z 8
loop_
_atom_type_symbol
_atom_type_radius_bond
C 0.68
H 0.23
loop_
_atom_site_label
_atom_site_type_symbol
_atom_site_fract_x
_atom_site_fract_y
_atom_site_fract_z
C1 C 0.44735(10) 0.69546(14) 0.67731(8)
C2 C 0.52917(10) 0.67261(16) 0.66150(9)
H1 H 0.54410 0.59280 0.65330
C3 C 0.58967(11) 0.76613(19) 0.65757(9)
H2 H 0.64150 0.74920 0.64310
C4 C 0.57179(12) 0.88247(17) 0.67527(9)
H3 H 0.61380 0.94360 0.67640
C5 C 0.49018(11) 0.91016(15) 0.69174(8)
C6 C 0.47757(13) 1.02790(15) 0.71996(9)
H4 H 0.52040 1.08810 0.72200
C7 C 0.40386(13) 1.05214(15) 0.74360(9)
H5 H 0.40110 1.12330 0.76910
C8 C 0.33038(12) 0.96949(15) 0.72971(8)
C9 C 0.24996(14) 1.00007(17) 0.75004(9)
H6 H 0.24870 1.06910 0.77780
C10 C 0.17578(13) 0.93043(17) 0.72959(10)
H7 H 0.12650 0.94660 0.74770
C11 C 0.17254(11) 0.83236(15) 0.68044(9)
C12 C 0.09053(12) 0.77527(19) 0.64756(11)
H8 H 0.03960 0.79460 0.66280
C13 C 0.08483(11) 0.69176(18) 0.59359(11)
H9 H 0.03050 0.65490 0.57250
C14 C 0.1618(1) 0.66214(16) 0.57032(9)
H10 H 0.15770 0.60760 0.53260
C15 C 0.24299(10) 0.71354(14) 0.60310(8)
H11 H 0.29320 0.69240 0.58740
C16 C 0.25184(10) 0.79795(14) 0.66025(8)
C17 C 0.3351(1) 0.85891(14) 0.69279(8)
C18 C 0.42214(10) 0.81941(13) 0.68568(8)
C19 C 0.39767(9) 0.58832(13) 0.69504(8)
C20 C 0.35987(10) 0.59085(14) 0.75414(8)
H12 H 0.36330 0.66180 0.78110
C21 C 0.31740(11) 0.48932(15) 0.77317(9)
H13 H 0.29230 0.49280 0.81230
C22 C 0.31235(11) 0.38211(15) 0.73351(9)
H14 H 0.28400 0.31390 0.74610
C23 C 0.34998(11) 0.37797(15) 0.67503(10)
H15 H 0.34680 0.30660 0.64850
C24 C 0.39223(10) 0.47959(14) 0.65592(9)
H16 H 0.41720 0.47550 0.61670
C25 C 0.4489(1) 0.52844(13) 0.45082(8)
C26 C 0.36893(10) 0.55068(15) 0.46906(8)
H17 H 0.35490 0.63020 0.47870
C27 C 0.30854(11) 0.45745(18) 0.47340(9)
H18 H 0.25800 0.47390 0.48980
C28 C 0.32485(11) 0.34129(17) 0.45307(9)
H19 H 0.28250 0.28050 0.45140
C29 C 0.40606(11) 0.31420(14) 0.43467(8)
C30 C 0.41658(12) 0.19754(15) 0.40466(9)
H20 H 0.37340 0.13770 0.40240
C31 C 0.48952(13) 0.17412(14) 0.37956(9)
H21 H 0.49150 0.10370 0.35320
C32 C 0.56346(11) 0.25661(14) 0.39327(8)
C33 C 0.64293(13) 0.22481(16) 0.37192(9)
H22 H 0.64280 0.15700 0.34300
C34 C 0.71830(12) 0.29206(16) 0.39329(10)
H23 H 0.76760 0.27430 0.37560
C35 C 0.72266(11) 0.39026(15) 0.44284(9)
C36 C 0.80576(12) 0.44612(18) 0.47540(11)
H24 H 0.85640 0.42540 0.46020
C37 C 0.81216(11) 0.53048(17) 0.52915(11)
H25 H 0.86660 0.56770 0.54960
C38 C 0.73597(11) 0.56036(16) 0.55319(9)
H26 H 0.74080 0.61470 0.59110
C39 C 0.65422(10) 0.50966(14) 0.52095(8)
H27 H 0.60440 0.53110 0.53720
C40 C 0.64425(10) 0.42599(13) 0.46383(8)
C41 C 0.56013(10) 0.36599(13) 0.43114(8)
C42 C 0.47332(9) 0.40521(13) 0.44054(7)
C43 C 0.49805(10) 0.63645(13) 0.43312(8)
C44 C 0.53191(10) 0.63703(14) 0.37195(8)
H28 H 0.52580 0.56830 0.34290
C45 C 0.57456(11) 0.73972(14) 0.35439(9)
H29 H 0.59760 0.73870 0.31410
C46 C 0.58315(11) 0.84432(16) 0.39668(10)
H30 H 0.61200 0.91270 0.38480
C47 C 0.54841(11) 0.84559(15) 0.45643(10)
H31 H 0.55330 0.91530 0.48450
C48 C 0.50619(11) 0.74270(14) 0.47449(8)
H32 H 0.48300 0.74450 0.51470
loop_
_geom_bond_atom_site_label_1
_geom_bond_atom_site_label_2
_geom_bond_distance
_geom_bond_site_symmetry_1
_geom_bond_site_symmetry_2
C1 C2 1.395 1_555 1_555
C2 H1 0.930 1_555 1_555
C3 C2 1.404 1_555 1_555
H2 C3 0.930 1_555 1_555
C4 C3 1.369 1_555 1_555
H3 C4 0.930 1_555 1_555
C5 C4 1.408 1_555 1_555
C6 C5 1.435 1_555 1_555
H4 C6 0.929 1_555 1_555
C7 C6 1.354 1_555 1_555
H5 C7 0.930 1_555 1_555
C8 C7 1.426 1_555 1_555
C9 C8 1.433 1_555 1_555
H6 C9 0.931 1_555 1_555
C10 C9 1.352 1_555 1_555
H7 C10 0.930 1_555 1_555
C11 C10 1.426 1_555 1_555
C12 C11 1.414 1_555 1_555
H8 C12 0.930 1_555 1_555
C13 C12 1.372 1_555 1_555
H9 C13 0.929 1_555 1_555
C14 C13 1.409 1_555 1_555
H10 C14 0.931 1_555 1_555
C15 C14 1.377 1_555 1_555
H11 C15 0.930 1_555 1_555
C16 C11 1.426 1_555 1_555
C17 C8 1.418 1_555 1_555
C18 C1 1.436 1_555 1_555
C19 C1 1.491 1_555 1_555
C20 C19 1.402 1_555 1_555
H12 C20 0.930 1_555 1_555
C21 C20 1.389 1_555 1_555
H13 C21 0.930 1_555 1_555
C22 C21 1.395 1_555 1_555
H14 C22 0.930 1_555 1_555
C23 C22 1.390 1_555 1_555
H15 C23 0.930 1_555 1_555
C24 C19 1.403 1_555 1_555
H16 C24 0.930 1_555 1_555
C25 C26 1.388 1_555 1_555
C26 H17 0.930 1_555 1_555
C27 C26 1.402 1_555 1_555
H18 C27 0.930 1_555 1_555
C28 C27 1.376 1_555 1_555
H19 C28 0.930 1_555 1_555
C29 C28 1.418 1_555 1_555
C30 C29 1.432 1_555 1_555
H20 C30 0.930 1_555 1_555
C31 C30 1.357 1_555 1_555
H21 C31 0.930 1_555 1_555
C32 C31 1.430 1_555 1_555
C33 C32 1.432 1_555 1_555
H22 C33 0.929 1_555 1_555
C34 C33 1.353 1_555 1_555
H23 C34 0.929 1_555 1_555
C35 C34 1.430 1_555 1_555
C36 C35 1.420 1_555 1_555
H24 C36 0.929 1_555 1_555
C37 C36 1.374 1_555 1_555
H25 C37 0.930 1_555 1_555
C38 C37 1.407 1_555 1_555
H26 C38 0.931 1_555 1_555
C39 C38 1.378 1_555 1_555
H27 C39 0.931 1_555 1_555
C40 C35 1.424 1_555 1_555
C41 C32 1.413 1_555 1_555
C42 C25 1.432 1_555 1_555
C43 C25 1.493 1_555 1_555
C44 C43 1.402 1_555 1_555
H28 C44 0.930 1_555 1_555
C45 C44 1.390 1_555 1_555
H29 C45 0.930 1_555 1_555
C46 C45 1.395 1_555 1_555
H30 C46 0.931 1_555 1_555
C47 C46 1.385 1_555 1_555
H31 C47 0.929 1_555 1_555
C48 C43 1.401 1_555 1_555
H32 C48 0.930 1_555 1_555
C5 C18 1.432 1_555 1_555
C15 C16 1.418 1_555 1_555
C16 C17 1.447 1_555 1_555
C17 C18 1.452 1_555 1_555
C23 C24 1.388 1_555 1_555
C29 C42 1.426 1_555 1_555
C39 C40 1.411 1_555 1_555
C40 C41 1.453 1_555 1_555
C41 C42 1.462 1_555 1_555
C47 C48 1.392 1_555 1_555
#END
