
#######################################################################
#
#                 Cambridge Crystallographic Data Centre
#                                CCDC
#
#######################################################################
#
# If this CIF has been generated from an entry in the Cambridge
# Structural Database, then it will include bibliographic, chemical,
# crystal, experimental, refinement or atomic coordinate data resulting
# from the CCDC's data processing and validation procedures.
#
#######################################################################

data_CSD_CIF_BOWSOX
_audit_creation_date 2015-03-06
_audit_creation_method CSD-ConQuest-V1
_database_code_CSD BOWSOX
_database_code_depnum_ccdc_archive 'CCDC 1027423'
_chemical_formula_sum 'C34 H20'
_chemical_formula_moiety
;
C34 H20
;
_journal_coden_Cambridge 1220
_journal_volume 21
_journal_year 2015
_journal_page_first 6523
_journal_name_full 'Chem.-Eur.J. '
loop_
_publ_author_name
"H.Kashihara"
"T.Asada"
"K.Kamikawa"
_chemical_name_systematic
;
phenanthro[9,10-i]pentahelicene
;
_cell_volume   2071.045
_exptl_crystal_density_diffrn 1.374
_exptl_crystal_description 'prism'
_diffrn_ambient_temperature 173
#These two values have been output from a single CSD field.
_refine_ls_R_factor_gt 0.0486
_refine_ls_wR_factor_gt 0.0486
_symmetry_cell_setting monoclinic
_symmetry_space_group_name_H-M 'P 21/n'
_symmetry_Int_Tables_number 14
loop_
_symmetry_equiv_pos_site_id
_symmetry_equiv_pos_as_xyz
1 x,y,z
2 1/2-x,1/2+y,1/2-z
3 -x,-y,-z
4 -1/2+x,-1/2-y,-1/2+z
_cell_length_a 11.2186(9)
_cell_length_b 8.6132(6)
_cell_length_c 21.8653(16)
_cell_angle_alpha 90
_cell_angle_beta 101.410(3)
_cell_angle_gamma 90
_cell_formula_units_Z 4
loop_
_atom_type_symbol
_atom_type_radius_bond
C 0.68
H 0.23
loop_
_atom_site_label
_atom_site_type_symbol
_atom_site_fract_x
_atom_site_fract_y
_atom_site_fract_z
C1 C 0.58632(13) 0.18482(16) 0.74718(6)
C2 C 0.89278(13) 0.29705(17) 0.54316(6)
C3 C 0.69405(12) 0.23050(16) 0.72487(6)
C4 C 0.89600(13) 0.19609(16) 0.66752(6)
C5 C 0.59008(13) 0.10728(17) 0.80473(7)
H1 H 0.6704(15) 0.085(2) 0.8308(7)
C6 C 0.91292(13) 0.19497(16) 0.73501(6)
C7 C 0.47045(13) 0.20373(18) 0.70809(7)
C8 C 0.81514(13) 0.23163(16) 0.76379(6)
C9 C 1.05228(14) 0.20380(19) 0.83542(7)
H2 H 1.1391(18) 0.194(2) 0.8628(8)
C10 C 1.07712(14) 0.13231(19) 0.54200(7)
H3 H 1.0812(16) 0.174(2) 0.4987(8)
C11 C 0.78161(15) 0.40132(18) 0.91825(7)
H4 H 0.7206(15) 0.463(2) 0.9358(7)
C12 C 0.89507(15) 0.36599(18) 0.48471(7)
H5 H 0.9596(17) 0.339(2) 0.4610(8)
C13 C 0.83987(13) 0.27736(16) 0.82867(6)
C14 C 0.79226(13) 0.26759(16) 0.63420(6)
C15 C 0.75483(14) 0.35732(17) 0.85693(7)
H6 H 0.6759(16) 0.386(2) 0.8310(8)
C16 C 0.79665(13) 0.33594(17) 0.57363(6)
C17 C 0.81055(15) 0.47443(19) 0.45898(7)
H7 H 0.8161(15) 0.519(2) 0.4174(8)
C18 C 1.14747(15) -0.04435(19) 0.62549(8)
C19 C 0.98595(13) 0.18855(17) 0.57253(6)
C20 C 0.68406(13) 0.26541(16) 0.66118(6)
C21 C 1.03226(14) 0.18237(19) 0.77305(7)
H8 H 1.1015(17) 0.157(2) 0.7529(8)
C22 C 0.89618(15) 0.36744(18) 0.95525(7)
H9 H 0.9171(16) 0.404(2) 0.9996(8)
C23 C 0.98264(15) 0.29829(19) 0.92899(7)
C24 C 1.15788(15) 0.0204(2) 0.56861(8)
H10 H 1.2150(17) -0.018(2) 0.5447(8)
C25 C 1.06293(14) 0.01113(18) 0.65749(7)
H11 H 1.0529(14) -0.039(2) 0.6974(7)
C26 C 0.56571(14) 0.27266(19) 0.62230(7)
H12 H 0.5635(15) 0.290(2) 0.5774(8)
C27 C 0.98474(13) 0.13492(17) 0.63357(6)
C28 C 0.72244(15) 0.52294(19) 0.49185(7)
C29 C 0.36413(14) 0.1629(2) 0.73006(7)
H13 H 0.2802(17) 0.181(2) 0.7000(8)
C30 C 0.95836(14) 0.25566(17) 0.86507(7)
C31 C 0.48634(14) 0.06369(18) 0.82393(7)
C32 C 0.46379(14) 0.24988(19) 0.64543(7)
H14 H 0.3782(17) 0.260(2) 0.6179(8)
C33 C 0.71587(15) 0.45499(18) 0.54784(7)
H15 H 0.6571(18) 0.491(2) 0.5691(8)
C34 C 0.37168(15) 0.0944(2) 0.78696(7)
H16 H 1.0674(15) 0.280(2) 0.9535(7)
H17 H 0.4948(17) 0.009(2) 0.8648(8)
H18 H 1.2004(17) -0.127(2) 0.6439(8)
H19 H 0.2981(18) 0.061(2) 0.8014(8)
H20 H 0.6648(17) 0.614(2) 0.4752(8)
loop_
_geom_bond_atom_site_label_1
_geom_bond_atom_site_label_2
_geom_bond_distance
_geom_bond_site_symmetry_1
_geom_bond_site_symmetry_2
C1 C3 1.445 1_555 1_555
C2 C12 1.414 1_555 1_555
C3 C8 1.453 1_555 1_555
C4 C6 1.450 1_555 1_555
C5 C1 1.418 1_555 1_555
H1 C5 0.985 1_555 1_555
C6 C8 1.404 1_555 1_555
C7 C1 1.417 1_555 1_555
C8 C13 1.445 1_555 1_555
C9 H2 1.041 1_555 1_555
C10 H3 1.022 1_555 1_555
C11 H4 1.001 1_555 1_555
C12 H5 0.998 1_555 1_555
C13 C15 1.414 1_555 1_555
C14 C4 1.389 1_555 1_555
C15 C11 1.368 1_555 1_555
H6 C15 0.984 1_555 1_555
C16 C2 1.415 1_555 1_555
C17 C12 1.370 1_555 1_555
H7 C17 1.000 1_555 1_555
C18 C24 1.389 1_555 1_555
C19 C2 1.454 1_555 1_555
C20 C3 1.407 1_555 1_555
C21 C6 1.434 1_555 1_555
H8 C21 0.990 1_555 1_555
C22 C11 1.407 1_555 1_555
H9 C22 1.002 1_555 1_555
C23 C22 1.359 1_555 1_555
C24 C10 1.371 1_555 1_555
H10 C24 0.962 1_555 1_555
C25 C18 1.371 1_555 1_555
H11 C25 1.000 1_555 1_555
C26 C20 1.429 1_555 1_555
H12 C26 0.988 1_555 1_555
C27 C4 1.453 1_555 1_555
C28 C17 1.396 1_555 1_555
C29 C7 1.416 1_555 1_555
H13 C29 1.048 1_555 1_555
C30 C9 1.414 1_555 1_555
C31 C5 1.366 1_555 1_555
C32 C7 1.414 1_555 1_555
H14 C32 1.031 1_555 1_555
C33 C16 1.410 1_555 1_555
H15 C33 0.932 1_555 1_555
C34 C29 1.364 1_555 1_555
H16 C23 1.007 1_555 1_555
H17 C31 0.998 1_555 1_555
H18 C18 0.963 1_555 1_555
H19 C34 0.983 1_555 1_555
H20 C28 1.036 1_555 1_555
C9 C21 1.350 1_555 1_555
C10 C19 1.413 1_555 1_555
C13 C30 1.420 1_555 1_555
C14 C16 1.459 1_555 1_555
C14 C20 1.451 1_555 1_555
C19 C27 1.415 1_555 1_555
C23 C30 1.418 1_555 1_555
C25 C27 1.414 1_555 1_555
C26 C32 1.353 1_555 1_555
C28 C33 1.372 1_555 1_555
C31 C34 1.402 1_555 1_555
#END
