
#######################################################################
#
#                 Cambridge Crystallographic Data Centre
#                                CCDC
#
#######################################################################
#
# If this CIF has been generated from an entry in the Cambridge
# Structural Database, then it will include bibliographic, chemical,
# crystal, experimental, refinement or atomic coordinate data resulting
# from the CCDC's data processing and validation procedures.
#
#######################################################################

data_CSD_CIF_BOWTAK
_audit_creation_date 2015-03-06
_audit_creation_method CSD-ConQuest-V1
_database_code_CSD BOWTAK
_database_code_depnum_ccdc_archive 'CCDC 1041229'
_chemical_formula_sum 'C56 H42'
_chemical_formula_moiety
;
C56 H42
;
_journal_coden_Cambridge 1220
_journal_volume 21
_journal_year 2015
_journal_page_first 6193
_journal_name_full 'Chem.-Eur.J. '
loop_
_publ_author_name
"M.Rajeswara Rao"
"A.Desmecht"
"D.F.Perepichka"
_chemical_name_systematic
;
1,1,9,9-tetrakis(4-methylphenyl)-1,9-dihydrodiindeno[1,2-a:1',2'-h]anthracene
;
_cell_volume    925.369
_exptl_crystal_colour 'yellow'
_exptl_crystal_density_diffrn 1.283
_exptl_crystal_description 'block'
_diffrn_ambient_temperature 100
#These two values have been output from a single CSD field.
_refine_ls_R_factor_gt 0.0462
_refine_ls_wR_factor_gt 0.0462
_symmetry_cell_setting triclinic
_symmetry_space_group_name_H-M 'P -1'
_symmetry_Int_Tables_number 2
loop_
_symmetry_equiv_pos_site_id
_symmetry_equiv_pos_as_xyz
1 x,y,z
2 -x,-y,-z
_cell_length_a 6.6302(2)
_cell_length_b 10.8650(3)
_cell_length_c 13.2296(4)
_cell_angle_alpha 86.9585(19)
_cell_angle_beta 87.1522(19)
_cell_angle_gamma 76.6745(19)
_cell_formula_units_Z 1
loop_
_atom_type_symbol
_atom_type_radius_bond
C 0.68
H 0.23
loop_
_atom_site_label
_atom_site_type_symbol
_atom_site_fract_x
_atom_site_fract_y
_atom_site_fract_z
C1 C 0.7015(2) 0.69290(13) 0.24036(10)
C2 C 0.8215(2) 0.79080(13) 0.20046(10)
C3 C 0.9709(2) 0.83388(14) 0.25262(10)
H1 H 1.00130 0.80430 0.32030
C4 C 1.0713(2) 0.91833(14) 0.20512(10)
H2 H 1.16850 0.94940 0.24090
C5 C 1.0325(2) 0.96089(13) 0.10226(10)
C6 C 0.8819(2) 0.91681(13) 0.04822(10)
C7 C 0.8549(2) 0.95783(13) -0.05347(10)
H3 H 0.75660 0.92930 -0.09050
C8 C 0.7723(2) 0.83178(13) 0.1020(1)
C9 C 0.6089(2) 0.77188(13) 0.07081(10)
C10 C 0.4975(2) 0.78355(14) -0.01756(10)
H4 H 0.52350 0.83900 -0.07210
C11 C 0.3488(2) 0.71356(14) -0.02506(11)
H5 H 0.27440 0.72060 -0.08540
C12 C 0.3071(2) 0.63309(15) 0.05472(11)
H6 H 0.20510 0.58560 0.04840
C13 C 0.4146(2) 0.62208(14) 0.14364(10)
H7 H 0.38530 0.56810 0.19860
C14 C 0.5645(2) 0.69059(13) 0.15106(10)
C15 C 0.8609(2) 0.56682(14) 0.25753(10)
C16 C 0.9131(2) 0.47896(14) 0.18225(11)
H8 H 0.83940 0.49320 0.12140
C17 C 1.0707(3) 0.37097(15) 0.19446(11)
H9 H 1.10340 0.31290 0.14160
C18 C 1.1819(2) 0.34610(15) 0.28274(11)
C19 C 1.1293(2) 0.43340(15) 0.35843(11)
H10 H 1.20230 0.41860 0.41950
C20 C 0.9723(2) 0.54159(14) 0.34637(10)
H11 H 0.93980 0.59960 0.39930
C21 C 1.3531(3) 0.22928(17) 0.29563(13)
H12 H 1.31050 0.15680 0.26950
H13 H 1.38180 0.21290 0.36770
H14 H 1.47850 0.24190 0.25820
C22 C 0.5649(2) 0.73251(14) 0.33541(10)
C23 C 0.4779(2) 0.64420(14) 0.39227(11)
H15 H 0.51370 0.55790 0.37510
C24 C 0.3399(2) 0.68069(15) 0.47354(11)
H16 H 0.28300 0.61890 0.51100
C25 C 0.2838(2) 0.80629(16) 0.50093(11)
C26 C 0.3711(2) 0.89396(15) 0.44482(11)
H17 H 0.33540 0.98020 0.46220
C27 C 0.5103(2) 0.85758(14) 0.36339(10)
H18 H 0.56860 0.91930 0.32650
C28 C 0.1321(3) 0.84650(19) 0.58816(14)
H19 H 0.14140 0.93040 0.60840
H20 H 0.16520 0.78540 0.64550
H21 H -0.00890 0.84990 0.56740
C1A C 1.2985(2) 1.30710(13) -0.24036(10)
C2A C 1.1785(2) 1.20920(13) -0.20046(10)
C3A C 1.0291(2) 1.16612(14) -0.25262(10)
H1A H 0.99870 1.19570 -0.32030
C4A C 0.9287(2) 1.08167(14) -0.20512(10)
H2A H 0.83150 1.05060 -0.24090
C5A C 0.9675(2) 1.03911(13) -0.10226(10)
C6A C 1.1181(2) 1.08319(13) -0.04822(10)
C7A C 1.1451(2) 1.04217(13) 0.05347(10)
H3A H 1.24340 1.07070 0.09050
C8A C 1.2277(2) 1.16822(13) -0.1020(1)
C9A C 1.3911(2) 1.22812(13) -0.07081(10)
C10A C 1.5025(2) 1.21645(14) 0.01756(10)
H4A H 1.47650 1.16100 0.07210
C11A C 1.6512(2) 1.28644(14) 0.02506(11)
H5A H 1.72560 1.27940 0.08540
C12A C 1.6929(2) 1.36691(15) -0.05472(11)
H6A H 1.79490 1.41440 -0.04840
C13A C 1.5854(2) 1.37792(14) -0.14364(10)
H7A H 1.61470 1.43190 -0.19860
C14A C 1.4355(2) 1.30941(13) -0.15106(10)
C15A C 1.1391(2) 1.43318(14) -0.25753(10)
C16A C 1.0869(2) 1.52104(14) -0.18225(11)
H8A H 1.16060 1.50680 -0.12140
C17A C 0.9293(3) 1.62903(15) -0.19446(11)
H9A H 0.89660 1.68710 -0.14160
C18A C 0.8181(2) 1.65390(15) -0.28274(11)
C19A C 0.8707(2) 1.56660(15) -0.35843(11)
H10A H 0.79770 1.58140 -0.41950
C20A C 1.0277(2) 1.45841(14) -0.34637(10)
H11A H 1.06020 1.40040 -0.39930
C21A C 0.6469(3) 1.77072(17) -0.29563(13)
H12A H 0.68950 1.84320 -0.26950
H13A H 0.61820 1.78710 -0.36770
H14A H 0.52150 1.75810 -0.25820
C22A C 1.4351(2) 1.26749(14) -0.33541(10)
C23A C 1.5221(2) 1.35580(14) -0.39227(11)
H15A H 1.48630 1.44210 -0.37510
C24A C 1.6601(2) 1.31931(15) -0.47354(11)
H16A H 1.71700 1.38110 -0.51100
C25A C 1.7162(2) 1.19371(16) -0.50093(11)
C26A C 1.6289(2) 1.10604(15) -0.44482(11)
H17A H 1.66460 1.01980 -0.46220
C27A C 1.4897(2) 1.14242(14) -0.36339(10)
H18A H 1.43140 1.08070 -0.32650
C28A C 1.8679(3) 1.15350(19) -0.58816(14)
H19A H 1.85860 1.06960 -0.60840
H20A H 1.83480 1.21460 -0.64550
H21A H 2.00890 1.15010 -0.56740
loop_
_geom_bond_atom_site_label_1
_geom_bond_atom_site_label_2
_geom_bond_distance
_geom_bond_site_symmetry_1
_geom_bond_site_symmetry_2
C1 C2 1.527 1_555 1_555
C2 C3 1.412 1_555 1_555
C3 H1 0.950 1_555 1_555
C4 C3 1.363 1_555 1_555
H2 C4 0.949 1_555 1_555
C5 C4 1.430 1_555 1_555
C6 C5 1.437 1_555 1_555
C7 C6 1.401 1_555 1_555
H3 C7 0.950 1_555 1_555
C8 C2 1.384 1_555 1_555
C9 C8 1.472 1_555 1_555
C10 C9 1.398 1_555 1_555
H4 C10 0.950 1_555 1_555
C11 C10 1.387 1_555 1_555
H5 C11 0.950 1_555 1_555
C12 C11 1.393 1_555 1_555
H6 C12 0.950 1_555 1_555
C13 C12 1.391 1_555 1_555
H7 C13 0.951 1_555 1_555
C14 C1 1.530 1_555 1_555
C15 C1 1.539 1_555 1_555
C16 C15 1.392 1_555 1_555
H8 C16 0.950 1_555 1_555
C17 C16 1.388 1_555 1_555
H9 C17 0.950 1_555 1_555
C18 C17 1.393 1_555 1_555
C19 C18 1.392 1_555 1_555
H10 C19 0.950 1_555 1_555
C20 C15 1.400 1_555 1_555
H11 C20 0.950 1_555 1_555
C21 C18 1.504 1_555 1_555
H12 C21 0.980 1_555 1_555
H13 C21 0.980 1_555 1_555
H14 C21 0.980 1_555 1_555
C22 C1 1.533 1_555 1_555
C23 C22 1.398 1_555 1_555
H15 C23 0.950 1_555 1_555
C24 C23 1.389 1_555 1_555
H16 C24 0.949 1_555 1_555
C25 C24 1.392 1_555 1_555
C26 C25 1.389 1_555 1_555
H17 C26 0.950 1_555 1_555
C27 C22 1.389 1_555 1_555
H18 C27 0.950 1_555 1_555
C28 C25 1.507 1_555 1_555
H19 C28 0.980 1_555 1_555
H20 C28 0.980 1_555 1_555
H21 C28 0.979 1_555 1_555
C1A C2A 1.527 1_555 1_555
C2A C3A 1.412 1_555 1_555
C3A H1A 0.950 1_555 1_555
C4A C3A 1.363 1_555 1_555
H2A C4A 0.949 1_555 1_555
C5A C7 1.396 1_555 1_555
C6A C5A 1.437 1_555 1_555
C7A C5 1.396 1_555 1_555
H3A C7A 0.950 1_555 1_555
C8A C2A 1.384 1_555 1_555
C9A C8A 1.472 1_555 1_555
C10A C9A 1.398 1_555 1_555
H4A C10A 0.950 1_555 1_555
C11A C10A 1.387 1_555 1_555
H5A C11A 0.950 1_555 1_555
C12A C11A 1.393 1_555 1_555
H6A C12A 0.950 1_555 1_555
C13A C12A 1.391 1_555 1_555
H7A C13A 0.951 1_555 1_555
C14A C1A 1.530 1_555 1_555
C15A C1A 1.539 1_555 1_555
C16A C15A 1.392 1_555 1_555
H8A C16A 0.950 1_555 1_555
C17A C16A 1.388 1_555 1_555
H9A C17A 0.950 1_555 1_555
C18A C17A 1.393 1_555 1_555
C19A C18A 1.392 1_555 1_555
H10A C19A 0.950 1_555 1_555
C20A C15A 1.400 1_555 1_555
H11A C20A 0.950 1_555 1_555
C21A C18A 1.504 1_555 1_555
H12A C21A 0.980 1_555 1_555
H13A C21A 0.980 1_555 1_555
H14A C21A 0.980 1_555 1_555
C22A C1A 1.533 1_555 1_555
C23A C22A 1.398 1_555 1_555
H15A C23A 0.950 1_555 1_555
C24A C23A 1.389 1_555 1_555
H16A C24A 0.949 1_555 1_555
C25A C24A 1.392 1_555 1_555
C26A C25A 1.389 1_555 1_555
H17A C26A 0.950 1_555 1_555
C27A C22A 1.389 1_555 1_555
H18A C27A 0.950 1_555 1_555
C28A C25A 1.507 1_555 1_555
H19A C28A 0.980 1_555 1_555
H20A C28A 0.980 1_555 1_555
H21A C28A 0.979 1_555 1_555
C6 C8 1.441 1_555 1_555
C9 C14 1.408 1_555 1_555
C13 C14 1.382 1_555 1_555
C19 C20 1.387 1_555 1_555
C26 C27 1.395 1_555 1_555
C4A C5A 1.430 1_555 1_555
C6A C7A 1.401 1_555 1_555
C6A C8A 1.441 1_555 1_555
C9A C14A 1.408 1_555 1_555
C13A C14A 1.382 1_555 1_555
C19A C20A 1.387 1_555 1_555
C26A C27A 1.395 1_555 1_555
#END
