
#######################################################################
#
#                 Cambridge Crystallographic Data Centre
#                                CCDC
#
#######################################################################
#
# If this CIF has been generated from an entry in the Cambridge
# Structural Database, then it will include bibliographic, chemical,
# crystal, experimental, refinement or atomic coordinate data resulting
# from the CCDC's data processing and validation procedures.
#
#######################################################################

data_CSD_CIF_BOWTEO
_audit_creation_date 2015-03-06
_audit_creation_method CSD-ConQuest-V1
_database_code_CSD BOWTEO
_database_code_depnum_ccdc_archive 'CCDC 1041230'
_chemical_formula_sum 'C52 H40'
_chemical_formula_moiety
;
C52 H40
;
_journal_coden_Cambridge 1220
_journal_volume 21
_journal_year 2015
_journal_page_first 6193
_journal_name_full 'Chem.-Eur.J. '
loop_
_publ_author_name
"M.Rajeswara Rao"
"A.Desmecht"
"D.F.Perepichka"
_chemical_name_systematic
;
7,7,14,14-tetrakis(4-methylphenyl)-7,14-dihydrodibenzo[c,pqr]tetraphene
;
_cell_volume    879.970
_exptl_crystal_colour 'colorless'
_exptl_crystal_density_diffrn 1.255
_exptl_crystal_description 'needle'
_diffrn_ambient_temperature 100
#These two values have been output from a single CSD field.
_refine_ls_R_factor_gt 0.0405
_refine_ls_wR_factor_gt 0.0405
_symmetry_cell_setting triclinic
_symmetry_space_group_name_H-M 'P -1'
_symmetry_Int_Tables_number 2
loop_
_symmetry_equiv_pos_site_id
_symmetry_equiv_pos_as_xyz
1 x,y,z
2 -x,-y,-z
_cell_length_a 9.2298(3)
_cell_length_b 9.9650(3)
_cell_length_c 10.3638(3)
_cell_angle_alpha 89.5556(14)
_cell_angle_beta 67.4893(13)
_cell_angle_gamma 87.8978(14)
_cell_formula_units_Z 1
loop_
_atom_type_symbol
_atom_type_radius_bond
C 0.68
H 0.23
loop_
_atom_site_label
_atom_site_type_symbol
_atom_site_fract_x
_atom_site_fract_y
_atom_site_fract_z
C1 C 0.69782(12) 0.69712(11) 0.61537(11)
C2 C 0.79032(12) 0.56254(11) 0.59174(10)
C3 C 0.71653(12) 0.44193(11) 0.61183(11)
H1 H 0.60650 0.44050 0.66340
C4 C 0.80036(13) 0.32115(11) 0.55777(11)
H2 H 0.74590 0.23970 0.57380
C5 C 0.96018(13) 0.31824(11) 0.48192(11)
C6 C 1.04279(12) 0.43856(10) 0.47261(10)
C7 C 1.04758(13) 0.19993(11) 0.39994(11)
C8 C 0.96837(13) 0.09605(11) 0.36772(11)
H3 H 0.85710 0.10170 0.40080
C9 C 1.04812(14) -0.01435(12) 0.28908(12)
H4 H 0.99200 -0.08460 0.27030
C10 C 1.21109(14) -0.02158(11) 0.23771(11)
H5 H 1.26700 -0.09730 0.18420
C11 C 1.29187(13) 0.08220(11) 0.26479(11)
H6 H 1.40330 0.07760 0.22750
C12 C 1.21252(13) 0.19348(11) 0.34593(10)
C13 C 0.53471(13) 0.68366(11) 0.73254(11)
C14 C 0.39472(13) 0.70076(11) 0.71298(12)
H7 H 0.39680 0.72040 0.62240
C15 C 0.25046(14) 0.68945(12) 0.82493(13)
H8 H 0.15600 0.70140 0.80910
C16 C 0.24262(14) 0.66103(12) 0.95890(12)
C17 C 0.38392(14) 0.64280(12) 0.97791(12)
H9 H 0.38200 0.62290 1.06830
C18 C 0.52686(14) 0.65323(11) 0.86695(12)
H10 H 0.62130 0.63950 0.88250
C19 C 0.08763(16) 0.64776(15) 1.08028(14)
H11 H 0.05160 0.55620 1.08250
H12 H 0.00990 0.71170 1.06940
H13 H 0.10080 0.66680 1.16770
C20 C 0.68428(12) 0.73815(11) 0.47494(11)
C21 C 0.65863(13) 0.87232(11) 0.44851(11)
H14 H 0.64610 0.93810 0.51820
C22 C 0.65100(13) 0.91197(12) 0.32235(12)
H15 H 0.63450 1.00440 0.30700
C23 C 0.66708(13) 0.81865(12) 0.21805(11)
C24 C 0.68637(13) 0.68405(12) 0.24639(11)
H16 H 0.69330 0.61790 0.17850
C25 C 0.69570(13) 0.64407(11) 0.37204(11)
H17 H 0.71000 0.55140 0.38800
C26 C 0.66800(16) 0.86374(14) 0.07859(12)
H18 H 0.56790 0.84310 0.07230
H19 H 0.75410 0.81670 0.00360
H20 H 0.68260 0.96080 0.06920
C1A C 1.30218(12) 0.30288(11) 0.38463(11)
C2A C 1.20968(12) 0.43746(11) 0.40826(10)
C3A C 1.28347(12) 0.55807(11) 0.38817(11)
H1A H 1.39350 0.55950 0.33660
C4A C 1.19964(13) 0.67885(11) 0.44223(11)
H2A H 1.25410 0.76030 0.42620
C5A C 1.03982(13) 0.68176(11) 0.51808(11)
C6A C 0.95721(12) 0.56144(10) 0.52739(10)
C7A C 0.95242(13) 0.80007(11) 0.60006(11)
C8A C 1.03163(13) 0.90395(11) 0.63228(11)
H3A H 1.14290 0.89830 0.59920
C9A C 0.95188(14) 1.01435(12) 0.71092(12)
H4A H 1.00800 1.08460 0.72970
C10A C 0.78891(14) 1.02158(11) 0.76229(11)
H5A H 0.73300 1.09730 0.81580
C11A C 0.70813(13) 0.91780(11) 0.73521(11)
H6A H 0.59670 0.92240 0.77250
C12A C 0.78748(13) 0.80652(11) 0.65407(10)
C13A C 1.46529(13) 0.31634(11) 0.26746(11)
C14A C 1.60528(13) 0.29924(11) 0.28702(12)
H7A H 1.60320 0.27960 0.37760
C15A C 1.74954(14) 0.31055(12) 0.17507(13)
H8A H 1.84400 0.29860 0.19090
C16A C 1.75738(14) 0.33897(12) 0.04110(12)
C17A C 1.61608(14) 0.35720(12) 0.02209(12)
H9A H 1.61800 0.37710 -0.06830
C18A C 1.47314(14) 0.34677(11) 0.13305(12)
H10A H 1.37870 0.36050 0.11750
C19A C 1.91237(16) 0.35224(15) -0.08028(14)
H11A H 1.94840 0.44380 -0.08250
H12A H 1.99010 0.28830 -0.06940
H13A H 1.89920 0.33320 -0.16770
C20A C 1.31572(12) 0.26185(11) 0.52506(11)
C21A C 1.34137(13) 0.12768(11) 0.55149(11)
H14A H 1.35390 0.06190 0.48180
C22A C 1.34900(13) 0.08803(12) 0.67765(12)
H15A H 1.36550 -0.00440 0.69300
C23A C 1.33292(13) 0.18135(12) 0.78195(11)
C24A C 1.31363(13) 0.31595(12) 0.75361(11)
H16A H 1.30670 0.38210 0.82150
C25A C 1.30430(13) 0.35593(11) 0.62796(11)
H17A H 1.29000 0.44860 0.61200
C26A C 1.33200(16) 0.13626(14) 0.92141(12)
H18A H 1.43210 0.15690 0.92770
H19A H 1.24590 0.18330 0.99640
H20A H 1.31740 0.03920 0.93080
loop_
_geom_bond_atom_site_label_1
_geom_bond_atom_site_label_2
_geom_bond_distance
_geom_bond_site_symmetry_1
_geom_bond_site_symmetry_2
C1 C2 1.532 1_555 1_555
C2 C3 1.378 1_555 1_555
C3 H1 0.950 1_555 1_555
C4 C3 1.404 1_555 1_555
H2 C4 0.950 1_555 1_555
C5 C4 1.380 1_555 1_555
C6 C5 1.427 1_555 1_555
C7 C5 1.478 1_555 1_555
C8 C7 1.402 1_555 1_555
H3 C8 0.950 1_555 1_555
C9 C8 1.383 1_555 1_555
H4 C9 0.950 1_555 1_555
C10 C9 1.389 1_555 1_555
H5 C10 0.950 1_555 1_555
C11 C10 1.388 1_555 1_555
H6 C11 0.950 1_555 1_555
C12 C7 1.406 1_555 1_555
C13 C1 1.540 1_555 1_555
C14 C13 1.387 1_555 1_555
H7 C14 0.951 1_555 1_555
C15 C14 1.399 1_555 1_555
H8 C15 0.950 1_555 1_555
C16 C15 1.390 1_555 1_555
C17 C16 1.397 1_555 1_555
H9 C17 0.950 1_555 1_555
C18 C13 1.398 1_555 1_555
H10 C18 0.950 1_555 1_555
C19 C16 1.510 1_555 1_555
H11 C19 0.980 1_555 1_555
H12 C19 0.980 1_555 1_555
H13 C19 0.980 1_555 1_555
C20 C1 1.558 1_555 1_555
C21 C20 1.393 1_555 1_555
H14 C21 0.950 1_555 1_555
C22 C21 1.390 1_555 1_555
H15 C22 0.950 1_555 1_555
C23 C22 1.392 1_555 1_555
C24 C23 1.390 1_555 1_555
H16 C24 0.950 1_555 1_555
C25 C20 1.396 1_555 1_555
H17 C25 0.950 1_555 1_555
C26 C23 1.507 1_555 1_555
H18 C26 0.980 1_555 1_555
H19 C26 0.980 1_555 1_555
H20 C26 0.980 1_555 1_555
C1A C12 1.537 1_555 1_555
C2A C6 1.425 1_555 1_555
C3A C2A 1.378 1_555 1_555
H1A C3A 0.950 1_555 1_555
C4A C3A 1.404 1_555 1_555
H2A C4A 0.950 1_555 1_555
C5A C4A 1.380 1_555 1_555
C6A C2 1.425 1_555 1_555
C7A C5A 1.478 1_555 1_555
C8A C7A 1.402 1_555 1_555
H3A C8A 0.950 1_555 1_555
C9A C8A 1.383 1_555 1_555
H4A C9A 0.950 1_555 1_555
C10A C9A 1.389 1_555 1_555
H5A C10A 0.950 1_555 1_555
C11A C10A 1.388 1_555 1_555
H6A C11A 0.950 1_555 1_555
C12A C1 1.537 1_555 1_555
C13A C1A 1.540 1_555 1_555
C14A C13A 1.387 1_555 1_555
H7A C14A 0.951 1_555 1_555
C15A C14A 1.399 1_555 1_555
H8A C15A 0.950 1_555 1_555
C16A C15A 1.390 1_555 1_555
C17A C16A 1.397 1_555 1_555
H9A C17A 0.950 1_555 1_555
C18A C13A 1.398 1_555 1_555
H10A C18A 0.950 1_555 1_555
C19A C16A 1.510 1_555 1_555
H11A C19A 0.980 1_555 1_555
H12A C19A 0.980 1_555 1_555
H13A C19A 0.980 1_555 1_555
C20A C1A 1.558 1_555 1_555
C21A C20A 1.393 1_555 1_555
H14A C21A 0.950 1_555 1_555
C22A C21A 1.390 1_555 1_555
H15A C22A 0.950 1_555 1_555
C23A C22A 1.392 1_555 1_555
C24A C23A 1.390 1_555 1_555
H16A C24A 0.950 1_555 1_555
C25A C20A 1.396 1_555 1_555
H17A C25A 0.950 1_555 1_555
C26A C23A 1.507 1_555 1_555
H18A C26A 0.980 1_555 1_555
H19A C26A 0.980 1_555 1_555
H20A C26A 0.980 1_555 1_555
C6 C6A 1.429 1_555 1_555
C11 C12 1.399 1_555 1_555
C17 C18 1.386 1_555 1_555
C24 C25 1.392 1_555 1_555
C1A C2A 1.532 1_555 1_555
C5A C6A 1.427 1_555 1_555
C7A C12A 1.406 1_555 1_555
C11A C12A 1.399 1_555 1_555
C17A C18A 1.386 1_555 1_555
C24A C25A 1.392 1_555 1_555
#END
