
#######################################################################
#
#                 Cambridge Crystallographic Data Centre
#                                CCDC
#
#######################################################################
#
# If this CIF has been generated from an entry in the Cambridge
# Structural Database, then it will include bibliographic, chemical,
# crystal, experimental, refinement or atomic coordinate data resulting
# from the CCDC's data processing and validation procedures.
#
#######################################################################

data_CSD_CIF_BOXGAW
_audit_creation_date 1983-10-06
_audit_creation_method CSD-ConQuest-V1
_database_code_CSD BOXGAW
_database_code_depnum_ccdc_archive 'CCDC 1114590'
_chemical_formula_sum 'C38 H18'
_chemical_formula_moiety
;
C38 H18
;
_journal_coden_Cambridge 7
_journal_volume 55
_journal_year 1982
_journal_page_first 3424
_journal_name_full 'Bull.Chem.Soc.Jpn. '
loop_
_publ_author_name
"S.Fujisawa"
"I.Oonishi"
"J.Aoki"
"Y.Ohashi"
"Y.Sasada"
_chemical_name_systematic
;
Anthra(2,1,9,8-hijkl)benzo(de)naphtho(2,1,8,7-stuv)pentacene
;
_chemical_melting_point 635.15
_cell_volume   2118.718
_exptl_crystal_density_diffrn 1.488
_diffrn_ambient_temperature ?
_diffrn_special_details
;
The study was carried out at room temperature,in the range 283-303K

;
#These two values have been output from a single CSD field.
_refine_ls_R_factor_gt 0.073
_refine_ls_wR_factor_gt 0.073
loop_
_citation_database_id_CSD
_citation_special_details
BOXGAW01 "is a reinterpretation of this cif"
_symmetry_cell_setting monoclinic
_symmetry_space_group_name_H-M 'P a'
_symmetry_Int_Tables_number 7
loop_
_symmetry_equiv_pos_site_id
_symmetry_equiv_pos_as_xyz
1 x,y,z
2 1/2+x,1/2-y,z
_cell_length_a 31.276(4)
_cell_length_b 3.7818(4)
_cell_length_c 21.663(3)
_cell_angle_alpha 90
_cell_angle_beta 124.22(1)
_cell_angle_gamma 90
_cell_formula_units_Z 4
loop_
_atom_type_symbol
_atom_type_radius_bond
C 0.68
H 0.23
loop_
_atom_site_label
_atom_site_type_symbol
_atom_site_fract_x
_atom_site_fract_y
_atom_site_fract_z
C1 C -0.02810 0.14400 0.30900
C2 C -0.04820 0.13380 0.35300
C3 C -0.01820 0.25240 0.42730
C4 C 0.03200 0.38100 0.45780
C5 C 0.05240 0.39140 0.41430
C6 C 0.10190 0.53570 0.44390
C7 C 0.12450 0.56190 0.40320
C8 C 0.17430 0.69470 0.43130
C9 C 0.19280 0.70610 0.38560
C10 C 0.16180 0.58350 0.31120
C11 C 0.18470 0.57550 0.26890
C12 C 0.24070 0.59030 0.29700
C13 C 0.27900 0.52730 0.37290
C14 C 0.33100 0.60480 0.40230
C15 C 0.34500 0.74560 0.35610
C16 C 0.30710 0.80560 0.28010
C17 C 0.32260 0.91140 0.23380
C18 C 0.28680 0.94990 0.15930
C19 C 0.23450 0.85100 0.12530
C20 C 0.19690 0.84590 0.04840
C21 C 0.14860 0.70260 0.01820
C22 C 0.13290 0.58930 0.06520
C23 C 0.08190 0.47290 0.03310
C24 C 0.06490 0.38500 0.07880
C25 C 0.09870 0.41270 0.15700
C26 C 0.08080 0.34640 0.20470
C27 C 0.03100 0.22540 0.17660
C28 C 0.01320 0.16810 0.22140
C29 C -0.03750 0.03670 0.19350
C30 C -0.05810 0.02230 0.23450
C31 C 0.02230 0.27240 0.33960
C32 C 0.04280 0.29790 0.29630
C33 C 0.09320 0.44230 0.32870
C34 C 0.11170 0.45470 0.28270
C35 C 0.14990 0.52810 0.18930
C36 C 0.16700 0.61580 0.14350
C37 C 0.21810 0.74680 0.17210
C38 C 0.25490 0.72730 0.25050
H1 H -0.08700 0.03200 0.32900
H2 H -0.03300 0.24900 0.46000
H3 H 0.05500 0.46900 0.51500
H4 H 0.12400 0.62900 0.50000
H5 H 0.19800 0.78600 0.48700
H6 H 0.23000 0.80900 0.40700
H7 H 0.26900 0.41700 0.40900
H8 H 0.36000 0.55000 0.46000
H9 H 0.38500 0.80900 0.37900
H10 H 0.36200 0.96000 0.25700
H11 H 0.29800 1.05400 0.12500
H12 H 0.20600 0.95600 0.01300
H13 H 0.12200 0.67100 -0.04300
H14 H 0.05600 0.45000 -0.02500
H15 H 0.02600 0.30000 0.05500
H16 H 0.00600 0.16700 0.11700
H17 H -0.06000 -0.05000 0.13800
H18 H -0.09600 -0.07300 0.21000
C39 C 0.50510 -0.35610 0.71610
C40 C 0.52340 -0.36190 0.67220
C41 C 0.49460 -0.23490 0.59910
C42 C 0.44650 -0.09350 0.56980
C43 C 0.42520 -0.08210 0.61270
C44 C 0.37400 0.04430 0.58490
C45 C 0.35710 0.05260 0.63070
C46 C 0.30730 0.21410 0.60220
C47 C 0.28640 0.22140 0.64220
C48 C 0.31340 0.07440 0.71740
C49 C 0.29450 0.07450 0.76310
C50 C 0.23950 0.13430 0.73120
C51 C 0.20040 0.05570 0.65750
C52 C 0.14860 0.12480 0.62960
C53 C 0.13500 0.27630 0.67370
C54 C 0.17270 0.34290 0.74950
C55 C 0.15980 0.46390 0.80050
C56 C 0.19570 0.47080 0.87560
C57 C 0.24800 0.36440 0.90630
C58 C 0.28350 0.34400 0.98490
C59 C 0.33310 0.23980 1.01580
C60 C 0.34920 0.12370 0.96830
C61 C 0.40030 -0.00160 0.99860
C62 C 0.41500 -0.10130 0.95330
C63 C 0.38100 -0.07150 0.87390
C64 C 0.39890 -0.13880 0.82630
C65 C 0.44770 -0.30280 0.85300
C66 C 0.46650 -0.31080 0.80790
C67 C 0.51710 -0.46880 0.83800
C68 C 0.53480 -0.47810 0.79370
C69 C 0.45480 -0.21070 0.68670
C70 C 0.43530 -0.19900 0.73320
C71 C 0.38590 -0.07140 0.70660
C72 C 0.36510 -0.05220 0.75050
C73 C 0.32930 0.04350 0.84170
C74 C 0.31350 0.13770 0.89050
C75 C 0.26210 0.24740 0.85850
C76 C 0.22550 0.25940 0.77860
H19 H 0.56100 -0.47000 0.69400
H20 H 0.50900 -0.24400 0.56500
H21 H 0.42500 0.00500 0.51400
H22 H 0.34900 0.13600 0.52900
H23 H 0.28700 0.33100 0.54900
H24 H 0.25000 0.34200 0.61900
H25 H 0.21000 -0.06100 0.62200
H26 H 0.11900 0.05400 0.57300
H27 H 0.09600 0.34800 0.65100
H28 H 0.12200 0.55500 0.77900
H29 H 0.18500 0.55200 0.91300
H30 H 0.27100 0.40900 1.02000
H31 H 0.36100 0.24300 1.07600
H32 H 0.42700 -0.01400 1.05800
H33 H 0.45300 -0.20100 0.97600
H34 H 0.47000 -0.42300 0.90900
H35 H 0.53900 -0.56700 0.89400
H36 H 0.57200 -0.57900 0.81500
loop_
_geom_bond_atom_site_label_1
_geom_bond_atom_site_label_2
_geom_bond_distance
_geom_bond_site_symmetry_1
_geom_bond_site_symmetry_2
C1 C2 1.407 1_555 1_555
C2 C3 1.405 1_555 1_555
C3 C4 1.404 1_555 1_555
C4 C5 1.405 1_555 1_555
C5 C6 1.410 1_555 1_555
C6 C7 1.410 1_555 1_555
C7 C8 1.408 1_555 1_555
C8 C9 1.400 1_555 1_555
C9 C10 1.412 1_555 1_555
C10 C11 1.446 1_555 1_555
C11 C12 1.497 1_555 1_555
C12 C13 1.407 1_555 1_555
C13 C14 1.404 1_555 1_555
C14 C15 1.404 1_555 1_555
C15 C16 1.404 1_555 1_555
C16 C17 1.396 1_555 1_555
C17 C18 1.359 1_555 1_555
C18 C19 1.415 1_555 1_555
C19 C20 1.398 1_555 1_555
C20 C21 1.376 1_555 1_555
C21 C22 1.423 1_555 1_555
C22 C23 1.405 1_555 1_555
C23 C24 1.402 1_555 1_555
C24 C25 1.409 1_555 1_555
C25 C26 1.447 1_555 1_555
C26 C27 1.393 1_555 1_555
C27 C28 1.381 1_555 1_555
C28 C29 1.431 1_555 1_555
C29 C30 1.360 1_555 1_555
C30 C1 1.412 1_555 1_555
C31 C1 1.409 1_555 1_555
C32 C28 1.429 1_555 1_555
C33 C7 1.411 1_555 1_555
C34 C10 1.409 1_555 1_555
C35 C11 1.442 1_555 1_555
C36 C22 1.411 1_555 1_555
C37 C19 1.425 1_555 1_555
C38 C12 1.408 1_555 1_555
H1 C2 1.087 1_555 1_555
H2 C3 1.042 1_555 1_555
H3 C4 1.078 1_555 1_555
H4 C6 1.065 1_555 1_555
H5 C8 1.058 1_555 1_555
H6 C9 1.055 1_555 1_555
H7 C13 1.076 1_555 1_555
H8 C14 1.074 1_555 1_555
H9 C15 1.082 1_555 1_555
H10 C17 1.053 1_555 1_555
H11 C18 1.060 1_555 1_555
H12 C20 1.043 1_555 1_555
H13 C21 1.106 1_555 1_555
H14 C23 1.049 1_555 1_555
H15 C24 1.070 1_555 1_555
H16 C27 1.092 1_555 1_555
H17 C29 1.047 1_555 1_555
H18 C30 1.053 1_555 1_555
C39 C40 1.358 1_555 1_555
C40 C41 1.395 1_555 1_555
C41 C42 1.370 1_555 1_555
C42 C43 1.416 1_555 1_555
C43 C44 1.439 1_555 1_555
C44 C45 1.362 1_555 1_555
C45 C46 1.449 1_555 1_555
C46 C47 1.348 1_555 1_555
C47 C48 1.459 1_555 1_555
C48 C49 1.410 1_555 1_555
C49 C50 1.467 1_555 1_555
C50 C51 1.392 1_555 1_555
C51 C52 1.399 1_555 1_555
C52 C53 1.371 1_555 1_555
C53 C54 1.404 1_555 1_555
C54 C55 1.447 1_555 1_555
C55 C56 1.361 1_555 1_555
C56 C57 1.434 1_555 1_555
C57 C58 1.418 1_555 1_555
C58 C59 1.357 1_555 1_555
C59 C60 1.445 1_555 1_555
C60 C61 1.425 1_555 1_555
C61 C62 1.351 1_555 1_555
C62 C63 1.430 1_555 1_555
C63 C64 1.446 1_555 1_555
C64 C65 1.434 1_555 1_555
C65 C66 1.395 1_555 1_555
C66 C67 1.458 1_555 1_555
C67 C68 1.351 1_555 1_555
C68 C39 1.465 1_555 1_555
C69 C39 1.434 1_555 1_555
C70 C66 1.405 1_555 1_555
C71 C45 1.438 1_555 1_555
C72 C48 1.433 1_555 1_555
C73 C49 1.419 1_555 1_555
C74 C60 1.405 1_555 1_555
C75 C57 1.406 1_555 1_555
C76 C50 1.406 1_555 1_555
H19 C40 1.072 1_555 1_555
H20 C41 1.060 1_555 1_555
H21 C42 1.067 1_555 1_555
H22 C44 1.064 1_555 1_555
H23 C46 1.051 1_555 1_555
H24 C47 1.055 1_555 1_555
H25 C51 1.066 1_555 1_555
H26 C52 1.075 1_555 1_555
H27 C53 1.062 1_555 1_555
H28 C55 1.055 1_555 1_555
H29 C56 1.081 1_555 1_555
H30 C58 1.061 1_555 1_555
H31 C59 1.087 1_555 1_555
H32 C61 1.071 1_555 1_555
H33 C62 1.067 1_555 1_555
H34 C65 1.101 1_555 1_555
H35 C67 1.070 1_555 1_555
H36 C68 1.053 1_555 1_555
C5 C31 1.412 1_555 1_555
C16 C38 1.410 1_555 1_555
C25 C35 1.409 1_555 1_555
C26 C34 1.456 1_555 1_555
C31 C32 1.406 1_555 1_555
C32 C33 1.425 1_555 1_555
C33 C34 1.407 1_555 1_555
C35 C36 1.406 1_555 1_555
C36 C37 1.439 1_555 1_555
C37 C38 1.420 1_555 1_555
C43 C69 1.412 1_555 1_555
C54 C76 1.433 1_555 1_555
C63 C73 1.422 1_555 1_555
C64 C72 1.403 1_555 1_555
C69 C70 1.442 1_555 1_555
C70 C71 1.397 1_555 1_555
C71 C72 1.424 1_555 1_555
C73 C74 1.441 1_555 1_555
C74 C75 1.408 1_555 1_555
C75 C76 1.442 1_555 1_555
#END
