
#######################################################################
#
#                 Cambridge Crystallographic Data Centre
#                                CCDC
#
#######################################################################
#
# If this CIF has been generated from an entry in the Cambridge
# Structural Database, then it will include bibliographic, chemical,
# crystal, experimental, refinement or atomic coordinate data resulting
# from the CCDC's data processing and validation procedures.
#
#######################################################################

data_CSD_CIF_BOXSUE
_audit_creation_date 2015-03-06
_audit_creation_method CSD-ConQuest-V1
_database_code_CSD BOXSUE
_database_code_depnum_ccdc_archive 'CCDC 1029713'
_chemical_formula_sum 'C54 H52'
_chemical_formula_moiety
;
C54 H52
;
_journal_coden_Cambridge 182
_journal_volume 51
_journal_year 2015
_journal_page_first 6115
_journal_name_full 'Chem.Commun. '
loop_
_publ_author_name
"K.W.J.Heard"
"J.J.Morrison"
"L.Weston"
"C.H.Lo"
"L.Pirvu"
"J.Raftery"
"M.S.Little"
"J.J.W.McDouall"
"S.G.Yeates"
"P.Quayle"
_chemical_name_systematic
;
2,8-bis(4-hexylphenyl)-4,10-diphenylchrysene
;
_cell_volume   8035.549
_exptl_crystal_colour 'white'
_exptl_crystal_density_diffrn 1.159
_exptl_crystal_description 'plate'
_diffrn_ambient_temperature 100
#These two values have been output from a single CSD field.
_refine_ls_R_factor_gt 0.0458
_refine_ls_wR_factor_gt 0.0458
_symmetry_cell_setting orthorhombic
_symmetry_space_group_name_H-M 'P 21 21 21'
_symmetry_Int_Tables_number 19
loop_
_symmetry_equiv_pos_site_id
_symmetry_equiv_pos_as_xyz
1 x,y,z
2 1/2+x,1/2-y,-z
3 -x,1/2+y,1/2-z
4 1/2-x,-y,1/2+z
_cell_length_a 13.2582(6)
_cell_length_b 14.2403(8)
_cell_length_c 42.561(2)
_cell_angle_alpha 90
_cell_angle_beta 90
_cell_angle_gamma 90
_cell_formula_units_Z 8
loop_
_atom_type_symbol
_atom_type_radius_bond
C 0.68
H 0.23
loop_
_atom_site_label
_atom_site_type_symbol
_atom_site_fract_x
_atom_site_fract_y
_atom_site_fract_z
C1 C 0.74197(19) 0.44017(17) 0.91069(6)
C2 C 0.70184(18) 0.41739(16) 0.88103(5)
H1 H 0.63070 0.41190 0.87900
C3 C 0.76076(18) 0.40265(16) 0.85483(5)
C4 C 0.86814(18) 0.41395(16) 0.85683(5)
C5 C 0.93618(17) 0.41727(16) 0.83027(5)
C6 C 0.90026(17) 0.44055(15) 0.79935(5)
H2 H 0.83000 0.44890 0.79610
C7 C 0.96438(17) 0.45085(16) 0.77484(5)
H3 H 0.93840 0.47080 0.75510
C8 C 1.07013(17) 0.43257(16) 0.77771(5)
C9 C 1.13288(18) 0.44235(16) 0.75146(6)
H4 H 1.10430 0.45980 0.73190
C10 C 1.23553(18) 0.42714(16) 0.75350(5)
C11 C 1.27381(17) 0.39698(16) 0.78276(5)
H5 H 1.34370 0.38320 0.78430
C12 C 1.21509(17) 0.38657(15) 0.80913(5)
C13 C 1.10936(17) 0.40820(16) 0.80786(5)
C14 C 1.04188(17) 0.40995(15) 0.83487(5)
C15 C 1.07898(17) 0.41649(17) 0.86641(5)
H6 H 1.14960 0.41260 0.87000
C16 C 1.01610(17) 0.42813(16) 0.89123(5)
H7 H 1.04380 0.43710 0.91160
C17 C 0.90912(18) 0.42715(16) 0.88744(5)
C18 C 0.84611(18) 0.44157(17) 0.91349(6)
H8 H 0.87550 0.45260 0.93350
C19 C 0.67477(18) 0.45755(17) 0.93792(5)
C20 C 0.69885(18) 0.52158(17) 0.96161(6)
H9 H 0.76050 0.55540 0.96050
C21 C 0.63403(19) 0.53671(17) 0.98680(6)
H10 H 0.65250 0.58040 1.00270
C22 C 0.54249(19) 0.48909(18) 0.98924(6)
C23 C 0.51852(19) 0.42531(18) 0.96565(6)
H11 H 0.45650 0.39210 0.96670
C24 C 0.58294(17) 0.40911(18) 0.94063(5)
H12 H 0.56470 0.36450 0.92500
C25 C 0.4698(2) 0.50557(19) 1.01591(6)
H13 H 0.50870 0.51360 1.03560
H14 H 0.42680 0.44920 1.01840
C26 C 0.4019(2) 0.5913(2) 1.01135(6)
H15 H 0.44230 0.64910 1.01440
H16 H 0.37580 0.59170 0.98960
C27 C 0.3132(2) 0.5918(2) 1.03424(6)
H17 H 0.27820 0.53050 1.03290
H18 H 0.33980 0.59830 1.05590
C28 C 0.2374(2) 0.6689(2) 1.02846(7)
H19 H 0.21490 0.66570 1.00630
H20 H 0.27100 0.73030 1.03150
C29 C 0.1444(2) 0.6641(2) 1.04992(7)
H21 H 0.11860 0.59890 1.05010
H22 H 0.16490 0.68020 1.07160
C30 C 0.0606(2) 0.7293(2) 1.03989(7)
H23 H 0.08520 0.79420 1.04010
H24 H 0.00380 0.72320 1.05450
H25 H 0.03860 0.71280 1.01860
C31 C 0.70753(18) 0.37068(16) 0.82600(5)
C32 C 0.62506(17) 0.42034(16) 0.81448(5)
H26 H 0.60170 0.47420 0.82540
C33 C 0.57658(19) 0.39204(17) 0.78717(6)
H27 H 0.52130 0.42740 0.77930
C34 C 0.60851(19) 0.31265(17) 0.77142(6)
H28 H 0.57560 0.29350 0.75270
C35 C 0.68917(18) 0.26075(16) 0.78315(6)
H29 H 0.71050 0.20550 0.77250
C36 C 0.73826(18) 0.28919(16) 0.81010(5)
H30 H 0.79320 0.25340 0.81790
C37 C 1.30577(18) 0.44298(16) 0.72695(5)
C38 C 1.29037(18) 0.51542(16) 0.70526(5)
H31 H 1.23080 0.55240 0.70650
C39 C 1.36085(19) 0.53421(16) 0.68191(6)
H32 H 1.34910 0.58430 0.66760
C40 C 1.44904(18) 0.48051(17) 0.67903(5)
C41 C 1.46282(19) 0.40741(18) 0.70024(5)
H33 H 1.52140 0.36930 0.69860
C42 C 1.39344(18) 0.38868(17) 0.72368(5)
H34 H 1.40530 0.33820 0.73780
C43 C 1.52420(19) 0.49771(18) 0.65298(6)
H35 H 1.59330 0.48720 0.66100
H36 H 1.51930 0.56380 0.64600
C44 C 1.5049(2) 0.4324(2) 0.62505(6)
H37 H 1.43570 0.44340 0.61710
H38 H 1.50870 0.36650 0.63240
C45 C 1.5796(2) 0.4461(2) 0.59802(6)
H39 H 1.55690 0.40830 0.57980
H40 H 1.57860 0.51290 0.59160
C46 C 1.6876(2) 0.4186(2) 0.60606(6)
H41 H 1.68650 0.35780 0.61730
H42 H 1.71580 0.46610 0.62060
C47 C 1.7575(2) 0.4098(2) 0.57779(7)
H43 H 1.73280 0.35870 0.56400
H44 H 1.75520 0.46900 0.56560
C48 C 1.8654(2) 0.3897(2) 0.58689(8)
H45 H 1.89340 0.44400 0.59800
H46 H 1.90530 0.37760 0.56790
H47 H 1.86760 0.33450 0.60060
C49 C 1.26864(17) 0.34971(16) 0.83746(5)
C50 C 1.34326(18) 0.40394(18) 0.85176(6)
H48 H 1.36020 0.46360 0.84320
C51 C 1.39313(19) 0.3713(2) 0.87845(6)
H49 H 1.44250 0.40940 0.88840
C52 C 1.3707(2) 0.2835(2) 0.89039(6)
H50 H 1.40420 0.26140 0.90870
C53 C 1.2991(2) 0.22739(19) 0.87560(6)
H51 H 1.28540 0.16620 0.88340
C54 C 1.24759(19) 0.26073(17) 0.84943(6)
H52 H 1.19780 0.22270 0.83970
C55 C 0.24607(19) 0.61475(17) 0.91000(6)
C56 C 0.20464(18) 0.64352(16) 0.88110(5)
H53 H 0.13340 0.64910 0.87950
C57 C 0.26233(18) 0.66392(16) 0.85507(5)
C58 C 0.36971(18) 0.65302(16) 0.85660(6)
C59 C 0.43723(17) 0.65253(15) 0.82947(5)
C60 C 0.40093(18) 0.63145(16) 0.79865(5)
H54 H 0.33050 0.62380 0.79540
C61 C 0.46443(17) 0.62210(16) 0.77396(5)
H55 H 0.43800 0.60380 0.75410
C62 C 0.57040(18) 0.63901(16) 0.77695(5)
C63 C 0.63296(18) 0.62943(16) 0.75034(6)
H56 H 0.60400 0.61300 0.73070
C64 C 0.73629(18) 0.64363(17) 0.75251(6)
C65 C 0.77403(17) 0.67258(16) 0.78173(5)
H57 H 0.84420 0.68550 0.78330
C66 C 0.71590(17) 0.68357(15) 0.80842(5)
C67 C 0.61016(17) 0.66260(16) 0.80700(5)
C68 C 0.54330(17) 0.65932(15) 0.83408(5)
C69 C 0.58146(18) 0.64904(16) 0.86533(5)
H58 H 0.65210 0.65340 0.86880
C70 C 0.51946(18) 0.63326(17) 0.89001(6)
H59 H 0.54800 0.62080 0.91010
C71 C 0.41227(18) 0.63477(16) 0.88672(5)
C72 C 0.35011(18) 0.61492(17) 0.91266(5)
H60 H 0.38010 0.60130 0.93240
C73 C 0.18006(18) 0.58249(18) 0.93587(5)
C74 C 0.20833(18) 0.50426(18) 0.95370(6)
H61 H 0.27070 0.47400 0.94950
C75 C 0.1466(2) 0.47012(18) 0.97756(6)
H62 H 0.16810 0.41760 0.98960
C76 C 0.05350(19) 0.51155(18) 0.98417(6)
C77 C 0.02536(19) 0.58940(18) 0.96637(6)
H63 H -0.03740 0.61920 0.97040
C78 C 0.08761(18) 0.62434(18) 0.94275(6)
H64 H 0.06670 0.67780 0.93110
C79 C -0.0127(2) 0.4714(2) 1.00984(6)
H65 H -0.05920 0.52100 1.01730
H66 H 0.03040 0.45250 1.02780
C80 C -0.07482(19) 0.38636(18) 0.99916(6)
H67 H -0.13040 0.40830 0.98550
H68 H -0.03130 0.34440 0.98650
C81 C -0.1194(2) 0.3306(2) 1.02651(6)
H69 H -0.06350 0.30210 1.03870
H70 H -0.15560 0.37440 1.04060
C82 C -0.19181(19) 0.25287(19) 1.01643(7)
H71 H -0.19560 0.20540 1.03340
H72 H -0.16420 0.22160 0.99750
C83 C -0.29840(19) 0.28757(19) 1.00911(7)
H73 H -0.29410 0.34660 0.99690
H74 H -0.33330 0.24030 0.99600
C84 C -0.3602(2) 0.3051(2) 1.03879(8)
H75 H -0.36630 0.24640 1.05070
H76 H -0.42750 0.32760 1.03300
H77 H -0.32640 0.35240 1.05180
C85 C 0.20822(17) 0.69974(16) 0.82684(5)
C86 C 0.23818(18) 0.78255(16) 0.81171(6)
H78 H 0.29320 0.81790 0.81970
C87 C 0.18769(18) 0.81321(17) 0.78504(6)
H79 H 0.20790 0.86970 0.77500
C88 C 0.1073(2) 0.76124(18) 0.77302(6)
H80 H 0.07410 0.78130 0.75440
C89 C 0.07604(19) 0.68067(17) 0.78816(6)
H81 H 0.02040 0.64600 0.78020
C90 C 0.12564(17) 0.65014(16) 0.81493(6)
H82 H 0.10330 0.59490 0.82530
C91 C 0.80635(18) 0.62800(16) 0.72585(5)
C92 C 0.79024(18) 0.55700(16) 0.70399(6)
H83 H 0.73050 0.52040 0.70510
C93 C 0.86050(19) 0.53889(16) 0.68049(6)
H84 H 0.84850 0.48920 0.66610
C94 C 0.94819(18) 0.59228(17) 0.67768(6)
C95 C 0.96357(18) 0.66395(16) 0.69943(5)
H85 H 1.02300 0.70110 0.69810
C96 C 0.89406(18) 0.68219(17) 0.72290(5)
H86 H 0.90600 0.73220 0.73720
C97 C 1.02260(18) 0.57700(18) 0.65105(6)
H87 H 1.01330 0.51330 0.64220
H88 H 1.09230 0.58150 0.65920
C98 C 1.0069(2) 0.6506(2) 0.62516(6)
H89 H 0.93710 0.64490 0.61710
H90 H 1.01390 0.71390 0.63450
C99 C 1.0802(2) 0.6426(2) 0.59738(6)
H91 H 1.07080 0.58060 0.58730
H92 H 1.06300 0.69130 0.58170
C100 C 1.1897(2) 0.65323(19) 0.60625(6)
H93 H 1.21100 0.59730 0.61840
H94 H 1.19700 0.70870 0.62010
C101 C 1.2597(2) 0.6647(2) 0.57798(7)
H95 H 1.24730 0.61320 0.56290
H96 H 1.24460 0.72480 0.56730
C102 C 1.3702(2) 0.6635(2) 0.58787(8)
H97 H 1.38170 0.71180 0.60390
H98 H 1.41290 0.67610 0.56960
H99 H 1.38700 0.60170 0.59650
C103 C 0.77098(17) 0.71978(16) 0.83646(5)
C104 C 0.75162(19) 0.80907(17) 0.84823(6)
H100 H 0.70060 0.84690 0.83900
C105 C 0.8072(2) 0.8427(2) 0.87351(6)
H101 H 0.79480 0.90410 0.88130
C106 C 0.8810(2) 0.7868(2) 0.88748(7)
H102 H 0.91840 0.80980 0.90490
C107 C 0.8996(2) 0.6983(2) 0.87587(7)
H103 H 0.94910 0.65970 0.88550
C108 C 0.84642(19) 0.6654(2) 0.85023(6)
H104 H 0.86140 0.60520 0.84190
loop_
_geom_bond_atom_site_label_1
_geom_bond_atom_site_label_2
_geom_bond_distance
_geom_bond_site_symmetry_1
_geom_bond_site_symmetry_2
C1 C2 1.408 1_555 1_555
C2 H1 0.950 1_555 1_555
C3 C2 1.378 1_555 1_555
C4 C3 1.435 1_555 1_555
C5 C4 1.447 1_555 1_555
C6 C5 1.438 1_555 1_555
H2 C6 0.949 1_555 1_555
C7 C6 1.354 1_555 1_555
H3 C7 0.951 1_555 1_555
C8 C7 1.431 1_555 1_555
C9 C8 1.400 1_555 1_555
H4 C9 0.948 1_555 1_555
C10 C9 1.381 1_555 1_555
C11 C10 1.412 1_555 1_555
H5 C11 0.949 1_555 1_555
C12 C11 1.374 1_555 1_555
C13 C8 1.427 1_555 1_555
C14 C5 1.419 1_555 1_555
C15 C14 1.433 1_555 1_555
H6 C15 0.950 1_555 1_555
C16 C15 1.356 1_555 1_555
H7 C16 0.950 1_555 1_555
C17 C4 1.424 1_555 1_555
C18 C1 1.386 1_555 1_555
H8 C18 0.950 1_555 1_555
C19 C1 1.483 1_555 1_555
C20 C19 1.396 1_555 1_555
H9 C20 0.950 1_555 1_555
C21 C20 1.391 1_555 1_555
H10 C21 0.951 1_555 1_555
C22 C21 1.394 1_555 1_555
C23 C22 1.391 1_555 1_555
H11 C23 0.950 1_555 1_555
C24 C19 1.404 1_555 1_555
H12 C24 0.951 1_555 1_555
C25 C22 1.507 1_555 1_555
H13 C25 0.991 1_555 1_555
H14 C25 0.990 1_555 1_555
C26 C25 1.529 1_555 1_555
H15 C26 0.991 1_555 1_555
H16 C26 0.988 1_555 1_555
C27 C26 1.527 1_555 1_555
H17 C27 0.990 1_555 1_555
H18 C27 0.991 1_555 1_555
C28 C27 1.509 1_555 1_555
H19 C28 0.990 1_555 1_555
H20 C28 0.990 1_555 1_555
C29 C28 1.536 1_555 1_555
H21 C29 0.990 1_555 1_555
H22 C29 0.989 1_555 1_555
C30 C29 1.510 1_555 1_555
H23 C30 0.980 1_555 1_555
H24 C30 0.980 1_555 1_555
H25 C30 0.980 1_555 1_555
C31 C3 1.487 1_555 1_555
C32 C31 1.391 1_555 1_555
H26 C32 0.949 1_555 1_555
C33 C32 1.388 1_555 1_555
H27 C33 0.950 1_555 1_555
C34 C33 1.381 1_555 1_555
H28 C34 0.948 1_555 1_555
C35 C34 1.393 1_555 1_555
H29 C35 0.951 1_555 1_555
C36 C31 1.404 1_555 1_555
H30 C36 0.949 1_555 1_555
C37 C10 1.482 1_555 1_555
C38 C37 1.399 1_555 1_555
H31 C38 0.951 1_555 1_555
C39 C38 1.390 1_555 1_555
H32 C39 0.951 1_555 1_555
C40 C39 1.402 1_555 1_555
C41 C40 1.390 1_555 1_555
H33 C41 0.950 1_555 1_555
C42 C37 1.403 1_555 1_555
H34 C42 0.950 1_555 1_555
C43 C40 1.511 1_555 1_555
H35 C43 0.989 1_555 1_555
H36 C43 0.989 1_555 1_555
C44 C43 1.531 1_555 1_555
H37 C44 0.990 1_555 1_555
H38 C44 0.990 1_555 1_555
C45 C44 1.530 1_555 1_555
H39 C45 0.991 1_555 1_555
H40 C45 0.990 1_555 1_555
C46 C45 1.523 1_555 1_555
H41 C46 0.989 1_555 1_555
H42 C46 0.990 1_555 1_555
C47 C46 1.524 1_555 1_555
H43 C47 0.991 1_555 1_555
H44 C47 0.990 1_555 1_555
C48 C47 1.509 1_555 1_555
H45 C48 0.979 1_555 1_555
H46 C48 0.981 1_555 1_555
H47 C48 0.979 1_555 1_555
C49 C12 1.494 1_555 1_555
C50 C49 1.395 1_555 1_555
H48 C50 0.951 1_555 1_555
C51 C50 1.394 1_555 1_555
H49 C51 0.950 1_555 1_555
C52 C51 1.382 1_555 1_555
H50 C52 0.951 1_555 1_555
C53 C52 1.391 1_555 1_555
H51 C53 0.950 1_555 1_555
C54 C49 1.394 1_555 1_555
H52 C54 0.949 1_555 1_555
C55 C56 1.408 1_555 1_555
C56 H53 0.950 1_555 1_555
C57 C56 1.377 1_555 1_555
C58 C57 1.434 1_555 1_555
C59 C58 1.461 1_555 1_555
C60 C59 1.429 1_555 1_555
H54 C60 0.950 1_555 1_555
C61 C60 1.353 1_555 1_555
H55 C61 0.951 1_555 1_555
C62 C61 1.431 1_555 1_555
C63 C62 1.410 1_555 1_555
H56 C63 0.949 1_555 1_555
C64 C63 1.388 1_555 1_555
C65 C64 1.402 1_555 1_555
H57 C65 0.951 1_555 1_555
C66 C65 1.382 1_555 1_555
C67 C62 1.424 1_555 1_555
C68 C59 1.423 1_555 1_555
C69 C68 1.431 1_555 1_555
H58 C69 0.950 1_555 1_555
C70 C69 1.353 1_555 1_555
H59 C70 0.952 1_555 1_555
C71 C58 1.425 1_555 1_555
C72 C55 1.384 1_555 1_555
H60 C72 0.950 1_555 1_555
C73 C55 1.480 1_555 1_555
C74 C73 1.399 1_555 1_555
H61 C74 0.949 1_555 1_555
C75 C74 1.392 1_555 1_555
H62 C75 0.950 1_555 1_555
C76 C75 1.397 1_555 1_555
C77 C76 1.394 1_555 1_555
H63 C77 0.950 1_555 1_555
C78 C73 1.394 1_555 1_555
H64 C78 0.950 1_555 1_555
C79 C76 1.514 1_555 1_555
H65 C79 0.990 1_555 1_555
H66 C79 0.992 1_555 1_555
C80 C79 1.533 1_555 1_555
H67 C80 0.989 1_555 1_555
H68 C80 0.990 1_555 1_555
C81 C80 1.528 1_555 1_555
H69 C81 0.992 1_555 1_555
H70 C81 0.989 1_555 1_555
C82 C81 1.527 1_555 1_555
H71 C82 0.991 1_555 1_555
H72 C82 0.991 1_555 1_555
C83 C82 1.529 1_555 1_555
H73 C83 0.990 1_555 1_555
H74 C83 0.989 1_555 1_555
C84 C83 1.526 1_555 1_555
H75 C84 0.981 1_555 1_555
H76 C84 0.980 1_555 1_555
H77 C84 0.980 1_555 1_555
C85 C57 1.489 1_555 1_555
C86 C85 1.401 1_555 1_555
H78 C86 0.949 1_555 1_555
C87 C86 1.388 1_555 1_555
H79 C87 0.949 1_555 1_555
C88 C87 1.395 1_555 1_555
H80 C88 0.950 1_555 1_555
C89 C88 1.380 1_555 1_555
H81 C89 0.950 1_555 1_555
C90 C85 1.398 1_555 1_555
H82 C90 0.949 1_555 1_555
C91 C64 1.483 1_555 1_555
C92 C91 1.390 1_555 1_555
H83 C92 0.949 1_555 1_555
C93 C92 1.391 1_555 1_555
H84 C93 0.949 1_555 1_555
C94 C93 1.394 1_555 1_555
C95 C94 1.393 1_555 1_555
H85 C95 0.951 1_555 1_555
C96 C91 1.401 1_555 1_555
H86 C96 0.950 1_555 1_555
C97 C94 1.518 1_555 1_555
H87 C97 0.990 1_555 1_555
H88 C97 0.989 1_555 1_555
C98 C97 1.535 1_555 1_555
H89 C98 0.990 1_555 1_555
H90 C98 0.990 1_555 1_555
C99 C98 1.535 1_555 1_555
H91 C99 0.989 1_555 1_555
H92 C99 0.989 1_555 1_555
C100 C99 1.508 1_555 1_555
H93 C100 0.991 1_555 1_555
H94 C100 0.990 1_555 1_555
C101 C100 1.528 1_555 1_555
H95 C101 0.988 1_555 1_555
H96 C101 0.990 1_555 1_555
C102 C101 1.524 1_555 1_555
H97 C102 0.981 1_555 1_555
H98 C102 0.978 1_555 1_555
H99 C102 0.979 1_555 1_555
C103 C66 1.491 1_555 1_555
C104 C103 1.391 1_555 1_555
H100 C104 0.950 1_555 1_555
C105 C104 1.389 1_555 1_555
H101 C105 0.949 1_555 1_555
C106 C105 1.394 1_555 1_555
H102 C106 0.950 1_555 1_555
C107 C106 1.376 1_555 1_555
H103 C107 0.949 1_555 1_555
C108 C103 1.394 1_555 1_555
H104 C108 0.949 1_555 1_555
C12 C13 1.436 1_555 1_555
C13 C14 1.457 1_555 1_555
C16 C17 1.428 1_555 1_555
C17 C18 1.403 1_555 1_555
C23 C24 1.384 1_555 1_555
C35 C36 1.380 1_555 1_555
C41 C42 1.383 1_555 1_555
C53 C54 1.390 1_555 1_555
C66 C67 1.435 1_555 1_555
C67 C68 1.455 1_555 1_555
C70 C71 1.428 1_555 1_555
C71 C72 1.406 1_555 1_555
C77 C78 1.393 1_555 1_555
C89 C90 1.385 1_555 1_555
C95 C96 1.384 1_555 1_555
C107 C108 1.381 1_555 1_555
#END
