
#######################################################################
#
#                 Cambridge Crystallographic Data Centre
#                                CCDC
#
#######################################################################
#
# If this CIF has been generated from an entry in the Cambridge
# Structural Database, then it will include bibliographic, chemical,
# crystal, experimental, refinement or atomic coordinate data resulting
# from the CCDC's data processing and validation procedures.
#
#######################################################################

data_CSD_CIF_BPSIND
_audit_creation_date 1976-02-16
_audit_creation_method CSD-ConQuest-V1
_database_code_CSD BPSIND
_chemical_formula_sum 'C27 H16'
_chemical_formula_moiety
;
C27 H16
;
_journal_coden_Cambridge 189
_journal_volume 4
_journal_year 1975
_journal_page_first 437
_journal_name_full 'Cryst.Struct.Commun. '
loop_
_publ_author_name
"J.P.Declercq"
"G.Germain"
"M.van Meerssche"
"O.Dideberg"
_chemical_name_systematic
;
5H-Benzo(c,d)pyrene-5-spiro-1'-indene
;
_cell_volume   1736.209
_diffrn_ambient_temperature ?
_diffrn_special_details
;
The study was carried out at room temperature,in the range 283-303K

;
#These two values have been output from a single CSD field.
_refine_ls_R_factor_gt 0.041
_refine_ls_wR_factor_gt 0.041
_symmetry_cell_setting orthorhombic
_symmetry_space_group_name_H-M 'P 21 21 21'
_symmetry_Int_Tables_number 19
loop_
_symmetry_equiv_pos_site_id
_symmetry_equiv_pos_as_xyz
1 x,y,z
2 1/2+x,1/2-y,-z
3 -x,1/2+y,1/2-z
4 1/2-x,-y,1/2+z
_cell_length_a 8.743
_cell_length_b 26.702
_cell_length_c 7.437
_cell_angle_alpha 90
_cell_angle_beta 90
_cell_angle_gamma 90
_cell_formula_units_Z 4
loop_
_atom_type_symbol
_atom_type_radius_bond
C 0.68
H 0.23
loop_
_atom_site_label
_atom_site_type_symbol
_atom_site_fract_x
_atom_site_fract_y
_atom_site_fract_z
C1 C 0.23260 0.18220 -0.22380
C10 C 0.60440 0.01390 0.18180
C11 C 0.54660 0.06340 0.15220
C12 C 0.56430 0.10160 0.28150
C13 C 0.50480 0.14920 0.24960
C14 C 0.42230 0.15990 0.09420
C15 C 0.35940 0.20990 0.06130
C16 C 0.27370 0.22050 -0.08260
C17 C 0.40200 0.12250 -0.03740
C18 C 0.46700 0.07480 -0.00940
C19 C 0.45250 0.03690 -0.14320
C2 C 0.31830 0.13250 -0.20100
C20 C 0.05910 0.17260 -0.22420
C21 C -0.03230 0.15580 -0.08630
C22 C -0.18770 0.14850 -0.12220
C23 C -0.24720 0.15800 -0.29110
C24 C -0.15650 0.17590 -0.42610
C25 C -0.00010 0.18350 -0.39230
C26 C 0.12270 0.20290 -0.50560
C27 C 0.25240 0.20270 -0.41350
C3 C 0.30940 0.09650 -0.32930
C4 C 0.37570 0.04790 -0.30620
C5 C 0.36400 0.01110 -0.43870
C6 C 0.42470 -0.03650 -0.40790
C7 C 0.49520 -0.04770 -0.24800
C8 C 0.51270 -0.01170 -0.11290
C9 C 0.58620 -0.02180 0.05510
H10 H 0.65500 0.00900 0.29200
H12 H 0.61300 0.09700 0.40700
H13 H 0.51800 0.17800 0.33100
H15 H 0.38200 0.23500 0.15500
H16 H 0.22200 0.25400 -0.10500
H21 H 0.02000 0.14900 0.03900
H22 H -0.24300 0.13500 -0.00600
H23 H -0.36600 0.15800 -0.30400
H24 H -0.19400 0.18600 -0.55400
H26 H 0.10600 0.21300 -0.62800
H27 H 0.35500 0.21400 -0.42800
H3 H 0.25800 0.10300 -0.44600
H5 H 0.31400 0.02100 -0.54600
H6 H 0.41000 -0.06300 -0.50800
H7 H 0.53800 -0.08100 -0.23400
H9 H 0.63000 -0.05500 0.08000
loop_
_geom_bond_atom_site_label_1
_geom_bond_atom_site_label_2
_geom_bond_distance
_geom_bond_site_symmetry_1
_geom_bond_site_symmetry_2
C1 C16 1.509 1_555 1_555
C10 C11 1.432 1_555 1_555
C11 C12 1.410 1_555 1_555
C12 C13 1.394 1_555 1_555
C13 C14 1.392 1_555 1_555
C14 C15 1.465 1_555 1_555
C15 C16 1.337 1_555 1_555
C16 H16 1.016 1_555 1_555
C17 C14 1.409 1_555 1_555
C18 C11 1.422 1_555 1_555
C19 C18 1.425 1_555 1_555
C2 C1 1.533 1_555 1_555
C20 C1 1.538 1_555 1_555
C21 C20 1.375 1_555 1_555
C22 C21 1.398 1_555 1_555
C23 C22 1.383 1_555 1_555
C24 C23 1.366 1_555 1_555
C25 C20 1.384 1_555 1_555
C26 C25 1.460 1_555 1_555
C27 C1 1.523 1_555 1_555
C3 C2 1.357 1_555 1_555
C4 C19 1.417 1_555 1_555
C5 C4 1.395 1_555 1_555
C6 C5 1.396 1_555 1_555
C7 C6 1.372 1_555 1_555
C8 C19 1.418 1_555 1_555
C9 C10 1.350 1_555 1_555
H10 C10 0.940 1_555 1_555
H12 C12 1.033 1_555 1_555
H13 C13 0.985 1_555 1_555
H15 C15 0.987 1_555 1_555
H21 C21 1.054 1_555 1_555
H22 C22 1.054 1_555 1_555
H23 C23 1.043 1_555 1_555
H24 C24 1.042 1_555 1_555
H26 C26 0.961 1_555 1_555
H27 C27 0.953 1_555 1_555
H3 C3 0.993 1_555 1_555
H5 C5 0.948 1_555 1_555
H6 C6 1.035 1_555 1_555
H7 C7 0.970 1_555 1_555
H9 C9 0.983 1_555 1_555
C17 C18 1.410 1_555 1_555
C17 C2 1.445 1_555 1_555
C24 C25 1.405 1_555 1_555
C26 C27 1.325 1_555 1_555
C3 C4 1.432 1_555 1_555
C7 C8 1.399 1_555 1_555
C8 C9 1.431 1_555 1_555
#END
