
#######################################################################
#
#                 Cambridge Crystallographic Data Centre
#                                CCDC
#
#######################################################################
#
# If this CIF has been generated from an entry in the Cambridge
# Structural Database, then it will include bibliographic, chemical,
# crystal, experimental, refinement or atomic coordinate data resulting
# from the CCDC's data processing and validation procedures.
#
#######################################################################

data_CSD_CIF_BUFDUB
_audit_creation_date 1983-11-09
_audit_creation_method CSD-ConQuest-V1
_database_code_CSD BUFDUB
_database_code_depnum_ccdc_archive 'CCDC 1116087'
_chemical_formula_sum 'C36 H34'
_chemical_formula_moiety
;
C36 H34
;
_journal_coeditor_code "IUCr A22441"
_journal_coden_Cambridge 591
_journal_volume 39
_journal_year 1983
_journal_page_first 625
_journal_name_full 'Acta Crystallogr.,Sect.C:Cryst.Struct.Commun. '
loop_
_publ_author_name
"S.Seth"
"S.Chakraborty"
_chemical_name_systematic
;
7,14-bis(n-Pentyl)-acenaphtho(1,2-k)fluoranthene
;
_cell_volume   1290.042
_exptl_crystal_colour 'deep yellow'
_exptl_crystal_density_diffrn 1.201
_diffrn_ambient_temperature ?
_diffrn_special_details
;
The study was carried out at room temperature,in the range 283-303K

;
#These two values have been output from a single CSD field.
_refine_ls_R_factor_gt 0.038
_refine_ls_wR_factor_gt 0.038
_symmetry_cell_setting monoclinic
_symmetry_space_group_name_H-M 'P 21/c'
_symmetry_Int_Tables_number 14
loop_
_symmetry_equiv_pos_site_id
_symmetry_equiv_pos_as_xyz
1 x,y,z
2 -x,1/2+y,1/2-z
3 -x,-y,-z
4 x,-1/2-y,-1/2+z
_cell_length_a 5.071(3)
_cell_length_b 17.971(4)
_cell_length_c 14.156(4)
_cell_angle_alpha 90
_cell_angle_beta 90.20(4)
_cell_angle_gamma 90
_cell_formula_units_Z 2
loop_
_atom_type_symbol
_atom_type_radius_bond
C 0.68
H 0.23
loop_
_atom_site_label
_atom_site_type_symbol
_atom_site_fract_x
_atom_site_fract_y
_atom_site_fract_z
C1 C 1.25850 -0.10240 0.51960
C2 C 1.12520 -0.09810 0.42340
C3 C 1.25500 -0.04420 0.35480
C4 C 1.11710 -0.04260 0.25910
C5 C 1.25340 0.00880 0.18760
C6 C 1.12470 0.00460 0.09180
C7 C 0.92330 0.05380 0.06470
C8 C 0.79570 0.11530 0.11730
C9 C 0.81650 0.14490 0.20720
C10 C 0.64800 0.20470 0.23260
C11 C 0.46500 0.23450 0.17170
C12 C 0.43950 0.20470 0.07900
C13 C 0.25930 0.22860 0.00850
C14 C 0.25740 0.19400 -0.07800
C15 C 0.42990 0.13420 -0.10040
C16 C 0.60250 0.10900 -0.03270
C17 C 1.19720 -0.04930 0.02610
C18 C 0.60610 0.14640 0.05550
H1 H 1.25300 -0.05100 0.54900
H2 H 1.16000 -0.13600 0.56300
H3 H 1.44000 -0.11800 0.51500
H4 H 0.94000 -0.08400 0.43200
H5 H 1.11700 -0.14800 0.39200
H6 H 1.44600 -0.06000 0.34500
H7 H 1.26000 0.00700 0.38400
H8 H 0.92700 -0.02700 0.26700
H9 H 1.10900 -0.09400 0.23100
H10 H 1.44000 -0.00500 0.18100
H11 H 1.25000 0.06000 0.21200
H12 H 0.94600 0.12400 0.25400
H13 H 0.67300 0.22700 0.29700
H14 H 0.34400 0.27600 0.19200
H15 H 0.13300 0.26900 0.02200
H16 H 0.12900 0.21100 -0.12800
H17 H 0.42100 0.11100 -0.16400
C17B C 0.80280 0.04930 -0.02610
C7B C 1.07670 -0.05380 -0.06470
C16B C 1.39750 -0.10900 0.03270
C6B C 0.87530 -0.00460 -0.09180
C8B C 1.20430 -0.11530 -0.11730
C15B C 1.57010 -0.13420 0.10040
C18B C 1.39390 -0.14640 -0.05550
C5B C 0.74660 -0.00880 -0.18760
C9B C 1.18350 -0.14490 -0.20720
C14B C 1.74260 -0.19400 0.07800
H17B H 1.57900 -0.11100 0.16400
C12B C 1.56050 -0.20470 -0.07900
C4B C 0.88290 0.04260 -0.25910
H10B H 0.56000 0.00500 -0.18100
H11B H 0.75000 -0.06000 -0.21200
C10B C 1.35200 -0.20470 -0.23260
H12B H 1.05400 -0.12400 -0.25400
C13B C 1.74070 -0.22860 -0.00850
H16B H 1.87100 -0.21100 0.12800
C11B C 1.53500 -0.23450 -0.17170
C3B C 0.74500 0.04420 -0.35480
H8B H 1.07300 0.02700 -0.26700
H9B H 0.89100 0.09400 -0.23100
H13B H 1.32700 -0.22700 -0.29700
H15B H 1.86700 -0.26900 -0.02200
H14B H 1.65600 -0.27600 -0.19200
C2B C 0.87480 0.09810 -0.42340
H6B H 0.55400 0.06000 -0.34500
H7B H 0.74000 -0.00700 -0.38400
C1B C 0.74150 0.10240 -0.51960
H4B H 1.06000 0.08400 -0.43200
H5B H 0.88300 0.14800 -0.39200
H1B H 0.74700 0.05100 -0.54900
H2B H 0.84000 0.13600 -0.56300
H3B H 0.56000 0.11800 -0.51500
loop_
_geom_bond_atom_site_label_1
_geom_bond_atom_site_label_2
_geom_bond_distance
_geom_bond_site_symmetry_1
_geom_bond_site_symmetry_2
C1 C2 1.520 1_555 1_555
C2 C3 1.523 1_555 1_555
C3 C4 1.523 1_555 1_555
C4 C5 1.536 1_555 1_555
C5 C6 1.505 1_555 1_555
C6 C7 1.403 1_555 1_555
C7 C8 1.483 1_555 1_555
C8 C9 1.383 1_555 1_555
C9 C10 1.420 1_555 1_555
C10 C11 1.373 1_555 1_555
C11 C12 1.423 1_555 1_555
C12 C13 1.417 1_555 1_555
C13 C14 1.373 1_555 1_555
C14 C15 1.422 1_555 1_555
C15 C16 1.373 1_555 1_555
C16 C18 1.418 1_555 1_555
C17 C6 1.393 1_555 1_555
C18 C8 1.413 1_555 1_555
H1 C1 1.014 1_555 1_555
H2 C1 0.997 1_555 1_555
H3 C1 0.965 1_555 1_555
H4 C2 0.981 1_555 1_555
H5 C2 1.002 1_555 1_555
H6 C3 1.019 1_555 1_555
H7 C3 1.009 1_555 1_555
H8 C4 1.011 1_555 1_555
H9 C4 1.007 1_555 1_555
H10 C5 0.983 1_555 1_555
H11 C5 0.983 1_555 1_555
H12 C9 1.004 1_555 1_555
H13 C10 1.003 1_555 1_555
H14 C11 1.008 1_555 1_555
H15 C13 0.987 1_555 1_555
H16 C14 1.007 1_555 1_555
H17 C15 0.993 1_555 1_555
C17B C7 1.424 1_555 1_555
C7B C17 1.424 1_555 1_555
C16B C17 1.480 1_555 1_555
C6B C17B 1.393 1_555 1_555
C8B C7B 1.483 1_555 1_555
C15B C16B 1.373 1_555 1_555
C18B C16B 1.418 1_555 1_555
C5B C6B 1.505 1_555 1_555
C9B C8B 1.383 1_555 1_555
C14B C15B 1.422 1_555 1_555
H17B C15B 0.993 1_555 1_555
C12B C18B 1.387 1_555 1_555
C4B C5B 1.536 1_555 1_555
H10B C5B 0.983 1_555 1_555
H11B C5B 0.983 1_555 1_555
C10B C9B 1.420 1_555 1_555
H12B C9B 1.004 1_555 1_555
C13B C14B 1.373 1_555 1_555
H16B C14B 1.007 1_555 1_555
C11B C12B 1.423 1_555 1_555
C3B C4B 1.523 1_555 1_555
H8B C4B 1.011 1_555 1_555
H9B C4B 1.007 1_555 1_555
H13B C10B 1.003 1_555 1_555
H15B C13B 0.987 1_555 1_555
H14B C11B 1.008 1_555 1_555
C2B C3B 1.523 1_555 1_555
H6B C3B 1.019 1_555 1_555
H7B C3B 1.009 1_555 1_555
C1B C2B 1.520 1_555 1_555
H4B C2B 0.981 1_555 1_555
H5B C2B 1.002 1_555 1_555
H1B C1B 1.014 1_555 1_555
H2B C1B 0.997 1_555 1_555
H3B C1B 0.965 1_555 1_555
C12 C18 1.387 1_555 1_555
C16 C17B 1.480 1_555 1_555
C7B C6B 1.403 1_555 1_555
C8B C18B 1.413 1_555 1_555
C12B C13B 1.417 1_555 1_555
C10B C11B 1.373 1_555 1_555
#END
