
#######################################################################
#
#                 Cambridge Crystallographic Data Centre
#                                CCDC
#
#######################################################################
#
# If this CIF has been generated from an entry in the Cambridge
# Structural Database, then it will include bibliographic, chemical,
# crystal, experimental, refinement or atomic coordinate data resulting
# from the CCDC's data processing and validation procedures.
#
#######################################################################

data_CSD_CIF_BURUBC
_audit_creation_date 1981-11-16
_audit_creation_method CSD-ConQuest-V1
_database_code_CSD BURUBC
_chemical_formula_sum 'C34 H30'
_chemical_formula_moiety
;
C34 H30
;
_journal_coden_Cambridge 189
_journal_volume 10
_journal_year 1981
_journal_page_first 713
_journal_name_full 'Cryst.Struct.Commun. '
loop_
_publ_author_name
"K.Peters"
"H.Langhals"
"G.Werner"
_chemical_name_systematic
;
5,13-Di-t-butyl-rubicene
;
_cell_volume   2518.420
_exptl_crystal_density_diffrn 1.156
_diffrn_ambient_temperature ?
_diffrn_special_details
;
The study was carried out at room temperature,in the range 283-303K

;
#These two values have been output from a single CSD field.
_refine_ls_R_factor_gt 0.066
_refine_ls_wR_factor_gt 0.066
_symmetry_cell_setting monoclinic
_symmetry_space_group_name_H-M 'P 21/c'
_symmetry_Int_Tables_number 14
loop_
_symmetry_equiv_pos_site_id
_symmetry_equiv_pos_as_xyz
1 x,y,z
2 -x,1/2+y,1/2-z
3 -x,-y,-z
4 x,-1/2-y,-1/2+z
_cell_length_a 16.281(7)
_cell_length_b 11.650(4)
_cell_length_c 13.434(6)
_cell_angle_alpha 90
_cell_angle_beta 98.75(4)
_cell_angle_gamma 90
_cell_formula_units_Z 4
loop_
_atom_type_symbol
_atom_type_radius_bond
C 0.68
loop_
_atom_site_label
_atom_site_type_symbol
_atom_site_fract_x
_atom_site_fract_y
_atom_site_fract_z
C1 C 0.63390 0.21360 -0.00130
C2 C 0.60680 0.12790 0.05450
C3 C 0.52300 0.11730 0.07030
C4 C 0.31900 0.14750 0.06420
C5 C 0.23520 0.18050 0.04910
C6 C 0.21360 0.28220 -0.00270
C7 C 0.27150 0.35070 -0.04090
C8 C 0.38760 0.54670 -0.16570
C9 C 0.41490 0.63410 -0.22060
C10 C 0.49820 0.64070 -0.23930
C11 C 0.69830 0.59490 -0.25350
C12 C 0.77860 0.55250 -0.24650
C13 C 0.80450 0.45420 -0.19110
C14 C 0.74600 0.39520 -0.14340
C15 C 0.66590 0.43630 -0.14940
C16 C 0.59280 0.39260 -0.10830
C17 C 0.57740 0.29950 -0.04770
C18 C 0.49440 0.28910 -0.02920
C19 C 0.46730 0.19690 0.02730
C20 C 0.37710 0.21430 0.02580
C21 C 0.35360 0.31590 -0.02910
C22 C 0.42790 0.36340 -0.06430
C23 C 0.44360 0.45860 -0.12290
C24 C 0.52690 0.46740 -0.14260
C25 C 0.55330 0.55900 -0.20090
C26 C 0.64180 0.53710 -0.20520
C27 C 0.17050 0.10410 0.08860
C28 C 0.08150 0.14220 0.05030
C29 C 0.18630 0.10580 0.20050
C30 C 0.18020 -0.01840 0.05590
C31 C 0.89640 0.40250 -0.18340
C32 C 0.95310 0.49910 -0.21390
C33 C 0.88980 0.29970 -0.25320
C34 C 0.92600 0.36710 -0.07800
loop_
_geom_bond_atom_site_label_1
_geom_bond_atom_site_label_2
_geom_bond_distance
_geom_bond_site_symmetry_1
_geom_bond_site_symmetry_2
C1 C2 1.362 1_555 1_555
C2 C3 1.418 1_555 1_555
C3 C19 1.363 1_555 1_555
C4 C5 1.402 1_555 1_555
C5 C6 1.392 1_555 1_555
C6 C7 1.391 1_555 1_555
C7 C21 1.383 1_555 1_555
C8 C9 1.370 1_555 1_555
C9 C10 1.418 1_555 1_555
C10 C25 1.355 1_555 1_555
C11 C12 1.387 1_555 1_555
C12 C13 1.396 1_555 1_555
C13 C14 1.406 1_555 1_555
C14 C15 1.380 1_555 1_555
C15 C16 1.477 1_555 1_555
C16 C17 1.401 1_555 1_555
C17 C1 1.436 1_555 1_555
C18 C17 1.416 1_555 1_555
C19 C18 1.424 1_555 1_555
C20 C4 1.384 1_555 1_555
C21 C20 1.416 1_555 1_555
C22 C18 1.410 1_555 1_555
C23 C8 1.434 1_555 1_555
C24 C16 1.404 1_555 1_555
C25 C24 1.428 1_555 1_555
C26 C11 1.379 1_555 1_555
C27 C5 1.534 1_555 1_555
C28 C27 1.528 1_555 1_555
C29 C27 1.486 1_555 1_555
C30 C27 1.509 1_555 1_555
C31 C13 1.602 1_555 1_555
C32 C31 1.550 1_555 1_555
C33 C31 1.515 1_555 1_555
C34 C31 1.483 1_555 1_555
C15 C26 1.416 1_555 1_555
C19 C20 1.480 1_555 1_555
C21 C22 1.472 1_555 1_555
C22 C23 1.406 1_555 1_555
C23 C24 1.424 1_555 1_555
C25 C26 1.473 1_555 1_555
#END
