
#######################################################################
#
#                 Cambridge Crystallographic Data Centre
#                                CCDC
#
#######################################################################
#
# If this CIF has been generated from an entry in the Cambridge
# Structural Database, then it will include bibliographic, chemical,
# crystal, experimental, refinement or atomic coordinate data resulting
# from the CCDC's data processing and validation procedures.
#
#######################################################################

data_CSD_CIF_BUTPYR11
_audit_creation_date 2012-10-16
_audit_creation_method CSD-ConQuest-V1
_database_code_CSD BUTPYR11
_database_code_depnum_ccdc_archive 'CCDC 886378'
_chemical_formula_sum 'C24 H26'
_chemical_formula_moiety
;
C24 H26
;
_journal_coden_Cambridge 1078
_journal_year 2012
_journal_name_full 'CSD Communication(Private Communication) '
loop_
_publ_author_name
"P.Beckmann"
"A.L.Rheingold"
_chemical_name_systematic
;
2,7-Di-t-butylpyrene
;
_cell_volume    426.820
_exptl_crystal_colour 'colorless'
_exptl_crystal_density_diffrn 1.223
_exptl_special_details
;
contribution from Department of Chemistry,University of California, San 
Diego, 9500 Gilman Drive, La Jolla, CA 92093-0358, USA
;
_exptl_crystal_description 'blade'
_diffrn_ambient_temperature 100
#These two values have been output from a single CSD field.
_refine_ls_R_factor_gt 0.0428
_refine_ls_wR_factor_gt 0.0428
_symmetry_cell_setting triclinic
_symmetry_space_group_name_H-M 'P -1'
_symmetry_Int_Tables_number 2
loop_
_symmetry_equiv_pos_site_id
_symmetry_equiv_pos_as_xyz
1 x,y,z
2 -x,-y,-z
_cell_length_a 6.0637(2)
_cell_length_b 8.8976(3)
_cell_length_c 9.1392(5)
_cell_angle_alpha 109.361(3)
_cell_angle_beta 97.687(3)
_cell_angle_gamma 108.001(2)
_cell_formula_units_Z 1
loop_
_atom_type_symbol
_atom_type_radius_bond
C 0.68
H 0.23
loop_
_atom_site_label
_atom_site_type_symbol
_atom_site_fract_x
_atom_site_fract_y
_atom_site_fract_z
C1 C 0.94138(15) 0.24209(10) 0.66014(10)
H1 H 0.98800 0.15120 0.66600
C2 C 0.78963(15) 0.29098(10) 0.75212(10)
C3 C 0.72587(15) 0.42621(10) 0.74312(10)
H2 H 0.62320 0.46120 0.80500
C4 C 0.80873(14) 0.51173(10) 0.64559(10)
C5 C 0.95916(14) 0.45903(9) 0.55144(9)
C6 C 1.02662(15) 0.32256(10) 0.55994(10)
C7 C 0.74342(15) 0.65068(11) 0.63536(10)
H3 H 0.64350 0.68830 0.69850
C8 C 1.17846(16) 0.27095(10) 0.46261(10)
H4 H 1.22530 0.17970 0.46700
C9 C 0.68581(15) 0.19043(10) 0.85059(10)
C10 C 0.46831(16) 0.02887(11) 0.73599(11)
H5 H 0.34680 0.06310 0.68910
H6 H 0.39960 -0.03890 0.79580
H7 H 0.51990 -0.04060 0.65000
C11 C 0.87218(16) 0.13586(12) 0.92724(11)
H8 H 1.01720 0.23780 0.99290
H9 H 0.91330 0.05630 0.84250
H10 H 0.80510 0.07870 0.99530
C12 C 0.60324(18) 0.29684(11) 0.98554(11)
H11 H 0.73690 0.40580 1.05280
H12 H 0.55090 0.23240 1.05140
H13 H 0.46920 0.32040 0.93860
C1A C 1.05862(15) 0.75791(10) 0.33986(10)
H1A H 1.01200 0.84880 0.33400
C2A C 1.21037(15) 0.70902(10) 0.24788(10)
C3A C 1.27413(15) 0.57379(10) 0.25688(10)
H2A H 1.37680 0.53880 0.19500
C4A C 1.19127(14) 0.48827(10) 0.35441(10)
C5A C 1.04084(14) 0.54097(9) 0.44856(9)
C6A C 0.97338(15) 0.67744(10) 0.44006(10)
C7A C 1.25658(15) 0.34932(11) 0.36464(10)
H3A H 1.35650 0.31170 0.30150
C8A C 0.82154(16) 0.72905(10) 0.53739(10)
H4A H 0.77470 0.82030 0.53300
C9A C 1.31419(15) 0.80957(10) 0.14941(10)
C10A C 1.53169(16) 0.97113(11) 0.26401(11)
H5A H 1.65320 0.93690 0.31090
H6A H 1.60040 1.03890 0.20420
H7A H 1.48010 1.04060 0.35000
C11A C 1.12782(16) 0.86414(12) 0.07276(11)
H8A H 0.98280 0.76220 0.00710
H9A H 1.08670 0.94370 0.15750
H10A H 1.19490 0.92130 0.00470
C12A C 1.39676(18) 0.70316(11) 0.01446(11)
H11A H 1.26310 0.59420 -0.05280
H12A H 1.44910 0.76760 -0.05140
H13A H 1.53080 0.67960 0.06140
loop_
_geom_bond_atom_site_label_1
_geom_bond_atom_site_label_2
_geom_bond_distance
_geom_bond_site_symmetry_1
_geom_bond_site_symmetry_2
C1 H1 0.950 1_555 1_555
C2 C1 1.398 1_555 1_555
C3 C2 1.396 1_555 1_555
H2 C3 0.950 1_555 1_555
C4 C3 1.400 1_555 1_555
C5 C4 1.414 1_555 1_555
C6 C1 1.397 1_555 1_555
C7 C4 1.436 1_555 1_555
H3 C7 0.950 1_555 1_555
C8 C6 1.435 1_555 1_555
H4 C8 0.950 1_555 1_555
C9 C2 1.531 1_555 1_555
C10 C9 1.537 1_555 1_555
H5 C10 0.980 1_555 1_555
H6 C10 0.980 1_555 1_555
H7 C10 0.980 1_555 1_555
C11 C9 1.535 1_555 1_555
H8 C11 0.980 1_555 1_555
H9 C11 0.980 1_555 1_555
H10 C11 0.980 1_555 1_555
C12 C9 1.534 1_555 1_555
H11 C12 0.980 1_555 1_555
H12 C12 0.979 1_555 1_555
H13 C12 0.980 1_555 1_555
C1A H1A 0.950 1_555 1_555
C2A C1A 1.398 1_555 1_555
C3A C2A 1.396 1_555 1_555
H2A C3A 0.950 1_555 1_555
C4A C3A 1.400 1_555 1_555
C5A C5 1.420 1_555 1_555
C6A C1A 1.397 1_555 1_555
C7A C8 1.355 1_555 1_555
H3A C7A 0.950 1_555 1_555
C8A C7 1.355 1_555 1_555
H4A C8A 0.950 1_555 1_555
C9A C2A 1.531 1_555 1_555
C10A C9A 1.537 1_555 1_555
H5A C10A 0.980 1_555 1_555
H6A C10A 0.980 1_555 1_555
H7A C10A 0.980 1_555 1_555
C11A C9A 1.535 1_555 1_555
H8A C11A 0.980 1_555 1_555
H9A C11A 0.980 1_555 1_555
H10A C11A 0.980 1_555 1_555
C12A C9A 1.534 1_555 1_555
H11A C12A 0.980 1_555 1_555
H12A C12A 0.979 1_555 1_555
H13A C12A 0.980 1_555 1_555
C5 C6 1.417 1_555 1_555
C4A C5A 1.414 1_555 1_555
C4A C7A 1.436 1_555 1_555
C5A C6A 1.417 1_555 1_555
C6A C8A 1.435 1_555 1_555
#END
