
#######################################################################
#
#                 Cambridge Crystallographic Data Centre
#                                CCDC
#
#######################################################################
#
# If this CIF has been generated from an entry in the Cambridge
# Structural Database, then it will include bibliographic, chemical,
# crystal, experimental, refinement or atomic coordinate data resulting
# from the CCDC's data processing and validation procedures.
#
#######################################################################

data_CSD_CIF_CADMIE
_audit_creation_date 2002-03-27
_audit_creation_method CSD-ConQuest-V1
_database_code_CSD CADMIE
_database_code_depnum_ccdc_archive 'CCDC 178598'
_chemical_formula_sum 'C34 H30'
_chemical_formula_moiety
;
C34 H30
;
_journal_coden_Cambridge 1336
_journal_volume 4
_journal_year 2002
_journal_page_first 15
_journal_name_full 'Org.Lett. '
loop_
_publ_author_name
"J.E.Anthony"
"D.L.Eaton"
"S.R.Parkin"
_chemical_name_systematic
;
6,13-bis(t-Butylethynyl)pentacene
;
_cell_volume   2579.728
_exptl_crystal_colour 'blue'
_exptl_crystal_density_diffrn 1.129
_exptl_crystal_description 'lath'
_diffrn_ambient_temperature 173
#These two values have been output from a single CSD field.
_refine_ls_R_factor_gt 0.0606
_refine_ls_wR_factor_gt 0.0606
_symmetry_cell_setting monoclinic
_symmetry_space_group_name_H-M 'C 2/c'
_symmetry_Int_Tables_number 15
loop_
_symmetry_equiv_pos_site_id
_symmetry_equiv_pos_as_xyz
1 x,y,z
2 1/2+x,1/2+y,z
3 x,-y,1/2+z
4 1/2+x,1/2-y,1/2+z
5 -x,-y,-z
6 -1/2-x,-1/2-y,-z
7 -x,y,-1/2-z
8 -1/2-x,-1/2+y,-1/2-z
_cell_length_a 25.0740(14)
_cell_length_b 6.4820(4)
_cell_length_c 19.2460(11)
_cell_angle_alpha 90
_cell_angle_beta 124.441(3)
_cell_angle_gamma 90
_cell_formula_units_Z 4
loop_
_atom_type_symbol
_atom_type_radius_bond
C 0.68
H 0.23
loop_
_atom_site_label
_atom_site_type_symbol
_atom_site_fract_x
_atom_site_fract_y
_atom_site_fract_z
C1 C 0.20052(7) 0.2796(2) 0.41310(9)
C2 C 0.20787(7) 0.4233(2) 0.47309(9)
C3 C 0.16768(7) 0.5981(3) 0.44938(10)
H1? H 0.1347(7) 0.619(2) 0.3914(10)
C4 C 0.17438(7) 0.7402(2) 0.50717(9)
C5 C 0.13455(8) 0.9214(3) 0.48273(11)
H2? H 0.1014(8) 0.943(2) 0.4249(11)
C6 C 0.14333(8) 1.0607(3) 0.54019(11)
H3? H 0.1165(8) 1.180(3) 0.5225(10)
C7 C 0.19249(8) 1.0312(3) 0.62725(11)
H4 H 0.1984(8) 1.131(3) 0.6672(11)
C8 C 0.23095(8) 0.8624(3) 0.65371(10)
H5? H 0.2632(8) 0.845(3) 0.7121(10)
C9 C 0.22399(7) 0.7103(2) 0.59539(9)
C10 C 0.26381(7) 0.5386(3) 0.6199(1)
H6? H 0.2961(7) 0.518(2) 0.6781(10)
C11 C 0.24201(7) 0.1059(2) 0.43841(9)
C12 C 0.15074(7) 0.3091(2) 0.32561(9)
C13 C 0.10954(7) 0.3339(3) 0.25257(9)
C14 C 0.06058(7) 0.3678(3) 0.16188(9)
C15 C 0.00072(8) 0.4703(3) 0.14872(11)
H7 H -0.01810 0.37980 0.17030
H8 H -0.03110 0.49470 0.08850
H9 H 0.01290 0.60200 0.17890
C16 C 0.09006(9) 0.5037(4) 0.12680(11)
H10 H 0.10170 0.63800 0.15510
H11 H 0.05850 0.52330 0.06610
H12 H 0.12880 0.43680 0.13670
C17 C 0.04192(9) 0.1587(3) 0.11683(12)
H13 H 0.08070 0.09050 0.12720
H14 H 0.01090 0.17980 0.05610
H15 H 0.02230 0.07200 0.13830
C11E C 0.25799(7) 0.3941(2) 0.56159(9)
C1E C 0.29948(7) 0.2204(2) 0.58690(9)
C2E C 0.29213(7) 0.0767(2) 0.52691(9)
C3E C 0.33232(7) -0.0981(3) 0.55062(10)
C4E C 0.32562(7) -0.2402(2) 0.49283(9)
C5E C 0.36545(8) -0.4214(3) 0.51727(11)
C6E C 0.35667(8) -0.5607(3) 0.45981(11)
C7E C 0.30751(8) -0.5312(3) 0.37275(11)
H4E H 0.3016(8) -0.631(3) 0.3328(11)
C8E C 0.26905(8) -0.3624(3) 0.34629(10)
C9E C 0.27601(7) -0.2103(2) 0.40461(9)
C10E C 0.23619(7) -0.0386(3) 0.3801(1)
C12E C 0.34926(7) 0.1909(2) 0.67439(9)
C13E C 0.39046(7) 0.1661(3) 0.74743(9)
C14E C 0.43942(7) 0.1322(3) 0.83812(9)
C15E C 0.49928(8) 0.0297(3) 0.85128(11)
H7E H 0.51810 0.12020 0.82970
H8E H 0.53110 0.00530 0.91150
H9E H 0.48710 -0.10200 0.82110
C16E C 0.40994(9) -0.0037(4) 0.87320(11)
H10E H 0.39830 -0.13800 0.84490
H11E H 0.44150 -0.02330 0.93390
H12E H 0.37120 0.06320 0.86330
C17E C 0.45808(9) 0.3413(3) 0.88317(12)
H13E H 0.41930 0.40950 0.87280
H14E H 0.48910 0.32020 0.94390
H15E H 0.47770 0.42800 0.86170
loop_
_geom_bond_atom_site_label_1
_geom_bond_atom_site_label_2
_geom_bond_distance
_geom_bond_site_symmetry_1
_geom_bond_site_symmetry_2
C1 C2 1.412 1_555 1_555
C2 C3 1.410 1_555 1_555
C3 C4 1.379 1_555 1_555
C4 C5 1.438 1_555 1_555
C5 C6 1.346 1_555 1_555
C6 C7 1.424 1_555 1_555
C7 H4 0.950 1_555 1_555
C8 C7 1.353 1_555 1_555
C9 C4 1.442 1_555 1_555
C10 C9 1.388 1_555 1_555
C11 C1 1.419 1_555 1_555
C12 C1 1.433 1_555 1_555
C13 C12 1.194 1_555 1_555
C14 C13 1.476 1_555 1_555
C15 C14 1.526 1_555 1_555
H7 C15 0.980 1_555 1_555
H8 C15 0.979 1_555 1_555
H9 C15 0.979 1_555 1_555
C16 C14 1.531 1_555 1_555
H10 C16 0.980 1_555 1_555
H11 C16 0.981 1_555 1_555
H12 C16 0.979 1_555 1_555
C17 C14 1.533 1_555 1_555
H13 C17 0.980 1_555 1_555
H14 C17 0.981 1_555 1_555
H15 C17 0.979 1_555 1_555
C11E C2 1.447 1_555 1_555
C1E C11E 1.419 1_555 1_555
C2E C11 1.447 1_555 1_555
C3E C2E 1.410 1_555 1_555
C4E C3E 1.379 1_555 1_555
C5E C4E 1.438 1_555 1_555
C6E C5E 1.346 1_555 1_555
C7E C6E 1.424 1_555 1_555
H4E C7E 0.950 1_555 1_555
C8E C7E 1.353 1_555 1_555
C9E C4E 1.442 1_555 1_555
C10E C11 1.405 1_555 1_555
C12E C1E 1.433 1_555 1_555
C13E C12E 1.194 1_555 1_555
C14E C13E 1.476 1_555 1_555
C15E C14E 1.526 1_555 1_555
H7E C15E 0.980 1_555 1_555
H8E C15E 0.979 1_555 1_555
H9E C15E 0.979 1_555 1_555
C16E C14E 1.531 1_555 1_555
H10E C16E 0.980 1_555 1_555
H11E C16E 0.981 1_555 1_555
H12E C16E 0.979 1_555 1_555
C17E C14E 1.533 1_555 1_555
H13E C17E 0.980 1_555 1_555
H14E C17E 0.981 1_555 1_555
H15E C17E 0.979 1_555 1_555
C8 C9 1.429 1_555 1_555
C10 C11E 1.405 1_555 1_555
C1E C2E 1.412 1_555 1_555
C8E C9E 1.429 1_555 1_555
C9E C10E 1.388 1_555 1_555
#END
