
#######################################################################
#
#                 Cambridge Crystallographic Data Centre
#                                CCDC
#
#######################################################################
#
# If this CIF has been generated from an entry in the Cambridge
# Structural Database, then it will include bibliographic, chemical,
# crystal, experimental, refinement or atomic coordinate data resulting
# from the CCDC's data processing and validation procedures.
#
#######################################################################

data_CSD_CIF_CARLAK
_audit_creation_date 2012-07-19
_audit_creation_method CSD-ConQuest-V1
_database_code_CSD CARLAK
_database_code_depnum_ccdc_archive 'CCDC 779146'
_chemical_formula_sum 'C24 H14'
_chemical_formula_moiety
;
C24 H14
;
_journal_coden_Cambridge 1220
_journal_volume 18
_journal_year 2012
_journal_page_first 5022
_journal_name_full 'Chem.-Eur.J. '
loop_
_publ_author_name
"A.G.Crawford"
"Zhiqiang Liu"
"I.A.I.Mkhalid"
"M.-H.Thibault"
"N.Schwarz"
"G.Alcaraz"
"A.Steffen"
"J.C.Collings"
"A.S.Batsanov"
"J.A.K.Howard"
"T.B.Marder"
_chemical_name_systematic
;
2-(Phenylethynyl)pyrene
;
_chemical_melting_point 408.7
_cell_volume   1539.387
_exptl_crystal_colour 'off white'
_exptl_crystal_density_diffrn 1.305
_exptl_crystal_description 'plate'
_diffrn_ambient_temperature 120
#These two values have been output from a single CSD field.
_refine_ls_R_factor_gt 0.049
_refine_ls_wR_factor_gt 0.049
_symmetry_cell_setting triclinic
_symmetry_space_group_name_H-M 'P -1'
_symmetry_Int_Tables_number 2
loop_
_symmetry_equiv_pos_site_id
_symmetry_equiv_pos_as_xyz
1 x,y,z
2 -x,-y,-z
_cell_length_a 7.9968(8)
_cell_length_b 8.0398(7)
_cell_length_c 24.367(2)
_cell_angle_alpha 89.741(13)
_cell_angle_beta 89.677(12)
_cell_angle_gamma 79.308(12)
_cell_formula_units_Z 4
loop_
_atom_type_symbol
_atom_type_radius_bond
C 0.68
H 0.23
loop_
_atom_site_label
_atom_site_type_symbol
_atom_site_fract_x
_atom_site_fract_y
_atom_site_fract_z
C1 C 0.20227(17) 0.63486(17) 0.02267(5)
H1 H 0.09200 0.61050 0.01670
C2 C 0.26195(17) 0.75257(17) -0.01120(5)
C3 C 0.42541(17) 0.78678(17) -0.00311(5)
H2 H 0.46720 0.86380 -0.02690
C4 C 0.69433(17) 0.74540(18) 0.04983(6)
H3 H 0.73830 0.82200 0.02650
C5 C 0.78956(17) 0.67244(18) 0.09233(6)
H4 H 0.89850 0.69990 0.09840
C6 C 0.82518(18) 0.47870(19) 0.17300(6)
H5 H 0.93390 0.50550 0.18000
C7 C 0.76306(19) 0.3651(2) 0.20701(6)
H6 H 0.82950 0.31490 0.23700
C8 C 0.60428(19) 0.32422(19) 0.19751(6)
H7 H 0.56320 0.24640 0.22110
C9 C 0.33972(18) 0.35742(18) 0.14199(6)
H8 H 0.29750 0.27770 0.16460
C10 C 0.24340(18) 0.43102(18) 0.09997(6)
H9 H 0.13550 0.40170 0.09350
C11 C 0.30161(16) 0.55321(17) 0.06487(5)
C12 C 0.46576(16) 0.59115(16) 0.07440(5)
C13 C 0.52784(17) 0.70952(17) 0.03941(5)
C14 C 0.56700(16) 0.51331(16) 0.11857(5)
C15 C 0.50438(17) 0.39625(17) 0.15352(5)
C16 C 0.72978(17) 0.55405(18) 0.12852(5)
C17 C 0.15475(18) 0.83725(18) -0.05375(6)
C18 C 0.06317(18) 0.90948(18) -0.08838(6)
C19 C -0.04326(18) 0.99909(18) -0.13016(6)
C20 C 0.03004(19) 1.06435(19) -0.17585(6)
H10 H 0.15030 1.04660 -0.17960
C21 C -0.0721(2) 1.1546(2) -0.21531(6)
H11 H -0.02170 1.19980 -0.24600
C22 C -0.2479(2) 1.1797(2) -0.21049(7)
H12 H -0.31750 1.24170 -0.23790
C23 C -0.3218(2) 1.1145(2) -0.16586(7)
H13 H -0.44220 1.13070 -0.16280
C24 C -0.22060(18) 1.02573(18) -0.12563(6)
H14 H -0.27190 0.98260 -0.09470
C25 C 0.64867(17) 0.68964(17) 0.51960(5)
H15 H 0.62780 0.57860 0.51360
C26 C 0.76379(17) 0.75304(18) 0.48563(6)
C27 C 0.79300(17) 0.91731(18) 0.49379(6)
H16 H 0.86880 0.96140 0.47000
C28 C 0.74409(17) 1.18420(18) 0.54742(6)
H17 H 0.81990 1.23030 0.52420
C29 C 0.66842(18) 1.27725(18) 0.59015(6)
H18 H 0.69330 1.38660 0.59650
C30 C 0.47125(19) 1.30719(19) 0.67036(6)
H19 H 0.49310 1.41740 0.67720
C31 C 0.3602(2) 1.2404(2) 0.70434(6)
H20 H 0.30680 1.30530 0.73420
C32 C 0.32676(19) 1.0802(2) 0.69506(6)
H21 H 0.25100 1.03600 0.71880
C33 C 0.37113(18) 0.81614(19) 0.64034(6)
H22 H 0.29570 0.77010 0.66370
C34 C 0.44585(17) 0.72316(19) 0.59758(6)
H23 H 0.41980 0.61440 0.59090
C35 C 0.56398(16) 0.78642(17) 0.56212(5)
C36 C 0.59707(16) 0.95141(17) 0.57147(5)
C37 C 0.71209(16) 1.01766(17) 0.53658(5)
C38 C 0.51622(16) 1.04976(17) 0.61605(5)
C39 C 0.40319(17) 0.98204(19) 0.65106(6)
C40 C 0.55144(17) 1.21334(18) 0.62592(6)
C41 C 0.85202(17) 0.64714(18) 0.44361(6)
C42 C 0.92615(18) 0.55281(18) 0.40961(6)
C43 C 1.01386(17) 0.44248(18) 0.36837(5)
C44 C 1.08964(19) 0.50949(19) 0.32356(6)
H24 H 1.08280 0.62840 0.32050
C45 C 1.1747(2) 0.4034(2) 0.28363(6)
H25 H 1.22660 0.44960 0.25350
C46 C 1.18406(19) 0.2301(2) 0.28769(6)
H26 H 1.24120 0.15760 0.26010
C47 C 1.11021(18) 0.16228(19) 0.33190(6)
H27 H 1.11730 0.04330 0.33470
C48 C 1.02617(17) 0.26753(18) 0.37218(6)
H28 H 0.97650 0.22010 0.40260
loop_
_geom_bond_atom_site_label_1
_geom_bond_atom_site_label_2
_geom_bond_distance
_geom_bond_site_symmetry_1
_geom_bond_site_symmetry_2
C1 H1 0.950 1_555 1_555
C2 C1 1.400 1_555 1_555
C3 C2 1.400 1_555 1_555
H2 C3 0.950 1_555 1_555
C4 H3 0.949 1_555 1_555
C5 C4 1.354 1_555 1_555
H4 C5 0.950 1_555 1_555
C6 H5 0.950 1_555 1_555
C7 C6 1.387 1_555 1_555
H6 C7 0.949 1_555 1_555
C8 C7 1.390 1_555 1_555
H7 C8 0.949 1_555 1_555
C9 H8 0.950 1_555 1_555
C10 C9 1.351 1_555 1_555
H9 C10 0.950 1_555 1_555
C11 C1 1.389 1_555 1_555
C12 C11 1.422 1_555 1_555
C13 C3 1.395 1_555 1_555
C14 C12 1.422 1_555 1_555
C15 C8 1.398 1_555 1_555
C16 C5 1.438 1_555 1_555
C17 C2 1.435 1_555 1_555
C18 C17 1.196 1_555 1_555
C19 C18 1.434 1_555 1_555
C20 C19 1.400 1_555 1_555
H10 C20 0.950 1_555 1_555
C21 C20 1.379 1_555 1_555
H11 C21 0.950 1_555 1_555
C22 C21 1.387 1_555 1_555
H12 C22 0.950 1_555 1_555
C23 C22 1.382 1_555 1_555
H13 C23 0.950 1_555 1_555
C24 C19 1.398 1_555 1_555
H14 C24 0.951 1_555 1_555
C25 H15 0.950 1_555 1_555
C26 C25 1.398 1_555 1_555
C27 C26 1.398 1_555 1_555
H16 C27 0.950 1_555 1_555
C28 H17 0.950 1_555 1_555
C29 C28 1.357 1_555 1_555
H18 C29 0.950 1_555 1_555
C30 H19 0.950 1_555 1_555
C31 C30 1.388 1_555 1_555
H20 C31 0.949 1_555 1_555
C32 C31 1.383 1_555 1_555
H21 C32 0.950 1_555 1_555
C33 H22 0.950 1_555 1_555
C34 C33 1.355 1_555 1_555
H23 C34 0.951 1_555 1_555
C35 C25 1.393 1_555 1_555
C36 C35 1.420 1_555 1_555
C37 C27 1.401 1_555 1_555
C38 C36 1.426 1_555 1_555
C39 C32 1.403 1_555 1_555
C40 C29 1.437 1_555 1_555
C41 C26 1.431 1_555 1_555
C42 C41 1.203 1_555 1_555
C43 C42 1.435 1_555 1_555
C44 C43 1.399 1_555 1_555
H24 C44 0.950 1_555 1_555
C45 C44 1.386 1_555 1_555
H25 C45 0.949 1_555 1_555
C46 C45 1.384 1_555 1_555
H26 C46 0.950 1_555 1_555
C47 C46 1.383 1_555 1_555
H27 C47 0.950 1_555 1_555
C48 C43 1.394 1_555 1_555
H28 C48 0.950 1_555 1_555
C4 C13 1.438 1_555 1_555
C6 C16 1.398 1_555 1_555
C9 C15 1.438 1_555 1_555
C10 C11 1.439 1_555 1_555
C12 C13 1.429 1_555 1_555
C14 C15 1.423 1_555 1_555
C14 C16 1.422 1_555 1_555
C23 C24 1.383 1_555 1_555
C28 C37 1.435 1_555 1_555
C30 C40 1.405 1_555 1_555
C33 C39 1.430 1_555 1_555
C34 C35 1.436 1_555 1_555
C36 C37 1.422 1_555 1_555
C38 C39 1.418 1_555 1_555
C38 C40 1.417 1_555 1_555
C47 C48 1.386 1_555 1_555
#END
