
#######################################################################
#
#                 Cambridge Crystallographic Data Centre
#                                CCDC
#
#######################################################################
#
# If this CIF has been generated from an entry in the Cambridge
# Structural Database, then it will include bibliographic, chemical,
# crystal, experimental, refinement or atomic coordinate data resulting
# from the CCDC's data processing and validation procedures.
#
#######################################################################

data_CSD_CIF_CARRAO
_audit_creation_date 1984-06-02
_audit_creation_method CSD-ConQuest-V1
_database_code_CSD CARRAO
_database_code_depnum_ccdc_archive 'CCDC 1120440'
_chemical_formula_sum 'C16 H20'
_chemical_formula_moiety
;
C16 H20
;
_journal_coeditor_code "IUCr A22806"
_journal_coden_Cambridge 591
_journal_volume 39
_journal_year 1983
_journal_page_first 1584
_journal_name_full 'Acta Crystallogr.,Sect.C:Cryst.Struct.Commun. '
loop_
_publ_author_name
"F.Marchetti"
"O.Piccolo"
_chemical_name_systematic
;
(R)-2,2-Dimethyl-3-(2-naphthyl)-butane
;
_chemical_melting_point 326
_cell_volume    654.480
_exptl_crystal_colour 'colorless'
_exptl_crystal_density_diffrn 1.078
_exptl_special_details
;
Melting point range 326-335K

;
_diffrn_ambient_temperature ?
_diffrn_special_details
;
The study was carried out at room temperature,in the range 283-303K

;
#These two values have been output from a single CSD field.
_refine_ls_R_factor_gt 0.041
_refine_ls_wR_factor_gt 0.041
_symmetry_cell_setting monoclinic
_symmetry_space_group_name_H-M 'P 21'
_symmetry_Int_Tables_number 4
loop_
_symmetry_equiv_pos_site_id
_symmetry_equiv_pos_as_xyz
1 x,y,z
2 -x,1/2+y,-z
_cell_length_a 13.703(8)
_cell_length_b 6.068(4)
_cell_length_c 7.872(6)
_cell_angle_alpha 90
_cell_angle_beta 90.87(7)
_cell_angle_gamma 90
_cell_formula_units_Z 2
loop_
_atom_type_symbol
_atom_type_radius_bond
C 0.68
H 0.23
loop_
_atom_site_label
_atom_site_type_symbol
_atom_site_fract_x
_atom_site_fract_y
_atom_site_fract_z
C1 C 0.36070 0.41430 0.25770
C2 C 0.29850 0.27220 0.33800
C3 C 0.33670 0.06850 0.39470
C4 C 0.43120 0.01150 0.36940
C5 C 0.59580 0.10420 0.26160
C6 C 0.65480 0.24930 0.18170
C7 C 0.61850 0.45210 0.12220
C8 C 0.52370 0.50780 0.14600
C9 C 0.45970 0.36240 0.22930
C10 C 0.49590 0.15630 0.28710
C11 C 0.19300 0.33740 0.36920
C12 C 0.16530 0.28340 0.55420
C13 C 0.11990 0.24410 0.23330
C14 C 0.14500 0.33630 0.05900
C15 C 0.01630 0.32270 0.27190
C16 C 0.12080 -0.00780 0.22620
H1 H 0.33300 0.55100 0.22000
H2 H 0.29600 -0.03800 0.46400
H3 H 0.45600 -0.13600 0.40700
H4 H 0.62000 -0.02300 0.30700
H5 H 0.72200 0.20000 0.17100
H6 H 0.66300 0.57900 0.06300
H7 H 0.49900 0.65400 0.10900
H8 H 0.18900 0.51400 0.35500
H9 H 0.21900 0.32800 0.63700
H10 H 0.10800 0.33600 0.58900
H11 H 0.16100 0.09600 0.57200
H12 H 0.09800 0.27000 -0.03400
H13 H 0.21300 0.30100 0.03500
H14 H 0.14400 0.51000 0.06500
H15 H -0.00500 0.24200 0.38300
H16 H 0.00900 0.46200 0.28700
H17 H -0.03000 0.27100 0.18300
H18 H 0.18600 -0.06400 0.18600
H19 H 0.07100 -0.04700 0.15000
H20 H 0.11200 -0.06600 0.35100
loop_
_geom_bond_atom_site_label_1
_geom_bond_atom_site_label_2
_geom_bond_distance
_geom_bond_site_symmetry_1
_geom_bond_site_symmetry_2
C1 C2 1.373 1_555 1_555
C2 C3 1.412 1_555 1_555
C3 C4 1.358 1_555 1_555
C4 C10 1.413 1_555 1_555
C5 C6 1.356 1_555 1_555
C6 C7 1.405 1_555 1_555
C7 C8 1.358 1_555 1_555
C8 C9 1.412 1_555 1_555
C9 C1 1.414 1_555 1_555
C10 C5 1.422 1_555 1_555
C11 C2 1.522 1_555 1_555
C12 C11 1.546 1_555 1_555
C13 C11 1.561 1_555 1_555
C14 C13 1.526 1_555 1_555
C15 C13 1.532 1_555 1_555
C16 C13 1.530 1_555 1_555
H1 C1 0.957 1_555 1_555
H2 C3 1.018 1_555 1_555
H3 C4 1.001 1_555 1_555
H4 C5 0.911 1_555 1_555
H5 C6 0.973 1_555 1_555
H6 C7 1.091 1_555 1_555
H7 C8 0.992 1_555 1_555
H8 C11 1.079 1_555 1_555
H9 C12 1.012 1_555 1_555
H10 C12 0.894 1_555 1_555
H11 C12 1.147 1_555 1_555
H12 C14 1.048 1_555 1_555
H13 C14 0.977 1_555 1_555
H14 C14 1.055 1_555 1_555
H15 C15 1.048 1_555 1_555
H16 C15 0.860 1_555 1_555
H17 C15 0.989 1_555 1_555
H18 C16 1.012 1_555 1_555
H19 C16 0.933 1_555 1_555
H20 C16 1.053 1_555 1_555
C9 C10 1.418 1_555 1_555
#END
