
#######################################################################
#
#                 Cambridge Crystallographic Data Centre
#                                CCDC
#
#######################################################################
#
# If this CIF has been generated from an entry in the Cambridge
# Structural Database, then it will include bibliographic, chemical,
# crystal, experimental, refinement or atomic coordinate data resulting
# from the CCDC's data processing and validation procedures.
#
#######################################################################

data_CSD_CIF_CAZTAB
_audit_creation_date 2017-05-29
_audit_creation_method CSD-ConQuest-V1
_database_code_CSD CAZTAB
_database_code_depnum_ccdc_archive 'CCDC 1552979'
_chemical_formula_sum 'C38 H20'
_chemical_formula_moiety
;
C38 H20
;
_journal_coden_Cambridge 179
_journal_volume 56
_journal_year 2017
_journal_page_first 4834
_journal_name_full 'Angew.Chem.,Int.Ed. '
loop_
_publ_author_name
"O.Papaianina"
"V.A.Akhmetov"
"A.A.Goryunkov"
"F.Hampel"
"F.W.Heinemann"
"Konstantin Y.Amsharov"
_chemical_name_systematic
;
3,9-diphenyldiindeno[4,3,2,1-cdef:4',3',2',1'-lmno]chrysene
;
_cell_volume   2251.114
_exptl_crystal_colour 'yellow'
_exptl_crystal_density_diffrn 1.406
_exptl_crystal_description 'block'
_diffrn_ambient_temperature 100.2
#These two values have been output from a single CSD field.
_refine_ls_R_factor_gt 0.0423
_refine_ls_wR_factor_gt 0.0423
_symmetry_cell_setting orthorhombic
_symmetry_space_group_name_H-M 'P 21 21 21'
_symmetry_Int_Tables_number 19
loop_
_symmetry_equiv_pos_site_id
_symmetry_equiv_pos_as_xyz
1 x,y,z
2 1/2-x,-y,1/2+z
3 -x,1/2+y,1/2-z
4 1/2+x,1/2-y,-z
_cell_length_a 7.4347(4)
_cell_length_b 14.0208(7)
_cell_length_c 21.5954(10)
_cell_angle_alpha 90
_cell_angle_beta 90
_cell_angle_gamma 90
_cell_formula_units_Z 4
loop_
_atom_type_symbol
_atom_type_radius_bond
C 0.68
H 0.23
loop_
_atom_site_label
_atom_site_type_symbol
_atom_site_fract_x
_atom_site_fract_y
_atom_site_fract_z
C1 C 0.5037(3) 0.60970(14) 0.25166(9)
C2 C 0.5486(3) 0.51566(14) 0.26637(9)
H1 H 0.59490 0.47700 0.23400
C3 C 0.5309(3) 0.47296(14) 0.32572(9)
H2 H 0.57300 0.41000 0.33300
C4 C 0.4517(3) 0.52460(14) 0.37218(9)
C5 C 0.4135(3) 0.51460(14) 0.44098(10)
C6 C 0.4701(3) 0.45952(14) 0.49095(10)
H3 H 0.52650 0.39970 0.48400
C7 C 0.4424(3) 0.49424(14) 0.55467(10)
C8 C 0.5177(3) 0.45914(14) 0.61225(10)
H4 H 0.57330 0.39810 0.61310
C9 C 0.5103(3) 0.51258(14) 0.66611(10)
H5 H 0.55570 0.48490 0.70310
C10 C 0.4368(3) 0.60898(14) 0.66925(9)
C11 C 0.4481(3) 0.67927(14) 0.7174(1)
C12 C 0.4007(3) 0.77301(15) 0.70195(10)
H6 H 0.40910 0.81980 0.73370
C13 C 0.3415(3) 0.80377(15) 0.64299(10)
H7 H 0.31740 0.86930 0.63540
C14 C 0.3195(3) 0.73753(15) 0.59699(9)
C15 C 0.2854(3) 0.73705(14) 0.52755(10)
C16 C 0.2887(3) 0.80106(15) 0.47832(10)
H8 H 0.27580 0.86750 0.48570
C17 C 0.3122(3) 0.76532(14) 0.41491(10)
C18 C 0.3502(3) 0.81639(14) 0.35808(10)
H9 H 0.33960 0.88390 0.35780
C19 C 0.4013(3) 0.77042(15) 0.30439(10)
H10 H 0.41600 0.80750 0.26790
C20 C 0.4339(3) 0.66848(14) 0.30059(9)
C21 C 0.3994(3) 0.62026(14) 0.35541(9)
C22 C 0.3289(3) 0.66769(15) 0.40671(9)
C23 C 0.3262(3) 0.60318(14) 0.45543(9)
C24 C 0.3006(3) 0.63702(14) 0.5126(1)
C25 C 0.3572(3) 0.58152(14) 0.56202(9)
C26 C 0.3641(3) 0.64117(15) 0.61413(10)
C27 C 0.5296(3) 0.64301(14) 0.18672(9)
C28 C 0.6160(3) 0.72858(14) 0.17249(10)
H11 H 0.65620 0.76880 0.20510
C29 C 0.6443(3) 0.75613(15) 0.11126(10)
H12 H 0.70540 0.81400 0.10230
C30 C 0.5829(3) 0.69852(16) 0.06349(10)
H13 H 0.60080 0.71730 0.02170
C31 C 0.4950(3) 0.61326(16) 0.07676(10)
H14 H 0.45280 0.57400 0.04400
C32 C 0.4689(3) 0.58552(14) 0.13763(10)
H15 H 0.40940 0.52710 0.14630
C33 C 0.5035(3) 0.65518(15) 0.78147(9)
C34 C 0.4489(3) 0.56904(15) 0.8087(1)
H16 H 0.38050 0.52460 0.78530
C35 C 0.4940(3) 0.54814(15) 0.8696(1)
H17 H 0.45670 0.48950 0.88750
C36 C 0.5928(3) 0.61213(17) 0.90436(10)
H18 H 0.62460 0.59720 0.94580
C37 C 0.6456(3) 0.69886(16) 0.87831(10)
H19 H 0.71170 0.74350 0.90230
C38 C 0.6020(3) 0.71986(15) 0.81775(10)
H20 H 0.63920 0.77890 0.80030
loop_
_geom_bond_atom_site_label_1
_geom_bond_atom_site_label_2
_geom_bond_distance
_geom_bond_site_symmetry_1
_geom_bond_site_symmetry_2
C1 C2 1.397 1_555 1_555
C2 H1 0.949 1_555 1_555
C3 C2 1.421 1_555 1_555
H2 C3 0.950 1_555 1_555
C4 C3 1.370 1_555 1_555
C5 C4 1.519 1_555 1_555
C6 C5 1.392 1_555 1_555
H3 C6 0.950 1_555 1_555
C7 C6 1.474 1_555 1_555
C8 C7 1.450 1_555 1_555
H4 C8 0.951 1_555 1_555
C9 C8 1.385 1_555 1_555
H5 C9 0.950 1_555 1_555
C10 C9 1.459 1_555 1_555
C11 C10 1.435 1_555 1_555
C12 C11 1.401 1_555 1_555
H6 C12 0.951 1_555 1_555
C13 C12 1.415 1_555 1_555
H7 C13 0.950 1_555 1_555
C14 C13 1.370 1_555 1_555
C15 C14 1.521 1_555 1_555
C16 C15 1.392 1_555 1_555
H8 C16 0.950 1_555 1_555
C17 C16 1.469 1_555 1_555
C18 C17 1.449 1_555 1_555
H9 C18 0.950 1_555 1_555
C19 C18 1.380 1_555 1_555
H10 C19 0.950 1_555 1_555
C20 C1 1.437 1_555 1_555
C21 C4 1.443 1_555 1_555
C22 C17 1.386 1_555 1_555
C23 C5 1.436 1_555 1_555
C24 C15 1.444 1_555 1_555
C25 C7 1.387 1_555 1_555
C26 C10 1.383 1_555 1_555
C27 C1 1.491 1_555 1_555
C28 C27 1.395 1_555 1_555
H11 C28 0.950 1_555 1_555
C29 C28 1.394 1_555 1_555
H12 C29 0.950 1_555 1_555
C30 C29 1.387 1_555 1_555
H13 C30 0.949 1_555 1_555
C31 C30 1.392 1_555 1_555
H14 C31 0.950 1_555 1_555
C32 C27 1.406 1_555 1_555
H15 C32 0.950 1_555 1_555
C33 C11 1.483 1_555 1_555
C34 C33 1.403 1_555 1_555
H16 C34 0.950 1_555 1_555
C35 C34 1.389 1_555 1_555
H17 C35 0.950 1_555 1_555
C36 C35 1.381 1_555 1_555
H18 C36 0.949 1_555 1_555
C37 C36 1.396 1_555 1_555
H19 C37 0.950 1_555 1_555
C38 C33 1.404 1_555 1_555
H20 C38 0.951 1_555 1_555
C14 C26 1.440 1_555 1_555
C19 C20 1.452 1_555 1_555
C20 C21 1.387 1_555 1_555
C21 C22 1.394 1_555 1_555
C22 C23 1.388 1_555 1_555
C23 C24 1.336 1_555 1_555
C24 C25 1.386 1_555 1_555
C25 C26 1.403 1_555 1_555
C31 C32 1.385 1_555 1_555
C37 C38 1.379 1_555 1_555
#END
