
#######################################################################
#
#                 Cambridge Crystallographic Data Centre
#                                CCDC
#
#######################################################################
#
# If this CIF has been generated from an entry in the Cambridge
# Structural Database, then it will include bibliographic, chemical,
# crystal, experimental, refinement or atomic coordinate data resulting
# from the CCDC's data processing and validation procedures.
#
#######################################################################

data_CSD_CIF_CEBJOL
_audit_creation_date 2017-05-30
_audit_creation_method CSD-ConQuest-V1
_database_code_CSD CEBJOL
_database_code_depnum_ccdc_archive 'CCDC 1553034'
_chemical_formula_sum 'C40 H28'
_chemical_formula_moiety
;
C40 H28
;
_journal_coden_Cambridge 179
_journal_volume 56
_journal_year 2017
_journal_page_first 5082
_journal_name_full 'Angew.Chem.,Int.Ed. '
loop_
_publ_author_name
"Chaolumen"
"M.Murata"
"A.Wakamiya"
"Y.Murata"
_chemical_name_systematic
;
5,11-bis(4-methylnaphthalen-1-yl)tetracene
;
_cell_volume   5376.945
_exptl_crystal_colour 'yellow'
_exptl_crystal_density_diffrn 1.257
_exptl_crystal_description 'plate'
_diffrn_ambient_temperature 100
#These two values have been output from a single CSD field.
_refine_ls_R_factor_gt 0.058
_refine_ls_wR_factor_gt 0.058
_symmetry_cell_setting monoclinic
_symmetry_space_group_name_H-M 'C 2/c'
_symmetry_Int_Tables_number 15
loop_
_symmetry_equiv_pos_site_id
_symmetry_equiv_pos_as_xyz
1 x,y,z
2 -x,y,1/2-z
3 1/2+x,1/2+y,z
4 1/2-x,1/2+y,1/2-z
5 -x,-y,-z
6 x,-y,-1/2+z
7 -1/2-x,-1/2-y,-z
8 -1/2+x,-1/2-y,-1/2+z
_cell_length_a 22.926(5)
_cell_length_b 8.7002(18)
_cell_length_c 27.244(6)
_cell_angle_alpha 90
_cell_angle_beta 98.318(3)
_cell_angle_gamma 90
_cell_formula_units_Z 8
loop_
_atom_type_symbol
_atom_type_radius_bond
C 0.68
H 0.23
loop_
_atom_site_label
_atom_site_type_symbol
_atom_site_fract_x
_atom_site_fract_y
_atom_site_fract_z
C1 C 0.37591(17) -0.0473(4) -0.10685(12)
H1 H 0.33730 -0.09470 -0.11730
H2 H 0.40610 -0.12760 -0.10090
H3 H 0.38540 0.02200 -0.13290
C2 C 0.37432(14) 0.0416(4) -0.06024(11)
C3 C 0.42460(13) 0.1214(3) -0.03654(10)
C4 C 0.42173(13) 0.2059(3) 0.00819(10)
C5 C 0.36832(13) 0.2091(3) 0.02834(10)
C6 C 0.36268(12) 0.3008(3) 0.07431(10)
C7 C 0.37158(11) 0.2296(3) 0.12154(10)
C8 C 0.35669(11) 0.3117(3) 0.1641(1)
C9 C 0.36229(12) 0.2363(3) 0.21101(10)
C10 C 0.34211(12) 0.3185(3) 0.25422(10)
C11 C 0.28325(13) 0.3314(4) 0.25719(11)
H4 H 0.25550 0.28420 0.23250
C12 C 0.26277(13) 0.4129(4) 0.29593(11)
H5 H 0.22150 0.41940 0.29660
C13 C 0.30058(13) 0.4828(3) 0.3326(1)
C14 C 0.27777(15) 0.5717(4) 0.37356(11)
H6 H 0.23460 0.56600 0.36910
H7 H 0.29000 0.67940 0.37240
H8 H 0.29390 0.52740 0.40570
C15 C 0.52719(15) 0.1981(4) -0.03271(12)
H9 H 0.56310 0.19510 -0.04620
C16 C 0.47896(14) 0.1206(4) -0.05517(11)
H10 H 0.48200 0.06380 -0.08450
C17 C 0.32219(14) 0.0511(3) -0.03961(10)
H11 H 0.28770 0.00110 -0.05550
C18 C 0.32023(13) 0.1333(3) 0.00406(10)
H12 H 0.28420 0.13690 0.01750
C19 C 0.47264(12) 0.2858(3) 0.0306(1)
H13 H 0.47130 0.34270 0.06020
C20 C 0.52329(14) 0.2818(4) 0.01029(11)
H14 H 0.55670 0.33720 0.02570
C21 C 0.39391(12) 0.0793(3) 0.12794(10)
H15 H 0.40410 0.02540 0.10010
C22 C 0.40152(12) 0.0075(3) 0.17399(10)
C23 C 0.38465(12) 0.0864(3) 0.21605(10)
C24 C 0.36268(13) 0.4711(3) 0.33118(10)
C25 C 0.38319(13) 0.3878(3) 0.29185(10)
C26 C 0.44470(13) 0.3759(4) 0.29169(11)
H16 H 0.45900 0.31930 0.26610
C27 C 0.48406(14) 0.4444(4) 0.32773(11)
H17 H 0.52520 0.43510 0.32700
C28 C 0.46356(14) 0.5282(4) 0.36577(11)
H18 H 0.49100 0.57660 0.39050
C29 C 0.40509(14) 0.5406(3) 0.36758(10)
H19 H 0.39210 0.59720 0.39380
C30 C 0.33654(11) 0.4646(3) 0.15791(10)
H20 H 0.32620 0.51900 0.18560
C31 C 0.33153(11) 0.5373(3) 0.11216(10)
C32 C 0.31185(12) 0.6932(3) 0.10558(11)
H21 H 0.30180 0.74880 0.13310
C33 C 0.30743(12) 0.7618(3) 0.06108(11)
H22 H 0.29510 0.86600 0.05780
C34 C 0.32080(13) 0.6817(3) 0.01889(11)
H23 H 0.31770 0.73270 -0.01220
C35 C 0.33797(12) 0.5323(3) 0.02264(10)
H24 H 0.34570 0.47900 -0.00610
C36 C 0.34460(12) 0.4540(3) 0.06941(10)
C37 C 0.39007(14) 0.0059(4) 0.26225(11)
H25 H 0.37940 0.05580 0.29070
C38 C 0.41055(15) -0.1427(4) 0.26598(12)
H26 H 0.41300 -0.19560 0.29670
C39 C 0.42788(14) -0.2168(4) 0.22476(12)
H27 H 0.44250 -0.31900 0.22820
C40 C 0.42420(13) -0.1458(3) 0.18016(11)
H28 H 0.43670 -0.19790 0.15290
loop_
_geom_bond_atom_site_label_1
_geom_bond_atom_site_label_2
_geom_bond_distance
_geom_bond_site_symmetry_1
_geom_bond_site_symmetry_2
C1 H1 0.981 1_555 1_555
H2 C1 0.980 1_555 1_555
H3 C1 0.979 1_555 1_555
C2 C1 1.492 1_555 1_555
C3 C2 1.419 1_555 1_555
C4 C3 1.433 1_555 1_555
C5 C4 1.413 1_555 1_555
C6 C5 1.506 1_555 1_555
C7 C6 1.416 1_555 1_555
C8 C7 1.444 1_555 1_555
C9 C8 1.426 1_555 1_555
C10 C9 1.506 1_555 1_555
C11 C10 1.368 1_555 1_555
H4 C11 0.950 1_555 1_555
C12 C11 1.407 1_555 1_555
H5 C12 0.951 1_555 1_555
C13 C12 1.367 1_555 1_555
C14 C13 1.512 1_555 1_555
H6 C14 0.981 1_555 1_555
H7 C14 0.980 1_555 1_555
H8 C14 0.979 1_555 1_555
C15 H9 0.949 1_555 1_555
C16 C3 1.412 1_555 1_555
H10 C16 0.951 1_555 1_555
C17 C2 1.395 1_555 1_555
H11 C17 0.950 1_555 1_555
C18 C5 1.370 1_555 1_555
H12 C18 0.951 1_555 1_555
C19 C4 1.418 1_555 1_555
H13 C19 0.951 1_555 1_555
C20 C15 1.393 1_555 1_555
H14 C20 0.950 1_555 1_555
C21 C7 1.406 1_555 1_555
H15 C21 0.949 1_555 1_555
C22 C21 1.390 1_555 1_555
C23 C9 1.401 1_555 1_555
C24 C13 1.433 1_555 1_555
C25 C10 1.422 1_555 1_555
C26 C25 1.415 1_555 1_555
H16 C26 0.950 1_555 1_555
C27 C26 1.370 1_555 1_555
H17 C27 0.950 1_555 1_555
C28 C27 1.403 1_555 1_555
H18 C28 0.951 1_555 1_555
C29 C24 1.420 1_555 1_555
H19 C29 0.950 1_555 1_555
C30 C8 1.410 1_555 1_555
H20 C30 0.949 1_555 1_555
C31 C30 1.388 1_555 1_555
C32 C31 1.432 1_555 1_555
H21 C32 0.948 1_555 1_555
C33 C32 1.342 1_555 1_555
H22 C33 0.950 1_555 1_555
C34 C33 1.415 1_555 1_555
H23 C34 0.950 1_555 1_555
C35 C34 1.358 1_555 1_555
H24 C35 0.949 1_555 1_555
C36 C6 1.396 1_555 1_555
C37 C23 1.430 1_555 1_555
H25 C37 0.951 1_555 1_555
C38 C37 1.374 1_555 1_555
H26 C38 0.950 1_555 1_555
C39 C38 1.401 1_555 1_555
H27 C39 0.950 1_555 1_555
C40 C22 1.433 1_555 1_555
H28 C40 0.949 1_555 1_555
C15 C16 1.362 1_555 1_555
C17 C18 1.394 1_555 1_555
C19 C20 1.357 1_555 1_555
C22 C23 1.436 1_555 1_555
C24 C25 1.428 1_555 1_555
C28 C29 1.353 1_555 1_555
C31 C36 1.440 1_555 1_555
C35 C36 1.433 1_555 1_555
C39 C40 1.355 1_555 1_555
#END
