
#######################################################################
#
#                 Cambridge Crystallographic Data Centre
#                                CCDC
#
#######################################################################
#
# If this CIF has been generated from an entry in the Cambridge
# Structural Database, then it will include bibliographic, chemical,
# crystal, experimental, refinement or atomic coordinate data resulting
# from the CCDC's data processing and validation procedures.
#
#######################################################################

data_CSD_CIF_CEGCAS01
_audit_creation_date 1989-05-23
_audit_creation_method CSD-ConQuest-V1
_database_code_CSD CEGCAS01
_chemical_formula_sum 'C28 H14'
_chemical_formula_moiety
;
C28 H14
;
_journal_coden_Cambridge 4
_journal_volume 110
_journal_year 1988
_journal_page_first 3578
_journal_name_full 'J.Am.Chem.Soc. '
loop_
_publ_author_name
"K.Yamamoto"
"T.Harada"
"Y.Okamoto"
"H.Chikamatsu"
"M.Nakazaki"
"Y.Kai"
"T.Nakao"
"M.Tanaka"
"S.Harada"
"N.Kasai"
_chemical_name_systematic
;
(7)Circulene
;
_chemical_name_common
;
Dinaphtho(2,1,8,7-ghij:2',1',8',7'-nopq)pleiadene
;
_chemical_melting_point 568.15
_cell_volume   1651.369
_exptl_crystal_colour 'yellow'
_exptl_crystal_density_diffrn 1.409
_exptl_special_details
;
Melting point range 568.15-569.15K

;
_diffrn_ambient_temperature 163.15
#These two values have been output from a single CSD field.
_refine_ls_R_factor_gt 0.105
_refine_ls_wR_factor_gt 0.105
_symmetry_cell_setting monoclinic
_symmetry_space_group_name_H-M 'C 2/c'
_symmetry_Int_Tables_number 15
loop_
_symmetry_equiv_pos_site_id
_symmetry_equiv_pos_as_xyz
1 x,y,z
2 1/2+x,1/2+y,z
3 -x,y,1/2-z
4 1/2-x,1/2+y,1/2-z
5 -x,-y,-z
6 -1/2-x,-1/2-y,-z
7 x,-y,-1/2+z
8 -1/2+x,-1/2-y,-1/2+z
_cell_length_a 13.072(4)
_cell_length_b 11.604(4)
_cell_length_c 10.935(6)
_cell_angle_alpha 90
_cell_angle_beta 95.39(3)
_cell_angle_gamma 90
_cell_formula_units_Z 4
loop_
_atom_type_symbol
_atom_type_radius_bond
C 0.68
H 0.23
loop_
_atom_site_label
_atom_site_type_symbol
_atom_site_fract_x
_atom_site_fract_y
_atom_site_fract_z
C1 C 0.00000 0.1076(3) 0.25000
C2 C 0.00000 0.2308(3) 0.25000
C3 C 0.0307(2) 0.2943(2) 0.1486(3)
C4 C 0.0753(2) 0.2413(2) 0.0579(3)
C5 C 0.1022(2) 0.1229(2) 0.0725(2)
C6 C 0.1832(2) 0.0858(3) 0.0029(3)
C7 C 0.2330(2) -0.0127(3) 0.0348(3)
C8 C 0.1944(2) -0.0899(3) 0.1206(3)
C9 C 0.2488(2) -0.1946(3) 0.1428(3)
C10 C 0.2055(3) -0.2827(3) 0.1984(3)
C11 C 0.1027(3) -0.2731(2) 0.2285(3)
C12 C 0.0514(2) -0.1642(2) 0.2287(2)
C13 C 0.1009(2) -0.0670(2) 0.1747(2)
C14 C 0.0623(2) 0.0516(2) 0.1632(2)
C15 C 0.0510(3) -0.3790(2) 0.2459(3)
H1 H 0.020(3) 0.380(3) 0.146(3)
H2 H 0.096(3) 0.284(3) -0.015(3)
H3 H 0.204(3) 0.137(3) -0.064(3)
H4 H 0.298(3) -0.033(3) -0.003(3)
H5 H 0.317(3) -0.202(3) 0.112(3)
H6 H 0.244(3) -0.355(3) 0.214(3)
H7 H 0.092(3) -0.453(3) 0.247(3)
C14B C -0.0623(2) 0.0516(2) 0.3368(2)
C3B C -0.0307(2) 0.2943(2) 0.3514(3)
C12B C -0.0514(2) -0.1642(2) 0.2713(2)
C15B C -0.0510(3) -0.3790(2) 0.2541(3)
C5B C -0.1022(2) 0.1229(2) 0.4275(2)
C13B C -0.1009(2) -0.0670(2) 0.3253(2)
C4B C -0.0753(2) 0.2413(2) 0.4421(3)
H1B H -0.020(3) 0.380(3) 0.354(3)
C11B C -0.1027(3) -0.2731(2) 0.2715(3)
H7B H -0.092(3) -0.453(3) 0.253(3)
C6B C -0.1832(2) 0.0858(3) 0.4971(3)
C8B C -0.1944(2) -0.0899(3) 0.3794(3)
H2B H -0.096(3) 0.284(3) 0.515(3)
C10B C -0.2055(3) -0.2827(3) 0.3016(3)
C7B C -0.2330(2) -0.0127(3) 0.4652(3)
H3B H -0.204(3) 0.137(3) 0.564(3)
C9B C -0.2488(2) -0.1946(3) 0.3572(3)
H6B H -0.244(3) -0.355(3) 0.286(3)
H4B H -0.298(3) -0.033(3) 0.503(3)
H5B H -0.317(3) -0.202(3) 0.388(3)
loop_
_geom_bond_atom_site_label_1
_geom_bond_atom_site_label_2
_geom_bond_distance
_geom_bond_site_symmetry_1
_geom_bond_site_symmetry_2
C1 C2 1.430 1_555 1_555
C2 C3 1.420 1_555 1_555
C3 C4 1.346 1_555 1_555
C4 C5 1.423 1_555 1_555
C5 C6 1.427 1_555 1_555
C6 C7 1.345 1_555 1_555
C7 C8 1.423 1_555 1_555
C8 C9 1.417 1_555 1_555
C9 C10 1.342 1_555 1_555
C10 C11 1.418 1_555 1_555
C11 C12 1.431 1_555 1_555
C12 C13 1.453 1_555 1_555
C13 C8 1.432 1_555 1_555
C14 C1 1.460 1_555 1_555
C15 C11 1.424 1_555 1_555
H1 C3 1.004 1_555 1_555
H2 C4 0.997 1_555 1_555
H3 C6 1.000 1_555 1_555
H4 C7 1.007 1_555 1_555
H5 C9 0.986 1_555 1_555
H6 C10 0.985 1_555 1_555
H7 C15 1.012 1_555 1_555
C14B C1 1.460 1_555 1_555
C3B C2 1.420 1_555 1_555
C12B C12 1.463 1_555 1_555
C15B C15 1.345 1_555 1_555
C5B C14B 1.427 1_555 1_555
C13B C14B 1.467 1_555 1_555
C4B C3B 1.346 1_555 1_555
H1B C3B 1.004 1_555 1_555
C11B C12B 1.431 1_555 1_555
H7B C15B 1.012 1_555 1_555
C6B C5B 1.427 1_555 1_555
C8B C13B 1.432 1_555 1_555
H2B C4B 0.997 1_555 1_555
C10B C11B 1.418 1_555 1_555
C7B C6B 1.345 1_555 1_555
H3B C6B 1.000 1_555 1_555
C9B C8B 1.417 1_555 1_555
H6B C10B 0.985 1_555 1_555
H4B C7B 1.007 1_555 1_555
H5B C9B 0.986 1_555 1_555
C5 C14 1.427 1_555 1_555
C13 C14 1.467 1_555 1_555
C12B C13B 1.453 1_555 1_555
C15B C11B 1.424 1_555 1_555
C5B C4B 1.423 1_555 1_555
C8B C7B 1.423 1_555 1_555
C10B C9B 1.342 1_555 1_555
#END
