
#######################################################################
#
#                 Cambridge Crystallographic Data Centre
#                                CCDC
#
#######################################################################
#
# If this CIF has been generated from an entry in the Cambridge
# Structural Database, then it will include bibliographic, chemical,
# crystal, experimental, refinement or atomic coordinate data resulting
# from the CCDC's data processing and validation procedures.
#
#######################################################################

data_CSD_CIF_CEKREP
_audit_creation_date 1984-11-14
_audit_creation_method CSD-ConQuest-V1
_database_code_CSD CEKREP
_chemical_formula_sum 'C14 H16'
_chemical_formula_moiety
;
C14 H16
;
_journal_coeditor_code "IUCr A23484"
_journal_coden_Cambridge 591
_journal_volume 40
_journal_year 1984
_journal_page_first 540
_journal_name_full 'Acta Crystallogr.,Sect.C:Cryst.Struct.Commun. '
loop_
_publ_author_name
"C.S.Shiner"
"J.Noordik"
"A.M.Fisher"
"D.M.Eckley"
"J.Bodenhamer"
"R.C.Haltiwanger"
_chemical_name_systematic
;
1,4,5,8-Tetramethylnaphthalene
;
_chemical_melting_point 405
_cell_volume    517.317
_exptl_crystal_colour 'colorless'
_exptl_crystal_density_diffrn 1.18
_exptl_special_details
;
Melting point range 405-406.6K

;
_diffrn_ambient_temperature ?
_diffrn_special_details
;
The study was carried out at room temperature,in the range 283-303K

;
#These two values have been output from a single CSD field.
_refine_ls_R_factor_gt 0.045
_refine_ls_wR_factor_gt 0.045
_symmetry_cell_setting monoclinic
_symmetry_space_group_name_H-M 'P 21/n'
_symmetry_Int_Tables_number 14
loop_
_symmetry_equiv_pos_site_id
_symmetry_equiv_pos_as_xyz
1 x,y,z
2 1/2-x,1/2+y,1/2-z
3 -x,-y,-z
4 -1/2+x,-1/2-y,-1/2+z
_cell_length_a 7.962(3)
_cell_length_b 5.205(1)
_cell_length_c 12.922(4)
_cell_angle_alpha 90
_cell_angle_beta 104.98(2)
_cell_angle_gamma 90
_cell_formula_units_Z 2
loop_
_atom_type_symbol
_atom_type_radius_bond
C 0.68
H 0.23
loop_
_atom_site_label
_atom_site_type_symbol
_atom_site_fract_x
_atom_site_fract_y
_atom_site_fract_z
C1 C 0.54750 0.10060 0.53600
C2 C 0.47580 0.19510 0.61990
C3 C 0.70910 0.19090 0.52000
C4 C 0.76720 0.09280 0.43770
C5 C 0.32300 0.09380 0.63070
C6 C 0.55240 0.40710 0.69840
C7 C 0.82440 0.39490 0.58680
H1 H 0.67200 0.34200 0.74300
H2 H 0.56700 0.55700 0.66900
H3 H 0.46500 0.45800 0.74200
H4 H 0.77400 0.55800 0.58100
H5 H 0.85300 0.35900 0.65900
H6 H 0.93800 0.38100 0.56600
H7 H 0.27800 0.19000 0.68700
H8 H 0.88100 0.16600 0.42800
C1B C 0.45250 -0.10060 0.46400
C5B C 0.67700 -0.09380 0.36930
C4B C 0.23280 -0.09280 0.56230
C2B C 0.52420 -0.19510 0.38010
C3B C 0.29090 -0.19090 0.48000
H7B H 0.72200 -0.19000 0.31300
H8B H 0.11900 -0.16600 0.57200
C6B C 0.44760 -0.40710 0.30160
C7B C 0.17560 -0.39490 0.41320
H1B H 0.32800 -0.34200 0.25700
H2B H 0.43300 -0.55700 0.33100
H3B H 0.53500 -0.45800 0.25800
H4B H 0.22600 -0.55800 0.41900
H5B H 0.14700 -0.35900 0.34100
H6B H 0.06200 -0.38100 0.43400
loop_
_geom_bond_atom_site_label_1
_geom_bond_atom_site_label_2
_geom_bond_distance
_geom_bond_site_symmetry_1
_geom_bond_site_symmetry_2
C1 C2 1.436 1_555 1_555
C2 C5 1.366 1_555 1_555
C3 C1 1.434 1_555 1_555
C4 C3 1.364 1_555 1_555
C5 H7 1.021 1_555 1_555
C6 C2 1.516 1_555 1_555
C7 C3 1.518 1_555 1_555
H1 C6 1.034 1_555 1_555
H2 C6 0.888 1_555 1_555
H3 C6 1.037 1_555 1_555
H4 C7 0.934 1_555 1_555
H5 C7 0.921 1_555 1_555
H6 C7 1.011 1_555 1_555
H8 C4 1.020 1_555 1_555
C1B C1 1.473 1_555 1_555
C5B C4 1.383 1_555 1_555
C4B C5 1.383 1_555 1_555
C2B C1B 1.436 1_555 1_555
C3B C1B 1.434 1_555 1_555
H7B C5B 1.021 1_555 1_555
H8B C4B 1.020 1_555 1_555
C6B C2B 1.516 1_555 1_555
C7B C3B 1.518 1_555 1_555
H1B C6B 1.034 1_555 1_555
H2B C6B 0.888 1_555 1_555
H3B C6B 1.037 1_555 1_555
H4B C7B 0.934 1_555 1_555
H5B C7B 0.921 1_555 1_555
H6B C7B 1.011 1_555 1_555
C5B C2B 1.366 1_555 1_555
C4B C3B 1.364 1_555 1_555
#END
