
#######################################################################
#
#                 Cambridge Crystallographic Data Centre
#                                CCDC
#
#######################################################################
#
# If this CIF has been generated from an entry in the Cambridge
# Structural Database, then it will include bibliographic, chemical,
# crystal, experimental, refinement or atomic coordinate data resulting
# from the CCDC's data processing and validation procedures.
#
#######################################################################

data_CSD_CIF_CEKREP01
_audit_creation_date 1986-02-24
_audit_creation_method CSD-ConQuest-V1
_database_code_CSD CEKREP01
_chemical_formula_sum 'C14 H16'
_chemical_formula_moiety
;
C14 H16
;
_journal_coden_Cambridge 4
_journal_volume 107
_journal_year 1985
_journal_page_first 2341
_journal_name_full 'J.Am.Chem.Soc. '
loop_
_publ_author_name
"F.Imashiro"
"K.Takegoshi"
"A.Saika"
"Z.Taira"
"Y.Asahi"
_chemical_name_systematic
;
1,4,5,8-Tetramethylnaphthalene
;
_cell_volume    513.597
_exptl_crystal_density_diffrn 1.192
_exptl_special_details
;
No H atoms retained (many bond discrepancies)

;
_diffrn_ambient_temperature ?
_diffrn_special_details
;
The study was carried out at room temperature,in the range 283-303K

;
#These two values have been output from a single CSD field.
_refine_ls_R_factor_gt 0.0548
_refine_ls_wR_factor_gt 0.0548
_symmetry_cell_setting monoclinic
_symmetry_space_group_name_H-M 'P 21/n'
_symmetry_Int_Tables_number 14
loop_
_symmetry_equiv_pos_site_id
_symmetry_equiv_pos_as_xyz
1 x,y,z
2 1/2-x,1/2+y,1/2-z
3 -x,-y,-z
4 -1/2+x,-1/2-y,-1/2+z
_cell_length_a 7.948(2)
_cell_length_b 5.190(3)
_cell_length_c 12.887(2)
_cell_angle_alpha 90
_cell_angle_beta 104.95(2)
_cell_angle_gamma 90
_cell_formula_units_Z 2
loop_
_atom_type_symbol
_atom_type_radius_bond
C 0.68
loop_
_atom_site_label
_atom_site_type_symbol
_atom_site_fract_x
_atom_site_fract_y
_atom_site_fract_z
C1 C 0.4529(2) 0.5982(3) 0.4642(1)
C2 C 0.5240(2) 0.6954(4) 0.3793(1)
C3 C 0.6776(2) 0.5950(4) 0.3691(1)
C4 C 0.7668(2) 0.4050(4) 0.4364(2)
C5 C 0.2903(2) 0.6919(4) 0.4801(1)
C6 C 0.4476(3) 0.9069(4) 0.3017(1)
C7 C 0.1753(3) 0.8955(4) 0.4131(2)
C1B C 0.5471(2) 0.4018(3) 0.5358(1)
C5B C 0.7097(2) 0.3081(4) 0.5199(1)
C4B C 0.2332(2) 0.5950(4) 0.5636(2)
C2B C 0.4760(2) 0.3046(4) 0.6207(1)
C7B C 0.8247(3) 0.1045(4) 0.5869(2)
C3B C 0.3224(2) 0.4050(4) 0.6309(1)
C6B C 0.5524(3) 0.0931(4) 0.6983(1)
loop_
_geom_bond_atom_site_label_1
_geom_bond_atom_site_label_2
_geom_bond_distance
_geom_bond_site_symmetry_1
_geom_bond_site_symmetry_2
C1 C2 1.446 1_555 1_555
C2 C3 1.365 1_555 1_555
C3 C4 1.382 1_555 1_555
C4 C5B 1.367 1_555 1_555
C5 C1 1.444 1_555 1_555
C6 C2 1.503 1_555 1_555
C7 C5 1.513 1_555 1_555
C1B C1 1.447 1_555 1_555
C5B C1B 1.444 1_555 1_555
C4B C5 1.367 1_555 1_555
C2B C1B 1.446 1_555 1_555
C7B C5B 1.513 1_555 1_555
C3B C4B 1.382 1_555 1_555
C6B C2B 1.503 1_555 1_555
C2B C3B 1.365 1_555 1_555
#END
