
#######################################################################
#
#                 Cambridge Crystallographic Data Centre
#                                CCDC
#
#######################################################################
#
# If this CIF has been generated from an entry in the Cambridge
# Structural Database, then it will include bibliographic, chemical,
# crystal, experimental, refinement or atomic coordinate data resulting
# from the CCDC's data processing and validation procedures.
#
#######################################################################

data_CSD_CIF_CENYAV
_audit_creation_date 1984-11-14
_audit_creation_method CSD-ConQuest-V1
_database_code_CSD CENYAV
_database_code_depnum_ccdc_archive 'CCDC 1123157'
_chemical_formula_sum 'C42 H24'
_chemical_formula_moiety
;
C42 H24
;
_journal_coden_Cambridge 48
_journal_volume 117
_journal_year 1984
_journal_page_first 260
_journal_name_full 'Chem.Ber. '
loop_
_publ_author_name
"P.Wahl"
"C.Krieger"
"D.Schweitzer"
"H.A.Staab"
_chemical_name_systematic
;
trans-1,8-bis(1-Pyrenyl)-naphthalene
;
_chemical_melting_point 535.15
_cell_volume   1378.340
_exptl_crystal_colour 'colorless'
_exptl_crystal_density_diffrn 1.27
_exptl_special_details
;
Melting point range 535.15-539.15K

;
_diffrn_ambient_temperature ?
_diffrn_special_details
;
The study was carried out at room temperature,in the range 283-303K

;
#These two values have been output from a single CSD field.
_refine_ls_R_factor_gt 0.038
_refine_ls_wR_factor_gt 0.038
loop_
_citation_database_id_CSD
_citation_special_details
CENXUO "is a stereoisomer of this entry"
_symmetry_cell_setting monoclinic
_symmetry_space_group_name_H-M 'P 21'
_symmetry_Int_Tables_number 4
loop_
_symmetry_equiv_pos_site_id
_symmetry_equiv_pos_as_xyz
1 x,y,z
2 -x,1/2+y,-z
_cell_length_a 8.581(1)
_cell_length_b 10.971(1)
_cell_length_c 14.655(2)
_cell_angle_alpha 90
_cell_angle_beta 92.50(2)
_cell_angle_gamma 90
_cell_formula_units_Z 2
loop_
_atom_type_symbol
_atom_type_radius_bond
C 0.68
H 0.23
loop_
_atom_site_label
_atom_site_type_symbol
_atom_site_fract_x
_atom_site_fract_y
_atom_site_fract_z
C1 C 0.03990 0.17000 0.34450
C2 C -0.09120 0.19520 0.39290
C3 C -0.17570 0.10470 0.43480
C4 C -0.13190 -0.01160 0.42940
C5 C -0.00010 -0.04470 0.38010
C6 C 0.04390 -0.16790 0.37610
C7 C 0.16700 -0.20300 0.33050
C8 C 0.25740 -0.11560 0.28570
C9 C 0.22040 0.00520 0.28690
C10 C 0.08840 0.04580 0.33580
C11 C 0.11790 0.27750 0.30320
C12 C 0.04620 0.33520 0.22800
C13 C 0.11360 0.43210 0.18570
C14 C 0.25830 0.47740 0.21730
C15 C 0.32870 0.42460 0.29760
C16 C 0.33940 0.57100 0.17090
C17 C 0.48040 0.60960 0.20220
C18 C 0.55380 0.56230 0.28410
C19 C 0.47550 0.46980 0.33230
C20 C 0.70050 0.60100 0.31970
C21 C 0.76580 0.55350 0.39790
C22 C 0.68900 0.46640 0.44670
C23 C 0.54500 0.42180 0.41380
C24 C 0.46590 0.32590 0.45810
C25 C 0.33170 0.27860 0.42350
C26 C 0.25770 0.32640 0.34120
C27 C 0.32140 0.08640 0.23330
C28 C 0.47170 0.11440 0.26710
C29 C 0.56810 0.18880 0.22030
C30 C 0.52040 0.24120 0.13750
C31 C 0.36960 0.21180 0.10000
C32 C 0.61590 0.32440 0.08850
C33 C 0.56500 0.37450 0.01120
C34 C 0.41370 0.34940 -0.02900
C35 C 0.31620 0.26520 0.01600
C36 C 0.35430 0.40330 -0.10890
C37 C 0.21140 0.37580 -0.14610
C38 C 0.11550 0.29250 -0.10410
C39 C 0.16760 0.23710 -0.02170
C40 C 0.07400 0.15260 0.02420
C41 C 0.12210 0.10240 0.10530
C42 C 0.27170 0.13210 0.14730
H1 H -0.12100 0.28100 0.39100
H2 H -0.27100 0.12700 0.46900
H3 H -0.18300 -0.07500 0.45900
H4 H -0.01600 -0.22900 0.40500
H5 H 0.19600 -0.28700 0.32500
H6 H 0.34600 -0.14100 0.25400
H7 H -0.04800 0.30100 0.20400
H8 H 0.06400 0.47300 0.12800
H9 H 0.28700 0.60100 0.11400
H10 H 0.54000 0.66700 0.16700
H11 H 0.74700 0.65500 0.27900
H12 H 0.87500 0.58000 0.42500
H13 H 0.73900 0.42100 0.50800
H14 H 0.50900 0.29200 0.51200
H15 H 0.28200 0.21400 0.45300
H16 H 0.50000 0.07700 0.32600
H17 H 0.67400 0.20900 0.24600
H18 H 0.72800 0.34400 0.12200
H19 H 0.62800 0.43800 -0.02000
H20 H 0.42400 0.46600 -0.14000
H21 H 0.16000 0.40800 -0.20700
H22 H 0.01700 0.26600 -0.13100
H23 H -0.02300 0.13300 -0.00100
H24 H 0.05300 0.05200 0.13600
loop_
_geom_bond_atom_site_label_1
_geom_bond_atom_site_label_2
_geom_bond_distance
_geom_bond_site_symmetry_1
_geom_bond_site_symmetry_2
C1 C2 1.384 1_555 1_555
C2 C3 1.388 1_555 1_555
C3 C4 1.333 1_555 1_555
C4 C5 1.416 1_555 1_555
C5 C6 1.405 1_555 1_555
C6 C7 1.331 1_555 1_555
C7 C8 1.413 1_555 1_555
C8 C9 1.363 1_555 1_555
C9 C10 1.437 1_555 1_555
C10 C1 1.432 1_555 1_555
C11 C1 1.497 1_555 1_555
C12 C11 1.391 1_555 1_555
C13 C12 1.371 1_555 1_555
C14 C13 1.398 1_555 1_555
C15 C14 1.422 1_555 1_555
C16 C14 1.429 1_555 1_555
C17 C16 1.344 1_555 1_555
C18 C17 1.429 1_555 1_555
C19 C15 1.427 1_555 1_555
C20 C18 1.407 1_555 1_555
C21 C20 1.358 1_555 1_555
C22 C21 1.378 1_555 1_555
C23 C19 1.413 1_555 1_555
C24 C23 1.424 1_555 1_555
C25 C24 1.342 1_555 1_555
C26 C11 1.407 1_555 1_555
C27 C9 1.490 1_555 1_555
C28 C27 1.395 1_555 1_555
C29 C28 1.368 1_555 1_555
C30 C29 1.388 1_555 1_555
C31 C30 1.421 1_555 1_555
C32 C30 1.439 1_555 1_555
C33 C32 1.316 1_555 1_555
C34 C33 1.429 1_555 1_555
C35 C31 1.421 1_555 1_555
C36 C34 1.389 1_555 1_555
C37 C36 1.354 1_555 1_555
C38 C37 1.391 1_555 1_555
C39 C35 1.402 1_555 1_555
C40 C39 1.416 1_555 1_555
C41 C40 1.358 1_555 1_555
C42 C27 1.405 1_555 1_555
H1 C2 0.976 1_555 1_555
H2 C3 1.008 1_555 1_555
H3 C4 0.939 1_555 1_555
H4 C6 0.955 1_555 1_555
H5 C7 0.959 1_555 1_555
H6 C8 0.950 1_555 1_555
H7 C12 0.945 1_555 1_555
H8 C13 1.033 1_555 1_555
H9 C16 0.986 1_555 1_555
H10 C17 0.973 1_555 1_555
H11 C20 0.942 1_555 1_555
H12 C21 1.043 1_555 1_555
H13 C22 1.098 1_555 1_555
H14 C24 0.935 1_555 1_555
H15 C25 0.942 1_555 1_555
H16 C28 0.977 1_555 1_555
H17 C29 0.993 1_555 1_555
H18 C32 1.082 1_555 1_555
H19 C33 1.004 1_555 1_555
H20 C36 1.031 1_555 1_555
H21 C37 1.040 1_555 1_555
H22 C38 0.962 1_555 1_555
H23 C40 0.921 1_555 1_555
H24 C41 0.940 1_555 1_555
C5 C10 1.424 1_555 1_555
C15 C26 1.405 1_555 1_555
C18 C19 1.422 1_555 1_555
C22 C23 1.395 1_555 1_555
C25 C26 1.437 1_555 1_555
C31 C42 1.415 1_555 1_555
C34 C35 1.427 1_555 1_555
C38 C39 1.407 1_555 1_555
C41 C42 1.437 1_555 1_555
#END
