
#######################################################################
#
#                 Cambridge Crystallographic Data Centre
#                                CCDC
#
#######################################################################
#
# If this CIF has been generated from an entry in the Cambridge
# Structural Database, then it will include bibliographic, chemical,
# crystal, experimental, refinement or atomic coordinate data resulting
# from the CCDC's data processing and validation procedures.
#
#######################################################################

data_CSD_CIF_CEQGEL01
_audit_creation_date 2018-03-16
_audit_creation_method CSD-ConQuest-V1
_database_code_CSD CEQGEL01
_database_code_depnum_ccdc_archive 'CCDC 1830499'
_chemical_formula_sum 'C20 H12'
_chemical_formula_moiety
;
C20 H12
;
_journal_coden_Cambridge 557
_journal_volume 18
_journal_year 1997
_journal_page_first 415
_journal_name_full 'Carcinogenesis '
loop_
_publ_author_name
"C.J.Carrell"
"T.G.Carrell"
"H.L.Carrell"
"K.Prout"
"J.P.Glusker"
_chemical_name_systematic
;
benzo[e]pyrene
;
_cell_volume   1231.769
_diffrn_ambient_temperature 120
_symmetry_cell_setting triclinic
_symmetry_space_group_name_H-M 'P -1'
_symmetry_Int_Tables_number 2
loop_
_symmetry_equiv_pos_site_id
_symmetry_equiv_pos_as_xyz
1 x,y,z
2 -x,-y,-z
_cell_length_a 11.307(5)
_cell_length_b 11.537(4)
_cell_length_c 11.006(5)
_cell_angle_alpha 106.44(2)
_cell_angle_beta 114.70(2)
_cell_angle_gamma 74.30(3)
_cell_formula_units_Z 4
loop_
_atom_type_symbol
_atom_type_radius_bond
C 0.68
H 0.23
loop_
_atom_site_label
_atom_site_type_symbol
_atom_site_fract_x
_atom_site_fract_y
_atom_site_fract_z
C1 C 0.2250(1) 0.1051(1) 0.3972(1)
C2 C 0.1417(1) 0.1491(1) 0.4702(1)
C3 C 0.0243(1) 0.1069(1) 0.4242(1)
C4 C -0.1335(1) -0.0268(1) 0.2544(1)
C5 C -0.1698(1) -0.1099(1) 0.1368(1)
C6 C -0.1255(1) -0.2430(1) -0.0644(1)
C7 C 0.3964(1) 0.0153(1) 0.2376(1)
C8 C 0.4758(1) -0.0269(1) 0.1616(1)
C9 C 0.4391(1) -0.1137(1) 0.0413(1)
C10 C 0.3239(1) -0.1576(1) -0.0010(1)
C11 C 0.2398(1) -0.1158(1) 0.0739(1)
C12 C 0.2775(1) -0.0278(1) 0.1960(1)
C13 C -0.0125(1) 0.0190(1) 0.3034(1)
C14 C 0.1919(1) 0.0179(1) 0.2755(1)
C15 C 0.0723(1) -0.0261(1) 0.2280(1)
C16 C 0.0333(1) -0.11444(9) 0.1032(1)
C17 C -0.0878(1) -0.1564(1) 0.0573(1)
C18 C 0.1155(1) -0.1601(1) 0.0256(1)
C19 C 0.0732(1) -0.2459(1) -0.0954(1)
C20 C -0.0453(1) -0.2869(1) -0.1394(1)
H1 H 0.305(2) 0.134(2) 0.431(2)
H2 H 0.168(2) 0.211(2) 0.553(2)
H3 H -0.034(1) 0.139(1) 0.474(2)
H4 H -0.187(1) 0.006(1) 0.308(2)
H5 H -0.253(2) -0.137(2) 0.104(2)
H6 H -0.207(1) -0.269(1) -0.094(2)
H7 H 0.421(1) 0.075(1) 0.316(2)
H8 H 0.554(2) 0.002(2) 0.193(2)
H9 H 0.494(2) -0.145(2) -0.011(2)
H10 H 0.300(2) -0.215(2) -0.081(2)
H11 H 0.127(2) -0.281(2) -0.150(2)
H12 H -0.070(2) -0.339(2) -0.218(2)
C21 C 0.1080(1) 0.5894(1) 0.4041(1)
C22 C 0.0702(1) 0.6342(1) 0.2861(1)
C23 C 0.1484(1) 0.5965(1) 0.2085(1)
C24 C 0.3494(1) 0.4737(1) 0.1701(1)
C25 C 0.4621(1) 0.3919(1) 0.2072(1)
C26 C 0.6192(1) 0.2535(1) 0.3635(1)
C27 C 0.1914(1) 0.4978(1) 0.6560(1)
C28 C 0.2310(1) 0.4526(1) 0.7732(1)
C29 C 0.3442(1) 0.3645(1) 0.8085(1)
C30 C 0.4183(1) 0.3232(1) 0.7272(1)
C31 C 0.3814(1) 0.3680(1) 0.6075(1)
C32 C 0.26570(9) 0.4564(1) 0.5707(1)
C33 C 0.2654(1) 0.5120(1) 0.2475(1)
C34 C 0.2236(1) 0.5047(1) 0.4469(1)
C35 C 0.3036(1) 0.4643(1) 0.3670(1)
C36 C 0.42239(9) 0.3761(1) 0.4052(1)
C37 C 0.5028(1) 0.3390(1) 0.3248(1)
C38 C 0.4629(1) 0.3264(1) 0.5236(1)
C39 C 0.5792(1) 0.2408(1) 0.5570(1)
C40 C 0.6564(1) 0.2049(1) 0.4775(1)
H13 H 0.052(1) 0.617(1) 0.455(2)
H14 H -0.010(2) 0.695(2) 0.258(2)
H15 H 0.124(1) 0.626(2) 0.127(2)
H16 H 0.322(1) 0.510(1) 0.090(2)
H17 H 0.522(1) 0.369(11) 0.159(2)
H18 H 0.673(1) 0.231(1) 0.367(2)
H19 H 0.117(1) 0.559(2) 0.634(2)
H20 H 0.177(1) 0.481(2) 0.831(2)
H21 H 0.371(1) 0.334(1) 0.887(2)
H22 H 0.497(1) 0.265(1) 0.754(1)
H23 H 0.607(1) 0.207(1) 0.638(2)
H24 H 0.737(1) 0.150(1) 0.508(2)
loop_
_geom_bond_atom_site_label_1
_geom_bond_atom_site_label_2
_geom_bond_distance
_geom_bond_site_symmetry_1
_geom_bond_site_symmetry_2
C1 C2 1.390 1_555 1_555
C2 C3 1.380 1_555 1_555
C3 C13 1.404 1_555 1_555
C4 C5 1.353 1_555 1_555
C5 C17 1.434 1_555 1_555
C6 C17 1.404 1_555 1_555
C7 C8 1.380 1_555 1_555
C8 C9 1.394 1_555 1_555
C9 C10 1.374 1_555 1_555
C10 C11 1.414 1_555 1_555
C11 C12 1.415 1_555 1_555
C12 C7 1.408 1_555 1_555
C13 C4 1.434 1_555 1_555
C14 C1 1.403 1_555 1_555
C15 C13 1.425 1_555 1_555
C16 C15 1.437 1_555 1_555
C17 C16 1.417 1_555 1_555
C18 C11 1.459 1_555 1_555
C19 C18 1.400 1_555 1_555
C20 C6 1.379 1_555 1_555
H1 C1 0.938 1_555 1_555
H2 C2 0.974 1_555 1_555
H3 C3 0.963 1_555 1_555
H4 C4 0.951 1_555 1_555
H5 C5 0.962 1_555 1_555
H6 C6 0.943 1_555 1_555
H7 C7 0.929 1_555 1_555
H8 C8 0.923 1_555 1_555
H9 C9 0.952 1_555 1_555
H10 C10 0.925 1_555 1_555
H11 C19 0.964 1_555 1_555
H12 C20 0.884 1_555 1_555
C21 C22 1.390 1_555 1_555
C22 C23 1.383 1_555 1_555
C23 C33 1.396 1_555 1_555
C24 C25 1.347 1_555 1_555
C25 C37 1.434 1_555 1_555
C26 C37 1.398 1_555 1_555
C27 C28 1.381 1_555 1_555
C28 C29 1.388 1_555 1_555
C29 C30 1.378 1_555 1_555
C30 C31 1.409 1_555 1_555
C31 C32 1.409 1_555 1_555
C32 C27 1.415 1_555 1_555
C33 C24 1.435 1_555 1_555
C34 C21 1.393 1_555 1_555
C35 C33 1.423 1_555 1_555
C36 C35 1.431 1_555 1_555
C37 C36 1.428 1_555 1_555
C38 C31 1.467 1_555 1_555
C39 C38 1.392 1_555 1_555
C40 C26 1.377 1_555 1_555
H13 C21 0.950 1_555 1_555
H14 C22 0.977 1_555 1_555
H15 C23 0.955 1_555 1_555
H16 C24 0.979 1_555 1_555
H17 C25 0.966 1_555 1_555
H18 C26 0.583 1_555 1_555
H19 C27 0.933 1_555 1_555
H20 C28 0.992 1_555 1_555
H21 C29 0.926 1_555 1_555
H22 C30 0.948 1_555 1_555
H23 C39 0.970 1_555 1_555
H24 C40 0.947 1_555 1_555
C12 C14 1.467 1_555 1_555
C14 C15 1.411 1_555 1_555
C16 C18 1.419 1_555 1_555
C19 C20 1.387 1_555 1_555
C32 C34 1.462 1_555 1_555
C34 C35 1.419 1_555 1_555
C36 C38 1.421 1_555 1_555
C39 C40 1.392 1_555 1_555
#END
