
#######################################################################
#
#                 Cambridge Crystallographic Data Centre
#                                CCDC
#
#######################################################################
#
# If this CIF has been generated from an entry in the Cambridge
# Structural Database, then it will include bibliographic, chemical,
# crystal, experimental, refinement or atomic coordinate data resulting
# from the CCDC's data processing and validation procedures.
#
#######################################################################

data_CSD_CIF_CEQGEL
_audit_creation_date 2006-11-30
_audit_creation_method CSD-ConQuest-V1
_database_code_CSD CEQGEL
_database_code_depnum_ccdc_archive 'CCDC 613243'
_chemical_formula_sum 'C20 H12'
_chemical_formula_moiety
;
C20 H12
;
_journal_coden_Cambridge 1078
_journal_year 2006
_journal_name_full 'CSD Communication(Private Communication) '
loop_
_publ_author_name
"G.Reck"
"B.W.Schulz"
_chemical_name_systematic
;
Benzo(e)pyrene
;
_cell_volume   1274.839
_exptl_crystal_colour 'light yellow'
_exptl_crystal_density_diffrn 1.315
_exptl_special_details
;
contribution from Federal Institute of Materials Research and Testing 
Richard-Willstaetter-Str. 11, 12489 Berlin, Germany
;
_exptl_crystal_description 'prismatic'
_diffrn_ambient_temperature 293
#These two values have been output from a single CSD field.
_refine_ls_R_factor_gt 0.0631
_refine_ls_wR_factor_gt 0.0631
_symmetry_cell_setting triclinic
_symmetry_space_group_name_H-M 'P -1'
_symmetry_Int_Tables_number 2
loop_
_symmetry_equiv_pos_site_id
_symmetry_equiv_pos_as_xyz
1 x,y,z
2 -x,-y,-z
_cell_length_a 11.2123(9)
_cell_length_b 11.4759(10)
_cell_length_c 11.849(1)
_cell_angle_alpha 73.029(2)
_cell_angle_beta 72.368(2)
_cell_angle_gamma 63.172(1)
_cell_formula_units_Z 4
loop_
_atom_type_symbol
_atom_type_radius_bond
C 0.68
H 0.23
loop_
_atom_site_label
_atom_site_type_symbol
_atom_site_fract_x
_atom_site_fract_y
_atom_site_fract_z
C1 C -0.0923(3) 0.4198(3) 0.2375(2)
C2 C -0.1401(3) 0.5397(3) 0.2744(3)
C3 C -0.0687(3) 0.6186(3) 0.2320(2)
C4 C 0.0557(3) 0.5787(3) 0.1500(2)
C5 C 0.1330(3) 0.6592(3) 0.1040(3)
C6 C 0.2522(4) 0.6213(3) 0.0237(3)
C7 C 0.3065(3) 0.4992(3) -0.0188(2)
C8 C 0.4285(3) 0.4599(4) -0.1035(3)
C9 C 0.4777(4) 0.3430(4) -0.1421(3)
C10 C 0.4078(3) 0.2605(3) -0.0991(3)
C11 C 0.2849(3) 0.2943(3) -0.0153(2)
C12 C 0.2066(3) 0.2113(3) 0.0294(2)
C13 C 0.2505(4) 0.0917(3) -0.0102(3)
C14 C 0.1760(4) 0.0147(4) 0.0292(3)
C15 C 0.0544(4) 0.0529(3) 0.1118(3)
C16 C 0.0096(3) 0.1679(3) 0.1531(3)
C17 C 0.0824(2) 0.2498(3) 0.1132(2)
C18 C 0.0309(2) 0.3748(3) 0.1555(2)
C19 C 0.1062(2) 0.4561(2) 0.1111(2)
C20 C 0.2339(2) 0.4153(3) 0.0256(2)
H1 H -0.1463(30) 0.3609(29) 0.2684(27)
H2 H -0.2256(41) 0.5646(37) 0.3284(36)
H3 H -0.0983(35) 0.7096(35) 0.2519(30)
H4 H 0.0937(29) 0.7490(31) 0.1351(26)
H5 H 0.3012(32) 0.6826(32) -0.0050(29)
H6 H 0.4772(27) 0.5163(26) -0.1280(24)
H7 H 0.5598(37) 0.3156(33) -0.1957(33)
H8 H 0.4443(28) 0.1747(28) -0.1259(25)
H9 H 0.3334(29) 0.0650(26) -0.0606(25)
H10 H 0.2088(34) -0.0701(35) -0.0001(32)
H11 H -0.0024(31) -0.0044(29) 0.1396(27)
H12 H -0.0777(36) 0.2011(32) 0.2059(31)
C21 C 0.4412(3) 1.0848(3) 0.2509(2)
C22 C 0.5187(3) 1.1599(3) 0.2126(2)
C23 C 0.6346(3) 1.1186(3) 0.2568(2)
C24 C 0.6762(2) 0.9999(3) 0.3383(2)
C25 C 0.7963(3) 0.9547(3) 0.3867(3)
C26 C 0.8360(3) 0.8397(3) 0.4647(3)
C27 C 0.7611(3) 0.7576(3) 0.5055(2)
C28 C 0.8029(3) 0.6380(3) 0.5866(3)
C29 C 0.7278(3) 0.5624(3) 0.6258(3)
C30 C 0.6079(3) 0.6027(3) 0.5861(2)
C31 C 0.5617(2) 0.7216(2) 0.5043(2)
C32 C 0.4354(2) 0.7669(2) 0.4609(2)
C33 C 0.3514(3) 0.6958(3) 0.5026(3)
C34 C 0.2342(3) 0.7376(3) 0.4622(3)
C35 C 0.1959(3) 0.8528(3) 0.3776(3)
C36 C 0.2758(3) 0.9243(3) 0.3348(3)
C37 C 0.3956(2) 0.8853(2) 0.3759(2)
C38 C 0.4781(2) 0.9654(2) 0.3325(2)
C39 C 0.5982(2) 0.9214(2) 0.3773(2)
C40 C 0.6398(2) 0.7991(2) 0.4623(2)
H13 H 0.3591(29) 1.1148(26) 0.2214(25)
H14 H 0.4970(29) 1.2385(29) 0.1571(27)
H15 H 0.6837(27) 1.1793(26) 0.2333(24)
H16 H 0.8437(27) 1.0175(26) 0.3598(24)
H17 H 0.9174(31) 0.8108(27) 0.5026(26)
H18 H 0.8901(31) 0.6131(27) 0.6146(26)
H19 H 0.7558(31) 0.4790(32) 0.6825(29)
H20 H 0.5546(25) 0.5459(24) 0.6124(22)
H21 H 0.3832(28) 0.6081(29) 0.5636(26)
H22 H 0.1746(33) 0.6838(31) 0.4941(29)
H23 H 0.1135(35) 0.8833(31) 0.3471(30)
H24 H 0.249(3) 1.0036(30) 0.2810(28)
loop_
_geom_bond_atom_site_label_1
_geom_bond_atom_site_label_2
_geom_bond_distance
_geom_bond_site_symmetry_1
_geom_bond_site_symmetry_2
C1 C2 1.384 1_555 1_555
C2 C3 1.363 1_555 1_555
C3 C4 1.401 1_555 1_555
C4 C5 1.430 1_555 1_555
C5 C6 1.352 1_555 1_555
C6 C7 1.430 1_555 1_555
C7 C8 1.399 1_555 1_555
C8 C9 1.360 1_555 1_555
C9 C10 1.384 1_555 1_555
C10 C11 1.396 1_555 1_555
C11 C12 1.462 1_555 1_555
C12 C13 1.404 1_555 1_555
C13 C14 1.373 1_555 1_555
C14 C15 1.383 1_555 1_555
C15 C16 1.365 1_555 1_555
C16 C17 1.404 1_555 1_555
C17 C12 1.408 1_555 1_555
C18 C1 1.398 1_555 1_555
C19 C4 1.419 1_555 1_555
C20 C7 1.421 1_555 1_555
H1 C1 1.024 1_555 1_555
H2 C2 0.948 1_555 1_555
H3 C3 1.020 1_555 1_555
H4 C5 1.051 1_555 1_555
H5 C6 1.004 1_555 1_555
H6 C8 0.956 1_555 1_555
H7 C9 0.922 1_555 1_555
H8 C10 0.989 1_555 1_555
H9 C13 0.910 1_555 1_555
H10 C14 1.000 1_555 1_555
H11 C15 1.035 1_555 1_555
H12 C16 0.962 1_555 1_555
C21 C22 1.383 1_555 1_555
C22 C23 1.378 1_555 1_555
C23 C24 1.392 1_555 1_555
C24 C25 1.440 1_555 1_555
C25 C26 1.342 1_555 1_555
C26 C27 1.424 1_555 1_555
C27 C28 1.396 1_555 1_555
C28 C29 1.366 1_555 1_555
C29 C30 1.392 1_555 1_555
C30 C31 1.401 1_555 1_555
C31 C32 1.470 1_555 1_555
C32 C33 1.405 1_555 1_555
C33 C34 1.365 1_555 1_555
C34 C35 1.383 1_555 1_555
C35 C36 1.371 1_555 1_555
C36 C37 1.403 1_555 1_555
C37 C32 1.409 1_555 1_555
C38 C21 1.393 1_555 1_555
C39 C24 1.419 1_555 1_555
C40 C27 1.426 1_555 1_555
H13 C21 0.963 1_555 1_555
H14 C22 0.926 1_555 1_555
H15 C23 1.003 1_555 1_555
H16 C25 1.006 1_555 1_555
H17 C26 1.016 1_555 1_555
H18 C28 1.018 1_555 1_555
H19 C29 0.973 1_555 1_555
H20 C30 1.000 1_555 1_555
H21 C33 1.034 1_555 1_555
H22 C34 1.027 1_555 1_555
H23 C35 0.971 1_555 1_555
H24 C36 0.925 1_555 1_555
C11 C20 1.414 1_555 1_555
C17 C18 1.463 1_555 1_555
C18 C19 1.420 1_555 1_555
C19 C20 1.445 1_555 1_555
C31 C40 1.409 1_555 1_555
C37 C38 1.473 1_555 1_555
C38 C39 1.419 1_555 1_555
C39 C40 1.439 1_555 1_555
#END
