
#######################################################################
#
#                 Cambridge Crystallographic Data Centre
#                                CCDC
#
#######################################################################
#
# If this CIF has been generated from an entry in the Cambridge
# Structural Database, then it will include bibliographic, chemical,
# crystal, experimental, refinement or atomic coordinate data resulting
# from the CCDC's data processing and validation procedures.
#
#######################################################################

data_CSD_CIF_CIVMOJ10
_audit_creation_date 1988-06-09
_audit_creation_method CSD-ConQuest-V1
_database_code_CSD CIVMOJ10
_database_code_depnum_ccdc_archive 'CCDC 1126440'
_chemical_formula_sum 'C18 H18'
_chemical_formula_moiety
;
C18 H18
;
_journal_coden_Cambridge 179
_journal_volume 24
_journal_year 1985
_journal_page_first 237
_journal_name_full 'Angew.Chem.,Int.Ed. '
loop_
_publ_author_name
"K.Angermund"
"K.H.Claus"
"R.Goddard"
"C.Kruger"
_chemical_name_systematic
;
9-t-Butylanthracene
;
_cell_volume   1301.268
_exptl_crystal_density_diffrn 1.2
_diffrn_ambient_temperature 100
_refine_special_details
;
electron deformation density refinement

;
#These two values have been output from a single CSD field.
_refine_ls_R_factor_gt 0.04
_refine_ls_wR_factor_gt 0.04
_symmetry_cell_setting monoclinic
_symmetry_space_group_name_H-M 'P 21/c'
_symmetry_Int_Tables_number 14
loop_
_symmetry_equiv_pos_site_id
_symmetry_equiv_pos_as_xyz
1 x,y,z
2 -x,1/2+y,1/2-z
3 -x,-y,-z
4 x,-1/2-y,-1/2+z
_cell_length_a 11.137(1)
_cell_length_b 6.8927(8)
_cell_length_c 17.792(1)
_cell_angle_alpha 90
_cell_angle_beta 107.681(5)
_cell_angle_gamma 90
_cell_formula_units_Z 4
loop_
_atom_type_symbol
_atom_type_radius_bond
C 0.68
H 0.23
loop_
_atom_site_label
_atom_site_type_symbol
_atom_site_fract_x
_atom_site_fract_y
_atom_site_fract_z
C1 C 0.3572(1) 0.1460(1) 0.4802(1)
C2 C 0.3428(1) 0.0560(1) 0.5457(1)
C3 C 0.2339(1) -0.0577(1) 0.5410(1)
C4 C 0.1473(1) -0.0889(1) 0.4688(1)
C5 C 0.1642(1) -0.0084(1) 0.3984(1)
C6 C 0.0368(1) -0.0839(1) 0.1813(1)
C7 C 0.0664(1) -0.0438(1) 0.1137(1)
C8 C 0.1724(1) 0.0765(1) 0.1179(1)
C9 C 0.2398(1) 0.1611(1) 0.1878(1)
C10 C 0.2101(1) 0.1301(1) 0.2602(1)
C11 C 0.2768(1) 0.2177(1) 0.3337(1)
C12 C 0.2665(1) 0.1245(1) 0.4034(1)
C13 C 0.0830(1) -0.0621(1) 0.3247(1)
C14 C 0.1094(1) -0.0058(1) 0.2560(1)
C15 C 0.3495(1) 0.4134(1) 0.3394(1)
C16 C 0.2953(1) 0.5441(1) 0.2661(1)
C17 C 0.4911(1) 0.3828(1) 0.3520(1)
C18 C 0.3310(1) 0.5399(1) 0.4075(1)
H1 H 0.44520 0.22020 0.48530
H2 H 0.41860 0.06900 0.60070
H3 H 0.22710 -0.12430 0.59480
H4 H 0.06530 -0.17980 0.46240
H5 H -0.04220 -0.17710 0.18020
H6 H 0.01300 -0.11010 0.05830
H7 H 0.20050 0.09110 0.06490
H8 H 0.32420 0.24100 0.18860
H9 H 0.00360 -0.15500 0.32310
H10 H 0.19310 0.54630 0.24460
H11 H 0.32820 0.69160 0.28060
H12 H 0.32750 0.50110 0.21680
H13 H 0.50420 0.31030 0.30080
H14 H 0.54230 0.30300 0.40450
H15 H 0.54060 0.51940 0.35450
H16 H 0.37260 0.68080 0.40440
H17 H 0.23100 0.56130 0.39820
H18 H 0.37480 0.48510 0.46670
loop_
_geom_bond_atom_site_label_1
_geom_bond_atom_site_label_2
_geom_bond_distance
_geom_bond_site_symmetry_1
_geom_bond_site_symmetry_2
C1 C2 1.372 1_555 1_555
C2 C3 1.425 1_555 1_555
C3 C4 1.369 1_555 1_555
C4 C5 1.434 1_555 1_555
C5 C12 1.443 1_555 1_555
C6 C7 1.368 1_555 1_555
C7 C8 1.426 1_555 1_555
C8 C9 1.372 1_555 1_555
C9 C10 1.440 1_555 1_555
C10 C11 1.427 1_555 1_555
C11 C12 1.432 1_555 1_555
C12 C1 1.439 1_555 1_555
C13 C5 1.398 1_555 1_555
C14 C6 1.434 1_555 1_555
C15 C11 1.561 1_555 1_555
C16 C15 1.549 1_555 1_555
C17 C15 1.538 1_555 1_555
C18 C15 1.556 1_555 1_555
H1 C1 1.085 1_555 1_555
H2 C2 1.085 1_555 1_555
H3 C3 1.085 1_555 1_555
H4 C4 1.085 1_555 1_555
H5 C6 1.085 1_555 1_555
H6 C7 1.085 1_555 1_555
H7 C8 1.085 1_555 1_555
H8 C9 1.086 1_555 1_555
H9 C13 1.085 1_555 1_555
H10 C16 1.085 1_555 1_555
H11 C16 1.085 1_555 1_555
H12 C16 1.085 1_555 1_555
H13 C17 1.087 1_555 1_555
H14 C17 1.085 1_555 1_555
H15 C17 1.085 1_555 1_555
H16 C18 1.085 1_555 1_555
H17 C18 1.085 1_555 1_555
H18 C18 1.085 1_555 1_555
C10 C14 1.446 1_555 1_555
C13 C14 1.396 1_555 1_555
#END
