
#######################################################################
#
#                 Cambridge Crystallographic Data Centre
#                                CCDC
#
#######################################################################
#
# If this CIF has been generated from an entry in the Cambridge
# Structural Database, then it will include bibliographic, chemical,
# crystal, experimental, refinement or atomic coordinate data resulting
# from the CCDC's data processing and validation procedures.
#
#######################################################################

data_CSD_CIF_CIZCEU
_audit_creation_date 2008-08-28
_audit_creation_method CSD-ConQuest-V1
_database_code_CSD CIZCEU
_database_code_depnum_ccdc_archive 'CCDC 671507'
_chemical_formula_sum 'C34 H30'
_chemical_formula_moiety
;
C34 H30
;
_journal_coden_Cambridge 1145
_journal_volume 18
_journal_year 2008
_journal_page_first 1961
_journal_name_full 'J.Mater.Chem. '
loop_
_publ_author_name
"Jihua Chen"
"S.Subramanian"
"S.R.Parkin"
"M.Siegler"
"K.Gallup"
"C.Haughn"
"D.C.Martin"
"J.E.Anthony"
_chemical_name_systematic
;
6,13-bis(n-Hexynyl)pentacene
;
_cell_volume   2383.875
_exptl_crystal_colour 'black'
_exptl_crystal_density_diffrn 1.222
_exptl_crystal_description 'irregular'
_exptl_crystal_preparation 'hexanes'
_diffrn_ambient_temperature 90.0
#These two values have been output from a single CSD field.
_refine_ls_R_factor_gt 0.0482
_refine_ls_wR_factor_gt 0.0482
_symmetry_cell_setting monoclinic
_symmetry_space_group_name_H-M 'P 21/c'
_symmetry_Int_Tables_number 14
loop_
_symmetry_equiv_pos_site_id
_symmetry_equiv_pos_as_xyz
1 x,y,z
2 -x,1/2+y,1/2-z
3 -x,-y,-z
4 x,-1/2-y,-1/2+z
_cell_length_a 19.8513(4)
_cell_length_b 5.3006(1)
_cell_length_c 22.6989(5)
_cell_angle_alpha 90
_cell_angle_beta 93.5526(8)
_cell_angle_gamma 90
_cell_formula_units_Z 4
loop_
_atom_type_symbol
_atom_type_radius_bond
C 0.68
H 0.23
loop_
_atom_site_label
_atom_site_type_symbol
_atom_site_fract_x
_atom_site_fract_y
_atom_site_fract_z
C1 C 0.54933(10) 0.4389(4) -0.04073(8)
C2 C 0.48839(10) 0.2985(4) -0.04113(8)
C3 C 0.47505(10) 0.0991(4) -0.08093(8)
H1 H 0.50790 0.05780 -0.10810
C4 C 0.41586(10) -0.0394(4) -0.08199(8)
C5 C 0.40221(10) -0.2422(4) -0.12240(8)
H2 H 0.43420 -0.28200 -0.15050
C6 C 0.34457(10) -0.3791(4) -0.12157(8)
H3 H 0.33660 -0.51360 -0.14880
C7 C 0.29592(10) -0.3217(4) -0.07995(9)
H4 H 0.25570 -0.41870 -0.07950
C8 C 0.30644(10) -0.1301(4) -0.04104(9)
H5 H 0.27340 -0.09450 -0.01370
C9 C 0.36644(10) 0.0200(4) -0.04033(8)
C10 C 0.37913(10) 0.2152(4) -0.00074(8)
H6 H 0.34640 0.25340 0.02670
C11 C 0.5613(1) 0.6407(4) -0.00033(8)
C12 C 0.59943(10) 0.3699(4) -0.08028(8)
C13 C 0.64079(10) 0.2970(4) -0.11254(9)
C14 C 0.69036(10) 0.1920(4) -0.15136(9)
H7 H 0.73360 0.16380 -0.12820
H8 H 0.69860 0.31540 -0.18280
C15 C 0.66633(11) -0.0583(4) -0.17975(9)
H9 H 0.70330 -0.13080 -0.20170
H10 H 0.65610 -0.17880 -0.14820
C16 C 0.60507(11) -0.0292(4) -0.22101(9)
H11 H 0.61530 0.09060 -0.25270
H12 H 0.56810 0.04410 -0.19910
C17 C 0.58094(11) -0.2785(4) -0.24904(9)
H13 H 0.61770 -0.35470 -0.26980
H14 H 0.54230 -0.24670 -0.27710
H15 H 0.56740 -0.39370 -0.21820
C18 C -0.01577(10) -0.5449(4) 0.05956(8)
C19 C 0.03003(10) -0.3493(4) 0.04677(8)
C20 C 0.0606(1) -0.1975(4) 0.09138(8)
H16 H 0.04990 -0.22580 0.13110
C21 C 0.10593(10) -0.0076(4) 0.07967(9)
C22 C 0.13712(10) 0.1471(4) 0.12504(9)
H17 H 0.12730 0.11890 0.16490
C23 C 0.18037(10) 0.3329(4) 0.11218(9)
H18 H 0.20040 0.43390 0.14310
C24 C 0.19641(10) 0.3795(4) 0.05288(9)
H19 H 0.22730 0.50940 0.04450
C25 C 0.16751(9) 0.2382(4) 0.00833(9)
H20 H 0.17810 0.27240 -0.03110
C26 C 0.1216(1) 0.0392(4) 0.01950(8)
C27 C 0.09166(9) -0.1090(4) -0.02486(9)
H21 H 0.10220 -0.07790 -0.06450
C28 C -0.04599(9) -0.6950(4) 0.01346(8)
C29 C -0.03227(10) -0.5884(4) 0.11917(9)
C30 C -0.04591(10) -0.6310(4) 0.16880(9)
C31 C -0.06518(10) -0.6990(4) 0.22823(8)
H22 H -0.08970 -0.55600 0.24500
H23 H -0.02390 -0.72950 0.25400
C32 C -0.10971(10) -0.9341(4) 0.22779(9)
H24 H -0.08670 -1.07270 0.20780
H25 H -0.11530 -0.98710 0.26900
C33 C -0.17882(11) -0.8938(4) 0.1970(1)
H26 H -0.17330 -0.81790 0.15770
H27 H -0.20440 -0.77310 0.22020
C34 C -0.21927(11) -1.1373(4) 0.18913(10)
H28 H -0.19530 -1.25460 0.16440
H29 H -0.26380 -1.09970 0.17010
H30 H -0.22470 -1.21420 0.22780
C1B C 0.45067(10) 0.5611(4) 0.04073(8)
C2B C 0.51161(10) 0.7015(4) 0.04113(8)
C3B C 0.52495(10) 0.9009(4) 0.08093(8)
H1B H 0.49210 0.94220 0.10810
C4B C 0.58414(10) 1.0394(4) 0.08199(8)
C5B C 0.59779(10) 1.2422(4) 0.12240(8)
H2B H 0.56580 1.28200 0.15050
C6B C 0.65543(10) 1.3791(4) 0.12157(8)
H3B H 0.66340 1.51360 0.14880
C7B C 0.70408(10) 1.3217(4) 0.07995(9)
H4B H 0.74430 1.41870 0.07950
C8B C 0.69356(10) 1.1301(4) 0.04104(9)
H5B H 0.72660 1.09450 0.01370
C9B C 0.63356(10) 0.9800(4) 0.04033(8)
C10B C 0.62087(10) 0.7848(4) 0.00074(8)
H6B H 0.65360 0.74660 -0.02670
C11B C 0.4387(1) 0.3593(4) 0.00033(8)
C12B C 0.40057(10) 0.6301(4) 0.08028(8)
C13B C 0.35921(10) 0.7030(4) 0.11254(9)
C14B C 0.30964(10) 0.8080(4) 0.15136(9)
H7B H 0.26640 0.83620 0.12820
H8B H 0.30140 0.68460 0.18280
C15B C 0.33367(11) 1.0583(4) 0.17975(9)
H9B H 0.29670 1.13080 0.20170
H10B H 0.34390 1.17880 0.14820
C16B C 0.39493(11) 1.0292(4) 0.22101(9)
H11B H 0.38470 0.90940 0.25270
H12B H 0.43190 0.95590 0.19910
C17B C 0.41906(11) 1.2785(4) 0.24904(9)
H13B H 0.38230 1.35470 0.26980
H14B H 0.45770 1.24670 0.27710
H15B H 0.43260 1.39370 0.21820
C18B C 0.01577(10) -0.4551(4) -0.05956(8)
C19B C -0.03003(10) -0.6507(4) -0.04677(8)
C20B C -0.0606(1) -0.8025(4) -0.09138(8)
H16B H -0.04990 -0.77420 -0.13110
C21B C -0.10593(10) -0.9924(4) -0.07967(9)
C22B C -0.13712(10) -1.1471(4) -0.12504(9)
H17B H -0.12730 -1.11890 -0.16490
C23B C -0.18037(10) -1.3329(4) -0.11218(9)
H18B H -0.20040 -1.43390 -0.14310
C24B C -0.19641(10) -1.3795(4) -0.05288(9)
H19B H -0.22730 -1.50940 -0.04450
C25B C -0.16751(9) -1.2382(4) -0.00833(9)
H20B H -0.17810 -1.27240 0.03110
C26B C -0.1216(1) -1.0392(4) -0.01950(8)
C27B C -0.09166(9) -0.8910(4) 0.02486(9)
H21B H -0.10220 -0.92210 0.06450
C28B C 0.04599(9) -0.3050(4) -0.01346(8)
C29B C 0.03227(10) -0.4116(4) -0.11917(9)
C30B C 0.04591(10) -0.3690(4) -0.16880(9)
C31B C 0.06518(10) -0.3010(4) -0.22823(8)
H22B H 0.08970 -0.44400 -0.24500
H23B H 0.02390 -0.27050 -0.25400
C32B C 0.10971(10) -0.0659(4) -0.22779(9)
H24B H 0.08670 0.07270 -0.20780
H25B H 0.11530 -0.01290 -0.26900
C33B C 0.17882(11) -0.1062(4) -0.1970(1)
H26B H 0.17330 -0.18210 -0.15770
H27B H 0.20440 -0.22690 -0.22020
C34B C 0.21927(11) 0.1373(4) -0.18913(10)
H28B H 0.19530 0.25460 -0.16440
H29B H 0.26380 0.09970 -0.17010
H30B H 0.22470 0.21420 -0.22780
loop_
_geom_bond_atom_site_label_1
_geom_bond_atom_site_label_2
_geom_bond_distance
_geom_bond_site_symmetry_1
_geom_bond_site_symmetry_2
C1 C2 1.420 1_555 1_555
C2 C3 1.405 1_555 1_555
C3 H1 0.950 1_555 1_555
C4 C3 1.384 1_555 1_555
C5 C4 1.428 1_555 1_555
H2 C5 0.951 1_555 1_555
C6 C5 1.356 1_555 1_555
H3 C6 0.950 1_555 1_555
C7 C6 1.425 1_555 1_555
H4 C7 0.950 1_555 1_555
C8 C7 1.354 1_555 1_555
H5 C8 0.949 1_555 1_555
C9 C4 1.439 1_555 1_555
C10 C9 1.383 1_555 1_555
H6 C10 0.949 1_555 1_555
C11 C1 1.419 1_555 1_555
C12 C1 1.428 1_555 1_555
C13 C12 1.198 1_555 1_555
C14 C13 1.470 1_555 1_555
H7 C14 0.990 1_555 1_555
H8 C14 0.989 1_555 1_555
C15 C14 1.538 1_555 1_555
H9 C15 0.990 1_555 1_555
H10 C15 0.990 1_555 1_555
C16 C15 1.496 1_555 1_555
H11 C16 0.990 1_555 1_555
H12 C16 0.991 1_555 1_555
C17 C16 1.531 1_555 1_555
H13 C17 0.980 1_555 1_555
H14 C17 0.981 1_555 1_555
H15 C17 0.979 1_555 1_555
C18 C19 1.421 1_555 1_555
C19 C20 1.402 1_555 1_555
C20 H16 0.951 1_555 1_555
C21 C20 1.387 1_555 1_555
C22 C21 1.427 1_555 1_555
H17 C22 0.949 1_555 1_555
C23 C22 1.350 1_555 1_555
H18 C23 0.950 1_555 1_555
C24 C23 1.424 1_555 1_555
H19 C24 0.949 1_555 1_555
C25 C24 1.357 1_555 1_555
H20 C25 0.949 1_555 1_555
C26 C21 1.441 1_555 1_555
C27 C26 1.382 1_555 1_555
H21 C27 0.951 1_555 1_555
C28 C18 1.418 1_555 1_555
C29 C18 1.430 1_555 1_555
C30 C29 1.196 1_555 1_555
C31 C30 1.470 1_555 1_555
H22 C31 0.990 1_555 1_555
H23 C31 0.990 1_555 1_555
C32 C31 1.528 1_555 1_555
H24 C32 0.990 1_555 1_555
H25 C32 0.990 1_555 1_555
C33 C32 1.516 1_555 1_555
H26 C33 0.991 1_555 1_555
H27 C33 0.989 1_555 1_555
C34 C33 1.525 1_555 1_555
H28 C34 0.980 1_555 1_555
H29 C34 0.980 1_555 1_555
H30 C34 0.980 1_555 1_555
C1B C2B 1.420 1_555 1_555
C2B C11 1.441 1_555 1_555
C3B C2B 1.405 1_555 1_555
H1B C3B 0.950 1_555 1_555
C4B C3B 1.384 1_555 1_555
C5B C4B 1.428 1_555 1_555
H2B C5B 0.951 1_555 1_555
C6B C5B 1.356 1_555 1_555
H3B C6B 0.950 1_555 1_555
C7B C6B 1.425 1_555 1_555
H4B C7B 0.950 1_555 1_555
C8B C7B 1.354 1_555 1_555
H5B C8B 0.949 1_555 1_555
C9B C4B 1.439 1_555 1_555
C10B C11 1.407 1_555 1_555
H6B C10B 0.949 1_555 1_555
C11B C2 1.441 1_555 1_555
C12B C1B 1.428 1_555 1_555
C13B C12B 1.198 1_555 1_555
C14B C13B 1.470 1_555 1_555
H7B C14B 0.990 1_555 1_555
H8B C14B 0.989 1_555 1_555
C15B C14B 1.538 1_555 1_555
H9B C15B 0.990 1_555 1_555
H10B C15B 0.990 1_555 1_555
C16B C15B 1.496 1_555 1_555
H11B C16B 0.990 1_555 1_555
H12B C16B 0.991 1_555 1_555
C17B C16B 1.531 1_555 1_555
H13B C17B 0.980 1_555 1_555
H14B C17B 0.981 1_555 1_555
H15B C17B 0.979 1_555 1_555
C18B C19B 1.421 1_555 1_555
C19B C28 1.442 1_555 1_555
C20B C19B 1.402 1_555 1_555
H16B C20B 0.951 1_555 1_555
C21B C20B 1.387 1_555 1_555
C22B C21B 1.427 1_555 1_555
H17B C22B 0.949 1_555 1_555
C23B C22B 1.350 1_555 1_555
H18B C23B 0.950 1_555 1_555
C24B C23B 1.424 1_555 1_555
H19B C24B 0.949 1_555 1_555
C25B C24B 1.357 1_555 1_555
H20B C25B 0.949 1_555 1_555
C26B C21B 1.441 1_555 1_555
C27B C28 1.413 1_555 1_555
H21B C27B 0.951 1_555 1_555
C28B C19 1.442 1_555 1_555
C29B C18B 1.430 1_555 1_555
C30B C29B 1.196 1_555 1_555
C31B C30B 1.470 1_555 1_555
H22B C31B 0.990 1_555 1_555
H23B C31B 0.990 1_555 1_555
C32B C31B 1.528 1_555 1_555
H24B C32B 0.990 1_555 1_555
H25B C32B 0.990 1_555 1_555
C33B C32B 1.516 1_555 1_555
H26B C33B 0.991 1_555 1_555
H27B C33B 0.989 1_555 1_555
C34B C33B 1.525 1_555 1_555
H28B C34B 0.980 1_555 1_555
H29B C34B 0.980 1_555 1_555
H30B C34B 0.980 1_555 1_555
C8 C9 1.432 1_555 1_555
C10 C11B 1.407 1_555 1_555
C25 C26 1.427 1_555 1_555
C27 C28B 1.413 1_555 1_555
C1B C11B 1.419 1_555 1_555
C8B C9B 1.432 1_555 1_555
C9B C10B 1.383 1_555 1_555
C18B C28B 1.418 1_555 1_555
C25B C26B 1.427 1_555 1_555
C26B C27B 1.382 1_555 1_555
#END
