
#######################################################################
#
#                 Cambridge Crystallographic Data Centre
#                                CCDC
#
#######################################################################
#
# If this CIF has been generated from an entry in the Cambridge
# Structural Database, then it will include bibliographic, chemical,
# crystal, experimental, refinement or atomic coordinate data resulting
# from the CCDC's data processing and validation procedures.
#
#######################################################################

data_CSD_CIF_COBDAZ
_audit_creation_date 2008-08-28
_audit_creation_method CSD-ConQuest-V1
_database_code_CSD COBDAZ
_database_code_depnum_ccdc_archive 'CCDC 674750'
_chemical_formula_sum 'C28 H34'
_chemical_formula_moiety
;
C28 H34
;
_journal_coden_Cambridge 182
_journal_year 2008
_journal_page_first 1889
_journal_name_full 'Chem.Commun. '
loop_
_publ_author_name
"M.Banerjee"
"V.S.Vyas"
"S.V.Lindeman"
"R.Rathore"
_chemical_name_systematic
;
1,3,6,8-tetraisopropylpyrene
;
_chemical_melting_point 551.15
_cell_volume   2192.175
_exptl_crystal_colour 'colorless'
_exptl_crystal_density_diffrn 1.123
_exptl_special_details
;
Melting point range 551.15-553.15K

;
_exptl_crystal_description 'block'
_exptl_crystal_preparation 'dichloromethane/acetonitrile'
_diffrn_ambient_temperature 200
_diffrn_special_details
;
Non-merohedral twin

;
#These two values have been output from a single CSD field.
_refine_ls_R_factor_gt 0.0644
_refine_ls_wR_factor_gt 0.0644
_symmetry_cell_setting triclinic
_symmetry_space_group_name_H-M 'P -1'
_symmetry_Int_Tables_number 2
loop_
_symmetry_equiv_pos_site_id
_symmetry_equiv_pos_as_xyz
1 x,y,z
2 -x,-y,-z
_cell_length_a 11.3272(7)
_cell_length_b 12.6764(7)
_cell_length_c 16.9660(12)
_cell_angle_alpha 94.595(4)
_cell_angle_beta 92.311(4)
_cell_angle_gamma 115.064(3)
_cell_formula_units_Z 4
loop_
_atom_type_symbol
_atom_type_radius_bond
C 0.68
H 0.23
loop_
_atom_site_label
_atom_site_type_symbol
_atom_site_fract_x
_atom_site_fract_y
_atom_site_fract_z
C1 C 0.38483(19) 0.37211(18) 0.74743(11)
C2 C 0.2939(2) 0.34418(19) 0.80640(12)
C3 C 0.1956(2) 0.22894(19) 0.80561(12)
C4 C 0.1911(2) 0.14568(19) 0.74548(13)
H1 H 0.12470 0.06820 0.74480
C5 C 0.2770(2) 0.16845(19) 0.68666(13)
C6 C 0.3764(2) 0.28334(18) 0.68682(12)
C7 C 0.4700(2) 0.31551(19) 0.62853(12)
H2 H 0.46450 0.25800 0.58720
C8 C 0.5654(2) 0.42470(19) 0.63054(13)
H3 H 0.62540 0.44180 0.59070
C9 C 0.48637(19) 0.48939(18) 0.74834(11)
C10 C 0.5796(2) 0.51625(19) 0.69066(12)
C11 C 0.6813(2) 0.6304(2) 0.69415(13)
C12 C 0.6836(2) 0.7152(2) 0.75269(13)
H4 H 0.75110 0.79230 0.75410
C13 C 0.5929(2) 0.69346(19) 0.80885(13)
C14 C 0.4940(2) 0.57889(19) 0.80809(12)
C15 C 0.4002(2) 0.5466(2) 0.86630(13)
H5 H 0.40420 0.60480 0.90660
C16 C 0.3063(2) 0.4365(2) 0.86585(13)
H6 H 0.24680 0.41950 0.90600
C17 C 0.0948(2) 0.1961(2) 0.86655(13)
H7 H 0.13790 0.24760 0.91680
C18 C 0.0465(2) 0.0703(2) 0.88560(14)
H8 H -0.01740 0.05550 0.92550
H9 H 0.12050 0.05710 0.90640
H10 H 0.00510 0.01700 0.83730
C19 C -0.0192(2) 0.2231(3) 0.84001(16)
H11 H 0.01460 0.30480 0.82850
H12 H -0.07860 0.21050 0.88240
H13 H -0.06660 0.17130 0.79210
C20 C 0.2610(2) 0.0691(2) 0.62458(13)
H14 H 0.33520 0.09930 0.59000
C21 C 0.2663(3) -0.0337(2) 0.66159(15)
H15 H 0.25490 -0.09590 0.61970
H16 H 0.19620 -0.06330 0.69730
H17 H 0.35110 -0.00840 0.69170
C22 C 0.1335(3) 0.0289(2) 0.57190(16)
H18 H 0.12530 -0.03510 0.53240
H19 H 0.13420 0.09460 0.54480
H20 H 0.05920 0.00160 0.60470
C23 C 0.7834(2) 0.6639(2) 0.63396(14)
H21 H 0.78120 0.58920 0.60840
C24 C 0.7476(4) 0.7221(3) 0.5692(2)
H22 H 0.81400 0.74230 0.53080
H23 H 0.74300 0.79360 0.59230
H24 H 0.66230 0.66850 0.54240
C25 C 0.9213(3) 0.7356(3) 0.6723(2)
H25 H 0.98340 0.75430 0.63120
H26 H 0.94270 0.69040 0.71000
H27 H 0.92680 0.80840 0.70030
C26 C 0.6051(2) 0.7905(2) 0.87214(14)
H28 H 0.51560 0.77200 0.88920
C27 C 0.6898(3) 0.7911(3) 0.94450(16)
H29 H 0.69680 0.85350 0.98510
H30 H 0.77720 0.80490 0.92900
H31 H 0.64980 0.71530 0.96590
C28 C 0.6577(3) 0.9121(2) 0.84285(18)
H32 H 0.66260 0.97010 0.88620
H33 H 0.59900 0.91170 0.79870
H34 H 0.74510 0.93240 0.82490
C29 C 0.45222(19) 0.93974(18) 0.49805(12)
C30 C 0.4627(2) 0.86722(18) 0.55569(12)
C31 C 0.3660(2) 0.75036(19) 0.55356(12)
C32 C 0.2646(2) 0.71007(19) 0.49404(13)
H35 H 0.19940 0.63200 0.49320
C33 C 0.2524(2) 0.77647(19) 0.43558(12)
C34 C 0.3467(2) 0.89332(18) 0.43758(12)
C35 C 0.3410(2) 0.9702(2) 0.38120(13)
H36 H 0.27180 0.94080 0.34020
C36 C 0.5696(2) 0.9173(2) 0.61548(13)
H37 H 0.57790 0.87000 0.65400
C37 C 0.3662(2) 0.6722(2) 0.61767(13)
H38 H 0.45950 0.69350 0.63530
C38 C 0.3019(3) 0.6975(3) 0.68959(15)
H39 H 0.30270 0.64720 0.73030
H40 H 0.21130 0.68170 0.67360
H41 H 0.35030 0.77990 0.71100
C39 C 0.3022(3) 0.5420(2) 0.58909(16)
H42 H 0.34460 0.52710 0.54300
H43 H 0.20920 0.51720 0.57410
H44 H 0.31180 0.49780 0.63180
C40 C 0.1373(2) 0.72390(19) 0.37273(13)
H45 H 0.16890 0.75990 0.32290
C41 C 0.0839(2) 0.5918(2) 0.35335(15)
H46 H 0.01100 0.56480 0.31230
H47 H 0.05310 0.55350 0.40120
H48 H 0.15320 0.57210 0.33410
C42 C 0.0277(2) 0.7573(2) 0.39649(16)
H49 H -0.04550 0.72290 0.35540
H50 H 0.06050 0.84270 0.40220
H51 H -0.00210 0.72750 0.44710
C43 C 0.54837(19) 0.05983(18) -0.00008(12)
C44 C 0.6569(2) 0.10797(19) 0.05823(12)
C45 C 0.7515(2) 0.22422(19) 0.05728(12)
C46 C 0.7348(2) 0.28890(19) -0.00089(12)
H52 H 0.79900 0.36710 -0.00150
C47 C 0.6300(2) 0.24622(19) -0.05825(12)
C48 C 0.5350(2) 0.12984(19) -0.05841(12)
C49 C 0.4246(2) 0.0773(2) -0.11614(13)
H53 H 0.41450 0.12240 -0.15580
C50 C 0.6650(2) 0.0338(2) 0.11574(13)
H54 H 0.73660 0.06450 0.15510
C51 C 0.8724(2) 0.2774(2) 0.11588(13)
H55 H 0.84700 0.24140 0.16650
C52 C 0.9790(2) 0.2449(2) 0.08564(16)
H56 H 1.05630 0.27960 0.12370
H57 H 1.00230 0.27470 0.03420
H58 H 0.94680 0.15950 0.07960
C53 C 0.9268(2) 0.4098(2) 0.13544(15)
H59 H 1.00370 0.43700 0.17350
H60 H 0.85990 0.42950 0.15860
H61 H 0.95170 0.44780 0.08680
C54 C 0.6215(2) 0.3220(2) -0.12153(13)
H62 H 0.52680 0.30050 -0.13510
C55 C 0.6772(3) 0.2941(3) -0.19636(15)
H63 H 0.67170 0.34310 -0.23690
H64 H 0.62690 0.21140 -0.21620
H65 H 0.76880 0.31000 -0.18420
C56 C 0.6885(3) 0.4534(2) -0.09447(17)
H66 H 0.67900 0.49680 -0.13770
H67 H 0.78160 0.47700 -0.08020
H68 H 0.64790 0.47060 -0.04820
C29A C 0.54778(19) 1.06026(18) 0.50195(12)
C30A C 0.5373(2) 1.13278(18) 0.44431(12)
C31A C 0.6340(2) 1.24964(19) 0.44644(12)
C32A C 0.7354(2) 1.28993(19) 0.50596(13)
H35A H 0.80060 1.36800 0.50680
C33A C 0.7476(2) 1.22353(19) 0.56442(12)
C34A C 0.6533(2) 1.10668(18) 0.56242(12)
C35A C 0.6590(2) 1.0298(2) 0.61880(13)
H36A H 0.72820 1.05920 0.65980
C36A C 0.4304(2) 1.0827(2) 0.38452(13)
H37A H 0.42210 1.13000 0.34600
C37A C 0.6338(2) 1.3278(2) 0.38233(13)
H38A H 0.54050 1.30650 0.36470
C38A C 0.6981(3) 1.3025(3) 0.31041(15)
H39A H 0.69730 1.35280 0.26970
H40A H 0.78870 1.31830 0.32640
H41A H 0.64970 1.22010 0.28900
C39A C 0.6978(3) 1.4580(2) 0.41091(16)
H42A H 0.65540 1.47290 0.45700
H43A H 0.79080 1.48280 0.42590
H44A H 0.68820 1.50220 0.36820
C40A C 0.8627(2) 1.27610(19) 0.62727(13)
H45A H 0.83110 1.24010 0.67710
C41A C 0.9161(2) 1.4082(2) 0.64665(15)
H46A H 0.98900 1.43520 0.68770
H47A H 0.94690 1.44650 0.59880
H48A H 0.84680 1.42790 0.66590
C42A C 0.9723(2) 1.2427(2) 0.60351(16)
H49A H 1.04550 1.27710 0.64460
H50A H 0.93950 1.15730 0.59780
H51A H 1.00210 1.27250 0.55290
C43A C 0.45163(19) -0.05983(18) 0.00008(12)
C44A C 0.3431(2) -0.10797(19) -0.05823(12)
C45A C 0.2485(2) -0.22422(19) -0.05728(12)
C46A C 0.2652(2) -0.28890(19) 0.00089(12)
H52A H 0.20100 -0.36710 0.00150
C47A C 0.3700(2) -0.24622(19) 0.05825(12)
C48A C 0.4650(2) -0.12984(19) 0.05841(12)
C49A C 0.5754(2) -0.0773(2) 0.11614(13)
H53A H 0.58550 -0.12240 0.15580
C50A C 0.3350(2) -0.0338(2) -0.11574(13)
H54A H 0.26340 -0.06450 -0.15510
C51A C 0.1276(2) -0.2774(2) -0.11588(13)
H55A H 0.15300 -0.24140 -0.16650
C52A C 0.0210(2) -0.2449(2) -0.08564(16)
H56A H -0.05630 -0.27960 -0.12370
H57A H -0.00230 -0.27470 -0.03420
H58A H 0.05320 -0.15950 -0.07960
C53A C 0.0732(2) -0.4098(2) -0.13544(15)
H59A H -0.00370 -0.43700 -0.17350
H60A H 0.14010 -0.42950 -0.15860
H61A H 0.04830 -0.44780 -0.08680
C54A C 0.3785(2) -0.3220(2) 0.12153(13)
H62A H 0.47320 -0.30050 0.13510
C55A C 0.3228(3) -0.2941(3) 0.19636(15)
H63A H 0.32830 -0.34310 0.23690
H64A H 0.37310 -0.21140 0.21620
H65A H 0.23120 -0.31000 0.18420
C56A C 0.3115(3) -0.4534(2) 0.09447(17)
H66A H 0.32100 -0.49680 0.13770
H67A H 0.21840 -0.47700 0.08020
H68A H 0.35210 -0.47060 0.04820
loop_
_geom_bond_atom_site_label_1
_geom_bond_atom_site_label_2
_geom_bond_distance
_geom_bond_site_symmetry_1
_geom_bond_site_symmetry_2
C1 C2 1.421 1_555 1_555
C2 C3 1.411 1_555 1_555
C3 C4 1.391 1_555 1_555
C4 H1 0.950 1_555 1_555
C5 C4 1.383 1_555 1_555
C6 C1 1.431 1_555 1_555
C7 C6 1.432 1_555 1_555
H2 C7 0.950 1_555 1_555
C8 C7 1.344 1_555 1_555
H3 C8 0.949 1_555 1_555
C9 C1 1.442 1_555 1_555
C10 C8 1.432 1_555 1_555
C11 C10 1.412 1_555 1_555
C12 C11 1.395 1_555 1_555
H4 C12 0.950 1_555 1_555
C13 C12 1.386 1_555 1_555
C14 C9 1.431 1_555 1_555
C15 C14 1.433 1_555 1_555
H5 C15 0.950 1_555 1_555
C16 C2 1.438 1_555 1_555
H6 C16 0.950 1_555 1_555
C17 C3 1.519 1_555 1_555
H7 C17 0.999 1_555 1_555
C18 C17 1.518 1_555 1_555
H8 C18 0.981 1_555 1_555
H9 C18 0.980 1_555 1_555
H10 C18 0.980 1_555 1_555
C19 C17 1.530 1_555 1_555
H11 C19 0.980 1_555 1_555
H12 C19 0.981 1_555 1_555
H13 C19 0.980 1_555 1_555
C20 C5 1.519 1_555 1_555
H14 C20 1.000 1_555 1_555
C21 C20 1.513 1_555 1_555
H15 C21 0.980 1_555 1_555
H16 C21 0.980 1_555 1_555
H17 C21 0.980 1_555 1_555
C22 C20 1.531 1_555 1_555
H18 C22 0.980 1_555 1_555
H19 C22 0.980 1_555 1_555
H20 C22 0.980 1_555 1_555
C23 C11 1.520 1_555 1_555
H21 C23 0.999 1_555 1_555
C24 C23 1.504 1_555 1_555
H22 C24 0.979 1_555 1_555
H23 C24 0.981 1_555 1_555
H24 C24 0.980 1_555 1_555
C25 C23 1.520 1_555 1_555
H25 C25 0.981 1_555 1_555
H26 C25 0.980 1_555 1_555
H27 C25 0.980 1_555 1_555
C26 C13 1.522 1_555 1_555
H28 C26 1.000 1_555 1_555
C27 C26 1.525 1_555 1_555
H29 C27 0.981 1_555 1_555
H30 C27 0.981 1_555 1_555
H31 C27 0.980 1_555 1_555
C28 C26 1.532 1_555 1_555
H32 C28 0.980 1_555 1_555
H33 C28 0.980 1_555 1_555
H34 C28 0.980 1_555 1_555
C29 C30 1.429 1_555 1_555
C30 C31 1.417 1_555 1_555
C31 C32 1.388 1_555 1_555
C32 H35 0.950 1_555 1_555
C33 C32 1.390 1_555 1_555
C34 C29 1.427 1_555 1_555
C35 C34 1.438 1_555 1_555
H36 C35 0.951 1_555 1_555
C36 C30 1.430 1_555 1_555
H37 C36 0.949 1_555 1_555
C37 C31 1.529 1_555 1_555
H38 C37 1.000 1_555 1_555
C38 C37 1.526 1_555 1_555
H39 C38 0.979 1_555 1_555
H40 C38 0.981 1_555 1_555
H41 C38 0.981 1_555 1_555
C39 C37 1.521 1_555 1_555
H42 C39 0.980 1_555 1_555
H43 C39 0.979 1_555 1_555
H44 C39 0.980 1_555 1_555
C40 C33 1.523 1_555 1_555
H45 C40 0.999 1_555 1_555
C41 C40 1.522 1_555 1_555
H46 C41 0.980 1_555 1_555
H47 C41 0.979 1_555 1_555
H48 C41 0.979 1_555 1_555
C42 C40 1.530 1_555 1_555
H49 C42 0.981 1_555 1_555
H50 C42 0.979 1_555 1_555
H51 C42 0.980 1_555 1_555
C43 C44 1.425 1_555 1_555
C44 C45 1.410 1_555 1_555
C45 C46 1.389 1_555 1_555
C46 H52 0.950 1_555 1_555
C47 C46 1.388 1_555 1_555
C48 C43 1.426 1_555 1_555
C49 C48 1.434 1_555 1_555
H53 C49 0.951 1_555 1_555
C50 C44 1.434 1_555 1_555
H54 C50 0.950 1_555 1_555
C51 C45 1.523 1_555 1_555
H55 C51 1.000 1_555 1_555
C52 C51 1.526 1_555 1_555
H56 C52 0.980 1_555 1_555
H57 C52 0.980 1_555 1_555
H58 C52 0.980 1_555 1_555
C53 C51 1.525 1_555 1_555
H59 C53 0.979 1_555 1_555
H60 C53 0.980 1_555 1_555
H61 C53 0.980 1_555 1_555
C54 C47 1.523 1_555 1_555
H62 C54 1.000 1_555 1_555
C55 C54 1.522 1_555 1_555
H63 C55 0.980 1_555 1_555
H64 C55 0.979 1_555 1_555
H65 C55 0.979 1_555 1_555
C56 C54 1.530 1_555 1_555
H66 C56 0.980 1_555 1_555
H67 C56 0.980 1_555 1_555
H68 C56 0.981 1_555 1_555
C29A C29 1.445 1_555 1_555
C30A C29A 1.429 1_555 1_555
C31A C30A 1.417 1_555 1_555
C32A C31A 1.388 1_555 1_555
H35A C32A 0.950 1_555 1_555
C33A C32A 1.390 1_555 1_555
C34A C29A 1.427 1_555 1_555
C35A C36 1.350 1_555 1_555
H36A C35A 0.951 1_555 1_555
C36A C35 1.350 1_555 1_555
H37A C36A 0.949 1_555 1_555
C37A C31A 1.529 1_555 1_555
H38A C37A 1.000 1_555 1_555
C38A C37A 1.526 1_555 1_555
H39A C38A 0.979 1_555 1_555
H40A C38A 0.981 1_555 1_555
H41A C38A 0.981 1_555 1_555
C39A C37A 1.521 1_555 1_555
H42A C39A 0.980 1_555 1_555
H43A C39A 0.979 1_555 1_555
H44A C39A 0.980 1_555 1_555
C40A C33A 1.523 1_555 1_555
H45A C40A 0.999 1_555 1_555
C41A C40A 1.522 1_555 1_555
H46A C41A 0.980 1_555 1_555
H47A C41A 0.979 1_555 1_555
H48A C41A 0.979 1_555 1_555
C42A C40A 1.530 1_555 1_555
H49A C42A 0.981 1_555 1_555
H50A C42A 0.979 1_555 1_555
H51A C42A 0.980 1_555 1_555
C43A C43 1.447 1_555 1_555
C44A C43A 1.425 1_555 1_555
C45A C44A 1.410 1_555 1_555
C46A C45A 1.389 1_555 1_555
H52A C46A 0.950 1_555 1_555
C47A C46A 1.388 1_555 1_555
C48A C43A 1.426 1_555 1_555
C49A C50 1.343 1_555 1_555
H53A C49A 0.951 1_555 1_555
C50A C49 1.343 1_555 1_555
H54A C50A 0.950 1_555 1_555
C51A C45A 1.523 1_555 1_555
H55A C51A 1.000 1_555 1_555
C52A C51A 1.526 1_555 1_555
H56A C52A 0.980 1_555 1_555
H57A C52A 0.980 1_555 1_555
H58A C52A 0.980 1_555 1_555
C53A C51A 1.525 1_555 1_555
H59A C53A 0.979 1_555 1_555
H60A C53A 0.980 1_555 1_555
H61A C53A 0.980 1_555 1_555
C54A C47A 1.523 1_555 1_555
H62A C54A 1.000 1_555 1_555
C55A C54A 1.522 1_555 1_555
H63A C55A 0.980 1_555 1_555
H64A C55A 0.979 1_555 1_555
H65A C55A 0.979 1_555 1_555
C56A C54A 1.530 1_555 1_555
H66A C56A 0.980 1_555 1_555
H67A C56A 0.980 1_555 1_555
H68A C56A 0.981 1_555 1_555
C5 C6 1.414 1_555 1_555
C9 C10 1.422 1_555 1_555
C13 C14 1.408 1_555 1_555
C15 C16 1.349 1_555 1_555
C33 C34 1.409 1_555 1_555
C47 C48 1.410 1_555 1_555
C30A C36A 1.430 1_555 1_555
C33A C34A 1.409 1_555 1_555
C34A C35A 1.438 1_555 1_555
C44A C50A 1.434 1_555 1_555
C47A C48A 1.410 1_555 1_555
C48A C49A 1.434 1_555 1_555
#END
