
#######################################################################
#
#                 Cambridge Crystallographic Data Centre
#                                CCDC
#
#######################################################################
#
# If this CIF has been generated from an entry in the Cambridge
# Structural Database, then it will include bibliographic, chemical,
# crystal, experimental, refinement or atomic coordinate data resulting
# from the CCDC's data processing and validation procedures.
#
#######################################################################

data_CSD_CIF_CORFIY
_audit_creation_date 2000-05-03
_audit_creation_method CSD-ConQuest-V1
_database_code_CSD CORFIY
_chemical_formula_sum 'C25 H33'
_chemical_formula_moiety
;
C25 H33
;
_journal_coden_Cambridge 4
_journal_volume 121
_journal_year 1999
_journal_page_first 1619
_journal_name_full 'J.Am.Chem.Soc. '
loop_
_publ_author_name
"K.Goto"
"T.Kubo"
"K.Yamamoto"
"K.Nakasuji"
"K.Sato"
"D.Shiomi"
"T.Takui"
"M.Kubota"
"T.Kobayashi"
"K.Yakusi"
"J.Ouyang"
_chemical_name_systematic
;
2,5,8-Tri-t-butylphenalenyl radical
;
_chemical_melting_point 505.15
_cell_volume   2121.756
_exptl_crystal_colour 'deep blue'
_exptl_crystal_density_diffrn 1.044
_exptl_special_details
;
crystals are air-sensitive

;
_exptl_crystal_description 'needles'
_exptl_crystal_preparation 'degassed hexane'
_diffrn_ambient_temperature ?
_diffrn_special_details
;
The study was carried out at room temperature,in the range 283-303K

;
#These two values have been output from a single CSD field.
_refine_ls_R_factor_gt 0.069
_refine_ls_wR_factor_gt 0.069
_symmetry_cell_setting monoclinic
_symmetry_space_group_name_H-M 'P 21/n'
_symmetry_Int_Tables_number 14
loop_
_symmetry_equiv_pos_site_id
_symmetry_equiv_pos_as_xyz
1 x,y,z
2 1/2-x,1/2+y,1/2-z
3 -x,-y,-z
4 -1/2+x,-1/2-y,-1/2+z
_cell_length_a 11.195(6)
_cell_length_b 11.017(7)
_cell_length_c 17.778(6)
_cell_angle_alpha 90
_cell_angle_beta 104.61(3)
_cell_angle_gamma 90
_cell_formula_units_Z 4
loop_
_atom_type_symbol
_atom_type_radius_bond
C 0.68
H 0.23
loop_
_atom_site_label
_atom_site_type_symbol
_atom_site_fract_x
_atom_site_fract_y
_atom_site_fract_z
C1 C 0.0555(4) 0.4231(4) 0.0773(2)
C2 C -0.0187(4) 0.3235(4) 0.0432(2)
C3 C 0.0308(4) 0.2383(4) -0.0003(3)
C4 C 0.1487(4) 0.2481(4) -0.0093(2)
C5 C 0.2186(4) 0.3483(4) 0.0224(3)
C6 C 0.1749(4) 0.4367(4) 0.0666(2)
C7 C 0.2490(4) 0.5353(4) 0.1033(3)
C8 C 0.2092(4) 0.6159(4) 0.1518(2)
C9 C 0.0894(4) 0.6029(4) 0.1587(3)
C10 C 0.0113(4) 0.5070(4) 0.1245(2)
C11 C -0.1075(4) 0.4878(4) 0.1368(3)
C12 C -0.1797(4) 0.3891(4) 0.1068(2)
C13 C -0.1366(4) 0.3105(4) 0.0579(3)
C14 C 0.2061(4) 0.1451(4) -0.0471(3)
C15 C 0.2955(4) 0.7124(4) 0.1985(3)
C16 C -0.3018(4) 0.3611(4) 0.1280(3)
C17 C 0.2968(6) 0.1915(5) -0.0899(4)
C18 C 0.2752(7) 0.0629(5) 0.0175(4)
C19 C 0.1091(5) 0.0710(5) -0.1037(4)
C20 C 0.3757(8) 0.6550(6) 0.2679(4)
C21 C 0.3818(8) 0.7630(7) 0.1530(5)
C22 C 0.2307(6) 0.8165(7) 0.2206(6)
C23 C -0.2875(6) 0.2477(6) 0.1760(4)
C24 C -0.4040(6) 0.3428(10) 0.0570(4)
C25 C -0.3408(6) 0.4596(6) 0.1747(5)
H1 H -0.134(3) 0.545(3) 0.175(2)
H2 H -0.183(3) 0.240(3) 0.035(2)
H3 H -0.024(3) 0.175(4) -0.020(2)
H4 H 0.300(3) 0.359(3) 0.017(2)
H5 H 0.332(3) 0.548(3) 0.095(2)
H6 H 0.057(3) 0.655(3) 0.190(2)
H7 H 0.33460 0.12540 -0.10970
H8 H 0.25540 0.24160 -0.13230
H9 H 0.35930 0.23820 -0.05570
H10 H 0.21990 0.03120 0.04520
H11 H 0.31190 -0.00240 -0.00370
H12 H 0.33850 0.10780 0.05230
H13 H 0.05200 0.03840 -0.07760
H14 H 0.06630 0.12160 -0.14520
H15 H 0.14770 0.00650 -0.12430
H16 H 0.32740 0.62260 0.29980
H17 H 0.42180 0.59110 0.25220
H18 H 0.43190 0.71340 0.29660
H19 H 0.42790 0.69900 0.13850
H20 H 0.33490 0.80280 0.10760
H21 H 0.43670 0.82010 0.18420
H22 H 0.28900 0.87470 0.24820
H23 H 0.18080 0.85440 0.17520
H24 H 0.17960 0.79110 0.25290
H25 H -0.36400 0.22890 0.18800
H26 H -0.26530 0.18200 0.14750
H27 H -0.22570 0.25920 0.22270
H28 H -0.41890 0.41540 0.02700
H29 H -0.38320 0.27950 0.02580
H30 H -0.47810 0.32030 0.07100
H31 H -0.27820 0.47250 0.22100
H32 H -0.35420 0.53290 0.14520
H33 H -0.41540 0.43710 0.18740
loop_
_geom_bond_atom_site_label_1
_geom_bond_atom_site_label_2
_geom_bond_distance
_geom_bond_site_symmetry_1
_geom_bond_site_symmetry_2
C1 C2 1.417 1_555 1_555
C2 C3 1.415 1_555 1_555
C3 C4 1.373 1_555 1_555
C4 C5 1.388 1_555 1_555
C5 C6 1.414 1_555 1_555
C6 C1 1.405 1_555 1_555
C7 C6 1.422 1_555 1_555
C8 C7 1.387 1_555 1_555
C9 C8 1.385 1_555 1_555
C10 C1 1.419 1_555 1_555
C11 C10 1.417 1_555 1_555
C12 C11 1.379 1_555 1_555
C13 C2 1.416 1_555 1_555
C14 C4 1.539 1_555 1_555
C15 C8 1.532 1_555 1_555
C16 C12 1.538 1_555 1_555
C17 C14 1.504 1_555 1_555
C18 C14 1.513 1_555 1_555
C19 C14 1.519 1_555 1_555
C20 C15 1.473 1_555 1_555
C21 C15 1.514 1_555 1_555
C22 C15 1.463 1_555 1_555
C23 C16 1.499 1_555 1_555
C24 C16 1.488 1_555 1_555
C25 C16 1.497 1_555 1_555
H1 C11 1.024 1_555 1_555
H2 C13 0.965 1_555 1_555
H3 C3 0.936 1_555 1_555
H4 C5 0.947 1_555 1_555
H5 C7 0.987 1_555 1_555
H6 C9 0.934 1_555 1_555
H7 C17 0.953 1_555 1_555
H8 C17 0.955 1_555 1_555
H9 C17 0.954 1_555 1_555
H10 C18 0.949 1_555 1_555
H11 C18 0.952 1_555 1_555
H12 C18 0.953 1_555 1_555
H13 C19 0.950 1_555 1_555
H14 C19 0.952 1_555 1_555
H15 C19 0.952 1_555 1_555
H16 C20 0.947 1_555 1_555
H17 C20 0.955 1_555 1_555
H18 C20 0.953 1_555 1_555
H19 C21 0.947 1_555 1_555
H20 C21 0.952 1_555 1_555
H21 C21 0.953 1_555 1_555
H22 C22 0.957 1_555 1_555
H23 C22 0.954 1_555 1_555
H24 C22 0.949 1_555 1_555
H25 C23 0.956 1_555 1_555
H26 C23 0.952 1_555 1_555
H27 C23 0.946 1_555 1_555
H28 C24 0.952 1_555 1_555
H29 C24 0.956 1_555 1_555
H30 C24 0.957 1_555 1_555
H31 C25 0.948 1_555 1_555
H32 C25 0.954 1_555 1_555
H33 C25 0.951 1_555 1_555
C9 C10 1.408 1_555 1_555
C12 C13 1.396 1_555 1_555
#END
