
#######################################################################
#
#                 Cambridge Crystallographic Data Centre
#                                CCDC
#
#######################################################################
#
# If this CIF has been generated from an entry in the Cambridge
# Structural Database, then it will include bibliographic, chemical,
# crystal, experimental, refinement or atomic coordinate data resulting
# from the CCDC's data processing and validation procedures.
#
#######################################################################

data_CSD_CIF_CORONE01
_audit_creation_date 1971-12-31
_audit_creation_method CSD-ConQuest-V1
_database_code_CSD CORONE01
_database_code_depnum_ccdc_archive 'CCDC 1129884'
_chemical_formula_sum 'C24 H12'
_chemical_formula_moiety
;
C24 H12
;
_journal_coden_Cambridge 2
_journal_year 1945
_journal_page_first 607
_journal_name_full 'J.Chem.Soc. '
loop_
_publ_author_name
"J.M.Robertson"
"J.G.White"
_chemical_name_systematic
;
Coronene
;
_cell_volume    717.230
_exptl_crystal_density_diffrn 1.381
_diffrn_ambient_temperature ?
_diffrn_special_details
;
The study was carried out at room temperature,in the range 283-303K

;
#These two values have been output from a single CSD field.
_refine_ls_R_factor_gt 0.14
_refine_ls_wR_factor_gt 0.14
_symmetry_cell_setting monoclinic
_symmetry_space_group_name_H-M 'P 21/a'
_symmetry_Int_Tables_number 14
loop_
_symmetry_equiv_pos_site_id
_symmetry_equiv_pos_as_xyz
1 x,y,z
2 1/2-x,1/2+y,-z
3 -x,-y,-z
4 -1/2+x,-1/2-y,z
_cell_length_a 16.10(5)
_cell_length_b 4.695(5)
_cell_length_c 10.15(5)
_cell_angle_alpha 90
_cell_angle_beta 110.8(2)
_cell_angle_gamma 90
_cell_formula_units_Z 2
loop_
_atom_type_symbol
_atom_type_radius_bond
C 0.68
loop_
_atom_site_label
_atom_site_type_symbol
_atom_site_fract_x
_atom_site_fract_y
_atom_site_fract_z
C1 C -0.11940 -0.41900 0.03600
C2 C -0.11190 -0.49800 0.17400
C3 C -0.04780 -0.37700 0.29100
C4 C 0.01220 -0.16900 0.27700
C5 C 0.07830 -0.04100 0.39400
C6 C 0.13600 0.16100 0.37700
C7 C 0.13170 0.25000 0.24100
C8 C 0.18970 0.45600 0.22000
C9 C -0.18350 -0.53800 -0.08600
C10 C -0.05970 -0.20900 0.01800
C11 C 0.00610 -0.08400 0.13800
C12 C 0.06580 0.12500 0.12100
C9B C 0.18350 0.53800 0.08600
C8B C -0.18970 -0.45600 -0.22000
C12B C -0.06580 -0.12500 -0.12100
C10B C 0.05970 0.20900 -0.01800
C1B C 0.11940 0.41900 -0.03600
C7B C -0.13170 -0.25000 -0.24100
C11B C -0.00610 0.08400 -0.13800
C2B C 0.11190 0.49800 -0.17400
C6B C -0.13600 -0.16100 -0.37700
C4B C -0.01220 0.16900 -0.27700
C3B C 0.04780 0.37700 -0.29100
C5B C -0.07830 0.04100 -0.39400
loop_
_geom_bond_atom_site_label_1
_geom_bond_atom_site_label_2
_geom_bond_distance
_geom_bond_site_symmetry_1
_geom_bond_site_symmetry_2
C1 C2 1.412 1_555 1_555
C2 C3 1.388 1_555 1_555
C3 C4 1.416 1_555 1_555
C4 C5 1.416 1_555 1_555
C5 C6 1.381 1_555 1_555
C6 C7 1.420 1_555 1_555
C7 C8 1.412 1_555 1_555
C8 C9B 1.383 1_555 1_555
C9 C1 1.415 1_555 1_555
C10 C1 1.433 1_555 1_555
C11 C4 1.436 1_555 1_555
C12 C7 1.427 1_555 1_555
C9B C1B 1.415 1_555 1_555
C8B C9 1.383 1_555 1_555
C12B C10 1.434 1_555 1_555
C10B C12 1.434 1_555 1_555
C1B C10B 1.433 1_555 1_555
C7B C8B 1.412 1_555 1_555
C11B C12B 1.426 1_555 1_555
C2B C1B 1.412 1_555 1_555
C6B C7B 1.420 1_555 1_555
C4B C11B 1.436 1_555 1_555
C3B C2B 1.388 1_555 1_555
C5B C6B 1.381 1_555 1_555
C10 C11 1.426 1_555 1_555
C11 C12 1.426 1_555 1_555
C12B C7B 1.427 1_555 1_555
C10B C11B 1.426 1_555 1_555
C4B C3B 1.416 1_555 1_555
C4B C5B 1.416 1_555 1_555
#END
