
#######################################################################
#
#                 Cambridge Crystallographic Data Centre
#                                CCDC
#
#######################################################################
#
# If this CIF has been generated from an entry in the Cambridge
# Structural Database, then it will include bibliographic, chemical,
# crystal, experimental, refinement or atomic coordinate data resulting
# from the CCDC's data processing and validation procedures.
#
#######################################################################

data_CSD_CIF_CORONE04
_audit_creation_date 2016-05-17
_audit_creation_method CSD-ConQuest-V1
_database_code_CSD CORONE04
_database_code_depnum_ccdc_archive 'CCDC 1409823'
_chemical_formula_sum 'C24 H12'
_chemical_formula_moiety
;
C24 H12
;
_journal_coden_Cambridge 1490
_journal_volume 7
_journal_year 2016
_journal_page_first 11555
_journal_name_full 'Nat.Commun. '
loop_
_publ_author_name
"J.Potticary"
"L.R.Terry"
"C.Bell"
"A.N.Papanikolopoulos"
"P.C.M.Christianen"
"Hans Engelkamp"
"A.M.Collins"
"C.Fontanesi"
"G.Kociok-Kohn"
"S.Crampin"
"E.Da Como"
"S.R.Hall"
_chemical_name_systematic
;
coronene
;
_cell_volume    678.984
_exptl_crystal_colour 'orange'
_exptl_crystal_density_diffrn 1.469
_exptl_special_details
;
beta polymorph

;
_exptl_crystal_description 'Needle / Ribbon'
_diffrn_ambient_temperature 80
#These two values have been output from a single CSD field.
_refine_ls_R_factor_gt 0.0752
_refine_ls_wR_factor_gt 0.0752
_symmetry_cell_setting monoclinic
_symmetry_space_group_name_H-M 'P 21/n'
_symmetry_Int_Tables_number 14
loop_
_symmetry_equiv_pos_site_id
_symmetry_equiv_pos_as_xyz
1 x,y,z
2 1/2-x,1/2+y,1/2-z
3 -x,-y,-z
4 -1/2+x,-1/2-y,-1/2+z
_cell_length_a 10.3855(12)
_cell_length_b 3.8212(3)
_cell_length_c 17.2111(18)
_cell_angle_alpha 90
_cell_angle_beta 96.235(10)
_cell_angle_gamma 90
_cell_formula_units_Z 2
loop_
_atom_type_symbol
_atom_type_radius_bond
C 0.68
H 0.23
loop_
_atom_site_label
_atom_site_type_symbol
_atom_site_fract_x
_atom_site_fract_y
_atom_site_fract_z
C1 C 0.3433(3) 0.7904(7) 0.54325(15)
H1 H 0.43160 0.83610 0.53730
C2 C 0.2634(2) 0.6372(7) 0.48068(15)
C3 C 0.3099(3) 0.5453(7) 0.40856(15)
H2 H 0.39770 0.59070 0.40140
C4 C 0.2310(3) 0.3939(7) 0.34968(14)
H3 H 0.26510 0.33430 0.30240
C5 C 0.0984(3) 0.3230(7) 0.35748(14)
C6 C 0.0142(3) 0.1665(7) 0.29748(14)
H4 H 0.04670 0.10360 0.24990
C7 C -0.1129(3) 0.1033(7) 0.30609(14)
H5 H -0.16740 0.00120 0.26430
C8 C -0.1648(3) 0.1886(7) 0.37709(14)
C9 C -0.2965(3) 0.1257(7) 0.38782(15)
H6 H -0.35270 0.02430 0.34670
C10 C -0.0827(3) 0.3453(7) 0.43791(14)
C11 C 0.0492(2) 0.4107(7) 0.42855(14)
C12 C 0.1321(2) 0.5683(7) 0.48993(14)
C1B C -0.3433(3) 0.2096(7) 0.45675(15)
H1B H -0.43160 0.16390 0.46270
C2B C -0.2634(2) 0.3628(7) 0.51932(15)
C3B C -0.3099(3) 0.4547(7) 0.59144(15)
H2B H -0.39770 0.40930 0.59860
C4B C -0.2310(3) 0.6061(7) 0.65032(14)
H3B H -0.26510 0.66570 0.69760
C5B C -0.0984(3) 0.6770(7) 0.64252(14)
C6B C -0.0142(3) 0.8335(7) 0.70252(14)
H4B H -0.04670 0.89640 0.75010
C7B C 0.1129(3) 0.8967(7) 0.69391(14)
H5B H 0.16740 0.99880 0.73570
C8B C 0.1648(3) 0.8114(7) 0.62291(14)
C9B C 0.2965(3) 0.8743(7) 0.61218(15)
H6B H 0.35270 0.97570 0.65330
C10B C 0.0827(3) 0.6547(7) 0.56209(14)
C11B C -0.0492(2) 0.5893(7) 0.57145(14)
C12B C -0.1321(2) 0.4317(7) 0.51007(14)
loop_
_geom_bond_atom_site_label_1
_geom_bond_atom_site_label_2
_geom_bond_distance
_geom_bond_site_symmetry_1
_geom_bond_site_symmetry_2
C1 H1 0.950 1_555 1_555
C2 C1 1.413 1_555 1_555
C3 C2 1.424 1_555 1_555
H2 C3 0.949 1_555 1_555
C4 C3 1.361 1_555 1_555
H3 C4 0.950 1_555 1_555
C5 C4 1.424 1_555 1_555
C6 C5 1.412 1_555 1_555
H4 C6 0.950 1_555 1_555
C7 C6 1.366 1_555 1_555
H5 C7 0.949 1_555 1_555
C8 C7 1.426 1_555 1_555
C9 C8 1.420 1_555 1_555
H6 C9 0.950 1_555 1_555
C10 C8 1.410 1_555 1_555
C11 C5 1.416 1_555 1_555
C12 C2 1.415 1_555 1_555
C1B C9 1.368 1_555 1_555
H1B C1B 0.950 1_555 1_555
C2B C1B 1.413 1_555 1_555
C3B C2B 1.424 1_555 1_555
H2B C3B 0.949 1_555 1_555
C4B C3B 1.361 1_555 1_555
H3B C4B 0.950 1_555 1_555
C5B C4B 1.424 1_555 1_555
C6B C5B 1.412 1_555 1_555
H4B C6B 0.950 1_555 1_555
C7B C6B 1.366 1_555 1_555
H5B C7B 0.949 1_555 1_555
C8B C7B 1.426 1_555 1_555
C9B C1 1.368 1_555 1_555
H6B C9B 0.950 1_555 1_555
C10B C12 1.433 1_555 1_555
C11B C5B 1.416 1_555 1_555
C12B C10 1.433 1_555 1_555
C10 C11 1.419 1_555 1_555
C11 C12 1.422 1_555 1_555
C2B C12B 1.415 1_555 1_555
C8B C9B 1.420 1_555 1_555
C8B C10B 1.410 1_555 1_555
C10B C11B 1.419 1_555 1_555
C11B C12B 1.422 1_555 1_555
#END
