
#######################################################################
#
#                 Cambridge Crystallographic Data Centre
#                                CCDC
#
#######################################################################
#
# If this CIF has been generated from an entry in the Cambridge
# Structural Database, then it will include bibliographic, chemical,
# crystal, experimental, refinement or atomic coordinate data resulting
# from the CCDC's data processing and validation procedures.
#
#######################################################################

data_CSD_CIF_CORXAI10
_audit_creation_date 1987-07-17
_audit_creation_method CSD-ConQuest-V1
_database_code_CSD CORXAI10
_database_code_depnum_ccdc_archive 'CCDC 1129926'
_chemical_formula_sum 'C34 H18'
_chemical_formula_moiety
;
C34 H18
;
_journal_coden_Cambridge 7
_journal_volume 59
_journal_year 1986
_journal_page_first 2233
_journal_name_full 'Bull.Chem.Soc.Jpn. '
loop_
_publ_author_name
"I.Oonishi"
"S.Fujisawa"
"J.Aoki"
"Y.Ohashi"
"Y.Sasada"
_chemical_name_systematic
;
Dibenzo(a,rst)naphtho(8,1,2-cde)pentaphene
;
_chemical_name_common
;
Violanthrene B
;
_cell_volume   1947.639
_exptl_crystal_density_diffrn 1.455
_exptl_special_details
;
Supplementary data did not include H-atoms as stated in paper

;
_diffrn_ambient_temperature ?
_diffrn_special_details
;
The study was carried out at room temperature,in the range 283-303K

;
#These two values have been output from a single CSD field.
_refine_ls_R_factor_gt 0.076
_refine_ls_wR_factor_gt 0.076
_symmetry_cell_setting monoclinic
_symmetry_space_group_name_H-M 'P 21/c'
_symmetry_Int_Tables_number 14
loop_
_symmetry_equiv_pos_site_id
_symmetry_equiv_pos_as_xyz
1 x,y,z
2 -x,1/2+y,1/2-z
3 -x,-y,-z
4 x,-1/2-y,-1/2+z
_cell_length_a 25.78(1)
_cell_length_b 3.807(5)
_cell_length_c 19.975(8)
_cell_angle_alpha 90
_cell_angle_beta 96.55(3)
_cell_angle_gamma 90
_cell_formula_units_Z 4
loop_
_atom_type_symbol
_atom_type_radius_bond
C 0.68
loop_
_atom_site_label
_atom_site_type_symbol
_atom_site_fract_x
_atom_site_fract_y
_atom_site_fract_z
C1 C 0.1241(3) 0.2138(27) -0.1452(5)
C2 C 0.0800(4) 0.2115(31) -0.1900(5)
C3 C 0.0323(4) 0.0849(29) -0.1731(5)
C4 C 0.0291(4) -0.0558(29) -0.1099(5)
C5 C 0.0746(4) -0.0517(27) -0.0613(5)
C6 C 0.0719(3) -0.1932(29) 0.0043(5)
C7 C 0.1150(4) -0.1843(26) 0.0523(5)
C8 C 0.1117(4) -0.3256(28) 0.1205(5)
C9 C 0.1540(4) -0.3209(28) 0.1671(5)
C10 C 0.2036(3) -0.1904(26) 0.1537(5)
C11 C 0.2474(3) -0.1644(27) 0.2020(5)
C12 C 0.2422(4) -0.2480(29) 0.2739(5)
C13 C 0.2838(4) -0.1973(30) 0.3211(5)
C14 C 0.3318(4) -0.0696(28) 0.3062(5)
C15 C 0.3725(4) 0.0012(32) 0.3570(5)
C16 C 0.4183(4) 0.1410(35) 0.3408(5)
C17 C 0.4275(4) 0.2043(32) 0.2732(5)
C18 C 0.3878(3) 0.1253(29) 0.2218(5)
C19 C 0.3977(3) 0.1447(27) 0.1499(5)
C20 C 0.4474(4) 0.2186(33) 0.1328(5)
C21 C 0.4586(4) 0.1827(32) 0.0665(5)
C22 C 0.4190(4) 0.0617(30) 0.0188(5)
C23 C 0.3689(3) 0.0041(30) 0.0337(4)
C24 C 0.3556(3) 0.0700(25) 0.0998(5)
C25 C 0.3031(3) 0.0176(26) 0.1166(5)
C26 C 0.2578(3) 0.0444(24) 0.0699(5)
C27 C 0.2592(3) 0.2116(26) 0.0038(4)
C28 C 0.2167(3) 0.2199(27) -0.0412(4)
C29 C 0.1684(3) 0.0778(24) -0.0288(5)
C30 C 0.1227(3) 0.0729(26) -0.0786(5)
C31 C 0.1642(3) -0.0621(24) 0.0366(5)
C32 C 0.2089(3) -0.0671(23) 0.0860(5)
C33 C 0.2964(3) -0.0570(26) 0.1854(4)
C34 C 0.3398(4) -0.0029(27) 0.2371(5)
loop_
_geom_bond_atom_site_label_1
_geom_bond_atom_site_label_2
_geom_bond_distance
_geom_bond_site_symmetry_1
_geom_bond_site_symmetry_2
C1 C2 1.364 1_555 1_555
C2 C3 1.398 1_555 1_555
C3 C4 1.382 1_555 1_555
C4 C5 1.435 1_555 1_555
C5 C6 1.426 1_555 1_555
C6 C7 1.383 1_555 1_555
C7 C8 1.476 1_555 1_555
C8 C9 1.351 1_555 1_555
C9 C10 1.425 1_555 1_555
C10 C11 1.403 1_555 1_555
C11 C12 1.492 1_555 1_555
C12 C13 1.359 1_555 1_555
C13 C14 1.393 1_555 1_555
C14 C15 1.400 1_555 1_555
C15 C16 1.367 1_555 1_555
C16 C17 1.418 1_555 1_555
C17 C18 1.397 1_555 1_555
C18 C19 1.489 1_555 1_555
C19 C20 1.392 1_555 1_555
C20 C21 1.394 1_555 1_555
C21 C22 1.393 1_555 1_555
C22 C23 1.376 1_555 1_555
C23 C24 1.424 1_555 1_555
C24 C19 1.419 1_555 1_555
C25 C24 1.445 1_555 1_555
C26 C25 1.413 1_555 1_555
C27 C26 1.470 1_555 1_555
C28 C27 1.336 1_555 1_555
C29 C28 1.405 1_555 1_555
C30 C1 1.439 1_555 1_555
C31 C7 1.419 1_555 1_555
C32 C10 1.453 1_555 1_555
C33 C11 1.403 1_555 1_555
C34 C14 1.441 1_555 1_555
C5 C30 1.407 1_555 1_555
C18 C34 1.396 1_555 1_555
C25 C33 1.433 1_555 1_555
C26 C32 1.402 1_555 1_555
C29 C30 1.453 1_555 1_555
C29 C31 1.426 1_555 1_555
C31 C32 1.429 1_555 1_555
C33 C34 1.448 1_555 1_555
#END
