
#######################################################################
#
#                 Cambridge Crystallographic Data Centre
#                                CCDC
#
#######################################################################
#
# If this CIF has been generated from an entry in the Cambridge
# Structural Database, then it will include bibliographic, chemical,
# crystal, experimental, refinement or atomic coordinate data resulting
# from the CCDC's data processing and validation procedures.
#
#######################################################################

data_CSD_CIF_COTYUF01
_audit_creation_date 2012-08-21
_audit_creation_method CSD-ConQuest-V1
_database_code_CSD COTYUF01
_database_code_depnum_ccdc_archive 'CCDC 854257'
_chemical_formula_sum 'C24 H18'
_chemical_formula_moiety
;
C24 H18
;
_journal_coden_Cambridge 1366
_journal_volume 354
_journal_year 2012
_journal_page_first 1551
_journal_name_full 'Adv.Synth.Catal. '
loop_
_publ_author_name
"Jheng-Jhih Chen"
"Satoru Onogi"
"Ya-Chu Hsieh"
"Chien-Chi Hsiao"
"S.Higashibayashi"
"H.Sakurai"
"Yao-Ting Wu"
_chemical_name_systematic
;
anti-9-(2-Methyl-1-naphthyl)-9H-fluorene
;
_chemical_melting_point 392.15
_cell_volume   1627.955
_exptl_crystal_colour 'colorless'
_exptl_crystal_density_diffrn 1.25
_exptl_special_details
;
Melting point range 392.15-393.15K

;
_diffrn_ambient_temperature 100
#These two values have been output from a single CSD field.
_refine_ls_R_factor_gt 0.0355
_refine_ls_wR_factor_gt 0.0355
loop_
_citation_database_id_CSD
_citation_special_details
RARRUZ "is a stereoisomer of this entry"
_symmetry_cell_setting monoclinic
_symmetry_space_group_name_H-M 'P 21/n'
_symmetry_Int_Tables_number 14
loop_
_symmetry_equiv_pos_site_id
_symmetry_equiv_pos_as_xyz
1 x,y,z
2 1/2-x,1/2+y,1/2-z
3 -x,-y,-z
4 -1/2+x,-1/2-y,-1/2+z
_cell_length_a 9.085(2)
_cell_length_b 8.582(2)
_cell_length_c 20.886(5)
_cell_angle_alpha 90
_cell_angle_beta 91.382(5)
_cell_angle_gamma 90
_cell_formula_units_Z 4
loop_
_atom_type_symbol
_atom_type_radius_bond
C 0.68
H 0.23
loop_
_atom_site_label
_atom_site_type_symbol
_atom_site_fract_x
_atom_site_fract_y
_atom_site_fract_z
C1 C 0.68154(13) 0.75117(15) -0.04973(6)
H1 H 0.61340 0.77950 -0.08290
C2 C 0.78828(14) 0.85721(14) -0.02931(6)
H2 H 0.79160 0.95770 -0.04830
C3 C 0.89020(13) 0.81765(14) 0.01856(6)
H3 H 0.96290 0.89040 0.03260
C4 C 0.88401(12) 0.67033(13) 0.04545(5)
C5 C 0.98793(12) 0.59760(13) 0.09493(5)
H4 H 1.08340 0.58020 0.07320
C6 C 1.02257(12) 0.69952(13) 0.15318(5)
C7 C 1.16341(12) 0.77556(13) 0.15848(5)
C8 C 1.27693(13) 0.75648(14) 0.11347(6)
H5 H 1.26080 0.68880 0.07800
C9 C 1.40908(13) 0.83300(15) 0.11974(6)
H6 H 1.48340 0.81610 0.08930
C10 C 1.43521(14) 0.93646(15) 0.17109(6)
H7 H 1.52620 0.99070 0.17490
C11 C 0.77264(14) 0.15481(14) 0.09800(6)
H8 H 0.72250 0.05770 0.09650
C12 C 0.72367(13) 0.27644(14) 0.05924(6)
H9 H 0.64080 0.26310 0.03120
C13 C 0.79792(12) 0.41822(13) 0.06210(5)
C14 C 0.91949(12) 0.43755(13) 0.10414(5)
C15 C 0.96844(14) 0.31523(14) 0.14232(6)
H10 H 1.05150 0.32790 0.17040
C16 C 0.89414(14) 0.17341(14) 0.13900(6)
H11 H 0.92680 0.08870 0.16500
C17 C 1.32922(14) 0.95833(14) 0.21527(6)
H12 H 1.34680 1.02930 0.24950
C18 C 1.19326(13) 0.87747(13) 0.21129(6)
C19 C 1.08692(14) 0.89486(14) 0.25919(6)
H13 H 1.10730 0.95950 0.29530
C20 C 0.95579(13) 0.81939(13) 0.25373(6)
H14 H 0.88660 0.83040 0.28680
C21 C 0.91934(13) 0.72455(13) 0.19998(6)
C22 C 0.76724(13) 0.65549(15) 0.19693(6)
H15 H 0.72940 0.65780 0.15260
H16 H 0.70210 0.71620 0.22410
H17 H 0.77110 0.54750 0.21210
C23 C 0.67329(12) 0.60398(14) -0.02213(6)
H18 H 0.59920 0.53240 -0.03570
C24 C 0.77562(12) 0.56329(13) 0.02580(5)
loop_
_geom_bond_atom_site_label_1
_geom_bond_atom_site_label_2
_geom_bond_distance
_geom_bond_site_symmetry_1
_geom_bond_site_symmetry_2
C1 H1 0.950 1_555 1_555
C2 C1 1.389 1_555 1_555
H2 C2 0.950 1_555 1_555
C3 C2 1.388 1_555 1_555
H3 C3 0.950 1_555 1_555
C4 C3 1.385 1_555 1_555
C5 C4 1.517 1_555 1_555
H4 C5 1.000 1_555 1_555
C6 C5 1.525 1_555 1_555
C7 C6 1.438 1_555 1_555
C8 C7 1.422 1_555 1_555
H5 C8 0.950 1_555 1_555
C9 C8 1.372 1_555 1_555
H6 C9 0.950 1_555 1_555
C10 C9 1.408 1_555 1_555
H7 C10 0.950 1_555 1_555
C11 H8 0.950 1_555 1_555
C12 C11 1.388 1_555 1_555
H9 C12 0.950 1_555 1_555
C13 C12 1.392 1_555 1_555
C14 C5 1.522 1_555 1_555
C15 C14 1.385 1_555 1_555
H10 C15 0.951 1_555 1_555
C16 C11 1.390 1_555 1_555
H11 C16 0.951 1_555 1_555
C17 C10 1.363 1_555 1_555
H12 C17 0.950 1_555 1_555
C18 C7 1.428 1_555 1_555
C19 C18 1.415 1_555 1_555
H13 C19 0.951 1_555 1_555
C20 C19 1.358 1_555 1_555
H14 C20 0.950 1_555 1_555
C21 C6 1.388 1_555 1_555
C22 C21 1.504 1_555 1_555
H15 C22 0.980 1_555 1_555
H16 C22 0.980 1_555 1_555
H17 C22 0.980 1_555 1_555
C23 C1 1.391 1_555 1_555
H18 C23 0.950 1_555 1_555
C24 C4 1.401 1_555 1_555
C13 C14 1.404 1_555 1_555
C13 C24 1.469 1_555 1_555
C15 C16 1.393 1_555 1_555
C17 C18 1.417 1_555 1_555
C20 C21 1.419 1_555 1_555
C23 C24 1.394 1_555 1_555
#END
