
#######################################################################
#
#                 Cambridge Crystallographic Data Centre
#                                CCDC
#
#######################################################################
#
# If this CIF has been generated from an entry in the Cambridge
# Structural Database, then it will include bibliographic, chemical,
# crystal, experimental, refinement or atomic coordinate data resulting
# from the CCDC's data processing and validation procedures.
#
#######################################################################

data_CSD_CIF_COTZAM
_audit_creation_date 1985-08-16
_audit_creation_method CSD-ConQuest-V1
_database_code_CSD COTZAM
_database_code_depnum_ccdc_archive 'CCDC 1130194'
_chemical_formula_sum 'C25 H20'
_chemical_formula_moiety
;
C25 H20
;
_journal_coden_Cambridge 7
_journal_volume 57
_journal_year 1984
_journal_page_first 1970
_journal_name_full 'Bull.Chem.Soc.Jpn. '
loop_
_publ_author_name
"S.Murata"
"T.Mori"
"M.Oki"
_chemical_name_systematic
;
1-Methyl-9-(2-methyl-1-naphthyl)-fluorene
;
_chemical_melting_point 468.15
_cell_volume   3559.407
_exptl_crystal_density_diffrn 1.2
_exptl_special_details
;
Melting point range 468.15-469.15K

;
_diffrn_ambient_temperature ?
_diffrn_special_details
;
The study was carried out at room temperature,in the range 283-303K

;
#These two values have been output from a single CSD field.
_refine_ls_R_factor_gt 0.065
_refine_ls_wR_factor_gt 0.065
_symmetry_cell_setting orthorhombic
_symmetry_space_group_name_H-M 'P b c n'
_symmetry_Int_Tables_number 60
loop_
_symmetry_equiv_pos_site_id
_symmetry_equiv_pos_as_xyz
1 x,y,z
2 1/2-x,1/2-y,1/2+z
3 1/2+x,1/2-y,-z
4 -x,y,1/2-z
5 -x,-y,-z
6 -1/2+x,-1/2+y,-1/2-z
7 -1/2-x,-1/2+y,z
8 x,-y,-1/2+z
_cell_length_a 18.164(4)
_cell_length_b 7.414(2)
_cell_length_c 26.431(6)
_cell_angle_alpha 90
_cell_angle_beta 90
_cell_angle_gamma 90
_cell_formula_units_Z 8
loop_
_atom_type_symbol
_atom_type_radius_bond
C 0.68
loop_
_atom_site_label
_atom_site_type_symbol
_atom_site_fract_x
_atom_site_fract_y
_atom_site_fract_z
C1 C 0.0613(2) 0.6780(6) 0.0393(2)
C2 C 0.1059(2) 0.5090(6) 0.0420(1)
C3 C 0.1416(2) 0.4373(7) -0.0008(1)
C4 C 0.1855(2) 0.2840(7) 0.0024(2)
C5 C 0.1972(2) 0.1973(6) 0.0475(2)
C6 C 0.1625(2) 0.2636(5) 0.0903(1)
C7 C 0.1649(2) 0.2003(4) 0.1426(1)
C8 C 0.2037(2) 0.0592(5) 0.1654(2)
C9 C 0.1959(2) 0.0319(5) 0.2165(2)
C10 C 0.1508(2) 0.1404(5) 0.2453(1)
C11 C 0.1111(2) 0.2814(4) 0.2233(1)
C12 C 0.1194(2) 0.3102(4) 0.1719(1)
C13 C 0.0875(2) 0.4618(4) 0.1395(1)
C14 C 0.1165(2) 0.4165(5) 0.0872(1)
C15 C 0.0052(2) 0.4944(4) 0.1464(1)
C16 C -0.0185(2) 0.6524(4) 0.1685(1)
C17 C -0.0947(2) 0.6815(5) 0.1759(1)
C18 C -0.1453(2) 0.5588(5) 0.1611(1)
C19 C -0.1234(2) 0.3978(5) 0.1373(1)
C20 C -0.1758(2) 0.2703(5) 0.1201(1)
C21 C -0.1549(2) 0.1162(5) 0.0970(1)
C22 C -0.0794(2) 0.0772(5) 0.0907(1)
C23 C -0.0276(2) 0.1976(4) 0.1069(1)
C24 C -0.0470(2) 0.3631(4) 0.1303(1)
C25 C 0.0341(2) 0.8003(5) 0.1853(1)
loop_
_geom_bond_atom_site_label_1
_geom_bond_atom_site_label_2
_geom_bond_distance
_geom_bond_site_symmetry_1
_geom_bond_site_symmetry_2
C1 C2 1.494 1_555 1_555
C2 C3 1.408 1_555 1_555
C3 C4 1.391 1_555 1_555
C4 C5 1.371 1_555 1_555
C5 C6 1.385 1_555 1_555
C6 C7 1.460 1_555 1_555
C7 C8 1.398 1_555 1_555
C8 C9 1.373 1_555 1_555
C9 C10 1.378 1_555 1_555
C10 C11 1.397 1_555 1_555
C11 C12 1.383 1_555 1_555
C12 C7 1.395 1_555 1_555
C13 C12 1.527 1_555 1_555
C14 C2 1.391 1_555 1_555
C15 C13 1.525 1_555 1_555
C16 C15 1.378 1_555 1_555
C17 C16 1.414 1_555 1_555
C18 C17 1.351 1_555 1_555
C19 C18 1.407 1_555 1_555
C20 C19 1.416 1_555 1_555
C21 C20 1.350 1_555 1_555
C22 C21 1.411 1_555 1_555
C23 C22 1.366 1_555 1_555
C24 C15 1.424 1_555 1_555
C25 C16 1.521 1_555 1_555
C6 C14 1.411 1_555 1_555
C13 C14 1.517 1_555 1_555
C19 C24 1.423 1_555 1_555
C23 C24 1.419 1_555 1_555
#END
