
#######################################################################
#
#                 Cambridge Crystallographic Data Centre
#                                CCDC
#
#######################################################################
#
# If this CIF has been generated from an entry in the Cambridge
# Structural Database, then it will include bibliographic, chemical,
# crystal, experimental, refinement or atomic coordinate data resulting
# from the CCDC's data processing and validation procedures.
#
#######################################################################

data_CSD_CIF_CPPHEN
_audit_creation_date 1971-12-31
_audit_creation_method CSD-ConQuest-V1
_database_code_CSD CPPHEN
_chemical_formula_sum 'C17 H14'
_chemical_formula_moiety
;
C17 H14
;
_journal_coden_Cambridge 5
_journal_volume 116
_journal_year 1961
_journal_page_first 251
_journal_name_full 'Z.Kristallogr.,Kristallgeom.,Kristallphys.,Kristallchem. '
loop_
_publ_author_name
"R.F.Entwistle"
"J.Iball"
_chemical_name_systematic
;
1,2-Cyclopentenophenanthrene
;
_cell_volume   1162.548
_exptl_special_details
;
stable monoclinic polymorph

;
_diffrn_ambient_temperature ?
_diffrn_special_details
;
The study was carried out at room temperature,in the range 283-303K

;
#These two values have been output from a single CSD field.
_refine_ls_R_factor_gt 0.1
_refine_ls_wR_factor_gt 0.1
_symmetry_cell_setting monoclinic
_symmetry_space_group_name_H-M 'P 21/a'
_symmetry_Int_Tables_number 14
loop_
_symmetry_equiv_pos_site_id
_symmetry_equiv_pos_as_xyz
1 x,y,z
2 1/2-x,1/2+y,-z
3 -x,-y,-z
4 -1/2+x,-1/2-y,z
_cell_length_a 18.35
_cell_length_b 5.869
_cell_length_c 11.61
_cell_angle_alpha 90
_cell_angle_beta 111.6
_cell_angle_gamma 90
_cell_formula_units_Z 4
loop_
_atom_type_symbol
_atom_type_radius_bond
C 0.68
H 0.20
loop_
_atom_site_label
_atom_site_type_symbol
_atom_site_fract_x
_atom_site_fract_y
_atom_site_fract_z
C1 C -0.39470 0.07650 -0.00510
C2 C -0.28380 -0.09030 0.16860
C3 C -0.22800 -0.26840 0.22080
C4 C -0.17700 -0.25360 0.34340
C5 C -0.18240 -0.07570 0.41660
C6 C -0.23690 0.10120 0.37000
C7 C -0.28860 0.09780 0.24600
C8 C -0.34690 0.27500 0.19710
C9 C -0.39800 0.25410 0.07870
C10 C -0.44770 0.06610 -0.12990
C11 C -0.51410 0.23040 -0.19480
C12 C -0.53770 0.15510 -0.33170
C13 C -0.50520 -0.09120 -0.33370
C14 C -0.44130 -0.10100 -0.20700
C15 C -0.38580 -0.28390 -0.16510
C16 C -0.33390 -0.27320 -0.04080
C17 C -0.33630 -0.10090 0.04180
H1 H -0.49000 0.39700 -0.18000
H2 H -0.13700 -0.38700 0.38200
H3 H -0.14400 -0.06400 0.50100
H4 H -0.24000 0.22500 0.42500
H5 H -0.35000 0.41500 0.24900
H6 H -0.43800 0.37400 0.04500
H7 H -0.55400 0.22500 -0.16000
H8 H -0.59700 0.16700 -0.37000
H9 H -0.51700 0.27100 -0.37800
H10 H -0.54800 -0.21600 -0.34700
H11 H -0.48400 -0.11700 -0.40300
H12 H -0.38400 -0.41200 -0.22300
H13 H -0.29400 -0.39300 -0.00900
H14 H -0.22700 -0.39800 0.16300
loop_
_geom_bond_atom_site_label_1
_geom_bond_atom_site_label_2
_geom_bond_distance
_geom_bond_site_symmetry_1
_geom_bond_site_symmetry_2
C1 C9 1.442 1_555 1_555
C2 C3 1.432 1_555 1_555
C3 C4 1.389 1_555 1_555
C4 C5 1.373 1_555 1_555
C5 C6 1.404 1_555 1_555
C6 C7 1.403 1_555 1_555
C7 C2 1.446 1_555 1_555
C8 C7 1.450 1_555 1_555
C9 C8 1.355 1_555 1_555
C10 C1 1.418 1_555 1_555
C11 C10 1.519 1_555 1_555
C12 C11 1.550 1_555 1_555
C13 C12 1.567 1_555 1_555
C14 C10 1.362 1_555 1_555
C15 C14 1.436 1_555 1_555
C16 C15 1.408 1_555 1_555
C17 C1 1.449 1_555 1_555
H1 C11 1.061 1_555 1_555
H2 C4 1.054 1_555 1_555
H3 C5 0.976 1_555 1_555
H4 C6 0.983 1_555 1_555
H5 C8 1.033 1_555 1_555
H6 C9 0.988 1_555 1_555
H7 C11 0.958 1_555 1_555
H8 C12 1.015 1_555 1_555
H9 C12 1.023 1_555 1_555
H10 C13 1.043 1_555 1_555
H11 C13 1.026 1_555 1_555
H12 C15 1.017 1_555 1_555
H13 C16 0.984 1_555 1_555
H14 C3 1.019 1_555 1_555
C2 C17 1.434 1_555 1_555
C13 C14 1.507 1_555 1_555
C16 C17 1.405 1_555 1_555
#END
