
#######################################################################
#
#                 Cambridge Crystallographic Data Centre
#                                CCDC
#
#######################################################################
#
# If this CIF has been generated from an entry in the Cambridge
# Structural Database, then it will include bibliographic, chemical,
# crystal, experimental, refinement or atomic coordinate data resulting
# from the CCDC's data processing and validation procedures.
#
#######################################################################

data_CSD_CIF_CUCJEP
_audit_creation_date 1985-09-20
_audit_creation_method CSD-ConQuest-V1
_database_code_CSD CUCJEP
_database_code_depnum_ccdc_archive 'CCDC 1132217'
_chemical_formula_sum 'C22 H16'
_chemical_formula_moiety
;
C22 H16
;
_journal_coden_Cambridge 209
_journal_volume 108
_journal_year 1984
_journal_page_first 1
_journal_name_full 'Mol.Cryst.Liq.Cryst. (Discontinued) '
loop_
_publ_author_name
"S.M.Aldoshin"
"M.V.Alfimov"
"L.O.Atovmyan"
"V.F.Kaminskii"
"V.F.Razumov"
"A.G.Rachinsky"
_chemical_name_systematic
;
cis-1,2-Di-(1-naphthyl)ethylene
;
_cell_volume   1591.009
_exptl_crystal_density_diffrn 1.177
_exptl_special_details
;
Numerous bond length discrepancies. No reply from authors

;
_diffrn_ambient_temperature ?
_diffrn_special_details
;
The study was carried out at room temperature,in the range 283-303K

;
#These two values have been output from a single CSD field.
_refine_ls_R_factor_gt 0.051
_refine_ls_wR_factor_gt 0.051
loop_
_citation_database_id_CSD
_citation_special_details
CUCJIT "is a stereoisomer of this entry"
_symmetry_cell_setting orthorhombic
_symmetry_space_group_name_H-M 'P c n b'
_symmetry_Int_Tables_number 60
loop_
_symmetry_equiv_pos_site_id
_symmetry_equiv_pos_as_xyz
1 x,y,z
2 -x,1/2-y,z
3 1/2+x,-y,1/2-z
4 1/2-x,1/2+y,1/2-z
5 -x,-y,-z
6 x,-1/2+y,-z
7 -1/2-x,y,-1/2+z
8 -1/2+x,-1/2-y,-1/2+z
_cell_length_a 25.140(7)
_cell_length_b 8.124(2)
_cell_length_c 7.790(2)
_cell_angle_alpha 90
_cell_angle_beta 90
_cell_angle_gamma 90
_cell_formula_units_Z 4
loop_
_atom_type_symbol
_atom_type_radius_bond
C 0.68
H 0.23
loop_
_atom_site_label
_atom_site_type_symbol
_atom_site_fract_x
_atom_site_fract_y
_atom_site_fract_z
C1 C 0.4740(2) 0.2696(8) 0.0185(6)
C2 C 0.4398(2) 0.3191(6) 0.1679(7)
C3 C 0.4587(2) 0.4242(6) 0.2884(8)
C4 C 0.4254(2) 0.4772(7) 0.4228(8)
C5 C 0.3745(2) 0.4199(7) 0.4373(8)
C6 C 0.3543(2) 0.3048(6) 0.3173(7)
C7 C 0.3016(2) 0.2469(6) 0.3287(7)
C8 C 0.2831(2) 0.1337(7) 0.2141(7)
C9 C 0.3162(2) 0.0753(6) 0.0814(8)
C10 C 0.3668(2) 0.1316(7) 0.0637(8)
C11 C 0.3880(2) 0.2482(6) 0.1825(7)
H1 H 0.459(2) 0.293(6) -0.088(7)
H2 H 0.498(2) 0.468(6) 0.278(6)
H3 H 0.442(2) 0.572(6) 0.517(6)
H4 H 0.346(2) 0.460(6) 0.524(7)
H5 H 0.276(2) 0.289(6) 0.435(6)
H6 H 0.243(2) 0.090(6) 0.220(6)
H7 H 0.301(2) -0.020(7) 0.002(7)
H8 H 0.393(2) 0.094(7) -0.032(7)
C1A C 0.5260(2) 0.2304(8) 0.0185(6)
C2A C 0.5602(2) 0.1809(6) 0.1679(7)
C3A C 0.5413(2) 0.0758(6) 0.2884(8)
C4A C 0.5746(2) 0.0228(7) 0.4228(8)
C5A C 0.6255(2) 0.0801(7) 0.4373(8)
C6A C 0.6457(2) 0.1952(6) 0.3173(7)
C7A C 0.6984(2) 0.2531(6) 0.3287(7)
C8A C 0.7169(2) 0.3663(7) 0.2141(7)
C9A C 0.6838(2) 0.4247(6) 0.0814(8)
C10A C 0.6332(2) 0.3684(7) 0.0637(8)
C11A C 0.6120(2) 0.2518(6) 0.1825(7)
H8A H 0.607(2) 0.406(7) -0.032(7)
H7A H 0.699(2) 0.520(7) 0.002(7)
H6A H 0.757(2) 0.410(6) 0.220(6)
H5A H 0.724(2) 0.211(6) 0.435(6)
H4A H 0.654(2) 0.040(6) 0.524(7)
H3A H 0.558(2) -0.072(6) 0.517(6)
H2A H 0.502(2) 0.032(6) 0.278(6)
H1A H 0.541(2) 0.207(6) -0.088(7)
loop_
_geom_bond_atom_site_label_1
_geom_bond_atom_site_label_2
_geom_bond_distance
_geom_bond_site_symmetry_1
_geom_bond_site_symmetry_2
C1 C2 1.502 1_555 1_555
C2 C3 1.355 1_555 1_555
C3 C4 1.408 1_555 1_555
C4 C5 1.366 1_555 1_555
C5 C6 1.416 1_555 1_555
C6 C7 1.409 1_555 1_555
C7 C8 1.363 1_555 1_555
C8 C9 1.409 1_555 1_555
C9 C10 1.359 1_555 1_555
C10 C11 1.428 1_555 1_555
C11 C2 1.428 1_555 1_555
H1 C1 0.931 1_555 1_555
H2 C3 1.053 1_555 1_555
H3 C4 1.143 1_555 1_555
H4 C5 1.037 1_555 1_555
H5 C7 1.103 1_555 1_555
H6 C8 1.070 1_555 1_555
H7 C9 1.062 1_555 1_555
H8 C10 1.041 1_555 1_555
C1A C1 1.346 1_555 1_555
C2A C1A 1.502 1_555 1_555
C3A C2A 1.355 1_555 1_555
C4A C3A 1.408 1_555 1_555
C5A C4A 1.366 1_555 1_555
C6A C5A 1.416 1_555 1_555
C7A C6A 1.409 1_555 1_555
C8A C7A 1.363 1_555 1_555
C9A C8A 1.409 1_555 1_555
C10A C9A 1.359 1_555 1_555
C11A C2A 1.428 1_555 1_555
H8A C10A 1.041 1_555 1_555
H7A C9A 1.062 1_555 1_555
H6A C8A 1.070 1_555 1_555
H5A C7A 1.103 1_555 1_555
H4A C5A 1.037 1_555 1_555
H3A C4A 1.143 1_555 1_555
H2A C3A 1.053 1_555 1_555
H1A C1A 0.931 1_555 1_555
C6 C11 1.425 1_555 1_555
C6A C11A 1.425 1_555 1_555
C10A C11A 1.428 1_555 1_555
#END
