
#######################################################################
#
#                 Cambridge Crystallographic Data Centre
#                                CCDC
#
#######################################################################
#
# If this CIF has been generated from an entry in the Cambridge
# Structural Database, then it will include bibliographic, chemical,
# crystal, experimental, refinement or atomic coordinate data resulting
# from the CCDC's data processing and validation procedures.
#
#######################################################################

data_CSD_CIF_CUNQAF
_audit_creation_date 2015-07-13
_audit_creation_method CSD-ConQuest-V1
_database_code_CSD CUNQAF
_database_code_depnum_ccdc_archive 'CCDC 1412370'
_chemical_formula_sum 'C58 H28'
_chemical_formula_moiety
;
C58 H28
;
_journal_coden_Cambridge 4
_journal_volume 137
_journal_year 2015
_journal_page_first 7763
_journal_name_full 'J.Am.Chem.Soc. '
loop_
_publ_author_name
"T.Fujikawa"
"Y.Segawa"
"K.Itami"
_chemical_name_systematic
;
Benzo[5,6]tetraceno[11,12,1-fghi]benzo[5,6]tetraceno[11,12,1-lmno]hexahelicene
;
_cell_volume   3273.343
_exptl_crystal_colour 'red'
_exptl_crystal_density_diffrn 1.471
_exptl_crystal_description 'Block'
_diffrn_ambient_temperature 103
#These two values have been output from a single CSD field.
_refine_ls_R_factor_gt 0.0736
_refine_ls_wR_factor_gt 0.0736
_symmetry_cell_setting monoclinic
_symmetry_space_group_name_H-M 'C 2/c'
_symmetry_Int_Tables_number 15
loop_
_symmetry_equiv_pos_site_id
_symmetry_equiv_pos_as_xyz
1 x,y,z
2 -x,y,1/2-z
3 1/2+x,1/2+y,z
4 1/2-x,1/2+y,1/2-z
5 -x,-y,-z
6 x,-y,-1/2+z
7 -1/2-x,-1/2-y,-z
8 -1/2+x,-1/2-y,-1/2+z
_cell_length_a 11.056(8)
_cell_length_b 39.67(3)
_cell_length_c 7.531(5)
_cell_angle_alpha 90
_cell_angle_beta 97.688(9)
_cell_angle_gamma 90
_cell_formula_units_Z 4
loop_
_atom_type_symbol
_atom_type_radius_bond
C 0.68
H 0.23
loop_
_atom_site_label
_atom_site_type_symbol
_atom_site_fract_x
_atom_site_fract_y
_atom_site_fract_z
C1 C 0.4705(2) 0.74999(7) 0.6573(4)
C2 C 0.4422(3) 0.78003(8) 0.5656(5)
H1 H 0.46450 0.80090 0.62260
C3 C 0.3809(3) 0.77980(8) 0.3897(5)
H2 H 0.36300 0.80050 0.32850
C4 C 0.3467(3) 0.74995(7) 0.3053(5)
H3 H 0.30270 0.75020 0.18790
C5 C 0.3760(3) 0.71899(7) 0.3909(4)
C6 C 0.4390(2) 0.71871(7) 0.5684(4)
C7 C 0.3463(3) 0.68703(7) 0.2992(4)
C8 C 0.2921(3) 0.68596(8) 0.1165(4)
H4 H 0.26730 0.70640 0.05660
C9 C 0.2754(3) 0.65663(9) 0.0271(4)
H5 H 0.23620 0.65650 -0.09320
C10 C 0.3151(3) 0.62614(8) 0.1095(4)
H6 H 0.30890 0.60570 0.04300
C11 C 0.3631(3) 0.62610(7) 0.2873(4)
H7 H 0.38890 0.60540 0.34300
C12 C 0.3751(2) 0.65608(7) 0.3899(4)
C13 C 0.4672(2) 0.68715(7) 0.6607(4)
C14 C 0.4263(2) 0.65660(7) 0.5801(4)
C15 C 0.4498(2) 0.62554(7) 0.6801(4)
C16 C 0.3808(2) 0.59436(7) 0.6501(4)
C17 C 0.2493(2) 0.59439(7) 0.5867(4)
C18 C 0.1779(3) 0.62424(7) 0.5777(4)
H8 H 0.21660 0.64510 0.61090
C19 C 0.0539(3) 0.62375(8) 0.5221(4)
H9 H 0.00840 0.64410 0.51560
C20 C -0.0034(3) 0.59367(8) 0.4760(5)
H10 H -0.08850 0.59330 0.43510
C21 C 0.0617(3) 0.56418(8) 0.4890(5)
H11 H 0.02030 0.54360 0.45910
C22 C 0.1882(2) 0.56355(7) 0.5452(4)
C23 C 0.2548(3) 0.53201(7) 0.5674(4)
C24 C 0.2026(3) 0.50132(7) 0.5079(4)
H12 H 0.12290 0.50100 0.44270
C25 C 0.2652(3) 0.47126(7) 0.5423(4)
H13 H 0.22830 0.45070 0.49890
C26 C 0.3804(3) 0.47079(7) 0.6388(4)
H14 H 0.42070 0.44990 0.66460
C27 C 0.4386(2) 0.50072(7) 0.6992(3)
C28 C 0.3765(2) 0.53201(6) 0.6593(3)
C29 C 0.4387(2) 0.56374(6) 0.7044(3)
C1A C 0.5295(2) 0.74999(7) 0.8427(4)
C2A C 0.5578(3) 0.78003(8) 0.9344(5)
H1A H 0.53550 0.80090 0.87740
C3A C 0.6191(3) 0.77980(8) 1.1103(5)
H2A H 0.63700 0.80050 1.17150
C4A C 0.6533(3) 0.74995(7) 1.1947(5)
H3A H 0.69730 0.75020 1.31210
C5A C 0.6240(3) 0.71899(7) 1.1091(4)
C6A C 0.5610(2) 0.71871(7) 0.9316(4)
C7A C 0.6537(3) 0.68703(7) 1.2008(4)
C8A C 0.7079(3) 0.68596(8) 1.3835(4)
H4A H 0.73270 0.70640 1.44340
C9A C 0.7246(3) 0.65663(9) 1.4729(4)
H5A H 0.76380 0.65650 1.59320
C10A C 0.6849(3) 0.62614(8) 1.3905(4)
H6A H 0.69110 0.60570 1.45700
C11A C 0.6369(3) 0.62610(7) 1.2127(4)
H7A H 0.61110 0.60540 1.15700
C12A C 0.6249(2) 0.65608(7) 1.1101(4)
C13A C 0.5328(2) 0.68715(7) 0.8393(4)
C14A C 0.5737(2) 0.65660(7) 0.9199(4)
C15A C 0.5502(2) 0.62554(7) 0.8199(4)
C16A C 0.6192(2) 0.59436(7) 0.8499(4)
C17A C 0.7507(2) 0.59439(7) 0.9133(4)
C18A C 0.8221(3) 0.62424(7) 0.9223(4)
H8A H 0.78340 0.64510 0.88910
C19A C 0.9461(3) 0.62375(8) 0.9779(4)
H9A H 0.99160 0.64410 0.98440
C20A C 1.0034(3) 0.59367(8) 1.0240(5)
H10A H 1.08850 0.59330 1.06490
C21A C 0.9383(3) 0.56418(8) 1.0110(5)
H11A H 0.97970 0.54360 1.04090
C22A C 0.8118(2) 0.56355(7) 0.9548(4)
C23A C 0.7452(3) 0.53201(7) 0.9326(4)
C24A C 0.7974(3) 0.50132(7) 0.9921(4)
H12A H 0.87710 0.50100 1.05730
C25A C 0.7348(3) 0.47126(7) 0.9577(4)
H13A H 0.77170 0.45070 1.00110
C26A C 0.6196(3) 0.47079(7) 0.8612(4)
H14A H 0.57930 0.44990 0.83540
C27A C 0.5614(2) 0.50072(7) 0.8008(3)
C28A C 0.6235(2) 0.53201(6) 0.8407(3)
C29A C 0.5613(2) 0.56374(6) 0.7956(3)
loop_
_geom_bond_atom_site_label_1
_geom_bond_atom_site_label_2
_geom_bond_distance
_geom_bond_site_symmetry_1
_geom_bond_site_symmetry_2
C1 C2 1.392 1_555 1_555
C2 H1 0.950 1_555 1_555
C3 C2 1.405 1_555 1_555
H2 C3 0.949 1_555 1_555
C4 C3 1.373 1_555 1_555
H3 C4 0.950 1_555 1_555
C5 C4 1.405 1_555 1_555
C6 C1 1.431 1_555 1_555
C7 C5 1.460 1_555 1_555
C8 C7 1.426 1_555 1_555
H4 C8 0.950 1_555 1_555
C9 C8 1.345 1_555 1_555
H5 C9 0.951 1_555 1_555
C10 C9 1.403 1_555 1_555
H6 C10 0.951 1_555 1_555
C11 C10 1.373 1_555 1_555
H7 C11 0.948 1_555 1_555
C12 C7 1.420 1_555 1_555
C13 C6 1.446 1_555 1_555
C14 C12 1.468 1_555 1_555
C15 C14 1.449 1_555 1_555
C16 C15 1.455 1_555 1_555
C17 C16 1.468 1_555 1_555
C18 C17 1.420 1_555 1_555
H8 C18 0.950 1_555 1_555
C19 C18 1.379 1_555 1_555
H9 C19 0.949 1_555 1_555
C20 C19 1.374 1_555 1_555
H10 C20 0.950 1_555 1_555
C21 C20 1.370 1_555 1_555
H11 C21 0.948 1_555 1_555
C22 C17 1.412 1_555 1_555
C23 C22 1.450 1_555 1_555
C24 C23 1.395 1_555 1_555
H12 C24 0.950 1_555 1_555
C25 C24 1.386 1_555 1_555
H13 C25 0.950 1_555 1_555
C26 C25 1.380 1_555 1_555
H14 C26 0.949 1_555 1_555
C27 C26 1.397 1_555 1_555
C28 C23 1.428 1_555 1_555
C29 C16 1.408 1_555 1_555
C1A C1 1.460 1_555 1_555
C2A C1A 1.392 1_555 1_555
H1A C2A 0.950 1_555 1_555
C3A C2A 1.405 1_555 1_555
H2A C3A 0.949 1_555 1_555
C4A C3A 1.373 1_555 1_555
H3A C4A 0.950 1_555 1_555
C5A C4A 1.405 1_555 1_555
C6A C1A 1.431 1_555 1_555
C7A C5A 1.460 1_555 1_555
C8A C7A 1.426 1_555 1_555
H4A C8A 0.950 1_555 1_555
C9A C8A 1.345 1_555 1_555
H5A C9A 0.951 1_555 1_555
C10A C9A 1.403 1_555 1_555
H6A C10A 0.951 1_555 1_555
C11A C10A 1.373 1_555 1_555
H7A C11A 0.948 1_555 1_555
C12A C7A 1.420 1_555 1_555
C13A C13 1.440 1_555 1_555
C14A C12A 1.468 1_555 1_555
C15A C15 1.424 1_555 1_555
C16A C15A 1.455 1_555 1_555
C17A C16A 1.468 1_555 1_555
C18A C17A 1.420 1_555 1_555
H8A C18A 0.950 1_555 1_555
C19A C18A 1.379 1_555 1_555
H9A C19A 0.949 1_555 1_555
C20A C19A 1.374 1_555 1_555
H10A C20A 0.950 1_555 1_555
C21A C20A 1.370 1_555 1_555
H11A C21A 0.948 1_555 1_555
C22A C17A 1.412 1_555 1_555
C23A C22A 1.450 1_555 1_555
C24A C23A 1.395 1_555 1_555
H12A C24A 0.950 1_555 1_555
C25A C24A 1.386 1_555 1_555
H13A C25A 0.950 1_555 1_555
C26A C25A 1.380 1_555 1_555
H14A C26A 0.949 1_555 1_555
C27A C27 1.467 1_555 1_555
C28A C23A 1.428 1_555 1_555
C29A C29 1.435 1_555 1_555
C5 C6 1.422 1_555 1_555
C11 C12 1.415 1_555 1_555
C13 C14 1.403 1_555 1_555
C21 C22 1.406 1_555 1_555
C27 C28 1.431 1_555 1_555
C28 C29 1.453 1_555 1_555
C5A C6A 1.422 1_555 1_555
C6A C13A 1.446 1_555 1_555
C11A C12A 1.415 1_555 1_555
C13A C14A 1.403 1_555 1_555
C14A C15A 1.449 1_555 1_555
C16A C29A 1.408 1_555 1_555
C21A C22A 1.406 1_555 1_555
C26A C27A 1.397 1_555 1_555
C27A C28A 1.431 1_555 1_555
C28A C29A 1.453 1_555 1_555
#END
