
#######################################################################
#
#                 Cambridge Crystallographic Data Centre
#                                CCDC
#
#######################################################################
#
# If this CIF has been generated from an entry in the Cambridge
# Structural Database, then it will include bibliographic, chemical,
# crystal, experimental, refinement or atomic coordinate data resulting
# from the CCDC's data processing and validation procedures.
#
#######################################################################

data_CSD_CIF_CUYJOX
_audit_creation_date 2015-11-25
_audit_creation_method CSD-ConQuest-V1
_database_code_CSD CUYJOX
_database_code_depnum_ccdc_archive 'CCDC 1407434'
_chemical_formula_sum 'C32 H20'
_chemical_formula_moiety
;
C32 H20
;
_journal_coden_Cambridge 7
_journal_volume 88
_journal_year 2015
_journal_page_first 1591
_journal_name_full 'Bull.Chem.Soc.Jpn. '
loop_
_publ_author_name
"M.Inoue"
"T.Iwanaga"
"Shinji Toyota"
_chemical_name_systematic
;
Heptacyclo[25.3.1.1^12,16^.0^5,30^.0^8,13^.0^15,20^.0^23,28^]dotriaconta-1(31)
,2,4,6,8,10,12,14,16(32),17,19,21,23,25,27,29-hexadecaene
;
_cell_volume    994.819
_exptl_crystal_colour 'colorless'
_exptl_crystal_density_diffrn 1.35
_exptl_crystal_description 'needle'
_exptl_crystal_preparation 'chlorobenzene'
_diffrn_ambient_temperature 123
#These two values have been output from a single CSD field.
_refine_ls_R_factor_gt 0.0514
_refine_ls_wR_factor_gt 0.0514
_symmetry_cell_setting triclinic
_symmetry_space_group_name_H-M 'P -1'
_symmetry_Int_Tables_number 2
loop_
_symmetry_equiv_pos_site_id
_symmetry_equiv_pos_as_xyz
1 x,y,z
2 -x,-y,-z
_cell_length_a 7.294(2)
_cell_length_b 10.142(3)
_cell_length_c 13.847(4)
_cell_angle_alpha 95.757(5)
_cell_angle_beta 92.502(5)
_cell_angle_gamma 101.972(5)
_cell_formula_units_Z 2
loop_
_atom_type_symbol
_atom_type_radius_bond
C 0.68
H 0.23
loop_
_atom_site_label
_atom_site_type_symbol
_atom_site_fract_x
_atom_site_fract_y
_atom_site_fract_z
C1 C 0.4398(2) 0.76968(16) 0.55476(12)
C2 C 0.4588(3) 0.90336(17) 0.59063(13)
H1 H 0.566(3) 0.9705(18) 0.5713(13)
C3 C 0.3274(3) 0.94682(18) 0.65164(13)
H2 H 0.344(2) 1.0460(19) 0.6704(13)
C4 C 0.1808(3) 0.85615(18) 0.68005(13)
H3 H 0.086(3) 0.8859(19) 0.7225(14)
C5 C -0.1491(2) 0.38059(18) 0.68874(12)
H4 H -0.236(3) 0.4099(18) 0.7349(13)
C6 C -0.1650(2) 0.24577(19) 0.66068(13)
H5 H -0.266(3) 0.1774(19) 0.6854(14)
C7 C -0.0380(2) 0.20044(18) 0.59724(13)
H6 H -0.053(2) 0.0996(17) 0.5790(12)
C8 C 0.1081(2) 0.28938(16) 0.56340(12)
C9 C 0.2636(2) 0.53196(16) 0.55560(12)
H7 H 0.349(2) 0.5026(15) 0.5082(12)
C10 C 0.0142(2) 0.61825(18) 0.68131(12)
H8 H -0.075(3) 0.6457(18) 0.7260(14)
C11 C 0.2854(2) 0.67028(16) 0.58432(11)
C12 C 0.1576(2) 0.71444(16) 0.64942(12)
C13 C 0.1259(2) 0.43346(16) 0.59048(11)
C14 C -0.0036(2) 0.47896(17) 0.65451(12)
C15 C 0.5731(2) 0.72381(16) 0.48919(12)
H9 H 0.518(2) 0.6536(17) 0.4334(12)
C16 C 0.2403(2) 0.23702(16) 0.49985(12)
H10 H 0.179(2) 0.1657(18) 0.4449(13)
C17 C 0.4047(2) 0.73560(16) 0.05774(12)
C18 C 0.5587(2) 0.83596(17) 0.08754(12)
H11 H 0.565(2) 0.9254(16) 0.0647(12)
C19 C 0.7066(2) 0.81372(17) 0.14967(12)
H12 H 0.813(2) 0.8898(17) 0.1689(12)
C20 C 0.7003(2) 0.69097(17) 0.18165(12)
H13 H 0.805(2) 0.6779(16) 0.2250(12)
C21 C 0.3790(2) 0.21298(17) 0.18606(13)
H14 H 0.485(2) 0.1986(17) 0.2285(12)
C22 C 0.2285(3) 0.10987(17) 0.15805(13)
H15 H 0.225(2) 0.0205(18) 0.1820(13)
C23 C 0.0800(2) 0.12936(17) 0.09489(12)
H16 H -0.029(3) 0.0523(18) 0.0770(13)
C24 C 0.0840(2) 0.25077(16) 0.05887(12)
C25 C 0.2514(2) 0.49003(16) 0.05561(12)
H17 H 0.150(2) 0.5041(17) 0.0079(13)
C26 C 0.5386(2) 0.45232(17) 0.18221(12)
H18 H 0.645(2) 0.4370(16) 0.2259(12)
C27 C 0.3966(2) 0.60147(16) 0.08753(11)
C28 C 0.5461(2) 0.58053(16) 0.15157(11)
C29 C 0.2421(2) 0.36276(15) 0.08700(11)
C30 C 0.3891(2) 0.34324(16) 0.15304(12)
C31 C -0.0701(2) 0.27150(16) -0.00721(12)
H19 H -0.026(2) 0.3190(17) -0.0651(12)
C32 C 0.2523(2) 0.76438(16) -0.00589(13)
H20 H 0.293(2) 0.8172(17) -0.0600(13)
C1A C 0.5602(2) 0.23032(16) 0.44524(12)
C2A C 0.5412(3) 0.09664(17) 0.40937(13)
H1A H 0.434(3) 0.0295(18) 0.4287(13)
C3A C 0.6726(3) 0.05318(18) 0.34836(13)
H2A H 0.656(2) -0.0460(19) 0.3296(13)
C4A C 0.8192(3) 0.14385(18) 0.31995(13)
H3A H 0.914(3) 0.1141(19) 0.2775(14)
C5A C 1.1491(2) 0.61941(18) 0.31126(12)
H4A H 1.236(3) 0.5901(18) 0.2651(13)
C6A C 1.1650(2) 0.75423(19) 0.33932(13)
H5A H 1.266(3) 0.8226(19) 0.3146(14)
C7A C 1.0380(2) 0.79956(18) 0.40276(13)
H6A H 1.053(2) 0.9004(17) 0.4210(12)
C8A C 0.8919(2) 0.71062(16) 0.43660(12)
C9A C 0.7364(2) 0.46804(16) 0.44440(12)
H7A H 0.651(2) 0.4974(15) 0.4918(12)
C10A C 0.9858(2) 0.38175(18) 0.31869(12)
H8A H 1.075(3) 0.3543(18) 0.2740(14)
C11A C 0.7146(2) 0.32972(16) 0.41568(11)
C12A C 0.8424(2) 0.28556(16) 0.35058(12)
C13A C 0.8741(2) 0.56654(16) 0.40952(11)
C14A C 1.0036(2) 0.52104(17) 0.34549(12)
C15A C 0.4269(2) 0.27619(16) 0.51081(12)
H9A H 0.482(2) 0.3464(17) 0.5666(12)
C16A C 0.7597(2) 0.76298(16) 0.50015(12)
H10A H 0.821(2) 0.8343(18) 0.5551(13)
C17A C -0.4047(2) 0.26440(16) -0.05774(12)
C18A C -0.5587(2) 0.16404(17) -0.08754(12)
H11A H -0.565(2) 0.0746(16) -0.0647(12)
C19A C -0.7066(2) 0.18628(17) -0.14967(12)
H12A H -0.813(2) 0.1102(17) -0.1689(12)
C20A C -0.7003(2) 0.30903(17) -0.18165(12)
H13A H -0.805(2) 0.3221(16) -0.2250(12)
C21A C -0.3790(2) 0.78702(17) -0.18606(13)
H14A H -0.485(2) 0.8014(17) -0.2285(12)
C22A C -0.2285(3) 0.89013(17) -0.15805(13)
H15A H -0.225(2) 0.9795(18) -0.1820(13)
C23A C -0.0800(2) 0.87064(17) -0.09489(12)
H16A H 0.029(3) 0.9477(18) -0.0770(13)
C24A C -0.0840(2) 0.74923(16) -0.05887(12)
C25A C -0.2514(2) 0.50997(16) -0.05561(12)
H17A H -0.150(2) 0.4959(17) -0.0079(13)
C26A C -0.5386(2) 0.54768(17) -0.18221(12)
H18A H -0.645(2) 0.5630(16) -0.2259(12)
C27A C -0.3966(2) 0.39853(16) -0.08753(11)
C28A C -0.5461(2) 0.41947(16) -0.15157(11)
C29A C -0.2421(2) 0.63724(15) -0.08700(11)
C30A C -0.3891(2) 0.65676(16) -0.15304(12)
C31A C 0.0701(2) 0.72850(16) 0.00721(12)
H19A H 0.026(2) 0.6810(17) 0.0651(12)
C32A C -0.2523(2) 0.23562(16) 0.00589(13)
H20A H -0.293(2) 0.1828(17) 0.0600(13)
loop_
_geom_bond_atom_site_label_1
_geom_bond_atom_site_label_2
_geom_bond_distance
_geom_bond_site_symmetry_1
_geom_bond_site_symmetry_2
C1 C2 1.373 1_555 1_555
C2 H1 0.990 1_555 1_555
C3 C2 1.413 1_555 1_555
H2 C3 0.994 1_555 1_555
C4 C3 1.358 1_555 1_555
H3 C4 1.001 1_555 1_555
C5 H4 0.987 1_555 1_555
C6 C5 1.363 1_555 1_555
H5 C6 0.999 1_555 1_555
C7 C6 1.417 1_555 1_555
H6 C7 1.010 1_555 1_555
C8 C7 1.378 1_555 1_555
C9 H7 0.990 1_555 1_555
C10 H8 0.980 1_555 1_555
C11 C1 1.451 1_555 1_555
C12 C4 1.430 1_555 1_555
C13 C8 1.449 1_555 1_555
C14 C5 1.430 1_555 1_555
C15 C1 1.472 1_555 1_555
H9 C15 1.005 1_555 1_555
C16 C8 1.476 1_555 1_555
H10 C16 1.014 1_555 1_555
C17 C18 1.367 1_555 1_555
C18 H11 0.983 1_555 1_555
C19 C18 1.419 1_555 1_555
H12 C19 0.980 1_555 1_555
C20 C19 1.355 1_555 1_555
H13 C20 0.989 1_555 1_555
C21 H14 0.994 1_555 1_555
C22 C21 1.362 1_555 1_555
H15 C22 0.992 1_555 1_555
C23 C22 1.421 1_555 1_555
H16 C23 0.995 1_555 1_555
C24 C23 1.369 1_555 1_555
C25 H17 1.012 1_555 1_555
C26 H18 1.010 1_555 1_555
C27 C17 1.451 1_555 1_555
C28 C20 1.427 1_555 1_555
C29 C24 1.449 1_555 1_555
C30 C21 1.430 1_555 1_555
C31 C24 1.480 1_555 1_555
H19 C31 1.007 1_555 1_555
C32 C17 1.483 1_555 1_555
H20 C32 0.985 1_555 1_555
C1A C2A 1.373 1_555 1_555
C2A H1A 0.990 1_555 1_555
C3A C2A 1.413 1_555 1_555
H2A C3A 0.994 1_555 1_555
C4A C3A 1.358 1_555 1_555
H3A C4A 1.001 1_555 1_555
C5A H4A 0.987 1_555 1_555
C6A C5A 1.363 1_555 1_555
H5A C6A 0.999 1_555 1_555
C7A C6A 1.417 1_555 1_555
H6A C7A 1.010 1_555 1_555
C8A C7A 1.378 1_555 1_555
C9A H7A 0.990 1_555 1_555
C10A H8A 0.980 1_555 1_555
C11A C1A 1.451 1_555 1_555
C12A C4A 1.430 1_555 1_555
C13A C8A 1.449 1_555 1_555
C14A C5A 1.430 1_555 1_555
C15A C16 1.334 1_555 1_555
H9A C15A 1.005 1_555 1_555
C16A C15 1.334 1_555 1_555
H10A C16A 1.014 1_555 1_555
C17A C18A 1.367 1_555 1_555
C18A H11A 0.983 1_555 1_555
C19A C18A 1.419 1_555 1_555
H12A C19A 0.980 1_555 1_555
C20A C19A 1.355 1_555 1_555
H13A C20A 0.989 1_555 1_555
C21A H14A 0.994 1_555 1_555
C22A C21A 1.362 1_555 1_555
H15A C22A 0.992 1_555 1_555
C23A C22A 1.421 1_555 1_555
H16A C23A 0.995 1_555 1_555
C24A C23A 1.369 1_555 1_555
C25A H17A 1.012 1_555 1_555
C26A H18A 1.010 1_555 1_555
C27A C17A 1.451 1_555 1_555
C28A C20A 1.427 1_555 1_555
C29A C24A 1.449 1_555 1_555
C30A C21A 1.430 1_555 1_555
C31A C32 1.329 1_555 1_555
H19A C31A 1.007 1_555 1_555
C32A C31 1.329 1_555 1_555
H20A C32A 0.985 1_555 1_555
C9 C11 1.393 1_555 1_555
C9 C13 1.401 1_555 1_555
C10 C12 1.394 1_555 1_555
C10 C14 1.402 1_555 1_555
C11 C12 1.431 1_555 1_555
C13 C14 1.436 1_555 1_555
C25 C27 1.399 1_555 1_555
C25 C29 1.392 1_555 1_555
C26 C28 1.399 1_555 1_555
C26 C30 1.396 1_555 1_555
C27 C28 1.439 1_555 1_555
C29 C30 1.437 1_555 1_555
C1A C15A 1.472 1_555 1_555
C8A C16A 1.476 1_555 1_555
C9A C11A 1.393 1_555 1_555
C9A C13A 1.401 1_555 1_555
C10A C12A 1.394 1_555 1_555
C10A C14A 1.402 1_555 1_555
C11A C12A 1.431 1_555 1_555
C13A C14A 1.436 1_555 1_555
C17A C32A 1.483 1_555 1_555
C24A C31A 1.480 1_555 1_555
C25A C27A 1.399 1_555 1_555
C25A C29A 1.392 1_555 1_555
C26A C28A 1.399 1_555 1_555
C26A C30A 1.396 1_555 1_555
C27A C28A 1.439 1_555 1_555
C29A C30A 1.437 1_555 1_555
#END
