
#######################################################################
#
#                 Cambridge Crystallographic Data Centre
#                                CCDC
#
#######################################################################
#
# If this CIF has been generated from an entry in the Cambridge
# Structural Database, then it will include bibliographic, chemical,
# crystal, experimental, refinement or atomic coordinate data resulting
# from the CCDC's data processing and validation procedures.
#
#######################################################################

data_CSD_CIF_CUYYOM
_audit_creation_date 2015-11-25
_audit_creation_method CSD-ConQuest-V1
_database_code_CSD CUYYOM
_database_code_depnum_ccdc_archive 'CCDC 1053257'
_chemical_formula_sum 'C42 H34'
_chemical_formula_moiety
;
C42 H34
;
_journal_coden_Cambridge 423
_journal_volume 39
_journal_year 2015
_journal_page_first 351
_journal_name_full 'J.Chem.Res. '
loop_
_publ_author_name
"T.Moriguchi"
"N.Kitou"
"T.Iwamoto"
"Kenji Yoza"
"A.Tsuge"
_chemical_name_systematic
;
9,14-Di-t-butyldibenzo[kl,pq]naphtho[8,1,2-cde]pentaphene
;
_cell_volume   2837.359
_exptl_crystal_colour 'brown'
_exptl_crystal_density_diffrn 1.261
_exptl_crystal_description 'prism'
_diffrn_ambient_temperature 90
#These two values have been output from a single CSD field.
_refine_ls_R_factor_gt 0.0521
_refine_ls_wR_factor_gt 0.0521
_symmetry_cell_setting monoclinic
_symmetry_space_group_name_H-M 'P 21/c'
_symmetry_Int_Tables_number 14
loop_
_symmetry_equiv_pos_site_id
_symmetry_equiv_pos_as_xyz
1 x,y,z
2 -x,1/2+y,1/2-z
3 -x,-y,-z
4 x,-1/2-y,-1/2+z
_cell_length_a 20.427(4)
_cell_length_b 15.798(3)
_cell_length_c 8.8516(16)
_cell_angle_alpha 90
_cell_angle_beta 96.630(2)
_cell_angle_gamma 90
_cell_formula_units_Z 4
loop_
_atom_type_symbol
_atom_type_radius_bond
C 0.68
H 0.23
loop_
_atom_site_label
_atom_site_type_symbol
_atom_site_fract_x
_atom_site_fract_y
_atom_site_fract_z
C1 C 0.43292(19) 0.7215(2) -0.1713(4)
H1 H 0.43740 0.75530 -0.08040
H2 H 0.43470 0.75750 -0.25810
H3 H 0.46810 0.68100 -0.16630
C2 C 0.36640(18) 0.6747(2) -0.1856(4)
C3 C 0.35956(18) 0.6204(2) -0.0450(4)
C4 C 0.29767(18) 0.6037(2) 0.0023(4)
H4 H 0.26060 0.62760 -0.05240
C5 C 0.28903(17) 0.5531(2) 0.1270(4)
C6 C 0.22460(18) 0.5352(2) 0.1751(4)
C7 C 0.16748(18) 0.5769(2) 0.1060(4)
H5 H 0.17190 0.61660 0.03040
C8 C 0.10644(19) 0.5609(2) 0.1460(4)
H6 H 0.07110 0.59400 0.10510
C9 C 0.09545(19) 0.4950(2) 0.2486(4)
C10 C 0.03113(19) 0.4732(3) 0.2830(4)
C11 C -0.02674(19) 0.5205(3) 0.2261(4)
H7 H -0.02280 0.56690 0.16290
C12 C -0.0866(2) 0.4984(3) 0.2634(5)
H8 H -0.12300 0.53060 0.22580
C13 C -0.0962(2) 0.4279(3) 0.3579(5)
C14 C -0.1579(2) 0.4050(3) 0.3985(5)
H9 H -0.19510 0.43560 0.36050
C15 C -0.1641(2) 0.3372(3) 0.4947(6)
H10 H -0.20540 0.32370 0.52210
C16 C 0.0234(2) 0.4025(3) 0.3748(4)
C17 C 0.0784(2) 0.3508(3) 0.4274(4)
C18 C 0.0687(2) 0.2773(3) 0.5175(5)
H11 H 0.10440 0.24230 0.54890
C19 C 0.0087(2) 0.2581(3) 0.5573(5)
H12 H 0.00410 0.21110 0.61840
C20 C -0.0473(2) 0.3075(3) 0.5090(5)
C21 C -0.1103(2) 0.2891(3) 0.5510(5)
H13 H -0.11560 0.24440 0.61690
C22 C -0.0410(2) 0.3788(3) 0.4140(4)
C23 C 0.14044(19) 0.3743(2) 0.3954(4)
H14 H 0.17610 0.33970 0.42810
C24 C 0.15174(18) 0.4496(2) 0.3143(4)
C25 C 0.21767(18) 0.4781(2) 0.2921(4)
C26 C 0.27683(17) 0.4502(2) 0.3881(4)
C27 C 0.27633(18) 0.4138(2) 0.5326(4)
H15 H 0.23630 0.41010 0.57270
C28 C 0.3325(2) 0.3829(2) 0.6195(4)
C29 C 0.39169(19) 0.3889(2) 0.5593(4)
H16 H 0.42920 0.36430 0.61090
C30 C 0.39656(18) 0.4312(2) 0.4226(4)
C31 C 0.45873(19) 0.4436(2) 0.3671(4)
H17 H 0.49620 0.41850 0.41790
C32 C 0.46427(18) 0.4911(2) 0.2421(4)
H18 H 0.50540 0.49860 0.20880
C33 C 0.40796(18) 0.5298(2) 0.1607(4)
C34 C 0.34558(18) 0.5149(2) 0.2076(4)
C35 C 0.33952(17) 0.4649(2) 0.3381(4)
C36 C 0.41349(18) 0.5830(2) 0.0357(4)
H19 H 0.45510 0.59320 0.00650
C37 C 0.36184(19) 0.6158(2) -0.3248(4)
H20 H 0.39540 0.57310 -0.30910
H21 H 0.36810 0.64810 -0.41380
H22 H 0.31930 0.58930 -0.33830
C38 C 0.3118(2) 0.7404(2) -0.2115(4)
H23 H 0.26990 0.71230 -0.22970
H24 H 0.31850 0.77460 -0.29790
H25 H 0.31240 0.77570 -0.12300
C39 C 0.32632(18) 0.3410(2) 0.7731(4)
C40 C 0.2819(4) 0.3901(4) 0.8611(6)
H26 H 0.29460 0.44860 0.86320
H27 H 0.28500 0.36870 0.96320
H28 H 0.23740 0.38480 0.81410
C41 C 0.2999(3) 0.2540(3) 0.7492(5)
H29 H 0.29620 0.22800 0.84590
H30 H 0.32920 0.22120 0.69500
H31 H 0.25720 0.25630 0.69120
C42 C 0.3929(3) 0.3338(5) 0.8679(6)
H32 H 0.41280 0.38880 0.87960
H33 H 0.42080 0.29680 0.81780
H34 H 0.38710 0.31120 0.96610
loop_
_geom_bond_atom_site_label_1
_geom_bond_atom_site_label_2
_geom_bond_distance
_geom_bond_site_symmetry_1
_geom_bond_site_symmetry_2
C1 H1 0.961 1_555 1_555
H2 C1 0.960 1_555 1_555
H3 C1 0.959 1_555 1_555
C2 C1 1.539 1_555 1_555
C3 C2 1.531 1_555 1_555
C4 C3 1.402 1_555 1_555
H4 C4 0.930 1_555 1_555
C5 C4 1.391 1_555 1_555
C6 C5 1.457 1_555 1_555
C7 C6 1.416 1_555 1_555
H5 C7 0.929 1_555 1_555
C8 C7 1.359 1_555 1_555
H6 C8 0.930 1_555 1_555
C9 C8 1.416 1_555 1_555
C10 C9 1.425 1_555 1_555
C11 C10 1.439 1_555 1_555
H7 C11 0.931 1_555 1_555
C12 C11 1.349 1_555 1_555
H8 C12 0.930 1_555 1_555
C13 C12 1.420 1_555 1_555
C14 C13 1.398 1_555 1_555
H9 C14 0.930 1_555 1_555
C15 C14 1.383 1_555 1_555
H10 C15 0.929 1_555 1_555
C16 C10 1.401 1_555 1_555
C17 C16 1.423 1_555 1_555
C18 C17 1.435 1_555 1_555
H11 C18 0.932 1_555 1_555
C19 C18 1.348 1_555 1_555
H12 C19 0.930 1_555 1_555
C20 C19 1.410 1_555 1_555
C21 C15 1.381 1_555 1_555
H13 C21 0.930 1_555 1_555
C22 C13 1.411 1_555 1_555
C23 C17 1.381 1_555 1_555
H14 C23 0.930 1_555 1_555
C24 C9 1.421 1_555 1_555
C25 C6 1.393 1_555 1_555
C26 C25 1.463 1_555 1_555
C27 C26 1.403 1_555 1_555
H15 C27 0.930 1_555 1_555
C28 C27 1.394 1_555 1_555
C29 C28 1.380 1_555 1_555
H16 C29 0.931 1_555 1_555
C30 C29 1.396 1_555 1_555
C31 C30 1.427 1_555 1_555
H17 C31 0.930 1_555 1_555
C32 C31 1.352 1_555 1_555
H18 C32 0.930 1_555 1_555
C33 C32 1.423 1_555 1_555
C34 C5 1.420 1_555 1_555
C35 C26 1.421 1_555 1_555
C36 C3 1.375 1_555 1_555
H19 C36 0.931 1_555 1_555
C37 C2 1.538 1_555 1_555
H20 C37 0.960 1_555 1_555
H21 C37 0.959 1_555 1_555
H22 C37 0.960 1_555 1_555
C38 C2 1.521 1_555 1_555
H23 C38 0.961 1_555 1_555
H24 C38 0.959 1_555 1_555
H25 C38 0.961 1_555 1_555
C39 C28 1.530 1_555 1_555
C40 C39 1.482 1_555 1_555
H26 C40 0.960 1_555 1_555
H27 C40 0.960 1_555 1_555
H28 C40 0.959 1_555 1_555
C41 C39 1.483 1_555 1_555
H29 C41 0.960 1_555 1_555
H30 C41 0.961 1_555 1_555
H31 C41 0.960 1_555 1_555
C42 C39 1.518 1_555 1_555
H32 C42 0.960 1_555 1_555
H33 C42 0.960 1_555 1_555
H34 C42 0.960 1_555 1_555
C16 C22 1.448 1_555 1_555
C20 C21 1.410 1_555 1_555
C20 C22 1.420 1_555 1_555
C23 C24 1.422 1_555 1_555
C24 C25 1.455 1_555 1_555
C30 C35 1.414 1_555 1_555
C33 C34 1.405 1_555 1_555
C33 C36 1.404 1_555 1_555
C34 C35 1.417 1_555 1_555
#END
