
#######################################################################
#
#                 Cambridge Crystallographic Data Centre
#                                CCDC
#
#######################################################################
#
# If this CIF has been generated from an entry in the Cambridge
# Structural Database, then it will include bibliographic, chemical,
# crystal, experimental, refinement or atomic coordinate data resulting
# from the CCDC's data processing and validation procedures.
#
#######################################################################

data_CSD_CIF_CUYYUS
_audit_creation_date 2015-11-25
_audit_creation_method CSD-ConQuest-V1
_database_code_CSD CUYYUS
_database_code_depnum_ccdc_archive 'CCDC 1053640'
_chemical_formula_sum 'C36 H32'
_chemical_formula_moiety
;
C36 H32
;
_journal_coden_Cambridge 423
_journal_volume 39
_journal_year 2015
_journal_page_first 351
_journal_name_full 'J.Chem.Res. '
loop_
_publ_author_name
"T.Moriguchi"
"N.Kitou"
"T.Iwamoto"
"Kenji Yoza"
"A.Tsuge"
_chemical_name_systematic
;
8,13-Di-t-butylnaphtho[2,1,8-def]picene
;
_cell_volume   2533.552
_exptl_crystal_colour 'yellow'
_exptl_crystal_density_diffrn 1.218
_exptl_crystal_description 'prism'
_diffrn_ambient_temperature 90
#These two values have been output from a single CSD field.
_refine_ls_R_factor_gt 0.0548
_refine_ls_wR_factor_gt 0.0548
_symmetry_cell_setting monoclinic
_symmetry_space_group_name_H-M 'P 21/c'
_symmetry_Int_Tables_number 14
loop_
_symmetry_equiv_pos_site_id
_symmetry_equiv_pos_as_xyz
1 x,y,z
2 -x,1/2+y,1/2-z
3 -x,-y,-z
4 x,-1/2-y,-1/2+z
_cell_length_a 9.142(2)
_cell_length_b 22.006(5)
_cell_length_c 12.749(3)
_cell_angle_alpha 90
_cell_angle_beta 98.957(2)
_cell_angle_gamma 90
_cell_formula_units_Z 4
loop_
_atom_type_symbol
_atom_type_radius_bond
C 0.68
H 0.23
loop_
_atom_site_label
_atom_site_type_symbol
_atom_site_fract_x
_atom_site_fract_y
_atom_site_fract_z
C1 C 1.1355(2) 0.22208(9) 0.43654(14)
H1 H 1.16040 0.25850 0.47680
H2 H 1.21960 0.19540 0.44490
H3 H 1.05410 0.20220 0.46160
C2 C 1.09181(19) 0.23827(8) 0.31893(13)
C3 C 0.95782(17) 0.28074(7) 0.29996(13)
C4 C 0.87087(18) 0.28393(8) 0.19930(12)
H4 H 0.89540 0.25910 0.14560
C5 C 0.74964(17) 0.32249(7) 0.17604(12)
C6 C 0.66499(17) 0.32869(7) 0.06894(12)
C7 C 0.54882(17) 0.37095(7) 0.04793(12)
C8 C 0.49195(17) 0.38564(7) -0.06160(12)
C9 C 0.53086(17) 0.34876(7) -0.14437(12)
C10 C 0.46699(18) 0.36058(7) -0.25411(12)
C11 C 0.37100(18) 0.41066(7) -0.27834(12)
C12 C 0.29966(19) 0.41985(8) -0.38357(13)
H5 H 0.23640 0.45280 -0.39910
C13 C 0.3224(2) 0.38087(8) -0.46269(13)
H6 H 0.27220 0.38650 -0.53120
C14 C 1.22194(19) 0.27089(9) 0.27984(14)
H7 H 1.19780 0.27840 0.20500
H8 H 1.30880 0.24580 0.29340
H9 H 1.24050 0.30880 0.31680
C15 C 0.71032(17) 0.35915(7) 0.25858(12)
C16 C 0.57977(17) 0.39558(7) 0.24085(12)
C17 C 0.49085(17) 0.39875(7) 0.13811(12)
C18 C 0.40568(17) 0.43909(7) -0.09222(12)
H10 H 0.38810 0.46650 -0.04000
C19 C 0.34921(18) 0.45085(8) -0.19458(12)
H11 H 0.29460 0.48620 -0.21080
C20 C 0.4213(2) 0.33247(8) -0.44064(13)
H12 H 0.43930 0.30680 -0.49520
C21 C 0.49205(19) 0.32245(8) -0.33904(13)
H13 H 0.55760 0.29000 -0.32570
C22 C 0.63374(18) 0.30127(8) -0.11753(12)
H14 H 0.65530 0.27500 -0.17020
C23 C 0.70163(18) 0.29338(8) -0.01585(12)
H15 H 0.77460 0.26380 -0.00160
C24 C 0.35159(17) 0.42520(7) 0.13168(12)
H16 H 0.28720 0.42270 0.06770
C25 C 0.30343(18) 0.45550(7) 0.21693(12)
C26 C 0.39899(18) 0.45773(7) 0.31226(12)
H17 H 0.37260 0.48030 0.36800
C27 C 0.53377(17) 0.42699(7) 0.32690(12)
C28 C 0.62795(18) 0.42567(8) 0.42831(12)
H18 H 0.60110 0.44780 0.48440
C29 C 0.75394(18) 0.39317(7) 0.44396(12)
H19 H 0.81380 0.39420 0.51000
C30 C 0.79765(17) 0.35706(7) 0.36091(12)
C31 C 0.92038(18) 0.31862(7) 0.37868(12)
H20 H 0.97880 0.31840 0.44530
C32 C 0.14965(18) 0.48488(8) 0.20086(12)
C33 C 0.03200(18) 0.43590(8) 0.17082(14)
H21 H -0.06440 0.45430 0.15980
H22 H 0.03760 0.40660 0.22710
H23 H 0.04890 0.41610 0.10670
C34 C 0.14096(19) 0.53243(8) 0.11168(14)
H24 H 0.15850 0.51310 0.04730
H25 H 0.21450 0.56320 0.13140
H26 H 0.04440 0.55070 0.10070
C35 C 0.1175(2) 0.51724(9) 0.30099(14)
H27 H 0.02160 0.53600 0.28700
H28 H 0.19140 0.54780 0.32140
H29 H 0.11930 0.48830 0.35750
C36 C 1.0582(2) 0.17818(8) 0.25821(16)
H30 H 0.96580 0.16210 0.27270
H31 H 1.13600 0.14950 0.28060
H32 H 1.05170 0.18540 0.18340
loop_
_geom_bond_atom_site_label_1
_geom_bond_atom_site_label_2
_geom_bond_distance
_geom_bond_site_symmetry_1
_geom_bond_site_symmetry_2
C1 H1 0.960 1_555 1_555
H2 C1 0.960 1_555 1_555
H3 C1 0.960 1_555 1_555
C2 C1 1.532 1_555 1_555
C3 C2 1.530 1_555 1_555
C4 C3 1.402 1_555 1_555
H4 C4 0.930 1_555 1_555
C5 C4 1.391 1_555 1_555
C6 C5 1.467 1_555 1_555
C7 C6 1.406 1_555 1_555
C8 C7 1.449 1_555 1_555
C9 C8 1.420 1_555 1_555
C10 C9 1.453 1_555 1_555
C11 C10 1.413 1_555 1_555
C12 C11 1.412 1_555 1_555
H5 C12 0.929 1_555 1_555
C13 C12 1.364 1_555 1_555
H6 C13 0.930 1_555 1_555
C14 C2 1.537 1_555 1_555
H7 C14 0.960 1_555 1_555
H8 C14 0.960 1_555 1_555
H9 C14 0.960 1_555 1_555
C15 C5 1.416 1_555 1_555
C16 C15 1.426 1_555 1_555
C17 C7 1.472 1_555 1_555
C18 C8 1.436 1_555 1_555
H10 C18 0.931 1_555 1_555
C19 C11 1.424 1_555 1_555
H11 C19 0.930 1_555 1_555
C20 C13 1.397 1_555 1_555
H12 C20 0.930 1_555 1_555
C21 C10 1.416 1_555 1_555
H13 C21 0.931 1_555 1_555
C22 C9 1.412 1_555 1_555
H14 C22 0.930 1_555 1_555
C23 C6 1.413 1_555 1_555
H15 C23 0.930 1_555 1_555
C24 C17 1.391 1_555 1_555
H16 C24 0.930 1_555 1_555
C25 C24 1.403 1_555 1_555
C26 C25 1.383 1_555 1_555
H17 C26 0.929 1_555 1_555
C27 C16 1.415 1_555 1_555
C28 C27 1.438 1_555 1_555
H18 C28 0.929 1_555 1_555
C29 C28 1.344 1_555 1_555
H19 C29 0.930 1_555 1_555
C30 C15 1.420 1_555 1_555
C31 C3 1.388 1_555 1_555
H20 C31 0.930 1_555 1_555
C32 C25 1.532 1_555 1_555
C33 C32 1.529 1_555 1_555
H21 C33 0.960 1_555 1_555
H22 C33 0.960 1_555 1_555
H23 C33 0.960 1_555 1_555
C34 C32 1.538 1_555 1_555
H24 C34 0.960 1_555 1_555
H25 C34 0.960 1_555 1_555
H26 C34 0.960 1_555 1_555
C35 C32 1.530 1_555 1_555
H27 C35 0.960 1_555 1_555
H28 C35 0.960 1_555 1_555
H29 C35 0.960 1_555 1_555
C36 C2 1.539 1_555 1_555
H30 C36 0.960 1_555 1_555
H31 C36 0.960 1_555 1_555
H32 C36 0.960 1_555 1_555
C16 C17 1.432 1_555 1_555
C18 C19 1.352 1_555 1_555
C20 C21 1.373 1_555 1_555
C22 C23 1.358 1_555 1_555
C26 C27 1.392 1_555 1_555
C29 C30 1.430 1_555 1_555
C30 C31 1.395 1_555 1_555
#END
