
#######################################################################
#
#                 Cambridge Crystallographic Data Centre
#                                CCDC
#
#######################################################################
#
# If this CIF has been generated from an entry in the Cambridge
# Structural Database, then it will include bibliographic, chemical,
# crystal, experimental, refinement or atomic coordinate data resulting
# from the CCDC's data processing and validation procedures.
#
#######################################################################

data_CSD_CIF_DACXEM
_audit_creation_date 2012-02-14
_audit_creation_method CSD-ConQuest-V1
_database_code_CSD DACXEM
_database_code_depnum_ccdc_archive 'CCDC 298134'
_chemical_formula_sum 'C15 H12'
_chemical_formula_moiety
;
C15 H12
;
_journal_coden_Cambridge 35
_journal_volume 76
_journal_year 2011
_journal_page_first 5170
_journal_name_full 'J.Org.Chem. '
loop_
_publ_author_name
"Xianlong Wang"
"P.A.Beckmann"
"C.W.Mallory"
"A.L.Rheingold"
"A.G.DiPasquale"
"P.J.Carroll"
"F.B.Mallory"
_chemical_name_systematic
;
9-Methylphenanthrene
;
_cell_volume   2057.800
_exptl_crystal_density_diffrn 1.241
_diffrn_ambient_temperature 213
#These two values have been output from a single CSD field.
_refine_ls_R_factor_gt 0.0667
_refine_ls_wR_factor_gt 0.0667
_symmetry_cell_setting monoclinic
_symmetry_space_group_name_H-M 'P 21/n'
_symmetry_Int_Tables_number 14
loop_
_symmetry_equiv_pos_site_id
_symmetry_equiv_pos_as_xyz
1 x,y,z
2 1/2-x,1/2+y,1/2-z
3 -x,-y,-z
4 -1/2+x,-1/2-y,-1/2+z
_cell_length_a 19.4783(16)
_cell_length_b 5.5238(5)
_cell_length_c 20.4967(16)
_cell_angle_alpha 90
_cell_angle_beta 111.076(1)
_cell_angle_gamma 90
_cell_formula_units_Z 8
loop_
_atom_type_symbol
_atom_type_radius_bond
C 0.68
H 0.23
loop_
_atom_site_label
_atom_site_type_symbol
_atom_site_fract_x
_atom_site_fract_y
_atom_site_fract_z
C1 C 0.13260(18) 0.5397(6) 0.02829(16)
H1 H 0.12000 0.41550 -0.00530
C2 C 0.86202(18) 0.9602(7) 0.10562(16)
H2 H 0.87520 1.07680 0.07880
C3 C 0.08075(18) 0.7059(7) 0.02846(17)
H3 H 0.03260 0.69520 -0.00450
C4 C 0.91245(18) 0.7924(7) 0.14235(17)
H4 H 0.96020 0.79430 0.14100
C5 C 0.09964(18) 0.8897(6) 0.07738(18)
H5 H 0.06430 1.00640 0.07670
C6 C 0.89347(18) 0.6196(7) 0.18162(17)
H6 H 0.92830 0.50360 0.20670
C7 C 0.16865(16) 0.9047(6) 0.12653(16)
H7 H 0.18000 1.03010 0.15980
C8 C 0.82473(17) 0.6167(6) 0.18424(16)
H8 H 0.81290 0.49890 0.21160
C9 C 0.31905(17) 0.9083(6) 0.23511(16)
H9 H 0.28510 1.02610 0.23730
C10 C 0.67332(17) 0.6218(6) 0.18688(15)
H10 H 0.70670 0.50440 0.21330
C11 C 0.38802(17) 0.9076(6) 0.28520(16)
H11 H 0.40100 1.02370 0.32110
C12 C 0.60308(17) 0.6241(6) 0.18779(16)
H12 H 0.58890 0.50990 0.21450
C13 C 0.43864(17) 0.7356(6) 0.28290(16)
H13 H 0.48600 0.73390 0.31750
C14 C 0.55339(17) 0.7957(6) 0.14905(16)
H14 H 0.50530 0.79790 0.14950
C15 C 0.41969(16) 0.5668(6) 0.23007(16)
H15 H 0.45470 0.45130 0.22890
C16 C 0.57398(16) 0.9628(6) 0.11000(15)
H16 H 0.53970 1.07870 0.08400
C17 C 0.32913(17) 0.3848(5) 0.12243(15)
C18 C 0.66728(16) 1.1394(6) 0.06706(14)
C19 C 0.25956(18) 0.3821(6) 0.07630(16)
H17 H 0.24630 0.26270 0.04130
C20 C 0.73663(18) 1.1341(6) 0.06808(15)
H18 H 0.75070 1.25000 0.04170
C21 C 0.20478(16) 0.5520(5) 0.07788(15)
C22 C 0.79029(16) 0.9603(6) 0.10745(14)
C23 C 0.22320(15) 0.7353(5) 0.12828(14)
C24 C 0.77115(15) 0.7847(5) 0.14715(14)
C25 C 0.29737(15) 0.7392(5) 0.18069(14)
C26 C 0.69663(16) 0.7882(5) 0.14802(14)
C27 C 0.34898(15) 0.5630(5) 0.17764(14)
C28 C 0.64559(15) 0.9631(5) 0.10832(14)
C29 C 0.3852(2) 0.2087(7) 0.1167(2)
C30 C 0.6128(2) 1.3218(7) 0.02366(19)
H19 H 0.5694(18) 1.248(6) -0.0116(17)
H20 H 0.4295(18) 0.293(6) 0.1116(16)
H21 H 0.4106(17) 0.117(6) 0.1620(17)
H22 H 0.6370(19) 1.421(7) -0.0024(19)
H23 H 0.5889(18) 1.424(6) 0.0509(17)
H24 H 0.3655(17) 0.105(6) 0.0770(18)
loop_
_geom_bond_atom_site_label_1
_geom_bond_atom_site_label_2
_geom_bond_distance
_geom_bond_site_symmetry_1
_geom_bond_site_symmetry_2
C1 H1 0.940 1_555 1_555
C2 H2 0.940 1_555 1_555
C3 C1 1.366 1_555 1_555
H3 C3 0.940 1_555 1_555
C4 C2 1.363 1_555 1_555
H4 C4 0.940 1_555 1_555
C5 C3 1.381 1_555 1_555
H5 C5 0.940 1_555 1_555
C6 C4 1.382 1_555 1_555
H6 C6 0.940 1_555 1_555
C7 C5 1.362 1_555 1_555
H7 C7 0.941 1_555 1_555
C8 C6 1.359 1_555 1_555
H8 C8 0.940 1_555 1_555
C9 H9 0.940 1_555 1_555
C10 H10 0.940 1_555 1_555
C11 C9 1.366 1_555 1_555
H11 C11 0.940 1_555 1_555
C12 C10 1.375 1_555 1_555
H12 C12 0.940 1_555 1_555
C13 C11 1.382 1_555 1_555
H13 C13 0.940 1_555 1_555
C14 C12 1.383 1_555 1_555
H14 C14 0.940 1_555 1_555
C15 C13 1.375 1_555 1_555
H15 C15 0.940 1_555 1_555
C16 C14 1.373 1_555 1_555
H16 C16 0.940 1_555 1_555
C17 C19 1.345 1_555 1_555
C18 C20 1.344 1_555 1_555
C19 H17 0.940 1_555 1_555
C20 H18 0.940 1_555 1_555
C21 C1 1.409 1_555 1_555
C22 C2 1.411 1_555 1_555
C23 C7 1.407 1_555 1_555
C24 C8 1.399 1_555 1_555
C25 C9 1.399 1_555 1_555
C26 C10 1.395 1_555 1_555
C27 C15 1.410 1_555 1_555
C28 C16 1.408 1_555 1_555
C29 C17 1.498 1_555 1_555
C30 C18 1.501 1_555 1_555
H19 C30 0.982 1_555 1_555
H20 C29 1.018 1_555 1_555
H21 C29 1.016 1_555 1_555
H22 C30 0.994 1_555 1_555
H23 C30 1.017 1_555 1_555
H24 C29 0.955 1_555 1_555
C17 C27 1.444 1_555 1_555
C18 C28 1.449 1_555 1_555
C19 C21 1.430 1_555 1_555
C20 C22 1.435 1_555 1_555
C21 C23 1.398 1_555 1_555
C22 C24 1.400 1_555 1_555
C23 C25 1.458 1_555 1_555
C24 C26 1.458 1_555 1_555
C25 C27 1.417 1_555 1_555
C26 C28 1.415 1_555 1_555
#END
