
#######################################################################
#
#                 Cambridge Crystallographic Data Centre
#                                CCDC
#
#######################################################################
#
# If this CIF has been generated from an entry in the Cambridge
# Structural Database, then it will include bibliographic, chemical,
# crystal, experimental, refinement or atomic coordinate data resulting
# from the CCDC's data processing and validation procedures.
#
#######################################################################

data_CSD_CIF_DAGXIV
_audit_creation_date 2016-12-12
_audit_creation_method CSD-ConQuest-V1
_database_code_CSD DAGXIV
_database_code_depnum_ccdc_archive 'CCDC 1499040'
_chemical_formula_sum 'C27 H18'
_chemical_formula_moiety
;
C27 H18
;
_journal_coden_Cambridge 179
_journal_volume 56
_journal_year 2017
_journal_page_first 722
_journal_name_full 'Angew.Chem.,Int.Ed. '
loop_
_publ_author_name
"Mengyun Chen"
"Yang Zhao"
"Lijia Yan"
"Shuai Yang"
"Yanan Zhu"
"I.Murtaza"
"Gufeng He"
"Hong Meng"
"Wei Huang"
_chemical_name_systematic
;
2-(9H-fluoren-2-yl)anthracene
;
_chemical_melting_point 334
_cell_volume   3538.375
_exptl_crystal_colour 'colorless'
_exptl_crystal_density_diffrn 1.286
_exptl_crystal_description 'block'
_exptl_crystal_preparation 'Sublimation'
_diffrn_ambient_temperature 300
_diffrn_special_details
;
twin

;
#These two values have been output from a single CSD field.
_refine_ls_R_factor_gt 0.1377
_refine_ls_wR_factor_gt 0.1377
_symmetry_cell_setting monoclinic
_symmetry_space_group_name_H-M 'P 21/c'
_symmetry_Int_Tables_number 14
loop_
_symmetry_equiv_pos_site_id
_symmetry_equiv_pos_as_xyz
1 x,y,z
2 -x,1/2+y,1/2-z
3 -x,-y,-z
4 x,-1/2-y,-1/2+z
_cell_length_a 6.0492(4)
_cell_length_b 37.386(2)
_cell_length_c 15.646(1)
_cell_angle_alpha 90
_cell_angle_beta 90.311(3)
_cell_angle_gamma 90
_cell_formula_units_Z 8
loop_
_atom_type_symbol
_atom_type_radius_bond
C 0.68
H 0.23
loop_
_atom_site_label
_atom_site_type_symbol
_atom_site_fract_x
_atom_site_fract_y
_atom_site_fract_z
C1 C 0.1140(11) 0.56864(17) 0.2289(4)
C2 C 0.2987(11) 0.58180(15) 0.2730(4)
C3 C 0.4548(12) 0.55893(17) 0.3054(4)
H1 H 0.57770 0.56760 0.33480
C4 C 0.4250(13) 0.52285(18) 0.2931(5)
H2 H 0.52840 0.50710 0.31600
C5 C 0.2503(12) 0.50945(19) 0.2490(5)
H3 H 0.23790 0.48490 0.24050
C6 C 0.0875(13) 0.53265(19) 0.2159(5)
H4 H -0.03430 0.52380 0.18610
C7 C -0.0349(11) 0.59846(16) 0.2006(5)
H5 H -0.04820 0.59890 0.13880
H6 H -0.18100 0.59570 0.22500
C8 C 0.0711(10) 0.63118(15) 0.2320(3)
C9 C 0.2738(11) 0.62141(16) 0.2753(4)
C10 C 0.4019(12) 0.64632(17) 0.3098(4)
H7 H 0.53030 0.64000 0.33910
C11 C 0.3403(11) 0.68260(16) 0.3013(4)
H8 H 0.43220 0.69970 0.32590
C12 C 0.1551(10) 0.69426(15) 0.2593(3)
C13 C 0.0156(12) 0.66648(18) 0.2237(4)
H9 H -0.11340 0.67270 0.19480
C14 C 0.0993(9) 0.73183(18) 0.2502(3)
C15 C 0.2347(10) 0.75828(14) 0.2743(3)
H10 H 0.36840 0.75220 0.30020
C16 C 0.1845(8) 0.79588(16) 0.2623(3)
C17 C -0.0178(10) 0.80593(16) 0.2254(3)
C18 C -0.1711(10) 0.77687(16) 0.2022(4)
H11 H -0.30820 0.78250 0.17860
C19 C -0.1175(10) 0.74235(17) 0.2143(4)
H12 H -0.21920 0.72470 0.19980
C20 C 0.3261(10) 0.82251(15) 0.2849(4)
H13 H 0.46010 0.81650 0.31050
C21 C 0.2767(8) 0.85961(14) 0.2708(3)
C22 C 0.0750(8) 0.86898(14) 0.2311(3)
C23 C -0.0713(9) 0.84114(15) 0.2087(3)
H14 H -0.20540 0.84660 0.18240
C24 C 0.4268(10) 0.88698(16) 0.2936(4)
H15 H 0.56050 0.88100 0.31950
C25 C 0.3793(11) 0.92170(17) 0.2785(5)
H16 H 0.47830 0.93940 0.29530
C26 C 0.1767(11) 0.93122(17) 0.2367(4)
H17 H 0.14540 0.95510 0.22530
C27 C 0.0289(10) 0.90519(17) 0.2137(4)
H18 H -0.10240 0.91140 0.18640
C28 C 0.5827(10) 0.90197(15) 0.5246(4)
C29 C 0.7725(10) 0.88921(15) 0.4793(3)
C30 C 0.9242(12) 0.91412(15) 0.4479(4)
H19 H 1.04730 0.90640 0.41780
C31 C 0.8921(13) 0.94964(16) 0.4614(5)
H20 H 0.99320 0.96610 0.43990
C32 C 0.7096(14) 0.9618(2) 0.5069(6)
H21 H 0.69190 0.98610 0.51670
C33 C 0.5578(13) 0.93843(18) 0.5371(5)
H22 H 0.43550 0.94700 0.56660
C34 C 0.4435(10) 0.87194(15) 0.5519(4)
H23 H 0.29710 0.87380 0.52670
H24 H 0.42950 0.87170 0.61360
C35 C 0.5559(12) 0.83938(15) 0.5219(4)
C36 C 0.7665(11) 0.85117(15) 0.4760(3)
C37 C 0.8914(12) 0.82576(18) 0.4414(4)
H25 H 1.01700 0.83230 0.41120
C38 C 0.8401(12) 0.79008(16) 0.4489(4)
H26 H 0.93500 0.77350 0.42430
C39 C 0.6528(10) 0.77734(16) 0.4915(3)
C40 C 0.5162(10) 0.80436(18) 0.5273(4)
H27 H 0.39030 0.79710 0.55640
C41 C 0.6014(8) 0.73947(17) 0.4991(3)
C42 C 0.3916(10) 0.72808(17) 0.5345(4)
H28 H 0.28570 0.74520 0.54780
C43 C 0.3463(9) 0.69309(16) 0.5486(4)
H29 H 0.21040 0.68670 0.57160
C44 C 0.5073(9) 0.66508(14) 0.5284(3)
C45 C 0.7035(8) 0.67628(15) 0.4899(3)
C46 C 0.7453(10) 0.71272(14) 0.4765(3)
H30 H 0.87790 0.71910 0.45090
C47 C 0.8482(10) 0.64942(15) 0.4683(4)
H31 H 0.98110 0.65560 0.44270
C48 C 0.8048(8) 0.61312(14) 0.4832(3)
C49 C 0.6057(8) 0.60240(14) 0.5250(3)
C50 C 0.4578(8) 0.62902(14) 0.5468(3)
H32 H 0.32570 0.62320 0.57350
C51 C 0.9576(9) 0.58579(14) 0.4585(4)
H33 H 1.08780 0.59210 0.43100
C52 C 0.9153(11) 0.55104(15) 0.4746(5)
H34 H 1.01610 0.53370 0.45730
C53 C 0.7224(11) 0.54044(17) 0.5169(5)
H35 H 0.69850 0.51640 0.52890
C54 C 0.5709(10) 0.56515(15) 0.5403(4)
H36 H 0.44160 0.55770 0.56680
loop_
_geom_bond_atom_site_label_1
_geom_bond_atom_site_label_2
_geom_bond_distance
_geom_bond_site_symmetry_1
_geom_bond_site_symmetry_2
C1 C2 1.399 1_555 1_555
C2 C3 1.369 1_555 1_555
C3 H1 0.930 1_555 1_555
C4 C3 1.374 1_555 1_555
H2 C4 0.929 1_555 1_555
C5 C4 1.355 1_555 1_555
H3 C5 0.930 1_555 1_555
C6 C1 1.370 1_555 1_555
H4 C6 0.931 1_555 1_555
C7 C1 1.499 1_555 1_555
H5 C7 0.970 1_555 1_555
H6 C7 0.970 1_555 1_555
C8 C7 1.465 1_555 1_555
C9 C2 1.489 1_555 1_555
C10 C9 1.325 1_555 1_555
H7 C10 0.930 1_555 1_555
C11 C10 1.413 1_555 1_555
H8 C11 0.929 1_555 1_555
C12 C11 1.367 1_555 1_555
C13 C8 1.368 1_555 1_555
H9 C13 0.929 1_555 1_555
C14 C12 1.451 1_555 1_555
C15 C14 1.337 1_555 1_555
H10 C15 0.931 1_555 1_555
C16 C15 1.450 1_555 1_555
C17 C16 1.402 1_555 1_555
C18 C17 1.473 1_555 1_555
H11 C18 0.930 1_555 1_555
C19 C14 1.477 1_555 1_555
H12 C19 0.929 1_555 1_555
C20 C16 1.359 1_555 1_555
H13 C20 0.930 1_555 1_555
C21 C20 1.436 1_555 1_555
C22 C21 1.410 1_555 1_555
C23 C17 1.380 1_555 1_555
H14 C23 0.930 1_555 1_555
C24 C21 1.413 1_555 1_555
H15 C24 0.930 1_555 1_555
C25 C24 1.350 1_555 1_555
H16 C25 0.929 1_555 1_555
C26 C25 1.431 1_555 1_555
H17 C26 0.930 1_555 1_555
C27 C22 1.408 1_555 1_555
H18 C27 0.929 1_555 1_555
C28 C29 1.434 1_555 1_555
C29 C30 1.398 1_555 1_555
C30 H19 0.929 1_555 1_555
C31 C30 1.359 1_555 1_555
H20 C31 0.932 1_555 1_555
C32 C31 1.393 1_555 1_555
H21 C32 0.928 1_555 1_555
C33 C28 1.385 1_555 1_555
H22 C33 0.931 1_555 1_555
C34 C28 1.468 1_555 1_555
H23 C34 0.970 1_555 1_555
H24 C34 0.970 1_555 1_555
C35 C34 1.472 1_555 1_555
C36 C29 1.424 1_555 1_555
C37 C36 1.331 1_555 1_555
H25 C37 0.930 1_555 1_555
C38 C37 1.375 1_555 1_555
H26 C38 0.930 1_555 1_555
C39 C38 1.401 1_555 1_555
C40 C35 1.334 1_555 1_555
H27 C40 0.930 1_555 1_555
C41 C39 1.455 1_555 1_555
C42 C41 1.451 1_555 1_555
H28 C42 0.930 1_555 1_555
C43 C42 1.355 1_555 1_555
H29 C43 0.930 1_555 1_555
C44 C43 1.466 1_555 1_555
C45 C44 1.398 1_555 1_555
C46 C41 1.373 1_555 1_555
H30 C46 0.930 1_555 1_555
C47 C45 1.376 1_555 1_555
H31 C47 0.929 1_555 1_555
C48 C47 1.402 1_555 1_555
C49 C48 1.431 1_555 1_555
C50 C44 1.411 1_555 1_555
H32 C50 0.930 1_555 1_555
C51 C48 1.432 1_555 1_555
H33 C51 0.930 1_555 1_555
C52 C51 1.348 1_555 1_555
H34 C52 0.931 1_555 1_555
C53 C52 1.402 1_555 1_555
H35 C53 0.930 1_555 1_555
C54 C49 1.429 1_555 1_555
H36 C54 0.930 1_555 1_555
C5 C6 1.409 1_555 1_555
C8 C9 1.445 1_555 1_555
C12 C13 1.448 1_555 1_555
C18 C19 1.344 1_555 1_555
C22 C23 1.409 1_555 1_555
C26 C27 1.368 1_555 1_555
C32 C33 1.354 1_555 1_555
C35 C36 1.531 1_555 1_555
C39 C40 1.422 1_555 1_555
C45 C46 1.402 1_555 1_555
C49 C50 1.382 1_555 1_555
C53 C54 1.353 1_555 1_555
#END
