
#######################################################################
#
#                 Cambridge Crystallographic Data Centre
#                                CCDC
#
#######################################################################
#
# If this CIF has been generated from an entry in the Cambridge
# Structural Database, then it will include bibliographic, chemical,
# crystal, experimental, refinement or atomic coordinate data resulting
# from the CCDC's data processing and validation procedures.
#
#######################################################################

data_CSD_CIF_DAGYES
_audit_creation_date 2016-12-12
_audit_creation_method CSD-ConQuest-V1
_database_code_CSD DAGYES
_database_code_depnum_ccdc_archive 'CCDC 1508821'
_chemical_formula_sum 'C28 H18'
_chemical_formula_moiety
;
C28 H18
;
_journal_coden_Cambridge 179
_journal_volume 56
_journal_year 2017
_journal_page_first 722
_journal_name_full 'Angew.Chem.,Int.Ed. '
loop_
_publ_author_name
"Mengyun Chen"
"Yang Zhao"
"Lijia Yan"
"Shuai Yang"
"Yanan Zhu"
"I.Murtaza"
"Gufeng He"
"Hong Meng"
"Wei Huang"
_chemical_name_systematic
;
2,2'-bianthracene
;
_chemical_melting_point 374
_cell_volume   1724.587
_exptl_crystal_density_diffrn 1.365
_diffrn_ambient_temperature 100
_diffrn_special_details
;
twin

;
#These two values have been output from a single CSD field.
_refine_ls_R_factor_gt 0.1368
_refine_ls_wR_factor_gt 0.1368
_symmetry_cell_setting monoclinic
_symmetry_space_group_name_H-M 'P n'
_symmetry_Int_Tables_number 7
loop_
_symmetry_equiv_pos_site_id
_symmetry_equiv_pos_as_xyz
1 x,y,z
2 1/2+x,-y,1/2+z
_cell_length_a 5.9575(10)
_cell_length_b 7.4678(12)
_cell_length_c 38.764(7)
_cell_angle_alpha 90
_cell_angle_beta 90.067(9)
_cell_angle_gamma 90
_cell_formula_units_Z 4
loop_
_atom_type_symbol
_atom_type_radius_bond
C 0.68
H 0.23
loop_
_atom_site_label
_atom_site_type_symbol
_atom_site_fract_x
_atom_site_fract_y
_atom_site_fract_z
C1 C 0.0920(15) 0.3576(11) 0.0222(3)
H1 H 0.14000 0.33020 -0.00060
C2 C -0.1149(16) 0.4402(12) 0.0277(3)
H2 H -0.20450 0.47540 0.00860
C3 C 0.1701(16) 0.3516(10) 0.4387(3)
H3 H 0.26480 0.31710 0.45730
C4 C -0.1887(16) 0.4705(11) 0.0602(3)
H4 H -0.33360 0.52100 0.06340
C5 C -0.1767(15) 0.4734(10) 0.4179(2)
H5 H -0.31950 0.52770 0.42100
C6 C -0.0681(17) 0.4431(11) 0.4461(3)
H6 H -0.12260 0.47160 0.46840
C7 C 0.3545(15) 0.2877(11) 0.1766(3)
H7 H 0.49820 0.23590 0.17300
C8 C -0.2497(15) 0.4727(11) 0.2589(3)
H8 H -0.34090 0.51000 0.24010
C9 C -0.3267(15) 0.4931(11) 0.2914(3)
H9 H -0.47430 0.53780 0.29480
C10 C 0.2337(15) 0.3246(10) 0.4063(2)
H10 H 0.38130 0.27970 0.40300
C11 C 0.2827(15) 0.3087(11) 0.2095(3)
H11 H 0.37640 0.27600 0.22830
C12 C -0.2378(16) 0.4794(10) 0.3553(2)
H12 H -0.37690 0.53820 0.35920
C13 C 0.2270(15) 0.3159(10) 0.0503(3)
H13 H 0.37020 0.26480 0.04590
C14 C -0.1243(14) 0.4578(11) 0.1236(3)
H14 H -0.26870 0.50980 0.12640
C15 C 0.3042(14) 0.3079(11) 0.1138(3)
H15 H 0.45100 0.26170 0.11040
C16 C -0.0615(15) 0.4393(12) 0.1869(3)
H16 H -0.19930 0.49980 0.19090
C17 C 0.1073(15) 0.3339(11) 0.2789(3)
H17 H 0.24750 0.27660 0.27520
C18 C 0.1715(14) 0.321(1) 0.3427(2)
H18 H 0.31300 0.26940 0.33730
C19 C 0.2251(15) 0.3396(11) 0.1469(3)
C20 C -0.1903(14) 0.4489(10) 0.3214(2)
C21 C -0.0016(15) 0.4176(11) 0.1532(3)
C22 C -0.0258(15) 0.3931(11) 0.2517(3)
C23 C 0.0147(14) 0.3665(10) 0.3153(3)
C24 C -0.0500(15) 0.4272(10) 0.0910(3)
C25 C 0.1638(15) 0.3451(11) 0.0850(3)
C26 C -0.1212(16) 0.4407(10) 0.3845(3)
C27 C 0.1123(15) 0.3539(9) 0.3775(3)
C28 C 0.0541(15) 0.3841(12) 0.2158(3)
C29 C 0.3703(16) 0.8325(13) 0.0264(3)
H19 H 0.27200 0.80960 0.00760
C30 C 0.5755(17) 0.9108(13) 0.0218(3)
H20 H 0.61910 0.93680 -0.00120
C31 C 0.7292(17) 0.9568(13) 0.0484(3)
H21 H 0.87050 1.00930 0.04320
C32 C 0.6638(17) 0.9214(12) 0.0831(3)
C33 C 0.4533(16) 0.8314(13) 0.0895(3)
C34 C 0.3154(16) 0.7897(11) 0.0590(3)
H22 H 0.17780 0.72830 0.06260
C35 C 0.8037(15) 0.9593(12) 0.1117(2)
H23 H 0.94850 1.00790 0.10750
C36 C 0.7410(15) 0.9295(11) 0.1450(2)
C37 C 0.4994(15) 0.8424(11) 0.1520(3)
C38 C 0.4004(14) 0.8011(11) 0.1218(2)
H24 H 0.26400 0.73670 0.12450
C39 C 0.8503(16) 0.9754(11) 0.1747(3)
H25 H 0.99670 1.02320 0.17160
C40 C 0.7811(15) 0.9632(11) 0.2085(3)
H26 H 0.87530 0.99920 0.22700
C41 C 0.5551(15) 0.8919(12) 0.2146(3)
C42 C 0.4536(16) 0.8326(11) 0.1852(2)
H27 H 0.31840 0.76940 0.18970
C43 C 0.4846(15) 0.8912(11) 0.2507(2)
C44 C 0.5928(16) 0.9472(11) 0.2788(3)
H28 H 0.73530 1.00130 0.27530
C45 C 0.5162(14) 0.9344(11) 0.3137(3)
C46 C 0.3011(15) 0.8503(10) 0.3197(2)
C47 C 0.1850(15) 0.7977(10) 0.2899(2)
H29 H 0.03930 0.74890 0.29310
C48 C 0.2601(15) 0.8094(10) 0.2567(2)
H30 H 0.17180 0.76660 0.23810
C49 C 0.6506(15) 0.9831(10) 0.3421(2)
H31 H 0.79020 1.03930 0.33730
C50 C 0.5965(15) 0.9560(11) 0.3760(2)
C51 C 0.3655(15) 0.873(1) 0.3822(2)
C52 C 0.2423(15) 0.8244(10) 0.3534(2)
H32 H 0.10240 0.76730 0.35750
C53 C 0.7154(15) 0.9907(10) 0.4054(2)
H33 H 0.85810 1.04470 0.40210
C54 C 0.6587(16) 0.9592(12) 0.4379(3)
H34 H 0.75780 0.98430 0.45650
C55 C 0.4234(16) 0.8797(11) 0.4439(3)
H35 H 0.36910 0.86060 0.46660
C56 C 0.2942(16) 0.8370(11) 0.4160(2)
H36 H 0.15250 0.78170 0.41950
loop_
_geom_bond_atom_site_label_1
_geom_bond_atom_site_label_2
_geom_bond_distance
_geom_bond_site_symmetry_1
_geom_bond_site_symmetry_2
C1 H1 0.952 1_555 1_555
C2 C1 1.395 1_555 1_555
H2 C2 0.949 1_555 1_555
C3 H3 0.951 1_555 1_555
C4 C2 1.354 1_555 1_555
H4 C4 0.950 1_555 1_555
C5 H5 0.950 1_555 1_555
C6 C3 1.601 1_555 1_555
H6 C6 0.948 1_555 1_555
C7 H7 0.950 1_555 1_555
C8 H8 0.950 1_555 1_555
C9 C8 1.350 1_555 1_555
H9 C9 0.950 1_555 1_555
C10 C3 1.328 1_555 1_555
H10 C10 0.950 1_555 1_555
C11 C7 1.355 1_555 1_555
H11 C11 0.949 1_555 1_555
C12 H12 0.950 1_555 1_555
C13 C1 1.389 1_555 1_555
H13 C13 0.950 1_555 1_555
C14 H14 0.950 1_555 1_555
C15 H15 0.949 1_555 1_555
C16 H16 0.950 1_555 1_555
C17 H17 0.950 1_555 1_555
C18 H18 0.950 1_555 1_555
C19 C7 1.438 1_555 1_555
C20 C9 1.456 1_555 1_555
C21 C14 1.393 1_555 1_555
C22 C8 1.487 1_555 1_555
C23 C17 1.535 1_555 1_555
C24 C4 1.487 1_555 1_555
C25 C13 1.414 1_555 1_555
C26 C5 1.359 1_555 1_555
C27 C10 1.347 1_555 1_555
C28 C11 1.494 1_555 1_555
C29 H19 0.950 1_555 1_555
C30 C29 1.367 1_555 1_555
H20 C30 0.949 1_555 1_555
C31 C30 1.420 1_555 1_555
H21 C31 0.950 1_555 1_555
C32 C31 1.426 1_555 1_555
C33 C32 1.445 1_555 1_555
C34 C29 1.344 1_555 1_555
H22 C34 0.950 1_555 1_555
C35 C32 1.415 1_555 1_555
H23 C35 0.950 1_555 1_555
C36 C35 1.363 1_555 1_555
C37 C36 1.603 1_555 1_555
C38 C33 1.311 1_555 1_555
H24 C38 0.950 1_555 1_555
C39 C36 1.366 1_555 1_555
H25 C39 0.950 1_555 1_555
C40 C39 1.377 1_555 1_555
H26 C40 0.949 1_555 1_555
C41 C40 1.467 1_555 1_555
C42 C37 1.318 1_555 1_555
H27 C42 0.950 1_555 1_555
C43 C41 1.462 1_555 1_555
C44 C43 1.332 1_555 1_555
H28 C44 0.950 1_555 1_555
C45 C44 1.431 1_555 1_555
C46 C45 1.446 1_555 1_555
C47 C46 1.402 1_555 1_555
H29 C47 0.950 1_555 1_555
C48 C43 1.489 1_555 1_555
H30 C48 0.948 1_555 1_555
C49 C45 1.408 1_555 1_555
H31 C49 0.950 1_555 1_555
C50 C49 1.368 1_555 1_555
C51 C50 1.529 1_555 1_555
C52 C46 1.367 1_555 1_555
H32 C52 0.950 1_555 1_555
C53 C50 1.366 1_555 1_555
H33 C53 0.950 1_555 1_555
C54 C53 1.326 1_555 1_555
H34 C54 0.950 1_555 1_555
C55 C54 1.540 1_555 1_555
H35 C55 0.949 1_555 1_555
C56 C51 1.404 1_555 1_555
H36 C56 0.950 1_555 1_555
C5 C6 1.290 1_555 1_555
C12 C20 1.364 1_555 1_555
C12 C26 1.358 1_555 1_555
C14 C24 1.359 1_555 1_555
C15 C19 1.388 1_555 1_555
C15 C25 1.422 1_555 1_555
C16 C21 1.364 1_555 1_555
C16 C28 1.377 1_555 1_555
C17 C22 1.391 1_555 1_555
C18 C23 1.454 1_555 1_555
C18 C27 1.416 1_555 1_555
C19 C21 1.491 1_555 1_555
C20 C23 1.388 1_555 1_555
C22 C28 1.473 1_555 1_555
C24 C25 1.433 1_555 1_555
C26 C27 1.559 1_555 1_555
C33 C34 1.472 1_555 1_555
C37 C38 1.346 1_555 1_555
C41 C42 1.363 1_555 1_555
C47 C48 1.366 1_555 1_555
C51 C52 1.384 1_555 1_555
C55 C56 1.365 1_555 1_555
#END
