
#######################################################################
#
#                 Cambridge Crystallographic Data Centre
#                                CCDC
#
#######################################################################
#
# If this CIF has been generated from an entry in the Cambridge
# Structural Database, then it will include bibliographic, chemical,
# crystal, experimental, refinement or atomic coordinate data resulting
# from the CCDC's data processing and validation procedures.
#
#######################################################################

data_CSD_CIF_DAQJIP
_audit_creation_date 2005-10-20
_audit_creation_method CSD-ConQuest-V1
_database_code_CSD DAQJIP
_database_code_depnum_ccdc_archive 'CCDC 245437'
_chemical_formula_sum 'C31 H22'
_chemical_formula_moiety
;
C31 H22
;
_journal_coden_Cambridge 24
_journal_volume 46
_journal_year 2005
_journal_page_first 4627
_journal_name_full 'Tetrahedron Lett. '
loop_
_publ_author_name
"Do Han Kim"
"Jung A Lee"
"Seung Uk Son"
"Young Keun Chung"
"Cheol Ho Choi"
_chemical_name_systematic
;
2,4,9-Triphenylbenz(f)indene
;
_chemical_melting_point 453.15
_cell_volume   2103.690
_exptl_crystal_colour 'yellow'
_exptl_crystal_density_diffrn 1.246
_exptl_crystal_preparation 'diethyl ether'
_diffrn_ambient_temperature 293
#These two values have been output from a single CSD field.
_refine_ls_R_factor_gt 0.0495
_refine_ls_wR_factor_gt 0.0495
_symmetry_cell_setting orthorhombic
_symmetry_space_group_name_H-M 'P 21 21 21'
_symmetry_Int_Tables_number 19
loop_
_symmetry_equiv_pos_site_id
_symmetry_equiv_pos_as_xyz
1 x,y,z
2 1/2-x,-y,1/2+z
3 -x,1/2+y,1/2-z
4 1/2+x,1/2-y,-z
_cell_length_a 5.977(1)
_cell_length_b 10.831(1)
_cell_length_c 32.496(2)
_cell_angle_alpha 90
_cell_angle_beta 90
_cell_angle_gamma 90
_cell_formula_units_Z 4
loop_
_atom_type_symbol
_atom_type_radius_bond
C 0.68
H 0.23
loop_
_atom_site_label
_atom_site_type_symbol
_atom_site_fract_x
_atom_site_fract_y
_atom_site_fract_z
C1 C 0.7764(11) 0.0439(7) 0.1671(3)
C2 C 0.6984(12) 0.1736(7) 0.1623(3)
H1 H 0.81850 0.22530 0.15200
H2 H 0.64870 0.20630 0.18860
C3 C 0.5089(11) 0.1706(7) 0.1324(3)
C4 C 0.3665(13) 0.2636(7) 0.1185(3)
C5 C 0.1973(13) 0.2321(7) 0.0895(3)
C6 C 0.0488(13) 0.3232(7) 0.0732(3)
H3 H 0.06090 0.40440 0.08220
C7 C -0.1100(14) 0.2939(8) 0.0448(3)
H4 H -0.20780 0.35370 0.03490
C8 C -0.1234(14) 0.1724(8) 0.0307(3)
H5 H -0.23330 0.15340 0.01150
C9 C 0.0140(12) 0.0805(7) 0.0433(3)
H6 H 0.00120 0.00160 0.03220
C10 C 0.1817(13) 0.1070(7) 0.0744(3)
C11 C 0.3339(13) 0.0115(6) 0.0903(3)
C12 C 0.4914(11) 0.0465(6) 0.1184(3)
C13 C 0.6514(12) -0.0312(6) 0.1412(3)
H7 H 0.66620 -0.11630 0.13870
C14 C 0.9548(12) 0.0072(8) 0.1942(3)
C15 C 1.1123(13) 0.0911(7) 0.2075(3)
H8 H 1.10560 0.17220 0.19820
C16 C 1.2804(14) 0.0566(9) 0.2345(3)
H9 H 1.38380 0.11460 0.24360
C17 C 1.2935(15) -0.0628(10) 0.2475(3)
H10 H 1.40880 -0.08770 0.26490
C18 C 1.1344(18) -0.1457(8) 0.2348(3)
H11 H 1.13800 -0.22630 0.24460
C19 C 0.9688(15) -0.1107(8) 0.2075(3)
H12 H 0.86620 -0.16890 0.19820
C20 C 0.3842(13) 0.3912(6) 0.1363(3)
C21 C 0.2123(12) 0.4402(7) 0.1603(3)
H13 H 0.08440 0.39330 0.16490
C22 C 0.2279(13) 0.5572(7) 0.1775(3)
H14 H 0.11550 0.58750 0.19450
C23 C 0.4196(15) 0.6290(7) 0.1685(3)
H15 H 0.43020 0.70950 0.17820
C24 C 0.5875(14) 0.5807(6) 0.1456(3)
H16 H 0.71670 0.62680 0.14130
C25 C 0.5704(11) 0.4652(7) 0.1288(3)
H17 H 0.68500 0.43560 0.11220
C26 C 0.3157(13) -0.1208(6) 0.0747(2)
C27 C 0.1398(13) -0.1977(7) 0.0851(3)
H18 H 0.02420 -0.16880 0.10160
C28 C 0.1370(14) -0.3163(7) 0.0708(3)
H19 H 0.01570 -0.36670 0.07710
C29 C 0.3075(16) -0.3631(7) 0.0475(3)
H20 H 0.30280 -0.44420 0.03820
C30 C 0.4846(14) -0.2889(8) 0.0382(3)
H21 H 0.60320 -0.32050 0.02300
C31 C 0.4904(13) -0.1692(8) 0.0510(3)
H22 H 0.61110 -0.11930 0.04390
loop_
_geom_bond_atom_site_label_1
_geom_bond_atom_site_label_2
_geom_bond_distance
_geom_bond_site_symmetry_1
_geom_bond_site_symmetry_2
C1 C2 1.488 1_555 1_555
C2 H1 0.970 1_555 1_555
H2 C2 0.972 1_555 1_555
C3 C2 1.493 1_555 1_555
C4 C3 1.394 1_555 1_555
C5 C4 1.424 1_555 1_555
C6 C5 1.429 1_555 1_555
H3 C6 0.930 1_555 1_555
C7 C6 1.361 1_555 1_555
H4 C7 0.930 1_555 1_555
C8 C7 1.396 1_555 1_555
H5 C8 0.929 1_555 1_555
C9 C8 1.354 1_555 1_555
H6 C9 0.931 1_555 1_555
C10 C5 1.444 1_555 1_555
C11 C10 1.471 1_555 1_555
C12 C3 1.423 1_555 1_555
C13 C1 1.389 1_555 1_555
H7 C13 0.930 1_555 1_555
C14 C1 1.439 1_555 1_555
C15 C14 1.378 1_555 1_555
H8 C15 0.930 1_555 1_555
C16 C15 1.385 1_555 1_555
H9 C16 0.930 1_555 1_555
C17 C16 1.363 1_555 1_555
H10 C17 0.931 1_555 1_555
C18 C17 1.371 1_555 1_555
H11 C18 0.930 1_555 1_555
C19 C14 1.351 1_555 1_555
H12 C19 0.930 1_555 1_555
C20 C4 1.502 1_555 1_555
C21 C20 1.395 1_555 1_555
H13 C21 0.930 1_555 1_555
C22 C21 1.388 1_555 1_555
H14 C22 0.930 1_555 1_555
C23 C22 1.415 1_555 1_555
H15 C23 0.929 1_555 1_555
C24 C23 1.354 1_555 1_555
H16 C24 0.930 1_555 1_555
C25 C20 1.393 1_555 1_555
H17 C25 0.929 1_555 1_555
C26 C11 1.524 1_555 1_555
C27 C26 1.383 1_555 1_555
H18 C27 0.929 1_555 1_555
C28 C27 1.366 1_555 1_555
H19 C28 0.930 1_555 1_555
C29 C28 1.367 1_555 1_555
H20 C29 0.929 1_555 1_555
C30 C29 1.363 1_555 1_555
H21 C30 0.929 1_555 1_555
C31 C26 1.399 1_555 1_555
H22 C31 0.930 1_555 1_555
C9 C10 1.452 1_555 1_555
C11 C12 1.365 1_555 1_555
C12 C13 1.474 1_555 1_555
C18 C19 1.382 1_555 1_555
C24 C25 1.369 1_555 1_555
C30 C31 1.362 1_555 1_555
#END
