
#######################################################################
#
#                 Cambridge Crystallographic Data Centre
#                                CCDC
#
#######################################################################
#
# If this CIF has been generated from an entry in the Cambridge
# Structural Database, then it will include bibliographic, chemical,
# crystal, experimental, refinement or atomic coordinate data resulting
# from the CCDC's data processing and validation procedures.
#
#######################################################################

data_CSD_CIF_DASVAU
_audit_creation_date 1986-05-18
_audit_creation_method CSD-ConQuest-V1
_database_code_CSD DASVAU
_database_code_depnum_ccdc_archive 'CCDC 1136541'
_chemical_formula_sum 'C44 H28'
_chemical_formula_moiety
;
C44 H28
;
_journal_coden_Cambridge 154
_journal_volume 37
_journal_year 1984
_journal_page_first 2215
_journal_name_full 'Aust.J.Chem. '
loop_
_publ_author_name
"H.-D.Becker"
"V.A.Patrick"
"A.H.White"
_chemical_name_systematic
;
11-(9'-Anthryl)-9,10-etheno-12-phenyl-9-phenylethynyl-9,10-dihydro-anthracene
;
_chemical_name_common
;
9-Phenylethynyl-anthracene photodimer
;
_cell_volume   3038.642
_exptl_crystal_density_diffrn 1.22
_diffrn_ambient_temperature ?
_diffrn_special_details
;
The study was carried out at room temperature,in the range 283-303K

;
#These two values have been output from a single CSD field.
_refine_ls_R_factor_gt 0.049
_refine_ls_wR_factor_gt 0.049
_symmetry_cell_setting monoclinic
_symmetry_space_group_name_H-M 'P 21/c'
_symmetry_Int_Tables_number 14
loop_
_symmetry_equiv_pos_site_id
_symmetry_equiv_pos_as_xyz
1 x,y,z
2 -x,1/2+y,1/2-z
3 -x,-y,-z
4 x,-1/2-y,-1/2+z
_cell_length_a 10.719(7)
_cell_length_b 18.627(8)
_cell_length_c 15.509(8)
_cell_angle_alpha 90
_cell_angle_beta 101.10(5)
_cell_angle_gamma 90
_cell_formula_units_Z 4
loop_
_atom_type_symbol
_atom_type_radius_bond
C 0.68
H 0.23
loop_
_atom_site_label
_atom_site_type_symbol
_atom_site_fract_x
_atom_site_fract_y
_atom_site_fract_z
C1 C 0.7611(10) 0.0367(5) 0.8178(6)
C2 C 0.7630(11) -0.0199(5) 0.7867(6)
C3 C 0.7804(10) -0.0866(5) 0.7444(5)
C4 C 0.6970(11) -0.1429(6) 0.7424(6)
C5 C 0.7064(12) -0.2068(6) 0.7007(7)
C6 C 0.8094(13) -0.2174(7) 0.6635(7)
C7 C 0.8993(11) -0.1652(6) 0.6622(6)
C8 C 0.8834(11) -0.0986(6) 0.7023(6)
C9 C 0.7518(11) 0.1087(5) 0.8567(5)
C10 C 0.8737(11) 0.1279(5) 0.9232(6)
C11 C 0.9800(11) 0.0862(5) 0.9492(5)
C12 C 1.0813(11) 0.1129(6) 1.0116(6)
C13 C 1.0738(11) 0.1828(6) 1.0452(6)
C14 C 0.9671(10) 0.2246(5) 1.0177(6)
C15 C 0.8656(11) 0.1970(5) 0.9558(6)
C16 C 0.7436(10) 0.2356(5) 0.9180(5)
C17 C 0.6354(10) 0.1893(5) 0.9383(6)
C18 C 0.5429(11) 0.2088(6) 0.9814(6)
C19 C 0.4511(10) 0.1590(6) 0.9918(6)
C20 C 0.4513(10) 0.0898(6) 0.9564(6)
C21 C 0.5474(10) 0.0706(6) 0.9126(6)
C22 C 0.6404(9) 0.1192(5) 0.9034(5)
C23 C 0.738(1) 0.1695(5) 0.7861(6)
C24 C 0.7378(10) 0.2363(5) 0.8170(5)
C25 C 0.7269(11) 0.3045(5) 0.7702(5)
C26 C 0.7914(11) 0.3174(5) 0.7027(6)
C27 C 0.7876(11) 0.3839(6) 0.6629(6)
C28 C 0.7176(12) 0.4399(6) 0.6897(6)
C29 C 0.6530(12) 0.4274(6) 0.7552(6)
C30 C 0.6592(11) 0.3613(6) 0.7964(6)
C31 C 0.7272(10) 0.1454(6) 0.6917(6)
C32 C 0.8357(10) 0.1259(5) 0.6641(6)
C33 C 0.9615(10) 0.1347(5) 0.7130(6)
C34 C 1.0684(11) 0.1109(6) 0.6862(7)
C35 C 1.0586(13) 0.0806(7) 0.5987(7)
C36 C 0.9404(12) 0.0713(6) 0.5507(7)
C37 C 0.8271(11) 0.0936(5) 0.5790(6)
C38 C 0.7121(11) 0.0820(6) 0.5280(6)
C39 C 0.5992(10) 0.1020(6) 0.5538(5)
C40 C 0.4783(12) 0.0947(6) 0.5008(6)
C41 C 0.3756(11) 0.1176(6) 0.5261(6)
C42 C 0.3801(11) 0.1517(7) 0.6104(6)
C43 C 0.4955(10) 0.1609(6) 0.6637(6)
C44 C 0.6076(10) 0.1365(5) 0.6387(5)
H1 H 0.62200 -0.13600 0.77500
H2 H 0.64300 -0.24600 0.70000
H3 H 0.82000 -0.26600 0.63500
H4 H 0.97100 -0.17500 0.63200
H5 H 0.94800 -0.05900 0.70200
H6 H 0.98700 0.03700 0.92300
H7 H 1.15800 0.08100 1.03300
H8 H 1.14900 0.19900 1.08800
H9 H 0.96100 0.27500 1.04200
H10 H 0.74600 0.28200 0.94700
H11 H 0.53700 0.25600 1.00800
H12 H 0.38200 0.17000 1.02400
H13 H 0.38000 0.05500 0.95900
H14 H 0.55600 0.02000 0.89300
H15 H 0.84100 0.27800 0.68100
H16 H 0.83600 0.39200 0.61500
H17 H 0.71400 0.48800 0.65900
H18 H 0.59500 0.46600 0.77000
H19 H 0.61700 0.35500 0.84700
H20 H 0.97300 0.16000 0.77200
H21 H 1.15500 0.11300 0.72800
H22 H 1.13600 0.06800 0.57900
H23 H 0.93800 0.05100 0.49200
H24 H 0.70900 0.06000 0.47000
H25 H 0.46900 0.06800 0.44100
H26 H 0.29100 0.11200 0.48900
H27 H 0.30000 0.17100 0.62700
H28 H 0.50000 0.18500 0.72200
loop_
_geom_bond_atom_site_label_1
_geom_bond_atom_site_label_2
_geom_bond_distance
_geom_bond_site_symmetry_1
_geom_bond_site_symmetry_2
C1 C2 1.161 1_555 1_555
C2 C3 1.434 1_555 1_555
C3 C4 1.374 1_555 1_555
C4 C5 1.368 1_555 1_555
C5 C6 1.355 1_555 1_555
C6 C7 1.372 1_555 1_555
C7 C8 1.413 1_555 1_555
C8 C3 1.405 1_555 1_555
C9 C1 1.482 1_555 1_555
C10 C9 1.543 1_555 1_555
C11 C10 1.374 1_555 1_555
C12 C11 1.399 1_555 1_555
C13 C12 1.410 1_555 1_555
C14 C13 1.381 1_555 1_555
C15 C10 1.392 1_555 1_555
C16 C15 1.509 1_555 1_555
C17 C16 1.526 1_555 1_555
C18 C17 1.348 1_555 1_555
C19 C18 1.384 1_555 1_555
C20 C19 1.401 1_555 1_555
C21 C20 1.386 1_555 1_555
C22 C9 1.524 1_555 1_555
C23 C9 1.562 1_555 1_555
C24 C16 1.556 1_555 1_555
C25 C24 1.457 1_555 1_555
C26 C25 1.382 1_555 1_555
C27 C26 1.381 1_555 1_555
C28 C27 1.394 1_555 1_555
C29 C28 1.355 1_555 1_555
C30 C25 1.387 1_555 1_555
C31 C23 1.514 1_555 1_555
C32 C31 1.364 1_555 1_555
C33 C32 1.424 1_555 1_555
C34 C33 1.366 1_555 1_555
C35 C34 1.455 1_555 1_555
C36 C35 1.351 1_555 1_555
C37 C32 1.437 1_555 1_555
C38 C37 1.348 1_555 1_555
C39 C38 1.396 1_555 1_555
C40 C39 1.401 1_555 1_555
C41 C40 1.309 1_555 1_555
C42 C41 1.446 1_555 1_555
C43 C42 1.360 1_555 1_555
C44 C31 1.393 1_555 1_555
H1 C4 1.037 1_555 1_555
H2 C5 0.996 1_555 1_555
H3 C6 1.023 1_555 1_555
H4 C7 0.991 1_555 1_555
H5 C8 1.012 1_555 1_555
H6 C11 1.011 1_555 1_555
H7 C12 1.017 1_555 1_555
H8 C13 0.988 1_555 1_555
H9 C14 1.018 1_555 1_555
H10 C16 0.972 1_555 1_555
H11 C18 0.978 1_555 1_555
H12 C19 0.991 1_555 1_555
H13 C20 1.009 1_555 1_555
H14 C21 1.000 1_555 1_555
H15 C26 1.002 1_555 1_555
H16 C27 0.996 1_555 1_555
H17 C28 1.012 1_555 1_555
H18 C29 1.006 1_555 1_555
H19 C30 0.985 1_555 1_555
H20 C33 1.015 1_555 1_555
H21 C34 1.026 1_555 1_555
H22 C35 0.967 1_555 1_555
H23 C36 0.982 1_555 1_555
H24 C38 0.983 1_555 1_555
H25 C40 1.040 1_555 1_555
H26 C41 0.982 1_555 1_555
H27 C42 1.009 1_555 1_555
H28 C43 1.002 1_555 1_555
C14 C15 1.403 1_555 1_555
C17 C22 1.418 1_555 1_555
C21 C22 1.374 1_555 1_555
C23 C24 1.334 1_555 1_555
C29 C30 1.383 1_555 1_555
C36 C37 1.430 1_555 1_555
C39 C44 1.452 1_555 1_555
C43 C44 1.407 1_555 1_555
#END
