
#######################################################################
#
#                 Cambridge Crystallographic Data Centre
#                                CCDC
#
#######################################################################
#
# If this CIF has been generated from an entry in the Cambridge
# Structural Database, then it will include bibliographic, chemical,
# crystal, experimental, refinement or atomic coordinate data resulting
# from the CCDC's data processing and validation procedures.
#
#######################################################################

data_CSD_CIF_DASVAU01
_audit_creation_date 2016-10-20
_audit_creation_method CSD-ConQuest-V1
_database_code_CSD DASVAU01
_database_code_depnum_ccdc_archive 'CCDC 1503775'
_chemical_formula_sum 'C44 H28'
_chemical_formula_moiety
;
C44 H28
;
_journal_coden_Cambridge 177
_journal_volume 14
_journal_year 2016
_journal_page_first 10822
_journal_name_full 'Org.Biomol.Chem. '
loop_
_publ_author_name
"J.Tanabe"
"D.Taura"
"N.Ousaka"
"Eiji Yashima"
_chemical_name_systematic
;
15-(9-anthryl)-16-phenyl-1-(phenylethynyl)tetracyclo[6.6.2.0^2,7^.0^9,14^]hexa
deca-2,4,6,9,11,13,15-heptaene
;
_cell_volume   2949.673
_exptl_crystal_colour 'colorless'
_exptl_crystal_density_diffrn 1.253
_exptl_crystal_description 'Block'
_diffrn_ambient_temperature 103.2
#These two values have been output from a single CSD field.
_refine_ls_R_factor_gt 0.0491
_refine_ls_wR_factor_gt 0.0491
_symmetry_cell_setting monoclinic
_symmetry_space_group_name_H-M 'P 21/c'
_symmetry_Int_Tables_number 14
loop_
_symmetry_equiv_pos_site_id
_symmetry_equiv_pos_as_xyz
1 x,y,z
2 -x,1/2+y,1/2-z
3 -x,-y,-z
4 x,-1/2-y,-1/2+z
_cell_length_a 10.616(4)
_cell_length_b 18.469(7)
_cell_length_c 15.306(6)
_cell_angle_alpha 90
_cell_angle_beta 100.612(7)
_cell_angle_gamma 90
_cell_formula_units_Z 4
loop_
_atom_type_symbol
_atom_type_radius_bond
C 0.68
H 0.23
loop_
_atom_site_label
_atom_site_type_symbol
_atom_site_fract_x
_atom_site_fract_y
_atom_site_fract_z
C1 C 0.38843(13) 0.40531(7) 0.20453(9)
H1 H 0.44670 0.44450 0.20590
C2 C 0.40952(14) 0.34135(8) 0.16201(9)
H2 H 0.48260 0.33680 0.13480
C3 C 0.32458(15) 0.28419(7) 0.15906(9)
H3 H 0.33890 0.24060 0.12930
C4 C 0.21849(14) 0.29055(7) 0.19955(9)
H4 H 0.16040 0.25120 0.19750
C5 C 0.19666(13) 0.35408(7) 0.24305(8)
H5 H 0.12430 0.35790 0.27110
C6 C 0.28121(12) 0.41231(6) 0.24547(8)
C7 C 0.26051(12) 0.47925(6) 0.28896(8)
C8 C 0.24911(11) 0.53651(7) 0.32280(8)
C9 C 0.24186(11) 0.60886(6) 0.36093(7)
C10 C 0.36194(11) 0.62913(6) 0.42957(7)
C11 C 0.46968(12) 0.58693(7) 0.45579(8)
H6 H 0.47460 0.53970 0.43190
C12 C 0.57139(12) 0.61471(7) 0.51800(8)
H7 H 0.64590 0.58620 0.53670
C13 C 0.56412(12) 0.68353(7) 0.55256(8)
H8 H 0.63330 0.70160 0.59530
C14 C 0.45590(12) 0.72654(7) 0.52500(8)
H9 H 0.45150 0.77400 0.54810
C15 C 0.35527(11) 0.69902(6) 0.46356(7)
C16 C 0.23110(11) 0.73780(6) 0.42464(7)
H10 H 0.22670 0.78780 0.44890
C17 C 0.12251(11) 0.68966(6) 0.44244(7)
C18 C 0.02564(12) 0.70912(7) 0.48708(8)
H11 H 0.02360 0.75630 0.51150
C19 C -0.06916(13) 0.65864(7) 0.49593(9)
H12 H -0.13620 0.67140 0.52640
C20 C -0.06534(13) 0.58989(7) 0.46031(9)
H13 H -0.13050 0.55590 0.46620
C21 C 0.03302(12) 0.56983(7) 0.41584(8)
H14 H 0.03530 0.52260 0.39160
C22 C 0.12700(11) 0.61997(6) 0.40770(7)
C23 C 0.14698(12) 0.86398(7) 0.30094(8)
H15 H 0.09960 0.85670 0.34720
C24 C 0.14471(14) 0.93118(7) 0.26021(9)
H16 H 0.09540 0.96940 0.27820
C25 C 0.21463(14) 0.94247(7) 0.19314(9)
H17 H 0.21480 0.98880 0.16620
C26 C 0.28421(13) 0.88602(7) 0.16557(9)
H18 H 0.33080 0.89350 0.11900
C27 C 0.28585(12) 0.81870(7) 0.20583(8)
H19 H 0.33340 0.78030 0.18640
C28 C 0.21806(11) 0.80681(6) 0.27482(7)
C29 C 0.22513(11) 0.73716(6) 0.32297(7)
C30 C 0.22964(11) 0.67059(6) 0.28934(7)
C31 C 0.22138(11) 0.64685(6) 0.19583(7)
C32 C 0.10090(11) 0.63722(6) 0.14061(8)
C33 C -0.01539(12) 0.66106(7) 0.16576(8)
H20 H -0.01250 0.68340 0.22200
C34 C -0.13056(12) 0.65228(7) 0.11018(9)
H21 H -0.20640 0.67000 0.12730
C35 C -0.13817(13) 0.61690(7) 0.02678(9)
H22 H -0.21910 0.61040 -0.01090
C36 C -0.03023(12) 0.59240(7) 0.00073(8)
H23 H -0.03670 0.56840 -0.05490
C37 C 0.09326(12) 0.60210(6) 0.05570(8)
C38 C 0.20519(12) 0.57942(6) 0.02879(8)
H24 H 0.19960 0.55540 -0.02670
C39 C 0.32545(12) 0.59121(6) 0.08153(8)
C40 C 0.44101(13) 0.56998(7) 0.05328(9)
H25 H 0.43680 0.54950 -0.00410
C41 C 0.55706(13) 0.57869(7) 0.10725(10)
H26 H 0.63260 0.56300 0.08790
C42 C 0.56608(12) 0.61109(7) 0.19236(9)
H27 H 0.64750 0.61680 0.22970
C43 C 0.45811(12) 0.63407(7) 0.22078(8)
H28 H 0.46560 0.65660 0.27730
C44 C 0.33420(11) 0.62486(6) 0.16694(7)
loop_
_geom_bond_atom_site_label_1
_geom_bond_atom_site_label_2
_geom_bond_distance
_geom_bond_site_symmetry_1
_geom_bond_site_symmetry_2
C1 H1 0.950 1_555 1_555
C2 C1 1.387 1_555 1_555
H2 C2 0.949 1_555 1_555
C3 C2 1.384 1_555 1_555
H3 C3 0.951 1_555 1_555
C4 C3 1.387 1_555 1_555
H4 C4 0.950 1_555 1_555
C5 C4 1.389 1_555 1_555
H5 C5 0.949 1_555 1_555
C6 C1 1.403 1_555 1_555
C7 C6 1.440 1_555 1_555
C8 C7 1.193 1_555 1_555
C9 C8 1.466 1_555 1_555
C10 C9 1.541 1_555 1_555
C11 C10 1.381 1_555 1_555
H6 C11 0.951 1_555 1_555
C12 C11 1.399 1_555 1_555
H7 C12 0.949 1_555 1_555
C13 C12 1.384 1_555 1_555
H8 C13 0.950 1_555 1_555
C14 C13 1.397 1_555 1_555
H9 C14 0.950 1_555 1_555
C15 C10 1.398 1_555 1_555
C16 C15 1.522 1_555 1_555
H10 C16 1.000 1_555 1_555
C17 C16 1.520 1_555 1_555
C18 C17 1.383 1_555 1_555
H11 C18 0.950 1_555 1_555
C19 C18 1.397 1_555 1_555
H12 C19 0.950 1_555 1_555
C20 C19 1.385 1_555 1_555
H13 C20 0.951 1_555 1_555
C21 C20 1.397 1_555 1_555
H14 C21 0.950 1_555 1_555
C22 C9 1.537 1_555 1_555
C23 H15 0.951 1_555 1_555
C24 C23 1.387 1_555 1_555
H16 C24 0.949 1_555 1_555
C25 C24 1.389 1_555 1_555
H17 C25 0.950 1_555 1_555
C26 C25 1.388 1_555 1_555
H18 C26 0.950 1_555 1_555
C27 C26 1.386 1_555 1_555
H19 C27 0.949 1_555 1_555
C28 C23 1.398 1_555 1_555
C29 C16 1.546 1_555 1_555
C30 C9 1.570 1_555 1_555
C31 C30 1.484 1_555 1_555
C32 C31 1.408 1_555 1_555
C33 C32 1.429 1_555 1_555
H20 C33 0.950 1_555 1_555
C34 C33 1.364 1_555 1_555
H21 C34 0.950 1_555 1_555
C35 C34 1.423 1_555 1_555
H22 C35 0.950 1_555 1_555
C36 C35 1.358 1_555 1_555
H23 C36 0.951 1_555 1_555
C37 C32 1.441 1_555 1_555
C38 C37 1.392 1_555 1_555
H24 C38 0.950 1_555 1_555
C39 C38 1.396 1_555 1_555
C40 C39 1.429 1_555 1_555
H25 C40 0.950 1_555 1_555
C41 C40 1.361 1_555 1_555
H26 C41 0.950 1_555 1_555
C42 C41 1.421 1_555 1_555
H27 C42 0.950 1_555 1_555
C43 C42 1.366 1_555 1_555
H28 C43 0.950 1_555 1_555
C44 C31 1.411 1_555 1_555
C5 C6 1.397 1_555 1_555
C14 C15 1.383 1_555 1_555
C17 C22 1.397 1_555 1_555
C21 C22 1.384 1_555 1_555
C27 C28 1.400 1_555 1_555
C28 C29 1.478 1_555 1_555
C29 C30 1.337 1_555 1_555
C36 C37 1.433 1_555 1_555
C39 C44 1.435 1_555 1_555
C43 C44 1.428 1_555 1_555
#END
