
#######################################################################
#
#                 Cambridge Crystallographic Data Centre
#                                CCDC
#
#######################################################################
#
# If this CIF has been generated from an entry in the Cambridge
# Structural Database, then it will include bibliographic, chemical,
# crystal, experimental, refinement or atomic coordinate data resulting
# from the CCDC's data processing and validation procedures.
#
#######################################################################

data_CSD_CIF_DATDEK
_audit_creation_date 2017-05-18
_audit_creation_method CSD-ConQuest-V1
_database_code_CSD DATDEK
_database_code_depnum_ccdc_archive 'CCDC 1527953'
_chemical_formula_sum 'C44 H22'
_chemical_formula_moiety
;
C44 H22
;
_journal_coden_Cambridge 1336
_journal_volume 19
_journal_year 2017
_journal_page_first 2246
_journal_name_full 'Org.Lett. '
loop_
_publ_author_name
"Xiao Gu"
"Huiyan Li"
"Bowen Shan"
"Zhifeng Liu"
"Qian Miao"
_chemical_name_systematic
;
11,12-ethenotetrabenzo[c,f,l,o]cyclohepta[uvwxyz]hexahelicene
;
_chemical_name_common
;
tetrabenzo[7]circulene
;
_cell_volume   5223.297
_exptl_crystal_colour 'yellow'
_exptl_crystal_density_diffrn 1.4
_exptl_crystal_description 'block'
_diffrn_ambient_temperature 296
#These two values have been output from a single CSD field.
_refine_ls_R_factor_gt 0.0436
_refine_ls_wR_factor_gt 0.0436
_symmetry_cell_setting orthorhombic
_symmetry_space_group_name_H-M 'I b a 2'
_symmetry_Int_Tables_number 45
loop_
_symmetry_equiv_pos_site_id
_symmetry_equiv_pos_as_xyz
1 x,y,z
2 -x,-y,z
3 1/2+x,1/2-y,z
4 1/2-x,1/2+y,z
5 1/2+x,1/2+y,1/2+z
6 1/2-x,1/2-y,1/2+z
7 x,-y,1/2+z
8 -x,y,1/2+z
_cell_length_a 25.3456(18)
_cell_length_b 28.9418(19)
_cell_length_c 7.1206(5)
_cell_angle_alpha 90
_cell_angle_beta 90
_cell_angle_gamma 90
_cell_formula_units_Z 8
loop_
_atom_type_symbol
_atom_type_radius_bond
C 0.68
H 0.23
loop_
_atom_site_label
_atom_site_type_symbol
_atom_site_fract_x
_atom_site_fract_y
_atom_site_fract_z
C1 C 0.40621(10) 0.14428(10) 0.4642(5)
C2 C 0.43397(11) 0.14906(13) 0.6357(5)
H1 H 0.43490 0.17770 0.69500
C3 C 0.45946(12) 0.11219(14) 0.7160(6)
H2 H 0.47760 0.11600 0.82850
C4 C 0.45817(11) 0.06926(13) 0.6292(7)
H3 H 0.47650 0.04450 0.68130
C5 C 0.42987(10) 0.06318(11) 0.4662(6)
H4 H 0.42860 0.03420 0.41010
C6 C 0.40271(10) 0.10051(9) 0.3832(5)
C7 C 0.36927(9) 0.09502(9) 0.2197(5)
C8 C 0.37861(10) 0.05917(9) 0.0925(5)
H5 H 0.40640 0.03880 0.11350
C9 C 0.34769(11) 0.05380(9) -0.0609(5)
H6 H 0.35730 0.03300 -0.15420
C10 C 0.30092(10) 0.07985(9) -0.0791(5)
C11 C 0.28767(10) 0.11342(8) 0.0563(4)
C12 C 0.32725(9) 0.12682(9) 0.1899(4)
C13 C 0.26507(11) 0.06949(9) -0.2309(4)
C14 C 0.28207(13) 0.05196(10) -0.4034(5)
H7 H 0.31780 0.04650 -0.42300
C15 C 0.24664(15) 0.04273(10) -0.5440(5)
H8 H 0.25830 0.03120 -0.65870
C16 C 0.19305(15) 0.05068(10) -0.5141(5)
H9 H 0.16900 0.04460 -0.60970
C17 C 0.17542(12) 0.0674(1) -0.3456(5)
H10 H 0.13950 0.07250 -0.32800
C18 C 0.21110(11) 0.07697(8) -0.1980(4)
C19 C 0.19546(10) 0.09836(9) -0.0230(4)
C20 C 0.14316(10) 0.09131(10) 0.0551(5)
C21 C 0.11296(11) 0.05164(11) 0.0157(6)
H11 H 0.12450 0.03080 -0.07500
C22 C 0.06680(12) 0.04342(13) 0.1096(8)
H12 H 0.04710 0.01710 0.08210
C23 C 0.04900(12) 0.07433(15) 0.2468(8)
H13 H 0.01770 0.06850 0.31050
C24 C 0.07773(12) 0.11297(14) 0.2868(6)
H14 H 0.06550 0.13340 0.37770
C25 C 0.1254(1) 0.12248(11) 0.1934(5)
C26 C 0.15654(11) 0.1632(1) 0.2295(5)
C27 C 0.21102(10) 0.16387(9) 0.1876(4)
C28 C 0.23186(9) 0.12599(9) 0.0737(4)
C29 C 0.24018(11) 0.20641(9) 0.2196(5)
C30 C 0.20934(13) 0.24736(10) 0.2421(5)
C31 C 0.15497(14) 0.24458(12) 0.2816(5)
H15 H 0.13610 0.27160 0.30430
C32 C 0.13004(12) 0.20400(13) 0.2873(5)
H16 H 0.09530 0.20240 0.32900
C33 C 0.29687(11) 0.21160(9) 0.2336(4)
C34 C 0.31815(13) 0.25664(10) 0.2428(5)
C35 C 0.28496(15) 0.29584(10) 0.2207(5)
H17 H 0.29980 0.32480 0.20090
C36 C 0.23278(15) 0.29124(10) 0.2281(6)
H18 H 0.21150 0.31740 0.22390
C37 C 0.33251(10) 0.17285(9) 0.2726(4)
C38 C 0.3789(1) 0.18233(10) 0.3725(5)
C39 C 0.40221(12) 0.22799(11) 0.3692(5)
C40 C 0.45502(13) 0.23641(13) 0.4226(6)
H19 H 0.47550 0.21230 0.46880
C41 C 0.47653(16) 0.27978(15) 0.4071(7)
H20 H 0.51110 0.28480 0.44540
C42 C 0.44752(18) 0.31604(14) 0.3355(8)
H21 H 0.46220 0.34540 0.32830
C43 C 0.39668(17) 0.30854(13) 0.2748(6)
H22 H 0.37770 0.33280 0.22220
C44 C 0.37286(13) 0.26461(11) 0.2911(5)
loop_
_geom_bond_atom_site_label_1
_geom_bond_atom_site_label_2
_geom_bond_distance
_geom_bond_site_symmetry_1
_geom_bond_site_symmetry_2
C1 C2 1.416 1_555 1_555
C2 H1 0.931 1_555 1_555
C3 C2 1.372 1_555 1_555
H2 C3 0.930 1_555 1_555
C4 C3 1.388 1_555 1_555
H3 C4 0.931 1_555 1_555
C5 C4 1.376 1_555 1_555
H4 C5 0.930 1_555 1_555
C6 C1 1.395 1_555 1_555
C7 C6 1.449 1_555 1_555
C8 C7 1.397 1_555 1_555
H5 C8 0.931 1_555 1_555
C9 C8 1.353 1_555 1_555
H6 C9 0.929 1_555 1_555
C10 C9 1.411 1_555 1_555
C11 C10 1.409 1_555 1_555
C12 C7 1.423 1_555 1_555
C13 C10 1.444 1_555 1_555
C14 C13 1.397 1_555 1_555
H7 C14 0.930 1_555 1_555
C15 C14 1.371 1_555 1_555
H8 C15 0.930 1_555 1_555
C16 C15 1.394 1_555 1_555
H9 C16 0.931 1_555 1_555
C17 C16 1.369 1_555 1_555
H10 C17 0.931 1_555 1_555
C18 C13 1.405 1_555 1_555
C19 C18 1.447 1_555 1_555
C20 C19 1.452 1_555 1_555
C21 C20 1.408 1_555 1_555
H11 C21 0.931 1_555 1_555
C22 C21 1.368 1_555 1_555
H12 C22 0.932 1_555 1_555
C23 C22 1.399 1_555 1_555
H13 C23 0.929 1_555 1_555
C24 C23 1.365 1_555 1_555
H14 C24 0.930 1_555 1_555
C25 C20 1.409 1_555 1_555
C26 C25 1.441 1_555 1_555
C27 C26 1.413 1_555 1_555
C28 C11 1.466 1_555 1_555
C29 C27 1.454 1_555 1_555
C30 C29 1.429 1_555 1_555
C31 C30 1.409 1_555 1_555
H15 C31 0.931 1_555 1_555
C32 C26 1.419 1_555 1_555
H16 C32 0.930 1_555 1_555
C33 C29 1.448 1_555 1_555
C34 C33 1.412 1_555 1_555
C35 C34 1.421 1_555 1_555
H17 C35 0.929 1_555 1_555
C36 C30 1.406 1_555 1_555
H18 C36 0.930 1_555 1_555
C37 C12 1.463 1_555 1_555
C38 C1 1.455 1_555 1_555
C39 C38 1.448 1_555 1_555
C40 C39 1.413 1_555 1_555
H19 C40 0.930 1_555 1_555
C41 C40 1.373 1_555 1_555
H20 C41 0.929 1_555 1_555
C42 C41 1.379 1_555 1_555
H21 C42 0.929 1_555 1_555
C43 C42 1.376 1_555 1_555
H22 C43 0.930 1_555 1_555
C44 C34 1.447 1_555 1_555
C5 C6 1.411 1_555 1_555
C11 C12 1.436 1_555 1_555
C17 C18 1.414 1_555 1_555
C19 C28 1.402 1_555 1_555
C24 C25 1.406 1_555 1_555
C27 C28 1.462 1_555 1_555
C31 C32 1.334 1_555 1_555
C33 C37 1.467 1_555 1_555
C35 C36 1.330 1_555 1_555
C37 C38 1.401 1_555 1_555
C39 C44 1.409 1_555 1_555
C43 C44 1.412 1_555 1_555
#END
