
#######################################################################
#
#                 Cambridge Crystallographic Data Centre
#                                CCDC
#
#######################################################################
#
# If this CIF has been generated from an entry in the Cambridge
# Structural Database, then it will include bibliographic, chemical,
# crystal, experimental, refinement or atomic coordinate data resulting
# from the CCDC's data processing and validation procedures.
#
#######################################################################

data_CSD_CIF_DATTEZ
_audit_creation_date 2012-06-19
_audit_creation_method CSD-ConQuest-V1
_database_code_CSD DATTEZ
_database_code_depnum_ccdc_archive 'CCDC 877738'
_chemical_formula_sum 'C26 H28'
_chemical_formula_moiety
;
C26 H28
;
_journal_coden_Cambridge 35
_journal_volume 77
_journal_year 2012
_journal_page_first 57
_journal_name_full 'J.Org.Chem. '
loop_
_publ_author_name
"Yixi Yang"
"M.R.Mannion"
"L.N.Dawe"
"C.M.Kraml"
"R.A.Pascal Junior"
"G.J.Bodwell"
_chemical_name_systematic
;
Pentacyclo[16.6.2.0^4,23^.0^7,22^.0^19,24^]hexacosa-1(25),2,4,6,18(26),19,21,2
3-octaene
;
_chemical_name_common
;
[10](1,8)Pyrenophane
;
_cell_volume   3660.700
_exptl_crystal_colour 'colorless'
_exptl_crystal_density_diffrn 1.236
_exptl_crystal_description 'prism'
_diffrn_ambient_temperature 153
#These two values have been output from a single CSD field.
_refine_ls_R_factor_gt 0.124
_refine_ls_wR_factor_gt 0.124
_symmetry_cell_setting monoclinic
_symmetry_space_group_name_H-M 'P 21/c'
_symmetry_Int_Tables_number 14
loop_
_symmetry_equiv_pos_site_id
_symmetry_equiv_pos_as_xyz
1 x,y,z
2 -x,1/2+y,1/2-z
3 -x,-y,-z
4 x,-1/2-y,-1/2+z
_cell_length_a 9.799(5)
_cell_length_b 34.783(16)
_cell_length_c 13.065(7)
_cell_angle_alpha 90
_cell_angle_beta 124.708(12)
_cell_angle_gamma 90
_cell_formula_units_Z 8
loop_
_atom_type_symbol
_atom_type_radius_bond
C 0.68
H 0.23
loop_
_atom_site_label
_atom_site_type_symbol
_atom_site_fract_x
_atom_site_fract_y
_atom_site_fract_z
C1 C 0.2794(7) 0.98564(15) 0.8058(5)
H1 H 0.29750 0.97870 0.74080
H2 H 0.35910 1.00620 0.85810
C2 C 0.1007(7) 1.00041(14) 0.7439(5)
H3 H 0.09060 1.01110 0.80950
H4 H 0.08170 1.02180 0.68700
C3 C -0.0355(6) 0.97068(14) 0.6706(5)
H5 H -0.14040 0.98150 0.65280
H6 H -0.00810 0.94790 0.72460
C4 C -0.0669(6) 0.95697(14) 0.5475(5)
H7 H -0.12350 0.97760 0.48440
H8 H 0.04070 0.95170 0.55970
C5 C -0.1717(7) 0.92123(15) 0.5005(5)
H9 H -0.27890 0.92700 0.48830
H10 H -0.11560 0.90130 0.56590
C6 C -0.2076(7) 0.90456(15) 0.3808(5)
H11 H -0.10260 0.90340 0.38630
H12 H -0.28370 0.92210 0.31150
C7 C -0.2841(7) 0.86484(15) 0.3506(5)
H13 H -0.31920 0.85790 0.26540
H14 H -0.38500 0.86570 0.35070
C8 C -0.1692(6) 0.83301(14) 0.4404(5)
H15 H -0.12830 0.84050 0.52660
H16 H -0.23390 0.80900 0.42040
C9 C -0.0223(7) 0.82546(15) 0.4340(5)
H17 H 0.03380 0.85020 0.44310
H18 H -0.06300 0.81490 0.35090
C10 C 0.1057(7) 0.79728(15) 0.5347(5)
H19 H 0.06160 0.77090 0.50840
H20 H 0.20850 0.79880 0.53730
C11 C 0.1512(6) 0.80330(14) 0.6645(5)
C12 C 0.1238(7) 0.77432(14) 0.7241(5)
H21 H 0.08120 0.75040 0.68290
C13 C 0.1561(7) 0.77910(15) 0.8409(5)
H22 H 0.14030 0.75800 0.87940
C14 C 0.2360(7) 0.82051(17) 1.0202(5)
H23 H 0.22180 0.79990 1.06100
C15 C 0.2797(6) 0.85558(18) 1.0745(5)
H24 H 0.29890 0.85890 1.15400
C16 C 0.3277(7) 0.92448(17) 1.0636(5)
H25 H 0.34770 0.92880 1.14290
C17 C 0.3291(7) 0.95502(17) 0.9974(5)
H26 H 0.34470 0.98010 1.03090
C18 C 0.3091(6) 0.95084(14) 0.8853(5)
C19 C 0.2929(6) 0.90466(14) 0.7311(5)
H27 H 0.31700 0.92480 0.69450
C20 C 0.2581(6) 0.86936(14) 0.6789(5)
H28 H 0.26210 0.86500 0.60890
C21 C 0.2155(6) 0.83872(14) 0.7279(5)
C22 C 0.2110(6) 0.81392(15) 0.9034(5)
C23 C 0.2974(6) 0.88740(16) 1.0156(5)
C24 C 0.2948(6) 0.91297(14) 0.8390(4)
C25 C 0.2374(6) 0.84454(14) 0.8436(4)
C26 C 0.2793(6) 0.88158(14) 0.8999(5)
C27 C 0.8673(7) 0.95657(15) 0.9116(5)
H29 H 0.85520 0.98220 0.93830
H30 H 0.96770 0.95740 0.91080
C28 C 0.8974(6) 0.92718(17) 1.0100(5)
H31 H 0.95440 0.90450 1.00470
H32 H 0.97320 0.93870 1.09350
C29 C 0.7414(7) 0.91352(17) 0.9981(5)
H33 H 0.65750 0.90630 0.91040
H34 H 0.69560 0.93510 1.01900
C30 C 0.7699(7) 0.8792(2) 1.0819(5)
H35 H 0.85890 0.88600 1.16890
H36 H 0.66720 0.87490 1.07810
C31 C 0.8169(7) 0.84184(19) 1.0498(5)
H37 H 0.85750 0.82360 1.11970
H38 H 0.90960 0.84690 1.04150
C32 C 0.6760(7) 0.82291(18) 0.9308(5)
H39 H 0.59250 0.81370 0.94510
H40 H 0.62190 0.84270 0.86470
C33 C 0.7242(7) 0.78970(17) 0.8836(6)
H41 H 0.77600 0.76940 0.94810
H42 H 0.80780 0.79850 0.86900
C34 C 0.5755(7) 0.77271(17) 0.7629(6)
H43 H 0.51100 0.75690 0.78420
H44 H 0.50320 0.79420 0.71010
C35 C 0.6134(7) 0.74819(16) 0.6860(6)
H45 H 0.69120 0.72760 0.74000
H46 H 0.50920 0.73570 0.61910
C36 C 0.6875(7) 0.76920(15) 0.6268(6)
H47 H 0.80150 0.77760 0.69290
H48 H 0.69480 0.75130 0.57120
C37 C 0.5863(6) 0.80365(14) 0.5534(5)
C38 C 0.4365(7) 0.79836(15) 0.4394(5)
H49 H 0.40830 0.77330 0.40450
C39 C 0.3276(7) 0.82773(16) 0.3752(5)
H50 H 0.22770 0.82280 0.29620
C40 C 0.2489(7) 0.89601(16) 0.3630(5)
H51 H 0.14950 0.89210 0.28290
C41 C 0.2797(7) 0.93054(16) 0.4155(5)
H52 H 0.20140 0.95060 0.37200
C42 C 0.4601(7) 0.97308(15) 0.5965(5)
H53 H 0.38490 0.99380 0.55510
C43 C 0.5999(6) 0.97817(14) 0.7165(5)
H54 H 0.61430 1.00210 0.75680
C44 C 0.7194(6) 0.94996(14) 0.7802(5)
C45 C 0.8188(6) 0.88554(14) 0.7664(5)
H55 H 0.92590 0.89060 0.83940
C46 C 0.7872(6) 0.85075(14) 0.7132(4)
H56 H 0.87230 0.83190 0.75020
C47 C 0.6291(6) 0.84113(13) 0.6023(4)
C48 C 0.3611(6) 0.86483(15) 0.4238(5)
C49 C 0.4288(6) 0.93839(14) 0.5367(5)
C50 C 0.6973(6) 0.91479(13) 0.7169(5)
C51 C 0.5128(6) 0.87150(13) 0.5403(4)
C52 C 0.5477(6) 0.90823(13) 0.5983(4)
loop_
_geom_bond_atom_site_label_1
_geom_bond_atom_site_label_2
_geom_bond_distance
_geom_bond_site_symmetry_1
_geom_bond_site_symmetry_2
C1 H1 0.991 1_555 1_555
H2 C1 0.990 1_555 1_555
C2 C1 1.540 1_555 1_555
H3 C2 0.990 1_555 1_555
H4 C2 0.992 1_555 1_555
C3 C2 1.521 1_555 1_555
H5 C3 0.990 1_555 1_555
H6 C3 0.991 1_555 1_555
C4 C3 1.531 1_555 1_555
H7 C4 0.991 1_555 1_555
H8 C4 0.990 1_555 1_555
C5 C4 1.503 1_555 1_555
H9 C5 0.989 1_555 1_555
H10 C5 0.989 1_555 1_555
C6 C5 1.510 1_555 1_555
H11 C6 0.991 1_555 1_555
H12 C6 0.990 1_555 1_555
C7 C6 1.513 1_555 1_555
H13 C7 0.990 1_555 1_555
H14 C7 0.990 1_555 1_555
C8 C7 1.538 1_555 1_555
H15 C8 0.991 1_555 1_555
H16 C8 0.989 1_555 1_555
C9 C8 1.512 1_555 1_555
H17 C9 0.991 1_555 1_555
H18 C9 0.990 1_555 1_555
C10 C9 1.545 1_555 1_555
H19 C10 0.989 1_555 1_555
H20 C10 0.990 1_555 1_555
C11 C10 1.502 1_555 1_555
C12 C11 1.390 1_555 1_555
H21 C12 0.949 1_555 1_555
C13 C12 1.381 1_555 1_555
H22 C13 0.951 1_555 1_555
C14 H23 0.950 1_555 1_555
C15 C14 1.352 1_555 1_555
H24 C15 0.951 1_555 1_555
C16 H25 0.950 1_555 1_555
C17 C16 1.375 1_555 1_555
H26 C17 0.949 1_555 1_555
C18 C1 1.511 1_555 1_555
C19 H27 0.951 1_555 1_555
C20 C19 1.351 1_555 1_555
H28 C20 0.950 1_555 1_555
C21 C11 1.417 1_555 1_555
C22 C13 1.387 1_555 1_555
C23 C15 1.414 1_555 1_555
C24 C18 1.423 1_555 1_555
C25 C21 1.415 1_555 1_555
C26 C23 1.433 1_555 1_555
C27 H29 0.989 1_555 1_555
H30 C27 0.990 1_555 1_555
C28 C27 1.534 1_555 1_555
H31 C28 0.992 1_555 1_555
H32 C28 0.990 1_555 1_555
C29 C28 1.522 1_555 1_555
H33 C29 0.989 1_555 1_555
H34 C29 0.989 1_555 1_555
C30 C29 1.534 1_555 1_555
H35 C30 0.990 1_555 1_555
H36 C30 0.990 1_555 1_555
C31 C30 1.515 1_555 1_555
H37 C31 0.990 1_555 1_555
H38 C31 0.990 1_555 1_555
C32 C31 1.521 1_555 1_555
H39 C32 0.991 1_555 1_555
H40 C32 0.990 1_555 1_555
C33 C32 1.506 1_555 1_555
H41 C33 0.990 1_555 1_555
H42 C33 0.989 1_555 1_555
C34 C33 1.531 1_555 1_555
H43 C34 0.990 1_555 1_555
H44 C34 0.990 1_555 1_555
C35 C34 1.516 1_555 1_555
H45 C35 0.990 1_555 1_555
H46 C35 0.989 1_555 1_555
C36 C35 1.516 1_555 1_555
H47 C36 0.990 1_555 1_555
H48 C36 0.990 1_555 1_555
C37 C36 1.502 1_555 1_555
C38 C37 1.385 1_555 1_555
H49 C38 0.949 1_555 1_555
C39 C38 1.366 1_555 1_555
H50 C39 0.950 1_555 1_555
C40 H51 0.950 1_555 1_555
C41 C40 1.330 1_555 1_555
H52 C41 0.950 1_555 1_555
C42 H53 0.949 1_555 1_555
C43 C42 1.386 1_555 1_555
H54 C43 0.951 1_555 1_555
C44 C27 1.506 1_555 1_555
C45 H55 0.950 1_555 1_555
C46 C45 1.341 1_555 1_555
H56 C46 0.949 1_555 1_555
C47 C37 1.407 1_555 1_555
C48 C39 1.392 1_555 1_555
C49 C41 1.443 1_555 1_555
C50 C44 1.422 1_555 1_555
C51 C47 1.421 1_555 1_555
C52 C49 1.428 1_555 1_555
C14 C22 1.420 1_555 1_555
C16 C23 1.390 1_555 1_555
C17 C18 1.370 1_555 1_555
C19 C24 1.429 1_555 1_555
C20 C21 1.423 1_555 1_555
C22 C25 1.429 1_555 1_555
C24 C26 1.409 1_555 1_555
C25 C26 1.423 1_555 1_555
C40 C48 1.422 1_555 1_555
C42 C49 1.374 1_555 1_555
C43 C44 1.384 1_555 1_555
C45 C50 1.412 1_555 1_555
C46 C47 1.434 1_555 1_555
C48 C51 1.416 1_555 1_555
C50 C52 1.420 1_555 1_555
C51 C52 1.424 1_555 1_555
#END
