
#######################################################################
#
#                 Cambridge Crystallographic Data Centre
#                                CCDC
#
#######################################################################
#
# If this CIF has been generated from an entry in the Cambridge
# Structural Database, then it will include bibliographic, chemical,
# crystal, experimental, refinement or atomic coordinate data resulting
# from the CCDC's data processing and validation procedures.
#
#######################################################################

data_CSD_CIF_DATTID
_audit_creation_date 2012-06-19
_audit_creation_method CSD-ConQuest-V1
_database_code_CSD DATTID
_database_code_depnum_ccdc_archive 'CCDC 877739'
_chemical_formula_sum 'C26 H28'
_chemical_formula_moiety
;
C26 H28
;
_journal_coden_Cambridge 35
_journal_volume 77
_journal_year 2012
_journal_page_first 57
_journal_name_full 'J.Org.Chem. '
loop_
_publ_author_name
"Yixi Yang"
"M.R.Mannion"
"L.N.Dawe"
"C.M.Kraml"
"R.A.Pascal Junior"
"G.J.Bodwell"
_chemical_name_systematic
;
Pentacyclo[16.8.0.0^4,25^.0^7,24^.0^21,26^]hexacosa-1(18),2,4,6,19,21,23,25-oc
taene
;
_chemical_name_common
;
[10](1,6)Pyrenophane
;
_cell_volume    917.332
_exptl_crystal_colour 'colorless'
_exptl_crystal_density_diffrn 1.233
_exptl_crystal_description 'plate'
_diffrn_ambient_temperature 153
#These two values have been output from a single CSD field.
_refine_ls_R_factor_gt 0.0659
_refine_ls_wR_factor_gt 0.0659
_symmetry_cell_setting triclinic
_symmetry_space_group_name_H-M 'P -1'
_symmetry_Int_Tables_number 2
loop_
_symmetry_equiv_pos_site_id
_symmetry_equiv_pos_as_xyz
1 x,y,z
2 -x,-y,-z
_cell_length_a 7.3519(19)
_cell_length_b 10.559(3)
_cell_length_c 12.901(3)
_cell_angle_alpha 73.766(16)
_cell_angle_beta 73.458(17)
_cell_angle_gamma 80.23(2)
_cell_formula_units_Z 2
loop_
_atom_type_symbol
_atom_type_radius_bond
C 0.68
H 0.23
loop_
_atom_site_label
_atom_site_type_symbol
_atom_site_fract_x
_atom_site_fract_y
_atom_site_fract_z
C1 C -0.2670(3) 1.11810(19) 0.84287(18)
H1 H -0.27380 1.21610 0.82090
H2 H -0.27010 1.08880 0.92320
C2 C -0.4410(3) 1.07279(19) 0.82328(18)
H3 H -0.55830 1.10810 0.87120
H4 H -0.44540 1.11260 0.74470
C3 C -0.4427(3) 0.92194(18) 0.84697(17)
H5 H -0.38370 0.87900 0.90990
H6 H -0.57690 0.90100 0.87110
C4 C -0.3388(2) 0.86144(17) 0.74831(15)
H7 H -0.42600 0.87140 0.69990
H8 H -0.22830 0.91150 0.70380
C5 C -0.2686(2) 0.71489(17) 0.78330(15)
H9 H -0.19310 0.70380 0.83830
H10 H -0.38050 0.66380 0.82080
C6 C -0.1469(2) 0.65673(17) 0.68718(15)
H11 H -0.04880 0.71710 0.64110
H12 H -0.22880 0.65190 0.63960
C7 C -0.0481(2) 0.51889(17) 0.72509(15)
H13 H -0.14600 0.45540 0.75860
H14 H 0.01270 0.52010 0.78410
C8 C 0.1036(3) 0.46864(18) 0.63256(16)
H15 H 0.16330 0.54560 0.57740
H16 H 0.03960 0.42770 0.59390
C9 C 0.2615(3) 0.36745(19) 0.67179(17)
H17 H 0.30610 0.30690 0.62130
H18 H 0.20650 0.31360 0.74730
C10 C 0.4358(3) 0.42896(19) 0.67555(17)
H19 H 0.52900 0.35740 0.70320
H20 H 0.49870 0.47680 0.59920
C11 C 0.3768(2) 0.52372(18) 0.75056(16)
C12 C 0.3417(3) 0.47079(18) 0.86530(16)
H21 H 0.38340 0.38050 0.89270
C13 C 0.2481(3) 0.54563(18) 0.94028(15)
H22 H 0.23060 0.50740 1.01800
C14 C 0.0590(3) 0.75370(18) 0.97648(15)
H23 H 0.03680 0.71740 1.05470
C15 C -0.0237(3) 0.87607(18) 0.93830(16)
H24 H -0.10880 0.92120 0.99000
C16 C -0.0818(3) 1.06156(17) 0.77625(16)
C17 C -0.0216(3) 1.12172(18) 0.66327(17)
H25 H -0.07860 1.20740 0.63480
C18 C 0.1190(3) 1.06043(18) 0.59093(16)
H26 H 0.16090 1.10590 0.51490
C19 C 0.3246(3) 0.85745(18) 0.55528(15)
H27 H 0.36820 0.89960 0.47850
C20 C 0.3817(3) 0.72758(19) 0.59331(15)
H28 H 0.45810 0.67920 0.54150
C21 C 0.3298(2) 0.66089(17) 0.70999(15)
C22 C 0.1786(2) 0.67753(17) 0.90272(14)
C23 C 0.0145(2) 0.93966(17) 0.82058(15)
C24 C 0.1995(2) 0.93170(17) 0.62952(15)
C25 C 0.2234(2) 0.73713(16) 0.78618(14)
C26 C 0.1494(2) 0.87122(16) 0.74550(14)
loop_
_geom_bond_atom_site_label_1
_geom_bond_atom_site_label_2
_geom_bond_distance
_geom_bond_site_symmetry_1
_geom_bond_site_symmetry_2
C1 H1 0.990 1_555 1_555
H2 C1 0.990 1_555 1_555
C2 C1 1.546 1_555 1_555
H3 C2 0.990 1_555 1_555
H4 C2 0.991 1_555 1_555
C3 C2 1.537 1_555 1_555
H5 C3 0.990 1_555 1_555
H6 C3 0.990 1_555 1_555
C4 C3 1.532 1_555 1_555
H7 C4 0.990 1_555 1_555
H8 C4 0.990 1_555 1_555
C5 C4 1.528 1_555 1_555
H9 C5 0.990 1_555 1_555
H10 C5 0.990 1_555 1_555
C6 C5 1.524 1_555 1_555
H11 C6 0.990 1_555 1_555
H12 C6 0.990 1_555 1_555
C7 C6 1.527 1_555 1_555
H13 C7 0.989 1_555 1_555
H14 C7 0.990 1_555 1_555
C8 C7 1.532 1_555 1_555
H15 C8 0.990 1_555 1_555
H16 C8 0.990 1_555 1_555
C9 C8 1.535 1_555 1_555
H17 C9 0.990 1_555 1_555
H18 C9 0.990 1_555 1_555
C10 C9 1.550 1_555 1_555
H19 C10 0.990 1_555 1_555
H20 C10 0.990 1_555 1_555
C11 C10 1.510 1_555 1_555
C12 C11 1.392 1_555 1_555
H21 C12 0.950 1_555 1_555
C13 C12 1.377 1_555 1_555
H22 C13 0.950 1_555 1_555
C14 H23 0.950 1_555 1_555
C15 C14 1.353 1_555 1_555
H24 C15 0.950 1_555 1_555
C16 C1 1.514 1_555 1_555
C17 C16 1.391 1_555 1_555
H25 C17 0.950 1_555 1_555
C18 C17 1.385 1_555 1_555
H26 C18 0.950 1_555 1_555
C19 H27 0.950 1_555 1_555
C20 C19 1.358 1_555 1_555
H28 C20 0.950 1_555 1_555
C21 C11 1.414 1_555 1_555
C22 C13 1.399 1_555 1_555
C23 C15 1.445 1_555 1_555
C24 C18 1.401 1_555 1_555
C25 C21 1.420 1_555 1_555
C26 C23 1.430 1_555 1_555
C14 C22 1.427 1_555 1_555
C16 C23 1.412 1_555 1_555
C19 C24 1.432 1_555 1_555
C20 C21 1.442 1_555 1_555
C22 C25 1.423 1_555 1_555
C24 C26 1.419 1_555 1_555
C25 C26 1.436 1_555 1_555
#END
