
#######################################################################
#
#                 Cambridge Crystallographic Data Centre
#                                CCDC
#
#######################################################################
#
# If this CIF has been generated from an entry in the Cambridge
# Structural Database, then it will include bibliographic, chemical,
# crystal, experimental, refinement or atomic coordinate data resulting
# from the CCDC's data processing and validation procedures.
#
#######################################################################

data_CSD_CIF_DBNTHR10
_audit_creation_date 1971-12-31
_audit_creation_method CSD-ConQuest-V1
_database_code_CSD DBNTHR10
_chemical_formula_sum 'C22 H14'
_chemical_formula_moiety
;
C22 H14
;
_journal_coden_Cambridge 2
_journal_year 1956
_journal_page_first 925
_journal_name_full 'J.Chem.Soc. '
loop_
_publ_author_name
"J.M.Robertson"
"J.G.White"
_chemical_name_systematic
;
Dibenz(a,h)anthracene
;
_cell_volume    711.874
_exptl_crystal_density_diffrn 1.298
_exptl_special_details
;
monoclinic polymorph

;
_diffrn_ambient_temperature ?
_diffrn_special_details
;
The study was carried out at room temperature,in the range 283-303K

;
#These two values have been output from a single CSD field.
_refine_ls_R_factor_gt 0.148
_refine_ls_wR_factor_gt 0.148
_symmetry_cell_setting monoclinic
_symmetry_space_group_name_H-M 'P 21'
_symmetry_Int_Tables_number 4
loop_
_symmetry_equiv_pos_site_id
_symmetry_equiv_pos_as_xyz
1 x,y,z
2 -x,1/2+y,-z
_cell_length_a 6.59
_cell_length_b 7.84
_cell_length_c 14.17
_cell_angle_alpha 90
_cell_angle_beta 103.5
_cell_angle_gamma 90
_cell_formula_units_Z 2
loop_
_atom_type_symbol
_atom_type_radius_bond
C 0.68
loop_
_atom_site_label
_atom_site_type_symbol
_atom_site_fract_x
_atom_site_fract_y
_atom_site_fract_z
C1 C 0.45700 -0.01700 0.44700
C2 C 0.26200 -0.07300 0.39200
C3 C 0.21000 -0.07200 0.29200
C4 C 0.35400 -0.01200 0.24200
C5 C 0.31100 -0.00700 0.14100
C6 C 0.09300 0.01700 -0.37200
C7 C 0.28900 0.07300 -0.31700
C8 C 0.34100 0.07200 -0.21700
C9 C 0.19700 0.01200 -0.16700
C10 C 0.23900 0.00700 -0.06600
C11 C 0.12300 -0.06100 0.08100
C12 C 0.08300 -0.05600 -0.01800
C13 C -0.11400 -0.11200 -0.07400
C14 C -0.15200 -0.10700 -0.17400
C15 C -0.00600 -0.04700 -0.22300
C16 C -0.05500 -0.04400 -0.32400
C17 C 0.42700 0.06100 -0.00500
C18 C 0.46800 0.05600 0.09400
C19 C 0.66400 0.11200 0.14900
C20 C 0.70400 0.10700 0.24900
C21 C 0.55700 0.04700 0.29800
C22 C 0.60600 0.04400 0.39900
loop_
_geom_bond_atom_site_label_1
_geom_bond_atom_site_label_2
_geom_bond_distance
_geom_bond_site_symmetry_1
_geom_bond_site_symmetry_2
C1 C2 1.409 1_555 1_555
C2 C3 1.378 1_555 1_555
C3 C4 1.392 1_555 1_555
C4 C5 1.393 1_555 1_555
C5 C11 1.395 1_555 1_555
C6 C7 1.414 1_555 1_555
C7 C8 1.378 1_555 1_555
C8 C9 1.392 1_555 1_555
C9 C10 1.393 1_555 1_555
C10 C12 1.446 1_555 1_555
C11 C12 1.366 1_555 1_555
C12 C13 1.424 1_555 1_555
C13 C14 1.381 1_555 1_555
C14 C15 1.393 1_555 1_555
C15 C9 1.462 1_555 1_555
C16 C6 1.397 1_555 1_555
C17 C10 1.400 1_555 1_555
C18 C5 1.442 1_555 1_555
C19 C18 1.414 1_555 1_555
C20 C19 1.380 1_555 1_555
C21 C4 1.462 1_555 1_555
C22 C1 1.403 1_555 1_555
C15 C16 1.392 1_555 1_555
C17 C18 1.366 1_555 1_555
C20 C21 1.399 1_555 1_555
C21 C22 1.392 1_555 1_555
#END
