
#######################################################################
#
#                 Cambridge Crystallographic Data Centre
#                                CCDC
#
#######################################################################
#
# If this CIF has been generated from an entry in the Cambridge
# Structural Database, then it will include bibliographic, chemical,
# crystal, experimental, refinement or atomic coordinate data resulting
# from the CCDC's data processing and validation procedures.
#
#######################################################################

data_CSD_CIF_DBPHEN04
_audit_creation_date 2013-10-22
_audit_creation_method CSD-ConQuest-V1
_database_code_CSD DBPHEN04
_database_code_depnum_ccdc_archive 'CCDC 933556'
_chemical_formula_sum 'C22 H14'
_chemical_formula_moiety
;
C22 H14
;
_journal_coden_Cambridge 1220
_journal_volume 19
_journal_year 2013
_journal_page_first 16295
_journal_name_full 'Chem.-Eur.J. '
loop_
_publ_author_name
"A.-C.Bedard"
"A.Vlassova"
"A.C.Hernandez-Perez"
"A.Bessette"
"G.S.Hanan"
"M.A.Heuft"
"S.K.Collins"
_chemical_name_systematic
;
Pentahelicene
;
_cell_volume   4250.802
_exptl_crystal_colour 'colorless'
_exptl_crystal_density_diffrn 1.305
_exptl_crystal_description 'chunk'
_diffrn_ambient_temperature 100
#These two values have been output from a single CSD field.
_refine_ls_R_factor_gt 0.0483
_refine_ls_wR_factor_gt 0.0483
_symmetry_cell_setting monoclinic
_symmetry_space_group_name_H-M 'P 21/c'
_symmetry_Int_Tables_number 14
loop_
_symmetry_equiv_pos_site_id
_symmetry_equiv_pos_as_xyz
1 x,y,z
2 -x,1/2+y,1/2-z
3 -x,-y,-z
4 x,-1/2-y,-1/2+z
_cell_length_a 19.3065(3)
_cell_length_b 8.8292(2)
_cell_length_c 25.6713(4)
_cell_angle_alpha 90
_cell_angle_beta 103.736(1)
_cell_angle_gamma 90
_cell_formula_units_Z 12
loop_
_atom_type_symbol
_atom_type_radius_bond
C 0.68
H 0.23
loop_
_atom_site_label
_atom_site_type_symbol
_atom_site_fract_x
_atom_site_fract_y
_atom_site_fract_z
C1 C 0.36311(10) 0.2558(2) 0.50003(8)
C2 C 0.35238(10) 0.3759(2) 0.53359(8)
H1 H 0.37640 0.37320 0.57050
C3 C 0.30886(11) 0.4955(2) 0.51501(8)
H2 H 0.30320 0.57450 0.53880
C4 C 0.27226(11) 0.5025(3) 0.46073(9)
H3 H 0.24340 0.58760 0.44740
C5 C 0.27870(11) 0.3854(3) 0.42741(9)
H4 H 0.25330 0.38920 0.39090
C6 C 0.32216(11) 0.2593(3) 0.44594(8)
C7 C 0.32219(12) 0.1310(3) 0.41243(9)
H5 H 0.30030 0.13740 0.37520
C8 C 0.35293(12) 0.0009(3) 0.43303(10)
H6 H 0.34820 -0.08660 0.41090
C9 C 0.39259(12) -0.0086(2) 0.48752(10)
C10 C 0.41471(13) -0.1507(3) 0.51100(11)
H7 H 0.40550 -0.23990 0.48980
C11 C 0.44887(13) -0.1611(3) 0.56327(11)
H8 H 0.45690 -0.25790 0.57980
C12 C 0.47297(12) -0.0294(3) 0.59389(10)
C13 C 0.51390(13) -0.0409(3) 0.64786(11)
H9 H 0.52000 -0.13730 0.66480
C14 C 0.54407(12) 0.0810(3) 0.67535(10)
H10 H 0.56730 0.07130 0.71220
C15 C 0.54161(11) 0.2257(3) 0.64971(9)
C16 C 0.58274(12) 0.3488(3) 0.67500(9)
H11 H 0.60720 0.34020 0.71160
C17 C 0.58831(11) 0.4796(3) 0.64825(9)
H12 H 0.61600 0.56140 0.66610
C18 C 0.55266(11) 0.4924(3) 0.59391(8)
H13 H 0.55860 0.58070 0.57430
C19 C 0.50943(10) 0.3778(2) 0.56929(8)
H14 H 0.48470 0.38950 0.53280
C20 C 0.50022(11) 0.2424(2) 0.59628(8)
C21 C 0.45791(11) 0.1154(2) 0.57013(8)
C22 C 0.40630(11) 0.1236(2) 0.51921(8)
C23 C 0.00375(10) 0.2475(2) 0.41167(8)
C24 C -0.00342(10) 0.1055(2) 0.43533(8)
H15 H 0.02540 0.08400 0.47000
C25 C -0.05049(10) -0.0016(2) 0.40993(8)
H16 H -0.05460 -0.09490 0.42740
C26 C -0.09301(10) 0.0251(2) 0.35810(8)
H17 H -0.12390 -0.05150 0.33970
C27 C -0.08918(11) 0.1623(2) 0.33478(8)
H18 H -0.11790 0.18070 0.29980
C28 C -0.04367(10) 0.2778(2) 0.36118(8)
C29 C -0.04797(11) 0.4286(2) 0.34014(8)
H19 H -0.07520 0.44790 0.30480
C30 C -0.01367(11) 0.5433(2) 0.37015(8)
H20 H -0.02150 0.64410 0.35710
C31 C 0.03412(10) 0.5171(2) 0.42108(8)
C32 C 0.06249(11) 0.6413(2) 0.45436(9)
H21 H 0.05370 0.74180 0.44120
C33 C 0.10210(11) 0.6174(2) 0.50496(9)
H22 H 0.11460 0.70050 0.52880
C34 C 0.12492(11) 0.4692(2) 0.52243(8)
C35 C 0.16904(11) 0.4472(3) 0.57502(8)
H23 H 0.17710 0.52920 0.59970
C36 C 0.19939(11) 0.3120(3) 0.59014(8)
H24 H 0.22500 0.29710 0.62620
C37 C 0.19364(11) 0.1910(2) 0.55270(8)
C38 C 0.23507(11) 0.0590(2) 0.56570(9)
H25 H 0.26330 0.04640 0.60120
C39 C 0.23561(11) -0.0511(2) 0.52861(9)
H26 H 0.26280 -0.14080 0.53830
C40 C 0.19545(10) -0.0305(2) 0.47584(8)
H27 H 0.19720 -0.10460 0.44940
C41 C 0.15382(10) 0.0955(2) 0.46222(8)
H28 H 0.12750 0.10770 0.42620
C42 C 0.14886(10) 0.2079(2) 0.50044(8)
C43 C 0.10652(11) 0.3450(2) 0.48733(8)
C44 C 0.05011(10) 0.3668(2) 0.43931(8)
C45 C 0.29396(10) 0.0115(2) 0.21356(7)
C46 C 0.25803(11) -0.1266(2) 0.19843(7)
H29 H 0.21400 -0.14400 0.20780
C47 C 0.28434(12) -0.2367(3) 0.17070(8)
H30 H 0.25850 -0.32800 0.16090
C48 C 0.34989(12) -0.2136(3) 0.15687(8)
H31 H 0.37010 -0.29160 0.13970
C49 C 0.38432(12) -0.0774(3) 0.16843(8)
H32 H 0.42800 -0.06150 0.15840
C50 C 0.35660(11) 0.0395(3) 0.19480(8)
C51 C 0.38778(12) 0.1876(3) 0.20029(8)
H33 H 0.43190 0.20460 0.19090
C52 C 0.35430(13) 0.3033(3) 0.21883(8)
H34 H 0.37340 0.40260 0.21920
C53 C 0.29159(12) 0.2810(3) 0.23775(8)
C54 C 0.25340(13) 0.4072(3) 0.25054(8)
H35 H 0.27180 0.50650 0.24930
C55 C 0.19051(13) 0.3865(3) 0.26464(8)
H36 H 0.16240 0.47210 0.26850
C56 C 0.16627(12) 0.2407(2) 0.27359(8)
C57 C 0.10112(12) 0.2222(3) 0.29026(8)
H37 H 0.07170 0.30790 0.29130
C58 C 0.08073(12) 0.0861(3) 0.30446(8)
H38 H 0.03490 0.07440 0.31140
C59 C 0.12731(11) -0.0410(2) 0.30918(8)
C60 C 0.11136(12) -0.1761(2) 0.33275(8)
H39 H 0.06590 -0.18790 0.34050
C61 C 0.15971(11) -0.2905(3) 0.34468(8)
H40 H 0.14790 -0.38220 0.36000
C62 C 0.22735(11) -0.2715(2) 0.33413(7)
H41 H 0.26250 -0.34810 0.34460
C63 C 0.24325(10) -0.1439(2) 0.30894(7)
H42 H 0.28910 -0.13420 0.30180
C64 C 0.19301(10) -0.0264(2) 0.29328(7)
C65 C 0.20822(11) 0.1129(2) 0.26826(8)
C66 C 0.26545(10) 0.1323(2) 0.24127(7)
loop_
_geom_bond_atom_site_label_1
_geom_bond_atom_site_label_2
_geom_bond_distance
_geom_bond_site_symmetry_1
_geom_bond_site_symmetry_2
C1 C2 1.412 1_555 1_555
C2 H1 0.951 1_555 1_555
C3 C2 1.363 1_555 1_555
H2 C3 0.950 1_555 1_555
C4 C3 1.406 1_555 1_555
H3 C4 0.950 1_555 1_555
C5 C4 1.366 1_555 1_555
H4 C5 0.950 1_555 1_555
C6 C1 1.426 1_555 1_555
C7 C6 1.422 1_555 1_555
H5 C7 0.950 1_555 1_555
C8 C7 1.342 1_555 1_555
H6 C8 0.950 1_555 1_555
C9 C8 1.429 1_555 1_555
C10 C9 1.413 1_555 1_555
H7 C10 0.950 1_555 1_555
C11 C10 1.350 1_555 1_555
H8 C11 0.950 1_555 1_555
C12 C11 1.419 1_555 1_555
C13 C12 1.426 1_555 1_555
H9 C13 0.950 1_555 1_555
C14 C13 1.342 1_555 1_555
H10 C14 0.950 1_555 1_555
C15 C14 1.433 1_555 1_555
C16 C15 1.410 1_555 1_555
H11 C16 0.949 1_555 1_555
C17 C16 1.361 1_555 1_555
H12 C17 0.949 1_555 1_555
C18 C17 1.406 1_555 1_555
H13 C18 0.950 1_555 1_555
C19 C18 1.367 1_555 1_555
H14 C19 0.951 1_555 1_555
C20 C15 1.422 1_555 1_555
C21 C12 1.417 1_555 1_555
C22 C1 1.451 1_555 1_555
C23 C24 1.414 1_555 1_555
C24 H15 0.950 1_555 1_555
C25 C24 1.365 1_555 1_555
H16 C25 0.950 1_555 1_555
C26 C25 1.408 1_555 1_555
H17 C26 0.950 1_555 1_555
C27 C26 1.361 1_555 1_555
H18 C27 0.951 1_555 1_555
C28 C23 1.423 1_555 1_555
C29 C28 1.432 1_555 1_555
H19 C29 0.950 1_555 1_555
C30 C29 1.347 1_555 1_555
H20 C30 0.950 1_555 1_555
C31 C30 1.429 1_555 1_555
C32 C31 1.418 1_555 1_555
H21 C32 0.950 1_555 1_555
C33 C32 1.358 1_555 1_555
H22 C33 0.949 1_555 1_555
C34 C33 1.419 1_555 1_555
C35 C34 1.428 1_555 1_555
H23 C35 0.950 1_555 1_555
C36 C35 1.346 1_555 1_555
H24 C36 0.949 1_555 1_555
C37 C36 1.424 1_555 1_555
C38 C37 1.408 1_555 1_555
H25 C38 0.951 1_555 1_555
C39 C38 1.362 1_555 1_555
H26 C39 0.950 1_555 1_555
C40 C39 1.404 1_555 1_555
H27 C40 0.949 1_555 1_555
C41 C40 1.368 1_555 1_555
H28 C41 0.950 1_555 1_555
C42 C37 1.421 1_555 1_555
C43 C34 1.410 1_555 1_555
C44 C23 1.453 1_555 1_555
C45 C46 1.411 1_555 1_555
C46 H29 0.949 1_555 1_555
C47 C46 1.372 1_555 1_555
H30 C47 0.950 1_555 1_555
C48 C47 1.408 1_555 1_555
H31 C48 0.950 1_555 1_555
C49 C48 1.372 1_555 1_555
H32 C49 0.949 1_555 1_555
C50 C45 1.426 1_555 1_555
C51 C50 1.432 1_555 1_555
H33 C51 0.951 1_555 1_555
C52 C51 1.354 1_555 1_555
H34 C52 0.950 1_555 1_555
C53 C52 1.421 1_555 1_555
C54 C53 1.417 1_555 1_555
H35 C54 0.949 1_555 1_555
C55 C54 1.359 1_555 1_555
H36 C55 0.949 1_555 1_555
C56 C55 1.407 1_555 1_555
C57 C56 1.431 1_555 1_555
H37 C57 0.950 1_555 1_555
C58 C57 1.342 1_555 1_555
H38 C58 0.949 1_555 1_555
C59 C58 1.425 1_555 1_555
C60 C59 1.404 1_555 1_555
H39 C60 0.951 1_555 1_555
C61 C60 1.360 1_555 1_555
H40 C61 0.951 1_555 1_555
C62 C61 1.405 1_555 1_555
H41 C62 0.951 1_555 1_555
C63 C62 1.370 1_555 1_555
H42 C63 0.950 1_555 1_555
C64 C59 1.428 1_555 1_555
C65 C56 1.414 1_555 1_555
C66 C45 1.460 1_555 1_555
C5 C6 1.407 1_555 1_555
C9 C22 1.411 1_555 1_555
C19 C20 1.414 1_555 1_555
C20 C21 1.454 1_555 1_555
C21 C22 1.445 1_555 1_555
C27 C28 1.410 1_555 1_555
C31 C44 1.417 1_555 1_555
C41 C42 1.415 1_555 1_555
C42 C43 1.455 1_555 1_555
C43 C44 1.451 1_555 1_555
C49 C50 1.408 1_555 1_555
C53 C66 1.417 1_555 1_555
C63 C64 1.412 1_555 1_555
C64 C65 1.449 1_555 1_555
C65 C66 1.447 1_555 1_555
#END
