
#######################################################################
#
#                 Cambridge Crystallographic Data Centre
#                                CCDC
#
#######################################################################
#
# If this CIF has been generated from an entry in the Cambridge
# Structural Database, then it will include bibliographic, chemical,
# crystal, experimental, refinement or atomic coordinate data resulting
# from the CCDC's data processing and validation procedures.
#
#######################################################################

data_CSD_CIF_DBPHEN02
_audit_creation_date 1983-04-11
_audit_creation_method CSD-ConQuest-V1
_database_code_CSD DBPHEN02
_database_code_depnum_ccdc_archive 'CCDC 1137289'
_chemical_formula_sum 'C22 H14'
_chemical_formula_moiety
;
C22 H14
;
_journal_coden_Cambridge 188
_journal_year 1982
_journal_page_first 789
_journal_name_full 'J.Chem.Soc.,Perkin Trans.2 '
loop_
_publ_author_name
"R.Kuroda"
_chemical_name_systematic
;
(5)Helicene
;
_chemical_name_common
;
3,4-5,6-Dibenzophenanthrene
;
_cell_volume   1438.353
_exptl_crystal_colour 'yellow'
_exptl_crystal_density_diffrn 1.285
_exptl_special_details
;
polymorph A

;
_diffrn_ambient_temperature ?
_diffrn_special_details
;
The study was carried out at room temperature,in the range 283-303K

;
#These two values have been output from a single CSD field.
_refine_ls_R_factor_gt 0.06
_refine_ls_wR_factor_gt 0.06
_symmetry_cell_setting monoclinic
_symmetry_space_group_name_H-M 'P 21/c'
_symmetry_Int_Tables_number 14
loop_
_symmetry_equiv_pos_site_id
_symmetry_equiv_pos_as_xyz
1 x,y,z
2 -x,1/2+y,1/2-z
3 -x,-y,-z
4 x,-1/2-y,-1/2+z
_cell_length_a 5.8150(7)
_cell_length_b 14.178(1)
_cell_length_c 17.498(2)
_cell_angle_alpha 90
_cell_angle_beta 94.41(1)
_cell_angle_gamma 90
_cell_formula_units_Z 4
loop_
_atom_type_symbol
_atom_type_radius_bond
C 0.68
H 0.23
loop_
_atom_site_label
_atom_site_type_symbol
_atom_site_fract_x
_atom_site_fract_y
_atom_site_fract_z
C1 C 0.20710 0.52100 0.12130
C2 C 0.23460 0.57260 0.05630
C3 C 0.44170 0.61960 0.04700
C4 C 0.61040 0.61890 0.10500
C5 C 0.58390 0.56950 0.17370
C6 C 0.74870 0.58060 0.23750
C7 C 0.70400 0.54620 0.30580
C8 C 0.50640 0.48980 0.31610
C9 C 0.45450 0.46210 0.39040
C10 C 0.26390 0.41260 0.40150
C11 C 0.12290 0.37450 0.33810
C12 C -0.07370 0.31850 0.35000
C13 C -0.19860 0.27830 0.29200
C14 C -0.12140 0.27930 0.21580
C15 C -0.22500 0.22220 0.15620
C16 C -0.12960 0.21230 0.08870
C17 C 0.07770 0.25770 0.07680
C18 C 0.17780 0.31580 0.13240
C19 C 0.07800 0.33210 0.20210
C20 C 0.18480 0.39200 0.26240
C21 C 0.35750 0.46300 0.25200
C22 C 0.38310 0.51450 0.18120
H1 H 0.06100 0.49300 0.12800
H2 H 0.10400 0.57900 0.01600
H3 H 0.45500 0.65800 -0.00300
H4 H 0.76100 0.65400 0.10200
H5 H 0.89800 0.62700 0.22900
H6 H 0.80300 0.55700 0.35000
H7 H 0.56600 0.48100 0.43700
H8 H 0.21500 0.39700 0.45100
H9 H -0.11400 0.31600 0.40700
H10 H -0.33600 0.24400 0.29400
H11 H -0.36800 0.19000 0.16900
H12 H -0.19900 0.16900 0.04800
H13 H 0.15800 0.24500 0.02800
H14 H 0.32200 0.34400 0.12600
loop_
_geom_bond_atom_site_label_1
_geom_bond_atom_site_label_2
_geom_bond_distance
_geom_bond_site_symmetry_1
_geom_bond_site_symmetry_2
C1 C2 1.372 1_555 1_555
C2 C3 1.397 1_555 1_555
C3 C4 1.356 1_555 1_555
C4 C5 1.410 1_555 1_555
C5 C6 1.423 1_555 1_555
C6 C7 1.335 1_555 1_555
C7 C8 1.423 1_555 1_555
C8 C9 1.413 1_555 1_555
C9 C10 1.339 1_555 1_555
C10 C11 1.433 1_555 1_555
C11 C12 1.420 1_555 1_555
C12 C13 1.330 1_555 1_555
C13 C14 1.439 1_555 1_555
C14 C15 1.417 1_555 1_555
C15 C16 1.350 1_555 1_555
C16 C17 1.396 1_555 1_555
C17 C18 1.370 1_555 1_555
C18 C19 1.409 1_555 1_555
C19 C14 1.416 1_555 1_555
C20 C11 1.421 1_555 1_555
C21 C8 1.415 1_555 1_555
C22 C1 1.411 1_555 1_555
H1 C1 0.953 1_555 1_555
H2 C2 1.000 1_555 1_555
H3 C3 1.038 1_555 1_555
H4 C4 1.012 1_555 1_555
H5 C6 1.108 1_555 1_555
H6 C7 0.941 1_555 1_555
H7 C9 1.037 1_555 1_555
H8 C10 0.958 1_555 1_555
H9 C12 1.043 1_555 1_555
H10 C13 0.938 1_555 1_555
H11 C15 0.989 1_555 1_555
H12 C16 1.001 1_555 1_555
H13 C17 1.020 1_555 1_555
H14 C18 0.943 1_555 1_555
C5 C22 1.419 1_555 1_555
C19 C20 1.456 1_555 1_555
C20 C21 1.443 1_555 1_555
C21 C22 1.455 1_555 1_555
#END
