
#######################################################################
#
#                 Cambridge Crystallographic Data Centre
#                                CCDC
#
#######################################################################
#
# If this CIF has been generated from an entry in the Cambridge
# Structural Database, then it will include bibliographic, chemical,
# crystal, experimental, refinement or atomic coordinate data resulting
# from the CCDC's data processing and validation procedures.
#
#######################################################################

data_CSD_CIF_DBPHEN03
_audit_creation_date 1983-04-11
_audit_creation_method CSD-ConQuest-V1
_database_code_CSD DBPHEN03
_chemical_formula_sum 'C22 H14'
_chemical_formula_moiety
;
C22 H14
;
_journal_coden_Cambridge 188
_journal_year 1982
_journal_page_first 789
_journal_name_full 'J.Chem.Soc.,Perkin Trans.2 '
loop_
_publ_author_name
"R.Kuroda"
_chemical_name_systematic
;
(5)Helicene
;
_chemical_name_common
;
3,4-5,6-Dibenzophenanthrene
;
_cell_volume   4379.263
_exptl_crystal_density_diffrn 1.266
_exptl_special_details
;
polymorph B
X(C101)=-0.1431 not 0.1431. H9 on C9 is suspect and has been deleted
;
_diffrn_ambient_temperature ?
_diffrn_special_details
;
The study was carried out at room temperature,in the range 283-303K

;
#These two values have been output from a single CSD field.
_refine_ls_R_factor_gt 0.068
_refine_ls_wR_factor_gt 0.068
_symmetry_cell_setting monoclinic
_symmetry_space_group_name_H-M 'A 2/a'
_symmetry_Int_Tables_number 15
loop_
_symmetry_equiv_pos_site_id
_symmetry_equiv_pos_as_xyz
1 x,y,z
2 x,1/2+y,1/2+z
3 1/2-x,y,-z
4 1/2-x,1/2+y,1/2-z
5 -x,-y,-z
6 -x,-1/2-y,-1/2-z
7 -1/2+x,-y,z
8 -1/2+x,-1/2-y,-1/2+z
_cell_length_a 26.013(2)
_cell_length_b 8.898(1)
_cell_length_c 19.494(2)
_cell_angle_alpha 90
_cell_angle_beta 103.94(1)
_cell_angle_gamma 90
_cell_formula_units_Z 12
loop_
_atom_type_symbol
_atom_type_radius_bond
C 0.68
H 0.23
loop_
_atom_site_label
_atom_site_type_symbol
_atom_site_fract_x
_atom_site_fract_y
_atom_site_fract_z
C1 C -0.03450 0.13750 0.40040
C2 C -0.01780 0.25860 0.44250
C3 C 0.03480 0.27390 0.48010
C4 C 0.06900 0.16250 0.47690
C5 C 0.05380 0.03400 0.43490
C6 C 0.08850 -0.09020 0.43720
C7 C 0.07110 -0.22070 0.40800
C8 C 0.01810 -0.23820 0.36660
C9 C -0.00170 -0.38210 0.34470
C10 C -0.05250 -0.40010 0.30880
C11 C -0.08540 -0.27450 0.28240
C12 C -0.13690 -0.29380 0.23950
C13 C -0.16610 -0.17870 0.20780
C14 C -0.14310 -0.03020 0.21030
C15 C -0.16950 0.08750 0.16740
C16 C -0.14470 0.22040 0.16280
C17 C -0.09230 0.24310 0.20000
C18 C -0.06730 0.13280 0.24440
C19 C -0.09160 -0.00530 0.25370
C20 C -0.06470 -0.12720 0.29720
C21 C -0.01550 -0.11100 0.35030
C22 C 0.00080 0.02230 0.39260
H1 H -0.07300 0.12500 0.37500
H2 H -0.04100 0.32800 0.44700
H3 H 0.04600 0.36700 0.50900
H4 H 0.10900 0.16200 0.50800
H5 H 0.12500 -0.07100 0.47100
H6 H 0.09400 -0.31000 0.40800
H7 H 0.02600 -0.48200 0.36400
H8 H -0.07300 -0.49700 0.29100
H9 H -0.20300 -0.18200 0.18400
H10 H -0.20400 0.06500 0.13900
H11 H -0.15900 0.30300 0.13500
H12 H -0.07300 0.33600 0.19000
H13 H -0.03400 0.14400 0.27000
C23 C 0.19520 0.61560 0.50670
C24 C 0.16910 0.49630 0.52770
C25 C 0.15710 0.49790 0.59370
C26 C 0.16870 0.62070 0.63520
C27 C 0.19340 0.74640 0.61500
C28 C 0.19940 0.88890 0.65120
C29 C 0.21470 1.01030 0.62500
C30 C 0.23250 1.01070 0.56170
C31 C 0.24330 1.15080 0.53000
C32 C 0.23670 0.87090 0.52840
C33 C 0.21080 0.74200 0.55020
H14 H 0.20300 0.61400 0.45600
H15 H 0.15200 0.40600 0.48800
H16 H 0.14300 0.41500 0.61000
H17 H 0.15800 0.60600 0.68100
H18 H 0.18400 0.85600 0.69300
H19 H 0.20900 1.08800 0.65100
H20 H 0.24400 1.23800 0.56200
C31B C 0.25670 1.15080 0.47000
C32B C 0.26330 0.87090 0.47160
C30B C 0.26750 1.01070 0.43830
H20B H 0.25600 1.23800 0.43800
C33B C 0.28920 0.74200 0.44980
C29B C 0.28530 1.01030 0.37500
C23B C 0.30480 0.61560 0.49330
C27B C 0.30660 0.74640 0.38500
C28B C 0.30060 0.88890 0.34880
H19B H 0.29100 1.08800 0.34900
C24B C 0.33090 0.49630 0.47230
H14B H 0.29700 0.61400 0.54400
C26B C 0.33130 0.62070 0.36480
H18B H 0.31600 0.85600 0.30700
C25B C 0.34290 0.49790 0.40630
H15B H 0.34800 0.40600 0.51200
H17B H 0.34200 0.60600 0.31900
H16B H 0.35700 0.41500 0.39000
loop_
_geom_bond_atom_site_label_1
_geom_bond_atom_site_label_2
_geom_bond_distance
_geom_bond_site_symmetry_1
_geom_bond_site_symmetry_2
C1 C2 1.361 1_555 1_555
C2 C3 1.395 1_555 1_555
C3 C4 1.343 1_555 1_555
C4 C5 1.406 1_555 1_555
C5 C6 1.421 1_555 1_555
C6 C7 1.324 1_555 1_555
C7 C8 1.428 1_555 1_555
C8 C9 1.408 1_555 1_555
C9 C10 1.348 1_555 1_555
C10 C11 1.426 1_555 1_555
C11 C12 1.408 1_555 1_555
C12 C13 1.335 1_555 1_555
C13 C14 1.446 1_555 1_555
C14 C15 1.411 1_555 1_555
C15 C16 1.360 1_555 1_555
C16 C17 1.396 1_555 1_555
C17 C18 1.365 1_555 1_555
C18 C19 1.413 1_555 1_555
C19 C14 1.419 1_555 1_555
C20 C11 1.420 1_555 1_555
C21 C8 1.418 1_555 1_555
C22 C1 1.409 1_555 1_555
H1 C1 1.011 1_555 1_555
H2 C2 0.882 1_555 1_555
H3 C3 1.005 1_555 1_555
H4 C4 1.071 1_555 1_555
H5 C6 1.031 1_555 1_555
H6 C7 0.993 1_555 1_555
H7 C9 1.149 1_555 1_555
H8 C10 1.029 1_555 1_555
H9 C13 0.961 1_555 1_555
H10 C15 0.955 1_555 1_555
H11 C16 0.935 1_555 1_555
H12 C17 1.010 1_555 1_555
H13 C18 0.895 1_555 1_555
C23 C24 1.375 1_555 1_555
C24 C25 1.395 1_555 1_555
C25 C26 1.350 1_555 1_555
C26 C27 1.393 1_555 1_555
C27 C28 1.441 1_555 1_555
C28 C29 1.298 1_555 1_555
C29 C30 1.419 1_555 1_555
C30 C31 1.449 1_555 1_555
C31 H20 0.993 1_555 1_555
C32 C30 1.419 1_555 1_555
C33 C23 1.408 1_555 1_555
H14 C23 1.056 1_555 1_555
H15 C24 1.130 1_555 1_555
H16 C25 0.914 1_555 1_555
H17 C26 1.006 1_555 1_555
H18 C28 1.033 1_555 1_555
H19 C29 0.891 1_555 1_555
C31B C31 1.298 1_555 1_555
C32B C32 1.440 1_555 1_555
C30B C31B 1.449 1_555 1_555
H20B C31B 0.993 1_555 1_555
C33B C32B 1.445 1_555 1_555
C29B C30B 1.419 1_555 1_555
C23B C33B 1.408 1_555 1_555
C27B C33B 1.441 1_555 1_555
C28B C29B 1.298 1_555 1_555
H19B C29B 0.891 1_555 1_555
C24B C23B 1.375 1_555 1_555
H14B C23B 1.056 1_555 1_555
C26B C27B 1.393 1_555 1_555
H18B C28B 1.033 1_555 1_555
C25B C24B 1.395 1_555 1_555
H15B C24B 1.130 1_555 1_555
H17B C26B 1.006 1_555 1_555
H16B C25B 0.914 1_555 1_555
C5 C22 1.430 1_555 1_555
C19 C20 1.449 1_555 1_555
C20 C21 1.446 1_555 1_555
C21 C22 1.448 1_555 1_555
C27 C33 1.441 1_555 1_555
C32 C33 1.445 1_555 1_555
C32B C30B 1.419 1_555 1_555
C27B C28B 1.441 1_555 1_555
C26B C25B 1.350 1_555 1_555
#END
