
#######################################################################
#
#                 Cambridge Crystallographic Data Centre
#                                CCDC
#
#######################################################################
#
# If this CIF has been generated from an entry in the Cambridge
# Structural Database, then it will include bibliographic, chemical,
# crystal, experimental, refinement or atomic coordinate data resulting
# from the CCDC's data processing and validation procedures.
#
#######################################################################

data_CSD_CIF_DEBHIB
_audit_creation_date 1986-07-01
_audit_creation_method CSD-ConQuest-V1
_database_code_CSD DEBHIB
_chemical_formula_sum 'C30 H20'
_chemical_formula_moiety
;
C30 H20
;
_journal_coden_Cambridge 154
_journal_volume 37
_journal_year 1984
_journal_page_first 1329
_journal_name_full 'Aust.J.Chem. '
loop_
_publ_author_name
"H.-D.Becker"
"L.M.Engelhardt"
"L.Hansen"
"V.A.Patrick"
"A.H.White"
_chemical_name_systematic
;
(E)-1,2-Di(9-anthryl)ethene
;
_cell_volume   1901.945
_exptl_crystal_density_diffrn 1.33
_diffrn_ambient_temperature ?
_diffrn_special_details
;
The study was carried out at room temperature,in the range 283-303K

;
#These two values have been output from a single CSD field.
_refine_ls_R_factor_gt 0.049
_refine_ls_wR_factor_gt 0.049
_symmetry_cell_setting monoclinic
_symmetry_space_group_name_H-M 'C 2/c'
_symmetry_Int_Tables_number 15
loop_
_symmetry_equiv_pos_site_id
_symmetry_equiv_pos_as_xyz
1 x,y,z
2 1/2+x,1/2+y,z
3 -x,y,1/2-z
4 1/2-x,1/2+y,1/2-z
5 -x,-y,-z
6 -1/2-x,-1/2-y,-z
7 x,-y,-1/2+z
8 -1/2+x,-1/2-y,-1/2+z
_cell_length_a 13.42(1)
_cell_length_b 12.48(1)
_cell_length_c 12.87(2)
_cell_angle_alpha 90
_cell_angle_beta 118.07(10)
_cell_angle_gamma 90
_cell_formula_units_Z 4
loop_
_atom_type_symbol
_atom_type_radius_bond
C 0.68
H 0.23
loop_
_atom_site_label
_atom_site_type_symbol
_atom_site_fract_x
_atom_site_fract_y
_atom_site_fract_z
C1 C 0.5327(2) 0.1321(2) 0.3084(2)
C2 C 0.6589(2) 0.1324(2) 0.3688(2)
C3 C 0.7197(2) 0.2113(2) 0.3449(2)
C4 C 0.6680(2) 0.2993(2) 0.2666(2)
C5 C 0.7303(3) 0.3726(3) 0.2442(3)
C6 C 0.8490(2) 0.3643(3) 0.2979(3)
C7 C 0.9023(2) 0.2852(2) 0.3753(3)
C8 C 0.8410(2) 0.2065(2) 0.4026(2)
C9 C 0.8960(2) 0.1261(2) 0.4849(2)
C10 C 0.8372(2) 0.0490(2) 0.5116(2)
C11 C 0.8938(3) -0.0343(3) 0.5942(2)
C12 C 0.8362(3) -0.1107(3) 0.6170(3)
C13 C 0.7169(3) -0.1096(3) 0.5586(3)
C14 C 0.6590(3) -0.0314(2) 0.4800(2)
C15 C 0.7161(2) 0.0516(2) 0.4526(2)
H1 H 0.494(2) 0.132(2) 0.363(2)
H2 H 0.583(2) 0.309(2) 0.232(2)
H3 H 0.693(2) 0.433(3) 0.192(3)
H4 H 0.892(2) 0.421(2) 0.281(2)
H5 H 0.988(2) 0.278(2) 0.414(2)
H6 H 0.978(2) 0.125(2) 0.522(2)
H7 H 0.975(2) -0.029(2) 0.634(2)
H8 H 0.876(2) -0.173(2) 0.673(2)
H9 H 0.675(2) -0.167(2) 0.569(2)
H10 H 0.580(2) -0.033(2) 0.441(2)
C1B C 0.4673(2) 0.1321(2) 0.1916(2)
C2B C 0.3411(2) 0.1324(2) 0.1312(2)
H1B H 0.506(2) 0.132(2) 0.137(2)
C3B C 0.2803(2) 0.2113(2) 0.1551(2)
C15B C 0.2839(2) 0.0516(2) 0.0474(2)
C4B C 0.3320(2) 0.2993(2) 0.2334(2)
C8B C 0.1590(2) 0.2065(2) 0.0974(2)
C10B C 0.1628(2) 0.0490(2) -0.0116(2)
C14B C 0.3410(3) -0.0314(2) 0.0200(2)
C5B C 0.2697(3) 0.3726(3) 0.2558(3)
H2B H 0.417(2) 0.309(2) 0.268(2)
C7B C 0.0977(2) 0.2852(2) 0.1247(3)
C9B C 0.1040(2) 0.1261(2) 0.0151(2)
C11B C 0.1062(3) -0.0343(3) -0.0942(2)
C13B C 0.2831(3) -0.1096(3) -0.0586(3)
H10B H 0.420(2) -0.033(2) 0.059(2)
C6B C 0.1510(2) 0.3643(3) 0.2021(3)
H3B H 0.307(2) 0.433(3) 0.308(3)
H5B H 0.012(2) 0.278(2) 0.086(2)
H6B H 0.022(2) 0.125(2) -0.022(2)
C12B C 0.1638(3) -0.1107(3) -0.1170(3)
H7B H 0.025(2) -0.029(2) -0.134(2)
H9B H 0.325(2) -0.167(2) -0.069(2)
H4B H 0.108(2) 0.421(2) 0.219(2)
H8B H 0.124(2) -0.173(2) -0.173(2)
loop_
_geom_bond_atom_site_label_1
_geom_bond_atom_site_label_2
_geom_bond_distance
_geom_bond_site_symmetry_1
_geom_bond_site_symmetry_2
C1 C2 1.495 1_555 1_555
C2 C3 1.402 1_555 1_555
C3 C4 1.430 1_555 1_555
C4 C5 1.359 1_555 1_555
C5 C6 1.411 1_555 1_555
C6 C7 1.345 1_555 1_555
C7 C8 1.427 1_555 1_555
C8 C3 1.438 1_555 1_555
C9 C8 1.392 1_555 1_555
C10 C9 1.386 1_555 1_555
C11 C10 1.424 1_555 1_555
C12 C11 1.344 1_555 1_555
C13 C12 1.413 1_555 1_555
C14 C13 1.356 1_555 1_555
C15 C2 1.411 1_555 1_555
H1 C1 1.052 1_555 1_555
H2 C4 1.018 1_555 1_555
H3 C5 0.977 1_555 1_555
H4 C6 1.000 1_555 1_555
H5 C7 1.020 1_555 1_555
H6 C9 0.972 1_555 1_555
H7 C11 0.964 1_555 1_555
H8 C12 1.023 1_555 1_555
H9 C13 0.958 1_555 1_555
H10 C14 0.936 1_555 1_555
C1B C1 1.337 1_555 1_555
C2B C1B 1.495 1_555 1_555
H1B C1B 1.052 1_555 1_555
C3B C2B 1.402 1_555 1_555
C15B C2B 1.411 1_555 1_555
C4B C3B 1.430 1_555 1_555
C8B C3B 1.438 1_555 1_555
C10B C15B 1.434 1_555 1_555
C14B C15B 1.428 1_555 1_555
C5B C4B 1.359 1_555 1_555
H2B C4B 1.018 1_555 1_555
C7B C8B 1.427 1_555 1_555
C9B C8B 1.392 1_555 1_555
C11B C10B 1.424 1_555 1_555
C13B C14B 1.356 1_555 1_555
H10B C14B 0.936 1_555 1_555
C6B C5B 1.411 1_555 1_555
H3B C5B 0.977 1_555 1_555
H5B C7B 1.020 1_555 1_555
H6B C9B 0.972 1_555 1_555
C12B C11B 1.344 1_555 1_555
H7B C11B 0.964 1_555 1_555
H9B C13B 0.958 1_555 1_555
H4B C6B 1.000 1_555 1_555
H8B C12B 1.023 1_555 1_555
C10 C15 1.434 1_555 1_555
C14 C15 1.428 1_555 1_555
C10B C9B 1.386 1_555 1_555
C7B C6B 1.345 1_555 1_555
C13B C12B 1.413 1_555 1_555
#END
