
#######################################################################
#
#                 Cambridge Crystallographic Data Centre
#                                CCDC
#
#######################################################################
#
# If this CIF has been generated from an entry in the Cambridge
# Structural Database, then it will include bibliographic, chemical,
# crystal, experimental, refinement or atomic coordinate data resulting
# from the CCDC's data processing and validation procedures.
#
#######################################################################

data_CSD_CIF_DENWAU
_audit_creation_date 1986-07-23
_audit_creation_method CSD-ConQuest-V1
_database_code_CSD DENWAU
_chemical_formula_sum 'C31 H22'
_chemical_formula_moiety
;
C31 H22
;
_journal_coden_Cambridge 154
_journal_volume 38
_journal_year 1985
_journal_page_first 809
_journal_name_full 'Aust.J.Chem. '
loop_
_publ_author_name
"H.-D.Becker"
"L.Hansen"
"B.W.Skelton"
"A.H.White"
_chemical_name_systematic
;
(E)-1-(9-Anthryl)-2-(10-methyl-9-anthryl)ethene
;
_chemical_melting_point 517.15
_cell_volume   1007.806
_exptl_crystal_colour 'yellow'
_exptl_crystal_density_diffrn 1.3
_exptl_special_details
;
Melting point range 517.15-519.15K

;
_diffrn_ambient_temperature ?
_diffrn_special_details
;
The study was carried out at room temperature,in the range 283-303K

;
#These two values have been output from a single CSD field.
_refine_ls_R_factor_gt 0.046
_refine_ls_wR_factor_gt 0.046
_symmetry_cell_setting triclinic
_symmetry_space_group_name_H-M 'P -1'
_symmetry_Int_Tables_number 2
loop_
_symmetry_equiv_pos_site_id
_symmetry_equiv_pos_as_xyz
1 x,y,z
2 -x,-y,-z
_cell_length_a 12.95(1)
_cell_length_b 9.316(6)
_cell_length_c 9.098(9)
_cell_angle_alpha 86.17(7)
_cell_angle_beta 72.26(7)
_cell_angle_gamma 74.61(6)
_cell_formula_units_Z 2
loop_
_atom_type_symbol
_atom_type_radius_bond
C 0.68
H 0.23
loop_
_atom_site_label
_atom_site_type_symbol
_atom_site_fract_x
_atom_site_fract_y
_atom_site_fract_z
C1 C 0.7813(5) 0.3809(7) 0.6187(7)
C2 C 0.8429(5) 0.2597(7) 0.5010(7)
C3 C 0.8233(6) 0.1143(7) 0.5240(8)
C4 C 0.7453(5) 0.0757(8) 0.6595(8)
C5 C 0.7261(6) -0.0601(9) 0.6794(8)
C6 C 0.7847(7) -0.1707(8) 0.5632(10)
C7 C 0.8626(6) -0.1409(7) 0.4368(8)
C8 C 0.8876(5) 0.0012(7) 0.4115(8)
C9 C 0.9702(6) 0.0272(7) 0.2816(7)
C10 C 1.0417(6) -0.0969(7) 0.1672(7)
C11 C 0.9913(6) 0.1687(7) 0.2595(8)
C12 C 1.0754(5) 0.2033(7) 0.1285(8)
C13 C 1.0913(6) 0.3412(9) 0.1043(8)
C14 C 1.0258(6) 0.4562(7) 0.2111(9)
C15 C 0.9471(5) 0.4294(7) 0.3401(8)
C16 C 0.9266(5) 0.2846(7) 0.3694(7)
C17 C 0.6733(6) 0.4299(7) 0.6766(7)
C18 C 0.6168(5) 0.5496(7) 0.7976(8)
C19 C 0.5363(5) 0.6746(8) 0.7695(8)
C20 C 0.5088(6) 0.6953(8) 0.6273(8)
C21 C 0.4319(7) 0.818(1) 0.6049(9)
C22 C 0.3774(6) 0.9312(8) 0.7185(11)
C23 C 0.4009(6) 0.9170(8) 0.8534(9)
C24 C 0.4825(5) 0.7921(7) 0.8830(8)
C25 C 0.5108(6) 0.7814(8) 1.0182(8)
C26 C 0.5888(6) 0.6596(8) 1.0496(8)
C27 C 0.6180(6) 0.6478(8) 1.1901(8)
C28 C 0.6911(6) 0.5265(10) 1.2215(8)
C29 C 0.7388(6) 0.4040(8) 1.1193(8)
C30 C 0.7144(6) 0.4105(7) 0.9814(8)
C31 C 0.6407(5) 0.5387(7) 0.9398(8)
H1 H 0.70400 0.15300 0.74000
H2 H 0.67000 -0.08300 0.77400
H3 H 0.77000 -0.26700 0.57600
H4 H 0.90200 -0.21800 0.35500
H5 H 1.12300 0.12300 0.05500
H6 H 1.14800 0.36300 0.01000
H7 H 1.03600 0.55600 0.19400
H8 H 0.90400 0.50900 0.41700
H9 H 1.07800 -0.17800 0.22200
H10 H 0.99200 -0.13400 0.12900
H11 H 1.10000 -0.08400 0.07800
H12 H 0.84500 0.41100 0.63500
H13 H 0.54900 0.61800 0.54600
H14 H 0.41400 0.82900 0.50600
H15 H 0.32300 1.01900 0.69800
H16 H 0.36000 0.99400 0.93500
H17 H 0.47300 0.86400 1.09500
H18 H 0.58400 0.73200 1.26300
H19 H 0.71200 0.52400 1.31800
H20 H 0.78700 0.31400 1.14600
H21 H 0.74900 0.32400 0.91000
H22 H 0.60900 0.40500 0.65900
loop_
_geom_bond_atom_site_label_1
_geom_bond_atom_site_label_2
_geom_bond_distance
_geom_bond_site_symmetry_1
_geom_bond_site_symmetry_2
C1 C2 1.490 1_555 1_555
C2 C3 1.434 1_555 1_555
C3 C4 1.430 1_555 1_555
C4 C5 1.343 1_555 1_555
C5 C6 1.413 1_555 1_555
C6 C7 1.348 1_555 1_555
C7 C8 1.432 1_555 1_555
C8 C3 1.418 1_555 1_555
C9 C8 1.389 1_555 1_555
C10 C9 1.511 1_555 1_555
C11 C9 1.405 1_555 1_555
C12 C11 1.433 1_555 1_555
C13 C12 1.348 1_555 1_555
C14 C13 1.402 1_555 1_555
C15 C14 1.358 1_555 1_555
C16 C2 1.403 1_555 1_555
C17 C1 1.299 1_555 1_555
C18 C17 1.494 1_555 1_555
C19 C18 1.409 1_555 1_555
C20 C19 1.431 1_555 1_555
C21 C20 1.352 1_555 1_555
C22 C21 1.409 1_555 1_555
C23 C22 1.342 1_555 1_555
C24 C19 1.434 1_555 1_555
C25 C24 1.377 1_555 1_555
C26 C25 1.383 1_555 1_555
C27 C26 1.429 1_555 1_555
C28 C27 1.345 1_555 1_555
C29 C28 1.402 1_555 1_555
C30 C29 1.378 1_555 1_555
C31 C18 1.411 1_555 1_555
H1 C4 0.984 1_555 1_555
H2 C5 0.995 1_555 1_555
H3 C6 0.958 1_555 1_555
H4 C7 0.988 1_555 1_555
H5 C12 0.979 1_555 1_555
H6 C13 0.994 1_555 1_555
H7 C14 0.969 1_555 1_555
H8 C15 0.981 1_555 1_555
H9 C10 0.972 1_555 1_555
H10 C10 0.962 1_555 1_555
H11 C10 0.951 1_555 1_555
H12 C1 0.992 1_555 1_555
H13 C20 0.987 1_555 1_555
H14 C21 0.988 1_555 1_555
H15 C22 0.977 1_555 1_555
H16 C23 0.988 1_555 1_555
H17 C25 0.992 1_555 1_555
H18 C27 0.978 1_555 1_555
H19 C28 0.992 1_555 1_555
H20 C29 0.969 1_555 1_555
H21 C30 0.986 1_555 1_555
H22 C17 0.981 1_555 1_555
C11 C16 1.422 1_555 1_555
C15 C16 1.435 1_555 1_555
C23 C24 1.422 1_555 1_555
C26 C31 1.434 1_555 1_555
C30 C31 1.427 1_555 1_555
#END
