
#######################################################################
#
#                 Cambridge Crystallographic Data Centre
#                                CCDC
#
#######################################################################
#
# If this CIF has been generated from an entry in the Cambridge
# Structural Database, then it will include bibliographic, chemical,
# crystal, experimental, refinement or atomic coordinate data resulting
# from the CCDC's data processing and validation procedures.
#
#######################################################################

data_CSD_CIF_DEYNAP
_audit_creation_date 1978-02-24
_audit_creation_method CSD-ConQuest-V1
_database_code_CSD DEYNAP
_chemical_formula_sum 'C14 H8'
_chemical_formula_moiety
;
C14 H8
;
_journal_coeditor_code "IUCr A15169"
_journal_coden_Cambridge 107
_journal_volume 33
_journal_year 1977
_journal_page_first 3531
_journal_name_full 'Acta Crystallogr.,Sect.B:Struct.Crystallogr.Cryst.Chem. '
loop_
_publ_author_name
"V.Enkelmann"
"O.Rohde"
_chemical_name_systematic
;
1,4-Diethynylnaphthalene
;
_cell_volume   1954.837
_exptl_crystal_density_diffrn 1.2
_exptl_special_details
;
alpha polymorph

;
_diffrn_ambient_temperature ?
_diffrn_special_details
;
The study was carried out at room temperature,in the range 283-303K

;
#These two values have been output from a single CSD field.
_refine_ls_R_factor_gt 0.042
_refine_ls_wR_factor_gt 0.042
_symmetry_cell_setting orthorhombic
_symmetry_space_group_name_H-M 'P c a 21'
_symmetry_Int_Tables_number 29
loop_
_symmetry_equiv_pos_site_id
_symmetry_equiv_pos_as_xyz
1 x,y,z
2 1/2-x,y,1/2+z
3 1/2+x,-y,z
4 -x,-y,1/2+z
_cell_length_a 31.065(10)
_cell_length_b 4.024(2)
_cell_length_c 15.638(6)
_cell_angle_alpha 90
_cell_angle_beta 90
_cell_angle_gamma 90
_cell_formula_units_Z 8
loop_
_atom_type_symbol
_atom_type_radius_bond
C 0.68
H 0.23
loop_
_atom_site_label
_atom_site_type_symbol
_atom_site_fract_x
_atom_site_fract_y
_atom_site_fract_z
C1 C -0.21860 0.35850 0.39400
C2 C -0.23580 0.19820 0.32320
C3 C -0.20970 0.10720 0.25410
C4 C -0.16710 0.18120 0.25310
C5 C -0.14730 0.34940 0.32470
C6 C -0.10300 0.43260 0.32630
C7 C -0.08600 0.59280 0.39560
C8 C -0.11190 0.67150 0.46670
C9 C -0.15470 0.60090 0.46730
C10 C -0.17370 0.43470 0.39670
C11 C -0.24670 0.44470 0.46540
C12 C -0.27100 0.51820 0.51880
C13 C -0.14110 0.08390 0.17980
C14 C -0.11940 -0.00790 0.12250
C15 C -0.42150 -0.37470 0.39320
C16 C -0.37810 -0.42300 0.39990
C17 C -0.34930 -0.31120 0.33880
C18 C -0.36420 -0.14310 0.26610
C19 C -0.40910 -0.08550 0.25660
C20 C -0.42590 0.08530 0.18400
C21 C -0.46810 0.13750 0.17560
C22 C -0.49790 0.03040 0.23650
C23 C -0.48340 -0.14110 0.30830
C24 C -0.43870 -0.20110 0.31900
C25 C -0.45060 -0.50290 0.45760
C26 C -0.47360 -0.62680 0.50850
C27 C -0.33390 -0.02660 0.20320
C28 C -0.31020 0.07810 0.15120
H1 H -0.26990 0.14270 0.32310
H2 H -0.22360 -0.01880 0.19930
H3 H -0.08280 0.36880 0.27210
H4 H -0.05230 0.65160 0.39680
H5 H -0.09840 0.79650 0.52120
H6 H -0.17460 0.66300 0.52090
H7 H -0.29330 0.58950 0.56880
H8 H -0.09940 -0.10000 0.07180
H9 H -0.36580 -0.55160 0.45470
H10 H -0.31510 -0.35220 0.34740
H11 H -0.40340 0.17290 0.13610
H12 H -0.48000 0.27000 0.12020
H13 H -0.53190 0.07210 0.22940
H14 H -0.50580 -0.22920 0.35640
H15 H -0.49460 -0.74160 0.55350
H16 H -0.28770 0.17290 0.10530
loop_
_geom_bond_atom_site_label_1
_geom_bond_atom_site_label_2
_geom_bond_distance
_geom_bond_site_symmetry_1
_geom_bond_site_symmetry_2
C1 C2 1.388 1_555 1_555
C2 C3 1.400 1_555 1_555
C3 C4 1.357 1_555 1_555
C4 C5 1.446 1_555 1_555
C5 C6 1.417 1_555 1_555
C6 C7 1.367 1_555 1_555
C7 C8 1.409 1_555 1_555
C8 C9 1.360 1_555 1_555
C9 C10 1.419 1_555 1_555
C10 C1 1.429 1_555 1_555
C11 C1 1.459 1_555 1_555
C12 C11 1.164 1_555 1_555
C13 C4 1.456 1_555 1_555
C14 C13 1.181 1_555 1_555
C15 C16 1.366 1_555 1_555
C16 C17 1.384 1_555 1_555
C17 C18 1.402 1_555 1_555
C18 C19 1.422 1_555 1_555
C19 C20 1.426 1_555 1_555
C20 C21 1.334 1_555 1_555
C21 C22 1.396 1_555 1_555
C22 C23 1.393 1_555 1_555
C23 C24 1.419 1_555 1_555
C24 C15 1.456 1_555 1_555
C25 C15 1.448 1_555 1_555
C26 C25 1.180 1_555 1_555
C27 C18 1.440 1_555 1_555
C28 C27 1.175 1_555 1_555
H1 C2 1.083 1_555 1_555
H2 C3 1.085 1_555 1_555
H3 C6 1.085 1_555 1_555
H4 C7 1.073 1_555 1_555
H5 C8 1.075 1_555 1_555
H6 C9 1.071 1_555 1_555
H7 C12 1.083 1_555 1_555
H8 C14 1.073 1_555 1_555
H9 C16 1.072 1_555 1_555
H10 C17 1.084 1_555 1_555
H11 C20 1.083 1_555 1_555
H12 C21 1.082 1_555 1_555
H13 C22 1.075 1_555 1_555
H14 C23 1.084 1_555 1_555
H15 C26 1.065 1_555 1_555
H16 C28 1.072 1_555 1_555
C5 C10 1.435 1_555 1_555
C19 C24 1.419 1_555 1_555
#END
