
#######################################################################
#
#                 Cambridge Crystallographic Data Centre
#                                CCDC
#
#######################################################################
#
# If this CIF has been generated from an entry in the Cambridge
# Structural Database, then it will include bibliographic, chemical,
# crystal, experimental, refinement or atomic coordinate data resulting
# from the CCDC's data processing and validation procedures.
#
#######################################################################

data_CSD_CIF_DICYIZ
_audit_creation_date 2013-06-17
_audit_creation_method CSD-ConQuest-V1
_database_code_CSD DICYIZ
_database_code_depnum_ccdc_archive 'CCDC 876805'
_chemical_formula_sum 'C58 H36'
_chemical_formula_moiety
;
C58 H36
;
_journal_coden_Cambridge 182
_journal_volume 49
_journal_year 2013
_journal_page_first 6274
_journal_name_full 'Chem.Commun. '
loop_
_publ_author_name
"D.Rodriguez-Lojo"
"D.Perez"
"D.Pena"
"Enrique Guitian"
_chemical_name_systematic
;
9,10,19,20-Tetraphenyltetrabenzo[a,c,j,l]tetracene
;
_cell_volume   3752.302
_exptl_crystal_colour 'colorless'
_exptl_crystal_density_diffrn 1.297
_exptl_crystal_description 'prism'
_diffrn_ambient_temperature 100
#These two values have been output from a single CSD field.
_refine_ls_R_factor_gt 0.0446
_refine_ls_wR_factor_gt 0.0446
_symmetry_cell_setting monoclinic
_symmetry_space_group_name_H-M 'C 2/c'
_symmetry_Int_Tables_number 15
loop_
_symmetry_equiv_pos_site_id
_symmetry_equiv_pos_as_xyz
1 x,y,z
2 -x,y,1/2-z
3 1/2+x,1/2+y,z
4 1/2-x,1/2+y,1/2-z
5 -x,-y,-z
6 x,-y,-1/2+z
7 -1/2-x,-1/2-y,-z
8 -1/2+x,-1/2-y,-1/2+z
_cell_length_a 12.6924(9)
_cell_length_b 21.4857(15)
_cell_length_c 14.4763(9)
_cell_angle_alpha 90
_cell_angle_beta 108.105(4)
_cell_angle_gamma 90
_cell_formula_units_Z 4
loop_
_atom_type_symbol
_atom_type_radius_bond
C 0.68
H 0.23
loop_
_atom_site_label
_atom_site_type_symbol
_atom_site_fract_x
_atom_site_fract_y
_atom_site_fract_z
C1 C 0.72635(16) 0.0078(1) 0.49503(13)
C2 C 0.68311(17) -0.0319(1) 0.55109(14)
H1 H 0.61240 -0.05040 0.52270
C3 C 0.74139(17) -0.04452(10) 0.64665(14)
H2 H 0.71120 -0.07220 0.68290
C4 C 0.84366(18) -0.01721(10) 0.69033(14)
H3 H 0.88350 -0.02600 0.75630
C5 C 0.88676(17) 0.02274(10) 0.63720(14)
H4 H 0.95610 0.04220 0.66740
C6 C 0.83028(16) 0.03518(9) 0.53949(13)
C7 C 0.87759(16) 0.07667(9) 0.48260(13)
C8 C 0.99243(17) 0.08537(10) 0.50679(15)
H5 H 1.04010 0.06510 0.56250
C9 C 1.03765(17) 0.12257(10) 0.45164(14)
H6 H 1.11570 0.12740 0.46820
C10 C 0.96764(17) 0.15294(10) 0.37148(14)
H7 H 0.99810 0.17910 0.33330
C11 C 0.85421(17) 0.14563(10) 0.34652(14)
H8 H 0.80790 0.16720 0.29160
C12 C 0.80571(16) 0.10717(9) 0.40033(13)
C13 C 0.68701(16) 0.08887(9) 0.36619(13)
C14 C 0.60224(16) 0.12339(10) 0.30198(13)
C15 C 0.50000 0.09287(13) 0.25000
C16 C 0.50000 0.02631(14) 0.25000
C17 C 0.57457(16) -0.00518(10) 0.33163(13)
C18 C 0.66141(16) 0.02814(9) 0.39520(13)
C19 C 0.62042(16) 0.19022(10) 0.28505(14)
C20 C 0.64807(16) 0.23242(10) 0.36264(15)
H9 H 0.65600 0.21790 0.42650
C21 C 0.66389(17) 0.29453(11) 0.34786(18)
H10 H 0.68030 0.32270 0.40100
C22 C 0.65598(18) 0.31617(11) 0.25586(19)
H11 H 0.66790 0.35900 0.24590
C23 C 0.63078(18) 0.27524(12) 0.17902(17)
H12 H 0.62590 0.28990 0.11590
C24 C 0.61241(17) 0.21274(11) 0.19276(15)
H13 H 0.59420 0.18510 0.13890
C25 C 0.55516(16) -0.0711(1) 0.35349(13)
C26 C 0.45719(17) -0.08798(10) 0.37043(13)
H14 H 0.39810 -0.05890 0.35780
C27 C 0.4442(2) -0.14631(11) 0.40531(15)
H15 H 0.37760 -0.15670 0.41860
C28 C 0.5283(2) -0.18947(11) 0.42076(15)
H16 H 0.51990 -0.22950 0.44540
C29 C 0.6248(2) -0.17467(11) 0.40046(15)
H17 H 0.68180 -0.20480 0.40940
C30 C 0.63799(18) -0.11549(10) 0.36695(14)
H18 H 0.70440 -0.10530 0.35310
C1A C 0.27365(16) 0.0078(1) 0.00497(13)
C2A C 0.31689(17) -0.0319(1) -0.05109(14)
H1A H 0.38760 -0.05040 -0.02270
C3A C 0.25861(17) -0.04452(10) -0.14665(14)
H2A H 0.28880 -0.07220 -0.18290
C4A C 0.15634(18) -0.01721(10) -0.19033(14)
H3A H 0.11650 -0.02600 -0.25630
C5A C 0.11324(17) 0.02274(10) -0.13720(14)
H4A H 0.04390 0.04220 -0.16740
C6A C 0.16972(16) 0.03518(9) -0.03949(13)
C7A C 0.12241(16) 0.07667(9) 0.01740(13)
C8A C 0.00757(17) 0.08537(10) -0.00679(15)
H5A H -0.04010 0.06510 -0.06250
C9A C -0.03765(17) 0.12257(10) 0.04836(14)
H6A H -0.11570 0.12740 0.03180
C10A C 0.03236(17) 0.15294(10) 0.12852(14)
H7A H 0.00190 0.17910 0.16670
C11A C 0.14579(17) 0.14563(10) 0.15348(14)
H8A H 0.19210 0.16720 0.20840
C12A C 0.19429(16) 0.10717(9) 0.09967(13)
C13A C 0.31299(16) 0.08887(9) 0.13381(13)
C14A C 0.39776(16) 0.12339(10) 0.19802(13)
C17A C 0.42543(16) -0.00518(10) 0.16837(13)
C18A C 0.33859(16) 0.02814(9) 0.10480(13)
C19A C 0.37958(16) 0.19022(10) 0.21495(14)
C20A C 0.35193(16) 0.23242(10) 0.13736(15)
H9A H 0.34400 0.21790 0.07350
C21A C 0.33611(17) 0.29453(11) 0.15214(18)
H10A H 0.31970 0.32270 0.09900
C22A C 0.34402(18) 0.31617(11) 0.24414(19)
H11A H 0.33210 0.35900 0.25410
C23A C 0.36922(18) 0.27524(12) 0.32098(17)
H12A H 0.37410 0.28990 0.38410
C24A C 0.38759(17) 0.21274(11) 0.30724(15)
H13A H 0.40580 0.18510 0.36110
C25A C 0.44484(16) -0.0711(1) 0.14651(13)
C26A C 0.54281(17) -0.08798(10) 0.12957(13)
H14A H 0.60190 -0.05890 0.14220
C27A C 0.5558(2) -0.14631(11) 0.09469(15)
H15A H 0.62240 -0.15670 0.08140
C28A C 0.4717(2) -0.18947(11) 0.07924(15)
H16A H 0.48010 -0.22950 0.05460
C29A C 0.3752(2) -0.17467(11) 0.09954(15)
H17A H 0.31820 -0.20480 0.09060
C30A C 0.36201(18) -0.11549(10) 0.13305(14)
H18A H 0.29560 -0.10530 0.14690
loop_
_geom_bond_atom_site_label_1
_geom_bond_atom_site_label_2
_geom_bond_distance
_geom_bond_site_symmetry_1
_geom_bond_site_symmetry_2
C1 C2 1.401 1_555 1_555
C2 H1 0.950 1_555 1_555
C3 C2 1.378 1_555 1_555
H2 C3 0.949 1_555 1_555
C4 C3 1.385 1_555 1_555
H3 C4 0.950 1_555 1_555
C5 C4 1.374 1_555 1_555
H4 C5 0.949 1_555 1_555
C6 C1 1.405 1_555 1_555
C7 C6 1.463 1_555 1_555
C8 C7 1.402 1_555 1_555
H5 C8 0.950 1_555 1_555
C9 C8 1.375 1_555 1_555
H6 C9 0.950 1_555 1_555
C10 C9 1.386 1_555 1_555
H7 C10 0.951 1_555 1_555
C11 C10 1.380 1_555 1_555
H8 C11 0.950 1_555 1_555
C12 C7 1.416 1_555 1_555
C13 C12 1.485 1_555 1_555
C14 C13 1.396 1_555 1_555
C15 C14 1.440 1_555 1_555
C16 C15 1.430 1_555 1_555
C17 C16 1.433 1_555 1_555
C18 C1 1.489 1_555 1_555
C19 C14 1.487 1_555 1_555
C20 C19 1.401 1_555 1_555
H9 C20 0.951 1_555 1_555
C21 C20 1.376 1_555 1_555
H10 C21 0.950 1_555 1_555
C22 C21 1.385 1_555 1_555
H11 C22 0.951 1_555 1_555
C23 C22 1.375 1_555 1_555
H12 C23 0.950 1_555 1_555
C24 C19 1.395 1_555 1_555
H13 C24 0.950 1_555 1_555
C25 C17 1.488 1_555 1_555
C26 C25 1.388 1_555 1_555
H14 C26 0.949 1_555 1_555
C27 C26 1.380 1_555 1_555
H15 C27 0.950 1_555 1_555
C28 C27 1.379 1_555 1_555
H16 C28 0.950 1_555 1_555
C29 C28 1.383 1_555 1_555
H17 C29 0.949 1_555 1_555
C30 C25 1.388 1_555 1_555
H18 C30 0.951 1_555 1_555
C1A C2A 1.401 1_555 1_555
C2A H1A 0.950 1_555 1_555
C3A C2A 1.378 1_555 1_555
H2A C3A 0.949 1_555 1_555
C4A C3A 1.385 1_555 1_555
H3A C4A 0.950 1_555 1_555
C5A C4A 1.374 1_555 1_555
H4A C5A 0.949 1_555 1_555
C6A C1A 1.405 1_555 1_555
C7A C6A 1.463 1_555 1_555
C8A C7A 1.402 1_555 1_555
H5A C8A 0.950 1_555 1_555
C9A C8A 1.375 1_555 1_555
H6A C9A 0.950 1_555 1_555
C10A C9A 1.386 1_555 1_555
H7A C10A 0.951 1_555 1_555
C11A C10A 1.380 1_555 1_555
H8A C11A 0.950 1_555 1_555
C12A C7A 1.416 1_555 1_555
C13A C12A 1.485 1_555 1_555
C14A C15 1.440 1_555 1_555
C17A C16 1.433 1_555 1_555
C18A C1A 1.489 1_555 1_555
C19A C14A 1.487 1_555 1_555
C20A C19A 1.401 1_555 1_555
H9A C20A 0.951 1_555 1_555
C21A C20A 1.376 1_555 1_555
H10A C21A 0.950 1_555 1_555
C22A C21A 1.385 1_555 1_555
H11A C22A 0.951 1_555 1_555
C23A C22A 1.375 1_555 1_555
H12A C23A 0.950 1_555 1_555
C24A C19A 1.395 1_555 1_555
H13A C24A 0.950 1_555 1_555
C25A C17A 1.488 1_555 1_555
C26A C25A 1.388 1_555 1_555
H14A C26A 0.949 1_555 1_555
C27A C26A 1.380 1_555 1_555
H15A C27A 0.950 1_555 1_555
C28A C27A 1.379 1_555 1_555
H16A C28A 0.950 1_555 1_555
C29A C28A 1.383 1_555 1_555
H17A C29A 0.949 1_555 1_555
C30A C25A 1.388 1_555 1_555
H18A C30A 0.951 1_555 1_555
C5 C6 1.399 1_555 1_555
C11 C12 1.402 1_555 1_555
C13 C18 1.439 1_555 1_555
C17 C18 1.394 1_555 1_555
C23 C24 1.388 1_555 1_555
C29 C30 1.389 1_555 1_555
C5A C6A 1.399 1_555 1_555
C11A C12A 1.402 1_555 1_555
C13A C14A 1.396 1_555 1_555
C13A C18A 1.439 1_555 1_555
C17A C18A 1.394 1_555 1_555
C23A C24A 1.388 1_555 1_555
C29A C30A 1.389 1_555 1_555
#END
