
#######################################################################
#
#                 Cambridge Crystallographic Data Centre
#                                CCDC
#
#######################################################################
#
# If this CIF has been generated from an entry in the Cambridge
# Structural Database, then it will include bibliographic, chemical,
# crystal, experimental, refinement or atomic coordinate data resulting
# from the CCDC's data processing and validation procedures.
#
#######################################################################

data_CSD_CIF_DIDMEJ
_audit_creation_date 2007-07-03
_audit_creation_method CSD-ConQuest-V1
_database_code_CSD DIDMEJ
_database_code_depnum_ccdc_archive 'CCDC 645682'
_chemical_formula_sum 'C26 H28'
_chemical_formula_moiety
;
C26 H28
;
_journal_coden_Cambridge 35
_journal_volume 72
_journal_year 2007
_journal_page_first 2279
_journal_name_full 'J.Org.Chem. '
loop_
_publ_author_name
"B.T.King"
"J.Kroulik"
"C.R.Robertson"
"P.Rempala"
"C.L.Hilton"
"J.D.Korinek"
"L.M.Gortari"
_chemical_name_systematic
;
2,11-Di-t-butyltriphenylene
;
_chemical_melting_point 440.15
_cell_volume   4005.027
_exptl_crystal_colour 'colorless'
_exptl_crystal_density_diffrn 1.129
_exptl_special_details
;
Melting point range 440.15-442.15K

;
_exptl_crystal_description 'plate'
_diffrn_ambient_temperature 100
#These two values have been output from a single CSD field.
_refine_ls_R_factor_gt 0.0546
_refine_ls_wR_factor_gt 0.0546
_symmetry_cell_setting orthorhombic
_symmetry_space_group_name_H-M 'P b c a'
_symmetry_Int_Tables_number 61
loop_
_symmetry_equiv_pos_site_id
_symmetry_equiv_pos_as_xyz
1 x,y,z
2 1/2-x,-y,1/2+z
3 -x,1/2+y,1/2-z
4 1/2+x,1/2-y,-z
5 -x,-y,-z
6 -1/2+x,y,-1/2-z
7 x,-1/2-y,-1/2+z
8 -1/2-x,-1/2+y,z
_cell_length_a 12.6177(3)
_cell_length_b 10.3795(3)
_cell_length_c 30.5808(8)
_cell_angle_alpha 90
_cell_angle_beta 90
_cell_angle_gamma 90
_cell_formula_units_Z 8
loop_
_atom_type_symbol
_atom_type_radius_bond
C 0.68
H 0.23
loop_
_atom_site_label
_atom_site_type_symbol
_atom_site_fract_x
_atom_site_fract_y
_atom_site_fract_z
C1 C -0.04487(12) 0.32610(14) 0.11666(5)
H1 H -0.04370 0.26540 0.09340
C2 C -0.10221(12) 0.43863(14) 0.11130(5)
C3 C -0.10393(13) 0.52552(15) 0.14667(5)
H2 H -0.14260 0.60370 0.14410
C4 C -0.05086(13) 0.49929(15) 0.18478(5)
H3 H -0.05420 0.55960 0.20810
C5 C 0.06330(13) 0.44459(16) 0.26674(5)
H4 H 0.01330 0.51310 0.26660
C6 C 0.12795(14) 0.42801(17) 0.30253(6)
H5 H 0.12200 0.48430 0.32690
C7 C 0.20220(14) 0.32837(16) 0.30300(5)
H6 H 0.24880 0.31890 0.32720
C8 C 0.20788(13) 0.24394(16) 0.26840(5)
H7 H 0.25800 0.17570 0.26920
C9 C 0.20864(13) 0.05377(15) 0.19688(5)
H8 H 0.25230 0.03970 0.22170
C10 C 0.21058(13) -0.03369(15) 0.16324(5)
H9 H 0.25620 -0.10630 0.16510
C11 C 0.14641(12) -0.01810(14) 0.12603(5)
C12 C 0.08124(12) 0.08896(14) 0.12466(5)
H10 H 0.03660 0.10070 0.10000
C13 C 0.00839(12) 0.38552(15) 0.19033(5)
C14 C 0.06970(12) 0.36171(15) 0.23008(5)
C15 C 0.14074(12) 0.25663(15) 0.23171(5)
C16 C 0.14337(12) 0.16417(14) 0.19550(5)
C17 C 0.07844(12) 0.18179(14) 0.15856(5)
C18 C 0.01211(12) 0.29755(14) 0.15526(5)
C19 C -0.15997(12) 0.47280(15) 0.06881(5)
C20 C -0.27801(13) 0.49717(18) 0.07845(6)
H11 H -0.31480 0.51860 0.05120
H12 H -0.28480 0.56890 0.09910
H13 H -0.30950 0.41950 0.09120
C21 C -0.11054(15) 0.59593(16) 0.04966(6)
H14 H -0.03540 0.58080 0.04340
H15 H -0.11730 0.66640 0.07080
H16 H -0.14740 0.61910 0.02260
C22 C -0.15211(15) 0.36595(16) 0.03455(6)
H17 H -0.07750 0.35110 0.02720
H18 H -0.19080 0.39170 0.00820
H19 H -0.18290 0.28650 0.04630
C23 C 0.15111(13) -0.11861(15) 0.08953(5)
C24 C 0.07653(15) -0.08758(17) 0.05158(6)
H20 H 0.00330 -0.08470 0.06230
H21 H 0.08290 -0.15440 0.02910
H22 H 0.09550 -0.00380 0.03900
C25 C 0.12135(15) -0.25073(16) 0.10861(6)
H23 H 0.04990 -0.24650 0.12110
H24 H 0.17210 -0.27420 0.13150
H25 H 0.12300 -0.31570 0.08540
C26 C 0.26515(14) -0.12534(18) 0.07164(6)
H26 H 0.26920 -0.19160 0.04890
H27 H 0.31400 -0.14710 0.09540
H28 H 0.28480 -0.04160 0.05920
loop_
_geom_bond_atom_site_label_1
_geom_bond_atom_site_label_2
_geom_bond_distance
_geom_bond_site_symmetry_1
_geom_bond_site_symmetry_2
C1 H1 0.950 1_555 1_555
C2 C1 1.384 1_555 1_555
C3 C2 1.408 1_555 1_555
H2 C3 0.950 1_555 1_555
C4 C3 1.371 1_555 1_555
H3 C4 0.950 1_555 1_555
C5 H4 0.951 1_555 1_555
C6 C5 1.376 1_555 1_555
H5 C6 0.950 1_555 1_555
C7 C6 1.396 1_555 1_555
H6 C7 0.950 1_555 1_555
C8 C7 1.376 1_555 1_555
H7 C8 0.950 1_555 1_555
C9 H8 0.949 1_555 1_555
C10 C9 1.372 1_555 1_555
H9 C10 0.950 1_555 1_555
C11 C10 1.406 1_555 1_555
C12 C11 1.383 1_555 1_555
H10 C12 0.949 1_555 1_555
C13 C4 1.408 1_555 1_555
C14 C5 1.415 1_555 1_555
C15 C8 1.412 1_555 1_555
C16 C9 1.412 1_555 1_555
C17 C12 1.416 1_555 1_555
C18 C1 1.414 1_555 1_555
C19 C2 1.531 1_555 1_555
C20 C19 1.539 1_555 1_555
H11 C20 0.979 1_555 1_555
H12 C20 0.980 1_555 1_555
H13 C20 0.980 1_555 1_555
C21 C19 1.538 1_555 1_555
H14 C21 0.980 1_555 1_555
H15 C21 0.980 1_555 1_555
H16 C21 0.979 1_555 1_555
C22 C19 1.529 1_555 1_555
H17 C22 0.980 1_555 1_555
H18 C22 0.979 1_555 1_555
H19 C22 0.980 1_555 1_555
C23 C11 1.529 1_555 1_555
C24 C23 1.528 1_555 1_555
H20 C24 0.981 1_555 1_555
H21 C24 0.980 1_555 1_555
H22 C24 0.981 1_555 1_555
C25 C23 1.537 1_555 1_555
H23 C25 0.980 1_555 1_555
H24 C25 0.979 1_555 1_555
H25 C25 0.979 1_555 1_555
C26 C23 1.541 1_555 1_555
H26 C26 0.979 1_555 1_555
H27 C26 0.979 1_555 1_555
H28 C26 0.981 1_555 1_555
C13 C14 1.462 1_555 1_555
C13 C18 1.409 1_555 1_555
C14 C15 1.413 1_555 1_555
C15 C16 1.466 1_555 1_555
C16 C17 1.407 1_555 1_555
C17 C18 1.468 1_555 1_555
#END
