
#######################################################################
#
#                 Cambridge Crystallographic Data Centre
#                                CCDC
#
#######################################################################
#
# If this CIF has been generated from an entry in the Cambridge
# Structural Database, then it will include bibliographic, chemical,
# crystal, experimental, refinement or atomic coordinate data resulting
# from the CCDC's data processing and validation procedures.
#
#######################################################################

data_CSD_CIF_DIGGIL
_audit_creation_date 2013-06-17
_audit_creation_method CSD-ConQuest-V1
_database_code_CSD DIGGIL
_database_code_depnum_ccdc_archive 'CCDC 727725'
_chemical_formula_sum 'C27 H18'
_chemical_formula_moiety
;
C27 H18
;
_journal_coden_Cambridge 1500
_journal_volume 3
_journal_year 2013
_journal_page_first 9016
_journal_name_full 'RSC Advances '
loop_
_publ_author_name
"Ming-Yu Teng"
"Ying Liu"
"Shao-Lu Li"
"Guoli Huang"
"Juli Jiang"
"Leyong Wang"
_chemical_name_systematic
;
13-Phenyl-13H-dibenzo[a,i]fluorene
;
_cell_volume   1789.072
_exptl_crystal_colour 'colorless'
_exptl_crystal_density_diffrn 1.271
_exptl_crystal_description 'needle'
_diffrn_ambient_temperature 153
#These two values have been output from a single CSD field.
_refine_ls_R_factor_gt 0.0662
_refine_ls_wR_factor_gt 0.0662
_symmetry_cell_setting triclinic
_symmetry_space_group_name_H-M 'P -1'
_symmetry_Int_Tables_number 2
loop_
_symmetry_equiv_pos_site_id
_symmetry_equiv_pos_as_xyz
1 x,y,z
2 -x,-y,-z
_cell_length_a 12.975(3)
_cell_length_b 7.2022(15)
_cell_length_c 19.200(4)
_cell_angle_alpha 90
_cell_angle_beta 94.338(3)
_cell_angle_gamma 90
_cell_formula_units_Z 4
loop_
_atom_type_symbol
_atom_type_radius_bond
C 0.68
H 0.23
loop_
_atom_site_label
_atom_site_type_symbol
_atom_site_fract_x
_atom_site_fract_y
_atom_site_fract_z
C1 C 0.4145(3) 0.9080(4) 0.40201(15)
C2 C -0.0203(3) 1.0577(4) 0.26657(17)
C3 C 0.2891(3) 1.1270(4) 0.34957(16)
C4 C 0.1808(3) 1.1279(4) 0.31993(16)
C5 C 0.1372(2) 0.9579(4) 0.33168(15)
C6 C 0.0345(3) 0.9130(4) 0.30544(16)
C7 C 0.2158(2) 0.8323(4) 0.37262(15)
H1 H 0.22860 0.72070 0.34540
C8 C 0.4909(3) 1.0477(4) 0.39740(17)
C9 C 0.3114(2) 0.9565(4) 0.37720(15)
C10 C 0.1799(2) 0.7779(4) 0.44391(16)
C11 C 0.0251(3) 1.2278(5) 0.25632(17)
H2 H -0.01220 1.31780 0.23050
C12 C 0.1246(3) 1.2687(4) 0.28329(17)
H3 H 0.15320 1.38550 0.27740
C13 C 0.1482(3) 0.9155(5) 0.48804(17)
H4 H 0.15070 1.03960 0.47490
C14 C 0.4440(3) 0.7296(5) 0.42544(16)
H5 H 0.39450 0.63720 0.42840
C15 C 0.3650(3) 1.2671(5) 0.34708(17)
H6 H 0.34820 1.38450 0.32940
C16 C 0.4632(3) 1.2247(5) 0.37136(18)
H7 H 0.51390 1.31580 0.37080
C17 C -0.1205(3) 1.0128(5) 0.23614(18)
H8 H -0.15680 1.10130 0.20890
C18 C 0.5467(3) 0.6916(5) 0.44402(18)
H9 H 0.56610 0.57350 0.45950
C19 C -0.0132(3) 0.7440(5) 0.31484(18)
H10 H 0.02180 0.65330 0.34170
C20 C -0.1109(3) 0.7065(5) 0.2855(2)
H11 H -0.14120 0.59130 0.29200
C21 C 0.5957(3) 1.0024(5) 0.41810(19)
H12 H 0.64640 1.09340 0.41660
C22 C 0.6223(3) 0.8304(5) 0.43967(19)
H13 H 0.69140 0.80270 0.45180
C23 C 0.1127(3) 0.8669(6) 0.55184(18)
H14 H 0.09070 0.95910 0.58120
C24 C 0.1770(3) 0.5958(4) 0.46480(19)
H15 H 0.19920 0.50290 0.43580
C25 C -0.1647(3) 0.8447(5) 0.2457(2)
H16 H -0.23090 0.82070 0.22570
C26 C 0.1411(3) 0.5495(6) 0.5290(2)
H17 H 0.13860 0.42580 0.54250
C27 C 0.1097(3) 0.6856(6) 0.5721(2)
H18 H 0.08620 0.65470 0.61520
C28 C 0.0871(3) 0.4079(4) 0.09879(16)
C29 C 0.3194(3) 0.6290(4) 0.17969(16)
C30 C 0.2114(3) 0.6268(4) 0.15042(16)
C31 C 0.5209(3) 0.5561(4) 0.23373(17)
C32 C 0.4651(2) 0.4144(4) 0.19409(16)
C33 C 0.1877(2) 0.4550(4) 0.12237(15)
C34 C 0.3623(3) 0.4562(4) 0.16803(15)
C35 C 0.0101(3) 0.5498(5) 0.10283(16)
C36 C 0.2846(2) 0.3330(4) 0.12734(15)
H19 H 0.27210 0.22150 0.15470
C37 C 0.3201(2) 0.2764(4) 0.05630(16)
C38 C 0.0374(3) 0.7241(5) 0.12908(18)
H20 H -0.01320 0.81530 0.13000
C39 C 0.0554(3) 0.2312(5) 0.07412(17)
H21 H 0.10560 0.14050 0.07010
C40 C 0.4740(3) 0.7305(5) 0.24396(17)
H22 H 0.51090 0.82220 0.26920
C41 C 0.3756(3) 0.7659(5) 0.21740(17)
H23 H 0.34590 0.88120 0.22440
C42 C 0.1348(3) 0.7652(4) 0.15327(17)
H24 H 0.15130 0.88210 0.17140
C43 C 0.3528(2) 0.4123(5) 0.01216(17)
H25 H 0.35170 0.53610 0.02590
C44 C -0.0466(3) 0.1858(5) 0.05561(17)
H26 H -0.06560 0.06670 0.04100
C45 C -0.0942(3) 0.5005(5) 0.08211(19)
H27 H -0.14530 0.59050 0.08410
C46 C 0.6212(3) 0.5141(5) 0.26352(18)
H28 H 0.65860 0.60350 0.28970
C47 C 0.5128(2) 0.2435(4) 0.18473(17)
H29 H 0.47790 0.15110 0.15860
C48 C 0.6102(3) 0.2112(5) 0.2136(2)
H30 H 0.64160 0.09780 0.20590
C49 C -0.1215(3) 0.3301(5) 0.05999(19)
H31 H -0.19070 0.30500 0.04720
C50 C 0.3873(3) 0.3669(6) -0.05226(18)
H32 H 0.40810 0.45950 -0.08190
C51 C 0.3226(3) 0.0957(5) 0.03513(19)
H33 H 0.30040 0.00290 0.06420
C52 C 0.6634(3) 0.3436(5) 0.2542(2)
H34 H 0.72850 0.31600 0.27520
C53 C 0.3904(3) 0.1840(6) -0.0717(2)
H35 H 0.41510 0.15250 -0.11440
C54 C 0.3578(3) 0.0477(6) -0.0293(2)
H36 H 0.35890 -0.07600 -0.04320
loop_
_geom_bond_atom_site_label_1
_geom_bond_atom_site_label_2
_geom_bond_distance
_geom_bond_site_symmetry_1
_geom_bond_site_symmetry_2
C1 C8 1.420 1_555 1_555
C2 C6 1.438 1_555 1_555
C3 C4 1.476 1_555 1_555
C4 C5 1.375 1_555 1_555
C5 C6 1.426 1_555 1_555
C6 C19 1.383 1_555 1_555
C7 C5 1.535 1_555 1_555
H1 C7 0.980 1_555 1_555
C8 C16 1.406 1_555 1_555
C9 C1 1.429 1_555 1_555
C10 C7 1.530 1_555 1_555
C11 C2 1.380 1_555 1_555
H2 C11 0.929 1_555 1_555
C12 C4 1.406 1_555 1_555
H3 C12 0.930 1_555 1_555
C13 C10 1.386 1_555 1_555
H4 C13 0.930 1_555 1_555
C14 C1 1.405 1_555 1_555
H5 C14 0.930 1_555 1_555
C15 C3 1.413 1_555 1_555
H6 C15 0.931 1_555 1_555
C16 C15 1.358 1_555 1_555
H7 C16 0.930 1_555 1_555
C17 C2 1.422 1_555 1_555
H8 C17 0.930 1_555 1_555
C18 C14 1.381 1_555 1_555
H9 C18 0.929 1_555 1_555
C19 H10 0.929 1_555 1_555
C20 C19 1.374 1_555 1_555
H11 C20 0.931 1_555 1_555
C21 C8 1.425 1_555 1_555
H12 C21 0.931 1_555 1_555
C22 C18 1.407 1_555 1_555
H13 C22 0.931 1_555 1_555
C23 C13 1.386 1_555 1_555
H14 C23 0.930 1_555 1_555
C24 C10 1.373 1_555 1_555
H15 C24 0.930 1_555 1_555
C25 C17 1.358 1_555 1_555
H16 C25 0.930 1_555 1_555
C26 C24 1.391 1_555 1_555
H17 C26 0.929 1_555 1_555
C27 C23 1.364 1_555 1_555
H18 C27 0.930 1_555 1_555
C28 C33 1.391 1_555 1_555
C29 C30 1.470 1_555 1_555
C30 C33 1.375 1_555 1_555
C31 C32 1.436 1_555 1_555
C32 C34 1.421 1_555 1_555
C33 C36 1.531 1_555 1_555
C34 C29 1.388 1_555 1_555
C35 C28 1.435 1_555 1_555
C36 C34 1.515 1_555 1_555
H19 C36 0.980 1_555 1_555
C37 C36 1.528 1_555 1_555
C38 C35 1.389 1_555 1_555
H20 C38 0.930 1_555 1_555
C39 C28 1.408 1_555 1_555
H21 C39 0.930 1_555 1_555
C40 C31 1.416 1_555 1_555
H22 C40 0.930 1_555 1_555
C41 C29 1.396 1_555 1_555
H23 C41 0.930 1_555 1_555
C42 C30 1.412 1_555 1_555
H24 C42 0.930 1_555 1_555
C43 C37 1.382 1_555 1_555
H25 C43 0.930 1_555 1_555
C44 C39 1.383 1_555 1_555
H26 C44 0.930 1_555 1_555
C45 C35 1.426 1_555 1_555
H27 C45 0.930 1_555 1_555
C46 C31 1.414 1_555 1_555
H28 C46 0.930 1_555 1_555
C47 C32 1.395 1_555 1_555
H29 C47 0.930 1_555 1_555
C48 C47 1.361 1_555 1_555
H30 C48 0.930 1_555 1_555
C49 C44 1.430 1_555 1_555
H31 C49 0.930 1_555 1_555
C50 C43 1.386 1_555 1_555
H32 C50 0.930 1_555 1_555
C51 C37 1.365 1_555 1_555
H33 C51 0.930 1_555 1_555
C52 C46 1.362 1_555 1_555
H34 C52 0.930 1_555 1_555
C53 C50 1.371 1_555 1_555
H35 C53 0.931 1_555 1_555
C54 C51 1.394 1_555 1_555
H36 C54 0.930 1_555 1_555
C3 C9 1.360 1_555 1_555
C7 C9 1.526 1_555 1_555
C11 C12 1.386 1_555 1_555
C20 C25 1.408 1_555 1_555
C21 C22 1.343 1_555 1_555
C26 C27 1.365 1_555 1_555
C38 C42 1.346 1_555 1_555
C40 C41 1.363 1_555 1_555
C45 C49 1.338 1_555 1_555
C48 C52 1.383 1_555 1_555
C53 C54 1.363 1_555 1_555
#END
