
#######################################################################
#
#                 Cambridge Crystallographic Data Centre
#                                CCDC
#
#######################################################################
#
# If this CIF has been generated from an entry in the Cambridge
# Structural Database, then it will include bibliographic, chemical,
# crystal, experimental, refinement or atomic coordinate data resulting
# from the CCDC's data processing and validation procedures.
#
#######################################################################

data_CSD_CIF_DITBEN03
_audit_creation_date 2015-08-31
_audit_creation_method CSD-ConQuest-V1
_database_code_CSD DITBEN03
_database_code_depnum_ccdc_archive 'CCDC 1059439'
_chemical_formula_sum 'C30 H18'
_chemical_formula_moiety
;
C30 H18
;
_journal_coden_Cambridge 24
_journal_volume 56
_journal_year 2015
_journal_page_first 4574
_journal_name_full 'Tetrahedron Lett. '
loop_
_publ_author_name
"B.Eichler"
"J.Erickson"
"J.Keppen"
"A.Sykes"
"G.Sereda"
_chemical_name_systematic
;
1,2-bis(9-Anthracenyl)ethyne
;
_chemical_melting_point 584
_cell_volume   2026.048
_exptl_crystal_colour 'orange'
_exptl_crystal_density_diffrn 1.241
_exptl_special_details
;
Luminescent
C2/c polymorph

;
_exptl_crystal_description 'Needle'
_exptl_crystal_preparation 'dichloromethane'
_diffrn_ambient_temperature 295
#These two values have been output from a single CSD field.
_refine_ls_R_factor_gt 0.0406
_refine_ls_wR_factor_gt 0.0406
_symmetry_cell_setting monoclinic
_symmetry_space_group_name_H-M 'C 2/c'
_symmetry_Int_Tables_number 15
loop_
_symmetry_equiv_pos_site_id
_symmetry_equiv_pos_as_xyz
1 x,y,z
2 -x,y,1/2-z
3 1/2+x,1/2+y,z
4 1/2-x,1/2+y,1/2-z
5 -x,-y,-z
6 x,-y,-1/2+z
7 -1/2-x,-1/2-y,-z
8 -1/2+x,-1/2-y,-1/2+z
_cell_length_a 13.0387(30)
_cell_length_b 14.2721(30)
_cell_length_c 11.8109(22)
_cell_angle_alpha 90
_cell_angle_beta 112.8069(20)
_cell_angle_gamma 90
_cell_formula_units_Z 4
loop_
_atom_type_symbol
_atom_type_radius_bond
C 0.68
H 0.23
loop_
_atom_site_label
_atom_site_type_symbol
_atom_site_fract_x
_atom_site_fract_y
_atom_site_fract_z
C1 C 0.09966(11) 0.36560(12) 0.51597(13)
H1 H 0.02270 0.36800 0.47590
C2 C 0.26677(10) 0.28838(10) 0.66240(12)
C3 C 0.33314(10) 0.36099(10) 0.64259(11)
C4 C 0.28392(11) 0.43354(10) 0.55548(12)
C5 C 0.14710(11) 0.29168(11) 0.59787(13)
C6 C 0.16391(11) 0.43623(11) 0.49202(12)
C7 C 0.11539(14) 0.51178(14) 0.40774(15)
H2 H 0.03840 0.51510 0.36800
C8 C 0.31367(13) 0.21213(11) 0.74543(14)
H3 H 0.39050 0.20860 0.78690
C9 C 0.29743(16) 0.57491(13) 0.44441(16)
H4 H 0.34060 0.62010 0.42710
C10 C 0.45176(10) 0.36199(10) 0.71556(12)
C11 C 0.34796(13) 0.50503(11) 0.52736(14)
H5 H 0.42510 0.50400 0.56610
C12 C 0.08191(14) 0.21860(14) 0.62286(16)
H6 H 0.00490 0.21960 0.58290
C13 C 0.24816(16) 0.14469(13) 0.76499(16)
H7 H 0.28080 0.09580 0.81910
C14 C 0.13099(17) 0.14837(15) 0.70368(18)
H8 H 0.08720 0.10250 0.71870
C15 C 0.17932(18) 0.57858(15) 0.38469(16)
H9 H 0.14580 0.62680 0.32980
C1A C 0.90034(11) 0.36560(12) 0.98403(13)
H1A H 0.97730 0.36800 1.02410
C2A C 0.73323(10) 0.28838(10) 0.83760(12)
C3A C 0.66686(10) 0.36099(10) 0.85741(11)
C4A C 0.71608(11) 0.43354(10) 0.94452(12)
C5A C 0.85290(11) 0.29168(11) 0.90213(13)
C6A C 0.83609(11) 0.43623(11) 1.00798(12)
C7A C 0.88461(14) 0.51178(14) 1.09226(15)
H2A H 0.96160 0.51510 1.13200
C8A C 0.68633(13) 0.21213(11) 0.75457(14)
H3A H 0.60950 0.20860 0.71310
C9A C 0.70257(16) 0.57491(13) 1.05559(16)
H4A H 0.65940 0.62010 1.07290
C10A C 0.54824(10) 0.36199(10) 0.78444(12)
C11A C 0.65204(13) 0.50503(11) 0.97264(14)
H5A H 0.57490 0.50400 0.93390
C12A C 0.91809(14) 0.21860(14) 0.87714(16)
H6A H 0.99510 0.21960 0.91710
C13A C 0.75184(16) 0.14469(13) 0.73501(16)
H7A H 0.71920 0.09580 0.68090
C14A C 0.86901(17) 0.14837(15) 0.79632(18)
H8A H 0.91280 0.10250 0.78130
C15A C 0.82068(18) 0.57858(15) 1.11531(16)
H9A H 0.85420 0.62680 1.17020
loop_
_geom_bond_atom_site_label_1
_geom_bond_atom_site_label_2
_geom_bond_distance
_geom_bond_site_symmetry_1
_geom_bond_site_symmetry_2
C1 H1 0.929 1_555 1_555
C2 C3 1.426 1_555 1_555
C3 C4 1.425 1_555 1_555
C4 C6 1.450 1_555 1_555
C5 C1 1.403 1_555 1_555
C6 C1 1.408 1_555 1_555
C7 C6 1.437 1_555 1_555
H2 C7 0.930 1_555 1_555
C8 C2 1.434 1_555 1_555
H3 C8 0.930 1_555 1_555
C9 H4 0.929 1_555 1_555
C10 C3 1.450 1_555 1_555
C11 C4 1.437 1_555 1_555
H5 C11 0.930 1_555 1_555
C12 C5 1.446 1_555 1_555
H6 C12 0.929 1_555 1_555
C13 C8 1.365 1_555 1_555
H7 C13 0.930 1_555 1_555
C14 C12 1.361 1_555 1_555
H8 C14 0.930 1_555 1_555
C15 C7 1.362 1_555 1_555
H9 C15 0.930 1_555 1_555
C1A H1A 0.929 1_555 1_555
C2A C3A 1.426 1_555 1_555
C3A C4A 1.425 1_555 1_555
C4A C6A 1.450 1_555 1_555
C5A C1A 1.403 1_555 1_555
C6A C1A 1.408 1_555 1_555
C7A C6A 1.437 1_555 1_555
H2A C7A 0.930 1_555 1_555
C8A C2A 1.434 1_555 1_555
H3A C8A 0.930 1_555 1_555
C9A H4A 0.929 1_555 1_555
C10A C10 1.205 1_555 1_555
C11A C4A 1.437 1_555 1_555
H5A C11A 0.930 1_555 1_555
C12A C5A 1.446 1_555 1_555
H6A C12A 0.929 1_555 1_555
C13A C8A 1.365 1_555 1_555
H7A C13A 0.930 1_555 1_555
C14A C12A 1.361 1_555 1_555
H8A C14A 0.930 1_555 1_555
C15A C7A 1.362 1_555 1_555
H9A C15A 0.930 1_555 1_555
C2 C5 1.448 1_555 1_555
C9 C11 1.374 1_555 1_555
C9 C15 1.425 1_555 1_555
C13 C14 1.415 1_555 1_555
C2A C5A 1.448 1_555 1_555
C3A C10A 1.450 1_555 1_555
C9A C11A 1.374 1_555 1_555
C9A C15A 1.425 1_555 1_555
C13A C14A 1.415 1_555 1_555
#END
