
#######################################################################
#
#                 Cambridge Crystallographic Data Centre
#                                CCDC
#
#######################################################################
#
# If this CIF has been generated from an entry in the Cambridge
# Structural Database, then it will include bibliographic, chemical,
# crystal, experimental, refinement or atomic coordinate data resulting
# from the CCDC's data processing and validation procedures.
#
#######################################################################

data_CSD_CIF_DITBEN02
_audit_creation_date 2015-06-11
_audit_creation_method CSD-ConQuest-V1
_database_code_CSD DITBEN02
_database_code_depnum_ccdc_archive 'CCDC 1036772'
_chemical_formula_sum 'C30 H18'
_chemical_formula_moiety
;
C30 H18
;
_journal_coden_Cambridge 1350
_journal_volume 17
_journal_year 2015
_journal_page_first 4877
_journal_name_full 'CrystEngComm '
loop_
_publ_author_name
"R.I.Goldstein"
"Rui Guo"
"C.Hughes"
"D.P.Maurer"
"T.R.Newhouse"
"T.J.Sisto"
"R.R.Conry"
"S.L.Price"
"D.M.Thamattoor"
_chemical_name_systematic
;
1,2-bis(9-Anthryl)acetylene
;
_cell_volume   1936.627
_exptl_crystal_colour 'yellow'
_exptl_crystal_density_diffrn 1.298
_exptl_special_details
;
beta C2/c polymorph

;
_exptl_crystal_description 'block'
_diffrn_ambient_temperature 173
#These two values have been output from a single CSD field.
_refine_ls_R_factor_gt 0.0485
_refine_ls_wR_factor_gt 0.0485
_symmetry_cell_setting monoclinic
_symmetry_space_group_name_H-M 'C 2/c'
_symmetry_Int_Tables_number 15
loop_
_symmetry_equiv_pos_site_id
_symmetry_equiv_pos_as_xyz
1 x,y,z
2 -x,y,1/2-z
3 1/2+x,1/2+y,z
4 1/2-x,1/2+y,1/2-z
5 -x,-y,-z
6 x,-y,-1/2+z
7 -1/2-x,-1/2-y,-z
8 -1/2+x,-1/2-y,-1/2+z
_cell_length_a 12.8185(10)
_cell_length_b 14.0656(11)
_cell_length_c 11.5956(9)
_cell_angle_alpha 90
_cell_angle_beta 112.133(1)
_cell_angle_gamma 90
_cell_formula_units_Z 4
loop_
_atom_type_symbol
_atom_type_radius_bond
C 0.68
H 0.23
loop_
_atom_site_label
_atom_site_type_symbol
_atom_site_fract_x
_atom_site_fract_y
_atom_site_fract_z
C1 C 0.33263(9) 0.36107(8) 0.6426(1)
C2 C 0.28284(9) 0.43374(9) 0.55494(10)
C3 C 0.34715(11) 0.50577(9) 0.52597(11)
H1 H 0.42520 0.50510 0.56460
C4 C 0.29590(13) 0.57574(11) 0.44239(13)
H2 H 0.33930 0.62190 0.42410
C5 C 0.17662(14) 0.57868(12) 0.38304(13)
H3 H 0.14230 0.62750 0.32770
C6 C 0.11289(12) 0.51058(11) 0.40689(12)
H4 H 0.03500 0.51320 0.36700
C7 C 0.16232(10) 0.43498(9) 0.49170(11)
C8 C 0.09799(10) 0.36361(10) 0.51610(11)
H5 H 0.02010 0.36560 0.47600
C9 C 0.14645(10) 0.28944(9) 0.59840(11)
C10 C 0.08112(11) 0.21557(11) 0.62361(13)
H6 H 0.00320 0.21620 0.58330
C11 C 0.13066(13) 0.14504(11) 0.70485(14)
H7 H 0.08660 0.09790 0.72010
C12 C 0.24891(13) 0.14225(11) 0.76680(13)
H8 H 0.28220 0.09290 0.82180
C13 C 0.31445(11) 0.21114(9) 0.74657(11)
H9 H 0.39220 0.20830 0.78830
C14 C 0.26642(9) 0.28732(8) 0.66292(10)
C15 C 0.45140(9) 0.36287(8) 0.71589(10)
C1A C 0.66737(9) 0.36107(8) 0.8574(1)
C2A C 0.71716(9) 0.43374(9) 0.94506(10)
C3A C 0.65285(11) 0.50577(9) 0.97403(11)
H1A H 0.57480 0.50510 0.93540
C4A C 0.70410(13) 0.57574(11) 1.05761(13)
H2A H 0.66070 0.62190 1.07590
C5A C 0.82338(14) 0.57868(12) 1.11696(13)
H3A H 0.85770 0.62750 1.17230
C6A C 0.88711(12) 0.51058(11) 1.09311(12)
H4A H 0.96500 0.51320 1.13300
C7A C 0.83768(10) 0.43498(9) 1.00830(11)
C8A C 0.90201(10) 0.36361(10) 0.98390(11)
H5A H 0.97990 0.36560 1.02400
C9A C 0.85355(10) 0.28944(9) 0.90160(11)
C10A C 0.91888(11) 0.21557(11) 0.87639(13)
H6A H 0.99680 0.21620 0.91670
C11A C 0.86934(13) 0.14504(11) 0.79515(14)
H7A H 0.91340 0.09790 0.77990
C12A C 0.75109(13) 0.14225(11) 0.73320(13)
H8A H 0.71780 0.09290 0.67820
C13A C 0.68555(11) 0.21114(9) 0.75343(11)
H9A H 0.60780 0.20830 0.71170
C14A C 0.73358(9) 0.28732(8) 0.83708(10)
C15A C 0.54860(9) 0.36287(8) 0.78411(10)
loop_
_geom_bond_atom_site_label_1
_geom_bond_atom_site_label_2
_geom_bond_distance
_geom_bond_site_symmetry_1
_geom_bond_site_symmetry_2
C1 C2 1.413 1_555 1_555
C2 C3 1.424 1_555 1_555
C3 H1 0.930 1_555 1_555
C4 C3 1.364 1_555 1_555
H2 C4 0.930 1_555 1_555
C5 C4 1.421 1_555 1_555
H3 C5 0.930 1_555 1_555
C6 C5 1.353 1_555 1_555
H4 C6 0.930 1_555 1_555
C7 C2 1.439 1_555 1_555
C8 C7 1.394 1_555 1_555
H5 C8 0.930 1_555 1_555
C9 C8 1.392 1_555 1_555
C10 C9 1.432 1_555 1_555
H6 C10 0.930 1_555 1_555
C11 C10 1.351 1_555 1_555
H7 C11 0.930 1_555 1_555
C12 C11 1.412 1_555 1_555
H8 C12 0.930 1_555 1_555
C13 C12 1.360 1_555 1_555
H9 C13 0.930 1_555 1_555
C14 C1 1.415 1_555 1_555
C15 C1 1.437 1_555 1_555
C1A C2A 1.413 1_555 1_555
C2A C3A 1.424 1_555 1_555
C3A H1A 0.930 1_555 1_555
C4A C3A 1.364 1_555 1_555
H2A C4A 0.930 1_555 1_555
C5A C4A 1.421 1_555 1_555
H3A C5A 0.930 1_555 1_555
C6A C5A 1.353 1_555 1_555
H4A C6A 0.930 1_555 1_555
C7A C2A 1.439 1_555 1_555
C8A C7A 1.394 1_555 1_555
H5A C8A 0.930 1_555 1_555
C9A C8A 1.392 1_555 1_555
C10A C9A 1.432 1_555 1_555
H6A C10A 0.930 1_555 1_555
C11A C10A 1.351 1_555 1_555
H7A C11A 0.930 1_555 1_555
C12A C11A 1.412 1_555 1_555
H8A C12A 0.930 1_555 1_555
C13A C12A 1.360 1_555 1_555
H9A C13A 0.930 1_555 1_555
C14A C1A 1.415 1_555 1_555
C15A C15 1.198 1_555 1_555
C6 C7 1.425 1_555 1_555
C9 C14 1.435 1_555 1_555
C13 C14 1.421 1_555 1_555
C1A C15A 1.437 1_555 1_555
C6A C7A 1.425 1_555 1_555
C9A C14A 1.435 1_555 1_555
C13A C14A 1.421 1_555 1_555
#END
