
#######################################################################
#
#                 Cambridge Crystallographic Data Centre
#                                CCDC
#
#######################################################################
#
# If this CIF has been generated from an entry in the Cambridge
# Structural Database, then it will include bibliographic, chemical,
# crystal, experimental, refinement or atomic coordinate data resulting
# from the CCDC's data processing and validation procedures.
#
#######################################################################

data_CSD_CIF_DIWQUX01
_audit_creation_date 2015-02-02
_audit_creation_method CSD-ConQuest-V1
_database_code_CSD DIWQUX01
_database_code_depnum_ccdc_archive 'CCDC 1013416'
_chemical_formula_sum 'C20 H14'
_chemical_formula_moiety
;
C20 H14
;
_journal_coden_Cambridge 1475
_journal_volume 6
_journal_year 2015
_journal_page_first 1816
_journal_name_full 'Chemical Science '
loop_
_publ_author_name
"K.D.Collins"
"R.Honeker"
"S.Vasquez-Cespedes"
"D.-T.D.Tang"
"F.Glorius"
_chemical_name_systematic
;
1-Phenylanthracene
;
_cell_volume   1359.002
_exptl_crystal_colour 'colorless'
_exptl_crystal_density_diffrn 1.243
_exptl_crystal_description 'prism'
_diffrn_ambient_temperature 223
#These two values have been output from a single CSD field.
_refine_ls_R_factor_gt 0.038
_refine_ls_wR_factor_gt 0.038
_symmetry_cell_setting triclinic
_symmetry_space_group_name_H-M 'P -1'
_symmetry_Int_Tables_number 2
loop_
_symmetry_equiv_pos_site_id
_symmetry_equiv_pos_as_xyz
1 x,y,z
2 -x,-y,-z
_cell_length_a 9.6321(1)
_cell_length_b 11.0943(1)
_cell_length_c 14.7022(1)
_cell_angle_alpha 67.862(1)
_cell_angle_beta 79.883(1)
_cell_angle_gamma 69.219(1)
_cell_formula_units_Z 4
loop_
_atom_type_symbol
_atom_type_radius_bond
C 0.68
H 0.23
loop_
_atom_site_label
_atom_site_type_symbol
_atom_site_fract_x
_atom_site_fract_y
_atom_site_fract_z
C1 C 0.71659(12) 0.91998(11) 0.32426(8)
C2 C 0.62915(13) 1.05136(12) 0.31426(9)
H1 H 0.58070 1.07190 0.37050
C3 C 0.60944(14) 1.15773(12) 0.22117(10)
H2 H 0.54950 1.24740 0.21680
C4 C 0.67635(14) 1.13107(12) 0.13870(9)
H3 H 0.66330 1.20270 0.07770
C5 C 0.76648(12) 0.99546(11) 0.14321(8)
C6 C 0.83275(13) 0.96513(12) 0.05858(8)
H4 H 0.82060 1.03680 -0.00240
C7 C 0.91646(12) 0.83190(12) 0.06151(8)
C8 C 0.98395(13) 0.79881(14) -0.02455(9)
H5 H 0.97580 0.86930 -0.08610
C9 C 1.05963(14) 0.66710(15) -0.01865(9)
H6 H 1.10370 0.64760 -0.07590
C10 C 1.07278(13) 0.55900(14) 0.07297(9)
H7 H 1.12400 0.46810 0.07590
C11 C 1.01165(12) 0.58590(12) 0.15694(9)
H8 H 1.02140 0.51310 0.21730
C12 C 0.93303(11) 0.72273(11) 0.15477(8)
C13 C 0.86951(11) 0.75357(11) 0.23977(8)
H9 H 0.88250 0.68190 0.30080
C14 C 0.78739(11) 0.88707(11) 0.23734(8)
C15 C 0.73600(12) 0.81253(11) 0.42372(8)
C16 C 0.87686(12) 0.73462(12) 0.46086(8)
H10 H 0.96200 0.74980 0.42250
C17 C 0.89194(13) 0.63544(13) 0.55361(9)
H11 H 0.98710 0.58370 0.57780
C18 C 0.76697(14) 0.61220(13) 0.61099(9)
H12 H 0.77750 0.54410 0.67360
C19 C 0.62705(13) 0.68932(12) 0.57587(8)
H13 H 0.54230 0.67430 0.61490
C20 C 0.61150(12) 0.78890(12) 0.48312(8)
H14 H 0.51590 0.84120 0.45990
C21 C 0.34992(12) 0.88910(11) 0.21604(8)
C22 C 0.33795(14) 1.02217(12) 0.15931(9)
H15 H 0.37350 1.04190 0.09330
C23 C 0.27345(15) 1.13125(12) 0.19719(10)
H16 H 0.26690 1.22140 0.15600
C24 C 0.22152(13) 1.10728(12) 0.2915(1)
H17 H 0.17620 1.18110 0.31480
C25 C 0.23485(12) 0.97029(11) 0.35649(8)
C26 C 0.19141(12) 0.94291(12) 0.45606(9)
H18 H 0.14550 1.01670 0.47940
C27 C 0.21421(11) 0.80907(12) 0.52208(8)
C28 C 0.17781(13) 0.77927(14) 0.62502(9)
H19 H 0.12980 0.85160 0.64950
C29 C 0.21184(14) 0.64769(15) 0.68776(9)
H20 H 0.18890 0.62990 0.75540
C30 C 0.28186(13) 0.53644(13) 0.65230(8)
H21 H 0.30620 0.44590 0.69680
C31 C 0.31395(12) 0.56026(12) 0.55432(8)
H22 H 0.35720 0.48580 0.53160
C32 C 0.28275(11) 0.69696(11) 0.48575(8)
C33 C 0.32260(11) 0.72444(11) 0.38527(8)
H23 H 0.36530 0.65070 0.36170
C34 C 0.30073(11) 0.85831(11) 0.31901(8)
C35 C 0.41832(12) 0.77931(11) 0.17144(7)
C36 C 0.34645(12) 0.68710(12) 0.17563(8)
H24 H 0.25190 0.69360 0.20760
C37 C 0.41319(13) 0.58643(13) 0.13323(9)
H25 H 0.36380 0.52510 0.13700
C38 C 0.55221(13) 0.57554(13) 0.08534(8)
H26 H 0.59750 0.50670 0.05720
C39 C 0.62407(13) 0.66700(13) 0.07930(8)
H27 H 0.71800 0.66070 0.04640
C40 C 0.55766(12) 0.76768(12) 0.12162(8)
H28 H 0.60720 0.82930 0.11680
loop_
_geom_bond_atom_site_label_1
_geom_bond_atom_site_label_2
_geom_bond_distance
_geom_bond_site_symmetry_1
_geom_bond_site_symmetry_2
C1 C2 1.366 1_555 1_555
C2 H1 0.940 1_555 1_555
C3 C2 1.420 1_555 1_555
H2 C3 0.940 1_555 1_555
C4 C3 1.354 1_555 1_555
H3 C4 0.940 1_555 1_555
C5 C4 1.428 1_555 1_555
C6 C5 1.397 1_555 1_555
H4 C6 0.940 1_555 1_555
C7 C6 1.398 1_555 1_555
C8 C7 1.432 1_555 1_555
H5 C8 0.941 1_555 1_555
C9 C8 1.358 1_555 1_555
H6 C9 0.939 1_555 1_555
C10 C9 1.415 1_555 1_555
H7 C10 0.940 1_555 1_555
C11 C10 1.363 1_555 1_555
H8 C11 0.940 1_555 1_555
C12 C7 1.435 1_555 1_555
C13 C12 1.399 1_555 1_555
H9 C13 0.940 1_555 1_555
C14 C1 1.449 1_555 1_555
C15 C1 1.489 1_555 1_555
C16 C15 1.399 1_555 1_555
H10 C16 0.940 1_555 1_555
C17 C16 1.384 1_555 1_555
H11 C17 0.940 1_555 1_555
C18 C17 1.388 1_555 1_555
H12 C18 0.940 1_555 1_555
C19 C18 1.381 1_555 1_555
H13 C19 0.940 1_555 1_555
C20 C15 1.397 1_555 1_555
H14 C20 0.940 1_555 1_555
C21 C22 1.369 1_555 1_555
C22 H15 0.940 1_555 1_555
C23 C22 1.419 1_555 1_555
H16 C23 0.940 1_555 1_555
C24 C23 1.348 1_555 1_555
H17 C24 0.940 1_555 1_555
C25 C24 1.432 1_555 1_555
C26 C25 1.396 1_555 1_555
H18 C26 0.941 1_555 1_555
C27 C26 1.397 1_555 1_555
C28 C27 1.429 1_555 1_555
H19 C28 0.940 1_555 1_555
C29 C28 1.357 1_555 1_555
H20 C29 0.939 1_555 1_555
C30 C29 1.422 1_555 1_555
H21 C30 0.940 1_555 1_555
C31 C30 1.362 1_555 1_555
H22 C31 0.939 1_555 1_555
C32 C27 1.436 1_555 1_555
C33 C32 1.403 1_555 1_555
H23 C33 0.940 1_555 1_555
C34 C21 1.451 1_555 1_555
C35 C21 1.493 1_555 1_555
C36 C35 1.403 1_555 1_555
H24 C36 0.940 1_555 1_555
C37 C36 1.387 1_555 1_555
H25 C37 0.940 1_555 1_555
C38 C37 1.386 1_555 1_555
H26 C38 0.940 1_555 1_555
C39 C38 1.388 1_555 1_555
H27 C39 0.940 1_555 1_555
C40 C35 1.399 1_555 1_555
H28 C40 0.940 1_555 1_555
C5 C14 1.440 1_555 1_555
C11 C12 1.427 1_555 1_555
C13 C14 1.400 1_555 1_555
C19 C20 1.386 1_555 1_555
C25 C34 1.443 1_555 1_555
C31 C32 1.427 1_555 1_555
C33 C34 1.400 1_555 1_555
C39 C40 1.386 1_555 1_555
#END
