
#######################################################################
#
#                 Cambridge Crystallographic Data Centre
#                                CCDC
#
#######################################################################
#
# If this CIF has been generated from an entry in the Cambridge
# Structural Database, then it will include bibliographic, chemical,
# crystal, experimental, refinement or atomic coordinate data resulting
# from the CCDC's data processing and validation procedures.
#
#######################################################################

data_CSD_CIF_DIWQUX
_audit_creation_date 2014-04-29
_audit_creation_method CSD-ConQuest-V1
_database_code_CSD DIWQUX
_database_code_depnum_ccdc_archive 'CCDC 952057'
_chemical_formula_sum 'C20 H14'
_chemical_formula_moiety
;
C20 H14
;
_journal_coden_Cambridge 1291
_journal_year 2014
_journal_page_first 3556
_journal_name_full 'Eur.J.Org.Chem. '
loop_
_publ_author_name
"Chengyu Wang"
"Lingkai Kong"
"Yanli Li"
"Yanzhong Li"
_chemical_name_systematic
;
1-phenylanthracene
;
_cell_volume   1357.453
_exptl_crystal_colour 'colorless'
_exptl_crystal_density_diffrn 1.244
_exptl_crystal_description 'prismatic'
_diffrn_ambient_temperature 293
#These two values have been output from a single CSD field.
_refine_ls_R_factor_gt 0.0564
_refine_ls_wR_factor_gt 0.0564
_symmetry_cell_setting triclinic
_symmetry_space_group_name_H-M 'P -1'
_symmetry_Int_Tables_number 2
loop_
_symmetry_equiv_pos_site_id
_symmetry_equiv_pos_as_xyz
1 x,y,z
2 -x,-y,-z
_cell_length_a 9.653(4)
_cell_length_b 11.091(4)
_cell_length_c 14.693(5)
_cell_angle_alpha 67.870(7)
_cell_angle_beta 85.109(7)
_cell_angle_gamma 68.930(7)
_cell_formula_units_Z 4
loop_
_atom_type_symbol
_atom_type_radius_bond
C 0.68
H 0.23
loop_
_atom_site_label
_atom_site_type_symbol
_atom_site_fract_x
_atom_site_fract_y
_atom_site_fract_z
C1 C 0.9334(3) 0.2228(3) 0.15464(18)
C2 C 1.0123(3) 0.0861(3) 0.1568(2)
H1 H 1.02460 0.01120 0.21610
C3 C 1.0725(3) 0.0593(3) 0.0731(2)
H2 H 1.12230 -0.03230 0.07840
C4 C 1.0594(3) 0.1662(4) -0.0173(2)
H3 H 1.10180 0.14750 -0.07200
C5 C 0.9835(3) 0.2978(3) -0.0238(2)
H4 H 0.97270 0.37020 -0.08440
C6 C 0.9169(3) 0.3311(3) 0.06185(18)
C7 C 0.8331(3) 0.4637(3) 0.05905(19)
H5 H 0.81840 0.53770 -0.00100
C8 C 0.7672(3) 0.4942(2) 0.14341(18)
C9 C 0.7879(3) 0.3864(2) 0.23686(17)
C10 C 0.8700(3) 0.2537(2) 0.23930(17)
H6 H 0.88530 0.17980 0.29950
C11 C 0.6769(3) 0.6295(3) 0.1392(2)
H7 H 0.66080 0.70380 0.07910
C12 C 0.6109(4) 0.6556(3) 0.2218(2)
H8 H 0.55220 0.74630 0.21480
C13 C 0.6307(3) 0.5501(3) 0.3139(2)
H9 H 0.58470 0.56950 0.36760
C14 C 0.7176(3) 0.4189(2) 0.32434(18)
C15 C 0.7368(3) 0.3122(2) 0.42306(17)
C16 C 0.8768(3) 0.2355(3) 0.45990(19)
H10 H 0.95850 0.24870 0.42490
C17 C 0.8916(3) 0.1371(3) 0.5520(2)
H11 H 0.98740 0.08160 0.57960
C18 C 0.7692(3) 0.1132(3) 0.6093(2)
H12 H 0.78810 0.04350 0.67180
C19 C 0.6297(3) 0.1888(3) 0.5747(2)
H13 H 0.54880 0.17550 0.61070
C20 C 0.6140(3) 0.2871(3) 0.48286(19)
H14 H 0.51790 0.34260 0.45600
C21 C 0.2827(2) 0.1978(2) 0.48551(17)
C22 C 0.3133(3) 0.0616(3) 0.55435(18)
H15 H 0.35580 -0.01340 0.53430
C23 C 0.2807(3) 0.0380(3) 0.65173(19)
H16 H 0.30450 -0.05340 0.69610
C24 C 0.2119(3) 0.1489(4) 0.6868(2)
H17 H 0.19070 0.12950 0.75260
C25 C 0.1788(3) 0.2789(3) 0.6247(2)
H18 H 0.13200 0.35140 0.64670
C26 C 0.2151(3) 0.3099(3) 0.52184(18)
C27 C 0.1926(3) 0.4428(3) 0.4566(2)
H19 H 0.14840 0.51680 0.47740
C28 C 0.2355(3) 0.4705(3) 0.35706(19)
C29 C 0.3011(3) 0.3587(2) 0.31933(17)
C30 C 0.3229(3) 0.2256(2) 0.38549(17)
H20 H 0.36500 0.15150 0.36450
C31 C 0.2219(3) 0.6065(3) 0.2920(2)
H21 H 0.17830 0.68080 0.31260
C32 C 0.2726(4) 0.6309(3) 0.1977(2)
H22 H 0.26460 0.72130 0.15760
C33 C 0.3371(3) 0.5219(3) 0.1598(2)
H23 H 0.37010 0.54230 0.09630
C34 C 0.3497(3) 0.3897(2) 0.21657(17)
C35 C 0.4178(3) 0.2796(2) 0.17206(16)
C36 C 0.5558(3) 0.2667(3) 0.12327(17)
H24 H 0.60350 0.32750 0.12000
C37 C 0.6216(3) 0.1668(3) 0.08048(19)
H25 H 0.71030 0.16150 0.04930
C38 C 0.5499(3) 0.0773(3) 0.08646(19)
H26 H 0.59080 0.00890 0.05990
C39 C 0.4116(3) 0.0896(3) 0.13375(19)
H27 H 0.36410 0.02890 0.13630
C40 C 0.3456(3) 0.1896(3) 0.17617(18)
H28 H 0.25590 0.19550 0.20620
loop_
_geom_bond_atom_site_label_1
_geom_bond_atom_site_label_2
_geom_bond_distance
_geom_bond_site_symmetry_1
_geom_bond_site_symmetry_2
C1 C2 1.420 1_555 1_555
C2 H1 0.930 1_555 1_555
C3 C2 1.403 1_555 1_555
H2 C3 0.930 1_555 1_555
C4 C3 1.386 1_555 1_555
H3 C4 0.930 1_555 1_555
C5 C4 1.347 1_555 1_555
H4 C5 0.930 1_555 1_555
C6 C1 1.412 1_555 1_555
C7 C6 1.387 1_555 1_555
H5 C7 0.930 1_555 1_555
C8 C7 1.443 1_555 1_555
C9 C8 1.412 1_555 1_555
C10 C1 1.442 1_555 1_555
H6 C10 0.930 1_555 1_555
C11 C8 1.419 1_555 1_555
H7 C11 0.931 1_555 1_555
C12 C11 1.401 1_555 1_555
H8 C12 0.930 1_555 1_555
C13 C12 1.388 1_555 1_555
H9 C13 0.930 1_555 1_555
C14 C9 1.506 1_555 1_555
C15 C14 1.461 1_555 1_555
C16 C15 1.339 1_555 1_555
H10 C16 0.930 1_555 1_555
C17 C16 1.360 1_555 1_555
H11 C17 0.930 1_555 1_555
C18 C17 1.436 1_555 1_555
H12 C18 0.931 1_555 1_555
C19 C18 1.326 1_555 1_555
H13 C19 0.930 1_555 1_555
C20 C15 1.459 1_555 1_555
H14 C20 0.930 1_555 1_555
C21 C22 1.404 1_555 1_555
C22 H15 0.930 1_555 1_555
C23 C22 1.384 1_555 1_555
H16 C23 0.930 1_555 1_555
C24 C23 1.432 1_555 1_555
H17 C24 0.930 1_555 1_555
C25 C24 1.319 1_555 1_555
H18 C25 0.930 1_555 1_555
C26 C21 1.454 1_555 1_555
C27 C26 1.371 1_555 1_555
H19 C27 0.930 1_555 1_555
C28 C27 1.433 1_555 1_555
C29 C28 1.463 1_555 1_555
C30 C21 1.433 1_555 1_555
H20 C30 0.930 1_555 1_555
C31 C28 1.414 1_555 1_555
H21 C31 0.930 1_555 1_555
C32 C31 1.389 1_555 1_555
H22 C32 0.930 1_555 1_555
C33 C32 1.437 1_555 1_555
H23 C33 0.930 1_555 1_555
C34 C29 1.491 1_555 1_555
C35 C34 1.517 1_555 1_555
C36 C35 1.444 1_555 1_555
H24 C36 0.930 1_555 1_555
C37 C36 1.406 1_555 1_555
H25 C37 0.929 1_555 1_555
C38 C37 1.375 1_555 1_555
H26 C38 0.930 1_555 1_555
C39 C38 1.437 1_555 1_555
H27 C39 0.930 1_555 1_555
C40 C35 1.390 1_555 1_555
H28 C40 0.930 1_555 1_555
C5 C6 1.475 1_555 1_555
C9 C10 1.386 1_555 1_555
C13 C14 1.349 1_555 1_555
C19 C20 1.357 1_555 1_555
C25 C26 1.459 1_555 1_555
C29 C30 1.378 1_555 1_555
C33 C34 1.352 1_555 1_555
C39 C40 1.403 1_555 1_555
#END
