
#######################################################################
#
#                 Cambridge Crystallographic Data Centre
#                                CCDC
#
#######################################################################
#
# If this CIF has been generated from an entry in the Cambridge
# Structural Database, then it will include bibliographic, chemical,
# crystal, experimental, refinement or atomic coordinate data resulting
# from the CCDC's data processing and validation procedures.
#
#######################################################################

data_CSD_CIF_DIWRAE
_audit_creation_date 2014-04-29
_audit_creation_method CSD-ConQuest-V1
_database_code_CSD DIWRAE
_database_code_depnum_ccdc_archive 'CCDC 952058'
_chemical_formula_sum 'C24 H22'
_chemical_formula_moiety
;
C24 H22
;
_journal_coden_Cambridge 1291
_journal_year 2014
_journal_page_first 3556
_journal_name_full 'Eur.J.Org.Chem. '
loop_
_publ_author_name
"Chengyu Wang"
"Lingkai Kong"
"Yanli Li"
"Yanzhong Li"
_chemical_name_systematic
;
1-butyl-2-phenylanthracene
;
_cell_volume   1777.181
_exptl_crystal_density_diffrn 1.16
_diffrn_ambient_temperature 293
#These two values have been output from a single CSD field.
_refine_ls_R_factor_gt 0.0615
_refine_ls_wR_factor_gt 0.0615
_symmetry_cell_setting monoclinic
_symmetry_space_group_name_H-M 'P c'
_symmetry_Int_Tables_number 7
loop_
_symmetry_equiv_pos_site_id
_symmetry_equiv_pos_as_xyz
1 x,y,z
2 x,-y,1/2+z
_cell_length_a 5.9284(12)
_cell_length_b 18.307(4)
_cell_length_c 16.375(4)
_cell_angle_alpha 90
_cell_angle_beta 90.258(5)
_cell_angle_gamma 90
_cell_formula_units_Z 4
loop_
_atom_type_symbol
_atom_type_radius_bond
C 0.68
H 0.23
loop_
_atom_site_label
_atom_site_type_symbol
_atom_site_fract_x
_atom_site_fract_y
_atom_site_fract_z
C1 C 0.2925(5) 0.22897(18) 0.62941(18)
C2 C 0.3313(5) 0.30671(18) 0.64275(18)
C3 C 0.1774(5) 0.36025(18) 0.61724(19)
H1 H 0.04880 0.34580 0.58880
C4 C 0.2104(5) 0.43488(18) 0.63311(18)
C5 C 0.0546(6) 0.4890(2) 0.6080(2)
H2 H -0.07460 0.47510 0.57960
C6 C 0.0892(6) 0.5607(2) 0.6243(2)
H3 H -0.01770 0.59490 0.60810
C7 C 0.2874(8) 0.5841(2) 0.6661(3)
H4 H 0.31150 0.63350 0.67590
C8 C 0.4415(6) 0.5338(2) 0.6915(2)
H5 H 0.57000 0.54940 0.71920
C9 C 0.4104(6) 0.45739(18) 0.6766(2)
C10 C 0.5619(5) 0.4041(2) 0.70193(19)
H6 H 0.69140 0.41850 0.72980
C11 C 0.5276(5) 0.33016(18) 0.68723(19)
C12 C 0.6784(5) 0.2762(2) 0.7176(2)
H7 H 0.81100 0.29030 0.74380
C13 C 0.6304(5) 0.2043(2) 0.7088(2)
H8 H 0.72680 0.17000 0.73220
C14 C 0.4376(5) 0.17949(18) 0.6652(2)
C15 C 0.4043(5) 0.09807(17) 0.6623(2)
C16 C 0.2195(6) 0.0644(2) 0.6988(2)
H9 H 0.10880 0.09310 0.72300
C17 C 0.1981(8) -0.0104(2) 0.6997(3)
H10 H 0.07430 -0.03200 0.72470
C18 C 0.3599(9) -0.0533(2) 0.6636(3)
H11 H 0.34590 -0.10390 0.66420
C19 C 0.5406(8) -0.0216(2) 0.6269(3)
H12 H 0.64800 -0.05060 0.60140
C20 C 0.5657(7) 0.0535(2) 0.6272(2)
H13 H 0.69270 0.07440 0.60350
C21 C 0.1100(5) 0.20532(18) 0.5704(2)
H14 H -0.02950 0.23010 0.58400
H15 H 0.08510 0.15320 0.57620
C22 C 0.1703(6) 0.2221(2) 0.4817(2)
H16 H 0.05130 0.20360 0.44650
H17 H 0.17650 0.27470 0.47470
C23 C 0.3946(7) 0.1893(2) 0.4546(2)
H18 H 0.51570 0.21330 0.48430
H19 H 0.39700 0.13800 0.46930
C24 C 0.4393(9) 0.1960(3) 0.3650(3)
H20 H 0.32370 0.17090 0.33490
H21 H 0.58340 0.17490 0.35270
H22 H 0.43960 0.24670 0.34980
C25 C 0.7872(5) 0.74575(17) 0.44750(18)
C26 C 0.8205(5) 0.66910(17) 0.42949(18)
C27 C 0.6686(5) 0.61482(18) 0.45391(19)
H23 H 0.54130 0.62860 0.48310
C28 C 0.7008(5) 0.53959(18) 0.43591(18)
C29 C 0.5451(6) 0.48538(19) 0.4606(2)
H24 H 0.41420 0.49870 0.48800
C30 C 0.5870(6) 0.4133(2) 0.4444(2)
H25 H 0.48570 0.37780 0.46180
C31 C 0.7825(7) 0.3922(2) 0.4013(2)
H26 H 0.80730 0.34300 0.39030
C32 C 0.9330(7) 0.4420(2) 0.3760(2)
H27 H 1.06070 0.42710 0.34760
C33 C 0.8969(5) 0.51833(19) 0.3926(2)
C34 C 1.0503(5) 0.57225(19) 0.3682(2)
H28 H 1.17900 0.55830 0.33990
C35 C 1.0160(5) 0.64667(18) 0.38507(18)
C36 C 1.1675(5) 0.70156(19) 0.35635(19)
H29 H 1.29800 0.68800 0.32900
C37 C 1.1228(5) 0.7725(2) 0.3686(2)
H30 H 1.22030 0.80740 0.34730
C38 C 0.9307(5) 0.79595(18) 0.41320(19)
C39 C 0.9016(5) 0.87742(18) 0.4209(2)
C40 C 0.7158(6) 0.91346(19) 0.3879(2)
H31 H 0.60170 0.88640 0.36320
C41 C 0.6969(7) 0.9887(2) 0.3911(3)
H32 H 0.57190 1.01210 0.36860
C42 C 0.8660(9) 1.0287(2) 0.4280(3)
H33 H 0.85630 1.07940 0.42930
C43 C 1.0446(8) 0.9952(2) 0.4620(3)
H34 H 1.15320 1.02280 0.48910
C44 C 1.0691(6) 0.9204(2) 0.4571(3)
H35 H 1.19820 0.89830 0.47810
C45 C 0.6059(5) 0.76810(18) 0.5072(2)
H36 H 0.46580 0.74400 0.49250
H37 H 0.58190 0.82040 0.50310
C46 C 0.6673(6) 0.7485(2) 0.5966(2)
H38 H 0.55030 0.76740 0.63210
H39 H 0.66770 0.69580 0.60210
C47 C 0.8902(8) 0.7772(3) 0.6257(3)
H40 H 1.00850 0.75580 0.59260
H41 H 0.89370 0.82960 0.61710
C48 C 0.9402(10) 0.7619(4) 0.7134(3)
H42 H 0.84950 0.79300 0.74710
H43 H 1.09690 0.77110 0.72420
H44 H 0.90630 0.71170 0.72520
loop_
_geom_bond_atom_site_label_1
_geom_bond_atom_site_label_2
_geom_bond_distance
_geom_bond_site_symmetry_1
_geom_bond_site_symmetry_2
C1 C2 1.458 1_555 1_555
C2 C3 1.402 1_555 1_555
C3 H1 0.930 1_555 1_555
C4 C3 1.404 1_555 1_555
C5 C4 1.414 1_555 1_555
H2 C5 0.930 1_555 1_555
C6 C5 1.355 1_555 1_555
H3 C6 0.929 1_555 1_555
C7 C6 1.423 1_555 1_555
H4 C7 0.929 1_555 1_555
C8 C7 1.361 1_555 1_555
H5 C8 0.930 1_555 1_555
C9 C4 1.441 1_555 1_555
C10 C9 1.388 1_555 1_555
H6 C10 0.930 1_555 1_555
C11 C2 1.436 1_555 1_555
C12 C11 1.421 1_555 1_555
H7 C12 0.930 1_555 1_555
C13 C12 1.354 1_555 1_555
H8 C13 0.930 1_555 1_555
C14 C1 1.378 1_555 1_555
C15 C14 1.504 1_555 1_555
C16 C15 1.394 1_555 1_555
H9 C16 0.931 1_555 1_555
C17 C16 1.375 1_555 1_555
H10 C17 0.930 1_555 1_555
C18 C17 1.375 1_555 1_555
H11 C18 0.930 1_555 1_555
C19 C18 1.361 1_555 1_555
H12 C19 0.930 1_555 1_555
C20 C15 1.384 1_555 1_555
H13 C20 0.931 1_555 1_555
C21 C1 1.511 1_555 1_555
H14 C21 0.970 1_555 1_555
H15 C21 0.970 1_555 1_555
C22 C21 1.529 1_555 1_555
H16 C22 0.970 1_555 1_555
H17 C22 0.970 1_555 1_555
C23 C22 1.527 1_555 1_555
H18 C23 0.970 1_555 1_555
H19 C23 0.970 1_555 1_555
C24 C23 1.497 1_555 1_555
H20 C24 0.960 1_555 1_555
H21 C24 0.960 1_555 1_555
H22 C24 0.961 1_555 1_555
C25 C26 1.448 1_555 1_555
C26 C27 1.401 1_555 1_555
C27 H23 0.930 1_555 1_555
C28 C27 1.421 1_555 1_555
C29 C28 1.416 1_555 1_555
H24 C29 0.931 1_555 1_555
C30 C29 1.369 1_555 1_555
H25 C30 0.930 1_555 1_555
C31 C30 1.413 1_555 1_555
H26 C31 0.930 1_555 1_555
C32 C31 1.342 1_555 1_555
H27 C32 0.931 1_555 1_555
C33 C28 1.419 1_555 1_555
C34 C33 1.402 1_555 1_555
H28 C34 0.930 1_555 1_555
C35 C26 1.431 1_555 1_555
C36 C35 1.429 1_555 1_555
H29 C36 0.929 1_555 1_555
C37 C36 1.341 1_555 1_555
H30 C37 0.930 1_555 1_555
C38 C25 1.374 1_555 1_555
C39 C38 1.507 1_555 1_555
C40 C39 1.391 1_555 1_555
H31 C40 0.930 1_555 1_555
C41 C40 1.383 1_555 1_555
H32 C41 0.931 1_555 1_555
C42 C41 1.379 1_555 1_555
H33 C42 0.930 1_555 1_555
C43 C42 1.342 1_555 1_555
H34 C43 0.930 1_555 1_555
C44 C39 1.397 1_555 1_555
H35 C44 0.930 1_555 1_555
C45 C25 1.513 1_555 1_555
H36 C45 0.970 1_555 1_555
H37 C45 0.970 1_555 1_555
C46 C45 1.549 1_555 1_555
H38 C46 0.971 1_555 1_555
H39 C46 0.969 1_555 1_555
C47 C46 1.498 1_555 1_555
H40 C47 0.971 1_555 1_555
H41 C47 0.970 1_555 1_555
C48 C47 1.492 1_555 1_555
H42 C48 0.959 1_555 1_555
H43 C48 0.960 1_555 1_555
H44 C48 0.961 1_555 1_555
C8 C9 1.432 1_555 1_555
C10 C11 1.390 1_555 1_555
C13 C14 1.420 1_555 1_555
C19 C20 1.383 1_555 1_555
C32 C33 1.440 1_555 1_555
C34 C35 1.405 1_555 1_555
C37 C38 1.422 1_555 1_555
C43 C44 1.379 1_555 1_555
#END
