
#######################################################################
#
#                 Cambridge Crystallographic Data Centre
#                                CCDC
#
#######################################################################
#
# If this CIF has been generated from an entry in the Cambridge
# Structural Database, then it will include bibliographic, chemical,
# crystal, experimental, refinement or atomic coordinate data resulting
# from the CCDC's data processing and validation procedures.
#
#######################################################################

data_CSD_CIF_DMANTR01
_audit_creation_date 2007-08-13
_audit_creation_method CSD-ConQuest-V1
_database_code_CSD DMANTR01
_database_code_depnum_ccdc_archive 'CCDC 654932'
_chemical_formula_sum 'C16 H14'
_chemical_formula_moiety
;
C16 H14
;
_journal_coeditor_code "IUCr KP2114"
_journal_coden_Cambridge 1370
_journal_volume 63
_journal_year 2007
_journal_page_first o3183
_journal_name_full 'Acta Crystallogr.,Sect.E:Struct.Rep.Online '
loop_
_publ_author_name
"B.Marciniak"
_chemical_name_systematic
;
9,10-dimethylanthracene
;
_cell_volume    557.984
_exptl_crystal_colour 'yellow'
_exptl_crystal_density_diffrn 1.228
_exptl_crystal_description 'columnar'
_diffrn_ambient_temperature 290
#These two values have been output from a single CSD field.
_refine_ls_R_factor_gt 0.0455
_refine_ls_wR_factor_gt 0.0455
_symmetry_cell_setting monoclinic
_symmetry_space_group_name_H-M 'P 21/c'
_symmetry_Int_Tables_number 14
loop_
_symmetry_equiv_pos_site_id
_symmetry_equiv_pos_as_xyz
1 x,y,z
2 -x,1/2+y,1/2-z
3 -x,-y,-z
4 x,-1/2-y,-1/2+z
_cell_length_a 7.8229(6)
_cell_length_b 5.3093(4)
_cell_length_c 13.4649(10)
_cell_angle_alpha 90
_cell_angle_beta 93.861(7)
_cell_angle_gamma 90
_cell_formula_units_Z 2
loop_
_atom_type_symbol
_atom_type_radius_bond
C 0.68
H 0.23
loop_
_atom_site_label
_atom_site_type_symbol
_atom_site_fract_x
_atom_site_fract_y
_atom_site_fract_z
C1 C 0.1584(2) 0.1546(3) 0.30410(13)
H1 H 0.05500 0.15030 0.26570
C2 C 0.1862(2) -0.0076(3) 0.38108(13)
H2 H 0.10080 -0.12220 0.39440
C3 C 0.34228(18) -0.0089(2) 0.44254(10)
C4 C 0.37049(19) -0.1785(2) 0.52289(11)
C5 C 0.47336(19) 0.1693(2) 0.41972(10)
C6 C 0.4366(2) 0.3365(3) 0.33742(12)
H3 H 0.51910 0.45330 0.32160
C7 C 0.2856(2) 0.3297(3) 0.28208(13)
H4 H 0.26580 0.44120 0.22930
C8 C 0.2324(3) -0.3651(4) 0.54586(18)
H5 H 0.202(6) -0.474(9) 0.486(4)
H6 H 0.268(7) -0.46(1) 0.598(4)
H7 H 0.129(7) -0.268(9) 0.560(4)
H8? H 0.801(8) 0.352(10) 0.379(5)
H9? H 0.876(9) 0.355(11) 0.495(4)
H10? H 0.732(8) 0.540(11) 0.449(5)
C1B C 0.8416(2) -0.1546(3) 0.69590(13)
H1B H 0.94500 -0.15030 0.73430
C2B C 0.8138(2) 0.0076(3) 0.61892(13)
H2B H 0.89920 0.12220 0.60560
C3B C 0.65772(18) 0.0089(2) 0.55746(10)
C4B C 0.62951(19) 0.1785(2) 0.47711(11)
C5B C 0.52664(19) -0.1693(2) 0.58028(10)
C6B C 0.5634(2) -0.3365(3) 0.66258(12)
H3B H 0.48090 -0.45330 0.67840
C7B C 0.7144(2) -0.3297(3) 0.71792(13)
H4B H 0.73420 -0.44120 0.77070
C8B C 0.7676(3) 0.3651(4) 0.45414(18)
H5B H 0.798(6) 0.474(9) 0.514(4)
H6B H 0.732(7) 0.46(1) 0.402(4)
H7B H 0.871(7) 0.268(9) 0.440(4)
loop_
_geom_bond_atom_site_label_1
_geom_bond_atom_site_label_2
_geom_bond_distance
_geom_bond_site_symmetry_1
_geom_bond_site_symmetry_2
C1 H1 0.931 1_555 1_555
C2 C1 1.354 1_555 1_555
H2 C2 0.930 1_555 1_555
C3 C2 1.428 1_555 1_555
C4 C3 1.413 1_555 1_555
C5 C3 1.443 1_555 1_555
C6 C5 1.434 1_555 1_555
H3 C6 0.930 1_555 1_555
C7 C1 1.408 1_555 1_555
H4 C7 0.930 1_555 1_555
C8 C4 1.513 1_555 1_555
H5 C8 1.007 1_555 1_555
H6 C8 0.893 1_555 1_555
H7 C8 0.988 1_555 1_555
C1B H1B 0.931 1_555 1_555
C2B C1B 1.354 1_555 1_555
H2B C2B 0.930 1_555 1_555
C3B C2B 1.428 1_555 1_555
C4B C5 1.402 1_555 1_555
C5B C4 1.402 1_555 1_555
C6B C5B 1.434 1_555 1_555
H3B C6B 0.930 1_555 1_555
C7B C1B 1.408 1_555 1_555
H4B C7B 0.930 1_555 1_555
C8B C4B 1.513 1_555 1_555
H5B C8B 1.007 1_555 1_555
H6B C8B 0.893 1_555 1_555
H7B C8B 0.988 1_555 1_555
C6 C7 1.354 1_555 1_555
C3B C4B 1.413 1_555 1_555
C3B C5B 1.443 1_555 1_555
C6B C7B 1.354 1_555 1_555
#END
