
#######################################################################
#
#                 Cambridge Crystallographic Data Centre
#                                CCDC
#
#######################################################################
#
# If this CIF has been generated from an entry in the Cambridge
# Structural Database, then it will include bibliographic, chemical,
# crystal, experimental, refinement or atomic coordinate data resulting
# from the CCDC's data processing and validation procedures.
#
#######################################################################

data_CSD_CIF_DMANTR
_audit_creation_date 1975-02-01
_audit_creation_method CSD-ConQuest-V1
_database_code_CSD DMANTR
_chemical_formula_sum 'C16 H14'
_chemical_formula_moiety
;
C16 H14
;
_journal_coeditor_code "IUCr A11243"
_journal_coden_Cambridge 107
_journal_volume 30
_journal_year 1974
_journal_page_first 2203
_journal_name_full 'Acta Crystallogr.,Sect.B:Struct.Crystallogr.Cryst.Chem. '
loop_
_publ_author_name
"J.Iball"
"J.N.Low"
_chemical_name_systematic
;
9,10-Dimethylanthracene
;
_cell_volume    555.001
_exptl_crystal_density_diffrn 1.234
_diffrn_ambient_temperature ?
_diffrn_special_details
;
The study was carried out at room temperature,in the range 283-303K

;
#These two values have been output from a single CSD field.
_refine_ls_R_factor_gt 0.08
_refine_ls_wR_factor_gt 0.08
_symmetry_cell_setting monoclinic
_symmetry_space_group_name_H-M 'P 21/c'
_symmetry_Int_Tables_number 14
loop_
_symmetry_equiv_pos_site_id
_symmetry_equiv_pos_as_xyz
1 x,y,z
2 -x,1/2+y,1/2-z
3 -x,-y,-z
4 x,-1/2-y,-1/2+z
_cell_length_a 7.815(7)
_cell_length_b 5.290(5)
_cell_length_c 13.456(9)
_cell_angle_alpha 90
_cell_angle_beta 93.90(5)
_cell_angle_gamma 90
_cell_formula_units_Z 2
loop_
_atom_type_symbol
_atom_type_radius_bond
C 0.68
H 0.20
loop_
_atom_site_label
_atom_site_type_symbol
_atom_site_fract_x
_atom_site_fract_y
_atom_site_fract_z
C1 C 0.06280 0.33630 0.16310
C2 C 0.21400 0.33060 0.21830
C3 C 0.34160 0.15510 0.19670
C4 C 0.31540 -0.00840 0.11870
C5 C 0.15670 -0.00850 0.05760
C6 C 0.02660 0.16970 0.08070
C7 C 0.13040 -0.17780 -0.02280
C8 C 0.26660 -0.36710 -0.04580
H1 H -0.02500 0.46240 0.17500
H2 H 0.23750 0.46030 0.27080
H3 H 0.45620 0.13330 0.23750
H4 H 0.40830 -0.16040 0.10420
H5 H 0.30620 -0.46870 0.02080
H6 H 0.22080 -0.49370 -0.10000
H7 H 0.36450 -0.27080 -0.06870
C7B C -0.13040 0.17780 0.02280
C6B C -0.02660 -0.16970 -0.08070
C5B C -0.15670 0.00850 -0.05760
C8B C -0.26660 0.36710 0.04580
C1B C -0.06280 -0.33630 -0.16310
C4B C -0.31540 0.00840 -0.11870
H5B H -0.30620 0.46870 -0.02080
H6B H -0.22080 0.49370 0.10000
H7B H -0.36450 0.27080 0.06870
C2B C -0.21400 -0.33060 -0.21830
H1B H 0.02500 -0.46240 -0.17500
C3B C -0.34160 -0.15510 -0.19670
H4B H -0.40830 0.16040 -0.10420
H2B H -0.23750 -0.46030 -0.27080
H3B H -0.45620 -0.13330 -0.23750
loop_
_geom_bond_atom_site_label_1
_geom_bond_atom_site_label_2
_geom_bond_distance
_geom_bond_site_symmetry_1
_geom_bond_site_symmetry_2
C1 C2 1.353 1_555 1_555
C2 C3 1.407 1_555 1_555
C3 C4 1.365 1_555 1_555
C4 C5 1.441 1_555 1_555
C5 C6 1.436 1_555 1_555
C6 C1 1.429 1_555 1_555
C7 C5 1.409 1_555 1_555
C8 C7 1.509 1_555 1_555
H1 C1 0.978 1_555 1_555
H2 C2 0.993 1_555 1_555
H3 C3 1.025 1_555 1_555
H4 C4 1.109 1_555 1_555
H5 C8 1.072 1_555 1_555
H6 C8 1.036 1_555 1_555
H7 C8 0.986 1_555 1_555
C7B C6 1.409 1_555 1_555
C6B C7 1.409 1_555 1_555
C5B C7B 1.409 1_555 1_555
C8B C7B 1.509 1_555 1_555
C1B C6B 1.429 1_555 1_555
C4B C5B 1.441 1_555 1_555
H5B C8B 1.072 1_555 1_555
H6B C8B 1.036 1_555 1_555
H7B C8B 0.986 1_555 1_555
C2B C1B 1.353 1_555 1_555
H1B C1B 0.978 1_555 1_555
C3B C4B 1.365 1_555 1_555
H4B C4B 1.109 1_555 1_555
H2B C2B 0.993 1_555 1_555
H3B C3B 1.025 1_555 1_555
C6B C5B 1.436 1_555 1_555
C2B C3B 1.407 1_555 1_555
#END
