
#######################################################################
#
#                 Cambridge Crystallographic Data Centre
#                                CCDC
#
#######################################################################
#
# If this CIF has been generated from an entry in the Cambridge
# Structural Database, then it will include bibliographic, chemical,
# crystal, experimental, refinement or atomic coordinate data resulting
# from the CCDC's data processing and validation procedures.
#
#######################################################################

data_CSD_CIF_DMBZAN10
_audit_creation_date 1979-01-19
_audit_creation_method CSD-ConQuest-V1
_database_code_CSD DMBZAN10
_database_code_depnum_ccdc_archive 'CCDC 1142549'
_chemical_formula_sum 'C20 H16'
_chemical_formula_moiety
;
C20 H16
;
_journal_coeditor_code "IUCr A16456"
_journal_coden_Cambridge 107
_journal_volume 34
_journal_year 1978
_journal_page_first 3021
_journal_name_full 'Acta Crystallogr.,Sect.B:Struct.Crystallogr.Cryst.Chem. '
loop_
_publ_author_name
"D.W.Jones"
"J.M.Sowden"
"A.C.Hazell"
"R.G.Hazell"
_chemical_name_systematic
;
1,12-Dimethylbenz(a)anthracene
;
_cell_volume    695.026
_diffrn_ambient_temperature ?
_diffrn_special_details
;
The study was carried out at room temperature,in the range 283-303K
data set A
;
#These two values have been output from a single CSD field.
_refine_ls_R_factor_gt 0.081
_refine_ls_wR_factor_gt 0.081
_symmetry_cell_setting monoclinic
_symmetry_space_group_name_H-M 'P 21'
_symmetry_Int_Tables_number 4
loop_
_symmetry_equiv_pos_site_id
_symmetry_equiv_pos_as_xyz
1 x,y,z
2 -x,1/2+y,-z
_cell_length_a 8.430(15)
_cell_length_b 8.325(18)
_cell_length_c 9.971(17)
_cell_angle_alpha 90
_cell_angle_beta 96.67(16)
_cell_angle_gamma 90
_cell_formula_units_Z 2
loop_
_atom_type_symbol
_atom_type_radius_bond
C 0.68
H 0.23
loop_
_atom_site_label
_atom_site_type_symbol
_atom_site_fract_x
_atom_site_fract_y
_atom_site_fract_z
C1 C 0.53950 0.02560 0.54540
C2 C 0.63040 0.08040 0.65980
C3 C 0.79570 0.10550 0.66810
C4 C 0.87880 0.05010 0.56210
C5 C 0.87630 -0.08330 0.34190
C6 C 0.79490 -0.15440 0.23580
C7 C 0.55030 -0.19530 0.08220
C8 C 0.31090 -0.21970 -0.08180
C9 C 0.15650 -0.18140 -0.12670
C10 C 0.06720 -0.06990 -0.05060
C11 C 0.14540 -0.00430 0.06910
C12 C 0.38240 0.00860 0.24190
C13 C 0.61650 -0.00550 0.42590
C14 C 0.78960 -0.00410 0.44310
C15 C 0.62440 -0.13840 0.20210
C16 C 0.38840 -0.16210 0.03740
C17 C 0.30380 -0.04880 0.11790
C18 C 0.53350 -0.04190 0.28960
C19 C 0.36880 -0.02510 0.55010
C20 C 0.30410 0.16030 0.30140
H1 H 0.59520 0.08900 0.76690
H2 H 0.88350 0.10740 0.78120
H3 H 1.00650 0.02140 0.63050
H4 H 0.62790 -0.24360 0.00650
H5 H 0.33520 -0.31790 -0.15150
H6 H -0.07750 -0.04010 -0.05160
H7 H 0.04850 0.08130 0.11930
H8 H 0.25850 -0.09280 0.47000
H9 H 0.28580 0.07010 0.58130
H10 H 0.36300 -0.08750 0.63140
H11 H 0.36920 0.18830 0.39670
H12 H 0.17060 0.15070 0.30820
H13 H 0.27370 0.23310 0.21040
loop_
_geom_bond_atom_site_label_1
_geom_bond_atom_site_label_2
_geom_bond_distance
_geom_bond_site_symmetry_1
_geom_bond_site_symmetry_2
C1 C2 1.376 1_555 1_555
C2 C3 1.402 1_555 1_555
C3 C4 1.412 1_555 1_555
C4 C14 1.403 1_555 1_555
C5 C6 1.331 1_555 1_555
C6 C15 1.444 1_555 1_555
C7 C15 1.368 1_555 1_555
C8 C9 1.364 1_555 1_555
C9 C10 1.462 1_555 1_555
C10 C11 1.405 1_555 1_555
C11 C17 1.416 1_555 1_555
C12 C17 1.416 1_555 1_555
C13 C1 1.445 1_555 1_555
C14 C5 1.469 1_555 1_555
C15 C18 1.466 1_555 1_555
C16 C7 1.413 1_555 1_555
C17 C16 1.475 1_555 1_555
C18 C12 1.373 1_555 1_555
C19 C1 1.506 1_555 1_555
C20 C12 1.573 1_555 1_555
H1 C2 1.143 1_555 1_555
H2 C3 1.275 1_555 1_555
H3 C4 1.229 1_555 1_555
H4 C7 1.129 1_555 1_555
H5 C8 1.107 1_555 1_555
H6 C10 1.244 1_555 1_555
H7 C11 1.233 1_555 1_555
H8 C19 1.284 1_555 1_555
H9 C19 1.125 1_555 1_555
H10 C19 0.969 1_555 1_555
H11 C20 1.066 1_555 1_555
H12 C20 1.138 1_555 1_555
H13 C20 1.096 1_555 1_555
C8 C16 1.374 1_555 1_555
C13 C14 1.449 1_555 1_555
C13 C18 1.486 1_555 1_555
#END
