
#######################################################################
#
#                 Cambridge Crystallographic Data Centre
#                                CCDC
#
#######################################################################
#
# If this CIF has been generated from an entry in the Cambridge
# Structural Database, then it will include bibliographic, chemical,
# crystal, experimental, refinement or atomic coordinate data resulting
# from the CCDC's data processing and validation procedures.
#
#######################################################################

data_CSD_CIF_DMECHR10
_audit_creation_date 1986-02-24
_audit_creation_method CSD-ConQuest-V1
_database_code_CSD DMECHR10
_database_code_depnum_ccdc_archive 'CCDC 1142611'
_chemical_formula_sum 'C20 H16'
_chemical_formula_moiety
;
C20 H16
;
_journal_coden_Cambridge 557
_journal_volume 5
_journal_year 1984
_journal_page_first 1421
_journal_name_full 'Carcinogenesis '
loop_
_publ_author_name
"D.E.Zacharias"
"S.Kashino"
"J.P.Glusker"
"R.G.Harvey"
"S.Amin"
"S.S.Hecht"
_chemical_name_systematic
;
5,12-Dimethylchrysene
;
_cell_volume   2739.045
_exptl_crystal_density_diffrn 1.243
_diffrn_ambient_temperature ?
_diffrn_special_details
;
The study was carried out at room temperature,in the range 283-303K

;
#These two values have been output from a single CSD field.
_refine_ls_R_factor_gt 0.069
_refine_ls_wR_factor_gt 0.069
_symmetry_cell_setting monoclinic
_symmetry_space_group_name_H-M 'P 21/a'
_symmetry_Int_Tables_number 14
loop_
_symmetry_equiv_pos_site_id
_symmetry_equiv_pos_as_xyz
1 x,y,z
2 1/2-x,1/2+y,-z
3 -x,-y,-z
4 -1/2+x,-1/2-y,z
_cell_length_a 27.207(8)
_cell_length_b 5.530(2)
_cell_length_c 18.336(5)
_cell_angle_alpha 90
_cell_angle_beta 96.85(2)
_cell_angle_gamma 90
_cell_formula_units_Z 8
loop_
_atom_type_symbol
_atom_type_radius_bond
C 0.68
H 0.23
loop_
_atom_site_label
_atom_site_type_symbol
_atom_site_fract_x
_atom_site_fract_y
_atom_site_fract_z
C1 C 0.25731(7) 0.5574(4) 0.1254(1)
C2 C 0.23788(8) 0.6933(4) 0.0677(1)
C3 C 0.19936(9) 0.8516(4) 0.0758(1)
C4 C 0.18312(7) 0.8780(4) 0.1430(1)
C5 C 0.15335(6) 0.9673(3) 0.29794(9)
C6 C 0.14005(7) 0.9740(4) 0.3669(1)
C7 C 0.13941(8) 0.8154(4) 0.4928(1)
C8 C 0.15426(8) 0.6471(4) 0.5452(1)
C9 C 0.18766(9) 0.4686(4) 0.5306(1)
C10 C 0.20516(8) 0.4564(4) 0.4640(1)
C11 C 0.24250(7) 0.4446(4) 0.31998(9)
C12 C 0.25975(7) 0.4214(4) 0.2545(1)
C13 C 0.24040(6) 0.5783(3) 0.19517(9)
C14 C 0.20335(6) 0.7511(3) 0.20637(9)
C15 C 0.18736(6) 0.7818(3) 0.27922(9)
C16 C 0.20659(6) 0.6194(3) 0.33512(9)
C17 C 0.19011(6) 0.6254(3) 0.40751(9)
C18 C 0.15632(7) 0.8056(4) 0.42284(9)
C19 C 0.13199(7) 1.1681(4) 0.24787(9)
C20 C 0.29687(7) 0.2267(4) 0.2430(1)
H1 H 0.2839(7) 0.438(4) 0.1219(9)
H2 H 0.2484(8) 0.668(4) 0.0221(9)
H3 H 0.1833(8) 0.939(4) 0.0267(9)
H4 H 0.1559(7) 0.976(4) 0.1455(9)
H5 H 0.1170(7) 1.097(3) 0.3794(9)
H6 H 0.1153(7) 0.939(3) 0.5024(9)
H7 H 0.1432(7) 0.662(3) 0.5934(9)
H8 H 0.1975(8) 0.350(4) 0.5678(9)
H9 H 0.2298(7) 0.339(3) 0.4524(9)
H10 H 0.2556(6) 0.342(3) 0.3575(8)
H11 H 0.1592(7) 1.257(4) 0.2211(9)
H12 H 0.1074(7) 1.108(3) 0.2078(9)
H13 H 0.1164(8) 1.293(4) 0.2811(9)
H14 H 0.3285(8) 0.298(4) 0.235(1)
H15 H 0.3058(9) 0.119(5) 0.293(1)
H16 H 0.2844(7) 0.125(4) 0.2039(9)
C21 C -0.03298(8) 0.4781(4) 0.6677(1)
C22 C -0.03318(9) 0.5412(5) 0.5964(1)
C23 C -0.0058(1) 0.7371(6) 0.5782(1)
C24 C 0.02221(9) 0.8652(5) 0.6312(1)
C25 C 0.09017(7) 1.1255(4) 0.7526(1)
C26 C 0.11212(8) 1.2512(4) 0.8110(1)
C27 C 0.12374(8) 1.3678(4) 0.9423(1)
C28 C 0.11253(8) 1.3338(5) 1.0126(1)
C29 C 0.08089(8) 1.1491(5) 1.0268(1)
C30 C 0.06113(7) 0.9953(5) 0.9723(1)
C31 C 0.01665(7) 0.6862(4) 0.8533(1)
C32 C -0.00877(7) 0.5502(4) 0.8002(1)
C33 C -0.00523(6) 0.6077(4) 0.7245(1)
C34 C 0.02515(7) 0.8038(4) 0.7071(1)
C35 C 0.05488(6) 0.9387(4) 0.76522(9)
C36 C 0.04796(6) 0.8818(4) 0.83790(9)
C37 C 0.07113(6) 1.0282(4) 0.89922(9)
C38 C 0.10277(7) 1.2155(4) 0.8850(1)
C39 C 0.10705(9) 1.1887(5) 0.6790(1)
C40 C -0.04149(8) 0.3467(4) 0.8214(1)
H17 H -0.0536(7) 0.352(4) 0.6841(9)
H18 H -0.0541(9) 0.445(5) 0.557(1)
H19 H -0.0083(8) 0.792(4) 0.528(1)
H20 H 0.0427(8) 1.010(5) 0.617(1)
H21 H 0.1364(7) 1.376(4) 0.8037(9)
H22 H 0.1453(8) 1.501(4) 0.932(1)
H23 H 0.1259(7) 1.452(4) 1.051(1)
H24 H 0.0726(9) 1.117(5) 1.078(1)
H25 H 0.0373(7) 0.851(4) 0.9815(9)
H26 H 0.0138(8) 0.651(4) 0.909(1)
H27 H 0.0806(8) 1.289(4) 0.643(1)
H28 H 0.1126(9) 1.039(5) 0.648(1)
H29 H 0.1382(9) 1.263(5) 0.693(1)
H30 H -0.0361(9) 0.364(4) 0.882(1)
H31 H -0.0328(9) 0.188(5) 0.791(1)
H32 H -0.0794(9) 0.364(5) 0.801(1)
loop_
_geom_bond_atom_site_label_1
_geom_bond_atom_site_label_2
_geom_bond_distance
_geom_bond_site_symmetry_1
_geom_bond_site_symmetry_2
C1 C2 1.353 1_555 1_555
C2 C3 1.387 1_555 1_555
C3 C4 1.366 1_555 1_555
C4 C14 1.412 1_555 1_555
C5 C6 1.357 1_555 1_555
C6 C18 1.417 1_555 1_555
C7 C8 1.364 1_555 1_555
C8 C9 1.389 1_555 1_555
C9 C10 1.364 1_555 1_555
C10 C17 1.419 1_555 1_555
C11 C12 1.346 1_555 1_555
C12 C13 1.441 1_555 1_555
C13 C1 1.415 1_555 1_555
C14 C13 1.422 1_555 1_555
C15 C5 1.450 1_555 1_555
C16 C11 1.425 1_555 1_555
C17 C16 1.451 1_555 1_555
C18 C7 1.415 1_555 1_555
C19 C5 1.512 1_555 1_555
C20 C12 1.508 1_555 1_555
H1 C1 0.987 1_555 1_555
H2 C2 0.926 1_555 1_555
H3 C3 1.068 1_555 1_555
H4 C4 0.923 1_555 1_555
H5 C6 0.971 1_555 1_555
H6 C7 0.978 1_555 1_555
H7 C8 0.970 1_555 1_555
H8 C9 0.961 1_555 1_555
H9 C10 0.975 1_555 1_555
H10 C11 0.929 1_555 1_555
H11 C19 1.057 1_555 1_555
H12 C19 0.990 1_555 1_555
H13 C19 1.044 1_555 1_555
H14 C20 0.973 1_555 1_555
H15 C20 1.096 1_555 1_555
H16 C20 0.942 1_555 1_555
C21 C22 1.353 1_555 1_555
C22 C23 1.378 1_555 1_555
C23 C24 1.360 1_555 1_555
C24 C34 1.425 1_555 1_555
C25 C26 1.354 1_555 1_555
C26 C38 1.424 1_555 1_555
C27 C28 1.372 1_555 1_555
C28 C29 1.380 1_555 1_555
C29 C30 1.372 1_555 1_555
C30 C37 1.411 1_555 1_555
C31 C32 1.353 1_555 1_555
C32 C33 1.438 1_555 1_555
C33 C21 1.407 1_555 1_555
C34 C33 1.423 1_555 1_555
C35 C25 1.448 1_555 1_555
C36 C31 1.426 1_555 1_555
C37 C36 1.466 1_555 1_555
C38 C27 1.413 1_555 1_555
C39 C25 1.517 1_555 1_555
C40 C32 1.514 1_555 1_555
H17 C21 0.965 1_555 1_555
H18 C22 1.015 1_555 1_555
H19 C23 0.964 1_555 1_555
H20 C24 1.027 1_555 1_555
H21 C26 0.976 1_555 1_555
H22 C27 0.974 1_555 1_555
H23 C28 0.997 1_555 1_555
H24 C29 1.007 1_555 1_555
H25 C30 1.054 1_555 1_555
H26 C31 1.052 1_555 1_555
H27 C39 1.071 1_555 1_555
H28 C39 1.026 1_555 1_555
H29 C39 0.949 1_555 1_555
H30 C40 1.107 1_555 1_555
H31 C40 1.081 1_555 1_555
H32 C40 1.059 1_555 1_555
C14 C15 1.463 1_555 1_555
C15 C16 1.415 1_555 1_555
C17 C18 1.407 1_555 1_555
C34 C35 1.463 1_555 1_555
C35 C36 1.404 1_555 1_555
C37 C38 1.391 1_555 1_555
#END
