
#######################################################################
#
#                 Cambridge Crystallographic Data Centre
#                                CCDC
#
#######################################################################
#
# If this CIF has been generated from an entry in the Cambridge
# Structural Database, then it will include bibliographic, chemical,
# crystal, experimental, refinement or atomic coordinate data resulting
# from the CCDC's data processing and validation procedures.
#
#######################################################################

data_CSD_CIF_DMECHR11
_audit_creation_date 2008-03-24
_audit_creation_method CSD-ConQuest-V1
_database_code_CSD DMECHR11
_database_code_depnum_ccdc_archive 'CCDC 673174'
_chemical_formula_sum 'C20 H16'
_chemical_formula_moiety
;
C20 H16
;
_journal_coden_Cambridge 35
_journal_volume 72
_journal_year 2007
_journal_page_first 9214
_journal_name_full 'J.Org.Chem. '
loop_
_publ_author_name
"A.Das"
"Hsuan-Hung Liao"
"Rai-Shung Liu"
_chemical_name_systematic
;
5,12-Dimethylchrysene
;
_chemical_melting_point 381.65
_cell_volume   2753.184
_exptl_crystal_colour 'colorless'
_exptl_crystal_density_diffrn 1.237
_exptl_special_details
;
Melting point range 381.65-382.85K

;
_exptl_crystal_description 'columnar'
_diffrn_ambient_temperature 294
#These two values have been output from a single CSD field.
_refine_ls_R_factor_gt 0.0416
_refine_ls_wR_factor_gt 0.0416
_symmetry_cell_setting monoclinic
_symmetry_space_group_name_H-M 'P 21/c'
_symmetry_Int_Tables_number 14
loop_
_symmetry_equiv_pos_site_id
_symmetry_equiv_pos_as_xyz
1 x,y,z
2 -x,1/2+y,1/2-z
3 -x,-y,-z
4 x,-1/2-y,-1/2+z
_cell_length_a 18.328(14)
_cell_length_b 5.544(4)
_cell_length_c 27.29(2)
_cell_angle_alpha 90
_cell_angle_beta 96.845(14)
_cell_angle_gamma 90
_cell_formula_units_Z 8
loop_
_atom_type_symbol
_atom_type_radius_bond
C 0.68
H 0.23
loop_
_atom_site_label
_atom_site_type_symbol
_atom_site_fract_x
_atom_site_fract_y
_atom_site_fract_z
C1 C 0.3213(3) 1.0542(9) 0.24165(16)
H1 H 0.35900 1.15920 0.25320
C2 C 0.3350(3) 0.8733(9) 0.20614(16)
C3 C 0.4073(3) 0.8745(10) 0.18977(17)
C4 C 0.4631(3) 1.0414(9) 0.20548(15)
H2 H 0.45440 1.16000 0.22820
C5 C 0.5307(3) 1.0321(10) 0.18775(17)
H3 H 0.56650 1.14580 0.19840
C6 C 0.5461(3) 0.8539(11) 0.15408(17)
H4 H 0.59140 0.85050 0.14190
C7 C 0.4931(3) 0.683(1) 0.13919(16)
H5 H 0.50340 0.56040 0.11780
C8 C 0.4232(3) 0.6934(10) 0.15631(17)
C9 C 0.3676(2) 0.5241(9) 0.14008(14)
H6 H 0.37890 0.40130 0.11900
C10 C 0.2983(2) 0.5316(9) 0.15364(15)
C11 C 0.2793(3) 0.7179(9) 0.18714(15)
C12 C 0.2059(3) 0.7472(9) 0.20265(16)
C13 C 0.1436(3) 0.6180(9) 0.18315(16)
H7 H 0.14810 0.50880 0.15780
C14 C 0.0765(3) 0.6448(10) 0.19957(17)
H8 H 0.03690 0.55350 0.18550
C15 C 0.0669(3) 0.8077(10) 0.23718(17)
H9 H 0.02130 0.82560 0.24850
C16 C 0.1260(3) 0.9405(9) 0.25704(16)
H10 H 0.12020 1.04770 0.28250
C17 C 0.1959(3) 0.9196(10) 0.23992(17)
C18 C 0.2546(3) 1.0769(9) 0.25899(15)
C19 C 0.2419(2) 1.2740(8) 0.29672(12)
H11 H 0.28660 1.36220 0.30540
H12 H 0.22680 1.20070 0.32580
H13 H 0.20420 1.38220 0.28260
C20 C 0.2476(2) 0.3289(7) 0.13151(12)
H14 H 0.27360 0.23040 0.11040
H15 H 0.20510 0.39780 0.11270
H16 H 0.23260 0.23170 0.15760
C21 C 0.1893(3) -0.2536(10) 0.38768(15)
H17 H 0.19850 -0.37210 0.36510
C22 C 0.1152(3) -0.2174(11) 0.39728(18)
C23 C 0.0587(3) -0.3717(10) 0.37641(17)
H18 H 0.06940 -0.49470 0.35520
C24 C -0.0118(3) -0.3418(11) 0.38713(18)
H19 H -0.04900 -0.44460 0.37360
C25 C -0.0273(3) -0.1543(11) 0.41875(17)
H20 H -0.07500 -0.13400 0.42640
C26 C 0.0271(3) 0.000(1) 0.43858(15)
H21 H 0.01520 0.12510 0.45890
C27 C 0.1012(3) -0.0268(10) 0.42879(16)
C28 C 0.1619(3) 0.1188(9) 0.45158(15)
C29 C 0.1471(3) 0.3116(9) 0.48283(15)
H22 H 0.09830 0.34730 0.48570
C30 C 0.1990(3) 0.4464(9) 0.50854(16)
C31 C 0.2758(3) 0.3954(11) 0.50452(18)
C32 C 0.3318(3) 0.5224(11) 0.53307(17)
H23 H 0.31900 0.65040 0.55240
C33 C 0.4043(3) 0.4649(13) 0.5336(2)
H24 H 0.44080 0.55550 0.55170
C34 C 0.4218(3) 0.2656(12) 0.5060(2)
H25 H 0.47080 0.21950 0.50700
C35 C 0.3686(3) 0.135(1) 0.47735(17)
H26 H 0.38240 0.00350 0.45940
C36 C 0.2933(3) 0.1972(10) 0.47467(16)
C37 C 0.2355(3) 0.0616(9) 0.44490(16)
C38 C 0.2473(3) -0.1242(10) 0.40979(17)
C39 C 0.3223(2) -0.1843(9) 0.39291(13)
H27 H 0.31660 -0.31330 0.36930
H28 H 0.35590 -0.23280 0.42090
H29 H 0.34130 -0.04440 0.37800
C40 C 0.1788(2) 0.6525(8) 0.54124(12)
H30 H 0.12630 0.66250 0.53990
H31 H 0.19750 0.80140 0.52980
H32 H 0.19980 0.62360 0.57470
loop_
_geom_bond_atom_site_label_1
_geom_bond_atom_site_label_2
_geom_bond_distance
_geom_bond_site_symmetry_1
_geom_bond_site_symmetry_2
C1 H1 0.929 1_555 1_555
C2 C1 1.437 1_555 1_555
C3 C2 1.448 1_555 1_555
C4 C3 1.408 1_555 1_555
H2 C4 0.930 1_555 1_555
C5 C4 1.384 1_555 1_555
H3 C5 0.931 1_555 1_555
C6 C5 1.401 1_555 1_555
H4 C6 0.931 1_555 1_555
C7 C6 1.383 1_555 1_555
H5 C7 0.930 1_555 1_555
C8 C3 1.411 1_555 1_555
C9 C8 1.417 1_555 1_555
H6 C9 0.930 1_555 1_555
C10 C9 1.365 1_555 1_555
C11 C2 1.388 1_555 1_555
C12 C11 1.467 1_555 1_555
C13 C12 1.398 1_555 1_555
H7 C13 0.930 1_555 1_555
C14 C13 1.366 1_555 1_555
H8 C14 0.930 1_555 1_555
C15 C14 1.394 1_555 1_555
H9 C15 0.930 1_555 1_555
C16 C15 1.367 1_555 1_555
H10 C16 0.930 1_555 1_555
C17 C12 1.423 1_555 1_555
C18 C1 1.368 1_555 1_555
C19 C18 1.538 1_555 1_555
H11 C19 0.959 1_555 1_555
H12 C19 0.961 1_555 1_555
H13 C19 0.960 1_555 1_555
C20 C10 1.535 1_555 1_555
H14 C20 0.961 1_555 1_555
H15 C20 0.960 1_555 1_555
H16 C20 0.959 1_555 1_555
C21 H17 0.930 1_555 1_555
C22 C21 1.428 1_555 1_555
C23 C22 1.410 1_555 1_555
H18 C23 0.930 1_555 1_555
C24 C23 1.368 1_555 1_555
H19 C24 0.931 1_555 1_555
C25 C24 1.402 1_555 1_555
H20 C25 0.930 1_555 1_555
C26 C25 1.375 1_555 1_555
H21 C26 0.930 1_555 1_555
C27 C22 1.405 1_555 1_555
C28 C27 1.453 1_555 1_555
C29 C28 1.414 1_555 1_555
H22 C29 0.928 1_555 1_555
C30 C29 1.340 1_555 1_555
C31 C30 1.453 1_555 1_555
C32 C31 1.402 1_555 1_555
H23 C32 0.931 1_555 1_555
C33 C32 1.365 1_555 1_555
H24 C33 0.930 1_555 1_555
C34 C33 1.396 1_555 1_555
H25 C34 0.931 1_555 1_555
C35 C34 1.380 1_555 1_555
H26 C35 0.930 1_555 1_555
C36 C31 1.427 1_555 1_555
C37 C28 1.418 1_555 1_555
C38 C21 1.362 1_555 1_555
C39 C38 1.537 1_555 1_555
H27 C39 0.960 1_555 1_555
H28 C39 0.961 1_555 1_555
H29 C39 0.960 1_555 1_555
C40 C30 1.522 1_555 1_555
H30 C40 0.960 1_555 1_555
H31 C40 0.960 1_555 1_555
H32 C40 0.961 1_555 1_555
C7 C8 1.416 1_555 1_555
C10 C11 1.449 1_555 1_555
C16 C17 1.420 1_555 1_555
C17 C18 1.434 1_555 1_555
C26 C27 1.423 1_555 1_555
C35 C36 1.416 1_555 1_555
C36 C37 1.464 1_555 1_555
C37 C38 1.441 1_555 1_555
#END
