
#######################################################################
#
#                 Cambridge Crystallographic Data Centre
#                                CCDC
#
#######################################################################
#
# If this CIF has been generated from an entry in the Cambridge
# Structural Database, then it will include bibliographic, chemical,
# crystal, experimental, refinement or atomic coordinate data resulting
# from the CCDC's data processing and validation procedures.
#
#######################################################################

data_CSD_CIF_DMHELI
_audit_creation_date 1977-10-06
_audit_creation_method CSD-ConQuest-V1
_database_code_CSD DMHELI
_chemical_formula_sum 'C32 H22'
_chemical_formula_moiety
;
C32 H22
;
_journal_coden_Cambridge 10
_journal_volume 60
_journal_year 1977
_journal_page_first 537
_journal_name_full 'Helv.Chim.Acta '
loop_
_publ_author_name
"M.Joly"
"N.Defay"
"R.H.Martin"
"J.P.Declercq"
"G.Germain"
"B.Soubrier-Payen"
"M.van Meerssche"
_chemical_name_systematic
;
3,15-Dimethyl-heptahelicene
;
_cell_volume   1077.309
_diffrn_ambient_temperature ?
_diffrn_special_details
;
The study was carried out at room temperature,in the range 283-303K

;
#These two values have been output from a single CSD field.
_refine_ls_R_factor_gt 0.058
_refine_ls_wR_factor_gt 0.058
_symmetry_cell_setting triclinic
_symmetry_space_group_name_H-M 'P -1'
_symmetry_Int_Tables_number 2
loop_
_symmetry_equiv_pos_site_id
_symmetry_equiv_pos_as_xyz
1 x,y,z
2 -x,-y,-z
_cell_length_a 12.419(3)
_cell_length_b 11.676(3)
_cell_length_c 8.651(2)
_cell_angle_alpha 113.73(3)
_cell_angle_beta 75.50(3)
_cell_angle_gamma 108.65(3)
_cell_formula_units_Z 2
loop_
_atom_type_symbol
_atom_type_radius_bond
C 0.68
H 0.23
loop_
_atom_site_label
_atom_site_type_symbol
_atom_site_fract_x
_atom_site_fract_y
_atom_site_fract_z
C1 C -0.39040 -0.32780 0.48620
C2 C -0.50460 -0.32890 0.50840
C3 C -0.57150 -0.40760 0.37630
C4 C -0.52190 -0.48820 0.22700
C5 C -0.40700 -0.49060 0.20580
C6 C -0.36330 -0.58710 0.06050
C7 C -0.25680 -0.60160 0.05070
C8 C -0.18500 -0.51730 0.17630
C9 C -0.07960 -0.54320 0.17280
C10 C -0.01400 -0.46720 0.29690
C11 C -0.03710 -0.35050 0.41690
C12 C 0.03190 -0.27070 0.54770
C13 C 0.00960 -0.15930 0.66430
C14 C -0.07470 -0.11060 0.64420
C15 C -0.09710 0.00510 0.76680
C16 C -0.17590 0.05450 0.75160
H1 H -0.34710 -0.27040 0.58820
C17 C -0.22540 0.00060 0.59620
C18 C -0.30090 0.05900 0.57430
C19 C -0.34160 0.01680 0.42400
C20 C -0.30060 -0.08070 0.27730
C21 C -0.32870 -0.11300 0.11370
C22 C -0.27710 -0.19760 -0.02630
C23 C -0.19450 -0.24840 -0.01170
C24 C -0.16810 -0.22010 0.14610
C25 C -0.22390 -0.14050 0.29550
C26 C -0.19700 -0.10900 0.46430
C27 C -0.13650 -0.17860 0.50260
C28 C -0.13320 -0.31140 0.40930
C29 C -0.21820 -0.40860 0.30640
C30 C -0.33680 -0.40520 0.33290
C31 C -0.69730 -0.40710 0.40260
C32 C -0.41110 -0.05270 0.08720
H2 H -0.10760 -0.25570 0.15950
loop_
_geom_bond_atom_site_label_1
_geom_bond_atom_site_label_2
_geom_bond_distance
_geom_bond_site_symmetry_1
_geom_bond_site_symmetry_2
C1 C2 1.379 1_555 1_555
C2 C3 1.408 1_555 1_555
C3 C4 1.388 1_555 1_555
C4 C5 1.400 1_555 1_555
C5 C6 1.433 1_555 1_555
C6 C7 1.364 1_555 1_555
C7 C8 1.417 1_555 1_555
C8 C9 1.425 1_555 1_555
C9 C10 1.346 1_555 1_555
C10 C11 1.407 1_555 1_555
C11 C12 1.417 1_555 1_555
C12 C13 1.349 1_555 1_555
C13 C14 1.415 1_555 1_555
C14 C15 1.402 1_555 1_555
C15 C16 1.339 1_555 1_555
C16 C17 1.438 1_555 1_555
H1 C1 1.024 1_555 1_555
C17 C18 1.408 1_555 1_555
C18 C19 1.358 1_555 1_555
C19 C20 1.432 1_555 1_555
C20 C21 1.414 1_555 1_555
C21 C22 1.381 1_555 1_555
C22 C23 1.391 1_555 1_555
C23 C24 1.368 1_555 1_555
C24 C25 1.418 1_555 1_555
C25 C20 1.417 1_555 1_555
C26 C17 1.406 1_555 1_555
C27 C14 1.421 1_555 1_555
C28 C11 1.431 1_555 1_555
C29 C8 1.414 1_555 1_555
C30 C1 1.413 1_555 1_555
C31 C3 1.523 1_555 1_555
C32 C21 1.518 1_555 1_555
H2 C24 1.016 1_555 1_555
C5 C30 1.416 1_555 1_555
C25 C26 1.454 1_555 1_555
C26 C27 1.438 1_555 1_555
C27 C28 1.440 1_555 1_555
C28 C29 1.444 1_555 1_555
C29 C30 1.444 1_555 1_555
#END
