
#######################################################################
#
#                 Cambridge Crystallographic Data Centre
#                                CCDC
#
#######################################################################
#
# If this CIF has been generated from an entry in the Cambridge
# Structural Database, then it will include bibliographic, chemical,
# crystal, experimental, refinement or atomic coordinate data resulting
# from the CCDC's data processing and validation procedures.
#
#######################################################################

data_CSD_CIF_DMNAPH05
_audit_creation_date 2001-04-25
_audit_creation_method CSD-ConQuest-V1
_database_code_CSD DMNAPH05
_database_code_depnum_ccdc_archive 'CCDC 158804'
_database_code_depnum_ccdc_journal 440/219
_chemical_formula_sum 'C12 H12'
_chemical_formula_moiety
;
C12 H12
;
_journal_coden_Cambridge 440
_journal_volume 24
_journal_year 2000
_journal_page_first 1063
_journal_name_full 'New J.Chem. '
loop_
_publ_author_name
"C.C.Wilson"
"H.Nowell"
_chemical_name_systematic
;
1,8-Dimethylnaphthalene
;
_cell_volume    906.638
_exptl_crystal_colour 'pale yellow'
_exptl_crystal_density_diffrn 1.143
_exptl_crystal_description 'thick plate'
_exptl_crystal_preparation 'acetone'
_diffrn_ambient_temperature 200
_diffrn_radiation_probe 'neutron radiation'
#These two values have been output from a single CSD field.
_refine_ls_R_factor_gt 0.0766
_refine_ls_wR_factor_gt 0.0766
_symmetry_cell_setting monoclinic
_symmetry_space_group_name_H-M 'P 21/c'
_symmetry_Int_Tables_number 14
loop_
_symmetry_equiv_pos_site_id
_symmetry_equiv_pos_as_xyz
1 x,y,z
2 x,1/2-y,1/2+z
3 -x,-y,-z
4 -x,-1/2+y,-1/2-z
_cell_length_a 9.773(2)
_cell_length_b 6.955(2)
_cell_length_c 16.158(5)
_cell_angle_alpha 90
_cell_angle_beta 124.36(2)
_cell_angle_gamma 90
_cell_formula_units_Z 4
loop_
_atom_type_symbol
_atom_type_radius_bond
C 0.68
H 0.23
loop_
_atom_site_label
_atom_site_type_symbol
_atom_site_fract_x
_atom_site_fract_y
_atom_site_fract_z
C1 C 0.2488(9) -0.0629(13) 0.4609(7)
C2 C 0.1649(11) 0.0585(15) 0.4862(8)
C3 C 0.0877(10) 0.2268(15) 0.4344(8)
C4 C 0.0969(11) 0.2828(15) 0.3563(9)
C5 C 0.1832(9) 0.1656(11) 0.3289(7)
C6 C 0.2595(9) -0.0115(11) 0.3784(7)
C7 C 0.3415(9) -0.1227(11) 0.3433(7)
C8 C 0.3441(12) -0.0535(16) 0.2650(9)
C9 C 0.2685(15) 0.1195(18) 0.2146(10)
C10 C 0.1864(12) 0.2277(17) 0.2443(9)
C11 C 0.3216(16) -0.2440(16) 0.5256(12)
C12 C 0.4284(16) -0.3107(16) 0.3862(12)
H1 H 0.157(3) 0.010(3) 0.549(2)
H2 H 0.020(3) 0.317(4) 0.458(2)
H3 H 0.040(2) 0.413(3) 0.319(2)
H4 H 0.126(3) 0.364(4) 0.209(2)
H5 H 0.276(6) 0.173(5) 0.156(3)
H6 H 0.406(3) -0.140(4) 0.2359(19)
H7 H 0.455(4) -0.253(4) 0.563(3)
H8 H 0.267(3) -0.370(3) 0.478(2)
H9 H 0.295(5) -0.250(4) 0.578(3)
H10 H 0.532(3) -0.294(3) 0.464(3)
H11 H 0.347(3) -0.426(3) 0.381(2)
H12 H 0.474(4) -0.371(4) 0.347(3)
loop_
_geom_bond_atom_site_label_1
_geom_bond_atom_site_label_2
_geom_bond_distance
_geom_bond_site_symmetry_1
_geom_bond_site_symmetry_2
C1 C2 1.389 1_555 1_555
C2 C3 1.388 1_555 1_555
C3 C4 1.371 1_555 1_555
C4 C5 1.412 1_555 1_555
C5 C6 1.428 1_555 1_555
C6 C1 1.440 1_555 1_555
C7 C6 1.441 1_555 1_555
C8 C7 1.367 1_555 1_555
C9 C8 1.406 1_555 1_555
C10 C5 1.451 1_555 1_555
C11 C1 1.532 1_555 1_555
C12 C7 1.499 1_555 1_555
H1 C2 1.113 1_555 1_555
H2 C3 1.123 1_555 1_555
H3 C4 1.056 1_555 1_555
H4 C10 1.092 1_555 1_555
H5 C9 1.058 1_555 1_555
H6 C8 1.127 1_555 1_555
H7 C11 1.086 1_555 1_555
H8 C11 1.087 1_555 1_555
H9 C11 1.017 1_555 1_555
H10 C12 1.087 1_555 1_555
H11 C12 1.099 1_555 1_555
H12 C12 1.046 1_555 1_555
C9 C10 1.369 1_555 1_555
#END
