
#######################################################################
#
#                 Cambridge Crystallographic Data Centre
#                                CCDC
#
#######################################################################
#
# If this CIF has been generated from an entry in the Cambridge
# Structural Database, then it will include bibliographic, chemical,
# crystal, experimental, refinement or atomic coordinate data resulting
# from the CCDC's data processing and validation procedures.
#
#######################################################################

data_CSD_CIF_DMNAPH
_audit_creation_date 1974-06-21
_audit_creation_method CSD-ConQuest-V1
_database_code_CSD DMNAPH
_chemical_formula_sum 'C12 H12'
_chemical_formula_moiety
;
C12 H12
;
_journal_coden_Cambridge 188
_journal_year 1973
_journal_page_first 2101
_journal_name_full 'J.Chem.Soc.,Perkin Trans.2 '
loop_
_publ_author_name
"D.Bright"
"I.E.Maxwell"
"J.de Boer"
_chemical_name_systematic
;
1,8-Dimethylnaphthalene
;
_cell_volume    917.528
_exptl_crystal_density_diffrn 1.13
_diffrn_ambient_temperature ?
_diffrn_special_details
;
The study was carried out at room temperature,in the range 283-303K

;
#These two values have been output from a single CSD field.
_refine_ls_R_factor_gt 0.08
_refine_ls_wR_factor_gt 0.08
_symmetry_cell_setting monoclinic
_symmetry_space_group_name_H-M 'P 21/c'
_symmetry_Int_Tables_number 14
loop_
_symmetry_equiv_pos_site_id
_symmetry_equiv_pos_as_xyz
1 x,y,z
2 -x,1/2+y,1/2-z
3 -x,-y,-z
4 x,-1/2-y,-1/2+z
_cell_length_a 9.835(3)
_cell_length_b 7.012(3)
_cell_length_c 16.115(5)
_cell_angle_alpha 90
_cell_angle_beta 124.35(3)
_cell_angle_gamma 90
_cell_formula_units_Z 4
loop_
_atom_type_symbol
_atom_type_radius_bond
C 0.68
H 0.20
loop_
_atom_site_label
_atom_site_type_symbol
_atom_site_fract_x
_atom_site_fract_y
_atom_site_fract_z
C1 C 0.24739 -0.06341 0.45864
C2 C 0.18400 0.16429 0.32623
C3 C 0.31972 -0.24257 0.52095
C4 C 0.42645 -0.30965 0.38641
C5 C 0.16643 0.05446 0.48398
C6 C 0.09157 0.22297 0.43341
C7 C 0.09898 0.27707 0.35591
C8 C 0.18941 0.22369 0.24424
C9 C 0.26862 0.11779 0.21487
C10 C 0.34392 -0.05278 0.26392
C11 C 0.34105 -0.12031 0.34236
C12 C 0.25927 -0.01136 0.37672
H1 H 0.44600 -0.26400 0.54500
H2 H 0.27400 -0.36600 0.48000
H3 H 0.30100 -0.24300 0.56600
H4 H 0.52400 -0.29700 0.45800
H5 H 0.34700 -0.41000 0.38600
H6 H 0.44800 -0.34900 0.34400
H7 H 0.15100 0.01800 0.53500
H8 H 0.03300 0.30600 0.45400
H9 H 0.05800 0.39200 0.32200
H10 H 0.13400 0.34500 0.22100
H11 H 0.26400 0.16000 0.16100
H12 H 0.40700 -0.13000 0.24200
loop_
_geom_bond_atom_site_label_1
_geom_bond_atom_site_label_2
_geom_bond_distance
_geom_bond_site_symmetry_1
_geom_bond_site_symmetry_2
C1 C3 1.512 1_555 1_555
C2 C7 1.416 1_555 1_555
C3 H1 1.083 1_555 1_555
C4 C11 1.516 1_555 1_555
C5 C1 1.360 1_555 1_555
C6 C5 1.388 1_555 1_555
C7 C6 1.346 1_555 1_555
C8 C2 1.415 1_555 1_555
C9 C8 1.341 1_555 1_555
C10 C9 1.394 1_555 1_555
C11 C10 1.365 1_555 1_555
C12 C1 1.437 1_555 1_555
H2 C3 1.026 1_555 1_555
H3 C3 0.844 1_555 1_555
H4 C4 1.005 1_555 1_555
H5 C4 1.049 1_555 1_555
H6 C4 0.867 1_555 1_555
H7 C5 0.951 1_555 1_555
H8 C6 0.998 1_555 1_555
H9 C7 0.928 1_555 1_555
H10 C8 0.965 1_555 1_555
H11 C9 0.894 1_555 1_555
H12 C10 1.025 1_555 1_555
C2 C12 1.431 1_555 1_555
C11 C12 1.428 1_555 1_555
#END
