
#######################################################################
#
#                 Cambridge Crystallographic Data Centre
#                                CCDC
#
#######################################################################
#
# If this CIF has been generated from an entry in the Cambridge
# Structural Database, then it will include bibliographic, chemical,
# crystal, experimental, refinement or atomic coordinate data resulting
# from the CCDC's data processing and validation procedures.
#
#######################################################################

data_CSD_CIF_DMNAPH04
_audit_creation_date 2001-04-25
_audit_creation_method CSD-ConQuest-V1
_database_code_CSD DMNAPH04
_database_code_depnum_ccdc_archive 'CCDC 158803'
_database_code_depnum_ccdc_journal 440/219
_chemical_formula_sum 'C12 H12'
_chemical_formula_moiety
;
C12 H12
;
_journal_coden_Cambridge 440
_journal_volume 24
_journal_year 2000
_journal_page_first 1063
_journal_name_full 'New J.Chem. '
loop_
_publ_author_name
"C.C.Wilson"
"H.Nowell"
_chemical_name_systematic
;
1,8-Dimethylnaphthalene
;
_cell_volume    898.937
_exptl_crystal_colour 'pale yellow'
_exptl_crystal_density_diffrn 1.153
_exptl_crystal_description 'thick plate'
_exptl_crystal_preparation 'acetone'
_diffrn_ambient_temperature 150
_diffrn_radiation_probe 'neutron radiation'
#These two values have been output from a single CSD field.
_refine_ls_R_factor_gt 0.0736
_refine_ls_wR_factor_gt 0.0736
_symmetry_cell_setting monoclinic
_symmetry_space_group_name_H-M 'P 21/c'
_symmetry_Int_Tables_number 14
loop_
_symmetry_equiv_pos_site_id
_symmetry_equiv_pos_as_xyz
1 x,y,z
2 x,1/2-y,1/2+z
3 -x,-y,-z
4 -x,-1/2+y,-1/2-z
_cell_length_a 9.725(2)
_cell_length_b 6.938(2)
_cell_length_c 16.147(4)
_cell_angle_alpha 90
_cell_angle_beta 124.40(2)
_cell_angle_gamma 90
_cell_formula_units_Z 4
loop_
_atom_type_symbol
_atom_type_radius_bond
C 0.68
H 0.23
loop_
_atom_site_label
_atom_site_type_symbol
_atom_site_fract_x
_atom_site_fract_y
_atom_site_fract_z
C1 C 0.2483(6) -0.0622(8) 0.4612(4)
C2 C 0.1661(7) 0.0597(10) 0.4878(6)
C3 C 0.0892(7) 0.2286(11) 0.4367(6)
C4 C 0.0953(7) 0.2824(10) 0.3572(6)
C5 C 0.1822(7) 0.1670(7) 0.3277(5)
C6 C 0.2607(6) -0.0106(8) 0.3802(4)
C7 C 0.3429(6) -0.1224(8) 0.3437(5)
C8 C 0.3447(8) -0.0507(10) 0.2647(6)
C9 C 0.2689(9) 0.1206(12) 0.2153(6)
C10 C 0.1866(8) 0.2307(11) 0.2457(6)
C11 C 0.323(1) -0.2458(11) 0.5251(8)
C12 C 0.4290(9) -0.3127(10) 0.3872(7)
H1 H 0.157(2) 0.013(2) 0.5491(14)
H2 H 0.018(2) 0.315(2) 0.4579(16)
H3 H 0.0373(16) 0.416(2) 0.3164(13)
H4 H 0.1256(17) 0.364(2) 0.2103(13)
H5 H 0.277(3) 0.171(3) 0.1554(16)
H6 H 0.406(2) -0.135(3) 0.2370(12)
H7 H 0.455(2) -0.253(3) 0.5623(18)
H8 H 0.269(2) -0.371(2) 0.4802(16)
H9 H 0.295(3) -0.246(3) 0.5813(18)
H10 H 0.5320(19) -0.298(2) 0.4633(15)
H11 H 0.3455(19) -0.4230(19) 0.3825(14)
H12 H 0.475(2) -0.372(3) 0.3474(16)
loop_
_geom_bond_atom_site_label_1
_geom_bond_atom_site_label_2
_geom_bond_distance
_geom_bond_site_symmetry_1
_geom_bond_site_symmetry_2
C1 C2 1.388 1_555 1_555
C2 C3 1.384 1_555 1_555
C3 C4 1.370 1_555 1_555
C4 C5 1.427 1_555 1_555
C5 C6 1.445 1_555 1_555
C6 C1 1.425 1_555 1_555
C7 C6 1.456 1_555 1_555
C8 C7 1.378 1_555 1_555
C9 C8 1.388 1_555 1_555
C10 C5 1.419 1_555 1_555
C11 C1 1.539 1_555 1_555
C12 C7 1.508 1_555 1_555
H1 C2 1.092 1_555 1_555
H2 C3 1.106 1_555 1_555
H3 C4 1.092 1_555 1_555
H4 C10 1.073 1_555 1_555
H5 C9 1.072 1_555 1_555
H6 C8 1.095 1_555 1_555
H7 C11 1.068 1_555 1_555
H8 C11 1.061 1_555 1_555
H9 C11 1.085 1_555 1_555
H10 C12 1.064 1_555 1_555
H11 C12 1.087 1_555 1_555
H12 C12 1.052 1_555 1_555
C9 C10 1.382 1_555 1_555
#END
