
#######################################################################
#
#                 Cambridge Crystallographic Data Centre
#                                CCDC
#
#######################################################################
#
# If this CIF has been generated from an entry in the Cambridge
# Structural Database, then it will include bibliographic, chemical,
# crystal, experimental, refinement or atomic coordinate data resulting
# from the CCDC's data processing and validation procedures.
#
#######################################################################

data_CSD_CIF_DMNAPH02
_audit_creation_date 2001-04-25
_audit_creation_method CSD-ConQuest-V1
_database_code_CSD DMNAPH02
_database_code_depnum_ccdc_archive 'CCDC 158801'
_database_code_depnum_ccdc_journal 440/219
_chemical_formula_sum 'C12 H12'
_chemical_formula_moiety
;
C12 H12
;
_journal_coden_Cambridge 440
_journal_volume 24
_journal_year 2000
_journal_page_first 1063
_journal_name_full 'New J.Chem. '
loop_
_publ_author_name
"C.C.Wilson"
"H.Nowell"
_chemical_name_systematic
;
1,8-Dimethylnaphthalene
;
_cell_volume    886.068
_exptl_crystal_colour 'pale yellow'
_exptl_crystal_density_diffrn 1.169
_exptl_crystal_description 'thick plate'
_exptl_crystal_preparation 'acetone'
_diffrn_ambient_temperature 50
_diffrn_radiation_probe 'neutron radiation'
#These two values have been output from a single CSD field.
_refine_ls_R_factor_gt 0.0743
_refine_ls_wR_factor_gt 0.0743
_symmetry_cell_setting monoclinic
_symmetry_space_group_name_H-M 'P 21/c'
_symmetry_Int_Tables_number 14
loop_
_symmetry_equiv_pos_site_id
_symmetry_equiv_pos_as_xyz
1 x,y,z
2 x,1/2-y,1/2+z
3 -x,-y,-z
4 -x,-1/2+y,-1/2-z
_cell_length_a 9.646(2)
_cell_length_b 6.904(2)
_cell_length_c 16.131(4)
_cell_angle_alpha 90
_cell_angle_beta 124.43(2)
_cell_angle_gamma 90
_cell_formula_units_Z 4
loop_
_atom_type_symbol
_atom_type_radius_bond
C 0.68
H 0.23
loop_
_atom_site_label
_atom_site_type_symbol
_atom_site_fract_x
_atom_site_fract_y
_atom_site_fract_z
C1 C 0.2479(5) -0.0636(6) 0.4617(4)
C2 C 0.1653(6) 0.0595(7) 0.4889(4)
C3 C 0.0872(6) 0.2312(8) 0.4373(4)
C4 C 0.0946(6) 0.2855(7) 0.3582(4)
C5 C 0.1810(5) 0.1685(6) 0.3287(4)
C6 C 0.2604(5) -0.0099(6) 0.3803(3)
C7 C 0.3432(5) -0.1221(7) 0.3448(4)
C8 C 0.3456(6) -0.0519(8) 0.2650(4)
C9 C 0.2686(6) 0.1221(8) 0.2156(4)
C10 C 0.1865(6) 0.2330(7) 0.2464(4)
C11 C 0.3224(7) -0.2451(7) 0.5254(5)
C12 C 0.4291(6) -0.3144(7) 0.3877(5)
H1 H 0.1592(18) 0.0152(19) 0.5520(12)
H2 H 0.0210(16) 0.322(2) 0.4617(13)
H3 H 0.0355(13) 0.4197(16) 0.3179(10)
H4 H 0.1208(15) 0.3654(18) 0.2078(10)
H5 H 0.272(2) 0.172(2) 0.1526(13)
H6 H 0.4097(16) -0.1346(19) 0.2388(10)
H7 H 0.4587(15) -0.2549(19) 0.5650(12)
H8 H 0.2673(16) -0.3733(16) 0.4816(11)
H9 H 0.299(2) -0.242(2) 0.5842(14)
H10 H 0.5368(14) -0.3018(18) 0.4662(11)
H11 H 0.3433(17) -0.4232(16) 0.3828(13)
H12 H 0.473(2) -0.372(2) 0.3443(13)
loop_
_geom_bond_atom_site_label_1
_geom_bond_atom_site_label_2
_geom_bond_distance
_geom_bond_site_symmetry_1
_geom_bond_site_symmetry_2
C1 C2 1.395 1_555 1_555
C2 C3 1.399 1_555 1_555
C3 C4 1.370 1_555 1_555
C4 C5 1.422 1_555 1_555
C5 C6 1.441 1_555 1_555
C6 C1 1.434 1_555 1_555
C7 C6 1.443 1_555 1_555
C8 C7 1.388 1_555 1_555
C9 C8 1.400 1_555 1_555
C10 C5 1.429 1_555 1_555
C11 C1 1.519 1_555 1_555
C12 C7 1.510 1_555 1_555
H1 C2 1.096 1_555 1_555
H2 C3 1.113 1_555 1_555
H3 C4 1.089 1_555 1_555
H4 C10 1.086 1_555 1_555
H5 C9 1.091 1_555 1_555
H6 C8 1.087 1_555 1_555
H7 C11 1.092 1_555 1_555
H8 C11 1.068 1_555 1_555
H9 C11 1.092 1_555 1_555
H10 C12 1.097 1_555 1_555
H11 C12 1.087 1_555 1_555
H12 C12 1.078 1_555 1_555
C9 C10 1.380 1_555 1_555
#END
