
#######################################################################
#
#                 Cambridge Crystallographic Data Centre
#                                CCDC
#
#######################################################################
#
# If this CIF has been generated from an entry in the Cambridge
# Structural Database, then it will include bibliographic, chemical,
# crystal, experimental, refinement or atomic coordinate data resulting
# from the CCDC's data processing and validation procedures.
#
#######################################################################

data_CSD_CIF_DOFZOP
_audit_creation_date 2014-05-05
_audit_creation_method CSD-ConQuest-V1
_database_code_CSD DOFZOP
_database_code_depnum_ccdc_archive 'CCDC 947432'
_chemical_formula_sum 'C34 H38'
_chemical_formula_moiety
;
C34 H38
;
_journal_coden_Cambridge 4
_journal_volume 135
_journal_year 2013
_journal_page_first 16526
_journal_name_full 'J.Am.Chem.Soc. '
loop_
_publ_author_name
"K.Yamamoto"
"N.Oyamada"
"Sheng Xia"
"Y.Kobayashi"
"M.Yamaguchi"
"H.Maeda"
"H.Nishihara"
"T.Uchimaru"
"Eunsang Kwon"
_chemical_name_systematic
;
1,10-bis(adamantan-1-yl)phenanthrene
;
_cell_volume   2409.069
_exptl_crystal_colour 'colorless'
_exptl_crystal_density_diffrn 1.231
_exptl_crystal_description 'block'
_diffrn_ambient_temperature 173
#These two values have been output from a single CSD field.
_refine_ls_R_factor_gt 0.0822
_refine_ls_wR_factor_gt 0.0822
_symmetry_cell_setting monoclinic
_symmetry_space_group_name_H-M 'P 21/c'
_symmetry_Int_Tables_number 14
loop_
_symmetry_equiv_pos_site_id
_symmetry_equiv_pos_as_xyz
1 x,y,z
2 -x,1/2+y,1/2-z
3 -x,-y,-z
4 x,-1/2-y,-1/2+z
_cell_length_a 6.8945(4)
_cell_length_b 29.5705(16)
_cell_length_c 12.0622(8)
_cell_angle_alpha 90
_cell_angle_beta 101.5849(18)
_cell_angle_gamma 90
_cell_formula_units_Z 4
loop_
_atom_type_symbol
_atom_type_radius_bond
C 0.68
H 0.23
loop_
_atom_site_label
_atom_site_type_symbol
_atom_site_fract_x
_atom_site_fract_y
_atom_site_fract_z
C1 C 0.6642(4) 0.0747(1) 0.3305(3)
C2 C 0.5029(4) 0.06761(11) 0.3826(3)
H1 H 0.41090 0.04440 0.35410
C3 C 0.4716(5) 0.09310(12) 0.4744(3)
H2 H 0.35210 0.09010 0.50160
C4 C 0.6156(5) 0.12246(11) 0.5249(3)
H3 H 0.60790 0.13580 0.59550
C5 C 0.7748(4) 0.1331(1) 0.4730(3)
C6 C 0.9405(5) 0.16016(11) 0.5302(3)
C7 C 0.9642(5) 0.17345(11) 0.6438(3)
H4 H 0.86360 0.16620 0.68430
C8 C 1.1307(5) 0.19687(12) 0.6988(3)
H5 H 1.14420 0.20510 0.77610
C9 C 1.2778(5) 0.20823(11) 0.6394(3)
H6 H 1.39270 0.22400 0.67660
C10 C 1.2571(5) 0.19671(11) 0.5273(3)
H7 H 1.35670 0.20530 0.48730
C11 C 1.0912(5) 0.17248(10) 0.4707(3)
C12 C 1.0550(4) 0.16443(11) 0.3521(3)
H8 H 1.14410 0.17710 0.30990
C13 C 0.8987(4) 0.13947(10) 0.2952(3)
C14 C 0.7790(4) 0.11469(10) 0.3633(3)
C15 C 0.7363(4) 0.03242(10) 0.2746(3)
C16 C 0.5753(4) 0.00945(10) 0.1854(3)
H9 H 0.45700 0.00360 0.21820
H10 H 0.53580 0.02990 0.11980
C17 C 0.7943(5) -0.00162(10) 0.3738(3)
H11 H 0.89880 0.01190 0.43270
H12 H 0.67760 -0.00740 0.40790
C18 C 0.9231(4) 0.03927(10) 0.2258(3)
H13 H 1.02860 0.05270 0.28450
H14 H 0.89390 0.06070 0.16150
C19 C 0.8692(4) -0.04646(10) 0.3353(3)
H15 H 0.90410 -0.06740 0.40140
C20 C 0.6506(5) -0.03528(11) 0.1458(3)
H16 H 0.54450 -0.04930 0.08700
C21 C 0.9966(5) -0.00553(10) 0.1852(3)
H17 H 1.11580 0.00040 0.15190
C22 C 0.7046(5) -0.06736(11) 0.2461(3)
H18 H 0.74960 -0.09660 0.22050
H19 H 0.58670 -0.07310 0.27930
C23 C 1.0518(5) -0.03824(11) 0.2838(3)
H20 H 1.16020 -0.02540 0.34160
H21 H 1.09820 -0.06720 0.25700
C24 C 0.8337(5) -0.02608(11) 0.0947(3)
H22 H 0.88090 -0.05470 0.06660
H23 H 0.79900 -0.00500 0.03010
C25 C 0.8230(4) 0.15186(10) 0.1681(3)
C26 C 0.6283(4) 0.12877(10) 0.1124(3)
H24 H 0.52620 0.13520 0.15740
H25 H 0.64860 0.09560 0.11220
C27 C 0.9796(5) 0.14517(11) 0.0944(3)
H26 H 1.10080 0.16230 0.12770
H27 H 1.01490 0.11270 0.09360
C28 C 0.7743(5) 0.20364(10) 0.1652(3)
H28 H 0.67200 0.20940 0.21050
H29 H 0.89480 0.22060 0.20020
C29 C 0.5545(5) 0.14524(11) -0.0100(3)
H30 H 0.43060 0.12860 -0.04410
C30 C 0.9022(5) 0.16138(12) -0.0273(3)
H31 H 1.00520 0.15590 -0.07340
C31 C 0.6998(5) 0.22085(12) 0.0442(3)
H32 H 0.67230 0.25400 0.04590
C32 C 0.7126(5) 0.13585(12) -0.0796(3)
H33 H 0.66500 0.14590 -0.15870
H34 H 0.73990 0.10300 -0.08030
C33 C 0.5106(5) 0.19574(11) -0.0098(3)
H35 H 0.40570 0.20170 0.03360
H36 H 0.46340 0.20650 -0.08830
C34 C 0.8577(5) 0.21214(12) -0.0257(4)
H37 H 0.98010 0.22890 0.00740
H38 H 0.81040 0.22310 -0.10400
loop_
_geom_bond_atom_site_label_1
_geom_bond_atom_site_label_2
_geom_bond_distance
_geom_bond_site_symmetry_1
_geom_bond_site_symmetry_2
C1 C2 1.399 1_555 1_555
C2 H1 0.951 1_555 1_555
C3 C2 1.392 1_555 1_555
H2 C3 0.950 1_555 1_555
C4 C3 1.367 1_555 1_555
H3 C4 0.950 1_555 1_555
C5 C4 1.404 1_555 1_555
C6 C5 1.451 1_555 1_555
C7 C6 1.403 1_555 1_555
H4 C7 0.950 1_555 1_555
C8 C7 1.390 1_555 1_555
H5 C8 0.950 1_555 1_555
C9 C8 1.395 1_555 1_555
H6 C9 0.951 1_555 1_555
C10 C9 1.374 1_555 1_555
H7 C10 0.950 1_555 1_555
C11 C6 1.424 1_555 1_555
C12 C11 1.422 1_555 1_555
H8 C12 0.950 1_555 1_555
C13 C12 1.371 1_555 1_555
C14 C1 1.434 1_555 1_555
C15 C1 1.549 1_555 1_555
C16 C15 1.540 1_555 1_555
H9 C16 0.991 1_555 1_555
H10 C16 0.990 1_555 1_555
C17 C15 1.553 1_555 1_555
H11 C17 0.989 1_555 1_555
H12 C17 0.989 1_555 1_555
C18 C15 1.533 1_555 1_555
H13 C18 0.991 1_555 1_555
H14 C18 0.990 1_555 1_555
C19 C17 1.529 1_555 1_555
H15 C19 1.000 1_555 1_555
C20 C16 1.532 1_555 1_555
H16 C20 1.001 1_555 1_555
C21 C18 1.533 1_555 1_555
H17 C21 1.000 1_555 1_555
C22 C19 1.529 1_555 1_555
H18 C22 0.989 1_555 1_555
H19 C22 0.990 1_555 1_555
C23 C19 1.531 1_555 1_555
H20 C23 0.990 1_555 1_555
H21 C23 0.991 1_555 1_555
C24 C20 1.536 1_555 1_555
H22 C24 0.991 1_555 1_555
H23 C24 0.989 1_555 1_555
C25 C13 1.561 1_555 1_555
C26 C25 1.535 1_555 1_555
H24 C26 0.990 1_555 1_555
H25 C26 0.991 1_555 1_555
C27 C25 1.543 1_555 1_555
H26 C27 0.991 1_555 1_555
H27 C27 0.991 1_555 1_555
C28 C25 1.566 1_555 1_555
H28 C28 0.990 1_555 1_555
H29 C28 0.989 1_555 1_555
C29 C26 1.541 1_555 1_555
H30 C29 1.000 1_555 1_555
C30 C27 1.535 1_555 1_555
H31 C30 0.999 1_555 1_555
C31 C28 1.534 1_555 1_555
H32 C31 0.999 1_555 1_555
C32 C29 1.529 1_555 1_555
H33 C32 0.990 1_555 1_555
H34 C32 0.990 1_555 1_555
C33 C29 1.524 1_555 1_555
H35 C33 0.990 1_555 1_555
H36 C33 0.990 1_555 1_555
C34 C30 1.533 1_555 1_555
H37 C34 0.991 1_555 1_555
H38 C34 0.990 1_555 1_555
C5 C14 1.436 1_555 1_555
C10 C11 1.405 1_555 1_555
C13 C14 1.471 1_555 1_555
C20 C22 1.524 1_555 1_555
C21 C23 1.521 1_555 1_555
C21 C24 1.526 1_555 1_555
C30 C32 1.531 1_555 1_555
C31 C33 1.528 1_555 1_555
C31 C34 1.527 1_555 1_555
#END
