
#######################################################################
#
#                 Cambridge Crystallographic Data Centre
#                                CCDC
#
#######################################################################
#
# If this CIF has been generated from an entry in the Cambridge
# Structural Database, then it will include bibliographic, chemical,
# crystal, experimental, refinement or atomic coordinate data resulting
# from the CCDC's data processing and validation procedures.
#
#######################################################################

data_CSD_CIF_DOFZUV
_audit_creation_date 2014-05-05
_audit_creation_method CSD-ConQuest-V1
_database_code_CSD DOFZUV
_database_code_depnum_ccdc_archive 'CCDC 947431'
_chemical_formula_sum 'C30 H36'
_chemical_formula_moiety
;
C30 H36
;
_journal_coden_Cambridge 4
_journal_volume 135
_journal_year 2013
_journal_page_first 16526
_journal_name_full 'J.Am.Chem.Soc. '
loop_
_publ_author_name
"K.Yamamoto"
"N.Oyamada"
"Sheng Xia"
"Y.Kobayashi"
"M.Yamaguchi"
"H.Maeda"
"H.Nishihara"
"T.Uchimaru"
"Eunsang Kwon"
_chemical_name_systematic
;
1,1'-naphthalene-1,8-diyldiadamantane
;
_cell_volume   2217.866
_exptl_crystal_colour 'colorless'
_exptl_crystal_density_diffrn 1.188
_exptl_crystal_description 'block'
_diffrn_ambient_temperature 173
#These two values have been output from a single CSD field.
_refine_ls_R_factor_gt 0.0716
_refine_ls_wR_factor_gt 0.0716
_symmetry_cell_setting monoclinic
_symmetry_space_group_name_H-M 'P 21/a'
_symmetry_Int_Tables_number 14
loop_
_symmetry_equiv_pos_site_id
_symmetry_equiv_pos_as_xyz
1 x,y,z
2 1/2-x,1/2+y,-z
3 -x,-y,-z
4 -1/2+x,-1/2-y,z
_cell_length_a 13.0739(8)
_cell_length_b 11.0098(7)
_cell_length_c 15.4761(9)
_cell_angle_alpha 90
_cell_angle_beta 95.3709(18)
_cell_angle_gamma 90
_cell_formula_units_Z 4
loop_
_atom_type_symbol
_atom_type_radius_bond
C 0.68
H 0.23
loop_
_atom_site_label
_atom_site_type_symbol
_atom_site_fract_x
_atom_site_fract_y
_atom_site_fract_z
C1 C 0.84619(18) 0.0667(2) 0.29825(15)
C2 C 0.9313(2) -0.0066(2) 0.30345(16)
H1 H 0.99540 0.02710 0.32540
C3 C 0.9283(2) -0.1299(2) 0.27781(16)
H2 H 0.98990 -0.17530 0.27610
C4 C 0.8360(2) -0.1816(2) 0.25589(16)
H3 H 0.83150 -0.26720 0.24890
C5 C 0.74587(19) -0.1106(2) 0.24311(15)
C6 C 0.6486(2) -0.1658(2) 0.22507(16)
H4 H 0.64340 -0.25190 0.22300
C7 C 0.5627(2) -0.0972(3) 0.21071(18)
H5 H 0.49650 -0.13300 0.20960
C8 C 0.5738(2) 0.0280(2) 0.19744(17)
H6 H 0.51390 0.07420 0.18050
C9 C 0.66691(18) 0.0878(2) 0.20771(15)
C10 C 0.75317(18) 0.0206(2) 0.24985(14)
C11 C 0.84915(18) 0.1725(2) 0.36512(15)
C12 C 0.94083(19) 0.2602(2) 0.35971(16)
H7 H 1.00560 0.21310 0.36290
H8 H 0.93330 0.30340 0.30330
C13 C 0.8641(2) 0.1105(2) 0.45559(15)
H9 H 0.80610 0.05440 0.46180
H10 H 0.92810 0.06200 0.45960
C14 C 0.74951(18) 0.2464(2) 0.36515(15)
H11 H 0.73580 0.28830 0.30870
H12 H 0.69150 0.19050 0.37200
C15 C 0.8701(2) 0.2030(2) 0.52972(15)
H13 H 0.88000 0.15920 0.58650
C16 C 0.9461(2) 0.3531(2) 0.43392(17)
H14 H 1.00530 0.40920 0.42860
C17 C 0.7558(2) 0.3405(2) 0.43830(16)
H15 H 0.69060 0.38840 0.43480
C18 C 0.9609(2) 0.2875(3) 0.52118(17)
H16 H 1.02540 0.23990 0.52490
H17 H 0.96580 0.34750 0.56900
C19 C 0.7712(2) 0.2772(3) 0.52604(16)
H18 H 0.71210 0.22330 0.53360
H19 H 0.77590 0.33820 0.57330
C20 C 0.8463(2) 0.4267(2) 0.42824(18)
H20 H 0.83630 0.46880 0.37150
H21 H 0.85010 0.48880 0.47470
C21 C 0.67524(18) 0.2022(2) 0.15030(15)
C22 C 0.78506(19) 0.2517(2) 0.14845(15)
H22 H 0.81120 0.27870 0.20740
H23 H 0.83050 0.18600 0.13090
C23 C 0.5999(2) 0.3048(2) 0.16949(16)
H24 H 0.52890 0.27250 0.16480
H25 H 0.61660 0.33460 0.22950
C24 C 0.6431(2) 0.1600(2) 0.05525(15)
H26 H 0.68920 0.09370 0.03990
H27 H 0.57220 0.12750 0.05160
C25 C 0.7886(2) 0.3581(2) 0.08541(16)
H28 H 0.86040 0.39020 0.08830
C26 C 0.6066(2) 0.4104(2) 0.10531(17)
H29 H 0.55920 0.47700 0.12020
C27 C 0.6481(2) 0.2645(2) -0.00995(16)
H30 H 0.62660 0.23400 -0.06980
C28 C 0.7565(2) 0.3143(2) -0.00677(16)
H31 H 0.75900 0.38260 -0.04810
H32 H 0.80410 0.25020 -0.02330
C29 C 0.5750(2) 0.3658(3) 0.01296(17)
H33 H 0.57800 0.43390 -0.02850
H34 H 0.50360 0.33490 0.00890
C30 C 0.7169(2) 0.4588(2) 0.11113(17)
H35 H 0.72090 0.52920 0.07180
H36 H 0.73810 0.48600 0.17110
loop_
_geom_bond_atom_site_label_1
_geom_bond_atom_site_label_2
_geom_bond_distance
_geom_bond_site_symmetry_1
_geom_bond_site_symmetry_2
C1 C2 1.371 1_555 1_555
C2 H1 0.950 1_555 1_555
C3 C2 1.414 1_555 1_555
H2 C3 0.950 1_555 1_555
C4 C3 1.349 1_555 1_555
H3 C4 0.950 1_555 1_555
C5 C4 1.412 1_555 1_555
C6 C5 1.414 1_555 1_555
H4 C6 0.951 1_555 1_555
C7 C6 1.354 1_555 1_555
H5 C7 0.950 1_555 1_555
C8 C7 1.403 1_555 1_555
H6 C8 0.950 1_555 1_555
C9 C8 1.380 1_555 1_555
C10 C1 1.458 1_555 1_555
C11 C1 1.556 1_555 1_555
C12 C11 1.548 1_555 1_555
H7 C12 0.990 1_555 1_555
H8 C12 0.991 1_555 1_555
C13 C11 1.553 1_555 1_555
H9 C13 0.990 1_555 1_555
H10 C13 0.990 1_555 1_555
C14 C11 1.536 1_555 1_555
H11 C14 0.989 1_555 1_555
H12 C14 0.990 1_555 1_555
C15 C13 1.531 1_555 1_555
H13 C15 1.000 1_555 1_555
C16 C12 1.535 1_555 1_555
H14 C16 1.000 1_555 1_555
C17 C14 1.531 1_555 1_555
H15 C17 1.000 1_555 1_555
C18 C15 1.524 1_555 1_555
H16 C18 0.990 1_555 1_555
H17 C18 0.990 1_555 1_555
C19 C15 1.526 1_555 1_555
H18 C19 0.990 1_555 1_555
H19 C19 0.991 1_555 1_555
C20 C16 1.531 1_555 1_555
H20 C20 0.991 1_555 1_555
H21 C20 0.990 1_555 1_555
C21 C9 1.551 1_555 1_555
C22 C21 1.538 1_555 1_555
H22 C22 0.990 1_555 1_555
H23 C22 0.990 1_555 1_555
C23 C21 1.546 1_555 1_555
H24 C23 0.990 1_555 1_555
H25 C23 0.990 1_555 1_555
C24 C21 1.562 1_555 1_555
H26 C24 0.990 1_555 1_555
H27 C24 0.990 1_555 1_555
C25 C22 1.528 1_555 1_555
H28 C25 1.000 1_555 1_555
C26 C23 1.537 1_555 1_555
H29 C26 1.001 1_555 1_555
C27 C24 1.536 1_555 1_555
H30 C27 1.000 1_555 1_555
C28 C25 1.527 1_555 1_555
H31 C28 0.990 1_555 1_555
H32 C28 0.990 1_555 1_555
C29 C26 1.531 1_555 1_555
H33 C29 0.990 1_555 1_555
H34 C29 0.990 1_555 1_555
C30 C25 1.528 1_555 1_555
H35 C30 0.990 1_555 1_555
H36 C30 0.990 1_555 1_555
C5 C10 1.451 1_555 1_555
C9 C10 1.451 1_555 1_555
C16 C18 1.528 1_555 1_555
C17 C19 1.523 1_555 1_555
C17 C20 1.536 1_555 1_555
C26 C30 1.532 1_555 1_555
C27 C28 1.516 1_555 1_555
C27 C29 1.532 1_555 1_555
#END
