
#######################################################################
#
#                 Cambridge Crystallographic Data Centre
#                                CCDC
#
#######################################################################
#
# If this CIF has been generated from an entry in the Cambridge
# Structural Database, then it will include bibliographic, chemical,
# crystal, experimental, refinement or atomic coordinate data resulting
# from the CCDC's data processing and validation procedures.
#
#######################################################################

data_CSD_CIF_DOGCAE
_audit_creation_date 2009-02-19
_audit_creation_method CSD-ConQuest-V1
_database_code_CSD DOGCAE
_database_code_depnum_ccdc_archive 'CCDC 671872'
_chemical_formula_sum 'C48 H30'
_chemical_formula_moiety
;
C48 H30
;
_journal_coden_Cambridge 1366
_journal_volume 350
_journal_year 2008
_journal_page_first 1841
_journal_name_full 'Adv.Synth.Catal. '
loop_
_publ_author_name
"Yao-Ting Wu"
"Wei-Chih Lin"
"Chia-Ju Liu"
"Chuan-Yi Wu"
_chemical_name_systematic
;
(Z)-1,3-bis(9-Phenanthrenyl)-2-(9-phenanthrenylethynyl)-1,3-butadiene
;
_chemical_melting_point 472.15
_cell_volume   1617.374
_exptl_crystal_colour 'yellow'
_exptl_crystal_density_diffrn 1.246
_exptl_special_details
;
Melting point range 472.15-473.15K

;
_exptl_crystal_description 'Lamellar'
_exptl_crystal_preparation 'chloroform/methanol'
_diffrn_ambient_temperature 296
#These two values have been output from a single CSD field.
_refine_ls_R_factor_gt 0.0516
_refine_ls_wR_factor_gt 0.0516
_symmetry_cell_setting triclinic
_symmetry_space_group_name_H-M 'P -1'
_symmetry_Int_Tables_number 2
loop_
_symmetry_equiv_pos_site_id
_symmetry_equiv_pos_as_xyz
1 x,y,z
2 -x,-y,-z
_cell_length_a 9.0868(18)
_cell_length_b 13.068(2)
_cell_length_c 15.152(3)
_cell_angle_alpha 65.804(8)
_cell_angle_beta 80.282(8)
_cell_angle_gamma 85.118(8)
_cell_formula_units_Z 2
loop_
_atom_type_symbol
_atom_type_radius_bond
C 0.68
H 0.23
loop_
_atom_site_label
_atom_site_type_symbol
_atom_site_fract_x
_atom_site_fract_y
_atom_site_fract_z
C1 C 0.2544(6) 0.6987(5) 0.8349(6)
H1 H 0.24320 0.74280 0.87070
C2 C 0.2221(6) 0.7495(5) 0.7430(5)
C3 C 0.1775(7) 0.8694(5) 0.7025(5)
C4 C 0.1104(10) 0.9130(6) 0.6239(6)
H2 H 0.09050 0.86810 0.59310
H3 H 0.08310 0.98860 0.59930
C5 C 0.3053(8) 0.5819(5) 0.8860(5)
C6 C 0.2471(7) 0.5151(6) 0.9878(5)
C7 C 0.1286(8) 0.5556(6) 1.0373(6)
H4 H 0.08770 0.62640 1.00510
C8 C 0.0718(7) 0.4922(8) 1.1328(7)
H5 H -0.00610 0.52060 1.16510
C9 C 0.1302(9) 0.3864(8) 1.1808(5)
H6 H 0.09120 0.34330 1.24530
C10 C 0.2444(9) 0.3451(5) 1.1340(6)
H7 H 0.28310 0.27390 1.16770
C11 C 0.3062(7) 0.4069(6) 1.0361(5)
C12 C 0.4250(7) 0.3632(6) 0.9829(6)
C13 C 0.4906(8) 0.2570(7) 1.0268(5)
H8 H 0.45770 0.21260 1.09210
C14 C 0.6016(9) 0.2173(5) 0.9759(7)
H9 H 0.64420 0.14690 1.00730
C15 C 0.6518(7) 0.2804(7) 0.8779(6)
H10 H 0.72650 0.25260 0.84320
C16 C 0.5894(8) 0.3841(6) 0.8335(5)
H11 H 0.62280 0.42690 0.76790
C17 C 0.4766(7) 0.4277(6) 0.8840(6)
C18 C 0.4144(8) 0.5371(5) 0.8388(4)
H12 H 0.45020 0.58010 0.77360
C19 C 0.2271(6) 0.6891(5) 0.6833(5)
C20 C 0.2325(6) 0.6396(5) 0.6325(5)
C21 C 0.2437(7) 0.5749(6) 0.5744(5)
C22 C 0.3225(7) 0.4765(6) 0.6014(4)
H13 H 0.36780 0.45300 0.65740
C23 C 0.3388(7) 0.4078(6) 0.5474(6)
C24 C 0.4224(8) 0.3076(7) 0.5759(5)
H14 H 0.47040 0.28550 0.63060
C25 C 0.4343(9) 0.2422(6) 0.5247(8)
H15 H 0.48950 0.17540 0.54460
C26 C 0.3645(11) 0.2750(8) 0.4433(8)
H16 H 0.37310 0.23020 0.40820
C27 C 0.2833(8) 0.3721(8) 0.4135(5)
H17 H 0.23760 0.39280 0.35810
C28 C 0.2667(8) 0.4420(6) 0.4643(5)
C29 C 0.1782(7) 0.5450(6) 0.4358(5)
C30 C 0.0961(9) 0.5816(7) 0.3566(5)
H18 H 0.09880 0.53870 0.32020
C31 C 0.0137(8) 0.6776(8) 0.3328(5)
H19 H -0.04070 0.69900 0.28100
C32 C 0.0090(8) 0.7443(6) 0.3840(6)
H20 H -0.04580 0.81140 0.36570
C33 C 0.0853(8) 0.7112(6) 0.4616(5)
H21 H 0.08070 0.75570 0.49670
C34 C 0.1701(7) 0.6118(6) 0.4895(5)
C35 C 0.2089(10) 0.9401(5) 0.7519(5)
C36 C 0.0968(8) 0.9789(5) 0.8002(5)
H22 H 0.00020 0.95650 0.80520
C37 C 0.1189(9) 1.0531(5) 0.8445(4)
C38 C -0.0010(8) 1.0952(6) 0.8917(5)
H23 H -0.09730 1.07280 0.89580
C39 C 0.0196(10) 1.1687(6) 0.9323(5)
H24 H -0.06180 1.19620 0.96280
C40 C 0.1616(12) 1.2011(6) 0.9272(5)
H25 H 0.17650 1.25060 0.95470
C41 C 0.2806(8) 1.1612(6) 0.8823(6)
H26 H 0.37570 1.18480 0.87920
C42 C 0.2644(9) 1.0851(5) 0.8401(4)
C43 C 0.3885(9) 1.0422(5) 0.7904(5)
C44 C 0.5382(12) 1.0695(5) 0.7835(5)
H27 H 0.55890 1.11430 0.81420
C45 C 0.6530(9) 1.0325(7) 0.7335(7)
H28 H 0.75040 1.05230 0.73000
C46 C 0.6246(11) 0.9654(7) 0.6882(6)
H29 H 0.70270 0.94040 0.65330
C47 C 0.4812(12) 0.9356(5) 0.6944(5)
H30 H 0.46380 0.88990 0.66380
C48 C 0.3594(10) 0.9718(5) 0.7455(5)
loop_
_geom_bond_atom_site_label_1
_geom_bond_atom_site_label_2
_geom_bond_distance
_geom_bond_site_symmetry_1
_geom_bond_site_symmetry_2
C1 H1 0.930 1_555 1_555
C2 C1 1.346 1_555 1_555
C3 C2 1.478 1_555 1_555
C4 C3 1.321 1_555 1_555
H2 C4 0.930 1_555 1_555
H3 C4 0.930 1_555 1_555
C5 C1 1.475 1_555 1_555
C6 C5 1.456 1_555 1_555
C7 C6 1.399 1_555 1_555
H4 C7 0.930 1_555 1_555
C8 C7 1.373 1_555 1_555
H5 C8 0.930 1_555 1_555
C9 C8 1.380 1_555 1_555
H6 C9 0.929 1_555 1_555
C10 C9 1.357 1_555 1_555
H7 C10 0.930 1_555 1_555
C11 C6 1.407 1_555 1_555
C12 C11 1.456 1_555 1_555
C13 C12 1.400 1_555 1_555
H8 C13 0.930 1_555 1_555
C14 C13 1.363 1_555 1_555
H9 C14 0.930 1_555 1_555
C15 C14 1.387 1_555 1_555
H10 C15 0.929 1_555 1_555
C16 C15 1.364 1_555 1_555
H11 C16 0.930 1_555 1_555
C17 C12 1.404 1_555 1_555
C18 C5 1.357 1_555 1_555
H12 C18 0.930 1_555 1_555
C19 C2 1.417 1_555 1_555
C20 C19 1.185 1_555 1_555
C21 C20 1.437 1_555 1_555
C22 C21 1.358 1_555 1_555
H13 C22 0.931 1_555 1_555
C23 C22 1.427 1_555 1_555
C24 C23 1.399 1_555 1_555
H14 C24 0.930 1_555 1_555
C25 C24 1.358 1_555 1_555
H15 C25 0.930 1_555 1_555
C26 C25 1.375 1_555 1_555
H16 C26 0.930 1_555 1_555
C27 C26 1.357 1_555 1_555
H17 C27 0.929 1_555 1_555
C28 C23 1.408 1_555 1_555
C29 C28 1.450 1_555 1_555
C30 C29 1.413 1_555 1_555
H18 C30 0.930 1_555 1_555
C31 C30 1.351 1_555 1_555
H19 C31 0.931 1_555 1_555
C32 C31 1.378 1_555 1_555
H20 C32 0.931 1_555 1_555
C33 C32 1.363 1_555 1_555
H21 C33 0.930 1_555 1_555
C34 C21 1.436 1_555 1_555
C35 C3 1.476 1_555 1_555
C36 C35 1.340 1_555 1_555
H22 C36 0.930 1_555 1_555
C37 C36 1.429 1_555 1_555
C38 C37 1.400 1_555 1_555
H23 C38 0.930 1_555 1_555
C39 C38 1.375 1_555 1_555
H24 C39 0.930 1_555 1_555
C40 C39 1.372 1_555 1_555
H25 C40 0.930 1_555 1_555
C41 C40 1.360 1_555 1_555
H26 C41 0.929 1_555 1_555
C42 C37 1.403 1_555 1_555
C43 C42 1.451 1_555 1_555
C44 C43 1.412 1_555 1_555
H27 C44 0.931 1_555 1_555
C45 C44 1.358 1_555 1_555
H28 C45 0.930 1_555 1_555
C46 C45 1.378 1_555 1_555
H29 C46 0.930 1_555 1_555
C47 C46 1.369 1_555 1_555
H30 C47 0.930 1_555 1_555
C48 C35 1.439 1_555 1_555
C10 C11 1.408 1_555 1_555
C16 C17 1.398 1_555 1_555
C17 C18 1.422 1_555 1_555
C27 C28 1.401 1_555 1_555
C29 C34 1.407 1_555 1_555
C33 C34 1.396 1_555 1_555
C41 C42 1.413 1_555 1_555
C43 C48 1.412 1_555 1_555
C47 C48 1.404 1_555 1_555
#END
