
#######################################################################
#
#                 Cambridge Crystallographic Data Centre
#                                CCDC
#
#######################################################################
#
# If this CIF has been generated from an entry in the Cambridge
# Structural Database, then it will include bibliographic, chemical,
# crystal, experimental, refinement or atomic coordinate data resulting
# from the CCDC's data processing and validation procedures.
#
#######################################################################

data_CSD_CIF_DORYEP
_audit_creation_date 2009-07-13
_audit_creation_method CSD-ConQuest-V1
_database_code_CSD DORYEP
_database_code_depnum_ccdc_archive 'CCDC 720175'
_chemical_formula_sum 'C30 H28'
_chemical_formula_moiety
;
C30 H28
;
_journal_coden_Cambridge 1336
_journal_volume 10
_journal_year 2008
_journal_page_first 5537
_journal_name_full 'Org.Lett. '
loop_
_publ_author_name
"Wanli Chen"
"Jian Cao"
"Xian Huang"
_chemical_name_systematic
;
1-n-Butyl-3-(diphenylmethylene)-2,3-dihydro-1H-benzo[f]indene
;
_chemical_melting_point 372.15
_cell_volume   2285.237
_exptl_crystal_colour 'colorless'
_exptl_crystal_density_diffrn 1.129
_exptl_special_details
;
Melting point range 372.15-374.15K

;
_exptl_crystal_description 'prismatic'
_diffrn_ambient_temperature 293
#These two values have been output from a single CSD field.
_refine_ls_R_factor_gt 0.0577
_refine_ls_wR_factor_gt 0.0577
_symmetry_cell_setting monoclinic
_symmetry_space_group_name_H-M 'P 21/c'
_symmetry_Int_Tables_number 14
loop_
_symmetry_equiv_pos_site_id
_symmetry_equiv_pos_as_xyz
1 x,y,z
2 -x,1/2+y,1/2-z
3 -x,-y,-z
4 x,-1/2-y,-1/2+z
_cell_length_a 11.8669(13)
_cell_length_b 9.9929(11)
_cell_length_c 19.656(2)
_cell_angle_alpha 90
_cell_angle_beta 101.360(2)
_cell_angle_gamma 90
_cell_formula_units_Z 4
loop_
_atom_type_symbol
_atom_type_radius_bond
C 0.68
H 0.23
loop_
_atom_site_label
_atom_site_type_symbol
_atom_site_fract_x
_atom_site_fract_y
_atom_site_fract_z
C1 C 0.48685(17) 0.53639(19) 0.18268(10)
C2 C 0.49586(17) 0.4590(2) 0.1278(1)
C3 C 0.39771(17) 0.3957(2) 0.07621(10)
H1 H 0.37120 0.45550 0.03750
H2 H 0.33370 0.37500 0.09840
C4 C 0.44861(17) 0.2672(2) 0.05162(11)
H3 H 0.44080 0.19590 0.08460
C5 C 0.57410(18) 0.3012(2) 0.06079(10)
C6 C 0.60124(17) 0.4109(2) 0.10678(10)
C7 C 0.71224(18) 0.4577(2) 0.12184(11)
H4 H 0.73060 0.52940 0.15220
C8 C 0.79822(18) 0.3987(2) 0.09196(11)
C9 C 0.77077(18) 0.2890(2) 0.04632(10)
C10 C 0.65618(18) 0.2420(2) 0.03130(11)
H5 H 0.63670 0.17030 0.00110
C11 C 0.91290(19) 0.4461(2) 0.10644(13)
H6 H 0.93230 0.51780 0.13660
C12 C 0.9949(2) 0.3884(3) 0.07687(15)
H7 H 1.06960 0.42150 0.08640
C13 C 0.9676(2) 0.2800(3) 0.03236(13)
H8 H 1.02460 0.24010 0.01280
C14 C 0.8587(2) 0.2318(3) 0.01721(12)
H9 H 0.84190 0.15970 -0.01300
C15 C 0.59224(17) 0.5759(2) 0.23373(10)
C16 C 0.65617(19) 0.4824(2) 0.27659(11)
H10 H 0.63100 0.39410 0.27560
C17 C 0.7567(2) 0.5182(3) 0.32074(13)
H11 H 0.79890 0.45420 0.34930
C18 C 0.7948(2) 0.6476(3) 0.32264(14)
H12 H 0.86400 0.67100 0.35130
C19 C 0.7305(2) 0.7426(2) 0.28207(13)
H13 H 0.75530 0.83110 0.28400
C20 C 0.62971(19) 0.7073(2) 0.23864(11)
H14 H 0.58580 0.77270 0.21210
C21 C 0.37709(17) 0.58388(18) 0.19821(11)
C22 C 0.3620(2) 0.5968(2) 0.26658(11)
H15 H 0.42290 0.57660 0.30270
C23 C 0.2599(2) 0.6384(2) 0.28196(12)
H16 H 0.25260 0.64570 0.32810
C24 C 0.1682(2) 0.6693(2) 0.22993(14)
H17 H 0.09840 0.69580 0.24030
C25 C 0.1818(2) 0.6603(2) 0.16233(13)
H18 H 0.12080 0.68250 0.12660
C26 C 0.28385(19) 0.6191(2) 0.14665(11)
H19 H 0.29090 0.61470 0.10040
C27 C 0.39369(19) 0.2193(2) -0.01964(12)
H20 H 0.43310 0.13890 -0.02980
H21 H 0.40500 0.28680 -0.05310
C28 C 0.26607(19) 0.1890(3) -0.02975(13)
H22 H 0.25330 0.12560 0.00530
H23 H 0.22500 0.27060 -0.02350
C29 C 0.2192(2) 0.1326(3) -0.09998(14)
H24 H 0.23670 0.19460 -0.13440
H25 H 0.25950 0.04980 -0.10490
C30 C 0.0935(2) 0.1048(3) -0.11620(16)
H26 H 0.07510 0.03980 -0.08410
H27 H 0.07230 0.07070 -0.16260
H28 H 0.05200 0.18600 -0.11230
loop_
_geom_bond_atom_site_label_1
_geom_bond_atom_site_label_2
_geom_bond_distance
_geom_bond_site_symmetry_1
_geom_bond_site_symmetry_2
C1 C2 1.349 1_555 1_555
C2 C3 1.523 1_555 1_555
C3 H1 0.970 1_555 1_555
H2 C3 0.970 1_555 1_555
C4 C3 1.537 1_555 1_555
H3 C4 0.980 1_555 1_555
C5 C4 1.503 1_555 1_555
C6 C2 1.473 1_555 1_555
C7 C6 1.374 1_555 1_555
H4 C7 0.930 1_555 1_555
C8 C7 1.403 1_555 1_555
C9 C8 1.413 1_555 1_555
C10 C5 1.363 1_555 1_555
H5 C10 0.930 1_555 1_555
C11 C8 1.416 1_555 1_555
H6 C11 0.930 1_555 1_555
C12 C11 1.356 1_555 1_555
H7 C12 0.930 1_555 1_555
C13 C12 1.390 1_555 1_555
H8 C13 0.931 1_555 1_555
C14 C9 1.406 1_555 1_555
H9 C14 0.930 1_555 1_555
C15 C1 1.494 1_555 1_555
C16 C15 1.381 1_555 1_555
H10 C16 0.931 1_555 1_555
C17 C16 1.377 1_555 1_555
H11 C17 0.930 1_555 1_555
C18 C17 1.368 1_555 1_555
H12 C18 0.930 1_555 1_555
C19 C18 1.371 1_555 1_555
H13 C19 0.930 1_555 1_555
C20 C15 1.384 1_555 1_555
H14 C20 0.929 1_555 1_555
C21 C1 1.474 1_555 1_555
C22 C21 1.396 1_555 1_555
H15 C22 0.930 1_555 1_555
C23 C22 1.370 1_555 1_555
H16 C23 0.931 1_555 1_555
C24 C23 1.374 1_555 1_555
H17 C24 0.930 1_555 1_555
C25 C24 1.373 1_555 1_555
H18 C25 0.931 1_555 1_555
C26 C21 1.391 1_555 1_555
H19 C26 0.930 1_555 1_555
C27 C4 1.502 1_555 1_555
H20 C27 0.970 1_555 1_555
H21 C27 0.970 1_555 1_555
C28 C27 1.519 1_555 1_555
H22 C28 0.970 1_555 1_555
H23 C28 0.970 1_555 1_555
C29 C28 1.493 1_555 1_555
H24 C29 0.970 1_555 1_555
H25 C29 0.970 1_555 1_555
C30 C29 1.489 1_555 1_555
H26 C30 0.960 1_555 1_555
H27 C30 0.960 1_555 1_555
H28 C30 0.960 1_555 1_555
C5 C6 1.417 1_555 1_555
C9 C10 1.414 1_555 1_555
C13 C14 1.356 1_555 1_555
C19 C20 1.372 1_555 1_555
C25 C26 1.370 1_555 1_555
#END
