
#######################################################################
#
#                 Cambridge Crystallographic Data Centre
#                                CCDC
#
#######################################################################
#
# If this CIF has been generated from an entry in the Cambridge
# Structural Database, then it will include bibliographic, chemical,
# crystal, experimental, refinement or atomic coordinate data resulting
# from the CCDC's data processing and validation procedures.
#
#######################################################################

data_CSD_CIF_DPANTR10
_audit_creation_date 2016-04-05
_audit_creation_method CSD-ConQuest-V1
_database_code_CSD DPANTR10
_database_code_depnum_ccdc_archive 'CCDC 1453456'
_chemical_formula_sum 'C26 H18'
_chemical_formula_moiety
;
C26 H18
;
_journal_coden_Cambridge 983
_journal_volume 120
_journal_year 2016
_journal_page_first 1831
_journal_name_full 'J.Phys.Chem.C '
loop_
_publ_author_name
"T.Salzillo"
"R.G.D.Valle"
"E.Venuti"
"A.Brillante"
"T.Siegrist"
"M.Masino"
"F.Mezzadri"
"A.Girlando"
_chemical_name_systematic
;
9,10-diphenylanthracene
;
_cell_volume   1776.857
_exptl_crystal_colour 'colorless'
_exptl_crystal_density_diffrn 1.235
_exptl_special_details
;
beta polymorph

;
_exptl_crystal_description 'plate'
_diffrn_ambient_temperature 200
#These two values have been output from a single CSD field.
_refine_ls_R_factor_gt 0.0472
_refine_ls_wR_factor_gt 0.0472
_symmetry_cell_setting monoclinic
_symmetry_space_group_name_H-M 'P 21/a'
_symmetry_Int_Tables_number 14
loop_
_symmetry_equiv_pos_site_id
_symmetry_equiv_pos_as_xyz
1 x,y,z
2 1/2-x,1/2+y,-z
3 -x,-y,-z
4 -1/2+x,-1/2-y,z
_cell_length_a 9.4528(9)
_cell_length_b 20.3370(19)
_cell_length_c 10.0264(9)
_cell_angle_alpha 90
_cell_angle_beta 112.802(9)
_cell_angle_gamma 90
_cell_formula_units_Z 4
loop_
_atom_type_symbol
_atom_type_radius_bond
C 0.68
H 0.23
loop_
_atom_site_label
_atom_site_type_symbol
_atom_site_fract_x
_atom_site_fract_y
_atom_site_fract_z
C1 C -0.1208(2) -0.11314(10) -0.3997(2)
C2 C -0.1588(2) -0.00574(10) -0.5320(2)
C3 C 0.0992(3) -0.05078(10) -0.4215(2)
C4 C -0.0587(3) -0.05591(10) -0.4536(2)
C5 C -0.1317(3) -0.17574(11) -0.4590(3)
C6 C 0.3579(3) -0.09457(11) -0.3059(3)
C7 C -0.2306(3) -0.15555(12) -0.2363(3)
C8 C -0.1704(3) -0.10407(11) -0.2879(2)
C9 C 0.2051(3) -0.10018(11) -0.3405(2)
C10 C -0.3213(3) -0.00969(11) -0.5721(2)
C11 C -0.2422(3) -0.21741(12) -0.2972(3)
C12 C -0.4172(3) 0.03850(11) -0.6501(2)
C13 C -0.1922(3) -0.22749(12) -0.4078(3)
H1 H -0.09610 -0.18290 -0.53660
H2 H 0.42700 -0.12870 -0.25170
H3 H -0.26420 -0.14850 -0.15760
H4 H -0.16230 -0.06080 -0.24480
H5 H 0.16540 -0.13930 -0.30990
H6 H -0.36380 -0.04770 -0.54290
H7 H -0.28500 -0.25320 -0.26310
H8 H -0.52630 0.03420 -0.67560
H9 H -0.19910 -0.27100 -0.45020
C14 C -0.1140(3) 0.04933(10) -0.0593(2)
C15 C 0.0264(3) 0.05409(10) -0.0758(2)
C16 C 0.0613(3) 0.10905(12) -0.1474(2)
C17 C -0.1420(3) -0.00435(10) 0.0160(2)
C18 C -0.2325(3) 0.10170(11) -0.1224(2)
C19 C -0.2843(3) -0.01270(12) 0.0321(3)
C20 C -0.3170(3) 0.10530(12) -0.2702(3)
C21 C 0.1988(3) 0.11495(12) -0.1582(3)
C22 C -0.4250(3) 0.15460(12) -0.3284(3)
C23 C -0.3124(3) -0.06606(12) 0.1000(3)
C24 C -0.4504(3) 0.20086(13) -0.2407(3)
C25 C -0.2590(4) 0.14911(13) -0.0355(3)
C26 C -0.3672(4) 0.19813(14) -0.0942(3)
H10 H -0.01490 0.14320 -0.18690
H11 H -0.36220 0.02030 -0.00640
H12 H -0.29970 0.07310 -0.33210
H13 H 0.22000 0.15280 -0.20630
H14 H -0.48230 0.15610 -0.43140
H15 H -0.41010 -0.07080 0.10860
H16 H -0.52620 0.23460 -0.28080
H17 H -0.20050 0.14750 0.06630
H18 H -0.38340 0.22970 -0.03140
C1B C 0.1208(2) 0.11314(10) -0.6003(2)
C2B C 0.1588(2) 0.00574(10) -0.4680(2)
C3B C -0.0992(3) 0.05078(10) -0.5785(2)
C4B C 0.0587(3) 0.05591(10) -0.5464(2)
C5B C 0.1317(3) 0.17574(11) -0.5410(3)
C6B C -0.3579(3) 0.09457(11) -0.6941(3)
C7B C 0.2306(3) 0.15555(12) -0.7637(3)
C8B C 0.1704(3) 0.10407(11) -0.7121(2)
C9B C -0.2051(3) 0.10018(11) -0.6595(2)
C10B C 0.3213(3) 0.00969(11) -0.4279(2)
C11B C 0.2422(3) 0.21741(12) -0.7028(3)
C12B C 0.4172(3) -0.03850(11) -0.3499(2)
C13B C 0.1922(3) 0.22749(12) -0.5922(3)
H1B H 0.09610 0.18290 -0.46340
H2B H -0.42700 0.12870 -0.74830
H3B H 0.26420 0.14850 -0.84240
H4B H 0.16230 0.06080 -0.75520
H5B H -0.16540 0.13930 -0.69010
H6B H 0.36380 0.04770 -0.45710
H7B H 0.28500 0.25320 -0.73690
H8B H 0.52630 -0.03420 -0.32440
H9B H 0.19910 0.27100 -0.54980
C14B C 0.1140(3) -0.04933(10) 0.0593(2)
C15B C -0.0264(3) -0.05409(10) 0.0758(2)
C16B C -0.0613(3) -0.10905(12) 0.1474(2)
C17B C 0.1420(3) 0.00435(10) -0.0160(2)
C18B C 0.2325(3) -0.10170(11) 0.1224(2)
C19B C 0.2843(3) 0.01270(12) -0.0321(3)
C20B C 0.3170(3) -0.10530(12) 0.2702(3)
C21B C -0.1988(3) -0.11495(12) 0.1582(3)
C22B C 0.4250(3) -0.15460(12) 0.3284(3)
C23B C 0.3124(3) 0.06606(12) -0.1000(3)
C24B C 0.4504(3) -0.20086(13) 0.2407(3)
C25B C 0.2590(4) -0.14911(13) 0.0355(3)
C26B C 0.3672(4) -0.19813(14) 0.0942(3)
H10B H 0.01490 -0.14320 0.18690
H11B H 0.36220 -0.02030 0.00640
H12B H 0.29970 -0.07310 0.33210
H13B H -0.22000 -0.15280 0.20630
H14B H 0.48230 -0.15610 0.43140
H15B H 0.41010 0.07080 -0.10860
H16B H 0.52620 -0.23460 0.28080
H17B H 0.20050 -0.14750 -0.06630
H18B H 0.38340 -0.22970 0.03140
loop_
_geom_bond_atom_site_label_1
_geom_bond_atom_site_label_2
_geom_bond_distance
_geom_bond_site_symmetry_1
_geom_bond_site_symmetry_2
C1 C4 1.496 1_555 1_555
C2 C4 1.406 1_555 1_555
C3 C4 1.404 1_555 1_555
C5 C1 1.392 1_555 1_555
C6 C9 1.353 1_555 1_555
C7 C8 1.384 1_555 1_555
C8 C1 1.385 1_555 1_555
C9 C3 1.429 1_555 1_555
C10 C2 1.431 1_555 1_555
C11 C7 1.384 1_555 1_555
C12 C10 1.358 1_555 1_555
C13 C5 1.388 1_555 1_555
H1 C5 0.971 1_555 1_555
H2 C6 0.964 1_555 1_555
H3 C7 0.969 1_555 1_555
H4 C8 0.970 1_555 1_555
H5 C9 0.978 1_555 1_555
H6 C10 0.967 1_555 1_555
H7 C11 0.958 1_555 1_555
H8 C12 0.966 1_555 1_555
H9 C13 0.973 1_555 1_555
C14 C15 1.403 1_555 1_555
C15 C16 1.434 1_555 1_555
C16 C21 1.351 1_555 1_555
C17 C14 1.410 1_555 1_555
C18 C14 1.497 1_555 1_555
C19 C17 1.426 1_555 1_555
C20 C18 1.386 1_555 1_555
C21 H13 0.970 1_555 1_555
C22 C20 1.388 1_555 1_555
C23 C19 1.361 1_555 1_555
C24 C22 1.371 1_555 1_555
C25 C18 1.386 1_555 1_555
C26 C24 1.373 1_555 1_555
H10 C16 0.968 1_555 1_555
H11 C19 0.960 1_555 1_555
H12 C20 0.959 1_555 1_555
H14 C22 0.963 1_555 1_555
H15 C23 0.965 1_555 1_555
H16 C24 0.961 1_555 1_555
H17 C25 0.955 1_555 1_555
H18 C26 0.952 1_555 1_555
C1B C4B 1.496 1_555 1_555
C2B C3 1.435 1_555 1_555
C3B C2 1.435 1_555 1_555
C4B C2B 1.406 1_555 1_555
C5B C1B 1.392 1_555 1_555
C6B C12 1.414 1_555 1_555
C7B C8B 1.384 1_555 1_555
C8B C1B 1.385 1_555 1_555
C9B C3B 1.429 1_555 1_555
C10B C2B 1.431 1_555 1_555
C11B C7B 1.384 1_555 1_555
C12B C6 1.414 1_555 1_555
C13B C5B 1.388 1_555 1_555
H1B C5B 0.971 1_555 1_555
H2B C6B 0.964 1_555 1_555
H3B C7B 0.969 1_555 1_555
H4B C8B 0.970 1_555 1_555
H5B C9B 0.978 1_555 1_555
H6B C10B 0.967 1_555 1_555
H7B C11B 0.958 1_555 1_555
H8B C12B 0.966 1_555 1_555
H9B C13B 0.973 1_555 1_555
C14B C15B 1.403 1_555 1_555
C15B C17 1.438 1_555 1_555
C16B C15B 1.434 1_555 1_555
C17B C15 1.438 1_555 1_555
C18B C14B 1.497 1_555 1_555
C19B C17B 1.426 1_555 1_555
C20B C18B 1.386 1_555 1_555
C21B C23 1.413 1_555 1_555
C22B C20B 1.388 1_555 1_555
C23B C21 1.413 1_555 1_555
C24B C22B 1.371 1_555 1_555
C25B C18B 1.386 1_555 1_555
C26B C24B 1.373 1_555 1_555
H10B C16B 0.968 1_555 1_555
H11B C19B 0.960 1_555 1_555
H12B C20B 0.959 1_555 1_555
H13B C21B 0.970 1_555 1_555
H14B C22B 0.963 1_555 1_555
H15B C23B 0.965 1_555 1_555
H16B C24B 0.961 1_555 1_555
H17B C25B 0.955 1_555 1_555
H18B C26B 0.952 1_555 1_555
C11 C13 1.379 1_555 1_555
C25 C26 1.386 1_555 1_555
C3B C4B 1.404 1_555 1_555
C6B C9B 1.353 1_555 1_555
C10B C12B 1.358 1_555 1_555
C11B C13B 1.379 1_555 1_555
C14B C17B 1.410 1_555 1_555
C16B C21B 1.351 1_555 1_555
C19B C23B 1.361 1_555 1_555
C25B C26B 1.386 1_555 1_555
#END
