
#######################################################################
#
#                 Cambridge Crystallographic Data Centre
#                                CCDC
#
#######################################################################
#
# If this CIF has been generated from an entry in the Cambridge
# Structural Database, then it will include bibliographic, chemical,
# crystal, experimental, refinement or atomic coordinate data resulting
# from the CCDC's data processing and validation procedures.
#
#######################################################################

data_CSD_CIF_DPANTR04
_audit_creation_date 2013-10-11
_audit_creation_method CSD-ConQuest-V1
_database_code_CSD DPANTR04
_database_code_depnum_ccdc_archive 'CCDC 911873'
_chemical_formula_sum 'C26 H18'
_chemical_formula_moiety
;
C26 H18
;
_journal_coden_Cambridge 35
_journal_volume 78
_journal_year 2013
_journal_page_first 2206
_journal_name_full 'J.Org.Chem. '
loop_
_publ_author_name
"Y.Fujiwara"
"R.Ozawa"
"D.Onuma"
"Kengo Suzuki"
"Kenji Yoza"
"K.Kobayashi"
_chemical_name_systematic
;
9,10-Diphenylanthracene
;
_cell_volume   1725.134
_exptl_crystal_colour 'colorless'
_exptl_crystal_density_diffrn 1.272
_exptl_crystal_description 'block'
_diffrn_ambient_temperature 93
#These two values have been output from a single CSD field.
_refine_ls_R_factor_gt 0.0375
_refine_ls_wR_factor_gt 0.0375
_symmetry_cell_setting monoclinic
_symmetry_space_group_name_H-M 'C 2/c'
_symmetry_Int_Tables_number 15
loop_
_symmetry_equiv_pos_site_id
_symmetry_equiv_pos_as_xyz
1 x,y,z
2 -x,y,1/2-z
3 1/2+x,1/2+y,z
4 1/2-x,1/2+y,1/2-z
5 -x,-y,-z
6 x,-y,-1/2+z
7 -1/2-x,-1/2-y,-z
8 -1/2+x,-1/2-y,-1/2+z
_cell_length_a 10.5768(10)
_cell_length_b 13.5065(13)
_cell_length_c 12.0761(12)
_cell_angle_alpha 90
_cell_angle_beta 90.120(1)
_cell_angle_gamma 90
_cell_formula_units_Z 4
loop_
_atom_type_symbol
_atom_type_radius_bond
C 0.68
H 0.23
loop_
_atom_site_label
_atom_site_type_symbol
_atom_site_fract_x
_atom_site_fract_y
_atom_site_fract_z
C1 C 0.13232(10) 0.22276(8) 1.04702(8)
C2 C 0.01241(10) 0.20068(8) 1.09631(9)
H1 H 0.00430 0.14370 1.14180
C3 C -0.08999(10) 0.25962(9) 1.07933(9)
H2 H -0.16850 0.24350 1.11290
C4 C -0.08004(10) 0.34508(8) 1.01179(10)
H3 H -0.15220 0.38560 1.00000
C5 C 0.03176(10) 0.36957(8) 0.96379(9)
H4 H 0.03660 0.42730 0.91900
C6 C 0.14272(10) 0.30998(8) 0.97939(8)
C7 C 0.26029(10) 0.33668(8) 0.93347(8)
C8 C 0.27268(10) 0.42794(8) 0.86454(9)
C9 C 0.21167(11) 0.43558(8) 0.76220(9)
H5 H 0.16110 0.38230 0.73610
C10 C 0.22446(11) 0.52062(9) 0.69830(9)
H6 H 0.18170 0.52550 0.62920
C11 C 0.29923(11) 0.59836(9) 0.73485(10)
H7 H 0.30850 0.65610 0.69060
C12 C 0.36056(10) 0.59165(8) 0.83629(10)
H8 H 0.41200 0.64480 0.86160
C13 C 0.34671(10) 0.50711(8) 0.90088(9)
H9 H 0.38820 0.50320 0.97060
C1F C 0.36768(10) 0.27724(8) 0.95298(8)
C2F C 0.48759(10) 0.29932(8) 0.90369(9)
H1F H 0.49570 0.35630 0.85820
C3F C 0.58999(10) 0.24038(9) 0.92067(9)
H2F H 0.66850 0.25650 0.88710
C4F C 0.58004(10) 0.15492(8) 0.98821(10)
H3F H 0.65220 0.11440 1.00000
C5F C 0.46824(10) 0.13043(8) 1.03621(9)
H4F H 0.46340 0.07270 1.08100
C6F C 0.35728(10) 0.19002(8) 1.02061(8)
C7F C 0.23971(10) 0.16332(8) 1.06653(8)
C8F C 0.22732(10) 0.07206(8) 1.13546(9)
C9F C 0.28833(11) 0.06442(8) 1.23780(9)
H5F H 0.33890 0.11770 1.26390
C10F C 0.27554(11) -0.02062(9) 1.30170(9)
H6F H 0.31830 -0.02550 1.37080
C11F C 0.20077(11) -0.09836(9) 1.26515(10)
H7F H 0.19150 -0.15610 1.30940
C12F C 0.13944(10) -0.09165(8) 1.16371(10)
H8F H 0.08800 -0.14480 1.13840
C13F C 0.15329(10) -0.00711(8) 1.09912(9)
H9F H 0.11180 -0.00320 1.02940
loop_
_geom_bond_atom_site_label_1
_geom_bond_atom_site_label_2
_geom_bond_distance
_geom_bond_site_symmetry_1
_geom_bond_site_symmetry_2
C1 C2 1.433 1_555 1_555
C2 H1 0.950 1_555 1_555
C3 C2 1.359 1_555 1_555
H2 C3 0.950 1_555 1_555
C4 C3 1.417 1_555 1_555
H3 C4 0.950 1_555 1_555
C5 C4 1.359 1_555 1_555
H4 C5 0.950 1_555 1_555
C6 C1 1.438 1_555 1_555
C7 C6 1.410 1_555 1_555
C8 C7 1.493 1_555 1_555
C9 C8 1.397 1_555 1_555
H5 C9 0.950 1_555 1_555
C10 C9 1.390 1_555 1_555
H6 C10 0.951 1_555 1_555
C11 C10 1.386 1_555 1_555
H7 C11 0.951 1_555 1_555
C12 C11 1.388 1_555 1_555
H8 C12 0.951 1_555 1_555
C13 C8 1.396 1_555 1_555
H9 C13 0.950 1_555 1_555
C1F C7 1.410 1_555 1_555
C2F C1F 1.433 1_555 1_555
H1F C2F 0.950 1_555 1_555
C3F C2F 1.359 1_555 1_555
H2F C3F 0.950 1_555 1_555
C4F C3F 1.417 1_555 1_555
H3F C4F 0.950 1_555 1_555
C5F C4F 1.359 1_555 1_555
H4F C5F 0.950 1_555 1_555
C6F C1F 1.438 1_555 1_555
C7F C1 1.410 1_555 1_555
C8F C7F 1.493 1_555 1_555
C9F C8F 1.397 1_555 1_555
H5F C9F 0.950 1_555 1_555
C10F C9F 1.390 1_555 1_555
H6F C10F 0.951 1_555 1_555
C11F C10F 1.386 1_555 1_555
H7F C11F 0.951 1_555 1_555
C12F C11F 1.388 1_555 1_555
H8F C12F 0.951 1_555 1_555
C13F C8F 1.396 1_555 1_555
H9F C13F 0.950 1_555 1_555
C5 C6 1.435 1_555 1_555
C12 C13 1.391 1_555 1_555
C5F C6F 1.435 1_555 1_555
C6F C7F 1.410 1_555 1_555
C12F C13F 1.391 1_555 1_555
#END
