
#######################################################################
#
#                 Cambridge Crystallographic Data Centre
#                                CCDC
#
#######################################################################
#
# If this CIF has been generated from an entry in the Cambridge
# Structural Database, then it will include bibliographic, chemical,
# crystal, experimental, refinement or atomic coordinate data resulting
# from the CCDC's data processing and validation procedures.
#
#######################################################################

data_CSD_CIF_DPANTR08
_audit_creation_date 2016-04-05
_audit_creation_method CSD-ConQuest-V1
_database_code_CSD DPANTR08
_database_code_depnum_ccdc_archive 'CCDC 1453454'
_chemical_formula_sum 'C26 H18'
_chemical_formula_moiety
;
C26 H18
;
_journal_coden_Cambridge 983
_journal_volume 120
_journal_year 2016
_journal_page_first 1831
_journal_name_full 'J.Phys.Chem.C '
loop_
_publ_author_name
"T.Salzillo"
"R.G.D.Valle"
"E.Venuti"
"A.Brillante"
"T.Siegrist"
"M.Masino"
"F.Mezzadri"
"A.Girlando"
_chemical_name_systematic
;
9,10-diphenylanthracene
;
_cell_volume   1808.776
_exptl_crystal_colour 'colorless'
_exptl_crystal_density_diffrn 1.213
_exptl_special_details
;
beta polymorph

;
_exptl_crystal_description 'plate'
_diffrn_ambient_temperature 293
#These two values have been output from a single CSD field.
_refine_ls_R_factor_gt 0.0457
_refine_ls_wR_factor_gt 0.0457
_symmetry_cell_setting monoclinic
_symmetry_space_group_name_H-M 'P 21/a'
_symmetry_Int_Tables_number 14
loop_
_symmetry_equiv_pos_site_id
_symmetry_equiv_pos_as_xyz
1 x,y,z
2 1/2-x,1/2+y,-z
3 -x,-y,-z
4 -1/2+x,-1/2-y,z
_cell_length_a 9.4976(10)
_cell_length_b 20.413(2)
_cell_length_c 10.0843(9)
_cell_angle_alpha 90
_cell_angle_beta 112.307(9)
_cell_angle_gamma 90
_cell_formula_units_Z 4
loop_
_atom_type_symbol
_atom_type_radius_bond
C 0.68
H 0.23
loop_
_atom_site_label
_atom_site_type_symbol
_atom_site_fract_x
_atom_site_fract_y
_atom_site_fract_z
C1 C -0.1223(2) -0.11266(9) -0.4015(2)
C2 C -0.1578(2) -0.00560(8) -0.53214(19)
C3 C 0.0975(2) -0.05065(8) -0.42186(19)
C4 C -0.0595(2) -0.05549(8) -0.45414(19)
C5 C -0.1345(3) -0.17448(9) -0.4620(2)
C6 C 0.3531(3) -0.09443(10) -0.3080(2)
C7 C -0.2320(3) -0.15574(11) -0.2399(2)
C8 C -0.1710(2) -0.10429(10) -0.2899(2)
C9 C 0.2020(2) -0.09967(9) -0.3414(2)
C10 C -0.3189(2) -0.00903(9) -0.5717(2)
C11 C -0.2443(3) -0.21656(11) -0.3020(3)
C12 C -0.4127(2) 0.03906(11) -0.6479(2)
C13 C -0.1956(3) -0.22602(10) -0.4121(3)
H1 H -0.09960 -0.18110 -0.53980
H2 H 0.42120 -0.12860 -0.25380
H3 H -0.26560 -0.14920 -0.16050
H4 H -0.16170 -0.06130 -0.24670
H5 H 0.16190 -0.13790 -0.31110
H6 H -0.36110 -0.04670 -0.54210
H7 H -0.28780 -0.25250 -0.26860
H8 H -0.52110 0.03540 -0.67300
H9 H -0.20390 -0.26900 -0.45470
C14 C -0.1125(2) 0.04928(9) -0.0588(2)
C15 C 0.0280(2) 0.05411(9) -0.0743(2)
C16 C 0.0644(3) 0.10851(10) -0.1447(2)
C17 C -0.1418(2) -0.00437(9) 0.0149(2)
C18 C -0.2295(2) 0.10149(9) -0.1207(2)
C19 C -0.2839(3) -0.01265(11) 0.0298(2)
C20 C -0.3146(3) 0.10478(11) -0.2660(2)
C21 C 0.2015(3) 0.11407(11) -0.1546(2)
C22 C -0.4212(3) 0.15382(11) -0.3226(3)
C23 C -0.3133(3) -0.06546(11) 0.0966(3)
C24 C -0.4440(3) 0.20032(12) -0.2357(3)
C25 C -0.2540(3) 0.14938(12) -0.0355(3)
C26 C -0.3607(4) 0.19797(13) -0.0928(3)
H10 H -0.01100 0.14240 -0.18520
H11 H -0.36060 0.02020 -0.00830
H12 H -0.29810 0.07220 -0.32820
H13 H 0.22370 0.15180 -0.20190
H14 H -0.47870 0.15550 -0.42430
H15 H -0.41070 -0.06980 0.10420
H16 H -0.51840 0.23380 -0.27530
H17 H -0.19470 0.14830 0.06530
H18 H -0.37670 0.23000 -0.03120
C1B C 0.1223(2) 0.11266(9) -0.5985(2)
C2B C 0.1578(2) 0.00560(8) -0.46786(19)
C3B C -0.0975(2) 0.05065(8) -0.57814(19)
C4B C 0.0595(2) 0.05549(8) -0.54586(19)
C5B C 0.1345(3) 0.17448(9) -0.5380(2)
C6B C -0.3531(3) 0.09443(10) -0.6920(2)
C7B C 0.2320(3) 0.15574(11) -0.7601(2)
C8B C 0.1710(2) 0.10429(10) -0.7101(2)
C9B C -0.2020(2) 0.09967(9) -0.6586(2)
C10B C 0.3189(2) 0.00903(9) -0.4283(2)
C11B C 0.2443(3) 0.21656(11) -0.6980(3)
C12B C 0.4127(2) -0.03906(11) -0.3521(2)
C13B C 0.1956(3) 0.22602(10) -0.5879(3)
H1B H 0.09960 0.18110 -0.46020
H2B H -0.42120 0.12860 -0.74620
H3B H 0.26560 0.14920 -0.83950
H4B H 0.16170 0.06130 -0.75330
H5B H -0.16190 0.13790 -0.68890
H6B H 0.36110 0.04670 -0.45790
H7B H 0.28780 0.25250 -0.73140
H8B H 0.52110 -0.03540 -0.32700
H9B H 0.20390 0.26900 -0.54530
C14B C 0.1125(2) -0.04928(9) 0.0588(2)
C15B C -0.0280(2) -0.05411(9) 0.0743(2)
C16B C -0.0644(3) -0.10851(10) 0.1447(2)
C17B C 0.1418(2) 0.00437(9) -0.0149(2)
C18B C 0.2295(2) -0.10149(9) 0.1207(2)
C19B C 0.2839(3) 0.01265(11) -0.0298(2)
C20B C 0.3146(3) -0.10478(11) 0.2660(2)
C21B C -0.2015(3) -0.11407(11) 0.1546(2)
C22B C 0.4212(3) -0.15382(11) 0.3226(3)
C23B C 0.3133(3) 0.06546(11) -0.0966(3)
C24B C 0.4440(3) -0.20032(12) 0.2357(3)
C25B C 0.2540(3) -0.14938(12) 0.0355(3)
C26B C 0.3607(4) -0.19797(13) 0.0928(3)
H10B H 0.01100 -0.14240 0.18520
H11B H 0.36060 -0.02020 0.00830
H12B H 0.29810 -0.07220 0.32820
H13B H -0.22370 -0.15180 0.20190
H14B H 0.47870 -0.15550 0.42430
H15B H 0.41070 0.06980 -0.10420
H16B H 0.51840 -0.23380 0.27530
H17B H 0.19470 -0.14830 -0.06530
H18B H 0.37670 -0.23000 0.03120
loop_
_geom_bond_atom_site_label_1
_geom_bond_atom_site_label_2
_geom_bond_distance
_geom_bond_site_symmetry_1
_geom_bond_site_symmetry_2
C1 C4 1.497 1_555 1_555
C2 C4 1.404 1_555 1_555
C3 C4 1.404 1_555 1_555
C5 C1 1.387 1_555 1_555
C6 C9 1.348 1_555 1_555
C7 C8 1.384 1_555 1_555
C8 C1 1.380 1_555 1_555
C9 C3 1.426 1_555 1_555
C10 C2 1.429 1_555 1_555
C11 C7 1.375 1_555 1_555
C12 C10 1.352 1_555 1_555
C13 C5 1.385 1_555 1_555
H1 C5 0.970 1_555 1_555
H2 C6 0.967 1_555 1_555
H3 C7 0.977 1_555 1_555
H4 C8 0.969 1_555 1_555
H5 C9 0.967 1_555 1_555
H6 C10 0.965 1_555 1_555
H7 C11 0.963 1_555 1_555
H8 C12 0.965 1_555 1_555
H9 C13 0.967 1_555 1_555
C14 C15 1.405 1_555 1_555
C15 C16 1.429 1_555 1_555
C16 C21 1.348 1_555 1_555
C17 C14 1.409 1_555 1_555
C18 C14 1.495 1_555 1_555
C19 C17 1.424 1_555 1_555
C20 C18 1.380 1_555 1_555
C21 H13 0.970 1_555 1_555
C22 C20 1.384 1_555 1_555
C23 C19 1.355 1_555 1_555
C24 C22 1.364 1_555 1_555
C25 C18 1.378 1_555 1_555
C26 C24 1.356 1_555 1_555
H10 C16 0.968 1_555 1_555
H11 C19 0.957 1_555 1_555
H12 C20 0.967 1_555 1_555
H14 C22 0.962 1_555 1_555
H15 C23 0.961 1_555 1_555
H16 C24 0.955 1_555 1_555
H17 C25 0.957 1_555 1_555
H18 C26 0.953 1_555 1_555
C1B C4B 1.497 1_555 1_555
C2B C3 1.436 1_555 1_555
C3B C2 1.436 1_555 1_555
C4B C2B 1.404 1_555 1_555
C5B C1B 1.387 1_555 1_555
C6B C12 1.410 1_555 1_555
C7B C8B 1.384 1_555 1_555
C8B C1B 1.380 1_555 1_555
C9B C3B 1.426 1_555 1_555
C10B C2B 1.429 1_555 1_555
C11B C7B 1.375 1_555 1_555
C12B C6 1.410 1_555 1_555
C13B C5B 1.385 1_555 1_555
H1B C5B 0.970 1_555 1_555
H2B C6B 0.967 1_555 1_555
H3B C7B 0.977 1_555 1_555
H4B C8B 0.969 1_555 1_555
H5B C9B 0.967 1_555 1_555
H6B C10B 0.965 1_555 1_555
H7B C11B 0.963 1_555 1_555
H8B C12B 0.965 1_555 1_555
H9B C13B 0.967 1_555 1_555
C14B C15B 1.405 1_555 1_555
C15B C17 1.438 1_555 1_555
C16B C15B 1.429 1_555 1_555
C17B C15 1.438 1_555 1_555
C18B C14B 1.495 1_555 1_555
C19B C17B 1.424 1_555 1_555
C20B C18B 1.380 1_555 1_555
C21B C23 1.408 1_555 1_555
C22B C20B 1.384 1_555 1_555
C23B C21 1.408 1_555 1_555
C24B C22B 1.364 1_555 1_555
C25B C18B 1.378 1_555 1_555
C26B C24B 1.356 1_555 1_555
H10B C16B 0.968 1_555 1_555
H11B C19B 0.957 1_555 1_555
H12B C20B 0.967 1_555 1_555
H13B C21B 0.970 1_555 1_555
H14B C22B 0.962 1_555 1_555
H15B C23B 0.961 1_555 1_555
H16B C24B 0.955 1_555 1_555
H17B C25B 0.957 1_555 1_555
H18B C26B 0.953 1_555 1_555
C11 C13 1.369 1_555 1_555
C25 C26 1.378 1_555 1_555
C3B C4B 1.404 1_555 1_555
C6B C9B 1.348 1_555 1_555
C10B C12B 1.352 1_555 1_555
C11B C13B 1.369 1_555 1_555
C14B C17B 1.409 1_555 1_555
C16B C21B 1.348 1_555 1_555
C19B C23B 1.355 1_555 1_555
C25B C26B 1.378 1_555 1_555
#END
