
#######################################################################
#
#                 Cambridge Crystallographic Data Centre
#                                CCDC
#
#######################################################################
#
# If this CIF has been generated from an entry in the Cambridge
# Structural Database, then it will include bibliographic, chemical,
# crystal, experimental, refinement or atomic coordinate data resulting
# from the CCDC's data processing and validation procedures.
#
#######################################################################

data_CSD_CIF_DPANTR09
_audit_creation_date 2016-04-05
_audit_creation_method CSD-ConQuest-V1
_database_code_CSD DPANTR09
_database_code_depnum_ccdc_archive 'CCDC 1453455'
_chemical_formula_sum 'C26 H18'
_chemical_formula_moiety
;
C26 H18
;
_journal_coden_Cambridge 983
_journal_volume 120
_journal_year 2016
_journal_page_first 1831
_journal_name_full 'J.Phys.Chem.C '
loop_
_publ_author_name
"T.Salzillo"
"R.G.D.Valle"
"E.Venuti"
"A.Brillante"
"T.Siegrist"
"M.Masino"
"F.Mezzadri"
"A.Girlando"
_chemical_name_systematic
;
9,10-diphenylanthracene
;
_cell_volume   1750.427
_exptl_crystal_colour 'colorless'
_exptl_crystal_density_diffrn 1.254
_exptl_special_details
;
beta polymorph

;
_exptl_crystal_description 'plate'
_diffrn_ambient_temperature 105
#These two values have been output from a single CSD field.
_refine_ls_R_factor_gt 0.0475
_refine_ls_wR_factor_gt 0.0475
_symmetry_cell_setting monoclinic
_symmetry_space_group_name_H-M 'P 21/a'
_symmetry_Int_Tables_number 14
loop_
_symmetry_equiv_pos_site_id
_symmetry_equiv_pos_as_xyz
1 x,y,z
2 1/2-x,1/2+y,-z
3 -x,-y,-z
4 -1/2+x,-1/2-y,z
_cell_length_a 9.4051(9)
_cell_length_b 20.2644(19)
_cell_length_c 9.9777(9)
_cell_angle_alpha 90
_cell_angle_beta 113.003(9)
_cell_angle_gamma 90
_cell_formula_units_Z 4
loop_
_atom_type_symbol
_atom_type_radius_bond
C 0.68
H 0.23
loop_
_atom_site_label
_atom_site_type_symbol
_atom_site_fract_x
_atom_site_fract_y
_atom_site_fract_z
C1 C -0.1203(2) -0.11369(10) -0.3985(2)
C2 C -0.1598(2) -0.00606(10) -0.5320(2)
C3 C 0.1004(2) -0.05105(9) -0.4216(2)
C4 C -0.0587(2) -0.05629(9) -0.4535(2)
C5 C -0.1301(3) -0.17686(10) -0.4568(2)
C6 C 0.3620(2) -0.09465(10) -0.3051(2)
C7 C -0.2300(2) -0.15537(11) -0.2325(2)
C8 C -0.1700(2) -0.10382(10) -0.2860(2)
C9 C 0.2074(2) -0.10071(10) -0.3405(2)
C10 C -0.3234(2) -0.01049(10) -0.5724(2)
C11 C -0.2420(3) -0.21795(11) -0.2932(2)
C12 C -0.4212(2) 0.03772(11) -0.6512(2)
C13 C -0.1914(3) -0.22873(11) -0.4045(2)
H1 H -0.09450 -0.18420 -0.53440
H2 H 0.43130 -0.12830 -0.25110
H3 H -0.26260 -0.14790 -0.15340
H4 H -0.16340 -0.06070 -0.24430
H5 H 0.16740 -0.14000 -0.31040
H6 H -0.36580 -0.04860 -0.54390
H7 H -0.28500 -0.25350 -0.25840
H8 H -0.53040 0.03290 -0.67730
H9 H -0.19730 -0.27190 -0.44430
C14 C -0.1160(2) 0.04931(10) -0.0600(2)
C15 C 0.0251(2) 0.05434(10) -0.0772(2)
C16 C 0.0591(3) 0.10975(10) -0.1494(2)
C17 C -0.1423(2) -0.00453(10) 0.0171(2)
C18 C -0.2357(2) 0.10153(10) -0.1236(2)
C19 C -0.2856(2) -0.01301(11) 0.0343(2)
C20 C -0.3182(2) 0.10576(11) -0.2737(2)
C21 C 0.1974(3) 0.11593(11) -0.1608(2)
C22 C -0.4276(3) 0.15535(11) -0.3332(2)
C23 C -0.3125(3) -0.06683(11) 0.1029(2)
C24 C -0.4558(3) 0.20131(11) -0.2442(3)
C25 C -0.2645(3) 0.14863(12) -0.0354(2)
C26 C -0.3738(3) 0.19791(12) -0.0948(3)
H10 H -0.01830 0.14360 -0.18840
H11 H -0.36430 0.01990 -0.00430
H12 H -0.29710 0.07460 -0.33540
H13 H 0.21890 0.15400 -0.20800
H14 H -0.48490 0.15760 -0.43710
H15 H -0.41040 -0.07120 0.11180
H16 H -0.53160 0.23530 -0.28610
H17 H -0.20690 0.14610 0.06780
H18 H -0.39200 0.22940 -0.03160
C1B C 0.1203(2) 0.11369(10) -0.6015(2)
C2B C 0.1598(2) 0.00606(10) -0.4680(2)
C3B C -0.1004(2) 0.05105(9) -0.5784(2)
C4B C 0.0587(2) 0.05629(9) -0.5465(2)
C5B C 0.1301(3) 0.17686(10) -0.5432(2)
C6B C -0.3620(2) 0.09465(10) -0.6949(2)
C7B C 0.2300(2) 0.15537(11) -0.7675(2)
C8B C 0.1700(2) 0.10382(10) -0.7140(2)
C9B C -0.2074(2) 0.10071(10) -0.6595(2)
C10B C 0.3234(2) 0.01049(10) -0.4276(2)
C11B C 0.2420(3) 0.21795(11) -0.7068(2)
C12B C 0.4212(2) -0.03772(11) -0.3488(2)
C13B C 0.1914(3) 0.22873(11) -0.5955(2)
H1B H 0.09450 0.18420 -0.46560
H2B H -0.43130 0.12830 -0.74890
H3B H 0.26260 0.14790 -0.84660
H4B H 0.16340 0.06070 -0.75570
H5B H -0.16740 0.14000 -0.68960
H6B H 0.36580 0.04860 -0.45610
H7B H 0.28500 0.25350 -0.74160
H8B H 0.53040 -0.03290 -0.32270
H9B H 0.19730 0.27190 -0.55570
C14B C 0.1160(2) -0.04931(10) 0.0600(2)
C15B C -0.0251(2) -0.05434(10) 0.0772(2)
C16B C -0.0591(3) -0.10975(10) 0.1494(2)
C17B C 0.1423(2) 0.00453(10) -0.0171(2)
C18B C 0.2357(2) -0.10153(10) 0.1236(2)
C19B C 0.2856(2) 0.01301(11) -0.0343(2)
C20B C 0.3182(2) -0.10576(11) 0.2737(2)
C21B C -0.1974(3) -0.11593(11) 0.1608(2)
C22B C 0.4276(3) -0.15535(11) 0.3332(2)
C23B C 0.3125(3) 0.06683(11) -0.1029(2)
C24B C 0.4558(3) -0.20131(11) 0.2442(3)
C25B C 0.2645(3) -0.14863(12) 0.0354(2)
C26B C 0.3738(3) -0.19791(12) 0.0948(3)
H10B H 0.01830 -0.14360 0.18840
H11B H 0.36430 -0.01990 0.00430
H12B H 0.29710 -0.07460 0.33540
H13B H -0.21890 -0.15400 0.20800
H14B H 0.48490 -0.15760 0.43710
H15B H 0.41040 0.07120 -0.11180
H16B H 0.53160 -0.23530 0.28610
H17B H 0.20690 -0.14610 -0.06780
H18B H 0.39200 -0.22940 0.03160
loop_
_geom_bond_atom_site_label_1
_geom_bond_atom_site_label_2
_geom_bond_distance
_geom_bond_site_symmetry_1
_geom_bond_site_symmetry_2
C1 C4 1.496 1_555 1_555
C2 C4 1.404 1_555 1_555
C3 C4 1.407 1_555 1_555
C5 C1 1.394 1_555 1_555
C6 C9 1.361 1_555 1_555
C7 C8 1.389 1_555 1_555
C8 C1 1.389 1_555 1_555
C9 C3 1.430 1_555 1_555
C10 C2 1.433 1_555 1_555
C11 C7 1.391 1_555 1_555
C12 C10 1.361 1_555 1_555
C13 C5 1.395 1_555 1_555
H1 C5 0.968 1_555 1_555
H2 C6 0.952 1_555 1_555
H3 C7 0.964 1_555 1_555
H4 C8 0.959 1_555 1_555
H5 C9 0.977 1_555 1_555
H6 C10 0.962 1_555 1_555
H7 C11 0.955 1_555 1_555
H8 C12 0.961 1_555 1_555
H9 C13 0.953 1_555 1_555
C14 C15 1.407 1_555 1_555
C15 C16 1.436 1_555 1_555
C16 C21 1.355 1_555 1_555
C17 C14 1.411 1_555 1_555
C18 C14 1.494 1_555 1_555
C19 C17 1.434 1_555 1_555
C20 C18 1.394 1_555 1_555
C21 H13 0.966 1_555 1_555
C22 C20 1.394 1_555 1_555
C23 C19 1.363 1_555 1_555
C24 C22 1.382 1_555 1_555
C25 C18 1.395 1_555 1_555
C26 C24 1.387 1_555 1_555
H10 C16 0.965 1_555 1_555
H11 C19 0.958 1_555 1_555
H12 C20 0.955 1_555 1_555
H14 C22 0.965 1_555 1_555
H15 C23 0.963 1_555 1_555
H16 C24 0.962 1_555 1_555
H17 C25 0.959 1_555 1_555
H18 C26 0.958 1_555 1_555
C1B C4B 1.496 1_555 1_555
C2B C3 1.438 1_555 1_555
C3B C2 1.438 1_555 1_555
C4B C2B 1.404 1_555 1_555
C5B C1B 1.394 1_555 1_555
C6B C12 1.422 1_555 1_555
C7B C8B 1.389 1_555 1_555
C8B C1B 1.389 1_555 1_555
C9B C3B 1.430 1_555 1_555
C10B C2B 1.433 1_555 1_555
C11B C7B 1.391 1_555 1_555
C12B C6 1.422 1_555 1_555
C13B C5B 1.395 1_555 1_555
H1B C5B 0.968 1_555 1_555
H2B C6B 0.952 1_555 1_555
H3B C7B 0.964 1_555 1_555
H4B C8B 0.959 1_555 1_555
H5B C9B 0.977 1_555 1_555
H6B C10B 0.962 1_555 1_555
H7B C11B 0.955 1_555 1_555
H8B C12B 0.961 1_555 1_555
H9B C13B 0.953 1_555 1_555
C14B C15B 1.407 1_555 1_555
C15B C17 1.441 1_555 1_555
C16B C15B 1.436 1_555 1_555
C17B C15 1.441 1_555 1_555
C18B C14B 1.494 1_555 1_555
C19B C17B 1.434 1_555 1_555
C20B C18B 1.394 1_555 1_555
C21B C23 1.417 1_555 1_555
C22B C20B 1.394 1_555 1_555
C23B C21 1.417 1_555 1_555
C24B C22B 1.382 1_555 1_555
C25B C18B 1.395 1_555 1_555
C26B C24B 1.387 1_555 1_555
H10B C16B 0.965 1_555 1_555
H11B C19B 0.958 1_555 1_555
H12B C20B 0.955 1_555 1_555
H13B C21B 0.966 1_555 1_555
H14B C22B 0.965 1_555 1_555
H15B C23B 0.963 1_555 1_555
H16B C24B 0.962 1_555 1_555
H17B C25B 0.959 1_555 1_555
H18B C26B 0.958 1_555 1_555
C11 C13 1.386 1_555 1_555
C25 C26 1.389 1_555 1_555
C3B C4B 1.407 1_555 1_555
C6B C9B 1.361 1_555 1_555
C10B C12B 1.361 1_555 1_555
C11B C13B 1.386 1_555 1_555
C14B C17B 1.411 1_555 1_555
C16B C21B 1.355 1_555 1_555
C19B C23B 1.363 1_555 1_555
C25B C26B 1.389 1_555 1_555
#END
