
#######################################################################
#
#                 Cambridge Crystallographic Data Centre
#                                CCDC
#
#######################################################################
#
# If this CIF has been generated from an entry in the Cambridge
# Structural Database, then it will include bibliographic, chemical,
# crystal, experimental, refinement or atomic coordinate data resulting
# from the CCDC's data processing and validation procedures.
#
#######################################################################

data_CSD_CIF_DPANAP10
_audit_creation_date 1977-06-01
_audit_creation_method CSD-ConQuest-V1
_database_code_CSD DPANAP10
_chemical_formula_sum 'C24 H18'
_chemical_formula_moiety
;
C24 H18
;
_journal_coden_Cambridge 35
_journal_volume 41
_journal_year 1976
_journal_page_first 3603
_journal_name_full 'J.Org.Chem. '
loop_
_publ_author_name
"R.L.Clough"
"W.J.Kung"
"R.E.Marsh"
"J.D.Roberts"
_chemical_name_systematic
;
5,6-Diphenylacenaphthene
;
_chemical_melting_point 429.15
_cell_volume    827.993
_exptl_crystal_density_diffrn 1.23
_exptl_special_details
;
Melting point range 429.15-430.15K

;
_diffrn_ambient_temperature ?
_diffrn_special_details
;
The study was carried out at room temperature,in the range 283-303K

;
#These two values have been output from a single CSD field.
_refine_ls_R_factor_gt 0.04
_refine_ls_wR_factor_gt 0.04
_symmetry_cell_setting triclinic
_symmetry_space_group_name_H-M 'P -1'
_symmetry_Int_Tables_number 2
loop_
_symmetry_equiv_pos_site_id
_symmetry_equiv_pos_as_xyz
1 x,y,z
2 -x,-y,-z
_cell_length_a 10.493(3)
_cell_length_b 7.861(3)
_cell_length_c 11.567(4)
_cell_angle_alpha 71.25(1)
_cell_angle_beta 113.43(1)
_cell_angle_gamma 94.90(1)
_cell_formula_units_Z 2
loop_
_atom_type_symbol
_atom_type_radius_bond
C 0.68
H 0.23
loop_
_atom_site_label
_atom_site_type_symbol
_atom_site_fract_x
_atom_site_fract_y
_atom_site_fract_z
C1 C 0.27400 -0.12280 -0.08110
C2 C 0.28660 -0.26530 0.03110
C3 C 0.25400 -0.25230 0.13500
C4 C 0.20780 -0.09010 0.12540
C5 C 0.14260 0.21410 0.01780
C6 C 0.12200 0.36920 -0.08450
C7 C 0.15940 0.36920 -0.18860
C8 C 0.21320 0.22030 -0.19530
C9 C 0.22970 0.05160 -0.09200
C10 C 0.19570 0.05840 0.01340
C11 C 0.16270 -0.03050 0.21620
C12 C 0.11580 0.16940 0.14320
C13 C 0.30090 -0.16600 -0.18580
C14 C 0.42780 -0.24770 -0.15600
C15 C 0.45100 -0.29460 -0.25190
C16 C 0.34920 -0.26210 -0.37760
C17 C 0.22290 -0.18170 -0.40820
C18 C 0.19850 -0.13550 -0.31280
C19 C 0.25380 0.24920 -0.30970
C20 C 0.38870 0.21180 -0.29070
C21 C 0.42510 0.24530 -0.39830
C22 C 0.32850 0.31730 -0.52590
C23 C 0.19470 0.35730 -0.54630
C24 C 0.15760 0.32410 -0.43910
H1 H 0.24200 -0.04900 0.30500
H2 H 0.08700 -0.10600 0.23400
H3 H 0.01300 0.19600 0.12100
H4 H 0.16900 0.25100 0.19600
H5 H 0.31800 -0.38600 0.03800
H6 H 0.26900 -0.36400 0.21500
H7 H 0.08200 0.48400 -0.08600
H8 H 0.15000 0.48700 -0.26100
H9 H 0.50200 -0.27300 -0.06400
H10 H 0.54600 -0.35100 -0.23000
H11 H 0.36700 -0.29700 -0.44800
H12 H 0.14800 -0.15300 -0.49900
H13 H 0.10600 -0.07900 -0.33500
H14 H 0.45900 0.16100 -0.19800
H15 H 0.52300 0.21200 -0.38300
H16 H 0.35600 0.34100 -0.60600
H17 H 0.12400 0.41500 -0.64000
H18 H 0.06300 0.35500 -0.45200
loop_
_geom_bond_atom_site_label_1
_geom_bond_atom_site_label_2
_geom_bond_distance
_geom_bond_site_symmetry_1
_geom_bond_site_symmetry_2
C1 C2 1.382 1_555 1_555
C2 C3 1.408 1_555 1_555
C3 C4 1.358 1_555 1_555
C4 C10 1.407 1_555 1_555
C5 C6 1.359 1_555 1_555
C6 C7 1.407 1_555 1_555
C7 C8 1.379 1_555 1_555
C8 C9 1.440 1_555 1_555
C9 C1 1.436 1_555 1_555
C10 C5 1.411 1_555 1_555
C11 C4 1.515 1_555 1_555
C12 C5 1.512 1_555 1_555
C13 C1 1.488 1_555 1_555
C14 C13 1.394 1_555 1_555
C15 C14 1.385 1_555 1_555
C16 C15 1.376 1_555 1_555
C17 C16 1.381 1_555 1_555
C18 C13 1.390 1_555 1_555
C19 C8 1.491 1_555 1_555
C20 C19 1.386 1_555 1_555
C21 C20 1.384 1_555 1_555
C22 C21 1.377 1_555 1_555
C23 C22 1.375 1_555 1_555
C24 C19 1.393 1_555 1_555
H1 C11 1.007 1_555 1_555
H2 C11 0.998 1_555 1_555
H3 C12 1.028 1_555 1_555
H4 C12 1.008 1_555 1_555
H5 C2 1.000 1_555 1_555
H6 C3 1.019 1_555 1_555
H7 C6 1.020 1_555 1_555
H8 C7 1.010 1_555 1_555
H9 C14 1.005 1_555 1_555
H10 C15 1.028 1_555 1_555
H11 C16 1.023 1_555 1_555
H12 C17 0.997 1_555 1_555
H13 C18 1.004 1_555 1_555
H14 C20 1.000 1_555 1_555
H15 C21 1.013 1_555 1_555
H16 C22 1.034 1_555 1_555
H17 C23 1.016 1_555 1_555
H18 C24 0.983 1_555 1_555
C9 C10 1.417 1_555 1_555
C11 C12 1.541 1_555 1_555
C17 C18 1.383 1_555 1_555
C23 C24 1.384 1_555 1_555
#END
