
#######################################################################
#
#                 Cambridge Crystallographic Data Centre
#                                CCDC
#
#######################################################################
#
# If this CIF has been generated from an entry in the Cambridge
# Structural Database, then it will include bibliographic, chemical,
# crystal, experimental, refinement or atomic coordinate data resulting
# from the CCDC's data processing and validation procedures.
#
#######################################################################

data_CSD_CIF_DPANTR01
_audit_creation_date 1992-12-10
_audit_creation_method CSD-ConQuest-V1
_database_code_CSD DPANTR01
_database_code_depnum_ccdc_archive 'CCDC 113041'
_database_code_depnum_ccdc_fiz 'CSD 320318'
_chemical_formula_sum 'C26 H18'
_chemical_formula_moiety
;
C26 H18
;
_journal_coden_Cambridge 643
_journal_volume 199
_journal_year 1992
_journal_page_first 313
_journal_name_full 'Z.Krist.Cryst.Mater. '
loop_
_publ_author_name
"V.Langer"
"H.-D.Becker"
_chemical_name_systematic
;
9,10-Diphenylanthracene
;
_cell_volume   1774.441
_exptl_crystal_colour 'colorless'
_exptl_crystal_description 'prism'
_exptl_crystal_preparation 'dichloromethane/methanol'
_diffrn_ambient_temperature 293
#These two values have been output from a single CSD field.
_refine_ls_R_factor_gt 0.059
_refine_ls_wR_factor_gt 0.059
_symmetry_cell_setting monoclinic
_symmetry_space_group_name_H-M 'C 2/c'
_symmetry_Int_Tables_number 15
loop_
_symmetry_equiv_pos_site_id
_symmetry_equiv_pos_as_xyz
1 x,y,z
2 1/2+x,1/2+y,z
3 -x,y,1/2-z
4 1/2-x,1/2+y,1/2-z
5 -x,-y,-z
6 -1/2-x,-1/2-y,-z
7 x,-y,-1/2+z
8 -1/2+x,-1/2-y,-1/2+z
_cell_length_a 10.683(4)
_cell_length_b 13.552(2)
_cell_length_c 12.257(2)
_cell_angle_alpha 90
_cell_angle_beta 90.54(2)
_cell_angle_gamma 90
_cell_formula_units_Z 4
loop_
_atom_type_symbol
_atom_type_radius_bond
C 0.68
H 0.23
loop_
_atom_site_label
_atom_site_type_symbol
_atom_site_fract_x
_atom_site_fract_y
_atom_site_fract_z
C1 C 0.0165(2) 0.2971(1) 0.0967(2)
C2 C 0.2276(2) 0.4268(1) 0.1339(1)
C3 C -0.0839(2) 0.2380(2) 0.0802(2)
C4 C 0.2870(2) 0.4346(2) 0.2354(2)
C5 C -0.0748(2) 0.1541(2) 0.0134(2)
C6 C 0.2736(2) 0.5185(2) 0.2976(2)
C7 C 0.037(2) 0.1305(1) -0.0346(2)
C8 C 0.2010(2) 0.5955(2) 0.2614(2)
C9 C 0.1412(2) 0.5891(1) 0.1618(2)
C10 C 0.1554(2) 0.5055(1) 0.0980(2)
C11 C 0.2403(2) 0.3363(1) 0.0662(1)
C12 C 0.1347(2) 0.2761(1) 0.0475(1)
C13 C 0.1442(2) 0.1896(1) -0.0198(1)
H1 H 0.009(2) 0.357(1) 0.145(1)
H2 H -0.163(2) 0.253(2) 0.115(2)
H3 H 0.341(2) 0.379(2) 0.260(2)
H4 H -0.150(2) 0.113(2) -0.001(2)
H5 H 0.316(2) 0.522(2) 0.363(3)
H6 H 0.042(2) 0.069(2) -0.079(2)
H7 H 0.192(2) 0.653(2) 0.305(2)
H8 H 0.086(2) 0.642(2) 0.135(2)
H9 H 0.115(2) 0.502(1) 0.029(2)
C11E C 0.2597(2) 0.1637(1) -0.0662(1)
C2E C 0.2724(2) 0.0732(1) -0.1339(1)
C4E C 0.2130(2) 0.0654(2) -0.2354(2)
C6E C 0.2264(2) -0.0185(2) -0.2976(2)
C8E C 0.2990(2) -0.0955(2) -0.2614(2)
C9E C 0.3588(2) -0.0891(1) -0.1618(2)
C10E C 0.3446(2) -0.0055(1) -0.0980(2)
H9E H 0.385(2) -0.002(1) -0.029(2)
H8E H 0.414(2) -0.142(2) -0.135(2)
H7E H 0.308(2) -0.153(2) -0.305(2)
H5E H 0.184(2) -0.022(2) -0.363(3)
H3E H 0.159(2) 0.121(2) -0.260(2)
C12E C 0.3653(2) 0.2239(1) -0.0475(1)
C1E C 0.4835(2) 0.2029(1) -0.0967(2)
C3E C 0.5839(2) 0.2620(2) -0.0802(2)
C5E C 0.5748(2) 0.3459(2) -0.0134(2)
C7E C 0.463(2) 0.3695(1) 0.0346(2)
C13E C 0.3558(2) 0.3104(1) 0.0198(1)
H6E H 0.458(2) 0.431(2) 0.079(2)
H4E H 0.650(2) 0.387(2) 0.001(2)
H2E H 0.663(2) 0.247(2) -0.115(2)
H1E H 0.491(2) 0.143(1) -0.145(1)
loop_
_geom_bond_atom_site_label_1
_geom_bond_atom_site_label_2
_geom_bond_distance
_geom_bond_site_symmetry_1
_geom_bond_site_symmetry_2
C1 C3 1.352 1_555 1_555
C2 C4 1.395 1_555 1_555
C3 C5 1.405 1_555 1_555
C4 C6 1.377 1_555 1_555
C5 C7 1.374 1_555 1_555
C6 C8 1.371 1_555 1_555
C7 C13 1.408 1_555 1_555
C8 C9 1.375 1_555 1_555
C9 C10 1.386 1_555 1_555
C10 C2 1.386 1_555 1_555
C11 C2 1.488 1_555 1_555
C12 C1 1.433 1_555 1_555
C13 C12 1.438 1_555 1_555
H1 C1 1.008 1_555 1_555
H2 C3 0.972 1_555 1_555
H3 C4 0.994 1_555 1_555
H4 C5 0.992 1_555 1_555
H5 C6 0.918 1_555 1_555
H6 C7 0.997 1_555 1_555
H7 C8 0.950 1_555 1_555
H8 C9 0.983 1_555 1_555
H9 C10 0.947 1_555 1_555
C11E C13 1.408 1_555 1_555
C2E C11E 1.488 1_555 1_555
C4E C2E 1.395 1_555 1_555
C6E C4E 1.377 1_555 1_555
C8E C6E 1.371 1_555 1_555
C9E C8E 1.375 1_555 1_555
C10E C2E 1.386 1_555 1_555
H9E C10E 0.947 1_555 1_555
H8E C9E 0.983 1_555 1_555
H7E C8E 0.950 1_555 1_555
H5E C6E 0.918 1_555 1_555
H3E C4E 0.994 1_555 1_555
C12E C11E 1.409 1_555 1_555
C1E C12E 1.433 1_555 1_555
C3E C1E 1.352 1_555 1_555
C5E C3E 1.405 1_555 1_555
C7E C5E 1.374 1_555 1_555
C13E C11 1.408 1_555 1_555
H6E C7E 0.997 1_555 1_555
H4E C5E 0.992 1_555 1_555
H2E C3E 0.972 1_555 1_555
H1E C1E 1.008 1_555 1_555
C11 C12 1.409 1_555 1_555
C9E C10E 1.386 1_555 1_555
C12E C13E 1.438 1_555 1_555
C7E C13E 1.408 1_555 1_555
#END
