
#######################################################################
#
#                 Cambridge Crystallographic Data Centre
#                                CCDC
#
#######################################################################
#
# If this CIF has been generated from an entry in the Cambridge
# Structural Database, then it will include bibliographic, chemical,
# crystal, experimental, refinement or atomic coordinate data resulting
# from the CCDC's data processing and validation procedures.
#
#######################################################################

data_CSD_CIF_DUPHAX
_audit_creation_date 1987-06-30
_audit_creation_method CSD-ConQuest-V1
_database_code_CSD DUPHAX
_chemical_formula_sum 'C42 H20'
_chemical_formula_moiety
;
C42 H20
;
_journal_coeditor_code "IUCr A26095"
_journal_coden_Cambridge 591
_journal_volume 42
_journal_year 1986
_journal_page_first 1390
_journal_name_full 'Acta Crystallogr.,Sect.C:Cryst.Struct.Commun. '
loop_
_publ_author_name
"S.Fujisawa"
"I.Oonishi"
"J.Aoki"
"Y.Ohashi"
_chemical_name_systematic
;
Dibenzo(def,i)naphtho(1,8,7-v,w,x)pyranthrene
;
_cell_volume   2375.845
_exptl_crystal_colour 'reddish-brown'
_exptl_crystal_density_diffrn 1.467
_exptl_special_details
;
The atom coordinates are x 10 to power 4, not 5

;
_diffrn_ambient_temperature ?
_diffrn_special_details
;
The study was carried out at room temperature,in the range 283-303K

;
#These two values have been output from a single CSD field.
_refine_ls_R_factor_gt 0.044
_refine_ls_wR_factor_gt 0.044
_symmetry_cell_setting orthorhombic
_symmetry_space_group_name_H-M 'P 21 n b'
_symmetry_Int_Tables_number 33
loop_
_symmetry_equiv_pos_site_id
_symmetry_equiv_pos_as_xyz
1 x,y,z
2 1/2+x,1/2-y,1/2+z
3 x,1/2+y,1/2-z
4 1/2+x,-y,-z
_cell_length_a 22.52(1)
_cell_length_b 21.313(7)
_cell_length_c 4.950(4)
_cell_angle_alpha 90
_cell_angle_beta 90
_cell_angle_gamma 90
_cell_formula_units_Z 4
loop_
_atom_type_symbol
_atom_type_radius_bond
C 0.68
H 0.23
loop_
_atom_site_label
_atom_site_type_symbol
_atom_site_fract_x
_atom_site_fract_y
_atom_site_fract_z
C1 C 0.8480(3) 0.6735(2) -0.1550(11)
C2 C 0.9028(2) 0.6964(2) -0.0892(12)
C3 C 0.9365(3) 0.6683(2) 0.1036(11)
C4 C 0.9154(2) 0.6159(2) 0.2416(12)
C5 C 0.9477(2) 0.5874(2) 0.4575(11)
C6 C 0.9290(2) 0.5343(2) 0.5743(10)
C7 C 0.8745(2) 0.5040(2) 0.4978(10)
C8 C 0.8554(2) 0.4475(2) 0.6136(9)
C9 C 0.8950(2) 0.4049(2) 0.7606(11)
C10 C 0.9573(2) 0.4041(2) 0.7070(12)
C11 C 0.9948(3) 0.3666(2) 0.8558(12)
C12 C 0.9729(2) 0.3279(3) 1.0527(12)
C13 C 0.9129(3) 0.3239(3) 1.0915(11)
C14 C 0.8726(2) 0.3599(2) 0.9409(10)
C15 C 0.8081(2) 0.3494(2) 0.9534(10)
C16 C 0.7832(2) 0.3061(2) 1.120(1)
C17 C 0.7222(2) 0.2914(2) 1.1132(10)
C18 C 0.6976(3) 0.2467(2) 1.3009(11)
C19 C 0.6385(3) 0.2336(2) 1.3025(12)
C20 C 0.6013(3) 0.2640(3) 1.1165(12)
C21 C 0.6225(2) 0.3066(3) 0.9365(11)
C22 C 0.6846(2) 0.3220(2) 0.9322(10)
C23 C 0.7093(2) 0.3680(2) 0.7475(11)
C24 C 0.6740(2) 0.3984(2) 0.554(1)
C25 C 0.6956(2) 0.4447(2) 0.3914(10)
C26 C 0.6588(2) 0.4758(2) 0.1817(10)
C27 C 0.5998(2) 0.4581(3) 0.1372(11)
C28 C 0.5653(2) 0.4861(3) -0.0586(11)
C29 C 0.5884(2) 0.5329(3) -0.2128(11)
C30 C 0.6470(2) 0.5541(2) -0.1722(10)
C31 C 0.6726(2) 0.6037(2) -0.3328(11)
C32 C 0.7279(3) 0.6231(2) -0.2866(11)
C33 C 0.7654(2) 0.5958(2) -0.0807(10)
C34 C 0.8234(2) 0.6203(2) -0.0253(10)
C35 C 0.8582(2) 0.5910(2) 0.174(1)
C36 C 0.8374(2) 0.5358(2) 0.3145(10)
C37 C 0.7940(2) 0.4302(2) 0.5928(10)
C38 C 0.7707(2) 0.3813(2) 0.7617(10)
C39 C 0.7569(2) 0.4636(2) 0.4172(9)
C40 C 0.7790(2) 0.5141(2) 0.2617(10)
C41 C 0.7427(2) 0.5456(2) 0.0641(9)
C42 C 0.6829(2) 0.5247(2) 0.0245(10)
H1 H 0.823(2) 0.696(2) -0.314(9)
H2 H 0.920(2) 0.735(2) -0.195(9)
H3 H 0.979(2) 0.687(2) 0.153(9)
H4 H 0.988(2) 0.609(2) 0.525(8)
H5 H 0.955(2) 0.515(2) 0.731(9)
H6 H 0.974(2) 0.432(2) 0.551(8)
H7 H 1.041(2) 0.367(2) 0.814(9)
H8 H 1.002(2) 0.302(2) 1.172(9)
H9 H 0.897(2) 0.293(2) 1.241(9)
H10 H 0.810(2) 0.282(2) 1.265(9)
H11 H 0.726(2) 0.224(2) 1.439(8)
H12 H 0.621(2) 0.201(2) 1.441(8)
H13 H 0.556(2) 0.254(2) 1.116(9)
H14 H 0.593(2) 0.328(2) 0.798(9)
H15 H 0.628(2) 0.385(2) 0.534(9)
H16 H 0.581(2) 0.423(2) 0.263(9)
H17 H 0.521(2) 0.470(2) -0.089(8)
H18 H 0.562(2) 0.554(2) -0.367(9)
H19 H 0.647(2) 0.625(2) -0.487(9)
H20 H 0.745(2) 0.660(2) -0.408(8)
loop_
_geom_bond_atom_site_label_1
_geom_bond_atom_site_label_2
_geom_bond_distance
_geom_bond_site_symmetry_1
_geom_bond_site_symmetry_2
C1 C2 1.366 1_555 1_555
C2 C3 1.358 1_555 1_555
C3 C4 1.393 1_555 1_555
C4 C5 1.428 1_555 1_555
C5 C6 1.339 1_555 1_555
C6 C7 1.438 1_555 1_555
C7 C8 1.401 1_555 1_555
C8 C9 1.466 1_555 1_555
C9 C10 1.428 1_555 1_555
C10 C11 1.376 1_555 1_555
C11 C12 1.369 1_555 1_555
C12 C13 1.367 1_555 1_555
C13 C14 1.403 1_555 1_555
C14 C9 1.404 1_555 1_555
C15 C14 1.471 1_555 1_555
C16 C15 1.359 1_555 1_555
C17 C16 1.409 1_555 1_555
C18 C17 1.441 1_555 1_555
C19 C18 1.360 1_555 1_555
C20 C19 1.403 1_555 1_555
C21 C20 1.359 1_555 1_555
C22 C17 1.395 1_555 1_555
C23 C22 1.451 1_555 1_555
C24 C23 1.403 1_555 1_555
C25 C24 1.363 1_555 1_555
C26 C25 1.484 1_555 1_555
C27 C26 1.399 1_555 1_555
C28 C27 1.378 1_555 1_555
C29 C28 1.359 1_555 1_555
C30 C29 1.409 1_555 1_555
C31 C30 1.443 1_555 1_555
C32 C31 1.332 1_555 1_555
C33 C32 1.446 1_555 1_555
C34 C1 1.416 1_555 1_555
C35 C4 1.433 1_555 1_555
C36 C7 1.407 1_555 1_555
C37 C8 1.435 1_555 1_555
C38 C15 1.439 1_555 1_555
C39 C25 1.444 1_555 1_555
C40 C36 1.418 1_555 1_555
C41 C33 1.386 1_555 1_555
C42 C26 1.409 1_555 1_555
H1 C1 1.080 1_555 1_555
H2 C2 1.049 1_555 1_555
H3 C3 1.065 1_555 1_555
H4 C5 1.071 1_555 1_555
H5 C6 1.055 1_555 1_555
H6 C10 1.045 1_555 1_555
H7 C11 1.061 1_555 1_555
H8 C12 1.041 1_555 1_555
H9 C13 1.053 1_555 1_555
H10 C16 1.069 1_555 1_555
H11 C18 1.054 1_555 1_555
H12 C19 1.053 1_555 1_555
H13 C20 1.042 1_555 1_555
H14 C21 1.058 1_555 1_555
H15 C24 1.079 1_555 1_555
H16 C27 1.061 1_555 1_555
H17 C28 1.066 1_555 1_555
H18 C29 1.067 1_555 1_555
H19 C31 1.059 1_555 1_555
H20 C32 1.062 1_555 1_555
C21 C22 1.437 1_555 1_555
C23 C38 1.413 1_555 1_555
C30 C42 1.412 1_555 1_555
C33 C34 1.433 1_555 1_555
C34 C35 1.406 1_555 1_555
C35 C36 1.445 1_555 1_555
C37 C38 1.435 1_555 1_555
C37 C39 1.400 1_555 1_555
C39 C40 1.414 1_555 1_555
C40 C41 1.441 1_555 1_555
C41 C42 1.432 1_555 1_555
#END
