
#######################################################################
#
#                 Cambridge Crystallographic Data Centre
#                                CCDC
#
#######################################################################
#
# If this CIF has been generated from an entry in the Cambridge
# Structural Database, then it will include bibliographic, chemical,
# crystal, experimental, refinement or atomic coordinate data resulting
# from the CCDC's data processing and validation procedures.
#
#######################################################################

data_CSD_CIF_DUPXOD
_audit_creation_date 2015-07-22
_audit_creation_method CSD-ConQuest-V1
_database_code_CSD DUPXOD
_database_code_depnum_ccdc_archive 'CCDC 1022084'
_chemical_formula_sum 'C31 H21'
_chemical_formula_moiety
;
C31 H21
;
_journal_coden_Cambridge 4
_journal_volume 136
_journal_year 2014
_journal_page_first 18009
_journal_name_full 'J.Am.Chem.Soc. '
loop_
_publ_author_name
"Zhongyu Mou"
"K.Uchida"
"T.Kubo"
"M.Kertesz"
_chemical_name_systematic
;
2,5,8-tris(phenyl)phenalenyl radical
;
_cell_volume   8246.081
_exptl_crystal_colour 'black'
_exptl_crystal_density_diffrn 1.268
_exptl_special_details
;
Air-sensitive, Oxygen-sensitive

;
_exptl_crystal_description 'block'
_exptl_crystal_preparation 'toluene/n-hexane'
_diffrn_ambient_temperature 100
#These two values have been output from a single CSD field.
_refine_ls_R_factor_gt 0.041
_refine_ls_wR_factor_gt 0.041
_symmetry_cell_setting cubic
_symmetry_space_group_name_H-M 'I a -3'
_symmetry_Int_Tables_number 206
loop_
_symmetry_equiv_pos_site_id
_symmetry_equiv_pos_as_xyz
1 x,y,z
2 x,-y,1/2-z
3 1/2-x,y,-z
4 -x,1/2-y,z
5 z,x,y
6 z,-x,1/2-y
7 1/2-z,x,-y
8 -z,1/2-x,y
9 y,z,x
10 y,-z,1/2-x
11 1/2-y,z,-x
12 -y,1/2-z,x
13 1/2+x,1/2+y,1/2+z
14 1/2+x,1/2-y,-z
15 -x,1/2+y,1/2-z
16 1/2-x,-y,1/2+z
17 1/2+z,1/2+x,1/2+y
18 1/2+z,1/2-x,-y
19 -z,1/2+x,1/2-y
20 1/2-z,-x,1/2+y
21 1/2+y,1/2+z,1/2+x
22 1/2+y,1/2-z,-x
23 -y,1/2+z,1/2-x
24 1/2-y,-z,1/2+x
25 -x,-y,-z
26 -x,y,-1/2+z
27 -1/2+x,-y,z
28 x,-1/2+y,-z
29 -z,-x,-y
30 -z,x,-1/2+y
31 -1/2+z,-x,y
32 z,-1/2+x,-y
33 -y,-z,-x
34 -y,z,-1/2+x
35 -1/2+y,-z,x
36 y,-1/2+z,-x
37 -1/2-x,-1/2-y,-1/2-z
38 -1/2-x,-1/2+y,z
39 x,-1/2-y,-1/2+z
40 -1/2+x,y,-1/2-z
41 -1/2-z,-1/2-x,-1/2-y
42 -1/2-z,-1/2+x,y
43 z,-1/2-x,-1/2+y
44 -1/2+z,x,-1/2-y
45 -1/2-y,-1/2-z,-1/2-x
46 -1/2-y,-1/2+z,x
47 y,-1/2-z,-1/2+x
48 -1/2+y,z,-1/2-x
_cell_length_a 20.203(3)
_cell_length_b 20.203(3)
_cell_length_c 20.203(3)
_cell_angle_alpha 90
_cell_angle_beta 90
_cell_angle_gamma 90
_cell_formula_units_Z 16
loop_
_atom_type_symbol
_atom_type_radius_bond
C 0.68
H 0.23
loop_
_atom_site_label
_atom_site_type_symbol
_atom_site_fract_x
_atom_site_fract_y
_atom_site_fract_z
C1 C 0.04445(5) 0.04445(5) 0.04445(5)
C2 C -0.00070(6) 0.03521(5) 0.09754(5)
C3 C -0.05454(6) 0.07927(6) 0.10436(5)
C4 C -0.06357(6) 0.13224(5) 0.06095(6)
C5 C -0.01932(5) 0.14032(5) 0.00853(6)
C6 C -0.12037(6) 0.17805(6) 0.06919(5)
C7 C -0.18069(6) 0.15574(6) 0.09488(6)
C8 C -0.23282(6) 0.19928(7) 0.10511(7)
C9 C -0.22626(7) 0.26575(7) 0.08925(7)
C10 C -0.16728(7) 0.28837(7) 0.06283(7)
C11 C -0.11490(6) 0.24501(6) 0.05286(6)
H1 H -0.0853(7) 0.0731(6) 0.1430(7)
H2 H -0.0265(6) 0.1776(7) -0.0239(6)
H3 H -0.1875(7) 0.1072(7) 0.1050(7)
H4 H -0.2747(8) 0.1817(8) 0.1244(8)
H5 H -0.2645(9) 0.2973(9) 0.0967(8)
H6 H -0.1625(8) 0.3367(8) 0.0518(8)
H7 H -0.0718(8) 0.2623(8) 0.0351(7)
C2D C 0.09754(6) -0.00070(5) 0.03521(5)
C3D C 0.10436(6) -0.05454(6) 0.07927(5)
C4D C 0.06095(6) -0.06357(5) 0.13224(6)
C5D C 0.00853(5) -0.01932(5) 0.14032(6)
C6D C 0.06919(6) -0.12037(6) 0.17805(5)
C7D C 0.09488(6) -0.18069(6) 0.15574(6)
C8D C 0.10511(6) -0.23282(7) 0.19928(7)
C9D C 0.08925(7) -0.22626(7) 0.26575(7)
C10D C 0.06283(7) -0.16728(7) 0.28837(7)
C11D C 0.05286(6) -0.11490(6) 0.24501(6)
H1D H 0.1430(7) -0.0853(6) 0.0731(7)
H2D H -0.0239(6) -0.0265(7) 0.1776(6)
H3D H 0.1050(7) -0.1875(7) 0.1072(7)
H4D H 0.1244(8) -0.2747(8) 0.1817(8)
H5D H 0.0967(9) -0.2645(9) 0.2973(8)
H6D H 0.0518(8) -0.1625(8) 0.3367(8)
H7D H 0.0351(8) -0.0718(8) 0.2623(7)
C2H C 0.03521(6) 0.09754(5) -0.00070(5)
C3H C 0.07927(6) 0.10436(6) -0.05454(5)
C4H C 0.13224(6) 0.06095(5) -0.06357(6)
C5H C 0.14032(5) 0.00853(5) -0.01932(6)
C6H C 0.17805(6) 0.06919(6) -0.12037(5)
C7H C 0.15574(6) 0.09488(6) -0.18069(6)
C8H C 0.19928(6) 0.10511(7) -0.23282(7)
C9H C 0.26575(7) 0.08925(7) -0.22626(7)
C10H C 0.28837(7) 0.06283(7) -0.16728(7)
C11H C 0.24501(6) 0.05286(6) -0.11490(6)
H1H H 0.0731(7) 0.1430(6) -0.0853(7)
H2H H 0.1776(6) -0.0239(7) -0.0265(6)
H3H H 0.1072(7) 0.1050(7) -0.1875(7)
H4H H 0.1817(8) 0.1244(8) -0.2747(8)
H5H H 0.2973(9) 0.0967(9) -0.2645(8)
H6H H 0.3367(8) 0.0518(8) -0.1625(8)
H7H H 0.2623(8) 0.0351(8) -0.0718(7)
loop_
_geom_bond_atom_site_label_1
_geom_bond_atom_site_label_2
_geom_bond_distance
_geom_bond_site_symmetry_1
_geom_bond_site_symmetry_2
C1 C2 1.420 1_555 1_555
C2 C3 1.412 1_555 1_555
C3 C4 1.396 1_555 1_555
C4 C5 1.396 1_555 1_555
C5 H2 1.009 1_555 1_555
C6 C4 1.484 1_555 1_555
C7 C6 1.399 1_555 1_555
C8 C7 1.388 1_555 1_555
C9 C8 1.387 1_555 1_555
C10 C9 1.383 1_555 1_555
C11 C6 1.397 1_555 1_555
H1 C3 1.006 1_555 1_555
H3 C7 1.011 1_555 1_555
H4 C8 0.997 1_555 1_555
H5 C9 1.013 1_555 1_555
H6 C10 1.006 1_555 1_555
H7 C11 1.004 1_555 1_555
C2D C1 1.420 1_555 1_555
C3D C2D 1.412 1_555 1_555
C4D C3D 1.396 1_555 1_555
C5D C2 1.413 1_555 1_555
C6D C4D 1.484 1_555 1_555
C7D C6D 1.399 1_555 1_555
C8D C7D 1.388 1_555 1_555
C9D C8D 1.387 1_555 1_555
C10D C9D 1.383 1_555 1_555
C11D C6D 1.397 1_555 1_555
H1D C3D 1.006 1_555 1_555
H2D C5D 1.009 1_555 1_555
H3D C7D 1.011 1_555 1_555
H4D C8D 0.997 1_555 1_555
H5D C9D 1.013 1_555 1_555
H6D C10D 1.006 1_555 1_555
H7D C11D 1.004 1_555 1_555
C2H C1 1.420 1_555 1_555
C3H C2H 1.412 1_555 1_555
C4H C3H 1.396 1_555 1_555
C5H C2D 1.413 1_555 1_555
C6H C4H 1.484 1_555 1_555
C7H C6H 1.399 1_555 1_555
C8H C7H 1.388 1_555 1_555
C9H C8H 1.387 1_555 1_555
C10H C9H 1.383 1_555 1_555
C11H C6H 1.397 1_555 1_555
H1H C3H 1.006 1_555 1_555
H2H C5H 1.009 1_555 1_555
H3H C7H 1.011 1_555 1_555
H4H C8H 0.997 1_555 1_555
H5H C9H 1.013 1_555 1_555
H6H C10H 1.006 1_555 1_555
H7H C11H 1.004 1_555 1_555
C5 C2H 1.413 1_555 1_555
C10 C11 1.388 1_555 1_555
C4D C5D 1.396 1_555 1_555
C10D C11D 1.388 1_555 1_555
C4H C5H 1.396 1_555 1_555
C10H C11H 1.388 1_555 1_555
#END
