
#######################################################################
#
#                 Cambridge Crystallographic Data Centre
#                                CCDC
#
#######################################################################
#
# If this CIF has been generated from an entry in the Cambridge
# Structural Database, then it will include bibliographic, chemical,
# crystal, experimental, refinement or atomic coordinate data resulting
# from the CCDC's data processing and validation procedures.
#
#######################################################################

data_CSD_CIF_DUPYAQ
_audit_creation_date 2015-07-22
_audit_creation_method CSD-ConQuest-V1
_database_code_CSD DUPYAQ
_database_code_depnum_ccdc_archive 'CCDC 1022086'
_chemical_formula_sum 'C32 H30'
_chemical_formula_moiety
;
C32 H30
;
_journal_coden_Cambridge 4
_journal_volume 136
_journal_year 2014
_journal_page_first 18009
_journal_name_full 'J.Am.Chem.Soc. '
loop_
_publ_author_name
"Zhongyu Mou"
"K.Uchida"
"T.Kubo"
"M.Kertesz"
_chemical_name_systematic
;
2,2',5,5',8,8'-hexamethyl-1H,1'H-1,1'-biphenalene
;
_cell_volume   2300.602
_exptl_crystal_colour 'colorless'
_exptl_crystal_density_diffrn 1.197
_exptl_special_details
;
Air-sensitive, Oxygen-sensitive

;
_exptl_crystal_description 'platelet'
_exptl_crystal_preparation 'dichloromethane/n-hexane'
_diffrn_ambient_temperature 200
#These two values have been output from a single CSD field.
_refine_ls_R_factor_gt 0.0478
_refine_ls_wR_factor_gt 0.0478
_symmetry_cell_setting triclinic
_symmetry_space_group_name_H-M 'P -1'
_symmetry_Int_Tables_number 2
loop_
_symmetry_equiv_pos_site_id
_symmetry_equiv_pos_as_xyz
1 x,y,z
2 -x,-y,-z
_cell_length_a 10.4471(4)
_cell_length_b 11.2032(3)
_cell_length_c 19.9952(6)
_cell_angle_alpha 93.7663(10)
_cell_angle_beta 99.8235(10)
_cell_angle_gamma 90.3569(10)
_cell_formula_units_Z 4
loop_
_atom_type_symbol
_atom_type_radius_bond
C 0.68
H 0.23
loop_
_atom_site_label
_atom_site_type_symbol
_atom_site_fract_x
_atom_site_fract_y
_atom_site_fract_z
C1 C 0.18109(19) -0.19847(17) 0.26586(10)
H1 H 0.17490 -0.24330 0.22050
C2 C 0.0499(2) -0.20769(18) 0.2863(1)
C3 C 0.0356(2) -0.24369(18) 0.34722(11)
H2 H -0.04910 -0.24400 0.35860
C4 C 0.1430(2) -0.28228(17) 0.39682(10)
C5 C 0.1253(2) -0.32086(19) 0.45889(11)
H3 H 0.04100 -0.31780 0.47070
C6 C 0.2289(2) -0.3648(2) 0.50546(11)
C7 C 0.3504(2) -0.36809(19) 0.48852(10)
H4 H 0.42080 -0.39550 0.52000
C8 C 0.3735(2) -0.33139(17) 0.42489(10)
C9 C 0.4976(2) -0.33897(18) 0.40577(11)
H5 H 0.56890 -0.36500 0.43720
C10 C 0.5173(2) -0.30948(18) 0.34257(11)
C11 C 0.4104(2) -0.27060(17) 0.29621(10)
H6 H 0.42250 -0.25500 0.25160
C12 C 0.2895(2) -0.25456(16) 0.31363(10)
C13 C 0.26897(19) -0.28732(17) 0.37859(10)
C14 C -0.0653(2) -0.1779(2) 0.23421(11)
H7 H -0.14550 -0.19390 0.25150
H8 H -0.06460 -0.22730 0.19200
H9 H -0.06050 -0.09320 0.22530
C15 C 0.2023(3) -0.4082(2) 0.57162(12)
H10 H 0.28210 -0.44040 0.59670
H11 H 0.13480 -0.47100 0.56220
H12 H 0.17290 -0.34130 0.59890
C16 C 0.6486(2) -0.3137(2) 0.32215(13)
H13 H 0.70890 -0.35430 0.35600
H14 H 0.68050 -0.23200 0.31940
H15 H 0.64240 -0.35760 0.27760
C17 C 0.2162(2) -0.06093(17) 0.25555(10)
H16 H 0.13210 -0.01990 0.24140
C18 C 0.2926(2) -0.05426(17) 0.19835(10)
C19 C 0.4185(2) -0.02374(17) 0.21038(10)
H17 H 0.46350 -0.02320 0.17290
C20 C 0.4902(2) 0.00875(17) 0.27838(10)
C21 C 0.6221(2) 0.02935(18) 0.29118(11)
H18 H 0.66950 0.01760 0.25480
C22 C 0.6903(2) 0.06745(19) 0.35666(12)
C23 C 0.6201(2) 0.08942(19) 0.40817(11)
H19 H 0.66440 0.11710 0.45200
C24 C 0.4830(2) 0.07186(17) 0.39777(10)
C25 C 0.4081(2) 0.09932(18) 0.44936(10)
H20 H 0.45050 0.12910 0.49320
C26 C 0.2757(2) 0.08379(18) 0.43745(10)
C27 C 0.2143(2) 0.03383(17) 0.37302(10)
H21 H 0.12270 0.02150 0.36500
C28 C 0.28199(19) 0.00265(16) 0.32191(9)
C29 C 0.2190(2) -0.08309(19) 0.12772(10)
H22 H 0.27560 -0.06910 0.09450
H23 H 0.14300 -0.03180 0.11960
H24 H 0.19050 -0.16720 0.12290
C30 C 0.8350(2) 0.0833(3) 0.36765(15)
H25 H 0.86570 0.11920 0.41370
H26 H 0.85870 0.13580 0.33420
H27 H 0.87510 0.00520 0.36220
C31 C 0.1946(3) 0.1199(2) 0.49067(11)
H28 H 0.25130 0.13630 0.53470
H29 H 0.13330 0.05480 0.49400
H30 H 0.14630 0.19200 0.47790
C32 C 0.41833(19) 0.02602(16) 0.33266(10)
C33 C 0.2789(2) 0.29603(17) 0.23033(10)
H31 H 0.27410 0.24450 0.26890
C34 C 0.4191(2) 0.30025(17) 0.22153(10)
C35 C 0.4543(2) 0.27121(18) 0.16162(11)
H32 H 0.54400 0.27640 0.15870
C36 C 0.3633(2) 0.23205(17) 0.10047(10)
C37 C 0.4030(2) 0.20271(19) 0.03950(11)
H33 H 0.49240 0.21140 0.03670
C38 C 0.3154(2) 0.1601(2) -0.01917(11)
C39 C 0.1866(2) 0.14768(19) -0.01464(11)
H34 H 0.12690 0.11990 -0.05400
C40 C 0.1398(2) 0.17513(17) 0.04719(10)
C41 C 0.0086(2) 0.15788(18) 0.05326(10)
H35 H -0.05280 0.13330 0.01400
C42 C -0.0320(2) 0.17582(18) 0.11473(11)
C43 C 0.0596(2) 0.21367(17) 0.17307(11)
H36 H 0.03240 0.22110 0.21610
C44 C 0.18780(19) 0.24020(16) 0.1693(1)
C45 C 0.22974(19) 0.21815(16) 0.1057(1)
C46 C 0.5181(2) 0.3352(2) 0.28390(12)
H37 H 0.60570 0.32330 0.27350
H38 H 0.50530 0.28540 0.32080
H39 H 0.50780 0.41950 0.29800
C47 C 0.3658(3) 0.1258(3) -0.08415(13)
H40 H 0.40710 0.04770 -0.08070
H41 H 0.42960 0.18610 -0.09140
H42 H 0.29340 0.12160 -0.12250
C48 C -0.1721(2) 0.1597(2) 0.12205(14)
H43 H -0.20830 0.23760 0.13290
H44 H -0.17760 0.10700 0.15880
H45 H -0.22150 0.12380 0.07930
C49 C 0.2309(2) 0.42680(17) 0.25268(10)
H46 H 0.30910 0.47250 0.27760
C50 C 0.1368(2) 0.41788(18) 0.30153(10)
C51 C 0.0113(2) 0.44102(19) 0.28305(11)
H47 H -0.04510 0.43110 0.31490
C52 C -0.0440(2) 0.48069(18) 0.21653(10)
C53 C -0.1746(2) 0.49401(19) 0.19582(12)
H48 H -0.23220 0.47310 0.22530
C54 C -0.2274(2) 0.53748(19) 0.13251(12)
C55 C -0.1438(2) 0.56974(19) 0.09074(11)
H49 H -0.17780 0.60040 0.04830
C56 C -0.00731(19) 0.55833(17) 0.1095(1)
C57 C 0.08035(19) 0.59462(17) 0.06763(10)
H50 H 0.04730 0.62580 0.02520
C58 C 0.2120(2) 0.58566(17) 0.08721(10)
C59 C 0.2599(2) 0.53403(17) 0.14894(10)
H51 H 0.35110 0.52680 0.16220
C60 C 0.1787(2) 0.49370(16) 0.19062(9)
C61 C 0.04341(19) 0.50969(16) 0.17219(10)
C62 C 0.1919(3) 0.3805(2) 0.37140(11)
H52 H 0.12370 0.38270 0.39960
H53 H 0.26310 0.43540 0.39230
H54 H 0.22490 0.29900 0.36780
C63 C -0.3719(2) 0.5485(3) 0.11206(15)
H55 H -0.39070 0.58910 0.06960
H56 H -0.40660 0.59500 0.14800
H57 H -0.41260 0.46860 0.10530
C64 C 0.3052(2) 0.6290(2) 0.04394(12)
H58 H 0.25620 0.65990 0.00260
H59 H 0.35880 0.56240 0.03150
H60 H 0.36120 0.69280 0.06960
loop_
_geom_bond_atom_site_label_1
_geom_bond_atom_site_label_2
_geom_bond_distance
_geom_bond_site_symmetry_1
_geom_bond_site_symmetry_2
C1 H1 0.999 1_555 1_555
C2 C1 1.500 1_555 1_555
C3 C2 1.340 1_555 1_555
H2 C3 0.951 1_555 1_555
C4 C3 1.453 1_555 1_555
C5 C4 1.382 1_555 1_555
H3 C5 0.950 1_555 1_555
C6 C5 1.416 1_555 1_555
C7 C6 1.369 1_555 1_555
H4 C7 0.950 1_555 1_555
C8 C7 1.421 1_555 1_555
C9 C8 1.414 1_555 1_555
H5 C9 0.950 1_555 1_555
C10 C9 1.375 1_555 1_555
C11 C10 1.415 1_555 1_555
H6 C11 0.949 1_555 1_555
C12 C1 1.519 1_555 1_555
C13 C4 1.425 1_555 1_555
C14 C2 1.506 1_555 1_555
H7 C14 0.979 1_555 1_555
H8 C14 0.980 1_555 1_555
H9 C14 0.979 1_555 1_555
C15 C6 1.507 1_555 1_555
H10 C15 0.981 1_555 1_555
H11 C15 0.979 1_555 1_555
H12 C15 0.980 1_555 1_555
C16 C10 1.497 1_555 1_555
H13 C16 0.980 1_555 1_555
H14 C16 0.980 1_555 1_555
H15 C16 0.981 1_555 1_555
C17 C1 1.616 1_555 1_555
H16 C17 1.000 1_555 1_555
C18 C17 1.508 1_555 1_555
C19 C18 1.334 1_555 1_555
H17 C19 0.951 1_555 1_555
C20 C19 1.458 1_555 1_555
C21 C20 1.373 1_555 1_555
H18 C21 0.950 1_555 1_555
C22 C21 1.417 1_555 1_555
C23 C22 1.373 1_555 1_555
H19 C23 0.950 1_555 1_555
C24 C23 1.422 1_555 1_555
C25 C24 1.417 1_555 1_555
H20 C25 0.950 1_555 1_555
C26 C25 1.371 1_555 1_555
C27 C26 1.415 1_555 1_555
H21 C27 0.951 1_555 1_555
C28 C17 1.516 1_555 1_555
C29 C18 1.502 1_555 1_555
H22 C29 0.981 1_555 1_555
H23 C29 0.980 1_555 1_555
H24 C29 0.980 1_555 1_555
C30 C22 1.498 1_555 1_555
H25 C30 0.981 1_555 1_555
H26 C30 0.980 1_555 1_555
H27 C30 0.980 1_555 1_555
C31 C26 1.506 1_555 1_555
H28 C31 0.979 1_555 1_555
H29 C31 0.981 1_555 1_555
H30 C31 0.980 1_555 1_555
C32 C20 1.425 1_555 1_555
C33 H31 1.001 1_555 1_555
C34 C33 1.506 1_555 1_555
C35 C34 1.333 1_555 1_555
H32 C35 0.950 1_555 1_555
C36 C35 1.456 1_555 1_555
C37 C36 1.374 1_555 1_555
H33 C37 0.950 1_555 1_555
C38 C37 1.413 1_555 1_555
C39 C38 1.371 1_555 1_555
H34 C39 0.950 1_555 1_555
C40 C39 1.421 1_555 1_555
C41 C40 1.410 1_555 1_555
H35 C41 0.949 1_555 1_555
C42 C41 1.370 1_555 1_555
C43 C42 1.416 1_555 1_555
H36 C43 0.950 1_555 1_555
C44 C33 1.511 1_555 1_555
C45 C36 1.425 1_555 1_555
C46 C34 1.506 1_555 1_555
H37 C46 0.980 1_555 1_555
H38 C46 0.980 1_555 1_555
H39 C46 0.980 1_555 1_555
C47 C38 1.511 1_555 1_555
H40 C47 0.979 1_555 1_555
H41 C47 0.981 1_555 1_555
H42 C47 0.979 1_555 1_555
C48 C42 1.507 1_555 1_555
H43 C48 0.979 1_555 1_555
H44 C48 0.981 1_555 1_555
H45 C48 0.980 1_555 1_555
C49 C33 1.612 1_555 1_555
H46 C49 1.000 1_555 1_555
C50 C49 1.507 1_555 1_555
C51 C50 1.332 1_555 1_555
H47 C51 0.950 1_555 1_555
C52 C51 1.456 1_555 1_555
C53 C52 1.369 1_555 1_555
H48 C53 0.950 1_555 1_555
C54 C53 1.411 1_555 1_555
C55 C54 1.370 1_555 1_555
H49 C55 0.949 1_555 1_555
C56 C55 1.420 1_555 1_555
C57 C56 1.417 1_555 1_555
H50 C57 0.949 1_555 1_555
C58 C57 1.370 1_555 1_555
C59 C58 1.412 1_555 1_555
H51 C59 0.950 1_555 1_555
C60 C49 1.515 1_555 1_555
C61 C52 1.427 1_555 1_555
C62 C50 1.505 1_555 1_555
H52 C62 0.981 1_555 1_555
H53 C62 0.980 1_555 1_555
H54 C62 0.981 1_555 1_555
C63 C54 1.503 1_555 1_555
H55 C63 0.980 1_555 1_555
H56 C63 0.980 1_555 1_555
H57 C63 0.980 1_555 1_555
C64 C58 1.506 1_555 1_555
H58 C64 0.980 1_555 1_555
H59 C64 0.980 1_555 1_555
H60 C64 0.980 1_555 1_555
C8 C13 1.420 1_555 1_555
C11 C12 1.376 1_555 1_555
C12 C13 1.423 1_555 1_555
C24 C32 1.422 1_555 1_555
C27 C28 1.367 1_555 1_555
C28 C32 1.424 1_555 1_555
C40 C45 1.424 1_555 1_555
C43 C44 1.386 1_555 1_555
C44 C45 1.421 1_555 1_555
C56 C61 1.420 1_555 1_555
C59 C60 1.380 1_555 1_555
C60 C61 1.414 1_555 1_555
#END
