
#######################################################################
#
#                 Cambridge Crystallographic Data Centre
#                                CCDC
#
#######################################################################
#
# If this CIF has been generated from an entry in the Cambridge
# Structural Database, then it will include bibliographic, chemical,
# crystal, experimental, refinement or atomic coordinate data resulting
# from the CCDC's data processing and validation procedures.
#
#######################################################################

data_CSD_CIF_DUPYEU
_audit_creation_date 2015-07-22
_audit_creation_method CSD-ConQuest-V1
_database_code_CSD DUPYEU
_database_code_depnum_ccdc_archive 'CCDC 1022087'
_chemical_formula_sum 'C16 H15'
_chemical_formula_moiety
;
C16 H15
;
_journal_coden_Cambridge 4
_journal_volume 136
_journal_year 2014
_journal_page_first 18009
_journal_name_full 'J.Am.Chem.Soc. '
loop_
_publ_author_name
"Zhongyu Mou"
"K.Uchida"
"T.Kubo"
"M.Kertesz"
_chemical_name_systematic
;
2,5,8-trimethylphenalenyl radical
;
_cell_volume    560.749
_exptl_crystal_colour 'violet'
_exptl_crystal_density_diffrn 1.228
_exptl_special_details
;
Air-sensitive, Oxygen-sensitive

;
_exptl_crystal_description 'platelet'
_diffrn_ambient_temperature 100
#These two values have been output from a single CSD field.
_refine_ls_R_factor_gt 0.0606
_refine_ls_wR_factor_gt 0.0606
_symmetry_cell_setting triclinic
_symmetry_space_group_name_H-M 'P 1'
_symmetry_Int_Tables_number 1
loop_
_symmetry_equiv_pos_site_id
_symmetry_equiv_pos_as_xyz
1 x,y,z
_cell_length_a 8.1570(13)
_cell_length_b 8.8163(13)
_cell_length_c 9.1728(15)
_cell_angle_alpha 61.817(4)
_cell_angle_beta 75.861(4)
_cell_angle_gamma 78.188(4)
_cell_formula_units_Z 2
loop_
_atom_type_symbol
_atom_type_radius_bond
C 0.68
H 0.23
loop_
_atom_site_label
_atom_site_type_symbol
_atom_site_fract_x
_atom_site_fract_y
_atom_site_fract_z
C1 C 0.2342(3) 0.2012(2) 0.5862(3)
H1 H 0.19550 0.18470 0.69860
C2 C 0.3659(3) 0.0848(3) 0.5517(3)
C3 C 0.4175(3) 0.1095(3) 0.3904(3)
H2 H 0.50530 0.03030 0.36790
C4 C 0.3468(3) 0.2476(2) 0.2541(3)
C5 C 0.3970(3) 0.2707(2) 0.0863(2)
H3 H 0.48480 0.19240 0.06220
C6 C 0.3231(3) 0.4018(3) -0.0415(3)
C7 C 0.1900(3) 0.5153(3) -0.0054(3)
H4 H 0.13610 0.60440 -0.09410
C8 C 0.1354(3) 0.5012(2) 0.1544(3)
C9 C -0.0036(3) 0.6126(2) 0.1962(3)
H5 H -0.06280 0.70030 0.11100
C10 C -0.0509(3) 0.5927(2) 0.3579(3)
C11 C 0.0239(3) 0.4594(2) 0.4874(2)
H6 H -0.01520 0.44560 0.59890
C12 C 0.1598(3) 0.3415(2) 0.4553(3)
C13 C 0.2131(2) 0.3648(2) 0.2916(3)
C14 C 0.4386(3) -0.0681(3) 0.6960(3)
H7 H 0.39560 -0.17370 0.71690
H8 H 0.40430 -0.04960 0.79710
H9 H 0.56290 -0.07980 0.66760
C15 C 0.3759(3) 0.4229(3) -0.2202(3)
H10 H 0.44330 0.52140 -0.28740
H11 H 0.27420 0.44360 -0.26870
H12 H 0.44410 0.31750 -0.21970
C16 C -0.1989(3) 0.7120(3) 0.3989(3)
H13 H -0.22220 0.81350 0.29490
H14 H -0.16910 0.74930 0.47340
H15 H -0.30020 0.64960 0.45470
C17 C 0.7622(3) 0.2241(3) 0.5398(3)
H16 H 0.67580 0.30400 0.56290
C18 C 0.8388(3) 0.0857(3) 0.6741(3)
C19 C 0.9672(3) -0.0237(2) 0.6361(3)
H17 H 1.02150 -0.11330 0.72430
C20 C 1.0241(3) -0.0101(3) 0.4696(3)
C21 C 1.1557(3) -0.1203(3) 0.4305(3)
H18 H 1.20740 -0.21180 0.51950
C22 C 1.2163(3) -0.1045(3) 0.2679(3)
C23 C 1.1374(3) 0.0347(3) 0.1394(3)
H19 H 1.17720 0.05160 0.02700
C24 C 1.0036(3) 0.1491(3) 0.1698(3)
C25 C 0.9265(3) 0.2942(3) 0.0412(3)
H20 H 0.96750 0.31470 -0.07210
C26 C 0.7952(3) 0.4062(3) 0.0737(3)
C27 C 0.7383(3) 0.3840(3) 0.2402(3)
H21 H 0.65000 0.46290 0.26250
C28 C 0.8119(3) 0.2444(3) 0.3748(3)
C29 C 0.9437(3) 0.1283(3) 0.3403(3)
C30 C 0.7814(4) 0.0655(3) 0.8488(3)
H22 H 0.67440 0.01230 0.89640
H23 H 0.76400 0.17930 0.84770
H24 H 0.86800 -0.00850 0.91720
C31 C 1.3591(3) -0.2243(3) 0.2318(3)
H25 H 1.46720 -0.19130 0.23080
H26 H 1.35870 -0.21730 0.12210
H27 H 1.34530 -0.34300 0.31880
C32 C 0.7172(3) 0.5585(3) -0.0673(3)
H28 H 0.79760 0.64600 -0.13080
H29 H 0.61230 0.60880 -0.02020
H30 H 0.69130 0.51930 -0.14210
loop_
_geom_bond_atom_site_label_1
_geom_bond_atom_site_label_2
_geom_bond_distance
_geom_bond_site_symmetry_1
_geom_bond_site_symmetry_2
C1 H1 0.950 1_555 1_555
C2 C1 1.413 1_555 1_555
C3 C2 1.357 1_555 1_555
H2 C3 0.950 1_555 1_555
C4 C3 1.416 1_555 1_555
C5 C4 1.417 1_555 1_555
H3 C5 0.950 1_555 1_555
C6 C5 1.361 1_555 1_555
C7 C6 1.408 1_555 1_555
H4 C7 0.950 1_555 1_555
C8 C7 1.376 1_555 1_555
C9 C8 1.444 1_555 1_555
H5 C9 0.950 1_555 1_555
C10 C9 1.372 1_555 1_555
C11 C10 1.381 1_555 1_555
H6 C11 0.950 1_555 1_555
C12 C1 1.409 1_555 1_555
C13 C4 1.438 1_555 1_555
C14 C2 1.514 1_555 1_555
H7 C14 0.979 1_555 1_555
H8 C14 0.981 1_555 1_555
H9 C14 0.980 1_555 1_555
C15 C6 1.519 1_555 1_555
H10 C15 0.980 1_555 1_555
H11 C15 0.980 1_555 1_555
H12 C15 0.979 1_555 1_555
C16 C10 1.529 1_555 1_555
H13 C16 0.980 1_555 1_555
H14 C16 0.980 1_555 1_555
H15 C16 0.980 1_555 1_555
C17 H16 0.950 1_555 1_555
C18 C17 1.429 1_555 1_555
C19 C18 1.369 1_555 1_555
H17 C19 0.950 1_555 1_555
C20 C19 1.437 1_555 1_555
C21 C20 1.392 1_555 1_555
H18 C21 0.950 1_555 1_555
C22 C21 1.400 1_555 1_555
C23 C22 1.411 1_555 1_555
H19 C23 0.950 1_555 1_555
C24 C23 1.397 1_555 1_555
C25 C24 1.425 1_555 1_555
H20 C25 0.950 1_555 1_555
C26 C25 1.378 1_555 1_555
C27 C26 1.412 1_555 1_555
H21 C27 0.950 1_555 1_555
C28 C17 1.400 1_555 1_555
C29 C20 1.418 1_555 1_555
C30 C18 1.489 1_555 1_555
H22 C30 0.980 1_555 1_555
H23 C30 0.980 1_555 1_555
H24 C30 0.980 1_555 1_555
C31 C22 1.490 1_555 1_555
H25 C31 0.980 1_555 1_555
H26 C31 0.979 1_555 1_555
H27 C31 0.980 1_555 1_555
C32 C26 1.514 1_555 1_555
H28 C32 0.980 1_555 1_555
H29 C32 0.980 1_555 1_555
H30 C32 0.980 1_555 1_555
C8 C13 1.442 1_555 1_555
C11 C12 1.433 1_555 1_555
C12 C13 1.383 1_555 1_555
C24 C29 1.453 1_555 1_555
C27 C28 1.423 1_555 1_555
C28 C29 1.412 1_555 1_555
#END
