
#######################################################################
#
#                 Cambridge Crystallographic Data Centre
#                                CCDC
#
#######################################################################
#
# If this CIF has been generated from an entry in the Cambridge
# Structural Database, then it will include bibliographic, chemical,
# crystal, experimental, refinement or atomic coordinate data resulting
# from the CCDC's data processing and validation procedures.
#
#######################################################################

data_CSD_CIF_DUWHIN
_audit_creation_date 2010-09-06
_audit_creation_method CSD-ConQuest-V1
_database_code_CSD DUWHIN
_database_code_depnum_ccdc_archive 'CCDC 746564'
_chemical_formula_sum 'C38 H52'
_chemical_formula_moiety
;
C38 H52
;
_journal_coden_Cambridge 1291
_journal_year 2010
_journal_page_first 3033
_journal_name_full 'Eur.J.Org.Chem. '
loop_
_publ_author_name
"C.Kitamura"
"H.Tsukuda"
"A.Yoneda"
"T.Kawase"
"T.Kobayashi"
"H.Naito"
_chemical_name_systematic
;
1,4,7,10-Tetraisopentyltetracene
;
_chemical_melting_point 439
_cell_volume   1534.322
_exptl_crystal_colour 'orange'
_exptl_crystal_density_diffrn 1.101
_exptl_crystal_description 'needle'
_diffrn_ambient_temperature 223
#These two values have been output from a single CSD field.
_refine_ls_R_factor_gt 0.1207
_refine_ls_wR_factor_gt 0.1207
_symmetry_cell_setting monoclinic
_symmetry_space_group_name_H-M 'P 21/c'
_symmetry_Int_Tables_number 14
loop_
_symmetry_equiv_pos_site_id
_symmetry_equiv_pos_as_xyz
1 x,y,z
2 -x,1/2+y,1/2-z
3 -x,-y,-z
4 x,-1/2-y,-1/2+z
_cell_length_a 4.809(2)
_cell_length_b 30.304(14)
_cell_length_c 10.973(6)
_cell_angle_alpha 90
_cell_angle_beta 106.366(19)
_cell_angle_gamma 90
_cell_formula_units_Z 2
loop_
_atom_type_symbol
_atom_type_radius_bond
C 0.68
H 0.23
loop_
_atom_site_label
_atom_site_type_symbol
_atom_site_fract_x
_atom_site_fract_y
_atom_site_fract_z
C1 C 0.6541(9) 0.12852(15) 0.5615(5)
C2 C 0.5923(8) 0.15275(16) 0.6526(5)
H1 H 0.64280 0.18280 0.65940
C3 C 0.4523(9) 0.13440(15) 0.7397(4)
H2 H 0.41410 0.15310 0.80150
C4 C 0.3716(8) 0.09158(14) 0.7379(4)
C5 C 0.4313(8) 0.06373(14) 0.6416(4)
C6 C 0.5785(8) 0.08193(14) 0.5543(4)
C7 C 0.6414(8) 0.05373(15) 0.4661(4)
H3 H 0.73400 0.06550 0.40850
C8 C 0.5748(8) 0.00884(15) 0.4583(4)
C9 C 0.3560(8) 0.01942(15) 0.6308(4)
H4 H 0.25440 0.00780 0.68510
C10 C 0.7973(9) 0.14754(14) 0.4656(4)
H5 H 0.97930 0.13170 0.47350
H6 H 0.67050 0.14220 0.37980
C11 C 0.8618(9) 0.19672(15) 0.4808(5)
H7 H 1.00560 0.20180 0.56280
H8 H 0.68420 0.21240 0.48180
C12 C 0.976(1) 0.21590(15) 0.3751(5)
H9 H 1.13930 0.19730 0.36720
C13 C 1.0899(11) 0.26254(18) 0.4101(6)
H10 H 1.15850 0.27470 0.34210
H11 H 1.24820 0.26170 0.48780
H12 H 0.93530 0.28090 0.42280
C14 C 0.7456(11) 0.21630(19) 0.2471(5)
H13 H 0.67550 0.18650 0.22510
H14 H 0.82900 0.22760 0.18250
H15 H 0.58570 0.23500 0.25220
C15 C 0.2312(9) 0.07229(14) 0.8335(4)
H16 H 0.03670 0.06210 0.78730
H17 H 0.34310 0.04630 0.87200
C16 C 0.2039(9) 0.10243(15) 0.9391(5)
H18 H 0.08550 0.12790 0.90130
H19 H 0.39720 0.11340 0.98420
C17 C 0.0708(9) 0.08127(17) 1.0353(4)
H20 H -0.12410 0.07010 0.98930
C18 C 0.0362(12) 0.1157(2) 1.1317(6)
H21 H -0.08390 0.13970 1.08760
H22 H 0.22530 0.12700 1.17770
H23 H -0.05460 0.10220 1.19090
C19 C 0.2523(11) 0.04224(19) 1.1036(5)
H24 H 0.16160 0.02970 1.16420
H25 H 0.44560 0.05240 1.14790
H26 H 0.26440 0.02000 1.04180
C1B C 0.3459(9) -0.12852(15) 0.4385(5)
C2B C 0.4077(8) -0.15275(16) 0.3474(5)
H1B H 0.35720 -0.18280 0.34060
C3B C 0.5477(9) -0.13440(15) 0.2603(4)
H2B H 0.58590 -0.15310 0.19850
C4B C 0.6284(8) -0.09158(14) 0.2621(4)
C5B C 0.5687(8) -0.06373(14) 0.3584(4)
C6B C 0.4215(8) -0.08193(14) 0.4457(4)
C7B C 0.3586(8) -0.05373(15) 0.5339(4)
H3B H 0.26600 -0.06550 0.59150
C8B C 0.4252(8) -0.00884(15) 0.5417(4)
C9B C 0.6440(8) -0.01942(15) 0.3692(4)
H4B H 0.74560 -0.00780 0.31490
C10B C 0.2027(9) -0.14754(14) 0.5344(4)
H5B H 0.02070 -0.13170 0.52650
H6B H 0.32950 -0.14220 0.62020
C11B C 0.1382(9) -0.19672(15) 0.5192(5)
H7B H -0.00560 -0.20180 0.43720
H8B H 0.31580 -0.21240 0.51820
C12B C 0.024(1) -0.21590(15) 0.6249(5)
H9B H -0.13930 -0.19730 0.63280
C13B C -0.0899(11) -0.26254(18) 0.5899(6)
H10B H -0.15850 -0.27470 0.65790
H11B H -0.24820 -0.26170 0.51220
H12B H 0.06470 -0.28090 0.57720
C14B C 0.2544(11) -0.21630(19) 0.7529(5)
H13B H 0.32450 -0.18650 0.77490
H14B H 0.17100 -0.22760 0.81750
H15B H 0.41430 -0.23500 0.74780
C15B C 0.7688(9) -0.07229(14) 0.1665(4)
H16B H 0.96330 -0.06210 0.21270
H17B H 0.65690 -0.04630 0.12800
C16B C 0.7961(9) -0.10243(15) 0.0609(5)
H18B H 0.91450 -0.12790 0.09870
H19B H 0.60280 -0.11340 0.01580
C17B C 0.9292(9) -0.08127(17) -0.0353(4)
H20B H 1.12410 -0.07010 0.01070
C18B C 0.9638(12) -0.1157(2) -0.1317(6)
H21B H 1.08390 -0.13970 -0.08760
H22B H 0.77470 -0.12700 -0.17770
H23B H 1.05460 -0.10220 -0.19090
C19B C 0.7477(11) -0.04224(19) -0.1036(5)
H24B H 0.83840 -0.02970 -0.16420
H25B H 0.55440 -0.05240 -0.14790
H26B H 0.73560 -0.02000 -0.04180
loop_
_geom_bond_atom_site_label_1
_geom_bond_atom_site_label_2
_geom_bond_distance
_geom_bond_site_symmetry_1
_geom_bond_site_symmetry_2
C1 C2 1.339 1_555 1_555
C2 H1 0.940 1_555 1_555
C3 C2 1.428 1_555 1_555
H2 C3 0.941 1_555 1_555
C4 C3 1.353 1_555 1_555
C5 C4 1.443 1_555 1_555
C6 C1 1.455 1_555 1_555
C7 C6 1.387 1_555 1_555
H3 C7 0.940 1_555 1_555
C8 C7 1.395 1_555 1_555
C9 C5 1.387 1_555 1_555
H4 C9 0.939 1_555 1_555
C10 C1 1.524 1_555 1_555
H5 C10 0.980 1_555 1_555
H6 C10 0.980 1_555 1_555
C11 C10 1.522 1_555 1_555
H7 C11 0.980 1_555 1_555
H8 C11 0.980 1_555 1_555
C12 C11 1.531 1_555 1_555
H9 C12 0.990 1_555 1_555
C13 C12 1.525 1_555 1_555
H10 C13 0.970 1_555 1_555
H11 C13 0.970 1_555 1_555
H12 C13 0.970 1_555 1_555
C14 C12 1.524 1_555 1_555
H13 C14 0.970 1_555 1_555
H14 C14 0.970 1_555 1_555
H15 C14 0.969 1_555 1_555
C15 C4 1.516 1_555 1_555
H16 C15 0.980 1_555 1_555
H17 C15 0.980 1_555 1_555
C16 C15 1.510 1_555 1_555
H18 C16 0.979 1_555 1_555
H19 C16 0.980 1_555 1_555
C17 C16 1.522 1_555 1_555
H20 C17 0.991 1_555 1_555
C18 C17 1.528 1_555 1_555
H21 C18 0.969 1_555 1_555
H22 C18 0.970 1_555 1_555
H23 C18 0.969 1_555 1_555
C19 C17 1.534 1_555 1_555
H24 C19 0.970 1_555 1_555
H25 C19 0.970 1_555 1_555
H26 C19 0.969 1_555 1_555
C1B C2B 1.339 1_555 1_555
C2B H1B 0.940 1_555 1_555
C3B C2B 1.428 1_555 1_555
H2B C3B 0.941 1_555 1_555
C4B C3B 1.353 1_555 1_555
C5B C4B 1.443 1_555 1_555
C6B C1B 1.455 1_555 1_555
C7B C6B 1.387 1_555 1_555
H3B C7B 0.940 1_555 1_555
C8B C8 1.419 1_555 1_555
C9B C8 1.408 1_555 1_555
H4B C9B 0.939 1_555 1_555
C10B C1B 1.524 1_555 1_555
H5B C10B 0.980 1_555 1_555
H6B C10B 0.980 1_555 1_555
C11B C10B 1.522 1_555 1_555
H7B C11B 0.980 1_555 1_555
H8B C11B 0.980 1_555 1_555
C12B C11B 1.531 1_555 1_555
H9B C12B 0.990 1_555 1_555
C13B C12B 1.525 1_555 1_555
H10B C13B 0.970 1_555 1_555
H11B C13B 0.970 1_555 1_555
H12B C13B 0.970 1_555 1_555
C14B C12B 1.524 1_555 1_555
H13B C14B 0.970 1_555 1_555
H14B C14B 0.970 1_555 1_555
H15B C14B 0.969 1_555 1_555
C15B C4B 1.516 1_555 1_555
H16B C15B 0.980 1_555 1_555
H17B C15B 0.980 1_555 1_555
C16B C15B 1.510 1_555 1_555
H18B C16B 0.979 1_555 1_555
H19B C16B 0.980 1_555 1_555
C17B C16B 1.522 1_555 1_555
H20B C17B 0.991 1_555 1_555
C18B C17B 1.528 1_555 1_555
H21B C18B 0.969 1_555 1_555
H22B C18B 0.970 1_555 1_555
H23B C18B 0.969 1_555 1_555
C19B C17B 1.534 1_555 1_555
H24B C19B 0.970 1_555 1_555
H25B C19B 0.970 1_555 1_555
H26B C19B 0.969 1_555 1_555
C5 C6 1.451 1_555 1_555
C9 C8B 1.408 1_555 1_555
C5B C6B 1.451 1_555 1_555
C5B C9B 1.387 1_555 1_555
C7B C8B 1.395 1_555 1_555
#END
