
#######################################################################
#
#                 Cambridge Crystallographic Data Centre
#                                CCDC
#
#######################################################################
#
# If this CIF has been generated from an entry in the Cambridge
# Structural Database, then it will include bibliographic, chemical,
# crystal, experimental, refinement or atomic coordinate data resulting
# from the CCDC's data processing and validation procedures.
#
#######################################################################

data_CSD_CIF_DUWHEJ
_audit_creation_date 2010-09-06
_audit_creation_method CSD-ConQuest-V1
_database_code_CSD DUWHEJ
_database_code_depnum_ccdc_archive 'CCDC 746563'
_chemical_formula_sum 'C34 H44'
_chemical_formula_moiety
;
C34 H44
;
_journal_coden_Cambridge 1291
_journal_year 2010
_journal_page_first 3033
_journal_name_full 'Eur.J.Org.Chem. '
loop_
_publ_author_name
"C.Kitamura"
"H.Tsukuda"
"A.Yoneda"
"T.Kawase"
"T.Kobayashi"
"H.Naito"
_chemical_name_systematic
;
1,4,7,10-Tetraisobutyltetracene
;
_chemical_melting_point 483
_cell_volume    692.637
_exptl_crystal_colour 'red'
_exptl_crystal_density_diffrn 1.085
_exptl_crystal_description 'platelet'
_exptl_crystal_preparation 'toluene'
_diffrn_ambient_temperature 223
#These two values have been output from a single CSD field.
_refine_ls_R_factor_gt 0.089
_refine_ls_wR_factor_gt 0.089
_symmetry_cell_setting triclinic
_symmetry_space_group_name_H-M 'P -1'
_symmetry_Int_Tables_number 2
loop_
_symmetry_equiv_pos_site_id
_symmetry_equiv_pos_as_xyz
1 x,y,z
2 -x,-y,-z
_cell_length_a 5.267(3)
_cell_length_b 11.15(7)
_cell_length_c 11.93(8)
_cell_angle_alpha 85.409(16)
_cell_angle_beta 84.292(17)
_cell_angle_gamma 84.952(19)
_cell_formula_units_Z 1
loop_
_atom_type_symbol
_atom_type_radius_bond
C 0.68
H 0.23
loop_
_atom_site_label
_atom_site_type_symbol
_atom_site_fract_x
_atom_site_fract_y
_atom_site_fract_z
C1 C 0.0857(4) 0.29275(18) 0.84508(17)
C2 C -0.0870(4) 0.3313(2) 0.76982(18)
H1 H -0.17550 0.27370 0.73950
C3 C -0.1388(4) 0.4545(2) 0.73531(17)
H2 H -0.26180 0.47590 0.68370
C4 C -0.0165(4) 0.54312(18) 0.77430(16)
C5 C 0.1689(4) 0.50923(17) 0.85572(15)
C6 C 0.2215(4) 0.38221(17) 0.89161(15)
C7 C 0.3974(4) 0.35096(17) 0.97061(15)
H3 H 0.43180 0.26900 0.99350
C8 C 0.5258(4) 0.43737(16) 1.01751(15)
C9 C 0.2950(4) 0.59467(17) 0.90237(15)
H4 H 0.26000 0.67670 0.87990
C10 C 0.1337(4) 0.15951(18) 0.87831(18)
H5 H -0.01200 0.11840 0.85970
H6 H 0.13890 0.14910 0.96050
C11 C 0.3793(4) 0.09704(19) 0.82274(19)
H7 H 0.52720 0.13080 0.85030
C12 C 0.3978(6) 0.1185(2) 0.6944(2)
H8 H 0.25080 0.08860 0.66600
H9 H 0.55340 0.07630 0.66200
H10 H 0.40080 0.20430 0.67350
C13 C 0.3914(6) -0.0386(2) 0.8579(3)
H11 H 0.37620 -0.05060 0.93970
H12 H 0.55360 -0.07690 0.82770
H13 H 0.25220 -0.07410 0.82860
C14 C -0.0745(4) 0.67258(19) 0.73180(18)
H14 H -0.09620 0.72250 0.79660
H15 H -0.23800 0.67920 0.69820
C15 C 0.1290(5) 0.7247(2) 0.6441(2)
H16 H 0.28270 0.73370 0.68320
C16 C 0.2077(8) 0.6442(3) 0.5496(3)
H17 H 0.05970 0.63310 0.51030
H18 H 0.27790 0.56650 0.58020
H19 H 0.33640 0.68090 0.49720
C17 C 0.0289(8) 0.8505(3) 0.5985(3)
H20 H 0.16250 0.88660 0.54840
H21 H -0.02090 0.90070 0.66100
H22 H -0.11820 0.84380 0.55720
C1A C 0.9143(4) 0.70725(18) 1.15492(17)
C2A C 1.0870(4) 0.6687(2) 1.23018(18)
H1A H 1.17550 0.72630 1.26050
C3A C 1.1388(4) 0.5455(2) 1.26469(17)
H2A H 1.26180 0.52410 1.31630
C4A C 1.0165(4) 0.45688(18) 1.22570(16)
C5A C 0.8311(4) 0.49077(17) 1.14428(15)
C6A C 0.7785(4) 0.61779(17) 1.10839(15)
C7A C 0.6026(4) 0.64904(17) 1.02939(15)
H3A H 0.56820 0.73100 1.00650
C8A C 0.4742(4) 0.56263(16) 0.98249(15)
C9A C 0.7050(4) 0.40533(17) 1.09763(15)
H4A H 0.74000 0.32330 1.12010
C10A C 0.8663(4) 0.84049(18) 1.12169(18)
H5A H 1.01200 0.88160 1.14030
H6A H 0.86110 0.85090 1.03950
C11A C 0.6207(4) 0.90296(19) 1.17726(19)
H7A H 0.47280 0.86920 1.14970
C12A C 0.6022(6) 0.8815(2) 1.3056(2)
H8A H 0.74920 0.91140 1.33400
H9A H 0.44660 0.92370 1.33800
H10A H 0.59920 0.79570 1.32650
C13A C 0.6086(6) 1.0386(2) 1.1421(3)
H11A H 0.62380 1.05060 1.06030
H12A H 0.44640 1.07690 1.17230
H13A H 0.74780 1.07410 1.17140
C14A C 1.0745(4) 0.32742(19) 1.26820(18)
H14A H 1.09620 0.27750 1.20340
H15A H 1.23800 0.32080 1.30180
C15A C 0.8710(5) 0.2753(2) 1.3559(2)
H16A H 0.71730 0.26630 1.31680
C16A C 0.7923(8) 0.3558(3) 1.4504(3)
H17A H 0.94030 0.36690 1.48970
H18A H 0.72210 0.43350 1.41980
H19A H 0.66360 0.31910 1.50280
C17A C 0.9711(8) 0.1495(3) 1.4015(3)
H20A H 0.83750 0.11340 1.45160
H21A H 1.02090 0.09930 1.33900
H22A H 1.11820 0.15620 1.44280
loop_
_geom_bond_atom_site_label_1
_geom_bond_atom_site_label_2
_geom_bond_distance
_geom_bond_site_symmetry_1
_geom_bond_site_symmetry_2
C1 C2 1.360 1_555 1_555
C2 H1 0.940 1_555 1_555
C3 C2 1.413 1_555 1_555
H2 C3 0.940 1_555 1_555
C4 C3 1.361 1_555 1_555
C5 C4 1.451 1_555 1_555
C6 C1 1.452 1_555 1_555
C7 C6 1.390 1_555 1_555
H3 C7 0.940 1_555 1_555
C8 C7 1.405 1_555 1_555
C9 C5 1.389 1_555 1_555
H4 C9 0.940 1_555 1_555
C10 C1 1.513 1_555 1_555
H5 C10 0.980 1_555 1_555
H6 C10 0.981 1_555 1_555
C11 C10 1.531 1_555 1_555
H7 C11 0.989 1_555 1_555
C12 C11 1.525 1_555 1_555
H8 C12 0.970 1_555 1_555
H9 C12 0.970 1_555 1_555
H10 C12 0.970 1_555 1_555
C13 C11 1.534 1_555 1_555
H11 C13 0.971 1_555 1_555
H12 C13 0.970 1_555 1_555
H13 C13 0.970 1_555 1_555
C14 C4 1.507 1_555 1_555
H14 C14 0.980 1_555 1_555
H15 C14 0.980 1_555 1_555
C15 C14 1.540 1_555 1_555
H16 C15 0.990 1_555 1_555
C16 C15 1.501 1_555 1_555
H17 C16 0.970 1_555 1_555
H18 C16 0.970 1_555 1_555
H19 C16 0.970 1_555 1_555
C17 C15 1.532 1_555 1_555
H20 C17 0.971 1_555 1_555
H21 C17 0.970 1_555 1_555
H22 C17 0.970 1_555 1_555
C1A C2A 1.360 1_555 1_555
C2A H1A 0.940 1_555 1_555
C3A C2A 1.413 1_555 1_555
H2A C3A 0.940 1_555 1_555
C4A C3A 1.361 1_555 1_555
C5A C4A 1.451 1_555 1_555
C6A C1A 1.452 1_555 1_555
C7A C6A 1.390 1_555 1_555
H3A C7A 0.940 1_555 1_555
C8A C8 1.436 1_555 1_555
C9A C8 1.413 1_555 1_555
H4A C9A 0.940 1_555 1_555
C10A C1A 1.513 1_555 1_555
H5A C10A 0.980 1_555 1_555
H6A C10A 0.981 1_555 1_555
C11A C10A 1.531 1_555 1_555
H7A C11A 0.989 1_555 1_555
C12A C11A 1.525 1_555 1_555
H8A C12A 0.970 1_555 1_555
H9A C12A 0.970 1_555 1_555
H10A C12A 0.970 1_555 1_555
C13A C11A 1.534 1_555 1_555
H11A C13A 0.971 1_555 1_555
H12A C13A 0.970 1_555 1_555
H13A C13A 0.970 1_555 1_555
C14A C4A 1.507 1_555 1_555
H14A C14A 0.980 1_555 1_555
H15A C14A 0.980 1_555 1_555
C15A C14A 1.540 1_555 1_555
H16A C15A 0.990 1_555 1_555
C16A C15A 1.501 1_555 1_555
H17A C16A 0.970 1_555 1_555
H18A C16A 0.970 1_555 1_555
H19A C16A 0.970 1_555 1_555
C17A C15A 1.532 1_555 1_555
H20A C17A 0.971 1_555 1_555
H21A C17A 0.970 1_555 1_555
H22A C17A 0.970 1_555 1_555
C5 C6 1.457 1_555 1_555
C9 C8A 1.413 1_555 1_555
C5A C6A 1.457 1_555 1_555
C5A C9A 1.389 1_555 1_555
C7A C8A 1.405 1_555 1_555
#END
