
#######################################################################
#
#                 Cambridge Crystallographic Data Centre
#                                CCDC
#
#######################################################################
#
# If this CIF has been generated from an entry in the Cambridge
# Structural Database, then it will include bibliographic, chemical,
# crystal, experimental, refinement or atomic coordinate data resulting
# from the CCDC's data processing and validation procedures.
#
#######################################################################

data_CSD_CIF_DUWPER
_audit_creation_date 2010-09-21
_audit_creation_method CSD-ConQuest-V1
_database_code_CSD DUWPER
_database_code_depnum_ccdc_archive 'CCDC 761527'
_chemical_formula_sum 'C24 H24'
_chemical_formula_moiety
;
C24 H24
;
_journal_coden_Cambridge 1291
_journal_year 2010
_journal_page_first 2571
_journal_name_full 'Eur.J.Org.Chem. '
loop_
_publ_author_name
"C.Kitamura"
"C.Matsumoto"
"A.Yoneda"
"T.Kobayashi"
"H.Naito"
"T.Komatsu"
_chemical_name_systematic
;
1,4-Dipropyltetracene
;
_chemical_melting_point 399
_cell_volume   1704.280
_exptl_crystal_colour 'yellow'
_exptl_crystal_density_diffrn 1.218
_exptl_crystal_description 'needle'
_diffrn_ambient_temperature 223.2
#These two values have been output from a single CSD field.
_refine_ls_R_factor_gt 0.0647
_refine_ls_wR_factor_gt 0.0647
_symmetry_cell_setting monoclinic
_symmetry_space_group_name_H-M 'P 21/n'
_symmetry_Int_Tables_number 14
loop_
_symmetry_equiv_pos_site_id
_symmetry_equiv_pos_as_xyz
1 x,y,z
2 1/2-x,1/2+y,1/2-z
3 -x,-y,-z
4 -1/2+x,-1/2-y,-1/2+z
_cell_length_a 17.69(1)
_cell_length_b 5.538(3)
_cell_length_c 17.87(1)
_cell_angle_alpha 90
_cell_angle_beta 103.220(3)
_cell_angle_gamma 90
_cell_formula_units_Z 4
loop_
_atom_type_symbol
_atom_type_radius_bond
C 0.68
H 0.23
loop_
_atom_site_label
_atom_site_type_symbol
_atom_site_fract_x
_atom_site_fract_y
_atom_site_fract_z
C1 C 0.5730(3) 0.4073(9) 0.2606(3)
C2 C 0.6371(3) 0.2921(10) 0.2491(4)
C3 C 0.6326(3) 0.0983(9) 0.1961(4)
C4 C 0.5639(3) 0.0144(9) 0.1550(3)
C5 C 0.4933(3) 0.1239(8) 0.1660(4)
C6 C 0.4203(3) 0.0434(9) 0.1274(3)
C7 C 0.3521(3) 0.1636(9) 0.1334(3)
C8 C 0.2777(3) 0.0831(8) 0.0929(3)
C9 C 0.2104(3) 0.2077(9) 0.0971(3)
C10 C 0.1349(3) 0.1277(8) 0.0561(3)
C11 C 0.0711(3) 0.2583(10) 0.0623(3)
C12 C 0.0771(3) 0.4659(10) 0.1070(3)
C13 C 0.1464(3) 0.5457(8) 0.1469(3)
C14 C 0.2161(3) 0.4191(8) 0.1435(3)
C15 C 0.2890(3) 0.4978(9) 0.1839(3)
C16 C 0.3565(3) 0.3724(8) 0.1817(3)
C17 C 0.4308(3) 0.4438(8) 0.2224(3)
C18 C 0.4988(3) 0.3270(9) 0.2175(3)
C19 C 0.5772(3) 0.6107(9) 0.3181(4)
C20 C 0.6571(3) 0.6917(9) 0.3619(3)
C21 C 0.6529(3) 0.9010(9) 0.4146(4)
C22 C 0.5591(3) -0.1938(8) 0.0990(3)
C23 C 0.6355(3) -0.291(1) 0.0846(4)
C24 C 0.6199(3) -0.4964(9) 0.0268(4)
H1 H 0.68570 0.34170 0.27680
H2 H 0.67830 0.02710 0.18960
H3 H 0.41660 -0.09370 0.09670
H4 H 0.27380 -0.05580 0.06300
H5 H 0.12960 -0.01070 0.02590
H6 H 0.02230 0.20690 0.03580
H7 H 0.03240 0.55090 0.10940
H8 H 0.14910 0.68400 0.17690
H9 H 0.29250 0.63810 0.21310
H10 H 0.43460 0.57760 0.25450
H11 H 0.54800 0.56180 0.35540
H12 H 0.55090 0.74960 0.29090
H13 H 0.68330 0.55750 0.39200
H14 H 0.68770 0.73840 0.32560
H15 H 0.70410 0.93990 0.44350
H16 H 0.62090 0.85790 0.44930
H17 H 0.63090 1.03840 0.38470
H18 H 0.52700 -0.14320 0.05010
H19 H 0.53250 -0.32620 0.11760
H20 H 0.66300 -0.16230 0.06520
H21 H 0.66810 -0.34830 0.13250
H22 H 0.59580 -0.62800 0.04750
H23 H 0.66800 -0.54990 0.01620
H24 H 0.58600 -0.44110 -0.02000
loop_
_geom_bond_atom_site_label_1
_geom_bond_atom_site_label_2
_geom_bond_distance
_geom_bond_site_symmetry_1
_geom_bond_site_symmetry_2
C1 C2 1.357 1_555 1_555
C2 C3 1.422 1_555 1_555
C3 C4 1.351 1_555 1_555
C4 C5 1.442 1_555 1_555
C5 C6 1.391 1_555 1_555
C6 C7 1.403 1_555 1_555
C7 C8 1.421 1_555 1_555
C8 C9 1.393 1_555 1_555
C9 C10 1.439 1_555 1_555
C10 C11 1.366 1_555 1_555
C11 C12 1.390 1_555 1_555
C12 C13 1.344 1_555 1_555
C13 C14 1.432 1_555 1_555
C14 C9 1.425 1_555 1_555
C15 C14 1.396 1_555 1_555
C16 C7 1.434 1_555 1_555
C17 C16 1.406 1_555 1_555
C18 C1 1.432 1_555 1_555
C19 C1 1.515 1_555 1_555
C20 C19 1.518 1_555 1_555
C21 C20 1.506 1_555 1_555
C22 C4 1.516 1_555 1_555
C23 C22 1.530 1_555 1_555
C24 C23 1.519 1_555 1_555
H1 C2 0.930 1_555 1_555
H2 C3 0.930 1_555 1_555
H3 C6 0.930 1_555 1_555
H4 C8 0.930 1_555 1_555
H5 C10 0.930 1_555 1_555
H6 C11 0.929 1_555 1_555
H7 C12 0.930 1_555 1_555
H8 C13 0.930 1_555 1_555
H9 C15 0.930 1_555 1_555
H10 C17 0.930 1_555 1_555
H11 C19 0.971 1_555 1_555
H12 C19 0.970 1_555 1_555
H13 C20 0.971 1_555 1_555
H14 C20 0.970 1_555 1_555
H15 C21 0.959 1_555 1_555
H16 C21 0.960 1_555 1_555
H17 C21 0.960 1_555 1_555
H18 C22 0.968 1_555 1_555
H19 C22 0.970 1_555 1_555
H20 C23 0.971 1_555 1_555
H21 C23 0.970 1_555 1_555
H22 C24 0.960 1_555 1_555
H23 C24 0.960 1_555 1_555
H24 C24 0.961 1_555 1_555
C5 C18 1.442 1_555 1_555
C15 C16 1.390 1_555 1_555
C17 C18 1.386 1_555 1_555
#END
