
#######################################################################
#
#                 Cambridge Crystallographic Data Centre
#                                CCDC
#
#######################################################################
#
# If this CIF has been generated from an entry in the Cambridge
# Structural Database, then it will include bibliographic, chemical,
# crystal, experimental, refinement or atomic coordinate data resulting
# from the CCDC's data processing and validation procedures.
#
#######################################################################

data_CSD_CIF_EAFMUT
_audit_creation_date 1994-09-09
_audit_creation_method CSD-ConQuest-V1
_database_code_CSD EAFMUT
_chemical_formula_sum 'C28 H22'
_chemical_formula_moiety
;
C28 H22
;
_journal_coden_Cambridge 35
_journal_volume 58
_journal_year 1993
_journal_page_first 7516
_journal_name_full 'J.Org.Chem. '
loop_
_publ_author_name
"H.O.House"
"J.T.Holt"
"D.VanDerveer"
_chemical_name_systematic
;
2,7-Dimethyl-1,8-diphenylanthracene
;
_chemical_melting_point 507.65
_cell_volume   1009.111
_exptl_crystal_colour 'pale yellow'
_exptl_special_details
;
Melting point range 507.65-508.85K

;
_diffrn_ambient_temperature ?
_diffrn_special_details
;
The study was carried out at room temperature,in the range 283-303K

;
_symmetry_cell_setting monoclinic
_symmetry_space_group_name_H-M 'P 21'
_symmetry_Int_Tables_number 4
loop_
_symmetry_equiv_pos_site_id
_symmetry_equiv_pos_as_xyz
1 x,y,z
2 -x,1/2+y,-z
_cell_length_a 10.438(11)
_cell_length_b 7.427(4)
_cell_length_c 13.416(9)
_cell_angle_alpha 90
_cell_angle_beta 104.01(7)
_cell_angle_gamma 90
_cell_formula_units_Z 2
loop_
_atom_type_symbol
_atom_type_radius_bond
C 0.68
H 0.23
loop_
_atom_site_label
_atom_site_type_symbol
_atom_site_fract_x
_atom_site_fract_y
_atom_site_fract_z
C1 C 0.2609(3) -0.0002(6) 0.6646(3)
C2 C 0.1352(4) 0.0707(7) 0.6368(3)
C3 C 0.1002(4) 0.2106(8) 0.6958(3)
C4 C 0.1859(4) 0.2835(6) 0.7786(3)
C5 C 0.6367(4) 0.3054(6) 1.0039(3)
C6 C 0.7622(4) 0.2427(7) 1.0279(3)
C7 C 0.8051(4) 0.0998(7) 0.9724(3)
C8 C 0.7151(4) 0.0210(7) 0.8920(3)
C9 C 0.4875(3) 0.01390 0.7790(3)
C10 C 0.4110(4) 0.2909(7) 0.8910(3)
C11 C 0.5802(3) 0.0861(6) 0.8625(3)
C12 C 0.5411(4) 0.2294(6) 0.9202(3)
C13 C 0.3562(3) 0.0755(6) 0.7507(3)
C14 C 0.3179(3) 0.2187(7) 0.8090(3)
C15 C 0.2993(3) -0.1559(6) 0.6063(3)
C16 C 0.3076(4) -0.3280(7) 0.6469(3)
C17 C 0.3378(5) -0.4726(7) 0.5927(4)
C18 C 0.3620(4) -0.4481(8) 0.4973(4)
C19 C 0.3545(4) -0.2770(9) 0.4560(3)
C20 C 0.3248(4) -0.1328(7) 0.5115(3)
C21 C 0.7539(3) -0.1369(6) 0.8355(3)
C22 C 0.8408(4) -0.1176(7) 0.7736(3)
C23 C 0.8764(4) -0.2675(9) 0.7237(3)
C24 C 0.8228(5) -0.4350(8) 0.7338(3)
C25 C 0.7373(4) -0.4536(7) 0.7946(3)
C26 C 0.7025(3) -0.3064(7) 0.8454(3)
C27 C 0.9471(4) 0.0384(7) 1.0058(3)
C28 C 0.0323(4) 0.0022(7) 0.5442(3)
H1 H 0.00500 0.25700 0.67700
H2 H 0.16100 0.37500 0.82400
H3 H 0.60100 0.40100 1.04600
H4 H 0.82500 0.29500 1.08200
H5 H 0.51100 -0.07800 0.73700
H6 H 0.37700 0.38700 0.93700
H7 H 0.29500 -0.35200 0.72100
H8 H 0.33700 -0.59400 0.62800
H9 H 0.39100 -0.54600 0.46200
H10 H 0.38000 -0.25100 0.38700
H11 H 0.32000 -0.02400 0.48400
H12 H 0.87700 -0.00800 0.77400
H13 H 0.93900 -0.24900 0.68700
H14 H 0.84700 -0.54500 0.69500
H15 H 0.70400 -0.57800 0.81300
H16 H 0.64000 -0.33100 0.88800
H17 H 0.98600 0.10800 1.07800
H18 H 0.99900 0.07600 0.94900
H19 H 0.94900 -0.10700 1.01700
H20 H 0.02200 0.09700 0.48100
H21 H -0.06300 -0.01100 0.56500
H22 H 0.06100 -0.11700 0.52500
loop_
_geom_bond_atom_site_label_1
_geom_bond_atom_site_label_2
_geom_bond_distance
_geom_bond_site_symmetry_1
_geom_bond_site_symmetry_2
C1 C2 1.379 1_555 1_555
C2 C3 1.407 1_555 1_555
C3 C4 1.359 1_555 1_555
C4 C14 1.423 1_555 1_555
C5 C6 1.354 1_555 1_555
C6 C7 1.429 1_555 1_555
C7 C8 1.378 1_555 1_555
C8 C11 1.450 1_555 1_555
C9 C11 1.398 1_555 1_555
C10 C12 1.396 1_555 1_555
C11 C12 1.432 1_555 1_555
C12 C5 1.426 1_555 1_555
C13 C1 1.443 1_555 1_555
C14 C10 1.387 1_555 1_555
C15 C1 1.504 1_555 1_555
C16 C15 1.384 1_555 1_555
C17 C16 1.376 1_555 1_555
C18 C17 1.375 1_555 1_555
C19 C18 1.381 1_555 1_555
C20 C15 1.372 1_555 1_555
C21 C8 1.504 1_555 1_555
C22 C21 1.378 1_555 1_555
C23 C22 1.395 1_555 1_555
C24 C23 1.384 1_555 1_555
C25 C24 1.354 1_555 1_555
C26 C21 1.387 1_555 1_555
C27 C7 1.511 1_555 1_555
C28 C2 1.520 1_555 1_555
H1 C3 1.024 1_555 1_555
H2 C4 0.988 1_555 1_555
H3 C5 1.031 1_555 1_555
H4 C6 0.936 1_555 1_555
H5 C9 0.954 1_555 1_555
H6 C10 1.059 1_555 1_555
H7 C16 1.049 1_555 1_555
H8 C17 1.019 1_555 1_555
H9 C18 0.956 1_555 1_555
H10 C19 1.041 1_555 1_555
H11 C20 0.885 1_555 1_555
H12 C22 0.897 1_555 1_555
H13 C23 0.919 1_555 1_555
H14 C24 1.032 1_555 1_555
H15 C25 1.038 1_555 1_555
H16 C26 0.983 1_555 1_555
H17 C27 1.086 1_555 1_555
H18 C27 1.073 1_555 1_555
H19 C27 1.090 1_555 1_555
H20 C28 1.087 1_555 1_555
H21 C28 1.101 1_555 1_555
H22 C28 0.989 1_555 1_555
C9 C13 1.407 1_555 1_555
C13 C14 1.433 1_555 1_555
C19 C20 1.382 1_555 1_555
C25 C26 1.383 1_555 1_555
#END
