
#######################################################################
#
#                 Cambridge Crystallographic Data Centre
#                                CCDC
#
#######################################################################
#
# If this CIF has been generated from an entry in the Cambridge
# Structural Database, then it will include bibliographic, chemical,
# crystal, experimental, refinement or atomic coordinate data resulting
# from the CCDC's data processing and validation procedures.
#
#######################################################################

data_CSD_CIF_EAFNAA
_audit_creation_date 1994-09-09
_audit_creation_method CSD-ConQuest-V1
_database_code_CSD EAFNAA
_chemical_formula_sum 'C30 H26'
_chemical_formula_moiety
;
C30 H26
;
_journal_coden_Cambridge 35
_journal_volume 58
_journal_year 1993
_journal_page_first 7516
_journal_name_full 'J.Org.Chem. '
loop_
_publ_author_name
"H.O.House"
"J.T.Holt"
"D.VanDerveer"
_chemical_name_systematic
;
cis-2,7-Dimethyl-1,8-di(o-tolyl)anthracene
;
_chemical_melting_point 502.65
_cell_volume   2288.380
_exptl_crystal_colour 'white'
_exptl_special_details
;
Melting point range 502.65-503.05K

;
_diffrn_ambient_temperature ?
_diffrn_special_details
;
The study was carried out at room temperature,in the range 283-303K

;
_symmetry_cell_setting orthorhombic
_symmetry_space_group_name_H-M 'P n a 21'
_symmetry_Int_Tables_number 33
loop_
_symmetry_equiv_pos_site_id
_symmetry_equiv_pos_as_xyz
1 x,y,z
2 1/2-x,1/2+y,1/2+z
3 1/2+x,1/2-y,z
4 -x,-y,1/2+z
_cell_length_a 14.332(3)
_cell_length_b 21.412(6)
_cell_length_c 7.457(1)
_cell_angle_alpha 90
_cell_angle_beta 90
_cell_angle_gamma 90
_cell_formula_units_Z 4
loop_
_atom_type_symbol
_atom_type_radius_bond
C 0.68
H 0.23
loop_
_atom_site_label
_atom_site_type_symbol
_atom_site_fract_x
_atom_site_fract_y
_atom_site_fract_z
C1 C 0.3418(5) 0.3623(4) 0.09500
C2 C 0.3880(5) 0.3107(4) 0.0290(17)
C3 C 0.4523(6) 0.3201(4) -0.1152(17)
C4 C 0.4723(6) 0.3754(4) -0.1851(15)
C5 C 0.4187(6) 0.6045(4) -0.1861(16)
C6 C 0.3743(6) 0.6527(4) -0.1161(18)
C7 C 0.3086(6) 0.6490(4) 0.0244(17)
C8 C 0.2896(5) 0.5901(4) 0.0955(14)
C9 C 0.3165(5) 0.4763(3) 0.0880(14)
C10 C 0.4445(5) 0.4893(4) -0.1863(15)
C11 C 0.3349(5) 0.5358(3) 0.0222(15)
C12 C 0.4010(5) 0.5427(4) -0.1197(15)
C13 C 0.3607(5) 0.4230(3) 0.0238(16)
C14 C 0.4268(5) 0.4308(3) -0.1190(15)
C15 C 0.2740(5) 0.3575(3) 0.2495(15)
C16 C 0.3035(6) 0.3738(4) 0.4182(14)
C17 C 0.2417(7) 0.3758(5) 0.5599(14)
C18 C 0.1498(7) 0.3623(4) 0.5309(17)
C19 C 0.1186(6) 0.3456(5) 0.3614(17)
C20 C 0.1812(5) 0.3432(4) 0.2181(16)
C21 C 0.2231(5) 0.5820(3) 0.2456(15)
C22 C 0.2563(6) 0.5843(4) 0.4235(16)
C23 C 0.1960(8) 0.5760(5) 0.5648(16)
C24 C 0.1046(6) 0.5650(4) 0.5322(17)
C25 C 0.0695(6) 0.5629(5) 0.3585(16)
C26 C 0.1302(5) 0.5708(4) 0.2158(15)
C27 C 0.3720(6) 0.2469(4) 0.1027(19)
C28 C 0.2628(8) 0.7065(5) 0.0944(17)
C29 C 0.1462(7) 0.3271(6) 0.0339(19)
C30 C 0.0928(6) 0.5666(6) 0.0294(19)
H1 H 0.48500 0.28500 -0.16800
H2 H 0.51900 0.38000 -0.28200
H3 H 0.46500 0.61000 -0.28300
H4 H 0.38900 0.69400 -0.16100
H5 H 0.27100 0.47200 0.18600
H6 H 0.49100 0.49400 -0.28400
H7 H 0.36900 0.38500 0.44100
H8 H 0.26100 0.38700 0.68300
H9 H 0.10600 0.36500 0.63100
H10 H 0.05300 0.33600 0.34900
H11 H 0.32200 0.59400 0.44400
H12 H 0.21800 0.57600 0.69100
H13 H 0.06200 0.56000 0.63600
H14 H 0.00300 0.55500 0.34200
H15 H 0.31400 0.23200 0.20400
H16 H 0.42700 0.23400 0.16500
H17 H 0.36000 0.21900 0.00500
H18 H 0.22400 0.74600 0.01700
H19 H 0.30900 0.73100 0.16400
H20 H 0.21500 0.69400 0.18400
H21 H 0.08100 0.31400 0.02500
H22 H 0.18400 0.29400 -0.01300
H23 H 0.15300 0.36400 -0.04100
H24 H 0.02500 0.55600 0.01700
H25 H 0.12800 0.53400 -0.03500
H26 H 0.10500 0.60500 -0.03300
loop_
_geom_bond_atom_site_label_1
_geom_bond_atom_site_label_2
_geom_bond_distance
_geom_bond_site_symmetry_1
_geom_bond_site_symmetry_2
C1 C2 1.379 1_555 1_555
C2 C3 1.430 1_555 1_555
C3 C4 1.325 1_555 1_555
C4 C14 1.441 1_555 1_555
C5 C6 1.320 1_555 1_555
C6 C7 1.411 1_555 1_555
C7 C8 1.395 1_555 1_555
C8 C11 1.439 1_555 1_555
C9 C11 1.390 1_555 1_555
C10 C12 1.394 1_555 1_555
C11 C12 1.428 1_555 1_555
C12 C5 1.435 1_555 1_555
C13 C1 1.430 1_555 1_555
C14 C10 1.373 1_555 1_555
C15 C1 1.511 1_555 1_555
C16 C15 1.372 1_555 1_555
C17 C16 1.379 1_555 1_555
C18 C17 1.366 1_555 1_555
C19 C18 1.388 1_555 1_555
C20 C15 1.385 1_555 1_555
C21 C8 1.480 1_555 1_555
C22 C21 1.410 1_555 1_555
C23 C22 1.374 1_555 1_555
C24 C23 1.353 1_555 1_555
C25 C24 1.390 1_555 1_555
C26 C21 1.371 1_555 1_555
C27 C2 1.490 1_555 1_555
C28 C7 1.490 1_555 1_555
C29 C20 1.502 1_555 1_555
C30 C26 1.492 1_555 1_555
H1 C3 0.969 1_555 1_555
H2 C4 0.990 1_555 1_555
H3 C5 0.988 1_555 1_555
H4 C6 0.969 1_555 1_555
H5 C9 0.984 1_555 1_555
H6 C10 0.992 1_555 1_555
H7 C16 0.984 1_555 1_555
H8 C17 0.988 1_555 1_555
H9 C18 0.977 1_555 1_555
H10 C19 0.967 1_555 1_555
H11 C22 0.976 1_555 1_555
H12 C23 0.992 1_555 1_555
H13 C24 0.992 1_555 1_555
H14 C25 0.976 1_555 1_555
H15 C27 1.168 1_555 1_555
H16 C27 0.956 1_555 1_555
H17 C27 0.958 1_555 1_555
H18 C28 1.165 1_555 1_555
H19 C28 0.991 1_555 1_555
H20 C28 0.994 1_555 1_555
H21 C29 0.978 1_555 1_555
H22 C29 0.958 1_555 1_555
H23 C29 0.972 1_555 1_555
H24 C30 1.002 1_555 1_555
H25 C30 0.986 1_555 1_555
H26 C30 0.961 1_555 1_555
C9 C13 1.390 1_555 1_555
C13 C14 1.435 1_555 1_555
C19 C20 1.396 1_555 1_555
C25 C26 1.385 1_555 1_555
#END
