
#######################################################################
#
#                 Cambridge Crystallographic Data Centre
#                                CCDC
#
#######################################################################
#
# If this CIF has been generated from an entry in the Cambridge
# Structural Database, then it will include bibliographic, chemical,
# crystal, experimental, refinement or atomic coordinate data resulting
# from the CCDC's data processing and validation procedures.
#
#######################################################################

data_CSD_CIF_EBADIW
_audit_creation_date 2011-11-29
_audit_creation_method CSD-ConQuest-V1
_database_code_CSD EBADIW
_database_code_depnum_ccdc_archive 'CCDC 823436'
_chemical_formula_sum 'C56 H42'
_chemical_formula_moiety
;
C56 H42
;
_journal_coden_Cambridge 1336
_journal_volume 13
_journal_year 2011
_journal_page_first 4794
_journal_name_full 'Org.Lett. '
loop_
_publ_author_name
"Tsun-Cheng Wu"
"Jheng-Jhih Chen"
"Yao-Ting Wu"
_chemical_name_systematic
;
5,5'-(1,2-Diphenylethane-1,2-diyl)bis(6-benzyl-1,2-dihydrocyclopenta[fg]acenap
hthylene)
;
_cell_volume   3845.309
_exptl_crystal_colour 'yellow'
_exptl_crystal_density_diffrn 1.235
_exptl_crystal_description 'tabular'
_diffrn_ambient_temperature 296
#These two values have been output from a single CSD field.
_refine_ls_R_factor_gt 0.0588
_refine_ls_wR_factor_gt 0.0588
_symmetry_cell_setting monoclinic
_symmetry_space_group_name_H-M 'P 21/c'
_symmetry_Int_Tables_number 14
loop_
_symmetry_equiv_pos_site_id
_symmetry_equiv_pos_as_xyz
1 x,y,z
2 -x,1/2+y,1/2-z
3 -x,-y,-z
4 x,-1/2-y,-1/2+z
_cell_length_a 10.4203(2)
_cell_length_b 38.0328(8)
_cell_length_c 10.0996(2)
_cell_angle_alpha 90
_cell_angle_beta 106.116(1)
_cell_angle_gamma 90
_cell_formula_units_Z 4
loop_
_atom_type_symbol
_atom_type_radius_bond
C 0.68
H 0.23
loop_
_atom_site_label
_atom_site_type_symbol
_atom_site_fract_x
_atom_site_fract_y
_atom_site_fract_z
C1 C 0.5053(3) 0.22541(7) 0.0272(3)
H1 H 0.48560 0.25010 0.00620
H2 H 0.51890 0.22230 0.12540
C2 C 0.3862(2) 0.20384(7) -0.0488(2)
C3 C 0.2843(3) 0.21577(7) -0.1731(3)
C4 C 0.2595(3) 0.24475(8) -0.2598(3)
H3 H 0.31710 0.26390 -0.24090
C5 C 0.1463(4) 0.24535(10) -0.3774(3)
H4 H 0.13190 0.26480 -0.43560
C6 C 0.0581(3) 0.21767(10) -0.4065(3)
C7 C -0.0712(4) 0.20803(12) -0.5157(4)
H5 H -0.05700 0.20790 -0.60670
H6 H -0.14090 0.22490 -0.51520
C8 C -0.1112(4) 0.17093(12) -0.4784(4)
H7 H -0.19850 0.17140 -0.46170
H8 H -0.11340 0.15440 -0.55220
C9 C -0.0033(3) 0.16075(9) -0.3477(3)
C10 C 0.0234(3) 0.13213(9) -0.2597(4)
H9 H -0.03490 0.11310 -0.27630
C11 C 0.1396(3) 0.13136(8) -0.1433(3)
H10 H 0.15600 0.11170 -0.08630
C12 C 0.2276(2) 0.15931(7) -0.1142(2)
C13 C 0.3549(2) 0.17055(7) -0.0152(2)
C14 C 0.4418(2) 0.14965(6) 0.1044(2)
H11 H 0.53340 0.15810 0.11890
C15 C 0.4436(2) 0.10962(6) 0.0746(2)
H12 H 0.35480 0.10050 0.07130
C16 C 0.5423(2) 0.09047(6) 0.1901(2)
C17 C 0.6906(3) 0.09351(7) 0.2269(2)
C18 C 0.7906(3) 0.10917(7) 0.1822(3)
H13 H 0.76780 0.12350 0.10450
C19 C 0.9288(3) 0.10393(8) 0.2528(3)
H14 H 0.99350 0.11490 0.21970
C20 C 0.9682(3) 0.08309(7) 0.3683(3)
C21 C 1.0979(3) 0.07147(10) 0.4690(4)
H15 H 1.14890 0.09170 0.51320
H16 H 1.15150 0.05820 0.42190
C22 C 1.0574(3) 0.04794(8) 0.5776(3)
H17 H 1.09640 0.02470 0.58080
H18 H 1.08700 0.05840 0.66860
C23 C 0.9068(3) 0.04593(7) 0.5296(3)
C24 C 0.8070(3) 0.02960(8) 0.5714(3)
H19 H 0.82920 0.01550 0.64970
C25 C 0.6693(3) 0.03392(7) 0.4965(3)
H20 H 0.60410 0.02200 0.52590
C26 C 0.6313(3) 0.05524(7) 0.3821(3)
C27 C 0.5092(3) 0.06777(6) 0.2809(2)
C28 C 0.1946(3) 0.18829(7) -0.2056(3)
C29 C 0.0853(3) 0.18890(8) -0.3167(3)
C30 C 0.7350(3) 0.07186(7) 0.3431(3)
C31 C 0.8659(3) 0.06698(7) 0.4117(3)
C32 C 0.6326(3) 0.21631(7) -0.0069(3)
C33 C 0.6404(3) 0.21623(9) -0.1416(3)
H21 H 0.56560 0.22240 -0.21240
C34 C 0.7560(4) 0.20723(11) -0.1726(4)
H22 H 0.75950 0.20780 -0.26360
C35 C 0.8667(4) 0.19737(10) -0.0701(4)
H23 H 0.94470 0.19100 -0.09170
C36 C 0.8621(3) 0.19698(9) 0.0639(4)
H24 H 0.93700 0.19030 0.13370
C37 C 0.7461(3) 0.20653(8) 0.0956(3)
H25 H 0.74410 0.20640 0.18710
C38 C 0.4043(3) 0.15682(7) 0.2376(2)
C39 C 0.5016(3) 0.16637(8) 0.3557(3)
H26 H 0.59000 0.16810 0.35330
C40 C 0.4706(4) 0.17338(9) 0.4761(3)
H27 H 0.53780 0.18000 0.55380
C41 C 0.3410(4) 0.17065(9) 0.4834(3)
H28 H 0.32070 0.17520 0.56570
C42 C 0.2423(3) 0.16112(9) 0.3683(3)
H29 H 0.15440 0.15910 0.37200
C43 C 0.2747(3) 0.15448(8) 0.2457(3)
H30 H 0.20720 0.14830 0.16740
C44 C 0.4668(3) 0.10176(7) -0.0652(2)
C45 C 0.5508(3) 0.12204(8) -0.1199(3)
H31 H 0.59570 0.14110 -0.07000
C46 C 0.5685(4) 0.11434(10) -0.2467(3)
H32 H 0.62590 0.12790 -0.28160
C47 C 0.5011(4) 0.08660(11) -0.3218(3)
H33 H 0.51190 0.08170 -0.40830
C48 C 0.4194(4) 0.06639(10) -0.2708(3)
H34 H 0.37400 0.04770 -0.32230
C49 C 0.4028(3) 0.07348(8) -0.1420(3)
H35 H 0.34800 0.05910 -0.10680
C50 C 0.3696(3) 0.05656(7) 0.2811(3)
H36 H 0.31680 0.07740 0.28400
H37 H 0.37510 0.04310 0.36400
C51 C 0.2988(3) 0.03469(7) 0.1566(3)
C52 C 0.1723(3) 0.04319(9) 0.0761(3)
H38 H 0.12700 0.06200 0.10110
C53 C 0.1114(4) 0.02390(12) -0.0427(4)
H39 H 0.02720 0.03030 -0.09710
C54 C 0.1758(5) -0.00459(12) -0.0793(4)
H40 H 0.13600 -0.01760 -0.15810
C55 C 0.2984(5) -0.01325(10) 0.0023(5)
H41 H 0.34170 -0.03280 -0.02030
C56 C 0.3608(4) 0.00608(9) 0.1179(4)
H42 H 0.44580 -0.00030 0.17040
loop_
_geom_bond_atom_site_label_1
_geom_bond_atom_site_label_2
_geom_bond_distance
_geom_bond_site_symmetry_1
_geom_bond_site_symmetry_2
C1 H1 0.972 1_555 1_555
H2 C1 0.969 1_555 1_555
C2 C1 1.508 1_555 1_555
C3 C2 1.473 1_555 1_555
C4 C3 1.387 1_555 1_555
H3 C4 0.929 1_555 1_555
C5 C4 1.423 1_555 1_555
H4 C5 0.931 1_555 1_555
C6 C5 1.375 1_555 1_555
C7 C6 1.530 1_555 1_555
H5 C7 0.971 1_555 1_555
H6 C7 0.970 1_555 1_555
C8 C7 1.547 1_555 1_555
H7 C8 0.970 1_555 1_555
H8 C8 0.970 1_555 1_555
C9 C8 1.527 1_555 1_555
C10 C9 1.384 1_555 1_555
H9 C10 0.930 1_555 1_555
C11 C10 1.435 1_555 1_555
H10 C11 0.930 1_555 1_555
C12 C11 1.381 1_555 1_555
C13 C2 1.373 1_555 1_555
C14 C13 1.518 1_555 1_555
H11 C14 0.979 1_555 1_555
C15 C14 1.553 1_555 1_555
H12 C15 0.980 1_555 1_555
C16 C15 1.511 1_555 1_555
C17 C16 1.490 1_555 1_555
C18 C17 1.380 1_555 1_555
H13 C18 0.930 1_555 1_555
C19 C18 1.432 1_555 1_555
H14 C19 0.930 1_555 1_555
C20 C19 1.375 1_555 1_555
C21 C20 1.514 1_555 1_555
H15 C21 0.971 1_555 1_555
H16 C21 0.970 1_555 1_555
C22 C21 1.562 1_555 1_555
H17 C22 0.970 1_555 1_555
H18 C22 0.970 1_555 1_555
C23 C22 1.510 1_555 1_555
C24 C23 1.374 1_555 1_555
H19 C24 0.930 1_555 1_555
C25 C24 1.434 1_555 1_555
H20 C25 0.931 1_555 1_555
C26 C25 1.377 1_555 1_555
C27 C16 1.371 1_555 1_555
C28 C3 1.380 1_555 1_555
C29 C6 1.399 1_555 1_555
C30 C17 1.403 1_555 1_555
C31 C20 1.401 1_555 1_555
C32 C1 1.501 1_555 1_555
C33 C32 1.385 1_555 1_555
H21 C33 0.930 1_555 1_555
C34 C33 1.370 1_555 1_555
H22 C34 0.930 1_555 1_555
C35 C34 1.371 1_555 1_555
H23 C35 0.930 1_555 1_555
C36 C35 1.368 1_555 1_555
H24 C36 0.930 1_555 1_555
C37 C32 1.389 1_555 1_555
H25 C37 0.930 1_555 1_555
C38 C14 1.526 1_555 1_555
C39 C38 1.382 1_555 1_555
H26 C39 0.931 1_555 1_555
C40 C39 1.368 1_555 1_555
H27 C40 0.930 1_555 1_555
C41 C40 1.377 1_555 1_555
H28 C41 0.929 1_555 1_555
C42 C41 1.370 1_555 1_555
H29 C42 0.930 1_555 1_555
C43 C38 1.378 1_555 1_555
H30 C43 0.931 1_555 1_555
C44 C15 1.527 1_555 1_555
C45 C44 1.391 1_555 1_555
H31 C45 0.931 1_555 1_555
C46 C45 1.375 1_555 1_555
H32 C46 0.930 1_555 1_555
C47 C46 1.373 1_555 1_555
H33 C47 0.930 1_555 1_555
C48 C47 1.351 1_555 1_555
H34 C48 0.929 1_555 1_555
C49 C44 1.384 1_555 1_555
H35 C49 0.930 1_555 1_555
C50 C27 1.516 1_555 1_555
H36 C50 0.970 1_555 1_555
H37 C50 0.969 1_555 1_555
C51 C50 1.517 1_555 1_555
C52 C51 1.381 1_555 1_555
H38 C52 0.930 1_555 1_555
C53 C52 1.399 1_555 1_555
H39 C53 0.929 1_555 1_555
C54 C53 1.378 1_555 1_555
H40 C54 0.931 1_555 1_555
C55 C54 1.355 1_555 1_555
H41 C55 0.930 1_555 1_555
C56 C51 1.376 1_555 1_555
H42 C56 0.929 1_555 1_555
C9 C29 1.391 1_555 1_555
C12 C13 1.485 1_555 1_555
C12 C28 1.417 1_555 1_555
C23 C31 1.400 1_555 1_555
C26 C27 1.473 1_555 1_555
C26 C30 1.400 1_555 1_555
C28 C29 1.359 1_555 1_555
C30 C31 1.360 1_555 1_555
C36 C37 1.382 1_555 1_555
C42 C43 1.394 1_555 1_555
C48 C49 1.386 1_555 1_555
C55 C56 1.380 1_555 1_555
#END
