
#######################################################################
#
#                 Cambridge Crystallographic Data Centre
#                                CCDC
#
#######################################################################
#
# If this CIF has been generated from an entry in the Cambridge
# Structural Database, then it will include bibliographic, chemical,
# crystal, experimental, refinement or atomic coordinate data resulting
# from the CCDC's data processing and validation procedures.
#
#######################################################################

data_CSD_CIF_ECIGOO
_audit_creation_date 2013-03-18
_audit_creation_method CSD-ConQuest-V1
_database_code_CSD ECIGOO
_database_code_depnum_ccdc_archive 'CCDC 892575'
_chemical_formula_sum 'C28 H24'
_chemical_formula_moiety
;
C28 H24
;
_journal_coden_Cambridge 182
_journal_volume 48
_journal_year 2012
_journal_page_first 12189
_journal_name_full 'Chem.Commun. '
loop_
_publ_author_name
"Ming Chen"
"Yifeng Chen"
"Yuanhong Liu"
_chemical_name_systematic
;
5-Isobutyl-12-phenyltetracene
;
_chemical_melting_point 413.15
_cell_volume   1975.356
_exptl_crystal_colour 'yellow'
_exptl_crystal_density_diffrn 1.212
_exptl_special_details
;
Melting point range 413.15-414.15K

;
_exptl_crystal_description 'block'
_diffrn_ambient_temperature 133
#These two values have been output from a single CSD field.
_refine_ls_R_factor_gt 0.0437
_refine_ls_wR_factor_gt 0.0437
_symmetry_cell_setting monoclinic
_symmetry_space_group_name_H-M 'P 21/c'
_symmetry_Int_Tables_number 14
loop_
_symmetry_equiv_pos_site_id
_symmetry_equiv_pos_as_xyz
1 x,y,z
2 -x,1/2+y,1/2-z
3 -x,-y,-z
4 x,-1/2-y,-1/2+z
_cell_length_a 19.0506(16)
_cell_length_b 9.9398(8)
_cell_length_c 10.6781(9)
_cell_angle_alpha 90
_cell_angle_beta 102.330(1)
_cell_angle_gamma 90
_cell_formula_units_Z 4
loop_
_atom_type_symbol
_atom_type_radius_bond
C 0.68
H 0.23
loop_
_atom_site_label
_atom_site_type_symbol
_atom_site_fract_x
_atom_site_fract_y
_atom_site_fract_z
C1 C 0.21121(5) 0.65694(10) 0.73034(10)
C2 C 0.19778(5) 0.54876(9) 0.64047(9)
C3 C 0.13369(5) 0.53968(10) 0.5455(1)
H1 H 0.09840 0.60790 0.54170
C4 C 0.12032(5) 0.43482(11) 0.45731(10)
C5 C 0.05397(6) 0.42344(12) 0.36467(11)
H2 H 0.01720 0.48840 0.36330
C6 C 0.04308(6) 0.32052(13) 0.27866(11)
H3 H -0.00150 0.31400 0.21860
C7 C 0.09730(6) 0.22265(12) 0.27725(11)
H4 H 0.08920 0.15280 0.21510
C8 C 0.16089(6) 0.22845(11) 0.36458(10)
H5 H 0.19670 0.16230 0.36300
C9 C 0.17426(5) 0.33336(10) 0.45872(9)
C10 C 0.23763(5) 0.34004(10) 0.55176(9)
H6 H 0.27320 0.27280 0.55310
C11 C 0.25073(5) 0.44368(9) 0.64424(9)
C12 C 0.31429(5) 0.44469(9) 0.74202(9)
C13 C 0.32510(5) 0.54618(9) 0.83494(9)
C14 C 0.38686(6) 0.54490(11) 0.93943(10)
H7 H 0.41990 0.47230 0.94670
C15 C 0.39897(6) 0.64529(11) 1.02799(11)
H8 H 0.43980 0.64160 1.09680
C16 C 0.35054(6) 0.75596(11) 1.01780(11)
H9 H 0.35990 0.82670 1.07890
C17 C 0.29104(6) 0.76127(10) 0.92125(10)
H10 H 0.25980 0.83650 0.91590
C18 C 0.27409(5) 0.65593(10) 0.82681(9)
C19 C 0.15725(6) 0.77063(11) 0.71417(10)
H11 H 0.16500 0.82380 0.79440
H12 H 0.10820 0.73240 0.69920
C20 C 0.16288(6) 0.86493(11) 0.60148(11)
H13 H 0.17360 0.80800 0.53060
C21 C 0.09149(8) 0.93637(14) 0.55077(14)
H14 H 0.07980 0.99360 0.61830
H15 H 0.05340 0.86940 0.52470
H16 H 0.09540 0.99200 0.47680
C22 C 0.22441(8) 0.96506(12) 0.64028(13)
H17 H 0.23110 1.01500 0.56450
H18 H 0.26870 0.91640 0.67760
H19 H 0.21300 1.02810 0.70370
C23 C 0.36981(5) 0.33867(10) 0.74026(9)
C24 C 0.37359(7) 0.22206(12) 0.81301(11)
H20 H 0.34080 0.20880 0.86760
C25 C 0.42515(7) 0.12436(13) 0.80642(12)
H21 H 0.42720 0.04470 0.85630
C26 C 0.47334(6) 0.14281(12) 0.72760(11)
H22 H 0.50870 0.07630 0.72390
C27 C 0.46998(6) 0.25809(12) 0.65432(11)
H23 H 0.50300 0.27110 0.60010
C28 C 0.41826(6) 0.35493(11) 0.66022(11)
H24 H 0.41580 0.43360 0.60890
loop_
_geom_bond_atom_site_label_1
_geom_bond_atom_site_label_2
_geom_bond_distance
_geom_bond_site_symmetry_1
_geom_bond_site_symmetry_2
C1 C2 1.427 1_555 1_555
C2 C3 1.414 1_555 1_555
C3 H1 0.950 1_555 1_555
C4 C3 1.391 1_555 1_555
C5 C4 1.434 1_555 1_555
H2 C5 0.950 1_555 1_555
C6 C5 1.361 1_555 1_555
H3 C6 0.951 1_555 1_555
C7 C6 1.421 1_555 1_555
H4 C7 0.950 1_555 1_555
C8 C7 1.363 1_555 1_555
H5 C8 0.950 1_555 1_555
C9 C4 1.438 1_555 1_555
C10 C9 1.392 1_555 1_555
H6 C10 0.950 1_555 1_555
C11 C2 1.447 1_555 1_555
C12 C11 1.420 1_555 1_555
C13 C12 1.399 1_555 1_555
C14 C13 1.438 1_555 1_555
H7 C14 0.950 1_555 1_555
C15 C14 1.360 1_555 1_555
H8 C15 0.950 1_555 1_555
C16 C15 1.425 1_555 1_555
H9 C16 0.950 1_555 1_555
C17 C16 1.361 1_555 1_555
H10 C17 0.950 1_555 1_555
C18 C1 1.403 1_555 1_555
C19 C1 1.513 1_555 1_555
H11 C19 0.990 1_555 1_555
H12 C19 0.990 1_555 1_555
C20 C19 1.547 1_555 1_555
H13 C20 1.000 1_555 1_555
C21 C20 1.527 1_555 1_555
H14 C21 0.981 1_555 1_555
H15 C21 0.980 1_555 1_555
H16 C21 0.980 1_555 1_555
C22 C20 1.526 1_555 1_555
H17 C22 0.981 1_555 1_555
H18 C22 0.980 1_555 1_555
H19 C22 0.980 1_555 1_555
C23 C12 1.496 1_555 1_555
C24 C23 1.389 1_555 1_555
H20 C24 0.950 1_555 1_555
C25 C24 1.394 1_555 1_555
H21 C25 0.950 1_555 1_555
C26 C25 1.384 1_555 1_555
H22 C26 0.951 1_555 1_555
C27 C26 1.381 1_555 1_555
H23 C27 0.950 1_555 1_555
C28 C23 1.395 1_555 1_555
H24 C28 0.950 1_555 1_555
C8 C9 1.433 1_555 1_555
C10 C11 1.412 1_555 1_555
C13 C18 1.451 1_555 1_555
C17 C18 1.442 1_555 1_555
C27 C28 1.388 1_555 1_555
#END
