
#######################################################################
#
#                 Cambridge Crystallographic Data Centre
#                                CCDC
#
#######################################################################
#
# If this CIF has been generated from an entry in the Cambridge
# Structural Database, then it will include bibliographic, chemical,
# crystal, experimental, refinement or atomic coordinate data resulting
# from the CCDC's data processing and validation procedures.
#
#######################################################################

data_CSD_CIF_EGAJEB
_audit_creation_date 2002-08-15
_audit_creation_method CSD-ConQuest-V1
_database_code_CSD EGAJEB
_database_code_depnum_ccdc_archive 'CCDC 187533'
_chemical_formula_sum 'C30 H24'
_chemical_formula_moiety
;
C30 H24
;
_journal_coden_Cambridge 4
_journal_volume 124
_journal_year 2002
_journal_page_first 5037
_journal_name_full 'J.Am.Chem.Soc. '
loop_
_publ_author_name
"N.Koumura"
"E.M.Geertsema"
"M.B.van Gelder"
"A.Meetsma"
"B.L.Feringa"
_chemical_name_systematic
;
(3'S*)-(M*)-5-(2',3'-Dihydro-3'-methyl-1'H-phenanthren-4'-ylidene)-5H-dibenzo(
a,d)cycloheptene
;
_chemical_melting_point 465.35
_cell_volume   2169.717
_exptl_crystal_colour 'colorless'
_exptl_crystal_density_diffrn 1.177
_exptl_special_details
;
Melting point range 465.35-465.75K

;
_exptl_crystal_description 'platelet'
_exptl_crystal_preparation 'diethyl ether'
_diffrn_ambient_temperature 293
#These two values have been output from a single CSD field.
_refine_ls_R_factor_gt 0.0452
_refine_ls_wR_factor_gt 0.0452
_symmetry_cell_setting monoclinic
_symmetry_space_group_name_H-M 'P 21/c'
_symmetry_Int_Tables_number 14
loop_
_symmetry_equiv_pos_site_id
_symmetry_equiv_pos_as_xyz
1 x,y,z
2 x,1/2-y,1/2+z
3 -x,-y,-z
4 -x,-1/2+y,-1/2-z
_cell_length_a 10.0860(7)
_cell_length_b 12.8725(9)
_cell_length_c 16.812(1)
_cell_angle_alpha 90
_cell_angle_beta 96.261(1)
_cell_angle_gamma 90
_cell_formula_units_Z 4
loop_
_atom_type_symbol
_atom_type_radius_bond
C 0.68
H 0.23
loop_
_atom_site_label
_atom_site_type_symbol
_atom_site_fract_x
_atom_site_fract_y
_atom_site_fract_z
C1 C 0.4830(2) 0.29330(15) 0.28972(11)
C2 C 0.51277(14) 0.20998(11) 0.35337(8)
C3 C 0.5229(2) 0.10148(14) 0.31466(12)
C4 C 0.42317(18) 0.02254(13) 0.34021(12)
C5 C 0.28599(15) 0.06979(10) 0.33699(8)
C6 C 0.16926(19) 0.02099(13) 0.30018(9)
C7 C 0.04839(18) 0.06837(14) 0.29800(9)
C8 C 0.03509(14) 0.16776(12) 0.33168(8)
C9 C -0.08962(16) 0.21971(18) 0.32936(11)
C10 C -0.09996(19) 0.31575(19) 0.36132(12)
C11 C 0.01477(18) 0.36633(15) 0.39653(11)
C12 C 0.13671(15) 0.31971(11) 0.40039(9)
C13 C 0.15138(12) 0.21841(10) 0.36930(7)
C14 C 0.27677(12) 0.16571(10) 0.37286(7)
C15 C 0.40592(12) 0.20746(9) 0.41125(7)
C16 C 0.42863(12) 0.22929(9) 0.49001(7)
C17 C 0.32490(12) 0.21196(9) 0.54585(7)
C18 C 0.27042(13) 0.11349(11) 0.55258(8)
C19 C 0.17356(15) 0.09435(14) 0.60307(9)
C20 C 0.12951(15) 0.17404(15) 0.64812(10)
C21 C 0.18109(15) 0.27161(15) 0.64199(9)
C22 C 0.28102(13) 0.29317(10) 0.59206(7)
C23 C 0.33393(17) 0.39882(12) 0.58975(9)
C24 C 0.45799(18) 0.42785(12) 0.57890(9)
C25 C 0.57272(14) 0.36058(11) 0.56927(8)
C26 C 0.7013(2) 0.39284(17) 0.60142(10)
C27 C 0.8103(2) 0.3308(2) 0.59805(12)
C28 C 0.79755(17) 0.23429(18) 0.56284(11)
C29 C 0.67366(15) 0.20134(14) 0.52961(9)
C30 C 0.56042(13) 0.26422(10) 0.53010(7)
H1 H 0.5490(17) 0.2883(12) 0.2495(11)
H2 H 0.392(2) 0.2840(17) 0.2588(14)
H3 H 0.476(2) 0.3635(19) 0.3100(14)
H4 H 0.6015(14) 0.2278(11) 0.3842(8)
H5 H 0.620(2) 0.0769(15) 0.3249(13)
H6 H 0.5107(18) 0.1131(15) 0.2594(14)
H7 H 0.4215(17) -0.0414(15) 0.3073(11)
H8 H 0.4530(16) -0.0011(13) 0.4006(12)
H9 H 0.1811(15) -0.0474(14) 0.2779(10)
H10 H -0.0326(16) 0.0338(13) 0.272(1)
H11 H -0.1664(18) 0.1848(14) 0.3052(11)
H12 H -0.189(2) 0.3487(16) 0.3631(12)
H13 H 0.0089(17) 0.4364(14) 0.4193(11)
H14 H 0.2190(14) 0.3552(11) 0.4227(8)
H15 H 0.3042(13) 0.0580(11) 0.5195(9)
H16 H 0.1348(14) 0.0249(13) 0.6068(9)
H17 H 0.0595(17) 0.1616(13) 0.6831(11)
H18 H 0.1517(15) 0.3309(13) 0.6722(10)
H19 H 0.2724(17) 0.4544(13) 0.6015(10)
H20 H 0.4799(16) 0.5006(14) 0.5832(10)
H21 H 0.7027(18) 0.4595(16) 0.6258(12)
H22 H 0.897(2) 0.3522(15) 0.6185(13)
H23 H 0.880(2) 0.1920(15) 0.5591(12)
H24 H 0.6617(15) 0.1315(13) 0.5027(10)
loop_
_geom_bond_atom_site_label_1
_geom_bond_atom_site_label_2
_geom_bond_distance
_geom_bond_site_symmetry_1
_geom_bond_site_symmetry_2
C1 C2 1.522 1_555 1_555
C2 C3 1.549 1_555 1_555
C3 C4 1.524 1_555 1_555
C4 C5 1.507 1_555 1_555
C5 C6 1.416 1_555 1_555
C6 C7 1.360 1_555 1_555
C7 C8 1.411 1_555 1_555
C8 C9 1.421 1_555 1_555
C9 C10 1.357 1_555 1_555
C10 C11 1.401 1_555 1_555
C11 C12 1.364 1_555 1_555
C12 C13 1.419 1_555 1_555
C13 C8 1.428 1_555 1_555
C14 C5 1.382 1_555 1_555
C15 C2 1.529 1_555 1_555
C16 C15 1.349 1_555 1_555
C17 C16 1.497 1_555 1_555
C18 C17 1.391 1_555 1_555
C19 C18 1.384 1_555 1_555
C20 C19 1.377 1_555 1_555
C21 C20 1.368 1_555 1_555
C22 C17 1.403 1_555 1_555
C23 C22 1.463 1_555 1_555
C24 C23 1.337 1_555 1_555
C25 C24 1.468 1_555 1_555
C26 C25 1.412 1_555 1_555
C27 C26 1.365 1_555 1_555
C28 C27 1.376 1_555 1_555
C29 C28 1.379 1_555 1_555
C30 C16 1.493 1_555 1_555
H1 C1 1.001 1_555 1_555
H2 C1 1.011 1_555 1_555
H3 C1 0.971 1_555 1_555
H4 C2 1.010 1_555 1_555
H5 C3 1.026 1_555 1_555
H6 C3 0.936 1_555 1_555
H7 C4 0.991 1_555 1_555
H8 C4 1.071 1_555 1_555
H9 C6 0.969 1_555 1_555
H10 C7 0.989 1_555 1_555
H11 C9 0.948 1_555 1_555
H12 C10 0.997 1_555 1_555
H13 C11 0.984 1_555 1_555
H14 C12 0.985 1_555 1_555
H15 C18 0.988 1_555 1_555
H16 C19 0.980 1_555 1_555
H17 C20 0.980 1_555 1_555
H18 C21 0.980 1_555 1_555
H19 C23 0.981 1_555 1_555
H20 C24 0.963 1_555 1_555
H21 C26 0.950 1_555 1_555
H22 C27 0.945 1_555 1_555
H23 C28 1.002 1_555 1_555
H24 C29 1.008 1_555 1_555
C13 C14 1.431 1_555 1_555
C14 C15 1.490 1_555 1_555
C21 C22 1.408 1_555 1_555
C25 C30 1.403 1_555 1_555
C29 C30 1.401 1_555 1_555
#END
