
#######################################################################
#
#                 Cambridge Crystallographic Data Centre
#                                CCDC
#
#######################################################################
#
# If this CIF has been generated from an entry in the Cambridge
# Structural Database, then it will include bibliographic, chemical,
# crystal, experimental, refinement or atomic coordinate data resulting
# from the CCDC's data processing and validation procedures.
#
#######################################################################

data_CSD_CIF_EGAJAX
_audit_creation_date 2002-08-15
_audit_creation_method CSD-ConQuest-V1
_database_code_CSD EGAJAX
_database_code_depnum_ccdc_archive 'CCDC 187532'
_chemical_formula_sum 'C31 H28'
_chemical_formula_moiety
;
C31 H28
;
_journal_coden_Cambridge 4
_journal_volume 124
_journal_year 2002
_journal_page_first 5037
_journal_name_full 'J.Am.Chem.Soc. '
loop_
_publ_author_name
"N.Koumura"
"E.M.Geertsema"
"M.B.van Gelder"
"A.Meetsma"
"B.L.Feringa"
_chemical_name_systematic
;
(3'S*)-(M*)-10,10-Dimethyl-9-(2',3'-dihydro-3'-methyl-1'H-phenanthren-4'-ylide
ne)-10H-anthracene
;
_chemical_melting_point 462.15
_cell_volume   1118.138
_exptl_crystal_colour 'colorless'
_exptl_crystal_density_diffrn 1.19
_exptl_special_details
;
Melting point range 462.15-462.45K

;
_exptl_crystal_description 'parallelepiped'
_exptl_crystal_preparation 'n-hexane'
_diffrn_ambient_temperature 293
#These two values have been output from a single CSD field.
_refine_ls_R_factor_gt 0.0391
_refine_ls_wR_factor_gt 0.0391
_symmetry_cell_setting triclinic
_symmetry_space_group_name_H-M 'P -1'
_symmetry_Int_Tables_number 2
loop_
_symmetry_equiv_pos_site_id
_symmetry_equiv_pos_as_xyz
1 x,y,z
2 -x,-y,-z
_cell_length_a 10.034(2)
_cell_length_b 10.307(2)
_cell_length_c 11.566(2)
_cell_angle_alpha 100.089(3)
_cell_angle_beta 102.135(3)
_cell_angle_gamma 101.110(4)
_cell_formula_units_Z 2
loop_
_atom_type_symbol
_atom_type_radius_bond
C 0.68
H 0.23
loop_
_atom_site_label
_atom_site_type_symbol
_atom_site_fract_x
_atom_site_fract_y
_atom_site_fract_z
C1 C 0.69128(12) 0.03256(11) 0.25379(10)
C2 C 0.64048(15) -0.10625(12) 0.20635(12)
C3 C 0.72496(17) -0.19522(15) 0.22563(14)
C4 C 0.86155(18) -0.14617(16) 0.29031(14)
C5 C 0.91507(16) -0.00858(15) 0.33517(13)
C6 C 0.83234(12) 0.08312(12) 0.31735(10)
C7 C 0.88611(12) 0.23612(12) 0.36359(11)
C8 C 0.82473(12) 0.30353(11) 0.26358(10)
C9 C 0.90134(16) 0.41779(13) 0.23822(13)
C10 C 0.84261(18) 0.47600(15) 0.14778(14)
C11 C 0.70781(18) 0.42109(14) 0.07956(13)
C12 C 0.62893(15) 0.30832(12) 0.10374(11)
C13 C 0.68547(12) 0.25026(10) 0.19697(10)
C14 C 0.60423(12) 0.13067(10) 0.22829(9)
C15 C 0.47040(12) 0.11513(11) 0.23556(10)
C16 C 0.37315(12) 0.19835(12) 0.19166(11)
C17 C 0.38681(13) 0.33932(12) 0.23763(11)
C18 C 0.50182(16) 0.42141(13) 0.33056(12)
C19 C 0.5117(2) 0.55662(15) 0.36968(15)
C20 C 0.4054(3) 0.61544(19) 0.31842(19)
C21 C 0.2931(2) 0.53932(18) 0.23029(18)
C22 C 0.28026(16) 0.39985(14) 0.18634(13)
C23 C 0.16511(17) 0.31953(19) 0.09240(15)
C24 C 0.15444(16) 0.18582(18) 0.05033(15)
C25 C 0.25765(13) 0.12333(13) 0.10063(12)
C26 C 0.24829(17) -0.02511(15) 0.06129(15)
C27 C 0.26565(17) -0.08813(16) 0.17202(16)
C28 C 0.39072(13) -0.00170(12) 0.27769(12)
C29 C 0.83203(18) 0.27935(16) 0.47645(13)
C30 C 1.04679(16) 0.2786(2) 0.40091(19)
C31 C 0.3445(2) 0.05428(18) 0.39017(16)
H1 H 0.5418(12) -0.1390(11) 0.1552(10)
H2 H 0.6876(13) -0.2908(14) 0.1913(11)
H3 H 0.9235(14) -0.2071(13) 0.3049(11)
H4 H 1.0133(14) 0.0280(12) 0.3808(12)
H5 H 1.0001(14) 0.4564(12) 0.2857(11)
H6 H 0.9015(14) 0.5569(13) 0.1298(11)
H7 H 0.6638(12) 0.4584(12) 0.0151(12)
H8 H 0.5309(12) 0.2672(11) 0.0556(10)
H9 H 0.5760(11) 0.3798(11) 0.3691(10)
H10 H 0.5942(14) 0.6091(14) 0.4366(13)
H11 H 0.4153(14) 0.7109(16) 0.3466(13)
H12 H 0.2164(15) 0.5780(14) 0.1919(13)
H13 H 0.0940(14) 0.3591(13) 0.0596(12)
H14 H 0.0726(14) 0.1273(13) -0.0174(12)
H15 H 0.1559(15) -0.0716(13) -0.0003(13)
H16 H 0.3284(14) -0.0331(12) 0.0203(11)
H17 H 0.1810(16) -0.0972(14) 0.2025(13)
H18 H 0.2784(14) -0.1837(16) 0.1471(13)
H19 H 0.4560(11) -0.0593(11) 0.3039(9)
H20 H 0.8739(14) 0.2368(14) 0.5427(13)
H21 H 0.8596(14) 0.3785(15) 0.5060(12)
H22 H 0.7238(14) 0.2497(12) 0.4562(11)
H23 H 1.0825(14) 0.2301(14) 0.4656(14)
H24 H 1.0804(14) 0.3784(15) 0.4327(12)
H25 H 1.0872(15) 0.2536(14) 0.3298(15)
H26 H 0.2782(15) 0.1184(14) 0.3737(12)
H27 H 0.2948(14) -0.0219(15) 0.4184(13)
H28 H 0.4317(19) 0.1098(16) 0.4570(15)
loop_
_geom_bond_atom_site_label_1
_geom_bond_atom_site_label_2
_geom_bond_distance
_geom_bond_site_symmetry_1
_geom_bond_site_symmetry_2
C1 C2 1.391 1_555 1_555
C2 C3 1.379 1_555 1_555
C3 C4 1.365 1_555 1_555
C4 C5 1.379 1_555 1_555
C5 C6 1.387 1_555 1_555
C6 C1 1.400 1_555 1_555
C7 C6 1.523 1_555 1_555
C8 C7 1.532 1_555 1_555
C9 C8 1.390 1_555 1_555
C10 C9 1.378 1_555 1_555
C11 C10 1.368 1_555 1_555
C12 C11 1.381 1_555 1_555
C13 C8 1.397 1_555 1_555
C14 C1 1.486 1_555 1_555
C15 C14 1.344 1_555 1_555
C16 C15 1.487 1_555 1_555
C17 C16 1.426 1_555 1_555
C18 C17 1.409 1_555 1_555
C19 C18 1.365 1_555 1_555
C20 C19 1.402 1_555 1_555
C21 C20 1.349 1_555 1_555
C22 C17 1.416 1_555 1_555
C23 C22 1.410 1_555 1_555
C24 C23 1.354 1_555 1_555
C25 C16 1.381 1_555 1_555
C26 C25 1.496 1_555 1_555
C27 C26 1.528 1_555 1_555
C28 C15 1.525 1_555 1_555
C29 C7 1.544 1_555 1_555
C30 C7 1.532 1_555 1_555
C31 C28 1.528 1_555 1_555
H1 C2 1.000 1_555 1_555
H2 C3 0.963 1_555 1_555
H3 C4 0.976 1_555 1_555
H4 C5 0.980 1_555 1_555
H5 C9 0.992 1_555 1_555
H6 C10 1.005 1_555 1_555
H7 C11 0.962 1_555 1_555
H8 C12 0.992 1_555 1_555
H9 C18 0.994 1_555 1_555
H10 C19 0.994 1_555 1_555
H11 C20 0.959 1_555 1_555
H12 C21 0.992 1_555 1_555
H13 C23 0.934 1_555 1_555
H14 C24 1.012 1_555 1_555
H15 C26 1.014 1_555 1_555
H16 C26 1.025 1_555 1_555
H17 C27 0.980 1_555 1_555
H18 C27 1.017 1_555 1_555
H19 C28 1.001 1_555 1_555
H20 C29 1.005 1_555 1_555
H21 C29 0.983 1_555 1_555
H22 C29 1.033 1_555 1_555
H23 C30 1.013 1_555 1_555
H24 C30 0.994 1_555 1_555
H25 C30 1.007 1_555 1_555
H26 C31 1.037 1_555 1_555
H27 C31 0.990 1_555 1_555
H28 C31 1.029 1_555 1_555
C12 C13 1.394 1_555 1_555
C13 C14 1.486 1_555 1_555
C21 C22 1.409 1_555 1_555
C24 C25 1.400 1_555 1_555
C27 C28 1.551 1_555 1_555
#END
