
#######################################################################
#
#                 Cambridge Crystallographic Data Centre
#                                CCDC
#
#######################################################################
#
# If this CIF has been generated from an entry in the Cambridge
# Structural Database, then it will include bibliographic, chemical,
# crystal, experimental, refinement or atomic coordinate data resulting
# from the CCDC's data processing and validation procedures.
#
#######################################################################

data_CSD_CIF_EHUCIU
_audit_creation_date 2011-02-15
_audit_creation_method CSD-ConQuest-V1
_database_code_CSD EHUCIU
_database_code_depnum_ccdc_archive 'CCDC 783204'
_chemical_formula_sum 'C48 H58'
_chemical_formula_moiety
;
C48 H58
;
_journal_coden_Cambridge 182
_journal_volume 47
_journal_year 2011
_journal_page_first 514
_journal_name_full 'Chem.Commun. '
loop_
_publ_author_name
"N.Kulisic"
"S.More"
"A.Mateo-Alonso"
_chemical_name_systematic
;
1,3,6,8-tetrakis(Oct-1-yn-1-yl)pyrene
;
_cell_volume    955.643
_exptl_crystal_colour 'yellow'
_exptl_crystal_density_diffrn 1.103
_exptl_crystal_description 'irregular'
_exptl_crystal_preparation 'petroleum ether (40-60)'
_diffrn_ambient_temperature 130
#These two values have been output from a single CSD field.
_refine_ls_R_factor_gt 0.0537
_refine_ls_wR_factor_gt 0.0537
_symmetry_cell_setting triclinic
_symmetry_space_group_name_H-M 'P -1'
_symmetry_Int_Tables_number 2
loop_
_symmetry_equiv_pos_site_id
_symmetry_equiv_pos_as_xyz
1 x,y,z
2 -x,-y,-z
_cell_length_a 8.4918(6)
_cell_length_b 9.8418(13)
_cell_length_c 12.6119(14)
_cell_angle_alpha 101.641(4)
_cell_angle_beta 109.323(6)
_cell_angle_gamma 96.475(7)
_cell_formula_units_Z 1
loop_
_atom_type_symbol
_atom_type_radius_bond
C 0.68
H 0.23
loop_
_atom_site_label
_atom_site_type_symbol
_atom_site_fract_x
_atom_site_fract_y
_atom_site_fract_z
C1 C 0.2292(2) 0.8240(2) 0.69875(16)
H1 H 0.29010 0.77520 0.75180
C2 C 0.0936(2) 0.8803(2) 0.71603(16)
C3 C 0.0008(2) 0.9520(2) 0.63745(16)
C4 C 0.0474(2) 0.9657(2) 0.54087(15)
C5 C 0.1880(2) 0.9090(2) 0.52541(16)
C6 C 0.2774(2) 0.8377(2) 0.60549(16)
C7 C -0.1420(2) 1.0094(2) 0.64927(16)
H2 H -0.17430 1.00120 0.71330
C8 C 0.2313(2) 0.9255(2) 0.42773(16)
H3 H 0.32570 0.88950 0.41710
C9 C 0.0432(2) 0.8565(2) 0.81012(17)
C10 C -0.0039(2) 0.8312(2) 0.88512(18)
C11 C -0.0702(2) 0.7998(3) 0.97295(17)
H4 H -0.01270 0.87470 1.04620
H5 H -0.04210 0.70910 0.98850
C12 C -0.2611(3) 0.7901(3) 0.93692(19)
H6 H -0.31870 0.71490 0.86390
H7 H -0.28940 0.88070 0.92120
C13 C -0.3283(2) 0.7580(3) 1.02872(18)
H8 H -0.29490 0.66980 1.04700
H9 H -0.27390 0.83540 1.10060
C14 C -0.5201(3) 0.7414(3) 0.99244(19)
H10 H -0.57390 0.66520 0.91970
H11 H -0.55280 0.83020 0.97520
C15 C -0.5911(3) 0.7069(3) 1.08213(19)
H12 H -0.71660 0.68020 1.04560
H13 H -0.54820 0.62420 1.10610
C16 C -0.5446(3) 0.8279(3) 1.1889(2)
H14 H -0.59290 0.79860 1.24330
H15 H -0.59020 0.90920 1.16640
H16 H -0.42050 0.85430 1.22640
C17 C 0.4144(2) 0.7734(2) 0.58956(16)
C18 C 0.5268(2) 0.7177(2) 0.57565(17)
C19 C 0.6640(2) 0.6516(2) 0.55508(16)
H17 H 0.64350 0.55150 0.55770
H18 H 0.77320 0.69980 0.61840
C20 C 0.6789(2) 0.6576(2) 0.43883(16)
H19 H 0.57210 0.60490 0.37510
H20 H 0.69390 0.75720 0.43440
C21 C 0.8276(2) 0.5950(2) 0.42214(16)
H21 H 0.93220 0.64230 0.49000
H22 H 0.80730 0.49350 0.42080
C22 C 0.8579(2) 0.6086(2) 0.31248(16)
H23 H 0.87450 0.70960 0.31190
H24 H 0.75580 0.55750 0.24410
C23 C 1.0120(2) 0.5499(2) 0.30213(17)
H25 H 1.11310 0.59920 0.37190
H26 H 0.99370 0.44840 0.30100
C24 C 1.0484(3) 0.5654(3) 0.19458(18)
H27 H 1.14780 0.52430 0.19300
H28 H 1.07140 0.66580 0.19640
H29 H 0.94960 0.51590 0.12490
C1A C -0.2292(2) 1.1760(2) 0.30125(16)
H1A H -0.29010 1.22480 0.24820
C2A C -0.0936(2) 1.1197(2) 0.28397(16)
C3A C -0.0008(2) 1.0480(2) 0.36255(16)
C4A C -0.0474(2) 1.0343(2) 0.45913(15)
C5A C -0.1880(2) 1.0910(2) 0.47459(16)
C6A C -0.2774(2) 1.1623(2) 0.39451(16)
C7A C 0.1420(2) 0.9906(2) 0.35073(16)
H2A H 0.17430 0.99880 0.28670
C8A C -0.2313(2) 1.0745(2) 0.57227(16)
H3A H -0.32570 1.11050 0.58290
C9A C -0.0432(2) 1.1435(2) 0.18988(17)
C10A C 0.0039(2) 1.1688(2) 0.11488(18)
C11A C 0.0702(2) 1.2002(3) 0.02705(17)
H4A H 0.01270 1.12530 -0.04620
H5A H 0.04210 1.29090 0.01150
C12A C 0.2611(3) 1.2099(3) 0.06308(19)
H6A H 0.31870 1.28510 0.13610
H7A H 0.28940 1.11930 0.07880
C13A C 0.3283(2) 1.2420(3) -0.02872(18)
H8A H 0.29490 1.33020 -0.04700
H9A H 0.27390 1.16460 -0.10060
C14A C 0.5201(3) 1.2586(3) 0.00756(19)
H10A H 0.57390 1.33480 0.08030
H11A H 0.55280 1.16980 0.02480
C15A C 0.5911(3) 1.2931(3) -0.08213(19)
H12A H 0.71660 1.31980 -0.04560
H13A H 0.54820 1.37580 -0.10610
C16A C 0.5446(3) 1.1721(3) -0.1889(2)
H14A H 0.59290 1.20140 -0.24330
H15A H 0.59020 1.09080 -0.16640
H16A H 0.42050 1.14570 -0.22640
C17A C -0.4144(2) 1.2266(2) 0.41044(16)
C18A C -0.5268(2) 1.2823(2) 0.42435(17)
C19A C -0.6640(2) 1.3484(2) 0.44492(16)
H17A H -0.64350 1.44850 0.44230
H18A H -0.77320 1.30020 0.38160
C20A C -0.6789(2) 1.3424(2) 0.56117(16)
H19A H -0.57210 1.39510 0.62490
H20A H -0.69390 1.24280 0.56560
C21A C -0.8276(2) 1.4050(2) 0.57786(16)
H21A H -0.93220 1.35770 0.51000
H22A H -0.80730 1.50650 0.57920
C22A C -0.8579(2) 1.3914(2) 0.68752(16)
H23A H -0.87450 1.29040 0.68810
H24A H -0.75580 1.44250 0.75590
C23A C -1.0120(2) 1.4501(2) 0.69787(17)
H25A H -1.11310 1.40080 0.62810
H26A H -0.99370 1.55160 0.69900
C24A C -1.0484(3) 1.4346(3) 0.80542(18)
H27A H -1.14780 1.47570 0.80700
H28A H -1.07140 1.33420 0.80360
H29A H -0.94960 1.48410 0.87510
loop_
_geom_bond_atom_site_label_1
_geom_bond_atom_site_label_2
_geom_bond_distance
_geom_bond_site_symmetry_1
_geom_bond_site_symmetry_2
C1 H1 0.950 1_555 1_555
C2 C1 1.393 1_555 1_555
C3 C2 1.411 1_555 1_555
C4 C3 1.425 1_555 1_555
C5 C4 1.427 1_555 1_555
C6 C1 1.393 1_555 1_555
C7 C3 1.432 1_555 1_555
H2 C7 0.950 1_555 1_555
C8 C5 1.430 1_555 1_555
H3 C8 0.950 1_555 1_555
C9 C2 1.439 1_555 1_555
C10 C9 1.200 1_555 1_555
C11 C10 1.467 1_555 1_555
H4 C11 0.990 1_555 1_555
H5 C11 0.990 1_555 1_555
C12 C11 1.518 1_555 1_555
H6 C12 0.990 1_555 1_555
H7 C12 0.990 1_555 1_555
C13 C12 1.520 1_555 1_555
H8 C13 0.990 1_555 1_555
H9 C13 0.990 1_555 1_555
C14 C13 1.518 1_555 1_555
H10 C14 0.990 1_555 1_555
H11 C14 0.990 1_555 1_555
C15 C14 1.523 1_555 1_555
H12 C15 0.990 1_555 1_555
H13 C15 0.990 1_555 1_555
C16 C15 1.511 1_555 1_555
H14 C16 0.981 1_555 1_555
H15 C16 0.980 1_555 1_555
H16 C16 0.980 1_555 1_555
C17 C6 1.437 1_555 1_555
C18 C17 1.197 1_555 1_555
C19 C18 1.467 1_555 1_555
H17 C19 0.990 1_555 1_555
H18 C19 0.990 1_555 1_555
C20 C19 1.525 1_555 1_555
H19 C20 0.990 1_555 1_555
H20 C20 0.989 1_555 1_555
C21 C20 1.522 1_555 1_555
H21 C21 0.990 1_555 1_555
H22 C21 0.990 1_555 1_555
C22 C21 1.516 1_555 1_555
H23 C22 0.990 1_555 1_555
H24 C22 0.990 1_555 1_555
C23 C22 1.522 1_555 1_555
H25 C23 0.990 1_555 1_555
H26 C23 0.990 1_555 1_555
C24 C23 1.520 1_555 1_555
H27 C24 0.980 1_555 1_555
H28 C24 0.979 1_555 1_555
H29 C24 0.980 1_555 1_555
C1A H1A 0.950 1_555 1_555
C2A C1A 1.393 1_555 1_555
C3A C2A 1.411 1_555 1_555
C4A C4 1.422 1_555 1_555
C5A C4A 1.427 1_555 1_555
C6A C1A 1.393 1_555 1_555
C7A C8 1.342 1_555 1_555
H2A C7A 0.950 1_555 1_555
C8A C7 1.342 1_555 1_555
H3A C8A 0.950 1_555 1_555
C9A C2A 1.439 1_555 1_555
C10A C9A 1.200 1_555 1_555
C11A C10A 1.467 1_555 1_555
H4A C11A 0.990 1_555 1_555
H5A C11A 0.990 1_555 1_555
C12A C11A 1.518 1_555 1_555
H6A C12A 0.990 1_555 1_555
H7A C12A 0.990 1_555 1_555
C13A C12A 1.520 1_555 1_555
H8A C13A 0.990 1_555 1_555
H9A C13A 0.990 1_555 1_555
C14A C13A 1.518 1_555 1_555
H10A C14A 0.990 1_555 1_555
H11A C14A 0.990 1_555 1_555
C15A C14A 1.523 1_555 1_555
H12A C15A 0.990 1_555 1_555
H13A C15A 0.990 1_555 1_555
C16A C15A 1.511 1_555 1_555
H14A C16A 0.981 1_555 1_555
H15A C16A 0.980 1_555 1_555
H16A C16A 0.980 1_555 1_555
C17A C6A 1.437 1_555 1_555
C18A C17A 1.197 1_555 1_555
C19A C18A 1.467 1_555 1_555
H17A C19A 0.990 1_555 1_555
H18A C19A 0.990 1_555 1_555
C20A C19A 1.525 1_555 1_555
H19A C20A 0.990 1_555 1_555
H20A C20A 0.989 1_555 1_555
C21A C20A 1.522 1_555 1_555
H21A C21A 0.990 1_555 1_555
H22A C21A 0.990 1_555 1_555
C22A C21A 1.516 1_555 1_555
H23A C22A 0.990 1_555 1_555
H24A C22A 0.990 1_555 1_555
C23A C22A 1.522 1_555 1_555
H25A C23A 0.990 1_555 1_555
H26A C23A 0.990 1_555 1_555
C24A C23A 1.520 1_555 1_555
H27A C24A 0.980 1_555 1_555
H28A C24A 0.979 1_555 1_555
H29A C24A 0.980 1_555 1_555
C5 C6 1.410 1_555 1_555
C3A C4A 1.425 1_555 1_555
C3A C7A 1.432 1_555 1_555
C5A C6A 1.410 1_555 1_555
C5A C8A 1.430 1_555 1_555
#END
