
#######################################################################
#
#                 Cambridge Crystallographic Data Centre
#                                CCDC
#
#######################################################################
#
# If this CIF has been generated from an entry in the Cambridge
# Structural Database, then it will include bibliographic, chemical,
# crystal, experimental, refinement or atomic coordinate data resulting
# from the CCDC's data processing and validation procedures.
#
#######################################################################

data_CSD_CIF_EHUCIU01
_audit_creation_date 2016-05-10
_audit_creation_method CSD-ConQuest-V1
_database_code_CSD EHUCIU01
_database_code_depnum_ccdc_archive 'CCDC 703228'
_chemical_formula_sum 'C48 H58'
_chemical_formula_moiety
;
C48 H58
;
_journal_coden_Cambridge 8
_journal_volume 137
_journal_year 2012
_journal_page_first 34706
_journal_name_full 'J.Chem.Phys. '
loop_
_publ_author_name
"F.Provencher"
"N.Berube"
"J.-F.Laprade"
"G.Simard"
"Julien Tant"
"V.de Halleux"
"Y.Geerts"
"C.Silva"
"M.Cote"
_chemical_name_systematic
;
1,3,6,8-tetrakis(Oct-1-yn-1-yl)pyrene
;
_cell_volume    956.893
_exptl_crystal_colour 'red'
_exptl_crystal_density_diffrn 1.102
_exptl_crystal_description 'needle'
_diffrn_ambient_temperature 150
#These two values have been output from a single CSD field.
_refine_ls_R_factor_gt 0.0404
_refine_ls_wR_factor_gt 0.0404
_symmetry_cell_setting triclinic
_symmetry_space_group_name_H-M 'P -1'
_symmetry_Int_Tables_number 2
loop_
_symmetry_equiv_pos_site_id
_symmetry_equiv_pos_as_xyz
1 x,y,z
2 -x,-y,-z
_cell_length_a 8.4950(3)
_cell_length_b 9.8390(2)
_cell_length_c 12.6215(3)
_cell_angle_alpha 101.514(1)
_cell_angle_beta 109.313(1)
_cell_angle_gamma 96.540(1)
_cell_formula_units_Z 1
loop_
_atom_type_symbol
_atom_type_radius_bond
C 0.68
H 0.23
loop_
_atom_site_label
_atom_site_type_symbol
_atom_site_fract_x
_atom_site_fract_y
_atom_site_fract_z
C1 C 0.64177(17) 0.49108(12) 0.35040(9)
H1 H 0.67410 0.49980 0.28650
C2 C 0.73145(17) 0.42498(12) 0.42779(9)
H2 H 0.82560 0.38860 0.41730
C3 C 0.68719(16) 0.40885(11) 0.52511(9)
C4 C 0.54784(16) 0.46522(11) 0.54121(9)
C5 C 0.50020(16) 0.45215(11) 0.63730(9)
C6 C 0.59363(17) 0.37960(12) 0.71605(9)
C7 C 0.72889(17) 0.32385(12) 0.69854(9)
H3 H 0.79000 0.27540 0.75180
C8 C 0.77752(16) 0.33679(11) 0.60536(9)
C9 C 0.54301(17) 0.35647(12) 0.80999(9)
C10 C 0.49582(18) 0.33114(12) 0.88477(9)
C11 C 0.42963(19) 0.29945(14) 0.97253(10)
H4 H 0.48760 0.37390 1.04580
H5 H 0.45710 0.20840 0.98770
C12 C 0.2389(2) 0.29045(17) 0.93702(11)
H6 H 0.18080 0.21610 0.86370
H7 H 0.21130 0.38160 0.92210
C13 C 0.1712(2) 0.25719(15) 1.02881(11)
H8 H 0.20390 0.16850 1.04640
H9 H 0.22580 0.33390 1.10090
C14 C -0.0198(2) 0.24128(18) 0.99245(11)
H10 H -0.07390 0.16510 0.91990
H11 H -0.05200 0.33020 0.97500
C15 C -0.0913(2) 0.20722(17) 1.08238(12)
H12 H -0.21690 0.18150 1.04590
H13 H -0.04970 0.12390 1.10600
C16 C -0.0438(2) 0.32742(18) 1.18946(13)
H14 H 0.08020 0.35150 1.22780
H15 H -0.09470 0.29870 1.24280
H16 H -0.08610 0.41010 1.16720
C17 C 0.91461(17) 0.27381(12) 0.58959(9)
C18 C 1.02718(17) 0.21749(12) 0.57573(9)
C19 C 1.16397(16) 0.15194(12) 0.55545(10)
H17 H 1.14390 0.05200 0.55860
H18 H 1.27310 0.20050 0.61850
C20 C 1.17894(17) 0.15741(13) 0.43856(10)
H19 H 1.07240 0.10440 0.37500
H20 H 1.19380 0.25690 0.43360
C21 C 1.32748(17) 0.09504(12) 0.42277(10)
H21 H 1.30720 -0.00640 0.42190
H22 H 1.43180 0.14260 0.49050
C22 C 1.35794(17) 0.10839(13) 0.31254(10)
H23 H 1.25590 0.05720 0.24430
H24 H 1.37450 0.20930 0.31170
C23 C 1.51149(18) 0.04991(13) 0.30234(10)
H25 H 1.49310 -0.05170 0.30110
H26 H 1.61250 0.09900 0.37200
C24 C 1.5482(2) 0.06577(16) 0.19480(12)
H27 H 1.45040 0.01490 0.12520
H28 H 1.64890 0.02640 0.19410
H29 H 1.56910 0.16620 0.19590
C1A C 0.35823(17) 0.50892(12) 0.64960(9)
H1A H 0.32590 0.50020 0.71350
C2A C 0.26855(17) 0.57502(12) 0.57221(9)
H2A H 0.17440 0.61140 0.58270
C3A C 0.31281(16) 0.59115(11) 0.47489(9)
C4A C 0.45216(16) 0.53478(11) 0.45879(9)
C5A C 0.49980(16) 0.54785(11) 0.36270(9)
C6A C 0.40637(17) 0.62040(12) 0.28395(9)
C7A C 0.27111(17) 0.67615(12) 0.30146(9)
H3A H 0.21000 0.72460 0.24820
C8A C 0.22248(16) 0.66321(11) 0.39464(9)
C9A C 0.45699(17) 0.64353(12) 0.19001(9)
C10A C 0.50418(18) 0.66886(12) 0.11523(9)
C11A C 0.57037(19) 0.70055(14) 0.02747(10)
H4A H 0.51240 0.62610 -0.04580
H5A H 0.54290 0.79160 0.01230
C12A C 0.7611(2) 0.70955(17) 0.06298(11)
H6A H 0.81920 0.78390 0.13630
H7A H 0.78870 0.61840 0.07790
C13A C 0.8288(2) 0.74281(15) -0.02881(11)
H8A H 0.79610 0.83150 -0.04640
H9A H 0.77420 0.66610 -0.10090
C14A C 1.0198(2) 0.75872(18) 0.00755(11)
H10A H 1.07390 0.83490 0.08010
H11A H 1.05200 0.66980 0.02500
C15A C 1.0913(2) 0.79278(17) -0.08238(12)
H12A H 1.21690 0.81850 -0.04590
H13A H 1.04970 0.87610 -0.10600
C16A C 1.0438(2) 0.67258(18) -0.18946(13)
H14A H 0.91980 0.64850 -0.22780
H15A H 1.09470 0.70130 -0.24280
H16A H 1.08610 0.58990 -0.16720
C17A C 0.08539(17) 0.72619(12) 0.41041(9)
C18A C -0.02718(17) 0.78251(12) 0.42427(9)
C19A C -0.16397(16) 0.84806(12) 0.44455(10)
H17A H -0.14390 0.94800 0.44140
H18A H -0.27310 0.79950 0.38150
C20A C -0.17894(17) 0.84259(13) 0.56144(10)
H19A H -0.07240 0.89560 0.62500
H20A H -0.19380 0.74310 0.56640
C21A C -0.32748(17) 0.90496(12) 0.57723(10)
H21A H -0.30720 1.00640 0.57810
H22A H -0.43180 0.85740 0.50950
C22A C -0.35794(17) 0.89161(13) 0.68746(10)
H23A H -0.25590 0.94280 0.75570
H24A H -0.37450 0.79070 0.68830
C23A C -0.51149(18) 0.95009(13) 0.69766(10)
H25A H -0.49310 1.05170 0.69890
H26A H -0.61250 0.90100 0.62800
C24A C -0.5482(2) 0.93423(16) 0.80520(12)
H27A H -0.45040 0.98510 0.87480
H28A H -0.64890 0.97360 0.80590
H29A H -0.56910 0.83380 0.80410
loop_
_geom_bond_atom_site_label_1
_geom_bond_atom_site_label_2
_geom_bond_distance
_geom_bond_site_symmetry_1
_geom_bond_site_symmetry_2
C1 H1 0.950 1_555 1_555
C2 C1 1.353 1_555 1_555
H2 C2 0.950 1_555 1_555
C3 C2 1.430 1_555 1_555
C4 C3 1.419 1_555 1_555
C5 C4 1.423 1_555 1_555
C6 C5 1.421 1_555 1_555
C7 C6 1.390 1_555 1_555
H3 C7 0.950 1_555 1_555
C8 C3 1.419 1_555 1_555
C9 C6 1.437 1_555 1_555
C10 C9 1.198 1_555 1_555
C11 C10 1.466 1_555 1_555
H4 C11 0.990 1_555 1_555
H5 C11 0.990 1_555 1_555
C12 C11 1.518 1_555 1_555
H6 C12 0.990 1_555 1_555
H7 C12 0.990 1_555 1_555
C13 C12 1.526 1_555 1_555
H8 C13 0.990 1_555 1_555
H9 C13 0.990 1_555 1_555
C14 C13 1.513 1_555 1_555
H10 C14 0.990 1_555 1_555
H11 C14 0.990 1_555 1_555
C15 C14 1.527 1_555 1_555
H12 C15 0.991 1_555 1_555
H13 C15 0.990 1_555 1_555
C16 C15 1.510 1_555 1_555
H14 C16 0.980 1_555 1_555
H15 C16 0.980 1_555 1_555
H16 C16 0.980 1_555 1_555
C17 C8 1.431 1_555 1_555
C18 C17 1.202 1_555 1_555
C19 C18 1.461 1_555 1_555
H17 C19 0.990 1_555 1_555
H18 C19 0.990 1_555 1_555
C20 C19 1.533 1_555 1_555
H19 C20 0.990 1_555 1_555
H20 C20 0.990 1_555 1_555
C21 C20 1.517 1_555 1_555
H21 C21 0.991 1_555 1_555
H22 C21 0.990 1_555 1_555
C22 C21 1.524 1_555 1_555
H23 C22 0.990 1_555 1_555
H24 C22 0.989 1_555 1_555
C23 C22 1.517 1_555 1_555
H25 C23 0.990 1_555 1_555
H26 C23 0.990 1_555 1_555
C24 C23 1.522 1_555 1_555
H27 C24 0.980 1_555 1_555
H28 C24 0.980 1_555 1_555
H29 C24 0.980 1_555 1_555
C1A C5 1.426 1_555 1_555
H1A C1A 0.950 1_555 1_555
C2A C1A 1.353 1_555 1_555
H2A C2A 0.950 1_555 1_555
C3A C2A 1.430 1_555 1_555
C4A C4 1.436 1_555 1_555
C5A C1 1.426 1_555 1_555
C6A C5A 1.421 1_555 1_555
C7A C6A 1.390 1_555 1_555
H3A C7A 0.950 1_555 1_555
C8A C3A 1.419 1_555 1_555
C9A C6A 1.437 1_555 1_555
C10A C9A 1.198 1_555 1_555
C11A C10A 1.466 1_555 1_555
H4A C11A 0.990 1_555 1_555
H5A C11A 0.990 1_555 1_555
C12A C11A 1.518 1_555 1_555
H6A C12A 0.990 1_555 1_555
H7A C12A 0.990 1_555 1_555
C13A C12A 1.526 1_555 1_555
H8A C13A 0.990 1_555 1_555
H9A C13A 0.990 1_555 1_555
C14A C13A 1.513 1_555 1_555
H10A C14A 0.990 1_555 1_555
H11A C14A 0.990 1_555 1_555
C15A C14A 1.527 1_555 1_555
H12A C15A 0.991 1_555 1_555
H13A C15A 0.990 1_555 1_555
C16A C15A 1.510 1_555 1_555
H14A C16A 0.980 1_555 1_555
H15A C16A 0.980 1_555 1_555
H16A C16A 0.980 1_555 1_555
C17A C8A 1.431 1_555 1_555
C18A C17A 1.202 1_555 1_555
C19A C18A 1.461 1_555 1_555
H17A C19A 0.990 1_555 1_555
H18A C19A 0.990 1_555 1_555
C20A C19A 1.533 1_555 1_555
H19A C20A 0.990 1_555 1_555
H20A C20A 0.990 1_555 1_555
C21A C20A 1.517 1_555 1_555
H21A C21A 0.991 1_555 1_555
H22A C21A 0.990 1_555 1_555
C22A C21A 1.524 1_555 1_555
H23A C22A 0.990 1_555 1_555
H24A C22A 0.989 1_555 1_555
C23A C22A 1.517 1_555 1_555
H25A C23A 0.990 1_555 1_555
H26A C23A 0.990 1_555 1_555
C24A C23A 1.522 1_555 1_555
H27A C24A 0.980 1_555 1_555
H28A C24A 0.980 1_555 1_555
H29A C24A 0.980 1_555 1_555
C7 C8 1.393 1_555 1_555
C3A C4A 1.419 1_555 1_555
C4A C5A 1.423 1_555 1_555
C7A C8A 1.393 1_555 1_555
#END
