
#######################################################################
#
#                 Cambridge Crystallographic Data Centre
#                                CCDC
#
#######################################################################
#
# If this CIF has been generated from an entry in the Cambridge
# Structural Database, then it will include bibliographic, chemical,
# crystal, experimental, refinement or atomic coordinate data resulting
# from the CCDC's data processing and validation procedures.
#
#######################################################################

data_CSD_CIF_EKEZAV
_audit_creation_date 2003-11-07
_audit_creation_method CSD-ConQuest-V1
_database_code_CSD EKEZAV
_database_code_depnum_ccdc_archive 'CCDC 222856'
_chemical_formula_sum 'C30 H22'
_chemical_formula_moiety
;
C30 H22
;
_journal_coeditor_code "IUCr OB6273"
_journal_coden_Cambridge 1370
_journal_volume 59
_journal_year 2003
_journal_page_first o1283
_journal_name_full 'Acta Crystallogr.,Sect.E:Struct.Rep.Online '
loop_
_publ_author_name
"R.N.Evans"
"R.Gilardi"
"T.Emrick"
_chemical_name_systematic
;
1-(p-Biphenyl)-4-(2-naphthyl)cubane
;
_cell_volume    995.711
_exptl_crystal_colour 'colorless'
_exptl_crystal_density_diffrn 1.276
_exptl_crystal_description 'thin lath'
_exptl_crystal_preparation 'octane'
_diffrn_ambient_temperature 294
#These two values have been output from a single CSD field.
_refine_ls_R_factor_gt 0.0618
_refine_ls_wR_factor_gt 0.0618
_symmetry_cell_setting monoclinic
_symmetry_space_group_name_H-M 'P 21'
_symmetry_Int_Tables_number 4
loop_
_symmetry_equiv_pos_site_id
_symmetry_equiv_pos_as_xyz
1 x,y,z
2 -x,1/2+y,-z
_cell_length_a 5.9788(4)
_cell_length_b 7.579(1)
_cell_length_c 22.044(1)
_cell_angle_alpha 90
_cell_angle_beta 94.570(8)
_cell_angle_gamma 90
_cell_formula_units_Z 2
loop_
_atom_type_symbol
_atom_type_radius_bond
C 0.68
H 0.23
loop_
_atom_site_label
_atom_site_type_symbol
_atom_site_fract_x
_atom_site_fract_y
_atom_site_fract_z
C1 C 1.1372(9) 0.8394(10) 0.3325(2)
C2 C 1.1800(12) 0.6999(11) 0.2828(3)
H1 H 1.25730 0.58720 0.29060
C3 C 1.2549(10) 0.8428(11) 0.2393(2)
H2 H 1.38880 0.83650 0.21650
C4 C 1.0094(10) 0.862(1) 0.2106(2)
C5 C 0.9345(12) 0.7187(10) 0.2554(3)
H3 H 0.83340 0.62020 0.24420
C6 C 0.8926(9) 0.8608(13) 0.3032(3)
H4 H 0.75880 0.86690 0.32600
C7 C 0.9657(11) 1.0056(10) 0.2597(3)
H5 H 0.88840 1.11820 0.25170
C8 C 1.2112(12) 0.9841(10) 0.2875(3)
H6 H 1.31260 1.08230 0.29900
C9 C 0.7824(9) 0.8760(9) 0.0197(2)
C10 C 0.9826(10) 0.7938(9) 0.0406(2)
H7 H 1.06800 0.73740 0.01290
C11 C 1.0565(11) 0.7943(9) 0.1014(2)
H8 H 1.19190 0.73950 0.11360
C12 C 0.9363(10) 0.8737(10) 0.1450(2)
C13 C 0.7383(10) 0.957(1) 0.1244(3)
H9 H 0.65440 1.01480 0.15210
C14 C 0.6633(10) 0.9557(10) 0.0635(3)
H10 H 0.52760 1.01030 0.05160
C15 C 0.6999(9) 0.8777(8) -0.0457(2)
C16 C 0.8221(12) 0.8024(10) -0.0894(3)
H11 H 0.95910 0.74940 -0.07770
C17 C 0.7447(12) 0.8043(12) -0.1505(3)
H12 H 0.82920 0.75070 -0.17900
C18 C 0.5461(12) 0.8839(12) -0.1693(3)
H13 H 0.49640 0.88840 -0.21030
C19 C 0.4242(12) 0.9556(11) -0.1269(3)
H14 H 0.28700 1.00780 -0.13880
C20 C 0.4978(10) 0.9533(10) -0.0663(3)
H15 H 0.40900 1.00420 -0.03830
C21 C 1.0753(9) 0.8718(9) 0.4430(2)
H16 H 0.93580 0.92190 0.43210
C22 C 1.2093(9) 0.8218(8) 0.3984(2)
C23 C 1.4193(9) 0.7448(9) 0.4153(3)
H17 H 1.51010 0.70890 0.38530
C24 C 1.492(1) 0.7219(8) 0.4749(3)
H18 H 1.63280 0.67310 0.48490
C25 C 1.4256(10) 0.7481(8) 0.5842(2)
H19 H 1.56430 0.69750 0.59550
C26 C 1.2907(11) 0.7991(11) 0.6277(3)
H20 H 1.33820 0.78390 0.66860
C27 C 1.0822(10) 0.8738(10) 0.6116(2)
H21 H 0.99040 0.90620 0.64190
C28 C 1.0104(10) 0.9003(9) 0.5520(2)
H22 H 0.87170 0.95280 0.54200
C29 C 1.1454(8) 0.8485(8) 0.5053(2)
C30 C 1.3566(9) 0.7712(8) 0.5214(2)
loop_
_geom_bond_atom_site_label_1
_geom_bond_atom_site_label_2
_geom_bond_distance
_geom_bond_site_symmetry_1
_geom_bond_site_symmetry_2
C1 C2 1.558 1_555 1_555
C2 H1 0.980 1_555 1_555
C3 C2 1.537 1_555 1_555
H2 C3 0.980 1_555 1_555
C4 C3 1.558 1_555 1_555
C5 C2 1.549 1_555 1_555
H3 C5 0.980 1_555 1_555
C6 C1 1.559 1_555 1_555
H4 C6 0.979 1_555 1_555
C7 C4 1.571 1_555 1_555
H5 C7 0.980 1_555 1_555
C8 C1 1.566 1_555 1_555
H6 C8 0.980 1_555 1_555
C9 C10 1.395 1_555 1_555
C10 H7 0.931 1_555 1_555
C11 C10 1.377 1_555 1_555
H8 C11 0.930 1_555 1_555
C12 C4 1.480 1_555 1_555
C13 C12 1.386 1_555 1_555
H9 C13 0.930 1_555 1_555
C14 C9 1.383 1_555 1_555
H10 C14 0.930 1_555 1_555
C15 C9 1.486 1_555 1_555
C16 C15 1.378 1_555 1_555
H11 C16 0.930 1_555 1_555
C17 C16 1.389 1_555 1_555
H12 C17 0.930 1_555 1_555
C18 C17 1.366 1_555 1_555
H13 C18 0.929 1_555 1_555
C19 C18 1.345 1_555 1_555
H14 C19 0.929 1_555 1_555
C20 C15 1.381 1_555 1_555
H15 C20 0.929 1_555 1_555
C21 H16 0.930 1_555 1_555
C22 C1 1.488 1_555 1_555
C23 C22 1.408 1_555 1_555
H17 C23 0.929 1_555 1_555
C24 C23 1.362 1_555 1_555
H18 C24 0.930 1_555 1_555
C25 H19 0.929 1_555 1_555
C26 C25 1.357 1_555 1_555
H20 C26 0.931 1_555 1_555
C27 C26 1.389 1_555 1_555
H21 C27 0.931 1_555 1_555
C28 C27 1.364 1_555 1_555
H22 C28 0.930 1_555 1_555
C29 C21 1.415 1_555 1_555
C30 C24 1.406 1_555 1_555
C3 C8 1.545 1_555 1_555
C4 C5 1.558 1_555 1_555
C5 C6 1.541 1_555 1_555
C6 C7 1.543 1_555 1_555
C7 C8 1.553 1_555 1_555
C11 C12 1.383 1_555 1_555
C13 C14 1.381 1_555 1_555
C19 C20 1.373 1_555 1_555
C21 C22 1.370 1_555 1_555
C25 C30 1.423 1_555 1_555
C28 C29 1.413 1_555 1_555
C29 C30 1.411 1_555 1_555
#END
