
#######################################################################
#
#                 Cambridge Crystallographic Data Centre
#                                CCDC
#
#######################################################################
#
# If this CIF has been generated from an entry in the Cambridge
# Structural Database, then it will include bibliographic, chemical,
# crystal, experimental, refinement or atomic coordinate data resulting
# from the CCDC's data processing and validation procedures.
#
#######################################################################

data_CSD_CIF_ENILAP
_audit_creation_date 2011-06-07
_audit_creation_method CSD-ConQuest-V1
_database_code_CSD ENILAP
_database_code_depnum_ccdc_archive 'CCDC 797216'
_chemical_formula_sum 'C36 H24'
_chemical_formula_moiety
;
C36 H24
;
_journal_coden_Cambridge 24
_journal_volume 52
_journal_year 2011
_journal_page_first 1329
_journal_name_full 'Tetrahedron Lett. '
loop_
_publ_author_name
"Zuo-Qin Liang"
"Ye-Xin Li"
"Jia-Xiang Yang"
"Yan Ren"
"Xu-Tang Tao"
_chemical_name_systematic
;
1-(4-(2,2-Diphenylvinyl)phenyl)pyrene
;
_cell_volume   1241.306
_exptl_crystal_colour 'white'
_exptl_crystal_density_diffrn 1.221
_exptl_crystal_description 'block'
_diffrn_ambient_temperature 293
#These two values have been output from a single CSD field.
_refine_ls_R_factor_gt 0.039
_refine_ls_wR_factor_gt 0.039
_symmetry_cell_setting triclinic
_symmetry_space_group_name_H-M 'P -1'
_symmetry_Int_Tables_number 2
loop_
_symmetry_equiv_pos_site_id
_symmetry_equiv_pos_as_xyz
1 x,y,z
2 -x,-y,-z
_cell_length_a 9.2683(4)
_cell_length_b 11.9283(5)
_cell_length_c 12.9205(6)
_cell_angle_alpha 66.250(4)
_cell_angle_beta 86.787(4)
_cell_angle_gamma 72.217(4)
_cell_formula_units_Z 2
loop_
_atom_type_symbol
_atom_type_radius_bond
C 0.68
H 0.23
loop_
_atom_site_label
_atom_site_type_symbol
_atom_site_fract_x
_atom_site_fract_y
_atom_site_fract_z
C1 C 0.00948(13) 0.87761(10) 0.15096(9)
C2 C 0.02136(12) 0.79803(10) 0.09097(9)
C3 C -0.09358(12) 0.73122(10) -0.03124(9)
C4 C -0.10684(12) 0.81307(10) 0.02523(9)
C5 C 0.16171(12) 0.7021(1) 0.09882(9)
C6 C 0.04690(13) 0.64148(11) -0.02511(10)
H1 H 0.05730 0.59040 -0.06540
C7 C -0.12983(14) 0.97207(11) 0.14578(9)
C8 C -0.58953(13) 0.67125(11) -0.23471(10)
H2 H -0.65750 0.64780 -0.18060
C9 C 0.17098(13) 0.62621(11) 0.03908(10)
H3 H 0.26250 0.56400 0.04240
C10 C -0.47318(13) 0.70234(11) -0.08708(9)
H4 H -0.56000 0.69450 -0.04870
C11 C -0.24421(13) 0.91355(10) 0.01853(10)
H5 H -0.32790 0.92790 -0.02690
C12 C -0.22540(12) 0.72974(10) -0.09082(9)
C13 C 0.13779(14) 0.86282(11) 0.21647(10)
C14 C -0.35831(13) 0.71877(10) -0.03721(9)
H6 H -0.36950 0.72260 0.03340
C15 C -0.21610(13) 0.72558(11) -0.19716(10)
H7 H -0.12920 0.73340 -0.23530
C16 C -0.46384(12) 0.6970(1) -0.19356(9)
C17 C -0.25505(14) 0.98760(11) 0.07628(10)
H8 H -0.34670 1.05060 0.07070
C18 C -0.62511(12) 0.67516(10) -0.33567(9)
C19 C -0.75560(13) 0.63374(11) -0.35045(10)
C20 C 0.28751(14) 0.68738(12) 0.16836(11)
H9 H 0.37870 0.62310 0.17580
C21 C -0.54009(13) 0.72014(11) -0.43784(9)
C22 C -0.33164(13) 0.71031(11) -0.24767(10)
H10 H -0.32130 0.70880 -0.31920
C23 C 0.27629(15) 0.76466(13) 0.22302(11)
H11 H 0.36060 0.75380 0.26600
C24 C -0.13921(17) 1.04732(12) 0.20669(11)
H12 H -0.23150 1.10750 0.20550
C25 C 0.12256(18) 0.94395(13) 0.27239(10)
H13 H 0.20670 0.93710 0.31320
C26 C -0.79637(14) 0.53658(12) -0.2637(1)
H14 H -0.73980 0.49480 -0.19400
C27 C -0.01420(19) 1.03394(14) 0.26843(12)
H15 H -0.02210 1.08580 0.30760
C28 C -0.91920(16) 0.50040(14) -0.27833(12)
H16 H -0.94420 0.43470 -0.21880
C29 C -0.44571(15) 0.63230(14) -0.47624(11)
H17 H -0.43620 0.54530 -0.43790
C30 C -0.55533(17) 0.84945(13) -0.49816(11)
H18 H -0.61920 0.91030 -0.47460
C31 C -1.00452(16) 0.56079(16) -0.38009(14)
H19 H -1.08780 0.53700 -0.38980
C32 C -0.84215(17) 0.69165(14) -0.45286(12)
H20 H -0.81650 0.75590 -0.51360
C33 C -0.36572(17) 0.67152(19) -0.57017(13)
H21 H -0.30140 0.61110 -0.59390
C34 C -0.4757(2) 0.88866(17) -0.59371(13)
H22 H -0.48680 0.97570 -0.63420
C35 C -0.96573(18) 0.65613(17) -0.46680(14)
H23 H -1.02310 0.69770 -0.53610
C36 C -0.3808(2) 0.7992(2) -0.62843(14)
H24 H -0.32660 0.82560 -0.69180
loop_
_geom_bond_atom_site_label_1
_geom_bond_atom_site_label_2
_geom_bond_distance
_geom_bond_site_symmetry_1
_geom_bond_site_symmetry_2
C1 C2 1.426 1_555 1_555
C2 C4 1.423 1_555 1_555
C3 C4 1.411 1_555 1_555
C4 C11 1.436 1_555 1_555
C5 C2 1.423 1_555 1_555
C6 C3 1.393 1_555 1_555
H1 C6 0.930 1_555 1_555
C7 C1 1.415 1_555 1_555
C8 H2 0.930 1_555 1_555
C9 C5 1.389 1_555 1_555
H3 C9 0.931 1_555 1_555
C10 H4 0.931 1_555 1_555
C11 H5 0.930 1_555 1_555
C12 C3 1.488 1_555 1_555
C13 C1 1.423 1_555 1_555
C14 C10 1.376 1_555 1_555
H6 C14 0.930 1_555 1_555
C15 C12 1.392 1_555 1_555
H7 C15 0.930 1_555 1_555
C16 C8 1.468 1_555 1_555
C17 C7 1.428 1_555 1_555
H8 C17 0.930 1_555 1_555
C18 C8 1.343 1_555 1_555
C19 C18 1.487 1_555 1_555
C20 C5 1.436 1_555 1_555
H9 C20 0.930 1_555 1_555
C21 C18 1.491 1_555 1_555
C22 C15 1.378 1_555 1_555
H10 C22 0.931 1_555 1_555
C23 C13 1.428 1_555 1_555
H11 C23 0.930 1_555 1_555
C24 C7 1.395 1_555 1_555
H12 C24 0.930 1_555 1_555
C25 C13 1.395 1_555 1_555
H13 C25 0.930 1_555 1_555
C26 C19 1.384 1_555 1_555
H14 C26 0.931 1_555 1_555
C27 C24 1.376 1_555 1_555
H15 C27 0.930 1_555 1_555
C28 C26 1.381 1_555 1_555
H16 C28 0.930 1_555 1_555
C29 C21 1.385 1_555 1_555
H17 C29 0.930 1_555 1_555
C30 C21 1.385 1_555 1_555
H18 C30 0.930 1_555 1_555
C31 C28 1.371 1_555 1_555
H19 C31 0.930 1_555 1_555
C32 C19 1.384 1_555 1_555
H20 C32 0.930 1_555 1_555
C33 C29 1.377 1_555 1_555
H21 C33 0.929 1_555 1_555
C34 C30 1.390 1_555 1_555
H22 C34 0.930 1_555 1_555
C35 C31 1.362 1_555 1_555
H23 C35 0.930 1_555 1_555
C36 C33 1.365 1_555 1_555
H24 C36 0.930 1_555 1_555
C6 C9 1.379 1_555 1_555
C10 C16 1.399 1_555 1_555
C11 C17 1.347 1_555 1_555
C12 C14 1.394 1_555 1_555
C16 C22 1.396 1_555 1_555
C20 C23 1.348 1_555 1_555
C25 C27 1.376 1_555 1_555
C32 C35 1.380 1_555 1_555
C34 C36 1.372 1_555 1_555
#END
