
#######################################################################
#
#                 Cambridge Crystallographic Data Centre
#                                CCDC
#
#######################################################################
#
# If this CIF has been generated from an entry in the Cambridge
# Structural Database, then it will include bibliographic, chemical,
# crystal, experimental, refinement or atomic coordinate data resulting
# from the CCDC's data processing and validation procedures.
#
#######################################################################

data_CSD_CIF_ENOBEO
_audit_creation_date 2004-03-25
_audit_creation_method CSD-ConQuest-V1
_database_code_CSD ENOBEO
_database_code_depnum_ccdc_archive 'CCDC 226351'
_chemical_formula_sum 'C33 H20'
_chemical_formula_moiety
;
C33 H20
;
_journal_coden_Cambridge 1078
_journal_year 2003
_journal_name_full 'CSD Communication(Private Communication) '
loop_
_publ_author_name
"J.Einsiedler"
"R.Gompper"
"K.Polborn"
_chemical_name_systematic
;
spiro[dibenzo[c,g]fluorene-7,9'-fluorene]
;
_cell_volume   2200.207
_exptl_crystal_colour 'yellow-rose'
_exptl_crystal_density_diffrn 1.257
_exptl_special_details
;
contribution from Department Chemie, Universitat Munchen, Butenandtstr. 5-13, 
81377 Munchen, Germany
;
_exptl_crystal_description 'plate'
_diffrn_ambient_temperature 295
#These two values have been output from a single CSD field.
_refine_ls_R_factor_gt 0.0262
_refine_ls_wR_factor_gt 0.0262
_symmetry_cell_setting orthorhombic
_symmetry_space_group_name_H-M 'P n a 21'
_symmetry_Int_Tables_number 33
loop_
_symmetry_equiv_pos_site_id
_symmetry_equiv_pos_as_xyz
1 x,y,z
2 -x,-y,1/2+z
3 1/2-x,1/2+y,1/2+z
4 1/2+x,1/2-y,z
_cell_length_a 23.8987(14)
_cell_length_b 10.0679(5)
_cell_length_c 9.1443(5)
_cell_angle_alpha 90
_cell_angle_beta 90
_cell_angle_gamma 90
_cell_formula_units_Z 4
loop_
_atom_type_symbol
_atom_type_radius_bond
C 0.68
H 0.23
loop_
_atom_site_label
_atom_site_type_symbol
_atom_site_fract_x
_atom_site_fract_y
_atom_site_fract_z
C1 C 0.35164(7) 0.2272(2) 0.9620(2)
C2 C 0.30020(7) 0.1392(2) 0.9517(2)
C3 C 0.26417(8) 0.1206(2) 0.8359(2)
H1 H 0.26923(8) 0.1673(2) 0.7491(2)
C4 C 0.22054(8) 0.0320(2) 0.8501(2)
H2 H 0.19537(8) 0.0211(2) 0.7735(2)
C5 C 0.21380(8) -0.0406(2) 0.9768(3)
H3 H 0.18485(8) -0.1020(2) 0.9834(3)
C6 C 0.24932(8) -0.0233(2) 1.0935(2)
H4 H 0.24473(8) -0.0727(2) 1.1785(2)
C7 C 0.29217(6) 0.0693(2) 1.0820(2)
C8 C 0.33405(7) 0.1136(2) 1.1893(2)
C9 C 0.34318(8) 0.0789(2) 1.3346(2)
H5 H 0.32044(8) 0.0166(2) 1.3805(2)
C10 C 0.38652(9) 0.1385(2) 1.4095(2)
H6 H 0.39223(9) 0.1177(2) 1.5075(2)
C11 C 0.42150(9) 0.2281(2) 1.3420(2)
H7 H 0.45095(9) 0.2658(2) 1.3940(2)
C12 C 0.41298(7) 0.2625(2) 1.1967(2)
H8 H 0.43663(7) 0.3227(2) 1.1506(2)
C13 C 0.36910(7) 0.2062(2) 1.1220(2)
C14 C 0.34484(6) 0.3719(2) 0.9218(2)
C15 C 0.30359(7) 0.4585(2) 0.9738(2)
H9 H 0.27707(7) 0.4295(2) 1.0411(2)
C16 C 0.30303(7) 0.5857(2) 0.9243(2)
H10 H 0.27750(7) 0.6456(2) 0.9636(2)
C17 C 0.34030(7) 0.6289(2) 0.8145(2)
C18 C 0.33456(9) 0.7564(2) 0.7515(2)
H11 H 0.30900(9) 0.8162(2) 0.7909(2)
C19 C 0.36575(10) 0.7927(2) 0.6346(3)
H12 H 0.36191(10) 0.8775(2) 0.5956(3)
C20 C 0.40358(9) 0.7039(2) 0.5722(2)
H13 H 0.42368(9) 0.7287(2) 0.4895(2)
C21 C 0.41137(8) 0.5810(2) 0.6316(2)
H14 H 0.43667(8) 0.5229(2) 0.5883(2)
C22 C 0.38171(7) 0.5404(2) 0.7576(2)
C23 C 0.38576(6) 0.4119(2) 0.8236(2)
C24 C 0.42414(7) 0.2976(2) 0.7993(2)
C25 C 0.47910(7) 0.2850(2) 0.7383(2)
C26 C 0.51553(8) 0.3913(2) 0.7060(2)
H15 H 0.50349(8) 0.4780(2) 0.7215(2)
C27 C 0.56801(9) 0.3696(2) 0.6525(3)
H16 H 0.59104(9) 0.4416(2) 0.6313(3)
C28 C 0.58753(9) 0.2405(2) 0.6293(3)
H17 H 0.62301(9) 0.2268(2) 0.5903(3)
C29 C 0.55486(8) 0.1358(2) 0.6634(2)
H18 H 0.56830(8) 0.0502(2) 0.6482(2)
C30 C 0.50065(7) 0.1534(2) 0.7218(2)
C31 C 0.46997(8) 0.0430(2) 0.7713(2)
H19 H 0.48294(8) -0.0423(2) 0.7519(2)
C32 C 0.42157(8) 0.0596(2) 0.8471(2)
H20 H 0.40306(8) -0.0131(2) 0.8871(2)
C33 C 0.40017(7) 0.1874(2) 0.8641(2)
loop_
_geom_bond_atom_site_label_1
_geom_bond_atom_site_label_2
_geom_bond_distance
_geom_bond_site_symmetry_1
_geom_bond_site_symmetry_2
C1 C2 1.518 1_555 1_555
C2 C3 1.378 1_555 1_555
C3 H1 0.930 1_555 1_555
C4 C3 1.378 1_555 1_555
H2 C4 0.930 1_555 1_555
C5 C4 1.379 1_555 1_555
H3 C5 0.930 1_555 1_555
C6 C5 1.375 1_555 1_555
H4 C6 0.929 1_555 1_555
C7 C2 1.397 1_555 1_555
C8 C7 1.471 1_555 1_555
C9 C8 1.391 1_555 1_555
H5 C9 0.930 1_555 1_555
C10 C9 1.379 1_555 1_555
H6 C10 0.930 1_555 1_555
C11 C10 1.376 1_555 1_555
H7 C11 0.930 1_555 1_555
C12 C11 1.388 1_555 1_555
H8 C12 0.930 1_555 1_555
C13 C1 1.536 1_555 1_555
C14 C1 1.511 1_555 1_555
C15 C14 1.399 1_555 1_555
H9 C15 0.930 1_555 1_555
C16 C15 1.358 1_555 1_555
H10 C16 0.930 1_555 1_555
C17 C16 1.411 1_555 1_555
C18 C17 1.414 1_555 1_555
H11 C18 0.930 1_555 1_555
C19 C18 1.353 1_555 1_555
H12 C19 0.930 1_555 1_555
C20 C19 1.394 1_555 1_555
H13 C20 0.930 1_555 1_555
C21 C20 1.364 1_555 1_555
H14 C21 0.930 1_555 1_555
C22 C17 1.430 1_555 1_555
C23 C14 1.387 1_555 1_555
C24 C23 1.488 1_555 1_555
C25 C24 1.433 1_555 1_555
C26 C25 1.411 1_555 1_555
H15 C26 0.930 1_555 1_555
C27 C26 1.364 1_555 1_555
H16 C27 0.931 1_555 1_555
C28 C27 1.397 1_555 1_555
H17 C28 0.930 1_555 1_555
C29 C28 1.348 1_555 1_555
H18 C29 0.930 1_555 1_555
C30 C25 1.429 1_555 1_555
C31 C30 1.406 1_555 1_555
H19 C31 0.930 1_555 1_555
C32 C31 1.359 1_555 1_555
H20 C32 0.930 1_555 1_555
C33 C1 1.519 1_555 1_555
C6 C7 1.389 1_555 1_555
C8 C13 1.396 1_555 1_555
C12 C13 1.374 1_555 1_555
C21 C22 1.413 1_555 1_555
C22 C23 1.431 1_555 1_555
C24 C33 1.382 1_555 1_555
C29 C30 1.412 1_555 1_555
C32 C33 1.393 1_555 1_555
#END
