
#######################################################################
#
#                 Cambridge Crystallographic Data Centre
#                                CCDC
#
#######################################################################
#
# If this CIF has been generated from an entry in the Cambridge
# Structural Database, then it will include bibliographic, chemical,
# crystal, experimental, refinement or atomic coordinate data resulting
# from the CCDC's data processing and validation procedures.
#
#######################################################################

data_CSD_CIF_EPUBOI
_audit_creation_date 2016-06-24
_audit_creation_method CSD-ConQuest-V1
_database_code_CSD EPUBOI
_database_code_depnum_ccdc_archive 'CCDC 769334'
_chemical_formula_sum 'C30 H20'
_chemical_formula_moiety
;
C30 H20
;
_journal_coden_Cambridge 1291
_journal_year 2010
_journal_page_first 5800
_journal_name_full 'Eur.J.Org.Chem. '
loop_
_publ_author_name
"G.Pieters"
"V.Terrasson"
"A.Gaucher"
"D.Prim"
"J.Marrot"
_chemical_name_systematic
;
1,1':8',1''-ternaphthalene
;
_cell_volume   4099.130
_exptl_crystal_colour 'brown'
_exptl_crystal_density_diffrn 1.233
_exptl_crystal_description 'parallelepiped'
_diffrn_ambient_temperature 296
#These two values have been output from a single CSD field.
_refine_ls_R_factor_gt 0.0577
_refine_ls_wR_factor_gt 0.0577
_symmetry_cell_setting orthorhombic
_symmetry_space_group_name_H-M 'I b c a'
_symmetry_Int_Tables_number 73
loop_
_symmetry_equiv_pos_site_id
_symmetry_equiv_pos_as_xyz
1 x,y,z
2 1/2-x,-y,1/2+z
3 -x,1/2+y,1/2-z
4 1/2+x,1/2-y,-z
5 1/2+x,1/2+y,1/2+z
6 -x,1/2-y,z
7 1/2-x,y,-z
8 x,-y,1/2-z
9 -x,-y,-z
10 -1/2+x,y,-1/2-z
11 x,-1/2-y,-1/2+z
12 -1/2-x,-1/2+y,z
13 -1/2-x,-1/2-y,-1/2-z
14 x,-1/2+y,-z
15 -1/2+x,-y,z
16 -x,y,-1/2+z
_cell_length_a 12.4074(4)
_cell_length_b 15.0066(7)
_cell_length_c 22.0155(8)
_cell_angle_alpha 90
_cell_angle_beta 90
_cell_angle_gamma 90
_cell_formula_units_Z 8
loop_
_atom_type_symbol
_atom_type_radius_bond
C 0.68
H 0.23
loop_
_atom_site_label
_atom_site_type_symbol
_atom_site_fract_x
_atom_site_fract_y
_atom_site_fract_z
C1 C 0.42190(15) 0.10139(12) -0.03136(8)
H1 H 0.39610 0.05100 -0.01160
C2 C 0.41904(17) 0.10406(13) -0.09515(9)
H2 H 0.39060 0.05650 -0.11700
C3 C 0.45789(15) 0.17623(13) -0.12449(8)
H3 H 0.45690 0.17750 -0.16670
C4 C 0.50000 0.25000 -0.09232(9)
C5 C 0.50000 0.25000 -0.02713(8)
C6 C 0.46169(11) 0.1709(1) 0.00283(7)
C7 C 0.46246(13) 0.15652(10) 0.07010(7)
C8 C 0.36619(16) 0.15487(13) 0.10110(9)
H4 H 0.30220 0.16480 0.08020
C9 C 0.36322(19) 0.13834(16) 0.16397(10)
H5 H 0.29750 0.13840 0.18430
C10 C 0.4553(2) 0.12230(15) 0.19524(8)
H6 H 0.45210 0.11250 0.23690
C11 C 0.55612(16) 0.12032(12) 0.16534(7)
C12 C 0.56026(13) 0.13677(10) 0.10147(7)
C13 C 0.66116(14) 0.13148(13) 0.07189(8)
H7 H 0.66500 0.14190 0.03030
C14 C 0.75334(18) 0.11128(15) 0.10321(9)
H8 H 0.81890 0.10760 0.08290
C15 C 0.7486(2) 0.09602(16) 0.16653(10)
H9 H 0.81130 0.08280 0.18790
C16 C 0.6534(2) 0.10061(15) 0.19624(9)
H10 H 0.65170 0.09060 0.23790
C1E C 0.57810(15) 0.39861(12) -0.03136(8)
H1E H 0.60390 0.44900 -0.01160
C2E C 0.58096(17) 0.39594(13) -0.09515(9)
H2E H 0.60940 0.44350 -0.11700
C3E C 0.54211(15) 0.32377(13) -0.12449(8)
H3E H 0.54310 0.32250 -0.16670
C6E C 0.53831(11) 0.3291(1) 0.00283(7)
C7E C 0.53754(13) 0.34348(10) 0.07010(7)
C8E C 0.63381(16) 0.34513(13) 0.10110(9)
H4E H 0.69780 0.33520 0.08020
C9E C 0.63678(19) 0.36166(16) 0.16397(10)
H5E H 0.70250 0.36160 0.18430
C10E C 0.5447(2) 0.37770(15) 0.19524(8)
H6E H 0.54790 0.38750 0.23690
C11E C 0.44388(16) 0.37968(12) 0.16534(7)
C12E C 0.43974(13) 0.36323(10) 0.10147(7)
C13E C 0.33884(14) 0.36852(13) 0.07189(8)
H7E H 0.33500 0.35810 0.03030
C14E C 0.24666(18) 0.38872(15) 0.10321(9)
H8E H 0.18110 0.39240 0.08290
C15E C 0.2514(2) 0.40398(16) 0.16653(10)
H9E H 0.18870 0.41720 0.18790
C16E C 0.3466(2) 0.39939(15) 0.19624(9)
H10E H 0.34830 0.40940 0.23790
loop_
_geom_bond_atom_site_label_1
_geom_bond_atom_site_label_2
_geom_bond_distance
_geom_bond_site_symmetry_1
_geom_bond_site_symmetry_2
C1 H1 0.929 1_555 1_555
C2 C1 1.405 1_555 1_555
H2 C2 0.930 1_555 1_555
C3 C2 1.350 1_555 1_555
H3 C3 0.930 1_555 1_555
C4 C3 1.414 1_555 1_555
C5 C4 1.435 1_555 1_555
C6 C1 1.378 1_555 1_555
C7 C6 1.497 1_555 1_555
C8 C7 1.376 1_555 1_555
H4 C8 0.930 1_555 1_555
C9 C8 1.407 1_555 1_555
H5 C9 0.930 1_555 1_555
C10 C9 1.355 1_555 1_555
H6 C10 0.930 1_555 1_555
C11 C10 1.414 1_555 1_555
C12 C7 1.427 1_555 1_555
C13 C12 1.413 1_555 1_555
H7 C13 0.930 1_555 1_555
C14 C13 1.369 1_555 1_555
H8 C14 0.930 1_555 1_555
C15 C14 1.414 1_555 1_555
H9 C15 0.931 1_555 1_555
C16 C11 1.417 1_555 1_555
H10 C16 0.930 1_555 1_555
C1E H1E 0.929 1_555 1_555
C2E C1E 1.405 1_555 1_555
H2E C2E 0.930 1_555 1_555
C3E C4 1.414 1_555 1_555
H3E C3E 0.930 1_555 1_555
C6E C5 1.439 1_555 1_555
C7E C6E 1.497 1_555 1_555
C8E C7E 1.376 1_555 1_555
H4E C8E 0.930 1_555 1_555
C9E C8E 1.407 1_555 1_555
H5E C9E 0.930 1_555 1_555
C10E C9E 1.355 1_555 1_555
H6E C10E 0.930 1_555 1_555
C11E C10E 1.414 1_555 1_555
C12E C7E 1.427 1_555 1_555
C13E C12E 1.413 1_555 1_555
H7E C13E 0.930 1_555 1_555
C14E C13E 1.369 1_555 1_555
H8E C14E 0.930 1_555 1_555
C15E C14E 1.414 1_555 1_555
H9E C15E 0.931 1_555 1_555
C16E C11E 1.417 1_555 1_555
H10E C16E 0.930 1_555 1_555
C5 C6 1.439 1_555 1_555
C11 C12 1.429 1_555 1_555
C15 C16 1.352 1_555 1_555
C1E C6E 1.378 1_555 1_555
C2E C3E 1.350 1_555 1_555
C11E C12E 1.429 1_555 1_555
C15E C16E 1.352 1_555 1_555
#END
