
#######################################################################
#
#                 Cambridge Crystallographic Data Centre
#                                CCDC
#
#######################################################################
#
# If this CIF has been generated from an entry in the Cambridge
# Structural Database, then it will include bibliographic, chemical,
# crystal, experimental, refinement or atomic coordinate data resulting
# from the CCDC's data processing and validation procedures.
#
#######################################################################

data_CSD_CIF_EPUBEY
_audit_creation_date 2016-06-24
_audit_creation_method CSD-ConQuest-V1
_database_code_CSD EPUBEY
_database_code_depnum_ccdc_archive 'CCDC 769336'
_chemical_formula_sum 'C30 H20'
_chemical_formula_moiety
;
C30 H20
;
_journal_coden_Cambridge 1291
_journal_year 2010
_journal_page_first 5800
_journal_name_full 'Eur.J.Org.Chem. '
loop_
_publ_author_name
"G.Pieters"
"V.Terrasson"
"A.Gaucher"
"D.Prim"
"J.Marrot"
_chemical_name_systematic
;
2,1':8',2''-ternaphthalene
;
_cell_volume   4023.747
_exptl_crystal_colour 'colorless'
_exptl_crystal_density_diffrn 1.256
_exptl_crystal_description 'needle'
_diffrn_ambient_temperature 296
#These two values have been output from a single CSD field.
_refine_ls_R_factor_gt 0.0697
_refine_ls_wR_factor_gt 0.0697
_symmetry_cell_setting monoclinic
_symmetry_space_group_name_H-M 'P 21/c'
_symmetry_Int_Tables_number 14
loop_
_symmetry_equiv_pos_site_id
_symmetry_equiv_pos_as_xyz
1 x,y,z
2 -x,1/2+y,1/2-z
3 -x,-y,-z
4 x,-1/2-y,-1/2+z
_cell_length_a 15.3717(13)
_cell_length_b 40.355(4)
_cell_length_c 6.4955(6)
_cell_angle_alpha 90
_cell_angle_beta 93.014(2)
_cell_angle_gamma 90
_cell_formula_units_Z 8
loop_
_atom_type_symbol
_atom_type_radius_bond
C 0.68
H 0.23
loop_
_atom_site_label
_atom_site_type_symbol
_atom_site_fract_x
_atom_site_fract_y
_atom_site_fract_z
C1 C 0.7654(2) 0.31876(8) 0.0592(5)
C2 C 0.6763(2) 0.32376(9) 0.1107(5)
C3 C 0.6130(2) 0.30302(10) 0.0267(6)
H1 H 0.55570 0.30610 0.06190
C4 C 0.6313(3) 0.27742(11) -0.1093(7)
H2 H 0.58660 0.26390 -0.16250
C5 C 0.7140(3) 0.27243(10) -0.1635(6)
H3 H 0.72590 0.25560 -0.25530
C6 C 0.7824(2) 0.29258(9) -0.0821(6)
C7 C 0.8678(3) 0.2865(1) -0.1415(6)
H4 H 0.87790 0.26910 -0.23140
C8 C 0.9351(3) 0.30540(11) -0.0702(7)
H5 H 0.99100 0.30130 -0.11260
C9 C 0.9204(2) 0.33117(10) 0.0680(6)
H6 H 0.96740 0.34410 0.11510
C10 C 0.8393(2) 0.33813(8) 0.1371(5)
C11 C 0.8343(2) 0.36539(9) 0.2913(5)
C12 C 0.8100(2) 0.35888(10) 0.4945(6)
H7 H 0.79970 0.33710 0.53360
C13 C 0.8014(2) 0.38356(10) 0.6335(6)
H8 H 0.78620 0.37840 0.76640
C14 C 0.8152(2) 0.41693(10) 0.5790(6)
C15 C 0.7991(2) 0.44351(11) 0.7133(7)
H9 H 0.77870 0.43920 0.84290
C16 C 0.8132(3) 0.47543(12) 0.6548(8)
H10 H 0.80220 0.49270 0.74430
C17 C 0.8441(3) 0.48222(11) 0.4602(8)
H11 H 0.85470 0.50400 0.42270
C18 C 0.8587(2) 0.45733(10) 0.3254(7)
H12 H 0.87820 0.46230 0.19580
C19 C 0.8445(2) 0.42385(9) 0.3812(6)
C20 C 0.8543(2) 0.39741(9) 0.2400(6)
H13 H 0.87470 0.40190 0.11050
C21 C 0.6441(2) 0.35019(9) 0.2489(6)
C22 C 0.6095(2) 0.34057(10) 0.4375(6)
H14 H 0.60830 0.31820 0.47220
C23 C 0.5776(3) 0.36346(11) 0.5700(7)
H15 H 0.55560 0.35660 0.69380
C24 C 0.5782(2) 0.39705(10) 0.5184(6)
C25 C 0.5483(2) 0.42173(12) 0.6589(8)
H16 H 0.52650 0.41530 0.78370
C26 C 0.5519(3) 0.45438(13) 0.6087(9)
H17 H 0.53290 0.47040 0.69920
C27 C 0.5846(3) 0.46393(12) 0.4193(9)
H18 H 0.58710 0.48630 0.38710
C28 C 0.6128(3) 0.44137(10) 0.2816(8)
H19 H 0.63290 0.44830 0.15620
C29 C 0.6109(2) 0.40763(10) 0.3311(6)
C30 C 0.6425(2) 0.38278(9) 0.1946(6)
H20 H 0.66200 0.38910 0.06730
C31 C 0.7678(2) 0.69047(7) 0.4826(5)
C32 C 0.6841(2) 0.67795(8) 0.4079(6)
C33 C 0.6101(2) 0.69317(9) 0.4731(6)
H21 H 0.55630 0.68570 0.42040
C34 C 0.6121(3) 0.71928(10) 0.6145(7)
H22 H 0.56050 0.72880 0.65460
C35 C 0.6893(3) 0.73055(10) 0.6918(6)
H23 H 0.69070 0.74770 0.78760
C36 C 0.7685(2) 0.71682(8) 0.6299(5)
C37 C 0.8475(3) 0.73016(9) 0.7129(5)
H24 H 0.84650 0.74760 0.80640
C38 C 0.9249(3) 0.71783(9) 0.6580(6)
H25 H 0.97680 0.72640 0.71560
C39 C 0.9262(2) 0.69208(8) 0.5141(5)
H26 H 0.97980 0.68370 0.47910
C40 C 0.8518(2) 0.67864(8) 0.4219(5)
C41 C 0.86389(19) 0.65275(8) 0.2639(5)
C42 C 0.8321(2) 0.65721(8) 0.0563(5)
H27 H 0.80460 0.67690 0.01770
C43 C 0.8413(2) 0.63304(9) -0.0862(5)
H28 H 0.81920 0.63640 -0.22050
C44 C 0.8839(2) 0.60282(8) -0.0353(5)
C45 C 0.8905(2) 0.57650(9) -0.1780(6)
H29 H 0.86610 0.57870 -0.31140
C46 C 0.9321(3) 0.54815(10) -0.1207(7)
H30 H 0.93680 0.53110 -0.21560
C47 C 0.9681(3) 0.54431(10) 0.0804(7)
H31 H 0.99580 0.52450 0.11790
C48 C 0.9634(2) 0.56892(9) 0.2214(6)
H32 H 0.98880 0.56610 0.35340
C49 C 0.9203(2) 0.59877(8) 0.1685(5)
C50 C 0.9105(2) 0.62448(8) 0.3133(6)
H33 H 0.93630 0.62220 0.44530
C51 C 0.6685(2) 0.64933(8) 0.2647(5)
C52 C 0.6246(2) 0.65511(10) 0.0694(6)
H34 H 0.60690 0.67650 0.03380
C53 C 0.6081(2) 0.62978(10) -0.0660(6)
H35 H 0.57890 0.63410 -0.19220
C54 C 0.6348(2) 0.59731(10) -0.0173(6)
C55 C 0.6216(3) 0.57056(12) -0.1566(7)
H36 H 0.59370 0.57430 -0.28510
C56 C 0.6491(3) 0.53964(12) -0.1048(9)
H37 H 0.64110 0.52240 -0.19910
C57 C 0.6894(3) 0.53339(11) 0.0888(9)
H38 H 0.70770 0.51200 0.12290
C58 C 0.7021(3) 0.55843(9) 0.2284(7)
H39 H 0.72820 0.55390 0.35770
C59 C 0.6762(2) 0.59104(8) 0.1789(6)
C60 C 0.6909(2) 0.61771(8) 0.3180(6)
H40 H 0.71650 0.61360 0.44830
loop_
_geom_bond_atom_site_label_1
_geom_bond_atom_site_label_2
_geom_bond_distance
_geom_bond_site_symmetry_1
_geom_bond_site_symmetry_2
C1 C2 1.441 1_555 1_555
C2 C3 1.374 1_555 1_555
C3 H1 0.930 1_555 1_555
C4 C3 1.397 1_555 1_555
H2 C4 0.930 1_555 1_555
C5 C4 1.352 1_555 1_555
H3 C5 0.928 1_555 1_555
C6 C1 1.433 1_555 1_555
C7 C6 1.409 1_555 1_555
H4 C7 0.931 1_555 1_555
C8 C7 1.348 1_555 1_555
H5 C8 0.931 1_555 1_555
C9 C8 1.400 1_555 1_555
H6 C9 0.930 1_555 1_555
C10 C1 1.448 1_555 1_555
C11 C10 1.492 1_555 1_555
C12 C11 1.415 1_555 1_555
H7 C12 0.931 1_555 1_555
C13 C12 1.355 1_555 1_555
H8 C13 0.930 1_555 1_555
C14 C13 1.411 1_555 1_555
C15 C14 1.413 1_555 1_555
H9 C15 0.930 1_555 1_555
C16 C15 1.364 1_555 1_555
H10 C16 0.929 1_555 1_555
C17 C16 1.401 1_555 1_555
H11 C17 0.929 1_555 1_555
C18 C17 1.359 1_555 1_555
H12 C18 0.930 1_555 1_555
C19 C14 1.412 1_555 1_555
C20 C11 1.373 1_555 1_555
H13 C20 0.931 1_555 1_555
C21 C2 1.495 1_555 1_555
C22 C21 1.415 1_555 1_555
H14 C22 0.931 1_555 1_555
C23 C22 1.371 1_555 1_555
H15 C23 0.931 1_555 1_555
C24 C23 1.396 1_555 1_555
C25 C24 1.442 1_555 1_555
H16 C25 0.930 1_555 1_555
C26 C25 1.359 1_555 1_555
H17 C26 0.931 1_555 1_555
C27 C26 1.407 1_555 1_555
H18 C27 0.928 1_555 1_555
C28 C27 1.363 1_555 1_555
H19 C28 0.929 1_555 1_555
C29 C24 1.407 1_555 1_555
C30 C21 1.362 1_555 1_555
H20 C30 0.930 1_555 1_555
C31 C32 1.442 1_555 1_555
C32 C33 1.379 1_555 1_555
C33 H21 0.929 1_555 1_555
C34 C33 1.397 1_555 1_555
H22 C34 0.931 1_555 1_555
C35 C34 1.343 1_555 1_555
H23 C35 0.930 1_555 1_555
C36 C31 1.430 1_555 1_555
C37 C36 1.409 1_555 1_555
H24 C37 0.930 1_555 1_555
C38 C37 1.355 1_555 1_555
H25 C38 0.930 1_555 1_555
C39 C38 1.399 1_555 1_555
H26 C39 0.930 1_555 1_555
C40 C31 1.451 1_555 1_555
C41 C40 1.483 1_555 1_555
C42 C41 1.421 1_555 1_555
H27 C42 0.928 1_555 1_555
C43 C42 1.357 1_555 1_555
H28 C43 0.929 1_555 1_555
C44 C43 1.415 1_555 1_555
C45 C44 1.417 1_555 1_555
H29 C45 0.930 1_555 1_555
C46 C45 1.353 1_555 1_555
H30 C46 0.929 1_555 1_555
C47 C46 1.400 1_555 1_555
H31 C47 0.932 1_555 1_555
C48 C47 1.355 1_555 1_555
H32 C48 0.930 1_555 1_555
C49 C44 1.419 1_555 1_555
C50 C41 1.376 1_555 1_555
H33 C50 0.930 1_555 1_555
C51 C32 1.494 1_555 1_555
C52 C51 1.424 1_555 1_555
H34 C52 0.931 1_555 1_555
C53 C52 1.364 1_555 1_555
H35 C53 0.930 1_555 1_555
C54 C53 1.404 1_555 1_555
C55 C54 1.416 1_555 1_555
H36 C55 0.930 1_555 1_555
C56 C55 1.354 1_555 1_555
H37 C56 0.931 1_555 1_555
C57 C56 1.395 1_555 1_555
H38 C57 0.931 1_555 1_555
C58 C57 1.365 1_555 1_555
H39 C58 0.930 1_555 1_555
C59 C54 1.417 1_555 1_555
C60 C51 1.362 1_555 1_555
H40 C60 0.929 1_555 1_555
C5 C6 1.410 1_555 1_555
C9 C10 1.376 1_555 1_555
C18 C19 1.419 1_555 1_555
C19 C20 1.420 1_555 1_555
C28 C29 1.400 1_555 1_555
C29 C30 1.440 1_555 1_555
C35 C36 1.415 1_555 1_555
C39 C40 1.374 1_555 1_555
C48 C49 1.409 1_555 1_555
C49 C50 1.414 1_555 1_555
C58 C59 1.407 1_555 1_555
C59 C60 1.416 1_555 1_555
#END
