
#######################################################################
#
#                 Cambridge Crystallographic Data Centre
#                                CCDC
#
#######################################################################
#
# If this CIF has been generated from an entry in the Cambridge
# Structural Database, then it will include bibliographic, chemical,
# crystal, experimental, refinement or atomic coordinate data resulting
# from the CCDC's data processing and validation procedures.
#
#######################################################################

data_CSD_CIF_EPUBIC
_audit_creation_date 2016-06-24
_audit_creation_method CSD-ConQuest-V1
_database_code_CSD EPUBIC
_database_code_depnum_ccdc_archive 'CCDC 769335'
_chemical_formula_sum 'C26 H24'
_chemical_formula_moiety
;
C26 H24
;
_journal_coden_Cambridge 1291
_journal_year 2010
_journal_page_first 5800
_journal_name_full 'Eur.J.Org.Chem. '
loop_
_publ_author_name
"G.Pieters"
"V.Terrasson"
"A.Gaucher"
"D.Prim"
"J.Marrot"
_chemical_name_systematic
;
1,8-bis(3,5-dimethylphenyl)naphthalene
;
_cell_volume    943.171
_exptl_crystal_colour 'colorless'
_exptl_crystal_density_diffrn 1.185
_exptl_crystal_description 'parallelepiped'
_diffrn_ambient_temperature 100
#These two values have been output from a single CSD field.
_refine_ls_R_factor_gt 0.0498
_refine_ls_wR_factor_gt 0.0498
_symmetry_cell_setting triclinic
_symmetry_space_group_name_H-M 'P -1'
_symmetry_Int_Tables_number 2
loop_
_symmetry_equiv_pos_site_id
_symmetry_equiv_pos_as_xyz
1 x,y,z
2 -x,-y,-z
_cell_length_a 7.7878(4)
_cell_length_b 10.2260(5)
_cell_length_c 12.3632(7)
_cell_angle_alpha 84.609(3)
_cell_angle_beta 88.933(3)
_cell_angle_gamma 74.201(3)
_cell_formula_units_Z 2
loop_
_atom_type_symbol
_atom_type_radius_bond
C 0.68
H 0.23
loop_
_atom_site_label
_atom_site_type_symbol
_atom_site_fract_x
_atom_site_fract_y
_atom_site_fract_z
C1 C 0.74461(18) 0.50401(14) 0.76841(11)
H1 H 0.80370 0.54820 0.81390
C2 C 0.84582(18) 0.38823(14) 0.72056(12)
H2 H 0.96990 0.35340 0.73560
C3 C 0.76329(18) 0.32667(14) 0.65230(11)
H3 H 0.83140 0.25000 0.61810
C4 C 0.57738(18) 0.37567(13) 0.63175(11)
C5 C 0.49885(19) 0.31096(14) 0.55748(11)
H4 H 0.57130 0.23560 0.52360
C6 C 0.3206(2) 0.35539(14) 0.53401(11)
H5 H 0.26990 0.31430 0.48170
C7 C 0.21307(19) 0.46282(14) 0.58839(11)
H6 H 0.08870 0.49190 0.57290
C8 C 0.28101(17) 0.52796(13) 0.6636(1)
C9 C 0.47043(17) 0.48956(13) 0.6843(1)
C10 C 0.56292(17) 0.55614(13) 0.75193(11)
C11 C 0.48018(17) 0.68317(13) 0.80525(11)
C12 C 0.39339(18) 0.80521(14) 0.74535(11)
H7 H 0.38410 0.80760 0.66860
C13 C 0.32010(18) 0.92367(14) 0.79621(12)
C14 C 0.33648(19) 0.91855(14) 0.90908(12)
H8 H 0.28570 0.99860 0.94450
C15 C 0.42562(19) 0.79879(14) 0.97105(11)
C16 C 0.49770(17) 0.68247(14) 0.91786(11)
H9 H 0.56030 0.60060 0.95880
C17 C 0.14536(17) 0.63212(14) 0.71949(11)
C18 C 0.02532(18) 0.73793(14) 0.65735(11)
H10 H 0.03560 0.74490 0.58050
C19 C -0.10937(18) 0.83358(14) 0.70611(12)
C20 C -0.12261(18) 0.82151(14) 0.81891(12)
H11 H -0.21380 0.88610 0.85290
C21 C -0.00488(18) 0.71657(14) 0.88324(11)
C22 C 0.12742(17) 0.62182(14) 0.83238(11)
H12 H 0.20670 0.54910 0.87520
C23 C 0.2226(2) 1.05422(15) 0.73080(13)
H13 H 0.28970 1.12220 0.73350
H14 H 0.10350 1.08900 0.76120
H15 H 0.21130 1.03610 0.65520
C24 C 0.4406(2) 0.79455(16) 1.09310(12)
H16 H 0.32910 0.78460 1.12650
H17 H 0.46260 0.87940 1.11230
H18 H 0.53960 0.71690 1.11970
C25 C -0.2388(2) 0.94685(15) 0.63788(13)
H19 H -0.33410 0.91240 0.61090
H20 H -0.17570 0.97940 0.57620
H21 H -0.29060 1.02230 0.68220
C26 C -0.0204(2) 0.70599(17) 1.00521(12)
H22 H 0.04610 0.61440 1.03530
H23 H -0.14630 0.72260 1.02530
H24 H 0.02900 0.77410 1.03430
loop_
_geom_bond_atom_site_label_1
_geom_bond_atom_site_label_2
_geom_bond_distance
_geom_bond_site_symmetry_1
_geom_bond_site_symmetry_2
C1 H1 0.950 1_555 1_555
C2 C1 1.407 1_555 1_555
H2 C2 0.950 1_555 1_555
C3 C2 1.365 1_555 1_555
H3 C3 0.950 1_555 1_555
C4 C3 1.417 1_555 1_555
C5 C4 1.418 1_555 1_555
H4 C5 0.950 1_555 1_555
C6 C5 1.365 1_555 1_555
H5 C6 0.950 1_555 1_555
C7 C6 1.406 1_555 1_555
H6 C7 0.950 1_555 1_555
C8 C7 1.384 1_555 1_555
C9 C4 1.437 1_555 1_555
C10 C1 1.381 1_555 1_555
C11 C10 1.492 1_555 1_555
C12 C11 1.396 1_555 1_555
H7 C12 0.950 1_555 1_555
C13 C12 1.394 1_555 1_555
C14 C13 1.398 1_555 1_555
H8 C14 0.950 1_555 1_555
C15 C14 1.396 1_555 1_555
C16 C11 1.401 1_555 1_555
H9 C16 0.950 1_555 1_555
C17 C8 1.492 1_555 1_555
C18 C17 1.398 1_555 1_555
H10 C18 0.950 1_555 1_555
C19 C18 1.396 1_555 1_555
C20 C19 1.393 1_555 1_555
H11 C20 0.950 1_555 1_555
C21 C20 1.398 1_555 1_555
C22 C17 1.397 1_555 1_555
H12 C22 0.950 1_555 1_555
C23 C13 1.510 1_555 1_555
H13 C23 0.980 1_555 1_555
H14 C23 0.980 1_555 1_555
H15 C23 0.980 1_555 1_555
C24 C15 1.511 1_555 1_555
H16 C24 0.981 1_555 1_555
H17 C24 0.980 1_555 1_555
H18 C24 0.980 1_555 1_555
C25 C19 1.510 1_555 1_555
H19 C25 0.980 1_555 1_555
H20 C25 0.980 1_555 1_555
H21 C25 0.980 1_555 1_555
C26 C21 1.507 1_555 1_555
H22 C26 0.981 1_555 1_555
H23 C26 0.980 1_555 1_555
H24 C26 0.980 1_555 1_555
C8 C9 1.441 1_555 1_555
C9 C10 1.441 1_555 1_555
C15 C16 1.390 1_555 1_555
C21 C22 1.394 1_555 1_555
#END
