
#######################################################################
#
#                 Cambridge Crystallographic Data Centre
#                                CCDC
#
#######################################################################
#
# If this CIF has been generated from an entry in the Cambridge
# Structural Database, then it will include bibliographic, chemical,
# crystal, experimental, refinement or atomic coordinate data resulting
# from the CCDC's data processing and validation procedures.
#
#######################################################################

data_CSD_CIF_EPUCAV
_audit_creation_date 2016-06-24
_audit_creation_method CSD-ConQuest-V1
_database_code_CSD EPUCAV
_database_code_depnum_ccdc_archive 'CCDC 769332'
_chemical_formula_sum 'C24 H20'
_chemical_formula_moiety
;
C24 H20
;
_journal_coden_Cambridge 1291
_journal_year 2010
_journal_page_first 5800
_journal_name_full 'Eur.J.Org.Chem. '
loop_
_publ_author_name
"G.Pieters"
"V.Terrasson"
"A.Gaucher"
"D.Prim"
"J.Marrot"
_chemical_name_systematic
;
1,8-bis(2-methylphenyl)naphthalene
;
_cell_volume   1711.022
_exptl_crystal_colour 'colorless'
_exptl_crystal_density_diffrn 1.197
_exptl_crystal_description 'platelet'
_diffrn_ambient_temperature 296
#These two values have been output from a single CSD field.
_refine_ls_R_factor_gt 0.0752
_refine_ls_wR_factor_gt 0.0752
_symmetry_cell_setting monoclinic
_symmetry_space_group_name_H-M 'P 21/c'
_symmetry_Int_Tables_number 14
loop_
_symmetry_equiv_pos_site_id
_symmetry_equiv_pos_as_xyz
1 x,y,z
2 -x,1/2+y,1/2-z
3 -x,-y,-z
4 x,-1/2-y,-1/2+z
_cell_length_a 16.5078(8)
_cell_length_b 7.5895(4)
_cell_length_c 15.4130(8)
_cell_angle_alpha 90
_cell_angle_beta 117.617(2)
_cell_angle_gamma 90
_cell_formula_units_Z 4
loop_
_atom_type_symbol
_atom_type_radius_bond
C 0.68
H 0.23
loop_
_atom_site_label
_atom_site_type_symbol
_atom_site_fract_x
_atom_site_fract_y
_atom_site_fract_z
C1 C 0.1325(2) 0.4519(4) 0.1506(2)
H1 H 0.14730 0.41870 0.10160
C2 C 0.0679(2) 0.5847(5) 0.1306(3)
H2 H 0.04000 0.63750 0.06910
C3 C 0.0461(2) 0.6363(4) 0.2010(2)
H3 H 0.00340 0.72560 0.18790
C4 C 0.08742(18) 0.5561(4) 0.2948(2)
C5 C 0.0618(2) 0.6129(4) 0.3659(3)
H4 H 0.01850 0.70170 0.35060
C6 C 0.0999(2) 0.5391(5) 0.4564(3)
H5 H 0.08270 0.57690 0.50280
C7 C 0.1654(2) 0.4056(4) 0.4794(2)
H6 H 0.19140 0.35710 0.54190
C8 C 0.19278(18) 0.3434(4) 0.4131(2)
C9 C 0.15385(16) 0.4187(3) 0.31665(19)
C10 C 0.17540(18) 0.3678(4) 0.2398(2)
C11 C 0.23996(19) 0.2222(4) 0.24604(18)
C12 C 0.2101(2) 0.0469(4) 0.2366(2)
H7 H 0.15300 0.02310 0.23210
C13 C 0.2629(3) -0.0900(5) 0.2337(3)
H8 H 0.24220 -0.20540 0.22820
C14 C 0.3460(3) -0.0554(5) 0.2391(3)
H9 H 0.38230 -0.14800 0.23780
C15 C 0.3768(3) 0.1153(5) 0.2464(3)
H10 H 0.43350 0.13620 0.24920
C16 C 0.3245(2) 0.2578(4) 0.2497(2)
C17 C 0.2601(2) 0.1926(4) 0.4504(2)
C18 C 0.2238(3) 0.0176(4) 0.4482(3)
H11 H 0.16100 0.00030 0.42130
C19 C 0.2826(3) -0.1224(5) 0.4862(3)
H12 H 0.26020 -0.23530 0.48490
C20 C 0.3754(3) -0.0926(6) 0.5263(3)
H13 H 0.41480 -0.18840 0.54980
C21 C 0.4111(3) 0.0682(6) 0.5328(3)
H14 H 0.47420 0.08260 0.56250
C22 C 0.3527(2) 0.2179(5) 0.4943(2)
C23 C 0.3586(3) 0.4412(5) 0.2543(3)
H15 H 0.42410 0.44210 0.29060
H16 H 0.33360 0.51590 0.28620
H17 H 0.34010 0.48360 0.18910
C24 C 0.3895(3) 0.3944(6) 0.5021(3)
H18 H 0.35230 0.45910 0.44340
H19 H 0.45090 0.38730 0.51090
H20 H 0.38950 0.45340 0.55730
loop_
_geom_bond_atom_site_label_1
_geom_bond_atom_site_label_2
_geom_bond_distance
_geom_bond_site_symmetry_1
_geom_bond_site_symmetry_2
C1 H1 0.930 1_555 1_555
C2 C1 1.394 1_555 1_555
H2 C2 0.931 1_555 1_555
C3 C2 1.350 1_555 1_555
H3 C3 0.930 1_555 1_555
C4 C3 1.418 1_555 1_555
C5 C4 1.413 1_555 1_555
H4 C5 0.930 1_555 1_555
C6 C5 1.357 1_555 1_555
H5 C6 0.929 1_555 1_555
C7 C6 1.402 1_555 1_555
H6 C7 0.930 1_555 1_555
C8 C7 1.378 1_555 1_555
C9 C4 1.436 1_555 1_555
C10 C1 1.377 1_555 1_555
C11 C10 1.507 1_555 1_555
C12 C11 1.403 1_555 1_555
H7 C12 0.930 1_555 1_555
C13 C12 1.370 1_555 1_555
H8 C13 0.930 1_555 1_555
C14 C13 1.361 1_555 1_555
H9 C14 0.930 1_555 1_555
C15 C14 1.377 1_555 1_555
H10 C15 0.930 1_555 1_555
C16 C11 1.397 1_555 1_555
C17 C8 1.511 1_555 1_555
C18 C17 1.451 1_555 1_555
H11 C18 0.930 1_555 1_555
C19 C18 1.374 1_555 1_555
H12 C19 0.930 1_555 1_555
C20 C19 1.379 1_555 1_555
H13 C20 0.930 1_555 1_555
C21 C20 1.339 1_555 1_555
H14 C21 0.930 1_555 1_555
C22 C17 1.368 1_555 1_555
C23 C16 1.491 1_555 1_555
H15 C23 0.960 1_555 1_555
H16 C23 0.960 1_555 1_555
H17 C23 0.960 1_555 1_555
C24 C22 1.453 1_555 1_555
H18 C24 0.960 1_555 1_555
H19 C24 0.960 1_555 1_555
H20 C24 0.961 1_555 1_555
C8 C9 1.437 1_555 1_555
C9 C10 1.439 1_555 1_555
C15 C16 1.399 1_555 1_555
C21 C22 1.429 1_555 1_555
#END
