
#######################################################################
#
#                 Cambridge Crystallographic Data Centre
#                                CCDC
#
#######################################################################
#
# If this CIF has been generated from an entry in the Cambridge
# Structural Database, then it will include bibliographic, chemical,
# crystal, experimental, refinement or atomic coordinate data resulting
# from the CCDC's data processing and validation procedures.
#
#######################################################################

data_CSD_CIF_EQULOT
_audit_creation_date 2016-07-28
_audit_creation_method CSD-ConQuest-V1
_database_code_CSD EQULOT
_database_code_depnum_ccdc_archive 'CCDC 1496601'
_chemical_formula_sum 'C30 H20'
_chemical_formula_moiety
;
C30 H20
;
_journal_coden_Cambridge 1078
_journal_year 2016
_journal_name_full 'CSD Communication(Private Communication) '
loop_
_publ_author_name
"J.M.W.R.Goh"
_chemical_name_systematic
;
1,4-diphenyltriphenylene
;
_cell_volume   1935.784
_exptl_crystal_colour 'colorless'
_exptl_crystal_density_diffrn 1.305
_exptl_crystal_description 'block'
_diffrn_ambient_temperature 130
#These two values have been output from a single CSD field.
_refine_ls_R_factor_gt 0.0402
_refine_ls_wR_factor_gt 0.0402
_symmetry_cell_setting triclinic
_symmetry_space_group_name_H-M 'P -1'
_symmetry_Int_Tables_number 2
loop_
_symmetry_equiv_pos_site_id
_symmetry_equiv_pos_as_xyz
1 x,y,z
2 -x,-y,-z
_cell_length_a 11.5275(8)
_cell_length_b 13.0003(9)
_cell_length_c 14.8512(10)
_cell_angle_alpha 105.163(1)
_cell_angle_beta 106.095(1)
_cell_angle_gamma 104.428(1)
_cell_formula_units_Z 4
loop_
_atom_type_symbol
_atom_type_radius_bond
C 0.68
H 0.23
loop_
_atom_site_label
_atom_site_type_symbol
_atom_site_fract_x
_atom_site_fract_y
_atom_site_fract_z
C1 C 0.64326(15) 0.23488(13) 0.21679(11)
H1 H 0.61000 0.17110 0.23380
C2 C 0.58395(14) 0.31537(12) 0.22051(11)
C3 C 0.63669(14) 0.41180(12) 0.19645(11)
C4 C 0.76047(14) 0.43208(12) 0.19027(11)
C5 C 0.81139(14) 0.34260(12) 0.17707(11)
C6 C 0.74967(15) 0.24439(13) 0.18910(11)
H2 H 0.78050 0.18260 0.17830
C7 C 0.56597(14) 0.48608(12) 0.16719(10)
C8 C 0.43169(15) 0.45372(13) 0.13871(11)
H3 H 0.38560 0.38680 0.14600
C9 C 0.36489(15) 0.51686(13) 0.10027(11)
H4 H 0.27430 0.49400 0.08300
C10 C 0.42960(15) 0.61352(13) 0.08672(11)
H5 H 0.38360 0.65690 0.06030
C11 C 0.55990(15) 0.64580(12) 0.11171(11)
H6 H 0.60360 0.71120 0.10100
C12 C 0.63100(14) 0.58477(12) 0.15286(11)
C13 C 0.77058(14) 0.62203(12) 0.18072(11)
C14 C 0.84376(15) 0.73183(12) 0.19194(11)
H7 H 0.80110 0.78240 0.17660
C15 C 0.97554(15) 0.76742(13) 0.22468(11)
H8 H 1.02320 0.84070 0.22900
C16 C 1.03947(15) 0.69568(13) 0.25169(11)
H9 H 1.13090 0.72170 0.27830
C17 C 0.96995(15) 0.58779(13) 0.23966(11)
H10 H 1.01410 0.53940 0.25800
C18 C 0.83450(15) 0.54686(12) 0.20080(11)
C19 C 0.47705(15) 0.29757(13) 0.25961(11)
C20 C 0.39005(15) 0.18851(13) 0.23221(11)
H11 H 0.39150 0.12750 0.18120
C21 C 0.30166(15) 0.16741(14) 0.27785(12)
H12 H 0.24350 0.09240 0.25840
C22 C 0.29793(16) 0.25554(14) 0.35185(12)
H13 H 0.23780 0.24120 0.38370
C23 C 0.38196(16) 0.36427(14) 0.37910(12)
H14 H 0.37860 0.42500 0.42920
C24 C 0.47119(15) 0.38577(14) 0.33424(11)
H15 H 0.52900 0.46100 0.35420
C25 C 0.91691(14) 0.34135(12) 0.13765(11)
C26 C 0.91640(15) 0.37314(12) 0.05453(11)
H16 H 0.85730 0.40820 0.03060
C27 C 0.99990(15) 0.35449(13) 0.00696(12)
H17 H 0.99810 0.37650 -0.04940
C28 C 1.08683(15) 0.30358(13) 0.04112(12)
H18 H 1.14210 0.28770 0.00660
C29 C 1.09248(16) 0.27614(14) 0.12552(12)
H19 H 1.15430 0.24420 0.15080
C30 C 1.00840(15) 0.29490(13) 0.17356(12)
H20 H 1.01330 0.27580 0.23170
C31 C 0.73187(16) 0.96511(13) 0.51786(12)
H21 H 0.72970 0.94330 0.57380
C32 C 0.62766(15) 0.91052(13) 0.42848(11)
C33 C 0.63616(15) 0.94069(12) 0.34396(11)
C34 C 0.75689(15) 1.01081(12) 0.35067(11)
C35 C 0.85417(15) 1.07650(13) 0.44622(11)
C36 C 0.83925(16) 1.05068(13) 0.52820(12)
H22 H 0.90420 1.09270 0.59280
C37 C 0.52366(15) 0.91175(12) 0.25284(11)
C38 C 0.39770(15) 0.88716(13) 0.25312(12)
H23 H 0.38350 0.88250 0.31220
C39 C 0.29498(16) 0.86979(13) 0.17020(12)
H24 H 0.21080 0.85190 0.17210
C40 C 0.31344(16) 0.87822(13) 0.08327(12)
H25 H 0.24240 0.86620 0.02580
C41 C 0.43533(15) 0.90402(12) 0.08152(11)
H26 H 0.44790 0.91010 0.02230
C42 C 0.54178(15) 0.92159(12) 0.16478(11)
C43 C 0.67243(15) 0.95273(12) 0.16400(11)
C44 C 0.69477(16) 0.93251(13) 0.07376(12)
H27 H 0.62360 0.89780 0.01180
C45 C 0.81779(16) 0.96198(13) 0.07335(12)
H28 H 0.83140 0.94810 0.01170
C46 C 0.92188(16) 1.01209(13) 0.16371(12)
H29 H 1.00700 1.03320 0.16380
C47 C 0.90263(15) 1.03140(12) 0.25309(12)
H30 H 0.97490 1.06430 0.31430
C48 C 0.77751(15) 1.00329(12) 0.25560(11)
C49 C 0.51595(15) 0.81969(13) 0.42546(11)
C50 C 0.46508(16) 0.84068(14) 0.50069(12)
H31 H 0.50010 0.91330 0.55230
C51 C 0.36412(17) 0.75664(15) 0.50073(13)
H32 H 0.33030 0.77190 0.55230
C52 C 0.31231(17) 0.65070(15) 0.42601(13)
H33 H 0.24230 0.59330 0.42560
C53 C 0.36307(16) 0.62858(14) 0.35164(13)
H34 H 0.32810 0.55570 0.30040
C54 C 0.46439(15) 0.71222(13) 0.35170(12)
H35 H 0.49910 0.69600 0.30080
C55 C 0.96278(15) 1.18158(13) 0.46809(11)
C56 C 0.93981(16) 1.26282(13) 0.42684(12)
H36 H 0.85730 1.24630 0.37880
C57 C 1.03414(16) 1.36644(13) 0.45420(12)
H37 H 1.01630 1.42020 0.42490
C58 C 1.15491(16) 1.39209(14) 0.52444(12)
H38 H 1.21990 1.46370 0.54420
C59 C 1.17997(16) 1.31242(14) 0.56557(12)
H39 H 1.26290 1.32930 0.61330
C60 C 1.08539(15) 1.20821(14) 0.53780(12)
H40 H 1.10420 1.15420 0.56650
loop_
_geom_bond_atom_site_label_1
_geom_bond_atom_site_label_2
_geom_bond_distance
_geom_bond_site_symmetry_1
_geom_bond_site_symmetry_2
C1 H1 0.950 1_555 1_555
C2 C1 1.383 1_555 1_555
C3 C2 1.430 1_555 1_555
C4 C3 1.418 1_555 1_555
C5 C4 1.422 1_555 1_555
C6 C1 1.386 1_555 1_555
H2 C6 0.951 1_555 1_555
C7 C3 1.484 1_555 1_555
C8 C7 1.404 1_555 1_555
H3 C8 0.950 1_555 1_555
C9 C8 1.382 1_555 1_555
H4 C9 0.950 1_555 1_555
C10 C9 1.387 1_555 1_555
H5 C10 0.950 1_555 1_555
C11 C10 1.366 1_555 1_555
H6 C11 0.951 1_555 1_555
C12 C7 1.416 1_555 1_555
C13 C12 1.460 1_555 1_555
C14 C13 1.405 1_555 1_555
H7 C14 0.950 1_555 1_555
C15 C14 1.371 1_555 1_555
H8 C15 0.949 1_555 1_555
C16 C15 1.396 1_555 1_555
H9 C16 0.950 1_555 1_555
C17 C16 1.368 1_555 1_555
H10 C17 0.949 1_555 1_555
C18 C4 1.466 1_555 1_555
C19 C2 1.495 1_555 1_555
C20 C19 1.395 1_555 1_555
H11 C20 0.950 1_555 1_555
C21 C20 1.383 1_555 1_555
H12 C21 0.950 1_555 1_555
C22 C21 1.384 1_555 1_555
H13 C22 0.950 1_555 1_555
C23 C22 1.379 1_555 1_555
H14 C23 0.950 1_555 1_555
C24 C19 1.401 1_555 1_555
H15 C24 0.950 1_555 1_555
C25 C5 1.491 1_555 1_555
C26 C25 1.400 1_555 1_555
H16 C26 0.950 1_555 1_555
C27 C26 1.374 1_555 1_555
H17 C27 0.949 1_555 1_555
C28 C27 1.387 1_555 1_555
H18 C28 0.950 1_555 1_555
C29 C28 1.379 1_555 1_555
H19 C29 0.950 1_555 1_555
C30 C25 1.391 1_555 1_555
H20 C30 0.950 1_555 1_555
C31 H21 0.950 1_555 1_555
C32 C31 1.381 1_555 1_555
C33 C32 1.430 1_555 1_555
C34 C33 1.422 1_555 1_555
C35 C34 1.417 1_555 1_555
C36 C31 1.383 1_555 1_555
H22 C36 0.950 1_555 1_555
C37 C33 1.474 1_555 1_555
C38 C37 1.408 1_555 1_555
H23 C38 0.950 1_555 1_555
C39 C38 1.372 1_555 1_555
H24 C39 0.950 1_555 1_555
C40 C39 1.392 1_555 1_555
H25 C40 0.950 1_555 1_555
C41 C40 1.370 1_555 1_555
H26 C41 0.950 1_555 1_555
C42 C37 1.413 1_555 1_555
C43 C42 1.463 1_555 1_555
C44 C43 1.404 1_555 1_555
H27 C44 0.950 1_555 1_555
C45 C44 1.376 1_555 1_555
H28 C45 0.950 1_555 1_555
C46 C45 1.388 1_555 1_555
H29 C46 0.950 1_555 1_555
C47 C46 1.375 1_555 1_555
H30 C47 0.950 1_555 1_555
C48 C34 1.478 1_555 1_555
C49 C32 1.496 1_555 1_555
C50 C49 1.396 1_555 1_555
H31 C50 0.950 1_555 1_555
C51 C50 1.384 1_555 1_555
H32 C51 0.950 1_555 1_555
C52 C51 1.381 1_555 1_555
H33 C52 0.950 1_555 1_555
C53 C52 1.386 1_555 1_555
H34 C53 0.950 1_555 1_555
C54 C49 1.389 1_555 1_555
H35 C54 0.950 1_555 1_555
C55 C35 1.493 1_555 1_555
C56 C55 1.396 1_555 1_555
H36 C56 0.950 1_555 1_555
C57 C56 1.379 1_555 1_555
H37 C57 0.949 1_555 1_555
C58 C57 1.385 1_555 1_555
H38 C58 0.950 1_555 1_555
C59 C58 1.383 1_555 1_555
H39 C59 0.950 1_555 1_555
C60 C55 1.395 1_555 1_555
H40 C60 0.950 1_555 1_555
C5 C6 1.380 1_555 1_555
C11 C12 1.405 1_555 1_555
C13 C18 1.406 1_555 1_555
C17 C18 1.407 1_555 1_555
C23 C24 1.384 1_555 1_555
C29 C30 1.385 1_555 1_555
C35 C36 1.388 1_555 1_555
C41 C42 1.399 1_555 1_555
C43 C48 1.404 1_555 1_555
C47 C48 1.410 1_555 1_555
C53 C54 1.383 1_555 1_555
C59 C60 1.384 1_555 1_555
#END
