
#######################################################################
#
#                 Cambridge Crystallographic Data Centre
#                                CCDC
#
#######################################################################
#
# If this CIF has been generated from an entry in the Cambridge
# Structural Database, then it will include bibliographic, chemical,
# crystal, experimental, refinement or atomic coordinate data resulting
# from the CCDC's data processing and validation procedures.
#
#######################################################################

data_CSD_CIF_ERASIA
_audit_creation_date 2011-08-02
_audit_creation_method CSD-ConQuest-V1
_database_code_CSD ERASIA
_database_code_depnum_ccdc_archive 'CCDC 813216'
_chemical_formula_sum 'C60 H36'
_chemical_formula_moiety
;
C60 H36
;
_journal_coden_Cambridge 179
_journal_volume 50
_journal_year 2011
_journal_page_first 5323
_journal_name_full 'Angew.Chem.,Int.Ed. '
loop_
_publ_author_name
"W.Nakanishi"
"T.Yoshioka"
"H.Taka"
"Jing Yang Xue"
"H.Kita"
"H.Isobe"
_chemical_name_systematic
;
1,2,3,4,5,6(2,7)-hexanaphthalenacyclohexaphane
;
_chemical_name_common
;
Tridecacyclo[35.5.3.3$2,8!.3$9,15!.3$16,22!.3$23,29!.3$30,36!.0$5,59!.0$12,56!
.0$19,53!.0$26,50!.0$33,47!.0$40,44!]hexaconta-1(43),2(60),3,5(59),6,8(58),9(5
7),10,12(56),13,15(55),16,18,20,22(52),23(51),24,26(50),27,29(49),30(48),31,33
(47),34,36(46),37,39,41,44,53-triacontaene
;
_cell_volume   3887.732
_exptl_crystal_colour 'colorless'
_exptl_crystal_density_diffrn 1.293
_exptl_special_details
;
The authors report that several errors were found in the CheckCIF routine of 
IUCR mostly due to the insufficient quality of the friable crystal
;
_exptl_crystal_description 'plate'
_diffrn_ambient_temperature 100
#These two values have been output from a single CSD field.
_refine_ls_R_factor_gt 0.0976
_refine_ls_wR_factor_gt 0.0976
_symmetry_cell_setting triclinic
_symmetry_space_group_name_H-M 'P -1'
_symmetry_Int_Tables_number 2
loop_
_symmetry_equiv_pos_site_id
_symmetry_equiv_pos_as_xyz
1 x,y,z
2 -x,-y,-z
_cell_length_a 7.445(6)
_cell_length_b 15.211(11)
_cell_length_c 34.33(3)
_cell_angle_alpha 90
_cell_angle_beta 90
_cell_angle_gamma 90
_cell_formula_units_Z 4
loop_
_atom_type_symbol
_atom_type_radius_bond
C 0.72
H 0.23
loop_
_atom_site_label
_atom_site_type_symbol
_atom_site_fract_x
_atom_site_fract_y
_atom_site_fract_z
C1 C -1.0966(15) 0.3188(7) -0.1704(4)
H1 H -1.14630 0.28970 -0.19240
C2 C -1.1832(16) 0.3154(7) -0.1355(4)
H2 H -1.29450 0.28500 -0.13390
C3 C -1.1133(14) 0.3552(6) -0.1018(4)
C4 C -0.9534(14) 0.3993(7) -0.1041(3)
H3 H -0.90400 0.42560 -0.08140
C5 C -0.8604(16) 0.4061(7) -0.1403(4)
C6 C -0.9311(17) 0.3660(7) -0.1741(3)
C7 C -0.8407(17) 0.3759(8) -0.2099(5)
H4 H -0.88980 0.34880 -0.23250
C8 C -0.6847(19) 0.4231(9) -0.2135(3)
H5 H -0.62510 0.42730 -0.23790
C9 C -0.6129(17) 0.4663(7) -0.1797(4)
C10 C -0.7048(18) 0.4570(8) -0.1435(4)
H6 H -0.65940 0.48600 -0.12110
C11 C -0.235(2) 0.6165(9) -0.2171(3)
H7 H -0.20310 0.64420 -0.24090
C12 C -0.3888(18) 0.5648(8) -0.2162(4)
H8 H -0.45690 0.55790 -0.23940
C13 C -0.448(2) 0.5216(9) -0.1815(3)
C14 C -0.3388(16) 0.5338(8) -0.1501(4)
H9 H -0.36960 0.50440 -0.12660
C15 C -0.1849(17) 0.5864(8) -0.1500(3)
C16 C -0.1275(17) 0.6295(7) -0.1847(5)
C17 C 0.0276(17) 0.6786(8) -0.1840(4)
H10 H 0.06220 0.70890 -0.20700
C18 C 0.1356(15) 0.6861(6) -0.1513(5)
H11 H 0.24500 0.71820 -0.15220
C19 C 0.0765(15) 0.6431(7) -0.1153(4)
C20 C -0.0797(14) 0.5957(6) -0.1160(4)
H12 H -0.11900 0.56810 -0.09270
C21 C 0.4861(15) 0.6432(6) -0.0278(4)
H13 H 0.61360 0.64170 -0.02720
C22 C 0.4054(15) 0.6446(6) -0.0639(4)
H14 H 0.47350 0.64550 -0.08730
C23 C 0.2086(13) 0.6446(6) -0.0641(4)
C24 C 0.1188(15) 0.6476(6) -0.0292(4)
H15 H -0.00830 0.65290 -0.03020
C25 C 0.1988(14) 0.6435(6) 0.0082(4)
C26 C 0.3977(15) 0.6437(7) 0.0080(4)
C27 C 0.4708(16) 0.6451(6) 0.0460(4)
H16 H 0.59810 0.64320 0.04770
C28 C 0.3794(13) 0.6488(7) 0.0809(4)
H17 H 0.44340 0.65300 0.10480
C29 C -1.1833(15) 0.3538(6) -0.0808(4)
C30 C -1.1082(15) 0.3543(7) -0.0434(4)
H18 H -0.98070 0.35310 -0.04210
C31 C 0.2594(18) 0.8813(8) -0.2174(3)
H19 H 0.28900 0.85180 -0.24090
C32 C 0.1106(18) 0.9338(8) -0.2165(4)
H20 H 0.04280 0.94180 -0.23970
C33 C 0.057(2) 0.9752(9) -0.1832(4)
C34 C 0.1579(17) 0.9654(8) -0.1492(5)
H21 H 0.12070 0.99240 -0.12560
C35 C 0.3199(15) 0.9135(7) -0.1506(3)
C36 C 0.3700(16) 0.8696(7) -0.1847(4)
C37 C 0.5310(18) 0.8207(8) -0.1834(4)
H22 H 0.56980 0.79140 -0.20630
C38 C 0.6349(16) 0.8136(7) -0.1499(4)
H23 H 0.74340 0.78080 -0.15030
C39 C 0.5771(14) 0.8561(6) -0.1152(3)
C40 C 0.4188(15) 0.9033(7) -0.1160(5)
H24 H 0.37570 0.92940 -0.09270
C41 C 0.9714(17) 0.8532(6) -0.0462(4)
H25 H 1.09850 0.85020 -0.04810
C42 C 0.8762(16) 0.8538(8) -0.0808(4)
H26 H 0.93670 0.85570 -0.10520
C43 C 0.6857(15) 0.8515(6) -0.0790(4)
C44 C 0.6071(14) 0.8536(6) -0.0435(4)
H27 H 0.47960 0.85450 -0.04260
C45 C 0.7010(16) 0.8547(7) -0.0073(4)
C46 C 0.8982(16) 0.8567(7) -0.0084(4)
C47 C 0.9887(15) 0.8580(6) 0.0279(4)
H28 H 1.11620 0.86090 0.02750
C48 C 0.9065(15) 0.8555(6) 0.0636(4)
H29 H 0.97430 0.85400 0.08700
C49 C 0.7096(13) 0.8551(6) 0.0642(4)
C50 C 0.6195(16) 0.8546(7) 0.0284(4)
H30 H 0.49190 0.85400 0.02890
C51 C 0.5941(16) 0.8212(7) 0.1716(5)
H31 H 0.64130 0.79080 0.19360
C52 C 0.6824(16) 0.8176(7) 0.1366(3)
H32 H 0.79530 0.78860 0.13570
C53 C 0.6140(15) 0.8552(6) 0.1014(4)
C54 C 0.4510(15) 0.8996(7) 0.1041(4)
H33 H 0.40060 0.92510 0.08130
C55 C 0.3590(18) 0.9076(8) 0.1397(5)
C56 C 0.4353(17) 0.8690(7) 0.1752(3)
C57 C 0.2642(19) 0.8826(8) 0.2170(3)
H34 H 0.26580 0.84630 0.23950
C58 C 0.182(2) 0.9262(9) 0.2137(4)
H35 H 0.13220 0.94750 0.23740
C59 C -0.1133(17) 1.0319(7) -0.1803(4)
C60 C 0.2028(17) 0.9581(8) 0.1433(3)
H36 H 0.15480 0.98650 0.12100
C61 C 1.2647(19) 0.6158(8) 0.7173(3)
H37 H 1.29760 0.64290 0.74120
C62 C 1.1106(18) 0.5640(8) 0.7161(4)
H38 H 1.04230 0.55730 0.73930
C63 C 1.0496(19) 0.5200(8) 0.6812(3)
C64 C 1.1571(16) 0.5334(8) 0.6504(4)
H39 H 1.12480 0.50570 0.62670
C65 C 1.3152(17) 0.5856(8) 0.6503(3)
C66 C 1.3717(16) 0.6290(7) 0.6848(4)
C67 C 1.5332(16) 0.6785(7) 0.6834(3)
H40 H 1.57220 0.70780 0.70630
C68 C 1.6364(16) 0.6858(7) 0.6499(4)
H41 H 1.74440 0.71900 0.64990
C69 C 1.5772(15) 0.6427(7) 0.6158(4)
C70 C 1.4197(14) 0.5945(6) 0.6171(4)
H42 H 1.38110 0.56590 0.59400
C71 C 1.9875(15) 0.6433(6) 0.5272(4)
H43 H 2.11510 0.64180 0.52650
C72 C 1.9066(14) 0.6439(6) 0.5636(4)
H44 H 1.97510 0.64350 0.58700
C73 C 1.7105(12) 0.6453(6) 0.5641(3)
C74 C 1.6181(14) 0.6463(6) 0.5290(4)
H45 H 1.49060 0.64800 0.52980
C75 C 1.7019(14) 0.6451(6) 0.4925(4)
C76 C 1.8971(15) 0.6446(7) 0.4909(4)
C77 C 1.9733(17) 0.6463(6) 0.4534(4)
H46 H 2.10060 0.64440 0.45160
C78 C 1.8779(14) 0.6506(7) 0.4194(4)
H47 H 1.93970 0.65620 0.39530
C79 C 1.6857(15) 0.6466(6) 0.4197(4)
C80 C 1.6078(16) 0.6449(7) 0.4566(4)
H48 H 1.470(19) 0.651(10) 0.460(4)
C81 C 1.5933(16) 0.6802(7) 0.3282(5)
H49 H 1.63970 0.71040 0.30620
C82 C 1.6828(18) 0.6833(7) 0.3637(4)
H50 H 1.783(9) 0.707(5) 0.3715(19)
C83 C 1.6152(16) 0.6445(6) 0.3983(4)
C84 C 1.4549(15) 0.6003(7) 0.3961(4)
H51 H 1.40590 0.57380 0.41880
C85 C 1.3607(17) 0.5936(7) 0.3598(5)
C86 C 1.4339(17) 0.6321(7) 0.3255(3)
C87 C 1.3407(17) 0.6248(7) 0.2897(5)
H52 H 1.38710 0.65430 0.26750
C88 C 1.1846(19) 0.5762(9) 0.2860(3)
H53 H 1.12470 0.57130 0.26160
C89 C 0.8845(18) 0.4670(8) 0.6793(4)
C90 C 1.2054(18) 0.5436(9) 0.3573(4)
H54 H 1.15840 0.51620 0.38000
C91 C 1.1584(19) 0.1231(8) 0.2895(5)
H55 H 1.119(17) 0.152(9) 0.262(4)
C92 C 1.392(2) 0.0657(8) 0.2838(4)
H56 H 1.452(11) 0.064(6) 0.259(3)
C93 C 1.450(2) 0.0212(9) 0.3190(3)
C94 C 1.3442(16) 0.0339(8) 0.3497(4)
H57 H 1.37710 0.00580 0.37340
C95 C 1.1833(17) 0.0867(7) 0.3499(3)
C96 C 1.1301(16) 0.1303(7) 0.3158(4)
C97 C 0.9713(17) 0.1806(8) 0.3165(4)
H58 H 0.910(12) 0.210(7) 0.290(3)
C98 C 0.8661(15) 0.1868(7) 0.3487(5)
H59 H 0.749(12) 0.237(7) 0.358(3)
C99 C 0.9235(15) 0.1435(7) 0.3846(3)
C100 C 1.0780(15) 0.0957(7) 0.3834(4)
H60 H 1.11620 0.06690 0.40650
C101 C 0.5296(17) 0.1473(7) 0.4535(4)
H61 H 0.40240 0.14820 0.45140
C102 C 0.6237(14) 0.1485(7) 0.4190(4)
H62 H 0.56150 0.14970 0.39480
C103 C 0.8140(15) 0.1478(6) 0.4198(4)
C104 C 0.8934(14) 0.1467(6) 0.4568(4)
H63 H 1.02080 0.14780 0.45810
C105 C 0.7972(15) 0.1441(6) 0.4925(4)
C106 C 0.6006(15) 0.1448(6) 0.4917(4)
C107 C 0.5118(15) 0.1426(7) 0.5270(4)
H64 H 0.38470 0.13760 0.52610
C108 C 0.5928(15) 0.1472(6) 0.5644(4)
H65 H 0.52540 0.15090 0.58790
C109 C 0.7898(14) 0.1459(6) 0.5636(4)
C110 C 0.8807(15) 0.1453(6) 0.5283(4)
H66 H 1.00830 0.14580 0.52890
C111 C 0.9036(15) 0.1801(7) 0.6710(5)
H67 H 0.85610 0.21010 0.69300
C112 C 0.8142(16) 0.1848(7) 0.6360(3)
H68 H 0.70350 0.21580 0.63480
C113 C 0.8829(14) 0.1440(6) 0.6010(4)
C114 C 1.0432(14) 0.0996(7) 0.6039(3)
H69 H 1.09020 0.07190 0.58130
C115 C 1.1423(18) 0.0931(8) 0.6394(5)
C116 C 1.0641(17) 0.1319(7) 0.6749(3)
C117 C 1.1594(16) 0.1222(7) 0.7110(4)
H70 H 1.11410 0.15000 0.73380
C118 C 1.315(2) 0.0734(9) 0.7134(4)
H71 H 1.37570 0.06730 0.73770
C119 C 1.6121(19) -0.0303(9) 0.3221(5)
C120 C 1.2955(19) 0.0424(9) 0.6437(4)
H72 H 1.34040 0.01370 0.62110
C1A C 0.0966(15) 0.6812(7) 0.1704(4)
H1A H 0.14630 0.71030 0.19240
C2A C 0.1832(16) 0.6846(7) 0.1355(4)
H2A H 0.29450 0.71500 0.13390
C3A C 0.1133(14) 0.6448(6) 0.1018(4)
C4A C -0.0466(14) 0.6007(7) 0.1041(3)
H3A H -0.09600 0.57440 0.08140
C5A C -0.1396(16) 0.5939(7) 0.1403(4)
C6A C -0.0689(17) 0.6340(7) 0.1741(3)
C7A C -0.1593(17) 0.6241(8) 0.2099(5)
H4A H -0.11020 0.65120 0.23250
C8A C -0.3153(19) 0.5769(9) 0.2135(3)
H5A H -0.37490 0.57270 0.23790
C9A C -0.3871(17) 0.5337(7) 0.1797(4)
C10A C -0.2952(18) 0.5430(8) 0.1435(4)
H6A H -0.34060 0.51400 0.12110
C11A C -0.765(2) 0.3835(9) 0.2171(3)
H7A H -0.79690 0.35580 0.24090
C12A C -0.6112(18) 0.4352(8) 0.2162(4)
H8A H -0.54310 0.44210 0.23940
C13A C -0.552(2) 0.4784(9) 0.1815(3)
C14A C -0.6612(16) 0.4662(8) 0.1501(4)
H9A H -0.63040 0.49560 0.12660
C15A C -0.8151(17) 0.4136(8) 0.1500(3)
C16A C -0.8725(17) 0.3705(7) 0.1847(5)
C17A C -1.0276(17) 0.3214(8) 0.1840(4)
H10A H -1.06220 0.29110 0.20700
C18A C -1.1356(15) 0.3139(6) 0.1513(5)
H11A H -1.24500 0.28180 0.15220
C19A C -1.0765(15) 0.3569(7) 0.1153(4)
C20A C -0.9203(14) 0.4043(6) 0.1160(4)
H12A H -0.88100 0.43190 0.09270
C21A C -1.4861(15) 0.3568(6) 0.0278(4)
H13A H -1.61360 0.35830 0.02720
C22A C -1.4054(15) 0.3554(6) 0.0639(4)
H14A H -1.47350 0.35450 0.08730
C23A C -1.2086(13) 0.3554(6) 0.0641(4)
C24A C -1.1188(15) 0.3524(6) 0.0292(4)
H15A H -0.99170 0.34710 0.03020
C25A C -1.1988(14) 0.3565(6) -0.0082(4)
C26A C -1.3977(15) 0.3563(7) -0.0080(4)
C27A C -1.4708(16) 0.3549(6) -0.0460(4)
H16A H -1.59810 0.35680 -0.04770
C28A C -1.3794(13) 0.3512(7) -0.0809(4)
H17A H -1.44340 0.34700 -0.10480
C29A C 0.1833(15) 0.6462(6) 0.0808(4)
C30A C 0.1082(15) 0.6457(7) 0.0434(4)
H18A H -0.01930 0.64690 0.04210
C31A C -0.2594(18) 1.1187(8) 0.2174(3)
H19A H -0.28900 1.14820 0.24090
C32A C -0.1106(18) 1.0662(8) 0.2165(4)
H20A H -0.04280 1.05820 0.23970
C33A C -0.057(2) 1.0248(9) 0.1832(4)
C34A C -0.1579(17) 1.0346(8) 0.1492(5)
H21A H -0.12070 1.00760 0.12560
C35A C -0.3199(15) 1.0865(7) 0.1506(3)
C36A C -0.3700(16) 1.1304(7) 0.1847(4)
C37A C -0.5310(18) 1.1793(8) 0.1834(4)
H22A H -0.56980 1.20860 0.20630
C38A C -0.6349(16) 1.1864(7) 0.1499(4)
H23A H -0.74340 1.21920 0.15030
C39A C -0.5771(14) 1.1439(6) 0.1152(3)
C40A C -0.4188(15) 1.0967(7) 0.1160(5)
H24A H -0.37570 1.07060 0.09270
C41A C -0.9714(17) 1.1468(6) 0.0462(4)
H25A H -1.09850 1.14980 0.04810
C42A C -0.8762(16) 1.1462(8) 0.0808(4)
H26A H -0.93670 1.14430 0.10520
C43A C -0.6857(15) 1.1485(6) 0.0790(4)
C44A C -0.6071(14) 1.1464(6) 0.0435(4)
H27A H -0.47960 1.14550 0.04260
C45A C -0.7010(16) 1.1453(7) 0.0073(4)
C46A C -0.8982(16) 1.1433(7) 0.0084(4)
C47A C -0.9887(15) 1.1420(6) -0.0279(4)
H28A H -1.11620 1.13910 -0.02750
C48A C -0.9065(15) 1.1445(6) -0.0636(4)
H29A H -0.97430 1.14600 -0.08700
C49A C -0.7096(13) 1.1449(6) -0.0642(4)
C50A C -0.6195(16) 1.1454(7) -0.0284(4)
H30A H -0.49190 1.14600 -0.02890
C51A C -0.5941(16) 1.1788(7) -0.1716(5)
H31A H -0.64130 1.20920 -0.19360
C52A C -0.6824(16) 1.1824(7) -0.1366(3)
H32A H -0.79530 1.21140 -0.13570
C53A C -0.6140(15) 1.1448(6) -0.1014(4)
C54A C -0.4510(15) 1.1004(7) -0.1041(4)
H33A H -0.40060 1.07490 -0.08130
C55A C -0.3590(18) 1.0924(8) -0.1397(5)
C56A C -0.4353(17) 1.1310(7) -0.1752(3)
C57A C -0.2642(19) 1.1174(8) -0.2170(3)
H34A H -0.26580 1.15370 -0.23950
C58A C -0.182(2) 1.0738(9) -0.2137(4)
H35A H -0.13220 1.05250 -0.23740
C59A C 0.1133(17) 0.9681(7) 0.1803(4)
C60A C -0.2028(17) 1.0419(8) -0.1433(3)
H36A H -0.15480 1.01350 -0.12100
C61A C 0.7353(19) 0.3842(8) 0.2827(3)
H37A H 0.70240 0.35710 0.25880
C62A C 0.8894(18) 0.4360(8) 0.2839(4)
H38A H 0.95770 0.44270 0.26070
C63A C 0.9504(19) 0.4800(8) 0.3188(3)
C64A C 0.8429(16) 0.4666(8) 0.3496(4)
H39A H 0.87520 0.49430 0.37330
C65A C 0.6848(17) 0.4144(8) 0.3497(3)
C66A C 0.6283(16) 0.3710(7) 0.3152(4)
C67A C 0.4668(16) 0.3215(7) 0.3166(3)
H40A H 0.42780 0.29220 0.29370
C68A C 0.3636(16) 0.3142(7) 0.3501(4)
H41A H 0.25560 0.28100 0.35010
C69A C 0.4228(15) 0.3573(7) 0.3842(4)
C70A C 0.5803(14) 0.4055(6) 0.3829(4)
H42A H 0.61890 0.43410 0.40600
C71A C 0.0125(15) 0.3567(6) 0.4728(4)
H43A H -0.11510 0.35820 0.47350
C72A C 0.0934(14) 0.3561(6) 0.4364(4)
H44A H 0.02490 0.35650 0.41300
C73A C 0.2895(12) 0.3547(6) 0.4359(3)
C74A C 0.3819(14) 0.3537(6) 0.4710(4)
H45A H 0.50940 0.35200 0.47020
C75A C 0.2981(14) 0.3549(6) 0.5075(4)
C76A C 0.1029(15) 0.3554(7) 0.5091(4)
C77A C 0.0267(17) 0.3537(6) 0.5466(4)
H46A H -0.10060 0.35560 0.54840
C78A C 0.1221(14) 0.3494(7) 0.5806(4)
H47A H 0.06030 0.34380 0.60470
C79A C 0.3143(15) 0.3534(6) 0.5803(4)
C80A C 0.3922(16) 0.3551(7) 0.5434(4)
H48A H 0.530(19) 0.349(10) 0.540(4)
C81A C 0.4067(16) 0.3198(7) 0.6718(5)
H49A H 0.36030 0.28960 0.69380
C82A C 0.3172(18) 0.3167(7) 0.6363(4)
H50A H 0.217(9) 0.293(5) 0.6285(19)
C83A C 0.3848(16) 0.3555(6) 0.6017(4)
C84A C 0.5451(15) 0.3997(7) 0.6039(4)
H51A H 0.59410 0.42620 0.58120
C85A C 0.6393(17) 0.4064(7) 0.6402(5)
C86A C 0.5661(17) 0.3679(7) 0.6745(3)
C87A C 0.6593(17) 0.3752(7) 0.7103(5)
H52A H 0.61290 0.34570 0.73250
C88A C 0.8154(19) 0.4238(9) 0.7140(3)
H53A H 0.87530 0.42870 0.73840
C89A C 1.1155(18) 0.5330(8) 0.3207(4)
C90A C 0.7946(18) 0.4564(9) 0.6427(4)
H54A H 0.84160 0.48380 0.62000
C91A C 1.8416(19) -0.1231(8) 0.7105(5)
H55A H 1.881(17) -0.152(9) 0.738(4)
C92A C 1.608(2) -0.0657(8) 0.7162(4)
H56A H 1.548(11) -0.064(6) 0.741(3)
C93A C 1.550(2) -0.0212(9) 0.6810(3)
C94A C 1.6558(16) -0.0339(8) 0.6503(4)
H57A H 1.62290 -0.00580 0.62660
C95A C 1.8167(17) -0.0867(7) 0.6501(3)
C96A C 1.8699(16) -0.1303(7) 0.6842(4)
C97A C 2.0287(17) -0.1806(8) 0.6835(4)
H58A H 2.090(12) -0.210(7) 0.710(3)
C98A C 2.1339(15) -0.1868(7) 0.6513(5)
H59A H 2.251(12) -0.237(7) 0.642(3)
C99A C 2.0765(15) -0.1435(7) 0.6154(3)
C100A C 1.9220(15) -0.0957(7) 0.6166(4)
H60A H 1.88380 -0.06690 0.59350
C101A C 2.4704(17) -0.1473(7) 0.5465(4)
H61A H 2.59760 -0.14820 0.54860
C102A C 2.3763(14) -0.1485(7) 0.5810(4)
H62A H 2.43850 -0.14970 0.60520
C103A C 2.1860(15) -0.1478(6) 0.5802(4)
C104A C 2.1066(14) -0.1467(6) 0.5432(4)
H63A H 1.97920 -0.14780 0.54190
C105A C 2.2028(15) -0.1441(6) 0.5075(4)
C106A C 2.3994(15) -0.1448(6) 0.5083(4)
C107A C 2.4882(15) -0.1426(7) 0.4730(4)
H64A H 2.61530 -0.13760 0.47390
C108A C 2.4072(15) -0.1472(6) 0.4356(4)
H65A H 2.47460 -0.15090 0.41210
C109A C 2.2102(14) -0.1459(6) 0.4364(4)
C110A C 2.1193(15) -0.1453(6) 0.4717(4)
H66A H 1.99170 -0.14580 0.47110
C111A C 2.0964(15) -0.1801(7) 0.3290(5)
H67A H 2.14390 -0.21010 0.30700
C112A C 2.1858(16) -0.1848(7) 0.3640(3)
H68A H 2.29650 -0.21580 0.36520
C113A C 2.1171(14) -0.1440(6) 0.3990(4)
C114A C 1.9568(14) -0.0996(7) 0.3961(3)
H69A H 1.90980 -0.07190 0.41870
C115A C 1.8577(18) -0.0931(8) 0.3606(5)
C116A C 1.9359(17) -0.1319(7) 0.3251(3)
C117A C 1.8406(16) -0.1222(7) 0.2890(4)
H70A H 1.88590 -0.15000 0.26620
C118A C 1.685(2) -0.0734(9) 0.2866(4)
H71A H 1.62430 -0.06730 0.26230
C119A C 1.3879(19) 0.0303(9) 0.6779(5)
C120A C 1.7045(19) -0.0424(9) 0.3563(4)
H72A H 1.65960 -0.01370 0.37890
loop_
_geom_bond_atom_site_label_1
_geom_bond_atom_site_label_2
_geom_bond_distance
_geom_bond_site_symmetry_1
_geom_bond_site_symmetry_2
C1 H1 0.950 1_555 1_555
C2 C1 1.362 1_555 1_555
H2 C2 0.951 1_555 1_555
C3 C2 1.406 1_555 1_555
C4 C3 1.369 1_555 1_555
H3 C4 0.950 1_555 1_555
C5 C4 1.426 1_555 1_555
C6 C1 1.432 1_555 1_555
C7 C6 1.409 1_555 1_555
H4 C7 0.952 1_555 1_555
C8 C7 1.371 1_555 1_555
H5 C8 0.950 1_555 1_555
C9 C8 1.437 1_555 1_555
C10 C5 1.398 1_555 1_555
H6 C10 0.949 1_555 1_555
C11 H7 0.949 1_555 1_555
C12 C11 1.389 1_555 1_555
H8 C12 0.950 1_555 1_555
C13 C9 1.489 1_555 1_555
C14 C13 1.363 1_555 1_555
H9 C14 0.950 1_555 1_555
C15 C14 1.397 1_555 1_555
C16 C11 1.384 1_555 1_555
C17 C16 1.375 1_555 1_555
H10 C17 0.950 1_555 1_555
C18 C17 1.386 1_555 1_555
H11 C18 0.950 1_555 1_555
C19 C18 1.466 1_555 1_555
C20 C15 1.413 1_555 1_555
H12 C20 0.950 1_555 1_555
C21 H13 0.950 1_555 1_555
C22 C21 1.377 1_555 1_555
H14 C22 0.950 1_555 1_555
C23 C19 2.014 1_555 1_555
C24 C23 1.373 1_555 1_555
H15 C24 0.950 1_555 1_555
C25 C24 1.417 1_555 1_555
C26 C21 1.394 1_555 1_555
C27 C26 1.414 1_555 1_555
H16 C27 0.950 1_555 1_555
C28 C27 1.379 1_555 1_555
H17 C28 0.951 1_555 1_555
C29 C3 0.890 1_555 1_555
C30 C29 1.400 1_555 1_555
H18 C30 0.950 1_555 1_555
C31 H19 0.949 1_555 1_555
C32 C31 1.366 1_555 1_555
H20 C32 0.951 1_555 1_555
C33 C32 1.365 1_555 1_555
C34 C33 1.396 1_555 1_555
H21 C34 0.950 1_555 1_555
C35 C34 1.442 1_555 1_555
C36 C31 1.404 1_555 1_555
C37 C36 1.411 1_555 1_555
H22 C37 0.949 1_555 1_555
C38 C37 1.390 1_555 1_555
H23 C38 0.950 1_555 1_555
C39 C38 1.422 1_555 1_555
C40 C35 1.406 1_555 1_555
H24 C40 0.949 1_555 1_555
C41 H25 0.950 1_555 1_555
C42 C41 1.383 1_555 1_555
H26 C42 0.952 1_555 1_555
C43 C39 1.484 1_555 1_555
C44 C43 1.352 1_555 1_555
H27 C44 0.950 1_555 1_555
C45 C44 1.426 1_555 1_555
C46 C41 1.408 1_555 1_555
C47 C46 1.417 1_555 1_555
H28 C47 0.950 1_555 1_555
C48 C47 1.370 1_555 1_555
H29 C48 0.949 1_555 1_555
C49 C48 1.466 1_555 1_555
C50 C45 1.368 1_555 1_555
H30 C50 0.950 1_555 1_555
C51 H31 0.953 1_555 1_555
C52 C51 1.371 1_555 1_555
H32 C52 0.950 1_555 1_555
C53 C49 1.462 1_555 1_555
C54 C53 1.392 1_555 1_555
H33 C54 0.951 1_555 1_555
C55 C54 1.406 1_555 1_555
C56 C51 1.393 1_555 1_555
C57 C56 1.930 1_555 1_555
H34 C57 0.950 1_555 1_555
C58 C57 0.909 1_555 1_555
H35 C58 0.951 1_555 1_555
C59 C33 1.537 1_555 1_555
C60 C55 1.399 1_555 1_555
H36 C60 0.949 1_555 1_555
C61 H37 0.950 1_555 1_555
C62 C61 1.392 1_555 1_555
H38 C62 0.950 1_555 1_555
C63 C62 1.446 1_555 1_555
C64 C63 1.342 1_555 1_555
H39 C64 0.947 1_555 1_555
C65 C64 1.420 1_555 1_555
C66 C61 1.386 1_555 1_555
C67 C66 1.419 1_555 1_555
H40 C67 0.949 1_555 1_555
C68 C67 1.388 1_555 1_555
H41 C68 0.949 1_555 1_555
C69 C68 1.412 1_555 1_555
C70 C65 1.387 1_555 1_555
H42 C70 0.949 1_555 1_555
C71 H43 0.951 1_555 1_555
C72 C71 1.387 1_555 1_555
H44 C72 0.952 1_555 1_555
C73 C69 2.034 1_555 1_555
C74 C73 1.388 1_555 1_555
H45 C74 0.950 1_555 1_555
C75 C74 1.400 1_555 1_555
C76 C71 1.416 1_555 1_555
C77 C76 1.407 1_555 1_555
H46 C77 0.950 1_555 1_555
C78 C77 1.368 1_555 1_555
H47 C78 0.951 1_555 1_555
C79 C78 1.432 1_555 1_555
C80 C75 1.418 1_555 1_555
H48 C80 1.037 1_555 1_555
C81 H49 0.949 1_555 1_555
C82 C81 1.390 1_555 1_555
H50 C82 0.871 1_555 1_555
C83 C79 0.903 1_555 1_555
C84 C83 1.372 1_555 1_555
H51 C84 0.950 1_555 1_555
C85 C84 1.434 1_555 1_555
C86 C81 1.397 1_555 1_555
C87 C86 1.416 1_555 1_555
H52 C87 0.949 1_555 1_555
C88 C87 1.383 1_555 1_555
H53 C88 0.952 1_555 1_555
C89 C63 1.471 1_555 1_555
C90 C85 1.387 1_555 1_555
H54 C90 0.950 1_555 1_555
C91 H55 1.082 1_555 1_555
C92 C91 1.956 1_555 1_555
H56 C92 0.962 1_555 1_555
C93 C92 1.451 1_555 1_555
C94 C93 1.330 1_555 1_555
H57 C94 0.951 1_555 1_555
C95 C94 1.442 1_555 1_555
C96 C91 0.934 1_555 1_555
C97 C96 1.408 1_555 1_555
H58 C97 1.112 1_555 1_555
C98 C97 1.358 1_555 1_555
H59 C98 1.202 1_555 1_555
C99 C98 1.461 1_555 1_555
C100 C95 1.399 1_555 1_555
H60 C100 0.950 1_555 1_555
C101 H61 0.950 1_555 1_555
C102 C101 1.376 1_555 1_555
H62 C102 0.951 1_555 1_555
C103 C99 1.459 1_555 1_555
C104 C103 1.401 1_555 1_555
H63 C104 0.950 1_555 1_555
C105 C104 1.420 1_555 1_555
C106 C101 1.414 1_555 1_555
C107 C106 1.381 1_555 1_555
H64 C107 0.950 1_555 1_555
C108 C107 1.420 1_555 1_555
H65 C108 0.952 1_555 1_555
C109 C108 1.467 1_555 1_555
C110 C105 1.377 1_555 1_555
H66 C110 0.950 1_555 1_555
C111 H67 0.951 1_555 1_555
C112 C111 1.375 1_555 1_555
H68 C112 0.950 1_555 1_555
C113 C109 1.459 1_555 1_555
C114 C113 1.375 1_555 1_555
H69 C114 0.950 1_555 1_555
C115 C114 1.428 1_555 1_555
C116 C111 1.408 1_555 1_555
C117 C116 1.436 1_555 1_555
H70 C117 0.951 1_555 1_555
C118 C117 1.378 1_555 1_555
H71 C118 0.953 1_555 1_555
C119 C93 1.443 1_555 1_555
C120 C115 1.385 1_555 1_555
H72 C120 0.951 1_555 1_555
C1A H1A 0.950 1_555 1_555
C2A C1A 1.362 1_555 1_555
H2A C2A 0.951 1_555 1_555
C3A C2A 1.406 1_555 1_555
C4A C3A 1.369 1_555 1_555
H3A C4A 0.950 1_555 1_555
C5A C4A 1.426 1_555 1_555
C6A C1A 1.432 1_555 1_555
C7A C6A 1.409 1_555 1_555
H4A C7A 0.952 1_555 1_555
C8A C7A 1.371 1_555 1_555
H5A C8A 0.950 1_555 1_555
C9A C8A 1.437 1_555 1_555
C10A C5A 1.398 1_555 1_555
H6A C10A 0.949 1_555 1_555
C11A H7A 0.949 1_555 1_555
C12A C11A 1.389 1_555 1_555
H8A C12A 0.950 1_555 1_555
C13A C9A 1.489 1_555 1_555
C14A C13A 1.363 1_555 1_555
H9A C14A 0.950 1_555 1_555
C15A C14A 1.397 1_555 1_555
C16A C11A 1.384 1_555 1_555
C17A C16A 1.375 1_555 1_555
H10A C17A 0.950 1_555 1_555
C18A C17A 1.386 1_555 1_555
H11A C18A 0.950 1_555 1_555
C19A C18A 1.466 1_555 1_555
C20A C15A 1.413 1_555 1_555
H12A C20A 0.950 1_555 1_555
C21A H13A 0.950 1_555 1_555
C22A C21A 1.377 1_555 1_555
H14A C22A 0.950 1_555 1_555
C23A C19A 2.014 1_555 1_555
C24A C23A 1.373 1_555 1_555
H15A C24A 0.950 1_555 1_555
C25A C30 1.384 1_555 1_555
C26A C21A 1.394 1_555 1_555
C27A C26A 1.414 1_555 1_555
H16A C27A 0.950 1_555 1_555
C28A C29 1.461 1_555 1_555
H17A C28A 0.951 1_555 1_555
C29A C28 1.461 1_555 1_555
C30A C25 1.384 1_555 1_555
H18A C30A 0.950 1_555 1_555
C31A H19A 0.949 1_555 1_555
C32A C31A 1.366 1_555 1_555
H20A C32A 0.951 1_555 1_555
C33A C32A 1.365 1_555 1_555
C34A C33A 1.396 1_555 1_555
H21A C34A 0.950 1_555 1_555
C35A C34A 1.442 1_555 1_555
C36A C31A 1.404 1_555 1_555
C37A C36A 1.411 1_555 1_555
H22A C37A 0.949 1_555 1_555
C38A C37A 1.390 1_555 1_555
H23A C38A 0.950 1_555 1_555
C39A C38A 1.422 1_555 1_555
C40A C35A 1.406 1_555 1_555
H24A C40A 0.949 1_555 1_555
C41A H25A 0.950 1_555 1_555
C42A C41A 1.383 1_555 1_555
H26A C42A 0.952 1_555 1_555
C43A C39A 1.484 1_555 1_555
C44A C43A 1.352 1_555 1_555
H27A C44A 0.950 1_555 1_555
C45A C44A 1.426 1_555 1_555
C46A C41A 1.408 1_555 1_555
C47A C46A 1.417 1_555 1_555
H28A C47A 0.950 1_555 1_555
C48A C47A 1.370 1_555 1_555
H29A C48A 0.949 1_555 1_555
C49A C48A 1.466 1_555 1_555
C50A C45A 1.368 1_555 1_555
H30A C50A 0.950 1_555 1_555
C51A H31A 0.953 1_555 1_555
C52A C51A 1.371 1_555 1_555
H32A C52A 0.950 1_555 1_555
C53A C49A 1.462 1_555 1_555
C54A C53A 1.392 1_555 1_555
H33A C54A 0.951 1_555 1_555
C55A C54A 1.406 1_555 1_555
C56A C51A 1.393 1_555 1_555
C57A C56A 1.930 1_555 1_555
H34A C57A 0.950 1_555 1_555
C58A C59 1.408 1_555 1_555
H35A C58A 0.951 1_555 1_555
C59A C58 1.408 1_555 1_555
C60A C59 1.442 1_555 1_555
H36A C60A 0.949 1_555 1_555
C61A H37A 0.950 1_555 1_555
C62A C61A 1.392 1_555 1_555
H38A C62A 0.950 1_555 1_555
C63A C62A 1.446 1_555 1_555
C64A C63A 1.342 1_555 1_555
H39A C64A 0.947 1_555 1_555
C65A C64A 1.420 1_555 1_555
C66A C61A 1.386 1_555 1_555
C67A C66A 1.419 1_555 1_555
H40A C67A 0.949 1_555 1_555
C68A C67A 1.388 1_555 1_555
H41A C68A 0.949 1_555 1_555
C69A C68A 1.412 1_555 1_555
C70A C65A 1.387 1_555 1_555
H42A C70A 0.949 1_555 1_555
C71A H43A 0.951 1_555 1_555
C72A C71A 1.387 1_555 1_555
H44A C72A 0.952 1_555 1_555
C73A C69A 2.034 1_555 1_555
C74A C73A 1.388 1_555 1_555
H45A C74A 0.950 1_555 1_555
C75A C74A 1.400 1_555 1_555
C76A C71A 1.416 1_555 1_555
C77A C76A 1.407 1_555 1_555
H46A C77A 0.950 1_555 1_555
C78A C77A 1.368 1_555 1_555
H47A C78A 0.951 1_555 1_555
C79A C78A 1.432 1_555 1_555
C80A C75A 1.418 1_555 1_555
H48A C80A 1.037 1_555 1_555
C81A H49A 0.949 1_555 1_555
C82A C81A 1.390 1_555 1_555
H50A C82A 0.871 1_555 1_555
C83A C79A 0.903 1_555 1_555
C84A C83A 1.372 1_555 1_555
H51A C84A 0.950 1_555 1_555
C85A C84A 1.434 1_555 1_555
C86A C81A 1.397 1_555 1_555
C87A C86A 1.416 1_555 1_555
H52A C87A 0.949 1_555 1_555
C88A C89 1.454 1_555 1_555
H53A C88A 0.952 1_555 1_555
C89A C88 1.454 1_555 1_555
C90A C89 1.433 1_555 1_555
H54A C90A 0.950 1_555 1_555
C91A H55A 1.082 1_555 1_555
C92A C91A 1.956 1_555 1_555
H56A C92A 0.962 1_555 1_555
C93A C92A 1.451 1_555 1_555
C94A C93A 1.330 1_555 1_555
H57A C94A 0.951 1_555 1_555
C95A C94A 1.442 1_555 1_555
C96A C91A 0.934 1_555 1_555
C97A C96A 1.408 1_555 1_555
H58A C97A 1.112 1_555 1_555
C98A C97A 1.358 1_555 1_555
H59A C98A 1.202 1_555 1_555
C99A C98A 1.461 1_555 1_555
C100A C95A 1.399 1_555 1_555
H60A C100A 0.950 1_555 1_555
C101A H61A 0.950 1_555 1_555
C102A C101A 1.376 1_555 1_555
H62A C102A 0.951 1_555 1_555
C103A C99A 1.459 1_555 1_555
C104A C103A 1.401 1_555 1_555
H63A C104A 0.950 1_555 1_555
C105A C104A 1.420 1_555 1_555
C106A C101A 1.414 1_555 1_555
C107A C106A 1.381 1_555 1_555
H64A C107A 0.950 1_555 1_555
C108A C107A 1.420 1_555 1_555
H65A C108A 0.952 1_555 1_555
C109A C108A 1.467 1_555 1_555
C110A C105A 1.377 1_555 1_555
H66A C110A 0.950 1_555 1_555
C111A H67A 0.951 1_555 1_555
C112A C111A 1.375 1_555 1_555
H68A C112A 0.950 1_555 1_555
C113A C109A 1.459 1_555 1_555
C114A C113A 1.375 1_555 1_555
H69A C114A 0.950 1_555 1_555
C115A C114A 1.428 1_555 1_555
C116A C111A 1.408 1_555 1_555
C117A C116A 1.436 1_555 1_555
H70A C117A 0.951 1_555 1_555
C118A C119 1.486 1_555 1_555
H71A C118A 0.953 1_555 1_555
C119A C118 1.486 1_555 1_555
C120A C119 1.373 1_555 1_555
H72A C120A 0.951 1_555 1_555
C5 C6 1.413 1_555 1_555
C9 C10 1.426 1_555 1_555
C12 C13 1.430 1_555 1_555
C15 C16 1.425 1_555 1_555
C19 C20 1.368 1_555 1_555
C22 C23 1.465 1_555 1_555
C25 C26 1.481 1_555 1_555
C35 C36 1.398 1_555 1_555
C39 C40 1.380 1_555 1_555
C42 C43 1.420 1_555 1_555
C45 C46 1.469 1_555 1_555
C49 C50 1.400 1_555 1_555
C52 C53 1.431 1_555 1_555
C55 C56 1.467 1_555 1_555
C60 C59A 1.442 1_555 1_555
C65 C66 1.420 1_555 1_555
C69 C70 1.384 1_555 1_555
C72 C73 1.460 1_555 1_555
C75 C76 1.454 1_555 1_555
C79 C80 1.393 1_555 1_555
C82 C83 1.419 1_555 1_555
C85 C86 1.424 1_555 1_555
C90 C89A 1.433 1_555 1_555
C95 C96 1.403 1_555 1_555
C99 C100 1.361 1_555 1_555
C102 C103 1.417 1_555 1_555
C105 C106 1.464 1_555 1_555
C109 C110 1.388 1_555 1_555
C112 C113 1.446 1_555 1_555
C115 C116 1.474 1_555 1_555
C120 C119A 1.373 1_555 1_555
C3A C29A 0.890 1_555 1_555
C5A C6A 1.413 1_555 1_555
C9A C10A 1.426 1_555 1_555
C12A C13A 1.430 1_555 1_555
C15A C16A 1.425 1_555 1_555
C19A C20A 1.368 1_555 1_555
C22A C23A 1.465 1_555 1_555
C24A C25A 1.417 1_555 1_555
C25A C26A 1.481 1_555 1_555
C27A C28A 1.379 1_555 1_555
C29A C30A 1.400 1_555 1_555
C33A C59A 1.537 1_555 1_555
C35A C36A 1.398 1_555 1_555
C39A C40A 1.380 1_555 1_555
C42A C43A 1.420 1_555 1_555
C45A C46A 1.469 1_555 1_555
C49A C50A 1.400 1_555 1_555
C52A C53A 1.431 1_555 1_555
C55A C56A 1.467 1_555 1_555
C55A C60A 1.399 1_555 1_555
C57A C58A 0.909 1_555 1_555
C63A C89A 1.471 1_555 1_555
C65A C66A 1.420 1_555 1_555
C69A C70A 1.384 1_555 1_555
C72A C73A 1.460 1_555 1_555
C75A C76A 1.454 1_555 1_555
C79A C80A 1.393 1_555 1_555
C82A C83A 1.419 1_555 1_555
C85A C86A 1.424 1_555 1_555
C85A C90A 1.387 1_555 1_555
C87A C88A 1.383 1_555 1_555
C93A C119A 1.443 1_555 1_555
C95A C96A 1.403 1_555 1_555
C99A C100A 1.361 1_555 1_555
C102A C103A 1.417 1_555 1_555
C105A C106A 1.464 1_555 1_555
C109A C110A 1.388 1_555 1_555
C112A C113A 1.446 1_555 1_555
C115A C116A 1.474 1_555 1_555
C115A C120A 1.385 1_555 1_555
C117A C118A 1.378 1_555 1_555
#END
