
#######################################################################
#
#                 Cambridge Crystallographic Data Centre
#                                CCDC
#
#######################################################################
#
# If this CIF has been generated from an entry in the Cambridge
# Structural Database, then it will include bibliographic, chemical,
# crystal, experimental, refinement or atomic coordinate data resulting
# from the CCDC's data processing and validation procedures.
#
#######################################################################

data_CSD_CIF_ERASIA01
_audit_creation_date 2011-08-15
_audit_creation_method CSD-ConQuest-V1
_database_code_CSD ERASIA01
_database_code_depnum_ccdc_archive 'CCDC 834419'
_chemical_formula_sum 'C60 H36'
_chemical_formula_moiety
;
C60 H36
;
_journal_coeditor_code "IUCr NR2007"
_journal_coden_Cambridge 1370
_journal_volume 67
_journal_year 2011
_journal_page_first o1762
_journal_name_full 'Acta Crystallogr.,Sect.E:Struct.Rep.Online '
loop_
_publ_author_name
"W.Nakanishi"
"J.Y.Xue"
"T.Yoshioka"
"H.Isobe"
_chemical_name_systematic
;
Tridecacyclo[35.5.3.3^2,8^.3^9,15^.3^16,22^.3^23,29^.3^30,36^.0^5,59^.0^12,56^
.0^19,53^.0^26,50^.0^33,47^.0^40,44^]hexaconta-1(43),2(60),3,5(59),6,8(58),9(5
7),10,12(56),13,15(55),16(54),17,19(53),20,22(52),23(51),24,26(50),27,29(49),3
0(48),31,33(47),34,36(46),37(45),38,40(44),41-triacontaene
;
_chemical_name_common
;
1,2,3,4,5,6(2,7)-hexanaphthalenacyclohexaphane; [6]Cyclo-2,7-naphthylene
;
_cell_volume   3864.613
_exptl_crystal_colour 'colorless'
_exptl_crystal_density_diffrn 1.301
_exptl_crystal_description 'plate'
_diffrn_ambient_temperature 100
#These two values have been output from a single CSD field.
_refine_ls_R_factor_gt 0.0664
_refine_ls_wR_factor_gt 0.0664
_symmetry_cell_setting orthorhombic
_symmetry_space_group_name_H-M 'C m c a'
_symmetry_Int_Tables_number 64
loop_
_symmetry_equiv_pos_site_id
_symmetry_equiv_pos_as_xyz
1 x,y,z
2 -x,1/2-y,1/2+z
3 x,-y,-z
4 1/2-x,y,1/2-z
5 1/2+x,1/2+y,z
6 1/2-x,-y,1/2+z
7 1/2+x,1/2-y,-z
8 -x,1/2+y,1/2-z
9 -x,-y,-z
10 x,-1/2+y,-1/2-z
11 -x,y,z
12 -1/2+x,-y,-1/2+z
13 -1/2-x,-1/2-y,-z
14 -1/2+x,y,-1/2-z
15 -1/2-x,-1/2+y,z
16 x,-1/2-y,-1/2+z
_cell_length_a 34.224(6)
_cell_length_b 7.4629(14)
_cell_length_c 15.131(3)
_cell_angle_alpha 90
_cell_angle_beta 90
_cell_angle_gamma 90
_cell_formula_units_Z 4
loop_
_atom_type_symbol
_atom_type_radius_bond
C 0.68
H 0.23
loop_
_atom_site_label
_atom_site_type_symbol
_atom_site_fract_x
_atom_site_fract_y
_atom_site_fract_z
C1 C 0.28550(9) 0.7008(6) 0.37933(17)
H1 H 0.26230 0.66340 0.35040
C2 C 0.28488(8) 0.8521(5) 0.43007(18)
H2 H 0.26100 0.91540 0.43710
C3 C 0.31917(7) 0.9174(4) 0.47282(14)
C4 C 0.35317(7) 0.8204(3) 0.46178(14)
H3 H 0.37640 0.86130 0.48970
C5 C 0.35467(8) 0.6627(4) 0.41049(14)
C6 C 0.32004(9) 0.5987(5) 0.36887(15)
C7 C 0.32231(11) 0.4362(5) 0.32059(16)
H4 H 0.29970 0.39180 0.29160
C8 C 0.35645(11) 0.3425(4) 0.31496(15)
H5 H 0.35700 0.23320 0.28280
C9 C 0.39145(9) 0.4048(3) 0.35623(14)
C10 C 0.38962(8) 0.5646(3) 0.40197(13)
H6 H 0.41270 0.61000 0.42860
C11 C 0.46345(13) 0.0185(3) 0.35550(17)
H7 H 0.46280 -0.10880 0.35620
C12 C 0.42913(13) 0.1103(4) 0.35358(16)
H8 H 0.40520 0.04600 0.35220
C13 C 0.42846(10) 0.3024(3) 0.35367(14)
C14 C 0.46407(8) 0.3892(3) 0.35413(14)
H9 H 0.46430 0.51650 0.35340
C15 C 0.50000 0.2979(4) 0.35555(19)
C16 C 0.50000 0.1066(4) 0.3565(2)
C1B C 0.28550(9) 1.2992(6) 0.62067(17)
C1J C 0.71450(9) 0.7008(6) 0.37933(17)
C1H C 0.71450(9) 1.2992(6) 0.62067(17)
H1B H 0.26230 1.33660 0.64960
H1J H 0.73770 0.66340 0.35040
H1H H 0.73770 1.33660 0.64960
C2B C 0.28488(8) 1.1479(5) 0.56993(18)
C2J C 0.71512(8) 0.8521(5) 0.43007(18)
C2H C 0.71512(8) 1.1479(5) 0.56993(18)
H2B H 0.26100 1.08460 0.56290
H2J H 0.73900 0.91540 0.43710
H2H H 0.73900 1.08460 0.56290
C3B C 0.31917(7) 1.0826(4) 0.52718(14)
C3J C 0.68083(7) 0.9174(4) 0.47282(14)
C3H C 0.68083(7) 1.0826(4) 0.52718(14)
C4B C 0.35317(7) 1.1796(3) 0.53822(14)
C4J C 0.64683(7) 0.8204(3) 0.46178(14)
C4H C 0.64683(7) 1.1796(3) 0.53822(14)
H3B H 0.37640 1.13870 0.51030
H3J H 0.62360 0.86130 0.48970
H3H H 0.62360 1.13870 0.51030
C5B C 0.35467(8) 1.3373(4) 0.58951(14)
C5J C 0.64533(8) 0.6627(4) 0.41049(14)
C5H C 0.64533(8) 1.3373(4) 0.58951(14)
C6B C 0.32004(9) 1.4013(5) 0.63113(15)
C6J C 0.67996(9) 0.5987(5) 0.36887(15)
C6H C 0.67996(9) 1.4013(5) 0.63113(15)
C7B C 0.32231(11) 1.5638(5) 0.67941(16)
C7J C 0.67769(11) 0.4362(5) 0.32059(16)
C7H C 0.67769(11) 1.5638(5) 0.67941(16)
H4B H 0.29970 1.60820 0.70840
H4J H 0.70030 0.39180 0.29160
H4H H 0.70030 1.60820 0.70840
C8B C 0.35645(11) 1.6575(4) 0.68504(15)
C8J C 0.64355(11) 0.3425(4) 0.31496(15)
C8H C 0.64355(11) 1.6575(4) 0.68504(15)
H5B H 0.35700 1.76680 0.71720
H5J H 0.64300 0.23320 0.28280
H5H H 0.64300 1.76680 0.71720
C9B C 0.39145(9) 1.5952(3) 0.64377(14)
C9J C 0.60855(9) 0.4048(3) 0.35623(14)
C9H C 0.60855(9) 1.5952(3) 0.64377(14)
C10B C 0.38962(8) 1.4354(3) 0.59803(13)
C10J C 0.61038(8) 0.5646(3) 0.40197(13)
C10H C 0.61038(8) 1.4354(3) 0.59803(13)
H6B H 0.41270 1.39000 0.57140
H6J H 0.58730 0.61000 0.42860
H6H H 0.58730 1.39000 0.57140
C11B C 0.46345(13) 1.9815(3) 0.64450(17)
C11J C 0.53655(13) 0.0185(3) 0.35550(17)
C11H C 0.53655(13) 1.9815(3) 0.64450(17)
H7B H 0.46280 2.10880 0.64380
H7J H 0.53720 -0.10880 0.35620
H7H H 0.53720 2.10880 0.64380
C12B C 0.42913(13) 1.8897(4) 0.64642(16)
C12J C 0.57087(13) 0.1103(4) 0.35358(16)
C12H C 0.57087(13) 1.8897(4) 0.64642(16)
H8B H 0.40520 1.95400 0.64780
H8J H 0.59480 0.04600 0.35220
H8H H 0.59480 1.95400 0.64780
C13B C 0.42846(10) 1.6976(3) 0.64633(14)
C13J C 0.57154(10) 0.3024(3) 0.35367(14)
C13H C 0.57154(10) 1.6976(3) 0.64633(14)
C14B C 0.46407(8) 1.6108(3) 0.64587(14)
C14J C 0.53593(8) 0.3892(3) 0.35413(14)
C14H C 0.53593(8) 1.6108(3) 0.64587(14)
H9B H 0.46430 1.48350 0.64660
H9J H 0.53570 0.51650 0.35340
H9H H 0.53570 1.48350 0.64660
C15B C 0.50000 1.7021(4) 0.64445(19)
C16B C 0.50000 1.8934(4) 0.6435(2)
loop_
_geom_bond_atom_site_label_1
_geom_bond_atom_site_label_2
_geom_bond_distance
_geom_bond_site_symmetry_1
_geom_bond_site_symmetry_2
C1 H1 0.949 1_555 1_555
C2 C1 1.366 1_555 1_555
H2 C2 0.950 1_555 1_555
C3 C2 1.426 1_555 1_555
C4 C3 1.381 1_555 1_555
H3 C4 0.951 1_555 1_555
C5 C4 1.411 1_555 1_555
C6 C1 1.415 1_555 1_555
C7 C6 1.418 1_555 1_555
H4 C7 0.949 1_555 1_555
C8 C7 1.364 1_555 1_555
H5 C8 0.950 1_555 1_555
C9 C8 1.429 1_555 1_555
C10 C5 1.408 1_555 1_555
H6 C10 0.949 1_555 1_555
C11 H7 0.950 1_555 1_555
C12 C11 1.360 1_555 1_555
H8 C12 0.949 1_555 1_555
C13 C9 1.480 1_555 1_555
C14 C13 1.380 1_555 1_555
H9 C14 0.950 1_555 1_555
C15 C14 1.406 1_555 1_555
C16 C11 1.413 1_555 1_555
C1B H1B 0.949 1_555 1_555
C1J H1J 0.949 1_555 1_555
C1H H1H 0.949 1_555 1_555
C2B C1B 1.366 1_555 1_555
C2J C1J 1.366 1_555 1_555
C2H C1H 1.366 1_555 1_555
H2B C2B 0.950 1_555 1_555
H2J C2J 0.950 1_555 1_555
H2H C2H 0.950 1_555 1_555
C3B C3 1.482 1_555 1_555
C3J C2J 1.426 1_555 1_555
C3H C2H 1.426 1_555 1_555
C4B C3B 1.381 1_555 1_555
C4J C3J 1.381 1_555 1_555
C4H C3H 1.381 1_555 1_555
H3B C4B 0.951 1_555 1_555
H3J C4J 0.951 1_555 1_555
H3H C4H 0.951 1_555 1_555
C5B C4B 1.411 1_555 1_555
C5J C4J 1.411 1_555 1_555
C5H C4H 1.411 1_555 1_555
C6B C1B 1.415 1_555 1_555
C6J C1J 1.415 1_555 1_555
C6H C1H 1.415 1_555 1_555
C7B C6B 1.418 1_555 1_555
C7J C6J 1.418 1_555 1_555
C7H C6H 1.418 1_555 1_555
H4B C7B 0.949 1_555 1_555
H4J C7J 0.949 1_555 1_555
H4H C7H 0.949 1_555 1_555
C8B C7B 1.364 1_555 1_555
C8J C7J 1.364 1_555 1_555
C8H C7H 1.364 1_555 1_555
H5B C8B 0.950 1_555 1_555
H5J C8J 0.950 1_555 1_555
H5H C8H 0.950 1_555 1_555
C9B C8B 1.429 1_555 1_555
C9J C8J 1.429 1_555 1_555
C9H C8H 1.429 1_555 1_555
C10B C5B 1.408 1_555 1_555
C10J C5J 1.408 1_555 1_555
C10H C5H 1.408 1_555 1_555
H6B C10B 0.949 1_555 1_555
H6J C10J 0.949 1_555 1_555
H6H C10H 0.949 1_555 1_555
C11B H7B 0.950 1_555 1_555
C11J C16 1.413 1_555 1_555
C11H H7H 0.950 1_555 1_555
H7J C11J 0.950 1_555 1_555
C12B C11B 1.360 1_555 1_555
C12J C11J 1.360 1_555 1_555
C12H C11H 1.360 1_555 1_555
H8B C12B 0.949 1_555 1_555
H8J C12J 0.949 1_555 1_555
H8H C12H 0.949 1_555 1_555
C13B C9B 1.480 1_555 1_555
C13J C9J 1.480 1_555 1_555
C13H C9H 1.480 1_555 1_555
C14B C13B 1.380 1_555 1_555
C14J C15 1.406 1_555 1_555
C14H C13H 1.380 1_555 1_555
H9B C14B 0.950 1_555 1_555
H9J C14J 0.950 1_555 1_555
H9H C14H 0.950 1_555 1_555
C15B C14B 1.406 1_555 1_555
C16B C11B 1.413 1_555 1_555
C5 C6 1.425 1_555 1_555
C9 C10 1.380 1_555 1_555
C12 C13 1.434 1_555 1_555
C15 C16 1.428 1_555 1_555
C2B C3B 1.426 1_555 1_555
C3J C3H 1.482 1_555 1_555
C5B C6B 1.425 1_555 1_555
C5J C6J 1.425 1_555 1_555
C5H C6H 1.425 1_555 1_555
C9B C10B 1.380 1_555 1_555
C9J C10J 1.380 1_555 1_555
C9H C10H 1.380 1_555 1_555
C11H C16B 1.413 1_555 1_555
C12B C13B 1.434 1_555 1_555
C12J C13J 1.434 1_555 1_555
C12H C13H 1.434 1_555 1_555
C13J C14J 1.380 1_555 1_555
C14H C15B 1.406 1_555 1_555
C15B C16B 1.428 1_555 1_555
#END
