
#######################################################################
#
#                 Cambridge Crystallographic Data Centre
#                                CCDC
#
#######################################################################
#
# If this CIF has been generated from an entry in the Cambridge
# Structural Database, then it will include bibliographic, chemical,
# crystal, experimental, refinement or atomic coordinate data resulting
# from the CCDC's data processing and validation procedures.
#
#######################################################################

data_CSD_CIF_EVEHIW
_audit_creation_date 2004-07-15
_audit_creation_method CSD-ConQuest-V1
_database_code_CSD EVEHIW
_database_code_depnum_ccdc_archive 'CCDC 226048'
_chemical_formula_sum 'C26 H28'
_chemical_formula_moiety
;
C26 H28
;
_journal_coden_Cambridge 4
_journal_volume 126
_journal_year 2004
_journal_page_first 3108
_journal_name_full 'J.Am.Chem.Soc. '
loop_
_publ_author_name
"P.M.Donovan"
"L.T.Scott"
_chemical_name_systematic
;
3,10-Di-t-butylbenzo(c)phenanthrene
;
_chemical_melting_point 404
_cell_volume    970.564
_exptl_crystal_colour 'amber'
_exptl_crystal_density_diffrn 1.165
_exptl_special_details
;
Melting point range 404-406K

;
_diffrn_ambient_temperature 193
#These two values have been output from a single CSD field.
_refine_ls_R_factor_gt 0.0558
_refine_ls_wR_factor_gt 0.0558
_symmetry_cell_setting triclinic
_symmetry_space_group_name_H-M 'P -1'
_symmetry_Int_Tables_number 2
loop_
_symmetry_equiv_pos_site_id
_symmetry_equiv_pos_as_xyz
1 x,y,z
2 -x,-y,-z
_cell_length_a 8.2248(12)
_cell_length_b 9.9887(15)
_cell_length_c 13.0969(18)
_cell_angle_alpha 77.512(4)
_cell_angle_beta 81.672(4)
_cell_angle_gamma 67.844(4)
_cell_formula_units_Z 2
loop_
_atom_type_symbol
_atom_type_radius_bond
C 0.68
H 0.23
loop_
_atom_site_label
_atom_site_type_symbol
_atom_site_fract_x
_atom_site_fract_y
_atom_site_fract_z
C1 C 0.2490(2) 0.79841(18) 0.38548(13)
C2 C -0.2177(2) 1.06225(19) 0.22081(14)
C3 C 0.7819(2) 0.62138(19) 0.25229(14)
C4 C 0.0954(2) 0.88966(18) 0.32760(13)
C5 C 0.2239(2) 0.76324(19) 0.49486(14)
C6 C -0.0744(2) 0.91059(19) 0.37868(13)
C7 C -0.0496(2) 1.05410(19) 0.17481(13)
H1 H -0.03980 1.10690 0.10790
C8 C 0.9687(2) 0.56578(19) 0.20156(14)
C9 C -0.2257(2) 0.99183(19) 0.32263(14)
H2 H -0.33540 0.99780 0.35610
C10 C 0.4262(2) 0.73986(18) 0.33761(13)
C11 C 0.5701(2) 0.67926(19) 0.40210(13)
C12 C 0.1003(2) 0.97089(19) 0.22536(13)
H3 H 0.20870 0.96780 0.19130
C13 C 0.6360(2) 0.66981(19) 0.19053(13)
H4 H 0.65630 0.66250 0.11990
C14 C 0.7435(2) 0.62542(19) 0.35695(14)
H5 H 0.83610 0.59110 0.40040
C15 C -0.3808(2) 1.1459(2) 0.15808(15)
C16 C 0.4663(2) 0.72689(19) 0.23088(13)
H6 H 0.37490 0.75800 0.18690
C17 C 0.0512(2) 0.7932(2) 0.54398(14)
H7 H 0.03670 0.76830 0.61650
C18 C 0.3717(2) 0.6968(2) 0.55697(14)
H8 H 0.35340 0.67660 0.62950
C19 C 0.5372(2) 0.6626(2) 0.51300(14)
H9 H 0.63110 0.62780 0.55550
C20 C -0.0918(2) 0.8568(2) 0.48795(14)
H10 H -0.20250 0.86560 0.52080
C21 C 1.1072(2) 0.5177(2) 0.28132(15)
H11 H 1.09150 0.43980 0.33440
H12 H 1.09450 0.59940 0.31320
H13 H 1.22250 0.48380 0.24650
C22 C 0.9927(2) 0.4352(2) 0.14987(14)
H14 H 0.97500 0.35740 0.20220
H15 H 1.10950 0.40130 0.11700
H16 H 0.90840 0.46530 0.09810
C23 C -0.5473(2) 1.1358(2) 0.22202(17)
H17 H -0.64680 1.18860 0.18060
H18 H -0.56350 1.17760 0.28380
H19 H -0.53650 1.03460 0.24190
C24 C 0.9976(2) 0.6886(2) 0.11800(15)
H20 H 0.91200 0.71980 0.06690
H21 H 1.11370 0.65340 0.08430
H22 H 0.98520 0.77000 0.15020
C25 C -0.4020(2) 1.3077(2) 0.12523(15)
H23 H -0.50400 1.35900 0.08560
H24 H -0.29950 1.31570 0.08290
H25 H -0.41600 1.35010 0.18660
C26 C -0.3573(3) 1.0783(2) 0.06011(16)
H26 H -0.45860 1.12990 0.02000
H27 H -0.34460 0.97680 0.08060
H28 H -0.25420 1.08590 0.01830
loop_
_geom_bond_atom_site_label_1
_geom_bond_atom_site_label_2
_geom_bond_distance
_geom_bond_site_symmetry_1
_geom_bond_site_symmetry_2
C1 C4 1.453 1_555 1_555
C2 C7 1.406 1_555 1_555
C3 C8 1.527 1_555 1_555
C4 C6 1.418 1_555 1_555
C5 C1 1.403 1_555 1_555
C6 C9 1.411 1_555 1_555
C7 H1 0.930 1_555 1_555
C8 C21 1.528 1_555 1_555
C9 C2 1.372 1_555 1_555
H2 C9 0.931 1_555 1_555
C10 C1 1.453 1_555 1_555
C11 C10 1.417 1_555 1_555
C12 C4 1.411 1_555 1_555
H3 C12 0.930 1_555 1_555
C13 C3 1.415 1_555 1_555
H4 C13 0.930 1_555 1_555
C14 C3 1.367 1_555 1_555
H5 C14 0.930 1_555 1_555
C15 C2 1.533 1_555 1_555
C16 C10 1.411 1_555 1_555
H6 C16 0.930 1_555 1_555
C17 C5 1.421 1_555 1_555
H7 C17 0.930 1_555 1_555
C18 C5 1.423 1_555 1_555
H8 C18 0.930 1_555 1_555
C19 C11 1.423 1_555 1_555
H9 C19 0.930 1_555 1_555
C20 C6 1.422 1_555 1_555
H10 C20 0.930 1_555 1_555
C21 H11 0.960 1_555 1_555
H12 C21 0.960 1_555 1_555
H13 C21 0.960 1_555 1_555
C22 C8 1.532 1_555 1_555
H14 C22 0.960 1_555 1_555
H15 C22 0.960 1_555 1_555
H16 C22 0.960 1_555 1_555
C23 C15 1.524 1_555 1_555
H17 C23 0.960 1_555 1_555
H18 C23 0.959 1_555 1_555
H19 C23 0.961 1_555 1_555
C24 C8 1.524 1_555 1_555
H20 C24 0.960 1_555 1_555
H21 C24 0.960 1_555 1_555
H22 C24 0.961 1_555 1_555
C25 C15 1.528 1_555 1_555
H23 C25 0.961 1_555 1_555
H24 C25 0.960 1_555 1_555
H25 C25 0.960 1_555 1_555
C26 C15 1.531 1_555 1_555
H26 C26 0.960 1_555 1_555
H27 C26 0.960 1_555 1_555
H28 C26 0.960 1_555 1_555
C7 C12 1.369 1_555 1_555
C11 C14 1.410 1_555 1_555
C13 C16 1.367 1_555 1_555
C17 C20 1.345 1_555 1_555
C18 C19 1.345 1_555 1_555
#END
