
#######################################################################
#
#                 Cambridge Crystallographic Data Centre
#                                CCDC
#
#######################################################################
#
# If this CIF has been generated from an entry in the Cambridge
# Structural Database, then it will include bibliographic, chemical,
# crystal, experimental, refinement or atomic coordinate data resulting
# from the CCDC's data processing and validation procedures.
#
#######################################################################

data_CSD_CIF_EZAYUA
_audit_creation_date 2011-11-07
_audit_creation_method CSD-ConQuest-V1
_database_code_CSD EZAYUA
_database_code_depnum_ccdc_archive 'CCDC 769338'
_chemical_formula_sum 'C24 H16'
_chemical_formula_moiety
;
C24 H16
;
_journal_coden_Cambridge 1336
_journal_volume 13
_journal_year 2011
_journal_page_first 4450
_journal_name_full 'Org.Lett. '
loop_
_publ_author_name
"G.Pieters"
"A.Gaucher"
"J.Marrot"
"F.Maurel"
"J.-V.Naubron"
"M.Jean"
"N.Vanthuyne"
"J.Crassous"
"D.Prim"
_chemical_name_systematic
;
8H-3,4-Methanodibenzo[4,5:7,8]cycloocta[1,2,3-de]naphthalene
;
_cell_volume   1589.505
_exptl_crystal_colour 'colorless'
_exptl_crystal_density_diffrn 1.272
_exptl_crystal_description 'parallelepiped'
_diffrn_ambient_temperature 296
#These two values have been output from a single CSD field.
_refine_ls_R_factor_gt 0.0478
_refine_ls_wR_factor_gt 0.0478
_symmetry_cell_setting monoclinic
_symmetry_space_group_name_H-M 'P 21/c'
_symmetry_Int_Tables_number 14
loop_
_symmetry_equiv_pos_site_id
_symmetry_equiv_pos_as_xyz
1 x,y,z
2 -x,1/2+y,1/2-z
3 -x,-y,-z
4 x,-1/2-y,-1/2+z
_cell_length_a 10.1508(2)
_cell_length_b 10.3780(2)
_cell_length_c 15.3210(4)
_cell_angle_alpha 90
_cell_angle_beta 99.993(1)
_cell_angle_gamma 90
_cell_formula_units_Z 4
loop_
_atom_type_symbol
_atom_type_radius_bond
C 0.68
H 0.23
loop_
_atom_site_label
_atom_site_type_symbol
_atom_site_fract_x
_atom_site_fract_y
_atom_site_fract_z
C1 C 0.28869(15) -0.06494(15) 0.20919(10)
C2 C 0.29306(18) -0.19915(16) 0.21441(11)
H1 H 0.36470 -0.23880 0.25050
C3 C 0.19380(19) -0.27405(17) 0.16736(13)
H2 H 0.19890 -0.36340 0.17120
C4 C 0.08679(19) -0.21612(17) 0.11449(12)
H3 H 0.01940 -0.26620 0.08220
C5 C 0.07975(16) -0.08324(16) 0.10947(11)
H4 H 0.00630 -0.04470 0.07440
C6 C 0.18061(14) -0.00557(14) 0.15593(9)
C7 C 0.16048(14) 0.13765(15) 0.14966(10)
C8 C 0.04508(16) 0.18209(17) 0.17505(12)
H5 H -0.00400 0.12600 0.20430
C9 C -0.00150(18) 0.30852(18) 0.15864(13)
H6 H -0.07610 0.33750 0.18060
C10 C 0.06360(17) 0.38749(17) 0.11047(12)
H7 H 0.03010 0.46970 0.09620
C11 C 0.18194(16) 0.34759(15) 0.08121(10)
C12 C 0.24061(14) 0.22442(14) 0.10771(9)
C13 C 0.37002(15) 0.19937(14) 0.08499(9)
C14 C 0.41637(17) 0.27799(17) 0.02313(10)
C15 C 0.3502(2) 0.39126(18) -0.00866(12)
H8 H 0.38140 0.44060 -0.05150
C16 C 0.23972(19) 0.42839(17) 0.02371(12)
H9 H 0.20140 0.50830 0.00780
C17 C 0.54471(18) 0.22723(19) 0.00088(13)
H10 H 0.53200 0.19530 -0.05950
H11 H 0.61340 0.29330 0.00830
C18 C 0.58029(16) 0.12059(18) 0.06589(11)
C19 C 0.47912(14) 0.10595(15) 0.11764(10)
C20 C 0.50346(14) 0.02572(16) 0.19192(10)
C21 C 0.62108(16) -0.04581(19) 0.20647(13)
H12 H 0.63710 -0.10130 0.25480
C22 C 0.71513(18) -0.0370(2) 0.15118(16)
H13 H 0.79130 -0.08840 0.16130
C23 C 0.69569(17) 0.0476(2) 0.08171(15)
H14 H 0.75970 0.05600 0.04540
C24 C 0.40494(16) 0.01339(16) 0.25435(10)
H15 H 0.44670 -0.02870 0.30870
H16 H 0.37470 0.09800 0.26920
loop_
_geom_bond_atom_site_label_1
_geom_bond_atom_site_label_2
_geom_bond_distance
_geom_bond_site_symmetry_1
_geom_bond_site_symmetry_2
C1 C2 1.395 1_555 1_555
C2 H1 0.930 1_555 1_555
C3 C2 1.374 1_555 1_555
H2 C3 0.930 1_555 1_555
C4 C3 1.376 1_555 1_555
H3 C4 0.930 1_555 1_555
C5 C4 1.382 1_555 1_555
H4 C5 0.930 1_555 1_555
C6 C1 1.392 1_555 1_555
C7 C6 1.501 1_555 1_555
C8 C7 1.376 1_555 1_555
H5 C8 0.930 1_555 1_555
C9 C8 1.403 1_555 1_555
H6 C9 0.930 1_555 1_555
C10 C9 1.350 1_555 1_555
H7 C10 0.930 1_555 1_555
C11 C10 1.415 1_555 1_555
C12 C7 1.438 1_555 1_555
C13 C12 1.440 1_555 1_555
C14 C13 1.393 1_555 1_555
C15 C14 1.399 1_555 1_555
H8 C15 0.930 1_555 1_555
C16 C11 1.415 1_555 1_555
H9 C16 0.930 1_555 1_555
C17 C14 1.498 1_555 1_555
H10 C17 0.970 1_555 1_555
H11 C17 0.970 1_555 1_555
C18 C17 1.491 1_555 1_555
C19 C13 1.491 1_555 1_555
C20 C19 1.397 1_555 1_555
C21 C20 1.391 1_555 1_555
H12 C21 0.930 1_555 1_555
C22 C21 1.385 1_555 1_555
H13 C22 0.930 1_555 1_555
C23 C18 1.381 1_555 1_555
H14 C23 0.930 1_555 1_555
C24 C1 1.500 1_555 1_555
H15 C24 0.970 1_555 1_555
H16 C24 0.970 1_555 1_555
C5 C6 1.397 1_555 1_555
C11 C12 1.439 1_555 1_555
C15 C16 1.358 1_555 1_555
C18 C19 1.410 1_555 1_555
C20 C24 1.504 1_555 1_555
C22 C23 1.367 1_555 1_555
#END
