
#######################################################################
#
#                 Cambridge Crystallographic Data Centre
#                                CCDC
#
#######################################################################
#
# If this CIF has been generated from an entry in the Cambridge
# Structural Database, then it will include bibliographic, chemical,
# crystal, experimental, refinement or atomic coordinate data resulting
# from the CCDC's data processing and validation procedures.
#
#######################################################################

data_CSD_CIF_EZOPEO
_audit_creation_date 2004-10-28
_audit_creation_method CSD-ConQuest-V1
_database_code_CSD EZOPEO
_database_code_depnum_ccdc_archive 'CCDC 238284'
_chemical_formula_sum 'C44 H24'
_chemical_formula_moiety
;
C44 H24
;
_journal_coden_Cambridge 1078
_journal_year 2004
_journal_name_full 'CSD Communication(Private Communication) '
loop_
_publ_author_name
"P.G.Jones"
"P.Bubenitschek"
_chemical_name_systematic
;
1,2:1,2:3,4:3,4-tetrakis(Naphthalene-1,8-diyl)cyclobutane
;
_chemical_name_common
;
Tetranaphthabi(3.3)propellane
;
_cell_volume    684.478
_exptl_crystal_colour 'colorless'
_exptl_crystal_density_diffrn 1.341
_exptl_special_details
;
contribution from Institut fur Anorganische und Analytische Chemie, 
Technische Universitat Braunschweig, Postfach 3329 38023 Braunschweig, 
Germany
;
_exptl_crystal_description 'block'
_diffrn_ambient_temperature 173
#These two values have been output from a single CSD field.
_refine_ls_R_factor_gt 0.0368
_refine_ls_wR_factor_gt 0.0368
_symmetry_cell_setting triclinic
_symmetry_space_group_name_H-M 'P -1'
_symmetry_Int_Tables_number 2
loop_
_symmetry_equiv_pos_site_id
_symmetry_equiv_pos_as_xyz
1 x,y,z
2 -x,-y,-z
_cell_length_a 8.524(2)
_cell_length_b 8.565(2)
_cell_length_c 10.033(2)
_cell_angle_alpha 95.12(2)
_cell_angle_beta 102.42(2)
_cell_angle_gamma 104.53(2)
_cell_formula_units_Z 1
loop_
_atom_type_symbol
_atom_type_radius_bond
C 0.68
H 0.23
loop_
_atom_site_label
_atom_site_type_symbol
_atom_site_fract_x
_atom_site_fract_y
_atom_site_fract_z
C1 C 0.35259(18) 0.18141(17) 0.43276(15)
C2 C 0.1983(2) 0.20398(19) 0.38508(17)
H1 H 0.10400 0.14290 0.41220
C3 C 0.1812(2) 0.3199(2) 0.29452(18)
H2 H 0.07360 0.33400 0.26010
C4 C 0.3147(2) 0.4124(2) 0.25480(17)
H3 H 0.29840 0.48880 0.19390
C5 C 0.4768(2) 0.39428(18) 0.30427(15)
C6 C 0.6269(2) 0.48180(18) 0.27469(16)
H4 H 0.62480 0.56240 0.21570
C7 C 0.7752(2) 0.45031(19) 0.33107(17)
H5 H 0.87440 0.51070 0.31020
C8 C 0.78615(19) 0.33098(18) 0.41941(16)
H6 H 0.89060 0.31190 0.45710
C9 C 0.64316(18) 0.24401(17) 0.44923(14)
C10 C 0.49039(18) 0.27614(17) 0.39213(14)
C11 C 0.60901(17) 0.11265(17) 0.53918(15)
C12 C 0.41420(17) 0.07109(17) 0.52823(15)
C13 C 0.40018(18) 0.09759(16) 0.67528(15)
C14 C 0.2665(2) 0.08161(18) 0.73332(17)
H7 H 0.15540 0.04580 0.67700
C15 C 0.2963(2) 0.11941(19) 0.87878(17)
H8 H 0.20350 0.10680 0.91890
C16 C 0.4544(2) 0.17334(19) 0.96309(17)
H9 H 0.46950 0.19870 1.06000
C17 C 0.5955(2) 0.19162(18) 0.90682(15)
C18 C 0.7661(2) 0.2462(2) 0.97962(17)
H10 H 0.79490 0.27630 1.07710
C19 C 0.8901(2) 0.2560(2) 0.91058(17)
H11 H 1.00350 0.29280 0.96180
C20 C 0.85447(19) 0.21296(18) 0.76520(16)
H12 H 0.94250 0.21990 0.71980
C21 C 0.69081(18) 0.16123(16) 0.69144(15)
C22 C 0.56326(18) 0.15082(16) 0.76255(15)
C12A C 0.58580(17) -0.07109(17) 0.47177(15)
C1A C 0.64741(18) -0.18141(17) 0.56724(15)
C2A C 0.8017(2) -0.20398(19) 0.61492(17)
H1A H 0.89600 -0.14290 0.58780
C3A C 0.8188(2) -0.3199(2) 0.70548(18)
H2A H 0.92640 -0.33400 0.73990
C4A C 0.6853(2) -0.4124(2) 0.74520(17)
H3A H 0.70160 -0.48880 0.80610
C5A C 0.5232(2) -0.39428(18) 0.69573(15)
C6A C 0.3731(2) -0.48180(18) 0.72531(16)
H4A H 0.37520 -0.56240 0.78430
C7A C 0.2248(2) -0.45031(19) 0.66893(17)
H5A H 0.12560 -0.51070 0.68980
C8A C 0.21385(19) -0.33098(18) 0.58059(16)
H6A H 0.10940 -0.31190 0.54290
C9A C 0.35684(18) -0.24401(17) 0.55077(14)
C10A C 0.50961(18) -0.27614(17) 0.60787(14)
C11A C 0.39099(17) -0.11265(17) 0.46082(15)
C13A C 0.59982(18) -0.09759(16) 0.32472(15)
C14A C 0.7335(2) -0.08161(18) 0.26668(17)
H7A H 0.84460 -0.04580 0.32300
C15A C 0.7037(2) -0.11941(19) 0.12122(17)
H8A H 0.79650 -0.10680 0.08110
C16A C 0.5456(2) -0.17334(19) 0.03691(17)
H9A H 0.53050 -0.19870 -0.06000
C17A C 0.4045(2) -0.19162(18) 0.09318(15)
C18A C 0.2339(2) -0.2462(2) 0.02038(17)
H10A H 0.20510 -0.27630 -0.07710
C19A C 0.1099(2) -0.2560(2) 0.08942(17)
H11A H -0.00350 -0.29280 0.03820
C20A C 0.14553(19) -0.21296(18) 0.23480(16)
H12A H 0.05750 -0.21990 0.28020
C21A C 0.30919(18) -0.16123(16) 0.30856(15)
C22A C 0.43674(18) -0.15082(16) 0.23745(15)
loop_
_geom_bond_atom_site_label_1
_geom_bond_atom_site_label_2
_geom_bond_distance
_geom_bond_site_symmetry_1
_geom_bond_site_symmetry_2
C1 C2 1.367 1_555 1_555
C2 H1 0.950 1_555 1_555
C3 C2 1.417 1_555 1_555
H2 C3 0.950 1_555 1_555
C4 C3 1.371 1_555 1_555
H3 C4 0.949 1_555 1_555
C5 C4 1.416 1_555 1_555
C6 C5 1.417 1_555 1_555
H4 C6 0.950 1_555 1_555
C7 C6 1.372 1_555 1_555
H5 C7 0.950 1_555 1_555
C8 C7 1.419 1_555 1_555
H6 C8 0.950 1_555 1_555
C9 C8 1.368 1_555 1_555
C10 C1 1.411 1_555 1_555
C11 C9 1.515 1_555 1_555
C12 C1 1.510 1_555 1_555
C13 C12 1.507 1_555 1_555
C14 C13 1.370 1_555 1_555
H7 C14 0.950 1_555 1_555
C15 C14 1.419 1_555 1_555
H8 C15 0.949 1_555 1_555
C16 C15 1.368 1_555 1_555
H9 C16 0.951 1_555 1_555
C17 C16 1.415 1_555 1_555
C18 C17 1.417 1_555 1_555
H10 C18 0.950 1_555 1_555
C19 C18 1.373 1_555 1_555
H11 C19 0.950 1_555 1_555
C20 C19 1.419 1_555 1_555
H12 C20 0.951 1_555 1_555
C21 C11 1.509 1_555 1_555
C22 C13 1.412 1_555 1_555
C12A C11 1.603 1_555 1_555
C1A C12A 1.510 1_555 1_555
C2A C1A 1.367 1_555 1_555
H1A C2A 0.950 1_555 1_555
C3A C2A 1.417 1_555 1_555
H2A C3A 0.950 1_555 1_555
C4A C3A 1.371 1_555 1_555
H3A C4A 0.949 1_555 1_555
C5A C4A 1.416 1_555 1_555
C6A C5A 1.417 1_555 1_555
H4A C6A 0.950 1_555 1_555
C7A C6A 1.372 1_555 1_555
H5A C7A 0.950 1_555 1_555
C8A C7A 1.419 1_555 1_555
H6A C8A 0.950 1_555 1_555
C9A C8A 1.368 1_555 1_555
C10A C1A 1.411 1_555 1_555
C11A C12 1.603 1_555 1_555
C13A C12A 1.507 1_555 1_555
C14A C13A 1.370 1_555 1_555
H7A C14A 0.950 1_555 1_555
C15A C14A 1.419 1_555 1_555
H8A C15A 0.949 1_555 1_555
C16A C15A 1.368 1_555 1_555
H9A C16A 0.951 1_555 1_555
C17A C16A 1.415 1_555 1_555
C18A C17A 1.417 1_555 1_555
H10A C18A 0.950 1_555 1_555
C19A C18A 1.373 1_555 1_555
H11A C19A 0.950 1_555 1_555
C20A C19A 1.419 1_555 1_555
H12A C20A 0.951 1_555 1_555
C21A C11A 1.509 1_555 1_555
C22A C13A 1.412 1_555 1_555
C5 C10 1.410 1_555 1_555
C9 C10 1.410 1_555 1_555
C11 C12 1.586 1_555 1_555
C17 C22 1.408 1_555 1_555
C20 C21 1.370 1_555 1_555
C21 C22 1.413 1_555 1_555
C12A C11A 1.586 1_555 1_555
C5A C10A 1.410 1_555 1_555
C9A C10A 1.410 1_555 1_555
C9A C11A 1.515 1_555 1_555
C17A C22A 1.408 1_555 1_555
C20A C21A 1.370 1_555 1_555
C21A C22A 1.413 1_555 1_555
#END
