
#######################################################################
#
#                 Cambridge Crystallographic Data Centre
#                                CCDC
#
#######################################################################
#
# If this CIF has been generated from an entry in the Cambridge
# Structural Database, then it will include bibliographic, chemical,
# crystal, experimental, refinement or atomic coordinate data resulting
# from the CCDC's data processing and validation procedures.
#
#######################################################################

data_CSD_CIF_EZUHIR
_audit_creation_date 2011-12-12
_audit_creation_method CSD-ConQuest-V1
_database_code_CSD EZUHIR
_database_code_depnum_ccdc_archive 'CCDC 848365'
_chemical_formula_sum 'C50 H36'
_chemical_formula_moiety
;
C50 H36
;
_journal_coden_Cambridge 1336
_journal_volume 13
_journal_year 2011
_journal_page_first 4644
_journal_name_full 'Org.Lett. '
loop_
_publ_author_name
"Tse-An Chen"
"Rai-Shung Liu"
_chemical_name_systematic
;
9,19-Di-t-butyltetrabenzo[gh,jk,tu,wx]pyranthrene
;
_cell_volume   1573.116
_exptl_crystal_colour 'brown'
_exptl_crystal_density_diffrn 1.344
_exptl_crystal_description 'columnar'
_diffrn_ambient_temperature 100
#These two values have been output from a single CSD field.
_refine_ls_R_factor_gt 0.095
_refine_ls_wR_factor_gt 0.095
_symmetry_cell_setting triclinic
_symmetry_space_group_name_H-M 'P -1'
_symmetry_Int_Tables_number 2
loop_
_symmetry_equiv_pos_site_id
_symmetry_equiv_pos_as_xyz
1 x,y,z
2 -x,-y,-z
_cell_length_a 5.9165(11)
_cell_length_b 15.540(3)
_cell_length_c 17.695(3)
_cell_angle_alpha 102.054(4)
_cell_angle_beta 92.986(4)
_cell_angle_gamma 97.261(4)
_cell_formula_units_Z 2
loop_
_atom_type_symbol
_atom_type_radius_bond
C 0.68
H 0.23
loop_
_atom_site_label
_atom_site_type_symbol
_atom_site_fract_x
_atom_site_fract_y
_atom_site_fract_z
C1 C 0.7185(9) 0.2436(4) 0.0789(3)
C2 C 0.5971(9) 0.3147(4) 0.1036(3)
H1 H 0.47420 0.30670 0.13510
C3 C 0.6490(9) 0.3960(4) 0.0841(3)
C4 C 0.5272(8) 0.4704(3) 0.1141(3)
C5 C 0.3273(8) 0.4581(4) 0.1516(3)
H2 H 0.26450 0.39990 0.15520
C6 C 0.2200(9) 0.5292(4) 0.1835(3)
H3 H 0.08600 0.51970 0.20970
C7 C 0.3078(9) 0.6160(4) 0.1776(3)
H4 H 0.23440 0.66490 0.20040
C8 C 0.5024(9) 0.6300(4) 0.1382(3)
C9 C 0.6034(9) 0.7188(4) 0.1363(3)
C10 C 0.5171(9) 0.7950(4) 0.1741(3)
H5 H 0.37310 0.78770 0.19510
C11 C 0.6288(10) 0.8783(4) 0.1823(3)
H6 H 0.55970 0.92810 0.20590
C12 C 0.8462(10) 0.8906(4) 0.1558(3)
H7 H 0.93290 0.94810 0.16560
C13 C 0.9330(9) 0.8185(3) 0.1155(3)
H8 H 1.08160 0.82690 0.09800
C14 C 0.8080(9) 0.7317(4) 0.0991(3)
C15 C 0.8906(9) 0.6550(3) 0.0514(3)
C16 C 0.8035(8) 0.5703(3) 0.0591(3)
C17 C 0.9056(8) 0.4937(4) 0.0220(3)
C18 C 0.8297(8) 0.4086(3) 0.0357(3)
C19 C 0.9427(9) 0.3349(3) 0.0036(3)
C20 C 0.8908(9) 0.2570(4) 0.0305(3)
H9 H 0.97880 0.21030 0.01470
C21 C 0.6128(8) 0.5571(3) 0.1051(3)
C22 C 0.6611(9) 0.1568(4) 0.1051(3)
C23 C 0.7622(13) 0.1677(4) 0.1890(4)
H10 H 0.92770 0.18600 0.19200
H11 H 0.73140 0.11090 0.20510
H12 H 0.69200 0.21300 0.22340
C24 C 0.4046(10) 0.1302(4) 0.1007(5)
H13 H 0.33750 0.17450 0.13730
H14 H 0.37120 0.07200 0.11400
H15 H 0.33910 0.12690 0.04800
C25 C 0.7589(10) 0.0800(4) 0.0542(4)
H16 H 0.71150 0.07630 -0.00040
H17 H 0.70150 0.02410 0.06860
H18 H 0.92610 0.09030 0.06200
C26 C 0.2066(9) 0.2020(4) 0.4213(3)
C27 C 0.3986(9) 0.2405(4) 0.4688(3)
H19 H 0.50020 0.20310 0.48350
C28 C 0.4531(9) 0.3333(3) 0.4968(3)
C29 C 0.6485(9) 0.3730(4) 0.5518(3)
C30 C 0.7608(8) 0.3216(3) 0.5997(3)
C31 C 0.6496(9) 0.2420(3) 0.6151(3)
H20 H 0.49290 0.22340 0.59790
C32 C 0.7638(10) 0.1907(4) 0.6547(3)
H21 H 0.68670 0.13670 0.66350
C33 C 0.9928(10) 0.2183(4) 0.6817(3)
H22 H 1.07730 0.18080 0.70450
C34 C 1.0941(10) 0.3006(4) 0.6748(3)
H23 H 1.24580 0.32150 0.69710
C35 C 0.9809(9) 0.3548(4) 0.6358(3)
C36 C 1.0756(9) 0.4468(4) 0.6374(3)
C37 C 1.2869(9) 0.4819(4) 0.6766(3)
H24 H 1.37460 0.44560 0.69970
C38 C 1.3695(9) 0.5716(4) 0.6816(3)
H25 H 1.51700 0.59560 0.70630
C39 C 1.2392(9) 0.6251(4) 0.6512(3)
H26 H 1.29710 0.68610 0.65650
C40 C 1.0241(9) 0.5924(4) 0.6128(3)
C41 C 0.8809(9) 0.6501(4) 0.5832(3)
C42 C 0.6808(9) 0.6110(3) 0.5348(3)
C43 C 0.6042(8) 0.5175(3) 0.5216(3)
C44 C 0.7278(9) 0.4617(4) 0.5588(3)
C45 C 0.9418(8) 0.4999(3) 0.6041(3)
C46 C 0.9359(9) 0.7422(4) 0.6027(3)
H27 H 1.07430 0.76770 0.63330
C47 C 0.1522(9) 0.1007(4) 0.3940(3)
C48 C 0.2571(10) 0.0531(4) 0.4519(4)
H28 H 0.42370 0.06070 0.45050
H29 H 0.19680 -0.01040 0.43810
H30 H 0.21780 0.07850 0.50430
C49 C -0.1067(10) 0.0707(4) 0.3852(4)
H31 H -0.17120 0.09110 0.43460
H32 H -0.13720 0.00570 0.37020
H33 H -0.17720 0.09620 0.34510
C50 C 0.2475(11) 0.0724(4) 0.3147(4)
H34 H 0.17990 0.10260 0.27750
H35 H 0.20920 0.00790 0.29610
H36 H 0.41390 0.08870 0.31990
C1A C 1.2815(9) 0.7564(4) -0.0789(3)
C2A C 1.4029(9) 0.6853(4) -0.1036(3)
H1A H 1.52580 0.69330 -0.13510
C3A C 1.3510(9) 0.6040(4) -0.0841(3)
C4A C 1.4728(8) 0.5296(3) -0.1141(3)
C5A C 1.6727(8) 0.5419(4) -0.1516(3)
H2A H 1.73550 0.60010 -0.15520
C6A C 1.7800(9) 0.4708(4) -0.1835(3)
H3A H 1.91400 0.48030 -0.20970
C7A C 1.6922(9) 0.3840(4) -0.1776(3)
H4A H 1.76560 0.33510 -0.20040
C8A C 1.4976(9) 0.3700(4) -0.1382(3)
C9A C 1.3966(9) 0.2812(4) -0.1363(3)
C10A C 1.4829(9) 0.2050(4) -0.1741(3)
H5A H 1.62690 0.21230 -0.19510
C11A C 1.3712(10) 0.1217(4) -0.1823(3)
H6A H 1.44030 0.07190 -0.20590
C12A C 1.1538(10) 0.1094(4) -0.1558(3)
H7A H 1.06710 0.05190 -0.16560
C13A C 1.0670(9) 0.1815(3) -0.1155(3)
H8A H 0.91840 0.17310 -0.09800
C14A C 1.1920(9) 0.2683(4) -0.0991(3)
C15A C 1.1094(9) 0.3450(3) -0.0514(3)
C16A C 1.1965(8) 0.4297(3) -0.0591(3)
C17A C 1.0944(8) 0.5063(4) -0.0220(3)
C18A C 1.1703(8) 0.5914(3) -0.0357(3)
C19A C 1.0573(9) 0.6651(3) -0.0036(3)
C20A C 1.1092(9) 0.7430(4) -0.0305(3)
H9A H 1.02120 0.78970 -0.01470
C21A C 1.3872(8) 0.4429(3) -0.1051(3)
C22A C 1.3389(9) 0.8432(4) -0.1051(3)
C23A C 1.2378(13) 0.8323(4) -0.1890(4)
H10A H 1.07230 0.81400 -0.19200
H11A H 1.26860 0.88910 -0.20510
H12A H 1.30800 0.78700 -0.22340
C24A C 1.5954(10) 0.8698(4) -0.1007(5)
H13A H 1.66250 0.82550 -0.13730
H14A H 1.62880 0.92800 -0.11400
H15A H 1.66090 0.87310 -0.04800
C25A C 1.2411(10) 0.9200(4) -0.0542(4)
H16A H 1.28850 0.92370 0.00040
H17A H 1.29850 0.97590 -0.06860
H18A H 1.07390 0.90970 -0.06200
C26A C 0.7934(9) 0.7980(4) 0.5787(3)
C27A C 0.6014(9) 0.7595(4) 0.5312(3)
H19A H 0.49980 0.79690 0.51650
C28A C 0.5469(9) 0.6667(3) 0.5032(3)
C29A C 0.3515(9) 0.6270(4) 0.4482(3)
C30A C 0.2392(8) 0.6784(3) 0.4003(3)
C31A C 0.3504(9) 0.7580(3) 0.3849(3)
H20A H 0.50710 0.77660 0.40210
C32A C 0.2362(10) 0.8093(4) 0.3453(3)
H21A H 0.31330 0.86330 0.33650
C33A C 0.0072(10) 0.7817(4) 0.3183(3)
H22A H -0.07730 0.81920 0.29550
C34A C -0.0941(10) 0.6994(4) 0.3252(3)
H23A H -0.24580 0.67850 0.30290
C35A C 0.0191(9) 0.6452(4) 0.3642(3)
C36A C -0.0756(9) 0.5532(4) 0.3626(3)
C37A C -0.2869(9) 0.5181(4) 0.3234(3)
H24A H -0.37460 0.55440 0.30030
C38A C -0.3695(9) 0.4284(4) 0.3184(3)
H25A H -0.51700 0.40440 0.29370
C39A C -0.2392(9) 0.3749(4) 0.3488(3)
H26A H -0.29710 0.31390 0.34350
C40A C -0.0241(9) 0.4076(4) 0.3872(3)
C41A C 0.1191(9) 0.3499(4) 0.4168(3)
C42A C 0.3192(9) 0.3890(3) 0.4652(3)
C43A C 0.3958(8) 0.4825(3) 0.4784(3)
C44A C 0.2722(9) 0.5383(4) 0.4412(3)
C45A C 0.0582(8) 0.5001(3) 0.3959(3)
C46A C 0.0641(9) 0.2578(4) 0.3973(3)
H27A H -0.07430 0.23230 0.36670
C47A C 0.8478(9) 0.8993(4) 0.6060(3)
C48A C 0.7429(10) 0.9469(4) 0.5481(4)
H28A H 0.57630 0.93930 0.54950
H29A H 0.80320 1.01040 0.56190
H30A H 0.78220 0.92150 0.49570
C49A C 1.1067(10) 0.9293(4) 0.6148(4)
H31A H 1.17120 0.90890 0.56540
H32A H 1.13720 0.99430 0.62980
H33A H 1.17720 0.90380 0.65490
C50A C 0.7525(11) 0.9276(4) 0.6853(4)
H34A H 0.82010 0.89740 0.72250
H35A H 0.79080 0.99210 0.70390
H36A H 0.58610 0.91130 0.68010
loop_
_geom_bond_atom_site_label_1
_geom_bond_atom_site_label_2
_geom_bond_distance
_geom_bond_site_symmetry_1
_geom_bond_site_symmetry_2
C1 C2 1.400 1_555 1_555
C2 H1 0.950 1_555 1_555
C3 C2 1.380 1_555 1_555
C4 C3 1.460 1_555 1_555
C5 C4 1.398 1_555 1_555
H2 C5 0.950 1_555 1_555
C6 C5 1.377 1_555 1_555
H3 C6 0.950 1_555 1_555
C7 C6 1.410 1_555 1_555
H4 C7 0.950 1_555 1_555
C8 C7 1.394 1_555 1_555
C9 C8 1.441 1_555 1_555
C10 C9 1.403 1_555 1_555
H5 C10 0.950 1_555 1_555
C11 C10 1.352 1_555 1_555
H6 C11 0.950 1_555 1_555
C12 C11 1.396 1_555 1_555
H7 C12 0.950 1_555 1_555
C13 C12 1.370 1_555 1_555
H8 C13 0.950 1_555 1_555
C14 C9 1.420 1_555 1_555
C15 C14 1.464 1_555 1_555
C16 C15 1.388 1_555 1_555
C17 C16 1.452 1_555 1_555
C18 C3 1.424 1_555 1_555
C19 C18 1.429 1_555 1_555
C20 C1 1.388 1_555 1_555
H9 C20 0.950 1_555 1_555
C21 C4 1.422 1_555 1_555
C22 C1 1.520 1_555 1_555
C23 C22 1.539 1_555 1_555
H10 C23 0.980 1_555 1_555
H11 C23 0.981 1_555 1_555
H12 C23 0.980 1_555 1_555
C24 C22 1.515 1_555 1_555
H13 C24 0.980 1_555 1_555
H14 C24 0.980 1_555 1_555
H15 C24 0.980 1_555 1_555
C25 C22 1.533 1_555 1_555
H16 C25 0.980 1_555 1_555
H17 C25 0.981 1_555 1_555
H18 C25 0.980 1_555 1_555
C26 C27 1.369 1_555 1_555
C27 H19 0.950 1_555 1_555
C28 C27 1.413 1_555 1_555
C29 C28 1.455 1_555 1_555
C30 C29 1.468 1_555 1_555
C31 C30 1.411 1_555 1_555
H20 C31 0.950 1_555 1_555
C32 C31 1.380 1_555 1_555
H21 C32 0.950 1_555 1_555
C33 C32 1.396 1_555 1_555
H22 C33 0.950 1_555 1_555
C34 C33 1.374 1_555 1_555
H23 C34 0.950 1_555 1_555
C35 C30 1.406 1_555 1_555
C36 C35 1.462 1_555 1_555
C37 C36 1.386 1_555 1_555
H24 C37 0.950 1_555 1_555
C38 C37 1.401 1_555 1_555
H25 C38 0.950 1_555 1_555
C39 C38 1.371 1_555 1_555
H26 C39 0.950 1_555 1_555
C40 C39 1.393 1_555 1_555
C41 C40 1.462 1_555 1_555
C42 C41 1.414 1_555 1_555
C43 C42 1.432 1_555 1_555
C44 C29 1.376 1_555 1_555
C45 C36 1.405 1_555 1_555
C46 C41 1.392 1_555 1_555
H27 C46 0.950 1_555 1_555
C47 C26 1.534 1_555 1_555
C48 C47 1.532 1_555 1_555
H28 C48 0.980 1_555 1_555
H29 C48 0.981 1_555 1_555
H30 C48 0.981 1_555 1_555
C49 C47 1.534 1_555 1_555
H31 C49 0.980 1_555 1_555
H32 C49 0.980 1_555 1_555
H33 C49 0.981 1_555 1_555
C50 C47 1.539 1_555 1_555
H34 C50 0.981 1_555 1_555
H35 C50 0.980 1_555 1_555
H36 C50 0.980 1_555 1_555
C1A C2A 1.400 1_555 1_555
C2A H1A 0.950 1_555 1_555
C3A C2A 1.380 1_555 1_555
C4A C3A 1.460 1_555 1_555
C5A C4A 1.398 1_555 1_555
H2A C5A 0.950 1_555 1_555
C6A C5A 1.377 1_555 1_555
H3A C6A 0.950 1_555 1_555
C7A C6A 1.410 1_555 1_555
H4A C7A 0.950 1_555 1_555
C8A C7A 1.394 1_555 1_555
C9A C8A 1.441 1_555 1_555
C10A C9A 1.403 1_555 1_555
H5A C10A 0.950 1_555 1_555
C11A C10A 1.352 1_555 1_555
H6A C11A 0.950 1_555 1_555
C12A C11A 1.396 1_555 1_555
H7A C12A 0.950 1_555 1_555
C13A C12A 1.370 1_555 1_555
H8A C13A 0.950 1_555 1_555
C14A C9A 1.420 1_555 1_555
C15A C19 1.438 1_555 1_555
C16A C15A 1.388 1_555 1_555
C17A C17 1.411 1_555 1_555
C18A C3A 1.424 1_555 1_555
C19A C15 1.438 1_555 1_555
C20A C1A 1.388 1_555 1_555
H9A C20A 0.950 1_555 1_555
C21A C4A 1.422 1_555 1_555
C22A C1A 1.520 1_555 1_555
C23A C22A 1.539 1_555 1_555
H10A C23A 0.980 1_555 1_555
H11A C23A 0.981 1_555 1_555
H12A C23A 0.980 1_555 1_555
C24A C22A 1.515 1_555 1_555
H13A C24A 0.980 1_555 1_555
H14A C24A 0.980 1_555 1_555
H15A C24A 0.980 1_555 1_555
C25A C22A 1.533 1_555 1_555
H16A C25A 0.980 1_555 1_555
H17A C25A 0.981 1_555 1_555
H18A C25A 0.980 1_555 1_555
C26A C46 1.394 1_555 1_555
C27A C26A 1.369 1_555 1_555
H19A C27A 0.950 1_555 1_555
C28A C42 1.421 1_555 1_555
C29A C28A 1.455 1_555 1_555
C30A C29A 1.468 1_555 1_555
C31A C30A 1.411 1_555 1_555
H20A C31A 0.950 1_555 1_555
C32A C31A 1.380 1_555 1_555
H21A C32A 0.950 1_555 1_555
C33A C32A 1.396 1_555 1_555
H22A C33A 0.950 1_555 1_555
C34A C33A 1.374 1_555 1_555
H23A C34A 0.950 1_555 1_555
C35A C30A 1.406 1_555 1_555
C36A C35A 1.462 1_555 1_555
C37A C36A 1.386 1_555 1_555
H24A C37A 0.950 1_555 1_555
C38A C37A 1.401 1_555 1_555
H25A C38A 0.950 1_555 1_555
C39A C38A 1.371 1_555 1_555
H26A C39A 0.950 1_555 1_555
C40A C39A 1.393 1_555 1_555
C41A C40A 1.462 1_555 1_555
C42A C28 1.421 1_555 1_555
C43A C43 1.400 1_555 1_555
C44A C29A 1.376 1_555 1_555
C45A C36A 1.405 1_555 1_555
C46A C26 1.394 1_555 1_555
H27A C46A 0.950 1_555 1_555
C47A C26A 1.534 1_555 1_555
C48A C47A 1.532 1_555 1_555
H28A C48A 0.980 1_555 1_555
H29A C48A 0.981 1_555 1_555
H30A C48A 0.981 1_555 1_555
C49A C47A 1.534 1_555 1_555
H31A C49A 0.980 1_555 1_555
H32A C49A 0.980 1_555 1_555
H33A C49A 0.981 1_555 1_555
C50A C47A 1.539 1_555 1_555
H34A C50A 0.981 1_555 1_555
H35A C50A 0.980 1_555 1_555
H36A C50A 0.980 1_555 1_555
C8 C21 1.415 1_555 1_555
C13 C14 1.419 1_555 1_555
C16 C21 1.444 1_555 1_555
C17 C18 1.416 1_555 1_555
C19 C20 1.396 1_555 1_555
C34 C35 1.404 1_555 1_555
C40 C45 1.432 1_555 1_555
C43 C44 1.438 1_555 1_555
C44 C45 1.450 1_555 1_555
C8A C21A 1.415 1_555 1_555
C13A C14A 1.419 1_555 1_555
C14A C15A 1.464 1_555 1_555
C16A C17A 1.452 1_555 1_555
C16A C21A 1.444 1_555 1_555
C17A C18A 1.416 1_555 1_555
C18A C19A 1.429 1_555 1_555
C19A C20A 1.396 1_555 1_555
C27A C28A 1.413 1_555 1_555
C34A C35A 1.404 1_555 1_555
C40A C45A 1.432 1_555 1_555
C41A C42A 1.414 1_555 1_555
C41A C46A 1.392 1_555 1_555
C42A C43A 1.432 1_555 1_555
C43A C44A 1.438 1_555 1_555
C44A C45A 1.450 1_555 1_555
#END
