
#######################################################################
#
#                 Cambridge Crystallographic Data Centre
#                                CCDC
#
#######################################################################
#
# If this CIF has been generated from an entry in the Cambridge
# Structural Database, then it will include bibliographic, chemical,
# crystal, experimental, refinement or atomic coordinate data resulting
# from the CCDC's data processing and validation procedures.
#
#######################################################################

data_CSD_CIF_FACPEE
_audit_creation_date 1987-06-30
_audit_creation_method CSD-ConQuest-V1
_database_code_CSD FACPEE
_chemical_formula_sum 'C42 H26'
_chemical_formula_moiety
;
C42 H26
;
_journal_coden_Cambridge 4
_journal_volume 108
_journal_year 1986
_journal_page_first 5652
_journal_name_full 'J.Am.Chem.Soc. '
loop_
_publ_author_name
"R.A.Pascal Junior"
"W.D.McMillan"
"D.van Engen"
_chemical_name_systematic
;
9,18-Diphenyltetrabenz(a,c,h,j)anthracene
;
_cell_volume   2755.407
_exptl_crystal_colour 'orange'
_exptl_crystal_density_diffrn 1.28
_diffrn_ambient_temperature 175
#These two values have been output from a single CSD field.
_refine_ls_R_factor_gt 0.041
_refine_ls_wR_factor_gt 0.041
_symmetry_cell_setting monoclinic
_symmetry_space_group_name_H-M 'P 21/n'
_symmetry_Int_Tables_number 14
loop_
_symmetry_equiv_pos_site_id
_symmetry_equiv_pos_as_xyz
1 x,y,z
2 1/2-x,1/2+y,1/2-z
3 -x,-y,-z
4 -1/2+x,-1/2-y,-1/2+z
_cell_length_a 14.851(3)
_cell_length_b 10.136(3)
_cell_length_c 18.425(4)
_cell_angle_alpha 90
_cell_angle_beta 96.55(2)
_cell_angle_gamma 90
_cell_formula_units_Z 4
loop_
_atom_type_symbol
_atom_type_radius_bond
C 0.68
H 0.23
loop_
_atom_site_label
_atom_site_type_symbol
_atom_site_fract_x
_atom_site_fract_y
_atom_site_fract_z
C1 C 0.4236(1) 0.7741(2) 0.0114(1)
C2 C 0.3333(1) 0.8001(2) 0.0249(1)
C3 C 0.3034(1) 0.7478(2) 0.0899(1)
C4 C 0.3686(1) 0.7233(2) 0.1502(1)
C5 C 0.4613(1) 0.7284(2) 0.1402(1)
C6 C 0.4865(1) 0.7249(2) 0.0684(1)
C7 C 0.2676(1) 0.8802(2) -0.0227(1)
C8 C 0.2947(2) 0.9761(2) -0.0713(1)
C9 C 0.2322(2) 1.0569(2) -0.1108(1)
C10 C 0.1411(2) 1.0475(2) -0.1026(1)
C11 C 0.1124(1) 0.9559(2) -0.0552(1)
C12 C 0.1741(1) 0.8715(2) -0.0151(1)
C13 C 0.1431(1) 0.7717(2) 0.0338(1)
C14 C 0.0520(1) 0.7305(2) 0.0277(1)
C15 C 0.0237(2) 0.6326(3) 0.0711(1)
C16 C 0.0866(1) 0.5708(2) 0.1214(1)
C17 C 0.1755(1) 0.6109(2) 0.1298(1)
C18 C 0.2061(1) 0.7138(2) 0.0872(1)
C19 C 0.5347(1) 0.7401(2) 0.2011(1)
C20 C 0.5202(2) 0.8031(2) 0.2667(1)
C21 C 0.5889(2) 0.8213(2) 0.3221(1)
C22 C 0.6750(2) 0.7751(2) 0.3137(1)
C23 C 0.6920(1) 0.7178(2) 0.2500(1)
C24 C 0.6230(1) 0.7020(2) 0.1913(1)
C25 C 0.6415(1) 0.6510(2) 0.1201(1)
C26 C 0.7252(1) 0.5905(2) 0.1109(1)
C27 C 0.7434(1) 0.5442(2) 0.0441(1)
C28 C 0.6772(1) 0.5526(2) -0.0148(1)
C29 C 0.5950(1) 0.6122(2) -0.0081(1)
C30 C 0.5762(1) 0.6662(2) 0.0591(1)
C31 C 0.4509(1) 0.7926(2) -0.0639(1)
C32 C 0.4111(1) 0.7135(2) -0.1205(1)
C33 C 0.4383(2) 0.7221(3) -0.1898(1)
C34 C 0.5045(2) 0.8116(3) -0.2035(1)
C35 C 0.5449(2) 0.8904(3) -0.1473(1)
C36 C 0.5187(1) 0.8800(2) -0.0778(1)
C37 C 0.3427(1) 0.6890(2) 0.2240(1)
C38 C 0.3774(1) 0.5753(2) 0.2602(1)
C39 C 0.3577(2) 0.5462(3) 0.3300(1)
C40 C 0.3019(2) 0.6296(3) 0.3647(1)
C41 C 0.2662(2) 0.7404(3) 0.3291(1)
C42 C 0.2862(1) 0.7702(2) 0.2594(1)
H1 H 0.3627(14) 0.9879(23) -0.0776(11)
H2 H 0.25220 1.12020 -0.14430
H3 H 0.09800 1.10460 -0.12930
H4 H 0.04910 0.94980 -0.04960
H5 H 0.00870 0.77200 -0.00780
H6 H -0.03890 0.60710 0.06680
H7 H 0.06780 0.49950 0.15060
H8 H 0.2165(13) 0.5634(19) 0.1644(10)
H9 H 0.4585(13) 0.8438(21) 0.2739(10)
H10 H 0.57750 0.86550 0.36630
H11 H 0.72280 0.78370 0.35310
H12 H 0.75210 0.68750 0.24470
H13 H 0.77030 0.58150 0.15230
H14 H 0.80150 0.50650 0.03830
H15 H 0.68860 0.51660 -0.06110
H16 H 0.5454(13) 0.6087(21) -0.0521(10)
H17 H 0.36430 0.65220 -0.11140
H18 H 0.41110 0.66610 -0.22820
H19 H 0.52260 0.81920 -0.25170
H20 H 0.59120 0.95230 -0.15670
H21 H 0.54760 0.93380 -0.03900
H22 H 0.41550 0.51670 0.23630
H23 H 0.38250 0.46840 0.35440
H24 H 0.28830 0.60990 0.41320
H25 H 0.22710 0.79770 0.35280
H26 H 0.26070 0.84790 0.23520
loop_
_geom_bond_atom_site_label_1
_geom_bond_atom_site_label_2
_geom_bond_distance
_geom_bond_site_symmetry_1
_geom_bond_site_symmetry_2
C1 C2 1.416 1_555 1_555
C2 C3 1.426 1_555 1_555
C3 C4 1.410 1_555 1_555
C4 C5 1.411 1_555 1_555
C5 C6 1.416 1_555 1_555
C6 C1 1.414 1_555 1_555
C7 C2 1.478 1_555 1_555
C8 C7 1.411 1_555 1_555
C9 C8 1.381 1_555 1_555
C10 C9 1.382 1_555 1_555
C11 C10 1.375 1_555 1_555
C12 C7 1.414 1_555 1_555
C13 C12 1.463 1_555 1_555
C14 C13 1.408 1_555 1_555
C15 C14 1.370 1_555 1_555
C16 C15 1.388 1_555 1_555
C17 C16 1.373 1_555 1_555
C18 C3 1.481 1_555 1_555
C19 C5 1.477 1_555 1_555
C20 C19 1.405 1_555 1_555
C21 C20 1.371 1_555 1_555
C22 C21 1.387 1_555 1_555
C23 C22 1.359 1_555 1_555
C24 C19 1.398 1_555 1_555
C25 C24 1.465 1_555 1_555
C26 C25 1.413 1_555 1_555
C27 C26 1.373 1_555 1_555
C28 C27 1.381 1_555 1_555
C29 C28 1.380 1_555 1_555
C30 C6 1.487 1_555 1_555
C31 C1 1.501 1_555 1_555
C32 C31 1.393 1_555 1_555
C33 C32 1.385 1_555 1_555
C34 C33 1.382 1_555 1_555
C35 C34 1.389 1_555 1_555
C36 C31 1.387 1_555 1_555
C37 C4 1.496 1_555 1_555
C38 C37 1.400 1_555 1_555
C39 C38 1.383 1_555 1_555
C40 C39 1.390 1_555 1_555
C41 C40 1.376 1_555 1_555
C42 C37 1.390 1_555 1_555
H1 C8 1.037 1_555 1_555
H2 C9 0.961 1_555 1_555
H3 C10 0.956 1_555 1_555
H4 C11 0.959 1_555 1_555
H5 C14 0.960 1_555 1_555
H6 C15 0.959 1_555 1_555
H7 C16 0.961 1_555 1_555
H8 C17 0.959 1_555 1_555
H9 C20 1.027 1_555 1_555
H10 C21 0.961 1_555 1_555
H11 C22 0.960 1_555 1_555
H12 C23 0.959 1_555 1_555
H13 C26 0.960 1_555 1_555
H14 C27 0.961 1_555 1_555
H15 C28 0.960 1_555 1_555
H16 C29 1.032 1_555 1_555
H17 C32 0.961 1_555 1_555
H18 C33 0.960 1_555 1_555
H19 C34 0.960 1_555 1_555
H20 C35 0.961 1_555 1_555
H21 C36 0.961 1_555 1_555
H22 C38 0.961 1_555 1_555
H23 C39 0.960 1_555 1_555
H24 C40 0.959 1_555 1_555
H25 C41 0.961 1_555 1_555
H26 C42 0.961 1_555 1_555
C11 C12 1.401 1_555 1_555
C13 C18 1.406 1_555 1_555
C17 C18 1.411 1_555 1_555
C23 C24 1.412 1_555 1_555
C25 C30 1.407 1_555 1_555
C29 C30 1.410 1_555 1_555
C35 C36 1.384 1_555 1_555
C41 C42 1.384 1_555 1_555
#END
