
#######################################################################
#
#                 Cambridge Crystallographic Data Centre
#                                CCDC
#
#######################################################################
#
# If this CIF has been generated from an entry in the Cambridge
# Structural Database, then it will include bibliographic, chemical,
# crystal, experimental, refinement or atomic coordinate data resulting
# from the CCDC's data processing and validation procedures.
#
#######################################################################

data_CSD_CIF_FADFOF
_audit_creation_date 1987-06-30
_audit_creation_method CSD-ConQuest-V1
_database_code_CSD FADFOF
_chemical_formula_sum 'C19 H14'
_chemical_formula_moiety
;
C19 H14
;
_journal_coeditor_code "IUCr A26096"
_journal_coden_Cambridge 591
_journal_volume 42
_journal_year 1986
_journal_page_first 1392
_journal_name_full 'Acta Crystallogr.,Sect.C:Cryst.Struct.Commun. '
loop_
_publ_author_name
"N.P.C.Walker"
"C.E.Briant"
"D.W.Jones"
"J.D.Shaw"
_chemical_name_systematic
;
8-Methylbenz(a)anthracene
;
_cell_volume   2603.044
_exptl_crystal_colour 'colorless'
_exptl_crystal_density_diffrn 1.237
_exptl_special_details
;
carcinogenic activity

;
_diffrn_ambient_temperature ?
_diffrn_special_details
;
The study was carried out at room temperature,in the range 283-303K

;
#These two values have been output from a single CSD field.
_refine_ls_R_factor_gt 0.051
_refine_ls_wR_factor_gt 0.051
_symmetry_cell_setting monoclinic
_symmetry_space_group_name_H-M 'P 2/a'
_symmetry_Int_Tables_number 13
loop_
_symmetry_equiv_pos_site_id
_symmetry_equiv_pos_as_xyz
1 x,y,z
2 1/2-x,y,-z
3 -x,-y,-z
4 -1/2+x,-y,z
_cell_length_a 48.516(8)
_cell_length_b 6.527(3)
_cell_length_c 8.226(2)
_cell_angle_alpha 90
_cell_angle_beta 92.15(2)
_cell_angle_gamma 90
_cell_formula_units_Z 8
loop_
_atom_type_symbol
_atom_type_radius_bond
C 0.68
H 0.23
loop_
_atom_site_label
_atom_site_type_symbol
_atom_site_fract_x
_atom_site_fract_y
_atom_site_fract_z
C1 C 0.3070(1) 0.6583(7) 0.2196(4)
C2 C 0.2783(1) 0.6497(9) 0.2129(5)
C3 C 0.2652(1) 0.4800(9) 0.2786(5)
C4 C 0.2796(1) 0.3206(8) 0.3462(4)
C5 C 0.3239(1) 0.1586(7) 0.4244(3)
C6 C 0.3516(1) 0.1628(6) 0.4375(3)
C7 C 0.3956(1) 0.3435(6) 0.4063(3)
C8 C 0.4406(1) 0.5228(6) 0.3816(3)
C9 C 0.4540(1) 0.6867(6) 0.3224(3)
C10 C 0.4400(1) 0.8475(6) 0.2396(3)
C11 C 0.4121(1) 0.8431(6) 0.2180(3)
C12 C 0.3680(1) 0.6651(6) 0.2521(3)
C13 C 0.3224(1) 0.4972(6) 0.2923(3)
C14 C 0.3086(1) 0.3276(6) 0.3540(3)
C15 C 0.3668(1) 0.3359(5) 0.3821(3)
C16 C 0.4111(1) 0.5095(5) 0.3559(3)
C17 C 0.3970(1) 0.6735(5) 0.2745(3)
C18 C 0.3528(1) 0.5038(5) 0.3066(3)
C19 C 0.4558(1) 0.3570(8) 0.4719(5)
C20 C 0.1706(1) 0.2017(7) 0.0773(4)
C21 C 0.1993(1) 0.1976(8) 0.0758(4)
C22 C 0.2135(1) 0.0340(8) 0.1413(4)
C23 C 0.1998(1) -0.1274(8) 0.2055(4)
C24 C 0.1561(1) -0.2980(6) 0.2775(4)
C25 C 0.1285(1) -0.2963(6) 0.2854(3)
C26 C 0.0838(1) -0.1240(6) 0.2355(3)
C27 C 0.0379(1) 0.0342(6) 0.1774(3)
C28 C 0.0237(1) 0.1899(6) 0.1064(3)
C29 C 0.0367(1) 0.3560(6) 0.0333(3)
C30 C 0.0649(1) 0.3652(6) 0.0325(3)
C31 C 0.1099(1) 0.2040(5) 0.0943(3)
C32 C 0.1560(1) 0.0402(5) 0.1440(3)
C33 C 0.1706(1) -0.1277(6) 0.2080(3)
C34 C 0.1124(1) -0.1255(5) 0.2241(3)
C35 C 0.0675(1) 0.0347(5) 0.1734(2)
C36 C 0.0807(1) 0.2041(5) 0.1009(3)
C37 C 0.1258(1) 0.0430(5) 0.1525(3)
C38 C 0.0232(1) -0.1370(8) 0.2602(4)
H1 H 0.3156(6) 0.7987(52) 0.1781(33)
H2 H 0.2676(6) 0.7763(54) 0.1580(33)
H3 H 0.2460(8) 0.4578(65) 0.2681(37)
H4 H 0.2725(6) 0.1679(58) 0.3996(38)
H5 H 0.3129(5) 0.0260(47) 0.4650(29)
H6 H 0.3630(6) 0.0359(48) 0.4852(31)
H7 H 0.4058(4) 0.2150(41) 0.4581(25)
H8 H 0.4742(5) 0.6948(48) 0.3459(28)
H9 H 0.4499(5) 0.9761(45) 0.2058(29)
H10 H 0.4017(5) 0.9562(46) 0.1647(29)
H11 H 0.3597(5) 0.7916(44) 0.2009(26)
H12 H 0.4754(6) 0.3677(51) 0.4766(29)
H13 H 0.4498(6) 0.3526(61) 0.5847(38)
H14 H 0.4533(7) 0.2152(63) 0.4386(40)
H15 H 0.1607(6) 0.3345(55) 0.0252(35)
H16 H 0.2083(7) 0.3352(63) 0.0233(42)
H17 H 0.2326(6) 0.0217(56) 0.1493(32)
H18 H 0.2087(6) -0.2616(51) 0.2515(32)
H19 H 0.1670(5) -0.4110(44) 0.3186(27)
H20 H 0.1187(5) -0.4108(46) 0.3336(29)
H21 H 0.0750(4) -0.2475(42) 0.2868(25)
H22 H 0.0036(5) 0.1897(48) 0.1079(28)
H23 H 0.0256(5) 0.4775(48) -0.0207(30)
H24 H 0.0745(5) 0.4854(45) -0.0084(28)
H25 H 0.1171(4) 0.3306(40) 0.0454(24)
H26 H 0.0043(6) -0.1171(56) 0.2369(31)
H27 H 0.0281(7) -0.2699(63) 0.2095(41)
H28 H 0.0286(6) -0.1655(57) 0.3771(39)
loop_
_geom_bond_atom_site_label_1
_geom_bond_atom_site_label_2
_geom_bond_distance
_geom_bond_site_symmetry_1
_geom_bond_site_symmetry_2
C1 C2 1.393 1_555 1_555
C2 C3 1.396 1_555 1_555
C3 C4 1.360 1_555 1_555
C4 C14 1.407 1_555 1_555
C5 C6 1.344 1_555 1_555
C6 C15 1.433 1_555 1_555
C7 C15 1.405 1_555 1_555
C8 C9 1.352 1_555 1_555
C9 C10 1.411 1_555 1_555
C10 C11 1.359 1_555 1_555
C11 C17 1.416 1_555 1_555
C12 C17 1.413 1_555 1_555
C13 C1 1.410 1_555 1_555
C14 C5 1.439 1_555 1_555
C15 C18 1.420 1_555 1_555
C16 C7 1.391 1_555 1_555
C17 C16 1.424 1_555 1_555
C18 C12 1.370 1_555 1_555
C19 C8 1.492 1_555 1_555
C20 C21 1.393 1_555 1_555
C21 C22 1.370 1_555 1_555
C22 C23 1.363 1_555 1_555
C23 C33 1.418 1_555 1_555
C24 C25 1.343 1_555 1_555
C25 C34 1.441 1_555 1_555
C26 C34 1.394 1_555 1_555
C27 C28 1.348 1_555 1_555
C28 C29 1.401 1_555 1_555
C29 C30 1.370 1_555 1_555
C30 C36 1.406 1_555 1_555
C31 C36 1.420 1_555 1_555
C32 C20 1.394 1_555 1_555
C33 C24 1.445 1_555 1_555
C34 C37 1.417 1_555 1_555
C35 C26 1.389 1_555 1_555
C36 C35 1.420 1_555 1_555
C37 C31 1.379 1_555 1_555
C38 C27 1.503 1_555 1_555
H1 C1 1.068 1_555 1_555
H2 C2 1.067 1_555 1_555
H3 C3 0.943 1_555 1_555
H4 C4 1.147 1_555 1_555
H5 C5 1.076 1_555 1_555
H6 C6 1.063 1_555 1_555
H7 C7 1.056 1_555 1_555
H8 C9 0.993 1_555 1_555
H9 C10 1.011 1_555 1_555
H10 C11 0.988 1_555 1_555
H11 C12 1.004 1_555 1_555
H12 C19 0.953 1_555 1_555
H13 C19 0.983 1_555 1_555
H14 C19 0.972 1_555 1_555
H15 C20 1.072 1_555 1_555
H16 C21 1.094 1_555 1_555
H17 C22 0.930 1_555 1_555
H18 C23 1.041 1_555 1_555
H19 C24 0.962 1_555 1_555
H20 C25 0.978 1_555 1_555
H21 C26 1.012 1_555 1_555
H22 C28 0.976 1_555 1_555
H23 C29 1.048 1_555 1_555
H24 C30 0.978 1_555 1_555
H25 C31 0.989 1_555 1_555
H26 C38 0.939 1_555 1_555
H27 C38 0.995 1_555 1_555
H28 C38 1.005 1_555 1_555
C8 C16 1.442 1_555 1_555
C13 C14 1.399 1_555 1_555
C13 C18 1.476 1_555 1_555
C27 C35 1.438 1_555 1_555
C32 C33 1.397 1_555 1_555
C32 C37 1.470 1_555 1_555
#END
