
#######################################################################
#
#                 Cambridge Crystallographic Data Centre
#                                CCDC
#
#######################################################################
#
# If this CIF has been generated from an entry in the Cambridge
# Structural Database, then it will include bibliographic, chemical,
# crystal, experimental, refinement or atomic coordinate data resulting
# from the CCDC's data processing and validation procedures.
#
#######################################################################

data_CSD_CIF_FAYSAB
_audit_creation_date 2012-09-04
_audit_creation_method CSD-ConQuest-V1
_database_code_CSD FAYSAB
_database_code_depnum_ccdc_archive 'CCDC 847354'
_chemical_formula_sum 'C22 H18'
_chemical_formula_moiety
;
C22 H18
;
_journal_coden_Cambridge 1145
_journal_volume 22
_journal_year 2012
_journal_page_first 13070
_journal_name_full 'J.Mater.Chem. '
loop_
_publ_author_name
"Ching-Ting Chien"
"Chih-Chun Lin"
"M.Watanabe"
"Yan-Duo Lin"
"Ting-Han Chao"
"Ta-chung Chiang"
"Xin-Hua Huang"
"Yuh-Sheng Wen"
"Chih-Hsin Tu"
"Chia-Hsing Sun"
"T.J.Chow"
_chemical_name_systematic
;
19-Isopropylidenepentacyclo[10.6.1.0^2,11^.0^4,9^.0^13,18^]nonadeca-2,4,6,8,10
,13,15,17-octaene
;
_chemical_name_common
;
13-(20-Propanylidene)-5,12-dihydro-5,12-methanotetracene
;
_chemical_melting_point 495.15
_cell_volume   3016.812
_exptl_crystal_colour 'colorless'
_exptl_crystal_density_diffrn 1.243
_exptl_special_details
;
Melting point range 495.15-496.15K

;
_exptl_crystal_description 'prism'
_exptl_crystal_preparation 'dichloromethane/ethanol'
_diffrn_ambient_temperature 100
#These two values have been output from a single CSD field.
_refine_ls_R_factor_gt 0.0609
_refine_ls_wR_factor_gt 0.0609
_symmetry_cell_setting monoclinic
_symmetry_space_group_name_H-M 'C 2/c'
_symmetry_Int_Tables_number 15
loop_
_symmetry_equiv_pos_site_id
_symmetry_equiv_pos_as_xyz
1 x,y,z
2 -x,y,1/2-z
3 1/2+x,1/2+y,z
4 1/2-x,1/2+y,1/2-z
5 -x,-y,-z
6 x,-y,-1/2+z
7 -1/2-x,-1/2-y,-z
8 -1/2+x,-1/2-y,-1/2+z
_cell_length_a 14.9138(13)
_cell_length_b 15.2530(12)
_cell_length_c 15.1360(14)
_cell_angle_alpha 90
_cell_angle_beta 118.815(4)
_cell_angle_gamma 90
_cell_formula_units_Z 8
loop_
_atom_type_symbol
_atom_type_radius_bond
C 0.68
H 0.23
loop_
_atom_site_label
_atom_site_type_symbol
_atom_site_fract_x
_atom_site_fract_y
_atom_site_fract_z
C1 C 0.38361(17) -0.16075(14) 0.27442(18)
H1 H 0.42970 -0.20030 0.27170
C2 C 0.36333(18) -0.16181(15) 0.35383(18)
H2 H 0.39540 -0.20290 0.40510
C3 C 0.29424(19) -0.10116(16) 0.35833(18)
H3 H 0.28130 -0.10260 0.41260
C4 C 0.24561(18) -0.03980(15) 0.28304(18)
H4 H 0.20030 0.00050 0.28590
C5 C 0.26645(17) -0.03989(14) 0.20220(17)
C6 C 0.22388(16) 0.01630(14) 0.10770(17)
H5 H 0.15950 0.04740 0.08840
C7 C 0.31315(16) 0.07000(14) 0.11346(16)
C8 C 0.33036(16) 0.15780(14) 0.11711(16)
H6 H 0.28400 0.19720 0.11950
C9 C 0.42070(16) 0.18854(14) 0.11721(16)
C10 C 0.44253(18) 0.27923(14) 0.11908(18)
H7 H 0.39670 0.32020 0.11970
C11 C 0.53014(18) 0.30731(15) 0.11997(19)
H8 H 0.54350 0.36710 0.12200
C12 C 0.60010(17) 0.24694(15) 0.11785(18)
H9 H 0.65950 0.26670 0.11860
C13 C 0.58079(16) 0.15873(14) 0.11467(17)
H10 H 0.62710 0.11910 0.11260
C14 C 0.49135(15) 0.12703(13) 0.11447(15)
C15 C 0.47034(16) 0.03552(13) 0.11017(15)
H11 H 0.51560 -0.00520 0.10780
C16 C 0.38304(16) 0.00878(13) 0.10950(15)
C17 C 0.33613(16) -0.08213(14) 0.10060(17)
H12 H 0.36240 -0.12950 0.07560
C18 C 0.33361(17) -0.09915(15) 0.19780(17)
C19 C 0.22259(17) -0.05729(15) 0.03498(17)
C20 C 0.14757(18) -0.08882(15) -0.04995(18)
C21 C 0.04058(18) -0.05465(17) -0.0984(2)
H13 H 0.03640 -0.00710 -0.05900
H14 H -0.00510 -0.10070 -0.10220
H15 H 0.02160 -0.03420 -0.16510
C22 C 0.1629(2) -0.16398(16) -0.10464(19)
H16 H 0.23320 -0.18220 -0.06950
H17 H 0.14560 -0.14610 -0.17180
H18 H 0.11970 -0.21190 -0.10770
loop_
_geom_bond_atom_site_label_1
_geom_bond_atom_site_label_2
_geom_bond_distance
_geom_bond_site_symmetry_1
_geom_bond_site_symmetry_2
C1 H1 0.930 1_555 1_555
C2 C1 1.374 1_555 1_555
H2 C2 0.931 1_555 1_555
C3 C2 1.411 1_555 1_555
H3 C3 0.930 1_555 1_555
C4 C3 1.380 1_555 1_555
H4 C4 0.930 1_555 1_555
C5 C4 1.400 1_555 1_555
C6 C5 1.519 1_555 1_555
H5 C6 0.981 1_555 1_555
C7 C6 1.529 1_555 1_555
C8 C7 1.360 1_555 1_555
H6 C8 0.930 1_555 1_555
C9 C8 1.426 1_555 1_555
C10 C9 1.418 1_555 1_555
H7 C10 0.929 1_555 1_555
C11 C10 1.369 1_555 1_555
H8 C11 0.931 1_555 1_555
C12 C11 1.404 1_555 1_555
H9 C12 0.931 1_555 1_555
C13 C12 1.372 1_555 1_555
H10 C13 0.930 1_555 1_555
C14 C9 1.426 1_555 1_555
C15 C14 1.425 1_555 1_555
H11 C15 0.931 1_555 1_555
C16 C7 1.422 1_555 1_555
C17 C16 1.530 1_555 1_555
H12 C17 0.981 1_555 1_555
C18 C1 1.396 1_555 1_555
C19 C6 1.566 1_555 1_555
C20 C19 1.323 1_555 1_555
C21 C20 1.492 1_555 1_555
H13 C21 0.960 1_555 1_555
H14 C21 0.961 1_555 1_555
H15 C21 0.960 1_555 1_555
C22 C20 1.495 1_555 1_555
H16 C22 0.960 1_555 1_555
H17 C22 0.960 1_555 1_555
H18 C22 0.961 1_555 1_555
C5 C18 1.374 1_555 1_555
C13 C14 1.417 1_555 1_555
C15 C16 1.360 1_555 1_555
C17 C18 1.512 1_555 1_555
C17 C19 1.541 1_555 1_555
#END
