
#######################################################################
#
#                 Cambridge Crystallographic Data Centre
#                                CCDC
#
#######################################################################
#
# If this CIF has been generated from an entry in the Cambridge
# Structural Database, then it will include bibliographic, chemical,
# crystal, experimental, refinement or atomic coordinate data resulting
# from the CCDC's data processing and validation procedures.
#
#######################################################################

data_CSD_CIF_FAZJIZ10
_audit_creation_date 1991-04-18
_audit_creation_method CSD-ConQuest-V1
_database_code_CSD FAZJIZ10
_database_code_depnum_ccdc_archive 'CCDC 1153343'
_chemical_formula_sum 'C30 H22'
_chemical_formula_moiety
;
C30 H22
;
_journal_coden_Cambridge 35
_journal_volume 55
_journal_year 1990
_journal_page_first 4943
_journal_name_full 'J.Org.Chem. '
loop_
_publ_author_name
"I.Agranat"
"S.Cohen"
"R.Isaksson"
"J.Sandstrom"
"M.R.Suissa"
_chemical_name_systematic
;
9,10-bis(o-Phenylene)-1,5-diethanoanthracene
;
_chemical_melting_point 526.15
_cell_volume   1966.801
_exptl_crystal_colour 'red'
_exptl_crystal_density_diffrn 1.29
_diffrn_ambient_temperature ?
_diffrn_special_details
;
The study was carried out at room temperature,in the range 283-303K

;
#These two values have been output from a single CSD field.
_refine_ls_R_factor_gt 0.042
_refine_ls_wR_factor_gt 0.042
_symmetry_cell_setting monoclinic
_symmetry_space_group_name_H-M 'P 21/c'
_symmetry_Int_Tables_number 14
loop_
_symmetry_equiv_pos_site_id
_symmetry_equiv_pos_as_xyz
1 x,y,z
2 -x,1/2+y,1/2-z
3 -x,-y,-z
4 x,-1/2-y,-1/2+z
_cell_length_a 7.736(1)
_cell_length_b 10.965(2)
_cell_length_c 23.242(3)
_cell_angle_alpha 90
_cell_angle_beta 93.96(2)
_cell_angle_gamma 90
_cell_formula_units_Z 4
loop_
_atom_type_symbol
_atom_type_radius_bond
C 0.68
H 0.23
loop_
_atom_site_label
_atom_site_type_symbol
_atom_site_fract_x
_atom_site_fract_y
_atom_site_fract_z
C1 C 0.2177(3) -0.0438(2) 0.4562(1)
C2 C 0.1955(3) -0.1095(2) 0.4058(1)
C3 C 0.2515(3) -0.0619(2) 0.3551(1)
C4 C 0.3333(2) 0.0510(2) 0.35579(9)
C5 C 0.3598(2) 0.1175(2) 0.40694(8)
C6 C 0.4558(2) 0.2368(2) 0.40482(7)
C7 C 0.6162(2) 0.2359(2) 0.37849(8)
C8 C 0.7037(3) 0.1227(2) 0.37123(9)
C9 C 0.8604(3) 0.1186(2) 0.3484(1)
C10 C 0.9391(3) 0.2263(2) 0.3315(1)
C11 C 0.8638(2) 0.3383(2) 0.33571(8)
C12 C 0.6955(2) 0.3467(2) 0.35948(7)
C13 C 0.9711(2) 0.4458(2) 0.31862(9)
C14 C 0.9484(2) 0.5646(2) 0.35140(9)
C15 C 0.7877(2) 0.6277(2) 0.32813(8)
C16 C 0.7951(3) 0.7390(2) 0.2995(1)
C17 C 0.6489(3) 0.7905(2) 0.2718(1)
C18 C 0.4931(3) 0.7297(2) 0.27102(8)
C19 C 0.4820(3) 0.6206(2) 0.30040(8)
C20 C 0.6276(2) 0.5688(2) 0.33056(7)
C21 C 0.6016(2) 0.4562(2) 0.36484(7)
C22 C 0.4658(2) 0.4595(2) 0.40295(7)
C23 C 0.4090(2) 0.5750(2) 0.42302(7)
C24 C 0.2929(2) 0.5827(2) 0.46375(8)
C25 C 0.2220(2) 0.4756(2) 0.48549(8)
C26 C 0.2640(2) 0.3619(2) 0.46735(8)
C27 C 0.3932(2) 0.3489(2) 0.42515(7)
C28 C 0.1831(3) 0.2570(2) 0.4973(1)
C29 C 0.3010(3) 0.1470(2) 0.51047(9)
C30 C 0.2986(2) 0.0698(2) 0.45753(9)
H1 H 0.16800 -0.07800 0.49800
H2 H 0.13300 -0.19600 0.40500
H3 H 0.22900 -0.10700 0.31400
H4 H 0.37700 0.08800 0.31500
H5 H 0.64700 0.03900 0.38600
H6 H 0.92400 0.03300 0.34300
H7 H 1.05500 0.22700 0.31600
H8 H 0.95000 0.47000 0.27400
H9 H 1.09400 0.42300 0.32000
H10 H 1.05400 0.62500 0.34800
H11 H 0.93300 0.54600 0.39200
H12 H 0.91800 0.77500 0.29500
H13 H 0.65500 0.87900 0.24900
H14 H 0.38300 0.77200 0.25000
H15 H 0.35500 0.58000 0.30400
H16 H 0.46600 0.65400 0.41000
H17 H 0.26200 0.67000 0.48200
H18 H 0.12400 0.48300 0.51500
H19 H 0.07200 0.22200 0.47600
H20 H 0.13500 0.28100 0.53300
H21 H 0.25700 0.10000 0.54600
H22 H 0.42600 0.17500 0.52400
loop_
_geom_bond_atom_site_label_1
_geom_bond_atom_site_label_2
_geom_bond_distance
_geom_bond_site_symmetry_1
_geom_bond_site_symmetry_2
C1 C2 1.376 1_555 1_555
C2 C3 1.385 1_555 1_555
C3 C4 1.390 1_555 1_555
C4 C5 1.398 1_555 1_555
C5 C6 1.507 1_555 1_555
C6 C7 1.421 1_555 1_555
C7 C8 1.429 1_555 1_555
C8 C9 1.357 1_555 1_555
C9 C10 1.397 1_555 1_555
C10 C11 1.366 1_555 1_555
C11 C12 1.452 1_555 1_555
C12 C7 1.444 1_555 1_555
C13 C11 1.511 1_555 1_555
C14 C13 1.525 1_555 1_555
C15 C14 1.491 1_555 1_555
C16 C15 1.393 1_555 1_555
C17 C16 1.383 1_555 1_555
C18 C17 1.376 1_555 1_555
C19 C18 1.383 1_555 1_555
C20 C15 1.401 1_555 1_555
C21 C12 1.413 1_555 1_555
C22 C21 1.421 1_555 1_555
C23 C22 1.429 1_555 1_555
C24 C23 1.352 1_555 1_555
C25 C24 1.405 1_555 1_555
C26 C25 1.363 1_555 1_555
C27 C6 1.414 1_555 1_555
C28 C26 1.503 1_555 1_555
C29 C28 1.530 1_555 1_555
C30 C1 1.393 1_555 1_555
H1 C1 1.133 1_555 1_555
H2 C2 1.064 1_555 1_555
H3 C3 1.079 1_555 1_555
H4 C4 1.105 1_555 1_555
H5 C8 1.083 1_555 1_555
H6 C9 1.071 1_555 1_555
H7 C10 0.989 1_555 1_555
H8 C13 1.072 1_555 1_555
H9 C13 0.981 1_555 1_555
H10 C14 1.059 1_555 1_555
H11 C14 0.981 1_555 1_555
H12 C16 1.041 1_555 1_555
H13 C17 1.108 1_555 1_555
H14 C18 1.059 1_555 1_555
H15 C19 1.087 1_555 1_555
H16 C23 1.027 1_555 1_555
H17 C24 1.080 1_555 1_555
H18 C25 1.060 1_555 1_555
H19 C28 1.036 1_555 1_555
H20 C28 0.969 1_555 1_555
H21 C29 1.050 1_555 1_555
H22 C29 1.042 1_555 1_555
C5 C30 1.399 1_555 1_555
C19 C20 1.405 1_555 1_555
C20 C21 1.491 1_555 1_555
C22 C27 1.447 1_555 1_555
C26 C27 1.455 1_555 1_555
C29 C30 1.493 1_555 1_555
#END
