
#######################################################################
#
#                 Cambridge Crystallographic Data Centre
#                                CCDC
#
#######################################################################
#
# If this CIF has been generated from an entry in the Cambridge
# Structural Database, then it will include bibliographic, chemical,
# crystal, experimental, refinement or atomic coordinate data resulting
# from the CCDC's data processing and validation procedures.
#
#######################################################################

data_CSD_CIF_FEKVEY
_audit_creation_date 2013-04-04
_audit_creation_method CSD-ConQuest-V1
_database_code_CSD FEKVEY
_database_code_depnum_ccdc_archive 'CCDC 887759'
_chemical_formula_sum 'C28 H30'
_chemical_formula_moiety
;
C28 H30
;
_journal_coden_Cambridge 1220
_journal_volume 18
_journal_year 2012
_journal_page_first 15394
_journal_name_full 'Chem.-Eur.J. '
loop_
_publ_author_name
"C.Hoffend"
"F.Schodel"
"M.Bolte"
"H.-W.Lerner"
"M.Wagner"
_chemical_name_systematic
;
2,7-Di-t-butyl-9-phenylanthracene
;
_cell_volume   9020.033
_exptl_crystal_colour 'colorless'
_exptl_crystal_density_diffrn 1.08
_exptl_crystal_description 'block'
_diffrn_ambient_temperature 173
#These two values have been output from a single CSD field.
_refine_ls_R_factor_gt 0.049
_refine_ls_wR_factor_gt 0.049
_symmetry_cell_setting tetragonal
_symmetry_space_group_name_H-M 'I 41/a'
_symmetry_Int_Tables_number 88
loop_
_symmetry_equiv_pos_site_id
_symmetry_equiv_pos_as_xyz
1 x,y,z
2 1/2-x,-y,1/2+z
3 3/4-y,1/4+x,1/4+z
4 3/4+y,3/4-x,3/4+z
5 1/2+x,1/2+y,1/2+z
6 -x,1/2-y,z
7 1/4-y,3/4+x,3/4+z
8 1/4+y,1/4-x,1/4+z
9 -x,-y,-z
10 -1/2+x,y,-1/2-z
11 -3/4+y,-1/4-x,-1/4-z
12 -3/4-y,-3/4+x,-3/4-z
13 -1/2-x,-1/2-y,-1/2-z
14 x,-1/2+y,-z
15 -1/4+y,-3/4-x,-3/4-z
16 -1/4-y,-1/4+x,-1/4-z
_cell_length_a 26.1507(11)
_cell_length_b 26.1507(11)
_cell_length_c 13.1899(7)
_cell_angle_alpha 90
_cell_angle_beta 90
_cell_angle_gamma 90
_cell_formula_units_Z 16
loop_
_atom_type_symbol
_atom_type_radius_bond
C 0.68
H 0.23
loop_
_atom_site_label
_atom_site_type_symbol
_atom_site_fract_x
_atom_site_fract_y
_atom_site_fract_z
C1 C 0.39412(6) 0.10696(6) 0.79985(11)
C2 C 0.39726(5) 0.08590(6) 0.70519(11)
H1 H 0.37370 0.05970 0.68720
C3 C 0.43449(5) 0.10159(6) 0.63201(11)
C4 C 0.43652(5) 0.08044(5) 0.53343(11)
C5 C 0.47207(5) 0.09870(5) 0.46190(11)
C6 C 0.47529(5) 0.07817(5) 0.36126(11)
H2 H 0.45300 0.05110 0.34270
C7 C 0.50927(5) 0.09611(5) 0.29094(11)
C8 C 0.54217(6) 0.13759(6) 0.31951(12)
H3 H 0.56550 0.15100 0.27120
C9 C 0.54069(6) 0.15810(6) 0.41398(13)
H4 H 0.56300 0.18550 0.43030
C10 C 0.50630(5) 0.13935(6) 0.48943(12)
C11 C 0.50457(6) 0.15941(6) 0.58737(13)
H5 H 0.52750 0.18610 0.60540
C12 C 0.47001(6) 0.14133(6) 0.65931(12)
C13 C 0.46699(7) 0.16149(7) 0.75993(13)
H6 H 0.49080 0.18690 0.78060
C14 C 0.43105(6) 0.14520(7) 0.82659(13)
H7 H 0.43030 0.15950 0.89280
C15 C 0.35304(6) 0.09190(7) 0.87728(12)
C16 C 0.31687(7) 0.05069(8) 0.83666(14)
H8 H 0.29140 0.04230 0.88850
H9 H 0.33650 0.01990 0.81970
H10 H 0.29960 0.06340 0.77580
C17 C 0.37903(7) 0.07099(8) 0.97306(14)
H11 H 0.35290 0.06130 1.02270
H12 H 0.40120 0.09740 1.00210
H13 H 0.39960 0.04090 0.95550
C18 C 0.32130(8) 0.13931(8) 0.90528(16)
H14 H 0.29500 0.12980 0.95470
H15 H 0.30490 0.15300 0.84420
H16 H 0.34370 0.16540 0.93480
C19 C 0.51398(6) 0.07408(6) 0.18382(12)
C20 C 0.50178(7) 0.11640(7) 0.10654(13)
H17 H 0.50470 0.10260 0.03770
H18 H 0.52600 0.14470 0.11500
H19 H 0.46690 0.12890 0.11770
C21 C 0.56902(7) 0.05552(7) 0.16709(15)
H20 H 0.57230 0.04140 0.09860
H21 H 0.57730 0.02900 0.21700
H22 H 0.59270 0.08430 0.17500
C22 C 0.47762(7) 0.02920(7) 0.16632(13)
H23 H 0.48190 0.01640 0.09700
H24 H 0.44230 0.04060 0.17600
H25 H 0.48540 0.00180 0.21470
C23 C 0.39975(5) 0.03881(5) 0.50452(10)
C24 C 0.41130(7) -0.01214(6) 0.52202(14)
H26 H 0.44320 -0.02110 0.55150
C25 C 0.37659(8) -0.05024(6) 0.49676(16)
H27 H 0.38510 -0.08500 0.50900
C26 C 0.33029(7) -0.03830(6) 0.45436(13)
H28 H 0.30660 -0.06460 0.43800
C27 C 0.31837(6) 0.01222(7) 0.43555(14)
H29 H 0.28640 0.02090 0.40590
C28 C 0.35318(6) 0.05043(6) 0.46009(13)
H30 H 0.34490 0.08510 0.44610
loop_
_geom_bond_atom_site_label_1
_geom_bond_atom_site_label_2
_geom_bond_distance
_geom_bond_site_symmetry_1
_geom_bond_site_symmetry_2
C1 C2 1.367 1_555 1_555
C2 H1 0.951 1_555 1_555
C3 C2 1.431 1_555 1_555
C4 C3 1.414 1_555 1_555
C5 C4 1.408 1_555 1_555
C6 C5 1.434 1_555 1_555
H2 C6 0.949 1_555 1_555
C7 C6 1.367 1_555 1_555
C8 C7 1.435 1_555 1_555
H3 C8 0.949 1_555 1_555
C9 C8 1.357 1_555 1_555
H4 C9 0.949 1_555 1_555
C10 C5 1.436 1_555 1_555
C11 C10 1.395 1_555 1_555
H5 C11 0.950 1_555 1_555
C12 C3 1.440 1_555 1_555
C13 C12 1.430 1_555 1_555
H6 C13 0.951 1_555 1_555
C14 C1 1.434 1_555 1_555
H7 C14 0.950 1_555 1_555
C15 C1 1.534 1_555 1_555
C16 C15 1.531 1_555 1_555
H8 C16 0.979 1_555 1_555
H9 C16 0.981 1_555 1_555
H10 C16 0.979 1_555 1_555
C17 C15 1.535 1_555 1_555
H11 C17 0.980 1_555 1_555
H12 C17 0.980 1_555 1_555
H13 C17 0.981 1_555 1_555
C18 C15 1.537 1_555 1_555
H14 C18 0.980 1_555 1_555
H15 C18 0.980 1_555 1_555
H16 C18 0.980 1_555 1_555
C19 C7 1.531 1_555 1_555
C20 C19 1.538 1_555 1_555
H17 C20 0.980 1_555 1_555
H18 C20 0.980 1_555 1_555
H19 C20 0.980 1_555 1_555
C21 C19 1.535 1_555 1_555
H20 C21 0.980 1_555 1_555
H21 C21 0.980 1_555 1_555
H22 C21 0.980 1_555 1_555
C22 C19 1.528 1_555 1_555
H23 C22 0.980 1_555 1_555
H24 C22 0.979 1_555 1_555
H25 C22 0.981 1_555 1_555
C23 C4 1.502 1_555 1_555
C24 C23 1.386 1_555 1_555
H26 C24 0.950 1_555 1_555
C25 C24 1.388 1_555 1_555
H27 C25 0.950 1_555 1_555
C26 C25 1.370 1_555 1_555
H28 C26 0.950 1_555 1_555
C27 C26 1.380 1_555 1_555
H29 C27 0.950 1_555 1_555
C28 C23 1.385 1_555 1_555
H30 C28 0.950 1_555 1_555
C9 C10 1.428 1_555 1_555
C11 C12 1.393 1_555 1_555
C13 C14 1.356 1_555 1_555
C27 C28 1.390 1_555 1_555
#END
