
#######################################################################
#
#                 Cambridge Crystallographic Data Centre
#                                CCDC
#
#######################################################################
#
# If this CIF has been generated from an entry in the Cambridge
# Structural Database, then it will include bibliographic, chemical,
# crystal, experimental, refinement or atomic coordinate data resulting
# from the CCDC's data processing and validation procedures.
#
#######################################################################

data_CSD_CIF_FEWHIZ
_audit_creation_date 2005-05-23
_audit_creation_method CSD-ConQuest-V1
_database_code_CSD FEWHIZ
_database_code_depnum_ccdc_archive 'CCDC 244483'
_chemical_formula_sum 'C58 H88'
_chemical_formula_moiety
;
C58 H88
;
_journal_coden_Cambridge 1220
_journal_volume 11
_journal_year 2005
_journal_page_first 308
_journal_name_full 'Chem.-Eur.J. '
loop_
_publ_author_name
"B.Stulgies"
"P.Prinz"
"J.Magull"
"K.Rauch"
"K.Meindl"
"S.Ruhl"
"A.de Meijere"
_chemical_name_systematic
;
octakis(3,3-Dimethyl-1-butenyl)naphthalene
;
_chemical_melting_point 445.15
_cell_volume   2680.501
_exptl_crystal_colour 'colorless'
_exptl_crystal_density_diffrn 0.973
_exptl_special_details
;
Melts with decomposition.

;
_exptl_crystal_description 'blocks'
_exptl_crystal_preparation 'dichloromethane/ethanol'
_diffrn_ambient_temperature 100
#These two values have been output from a single CSD field.
_refine_ls_R_factor_gt 0.0336
_refine_ls_wR_factor_gt 0.0336
_symmetry_cell_setting monoclinic
_symmetry_space_group_name_H-M 'P 21/c'
_symmetry_Int_Tables_number 14
loop_
_symmetry_equiv_pos_site_id
_symmetry_equiv_pos_as_xyz
1 x,y,z
2 -x,1/2+y,1/2-z
3 -x,-y,-z
4 x,-1/2-y,-1/2+z
_cell_length_a 13.904(2)
_cell_length_b 18.781(2)
_cell_length_c 10.547(2)
_cell_angle_alpha 90
_cell_angle_beta 103.28(2)
_cell_angle_gamma 90
_cell_formula_units_Z 2
loop_
_atom_type_symbol
_atom_type_radius_bond
C 0.68
H 0.23
loop_
_atom_site_label
_atom_site_type_symbol
_atom_site_fract_x
_atom_site_fract_y
_atom_site_fract_z
C1 C 0.45265(8) 0.08503(6) 0.30790(11)
C2 C 0.44577(9) 0.13839(6) 0.20279(12)
H1 H 0.39900 0.13000 0.12310
C3 C 0.49994(9) 0.19677(7) 0.21175(12)
H2 H 0.54940 0.20240 0.28990
C4 C 0.49253(10) 0.25547(7) 0.11257(13)
C5 C 0.41315(10) 0.24031(8) -0.00982(13)
H3 H 0.42880 0.19590 -0.04960
H4 H 0.41050 0.27960 -0.07170
H5 H 0.34900 0.23560 0.01290
C6 C 0.59334(10) 0.26310(8) 0.07843(14)
H6 H 0.60690 0.22040 0.03190
H7 H 0.64480 0.26870 0.15860
H8 H 0.59280 0.30500 0.02290
C7 C 0.46825(13) 0.32536(8) 0.17362(15)
H9 H 0.40410 0.32100 0.19650
H10 H 0.46570 0.36430 0.11110
H11 H 0.51950 0.33540 0.25230
C8 C 0.54157(8) 0.05475(6) 0.37172(11)
C9 C 0.62843(8) 0.06281(6) 0.31131(12)
H12 H 0.67640 0.09850 0.34260
C10 C 0.63921(9) 0.02082(7) 0.21495(12)
H13 H 0.59240 -0.01670 0.19320
C11 C 0.71645(9) 0.02476(7) 0.13486(13)
C12 C 0.66242(11) 0.03690(8) -0.00779(13)
H14 H 0.62750 0.08260 -0.01560
H15 H 0.61480 -0.00160 -0.03610
H16 H 0.71050 0.03750 -0.06260
C13 C 0.77124(11) -0.04659(9) 0.14618(15)
H17 H 0.80530 -0.05480 0.23720
H18 H 0.81970 -0.04560 0.09180
H19 H 0.72370 -0.08510 0.11680
C14 C 0.78976(10) 0.08514(9) 0.17871(14)
H20 H 0.75420 0.13050 0.17150
H21 H 0.83750 0.08630 0.12330
H22 H 0.82480 0.07740 0.26950
C15 C 0.54525(8) 0.01025(6) 0.48314(11)
C16 C 0.63700(8) -0.01483(6) 0.56223(11)
C17 C 0.73455(8) 0.01638(6) 0.55567(11)
H23 H 0.77280 -0.00570 0.50290
C18 C 0.76838(9) 0.07433(7) 0.62229(12)
H24 H 0.72410 0.09700 0.66590
C19 C 0.86844(9) 0.10907(7) 0.63792(13)
C20 C 0.85619(10) 0.18003(7) 0.56403(15)
H25 H 0.82940 0.17120 0.47100
H26 H 0.92060 0.20350 0.57630
H27 H 0.81070 0.21070 0.59760
C21 C 0.94045(9) 0.06185(8) 0.58718(15)
H28 H 0.94800 0.01640 0.63400
H29 H 1.00480 0.08560 0.60110
H30 H 0.91490 0.05320 0.49390
C22 C 0.90942(11) 0.12297(10) 0.78365(15)
H31 H 0.91520 0.07780 0.83120
H32 H 0.86460 0.15480 0.81600
H33 H 0.97470 0.14520 0.79680
C23 C 0.36303(8) 0.06421(6) 0.34118(11)
C24 C 0.26878(8) 0.09567(6) 0.26561(12)
H34 H 0.24590 0.08180 0.17720
C25 C 0.21524(9) 0.14170(7) 0.31431(12)
H35 H 0.23700 0.15140 0.40480
C26 C 0.12364(9) 0.18076(7) 0.24395(12)
C27 C 0.1519(1) 0.25927(7) 0.23464(15)
H36 H 0.20330 0.26310 0.18520
H37 H 0.09360 0.28640 0.19040
H38 H 0.17680 0.27850 0.32240
C28 C 0.04519(10) 0.17497(8) 0.32441(14)
H39 H 0.07170 0.19420 0.41180
H40 H -0.01360 0.20210 0.28180
H41 H 0.02730 0.12490 0.33110
C29 C 0.08213(10) 0.15138(8) 0.10785(14)
H42 H 0.06640 0.10080 0.11380
H43 H 0.02200 0.17750 0.06700
H44 H 0.13130 0.15690 0.05520
C1B C 0.54735(8) -0.08503(6) 0.69210(11)
C2B C 0.55423(9) -0.13839(6) 0.79721(12)
H1B H 0.60100 -0.13000 0.87690
C3B C 0.50006(9) -0.19677(7) 0.78825(12)
H2B H 0.45060 -0.20240 0.71010
C4B C 0.50747(10) -0.25547(7) 0.88743(13)
C5B C 0.58685(10) -0.24031(8) 1.00982(13)
H3B H 0.57120 -0.19590 1.04960
H4B H 0.58950 -0.27960 1.07170
H5B H 0.65100 -0.23560 0.98710
C6B C 0.40666(10) -0.26310(8) 0.92157(14)
H6B H 0.39310 -0.22040 0.96810
H7B H 0.35520 -0.26870 0.84140
H8B H 0.40720 -0.30500 0.97710
C7B C 0.53175(13) -0.32536(8) 0.82638(15)
H9B H 0.59590 -0.32100 0.80350
H10B H 0.53430 -0.36430 0.88890
H11B H 0.48050 -0.33540 0.74770
C8B C 0.45843(8) -0.05475(6) 0.62828(11)
C9B C 0.37157(8) -0.06281(6) 0.68869(12)
H12B H 0.32360 -0.09850 0.65740
C10B C 0.36079(9) -0.02082(7) 0.78505(12)
H13B H 0.40760 0.01670 0.80680
C11B C 0.28355(9) -0.02476(7) 0.86514(13)
C12B C 0.33758(11) -0.03690(8) 1.00779(13)
H14B H 0.37250 -0.08260 1.01560
H15B H 0.38520 0.00160 1.03610
H16B H 0.28950 -0.03750 1.06260
C13B C 0.22876(11) 0.04659(9) 0.85382(15)
H17B H 0.19470 0.05480 0.76280
H18B H 0.18030 0.04560 0.90820
H19B H 0.27630 0.08510 0.88320
C14B C 0.21024(10) -0.08514(9) 0.82129(14)
H20B H 0.24580 -0.13050 0.82850
H21B H 0.16250 -0.08630 0.87670
H22B H 0.17520 -0.07740 0.73050
C15B C 0.45475(8) -0.01025(6) 0.51686(11)
C16B C 0.36300(8) 0.01483(6) 0.43777(11)
C17B C 0.26545(8) -0.01638(6) 0.44433(11)
H23B H 0.22720 0.00570 0.49710
C18B C 0.23162(9) -0.07433(7) 0.37771(12)
H24B H 0.27590 -0.09700 0.33410
C19B C 0.13156(9) -0.10907(7) 0.36208(13)
C20B C 0.14381(10) -0.18003(7) 0.43597(15)
H25B H 0.17060 -0.17120 0.52900
H26B H 0.07940 -0.20350 0.42370
H27B H 0.18930 -0.21070 0.40240
C21B C 0.05955(9) -0.06185(8) 0.41282(15)
H28B H 0.05200 -0.01640 0.36600
H29B H -0.00480 -0.08560 0.39890
H30B H 0.08510 -0.05320 0.50610
C22B C 0.09058(11) -0.12297(10) 0.21635(15)
H31B H 0.08480 -0.07780 0.16880
H32B H 0.13540 -0.15480 0.18400
H33B H 0.02530 -0.14520 0.20320
C23B C 0.63697(8) -0.06421(6) 0.65882(11)
C24B C 0.73122(8) -0.09567(6) 0.73439(12)
H34B H 0.75410 -0.08180 0.82280
C25B C 0.78476(9) -0.14170(7) 0.68569(12)
H35B H 0.76300 -0.15140 0.59520
C26B C 0.87636(9) -0.18076(7) 0.75605(12)
C27B C 0.8481(1) -0.25927(7) 0.76536(15)
H36B H 0.79670 -0.26310 0.81480
H37B H 0.90640 -0.28640 0.80960
H38B H 0.82320 -0.27850 0.67760
C28B C 0.95481(10) -0.17497(8) 0.67559(14)
H39B H 0.92830 -0.19420 0.58820
H40B H 1.01360 -0.20210 0.71820
H41B H 0.97270 -0.12490 0.66890
C29B C 0.91787(10) -0.15138(8) 0.89215(14)
H42B H 0.93360 -0.10080 0.88620
H43B H 0.97800 -0.17750 0.93300
H44B H 0.86870 -0.15690 0.94480
loop_
_geom_bond_atom_site_label_1
_geom_bond_atom_site_label_2
_geom_bond_distance
_geom_bond_site_symmetry_1
_geom_bond_site_symmetry_2
C1 C2 1.481 1_555 1_555
C2 H1 0.950 1_555 1_555
C3 C2 1.321 1_555 1_555
H2 C3 0.950 1_555 1_555
C4 C3 1.507 1_555 1_555
C5 C4 1.520 1_555 1_555
H3 C5 0.980 1_555 1_555
H4 C5 0.980 1_555 1_555
H5 C5 0.979 1_555 1_555
C6 C4 1.532 1_555 1_555
H6 C6 0.981 1_555 1_555
H7 C6 0.980 1_555 1_555
H8 C6 0.980 1_555 1_555
C7 C4 1.533 1_555 1_555
H9 C7 0.979 1_555 1_555
H10 C7 0.980 1_555 1_555
H11 C7 0.980 1_555 1_555
C8 C1 1.387 1_555 1_555
C9 C8 1.497 1_555 1_555
H12 C9 0.950 1_555 1_555
C10 C9 1.322 1_555 1_555
H13 C10 0.951 1_555 1_555
C11 C10 1.513 1_555 1_555
C12 C11 1.536 1_555 1_555
H14 C12 0.980 1_555 1_555
H15 C12 0.980 1_555 1_555
H16 C12 0.979 1_555 1_555
C13 C11 1.532 1_555 1_555
H17 C13 0.980 1_555 1_555
H18 C13 0.980 1_555 1_555
H19 C13 0.981 1_555 1_555
C14 C11 1.524 1_555 1_555
H20 C14 0.979 1_555 1_555
H21 C14 0.980 1_555 1_555
H22 C14 0.980 1_555 1_555
C15 C8 1.433 1_555 1_555
C16 C15 1.434 1_555 1_555
C17 C16 1.494 1_555 1_555
H23 C17 0.949 1_555 1_555
C18 C17 1.322 1_555 1_555
H24 C18 0.950 1_555 1_555
C19 C18 1.511 1_555 1_555
C20 C19 1.533 1_555 1_555
H25 C20 0.980 1_555 1_555
H26 C20 0.980 1_555 1_555
H27 C20 0.980 1_555 1_555
C21 C19 1.524 1_555 1_555
H28 C21 0.980 1_555 1_555
H29 C21 0.980 1_555 1_555
H30 C21 0.980 1_555 1_555
C22 C19 1.534 1_555 1_555
H31 C22 0.979 1_555 1_555
H32 C22 0.980 1_555 1_555
H33 C22 0.980 1_555 1_555
C23 C1 1.425 1_555 1_555
C24 C23 1.491 1_555 1_555
H34 C24 0.950 1_555 1_555
C25 C24 1.319 1_555 1_555
H35 C25 0.950 1_555 1_555
C26 C25 1.509 1_555 1_555
C27 C26 1.535 1_555 1_555
H36 C27 0.979 1_555 1_555
H37 C27 0.980 1_555 1_555
H38 C27 0.980 1_555 1_555
C28 C26 1.532 1_555 1_555
H39 C28 0.980 1_555 1_555
H40 C28 0.980 1_555 1_555
H41 C28 0.979 1_555 1_555
C29 C26 1.522 1_555 1_555
H42 C29 0.980 1_555 1_555
H43 C29 0.980 1_555 1_555
H44 C29 0.980 1_555 1_555
C1B C2B 1.481 1_555 1_555
C2B H1B 0.950 1_555 1_555
C3B C2B 1.321 1_555 1_555
H2B C3B 0.950 1_555 1_555
C4B C3B 1.507 1_555 1_555
C5B C4B 1.520 1_555 1_555
H3B C5B 0.980 1_555 1_555
H4B C5B 0.980 1_555 1_555
H5B C5B 0.979 1_555 1_555
C6B C4B 1.532 1_555 1_555
H6B C6B 0.981 1_555 1_555
H7B C6B 0.980 1_555 1_555
H8B C6B 0.980 1_555 1_555
C7B C4B 1.533 1_555 1_555
H9B C7B 0.979 1_555 1_555
H10B C7B 0.980 1_555 1_555
H11B C7B 0.980 1_555 1_555
C8B C1B 1.387 1_555 1_555
C9B C8B 1.497 1_555 1_555
H12B C9B 0.950 1_555 1_555
C10B C9B 1.322 1_555 1_555
H13B C10B 0.951 1_555 1_555
C11B C10B 1.513 1_555 1_555
C12B C11B 1.536 1_555 1_555
H14B C12B 0.980 1_555 1_555
H15B C12B 0.980 1_555 1_555
H16B C12B 0.979 1_555 1_555
C13B C11B 1.532 1_555 1_555
H17B C13B 0.980 1_555 1_555
H18B C13B 0.980 1_555 1_555
H19B C13B 0.981 1_555 1_555
C14B C11B 1.524 1_555 1_555
H20B C14B 0.979 1_555 1_555
H21B C14B 0.980 1_555 1_555
H22B C14B 0.980 1_555 1_555
C15B C15 1.437 1_555 1_555
C16B C23 1.378 1_555 1_555
C17B C16B 1.494 1_555 1_555
H23B C17B 0.949 1_555 1_555
C18B C17B 1.322 1_555 1_555
H24B C18B 0.950 1_555 1_555
C19B C18B 1.511 1_555 1_555
C20B C19B 1.533 1_555 1_555
H25B C20B 0.980 1_555 1_555
H26B C20B 0.980 1_555 1_555
H27B C20B 0.980 1_555 1_555
C21B C19B 1.524 1_555 1_555
H28B C21B 0.980 1_555 1_555
H29B C21B 0.980 1_555 1_555
H30B C21B 0.980 1_555 1_555
C22B C19B 1.534 1_555 1_555
H31B C22B 0.979 1_555 1_555
H32B C22B 0.980 1_555 1_555
H33B C22B 0.980 1_555 1_555
C23B C16 1.378 1_555 1_555
C24B C23B 1.491 1_555 1_555
H34B C24B 0.950 1_555 1_555
C25B C24B 1.319 1_555 1_555
H35B C25B 0.950 1_555 1_555
C26B C25B 1.509 1_555 1_555
C27B C26B 1.535 1_555 1_555
H36B C27B 0.979 1_555 1_555
H37B C27B 0.980 1_555 1_555
H38B C27B 0.980 1_555 1_555
C28B C26B 1.532 1_555 1_555
H39B C28B 0.980 1_555 1_555
H40B C28B 0.980 1_555 1_555
H41B C28B 0.979 1_555 1_555
C29B C26B 1.522 1_555 1_555
H42B C29B 0.980 1_555 1_555
H43B C29B 0.980 1_555 1_555
H44B C29B 0.980 1_555 1_555
C1B C23B 1.425 1_555 1_555
C8B C15B 1.433 1_555 1_555
C15B C16B 1.434 1_555 1_555
#END
