
#######################################################################
#
#                 Cambridge Crystallographic Data Centre
#                                CCDC
#
#######################################################################
#
# If this CIF has been generated from an entry in the Cambridge
# Structural Database, then it will include bibliographic, chemical,
# crystal, experimental, refinement or atomic coordinate data resulting
# from the CCDC's data processing and validation procedures.
#
#######################################################################

data_CSD_CIF_FEWWEJ01
_audit_creation_date 1988-03-22
_audit_creation_method CSD-ConQuest-V1
_database_code_CSD FEWWEJ01
_database_code_depnum_ccdc_archive 'CCDC 1155327'
_chemical_formula_sum 'C16 H14'
_chemical_formula_moiety
;
C16 H14
;
_journal_coden_Cambridge 35
_journal_volume 52
_journal_year 1987
_journal_page_first 3119
_journal_name_full 'J.Org.Chem. '
loop_
_publ_author_name
"R.Cosmo"
"T.W.Hambley"
"S.Sternhell"
_chemical_name_systematic
;
4,5-Dimethylphenanthrene
;
_cell_volume    574.173
_exptl_crystal_density_diffrn 1.193
_exptl_special_details
;
The author has supplied correct H-atom coordinates

;
_diffrn_ambient_temperature ?
_diffrn_special_details
;
The study was carried out at room temperature,in the range 283-303K

;
#These two values have been output from a single CSD field.
_refine_ls_R_factor_gt 0.037
_refine_ls_wR_factor_gt 0.037
_symmetry_cell_setting monoclinic
_symmetry_space_group_name_H-M 'P 21'
_symmetry_Int_Tables_number 4
loop_
_symmetry_equiv_pos_site_id
_symmetry_equiv_pos_as_xyz
1 x,y,z
2 -x,1/2+y,-z
_cell_length_a 8.318(1)
_cell_length_b 8.281(1)
_cell_length_c 8.746(2)
_cell_angle_alpha 90
_cell_angle_beta 107.62(1)
_cell_angle_gamma 90
_cell_formula_units_Z 2
loop_
_atom_type_symbol
_atom_type_radius_bond
C 0.68
H 0.23
loop_
_atom_site_label
_atom_site_type_symbol
_atom_site_fract_x
_atom_site_fract_y
_atom_site_fract_z
C1 C 0.7654(5) 0.5423(7) 0.2418(6)
C2 C 0.7104(4) 0.3988(1) 0.3137(4)
C3 C 0.8203(5) 0.3363(7) 0.4531(5)
C4 C 0.7713(7) 0.2259(8) 0.5495(5)
C5 C 0.6068(7) 0.1860(7) 0.5133(5)
C6 C 0.4893(6) 0.2446(6) 0.3755(5)
C7 C 0.5408(4) 0.3393(6) 0.2644(4)
C8 C 0.3106(7) 0.2226(8) 0.3506(6)
C9 C 0.6146(5) 0.3672(8) -0.0648(5)
C10 C 0.4517(4) 0.4094(6) -0.0346(4)
C11 C 0.3205(6) 0.4631(7) -0.1652(5)
C12 C 0.1572(6) 0.4795(8) -0.1610(6)
C13 C 0.1168(4) 0.4303(7) -0.0305(6)
C14 C 0.2436(4) 0.3745(7) 0.1053(5)
C15 C 0.4145(4) 0.3798(6) 0.1115(4)
C16 C 0.1948(6) 0.2975(8) 0.2324(7)
H1 H 0.682(5) 0.590(6) 0.155(5)
H2 H 0.862(6) 0.519(7) 0.191(6)
H3 H 0.814(6) 0.612(7) 0.331(5)
H4 H 0.962(4) 0.381(6) 0.487(5)
H5 H 0.837(4) 0.181(5) 0.648(4)
H6 H 0.562(7) 0.107(10) 0.600(7)
H7 H 0.269(6) 0.169(7) 0.432(6)
H8 H 0.701(4) 0.311(5) 0.023(4)
H9 H 0.680(5) 0.473(6) -0.087(5)
H10 H 0.601(5) 0.306(7) -0.175(6)
H11 H 0.344(4) 0.476(5) -0.254(5)
H12 H 0.064(6) 0.515(7) -0.268(6)
H13 H -0.013(8) 0.427(9) -0.031(8)
H14 H 0.071(5) 0.290(6) 0.222(4)
loop_
_geom_bond_atom_site_label_1
_geom_bond_atom_site_label_2
_geom_bond_distance
_geom_bond_site_symmetry_1
_geom_bond_site_symmetry_2
C1 C2 1.480 1_555 1_555
C2 C3 1.384 1_555 1_555
C3 C4 1.386 1_555 1_555
C4 C5 1.349 1_555 1_555
C5 C6 1.389 1_555 1_555
C6 C7 1.412 1_555 1_555
C7 C2 1.432 1_555 1_555
C8 C6 1.447 1_555 1_555
C9 C10 1.498 1_555 1_555
C10 C11 1.392 1_555 1_555
C11 C12 1.377 1_555 1_555
C12 C13 1.347 1_555 1_555
C13 C14 1.406 1_555 1_555
C14 C15 1.407 1_555 1_555
C15 C7 1.468 1_555 1_555
C16 C8 1.334 1_555 1_555
H1 C1 0.946 1_555 1_555
H2 C1 1.047 1_555 1_555
H3 C1 0.956 1_555 1_555
H4 C3 1.184 1_555 1_555
H5 C4 0.946 1_555 1_555
H6 C5 1.146 1_555 1_555
H7 C8 0.986 1_555 1_555
H8 C9 0.994 1_555 1_555
H9 C9 1.079 1_555 1_555
H10 C9 1.064 1_555 1_555
H11 C11 0.863 1_555 1_555
H12 C12 1.060 1_555 1_555
H13 C13 1.079 1_555 1_555
H14 C16 1.008 1_555 1_555
C10 C15 1.424 1_555 1_555
C14 C16 1.442 1_555 1_555
#END
