
#######################################################################
#
#                 Cambridge Crystallographic Data Centre
#                                CCDC
#
#######################################################################
#
# If this CIF has been generated from an entry in the Cambridge
# Structural Database, then it will include bibliographic, chemical,
# crystal, experimental, refinement or atomic coordinate data resulting
# from the CCDC's data processing and validation procedures.
#
#######################################################################

data_CSD_CIF_FEWWIN
_audit_creation_date 1987-11-26
_audit_creation_method CSD-ConQuest-V1
_database_code_CSD FEWWIN
_chemical_formula_sum 'C18 H18'
_chemical_formula_moiety
;
C18 H18
;
_journal_coden_Cambridge 4
_journal_volume 109
_journal_year 1987
_journal_page_first 2077
_journal_name_full 'J.Am.Chem.Soc. '
loop_
_publ_author_name
"R.N.Armstrong"
"H.L.Ammon"
"J.N.Darnow"
_chemical_name_systematic
;
3,4,5,6-Tetramethylphenanthrene
;
_cell_volume   2676.399
_exptl_crystal_density_diffrn 1.163
_diffrn_ambient_temperature ?
_diffrn_special_details
;
The study was carried out at room temperature,in the range 283-303K

;
#These two values have been output from a single CSD field.
_refine_ls_R_factor_gt 0.039
_refine_ls_wR_factor_gt 0.039
_symmetry_cell_setting monoclinic
_symmetry_space_group_name_H-M 'P 21/c'
_symmetry_Int_Tables_number 14
loop_
_symmetry_equiv_pos_site_id
_symmetry_equiv_pos_as_xyz
1 x,y,z
2 -x,1/2+y,1/2-z
3 -x,-y,-z
4 x,-1/2-y,-1/2+z
_cell_length_a 11.635(1)
_cell_length_b 15.417(1)
_cell_length_c 14.921(3)
_cell_angle_alpha 90
_cell_angle_beta 90.45(1)
_cell_angle_gamma 90
_cell_formula_units_Z 8
loop_
_atom_type_symbol
_atom_type_radius_bond
C 0.68
H 0.23
loop_
_atom_site_label
_atom_site_type_symbol
_atom_site_fract_x
_atom_site_fract_y
_atom_site_fract_z
C1 C 0.2708(2) 0.1772(2) 0.4492(2)
C2 C 0.2871(3) 0.2515(2) 0.4966(2)
C3 C 0.2259(2) 0.3269(2) 0.4755(2)
C4 C 0.1549(2) 0.3284(2) 0.3999(2)
C5 C 0.1512(2) 0.2552(2) 0.3418(2)
C6 C 0.0930(2) 0.2537(2) 0.2539(2)
C7 C 0.0836(2) 0.3263(2) 0.1952(2)
C8 C 0.0128(2) 0.3210(2) 0.1196(2)
C9 C -0.0420(3) 0.2432(3) 0.0989(2)
C10 C -0.0197(2) 0.1699(2) 0.1467(2)
C11 C 0.0509(2) 0.1728(2) 0.2232(2)
C12 C 0.0898(3) 0.0947(2) 0.2656(2)
C13 C 0.1681(3) 0.0970(2) 0.3313(2)
C14 C 0.1997(2) 0.1768(2) 0.3731(2)
C15 C 0.0721(3) 0.4032(2) 0.3906(3)
C16 C 0.1615(3) 0.4038(2) 0.2042(2)
C17 C 0.2366(4) 0.4040(3) 0.5363(3)
C18 C -0.0003(4) 0.3975(3) 0.0574(3)
C19 C -0.5258(3) 0.3455(2) 0.1734(2)
C20 C -0.5507(2) 0.2726(3) 0.2213(2)
C21 C -0.4953(2) 0.1946(2) 0.2020(2)
C22 C -0.4229(2) 0.1884(2) 0.1283(2)
C23 C -0.4113(2) 0.2603(2) 0.0694(2)
C24 C -0.3519(2) 0.2579(2) -0.0168(2)
C25 C -0.3481(2) 0.1839(2) -0.0741(2)
C26 C -0.2735(2) 0.1832(2) -0.1472(2)
C27 C -0.2104(3) 0.2575(2) -0.1665(2)
C28 C -0.2272(3) 0.3323(2) -0.1215(2)
C29 C -0.3001(1) 0.3356(2) -0.0471(2)
C30 C -0.3317(3) 0.4159(2) -0.0067(2)
C31 C -0.4119(3) 0.4192(2) 0.0575(2)
C32 C -0.4525(2) 0.3416(2) 0.0987(2)
C33 C -0.3482(3) 0.1091(2) 0.1212(2)
C34 C -0.4352(3) 0.1117(2) -0.0671(2)
C35 C -0.5133(4) 0.1183(3) 0.2637(3)
C36 C -0.2629(4) 0.1048(3) -0.2067(3)
H1 H 0.307(2) 0.117(2) 0.468(2)
H2 H 0.343(2) 0.252(2) 0.550(2)
H3 H -0.093(2) 0.240(2) 0.045(2)
H4 H -0.054(2) 0.108(2) 0.133(2)
H5 H 0.068(2) 0.041(1) 0.240(1)
H6 H 0.204(2) 0.047(2) 0.358(2)
H7 H 0.017(2) 0.393(2) 0.343(2)
H8 H 0.031(2) 0.411(2) 0.448(2)
H9 H 0.110(2) 0.464(2) 0.375(2)
H10 H 0.220(2) 0.397(2) 0.255(2)
H11 H 0.119(2) 0.461(2) 0.217(2)
H12 H 0.210(2) 0.410(2) 0.148(2)
H13 H 0.296(3) 0.396(2) 0.580(2)
H14 H 0.167(3) 0.423(2) 0.566(2)
H15 H 0.265(3) 0.459(2) 0.501(2)
H16 H -0.056(3) 0.383(2) 0.016(2)
H17 H -0.032(4) 0.445(3) 0.087(3)
H18 H 0.073(3) 0.415(2) 0.029(2)
H19 H -0.551(2) 0.405(2) 0.189(2)
H20 H -0.604(2) 0.279(2) 0.274(2)
H21 H -0.166(2) 0.254(2) -0.221(2)
H22 H -0.193(2) 0.387(2) -0.138(2)
H23 H -0.299(2) 0.468(2) -0.036(2)
H24 H -0.443(2) 0.474(2) 0.081(2)
H25 H -0.289(2) 0.117(1) 0.075(2)
H26 H -0.392(2) 0.056(2) 0.110(2)
H27 H -0.306(2) 0.097(2) 0.183(2)
H28 H -0.494(2) 0.123(2) -0.017(2)
H29 H -0.400(2) 0.052(2) -0.054(2)
H30 H -0.478(2) 0.104(2) -0.129(2)
H31 H -0.567(3) 0.134(2) 0.310(2)
H32 H -0.523(3) 0.063(3) 0.231(3)
H33 H -0.443(3) 0.101(2) 0.296(3)
H34 H -0.203(3) 0.115(2) -0.246(2)
H35 H -0.247(3) 0.056(2) -0.172(2)
H36 H -0.335(3) 0.097(2) -0.245(2)
loop_
_geom_bond_atom_site_label_1
_geom_bond_atom_site_label_2
_geom_bond_distance
_geom_bond_site_symmetry_1
_geom_bond_site_symmetry_2
C1 C2 1.359 1_555 1_555
C2 C3 1.398 1_555 1_555
C3 C4 1.393 1_555 1_555
C4 C5 1.424 1_555 1_555
C5 C6 1.471 1_555 1_555
C6 C7 1.425 1_555 1_555
C7 C8 1.394 1_555 1_555
C8 C9 1.392 1_555 1_555
C9 C10 1.360 1_555 1_555
C10 C11 1.402 1_555 1_555
C11 C6 1.415 1_555 1_555
C12 C11 1.432 1_555 1_555
C13 C12 1.333 1_555 1_555
C14 C1 1.400 1_555 1_555
C15 C4 1.508 1_555 1_555
C16 C7 1.505 1_555 1_555
C17 C3 1.500 1_555 1_555
C18 C8 1.508 1_555 1_555
C19 C20 1.364 1_555 1_555
C20 C21 1.395 1_555 1_555
C21 C22 1.394 1_555 1_555
C22 C23 1.422 1_555 1_555
C23 C24 1.465 1_555 1_555
C24 C25 1.427 1_555 1_555
C25 C26 1.399 1_555 1_555
C26 C27 1.392 1_555 1_555
C27 C28 1.349 1_555 1_555
C28 C29 1.403 1_555 1_555
C29 C24 1.417 1_555 1_555
C30 C29 1.426 1_555 1_555
C31 C30 1.343 1_555 1_555
C32 C19 1.410 1_555 1_555
C33 C22 1.504 1_555 1_555
C34 C25 1.509 1_555 1_555
C35 C21 1.509 1_555 1_555
C36 C26 1.505 1_555 1_555
H1 C1 1.056 1_555 1_555
H2 C2 1.025 1_555 1_555
H3 C9 0.997 1_555 1_555
H4 C10 1.054 1_555 1_555
H5 C12 0.946 1_555 1_555
H6 C13 0.962 1_555 1_555
H7 C15 0.966 1_555 1_555
H8 C15 0.992 1_555 1_555
H9 C15 1.062 1_555 1_555
H10 C16 1.020 1_555 1_555
H11 C16 1.030 1_555 1_555
H12 C16 1.019 1_555 1_555
H13 C17 0.954 1_555 1_555
H14 C17 0.971 1_555 1_555
H15 C17 1.053 1_555 1_555
H16 C18 0.919 1_555 1_555
H17 C18 0.933 1_555 1_555
H18 C18 0.993 1_555 1_555
H19 C19 0.991 1_555 1_555
H20 C20 1.010 1_555 1_555
H21 C27 0.968 1_555 1_555
H22 C28 0.965 1_555 1_555
H23 C30 0.992 1_555 1_555
H24 C31 0.985 1_555 1_555
H25 C33 0.986 1_555 1_555
H26 C33 0.978 1_555 1_555
H27 C33 1.058 1_555 1_555
H28 C34 1.032 1_555 1_555
H29 C34 1.026 1_555 1_555
H30 C34 1.053 1_555 1_555
H31 C35 0.966 1_555 1_555
H32 C35 0.988 1_555 1_555
H33 C35 0.983 1_555 1_555
H34 C36 0.928 1_555 1_555
H35 C36 0.931 1_555 1_555
H36 C36 1.018 1_555 1_555
C5 C14 1.412 1_555 1_555
C13 C14 1.426 1_555 1_555
C23 C32 1.413 1_555 1_555
C31 C32 1.427 1_555 1_555
#END
