
#######################################################################
#
#                 Cambridge Crystallographic Data Centre
#                                CCDC
#
#######################################################################
#
# If this CIF has been generated from an entry in the Cambridge
# Structural Database, then it will include bibliographic, chemical,
# crystal, experimental, refinement or atomic coordinate data resulting
# from the CCDC's data processing and validation procedures.
#
#######################################################################

data_CSD_CIF_FEWWEJ02
_audit_creation_date 1988-09-04
_audit_creation_method CSD-ConQuest-V1
_database_code_CSD FEWWEJ02
_chemical_formula_sum 'C16 H14'
_chemical_formula_moiety
;
C16 H14
;
_journal_coden_Cambridge 35
_journal_volume 52
_journal_year 1987
_journal_page_first 5727
_journal_name_full 'J.Org.Chem. '
loop_
_publ_author_name
"F.Imashiro"
"A.Saika"
"Z.Taira"
_chemical_name_systematic
;
4,5-Dimethylphenanthrene
;
_cell_volume    571.345
_exptl_crystal_density_diffrn 1.199
_diffrn_ambient_temperature ?
_diffrn_special_details
;
The study was carried out at room temperature,in the range 283-303K

;
#These two values have been output from a single CSD field.
_refine_ls_R_factor_gt 0.0611
_refine_ls_wR_factor_gt 0.0611
_symmetry_cell_setting monoclinic
_symmetry_space_group_name_H-M 'P 21'
_symmetry_Int_Tables_number 4
loop_
_symmetry_equiv_pos_site_id
_symmetry_equiv_pos_as_xyz
1 x,y,z
2 -x,1/2+y,-z
_cell_length_a 8.733(2)
_cell_length_b 8.254(2)
_cell_length_c 8.316(3)
_cell_angle_alpha 90
_cell_angle_beta 107.61(2)
_cell_angle_gamma 90
_cell_formula_units_Z 2
loop_
_atom_type_symbol
_atom_type_radius_bond
C 0.68
H 0.23
loop_
_atom_site_label
_atom_site_type_symbol
_atom_site_fract_x
_atom_site_fract_y
_atom_site_fract_z
C1 C 0.5331(7) 0.9633(7) 0.8825(6)
C2 C 0.6627(6) 1.0173(6) 0.8414(7)
C3 C 0.6676(5) 0.9999(6) 0.6792(6)
C4 C 0.5349(5) 0.9454(5) 0.5493(5)
C5 C 0.3889(4) 0.9141(5) 0.5851(4)
C6 C 0.2356(4) 0.8747(5) 0.4572(5)
C7 C 0.1868(4) 0.9329(5) 0.2919(5)
C8 C 0.0464(5) 0.8712(7) 0.1782(6)
H1 H 0.527(7) 1.011(6) 0.991(7)
H2 H 0.765(6) 1.059(7) 0.927(6)
H3 H 0.750(6) 1.052(7) 0.644(6)
H4 H 0.023(5) 0.929(6) 0.075(5)
H5 H -0.134(7) 0.686(7) 0.167(7)
H6 H -0.081(6) 0.626(7) 0.438(6)
H7 H 0.061(7) 0.660(8) 0.710(7)
C9 C -0.0482(6) 0.7589(7) 0.2300(8)
C10 C -0.0143(6) 0.7194(7) 0.3929(8)
C11 C 0.1240(5) 0.7791(6) 0.5128(7)
C12 C 0.1471(6) 0.7556(6) 0.6879(7)
C13 C 0.2673(7) 0.8278(7) 0.8029(6)
C14 C 0.3955(6) 0.9093(6) 0.7578(5)
C15 C 0.5644(5) 0.9015(6) 0.3845(6)
C16 C 0.2568(6) 1.0797(6) 0.2305(5)
H8 H 0.277(6) 0.801(8) 0.916(6)
H9 H 0.492(6) 0.797(7) 0.308(6)
H10 H 0.593(5) 1.012(6) 0.324(6)
H11 H 0.639(6) 0.830(7) 0.425(6)
H12 H 0.352(6) 1.155(7) 0.303(6)
H13 H 0.302(6) 1.087(7) 0.158(6)
H14 H 0.226(6) 1.157(7) 0.259(6)
loop_
_geom_bond_atom_site_label_1
_geom_bond_atom_site_label_2
_geom_bond_distance
_geom_bond_site_symmetry_1
_geom_bond_site_symmetry_2
C1 C2 1.353 1_555 1_555
C2 C3 1.370 1_555 1_555
C3 C4 1.398 1_555 1_555
C4 C5 1.418 1_555 1_555
C5 C6 1.472 1_555 1_555
C6 C7 1.396 1_555 1_555
C7 C8 1.398 1_555 1_555
C8 H4 0.949 1_555 1_555
H1 C1 1.001 1_555 1_555
H2 C2 1.019 1_555 1_555
H3 C3 0.957 1_555 1_555
H5 C9 0.980 1_555 1_555
H6 C10 1.098 1_555 1_555
H7 C12 1.143 1_555 1_555
C9 C8 1.394 1_555 1_555
C10 C9 1.337 1_555 1_555
C11 C6 1.435 1_555 1_555
C12 C11 1.422 1_555 1_555
C13 C12 1.328 1_555 1_555
C14 C1 1.401 1_555 1_555
C15 C4 1.513 1_555 1_555
C16 C7 1.514 1_555 1_555
H8 C13 0.945 1_555 1_555
H9 C15 1.142 1_555 1_555
H10 C15 1.106 1_555 1_555
H11 C15 0.868 1_555 1_555
H12 C16 1.067 1_555 1_555
H13 C16 0.817 1_555 1_555
H14 C16 0.758 1_555 1_555
C5 C14 1.420 1_555 1_555
C10 C11 1.403 1_555 1_555
C13 C14 1.449 1_555 1_555
#END
