
#######################################################################
#
#                 Cambridge Crystallographic Data Centre
#                                CCDC
#
#######################################################################
#
# If this CIF has been generated from an entry in the Cambridge
# Structural Database, then it will include bibliographic, chemical,
# crystal, experimental, refinement or atomic coordinate data resulting
# from the CCDC's data processing and validation procedures.
#
#######################################################################

data_CSD_CIF_FIBBOI
_audit_creation_date 2005-05-31
_audit_creation_method CSD-ConQuest-V1
_database_code_CSD FIBBOI
_database_code_depnum_ccdc_archive 'CCDC 263902'
_chemical_formula_sum 'C36 H26'
_chemical_formula_moiety
;
C36 H26
;
_journal_coden_Cambridge 1336
_journal_volume 7
_journal_year 2005
_journal_page_first 283
_journal_name_full 'Org.Lett. '
loop_
_publ_author_name
"Huadong Wang"
"F.P.Gabbai"
_chemical_name_systematic
;
1,1,2,2-Tetraphenylacenaphthene
;
_chemical_melting_point 405.15
_cell_volume   2380.496
_exptl_crystal_density_diffrn 1.285
_exptl_special_details
;
Melting point range 405.15-410.15K

;
_diffrn_ambient_temperature 110
#These two values have been output from a single CSD field.
_refine_ls_R_factor_gt 0.0409
_refine_ls_wR_factor_gt 0.0409
_symmetry_cell_setting monoclinic
_symmetry_space_group_name_H-M 'P 21/n'
_symmetry_Int_Tables_number 14
loop_
_symmetry_equiv_pos_site_id
_symmetry_equiv_pos_as_xyz
1 x,y,z
2 1/2-x,1/2+y,1/2-z
3 -x,-y,-z
4 -1/2+x,-1/2-y,-1/2+z
_cell_length_a 8.792(4)
_cell_length_b 14.257(7)
_cell_length_c 19.081(9)
_cell_angle_alpha 90
_cell_angle_beta 95.562(10)
_cell_angle_gamma 90
_cell_formula_units_Z 4
loop_
_atom_type_symbol
_atom_type_radius_bond
C 0.68
H 0.23
loop_
_atom_site_label
_atom_site_type_symbol
_atom_site_fract_x
_atom_site_fract_y
_atom_site_fract_z
C1 C -0.0146(2) 0.27746(12) 0.26863(10)
C2 C -0.1336(2) 0.28342(13) 0.30966(11)
H1 H -0.23540 0.29000 0.28860
C3 C -0.1029(2) 0.27958(13) 0.38378(11)
H2 H -0.18570 0.28380 0.41210
C4 C 0.0426(3) 0.26996(13) 0.41592(11)
H3 H 0.05930 0.26870 0.46590
C5 C 0.3246(2) 0.25209(13) 0.40005(12)
H4 H 0.35400 0.25030 0.44930
C6 C 0.4330(2) 0.24522(14) 0.35354(12)
H5 H 0.53720 0.23930 0.37150
C7 C 0.3957(2) 0.24655(13) 0.27959(11)
H6 H 0.47340 0.24160 0.24850
C8 C 0.2450(2) 0.25507(13) 0.25386(11)
C9 C 0.1340(2) 0.26471(12) 0.30147(10)
C10 C 0.1685(2) 0.26183(13) 0.37501(11)
C11 C -0.0761(2) 0.37107(13) 0.15473(10)
C12 C -0.1239(2) 0.44486(13) 0.19480(11)
H7 H -0.12050 0.43810 0.24450
C13 C -0.1767(2) 0.52837(14) 0.16362(11)
H8 H -0.20780 0.57820 0.19200
C14 C -0.1841(2) 0.53905(14) 0.09145(12)
H9 H -0.21950 0.59620 0.07010
C15 C -0.1396(2) 0.46614(14) 0.05060(11)
H10 H -0.14650 0.47240 0.00080
C16 C -0.0851(2) 0.38406(14) 0.08209(11)
H11 H -0.05270 0.33490 0.05340
C17 C -0.1187(2) 0.19469(13) 0.16246(10)
C18 C -0.2562(2) 0.20473(14) 0.12090(11)
H12 H -0.28750 0.26530 0.10450
C19 C -0.3491(2) 0.12771(14) 0.10269(11)
H13 H -0.44390 0.13640 0.07510
C20 C -0.3040(2) 0.03876(14) 0.12453(11)
H14 H -0.36480 -0.01420 0.11020
C21 C -0.1692(2) 0.02785(14) 0.16758(11)
H15 H -0.13780 -0.03290 0.18350
C22 C -0.0805(2) 0.10446(13) 0.18742(11)
H16 H 0.00910 0.09600 0.21890
C23 C 0.2525(2) 0.34748(13) 0.14647(10)
C24 C 0.2435(2) 0.43507(13) 0.1792(1)
H17 H 0.18270 0.44170 0.21740
C25 C 0.3214(2) 0.51179(14) 0.15689(10)
H18 H 0.30930 0.57130 0.17810
C26 C 0.4163(2) 0.50274(14) 0.10414(11)
H19 H 0.47040 0.55560 0.08910
C27 C 0.4325(2) 0.41624(14) 0.07322(11)
H20 H 0.50090 0.40900 0.03800
C28 C 0.3493(2) 0.33975(14) 0.09327(11)
H21 H 0.35860 0.28120 0.07030
C29 C 0.1983(2) 0.17283(13) 0.13431(10)
C30 C 0.2776(2) 0.09513(13) 0.16284(11)
H22 H 0.32300 0.09770 0.21010
C31 C 0.2917(2) 0.01400(14) 0.12386(12)
H23 H 0.34490 -0.03840 0.14490
C32 C 0.2295(2) 0.00879(15) 0.05516(12)
H24 H 0.23910 -0.04700 0.02870
C33 C 0.1528(2) 0.08550(15) 0.02487(11)
H25 H 0.11090 0.08310 -0.02290
C34 C 0.1372(2) 0.16586(14) 0.06424(11)
H26 H 0.08330 0.21780 0.04290
C35 C -0.0152(2) 0.27794(13) 0.18786(10)
C36 C 0.1729(2) 0.26170(13) 0.17713(10)
loop_
_geom_bond_atom_site_label_1
_geom_bond_atom_site_label_2
_geom_bond_distance
_geom_bond_site_symmetry_1
_geom_bond_site_symmetry_2
C1 C2 1.369 1_555 1_555
C2 H1 0.950 1_555 1_555
C3 C2 1.415 1_555 1_555
H2 C3 0.950 1_555 1_555
C4 C3 1.371 1_555 1_555
H3 C4 0.951 1_555 1_555
C5 H4 0.951 1_555 1_555
C6 C5 1.367 1_555 1_555
H5 C6 0.950 1_555 1_555
C7 C6 1.417 1_555 1_555
H6 C7 0.950 1_555 1_555
C8 C7 1.373 1_555 1_555
C9 C1 1.405 1_555 1_555
C10 C4 1.420 1_555 1_555
C11 C12 1.389 1_555 1_555
C12 H7 0.951 1_555 1_555
C13 C12 1.390 1_555 1_555
H8 C13 0.949 1_555 1_555
C14 C13 1.381 1_555 1_555
H9 C14 0.950 1_555 1_555
C15 C14 1.378 1_555 1_555
H10 C15 0.950 1_555 1_555
C16 C11 1.393 1_555 1_555
H11 C16 0.950 1_555 1_555
C17 C18 1.387 1_555 1_555
C18 H12 0.950 1_555 1_555
C19 C18 1.392 1_555 1_555
H13 C19 0.950 1_555 1_555
C20 C19 1.381 1_555 1_555
H14 C20 0.950 1_555 1_555
C21 C20 1.384 1_555 1_555
H15 C21 0.950 1_555 1_555
C22 C17 1.401 1_555 1_555
H16 C22 0.951 1_555 1_555
C23 C24 1.402 1_555 1_555
C24 H17 0.949 1_555 1_555
C25 C24 1.380 1_555 1_555
H18 C25 0.950 1_555 1_555
C26 C25 1.374 1_555 1_555
H19 C26 0.950 1_555 1_555
C27 C26 1.380 1_555 1_555
H20 C27 0.950 1_555 1_555
C28 C23 1.391 1_555 1_555
H21 C28 0.950 1_555 1_555
C29 C30 1.391 1_555 1_555
C30 H22 0.951 1_555 1_555
C31 C30 1.387 1_555 1_555
H23 C31 0.950 1_555 1_555
C32 C31 1.373 1_555 1_555
H24 C32 0.950 1_555 1_555
C33 C32 1.382 1_555 1_555
H25 C33 0.950 1_555 1_555
C34 C29 1.395 1_555 1_555
H26 C34 0.949 1_555 1_555
C35 C1 1.541 1_555 1_555
C36 C8 1.541 1_555 1_555
C5 C10 1.416 1_555 1_555
C8 C9 1.403 1_555 1_555
C9 C10 1.407 1_555 1_555
C11 C35 1.544 1_555 1_555
C15 C16 1.380 1_555 1_555
C17 C35 1.545 1_555 1_555
C21 C22 1.374 1_555 1_555
C23 C36 1.551 1_555 1_555
C27 C28 1.387 1_555 1_555
C29 C36 1.536 1_555 1_555
C33 C34 1.384 1_555 1_555
C35 C36 1.702 1_555 1_555
#END
