
#######################################################################
#
#                 Cambridge Crystallographic Data Centre
#                                CCDC
#
#######################################################################
#
# If this CIF has been generated from an entry in the Cambridge
# Structural Database, then it will include bibliographic, chemical,
# crystal, experimental, refinement or atomic coordinate data resulting
# from the CCDC's data processing and validation procedures.
#
#######################################################################

data_CSD_CIF_FIBXUM
_audit_creation_date 2018-04-04
_audit_creation_method CSD-ConQuest-V1
_database_code_CSD FIBXUM
_database_code_depnum_ccdc_archive 'CCDC 1584450'
_chemical_formula_sum 'C28 H14'
_chemical_formula_moiety
;
C28 H14
;
_journal_coden_Cambridge 1220
_journal_volume 24
_journal_year 2018
_journal_page_first 3455
_journal_name_full 'Chem.-Eur.J. '
loop_
_publ_author_name
"Zheng Zhou"
"S.N.Spisak"
"Qi Xu"
"A.Yu.Rogachev"
"Zheng Wei"
"M.Marcaccio"
"M.A.Petrukhina"
_chemical_name_systematic
;
benzo[4,5]fluoreno[1,9,8-cdef]tetraphene
;
_cell_volume   1617.164
_exptl_crystal_colour 'colorless'
_exptl_crystal_density_diffrn 1.439
_exptl_crystal_description 'plate'
_diffrn_ambient_temperature 100
#These two values have been output from a single CSD field.
_refine_ls_R_factor_gt 0.064
_refine_ls_wR_factor_gt 0.064
_symmetry_cell_setting monoclinic
_symmetry_space_group_name_H-M 'P 21'
_symmetry_Int_Tables_number 4
loop_
_symmetry_equiv_pos_site_id
_symmetry_equiv_pos_as_xyz
1 x,y,z
2 -x,1/2+y,-z
_cell_length_a 14.849(7)
_cell_length_b 7.264(4)
_cell_length_c 15.113(8)
_cell_angle_alpha 90
_cell_angle_beta 97.233(7)
_cell_angle_gamma 90
_cell_formula_units_Z 4
loop_
_atom_type_symbol
_atom_type_radius_bond
C 0.68
H 0.23
loop_
_atom_site_label
_atom_site_type_symbol
_atom_site_fract_x
_atom_site_fract_y
_atom_site_fract_z
C1 C 0.5832(4) 0.0189(8) 0.3169(3)
C2 C 0.4942(4) 0.0106(8) 0.2824(3)
H1 H 0.47980 -0.02913 0.22243
C3 C 0.4233(4) 0.0567(8) 0.3297(3)
C4 C 0.3313(4) 0.0422(8) 0.2935(4)
H2 H 0.31659 -0.00462 0.23474
C5 C 0.2633(4) 0.0935(8) 0.3404(3)
H3 H 0.20185 0.08461 0.31410
C6 C 0.2842(4) 0.1606(8) 0.4290(4)
H4 H 0.23683 0.19642 0.46210
C7 C 0.3720(4) 0.1733(8) 0.4660(3)
H5 H 0.38531 0.21774 0.52530
C8 C 0.4435(4) 0.1226(8) 0.4191(3)
C9 C 0.5346(4) 0.1322(8) 0.4551(3)
H6 H 0.54857 0.17701 0.51428
C10 C 0.6050(4) 0.0811(8) 0.4104(3)
C11 C 0.7006(4) 0.0869(8) 0.4517(3)
C12 C 0.7400(4) 0.1881(8) 0.5291(3)
H7 H 0.70158 0.23727 0.56891
C13 C 0.8329(4) 0.2149(8) 0.5465(3)
H8 H 0.85646 0.28101 0.59852
C14 C 0.8948(4) 0.1465(8) 0.4888(3)
C15 C 0.9840(4) 0.2084(9) 0.4773(3)
H9 H 1.01851 0.27354 0.52451
C16 C 1.0216(4) 0.1760(9) 0.3991(3)
H10 H 1.08134 0.21817 0.39437
C17 C 0.9719(4) 0.0799(8) 0.3247(3)
C18 C 0.9838(4) 0.0857(9) 0.2308(4)
H11 H 1.04031 0.12366 0.21361
C19 C 0.9133(4) 0.0362(8) 0.1660(3)
H12 H 0.92355 0.04160 0.10524
C20 C 0.8260(4) -0.0225(8) 0.1857(3)
C21 C 0.7391(4) -0.0270(8) 0.1340(3)
H13 H 0.73667 -0.02988 0.07087
C22 C 0.6593(4) -0.0276(8) 0.1693(3)
H14 H 0.60362 -0.02803 0.13071
C23 C 0.6581(4) -0.0275(8) 0.2654(3)
C24 C 0.7407(4) -0.0488(8) 0.3128(3)
C25 C 0.7611(4) 0.0035(8) 0.4050(3)
C26 C 0.8547(4) 0.0332(8) 0.4218(3)
C27 C 0.8933(4) 0.0007(8) 0.3424(3)
C28 C 0.8219(4) -0.0498(8) 0.2759(3)
C29 C 0.5558(4) 0.5655(7) 0.1044(3)
C30 C 0.4694(4) 0.6238(8) 0.0772(3)
H15 H 0.45610 0.67017 0.01818
C31 C 0.3988(4) 0.6195(8) 0.1312(3)
C32 C 0.3101(4) 0.6747(8) 0.1019(3)
H16 H 0.29689 0.72572 0.04381
C33 C 0.2422(4) 0.6581(8) 0.1531(3)
H17 H 0.18231 0.69574 0.13102
C34 C 0.2613(4) 0.5839(8) 0.2403(3)
H18 H 0.21400 0.57024 0.27660
C35 C 0.3472(4) 0.5325(8) 0.2716(4)
H19 H 0.35910 0.48440 0.33041
C36 C 0.4188(4) 0.5481(7) 0.2203(3)
C37 C 0.5081(4) 0.4976(8) 0.2500(3)
H20 H 0.52144 0.45412 0.30951
C38 C 0.5780(4) 0.5066(8) 0.1988(3)
C39 C 0.6724(4) 0.4647(8) 0.2336(3)
C40 C 0.7169(4) 0.4725(8) 0.3243(3)
H21 H 0.68097 0.47029 0.37206
C41 C 0.8092(4) 0.4831(8) 0.3431(3)
H22 H 0.83505 0.48782 0.40385
C42 C 0.8683(4) 0.4875(8) 0.2764(3)
C43 C 0.9588(4) 0.5531(8) 0.2782(4)
H23 H 0.99519 0.56405 0.33430
C44 C 0.9965(4) 0.6018(9) 0.2026(4)
H24 H 1.05769 0.64311 0.20786
C45 C 0.9434(4) 0.5905(9) 0.1144(3)
C46 C 0.9567(4) 0.6858(9) 0.0334(3)
H25 H 1.01498 0.73316 0.02606
C47 C 0.8848(4) 0.7089(9) -0.0342(4)
H26 H 0.89576 0.77178 -0.08689
C48 C 0.7950(4) 0.6421(8) -0.0279(3)
C49 C 0.7088(4) 0.6975(8) -0.0722(3)
H27 H 0.70639 0.75948 -0.12780
C50 C 0.6289(4) 0.6649(8) -0.0377(3)
H28 H 0.57347 0.70648 -0.06971
C51 C 0.6267(4) 0.5690(8) 0.0461(3)
C52 C 0.7080(4) 0.4970(8) 0.0791(3)
C53 C 0.7298(4) 0.4457(8) 0.1718(3)
C54 C 0.8239(4) 0.4541(8) 0.1914(3)
C55 C 0.8622(4) 0.5067(8) 0.1138(3)
C56 C 0.7892(4) 0.5294(8) 0.0448(3)
loop_
_geom_bond_atom_site_label_1
_geom_bond_atom_site_label_2
_geom_bond_distance
_geom_bond_site_symmetry_1
_geom_bond_site_symmetry_2
C1 C2 1.360 1_555 1_555
C2 H1 0.950 1_555 1_555
C3 C2 1.386 1_555 1_555
C4 C3 1.410 1_555 1_555
H2 C4 0.950 1_555 1_555
C5 C4 1.357 1_555 1_555
H3 C5 0.950 1_555 1_555
C6 C5 1.422 1_555 1_555
H4 C6 0.949 1_555 1_555
C7 C6 1.355 1_555 1_555
H5 C7 0.950 1_555 1_555
C8 C3 1.429 1_555 1_555
C9 C8 1.395 1_555 1_555
H6 C9 0.950 1_555 1_555
C10 C1 1.480 1_555 1_555
C11 C10 1.478 1_555 1_555
C12 C11 1.442 1_555 1_555
H7 C12 0.949 1_555 1_555
C13 C12 1.385 1_555 1_555
H8 C13 0.950 1_555 1_555
C14 C13 1.433 1_555 1_555
C15 C14 1.430 1_555 1_555
H9 C15 0.951 1_555 1_555
C16 C15 1.389 1_555 1_555
H10 C16 0.950 1_555 1_555
C17 C16 1.445 1_555 1_555
C18 C17 1.453 1_555 1_555
H11 C18 0.950 1_555 1_555
C19 C18 1.388 1_555 1_555
H12 C19 0.950 1_555 1_555
C20 C19 1.431 1_555 1_555
C21 C20 1.422 1_555 1_555
H13 C21 0.951 1_555 1_555
C22 C21 1.359 1_555 1_555
H14 C22 0.950 1_555 1_555
C23 C1 1.475 1_555 1_555
C24 C23 1.349 1_555 1_555
C25 C11 1.353 1_555 1_555
C26 C14 1.380 1_555 1_555
C27 C17 1.358 1_555 1_555
C28 C20 1.386 1_555 1_555
C29 C30 1.364 1_555 1_555
C30 H15 0.951 1_555 1_555
C31 C30 1.408 1_555 1_555
C32 C31 1.395 1_555 1_555
H16 C32 0.950 1_555 1_555
C33 C32 1.351 1_555 1_555
H17 C33 0.950 1_555 1_555
C34 C33 1.419 1_555 1_555
H18 C34 0.949 1_555 1_555
C35 C34 1.356 1_555 1_555
H19 C35 0.951 1_555 1_555
C36 C31 1.439 1_555 1_555
C37 C36 1.394 1_555 1_555
H20 C37 0.950 1_555 1_555
C38 C29 1.486 1_555 1_555
C39 C38 1.466 1_555 1_555
C40 C39 1.446 1_555 1_555
H21 C40 0.950 1_555 1_555
C41 C40 1.366 1_555 1_555
H22 C41 0.950 1_555 1_555
C42 C41 1.418 1_555 1_555
C43 C42 1.423 1_555 1_555
H23 C43 0.950 1_555 1_555
C44 C43 1.380 1_555 1_555
H24 C44 0.951 1_555 1_555
C45 C44 1.463 1_555 1_555
C46 C45 1.441 1_555 1_555
H25 C46 0.951 1_555 1_555
C47 C46 1.392 1_555 1_555
H26 C47 0.950 1_555 1_555
C48 C47 1.433 1_555 1_555
C49 C48 1.426 1_555 1_555
H27 C49 0.950 1_555 1_555
C50 C49 1.375 1_555 1_555
H28 C50 0.950 1_555 1_555
C51 C29 1.456 1_555 1_555
C52 C51 1.352 1_555 1_555
C53 C39 1.348 1_555 1_555
C54 C42 1.389 1_555 1_555
C55 C45 1.350 1_555 1_555
C56 C48 1.382 1_555 1_555
C7 C8 1.398 1_555 1_555
C9 C10 1.366 1_555 1_555
C22 C23 1.455 1_555 1_555
C24 C25 1.439 1_555 1_555
C24 C28 1.391 1_555 1_555
C25 C26 1.398 1_555 1_555
C26 C27 1.413 1_555 1_555
C27 C28 1.414 1_555 1_555
C35 C36 1.397 1_555 1_555
C37 C38 1.372 1_555 1_555
C50 C51 1.449 1_555 1_555
C52 C53 1.446 1_555 1_555
C52 C56 1.391 1_555 1_555
C53 C54 1.393 1_555 1_555
C54 C55 1.419 1_555 1_555
C55 C56 1.416 1_555 1_555
#END
