
#######################################################################
#
#                 Cambridge Crystallographic Data Centre
#                                CCDC
#
#######################################################################
#
# If this CIF has been generated from an entry in the Cambridge
# Structural Database, then it will include bibliographic, chemical,
# crystal, experimental, refinement or atomic coordinate data resulting
# from the CCDC's data processing and validation procedures.
#
#######################################################################

data_CSD_CIF_FIJMUI
_audit_creation_date 2013-08-10
_audit_creation_method CSD-ConQuest-V1
_database_code_CSD FIJMUI
_database_code_depnum_ccdc_archive 'CCDC 920132'
_chemical_formula_sum 'C34 H20'
_chemical_formula_moiety
;
C34 H20
;
_journal_coden_Cambridge 179
_journal_volume 52
_journal_year 2013
_journal_page_first 9970
_journal_name_full 'Angew.Chem.,Int.Ed. '
loop_
_publ_author_name
"A.Jancarik"
"J.Rybacek"
"Kevin Cocq"
"J.V.Chocholousova"
"J.Vacek"
"R.Pohl"
"L.Bednarova"
"P.Fiedler"
"I.Cisarova"
"I.G.Stara"
"I.Stary"
_chemical_name_systematic
;
Dibenzo[f,l]hexahelicene
;
_cell_volume   2113.830
_exptl_crystal_colour 'yellow'
_exptl_crystal_density_diffrn 1.346
_exptl_crystal_description 'prism'
_diffrn_ambient_temperature 150
#These two values have been output from a single CSD field.
_refine_ls_R_factor_gt 0.0398
_refine_ls_wR_factor_gt 0.0398
_symmetry_cell_setting triclinic
_symmetry_space_group_name_H-M 'P -1'
_symmetry_Int_Tables_number 2
loop_
_symmetry_equiv_pos_site_id
_symmetry_equiv_pos_as_xyz
1 x,y,z
2 -x,-y,-z
_cell_length_a 11.1926(4)
_cell_length_b 12.6210(4)
_cell_length_c 17.0581(6)
_cell_angle_alpha 85.445(1)
_cell_angle_beta 71.047(1)
_cell_angle_gamma 68.208(1)
_cell_formula_units_Z 4
loop_
_atom_type_symbol
_atom_type_radius_bond
C 0.68
H 0.23
loop_
_atom_site_label
_atom_site_type_symbol
_atom_site_fract_x
_atom_site_fract_y
_atom_site_fract_z
C1 C 0.53292(12) 0.86425(9) 0.22066(7)
H1 H 0.45680 0.93330 0.23890
C2 C 0.65812(12) 0.86882(10) 0.17926(7)
H2 H 0.66800 0.94080 0.17020
C3 C 0.77212(12) 0.76802(11) 0.15007(8)
H3 H 0.85760 0.77190 0.11870
C4 C 0.75915(12) 0.66435(11) 0.16715(8)
H4 H 0.83650 0.59630 0.14810
C5 C 0.63228(12) 0.65699(10) 0.21276(7)
C6 C 0.62046(13) 0.54996(10) 0.23786(8)
H5 H 0.69660 0.48130 0.21820
C7 C 0.50182(13) 0.54511(10) 0.28942(8)
H6 H 0.49830 0.47330 0.30880
C8 C 0.38198(12) 0.64522(9) 0.31529(7)
C9 C 0.26151(13) 0.64225(10) 0.38117(7)
C10 C 0.25415(15) 0.53958(11) 0.41803(9)
H7 H 0.32400 0.46880 0.39480
C11 C 0.14742(16) 0.54059(13) 0.48693(9)
H8 H 0.14390 0.47080 0.51080
C12 C 0.04428(15) 0.64363(13) 0.52192(8)
H9 H -0.02810 0.64410 0.57040
C13 C 0.04724(14) 0.74469(12) 0.48619(8)
H10 H -0.02390 0.81450 0.51010
C14 C 0.15425(12) 0.74611(10) 0.41466(7)
C15 C 0.15134(12) 0.85064(10) 0.37073(7)
C16 C 0.04030(12) 0.95515(10) 0.39712(7)
H11 H -0.03110 0.95920 0.44710
C17 C 0.03390(12) 1.05011(10) 0.35205(7)
H12 H -0.03470 1.12160 0.37490
C18 C 0.12749(11) 1.04405(9) 0.27201(7)
C19 C 0.11484(12) 1.14415(9) 0.22126(8)
C20 C 0.02050(13) 1.25375(10) 0.25402(9)
H13 H -0.03880 1.26220 0.30950
C21 C 0.01290(14) 1.34862(10) 0.20706(10)
H14 H -0.05230 1.42140 0.22980
C22 C 0.10075(15) 1.33762(11) 0.12637(10)
H15 H 0.09690 1.40320 0.09440
C23 C 0.19336(15) 1.23183(11) 0.09268(9)
H16 H 0.25340 1.22530 0.03760
C24 C 0.20053(12) 1.13282(10) 0.13862(8)
C25 C 0.28652(12) 1.0185(1) 0.10092(7)
C26 C 0.34629(14) 1.00084(11) 0.01425(8)
H17 H 0.33910 1.06520 -0.01930
C27 C 0.41477(14) 0.89320(11) -0.02309(8)
H18 H 0.45580 0.88350 -0.08160
C28 C 0.42351(13) 0.7982(1) 0.02584(8)
H19 H 0.46810 0.72340 0.00040
C29 C 0.36777(12) 0.81269(10) 0.11068(7)
H20 H 0.37420 0.74730 0.14320
C30 C 0.30104(11) 0.92253(9) 0.15086(7)
C31 C 0.23262(11) 0.93855(9) 0.24097(7)
C32 C 0.25691(11) 0.84709(9) 0.29691(7)
C33 C 0.38464(11) 0.74929(9) 0.28114(7)
C34 C 0.51476(11) 0.75807(9) 0.23678(7)
C35 C 0.67496(12) 0.23827(10) 0.37585(8)
H21 H 0.72150 0.24760 0.31980
C36 C 0.60960(15) 0.33116(10) 0.43099(8)
H22 H 0.61400 0.40320 0.41310
C37 C 0.53637(15) 0.32096(11) 0.51345(8)
H23 H 0.48540 0.38680 0.54990
C38 C 0.53880(14) 0.21586(12) 0.54089(8)
H24 H 0.49080 0.20860 0.59700
C39 C 0.61211(12) 0.11752(10) 0.48663(7)
C40 C 0.62845(13) 0.00686(11) 0.51748(8)
H25 H 0.58430 -0.00070 0.57430
C41 C 0.70609(12) -0.08792(10) 0.46705(8)
H26 H 0.72050 -0.16100 0.48990
C42 C 0.76665(11) -0.08016(9) 0.38021(7)
C43 C 0.86446(12) -0.18217(9) 0.32922(7)
C44 C 0.88170(14) -0.29322(10) 0.35752(8)
H27 H 0.81940 -0.30340 0.40800
C45 C 0.98712(15) -0.38703(10) 0.31334(9)
H28 H 0.99680 -0.46140 0.33300
C46 C 1.07960(14) -0.37298(10) 0.23990(9)
H29 H 1.15480 -0.43750 0.21070
C47 C 1.06268(12) -0.2660(1) 0.20919(8)
H30 H 1.12600 -0.25760 0.15860
C48 C 0.95275(11) -0.16877(9) 0.25172(7)
C49 C 0.91945(11) -0.05801(9) 0.21409(7)
C50 C 0.99805(11) -0.04181(9) 0.13390(7)
H31 H 1.07820 -0.10280 0.10480
C51 C 0.96046(11) 0.06035(9) 0.09758(7)
H32 H 1.02180 0.07400 0.04800
C52 C 0.83135(11) 0.14619(9) 0.13278(7)
C53 C 0.78706(12) 0.25341(9) 0.09201(7)
C54 C 0.88106(14) 0.28713(10) 0.02839(8)
H33 H 0.97390 0.23800 0.01030
C55 C 0.84092(15) 0.38996(11) -0.00805(8)
H34 H 0.90590 0.41130 -0.05080
C56 C 0.70533(15) 0.46282(11) 0.01767(8)
H35 H 0.67750 0.53350 -0.00780
C57 C 0.61174(14) 0.43216(10) 0.08009(8)
H36 H 0.51950 0.48260 0.09760
C58 C 0.64993(12) 0.32735(9) 0.11872(7)
C59 C 0.55238(11) 0.29130(9) 0.18375(7)
C60 C 0.41149(12) 0.34845(10) 0.20041(8)
H37 H 0.37970 0.41490 0.17140
C61 C 0.31904(12) 0.31082(11) 0.25732(9)
H38 H 0.22450 0.35180 0.26810
C62 C 0.36419(12) 0.21209(11) 0.29943(8)
H39 H 0.30070 0.18430 0.33770
C63 C 0.50134(11) 0.15524(9) 0.28514(7)
H40 H 0.53120 0.08820 0.31410
C64 C 0.59849(11) 0.19384(9) 0.22877(7)
C65 C 0.74458(11) 0.12677(9) 0.20820(7)
C66 C 0.79983(11) 0.03348(9) 0.25611(7)
C67 C 0.74243(11) 0.02729(9) 0.34561(7)
C68 C 0.67419(11) 0.12863(9) 0.40109(7)
loop_
_geom_bond_atom_site_label_1
_geom_bond_atom_site_label_2
_geom_bond_distance
_geom_bond_site_symmetry_1
_geom_bond_site_symmetry_2
C1 H1 0.950 1_555 1_555
C2 C1 1.370 1_555 1_555
H2 C2 0.950 1_555 1_555
C3 C2 1.406 1_555 1_555
H3 C3 0.950 1_555 1_555
C4 C3 1.368 1_555 1_555
H4 C4 0.950 1_555 1_555
C5 C4 1.414 1_555 1_555
C6 C5 1.425 1_555 1_555
H5 C6 0.950 1_555 1_555
C7 C6 1.354 1_555 1_555
H6 C7 0.950 1_555 1_555
C8 C7 1.427 1_555 1_555
C9 C8 1.459 1_555 1_555
C10 C9 1.413 1_555 1_555
H7 C10 0.950 1_555 1_555
C11 C10 1.374 1_555 1_555
H8 C11 0.950 1_555 1_555
C12 C11 1.393 1_555 1_555
H9 C12 0.950 1_555 1_555
C13 C12 1.376 1_555 1_555
H10 C13 0.950 1_555 1_555
C14 C9 1.411 1_555 1_555
C15 C14 1.459 1_555 1_555
C16 C15 1.415 1_555 1_555
H11 C16 0.950 1_555 1_555
C17 C16 1.363 1_555 1_555
H12 C17 0.950 1_555 1_555
C18 C17 1.413 1_555 1_555
C19 C18 1.462 1_555 1_555
C20 C19 1.413 1_555 1_555
H13 C20 0.950 1_555 1_555
C21 C20 1.378 1_555 1_555
H14 C21 0.950 1_555 1_555
C22 C21 1.389 1_555 1_555
H15 C22 0.949 1_555 1_555
C23 C22 1.376 1_555 1_555
H16 C23 0.950 1_555 1_555
C24 C19 1.407 1_555 1_555
C25 C24 1.461 1_555 1_555
C26 C25 1.408 1_555 1_555
H17 C26 0.949 1_555 1_555
C27 C26 1.373 1_555 1_555
H18 C27 0.950 1_555 1_555
C28 C27 1.397 1_555 1_555
H19 C28 0.950 1_555 1_555
C29 C28 1.374 1_555 1_555
H20 C29 0.950 1_555 1_555
C30 C25 1.414 1_555 1_555
C31 C18 1.408 1_555 1_555
C32 C15 1.410 1_555 1_555
C33 C8 1.401 1_555 1_555
C34 C1 1.421 1_555 1_555
C35 H21 0.951 1_555 1_555
C36 C35 1.373 1_555 1_555
H22 C36 0.950 1_555 1_555
C37 C36 1.403 1_555 1_555
H23 C37 0.950 1_555 1_555
C38 C37 1.365 1_555 1_555
H24 C38 0.950 1_555 1_555
C39 C38 1.415 1_555 1_555
C40 C39 1.420 1_555 1_555
H25 C40 0.950 1_555 1_555
C41 C40 1.354 1_555 1_555
H26 C41 0.950 1_555 1_555
C42 C41 1.427 1_555 1_555
C43 C42 1.458 1_555 1_555
C44 C43 1.410 1_555 1_555
H27 C44 0.950 1_555 1_555
C45 C44 1.374 1_555 1_555
H28 C45 0.950 1_555 1_555
C46 C45 1.390 1_555 1_555
H29 C46 0.950 1_555 1_555
C47 C46 1.377 1_555 1_555
H30 C47 0.950 1_555 1_555
C48 C43 1.412 1_555 1_555
C49 C48 1.460 1_555 1_555
C50 C49 1.412 1_555 1_555
H31 C50 0.950 1_555 1_555
C51 C50 1.365 1_555 1_555
H32 C51 0.951 1_555 1_555
C52 C51 1.414 1_555 1_555
C53 C52 1.462 1_555 1_555
C54 C53 1.408 1_555 1_555
H33 C54 0.950 1_555 1_555
C55 C54 1.376 1_555 1_555
H34 C55 0.950 1_555 1_555
C56 C55 1.392 1_555 1_555
H35 C56 0.950 1_555 1_555
C57 C56 1.375 1_555 1_555
H36 C57 0.950 1_555 1_555
C58 C53 1.409 1_555 1_555
C59 C58 1.460 1_555 1_555
C60 C59 1.409 1_555 1_555
H37 C60 0.950 1_555 1_555
C61 C60 1.370 1_555 1_555
H38 C61 0.950 1_555 1_555
C62 C61 1.396 1_555 1_555
H39 C62 0.949 1_555 1_555
C63 C62 1.378 1_555 1_555
H40 C63 0.950 1_555 1_555
C64 C59 1.416 1_555 1_555
C65 C52 1.405 1_555 1_555
C66 C49 1.414 1_555 1_555
C67 C42 1.402 1_555 1_555
C68 C35 1.418 1_555 1_555
C5 C34 1.419 1_555 1_555
C13 C14 1.410 1_555 1_555
C23 C24 1.412 1_555 1_555
C29 C30 1.414 1_555 1_555
C30 C31 1.470 1_555 1_555
C31 C32 1.441 1_555 1_555
C32 C33 1.460 1_555 1_555
C33 C34 1.448 1_555 1_555
C39 C68 1.419 1_555 1_555
C47 C48 1.409 1_555 1_555
C57 C58 1.411 1_555 1_555
C63 C64 1.409 1_555 1_555
C64 C65 1.470 1_555 1_555
C65 C66 1.439 1_555 1_555
C66 C67 1.460 1_555 1_555
C67 C68 1.453 1_555 1_555
#END
