
#######################################################################
#
#                 Cambridge Crystallographic Data Centre
#                                CCDC
#
#######################################################################
#
# If this CIF has been generated from an entry in the Cambridge
# Structural Database, then it will include bibliographic, chemical,
# crystal, experimental, refinement or atomic coordinate data resulting
# from the CCDC's data processing and validation procedures.
#
#######################################################################

data_CSD_CIF_FILBIL
_audit_creation_date 1988-03-22
_audit_creation_method CSD-ConQuest-V1
_database_code_CSD FILBIL
_chemical_formula_sum 'C34 H38'
_chemical_formula_moiety
;
C34 H38
;
_journal_coden_Cambridge 82
_journal_volume 28
_journal_year 1987
_journal_page_first 183-1
_journal_name_full 'Zh.Strukt.Khim.(Russ.)(J.Struct.Chem.) '
loop_
_publ_author_name
"A.E.Prozorovskii"
"V.A.Tafeenko"
"V.B.Ribakov"
"E.A.Shokova"
"V.V.Kovalev"
_chemical_name_systematic
;
2,6-bis(Adamantyl)anthracene
;
_cell_volume   1214.706
_exptl_crystal_density_diffrn 1.095
_exptl_special_details
;
dx reported as 1.095, we calculate 1.22. H102,H101 and H14 have been removed 
due to suspected errors. The sg is P21/a not P21/c
;
_diffrn_ambient_temperature ?
_diffrn_special_details
;
The study was carried out at room temperature,in the range 283-303K

;
#These two values have been output from a single CSD field.
_refine_ls_R_factor_gt 0.028
_refine_ls_wR_factor_gt 0.028
_symmetry_cell_setting monoclinic
_symmetry_space_group_name_H-M 'P 21/a'
_symmetry_Int_Tables_number 14
loop_
_symmetry_equiv_pos_site_id
_symmetry_equiv_pos_as_xyz
1 x,y,z
2 1/2-x,1/2+y,-z
3 -x,-y,-z
4 -1/2+x,-1/2-y,z
_cell_length_a 13.540(4)
_cell_length_b 6.551(3)
_cell_length_c 14.980(4)
_cell_angle_alpha 90
_cell_angle_beta 113.91(2)
_cell_angle_gamma 90
_cell_formula_units_Z 2
loop_
_atom_type_symbol
_atom_type_radius_bond
C 0.68
H 0.23
loop_
_atom_site_label
_atom_site_type_symbol
_atom_site_fract_x
_atom_site_fract_y
_atom_site_fract_z
C1 C 0.6710(2) 0.3172(6) 0.7536(2)
C2 C 0.6389(3) 0.5025(6) 0.6850(2)
C3 C 0.6770(3) 0.4736(6) 0.6024(2)
C4 C 0.7981(3) 0.4517(7) 0.6436(3)
C5 C 0.8314(3) 0.2674(7) 0.7106(3)
C6 C 0.7800(3) 0.0750(7) 0.6534(3)
C7 C 0.6581(3) 0.0988(6) 0.6100(2)
C8 C 0.6193(3) 0.1276(6) 0.6925(2)
C9 C 0.7949(3) 0.2954(7) 0.7940(2)
C10 C 0.6245(3) 0.2841(7) 0.5429(3)
C11 C 0.5799(3) 0.4978(6) 0.8506(2)
C12 C 0.6357(2) 0.3349(6) 0.8378(2)
C13 C 0.6570(3) 0.1708(6) 0.9046(2)
C14 C 0.6219(3) 0.1690(6) 0.9778(2)
C15 C 0.5612(2) 0.3337(6) 0.9910(2)
C16 C 0.5203(3) 0.3343(6) 1.0631(2)
C17 C 0.5402(2) 0.5043(6) 0.9264(2)
H1 H 0.555(2) 0.509(5) 0.656(2)
H2 H 0.671(2) 0.625(5) 0.723(2)
H3 H 0.651(2) 0.593(5) 0.558(2)
H4 H 0.839(2) 0.563(6) 0.680(2)
H5 H 0.824(2) 0.431(5) 0.588(2)
H6 H 0.911(2) 0.254(5) 0.739(2)
H7 H 0.810(2) -0.038(6) 0.701(2)
H8 H 0.802(2) 0.060(5) 0.599(2)
H9 H 0.617(2) -0.020(5) 0.569(2)
H10 H 0.536(2) 0.134(6) 0.665(2)
H11 H 0.640(2) 0.010(5) 0.733(2)
H12 H 0.824(2) 0.418(5) 0.830(2)
H13 H 0.816(2) 0.179(5) 0.838(2)
H14 H 0.564(2) 0.616(4) 0.809(2)
H15 H 0.698(2) 0.058(4) 0.901(2)
H16 H 0.529(2) 0.200(5) 1.104(2)
C17B C 0.4598(2) 0.4957(6) 1.0736(2)
C16B C 0.4797(3) 0.6657(6) 0.9369(2)
C11B C 0.4201(3) 0.5022(6) 1.1494(2)
C15B C 0.4388(2) 0.6663(6) 1.0090(2)
H16B H 0.471(2) 0.800(5) 0.896(2)
C12B C 0.3643(2) 0.6651(6) 1.1622(2)
H14B H 0.436(2) 0.384(4) 1.191(2)
C14B C 0.3781(3) 0.8310(6) 1.0222(2)
C1B C 0.3290(2) 0.6828(6) 1.2464(2)
C13B C 0.3430(3) 0.8292(6) 1.0954(2)
C2B C 0.3611(3) 0.4975(6) 1.3150(2)
C8B C 0.3807(3) 0.8724(6) 1.3075(2)
C9B C 0.2051(3) 0.7046(7) 1.2060(2)
H15B H 0.302(2) 0.942(4) 1.099(2)
C3B C 0.3230(3) 0.5264(6) 1.3976(2)
H1B H 0.445(2) 0.491(5) 1.344(2)
H2B H 0.329(2) 0.375(5) 1.277(2)
C7B C 0.3419(3) 0.9012(6) 1.3900(2)
H10B H 0.464(2) 0.866(6) 1.335(2)
H11B H 0.360(2) 0.990(5) 1.267(2)
C5B C 0.1686(3) 0.7326(7) 1.2894(3)
H12B H 0.176(2) 0.582(5) 1.170(2)
H13B H 0.184(2) 0.821(5) 1.162(2)
C4B C 0.2019(3) 0.5483(7) 1.3564(3)
C10B C 0.3755(3) 0.7159(7) 1.4571(3)
H3B H 0.349(2) 0.407(5) 1.442(2)
C6B C 0.2200(3) 0.9250(7) 1.3466(3)
H9B H 0.383(2) 1.020(5) 1.431(2)
H6B H 0.089(2) 0.746(5) 1.261(2)
H4B H 0.161(2) 0.437(6) 1.320(2)
H5B H 0.176(2) 0.569(5) 1.412(2)
H7B H 0.190(2) 1.038(6) 1.299(2)
H8B H 0.198(2) 0.940(5) 1.401(2)
loop_
_geom_bond_atom_site_label_1
_geom_bond_atom_site_label_2
_geom_bond_distance
_geom_bond_site_symmetry_1
_geom_bond_site_symmetry_2
C1 C2 1.535 1_555 1_555
C2 C3 1.533 1_555 1_555
C3 C4 1.507 1_555 1_555
C4 C5 1.517 1_555 1_555
C5 C6 1.524 1_555 1_555
C6 C7 1.517 1_555 1_555
C7 C8 1.538 1_555 1_555
C8 C1 1.533 1_555 1_555
C9 C1 1.542 1_555 1_555
C10 C3 1.526 1_555 1_555
C11 C12 1.365 1_555 1_555
C12 C1 1.524 1_555 1_555
C13 C12 1.416 1_555 1_555
C14 C13 1.360 1_555 1_555
C15 C14 1.418 1_555 1_555
C16 C15 1.399 1_555 1_555
C17 C11 1.440 1_555 1_555
H1 C2 1.040 1_555 1_555
H2 C2 0.978 1_555 1_555
H3 C3 0.994 1_555 1_555
H4 C4 0.944 1_555 1_555
H5 C4 1.035 1_555 1_555
H6 C5 0.989 1_555 1_555
H7 C6 0.993 1_555 1_555
H8 C6 0.979 1_555 1_555
H9 C7 1.008 1_555 1_555
H10 C8 1.033 1_555 1_555
H11 C8 0.950 1_555 1_555
H12 C9 0.959 1_555 1_555
H13 C9 0.972 1_555 1_555
H14 C11 0.962 1_555 1_555
H15 C13 0.939 1_555 1_555
H16 C16 1.051 1_555 1_555
C17B C16 1.385 1_555 1_555
C16B C17 1.385 1_555 1_555
C11B C17B 1.440 1_555 1_555
C15B C17B 1.429 1_555 1_555
H16B C16B 1.051 1_555 1_555
C12B C11B 1.365 1_555 1_555
H14B C11B 0.962 1_555 1_555
C14B C15B 1.418 1_555 1_555
C1B C12B 1.524 1_555 1_555
C13B C12B 1.416 1_555 1_555
C2B C1B 1.535 1_555 1_555
C8B C1B 1.533 1_555 1_555
C9B C1B 1.542 1_555 1_555
H15B C13B 0.939 1_555 1_555
C3B C2B 1.533 1_555 1_555
H1B C2B 1.040 1_555 1_555
H2B C2B 0.978 1_555 1_555
C7B C8B 1.538 1_555 1_555
H10B C8B 1.033 1_555 1_555
H11B C8B 0.950 1_555 1_555
C5B C9B 1.529 1_555 1_555
H12B C9B 0.959 1_555 1_555
H13B C9B 0.972 1_555 1_555
C4B C3B 1.507 1_555 1_555
C10B C3B 1.526 1_555 1_555
H3B C3B 0.994 1_555 1_555
C6B C7B 1.517 1_555 1_555
H9B C7B 1.008 1_555 1_555
H6B C5B 0.989 1_555 1_555
H4B C4B 0.944 1_555 1_555
H5B C4B 1.035 1_555 1_555
H7B C6B 0.993 1_555 1_555
H8B C6B 0.979 1_555 1_555
C5 C9 1.529 1_555 1_555
C7 C10 1.523 1_555 1_555
C15 C17 1.429 1_555 1_555
C16B C15B 1.399 1_555 1_555
C14B C13B 1.360 1_555 1_555
C7B C10B 1.523 1_555 1_555
C5B C4B 1.517 1_555 1_555
C5B C6B 1.524 1_555 1_555
#END
