
#######################################################################
#
#                 Cambridge Crystallographic Data Centre
#                                CCDC
#
#######################################################################
#
# If this CIF has been generated from an entry in the Cambridge
# Structural Database, then it will include bibliographic, chemical,
# crystal, experimental, refinement or atomic coordinate data resulting
# from the CCDC's data processing and validation procedures.
#
#######################################################################

data_CSD_CIF_FIQTAD
_audit_creation_date 2018-09-04
_audit_creation_method CSD-ConQuest-V1
_database_code_CSD FIQTAD
_database_code_depnum_ccdc_archive 'CCDC 1563974'
_chemical_formula_sum 'C30 H20'
_chemical_formula_moiety
;
C30 H20
;
_journal_coden_Cambridge 4
_journal_volume 140
_journal_year 2018
_journal_page_first 10839
_journal_name_full 'J.Am.Chem.Soc. '
loop_
_publ_author_name
"P.Ravat"
"T.Solomek"
"D.Haussinger"
"O.Blacque"
"M.Juricek"
_chemical_name_systematic
;
12a,12b-dimethyl-12a,12b-dihydrophenanthro[2,1,10,9,8,7-pqrstuv]pentaphene
;
_cell_volume   1881.629
_exptl_crystal_colour 'yellow'
_exptl_crystal_density_diffrn 1.343
_exptl_crystal_description 'block'
_diffrn_ambient_temperature 160
#These two values have been output from a single CSD field.
_refine_ls_R_factor_gt 0.0524
_refine_ls_wR_factor_gt 0.0524
_symmetry_cell_setting monoclinic
_symmetry_space_group_name_H-M 'P 21/c'
_symmetry_Int_Tables_number 14
loop_
_symmetry_equiv_pos_site_id
_symmetry_equiv_pos_as_xyz
1 x,y,z
2 -x,1/2+y,1/2-z
3 -x,-y,-z
4 x,-1/2-y,-1/2+z
_cell_length_a 7.82299(16)
_cell_length_b 17.3405(4)
_cell_length_c 13.9697(3)
_cell_angle_alpha 90
_cell_angle_beta 96.824(2)
_cell_angle_gamma 90
_cell_formula_units_Z 4
loop_
_atom_type_symbol
_atom_type_radius_bond
C 0.68
H 0.23
loop_
_atom_site_label
_atom_site_type_symbol
_atom_site_fract_x
_atom_site_fract_y
_atom_site_fract_z
C1 C 0.25727(15) 0.51497(7) 0.18670(8)
C2 C 0.23952(16) 0.49637(7) 0.08002(8)
H1 H 0.15828 0.52315 0.03875
C3 C 0.33589(16) 0.44303(7) 0.04277(8)
H2 H 0.33065 0.43870 -0.02387
C4 C 0.44896(15) 0.39147(7) 0.10363(8)
C5 C 0.43950(14) 0.39266(6) 0.20545(8)
C6 C 0.33525(14) 0.44687(6) 0.24644(7)
C7 C 0.55749(17) 0.34015(8) 0.06585(9)
H3 H 0.56276 0.33934 -0.00030
C8 C 0.66102(18) 0.28868(8) 0.12615(10)
H4 H 0.73757 0.25611 0.09984
C9 C 0.64905(16) 0.28658(7) 0.22307(10)
H5 H 0.71595 0.25171 0.26180
C10 C 0.53543(14) 0.33711(6) 0.26550(8)
C11 C 0.51888(14) 0.33601(6) 0.36452(8)
H6 H 0.57889 0.29925 0.40367
C12 C 0.41493(14) 0.38861(6) 0.40520(8)
C13 C 0.32038(13) 0.44432(6) 0.34484(7)
C14 C 0.21987(13) 0.50245(6) 0.38830(7)
C15 C 0.23382(13) 0.50848(6) 0.49088(7)
C16 C 0.32986(14) 0.45045(7) 0.54872(7)
H7 H 0.33560 0.45308 0.61552
C17 C 0.41116(14) 0.39277(7) 0.50850(8)
H8 H 0.46613 0.35473 0.54778
C18 C 0.15501(13) 0.56938(7) 0.53240(7)
H9 H 0.16397 0.57325 0.59921
C19 C 0.06204(14) 0.62524(6) 0.47557(8)
C20 C 0.03808(14) 0.61604(6) 0.37318(8)
C21 C 0.11518(14) 0.55326(6) 0.33037(7)
C22 C 0.08184(14) 0.53726(7) 0.22210(7)
C23 C -0.00105(16) 0.60581(7) 0.16818(8)
H10 H -0.00245 0.60723 0.10154
C24 C -0.07228(16) 0.66437(7) 0.21101(8)
H11 H -0.13314 0.70138 0.17266
C25 C -0.05869(14) 0.67271(7) 0.31510(8)
C26 C -0.12835(16) 0.73479(7) 0.35879(9)
H12 H -0.19225 0.77125 0.32106
C27 C -0.10384(17) 0.74366(7) 0.46004(10)
H13 H -0.15140 0.78594 0.48815
C28 C -0.01114(15) 0.69083(7) 0.51697(9)
H14 H 0.00452 0.69765 0.58347
C29 C 0.38420(15) 0.58389(7) 0.20307(8)
H15 H 0.39595 0.59861 0.26978
H16 H 0.34057 0.62670 0.16397
H17 H 0.49452 0.56896 0.18559
C30 C -0.04625(16) 0.46870(8) 0.20424(8)
H18 H 0.00068 0.42418 0.23879
H19 H -0.06461 0.45732 0.13654
H20 H -0.15385 0.48231 0.22636
loop_
_geom_bond_atom_site_label_1
_geom_bond_atom_site_label_2
_geom_bond_distance
_geom_bond_site_symmetry_1
_geom_bond_site_symmetry_2
C1 C2 1.515 1_555 1_555
C2 H1 0.930 1_555 1_555
C3 C2 1.337 1_555 1_555
H2 C3 0.930 1_555 1_555
C4 C3 1.458 1_555 1_555
C5 C4 1.433 1_555 1_555
C6 C1 1.530 1_555 1_555
C7 C4 1.378 1_555 1_555
H3 C7 0.930 1_555 1_555
C8 C7 1.414 1_555 1_555
H4 C8 0.930 1_555 1_555
C9 C8 1.369 1_555 1_555
H5 C9 0.930 1_555 1_555
C10 C5 1.430 1_555 1_555
C11 C10 1.405 1_555 1_555
H6 C11 0.930 1_555 1_555
C12 C11 1.388 1_555 1_555
C13 C6 1.394 1_555 1_555
C14 C13 1.455 1_555 1_555
C15 C14 1.428 1_555 1_555
C16 C15 1.444 1_555 1_555
H7 C16 0.930 1_555 1_555
C17 C12 1.449 1_555 1_555
H8 C17 0.930 1_555 1_555
C18 C15 1.384 1_555 1_555
H9 C18 0.930 1_555 1_555
C19 C18 1.400 1_555 1_555
C20 C19 1.429 1_555 1_555
C21 C14 1.394 1_555 1_555
C22 C1 1.562 1_555 1_555
C23 C22 1.512 1_555 1_555
H10 C23 0.930 1_555 1_555
C24 C23 1.334 1_555 1_555
H11 C24 0.930 1_555 1_555
C25 C20 1.432 1_555 1_555
C26 C25 1.381 1_555 1_555
H12 C26 0.930 1_555 1_555
C27 C26 1.413 1_555 1_555
H13 C27 0.930 1_555 1_555
C28 C19 1.426 1_555 1_555
H14 C28 0.930 1_555 1_555
C29 C1 1.553 1_555 1_555
H15 C29 0.960 1_555 1_555
H16 C29 0.960 1_555 1_555
H17 C29 0.960 1_555 1_555
C30 C22 1.556 1_555 1_555
H18 C30 0.960 1_555 1_555
H19 C30 0.960 1_555 1_555
H20 C30 0.960 1_555 1_555
C5 C6 1.410 1_555 1_555
C9 C10 1.426 1_555 1_555
C12 C13 1.429 1_555 1_555
C16 C17 1.344 1_555 1_555
C20 C21 1.411 1_555 1_555
C21 C22 1.529 1_555 1_555
C24 C25 1.453 1_555 1_555
C27 C28 1.364 1_555 1_555
#END
