
#######################################################################
#
#                 Cambridge Crystallographic Data Centre
#                                CCDC
#
#######################################################################
#
# If this CIF has been generated from an entry in the Cambridge
# Structural Database, then it will include bibliographic, chemical,
# crystal, experimental, refinement or atomic coordinate data resulting
# from the CCDC's data processing and validation procedures.
#
#######################################################################

data_CSD_CIF_FLUANT03
_audit_creation_date 2014-05-14
_audit_creation_method CSD-ConQuest-V1
_database_code_CSD FLUANT03
_database_code_depnum_ccdc_archive 'CCDC 1002894'
_chemical_formula_sum 'C16 H10'
_chemical_formula_moiety
;
C16 H10
;
_journal_coden_Cambridge 1078
_journal_year 2014
_journal_name_full 'CSD Communication(Private Communication) '
loop_
_publ_author_name
"J.G.Malecki"
_chemical_name_systematic
;
fluoranthene
;
_cell_volume   2141.232
_exptl_crystal_colour 'colorless'
_exptl_crystal_density_diffrn 1.255
_exptl_special_details
;
Institute of Chemistry, Univeristy of Silesia, Katowice, Poland

;
_exptl_crystal_description 'prism'
_diffrn_ambient_temperature 295
#These two values have been output from a single CSD field.
_refine_ls_R_factor_gt 0.0424
_refine_ls_wR_factor_gt 0.0424
_symmetry_cell_setting monoclinic
_symmetry_space_group_name_H-M 'P 21/n'
_symmetry_Int_Tables_number 14
loop_
_symmetry_equiv_pos_site_id
_symmetry_equiv_pos_as_xyz
1 x,y,z
2 1/2-x,1/2+y,1/2-z
3 -x,-y,-z
4 -1/2+x,-1/2-y,-1/2+z
_cell_length_a 18.3799(5)
_cell_length_b 6.22923(13)
_cell_length_c 19.8853(5)
_cell_angle_alpha 90
_cell_angle_beta 109.866(3)
_cell_angle_gamma 90
_cell_formula_units_Z 8
loop_
_atom_type_symbol
_atom_type_radius_bond
C 0.68
H 0.23
loop_
_atom_site_label
_atom_site_type_symbol
_atom_site_fract_x
_atom_site_fract_y
_atom_site_fract_z
C1 C 0.33775(7) 0.8928(2) 0.17884(7)
C2 C 0.39469(7) 1.0153(2) 0.22974(7)
C3 C 0.42106(9) 1.1972(2) 0.20702(9)
H1 H 0.45850 1.28240 0.23920
C4 C 0.39069(11) 1.2534(3) 0.13424(10)
H2 H 0.40920 1.37620 0.11890
C5 C 0.33509(10) 1.1348(3) 0.08533(9)
H3 H 0.31640 1.17810 0.03770
C6 C 0.30564(8) 0.9457(2) 0.10664(7)
C7 C 0.24842(9) 0.8033(3) 0.06442(8)
H4 H 0.22460 0.83020 0.01590
C8 C 0.22791(9) 0.6268(3) 0.09433(8)
H5 H 0.18940 0.53730 0.06540
C9 C 0.26266(9) 0.5742(3) 0.16744(8)
H6 H 0.24810 0.45120 0.18620
C10 C 0.31800(8) 0.7082(2) 0.20983(7)
C11 C 0.36700(8) 0.7115(2) 0.28594(7)
C12 C 0.37271(10) 0.5693(3) 0.34079(8)
H7 H 0.34280 0.44520 0.33250
C13 C 0.42383(11) 0.6157(3) 0.40819(9)
H8 H 0.42830 0.52150 0.44570
C14 C 0.46819(11) 0.7988(3) 0.42079(9)
H9 H 0.50210 0.82630 0.46670
C15 C 0.46340(9) 0.9437(3) 0.36628(9)
H10 H 0.49360 1.06730 0.37520
C16 C 0.41265(8) 0.8994(2) 0.29834(7)
C17 C 0.54585(10) 0.7278(3) 0.18987(12)
H11 H 0.52700 0.81310 0.21870
C18 C 0.61462(7) 0.4249(2) 0.17057(7)
C19 C 0.60294(9) 0.4763(3) 0.09954(8)
C20 C 0.58747(8) 0.5476(2) 0.21665(8)
C21 C 0.53171(11) 0.7831(3) 0.11786(14)
H12 H 0.50260 0.90530 0.09960
C22 C 0.55902(11) 0.6646(3) 0.07378(11)
H13 H 0.54880 0.70760 0.02670
C23 C 0.63572(10) 0.3320(4) 0.06277(8)
H14 H 0.63010 0.35750 0.01520
C24 C 0.67519(10) 0.1569(3) 0.09651(9)
H15 H 0.69670 0.06600 0.07120
C25 C 0.68520(9) 0.1064(3) 0.16800(8)
H16 H 0.71190 -0.01650 0.18930
C26 C 0.65476(7) 0.2423(2) 0.20544(7)
C27 C 0.65231(8) 0.2472(2) 0.27871(7)
C28 C 0.68168(10) 0.1066(3) 0.33526(8)
H17 H 0.70780 -0.01680 0.33020
C29 C 0.67151(13) 0.1526(4) 0.39896(10)
H18 H 0.69110 0.05920 0.43740
C30 C 0.63293(14) 0.3339(5) 0.40693(11)
H19 H 0.62690 0.36110 0.45070
C31 C 0.60267(11) 0.4778(4) 0.35094(11)
H20 H 0.57660 0.60050 0.35680
C32 C 0.61237(8) 0.4335(3) 0.28589(8)
loop_
_geom_bond_atom_site_label_1
_geom_bond_atom_site_label_2
_geom_bond_distance
_geom_bond_site_symmetry_1
_geom_bond_site_symmetry_2
C1 C2 1.408 1_555 1_555
C2 C3 1.368 1_555 1_555
C3 H1 0.930 1_555 1_555
C4 C3 1.407 1_555 1_555
H2 C4 0.930 1_555 1_555
C5 C4 1.364 1_555 1_555
H3 C5 0.931 1_555 1_555
C6 C1 1.394 1_555 1_555
C7 C6 1.413 1_555 1_555
H4 C7 0.929 1_555 1_555
C8 C7 1.363 1_555 1_555
H5 C8 0.931 1_555 1_555
C9 C8 1.413 1_555 1_555
H6 C9 0.930 1_555 1_555
C10 C1 1.409 1_555 1_555
C11 C10 1.475 1_555 1_555
C12 C11 1.381 1_555 1_555
H7 C12 0.930 1_555 1_555
C13 C12 1.381 1_555 1_555
H8 C13 0.930 1_555 1_555
C14 C13 1.375 1_555 1_555
H9 C14 0.930 1_555 1_555
C15 C14 1.390 1_555 1_555
H10 C15 0.930 1_555 1_555
C16 C2 1.478 1_555 1_555
C17 H11 0.931 1_555 1_555
C18 C19 1.392 1_555 1_555
C19 C22 1.417 1_555 1_555
C20 C17 1.361 1_555 1_555
C21 C17 1.408 1_555 1_555
H12 C21 0.930 1_555 1_555
C22 C21 1.365 1_555 1_555
H13 C22 0.930 1_555 1_555
C23 C19 1.416 1_555 1_555
H14 C23 0.930 1_555 1_555
C24 C23 1.355 1_555 1_555
H15 C24 0.930 1_555 1_555
C25 C24 1.406 1_555 1_555
H16 C25 0.930 1_555 1_555
C26 C18 1.404 1_555 1_555
C27 C26 1.473 1_555 1_555
C28 C27 1.382 1_555 1_555
H17 C28 0.930 1_555 1_555
C29 C28 1.372 1_555 1_555
H18 C29 0.930 1_555 1_555
C30 C29 1.371 1_555 1_555
H19 C30 0.930 1_555 1_555
C31 C30 1.390 1_555 1_555
H20 C31 0.930 1_555 1_555
C32 C20 1.477 1_555 1_555
C5 C6 1.420 1_555 1_555
C9 C10 1.364 1_555 1_555
C11 C16 1.412 1_555 1_555
C15 C16 1.384 1_555 1_555
C18 C20 1.408 1_555 1_555
C25 C26 1.366 1_555 1_555
C27 C32 1.406 1_555 1_555
C31 C32 1.392 1_555 1_555
#END
