
#######################################################################
#
#                 Cambridge Crystallographic Data Centre
#                                CCDC
#
#######################################################################
#
# If this CIF has been generated from an entry in the Cambridge
# Structural Database, then it will include bibliographic, chemical,
# crystal, experimental, refinement or atomic coordinate data resulting
# from the CCDC's data processing and validation procedures.
#
#######################################################################

data_CSD_CIF_FLUANT05
_audit_creation_date 2017-08-09
_audit_creation_method CSD-ConQuest-V1
_database_code_CSD FLUANT05
_database_code_depnum_ccdc_archive 'CCDC 1547625'
_chemical_formula_sum 'C16 H10'
_chemical_formula_moiety
;
C16 H10
;
_journal_coden_Cambridge 1350
_journal_volume 19
_journal_year 2017
_journal_page_first 5058
_journal_name_full 'CrystEngComm '
loop_
_publ_author_name
"Lili Li"
"Hui Wang"
"Weizhou Wang"
"Wei Jun Jin"
_chemical_name_systematic
;
fluoranthene
;
_cell_volume   2068.167
_exptl_crystal_colour 'colorless'
_exptl_crystal_density_diffrn 1.299
_exptl_crystal_description 'needle'
_diffrn_ambient_temperature 100.0
#These two values have been output from a single CSD field.
_refine_ls_R_factor_gt 0.0491
_refine_ls_wR_factor_gt 0.0491
_symmetry_cell_setting monoclinic
_symmetry_space_group_name_H-M 'P 21/n'
_symmetry_Int_Tables_number 14
loop_
_symmetry_equiv_pos_site_id
_symmetry_equiv_pos_as_xyz
1 x,y,z
2 1/2-x,1/2+y,1/2-z
3 -x,-y,-z
4 -1/2+x,-1/2-y,-1/2+z
_cell_length_a 17.8455(8)
_cell_length_b 6.2494(3)
_cell_length_c 19.5446(10)
_cell_angle_alpha 90
_cell_angle_beta 108.407(5)
_cell_angle_gamma 90
_cell_formula_units_Z 8
loop_
_atom_type_symbol
_atom_type_radius_bond
C 0.68
H 0.23
loop_
_atom_site_label
_atom_site_type_symbol
_atom_site_fract_x
_atom_site_fract_y
_atom_site_fract_z
C1 C 0.46661(8) 0.0557(2) 0.86828(8)
H1 H 0.49660 -0.06900 0.87690
C2 C 0.47260(9) 0.2023(2) 0.92359(8)
H2 H 0.50710 0.17490 0.96950
C3 C 0.42773(9) 0.3892(2) 0.91106(8)
H3 H 0.43280 0.48480 0.94870
C4 C 0.37533(8) 0.4349(2) 0.84288(7)
H4 H 0.34540 0.55980 0.83470
C5 C 0.36886(8) 0.2898(2) 0.78756(7)
C6 C 0.41498(8) 0.1001(2) 0.80017(7)
C7 C 0.39608(8) -0.0189(2) 0.73130(7)
C8 C 0.42307(8) -0.2026(2) 0.70865(8)
H5 H 0.46110 -0.28690 0.74090
C9 C 0.39190(9) -0.2614(2) 0.63507(8)
H6 H 0.41060 -0.38500 0.61950
C10 C 0.33490(8) -0.1425(2) 0.58568(8)
H7 H 0.31550 -0.18750 0.53800
C11 C 0.30561(8) 0.0490(2) 0.60749(7)
C12 C 0.24749(8) 0.1926(2) 0.56471(7)
H8 H 0.22320 0.16430 0.51600
C13 C 0.22726(8) 0.3730(2) 0.59529(8)
H9 H 0.18860 0.46310 0.56650
C14 C 0.26294(8) 0.4272(2) 0.66898(8)
H10 H 0.24870 0.55140 0.68800
C15 C 0.31886(8) 0.2917(2) 0.71131(7)
C16 C 0.33828(8) 0.1038(2) 0.67999(7)
C17 C 0.60968(9) 0.5441(2) 0.86013(8)
H11 H 0.58450 0.42050 0.86790
C18 C 0.64122(9) 0.6900(3) 0.91587(8)
H12 H 0.63690 0.66310 0.96130
C19 C 0.67894(9) 0.8747(3) 0.90464(8)
H13 H 0.69970 0.96910 0.94270
C20 C 0.68619(8) 0.9208(2) 0.83732(8)
H14 H 0.71120 1.04520 0.83000
C21 C 0.65529(8) 0.7772(2) 0.78153(7)
C22 C 0.61675(8) 0.5877(2) 0.79272(7)
C23 C 0.58991(8) 0.4688(2) 0.72385(7)
C24 C 0.54784(8) 0.2849(2) 0.70006(8)
H15 H 0.53070 0.20080 0.73140
C25 C 0.53107(9) 0.2257(2) 0.62694(9)
H16 H 0.50170 0.10240 0.61060
C26 C 0.55652(8) 0.3435(2) 0.57897(8)
H17 H 0.54500 0.29770 0.53150
C27 C 0.60032(8) 0.5346(2) 0.60170(8)
C28 C 0.63108(8) 0.6778(3) 0.56058(8)
H18 H 0.62410 0.64840 0.51230
C29 C 0.67097(8) 0.8591(2) 0.59170(8)
H19 H 0.69070 0.94940 0.56370
C30 C 0.68323(8) 0.9141(2) 0.66476(8)
H20 H 0.70980 1.03900 0.68420
C31 C 0.65497(8) 0.7786(2) 0.70606(7)
C32 C 0.61473(8) 0.5911(2) 0.67388(7)
loop_
_geom_bond_atom_site_label_1
_geom_bond_atom_site_label_2
_geom_bond_distance
_geom_bond_site_symmetry_1
_geom_bond_site_symmetry_2
C1 H1 0.930 1_555 1_555
C2 C1 1.395 1_555 1_555
H2 C2 0.930 1_555 1_555
C3 C2 1.393 1_555 1_555
H3 C3 0.930 1_555 1_555
C4 C3 1.395 1_555 1_555
H4 C4 0.931 1_555 1_555
C5 C4 1.388 1_555 1_555
C6 C1 1.387 1_555 1_555
C7 C6 1.481 1_555 1_555
C8 C7 1.371 1_555 1_555
H5 C8 0.930 1_555 1_555
C9 C8 1.417 1_555 1_555
H6 C9 0.930 1_555 1_555
C10 C9 1.378 1_555 1_555
H7 C10 0.929 1_555 1_555
C11 C10 1.424 1_555 1_555
C12 C11 1.426 1_555 1_555
H8 C12 0.930 1_555 1_555
C13 C12 1.377 1_555 1_555
H9 C13 0.930 1_555 1_555
C14 C13 1.420 1_555 1_555
H10 C14 0.930 1_555 1_555
C15 C5 1.476 1_555 1_555
C16 C7 1.416 1_555 1_555
C17 H11 0.930 1_555 1_555
C18 C17 1.396 1_555 1_555
H12 C18 0.930 1_555 1_555
C19 C18 1.388 1_555 1_555
H13 C19 0.930 1_555 1_555
C20 C19 1.392 1_555 1_555
H14 C20 0.930 1_555 1_555
C21 C20 1.385 1_555 1_555
C22 C17 1.390 1_555 1_555
C23 C22 1.479 1_555 1_555
C24 C23 1.371 1_555 1_555
H15 C24 0.929 1_555 1_555
C25 C24 1.414 1_555 1_555
H16 C25 0.930 1_555 1_555
C26 C25 1.377 1_555 1_555
H17 C26 0.930 1_555 1_555
C27 C26 1.420 1_555 1_555
C28 C27 1.424 1_555 1_555
H18 C28 0.930 1_555 1_555
C29 C28 1.374 1_555 1_555
H19 C29 0.929 1_555 1_555
C30 C29 1.417 1_555 1_555
H20 C30 0.930 1_555 1_555
C31 C21 1.473 1_555 1_555
C32 C23 1.417 1_555 1_555
C5 C6 1.420 1_555 1_555
C11 C16 1.394 1_555 1_555
C14 C15 1.370 1_555 1_555
C15 C16 1.417 1_555 1_555
C21 C22 1.421 1_555 1_555
C27 C32 1.397 1_555 1_555
C30 C31 1.371 1_555 1_555
C31 C32 1.414 1_555 1_555
#END
