
#######################################################################
#
#                 Cambridge Crystallographic Data Centre
#                                CCDC
#
#######################################################################
#
# If this CIF has been generated from an entry in the Cambridge
# Structural Database, then it will include bibliographic, chemical,
# crystal, experimental, refinement or atomic coordinate data resulting
# from the CCDC's data processing and validation procedures.
#
#######################################################################

data_CSD_CIF_FLUANT
_audit_creation_date 1977-11-18
_audit_creation_method CSD-ConQuest-V1
_database_code_CSD FLUANT
_database_code_depnum_ccdc_archive 'CCDC 1157846'
_chemical_formula_sum 'C16 H10'
_chemical_formula_moiety
;
C16 H10
;
_journal_coeditor_code "IUCr A14674"
_journal_coden_Cambridge 107
_journal_volume 33
_journal_year 1977
_journal_page_first 1516
_journal_name_full 'Acta Crystallogr.,Sect.B:Struct.Crystallogr.Cryst.Chem. '
loop_
_publ_author_name
"A.C.Hazell"
"D.W.Jones"
"J.M.Sowden"
_chemical_name_systematic
;
Fluoranthene
;
_cell_volume   2133.783
_exptl_crystal_density_diffrn 1.26
_exptl_special_details
;
X-coordinate of C8 changed from 0.965 to 0.0965. Atoms H23 and H25 deleted as 
coordinates in error
;
_diffrn_ambient_temperature ?
_diffrn_special_details
;
The study was carried out at room temperature,in the range 283-303K

;
#These two values have been output from a single CSD field.
_refine_ls_R_factor_gt 0.055
_refine_ls_wR_factor_gt 0.055
_symmetry_cell_setting monoclinic
_symmetry_space_group_name_H-M 'P 21/n'
_symmetry_Int_Tables_number 14
loop_
_symmetry_equiv_pos_site_id
_symmetry_equiv_pos_as_xyz
1 x,y,z
2 1/2-x,1/2+y,1/2-z
3 -x,-y,-z
4 -1/2+x,-1/2-y,-1/2+z
_cell_length_a 19.907(18)
_cell_length_b 6.211(5)
_cell_length_c 18.349(14)
_cell_angle_alpha 90
_cell_angle_beta 109.86(8)
_cell_angle_gamma 90
_cell_formula_units_Z 8
loop_
_atom_type_symbol
_atom_type_radius_bond
C 0.68
H 0.23
loop_
_atom_site_label
_atom_site_type_symbol
_atom_site_fract_x
_atom_site_fract_y
_atom_site_fract_z
C1 C 0.17090 0.07570 0.11430
C2 C 0.21740 -0.04580 0.08770
C3 C 0.18970 -0.22640 0.04610
C4 C 0.11820 -0.28140 0.03180
C5 C 0.07440 -0.16530 0.05910
C6 C 0.10010 0.02350 0.10280
C7 C 0.06270 0.16720 0.13500
C8 C 0.09650 0.34410 0.17510
C9 C 0.16800 0.39270 0.18510
C10 C 0.20550 0.25820 0.15460
C11 C 0.27830 0.25420 0.15230
C12 C 0.33560 0.39180 0.18170
C13 C 0.39890 0.34580 0.17160
C14 C 0.40660 0.16580 0.13220
C15 C 0.35060 0.02210 0.10240
C16 C 0.28620 0.06770 0.11220
H1 H 0.22200 -0.30100 0.03100
H2 H 0.10000 -0.40200 0.00300
H3 H 0.02800 -0.20000 0.05500
H4 H 0.01300 0.13000 0.12700
H5 H 0.06900 0.43500 0.20200
H6 H 0.19100 0.51900 0.21600
H7 H 0.32900 0.51600 0.21100
H8 H 0.44300 0.43500 0.19300
H9 H 0.44700 0.12300 0.12200
H10 H 0.35200 -0.10500 0.07500
C17 C 0.17900 -0.39230 -0.16230
C18 C 0.20990 -0.20750 -0.18200
C19 C 0.16720 -0.07510 -0.23770
C20 C 0.09450 -0.12730 -0.27170
C21 C 0.06440 -0.30410 -0.25170
C22 C 0.10670 -0.44640 -0.19430
C23 C 0.08530 -0.63490 -0.16490
C24 C 0.13460 -0.75330 -0.10920
C25 C 0.20700 -0.69450 -0.07930
C26 C 0.23000 -0.51480 -0.10540
C27 C 0.29830 -0.39900 -0.08710
C28 C 0.36590 -0.44260 -0.03720
C29 C 0.42080 -0.29930 -0.03180
C30 C 0.40810 -0.11570 -0.07630
C31 C 0.34060 -0.07090 -0.12700
C32 C 0.28560 -0.21140 -0.13300
H11 H 0.18900 0.04500 -0.25200
H12 H 0.06700 -0.02800 -0.30900
H13 H 0.01300 -0.33700 -0.27200
H14 H 0.11800 -0.88200 -0.08900
H15 H 0.37300 -0.57000 -0.00500
H16 H 0.46700 -0.33300 0.00200
H17 H 0.44700 -0.01700 -0.07300
H18 H 0.33200 0.04800 -0.16000
loop_
_geom_bond_atom_site_label_1
_geom_bond_atom_site_label_2
_geom_bond_distance
_geom_bond_site_symmetry_1
_geom_bond_site_symmetry_2
C1 C2 1.404 1_555 1_555
C2 C3 1.363 1_555 1_555
C3 C4 1.399 1_555 1_555
C4 C5 1.352 1_555 1_555
C5 C6 1.415 1_555 1_555
C6 C1 1.391 1_555 1_555
C7 C6 1.414 1_555 1_555
C8 C7 1.366 1_555 1_555
C9 C8 1.405 1_555 1_555
C10 C1 1.400 1_555 1_555
C11 C10 1.464 1_555 1_555
C12 C11 1.380 1_555 1_555
C13 C12 1.365 1_555 1_555
C14 C13 1.368 1_555 1_555
C15 C14 1.387 1_555 1_555
C16 C2 1.469 1_555 1_555
H1 C3 0.909 1_555 1_555
H2 C4 0.917 1_555 1_555
H3 C5 0.926 1_555 1_555
H4 C7 0.977 1_555 1_555
H5 C8 1.023 1_555 1_555
H6 C9 0.985 1_555 1_555
H7 C12 0.974 1_555 1_555
H8 C13 0.999 1_555 1_555
H9 C14 0.925 1_555 1_555
H10 C15 0.941 1_555 1_555
C17 C18 1.406 1_555 1_555
C18 C19 1.361 1_555 1_555
C19 C20 1.405 1_555 1_555
C20 C21 1.360 1_555 1_555
C21 C22 1.413 1_555 1_555
C22 C17 1.398 1_555 1_555
C23 C22 1.414 1_555 1_555
C24 C23 1.366 1_555 1_555
C25 C24 1.405 1_555 1_555
C26 C17 1.407 1_555 1_555
C27 C26 1.473 1_555 1_555
C28 C27 1.373 1_555 1_555
C29 C28 1.387 1_555 1_555
C30 C29 1.375 1_555 1_555
C31 C30 1.378 1_555 1_555
C32 C18 1.469 1_555 1_555
H11 C19 0.944 1_555 1_555
H12 C20 0.945 1_555 1_555
H13 C21 0.984 1_555 1_555
H14 C24 0.984 1_555 1_555
H15 C28 0.969 1_555 1_555
H16 C29 0.942 1_555 1_555
H17 C30 0.973 1_555 1_555
H18 C31 0.933 1_555 1_555
C9 C10 1.361 1_555 1_555
C11 C16 1.409 1_555 1_555
C15 C16 1.383 1_555 1_555
C25 C26 1.354 1_555 1_555
C27 C32 1.409 1_555 1_555
C31 C32 1.375 1_555 1_555
#END
