
#######################################################################
#
#                 Cambridge Crystallographic Data Centre
#                                CCDC
#
#######################################################################
#
# If this CIF has been generated from an entry in the Cambridge
# Structural Database, then it will include bibliographic, chemical,
# crystal, experimental, refinement or atomic coordinate data resulting
# from the CCDC's data processing and validation procedures.
#
#######################################################################

data_CSD_CIF_FLUANT04
_audit_creation_date 2015-08-31
_audit_creation_method CSD-ConQuest-V1
_database_code_CSD FLUANT04
_database_code_depnum_ccdc_archive 'CCDC 1011193'
_chemical_formula_sum 'C16 H10'
_chemical_formula_moiety
;
C16 H10
;
_journal_coden_Cambridge 1237
_journal_volume 80
_journal_year 2015
_journal_page_first 1489
_journal_name_full 'J.Serb.Chem.Soc. '
loop_
_publ_author_name
"W.Smiszek-Lindert"
"Anna Michta"
"A.Tyl"
"G.Malecki"
"E.Chelmecka"
"S.Maslanka"
_chemical_name_systematic
;
Fluoranthene
;
_cell_volume   2135.420
_exptl_crystal_colour 'colorless'
_exptl_crystal_density_diffrn 1.258
_exptl_crystal_description 'plate'
_diffrn_ambient_temperature 295
#These two values have been output from a single CSD field.
_refine_ls_R_factor_gt 0.0696
_refine_ls_wR_factor_gt 0.0696
_symmetry_cell_setting monoclinic
_symmetry_space_group_name_H-M 'P 21/n'
_symmetry_Int_Tables_number 14
loop_
_symmetry_equiv_pos_site_id
_symmetry_equiv_pos_as_xyz
1 x,y,z
2 1/2-x,1/2+y,1/2-z
3 -x,-y,-z
4 -1/2+x,-1/2-y,-1/2+z
_cell_length_a 18.349(2)
_cell_length_b 6.2273(5)
_cell_length_c 19.861(2)
_cell_angle_alpha 90
_cell_angle_beta 109.787(13)
_cell_angle_gamma 90
_cell_formula_units_Z 8
loop_
_atom_type_symbol
_atom_type_radius_bond
C 0.68
H 0.23
loop_
_atom_site_label
_atom_site_type_symbol
_atom_site_fract_x
_atom_site_fract_y
_atom_site_fract_z
C1 C 0.83764(14) 0.6072(4) 0.17910(13)
C2 C 0.81788(15) 0.7918(4) 0.21002(13)
C3 C 0.80583(16) 0.5545(4) 0.10671(14)
C4 C 0.89467(15) 0.4853(4) 0.22972(14)
C5 C 0.86715(15) 0.7885(4) 0.28596(14)
C6 C 0.91273(15) 0.6006(4) 0.29842(14)
C7 C 0.76268(17) 0.9244(4) 0.16711(15)
H1 H 0.74800 1.04770 0.18570
C8 C 0.72820(18) 0.8725(5) 0.09430(16)
H2 H 0.68980 0.96230 0.06540
C9 C 0.92082(17) 0.3034(4) 0.20669(17)
H3 H 0.95840 0.21820 0.23880
C10 C 0.96335(18) 0.5555(5) 0.36619(16)
H4 H 0.99330 0.43130 0.37510
C11 C 0.74869(18) 0.6964(5) 0.06455(15)
H5 H 0.72480 0.66930 0.01600
C12 C 0.8352(2) 0.3653(5) 0.08576(16)
H6 H 0.81650 0.32170 0.03820
C13 C 0.87260(18) 0.9303(5) 0.34085(16)
H7 H 0.84250 1.05400 0.33270
C14 C 0.8905(2) 0.2469(5) 0.13434(18)
H8 H 0.90880 0.12360 0.11900
C15 C 0.9240(2) 0.8836(6) 0.40831(17)
H9 H 0.92840 0.97770 0.44590
C16 C 0.9683(2) 0.7014(6) 0.42084(17)
H10 H 1.00250 0.67440 0.46670
C17 C 0.61473(14) 0.4246(4) -0.32907(13)
C18 C 0.65493(14) 0.2413(4) -0.29466(14)
C19 C 0.60262(17) 0.4765(5) -0.40041(16)
C20 C 0.65276(15) 0.2457(4) -0.22124(15)
C21 C 0.68512(17) 0.1073(5) -0.33216(16)
H11 H 0.71230 -0.01500 -0.31080
C22 C 0.61233(16) 0.4330(5) -0.21396(15)
C23 C 0.58792(15) 0.5477(4) -0.28298(16)
C24 C 0.67450(19) 0.1566(6) -0.40369(17)
H12 H 0.69520 0.06440 -0.42940
C25 C 0.63540(19) 0.3331(6) -0.43715(16)
H13 H 0.63020 0.35960 -0.48460
C26 C 0.6033(2) 0.4788(6) -0.1491(2)
H14 H 0.57780 0.60260 -0.14310
C27 C 0.68196(19) 0.1073(6) -0.16446(16)
H15 H 0.70830 -0.01610 -0.16930
C28 C 0.6334(3) 0.3341(9) -0.0931(2)
H16 H 0.62720 0.36120 -0.04930
C29 C 0.54575(19) 0.7274(5) -0.3105(2)
H17 H 0.52650 0.81260 -0.28180
C30 C 0.5591(2) 0.6642(6) -0.4260(2)
H18 H 0.54910 0.70740 -0.47310
C31 C 0.5316(2) 0.7825(6) -0.3822(3)
H19 H 0.50240 0.90440 -0.40050
C32 C 0.6720(3) 0.1524(8) -0.10105(19)
H20 H 0.69160 0.05890 -0.06260
loop_
_geom_bond_atom_site_label_1
_geom_bond_atom_site_label_2
_geom_bond_distance
_geom_bond_site_symmetry_1
_geom_bond_site_symmetry_2
C1 C2 1.407 1_555 1_555
C2 C5 1.473 1_555 1_555
C3 C1 1.395 1_555 1_555
C4 C1 1.403 1_555 1_555
C5 C6 1.411 1_555 1_555
C6 C4 1.477 1_555 1_555
C7 C2 1.360 1_555 1_555
H1 C7 0.930 1_555 1_555
C8 C7 1.406 1_555 1_555
H2 C8 0.930 1_555 1_555
C9 C4 1.368 1_555 1_555
H3 C9 0.931 1_555 1_555
C10 C6 1.381 1_555 1_555
H4 C10 0.930 1_555 1_555
C11 C3 1.410 1_555 1_555
H5 C11 0.930 1_555 1_555
C12 C3 1.415 1_555 1_555
H6 C12 0.930 1_555 1_555
C13 C5 1.380 1_555 1_555
H7 C13 0.930 1_555 1_555
C14 C9 1.399 1_555 1_555
H8 C14 0.930 1_555 1_555
C15 C13 1.383 1_555 1_555
H9 C15 0.931 1_555 1_555
C16 C10 1.395 1_555 1_555
H10 C16 0.930 1_555 1_555
C17 C18 1.405 1_555 1_555
C18 C20 1.472 1_555 1_555
C19 C17 1.396 1_555 1_555
C20 C22 1.416 1_555 1_555
C21 C18 1.355 1_555 1_555
H11 C21 0.930 1_555 1_555
C22 C23 1.475 1_555 1_555
C23 C17 1.404 1_555 1_555
C24 C21 1.401 1_555 1_555
H12 C24 0.931 1_555 1_555
C25 C19 1.410 1_555 1_555
H13 C25 0.929 1_555 1_555
C26 C22 1.383 1_555 1_555
H14 C26 0.930 1_555 1_555
C27 C20 1.376 1_555 1_555
H15 C27 0.930 1_555 1_555
C28 C26 1.392 1_555 1_555
H16 C28 0.930 1_555 1_555
C29 C23 1.365 1_555 1_555
H17 C29 0.931 1_555 1_555
C30 C19 1.410 1_555 1_555
H18 C30 0.930 1_555 1_555
C31 C29 1.401 1_555 1_555
H19 C31 0.929 1_555 1_555
C32 C27 1.362 1_555 1_555
H20 C32 0.930 1_555 1_555
C8 C11 1.358 1_555 1_555
C12 C14 1.357 1_555 1_555
C15 C16 1.369 1_555 1_555
C24 C25 1.357 1_555 1_555
C28 C32 1.372 1_555 1_555
C30 C31 1.361 1_555 1_555
#END
