
#######################################################################
#
#                 Cambridge Crystallographic Data Centre
#                                CCDC
#
#######################################################################
#
# If this CIF has been generated from an entry in the Cambridge
# Structural Database, then it will include bibliographic, chemical,
# crystal, experimental, refinement or atomic coordinate data resulting
# from the CCDC's data processing and validation procedures.
#
#######################################################################

data_CSD_CIF_FOCNAO
_audit_creation_date 2014-06-05
_audit_creation_method CSD-ConQuest-V1
_database_code_CSD FOCNAO
_database_code_depnum_ccdc_archive 'CCDC 987454'
_chemical_formula_sum 'C31 H26'
_chemical_formula_moiety
;
C31 H26
;
_journal_coden_Cambridge 179
_journal_volume 53
_journal_year 2014
_journal_page_first 14022
_journal_name_full 'Angew.Chem.,Int.Ed. '
loop_
_publ_author_name
"Yahui Wang"
"M.E.Muratore"
"Zhouting Rong"
"A.M.Echavarren"
_chemical_name_systematic
;
3'-(1-naphthyl)dispiro[bicyclo[4.1.0]heptane-7,1'-cyclopropane-2',9''-fluorene
]
;
_cell_volume   1075.994
_exptl_crystal_colour 'colorless'
_exptl_crystal_density_diffrn 1.23
_exptl_crystal_description 'block'
_diffrn_ambient_temperature 100
#These two values have been output from a single CSD field.
_refine_ls_R_factor_gt 0.0452
_refine_ls_wR_factor_gt 0.0452
_symmetry_cell_setting triclinic
_symmetry_space_group_name_H-M 'P -1'
_symmetry_Int_Tables_number 2
loop_
_symmetry_equiv_pos_site_id
_symmetry_equiv_pos_as_xyz
1 x,y,z
2 -x,-y,-z
_cell_length_a 9.942(2)
_cell_length_b 10.484(2)
_cell_length_c 11.656(2)
_cell_angle_alpha 69.276(8)
_cell_angle_beta 79.754(9)
_cell_angle_gamma 71.735(9)
_cell_formula_units_Z 2
loop_
_atom_type_symbol
_atom_type_radius_bond
C 0.68
H 0.23
loop_
_atom_site_label
_atom_site_type_symbol
_atom_site_fract_x
_atom_site_fract_y
_atom_site_fract_z
C1 C 0.79753(10) 0.87694(10) 0.25740(9)
C2 C 0.74733(10) 0.74632(10) 0.29997(9)
C3 C 0.81304(11) 0.60710(11) 0.36650(9)
H1 H 0.90490 0.58280 0.39400
C4 C 0.74105(12) 0.50401(11) 0.39192(10)
H2 H 0.78490 0.40850 0.43680
C5 C 0.60565(13) 0.53904(12) 0.35235(11)
H3 H 0.55870 0.46720 0.37050
C6 C 0.53879(12) 0.67828(11) 0.28660(11)
H4 H 0.44650 0.70210 0.26000
C7 C 0.60991(11) 0.78198(10) 0.26062(9)
C8 C 0.56751(11) 0.9343(1) 0.19234(9)
C9 C 0.44466(11) 1.01994(11) 0.13276(10)
H5 H 0.36760 0.98250 0.13720
C10 C 0.43758(12) 1.16127(12) 0.06671(10)
H6 H 0.35500 1.22070 0.02540
C11 C 0.55077(12) 1.21681(11) 0.06046(10)
H7 H 0.54480 1.31290 0.01350
C12 C 0.67235(11) 1.13243(11) 0.12243(10)
H8 H 0.74850 1.17050 0.11930
C13 C 0.67924(11) 0.99133(10) 0.18880(9)
C14 C 0.89833(11) 0.9024(1) 0.32331(9)
C15 C 0.93984(12) 0.85572(11) 0.45158(9)
H9 H 1.04460 0.81980 0.46000
C16 C 0.85053(14) 0.78860(13) 0.56255(10)
H10 H 0.89410 0.77310 0.63810
H11 H 0.85150 0.69480 0.56040
C17 C 0.69639(14) 0.87781(14) 0.56919(11)
H12 H 0.64510 0.87440 0.50540
H13 H 0.64890 0.83820 0.65060
C18 C 0.69046(14) 1.03150(14) 0.54951(11)
H14 H 0.59150 1.08460 0.56600
H15 H 0.75000 1.03420 0.60780
C19 C 0.74359(13) 1.10136(12) 0.41767(11)
H16 H 0.75120 1.19600 0.41000
H17 H 0.67320 1.11510 0.36100
C20 C 0.88780(12) 1.01407(11) 0.37905(10)
H18 H 0.96330 1.06520 0.34820
C21 C 0.95473(10) 0.87661(10) 0.20503(9)
H19 H 0.96250 0.96430 0.13580
C22 C 1.05889(10) 0.74459(11) 0.18990(9)
C23 C 1.15901(11) 0.65961(12) 0.27283(10)
H20 H 1.16090 0.68400 0.34350
C24 C 1.25928(12) 0.53657(12) 0.25507(11)
H21 H 1.32470 0.47760 0.31540
C25 C 1.26233(12) 0.50227(11) 0.15145(11)
H22 H 1.33130 0.42090 0.13930
C26 C 1.16272(11) 0.58785(11) 0.06202(10)
C27 C 1.16542(13) 0.55666(12) -0.04785(11)
H23 H 1.23770 0.47930 -0.06390
C28 C 1.06510(13) 0.63679(12) -0.13074(10)
H24 H 1.06850 0.61510 -0.20390
C29 C 0.95663(12) 0.75160(12) -0.10758(10)
H25 H 0.88580 0.80500 -0.16430
C30 C 0.95253(11) 0.78686(11) -0.00367(9)
H26 H 0.87940 0.86470 0.01040
C31 C 1.05689(11) 0.70772(10) 0.08282(9)
loop_
_geom_bond_atom_site_label_1
_geom_bond_atom_site_label_2
_geom_bond_distance
_geom_bond_site_symmetry_1
_geom_bond_site_symmetry_2
C1 C2 1.493 1_555 1_555
C2 C3 1.393 1_555 1_555
C3 H1 0.950 1_555 1_555
C4 C3 1.397 1_555 1_555
H2 C4 0.950 1_555 1_555
C5 C4 1.397 1_555 1_555
H3 C5 0.950 1_555 1_555
C6 C5 1.393 1_555 1_555
H4 C6 0.950 1_555 1_555
C7 C2 1.414 1_555 1_555
C8 C7 1.469 1_555 1_555
C9 C8 1.398 1_555 1_555
H5 C9 0.951 1_555 1_555
C10 C9 1.393 1_555 1_555
H6 C10 0.950 1_555 1_555
C11 C10 1.401 1_555 1_555
H7 C11 0.950 1_555 1_555
C12 C11 1.398 1_555 1_555
H8 C12 0.950 1_555 1_555
C13 C1 1.494 1_555 1_555
C14 C1 1.501 1_555 1_555
C15 C14 1.490 1_555 1_555
H9 C15 1.000 1_555 1_555
C16 C15 1.515 1_555 1_555
H10 C16 0.990 1_555 1_555
H11 C16 0.990 1_555 1_555
C17 C16 1.530 1_555 1_555
H12 C17 0.990 1_555 1_555
H13 C17 0.990 1_555 1_555
C18 C17 1.528 1_555 1_555
H14 C18 0.990 1_555 1_555
H15 C18 0.990 1_555 1_555
C19 C18 1.528 1_555 1_555
H16 C19 0.990 1_555 1_555
H17 C19 0.990 1_555 1_555
C20 C14 1.497 1_555 1_555
H18 C20 1.000 1_555 1_555
C21 C1 1.573 1_555 1_555
H19 C21 1.000 1_555 1_555
C22 C21 1.493 1_555 1_555
C23 C22 1.377 1_555 1_555
H20 C23 0.950 1_555 1_555
C24 C23 1.418 1_555 1_555
H21 C24 0.950 1_555 1_555
C25 C24 1.370 1_555 1_555
H22 C25 0.950 1_555 1_555
C26 C25 1.422 1_555 1_555
C27 C26 1.423 1_555 1_555
H23 C27 0.950 1_555 1_555
C28 C27 1.370 1_555 1_555
H24 C28 0.950 1_555 1_555
C29 C28 1.413 1_555 1_555
H25 C29 0.950 1_555 1_555
C30 C29 1.377 1_555 1_555
H26 C30 0.950 1_555 1_555
C31 C22 1.436 1_555 1_555
C6 C7 1.395 1_555 1_555
C8 C13 1.406 1_555 1_555
C12 C13 1.392 1_555 1_555
C14 C21 1.477 1_555 1_555
C15 C20 1.537 1_555 1_555
C19 C20 1.528 1_555 1_555
C26 C31 1.429 1_555 1_555
C30 C31 1.422 1_555 1_555
#END
