
#######################################################################
#
#                 Cambridge Crystallographic Data Centre
#                                CCDC
#
#######################################################################
#
# If this CIF has been generated from an entry in the Cambridge
# Structural Database, then it will include bibliographic, chemical,
# crystal, experimental, refinement or atomic coordinate data resulting
# from the CCDC's data processing and validation procedures.
#
#######################################################################

data_CSD_CIF_FODBAC
_audit_creation_date 2005-06-23
_audit_creation_method CSD-ConQuest-V1
_database_code_CSD FODBAC
_database_code_depnum_ccdc_archive 'CCDC 255954'
_chemical_formula_sum 'C52 H40'
_chemical_formula_moiety
;
C52 H40
;
_journal_coden_Cambridge 177
_journal_volume 3
_journal_year 2005
_journal_page_first 581
_journal_name_full 'Org.Biomol.Chem. '
loop_
_publ_author_name
"E.L.Eliott"
"A.Orita"
"D.Hasegawa"
"P.Gantzel"
"J.Otera"
"J.S.Siegel"
_chemical_name_systematic
;
1,6,7,12,13,18,19,24-Octamethyldiacenaphthyleno(b,l)tetraphenylene
;
_chemical_melting_point 627.15
_cell_volume   7250.385
_exptl_crystal_colour 'yellow'
_exptl_crystal_density_diffrn 1.218
_exptl_special_details
;
Melts with decomposition.

;
_exptl_crystal_description 'prism'
_diffrn_ambient_temperature 296
#These two values have been output from a single CSD field.
_refine_ls_R_factor_gt 0.0401
_refine_ls_wR_factor_gt 0.0401
_symmetry_cell_setting monoclinic
_symmetry_space_group_name_H-M 'C 2/c'
_symmetry_Int_Tables_number 15
loop_
_symmetry_equiv_pos_site_id
_symmetry_equiv_pos_as_xyz
1 x,y,z
2 1/2+x,1/2+y,z
3 -x,y,1/2-z
4 1/2-x,1/2+y,1/2-z
5 -x,-y,-z
6 -1/2-x,-1/2-y,-z
7 x,-y,-1/2+z
8 -1/2+x,-1/2-y,-1/2+z
_cell_length_a 17.705(2)
_cell_length_b 21.289(2)
_cell_length_c 19.354(2)
_cell_angle_alpha 90
_cell_angle_beta 96.336(3)
_cell_angle_gamma 90
_cell_formula_units_Z 8
loop_
_atom_type_symbol
_atom_type_radius_bond
C 0.68
H 0.23
loop_
_atom_site_label
_atom_site_type_symbol
_atom_site_fract_x
_atom_site_fract_y
_atom_site_fract_z
C1 C 0.08082(7) 0.39837(7) 0.05227(7)
C2 C 0.13670(8) 0.39185(7) 0.10869(7)
C3 C 0.21038(7) 0.37355(7) 0.09506(7)
C4 C 0.22862(7) 0.36734(6) 0.02635(7)
C5 C 0.17158(7) 0.36984(7) -0.02965(7)
C6 C 0.09677(7) 0.37841(7) -0.01482(7)
C7 C 0.02439(8) 0.37559(7) -0.06059(8)
C8 C -0.00030(9) 0.34484(9) -0.12169(9)
C9 C -0.0767(1) 0.35575(10) -0.15028(10)
H1 H -0.09350 0.33710 -0.19270
C10 C -0.12629(10) 0.39173(10) -0.11924(11)
H2 H -0.17450 0.39960 -0.14180
C11 C -0.10468(8) 0.41732(8) -0.05257(10)
C12 C -0.15108(9) 0.45074(9) -0.01099(11)
H3 H -0.20090 0.46070 -0.02780
C13 C -0.12239(9) 0.46825(8) 0.0539(1)
H4 H -0.15410 0.49060 0.08030
C14 C -0.04721(8) 0.45496(7) 0.08474(8)
C15 C -0.00015(7) 0.42173(7) 0.04496(8)
C16 C -0.02992(8) 0.40620(7) -0.02387(8)
C17 C -0.02633(11) 0.4820(1) 0.15616(9)
H5 H 0.02430 0.49880 0.15930
H6 H -0.02860 0.44960 0.19040
H7 H -0.06130 0.51490 0.16440
C18 C 0.04559(10) 0.29621(10) -0.1562(1)
H8 H 0.08230 0.27760 -0.12200
H9 H 0.07130 0.31600 -0.19160
H10 H 0.01220 0.26420 -0.17690
C19 C 0.19231(9) 0.37091(8) -0.10338(8)
H11 H 0.15240 0.39090 -0.13310
H12 H 0.19880 0.32870 -0.11900
H13 H 0.23880 0.39380 -0.10480
C20 C 0.12111(9) 0.40047(9) 0.18322(8)
H14 H 0.07080 0.38580 0.18860
H15 H 0.12510 0.44420 0.19520
H16 H 0.15750 0.37690 0.21320
C21 C 0.35207(8) 0.56923(8) 0.06945(9)
C22 C 0.35887(8) 0.51248(8) 0.03394(8)
C23 C 0.35455(7) 0.45628(7) 0.07196(8)
C24 C 0.34002(8) 0.45746(8) 0.14142(8)
C25 C 0.33808(8) 0.51415(9) 0.17840(9)
C26 C 0.35258(8) 0.56950(8) 0.14324(10)
C27 C 0.36702(9) 0.63533(10) 0.16752(12)
C28 C 0.39093(10) 0.66377(11) 0.23121(14)
C29 C 0.40129(13) 0.73050(15) 0.22964(19)
H17 H 0.41540 0.75080 0.27160
C30 C 0.39204(14) 0.76590(14) 0.1714(2)
H18 H 0.39850 0.80920 0.17430
C31 C 0.37264(11) 0.73720(12) 0.10666(19)
C32 C 0.36258(12) 0.76728(12) 0.0413(2)
H19 H 0.37130 0.81020 0.03820
C33 C 0.34011(11) 0.73356(12) -0.01728(17)
H20 H 0.33050 0.75510 -0.05910
C34 C 0.33052(9) 0.66673(10) -0.01781(13)
C35 C 0.34874(9) 0.63562(9) 0.04505(11)
C36 C 0.36274(9) 0.67249(10) 0.10626(13)
C37 C 0.29621(12) 0.63761(11) -0.08463(12)
H21 H 0.26750 0.60110 -0.07460
H22 H 0.33590 0.62570 -0.11200
H23 H 0.26320 0.66740 -0.11000
C38 C 0.41313(13) 0.63041(13) 0.29905(13)
H24 H 0.43110 0.58900 0.29000
H25 H 0.36980 0.62740 0.32460
H26 H 0.45270 0.65350 0.32580
C39 C 0.31216(10) 0.51436(9) 0.25045(9)
H27 H 0.29310 0.55520 0.26030
H28 H 0.35430 0.50420 0.28420
H29 H 0.27260 0.48380 0.25260
C40 C 0.37424(10) 0.50905(8) -0.04090(9)
H30 H 0.39310 0.54880 -0.05490
H31 H 0.32800 0.49910 -0.06950
H32 H 0.41140 0.47710 -0.04610
C41 C 0.36841(8) 0.39453(7) 0.03847(8)
C42 C 0.44272(8) 0.37752(9) 0.02951(9)
H33 H 0.48240 0.40400 0.04620
C43 C 0.45903(9) 0.32261(9) -0.00335(10)
H34 H 0.50910 0.31220 -0.00840
C44 C 0.40100(9) 0.28322(8) -0.02861(9)
H35 H 0.41150 0.24630 -0.05150
C45 C 0.32719(8) 0.29877(7) -0.01978(8)
H36 H 0.28810 0.27200 -0.03720
C46 C 0.30934(7) 0.35366(7) 0.01461(7)
C47 C 0.26876(8) 0.35673(7) 0.15384(7)
C48 C 0.26161(9) 0.29937(8) 0.18759(8)
H37 H 0.22120 0.27300 0.17270
C49 C 0.31288(12) 0.28109(10) 0.24218(10)
H38 H 0.30650 0.24310 0.26450
C50 C 0.37353(13) 0.31895(12) 0.26384(10)
H39 H 0.40890 0.30630 0.30030
C51 C 0.38215(10) 0.37591(10) 0.23154(9)
H40 H 0.42350 0.40130 0.24650
C52 C 0.32985(8) 0.39605(8) 0.17670(8)
loop_
_geom_bond_atom_site_label_1
_geom_bond_atom_site_label_2
_geom_bond_distance
_geom_bond_site_symmetry_1
_geom_bond_site_symmetry_2
C1 C2 1.397 1_555 1_555
C2 C3 1.414 1_555 1_555
C3 C4 1.409 1_555 1_555
C4 C5 1.399 1_555 1_555
C5 C6 1.398 1_555 1_555
C6 C1 1.424 1_555 1_555
C7 C6 1.476 1_555 1_555
C8 C7 1.380 1_555 1_555
C9 C8 1.423 1_555 1_555
H1 C9 0.931 1_555 1_555
C10 C9 1.355 1_555 1_555
H2 C10 0.930 1_555 1_555
C11 C10 1.414 1_555 1_555
C12 C11 1.405 1_555 1_555
H3 C12 0.930 1_555 1_555
C13 C12 1.354 1_555 1_555
H4 C13 0.931 1_555 1_555
C14 C13 1.426 1_555 1_555
C15 C1 1.509 1_555 1_555
C16 C7 1.416 1_555 1_555
C17 C14 1.505 1_555 1_555
H5 C17 0.961 1_555 1_555
H6 C17 0.960 1_555 1_555
H7 C17 0.960 1_555 1_555
C18 C8 1.516 1_555 1_555
H8 C18 0.961 1_555 1_555
H9 C18 0.961 1_555 1_555
H10 C18 0.960 1_555 1_555
C19 C5 1.512 1_555 1_555
H11 C19 0.960 1_555 1_555
H12 C19 0.959 1_555 1_555
H13 C19 0.960 1_555 1_555
C20 C2 1.509 1_555 1_555
H14 C20 0.960 1_555 1_555
H15 C20 0.960 1_555 1_555
H16 C20 0.960 1_555 1_555
C21 C22 1.402 1_555 1_555
C22 C23 1.411 1_555 1_555
C23 C24 1.397 1_555 1_555
C24 C25 1.405 1_555 1_555
C25 C26 1.399 1_555 1_555
C26 C21 1.427 1_555 1_555
C27 C26 1.491 1_555 1_555
C28 C27 1.396 1_555 1_555
C29 C28 1.433 1_555 1_555
H17 C29 0.929 1_555 1_555
C30 C29 1.351 1_555 1_555
H18 C30 0.930 1_555 1_555
C31 C30 1.402 1_555 1_555
C32 C31 1.411 1_555 1_555
H19 C32 0.930 1_555 1_555
C33 C32 1.364 1_555 1_555
H20 C33 0.929 1_555 1_555
C34 C33 1.433 1_555 1_555
C35 C21 1.489 1_555 1_555
C36 C27 1.420 1_555 1_555
C37 C34 1.501 1_555 1_555
H21 C37 0.960 1_555 1_555
H22 C37 0.960 1_555 1_555
H23 C37 0.960 1_555 1_555
C38 C28 1.506 1_555 1_555
H24 C38 0.960 1_555 1_555
H25 C38 0.960 1_555 1_555
H26 C38 0.959 1_555 1_555
C39 C25 1.515 1_555 1_555
H27 C39 0.959 1_555 1_555
H28 C39 0.960 1_555 1_555
H29 C39 0.960 1_555 1_555
C40 C22 1.505 1_555 1_555
H30 C40 0.960 1_555 1_555
H31 C40 0.960 1_555 1_555
H32 C40 0.959 1_555 1_555
C41 C23 1.498 1_555 1_555
C42 C41 1.394 1_555 1_555
H33 C42 0.930 1_555 1_555
C43 C42 1.377 1_555 1_555
H34 C43 0.929 1_555 1_555
C44 C43 1.374 1_555 1_555
H35 C44 0.931 1_555 1_555
C45 C44 1.377 1_555 1_555
H36 C45 0.931 1_555 1_555
C46 C4 1.500 1_555 1_555
C47 C3 1.494 1_555 1_555
C48 C47 1.397 1_555 1_555
H37 C48 0.930 1_555 1_555
C49 C48 1.371 1_555 1_555
H38 C49 0.930 1_555 1_555
C50 C49 1.371 1_555 1_555
H39 C50 0.930 1_555 1_555
C51 C50 1.380 1_555 1_555
H40 C51 0.930 1_555 1_555
C52 C24 1.495 1_555 1_555
C11 C16 1.398 1_555 1_555
C14 C15 1.389 1_555 1_555
C15 C16 1.417 1_555 1_555
C31 C36 1.389 1_555 1_555
C34 C35 1.391 1_555 1_555
C35 C36 1.420 1_555 1_555
C41 C46 1.399 1_555 1_555
C45 C46 1.398 1_555 1_555
C47 C52 1.400 1_555 1_555
C51 C52 1.397 1_555 1_555
#END
