
#######################################################################
#
#                 Cambridge Crystallographic Data Centre
#                                CCDC
#
#######################################################################
#
# If this CIF has been generated from an entry in the Cambridge
# Structural Database, then it will include bibliographic, chemical,
# crystal, experimental, refinement or atomic coordinate data resulting
# from the CCDC's data processing and validation procedures.
#
#######################################################################

data_CSD_CIF_FOGSOJ
_audit_creation_date 1988-04-26
_audit_creation_method CSD-ConQuest-V1
_database_code_CSD FOGSOJ
_database_code_depnum_ccdc_archive 'CCDC 1158481'
_chemical_formula_sum 'C30 H20'
_chemical_formula_moiety
;
C30 H20
;
_journal_coden_Cambridge 48
_journal_volume 120
_journal_year 1987
_journal_page_first 1491
_journal_name_full 'Chem.Ber. '
loop_
_publ_author_name
"K.-U.Klabunde"
"W.Huber"
"J.Lex"
"K.Mullen"
_chemical_name_systematic
;
1,2,3,4,5-(1',8')Anthra-8,9;10,11-dibenzo(13)annulene
;
_chemical_melting_point 444.15
_cell_volume   3926.320
_exptl_crystal_colour 'yellow'
_exptl_crystal_density_diffrn 1.287
_exptl_special_details
;
Melting point range 444.15-445.15K

;
_diffrn_ambient_temperature ?
_diffrn_special_details
;
The study was carried out at room temperature,in the range 283-303K

;
#These two values have been output from a single CSD field.
_refine_ls_R_factor_gt 0.055
_refine_ls_wR_factor_gt 0.055
_symmetry_cell_setting orthorhombic
_symmetry_space_group_name_H-M 'P b c a'
_symmetry_Int_Tables_number 61
loop_
_symmetry_equiv_pos_site_id
_symmetry_equiv_pos_as_xyz
1 x,y,z
2 1/2-x,-y,1/2+z
3 1/2+x,1/2-y,-z
4 -x,1/2+y,1/2-z
5 -x,-y,-z
6 -1/2+x,y,-1/2-z
7 -1/2-x,-1/2+y,z
8 x,-1/2-y,-1/2+z
_cell_length_a 7.592(2)
_cell_length_b 21.485(4)
_cell_length_c 24.071(4)
_cell_angle_alpha 90
_cell_angle_beta 90
_cell_angle_gamma 90
_cell_formula_units_Z 8
loop_
_atom_type_symbol
_atom_type_radius_bond
C 0.68
H 0.23
loop_
_atom_site_label
_atom_site_type_symbol
_atom_site_fract_x
_atom_site_fract_y
_atom_site_fract_z
C1 C 0.9787(7) 0.2664(2) 0.1892(2)
C2 C 0.9659(7) 0.2637(2) 0.2479(2)
C3 C 0.9165(7) 0.2107(2) 0.2738(2)
C4 C 0.8839(6) 0.1552(2) 0.2424(2)
C5 C 0.8386(7) 0.0989(2) 0.2680(2)
C6 C 0.8141(6) 0.0439(2) 0.2384(2)
C7 C 0.7680(7) -0.0144(2) 0.2636(2)
C8 C 0.7549(8) -0.0658(2) 0.2332(2)
C9 C 0.7856(7) -0.0655(2) 0.1752(2)
C10 C 0.8259(6) -0.0123(2) 0.1471(2)
C11 C 0.8642(6) -0.0115(2) 0.0870(2)
C12 C 0.7841(6) 0.0207(2) 0.0468(2)
C13 C 0.6175(6) 0.0555(2) 0.0490(2)
C14 C 0.4810(6) 0.0350(2) 0.0830(2)
C15 C 0.3147(6) 0.0598(2) 0.0802(2)
C16 C 0.2778(7) 0.1065(2) 0.0437(2)
C17 C 0.4121(7) 0.1296(2) 0.0104(2)
C18 C 0.5812(6) 0.1055(2) 0.0130(2)
C19 C 0.7197(6) 0.1369(2) -0.0216(2)
C20 C 0.7271(7) 0.1258(2) -0.0787(5)
C21 C 0.8515(7) 0.1551(2) -0.1114(2)
C22 C 0.9717(6) 0.1951(2) -0.0883(2)
C23 C 0.9669(6) 0.2065(2) -0.0325(2)
C24 C 0.8416(6) 0.1787(2) 0.0024(2)
C25 C 0.8353(6) 0.1903(2) 0.0623(2)
C26 C 0.9529(6) 0.2182(2) 0.0955(2)
C27 C 0.9443(6) 0.2153(2) 0.1564(2)
C28 C 0.9035(6) 0.1571(2) 0.1833(2)
C29 C 0.8880(6) 0.1010(2) 0.1545(2)
C30 C 0.8418(6) 0.0448(2) 0.1793(2)
H1 H 0.999(6) 0.308(2) 0.168(2)
H2 H 0.991(6) 0.303(2) 0.269(2)
H3 H 0.908(7) 0.206(2) 0.316(2)
H4 H 0.819(5) 0.095(2) 0.310(2)
H5 H 0.740(8) -0.015(2) 0.306(2)
H6 H 0.719(6) -0.105(2) 0.249(2)
H7 H 0.773(5) -0.101(2) 0.154(1)
H8 H 0.966(6) -0.039(2) 0.074(2)
H9 H 0.836(4) 0.021(1) 0.011(1)
H10 H 0.505(4) 0.003(2) 0.108(1)
H11 H 0.231(5) 0.045(2) 0.106(1)
H12 H 0.166(6) 0.125(2) 0.040(2)
H13 H 0.392(5) 0.166(1) -0.016(1)
H14 H 0.644(5) 0.093(2) -0.096(1)
H15 H 0.860(5) 0.150(2) -0.150(2)
H16 H 1.071(5) 0.213(2) -0.111(1)
H17 H 1.048(5) 0.230(2) -0.014(2)
H18 H 0.735(4) 0.172(1) 0.080(1)
H19 H 1.058(6) 0.233(2) 0.079(2)
H20 H 0.906(5) 0.100(2) 0.115(1)
loop_
_geom_bond_atom_site_label_1
_geom_bond_atom_site_label_2
_geom_bond_distance
_geom_bond_site_symmetry_1
_geom_bond_site_symmetry_2
C1 C2 1.417 1_555 1_555
C2 C3 1.351 1_555 1_555
C3 C4 1.433 1_555 1_555
C4 C5 1.400 1_555 1_555
C5 C6 1.392 1_555 1_555
C6 C7 1.435 1_555 1_555
C7 C8 1.328 1_555 1_555
C8 C9 1.415 1_555 1_555
C9 C10 1.363 1_555 1_555
C10 C11 1.476 1_555 1_555
C11 C12 1.336 1_555 1_555
C12 C13 1.470 1_555 1_555
C13 C14 1.392 1_555 1_555
C14 C15 1.372 1_555 1_555
C15 C16 1.363 1_555 1_555
C16 C17 1.389 1_555 1_555
C17 C18 1.386 1_555 1_555
C18 C13 1.407 1_555 1_555
C19 C18 1.501 1_555 1_555
C20 C19 1.396 1_555 1_555
C21 C20 1.381 1_555 1_555
C22 C21 1.371 1_555 1_555
C23 C22 1.366 1_555 1_555
C24 C19 1.413 1_555 1_555
C25 C24 1.464 1_555 1_555
C26 C25 1.340 1_555 1_555
C27 C1 1.377 1_555 1_555
C28 C4 1.431 1_555 1_555
C29 C28 1.395 1_555 1_555
C30 C6 1.438 1_555 1_555
H1 C1 1.041 1_555 1_555
H2 C2 1.004 1_555 1_555
H3 C3 1.023 1_555 1_555
H4 C5 1.025 1_555 1_555
H5 C7 1.043 1_555 1_555
H6 C8 0.963 1_555 1_555
H7 C9 0.923 1_555 1_555
H8 C11 1.022 1_555 1_555
H9 C12 0.948 1_555 1_555
H10 C14 0.932 1_555 1_555
H11 C15 0.944 1_555 1_555
H12 C16 0.941 1_555 1_555
H13 C17 1.019 1_555 1_555
H14 C20 1.033 1_555 1_555
H15 C21 0.938 1_555 1_555
H16 C22 1.007 1_555 1_555
H17 C23 0.912 1_555 1_555
H18 C25 0.957 1_555 1_555
H19 C26 0.946 1_555 1_555
H20 C29 0.961 1_555 1_555
C10 C30 1.456 1_555 1_555
C23 C24 1.403 1_555 1_555
C26 C27 1.469 1_555 1_555
C27 C28 1.442 1_555 1_555
C29 C30 1.392 1_555 1_555
#END
