
#######################################################################
#
#                 Cambridge Crystallographic Data Centre
#                                CCDC
#
#######################################################################
#
# If this CIF has been generated from an entry in the Cambridge
# Structural Database, then it will include bibliographic, chemical,
# crystal, experimental, refinement or atomic coordinate data resulting
# from the CCDC's data processing and validation procedures.
#
#######################################################################

data_CSD_CIF_FUBKOE
_audit_creation_date 2015-03-26
_audit_creation_method CSD-ConQuest-V1
_database_code_CSD FUBKOE
_database_code_depnum_ccdc_archive 'CCDC 1026304'
_chemical_formula_sum 'C36 H26'
_chemical_formula_moiety
;
C36 H26
;
_journal_coden_Cambridge 423
_journal_volume 39
_journal_year 2015
_journal_page_first 48
_journal_name_full 'J.Chem.Res. '
loop_
_publ_author_name
"Y.Otero"
"W.Vera"
"Y.Leon"
"C.Cardozo"
"D.Pena"
"A.Arce"
"Y.De Sanctis"
"T.Gonzalez"
_chemical_name_systematic
;
9,9'-octa-1,7-diyne-1,8-diyldiphenanthrene
;
_cell_volume   2493.863
_exptl_crystal_colour 'colorless'
_exptl_crystal_density_diffrn 1.221
_exptl_crystal_description 'Block'
_diffrn_ambient_temperature 295
#These two values have been output from a single CSD field.
_refine_ls_R_factor_gt 0.077
_refine_ls_wR_factor_gt 0.077
_symmetry_cell_setting orthorhombic
_symmetry_space_group_name_H-M 'P n a 21'
_symmetry_Int_Tables_number 33
loop_
_symmetry_equiv_pos_site_id
_symmetry_equiv_pos_as_xyz
1 x,y,z
2 -x,-y,1/2+z
3 1/2-x,1/2+y,1/2+z
4 1/2+x,1/2-y,z
_cell_length_a 14.624(3)
_cell_length_b 6.5840(13)
_cell_length_c 25.901(5)
_cell_angle_alpha 90
_cell_angle_beta 90
_cell_angle_gamma 90
_cell_formula_units_Z 4
loop_
_atom_type_symbol
_atom_type_radius_bond
C 0.68
H 0.23
loop_
_atom_site_label
_atom_site_type_symbol
_atom_site_fract_x
_atom_site_fract_y
_atom_site_fract_z
C1 C 0.2314(3) -0.7107(7) -0.2711(2)
C2 C 0.1623(3) -0.8411(7) -0.28233(18)
H1 H 0.12530 -0.81260 -0.31060
C3 C 0.1435(3) -1.0193(7) -0.25304(18)
C4 C 0.0709(3) -1.1482(8) -0.2657(2)
H2 H 0.03330 -1.11670 -0.29350
C5 C 0.0547(3) -1.3216(8) -0.2372(2)
H3 H 0.00650 -1.40760 -0.24570
C6 C 0.1110(4) -1.3656(9) -0.1960(2)
H4 H 0.10000 -1.48190 -0.17660
C7 C 0.1823(3) -1.2429(8) -0.1830(2)
H5 H 0.21950 -1.27770 -0.15530
C8 C 0.2005(3) -1.0645(7) -0.21095(19)
C9 C 0.2762(3) -0.9276(7) -0.19773(17)
C10 C 0.3370(3) -0.9646(9) -0.15664(19)
H6 H 0.33050 -1.08160 -0.13690
C11 C 0.4049(4) -0.8317(10) -0.1456(2)
H7 H 0.44370 -0.85980 -0.11800
C12 C 0.4192(4) -0.6536(10) -0.1741(2)
H8 H 0.46630 -0.56470 -0.16570
C13 C 0.3615(3) -0.6140(9) -0.2147(2)
H9 H 0.36940 -0.49620 -0.23410
C14 C 0.2902(3) -0.7501(7) -0.2275(2)
C15 C 0.2467(3) -0.5322(8) -0.30359(19)
C16 C 0.2604(3) -0.3932(7) -0.33144(19)
C17 C 0.2779(3) -0.2140(7) -0.36235(19)
H10 H 0.22370 -0.12940 -0.36230
H11 H 0.28940 -0.25560 -0.39770
C18 C 0.3578(3) -0.0898(7) -0.34368(18)
H12 H 0.41250 -0.17300 -0.34390
H13 H 0.34670 -0.04700 -0.30840
C19 C 0.3731(3) 0.0962(7) -0.37724(18)
H14 H 0.31860 0.18020 -0.37700
H15 H 0.38460 0.05420 -0.41250
C20 C 0.4557(3) 0.2207(7) -0.3569(2)
H16 H 0.44330 0.26540 -0.32190
H17 H 0.50960 0.13490 -0.35610
C21 C 0.4737(3) 0.4005(8) -0.3901(2)
C22 C 0.4871(3) 0.5434(8) -0.41662(19)
C23 C 0.5019(3) 0.7183(8) -0.4487(2)
C24 C 0.4401(2) 0.7567(6) -0.4918(2)
C25 C 0.3682(3) 0.6196(8) -0.50387(19)
H18 H 0.36030 0.50250 -0.48430
C26 C 0.3107(3) 0.6595(9) -0.5442(2)
H19 H 0.26480 0.56690 -0.55210
C27 C 0.3190(3) 0.8323(9) -0.5730(2)
H20 H 0.27850 0.85810 -0.59990
C28 C 0.3883(3) 0.9684(8) -0.56184(19)
H21 H 0.39330 1.08660 -0.58130
C29 C 0.4510(3) 0.9331(7) -0.52221(17)
C30 C 0.5259(3) 1.0728(7) -0.51138(18)
C31 C 0.5443(3) 1.2482(7) -0.5416(2)
H22 H 0.50710 1.27920 -0.56960
C32 C 0.6170(4) 1.3722(8) -0.5296(2)
H23 H 0.62780 1.48810 -0.54920
C33 C 0.6750(3) 1.3254(9) -0.4881(2)
H24 H 0.72490 1.40820 -0.48090
C34 C 0.6586(3) 1.1622(9) -0.4589(2)
H25 H 0.69620 1.13550 -0.43080
C35 C 0.5850(3) 1.0284(7) -0.46998(18)
C36 C 0.5695(3) 0.8552(8) -0.4392(2)
H26 H 0.60740 0.83360 -0.41090
loop_
_geom_bond_atom_site_label_1
_geom_bond_atom_site_label_2
_geom_bond_distance
_geom_bond_site_symmetry_1
_geom_bond_site_symmetry_2
C1 C2 1.358 1_555 1_555
C2 H1 0.930 1_555 1_555
C3 C2 1.424 1_555 1_555
C4 C3 1.398 1_555 1_555
H2 C4 0.929 1_555 1_555
C5 C4 1.380 1_555 1_555
H3 C5 0.931 1_555 1_555
C6 C5 1.379 1_555 1_555
H4 C6 0.930 1_555 1_555
C7 C6 1.361 1_555 1_555
H5 C7 0.929 1_555 1_555
C8 C3 1.404 1_555 1_555
C9 C8 1.468 1_555 1_555
C10 C9 1.408 1_555 1_555
H6 C10 0.929 1_555 1_555
C11 C10 1.354 1_555 1_555
H7 C11 0.931 1_555 1_555
C12 C11 1.401 1_555 1_555
H8 C12 0.930 1_555 1_555
C13 C12 1.373 1_555 1_555
H9 C13 0.931 1_555 1_555
C14 C1 1.443 1_555 1_555
C15 C1 1.463 1_555 1_555
C16 C15 1.182 1_555 1_555
C17 C16 1.449 1_555 1_555
H10 C17 0.969 1_555 1_555
H11 C17 0.970 1_555 1_555
C18 C17 1.506 1_555 1_555
H12 C18 0.970 1_555 1_555
H13 C18 0.970 1_555 1_555
C19 C18 1.518 1_555 1_555
H14 C19 0.970 1_555 1_555
H15 C19 0.969 1_555 1_555
C20 C19 1.552 1_555 1_555
H16 C20 0.970 1_555 1_555
H17 C20 0.970 1_555 1_555
C21 C20 1.487 1_555 1_555
C22 C21 1.181 1_555 1_555
C23 C22 1.436 1_555 1_555
C24 C23 1.458 1_555 1_555
C25 C24 1.421 1_555 1_555
H18 C25 0.930 1_555 1_555
C26 C25 1.366 1_555 1_555
H19 C26 0.930 1_555 1_555
C27 C26 1.366 1_555 1_555
H20 C27 0.930 1_555 1_555
C28 C27 1.383 1_555 1_555
H21 C28 0.930 1_555 1_555
C29 C24 1.412 1_555 1_555
C30 C29 1.458 1_555 1_555
C31 C30 1.421 1_555 1_555
H22 C31 0.929 1_555 1_555
C32 C31 1.376 1_555 1_555
H23 C32 0.930 1_555 1_555
C33 C32 1.403 1_555 1_555
H24 C33 0.930 1_555 1_555
C34 C33 1.336 1_555 1_555
H25 C34 0.929 1_555 1_555
C35 C30 1.408 1_555 1_555
C36 C23 1.360 1_555 1_555
H26 C36 0.930 1_555 1_555
C7 C8 1.405 1_555 1_555
C9 C14 1.415 1_555 1_555
C13 C14 1.414 1_555 1_555
C28 C29 1.396 1_555 1_555
C34 C35 1.420 1_555 1_555
C35 C36 1.410 1_555 1_555
#END
