
#######################################################################
#
#                 Cambridge Crystallographic Data Centre
#                                CCDC
#
#######################################################################
#
# If this CIF has been generated from an entry in the Cambridge
# Structural Database, then it will include bibliographic, chemical,
# crystal, experimental, refinement or atomic coordinate data resulting
# from the CCDC's data processing and validation procedures.
#
#######################################################################

data_CSD_CIF_FUPGII
_audit_creation_date 2015-09-09
_audit_creation_method CSD-ConQuest-V1
_database_code_CSD FUPGII
_database_code_depnum_ccdc_archive 'CCDC 1061673'
_chemical_formula_sum 'C38 H32'
_chemical_formula_moiety
;
C38 H32
;
_journal_coden_Cambridge 179
_journal_volume 54
_journal_year 2015
_journal_page_first 9308
_journal_name_full 'Angew.Chem.,Int.Ed. '
loop_
_publ_author_name
"Chaolumen"
"M.Murata"
"Y.Sugano"
"A.Wakamiya"
"Y.Murata"
_chemical_name_systematic
;
2,10-di-t-butyldiindeno[1,2,3-fg:1',2',3'-op]tetracene
;
_cell_volume   1262.788
_exptl_crystal_colour 'dark blue'
_exptl_crystal_density_diffrn 1.285
_exptl_crystal_description 'needle'
_diffrn_ambient_temperature 100
_diffrn_radiation_probe x-ray
_diffrn_source synchrotron
#These two values have been output from a single CSD field.
_refine_ls_R_factor_gt 0.041
_refine_ls_wR_factor_gt 0.041
_symmetry_cell_setting triclinic
_symmetry_space_group_name_H-M 'P -1'
_symmetry_Int_Tables_number 2
loop_
_symmetry_equiv_pos_site_id
_symmetry_equiv_pos_as_xyz
1 x,y,z
2 -x,-y,-z
_cell_length_a 7.0756(1)
_cell_length_b 12.9306(2)
_cell_length_c 14.3203(2)
_cell_angle_alpha 78.5052(9)
_cell_angle_beta 82.5538(10)
_cell_angle_gamma 81.4224(10)
_cell_formula_units_Z 2
loop_
_atom_type_symbol
_atom_type_radius_bond
C 0.68
H 0.23
loop_
_atom_site_label
_atom_site_type_symbol
_atom_site_fract_x
_atom_site_fract_y
_atom_site_fract_z
C1 C -0.0016(2) 0.03424(13) 0.95637(11)
C2 C -0.0259(2) 0.00091(13) 0.87195(11)
C3 C -0.0184(2) 0.09838(13) 0.79703(11)
C4 C -0.0304(2) 0.11670(13) 0.69909(11)
H1 H -0.04980 0.06000 0.66970
C5 C -0.0142(2) 0.21784(14) 0.64253(11)
C6 C 0.0118(2) 0.29932(14) 0.68787(12)
H2 H 0.02270 0.36810 0.65060
C7 C 0.0225(2) 0.28354(13) 0.78665(11)
H3 H 0.03880 0.34130 0.81550
C8 C 0.0093(2) 0.18419(13) 0.84201(11)
C9 C 0.0196(2) 0.14170(13) 0.94575(11)
C10 C 0.0437(2) 0.18025(13) 1.02852(11)
C11 C 0.0654(2) 0.28844(13) 1.02614(11)
H4 H 0.06460 0.33670 0.96670
C12 C 0.0871(2) 0.32485(14) 1.10637(12)
H5 H 0.10110 0.39760 1.10230
C13 C 0.0891(2) 0.25473(14) 1.19612(12)
H6 H 0.10390 0.28090 1.25190
C14 C 0.0700(2) 0.15042(13) 1.20298(11)
H7 H 0.07220 0.10490 1.26390
C15 C 0.0468(2) 0.10695(13) 1.12164(11)
C16 C -0.0194(2) 0.23361(14) 0.53364(11)
C17 C -0.2079(3) 0.20304(15) 0.51116(12)
H8 H -0.22100 0.12950 0.54250
H9 H -0.20650 0.20940 0.44170
H10 H -0.31660 0.25070 0.53490
C18 C 0.1500(3) 0.16168(16) 0.49162(12)
H11 H 0.14230 0.08750 0.52260
H12 H 0.27120 0.18280 0.50290
H13 H 0.14420 0.16900 0.42260
C19 C -0.0036(3) 0.34810(14) 0.48376(12)
H14 H 0.11660 0.36910 0.49650
H15 H -0.11260 0.39510 0.50810
H16 H -0.00480 0.35370 0.41460
C20 C 0.5082(2) 0.05270(13) 0.98105(11)
C21 C 0.5381(2) 0.12482(13) 1.03658(11)
C22 C 0.5450(2) 0.22690(13) 0.96830(11)
C23 C 0.5664(2) 0.32829(13) 0.97908(12)
H17 H 0.59070 0.34070 1.03940
C24 C 0.5524(2) 0.41214(13) 0.90151(12)
H18 H 0.56720 0.48140 0.91000
C25 C 0.5168(2) 0.39753(13) 0.81105(12)
C26 C 0.5016(2) 0.29439(13) 0.79940(11)
H19 H 0.48120 0.28220 0.73840
C27 C 0.5161(2) 0.20941(13) 0.87591(11)
C28 C 0.4981(2) 0.09494(13) 0.88372(11)
C29 C 0.4762(2) 0.02471(13) 0.82332(11)
C30 C 0.4808(2) 0.05638(14) 0.72176(11)
H20 H 0.49570 0.12810 0.69350
C31 C 0.4645(2) -0.01319(14) 0.66431(12)
H21 H 0.47150 0.01010 0.59690
C32 C 0.4372(2) -0.11980(14) 0.70378(12)
H22 H 0.42260 -0.16700 0.66290
C33 C 0.4318(2) -0.15502(14) 0.80004(12)
H23 H 0.41220 -0.22680 0.82530
C34 C 0.4548(2) -0.08734(13) 0.86414(11)
C35 C 0.4883(2) 0.49449(13) 0.73085(12)
C36 C 0.2960(3) 0.56085(14) 0.75518(13)
H24 H 0.19130 0.51740 0.76120
H25 H 0.27570 0.62300 0.70410
H26 H 0.29820 0.58460 0.81590
C37 C 0.6500(3) 0.56370(14) 0.72195(13)
H27 H 0.77370 0.52210 0.70670
H28 H 0.65060 0.58760 0.78270
H29 H 0.62900 0.62570 0.67080
C38 C 0.4844(3) 0.46339(14) 0.63327(12)
H30 H 0.38160 0.41910 0.63740
H31 H 0.60820 0.42340 0.61520
H32 H 0.46090 0.52780 0.58490
C1A C 0.0016(2) -0.03424(13) 1.04363(11)
C2A C 0.0259(2) -0.00091(13) 1.12805(11)
C3A C 0.0184(2) -0.09838(13) 1.20297(11)
C4A C 0.0304(2) -0.11670(13) 1.30091(11)
H1A H 0.04980 -0.06000 1.33030
C5A C 0.0142(2) -0.21784(14) 1.35747(11)
C6A C -0.0118(2) -0.29932(14) 1.31213(12)
H2A H -0.02270 -0.36810 1.34940
C7A C -0.0225(2) -0.28354(13) 1.21335(11)
H3A H -0.03880 -0.34130 1.18450
C8A C -0.0093(2) -0.18419(13) 1.15799(11)
C9A C -0.0196(2) -0.14170(13) 1.05425(11)
C10A C -0.0437(2) -0.18025(13) 0.97148(11)
C11A C -0.0654(2) -0.28844(13) 0.97386(11)
H4A H -0.06460 -0.33670 1.03330
C12A C -0.0871(2) -0.32485(14) 0.89363(12)
H5A H -0.10110 -0.39760 0.89770
C13A C -0.0891(2) -0.25473(14) 0.80388(12)
H6A H -0.10390 -0.28090 0.74810
C14A C -0.0700(2) -0.15042(13) 0.79702(11)
H7A H -0.07220 -0.10490 0.73610
C15A C -0.0468(2) -0.10695(13) 0.87836(11)
C16A C 0.0194(2) -0.23361(14) 1.46636(11)
C17A C 0.2079(3) -0.20304(15) 1.48884(12)
H8A H 0.22100 -0.12950 1.45750
H9A H 0.20650 -0.20940 1.55830
H10A H 0.31660 -0.25070 1.46510
C18A C -0.1500(3) -0.16168(16) 1.50838(12)
H11A H -0.14230 -0.08750 1.47740
H12A H -0.27120 -0.18280 1.49710
H13A H -0.14420 -0.16900 1.57740
C19A C 0.0036(3) -0.34810(14) 1.51624(12)
H14A H -0.11660 -0.36910 1.50350
H15A H 0.11260 -0.39510 1.49190
H16A H 0.00480 -0.35370 1.58540
C20A C 0.4918(2) -0.05270(13) 1.01895(11)
C21A C 0.4619(2) -0.12482(13) 0.96342(11)
C22A C 0.4550(2) -0.22690(13) 1.03170(11)
C23A C 0.4336(2) -0.32829(13) 1.02092(12)
H17A H 0.40930 -0.34070 0.96060
C24A C 0.4476(2) -0.41214(13) 1.09849(12)
H18A H 0.43280 -0.48140 1.09000
C25A C 0.4832(2) -0.39753(13) 1.18895(12)
C26A C 0.4984(2) -0.29439(13) 1.20060(11)
H19A H 0.51880 -0.28220 1.26160
C27A C 0.4839(2) -0.20941(13) 1.12409(11)
C28A C 0.5019(2) -0.09494(13) 1.11628(11)
C29A C 0.5238(2) -0.02471(13) 1.17668(11)
C30A C 0.5192(2) -0.05638(14) 1.27824(11)
H20A H 0.50430 -0.12810 1.30650
C31A C 0.5355(2) 0.01319(14) 1.33569(12)
H21A H 0.52850 -0.01010 1.40310
C32A C 0.5628(2) 0.11980(14) 1.29622(12)
H22A H 0.57740 0.16700 1.33710
C33A C 0.5682(2) 0.15502(14) 1.19996(12)
H23A H 0.58780 0.22680 1.17470
C34A C 0.5452(2) 0.08734(13) 1.13586(11)
C35A C 0.5117(2) -0.49449(13) 1.26915(12)
C36A C 0.7040(3) -0.56085(14) 1.24482(13)
H24A H 0.80870 -0.51740 1.23880
H25A H 0.72430 -0.62300 1.29590
H26A H 0.70180 -0.58460 1.18410
C37A C 0.3500(3) -0.56370(14) 1.27805(13)
H27A H 0.22630 -0.52210 1.29330
H28A H 0.34940 -0.58760 1.21730
H29A H 0.37100 -0.62570 1.32920
C38A C 0.5156(3) -0.46339(14) 1.36673(12)
H30A H 0.61840 -0.41910 1.36260
H31A H 0.39180 -0.42340 1.38480
H32A H 0.53910 -0.52780 1.41510
loop_
_geom_bond_atom_site_label_1
_geom_bond_atom_site_label_2
_geom_bond_distance
_geom_bond_site_symmetry_1
_geom_bond_site_symmetry_2
C1 C2 1.400 1_555 1_555
C2 C3 1.486 1_555 1_555
C3 C4 1.387 1_555 1_555
C4 H1 0.949 1_555 1_555
C5 C4 1.406 1_555 1_555
C6 C5 1.388 1_555 1_555
H2 C6 0.950 1_555 1_555
C7 C6 1.399 1_555 1_555
H3 C7 0.950 1_555 1_555
C8 C3 1.438 1_555 1_555
C9 C1 1.396 1_555 1_555
C10 C9 1.413 1_555 1_555
C11 C10 1.423 1_555 1_555
H4 C11 0.950 1_555 1_555
C12 C11 1.359 1_555 1_555
H5 C12 0.950 1_555 1_555
C13 C12 1.418 1_555 1_555
H6 C13 0.951 1_555 1_555
C14 C13 1.358 1_555 1_555
H7 C14 0.951 1_555 1_555
C15 C10 1.475 1_555 1_555
C16 C5 1.536 1_555 1_555
C17 C16 1.536 1_555 1_555
H8 C17 0.980 1_555 1_555
H9 C17 0.980 1_555 1_555
H10 C17 0.980 1_555 1_555
C18 C16 1.539 1_555 1_555
H11 C18 0.980 1_555 1_555
H12 C18 0.980 1_555 1_555
H13 C18 0.980 1_555 1_555
C19 C16 1.524 1_555 1_555
H14 C19 0.979 1_555 1_555
H15 C19 0.980 1_555 1_555
H16 C19 0.980 1_555 1_555
C20 C21 1.395 1_555 1_555
C21 C22 1.481 1_555 1_555
C22 C23 1.383 1_555 1_555
C23 H17 0.950 1_555 1_555
C24 C23 1.391 1_555 1_555
H18 C24 0.950 1_555 1_555
C25 C24 1.405 1_555 1_555
C26 C25 1.398 1_555 1_555
H19 C26 0.950 1_555 1_555
C27 C22 1.431 1_555 1_555
C28 C20 1.399 1_555 1_555
C29 C28 1.409 1_555 1_555
C30 C29 1.428 1_555 1_555
H20 C30 0.951 1_555 1_555
C31 C30 1.360 1_555 1_555
H21 C31 0.949 1_555 1_555
C32 C31 1.413 1_555 1_555
H22 C32 0.950 1_555 1_555
C33 C32 1.360 1_555 1_555
H23 C33 0.950 1_555 1_555
C34 C29 1.473 1_555 1_555
C35 C25 1.530 1_555 1_555
C36 C35 1.535 1_555 1_555
H24 C36 0.980 1_555 1_555
H25 C36 0.980 1_555 1_555
H26 C36 0.981 1_555 1_555
C37 C35 1.532 1_555 1_555
H27 C37 0.980 1_555 1_555
H28 C37 0.980 1_555 1_555
H29 C37 0.980 1_555 1_555
C38 C35 1.534 1_555 1_555
H30 C38 0.980 1_555 1_555
H31 C38 0.980 1_555 1_555
H32 C38 0.980 1_555 1_555
C1A C1 1.381 1_555 1_555
C2A C15 1.408 1_555 1_555
C3A C2A 1.486 1_555 1_555
C4A C3A 1.387 1_555 1_555
H1A C4A 0.949 1_555 1_555
C5A C4A 1.406 1_555 1_555
C6A C5A 1.388 1_555 1_555
H2A C6A 0.950 1_555 1_555
C7A C6A 1.399 1_555 1_555
H3A C7A 0.950 1_555 1_555
C8A C3A 1.438 1_555 1_555
C9A C1A 1.396 1_555 1_555
C10A C9A 1.413 1_555 1_555
C11A C10A 1.423 1_555 1_555
H4A C11A 0.950 1_555 1_555
C12A C11A 1.359 1_555 1_555
H5A C12A 0.950 1_555 1_555
C13A C12A 1.418 1_555 1_555
H6A C13A 0.951 1_555 1_555
C14A C13A 1.358 1_555 1_555
H7A C14A 0.951 1_555 1_555
C15A C2 1.408 1_555 1_555
C16A C5A 1.536 1_555 1_555
C17A C16A 1.536 1_555 1_555
H8A C17A 0.980 1_555 1_555
H9A C17A 0.980 1_555 1_555
H10A C17A 0.980 1_555 1_555
C18A C16A 1.539 1_555 1_555
H11A C18A 0.980 1_555 1_555
H12A C18A 0.980 1_555 1_555
H13A C18A 0.980 1_555 1_555
C19A C16A 1.524 1_555 1_555
H14A C19A 0.979 1_555 1_555
H15A C19A 0.980 1_555 1_555
H16A C19A 0.980 1_555 1_555
C20A C20 1.379 1_555 1_555
C21A C34 1.413 1_555 1_555
C22A C21A 1.481 1_555 1_555
C23A C22A 1.383 1_555 1_555
H17A C23A 0.950 1_555 1_555
C24A C23A 1.391 1_555 1_555
H18A C24A 0.950 1_555 1_555
C25A C24A 1.405 1_555 1_555
C26A C25A 1.398 1_555 1_555
H19A C26A 0.950 1_555 1_555
C27A C22A 1.431 1_555 1_555
C28A C20A 1.399 1_555 1_555
C29A C28A 1.409 1_555 1_555
C30A C29A 1.428 1_555 1_555
H20A C30A 0.951 1_555 1_555
C31A C30A 1.360 1_555 1_555
H21A C31A 0.949 1_555 1_555
C32A C31A 1.413 1_555 1_555
H22A C32A 0.950 1_555 1_555
C33A C32A 1.360 1_555 1_555
H23A C33A 0.950 1_555 1_555
C34A C21 1.413 1_555 1_555
C35A C25A 1.530 1_555 1_555
C36A C35A 1.535 1_555 1_555
H24A C36A 0.980 1_555 1_555
H25A C36A 0.980 1_555 1_555
H26A C36A 0.981 1_555 1_555
C37A C35A 1.532 1_555 1_555
H27A C37A 0.980 1_555 1_555
H28A C37A 0.980 1_555 1_555
H29A C37A 0.980 1_555 1_555
C38A C35A 1.534 1_555 1_555
H30A C38A 0.980 1_555 1_555
H31A C38A 0.980 1_555 1_555
H32A C38A 0.980 1_555 1_555
C7 C8 1.378 1_555 1_555
C8 C9 1.485 1_555 1_555
C14 C15 1.427 1_555 1_555
C26 C27 1.391 1_555 1_555
C27 C28 1.485 1_555 1_555
C33 C34 1.427 1_555 1_555
C1A C2A 1.400 1_555 1_555
C7A C8A 1.378 1_555 1_555
C8A C9A 1.485 1_555 1_555
C10A C15A 1.475 1_555 1_555
C14A C15A 1.427 1_555 1_555
C20A C21A 1.395 1_555 1_555
C26A C27A 1.391 1_555 1_555
C27A C28A 1.485 1_555 1_555
C29A C34A 1.473 1_555 1_555
C33A C34A 1.427 1_555 1_555
#END
