
#######################################################################
#
#                 Cambridge Crystallographic Data Centre
#                                CCDC
#
#######################################################################
#
# If this CIF has been generated from an entry in the Cambridge
# Structural Database, then it will include bibliographic, chemical,
# crystal, experimental, refinement or atomic coordinate data resulting
# from the CCDC's data processing and validation procedures.
#
#######################################################################

data_CSD_CIF_FUPHIJ
_audit_creation_date 2015-09-09
_audit_creation_method CSD-ConQuest-V1
_database_code_CSD FUPHIJ
_database_code_depnum_ccdc_archive 'CCDC 1061678'
_chemical_formula_sum 'C36 H20'
_chemical_formula_moiety
;
C36 H20
;
_journal_coden_Cambridge 179
_journal_volume 54
_journal_year 2015
_journal_page_first 9308
_journal_name_full 'Angew.Chem.,Int.Ed. '
loop_
_publ_author_name
"Chaolumen"
"M.Murata"
"Y.Sugano"
"A.Wakamiya"
"Y.Murata"
_chemical_name_systematic
;
decacyclo[20.6.6.2^1,15^.0^2,7^.0^8,36^.0^9,14^.0^16,21^.0^22,35^.0^23,28^.0^2
9,34^]hexatriaconta-2,4,6,8(36),9,11,13,15(35),16,18,20,23,25,27,29,31,33-hept
adecaene
;
_cell_volume   2240.954
_exptl_crystal_colour 'colorless'
_exptl_crystal_density_diffrn 1.341
_exptl_crystal_description 'block'
_diffrn_ambient_temperature 100
#These two values have been output from a single CSD field.
_refine_ls_R_factor_gt 0.0408
_refine_ls_wR_factor_gt 0.0408
_symmetry_cell_setting monoclinic
_symmetry_space_group_name_H-M 'P 21/n'
_symmetry_Int_Tables_number 14
loop_
_symmetry_equiv_pos_site_id
_symmetry_equiv_pos_as_xyz
1 x,y,z
2 1/2-x,1/2+y,1/2-z
3 -x,-y,-z
4 -1/2+x,-1/2-y,-1/2+z
_cell_length_a 11.952(2)
_cell_length_b 11.161(2)
_cell_length_c 16.994(3)
_cell_angle_alpha 90
_cell_angle_beta 98.683(3)
_cell_angle_gamma 90
_cell_formula_units_Z 4
loop_
_atom_type_symbol
_atom_type_radius_bond
C 0.68
H 0.23
loop_
_atom_site_label
_atom_site_type_symbol
_atom_site_fract_x
_atom_site_fract_y
_atom_site_fract_z
C1 C 0.85840(13) 0.51423(16) 0.46351(10)
H1 H 0.86390 0.44290 0.49440
C2 C 0.89712(14) 0.51610(16) 0.38982(10)
H2 H 0.92970 0.44610 0.37100
C3 C 0.88822(14) 0.61900(16) 0.34439(10)
H3 H 0.91450 0.61940 0.29430
C4 C 0.84094(13) 0.72236(16) 0.37142(10)
H4 H 0.83390 0.79270 0.33950
C5 C 0.75453(13) 0.83087(15) 0.48414(10)
C6 C 0.87557(13) 0.94130(15) 0.58764(10)
C7 C 1.00062(14) 1.04159(16) 0.69894(10)
H5 H 0.99190 1.11500 0.67040
C8 C 1.06935(14) 1.03826(17) 0.77108(10)
H6 H 1.10920 1.10820 0.79110
C9 C 1.08114(14) 0.93239(16) 0.81538(10)
H7 H 1.12980 0.93040 0.86500
C10 C 1.02283(14) 0.83139(16) 0.78762(10)
H8 H 1.03030 0.76090 0.81930
C11 C 0.89081(13) 0.72336(15) 0.68184(10)
C12 C 0.76745(14) 0.63002(15) 0.57141(10)
C13 C 0.81224(13) 0.61638(15) 0.49109(10)
C14 C 0.80436(13) 0.72232(15) 0.44472(10)
C15 C 0.82377(13) 0.83702(15) 0.56455(10)
C16 C 0.94251(13) 0.93957(15) 0.6659(1)
C17 C 0.95182(13) 0.82932(15) 0.71296(10)
C18 C 0.83013(13) 0.73541(15) 0.60843(10)
C19 C 0.77393(14) 0.95793(15) 0.45659(10)
C20 C 0.73727(14) 1.01126(16) 0.38404(10)
H9 H 0.68810 0.96940 0.34420
C21 C 0.77291(14) 1.12712(16) 0.36950(11)
H10 H 0.74830 1.16420 0.31960
C22 C 0.84409(14) 1.18804(16) 0.42776(11)
H11 H 0.86850 1.26650 0.41690
C23 C 0.88088(14) 1.13724(15) 0.50189(10)
H12 H 0.92900 1.18090 0.54140
C24 C 0.84640(14) 1.02189(15) 0.5174(1)
C25 C 0.86992(13) 0.59643(16) 0.7042(1)
C26 C 0.90644(14) 0.53091(16) 0.7725(1)
H13 H 0.95310 0.56750 0.81620
C27 C 0.87461(15) 0.41125(16) 0.77703(11)
H14 H 0.89960 0.36660 0.82400
C28 C 0.80683(15) 0.35685(17) 0.71360(11)
H15 H 0.78700 0.27480 0.71700
C29 C 0.76764(14) 0.42166(16) 0.64483(11)
H16 H 0.72020 0.38430 0.60190
C30 C 0.79813(13) 0.54047(16) 0.63935(10)
C31 C 0.64587(14) 0.67765(15) 0.54669(9)
C32 C 0.54809(14) 0.62695(16) 0.56608(10)
H17 H 0.55160 0.55400 0.59520
C33 C 0.44414(14) 0.68348(16) 0.54269(10)
H18 H 0.37680 0.64810 0.55540
C34 C 0.43823(14) 0.79039(16) 0.50118(10)
H19 H 0.36720 0.82890 0.48650
C35 C 0.53648(14) 0.84202(16) 0.48068(10)
H20 H 0.53250 0.91560 0.45230
C36 C 0.63896(14) 0.78544(15) 0.50191(9)
loop_
_geom_bond_atom_site_label_1
_geom_bond_atom_site_label_2
_geom_bond_distance
_geom_bond_site_symmetry_1
_geom_bond_site_symmetry_2
C1 H1 0.950 1_555 1_555
C2 C1 1.399 1_555 1_555
H2 C2 0.950 1_555 1_555
C3 C2 1.379 1_555 1_555
H3 C3 0.951 1_555 1_555
C4 C3 1.393 1_555 1_555
H4 C4 0.951 1_555 1_555
C5 C14 1.547 1_555 1_555
C6 C15 1.349 1_555 1_555
C7 H5 0.950 1_555 1_555
C8 C7 1.369 1_555 1_555
H6 C8 0.950 1_555 1_555
C9 C8 1.397 1_555 1_555
H7 C9 0.950 1_555 1_555
C10 C9 1.371 1_555 1_555
H8 C10 0.950 1_555 1_555
C11 C17 1.447 1_555 1_555
C12 C13 1.547 1_555 1_555
C13 C1 1.379 1_555 1_555
C14 C4 1.381 1_555 1_555
C15 C5 1.488 1_555 1_555
C16 C6 1.445 1_555 1_555
C17 C10 1.416 1_555 1_555
C18 C11 1.352 1_555 1_555
C19 C5 1.522 1_555 1_555
C20 C19 1.380 1_555 1_555
H9 C20 0.950 1_555 1_555
C21 C20 1.395 1_555 1_555
H10 C21 0.950 1_555 1_555
C22 C21 1.383 1_555 1_555
H11 C22 0.950 1_555 1_555
C23 C22 1.391 1_555 1_555
H12 C23 0.950 1_555 1_555
C24 C6 1.493 1_555 1_555
C25 C11 1.497 1_555 1_555
C26 C25 1.385 1_555 1_555
H13 C26 0.951 1_555 1_555
C27 C26 1.394 1_555 1_555
H14 C27 0.950 1_555 1_555
C28 C27 1.387 1_555 1_555
H15 C28 0.950 1_555 1_555
C29 C28 1.394 1_555 1_555
H16 C29 0.950 1_555 1_555
C30 C12 1.529 1_555 1_555
C31 C12 1.545 1_555 1_555
C32 C31 1.382 1_555 1_555
H17 C32 0.950 1_555 1_555
C33 C32 1.397 1_555 1_555
H18 C33 0.950 1_555 1_555
C34 C33 1.383 1_555 1_555
H19 C34 0.951 1_555 1_555
C35 C34 1.399 1_555 1_555
H20 C35 0.950 1_555 1_555
C36 C5 1.543 1_555 1_555
C7 C16 1.406 1_555 1_555
C12 C18 1.483 1_555 1_555
C13 C14 1.416 1_555 1_555
C15 C18 1.353 1_555 1_555
C16 C17 1.463 1_555 1_555
C19 C24 1.434 1_555 1_555
C23 C24 1.389 1_555 1_555
C25 C30 1.434 1_555 1_555
C29 C30 1.382 1_555 1_555
C31 C36 1.419 1_555 1_555
C35 C36 1.377 1_555 1_555
#END
