
#######################################################################
#
#                 Cambridge Crystallographic Data Centre
#                                CCDC
#
#######################################################################
#
# If this CIF has been generated from an entry in the Cambridge
# Structural Database, then it will include bibliographic, chemical,
# crystal, experimental, refinement or atomic coordinate data resulting
# from the CCDC's data processing and validation procedures.
#
#######################################################################

data_CSD_CIF_FUPHEF
_audit_creation_date 2015-09-09
_audit_creation_method CSD-ConQuest-V1
_database_code_CSD FUPHEF
_database_code_depnum_ccdc_archive 'CCDC 1061677'
_chemical_formula_sum 'C34 H26'
_chemical_formula_moiety
;
C34 H26
;
_journal_coden_Cambridge 179
_journal_volume 54
_journal_year 2015
_journal_page_first 9308
_journal_name_full 'Angew.Chem.,Int.Ed. '
loop_
_publ_author_name
"Chaolumen"
"M.Murata"
"Y.Sugano"
"A.Wakamiya"
"Y.Murata"
_chemical_name_systematic
;
4b-butyl-4b,8b-dihydrodiindeno[1,2,3-fg:1',2',3'-op]tetracene
;
_cell_volume   2221.733
_exptl_crystal_colour 'brown'
_exptl_crystal_density_diffrn 1.299
_exptl_crystal_description 'block'
_diffrn_ambient_temperature 100
#These two values have been output from a single CSD field.
_refine_ls_R_factor_gt 0.0506
_refine_ls_wR_factor_gt 0.0506
_symmetry_cell_setting monoclinic
_symmetry_space_group_name_H-M 'P 21/n'
_symmetry_Int_Tables_number 14
loop_
_symmetry_equiv_pos_site_id
_symmetry_equiv_pos_as_xyz
1 x,y,z
2 1/2-x,1/2+y,1/2-z
3 -x,-y,-z
4 -1/2+x,-1/2-y,-1/2+z
_cell_length_a 12.5978(18)
_cell_length_b 11.8394(18)
_cell_length_c 15.850(2)
_cell_angle_alpha 90
_cell_angle_beta 109.981(3)
_cell_angle_gamma 90
_cell_formula_units_Z 4
loop_
_atom_type_symbol
_atom_type_radius_bond
C 0.68
H 0.23
loop_
_atom_site_label
_atom_site_type_symbol
_atom_site_fract_x
_atom_site_fract_y
_atom_site_fract_z
C1 C 0.81966(17) 0.57544(16) 0.85370(13)
H1 H 0.75540 0.57200 0.87210
C2 C 0.89452(17) 0.48565(17) 0.87260(14)
H2 H 0.88200 0.42170 0.90420
C3 C 0.98736(18) 0.48941(17) 0.84526(14)
H3 H 1.03820 0.42740 0.85680
C4 C 1.00604(16) 0.58390(16) 0.80099(13)
H4 H 1.07050 0.58620 0.78280
C5 C 0.95584(15) 0.78210(16) 0.73480(13)
C6 C 1.00261(15) 0.96005(15) 0.81370(13)
C7 C 1.05903(16) 1.13873(15) 0.90158(13)
H5 H 1.12200 1.14620 0.88200
C8 C 1.04427(17) 1.21627(16) 0.96093(13)
H6 H 1.09690 1.27610 0.98220
C9 C 0.95169(16) 1.20730(16) 0.99017(13)
H7 H 0.94230 1.26020 1.03210
C10 C 0.87460(16) 1.12254(16) 0.95850(13)
H8 H 0.81200 1.11790 0.97890
C11 C 0.80735(15) 0.94922(15) 0.86390(13)
C12 C 0.75380(15) 0.77104(15) 0.78847(13)
H9 H 0.70230 0.76740 0.72450
C13 C 0.83642(16) 0.67041(16) 0.80853(13)
C14 C 0.93294(16) 0.67537(16) 0.78249(13)
C15 C 0.91977(15) 0.88038(15) 0.77859(12)
C16 C 0.98317(15) 1.04818(15) 0.86885(13)
C17 C 0.88519(15) 1.04141(15) 0.89625(13)
C18 C 0.82438(15) 0.87528(15) 0.80259(12)
C19 C 1.07871(15) 0.81456(16) 0.75168(13)
C20 C 1.15954(16) 0.75798(17) 0.72625(13)
H10 H 1.14090 0.68960 0.69310
C21 C 1.26791(16) 0.80231(18) 0.74966(13)
H11 H 1.32410 0.76310 0.73370
C22 C 1.29452(16) 0.90332(17) 0.79609(13)
H12 H 1.36940 0.93180 0.81290
C23 C 1.21342(16) 0.96339(17) 0.81832(13)
H13 H 1.23190 1.03390 0.84850
C24 C 1.10450(15) 0.91968(16) 0.79616(12)
C25 C 0.71573(15) 0.90079(17) 0.89131(13)
C26 C 0.66112(16) 0.93870(18) 0.94948(14)
H14 H 0.67990 1.00990 0.97840
C27 C 0.57934(17) 0.87139(19) 0.96446(15)
H15 H 0.54350 0.89610 1.00510
C28 C 0.54896(17) 0.76867(19) 0.92120(15)
H16 H 0.49250 0.72390 0.93230
C29 C 0.60048(16) 0.73052(18) 0.86167(14)
H17 H 0.57770 0.66130 0.83040
C30 C 0.68539(15) 0.79465(16) 0.84861(13)
C31 C 0.88759(15) 0.77200(16) 0.63302(12)
H18 H 0.91320 0.70360 0.60960
H19 H 0.80690 0.76120 0.62540
C32 C 0.89754(16) 0.87261(16) 0.57654(13)
H20 H 0.97310 0.87160 0.57030
H21 H 0.89150 0.94300 0.60830
C33 C 0.80756(16) 0.87367(18) 0.48328(13)
H22 H 0.81110 0.80180 0.45240
H23 H 0.73200 0.87870 0.48930
C34 C 0.82249(18) 0.9718(2) 0.42648(15)
H24 H 0.89670 0.96640 0.41950
H25 H 0.81720 1.04320 0.45610
H26 H 0.76320 0.96900 0.36730
loop_
_geom_bond_atom_site_label_1
_geom_bond_atom_site_label_2
_geom_bond_distance
_geom_bond_site_symmetry_1
_geom_bond_site_symmetry_2
C1 H1 0.950 1_555 1_555
C2 C1 1.384 1_555 1_555
H2 C2 0.950 1_555 1_555
C3 C2 1.380 1_555 1_555
H3 C3 0.950 1_555 1_555
C4 C3 1.383 1_555 1_555
H4 C4 0.950 1_555 1_555
C5 C14 1.549 1_555 1_555
C6 C15 1.375 1_555 1_555
C7 H5 0.950 1_555 1_555
C8 C7 1.372 1_555 1_555
H6 C8 0.950 1_555 1_555
C9 C8 1.398 1_555 1_555
H7 C9 0.950 1_555 1_555
C10 C9 1.367 1_555 1_555
H8 C10 0.951 1_555 1_555
C11 C17 1.440 1_555 1_555
C12 H9 1.001 1_555 1_555
C13 C1 1.387 1_555 1_555
C14 C4 1.386 1_555 1_555
C15 C5 1.503 1_555 1_555
C16 C6 1.435 1_555 1_555
C17 C10 1.416 1_555 1_555
C18 C11 1.378 1_555 1_555
C19 C5 1.527 1_555 1_555
C20 C19 1.389 1_555 1_555
H10 C20 0.950 1_555 1_555
C21 C20 1.390 1_555 1_555
H11 C21 0.950 1_555 1_555
C22 C21 1.384 1_555 1_555
H12 C22 0.950 1_555 1_555
C23 C22 1.386 1_555 1_555
H13 C23 0.951 1_555 1_555
C24 C6 1.482 1_555 1_555
C25 C11 1.481 1_555 1_555
C26 C25 1.399 1_555 1_555
H14 C26 0.950 1_555 1_555
C27 C26 1.386 1_555 1_555
H15 C27 0.950 1_555 1_555
C28 C27 1.384 1_555 1_555
H16 C28 0.950 1_555 1_555
C29 C28 1.391 1_555 1_555
H17 C29 0.950 1_555 1_555
C30 C12 1.514 1_555 1_555
C31 C5 1.552 1_555 1_555
H18 C31 0.990 1_555 1_555
H19 C31 0.990 1_555 1_555
C32 C31 1.521 1_555 1_555
H20 C32 0.990 1_555 1_555
H21 C32 0.990 1_555 1_555
C33 C32 1.525 1_555 1_555
H22 C33 0.990 1_555 1_555
H23 C33 0.990 1_555 1_555
C34 C33 1.520 1_555 1_555
H24 C34 0.980 1_555 1_555
H25 C34 0.980 1_555 1_555
H26 C34 0.980 1_555 1_555
C7 C16 1.412 1_555 1_555
C12 C13 1.542 1_555 1_555
C12 C18 1.493 1_555 1_555
C13 C14 1.413 1_555 1_555
C15 C18 1.380 1_555 1_555
C16 C17 1.444 1_555 1_555
C19 C24 1.412 1_555 1_555
C23 C24 1.394 1_555 1_555
C25 C30 1.417 1_555 1_555
C29 C30 1.384 1_555 1_555
#END
