
#######################################################################
#
#                 Cambridge Crystallographic Data Centre
#                                CCDC
#
#######################################################################
#
# If this CIF has been generated from an entry in the Cambridge
# Structural Database, then it will include bibliographic, chemical,
# crystal, experimental, refinement or atomic coordinate data resulting
# from the CCDC's data processing and validation procedures.
#
#######################################################################

data_CSD_CIF_FUPHAB
_audit_creation_date 2015-09-09
_audit_creation_method CSD-ConQuest-V1
_database_code_CSD FUPHAB
_database_code_depnum_ccdc_archive 'CCDC 1061676'
_chemical_formula_sum 'C38 H34'
_chemical_formula_moiety
;
C38 H34
;
_journal_coden_Cambridge 179
_journal_volume 54
_journal_year 2015
_journal_page_first 9308
_journal_name_full 'Angew.Chem.,Int.Ed. '
loop_
_publ_author_name
"Chaolumen"
"M.Murata"
"Y.Sugano"
"A.Wakamiya"
"Y.Murata"
_chemical_name_systematic
;
4b,8b-dibutyl-4b,8b-dihydrodiindeno[1,2,3-fg:1',2',3'-op]tetracene
;
_cell_volume   2616.759
_exptl_crystal_colour 'yellow'
_exptl_crystal_density_diffrn 1.245
_exptl_crystal_description 'block'
_diffrn_ambient_temperature 100
#These two values have been output from a single CSD field.
_refine_ls_R_factor_gt 0.0428
_refine_ls_wR_factor_gt 0.0428
_symmetry_cell_setting monoclinic
_symmetry_space_group_name_H-M 'P 21/c'
_symmetry_Int_Tables_number 14
loop_
_symmetry_equiv_pos_site_id
_symmetry_equiv_pos_as_xyz
1 x,y,z
2 -x,1/2+y,1/2-z
3 -x,-y,-z
4 x,-1/2-y,-1/2+z
_cell_length_a 10.3410(11)
_cell_length_b 15.4282(16)
_cell_length_c 16.5483(17)
_cell_angle_alpha 90
_cell_angle_beta 97.6351(15)
_cell_angle_gamma 90
_cell_formula_units_Z 4
loop_
_atom_type_symbol
_atom_type_radius_bond
C 0.68
H 0.23
loop_
_atom_site_label
_atom_site_type_symbol
_atom_site_fract_x
_atom_site_fract_y
_atom_site_fract_z
C1 C 1.30616(17) -0.10864(11) 0.29233(10)
H1 H 1.38710 -0.08190 0.28630
C2 C 1.30450(17) -0.19581(11) 0.31204(11)
H2 H 1.38350 -0.22810 0.31900
C3 C 1.18827(17) -0.23582(12) 0.32161(11)
H3 H 1.18680 -0.29540 0.33590
C4 C 1.07400(17) -0.18836(11) 0.31029(10)
H4 H 0.99410 -0.21620 0.31670
C5 C 0.94354(16) -0.04951(11) 0.27664(10)
C6 C 0.85783(16) 0.00962(10) 0.1448(1)
C7 C 0.76720(17) 0.06228(11) 0.00542(10)
H5 H 0.68610 0.03520 0.01030
C8 C 0.78216(18) 0.10436(11) -0.06526(11)
H6 H 0.71240 0.10550 -0.10880
C9 C 0.90020(18) 0.14589(12) -0.07381(10)
H7 H 0.91060 0.17490 -0.12320
C10 C 1.00036(17) 0.14463(11) -0.01089(10)
H8 H 1.07930 0.17390 -0.01710
C11 C 1.09563(16) 0.09395(10) 0.12835(10)
C12 C 1.19672(16) 0.03807(11) 0.2580(1)
C13 C 1.19289(16) -0.05906(11) 0.28112(10)
C14 C 1.07258(16) -0.10084(11) 0.2897(1)
C15 C 0.95725(15) 0.01434(10) 0.20905(10)
C16 C 0.86855(16) 0.05773(11) 0.07148(10)
C17 C 0.98987(16) 0.10100(11) 0.06318(10)
C18 C 1.07458(16) 0.05473(10) 0.20015(10)
C19 C 0.82002(16) -0.09712(11) 0.23968(10)
C20 C 0.75358(17) -0.16314(11) 0.27360(11)
H9 H 0.78690 -0.18650 0.32530
C21 C 0.63804(17) -0.19490(11) 0.23146(11)
H10 H 0.59370 -0.24120 0.25370
C22 C 0.58745(17) -0.15940(11) 0.15734(11)
H11 H 0.50870 -0.18180 0.12890
C23 C 0.65043(17) -0.09115(11) 0.12384(11)
H12 H 0.61380 -0.06620 0.07350
C24 C 0.76763(16) -0.05955(11) 0.16467(10)
C25 C 1.23831(16) 0.10655(10) 0.13254(10)
C26 C 1.31422(17) 0.14460(11) 0.07882(10)
H13 H 1.27360 0.17190 0.03060
C27 C 1.44910(17) 0.14259(11) 0.09573(10)
H14 H 1.50060 0.16800 0.05860
C28 C 1.50930(17) 0.10390(11) 0.16630(11)
H15 H 1.60180 0.10230 0.17700
C29 C 1.43493(16) 0.06731(11) 0.22179(10)
H16 H 1.47670 0.04210 0.27080
C30 C 1.29987(16) 0.06771(10) 0.20535(10)
C31 C 1.20492(17) 0.09956(11) 0.33398(10)
H17 H 1.22520 0.15890 0.31650
H18 H 1.11800 0.10150 0.35280
C32 C 1.30515(17) 0.07426(11) 0.40551(10)
H19 H 1.28360 0.01590 0.42470
H20 H 1.39210 0.07100 0.38690
C33 C 1.31169(18) 0.13726(12) 0.47632(10)
H21 H 1.22400 0.14220 0.49370
H22 H 1.33650 0.19520 0.45770
C34 C 1.40871(18) 0.10992(13) 0.54904(11)
H23 H 1.38230 0.05390 0.56950
H24 H 1.41060 0.15360 0.59220
H25 H 1.49580 0.10460 0.53230
C35 C 0.91806(17) -0.00907(11) 0.35954(10)
H26 H 0.88830 -0.05550 0.39410
H27 H 1.00150 0.01370 0.38790
C36 C 0.81774(17) 0.06351(12) 0.3518(1)
H28 H 0.84270 0.10720 0.31290
H29 H 0.73200 0.03940 0.32880
C37 C 0.80363(19) 0.10835(12) 0.43195(11)
H30 H 0.78920 0.06420 0.47320
H31 H 0.88560 0.13940 0.45160
C38 C 0.69098(19) 0.17241(13) 0.42336(14)
H32 H 0.70230 0.21440 0.38040
H33 H 0.68930 0.20300 0.47510
H34 H 0.60860 0.14120 0.40900
loop_
_geom_bond_atom_site_label_1
_geom_bond_atom_site_label_2
_geom_bond_distance
_geom_bond_site_symmetry_1
_geom_bond_site_symmetry_2
C1 H1 0.950 1_555 1_555
C2 C1 1.385 1_555 1_555
H2 C2 0.951 1_555 1_555
C3 C2 1.379 1_555 1_555
H3 C3 0.950 1_555 1_555
C4 C3 1.382 1_555 1_555
H4 C4 0.950 1_555 1_555
C5 C14 1.542 1_555 1_555
C6 C15 1.379 1_555 1_555
C7 H5 0.950 1_555 1_555
C8 C7 1.364 1_555 1_555
H6 C8 0.950 1_555 1_555
C9 C8 1.402 1_555 1_555
H7 C9 0.950 1_555 1_555
C10 C9 1.368 1_555 1_555
H8 C10 0.950 1_555 1_555
C11 C17 1.434 1_555 1_555
C12 C13 1.548 1_555 1_555
C13 C1 1.391 1_555 1_555
C14 C4 1.392 1_555 1_555
C15 C5 1.511 1_555 1_555
C16 C6 1.439 1_555 1_555
C17 C10 1.415 1_555 1_555
C18 C11 1.376 1_555 1_555
C19 C5 1.529 1_555 1_555
C20 C19 1.388 1_555 1_555
H9 C20 0.950 1_555 1_555
C21 C20 1.390 1_555 1_555
H10 C21 0.949 1_555 1_555
C22 C21 1.381 1_555 1_555
H11 C22 0.950 1_555 1_555
C23 C22 1.391 1_555 1_555
H12 C23 0.950 1_555 1_555
C24 C6 1.483 1_555 1_555
C25 C11 1.481 1_555 1_555
C26 C25 1.392 1_555 1_555
H13 C26 0.949 1_555 1_555
C27 C26 1.386 1_555 1_555
H14 C27 0.950 1_555 1_555
C28 C27 1.384 1_555 1_555
H15 C28 0.950 1_555 1_555
C29 C28 1.393 1_555 1_555
H16 C29 0.950 1_555 1_555
C30 C12 1.534 1_555 1_555
C31 C12 1.568 1_555 1_555
H17 C31 0.991 1_555 1_555
H18 C31 0.990 1_555 1_555
C32 C31 1.517 1_555 1_555
H19 C32 0.990 1_555 1_555
H20 C32 0.990 1_555 1_555
C33 C32 1.517 1_555 1_555
H21 C33 0.990 1_555 1_555
H22 C33 0.990 1_555 1_555
C34 C33 1.520 1_555 1_555
H23 C34 0.980 1_555 1_555
H24 C34 0.980 1_555 1_555
H25 C34 0.980 1_555 1_555
C35 C5 1.561 1_555 1_555
H26 C35 0.991 1_555 1_555
H27 C35 0.990 1_555 1_555
C36 C35 1.520 1_555 1_555
H28 C36 0.990 1_555 1_555
H29 C36 0.990 1_555 1_555
C37 C36 1.520 1_555 1_555
H30 C37 0.990 1_555 1_555
H31 C37 0.990 1_555 1_555
C38 C37 1.520 1_555 1_555
H32 C38 0.980 1_555 1_555
H33 C38 0.980 1_555 1_555
H34 C38 0.980 1_555 1_555
C7 C16 1.412 1_555 1_555
C12 C18 1.502 1_555 1_555
C13 C14 1.425 1_555 1_555
C15 C18 1.389 1_555 1_555
C16 C17 1.444 1_555 1_555
C19 C24 1.411 1_555 1_555
C23 C24 1.395 1_555 1_555
C25 C30 1.419 1_555 1_555
C29 C30 1.387 1_555 1_555
#END
