
#######################################################################
#
#                 Cambridge Crystallographic Data Centre
#                                CCDC
#
#######################################################################
#
# If this CIF has been generated from an entry in the Cambridge
# Structural Database, then it will include bibliographic, chemical,
# crystal, experimental, refinement or atomic coordinate data resulting
# from the CCDC's data processing and validation procedures.
#
#######################################################################

data_CSD_CIF_FUYZUW
_audit_creation_date 2016-01-07
_audit_creation_method CSD-ConQuest-V1
_database_code_CSD FUYZUW
_database_code_depnum_ccdc_archive 'CCDC 1424720'
_chemical_formula_sum 'C34 H18'
_chemical_formula_moiety
;
C34 H18
;
_journal_coden_Cambridge 4
_journal_volume 137
_journal_year 2015
_journal_page_first 16203
_journal_name_full 'J.Am.Chem.Soc. '
loop_
_publ_author_name
"Xiao Gu"
"Xiaomin Xu"
"Huiyan Li"
"Zhifeng Liu"
"Qian Miao"
_chemical_name_systematic
;
Dibenzo[a,m]rubicene
;
_cell_volume   4000.958
_exptl_crystal_colour 'orange'
_exptl_crystal_density_diffrn 1.416
_exptl_crystal_description 'block'
_diffrn_ambient_temperature 296
#These two values have been output from a single CSD field.
_refine_ls_R_factor_gt 0.047
_refine_ls_wR_factor_gt 0.047
_symmetry_cell_setting monoclinic
_symmetry_space_group_name_H-M 'C 2/c'
_symmetry_Int_Tables_number 15
loop_
_symmetry_equiv_pos_site_id
_symmetry_equiv_pos_as_xyz
1 x,y,z
2 -x,y,1/2-z
3 1/2+x,1/2+y,z
4 1/2-x,1/2+y,1/2-z
5 -x,-y,-z
6 x,-y,-1/2+z
7 -1/2-x,-1/2-y,-z
8 -1/2+x,-1/2-y,-1/2+z
_cell_length_a 45.980(4)
_cell_length_b 3.9168(3)
_cell_length_c 23.698(2)
_cell_angle_alpha 90
_cell_angle_beta 110.371(2)
_cell_angle_gamma 90
_cell_formula_units_Z 8
loop_
_atom_type_symbol
_atom_type_radius_bond
C 0.68
H 0.23
loop_
_atom_site_label
_atom_site_type_symbol
_atom_site_fract_x
_atom_site_fract_y
_atom_site_fract_z
C1 C 0.18153(5) 0.7792(6) 0.22442(10)
C2 C 0.20588(5) 0.6641(6) 0.21080(11)
H1 H 0.22270 0.56620 0.24060
C3 C 0.20586(5) 0.6922(6) 0.15038(11)
C4 C 0.23265(5) 0.6147(6) 0.13754(12)
H2 H 0.24970 0.52230 0.16760
C5 C 0.23421(6) 0.6719(7) 0.08185(12)
H3 H 0.25190 0.61110 0.07380
C6 C 0.20930(5) 0.8210(6) 0.03728(11)
H4 H 0.21080 0.87200 0.00000
C7 C 0.18241(5) 0.8936(6) 0.04813(11)
H5 H 0.16600 0.99520 0.01800
C8 C 0.17925(5) 0.8180(6) 0.10352(10)
C9 C 0.15099(5) 0.8904(5) 0.11667(10)
C10 C 0.12056(5) 0.9452(5) 0.07619(10)
C11 C 0.10386(5) 0.8813(6) 0.01111(10)
C12 C 0.11203(5) 0.7179(6) -0.0333(1)
H6 H 0.13190 0.63070 -0.02440
C13 C 0.09033(6) 0.6856(6) -0.09095(11)
H7 H 0.09600 0.57890 -0.12060
C14 C 0.06045(6) 0.8084(7) -0.10521(11)
H8 H 0.04640 0.79070 -0.14430
C15 C 0.05154(6) 0.9586(6) -0.06071(11)
H9 H 0.03130 1.03680 -0.06960
C16 C 0.07294(5) 0.9909(6) -0.00311(11)
C17 C 0.06916(5) 1.1122(6) 0.05261(11)
C18 C 0.04447(5) 1.2280(6) 0.06467(11)
H10 H 0.02530 1.24590 0.03400
C19 C 0.04785(5) 1.3239(6) 0.12505(11)
C20 C 0.02252(6) 1.4690(6) 0.13670(12)
H11 H 0.00350 1.48580 0.10550
C21 C 0.02515(6) 1.5861(6) 0.19276(13)
H12 H 0.00800 1.67480 0.19990
C22 C 0.05372(6) 1.5706(6) 0.23869(12)
H13 H 0.05600 1.65980 0.27640
C23 C 0.07875(5) 1.4242(6) 0.22898(11)
H14 H 0.09770 1.41700 0.26050
C24 C 0.07665(5) 1.2852(6) 0.17311(10)
C25 C 0.10281(5) 1.1256(5) 0.16155(10)
C26 C 0.09846(5) 1.0686(5) 0.10034(10)
C27 C 0.13165(5) 1.0071(6) 0.20249(10)
C28 C 0.15419(5) 0.9029(5) 0.17774(10)
C29 C 0.14515(5) 0.9319(5) 0.26845(10)
C30 C 0.13384(5) 0.9445(6) 0.31559(10)
H15 H 0.11400 1.02760 0.30890
C31 C 0.15201(6) 0.8336(6) 0.37257(11)
H16 H 0.14420 0.84710 0.40390
C32 C 0.18145(6) 0.7033(6) 0.38377(11)
H17 H 0.19340 0.63190 0.42230
C33 C 0.19303(5) 0.6798(6) 0.33749(11)
H18 H 0.21270 0.58890 0.34440
C34 C 0.17515(5) 0.7929(6) 0.28071(10)
loop_
_geom_bond_atom_site_label_1
_geom_bond_atom_site_label_2
_geom_bond_distance
_geom_bond_site_symmetry_1
_geom_bond_site_symmetry_2
C1 C2 1.346 1_555 1_555
C2 H1 0.929 1_555 1_555
C3 C2 1.436 1_555 1_555
C4 C3 1.401 1_555 1_555
H2 C4 0.930 1_555 1_555
C5 C4 1.365 1_555 1_555
H3 C5 0.929 1_555 1_555
C6 C5 1.388 1_555 1_555
H4 C6 0.931 1_555 1_555
C7 C6 1.377 1_555 1_555
H5 C7 0.929 1_555 1_555
C8 C3 1.424 1_555 1_555
C9 C8 1.466 1_555 1_555
C10 C9 1.411 1_555 1_555
C11 C10 1.485 1_555 1_555
C12 C11 1.391 1_555 1_555
H6 C12 0.928 1_555 1_555
C13 C12 1.389 1_555 1_555
H7 C13 0.929 1_555 1_555
C14 C13 1.382 1_555 1_555
H8 C14 0.929 1_555 1_555
C15 C14 1.388 1_555 1_555
H9 C15 0.932 1_555 1_555
C16 C11 1.409 1_555 1_555
C17 C16 1.469 1_555 1_555
C18 C17 1.342 1_555 1_555
H10 C18 0.930 1_555 1_555
C19 C18 1.435 1_555 1_555
C20 C19 1.407 1_555 1_555
H11 C20 0.930 1_555 1_555
C21 C20 1.370 1_555 1_555
H12 C21 0.930 1_555 1_555
C22 C21 1.385 1_555 1_555
H13 C22 0.931 1_555 1_555
C23 C22 1.375 1_555 1_555
H14 C23 0.930 1_555 1_555
C24 C19 1.423 1_555 1_555
C25 C24 1.464 1_555 1_555
C26 C10 1.414 1_555 1_555
C27 C25 1.421 1_555 1_555
C28 C1 1.439 1_555 1_555
C29 C27 1.497 1_555 1_555
C30 C29 1.388 1_555 1_555
H15 C30 0.929 1_555 1_555
C31 C30 1.387 1_555 1_555
H16 C31 0.932 1_555 1_555
C32 C31 1.383 1_555 1_555
H17 C32 0.930 1_555 1_555
C33 C32 1.379 1_555 1_555
H18 C33 0.932 1_555 1_555
C34 C1 1.463 1_555 1_555
C7 C8 1.402 1_555 1_555
C9 C28 1.404 1_555 1_555
C15 C16 1.383 1_555 1_555
C17 C26 1.436 1_555 1_555
C23 C24 1.403 1_555 1_555
C25 C26 1.411 1_555 1_555
C27 C28 1.417 1_555 1_555
C29 C34 1.416 1_555 1_555
C33 C34 1.383 1_555 1_555
#END
