
#######################################################################
#
#                 Cambridge Crystallographic Data Centre
#                                CCDC
#
#######################################################################
#
# If this CIF has been generated from an entry in the Cambridge
# Structural Database, then it will include bibliographic, chemical,
# crystal, experimental, refinement or atomic coordinate data resulting
# from the CCDC's data processing and validation procedures.
#
#######################################################################

data_CSD_CIF_GABMAA
_audit_creation_date 2016-01-25
_audit_creation_method CSD-ConQuest-V1
_database_code_CSD GABMAA
_database_code_depnum_ccdc_archive 'CCDC 1423236'
_chemical_formula_sum 'C30 H18'
_chemical_formula_moiety
;
C30 H18
;
_journal_coden_Cambridge 1291
_journal_year 2016
_journal_page_first 569
_journal_name_full 'Eur.J.Org.Chem. '
loop_
_publ_author_name
"T.Wombacher"
"S.Foro"
"J.J.Schneider"
_chemical_name_systematic
;
4b,8b-dihydrodiindeno[1,2,3-fg:1',2',3'-op]tetracene
;
_cell_volume    875.877
_exptl_crystal_colour 'light green'
_exptl_crystal_density_diffrn 1.435
_exptl_crystal_description 'needle'
_diffrn_ambient_temperature 293
#These two values have been output from a single CSD field.
_refine_ls_R_factor_gt 0.0508
_refine_ls_wR_factor_gt 0.0508
_symmetry_cell_setting monoclinic
_symmetry_space_group_name_H-M 'P 21'
_symmetry_Int_Tables_number 4
loop_
_symmetry_equiv_pos_site_id
_symmetry_equiv_pos_as_xyz
1 x,y,z
2 -x,1/2+y,-z
_cell_length_a 10.735(2)
_cell_length_b 8.139(1)
_cell_length_c 11.144(2)
_cell_angle_alpha 90
_cell_angle_beta 115.90(2)
_cell_angle_gamma 90
_cell_formula_units_Z 2
loop_
_atom_type_symbol
_atom_type_radius_bond
C 0.68
H 0.23
loop_
_atom_site_label
_atom_site_type_symbol
_atom_site_fract_x
_atom_site_fract_y
_atom_site_fract_z
C1 C 0.3867(5) 0.4815(6) 0.2682(4)
C2 C 0.5126(5) 0.4000(6) 0.3252(4)
H1 H 0.56580 0.39480 0.27810
C3 C 0.5608(5) 0.3282(6) 0.4455(5)
H2 H 0.64670 0.27650 0.48160
C4 C 0.4817(6) 0.3320(7) 0.5151(4)
H3 H 0.51460 0.28360 0.59890
C5 C 0.3584(5) 0.4047(6) 0.4626(4)
H4 H 0.30510 0.40210 0.50970
C6 C 0.3064(5) 0.4843(6) 0.3401(4)
C7 C 0.1794(5) 0.5670(6) 0.2849(4)
C8 C 0.0588(5) 0.5723(6) 0.3111(4)
C9 C 0.0348(6) 0.5061(7) 0.4121(5)
H5 H 0.10280 0.44470 0.47920
C10 C -0.0904(7) 0.5318(8) 0.4127(5)
H6 H -0.10830 0.48570 0.48000
C11 C -0.1891(6) 0.6234(8) 0.3168(6)
H7 H -0.27280 0.64180 0.32040
C12 C -0.1676(5) 0.6894(6) 0.2146(5)
H8 H -0.23560 0.75260 0.14900
C13 C -0.0441(5) 0.6603(6) 0.2111(4)
C14 C 0.0048(5) 0.7233(6) 0.1141(4)
H9 H 0.00970 0.84350 0.11980
C15 C -0.0625(5) 0.6738(6) -0.0306(4)
C16 C -0.1994(5) 0.6324(6) -0.0932(4)
H10 H -0.25210 0.63590 -0.04560
C17 C -0.2603(5) 0.5860(7) -0.2232(5)
H11 H -0.35330 0.55630 -0.26380
C18 C -0.1842(5) 0.5835(6) -0.2935(4)
H12 H -0.22490 0.55280 -0.38280
C19 C -0.0497(5) 0.6256(6) -0.2336(4)
H13 H 0.00110 0.62510 -0.28310
C20 C 0.0149(4) 0.6690(6) -0.1020(4)
C21 C 0.1661(4) 0.7098(6) -0.0353(4)
H14 H 0.17740 0.82930 -0.03540
C22 C 0.2653(4) 0.6300(6) -0.0774(4)
C23 C 0.2730(5) 0.6385(6) -0.1952(4)
H15 H 0.20890 0.70080 -0.26480
C24 C 0.3749(5) 0.5555(6) -0.2118(5)
H16 H 0.37870 0.55940 -0.29350
C25 C 0.4709(5) 0.4669(7) -0.1095(5)
H17 H 0.53930 0.40950 -0.12200
C26 C 0.4671(5) 0.4621(6) 0.0112(4)
H18 H 0.53350 0.40310 0.08150
C27 C 0.3654(4) 0.5443(6) 0.0282(4)
C28 C 0.3354(4) 0.5568(6) 0.1420(4)
C29 C 0.2215(4) 0.6519(6) 0.1033(4)
C30 C 0.1449(4) 0.6575(5) 0.1726(4)
loop_
_geom_bond_atom_site_label_1
_geom_bond_atom_site_label_2
_geom_bond_distance
_geom_bond_site_symmetry_1
_geom_bond_site_symmetry_2
C1 C2 1.386 1_555 1_555
C2 H1 0.930 1_555 1_555
C3 C2 1.342 1_555 1_555
H2 C3 0.930 1_555 1_555
C4 C3 1.378 1_555 1_555
H3 C4 0.929 1_555 1_555
C5 C4 1.330 1_555 1_555
H4 C5 0.930 1_555 1_555
C6 C1 1.410 1_555 1_555
C7 C6 1.399 1_555 1_555
C8 C7 1.447 1_555 1_555
C9 C8 1.370 1_555 1_555
H5 C9 0.930 1_555 1_555
C10 C9 1.363 1_555 1_555
H6 C10 0.931 1_555 1_555
C11 C10 1.353 1_555 1_555
H7 C11 0.929 1_555 1_555
C12 C11 1.367 1_555 1_555
H8 C12 0.930 1_555 1_555
C13 C8 1.378 1_555 1_555
C14 C13 1.484 1_555 1_555
H9 C14 0.980 1_555 1_555
C15 C14 1.506 1_555 1_555
C16 C15 1.365 1_555 1_555
H10 C16 0.930 1_555 1_555
C17 C16 1.357 1_555 1_555
H11 C17 0.930 1_555 1_555
C18 C17 1.357 1_555 1_555
H12 C18 0.929 1_555 1_555
C19 C18 1.344 1_555 1_555
H13 C19 0.930 1_555 1_555
C20 C15 1.379 1_555 1_555
C21 C20 1.498 1_555 1_555
H14 C21 0.980 1_555 1_555
C22 C21 1.487 1_555 1_555
C23 C22 1.353 1_555 1_555
H15 C23 0.931 1_555 1_555
C24 C23 1.365 1_555 1_555
H16 C24 0.930 1_555 1_555
C25 C24 1.362 1_555 1_555
H17 C25 0.931 1_555 1_555
C26 C25 1.364 1_555 1_555
H18 C26 0.930 1_555 1_555
C27 C22 1.386 1_555 1_555
C28 C1 1.407 1_555 1_555
C29 C21 1.469 1_555 1_555
C30 C7 1.357 1_555 1_555
C5 C6 1.389 1_555 1_555
C12 C13 1.364 1_555 1_555
C14 C30 1.455 1_555 1_555
C19 C20 1.367 1_555 1_555
C26 C27 1.362 1_555 1_555
C27 C28 1.442 1_555 1_555
C28 C29 1.349 1_555 1_555
C29 C30 1.353 1_555 1_555
#END
