
#######################################################################
#
#                 Cambridge Crystallographic Data Centre
#                                CCDC
#
#######################################################################
#
# If this CIF has been generated from an entry in the Cambridge
# Structural Database, then it will include bibliographic, chemical,
# crystal, experimental, refinement or atomic coordinate data resulting
# from the CCDC's data processing and validation procedures.
#
#######################################################################

data_CSD_CIF_GAMWOI
_audit_creation_date 2012-03-13
_audit_creation_method CSD-ConQuest-V1
_database_code_CSD GAMWOI
_database_code_depnum_ccdc_archive 'CCDC 835496'
_chemical_formula_sum 'C30 H16'
_chemical_formula_moiety
;
C30 H16
;
_journal_coden_Cambridge 4
_journal_volume 133
_journal_year 2011
_journal_page_first 16319
_journal_name_full 'J.Am.Chem.Soc. '
loop_
_publ_author_name
"Tsun-Chen Wu"
"Hsin-Ju Hsin"
"Ming-Yu Kuo"
"Ching-Hsiu Li"
"Yao-Ting Wu"
_chemical_name_systematic
;
13-Methyl-1H-acenaphtho[3,2,1,8-fghij]cyclopenta[pqr]picene
;
_cell_volume   3714.888
_exptl_crystal_colour 'yellow'
_exptl_crystal_density_diffrn 1.346
_diffrn_ambient_temperature 100
#These two values have been output from a single CSD field.
_refine_ls_R_factor_gt 0.0643
_refine_ls_wR_factor_gt 0.0643
_symmetry_cell_setting orthorhombic
_symmetry_space_group_name_H-M 'P n a 21'
_symmetry_Int_Tables_number 33
loop_
_symmetry_equiv_pos_site_id
_symmetry_equiv_pos_as_xyz
1 x,y,z
2 -x,-y,1/2+z
3 1/2-x,1/2+y,1/2+z
4 1/2+x,1/2-y,z
_cell_length_a 20.405(12)
_cell_length_b 23.455(14)
_cell_length_c 7.762(4)
_cell_angle_alpha 90
_cell_angle_beta 90
_cell_angle_gamma 90
_cell_formula_units_Z 8
loop_
_atom_type_symbol
_atom_type_radius_bond
C 0.68
H 0.23
loop_
_atom_site_label
_atom_site_type_symbol
_atom_site_fract_x
_atom_site_fract_y
_atom_site_fract_z
C1 C 0.6631(2) 0.5037(2) 0.5306(8)
H1 H 0.68370 0.47330 0.59050
C2 C 0.5952(2) 0.50776(18) 0.5274(7)
H2 H 0.56990 0.47910 0.58250
C3 C 0.5622(2) 0.55369(17) 0.4440(6)
C4 C 0.6017(2) 0.59806(17) 0.3600(6)
C5 C 0.5686(2) 0.64846(17) 0.2771(6)
C6 C 0.5936(2) 0.70767(17) 0.2621(6)
C7 C 0.5491(2) 0.75184(17) 0.2231(6)
C8 C 0.5515(2) 0.81839(18) 0.2435(7)
H3 H 0.57910 0.82970 0.34270
H4 H 0.56860 0.83680 0.13790
C9 C 0.4780(2) 0.83417(18) 0.2747(6)
C10 C 0.4467(2) 0.88223(19) 0.3393(7)
H5 H 0.47020 0.91680 0.35420
C11 C 0.3791(3) 0.87910(19) 0.3828(7)
H6 H 0.35710 0.91290 0.41730
C12 C 0.7011(2) 0.54496(19) 0.4442(8)
H7 H 0.74750 0.54150 0.44180
C13 C 0.6706(2) 0.59119(19) 0.3619(7)
H8 H 0.69720 0.61880 0.30550
C14 C 0.4903(2) 0.55684(17) 0.4424(6)
C15 C 0.4435(2) 0.53094(19) 0.5616(7)
H9 H 0.45740 0.49960 0.62990
C16 C 0.3793(2) 0.55043(18) 0.5792(7)
H10 H 0.35060 0.53180 0.65750
C17 C 0.3552(2) 0.59889(18) 0.4794(7)
C18 C 0.3971(2) 0.61693(17) 0.3458(6)
C19 C 0.3940(2) 0.67352(18) 0.2713(7)
C20 C 0.4585(2) 0.68457(18) 0.2002(6)
C21 C 0.5023(2) 0.63970(17) 0.2427(6)
C22 C 0.4633(2) 0.59637(17) 0.3301(6)
C23 C 0.6627(2) 0.72344(18) 0.3155(7)
H11 H 0.66630 0.76500 0.32520
H12 H 0.69380 0.70960 0.22880
H13 H 0.67270 0.70590 0.42710
C24 C 0.4395(2) 0.78512(17) 0.2503(6)
C25 C 0.3741(2) 0.77677(18) 0.3125(7)
C26 C 0.3517(2) 0.71633(18) 0.3353(7)
C27 C 0.3027(2) 0.69513(19) 0.4563(7)
H14 H 0.26900 0.72030 0.49220
C28 C 0.3030(2) 0.63924(19) 0.5225(7)
H15 H 0.26850 0.62750 0.59660
C29 C 0.3435(2) 0.82725(19) 0.3767(7)
H16 H 0.29930 0.82610 0.41510
C30 C 0.4813(2) 0.73922(18) 0.2006(6)
C31 C 0.8429(2) 0.11720(19) 0.3872(7)
H17 H 0.82140 0.08330 0.42320
C32 C 0.9108(2) 0.11427(18) 0.3423(7)
H18 H 0.93490 0.08000 0.35800
C33 C 0.9405(2) 0.16244(18) 0.2756(6)
C34 C 1.0142(2) 0.17959(17) 0.2432(7)
H19 H 1.04210 0.16910 0.34260
H20 H 1.03160 0.16110 0.13810
C35 C 1.0106(2) 0.24602(17) 0.2209(6)
C36 C 1.0544(2) 0.29056(17) 0.2591(6)
C37 C 1.0288(2) 0.34958(16) 0.2763(6)
C38 C 1.0609(2) 0.39999(16) 0.3599(6)
C39 C 1.0213(2) 0.44396(16) 0.4448(6)
C40 C 1.0538(2) 0.48945(17) 0.5293(6)
H21 H 1.02830 0.51760 0.58620
C41 C 1.1221(2) 0.49427(18) 0.5318(7)
H22 H 1.14270 0.52480 0.59120
C42 C 0.8066(2) 0.16853(18) 0.3801(6)
H23 H 0.76250 0.16910 0.41960
C43 C 0.8356(2) 0.21946(17) 0.3140(6)
C44 C 0.8135(2) 0.27980(17) 0.3381(7)
C45 C 0.7638(2) 0.29995(18) 0.4595(7)
H24 H 0.73000 0.27450 0.49380
C46 C 0.7640(2) 0.35496(17) 0.5268(7)
H25 H 0.72970 0.36630 0.60220
C47 C 0.8154(2) 0.39566(16) 0.4845(6)
C48 C 0.8388(2) 0.44356(17) 0.5858(7)
H26 H 0.80990 0.46120 0.66570
C49 C 0.9027(2) 0.46440(17) 0.5685(6)
H27 H 0.91650 0.49520 0.63930
C50 C 0.9487(2) 0.44024(16) 0.4449(6)
C51 C 0.9227(2) 0.40056(16) 0.3318(6)
C52 C 0.8571(2) 0.37876(17) 0.3491(6)
C53 C 0.8543(2) 0.32292(17) 0.2748(6)
C54 C 0.9187(2) 0.31263(17) 0.2017(6)
C55 C 0.9427(2) 0.25810(18) 0.2002(6)
C56 C 0.9013(2) 0.21157(17) 0.2514(6)
C57 C 1.1302(2) 0.40746(17) 0.3613(6)
H28 H 1.15700 0.38050 0.30340
C58 C 1.1598(2) 0.45327(18) 0.4453(7)
H29 H 1.20620 0.45680 0.44390
C59 C 0.9613(2) 0.35802(17) 0.2423(6)
C60 C 1.1242(2) 0.27455(18) 0.3143(7)
H30 H 1.12750 0.23300 0.32600
H31 H 1.13420 0.29260 0.42520
H32 H 1.15540 0.28780 0.22720
loop_
_geom_bond_atom_site_label_1
_geom_bond_atom_site_label_2
_geom_bond_distance
_geom_bond_site_symmetry_1
_geom_bond_site_symmetry_2
C1 H1 0.949 1_555 1_555
C2 C1 1.389 1_555 1_555
H2 C2 0.949 1_555 1_555
C3 C2 1.426 1_555 1_555
C4 C3 1.469 1_555 1_555
C5 C4 1.506 1_555 1_555
C6 C5 1.484 1_555 1_555
C7 C6 1.410 1_555 1_555
C8 C7 1.570 1_555 1_555
H3 C8 0.990 1_555 1_555
H4 C8 0.990 1_555 1_555
C9 C8 1.564 1_555 1_555
C10 C9 1.389 1_555 1_555
H5 C10 0.949 1_555 1_555
C11 C10 1.422 1_555 1_555
H6 C11 0.950 1_555 1_555
C12 C1 1.410 1_555 1_555
H7 C12 0.950 1_555 1_555
C13 C4 1.415 1_555 1_555
H8 C13 0.952 1_555 1_555
C14 C3 1.469 1_555 1_555
C15 C14 1.462 1_555 1_555
H9 C15 0.950 1_555 1_555
C16 C15 1.394 1_555 1_555
H10 C16 0.950 1_555 1_555
C17 C16 1.461 1_555 1_555
C18 C17 1.409 1_555 1_555
C19 C18 1.449 1_555 1_555
C20 C19 1.450 1_555 1_555
C21 C5 1.394 1_555 1_555
C22 C14 1.387 1_555 1_555
C23 C6 1.515 1_555 1_555
H11 C23 0.980 1_555 1_555
H12 C23 0.980 1_555 1_555
H13 C23 0.980 1_555 1_555
C24 C9 1.406 1_555 1_555
C25 C24 1.433 1_555 1_555
C26 C19 1.414 1_555 1_555
C27 C26 1.459 1_555 1_555
H14 C27 0.948 1_555 1_555
C28 C17 1.464 1_555 1_555
H15 C28 0.950 1_555 1_555
C29 C11 1.417 1_555 1_555
H16 C29 0.950 1_555 1_555
C30 C7 1.426 1_555 1_555
C31 H17 0.950 1_555 1_555
C32 C31 1.430 1_555 1_555
H18 C32 0.950 1_555 1_555
C33 C32 1.383 1_555 1_555
C34 C33 1.577 1_555 1_555
H19 C34 0.990 1_555 1_555
H20 C34 0.990 1_555 1_555
C35 C34 1.569 1_555 1_555
C36 C35 1.406 1_555 1_555
C37 C36 1.486 1_555 1_555
C38 C37 1.499 1_555 1_555
C39 C38 1.467 1_555 1_555
C40 C39 1.417 1_555 1_555
H21 C40 0.950 1_555 1_555
C41 C40 1.398 1_555 1_555
H22 C41 0.950 1_555 1_555
C42 C31 1.415 1_555 1_555
H23 C42 0.951 1_555 1_555
C43 C42 1.428 1_555 1_555
C44 C43 1.497 1_555 1_555
C45 C44 1.463 1_555 1_555
H24 C45 0.950 1_555 1_555
C46 C45 1.392 1_555 1_555
H25 C46 0.950 1_555 1_555
C47 C46 1.456 1_555 1_555
C48 C47 1.452 1_555 1_555
H26 C48 0.951 1_555 1_555
C49 C48 1.399 1_555 1_555
H27 C49 0.950 1_555 1_555
C50 C39 1.484 1_555 1_555
C51 C50 1.385 1_555 1_555
C52 C47 1.409 1_555 1_555
C53 C44 1.399 1_555 1_555
C54 C53 1.452 1_555 1_555
C55 C35 1.423 1_555 1_555
C56 C33 1.415 1_555 1_555
C57 C38 1.425 1_555 1_555
H28 C57 0.949 1_555 1_555
C58 C41 1.403 1_555 1_555
H29 C58 0.950 1_555 1_555
C59 C37 1.416 1_555 1_555
C60 C36 1.534 1_555 1_555
H30 C60 0.981 1_555 1_555
H31 C60 0.981 1_555 1_555
H32 C60 0.979 1_555 1_555
C12 C13 1.404 1_555 1_555
C18 C22 1.439 1_555 1_555
C20 C21 1.420 1_555 1_555
C20 C30 1.364 1_555 1_555
C21 C22 1.458 1_555 1_555
C24 C30 1.427 1_555 1_555
C25 C26 1.500 1_555 1_555
C25 C29 1.428 1_555 1_555
C27 C28 1.408 1_555 1_555
C43 C56 1.438 1_555 1_555
C49 C50 1.457 1_555 1_555
C51 C52 1.439 1_555 1_555
C51 C59 1.449 1_555 1_555
C52 C53 1.432 1_555 1_555
C54 C55 1.370 1_555 1_555
C54 C59 1.410 1_555 1_555
C55 C56 1.436 1_555 1_555
C57 C58 1.394 1_555 1_555
#END
