
#######################################################################
#
#                 Cambridge Crystallographic Data Centre
#                                CCDC
#
#######################################################################
#
# If this CIF has been generated from an entry in the Cambridge
# Structural Database, then it will include bibliographic, chemical,
# crystal, experimental, refinement or atomic coordinate data resulting
# from the CCDC's data processing and validation procedures.
#
#######################################################################

data_CSD_CIF_GASWIG
_audit_creation_date 1989-01-20
_audit_creation_method CSD-ConQuest-V1
_database_code_CSD GASWIG
_chemical_formula_sum 'C17 H16'
_chemical_formula_moiety
;
C17 H16
;
_journal_coeditor_code "IUCr AL0199"
_journal_coden_Cambridge 591
_journal_volume 44
_journal_year 1988
_journal_page_first 285
_journal_name_full 'Acta Crystallogr.,Sect.C:Cryst.Struct.Commun. '
loop_
_publ_author_name
"G.Schrumpf"
"P.G.Jones"
_chemical_name_systematic
;
9-Propylanthracene
;
_chemical_melting_point 342
_cell_volume   2590.635
_exptl_crystal_colour 'pale yellow'
_exptl_crystal_density_diffrn 1.13
_diffrn_ambient_temperature ?
_diffrn_special_details
;
The study was carried out at room temperature,in the range 283-303K

;
#These two values have been output from a single CSD field.
_refine_ls_R_factor_gt 0.057
_refine_ls_wR_factor_gt 0.057
_symmetry_cell_setting orthorhombic
_symmetry_space_group_name_H-M 'P b c a'
_symmetry_Int_Tables_number 61
loop_
_symmetry_equiv_pos_site_id
_symmetry_equiv_pos_as_xyz
1 x,y,z
2 1/2-x,1/2+y,z
3 x,1/2-y,1/2+z
4 1/2-x,-y,1/2+z
5 -x,-y,-z
6 -1/2+x,-1/2-y,-z
7 -x,-1/2+y,-1/2-z
8 -1/2+x,y,-1/2-z
_cell_length_a 7.816(2)
_cell_length_b 20.455(4)
_cell_length_c 16.204(4)
_cell_angle_alpha 90
_cell_angle_beta 90
_cell_angle_gamma 90
_cell_formula_units_Z 8
loop_
_atom_type_symbol
_atom_type_radius_bond
C 0.68
H 0.23
loop_
_atom_site_label
_atom_site_type_symbol
_atom_site_fract_x
_atom_site_fract_y
_atom_site_fract_z
C1 C 0.4913(6) 0.3096(2) 0.3331(3)
C2 C 0.5818(6) 0.2599(2) 0.2992(3)
C3 C 0.7158(6) 0.2295(2) 0.3435(3)
C4 C 0.7551(6) 0.2500(2) 0.4197(3)
C5 C 0.6635(5) 0.3018(2) 0.4580(3)
C6 C 0.6486(6) 0.3880(2) 0.6599(3)
C7 C 0.5544(6) 0.4338(2) 0.7001(3)
C8 C 0.4187(7) 0.4653(2) 0.6581(4)
C9 C 0.3804(5) 0.4504(2) 0.5791(3)
C10 C 0.4733(5) 0.4020(2) 0.5345(3)
C11 C 0.4346(4) 0.3841(2) 0.4533(3)
C12 C 0.5270(5) 0.3332(2) 0.4146(3)
C13 C 0.7039(5) 0.3211(2) 0.5373(3)
C14 C 0.6120(5) 0.3702(2) 0.5768(2)
C15 C 0.2895(5) 0.4175(2) 0.4073(3)
C16 C 0.1153(5) 0.3853(2) 0.4202(3)
C17 C -0.0250(5) 0.4218(2) 0.3743(3)
H1 H 0.40100 0.32950 0.30180
H2 H 0.55460 0.24510 0.24450
H3 H 0.77860 0.19420 0.31890
H4 H 0.84700 0.22930 0.44900
H5 H 0.74190 0.36730 0.68820
H6 H 0.57940 0.44470 0.75640
H7 H 0.35260 0.49800 0.68630
H8 H 0.28820 0.47290 0.55230
H9 H 0.79710 0.30040 0.56560
H10 H 0.28250 0.46200 0.42600
H11 H 0.31540 0.41690 0.34940
H12 H 0.08910 0.38500 0.47800
H13 H 0.12010 0.34110 0.40020
H14 H -0.13750 0.40350 0.38020
H15 H 0.00260 0.42550 0.31680
H16 H -0.02210 0.46440 0.39930
loop_
_geom_bond_atom_site_label_1
_geom_bond_atom_site_label_2
_geom_bond_distance
_geom_bond_site_symmetry_1
_geom_bond_site_symmetry_2
C1 C2 1.355 1_555 1_555
C2 C3 1.414 1_555 1_555
C3 C4 1.340 1_555 1_555
C4 C5 1.421 1_555 1_555
C5 C12 1.430 1_555 1_555
C6 C7 1.358 1_555 1_555
C7 C8 1.415 1_555 1_555
C8 C9 1.350 1_555 1_555
C9 C10 1.425 1_555 1_555
C10 C11 1.399 1_555 1_555
C11 C12 1.414 1_555 1_555
C12 C1 1.434 1_555 1_555
C13 C5 1.381 1_555 1_555
C14 C6 1.424 1_555 1_555
C15 C11 1.519 1_555 1_555
C16 C15 1.527 1_555 1_555
C17 C16 1.521 1_555 1_555
H1 C1 0.960 1_555 1_555
H2 C2 0.960 1_555 1_555
H3 C3 0.960 1_555 1_555
H4 C4 0.959 1_555 1_555
H5 C6 0.960 1_555 1_555
H6 C7 0.959 1_555 1_555
H7 C8 0.961 1_555 1_555
H8 C9 0.959 1_555 1_555
H9 C13 0.959 1_555 1_555
H10 C15 0.961 1_555 1_555
H11 C15 0.960 1_555 1_555
H12 C16 0.959 1_555 1_555
H13 C16 0.961 1_555 1_555
H14 C17 0.960 1_555 1_555
H15 C17 0.959 1_555 1_555
H16 C17 0.961 1_555 1_555
C10 C14 1.438 1_555 1_555
C13 C14 1.391 1_555 1_555
#END
