
#######################################################################
#
#                 Cambridge Crystallographic Data Centre
#                                CCDC
#
#######################################################################
#
# If this CIF has been generated from an entry in the Cambridge
# Structural Database, then it will include bibliographic, chemical,
# crystal, experimental, refinement or atomic coordinate data resulting
# from the CCDC's data processing and validation procedures.
#
#######################################################################

data_CSD_CIF_GAWWEG
_audit_creation_date 1989-02-16
_audit_creation_method CSD-ConQuest-V1
_database_code_CSD GAWWEG
_chemical_formula_sum 'C17 H14'
_chemical_formula_moiety
;
C17 H14
;
_journal_coden_Cambridge 582
_journal_volume 18
_journal_year 1988
_journal_page_first 67
_journal_name_full 'J.Crystallogr.Spectrosc.Res. '
loop_
_publ_author_name
"J.C.A.Boeyens"
"L.Denner"
"G.W.Perold"
_chemical_name_systematic
;
1-(o-Tolyl)-naphthalene
;
_chemical_melting_point 344.15
_cell_volume   2484.456
_exptl_crystal_colour 'colorless'
_exptl_crystal_density_diffrn 1.17
_exptl_special_details
;
Melting point range 344.15-345.15K
Some mislabelling of bond lengths in Table 3
;
_diffrn_ambient_temperature ?
_diffrn_special_details
;
The study was carried out at room temperature,in the range 283-303K

;
#These two values have been output from a single CSD field.
_refine_ls_R_factor_gt 0.08
_refine_ls_wR_factor_gt 0.08
_symmetry_cell_setting orthorhombic
_symmetry_space_group_name_H-M 'I b a 2'
_symmetry_Int_Tables_number 45
loop_
_symmetry_equiv_pos_site_id
_symmetry_equiv_pos_as_xyz
1 x,y,z
2 1/2+x,1/2+y,1/2+z
3 1/2-x,1/2+y,z
4 -x,y,1/2+z
5 1/2+x,1/2-y,z
6 x,-y,1/2+z
7 -x,-y,z
8 1/2-x,1/2-y,1/2+z
_cell_length_a 15.334(2)
_cell_length_b 21.330(3)
_cell_length_c 7.596(8)
_cell_angle_alpha 90
_cell_angle_beta 90
_cell_angle_gamma 90
_cell_formula_units_Z 8
loop_
_atom_type_symbol
_atom_type_radius_bond
C 0.68
loop_
_atom_site_label
_atom_site_type_symbol
_atom_site_fract_x
_atom_site_fract_y
_atom_site_fract_z
C1 C 0.2037(4) 0.3338(3) 0.2473(2)
C2 C 0.1944(5) 0.2711(3) 0.2798(14)
C3 C 0.1351(5) 0.2339(4) 0.1808(15)
C4 C 0.0873(5) 0.2600(4) 0.0493(15)
C5 C 0.0520(5) 0.4151(4) -0.1569(14)
C6 C 0.1091(5) 0.4533(4) -0.0611(14)
C7 C 0.1600(5) 0.4268(3) 0.0689(13)
C8 C 0.0962(4) 0.3234(3) 0.0083(13)
C9 C 0.0448(5) 0.3528(4) -0.1238(13)
C10 C 0.1544(4) 0.3619(3) 0.1084(12)
C11 C 0.2657(4) 0.3722(3) 0.3526(13)
C12 C 0.3487(5) 0.3862(4) 0.2952(14)
C13 C 0.4045(5) 0.4226(4) 0.3991(13)
C14 C 0.3759(7) 0.4460(4) 0.5597(16)
C15 C 0.2937(7) 0.4324(4) 0.6201(14)
C16 C 0.2380(5) 0.3956(4) 0.5178(14)
C17 C 0.3813(5) 0.3599(5) 0.1234(15)
loop_
_geom_bond_atom_site_label_1
_geom_bond_atom_site_label_2
_geom_bond_distance
_geom_bond_site_symmetry_1
_geom_bond_site_symmetry_2
C1 C2 1.367 1_555 1_555
C2 C3 1.422 1_555 1_555
C3 C4 1.358 1_555 1_555
C4 C8 1.394 1_555 1_555
C5 C6 1.400 1_555 1_555
C6 C7 1.380 1_555 1_555
C7 C10 1.419 1_555 1_555
C8 C9 1.422 1_555 1_555
C9 C5 1.357 1_555 1_555
C10 C1 1.430 1_555 1_555
C11 C1 1.488 1_555 1_555
C12 C11 1.378 1_555 1_555
C13 C12 1.399 1_555 1_555
C14 C13 1.389 1_555 1_555
C15 C14 1.372 1_555 1_555
C16 C11 1.416 1_555 1_555
C17 C12 1.506 1_555 1_555
C8 C10 1.431 1_555 1_555
C15 C16 1.396 1_555 1_555
#END
