
#######################################################################
#
#                 Cambridge Crystallographic Data Centre
#                                CCDC
#
#######################################################################
#
# If this CIF has been generated from an entry in the Cambridge
# Structural Database, then it will include bibliographic, chemical,
# crystal, experimental, refinement or atomic coordinate data resulting
# from the CCDC's data processing and validation procedures.
#
#######################################################################

data_CSD_CIF_GEGRER
_audit_creation_date 2012-11-07
_audit_creation_method CSD-ConQuest-V1
_database_code_CSD GEGRER
_database_code_depnum_ccdc_archive 'CCDC 881969'
_chemical_formula_sum 'C42 H24'
_chemical_formula_moiety
;
C42 H24
;
_journal_coden_Cambridge 182
_journal_volume 48
_journal_year 2012
_journal_page_first 7841
_journal_name_full 'Chem.Commun. '
loop_
_publ_author_name
"T.Takeda"
"Y.Tobe"
_chemical_name_systematic
;
1,4,5,8-tetrakis(phenylethynyl)naphthalene
;
_chemical_melting_point 415
_cell_volume   1411.212
_exptl_crystal_colour 'yellow'
_exptl_crystal_density_diffrn 1.244
_exptl_special_details
;
Melting point range 415-417K

;
_exptl_crystal_description 'platelet'
_exptl_crystal_preparation 'benzene/acetonitrile'
_diffrn_ambient_temperature 113
#These two values have been output from a single CSD field.
_refine_ls_R_factor_gt 0.0384
_refine_ls_wR_factor_gt 0.0384
_symmetry_cell_setting triclinic
_symmetry_space_group_name_H-M 'P -1'
_symmetry_Int_Tables_number 2
loop_
_symmetry_equiv_pos_site_id
_symmetry_equiv_pos_as_xyz
1 x,y,z
2 -x,-y,-z
_cell_length_a 9.3787(8)
_cell_length_b 10.1906(11)
_cell_length_c 15.9496(18)
_cell_angle_alpha 87.263(4)
_cell_angle_beta 88.165(4)
_cell_angle_gamma 67.961(3)
_cell_formula_units_Z 2
loop_
_atom_type_symbol
_atom_type_radius_bond
C 0.68
H 0.23
loop_
_atom_site_label
_atom_site_type_symbol
_atom_site_fract_x
_atom_site_fract_y
_atom_site_fract_z
C1 C 0.99571(15) 0.14049(14) 0.41727(8)
C2 C 1.12225(16) 0.16785(15) 0.43930(8)
C3 C 1.21509(17) 0.09323(15) 0.50499(9)
C4 C 0.81620(16) 0.01203(14) 0.44922(8)
C5 C 0.95182(15) 0.03880(14) 0.46615(8)
C6 C 0.92382(15) 0.20702(14) 0.34082(8)
C7 C 0.88637(15) 0.25887(14) 0.27201(8)
C8 C 0.83305(15) 0.31081(14) 0.18964(8)
C9 C 0.83784(15) 0.43832(15) 0.15621(9)
C10 C 0.77733(16) 0.48993(16) 0.07824(9)
C11 C 0.71199(17) 0.41626(17) 0.03267(9)
C12 C 0.7102(2) 0.28823(19) 0.06457(9)
C13 C 0.77082(19) 0.23540(17) 0.14209(9)
C14 C 0.70270(16) 0.09215(15) 0.38966(8)
C15 C 0.59431(16) 0.15118(15) 0.34551(9)
C16 C 0.47362(15) 0.22330(15) 0.28825(8)
C17 C 0.45530(17) 0.35775(16) 0.25481(9)
C18 C 0.34295(17) 0.42399(16) 0.19633(9)
C19 C 0.24784(17) 0.35889(17) 0.17051(10)
C20 C 0.26301(16) 0.22684(17) 0.2043(1)
C21 C 0.37438(15) 0.15913(15) 0.26305(9)
C22 C 1.01924(15) 0.58082(14) 0.39356(8)
C23 C 1.17527(17) 0.55172(17) 0.39115(9)
C24 C 0.73120(17) 0.51740(17) 0.54253(9)
C25 C 0.79104(16) 0.55971(15) 0.47108(9)
C26 C 0.95166(15) 0.53547(13) 0.46546(8)
C27 C 0.93807(15) 0.65778(14) 0.32118(8)
C28 C 0.89923(16) 0.72188(15) 0.25557(8)
C29 C 0.84845(15) 0.79178(14) 0.17622(8)
C30 C 0.70232(16) 0.89679(15) 0.16807(9)
C31 C 0.65127(17) 0.95860(16) 0.09020(9)
C32 C 0.74458(17) 0.91793(16) 0.01978(9)
C33 C 0.89077(17) 0.81609(16) 0.02735(9)
C34 C 0.94264(16) 0.75328(16) 0.10468(9)
C35 C 0.68230(16) 0.62705(15) 0.40634(9)
C36 C 0.57332(16) 0.67960(15) 0.36178(9)
C37 C 0.45079(15) 0.74192(14) 0.30400(8)
C38 C 0.30124(15) 0.81934(15) 0.33104(9)
C39 C 0.18531(17) 0.87903(16) 0.27336(11)
C40 C 0.21705(19) 0.86453(17) 0.18874(11)
C41 C 0.36394(19) 0.78768(18) 0.1619(1)
C42 C 0.48033(17) 0.72544(16) 0.21856(9)
H1 H 1.14640 0.23940 0.40880
H2 H 1.30160 0.11460 0.51880
H3 H 0.88290 0.48970 0.18730
H4 H 0.78080 0.57680 0.05590
H5 H 0.66830 0.45310 -0.02040
H6 H 0.66680 0.23640 0.03270
H7 H 0.77010 0.14690 0.16320
H8 H 0.52010 0.40360 0.27230
H9 H 0.33110 0.51530 0.17370
H10 H 0.17190 0.40460 0.12960
H11 H 0.19650 0.18260 0.18700
H12 H 0.38370 0.06880 0.28640
H13 H 1.21960 0.57990 0.34260
H14 H 0.62410 0.53600 0.54630
H15 H 0.63760 0.92600 0.21620
H16 H 0.55110 1.02970 0.08500
H17 H 0.70810 0.96000 -0.03370
H18 H 0.95580 0.78920 -0.02090
H19 H 1.04340 0.68310 0.10950
H20 H 0.27880 0.83120 0.38930
H21 H 0.08320 0.93030 0.29230
H22 H 0.13770 0.90750 0.14920
H23 H 0.38580 0.77720 0.10350
H24 H 0.58120 0.67110 0.19910
C1A C 1.00429(15) -0.14049(14) 0.58273(8)
C2A C 0.87775(16) -0.16785(15) 0.56070(8)
C3A C 0.78491(17) -0.09323(15) 0.49501(9)
C4A C 1.18380(16) -0.01203(14) 0.55078(8)
C5A C 1.04818(15) -0.03880(14) 0.53385(8)
C6A C 1.07618(15) -0.20702(14) 0.65918(8)
C7A C 1.11363(15) -0.25887(14) 0.72799(8)
C8A C 1.16695(15) -0.31081(14) 0.81036(8)
C9A C 1.16216(15) -0.43832(15) 0.84379(9)
C10A C 1.22267(16) -0.48993(16) 0.92176(9)
C11A C 1.28801(17) -0.41626(17) 0.96733(9)
C12A C 1.2898(2) -0.28823(19) 0.93543(9)
C13A C 1.22918(19) -0.23540(17) 0.85791(9)
C14A C 1.29730(16) -0.09215(15) 0.61034(8)
C15A C 1.40569(16) -0.15118(15) 0.65449(9)
C16A C 1.52638(15) -0.22330(15) 0.71175(8)
C17A C 1.54470(17) -0.35775(16) 0.74519(9)
C18A C 1.65705(17) -0.42399(16) 0.80367(9)
C19A C 1.75216(17) -0.35889(17) 0.82949(10)
C20A C 1.73699(16) -0.22684(17) 0.7957(1)
C21A C 1.62562(15) -0.15913(15) 0.73695(9)
C22A C 0.98076(15) 0.41918(14) 0.60644(8)
C23A C 0.82473(17) 0.44828(17) 0.60885(9)
C24A C 1.26880(17) 0.48260(17) 0.45747(9)
C25A C 1.20896(16) 0.44029(15) 0.52892(9)
C26A C 1.04834(15) 0.46453(13) 0.53454(8)
C27A C 1.06193(15) 0.34222(14) 0.67882(8)
C28A C 1.10077(16) 0.27812(15) 0.74443(8)
C29A C 1.15155(15) 0.20822(14) 0.82378(8)
C30A C 1.29768(16) 0.10321(15) 0.83193(9)
C31A C 1.34873(17) 0.04140(16) 0.90980(9)
C32A C 1.25542(17) 0.08207(16) 0.98022(9)
C33A C 1.10923(17) 0.18391(16) 0.97265(9)
C34A C 1.05736(16) 0.24672(16) 0.89532(9)
C35A C 1.31770(16) 0.37295(15) 0.59366(9)
C36A C 1.42668(16) 0.32040(15) 0.63822(9)
C37A C 1.54921(15) 0.25808(14) 0.69600(8)
C38A C 1.69876(15) 0.18066(15) 0.66896(9)
C39A C 1.81469(17) 0.12097(16) 0.72664(11)
C40A C 1.78295(19) 0.13547(17) 0.81126(11)
C41A C 1.63606(19) 0.21232(18) 0.8381(1)
C42A C 1.51967(17) 0.27456(16) 0.78144(9)
H1A H 0.85360 -0.23940 0.59120
H2A H 0.69840 -0.11460 0.48120
H3A H 1.11710 -0.48970 0.81270
H4A H 1.21920 -0.57680 0.94410
H5A H 1.33170 -0.45310 1.02040
H6A H 1.33320 -0.23640 0.96730
H7A H 1.22990 -0.14690 0.83680
H8A H 1.47990 -0.40360 0.72770
H9A H 1.66890 -0.51530 0.82630
H10A H 1.82810 -0.40460 0.87040
H11A H 1.80350 -0.18260 0.81300
H12A H 1.61630 -0.06880 0.71360
H13A H 0.78040 0.42010 0.65740
H14A H 1.37590 0.46400 0.45370
H15A H 1.36240 0.07400 0.78380
H16A H 1.44890 -0.02970 0.91500
H17A H 1.29190 0.04000 1.03370
H18A H 1.04420 0.21080 1.02090
H19A H 0.95660 0.31690 0.89050
H20A H 1.72120 0.16880 0.61070
H21A H 1.91680 0.06970 0.70770
H22A H 1.86230 0.09250 0.85080
H23A H 1.61420 0.22280 0.89650
H24A H 1.41880 0.32890 0.80090
loop_
_geom_bond_atom_site_label_1
_geom_bond_atom_site_label_2
_geom_bond_distance
_geom_bond_site_symmetry_1
_geom_bond_site_symmetry_2
C1 C2 1.376 1_555 1_555
C2 C3 1.385 1_555 1_555
C3 H2 0.950 1_555 1_555
C4 C5 1.433 1_555 1_555
C5 C1 1.440 1_555 1_555
C6 C1 1.425 1_555 1_555
C7 C6 1.199 1_555 1_555
C8 C7 1.426 1_555 1_555
C9 C8 1.397 1_555 1_555
C10 C9 1.380 1_555 1_555
C11 C10 1.376 1_555 1_555
C12 C11 1.383 1_555 1_555
C13 C8 1.388 1_555 1_555
C14 C4 1.428 1_555 1_555
C15 C14 1.199 1_555 1_555
C16 C15 1.426 1_555 1_555
C17 C16 1.397 1_555 1_555
C18 C17 1.380 1_555 1_555
C19 C18 1.378 1_555 1_555
C20 C19 1.383 1_555 1_555
C21 C16 1.400 1_555 1_555
C22 C23 1.379 1_555 1_555
C23 H13 0.950 1_555 1_555
C24 C25 1.376 1_555 1_555
C25 C26 1.433 1_555 1_555
C26 C22 1.433 1_555 1_555
C27 C22 1.431 1_555 1_555
C28 C27 1.198 1_555 1_555
C29 C28 1.426 1_555 1_555
C30 C29 1.392 1_555 1_555
C31 C30 1.380 1_555 1_555
C32 C31 1.381 1_555 1_555
C33 C32 1.379 1_555 1_555
C34 C29 1.398 1_555 1_555
C35 C25 1.432 1_555 1_555
C36 C35 1.198 1_555 1_555
C37 C36 1.427 1_555 1_555
C38 C37 1.392 1_555 1_555
C39 C38 1.383 1_555 1_555
C40 C39 1.376 1_555 1_555
C41 C40 1.371 1_555 1_555
C42 C37 1.387 1_555 1_555
H1 C2 0.950 1_555 1_555
H3 C9 0.950 1_555 1_555
H4 C10 0.950 1_555 1_555
H5 C11 0.950 1_555 1_555
H6 C12 0.950 1_555 1_555
H7 C13 0.950 1_555 1_555
H8 C17 0.950 1_555 1_555
H9 C18 0.949 1_555 1_555
H10 C19 0.950 1_555 1_555
H11 C20 0.950 1_555 1_555
H12 C21 0.950 1_555 1_555
H14 C24 0.950 1_555 1_555
H15 C30 0.950 1_555 1_555
H16 C31 0.950 1_555 1_555
H17 C32 0.950 1_555 1_555
H18 C33 0.951 1_555 1_555
H19 C34 0.950 1_555 1_555
H20 C38 0.949 1_555 1_555
H21 C39 0.950 1_555 1_555
H22 C40 0.950 1_555 1_555
H23 C41 0.950 1_555 1_555
H24 C42 0.950 1_555 1_555
C1A C2A 1.376 1_555 1_555
C2A C3A 1.385 1_555 1_555
C3A C4 1.385 1_555 1_555
C4A C3 1.385 1_555 1_555
C5A C5 1.433 1_555 1_555
C6A C1A 1.425 1_555 1_555
C7A C6A 1.199 1_555 1_555
C8A C7A 1.426 1_555 1_555
C9A C8A 1.397 1_555 1_555
C10A C9A 1.380 1_555 1_555
C11A C10A 1.376 1_555 1_555
C12A C11A 1.383 1_555 1_555
C13A C8A 1.388 1_555 1_555
C14A C4A 1.428 1_555 1_555
C15A C14A 1.199 1_555 1_555
C16A C15A 1.426 1_555 1_555
C17A C16A 1.397 1_555 1_555
C18A C17A 1.380 1_555 1_555
C19A C18A 1.378 1_555 1_555
C20A C19A 1.383 1_555 1_555
C21A C16A 1.400 1_555 1_555
C22A C23A 1.379 1_555 1_555
C23A C24 1.382 1_555 1_555
C24A C23 1.382 1_555 1_555
C25A C24A 1.376 1_555 1_555
C26A C26 1.433 1_555 1_555
C27A C22A 1.431 1_555 1_555
C28A C27A 1.198 1_555 1_555
C29A C28A 1.426 1_555 1_555
C30A C29A 1.392 1_555 1_555
C31A C30A 1.380 1_555 1_555
C32A C31A 1.381 1_555 1_555
C33A C32A 1.379 1_555 1_555
C34A C29A 1.398 1_555 1_555
C35A C25A 1.432 1_555 1_555
C36A C35A 1.198 1_555 1_555
C37A C36A 1.427 1_555 1_555
C38A C37A 1.392 1_555 1_555
C39A C38A 1.383 1_555 1_555
C40A C39A 1.376 1_555 1_555
C41A C40A 1.371 1_555 1_555
C42A C37A 1.387 1_555 1_555
H1A C2A 0.950 1_555 1_555
H2A C3A 0.950 1_555 1_555
H3A C9A 0.950 1_555 1_555
H4A C10A 0.950 1_555 1_555
H5A C11A 0.950 1_555 1_555
H6A C12A 0.950 1_555 1_555
H7A C13A 0.950 1_555 1_555
H8A C17A 0.950 1_555 1_555
H9A C18A 0.949 1_555 1_555
H10A C19A 0.950 1_555 1_555
H11A C20A 0.950 1_555 1_555
H12A C21A 0.950 1_555 1_555
H13A C23A 0.950 1_555 1_555
H14A C24A 0.950 1_555 1_555
H15A C30A 0.950 1_555 1_555
H16A C31A 0.950 1_555 1_555
H17A C32A 0.950 1_555 1_555
H18A C33A 0.951 1_555 1_555
H19A C34A 0.950 1_555 1_555
H20A C38A 0.949 1_555 1_555
H21A C39A 0.950 1_555 1_555
H22A C40A 0.950 1_555 1_555
H23A C41A 0.950 1_555 1_555
H24A C42A 0.950 1_555 1_555
C12 C13 1.376 1_555 1_555
C20 C21 1.380 1_555 1_555
C33 C34 1.377 1_555 1_555
C41 C42 1.378 1_555 1_555
C1A C5A 1.440 1_555 1_555
C4A C5A 1.433 1_555 1_555
C12A C13A 1.376 1_555 1_555
C20A C21A 1.380 1_555 1_555
C22A C26A 1.433 1_555 1_555
C25A C26A 1.433 1_555 1_555
C33A C34A 1.377 1_555 1_555
C41A C42A 1.378 1_555 1_555
#END
