
#######################################################################
#
#                 Cambridge Crystallographic Data Centre
#                                CCDC
#
#######################################################################
#
# If this CIF has been generated from an entry in the Cambridge
# Structural Database, then it will include bibliographic, chemical,
# crystal, experimental, refinement or atomic coordinate data resulting
# from the CCDC's data processing and validation procedures.
#
#######################################################################

data_CSD_CIF_GEPPUP
_audit_creation_date 2017-11-29
_audit_creation_method CSD-ConQuest-V1
_database_code_CSD GEPPUP
_database_code_depnum_ccdc_archive 'CCDC 1570556'
_chemical_formula_sum 'C34 H24'
_chemical_formula_moiety
;
C34 H24
;
_journal_coden_Cambridge 4
_journal_volume 139
_journal_year 2017
_journal_page_first 15933
_journal_name_full 'J.Am.Chem.Soc. '
loop_
_publ_author_name
"Zexin Jin"
"Yew Chin Teo"
"S.J.Teat"
"Yan Xia"
_chemical_name_systematic
;
5,9,14,16-tetramethylbenzo[b]benzo[6,7]biphenyleno[1,2-h]biphenylene
;
_cell_volume   2209.937
_exptl_crystal_colour 'yellow'
_exptl_crystal_density_diffrn 1.3
_exptl_crystal_description 'needle'
_diffrn_ambient_temperature 100.2
#These two values have been output from a single CSD field.
_refine_ls_R_factor_gt 0.0467
_refine_ls_wR_factor_gt 0.0467
_symmetry_cell_setting monoclinic
_symmetry_space_group_name_H-M 'P 21/c'
_symmetry_Int_Tables_number 14
loop_
_symmetry_equiv_pos_site_id
_symmetry_equiv_pos_as_xyz
1 x,y,z
2 -x,1/2+y,1/2-z
3 -x,-y,-z
4 x,-1/2-y,-1/2+z
_cell_length_a 19.9832(8)
_cell_length_b 5.5314(2)
_cell_length_c 22.3395(12)
_cell_angle_alpha 90
_cell_angle_beta 116.496(1)
_cell_angle_gamma 90
_cell_formula_units_Z 4
loop_
_atom_type_symbol
_atom_type_radius_bond
C 0.68
H 0.23
loop_
_atom_site_label
_atom_site_type_symbol
_atom_site_fract_x
_atom_site_fract_y
_atom_site_fract_z
C1 C 0.54783(6) 0.5396(2) 0.33820(6)
H1 H 0.58252 0.57176 0.32083
C2 C 0.56067(6) 0.3493(2) 0.38290(6)
H2 H 0.60343 0.24921 0.39517
C3 C 0.51105(5) 0.3064(2) 0.40932(5)
H3 H 0.52028 0.17565 0.43956
C4 C 0.44724(5) 0.45099(18) 0.39271(5)
C5 C 0.39882(5) 0.40929(18) 0.42522(5)
C6 C 0.34147(5) 0.56765(18) 0.40749(5)
C7 C 0.27699(5) 0.65943(17) 0.41876(5)
C8 C 0.23664(5) 0.63767(17) 0.45600(4)
C9 C 0.25064(5) 0.45780(17) 0.50695(5)
H4 H 0.28897 0.34015 0.51794
C10 C 0.20614(5) 0.46558(17) 0.53837(4)
C11 C 0.18547(5) 0.35666(17) 0.58918(5)
C12 C 0.20104(5) 0.18349(17) 0.63665(5)
C13 C 0.15063(5) 0.18016(17) 0.66762(4)
C14 C 0.15960(5) 0.00641(18) 0.71712(5)
H5 H 0.20018 -0.10408 0.73119
C15 C 0.11079(6) -0.00663(19) 0.74557(5)
H6 H 0.11792 -0.12553 0.77857
C16 C 0.05079(6) 0.15564(19) 0.72569(5)
H7 H 0.01691 0.14555 0.74484
C17 C 0.04099(5) 0.32950(18) 0.67845(5)
H8 H 0.00034 0.43915 0.66574
C18 C 0.08967(5) 0.34972(17) 0.64826(4)
C19 C 0.07702(5) 0.53517(17) 0.59858(4)
C20 C 0.12581(5) 0.53021(17) 0.57153(5)
C21 C 0.14676(5) 0.64109(18) 0.52152(5)
C22 C 0.13177(5) 0.81386(18) 0.47433(5)
H9 H 0.09269 0.92790 0.46443
C23 C 0.17790(5) 0.81671(17) 0.43978(5)
C24 C 0.16512(5) 0.99561(18) 0.39069(5)
H10 H 0.12578 1.10825 0.38124
C25 C 0.20755(5) 1.01442(18) 0.35551(5)
H11 H 0.19898 1.13724 0.32316
C26 C 0.26301(5) 0.84206(18) 0.37087(5)
C27 C 0.32672(5) 0.75722(18) 0.35872(5)
C28 C 0.36867(5) 0.80203(18) 0.32632(5)
C29 C 0.43314(5) 0.64330(18) 0.34533(5)
C30 C 0.48471(6) 0.6816(2) 0.31911(5)
H12 H 0.47587 0.80784 0.28762
C31 C 0.41484(5) 0.21016(18) 0.47511(5)
H13 H 0.37452 0.20156 0.48864
H14 H 0.46234 0.24240 0.51442
H15 H 0.41815 0.05610 0.45492
C32 C 0.26471(5) 0.00846(19) 0.65568(5)
H16 H 0.29143 0.04072 0.62889
H17 H 0.24519 -0.15707 0.64735
H18 H 0.29908 0.02748 0.70324
C33 C 0.01527(5) 0.71727(18) 0.57859(5)
H19 H 0.01580 0.82178 0.54338
H20 H 0.02250 0.81578 0.61748
H21 H -0.03289 0.63336 0.56183
C34 C 0.35131(6) 1.0018(2) 0.27628(5)
H22 H 0.30814 1.09379 0.27357
H23 H 0.33980 0.93288 0.23233
H24 H 0.39465 1.10936 0.29020
loop_
_geom_bond_atom_site_label_1
_geom_bond_atom_site_label_2
_geom_bond_distance
_geom_bond_site_symmetry_1
_geom_bond_site_symmetry_2
C1 H1 0.950 1_555 1_555
C2 C1 1.394 1_555 1_555
H2 C2 0.950 1_555 1_555
C3 C2 1.382 1_555 1_555
H3 C3 0.950 1_555 1_555
C4 C3 1.408 1_555 1_555
C5 C4 1.464 1_555 1_555
C6 C5 1.354 1_555 1_555
C7 C6 1.507 1_555 1_555
C8 C7 1.398 1_555 1_555
C9 C8 1.442 1_555 1_555
H4 C9 0.950 1_555 1_555
C10 C9 1.357 1_555 1_555
C11 C10 1.497 1_555 1_555
C12 C11 1.358 1_555 1_555
C13 C12 1.455 1_555 1_555
C14 C13 1.415 1_555 1_555
H5 C14 0.950 1_555 1_555
C15 C14 1.383 1_555 1_555
H6 C15 0.950 1_555 1_555
C16 C15 1.402 1_555 1_555
H7 C16 0.950 1_555 1_555
C17 C16 1.376 1_555 1_555
H8 C17 0.950 1_555 1_555
C18 C13 1.442 1_555 1_555
C19 C18 1.448 1_555 1_555
C20 C11 1.442 1_555 1_555
C21 C10 1.447 1_555 1_555
C22 C21 1.354 1_555 1_555
H9 C22 0.950 1_555 1_555
C23 C8 1.453 1_555 1_555
C24 C23 1.413 1_555 1_555
H10 C24 0.950 1_555 1_555
C25 C24 1.394 1_555 1_555
H11 C25 0.950 1_555 1_555
C26 C7 1.406 1_555 1_555
C27 C6 1.445 1_555 1_555
C28 C27 1.353 1_555 1_555
C29 C4 1.437 1_555 1_555
C30 C1 1.382 1_555 1_555
H12 C30 0.950 1_555 1_555
C31 C5 1.496 1_555 1_555
H13 C31 0.980 1_555 1_555
H14 C31 0.980 1_555 1_555
H15 C31 0.980 1_555 1_555
C32 C12 1.501 1_555 1_555
H16 C32 0.980 1_555 1_555
H17 C32 0.980 1_555 1_555
H18 C32 0.980 1_555 1_555
C33 C19 1.498 1_555 1_555
H19 C33 0.980 1_555 1_555
H20 C33 0.980 1_555 1_555
H21 C33 0.980 1_555 1_555
C34 C28 1.498 1_555 1_555
H22 C34 0.980 1_555 1_555
H23 C34 0.980 1_555 1_555
H24 C34 0.980 1_555 1_555
C17 C18 1.414 1_555 1_555
C19 C20 1.357 1_555 1_555
C20 C21 1.489 1_555 1_555
C22 C23 1.442 1_555 1_555
C25 C26 1.384 1_555 1_555
C26 C27 1.491 1_555 1_555
C28 C29 1.457 1_555 1_555
C29 C30 1.410 1_555 1_555
#END
