
#######################################################################
#
#                 Cambridge Crystallographic Data Centre
#                                CCDC
#
#######################################################################
#
# If this CIF has been generated from an entry in the Cambridge
# Structural Database, then it will include bibliographic, chemical,
# crystal, experimental, refinement or atomic coordinate data resulting
# from the CCDC's data processing and validation procedures.
#
#######################################################################

data_CSD_CIF_GEPPID
_audit_creation_date 2017-11-29
_audit_creation_method CSD-ConQuest-V1
_database_code_CSD GEPPID
_database_code_depnum_ccdc_archive 'CCDC 1570544'
_chemical_formula_sum 'C66 H56'
_chemical_formula_moiety
;
C66 H56
;
_journal_coden_Cambridge 4
_journal_volume 139
_journal_year 2017
_journal_page_first 15933
_journal_name_full 'J.Am.Chem.Soc. '
loop_
_publ_author_name
"Zexin Jin"
"Yew Chin Teo"
"S.J.Teat"
"Yan Xia"
_chemical_name_systematic
;
2,3,10,11-tetrakis(2,6-dimethylphenyl)-5,8,13,16-tetramethylbenzo[6,7]biphenyl
eno[2,1-a]benzo[h]biphenylene
;
_cell_volume   5950.396
_exptl_crystal_colour 'orange'
_exptl_crystal_density_diffrn 0.948
_exptl_special_details
;
We calculate 24.91 percent void space in the structure

;
_exptl_crystal_description 'needle'
_diffrn_ambient_temperature 100.2
#These two values have been output from a single CSD field.
_refine_ls_R_factor_gt 0.0758
_refine_ls_wR_factor_gt 0.0758
_symmetry_cell_setting monoclinic
_symmetry_space_group_name_H-M 'C 2/c'
_symmetry_Int_Tables_number 15
loop_
_symmetry_equiv_pos_site_id
_symmetry_equiv_pos_as_xyz
1 x,y,z
2 -x,y,1/2-z
3 1/2+x,1/2+y,z
4 1/2-x,1/2+y,1/2-z
5 -x,-y,-z
6 x,-y,-1/2+z
7 -1/2-x,-1/2-y,-z
8 -1/2+x,-1/2-y,-1/2+z
_cell_length_a 46.692(2)
_cell_length_b 16.5713(8)
_cell_length_c 7.7012(5)
_cell_angle_alpha 90
_cell_angle_beta 93.040(3)
_cell_angle_gamma 90
_cell_formula_units_Z 4
loop_
_atom_type_symbol
_atom_type_radius_bond
C 0.68
H 0.23
loop_
_atom_site_label
_atom_site_type_symbol
_atom_site_fract_x
_atom_site_fract_y
_atom_site_fract_z
C1 C 0.65219(5) 0.71589(17) 0.2480(5)
C2 C 0.66645(5) 0.64154(16) 0.2627(4)
C3 C 0.65050(6) 0.57115(17) 0.2405(5)
H1 H 0.66022 0.52101 0.25396
C4 C 0.62120(7) 0.5698(2) 0.1999(8)
C5 C 0.60609(7) 0.4940(2) 0.1714(10)
C6 C 0.57810(8) 0.5027(3) 0.1271(15)
C7 C 0.55081(10) 0.4602(3) 0.077(2)
C8 C 0.53722(10) 0.3849(3) 0.059(2)
H2 H 0.54711 0.33547 0.07996
C9 C 0.50846(10) 0.3880(3) 0.009(2)
H3 H 0.49852 0.33875 -0.01324
C10 C 0.50696(11) 0.5386(3) 0.011(2)
C11 C 0.53641(11) 0.5327(3) 0.057(2)
C12 C 0.56386(9) 0.5791(3) 0.1004(17)
C13 C 0.57657(9) 0.6507(3) 0.1247(15)
C14 C 0.60713(7) 0.6459(2) 0.1748(10)
C15 C 0.62306(7) 0.7154(2) 0.2042(7)
H4 H 0.61343 0.76584 0.19376
C16 C 0.62042(7) 0.41358(19) 0.2008(8)
H5 H 0.60600 0.37063 0.19020
H6 H 0.62986 0.41222 0.31747
H7 H 0.63473 0.40544 0.11385
C17 C 0.5623(1) 0.7324(3) 0.1025(18)
H8 H 0.54199 0.72504 0.06722
H9 H 0.57171 0.76319 0.01303
H10 H 0.56395 0.76188 0.21293
C18 C 0.66546(5) 0.79722(15) 0.2783(4)
C19 C 0.68563(5) 0.82846(15) 0.1675(3)
C20 C 0.69648(6) 0.90530(16) 0.1994(3)
H11 H 0.71063 0.92613 0.12732
C21 C 0.68727(5) 0.95168(15) 0.3321(3)
H12 H 0.69472 1.00452 0.35037
C22 C 0.66722(5) 0.92168(16) 0.4387(4)
H13 H 0.66068 0.95453 0.52963
C23 C 0.65630(5) 0.84431(17) 0.4165(4)
C24 C 0.69527(8) 0.78233(18) 0.0129(4)
H14 H 0.71147 0.74750 0.04899
H15 H 0.70121 0.82032 -0.07587
H16 H 0.67940 0.74911 -0.03528
C25 C 0.63520(8) 0.8152(2) 0.5449(6)
H17 H 0.61563 0.82083 0.49382
H18 H 0.63730 0.84753 0.65137
H19 H 0.63900 0.75837 0.57276
C26 C 0.69808(5) 0.63237(14) 0.2938(3)
C27 C 0.71268(5) 0.65683(14) 0.4487(3)
C28 C 0.74208(5) 0.64342(15) 0.4716(4)
H20 H 0.75192 0.66071 0.57619
C29 C 0.75703(5) 0.60602(16) 0.3473(4)
H21 H 0.77709 0.59748 0.36527
C30 C 0.74299(5) 0.58092(15) 0.1969(4)
H22 H 0.75347 0.55467 0.11088
C31 C 0.71370(5) 0.59293(14) 0.1670(3)
C32 C 0.69782(6) 0.69474(17) 0.5952(4)
H23 H 0.69769 0.75350 0.58094
H24 H 0.70797 0.68068 0.70572
H25 H 0.67804 0.67489 0.59509
C33 C 0.70001(6) 0.56242(16) -0.0016(4)
H26 H 0.71454 0.55862 -0.08848
H27 H 0.68486 0.59978 -0.04273
H28 H 0.69171 0.50897 0.01670
C1D C 0.34781(5) 0.28411(17) -0.2480(5)
C2D C 0.33355(5) 0.35846(16) -0.2627(4)
C3D C 0.34950(6) 0.42885(17) -0.2405(5)
H1D H 0.33978 0.47899 -0.25396
C4D C 0.37880(7) 0.4302(2) -0.1999(8)
C5D C 0.39391(7) 0.5060(2) -0.1714(10)
C6D C 0.42190(8) 0.4973(3) -0.1271(15)
C7D C 0.44919(10) 0.5398(3) -0.077(2)
C8D C 0.46278(10) 0.6151(3) -0.059(2)
H2D H 0.45289 0.66453 -0.07996
C9D C 0.49154(10) 0.6120(3) -0.009(2)
H3D H 0.50148 0.66125 0.01324
C10D C 0.49304(11) 0.4614(3) -0.011(2)
C11D C 0.46359(11) 0.4673(3) -0.057(2)
C12D C 0.43614(9) 0.4209(3) -0.1004(17)
C13D C 0.42343(9) 0.3493(3) -0.1247(15)
C14D C 0.39287(7) 0.3541(2) -0.1748(10)
C15D C 0.37694(7) 0.2846(2) -0.2042(7)
H4D H 0.38657 0.23416 -0.19376
C16D C 0.37958(7) 0.58642(19) -0.2008(8)
H5D H 0.39400 0.62937 -0.19020
H6D H 0.37014 0.58778 -0.31747
H7D H 0.36527 0.59456 -0.11385
C17D C 0.4377(1) 0.2676(3) -0.1025(18)
H8D H 0.45801 0.27496 -0.06722
H9D H 0.42829 0.23681 -0.01303
H10D H 0.43605 0.23812 -0.21293
C18D C 0.33454(5) 0.20278(15) -0.2783(4)
C19D C 0.31437(5) 0.17154(15) -0.1675(3)
C20D C 0.30352(6) 0.09470(16) -0.1994(3)
H11D H 0.28937 0.07387 -0.12732
C21D C 0.31273(5) 0.04832(15) -0.3321(3)
H12D H 0.30528 -0.00452 -0.35037
C22D C 0.33278(5) 0.07832(16) -0.4387(4)
H13D H 0.33932 0.04547 -0.52963
C23D C 0.34370(5) 0.15569(17) -0.4165(4)
C24D C 0.30473(8) 0.21767(18) -0.0129(4)
H14D H 0.28853 0.25250 -0.04899
H15D H 0.29879 0.17968 0.07587
H16D H 0.32060 0.25089 0.03528
C25D C 0.36480(8) 0.1848(2) -0.5449(6)
H17D H 0.38437 0.17917 -0.49382
H18D H 0.36270 0.15247 -0.65137
H19D H 0.36100 0.24163 -0.57276
C26D C 0.30192(5) 0.36763(14) -0.2938(3)
C27D C 0.28732(5) 0.34317(14) -0.4487(3)
C28D C 0.25792(5) 0.35658(15) -0.4716(4)
H20D H 0.24808 0.33929 -0.57619
C29D C 0.24297(5) 0.39398(16) -0.3473(4)
H21D H 0.22291 0.40252 -0.36527
C30D C 0.25701(5) 0.41908(15) -0.1969(4)
H22D H 0.24653 0.44533 -0.11088
C31D C 0.28630(5) 0.40707(14) -0.1670(3)
C32D C 0.30218(6) 0.30526(17) -0.5952(4)
H23D H 0.30231 0.24650 -0.58094
H24D H 0.29203 0.31932 -0.70572
H25D H 0.32196 0.32511 -0.59509
C33D C 0.29999(6) 0.43758(16) 0.0016(4)
H26D H 0.28546 0.44138 0.08848
H27D H 0.31514 0.40022 0.04273
H28D H 0.30829 0.49103 -0.01670
loop_
_geom_bond_atom_site_label_1
_geom_bond_atom_site_label_2
_geom_bond_distance
_geom_bond_site_symmetry_1
_geom_bond_site_symmetry_2
C1 C2 1.402 1_555 1_555
C2 C3 1.390 1_555 1_555
C3 H1 0.950 1_555 1_555
C4 C3 1.387 1_555 1_555
C5 C4 1.452 1_555 1_555
C6 C5 1.341 1_555 1_555
C7 C6 1.489 1_555 1_555
C8 C7 1.403 1_555 1_555
H2 C8 0.950 1_555 1_555
C9 C8 1.378 1_555 1_555
H3 C9 0.950 1_555 1_555
C10 C11 1.405 1_555 1_555
C11 C7 1.381 1_555 1_555
C12 C6 1.440 1_555 1_555
C13 C12 1.335 1_555 1_555
C14 C4 1.430 1_555 1_555
C15 C1 1.384 1_555 1_555
H4 C15 0.951 1_555 1_555
C16 C5 1.503 1_555 1_555
H5 C16 0.980 1_555 1_555
H6 C16 0.980 1_555 1_555
H7 C16 0.980 1_555 1_555
C17 C13 1.515 1_555 1_555
H8 C17 0.980 1_555 1_555
H9 C17 0.980 1_555 1_555
H10 C17 0.980 1_555 1_555
C18 C1 1.496 1_555 1_555
C19 C18 1.403 1_555 1_555
C20 C19 1.388 1_555 1_555
H11 C20 0.950 1_555 1_555
C21 C20 1.366 1_555 1_555
H12 C21 0.950 1_555 1_555
C22 C21 1.371 1_555 1_555
H13 C22 0.950 1_555 1_555
C23 C18 1.405 1_555 1_555
C24 C19 1.504 1_555 1_555
H14 C24 0.980 1_555 1_555
H15 C24 0.980 1_555 1_555
H16 C24 0.980 1_555 1_555
C25 C23 1.511 1_555 1_555
H17 C25 0.980 1_555 1_555
H18 C25 0.980 1_555 1_555
H19 C25 0.980 1_555 1_555
C26 C2 1.491 1_555 1_555
C27 C26 1.402 1_555 1_555
C28 C27 1.393 1_555 1_555
H20 C28 0.950 1_555 1_555
C29 C28 1.363 1_555 1_555
H21 C29 0.950 1_555 1_555
C30 C29 1.365 1_555 1_555
H22 C30 0.950 1_555 1_555
C31 C26 1.410 1_555 1_555
C32 C27 1.494 1_555 1_555
H23 C32 0.980 1_555 1_555
H24 C32 0.980 1_555 1_555
H25 C32 0.980 1_555 1_555
C33 C31 1.504 1_555 1_555
H26 C33 0.980 1_555 1_555
H27 C33 0.980 1_555 1_555
H28 C33 0.980 1_555 1_555
C1D C2D 1.402 1_555 1_555
C2D C3D 1.390 1_555 1_555
C3D H1D 0.950 1_555 1_555
C4D C3D 1.387 1_555 1_555
C5D C4D 1.452 1_555 1_555
C6D C5D 1.341 1_555 1_555
C7D C6D 1.489 1_555 1_555
C8D C7D 1.403 1_555 1_555
H2D C8D 0.950 1_555 1_555
C9D C10 1.418 1_555 1_555
H3D C9D 0.950 1_555 1_555
C10D C9 1.418 1_555 1_555
C11D C7D 1.381 1_555 1_555
C12D C6D 1.440 1_555 1_555
C13D C12D 1.335 1_555 1_555
C14D C4D 1.430 1_555 1_555
C15D C1D 1.384 1_555 1_555
H4D C15D 0.951 1_555 1_555
C16D C5D 1.503 1_555 1_555
H5D C16D 0.980 1_555 1_555
H6D C16D 0.980 1_555 1_555
H7D C16D 0.980 1_555 1_555
C17D C13D 1.515 1_555 1_555
H8D C17D 0.980 1_555 1_555
H9D C17D 0.980 1_555 1_555
H10D C17D 0.980 1_555 1_555
C18D C1D 1.496 1_555 1_555
C19D C18D 1.403 1_555 1_555
C20D C19D 1.388 1_555 1_555
H11D C20D 0.950 1_555 1_555
C21D C20D 1.366 1_555 1_555
H12D C21D 0.950 1_555 1_555
C22D C21D 1.371 1_555 1_555
H13D C22D 0.950 1_555 1_555
C23D C18D 1.405 1_555 1_555
C24D C19D 1.504 1_555 1_555
H14D C24D 0.980 1_555 1_555
H15D C24D 0.980 1_555 1_555
H16D C24D 0.980 1_555 1_555
C25D C23D 1.511 1_555 1_555
H17D C25D 0.980 1_555 1_555
H18D C25D 0.980 1_555 1_555
H19D C25D 0.980 1_555 1_555
C26D C2D 1.491 1_555 1_555
C27D C26D 1.402 1_555 1_555
C28D C27D 1.393 1_555 1_555
H20D C28D 0.950 1_555 1_555
C29D C28D 1.363 1_555 1_555
H21D C29D 0.950 1_555 1_555
C30D C29D 1.365 1_555 1_555
H22D C30D 0.950 1_555 1_555
C31D C26D 1.410 1_555 1_555
C32D C27D 1.494 1_555 1_555
H23D C32D 0.980 1_555 1_555
H24D C32D 0.980 1_555 1_555
H25D C32D 0.980 1_555 1_555
C33D C31D 1.504 1_555 1_555
H26D C33D 0.980 1_555 1_555
H27D C33D 0.980 1_555 1_555
H28D C33D 0.980 1_555 1_555
C10 C10D 1.441 1_555 1_555
C11 C12 1.517 1_555 1_555
C13 C14 1.460 1_555 1_555
C14 C15 1.383 1_555 1_555
C22 C23 1.387 1_555 1_555
C30 C31 1.389 1_555 1_555
C8D C9D 1.378 1_555 1_555
C10D C11D 1.405 1_555 1_555
C11D C12D 1.517 1_555 1_555
C13D C14D 1.460 1_555 1_555
C14D C15D 1.383 1_555 1_555
C22D C23D 1.387 1_555 1_555
C30D C31D 1.389 1_555 1_555
#END
