
#######################################################################
#
#                 Cambridge Crystallographic Data Centre
#                                CCDC
#
#######################################################################
#
# If this CIF has been generated from an entry in the Cambridge
# Structural Database, then it will include bibliographic, chemical,
# crystal, experimental, refinement or atomic coordinate data resulting
# from the CCDC's data processing and validation procedures.
#
#######################################################################

data_CSD_CIF_GIBPUE
_audit_creation_date 2013-05-23
_audit_creation_method CSD-ConQuest-V1
_database_code_CSD GIBPUE
_database_code_depnum_ccdc_archive 'CCDC 879770'
_chemical_formula_sum 'C32 H26'
_chemical_formula_moiety
;
C32 H26
;
_journal_coden_Cambridge 920
_journal_volume 7
_journal_year 2012
_journal_page_first 2854
_journal_name_full 'Chem.Asian J. '
loop_
_publ_author_name
"Xing Feng"
"Jian-Yong Hu"
"Liu Yi"
"N.Seto"
"Zhu Tao"
"C.Redshaw"
"M.R.J.Elsegood"
"T.Yamato"
_chemical_name_systematic
;
7-t-Butyl-1,3-diphenylpyrene
;
_cell_volume   2306.113
_exptl_crystal_density_diffrn 1.182
_diffrn_ambient_temperature 293
#These two values have been output from a single CSD field.
_refine_ls_R_factor_gt 0.0731
_refine_ls_wR_factor_gt 0.0731
_symmetry_cell_setting triclinic
_symmetry_space_group_name_H-M 'P -1'
_symmetry_Int_Tables_number 2
loop_
_symmetry_equiv_pos_site_id
_symmetry_equiv_pos_as_xyz
1 x,y,z
2 -x,-y,-z
_cell_length_a 9.937(9)
_cell_length_b 12.976(11)
_cell_length_c 19.018(17)
_cell_angle_alpha 100.097(10)
_cell_angle_beta 93.575(10)
_cell_angle_gamma 105.895(10)
_cell_formula_units_Z 4
loop_
_atom_type_symbol
_atom_type_radius_bond
C 0.68
H 0.23
loop_
_atom_site_label
_atom_site_type_symbol
_atom_site_fract_x
_atom_site_fract_y
_atom_site_fract_z
C1 C 0.6359(3) 0.9356(2) 0.11370(15)
C2 C 0.6280(4) 0.8522(3) 0.04486(17)
H1 H 0.69350 0.88490 0.01440
H2 H 0.53430 0.82960 0.02020
H3 H 0.65140 0.78980 0.05680
C3 C 0.7863(4) 0.9706(3) 0.15234(18)
H4 H 0.85170 1.00000 0.12080
H5 H 0.80760 0.90830 0.16570
H6 H 0.79380 1.02530 0.19470
C4 C 0.6019(4) 1.0354(3) 0.09307(18)
H7 H 0.66600 1.06450 0.06080
H8 H 0.61120 1.09030 0.13560
H9 H 0.50710 1.01400 0.06980
C5 C 0.5340(3) 0.8891(2) 0.16541(14)
C6 C 0.4648(3) 0.7789(2) 0.15637(14)
H10 H 0.48110 0.73090 0.11760
C7 C 0.3715(3) 0.7368(2) 0.20317(14)
C8 C 0.3471(3) 0.8078(2) 0.26309(14)
C9 C 0.4191(3) 0.9211(2) 0.27370(14)
C10 C 0.5093(3) 0.9581(2) 0.22455(14)
H11 H 0.55520 1.03260 0.23160
C11 C 0.3938(3) 0.9923(2) 0.33449(15)
H12 H 0.43710 1.06710 0.34120
C12 C 0.3090(3) 0.9538(2) 0.38233(15)
H13 H 0.29650 1.00290 0.42150
C13 C 0.2374(3) 0.8395(2) 0.37481(14)
C14 C 0.1507(3) 0.7974(2) 0.42540(14)
C15 C 0.0763(3) 0.6872(2) 0.40938(15)
H14 H 0.01660 0.66010 0.44190
C16 C 0.0849(3) 0.6144(2) 0.34800(14)
C17 C 0.1784(3) 0.6535(2) 0.29948(14)
C18 C 0.2528(3) 0.7670(2) 0.31260(14)
C19 C 0.2060(3) 0.5836(2) 0.23772(15)
H15 H 0.15830 0.50930 0.22860
C20 C 0.2980(3) 0.6218(2) 0.19277(15)
H16 H 0.31450 0.57330 0.15440
C21 C -0.0071(3) 0.5005(2) 0.33524(15)
C22 C -0.0964(4) 0.4530(3) 0.27078(17)
H17 H -0.09300 0.49190 0.23390
C23 C -0.1894(4) 0.3489(3) 0.2612(2)
H18 H -0.24810 0.31870 0.21820
C24 C -0.1951(5) 0.2908(3) 0.3148(2)
H19 H -0.25770 0.22100 0.30830
C25 C -0.1084(5) 0.3355(3) 0.3782(2)
H20 H -0.11200 0.29530 0.41440
C26 C -0.0161(4) 0.4390(3) 0.38877(17)
H21 H 0.04110 0.46830 0.43230
C27 C 0.0021(4) 0.8588(2) 0.51563(15)
H22 H -0.07750 0.81510 0.48520
C28 C 0.2500(4) 0.9321(3) 0.54134(16)
H23 H 0.34010 0.93750 0.52860
C29 C 0.1348(3) 0.8652(2) 0.49424(15)
C30 C 0.2344(4) 0.9911(3) 0.60664(16)
H24 H 0.31310 1.03660 0.63700
C31 C 0.1029(5) 0.9822(3) 0.62625(17)
H25 H 0.09220 1.02120 0.67050
C32 C -0.0137(4) 0.9166(3) 0.58159(18)
H26 H -0.10310 0.91080 0.59550
C33 C 0.9979(6) 0.8276(4) -0.0105(3)
H27 H 1.05890 0.85470 -0.04450
H28 H 1.02590 0.87670 0.03540
H29 H 0.90250 0.82250 -0.02700
C34 C 0.9706(6) 0.6448(5) -0.0776(2)
H30 H 0.97470 0.57250 -0.07510
H31 H 1.03640 0.67500 -0.10880
H32 H 0.87710 0.64150 -0.09620
C35 C 1.0078(3) 0.7166(3) -0.00315(17)
C36 C 0.9102(3) 0.6732(2) 0.05070(16)
C37 C 0.7925(3) 0.5819(3) 0.03043(15)
H33 H 0.77300 0.54700 -0.01770
C38 C 0.7028(3) 0.5405(2) 0.07880(14)
C39 C 0.9354(3) 0.7238(2) 0.12304(16)
H34 H 1.01430 0.78400 0.13820
C40 C 0.8473(3) 0.6880(2) 0.17398(15)
C41 C 0.8715(4) 0.7433(2) 0.24788(16)
H35 H 0.94830 0.80520 0.26290
C42 C 0.7856(3) 0.7078(2) 0.29597(15)
H36 H 0.80270 0.74720 0.34310
C43 C 0.6679(3) 0.6105(2) 0.27653(14)
C44 C 0.5837(3) 0.5680(2) 0.32701(14)
C45 C 0.7289(3) 0.5935(2) 0.15217(14)
C46 C 0.6413(3) 0.5529(2) 0.20384(14)
C47 C 0.5306(3) 0.4524(2) 0.18192(14)
C48 C 0.4530(3) 0.4087(2) 0.23509(15)
C49 C 0.4804(3) 0.4683(2) 0.30533(15)
H37 H 0.42670 0.43990 0.33960
C50 C 0.3455(3) 0.2989(2) 0.22088(15)
C51 C 0.3730(4) 0.2065(2) 0.18312(17)
H38 H 0.45710 0.21340 0.16290
C52 C 0.2766(4) 0.1044(3) 0.17518(19)
H39 H 0.29580 0.04350 0.14900
C53 C 0.1536(4) 0.0922(3) 0.2055(2)
H40 H 0.08990 0.02310 0.20060
C54 C 0.1240(4) 0.1835(3) 0.24378(19)
H41 H 0.04040 0.17560 0.26460
C55 C 0.2184(4) 0.2856(3) 0.25085(16)
H42 H 0.19740 0.34640 0.27590
C56 C 0.6013(3) 0.6231(2) 0.40418(15)
C57 C 0.6725(4) 0.5909(3) 0.45579(16)
H43 H 0.71530 0.53620 0.44240
C58 C 0.6823(4) 0.6386(3) 0.52842(17)
H44 H 0.73310 0.61630 0.56260
C59 C 0.5522(6) 0.7508(4) 0.4986(2)
H45 H 0.51160 0.80670 0.51240
C60 C 0.6194(5) 0.7159(3) 0.54941(19)
H46 H 0.62180 0.74490 0.59800
C61 C 0.5425(6) 0.7047(4) 0.42578(19)
H47 H 0.49560 0.73000 0.39180
C62 C 0.5850(3) 0.4452(2) 0.05840(15)
H48 H 0.56340 0.41090 0.01020
C63 C 0.5039(3) 0.4032(2) 0.10673(15)
H49 H 0.42850 0.34060 0.09090
C64 C 1.1565(5) 0.7219(5) 0.0211(3)
H50 H 1.16080 0.65050 0.02600
H51 H 1.18750 0.77160 0.06660
H52 H 1.21660 0.74710 -0.01380
loop_
_geom_bond_atom_site_label_1
_geom_bond_atom_site_label_2
_geom_bond_distance
_geom_bond_site_symmetry_1
_geom_bond_site_symmetry_2
C1 C2 1.528 1_555 1_555
C2 H1 0.960 1_555 1_555
H2 C2 0.960 1_555 1_555
H3 C2 0.960 1_555 1_555
C3 C1 1.534 1_555 1_555
H4 C3 0.960 1_555 1_555
H5 C3 0.960 1_555 1_555
H6 C3 0.960 1_555 1_555
C4 C1 1.532 1_555 1_555
H7 C4 0.961 1_555 1_555
H8 C4 0.961 1_555 1_555
H9 C4 0.960 1_555 1_555
C5 C1 1.534 1_555 1_555
C6 C5 1.381 1_555 1_555
H10 C6 0.931 1_555 1_555
C7 C6 1.395 1_555 1_555
C8 C7 1.412 1_555 1_555
C9 C8 1.420 1_555 1_555
C10 C5 1.389 1_555 1_555
H11 C10 0.931 1_555 1_555
C11 C9 1.429 1_555 1_555
H12 C11 0.930 1_555 1_555
C12 C11 1.346 1_555 1_555
H13 C12 0.930 1_555 1_555
C13 C12 1.436 1_555 1_555
C14 C13 1.413 1_555 1_555
C15 C14 1.387 1_555 1_555
H14 C15 0.931 1_555 1_555
C16 C15 1.390 1_555 1_555
C17 C16 1.409 1_555 1_555
C18 C8 1.435 1_555 1_555
C19 C17 1.442 1_555 1_555
H15 C19 0.930 1_555 1_555
C20 C7 1.443 1_555 1_555
H16 C20 0.931 1_555 1_555
C21 C16 1.478 1_555 1_555
C22 C21 1.404 1_555 1_555
H17 C22 0.930 1_555 1_555
C23 C22 1.386 1_555 1_555
H18 C23 0.930 1_555 1_555
C24 C23 1.365 1_555 1_555
H19 C24 0.930 1_555 1_555
C25 C24 1.373 1_555 1_555
H20 C25 0.931 1_555 1_555
C26 C21 1.392 1_555 1_555
H21 C26 0.930 1_555 1_555
C27 H22 0.930 1_555 1_555
C28 H23 0.929 1_555 1_555
C29 C14 1.487 1_555 1_555
C30 C28 1.381 1_555 1_555
H24 C30 0.930 1_555 1_555
C31 C30 1.361 1_555 1_555
H25 C31 0.931 1_555 1_555
C32 C27 1.386 1_555 1_555
H26 C32 0.930 1_555 1_555
C33 H27 0.960 1_555 1_555
H28 C33 0.961 1_555 1_555
H29 C33 0.961 1_555 1_555
C34 H30 0.959 1_555 1_555
H31 C34 0.961 1_555 1_555
H32 C34 0.960 1_555 1_555
C35 C33 1.500 1_555 1_555
C36 C35 1.528 1_555 1_555
C37 C36 1.395 1_555 1_555
H33 C37 0.930 1_555 1_555
C38 C37 1.394 1_555 1_555
C39 C36 1.392 1_555 1_555
H34 C39 0.930 1_555 1_555
C40 C39 1.401 1_555 1_555
C41 C40 1.434 1_555 1_555
H35 C41 0.930 1_555 1_555
C42 C41 1.344 1_555 1_555
H36 C42 0.931 1_555 1_555
C43 C42 1.440 1_555 1_555
C44 C43 1.400 1_555 1_555
C45 C38 1.417 1_555 1_555
C46 C43 1.423 1_555 1_555
C47 C46 1.432 1_555 1_555
C48 C47 1.413 1_555 1_555
C49 C44 1.389 1_555 1_555
H37 C49 0.930 1_555 1_555
C50 C48 1.496 1_555 1_555
C51 C50 1.389 1_555 1_555
H38 C51 0.930 1_555 1_555
C52 C51 1.383 1_555 1_555
H39 C52 0.930 1_555 1_555
C53 C52 1.366 1_555 1_555
H40 C53 0.930 1_555 1_555
C54 C53 1.391 1_555 1_555
H41 C54 0.931 1_555 1_555
C55 C50 1.398 1_555 1_555
H42 C55 0.929 1_555 1_555
C56 C44 1.492 1_555 1_555
C57 C56 1.363 1_555 1_555
H43 C57 0.930 1_555 1_555
C58 C57 1.397 1_555 1_555
H44 C58 0.931 1_555 1_555
C59 H45 0.930 1_555 1_555
C60 C58 1.338 1_555 1_555
H46 C60 0.931 1_555 1_555
C61 C56 1.359 1_555 1_555
H47 C61 0.929 1_555 1_555
C62 C38 1.426 1_555 1_555
H48 C62 0.930 1_555 1_555
C63 C47 1.436 1_555 1_555
H49 C63 0.930 1_555 1_555
C64 C35 1.500 1_555 1_555
H50 C64 0.959 1_555 1_555
H51 C64 0.960 1_555 1_555
H52 C64 0.961 1_555 1_555
C9 C10 1.391 1_555 1_555
C13 C18 1.421 1_555 1_555
C17 C18 1.425 1_555 1_555
C19 C20 1.345 1_555 1_555
C25 C26 1.376 1_555 1_555
C27 C29 1.389 1_555 1_555
C28 C29 1.386 1_555 1_555
C31 C32 1.368 1_555 1_555
C34 C35 1.514 1_555 1_555
C40 C45 1.425 1_555 1_555
C45 C46 1.428 1_555 1_555
C48 C49 1.391 1_555 1_555
C54 C55 1.376 1_555 1_555
C59 C60 1.350 1_555 1_555
C59 C61 1.395 1_555 1_555
C62 C63 1.349 1_555 1_555
#END
