
#######################################################################
#
#                 Cambridge Crystallographic Data Centre
#                                CCDC
#
#######################################################################
#
# If this CIF has been generated from an entry in the Cambridge
# Structural Database, then it will include bibliographic, chemical,
# crystal, experimental, refinement or atomic coordinate data resulting
# from the CCDC's data processing and validation procedures.
#
#######################################################################

data_CSD_CIF_GIDROC
_audit_creation_date 2013-05-23
_audit_creation_method CSD-ConQuest-V1
_database_code_CSD GIDROC
_database_code_depnum_ccdc_archive 'CCDC 878569'
_chemical_formula_sum 'C56 H28'
_chemical_formula_moiety
;
C56 H28
;
_journal_coden_Cambridge 179
_journal_volume 51
_journal_year 2012
_journal_page_first 12795
_journal_name_full 'Angew.Chem.,Int.Ed. '
loop_
_publ_author_name
"B.Kumar"
"R.L.Viboh"
"M.C.Bonifacio"
"W.B.Thompson"
"J.C.Buttrick"
"B.C.Westlake"
"Min-Soo Kim"
"R.W.Zoellner"
"S.A.Varganov"
"P.Morschel"
"J.Teteruk"
"M.U.Schmidt"
"B.T.King"
_chemical_name_systematic
;
Septulene
;
_cell_volume   3230.218
_exptl_crystal_colour 'yellow'
_exptl_crystal_density_diffrn 1.445
_exptl_crystal_description 'block'
_diffrn_ambient_temperature 100
#These two values have been output from a single CSD field.
_refine_ls_R_factor_gt 0.0762
_refine_ls_wR_factor_gt 0.0762
_symmetry_cell_setting orthorhombic
_symmetry_space_group_name_H-M 'P n m a'
_symmetry_Int_Tables_number 62
loop_
_symmetry_equiv_pos_site_id
_symmetry_equiv_pos_as_xyz
1 x,y,z
2 1/2+x,1/2-y,1/2-z
3 -x,1/2+y,-z
4 1/2-x,-y,1/2+z
5 -x,-y,-z
6 -1/2-x,-1/2+y,-1/2+z
7 x,-1/2-y,z
8 -1/2+x,y,-1/2-z
_cell_length_a 16.056(16)
_cell_length_b 30.14(3)
_cell_length_c 6.675(7)
_cell_angle_alpha 90
_cell_angle_beta 90
_cell_angle_gamma 90
_cell_formula_units_Z 4
loop_
_atom_type_symbol
_atom_type_radius_bond
C 0.68
H 0.23
loop_
_atom_site_label
_atom_site_type_symbol
_atom_site_fract_x
_atom_site_fract_y
_atom_site_fract_z
C1 C 0.2822(2) 0.67092(15) 1.3506(6)
H1 H 0.30430 0.67290 1.48230
C2 C 0.2532(2) 0.70995(14) 1.2534(6)
C3 C 0.2184(2) 0.70888(14) 1.0536(6)
C4 C 0.2082(2) 0.66479(14) 0.9592(6)
C5 C 0.1663(2) 0.65639(13) 0.7788(6)
H2 H 0.14420 0.68080 0.70620
C6 C 0.1556(2) 0.61363(13) 0.7007(6)
C7 C 0.1067(2) 0.60262(13) 0.5191(6)
C8 C 0.0720(2) 0.63342(13) 0.3839(6)
H3 H 0.08110 0.66410 0.40820
C9 C 0.0248(3) 0.62147(14) 0.2156(6)
C10 C -0.0058(2) 0.65195(14) 0.0610(6)
C11 C 0.0020(2) 0.69822(13) 0.0630(6)
H4 H 0.02550 0.71190 0.17820
C12 C -0.0232(2) 0.72564(12) -0.0980(6)
C13 C -0.0547(2) 0.70410(16) -0.2721(6)
C14 C -0.0770(2) 0.72823(12) -0.4503(6)
H5 H -0.09180 0.71260 -0.56850
C15 C -0.0652(3) 0.58580(16) -0.1213(7)
H6 H -0.09560 0.57440 -0.23200
C16 C -0.0455(2) 0.63221(15) -0.1113(6)
C17 C -0.0668(2) 0.65862(16) -0.2717(7)
H7 H -0.09070 0.64510 -0.38670
C18 C 0.0937(3) 0.55658(15) 0.4767(7)
C19 C 0.1333(3) 0.52229(15) 0.5911(7)
H8 H 0.12530 0.49210 0.55450
C20 C 0.1813(3) 0.53215(14) 0.7490(7)
H9 H 0.20890 0.50920 0.82040
C21 C 0.1910(3) 0.57750(14) 0.8099(6)
C22 C 0.2010(3) 0.75000 0.9636(8)
H10 H 0.17600 0.75000 0.83460
C23 C 0.2787(2) 0.63141(14) 1.2586(6)
H11 H 0.30170 0.60600 1.32180
C24 C 0.2405(2) 0.62723(15) 1.0656(6)
C25 C 0.2328(3) 0.58533(14) 0.9879(6)
H12 H 0.25690 0.56110 1.05790
C26 C 0.0433(3) 0.54448(14) 0.3185(6)
H13 H 0.03240 0.51390 0.29760
C27 C 0.0080(3) 0.57513(15) 0.1885(7)
C28 C -0.0407(3) 0.55875(15) 0.0257(7)
H14 H -0.05590 0.52830 0.02190
C29 C 0.2659(3) 0.75000 1.3466(8)
H15 H 0.28440 0.75000 1.48180
C1F C 0.2822(2) 0.82908(15) 1.3506(6)
H1F H 0.30430 0.82710 1.48230
C2F C 0.2532(2) 0.79005(14) 1.2534(6)
C3F C 0.2184(2) 0.79112(14) 1.0536(6)
C4F C 0.2082(2) 0.83521(14) 0.9592(6)
C5F C 0.1663(2) 0.84361(13) 0.7788(6)
H2F H 0.14420 0.81920 0.70620
C6F C 0.1556(2) 0.88637(13) 0.7007(6)
C7F C 0.1067(2) 0.89738(13) 0.5191(6)
C8F C 0.0720(2) 0.86658(13) 0.3839(6)
H3F H 0.08110 0.83590 0.40820
C9F C 0.0248(3) 0.87853(14) 0.2156(6)
C10F C -0.0058(2) 0.84805(14) 0.0610(6)
C11F C 0.0020(2) 0.80178(13) 0.0630(6)
H4F H 0.02550 0.78810 0.17820
C12F C -0.0232(2) 0.77436(12) -0.0980(6)
C13F C -0.0547(2) 0.79590(16) -0.2721(6)
C14F C -0.0770(2) 0.77177(12) -0.4503(6)
H5F H -0.09180 0.78740 -0.56850
C15F C -0.0652(3) 0.91420(16) -0.1213(7)
H6F H -0.09560 0.92560 -0.23200
C16F C -0.0455(2) 0.86779(15) -0.1113(6)
C17F C -0.0668(2) 0.84138(16) -0.2717(7)
H7F H -0.09070 0.85490 -0.38670
C18F C 0.0937(3) 0.94342(15) 0.4767(7)
C19F C 0.1333(3) 0.97771(15) 0.5911(7)
H8F H 0.12530 1.00790 0.55450
C20F C 0.1813(3) 0.96785(14) 0.7490(7)
H9F H 0.20890 0.99080 0.82040
C21F C 0.1910(3) 0.92250(14) 0.8099(6)
C23F C 0.2787(2) 0.86859(14) 1.2586(6)
H11F H 0.30170 0.89400 1.32180
C24F C 0.2405(2) 0.87277(15) 1.0656(6)
C25F C 0.2328(3) 0.91467(14) 0.9879(6)
H12F H 0.25690 0.93890 1.05790
C26F C 0.0433(3) 0.95552(14) 0.3185(6)
H13F H 0.03240 0.98610 0.29760
C27F C 0.0080(3) 0.92487(15) 0.1885(7)
C28F C -0.0407(3) 0.94125(15) 0.0257(7)
H14F H -0.05590 0.97170 0.02190
loop_
_geom_bond_atom_site_label_1
_geom_bond_atom_site_label_2
_geom_bond_distance
_geom_bond_site_symmetry_1
_geom_bond_site_symmetry_2
C1 H1 0.950 1_555 1_555
C2 C1 1.422 1_555 1_555
C3 C2 1.446 1_555 1_555
C4 C3 1.480 1_555 1_555
C5 C4 1.402 1_555 1_555
H2 C5 0.950 1_555 1_555
C6 C5 1.401 1_555 1_555
C7 C6 1.482 1_555 1_555
C8 C7 1.409 1_555 1_555
H3 C8 0.950 1_555 1_555
C9 C8 1.402 1_555 1_555
C10 C9 1.466 1_555 1_555
C11 C10 1.400 1_555 1_555
H4 C11 0.951 1_555 1_555
C12 C11 1.415 1_555 1_555
C13 C12 1.424 1_555 1_555
C14 C13 1.439 1_555 1_555
H5 C14 0.949 1_555 1_555
C15 H6 0.950 1_555 1_555
C16 C10 1.443 1_555 1_555
C17 C13 1.384 1_555 1_555
H7 C17 0.950 1_555 1_555
C18 C7 1.432 1_555 1_555
C19 C18 1.434 1_555 1_555
H8 C19 0.951 1_555 1_555
C20 C19 1.339 1_555 1_555
H9 C20 0.950 1_555 1_555
C21 C6 1.428 1_555 1_555
C22 C3 1.405 1_555 1_555
H10 C22 0.950 1_555 1_555
C23 C1 1.341 1_555 1_555
H11 C23 0.949 1_555 1_555
C24 C4 1.434 1_555 1_555
C25 C21 1.385 1_555 1_555
H12 C25 0.949 1_555 1_555
C26 C18 1.379 1_555 1_555
H13 C26 0.948 1_555 1_555
C27 C9 1.434 1_555 1_555
C28 C15 1.335 1_555 1_555
H14 C28 0.950 1_555 1_555
C29 C2 1.373 1_555 1_555
H15 C29 0.950 1_555 1_555
C1F H1F 0.950 1_555 1_555
C2F C29 1.373 1_555 1_555
C3F C22 1.405 1_555 1_555
C4F C3F 1.480 1_555 1_555
C5F C4F 1.402 1_555 1_555
H2F C5F 0.950 1_555 1_555
C6F C5F 1.401 1_555 1_555
C7F C6F 1.482 1_555 1_555
C8F C7F 1.409 1_555 1_555
H3F C8F 0.950 1_555 1_555
C9F C8F 1.402 1_555 1_555
C10F C9F 1.466 1_555 1_555
C11F C10F 1.400 1_555 1_555
H4F C11F 0.951 1_555 1_555
C12F C12 1.468 1_555 1_555
C13F C12F 1.424 1_555 1_555
C14F C14 1.312 1_555 1_555
H5F C14F 0.949 1_555 1_555
C15F H6F 0.950 1_555 1_555
C16F C10F 1.443 1_555 1_555
C17F C13F 1.384 1_555 1_555
H7F C17F 0.950 1_555 1_555
C18F C7F 1.432 1_555 1_555
C19F C18F 1.434 1_555 1_555
H8F C19F 0.951 1_555 1_555
C20F C19F 1.339 1_555 1_555
H9F C20F 0.950 1_555 1_555
C21F C6F 1.428 1_555 1_555
C23F C1F 1.341 1_555 1_555
H11F C23F 0.949 1_555 1_555
C24F C4F 1.434 1_555 1_555
C25F C21F 1.385 1_555 1_555
H12F C25F 0.949 1_555 1_555
C26F C18F 1.379 1_555 1_555
H13F C26F 0.948 1_555 1_555
C27F C9F 1.434 1_555 1_555
C28F C15F 1.335 1_555 1_555
H14F C28F 0.950 1_555 1_555
C15 C16 1.436 1_555 1_555
C16 C17 1.377 1_555 1_555
C20 C21 1.434 1_555 1_555
C23 C24 1.432 1_555 1_555
C24 C25 1.371 1_555 1_555
C26 C27 1.388 1_555 1_555
C27 C28 1.427 1_555 1_555
C1F C2F 1.422 1_555 1_555
C2F C3F 1.446 1_555 1_555
C11F C12F 1.415 1_555 1_555
C13F C14F 1.439 1_555 1_555
C15F C16F 1.436 1_555 1_555
C16F C17F 1.377 1_555 1_555
C20F C21F 1.434 1_555 1_555
C23F C24F 1.432 1_555 1_555
C24F C25F 1.371 1_555 1_555
C26F C27F 1.388 1_555 1_555
C27F C28F 1.427 1_555 1_555
#END
