
#######################################################################
#
#                 Cambridge Crystallographic Data Centre
#                                CCDC
#
#######################################################################
#
# If this CIF has been generated from an entry in the Cambridge
# Structural Database, then it will include bibliographic, chemical,
# crystal, experimental, refinement or atomic coordinate data resulting
# from the CCDC's data processing and validation procedures.
#
#######################################################################

data_CSD_CIF_GIJRIC
_audit_creation_date 2013-09-12
_audit_creation_method CSD-ConQuest-V1
_database_code_CSD GIJRIC
_database_code_depnum_ccdc_archive 'CCDC 881425'
_chemical_formula_sum 'C44 H28'
_chemical_formula_moiety
;
C44 H28
;
_journal_coden_Cambridge 16
_journal_volume 69
_journal_year 2013
_journal_page_first 4371
_journal_name_full 'Tetrahedron '
loop_
_publ_author_name
"K.Kawasumi"
"K.Mochida"
"Y.Segawa"
"K.Itami"
_chemical_name_systematic
;
3,4,9,10-Tetraphenylperylene
;
_cell_volume   2828.285
_exptl_crystal_colour 'orange'
_exptl_crystal_density_diffrn 1.307
_exptl_crystal_description 'Block'
_diffrn_ambient_temperature 103
#These two values have been output from a single CSD field.
_refine_ls_R_factor_gt 0.049
_refine_ls_wR_factor_gt 0.049
_symmetry_cell_setting monoclinic
_symmetry_space_group_name_H-M 'P 21/n'
_symmetry_Int_Tables_number 14
loop_
_symmetry_equiv_pos_site_id
_symmetry_equiv_pos_as_xyz
1 x,y,z
2 1/2-x,1/2+y,1/2-z
3 -x,-y,-z
4 -1/2+x,-1/2-y,-1/2+z
_cell_length_a 14.822(3)
_cell_length_b 10.855(2)
_cell_length_c 17.836(4)
_cell_angle_alpha 90
_cell_angle_beta 99.744(3)
_cell_angle_gamma 90
_cell_formula_units_Z 4
loop_
_atom_type_symbol
_atom_type_radius_bond
C 0.68
H 0.23
loop_
_atom_site_label
_atom_site_type_symbol
_atom_site_fract_x
_atom_site_fract_y
_atom_site_fract_z
C1 C 0.17773(11) 0.59635(15) 0.16917(9)
C2 C 0.22345(11) 0.60918(16) 0.10840(9)
H1 H 0.28470 0.63840 0.11760
C3 C 0.18317(11) 0.58095(16) 0.03406(9)
H2 H 0.21840 0.58720 -0.00560
C4 C 0.09266(11) 0.54390(15) 0.01695(9)
C5 C 0.04447(11) 0.52093(15) 0.07857(9)
C6 C -0.04692(11) 0.47401(15) 0.06217(9)
C7 C -0.08998(11) 0.44287(15) 0.12273(9)
H3 H -0.15120 0.41350 0.11300
C8 C -0.04537(11) 0.45372(16) 0.19721(9)
H4 H -0.07650 0.42870 0.23700
C9 C 0.04221(11) 0.49923(15) 0.21600(9)
C10 C 0.08858(11) 0.54038(15) 0.15600(9)
C11 C 0.22318(11) 0.64923(16) 0.24309(9)
C12 C 0.31446(12) 0.62248(17) 0.27235(9)
H5 H 0.34740 0.56710 0.24570
C13 C 0.35776(12) 0.67536(18) 0.33953(10)
H6 H 0.41980 0.65570 0.35880
C14 C 0.31108(13) 0.75649(18) 0.37848(10)
H7 H 0.34070 0.79210 0.42480
C15 C 0.22094(13) 0.78583(17) 0.34981(10)
H8 H 0.18870 0.84240 0.37620
C16 C 0.17776(12) 0.73264(16) 0.28272(10)
H9 H 0.11600 0.75350 0.26340
C17 C 0.08514(11) 0.49209(15) 0.29754(9)
C18 C 0.16707(11) 0.42921(15) 0.32006(9)
H10 H 0.19540 0.38840 0.28300
C19 C 0.20764(12) 0.42548(16) 0.39567(9)
H11 H 0.26390 0.38290 0.41020
C20 C 0.16668(12) 0.48349(17) 0.4505(1)
H12 H 0.19570 0.48320 0.50220
C21 C 0.08320(12) 0.54191(17) 0.42937(9)
H13 H 0.05370 0.57920 0.46690
C22 C 0.04264(12) 0.54606(16) 0.35353(9)
H14 H -0.01470 0.58610 0.33940
C23 C 0.13491(11) 0.14547(15) 0.67853(9)
C24 C 0.14489(12) 0.22834(16) 0.62213(9)
H15 H 0.18150 0.29950 0.63520
C25 C 0.10357(12) 0.21222(16) 0.54692(10)
H16 H 0.11110 0.27350 0.51050
C26 C 0.05179(11) 0.10918(16) 0.52389(9)
C27 C 0.03871(11) 0.02013(15) 0.58010(9)
C28 C -0.01186(11) -0.08947(15) 0.55684(9)
C29 C -0.02157(11) -0.17689(16) 0.61137(9)
H17 H -0.05010 -0.25340 0.59620
C30 C 0.00982(11) -0.15405(16) 0.68789(9)
H18 H -0.00030 -0.21470 0.72400
C31 C 0.05502(11) -0.04741(16) 0.71384(9)
C32 C 0.07681(11) 0.04023(16) 0.65895(9)
C33 C 0.19186(11) 0.16790(16) 0.75450(9)
C34 C 0.25636(11) 0.08237(16) 0.78828(9)
H19 H 0.26220 0.00570 0.76380
C35 C 0.31214(12) 0.10771(17) 0.85714(9)
H20 H 0.35640 0.04900 0.87910
C36 C 0.30348(12) 0.21844(18) 0.89391(10)
H21 H 0.34090 0.23510 0.94160
C37 C 0.24071(13) 0.30398(17) 0.86128(10)
H22 H 0.23500 0.38030 0.88620
C38 C 0.18553(13) 0.27932(16) 0.79202(10)
H23 H 0.14270 0.33950 0.76980
C39 C 0.07217(11) -0.02904(16) 0.79756(9)
C40 C 0.11297(12) -0.12146(17) 0.84565(9)
H24 H 0.13370 -0.19430 0.82450
C41 C 0.12380(12) -0.10895(18) 0.92394(10)
H25 H 0.15120 -0.17350 0.95590
C42 C 0.09503(12) -0.0035(2) 0.9556(1)
H26 H 0.10410 0.00590 1.00930
C43 C 0.05281(13) 0.08900(19) 0.90873(10)
H27 H 0.03180 0.16130 0.93040
C44 C 0.04118(12) 0.07626(18) 0.8306(1)
H28 H 0.01170 0.13980 0.79890
C1B C -0.17773(11) 0.40365(15) -0.16917(9)
C2B C -0.22345(11) 0.39082(16) -0.10840(9)
H1B H -0.28470 0.36160 -0.11760
C3B C -0.18317(11) 0.41905(16) -0.03406(9)
H2B H -0.21840 0.41280 0.00560
C4B C -0.09266(11) 0.45610(15) -0.01695(9)
C5B C -0.04447(11) 0.47907(15) -0.07857(9)
C6B C 0.04692(11) 0.52599(15) -0.06217(9)
C7B C 0.08998(11) 0.55713(15) -0.12273(9)
H3B H 0.15120 0.58650 -0.11300
C8B C 0.04537(11) 0.54628(16) -0.19721(9)
H4B H 0.07650 0.57130 -0.23700
C9B C -0.04221(11) 0.50077(15) -0.21600(9)
C10B C -0.08858(11) 0.45962(15) -0.15600(9)
C11B C -0.22318(11) 0.35077(16) -0.24309(9)
C12B C -0.31446(12) 0.37752(17) -0.27235(9)
H5B H -0.34740 0.43290 -0.24570
C13B C -0.35776(12) 0.32464(18) -0.33953(10)
H6B H -0.41980 0.34430 -0.35880
C14B C -0.31108(13) 0.24351(18) -0.37848(10)
H7B H -0.34070 0.20790 -0.42480
C15B C -0.22094(13) 0.21417(17) -0.34981(10)
H8B H -0.18870 0.15760 -0.37620
C16B C -0.17776(12) 0.26736(16) -0.28272(10)
H9B H -0.11600 0.24650 -0.26340
C17B C -0.08514(11) 0.50791(15) -0.29754(9)
C18B C -0.16707(11) 0.57079(15) -0.32006(9)
H10B H -0.19540 0.61160 -0.28300
C19B C -0.20764(12) 0.57452(16) -0.39567(9)
H11B H -0.26390 0.61710 -0.41020
C20B C -0.16668(12) 0.51651(17) -0.4505(1)
H12B H -0.19570 0.51680 -0.50220
C21B C -0.08320(12) 0.45809(17) -0.42937(9)
H13B H -0.05370 0.42080 -0.46690
C22B C -0.04264(12) 0.45394(16) -0.35353(9)
H14B H 0.01470 0.41390 -0.33940
C23B C -0.13491(11) -0.14547(15) 0.32147(9)
C24B C -0.14489(12) -0.22834(16) 0.37787(9)
H15B H -0.18150 -0.29950 0.36480
C25B C -0.10357(12) -0.21222(16) 0.45308(10)
H16B H -0.11110 -0.27350 0.48950
C26B C -0.05179(11) -0.10918(16) 0.47611(9)
C27B C -0.03871(11) -0.02013(15) 0.41990(9)
C28B C 0.01186(11) 0.08947(15) 0.44316(9)
C29B C 0.02157(11) 0.17689(16) 0.38863(9)
H17B H 0.05010 0.25340 0.40380
C30B C -0.00982(11) 0.15405(16) 0.31211(9)
H18B H 0.00030 0.21470 0.27600
C31B C -0.05502(11) 0.04741(16) 0.28616(9)
C32B C -0.07681(11) -0.04023(16) 0.34105(9)
C33B C -0.19186(11) -0.16790(16) 0.24550(9)
C34B C -0.25636(11) -0.08237(16) 0.21172(9)
H19B H -0.26220 -0.00570 0.23620
C35B C -0.31214(12) -0.10771(17) 0.14286(9)
H20B H -0.35640 -0.04900 0.12090
C36B C -0.30348(12) -0.21844(18) 0.10609(10)
H21B H -0.34090 -0.23510 0.05840
C37B C -0.24071(13) -0.30398(17) 0.13872(10)
H22B H -0.23500 -0.38030 0.11380
C38B C -0.18553(13) -0.27932(16) 0.20798(10)
H23B H -0.14270 -0.33950 0.23020
C39B C -0.07217(11) 0.02904(16) 0.20244(9)
C40B C -0.11297(12) 0.12146(17) 0.15435(9)
H24B H -0.13370 0.19430 0.17550
C41B C -0.12380(12) 0.10895(18) 0.07606(10)
H25B H -0.15120 0.17350 0.04410
C42B C -0.09503(12) 0.0035(2) 0.0444(1)
H26B H -0.10410 -0.00590 -0.00930
C43B C -0.05281(13) -0.08900(19) 0.09127(10)
H27B H -0.03180 -0.16130 0.06960
C44B C -0.04118(12) -0.07626(18) 0.1694(1)
H28B H -0.01170 -0.13980 0.20110
loop_
_geom_bond_atom_site_label_1
_geom_bond_atom_site_label_2
_geom_bond_distance
_geom_bond_site_symmetry_1
_geom_bond_site_symmetry_2
C1 C2 1.379 1_555 1_555
C2 H1 0.949 1_555 1_555
C3 C2 1.393 1_555 1_555
H2 C3 0.950 1_555 1_555
C4 C3 1.384 1_555 1_555
C5 C4 1.430 1_555 1_555
C6 C5 1.430 1_555 1_555
C7 C6 1.386 1_555 1_555
H3 C7 0.950 1_555 1_555
C8 C7 1.385 1_555 1_555
H4 C8 0.949 1_555 1_555
C9 C8 1.376 1_555 1_555
C10 C1 1.437 1_555 1_555
C11 C1 1.490 1_555 1_555
C12 C11 1.396 1_555 1_555
H5 C12 0.951 1_555 1_555
C13 C12 1.384 1_555 1_555
H6 C13 0.950 1_555 1_555
C14 C13 1.378 1_555 1_555
H7 C14 0.950 1_555 1_555
C15 C14 1.384 1_555 1_555
H8 C15 0.950 1_555 1_555
C16 C11 1.391 1_555 1_555
H9 C16 0.949 1_555 1_555
C17 C9 1.488 1_555 1_555
C18 C17 1.392 1_555 1_555
H10 C18 0.950 1_555 1_555
C19 C18 1.381 1_555 1_555
H11 C19 0.950 1_555 1_555
C20 C19 1.387 1_555 1_555
H12 C20 0.949 1_555 1_555
C21 C20 1.385 1_555 1_555
H13 C21 0.950 1_555 1_555
C22 C17 1.397 1_555 1_555
H14 C22 0.950 1_555 1_555
C23 C24 1.376 1_555 1_555
C24 H15 0.950 1_555 1_555
C25 C24 1.388 1_555 1_555
H16 C25 0.949 1_555 1_555
C26 C25 1.379 1_555 1_555
C27 C26 1.429 1_555 1_555
C28 C27 1.430 1_555 1_555
C29 C28 1.384 1_555 1_555
H17 C29 0.950 1_555 1_555
C30 C29 1.388 1_555 1_555
H18 C30 0.950 1_555 1_555
C31 C30 1.378 1_555 1_555
C32 C23 1.438 1_555 1_555
C33 C23 1.490 1_555 1_555
C34 C33 1.394 1_555 1_555
H19 C34 0.951 1_555 1_555
C35 C34 1.387 1_555 1_555
H20 C35 0.950 1_555 1_555
C36 C35 1.386 1_555 1_555
H21 C36 0.951 1_555 1_555
C37 C36 1.372 1_555 1_555
H22 C37 0.951 1_555 1_555
C38 C33 1.393 1_555 1_555
H23 C38 0.950 1_555 1_555
C39 C31 1.485 1_555 1_555
C40 C39 1.390 1_555 1_555
H24 C40 0.949 1_555 1_555
C41 C40 1.385 1_555 1_555
H25 C41 0.950 1_555 1_555
C42 C41 1.376 1_555 1_555
H26 C42 0.950 1_555 1_555
C43 C42 1.386 1_555 1_555
H27 C43 0.950 1_555 1_555
C44 C39 1.399 1_555 1_555
H28 C44 0.950 1_555 1_555
C1B C2B 1.379 1_555 1_555
C2B H1B 0.949 1_555 1_555
C3B C2B 1.393 1_555 1_555
H2B C3B 0.950 1_555 1_555
C4B C6 1.471 1_555 1_555
C5B C4B 1.430 1_555 1_555
C6B C4 1.471 1_555 1_555
C7B C6B 1.386 1_555 1_555
H3B C7B 0.950 1_555 1_555
C8B C7B 1.385 1_555 1_555
H4B C8B 0.949 1_555 1_555
C9B C8B 1.376 1_555 1_555
C10B C1B 1.437 1_555 1_555
C11B C1B 1.490 1_555 1_555
C12B C11B 1.396 1_555 1_555
H5B C12B 0.951 1_555 1_555
C13B C12B 1.384 1_555 1_555
H6B C13B 0.950 1_555 1_555
C14B C13B 1.378 1_555 1_555
H7B C14B 0.950 1_555 1_555
C15B C14B 1.384 1_555 1_555
H8B C15B 0.950 1_555 1_555
C16B C11B 1.391 1_555 1_555
H9B C16B 0.949 1_555 1_555
C17B C9B 1.488 1_555 1_555
C18B C17B 1.392 1_555 1_555
H10B C18B 0.950 1_555 1_555
C19B C18B 1.381 1_555 1_555
H11B C19B 0.950 1_555 1_555
C20B C19B 1.387 1_555 1_555
H12B C20B 0.949 1_555 1_555
C21B C20B 1.385 1_555 1_555
H13B C21B 0.950 1_555 1_555
C22B C17B 1.397 1_555 1_555
H14B C22B 0.950 1_555 1_555
C23B C24B 1.376 1_555 1_555
C24B H15B 0.950 1_555 1_555
C25B C24B 1.388 1_555 1_555
H16B C25B 0.949 1_555 1_555
C26B C28 1.477 1_555 1_555
C27B C26B 1.429 1_555 1_555
C28B C26 1.477 1_555 1_555
C29B C28B 1.384 1_555 1_555
H17B C29B 0.950 1_555 1_555
C30B C29B 1.388 1_555 1_555
H18B C30B 0.950 1_555 1_555
C31B C30B 1.378 1_555 1_555
C32B C23B 1.438 1_555 1_555
C33B C23B 1.490 1_555 1_555
C34B C33B 1.394 1_555 1_555
H19B C34B 0.951 1_555 1_555
C35B C34B 1.387 1_555 1_555
H20B C35B 0.950 1_555 1_555
C36B C35B 1.386 1_555 1_555
H21B C36B 0.951 1_555 1_555
C37B C36B 1.372 1_555 1_555
H22B C37B 0.951 1_555 1_555
C38B C33B 1.393 1_555 1_555
H23B C38B 0.950 1_555 1_555
C39B C31B 1.485 1_555 1_555
C40B C39B 1.390 1_555 1_555
H24B C40B 0.949 1_555 1_555
C41B C40B 1.385 1_555 1_555
H25B C41B 0.950 1_555 1_555
C42B C41B 1.376 1_555 1_555
H26B C42B 0.950 1_555 1_555
C43B C42B 1.386 1_555 1_555
H27B C43B 0.950 1_555 1_555
C44B C39B 1.399 1_555 1_555
H28B C44B 0.950 1_555 1_555
C5 C10 1.440 1_555 1_555
C9 C10 1.437 1_555 1_555
C15 C16 1.384 1_555 1_555
C21 C22 1.385 1_555 1_555
C27 C32 1.441 1_555 1_555
C31 C32 1.440 1_555 1_555
C37 C38 1.387 1_555 1_555
C43 C44 1.382 1_555 1_555
C3B C4B 1.384 1_555 1_555
C5B C6B 1.430 1_555 1_555
C5B C10B 1.440 1_555 1_555
C9B C10B 1.437 1_555 1_555
C15B C16B 1.384 1_555 1_555
C21B C22B 1.385 1_555 1_555
C25B C26B 1.379 1_555 1_555
C27B C28B 1.430 1_555 1_555
C27B C32B 1.441 1_555 1_555
C31B C32B 1.440 1_555 1_555
C37B C38B 1.387 1_555 1_555
C43B C44B 1.382 1_555 1_555
#END
