
#######################################################################
#
#                 Cambridge Crystallographic Data Centre
#                                CCDC
#
#######################################################################
#
# If this CIF has been generated from an entry in the Cambridge
# Structural Database, then it will include bibliographic, chemical,
# crystal, experimental, refinement or atomic coordinate data resulting
# from the CCDC's data processing and validation procedures.
#
#######################################################################

data_CSD_CIF_GILBUZ
_audit_creation_date 2007-12-14
_audit_creation_method CSD-ConQuest-V1
_database_code_CSD GILBUZ
_database_code_depnum_ccdc_archive 'CCDC 654615'
_chemical_formula_sum 'C38 H28'
_chemical_formula_moiety
;
C38 H28
;
_journal_coden_Cambridge 1336
_journal_volume 9
_journal_year 2007
_journal_page_first 3655
_journal_name_full 'Org.Lett. '
loop_
_publ_author_name
"S.Toyota"
"M.Kurokawa"
"M.Araki"
"K.Nakamura"
"T.Iwanaga"
_chemical_name_systematic
;
1^10^,4^10^-Diisopropyl-1,4(1,8)-dianthracenacyclohexaphane-2,5-diyne
;
_chemical_melting_point 593.15
_cell_volume   2575.746
_exptl_crystal_colour 'orange'
_exptl_crystal_density_diffrn 1.25
_exptl_special_details
;
Melts with decomposition.

;
_exptl_crystal_description 'block'
_exptl_crystal_preparation 'toluene'
_diffrn_ambient_temperature 273
#These two values have been output from a single CSD field.
_refine_ls_R_factor_gt 0.0858
_refine_ls_wR_factor_gt 0.0858
_symmetry_cell_setting monoclinic
_symmetry_space_group_name_H-M 'P 21/a'
_symmetry_Int_Tables_number 14
loop_
_symmetry_equiv_pos_site_id
_symmetry_equiv_pos_as_xyz
1 x,y,z
2 1/2-x,1/2+y,-z
3 -x,-y,-z
4 -1/2+x,-1/2-y,z
_cell_length_a 15.5377(13)
_cell_length_b 9.8645(9)
_cell_length_c 17.7353(11)
_cell_angle_alpha 90
_cell_angle_beta 108.639(2)
_cell_angle_gamma 90
_cell_formula_units_Z 4
loop_
_atom_type_symbol
_atom_type_radius_bond
C 0.68
H 0.23
loop_
_atom_site_label
_atom_site_type_symbol
_atom_site_fract_x
_atom_site_fract_y
_atom_site_fract_z
C1 C 0.9303(3) 0.5298(4) 0.1526(2)
C2 C 0.9082(3) 0.5621(5) 0.2196(3)
H1 H 0.922(2) 0.634(3) 0.2407(19)
C3 C 0.8688(3) 0.4646(5) 0.2567(3)
H2 H 0.855(3) 0.496(5) 0.300(3)
C4 C 0.8492(3) 0.3411(5) 0.2258(3)
H3 H 0.821(3) 0.287(4) 0.243(2)
C5 C 0.8380(4) 0.0167(5) 0.0043(3)
H4 H 0.811(3) -0.049(5) 0.028(3)
C6 C 0.8604(4) -0.0097(5) -0.0612(3)
H5 H 0.845(3) -0.091(5) -0.082(3)
C7 C 0.9112(4) 0.0807(5) -0.0908(3)
H6 H 0.934(3) 0.059(4) -0.126(2)
C8 C 0.9385(3) 0.2015(4) -0.0533(2)
C9 C 0.9371(3) 0.3583(4) 0.0542(2)
H7 H 0.966(2) 0.418(4) 0.033(2)
C10 C 0.8451(3) 0.1696(4) 0.1195(2)
C11 C 0.9126(2) 0.3957(4) 0.1195(2)
C12 C 0.8683(3) 0.2983(4) 0.1552(2)
C13 C 0.9149(3) 0.2349(4) 0.0171(2)
C14 C 0.8650(3) 0.1382(4) 0.0485(2)
C15 C 0.9731(3) 0.6272(4) 0.1154(2)
C16 C 0.9876(3) 0.2959(4) -0.0858(2)
C17 C 0.7974(3) 0.0658(5) 0.1569(3)
H8 H 0.794(3) 0.104(5) 0.204(3)
C18 C 0.6973(3) 0.0514(6) 0.1101(3)
H9 H 0.66940 0.13930 0.10180
H10 H 0.66840 -0.00430 0.13940
H11 H 0.69090 0.01000 0.05960
C19 C 0.8485(4) -0.0673(5) 0.1803(3)
H12 H 0.81980 -0.12110 0.21050
H13 H 0.91020 -0.04890 0.21200
H14 H 0.84800 -0.11570 0.13320
C20 C 0.9239(3) 0.2986(4) 0.5092(2)
C21 C 0.9064(3) 0.4307(4) 0.5200(3)
H15 H 0.955(2) 0.496(4) 0.558(2)
C22 C 0.8224(3) 0.4885(5) 0.4761(3)
H16 H 0.811(3) 0.579(4) 0.482(2)
C23 C 0.7555(3) 0.4134(4) 0.4243(3)
H17 H 0.697(2) 0.460(3) 0.3977(17)
C24 C 0.6518(3) -0.0384(5) 0.3014(3)
H18 H 0.587(3) -0.007(5) 0.269(3)
C25 C 0.6716(3) -0.1717(5) 0.2955(3)
H19 H 0.619(4) -0.231(5) 0.254(3)
C26 C 0.7580(3) -0.2242(5) 0.3343(3)
H20 H 0.770(3) -0.318(4) 0.322(2)
C27 C 0.8253(3) -0.1410(4) 0.3795(2)
C28 C 0.8721(3) 0.0809(4) 0.4414(2)
H21 H 0.935(3) 0.042(4) 0.473(2)
C29 C 0.6996(3) 0.1917(4) 0.3588(2)
C30 C 0.8553(3) 0.2163(4) 0.4537(2)
C31 C 0.7679(3) 0.2738(4) 0.4111(2)
C32 C 0.8069(3) -0.0006(4) 0.3906(2)
C33 C 0.7184(3) 0.0535(4) 0.3491(2)
C34 C 1.0107(3) 0.2401(4) 0.5513(2)
C35 C 0.9151(3) -0.1944(4) 0.4170(2)
C36 C 0.6052(3) 0.2491(5) 0.3135(2)
H22 H 0.569(3) 0.159(5) 0.283(3)
C37 C 0.5519(3) 0.3027(6) 0.3663(3)
H23 H 0.57900 0.38540 0.39140
H24 H 0.55290 0.23660 0.40630
H25 H 0.49020 0.31980 0.33430
C38 C 0.6081(4) 0.3500(6) 0.2495(3)
H26 H 0.64050 0.42980 0.27410
H27 H 0.54730 0.37430 0.21840
H28 H 0.63840 0.30970 0.21560
C1B C 1.0697(3) 0.4702(4) -0.1526(2)
C2B C 1.0918(3) 0.4379(5) -0.2196(3)
H1B H 1.078(2) 0.366(3) -0.2407(19)
C3B C 1.1312(3) 0.5354(5) -0.2567(3)
H2B H 1.145(3) 0.504(5) -0.300(3)
C4B C 1.1508(3) 0.6589(5) -0.2258(3)
H3B H 1.179(3) 0.713(4) -0.243(2)
C5B C 1.1620(4) 0.9833(5) -0.0043(3)
H4B H 1.189(3) 1.049(5) -0.028(3)
C6B C 1.1396(4) 1.0097(5) 0.0612(3)
H5B H 1.155(3) 1.091(5) 0.082(3)
C7B C 1.0888(4) 0.9193(5) 0.0908(3)
H6B H 1.066(3) 0.941(4) 0.126(2)
C8B C 1.0615(3) 0.7985(4) 0.0533(2)
C9B C 1.0629(3) 0.6417(4) -0.0542(2)
H7B H 1.034(2) 0.582(4) -0.033(2)
C10B C 1.1549(3) 0.8304(4) -0.1195(2)
C11B C 1.0874(2) 0.6043(4) -0.1195(2)
C12B C 1.1317(3) 0.7017(4) -0.1552(2)
C13B C 1.0851(3) 0.7651(4) -0.0171(2)
C14B C 1.1350(3) 0.8618(4) -0.0485(2)
C15B C 1.0269(3) 0.3728(4) -0.1154(2)
C16B C 1.0124(3) 0.7041(4) 0.0858(2)
C17B C 1.2026(3) 0.9342(5) -0.1569(3)
H8B H 1.206(3) 0.896(5) -0.204(3)
C18B C 1.3027(3) 0.9486(6) -0.1101(3)
H9B H 1.33060 0.86070 -0.10180
H10B H 1.33160 1.00430 -0.13940
H11B H 1.30910 0.99000 -0.05960
C19B C 1.1515(4) 1.0673(5) -0.1803(3)
H12B H 1.18020 1.12110 -0.21050
H13B H 1.08980 1.04890 -0.21200
H14B H 1.15200 1.11570 -0.13320
C20B C 1.0761(3) -0.2986(4) 0.4908(2)
C21B C 1.0936(3) -0.4307(4) 0.4800(3)
H15B H 1.045(2) -0.496(4) 0.442(2)
C22B C 1.1776(3) -0.4885(5) 0.5239(3)
H16B H 1.189(3) -0.579(4) 0.518(2)
C23B C 1.2445(3) -0.4134(4) 0.5757(3)
H17B H 1.303(2) -0.460(3) 0.6023(17)
C24B C 1.3482(3) 0.0384(5) 0.6986(3)
H18B H 1.413(3) 0.007(5) 0.731(3)
C25B C 1.3284(3) 0.1717(5) 0.7045(3)
H19B H 1.381(4) 0.231(5) 0.746(3)
C26B C 1.2420(3) 0.2242(5) 0.6657(3)
H20B H 1.230(3) 0.318(4) 0.678(2)
C27B C 1.1747(3) 0.1410(4) 0.6205(2)
C28B C 1.1279(3) -0.0809(4) 0.5586(2)
H21B H 1.065(3) -0.042(4) 0.527(2)
C29B C 1.3004(3) -0.1917(4) 0.6412(2)
C30B C 1.1447(3) -0.2163(4) 0.5463(2)
C31B C 1.2321(3) -0.2738(4) 0.5889(2)
C32B C 1.1931(3) 0.0006(4) 0.6094(2)
C33B C 1.2816(3) -0.0535(4) 0.6509(2)
C34B C 0.9893(3) -0.2401(4) 0.4487(2)
C35B C 1.0849(3) 0.1944(4) 0.5830(2)
C36B C 1.3948(3) -0.2491(5) 0.6865(2)
H22B H 1.431(3) -0.159(5) 0.717(3)
C37B C 1.4481(3) -0.3027(6) 0.6337(3)
H23B H 1.42100 -0.38540 0.60860
H24B H 1.44710 -0.23660 0.59370
H25B H 1.50980 -0.31980 0.66570
C38B C 1.3919(4) -0.3500(6) 0.7505(3)
H26B H 1.35950 -0.42980 0.72590
H27B H 1.45270 -0.37430 0.78160
H28B H 1.36160 -0.30970 0.78440
loop_
_geom_bond_atom_site_label_1
_geom_bond_atom_site_label_2
_geom_bond_distance
_geom_bond_site_symmetry_1
_geom_bond_site_symmetry_2
C1 C2 1.376 1_555 1_555
C2 H1 0.799 1_555 1_555
C3 C2 1.411 1_555 1_555
H2 C3 0.915 1_555 1_555
C4 C3 1.331 1_555 1_555
H3 C4 0.809 1_555 1_555
C5 H4 0.941 1_555 1_555
C6 C5 1.340 1_555 1_555
H5 C6 0.883 1_555 1_555
C7 C6 1.400 1_555 1_555
H6 C7 0.838 1_555 1_555
C8 C7 1.365 1_555 1_555
C9 H7 0.893 1_555 1_555
C10 C12 1.413 1_555 1_555
C11 C1 1.438 1_555 1_555
C12 C4 1.439 1_555 1_555
C13 C8 1.447 1_555 1_555
C14 C5 1.420 1_555 1_555
C15 C1 1.443 1_555 1_555
C16 C8 1.436 1_555 1_555
C17 C10 1.534 1_555 1_555
H8 C17 0.933 1_555 1_555
C18 C17 1.518 1_555 1_555
H9 C18 0.960 1_555 1_555
H10 C18 0.961 1_555 1_555
H11 C18 0.960 1_555 1_555
C19 C17 1.522 1_555 1_555
H12 C19 0.959 1_555 1_555
H13 C19 0.961 1_555 1_555
H14 C19 0.960 1_555 1_555
C20 C21 1.357 1_555 1_555
C21 H15 1.055 1_555 1_555
C22 C21 1.409 1_555 1_555
H16 C22 0.923 1_555 1_555
C23 C22 1.365 1_555 1_555
H17 C23 0.993 1_555 1_555
C24 H18 1.034 1_555 1_555
C25 C24 1.362 1_555 1_555
H19 C25 1.080 1_555 1_555
C26 C25 1.398 1_555 1_555
H20 C26 0.982 1_555 1_555
C27 C26 1.369 1_555 1_555
C28 H21 1.033 1_555 1_555
C29 C31 1.419 1_555 1_555
C30 C20 1.447 1_555 1_555
C31 C23 1.420 1_555 1_555
C32 C27 1.440 1_555 1_555
C33 C24 1.431 1_555 1_555
C34 C20 1.437 1_555 1_555
C35 C27 1.440 1_555 1_555
C36 C29 1.538 1_555 1_555
H22 C36 1.097 1_555 1_555
C37 C36 1.529 1_555 1_555
H23 C37 0.960 1_555 1_555
H24 C37 0.960 1_555 1_555
H25 C37 0.960 1_555 1_555
C38 C36 1.521 1_555 1_555
H26 C38 0.961 1_555 1_555
H27 C38 0.960 1_555 1_555
H28 C38 0.960 1_555 1_555
C1B C2B 1.376 1_555 1_555
C2B H1B 0.799 1_555 1_555
C3B C2B 1.411 1_555 1_555
H2B C3B 0.915 1_555 1_555
C4B C3B 1.331 1_555 1_555
H3B C4B 0.809 1_555 1_555
C5B H4B 0.941 1_555 1_555
C6B C5B 1.340 1_555 1_555
H5B C6B 0.883 1_555 1_555
C7B C6B 1.400 1_555 1_555
H6B C7B 0.838 1_555 1_555
C8B C7B 1.365 1_555 1_555
C9B H7B 0.893 1_555 1_555
C10B C12B 1.413 1_555 1_555
C11B C1B 1.438 1_555 1_555
C12B C4B 1.439 1_555 1_555
C13B C8B 1.447 1_555 1_555
C14B C5B 1.420 1_555 1_555
C15B C16 1.195 1_555 1_555
C16B C15 1.195 1_555 1_555
C17B C10B 1.534 1_555 1_555
H8B C17B 0.933 1_555 1_555
C18B C17B 1.518 1_555 1_555
H9B C18B 0.960 1_555 1_555
H10B C18B 0.961 1_555 1_555
H11B C18B 0.960 1_555 1_555
C19B C17B 1.522 1_555 1_555
H12B C19B 0.959 1_555 1_555
H13B C19B 0.961 1_555 1_555
H14B C19B 0.960 1_555 1_555
C20B C21B 1.357 1_555 1_555
C21B H15B 1.055 1_555 1_555
C22B C21B 1.409 1_555 1_555
H16B C22B 0.923 1_555 1_555
C23B C22B 1.365 1_555 1_555
H17B C23B 0.993 1_555 1_555
C24B H18B 1.034 1_555 1_555
C25B C24B 1.362 1_555 1_555
H19B C25B 1.080 1_555 1_555
C26B C25B 1.398 1_555 1_555
H20B C26B 0.982 1_555 1_555
C27B C26B 1.369 1_555 1_555
C28B H21B 1.033 1_555 1_555
C29B C31B 1.419 1_555 1_555
C30B C20B 1.447 1_555 1_555
C31B C23B 1.420 1_555 1_555
C32B C27B 1.440 1_555 1_555
C33B C24B 1.431 1_555 1_555
C34B C35 1.198 1_555 1_555
C35B C34 1.198 1_555 1_555
C36B C29B 1.538 1_555 1_555
H22B C36B 1.097 1_555 1_555
C37B C36B 1.529 1_555 1_555
H23B C37B 0.960 1_555 1_555
H24B C37B 0.960 1_555 1_555
H25B C37B 0.960 1_555 1_555
C38B C36B 1.521 1_555 1_555
H26B C38B 0.961 1_555 1_555
H27B C38B 0.960 1_555 1_555
H28B C38B 0.960 1_555 1_555
C9 C11 1.380 1_555 1_555
C9 C13 1.374 1_555 1_555
C10 C14 1.423 1_555 1_555
C11 C12 1.441 1_555 1_555
C13 C14 1.448 1_555 1_555
C28 C30 1.391 1_555 1_555
C28 C32 1.379 1_555 1_555
C29 C33 1.416 1_555 1_555
C30 C31 1.443 1_555 1_555
C32 C33 1.439 1_555 1_555
C1B C15B 1.443 1_555 1_555
C8B C16B 1.436 1_555 1_555
C9B C11B 1.380 1_555 1_555
C9B C13B 1.374 1_555 1_555
C10B C14B 1.423 1_555 1_555
C11B C12B 1.441 1_555 1_555
C13B C14B 1.448 1_555 1_555
C20B C34B 1.437 1_555 1_555
C27B C35B 1.440 1_555 1_555
C28B C30B 1.391 1_555 1_555
C28B C32B 1.379 1_555 1_555
C29B C33B 1.416 1_555 1_555
C30B C31B 1.443 1_555 1_555
C32B C33B 1.439 1_555 1_555
#END
