
#######################################################################
#
#                 Cambridge Crystallographic Data Centre
#                                CCDC
#
#######################################################################
#
# If this CIF has been generated from an entry in the Cambridge
# Structural Database, then it will include bibliographic, chemical,
# crystal, experimental, refinement or atomic coordinate data resulting
# from the CCDC's data processing and validation procedures.
#
#######################################################################

data_CSD_CIF_GIMWIK
_audit_creation_date 2013-09-13
_audit_creation_method CSD-ConQuest-V1
_database_code_CSD GIMWIK
_database_code_depnum_ccdc_archive 'CCDC 845768'
_chemical_formula_sum 'C32 H20'
_chemical_formula_moiety
;
C32 H20
;
_journal_coden_Cambridge 24
_journal_volume 54
_journal_year 2013
_journal_page_first 3263
_journal_name_full 'Tetrahedron Lett. '
loop_
_publ_author_name
"Ye-Xin Li"
"Guo-Xin Sun"
"Jin-Ling Miao"
"Yong Nie"
"Zhen-Wei Zhang"
"Xu-Tang Tao"
_chemical_name_systematic
;
1-(2-(9-Anthryl)vinyl)pyrene
;
_cell_volume   4132.458
_exptl_crystal_colour 'yellow'
_exptl_crystal_density_diffrn 1.3
_exptl_crystal_description 'needle'
_diffrn_ambient_temperature 293
#These two values have been output from a single CSD field.
_refine_ls_R_factor_gt 0.0841
_refine_ls_wR_factor_gt 0.0841
loop_
_citation_database_id_CSD
_citation_special_details
GIMXOR "is a stereoisomer of this entry"
_symmetry_cell_setting monoclinic
_symmetry_space_group_name_H-M 'P 21/c'
_symmetry_Int_Tables_number 14
loop_
_symmetry_equiv_pos_site_id
_symmetry_equiv_pos_as_xyz
1 x,y,z
2 -x,1/2+y,1/2-z
3 -x,-y,-z
4 x,-1/2-y,-1/2+z
_cell_length_a 24.8226(11)
_cell_length_b 5.4310(3)
_cell_length_c 30.8937(12)
_cell_angle_alpha 90
_cell_angle_beta 97.148(4)
_cell_angle_gamma 90
_cell_formula_units_Z 8
loop_
_atom_type_symbol
_atom_type_radius_bond
C 0.68
H 0.23
loop_
_atom_site_label
_atom_site_type_symbol
_atom_site_fract_x
_atom_site_fract_y
_atom_site_fract_z
C1 C 0.41108(13) 0.9008(8) 0.20795(12)
C2 C 0.56790(14) 0.7011(8) 0.09151(10)
C3 C 0.48787(14) 0.4598(8) 0.06808(11)
H1 H 0.45110 0.43000 0.06860
C4 C 0.57160(14) 0.3529(8) 0.04114(11)
C5 C 0.51253(13) 0.6539(8) 0.09251(10)
C6 C 0.65467(13) 0.5864(8) 0.06498(10)
C7 C 0.59798(13) 0.5442(7) 0.06564(10)
C8 C 0.47930(14) 0.8120(8) 0.11790(11)
H2 H 0.48810 0.97850 0.11930
C9 C 0.68201(15) 0.7765(8) 0.08985(11)
C10 C 0.68413(15) 0.4327(8) 0.03882(11)
C11 C 0.38176(15) 1.0762(8) 0.23138(12)
C12 C 0.34251(14) 1.2603(8) 0.16317(13)
C13 C 0.59725(15) 0.8880(8) 0.11641(11)
H3 H 0.57870 0.98860 0.13390
C14 C 0.37186(13) 1.0881(8) 0.13953(11)
C15 C 0.40657(13) 0.9135(7) 0.16207(11)
C16 C 0.65060(16) 0.9263(9) 0.11590(12)
H4 H 0.66770 1.05240 0.13280
C17 C 0.43890(14) 0.7424(8) 0.13859(11)
H5 H 0.43010 0.57590 0.13850
C18 C 0.73930(16) 0.4765(9) 0.03857(12)
H6 H 0.75890 0.37860 0.02140
C19 C 0.76558(16) 0.6628(10) 0.06333(13)
H7 H 0.80270 0.68650 0.06310
C20 C 0.73713(16) 0.8136(9) 0.08835(13)
H8 H 0.75500 0.94110 0.10430
C21 C 0.51676(14) 0.3106(9) 0.04306(12)
H9 H 0.49940 0.18090 0.02740
C22 C 0.34912(16) 1.2480(9) 0.20838(14)
H10 H 0.33070 1.36080 0.22380
C23 C 0.60279(16) 0.2010(9) 0.01476(12)
H11 H 0.58570 0.07400 -0.00190
C24 C 0.65602(16) 0.2412(9) 0.01401(12)
H12 H 0.67510 0.14100 -0.00320
C25 C 0.4214(2) 0.899(1) 0.29949(14)
H13 H 0.42570 0.89930 0.32980
C26 C 0.36354(15) 1.1011(8) 0.09306(12)
H14 H 0.38070 0.98760 0.07680
C27 C 0.33126(16) 1.2749(10) 0.07226(14)
H15 H 0.32690 1.28010 0.04190
C28 C 0.30960(16) 1.4402(9) 0.14002(15)
H16 H 0.29150 1.55450 0.15530
C29 C 0.38869(18) 1.0658(9) 0.27787(13)
H17 H 0.37010 1.17710 0.29350
C30 C 0.44427(15) 0.7265(9) 0.23291(13)
H18 H 0.46320 0.61090 0.21850
C31 C 0.44931(18) 0.7229(10) 0.27727(13)
H19 H 0.47100 0.60520 0.29280
C32 C 0.30390(17) 1.4493(9) 0.09551(17)
H20 H 0.28220 1.56940 0.08060
C33 C 0.92280(15) 0.6178(8) -0.03227(12)
C34 C 0.88610(13) 0.4176(8) -0.03828(11)
C35 C 0.86126(14) 0.3558(8) -0.08109(11)
C36 C 0.87290(13) 0.2815(8) -0.00155(11)
C37 C 0.93267(15) 0.5456(8) 0.04527(12)
H21 H 0.94820 0.59120 0.07310
C38 C 0.83170(14) 0.1452(8) 0.17732(11)
C39 C 0.87520(16) 0.4905(10) -0.11762(13)
C40 C 0.83510(15) 0.0833(8) -0.00953(12)
H22 H 0.82600 -0.00880 0.01390
C41 C 0.82169(15) -0.0231(8) 0.21120(11)
C42 C 0.91754(14) -0.0617(8) 0.17114(11)
C43 C 0.87879(15) 0.1191(8) 0.15670(11)
C44 C 0.89722(14) 0.3469(8) 0.04070(11)
C45 C 0.94540(15) 0.6765(9) 0.00998(13)
H23 H 0.96970 0.80730 0.01440
C46 C 0.80205(17) 0.0939(10) -0.12977(13)
H24 H 0.77770 -0.03640 -0.13420
C47 C 0.88683(14) 0.2024(8) 0.07916(11)
H25 H 0.87940 0.03610 0.07440
C48 C 0.81234(15) 0.0267(8) -0.05017(12)
H26 H 0.78760 -0.10240 -0.05380
C49 C 0.90697(16) -0.2277(8) 0.20512(11)
C50 C 0.82444(15) 0.1551(9) -0.08760(12)
C51 C 0.74673(17) 0.3511(9) 0.18544(13)
H27 H 0.72210 0.47710 0.17750
C52 C 0.79209(16) 0.3311(9) 0.16552(12)
H28 H 0.79760 0.44180 0.14350
C53 C 0.88683(14) 0.2811(8) 0.11941(11)
H29 H 0.89220 0.44830 0.12480
C54 C 0.91268(17) 0.6861(10) -0.11027(14)
H30 H 0.92180 0.77420 -0.13410
C55 C 0.77254(17) 0.0026(9) 0.23053(13)
H31 H 0.76530 -0.10730 0.25210
C56 C 0.85947(17) -0.2056(8) 0.22398(11)
H32 H 0.85270 -0.31560 0.24570
C57 C 0.73659(17) 0.1825(10) 0.21813(13)
H33 H 0.70490 0.19540 0.23120
C58 C 0.81581(19) 0.2253(12) -0.16504(14)
H34 H 0.80090 0.18170 -0.19310
C59 C 0.94650(19) -0.4117(9) 0.21900(13)
H35 H 0.93970 -0.52360 0.24050
C60 C 1.00491(18) -0.2574(10) 0.16907(15)
H36 H 1.03780 -0.26650 0.15760
C61 C 0.85104(18) 0.4185(11) -0.15908(13)
H37 H 0.85930 0.50530 -0.18330
C62 C 0.93567(16) 0.7497(9) -0.07020(13)
H38 H 0.96010 0.88010 -0.06690
C63 C 0.96826(16) -0.0819(9) 0.15443(13)
H39 H 0.97640 0.02760 0.13300
C64 C 0.9937(2) -0.4259(10) 0.20137(16)
H40 H 1.01890 -0.54760 0.21070
loop_
_geom_bond_atom_site_label_1
_geom_bond_atom_site_label_2
_geom_bond_distance
_geom_bond_site_symmetry_1
_geom_bond_site_symmetry_2
C1 C11 1.446 1_555 1_555
C2 C5 1.402 1_555 1_555
C3 H1 0.929 1_555 1_555
C4 C7 1.399 1_555 1_555
C5 C3 1.393 1_555 1_555
C6 C7 1.428 1_555 1_555
C7 C2 1.439 1_555 1_555
C8 C5 1.481 1_555 1_555
H2 C8 0.930 1_555 1_555
C9 C6 1.410 1_555 1_555
C10 C6 1.425 1_555 1_555
C11 C22 1.374 1_555 1_555
C12 C14 1.439 1_555 1_555
C13 C2 1.419 1_555 1_555
H3 C13 0.930 1_555 1_555
C14 C15 1.406 1_555 1_555
C15 C1 1.410 1_555 1_555
C16 C9 1.440 1_555 1_555
H4 C16 0.931 1_555 1_555
C17 C8 1.310 1_555 1_555
H5 C17 0.930 1_555 1_555
C18 C10 1.391 1_555 1_555
H6 C18 0.930 1_555 1_555
C19 C18 1.382 1_555 1_555
H7 C19 0.931 1_555 1_555
C20 C9 1.389 1_555 1_555
H8 C20 0.930 1_555 1_555
C21 C3 1.381 1_555 1_555
H9 C21 0.930 1_555 1_555
C22 C12 1.387 1_555 1_555
H10 C22 0.930 1_555 1_555
C23 C4 1.450 1_555 1_555
H11 C23 0.931 1_555 1_555
C24 C10 1.422 1_555 1_555
H12 C24 0.930 1_555 1_555
C25 H13 0.929 1_555 1_555
C26 C14 1.426 1_555 1_555
H14 C26 0.931 1_555 1_555
C27 C26 1.348 1_555 1_555
H15 C27 0.931 1_555 1_555
C28 C12 1.410 1_555 1_555
H16 C28 0.929 1_555 1_555
C29 C11 1.426 1_555 1_555
H17 C29 0.931 1_555 1_555
C30 C1 1.418 1_555 1_555
H18 C30 0.930 1_555 1_555
C31 C25 1.409 1_555 1_555
H19 C31 0.930 1_555 1_555
C32 C27 1.413 1_555 1_555
H20 C32 0.931 1_555 1_555
C33 C34 1.416 1_555 1_555
C34 C35 1.428 1_555 1_555
C35 C39 1.423 1_555 1_555
C36 C34 1.426 1_555 1_555
C37 H21 0.931 1_555 1_555
C38 C41 1.434 1_555 1_555
C39 C54 1.412 1_555 1_555
C40 C36 1.429 1_555 1_555
H22 C40 0.931 1_555 1_555
C41 C55 1.430 1_555 1_555
C42 C43 1.408 1_555 1_555
C43 C38 1.406 1_555 1_555
C44 C36 1.414 1_555 1_555
C45 C33 1.392 1_555 1_555
H23 C45 0.931 1_555 1_555
C46 H24 0.930 1_555 1_555
C47 C44 1.473 1_555 1_555
H25 C47 0.930 1_555 1_555
C48 C40 1.347 1_555 1_555
H26 C48 0.930 1_555 1_555
C49 C42 1.433 1_555 1_555
C50 C35 1.421 1_555 1_555
C51 H27 0.930 1_555 1_555
C52 C38 1.425 1_555 1_555
H28 C52 0.931 1_555 1_555
C53 C43 1.483 1_555 1_555
H29 C53 0.930 1_555 1_555
C54 H30 0.929 1_555 1_555
C55 H31 0.929 1_555 1_555
C56 C41 1.388 1_555 1_555
H32 C56 0.929 1_555 1_555
C57 C51 1.409 1_555 1_555
H33 C57 0.930 1_555 1_555
C58 C46 1.381 1_555 1_555
H34 C58 0.930 1_555 1_555
C59 C49 1.428 1_555 1_555
H35 C59 0.931 1_555 1_555
C60 H36 0.931 1_555 1_555
C61 C39 1.401 1_555 1_555
H37 C61 0.929 1_555 1_555
C62 C33 1.443 1_555 1_555
H38 C62 0.930 1_555 1_555
C63 C42 1.423 1_555 1_555
H39 C63 0.931 1_555 1_555
C64 C59 1.354 1_555 1_555
H40 C64 0.931 1_555 1_555
C4 C21 1.389 1_555 1_555
C13 C16 1.343 1_555 1_555
C15 C17 1.476 1_555 1_555
C19 C20 1.379 1_555 1_555
C23 C24 1.342 1_555 1_555
C25 C29 1.338 1_555 1_555
C28 C32 1.366 1_555 1_555
C30 C31 1.361 1_555 1_555
C37 C44 1.388 1_555 1_555
C37 C45 1.371 1_555 1_555
C46 C50 1.392 1_555 1_555
C47 C53 1.315 1_555 1_555
C48 C50 1.414 1_555 1_555
C49 C56 1.384 1_555 1_555
C51 C52 1.353 1_555 1_555
C54 C62 1.342 1_555 1_555
C55 C57 1.346 1_555 1_555
C58 C61 1.364 1_555 1_555
C60 C63 1.356 1_555 1_555
C60 C64 1.407 1_555 1_555
#END
