
#######################################################################
#
#                 Cambridge Crystallographic Data Centre
#                                CCDC
#
#######################################################################
#
# If this CIF has been generated from an entry in the Cambridge
# Structural Database, then it will include bibliographic, chemical,
# crystal, experimental, refinement or atomic coordinate data resulting
# from the CCDC's data processing and validation procedures.
#
#######################################################################

data_CSD_CIF_GIMXOR
_audit_creation_date 2013-09-13
_audit_creation_method CSD-ConQuest-V1
_database_code_CSD GIMXOR
_database_code_depnum_ccdc_archive 'CCDC 832521'
_chemical_formula_sum 'C32 H20'
_chemical_formula_moiety
;
C32 H20
;
_journal_coden_Cambridge 24
_journal_volume 54
_journal_year 2013
_journal_page_first 3263
_journal_name_full 'Tetrahedron Lett. '
loop_
_publ_author_name
"Ye-Xin Li"
"Guo-Xin Sun"
"Jin-Ling Miao"
"Yong Nie"
"Zhen-Wei Zhang"
"Xu-Tang Tao"
_chemical_name_systematic
;
1-(2-(9-Anthryl)vinyl)pyrene
;
_cell_volume   2108.828
_exptl_crystal_colour 'yellow'
_exptl_crystal_density_diffrn 1.274
_exptl_crystal_description 'plate'
_diffrn_ambient_temperature 291.1
#These two values have been output from a single CSD field.
_refine_ls_R_factor_gt 0.0534
_refine_ls_wR_factor_gt 0.0534
loop_
_citation_database_id_CSD
_citation_special_details
GIMWIK "is a stereoisomer of this entry"
_symmetry_cell_setting monoclinic
_symmetry_space_group_name_H-M 'P 21/n'
_symmetry_Int_Tables_number 14
loop_
_symmetry_equiv_pos_site_id
_symmetry_equiv_pos_as_xyz
1 x,y,z
2 1/2-x,1/2+y,1/2-z
3 -x,-y,-z
4 -1/2+x,-1/2-y,-1/2+z
_cell_length_a 9.3708(18)
_cell_length_b 20.465(3)
_cell_length_c 11.595(3)
_cell_angle_alpha 90
_cell_angle_beta 108.49(2)
_cell_angle_gamma 90
_cell_formula_units_Z 4
loop_
_atom_type_symbol
_atom_type_radius_bond
C 0.68
H 0.23
loop_
_atom_site_label
_atom_site_type_symbol
_atom_site_fract_x
_atom_site_fract_y
_atom_site_fract_z
C1 C 0.8347(2) 0.1837(1) 0.13316(19)
C2 C 0.7911(2) 0.07681(10) 0.2150(2)
C3 C 0.8450(2) 0.14258(10) 0.2339(2)
C4 C 1.1474(2) 0.33517(10) 0.12047(19)
C5 C 1.2436(2) 0.28036(10) 0.14077(19)
C6 C 0.7280(2) 0.0524(1) 0.0950(2)
C7 C 1.2043(2) 0.39616(10) 0.17079(19)
C8 C 1.3966(2) 0.28614(11) 0.2172(2)
C9 C 0.7714(2) 0.15676(10) 0.01319(19)
H1 H 0.76590 0.18260 -0.05410
C10 C 1.3570(2) 0.40187(10) 0.2464(2)
C11 C 0.7199(2) 0.09457(11) -0.0039(2)
H2 H 0.67780 0.07910 -0.08290
C12 C 0.9082(2) 0.16639(12) 0.3544(2)
C13 C 0.8894(2) 0.24826(10) 0.1532(2)
C14 C 0.8012(3) 0.03518(12) 0.3158(3)
C15 C 1.4484(2) 0.34665(11) 0.2685(2)
H3 H 1.54740 0.35030 0.31920
C16 C 0.9504(2) 0.27024(11) 0.2732(2)
H4 H 0.98610 0.31290 0.28700
C17 C 0.9591(2) 0.23088(12) 0.3712(2)
H5 H 0.99930 0.24740 0.44960
C18 C 0.8811(2) 0.29265(10) 0.0507(2)
H6 H 0.79000 0.29400 -0.01210
C19 C 1.4932(3) 0.23077(12) 0.2340(2)
H7 H 1.59240 0.23420 0.28430
C20 C 1.1147(3) 0.45367(11) 0.1504(2)
H8 H 1.01380 0.45100 0.10370
C21 C 0.6766(2) -0.01233(11) 0.0788(3)
H9 H 0.63430 -0.02860 0.00040
C22 C 1.1978(3) 0.21838(10) 0.0839(2)
H10 H 1.09940 0.21310 0.03310
C23 C 0.7488(3) -0.02890(13) 0.2938(3)
H11 H 0.75510 -0.05640 0.35920
C24 C 0.9161(3) 0.12335(14) 0.4540(2)
H12 H 0.95750 0.13860 0.53320
C25 C 1.4114(3) 0.46446(12) 0.2948(2)
H13 H 1.51050 0.46850 0.34500
C26 C 0.6878(3) -0.05220(13) 0.1768(3)
H14 H 0.65390 -0.09510 0.16410
C27 C 0.9900(2) 0.33068(10) 0.0391(2)
H15 H 0.96450 0.35790 -0.02860
C28 C 1.4432(3) 0.17336(13) 0.1781(3)
H16 H 1.50800 0.13780 0.18990
C29 C 1.3233(3) 0.51777(12) 0.2700(3)
H17 H 1.36240 0.55820 0.30100
C30 C 1.2938(3) 0.16730(11) 0.1022(2)
H18 H 1.26040 0.12760 0.06410
C31 C 1.1722(3) 0.51245(11) 0.1972(2)
H19 H 1.11120 0.54940 0.18100
C32 C 0.8653(3) 0.06150(15) 0.4360(3)
H20 H 0.87190 0.03520 0.50290
loop_
_geom_bond_atom_site_label_1
_geom_bond_atom_site_label_2
_geom_bond_distance
_geom_bond_site_symmetry_1
_geom_bond_site_symmetry_2
C1 C3 1.418 1_555 1_555
C2 C3 1.430 1_555 1_555
C3 C12 1.420 1_555 1_555
C4 C5 1.411 1_555 1_555
C5 C8 1.431 1_555 1_555
C6 C2 1.419 1_555 1_555
C7 C4 1.409 1_555 1_555
C8 C15 1.393 1_555 1_555
C9 C1 1.438 1_555 1_555
H1 C9 0.930 1_555 1_555
C10 C7 1.426 1_555 1_555
C11 C6 1.418 1_555 1_555
H2 C11 0.930 1_555 1_555
C12 C17 1.396 1_555 1_555
C13 C1 1.410 1_555 1_555
C14 C2 1.425 1_555 1_555
C15 C10 1.392 1_555 1_555
H3 C15 0.931 1_555 1_555
C16 C13 1.400 1_555 1_555
H4 C16 0.930 1_555 1_555
C17 C16 1.374 1_555 1_555
H5 C17 0.930 1_555 1_555
C18 C13 1.478 1_555 1_555
H6 C18 0.930 1_555 1_555
C19 C8 1.425 1_555 1_555
H7 C19 0.930 1_555 1_555
C20 C7 1.421 1_555 1_555
H8 C20 0.930 1_555 1_555
C21 C6 1.402 1_555 1_555
H9 C21 0.930 1_555 1_555
C22 C5 1.431 1_555 1_555
H10 C22 0.930 1_555 1_555
C23 C14 1.395 1_555 1_555
H11 C23 0.931 1_555 1_555
C24 C12 1.436 1_555 1_555
H12 C24 0.930 1_555 1_555
C25 C10 1.426 1_555 1_555
H13 C25 0.930 1_555 1_555
C26 C21 1.376 1_555 1_555
H14 C26 0.929 1_555 1_555
C27 C4 1.480 1_555 1_555
H15 C27 0.930 1_555 1_555
C28 C19 1.352 1_555 1_555
H16 C28 0.930 1_555 1_555
C29 C25 1.343 1_555 1_555
H17 C29 0.930 1_555 1_555
C30 C22 1.351 1_555 1_555
H18 C30 0.930 1_555 1_555
C31 C20 1.359 1_555 1_555
H19 C31 0.930 1_555 1_555
C32 C14 1.436 1_555 1_555
H20 C32 0.930 1_555 1_555
C9 C11 1.353 1_555 1_555
C18 C27 1.324 1_555 1_555
C23 C26 1.379 1_555 1_555
C24 C32 1.345 1_555 1_555
C28 C30 1.403 1_555 1_555
C29 C31 1.404 1_555 1_555
#END
