
#######################################################################
#
#                 Cambridge Crystallographic Data Centre
#                                CCDC
#
#######################################################################
#
# If this CIF has been generated from an entry in the Cambridge
# Structural Database, then it will include bibliographic, chemical,
# crystal, experimental, refinement or atomic coordinate data resulting
# from the CCDC's data processing and validation procedures.
#
#######################################################################

data_CSD_CIF_GISPUV
_audit_creation_date 2014-01-28
_audit_creation_method CSD-ConQuest-V1
_database_code_CSD GISPUV
_database_code_depnum_ccdc_archive 'CCDC 973696'
_chemical_formula_sum 'C60 H28'
_chemical_formula_moiety
;
C60 H28
;
_journal_coden_Cambridge 182
_journal_volume 50
_journal_year 2014
_journal_page_first 2657
_journal_name_full 'Chem.Commun. '
loop_
_publ_author_name
"A.V.Zabula"
"Y.V.Sevryugina"
"S.N.Spisak"
"L.Kobryn"
"R.Sygula"
"A.Sygula"
"M.A.Petrukhina"
_chemical_name_systematic
;
bisdibenzo[1,10-6,7]fluorantheno[2,3-b:2',3'-n]tetraphenylene
;
_cell_volume   1788.105
_exptl_crystal_colour 'pale yellow'
_exptl_crystal_density_diffrn 1.391
_exptl_crystal_description 'plate'
_diffrn_ambient_temperature 100
#These two values have been output from a single CSD field.
_refine_ls_R_factor_gt 0.0374
_refine_ls_wR_factor_gt 0.0374
_symmetry_cell_setting triclinic
_symmetry_space_group_name_H-M 'P -1'
_symmetry_Int_Tables_number 2
loop_
_symmetry_equiv_pos_site_id
_symmetry_equiv_pos_as_xyz
1 x,y,z
2 -x,-y,-z
_cell_length_a 9.8507(3)
_cell_length_b 14.1479(4)
_cell_length_c 15.1646(4)
_cell_angle_alpha 105.607(1)
_cell_angle_beta 102.809(1)
_cell_angle_gamma 110.367(1)
_cell_formula_units_Z 2
loop_
_atom_type_symbol
_atom_type_radius_bond
C 0.68
H 0.23
loop_
_atom_site_label
_atom_site_type_symbol
_atom_site_fract_x
_atom_site_fract_y
_atom_site_fract_z
C1 C 0.40219(15) 0.27871(10) 0.35860(9)
C2 C 0.32037(15) 0.33448(11) 0.32547(9)
C3 C 0.41663(15) 0.41138(11) 0.29653(9)
C4 C 0.55809(15) 0.40266(11) 0.31007(9)
C5 C 0.55035(15) 0.32124(10) 0.34903(9)
C6 C 0.37533(15) 0.23468(10) 0.42697(10)
C7 C 0.23980(16) 0.23255(11) 0.44942(10)
H1 H 0.20500 0.19310 0.48800
C8 C 0.15897(16) 0.28628(12) 0.41647(11)
H2 H 0.06950 0.28200 0.43240
C9 C 0.20656(15) 0.34866(11) 0.35869(10)
C10 C 0.17984(16) 0.44002(12) 0.34889(10)
H3 H 0.09360 0.44830 0.36160
C11 C 0.27474(16) 0.51564(11) 0.32179(10)
H4 H 0.25260 0.57460 0.31700
C12 C 0.40695(16) 0.50755(11) 0.30052(9)
C13 C 0.54292(16) 0.59116(11) 0.30105(10)
H5 H 0.53760 0.65420 0.29290
C14 C 0.68029(16) 0.58240(11) 0.31303(10)
H6 H 0.76700 0.63920 0.31260
C15 C 0.69495(16) 0.48839(11) 0.32619(9)
C16 C 0.83096(15) 0.47902(11) 0.37245(10)
H7 H 0.92890 0.52880 0.37700
C17 C 0.82354(15) 0.39947(11) 0.41057(10)
H8 H 0.91670 0.39660 0.44070
C18 C 0.67935(15) 0.32099(10) 0.40602(9)
C19 C 0.65205(15) 0.25922(10) 0.46936(9)
C20 C 0.50369(15) 0.21837(10) 0.48073(10)
C21 C 0.87638(15) 0.67979(10) 0.95831(9)
C22 C 0.82322(16) 0.76125(10) 0.96127(9)
C23 C 0.92493(16) 0.84118(10) 0.93774(10)
C24 C 1.04338(15) 0.81146(10) 0.92296(10)
C25 C 1.01404(15) 0.71158(10) 0.93537(9)
C26 C 0.77982(15) 0.57382(11) 0.93831(9)
C27 C 0.62624(16) 0.55610(11) 0.93755(10)
H9 H 0.55800 0.48720 0.93370
C28 C 0.57483(16) 0.63643(11) 0.94226(10)
H10 H 0.47330 0.62140 0.94280
C29 C 0.67134(16) 0.74207(11) 0.94633(10)
C30 C 0.63036(17) 0.82100(11) 0.91774(10)
H11 H 0.53310 0.82020 0.91630
C31 C 0.72844(17) 0.89739(11) 0.89251(10)
H12 H 0.69580 0.94670 0.87300
C32 C 0.87914(17) 0.90458(11) 0.89483(10)
C33 C 0.97793(17) 0.95295(11) 0.84594(11)
H13 H 0.96170 1.00540 0.82250
C34 C 1.09470(17) 0.92530(11) 0.83237(11)
H14 H 1.15710 0.95970 0.80030
C35 C 1.12568(16) 0.84521(11) 0.86551(10)
C36 C 1.20179(16) 0.77935(11) 0.83346(10)
H15 H 1.27360 0.80350 0.80250
C37 C 1.17376(15) 0.68179(11) 0.84631(10)
H16 H 1.22720 0.64140 0.82400
C38 C 1.06630(15) 0.63975(10) 0.89231(9)
C39 C 0.97895(15) 0.52612(10) 0.88029(9)
C40 C 0.83784(15) 0.49387(10) 0.90164(9)
C41 C 0.49121(15) 0.17296(10) 0.55176(10)
H17 H 0.39360 0.14520 0.55940
C42 C 0.61393(16) 0.16635(10) 0.6116(1)
C43 C 0.75683(15) 0.20115(10) 0.59688(9)
C44 C 0.77199(15) 0.24575(10) 0.52642(10)
H18 H 0.86810 0.26820 0.51630
C45 C 0.74672(15) 0.38216(11) 0.87355(9)
H19 H 0.65600 0.36030 0.88980
C46 C 0.78251(15) 0.30202(10) 0.82316(9)
C47 C 0.92337(15) 0.33369(10) 0.80516(9)
C48 C 1.01849(15) 0.44397(11) 0.83569(9)
H20 H 1.11490 0.46480 0.82590
C49 C 0.89059(15) 0.18851(10) 0.65259(10)
C50 C 0.94219(17) 0.11730(11) 0.60355(11)
H21 H 0.88830 0.07450 0.53590
C51 C 1.07128(18) 0.10815(12) 0.65232(11)
H22 H 1.10370 0.05810 0.61840
C52 C 1.15253(17) 0.17221(12) 0.75048(11)
H23 H 1.24160 0.16680 0.78390
C53 C 1.10349(16) 0.24435(11) 0.79994(10)
H24 H 1.16050 0.28890 0.86700
C54 C 0.97118(15) 0.25233(10) 0.75228(10)
C55 C 0.58800(15) 0.1221(1) 0.68873(10)
C56 C 0.46998(16) 0.01809(11) 0.6600(1)
H25 H 0.41730 -0.02570 0.59240
C57 C 0.42825(16) -0.02238(11) 0.72882(11)
H26 H 0.34810 -0.09350 0.70830
C58 C 0.50419(16) 0.04154(11) 0.82768(10)
H27 H 0.47500 0.01480 0.87500
C59 C 0.62293(16) 0.14472(11) 0.85712(10)
H28 H 0.67520 0.18790 0.92490
C60 C 0.66697(15) 0.18615(10) 0.78863(10)
loop_
_geom_bond_atom_site_label_1
_geom_bond_atom_site_label_2
_geom_bond_distance
_geom_bond_site_symmetry_1
_geom_bond_site_symmetry_2
C1 C2 1.415 1_555 1_555
C2 C3 1.414 1_555 1_555
C3 C4 1.416 1_555 1_555
C4 C5 1.417 1_555 1_555
C5 C1 1.429 1_555 1_555
C6 C1 1.374 1_555 1_555
C7 C6 1.442 1_555 1_555
H1 C7 0.950 1_555 1_555
C8 C7 1.382 1_555 1_555
H2 C8 0.951 1_555 1_555
C9 C2 1.380 1_555 1_555
C10 C9 1.444 1_555 1_555
H3 C10 0.950 1_555 1_555
C11 C10 1.378 1_555 1_555
H4 C11 0.949 1_555 1_555
C12 C3 1.383 1_555 1_555
C13 C12 1.442 1_555 1_555
H5 C13 0.950 1_555 1_555
C14 C13 1.378 1_555 1_555
H6 C14 0.950 1_555 1_555
C15 C4 1.380 1_555 1_555
C16 C15 1.436 1_555 1_555
H7 C16 0.950 1_555 1_555
C17 C16 1.385 1_555 1_555
H8 C17 0.950 1_555 1_555
C18 C5 1.371 1_555 1_555
C19 C18 1.470 1_555 1_555
C20 C6 1.471 1_555 1_555
C21 C22 1.417 1_555 1_555
C22 C23 1.413 1_555 1_555
C23 C24 1.413 1_555 1_555
C24 C25 1.414 1_555 1_555
C25 C21 1.425 1_555 1_555
C26 C21 1.371 1_555 1_555
C27 C26 1.442 1_555 1_555
H9 C27 0.949 1_555 1_555
C28 C27 1.388 1_555 1_555
H10 C28 0.950 1_555 1_555
C29 C22 1.377 1_555 1_555
C30 C29 1.447 1_555 1_555
H11 C30 0.950 1_555 1_555
C31 C30 1.381 1_555 1_555
H12 C31 0.950 1_555 1_555
C32 C23 1.377 1_555 1_555
C33 C32 1.447 1_555 1_555
H13 C33 0.950 1_555 1_555
C34 C33 1.376 1_555 1_555
H14 C34 0.950 1_555 1_555
C35 C24 1.383 1_555 1_555
C36 C35 1.439 1_555 1_555
H15 C36 0.950 1_555 1_555
C37 C36 1.387 1_555 1_555
H16 C37 0.950 1_555 1_555
C38 C25 1.371 1_555 1_555
C39 C38 1.472 1_555 1_555
C40 C26 1.472 1_555 1_555
C41 C20 1.401 1_555 1_555
H17 C41 0.950 1_555 1_555
C42 C41 1.390 1_555 1_555
C43 C42 1.411 1_555 1_555
C44 C19 1.405 1_555 1_555
H18 C44 0.950 1_555 1_555
C45 C40 1.402 1_555 1_555
H19 C45 0.949 1_555 1_555
C46 C45 1.388 1_555 1_555
C47 C46 1.415 1_555 1_555
C48 C39 1.403 1_555 1_555
H20 C48 0.950 1_555 1_555
C49 C43 1.495 1_555 1_555
C50 C49 1.395 1_555 1_555
H21 C50 0.949 1_555 1_555
C51 C50 1.389 1_555 1_555
H22 C51 0.950 1_555 1_555
C52 C51 1.385 1_555 1_555
H23 C52 0.950 1_555 1_555
C53 C52 1.389 1_555 1_555
H24 C53 0.950 1_555 1_555
C54 C47 1.496 1_555 1_555
C55 C42 1.497 1_555 1_555
C56 C55 1.395 1_555 1_555
H25 C56 0.950 1_555 1_555
C57 C56 1.391 1_555 1_555
H26 C57 0.950 1_555 1_555
C58 C57 1.388 1_555 1_555
H27 C58 0.950 1_555 1_555
C59 C58 1.388 1_555 1_555
H28 C59 0.950 1_555 1_555
C60 C46 1.494 1_555 1_555
C8 C9 1.441 1_555 1_555
C11 C12 1.443 1_555 1_555
C14 C15 1.447 1_555 1_555
C17 C18 1.440 1_555 1_555
C19 C20 1.441 1_555 1_555
C28 C29 1.441 1_555 1_555
C31 C32 1.444 1_555 1_555
C34 C35 1.452 1_555 1_555
C37 C38 1.440 1_555 1_555
C39 C40 1.443 1_555 1_555
C43 C44 1.389 1_555 1_555
C47 C48 1.389 1_555 1_555
C49 C54 1.402 1_555 1_555
C53 C54 1.401 1_555 1_555
C55 C60 1.403 1_555 1_555
C59 C60 1.400 1_555 1_555
#END
