
#######################################################################
#
#                 Cambridge Crystallographic Data Centre
#                                CCDC
#
#######################################################################
#
# If this CIF has been generated from an entry in the Cambridge
# Structural Database, then it will include bibliographic, chemical,
# crystal, experimental, refinement or atomic coordinate data resulting
# from the CCDC's data processing and validation procedures.
#
#######################################################################

data_CSD_CIF_GOGFUD
_audit_creation_date 1999-08-26
_audit_creation_method CSD-ConQuest-V1
_database_code_CSD GOGFUD
_database_code_depnum_ccdc_archive 'CCDC 108047'
_chemical_formula_sum 'C36 H24'
_chemical_formula_moiety
;
C36 H24
;
_journal_coden_Cambridge 1220
_journal_volume 5
_journal_year 1999
_journal_page_first 289
_journal_name_full 'Chem.-Eur.J. '
loop_
_publ_author_name
"A.Sastre"
"G.Srdanov"
"F.Wudl"
_chemical_name_systematic
;
syn-7,7':12,12'-Bi(7H,12H-pleiadene)
;
_cell_volume   1176.869
_exptl_crystal_colour 'colorless'
_exptl_crystal_density_diffrn 1.283
_exptl_special_details
;
The space group is P-1, not P1 as stated in the paper

;
_exptl_crystal_description 'irregular'
_exptl_crystal_preparation 'chloroform'
_diffrn_ambient_temperature ?
_diffrn_special_details
;
The study was carried out at room temperature,in the range 283-303K

;
#These two values have been output from a single CSD field.
_refine_ls_R_factor_gt 0.089
_refine_ls_wR_factor_gt 0.089
_symmetry_cell_setting triclinic
_symmetry_space_group_name_H-M 'P -1'
_symmetry_Int_Tables_number 2
loop_
_symmetry_equiv_pos_site_id
_symmetry_equiv_pos_as_xyz
1 x,y,z
2 -x,-y,-z
_cell_length_a 8.2711(7)
_cell_length_b 10.0185(8)
_cell_length_c 14.8885(12)
_cell_angle_alpha 83.038(2)
_cell_angle_beta 75.245(2)
_cell_angle_gamma 82.079(2)
_cell_formula_units_Z 2
loop_
_atom_type_symbol
_atom_type_radius_bond
C 0.68
H 0.23
loop_
_atom_site_label
_atom_site_type_symbol
_atom_site_fract_x
_atom_site_fract_y
_atom_site_fract_z
C1 C -0.2209(7) 0.3141(6) 0.2693(6)
C2 C -0.1424(7) 0.3735(6) 0.1802(5)
C3 C -0.0255(7) 0.4819(6) 0.1594(4)
C4 C 0.1730(7) 0.4273(6) 0.1407(4)
C5 C 0.2064(8) 0.2759(7) 0.1407(6)
C6 C 0.1868(7) 0.1860(7) 0.2222(6)
C7 C 0.1455(7) 0.2240(6) 0.3151(5)
C8 C 0.1184(7) 0.3659(6) 0.3454(4)
C9 C -0.0724(7) 0.4385(6) 0.3649(5)
C10 C -0.1966(7) 0.3444(6) 0.3563(5)
C11 C -0.1774(8) 0.3317(7) 0.1033(5)
C12 C -0.2875(10) 0.2349(8) 0.1076(7)
C13 C -0.3675(9) 0.1813(8) 0.1921(8)
C14 C -0.3399(8) 0.2178(7) 0.2753(7)
C15 C -0.4265(9) 0.1616(8) 0.3623(8)
C16 C -0.4041(10) 0.1941(8) 0.4437(7)
C17 C -0.2873(9) 0.2876(7) 0.4390(6)
C18 C 0.2546(8) 0.2289(8) 0.0549(6)
C19 C 0.2848(10) 0.0888(11) 0.0437(7)
C20 C 0.264(1) -0.0009(9) 0.1199(8)
C21 C 0.2185(8) 0.0430(8) 0.2087(7)
C22 C 0.2032(9) -0.0530(9) 0.2850(9)
C23 C 0.1596(10) -0.0147(9) 0.3734(8)
C24 C 0.1324(8) 0.1239(8) 0.3873(6)
C25 C 0.2697(7) 0.4886(6) 0.1967(5)
C26 C 0.2456(7) 0.4567(6) 0.2916(5)
C27 C 0.3420(8) 0.5129(7) 0.3392(5)
C28 C 0.4596(8) 0.6010(7) 0.2916(6)
C29 C 0.4800(9) 0.6312(7) 0.1985(7)
C30 C 0.3872(8) 0.5763(7) 0.1491(5)
C31 C -0.0762(7) 0.5974(7) 0.2194(5)
C32 C -0.0992(8) 0.7292(7) 0.1796(5)
C33 C -0.1476(9) 0.8375(7) 0.2321(7)
C34 C -0.1727(9) 0.8163(8) 0.3267(7)
C35 C -0.1473(8) 0.6876(8) 0.3676(5)
C36 C -0.0982(7) 0.5764(6) 0.3160(5)
H1 H -0.0372(7) 0.5239(6) 0.0981(4)
H2 H 0.2200(7) 0.4610(6) 0.0760(4)
H3 H 0.1414(7) 0.3521(6) 0.4074(4)
H4 H -0.1015(7) 0.4535(6) 0.4313(5)
H5 H -0.1250(8) 0.3698(7) 0.0449(5)
H6 H -0.3049(10) 0.2083(8) 0.0533(7)
H7 H -0.4427(9) 0.1188(8) 0.1957(8)
H8 H -0.5020(9) 0.1000(8) 0.3641(8)
H9 H -0.4632(10) 0.1564(8) 0.5008(7)
H10 H -0.2716(9) 0.3113(7) 0.4944(6)
H11 H 0.2682(8) 0.2905(8) 0.0022(6)
H12 H 0.3186(10) 0.0588(11) -0.0156(7)
H13 H 0.2803(10) -0.0931(9) 0.1128(8)
H14 H 0.2229(9) -0.1445(9) 0.2756(9)
H15 H 0.148(1) -0.0795(9) 0.4242(8)
H16 H 0.1042(8) 0.1486(8) 0.4480(6)
H17 H 0.3277(8) 0.4915(7) 0.4031(5)
H18 H 0.5231(8) 0.6383(7) 0.3235(6)
H19 H 0.5577(9) 0.6899(7) 0.1670(7)
H20 H 0.4032(8) 0.5977(7) 0.0851(5)
H21 H -0.0811(8) 0.7444(7) 0.1151(5)
H22 H -0.1633(9) 0.9246(7) 0.2036(7)
H23 H -0.2069(9) 0.8889(8) 0.3632(7)
H24 H -0.1635(8) 0.6744(8) 0.4320(5)
loop_
_geom_bond_atom_site_label_1
_geom_bond_atom_site_label_2
_geom_bond_distance
_geom_bond_site_symmetry_1
_geom_bond_site_symmetry_2
C1 C2 1.418 1_555 1_555
C2 C3 1.505 1_555 1_555
C3 C4 1.621 1_555 1_555
C4 C5 1.504 1_555 1_555
C5 C6 1.409 1_555 1_555
C6 C7 1.423 1_555 1_555
C7 C8 1.514 1_555 1_555
C8 C9 1.614 1_555 1_555
C9 C10 1.524 1_555 1_555
C10 C1 1.434 1_555 1_555
C11 C2 1.374 1_555 1_555
C12 C11 1.404 1_555 1_555
C13 C12 1.349 1_555 1_555
C14 C1 1.450 1_555 1_555
C15 C14 1.403 1_555 1_555
C16 C15 1.355 1_555 1_555
C17 C10 1.371 1_555 1_555
C18 C5 1.359 1_555 1_555
C19 C18 1.414 1_555 1_555
C20 C19 1.349 1_555 1_555
C21 C6 1.450 1_555 1_555
C22 C21 1.388 1_555 1_555
C23 C22 1.361 1_555 1_555
C24 C7 1.372 1_555 1_555
C25 C4 1.520 1_555 1_555
C26 C8 1.495 1_555 1_555
C27 C26 1.401 1_555 1_555
C28 C27 1.400 1_555 1_555
C29 C28 1.354 1_555 1_555
C30 C25 1.397 1_555 1_555
C31 C3 1.496 1_555 1_555
C32 C31 1.389 1_555 1_555
C33 C32 1.369 1_555 1_555
C34 C33 1.365 1_555 1_555
C35 C34 1.370 1_555 1_555
C36 C9 1.496 1_555 1_555
H1 C3 0.980 1_555 1_555
H2 C4 0.980 1_555 1_555
H3 C8 0.979 1_555 1_555
H4 C9 0.981 1_555 1_555
H5 C11 0.929 1_555 1_555
H6 C12 0.931 1_555 1_555
H7 C13 0.930 1_555 1_555
H8 C15 0.930 1_555 1_555
H9 C16 0.930 1_555 1_555
H10 C17 0.930 1_555 1_555
H11 C18 0.931 1_555 1_555
H12 C19 0.929 1_555 1_555
H13 C20 0.930 1_555 1_555
H14 C22 0.930 1_555 1_555
H15 C23 0.929 1_555 1_555
H16 C24 0.929 1_555 1_555
H17 C27 0.930 1_555 1_555
H18 C28 0.930 1_555 1_555
H19 C29 0.929 1_555 1_555
H20 C30 0.930 1_555 1_555
H21 C32 0.930 1_555 1_555
H22 C33 0.930 1_555 1_555
H23 C34 0.930 1_555 1_555
H24 C35 0.929 1_555 1_555
C13 C14 1.413 1_555 1_555
C16 C17 1.419 1_555 1_555
C20 C21 1.387 1_555 1_555
C23 C24 1.408 1_555 1_555
C25 C26 1.379 1_555 1_555
C29 C30 1.391 1_555 1_555
C31 C36 1.396 1_555 1_555
C35 C36 1.386 1_555 1_555
#END
