
#######################################################################
#
#                 Cambridge Crystallographic Data Centre
#                                CCDC
#
#######################################################################
#
# If this CIF has been generated from an entry in the Cambridge
# Structural Database, then it will include bibliographic, chemical,
# crystal, experimental, refinement or atomic coordinate data resulting
# from the CCDC's data processing and validation procedures.
#
#######################################################################

data_CSD_CIF_GOJDAK
_audit_creation_date 1989-06-23
_audit_creation_method CSD-ConQuest-V1
_database_code_CSD GOJDAK
_chemical_formula_sum 'C34 H32'
_chemical_formula_moiety
;
C34 H32
;
_journal_coden_Cambridge 582
_journal_volume 18
_journal_year 1988
_journal_page_first 465
_journal_name_full 'J.Crystallogr.Spectrosc.Res. '
loop_
_publ_author_name
"H.Behm"
"A.F.Lourens"
"P.T.Beurskens"
"W.J.C.Prinsen"
"C.A.J.Hajee"
"W.H.Laarhoven"
_chemical_name_systematic
;
2,4-Di-t-butylphenanthro(3,4-c)phenanthrene
;
_chemical_name_common
;
1,3-Di-t-butyl-hexahelicene
;
_cell_volume   2439.143
_exptl_crystal_density_diffrn 1.2
_diffrn_ambient_temperature ?
_diffrn_special_details
;
The study was carried out at room temperature,in the range 283-303K

;
#These two values have been output from a single CSD field.
_refine_ls_R_factor_gt 0.034
_refine_ls_wR_factor_gt 0.034
_symmetry_cell_setting monoclinic
_symmetry_space_group_name_H-M 'P 21/n'
_symmetry_Int_Tables_number 14
loop_
_symmetry_equiv_pos_site_id
_symmetry_equiv_pos_as_xyz
1 x,y,z
2 1/2-x,1/2+y,1/2-z
3 -x,-y,-z
4 -1/2+x,-1/2-y,-1/2+z
_cell_length_a 9.743(1)
_cell_length_b 9.798(2)
_cell_length_c 25.914(3)
_cell_angle_alpha 90
_cell_angle_beta 99.602(13)
_cell_angle_gamma 90
_cell_formula_units_Z 4
loop_
_atom_type_symbol
_atom_type_radius_bond
C 0.68
H 0.23
loop_
_atom_site_label
_atom_site_type_symbol
_atom_site_fract_x
_atom_site_fract_y
_atom_site_fract_z
C1 C 0.07280(14) 0.40342(13) 0.37576(5)
C2 C 0.18026(15) 0.49119(14) 0.36975(5)
C3 C 0.28006(15) 0.54286(13) 0.41072(5)
C4 C 0.26072(16) 0.50996(14) 0.46051(5)
C5 C 0.13618(18) 0.38908(16) 0.52171(6)
C6 C 0.03388(17) 0.30511(16) 0.53103(6)
C7 C -0.13994(17) 0.12550(17) 0.50026(7)
C8 C -0.20165(18) 0.04074(17) 0.46201(7)
C9 C -0.20652(18) -0.06698(16) 0.37544(7)
C10 C -0.15218(18) -0.08286(16) 0.33132(7)
C11 C 0.03866(19) -0.04860(17) 0.28106(6)
C12 C 0.16377(19) 0.00303(17) 0.27632(6)
C13 C 0.38455(18) 0.10954(17) 0.31717(7)
C14 C 0.47000(19) 0.15679(18) 0.36050(7)
C15 C 0.41899(17) 0.16895(16) 0.40769(7)
C16 C 0.28267(15) 0.14161(14) 0.40983(6)
C17 C 0.18904(14) 0.09891(13) 0.36499(5)
C18 C 0.24531(16) 0.07398(14) 0.31888(5)
C19 C 0.04373(15) 0.06682(13) 0.36574(5)
C20 C -0.02383(16) -0.02088(14) 0.32603(5)
C21 C -0.03247(14) 0.10845(13) 0.40654(5)
C22 C -0.14754(15) 0.02729(15) 0.41479(6)
C23 C 0.00116(14) 0.22563(13) 0.44020(5)
C24 C -0.03633(15) 0.21932(14) 0.49039(5)
C25 C 0.07589(14) 0.34579(13) 0.42681(5)
C26 C 0.16014(15) 0.41386(14) 0.46932(5)
C27 C -0.05085(15) 0.39959(13) 0.32884(5)
C28 C -0.09374(20) 0.55038(16) 0.31702(7)
C29 C -0.00683(20) 0.33758(18) 0.27975(6)
C30 C -0.18409(17) 0.32969(18) 0.33916(7)
C31 C 0.39708(16) 0.63530(14) 0.39881(6)
C32 C 0.47164(22) 0.70773(21) 0.44801(8)
C33 C 0.50316(21) 0.54691(21) 0.37677(9)
C34 C 0.34014(25) 0.74542(21) 0.35892(9)
H1 H 0.1845(14) 0.5276(14) 0.3332(5)
H2 H 0.3188(16) 0.5526(15) 0.4927(5)
H3 H 0.1944(16) 0.4434(15) 0.5507(6)
H4 H 0.0067(15) 0.2993(15) 0.5673(6)
H5 H -0.1698(16) 0.1277(15) 0.5359(6)
H6 H -0.2828(19) -0.0168(18) 0.4678(6)
H7 H -0.2926(19) -0.1168(18) 0.3810(6)
H8 H -0.1964(19) -0.1453(18) 0.3027(7)
H9 H -0.0156(18) -0.1078(18) 0.2523(6)
H10 H 0.2094(17) -0.0141(16) 0.2437(6)
H11 H 0.4267(19) 0.0981(18) 0.2820(7)
H12 H 0.5718(21) 0.1815(19) 0.3585(7)
H13 H 0.2489(15) 0.1485(13) 0.4441(5)
H14 H 0.4836(16) 0.1956(16) 0.4416(6)
H15 H -0.1749(19) 0.5542(17) 0.2859(6)
H16 H -0.0108(19) 0.6074(17) 0.3072(6)
H17 H -0.1284(20) 0.5940(18) 0.3497(7)
H18 H -0.0831(19) 0.3536(18) 0.2488(7)
H19 H 0.0842(20) 0.3797(18) 0.2707(6)
H20 H 0.0089(20) 0.2383(21) 0.2847(7)
H21 H -0.2651(18) 0.3592(17) 0.3110(7)
H22 H -0.1799(17) 0.2263(18) 0.3371(6)
H23 H -0.2057(18) 0.3546(17) 0.3762(7)
H24 H 0.5165(20) 0.6383(20) 0.4771(7)
H25 H 0.4003(22) 0.7654(20) 0.4650(7)
H26 H 0.5527(21) 0.7658(19) 0.4385(7)
H27 H 0.4574(19) 0.4981(19) 0.3427(7)
H28 H 0.5846(21) 0.6042(20) 0.3663(7)
H29 H 0.5471(22) 0.4743(23) 0.4056(8)
H30 H 0.4191(23) 0.8061(21) 0.3538(7)
H31 H 0.2605(26) 0.7960(25) 0.3718(8)
H32 H 0.3019(21) 0.7055(20) 0.3223(8)
loop_
_geom_bond_atom_site_label_1
_geom_bond_atom_site_label_2
_geom_bond_distance
_geom_bond_site_symmetry_1
_geom_bond_site_symmetry_2
C1 C2 1.384 1_555 1_555
C2 C3 1.409 1_555 1_555
C3 C4 1.373 1_555 1_555
C4 C26 1.405 1_555 1_555
C5 C6 1.345 1_555 1_555
C6 C24 1.429 1_555 1_555
C7 C8 1.355 1_555 1_555
C8 C22 1.417 1_555 1_555
C9 C10 1.347 1_555 1_555
C10 C20 1.417 1_555 1_555
C11 C12 1.344 1_555 1_555
C12 C18 1.428 1_555 1_555
C13 C14 1.362 1_555 1_555
C14 C15 1.400 1_555 1_555
C15 C16 1.365 1_555 1_555
C16 C17 1.416 1_555 1_555
C17 C18 1.417 1_555 1_555
C18 C13 1.408 1_555 1_555
C19 C17 1.454 1_555 1_555
C20 C11 1.428 1_555 1_555
C21 C19 1.448 1_555 1_555
C22 C9 1.424 1_555 1_555
C23 C21 1.446 1_555 1_555
C24 C7 1.420 1_555 1_555
C25 C1 1.434 1_555 1_555
C26 C5 1.436 1_555 1_555
C27 C1 1.563 1_555 1_555
C28 C27 1.552 1_555 1_555
C29 C27 1.534 1_555 1_555
C30 C27 1.530 1_555 1_555
C31 C3 1.527 1_555 1_555
C32 C31 1.532 1_555 1_555
C33 C31 1.530 1_555 1_555
C34 C31 1.533 1_555 1_555
H1 C2 1.019 1_555 1_555
H2 C4 1.016 1_555 1_555
H3 C5 1.014 1_555 1_555
H4 C6 1.020 1_555 1_555
H5 C7 1.014 1_555 1_555
H6 C8 1.003 1_555 1_555
H7 C9 1.001 1_555 1_555
H8 C10 1.002 1_555 1_555
H9 C11 1.020 1_555 1_555
H10 C12 1.032 1_555 1_555
H11 C13 1.066 1_555 1_555
H12 C14 1.031 1_555 1_555
H13 C16 0.999 1_555 1_555
H14 C15 1.026 1_555 1_555
H15 C28 1.032 1_555 1_555
H16 C28 1.048 1_555 1_555
H17 C28 1.053 1_555 1_555
H18 C29 1.011 1_555 1_555
H19 C29 1.040 1_555 1_555
H20 C29 0.990 1_555 1_555
H21 C30 1.023 1_555 1_555
H22 C30 1.016 1_555 1_555
H23 C30 1.045 1_555 1_555
H24 C32 1.055 1_555 1_555
H25 C32 1.048 1_555 1_555
H26 C32 1.036 1_555 1_555
H27 C33 1.037 1_555 1_555
H28 C33 1.044 1_555 1_555
H29 C33 1.068 1_555 1_555
H30 C34 0.998 1_555 1_555
H31 C34 1.022 1_555 1_555
H32 C34 1.037 1_555 1_555
C19 C20 1.416 1_555 1_555
C21 C22 1.419 1_555 1_555
C23 C24 1.410 1_555 1_555
C23 C25 1.456 1_555 1_555
C25 C26 1.425 1_555 1_555
#END
