
#######################################################################
#
#                 Cambridge Crystallographic Data Centre
#                                CCDC
#
#######################################################################
#
# If this CIF has been generated from an entry in the Cambridge
# Structural Database, then it will include bibliographic, chemical,
# crystal, experimental, refinement or atomic coordinate data resulting
# from the CCDC's data processing and validation procedures.
#
#######################################################################

data_CSD_CIF_GUMZOE
_audit_creation_date 2010-10-03
_audit_creation_method CSD-ConQuest-V1
_database_code_CSD GUMZOE
_database_code_depnum_ccdc_archive 'CCDC 723051'
_chemical_formula_sum 'C26 H28'
_chemical_formula_moiety
;
C26 H28
;
_journal_coden_Cambridge 1220
_journal_volume 16
_journal_year 2010
_journal_page_first 890
_journal_name_full 'Chem.-Eur.J. '
loop_
_publ_author_name
"C.Kitamura"
"Y.Abe"
"T.Ohara"
"A.Yoneda"
"T.Kawase"
"T.Kobayashi"
"H.Naito"
"T.Komatsu"
_chemical_name_systematic
;
1,4,7,10-Tetraethyltetracene
;
_chemical_melting_point 462
_cell_volume    451.956
_exptl_crystal_colour 'orange'
_exptl_crystal_density_diffrn 1.251
_exptl_crystal_description 'needle'
_diffrn_ambient_temperature 173.2
#These two values have been output from a single CSD field.
_refine_ls_R_factor_gt 0.0559
_refine_ls_wR_factor_gt 0.0559
_symmetry_cell_setting triclinic
_symmetry_space_group_name_H-M 'P -1'
_symmetry_Int_Tables_number 2
loop_
_symmetry_equiv_pos_site_id
_symmetry_equiv_pos_as_xyz
1 x,y,z
2 -x,-y,-z
_cell_length_a 3.9992(4)
_cell_length_b 9.4908(1)
_cell_length_c 12.9789(9)
_cell_angle_alpha 69.22(2)
_cell_angle_beta 87.00(2)
_cell_angle_gamma 78.94(2)
_cell_formula_units_Z 1
loop_
_atom_type_symbol
_atom_type_radius_bond
C 0.68
H 0.23
loop_
_atom_site_label
_atom_site_type_symbol
_atom_site_fract_x
_atom_site_fract_y
_atom_site_fract_z
C1 C 0.7015(3) 0.3891(2) 0.3190(1)
C2 C 0.8101(4) 0.4781(2) 0.3674(1)
C3 C 0.8641(4) 0.6294(2) 0.3060(1)
C4 C 0.8095(3) 0.6941(2) 0.1954(1)
C5 C 0.6968(3) 0.6041(2) 0.1386(1)
C6 C 0.6389(3) 0.4509(1) 0.2009(1)
C7 C 0.5272(3) 0.3672(2) 0.1459(1)
C8 C 0.4696(3) 0.4247(1) 0.0309(1)
C9 C 0.6416(3) 0.6609(2) 0.0252(1)
C10 C 0.6433(4) 0.2283(2) 0.3835(1)
C11 C 0.7097(4) 0.1733(2) 0.5074(1)
C12 C 0.8636(4) 0.8554(2) 0.1299(1)
C13 C 0.9565(4) 0.9450(2) 0.1977(1)
H1 H 0.853(4) 0.437(2) 0.447(2)
H2 H 0.952(4) 0.684(2) 0.347(2)
H3 H 0.478(4) 0.266(2) 0.183(1)
H4 H 0.681(4) 0.764(2) -0.019(1)
H5 H 0.401(4) 0.223(2) 0.370(1)
H6 H 0.800(4) 0.157(2) 0.354(1)
H7 H 0.562(4) 0.244(2) 0.539(1)
H8 H 0.958(5) 0.168(2) 0.526(1)
H9 H 0.657(4) 0.069(2) 0.545(1)
H10 H 1.048(4) 0.851(2) 0.075(1)
H11 H 0.653(4) 0.916(2) 0.087(1)
H12 H 0.984(4) 1.051(2) 0.150(2)
H13 H 1.171(4) 0.898(2) 0.239(1)
H14 H 0.778(5) 0.955(2) 0.254(2)
C1A C 0.2985(3) 0.6109(2) -0.3190(1)
C2A C 0.1899(4) 0.5219(2) -0.3674(1)
C3A C 0.1359(4) 0.3706(2) -0.3060(1)
C4A C 0.1905(3) 0.3059(2) -0.1954(1)
C5A C 0.3032(3) 0.3959(2) -0.1386(1)
C6A C 0.3611(3) 0.5491(1) -0.2009(1)
C7A C 0.4728(3) 0.6328(2) -0.1459(1)
C8A C 0.5304(3) 0.5753(1) -0.0309(1)
C9A C 0.3584(3) 0.3391(2) -0.0252(1)
C10A C 0.3567(4) 0.7717(2) -0.3835(1)
C11A C 0.2903(4) 0.8267(2) -0.5074(1)
C12A C 0.1364(4) 0.1446(2) -0.1299(1)
C13A C 0.0435(4) 0.0550(2) -0.1977(1)
H1A H 0.147(4) 0.563(2) -0.447(2)
H2A H 0.048(4) 0.316(2) -0.347(2)
H3A H 0.522(4) 0.734(2) -0.183(1)
H4A H 0.319(4) 0.236(2) 0.019(1)
H5A H 0.599(4) 0.777(2) -0.370(1)
H6A H 0.200(4) 0.843(2) -0.354(1)
H7A H 0.438(4) 0.756(2) -0.539(1)
H8A H 0.042(5) 0.832(2) -0.526(1)
H9A H 0.343(4) 0.931(2) -0.545(1)
H10A H -0.048(4) 0.149(2) -0.075(1)
H11A H 0.347(4) 0.084(2) -0.087(1)
H12A H 0.016(4) -0.051(2) -0.150(2)
H13A H -0.171(4) 0.102(2) -0.239(1)
H14A H 0.222(5) 0.045(2) -0.254(2)
loop_
_geom_bond_atom_site_label_1
_geom_bond_atom_site_label_2
_geom_bond_distance
_geom_bond_site_symmetry_1
_geom_bond_site_symmetry_2
C1 C2 1.357 1_555 1_555
C2 C3 1.426 1_555 1_555
C3 C4 1.357 1_555 1_555
C4 C5 1.451 1_555 1_555
C5 C6 1.448 1_555 1_555
C6 C1 1.450 1_555 1_555
C7 C6 1.383 1_555 1_555
C8 C7 1.410 1_555 1_555
C9 C5 1.390 1_555 1_555
C10 C1 1.514 1_555 1_555
C11 C10 1.525 1_555 1_555
C12 C4 1.516 1_555 1_555
C13 C12 1.524 1_555 1_555
H1 C2 0.978 1_555 1_555
H2 C3 0.980 1_555 1_555
H3 C7 0.963 1_555 1_555
H4 C9 0.981 1_555 1_555
H5 C10 1.007 1_555 1_555
H6 C10 0.997 1_555 1_555
H7 C11 0.993 1_555 1_555
H8 C11 1.022 1_555 1_555
H9 C11 0.994 1_555 1_555
H10 C12 1.004 1_555 1_555
H11 C12 0.993 1_555 1_555
H12 C13 1.000 1_555 1_555
H13 C13 0.977 1_555 1_555
H14 C13 1.011 1_555 1_555
C1A C2A 1.357 1_555 1_555
C2A C3A 1.426 1_555 1_555
C3A C4A 1.357 1_555 1_555
C4A C5A 1.451 1_555 1_555
C5A C6A 1.448 1_555 1_555
C6A C1A 1.450 1_555 1_555
C7A C6A 1.383 1_555 1_555
C8A C8 1.430 1_555 1_555
C9A C8 1.407 1_555 1_555
C10A C1A 1.514 1_555 1_555
C11A C10A 1.525 1_555 1_555
C12A C4A 1.516 1_555 1_555
C13A C12A 1.524 1_555 1_555
H1A C2A 0.978 1_555 1_555
H2A C3A 0.980 1_555 1_555
H3A C7A 0.963 1_555 1_555
H4A C9A 0.981 1_555 1_555
H5A C10A 1.007 1_555 1_555
H6A C10A 0.997 1_555 1_555
H7A C11A 0.993 1_555 1_555
H8A C11A 1.022 1_555 1_555
H9A C11A 0.994 1_555 1_555
H10A C12A 1.004 1_555 1_555
H11A C12A 0.993 1_555 1_555
H12A C13A 1.000 1_555 1_555
H13A C13A 0.977 1_555 1_555
H14A C13A 1.011 1_555 1_555
C9 C8A 1.407 1_555 1_555
C5A C9A 1.390 1_555 1_555
C7A C8A 1.410 1_555 1_555
#END
