
#######################################################################
#
#                 Cambridge Crystallographic Data Centre
#                                CCDC
#
#######################################################################
#
# If this CIF has been generated from an entry in the Cambridge
# Structural Database, then it will include bibliographic, chemical,
# crystal, experimental, refinement or atomic coordinate data resulting
# from the CCDC's data processing and validation procedures.
#
#######################################################################

data_CSD_CIF_GUMZIY
_audit_creation_date 2010-10-03
_audit_creation_method CSD-ConQuest-V1
_database_code_CSD GUMZIY
_database_code_depnum_ccdc_archive 'CCDC 723050'
_chemical_formula_sum 'C22 H20'
_chemical_formula_moiety
;
C22 H20
;
_journal_coden_Cambridge 1220
_journal_volume 16
_journal_year 2010
_journal_page_first 890
_journal_name_full 'Chem.-Eur.J. '
loop_
_publ_author_name
"C.Kitamura"
"Y.Abe"
"T.Ohara"
"A.Yoneda"
"T.Kawase"
"T.Kobayashi"
"H.Naito"
"T.Komatsu"
_chemical_name_systematic
;
1,4,7,10-Tetramethyltetracene
;
_chemical_melting_point 549
_cell_volume   1155.792
_exptl_crystal_colour 'orange'
_exptl_crystal_density_diffrn 1.226
_exptl_crystal_description 'prism'
_diffrn_ambient_temperature 223.2
#These two values have been output from a single CSD field.
_refine_ls_R_factor_gt 0.0608
_refine_ls_wR_factor_gt 0.0608
_symmetry_cell_setting triclinic
_symmetry_space_group_name_H-M 'P -1'
_symmetry_Int_Tables_number 2
loop_
_symmetry_equiv_pos_site_id
_symmetry_equiv_pos_as_xyz
1 x,y,z
2 -x,-y,-z
_cell_length_a 5.0089(5)
_cell_length_b 13.386(1)
_cell_length_c 17.349(2)
_cell_angle_alpha 83.817(8)
_cell_angle_beta 89.80(1)
_cell_angle_gamma 88.04(1)
_cell_formula_units_Z 3
loop_
_atom_type_symbol
_atom_type_radius_bond
C 0.68
H 0.23
loop_
_atom_site_label
_atom_site_type_symbol
_atom_site_fract_x
_atom_site_fract_y
_atom_site_fract_z
C1 C 0.5363(3) 0.2020(1) 0.54043(9)
C2 C 0.6937(3) 0.1381(1) 0.5037(1)
C3 C 0.8795(3) 0.1726(1) 0.4453(1)
C4 C 0.9117(3) 0.2718(1) 0.42358(9)
C5 C 0.7475(3) 0.3440(1) 0.45991(8)
C6 C 0.5561(3) 0.3088(1) 0.51882(8)
C7 C 0.3932(3) 0.3786(1) 0.55148(9)
C8 C 0.4050(3) 0.4826(1) 0.52901(8)
C9 C 0.7620(3) 0.4465(1) 0.43865(9)
C10 C 0.3446(4) 0.1641(1) 0.6029(1)
C11 C 1.1117(3) 0.3072(1) 0.3628(1)
H1 H 0.678(3) 0.065(1) 0.5161(10)
H2 H 0.983(4) 0.123(1) 0.422(1)
H3 H 0.256(3) 0.357(1) 0.5900(9)
H4 H 0.891(3) 0.472(1) 0.3998(9)
H5 H 0.347(4) 0.089(2) 0.609(1)
H6 H 0.157(4) 0.186(1) 0.590(1)
H7 H 0.388(4) 0.190(2) 0.655(1)
H8 H 1.208(4) 0.251(2) 0.345(1)
H9 H 1.251(4) 0.351(1) 0.383(1)
H10 H 1.020(4) 0.345(1) 0.317(1)
C12 C 1.0921(3) 0.3278(1) 0.82829(9)
C13 C 0.9619(3) 0.3395(1) 0.75898(10)
C14 C 0.7620(3) 0.4162(1) 0.74082(10)
C15 C 0.6868(3) 0.4818(1) 0.79212(9)
C16 C 0.8195(3) 0.4743(1) 0.86644(8)
C17 C 1.0266(3) 0.3969(1) 0.88450(8)
C18 C 1.1605(3) 0.3935(1) 0.95469(9)
C19 C 1.1041(3) 0.46224(10) 1.00862(8)
C20 C 0.7594(3) 0.5409(1) 0.92046(9)
C21 C 1.3001(4) 0.2455(1) 0.8471(1)
C22 C 0.4704(3) 0.5605(1) 0.7727(1)
H11 H 1.011(3) 0.292(1) 0.718(1)
H12 H 0.679(4) 0.420(1) 0.689(1)
H13 H 1.308(3) 0.341(1) 0.9671(9)
H14 H 0.615(3) 0.594(1) 0.9094(9)
H15 H 1.324(4) 0.206(2) 0.801(1)
H16 H 1.248(4) 0.200(1) 0.894(1)
H17 H 1.480(4) 0.272(1) 0.858(1)
H18 H 0.412(4) 0.560(1) 0.719(1)
H19 H 0.530(3) 0.632(1) 0.777(1)
H20 H 0.315(4) 0.552(1) 0.810(1)
C23 C 1.7295(3) 1.1617(1) 0.16552(9)
C24 C 1.6455(3) 1.1532(1) 0.24025(10)
C25 C 1.4547(3) 1.0818(1) 0.26888(10)
C26 C 1.3439(3) 1.0191(1) 0.22286(9)
C27 C 1.4242(3) 1.0242(1) 0.14240(8)
C28 C 1.6213(3) 1.09589(10) 0.11369(9)
C29 C 1.7019(3) 1.0990(1) 0.03686(9)
C30 C 1.5989(3) 1.03502(10) -0.01419(8)
C31 C 1.3192(3) 0.9623(1) 0.09195(9)
C32 C 1.9312(4) 1.2373(1) 0.1367(1)
C33 C 1.1416(4) 0.9448(1) 0.2541(1)
H21 H 1.712(3) 1.198(1) 0.2761(10)
H22 H 1.404(3) 1.080(1) 0.325(1)
H23 H 1.838(3) 1.149(1) 0.0149(9)
H24 H 1.181(3) 0.912(1) 0.1118(9)
H25 H 1.980(4) 1.277(1) 0.178(1)
H26 H 1.854(3) 1.284(1) 0.095(1)
H27 H 2.095(4) 1.206(1) 0.113(1)
H28 H 1.112(4) 0.950(1) 0.308(1)
H29 H 1.204(4) 0.873(1) 0.247(1)
H30 H 0.966(4) 0.956(1) 0.229(1)
C1A C 0.4637(3) 0.7980(1) 0.45957(9)
C2A C 0.3063(3) 0.8619(1) 0.4963(1)
C3A C 0.1205(3) 0.8274(1) 0.5547(1)
C4A C 0.0883(3) 0.7282(1) 0.57642(9)
C5A C 0.2525(3) 0.6560(1) 0.54009(8)
C6A C 0.4439(3) 0.6912(1) 0.48118(8)
C7A C 0.6068(3) 0.6214(1) 0.44852(9)
C8A C 0.5950(3) 0.5174(1) 0.47099(8)
C9A C 0.2380(3) 0.5535(1) 0.56135(9)
C10A C 0.6554(4) 0.8359(1) 0.3971(1)
C11A C -0.1117(3) 0.6928(1) 0.6372(1)
H1A H 0.322(3) 0.935(1) 0.4839(10)
H2A H 0.017(4) 0.877(1) 0.578(1)
H3A H 0.744(3) 0.643(1) 0.4100(9)
H4A H 0.109(3) 0.528(1) 0.6002(9)
H5A H 0.653(4) 0.911(2) 0.391(1)
H6A H 0.843(4) 0.814(1) 0.410(1)
H7A H 0.612(4) 0.810(2) 0.345(1)
H8A H -0.208(4) 0.749(2) 0.655(1)
H9A H -0.251(4) 0.649(1) 0.617(1)
H10A H -0.020(4) 0.655(1) 0.683(1)
C12A C 0.9079(3) 0.6722(1) 1.17171(9)
C13A C 1.0381(3) 0.6605(1) 1.24102(10)
C14A C 1.2380(3) 0.5838(1) 1.25918(10)
C15A C 1.3132(3) 0.5182(1) 1.20788(9)
C16A C 1.1805(3) 0.5257(1) 1.13356(8)
C17A C 0.9734(3) 0.6031(1) 1.11550(8)
C18A C 0.8395(3) 0.6065(1) 1.04531(9)
C19A C 0.8959(3) 0.53776(10) 0.99138(8)
C20A C 1.2406(3) 0.4591(1) 1.07954(9)
C21A C 0.6999(4) 0.7545(1) 1.1529(1)
C22A C 1.5296(3) 0.4395(1) 1.2273(1)
H11A H 0.989(3) 0.708(1) 1.282(1)
H12A H 1.321(4) 0.580(1) 1.311(1)
H13A H 0.692(3) 0.659(1) 1.0329(9)
H14A H 1.385(3) 0.406(1) 1.0906(9)
H15A H 0.676(4) 0.794(2) 1.199(1)
H16A H 0.752(4) 0.800(1) 1.106(1)
H17A H 0.520(4) 0.728(1) 1.142(1)
H18A H 1.588(4) 0.440(1) 1.281(1)
H19A H 1.470(3) 0.368(1) 1.223(1)
H20A H 1.685(4) 0.448(1) 1.190(1)
C23A C 1.2705(3) 0.8383(1) -0.16552(9)
C24A C 1.3545(3) 0.8468(1) -0.24025(10)
C25A C 1.5453(3) 0.9182(1) -0.26888(10)
C26A C 1.6561(3) 0.9809(1) -0.22286(9)
C27A C 1.5758(3) 0.9758(1) -0.14240(8)
C28A C 1.3787(3) 0.90411(10) -0.11369(9)
C29A C 1.2981(3) 0.9010(1) -0.03686(9)
C30A C 1.4011(3) 0.96498(10) 0.01419(8)
C31A C 1.6808(3) 1.0377(1) -0.09195(9)
C32A C 1.0688(4) 0.7627(1) -0.1367(1)
C33A C 1.8584(4) 1.0552(1) -0.2541(1)
H21A H 1.288(3) 0.802(1) -0.2761(10)
H22A H 1.596(3) 0.920(1) -0.325(1)
H23A H 1.162(3) 0.851(1) -0.0149(9)
H24A H 1.819(3) 1.088(1) -0.1118(9)
H25A H 1.020(4) 0.723(1) -0.178(1)
H26A H 1.146(3) 0.716(1) -0.095(1)
H27A H 0.905(4) 0.794(1) -0.113(1)
H28A H 1.888(4) 1.050(1) -0.308(1)
H29A H 1.796(4) 1.127(1) -0.247(1)
H30A H 2.034(4) 1.044(1) -0.229(1)
loop_
_geom_bond_atom_site_label_1
_geom_bond_atom_site_label_2
_geom_bond_distance
_geom_bond_site_symmetry_1
_geom_bond_site_symmetry_2
C1 C2 1.352 1_555 1_555
C2 C3 1.424 1_555 1_555
C3 C4 1.356 1_555 1_555
C4 C5 1.443 1_555 1_555
C5 C6 1.451 1_555 1_555
C6 C1 1.445 1_555 1_555
C7 C6 1.385 1_555 1_555
C8 C7 1.408 1_555 1_555
C9 C5 1.386 1_555 1_555
C10 C1 1.504 1_555 1_555
C11 C4 1.502 1_555 1_555
H1 C2 0.985 1_555 1_555
H2 C3 0.952 1_555 1_555
H3 C7 0.986 1_555 1_555
H4 C9 0.975 1_555 1_555
H5 C10 0.999 1_555 1_555
H6 C10 0.994 1_555 1_555
H7 C10 1.029 1_555 1_555
H8 C11 0.958 1_555 1_555
H9 C11 1.014 1_555 1_555
H10 C11 0.999 1_555 1_555
C12 C13 1.361 1_555 1_555
C13 C14 1.421 1_555 1_555
C14 C15 1.360 1_555 1_555
C15 C16 1.445 1_555 1_555
C16 C17 1.451 1_555 1_555
C17 C12 1.444 1_555 1_555
C18 C17 1.388 1_555 1_555
C19 C18 1.403 1_555 1_555
C20 C16 1.387 1_555 1_555
C21 C12 1.501 1_555 1_555
C22 C15 1.499 1_555 1_555
H11 C13 1.027 1_555 1_555
H12 C14 0.987 1_555 1_555
H13 C18 1.009 1_555 1_555
H14 C20 1.001 1_555 1_555
H15 C21 1.010 1_555 1_555
H16 C21 1.002 1_555 1_555
H17 C21 1.006 1_555 1_555
H18 C22 0.978 1_555 1_555
H19 C22 1.023 1_555 1_555
H20 C22 1.012 1_555 1_555
C23 C24 1.356 1_555 1_555
C24 C25 1.425 1_555 1_555
C25 C26 1.352 1_555 1_555
C26 C27 1.447 1_555 1_555
C27 C28 1.450 1_555 1_555
C28 C23 1.444 1_555 1_555
C29 C28 1.388 1_555 1_555
C30 C29 1.407 1_555 1_555
C31 C27 1.385 1_555 1_555
C32 C23 1.501 1_555 1_555
C33 C26 1.503 1_555 1_555
H21 C24 0.976 1_555 1_555
H22 C25 1.003 1_555 1_555
H23 C29 1.016 1_555 1_555
H24 C31 1.016 1_555 1_555
H25 C32 0.973 1_555 1_555
H26 C32 0.976 1_555 1_555
H27 C32 1.014 1_555 1_555
H28 C33 0.956 1_555 1_555
H29 C33 1.020 1_555 1_555
H30 C33 0.983 1_555 1_555
C1A C2A 1.352 1_555 1_555
C2A C3A 1.424 1_555 1_555
C3A C4A 1.356 1_555 1_555
C4A C5A 1.443 1_555 1_555
C5A C6A 1.451 1_555 1_555
C6A C1A 1.445 1_555 1_555
C7A C6A 1.385 1_555 1_555
C8A C8 1.435 1_555 1_555
C9A C8 1.404 1_555 1_555
C10A C1A 1.504 1_555 1_555
C11A C4A 1.502 1_555 1_555
H1A C2A 0.985 1_555 1_555
H2A C3A 0.952 1_555 1_555
H3A C7A 0.986 1_555 1_555
H4A C9A 0.975 1_555 1_555
H5A C10A 0.999 1_555 1_555
H6A C10A 0.994 1_555 1_555
H7A C10A 1.029 1_555 1_555
H8A C11A 0.958 1_555 1_555
H9A C11A 1.014 1_555 1_555
H10A C11A 0.999 1_555 1_555
C12A C13A 1.361 1_555 1_555
C13A C14A 1.421 1_555 1_555
C14A C15A 1.360 1_555 1_555
C15A C16A 1.445 1_555 1_555
C16A C17A 1.451 1_555 1_555
C17A C12A 1.444 1_555 1_555
C18A C17A 1.388 1_555 1_555
C19A C19 1.437 1_555 1_555
C20A C19 1.406 1_555 1_555
C21A C12A 1.501 1_555 1_555
C22A C15A 1.499 1_555 1_555
H11A C13A 1.027 1_555 1_555
H12A C14A 0.987 1_555 1_555
H13A C18A 1.009 1_555 1_555
H14A C20A 1.001 1_555 1_555
H15A C21A 1.010 1_555 1_555
H16A C21A 1.002 1_555 1_555
H17A C21A 1.006 1_555 1_555
H18A C22A 0.978 1_555 1_555
H19A C22A 1.023 1_555 1_555
H20A C22A 1.012 1_555 1_555
C23A C24A 1.356 1_555 1_555
C24A C25A 1.425 1_555 1_555
C25A C26A 1.352 1_555 1_555
C26A C27A 1.447 1_555 1_555
C27A C28A 1.450 1_555 1_555
C28A C23A 1.444 1_555 1_555
C29A C28A 1.388 1_555 1_555
C30A C30 1.437 1_555 1_555
C31A C30 1.406 1_555 1_555
C32A C23A 1.501 1_555 1_555
C33A C26A 1.503 1_555 1_555
H21A C24A 0.976 1_555 1_555
H22A C25A 1.003 1_555 1_555
H23A C29A 1.016 1_555 1_555
H24A C31A 1.016 1_555 1_555
H25A C32A 0.973 1_555 1_555
H26A C32A 0.976 1_555 1_555
H27A C32A 1.014 1_555 1_555
H28A C33A 0.956 1_555 1_555
H29A C33A 1.020 1_555 1_555
H30A C33A 0.983 1_555 1_555
C9 C8A 1.404 1_555 1_555
C20 C19A 1.406 1_555 1_555
C31 C30A 1.406 1_555 1_555
C5A C9A 1.386 1_555 1_555
C7A C8A 1.408 1_555 1_555
C16A C20A 1.387 1_555 1_555
C18A C19A 1.403 1_555 1_555
C27A C31A 1.385 1_555 1_555
C29A C30A 1.407 1_555 1_555
#END
