
#######################################################################
#
#                 Cambridge Crystallographic Data Centre
#                                CCDC
#
#######################################################################
#
# If this CIF has been generated from an entry in the Cambridge
# Structural Database, then it will include bibliographic, chemical,
# crystal, experimental, refinement or atomic coordinate data resulting
# from the CCDC's data processing and validation procedures.
#
#######################################################################

data_CSD_CIF_GUNBAT
_audit_creation_date 2010-10-03
_audit_creation_method CSD-ConQuest-V1
_database_code_CSD GUNBAT
_database_code_depnum_ccdc_archive 'CCDC 723053'
_chemical_formula_sum 'C38 H52'
_chemical_formula_moiety
;
C38 H52
;
_journal_coden_Cambridge 1220
_journal_volume 16
_journal_year 2010
_journal_page_first 890
_journal_name_full 'Chem.-Eur.J. '
loop_
_publ_author_name
"C.Kitamura"
"Y.Abe"
"T.Ohara"
"A.Yoneda"
"T.Kawase"
"T.Kobayashi"
"H.Naito"
"T.Komatsu"
_chemical_name_systematic
;
1,4,7,10-Tetrapentyltetracene
;
_chemical_melting_point 402
_cell_volume    773.413
_exptl_crystal_colour 'orange'
_exptl_crystal_density_diffrn 1.092
_exptl_crystal_description 'prism'
_diffrn_ambient_temperature 223.2
#These two values have been output from a single CSD field.
_refine_ls_R_factor_gt 0.0651
_refine_ls_wR_factor_gt 0.0651
_symmetry_cell_setting triclinic
_symmetry_space_group_name_H-M 'P -1'
_symmetry_Int_Tables_number 2
loop_
_symmetry_equiv_pos_site_id
_symmetry_equiv_pos_as_xyz
1 x,y,z
2 -x,-y,-z
_cell_length_a 5.146(4)
_cell_length_b 11.28(1)
_cell_length_c 13.55(1)
_cell_angle_alpha 85.63(2)
_cell_angle_beta 84.72(3)
_cell_angle_gamma 81.70(3)
_cell_formula_units_Z 1
loop_
_atom_type_symbol
_atom_type_radius_bond
C 0.68
H 0.23
loop_
_atom_site_label
_atom_site_type_symbol
_atom_site_fract_x
_atom_site_fract_y
_atom_site_fract_z
C1 C -0.1047(3) -0.0934(2) 0.2306(1)
C2 C 0.0443(4) -0.1834(2) 0.1809(1)
C3 C 0.2565(4) -0.2605(2) 0.2224(2)
C4 C 0.3275(3) -0.2464(2) 0.3144(1)
C5 C 0.1855(3) -0.1498(2) 0.3705(1)
C6 C -0.0354(3) -0.0741(2) 0.3284(1)
C7 C -0.1772(4) 0.0151(2) 0.3849(1)
C8 C -0.1113(3) 0.0367(2) 0.4801(1)
C9 C 0.2532(4) -0.1278(2) 0.4637(1)
C10 C -0.3301(4) -0.0174(2) 0.1838(2)
C11 C -0.2770(4) 0.1065(2) 0.1420(2)
C12 C -0.5157(4) 0.1786(2) 0.0971(2)
C13 C -0.4858(4) 0.3064(2) 0.0641(2)
C14 C -0.7229(5) 0.3753(2) 0.0169(2)
C15 C 0.5466(4) -0.3289(2) 0.3617(2)
C16 C 0.6792(4) -0.4345(2) 0.3031(2)
C17 C 0.8827(4) -0.5145(2) 0.3612(2)
C18 C 1.0165(5) -0.6226(3) 0.3073(2)
C19 C 1.2190(5) -0.7025(3) 0.3667(2)
H1 H -0.004(4) -0.199(2) 0.114(2)
H2 H 0.360(4) -0.327(2) 0.182(2)
H3 H -0.349(4) 0.064(2) 0.362(1)
H4 H 0.420(3) -0.182(2) 0.493(1)
H5 H -0.392(4) -0.064(2) 0.131(2)
H6 H -0.487(4) -0.006(2) 0.229(2)
H7 H -0.127(4) 0.098(2) 0.088(1)
H8 H -0.214(4) 0.150(2) 0.195(2)
H9 H -0.558(4) 0.141(2) 0.041(2)
H10 H -0.676(5) 0.176(2) 0.147(2)
H11 H -0.322(5) 0.307(2) 0.018(2)
H12 H -0.444(4) 0.346(2) 0.124(2)
H13 H -0.764(5) 0.340(3) -0.043(2)
H14 H -0.700(5) 0.466(3) -0.002(2)
H15 H -0.883(5) 0.373(2) 0.062(2)
H16 H 0.480(4) -0.364(2) 0.429(2)
H17 H 0.696(4) -0.283(2) 0.376(1)
H18 H 0.540(4) -0.482(2) 0.287(1)
H19 H 0.756(4) -0.408(2) 0.239(2)
H20 H 0.795(4) -0.543(2) 0.428(2)
H21 H 1.022(4) -0.471(2) 0.379(2)
H22 H 0.879(5) -0.673(2) 0.293(2)
H23 H 1.096(6) -0.590(3) 0.247(3)
H24 H 1.134(6) -0.719(3) 0.432(3)
H25 H 1.356(6) -0.657(3) 0.385(2)
H26 H 1.300(5) -0.779(3) 0.324(2)
C1A C 0.1047(3) 0.0934(2) 0.7694(1)
C2A C -0.0443(4) 0.1834(2) 0.8191(1)
C3A C -0.2565(4) 0.2605(2) 0.7776(2)
C4A C -0.3275(3) 0.2464(2) 0.6856(1)
C5A C -0.1855(3) 0.1498(2) 0.6295(1)
C6A C 0.0354(3) 0.0741(2) 0.6716(1)
C7A C 0.1772(4) -0.0151(2) 0.6151(1)
C8A C 0.1113(3) -0.0367(2) 0.5199(1)
C9A C -0.2532(4) 0.1278(2) 0.5363(1)
C10A C 0.3301(4) 0.0174(2) 0.8162(2)
C11A C 0.2770(4) -0.1065(2) 0.8580(2)
C12A C 0.5157(4) -0.1786(2) 0.9029(2)
C13A C 0.4858(4) -0.3064(2) 0.9359(2)
C14A C 0.7229(5) -0.3753(2) 0.9831(2)
C15A C -0.5466(4) 0.3289(2) 0.6383(2)
C16A C -0.6792(4) 0.4345(2) 0.6969(2)
C17A C -0.8827(4) 0.5145(2) 0.6388(2)
C18A C -1.0165(5) 0.6226(3) 0.6927(2)
C19A C -1.2190(5) 0.7025(3) 0.6333(2)
H1A H 0.004(4) 0.199(2) 0.886(2)
H2A H -0.360(4) 0.327(2) 0.818(2)
H3A H 0.349(4) -0.064(2) 0.638(1)
H4A H -0.420(3) 0.182(2) 0.507(1)
H5A H 0.392(4) 0.064(2) 0.869(2)
H6A H 0.487(4) 0.006(2) 0.771(2)
H7A H 0.127(4) -0.098(2) 0.912(1)
H8A H 0.214(4) -0.150(2) 0.805(2)
H9A H 0.558(4) -0.141(2) 0.959(2)
H10A H 0.676(5) -0.176(2) 0.853(2)
H11A H 0.322(5) -0.307(2) 0.982(2)
H12A H 0.444(4) -0.346(2) 0.876(2)
H13A H 0.764(5) -0.340(3) 1.043(2)
H14A H 0.700(5) -0.466(3) 1.002(2)
H15A H 0.883(5) -0.373(2) 0.938(2)
H16A H -0.480(4) 0.364(2) 0.571(2)
H17A H -0.696(4) 0.283(2) 0.624(1)
H18A H -0.540(4) 0.482(2) 0.713(1)
H19A H -0.756(4) 0.408(2) 0.761(2)
H20A H -0.795(4) 0.543(2) 0.572(2)
H21A H -1.022(4) 0.471(2) 0.621(2)
H22A H -0.879(5) 0.673(2) 0.707(2)
H23A H -1.096(6) 0.590(3) 0.753(3)
H24A H -1.134(6) 0.719(3) 0.568(3)
H25A H -1.356(6) 0.657(3) 0.615(2)
H26A H -1.300(5) 0.779(3) 0.676(2)
loop_
_geom_bond_atom_site_label_1
_geom_bond_atom_site_label_2
_geom_bond_distance
_geom_bond_site_symmetry_1
_geom_bond_site_symmetry_2
C1 C2 1.363 1_555 1_555
C2 C3 1.425 1_555 1_555
C3 C4 1.358 1_555 1_555
C4 C5 1.447 1_555 1_555
C5 C6 1.453 1_555 1_555
C6 C1 1.444 1_555 1_555
C7 C6 1.391 1_555 1_555
C8 C7 1.411 1_555 1_555
C9 C5 1.390 1_555 1_555
C10 C1 1.499 1_555 1_555
C11 C10 1.520 1_555 1_555
C12 C11 1.521 1_555 1_555
C13 C12 1.502 1_555 1_555
C14 C13 1.515 1_555 1_555
C15 C4 1.512 1_555 1_555
C16 C15 1.525 1_555 1_555
C17 C16 1.517 1_555 1_555
C18 C17 1.515 1_555 1_555
C19 C18 1.523 1_555 1_555
H1 C2 0.996 1_555 1_555
H2 C3 1.020 1_555 1_555
H3 C7 1.032 1_555 1_555
H4 C9 1.069 1_555 1_555
H5 C10 1.018 1_555 1_555
H6 C10 0.967 1_555 1_555
H7 C11 1.013 1_555 1_555
H8 C11 1.002 1_555 1_555
H9 C12 0.955 1_555 1_555
H10 C12 1.020 1_555 1_555
H11 C13 1.002 1_555 1_555
H12 C13 1.010 1_555 1_555
H13 C14 0.983 1_555 1_555
H14 C14 1.056 1_555 1_555
H15 C14 0.982 1_555 1_555
H16 C15 1.016 1_555 1_555
H17 C15 1.027 1_555 1_555
H18 C16 1.003 1_555 1_555
H19 C16 0.965 1_555 1_555
H20 C17 1.024 1_555 1_555
H21 C17 0.982 1_555 1_555
H22 C18 1.010 1_555 1_555
H23 C18 0.952 1_555 1_555
H24 C19 0.967 1_555 1_555
H25 C19 0.989 1_555 1_555
H26 C19 1.087 1_555 1_555
C1A C2A 1.363 1_555 1_555
C2A C3A 1.425 1_555 1_555
C3A C4A 1.358 1_555 1_555
C4A C5A 1.447 1_555 1_555
C5A C6A 1.453 1_555 1_555
C6A C1A 1.444 1_555 1_555
C7A C6A 1.391 1_555 1_555
C8A C8 1.435 1_555 1_555
C9A C8 1.403 1_555 1_555
C10A C1A 1.499 1_555 1_555
C11A C10A 1.520 1_555 1_555
C12A C11A 1.521 1_555 1_555
C13A C12A 1.502 1_555 1_555
C14A C13A 1.515 1_555 1_555
C15A C4A 1.512 1_555 1_555
C16A C15A 1.525 1_555 1_555
C17A C16A 1.517 1_555 1_555
C18A C17A 1.515 1_555 1_555
C19A C18A 1.523 1_555 1_555
H1A C2A 0.996 1_555 1_555
H2A C3A 1.020 1_555 1_555
H3A C7A 1.032 1_555 1_555
H4A C9A 1.069 1_555 1_555
H5A C10A 1.018 1_555 1_555
H6A C10A 0.967 1_555 1_555
H7A C11A 1.013 1_555 1_555
H8A C11A 1.002 1_555 1_555
H9A C12A 0.955 1_555 1_555
H10A C12A 1.020 1_555 1_555
H11A C13A 1.002 1_555 1_555
H12A C13A 1.010 1_555 1_555
H13A C14A 0.983 1_555 1_555
H14A C14A 1.056 1_555 1_555
H15A C14A 0.982 1_555 1_555
H16A C15A 1.016 1_555 1_555
H17A C15A 1.027 1_555 1_555
H18A C16A 1.003 1_555 1_555
H19A C16A 0.965 1_555 1_555
H20A C17A 1.024 1_555 1_555
H21A C17A 0.982 1_555 1_555
H22A C18A 1.010 1_555 1_555
H23A C18A 0.952 1_555 1_555
H24A C19A 0.967 1_555 1_555
H25A C19A 0.989 1_555 1_555
H26A C19A 1.087 1_555 1_555
C9 C8A 1.403 1_555 1_555
C5A C9A 1.390 1_555 1_555
C7A C8A 1.411 1_555 1_555
#END
