
#######################################################################
#
#                 Cambridge Crystallographic Data Centre
#                                CCDC
#
#######################################################################
#
# If this CIF has been generated from an entry in the Cambridge
# Structural Database, then it will include bibliographic, chemical,
# crystal, experimental, refinement or atomic coordinate data resulting
# from the CCDC's data processing and validation procedures.
#
#######################################################################

data_CSD_CIF_GUNBEX
_audit_creation_date 2010-10-03
_audit_creation_method CSD-ConQuest-V1
_database_code_CSD GUNBEX
_database_code_depnum_ccdc_archive 'CCDC 723054'
_chemical_formula_sum 'C42 H60'
_chemical_formula_moiety
;
C42 H60
;
_journal_coden_Cambridge 1220
_journal_volume 16
_journal_year 2010
_journal_page_first 890
_journal_name_full 'Chem.-Eur.J. '
loop_
_publ_author_name
"C.Kitamura"
"Y.Abe"
"T.Ohara"
"A.Yoneda"
"T.Kawase"
"T.Kobayashi"
"H.Naito"
"T.Komatsu"
_chemical_name_systematic
;
1,4,7,10-Tetrahexyltetracene
;
_chemical_melting_point 381
_cell_volume   3441.936
_exptl_crystal_colour 'red'
_exptl_crystal_density_diffrn 1.09
_exptl_crystal_description 'needle'
_diffrn_ambient_temperature 173.2
#These two values have been output from a single CSD field.
_refine_ls_R_factor_gt 0.136
_refine_ls_wR_factor_gt 0.136
_symmetry_cell_setting monoclinic
_symmetry_space_group_name_H-M 'C 2/c'
_symmetry_Int_Tables_number 15
loop_
_symmetry_equiv_pos_site_id
_symmetry_equiv_pos_as_xyz
1 x,y,z
2 -x,y,1/2-z
3 1/2+x,1/2+y,z
4 1/2-x,1/2+y,1/2-z
5 -x,-y,-z
6 x,-y,-1/2+z
7 -1/2-x,-1/2-y,-z
8 -1/2+x,-1/2-y,-1/2+z
_cell_length_a 33.04(3)
_cell_length_b 4.735(3)
_cell_length_c 26.41(2)
_cell_angle_alpha 90
_cell_angle_beta 123.586(8)
_cell_angle_gamma 90
_cell_formula_units_Z 4
loop_
_atom_type_symbol
_atom_type_radius_bond
C 0.68
H 0.23
loop_
_atom_site_label
_atom_site_type_symbol
_atom_site_fract_x
_atom_site_fract_y
_atom_site_fract_z
C1 C 0.86745(15) 0.4128(8) -0.00153(18)
C2 C 0.91205(16) 0.2966(8) 0.0349(2)
H1 H 0.93740 0.35270 0.03010
C3 C 0.92220(16) 0.0940(8) 0.0799(2)
H2 H 0.95420 0.02070 0.10450
C4 C 0.88811(15) -0.0006(8) 0.08957(19)
C5 C 0.83959(15) 0.1157(8) 0.05227(18)
C6 C 0.82906(15) 0.3254(8) 0.00596(18)
C7 C 0.78278(15) 0.4401(7) -0.02863(18)
H3 H 0.77630 0.58090 -0.05780
C8 C 0.74492(16) 0.3559(7) -0.02210(19)
C9 C 0.80237(16) 0.0331(8) 0.05850(19)
H4 H 0.80900 -0.10370 0.08850
C10 C 0.85829(16) 0.6136(8) -0.05117(18)
H5 H 0.88940 0.69930 -0.04040
H6 H 0.83660 0.76740 -0.05470
C11 C 0.83480(15) 0.4597(8) -0.11285(18)
H7 H 0.85420 0.28900 -0.10730
H8 H 0.80180 0.39700 -0.12590
C12 C 0.83102(16) 0.6402(8) -0.16306(18)
H9 H 0.80940 0.80290 -0.17130
H10 H 0.86360 0.71490 -0.14920
C13 C 0.81141(16) 0.4744(8) -0.2212(2)
H11 H 0.77830 0.40780 -0.23570
H12 H 0.83210 0.30550 -0.21200
C14 C 0.80922(17) 0.6392(8) -0.2724(2)
H13 H 0.78750 0.80400 -0.28300
H14 H 0.84210 0.71140 -0.25770
C15 C 0.79103(18) 0.4622(9) -0.3292(2)
H15 H 0.79060 0.57770 -0.36030
H16 H 0.75810 0.39460 -0.34470
H17 H 0.81270 0.30020 -0.31920
C16 C 0.90170(15) -0.2087(8) 0.13988(19)
H18 H 0.93050 -0.31750 0.14860
H19 H 0.87460 -0.34360 0.12580
C17 C 0.91301(16) -0.0695(8) 0.1983(2)
H20 H 0.93830 0.07630 0.21060
H21 H 0.88340 0.02680 0.19030
C18 C 0.93039(16) -0.2748(8) 0.25034(19)
H22 H 0.96130 -0.36050 0.26040
H23 H 0.90620 -0.42840 0.23700
C19 C 0.93822(15) -0.1381(8) 0.30762(19)
H24 H 0.96150 0.01990 0.32000
H25 H 0.90700 -0.05780 0.29780
C20 C 0.95725(17) -0.3393(9) 0.3610(2)
H26 H 0.93400 -0.49740 0.34890
H27 H 0.98850 -0.41950 0.37110
C21 C 0.96475(19) -0.1998(11) 0.4174(2)
H28 H 0.97720 -0.33930 0.45020
H29 H 0.93370 -0.12510 0.40820
H30 H 0.98820 -0.04500 0.43020
C1F C 0.63255(15) 0.0872(8) 0.00153(18)
C2F C 0.58795(16) 0.2034(8) -0.0349(2)
H1F H 0.56260 0.14730 -0.03010
C3F C 0.57780(16) 0.4060(8) -0.0799(2)
H2F H 0.54580 0.47930 -0.10450
C4F C 0.61189(15) 0.5006(8) -0.08957(19)
C5F C 0.66041(15) 0.3843(8) -0.05227(18)
C6F C 0.67094(15) 0.1746(8) -0.00596(18)
C7F C 0.71722(15) 0.0599(7) 0.02863(18)
H3F H 0.72370 -0.08090 0.05780
C8F C 0.75508(16) 0.1441(7) 0.02210(19)
C9F C 0.69763(16) 0.4669(8) -0.05850(19)
H4F H 0.69100 0.60370 -0.08850
C10F C 0.64171(16) -0.1136(8) 0.05117(18)
H5F H 0.61060 -0.19930 0.04040
H6F H 0.66340 -0.26740 0.05470
C11F C 0.66520(15) 0.0403(8) 0.11285(18)
H7F H 0.64580 0.21100 0.10730
H8F H 0.69820 0.10300 0.12590
C12F C 0.66898(16) -0.1402(8) 0.16306(18)
H9F H 0.69060 -0.30290 0.17130
H10F H 0.63640 -0.21490 0.14920
C13F C 0.68859(16) 0.0256(8) 0.2212(2)
H11F H 0.72170 0.09220 0.23570
H12F H 0.66790 0.19450 0.21200
C14F C 0.69078(17) -0.1392(8) 0.2724(2)
H13F H 0.71250 -0.30400 0.28300
H14F H 0.65790 -0.21140 0.25770
C15F C 0.70897(18) 0.0378(9) 0.3292(2)
H15F H 0.70940 -0.07770 0.36030
H16F H 0.74190 0.10540 0.34470
H17F H 0.68730 0.19980 0.31920
C16F C 0.59830(15) 0.7087(8) -0.13988(19)
H18F H 0.56950 0.81750 -0.14860
H19F H 0.62540 0.84360 -0.12580
C17F C 0.58699(16) 0.5695(8) -0.1983(2)
H20F H 0.56170 0.42370 -0.21060
H21F H 0.61660 0.47320 -0.19030
C18F C 0.56961(16) 0.7748(8) -0.25034(19)
H22F H 0.53870 0.86050 -0.26040
H23F H 0.59380 0.92840 -0.23700
C19F C 0.56178(15) 0.6381(8) -0.30762(19)
H24F H 0.53850 0.48010 -0.32000
H25F H 0.59300 0.55780 -0.29780
C20F C 0.54275(17) 0.8393(9) -0.3610(2)
H26F H 0.56600 0.99740 -0.34890
H27F H 0.51150 0.91950 -0.37110
C21F C 0.53525(19) 0.6998(11) -0.4174(2)
H28F H 0.52280 0.83930 -0.45020
H29F H 0.56630 0.62510 -0.40820
H30F H 0.51180 0.54500 -0.43020
loop_
_geom_bond_atom_site_label_1
_geom_bond_atom_site_label_2
_geom_bond_distance
_geom_bond_site_symmetry_1
_geom_bond_site_symmetry_2
C1 C2 1.353 1_555 1_555
C2 H1 0.952 1_555 1_555
C3 C2 1.416 1_555 1_555
H2 C3 0.949 1_555 1_555
C4 C3 1.361 1_555 1_555
C5 C4 1.448 1_555 1_555
C6 C1 1.448 1_555 1_555
C7 C6 1.386 1_555 1_555
H3 C7 0.949 1_555 1_555
C8 C7 1.411 1_555 1_555
C9 C5 1.384 1_555 1_555
H4 C9 0.950 1_555 1_555
C10 C1 1.508 1_555 1_555
H5 C10 0.989 1_555 1_555
H6 C10 0.989 1_555 1_555
C11 C10 1.545 1_555 1_555
H7 C11 0.991 1_555 1_555
H8 C11 0.990 1_555 1_555
C12 C11 1.524 1_555 1_555
H9 C12 0.990 1_555 1_555
H10 C12 0.991 1_555 1_555
C13 C12 1.514 1_555 1_555
H11 C13 0.990 1_555 1_555
H12 C13 0.991 1_555 1_555
C14 C13 1.528 1_555 1_555
H13 C14 0.990 1_555 1_555
H14 C14 0.991 1_555 1_555
C15 C14 1.522 1_555 1_555
H15 C15 0.980 1_555 1_555
H16 C15 0.980 1_555 1_555
H17 C15 0.981 1_555 1_555
C16 C4 1.509 1_555 1_555
H18 C16 0.991 1_555 1_555
H19 C16 0.990 1_555 1_555
C17 C16 1.522 1_555 1_555
H20 C17 0.990 1_555 1_555
H21 C17 0.990 1_555 1_555
C18 C17 1.513 1_555 1_555
H22 C18 0.989 1_555 1_555
H23 C18 0.990 1_555 1_555
C19 C18 1.530 1_555 1_555
H24 C19 0.990 1_555 1_555
H25 C19 0.990 1_555 1_555
C20 C19 1.520 1_555 1_555
H26 C20 0.990 1_555 1_555
H27 C20 0.988 1_555 1_555
C21 C20 1.519 1_555 1_555
H28 C21 0.981 1_555 1_555
H29 C21 0.980 1_555 1_555
H30 C21 0.981 1_555 1_555
C1F C2F 1.353 1_555 1_555
C2F H1F 0.952 1_555 1_555
C3F C2F 1.416 1_555 1_555
H2F C3F 0.949 1_555 1_555
C4F C3F 1.361 1_555 1_555
C5F C4F 1.448 1_555 1_555
C6F C1F 1.448 1_555 1_555
C7F C6F 1.386 1_555 1_555
H3F C7F 0.949 1_555 1_555
C8F C8 1.431 1_555 1_555
C9F C8 1.407 1_555 1_555
H4F C9F 0.950 1_555 1_555
C10F C1F 1.508 1_555 1_555
H5F C10F 0.989 1_555 1_555
H6F C10F 0.989 1_555 1_555
C11F C10F 1.545 1_555 1_555
H7F C11F 0.991 1_555 1_555
H8F C11F 0.990 1_555 1_555
C12F C11F 1.524 1_555 1_555
H9F C12F 0.990 1_555 1_555
H10F C12F 0.991 1_555 1_555
C13F C12F 1.514 1_555 1_555
H11F C13F 0.990 1_555 1_555
H12F C13F 0.991 1_555 1_555
C14F C13F 1.528 1_555 1_555
H13F C14F 0.990 1_555 1_555
H14F C14F 0.991 1_555 1_555
C15F C14F 1.522 1_555 1_555
H15F C15F 0.980 1_555 1_555
H16F C15F 0.980 1_555 1_555
H17F C15F 0.981 1_555 1_555
C16F C4F 1.509 1_555 1_555
H18F C16F 0.991 1_555 1_555
H19F C16F 0.990 1_555 1_555
C17F C16F 1.522 1_555 1_555
H20F C17F 0.990 1_555 1_555
H21F C17F 0.990 1_555 1_555
C18F C17F 1.513 1_555 1_555
H22F C18F 0.989 1_555 1_555
H23F C18F 0.990 1_555 1_555
C19F C18F 1.530 1_555 1_555
H24F C19F 0.990 1_555 1_555
H25F C19F 0.990 1_555 1_555
C20F C19F 1.520 1_555 1_555
H26F C20F 0.990 1_555 1_555
H27F C20F 0.988 1_555 1_555
C21F C20F 1.519 1_555 1_555
H28F C21F 0.981 1_555 1_555
H29F C21F 0.980 1_555 1_555
H30F C21F 0.981 1_555 1_555
C5 C6 1.460 1_555 1_555
C9 C8F 1.407 1_555 1_555
C5F C6F 1.460 1_555 1_555
C5F C9F 1.384 1_555 1_555
C7F C8F 1.411 1_555 1_555
#END
