
#######################################################################
#
#                 Cambridge Crystallographic Data Centre
#                                CCDC
#
#######################################################################
#
# If this CIF has been generated from an entry in the Cambridge
# Structural Database, then it will include bibliographic, chemical,
# crystal, experimental, refinement or atomic coordinate data resulting
# from the CCDC's data processing and validation procedures.
#
#######################################################################

data_CSD_CIF_GUQLEK
_audit_creation_date 2010-09-23
_audit_creation_method CSD-ConQuest-V1
_database_code_CSD GUQLEK
_database_code_depnum_ccdc_archive 'CCDC 748885'
_chemical_formula_sum 'C64 H44'
_chemical_formula_moiety
;
C64 H44
;
_journal_coden_Cambridge 7
_journal_volume 83
_journal_year 2010
_journal_page_first 220
_journal_name_full 'Bull.Chem.Soc.Jpn. '
loop_
_publ_author_name
"T.Ishikawa"
"T.Shimasaki"
"H.Akashi"
"T.Iwanaga"
"S.Toyota"
"M.Yamasaki"
_chemical_name_systematic
;
53,56-Dibutylundecacyclo[38.6.6.2^19,22^.1^8,12^.1^29,33^.0^4,9^.0^11,16^.0^25
,30^.0^32,37^.0^41,46^.0^47,52^]hexapentaconta-1(46),4,6,8(56),9,11,13,15,19,2
1,25,27,29(53),30,32,34,36,40,42,44,47,49,51,54-tetracosaene-2,17,23,38-tetray
ne
;
_cell_volume   4316.435
_exptl_crystal_colour 'orange'
_exptl_crystal_density_diffrn 1.251
_exptl_crystal_description 'platelet'
_exptl_crystal_preparation 'toluene'
_diffrn_ambient_temperature 173
#These two values have been output from a single CSD field.
_refine_ls_R_factor_gt 0.0462
_refine_ls_wR_factor_gt 0.0462
_symmetry_cell_setting monoclinic
_symmetry_space_group_name_H-M 'P 21/n'
_symmetry_Int_Tables_number 14
loop_
_symmetry_equiv_pos_site_id
_symmetry_equiv_pos_as_xyz
1 x,y,z
2 1/2-x,1/2+y,1/2-z
3 -x,-y,-z
4 -1/2+x,-1/2-y,-1/2+z
_cell_length_a 13.1251(2)
_cell_length_b 12.1275(2)
_cell_length_c 27.4773(3)
_cell_angle_alpha 90
_cell_angle_beta 99.2810(6)
_cell_angle_gamma 90
_cell_formula_units_Z 4
loop_
_atom_type_symbol
_atom_type_radius_bond
C 0.68
H 0.23
loop_
_atom_site_label
_atom_site_type_symbol
_atom_site_fract_x
_atom_site_fract_y
_atom_site_fract_z
C1 C 0.42129(11) -0.43896(13) 0.39060(5)
C2 C 0.47329(13) -0.38825(14) 0.35711(6)
H1 H 0.5169(14) -0.3219(15) 0.3675(6)
C3 C 0.46676(13) -0.43058(15) 0.30877(6)
H2 H 0.5060(15) -0.3923(16) 0.2852(7)
C4 C 0.40879(12) -0.52157(14) 0.29435(6)
H3 H 0.4041(13) -0.5495(15) 0.2598(6)
C5 C 0.35240(11) -0.57800(12) 0.32729(5)
C6 C 0.29144(11) -0.67209(12) 0.31271(5)
C7 C 0.23624(11) -0.72378(12) 0.34651(5)
C8 C 0.16998(12) -0.81679(12) 0.33337(5)
H4 H 0.1619(12) -0.8434(13) 0.2992(6)
C9 C 0.11870(12) -0.86637(13) 0.36670(6)
H5 H 0.0744(15) -0.9312(16) 0.3564(7)
C10 C 0.12976(12) -0.82719(13) 0.41570(5)
H6 H 0.0917(13) -0.8654(14) 0.4398(6)
C11 C 0.19086(11) -0.73762(12) 0.43073(5)
C12 C 0.24547(10) -0.68176(11) 0.39617(5)
C13 C 0.30653(11) -0.58960(12) 0.41003(5)
H7 H 0.3126(12) -0.5614(13) 0.4448(6)
C14 C 0.35932(11) -0.53598(12) 0.37665(5)
C15 C 0.20028(11) -0.70054(12) 0.48099(5)
C16 C 0.20575(11) -0.67528(12) 0.52363(5)
C17 C 0.21602(11) -0.64966(12) 0.57521(5)
C18 C 0.26917(10) -0.72421(12) 0.61003(5)
C19 C 0.30894(11) -0.82695(13) 0.59568(6)
H8 H 0.2978(13) -0.8427(14) 0.5606(6)
C20 C 0.35827(12) -0.89835(13) 0.62958(6)
H9 H 0.3853(13) -0.9695(14) 0.6181(6)
C21 C 0.37329(12) -0.87185(13) 0.68054(6)
H10 H 0.4087(13) -0.9259(14) 0.7052(6)
C22 C 0.33800(11) -0.77453(12) 0.69590(5)
H11 H 0.3474(12) -0.7564(13) 0.7317(6)
C23 C 0.28469(10) -0.69717(11) 0.66147(5)
C24 C 0.24797(10) -0.59510(11) 0.67687(5)
C25 C 0.18929(11) -0.52386(11) 0.64235(5)
C26 C 0.14446(11) -0.42457(12) 0.65742(5)
H12 H 0.1574(13) -0.4076(14) 0.6942(6)
C27 C 0.08538(13) -0.35849(13) 0.62403(6)
H13 H 0.0519(14) -0.2918(15) 0.6350(6)
C28 C 0.06919(13) -0.38570(13) 0.57324(6)
H14 H 0.0266(14) -0.3382(15) 0.5494(6)
C29 C 0.11238(12) -0.47807(13) 0.55711(5)
H15 H 0.1010(13) -0.4967(14) 0.5209(6)
C30 C 0.17295(11) -0.55142(11) 0.59095(5)
C31 C 0.27438(11) -0.56325(12) 0.72751(5)
C32 C 0.30534(11) -0.53909(12) 0.76968(5)
C33 C 0.34496(11) -0.51447(11) 0.82031(5)
C34 C 0.32810(12) -0.58777(12) 0.85638(5)
H16 H 0.2876(13) -0.6549(14) 0.8476(6)
C35 C 0.36754(12) -0.56552(13) 0.90644(5)
H17 H 0.3518(13) -0.6191(14) 0.9324(6)
C36 C 0.42110(11) -0.47100(12) 0.91982(5)
H18 H 0.4465(13) -0.4548(14) 0.9554(6)
C37 C 0.44172(10) -0.39091(12) 0.88423(5)
C38 C 0.49752(11) -0.29253(12) 0.89730(5)
C39 C 0.51431(10) -0.21738(12) 0.85992(5)
C40 C 0.57054(11) -0.11642(12) 0.87084(5)
H19 H 0.6013(13) -0.0991(13) 0.9062(6)
C41 C 0.58534(12) -0.04464(13) 0.83462(6)
H20 H 0.6247(14) 0.0227(15) 0.8436(6)
C42 C 0.54637(12) -0.06740(12) 0.78483(6)
H21 H 0.5592(13) -0.0156(15) 0.7580(6)
C43 C 0.49262(11) -0.16329(12) 0.77156(5)
C44 C 0.47464(10) -0.24128(11) 0.80918(5)
C45 C 0.42034(11) -0.33909(11) 0.79690(5)
H22 H 0.3919(11) -0.3535(12) 0.7614(5)
C46 C 0.40268(10) -0.41419(11) 0.83318(5)
C47 C 0.46250(11) -0.18886(12) 0.72036(5)
C48 C 0.44964(12) -0.21270(13) 0.67740(5)
C49 C 0.44233(11) -0.24656(12) 0.62699(5)
C50 C 0.50042(12) -0.19340(13) 0.59549(5)
H23 H 0.5453(13) -0.1291(14) 0.6082(6)
C51 C 0.49854(12) -0.23086(13) 0.54774(5)
H24 H 0.5409(13) -0.1946(14) 0.5252(6)
C52 C 0.43817(11) -0.32190(12) 0.53027(5)
C53 C 0.37996(13) -0.37486(14) 0.56166(6)
H25 H 0.3386(15) -0.4439(16) 0.5489(7)
C54 C 0.38222(13) -0.33785(14) 0.60933(6)
H26 H 0.3431(15) -0.3762(16) 0.6321(7)
C55 C 0.43464(12) -0.36131(13) 0.48080(5)
C56 C 0.42881(11) -0.39623(13) 0.43957(5)
C57 C 0.54006(12) -0.26439(13) 0.95050(5)
H27 H 0.5000(13) -0.3052(14) 0.9717(6)
H28 H 0.5271(13) -0.1820(15) 0.9558(6)
C58 C 0.65575(12) -0.28884(13) 0.96658(5)
H29 H 0.6991(13) -0.2457(15) 0.9453(6)
H30 H 0.6794(14) -0.2601(15) 1.0028(6)
C59 C 0.68262(13) -0.41091(14) 0.96521(6)
H31 H 0.6739(13) -0.4365(14) 0.9291(6)
H32 H 0.6296(14) -0.4550(16) 0.9816(6)
C60 C 0.79197(14) -0.43818(18) 0.99066(7)
H33 H 0.8444(16) -0.3952(17) 0.9742(7)
H34 H 0.8108(17) -0.5218(19) 0.9847(7)
H35 H 0.8003(17) -0.4201(18) 1.0289(8)
C61 C 0.28459(12) -0.71404(13) 0.26049(5)
H36 H 0.3547(13) -0.7064(14) 0.2502(6)
H37 H 0.2686(14) -0.7969(16) 0.2592(6)
C62 C 0.20721(13) -0.64988(16) 0.22340(6)
H38 H 0.1336(13) -0.6701(14) 0.2289(6)
H39 H 0.2135(15) -0.5617(17) 0.2284(7)
C63 C 0.22087(15) -0.6720(2) 0.17015(6)
H40 H 0.2954(16) -0.6481(16) 0.1661(7)
H41 H 0.214(2) -0.758(2) 0.1649(9)
C64 C 0.1464(2) -0.6030(4) 0.13412(9)
H42 H 0.074(2) -0.622(2) 0.1381(9)
H43 H 0.151(2) -0.619(3) 0.0996(12)
H44 H 0.153(3) -0.512(3) 0.1550(13)
loop_
_geom_bond_atom_site_label_1
_geom_bond_atom_site_label_2
_geom_bond_distance
_geom_bond_site_symmetry_1
_geom_bond_site_symmetry_2
C1 C2 1.376 1_555 1_555
C2 H1 1.002 1_555 1_555
C3 C2 1.414 1_555 1_555
H2 C3 1.004 1_555 1_555
C4 C3 1.362 1_555 1_555
H3 C4 1.000 1_555 1_555
C5 C4 1.432 1_555 1_555
C6 C5 1.414 1_555 1_555
C7 C6 1.413 1_555 1_555
C8 C7 1.434 1_555 1_555
H4 C8 0.982 1_555 1_555
C9 C8 1.361 1_555 1_555
H5 C9 0.992 1_555 1_555
C10 C9 1.413 1_555 1_555
H6 C10 1.005 1_555 1_555
C11 C10 1.374 1_555 1_555
C12 C7 1.443 1_555 1_555
C13 C12 1.392 1_555 1_555
H7 C13 1.006 1_555 1_555
C14 C1 1.446 1_555 1_555
C15 C11 1.439 1_555 1_555
C16 C15 1.202 1_555 1_555
C17 C16 1.436 1_555 1_555
C18 C17 1.416 1_555 1_555
C19 C18 1.431 1_555 1_555
H8 C19 0.970 1_555 1_555
C20 C19 1.357 1_555 1_555
H9 C20 1.003 1_555 1_555
C21 C20 1.419 1_555 1_555
H10 C21 1.002 1_555 1_555
C22 C21 1.360 1_555 1_555
H11 C22 0.996 1_555 1_555
C23 C18 1.433 1_555 1_555
C24 C23 1.418 1_555 1_555
C25 C24 1.416 1_555 1_555
C26 C25 1.430 1_555 1_555
H12 C26 1.018 1_555 1_555
C27 C26 1.362 1_555 1_555
H13 C27 0.990 1_555 1_555
C28 C27 1.416 1_555 1_555
H14 C28 0.977 1_555 1_555
C29 C28 1.362 1_555 1_555
H15 C29 1.008 1_555 1_555
C30 C17 1.416 1_555 1_555
C31 C24 1.432 1_555 1_555
C32 C31 1.201 1_555 1_555
C33 C32 1.436 1_555 1_555
C34 C33 1.376 1_555 1_555
H16 C34 0.981 1_555 1_555
C35 C34 1.415 1_555 1_555
H17 C35 1.011 1_555 1_555
C36 C35 1.364 1_555 1_555
H18 C36 1.000 1_555 1_555
C37 C36 1.435 1_555 1_555
C38 C37 1.416 1_555 1_555
C39 C38 1.417 1_555 1_555
C40 C39 1.436 1_555 1_555
H19 C40 1.012 1_555 1_555
C41 C40 1.360 1_555 1_555
H20 C41 0.977 1_555 1_555
C42 C41 1.408 1_555 1_555
H21 C42 1.003 1_555 1_555
C43 C42 1.378 1_555 1_555
C44 C39 1.437 1_555 1_555
C45 C44 1.397 1_555 1_555
H22 C45 1.002 1_555 1_555
C46 C33 1.446 1_555 1_555
C47 C43 1.433 1_555 1_555
C48 C47 1.201 1_555 1_555
C49 C48 1.433 1_555 1_555
C50 C49 1.400 1_555 1_555
H23 C50 1.005 1_555 1_555
C51 C50 1.385 1_555 1_555
H24 C51 0.999 1_555 1_555
C52 C51 1.398 1_555 1_555
C53 C52 1.397 1_555 1_555
H25 C53 1.028 1_555 1_555
C54 C49 1.400 1_555 1_555
H26 C54 0.987 1_555 1_555
C55 C52 1.435 1_555 1_555
C56 C1 1.430 1_555 1_555
C57 C38 1.517 1_555 1_555
H27 C57 0.980 1_555 1_555
H28 C57 1.028 1_555 1_555
C58 C57 1.540 1_555 1_555
H29 C58 1.023 1_555 1_555
H30 C58 1.053 1_555 1_555
C59 C58 1.524 1_555 1_555
H31 C59 1.028 1_555 1_555
H32 C59 1.036 1_555 1_555
C60 C59 1.528 1_555 1_555
H33 C60 1.025 1_555 1_555
H34 C60 1.063 1_555 1_555
H35 C60 1.062 1_555 1_555
C61 C6 1.511 1_555 1_555
H36 C61 1.010 1_555 1_555
H37 C61 1.026 1_555 1_555
C62 C61 1.530 1_555 1_555
H38 C62 1.031 1_555 1_555
H39 C62 1.080 1_555 1_555
C63 C62 1.526 1_555 1_555
H40 C63 1.043 1_555 1_555
H41 C63 1.055 1_555 1_555
C64 C63 1.524 1_555 1_555
H42 C64 1.001 1_555 1_555
H43 C64 0.980 1_555 1_555
H44 C64 1.240 1_555 1_555
C5 C14 1.438 1_555 1_555
C11 C12 1.447 1_555 1_555
C13 C14 1.396 1_555 1_555
C22 C23 1.432 1_555 1_555
C25 C30 1.433 1_555 1_555
C29 C30 1.432 1_555 1_555
C37 C46 1.442 1_555 1_555
C43 C44 1.448 1_555 1_555
C45 C46 1.397 1_555 1_555
C53 C54 1.380 1_555 1_555
C55 C56 1.200 1_555 1_555
#END
