
#######################################################################
#
#                 Cambridge Crystallographic Data Centre
#                                CCDC
#
#######################################################################
#
# If this CIF has been generated from an entry in the Cambridge
# Structural Database, then it will include bibliographic, chemical,
# crystal, experimental, refinement or atomic coordinate data resulting
# from the CCDC's data processing and validation procedures.
#
#######################################################################

data_CSD_CIF_GUQLIO
_audit_creation_date 2010-09-23
_audit_creation_method CSD-ConQuest-V1
_database_code_CSD GUQLIO
_database_code_depnum_ccdc_archive 'CCDC 748886'
_chemical_formula_sum 'C76 H62'
_chemical_formula_moiety
;
C76 H62
;
_journal_coden_Cambridge 7
_journal_volume 83
_journal_year 2010
_journal_page_first 220
_journal_name_full 'Bull.Chem.Soc.Jpn. '
loop_
_publ_author_name
"T.Ishikawa"
"T.Shimasaki"
"H.Akashi"
"T.Iwanaga"
"S.Toyota"
"M.Yamasaki"
_chemical_name_systematic
;
(-)-59,60-Dibutyl-21,26-di-t-butyldodecacyclo[44.6.6.1^8,12^.1^35,39^.0^4,9^.0
^11,16^.0^19,24^.0^23,28^.0^31,36^.0^38,43^.0^47,52^.0^53,58^]hexaconta-1(52),
4,6,8(60),9,11,13,15,19,21,23,25,27,31,33,35(59),36,38,40,42,46,48,50,53,55,57
-hexacosaene-2,17,29,44-tetrayne
;
_cell_volume   2744.636
_exptl_crystal_colour 'yellow'
_exptl_crystal_density_diffrn 1.18
_exptl_crystal_description 'block'
_exptl_crystal_preparation 'hexane/chloroform'
_diffrn_ambient_temperature 93.1
#These two values have been output from a single CSD field.
_refine_ls_R_factor_gt 0.0409
_refine_ls_wR_factor_gt 0.0409
_symmetry_cell_setting monoclinic
_symmetry_space_group_name_H-M 'P 21'
_symmetry_Int_Tables_number 4
loop_
_symmetry_equiv_pos_site_id
_symmetry_equiv_pos_as_xyz
1 x,y,z
2 -x,1/2+y,-z
_cell_length_a 10.06818(18)
_cell_length_b 17.8794(3)
_cell_length_c 15.8106(7)
_cell_angle_alpha 90
_cell_angle_beta 105.3460(7)
_cell_angle_gamma 90
_cell_formula_units_Z 2
loop_
_atom_type_symbol
_atom_type_radius_bond
C 0.68
H 0.23
loop_
_atom_site_label
_atom_site_type_symbol
_atom_site_fract_x
_atom_site_fract_y
_atom_site_fract_z
C1 C 0.2510(2) 0.45353(17) 0.62848(18)
C2 C 0.3614(2) 0.44707(16) 0.69969(17)
C3 C 0.4960(2) 0.46891(15) 0.69672(17)
C4 C 0.6112(2) 0.46501(14) 0.77122(16)
C5 C 0.7437(2) 0.48279(15) 0.76278(16)
C6 C 0.8638(2) 0.47624(17) 0.83455(17)
C7 C 0.9908(3) 0.49216(19) 0.82514(18)
C8 C 1.0078(2) 0.51702(17) 0.74388(18)
C9 C 0.8968(2) 0.52556(15) 0.67247(17)
C10 C 0.7604(2) 0.50786(15) 0.67934(16)
C11 C 0.6452(2) 0.51382(15) 0.60786(16)
C12 C 0.5145(2) 0.49557(14) 0.61464(16)
C13 C 0.3942(2) 0.50313(15) 0.54073(16)
C14 C 0.2671(2) 0.48342(16) 0.54872(17)
C15 C 0.4068(2) 0.52964(16) 0.45729(17)
C16 C 0.4077(2) 0.54917(16) 0.38477(17)
C17 C 0.1341(2) 0.43765(19) 0.17414(18)
C18 C 0.2164(2) 0.47658(17) 0.24097(18)
C19 C 0.3132(2) 0.52958(16) 0.22694(16)
C20 C 0.4074(2) 0.56695(16) 0.29665(16)
C21 C 0.5038(2) 0.61822(16) 0.27960(16)
C22 C 0.5976(2) 0.65784(17) 0.34844(17)
C23 C 0.6895(2) 0.70745(18) 0.33083(19)
C24 C 0.6957(2) 0.71993(18) 0.24394(18)
C25 C 0.6083(2) 0.68260(17) 0.17591(17)
C26 C 0.5091(2) 0.63148(16) 0.19089(16)
C27 C 0.4169(2) 0.59274(16) 0.12168(17)
C28 C 0.3190(2) 0.54248(17) 0.13793(16)
C29 C 0.2299(2) 0.50086(19) 0.06942(17)
C30 C 0.1399(3) 0.4494(2) 0.08673(18)
C31 C 0.9192(2) 0.55263(16) 0.59204(17)
C32 C 0.9479(2) 0.57637(16) 0.52785(16)
C33 C 0.9806(2) 0.60315(15) 0.45009(16)
C34 C 1.0646(2) 0.66454(16) 0.45365(17)
C35 C 1.1007(2) 0.69332(16) 0.37929(16)
C36 C 1.0452(2) 0.65790(16) 0.30034(16)
C37 C 0.9570(2) 0.59512(15) 0.29291(16)
C38 C 0.8951(2) 0.56119(16) 0.21032(16)
C39 C 0.8139(2) 0.49906(17) 0.20583(17)
C40 C 0.7896(2) 0.46566(15) 0.28200(16)
C41 C 0.8442(2) 0.49953(16) 0.36054(16)
C42 C 0.9267(2) 0.56527(15) 0.36868(16)
C43 C 0.4254(2) 0.60388(17) 0.03292(17)
C44 C 0.4313(2) 0.61235(17) -0.04107(17)
C45 C 0.9160(2) 0.59353(17) 0.13185(17)
C46 C 0.9329(2) 0.62268(18) 0.06784(17)
C47 C 0.4424(2) 0.62667(15) -0.12878(16)
C48 C 0.3279(2) 0.62554(16) -0.19850(17)
C49 C 0.3380(2) 0.64156(15) -0.28416(17)
C50 C 0.4607(2) 0.65977(16) -0.29868(16)
C51 C 0.5848(2) 0.66179(16) -0.22896(16)
C52 C 0.5755(2) 0.64281(15) -0.14204(16)
C53 C 0.6938(2) 0.63961(16) -0.07348(16)
C54 C 0.8214(2) 0.65849(16) -0.08535(17)
C55 C 0.9442(2) 0.65410(17) -0.01321(18)
C56 C 1.0671(2) 0.67904(19) -0.02414(19)
C57 C 1.0762(3) 0.70624(18) -0.10539(18)
C58 C 0.8321(2) 0.68233(16) -0.16959(17)
C59 C 0.7135(2) 0.68102(15) -0.24205(16)
C60 C 1.1936(2) 0.76192(16) 0.38765(17)
C61 C 1.3246(2) 0.75001(17) 0.46126(18)
C62 C 1.2358(3) 0.77805(18) 0.30295(18)
C63 C 1.1140(2) 0.82982(17) 0.40764(19)
C64 C 0.7096(2) 0.39228(16) 0.27208(17)
C65 C 0.7910(3) 0.33301(19) 0.2363(2)
C66 C 0.5683(3) 0.4006(2) 0.2056(2)
C67 C 0.6866(4) 0.3659(2) 0.3571(2)
C68 C 0.7250(3) 0.70438(16) -0.33197(17)
C69 C 0.6937(3) 0.78650(16) -0.35023(19)
C70 C 0.5917(2) 0.44074(16) 0.85906(16)
C71 C 0.6068(2) 0.35632(17) 0.87353(18)
C72 C 0.9641(2) 0.70704(17) -0.17667(18)
C73 C 0.7078(3) 0.81184(18) -0.43944(18)
C74 C 0.8552(3) 0.8137(2) -0.4452(2)
C75 C 0.5846(3) 0.3308(2) 0.96175(19)
C76 C 0.4396(3) 0.3474(2) 0.9707(2)
H1 H 0.16260 0.43790 0.63230
H2 H 0.34830 0.42750 0.75270
H3 H 0.85450 0.46040 0.89010
H4 H 1.06920 0.48650 0.87370
H5 H 1.09760 0.52800 0.73860
H6 H 0.65640 0.53080 0.55320
H7 H 0.18870 0.48980 0.50030
H8 H 0.07160 0.40190 0.18600
H9 H 0.20920 0.46830 0.29890
H10 H 0.59600 0.64950 0.40750
H11 H 0.75000 0.73390 0.37760
H12 H 0.76070 0.75430 0.23250
H13 H 0.61420 0.69110 0.11770
H14 H 0.23280 0.50890 0.01050
H15 H 0.08150 0.42180 0.04020
H16 H 1.09990 0.68870 0.50850
H17 H 1.06690 0.67620 0.24920
H18 H 0.77250 0.47760 0.15010
H19 H 0.82670 0.47860 0.41180
H20 H 0.24070 0.61390 -0.18930
H21 H 0.25780 0.63950 -0.33210
H22 H 0.46450 0.67150 -0.35660
H23 H 0.68770 0.62420 -0.01720
H24 H 1.14710 0.67790 0.02390
H25 H 1.16200 0.72450 -0.11120
H26 H 1.30030 0.74180 0.51660
H27 H 1.38350 0.79430 0.46650
H28 H 1.37410 0.70630 0.44790
H29 H 1.28180 0.73400 0.28690
H30 H 1.29890 0.82080 0.31230
H31 H 1.15360 0.78960 0.25560
H32 H 1.03360 0.83890 0.35810
H33 H 1.17400 0.87390 0.41700
H34 H 1.08360 0.82000 0.46060
H35 H 0.80100 0.34900 0.17900
H36 H 0.74170 0.28520 0.23000
H37 H 0.88240 0.32700 0.27710
H38 H 0.51120 0.43530 0.22880
H39 H 0.52300 0.35170 0.19530
H40 H 0.58050 0.42010 0.15020
H41 H 0.77560 0.36030 0.40060
H42 H 0.63890 0.31760 0.34810
H43 H 0.63040 0.40260 0.37810
H44 H 0.81940 0.69380 -0.33640
H45 H 0.66020 0.67420 -0.37710
H46 H 0.75700 0.81640 -0.30400
H47 H 0.59860 0.79670 -0.34690
H48 H 0.49900 0.45620 0.86270
H49 H 0.66040 0.46660 0.90650
H50 H 0.70010 0.34100 0.87090
H51 H 0.53930 0.33050 0.82540
H52 H 0.97390 0.72420 -0.23160
H53 H 0.65430 0.77760 -0.48500
H54 H 0.66760 0.86250 -0.45200
H55 H 0.90860 0.84840 -0.40120
H56 H 0.85750 0.83050 -0.50390
H57 H 0.89520 0.76350 -0.43450
H58 H 0.60170 0.27630 0.96830
H59 H 0.65270 0.35620 1.00990
H60 H 0.43000 0.40120 0.97920
H61 H 0.42490 0.32020 1.02140
H62 H 0.37120 0.33130 0.91740
loop_
_geom_bond_atom_site_label_1
_geom_bond_atom_site_label_2
_geom_bond_distance
_geom_bond_site_symmetry_1
_geom_bond_site_symmetry_2
C1 C2 1.362 1_555 1_555
C2 C3 1.423 1_555 1_555
C3 C4 1.419 1_555 1_555
C4 C5 1.412 1_555 1_555
C5 C6 1.427 1_555 1_555
C6 C7 1.356 1_555 1_555
C7 C8 1.412 1_555 1_555
C8 C9 1.371 1_555 1_555
C9 C10 1.441 1_555 1_555
C10 C5 1.445 1_555 1_555
C11 C10 1.393 1_555 1_555
C12 C3 1.440 1_555 1_555
C13 C12 1.450 1_555 1_555
C14 C1 1.418 1_555 1_555
C15 C13 1.439 1_555 1_555
C16 C15 1.201 1_555 1_555
C17 C18 1.351 1_555 1_555
C18 C19 1.418 1_555 1_555
C19 C20 1.417 1_555 1_555
C20 C16 1.428 1_555 1_555
C21 C20 1.412 1_555 1_555
C22 C21 1.426 1_555 1_555
C23 C22 1.363 1_555 1_555
C24 C23 1.409 1_555 1_555
C25 C24 1.370 1_555 1_555
C26 C21 1.437 1_555 1_555
C27 C26 1.415 1_555 1_555
C28 C19 1.442 1_555 1_555
C29 C28 1.420 1_555 1_555
C30 C17 1.414 1_555 1_555
C31 C9 1.433 1_555 1_555
C32 C31 1.204 1_555 1_555
C33 C32 1.436 1_555 1_555
C34 C33 1.378 1_555 1_555
C35 C34 1.416 1_555 1_555
C36 C35 1.379 1_555 1_555
C37 C36 1.417 1_555 1_555
C38 C37 1.425 1_555 1_555
C39 C38 1.370 1_555 1_555
C40 C39 1.422 1_555 1_555
C41 C40 1.360 1_555 1_555
C42 C33 1.428 1_555 1_555
C43 C27 1.442 1_555 1_555
C44 C43 1.197 1_555 1_555
C45 C38 1.434 1_555 1_555
C46 C45 1.190 1_555 1_555
C47 C44 1.443 1_555 1_555
C48 C47 1.368 1_555 1_555
C49 C48 1.414 1_555 1_555
C50 C49 1.355 1_555 1_555
C51 C50 1.431 1_555 1_555
C52 C47 1.439 1_555 1_555
C53 C52 1.383 1_555 1_555
C54 C53 1.388 1_555 1_555
C55 C46 1.431 1_555 1_555
C56 C55 1.369 1_555 1_555
C57 C56 1.399 1_555 1_555
C58 C54 1.429 1_555 1_555
C59 C51 1.408 1_555 1_555
C60 C35 1.527 1_555 1_555
C61 C60 1.525 1_555 1_555
C62 C60 1.536 1_555 1_555
C63 C60 1.533 1_555 1_555
C64 C40 1.526 1_555 1_555
C65 C64 1.536 1_555 1_555
C66 C64 1.536 1_555 1_555
C67 C64 1.499 1_555 1_555
C68 C59 1.515 1_555 1_555
C69 C68 1.513 1_555 1_555
C70 C4 1.517 1_555 1_555
C71 C70 1.528 1_555 1_555
C72 C57 1.368 1_555 1_555
C73 C69 1.523 1_555 1_555
C74 C73 1.511 1_555 1_555
C75 C71 1.539 1_555 1_555
C76 C75 1.533 1_555 1_555
H1 C1 0.950 1_555 1_555
H2 C2 0.949 1_555 1_555
H3 C6 0.951 1_555 1_555
H4 C7 0.950 1_555 1_555
H5 C8 0.950 1_555 1_555
H6 C11 0.950 1_555 1_555
H7 C14 0.950 1_555 1_555
H8 C17 0.950 1_555 1_555
H9 C18 0.949 1_555 1_555
H10 C22 0.950 1_555 1_555
H11 C23 0.950 1_555 1_555
H12 C24 0.949 1_555 1_555
H13 C25 0.950 1_555 1_555
H14 C29 0.951 1_555 1_555
H15 C30 0.949 1_555 1_555
H16 C34 0.950 1_555 1_555
H17 C36 0.950 1_555 1_555
H18 C39 0.950 1_555 1_555
H19 C41 0.951 1_555 1_555
H20 C48 0.950 1_555 1_555
H21 C49 0.951 1_555 1_555
H22 C50 0.950 1_555 1_555
H23 C53 0.949 1_555 1_555
H24 C56 0.950 1_555 1_555
H25 C57 0.950 1_555 1_555
H26 C61 0.980 1_555 1_555
H27 C61 0.980 1_555 1_555
H28 C61 0.980 1_555 1_555
H29 C62 0.981 1_555 1_555
H30 C62 0.980 1_555 1_555
H31 C62 0.980 1_555 1_555
H32 C63 0.980 1_555 1_555
H33 C63 0.980 1_555 1_555
H34 C63 0.980 1_555 1_555
H35 C65 0.980 1_555 1_555
H36 C65 0.980 1_555 1_555
H37 C65 0.980 1_555 1_555
H38 C66 0.981 1_555 1_555
H39 C66 0.980 1_555 1_555
H40 C66 0.980 1_555 1_555
H41 C67 0.980 1_555 1_555
H42 C67 0.980 1_555 1_555
H43 C67 0.980 1_555 1_555
H44 C68 0.990 1_555 1_555
H45 C68 0.990 1_555 1_555
H46 C69 0.990 1_555 1_555
H47 C69 0.990 1_555 1_555
H48 C70 0.990 1_555 1_555
H49 C70 0.990 1_555 1_555
H50 C71 0.990 1_555 1_555
H51 C71 0.990 1_555 1_555
H52 C72 0.951 1_555 1_555
H53 C73 0.989 1_555 1_555
H54 C73 0.991 1_555 1_555
H55 C74 0.980 1_555 1_555
H56 C74 0.982 1_555 1_555
H57 C74 0.980 1_555 1_555
H58 C75 0.990 1_555 1_555
H59 C75 0.990 1_555 1_555
H60 C76 0.980 1_555 1_555
H61 C76 0.982 1_555 1_555
H62 C76 0.980 1_555 1_555
C11 C12 1.387 1_555 1_555
C13 C14 1.365 1_555 1_555
C25 C26 1.419 1_555 1_555
C27 C28 1.407 1_555 1_555
C29 C30 1.369 1_555 1_555
C37 C42 1.416 1_555 1_555
C41 C42 1.425 1_555 1_555
C51 C52 1.442 1_555 1_555
C54 C55 1.445 1_555 1_555
C58 C59 1.419 1_555 1_555
C58 C72 1.433 1_555 1_555
#END
