
#######################################################################
#
#                 Cambridge Crystallographic Data Centre
#                                CCDC
#
#######################################################################
#
# If this CIF has been generated from an entry in the Cambridge
# Structural Database, then it will include bibliographic, chemical,
# crystal, experimental, refinement or atomic coordinate data resulting
# from the CCDC's data processing and validation procedures.
#
#######################################################################

data_CSD_CIF_GUWHIR
_audit_creation_date 2015-09-25
_audit_creation_method CSD-ConQuest-V1
_database_code_CSD GUWHIR
_database_code_depnum_ccdc_archive 'CCDC 1012337'
_chemical_formula_sum 'C35 H21'
_chemical_formula_moiety
;
C35 H21
;
_journal_coden_Cambridge 4
_journal_volume 136
_journal_year 2014
_journal_page_first 12784
_journal_name_full 'J.Am.Chem.Soc. '
loop_
_publ_author_name
"Yi Tian"
"K.Uchida"
"H.Kurata"
"Y.Hirao"
"T.Nishiuchi"
"T.Kubo"
_chemical_name_systematic
;
12-(9-anthryl)-12H-dibenzo[b,h]fluorenyl radical
;
_cell_volume   4621.500
_exptl_crystal_colour 'black'
_exptl_crystal_density_diffrn 1.269
_exptl_crystal_description 'block'
_diffrn_ambient_temperature 200
#These two values have been output from a single CSD field.
_refine_ls_R_factor_gt 0.0513
_refine_ls_wR_factor_gt 0.0513
_symmetry_cell_setting monoclinic
_symmetry_space_group_name_H-M 'P 21/n'
_symmetry_Int_Tables_number 14
loop_
_symmetry_equiv_pos_site_id
_symmetry_equiv_pos_as_xyz
1 x,y,z
2 1/2-x,1/2+y,1/2-z
3 -x,-y,-z
4 -1/2+x,-1/2-y,-1/2+z
_cell_length_a 12.9470(4)
_cell_length_b 12.7291(3)
_cell_length_c 28.2335(6)
_cell_angle_alpha 90
_cell_angle_beta 96.669(1)
_cell_angle_gamma 90
_cell_formula_units_Z 8
loop_
_atom_type_symbol
_atom_type_radius_bond
C 0.68
H 0.23
loop_
_atom_site_label
_atom_site_type_symbol
_atom_site_fract_x
_atom_site_fract_y
_atom_site_fract_z
C1 C 0.24091(13) 0.62809(12) 0.49208(5)
C2 C 0.21081(12) 0.54003(12) 0.51868(5)
C3 C 0.24101(13) 0.51044(12) 0.56550(5)
C4 C 0.20301(13) 0.41652(12) 0.58343(6)
C5 C 0.23577(15) 0.38070(14) 0.62997(6)
C6 C 0.20040(17) 0.28833(16) 0.64650(7)
C7 C 0.12923(17) 0.22815(14) 0.61686(7)
C8 C 0.09487(15) 0.25950(13) 0.57176(7)
C9 C 0.13024(12) 0.35437(12) 0.55319(6)
C10 C 0.09820(12) 0.38750(12) 0.50562(6)
C11 C 0.13723(12) 0.47751(12) 0.48828(5)
C12 C 0.12220(12) 0.52963(11) 0.44150(5)
C13 C 0.05973(12) 0.50909(13) 0.39996(6)
C14 C 0.06153(13) 0.57676(13) 0.35965(6)
C15 C -0.00360(15) 0.56009(15) 0.31664(6)
C16 C -0.00094(18) 0.62609(18) 0.27876(7)
C17 C 0.06660(18) 0.71269(17) 0.28109(6)
C18 C 0.13133(15) 0.73131(14) 0.32221(6)
C19 C 0.12970(13) 0.66549(13) 0.36247(5)
C20 C 0.19281(13) 0.68682(12) 0.40590(5)
C21 C 0.18834(12) 0.62088(12) 0.44464(5)
C22 C 0.31165(12) 0.71465(11) 0.50966(5)
C23 C 0.27816(12) 0.78908(11) 0.54174(5)
C24 C 0.18132(13) 0.78033(13) 0.56138(6)
C25 C 0.15180(15) 0.85453(16) 0.59183(6)
C26 C 0.21481(17) 0.94194(15) 0.60445(6)
C27 C 0.30653(16) 0.95455(13) 0.58689(6)
C28 C 0.34196(13) 0.87853(11) 0.55500(5)
C29 C 0.43666(13) 0.89003(11) 0.53664(5)
C30 C 0.47302(12) 0.81419(11) 0.50682(5)
C31 C 0.57303(13) 0.82205(14) 0.49058(6)
C32 C 0.60809(14) 0.74507(16) 0.46301(6)
C33 C 0.54536(15) 0.65624(15) 0.44969(6)
C34 C 0.44940(14) 0.64657(13) 0.46401(6)
C35 C 0.40964(12) 0.72470(11) 0.49316(5)
H1 H 0.28680 0.55490 0.58560
H2 H 0.28410 0.42230 0.65040
H3 H 0.22300 0.26560 0.67860
H4 H 0.10430 0.16320 0.62850
H5 H 0.04640 0.21680 0.55210
H6 H 0.04930 0.34640 0.48520
H7 H 0.01590 0.44820 0.39810
H8 H -0.05040 0.50070 0.31450
H9 H -0.04680 0.61340 0.24990
H10 H 0.06920 0.75830 0.25420
H11 H 0.17810 0.79130 0.32370
H12 H 0.23800 0.74700 0.40840
H13 H 0.13680 0.72040 0.55260
H14 H 0.08570 0.84580 0.60550
H15 H 0.19270 0.99500 0.62560
H16 H 0.34870 1.01550 0.59570
H17 H 0.47780 0.95210 0.54490
H18 H 0.61630 0.88150 0.50000
H19 H 0.67550 0.75130 0.45180
H20 H 0.57150 0.60290 0.43030
H21 H 0.40830 0.58560 0.45480
C36 C 0.02316(13) 1.09108(12) 0.24704(5)
C37 C 0.05021(13) 1.19254(12) 0.22926(5)
C38 C 0.04321(13) 1.23275(12) 0.18336(5)
C39 C 0.08259(13) 1.33466(12) 0.17535(5)
C40 C 0.08661(14) 1.37493(14) 0.12885(6)
C41 C 0.12825(15) 1.47150(16) 0.12195(7)
C42 C 0.16444(15) 1.53542(15) 0.16090(7)
C43 C 0.16291(15) 1.49874(14) 0.20623(6)
C44 C 0.12399(13) 1.39793(12) 0.21511(5)
C45 C 0.12679(13) 1.35631(12) 0.26207(5)
C46 C 0.09248(12) 1.25745(11) 0.26884(5)
C47 C 0.09279(12) 1.19415(11) 0.31237(5)
C48 C 0.12610(12) 1.21606(12) 0.35875(5)
C49 C 0.12513(12) 1.13614(12) 0.39411(5)
C50 C 0.15949(13) 1.15447(14) 0.44265(5)
C51 C 0.15765(15) 1.07660(17) 0.47592(6)
C52 C 0.12350(15) 0.97583(15) 0.46213(6)
C53 C 0.09087(14) 0.95428(13) 0.41538(6)
C54 C 0.08884(12) 1.03310(12) 0.38005(5)
C55 C 0.05153(12) 1.01271(12) 0.33159(5)
C56 C 0.05194(12) 1.09197(11) 0.29810(5)
C57 C -0.02405(12) 1.00122(11) 0.21944(5)
C58 C 0.02690(12) 0.95585(11) 0.18241(5)
C59 C 0.12478(13) 0.99175(12) 0.17025(5)
C60 C 0.16918(14) 0.94948(14) 0.13324(6)
C61 C 0.12055(17) 0.86576(16) 0.10624(6)
C62 C 0.03064(16) 0.82543(14) 0.11802(6)
C63 C -0.01948(13) 0.86800(12) 0.15614(5)
C64 C -0.11279(14) 0.82643(13) 0.16811(6)
C65 C -0.16399(13) 0.86980(13) 0.20416(5)
C66 C -0.26181(15) 0.82875(15) 0.21472(6)
C67 C -0.31385(15) 0.87328(18) 0.24821(7)
C68 C -0.27317(15) 0.96262(17) 0.27302(6)
C69 C -0.17985(14) 1.00457(14) 0.26421(5)
C70 C -0.12023(13) 0.95924(12) 0.22992(5)
H22 H 0.01140 1.19200 0.15720
H23 H 0.06060 1.33350 0.10180
H24 H 0.13410 1.49450 0.08970
H25 H 0.19090 1.60460 0.15520
H26 H 0.18840 1.54290 0.23320
H27 H 0.15330 1.39770 0.28880
H28 H 0.15130 1.28450 0.36790
H29 H 0.18580 1.22220 0.45280
H30 H 0.17980 1.09090 0.50890
H31 H 0.12330 0.92160 0.48600
H32 H 0.07040 0.88360 0.40590
H33 H 0.02610 0.94490 0.32200
H34 H 0.15960 1.04670 0.18890
H35 H 0.23420 0.97600 0.12570
H36 H 0.15050 0.83760 0.07930
H37 H -0.00190 0.76830 0.09990
H38 H -0.14160 0.76630 0.15110
H39 H -0.29140 0.76840 0.19690
H40 H -0.37850 0.84350 0.25550
H41 H -0.31200 0.99450 0.29640
H42 H -0.15390 1.06560 0.28140
loop_
_geom_bond_atom_site_label_1
_geom_bond_atom_site_label_2
_geom_bond_distance
_geom_bond_site_symmetry_1
_geom_bond_site_symmetry_2
C1 C2 1.428 1_555 1_555
C2 C3 1.386 1_555 1_555
C3 C4 1.409 1_555 1_555
C4 C5 1.409 1_555 1_555
C5 C6 1.364 1_555 1_555
C6 C7 1.399 1_555 1_555
C7 C8 1.359 1_555 1_555
C8 C9 1.414 1_555 1_555
C9 C4 1.434 1_555 1_555
C10 C9 1.423 1_555 1_555
C11 C2 1.445 1_555 1_555
C12 C11 1.471 1_555 1_555
C13 C12 1.370 1_555 1_555
C14 C13 1.430 1_555 1_555
C15 C14 1.412 1_555 1_555
C16 C15 1.364 1_555 1_555
C17 C16 1.404 1_555 1_555
C18 C17 1.371 1_555 1_555
C19 C14 1.430 1_555 1_555
C20 C19 1.419 1_555 1_555
C21 C1 1.433 1_555 1_555
C22 C1 1.481 1_555 1_555
C23 C22 1.413 1_555 1_555
C24 C23 1.433 1_555 1_555
C25 C24 1.361 1_555 1_555
C26 C25 1.401 1_555 1_555
C27 C26 1.349 1_555 1_555
C28 C23 1.431 1_555 1_555
C29 C28 1.393 1_555 1_555
C30 C29 1.398 1_555 1_555
C31 C30 1.426 1_555 1_555
C32 C31 1.362 1_555 1_555
C33 C32 1.417 1_555 1_555
C34 C33 1.356 1_555 1_555
C35 C22 1.407 1_555 1_555
H1 C3 0.957 1_555 1_555
H2 C5 0.960 1_555 1_555
H3 C6 0.964 1_555 1_555
H4 C7 0.959 1_555 1_555
H5 C8 0.957 1_555 1_555
H6 C10 0.960 1_555 1_555
H7 C13 0.958 1_555 1_555
H8 C15 0.966 1_555 1_555
H9 C16 0.964 1_555 1_555
H10 C17 0.959 1_555 1_555
H11 C18 0.972 1_555 1_555
H12 C20 0.962 1_555 1_555
H13 C24 0.971 1_555 1_555
H14 C25 0.985 1_555 1_555
H15 C26 0.967 1_555 1_555
H16 C27 0.965 1_555 1_555
H17 C29 0.966 1_555 1_555
H18 C31 0.961 1_555 1_555
H19 C32 0.966 1_555 1_555
H20 C33 0.958 1_555 1_555
H21 C34 0.960 1_555 1_555
C36 C37 1.443 1_555 1_555
C37 C38 1.386 1_555 1_555
C38 C39 1.421 1_555 1_555
C39 C40 1.416 1_555 1_555
C40 C41 1.365 1_555 1_555
C41 C42 1.404 1_555 1_555
C42 C43 1.365 1_555 1_555
C43 C44 1.412 1_555 1_555
C44 C39 1.434 1_555 1_555
C45 C44 1.424 1_555 1_555
C46 C37 1.445 1_555 1_555
C47 C46 1.469 1_555 1_555
C48 C47 1.359 1_555 1_555
C49 C48 1.426 1_555 1_555
C50 C49 1.410 1_555 1_555
C51 C50 1.368 1_555 1_555
C52 C51 1.397 1_555 1_555
C53 C52 1.366 1_555 1_555
C54 C49 1.434 1_555 1_555
C55 C54 1.421 1_555 1_555
C56 C36 1.447 1_555 1_555
C57 C36 1.476 1_555 1_555
C58 C57 1.422 1_555 1_555
C59 C58 1.426 1_555 1_555
C60 C59 1.361 1_555 1_555
C61 C60 1.415 1_555 1_555
C62 C61 1.349 1_555 1_555
C63 C58 1.434 1_555 1_555
C64 C63 1.396 1_555 1_555
C65 C64 1.392 1_555 1_555
C66 C65 1.433 1_555 1_555
C67 C66 1.348 1_555 1_555
C68 C67 1.406 1_555 1_555
C69 C68 1.370 1_555 1_555
C70 C57 1.417 1_555 1_555
H22 C38 0.956 1_555 1_555
H23 C40 0.957 1_555 1_555
H24 C41 0.968 1_555 1_555
H25 C42 0.965 1_555 1_555
H26 C43 0.973 1_555 1_555
H27 C45 0.951 1_555 1_555
H28 C48 0.955 1_555 1_555
H29 C50 0.959 1_555 1_555
H30 C51 0.959 1_555 1_555
H31 C52 0.965 1_555 1_555
H32 C53 0.967 1_555 1_555
H33 C55 0.952 1_555 1_555
H34 C59 0.956 1_555 1_555
H35 C60 0.954 1_555 1_555
H36 C61 0.962 1_555 1_555
H37 C62 0.958 1_555 1_555
H38 C64 0.956 1_555 1_555
H39 C66 0.972 1_555 1_555
H40 C67 0.963 1_555 1_555
H41 C68 0.964 1_555 1_555
H42 C69 0.956 1_555 1_555
C10 C11 1.366 1_555 1_555
C12 C21 1.440 1_555 1_555
C18 C19 1.414 1_555 1_555
C20 C21 1.385 1_555 1_555
C27 C28 1.433 1_555 1_555
C30 C35 1.430 1_555 1_555
C34 C35 1.425 1_555 1_555
C45 C46 1.355 1_555 1_555
C47 C56 1.444 1_555 1_555
C53 C54 1.413 1_555 1_555
C55 C56 1.383 1_555 1_555
C62 C63 1.427 1_555 1_555
C65 C70 1.432 1_555 1_555
C69 C70 1.428 1_555 1_555
#END
