
#######################################################################
#
#                 Cambridge Crystallographic Data Centre
#                                CCDC
#
#######################################################################
#
# If this CIF has been generated from an entry in the Cambridge
# Structural Database, then it will include bibliographic, chemical,
# crystal, experimental, refinement or atomic coordinate data resulting
# from the CCDC's data processing and validation procedures.
#
#######################################################################

data_CSD_CIF_GUWHEN
_audit_creation_date 2015-09-25
_audit_creation_method CSD-ConQuest-V1
_database_code_CSD GUWHEN
_database_code_depnum_ccdc_archive 'CCDC 1012336'
_chemical_formula_sum 'C35 H21'
_chemical_formula_moiety
;
C35 H21
;
_journal_coden_Cambridge 4
_journal_volume 136
_journal_year 2014
_journal_page_first 12784
_journal_name_full 'J.Am.Chem.Soc. '
loop_
_publ_author_name
"Yi Tian"
"K.Uchida"
"H.Kurata"
"Y.Hirao"
"T.Nishiuchi"
"T.Kubo"
_chemical_name_systematic
;
7-(9-Anthryl)-7H-dibenzo[c,g]fluorenyl radical
;
_cell_volume   2276.661
_exptl_crystal_colour 'violet'
_exptl_crystal_density_diffrn 1.285
_exptl_crystal_description 'prism'
_diffrn_ambient_temperature 200
#These two values have been output from a single CSD field.
_refine_ls_R_factor_gt 0.0485
_refine_ls_wR_factor_gt 0.0485
_symmetry_cell_setting monoclinic
_symmetry_space_group_name_H-M 'C 2/c'
_symmetry_Int_Tables_number 15
loop_
_symmetry_equiv_pos_site_id
_symmetry_equiv_pos_as_xyz
1 x,y,z
2 -x,y,1/2-z
3 1/2+x,1/2+y,z
4 1/2-x,1/2+y,1/2-z
5 -x,-y,-z
6 x,-y,-1/2+z
7 -1/2-x,-1/2-y,-z
8 -1/2+x,-1/2-y,-1/2+z
_cell_length_a 14.719(2)
_cell_length_b 13.335(2)
_cell_length_c 13.137(2)
_cell_angle_alpha 90
_cell_angle_beta 118.001(3)
_cell_angle_gamma 90
_cell_formula_units_Z 4
loop_
_atom_type_symbol
_atom_type_radius_bond
C 0.68
H 0.23
loop_
_atom_site_label
_atom_site_type_symbol
_atom_site_fract_x
_atom_site_fract_y
_atom_site_fract_z
C1 C 0.50000 0.26178(16) 0.25000
C2 C 0.45833(11) 0.32576(11) 0.30566(12)
C3 C 0.40696(12) 0.30059(12) 0.36982(13)
H1 H 0.40160 0.23250 0.38740
C4 C 0.36504(12) 0.37469(13) 0.40649(13)
H2 H 0.33560 0.35820 0.45510
C5 C 0.36485(12) 0.47628(12) 0.37286(13)
C6 C 0.31004(13) 0.55020(13) 0.39908(14)
H3 H 0.28090 0.53380 0.44790
C7 C 0.29851(12) 0.64496(13) 0.35504(15)
H4 H 0.26190 0.69390 0.37390
C8 C 0.34052(12) 0.67032(12) 0.28199(14)
H5 H 0.33050 0.73580 0.25000
C9 C 0.39570(11) 0.60154(11) 0.25659(14)
H6 H 0.42270 0.61970 0.20620
C10 C 0.41347(11) 0.50297(11) 0.30437(12)
C11 C 0.46895(11) 0.42697(11) 0.28064(12)
C12 C 0.50000 0.15138(15) 0.25000
C13 C 0.44952(11) 0.09750(11) 0.14429(12)
C14 C 0.39236(12) 0.14643(12) 0.03573(12)
H7 H 0.38690 0.21750 0.03310
C15 C 0.34542(13) 0.09268(13) -0.06426(13)
H8 H 0.30820 0.12690 -0.13550
C16 C 0.35131(12) -0.01327(13) -0.06338(14)
H9 H 0.32020 -0.04970 -0.13370
C17 C 0.40153(12) -0.06246(12) 0.03831(13)
H10 H 0.40380 -0.13370 0.03830
C18 C 0.45115(11) -0.01005(12) 0.14544(13)
C19 C 0.50000 -0.06066(16) 0.25000
H11 H 0.50000 -0.13190 0.25000
C2A C 0.54167(11) 0.32576(11) 0.19434(12)
C3A C 0.59304(12) 0.30059(12) 0.13018(13)
H1A H 0.59840 0.23250 0.11260
C4A C 0.63496(12) 0.37469(13) 0.09351(13)
H2A H 0.66440 0.35820 0.04490
C5A C 0.63515(12) 0.47628(12) 0.12714(13)
C6A C 0.68996(13) 0.55020(13) 0.10092(14)
H3A H 0.71910 0.53380 0.05210
C7A C 0.70149(12) 0.64496(13) 0.14496(15)
H4A H 0.73810 0.69390 0.12610
C8A C 0.65948(12) 0.67032(12) 0.21801(14)
H5A H 0.66950 0.73580 0.25000
C9A C 0.60430(11) 0.60154(11) 0.24341(14)
H6A H 0.57730 0.61970 0.29380
C10A C 0.58653(11) 0.50297(11) 0.19563(12)
C11A C 0.53105(11) 0.42697(11) 0.21936(12)
C13A C 0.55048(11) 0.09750(11) 0.35571(12)
C14A C 0.60764(12) 0.14643(12) 0.46427(12)
H7A H 0.61310 0.21750 0.46690
C15A C 0.65458(13) 0.09268(13) 0.56426(13)
H8A H 0.69180 0.12690 0.63550
C16A C 0.64869(12) -0.01327(13) 0.56338(14)
H9A H 0.67980 -0.04970 0.63370
C17A C 0.59847(12) -0.06246(12) 0.46169(13)
H10A H 0.59620 -0.13370 0.46170
C18A C 0.54885(11) -0.01005(12) 0.35456(13)
loop_
_geom_bond_atom_site_label_1
_geom_bond_atom_site_label_2
_geom_bond_distance
_geom_bond_site_symmetry_1
_geom_bond_site_symmetry_2
C1 C2 1.435 1_555 1_555
C2 C3 1.412 1_555 1_555
C3 H1 0.949 1_555 1_555
C4 C3 1.367 1_555 1_555
H2 C4 0.951 1_555 1_555
C5 C4 1.425 1_555 1_555
C6 C5 1.415 1_555 1_555
H3 C6 0.949 1_555 1_555
C7 C6 1.367 1_555 1_555
H4 C7 0.950 1_555 1_555
C8 C7 1.405 1_555 1_555
H5 C8 0.950 1_555 1_555
C9 C8 1.366 1_555 1_555
H6 C9 0.950 1_555 1_555
C10 C5 1.433 1_555 1_555
C11 C2 1.415 1_555 1_555
C12 C1 1.472 1_555 1_555
C13 C12 1.424 1_555 1_555
C14 C13 1.429 1_555 1_555
H7 C14 0.950 1_555 1_555
C15 C14 1.365 1_555 1_555
H8 C15 0.950 1_555 1_555
C16 C15 1.415 1_555 1_555
H9 C16 0.950 1_555 1_555
C17 C16 1.354 1_555 1_555
H10 C17 0.951 1_555 1_555
C18 C13 1.434 1_555 1_555
C19 C18 1.390 1_555 1_555
H11 C19 0.950 1_555 1_555
C2A C1 1.435 1_555 1_555
C3A C2A 1.412 1_555 1_555
H1A C3A 0.949 1_555 1_555
C4A C3A 1.367 1_555 1_555
H2A C4A 0.951 1_555 1_555
C5A C4A 1.425 1_555 1_555
C6A C5A 1.415 1_555 1_555
H3A C6A 0.949 1_555 1_555
C7A C6A 1.367 1_555 1_555
H4A C7A 0.950 1_555 1_555
C8A C7A 1.405 1_555 1_555
H5A C8A 0.950 1_555 1_555
C9A C8A 1.366 1_555 1_555
H6A C9A 0.950 1_555 1_555
C10A C5A 1.433 1_555 1_555
C11A C11 1.475 1_555 1_555
C13A C12 1.424 1_555 1_555
C14A C13A 1.429 1_555 1_555
H7A C14A 0.950 1_555 1_555
C15A C14A 1.365 1_555 1_555
H8A C15A 0.950 1_555 1_555
C16A C15A 1.415 1_555 1_555
H9A C16A 0.950 1_555 1_555
C17A C16A 1.354 1_555 1_555
H10A C17A 0.951 1_555 1_555
C18A C19 1.390 1_555 1_555
C9 C10 1.427 1_555 1_555
C10 C11 1.425 1_555 1_555
C17 C18 1.427 1_555 1_555
C2A C11A 1.415 1_555 1_555
C9A C10A 1.427 1_555 1_555
C10A C11A 1.425 1_555 1_555
C13A C18A 1.434 1_555 1_555
C17A C18A 1.427 1_555 1_555
#END
