
#######################################################################
#
#                 Cambridge Crystallographic Data Centre
#                                CCDC
#
#######################################################################
#
# If this CIF has been generated from an entry in the Cambridge
# Structural Database, then it will include bibliographic, chemical,
# crystal, experimental, refinement or atomic coordinate data resulting
# from the CCDC's data processing and validation procedures.
#
#######################################################################

data_CSD_CIF_GUYPEW
_audit_creation_date 2010-11-24
_audit_creation_method CSD-ConQuest-V1
_database_code_CSD GUYPEW
_database_code_depnum_ccdc_archive 'CCDC 728892'
_chemical_formula_sum 'C36 H22'
_chemical_formula_moiety
;
C36 H22
;
_journal_coden_Cambridge 179
_journal_volume 49
_journal_year 2010
_journal_page_first 7728
_journal_name_full 'Angew.Chem.,Int.Ed. '
loop_
_publ_author_name
"T.Kawase"
"T.Fujiwara"
"C.Kitamura"
"A.Konishi"
"Y.Hirao"
"K.Matsumoto"
"H.Kurata"
"T.Kubo"
"S.Shinamura"
"H.Mori"
"E.Miyazaki"
"K.Takimiya"
_chemical_name_systematic
;
6,13-Diphenylnaphtho[2',3':4,5]pentaleno[1,2-b]naphthalene
;
_chemical_name_common
;
3,6-Diphenyl-1,2-di-(2,3)-naphthopentalene
;
_chemical_melting_point 573.15
_cell_volume   4663.794
_exptl_crystal_colour 'red'
_exptl_crystal_density_diffrn 1.295
_exptl_special_details
;
Melts above 573.15K

;
_exptl_crystal_description 'block'
_exptl_crystal_preparation 'hexane'
_diffrn_ambient_temperature 200.2
#These two values have been output from a single CSD field.
_refine_ls_R_factor_gt 0.0537
_refine_ls_wR_factor_gt 0.0537
_symmetry_cell_setting monoclinic
_symmetry_space_group_name_H-M 'P 21/c'
_symmetry_Int_Tables_number 14
loop_
_symmetry_equiv_pos_site_id
_symmetry_equiv_pos_as_xyz
1 x,y,z
2 -x,1/2+y,1/2-z
3 -x,-y,-z
4 x,-1/2-y,-1/2+z
_cell_length_a 21.1917(7)
_cell_length_b 9.8843(3)
_cell_length_c 22.7413(9)
_cell_angle_alpha 90
_cell_angle_beta 101.744(1)
_cell_angle_gamma 90
_cell_formula_units_Z 8
loop_
_atom_type_symbol
_atom_type_radius_bond
C 0.68
H 0.23
loop_
_atom_site_label
_atom_site_type_symbol
_atom_site_fract_x
_atom_site_fract_y
_atom_site_fract_z
C1 C 0.2642(1) 0.6198(2) 0.2210(1)
C2 C 0.3157(1) 0.7045(2) 0.2280(1)
C3 C 0.3188(1) 0.7767(2) 0.2859(1)
C4 C 0.3620(1) 0.8696(2) 0.3146(1)
C5 C 0.3573(1) 0.9162(2) 0.3729(1)
C6 C 0.4009(1) 1.0121(3) 0.4037(1)
C7 C 0.3976(1) 1.0532(3) 0.4603(1)
C8 C 0.3511(1) 1.0003(3) 0.4891(1)
C9 C 0.3070(1) 0.9086(2) 0.4605(1)
C10 C 0.3085(1) 0.8638(2) 0.4016(1)
C11 C 0.2634(1) 0.7681(2) 0.3704(1)
C12 C 0.2681(1) 0.7271(2) 0.3137(1)
C13 C 0.2317(1) 0.6289(2) 0.2711(1)
C14 C 0.1805(1) 0.5445(2) 0.2648(1)
C15 C 0.1773(1) 0.4709(2) 0.2071(1)
C16 C 0.1357(1) 0.3754(2) 0.1796(1)
C17 C 0.1414(1) 0.3236(2) 0.1223(1)
C18 C 0.0987(1) 0.2224(2) 0.0933(1)
C19 C 0.1041(1) 0.1726(2) 0.0384(1)
C20 C 0.1523(1) 0.2224(2) 0.0099(1)
C21 C 0.1936(1) 0.3205(2) 0.0366(1)
C22 C 0.1896(1) 0.3742(2) 0.0932(1)
C23 C 0.2335(1) 0.4742(2) 0.1230(1)
C24 C 0.2284(1) 0.5198(2) 0.1788(1)
C25 C 0.3640(1) 0.7181(2) 0.1895(1)
C26 C 0.3863(1) 0.8449(2) 0.1766(1)
C27 C 0.4326(1) 0.8575(2) 0.1421(1)
C28 C 0.4570(1) 0.7446(2) 0.1192(1)
C29 C 0.4353(1) 0.6173(2) 0.1312(1)
C30 C 0.3889(1) 0.6042(2) 0.1659(1)
C31 C 0.1341(1) 0.5303(2) 0.3049(1)
C32 C 0.1125(1) 0.4042(2) 0.3187(1)
C33 C 0.0685(1) 0.3914(2) 0.3555(1)
C34 C 0.0442(1) 0.5044(2) 0.3786(1)
C35 C 0.0647(1) 0.6319(2) 0.3650(1)
C36 C 0.1090(1) 0.6450(2) 0.3283(1)
C37 C 0.2668(1) 0.1216(2) 0.2277(1)
C38 C 0.3208(1) 0.1988(2) 0.2360(1)
C39 C 0.3248(1) 0.2705(2) 0.2940(1)
C40 C 0.3682(1) 0.3655(2) 0.3209(1)
C41 C 0.3619(1) 0.4220(2) 0.3771(1)
C42 C 0.4059(1) 0.5190(3) 0.4065(1)
C43 C 0.3995(1) 0.5728(2) 0.4604(1)
C44 C 0.3494(1) 0.5326(2) 0.4875(1)
C45 C 0.3052(1) 0.4388(2) 0.4601(1)
C46 C 0.3098(1) 0.3808(2) 0.4044(1)
C47 C 0.2651(1) 0.2828(2) 0.3748(1)
C48 C 0.2724(1) 0.2293(2) 0.3210(1)
C49 C 0.2344(1) 0.1326(2) 0.2781(1)
C50 C 0.1798(1) 0.0555(2) 0.2695(1)
C51 C 0.1756(1) -0.0153(2) 0.2112(1)
C52 C 0.1326(1) -0.1088(2) 0.1834(1)
C53 C 0.1381(1) -0.1612(2) 0.1261(1)
C54 C 0.0920(1) -0.2521(3) 0.0946(1)
C55 C 0.0958(1) -0.2970(3) 0.0387(1)
C56 C 0.1464(1) -0.2543(3) 0.0119(1)
C57 C 0.1922(1) -0.1673(2) 0.0416(1)
C58 C 0.1891(1) -0.1174(2) 0.0989(1)
C59 C 0.2353(1) -0.0237(2) 0.1298(1)
C60 C 0.2289(1) 0.0262(2) 0.1848(1)
C61 C 0.3692(1) 0.2111(2) 0.1978(1)
C62 C 0.3509(1) 0.2222(2) 0.1352(1)
C63 C 0.3966(1) 0.2349(2) 0.0998(1)
C64 C 0.4614(1) 0.2381(2) 0.1263(1)
C65 C 0.4803(1) 0.2246(2) 0.1877(1)
C66 C 0.4349(1) 0.2115(2) 0.2233(1)
C67 C 0.1313(1) 0.0425(2) 0.3072(1)
C68 C 0.1483(1) 0.0310(2) 0.3696(1)
C69 C 0.1014(1) 0.0161(2) 0.4037(1)
C70 C 0.0369(1) 0.0132(2) 0.3761(1)
C71 C 0.0193(1) 0.0283(2) 0.3147(1)
C72 C 0.0659(1) 0.0426(2) 0.2805(1)
H1 H 0.39500 0.90370 0.29550
H2 H 0.43310 1.05080 0.38410
H3 H 0.42860 1.11810 0.48050
H4 H 0.34940 1.02850 0.52900
H5 H 0.27450 0.87360 0.48010
H6 H 0.23020 0.73260 0.38870
H7 H 0.10200 0.34250 0.19880
H8 H 0.06600 0.18730 0.11300
H9 H 0.07510 0.10380 0.01960
H10 H 0.15610 0.18750 -0.02810
H11 H 0.22610 0.35360 0.01660
H12 H 0.26600 0.51030 0.10410
H13 H 0.36970 0.92430 0.19230
H14 H 0.44720 0.94550 0.13370
H15 H 0.48940 0.75460 0.09540
H16 H 0.45220 0.53850 0.11470
H17 H 0.37390 0.51620 0.17500
H18 H 0.12840 0.32510 0.30220
H19 H 0.05470 0.30350 0.36510
H20 H 0.01310 0.49420 0.40390
H21 H 0.04850 0.71080 0.38150
H22 H 0.12220 0.73270 0.31740
H23 H 0.40230 0.39420 0.30200
H24 H 0.44030 0.54820 0.38790
H25 H 0.43010 0.63830 0.47940
H26 H 0.34590 0.57090 0.52510
H27 H 0.27020 0.41330 0.47920
H28 H 0.22980 0.25470 0.39200
H29 H 0.09840 -0.13850 0.20220
H30 H 0.05770 -0.28290 0.11270
H31 H 0.06380 -0.35770 0.01760
H32 H 0.14860 -0.28570 -0.02760
H33 H 0.22760 -0.14070 0.02330
H34 H 0.27070 0.00460 0.11260
H35 H 0.30600 0.22100 0.11680
H36 H 0.38350 0.24150 0.05700
H37 H 0.49300 0.25020 0.10180
H38 H 0.52520 0.22650 0.20580
H39 H 0.44860 0.20120 0.26610
H40 H 0.19310 0.03300 0.38880
H41 H 0.11370 0.00780 0.44670
H42 H 0.00450 0.00100 0.39970
H43 H -0.02540 0.02740 0.29590
H44 H 0.05310 0.05280 0.23750
loop_
_geom_bond_atom_site_label_1
_geom_bond_atom_site_label_2
_geom_bond_distance
_geom_bond_site_symmetry_1
_geom_bond_site_symmetry_2
C1 C2 1.359 1_555 1_555
C2 C3 1.487 1_555 1_555
C3 C4 1.365 1_555 1_555
C4 C5 1.426 1_555 1_555
C5 C6 1.407 1_555 1_555
C6 C7 1.365 1_555 1_555
C7 C8 1.391 1_555 1_555
C8 C9 1.368 1_555 1_555
C9 C10 1.417 1_555 1_555
C10 C5 1.428 1_555 1_555
C11 C10 1.427 1_555 1_555
C12 C3 1.439 1_555 1_555
C13 C1 1.449 1_555 1_555
C14 C13 1.353 1_555 1_555
C15 C14 1.490 1_555 1_555
C16 C15 1.355 1_555 1_555
C17 C16 1.428 1_555 1_555
C18 C17 1.418 1_555 1_555
C19 C18 1.368 1_555 1_555
C20 C19 1.405 1_555 1_555
C21 C20 1.363 1_555 1_555
C22 C17 1.417 1_555 1_555
C23 C22 1.430 1_555 1_555
C24 C1 1.476 1_555 1_555
C25 C2 1.482 1_555 1_555
C26 C25 1.392 1_555 1_555
C27 C26 1.381 1_555 1_555
C28 C27 1.376 1_555 1_555
C29 C28 1.386 1_555 1_555
C30 C25 1.396 1_555 1_555
C31 C14 1.478 1_555 1_555
C32 C31 1.386 1_555 1_555
C33 C32 1.380 1_555 1_555
C34 C33 1.378 1_555 1_555
C35 C34 1.388 1_555 1_555
C36 C31 1.402 1_555 1_555
C37 C38 1.356 1_555 1_555
C38 C39 1.484 1_555 1_555
C39 C40 1.369 1_555 1_555
C40 C41 1.426 1_555 1_555
C41 C42 1.408 1_555 1_555
C42 C43 1.368 1_555 1_555
C43 C44 1.390 1_555 1_555
C44 C45 1.374 1_555 1_555
C45 C46 1.412 1_555 1_555
C46 C41 1.432 1_555 1_555
C47 C46 1.424 1_555 1_555
C48 C39 1.433 1_555 1_555
C49 C37 1.455 1_555 1_555
C50 C49 1.366 1_555 1_555
C51 C50 1.486 1_555 1_555
C52 C51 1.360 1_555 1_555
C53 C52 1.429 1_555 1_555
C54 C53 1.411 1_555 1_555
C55 C54 1.364 1_555 1_555
C56 C55 1.402 1_555 1_555
C57 C56 1.368 1_555 1_555
C58 C53 1.418 1_555 1_555
C59 C58 1.425 1_555 1_555
C60 C37 1.472 1_555 1_555
C61 C38 1.478 1_555 1_555
C62 C61 1.402 1_555 1_555
C63 C62 1.385 1_555 1_555
C64 C63 1.383 1_555 1_555
C65 C64 1.378 1_555 1_555
C66 C61 1.395 1_555 1_555
C67 C50 1.472 1_555 1_555
C68 C67 1.396 1_555 1_555
C69 C68 1.387 1_555 1_555
C70 C69 1.383 1_555 1_555
C71 C70 1.378 1_555 1_555
C72 C67 1.395 1_555 1_555
H1 C4 0.957 1_555 1_555
H2 C6 0.967 1_555 1_555
H3 C7 0.965 1_555 1_555
H4 C8 0.957 1_555 1_555
H5 C9 0.958 1_555 1_555
H6 C11 0.954 1_555 1_555
H7 C16 0.966 1_555 1_555
H8 C18 0.963 1_555 1_555
H9 C19 0.957 1_555 1_555
H10 C20 0.949 1_555 1_555
H11 C21 0.957 1_555 1_555
H12 C23 0.952 1_555 1_555
H13 C26 0.958 1_555 1_555
H14 C27 0.955 1_555 1_555
H15 C28 0.962 1_555 1_555
H16 C29 0.965 1_555 1_555
H17 C30 0.963 1_555 1_555
H18 C32 0.958 1_555 1_555
H19 C33 0.956 1_555 1_555
H20 C34 0.964 1_555 1_555
H21 C35 0.959 1_555 1_555
H22 C36 0.959 1_555 1_555
H23 C40 0.956 1_555 1_555
H24 C42 0.959 1_555 1_555
H25 C43 0.955 1_555 1_555
H26 C44 0.952 1_555 1_555
H27 C45 0.966 1_555 1_555
H28 C47 0.953 1_555 1_555
H29 C52 0.959 1_555 1_555
H30 C54 0.955 1_555 1_555
H31 C55 0.958 1_555 1_555
H32 C56 0.960 1_555 1_555
H33 C57 0.966 1_555 1_555
H34 C59 0.956 1_555 1_555
H35 C62 0.958 1_555 1_555
H36 C63 0.958 1_555 1_555
H37 C64 0.962 1_555 1_555
H38 C65 0.957 1_555 1_555
H39 C66 0.963 1_555 1_555
H40 C68 0.961 1_555 1_555
H41 C69 0.963 1_555 1_555
H42 C70 0.961 1_555 1_555
H43 C71 0.957 1_555 1_555
H44 C72 0.965 1_555 1_555
C11 C12 1.374 1_555 1_555
C12 C13 1.474 1_555 1_555
C15 C24 1.451 1_555 1_555
C21 C22 1.411 1_555 1_555
C23 C24 1.371 1_555 1_555
C29 C30 1.386 1_555 1_555
C35 C36 1.383 1_555 1_555
C47 C48 1.370 1_555 1_555
C48 C49 1.481 1_555 1_555
C51 C60 1.442 1_555 1_555
C57 C58 1.407 1_555 1_555
C59 C60 1.377 1_555 1_555
C65 C66 1.384 1_555 1_555
C71 C72 1.383 1_555 1_555
#END
