
#######################################################################
#
#                 Cambridge Crystallographic Data Centre
#                                CCDC
#
#######################################################################
#
# If this CIF has been generated from an entry in the Cambridge
# Structural Database, then it will include bibliographic, chemical,
# crystal, experimental, refinement or atomic coordinate data resulting
# from the CCDC's data processing and validation procedures.
#
#######################################################################

data_CSD_CIF_HAFPOT
_audit_creation_date 1994-01-24
_audit_creation_method CSD-ConQuest-V1
_database_code_CSD HAFPOT
_chemical_formula_sum 'C21 H14'
_chemical_formula_moiety
;
C21 H14
;
_journal_coden_Cambridge 557
_journal_volume 13
_journal_year 1992
_journal_page_first 1775
_journal_name_full 'Carcinogenesis '
loop_
_publ_author_name
"K.Prout"
"A.D.Smith"
"G.H.Daub"
"D.E.Zacharias"
"J.P.Glusker"
_chemical_name_systematic
;
11-Methylbenzo(a)pyrene
;
_cell_volume   1349.398
_exptl_crystal_density_diffrn 1.311
_exptl_special_details
;
carcinogenic agent

;
_diffrn_ambient_temperature ?
_diffrn_special_details
;
The study was carried out at room temperature,in the range 283-303K

;
#These two values have been output from a single CSD field.
_refine_ls_R_factor_gt 0.079
_refine_ls_wR_factor_gt 0.079
_symmetry_cell_setting triclinic
_symmetry_space_group_name_H-M 'P -1'
_symmetry_Int_Tables_number 2
loop_
_symmetry_equiv_pos_site_id
_symmetry_equiv_pos_as_xyz
1 x,y,z
2 -x,-y,-z
_cell_length_a 12.622(5)
_cell_length_b 11.628(3)
_cell_length_c 10.887(3)
_cell_angle_alpha 91.97(2)
_cell_angle_beta 114.75(2)
_cell_angle_gamma 108.55(2)
_cell_formula_units_Z 4
loop_
_atom_type_symbol
_atom_type_radius_bond
C 0.68
H 0.23
loop_
_atom_site_label
_atom_site_type_symbol
_atom_site_fract_x
_atom_site_fract_y
_atom_site_fract_z
C1 C 0.7901(2) 1.1717(2) 0.2857(2)
C2 C 0.9116(3) 1.1907(3) 0.3778(3)
C3 C 0.9352(3) 1.1266(3) 0.4858(3)
C4 C 0.8625(2) 0.9787(3) 0.6168(2)
C5 C 0.7684(2) 0.9024(2) 0.6347(2)
C6 C 0.5440(2) 0.8043(2) 0.5641(2)
C7 C 0.3226(3) 0.6961(2) 0.4990(3)
C8 C 0.1998(3) 0.6638(2) 0.4116(3)
C9 C 0.1663(3) 0.7125(3) 0.2916(3)
C10 C 0.2543(2) 0.7921(3) 0.2632(3)
C11 C 0.4628(2) 0.9836(2) 0.2152(2)
C12 C 0.5633(2) 1.0641(2) 0.2059(2)
C13 C 0.8392(2) 1.0443(2) 0.5045(2)
C14 C 0.6896(2) 1.0878(2) 0.2993(2)
C15 C 0.7129(2) 1.0239(2) 0.4106(2)
C16 C 0.6101(2) 0.9404(2) 0.4250(2)
C17 C 0.6398(2) 0.8809(2) 0.5427(2)
C18 C 0.4832(2) 0.9169(2) 0.3289(2)
C19 C 0.3844(2) 0.8304(2) 0.3508(2)
C20 C 0.4179(2) 0.7779(2) 0.4725(2)
C21 C 0.3362(3) 0.9753(3) 0.1053(3)
C22 C 0.7083(3) 0.3883(3) 0.0287(3)
C23 C 0.8197(3) 0.4717(3) 0.1307(4)
C24 C 0.8205(3) 0.5348(3) 0.2424(4)
C25 C 0.7084(3) 0.5887(2) 0.3640(3)
C26 C 0.6020(3) 0.5747(2) 0.3702(3)
C27 C 0.3755(3) 0.4714(2) 0.2737(2)
C28 C 0.1488(3) 0.3627(3) 0.1938(3)
C29 C 0.0401(3) 0.2677(3) 0.1136(3)
C30 C 0.0374(3) 0.1812(3) 0.0197(3)
C31 C 0.1413(2) 0.1950(3) 0.0018(2)
C32 C 0.3686(2) 0.2590(2) -0.0595(2)
C33 C 0.4785(2) 0.2827(2) -0.0654(2)
C34 C 0.5963(2) 0.3663(2) 0.0377(2)
C35 C 0.5973(2) 0.4314(2) 0.1504(2)
C36 C 0.7128(2) 0.5184(2) 0.2534(3)
C37 C 0.4824(2) 0.4102(2) 0.1580(2)
C38 C 0.4854(2) 0.4857(2) 0.2686(2)
C39 C 0.3677(2) 0.3198(2) 0.0582(2)
C40 C 0.2563(2) 0.2975(2) 0.0766(2)
C41 C 0.2608(2) 0.3788(2) 0.1820(2)
C42 C 0.2516(3) 0.1754(3) -0.1850(3)
H1 H 0.767(2) 1.214(2) 0.205(3)
H2 H 0.986(2) 1.248(2) 0.378(3)
H3 H 1.019(3) 1.139(3) 0.545(3)
H4 H 0.952(3) 0.991(2) 0.676(3)
H5 H 0.778(3) 0.854(3) 0.703(3)
H6 H 0.564(2) 0.767(2) 0.645(2)
H7 H 0.353(2) 0.665(2) 0.585(3)
H8 H 0.129(3) 0.609(3) 0.429(4)
H9 H 0.079(3) 0.691(3) 0.233(3)
H10 H 0.228(3) 0.824(3) 0.183(3)
H11 H 0.550(2) 1.112(2) 0.131(3)
H12 H 0.281(3) 0.885(3) 0.055(3)
H13 H 0.348(3) 1.034(3) 0.050(4)
H14 H 0.277(3) 0.986(3) 0.138(4)
H15 H 0.706(2) 0.344(2) -0.045(3)
H16 H 0.894(3) 0.479(3) 0.133(3)
H17 H 0.897(3) 0.592(3) 0.313(3)
H18 H 0.794(3) 0.654(3) 0.447(3)
H19 H 0.594(3) 0.626(3) 0.437(3)
H20 H 0.373(2) 0.531(2) 0.336(3)
H21 H 0.153(3) 0.429(3) 0.255(3)
H22 H -0.045(3) 0.258(3) 0.113(3)
H23 H -0.045(3) 0.105(3) -0.033(3)
H24 H 0.140(2) 0.136(3) -0.081(3)
H25 H 0.482(2) 0.243(2) -0.142(3)
H26 H 0.187(3) 0.214(3) -0.213(3)
H27 H 0.218(3) 0.092(3) -0.175(3)
H28 H 0.280(3) 0.175(3) -0.260(4)
loop_
_geom_bond_atom_site_label_1
_geom_bond_atom_site_label_2
_geom_bond_distance
_geom_bond_site_symmetry_1
_geom_bond_site_symmetry_2
C1 C2 1.374 1_555 1_555
C2 C3 1.391 1_555 1_555
C3 C13 1.381 1_555 1_555
C4 C5 1.331 1_555 1_555
C5 C17 1.437 1_555 1_555
C6 C17 1.369 1_555 1_555
C7 C8 1.349 1_555 1_555
C8 C9 1.395 1_555 1_555
C9 C10 1.356 1_555 1_555
C10 C19 1.414 1_555 1_555
C11 C12 1.362 1_555 1_555
C12 C14 1.413 1_555 1_555
C13 C4 1.438 1_555 1_555
C14 C1 1.401 1_555 1_555
C15 C13 1.422 1_555 1_555
C16 C15 1.425 1_555 1_555
C17 C16 1.444 1_555 1_555
C18 C11 1.458 1_555 1_555
C19 C18 1.446 1_555 1_555
C20 C6 1.400 1_555 1_555
C21 C11 1.512 1_555 1_555
C22 C23 1.379 1_555 1_555
C23 C24 1.393 1_555 1_555
C24 C36 1.368 1_555 1_555
C25 C26 1.331 1_555 1_555
C26 C38 1.432 1_555 1_555
C27 C38 1.369 1_555 1_555
C28 C29 1.353 1_555 1_555
C29 C30 1.391 1_555 1_555
C30 C31 1.366 1_555 1_555
C31 C40 1.426 1_555 1_555
C32 C33 1.355 1_555 1_555
C33 C34 1.423 1_555 1_555
C34 C22 1.400 1_555 1_555
C35 C34 1.413 1_555 1_555
C36 C25 1.462 1_555 1_555
C37 C35 1.430 1_555 1_555
C38 C37 1.446 1_555 1_555
C39 C32 1.448 1_555 1_555
C40 C39 1.446 1_555 1_555
C41 C27 1.406 1_555 1_555
C42 C32 1.516 1_555 1_555
H1 C1 1.003 1_555 1_555
H2 C2 0.962 1_555 1_555
H3 C3 0.938 1_555 1_555
H4 C4 0.997 1_555 1_555
H5 C5 0.939 1_555 1_555
H6 C6 0.968 1_555 1_555
H7 C7 0.983 1_555 1_555
H8 C8 1.014 1_555 1_555
H9 C9 0.953 1_555 1_555
H10 C10 0.932 1_555 1_555
H11 C12 0.990 1_555 1_555
H12 C21 1.031 1_555 1_555
H13 C21 0.943 1_555 1_555
H14 C21 0.990 1_555 1_555
H15 C22 0.923 1_555 1_555
H16 C23 0.904 1_555 1_555
H17 C24 0.949 1_555 1_555
H18 C25 1.083 1_555 1_555
H19 C26 0.982 1_555 1_555
H20 C27 0.970 1_555 1_555
H21 C28 0.975 1_555 1_555
H22 C29 1.041 1_555 1_555
H23 C30 1.037 1_555 1_555
H24 C31 1.105 1_555 1_555
H25 C33 0.963 1_555 1_555
H26 C42 0.997 1_555 1_555
H27 C42 0.957 1_555 1_555
H28 C42 1.020 1_555 1_555
C7 C20 1.420 1_555 1_555
C14 C15 1.418 1_555 1_555
C16 C18 1.426 1_555 1_555
C19 C20 1.434 1_555 1_555
C28 C41 1.427 1_555 1_555
C35 C36 1.422 1_555 1_555
C37 C39 1.420 1_555 1_555
C40 C41 1.432 1_555 1_555
#END
