
#######################################################################
#
#                 Cambridge Crystallographic Data Centre
#                                CCDC
#
#######################################################################
#
# If this CIF has been generated from an entry in the Cambridge
# Structural Database, then it will include bibliographic, chemical,
# crystal, experimental, refinement or atomic coordinate data resulting
# from the CCDC's data processing and validation procedures.
#
#######################################################################

data_CSD_CIF_HAGFUT
_audit_creation_date 2016-12-09
_audit_creation_method CSD-ConQuest-V1
_database_code_CSD HAGFUT
_database_code_depnum_ccdc_archive 'CCDC 994715'
_chemical_formula_sum 'C26 H18'
_chemical_formula_moiety
;
C26 H18
;
_journal_coden_Cambridge 1291
_journal_year 2014
_journal_page_first 6676
_journal_name_full 'Eur.J.Org.Chem. '
loop_
_publ_author_name
"D.Schaarschmidt"
"M.Grumbt"
"A.Hildebrandt"
"Heinrich Lang"
_chemical_name_systematic
;
2-phenyl-1,1'-binaphthalene
;
_cell_volume   1767.554
_exptl_crystal_colour 'colorless'
_exptl_crystal_density_diffrn 1.242
_exptl_crystal_description 'block'
_diffrn_ambient_temperature 110
#These two values have been output from a single CSD field.
_refine_ls_R_factor_gt 0.0443
_refine_ls_wR_factor_gt 0.0443
_symmetry_cell_setting orthorhombic
_symmetry_space_group_name_H-M 'P n a 21'
_symmetry_Int_Tables_number 33
loop_
_symmetry_equiv_pos_site_id
_symmetry_equiv_pos_as_xyz
1 x,y,z
2 -x,-y,1/2+z
3 1/2+x,1/2-y,z
4 1/2-x,1/2+y,1/2+z
_cell_length_a 17.7586(12)
_cell_length_b 8.6592(5)
_cell_length_c 11.4944(8)
_cell_angle_alpha 90
_cell_angle_beta 90
_cell_angle_gamma 90
_cell_formula_units_Z 4
loop_
_atom_type_symbol
_atom_type_radius_bond
C 0.68
H 0.23
loop_
_atom_site_label
_atom_site_type_symbol
_atom_site_fract_x
_atom_site_fract_y
_atom_site_fract_z
C1 C 0.95268(12) 0.6735(2) 0.5143(2)
C2 C 0.94498(12) 0.7916(2) 0.4353(2)
C3 C 0.87276(12) 0.8562(3) 0.4145(2)
H1 H 0.86820 0.93650 0.36120
C4 C 0.81017(12) 0.8045(3) 0.4696(2)
H2 H 0.76380 0.85080 0.45510
C5 C 0.81519(12) 0.6807(3) 0.5490(2)
C6 C 0.88725(12) 0.6134(3) 0.5721(2)
C7 C 0.75091(13) 0.6179(3) 0.6038(2)
H3 H 0.70410 0.66260 0.59060
C8 C 0.75594(15) 0.4931(3) 0.6758(2)
H4 H 0.71280 0.45320 0.71060
C9 C 0.82650(15) 0.4249(3) 0.6973(2)
H5 H 0.82990 0.33900 0.74550
C10 C 0.89050(13) 0.4847(3) 0.6473(2)
H6 H 0.93690 0.43950 0.66340
C11 C 1.02700(12) 0.5936(2) 0.5344(2)
C12 C 1.05492(13) 0.4963(3) 0.4523(2)
H7 H 1.02990 0.48800 0.38150
C13 C 1.12027(14) 0.4077(3) 0.4704(3)
H8 H 1.13810 0.34280 0.41220
C14 C 1.15724(13) 0.4179(3) 0.5744(3)
H9 H 1.19940 0.35680 0.58780
C15 C 1.13203(12) 0.5201(3) 0.6614(3)
C16 C 1.06665(12) 0.6118(2) 0.6411(2)
C17 C 1.17003(14) 0.5360(3) 0.7691(3)
H10 H 1.21170 0.47420 0.78420
C18 C 1.14712(15) 0.6393(3) 0.8508(3)
H11 H 1.17310 0.64830 0.92070
C19 C 1.08396(14) 0.7321(3) 0.8289(3)
H12 H 1.06890 0.80380 0.88440
C20 C 1.04411(13) 0.7191(3) 0.7274(2)
H13 H 1.00210 0.78110 0.71510
C21 C 1.00932(12) 0.8568(2) 0.3678(2)
C22 C 1.07142(13) 0.9233(3) 0.4223(2)
H14 H 1.07480 0.92190 0.50310
C23 C 1.12854(14) 0.9916(3) 0.3573(3)
H15 H 1.16950 1.03660 0.39450
C24 C 1.12427(14) 0.9925(3) 0.2380(3)
H16 H 1.16240 1.03840 0.19460
C25 C 1.06340(15) 0.9254(3) 0.1820(3)
H17 H 1.06110 0.92470 0.10120
C26 C 1.00592(13) 0.8595(3) 0.2467(3)
H18 H 0.96460 0.81650 0.20890
loop_
_geom_bond_atom_site_label_1
_geom_bond_atom_site_label_2
_geom_bond_distance
_geom_bond_site_symmetry_1
_geom_bond_site_symmetry_2
C1 C2 1.374 1_555 1_555
C2 C3 1.419 1_555 1_555
C3 H1 0.930 1_555 1_555
C4 C3 1.355 1_555 1_555
H2 C4 0.931 1_555 1_555
C5 C4 1.411 1_555 1_555
C6 C1 1.436 1_555 1_555
C7 C5 1.413 1_555 1_555
H3 C7 0.929 1_555 1_555
C8 C7 1.364 1_555 1_555
H4 C8 0.931 1_555 1_555
C9 C8 1.407 1_555 1_555
H5 C9 0.929 1_555 1_555
C10 C6 1.412 1_555 1_555
H6 C10 0.931 1_555 1_555
C11 C1 1.508 1_555 1_555
C12 C11 1.359 1_555 1_555
H7 C12 0.930 1_555 1_555
C13 C12 1.407 1_555 1_555
H8 C13 0.929 1_555 1_555
C14 C13 1.367 1_555 1_555
H9 C14 0.930 1_555 1_555
C15 C14 1.408 1_555 1_555
C16 C11 1.423 1_555 1_555
C17 C15 1.417 1_555 1_555
H10 C17 0.930 1_555 1_555
C18 C17 1.359 1_555 1_555
H11 C18 0.930 1_555 1_555
C19 C18 1.403 1_555 1_555
H12 C19 0.929 1_555 1_555
C20 C16 1.417 1_555 1_555
H13 C20 0.930 1_555 1_555
C21 C2 1.492 1_555 1_555
C22 C21 1.393 1_555 1_555
H14 C22 0.931 1_555 1_555
C23 C22 1.392 1_555 1_555
H15 C23 0.929 1_555 1_555
C24 C23 1.373 1_555 1_555
H16 C24 0.930 1_555 1_555
C25 C24 1.386 1_555 1_555
H17 C25 0.930 1_555 1_555
C26 C21 1.393 1_555 1_555
H18 C26 0.931 1_555 1_555
C5 C6 1.431 1_555 1_555
C9 C10 1.375 1_555 1_555
C15 C16 1.426 1_555 1_555
C19 C20 1.369 1_555 1_555
C25 C26 1.386 1_555 1_555
#END
