
#######################################################################
#
#                 Cambridge Crystallographic Data Centre
#                                CCDC
#
#######################################################################
#
# If this CIF has been generated from an entry in the Cambridge
# Structural Database, then it will include bibliographic, chemical,
# crystal, experimental, refinement or atomic coordinate data resulting
# from the CCDC's data processing and validation procedures.
#
#######################################################################

data_CSD_CIF_HAJJOT
_audit_creation_date 2012-01-09
_audit_creation_method CSD-ConQuest-V1
_database_code_CSD HAJJOT
_database_code_depnum_ccdc_archive 'CCDC 832128'
_chemical_formula_sum 'C20 H18'
_chemical_formula_moiety
;
C20 H18
;
_journal_coden_Cambridge 1145
_journal_volume 21
_journal_year 2011
_journal_page_first 17662
_journal_name_full 'J.Mater.Chem. '
loop_
_publ_author_name
"Jinpeng Li"
"S.Takaishi"
"N.Fujinuma"
"K.Endo"
"M.Yamashita"
"H.Matsuzaki"
"H.Okamoto"
"K.Sawabe"
"T.Takenobu"
"Y.Iwasa"
_chemical_name_systematic
;
1,3,6,8-Tetramethylpyrene
;
_cell_volume    668.346
_exptl_crystal_colour 'colorless'
_exptl_crystal_density_diffrn 1.284
_exptl_special_details
;
Study temperature published as 396 K

;
_exptl_crystal_description 'plate'
_diffrn_ambient_temperature 100
#These two values have been output from a single CSD field.
_refine_ls_R_factor_gt 0.0585
_refine_ls_wR_factor_gt 0.0585
_symmetry_cell_setting monoclinic
_symmetry_space_group_name_H-M 'P 21/c'
_symmetry_Int_Tables_number 14
loop_
_symmetry_equiv_pos_site_id
_symmetry_equiv_pos_as_xyz
1 x,y,z
2 -x,1/2+y,1/2-z
3 -x,-y,-z
4 x,-1/2-y,-1/2+z
_cell_length_a 11.230(6)
_cell_length_b 5.578(3)
_cell_length_c 11.275(6)
_cell_angle_alpha 90
_cell_angle_beta 108.863(9)
_cell_angle_gamma 90
_cell_formula_units_Z 2
loop_
_atom_type_symbol
_atom_type_radius_bond
C 0.68
H 0.23
loop_
_atom_site_label
_atom_site_type_symbol
_atom_site_fract_x
_atom_site_fract_y
_atom_site_fract_z
C1 C 0.75012(14) -0.1736(3) -0.03104(13)
C2 C 0.77709(14) 0.1648(3) 0.11369(13)
C3 C 0.56648(12) -0.0007(2) 0.01022(12)
C4 C 0.61918(13) -0.1739(2) -0.05209(12)
C5 C 0.82492(14) -0.0053(3) 0.05068(13)
H1 H 0.9181(18) -0.006(3) 0.0675(16)
C6 C 0.53588(15) -0.3420(3) -0.13459(13)
H2 H 0.5706(18) -0.460(3) -0.1760(18)
C7 C 0.64640(13) 0.1694(3) 0.09349(12)
C8 C 0.86579(15) 0.3386(3) 0.20303(15)
H3 H 0.949(2) 0.306(3) 0.2056(19)
H4 H 0.8632(18) 0.329(3) 0.286(2)
H5 H 0.8453(18) 0.506(3) 0.1738(18)
C9 C 0.41067(15) -0.3401(3) -0.15398(13)
H6 H 0.3568(17) -0.452(3) -0.2094(17)
C10 C 0.80974(17) -0.3535(3) -0.09504(16)
H7 H 0.903(2) -0.335(3) -0.0638(19)
H8 H 0.7812(17) -0.334(3) -0.1849(19)
H9 H 0.7938(17) -0.518(3) -0.0776(19)
C1B C 0.24988(14) 0.1736(3) 0.03104(13)
C2B C 0.22291(14) -0.1648(3) -0.11369(13)
C3B C 0.43352(12) 0.0007(2) -0.01022(12)
C4B C 0.38082(13) 0.1739(2) 0.05209(12)
C5B C 0.17508(14) 0.0053(3) -0.05068(13)
H1B H 0.0819(18) 0.006(3) -0.0675(16)
C6B C 0.46412(15) 0.3420(3) 0.13459(13)
H2B H 0.4294(18) 0.460(3) 0.1760(18)
C7B C 0.35360(13) -0.1694(3) -0.09349(12)
C8B C 0.13421(15) -0.3386(3) -0.20303(15)
H3B H 0.051(2) -0.306(3) -0.2056(19)
H4B H 0.1368(18) -0.329(3) -0.286(2)
H5B H 0.1547(18) -0.506(3) -0.1738(18)
C9B C 0.58933(15) 0.3401(3) 0.15398(13)
H6B H 0.6432(17) 0.452(3) 0.2094(17)
C10B C 0.19026(17) 0.3535(3) 0.09504(16)
H7B H 0.097(2) 0.335(3) 0.0638(19)
H8B H 0.2188(17) 0.334(3) 0.1849(19)
H9B H 0.2062(17) 0.518(3) 0.0776(19)
loop_
_geom_bond_atom_site_label_1
_geom_bond_atom_site_label_2
_geom_bond_distance
_geom_bond_site_symmetry_1
_geom_bond_site_symmetry_2
C1 C4 1.412 1_555 1_555
C2 C5 1.393 1_555 1_555
C3 C4 1.430 1_555 1_555
C4 C6 1.434 1_555 1_555
C5 C1 1.391 1_555 1_555
H1 C5 1.001 1_555 1_555
C6 H2 0.960 1_555 1_555
C7 C2 1.411 1_555 1_555
C8 C2 1.516 1_555 1_555
H3 C8 0.943 1_555 1_555
H4 C8 0.947 1_555 1_555
H5 C8 0.992 1_555 1_555
C9 C6 1.351 1_555 1_555
H6 C9 0.950 1_555 1_555
C10 C1 1.513 1_555 1_555
H7 C10 0.997 1_555 1_555
H8 C10 0.965 1_555 1_555
H9 C10 0.967 1_555 1_555
C1B C4B 1.412 1_555 1_555
C2B C5B 1.393 1_555 1_555
C3B C3 1.435 1_555 1_555
C4B C3B 1.430 1_555 1_555
C5B C1B 1.391 1_555 1_555
H1B C5B 1.001 1_555 1_555
C6B C4B 1.434 1_555 1_555
H2B C6B 0.960 1_555 1_555
C7B C9 1.437 1_555 1_555
C8B C2B 1.516 1_555 1_555
H3B C8B 0.943 1_555 1_555
H4B C8B 0.947 1_555 1_555
H5B C8B 0.992 1_555 1_555
C9B C7 1.437 1_555 1_555
H6B C9B 0.950 1_555 1_555
C10B C1B 1.513 1_555 1_555
H7B C10B 0.997 1_555 1_555
H8B C10B 0.965 1_555 1_555
H9B C10B 0.967 1_555 1_555
C3 C7 1.429 1_555 1_555
C2B C7B 1.411 1_555 1_555
C3B C7B 1.429 1_555 1_555
C6B C9B 1.351 1_555 1_555
#END
