
#######################################################################
#
#                 Cambridge Crystallographic Data Centre
#                                CCDC
#
#######################################################################
#
# If this CIF has been generated from an entry in the Cambridge
# Structural Database, then it will include bibliographic, chemical,
# crystal, experimental, refinement or atomic coordinate data resulting
# from the CCDC's data processing and validation procedures.
#
#######################################################################

data_CSD_CIF_HALJEJ
_audit_creation_date 1994-03-15
_audit_creation_method CSD-ConQuest-V1
_database_code_CSD HALJEJ
_chemical_formula_sum 'C28 H22'
_chemical_formula_moiety
;
C28 H22
;
_journal_coeditor_code "IUCr HH1050"
_journal_coden_Cambridge 591
_journal_volume 49
_journal_year 1993
_journal_page_first 1963
_journal_name_full 'Acta Crystallogr.,Sect.C:Cryst.Struct.Commun. '
loop_
_publ_author_name
"M.J.Jedrzejas"
"C.S.Kingu"
"R.J.Baker"
"R.L.R.Towns"
"J.Masnovi"
_chemical_name_systematic
;
syn-7,8-Benzo-9,10-(9',10'-phenanthro)tricyclo(4.2.2.2^2,5^)dodeca-3,7,9-trien
e
;
_cell_volume   1870.983
_exptl_crystal_colour 'Yellow'
_exptl_crystal_density_diffrn 1.273
_diffrn_ambient_temperature ?
_diffrn_special_details
;
The study was carried out at room temperature,in the range 283-303K

;
#These two values have been output from a single CSD field.
_refine_ls_R_factor_gt 0.053
_refine_ls_wR_factor_gt 0.053
_symmetry_cell_setting monoclinic
_symmetry_space_group_name_H-M 'P 21/n'
_symmetry_Int_Tables_number 14
loop_
_symmetry_equiv_pos_site_id
_symmetry_equiv_pos_as_xyz
1 x,y,z
2 1/2-x,1/2+y,1/2-z
3 -x,-y,-z
4 -1/2+x,-1/2-y,-1/2+z
_cell_length_a 10.472(5)
_cell_length_b 11.279(6)
_cell_length_c 16.358(8)
_cell_angle_alpha 90
_cell_angle_beta 104.45(4)
_cell_angle_gamma 90
_cell_formula_units_Z 4
loop_
_atom_type_symbol
_atom_type_radius_bond
C 0.68
H 0.23
loop_
_atom_site_label
_atom_site_type_symbol
_atom_site_fract_x
_atom_site_fract_y
_atom_site_fract_z
C1 C 0.0522(3) 0.8683(3) 0.6905(2)
C2 C -0.0484(4) 0.6679(4) 0.5973(3)
C3 C -0.0511(3) 0.9490(3) 0.6976(2)
C4 C -0.1210(3) 1.0197(4) 0.6300(2)
C5 C -0.2156(4) 1.0972(4) 0.6376(2)
C6 C -0.2488(4) 1.1098(3) 0.7141(3)
C7 C -0.1846(4) 1.0417(3) 0.7819(2)
C8 C -0.0882(3) 0.9590(3) 0.7756(2)
C9 C -0.0222(3) 0.8840(3) 0.8459(2)
C10 C -0.0576(4) 0.8868(3) 0.9239(2)
C11 C 0.0041(4) 0.8151(3) 0.9898(2)
C12 C 0.1019(4) 0.7381(4) 0.9806(2)
C13 C 0.1395(3) 0.7324(3) 0.9064(2)
C14 C 0.0769(3) 0.8040(3) 0.8363(2)
C15 C 0.0109(4) 0.5997(4) 0.6612(2)
C16 C 0.1142(3) 0.7977(3) 0.7564(2)
C17 C 0.2179(4) 0.7124(3) 0.7410(2)
C18 C 0.1568(4) 0.5972(3) 0.6872(2)
C19 C 0.2079(4) 0.5760(4) 0.6080(3)
C20 C 0.3097(3) 0.7816(3) 0.7006(2)
C21 C 0.4444(3) 0.7811(3) 0.7277(2)
C22 C 0.5197(4) 0.8526(4) 0.6887(2)
C23 C 0.4581(4) 0.9257(3) 0.6231(2)
C24 C 0.3238(3) 0.9263(3) 0.5953(2)
C25 C 0.2468(4) 0.8550(3) 0.6328(2)
C26 C 0.1383(4) 0.6564(4) 0.5330(3)
C27 C 0.0363(3) 0.7397(3) 0.5553(2)
C28 C 0.0980(3) 0.8545(3) 0.6096(2)
H1 H -0.14300 0.67000 0.57700
H2 H -0.10100 1.01200 0.57700
H3 H -0.25900 1.14500 0.59000
H4 H -0.31500 1.16400 0.71900
H5 H -0.20600 1.05100 0.83500
H6 H -0.12600 0.93900 0.93100
H7 H -0.02200 0.81800 1.04300
H8 H 0.14400 0.68900 1.02700
H9 H 0.21000 0.68100 0.90200
H10 H -0.04100 0.55300 0.69000
H11 H 0.26500 0.68100 0.79400
H12 H 0.18600 0.53300 0.72600
H13 H 0.30000 0.59200 0.62200
H14 H 0.19400 0.49500 0.59200
H15 H 0.48700 0.73300 0.77500
H16 H 0.61500 0.84900 0.70600
H17 H 0.51100 0.97500 0.59600
H18 H 0.28200 0.97600 0.54900
H19 H 0.09500 0.60700 0.48700
H20 H 0.20300 0.70300 0.51600
H21 H 0.06600 0.92000 0.57300
H22 H -0.01600 0.77300 0.50400
loop_
_geom_bond_atom_site_label_1
_geom_bond_atom_site_label_2
_geom_bond_distance
_geom_bond_site_symmetry_1
_geom_bond_site_symmetry_2
C1 C3 1.440 1_555 1_555
C2 C15 1.321 1_555 1_555
C3 C4 1.411 1_555 1_555
C4 C5 1.350 1_555 1_555
C5 C6 1.387 1_555 1_555
C6 C7 1.378 1_555 1_555
C7 C8 1.397 1_555 1_555
C8 C3 1.428 1_555 1_555
C9 C8 1.456 1_555 1_555
C10 C9 1.415 1_555 1_555
C11 C10 1.373 1_555 1_555
C12 C11 1.379 1_555 1_555
C13 C12 1.368 1_555 1_555
C14 C9 1.413 1_555 1_555
C15 C18 1.480 1_555 1_555
C16 C1 1.367 1_555 1_555
C17 C16 1.518 1_555 1_555
C18 C17 1.610 1_555 1_555
C19 C18 1.539 1_555 1_555
C20 C17 1.512 1_555 1_555
C21 C20 1.369 1_555 1_555
C22 C21 1.389 1_555 1_555
C23 C22 1.379 1_555 1_555
C24 C23 1.366 1_555 1_555
C25 C20 1.409 1_555 1_555
C26 C19 1.553 1_555 1_555
C27 C2 1.490 1_555 1_555
C28 C1 1.524 1_555 1_555
H1 C2 0.963 1_555 1_555
H2 C4 0.945 1_555 1_555
H3 C5 0.963 1_555 1_555
H4 C6 0.943 1_555 1_555
H5 C7 0.955 1_555 1_555
H6 C10 0.956 1_555 1_555
H7 C11 0.976 1_555 1_555
H8 C12 0.954 1_555 1_555
H9 C13 0.955 1_555 1_555
H10 C15 0.961 1_555 1_555
H11 C17 0.952 1_555 1_555
H12 C18 0.961 1_555 1_555
H13 C19 0.951 1_555 1_555
H14 C19 0.951 1_555 1_555
H15 C21 0.959 1_555 1_555
H16 C22 0.968 1_555 1_555
H17 C23 0.967 1_555 1_555
H18 C24 0.956 1_555 1_555
H19 C26 0.955 1_555 1_555
H20 C26 0.952 1_555 1_555
H21 C28 0.957 1_555 1_555
H22 C27 0.957 1_555 1_555
C13 C14 1.422 1_555 1_555
C14 C16 1.456 1_555 1_555
C24 C25 1.386 1_555 1_555
C25 C28 1.509 1_555 1_555
C26 C27 1.533 1_555 1_555
C27 C28 1.611 1_555 1_555
#END
