
#######################################################################
#
#                 Cambridge Crystallographic Data Centre
#                                CCDC
#
#######################################################################
#
# If this CIF has been generated from an entry in the Cambridge
# Structural Database, then it will include bibliographic, chemical,
# crystal, experimental, refinement or atomic coordinate data resulting
# from the CCDC's data processing and validation procedures.
#
#######################################################################

data_CSD_CIF_HAXMAX
_audit_creation_date 2017-05-16
_audit_creation_method CSD-ConQuest-V1
_database_code_CSD HAXMAX
_database_code_depnum_ccdc_archive 'CCDC 1473291'
_chemical_formula_sum 'C32 H22'
_chemical_formula_moiety
;
C32 H22
;
_journal_coden_Cambridge 1096
_journal_volume 29
_journal_year 2017
_journal_page_first 3580
_journal_name_full 'Chem.Mater. '
loop_
_publ_author_name
"Huajun Ju"
"Kang Wang"
"Jing Zhang"
"Hua Geng"
"Zitong Liu"
"Guanxin Zhang"
"Yongsheng Zhao"
"Deqing Zhang"
_chemical_name_systematic
;
1,6-bis(2-phenylvinyl)pyrene
;
_cell_volume   1032.758
_exptl_crystal_colour 'yellow'
_exptl_crystal_density_diffrn 1.307
_exptl_crystal_description 'Plate'
_diffrn_ambient_temperature 173.2
#These two values have been output from a single CSD field.
_refine_ls_R_factor_gt 0.0568
_refine_ls_wR_factor_gt 0.0568
_symmetry_cell_setting triclinic
_symmetry_space_group_name_H-M 'P -1'
_symmetry_Int_Tables_number 2
loop_
_symmetry_equiv_pos_site_id
_symmetry_equiv_pos_as_xyz
1 x,y,z
2 -x,-y,-z
_cell_length_a 9.602(4)
_cell_length_b 10.452(4)
_cell_length_c 11.076(5)
_cell_angle_alpha 93.925(5)
_cell_angle_beta 109.054(5)
_cell_angle_gamma 97.992(6)
_cell_formula_units_Z 2
loop_
_atom_type_symbol
_atom_type_radius_bond
C 0.68
H 0.23
loop_
_atom_site_label
_atom_site_type_symbol
_atom_site_fract_x
_atom_site_fract_y
_atom_site_fract_z
C1 C 0.34863(15) 0.80919(14) 0.61576(12)
C2 C 0.38704(16) 0.93783(14) 0.59465(13)
H1 H 0.35770 0.96010 0.51130
C3 C 0.46815(17) 1.03202(15) 0.69665(15)
H2 H 0.49300 1.11710 0.68120
C4 C 0.51274(17) 1.00085(16) 0.82152(14)
H3 H 0.56660 1.06480 0.88980
C5 C 0.47675(16) 0.87413(16) 0.84416(13)
H4 H 0.50710 0.85260 0.92780
C6 C 0.39562(15) 0.77924(14) 0.74246(13)
H5 H 0.37200 0.69430 0.75870
C7 C 0.26275(16) 0.70445(14) 0.51208(13)
H6 H 0.25370 0.62070 0.53530
C8 C 0.19634(15) 0.71641(14) 0.38819(13)
H7 H 0.20610 0.79900 0.36230
C9 C 0.10822(15) 0.60658(13) 0.28950(12)
C10 C 0.09362(14) 0.60909(12) 0.15812(12)
C11 C 0.00778(14) 0.50017(12) 0.06616(12)
C12 C -0.06209(15) 0.39074(13) 0.10674(12)
C13 C -0.04494(16) 0.39130(14) 0.23710(13)
H8 H -0.08990 0.31980 0.26460
C14 C 0.03778(16) 0.49647(14) 0.32505(13)
H9 H 0.04720 0.49430 0.41110
C15 C 0.16425(15) 0.71644(13) 0.11279(13)
H10 H 0.22200 0.78760 0.17120
C16 C -0.14860(16) 0.28369(13) 0.01304(13)
H11 H -0.19540 0.21220 0.03920
C17 C 0.82434(16) 0.83368(13) 0.60690(13)
C18 C 0.96532(16) 0.88472(14) 0.60275(13)
H12 H 0.99030 0.86130 0.53090
C19 C 1.06783(17) 0.96945(15) 0.70408(14)
H13 H 1.16080 1.00260 0.69970
C20 C 1.03305(18) 1.00518(14) 0.81185(14)
H14 H 1.10270 1.06140 0.88030
C21 C 0.89353(18) 0.95664(14) 0.81719(13)
H15 H 0.86920 0.98090 0.88920
C22 C 0.79051(16) 0.87229(13) 0.71603(13)
H16 H 0.69710 0.84070 0.72060
C23 C 0.71030(16) 0.74413(14) 0.50265(13)
H17 H 0.61840 0.72010 0.51310
C24 C 0.72457(16) 0.69373(13) 0.39477(12)
H18 H 0.81720 0.71480 0.38480
C25 C 0.60625(15) 0.60732(13) 0.28949(12)
C26 C 0.61252(14) 0.59517(12) 0.16311(12)
C27 C 0.49781(14) 0.50731(12) 0.06394(12)
C28 C 0.37859(15) 0.43425(12) 0.09248(12)
C29 C 0.37390(15) 0.45124(13) 0.21754(13)
H19 H 0.29510 0.40530 0.23660
C30 C 0.48480(15) 0.53523(13) 0.31258(13)
H20 H 0.47910 0.54450 0.39480
C31 C 0.72800(15) 0.66926(13) 0.12823(13)
H21 H 0.80220 0.72850 0.19060
C32 C 0.26815(15) 0.34469(13) -0.00731(13)
H22 H 0.19160 0.29470 0.01150
C1A C -0.34863(15) 0.19081(14) -0.61576(12)
C2A C -0.38704(16) 0.06217(14) -0.59465(13)
H1A H -0.35770 0.03990 -0.51130
C3A C -0.46815(17) -0.03202(15) -0.69665(15)
H2A H -0.49300 -0.11710 -0.68120
C4A C -0.51274(17) -0.00085(16) -0.82152(14)
H3A H -0.56660 -0.06480 -0.88980
C5A C -0.47675(16) 0.12587(16) -0.84416(13)
H4A H -0.50710 0.14740 -0.92780
C6A C -0.39562(15) 0.22076(14) -0.74246(13)
H5A H -0.37200 0.30570 -0.75870
C7A C -0.26275(16) 0.29555(14) -0.51208(13)
H6A H -0.25370 0.37930 -0.53530
C8A C -0.19634(15) 0.28359(14) -0.38819(13)
H7A H -0.20610 0.20100 -0.36230
C9A C -0.10822(15) 0.39342(13) -0.28950(12)
C10A C -0.09362(14) 0.39091(12) -0.15812(12)
C11A C -0.00778(14) 0.49983(12) -0.06616(12)
C12A C 0.06209(15) 0.60926(13) -0.10674(12)
C13A C 0.04494(16) 0.60870(14) -0.23710(13)
H8A H 0.08990 0.68020 -0.26460
C14A C -0.03778(16) 0.50353(14) -0.32505(13)
H9A H -0.04720 0.50570 -0.41110
C15A C -0.16425(15) 0.28356(13) -0.11279(13)
H10A H -0.22200 0.21240 -0.17120
C16A C 0.14860(16) 0.71631(13) -0.01304(13)
H11A H 0.19540 0.78780 -0.03920
C17A C 0.17566(16) 0.16632(13) -0.60690(13)
C18A C 0.03468(16) 0.11528(14) -0.60275(13)
H12A H 0.00970 0.13870 -0.53090
C19A C -0.06783(17) 0.03055(15) -0.70408(14)
H13A H -0.16080 -0.00260 -0.69970
C20A C -0.03305(18) -0.00518(14) -0.81185(14)
H14A H -0.10270 -0.06140 -0.88030
C21A C 0.10647(18) 0.04336(14) -0.81719(13)
H15A H 0.13080 0.01910 -0.88920
C22A C 0.20949(16) 0.12771(13) -0.71603(13)
H16A H 0.30290 0.15930 -0.72060
C23A C 0.28970(16) 0.25587(14) -0.50265(13)
H17A H 0.38160 0.27990 -0.51310
C24A C 0.27543(16) 0.30627(13) -0.39477(12)
H18A H 0.18280 0.28520 -0.38480
C25A C 0.39375(15) 0.39268(13) -0.28949(12)
C26A C 0.38748(14) 0.40483(12) -0.16311(12)
C27A C 0.50219(14) 0.49269(12) -0.06394(12)
C28A C 0.62141(15) 0.56575(12) -0.09248(12)
C29A C 0.62610(15) 0.54876(13) -0.21754(13)
H19A H 0.70490 0.59470 -0.23660
C30A C 0.51520(15) 0.46477(13) -0.31258(13)
H20A H 0.52090 0.45550 -0.39480
C31A C 0.27200(15) 0.33074(13) -0.12823(13)
H21A H 0.19780 0.27150 -0.19060
C32A C 0.73185(15) 0.65531(13) 0.00731(13)
H22A H 0.80840 0.70530 -0.01150
loop_
_geom_bond_atom_site_label_1
_geom_bond_atom_site_label_2
_geom_bond_distance
_geom_bond_site_symmetry_1
_geom_bond_site_symmetry_2
C1 C2 1.400 1_555 1_555
C2 H1 0.929 1_555 1_555
C3 C2 1.383 1_555 1_555
H2 C3 0.930 1_555 1_555
C4 C3 1.384 1_555 1_555
H3 C4 0.930 1_555 1_555
C5 C4 1.383 1_555 1_555
H4 C5 0.930 1_555 1_555
C6 C1 1.399 1_555 1_555
H5 C6 0.930 1_555 1_555
C7 C1 1.468 1_555 1_555
H6 C7 0.930 1_555 1_555
C8 C7 1.334 1_555 1_555
H7 C8 0.930 1_555 1_555
C9 C8 1.477 1_555 1_555
C10 C9 1.418 1_555 1_555
C11 C10 1.430 1_555 1_555
C12 C11 1.419 1_555 1_555
C13 C12 1.398 1_555 1_555
H8 C13 0.930 1_555 1_555
C14 C9 1.399 1_555 1_555
H9 C14 0.930 1_555 1_555
C15 C10 1.435 1_555 1_555
H10 C15 0.930 1_555 1_555
C16 C12 1.428 1_555 1_555
H11 C16 0.930 1_555 1_555
C17 C18 1.401 1_555 1_555
C18 H12 0.930 1_555 1_555
C19 C18 1.383 1_555 1_555
H13 C19 0.929 1_555 1_555
C20 C19 1.382 1_555 1_555
H14 C20 0.931 1_555 1_555
C21 C20 1.387 1_555 1_555
H15 C21 0.930 1_555 1_555
C22 C17 1.398 1_555 1_555
H16 C22 0.930 1_555 1_555
C23 C17 1.466 1_555 1_555
H17 C23 0.930 1_555 1_555
C24 C23 1.328 1_555 1_555
H18 C24 0.930 1_555 1_555
C25 C24 1.474 1_555 1_555
C26 C25 1.418 1_555 1_555
C27 C26 1.433 1_555 1_555
C28 C27 1.421 1_555 1_555
C29 C28 1.401 1_555 1_555
H19 C29 0.930 1_555 1_555
C30 C25 1.404 1_555 1_555
H20 C30 0.929 1_555 1_555
C31 C26 1.435 1_555 1_555
H21 C31 0.930 1_555 1_555
C32 C28 1.428 1_555 1_555
H22 C32 0.930 1_555 1_555
C1A C2A 1.400 1_555 1_555
C2A H1A 0.929 1_555 1_555
C3A C2A 1.383 1_555 1_555
H2A C3A 0.930 1_555 1_555
C4A C3A 1.384 1_555 1_555
H3A C4A 0.930 1_555 1_555
C5A C4A 1.383 1_555 1_555
H4A C5A 0.930 1_555 1_555
C6A C1A 1.399 1_555 1_555
H5A C6A 0.930 1_555 1_555
C7A C1A 1.468 1_555 1_555
H6A C7A 0.930 1_555 1_555
C8A C7A 1.334 1_555 1_555
H7A C8A 0.930 1_555 1_555
C9A C8A 1.477 1_555 1_555
C10A C9A 1.418 1_555 1_555
C11A C11 1.424 1_555 1_555
C12A C11A 1.419 1_555 1_555
C13A C12A 1.398 1_555 1_555
H8A C13A 0.930 1_555 1_555
C14A C9A 1.399 1_555 1_555
H9A C14A 0.930 1_555 1_555
C15A C16 1.352 1_555 1_555
H10A C15A 0.930 1_555 1_555
C16A C15 1.352 1_555 1_555
H11A C16A 0.930 1_555 1_555
C17A C18A 1.401 1_555 1_555
C18A H12A 0.930 1_555 1_555
C19A C18A 1.383 1_555 1_555
H13A C19A 0.929 1_555 1_555
C20A C19A 1.382 1_555 1_555
H14A C20A 0.931 1_555 1_555
C21A C20A 1.387 1_555 1_555
H15A C21A 0.930 1_555 1_555
C22A C17A 1.398 1_555 1_555
H16A C22A 0.930 1_555 1_555
C23A C17A 1.466 1_555 1_555
H17A C23A 0.930 1_555 1_555
C24A C23A 1.328 1_555 1_555
H18A C24A 0.930 1_555 1_555
C25A C24A 1.474 1_555 1_555
C26A C25A 1.418 1_555 1_555
C27A C27 1.429 1_555 1_555
C28A C27A 1.421 1_555 1_555
C29A C28A 1.401 1_555 1_555
H19A C29A 0.930 1_555 1_555
C30A C25A 1.404 1_555 1_555
H20A C30A 0.929 1_555 1_555
C31A C32 1.350 1_555 1_555
H21A C31A 0.930 1_555 1_555
C32A C31 1.350 1_555 1_555
H22A C32A 0.930 1_555 1_555
C5 C6 1.385 1_555 1_555
C13 C14 1.376 1_555 1_555
C21 C22 1.382 1_555 1_555
C29 C30 1.376 1_555 1_555
C5A C6A 1.385 1_555 1_555
C10A C11A 1.430 1_555 1_555
C10A C15A 1.435 1_555 1_555
C12A C16A 1.428 1_555 1_555
C13A C14A 1.376 1_555 1_555
C21A C22A 1.382 1_555 1_555
C26A C27A 1.433 1_555 1_555
C26A C31A 1.435 1_555 1_555
C28A C32A 1.428 1_555 1_555
C29A C30A 1.376 1_555 1_555
#END
