
#######################################################################
#
#                 Cambridge Crystallographic Data Centre
#                                CCDC
#
#######################################################################
#
# If this CIF has been generated from an entry in the Cambridge
# Structural Database, then it will include bibliographic, chemical,
# crystal, experimental, refinement or atomic coordinate data resulting
# from the CCDC's data processing and validation procedures.
#
#######################################################################

data_CSD_CIF_HBZCOR01
_audit_creation_date 1995-11-27
_audit_creation_method CSD-ConQuest-V1
_database_code_CSD HBZCOR01
_chemical_formula_sum 'C42 H18'
_chemical_formula_moiety
;
C42 H18
;
_journal_coden_Cambridge 4
_journal_volume 117
_journal_year 1995
_journal_page_first 30
_journal_name_full 'J.Am.Chem.Soc. '
loop_
_publ_author_name
"R.Goddard"
"M.W.Haenel"
"W.C.Herndon"
"C.Kruger"
"M.Zander"
_chemical_name_systematic
;
Hexabenzo(bc,ef,hi,kl,no,qr)coronene
;
_cell_volume   1126.404
_exptl_crystal_colour 'dark yellow'
_exptl_crystal_density_diffrn 1.54
_diffrn_ambient_temperature ?
_diffrn_special_details
;
The study was carried out at room temperature,in the range 283-303K

;
#These two values have been output from a single CSD field.
_refine_ls_R_factor_gt 0.056
_refine_ls_wR_factor_gt 0.056
_symmetry_cell_setting monoclinic
_symmetry_space_group_name_H-M 'P 21/a'
_symmetry_Int_Tables_number 14
loop_
_symmetry_equiv_pos_site_id
_symmetry_equiv_pos_as_xyz
1 x,y,z
2 1/2-x,1/2+y,-z
3 -x,-y,-z
4 -1/2+x,-1/2-y,z
_cell_length_a 18.431(3)
_cell_length_b 5.119(1)
_cell_length_c 12.929(2)
_cell_angle_alpha 90
_cell_angle_beta 112.57(1)
_cell_angle_gamma 90
_cell_formula_units_Z 2
loop_
_atom_type_symbol
_atom_type_radius_bond
C 0.68
H 0.23
loop_
_atom_site_label
_atom_site_type_symbol
_atom_site_fract_x
_atom_site_fract_y
_atom_site_fract_z
C1 C 0.2081(1) 0.7167(2) 0.1498(1)
C2 C 0.2297(1) 0.7188(3) 0.2643(1)
C3 C 0.1969(1) 0.5453(3) 0.3148(1)
C4 C 0.1287(1) 0.1713(3) 0.4211(1)
C5 C 0.0964(1) -0.0050(3) 0.4712(1)
C6 C 0.0395(1) -0.1776(3) 0.4071(1)
C7 C -0.0829(1) -0.5340(3) 0.2711(1)
C8 C -0.1392(1) -0.7077(3) 0.2063(1)
C9 C -0.1614(1) -0.7107(3) 0.0921(1)
C10 C 0.1520(1) 0.5388(2) 0.0826(1)
C11 C 0.1407(1) 0.3628(2) 0.2518(1)
C12 C 0.1057(1) 0.1784(2) 0.3048(1)
C13 C 0.0136(1) -0.1777(2) 0.2905(1)
C14 C -0.0472(1) -0.3585(2) 0.2224(1)
C15 C 0.1285(1) 0.5374(2) -0.0388(1)
C16 C 0.1174(1) 0.3605(2) 0.1337(1)
C17 C 0.0474(1) 0.0006(2) 0.2383(1)
C18 C -0.0705(1) -0.3578(2) 0.1043(1)
C19 C 0.0581(1) 0.1780(2) 0.0662(1)
C20 C 0.0233(1) 0.0013(2) 0.1178(1)
C21 C -0.0349(1) -0.1771(2) 0.0519(1)
H1 H 0.2319(9) 0.842(3) 0.115(1)
H2 H 0.2679(9) 0.847(3) 0.311(1)
H3 H 0.2124(9) 0.551(3) 0.399(1)
H4 H 0.170(1) 0.297(3) 0.467(1)
H5 H 0.1138(9) -0.006(3) 0.557(2)
H6 H 0.017(1) -0.296(4) 0.445(1)
H7 H -0.0679(9) -0.531(3) 0.356(1)
H8 H -0.163(1) -0.821(3) 0.244(1)
H9 H -0.2002(9) -0.839(3) 0.046(1)
C15B C -0.1285(1) -0.5374(2) 0.0388(1)
C9B C 0.1614(1) 0.7107(3) -0.0921(1)
C18B C 0.0705(1) 0.3578(2) -0.1043(1)
C21B C 0.0349(1) 0.1771(2) -0.0519(1)
C19B C -0.0581(1) -0.1780(2) -0.0662(1)
C10B C -0.1520(1) -0.5388(2) -0.0826(1)
C8B C 0.1392(1) 0.7077(3) -0.2063(1)
H9B H 0.2002(9) 0.839(3) -0.046(1)
C14B C 0.0472(1) 0.3585(2) -0.2224(1)
C20B C -0.0233(1) -0.0013(2) -0.1178(1)
C16B C -0.1174(1) -0.3605(2) -0.1337(1)
C1B C -0.2081(1) -0.7167(2) -0.1498(1)
C7B C 0.0829(1) 0.5340(3) -0.2711(1)
H8B H 0.163(1) 0.821(3) -0.244(1)
C13B C -0.0136(1) 0.1777(2) -0.2905(1)
C17B C -0.0474(1) -0.0006(2) -0.2383(1)
C11B C -0.1407(1) -0.3628(2) -0.2518(1)
C2B C -0.2297(1) -0.7188(3) -0.2643(1)
H1B H -0.2319(9) -0.842(3) -0.115(1)
H7B H 0.0679(9) 0.531(3) -0.356(1)
C6B C -0.0395(1) 0.1776(3) -0.4071(1)
C12B C -0.1057(1) -0.1784(2) -0.3048(1)
C3B C -0.1969(1) -0.5453(3) -0.3148(1)
H2B H -0.2679(9) -0.847(3) -0.311(1)
C5B C -0.0964(1) 0.0050(3) -0.4712(1)
H6B H -0.017(1) 0.296(4) -0.445(1)
C4B C -0.1287(1) -0.1713(3) -0.4211(1)
H3B H -0.2124(9) -0.551(3) -0.399(1)
H5B H -0.1138(9) 0.006(3) -0.557(2)
H4B H -0.170(1) -0.297(3) -0.467(1)
loop_
_geom_bond_atom_site_label_1
_geom_bond_atom_site_label_2
_geom_bond_distance
_geom_bond_site_symmetry_1
_geom_bond_site_symmetry_2
C1 C2 1.378 1_555 1_555
C2 C3 1.372 1_555 1_555
C3 C11 1.401 1_555 1_555
C4 C5 1.373 1_555 1_555
C5 C6 1.378 1_555 1_555
C6 C13 1.396 1_555 1_555
C7 C8 1.379 1_555 1_555
C8 C9 1.373 1_555 1_555
C9 H9 0.985 1_555 1_555
C10 C1 1.401 1_555 1_555
C11 C12 1.455 1_555 1_555
C12 C4 1.397 1_555 1_555
C13 C14 1.460 1_555 1_555
C14 C7 1.398 1_555 1_555
C15 C10 1.459 1_555 1_555
C16 C10 1.414 1_555 1_555
C17 C12 1.419 1_555 1_555
C18 C14 1.419 1_555 1_555
C19 C16 1.448 1_555 1_555
C20 C17 1.447 1_555 1_555
C21 C18 1.444 1_555 1_555
H1 C1 0.979 1_555 1_555
H2 C2 0.982 1_555 1_555
H3 C3 1.014 1_555 1_555
H4 C4 0.999 1_555 1_555
H5 C5 1.030 1_555 1_555
H6 C6 0.967 1_555 1_555
H7 C7 1.024 1_555 1_555
H8 C8 0.965 1_555 1_555
C15B C9 1.397 1_555 1_555
C9B C15 1.397 1_555 1_555
C18B C15 1.418 1_555 1_555
C21B C19 1.419 1_555 1_555
C19B C21 1.419 1_555 1_555
C10B C15B 1.459 1_555 1_555
C8B C9B 1.373 1_555 1_555
H9B C9B 0.985 1_555 1_555
C14B C18B 1.419 1_555 1_555
C20B C21B 1.417 1_555 1_555
C16B C19B 1.448 1_555 1_555
C1B C10B 1.401 1_555 1_555
C7B C8B 1.379 1_555 1_555
H8B C8B 0.965 1_555 1_555
C13B C14B 1.460 1_555 1_555
C17B C20B 1.447 1_555 1_555
C11B C16B 1.419 1_555 1_555
C2B C1B 1.378 1_555 1_555
H1B C1B 0.979 1_555 1_555
H7B C7B 1.024 1_555 1_555
C6B C13B 1.396 1_555 1_555
C12B C17B 1.419 1_555 1_555
C3B C11B 1.401 1_555 1_555
H2B C2B 0.982 1_555 1_555
C5B C6B 1.378 1_555 1_555
H6B C6B 0.967 1_555 1_555
C4B C12B 1.397 1_555 1_555
H3B C3B 1.014 1_555 1_555
H5B C5B 1.030 1_555 1_555
H4B C4B 0.999 1_555 1_555
C11 C16 1.419 1_555 1_555
C13 C17 1.414 1_555 1_555
C18 C15B 1.418 1_555 1_555
C19 C20 1.415 1_555 1_555
C20 C21 1.417 1_555 1_555
C18B C21B 1.444 1_555 1_555
C19B C20B 1.415 1_555 1_555
C10B C16B 1.414 1_555 1_555
C14B C7B 1.398 1_555 1_555
C13B C17B 1.414 1_555 1_555
C11B C12B 1.455 1_555 1_555
C2B C3B 1.372 1_555 1_555
C5B C4B 1.373 1_555 1_555
#END
