
#######################################################################
#
#                 Cambridge Crystallographic Data Centre
#                                CCDC
#
#######################################################################
#
# If this CIF has been generated from an entry in the Cambridge
# Structural Database, then it will include bibliographic, chemical,
# crystal, experimental, refinement or atomic coordinate data resulting
# from the CCDC's data processing and validation procedures.
#
#######################################################################

data_CSD_CIF_HBZCBA
_audit_creation_date 1977-07-22
_audit_creation_method CSD-ConQuest-V1
_database_code_CSD HBZCBA
_database_code_depnum_ccdc_archive 'CCDC 1173292'
_chemical_formula_sum 'C18 H12'
_chemical_formula_moiety
;
C18 H12
;
_journal_coeditor_code "IUCr A14400"
_journal_coden_Cambridge 107
_journal_volume 33
_journal_year 1977
_journal_page_first 360
_journal_name_full 'Acta Crystallogr.,Sect.B:Struct.Crystallogr.Cryst.Chem. '
loop_
_publ_author_name
"A.C.Hazell"
"R.G.Hazell"
_chemical_name_systematic
;
6b,10b-Dihydrobenzo(j)cyclobut(a)acenaphthylene
;
_cell_volume   1205.033
_exptl_crystal_density_diffrn 1.26
_exptl_special_details
;
It has been suggested that the correct space group may be P21

;
_diffrn_ambient_temperature ?
_diffrn_special_details
;
The study was carried out at room temperature,in the range 283-303K

;
#These two values have been output from a single CSD field.
_refine_ls_R_factor_gt 0.032
_refine_ls_wR_factor_gt 0.032
_symmetry_cell_setting monoclinic
_symmetry_space_group_name_H-M 'P m'
_symmetry_Int_Tables_number 6
loop_
_symmetry_equiv_pos_site_id
_symmetry_equiv_pos_as_xyz
1 x,y,z
2 x,1/2-y,z
_cell_length_a 10.202(5)
_cell_length_b 13.849(5)
_cell_length_c 8.768(3)
_cell_angle_alpha 90
_cell_angle_beta 103.41(3)
_cell_angle_gamma 90
_cell_formula_units_Z 4
loop_
_atom_type_symbol
_atom_type_radius_bond
C 0.68
H 0.23
loop_
_atom_site_label
_atom_site_type_symbol
_atom_site_fract_x
_atom_site_fract_y
_atom_site_fract_z
C1 C 0.28660 -0.20000 -0.04910
C2 C 0.38400 -0.14710 0.05570
C3 C 0.47940 -0.20080 0.15890
C4 C 0.61170 -0.19230 0.28190
C5 C 0.73170 -0.16500 0.21640
C6 C 0.78170 -0.07810 0.18570
C7 C 0.89350 -0.07650 0.11530
C8 C 0.95240 -0.15860 0.07680
C9 C 0.90200 -0.25000 0.10800
C10 C 0.79130 -0.25000 0.17780
H1 H 0.21090 -0.16060 -0.13470
H2 H 0.38280 -0.07690 0.05170
H3 H 0.61220 -0.15760 0.38710
H4 H 0.74250 -0.01580 0.20280
H5 H 0.92690 -0.01330 0.09190
H6 H 1.02840 -0.16110 0.02120
C11 C 0.05170 0.19860 0.39270
C12 C 0.14780 0.14490 0.33860
C13 C 0.24250 0.19960 0.28280
C14 C 0.36670 0.19220 0.21420
C15 C 0.49410 0.16610 0.32410
C16 C 0.55070 0.07850 0.37110
C17 C 0.67460 0.07710 0.48160
C18 C 0.73970 0.15920 0.54590
C19 C 0.68400 0.25000 0.49850
C20 C 0.55970 0.25000 0.38410
H7 H -0.03360 0.16740 0.43410
H8 H 0.12930 0.07050 0.34130
H9 H 0.34920 0.15480 0.11470
H10 H 0.50720 0.00990 0.31680
H11 H 0.72170 0.00350 0.51410
H12 H 0.82740 0.14820 0.62490
C21 C -0.07920 -0.30020 -0.37920
C22 C 0.01210 -0.35320 -0.44100
C23 C 0.10210 -0.29990 -0.50210
C24 C 0.22370 -0.30750 -0.57480
C25 C 0.35290 -0.33460 -0.46250
C26 C 0.40920 -0.42130 -0.41290
C27 C 0.53100 -0.42370 -0.29990
C28 C 0.59490 -0.34170 -0.23650
C29 C 0.54120 -0.25000 -0.28700
C30 C 0.41970 -0.25000 -0.40160
H13 H -0.15010 -0.32990 -0.33300
H14 H 0.01060 -0.42430 -0.43670
H15 H 0.21150 -0.33910 -0.67650
H16 H 0.36000 -0.47770 -0.46410
H17 H 0.57240 -0.48730 -0.26220
H18 H 0.67750 -0.34370 -0.15940
C31 C -0.27840 0.29970 0.07060
C32 C -0.37410 0.35280 -0.03510
C33 C -0.46850 0.30000 -0.14000
C34 C -0.59520 0.30720 -0.27150
C35 C -0.72120 0.33430 -0.22210
C36 C -0.77620 0.42180 -0.19760
C37 C -0.89420 0.42420 -0.14170
C38 C -0.95840 0.34220 -0.11090
C39 C -0.90560 0.25000 -0.13760
C40 C -0.78730 0.25000 -0.19340
H19 H -0.20840 0.33330 0.14910
H20 H -0.37760 0.41990 -0.03210
H21 H -0.58170 0.33770 -0.36540
H22 H -0.73330 0.48330 -0.22180
H23 H -0.93820 0.48980 -0.13550
H24 H -1.04590 0.34460 -0.08300
C1A C 0.28660 -0.30000 -0.04910
C3A C 0.47940 -0.29920 0.15890
C4A C 0.61170 -0.30770 0.28190
C8A C 0.95240 -0.34140 0.07680
C5A C 0.73170 -0.33500 0.21640
C2A C 0.38400 -0.35290 0.05570
H1A H 0.21090 -0.33940 -0.13470
H3A H 0.61220 -0.34240 0.38710
C7A C 0.89350 -0.42350 0.11530
H6A H 1.02840 -0.33890 0.02120
C6A C 0.78170 -0.42190 0.18570
H2A H 0.38280 -0.42310 0.05170
H5A H 0.92690 -0.48670 0.09190
H4A H 0.74250 -0.48420 0.20280
C11A C 0.05170 0.30140 0.39270
C13A C 0.24250 0.30040 0.28280
C14A C 0.36670 0.30780 0.21420
C18A C 0.73970 0.34080 0.54590
C15A C 0.49410 0.33390 0.32410
C12A C 0.14780 0.35510 0.33860
H7A H -0.03360 0.33260 0.43410
H9A H 0.34920 0.34520 0.11470
C17A C 0.67460 0.42290 0.48160
H12A H 0.82740 0.35180 0.62490
C16A C 0.55070 0.42150 0.37110
H8A H 0.12930 0.42950 0.34130
H11A H 0.72170 0.49650 0.51410
H10A H 0.50720 0.49010 0.31680
C21A C -0.07920 -0.19980 -0.37920
C23A C 0.10210 -0.20010 -0.50210
C24A C 0.22370 -0.19250 -0.57480
C28A C 0.59490 -0.15830 -0.23650
C25A C 0.35290 -0.16540 -0.46250
C22A C 0.01210 -0.14680 -0.44100
H13A H -0.15010 -0.17010 -0.33300
H15A H 0.21150 -0.16090 -0.67650
C27A C 0.53100 -0.07630 -0.29990
H18A H 0.67750 -0.15630 -0.15940
C26A C 0.40920 -0.07870 -0.41290
H14A H 0.01060 -0.07570 -0.43670
H17A H 0.57240 -0.01270 -0.26220
H16A H 0.36000 -0.02230 -0.46410
C31A C -0.27840 0.20030 0.07060
C33A C -0.46850 0.20000 -0.14000
C34A C -0.59520 0.19280 -0.27150
C38A C -0.95840 0.15780 -0.11090
C35A C -0.72120 0.16570 -0.22210
C32A C -0.37410 0.14720 -0.03510
H19A H -0.20840 0.16670 0.14910
H21A H -0.58170 0.16230 -0.36540
C37A C -0.89420 0.07580 -0.14170
H24A H -1.04590 0.15540 -0.08300
C36A C -0.77620 0.07820 -0.19760
H20A H -0.37760 0.08010 -0.03210
H23A H -0.93820 0.01020 -0.13550
H22A H -0.73330 0.01670 -0.22180
loop_
_geom_bond_atom_site_label_1
_geom_bond_atom_site_label_2
_geom_bond_distance
_geom_bond_site_symmetry_1
_geom_bond_site_symmetry_2
C1 C2 1.395 1_555 1_555
C2 C3 1.382 1_555 1_555
C3 C4 1.524 1_555 1_555
C4 C5 1.516 1_555 1_555
C5 C6 1.358 1_555 1_555
C6 C7 1.417 1_555 1_555
C7 C8 1.365 1_555 1_555
C8 C9 1.417 1_555 1_555
C9 C10 1.404 1_555 1_555
C10 C5 1.402 1_555 1_555
H1 C1 1.090 1_555 1_555
H2 C2 0.973 1_555 1_555
H3 C4 1.039 1_555 1_555
H4 C6 0.977 1_555 1_555
H5 C7 0.978 1_555 1_555
H6 C8 1.008 1_555 1_555
C11 C12 1.398 1_555 1_555
C12 C13 1.402 1_555 1_555
C13 C14 1.527 1_555 1_555
C14 C15 1.472 1_555 1_555
C15 C16 1.366 1_555 1_555
C16 C17 1.403 1_555 1_555
C17 C18 1.370 1_555 1_555
C18 C19 1.403 1_555 1_555
C19 C20 1.423 1_555 1_555
C20 C15 1.383 1_555 1_555
H7 C11 1.106 1_555 1_555
H8 C12 1.049 1_555 1_555
H9 C14 0.994 1_555 1_555
H10 C16 1.108 1_555 1_555
H11 C17 1.135 1_555 1_555
H12 C18 1.008 1_555 1_555
C21 C22 1.391 1_555 1_555
C22 C23 1.380 1_555 1_555
C23 C24 1.524 1_555 1_555
C24 C25 1.499 1_555 1_555
C25 C26 1.358 1_555 1_555
C26 C27 1.398 1_555 1_555
C27 C28 1.362 1_555 1_555
C28 C29 1.413 1_555 1_555
C29 C30 1.403 1_555 1_555
C30 C25 1.398 1_555 1_555
H13 C21 0.996 1_555 1_555
H14 C22 0.986 1_555 1_555
H15 C24 0.975 1_555 1_555
H16 C26 0.979 1_555 1_555
H17 C27 0.999 1_555 1_555
H18 C28 0.951 1_555 1_555
C31 C32 1.390 1_555 1_555
C32 C33 1.377 1_555 1_555
C33 C34 1.523 1_555 1_555
C34 C35 1.496 1_555 1_555
C35 C36 1.373 1_555 1_555
C36 C37 1.402 1_555 1_555
C37 C38 1.369 1_555 1_555
C38 C39 1.426 1_555 1_555
C39 C40 1.404 1_555 1_555
C40 C35 1.400 1_555 1_555
H19 C31 0.986 1_555 1_555
H20 C32 0.931 1_555 1_555
H21 C34 0.963 1_555 1_555
H22 C36 1.003 1_555 1_555
H23 C37 1.020 1_555 1_555
H24 C38 0.979 1_555 1_555
C1A C1 1.385 1_555 1_555
C3A C3 1.363 1_555 1_555
C4A C4 1.598 1_555 1_555
C8A C9 1.417 1_555 1_555
C5A C10 1.402 1_555 1_555
C2A C1A 1.395 1_555 1_555
H1A C1A 1.090 1_555 1_555
H3A C4A 1.039 1_555 1_555
C7A C8A 1.365 1_555 1_555
H6A C8A 1.008 1_555 1_555
C6A C5A 1.358 1_555 1_555
H2A C2A 0.973 1_555 1_555
H5A C7A 0.978 1_555 1_555
H4A C6A 0.977 1_555 1_555
C11A C11 1.424 1_555 1_555
C13A C13 1.396 1_555 1_555
C14A C14 1.601 1_555 1_555
C18A C19 1.403 1_555 1_555
C15A C20 1.383 1_555 1_555
C12A C11A 1.398 1_555 1_555
H7A C11A 1.106 1_555 1_555
H9A C14A 0.994 1_555 1_555
C17A C18A 1.370 1_555 1_555
H12A C18A 1.008 1_555 1_555
C16A C15A 1.366 1_555 1_555
H8A C12A 1.049 1_555 1_555
H11A C17A 1.135 1_555 1_555
H10A C16A 1.108 1_555 1_555
C21A C21 1.390 1_555 1_555
C23A C23 1.382 1_555 1_555
C24A C24 1.593 1_555 1_555
C28A C29 1.413 1_555 1_555
C25A C30 1.398 1_555 1_555
C22A C21A 1.391 1_555 1_555
H13A C21A 0.996 1_555 1_555
H15A C24A 0.975 1_555 1_555
C27A C28A 1.362 1_555 1_555
H18A C28A 0.951 1_555 1_555
C26A C25A 1.358 1_555 1_555
H14A C22A 0.986 1_555 1_555
H17A C27A 0.999 1_555 1_555
H16A C26A 0.979 1_555 1_555
C31A C31 1.377 1_555 1_555
C33A C33 1.385 1_555 1_555
C34A C34 1.584 1_555 1_555
C38A C39 1.426 1_555 1_555
C35A C40 1.400 1_555 1_555
C32A C31A 1.390 1_555 1_555
H19A C31A 0.986 1_555 1_555
H21A C34A 0.963 1_555 1_555
C37A C38A 1.369 1_555 1_555
H24A C38A 0.979 1_555 1_555
C36A C35A 1.373 1_555 1_555
H20A C32A 0.931 1_555 1_555
H23A C37A 1.020 1_555 1_555
H22A C36A 1.003 1_555 1_555
C3A C4A 1.524 1_555 1_555
C3A C2A 1.382 1_555 1_555
C4A C5A 1.516 1_555 1_555
C7A C6A 1.417 1_555 1_555
C13A C14A 1.527 1_555 1_555
C13A C12A 1.402 1_555 1_555
C14A C15A 1.472 1_555 1_555
C17A C16A 1.403 1_555 1_555
C23A C24A 1.524 1_555 1_555
C23A C22A 1.380 1_555 1_555
C24A C25A 1.499 1_555 1_555
C27A C26A 1.398 1_555 1_555
C33A C34A 1.523 1_555 1_555
C33A C32A 1.377 1_555 1_555
C34A C35A 1.496 1_555 1_555
C37A C36A 1.402 1_555 1_555
#END
