
#######################################################################
#
#                 Cambridge Crystallographic Data Centre
#                                CCDC
#
#######################################################################
#
# If this CIF has been generated from an entry in the Cambridge
# Structural Database, then it will include bibliographic, chemical,
# crystal, experimental, refinement or atomic coordinate data resulting
# from the CCDC's data processing and validation procedures.
#
#######################################################################

data_CSD_CIF_HBZCOR
_audit_creation_date 1971-12-31
_audit_creation_method CSD-ConQuest-V1
_database_code_CSD HBZCOR
_database_code_depnum_ccdc_archive 'CCDC 1173296'
_chemical_formula_sum 'C42 H18'
_chemical_formula_moiety
;
C42 H18
;
_journal_coden_Cambridge 2
_journal_year 1961
_journal_page_first 1280
_journal_name_full 'J.Chem.Soc. '
loop_
_publ_author_name
"J.M.Robertson"
"J.Trotter"
_chemical_name_systematic
;
Hexabenzo(bc,ef,hi,kl,no,qr)coronene
;
_cell_volume   1118.322
_diffrn_ambient_temperature ?
_diffrn_special_details
;
The study was carried out at room temperature,in the range 283-303K

;
#These two values have been output from a single CSD field.
_refine_ls_R_factor_gt 0.12
_refine_ls_wR_factor_gt 0.12
_symmetry_cell_setting monoclinic
_symmetry_space_group_name_H-M 'P 21/a'
_symmetry_Int_Tables_number 14
loop_
_symmetry_equiv_pos_site_id
_symmetry_equiv_pos_as_xyz
1 x,y,z
2 1/2-x,1/2+y,-z
3 -x,-y,-z
4 -1/2+x,-1/2-y,z
_cell_length_a 18.42
_cell_length_b 5.11
_cell_length_c 12.86
_cell_angle_alpha 90
_cell_angle_beta 112.5
_cell_angle_gamma 90
_cell_formula_units_Z 2
loop_
_atom_type_symbol
_atom_type_radius_bond
C 0.68
loop_
_atom_site_label
_atom_site_type_symbol
_atom_site_fract_x
_atom_site_fract_y
_atom_site_fract_z
C1 C 0.03890 -0.17800 0.40530
C2 C -0.13970 -0.35000 -0.25070
C3 C -0.19760 -0.51900 -0.31590
C4 C -0.23160 -0.69800 -0.26720
C5 C -0.16360 -0.69500 0.09460
C6 C -0.13020 -0.52000 0.03420
C7 C -0.06800 -0.34400 0.10580
C8 C -0.03740 -0.17500 0.04700
C9 C 0.02320 0.00000 0.11660
C10 C -0.05820 -0.16900 -0.06750
C11 C -0.11590 -0.34300 -0.13310
C12 C 0.09650 0.00200 0.47730
C13 C -0.15190 -0.51600 -0.08320
C14 C -0.20720 -0.69700 -0.14510
C15 C 0.12890 0.17200 0.42210
C16 C -0.13790 -0.69000 0.20930
C17 C -0.07940 -0.51300 0.27390
C18 C -0.04830 -0.34800 0.21980
C19 C 0.00970 -0.17500 0.28740
C20 C 0.04670 0.00800 0.23870
C21 C 0.10510 0.17300 0.30300
C10B C 0.05820 0.16900 0.06750
C9B C -0.02320 0.00000 -0.11660
C21B C -0.10510 -0.17300 -0.30300
C2B C 0.13970 0.35000 0.25070
C8B C 0.03740 0.17500 -0.04700
C11B C 0.11590 0.34300 0.13310
C20B C -0.04670 -0.00800 -0.23870
C15B C -0.12890 -0.17200 -0.42210
C3B C 0.19760 0.51900 0.31590
C7B C 0.06800 0.34400 -0.10580
C13B C 0.15190 0.51600 0.08320
C19B C -0.00970 0.17500 -0.28740
C12B C -0.09650 -0.00200 -0.47730
C4B C 0.23160 0.69800 0.26720
C6B C 0.13020 0.52000 -0.03420
C18B C 0.04830 0.34800 -0.21980
C14B C 0.20720 0.69700 0.14510
C1B C -0.03890 0.17800 -0.40530
C5B C 0.16360 0.69500 -0.09460
C17B C 0.07940 0.51300 -0.27390
C16B C 0.13790 0.69000 -0.20930
loop_
_geom_bond_atom_site_label_1
_geom_bond_atom_site_label_2
_geom_bond_distance
_geom_bond_site_symmetry_1
_geom_bond_site_symmetry_2
C1 C12 1.441 1_555 1_555
C2 C3 1.379 1_555 1_555
C3 C4 1.386 1_555 1_555
C4 C14 1.459 1_555 1_555
C5 C6 1.465 1_555 1_555
C6 C7 1.470 1_555 1_555
C7 C8 1.401 1_555 1_555
C8 C9 1.443 1_555 1_555
C9 C20 1.461 1_555 1_555
C10 C8 1.373 1_555 1_555
C11 C2 1.405 1_555 1_555
C12 C15 1.392 1_555 1_555
C13 C6 1.406 1_555 1_555
C14 C13 1.381 1_555 1_555
C15 C21 1.423 1_555 1_555
C16 C5 1.366 1_555 1_555
C17 C16 1.409 1_555 1_555
C18 C7 1.369 1_555 1_555
C19 C1 1.402 1_555 1_555
C20 C19 1.435 1_555 1_555
C21 C20 1.368 1_555 1_555
C10B C9 1.368 1_555 1_555
C9B C10 1.368 1_555 1_555
C21B C2 1.416 1_555 1_555
C2B C21 1.416 1_555 1_555
C8B C10B 1.373 1_555 1_555
C11B C10B 1.395 1_555 1_555
C20B C9B 1.461 1_555 1_555
C15B C21B 1.423 1_555 1_555
C3B C2B 1.379 1_555 1_555
C7B C8B 1.401 1_555 1_555
C13B C11B 1.400 1_555 1_555
C19B C20B 1.435 1_555 1_555
C12B C15B 1.392 1_555 1_555
C4B C3B 1.386 1_555 1_555
C6B C7B 1.470 1_555 1_555
C18B C7B 1.369 1_555 1_555
C14B C13B 1.381 1_555 1_555
C1B C19B 1.402 1_555 1_555
C5B C6B 1.465 1_555 1_555
C17B C18B 1.352 1_555 1_555
C16B C5B 1.366 1_555 1_555
C10 C11 1.395 1_555 1_555
C11 C13 1.400 1_555 1_555
C17 C18 1.352 1_555 1_555
C18 C19 1.403 1_555 1_555
C9B C8B 1.443 1_555 1_555
C21B C20B 1.368 1_555 1_555
C2B C11B 1.405 1_555 1_555
C13B C6B 1.406 1_555 1_555
C19B C18B 1.403 1_555 1_555
C12B C1B 1.441 1_555 1_555
C4B C14B 1.459 1_555 1_555
C17B C16B 1.409 1_555 1_555
#END
