
#######################################################################
#
#                 Cambridge Crystallographic Data Centre
#                                CCDC
#
#######################################################################
#
# If this CIF has been generated from an entry in the Cambridge
# Structural Database, then it will include bibliographic, chemical,
# crystal, experimental, refinement or atomic coordinate data resulting
# from the CCDC's data processing and validation procedures.
#
#######################################################################

data_CSD_CIF_HDBANT01
_audit_creation_date 1971-12-31
_audit_creation_method CSD-ConQuest-V1
_database_code_CSD HDBANT01
_chemical_formula_sum 'C22 H16'
_chemical_formula_moiety
;
C22 H16
;
_journal_coeditor_code "IUCr A02291"
_journal_coden_Cambridge 1
_journal_volume 11
_journal_year 1958
_journal_page_first 476
_journal_name_full 'Acta Crystallogr. '
loop_
_publ_author_name
"J.Iball"
"D.W.Young"
_chemical_name_systematic
;
9,10-Dihydro-1,2-5,6-dibenzanthracene
;
_cell_volume    730.890
_exptl_crystal_density_diffrn 1.274
_exptl_special_details
;
polymorph II

;
_diffrn_ambient_temperature ?
_diffrn_special_details
;
The study was carried out at room temperature,in the range 283-303K

;
#These two values have been output from a single CSD field.
_refine_ls_R_factor_gt 0.121
_refine_ls_wR_factor_gt 0.121
_symmetry_cell_setting monoclinic
_symmetry_space_group_name_H-M 'P 21/a'
_symmetry_Int_Tables_number 14
loop_
_symmetry_equiv_pos_site_id
_symmetry_equiv_pos_as_xyz
1 x,y,z
2 1/2-x,1/2+y,-z
3 -x,-y,-z
4 -1/2+x,-1/2-y,z
_cell_length_a 9.49(1)
_cell_length_b 6.77(1)
_cell_length_c 11.38(1)
_cell_angle_alpha 90
_cell_angle_beta 91.48
_cell_angle_gamma 90
_cell_formula_units_Z 2
loop_
_atom_type_symbol
_atom_type_radius_bond
C 0.68
H 0.23
loop_
_atom_site_label
_atom_site_type_symbol
_atom_site_fract_x
_atom_site_fract_y
_atom_site_fract_z
C1 C 0.07334 0.19778 0.00316
C2 C 0.10084 0.04136 0.09561
C3 C 0.19747 0.08035 0.18937
C4 C 0.26765 0.26322 0.20703
C5 C 0.36006 0.30532 0.29859
C6 C 0.37260 0.16041 0.38831
C7 C 0.30306 -0.02216 0.37970
C8 C 0.21633 -0.06174 0.28427
C9 C 0.14394 -0.24431 0.27645
C10 C 0.05321 -0.27947 0.18260
C11 C -0.03551 0.14032 -0.09534
H1 H 0.16723 0.21979 0.06178
H2 H 0.00000 0.31403 -0.01828
H3 H 0.25395 0.37341 0.14042
H4 H 0.41549 0.40473 0.30404
H5 H 0.44025 0.19128 0.46503
H6 H 0.31675 -0.13220 0.44622
H7 H 0.16048 -0.35451 0.34613
H8 H -0.00242 -0.41817 0.17996
C11B C 0.03551 -0.14032 0.09534
C2B C -0.10084 -0.04136 -0.09561
C10B C -0.05321 0.27947 -0.18260
C1B C -0.07334 -0.19778 -0.00316
C3B C -0.19747 -0.08035 -0.18937
C9B C -0.14394 0.24431 -0.27645
H8B H 0.00242 0.41817 -0.17996
H1B H -0.16723 -0.21979 -0.06178
H2B H 0.00000 -0.31403 0.01828
C4B C -0.26765 -0.26322 -0.20703
C8B C -0.21633 0.06174 -0.28427
H7B H -0.16048 0.35451 -0.34613
C5B C -0.36006 -0.30532 -0.29859
H3B H -0.25395 -0.37341 -0.14042
C7B C -0.30306 0.02216 -0.37970
C6B C -0.37260 -0.16041 -0.38831
H4B H -0.41549 -0.40473 -0.30404
H6B H -0.31675 0.13220 -0.44622
H5B H -0.44025 -0.19128 -0.46503
loop_
_geom_bond_atom_site_label_1
_geom_bond_atom_site_label_2
_geom_bond_distance
_geom_bond_site_symmetry_1
_geom_bond_site_symmetry_2
C1 C2 1.511 1_555 1_555
C2 C3 1.414 1_555 1_555
C3 C4 1.418 1_555 1_555
C4 C5 1.374 1_555 1_555
C5 C6 1.419 1_555 1_555
C6 C7 1.403 1_555 1_555
C7 C8 1.372 1_555 1_555
C8 C3 1.454 1_555 1_555
C9 C8 1.416 1_555 1_555
C10 C9 1.375 1_555 1_555
C11 C1 1.554 1_555 1_555
H1 C1 1.109 1_555 1_555
H2 C1 1.075 1_555 1_555
H3 C4 1.069 1_555 1_555
H4 C5 0.855 1_555 1_555
H5 C6 1.090 1_555 1_555
H6 C7 1.068 1_555 1_555
H7 C9 1.097 1_555 1_555
H8 C10 1.077 1_555 1_555
C11B C2 1.377 1_555 1_555
C2B C11 1.377 1_555 1_555
C10B C11 1.376 1_555 1_555
C1B C11B 1.554 1_555 1_555
C3B C2B 1.414 1_555 1_555
C9B C10B 1.375 1_555 1_555
H8B C10B 1.077 1_555 1_555
H1B C1B 1.109 1_555 1_555
H2B C1B 1.075 1_555 1_555
C4B C3B 1.418 1_555 1_555
C8B C3B 1.454 1_555 1_555
H7B C9B 1.097 1_555 1_555
C5B C4B 1.374 1_555 1_555
H3B C4B 1.069 1_555 1_555
C7B C8B 1.372 1_555 1_555
C6B C5B 1.419 1_555 1_555
H4B C5B 0.855 1_555 1_555
H6B C7B 1.068 1_555 1_555
H5B C6B 1.090 1_555 1_555
C10 C11B 1.376 1_555 1_555
C2B C1B 1.511 1_555 1_555
C9B C8B 1.416 1_555 1_555
C7B C6B 1.403 1_555 1_555
#END
