
#######################################################################
#
#                 Cambridge Crystallographic Data Centre
#                                CCDC
#
#######################################################################
#
# If this CIF has been generated from an entry in the Cambridge
# Structural Database, then it will include bibliographic, chemical,
# crystal, experimental, refinement or atomic coordinate data resulting
# from the CCDC's data processing and validation procedures.
#
#######################################################################

data_CSD_CIF_HDUNDC
_audit_creation_date 1977-09-11
_audit_creation_method CSD-ConQuest-V1
_database_code_CSD HDUNDC
_database_code_depnum_ccdc_archive 'CCDC 1173453'
_chemical_formula_sum 'C18 H14'
_chemical_formula_moiety
;
C18 H14
;
_journal_coden_Cambridge 48
_journal_volume 110
_journal_year 1977
_journal_page_first 749
_journal_name_full 'Chem.Ber. '
loop_
_publ_author_name
"H.Irngartinger"
"A.E.Jungk"
_chemical_name_systematic
;
7,8,13,14-Tetradehydro-9,10,11,12-tetrahydrocycloundeca(1,2,3-de)naphthalene
;
_chemical_melting_point 383.15
_cell_volume   1272.690
_exptl_crystal_density_diffrn 1.2
_exptl_special_details
;
Melting point range 383.15-384.15K
Atom labels in tab.3 do not correspond with labels in tab.2
;
_diffrn_ambient_temperature ?
_diffrn_special_details
;
The study was carried out at room temperature,in the range 283-303K

;
#These two values have been output from a single CSD field.
_refine_ls_R_factor_gt 0.052
_refine_ls_wR_factor_gt 0.052
_symmetry_cell_setting orthorhombic
_symmetry_space_group_name_H-M 'P 21 21 21'
_symmetry_Int_Tables_number 19
loop_
_symmetry_equiv_pos_site_id
_symmetry_equiv_pos_as_xyz
1 x,y,z
2 1/2+x,1/2-y,-z
3 -x,1/2+y,1/2-z
4 1/2-x,-y,1/2+z
_cell_length_a 11.851(3)
_cell_length_b 14.149(4)
_cell_length_c 7.590(2)
_cell_angle_alpha 90
_cell_angle_beta 90
_cell_angle_gamma 90
_cell_formula_units_Z 4
loop_
_atom_type_symbol
_atom_type_radius_bond
C 0.68
H 0.23
loop_
_atom_site_label
_atom_site_type_symbol
_atom_site_fract_x
_atom_site_fract_y
_atom_site_fract_z
C1 C 0.49440 0.18970 -0.05130
C2 C 0.49040 0.09430 -0.10200
C3 C 0.43010 0.02980 -0.00990
C4 C 0.37270 0.05800 0.14310
C5 C 0.37450 0.14980 0.20030
C6 C 0.43300 0.22050 0.10120
C7 C 0.43510 0.31880 0.14230
C8 C 0.50010 0.37940 0.04230
C9 C 0.56400 0.34740 -0.10060
C10 C 0.56050 0.25550 -0.14630
C11 C 0.36900 0.35940 0.28110
C12 C 0.31540 0.40110 0.38950
C13 C 0.24560 0.44480 0.52550
C14 C 0.17550 0.37400 0.63020
C15 C 0.24530 0.30330 0.73630
C16 C 0.23030 0.20050 0.68250
C17 C 0.27890 0.17950 0.50880
C18 C 0.32140 0.16940 0.36750
H1 H 0.53100 0.07600 -0.21000
H2 H 0.42800 -0.04000 -0.05000
H3 H 0.33300 0.01100 0.21300
H4 H 0.50400 0.44700 0.07500
H5 H 0.61100 0.39400 -0.16400
H6 H 0.60300 0.23000 -0.24000
H7 H 0.29400 0.48400 0.60400
H8 H 0.19400 0.50100 0.47000
H9 H 0.12300 0.33700 0.54600
H10 H 0.12300 0.41100 0.70600
H11 H 0.32400 0.32000 0.72600
H12 H 0.21700 0.30800 0.86500
H13 H 0.15200 0.18000 0.67200
H14 H 0.26100 0.14900 0.76800
loop_
_geom_bond_atom_site_label_1
_geom_bond_atom_site_label_2
_geom_bond_distance
_geom_bond_site_symmetry_1
_geom_bond_site_symmetry_2
C1 C2 1.404 1_555 1_555
C2 C3 1.354 1_555 1_555
C3 C4 1.404 1_555 1_555
C4 C5 1.370 1_555 1_555
C5 C6 1.431 1_555 1_555
C6 C1 1.435 1_555 1_555
C7 C6 1.426 1_555 1_555
C8 C7 1.380 1_555 1_555
C9 C8 1.398 1_555 1_555
C10 C1 1.414 1_555 1_555
C11 C7 1.433 1_555 1_555
C12 C11 1.195 1_555 1_555
C13 C12 1.460 1_555 1_555
C14 C13 1.525 1_555 1_555
C15 C14 1.528 1_555 1_555
C16 C15 1.521 1_555 1_555
C17 C16 1.469 1_555 1_555
C18 C5 1.443 1_555 1_555
H1 C2 0.985 1_555 1_555
H2 C3 1.034 1_555 1_555
H3 C4 0.972 1_555 1_555
H4 C8 0.989 1_555 1_555
H5 C9 0.988 1_555 1_555
H6 C10 0.943 1_555 1_555
H7 C13 0.996 1_555 1_555
H8 C13 1.088 1_555 1_555
H9 C14 1.034 1_555 1_555
H10 C14 0.996 1_555 1_555
H11 C15 0.965 1_555 1_555
H12 C15 1.035 1_555 1_555
H13 C16 0.975 1_555 1_555
H14 C16 1.041 1_555 1_555
C9 C10 1.346 1_555 1_555
C17 C18 1.193 1_555 1_555
#END
