
#######################################################################
#
#                 Cambridge Crystallographic Data Centre
#                                CCDC
#
#######################################################################
#
# If this CIF has been generated from an entry in the Cambridge
# Structural Database, then it will include bibliographic, chemical,
# crystal, experimental, refinement or atomic coordinate data resulting
# from the CCDC's data processing and validation procedures.
#
#######################################################################

data_CSD_CIF_HEXHEL04
_audit_creation_date 2017-01-12
_audit_creation_method CSD-ConQuest-V1
_database_code_CSD HEXHEL04
_database_code_depnum_ccdc_archive 'CCDC 1514735'
_chemical_formula_sum 'C26 H16'
_chemical_formula_moiety
;
C26 H16
;
_journal_coden_Cambridge 1326
_journal_volume 19
_journal_year 2017
_journal_page_first 2900
_journal_name_full 'Phys.Chem.Chem.Phys.(PCCP) '
loop_
_publ_author_name
"M.Dracinsky"
"Jan Storch"
"V.Cirkva"
"I.Cisarova"
"J.Sykora"
_chemical_name_systematic
;
hexahelicene
;
_chemical_name_common
;
[6]helicene
;
_cell_volume   1698.427
_exptl_crystal_colour 'yellow'
_exptl_crystal_density_diffrn 1.284
_exptl_crystal_description 'prism'
_exptl_crystal_preparation 'chloroform'
_diffrn_ambient_temperature 300
#These two values have been output from a single CSD field.
_refine_ls_R_factor_gt 0.0392
_refine_ls_wR_factor_gt 0.0392
_symmetry_cell_setting orthorhombic
_symmetry_space_group_name_H-M 'P 21 21 21'
_symmetry_Int_Tables_number 19
loop_
_symmetry_equiv_pos_site_id
_symmetry_equiv_pos_as_xyz
1 x,y,z
2 1/2+x,1/2-y,-z
3 -x,1/2+y,1/2-z
4 1/2-x,-y,1/2+z
_cell_length_a 7.3417(3)
_cell_length_b 13.1529(4)
_cell_length_c 17.5885(5)
_cell_angle_alpha 90
_cell_angle_beta 90
_cell_angle_gamma 90
_cell_formula_units_Z 4
loop_
_atom_type_symbol
_atom_type_radius_bond
C 0.68
H 0.23
loop_
_atom_site_label
_atom_site_type_symbol
_atom_site_fract_x
_atom_site_fract_y
_atom_site_fract_z
C1 C 0.6908(3) 0.37569(17) 0.40610(12)
C2 C 0.7166(4) 0.27475(19) 0.42226(14)
C3 C 0.5696(6) 0.2081(2) 0.42457(16)
C4 C 0.4011(5) 0.2429(2) 0.40816(17)
C5 C 0.3703(4) 0.3452(2) 0.38819(14)
C6 C 0.1973(4) 0.3785(4) 0.3611(2)
C7 C 0.1778(4) 0.4698(4) 0.33029(19)
C8 C 0.3233(4) 0.5425(3) 0.32934(14)
C9 C 0.3087(6) 0.6341(3) 0.28773(17)
C10 C 0.4523(7) 0.6964(3) 0.28229(17)
C11 C 0.6121(5) 0.6818(2) 0.32657(15)
C12 C 0.7641(8) 0.7469(2) 0.3194(2)
C13 C 0.9119(7) 0.7345(2) 0.3631(3)
C14 C 0.9099(4) 0.66596(18) 0.42579(17)
C15 C 1.0566(5) 0.6626(3) 0.4770(3)
C16 C 1.0462(4) 0.6114(3) 0.5427(3)
C17 C 0.8787(4) 0.56393(19) 0.56562(16)
C18 C 0.8549(5) 0.5246(3) 0.63976(19)
C19 C 0.6939(6) 0.4885(3) 0.66342(18)
C20 C 0.5436(5) 0.48943(19) 0.61436(13)
C21 C 0.5621(3) 0.52503(16) 0.54153(12)
C22 C 0.7308(3) 0.56140(15) 0.51392(13)
C23 C 0.7539(3) 0.60545(15) 0.43845(13)
C24 C 0.6184(3) 0.60030(16) 0.37916(12)
C25 C 0.4865(3) 0.52051(18) 0.36889(12)
C26 C 0.5172(3) 0.41508(17) 0.38997(12)
H1 H 0.797(3) 0.4196(17) 0.4049(12)
H2 H 0.843(4) 0.254(2) 0.4289(17)
H3 H 0.588(4) 0.137(2) 0.4393(17)
H4 H 0.300(5) 0.196(3) 0.407(2)
H5 H 0.091(5) 0.326(3) 0.3637(18)
H6 H 0.066(5) 0.493(2) 0.3047(17)
H7 H 0.177(6) 0.652(3) 0.259(2)
H8 H 0.445(5) 0.755(3) 0.251(2)
H9 H 0.745(5) 0.803(3) 0.277(2)
H10 H 1.011(5) 0.774(3) 0.3554(18)
H11 H 1.176(5) 0.700(3) 0.4632(18)
H12 H 1.149(5) 0.610(3) 0.576(2)
H13 H 0.969(5) 0.527(3) 0.6710(19)
H14 H 0.676(4) 0.461(3) 0.715(2)
H15 H 0.425(4) 0.4607(19) 0.6335(15)
H16 H 0.458(3) 0.5262(14) 0.5079(11)
loop_
_geom_bond_atom_site_label_1
_geom_bond_atom_site_label_2
_geom_bond_distance
_geom_bond_site_symmetry_1
_geom_bond_site_symmetry_2
C1 C2 1.371 1_555 1_555
C2 C3 1.391 1_555 1_555
C3 C4 1.350 1_555 1_555
C4 C5 1.409 1_555 1_555
C5 C6 1.426 1_555 1_555
C6 C7 1.325 1_555 1_555
C7 C8 1.434 1_555 1_555
C8 C9 1.414 1_555 1_555
C9 C10 1.339 1_555 1_555
C10 C11 1.421 1_555 1_555
C11 C12 1.412 1_555 1_555
C12 C13 1.340 1_555 1_555
C13 C14 1.424 1_555 1_555
C14 C15 1.405 1_555 1_555
C15 C16 1.340 1_555 1_555
C16 C17 1.437 1_555 1_555
C17 C18 1.414 1_555 1_555
C18 C19 1.340 1_555 1_555
C19 C20 1.401 1_555 1_555
C20 C21 1.371 1_555 1_555
C21 C22 1.414 1_555 1_555
C22 C17 1.417 1_555 1_555
C23 C14 1.412 1_555 1_555
C24 C11 1.417 1_555 1_555
C25 C8 1.415 1_555 1_555
C26 C1 1.405 1_555 1_555
H1 C1 0.971 1_555 1_555
H2 C2 0.974 1_555 1_555
H3 C3 0.980 1_555 1_555
H4 C4 0.965 1_555 1_555
H5 C6 1.043 1_555 1_555
H6 C7 0.985 1_555 1_555
H7 C9 1.116 1_555 1_555
H8 C10 0.949 1_555 1_555
H9 C12 1.058 1_555 1_555
H10 C13 0.904 1_555 1_555
H11 C15 1.034 1_555 1_555
H12 C16 0.956 1_555 1_555
H13 C18 1.002 1_555 1_555
H14 C19 0.985 1_555 1_555
H15 C20 1.007 1_555 1_555
H16 C21 0.967 1_555 1_555
C5 C26 1.417 1_555 1_555
C22 C23 1.458 1_555 1_555
C23 C24 1.443 1_555 1_555
C24 C25 1.439 1_555 1_555
C25 C26 1.453 1_555 1_555
#END
