
#######################################################################
#
#                 Cambridge Crystallographic Data Centre
#                                CCDC
#
#######################################################################
#
# If this CIF has been generated from an entry in the Cambridge
# Structural Database, then it will include bibliographic, chemical,
# crystal, experimental, refinement or atomic coordinate data resulting
# from the CCDC's data processing and validation procedures.
#
#######################################################################

data_CSD_CIF_HEXHEL02
_audit_creation_date 2017-01-12
_audit_creation_method CSD-ConQuest-V1
_database_code_CSD HEXHEL02
_database_code_depnum_ccdc_archive 'CCDC 1514732'
_chemical_formula_sum 'C26 H16'
_chemical_formula_moiety
;
C26 H16
;
_journal_coden_Cambridge 1326
_journal_volume 19
_journal_year 2017
_journal_page_first 2900
_journal_name_full 'Phys.Chem.Chem.Phys.(PCCP) '
loop_
_publ_author_name
"M.Dracinsky"
"Jan Storch"
"V.Cirkva"
"I.Cisarova"
"J.Sykora"
_chemical_name_systematic
;
hexahelicene
;
_chemical_name_common
;
[6]helicene
;
_cell_volume   1650.110
_exptl_crystal_colour 'yellow'
_exptl_crystal_density_diffrn 1.322
_exptl_crystal_description 'prism'
_exptl_crystal_preparation 'chloroform'
_diffrn_ambient_temperature 100
#These two values have been output from a single CSD field.
_refine_ls_R_factor_gt 0.0331
_refine_ls_wR_factor_gt 0.0331
_symmetry_cell_setting orthorhombic
_symmetry_space_group_name_H-M 'P 21 21 21'
_symmetry_Int_Tables_number 19
loop_
_symmetry_equiv_pos_site_id
_symmetry_equiv_pos_as_xyz
1 x,y,z
2 1/2+x,1/2-y,-z
3 -x,1/2+y,1/2-z
4 1/2-x,-y,1/2+z
_cell_length_a 7.3058(2)
_cell_length_b 12.9470(5)
_cell_length_c 17.4452(6)
_cell_angle_alpha 90
_cell_angle_beta 90
_cell_angle_gamma 90
_cell_formula_units_Z 4
loop_
_atom_type_symbol
_atom_type_radius_bond
C 0.68
H 0.23
loop_
_atom_site_label
_atom_site_type_symbol
_atom_site_fract_x
_atom_site_fract_y
_atom_site_fract_z
C1 C 0.6879(2) 0.37147(12) 0.40596(8)
C2 C 0.7157(2) 0.26853(13) 0.42239(9)
C3 C 0.5670(3) 0.19982(13) 0.4260(1)
C4 C 0.3945(2) 0.23470(13) 0.4099(1)
C5 C 0.3631(2) 0.33903(13) 0.39025(9)
C6 C 0.1861(2) 0.37217(16) 0.36452(11)
C7 C 0.1653(2) 0.46563(18) 0.3320(1)
C8 C 0.3123(2) 0.53871(14) 0.32972(9)
C9 C 0.2959(3) 0.63155(16) 0.28598(9)
C10 C 0.4401(3) 0.69587(15) 0.27879(9)
C11 C 0.6013(3) 0.68125(13) 0.32321(9)
C12 C 0.7547(3) 0.74819(14) 0.31492(11)
C13 C 0.9058(3) 0.73592(13) 0.35870(12)
C14 C 0.9036(3) 0.66732(12) 0.42275(10)
C15 C 1.0550(3) 0.66517(14) 0.47510(12)
C16 C 1.0438(2) 0.61366(15) 0.54214(12)
C17 C 0.8748(2) 0.56671(13) 0.56544(10)
C18 C 0.8542(3) 0.52922(15) 0.64126(11)
C19 C 0.6904(3) 0.49151(14) 0.66646(9)
C20 C 0.5386(3) 0.49122(13) 0.61675(9)
C21 C 0.5557(2) 0.52563(12) 0.54228(9)
C22 C 0.7249(2) 0.56246(11) 0.51348(9)
C23 C 0.7475(2) 0.60543(11) 0.43698(9)
C24 C 0.6095(2) 0.59928(11) 0.37728(8)
C25 C 0.4772(2) 0.51721(13) 0.36857(9)
C26 C 0.5111(2) 0.41068(12) 0.39053(8)
H1 H 0.794(3) 0.4175(16) 0.4021(11)
H2 H 0.842(3) 0.2385(18) 0.4309(13)
H3 H 0.584(4) 0.130(2) 0.4396(15)
H4 H 0.296(4) 0.190(2) 0.4116(14)
H5 H 0.088(4) 0.319(2) 0.3657(16)
H6 H 0.048(4) 0.486(2) 0.3068(15)
H7 H 0.176(4) 0.646(2) 0.2598(14)
H8 H 0.434(3) 0.759(2) 0.2460(14)
H9 H 0.748(4) 0.803(2) 0.2737(14)
H10 H 1.012(3) 0.7758(18) 0.3530(12)
H11 H 1.166(3) 0.6992(19) 0.4609(14)
H12 H 1.152(4) 0.614(2) 0.5789(18)
H13 H 0.972(3) 0.535(2) 0.6750(14)
H14 H 0.674(3) 0.464(2) 0.7199(14)
H15 H 0.419(3) 0.4642(15) 0.6322(11)
H16 H 0.448(3) 0.5261(19) 0.5099(13)
loop_
_geom_bond_atom_site_label_1
_geom_bond_atom_site_label_2
_geom_bond_distance
_geom_bond_site_symmetry_1
_geom_bond_site_symmetry_2
C1 C2 1.378 1_555 1_555
C2 C3 1.406 1_555 1_555
C3 C4 1.368 1_555 1_555
C4 C5 1.412 1_555 1_555
C5 C6 1.434 1_555 1_555
C6 C7 1.345 1_555 1_555
C7 C8 1.432 1_555 1_555
C8 C9 1.429 1_555 1_555
C9 C10 1.349 1_555 1_555
C10 C11 1.422 1_555 1_555
C11 C12 1.424 1_555 1_555
C12 C13 1.352 1_555 1_555
C13 C14 1.427 1_555 1_555
C14 C15 1.435 1_555 1_555
C15 C16 1.349 1_555 1_555
C16 C17 1.435 1_555 1_555
C17 C18 1.417 1_555 1_555
C18 C19 1.365 1_555 1_555
C19 C20 1.408 1_555 1_555
C20 C21 1.379 1_555 1_555
C21 C22 1.417 1_555 1_555
C22 C17 1.423 1_555 1_555
C23 C14 1.416 1_555 1_555
C24 C11 1.421 1_555 1_555
C25 C8 1.410 1_555 1_555
C26 C1 1.414 1_555 1_555
H1 C1 0.980 1_555 1_555
H2 C2 1.012 1_555 1_555
H3 C3 0.943 1_555 1_555
H4 C4 0.924 1_555 1_555
H5 C6 0.994 1_555 1_555
H6 C7 0.999 1_555 1_555
H7 C9 1.005 1_555 1_555
H8 C10 0.999 1_555 1_555
H9 C12 1.011 1_555 1_555
H10 C13 0.937 1_555 1_555
H11 C15 0.956 1_555 1_555
H12 C16 1.018 1_555 1_555
H13 C18 1.045 1_555 1_555
H14 C19 1.005 1_555 1_555
H15 C20 0.979 1_555 1_555
H16 C21 0.969 1_555 1_555
C5 C26 1.425 1_555 1_555
C22 C23 1.455 1_555 1_555
C23 C24 1.452 1_555 1_555
C24 C25 1.444 1_555 1_555
C25 C26 1.453 1_555 1_555
#END
