
#######################################################################
#
#                 Cambridge Crystallographic Data Centre
#                                CCDC
#
#######################################################################
#
# If this CIF has been generated from an entry in the Cambridge
# Structural Database, then it will include bibliographic, chemical,
# crystal, experimental, refinement or atomic coordinate data resulting
# from the CCDC's data processing and validation procedures.
#
#######################################################################

data_CSD_CIF_HEYSOW
_audit_creation_date 2018-06-18
_audit_creation_method CSD-ConQuest-V1
_database_code_CSD HEYSOW
_database_code_depnum_ccdc_archive 'CCDC 1590202'
_chemical_formula_sum 'C58 H40'
_chemical_formula_moiety
;
C58 H40
;
_journal_coden_Cambridge 35
_journal_volume 83
_journal_year 2018
_journal_page_first 6633
_journal_name_full 'J.Org.Chem. '
loop_
_publ_author_name
"J.Melidonie"
"Junzhi Liu"
"Yubin Fu"
"J.J.Weigand"
"R.Berger"
"Xinliang Feng"
_chemical_name_systematic
;
8,18-bis(2,4,6-trimethylphenyl)-s-indaceno[2,1-a:6,5-a']dipyrene
;
_cell_volume   3813.553
_exptl_crystal_colour 'green'
_exptl_crystal_density_diffrn 1.283
_exptl_crystal_description 'block'
_diffrn_ambient_temperature 100
#These two values have been output from a single CSD field.
_refine_ls_R_factor_gt 0.0506
_refine_ls_wR_factor_gt 0.0506
_symmetry_cell_setting monoclinic
_symmetry_space_group_name_H-M 'P 21/n'
_symmetry_Int_Tables_number 14
loop_
_symmetry_equiv_pos_site_id
_symmetry_equiv_pos_as_xyz
1 x,y,z
2 1/2-x,1/2+y,1/2-z
3 -x,-y,-z
4 -1/2+x,-1/2-y,-1/2+z
_cell_length_a 12.23985(13)
_cell_length_b 21.8131(2)
_cell_length_c 14.46867(14)
_cell_angle_alpha 90
_cell_angle_beta 99.1751(10)
_cell_angle_gamma 90
_cell_formula_units_Z 4
loop_
_atom_type_symbol
_atom_type_radius_bond
C 0.68
H 0.23
loop_
_atom_site_label
_atom_site_type_symbol
_atom_site_fract_x
_atom_site_fract_y
_atom_site_fract_z
C1 C 0.24293(12) 0.07749(7) 0.52811(10)
C2 C 0.23202(12) 0.01425(7) 0.54836(11)
C3 C 0.32247(12) -0.02140(7) 0.58306(11)
H1 H 0.31360 -0.06290 0.59450
C4 C 0.42731(12) 0.00539(7) 0.60084(10)
C5 C 0.52325(13) -0.03016(7) 0.63570(11)
H2 H 0.51520 -0.07170 0.64770
C6 C 0.62513(13) -0.00487(8) 0.65162(12)
H3 H 0.68560 -0.02920 0.67510
C7 C 0.64230(12) 0.05832(8) 0.63327(11)
C8 C 0.74817(13) 0.08471(9) 0.64454(12)
H4 H 0.80980 0.06070 0.66590
C9 C 0.76208(14) 0.14577(9) 0.62436(14)
H5 H 0.83290 0.16230 0.63080
C10 C 0.67107(14) 0.18265(9) 0.59450(13)
H6 H 0.68150 0.22400 0.58310
C11 C 0.56382(13) 0.15856(8) 0.58121(12)
C12 C 0.46910(14) 0.19458(8) 0.54790(12)
H7 H 0.47800 0.23630 0.53770
C13 C 0.36570(13) 0.16998(7) 0.53042(12)
H8 H 0.30590 0.19500 0.50780
C14 C 0.34742(12) 0.10633(7) 0.54628(10)
C15 C 0.44054(12) 0.06913(7) 0.58305(10)
C16 C 0.54868(12) 0.09535(7) 0.59985(10)
C17 C 0.13327(12) 0.10149(7) 0.49035(11)
C18 C 0.05776(12) 0.05442(7) 0.49102(11)
C19 C -0.05978(12) 0.05461(7) 0.46439(11)
H9 H -0.09730 0.09000 0.44180
C20 C -0.11461(12) 0.00156(7) 0.47321(10)
C21 C 0.10555(11) 0.16466(7) 0.45541(11)
C22 C 0.07999(12) 0.21010(7) 0.51670(11)
C23 C 0.05761(13) 0.26941(7) 0.48313(12)
H10 H 0.04140 0.29960 0.52420
C24 C 0.05878(13) 0.28476(7) 0.39007(12)
C25 C 0.08285(13) 0.23869(7) 0.33006(12)
H11 H 0.08360 0.24810 0.26750
C26 C 0.10584(12) 0.17898(7) 0.36078(11)
C27 C 0.08090(16) 0.19542(9) 0.61833(13)
H12 H 0.05550 0.15420 0.62410
H13 H 0.03290 0.22330 0.64400
H14 H 0.15490 0.19940 0.65180
C28 C 0.13399(17) 0.13075(8) 0.29414(13)
H15 H 0.21070 0.12000 0.31000
H16 H 0.12010 0.14640 0.23140
H17 H 0.08910 0.09510 0.29850
C29 C 0.03338(17) 0.34909(8) 0.35394(15)
H18 H -0.03470 0.34900 0.31050
H19 H 0.09230 0.36330 0.32290
H20 H 0.02630 0.37580 0.40540
C30 C 0.10824(12) 0.40115(7) 0.67101(11)
C31 C -0.00664(12) 0.40635(7) 0.63472(11)
C32 C -0.08430(12) 0.36824(7) 0.66427(11)
H21 H -0.15900 0.37300 0.64060
C33 C -0.04992(12) 0.32235(7) 0.73006(11)
C34 C -0.12677(13) 0.27958(8) 0.75829(12)
H22 H -0.20180 0.28440 0.73570
C35 C -0.09393(14) 0.23257(8) 0.81654(12)
H23 H -0.14630 0.20540 0.83260
C36 C 0.02114(14) 0.22388(7) 0.85420(11)
C37 C 0.05752(15) 0.17459(8) 0.91104(12)
H24 H 0.00660 0.14570 0.92480
C38 C 0.16890(15) 0.16750(8) 0.94801(13)
H25 H 0.19160 0.13440 0.98690
C39 C 0.24578(14) 0.20952(8) 0.92706(12)
H26 H 0.32000 0.20460 0.95260
C40 C 0.21365(13) 0.25925(8) 0.86810(12)
C41 C 0.29082(13) 0.30213(7) 0.84222(12)
H27 H 0.36510 0.29850 0.86820
C42 C 0.25925(12) 0.34833(7) 0.78063(11)
H28 H 0.31240 0.37510 0.76480
C43 C 0.14547(12) 0.35660(7) 0.73956(11)
C44 C 0.06516(12) 0.31624(7) 0.76793(11)
C45 C 0.09911(13) 0.26721(7) 0.83098(11)
C46 C 0.16810(12) 0.44567(7) 0.62290(11)
C47 C 0.09183(12) 0.47696(7) 0.55899(11)
C48 C 0.10916(12) 0.52339(7) 0.49355(11)
H29 H 0.17980 0.53800 0.49010
C49 C 0.01923(12) 0.54554(7) 0.43646(11)
C50 C 0.28913(12) 0.45748(7) 0.63251(11)
C51 C 0.33430(13) 0.51160(7) 0.67483(11)
C52 C 0.44646(13) 0.52368(8) 0.67580(12)
H30 H 0.47690 0.55910 0.70500
C53 C 0.51397(13) 0.48456(8) 0.63474(12)
C54 C 0.46750(13) 0.43048(8) 0.59503(12)
H31 H 0.51230 0.40310 0.56900
C55 C 0.35689(13) 0.41592(7) 0.59296(11)
C56 C 0.26438(15) 0.55696(8) 0.71809(13)
H32 H 0.22980 0.58470 0.67080
H33 H 0.31040 0.57960 0.76620
H34 H 0.20850 0.53540 0.74480
C57 C 0.30962(14) 0.35789(8) 0.54750(14)
H35 H 0.27930 0.33350 0.59250
H36 H 0.36700 0.33530 0.52450
H37 H 0.25230 0.36770 0.49630
C58 C 0.63308(14) 0.49932(9) 0.63049(13)
H38 H 0.65130 0.53850 0.65900
H39 H 0.64420 0.50050 0.56630
H40 H 0.67980 0.46840 0.66340
C1B C -0.24293(12) -0.07749(7) 0.47189(10)
C2B C -0.23202(12) -0.01425(7) 0.45164(11)
C3B C -0.32247(12) 0.02140(7) 0.41694(11)
H1B H -0.31360 0.06290 0.40550
C4B C -0.42731(12) -0.00539(7) 0.39916(10)
C5B C -0.52325(13) 0.03016(7) 0.36430(11)
H2B H -0.51520 0.07170 0.35230
C6B C -0.62513(13) 0.00487(8) 0.34838(12)
H3B H -0.68560 0.02920 0.32490
C7B C -0.64230(12) -0.05832(8) 0.36673(11)
C8B C -0.74817(13) -0.08471(9) 0.35546(12)
H4B H -0.80980 -0.06070 0.33410
C9B C -0.76208(14) -0.14577(9) 0.37564(14)
H5B H -0.83290 -0.16230 0.36920
C10B C -0.67107(14) -0.18265(9) 0.40550(13)
H6B H -0.68150 -0.22400 0.41690
C11B C -0.56382(13) -0.15856(8) 0.41879(12)
C12B C -0.46910(14) -0.19458(8) 0.45210(12)
H7B H -0.47800 -0.23630 0.46230
C13B C -0.36570(13) -0.16998(7) 0.46958(12)
H8B H -0.30590 -0.19500 0.49220
C14B C -0.34742(12) -0.10633(7) 0.45372(10)
C15B C -0.44054(12) -0.06913(7) 0.41695(10)
C16B C -0.54868(12) -0.09535(7) 0.40015(10)
C17B C -0.13327(12) -0.10149(7) 0.50965(11)
C18B C -0.05776(12) -0.05442(7) 0.50898(11)
C19B C 0.05978(12) -0.05461(7) 0.53561(11)
H9B H 0.09730 -0.09000 0.55820
C20B C 0.11461(12) -0.00156(7) 0.52679(10)
C21B C -0.10555(11) -0.16466(7) 0.54459(11)
C22B C -0.07999(12) -0.21010(7) 0.48330(11)
C23B C -0.05761(13) -0.26941(7) 0.51687(12)
H10B H -0.04140 -0.29960 0.47580
C24B C -0.05878(13) -0.28476(7) 0.60993(12)
C25B C -0.08285(13) -0.23869(7) 0.66994(12)
H11B H -0.08360 -0.24810 0.73250
C26B C -0.10584(12) -0.17898(7) 0.63922(11)
C27B C -0.08090(16) -0.19542(9) 0.38167(13)
H12B H -0.05550 -0.15420 0.37590
H13B H -0.03290 -0.22330 0.35600
H14B H -0.15490 -0.19940 0.34820
C28B C -0.13399(17) -0.13075(8) 0.70586(13)
H15B H -0.21070 -0.12000 0.69000
H16B H -0.12010 -0.14640 0.76860
H17B H -0.08910 -0.09510 0.70150
C29B C -0.03338(17) -0.34909(8) 0.64606(15)
H18B H 0.03470 -0.34900 0.68950
H19B H -0.09230 -0.36330 0.67710
H20B H -0.02630 -0.37580 0.59460
C30B C -0.10824(12) 0.59885(7) 0.32899(11)
C31B C 0.00664(12) 0.59365(7) 0.36528(11)
C32B C 0.08430(12) 0.63176(7) 0.33573(11)
H21B H 0.15900 0.62700 0.35940
C33B C 0.04992(12) 0.67765(7) 0.26994(11)
C34B C 0.12677(13) 0.72042(8) 0.24171(12)
H22B H 0.20180 0.71560 0.26430
C35B C 0.09393(14) 0.76743(8) 0.18346(12)
H23B H 0.14630 0.79460 0.16740
C36B C -0.02114(14) 0.77612(7) 0.14580(11)
C37B C -0.05752(15) 0.82541(8) 0.08896(12)
H24B H -0.00660 0.85430 0.07520
C38B C -0.16890(15) 0.83250(8) 0.05199(13)
H25B H -0.19160 0.86560 0.01310
C39B C -0.24578(14) 0.79048(8) 0.07294(12)
H26B H -0.32000 0.79540 0.04740
C40B C -0.21365(13) 0.74075(8) 0.13190(12)
C41B C -0.29082(13) 0.69787(7) 0.15778(12)
H27B H -0.36510 0.70150 0.13180
C42B C -0.25925(12) 0.65167(7) 0.21937(11)
H28B H -0.31240 0.62490 0.23520
C43B C -0.14547(12) 0.64340(7) 0.26044(11)
C44B C -0.06516(12) 0.68376(7) 0.23207(11)
C45B C -0.09911(13) 0.73279(7) 0.16902(11)
C46B C -0.16810(12) 0.55433(7) 0.37710(11)
C47B C -0.09183(12) 0.52304(7) 0.44101(11)
C48B C -0.10916(12) 0.47661(7) 0.50645(11)
H29B H -0.17980 0.46200 0.50990
C49B C -0.01923(12) 0.45446(7) 0.56354(11)
C50B C -0.28913(12) 0.54252(7) 0.36749(11)
C51B C -0.33430(13) 0.48840(7) 0.32517(11)
C52B C -0.44646(13) 0.47632(8) 0.32420(12)
H30B H -0.47690 0.44090 0.29500
C53B C -0.51397(13) 0.51544(8) 0.36526(12)
C54B C -0.46750(13) 0.56952(8) 0.40497(12)
H31B H -0.51230 0.59690 0.43100
C55B C -0.35689(13) 0.58408(7) 0.40704(11)
C56B C -0.26438(15) 0.44304(8) 0.28191(13)
H32B H -0.22980 0.41530 0.32920
H33B H -0.31040 0.42040 0.23380
H34B H -0.20850 0.46460 0.25520
C57B C -0.30962(14) 0.64211(8) 0.45250(14)
H35B H -0.27930 0.66650 0.40750
H36B H -0.36700 0.66470 0.47550
H37B H -0.25230 0.63230 0.50370
C58B C -0.63308(14) 0.50068(9) 0.36951(13)
H38B H -0.65130 0.46150 0.34100
H39B H -0.64420 0.49950 0.43370
H40B H -0.67980 0.53160 0.33660
loop_
_geom_bond_atom_site_label_1
_geom_bond_atom_site_label_2
_geom_bond_distance
_geom_bond_site_symmetry_1
_geom_bond_site_symmetry_2
C1 C2 1.421 1_555 1_555
C2 C3 1.380 1_555 1_555
C3 H1 0.930 1_555 1_555
C4 C3 1.396 1_555 1_555
C5 C4 1.430 1_555 1_555
H2 C5 0.931 1_555 1_555
C6 C5 1.349 1_555 1_555
H3 C6 0.930 1_555 1_555
C7 C6 1.426 1_555 1_555
C8 C7 1.403 1_555 1_555
H4 C8 0.930 1_555 1_555
C9 C8 1.380 1_555 1_555
H5 C9 0.930 1_555 1_555
C10 C9 1.386 1_555 1_555
H6 C10 0.929 1_555 1_555
C11 C10 1.399 1_555 1_555
C12 C11 1.420 1_555 1_555
H7 C12 0.931 1_555 1_555
C13 C12 1.361 1_555 1_555
H8 C13 0.930 1_555 1_555
C14 C1 1.412 1_555 1_555
C15 C4 1.428 1_555 1_555
C16 C7 1.422 1_555 1_555
C17 C1 1.463 1_555 1_555
C18 C17 1.383 1_555 1_555
C19 C18 1.429 1_555 1_555
H9 C19 0.930 1_555 1_555
C20 C19 1.354 1_555 1_555
C21 C17 1.488 1_555 1_555
C22 C21 1.398 1_555 1_555
C23 C22 1.394 1_555 1_555
H10 C23 0.929 1_555 1_555
C24 C23 1.390 1_555 1_555
C25 C24 1.390 1_555 1_555
H11 C25 0.930 1_555 1_555
C26 C21 1.405 1_555 1_555
C27 C22 1.503 1_555 1_555
H12 C27 0.959 1_555 1_555
H13 C27 0.960 1_555 1_555
H14 C27 0.960 1_555 1_555
C28 C26 1.504 1_555 1_555
H15 C28 0.959 1_555 1_555
H16 C28 0.959 1_555 1_555
H17 C28 0.960 1_555 1_555
C29 C24 1.512 1_555 1_555
H18 C29 0.960 1_555 1_555
H19 C29 0.960 1_555 1_555
H20 C29 0.960 1_555 1_555
C30 C31 1.425 1_555 1_555
C31 C32 1.381 1_555 1_555
C32 H21 0.930 1_555 1_555
C33 C32 1.399 1_555 1_555
C34 C33 1.430 1_555 1_555
H22 C34 0.930 1_555 1_555
C35 C34 1.347 1_555 1_555
H23 C35 0.929 1_555 1_555
C36 C35 1.439 1_555 1_555
C37 C36 1.383 1_555 1_555
H24 C37 0.930 1_555 1_555
C38 C37 1.391 1_555 1_555
H25 C38 0.930 1_555 1_555
C39 C38 1.381 1_555 1_555
H26 C39 0.931 1_555 1_555
C40 C39 1.397 1_555 1_555
C41 C40 1.421 1_555 1_555
H27 C41 0.930 1_555 1_555
C42 C41 1.360 1_555 1_555
H28 C42 0.930 1_555 1_555
C43 C30 1.411 1_555 1_555
C44 C33 1.434 1_555 1_555
C45 C36 1.421 1_555 1_555
C46 C30 1.458 1_555 1_555
C47 C46 1.385 1_555 1_555
C48 C47 1.425 1_555 1_555
H29 C48 0.930 1_555 1_555
C49 C48 1.356 1_555 1_555
C50 C46 1.488 1_555 1_555
C51 C50 1.402 1_555 1_555
C52 C51 1.396 1_555 1_555
H30 C52 0.930 1_555 1_555
C53 C52 1.386 1_555 1_555
C54 C53 1.393 1_555 1_555
H31 C54 0.930 1_555 1_555
C55 C50 1.410 1_555 1_555
C56 C51 1.508 1_555 1_555
H32 C56 0.960 1_555 1_555
H33 C56 0.960 1_555 1_555
H34 C56 0.961 1_555 1_555
C57 C55 1.499 1_555 1_555
H35 C57 0.960 1_555 1_555
H36 C57 0.960 1_555 1_555
H37 C57 0.960 1_555 1_555
C58 C53 1.504 1_555 1_555
H38 C58 0.960 1_555 1_555
H39 C58 0.960 1_555 1_555
H40 C58 0.960 1_555 1_555
C1B C2B 1.421 1_555 1_555
C2B C20 1.462 1_555 1_555
C3B C2B 1.380 1_555 1_555
H1B C3B 0.930 1_555 1_555
C4B C3B 1.396 1_555 1_555
C5B C4B 1.430 1_555 1_555
H2B C5B 0.931 1_555 1_555
C6B C5B 1.349 1_555 1_555
H3B C6B 0.930 1_555 1_555
C7B C6B 1.426 1_555 1_555
C8B C7B 1.403 1_555 1_555
H4B C8B 0.930 1_555 1_555
C9B C8B 1.380 1_555 1_555
H5B C9B 0.930 1_555 1_555
C10B C9B 1.386 1_555 1_555
H6B C10B 0.929 1_555 1_555
C11B C10B 1.399 1_555 1_555
C12B C11B 1.420 1_555 1_555
H7B C12B 0.931 1_555 1_555
C13B C12B 1.361 1_555 1_555
H8B C13B 0.930 1_555 1_555
C14B C1B 1.412 1_555 1_555
C15B C4B 1.428 1_555 1_555
C16B C7B 1.422 1_555 1_555
C17B C1B 1.463 1_555 1_555
C18B C20 1.459 1_555 1_555
C19B C18B 1.429 1_555 1_555
H9B C19B 0.930 1_555 1_555
C20B C2 1.462 1_555 1_555
C21B C17B 1.488 1_555 1_555
C22B C21B 1.398 1_555 1_555
C23B C22B 1.394 1_555 1_555
H10B C23B 0.929 1_555 1_555
C24B C23B 1.390 1_555 1_555
C25B C24B 1.390 1_555 1_555
H11B C25B 0.930 1_555 1_555
C26B C21B 1.405 1_555 1_555
C27B C22B 1.503 1_555 1_555
H12B C27B 0.959 1_555 1_555
H13B C27B 0.960 1_555 1_555
H14B C27B 0.960 1_555 1_555
C28B C26B 1.504 1_555 1_555
H15B C28B 0.959 1_555 1_555
H16B C28B 0.959 1_555 1_555
H17B C28B 0.960 1_555 1_555
C29B C24B 1.512 1_555 1_555
H18B C29B 0.960 1_555 1_555
H19B C29B 0.960 1_555 1_555
H20B C29B 0.960 1_555 1_555
C30B C31B 1.425 1_555 1_555
C31B C49 1.461 1_555 1_555
C32B C31B 1.381 1_555 1_555
H21B C32B 0.930 1_555 1_555
C33B C32B 1.399 1_555 1_555
C34B C33B 1.430 1_555 1_555
H22B C34B 0.930 1_555 1_555
C35B C34B 1.347 1_555 1_555
H23B C35B 0.929 1_555 1_555
C36B C35B 1.439 1_555 1_555
C37B C36B 1.383 1_555 1_555
H24B C37B 0.930 1_555 1_555
C38B C37B 1.391 1_555 1_555
H25B C38B 0.930 1_555 1_555
C39B C38B 1.381 1_555 1_555
H26B C39B 0.931 1_555 1_555
C40B C39B 1.397 1_555 1_555
C41B C40B 1.421 1_555 1_555
H27B C41B 0.930 1_555 1_555
C42B C41B 1.360 1_555 1_555
H28B C42B 0.930 1_555 1_555
C43B C30B 1.411 1_555 1_555
C44B C33B 1.434 1_555 1_555
C45B C36B 1.421 1_555 1_555
C46B C30B 1.458 1_555 1_555
C47B C49 1.457 1_555 1_555
C48B C47B 1.425 1_555 1_555
H29B C48B 0.930 1_555 1_555
C49B C31 1.461 1_555 1_555
C50B C46B 1.488 1_555 1_555
C51B C50B 1.402 1_555 1_555
C52B C51B 1.396 1_555 1_555
H30B C52B 0.930 1_555 1_555
C53B C52B 1.386 1_555 1_555
C54B C53B 1.393 1_555 1_555
H31B C54B 0.930 1_555 1_555
C55B C50B 1.410 1_555 1_555
C56B C51B 1.508 1_555 1_555
H32B C56B 0.960 1_555 1_555
H33B C56B 0.960 1_555 1_555
H34B C56B 0.961 1_555 1_555
C57B C55B 1.499 1_555 1_555
H35B C57B 0.960 1_555 1_555
H36B C57B 0.960 1_555 1_555
H37B C57B 0.960 1_555 1_555
C58B C53B 1.504 1_555 1_555
H38B C58B 0.960 1_555 1_555
H39B C58B 0.960 1_555 1_555
H40B C58B 0.960 1_555 1_555
C11 C16 1.423 1_555 1_555
C13 C14 1.431 1_555 1_555
C14 C15 1.431 1_555 1_555
C15 C16 1.427 1_555 1_555
C18 C20B 1.459 1_555 1_555
C25 C26 1.390 1_555 1_555
C40 C45 1.430 1_555 1_555
C42 C43 1.436 1_555 1_555
C43 C44 1.428 1_555 1_555
C44 C45 1.424 1_555 1_555
C47 C49B 1.457 1_555 1_555
C54 C55 1.386 1_555 1_555
C11B C16B 1.423 1_555 1_555
C13B C14B 1.431 1_555 1_555
C14B C15B 1.431 1_555 1_555
C15B C16B 1.427 1_555 1_555
C17B C18B 1.383 1_555 1_555
C19B C20B 1.354 1_555 1_555
C25B C26B 1.390 1_555 1_555
C40B C45B 1.430 1_555 1_555
C42B C43B 1.436 1_555 1_555
C43B C44B 1.428 1_555 1_555
C44B C45B 1.424 1_555 1_555
C46B C47B 1.385 1_555 1_555
C48B C49B 1.356 1_555 1_555
C54B C55B 1.386 1_555 1_555
#END
