
#######################################################################
#
#                 Cambridge Crystallographic Data Centre
#                                CCDC
#
#######################################################################
#
# If this CIF has been generated from an entry in the Cambridge
# Structural Database, then it will include bibliographic, chemical,
# crystal, experimental, refinement or atomic coordinate data resulting
# from the CCDC's data processing and validation procedures.
#
#######################################################################

data_CSD_CIF_HEZKOO
_audit_creation_date 2013-06-17
_audit_creation_method CSD-ConQuest-V1
_database_code_CSD HEZKOO
_database_code_depnum_ccdc_archive 'CCDC 943902'
_chemical_formula_sum 'C26 H16'
_chemical_formula_moiety
;
C26 H16
;
_journal_coden_Cambridge 4
_journal_volume 134
_journal_year 2012
_journal_page_first 16753
_journal_name_full 'J.Am.Chem.Soc. '
loop_
_publ_author_name
"J.Carreras"
"M.Patil"
"W.Thiel"
"M.Alcarazo"
_chemical_name_systematic
;
Benzo[f]pentahelicene
;
_cell_volume   1628.859
_exptl_crystal_colour 'colorless'
_exptl_crystal_density_diffrn 1.339
_exptl_crystal_description 'prism'
_diffrn_ambient_temperature 100
#These two values have been output from a single CSD field.
_refine_ls_R_factor_gt 0.0348
_refine_ls_wR_factor_gt 0.0348
_symmetry_cell_setting monoclinic
_symmetry_space_group_name_H-M 'P 21/n'
_symmetry_Int_Tables_number 14
loop_
_symmetry_equiv_pos_site_id
_symmetry_equiv_pos_as_xyz
1 x,y,z
2 1/2-x,1/2+y,1/2-z
3 -x,-y,-z
4 -1/2+x,-1/2-y,-1/2+z
_cell_length_a 10.0094(5)
_cell_length_b 8.1625(4)
_cell_length_c 20.4952(11)
_cell_angle_alpha 90
_cell_angle_beta 103.407(2)
_cell_angle_gamma 90
_cell_formula_units_Z 4
loop_
_atom_type_symbol
_atom_type_radius_bond
C 0.68
H 0.23
loop_
_atom_site_label
_atom_site_type_symbol
_atom_site_fract_x
_atom_site_fract_y
_atom_site_fract_z
C1 C 0.53510(11) 0.60244(13) 0.71842(5)
C2 C 0.68408(11) 0.62622(13) 0.73062(5)
C3 C 0.77254(11) 0.57633(13) 0.79145(5)
H1 H 0.73410 0.53550 0.82650
C4 C 0.91312(11) 0.58535(13) 0.80133(6)
H2 H 0.97050 0.54910 0.84240
C5 C 0.97118(11) 0.64783(14) 0.75088(6)
H3 H 1.06800 0.65890 0.75820
C6 C 0.88769(11) 0.69330(13) 0.69048(6)
H4 H 0.92800 0.73460 0.65620
C7 C 0.74358(11) 0.68010(13) 0.67826(5)
C8 C 0.65559(11) 0.71197(13) 0.61188(6)
C9 C 0.70389(12) 0.79011(15) 0.56056(6)
H5 H 0.79550 0.82990 0.56980
C10 C 0.62125(13) 0.81007(16) 0.49727(6)
H6 H 0.65610 0.86260 0.46330
C11 C 0.48647(13) 0.75300(16) 0.48316(6)
H7 H 0.42940 0.76520 0.43940
C12 C 0.43645(12) 0.67908(15) 0.53270(6)
H8 H 0.34400 0.64180 0.52280
C13 C 0.51840(11) 0.65705(14) 0.59778(5)
C14 C 0.46107(11) 0.58844(13) 0.65135(5)
C15 C 0.33123(11) 0.50880(14) 0.63693(6)
H9 H 0.28170 0.49740 0.59160
C16 C 0.27705(11) 0.44878(14) 0.68702(6)
H10 H 0.19670 0.38280 0.67640
C17 C 0.33931(11) 0.48370(13) 0.75497(6)
C18 C 0.27862(11) 0.42534(14) 0.80734(6)
H11 H 0.20210 0.35340 0.79660
C19 C 0.32830(11) 0.47078(14) 0.87183(6)
H12 H 0.29270 0.42260 0.90640
C20 C 0.43464(11) 0.59149(14) 0.88799(6)
C21 C 0.46517(12) 0.66759(14) 0.95159(6)
H13 H 0.42370 0.62750 0.98570
C22 C 0.55329(12) 0.79795(15) 0.96518(6)
H14 H 0.57310 0.84730 1.00830
C23 C 0.61417(11) 0.85812(14) 0.91484(6)
H15 H 0.67270 0.95110 0.92350
C24 C 0.58992(11) 0.78380(13) 0.85317(5)
H16 H 0.63310 0.82540 0.82000
C25 C 0.50164(11) 0.64600(13) 0.83792(5)
C26 C 0.46284(11) 0.57488(13) 0.77083(5)
loop_
_geom_bond_atom_site_label_1
_geom_bond_atom_site_label_2
_geom_bond_distance
_geom_bond_site_symmetry_1
_geom_bond_site_symmetry_2
C1 C2 1.467 1_555 1_555
C2 C3 1.411 1_555 1_555
C3 H1 0.950 1_555 1_555
C4 C3 1.376 1_555 1_555
H2 C4 0.950 1_555 1_555
C5 C4 1.395 1_555 1_555
H3 C5 0.950 1_555 1_555
C6 C5 1.374 1_555 1_555
H4 C6 0.949 1_555 1_555
C7 C2 1.413 1_555 1_555
C8 C7 1.462 1_555 1_555
C9 C8 1.408 1_555 1_555
H5 C9 0.950 1_555 1_555
C10 C9 1.377 1_555 1_555
H6 C10 0.950 1_555 1_555
C11 C10 1.393 1_555 1_555
H7 C11 0.950 1_555 1_555
C12 C11 1.372 1_555 1_555
H8 C12 0.950 1_555 1_555
C13 C8 1.409 1_555 1_555
C14 C1 1.407 1_555 1_555
C15 C14 1.422 1_555 1_555
H9 C15 0.951 1_555 1_555
C16 C15 1.359 1_555 1_555
H10 C16 0.950 1_555 1_555
C17 C16 1.417 1_555 1_555
C18 C17 1.432 1_555 1_555
H11 C18 0.950 1_555 1_555
C19 C18 1.352 1_555 1_555
H12 C19 0.949 1_555 1_555
C20 C19 1.432 1_555 1_555
C21 C20 1.412 1_555 1_555
H13 C21 0.950 1_555 1_555
C22 C21 1.369 1_555 1_555
H14 C22 0.949 1_555 1_555
C23 C22 1.403 1_555 1_555
H15 C23 0.950 1_555 1_555
C24 C23 1.372 1_555 1_555
H16 C24 0.949 1_555 1_555
C25 C20 1.421 1_555 1_555
C26 C1 1.445 1_555 1_555
C6 C7 1.410 1_555 1_555
C12 C13 1.406 1_555 1_555
C13 C14 1.463 1_555 1_555
C17 C26 1.415 1_555 1_555
C24 C25 1.420 1_555 1_555
C25 C26 1.460 1_555 1_555
#END
