
#######################################################################
#
#                 Cambridge Crystallographic Data Centre
#                                CCDC
#
#######################################################################
#
# If this CIF has been generated from an entry in the Cambridge
# Structural Database, then it will include bibliographic, chemical,
# crystal, experimental, refinement or atomic coordinate data resulting
# from the CCDC's data processing and validation procedures.
#
#######################################################################

data_CSD_CIF_HICFAD
_audit_creation_date 2018-06-19
_audit_creation_method CSD-ConQuest-V1
_database_code_CSD HICFAD
_database_code_depnum_ccdc_archive 'CCDC 1585708'
_chemical_formula_sum 'C42 H26'
_chemical_formula_moiety
;
C42 H26
;
_journal_coden_Cambridge 1220
_journal_volume 24
_journal_year 2018
_journal_page_first 6625
_journal_name_full 'Chem.-Eur.J. '
loop_
_publ_author_name
"A.Konishi"
"A.Morinaga"
"G.Fukuhara"
"M.Nishijima"
"T.Mori"
"T.Kida"
"M.Yasuda"
_chemical_name_systematic
;
1,8-diphenyl-9,10-bis(phenylethynyl)phenanthrene
;
_cell_volume   5691.336
_exptl_crystal_colour 'pale yellow'
_exptl_crystal_density_diffrn 1.239
_exptl_crystal_description 'prism'
_diffrn_ambient_temperature 123
#These two values have been output from a single CSD field.
_refine_ls_R_factor_gt 0.0395
_refine_ls_wR_factor_gt 0.0395
_symmetry_cell_setting orthorhombic
_symmetry_space_group_name_H-M 'P b c a'
_symmetry_Int_Tables_number 61
loop_
_symmetry_equiv_pos_site_id
_symmetry_equiv_pos_as_xyz
1 x,y,z
2 1/2+x,1/2-y,-z
3 -x,1/2+y,1/2-z
4 1/2-x,-y,1/2+z
5 -x,-y,-z
6 -1/2-x,-1/2+y,z
7 x,-1/2-y,-1/2+z
8 -1/2+x,y,-1/2-z
_cell_length_a 12.5695(2)
_cell_length_b 14.7042(3)
_cell_length_c 30.7932(6)
_cell_angle_alpha 90
_cell_angle_beta 90
_cell_angle_gamma 90
_cell_formula_units_Z 8
loop_
_atom_type_symbol
_atom_type_radius_bond
C 0.68
H 0.23
loop_
_atom_site_label
_atom_site_type_symbol
_atom_site_fract_x
_atom_site_fract_y
_atom_site_fract_z
C1 C 0.74911(10) 0.02290(8) 0.51291(4)
C2 C 0.77370(11) 0.02188(9) 0.46914(4)
C3 C 0.70366(11) 0.05599(9) 0.43810(4)
C4 C 0.61076(10) 0.09645(8) 0.45083(4)
C5 C 0.41903(11) 0.19229(9) 0.47890(4)
C6 C 0.32475(11) 0.23064(9) 0.49084(4)
C7 C 0.29215(11) 0.22643(9) 0.53393(4)
C8 C 0.35367(10) 0.18484(8) 0.56554(4)
C9 C 0.51018(10) 0.08240(8) 0.58239(4)
C10 C 0.60427(10) 0.04138(8) 0.56911(4)
C11 C 0.64755(10) 0.05649(8) 0.52611(4)
C12 C 0.58066(10) 0.09952(8) 0.49500(4)
C13 C 0.48284(10) 0.14423(8) 0.50894(4)
C14 C 0.44939(10) 0.13983(8) 0.55309(4)
C15 C 0.83445(10) -0.00359(9) 0.54385(4)
C16 C 0.89575(10) -0.08164(9) 0.53675(5)
C17 C 0.97958(11) -0.10322(10) 0.56406(5)
C18 C 1.00344(11) -0.04717(10) 0.59895(5)
C19 C 0.94460(11) 0.03106(9) 0.60603(4)
C20 C 0.86054(11) 0.05264(9) 0.57880(4)
C21 C 0.64639(10) -0.02889(8) 0.59640(4)
C22 C 0.66656(10) -0.09458(9) 0.61802(4)
C23 C 0.68565(11) -0.17587(9) 0.64265(4)
C24 C 0.77757(11) -0.22724(9) 0.63661(4)
C25 C 0.79336(13) -0.30631(10) 0.66026(5)
C26 C 0.71774(13) -0.33492(10) 0.68970(5)
C27 C 0.62607(13) -0.28452(10) 0.69607(5)
C28 C 0.60921(11) -0.20544(9) 0.67274(4)
C29 C 0.47186(10) 0.05786(8) 0.62469(4)
C30 C 0.45107(11) 0.03075(8) 0.66032(4)
C31 C 0.43276(11) -0.00064(9) 0.70393(4)
C32 C 0.51294(12) 0.00638(10) 0.73478(5)
C33 C 0.49755(14) -0.02675(12) 0.77659(5)
C34 C 0.40208(14) -0.06668(11) 0.78766(5)
C35 C 0.32190(14) -0.07359(11) 0.75732(5)
C36 C 0.33664(12) -0.04073(10) 0.71580(4)
C37 C 0.31523(11) 0.19461(8) 0.61108(4)
C38 C 0.37564(12) 0.23954(9) 0.64250(5)
C39 C 0.33636(14) 0.2532(1) 0.68404(5)
C40 C 0.23631(14) 0.22122(12) 0.69503(5)
C41 C 0.17512(13) 0.17763(12) 0.66425(5)
C42 C 0.21403(11) 0.16426(10) 0.62274(5)
H1 H 0.83803 -0.00345 0.46041
H2 H 0.72041 0.05205 0.40874
H3 H 0.56657 0.12306 0.43021
H4 H 0.44291 0.19868 0.45048
H5 H 0.28336 0.25969 0.47000
H6 H 0.22628 0.25049 0.54149
H7 H 0.87882 -0.12016 0.51382
H8 H 1.02252 -0.15335 0.55841
H9 H 1.05652 -0.06328 0.61853
H10 H 0.96211 0.06953 0.62891
H11 H 0.82138 0.10522 0.58394
H12 H 0.82888 -0.20819 0.61684
H13 H 0.85515 -0.34010 0.65630
H14 H 0.72966 -0.38864 0.70488
H15 H 0.57559 -0.30426 0.71603
H16 H 0.54762 -0.17132 0.67655
H17 H 0.57821 0.03134 0.72702
H18 H 0.55076 -0.02066 0.79737
H19 H 0.39138 -0.08936 0.81551
H20 H 0.25705 -0.09972 0.76479
H21 H 0.28205 -0.04520 0.69553
H22 H 0.44295 0.26156 0.63567
H23 H 0.37665 0.28357 0.70481
H24 H 0.21097 0.22992 0.72310
H25 H 0.10779 0.15647 0.67165
H26 H 0.17202 0.13581 0.60192
loop_
_geom_bond_atom_site_label_1
_geom_bond_atom_site_label_2
_geom_bond_distance
_geom_bond_site_symmetry_1
_geom_bond_site_symmetry_2
C1 C2 1.383 1_555 1_555
C2 C3 1.393 1_555 1_555
C3 C4 1.368 1_555 1_555
C4 C12 1.412 1_555 1_555
C5 C6 1.363 1_555 1_555
C6 C7 1.390 1_555 1_555
C7 C8 1.385 1_555 1_555
C8 C14 1.426 1_555 1_555
C9 C10 1.389 1_555 1_555
C10 C11 1.449 1_555 1_555
C11 C1 1.428 1_555 1_555
C12 C11 1.423 1_555 1_555
C13 C5 1.414 1_555 1_555
C14 C9 1.453 1_555 1_555
C15 C1 1.487 1_555 1_555
C16 C15 1.400 1_555 1_555
C17 C16 1.385 1_555 1_555
C18 C17 1.387 1_555 1_555
C19 C18 1.385 1_555 1_555
C20 C15 1.396 1_555 1_555
C21 C10 1.433 1_555 1_555
C22 C21 1.200 1_555 1_555
C23 C22 1.436 1_555 1_555
C24 C23 1.393 1_555 1_555
C25 C24 1.386 1_555 1_555
C26 C25 1.379 1_555 1_555
C27 C26 1.384 1_555 1_555
C28 C23 1.404 1_555 1_555
C29 C9 1.435 1_555 1_555
C30 C29 1.196 1_555 1_555
C31 C30 1.439 1_555 1_555
C32 C31 1.389 1_555 1_555
C33 C32 1.390 1_555 1_555
C34 C33 1.379 1_555 1_555
C35 C34 1.378 1_555 1_555
C36 C31 1.393 1_555 1_555
C37 C8 1.490 1_555 1_555
C38 C37 1.396 1_555 1_555
C39 C38 1.386 1_555 1_555
C40 C39 1.385 1_555 1_555
C41 C40 1.379 1_555 1_555
C42 C37 1.395 1_555 1_555
H1 C2 0.930 1_555 1_555
H2 C3 0.930 1_555 1_555
H3 C4 0.930 1_555 1_555
H4 C5 0.930 1_555 1_555
H5 C6 0.930 1_555 1_555
H6 C7 0.930 1_555 1_555
H7 C16 0.930 1_555 1_555
H8 C17 0.930 1_555 1_555
H9 C18 0.930 1_555 1_555
H10 C19 0.930 1_555 1_555
H11 C20 0.930 1_555 1_555
H12 C24 0.930 1_555 1_555
H13 C25 0.930 1_555 1_555
H14 C26 0.930 1_555 1_555
H15 C27 0.930 1_555 1_555
H16 C28 0.930 1_555 1_555
H17 C32 0.930 1_555 1_555
H18 C33 0.930 1_555 1_555
H19 C34 0.930 1_555 1_555
H20 C35 0.930 1_555 1_555
H21 C36 0.930 1_555 1_555
H22 C38 0.930 1_555 1_555
H23 C39 0.930 1_555 1_555
H24 C40 0.930 1_555 1_555
H25 C41 0.930 1_555 1_555
H26 C42 0.930 1_555 1_555
C12 C13 1.459 1_555 1_555
C13 C14 1.425 1_555 1_555
C19 C20 1.386 1_555 1_555
C27 C28 1.383 1_555 1_555
C35 C36 1.379 1_555 1_555
C41 C42 1.383 1_555 1_555
#END
