
#######################################################################
#
#                 Cambridge Crystallographic Data Centre
#                                CCDC
#
#######################################################################
#
# If this CIF has been generated from an entry in the Cambridge
# Structural Database, then it will include bibliographic, chemical,
# crystal, experimental, refinement or atomic coordinate data resulting
# from the CCDC's data processing and validation procedures.
#
#######################################################################

data_CSD_CIF_HIGNIV
_audit_creation_date 2007-11-16
_audit_creation_method CSD-ConQuest-V1
_database_code_CSD HIGNIV
_database_code_depnum_ccdc_archive 'CCDC 642337'
_chemical_formula_sum 'C34 H44'
_chemical_formula_moiety
;
C34 H44
;
_journal_coden_Cambridge 1350
_journal_volume 9
_journal_year 2007
_journal_page_first 644
_journal_name_full 'CrystEngComm '
loop_
_publ_author_name
"C.Kitamura"
"T.Ohara"
"N.Kawatsuki"
"A.Yoneda"
"T.Kobayashi"
"H.Naito"
"T.Komatsu"
"T.Kitamura"
_chemical_name_systematic
;
1,4,7,10-tetrakis(n-Butyl)tetracene
;
_chemical_melting_point 401
_cell_volume   2695.779
_exptl_crystal_colour 'red'
_exptl_crystal_density_diffrn 1.116
_exptl_special_details
;
Melting point range 401-403K
polymorph A

;
_exptl_crystal_description 'Needle'
_diffrn_ambient_temperature 223.2
#These two values have been output from a single CSD field.
_refine_ls_R_factor_gt 0.0864
_refine_ls_wR_factor_gt 0.0864
_symmetry_cell_setting monoclinic
_symmetry_space_group_name_H-M 'C 2/c'
_symmetry_Int_Tables_number 15
loop_
_symmetry_equiv_pos_site_id
_symmetry_equiv_pos_as_xyz
1 x,y,z
2 1/2+x,1/2+y,z
3 -x,y,1/2-z
4 1/2-x,1/2+y,1/2-z
5 -x,-y,-z
6 -1/2-x,-1/2-y,-z
7 x,-y,-1/2+z
8 -1/2+x,-1/2-y,-1/2+z
_cell_length_a 33.27(4)
_cell_length_b 4.739(4)
_cell_length_c 21.54(2)
_cell_angle_alpha 90
_cell_angle_beta 127.46(1)
_cell_angle_gamma 90
_cell_formula_units_Z 4
loop_
_atom_type_symbol
_atom_type_radius_bond
C 0.68
H 0.23
loop_
_atom_site_label
_atom_site_type_symbol
_atom_site_fract_x
_atom_site_fract_y
_atom_site_fract_z
C1 C 0.6067(1) 0.5028(6) -0.1193(2)
C2 C 0.5724(1) 0.4085(7) -0.1090(2)
C3 C 0.5847(1) 0.2037(6) -0.0522(2)
C4 C 0.6315(1) 0.0892(6) -0.0032(2)
C5 C 0.6698(1) 0.1749(5) -0.0112(1)
C6 C 0.65748(10) 0.3849(5) -0.0694(1)
C7 C 0.6947(1) 0.4696(6) -0.0760(2)
C8 C 0.7437(1) 0.3555(5) -0.0284(1)
C9 C 0.7184(1) 0.0620(5) 0.0350(2)
C10 C 0.5911(1) 0.7159(6) -0.1822(2)
C11 C 0.5771(1) 0.5830(6) -0.2577(2)
C12 C 0.5554(1) 0.7944(7) -0.3241(2)
C13 C 0.5389(2) 0.663(1) -0.4007(2)
C14 C 0.6433(1) -0.1104(6) 0.0599(2)
C15 C 0.6698(1) 0.0382(6) 0.1392(2)
C16 C 0.6772(1) -0.1433(7) 0.2032(2)
C17 C 0.6999(2) 0.0157(8) 0.2782(2)
H1 H 0.536(1) 0.491(7) -0.146(2)
H2 H 0.559(1) 0.142(6) -0.047(2)
H3 H 0.6879(9) 0.628(5) -0.115(1)
H4 H 0.728(1) -0.088(6) 0.077(2)
H5 H 0.618(1) 0.858(7) -0.165(2)
H6 H 0.558(1) 0.831(6) -0.195(2)
H7 H 0.608(1) 0.485(5) -0.247(1)
H8 H 0.548(1) 0.430(6) -0.277(2)
H9 H 0.581(1) 0.943(7) -0.307(2)
H10 H 0.526(1) 0.894(7) -0.331(2)
H11 H 0.569(2) 0.566(9) -0.393(2)
H12 H 0.528(1) 0.805(9) -0.439(2)
H13 H 0.513(2) 0.509(9) -0.419(2)
H14 H 0.664(1) -0.269(6) 0.068(1)
H15 H 0.6089(10) -0.185(5) 0.045(1)
H16 H 0.704(1) 0.102(6) 0.157(2)
H17 H 0.650(1) 0.210(6) 0.133(2)
H18 H 0.699(2) -0.309(9) 0.213(2)
H19 H 0.644(1) -0.216(6) 0.183(2)
H20 H 0.735(2) 0.10(1) 0.305(3)
H21 H 0.680(1) 0.192(8) 0.268(2)
H22 H 0.704(1) -0.106(7) 0.319(2)
C1E C 0.8933(1) -0.0028(6) 0.1193(2)
C2E C 0.9276(1) 0.0915(7) 0.1090(2)
C3E C 0.9153(1) 0.2963(6) 0.0522(2)
C4E C 0.8685(1) 0.4108(6) 0.0032(2)
C5E C 0.8302(1) 0.3251(5) 0.0112(1)
C6E C 0.84252(10) 0.1151(5) 0.0694(1)
C7E C 0.8053(1) 0.0304(6) 0.0760(2)
C8E C 0.7563(1) 0.1445(5) 0.0284(1)
C9E C 0.7816(1) 0.4380(5) -0.0350(2)
C10E C 0.9089(1) -0.2159(6) 0.1822(2)
C11E C 0.9229(1) -0.0830(6) 0.2577(2)
C12E C 0.9446(1) -0.2944(7) 0.3241(2)
C13E C 0.9611(2) -0.163(1) 0.4007(2)
C14E C 0.8567(1) 0.6104(6) -0.0599(2)
C15E C 0.8302(1) 0.4618(6) -0.1392(2)
C16E C 0.8228(1) 0.6433(7) -0.2032(2)
C17E C 0.8001(2) 0.4843(8) -0.2782(2)
H1E H 0.964(1) 0.009(7) 0.146(2)
H2E H 0.941(1) 0.358(6) 0.047(2)
H3E H 0.8121(9) -0.128(5) 0.115(1)
H4E H 0.772(1) 0.588(6) -0.077(2)
H5E H 0.882(1) -0.358(7) 0.165(2)
H6E H 0.942(1) -0.331(6) 0.195(2)
H7E H 0.892(1) 0.015(5) 0.247(1)
H8E H 0.952(1) 0.070(6) 0.277(2)
H9E H 0.919(1) -0.443(7) 0.307(2)
H10E H 0.974(1) -0.394(7) 0.331(2)
H11E H 0.931(2) -0.066(9) 0.393(2)
H12E H 0.972(1) -0.305(9) 0.439(2)
H13E H 0.987(2) -0.009(9) 0.419(2)
H14E H 0.836(1) 0.769(6) -0.068(1)
H15E H 0.8911(10) 0.685(5) -0.045(1)
H16E H 0.796(1) 0.398(6) -0.157(2)
H17E H 0.850(1) 0.290(6) -0.133(2)
H18E H 0.801(2) 0.809(9) -0.213(2)
H19E H 0.856(1) 0.716(6) -0.183(2)
H20E H 0.765(2) 0.40(1) -0.305(3)
H21E H 0.820(1) 0.308(8) -0.268(2)
H22E H 0.796(1) 0.606(7) -0.319(2)
loop_
_geom_bond_atom_site_label_1
_geom_bond_atom_site_label_2
_geom_bond_distance
_geom_bond_site_symmetry_1
_geom_bond_site_symmetry_2
C1 C2 1.364 1_555 1_555
C2 C3 1.413 1_555 1_555
C3 C4 1.354 1_555 1_555
C4 C5 1.444 1_555 1_555
C5 C6 1.451 1_555 1_555
C6 C1 1.454 1_555 1_555
C7 C6 1.389 1_555 1_555
C8 C7 1.403 1_555 1_555
C9 C5 1.391 1_555 1_555
C10 C1 1.506 1_555 1_555
C11 C10 1.529 1_555 1_555
C12 C11 1.521 1_555 1_555
C13 C12 1.520 1_555 1_555
C14 C4 1.499 1_555 1_555
C15 C14 1.536 1_555 1_555
C16 C15 1.513 1_555 1_555
C17 C16 1.505 1_555 1_555
H1 C2 1.040 1_555 1_555
H2 C3 0.972 1_555 1_555
H3 C7 1.044 1_555 1_555
H4 C9 1.036 1_555 1_555
H5 C10 0.994 1_555 1_555
H6 C10 1.103 1_555 1_555
H7 C11 1.019 1_555 1_555
H8 C11 1.071 1_555 1_555
H9 C12 0.988 1_555 1_555
H10 C12 1.012 1_555 1_555
H11 C13 1.020 1_555 1_555
H12 C13 0.949 1_555 1_555
H13 C13 1.009 1_555 1_555
H14 C14 0.961 1_555 1_555
H15 C14 1.045 1_555 1_555
H16 C15 1.001 1_555 1_555
H17 C15 1.004 1_555 1_555
H18 C16 1.000 1_555 1_555
H19 C16 0.971 1_555 1_555
H20 C17 1.018 1_555 1_555
H21 C17 1.004 1_555 1_555
H22 C17 0.989 1_555 1_555
C1E C2E 1.364 1_555 1_555
C2E C3E 1.413 1_555 1_555
C3E C4E 1.354 1_555 1_555
C4E C5E 1.444 1_555 1_555
C5E C6E 1.451 1_555 1_555
C6E C1E 1.454 1_555 1_555
C7E C6E 1.389 1_555 1_555
C8E C8 1.431 1_555 1_555
C9E C8 1.408 1_555 1_555
C10E C1E 1.506 1_555 1_555
C11E C10E 1.529 1_555 1_555
C12E C11E 1.521 1_555 1_555
C13E C12E 1.520 1_555 1_555
C14E C4E 1.499 1_555 1_555
C15E C14E 1.536 1_555 1_555
C16E C15E 1.513 1_555 1_555
C17E C16E 1.505 1_555 1_555
H1E C2E 1.040 1_555 1_555
H2E C3E 0.972 1_555 1_555
H3E C7E 1.044 1_555 1_555
H4E C9E 1.036 1_555 1_555
H5E C10E 0.994 1_555 1_555
H6E C10E 1.103 1_555 1_555
H7E C11E 1.019 1_555 1_555
H8E C11E 1.071 1_555 1_555
H9E C12E 0.988 1_555 1_555
H10E C12E 1.012 1_555 1_555
H11E C13E 1.020 1_555 1_555
H12E C13E 0.949 1_555 1_555
H13E C13E 1.009 1_555 1_555
H14E C14E 0.961 1_555 1_555
H15E C14E 1.045 1_555 1_555
H16E C15E 1.001 1_555 1_555
H17E C15E 1.004 1_555 1_555
H18E C16E 1.000 1_555 1_555
H19E C16E 0.971 1_555 1_555
H20E C17E 1.018 1_555 1_555
H21E C17E 1.004 1_555 1_555
H22E C17E 0.989 1_555 1_555
C9 C8E 1.408 1_555 1_555
C5E C9E 1.391 1_555 1_555
C7E C8E 1.403 1_555 1_555
#END
