
#######################################################################
#
#                 Cambridge Crystallographic Data Centre
#                                CCDC
#
#######################################################################
#
# If this CIF has been generated from an entry in the Cambridge
# Structural Database, then it will include bibliographic, chemical,
# crystal, experimental, refinement or atomic coordinate data resulting
# from the CCDC's data processing and validation procedures.
#
#######################################################################

data_CSD_CIF_HINDPN
_audit_creation_date 1981-12-23
_audit_creation_method CSD-ConQuest-V1
_database_code_CSD HINDPN
_chemical_formula_sum 'C28 H18'
_chemical_formula_moiety
;
C28 H18
;
_journal_coeditor_code "IUCr A20197"
_journal_coden_Cambridge 107
_journal_volume 37
_journal_year 1981
_journal_page_first 1421
_journal_name_full 'Acta Crystallogr.,Sect.B:Struct.Crystallogr.Cryst.Chem. '
loop_
_publ_author_name
"J.C.Dewan"
_chemical_name_systematic
;
1,16-Dihydro-di-indeno(5,4-c:4',5'-g)phenanthrene
;
_cell_volume   1851.741
_exptl_crystal_colour 'light yellow'
_exptl_crystal_density_diffrn 1.271
_diffrn_ambient_temperature ?
_diffrn_special_details
;
The study was carried out at room temperature,in the range 283-303K

;
#These two values have been output from a single CSD field.
_refine_ls_R_factor_gt 0.068
_refine_ls_wR_factor_gt 0.068
_symmetry_cell_setting orthorhombic
_symmetry_space_group_name_H-M 'P b c n'
_symmetry_Int_Tables_number 60
loop_
_symmetry_equiv_pos_site_id
_symmetry_equiv_pos_as_xyz
1 x,y,z
2 1/2-x,1/2+y,z
3 x,-y,1/2+z
4 1/2-x,1/2-y,1/2+z
5 -x,-y,-z
6 -1/2+x,-1/2-y,-z
7 -x,y,-1/2-z
8 -1/2+x,-1/2+y,-1/2-z
_cell_length_a 8.851(3)
_cell_length_b 15.722(5)
_cell_length_c 13.307(4)
_cell_angle_alpha 90
_cell_angle_beta 90
_cell_angle_gamma 90
_cell_formula_units_Z 4
loop_
_atom_type_symbol
_atom_type_radius_bond
C 0.68
H 0.23
loop_
_atom_site_label
_atom_site_type_symbol
_atom_site_fract_x
_atom_site_fract_y
_atom_site_fract_z
C1 C 0.13880 0.35710 0.06210
C2 C 0.00360 0.32950 0.03310
C3 C -0.11140 0.38570 0.06960
C4 C -0.26700 0.38440 0.05300
C5 C -0.35100 0.44980 0.08610
C6 C -0.28670 0.51970 0.13810
C7 C -0.37170 0.59560 0.15630
C8 C -0.30650 0.66650 0.19060
C9 C -0.15320 0.66650 0.21950
C10 C -0.07500 0.74420 0.24430
C11 C -0.07120 0.58950 0.22420
C12 C -0.13170 0.51830 0.16660
C13 C -0.04530 0.45010 0.12730
C14 C 0.12250 0.43450 0.12610
H1 H 0.23220 0.33130 0.04460
H2 H -0.01410 0.27990 -0.00600
H3 H -0.31280 0.33810 0.01880
H4 H -0.45680 0.44930 0.07440
H5 H -0.47730 0.59560 0.14350
H6 H -0.36400 0.71730 0.19570
H7 H -0.13030 0.79550 0.25260
H8 H 0.15950 0.42430 0.19200
H9 H 0.17470 0.48140 0.09750
C10F C 0.07500 0.74420 0.25570
C11F C 0.07120 0.58950 0.27580
C9F C 0.15320 0.66650 0.28050
H7F H 0.13030 0.79550 0.24740
C12F C 0.13170 0.51830 0.33340
C8F C 0.30650 0.66650 0.30940
C6F C 0.28670 0.51970 0.36190
C13F C 0.04530 0.45010 0.37270
C7F C 0.37170 0.59560 0.34370
H6F H 0.36400 0.71730 0.30430
C5F C 0.35100 0.44980 0.41390
C3F C 0.11140 0.38570 0.43040
C14F C -0.12250 0.43450 0.37390
H5F H 0.47730 0.59560 0.35650
C4F C 0.26700 0.38440 0.44700
H4F H 0.45680 0.44930 0.42560
C2F C -0.00360 0.32950 0.46690
C1F C -0.13880 0.35710 0.43790
H8F H -0.15950 0.42430 0.30800
H9F H -0.17470 0.48140 0.40250
H3F H 0.31280 0.33810 0.48120
H2F H 0.01410 0.27990 0.50600
H1F H -0.23220 0.33130 0.45540
loop_
_geom_bond_atom_site_label_1
_geom_bond_atom_site_label_2
_geom_bond_distance
_geom_bond_site_symmetry_1
_geom_bond_site_symmetry_2
C1 C2 1.330 1_555 1_555
C2 C3 1.433 1_555 1_555
C3 C4 1.395 1_555 1_555
C4 C5 1.343 1_555 1_555
C5 C6 1.418 1_555 1_555
C6 C7 1.431 1_555 1_555
C7 C8 1.336 1_555 1_555
C8 C9 1.410 1_555 1_555
C9 C10 1.442 1_555 1_555
C10 H7 0.950 1_555 1_555
C11 C9 1.413 1_555 1_555
C12 C6 1.424 1_555 1_555
C13 C3 1.399 1_555 1_555
C14 C1 1.492 1_555 1_555
H1 C1 0.950 1_555 1_555
H2 C2 0.950 1_555 1_555
H3 C4 0.949 1_555 1_555
H4 C5 0.949 1_555 1_555
H5 C7 0.950 1_555 1_555
H6 C8 0.949 1_555 1_555
H8 C14 0.950 1_555 1_555
H9 C14 0.950 1_555 1_555
C10F C10 1.336 1_555 1_555
C11F C11 1.435 1_555 1_555
C9F C10F 1.442 1_555 1_555
H7F C10F 0.950 1_555 1_555
C12F C11F 1.459 1_555 1_555
C8F C9F 1.410 1_555 1_555
C6F C12F 1.424 1_555 1_555
C13F C12F 1.417 1_555 1_555
C7F C8F 1.336 1_555 1_555
H6F C8F 0.949 1_555 1_555
C5F C6F 1.418 1_555 1_555
C3F C13F 1.399 1_555 1_555
C14F C13F 1.505 1_555 1_555
H5F C7F 0.950 1_555 1_555
C4F C5F 1.343 1_555 1_555
H4F C5F 0.949 1_555 1_555
C2F C3F 1.433 1_555 1_555
C1F C14F 1.492 1_555 1_555
H8F C14F 0.950 1_555 1_555
H9F C14F 0.950 1_555 1_555
H3F C4F 0.949 1_555 1_555
H2F C2F 0.950 1_555 1_555
H1F C1F 0.950 1_555 1_555
C11 C12 1.459 1_555 1_555
C12 C13 1.417 1_555 1_555
C13 C14 1.505 1_555 1_555
C11F C9F 1.413 1_555 1_555
C6F C7F 1.431 1_555 1_555
C3F C4F 1.395 1_555 1_555
C2F C1F 1.330 1_555 1_555
#END
