
#######################################################################
#
#                 Cambridge Crystallographic Data Centre
#                                CCDC
#
#######################################################################
#
# If this CIF has been generated from an entry in the Cambridge
# Structural Database, then it will include bibliographic, chemical,
# crystal, experimental, refinement or atomic coordinate data resulting
# from the CCDC's data processing and validation procedures.
#
#######################################################################

data_CSD_CIF_HIPWEJ
_audit_creation_date 2008-02-11
_audit_creation_method CSD-ConQuest-V1
_database_code_CSD HIPWEJ
_database_code_depnum_ccdc_archive 'CCDC 619577'
_chemical_formula_sum 'C28 H18'
_chemical_formula_moiety
;
C28 H18
;
_journal_coden_Cambridge 24
_journal_volume 48
_journal_year 2007
_journal_page_first 7994
_journal_name_full 'Tetrahedron Lett. '
loop_
_publ_author_name
"R.N.Ram"
"R.K.Tittal"
"S.Upreti"
_chemical_name_systematic
;
1,1'-Biphenanthrene
;
_chemical_melting_point 480.15
_cell_volume    923.915
_exptl_crystal_colour 'colorless'
_exptl_crystal_density_diffrn 1.274
_exptl_crystal_description 'block'
_diffrn_ambient_temperature 298
#These two values have been output from a single CSD field.
_refine_ls_R_factor_gt 0.0551
_refine_ls_wR_factor_gt 0.0551
_symmetry_cell_setting monoclinic
_symmetry_space_group_name_H-M 'P 21'
_symmetry_Int_Tables_number 4
loop_
_symmetry_equiv_pos_site_id
_symmetry_equiv_pos_as_xyz
1 x,y,z
2 -x,1/2+y,-z
_cell_length_a 11.1298(16)
_cell_length_b 6.2761(9)
_cell_length_c 13.512(2)
_cell_angle_alpha 90
_cell_angle_beta 101.793(2)
_cell_angle_gamma 90
_cell_formula_units_Z 2
loop_
_atom_type_symbol
_atom_type_radius_bond
C 0.68
H 0.23
loop_
_atom_site_label
_atom_site_type_symbol
_atom_site_fract_x
_atom_site_fract_y
_atom_site_fract_z
C1 C -0.0211(2) 0.0320(5) 0.74877(18)
H1 H -0.07040 0.02990 0.79670
C2 C -0.0420(3) -0.1135(5) 0.67045(18)
H2 H -0.10710 -0.20860 0.66480
C3 C 0.0315(2) -0.1195(5) 0.60163(18)
H3 H 0.01900 -0.22420 0.55190
C4 C 0.1260(2) 0.0301(4) 0.60456(16)
C5 C 0.2041(2) 0.0331(5) 0.53041(17)
C6 C 0.1996(3) -0.1265(5) 0.45641(19)
H4 H 0.14600 -0.24080 0.45500
C7 C 0.2725(3) -0.1159(7) 0.3870(2)
H5 H 0.26830 -0.22330 0.33890
C8 C 0.3526(3) 0.0523(7) 0.3869(2)
H6 H 0.40030 0.05920 0.33800
C9 C 0.3617(3) 0.2074(6) 0.4581(2)
H7 H 0.41730 0.31830 0.45860
C10 C 0.2878(2) 0.2019(5) 0.53105(18)
C11 C 0.2956(2) 0.3639(5) 0.60611(18)
H8 H 0.34780 0.47900 0.60460
C12 C 0.2298(2) 0.3552(4) 0.67872(18)
H9 H 0.24050 0.46010 0.72840
C13 C 0.1430(2) 0.1870(4) 0.68135(17)
C14 C 0.0717(2) 0.1804(4) 0.75688(16)
C15 C 0.0963(2) 0.3297(4) 0.84488(17)
C16 C 0.2013(2) 0.3001(4) 0.92366(17)
C17 C 0.2784(2) 0.1182(5) 0.92649(18)
H10 H 0.26180 0.02010 0.87390
C18 C 0.3746(2) 0.0840(5) 1.00289(19)
H11 H 0.42100 -0.03920 1.00320
C19 C 0.4067(2) 0.2331(5) 1.08351(18)
C20 C 0.5117(3) 0.2016(6) 1.16058(19)
H12 H 0.55930 0.08000 1.16000
C21 C 0.5437(3) 0.3474(7) 1.2356(2)
H13 H 0.61340 0.32600 1.28570
C22 C 0.4731(3) 0.5268(7) 1.2376(2)
H14 H 0.49530 0.62450 1.28990
C23 C 0.3708(3) 0.5643(5) 1.16398(19)
H15 H 0.32510 0.68760 1.16630
C24 C 0.3344(2) 0.4166(4) 1.08467(17)
C25 C 0.2268(2) 0.4485(4) 1.00429(17)
C26 C 0.1457(2) 0.6189(4) 1.00481(19)
H16 H 0.16280 0.71980 1.05620
C27 C 0.0421(3) 0.6398(5) 0.9315(2)
H17 H -0.01200 0.75120 0.93460
C28 C 0.0171(3) 0.4945(5) 0.85160(19)
H18 H -0.05410 0.50950 0.80230
loop_
_geom_bond_atom_site_label_1
_geom_bond_atom_site_label_2
_geom_bond_distance
_geom_bond_site_symmetry_1
_geom_bond_site_symmetry_2
C1 H1 0.931 1_555 1_555
C2 C1 1.381 1_555 1_555
H2 C2 0.930 1_555 1_555
C3 C2 1.359 1_555 1_555
H3 C3 0.930 1_555 1_555
C4 C3 1.404 1_555 1_555
C5 C4 1.455 1_555 1_555
C6 C5 1.409 1_555 1_555
H4 C6 0.931 1_555 1_555
C7 C6 1.361 1_555 1_555
H5 C7 0.931 1_555 1_555
C8 C7 1.382 1_555 1_555
H6 C8 0.929 1_555 1_555
C9 C8 1.358 1_555 1_555
H7 C9 0.930 1_555 1_555
C10 C5 1.410 1_555 1_555
C11 C10 1.426 1_555 1_555
H8 C11 0.930 1_555 1_555
C12 C11 1.340 1_555 1_555
H9 C12 0.930 1_555 1_555
C13 C4 1.415 1_555 1_555
C14 C1 1.378 1_555 1_555
C15 C14 1.495 1_555 1_555
C16 C15 1.423 1_555 1_555
C17 C16 1.424 1_555 1_555
H10 C17 0.930 1_555 1_555
C18 C17 1.344 1_555 1_555
H11 C18 0.929 1_555 1_555
C19 C18 1.425 1_555 1_555
C20 C19 1.411 1_555 1_555
H12 C20 0.930 1_555 1_555
C21 C20 1.358 1_555 1_555
H13 C21 0.929 1_555 1_555
C22 C21 1.376 1_555 1_555
H14 C22 0.930 1_555 1_555
C23 C22 1.371 1_555 1_555
H15 C23 0.930 1_555 1_555
C24 C19 1.407 1_555 1_555
C25 C16 1.417 1_555 1_555
C26 C25 1.400 1_555 1_555
H16 C26 0.930 1_555 1_555
C27 C26 1.364 1_555 1_555
H17 C27 0.929 1_555 1_555
C28 C15 1.374 1_555 1_555
H18 C28 0.930 1_555 1_555
C9 C10 1.407 1_555 1_555
C12 C13 1.436 1_555 1_555
C13 C14 1.416 1_555 1_555
C23 C24 1.412 1_555 1_555
C24 C25 1.457 1_555 1_555
C27 C28 1.397 1_555 1_555
#END
