
#######################################################################
#
#                 Cambridge Crystallographic Data Centre
#                                CCDC
#
#######################################################################
#
# If this CIF has been generated from an entry in the Cambridge
# Structural Database, then it will include bibliographic, chemical,
# crystal, experimental, refinement or atomic coordinate data resulting
# from the CCDC's data processing and validation procedures.
#
#######################################################################

data_CSD_CIF_HIPWAF
_audit_creation_date 2008-02-11
_audit_creation_method CSD-ConQuest-V1
_database_code_CSD HIPWAF
_database_code_depnum_ccdc_archive 'CCDC 619576'
_chemical_formula_sum 'C22 H18'
_chemical_formula_moiety
;
C22 H18
;
_journal_coden_Cambridge 24
_journal_volume 48
_journal_year 2007
_journal_page_first 7994
_journal_name_full 'Tetrahedron Lett. '
loop_
_publ_author_name
"R.N.Ram"
"R.K.Tittal"
"S.Upreti"
_chemical_name_systematic
;
6,6'-Dimethyl-1,1'-binaphthalene
;
_chemical_melting_point 398.15
_cell_volume   3203.098
_exptl_crystal_colour 'colorless'
_exptl_crystal_density_diffrn 1.171
_exptl_crystal_description 'rod'
_diffrn_ambient_temperature 273
#These two values have been output from a single CSD field.
_refine_ls_R_factor_gt 0.0661
_refine_ls_wR_factor_gt 0.0661
_symmetry_cell_setting monoclinic
_symmetry_space_group_name_H-M 'P 21/c'
_symmetry_Int_Tables_number 14
loop_
_symmetry_equiv_pos_site_id
_symmetry_equiv_pos_as_xyz
1 x,y,z
2 -x,1/2+y,1/2-z
3 -x,-y,-z
4 x,-1/2-y,-1/2+z
_cell_length_a 18.471(2)
_cell_length_b 7.4022(9)
_cell_length_c 24.183(3)
_cell_angle_alpha 90
_cell_angle_beta 104.363(2)
_cell_angle_gamma 90
_cell_formula_units_Z 8
loop_
_atom_type_symbol
_atom_type_radius_bond
C 0.68
H 0.23
loop_
_atom_site_label
_atom_site_type_symbol
_atom_site_fract_x
_atom_site_fract_y
_atom_site_fract_z
C1 C 0.36466(16) 0.4757(5) 0.14747(14)
H1 H 0.39060 0.40710 0.18010
H2 H 0.39480 0.57680 0.14220
H3 H 0.35510 0.40040 0.11410
C2 C 0.29171(13) 0.5429(4) 0.15688(11)
C3 C 0.26200(13) 0.4719(3) 0.1982(1)
H4 H 0.28790 0.38090 0.22140
C4 C 0.19340(12) 0.5312(3) 0.20717(9)
C5 C 0.16364(13) 0.4607(3) 0.25091(9)
H5 H 0.18910 0.36910 0.27420
C6 C 0.09866(13) 0.5240(3) 0.25967(9)
H6 H 0.07990 0.47610 0.28880
C7 C 0.05964(12) 0.6613(3) 0.22491(9)
H7 H 0.01490 0.70330 0.23130
C8 C 0.08582(11) 0.7350(3) 0.18186(8)
C9 C 0.15372(11) 0.6705(3) 0.17194(8)
C10 C 0.18517(13) 0.7414(3) 0.12903(9)
H8 H 0.15990 0.83140 0.10500
C11 C 0.25181(14) 0.6801(4) 0.12239(10)
H9 H 0.27160 0.73060 0.09410
C12 C 0.04435(11) 0.8884(3) 0.14765(8)
C13 C 0.05395(13) 1.0597(3) 0.16906(10)
H10 H 0.08880 1.08010 0.20350
C14 C 0.01272(14) 1.2052(3) 0.14054(10)
H11 H 0.02090 1.32110 0.15570
C15 C -0.03920(13) 1.1771(3) 0.09076(10)
H12 H -0.06740 1.27400 0.07260
C16 C -0.05116(11) 1.0050(3) 0.06620(9)
C17 C -0.10574(13) 0.9717(3) 0.01485(9)
H13 H -0.13510 1.06740 -0.00290
C18 C -0.11695(13) 0.8064(3) -0.00936(9)
C19 C -0.17734(17) 0.7697(4) -0.06290(11)
H14 H -0.20580 0.87770 -0.07440
H15 H -0.20970 0.67600 -0.05560
H16 H -0.15490 0.73190 -0.09280
C20 C -0.07088(13) 0.6636(3) 0.01742(9)
H17 H -0.07620 0.55020 0.00030
C21 C -0.00767(11) 0.8581(3) 0.09398(8)
C22 C -0.01911(12) 0.6872(3) 0.06744(9)
H18 H 0.00930 0.58930 0.08450
C23 C 0.41934(18) -0.0357(5) 0.22474(13)
H19 H 0.40090 -0.15380 0.21220
H20 H 0.47190 -0.04230 0.24230
H21 H 0.41090 0.04450 0.19260
C24 C 0.37907(14) 0.0341(3) 0.26718(10)
C25 C 0.31192(13) -0.0346(3) 0.27066(10)
H22 H 0.29070 -0.12730 0.24600
C26 C 0.27355(12) 0.0295(3) 0.31015(9)
C27 C 0.20291(13) -0.0380(3) 0.31193(10)
H23 H 0.18200 -0.13260 0.28800
C28 C 0.16503(13) 0.0334(3) 0.34814(10)
H24 H 0.11790 -0.01060 0.34820
C29 C 0.19655(12) 0.1731(3) 0.38549(9)
H25 H 0.16980 0.22090 0.41000
C30 C 0.26581(12) 0.2407(3) 0.38667(9)
C31 C 0.30590(11) 0.1700(3) 0.34826(8)
C32 C 0.37592(12) 0.2367(3) 0.34467(9)
H26 H 0.39880 0.32730 0.36960
C33 C 0.41065(13) 0.1717(3) 0.30577(10)
H27 H 0.45680 0.21930 0.30450
C34 C 0.29647(11) 0.3927(3) 0.42622(9)
C35 C 0.26422(13) 0.5594(3) 0.41733(10)
H28 H 0.22340 0.57710 0.38640
C36 C 0.29130(15) 0.7041(3) 0.45370(11)
H29 H 0.26880 0.81700 0.44650
C37 C 0.35005(15) 0.6810(3) 0.49934(10)
H30 H 0.36760 0.77860 0.52310
C38 C 0.38500(12) 0.5119(3) 0.51151(9)
C39 C 0.44545(13) 0.4830(3) 0.55951(9)
H31 H 0.46300 0.57960 0.58370
C40 C 0.47882(13) 0.3196(3) 0.57161(9)
C41 C 0.54372(15) 0.2870(4) 0.62251(11)
H32 H 0.54680 0.38400 0.64930
H33 H 0.58920 0.28130 0.61020
H34 H 0.53640 0.17500 0.64040
C42 C 0.45205(13) 0.1758(3) 0.53447(9)
H35 H 0.47460 0.06310 0.54190
C43 C 0.39387(12) 0.1972(3) 0.48787(9)
H36 H 0.37720 0.09860 0.46430
C44 C 0.35840(12) 0.3649(3) 0.47456(9)
loop_
_geom_bond_atom_site_label_1
_geom_bond_atom_site_label_2
_geom_bond_distance
_geom_bond_site_symmetry_1
_geom_bond_site_symmetry_2
C1 H1 0.960 1_555 1_555
H2 C1 0.960 1_555 1_555
H3 C1 0.960 1_555 1_555
C2 C1 1.506 1_555 1_555
C3 C2 1.359 1_555 1_555
H4 C3 0.930 1_555 1_555
C4 C3 1.408 1_555 1_555
C5 C4 1.408 1_555 1_555
H5 C5 0.931 1_555 1_555
C6 C5 1.353 1_555 1_555
H6 C6 0.929 1_555 1_555
C7 C6 1.399 1_555 1_555
H7 C7 0.931 1_555 1_555
C8 C7 1.366 1_555 1_555
C9 C4 1.420 1_555 1_555
C10 C9 1.410 1_555 1_555
H8 C10 0.930 1_555 1_555
C11 C2 1.402 1_555 1_555
H9 C11 0.930 1_555 1_555
C12 C8 1.499 1_555 1_555
C13 C12 1.364 1_555 1_555
H10 C13 0.930 1_555 1_555
C14 C13 1.398 1_555 1_555
H11 C14 0.930 1_555 1_555
C15 C14 1.356 1_555 1_555
H12 C15 0.930 1_555 1_555
C16 C15 1.400 1_555 1_555
C17 C16 1.414 1_555 1_555
H13 C17 0.930 1_555 1_555
C18 C17 1.350 1_555 1_555
C19 C18 1.509 1_555 1_555
H14 C19 0.959 1_555 1_555
H15 C19 0.960 1_555 1_555
H16 C19 0.960 1_555 1_555
C20 C18 1.410 1_555 1_555
H17 C20 0.930 1_555 1_555
C21 C12 1.428 1_555 1_555
C22 C20 1.354 1_555 1_555
H18 C22 0.929 1_555 1_555
C23 H19 0.960 1_555 1_555
H20 C23 0.960 1_555 1_555
H21 C23 0.960 1_555 1_555
C24 C23 1.501 1_555 1_555
C25 C24 1.362 1_555 1_555
H22 C25 0.930 1_555 1_555
C26 C25 1.405 1_555 1_555
C27 C26 1.408 1_555 1_555
H23 C27 0.929 1_555 1_555
C28 C27 1.356 1_555 1_555
H24 C28 0.930 1_555 1_555
C29 C28 1.401 1_555 1_555
H25 C29 0.931 1_555 1_555
C30 C29 1.367 1_555 1_555
C31 C26 1.419 1_555 1_555
C32 C31 1.407 1_555 1_555
H26 C32 0.930 1_555 1_555
C33 C24 1.407 1_555 1_555
H27 C33 0.930 1_555 1_555
C34 C30 1.494 1_555 1_555
C35 C34 1.364 1_555 1_555
H28 C35 0.930 1_555 1_555
C36 C35 1.397 1_555 1_555
H29 C36 0.930 1_555 1_555
C37 C36 1.353 1_555 1_555
H30 C37 0.930 1_555 1_555
C38 C37 1.406 1_555 1_555
C39 C38 1.413 1_555 1_555
H31 C39 0.930 1_555 1_555
C40 C39 1.356 1_555 1_555
C41 C40 1.509 1_555 1_555
H32 C41 0.959 1_555 1_555
H33 C41 0.959 1_555 1_555
H34 C41 0.960 1_555 1_555
C42 C40 1.401 1_555 1_555
H35 C42 0.930 1_555 1_555
C43 C42 1.360 1_555 1_555
H36 C43 0.930 1_555 1_555
C44 C34 1.433 1_555 1_555
C8 C9 1.417 1_555 1_555
C10 C11 1.358 1_555 1_555
C16 C21 1.418 1_555 1_555
C21 C22 1.411 1_555 1_555
C30 C31 1.423 1_555 1_555
C32 C33 1.352 1_555 1_555
C38 C44 1.416 1_555 1_555
C43 C44 1.403 1_555 1_555
#END
