
#######################################################################
#
#                 Cambridge Crystallographic Data Centre
#                                CCDC
#
#######################################################################
#
# If this CIF has been generated from an entry in the Cambridge
# Structural Database, then it will include bibliographic, chemical,
# crystal, experimental, refinement or atomic coordinate data resulting
# from the CCDC's data processing and validation procedures.
#
#######################################################################

data_CSD_CIF_HIQVAE
_audit_creation_date 1999-06-09
_audit_creation_method CSD-ConQuest-V1
_database_code_CSD HIQVAE
_database_code_depnum_ccdc_archive 'CCDC 131164'
_chemical_formula_sum 'C18 H10'
_chemical_formula_moiety
;
C18 H10
;
_journal_coeditor_code "IUCr GD1006"
_journal_coden_Cambridge 591
_journal_volume 55
_journal_year 1999
_journal_page_first 659
_journal_name_full 'Acta Crystallogr.,Sect.C:Cryst.Struct.Commun. '
loop_
_publ_author_name
"M.Lutz"
"A.L.Spek"
"M.Sarobe"
"L.W.Jenneskens"
_chemical_name_systematic
;
Cyclopenta(cd)fluoranthene
;
_chemical_name_common
;
Acefluoranthylene
;
_cell_volume   1109.842
_exptl_crystal_colour 'red'
_exptl_crystal_density_diffrn 1.354
_exptl_crystal_description 'block'
_diffrn_ambient_temperature 150
#These two values have been output from a single CSD field.
_refine_ls_R_factor_gt 0.034
_refine_ls_wR_factor_gt 0.034
_symmetry_cell_setting orthorhombic
_symmetry_space_group_name_H-M 'P n a 21'
_symmetry_Int_Tables_number 33
loop_
_symmetry_equiv_pos_site_id
_symmetry_equiv_pos_as_xyz
1 x,y,z
2 -x,-y,1/2+z
3 1/2-x,1/2+y,1/2+z
4 1/2+x,1/2-y,z
_cell_length_a 12.5684(9)
_cell_length_b 14.4723(10)
_cell_length_c 6.1016(9)
_cell_angle_alpha 90
_cell_angle_beta 90
_cell_angle_gamma 90
_cell_formula_units_Z 4
loop_
_atom_type_symbol
_atom_type_radius_bond
C 0.68
H 0.23
loop_
_atom_site_label
_atom_site_type_symbol
_atom_site_fract_x
_atom_site_fract_y
_atom_site_fract_z
C1 C 0.50489(13) 0.23562(12) 0.3118(4)
H1 H 0.49740 0.27270 0.18410
C2 C 0.58964(15) 0.24977(14) 0.4553(4)
H2 H 0.64030 0.29670 0.42430
C3 C 0.60110(16) 0.19652(14) 0.6420(4)
H3 H 0.65950 0.20730 0.73740
C4 C 0.52744(15) 0.12657(13) 0.6926(4)
H4 H 0.53500 0.09060 0.82190
C5 C 0.44368(13) 0.11119(12) 0.5502(3)
C6 C 0.35700(13) 0.04131(12) 0.5538(3)
C7 C 0.32653(15) -0.03494(13) 0.6764(3)
H5 H 0.36480 -0.05080 0.80530
C8 C 0.23662(15) -0.09051(13) 0.6083(4)
H6 H 0.21660 -0.14260 0.69350
C9 C 0.17928(14) -0.06904(12) 0.4213(4)
C10 C 0.21172(14) 0.00997(12) 0.3050(3)
C11 C 0.15565(14) 0.02566(12) 0.1111(3)
C12 C 0.19005(14) 0.09809(13) -0.0178(3)
H7 H 0.15310 0.11230 -0.14940
C13 C 0.28144(15) 0.15253(13) 0.0445(3)
H8 H 0.30460 0.20140 -0.04790
C14 C 0.33562(14) 0.13446(12) 0.2371(3)
C15 C 0.43178(13) 0.16686(12) 0.3579(3)
C16 C 0.29673(14) 0.06148(12) 0.3658(3)
C17 C 0.09160(15) -0.10657(13) 0.2836(4)
H9 H 0.05170 -0.16070 0.31570
C18 C 0.07723(14) -0.05162(14) 0.1048(4)
H10 H 0.02540 -0.06110 -0.00640
loop_
_geom_bond_atom_site_label_1
_geom_bond_atom_site_label_2
_geom_bond_distance
_geom_bond_site_symmetry_1
_geom_bond_site_symmetry_2
C1 H1 0.951 1_555 1_555
C2 C1 1.394 1_555 1_555
H2 C2 0.950 1_555 1_555
C3 C2 1.383 1_555 1_555
H3 C3 0.950 1_555 1_555
C4 C3 1.406 1_555 1_555
H4 C4 0.950 1_555 1_555
C5 C4 1.383 1_555 1_555
C6 C5 1.487 1_555 1_555
C7 C6 1.387 1_555 1_555
H5 C7 0.950 1_555 1_555
C8 C7 1.448 1_555 1_555
H6 C8 0.950 1_555 1_555
C9 C8 1.385 1_555 1_555
C10 C9 1.406 1_555 1_555
C11 C10 1.396 1_555 1_555
C12 C11 1.380 1_555 1_555
H7 C12 0.950 1_555 1_555
C13 C12 1.444 1_555 1_555
H8 C13 0.950 1_555 1_555
C14 C13 1.383 1_555 1_555
C15 C1 1.383 1_555 1_555
C16 C6 1.405 1_555 1_555
C17 C9 1.488 1_555 1_555
H9 C17 0.951 1_555 1_555
C18 C11 1.491 1_555 1_555
H10 C18 0.951 1_555 1_555
C5 C15 1.431 1_555 1_555
C10 C16 1.355 1_555 1_555
C14 C15 1.491 1_555 1_555
C14 C16 1.404 1_555 1_555
C17 C18 1.362 1_555 1_555
#END
