
#######################################################################
#
#                 Cambridge Crystallographic Data Centre
#                                CCDC
#
#######################################################################
#
# If this CIF has been generated from an entry in the Cambridge
# Structural Database, then it will include bibliographic, chemical,
# crystal, experimental, refinement or atomic coordinate data resulting
# from the CCDC's data processing and validation procedures.
#
#######################################################################

data_CSD_CIF_HNCBAN
_audit_creation_date 1976-05-03
_audit_creation_method CSD-ConQuest-V1
_database_code_CSD HNCBAN
_chemical_formula_sum 'C22 H14'
_chemical_formula_moiety
;
C22 H14
;
_journal_coeditor_code "IUCr A13100"
_journal_coden_Cambridge 107
_journal_volume 32
_journal_year 1976
_journal_page_first 306
_journal_name_full 'Acta Crystallogr.,Sect.B:Struct.Crystallogr.Cryst.Chem. '
loop_
_publ_author_name
"A.C.Hazell"
"A.Weigelt"
_chemical_name_systematic
;
6b,12b-Dihydronaphtho(2,3-j)cyclobut(a)acenaphthylene
;
_cell_volume   1405.578
_exptl_crystal_density_diffrn 1.29
_exptl_special_details
;
X/A OF H20 GIVEN AS 1.190 SHOULD BE 1.119

;
_diffrn_ambient_temperature ?
_diffrn_special_details
;
The study was carried out at room temperature,in the range 283-303K

;
#These two values have been output from a single CSD field.
_refine_ls_R_factor_gt 0.063
_refine_ls_wR_factor_gt 0.063
_symmetry_cell_setting monoclinic
_symmetry_space_group_name_H-M 'P 21/c'
_symmetry_Int_Tables_number 14
loop_
_symmetry_equiv_pos_site_id
_symmetry_equiv_pos_as_xyz
1 x,y,z
2 -x,1/2+y,1/2-z
3 -x,-y,-z
4 x,-1/2-y,-1/2+z
_cell_length_a 8.56(2)
_cell_length_b 10.93(2)
_cell_length_c 15.19(2)
_cell_angle_alpha 90
_cell_angle_beta 98.5(2)
_cell_angle_gamma 90
_cell_formula_units_Z 4
loop_
_atom_type_symbol
_atom_type_radius_bond
C 0.68
H 0.23
loop_
_atom_site_label
_atom_site_type_symbol
_atom_site_fract_x
_atom_site_fract_y
_atom_site_fract_z
C1 C -0.13560 0.10150 -0.42110
C2 C -0.45020 0.41370 -0.64190
C3 C -0.59300 0.45380 -0.68840
C4 C -0.64610 0.57040 -0.67880
C5 C -0.55180 0.65040 -0.62470
C6 C -0.41440 0.61570 -0.57910
C7 C -0.35400 0.49550 -0.58510
C8 C -0.21060 0.45820 -0.53590
C9 C -0.16590 0.34250 -0.54520
C10 C -0.03830 0.24690 -0.51410
C11 C -0.03480 0.20270 -0.42130
C12 C -0.16150 0.04150 -0.34280
C13 C 0.03760 0.24750 -0.34210
C14 C 0.01220 0.18800 -0.26350
C15 C -0.08690 0.09190 -0.26400
C16 C -0.26660 -0.05620 -0.35560
C17 C -0.33300 -0.09340 -0.43950
C18 C -0.29870 -0.03320 -0.51490
C19 C -0.20000 0.06530 -0.50690
C20 C -0.14780 0.15140 -0.57410
C21 C -0.25800 0.25850 -0.59960
C22 C -0.39640 0.29070 -0.64880
H1 H -0.65500 0.39300 -0.72300
H2 H -0.75300 0.59100 -0.72200
H3 H -0.59200 0.72300 -0.61300
H4 H -0.33900 0.67000 -0.54000
H5 H -0.15200 0.52500 -0.50400
H6 H 0.07000 0.26600 -0.52300
H7 H 0.11900 0.31100 -0.34100
H8 H 0.06400 0.22100 -0.20700
H9 H -0.10300 0.05800 -0.21200
H10 H -0.31200 -0.08300 -0.32100
H11 H -0.42700 -0.15400 -0.45200
H12 H -0.33200 -0.05500 -0.56900
H13 H -0.08500 0.11300 -0.61600
H14 H -0.45300 0.23900 -0.68800
loop_
_geom_bond_atom_site_label_1
_geom_bond_atom_site_label_2
_geom_bond_distance
_geom_bond_site_symmetry_1
_geom_bond_site_symmetry_2
C1 C11 1.403 1_555 1_555
C2 C3 1.389 1_555 1_555
C3 C4 1.368 1_555 1_555
C4 C5 1.377 1_555 1_555
C5 C6 1.329 1_555 1_555
C6 C7 1.420 1_555 1_555
C7 C2 1.418 1_555 1_555
C8 C7 1.400 1_555 1_555
C9 C8 1.335 1_555 1_555
C10 C9 1.535 1_555 1_555
C11 C10 1.486 1_555 1_555
C12 C1 1.404 1_555 1_555
C13 C11 1.360 1_555 1_555
C14 C13 1.404 1_555 1_555
C15 C12 1.385 1_555 1_555
C16 C12 1.391 1_555 1_555
C17 C16 1.378 1_555 1_555
C18 C17 1.389 1_555 1_555
C19 C1 1.395 1_555 1_555
C20 C10 1.596 1_555 1_555
C21 C9 1.398 1_555 1_555
C22 C2 1.430 1_555 1_555
H1 C3 0.958 1_555 1_555
H2 C4 1.068 1_555 1_555
H3 C5 0.893 1_555 1_555
H4 C6 1.004 1_555 1_555
H5 C8 0.973 1_555 1_555
H6 C10 0.979 1_555 1_555
H7 C13 0.982 1_555 1_555
H8 C14 0.975 1_555 1_555
H9 C15 0.901 1_555 1_555
H10 C16 0.757 1_555 1_555
H11 C17 1.038 1_555 1_555
H12 C18 0.863 1_555 1_555
H13 C20 0.986 1_555 1_555
H14 C22 0.907 1_555 1_555
C14 C15 1.349 1_555 1_555
C18 C19 1.363 1_555 1_555
C19 C20 1.504 1_555 1_555
C20 C21 1.517 1_555 1_555
C21 C22 1.351 1_555 1_555
#END
