
#######################################################################
#
#                 Cambridge Crystallographic Data Centre
#                                CCDC
#
#######################################################################
#
# If this CIF has been generated from an entry in the Cambridge
# Structural Database, then it will include bibliographic, chemical,
# crystal, experimental, refinement or atomic coordinate data resulting
# from the CCDC's data processing and validation procedures.
#
#######################################################################

data_CSD_CIF_HONQAE01
_audit_creation_date 2016-10-21
_audit_creation_method CSD-ConQuest-V1
_database_code_CSD HONQAE01
_database_code_depnum_ccdc_archive 'CCDC 926915'
_chemical_formula_sum 'C26 H28'
_chemical_formula_moiety
;
C26 H28
;
_journal_coden_Cambridge 1078
_journal_year 2016
_journal_name_full 'CSD Communication(Private Communication) '
loop_
_publ_author_name
"C.Kitamura"
_chemical_name_systematic
;
2,3-dibutyltetracene
;
_cell_volume   7643.797
_exptl_crystal_colour 'orange'
_exptl_crystal_density_diffrn 1.183
_exptl_special_details
;
Department of Materials Science, School of Engineering, The University of 
Shiga Prefecture, 2500 Hassaka-cho, Hikone, Shiga 522-8533, Japan
;
_exptl_crystal_description 'prism'
_diffrn_ambient_temperature 100
#These two values have been output from a single CSD field.
_refine_ls_R_factor_gt 0.1588
_refine_ls_wR_factor_gt 0.1588
_symmetry_cell_setting monoclinic
_symmetry_space_group_name_H-M 'C 2/c'
_symmetry_Int_Tables_number 15
loop_
_symmetry_equiv_pos_site_id
_symmetry_equiv_pos_as_xyz
1 x,y,z
2 -x,y,1/2-z
3 1/2+x,1/2+y,z
4 1/2-x,1/2+y,1/2-z
5 -x,-y,-z
6 x,-y,-1/2+z
7 -1/2-x,-1/2-y,-z
8 -1/2+x,-1/2-y,-1/2+z
_cell_length_a 17.3570(12)
_cell_length_b 12.2777(9)
_cell_length_c 35.876(3)
_cell_angle_alpha 90
_cell_angle_beta 91.144(2)
_cell_angle_gamma 90
_cell_formula_units_Z 16
loop_
_atom_type_symbol
_atom_type_radius_bond
C 0.68
H 0.23
loop_
_atom_site_label
_atom_site_type_symbol
_atom_site_fract_x
_atom_site_fract_y
_atom_site_fract_z
C1 C 0.40814(19) 0.1504(3) 0.09868(10)
H1 H 0.42540 0.07910 0.10480
C2 C 0.36067(19) 0.2015(3) 0.12270(11)
C3 C 0.33417(19) 0.3116(3) 0.11380(12)
C4 C 0.35530(18) 0.3580(3) 0.08062(11)
H2 H 0.33530 0.42780 0.07440
C5 C 0.40607(17) 0.3059(3) 0.05503(11)
C6 C 0.42853(18) 0.3557(3) 0.02251(10)
H3 H 0.40880 0.42560 0.01620
C7 C 0.48059(18) 0.3037(3) -0.00146(11)
C8 C 0.50515(19) 0.3539(3) -0.03501(10)
H4 H 0.48560 0.42370 -0.04160
C9 C 0.55685(19) 0.3033(3) -0.05807(10)
C10 C 0.5832(2) 0.3541(3) -0.09149(11)
H5 H 0.56360 0.42340 -0.09870
C11 C 0.6361(2) 0.3037(3) -0.11287(12)
H6 H 0.65320 0.33790 -0.13500
C12 C 0.6657(2) 0.2006(3) -0.10247(11)
H7 H 0.70350 0.16750 -0.11750
C13 C 0.64207(19) 0.1481(3) -0.07196(11)
H8 H 0.66220 0.07800 -0.06620
C14 C 0.58698(18) 0.1968(3) -0.04819(10)
C15 C 0.56218(18) 0.1467(3) -0.01579(10)
H9 H 0.58160 0.07660 -0.00950
C16 C 0.50936(18) 0.1967(3) 0.00774(10)
C17 C 0.48441(19) 0.1476(3) 0.04072(10)
H10 H 0.50290 0.07700 0.04700
C18 C 0.43369(18) 0.1985(3) 0.06449(10)
C19 C 0.3349(2) 0.1506(3) 0.15991(12)
H11 H 0.36200 0.18910 0.18060
H12 H 0.27910 0.16450 0.16250
C20 C 0.3486(3) 0.0303(4) 0.16477(13)
H13 H 0.32800 -0.00890 0.14260
H14 H 0.40470 0.01630 0.16660
C21 C 0.3109(3) -0.0128(4) 0.19899(11)
H15 H 0.25500 0.00350 0.19740
H16 H 0.33250 0.02530 0.22110
C22 C 0.3220(4) -0.1375(4) 0.20414(15)
H17 H 0.29850 -0.16050 0.22750
H18 H 0.37720 -0.15450 0.20510
H19 H 0.29740 -0.17600 0.18320
C23 C 0.2879(2) 0.3776(3) 0.14166(11)
H20 H 0.25060 0.32870 0.15380
H21 H 0.25810 0.43410 0.12800
C24 C 0.3378(2) 0.4327(3) 0.17183(12)
H22 H 0.36690 0.37570 0.18560
H23 H 0.37580 0.48010 0.15950
C25 C 0.2946(2) 0.4999(4) 0.19930(11)
H24 H 0.26440 0.55560 0.18540
H25 H 0.25750 0.45210 0.21200
C26 C 0.3428(3) 0.5562(4) 0.22820(13)
H26 H 0.30960 0.59890 0.24450
H27 H 0.37940 0.60470 0.21610
H28 H 0.37110 0.50190 0.24310
C27 C 0.10784(18) -0.1105(3) 0.07974(11)
H29 H 0.08760 -0.18000 0.07320
C28 C 0.0885(2) -0.0656(3) 0.11296(12)
C29 C 0.1138(2) 0.0439(3) 0.12290(11)
C30 C 0.16100(19) 0.0969(3) 0.09858(10)
H30 H 0.17810 0.16810 0.10490
C31 C 0.18586(18) 0.0503(3) 0.06417(10)
C32 C 0.23604(19) 0.1034(3) 0.0410(1)
H31 H 0.25430 0.17380 0.04770
C33 C 0.26099(18) 0.0551(3) 0.00727(10)
C34 C 0.31346(18) 0.1063(3) -0.0166(1)
H32 H 0.33220 0.17680 -0.01040
C35 C 0.33838(18) 0.0563(3) -0.04884(10)
C36 C 0.39369(19) 0.1059(3) -0.07247(11)
H33 H 0.41300 0.17640 -0.06660
C37 C 0.4186(2) 0.0538(3) -0.10280(12)
H34 H 0.45690 0.08720 -0.11750
C38 C 0.3897(2) -0.0485(3) -0.11340(12)
H35 H 0.40720 -0.08200 -0.13560
C39 C 0.33728(19) -0.0997(3) -0.09231(10)
H36 H 0.31860 -0.16930 -0.09970
C40 C 0.30928(18) -0.0500(3) -0.0587(1)
C41 C 0.25741(19) -0.1005(3) -0.03603(10)
H37 H 0.23790 -0.17010 -0.04300
C42 C 0.23213(18) -0.0520(3) -0.00273(11)
C43 C 0.18044(18) -0.1040(3) 0.02112(10)
H38 H 0.16050 -0.17350 0.01440
C44 C 0.15771(18) -0.0564(3) 0.0543(1)
C45 C 0.0436(2) -0.1362(4) 0.14117(12)
H39 H 0.00420 -0.09030 0.15310
H40 H 0.01650 -0.19520 0.12750
C46 C 0.0953(2) -0.1868(4) 0.17157(11)
H41 H 0.13270 -0.23620 0.15980
H42 H 0.12490 -0.12810 0.18430
C47 C 0.0516(2) -0.2493(4) 0.20007(11)
H43 H 0.01920 -0.30440 0.18710
H44 H 0.01660 -0.19850 0.21290
C48 C 0.1013(3) -0.3058(4) 0.22888(13)
H45 H 0.06860 -0.34730 0.24570
H46 H 0.13080 -0.25150 0.24320
H47 H 0.13680 -0.35540 0.21650
C49 C 0.0887(3) 0.0915(4) 0.16009(13)
H48 H 0.03590 0.06540 0.16490
H49 H 0.12290 0.06150 0.18000
C50 C 0.0891(3) 0.2126(4) 0.16348(13)
H50 H 0.05870 0.24320 0.14230
H51 H 0.14280 0.23840 0.16100
C51 C 0.0579(3) 0.2574(4) 0.19891(12)
H52 H 0.08560 0.22290 0.22020
H53 H 0.00290 0.23700 0.20040
C52 C 0.0646(3) 0.3798(4) 0.20273(15)
H54 H 0.04300 0.40270 0.22650
H55 H 0.03620 0.41500 0.18220
H56 H 0.11900 0.40090 0.20200
loop_
_geom_bond_atom_site_label_1
_geom_bond_atom_site_label_2
_geom_bond_distance
_geom_bond_site_symmetry_1
_geom_bond_site_symmetry_2
C1 H1 0.950 1_555 1_555
C2 C1 1.358 1_555 1_555
C3 C2 1.461 1_555 1_555
C4 C3 1.376 1_555 1_555
H2 C4 0.950 1_555 1_555
C5 C4 1.436 1_555 1_555
C6 C5 1.380 1_555 1_555
H3 C6 0.950 1_555 1_555
C7 C6 1.412 1_555 1_555
C8 C7 1.425 1_555 1_555
H4 C8 0.950 1_555 1_555
C9 C8 1.380 1_555 1_555
C10 C9 1.434 1_555 1_555
H5 C10 0.950 1_555 1_555
C11 C10 1.357 1_555 1_555
H6 C11 0.951 1_555 1_555
C12 C11 1.413 1_555 1_555
H7 C12 0.949 1_555 1_555
C13 C12 1.342 1_555 1_555
H8 C13 0.950 1_555 1_555
C14 C9 1.450 1_555 1_555
C15 C14 1.391 1_555 1_555
H9 C15 0.950 1_555 1_555
C16 C7 1.441 1_555 1_555
C17 C16 1.404 1_555 1_555
H10 C17 0.950 1_555 1_555
C18 C1 1.439 1_555 1_555
C19 C2 1.548 1_555 1_555
H11 C19 0.991 1_555 1_555
H12 C19 0.990 1_555 1_555
C20 C19 1.506 1_555 1_555
H13 C20 0.990 1_555 1_555
H14 C20 0.990 1_555 1_555
C21 C20 1.499 1_555 1_555
H15 C21 0.991 1_555 1_555
H16 C21 0.988 1_555 1_555
C22 C21 1.554 1_555 1_555
H17 C22 0.981 1_555 1_555
H18 C22 0.981 1_555 1_555
H19 C22 0.978 1_555 1_555
C23 C3 1.527 1_555 1_555
H20 C23 0.990 1_555 1_555
H21 C23 0.989 1_555 1_555
C24 C23 1.530 1_555 1_555
H22 C24 0.989 1_555 1_555
H23 C24 0.990 1_555 1_555
C25 C24 1.498 1_555 1_555
H24 C25 0.990 1_555 1_555
H25 C25 0.989 1_555 1_555
C26 C25 1.489 1_555 1_555
H26 C26 0.981 1_555 1_555
H27 C26 0.979 1_555 1_555
H28 C26 0.980 1_555 1_555
C27 H29 0.950 1_555 1_555
C28 C27 1.361 1_555 1_555
C29 C28 1.456 1_555 1_555
C30 C29 1.373 1_555 1_555
H30 C30 0.949 1_555 1_555
C31 C30 1.435 1_555 1_555
C32 C31 1.380 1_555 1_555
H31 C32 0.950 1_555 1_555
C33 C32 1.423 1_555 1_555
C34 C33 1.410 1_555 1_555
H32 C34 0.950 1_555 1_555
C35 C34 1.386 1_555 1_555
C36 C35 1.430 1_555 1_555
H33 C36 0.950 1_555 1_555
C37 C36 1.341 1_555 1_555
H34 C37 0.950 1_555 1_555
C38 C37 1.402 1_555 1_555
H35 C38 0.952 1_555 1_555
C39 C38 1.350 1_555 1_555
H36 C39 0.950 1_555 1_555
C40 C35 1.441 1_555 1_555
C41 C40 1.373 1_555 1_555
H37 C41 0.951 1_555 1_555
C42 C33 1.450 1_555 1_555
C43 C42 1.405 1_555 1_555
H38 C43 0.950 1_555 1_555
C44 C27 1.434 1_555 1_555
C45 C28 1.554 1_555 1_555
H39 C45 0.990 1_555 1_555
H40 C45 0.989 1_555 1_555
C46 C45 1.530 1_555 1_555
H41 C46 0.989 1_555 1_555
H42 C46 0.991 1_555 1_555
C47 C46 1.497 1_555 1_555
H43 C47 0.990 1_555 1_555
H44 C47 0.991 1_555 1_555
C48 C47 1.503 1_555 1_555
H45 C48 0.980 1_555 1_555
H46 C48 0.980 1_555 1_555
H47 C48 0.979 1_555 1_555
C49 C29 1.528 1_555 1_555
H48 C49 0.989 1_555 1_555
H49 C49 0.991 1_555 1_555
C50 C49 1.492 1_555 1_555
H50 C50 0.990 1_555 1_555
H51 C50 0.990 1_555 1_555
C51 C50 1.496 1_555 1_555
H52 C51 0.990 1_555 1_555
H53 C51 0.989 1_555 1_555
C52 C51 1.513 1_555 1_555
H54 C52 0.980 1_555 1_555
H55 C52 0.979 1_555 1_555
H56 C52 0.980 1_555 1_555
C5 C18 1.441 1_555 1_555
C13 C14 1.425 1_555 1_555
C15 C16 1.400 1_555 1_555
C17 C18 1.387 1_555 1_555
C31 C44 1.440 1_555 1_555
C39 C40 1.444 1_555 1_555
C41 C42 1.413 1_555 1_555
C43 C44 1.390 1_555 1_555
#END
