
#######################################################################
#
#                 Cambridge Crystallographic Data Centre
#                                CCDC
#
#######################################################################
#
# If this CIF has been generated from an entry in the Cambridge
# Structural Database, then it will include bibliographic, chemical,
# crystal, experimental, refinement or atomic coordinate data resulting
# from the CCDC's data processing and validation procedures.
#
#######################################################################

data_CSD_CIF_HOQLUU
_audit_creation_date 1999-10-26
_audit_creation_method CSD-ConQuest-V1
_database_code_CSD HOQLUU
_database_code_depnum_ccdc_archive 'CCDC 109053'
_chemical_formula_sum 'C27 H24'
_chemical_formula_moiety
;
C27 H24
;
_journal_coden_Cambridge 456
_journal_volume 73
_journal_year 1999
_journal_page_first 707
_journal_name_full 'Pol.J.Chem. '
loop_
_publ_author_name
"P.G.Jones"
"P.Kus"
_chemical_name_systematic
;
4-(1'-(2'-Methyl)naphthyl)(2.2)paracyclophane
;
_cell_volume   1925.094
_exptl_crystal_colour 'colorless'
_exptl_crystal_density_diffrn 1.202
_exptl_crystal_description 'block'
_exptl_crystal_preparation 'ethanol/chloroform'
_diffrn_ambient_temperature 173
#These two values have been output from a single CSD field.
_refine_ls_R_factor_gt 0.0408
_refine_ls_wR_factor_gt 0.0408
_symmetry_cell_setting monoclinic
_symmetry_space_group_name_H-M 'P 21/c'
_symmetry_Int_Tables_number 14
loop_
_symmetry_equiv_pos_site_id
_symmetry_equiv_pos_as_xyz
1 x,y,z
2 x,1/2-y,1/2+z
3 -x,-y,-z
4 -x,-1/2+y,-1/2-z
_cell_length_a 8.0243(6)
_cell_length_b 14.8073(14)
_cell_length_c 16.239(2)
_cell_angle_alpha 90
_cell_angle_beta 93.868(8)
_cell_angle_gamma 90
_cell_formula_units_Z 4
loop_
_atom_type_symbol
_atom_type_radius_bond
C 0.68
H 0.23
loop_
_atom_site_label
_atom_site_type_symbol
_atom_site_fract_x
_atom_site_fract_y
_atom_site_fract_z
C1 C 0.5269(2) 0.39229(14) 0.41171(12)
H1 H 0.51710 0.45860 0.41710
H2 H 0.59030 0.37990 0.36270
C2 C 0.6281(2) 0.35406(13) 0.49085(11)
H3 H 0.74170 0.33740 0.47600
H4 H 0.63960 0.40230 0.53310
C3 C 0.54740(18) 0.27269(11) 0.52773(9)
C4 C 0.46040(18) 0.27711(10) 0.60059(9)
C5 C 0.3305(2) 0.2156(1) 0.60909(9)
H5 H 0.26760 0.21920 0.65650
C6 C 0.2900(2) 0.14899(11) 0.55018(10)
C7 C 0.4075(2) 0.13202(11) 0.49294(10)
H6 H 0.40200 0.07770 0.46180
C8 C 0.5321(2) 0.19399(12) 0.4814(1)
H7 H 0.60930 0.18250 0.44080
C9 C 0.1173(2) 0.10968(13) 0.53752(12)
H8 H 0.05750 0.11960 0.58810
H9 H 0.12670 0.04370 0.52940
C10 C 0.0108(2) 0.15098(14) 0.46199(13)
H10 H -0.01010 0.10350 0.41970
H11 H -0.09880 0.17030 0.48050
C11 C 0.0930(2) 0.23054(12) 0.42316(10)
C12 C 0.1928(2) 0.21973(13) 0.35654(10)
H12 H 0.17250 0.17070 0.31950
C13 C 0.3213(2) 0.27988(13) 0.34405(10)
H13 H 0.38790 0.27160 0.29840
C14 C 0.3540(2) 0.35249(12) 0.39767(10)
C15 C 0.2302(2) 0.37391(11) 0.45057(10)
H14 H 0.23360 0.43040 0.47840
C16 C 0.1030(2) 0.31400(12) 0.46298(10)
H15 H 0.02020 0.32990 0.49950
C17 C 0.50633(19) 0.34453(10) 0.66743(9)
C18 C 0.6677(2) 0.34373(11) 0.70467(10)
C19 C 0.7117(2) 0.40417(12) 0.7700(1)
H16 H 0.82230 0.40330 0.79480
C20 C 0.5997(2) 0.46326(12) 0.79802(11)
H17 H 0.63320 0.50280 0.84210
C21 C 0.4342(2) 0.46715(11) 0.76289(10)
C22 C 0.3165(3) 0.52887(12) 0.79065(11)
H18 H 0.34790 0.56780 0.83560
C23 C 0.1588(3) 0.53390(13) 0.75451(12)
H19 H 0.08170 0.57640 0.77380
C24 C 0.1102(2) 0.47592(12) 0.68831(11)
H20 H 0.00040 0.47970 0.66270
C25 C 0.2204(2) 0.41418(11) 0.66075(10)
H21 H 0.18490 0.37500 0.61660
C26 C 0.3861(2) 0.40707(10) 0.69626(9)
C27 C 0.8015(2) 0.27926(12) 0.68066(12)
H22 H 0.74960 0.22310 0.65990
H23 H 0.87730 0.26610 0.72900
H24 H 0.86450 0.30670 0.63750
loop_
_geom_bond_atom_site_label_1
_geom_bond_atom_site_label_2
_geom_bond_distance
_geom_bond_site_symmetry_1
_geom_bond_site_symmetry_2
C1 H1 0.989 1_555 1_555
H2 C1 0.990 1_555 1_555
C2 C1 1.578 1_555 1_555
H3 C2 0.990 1_555 1_555
H4 C2 0.990 1_555 1_555
C3 C2 1.511 1_555 1_555
C4 C3 1.415 1_555 1_555
C5 C4 1.398 1_555 1_555
H5 C5 0.950 1_555 1_555
C6 C5 1.397 1_555 1_555
C7 C6 1.391 1_555 1_555
H6 C7 0.950 1_555 1_555
C8 C3 1.388 1_555 1_555
H7 C8 0.950 1_555 1_555
C9 C6 1.504 1_555 1_555
H8 C9 0.990 1_555 1_555
H9 C9 0.989 1_555 1_555
C10 C9 1.571 1_555 1_555
H10 C10 0.989 1_555 1_555
H11 C10 0.991 1_555 1_555
C11 C10 1.509 1_555 1_555
C12 C11 1.398 1_555 1_555
H12 C12 0.950 1_555 1_555
C13 C12 1.388 1_555 1_555
H13 C13 0.951 1_555 1_555
C14 C1 1.510 1_555 1_555
C15 C14 1.393 1_555 1_555
H14 C15 0.950 1_555 1_555
C16 C11 1.395 1_555 1_555
H15 C16 0.950 1_555 1_555
C17 C4 1.502 1_555 1_555
C18 C17 1.392 1_555 1_555
C19 C18 1.414 1_555 1_555
H16 C19 0.950 1_555 1_555
C20 C19 1.355 1_555 1_555
H17 C20 0.949 1_555 1_555
C21 C20 1.411 1_555 1_555
C22 C21 1.410 1_555 1_555
H18 C22 0.951 1_555 1_555
C23 C22 1.361 1_555 1_555
H19 C23 0.950 1_555 1_555
C24 C23 1.410 1_555 1_555
H20 C24 0.950 1_555 1_555
C25 C24 1.368 1_555 1_555
H21 C25 0.951 1_555 1_555
C26 C17 1.438 1_555 1_555
C27 C18 1.507 1_555 1_555
H22 C27 0.980 1_555 1_555
H23 C27 0.980 1_555 1_555
H24 C27 0.980 1_555 1_555
C7 C8 1.379 1_555 1_555
C13 C14 1.397 1_555 1_555
C15 C16 1.377 1_555 1_555
C21 C26 1.433 1_555 1_555
C25 C26 1.417 1_555 1_555
#END
