
#######################################################################
#
#                 Cambridge Crystallographic Data Centre
#                                CCDC
#
#######################################################################
#
# If this CIF has been generated from an entry in the Cambridge
# Structural Database, then it will include bibliographic, chemical,
# crystal, experimental, refinement or atomic coordinate data resulting
# from the CCDC's data processing and validation procedures.
#
#######################################################################

data_CSD_CIF_HOQLOO
_audit_creation_date 1999-10-26
_audit_creation_method CSD-ConQuest-V1
_database_code_CSD HOQLOO
_database_code_depnum_ccdc_archive 'CCDC 109050'
_chemical_formula_sum 'C26 H22'
_chemical_formula_moiety
;
C26 H22
;
_journal_coden_Cambridge 456
_journal_volume 73
_journal_year 1999
_journal_page_first 707
_journal_name_full 'Pol.J.Chem. '
loop_
_publ_author_name
"P.G.Jones"
"P.Kus"
_chemical_name_systematic
;
4-(1-Naphthyl)-(2.2)paracyclophane
;
_cell_volume   3577.459
_exptl_crystal_colour 'colorless'
_exptl_crystal_density_diffrn 1.242
_exptl_crystal_description 'block'
_exptl_crystal_preparation 'ethanol/chloroform'
_diffrn_ambient_temperature 173
#These two values have been output from a single CSD field.
_refine_ls_R_factor_gt 0.0491
_refine_ls_wR_factor_gt 0.0491
_symmetry_cell_setting orthorhombic
_symmetry_space_group_name_H-M 'P c a 21'
_symmetry_Int_Tables_number 29
loop_
_symmetry_equiv_pos_site_id
_symmetry_equiv_pos_as_xyz
1 x,y,z
2 -x,-y,1/2+z
3 1/2+x,-y,z
4 1/2-x,y,1/2+z
_cell_length_a 15.860(3)
_cell_length_b 7.2871(14)
_cell_length_c 30.954(5)
_cell_angle_alpha 90
_cell_angle_beta 90
_cell_angle_gamma 90
_cell_formula_units_Z 8
loop_
_atom_type_symbol
_atom_type_radius_bond
C 0.68
H 0.23
loop_
_atom_site_label
_atom_site_type_symbol
_atom_site_fract_x
_atom_site_fract_y
_atom_site_fract_z
C1 C 0.5784(3) -0.1690(7) 0.01303(13)
H1 H 0.56700 -0.28860 -0.00100
H2 H 0.63250 -0.12210 0.00160
C2 C 0.5060(2) -0.0309(6) 0.00063(12)
H3 H 0.53010 0.06870 -0.01730
H4 H 0.46350 -0.09610 -0.01700
C3 C 0.4628(2) 0.0531(5) 0.03970(12)
C4 C 0.3911(2) -0.0266(5) 0.05874(11)
C5 C 0.3778(2) 0.0026(6) 0.10282(12)
H5 H 0.33000 -0.05160 0.11620
C6 C 0.4328(2) 0.1093(5) 0.12809(12)
C7 C 0.4896(2) 0.2171(5) 0.10625(14)
H6 H 0.51840 0.31180 0.12130
C8 C 0.5057(3) 0.1905(5) 0.06271(13)
H7 H 0.54590 0.26560 0.04840
C9 C 0.4410(2) 0.0756(7) 0.17656(13)
H8 H 0.38670 0.02860 0.18780
H9 H 0.45290 0.19360 0.19120
C10 C 0.5124(3) -0.0644(6) 0.18780(13)
H10 H 0.55560 -0.00150 0.20560
H11 H 0.48810 -0.16450 0.20550
C11 C 0.5545(2) -0.1466(5) 0.14905(12)
C12 C 0.5145(2) -0.2855(5) 0.12611(13)
H12 H 0.47530 -0.36310 0.14040
C13 C 0.5311(2) -0.3120(5) 0.08257(13)
H13 H 0.50390 -0.40880 0.06740
C14 C 0.5870(2) -0.1982(5) 0.06102(12)
C15 C 0.6408(2) -0.0910(5) 0.08613(12)
H14 H 0.68870 -0.03470 0.07330
C16 C 0.6244(2) -0.0662(5) 0.12989(12)
H15 H 0.66150 0.00660 0.14680
C17 C 0.3345(2) -0.1559(5) 0.03550(12)
C18 C 0.3188(3) -0.3266(6) 0.05312(13)
H16 H 0.34580 -0.36000 0.07940
C19 C 0.2637(3) -0.4526(7) 0.03315(17)
H17 H 0.25380 -0.56870 0.04610
C20 C 0.2250(3) -0.4089(6) -0.00428(16)
H18 H 0.18850 -0.49560 -0.01750
C21 C 0.2378(2) -0.2362(6) -0.02418(13)
C22 C 0.1966(3) -0.1869(8) -0.06270(15)
H19 H 0.15950 -0.27260 -0.07590
C23 C 0.2081(3) -0.0231(8) -0.08142(15)
H20 H 0.18070 0.00420 -0.10790
C24 C 0.2609(3) 0.1092(7) -0.06193(15)
H21 H 0.26780 0.22640 -0.07490
C25 C 0.3024(2) 0.0678(6) -0.02406(13)
H22 H 0.33780 0.15720 -0.01110
C26 C 0.2929(2) -0.1074(5) -0.00404(13)
C27 C 0.6556(3) 0.3166(6) 0.33599(13)
H23 H 0.67810 0.20220 0.34880
H24 H 0.60020 0.34170 0.34960
C28 C 0.7183(2) 0.4815(6) 0.34670(13)
H25 H 0.68620 0.58070 0.36110
H26 H 0.76160 0.43750 0.36730
C29 C 0.7616(2) 0.5589(5) 0.30748(12)
C30 C 0.8345(2) 0.4799(5) 0.28859(12)
C31 C 0.8465(2) 0.5042(5) 0.24417(12)
H27 H 0.89430 0.44910 0.23100
C32 C 0.7918(2) 0.6054(5) 0.21845(12)
C33 C 0.7339(2) 0.7145(5) 0.23949(14)
H28 H 0.70430 0.80640 0.22390
C34 C 0.7185(3) 0.6916(6) 0.28339(13)
H29 H 0.67790 0.76730 0.29730
C35 C 0.7828(3) 0.5652(7) 0.17046(14)
H30 H 0.83550 0.50790 0.15990
H31 H 0.77510 0.68250 0.15480
C36 C 0.7067(3) 0.4350(6) 0.15980(13)
H32 H 0.66240 0.50630 0.14470
H33 H 0.72610 0.33710 0.14000
C37 C 0.6693(2) 0.3481(5) 0.19968(12)
C38 C 0.7126(2) 0.2101(5) 0.22151(13)
H34 H 0.75190 0.13600 0.20630
C39 C 0.6991(2) 0.1793(5) 0.26541(13)
H35 H 0.72830 0.08310 0.27970
C40 C 0.6431(2) 0.2886(5) 0.28837(13)
C41 C 0.5869(2) 0.3957(5) 0.26447(13)
H36 H 0.53930 0.44900 0.27820
C42 C 0.6004(2) 0.4243(6) 0.22088(13)
H37 H 0.56170 0.49770 0.20500
C43 C 0.8926(2) 0.3541(5) 0.31266(13)
C44 C 0.9109(2) 0.1828(6) 0.29586(14)
H38 H 0.88460 0.14470 0.26980
C45 C 0.9682(3) 0.0635(6) 0.31684(16)
H39 H 0.98020 -0.05320 0.30460
C46 C 1.0061(3) 0.1142(6) 0.35425(15)
H40 H 1.04340 0.03180 0.36840
C47 C 0.9903(2) 0.2890(6) 0.37234(13)
C48 C 1.0300(3) 0.3476(7) 0.41143(14)
H41 H 1.06720 0.26570 0.42580
C49 C 1.0165(3) 0.5148(7) 0.42873(15)
H42 H 1.04370 0.54910 0.45480
C50 C 0.9619(3) 0.6379(6) 0.40784(13)
H43 H 0.95280 0.75640 0.41980
C51 C 0.9215(2) 0.5885(6) 0.37032(13)
H44 H 0.88510 0.67400 0.35650
C52 C 0.9332(2) 0.4111(6) 0.35168(12)
loop_
_geom_bond_atom_site_label_1
_geom_bond_atom_site_label_2
_geom_bond_distance
_geom_bond_site_symmetry_1
_geom_bond_site_symmetry_2
C1 H1 0.990 1_555 1_555
H2 C1 0.989 1_555 1_555
C2 C1 1.574 1_555 1_555
H3 C2 0.990 1_555 1_555
H4 C2 0.989 1_555 1_555
C3 C2 1.519 1_555 1_555
C4 C3 1.406 1_555 1_555
C5 C4 1.397 1_555 1_555
H5 C5 0.950 1_555 1_555
C6 C5 1.406 1_555 1_555
C7 C6 1.373 1_555 1_555
H6 C7 0.950 1_555 1_555
C8 C3 1.405 1_555 1_555
H7 C8 0.950 1_555 1_555
C9 C6 1.526 1_555 1_555
H8 C9 0.990 1_555 1_555
H9 C9 0.990 1_555 1_555
C10 C9 1.563 1_555 1_555
H10 C10 0.992 1_555 1_555
H11 C10 0.990 1_555 1_555
C11 C10 1.498 1_555 1_555
C12 C11 1.390 1_555 1_555
H12 C12 0.950 1_555 1_555
C13 C12 1.387 1_555 1_555
H13 C13 0.951 1_555 1_555
C14 C1 1.507 1_555 1_555
C15 C14 1.394 1_555 1_555
H14 C15 0.950 1_555 1_555
C16 C11 1.387 1_555 1_555
H15 C16 0.950 1_555 1_555
C17 C4 1.487 1_555 1_555
C18 C17 1.381 1_555 1_555
H16 C18 0.951 1_555 1_555
C19 C18 1.410 1_555 1_555
H17 C19 0.949 1_555 1_555
C20 C19 1.349 1_555 1_555
H18 C20 0.950 1_555 1_555
C21 C20 1.416 1_555 1_555
C22 C21 1.406 1_555 1_555
H19 C22 0.950 1_555 1_555
C23 C22 1.339 1_555 1_555
H20 C23 0.949 1_555 1_555
C24 C23 1.412 1_555 1_555
H21 C24 0.950 1_555 1_555
C25 C24 1.378 1_555 1_555
H22 C25 0.949 1_555 1_555
C26 C17 1.435 1_555 1_555
C27 H23 0.990 1_555 1_555
H24 C27 0.991 1_555 1_555
C28 C27 1.595 1_555 1_555
H25 C28 0.990 1_555 1_555
H26 C28 0.990 1_555 1_555
C29 C28 1.505 1_555 1_555
C30 C29 1.418 1_555 1_555
C31 C30 1.399 1_555 1_555
H27 C31 0.950 1_555 1_555
C32 C31 1.389 1_555 1_555
C33 C32 1.378 1_555 1_555
H28 C33 0.950 1_555 1_555
C34 C29 1.399 1_555 1_555
H29 C34 0.951 1_555 1_555
C35 C32 1.521 1_555 1_555
H30 C35 0.990 1_555 1_555
H31 C35 0.990 1_555 1_555
C36 C35 1.570 1_555 1_555
H32 C36 0.991 1_555 1_555
H33 C36 0.990 1_555 1_555
C37 C36 1.509 1_555 1_555
C38 C37 1.393 1_555 1_555
H34 C38 0.950 1_555 1_555
C39 C38 1.394 1_555 1_555
H35 C39 0.950 1_555 1_555
C40 C27 1.501 1_555 1_555
C41 C40 1.397 1_555 1_555
H36 C41 0.949 1_555 1_555
C42 C37 1.390 1_555 1_555
H37 C42 0.951 1_555 1_555
C43 C30 1.498 1_555 1_555
C44 C43 1.383 1_555 1_555
H38 C44 0.950 1_555 1_555
C45 C44 1.415 1_555 1_555
H39 C45 0.950 1_555 1_555
C46 C45 1.356 1_555 1_555
H40 C46 0.950 1_555 1_555
C47 C46 1.414 1_555 1_555
C48 C47 1.429 1_555 1_555
H41 C48 0.950 1_555 1_555
C49 C48 1.348 1_555 1_555
H42 C49 0.949 1_555 1_555
C50 C49 1.405 1_555 1_555
H43 C50 0.951 1_555 1_555
C51 C50 1.374 1_555 1_555
H44 C51 0.951 1_555 1_555
C52 C43 1.430 1_555 1_555
C7 C8 1.385 1_555 1_555
C13 C14 1.385 1_555 1_555
C15 C16 1.391 1_555 1_555
C21 C26 1.426 1_555 1_555
C25 C26 1.427 1_555 1_555
C33 C34 1.391 1_555 1_555
C39 C40 1.389 1_555 1_555
C41 C42 1.382 1_555 1_555
C47 C52 1.422 1_555 1_555
C51 C52 1.428 1_555 1_555
#END
