
#######################################################################
#
#                 Cambridge Crystallographic Data Centre
#                                CCDC
#
#######################################################################
#
# If this CIF has been generated from an entry in the Cambridge
# Structural Database, then it will include bibliographic, chemical,
# crystal, experimental, refinement or atomic coordinate data resulting
# from the CCDC's data processing and validation procedures.
#
#######################################################################

data_CSD_CIF_HOVZID
_audit_creation_date 2015-02-22
_audit_creation_method CSD-ConQuest-V1
_database_code_CSD HOVZID
_database_code_depnum_ccdc_archive 'CCDC 1041340'
_chemical_formula_sum 'C45 H44'
_chemical_formula_moiety
;
C45 H44
;
_journal_coden_Cambridge 179
_journal_volume 54
_journal_year 2015
_journal_page_first 4010
_journal_name_full 'Angew.Chem.,Int.Ed. '
loop_
_publ_author_name
"Y.Uchimura"
"T.Takeda"
"R.Katoono"
"Kenshu Fujiwara"
"T.Suzuki"
_chemical_name_systematic
;
4,5-bis(bis(3,5-dimethylphenyl)methyl)-1H-cyclobuta[de]naphthalene
;
_cell_volume   3411.899
_exptl_crystal_colour 'colorless'
_exptl_crystal_density_diffrn 1.138
_exptl_crystal_description 'prism'
_diffrn_ambient_temperature 293
#These two values have been output from a single CSD field.
_refine_ls_R_factor_gt 0.0772
_refine_ls_wR_factor_gt 0.0772
_symmetry_cell_setting monoclinic
_symmetry_space_group_name_H-M 'C 2/c'
_symmetry_Int_Tables_number 15
loop_
_symmetry_equiv_pos_site_id
_symmetry_equiv_pos_as_xyz
1 x,y,z
2 -x,y,1/2-z
3 1/2+x,1/2+y,z
4 1/2-x,1/2+y,1/2-z
5 -x,-y,-z
6 x,-y,-1/2+z
7 -1/2-x,-1/2-y,-z
8 -1/2+x,-1/2-y,-1/2+z
_cell_length_a 14.129(15)
_cell_length_b 15.085(15)
_cell_length_c 16.325(17)
_cell_angle_alpha 90
_cell_angle_beta 101.308(13)
_cell_angle_gamma 90
_cell_formula_units_Z 4
loop_
_atom_type_symbol
_atom_type_radius_bond
C 0.68
H 0.23
loop_
_atom_site_label
_atom_site_type_symbol
_atom_site_fract_x
_atom_site_fract_y
_atom_site_fract_z
C1 C 0.54250(18) -0.00797(14) 0.33117(11)
C2 C 0.57239(18) -0.06837(14) 0.39521(12)
C3 C 0.56672(19) -0.16253(15) 0.39063(13)
C4 C 0.5311(2) -0.19549(15) 0.31367(12)
C5 C 0.50000 -0.1346(2) 0.25000
C6 C 0.50000 -0.0436(2) 0.25000
C7 C 0.50000 -0.2735(3) 0.25000
C8 C 0.55620(19) 0.09071(14) 0.34718(12)
C9 C 0.4674(2) 0.13971(15) 0.36001(11)
C10 C 0.3860(2) 0.09797(16) 0.37793(11)
C11 C 0.3050(3) 0.14565(18) 0.38835(13)
C12 C 0.3074(3) 0.23738(18) 0.37954(13)
C13 C 0.3861(3) 0.28215(17) 0.36177(13)
C14 C 0.4644(2) 0.23177(15) 0.35171(12)
C15 C 0.2179(3) 0.0993(2) 0.40756(16)
C16 C 0.3859(3) 0.38173(16) 0.35368(15)
C17 C 0.6452(2) 0.11036(14) 0.41559(12)
C18 C 0.63699(19) 0.12791(13) 0.49729(12)
C19 C 0.7199(3) 0.14170(15) 0.55894(13)
C20 C 0.8089(3) 0.13754(15) 0.53720(14)
C21 C 0.8200(3) 0.12080(15) 0.45579(14)
C22 C 0.7357(2) 0.10703(15) 0.39586(13)
C23 C 0.7113(3) 0.15913(17) 0.64883(12)
C24 C 0.9173(3) 0.11808(18) 0.43378(14)
H1 H 0.59920 -0.04450 0.44710
H2 H 0.58610 -0.19870 0.43700
H3 H 0.44080 -0.31340 0.26310
H4 H 0.57150 0.11520 0.29570
H5 H 0.38580 0.03660 0.38310
H6 H 0.25350 0.27000 0.38590
H7 H 0.51780 0.26050 0.33870
H8 H 0.17510 0.14220 0.42410
H9 H 0.23780 0.05770 0.45210
H10 H 0.18520 0.06850 0.35870
H11 H 0.32060 0.40230 0.33700
H12 H 0.42240 0.39860 0.31250
H13 H 0.41430 0.40760 0.40650
H14 H 0.57630 0.13060 0.51120
H15 H 0.86380 0.14620 0.57840
H16 H 0.74100 0.09530 0.34100
H17 H 0.70540 0.10380 0.67640
H18 H 0.65520 0.19480 0.64960
H19 H 0.76780 0.18980 0.67720
H20 H 0.94790 0.17480 0.44480
H21 H 0.91100 0.10410 0.37560
H22 H 0.95590 0.07360 0.46680
C1A C 0.45750(18) -0.00797(14) 0.16883(11)
C2A C 0.42761(18) -0.06837(14) 0.10479(12)
C3A C 0.43328(19) -0.16253(15) 0.10937(13)
C4A C 0.4689(2) -0.19549(15) 0.18633(12)
C8A C 0.44380(19) 0.09071(14) 0.15282(12)
C9A C 0.5326(2) 0.13971(15) 0.13999(11)
C10A C 0.6140(2) 0.09797(16) 0.12207(11)
C11A C 0.6950(3) 0.14565(18) 0.11165(13)
C12A C 0.6926(3) 0.23738(18) 0.12046(13)
C13A C 0.6139(3) 0.28215(17) 0.13823(13)
C14A C 0.5356(2) 0.23177(15) 0.14829(12)
C15A C 0.7821(3) 0.0993(2) 0.09244(16)
C16A C 0.6141(3) 0.38173(16) 0.14632(15)
C17A C 0.3548(2) 0.11036(14) 0.08441(12)
C18A C 0.36301(19) 0.12791(13) 0.00271(12)
C19A C 0.2801(3) 0.14170(15) -0.05894(13)
C20A C 0.1911(3) 0.13754(15) -0.03720(14)
C21A C 0.1800(3) 0.12080(15) 0.04421(14)
C22A C 0.2643(2) 0.10703(15) 0.10414(13)
C23A C 0.2887(3) 0.15913(17) -0.14883(12)
C24A C 0.0827(3) 0.11808(18) 0.06622(14)
H1A H 0.40080 -0.04450 0.05290
H2A H 0.41390 -0.19870 0.06300
H3A H 0.55920 -0.31340 0.23690
H4A H 0.42850 0.11520 0.20430
H5A H 0.61420 0.03660 0.11690
H6A H 0.74650 0.27000 0.11410
H7A H 0.48220 0.26050 0.16130
H8A H 0.82490 0.14220 0.07590
H9A H 0.76220 0.05770 0.04790
H10A H 0.81480 0.06850 0.14130
H11A H 0.67940 0.40230 0.16300
H12A H 0.57760 0.39860 0.18750
H13A H 0.58570 0.40760 0.09350
H14A H 0.42370 0.13060 -0.01120
H15A H 0.13620 0.14620 -0.07840
H16A H 0.25900 0.09530 0.15900
H17A H 0.29460 0.10380 -0.17640
H18A H 0.34480 0.19480 -0.14960
H19A H 0.23220 0.18980 -0.17720
H20A H 0.05210 0.17480 0.05520
H21A H 0.08900 0.10410 0.12440
H22A H 0.04410 0.07360 0.03320
loop_
_geom_bond_atom_site_label_1
_geom_bond_atom_site_label_2
_geom_bond_distance
_geom_bond_site_symmetry_1
_geom_bond_site_symmetry_2
C1 C2 1.389 1_555 1_555
C2 C3 1.424 1_555 1_555
C3 C4 1.353 1_555 1_555
C4 C5 1.392 1_555 1_555
C5 C6 1.373 1_555 1_555
C6 C1 1.447 1_555 1_555
C7 C4 1.575 1_555 1_555
C8 C1 1.517 1_555 1_555
C9 C8 1.506 1_555 1_555
C10 C9 1.392 1_555 1_555
C11 C10 1.390 1_555 1_555
C12 C11 1.392 1_555 1_555
C13 C12 1.380 1_555 1_555
C14 C9 1.395 1_555 1_555
C15 C11 1.501 1_555 1_555
C16 C13 1.508 1_555 1_555
C17 C8 1.538 1_555 1_555
C18 C17 1.387 1_555 1_555
C19 C18 1.402 1_555 1_555
C20 C19 1.373 1_555 1_555
C21 C20 1.392 1_555 1_555
C22 C17 1.379 1_555 1_555
C23 C19 1.519 1_555 1_555
C24 C21 1.488 1_555 1_555
H1 C2 0.930 1_555 1_555
H2 C3 0.930 1_555 1_555
H3 C7 1.085 1_555 1_555
H4 C8 0.980 1_555 1_555
H5 C10 0.930 1_555 1_555
H6 C12 0.929 1_555 1_555
H7 C14 0.930 1_555 1_555
H8 C15 0.960 1_555 1_555
H9 C15 0.960 1_555 1_555
H10 C15 0.960 1_555 1_555
H11 C16 0.961 1_555 1_555
H12 C16 0.958 1_555 1_555
H13 C16 0.960 1_555 1_555
H14 C18 0.930 1_555 1_555
H15 C20 0.931 1_555 1_555
H16 C22 0.930 1_555 1_555
H17 C23 0.960 1_555 1_555
H18 C23 0.960 1_555 1_555
H19 C23 0.960 1_555 1_555
H20 C24 0.960 1_555 1_555
H21 C24 0.960 1_555 1_555
H22 C24 0.961 1_555 1_555
C1A C6 1.447 1_555 1_555
C2A C1A 1.389 1_555 1_555
C3A C2A 1.424 1_555 1_555
C4A C5 1.392 1_555 1_555
C8A C1A 1.517 1_555 1_555
C9A C8A 1.506 1_555 1_555
C10A C9A 1.392 1_555 1_555
C11A C10A 1.390 1_555 1_555
C12A C11A 1.392 1_555 1_555
C13A C12A 1.380 1_555 1_555
C14A C9A 1.395 1_555 1_555
C15A C11A 1.501 1_555 1_555
C16A C13A 1.508 1_555 1_555
C17A C8A 1.538 1_555 1_555
C18A C17A 1.387 1_555 1_555
C19A C18A 1.402 1_555 1_555
C20A C19A 1.373 1_555 1_555
C21A C20A 1.392 1_555 1_555
C22A C17A 1.379 1_555 1_555
C23A C19A 1.519 1_555 1_555
C24A C21A 1.488 1_555 1_555
H1A C2A 0.930 1_555 1_555
H2A C3A 0.930 1_555 1_555
H3A C7 1.085 1_555 1_555
H4A C8A 0.980 1_555 1_555
H5A C10A 0.930 1_555 1_555
H6A C12A 0.929 1_555 1_555
H7A C14A 0.930 1_555 1_555
H8A C15A 0.960 1_555 1_555
H9A C15A 0.960 1_555 1_555
H10A C15A 0.960 1_555 1_555
H11A C16A 0.961 1_555 1_555
H12A C16A 0.958 1_555 1_555
H13A C16A 0.960 1_555 1_555
H14A C18A 0.930 1_555 1_555
H15A C20A 0.931 1_555 1_555
H16A C22A 0.930 1_555 1_555
H17A C23A 0.960 1_555 1_555
H18A C23A 0.960 1_555 1_555
H19A C23A 0.960 1_555 1_555
H20A C24A 0.960 1_555 1_555
H21A C24A 0.960 1_555 1_555
H22A C24A 0.961 1_555 1_555
C7 C4A 1.575 1_555 1_555
C13 C14 1.378 1_555 1_555
C21 C22 1.401 1_555 1_555
C3A C4A 1.353 1_555 1_555
C13A C14A 1.378 1_555 1_555
C21A C22A 1.401 1_555 1_555
#END
