
#######################################################################
#
#                 Cambridge Crystallographic Data Centre
#                                CCDC
#
#######################################################################
#
# If this CIF has been generated from an entry in the Cambridge
# Structural Database, then it will include bibliographic, chemical,
# crystal, experimental, refinement or atomic coordinate data resulting
# from the CCDC's data processing and validation procedures.
#
#######################################################################

data_CSD_CIF_HPHENA
_audit_creation_date 1981-09-30
_audit_creation_method CSD-ConQuest-V1
_database_code_CSD HPHENA
_chemical_formula_sum 'C22 H16'
_chemical_formula_moiety
;
C22 H16
;
_journal_coden_Cambridge 188
_journal_year 1981
_journal_page_first 870
_journal_name_full 'J.Chem.Soc.,Perkin Trans.2 '
loop_
_publ_author_name
"R.Kuroda"
"S.F.Mason"
_chemical_name_systematic
;
(S)-(+)-9,10-Dihydrodibenzo(c,g)phenanthrene
;
_cell_volume   2251.584
_exptl_crystal_colour 'light yellow'
_exptl_crystal_density_diffrn 1.24
_exptl_special_details
;
The z coordinate of C5 should be 0.066 not 0.060, the y coordinate of C801 
should be 0.5584, not 0.6012
;
_diffrn_ambient_temperature ?
_diffrn_special_details
;
The study was carried out at room temperature,in the range 283-303K

;
#These two values have been output from a single CSD field.
_refine_ls_R_factor_gt 0.0597
_refine_ls_wR_factor_gt 0.0597
loop_
_citation_database_id_CSD
_citation_special_details
ZZZUJZ "is a racemate of this entry"
_symmetry_cell_setting hexagonal
_symmetry_space_group_name_H-M 'P 31 2 1'
_symmetry_Int_Tables_number 152
loop_
_symmetry_equiv_pos_site_id
_symmetry_equiv_pos_as_xyz
1 x,y,z
2 -y,x-y,1/3+z
3 -x+y,-x,2/3+z
4 y,x,-z
5 x-y,-y,2/3-z
6 -x,-x+y,1/3-z
_cell_length_a 8.1423(7)
_cell_length_b 8.1423(7)
_cell_length_c 39.216(4)
_cell_angle_alpha 90
_cell_angle_beta 90
_cell_angle_gamma 120
_cell_formula_units_Z 6
loop_
_atom_type_symbol
_atom_type_radius_bond
C 0.68
loop_
_atom_site_label
_atom_site_type_symbol
_atom_site_fract_x
_atom_site_fract_y
_atom_site_fract_z
C1 C 0.49600 0.40370 0.00940
C2 C 0.40230 0.20610 0.00910
C3 C 0.48410 0.10760 0.02440
C4 C 0.65510 0.20500 0.04130
C5 C 0.74490 0.40420 0.04530
C6 C 0.90950 0.50290 0.06600
C7 C 0.98420 0.69110 0.07310
C8 C 0.89610 0.78970 0.05970
C9 C 0.74160 0.70020 0.03830
C10 C 0.66200 0.50500 0.02990
C11 C 0.20280 0.10020 -0.00560
C12 C 0.07380 0.35050 0.15280
C13 C 0.09710 0.21710 0.13470
C14 C 0.22300 0.27210 0.10690
C15 C 0.32960 0.45890 0.09780
C16 C 0.32460 0.60120 0.11770
C17 C 0.45290 0.79770 0.11060
C18 C 0.46360 0.93380 0.13230
C19 C 0.35060 0.88210 0.16220
C20 C 0.22040 0.69420 0.16880
C21 C 0.20080 0.54840 0.14640
C22 C -0.00240 0.01500 0.14710
C1C C 0.40370 0.49600 -0.00940
C11C C 0.10020 0.20280 0.00560
C2C C 0.20610 0.40230 -0.00910
C10C C 0.50500 0.66200 -0.02990
C3C C 0.10760 0.48410 -0.02440
C5C C 0.40420 0.74490 -0.04530
C9C C 0.70020 0.74160 -0.03830
C4C C 0.20500 0.65510 -0.04130
C6C C 0.50290 0.90950 -0.06600
C8C C 0.78970 0.89610 -0.05970
C7C C 0.69110 0.98420 -0.07310
C12E C -0.07380 0.27670 0.18053
C22E C 0.00240 0.01740 0.18623
C13E C -0.09710 0.12000 0.19863
C21E C -0.20080 0.34760 0.18693
C14E C -0.22300 0.04910 0.22643
C16E C -0.32460 0.27660 0.21563
C20E C -0.22040 0.47380 0.16453
C15E C -0.32960 0.12930 0.23553
C17E C -0.45290 0.34480 0.22273
C19E C -0.35060 0.53150 0.17113
C18E C -0.46360 0.47020 0.20103
loop_
_geom_bond_atom_site_label_1
_geom_bond_atom_site_label_2
_geom_bond_distance
_geom_bond_site_symmetry_1
_geom_bond_site_symmetry_2
C1 C2 1.394 1_555 1_555
C2 C3 1.407 1_555 1_555
C3 C4 1.379 1_555 1_555
C4 C5 1.416 1_555 1_555
C5 C6 1.423 1_555 1_555
C6 C7 1.365 1_555 1_555
C7 C8 1.418 1_555 1_555
C8 C9 1.379 1_555 1_555
C9 C10 1.423 1_555 1_555
C10 C1 1.428 1_555 1_555
C11 C2 1.521 1_555 1_555
C12 C13 1.388 1_555 1_555
C13 C14 1.407 1_555 1_555
C14 C15 1.369 1_555 1_555
C15 C16 1.414 1_555 1_555
C16 C17 1.434 1_555 1_555
C17 C18 1.365 1_555 1_555
C18 C19 1.418 1_555 1_555
C19 C20 1.382 1_555 1_555
C20 C21 1.420 1_555 1_555
C21 C12 1.436 1_555 1_555
C22 C13 1.506 1_555 1_555
C1C C1 1.496 1_555 1_555
C11C C11 1.512 1_555 1_555
C2C C1C 1.394 1_555 1_555
C10C C1C 1.428 1_555 1_555
C3C C2C 1.407 1_555 1_555
C5C C10C 1.431 1_555 1_555
C9C C10C 1.423 1_555 1_555
C4C C3C 1.379 1_555 1_555
C6C C5C 1.423 1_555 1_555
C8C C9C 1.379 1_555 1_555
C7C C6C 1.365 1_555 1_555
C12E C12 1.505 1_555 1_555
C22E C22 1.535 1_555 1_555
C13E C12E 1.388 1_555 1_555
C21E C12E 1.436 1_555 1_555
C14E C13E 1.407 1_555 1_555
C16E C21E 1.426 1_555 1_555
C20E C21E 1.420 1_555 1_555
C15E C14E 1.369 1_555 1_555
C17E C16E 1.434 1_555 1_555
C19E C20E 1.382 1_555 1_555
C18E C17E 1.365 1_555 1_555
C5 C10 1.431 1_555 1_555
C16 C21 1.426 1_555 1_555
C11C C2C 1.521 1_555 1_555
C5C C4C 1.416 1_555 1_555
C8C C7C 1.418 1_555 1_555
C22E C13E 1.506 1_555 1_555
C16E C15E 1.414 1_555 1_555
C19E C18E 1.418 1_555 1_555
#END
