
#######################################################################
#
#                 Cambridge Crystallographic Data Centre
#                                CCDC
#
#######################################################################
#
# If this CIF has been generated from an entry in the Cambridge
# Structural Database, then it will include bibliographic, chemical,
# crystal, experimental, refinement or atomic coordinate data resulting
# from the CCDC's data processing and validation procedures.
#
#######################################################################

data_CSD_CIF_HPHENA01
_audit_creation_date 2008-12-02
_audit_creation_method CSD-ConQuest-V1
_database_code_CSD HPHENA01
_database_code_depnum_ccdc_archive 'CCDC 664944'
_chemical_formula_sum 'C22 H16'
_chemical_formula_moiety
;
C22 H16
;
_journal_coden_Cambridge 1078
_journal_year 2007
_journal_name_full 'CSD Communication(Private Communication) '
loop_
_publ_author_name
"P.Kasak"
"K.Mereiter"
_chemical_name_systematic
;
(S)-(+)-9,10-Dihydrodibenzo(c,g)phenanthrene
;
_cell_volume   2185.650
_exptl_crystal_colour 'colorless'
_exptl_crystal_density_diffrn 1.278
_exptl_special_details
;
contribution from Department of Chemistry, Vienna University of Technology, 
Getreidemarkt 9, A-1060 Vienna, Austria
;
_exptl_crystal_description 'plate'
_diffrn_ambient_temperature 100
#These two values have been output from a single CSD field.
_refine_ls_R_factor_gt 0.0475
_refine_ls_wR_factor_gt 0.0475
loop_
_citation_database_id_CSD
_citation_special_details
ZZZUJZ "is a racemate of this entry"
_symmetry_cell_setting hexagonal
_symmetry_space_group_name_H-M 'P 31 2 1'
_symmetry_Int_Tables_number 152
loop_
_symmetry_equiv_pos_site_id
_symmetry_equiv_pos_as_xyz
1 x,y,z
2 -y,x-y,1/3+z
3 -x+y,-x,2/3+z
4 y,x,-z
5 x-y,-y,2/3-z
6 -x,-x+y,1/3-z
_cell_length_a 8.0693(2)
_cell_length_b 8.0693(2)
_cell_length_c 38.7595(19)
_cell_angle_alpha 90
_cell_angle_beta 90
_cell_angle_gamma 120
_cell_formula_units_Z 6
loop_
_atom_type_symbol
_atom_type_radius_bond
C 0.68
H 0.23
loop_
_atom_site_label
_atom_site_type_symbol
_atom_site_fract_x
_atom_site_fract_y
_atom_site_fract_z
C1 C 0.4968(2) 0.4041(2) 0.00933(4)
C2 C 0.4037(3) 0.2053(2) 0.00907(4)
C3 C 0.4881(3) 0.1062(3) 0.02436(4)
H1 H 0.42480 -0.02940 0.02300
C4 C 0.6603(3) 0.2039(3) 0.04113(4)
H2 H 0.71950 0.13630 0.04990
C5 C 0.7506(3) 0.4047(3) 0.04544(4)
C6 C 0.9172(3) 0.5052(3) 0.06619(4)
H3 H 0.97800 0.43940 0.07510
C7 C 0.9912(3) 0.6952(3) 0.07345(4)
H4 H 1.10250 0.76060 0.08740
C8 C 0.9018(3) 0.7937(3) 0.06019(4)
H5 H 0.94960 0.92390 0.06620
C9 C 0.7464(2) 0.7035(2) 0.03865(4)
H6 H 0.69100 0.77360 0.02930
C10 C 0.6670(2) 0.5068(2) 0.03005(4)
C11 C 0.2035(3) 0.0985(3) -0.00553(4)
H7 H 0.13560 -0.03440 0.00330
H8 H 0.20850 0.09410 -0.03100
C12 C 0.0737(2) 0.3518(2) 0.15282(4)
C13 C 0.0981(2) 0.2172(2) 0.13447(4)
C14 C 0.2269(3) 0.2735(3) 0.10638(4)
H9 H 0.23910 0.17920 0.09380
C15 C 0.3342(3) 0.4617(3) 0.09710(4)
H10 H 0.41220 0.49610 0.07700
C16 C 0.3293(2) 0.6056(2) 0.11729(4)
C17 C 0.4571(3) 0.8024(3) 0.11055(5)
H11 H 0.53580 0.83780 0.09060
C18 C 0.4694(3) 0.9420(3) 0.13216(5)
H12 H 0.55520 1.07310 0.12720
C19 C 0.3528(3) 0.8888(3) 0.16191(5)
H13 H 0.36520 0.98490 0.17760
C20 C 0.2216(2) 0.7004(3) 0.16855(4)
H14 H 0.14250 0.66870 0.18840
C21 C 0.2023(2) 0.5518(2) 0.14616(4)
C22 C -0.0043(3) 0.0128(3) 0.14696(4)
H15 H 0.05840 -0.05640 0.13770
H16 H -0.13910 -0.05340 0.13910
C1C C 0.4041(2) 0.4968(2) -0.00933(4)
C2C C 0.2053(3) 0.4037(2) -0.00907(4)
C3C C 0.1062(3) 0.4881(3) -0.02436(4)
H1C H -0.02940 0.42480 -0.02300
C4C C 0.2039(3) 0.6603(3) -0.04113(4)
H2C H 0.13630 0.71950 -0.04990
C5C C 0.4047(3) 0.7506(3) -0.04544(4)
C6C C 0.5052(3) 0.9172(3) -0.06619(4)
H3C H 0.43940 0.97800 -0.07510
C7C C 0.6952(3) 0.9912(3) -0.07345(4)
H4C H 0.76060 1.10250 -0.08740
C8C C 0.7937(3) 0.9018(3) -0.06019(4)
H5C H 0.92390 0.94960 -0.06620
C9C C 0.7035(2) 0.7464(2) -0.03865(4)
H6C H 0.77360 0.69100 -0.02930
C10C C 0.5068(2) 0.6670(2) -0.03005(4)
C11C C 0.0985(3) 0.2035(3) 0.00553(4)
H7C H -0.03440 0.13560 -0.00330
H8C H 0.09410 0.20850 0.03100
C12E C -0.0737(2) 0.2781(2) 0.180513(40)
C13E C -0.0981(2) 0.1191(2) 0.198863(40)
C14E C -0.2269(3) 0.0466(3) 0.226953(40)
H9E H -0.23910 -0.05990 0.23953
C15E C -0.3342(3) 0.1275(3) 0.236233(40)
H10E H -0.41220 0.08390 0.25633
C16E C -0.3293(2) 0.2763(2) 0.216043(40)
C17E C -0.4571(3) 0.3453(3) 0.222783(50)
H11E H -0.53580 0.30200 0.24273
C18E C -0.4694(3) 0.4726(3) 0.201173(50)
H12E H -0.55520 0.51790 0.20613
C19E C -0.3528(3) 0.5360(3) 0.171423(50)
H13E H -0.36520 0.61970 0.15573
C20E C -0.2216(2) 0.4788(3) 0.164783(40)
H14E H -0.14250 0.52620 0.14493
C21E C -0.2023(2) 0.3495(2) 0.187173(40)
C22E C 0.0043(3) 0.0171(3) 0.186373(40)
H15E H -0.05840 -0.11480 0.19563
H16E H 0.13910 0.08570 0.19423
loop_
_geom_bond_atom_site_label_1
_geom_bond_atom_site_label_2
_geom_bond_distance
_geom_bond_site_symmetry_1
_geom_bond_site_symmetry_2
C1 C2 1.390 1_555 1_555
C2 C3 1.414 1_555 1_555
C3 H1 0.950 1_555 1_555
C4 C3 1.371 1_555 1_555
H2 C4 0.950 1_555 1_555
C5 C4 1.415 1_555 1_555
C6 C5 1.422 1_555 1_555
H3 C6 0.950 1_555 1_555
C7 C6 1.368 1_555 1_555
H4 C7 0.951 1_555 1_555
C8 C7 1.411 1_555 1_555
H5 C8 0.950 1_555 1_555
C9 C8 1.374 1_555 1_555
H6 C9 0.951 1_555 1_555
C10 C1 1.442 1_555 1_555
C11 C2 1.510 1_555 1_555
H7 C11 0.990 1_555 1_555
H8 C11 0.989 1_555 1_555
C12 C13 1.392 1_555 1_555
C13 C14 1.414 1_555 1_555
C14 H9 0.949 1_555 1_555
C15 C14 1.368 1_555 1_555
H10 C15 0.952 1_555 1_555
C16 C15 1.417 1_555 1_555
C17 C16 1.420 1_555 1_555
H11 C17 0.949 1_555 1_555
C18 C17 1.367 1_555 1_555
H12 C18 0.950 1_555 1_555
C19 C18 1.413 1_555 1_555
H13 C19 0.951 1_555 1_555
C20 C19 1.374 1_555 1_555
H14 C20 0.949 1_555 1_555
C21 C12 1.440 1_555 1_555
C22 C13 1.508 1_555 1_555
H15 C22 0.990 1_555 1_555
H16 C22 0.990 1_555 1_555
C1C C1 1.484 1_555 1_555
C2C C1C 1.390 1_555 1_555
C3C C2C 1.414 1_555 1_555
H1C C3C 0.950 1_555 1_555
C4C C3C 1.371 1_555 1_555
H2C C4C 0.950 1_555 1_555
C5C C4C 1.415 1_555 1_555
C6C C5C 1.422 1_555 1_555
H3C C6C 0.950 1_555 1_555
C7C C6C 1.368 1_555 1_555
H4C C7C 0.951 1_555 1_555
C8C C7C 1.411 1_555 1_555
H5C C8C 0.950 1_555 1_555
C9C C8C 1.374 1_555 1_555
H6C C9C 0.951 1_555 1_555
C10C C1C 1.442 1_555 1_555
C11C C11 1.529 1_555 1_555
H7C C11C 0.990 1_555 1_555
H8C C11C 0.989 1_555 1_555
C12E C12 1.488 1_555 1_555
C13E C12E 1.392 1_555 1_555
C14E C13E 1.414 1_555 1_555
H9E C14E 0.949 1_555 1_555
C15E C14E 1.368 1_555 1_555
H10E C15E 0.952 1_555 1_555
C16E C15E 1.417 1_555 1_555
C17E C16E 1.420 1_555 1_555
H11E C17E 0.949 1_555 1_555
C18E C17E 1.367 1_555 1_555
H12E C18E 0.950 1_555 1_555
C19E C18E 1.413 1_555 1_555
H13E C19E 0.951 1_555 1_555
C20E C19E 1.374 1_555 1_555
H14E C20E 0.949 1_555 1_555
C21E C12E 1.440 1_555 1_555
C22E C22 1.529 1_555 1_555
H15E C22E 0.990 1_555 1_555
H16E C22E 0.990 1_555 1_555
C5 C10 1.430 1_555 1_555
C9 C10 1.423 1_555 1_555
C16 C21 1.430 1_555 1_555
C20 C21 1.424 1_555 1_555
C2C C11C 1.510 1_555 1_555
C5C C10C 1.430 1_555 1_555
C9C C10C 1.423 1_555 1_555
C13E C22E 1.508 1_555 1_555
C16E C21E 1.430 1_555 1_555
C20E C21E 1.424 1_555 1_555
#END
