
#######################################################################
#
#                 Cambridge Crystallographic Data Centre
#                                CCDC
#
#######################################################################
#
# If this CIF has been generated from an entry in the Cambridge
# Structural Database, then it will include bibliographic, chemical,
# crystal, experimental, refinement or atomic coordinate data resulting
# from the CCDC's data processing and validation procedures.
#
#######################################################################

data_CSD_CIF_HPTHEL
_audit_creation_date 1976-10-25
_audit_creation_method CSD-ConQuest-V1
_database_code_CSD HPTHEL
_database_code_depnum_ccdc_archive 'CCDC 1178371'
_chemical_formula_sum 'C30 H18'
_chemical_formula_moiety
;
C30 H18
;
_journal_coden_Cambridge 189
_journal_volume 5
_journal_year 1976
_journal_page_first 241
_journal_name_full 'Cryst.Struct.Commun. '
loop_
_publ_author_name
"P.T.Beurskens"
"G.Beurskens"
"T.E.M.van den Hark"
_chemical_name_systematic
;
Heptahelicene
;
_cell_volume   1948.564
_exptl_crystal_density_diffrn 1.288
_exptl_special_details
;
AVERAGE BOND LENGTHS IN PAPER

;
_diffrn_ambient_temperature ?
_diffrn_special_details
;
The study was carried out at room temperature,in the range 283-303K

;
#These two values have been output from a single CSD field.
_refine_ls_R_factor_gt 0.065
_refine_ls_wR_factor_gt 0.065
_symmetry_cell_setting monoclinic
_symmetry_space_group_name_H-M 'P 21'
_symmetry_Int_Tables_number 4
loop_
_symmetry_equiv_pos_site_id
_symmetry_equiv_pos_as_xyz
1 x,y,z
2 -x,1/2+y,-z
_cell_length_a 14.022(4)
_cell_length_b 15.094(4)
_cell_length_c 9.221(3)
_cell_angle_alpha 90
_cell_angle_beta 93.20(2)
_cell_angle_gamma 90
_cell_formula_units_Z 4
loop_
_atom_type_symbol
_atom_type_radius_bond
C 0.68
H 0.23
loop_
_atom_site_label
_atom_site_type_symbol
_atom_site_fract_x
_atom_site_fract_y
_atom_site_fract_z
C1 C -0.02040 0.48760 -0.20810
C2 C -0.25210 0.23290 -0.28270
C3 C -0.13650 0.24430 -0.46620
C4 C -0.04990 0.26760 -0.50630
C5 C 0.11630 0.31990 -0.44540
C6 C 0.18790 0.34210 -0.34780
C7 C 0.24800 0.34350 -0.09450
C8 C 0.23970 0.32330 0.04830
C9 C 0.15280 0.28900 0.09390
C10 C 0.07630 0.28080 -0.00480
C11 C 0.08260 0.30570 -0.15060
C12 C 0.04130 0.55050 -0.25700
C13 C 0.17360 0.33220 -0.19730
C14 C 0.00240 0.29960 -0.25700
C15 C 0.02430 0.29590 -0.40630
C16 C -0.09410 0.29750 -0.21840
C17 C -0.16260 0.25790 -0.32220
C18 C -0.13120 0.33360 -0.08950
C19 C -0.21660 0.29560 -0.04360
C20 C -0.08680 0.40380 -0.00470
C21 C -0.11250 0.41060 0.14220
C22 C -0.02510 0.47000 -0.05940
C23 C 0.10060 0.59860 -0.15600
C24 C 0.02810 0.52600 0.03850
C25 C 0.09220 0.58680 -0.01420
C26 C 0.01030 0.52140 0.18930
C27 C -0.05960 0.46850 0.23650
C28 C -0.19090 0.36330 0.19270
C29 C -0.24430 0.30960 0.09910
C30 C -0.27620 0.24590 -0.13930
H1 H -0.05500 0.45200 -0.26500
H2 H 0.01900 0.25600 0.02600
C31 C 0.43050 -0.44660 0.49300
C32 C 0.34060 -0.45940 0.54290
C33 C 0.26260 -0.48280 0.44760
C34 C 0.27790 -0.49070 0.30380
C35 C 0.37610 -0.47000 0.09390
C36 C 0.46010 -0.44450 0.04550
C37 C 0.62910 -0.39620 0.08130
C38 C 0.70680 -0.38360 0.16740
C39 C 0.78920 -0.39250 0.40430
C40 C 0.79200 -0.41320 0.54770
C41 C 0.71990 -0.48720 0.75280
C42 C 0.65180 -0.53870 0.80570
C43 C 0.51840 -0.64390 0.76500
C44 C 0.46160 -0.69160 0.68230
C45 C 0.41480 -0.75070 0.43960
C46 C 0.43120 -0.75740 0.29320
C47 C 0.49980 -0.70590 0.23730
C48 C 0.54960 -0.64500 0.31820
C49 C 0.53480 -0.63360 0.46720
C50 C 0.46890 -0.69090 0.52930
C51 C 0.58660 -0.56180 0.55930
C52 C 0.58600 -0.58310 0.71170
C53 C 0.64350 -0.49790 0.50930
C54 C 0.71880 -0.46560 0.60240
C55 C 0.62840 -0.45500 0.36860
C56 C 0.70940 -0.41190 0.31310
C57 C 0.53990 -0.45020 0.28510
C58 C 0.54190 -0.43030 0.13480
C59 C 0.44610 -0.45960 0.34390
C60 C 0.36700 -0.47650 0.24610
H3 H 0.48300 -0.43000 0.54100
H4 H 0.59000 -0.61400 0.26800
loop_
_geom_bond_atom_site_label_1
_geom_bond_atom_site_label_2
_geom_bond_distance
_geom_bond_site_symmetry_1
_geom_bond_site_symmetry_2
C1 C12 1.377 1_555 1_555
C2 C17 1.379 1_555 1_555
C3 C4 1.336 1_555 1_555
C4 C15 1.417 1_555 1_555
C5 C6 1.353 1_555 1_555
C6 C13 1.421 1_555 1_555
C7 C8 1.363 1_555 1_555
C8 C9 1.410 1_555 1_555
C9 C10 1.373 1_555 1_555
C10 C11 1.403 1_555 1_555
C11 C13 1.427 1_555 1_555
C12 C23 1.414 1_555 1_555
C13 C7 1.380 1_555 1_555
C14 C11 1.453 1_555 1_555
C15 C5 1.406 1_555 1_555
C16 C14 1.419 1_555 1_555
C17 C3 1.412 1_555 1_555
C18 C16 1.432 1_555 1_555
C19 C18 1.414 1_555 1_555
C20 C18 1.438 1_555 1_555
C21 C20 1.425 1_555 1_555
C22 C1 1.402 1_555 1_555
C23 C25 1.331 1_555 1_555
C24 C22 1.418 1_555 1_555
C25 C24 1.391 1_555 1_555
C26 C24 1.428 1_555 1_555
C27 C21 1.414 1_555 1_555
C28 C21 1.411 1_555 1_555
C29 C19 1.409 1_555 1_555
C30 C2 1.397 1_555 1_555
H1 C1 0.878 1_555 1_555
H2 C10 0.944 1_555 1_555
C31 C32 1.379 1_555 1_555
C32 C33 1.409 1_555 1_555
C33 C34 1.360 1_555 1_555
C34 C60 1.401 1_555 1_555
C35 C36 1.339 1_555 1_555
C36 C58 1.391 1_555 1_555
C37 C38 1.326 1_555 1_555
C38 C56 1.408 1_555 1_555
C39 C40 1.357 1_555 1_555
C40 C54 1.411 1_555 1_555
C41 C42 1.344 1_555 1_555
C42 C52 1.401 1_555 1_555
C43 C44 1.291 1_555 1_555
C44 C50 1.420 1_555 1_555
C45 C46 1.386 1_555 1_555
C46 C47 1.360 1_555 1_555
C47 C48 1.353 1_555 1_555
C48 C49 1.411 1_555 1_555
C49 C50 1.410 1_555 1_555
C50 C45 1.416 1_555 1_555
C51 C49 1.534 1_555 1_555
C52 C43 1.426 1_555 1_555
C53 C51 1.349 1_555 1_555
C54 C41 1.424 1_555 1_555
C55 C53 1.455 1_555 1_555
C56 C39 1.393 1_555 1_555
C57 C55 1.425 1_555 1_555
C58 C37 1.439 1_555 1_555
C59 C31 1.418 1_555 1_555
C60 C35 1.420 1_555 1_555
H3 C31 0.874 1_555 1_555
H4 C48 0.885 1_555 1_555
C14 C15 1.428 1_555 1_555
C16 C17 1.447 1_555 1_555
C19 C30 1.399 1_555 1_555
C20 C22 1.432 1_555 1_555
C26 C27 1.355 1_555 1_555
C28 C29 1.375 1_555 1_555
C51 C52 1.442 1_555 1_555
C53 C54 1.410 1_555 1_555
C55 C56 1.428 1_555 1_555
C57 C58 1.420 1_555 1_555
C57 C59 1.457 1_555 1_555
C59 C60 1.413 1_555 1_555
#END
