
#######################################################################
#
#                 Cambridge Crystallographic Data Centre
#                                CCDC
#
#######################################################################
#
# If this CIF has been generated from an entry in the Cambridge
# Structural Database, then it will include bibliographic, chemical,
# crystal, experimental, refinement or atomic coordinate data resulting
# from the CCDC's data processing and validation procedures.
#
#######################################################################

data_CSD_CIF_HPTHEL03
_audit_creation_date 2012-04-10
_audit_creation_method CSD-ConQuest-V1
_database_code_CSD HPTHEL03
_database_code_depnum_ccdc_archive 'CCDC 852537'
_chemical_formula_sum 'C30 H18'
_chemical_formula_moiety
;
C30 H18
;
_journal_coden_Cambridge 24
_journal_volume 53
_journal_year 2012
_journal_page_first 1108
_journal_name_full 'Tetrahedron Lett. '
loop_
_publ_author_name
"M.J.Fuchter"
"M.Weimar"
"Xuezheng Yang"
"D.K.Judge"
"A.J.P.White"
_chemical_name_systematic
;
Heptahelicene
;
_cell_volume   1906.052
_exptl_crystal_colour 'pale yellow'
_exptl_crystal_density_diffrn 1.319
_exptl_crystal_description 'blocky needles'
_diffrn_ambient_temperature 173
#These two values have been output from a single CSD field.
_refine_ls_R_factor_gt 0.0557
_refine_ls_wR_factor_gt 0.0557
_symmetry_cell_setting monoclinic
_symmetry_space_group_name_H-M 'P 21/n'
_symmetry_Int_Tables_number 14
loop_
_symmetry_equiv_pos_site_id
_symmetry_equiv_pos_as_xyz
1 x,y,z
2 1/2-x,1/2+y,1/2-z
3 -x,-y,-z
4 -1/2+x,-1/2-y,-1/2+z
_cell_length_a 8.04632(15)
_cell_length_b 11.4955(2)
_cell_length_c 20.7227(4)
_cell_angle_alpha 90
_cell_angle_beta 96.0637(15)
_cell_angle_gamma 90
_cell_formula_units_Z 4
loop_
_atom_type_symbol
_atom_type_radius_bond
C 0.68
H 0.23
loop_
_atom_site_label
_atom_site_type_symbol
_atom_site_fract_x
_atom_site_fract_y
_atom_site_fract_z
C1 C 0.58238(13) 0.20905(10) 0.03138(5)
H1 H 0.52080 0.16620 0.06000
C2 C 0.60609(15) 0.16214(12) -0.02790(5)
H2 H 0.55990 0.08820 -0.04000
C3 C 0.69826(18) 0.22312(15) -0.07064(6)
H3 H 0.72000 0.18900 -0.11070
C4 C 0.75640(19) 0.33142(15) -0.05449(7)
H4 H 0.81740 0.37290 -0.08390
C5 C 0.72820(17) 0.38355(12) 0.00497(6)
C6 C 0.7700(2) 0.50239(14) 0.01804(9)
H5 H 0.83380 0.54390 -0.01040
C7 C 0.7199(3) 0.55615(13) 0.07015(9)
H6 H 0.73600 0.63770 0.07500
C8 C 0.64292(17) 0.49354(11) 0.11845(7)
C9 C 0.5837(2) 0.55328(13) 0.17210(8)
H7 H 0.60070 0.63480 0.17660
C10 C 0.50455(17) 0.49565(14) 0.21615(7)
H8 H 0.45170 0.53790 0.24770
C11 C 0.49898(14) 0.37259(13) 0.21603(6)
C12 C 0.41371(16) 0.31176(17) 0.26265(6)
H9 H 0.36320 0.35430 0.29470
C13 C 0.40385(17) 0.19501(17) 0.26188(6)
H10 H 0.33170 0.15660 0.28850
C14 C 0.50065(16) 0.12852(13) 0.22154(6)
C15 C 0.4938(2) 0.00473(15) 0.22166(7)
H11 H 0.42220 -0.03370 0.24850
C16 C 0.5867(2) -0.05857(13) 0.18456(8)
H12 H 0.56890 -0.14010 0.18070
C17 C 0.71116(17) -0.00475(11) 0.15109(6)
C18 C 0.8164(2) -0.07297(11) 0.11460(7)
H13 H 0.79640 -0.15420 0.11010
C19 C 0.94282(19) -0.02538(12) 0.08645(7)
H14 H 1.00340 -0.07120 0.05880
C20 C 0.98676(15) 0.09339(11) 0.09784(6)
C21 C 1.13223(16) 0.14088(14) 0.07561(6)
H15 H 1.19620 0.09480 0.04930
C22 C 1.18263(15) 0.25115(14) 0.09116(7)
H16 H 1.27790 0.28300 0.07420
C23 C 1.09309(14) 0.31752(12) 0.13238(6)
H17 H 1.13170 0.39290 0.14540
C24 C 0.94981(12) 0.27438(9) 0.15410(5)
H18 H 0.89180 0.32010 0.18270
C25 C 0.88684(13) 0.16379(9) 0.13497(5)
C26 C 0.73326(14) 0.11697(9) 0.15494(5)
C27 C 0.60603(13) 0.18618(10) 0.18092(5)
C28 C 0.57778(12) 0.30911(10) 0.16902(5)
C29 C 0.62413(13) 0.37197(9) 0.11300(5)
C30 C 0.64695(13) 0.31897(9) 0.05091(5)
loop_
_geom_bond_atom_site_label_1
_geom_bond_atom_site_label_2
_geom_bond_distance
_geom_bond_site_symmetry_1
_geom_bond_site_symmetry_2
C1 H1 0.950 1_555 1_555
C2 C1 1.373 1_555 1_555
H2 C2 0.951 1_555 1_555
C3 C2 1.402 1_555 1_555
H3 C3 0.951 1_555 1_555
C4 C3 1.359 1_555 1_555
H4 C4 0.950 1_555 1_555
C5 C4 1.410 1_555 1_555
C6 C5 1.426 1_555 1_555
H5 C6 0.950 1_555 1_555
C7 C6 1.343 1_555 1_555
H6 C7 0.950 1_555 1_555
C8 C7 1.426 1_555 1_555
C9 C8 1.431 1_555 1_555
H7 C9 0.950 1_555 1_555
C10 C9 1.342 1_555 1_555
H8 C10 0.950 1_555 1_555
C11 C10 1.415 1_555 1_555
C12 C11 1.426 1_555 1_555
H9 C12 0.950 1_555 1_555
C13 C12 1.344 1_555 1_555
H10 C13 0.951 1_555 1_555
C14 C13 1.424 1_555 1_555
C15 C14 1.424 1_555 1_555
H11 C15 0.951 1_555 1_555
C16 C15 1.342 1_555 1_555
H12 C16 0.950 1_555 1_555
C17 C16 1.419 1_555 1_555
C18 C17 1.428 1_555 1_555
H13 C18 0.950 1_555 1_555
C19 C18 1.342 1_555 1_555
H14 C19 0.950 1_555 1_555
C20 C19 1.424 1_555 1_555
C21 C20 1.412 1_555 1_555
H15 C21 0.950 1_555 1_555
C22 C21 1.359 1_555 1_555
H16 C22 0.950 1_555 1_555
C23 C22 1.400 1_555 1_555
H17 C23 0.950 1_555 1_555
C24 C23 1.374 1_555 1_555
H18 C24 0.951 1_555 1_555
C25 C20 1.423 1_555 1_555
C26 C17 1.412 1_555 1_555
C27 C14 1.420 1_555 1_555
C28 C11 1.419 1_555 1_555
C29 C8 1.409 1_555 1_555
C30 C1 1.409 1_555 1_555
C5 C30 1.420 1_555 1_555
C24 C25 1.410 1_555 1_555
C25 C26 1.448 1_555 1_555
C26 C27 1.445 1_555 1_555
C27 C28 1.448 1_555 1_555
C28 C29 1.449 1_555 1_555
C29 C30 1.453 1_555 1_555
#END
