
#######################################################################
#
#                 Cambridge Crystallographic Data Centre
#                                CCDC
#
#######################################################################
#
# If this CIF has been generated from an entry in the Cambridge
# Structural Database, then it will include bibliographic, chemical,
# crystal, experimental, refinement or atomic coordinate data resulting
# from the CCDC's data processing and validation procedures.
#
#######################################################################

data_CSD_CIF_HUTGOS01
_audit_creation_date 2006-02-24
_audit_creation_method CSD-ConQuest-V1
_database_code_CSD HUTGOS01
_database_code_depnum_ccdc_archive 'CCDC 291057'
_chemical_formula_sum 'C32 H32'
_chemical_formula_moiety
;
C32 H32
;
_journal_coden_Cambridge 4
_journal_volume 127
_journal_year 2005
_journal_page_first 14208
_journal_name_full 'J.Am.Chem.Soc. '
loop_
_publ_author_name
"M.K.J.ter Wiel"
"R.A.van Delden"
"A.Meetsma"
"B.L.Feringa"
_chemical_name_systematic
;
(3S,3'S)-(M,M)-(E)-(+)-trans-3,3',7,7'-tetramethyl-1,1',2,2',3,3',4,4'-octahyd
ro-4,4'-biphenanthrylidene
;
_cell_volume   1153.685
_exptl_crystal_density_diffrn 1.199
_exptl_crystal_description 'parallelepiped'
_diffrn_ambient_temperature 130
#These two values have been output from a single CSD field.
_refine_ls_R_factor_gt 0.039
_refine_ls_wR_factor_gt 0.039
loop_
_citation_database_id_CSD
_citation_special_details
SAZQUG "is a racemate of this entry"
_symmetry_cell_setting orthorhombic
_symmetry_space_group_name_H-M 'P 21 21 2'
_symmetry_Int_Tables_number 18
loop_
_symmetry_equiv_pos_site_id
_symmetry_equiv_pos_as_xyz
1 x,y,z
2 -x,-y,z
3 1/2+x,1/2-y,-z
4 1/2-x,1/2+y,-z
_cell_length_a 9.042(1)
_cell_length_b 18.855(1)
_cell_length_c 6.767(1)
_cell_angle_alpha 90
_cell_angle_beta 90
_cell_angle_gamma 90
_cell_formula_units_Z 2
loop_
_atom_type_symbol
_atom_type_radius_bond
C 0.68
H 0.23
loop_
_atom_site_label
_atom_site_type_symbol
_atom_site_fract_x
_atom_site_fract_y
_atom_site_fract_z
C1 C -0.0796(4) -0.28901(14) -0.0932(4)
C2 C -0.0972(3) -0.23446(12) 0.0676(4)
C3 C -0.1848(3) -0.24568(12) 0.2289(4)
C4 C -0.2042(2) -0.19414(11) 0.3788(3)
C5 C -0.1260(2) -0.12876(11) 0.3665(3)
C6 C -0.0365(3) -0.11801(11) 0.1979(3)
C7 C -0.0234(3) -0.16786(12) 0.0536(4)
C8 C -0.3035(3) -0.20478(12) 0.5374(4)
C9 C -0.3262(3) -0.15311(12) 0.6733(4)
C10 C -0.2484(3) -0.08833(12) 0.6658(4)
C11 C -0.1458(2) -0.07646(11) 0.5171(3)
C12 C -0.0736(2) -0.00521(12) 0.5138(3)
C13 C -0.1854(3) 0.05354(12) 0.5490(4)
C14 C -0.2409(5) 0.04203(17) 0.7637(6)
C15 C -0.2822(4) -0.03193(15) 0.8158(5)
C16 C -0.3101(3) 0.05524(17) 0.3984(7)
H1 H 0.026(5) -0.3056(19) -0.099(6)
H2 H -0.097(4) -0.2684(18) -0.223(6)
H3 H -0.140(4) -0.330(2) -0.076(6)
H4 H -0.240(3) -0.2885(14) 0.243(4)
H5 H 0.009(3) -0.0745(12) 0.182(3)
H6 H 0.040(3) -0.1610(13) -0.067(4)
H7 H -0.361(3) -0.2477(14) 0.547(4)
H8 H -0.397(3) -0.1597(13) 0.771(4)
H9 H -0.135(3) 0.0989(13) 0.545(4)
H10 H -0.299(5) 0.077(2) 0.793(7)
H11 H -0.134(7) 0.050(3) 0.871(9)
H12 H -0.257(5) -0.045(2) 0.946(7)
H13 H -0.393(6) -0.033(3) 0.837(8)
H14 H -0.367(4) 0.0120(19) 0.394(4)
H15 H -0.386(4) 0.0904(18) 0.431(5)
H16 H -0.273(5) 0.062(2) 0.255(7)
C1A C 0.0796(4) 0.28901(14) -0.0932(4)
C2A C 0.0972(3) 0.23446(12) 0.0676(4)
C3A C 0.1848(3) 0.24568(12) 0.2289(4)
C4A C 0.2042(2) 0.19414(11) 0.3788(3)
C5A C 0.1260(2) 0.12876(11) 0.3665(3)
C6A C 0.0365(3) 0.11801(11) 0.1979(3)
C7A C 0.0234(3) 0.16786(12) 0.0536(4)
C8A C 0.3035(3) 0.20478(12) 0.5374(4)
C9A C 0.3262(3) 0.15311(12) 0.6733(4)
C10A C 0.2484(3) 0.08833(12) 0.6658(4)
C11A C 0.1458(2) 0.07646(11) 0.5171(3)
C12A C 0.0736(2) 0.00521(12) 0.5138(3)
C13A C 0.1854(3) -0.05354(12) 0.5490(4)
C14A C 0.2409(5) -0.04203(17) 0.7637(6)
C15A C 0.2822(4) 0.03193(15) 0.8158(5)
C16A C 0.3101(3) -0.05524(17) 0.3984(7)
H1A H -0.026(5) 0.3056(19) -0.099(6)
H2A H 0.097(4) 0.2684(18) -0.223(6)
H3A H 0.140(4) 0.330(2) -0.076(6)
H4A H 0.240(3) 0.2885(14) 0.243(4)
H5A H -0.009(3) 0.0745(12) 0.182(3)
H6A H -0.040(3) 0.1610(13) -0.067(4)
H7A H 0.361(3) 0.2477(14) 0.547(4)
H8A H 0.397(3) 0.1597(13) 0.771(4)
H9A H 0.135(3) -0.0989(13) 0.545(4)
H10A H 0.299(5) -0.077(2) 0.793(7)
H11A H 0.134(7) -0.050(3) 0.871(9)
H12A H 0.257(5) 0.045(2) 0.946(7)
H13A H 0.393(6) 0.033(3) 0.837(8)
H14A H 0.367(4) -0.0120(19) 0.394(4)
H15A H 0.386(4) -0.0904(18) 0.431(5)
H16A H 0.273(5) -0.062(2) 0.255(7)
loop_
_geom_bond_atom_site_label_1
_geom_bond_atom_site_label_2
_geom_bond_distance
_geom_bond_site_symmetry_1
_geom_bond_site_symmetry_2
C1 C2 1.506 1_555 1_555
C2 C3 1.365 1_555 1_555
C3 C4 1.416 1_555 1_555
C4 C5 1.424 1_555 1_555
C5 C6 1.413 1_555 1_555
C6 C7 1.361 1_555 1_555
C7 C2 1.425 1_555 1_555
C8 C4 1.414 1_555 1_555
C9 C8 1.355 1_555 1_555
C10 C9 1.410 1_555 1_555
C11 C5 1.429 1_555 1_555
C12 C11 1.494 1_555 1_555
C13 C12 1.518 1_555 1_555
C14 C13 1.552 1_555 1_555
C15 C10 1.502 1_555 1_555
C16 C13 1.520 1_555 1_555
H1 C1 1.006 1_555 1_555
H2 C1 0.973 1_555 1_555
H3 C1 0.953 1_555 1_555
H4 C3 0.954 1_555 1_555
H5 C6 0.924 1_555 1_555
H6 C7 1.006 1_555 1_555
H7 C8 0.964 1_555 1_555
H8 C9 0.929 1_555 1_555
H9 C13 0.969 1_555 1_555
H10 C14 0.866 1_555 1_555
H11 C14 1.218 1_555 1_555
H12 C15 0.943 1_555 1_555
H13 C15 1.012 1_555 1_555
H14 C16 0.965 1_555 1_555
H15 C16 0.979 1_555 1_555
H16 C16 1.035 1_555 1_555
C1A C2A 1.506 1_555 1_555
C2A C3A 1.365 1_555 1_555
C3A C4A 1.416 1_555 1_555
C4A C5A 1.424 1_555 1_555
C5A C6A 1.413 1_555 1_555
C6A C7A 1.361 1_555 1_555
C7A C2A 1.425 1_555 1_555
C8A C4A 1.414 1_555 1_555
C9A C8A 1.355 1_555 1_555
C10A C9A 1.410 1_555 1_555
C11A C5A 1.429 1_555 1_555
C12A C12 1.345 1_555 1_555
C13A C12A 1.518 1_555 1_555
C14A C13A 1.552 1_555 1_555
C15A C10A 1.502 1_555 1_555
C16A C13A 1.520 1_555 1_555
H1A C1A 1.006 1_555 1_555
H2A C1A 0.973 1_555 1_555
H3A C1A 0.953 1_555 1_555
H4A C3A 0.954 1_555 1_555
H5A C6A 0.924 1_555 1_555
H6A C7A 1.006 1_555 1_555
H7A C8A 0.964 1_555 1_555
H8A C9A 0.929 1_555 1_555
H9A C13A 0.969 1_555 1_555
H10A C14A 0.866 1_555 1_555
H11A C14A 1.218 1_555 1_555
H12A C15A 0.943 1_555 1_555
H13A C15A 1.012 1_555 1_555
H14A C16A 0.965 1_555 1_555
H15A C16A 0.979 1_555 1_555
H16A C16A 1.035 1_555 1_555
C10 C11 1.387 1_555 1_555
C14 C15 1.486 1_555 1_555
C10A C11A 1.387 1_555 1_555
C11A C12A 1.494 1_555 1_555
C14A C15A 1.486 1_555 1_555
#END
