
#######################################################################
#
#                 Cambridge Crystallographic Data Centre
#                                CCDC
#
#######################################################################
#
# If this CIF has been generated from an entry in the Cambridge
# Structural Database, then it will include bibliographic, chemical,
# crystal, experimental, refinement or atomic coordinate data resulting
# from the CCDC's data processing and validation procedures.
#
#######################################################################

data_CSD_CIF_ICIZUP
_audit_creation_date 2002-02-07
_audit_creation_method CSD-ConQuest-V1
_database_code_CSD ICIZUP
_database_code_depnum_ccdc_archive 'CCDC 174571'
_chemical_formula_sum 'C42 H24'
_chemical_formula_moiety
;
C42 H24
;
_journal_coden_Cambridge 1336
_journal_volume 3
_journal_year 2001
_journal_page_first 3115
_journal_name_full 'Org.Lett. '
loop_
_publ_author_name
"W.D.Neudorff"
"N.Schulte"
"D.Lentz"
"A.D.Schluter"
_chemical_name_systematic
;
7,16-Diphenylfluorantheno(8,9-k)fluoranthene
;
_cell_volume   2738.027
_exptl_crystal_colour 'yellow'
_exptl_crystal_density_diffrn 1.282
_exptl_crystal_description 'prism'
_diffrn_ambient_temperature 173
#These two values have been output from a single CSD field.
_refine_ls_R_factor_gt 0.0464
_refine_ls_wR_factor_gt 0.0464
_symmetry_cell_setting monoclinic
_symmetry_space_group_name_H-M 'P 21/n'
_symmetry_Int_Tables_number 14
loop_
_symmetry_equiv_pos_site_id
_symmetry_equiv_pos_as_xyz
1 x,y,z
2 1/2+x,1/2-y,1/2+z
3 -x,-y,-z
4 -1/2-x,-1/2+y,-1/2-z
_cell_length_a 15.010(3)
_cell_length_b 9.2219(16)
_cell_length_c 20.202(4)
_cell_angle_alpha 90
_cell_angle_beta 101.725(4)
_cell_angle_gamma 90
_cell_formula_units_Z 4
loop_
_atom_type_symbol
_atom_type_radius_bond
C 0.68
H 0.23
loop_
_atom_site_label
_atom_site_type_symbol
_atom_site_fract_x
_atom_site_fract_y
_atom_site_fract_z
C1 C 0.31086(11) 0.67606(17) 0.19358(8)
C2 C 0.39935(11) 0.61879(17) 0.21371(8)
C3 C 0.44936(12) 0.65554(18) 0.27687(8)
H1 H 0.50810 0.62040 0.29170
C4 C 0.40883(13) 0.74811(19) 0.31837(8)
H2 H 0.44170 0.77170 0.36120
C5 C 0.32291(13) 0.80439(19) 0.29787(9)
H3 H 0.29920 0.86610 0.32640
C6 C 0.27023(12) 0.76896(18) 0.23351(8)
C7 C 0.18103(13) 0.81755(19) 0.20488(9)
H4 H 0.15070 0.87900 0.22940
C8 C 0.13958(13) 0.7741(2) 0.14130(9)
H5 H 0.08130 0.80800 0.12340
C9 C 0.18170(12) 0.67964(19) 0.10147(9)
H6 H 0.15170 0.65260 0.05830
C10 C 0.26784(11) 0.62881(17) 0.12797(8)
C11 C 0.33361(10) 0.53080(17) 0.10474(7)
C12 C 0.32734(10) 0.45288(17) 0.04572(7)
C13 C 0.40435(10) 0.36987(17) 0.03597(7)
C14 C 0.40450(11) 0.29391(17) -0.02546(7)
H7 H 0.35260 0.29480 -0.05970
C15 C 0.47988(11) 0.21963(17) -0.03485(7)
C16 C 0.50066(11) 0.13648(17) -0.09279(8)
C17 C 0.45594(12) 0.10869(19) -0.15804(8)
H8 H 0.39800 0.14570 -0.17440
C18 C 0.50011(13) 0.0223(2) -0.19985(8)
H9 H 0.46920 0.00120 -0.24350
C19 C 0.58635(13) -0.03154(19) -0.17866(9)
H10 H 0.61270 -0.08780 -0.20770
C20 C 0.63539(12) -0.00122(18) -0.11220(8)
C21 C 0.72572(13) -0.04178(19) -0.08299(9)
H11 H 0.75900 -0.09750 -0.10770
C22 C 0.76461(13) 0.0006(2) -0.01838(9)
H12 H 0.82410 -0.02750 -0.00030
C23 C 0.71711(12) 0.08584(19) 0.02168(9)
H13 H 0.74530 0.11460 0.06500
C24 C 0.62899(11) 0.12498(17) -0.00471(8)
C25 C 0.55916(11) 0.21153(17) 0.01902(7)
C26 C 0.55987(10) 0.27874(17) 0.07943(7)
H14 H 0.61020 0.26900 0.11460
C27 C 0.48445(10) 0.36326(17) 0.08903(7)
C28 C 0.48771(10) 0.44151(17) 0.15073(7)
C29 C 0.41461(11) 0.52511(17) 0.15731(7)
C30 C 0.58959(11) 0.08108(17) -0.07147(8)
C31 C 0.23969(11) 0.45366(17) -0.00542(7)
C32 C 0.16503(11) 0.37639(18) 0.00727(8)
H15 H 0.17180 0.31830 0.04560
C33 C 0.08103(12) 0.3847(2) -0.03629(9)
H16 H 0.03180 0.33300 -0.02690
C34 C 0.07038(13) 0.4701(2) -0.09378(9)
H17 H 0.01400 0.47650 -0.12290
C35 C 0.14377(13) 0.5457(2) -0.10762(9)
H18 H 0.13690 0.60250 -0.14640
C36 C 0.22811(12) 0.53722(19) -0.06387(8)
H19 H 0.27730 0.58800 -0.07380
C37 C 0.56952(11) 0.43415(18) 0.20689(7)
C38 C 0.64537(12) 0.5208(2) 0.20647(9)
H20 H 0.64700 0.57970 0.16940
C39 C 0.71857(13) 0.5199(2) 0.26084(10)
H21 H 0.76880 0.57850 0.26010
C40 C 0.71712(13) 0.4325(2) 0.31606(9)
H22 H 0.76600 0.43300 0.35270
C41 C 0.64331(13) 0.3445(2) 0.31681(9)
H23 H 0.64260 0.28470 0.35380
C42 C 0.56990(12) 0.34482(19) 0.26264(8)
H24 H 0.52040 0.28480 0.26350
loop_
_geom_bond_atom_site_label_1
_geom_bond_atom_site_label_2
_geom_bond_distance
_geom_bond_site_symmetry_1
_geom_bond_site_symmetry_2
C1 C2 1.410 1_555 1_555
C2 C3 1.385 1_555 1_555
C3 H1 0.930 1_555 1_555
C4 C3 1.417 1_555 1_555
H2 C4 0.931 1_555 1_555
C5 C4 1.374 1_555 1_555
H3 C5 0.931 1_555 1_555
C6 C1 1.399 1_555 1_555
C7 C6 1.419 1_555 1_555
H4 C7 0.930 1_555 1_555
C8 C7 1.368 1_555 1_555
H5 C8 0.930 1_555 1_555
C9 C8 1.419 1_555 1_555
H6 C9 0.931 1_555 1_555
C10 C1 1.420 1_555 1_555
C11 C10 1.483 1_555 1_555
C12 C11 1.379 1_555 1_555
C13 C12 1.433 1_555 1_555
C14 C13 1.425 1_555 1_555
H7 C14 0.931 1_555 1_555
C15 C14 1.368 1_555 1_555
C16 C15 1.484 1_555 1_555
C17 C16 1.376 1_555 1_555
H8 C17 0.930 1_555 1_555
C18 C17 1.420 1_555 1_555
H9 C18 0.930 1_555 1_555
C19 C18 1.371 1_555 1_555
H10 C19 0.930 1_555 1_555
C20 C19 1.422 1_555 1_555
C21 C20 1.415 1_555 1_555
H11 C21 0.930 1_555 1_555
C22 C21 1.374 1_555 1_555
H12 C22 0.930 1_555 1_555
C23 C22 1.420 1_555 1_555
H13 C23 0.930 1_555 1_555
C24 C23 1.370 1_555 1_555
C25 C15 1.442 1_555 1_555
C26 C25 1.367 1_555 1_555
H14 C26 0.930 1_555 1_555
C27 C13 1.440 1_555 1_555
C28 C27 1.432 1_555 1_555
C29 C2 1.484 1_555 1_555
C30 C16 1.412 1_555 1_555
C31 C12 1.499 1_555 1_555
C32 C31 1.395 1_555 1_555
H15 C32 0.930 1_555 1_555
C33 C32 1.385 1_555 1_555
H16 C33 0.931 1_555 1_555
C34 C33 1.385 1_555 1_555
H17 C34 0.929 1_555 1_555
C35 C34 1.379 1_555 1_555
H18 C35 0.931 1_555 1_555
C36 C31 1.391 1_555 1_555
H19 C36 0.930 1_555 1_555
C37 C28 1.494 1_555 1_555
C38 C37 1.392 1_555 1_555
H20 C38 0.929 1_555 1_555
C39 C38 1.387 1_555 1_555
H21 C39 0.930 1_555 1_555
C40 C39 1.380 1_555 1_555
H22 C40 0.930 1_555 1_555
C41 C40 1.376 1_555 1_555
H23 C41 0.931 1_555 1_555
C42 C37 1.394 1_555 1_555
H24 C42 0.929 1_555 1_555
C5 C6 1.416 1_555 1_555
C9 C10 1.377 1_555 1_555
C11 C29 1.444 1_555 1_555
C20 C30 1.398 1_555 1_555
C24 C25 1.473 1_555 1_555
C24 C30 1.417 1_555 1_555
C26 C27 1.420 1_555 1_555
C28 C29 1.369 1_555 1_555
C35 C36 1.391 1_555 1_555
C41 C42 1.386 1_555 1_555
#END
