
#######################################################################
#
#                 Cambridge Crystallographic Data Centre
#                                CCDC
#
#######################################################################
#
# If this CIF has been generated from an entry in the Cambridge
# Structural Database, then it will include bibliographic, chemical,
# crystal, experimental, refinement or atomic coordinate data resulting
# from the CCDC's data processing and validation procedures.
#
#######################################################################

data_CSD_CIF_ICOGEM
_audit_creation_date 2002-02-07
_audit_creation_method CSD-ConQuest-V1
_database_code_CSD ICOGEM
_database_code_depnum_ccdc_archive 'CCDC 168254'
_chemical_formula_sum 'C24 H20'
_chemical_formula_moiety
;
C24 H20
;
_journal_coden_Cambridge 1291
_journal_year 2001
_journal_page_first 4259
_journal_name_full 'Eur.J.Org.Chem. '
loop_
_publ_author_name
"A.Marrocchi"
"L.Minuti"
"A.Taticchi"
"I.Dix"
"H.Hopf"
"E.Gacs-Baitz"
"P.G.Jones"
_chemical_name_systematic
;
(+)-(4S,13S)-(2.2)(1,4)-Phenanthrenoparacyclophane
;
_cell_volume    825.162
_exptl_crystal_colour 'colorless'
_exptl_crystal_density_diffrn 1.241
_exptl_crystal_description 'tablet'
_diffrn_ambient_temperature 143
#These two values have been output from a single CSD field.
_refine_ls_R_factor_gt 0.0476
_refine_ls_wR_factor_gt 0.0476
_symmetry_cell_setting monoclinic
_symmetry_space_group_name_H-M 'P 21'
_symmetry_Int_Tables_number 4
loop_
_symmetry_equiv_pos_site_id
_symmetry_equiv_pos_as_xyz
1 x,y,z
2 -x,1/2+y,-z
_cell_length_a 7.827(2)
_cell_length_b 9.908(2)
_cell_length_c 11.023(2)
_cell_angle_alpha 90
_cell_angle_beta 105.14(2)
_cell_angle_gamma 90
_cell_formula_units_Z 2
loop_
_atom_type_symbol
_atom_type_radius_bond
C 0.68
H 0.23
loop_
_atom_site_label
_atom_site_type_symbol
_atom_site_fract_x
_atom_site_fract_y
_atom_site_fract_z
C1 C 0.3801(4) 0.4375(4) 0.7740(3)
H1 H 0.37830 0.49950 0.70330
H2 H 0.30990 0.47900 0.82700
C2 C 0.2943(4) 0.2987(3) 0.7210(3)
H3 H 0.22420 0.26390 0.77720
H4 H 0.21190 0.31390 0.63720
C3 C 0.4287(3) 0.1931(3) 0.7093(2)
C4 C 0.5299(3) 0.2047(3) 0.6201(2)
C5 C 0.4752(4) 0.2951(3) 0.5157(2)
H5 H 0.36530 0.34080 0.50320
C6 C 0.5747(4) 0.3171(3) 0.4349(3)
H6 H 0.53800 0.38260 0.37030
C7 C 0.7345(3) 0.2437(3) 0.4446(2)
C8 C 0.8323(4) 0.2597(3) 0.3541(2)
H7 H 0.79690 0.32600 0.29020
C9 C 0.9770(4) 0.1813(4) 0.3576(3)
H8 H 1.04410 0.19500 0.29820
C10 C 1.0255(4) 0.0811(3) 0.4485(3)
H9 H 1.12280 0.02380 0.44870
C11 C 0.9337(3) 0.0645(3) 0.5380(2)
H10 H 0.96750 -0.00580 0.59810
C12 C 0.7912(3) 0.1486(3) 0.5432(2)
C13 C 0.6951(3) 0.1374(3) 0.6392(2)
C14 C 0.7644(3) 0.0699(3) 0.7560(2)
C15 C 0.6473(4) 0.0387(3) 0.8258(2)
H11 H 0.68170 -0.02460 0.89250
C16 C 0.4799(4) 0.0972(3) 0.8014(2)
H12 H 0.40050 0.07040 0.84890
C17 C 0.9617(4) 0.0637(3) 0.8224(2)
H13 H 1.03050 0.09330 0.76360
H14 H 0.99490 -0.03080 0.84660
C18 C 1.0108(4) 0.1555(4) 0.9434(2)
H15 H 1.00590 0.10070 1.01750
H16 H 1.13360 0.18870 0.95650
C19 C 0.8874(4) 0.2746(3) 0.9330(2)
C20 C 0.7645(4) 0.2780(3) 1.0047(2)
H17 H 0.78890 0.23060 1.08230
C21 C 0.6078(4) 0.3492(3) 0.9647(3)
H18 H 0.52650 0.35100 1.01530
C22 C 0.5685(4) 0.4180(3) 0.8509(3)
C23 C 0.7065(4) 0.4376(3) 0.7940(3)
H19 H 0.69260 0.49980 0.72660
C24 C 0.8640(4) 0.3665(3) 0.8355(3)
H20 H 0.95700 0.38120 0.79630
loop_
_geom_bond_atom_site_label_1
_geom_bond_atom_site_label_2
_geom_bond_distance
_geom_bond_site_symmetry_1
_geom_bond_site_symmetry_2
C1 H1 0.990 1_555 1_555
H2 C1 0.990 1_555 1_555
C2 C1 1.574 1_555 1_555
H3 C2 0.991 1_555 1_555
H4 C2 0.990 1_555 1_555
C3 C2 1.513 1_555 1_555
C4 C3 1.419 1_555 1_555
C5 C4 1.433 1_555 1_555
H5 C5 0.950 1_555 1_555
C6 C5 1.345 1_555 1_555
H6 C6 0.951 1_555 1_555
C7 C6 1.426 1_555 1_555
C8 C7 1.416 1_555 1_555
H7 C8 0.950 1_555 1_555
C9 C8 1.366 1_555 1_555
H8 C9 0.950 1_555 1_555
C10 C9 1.391 1_555 1_555
H9 C10 0.949 1_555 1_555
C11 C10 1.374 1_555 1_555
H10 C11 0.950 1_555 1_555
C12 C7 1.419 1_555 1_555
C13 C4 1.421 1_555 1_555
C14 C13 1.426 1_555 1_555
C15 C14 1.377 1_555 1_555
H11 C15 0.950 1_555 1_555
C16 C3 1.372 1_555 1_555
H12 C16 0.949 1_555 1_555
C17 C14 1.528 1_555 1_555
H13 C17 0.989 1_555 1_555
H14 C17 0.990 1_555 1_555
C18 C17 1.577 1_555 1_555
H15 C18 0.990 1_555 1_555
H16 C18 0.990 1_555 1_555
C19 C18 1.510 1_555 1_555
C20 C19 1.396 1_555 1_555
H17 C20 0.950 1_555 1_555
C21 C20 1.383 1_555 1_555
H18 C21 0.950 1_555 1_555
C22 C1 1.509 1_555 1_555
C23 C22 1.397 1_555 1_555
H19 C23 0.949 1_555 1_555
C24 C19 1.384 1_555 1_555
H20 C24 0.950 1_555 1_555
C11 C12 1.405 1_555 1_555
C12 C13 1.454 1_555 1_555
C15 C16 1.393 1_555 1_555
C21 C22 1.390 1_555 1_555
C23 C24 1.389 1_555 1_555
#END
