
#######################################################################
#
#                 Cambridge Crystallographic Data Centre
#                                CCDC
#
#######################################################################
#
# If this CIF has been generated from an entry in the Cambridge
# Structural Database, then it will include bibliographic, chemical,
# crystal, experimental, refinement or atomic coordinate data resulting
# from the CCDC's data processing and validation procedures.
#
#######################################################################

data_CSD_CIF_ICUQEF
_audit_creation_date 2017-01-04
_audit_creation_method CSD-ConQuest-V1
_database_code_CSD ICUQEF
_database_code_depnum_ccdc_archive 'CCDC 1482801'
_chemical_formula_sum 'C44 H36'
_chemical_formula_moiety
;
C44 H36
;
_journal_coden_Cambridge 1220
_journal_volume 22
_journal_year 2016
_journal_page_first 14840
_journal_name_full 'Chem.-Eur.J. '
loop_
_publ_author_name
"Gang Zhang"
"F.Rominger"
"Ute Zschieschang"
"H.Klauk"
"M.Mastalerz"
_chemical_name_systematic
;
2,12-di-t-butyldibenzo[hi,wx]heptacene
;
_cell_volume    734.570
_exptl_crystal_colour 'yellow'
_exptl_crystal_density_diffrn 1.277
_exptl_crystal_description 'needle'
_diffrn_ambient_temperature 200
#These two values have been output from a single CSD field.
_refine_ls_R_factor_gt 0.0657
_refine_ls_wR_factor_gt 0.0657
_symmetry_cell_setting triclinic
_symmetry_space_group_name_H-M 'P -1'
_symmetry_Int_Tables_number 2
loop_
_symmetry_equiv_pos_site_id
_symmetry_equiv_pos_as_xyz
1 x,y,z
2 -x,-y,-z
_cell_length_a 6.0472(16)
_cell_length_b 9.675(3)
_cell_length_c 13.478(4)
_cell_angle_alpha 82.367(7)
_cell_angle_beta 79.563(8)
_cell_angle_gamma 71.879(7)
_cell_formula_units_Z 1
loop_
_atom_type_symbol
_atom_type_radius_bond
C 0.68
H 0.23
loop_
_atom_site_label
_atom_site_type_symbol
_atom_site_fract_x
_atom_site_fract_y
_atom_site_fract_z
C1 C -0.0389(7) 0.5787(4) 0.4026(3)
C2 C -0.0708(7) 0.6566(4) 0.3090(3)
H1 H -0.22220 0.72140 0.30120
C3 C 0.1069(7) 0.6444(4) 0.2264(3)
C4 C 0.3250(7) 0.5496(4) 0.2399(3)
H2 H 0.44860 0.53890 0.18420
C5 C 0.3729(7) 0.4685(4) 0.3315(3)
C6 C 0.6074(7) 0.3706(4) 0.3422(3)
C7 C 0.7938(7) 0.3448(4) 0.2642(3)
H3 H 0.76930 0.39240 0.19900
C8 C 1.0174(7) 0.2514(4) 0.2770(3)
C9 C 1.2096(7) 0.2268(5) 0.1967(3)
H4 H 1.18590 0.27300 0.13110
C10 C 1.4271(8) 0.1381(5) 0.2118(4)
H5 H 1.55320 0.12320 0.15710
C11 C 1.4651(8) 0.0688(5) 0.3083(4)
H6 H 1.61690 0.00620 0.31790
C12 C 1.2875(7) 0.0900(5) 0.3885(3)
H7 H 1.31750 0.04410 0.45350
C13 C 1.0571(7) 0.1809(4) 0.3750(3)
C14 C 0.8690(7) 0.2066(4) 0.4542(3)
H8 H 0.89370 0.16020 0.51960
C15 C 0.6482(7) 0.2975(4) 0.4403(3)
C16 C 0.4566(7) 0.3202(4) 0.5215(3)
H9 H 0.48660 0.27350 0.58630
C17 C 0.2340(7) 0.4044(4) 0.5120(3)
C18 C 0.1874(7) 0.4835(4) 0.4153(3)
C19 C 0.0643(7) 0.7406(5) 0.1277(3)
C20 C -0.1859(7) 0.7659(5) 0.1059(3)
H10 H -0.20620 0.82430 0.04110
H11 H -0.29960 0.81800 0.16010
H12 H -0.21200 0.67180 0.10250
C21 C 0.0984(8) 0.8890(5) 0.1392(4)
H13 H 0.06850 0.95340 0.07740
H14 H 0.26010 0.87400 0.15050
H15 H -0.01180 0.93380 0.19700
C22 C 0.2355(8) 0.6733(6) 0.0362(3)
H16 H 0.19130 0.73280 -0.02590
H17 H 0.22880 0.57410 0.03280
H18 H 0.39570 0.66980 0.04310
C1A C 0.0389(7) 0.4213(4) 0.5974(3)
C2A C 0.0708(7) 0.3434(4) 0.6910(3)
H1A H 0.22220 0.27860 0.69880
C3A C -0.1069(7) 0.3556(4) 0.7736(3)
C4A C -0.3250(7) 0.4504(4) 0.7601(3)
H2A H -0.44860 0.46110 0.81580
C5A C -0.3729(7) 0.5315(4) 0.6685(3)
C6A C -0.6074(7) 0.6294(4) 0.6578(3)
C7A C -0.7938(7) 0.6552(4) 0.7358(3)
H3A H -0.76930 0.60760 0.80100
C8A C -1.0174(7) 0.7486(4) 0.7230(3)
C9A C -1.2096(7) 0.7732(5) 0.8033(3)
H4A H -1.18590 0.72700 0.86890
C10A C -1.4271(8) 0.8619(5) 0.7882(4)
H5A H -1.55320 0.87680 0.84290
C11A C -1.4651(8) 0.9312(5) 0.6917(4)
H6A H -1.61690 0.99380 0.68210
C12A C -1.2875(7) 0.9100(5) 0.6115(3)
H7A H -1.31750 0.95590 0.54650
C13A C -1.0571(7) 0.8191(4) 0.6250(3)
C14A C -0.8690(7) 0.7934(4) 0.5458(3)
H8A H -0.89370 0.83980 0.48040
C15A C -0.6482(7) 0.7025(4) 0.5597(3)
C16A C -0.4566(7) 0.6798(4) 0.4785(3)
H9A H -0.48660 0.72650 0.41370
C17A C -0.2340(7) 0.5956(4) 0.4880(3)
C18A C -0.1874(7) 0.5165(4) 0.5847(3)
C19A C -0.0643(7) 0.2594(5) 0.8723(3)
C20A C 0.1859(7) 0.2341(5) 0.8941(3)
H10A H 0.20620 0.17570 0.95890
H11A H 0.29960 0.18200 0.83990
H12A H 0.21200 0.32820 0.89750
C21A C -0.0984(8) 0.1110(5) 0.8608(4)
H13A H -0.06850 0.04660 0.92260
H14A H -0.26010 0.12600 0.84950
H15A H 0.01180 0.06620 0.80300
C22A C -0.2355(8) 0.3267(6) 0.9638(3)
H16A H -0.19130 0.26720 1.02590
H17A H -0.22880 0.42590 0.96720
H18A H -0.39570 0.33020 0.95690
loop_
_geom_bond_atom_site_label_1
_geom_bond_atom_site_label_2
_geom_bond_distance
_geom_bond_site_symmetry_1
_geom_bond_site_symmetry_2
C1 C2 1.394 1_555 1_555
C2 H1 0.950 1_555 1_555
C3 C2 1.389 1_555 1_555
C4 C3 1.380 1_555 1_555
H2 C4 0.950 1_555 1_555
C5 C4 1.398 1_555 1_555
C6 C5 1.460 1_555 1_555
C7 C6 1.380 1_555 1_555
H3 C7 0.951 1_555 1_555
C8 C7 1.399 1_555 1_555
C9 C8 1.421 1_555 1_555
H4 C9 0.950 1_555 1_555
C10 C9 1.362 1_555 1_555
H5 C10 0.950 1_555 1_555
C11 C10 1.405 1_555 1_555
H6 C11 0.950 1_555 1_555
C12 C11 1.366 1_555 1_555
H7 C12 0.950 1_555 1_555
C13 C8 1.429 1_555 1_555
C14 C13 1.396 1_555 1_555
H8 C14 0.950 1_555 1_555
C15 C6 1.439 1_555 1_555
C16 C15 1.426 1_555 1_555
H9 C16 0.949 1_555 1_555
C17 C16 1.358 1_555 1_555
C18 C1 1.418 1_555 1_555
C19 C3 1.532 1_555 1_555
C20 C19 1.532 1_555 1_555
H10 C20 0.981 1_555 1_555
H11 C20 0.980 1_555 1_555
H12 C20 0.979 1_555 1_555
C21 C19 1.544 1_555 1_555
H13 C21 0.980 1_555 1_555
H14 C21 0.980 1_555 1_555
H15 C21 0.980 1_555 1_555
C22 C19 1.532 1_555 1_555
H16 C22 0.980 1_555 1_555
H17 C22 0.981 1_555 1_555
H18 C22 0.980 1_555 1_555
C1A C17 1.477 1_555 1_555
C2A C1A 1.394 1_555 1_555
H1A C2A 0.950 1_555 1_555
C3A C2A 1.389 1_555 1_555
C4A C3A 1.380 1_555 1_555
H2A C4A 0.950 1_555 1_555
C5A C4A 1.398 1_555 1_555
C6A C5A 1.460 1_555 1_555
C7A C6A 1.380 1_555 1_555
H3A C7A 0.951 1_555 1_555
C8A C7A 1.399 1_555 1_555
C9A C8A 1.421 1_555 1_555
H4A C9A 0.950 1_555 1_555
C10A C9A 1.362 1_555 1_555
H5A C10A 0.950 1_555 1_555
C11A C10A 1.405 1_555 1_555
H6A C11A 0.950 1_555 1_555
C12A C11A 1.366 1_555 1_555
H7A C12A 0.950 1_555 1_555
C13A C8A 1.429 1_555 1_555
C14A C13A 1.396 1_555 1_555
H8A C14A 0.950 1_555 1_555
C15A C6A 1.439 1_555 1_555
C16A C15A 1.426 1_555 1_555
H9A C16A 0.949 1_555 1_555
C17A C1 1.477 1_555 1_555
C18A C1A 1.418 1_555 1_555
C19A C3A 1.532 1_555 1_555
C20A C19A 1.532 1_555 1_555
H10A C20A 0.981 1_555 1_555
H11A C20A 0.980 1_555 1_555
H12A C20A 0.979 1_555 1_555
C21A C19A 1.544 1_555 1_555
H13A C21A 0.980 1_555 1_555
H14A C21A 0.980 1_555 1_555
H15A C21A 0.980 1_555 1_555
C22A C19A 1.532 1_555 1_555
H16A C22A 0.980 1_555 1_555
H17A C22A 0.981 1_555 1_555
H18A C22A 0.980 1_555 1_555
C5 C18 1.428 1_555 1_555
C12 C13 1.426 1_555 1_555
C14 C15 1.381 1_555 1_555
C17 C18 1.448 1_555 1_555
C5A C18A 1.428 1_555 1_555
C12A C13A 1.426 1_555 1_555
C14A C15A 1.381 1_555 1_555
C16A C17A 1.358 1_555 1_555
C17A C18A 1.448 1_555 1_555
#END
