
#######################################################################
#
#                 Cambridge Crystallographic Data Centre
#                                CCDC
#
#######################################################################
#
# If this CIF has been generated from an entry in the Cambridge
# Structural Database, then it will include bibliographic, chemical,
# crystal, experimental, refinement or atomic coordinate data resulting
# from the CCDC's data processing and validation procedures.
#
#######################################################################

data_CSD_CIF_IDAKEE
_audit_creation_date 2006-08-03
_audit_creation_method CSD-ConQuest-V1
_database_code_CSD IDAKEE
_database_code_depnum_ccdc_archive 'CCDC 297971'
_chemical_formula_sum 'C36 H26'
_chemical_formula_moiety
;
C36 H26
;
_journal_coden_Cambridge 179
_journal_volume 45
_journal_year 2006
_journal_page_first 2923
_journal_name_full 'Angew.Chem.,Int.Ed. '
loop_
_publ_author_name
"S.K.Collins"
"A.Grandbois"
"M.P.Vachon"
"J.Cote"
_chemical_name_systematic
;
3,12-di-p-tolyl(5)helicene
;
_cell_volume   2395.555
_exptl_crystal_colour 'colorless'
_exptl_crystal_density_diffrn 1.271
_exptl_crystal_description 'cube'
_exptl_crystal_preparation 'dichloromethane'
_diffrn_ambient_temperature 200
#These two values have been output from a single CSD field.
_refine_ls_R_factor_gt 0.0354
_refine_ls_wR_factor_gt 0.0354
_symmetry_cell_setting monoclinic
_symmetry_space_group_name_H-M 'C 2/c'
_symmetry_Int_Tables_number 15
loop_
_symmetry_equiv_pos_site_id
_symmetry_equiv_pos_as_xyz
1 x,y,z
2 1/2+x,1/2+y,z
3 -x,y,1/2-z
4 1/2-x,1/2+y,1/2-z
5 -x,-y,-z
6 -1/2-x,-1/2-y,-z
7 x,-y,-1/2+z
8 -1/2+x,-1/2-y,-1/2+z
_cell_length_a 20.7869(6)
_cell_length_b 9.2002(3)
_cell_length_c 12.5785(4)
_cell_angle_alpha 90
_cell_angle_beta 95.227(1)
_cell_angle_gamma 90
_cell_formula_units_Z 4
loop_
_atom_type_symbol
_atom_type_radius_bond
C 0.68
H 0.23
loop_
_atom_site_label
_atom_site_type_symbol
_atom_site_fract_x
_atom_site_fract_y
_atom_site_fract_z
C1 C 0.48776(7) 0.98248(14) 0.69819(11)
H1 H 0.48190 1.07200 0.66090
C2 C 0.47082(6) 0.85035(14) 0.64477(11)
C3 C 0.44248(7) 0.85309(15) 0.53713(11)
H2 H 0.43770 0.94360 0.50100
C4 C 0.42237(7) 0.73078(15) 0.48543(11)
H3 H 0.40800 0.73450 0.41160
C5 C 0.42252(6) 0.59561(14) 0.54105(10)
C6 C 0.39272(6) 0.47194(14) 0.49271(10)
H4 H 0.37880 0.47560 0.41870
C7 C 0.38289(6) 0.34607(14) 0.54788(10)
C8 C 0.40222(6) 0.34664(14) 0.6586(1)
H5 H 0.39320 0.26420 0.70030
C9 C 0.43353(6) 0.46308(14) 0.70721(11)
H6 H 0.44590 0.45890 0.78170
C10 C 0.44801(6) 0.58958(13) 0.64983(10)
C11 C 0.48074(6) 0.71592(13) 0.69884(10)
C12 C 0.34997(6) 0.21836(14) 0.49578(10)
C13 C 0.35628(6) 0.18400(15) 0.38938(11)
H7 H 0.38390 0.24130 0.35030
C14 C 0.32343(6) 0.06879(14) 0.33913(11)
H8 H 0.32910 0.04760 0.26670
C15 C 0.28182(7) -0.01695(15) 0.39444(12)
C16 C 0.27718(6) 0.01441(14) 0.50164(12)
H9 H 0.25110 -0.04540 0.54190
C17 C 0.30953(6) 0.13020(15) 0.55050(11)
H10 H 0.30420 0.15060 0.62320
C18 C 0.24398(8) -0.14077(17) 0.33994(13)
H11 H 0.22190 -0.10640 0.27250
H12 H 0.21200 -0.17620 0.38640
H13 H 0.27360 -0.21990 0.32570
C1B C 0.51224(7) 0.98248(14) 0.80181(11)
H1B H 0.51810 1.07200 0.83910
C2B C 0.52918(6) 0.85035(14) 0.85523(11)
C3B C 0.55752(7) 0.85309(15) 0.96287(11)
H2B H 0.56230 0.94360 0.99900
C4B C 0.57763(7) 0.73078(15) 1.01457(11)
H3B H 0.59200 0.73450 1.08840
C5B C 0.57748(6) 0.59561(14) 0.95895(10)
C6B C 0.60728(6) 0.47194(14) 1.00729(10)
H4B H 0.62120 0.47560 1.08130
C7B C 0.61711(6) 0.34607(14) 0.95212(10)
C8B C 0.59778(6) 0.34664(14) 0.8414(1)
H5B H 0.60680 0.26420 0.79970
C9B C 0.56647(6) 0.46308(14) 0.79279(11)
H6B H 0.55410 0.45890 0.71830
C10B C 0.55199(6) 0.58958(13) 0.85017(10)
C11B C 0.51926(6) 0.71592(13) 0.80116(10)
C12B C 0.65003(6) 0.21836(14) 1.00422(10)
C13B C 0.64372(6) 0.18400(15) 1.11062(11)
H7B H 0.61610 0.24130 1.14970
C14B C 0.67657(6) 0.06879(14) 1.16087(11)
H8B H 0.67090 0.04760 1.23330
C15B C 0.71818(7) -0.01695(15) 1.10556(12)
C16B C 0.72282(6) 0.01441(14) 0.99836(12)
H9B H 0.74890 -0.04540 0.95810
C17B C 0.69047(6) 0.13020(15) 0.94950(11)
H10B H 0.69580 0.15060 0.87680
C18B C 0.75602(8) -0.14077(17) 1.16006(13)
H11B H 0.77810 -0.10640 1.22750
H12B H 0.78800 -0.17620 1.11360
H13B H 0.72640 -0.21990 1.17430
loop_
_geom_bond_atom_site_label_1
_geom_bond_atom_site_label_2
_geom_bond_distance
_geom_bond_site_symmetry_1
_geom_bond_site_symmetry_2
C1 H1 0.950 1_555 1_555
C2 C1 1.418 1_555 1_555
C3 C2 1.427 1_555 1_555
H2 C3 0.950 1_555 1_555
C4 C3 1.347 1_555 1_555
H3 C4 0.950 1_555 1_555
C5 C4 1.427 1_555 1_555
C6 C5 1.407 1_555 1_555
H4 C6 0.950 1_555 1_555
C7 C6 1.375 1_555 1_555
C8 C7 1.414 1_555 1_555
H5 C8 0.951 1_555 1_555
C9 C8 1.368 1_555 1_555
H6 C9 0.950 1_555 1_555
C10 C5 1.423 1_555 1_555
C11 C2 1.417 1_555 1_555
C12 C7 1.482 1_555 1_555
C13 C12 1.393 1_555 1_555
H7 C13 0.949 1_555 1_555
C14 C13 1.382 1_555 1_555
H8 C14 0.949 1_555 1_555
C15 C14 1.401 1_555 1_555
C16 C15 1.391 1_555 1_555
H9 C16 0.950 1_555 1_555
C17 C12 1.394 1_555 1_555
H10 C17 0.950 1_555 1_555
C18 C15 1.513 1_555 1_555
H11 C18 0.979 1_555 1_555
H12 C18 0.980 1_555 1_555
H13 C18 0.980 1_555 1_555
C1B C1 1.355 1_555 1_555
H1B C1B 0.950 1_555 1_555
C2B C1B 1.418 1_555 1_555
C3B C2B 1.427 1_555 1_555
H2B C3B 0.950 1_555 1_555
C4B C3B 1.347 1_555 1_555
H3B C4B 0.950 1_555 1_555
C5B C4B 1.427 1_555 1_555
C6B C5B 1.407 1_555 1_555
H4B C6B 0.950 1_555 1_555
C7B C6B 1.375 1_555 1_555
C8B C7B 1.414 1_555 1_555
H5B C8B 0.951 1_555 1_555
C9B C8B 1.368 1_555 1_555
H6B C9B 0.950 1_555 1_555
C10B C5B 1.423 1_555 1_555
C11B C11 1.453 1_555 1_555
C12B C7B 1.482 1_555 1_555
C13B C12B 1.393 1_555 1_555
H7B C13B 0.949 1_555 1_555
C14B C13B 1.382 1_555 1_555
H8B C14B 0.949 1_555 1_555
C15B C14B 1.401 1_555 1_555
C16B C15B 1.391 1_555 1_555
H9B C16B 0.950 1_555 1_555
C17B C12B 1.394 1_555 1_555
H10B C17B 0.950 1_555 1_555
C18B C15B 1.513 1_555 1_555
H11B C18B 0.979 1_555 1_555
H12B C18B 0.980 1_555 1_555
H13B C18B 0.980 1_555 1_555
C9 C10 1.416 1_555 1_555
C10 C11 1.455 1_555 1_555
C16 C17 1.375 1_555 1_555
C2B C11B 1.417 1_555 1_555
C9B C10B 1.416 1_555 1_555
C10B C11B 1.455 1_555 1_555
C16B C17B 1.375 1_555 1_555
#END
