
#######################################################################
#
#                 Cambridge Crystallographic Data Centre
#                                CCDC
#
#######################################################################
#
# If this CIF has been generated from an entry in the Cambridge
# Structural Database, then it will include bibliographic, chemical,
# crystal, experimental, refinement or atomic coordinate data resulting
# from the CCDC's data processing and validation procedures.
#
#######################################################################

data_CSD_CIF_IDEFIH
_audit_creation_date 2006-08-03
_audit_creation_method CSD-ConQuest-V1
_database_code_CSD IDEFIH
_database_code_depnum_ccdc_archive 'CCDC 608967'
_chemical_formula_sum 'C32 H22'
_chemical_formula_moiety
;
C32 H22
;
_journal_coden_Cambridge 4
_journal_volume 128
_journal_year 2006
_journal_page_first 5127
_journal_name_full 'J.Am.Chem.Soc. '
loop_
_publ_author_name
"J.Vicario"
"M.Walko"
"A.Meetsma"
"B.L.Feringa"
_chemical_name_systematic
;
9-(2-Phenyl-2,3-dihydrocylopenta(a)naphthalen-1-ylidene)-9H-fluorene
;
_cell_volume   4254.718
_exptl_crystal_colour 'yellow'
_exptl_crystal_density_diffrn 1.269
_exptl_crystal_description 'block'
_diffrn_ambient_temperature 100
#These two values have been output from a single CSD field.
_refine_ls_R_factor_gt 0.0533
_refine_ls_wR_factor_gt 0.0533
_symmetry_cell_setting orthorhombic
_symmetry_space_group_name_H-M 'P c a 21'
_symmetry_Int_Tables_number 29
loop_
_symmetry_equiv_pos_site_id
_symmetry_equiv_pos_as_xyz
1 x,y,z
2 -x,-y,1/2+z
3 1/2-x,y,1/2+z
4 1/2+x,-y,z
_cell_length_a 20.526(2)
_cell_length_b 8.1237(7)
_cell_length_c 25.516(2)
_cell_angle_alpha 90
_cell_angle_beta 90
_cell_angle_gamma 90
_cell_formula_units_Z 8
loop_
_atom_type_symbol
_atom_type_radius_bond
C 0.68
H 0.23
loop_
_atom_site_label
_atom_site_type_symbol
_atom_site_fract_x
_atom_site_fract_y
_atom_site_fract_z
C1 C 0.53871(10) 0.2050(3) 0.29795(9)
C2 C 0.60516(11) 0.2282(3) 0.30848(10)
C3 C 0.65089(11) 0.1548(3) 0.27583(10)
C4 C 0.63247(12) 0.0546(3) 0.23418(10)
C5 C 0.56667(12) 0.0221(3) 0.22505(10)
C6 C 0.52078(11) 0.0990(3) 0.25657(10)
C7 C 0.44956(11) 0.0877(3) 0.25496(9)
C8 C 0.40962(12) 0.0056(3) 0.21962(10)
C9 C 0.34243(12) 0.0215(3) 0.22446(10)
C10 C 0.31644(12) 0.1188(3) 0.2641(1)
C11 C 0.35608(10) 0.2000(3) 0.29992(10)
C12 C 0.42379(10) 0.1831(3) 0.29617(9)
C13 C 0.47832(10) 0.2615(3) 0.32529(9)
C14 C 0.47218(10) 0.3515(3) 0.36981(9)
C15 C 0.51955(10) 0.4489(2) 0.40023(9)
C16 C 0.5725(1) 0.5519(3) 0.38360(9)
C17 C 0.58428(11) 0.5944(3) 0.33083(9)
C18 C 0.63422(12) 0.7006(3) 0.31807(11)
C19 C 0.67443(11) 0.7662(3) 0.35736(11)
C20 C 0.66325(11) 0.7303(3) 0.40853(10)
C21 C 0.61096(10) 0.6261(3) 0.42364(10)
C22 C 0.59476(11) 0.6049(3) 0.4770(1)
C23 C 0.53958(10) 0.5219(3) 0.49155(10)
C24 C 0.50168(10) 0.4475(3) 0.45231(9)
C25 C 0.43814(10) 0.3586(3) 0.45953(9)
C26 C 0.4107(1) 0.3502(3) 0.40318(9)
C27 C 0.36569(10) 0.4940(3) 0.39122(9)
C28 C 0.38172(11) 0.6173(3) 0.35582(9)
C29 C 0.33985(12) 0.7494(3) 0.34705(10)
C30 C 0.28075(12) 0.7573(3) 0.37323(11)
C31 C 0.26383(11) 0.6336(3) 0.40735(11)
C32 C 0.30557(11) 0.5030(3) 0.41649(10)
H1 H 0.6198(12) 0.295(3) 0.337(1)
H2 H 0.6959(12) 0.176(3) 0.2815(10)
H3 H 0.6667(11) 0.008(3) 0.2134(9)
H4 H 0.5538(12) -0.055(3) 0.1966(10)
H5 H 0.4278(14) -0.065(4) 0.1930(12)
H6 H 0.3166(13) -0.042(4) 0.1999(12)
H7 H 0.2683(11) 0.128(2) 0.2655(9)
H8 H 0.3360(14) 0.262(3) 0.3271(11)
H9 H 0.5557(12) 0.545(3) 0.3046(10)
H10 H 0.6394(12) 0.732(3) 0.2810(12)
H11 H 0.7125(14) 0.837(4) 0.3487(12)
H12 H 0.6881(12) 0.776(3) 0.4362(10)
H13 H 0.6209(13) 0.661(3) 0.5052(11)
H14 H 0.5263(13) 0.521(3) 0.5276(12)
H15 H 0.4110(12) 0.417(3) 0.4832(11)
H16 H 0.4434(10) 0.249(3) 0.4733(8)
H17 H 0.3844(11) 0.247(3) 0.3967(9)
H18 H 0.4247(13) 0.612(3) 0.3356(11)
H19 H 0.3517(14) 0.834(4) 0.3213(12)
H20 H 0.2531(14) 0.851(3) 0.3671(12)
H21 H 0.2207(15) 0.632(4) 0.4250(13)
H22 H 0.2918(12) 0.416(3) 0.4403(10)
C33 C 0.47360(11) 0.6999(3) 0.12313(9)
C34 C 0.53955(11) 0.7134(3) 0.11047(9)
C35 C 0.58553(11) 0.6364(3) 0.14265(10)
C36 C 0.56672(12) 0.5435(3) 0.18544(10)
C37 C 0.50127(13) 0.5235(3) 0.19726(10)
C38 C 0.45519(11) 0.6008(3) 0.16577(9)
C39 C 0.38420(11) 0.5978(3) 0.16919(10)
C40 C 0.34440(12) 0.5252(3) 0.2066(1)
C41 C 0.27768(12) 0.5465(3) 0.20295(11)
C42 C 0.25151(12) 0.6398(3) 0.16263(10)
C43 C 0.29082(11) 0.7130(3) 0.12484(10)
C44 C 0.35857(10) 0.6904(3) 0.12766(9)
C45 C 0.41364(10) 0.7600(3) 0.09656(9)
C46 C 0.40714(10) 0.8488(3) 0.05164(9)
C47 C 0.4545(1) 0.9424(3) 0.01979(9)
C48 C 0.50835(10) 1.0441(3) 0.03486(9)
C49 C 0.52290(11) 1.0878(3) 0.08711(9)
C50 C 0.57329(12) 1.1927(3) 0.09857(11)
C51 C 0.61224(11) 1.2572(3) 0.05791(11)
C52 C 0.59922(11) 1.2199(3) 0.00714(10)
C53 C 0.54597(10) 1.1161(3) -0.00616(10)
C54 C 0.52818(11) 1.0924(3) -0.05914(9)
C55 C 0.47185(11) 1.0107(3) -0.07220(9)
C56 C 0.43469(10) 0.9390(3) -0.03186(9)
C57 C 0.37052(10) 0.8531(3) -0.03769(9)
C58 C 0.34441(10) 0.8494(3) 0.01948(9)
C59 C 0.30106(10) 0.9971(3) 0.03105(9)
C60 C 0.31823(11) 1.1187(3) 0.06721(10)
C61 C 0.27724(13) 1.2531(3) 0.07583(11)
C62 C 0.21921(12) 1.2665(3) 0.04870(11)
C63 C 0.20082(11) 1.1443(3) 0.01391(11)
C64 C 0.24162(11) 1.0107(3) 0.00486(10)
H23 H 0.5527(12) 0.782(3) 0.0801(10)
H24 H 0.6329(13) 0.652(3) 0.1325(11)
H25 H 0.5995(14) 0.481(4) 0.2063(12)
H26 H 0.4883(13) 0.459(3) 0.2283(12)
H27 H 0.3618(12) 0.460(3) 0.233(1)
H28 H 0.2497(14) 0.499(3) 0.2301(11)
H29 H 0.2057(12) 0.655(3) 0.1617(10)
H30 H 0.2705(11) 0.786(3) 0.0991(10)
H31 H 0.4944(12) 1.051(3) 0.1151(10)
H32 H 0.5812(12) 1.224(3) 0.1322(11)
H33 H 0.6483(13) 1.332(3) 0.0669(11)
H34 H 0.6231(13) 1.268(3) -0.0233(10)
H35 H 0.5521(12) 1.142(3) -0.0877(10)
H36 H 0.4585(12) 1.005(3) -0.1088(11)
H37 H 0.3757(11) 0.738(3) -0.0492(10)
H38 H 0.3397(12) 0.908(3) -0.0631(10)
H39 H 0.3188(12) 0.745(3) 0.0243(10)
H40 H 0.3607(13) 1.103(3) 0.0851(10)
H41 H 0.2895(12) 1.333(3) 0.1003(11)
H42 H 0.1921(14) 1.365(4) 0.0550(12)
H43 H 0.1569(14) 1.158(3) -0.0044(12)
H44 H 0.2293(13) 0.928(4) -0.0228(12)
loop_
_geom_bond_atom_site_label_1
_geom_bond_atom_site_label_2
_geom_bond_distance
_geom_bond_site_symmetry_1
_geom_bond_site_symmetry_2
C1 C2 1.403 1_555 1_555
C2 C3 1.389 1_555 1_555
C3 C4 1.391 1_555 1_555
C4 C5 1.396 1_555 1_555
C5 C6 1.387 1_555 1_555
C6 C1 1.411 1_555 1_555
C7 C6 1.465 1_555 1_555
C8 C7 1.389 1_555 1_555
C9 C8 1.391 1_555 1_555
C10 C9 1.390 1_555 1_555
C11 C10 1.390 1_555 1_555
C12 C7 1.409 1_555 1_555
C13 C1 1.495 1_555 1_555
C14 C13 1.357 1_555 1_555
C15 C14 1.474 1_555 1_555
C16 C15 1.436 1_555 1_555
C17 C16 1.411 1_555 1_555
C18 C17 1.379 1_555 1_555
C19 C18 1.404 1_555 1_555
C20 C19 1.357 1_555 1_555
C21 C16 1.425 1_555 1_555
C22 C21 1.412 1_555 1_555
C23 C22 1.369 1_555 1_555
C24 C15 1.379 1_555 1_555
C25 C24 1.502 1_555 1_555
C26 C14 1.522 1_555 1_555
C27 C26 1.520 1_555 1_555
C28 C27 1.388 1_555 1_555
C29 C28 1.393 1_555 1_555
C30 C29 1.386 1_555 1_555
C31 C30 1.374 1_555 1_555
C32 C27 1.394 1_555 1_555
H1 C2 0.956 1_555 1_555
H2 C3 0.951 1_555 1_555
H3 C4 0.958 1_555 1_555
H4 C5 0.995 1_555 1_555
H5 C8 0.964 1_555 1_555
H6 C9 0.969 1_555 1_555
H7 C10 0.992 1_555 1_555
H8 C11 0.951 1_555 1_555
H9 C17 0.976 1_555 1_555
H10 C18 0.985 1_555 1_555
H11 C19 0.995 1_555 1_555
H12 C20 0.947 1_555 1_555
H13 C22 1.007 1_555 1_555
H14 C23 0.959 1_555 1_555
H15 C25 0.949 1_555 1_555
H16 C25 0.963 1_555 1_555
H17 C26 1.011 1_555 1_555
H18 C28 1.023 1_555 1_555
H19 C29 0.981 1_555 1_555
H20 C30 0.962 1_555 1_555
H21 C31 0.993 1_555 1_555
H22 C32 0.974 1_555 1_555
C33 C34 1.396 1_555 1_555
C34 C35 1.399 1_555 1_555
C35 C36 1.382 1_555 1_555
C36 C37 1.386 1_555 1_555
C37 C38 1.391 1_555 1_555
C38 C33 1.405 1_555 1_555
C39 C38 1.460 1_555 1_555
C40 C39 1.388 1_555 1_555
C41 C40 1.384 1_555 1_555
C42 C41 1.386 1_555 1_555
C43 C42 1.391 1_555 1_555
C44 C39 1.402 1_555 1_555
C45 C33 1.488 1_555 1_555
C46 C45 1.361 1_555 1_555
C47 C46 1.478 1_555 1_555
C48 C47 1.433 1_555 1_555
C49 C48 1.412 1_555 1_555
C50 C49 1.372 1_555 1_555
C51 C50 1.411 1_555 1_555
C52 C51 1.357 1_555 1_555
C53 C48 1.426 1_555 1_555
C54 C53 1.413 1_555 1_555
C55 C54 1.374 1_555 1_555
C56 C47 1.379 1_555 1_555
C57 C56 1.498 1_555 1_555
C58 C46 1.527 1_555 1_555
C59 C58 1.523 1_555 1_555
C60 C59 1.397 1_555 1_555
C61 C60 1.396 1_555 1_555
C62 C61 1.382 1_555 1_555
C63 C62 1.384 1_555 1_555
C64 C59 1.395 1_555 1_555
H23 C34 0.992 1_555 1_555
H24 C35 1.014 1_555 1_555
H25 C36 0.997 1_555 1_555
H26 C37 0.986 1_555 1_555
H27 C40 0.928 1_555 1_555
H28 C41 0.979 1_555 1_555
H29 C42 0.949 1_555 1_555
H30 C43 0.978 1_555 1_555
H31 C49 0.970 1_555 1_555
H32 C50 0.910 1_555 1_555
H33 C51 0.985 1_555 1_555
H34 C52 0.998 1_555 1_555
H35 C54 0.967 1_555 1_555
H36 C55 0.974 1_555 1_555
H37 C57 0.986 1_555 1_555
H38 C57 1.010 1_555 1_555
H39 C58 1.005 1_555 1_555
H40 C60 0.992 1_555 1_555
H41 C61 0.935 1_555 1_555
H42 C62 0.988 1_555 1_555
H43 C63 1.021 1_555 1_555
H44 C64 1.007 1_555 1_555
C11 C12 1.400 1_555 1_555
C12 C13 1.487 1_555 1_555
C20 C21 1.420 1_555 1_555
C23 C24 1.405 1_555 1_555
C25 C26 1.546 1_555 1_555
C31 C32 1.383 1_555 1_555
C43 C44 1.405 1_555 1_555
C44 C45 1.492 1_555 1_555
C52 C53 1.422 1_555 1_555
C55 C56 1.407 1_555 1_555
C57 C58 1.554 1_555 1_555
C63 C64 1.390 1_555 1_555
#END
