
#######################################################################
#
#                 Cambridge Crystallographic Data Centre
#                                CCDC
#
#######################################################################
#
# If this CIF has been generated from an entry in the Cambridge
# Structural Database, then it will include bibliographic, chemical,
# crystal, experimental, refinement or atomic coordinate data resulting
# from the CCDC's data processing and validation procedures.
#
#######################################################################

data_CSD_CIF_IDEFED
_audit_creation_date 2006-08-03
_audit_creation_method CSD-ConQuest-V1
_database_code_CSD IDEFED
_database_code_depnum_ccdc_archive 'CCDC 608966'
_chemical_formula_sum 'C30 H26'
_chemical_formula_moiety
;
C30 H26
;
_journal_coden_Cambridge 4
_journal_volume 128
_journal_year 2006
_journal_page_first 5127
_journal_name_full 'J.Am.Chem.Soc. '
loop_
_publ_author_name
"J.Vicario"
"M.Walko"
"A.Meetsma"
"B.L.Feringa"
_chemical_name_systematic
;
9-(2-t-Butyl-2,3-dihydrocylopenta(a)naphthalen-1-ylidene)-9H-fluorene
;
_cell_volume   2155.867
_exptl_crystal_colour 'yellow'
_exptl_crystal_density_diffrn 1.191
_exptl_crystal_description 'platelet'
_diffrn_ambient_temperature 100
#These two values have been output from a single CSD field.
_refine_ls_R_factor_gt 0.0579
_refine_ls_wR_factor_gt 0.0579
_symmetry_cell_setting orthorhombic
_symmetry_space_group_name_H-M 'P c a 21'
_symmetry_Int_Tables_number 29
loop_
_symmetry_equiv_pos_site_id
_symmetry_equiv_pos_as_xyz
1 x,y,z
2 -x,-y,1/2+z
3 1/2-x,y,1/2+z
4 1/2+x,-y,z
_cell_length_a 23.320(5)
_cell_length_b 8.890(2)
_cell_length_c 10.399(2)
_cell_angle_alpha 90
_cell_angle_beta 90
_cell_angle_gamma 90
_cell_formula_units_Z 4
loop_
_atom_type_symbol
_atom_type_radius_bond
C 0.68
H 0.23
loop_
_atom_site_label
_atom_site_type_symbol
_atom_site_fract_x
_atom_site_fract_y
_atom_site_fract_z
C1 C 0.0864(2) 0.8617(6) 0.9209(4)
C2 C 0.0832(2) 0.7175(6) 0.8619(5)
C3 C 0.0499(2) 0.6036(6) 0.9212(5)
C4 C 0.0206(2) 0.6288(6) 1.0372(5)
C5 C 0.0262(2) 0.7664(6) 1.0997(5)
C6 C 0.0593(2) 0.8796(5) 1.0422(4)
C7 C 0.0737(2) 1.0307(6) 1.0925(4)
C8 C 0.0595(2) 1.0950(6) 1.2120(4)
C9 C 0.0772(2) 1.2421(6) 1.2385(5)
C10 C 0.1081(2) 1.3210(6) 1.1456(5)
C11 C 0.1238(2) 1.2559(6) 1.0274(5)
C12 C 0.1074(2) 1.1064(5) 0.9998(4)
C13 C 0.1186(2) 1.0024(5) 0.8876(4)
C14 C 0.1560(2) 1.0264(5) 0.7860(4)
C15 C 0.1740(2) 0.9230(5) 0.6793(4)
C16 C 0.1419(2) 0.8344(5) 0.5871(5)
C17 C 0.0810(2) 0.8372(6) 0.5778(5)
C18 C 0.0525(2) 0.7526(6) 0.4861(5)
C19 C 0.0842(2) 0.6623(6) 0.3989(5)
C20 C 0.1431(2) 0.6628(6) 0.4027(5)
C21 C 0.1740(2) 0.7496(6) 0.4942(5)
C22 C 0.2355(2) 0.7557(6) 0.4933(5)
C23 C 0.2650(2) 0.8491(5) 0.5764(4)
C24 C 0.2337(2) 0.9367(6) 0.6647(4)
C25 C 0.2561(2) 1.0624(5) 0.7510(5)
C26 C 0.20061(19) 1.1550(5) 0.7831(5)
C27 C 0.1878(2) 1.2872(5) 0.6867(5)
C28 C 0.2014(3) 1.2495(7) 0.5457(5)
C29 C 0.2250(3) 1.4227(6) 0.7269(6)
C30 C 0.1240(2) 1.3322(7) 0.6898(5)
H1 H 0.10315 0.69793 0.78397
H2 H 0.04735 0.50762 0.88142
H3 H -0.00287 0.55217 1.07294
H4 H 0.00779 0.78337 1.17992
H5 H 0.03816 1.03937 1.27368
H6 H 0.06834 1.28768 1.31872
H7 H 0.11895 1.42209 1.16266
H8 H 0.14530 1.31224 0.96648
H9 H 0.05957 0.89800 0.63554
H10 H 0.01182 0.75505 0.48153
H11 H 0.06473 0.60153 0.33780
H12 H 0.16372 0.60332 0.34251
H13 H 0.25625 0.69455 0.43458
H14 H 0.30567 0.85416 0.57398
H15 H 0.28467 1.12514 0.70528
H16 H 0.27382 1.02122 0.83007
H17 H 0.20439 1.19758 0.87172
H18 H 0.17600 1.16880 0.51622
H19 H 0.24141 1.21645 0.53863
H20 H 0.19559 1.33906 0.49244
H21 H 0.26560 1.39681 0.71772
H22 H 0.21690 1.44838 0.81677
H23 H 0.21597 1.50896 0.67187
H24 H 0.11777 1.41801 0.63231
H25 H 0.11320 1.36003 0.77764
H26 H 0.10053 1.24708 0.66123
loop_
_geom_bond_atom_site_label_1
_geom_bond_atom_site_label_2
_geom_bond_distance
_geom_bond_site_symmetry_1
_geom_bond_site_symmetry_2
C1 C2 1.423 1_555 1_555
C2 C3 1.417 1_555 1_555
C3 C4 1.404 1_555 1_555
C4 C5 1.391 1_555 1_555
C5 C6 1.402 1_555 1_555
C6 C1 1.420 1_555 1_555
C7 C6 1.480 1_555 1_555
C8 C7 1.407 1_555 1_555
C9 C8 1.399 1_555 1_555
C10 C9 1.394 1_555 1_555
C11 C10 1.407 1_555 1_555
C12 C7 1.414 1_555 1_555
C13 C1 1.499 1_555 1_555
C14 C13 1.387 1_555 1_555
C15 C14 1.501 1_555 1_555
C16 C15 1.449 1_555 1_555
C17 C16 1.424 1_555 1_555
C18 C17 1.384 1_555 1_555
C19 C18 1.419 1_555 1_555
C20 C19 1.374 1_555 1_555
C21 C16 1.436 1_555 1_555
C22 C21 1.435 1_555 1_555
C23 C22 1.382 1_555 1_555
C24 C15 1.406 1_555 1_555
C25 C24 1.525 1_555 1_555
C26 C14 1.546 1_555 1_555
C27 C26 1.573 1_555 1_555
C28 C27 1.537 1_555 1_555
C29 C27 1.542 1_555 1_555
C30 C27 1.541 1_555 1_555
H1 C2 0.950 1_555 1_555
H2 C3 0.950 1_555 1_555
H3 C4 0.950 1_555 1_555
H4 C5 0.950 1_555 1_555
H5 C8 0.951 1_555 1_555
H6 C9 0.950 1_555 1_555
H7 C10 0.950 1_555 1_555
H8 C11 0.951 1_555 1_555
H9 C17 0.950 1_555 1_555
H10 C18 0.950 1_555 1_555
H11 C19 0.950 1_555 1_555
H12 C20 0.950 1_555 1_555
H13 C22 0.950 1_555 1_555
H14 C23 0.950 1_555 1_555
H15 C25 0.990 1_555 1_555
H16 C25 0.990 1_555 1_555
H17 C26 1.000 1_555 1_555
H18 C28 0.980 1_555 1_555
H19 C28 0.981 1_555 1_555
H20 C28 0.979 1_555 1_555
H21 C29 0.979 1_555 1_555
H22 C29 0.980 1_555 1_555
H23 C29 0.980 1_555 1_555
H24 C30 0.980 1_555 1_555
H25 C30 0.979 1_555 1_555
H26 C30 0.980 1_555 1_555
C11 C12 1.412 1_555 1_555
C12 C13 1.511 1_555 1_555
C20 C21 1.421 1_555 1_555
C23 C24 1.408 1_555 1_555
C25 C26 1.570 1_555 1_555
#END
