
#######################################################################
#
#                 Cambridge Crystallographic Data Centre
#                                CCDC
#
#######################################################################
#
# If this CIF has been generated from an entry in the Cambridge
# Structural Database, then it will include bibliographic, chemical,
# crystal, experimental, refinement or atomic coordinate data resulting
# from the CCDC's data processing and validation procedures.
#
#######################################################################

data_CSD_CIF_IDILAJ
_audit_creation_date 2006-08-03
_audit_creation_method CSD-ConQuest-V1
_database_code_CSD IDILAJ
_database_code_depnum_ccdc_archive 'CCDC 293657'
_chemical_formula_sum 'C38 H26'
_chemical_formula_moiety
;
C38 H26
;
_journal_coden_Cambridge 24
_journal_volume 47
_journal_year 2006
_journal_page_first 3549
_journal_name_full 'Tetrahedron Lett. '
loop_
_publ_author_name
"G.V.Karunakar"
"M.Periasamy"
_chemical_name_systematic
;
3,4-bis(1-Naphthyl)-1,6-diphenylhexa-1,5-diyne
;
_cell_volume   2748.486
_exptl_crystal_colour 'colorless'
_exptl_crystal_density_diffrn 1.166
_exptl_special_details
;
space group is P-1 as in the cif, not P1 as published

;
_exptl_crystal_description 'block'
_diffrn_ambient_temperature 293
#These two values have been output from a single CSD field.
_refine_ls_R_factor_gt 0.0734
_refine_ls_wR_factor_gt 0.0734
_symmetry_cell_setting triclinic
_symmetry_space_group_name_H-M 'P -1'
_symmetry_Int_Tables_number 2
loop_
_symmetry_equiv_pos_site_id
_symmetry_equiv_pos_as_xyz
1 x,y,z
2 -x,-y,-z
_cell_length_a 10.1221(8)
_cell_length_b 14.9303(12)
_cell_length_c 18.7341(15)
_cell_angle_alpha 90.840(1)
_cell_angle_beta 103.840(2)
_cell_angle_gamma 90.520(2)
_cell_formula_units_Z 4
loop_
_atom_type_symbol
_atom_type_radius_bond
C 0.68
H 0.23
loop_
_atom_site_label
_atom_site_type_symbol
_atom_site_fract_x
_atom_site_fract_y
_atom_site_fract_z
C1 C 0.2315(5) 0.6189(4) 0.1499(3)
H1 H 0.24210 0.67970 0.16170
C2 C 0.1037(6) 0.5857(5) 0.1142(3)
H2 H 0.03000 0.62400 0.10310
C3 C 0.0863(6) 0.4982(6) 0.0957(3)
H3 H 0.00080 0.47650 0.07120
C4 C 0.1959(6) 0.4395(5) 0.1129(3)
C5 C 0.1805(8) 0.3467(6) 0.0946(3)
H4 H 0.09560 0.32460 0.06960
C6 C 0.2847(10) 0.2900(6) 0.1124(5)
H5 H 0.27180 0.22930 0.10040
C7 C 0.4128(8) 0.3229(5) 0.1490(4)
H6 H 0.48560 0.28380 0.16080
C8 C 0.4329(6) 0.4107(4) 0.1675(3)
H7 H 0.51930 0.43080 0.19210
C9 C 0.3265(5) 0.4719(4) 0.1506(2)
C10 C 0.3417(5) 0.5648(4) 0.1680(2)
C11 C 0.4794(4) 0.6044(3) 0.2088(2)
H8 H 0.54910 0.56600 0.19660
C12 C 0.5024(5) 0.6938(4) 0.1836(3)
C13 C 0.5227(7) 0.7647(5) 0.1641(3)
C14 C 0.5435(15) 0.8519(8) 0.1403(7)
C15 C 0.514(3) 0.9240(8) 0.1719(7)
H9 H 0.47680 0.91860 0.21260
C16 C 0.534(4) 1.0083(11) 0.1479(9)
H10 H 0.51290 1.05610 0.17540
C17 C 0.575(3) 1.0268(13) 0.0965(16)
H11 H 0.57240 1.08450 0.07840
C18 C 0.6312(17) 0.9514(16) 0.0635(16)
H12 H 0.68150 0.95900 0.02840
C19 C 0.6034(10) 0.8658(12) 0.0887(10)
H13 H 0.63110 0.81600 0.06590
C20 C 0.4993(4) 0.6012(3) 0.2939(2)
H14 H 0.46250 0.54340 0.30480
C21 C 0.4226(5) 0.6708(3) 0.3214(3)
C22 C 0.3560(5) 0.7241(4) 0.3445(3)
C23 C 0.2748(5) 0.7875(3) 0.3740(3)
C24 C 0.2751(7) 0.7897(5) 0.4452(4)
H15 H 0.32870 0.74960 0.47680
C25 C 0.1971(8) 0.8503(6) 0.4728(4)
H16 H 0.19820 0.85050 0.52260
C26 C 0.1197(8) 0.9090(5) 0.4281(6)
H17 H 0.06680 0.94960 0.44660
C27 C 0.1190(7) 0.9085(5) 0.3564(5)
H18 H 0.06630 0.94950 0.32530
C28 C 0.1962(7) 0.8476(4) 0.3283(4)
H19 H 0.19480 0.84730 0.27850
C29 C 0.6494(4) 0.6033(3) 0.3326(2)
C30 C 0.7216(5) 0.6824(4) 0.3385(3)
H20 H 0.67600 0.73480 0.32240
C31 C 0.8631(6) 0.6858(4) 0.3683(3)
H21 H 0.91030 0.73990 0.37040
C32 C 0.9302(5) 0.6110(5) 0.3938(3)
H22 H 1.02340 0.61400 0.41410
C33 C 0.8613(5) 0.5282(4) 0.3902(2)
C34 C 0.9309(6) 0.4503(5) 0.4166(3)
H23 H 1.02450 0.45340 0.43570
C35 C 0.8651(7) 0.3700(5) 0.4149(3)
H24 H 0.91310 0.31880 0.43230
C36 C 0.7237(6) 0.3659(4) 0.3865(3)
H25 H 0.67760 0.31170 0.38600
C37 C 0.6538(5) 0.4396(4) 0.3597(3)
H26 H 0.56030 0.43460 0.34070
C38 C 0.7179(5) 0.5240(3) 0.3597(2)
C39 C 1.1436(6) 0.1722(4) 0.3580(3)
H27 H 1.10290 0.11900 0.33670
C40 C 1.2209(8) 0.1727(5) 0.4316(4)
H28 H 1.23160 0.11990 0.45810
C41 C 1.2788(6) 0.2494(5) 0.4634(3)
H29 H 1.32840 0.24940 0.51210
C42 C 1.2652(5) 0.3292(4) 0.4239(3)
C43 C 1.3221(5) 0.4106(5) 0.4575(3)
H30 H 1.37170 0.41090 0.50620
C44 C 1.3060(5) 0.4880(5) 0.4202(3)
H31 H 1.34450 0.54080 0.44330
C45 C 1.2312(5) 0.4889(4) 0.3469(3)
H32 H 1.21900 0.54240 0.32150
C46 C 1.1761(4) 0.4109(4) 0.3126(3)
H33 H 1.12880 0.41210 0.26350
C47 C 1.1893(4) 0.3294(4) 0.3498(3)
C48 C 1.1278(5) 0.2478(3) 0.3177(3)
C49 C 1.0386(5) 0.2461(3) 0.2392(3)
H34 H 1.07620 0.29090 0.21150
C50 C 1.0424(5) 0.1593(4) 0.2024(3)
C51 C 1.0471(6) 0.0890(4) 0.1737(3)
C52 C 1.0532(8) 0.0032(5) 0.1394(4)
C53 C 0.978(1) -0.0670(6) 0.1483(5)
H35 H 0.91690 -0.06090 0.17800
C54 C 0.9877(12) -0.1501(7) 0.1142(8)
H36 H 0.93370 -0.19800 0.12190
C55 C 1.0699(14) -0.1608(7) 0.0724(6)
H37 H 1.07230 -0.21490 0.04750
C56 C 1.148(2) -0.0960(9) 0.0658(10)
H38 H 1.21250 -0.10280 0.03800
C57 C 1.1364(17) -0.0146(7) 0.1010(9)
H39 H 1.19590 0.03120 0.09560
C58 C 0.8909(5) 0.2752(3) 0.2392(2)
H40 H 0.89880 0.32760 0.27210
C59 C 0.8167(6) 0.2056(4) 0.2691(3)
C60 C 0.7557(5) 0.1504(4) 0.2934(3)
C61 C 0.6853(6) 0.0841(4) 0.3260(3)
C62 C 0.5599(7) 0.1002(5) 0.3385(4)
H41 H 0.51790 0.15480 0.32590
C63 C 0.4950(9) 0.0339(8) 0.3704(6)
H42 H 0.40790 0.04280 0.37710
C64 C 0.5611(12) -0.0435(8) 0.3916(5)
H43 H 0.51950 -0.08660 0.41440
C65 C 0.6822(12) -0.0594(5) 0.3806(4)
H44 H 0.72540 -0.11320 0.39500
C66 C 0.7439(7) 0.0048(5) 0.3475(3)
H45 H 0.82950 -0.00670 0.33960
C67 C 0.8117(5) 0.3042(4) 0.1633(3)
C68 C 0.7619(5) 0.2417(4) 0.1102(3)
H46 H 0.77550 0.18150 0.12140
C69 C 0.6907(6) 0.2641(5) 0.0392(3)
H47 H 0.65920 0.21910 0.00420
C70 C 0.6678(6) 0.3498(6) 0.0213(3)
H48 H 0.61970 0.36400 -0.02590
C71 C 0.7163(5) 0.4197(5) 0.0738(3)
C72 C 0.6942(5) 0.5110(5) 0.0563(3)
H49 H 0.64760 0.52620 0.00910
C73 C 0.7404(6) 0.5773(5) 0.1076(4)
H50 H 0.72620 0.63720 0.09520
C74 C 0.8088(5) 0.5545(4) 0.1784(3)
H51 H 0.83900 0.59950 0.21360
C75 C 0.8319(4) 0.4679(4) 0.1969(3)
H52 H 0.87750 0.45470 0.24470
C76 C 0.7890(4) 0.3964(4) 0.1458(3)
loop_
_geom_bond_atom_site_label_1
_geom_bond_atom_site_label_2
_geom_bond_distance
_geom_bond_site_symmetry_1
_geom_bond_site_symmetry_2
C1 H1 0.930 1_555 1_555
C2 C1 1.390 1_555 1_555
H2 C2 0.929 1_555 1_555
C3 C2 1.346 1_555 1_555
H3 C3 0.930 1_555 1_555
C4 C3 1.399 1_555 1_555
C5 C4 1.421 1_555 1_555
H4 C5 0.930 1_555 1_555
C6 C5 1.340 1_555 1_555
H5 C6 0.931 1_555 1_555
C7 C6 1.395 1_555 1_555
H6 C7 0.931 1_555 1_555
C8 C7 1.352 1_555 1_555
H7 C8 0.930 1_555 1_555
C9 C4 1.418 1_555 1_555
C10 C1 1.362 1_555 1_555
C11 C10 1.529 1_555 1_555
H8 C11 0.979 1_555 1_555
C12 C11 1.457 1_555 1_555
C13 C12 1.157 1_555 1_555
C14 C13 1.412 1_555 1_555
C15 C14 1.292 1_555 1_555
H9 C15 0.932 1_555 1_555
C16 C15 1.372 1_555 1_555
H10 C16 0.930 1_555 1_555
C17 C16 1.172 1_555 1_555
H11 C17 0.929 1_555 1_555
C18 C17 1.460 1_555 1_555
H12 C18 0.930 1_555 1_555
C19 C14 1.276 1_555 1_555
H13 C19 0.930 1_555 1_555
C20 C11 1.560 1_555 1_555
H14 C20 0.980 1_555 1_555
C21 C20 1.462 1_555 1_555
C22 C21 1.189 1_555 1_555
C23 C22 1.447 1_555 1_555
C24 C23 1.333 1_555 1_555
H15 C24 0.931 1_555 1_555
C25 C24 1.380 1_555 1_555
H16 C25 0.930 1_555 1_555
C26 C25 1.343 1_555 1_555
H17 C26 0.929 1_555 1_555
C27 C26 1.341 1_555 1_555
H18 C27 0.931 1_555 1_555
C28 C23 1.371 1_555 1_555
H19 C28 0.930 1_555 1_555
C29 C20 1.519 1_555 1_555
C30 C29 1.372 1_555 1_555
H20 C30 0.929 1_555 1_555
C31 C30 1.407 1_555 1_555
H21 C31 0.930 1_555 1_555
C32 C31 1.346 1_555 1_555
H22 C32 0.929 1_555 1_555
C33 C32 1.407 1_555 1_555
C34 C33 1.400 1_555 1_555
H23 C34 0.930 1_555 1_555
C35 C34 1.362 1_555 1_555
H24 C35 0.930 1_555 1_555
C36 C35 1.403 1_555 1_555
H25 C36 0.929 1_555 1_555
C37 C36 1.351 1_555 1_555
H26 C37 0.930 1_555 1_555
C38 C29 1.416 1_555 1_555
C39 H27 0.931 1_555 1_555
C40 C39 1.413 1_555 1_555
H28 C40 0.931 1_555 1_555
C41 C40 1.346 1_555 1_555
H29 C41 0.930 1_555 1_555
C42 C41 1.402 1_555 1_555
C43 C42 1.413 1_555 1_555
H30 C43 0.930 1_555 1_555
C44 C43 1.350 1_555 1_555
H31 C44 0.930 1_555 1_555
C45 C44 1.401 1_555 1_555
H32 C45 0.930 1_555 1_555
C46 C45 1.369 1_555 1_555
H33 C46 0.930 1_555 1_555
C47 C42 1.417 1_555 1_555
C48 C39 1.357 1_555 1_555
C49 C48 1.530 1_555 1_555
H34 C49 0.981 1_555 1_555
C50 C49 1.464 1_555 1_555
C51 C50 1.179 1_555 1_555
C52 C51 1.433 1_555 1_555
C53 C52 1.326 1_555 1_555
H35 C53 0.930 1_555 1_555
C54 C53 1.402 1_555 1_555
H36 C54 0.930 1_555 1_555
C55 C54 1.281 1_555 1_555
H37 C55 0.930 1_555 1_555
C56 C55 1.270 1_555 1_555
H38 C56 0.933 1_555 1_555
C57 C52 1.259 1_555 1_555
H39 C57 0.930 1_555 1_555
C58 C49 1.561 1_555 1_555
H40 C58 0.980 1_555 1_555
C59 C58 1.470 1_555 1_555
C60 C59 1.185 1_555 1_555
C61 C60 1.440 1_555 1_555
C62 C61 1.367 1_555 1_555
H41 C62 0.930 1_555 1_555
C63 C62 1.401 1_555 1_555
H42 C63 0.930 1_555 1_555
C64 C63 1.357 1_555 1_555
H43 C64 0.929 1_555 1_555
C65 C64 1.314 1_555 1_555
H44 C65 0.930 1_555 1_555
C66 C61 1.352 1_555 1_555
H45 C66 0.930 1_555 1_555
C67 C58 1.527 1_555 1_555
C68 C67 1.356 1_555 1_555
H46 C68 0.930 1_555 1_555
C69 C68 1.400 1_555 1_555
H47 C69 0.931 1_555 1_555
C70 C69 1.336 1_555 1_555
H48 C70 0.930 1_555 1_555
C71 C70 1.424 1_555 1_555
C72 C71 1.414 1_555 1_555
H49 C72 0.930 1_555 1_555
C73 C72 1.368 1_555 1_555
H50 C73 0.931 1_555 1_555
C74 C73 1.390 1_555 1_555
H51 C74 0.931 1_555 1_555
C75 C74 1.351 1_555 1_555
H52 C75 0.929 1_555 1_555
C76 C67 1.428 1_555 1_555
C8 C9 1.399 1_555 1_555
C9 C10 1.419 1_555 1_555
C18 C19 1.418 1_555 1_555
C27 C28 1.382 1_555 1_555
C33 C38 1.428 1_555 1_555
C37 C38 1.412 1_555 1_555
C46 C47 1.403 1_555 1_555
C47 C48 1.421 1_555 1_555
C56 C57 1.393 1_555 1_555
C65 C66 1.373 1_555 1_555
C71 C76 1.423 1_555 1_555
C75 C76 1.417 1_555 1_555
#END
