
#######################################################################
#
#                 Cambridge Crystallographic Data Centre
#                                CCDC
#
#######################################################################
#
# If this CIF has been generated from an entry in the Cambridge
# Structural Database, then it will include bibliographic, chemical,
# crystal, experimental, refinement or atomic coordinate data resulting
# from the CCDC's data processing and validation procedures.
#
#######################################################################

data_CSD_CIF_IDUVUB
_audit_creation_date 2018-08-07
_audit_creation_method CSD-ConQuest-V1
_database_code_CSD IDUVUB
_database_code_depnum_ccdc_archive 'CCDC 1406101'
_chemical_formula_sum 'C28 H24'
_chemical_formula_moiety
;
C28 H24
;
_journal_coden_Cambridge 4
_journal_volume 140
_journal_year 2018
_journal_page_first 10374
_journal_name_full 'J.Am.Chem.Soc. '
loop_
_publ_author_name
"Zhiyao Zheng"
"Yuxi Cao"
"Qinglei Chong"
"Zhaobin Han"
"Jiaming Ding"
"Chenguang Luo"
"Zheng Wang"
"Dongsheng Zhu"
"Qi-Lin Zhou"
"Kuiling Ding"
_chemical_name_systematic
;
12a,13,14,15,15a,16-hexahydro-12H-benzo[b]benzo[5,6]indeno[1,2-f]fluorene
;
_cell_volume   1954.294
_exptl_crystal_colour 'colorless'
_exptl_crystal_density_diffrn 1.225
_exptl_crystal_description 'prismatic'
_diffrn_ambient_temperature 293
#These two values have been output from a single CSD field.
_refine_ls_R_factor_gt 0.0419
_refine_ls_wR_factor_gt 0.0419
_symmetry_cell_setting orthorhombic
_symmetry_space_group_name_H-M 'P 21 21 21'
_symmetry_Int_Tables_number 19
loop_
_symmetry_equiv_pos_site_id
_symmetry_equiv_pos_as_xyz
1 x,y,z
2 1/2-x,-y,1/2+z
3 -x,1/2+y,1/2-z
4 1/2+x,1/2-y,-z
_cell_length_a 9.9333(9)
_cell_length_b 11.0826(10)
_cell_length_c 17.7523(17)
_cell_angle_alpha 90
_cell_angle_beta 90
_cell_angle_gamma 90
_cell_formula_units_Z 4
loop_
_atom_type_symbol
_atom_type_radius_bond
C 0.68
H 0.23
loop_
_atom_site_label
_atom_site_type_symbol
_atom_site_fract_x
_atom_site_fract_y
_atom_site_fract_z
C1 C 0.49658(16) 0.04806(16) 0.16852(10)
C2 C 0.60168(18) 0.11386(19) 0.20245(11)
H1 H 0.59960 0.19770 0.20130
C3 C 0.7064(2) 0.0566(2) 0.23687(13)
H2 H 0.77450 0.10170 0.25930
C4 C 0.7123(2) -0.0689(3) 0.23879(15)
H3 H 0.78480 -0.10710 0.26180
C5 C 0.6129(2) -0.1353(2) 0.20729(14)
H4 H 0.61770 -0.21910 0.20910
C6 C 0.50199(18) -0.07989(18) 0.17171(11)
C7 C 0.3944(2) -0.14719(17) 0.14105(12)
H5 H 0.39650 -0.23100 0.14310
C8 C 0.28789(18) -0.09042(16) 0.10863(11)
C9 C 0.28435(15) 0.03699(15) 0.10325(9)
C10 C 0.38536(16) 0.10447(16) 0.13287(9)
H6 H 0.38160 0.18820 0.12980
C11 C 0.15920(19) -0.14269(17) 0.07871(14)
H7 H 0.12630 -0.20680 0.11100
H8 H 0.17120 -0.17390 0.02810
C12 C 0.06324(18) -0.03442(16) 0.07920(12)
H9 H 0.02850 -0.02530 0.13060
C13 C 0.15525(16) 0.07446(15) 0.06271(10)
C14 C 0.18435(18) 0.09248(16) -0.0233(1)
H10 H 0.25420 0.03620 -0.04020
C15 C 0.0579(2) 0.07797(19) -0.07095(12)
H11 H -0.00170 0.14560 -0.06130
H12 H 0.08280 0.08040 -0.12380
C16 C -0.0174(2) -0.0380(2) -0.05558(14)
H13 H -0.09740 -0.04130 -0.08690
H14 H 0.03920 -0.10630 -0.06850
C17 C -0.0573(2) -0.04608(19) 0.02624(14)
H15 H -0.10140 -0.12290 0.03510
H16 H -0.12150 0.01740 0.03750
C18 C 0.23600(17) 0.22237(16) -0.02712(10)
H17 H 0.33100 0.22660 -0.01480
H18 H 0.22170 0.25690 -0.07670
C19 C 0.15239(15) 0.28504(15) 0.0311(1)
C20 C 0.10532(15) 0.19918(15) 0.08431(9)
C21 C 0.02316(16) 0.23403(16) 0.1417(1)
H19 H -0.00660 0.17760 0.17670
C22 C -0.01720(16) 0.35681(16) 0.14823(10)
C23 C 0.02965(16) 0.44165(15) 0.09480(11)
C24 C 0.11612(16) 0.40232(16) 0.03608(10)
H20 H 0.14800 0.45750 0.00090
C25 C -0.10693(19) 0.39714(19) 0.20421(11)
H21 H -0.13890 0.34290 0.23990
C26 C -0.1477(2) 0.5148(2) 0.20687(13)
H22 H -0.20790 0.53940 0.24400
C27 C -0.1003(2) 0.5984(2) 0.15457(14)
H23 H -0.12740 0.67860 0.15730
C28 C -0.01421(19) 0.56217(17) 0.09959(13)
H24 H 0.01630 0.61810 0.06440
loop_
_geom_bond_atom_site_label_1
_geom_bond_atom_site_label_2
_geom_bond_distance
_geom_bond_site_symmetry_1
_geom_bond_site_symmetry_2
C1 C2 1.409 1_555 1_555
C2 H1 0.930 1_555 1_555
C3 C2 1.363 1_555 1_555
H2 C3 0.931 1_555 1_555
C4 C3 1.393 1_555 1_555
H3 C4 0.930 1_555 1_555
C5 C4 1.352 1_555 1_555
H4 C5 0.930 1_555 1_555
C6 C1 1.420 1_555 1_555
C7 C6 1.412 1_555 1_555
H5 C7 0.930 1_555 1_555
C8 C7 1.359 1_555 1_555
C9 C8 1.416 1_555 1_555
C10 C1 1.418 1_555 1_555
H6 C10 0.930 1_555 1_555
C11 C8 1.501 1_555 1_555
H7 C11 0.970 1_555 1_555
H8 C11 0.970 1_555 1_555
C12 C11 1.532 1_555 1_555
H9 C12 0.981 1_555 1_555
C13 C9 1.528 1_555 1_555
C14 C13 1.567 1_555 1_555
H10 C14 0.980 1_555 1_555
C15 C14 1.523 1_555 1_555
H11 C15 0.970 1_555 1_555
H12 C15 0.971 1_555 1_555
C16 C15 1.512 1_555 1_555
H13 C16 0.971 1_555 1_555
H14 C16 0.970 1_555 1_555
C17 C12 1.528 1_555 1_555
H15 C17 0.970 1_555 1_555
H16 C17 0.970 1_555 1_555
C18 C14 1.530 1_555 1_555
H17 C18 0.970 1_555 1_555
H18 C18 0.970 1_555 1_555
C19 C18 1.497 1_555 1_555
C20 C13 1.518 1_555 1_555
C21 C20 1.361 1_555 1_555
H19 C21 0.930 1_555 1_555
C22 C21 1.423 1_555 1_555
C23 C22 1.414 1_555 1_555
C24 C19 1.352 1_555 1_555
H20 C24 0.930 1_555 1_555
C25 C22 1.408 1_555 1_555
H21 C25 0.929 1_555 1_555
C26 C25 1.366 1_555 1_555
H22 C26 0.931 1_555 1_555
C27 C26 1.394 1_555 1_555
H23 C27 0.930 1_555 1_555
C28 C23 1.408 1_555 1_555
H24 C28 0.931 1_555 1_555
C5 C6 1.411 1_555 1_555
C9 C10 1.357 1_555 1_555
C12 C13 1.542 1_555 1_555
C16 C17 1.508 1_555 1_555
C19 C20 1.420 1_555 1_555
C23 C24 1.419 1_555 1_555
C27 C28 1.358 1_555 1_555
#END
