
#######################################################################
#
#                 Cambridge Crystallographic Data Centre
#                                CCDC
#
#######################################################################
#
# If this CIF has been generated from an entry in the Cambridge
# Structural Database, then it will include bibliographic, chemical,
# crystal, experimental, refinement or atomic coordinate data resulting
# from the CCDC's data processing and validation procedures.
#
#######################################################################

data_CSD_CIF_IGEBOM01
_audit_creation_date 2014-12-02
_audit_creation_method CSD-ConQuest-V1
_database_code_CSD IGEBOM01
_database_code_depnum_ccdc_archive 'CCDC 1010825'
_chemical_formula_sum 'C34 H22'
_chemical_formula_moiety
;
C34 H22
;
_journal_coden_Cambridge 1500
_journal_volume 5
_journal_year 2015
_journal_page_first 1079
_journal_name_full 'RSC Advances '
loop_
_publ_author_name
"Guo-Feng Zhang"
"M.P.Aldred"
"Ze-Qiang Chen"
"Tao Chen"
"Xianggao Meng"
"Ming-Qiang Zhu"
_chemical_name_systematic
;
9-(di-1-naphthylmethylene)-9H-fluorene
;
_cell_volume   2279.816
_exptl_crystal_density_diffrn 1.254
_diffrn_ambient_temperature 298
#These two values have been output from a single CSD field.
_refine_ls_R_factor_gt 0.0477
_refine_ls_wR_factor_gt 0.0477
_symmetry_cell_setting monoclinic
_symmetry_space_group_name_H-M 'P 21/c'
_symmetry_Int_Tables_number 14
loop_
_symmetry_equiv_pos_site_id
_symmetry_equiv_pos_as_xyz
1 x,y,z
2 -x,1/2+y,1/2-z
3 -x,-y,-z
4 x,-1/2-y,-1/2+z
_cell_length_a 12.5099(18)
_cell_length_b 13.0134(19)
_cell_length_c 14.188(2)
_cell_angle_alpha 90
_cell_angle_beta 99.235(2)
_cell_angle_gamma 90
_cell_formula_units_Z 4
loop_
_atom_type_symbol
_atom_type_radius_bond
C 0.68
H 0.23
loop_
_atom_site_label
_atom_site_type_symbol
_atom_site_fract_x
_atom_site_fract_y
_atom_site_fract_z
C1 C 0.24794(9) 0.77742(9) 0.00862(8)
C2 C 0.17645(9) 0.77567(10) -0.08619(8)
C3 C 0.15511(12) 0.70039(12) -0.15661(10)
H1 H 0.18800 0.63620 -0.14800
C4 C 0.08406(13) 0.72255(14) -0.23977(10)
H2 H 0.06950 0.67260 -0.28690
C5 C 0.03451(13) 0.81756(15) -0.25377(11)
H3 H -0.01330 0.83050 -0.30980
C6 C 0.05555(12) 0.89319(13) -0.18539(11)
H4 H 0.02280 0.95730 -0.19510
C7 C 0.1261(1) 0.87245(11) -0.10188(9)
C8 C 0.16116(10) 0.93771(10) -0.01844(9)
C9 C 0.13238(12) 1.03782(11) 0.00068(12)
H5 H 0.08530 1.07490 -0.04420
C10 C 0.17456(13) 1.08128(11) 0.08707(12)
H6 H 0.15660 1.14850 0.10030
C11 C 0.24334(13) 1.02596(11) 0.15436(11)
H7 H 0.27010 1.05610 0.21280
C12 C 0.27309(11) 0.92613(10) 0.13618(9)
H8 H 0.31930 0.88940 0.18210
C13 C 0.23306(9) 0.88155(9) 0.04853(8)
C14 C 0.31363(9) 0.70176(9) 0.04873(8)
C15 C 0.31621(10) 0.59830(9) 0.00241(8)
C16 C 0.39163(11) 0.57930(12) -0.05576(9)
H9 H 0.44060 0.63050 -0.06560
C17 C 0.39585(13) 0.48278(13) -0.10097(11)
H10 H 0.44670 0.47140 -0.14100
C18 C 0.32631(13) 0.40680(12) -0.08628(10)
H11 H 0.33040 0.34360 -0.11600
C19 C 0.24793(11) 0.42218(10) -0.02660(9)
C20 C 0.17422(13) 0.34401(11) -0.01003(11)
H12 H 0.17830 0.28010 -0.03850
C21 C 0.09821(13) 0.35993(12) 0.04605(12)
H13 H 0.05100 0.30730 0.05600
C22 C 0.09072(12) 0.45617(12) 0.08933(12)
H14 H 0.03810 0.46720 0.12770
C23 C 0.16017(11) 0.5338(1) 0.07558(10)
H15 H 0.15380 0.59710 0.10460
C24 C 0.24159(10) 0.51977(9) 0.01804(8)
C25 C 0.39125(10) 0.71199(9) 0.14031(8)
C26 C 0.37646(13) 0.65328(11) 0.21779(9)
H16 H 0.31660 0.61010 0.21310
C27 C 0.44974(14) 0.65707(12) 0.30381(10)
H17 H 0.43800 0.61640 0.35510
C28 C 0.53743(13) 0.71952(12) 0.31264(9)
H18 H 0.58450 0.72240 0.37040
C29 C 0.5582(1) 0.78037(10) 0.23513(8)
C30 C 0.65098(12) 0.84351(12) 0.24161(11)
H19 H 0.69840 0.84730 0.29910
C31 C 0.67242(13) 0.89880(13) 0.16551(12)
H20 H 0.73440 0.93920 0.17110
C32 C 0.60090(12) 0.89494(12) 0.07854(11)
H21 H 0.61580 0.93290 0.02660
C33 C 0.50953(11) 0.83574(10) 0.06973(9)
H22 H 0.46270 0.83430 0.01180
C34 C 0.48475(9) 0.77649(9) 0.14722(8)
loop_
_geom_bond_atom_site_label_1
_geom_bond_atom_site_label_2
_geom_bond_distance
_geom_bond_site_symmetry_1
_geom_bond_site_symmetry_2
C1 C2 1.491 1_555 1_555
C2 C3 1.394 1_555 1_555
C3 H1 0.931 1_555 1_555
C4 C3 1.389 1_555 1_555
H2 C4 0.929 1_555 1_555
C5 C4 1.383 1_555 1_555
H3 C5 0.930 1_555 1_555
C6 C5 1.377 1_555 1_555
H4 C6 0.930 1_555 1_555
C7 C2 1.410 1_555 1_555
C8 C7 1.466 1_555 1_555
C9 C8 1.390 1_555 1_555
H5 C9 0.930 1_555 1_555
C10 C9 1.376 1_555 1_555
H6 C10 0.930 1_555 1_555
C11 C10 1.381 1_555 1_555
H7 C11 0.930 1_555 1_555
C12 C11 1.387 1_555 1_555
H8 C12 0.931 1_555 1_555
C13 C1 1.492 1_555 1_555
C14 C1 1.349 1_555 1_555
C15 C14 1.501 1_555 1_555
C16 C15 1.372 1_555 1_555
H9 C16 0.931 1_555 1_555
C17 C16 1.415 1_555 1_555
H10 C17 0.930 1_555 1_555
C18 C17 1.355 1_555 1_555
H11 C18 0.929 1_555 1_555
C19 C18 1.409 1_555 1_555
C20 C19 1.418 1_555 1_555
H12 C20 0.930 1_555 1_555
C21 C20 1.350 1_555 1_555
H13 C21 0.930 1_555 1_555
C22 C21 1.405 1_555 1_555
H14 C22 0.930 1_555 1_555
C23 C22 1.367 1_555 1_555
H15 C23 0.930 1_555 1_555
C24 C15 1.425 1_555 1_555
C25 C14 1.498 1_555 1_555
C26 C25 1.375 1_555 1_555
H16 C26 0.930 1_555 1_555
C27 C26 1.405 1_555 1_555
H17 C27 0.930 1_555 1_555
C28 C27 1.355 1_555 1_555
H18 C28 0.930 1_555 1_555
C29 C28 1.413 1_555 1_555
C30 C29 1.413 1_555 1_555
H19 C30 0.930 1_555 1_555
C31 C30 1.360 1_555 1_555
H20 C31 0.930 1_555 1_555
C32 C31 1.404 1_555 1_555
H21 C32 0.931 1_555 1_555
C33 C32 1.367 1_555 1_555
H22 C33 0.930 1_555 1_555
C34 C25 1.430 1_555 1_555
C6 C7 1.386 1_555 1_555
C8 C13 1.404 1_555 1_555
C12 C13 1.391 1_555 1_555
C19 C24 1.427 1_555 1_555
C23 C24 1.416 1_555 1_555
C29 C34 1.426 1_555 1_555
C33 C34 1.417 1_555 1_555
#END
