
#######################################################################
#
#                 Cambridge Crystallographic Data Centre
#                                CCDC
#
#######################################################################
#
# If this CIF has been generated from an entry in the Cambridge
# Structural Database, then it will include bibliographic, chemical,
# crystal, experimental, refinement or atomic coordinate data resulting
# from the CCDC's data processing and validation procedures.
#
#######################################################################

data_CSD_CIF_IGEBOM
_audit_creation_date 2010-05-03
_audit_creation_method CSD-ConQuest-V1
_database_code_CSD IGEBOM
_database_code_depnum_ccdc_archive 'CCDC 711661'
_chemical_formula_sum 'C34 H22'
_chemical_formula_moiety
;
C34 H22
;
_journal_coden_Cambridge 1094
_journal_volume 20
_journal_year 2009
_journal_page_first 541
_journal_name_full 'Struct.Chem. '
loop_
_publ_author_name
"N.Assadi"
"S.Pogodin"
"S.Cohen"
"A.Levy"
"I.Agranat"
_chemical_name_systematic
;
9-(Dinaphth-1-ylmethylidene)fluorene
;
_chemical_melting_point 461.15
_cell_volume   2236.964
_exptl_crystal_colour 'yellow'
_exptl_crystal_density_diffrn 1.278
_exptl_special_details
;
Melting point range 461.15-463.15K

;
_exptl_crystal_description 'plate'
_exptl_crystal_preparation 'dichloromethane'
_diffrn_ambient_temperature 173
#These two values have been output from a single CSD field.
_refine_ls_R_factor_gt 0.0607
_refine_ls_wR_factor_gt 0.0607
_symmetry_cell_setting monoclinic
_symmetry_space_group_name_H-M 'P 21/c'
_symmetry_Int_Tables_number 14
loop_
_symmetry_equiv_pos_site_id
_symmetry_equiv_pos_as_xyz
1 x,y,z
2 -x,1/2+y,1/2-z
3 -x,-y,-z
4 x,-1/2-y,-1/2+z
_cell_length_a 12.4286(16)
_cell_length_b 12.9250(17)
_cell_length_c 14.0899(18)
_cell_angle_alpha 90
_cell_angle_beta 98.765(2)
_cell_angle_gamma 90
_cell_formula_units_Z 4
loop_
_atom_type_symbol
_atom_type_radius_bond
C 0.68
H 0.23
loop_
_atom_site_label
_atom_site_type_symbol
_atom_site_fract_x
_atom_site_fract_y
_atom_site_fract_z
C1 C 0.27437(14) 0.07287(13) 0.63676(12)
H1 H 0.32200 0.11040 0.68360
C2 C 0.24417(15) -0.02745(14) 0.65510(14)
H2 H 0.27190 -0.05870 0.71480
C3 C 0.17434(15) -0.08282(14) 0.58784(14)
H3 H 0.15550 -0.15190 0.60160
C4 C 0.13171(15) -0.03881(14) 0.50083(14)
H4 H 0.08300 -0.07660 0.45500
C5 C 0.16139(13) 0.06166(13) 0.48168(12)
C6 C 0.12647(14) 0.12785(14) 0.39810(13)
C7 C 0.05529(15) 0.10659(16) 0.31489(13)
H5 H 0.02160 0.04070 0.30530
C8 C 0.03406(15) 0.18330(16) 0.24587(14)
H6 H -0.01570 0.17050 0.18890
C9 C 0.08515(15) 0.27855(16) 0.25971(13)
H7 H 0.07080 0.33000 0.21130
C10 C 0.15693(15) 0.30040(15) 0.34298(12)
H8 H 0.19130 0.36610 0.35150
C11 C 0.17784(13) 0.22478(13) 0.41381(12)
C12 C 0.24922(13) 0.22260(13) 0.50898(12)
C13 C 0.23413(13) 0.11785(13) 0.54903(12)
C14 C 0.39160(13) 0.28904(12) 0.64203(12)
C15 C 0.37593(15) 0.34840(14) 0.71977(12)
H9 H 0.31440 0.39280 0.71480
C16 C 0.44864(16) 0.34489(15) 0.80625(13)
H10 H 0.43560 0.38670 0.85880
C17 C 0.53730(15) 0.28248(14) 0.81556(13)
H11 H 0.58520 0.28000 0.87490
C18 C 0.55895(14) 0.22101(13) 0.73751(12)
C19 C 0.65329(15) 0.15791(15) 0.74448(14)
H12 H 0.70150 0.15440 0.80360
C20 C 0.67575(15) 0.10236(15) 0.66780(14)
H13 H 0.73970 0.06120 0.67350
C21 C 0.60439(15) 0.10587(14) 0.58014(13)
H14 H 0.62040 0.06700 0.52680
C22 C 0.51217(14) 0.16488(13) 0.57133(13)
H15 H 0.46450 0.16590 0.51180
C23 C 0.48616(13) 0.22473(13) 0.64932(11)
C24 C 0.31450(13) 0.29920(13) 0.54966(12)
C25 C 0.31618(13) 0.40328(13) 0.50312(11)
C26 C 0.39188(14) 0.42320(14) 0.44411(12)
H16 H 0.44270 0.37100 0.43400
C27 C 0.39573(15) 0.51980(15) 0.39823(13)
H17 H 0.44800 0.53170 0.35680
C28 C 0.32478(15) 0.59585(14) 0.41326(13)
H18 H 0.32840 0.66090 0.38250
C29 C 0.24555(14) 0.57974(13) 0.47404(12)
C30 C 0.17076(16) 0.65776(14) 0.49001(13)
H19 H 0.17430 0.72330 0.46020
C31 C 0.09358(15) 0.64078(14) 0.54746(14)
H20 H 0.04420 0.69430 0.55780
C32 C 0.08739(15) 0.54380(14) 0.59131(13)
H21 H 0.03350 0.53190 0.63110
C33 C 0.15794(14) 0.46651(14) 0.57730(12)
H22 H 0.15190 0.40130 0.60710
C34 C 0.24007(13) 0.48174(13) 0.51920(12)
loop_
_geom_bond_atom_site_label_1
_geom_bond_atom_site_label_2
_geom_bond_distance
_geom_bond_site_symmetry_1
_geom_bond_site_symmetry_2
C1 H1 0.950 1_555 1_555
C2 C1 1.385 1_555 1_555
H2 C2 0.949 1_555 1_555
C3 C2 1.383 1_555 1_555
H3 C3 0.950 1_555 1_555
C4 C3 1.382 1_555 1_555
H4 C4 0.950 1_555 1_555
C5 C4 1.388 1_555 1_555
C6 C5 1.467 1_555 1_555
C7 C6 1.384 1_555 1_555
H5 C7 0.950 1_555 1_555
C8 C7 1.386 1_555 1_555
H6 C8 0.950 1_555 1_555
C9 C8 1.385 1_555 1_555
H7 C9 0.950 1_555 1_555
C10 C9 1.390 1_555 1_555
H8 C10 0.950 1_555 1_555
C11 C6 1.408 1_555 1_555
C12 C11 1.491 1_555 1_555
C13 C1 1.388 1_555 1_555
C14 C15 1.375 1_555 1_555
C15 H9 0.950 1_555 1_555
C16 C15 1.403 1_555 1_555
H10 C16 0.950 1_555 1_555
C17 C16 1.356 1_555 1_555
H11 C17 0.950 1_555 1_555
C18 C17 1.415 1_555 1_555
C19 C18 1.419 1_555 1_555
H12 C19 0.950 1_555 1_555
C20 C19 1.361 1_555 1_555
H13 C20 0.950 1_555 1_555
C21 C20 1.407 1_555 1_555
H14 C21 0.950 1_555 1_555
C22 C21 1.367 1_555 1_555
H15 C22 0.950 1_555 1_555
C23 C14 1.430 1_555 1_555
C24 C12 1.351 1_555 1_555
C25 C24 1.498 1_555 1_555
C26 C25 1.372 1_555 1_555
H16 C26 0.950 1_555 1_555
C27 C26 1.410 1_555 1_555
H17 C27 0.950 1_555 1_555
C28 C27 1.359 1_555 1_555
H18 C28 0.950 1_555 1_555
C29 C28 1.415 1_555 1_555
C30 C29 1.413 1_555 1_555
H19 C30 0.950 1_555 1_555
C31 C30 1.364 1_555 1_555
H20 C31 0.951 1_555 1_555
C32 C31 1.405 1_555 1_555
H21 C32 0.949 1_555 1_555
C33 C32 1.363 1_555 1_555
H22 C33 0.950 1_555 1_555
C34 C25 1.428 1_555 1_555
C5 C13 1.408 1_555 1_555
C10 C11 1.393 1_555 1_555
C12 C13 1.490 1_555 1_555
C14 C24 1.500 1_555 1_555
C18 C23 1.422 1_555 1_555
C22 C23 1.421 1_555 1_555
C29 C34 1.424 1_555 1_555
C33 C34 1.416 1_555 1_555
#END
