
#######################################################################
#
#                 Cambridge Crystallographic Data Centre
#                                CCDC
#
#######################################################################
#
# If this CIF has been generated from an entry in the Cambridge
# Structural Database, then it will include bibliographic, chemical,
# crystal, experimental, refinement or atomic coordinate data resulting
# from the CCDC's data processing and validation procedures.
#
#######################################################################

data_CSD_CIF_IHUQUZ
_audit_creation_date 2015-05-07
_audit_creation_method CSD-ConQuest-V1
_database_code_CSD IHUQUZ
_database_code_depnum_ccdc_archive 'CCDC 961203'
_chemical_formula_sum 'C23 H18'
_chemical_formula_moiety
;
C23 H18
;
_journal_coden_Cambridge 16
_journal_volume 71
_journal_year 2015
_journal_page_first 1540
_journal_name_full 'Tetrahedron '
loop_
_publ_author_name
"Ruofeng Huang"
"Xiaohui Zhang"
"Jing Pan"
"Jiaqiang Li"
"Hang Shen"
"Xuege Ling"
"Yan Xiong"
_chemical_name_systematic
;
1-(diphenylmethyl)naphthalene
;
_cell_volume   1635.631
_exptl_crystal_colour 'white'
_exptl_crystal_density_diffrn 1.195
_exptl_crystal_description 'prism'
_diffrn_ambient_temperature 293
#These two values have been output from a single CSD field.
_refine_ls_R_factor_gt 0.067
_refine_ls_wR_factor_gt 0.067
_symmetry_cell_setting monoclinic
_symmetry_space_group_name_H-M 'P 21/c'
_symmetry_Int_Tables_number 14
loop_
_symmetry_equiv_pos_site_id
_symmetry_equiv_pos_as_xyz
1 x,y,z
2 -x,1/2+y,1/2-z
3 -x,-y,-z
4 x,-1/2-y,-1/2+z
_cell_length_a 8.618(7)
_cell_length_b 19.731(14)
_cell_length_c 10.385(9)
_cell_angle_alpha 90
_cell_angle_beta 112.144(9)
_cell_angle_gamma 90
_cell_formula_units_Z 4
loop_
_atom_type_symbol
_atom_type_radius_bond
C 0.68
H 0.23
loop_
_atom_site_label
_atom_site_type_symbol
_atom_site_fract_x
_atom_site_fract_y
_atom_site_fract_z
C1 C 0.1461(2) 0.64812(9) 0.0202(2)
H1 H 0.19790 0.69280 0.02530
C2 C 0.2812(2) 0.60205(10) 0.1174(2)
C3 C 0.0862(3) 0.62612(10) -0.13126(19)
C4 C 0.3218(3) 0.54012(11) 0.0782(2)
H2 H 0.26750 0.52530 -0.01280
C5 C 0.1861(3) 0.6405(1) -0.2114(2)
C6 C 0.1271(3) 0.61922(12) -0.3528(2)
C7 C 0.0036(2) 0.65759(10) 0.0721(2)
C8 C -0.0596(3) 0.59124(12) -0.1932(2)
H3 H -0.12590 0.58200 -0.14240
C9 C -0.0528(3) 0.60556(13) 0.1325(2)
H4 H -0.00310 0.56310 0.14210
C10 C 0.3413(3) 0.67360(11) -0.1567(3)
H5 H 0.38400 0.68610 -0.06350
C11 C 0.3670(3) 0.62259(12) 0.2535(2)
H6 H 0.34310 0.66460 0.28210
C12 C 0.4423(3) 0.49960(12) 0.1725(3)
H7 H 0.46790 0.45770 0.14440
C13 C -0.1126(3) 0.56888(14) -0.3308(2)
H8 H -0.21080 0.54380 -0.36850
C14 C -0.0243(4) 0.58300(14) -0.4086(3)
H9 H -0.06310 0.56880 -0.50070
C15 C 0.3692(5) 0.66952(15) -0.3777(3)
H10 H 0.42950 0.68060 -0.43260
C16 C -0.0724(3) 0.71963(13) 0.0602(3)
H11 H -0.03780 0.75520 0.01880
C17 C 0.2239(5) 0.63608(15) -0.4340(3)
H12 H 0.18530 0.62360 -0.52720
C18 C -0.1820(3) 0.61572(18) 0.1788(3)
H13 H -0.21950 0.58010 0.21830
C19 C 0.5240(3) 0.52043(14) 0.3061(3)
H14 H 0.60470 0.49290 0.36930
C20 C 0.4312(4) 0.68797(13) -0.2374(3)
H15 H 0.53380 0.71000 -0.19890
C21 C 0.4863(3) 0.58228(14) 0.3468(3)
H16 H 0.54170 0.59690 0.43780
C22 C -0.1991(4) 0.73018(19) 0.1083(4)
H17 H -0.24710 0.77290 0.10120
C23 C -0.2545(4) 0.6783(2) 0.1663(4)
H18 H -0.34130 0.68540 0.19730
loop_
_geom_bond_atom_site_label_1
_geom_bond_atom_site_label_2
_geom_bond_distance
_geom_bond_site_symmetry_1
_geom_bond_site_symmetry_2
C1 H1 0.981 1_555 1_555
C2 C1 1.521 1_555 1_555
C3 C1 1.522 1_555 1_555
C4 C2 1.374 1_555 1_555
H2 C4 0.930 1_555 1_555
C5 C3 1.433 1_555 1_555
C6 C5 1.424 1_555 1_555
C7 C1 1.527 1_555 1_555
C8 C3 1.363 1_555 1_555
H3 C8 0.930 1_555 1_555
C9 C7 1.383 1_555 1_555
H4 C9 0.929 1_555 1_555
C10 C5 1.402 1_555 1_555
H5 C10 0.930 1_555 1_555
C11 C2 1.386 1_555 1_555
H6 C11 0.929 1_555 1_555
C12 C4 1.382 1_555 1_555
H7 C12 0.931 1_555 1_555
C13 C8 1.398 1_555 1_555
H8 C13 0.930 1_555 1_555
C14 C6 1.407 1_555 1_555
H9 C14 0.930 1_555 1_555
C15 H10 0.931 1_555 1_555
C16 C7 1.372 1_555 1_555
H11 C16 0.929 1_555 1_555
C17 C6 1.431 1_555 1_555
H12 C17 0.930 1_555 1_555
C18 C9 1.384 1_555 1_555
H13 C18 0.931 1_555 1_555
C19 C12 1.361 1_555 1_555
H14 C19 0.930 1_555 1_555
C20 C10 1.368 1_555 1_555
H15 C20 0.930 1_555 1_555
C21 C11 1.370 1_555 1_555
H16 C21 0.930 1_555 1_555
C22 C16 1.377 1_555 1_555
H17 C22 0.930 1_555 1_555
C23 C18 1.368 1_555 1_555
H18 C23 0.930 1_555 1_555
C13 C14 1.332 1_555 1_555
C15 C17 1.339 1_555 1_555
C15 C20 1.398 1_555 1_555
C19 C21 1.370 1_555 1_555
C22 C23 1.362 1_555 1_555
#END
