
#######################################################################
#
#                 Cambridge Crystallographic Data Centre
#                                CCDC
#
#######################################################################
#
# If this CIF has been generated from an entry in the Cambridge
# Structural Database, then it will include bibliographic, chemical,
# crystal, experimental, refinement or atomic coordinate data resulting
# from the CCDC's data processing and validation procedures.
#
#######################################################################

data_CSD_CIF_IKOZAK
_audit_creation_date 2011-04-19
_audit_creation_method CSD-ConQuest-V1
_database_code_CSD IKOZAK
_database_code_depnum_ccdc_archive 'CCDC 798211'
_chemical_formula_sum 'C21 H14'
_chemical_formula_moiety
;
C21 H14
;
_journal_coden_Cambridge 579
_journal_volume 29
_journal_year 2010
_journal_page_first 6165
_journal_name_full 'Organometallics '
loop_
_publ_author_name
"F.Pammer"
"Yu Sun"
"M.Sieger"
"J.Fiedler"
"B.Sarkar"
"W.R.Thiel"
_chemical_name_systematic
;
7H-Dibenzo[c,g]fluorene
;
_cell_volume   1330.025
_exptl_crystal_colour 'red'
_exptl_crystal_density_diffrn 1.33
_exptl_special_details
;
Study temperature given as 293 K and 150 K in the CIF

;
_exptl_crystal_description 'block'
_diffrn_ambient_temperature 150
#These two values have been output from a single CSD field.
_refine_ls_R_factor_gt 0.0374
_refine_ls_wR_factor_gt 0.0374
_symmetry_cell_setting monoclinic
_symmetry_space_group_name_H-M 'C 2/c'
_symmetry_Int_Tables_number 15
loop_
_symmetry_equiv_pos_site_id
_symmetry_equiv_pos_as_xyz
1 x,y,z
2 -x,y,1/2-z
3 1/2+x,1/2+y,z
4 1/2-x,1/2+y,1/2-z
5 -x,-y,-z
6 x,-y,-1/2+z
7 -1/2-x,-1/2-y,-z
8 -1/2+x,-1/2-y,-1/2+z
_cell_length_a 21.8736(5)
_cell_length_b 8.4281(2)
_cell_length_c 7.2966(1)
_cell_angle_alpha 90
_cell_angle_beta 98.600(2)
_cell_angle_gamma 90
_cell_formula_units_Z 4
loop_
_atom_type_symbol
_atom_type_radius_bond
C 0.68
H 0.23
loop_
_atom_site_label
_atom_site_type_symbol
_atom_site_fract_x
_atom_site_fract_y
_atom_site_fract_z
C1 C 0.46581(5) 0.89134(14) 0.24219(15)
C2 C 0.44653(6) 1.04749(13) 0.25319(15)
C3 C 0.38449(6) 1.08646(14) 0.25987(16)
C4 C 0.34163(6) 0.96805(14) 0.24653(17)
C5 C 0.35756(5) 0.80937(14) 0.21026(16)
C6 C 0.31141(6) 0.69134(15) 0.16927(17)
C7 C 0.32524(6) 0.54430(14) 0.10876(17)
C8 C 0.38626(6) 0.50807(14) 0.08618(16)
C9 C 0.43250(5) 0.61596(14) 0.13322(15)
C10 C 0.42055(5) 0.76855(14) 0.20167(15)
C11 C 0.50000 1.1584(2) 0.25000
H1 H 0.3724(6) 1.1991(16) 0.2747(19)
H2 H 0.2986(7) 0.9919(16) 0.2537(18)
H3 H 0.2677(6) 0.7231(15) 0.1780(16)
H4 H 0.2916(6) 0.4618(15) 0.0788(19)
H5 H 0.3957(6) 0.4052(17) 0.0367(18)
H6 H 0.4746(6) 0.5870(14) 0.1151(17)
H7 H 0.4927(6) 1.2310(17) 0.142(2)
C1A C 0.53419(5) 0.89134(14) 0.25781(15)
C2A C 0.55347(6) 1.04749(13) 0.24681(15)
C3A C 0.61551(6) 1.08646(14) 0.24013(16)
C4A C 0.65837(6) 0.96805(14) 0.25347(17)
C5A C 0.64244(5) 0.80937(14) 0.28974(16)
C6A C 0.68859(6) 0.69134(15) 0.33073(17)
C7A C 0.67476(6) 0.54430(14) 0.39124(17)
C8A C 0.61374(6) 0.50807(14) 0.41382(16)
C9A C 0.56750(5) 0.61596(14) 0.36678(15)
C10A C 0.57945(5) 0.76855(14) 0.29833(15)
H1A H 0.6276(6) 1.1991(16) 0.2253(19)
H2A H 0.7014(7) 0.9919(16) 0.2463(18)
H3A H 0.7323(6) 0.7231(15) 0.3220(16)
H4A H 0.7084(6) 0.4618(15) 0.4212(19)
H5A H 0.6043(6) 0.4052(17) 0.4633(18)
H6A H 0.5254(6) 0.5870(14) 0.3849(17)
H7A H 0.5073(6) 1.2310(17) 0.358(2)
loop_
_geom_bond_atom_site_label_1
_geom_bond_atom_site_label_2
_geom_bond_distance
_geom_bond_site_symmetry_1
_geom_bond_site_symmetry_2
C1 C2 1.388 1_555 1_555
C2 C3 1.404 1_555 1_555
C3 C4 1.363 1_555 1_555
C4 C5 1.417 1_555 1_555
C5 C6 1.417 1_555 1_555
C6 C7 1.365 1_555 1_555
C7 C8 1.403 1_555 1_555
C8 C9 1.365 1_555 1_555
C9 C10 1.418 1_555 1_555
C10 C1 1.432 1_555 1_555
C11 C2 1.500 1_555 1_555
H1 C3 0.996 1_555 1_555
H2 C4 0.971 1_555 1_555
H3 C6 1.004 1_555 1_555
H4 C7 1.012 1_555 1_555
H5 C8 0.973 1_555 1_555
H6 C9 0.981 1_555 1_555
H7 C11 0.992 1_555 1_555
C1A C1 1.483 1_555 1_555
C2A C11 1.500 1_555 1_555
C3A C2A 1.404 1_555 1_555
C4A C3A 1.363 1_555 1_555
C5A C4A 1.417 1_555 1_555
C6A C5A 1.417 1_555 1_555
C7A C6A 1.365 1_555 1_555
C8A C7A 1.403 1_555 1_555
C9A C8A 1.365 1_555 1_555
C10A C1A 1.432 1_555 1_555
H1A C3A 0.996 1_555 1_555
H2A C4A 0.971 1_555 1_555
H3A C6A 1.004 1_555 1_555
H4A C7A 1.012 1_555 1_555
H5A C8A 0.973 1_555 1_555
H6A C9A 0.981 1_555 1_555
H7A C11 0.992 1_555 1_555
C5 C10 1.431 1_555 1_555
C1A C2A 1.388 1_555 1_555
C5A C10A 1.431 1_555 1_555
C9A C10A 1.418 1_555 1_555
#END
