
#######################################################################
#
#                 Cambridge Crystallographic Data Centre
#                                CCDC
#
#######################################################################
#
# If this CIF has been generated from an entry in the Cambridge
# Structural Database, then it will include bibliographic, chemical,
# crystal, experimental, refinement or atomic coordinate data resulting
# from the CCDC's data processing and validation procedures.
#
#######################################################################

data_CSD_CIF_IQABEI
_audit_creation_date 2011-07-18
_audit_creation_method CSD-ConQuest-V1
_database_code_CSD IQABEI
_database_code_depnum_ccdc_archive 'CCDC 825626'
_chemical_formula_sum 'C72 H84'
_chemical_formula_moiety
;
C72 H84
;
_journal_coden_Cambridge 35
_journal_volume 75
_journal_year 2010
_journal_page_first 8069
_journal_name_full 'J.Org.Chem. '
loop_
_publ_author_name
"Xiaojie Zhang"
"Xiaoxia Jiang"
"Kai Zhang"
"Lu Mao"
"Jing Luo"
"Chunyan Chi"
"H.S.O.Chan"
"Jishan Wu"
_chemical_name_systematic
;
2,7,12,17-Tetraoctyltetrabenzo[a,d,j,m]coronene
;
_cell_volume   1309.843
_exptl_crystal_colour 'yellow'
_exptl_crystal_density_diffrn 1.204
_exptl_crystal_description 'block'
_diffrn_ambient_temperature 100
#These two values have been output from a single CSD field.
_refine_ls_R_factor_gt 0.0782
_refine_ls_wR_factor_gt 0.0782
_symmetry_cell_setting triclinic
_symmetry_space_group_name_H-M 'P -1'
_symmetry_Int_Tables_number 2
loop_
_symmetry_equiv_pos_site_id
_symmetry_equiv_pos_as_xyz
1 x,y,z
2 -x,-y,-z
_cell_length_a 10.7924(18)
_cell_length_b 10.9938(18)
_cell_length_c 13.144(2)
_cell_angle_alpha 101.931(3)
_cell_angle_beta 109.727(4)
_cell_angle_gamma 107.943(4)
_cell_formula_units_Z 1
loop_
_atom_type_symbol
_atom_type_radius_bond
C 0.68
H 0.23
loop_
_atom_site_label
_atom_site_type_symbol
_atom_site_fract_x
_atom_site_fract_y
_atom_site_fract_z
C1 C 0.3899(3) 0.1293(3) 1.0494(2)
C2 C 0.5386(3) 0.1594(3) 1.1002(2)
H1 H 0.56950 0.10480 1.14150
C3 C 0.6407(3) 0.2639(3) 1.0929(2)
C4 C 0.5913(3) 0.3453(3) 1.0345(2)
H2 H 0.65960 0.42120 1.03110
C5 C 0.4482(3) 0.3189(3) 0.9827(2)
H3 H 0.41990 0.37720 0.94490
C6 C 0.3408(3) 0.2061(3) 0.9840(2)
C7 C 0.1868(3) 0.1730(3) 0.9300(2)
C8 C 0.1237(3) 0.2243(3) 0.8405(2)
C9 C 0.1905(3) 0.2703(3) 0.7716(2)
H4 H 0.28180 0.26870 0.78360
C10 C 0.1276(3) 0.3170(3) 0.6881(2)
H5 H 0.17640 0.34730 0.64390
C11 C -0.0071(3) 0.3211(3) 0.6663(2)
C12 C -0.0780(3) 0.2687(3) 0.7270(2)
H6 H -0.17160 0.26640 0.71080
C13 C -0.0165(3) 0.2180(3) 0.8129(2)
C14 C -0.1035(3) 0.1472(3) 0.8630(2)
C15 C -0.0518(3) 0.0729(3) 0.9297(2)
C16 C 0.0952(3) 0.0889(3) 0.9645(2)
C17 C 0.1462(3) 0.0150(3) 1.0362(2)
C18 C 0.2886(3) 0.0260(3) 1.0693(2)
C19 C 0.3304(3) -0.0598(3) 1.1261(2)
H7 H 0.42330 -0.05910 1.14220
C20 C -0.2422(3) 0.1430(3) 0.8414(2)
H8 H -0.27410 0.19980 0.80340
C21 C 0.7998(3) 0.2943(3) 1.1467(2)
H9 H 0.85380 0.39100 1.19770
H10 H 0.83220 0.28220 1.08470
C22 C 0.8386(3) 0.2058(3) 1.2164(2)
H11 H 0.78050 0.10880 1.16660
H12 H 0.81130 0.22190 1.28110
C23 C 0.9979(3) 0.2312(3) 1.2651(2)
H13 H 1.02390 0.20580 1.20080
H14 H 1.05770 0.32950 1.30970
C24 C 1.0297(3) 0.1489(3) 1.3426(2)
H15 H 1.00820 0.17910 1.40850
H16 H 0.96300 0.05190 1.29870
C25 C 1.1829(3) 0.1588(3) 1.3894(2)
H17 H 1.25140 0.25600 1.42560
H18 H 1.20120 0.11630 1.32500
C26 C 1.2093(3) 0.0880(3) 1.4781(3)
H19 H 1.19990 0.13690 1.54540
H20 H 1.13290 -0.00580 1.44390
C27 C 1.3543(3) 0.0805(3) 1.5197(3)
H21 H 1.43090 0.17170 1.54160
H22 H 1.35750 0.01690 1.45620
C28 C 1.3840(4) 0.0326(4) 1.6226(3)
H23 H 1.40110 0.10440 1.69040
H24 H 1.46950 0.01240 1.63790
H25 H 1.30060 -0.04980 1.60580
C29 C -0.0710(3) 0.3764(3) 0.5744(2)
H26 H -0.06110 0.33480 0.50480
H27 H -0.01220 0.47580 0.60240
C30 C -0.2286(3) 0.3536(3) 0.5387(2)
H28 H -0.24070 0.39450 0.60720
H29 H -0.28970 0.25450 0.50750
C31 C -0.2783(3) 0.4164(3) 0.4478(2)
H30 H -0.22500 0.51680 0.48310
H31 H -0.25200 0.38540 0.38490
C32 C -0.4396(3) 0.3819(3) 0.3957(2)
H32 H -0.49330 0.28290 0.35170
H33 H -0.46880 0.40320 0.45860
C33 C -0.4803(3) 0.4597(3) 0.3165(2)
H34 H -0.44480 0.44290 0.25690
H35 H -0.43040 0.55840 0.36200
C34 C -0.6415(3) 0.4225(3) 0.2568(2)
H36 H -0.67910 0.43400 0.31550
H37 H -0.69160 0.32540 0.20640
C35 C -0.6747(3) 0.5104(3) 0.1846(3)
H38 H -0.62860 0.60680 0.23600
H39 H -0.63140 0.50310 0.12930
C36 C -0.8354(3) 0.4710(3) 0.1179(3)
H40 H -0.88280 0.37450 0.06930
H41 H -0.84920 0.52680 0.06930
H42 H -0.87750 0.48650 0.17220
C1A C -0.3899(3) -0.1293(3) 0.9506(2)
C2A C -0.5386(3) -0.1594(3) 0.8998(2)
H1A H -0.56950 -0.10480 0.85850
C3A C -0.6407(3) -0.2639(3) 0.9071(2)
C4A C -0.5913(3) -0.3453(3) 0.9655(2)
H2A H -0.65960 -0.42120 0.96890
C5A C -0.4482(3) -0.3189(3) 1.0173(2)
H3A H -0.41990 -0.37720 1.05510
C6A C -0.3408(3) -0.2061(3) 1.0160(2)
C7A C -0.1868(3) -0.1730(3) 1.0700(2)
C8A C -0.1237(3) -0.2243(3) 1.1595(2)
C9A C -0.1905(3) -0.2703(3) 1.2284(2)
H4A H -0.28180 -0.26870 1.21640
C10A C -0.1276(3) -0.3170(3) 1.3119(2)
H5A H -0.17640 -0.34730 1.35610
C11A C 0.0071(3) -0.3211(3) 1.3337(2)
C12A C 0.0780(3) -0.2687(3) 1.2730(2)
H6A H 0.17160 -0.26640 1.28920
C13A C 0.0165(3) -0.2180(3) 1.1871(2)
C14A C 0.1035(3) -0.1472(3) 1.1370(2)
C15A C 0.0518(3) -0.0729(3) 1.0703(2)
C16A C -0.0952(3) -0.0889(3) 1.0355(2)
C17A C -0.1462(3) -0.0150(3) 0.9638(2)
C18A C -0.2886(3) -0.0260(3) 0.9307(2)
C19A C -0.3304(3) 0.0598(3) 0.8739(2)
H7A H -0.42330 0.05910 0.85780
C20A C 0.2422(3) -0.1430(3) 1.1586(2)
H8A H 0.27410 -0.19980 1.19660
C21A C -0.7998(3) -0.2943(3) 0.8533(2)
H9A H -0.85380 -0.39100 0.80230
H10A H -0.83220 -0.28220 0.91530
C22A C -0.8386(3) -0.2058(3) 0.7836(2)
H11A H -0.78050 -0.10880 0.83340
H12A H -0.81130 -0.22190 0.71890
C23A C -0.9979(3) -0.2312(3) 0.7349(2)
H13A H -1.02390 -0.20580 0.79920
H14A H -1.05770 -0.32950 0.69030
C24A C -1.0297(3) -0.1489(3) 0.6574(2)
H15A H -1.00820 -0.17910 0.59150
H16A H -0.96300 -0.05190 0.70130
C25A C -1.1829(3) -0.1588(3) 0.6106(2)
H17A H -1.25140 -0.25600 0.57440
H18A H -1.20120 -0.11630 0.67500
C26A C -1.2093(3) -0.0880(3) 0.5219(3)
H19A H -1.19990 -0.13690 0.45460
H20A H -1.13290 0.00580 0.55610
C27A C -1.3543(3) -0.0805(3) 0.4803(3)
H21A H -1.43090 -0.17170 0.45840
H22A H -1.35750 -0.01690 0.54380
C28A C -1.3840(4) -0.0326(4) 0.3774(3)
H23A H -1.40110 -0.10440 0.30960
H24A H -1.46950 -0.01240 0.36210
H25A H -1.30060 0.04980 0.39420
C29A C 0.0710(3) -0.3764(3) 1.4256(2)
H26A H 0.06110 -0.33480 1.49520
H27A H 0.01220 -0.47580 1.39760
C30A C 0.2286(3) -0.3536(3) 1.4613(2)
H28A H 0.24070 -0.39450 1.39280
H29A H 0.28970 -0.25450 1.49250
C31A C 0.2783(3) -0.4164(3) 1.5522(2)
H30A H 0.22500 -0.51680 1.51690
H31A H 0.25200 -0.38540 1.61510
C32A C 0.4396(3) -0.3819(3) 1.6043(2)
H32A H 0.49330 -0.28290 1.64830
H33A H 0.46880 -0.40320 1.54140
C33A C 0.4803(3) -0.4597(3) 1.6835(2)
H34A H 0.44480 -0.44290 1.74310
H35A H 0.43040 -0.55840 1.63800
C34A C 0.6415(3) -0.4225(3) 1.7432(2)
H36A H 0.67910 -0.43400 1.68450
H37A H 0.69160 -0.32540 1.79360
C35A C 0.6747(3) -0.5104(3) 1.8154(3)
H38A H 0.62860 -0.60680 1.76400
H39A H 0.63140 -0.50310 1.87070
C36A C 0.8354(3) -0.4710(3) 1.8821(3)
H40A H 0.88280 -0.37450 1.93070
H41A H 0.84920 -0.52680 1.93070
H42A H 0.87750 -0.48650 1.82780
loop_
_geom_bond_atom_site_label_1
_geom_bond_atom_site_label_2
_geom_bond_distance
_geom_bond_site_symmetry_1
_geom_bond_site_symmetry_2
C1 C2 1.410 1_555 1_555
C2 H1 0.950 1_555 1_555
C3 C2 1.371 1_555 1_555
C4 C3 1.406 1_555 1_555
H2 C4 0.949 1_555 1_555
C5 C4 1.366 1_555 1_555
H3 C5 0.949 1_555 1_555
C6 C1 1.415 1_555 1_555
C7 C6 1.457 1_555 1_555
C8 C7 1.461 1_555 1_555
C9 C8 1.415 1_555 1_555
H4 C9 0.950 1_555 1_555
C10 C9 1.369 1_555 1_555
H5 C10 0.951 1_555 1_555
C11 C10 1.401 1_555 1_555
C12 C11 1.373 1_555 1_555
H6 C12 0.950 1_555 1_555
C13 C8 1.407 1_555 1_555
C14 C13 1.449 1_555 1_555
C15 C14 1.412 1_555 1_555
C16 C7 1.397 1_555 1_555
C17 C16 1.447 1_555 1_555
C18 C1 1.451 1_555 1_555
C19 C18 1.406 1_555 1_555
H7 C19 0.949 1_555 1_555
C20 C14 1.410 1_555 1_555
H8 C20 0.950 1_555 1_555
C21 C3 1.513 1_555 1_555
H9 C21 0.989 1_555 1_555
H10 C21 0.990 1_555 1_555
C22 C21 1.524 1_555 1_555
H11 C22 0.991 1_555 1_555
H12 C22 0.990 1_555 1_555
C23 C22 1.527 1_555 1_555
H13 C23 0.991 1_555 1_555
H14 C23 0.990 1_555 1_555
C24 C23 1.520 1_555 1_555
H15 C24 0.989 1_555 1_555
H16 C24 0.990 1_555 1_555
C25 C24 1.516 1_555 1_555
H17 C25 0.990 1_555 1_555
H18 C25 0.990 1_555 1_555
C26 C25 1.528 1_555 1_555
H19 C26 0.990 1_555 1_555
H20 C26 0.990 1_555 1_555
C27 C26 1.508 1_555 1_555
H21 C27 0.990 1_555 1_555
H22 C27 0.990 1_555 1_555
C28 C27 1.522 1_555 1_555
H23 C28 0.980 1_555 1_555
H24 C28 0.980 1_555 1_555
H25 C28 0.980 1_555 1_555
C29 C11 1.518 1_555 1_555
H26 C29 0.990 1_555 1_555
H27 C29 0.991 1_555 1_555
C30 C29 1.525 1_555 1_555
H28 C30 0.989 1_555 1_555
H29 C30 0.990 1_555 1_555
C31 C30 1.526 1_555 1_555
H30 C31 0.991 1_555 1_555
H31 C31 0.991 1_555 1_555
C32 C31 1.525 1_555 1_555
H32 C32 0.990 1_555 1_555
H33 C32 0.989 1_555 1_555
C33 C32 1.516 1_555 1_555
H34 C33 0.990 1_555 1_555
H35 C33 0.990 1_555 1_555
C34 C33 1.522 1_555 1_555
H36 C34 0.989 1_555 1_555
H37 C34 0.990 1_555 1_555
C35 C34 1.525 1_555 1_555
H38 C35 0.990 1_555 1_555
H39 C35 0.991 1_555 1_555
C36 C35 1.522 1_555 1_555
H40 C36 0.980 1_555 1_555
H41 C36 0.980 1_555 1_555
H42 C36 0.980 1_555 1_555
C1A C2A 1.410 1_555 1_555
C2A H1A 0.950 1_555 1_555
C3A C2A 1.371 1_555 1_555
C4A C3A 1.406 1_555 1_555
H2A C4A 0.949 1_555 1_555
C5A C4A 1.366 1_555 1_555
H3A C5A 0.949 1_555 1_555
C6A C1A 1.415 1_555 1_555
C7A C6A 1.457 1_555 1_555
C8A C7A 1.461 1_555 1_555
C9A C8A 1.415 1_555 1_555
H4A C9A 0.950 1_555 1_555
C10A C9A 1.369 1_555 1_555
H5A C10A 0.951 1_555 1_555
C11A C10A 1.401 1_555 1_555
C12A C11A 1.373 1_555 1_555
H6A C12A 0.950 1_555 1_555
C13A C8A 1.407 1_555 1_555
C14A C13A 1.449 1_555 1_555
C15A C17 1.433 1_555 1_555
C16A C7A 1.397 1_555 1_555
C17A C15 1.433 1_555 1_555
C18A C1A 1.451 1_555 1_555
C19A C20 1.351 1_555 1_555
H7A C19A 0.949 1_555 1_555
C20A C19 1.351 1_555 1_555
H8A C20A 0.950 1_555 1_555
C21A C3A 1.513 1_555 1_555
H9A C21A 0.989 1_555 1_555
H10A C21A 0.990 1_555 1_555
C22A C21A 1.524 1_555 1_555
H11A C22A 0.991 1_555 1_555
H12A C22A 0.990 1_555 1_555
C23A C22A 1.527 1_555 1_555
H13A C23A 0.991 1_555 1_555
H14A C23A 0.990 1_555 1_555
C24A C23A 1.520 1_555 1_555
H15A C24A 0.989 1_555 1_555
H16A C24A 0.990 1_555 1_555
C25A C24A 1.516 1_555 1_555
H17A C25A 0.990 1_555 1_555
H18A C25A 0.990 1_555 1_555
C26A C25A 1.528 1_555 1_555
H19A C26A 0.990 1_555 1_555
H20A C26A 0.990 1_555 1_555
C27A C26A 1.508 1_555 1_555
H21A C27A 0.990 1_555 1_555
H22A C27A 0.990 1_555 1_555
C28A C27A 1.522 1_555 1_555
H23A C28A 0.980 1_555 1_555
H24A C28A 0.980 1_555 1_555
H25A C28A 0.980 1_555 1_555
C29A C11A 1.518 1_555 1_555
H26A C29A 0.990 1_555 1_555
H27A C29A 0.991 1_555 1_555
C30A C29A 1.525 1_555 1_555
H28A C30A 0.989 1_555 1_555
H29A C30A 0.990 1_555 1_555
C31A C30A 1.526 1_555 1_555
H30A C31A 0.991 1_555 1_555
H31A C31A 0.991 1_555 1_555
C32A C31A 1.525 1_555 1_555
H32A C32A 0.990 1_555 1_555
H33A C32A 0.989 1_555 1_555
C33A C32A 1.516 1_555 1_555
H34A C33A 0.990 1_555 1_555
H35A C33A 0.990 1_555 1_555
C34A C33A 1.522 1_555 1_555
H36A C34A 0.989 1_555 1_555
H37A C34A 0.990 1_555 1_555
C35A C34A 1.525 1_555 1_555
H38A C35A 0.990 1_555 1_555
H39A C35A 0.991 1_555 1_555
C36A C35A 1.522 1_555 1_555
H40A C36A 0.980 1_555 1_555
H41A C36A 0.980 1_555 1_555
H42A C36A 0.980 1_555 1_555
C5 C6 1.421 1_555 1_555
C12 C13 1.417 1_555 1_555
C15 C16 1.436 1_555 1_555
C17 C18 1.406 1_555 1_555
C5A C6A 1.421 1_555 1_555
C12A C13A 1.417 1_555 1_555
C14A C15A 1.412 1_555 1_555
C14A C20A 1.410 1_555 1_555
C15A C16A 1.436 1_555 1_555
C16A C17A 1.447 1_555 1_555
C17A C18A 1.406 1_555 1_555
C18A C19A 1.406 1_555 1_555
#END
