
#######################################################################
#
#                 Cambridge Crystallographic Data Centre
#                                CCDC
#
#######################################################################
#
# If this CIF has been generated from an entry in the Cambridge
# Structural Database, then it will include bibliographic, chemical,
# crystal, experimental, refinement or atomic coordinate data resulting
# from the CCDC's data processing and validation procedures.
#
#######################################################################

data_CSD_CIF_IQITAE
_audit_creation_date 2011-07-18
_audit_creation_method CSD-ConQuest-V1
_database_code_CSD IQITAE
_database_code_depnum_ccdc_archive 'CCDC 778535'
_chemical_formula_sum 'C38 H30'
_chemical_formula_moiety
;
C38 H30
;
_journal_coden_Cambridge 241
_journal_volume 39
_journal_year 2010
_journal_page_first 771
_journal_name_full 'Chem.Lett. '
loop_
_publ_author_name
"C.Kitamura"
"T.Naito"
"A.Yoneda"
"T.Kawase"
"T.Komatsu"
_chemical_name_systematic
;
1,4,8,11-Tetramethyl-6,13-diphenylpentacene
;
_cell_volume  10671.172
_exptl_crystal_colour 'dark purple'
_exptl_crystal_density_diffrn 1.212
_exptl_crystal_description 'prism'
_diffrn_ambient_temperature 203
#These two values have been output from a single CSD field.
_refine_ls_R_factor_gt 0.0898
_refine_ls_wR_factor_gt 0.0898
_symmetry_cell_setting monoclinic
_symmetry_space_group_name_H-M 'C 2/c'
_symmetry_Int_Tables_number 15
loop_
_symmetry_equiv_pos_site_id
_symmetry_equiv_pos_as_xyz
1 x,y,z
2 -x,y,1/2-z
3 1/2+x,1/2+y,z
4 1/2-x,1/2+y,1/2-z
5 -x,-y,-z
6 x,-y,-1/2+z
7 -1/2-x,-1/2-y,-z
8 -1/2+x,-1/2-y,-1/2+z
_cell_length_a 29.249(2)
_cell_length_b 17.048(1)
_cell_length_c 24.879(2)
_cell_angle_alpha 90
_cell_angle_beta 120.662(1)
_cell_angle_gamma 90
_cell_formula_units_Z 16
loop_
_atom_type_symbol
_atom_type_radius_bond
C 0.68
H 0.23
loop_
_atom_site_label
_atom_site_type_symbol
_atom_site_fract_x
_atom_site_fract_y
_atom_site_fract_z
C1 C 0.94782(15) 1.1805(2) 0.10364(17)
C2 C 0.98230(15) 1.1822(2) 0.08218(17)
H1 H 1.01730 1.16470 0.10840
C3 C 0.96687(15) 1.2100(2) 0.02059(16)
H2 H 0.99190 1.20960 0.00750
C4 C 0.91679(15) 1.2370(2) -0.01927(16)
C5 C 0.87857(14) 1.2360(2) 0.00059(15)
C6 C 0.89477(14) 1.2084(2) 0.06321(15)
C7 C 0.85732(13) 1.2071(2) 0.08138(15)
H3 H 0.86820 1.18980 0.12210
C8 C 0.80330(14) 1.2302(2) 0.04236(15)
C9 C 0.76676(14) 1.2242(2) 0.06212(15)
C10 C 0.71276(14) 1.24376(19) 0.02046(14)
C11 C 0.67384(14) 1.2421(2) 0.03836(15)
H4 H 0.68420 1.22500 0.07900
C12 C 0.78477(14) 1.1978(2) 0.12665(15)
C13 C 0.81640(16) 1.2449(2) 0.17780(16)
H5 H 0.82680 1.29460 0.17160
C14 C 0.83298(19) 1.2199(3) 0.23806(18)
H6 H 0.85380 1.25340 0.27200
C15 C 0.81955(18) 1.1475(3) 0.24880(19)
H7 H 0.83120 1.13090 0.28980
C16 C 0.78855(17) 1.0986(3) 0.19874(19)
H8 H 0.77960 1.04810 0.20570
C17 C 0.77061(15) 1.1244(3) 0.13788(17)
H9 H 0.74860 1.09170 0.10400
C18 C 0.96500(15) 1.1519(3) 0.16774(16)
H10 H 0.93540 1.15500 0.17490
H11 H 0.99400 1.18410 0.19820
H12 H 0.97680 1.09780 0.17190
C19 C 0.90282(15) 1.2667(2) -0.08260(15)
H13 H 0.86600 1.28380 -0.10500
H14 H 0.90770 1.22510 -0.10580
H15 H 0.92570 1.31060 -0.07790
C20 C 0.83148(15) 1.0137(2) 0.01604(16)
C21 C 0.78159(14) 1.0401(2) -0.02431(17)
H16 H 0.75610 1.04010 -0.01200
C22 C 0.76727(15) 1.0679(2) -0.08520(17)
H17 H 0.73250 1.08640 -0.11160
C23 C 0.80138(14) 1.0688(2) -0.10638(16)
C24 C 0.85500(14) 1.0411(2) -0.06559(15)
C25 C 0.87030(14) 1.0141(2) -0.00319(15)
C26 C 0.92302(14) 0.9920(2) 0.03666(14)
H18 H 0.93300 0.97460 0.07710
C27 C 0.96212(14) 0.9943(2) 0.01965(15)
C28 C 1.01591(14) 0.9750(2) 0.06189(15)
C29 C 1.05335(13) 0.9803(2) 0.04316(14)
C30 C 1.10736(13) 0.9574(2) 0.08284(15)
H19 H 1.11780 0.94010 0.12340
C31 C 1.03294(14) 0.9500(2) 0.12736(15)
C32 C 1.01786(15) 0.8783(2) 0.13916(17)
H20 H 0.99600 0.84480 0.10580
C33 C 1.03465(17) 0.8555(3) 0.19967(19)
H21 H 1.02440 0.80630 0.20700
C34 C 1.06590(17) 0.9034(3) 0.24906(19)
H22 H 1.07670 0.88780 0.29010
C35 C 1.08137(17) 0.9747(3) 0.23799(17)
H23 H 1.10320 1.00780 0.27170
C36 C 1.06521(15) 0.9979(2) 0.17803(15)
H24 H 1.07610 1.04690 0.17110
C37 C 0.84561(15) 0.9825(2) 0.07954(16)
H25 H 0.88240 0.96560 0.10180
H26 H 0.82280 0.93850 0.07450
H27 H 0.84070 1.02360 0.10320
C38 C 0.78497(14) 1.0968(3) -0.17038(16)
H28 H 0.81480 1.09280 -0.17710
H29 H 0.77360 1.15110 -0.17480
H30 H 0.75580 1.06480 -0.20100
C39 C 0.89870(15) 0.7556(2) -0.01949(17)
C40 C 0.88585(14) 0.7910(2) 0.01994(17)
H31 H 0.86530 0.83700 0.00690
C41 C 0.90263(16) 0.7604(2) 0.08033(18)
H32 H 0.89230 0.78630 0.10580
C42 C 0.93352(16) 0.6943(2) 0.10262(18)
C43 C 0.94809(14) 0.6550(2) 0.06261(16)
C44 C 0.93014(14) 0.6848(2) 0.00073(16)
C45 C 0.94256(14) 0.6429(2) -0.03827(16)
H33 H 0.93100 0.66280 -0.07840
C46 C 0.97169(14) 0.5720(2) -0.02029(15)
C47 C 0.98124(14) 0.5281(2) -0.06205(15)
C48 C 1.00943(13) 0.4568(2) -0.04197(15)
C49 C 1.02242(14) 0.4134(2) -0.08086(15)
H34 H 1.01030 0.43220 -0.12150
C50 C 0.96258(15) 0.5565(2) -0.12687(16)
C51 C 0.92188(16) 0.5171(3) -0.17835(16)
H35 H 0.90560 0.47340 -0.17210
C52 C 0.90543(18) 0.5419(3) -0.23842(18)
H36 H 0.87850 0.51430 -0.27270
C53 C 0.9280(2) 0.6066(3) -0.24855(19)
H37 H 0.91660 0.62380 -0.28940
C54 C 0.96772(19) 0.6456(3) -0.19781(19)
H38 H 0.98360 0.68980 -0.20420
C55 C 0.98455(16) 0.6211(2) -0.13773(16)
H39 H 1.01150 0.64920 -0.10380
C56 C 0.88021(16) 0.7901(2) -0.08295(16)
H40 H 0.89290 0.75800 -0.10480
H41 H 0.89410 0.84290 -0.07830
H42 H 0.84170 0.79160 -0.10670
C57 C 0.95138(17) 0.6643(2) 0.16673(17)
H43 H 0.97290 0.61770 0.17460
H44 H 0.92060 0.65140 0.17000
H45 H 0.97220 0.70430 0.19730
C58 C 0.85204(14) 0.4939(2) 0.02261(17)
C59 C 0.86509(14) 0.4577(2) -0.01668(17)
H46 H 0.88590 0.41190 -0.00320
C60 C 0.84810(15) 0.4874(2) -0.07720(17)
H47 H 0.85790 0.46050 -0.10280
C61 C 0.81793(16) 0.5538(2) -0.09972(16)
C62 C 0.80273(14) 0.5941(2) -0.06035(15)
C63 C 0.82069(13) 0.5647(2) 0.00217(15)
C64 C 0.80782(13) 0.6078(2) 0.04001(15)
H48 H 0.81940 0.58910 0.08050
C65 C 0.77828(13) 0.6782(2) 0.02109(14)
C66 C 0.76863(14) 0.7220(2) 0.06200(15)
C67 C 0.74026(13) 0.7934(2) 0.04123(15)
C68 C 0.72632(14) 0.8377(2) 0.07945(15)
H49 H 0.73760 0.81920 0.11990
C69 C 0.78752(14) 0.6952(2) 0.12662(15)
C70 C 0.76405(16) 0.6303(2) 0.13763(16)
H50 H 0.73770 0.60160 0.10360
C71 C 0.77922(19) 0.6077(2) 0.19836(18)
H51 H 0.76280 0.56460 0.20510
C72 C 0.8186(2) 0.6490(3) 0.24877(19)
H52 H 0.82900 0.63380 0.28980
C73 C 0.84198(18) 0.7115(3) 0.23863(18)
H53 H 0.86880 0.73930 0.27280
C74 C 0.82657(16) 0.7348(3) 0.17807(16)
H54 H 0.84310 0.77840 0.17210
C75 C 0.87004(15) 0.4592(2) 0.08610(16)
H55 H 0.85720 0.49150 0.10780
H56 H 0.90860 0.45730 0.11010
H57 H 0.85590 0.40660 0.08120
C76 C 0.80078(17) 0.5825(2) -0.16404(16)
H58 H 0.77990 0.62990 -0.17240
H59 H 0.77940 0.54250 -0.19430
H60 H 0.83190 0.59360 -0.16720
C1F C 0.55218(15) 1.3195(2) -0.10364(17)
C2F C 0.51770(15) 1.3178(2) -0.08218(17)
H1F H 0.48270 1.33530 -0.10840
C3F C 0.53313(15) 1.2900(2) -0.02059(16)
H2F H 0.50810 1.29040 -0.00750
C4F C 0.58321(15) 1.2630(2) 0.01927(16)
C5F C 0.62143(14) 1.2640(2) -0.00059(15)
C6F C 0.60523(14) 1.2916(2) -0.06321(15)
C7F C 0.64268(13) 1.2929(2) -0.08138(15)
H3F H 0.63180 1.31020 -0.12210
C8F C 0.69670(14) 1.2698(2) -0.04236(15)
C9F C 0.73324(14) 1.2758(2) -0.06212(15)
C10F C 0.78724(14) 1.25624(19) -0.02046(14)
C11F C 0.82616(14) 1.2579(2) -0.03836(15)
H4F H 0.81580 1.27500 -0.07900
C12F C 0.71523(14) 1.3022(2) -0.12665(15)
C13F C 0.68360(16) 1.2551(2) -0.17780(16)
H5F H 0.67320 1.20540 -0.17160
C14F C 0.66702(19) 1.2801(3) -0.23806(18)
H6F H 0.64620 1.24660 -0.27200
C15F C 0.68045(18) 1.3525(3) -0.24880(19)
H7F H 0.66880 1.36910 -0.28980
C16F C 0.71145(17) 1.4014(3) -0.19874(19)
H8F H 0.72040 1.45190 -0.20570
C17F C 0.72939(15) 1.3756(3) -0.13788(17)
H9F H 0.75140 1.40830 -0.10400
C18F C 0.53500(15) 1.3481(3) -0.16774(16)
H10F H 0.56460 1.34500 -0.17490
H11F H 0.50600 1.31590 -0.19820
H12F H 0.52320 1.40220 -0.17190
C19F C 0.59718(15) 1.2333(2) 0.08260(15)
H13F H 0.63400 1.21620 0.10500
H14F H 0.59230 1.27490 0.10580
H15F H 0.57430 1.18940 0.07790
C20D C 1.16852(15) 0.9863(2) -0.01604(16)
C21D C 1.21841(14) 0.9599(2) 0.02431(17)
H16D H 1.24390 0.95990 0.01200
C22D C 1.23273(15) 0.9321(2) 0.08520(17)
H17D H 1.26750 0.91360 0.11160
C23D C 1.19862(14) 0.9312(2) 0.10638(16)
C24D C 1.14500(14) 0.9589(2) 0.06559(15)
C25D C 1.12970(14) 0.9859(2) 0.00319(15)
C26D C 1.07698(14) 1.0080(2) -0.03666(14)
H18D H 1.06700 1.02540 -0.07710
C27D C 1.03788(14) 1.0057(2) -0.01965(15)
C28D C 0.98409(14) 1.0250(2) -0.06189(15)
C29D C 0.94665(13) 1.0197(2) -0.04316(14)
C30D C 0.89264(13) 1.0426(2) -0.08284(15)
H19D H 0.88220 1.05990 -0.12340
C31D C 0.96706(14) 1.0500(2) -0.12736(15)
C32D C 0.98214(15) 1.1217(2) -0.13916(17)
H20D H 1.00400 1.15520 -0.10580
C33D C 0.96535(17) 1.1445(3) -0.19967(19)
H21D H 0.97560 1.19370 -0.20700
C34D C 0.93410(17) 1.0966(3) -0.24906(19)
H22D H 0.92330 1.11220 -0.29010
C35D C 0.91863(17) 1.0253(3) -0.23799(17)
H23D H 0.89680 0.99220 -0.27170
C36D C 0.93479(15) 1.0021(2) -0.17803(15)
H24D H 0.92390 0.95310 -0.17110
C37D C 1.15439(15) 1.0175(2) -0.07954(16)
H25D H 1.11760 1.03440 -0.10180
H26D H 1.17720 1.06150 -0.07450
H27D H 1.15930 0.97640 -0.10320
C38D C 1.21503(14) 0.9032(3) 0.17038(16)
H28D H 1.18520 0.90720 0.17710
H29D H 1.22640 0.84890 0.17480
H30D H 1.24420 0.93520 0.20100
C39D C 1.10130(15) 0.2444(2) 0.01949(17)
C40D C 1.11415(14) 0.2090(2) -0.01994(17)
H31D H 1.13470 0.16300 -0.00690
C41D C 1.09737(16) 0.2396(2) -0.08033(18)
H32D H 1.10770 0.21370 -0.10580
C42D C 1.06648(16) 0.3057(2) -0.10262(18)
C43D C 1.05191(14) 0.3450(2) -0.06261(16)
C44D C 1.06986(14) 0.3152(2) -0.00073(16)
C45D C 1.05744(14) 0.3571(2) 0.03827(16)
H33D H 1.06900 0.33720 0.07840
C46D C 1.02831(14) 0.4280(2) 0.02029(15)
C47D C 1.01876(14) 0.4719(2) 0.06205(15)
C48D C 0.99057(13) 0.5432(2) 0.04197(15)
C49D C 0.97758(14) 0.5866(2) 0.08086(15)
H34D H 0.98970 0.56780 0.12150
C50D C 1.03742(15) 0.4435(2) 0.12687(16)
C51D C 1.07812(16) 0.4829(3) 0.17835(16)
H35D H 1.09440 0.52660 0.17210
C52D C 1.09457(18) 0.4581(3) 0.23842(18)
H36D H 1.12150 0.48570 0.27270
C53D C 1.0720(2) 0.3934(3) 0.24855(19)
H37D H 1.08340 0.37620 0.28940
C54D C 1.03228(19) 0.3544(3) 0.19781(19)
H38D H 1.01640 0.31020 0.20420
C55D C 1.01545(16) 0.3789(2) 0.13773(16)
H39D H 0.98850 0.35080 0.10380
C56D C 1.11979(16) 0.2099(2) 0.08295(16)
H40D H 1.10710 0.24200 0.10480
H41D H 1.10590 0.15710 0.07830
H42D H 1.15830 0.20840 0.10670
C57D C 1.04862(17) 0.3357(2) -0.16673(17)
H43D H 1.02710 0.38230 -0.17460
H44D H 1.07940 0.34860 -0.17000
H45D H 1.02780 0.29570 -0.19730
C58F C 0.64796(14) 1.0061(2) -0.02261(17)
C59F C 0.63491(14) 1.0423(2) 0.01668(17)
H46F H 0.61410 1.08810 0.00320
C60F C 0.65190(15) 1.0126(2) 0.07720(17)
H47F H 0.64210 1.03950 0.10280
C61F C 0.68207(16) 0.9462(2) 0.09972(16)
C62F C 0.69727(14) 0.9059(2) 0.06035(15)
C63F C 0.67931(13) 0.9353(2) -0.00217(15)
C64F C 0.69218(13) 0.8922(2) -0.04001(15)
H48F H 0.68060 0.91090 -0.08050
C65F C 0.72172(13) 0.8218(2) -0.02109(14)
C66F C 0.73137(14) 0.7780(2) -0.06200(15)
C67F C 0.75974(13) 0.7066(2) -0.04123(15)
C68F C 0.77368(14) 0.6623(2) -0.07945(15)
H49F H 0.76240 0.68080 -0.11990
C69F C 0.71248(14) 0.8048(2) -0.12662(15)
C70F C 0.73595(16) 0.8697(2) -0.13763(16)
H50F H 0.76230 0.89840 -0.10360
C71F C 0.72078(19) 0.8923(2) -0.19836(18)
H51F H 0.73720 0.93540 -0.20510
C72F C 0.6814(2) 0.8510(3) -0.24877(19)
H52F H 0.67100 0.86620 -0.28980
C73F C 0.65802(18) 0.7885(3) -0.23863(18)
H53F H 0.63120 0.76070 -0.27280
C74F C 0.67343(16) 0.7652(3) -0.17807(16)
H54F H 0.65690 0.72160 -0.17210
C75F C 0.62996(15) 1.0408(2) -0.08610(16)
H55F H 0.64280 1.00850 -0.10780
H56F H 0.59140 1.04270 -0.11010
H57F H 0.64410 1.09340 -0.08120
C76F C 0.69922(17) 0.9175(2) 0.16404(16)
H58F H 0.72010 0.87010 0.17240
H59F H 0.72060 0.95750 0.19430
H60F H 0.66810 0.90640 0.16720
loop_
_geom_bond_atom_site_label_1
_geom_bond_atom_site_label_2
_geom_bond_distance
_geom_bond_site_symmetry_1
_geom_bond_site_symmetry_2
C1 C2 1.361 1_555 1_555
C2 H1 0.939 1_555 1_555
C3 C2 1.439 1_555 1_555
H2 C3 0.941 1_555 1_555
C4 C3 1.364 1_555 1_555
C5 C4 1.434 1_555 1_555
C6 C1 1.433 1_555 1_555
C7 C6 1.382 1_555 1_555
H3 C7 0.941 1_555 1_555
C8 C7 1.425 1_555 1_555
C9 C8 1.389 1_555 1_555
C10 C9 1.418 1_555 1_555
C11 C10 1.418 1_555 1_555
H4 C11 0.942 1_555 1_555
C12 C9 1.482 1_555 1_555
C13 C12 1.385 1_555 1_555
H5 C13 0.939 1_555 1_555
C14 C13 1.387 1_555 1_555
H6 C14 0.941 1_555 1_555
C15 C14 1.362 1_555 1_555
H7 C15 0.939 1_555 1_555
C16 C15 1.384 1_555 1_555
H8 C16 0.941 1_555 1_555
C17 C12 1.390 1_555 1_555
H9 C17 0.939 1_555 1_555
C18 C1 1.489 1_555 1_555
H10 C18 0.970 1_555 1_555
H11 C18 0.969 1_555 1_555
H12 C18 0.972 1_555 1_555
C19 C4 1.500 1_555 1_555
H13 C19 0.971 1_555 1_555
H14 C19 0.970 1_555 1_555
H15 C19 0.970 1_555 1_555
C20 C21 1.359 1_555 1_555
C21 H16 0.939 1_555 1_555
C22 C21 1.431 1_555 1_555
H17 C22 0.940 1_555 1_555
C23 C22 1.345 1_555 1_555
C24 C23 1.445 1_555 1_555
C25 C20 1.440 1_555 1_555
C26 C25 1.394 1_555 1_555
H18 C26 0.941 1_555 1_555
C27 C26 1.408 1_555 1_555
C28 C27 1.415 1_555 1_555
C29 C28 1.395 1_555 1_555
C30 C29 1.425 1_555 1_555
H19 C30 0.940 1_555 1_555
C31 C28 1.502 1_555 1_555
C32 C31 1.381 1_555 1_555
H20 C32 0.939 1_555 1_555
C33 C32 1.380 1_555 1_555
H21 C33 0.939 1_555 1_555
C34 C33 1.366 1_555 1_555
H22 C34 0.940 1_555 1_555
C35 C34 1.373 1_555 1_555
H23 C35 0.940 1_555 1_555
C36 C31 1.390 1_555 1_555
H24 C36 0.941 1_555 1_555
C37 C20 1.511 1_555 1_555
H25 C37 0.969 1_555 1_555
H26 C37 0.969 1_555 1_555
H27 C37 0.972 1_555 1_555
C38 C23 1.488 1_555 1_555
H28 C38 0.971 1_555 1_555
H29 C38 0.971 1_555 1_555
H30 C38 0.971 1_555 1_555
C39 C40 1.358 1_555 1_555
C40 H31 0.939 1_555 1_555
C41 C40 1.421 1_555 1_555
H32 C41 0.940 1_555 1_555
C42 C41 1.372 1_555 1_555
C43 C42 1.433 1_555 1_555
C44 C39 1.444 1_555 1_555
C45 C44 1.394 1_555 1_555
H33 C45 0.939 1_555 1_555
C46 C45 1.414 1_555 1_555
C47 C46 1.419 1_555 1_555
C48 C47 1.410 1_555 1_555
C49 C48 1.415 1_555 1_555
H34 C49 0.941 1_555 1_555
C50 C47 1.495 1_555 1_555
C51 C50 1.398 1_555 1_555
H35 C51 0.939 1_555 1_555
C52 C51 1.382 1_555 1_555
H36 C52 0.940 1_555 1_555
C53 C52 1.373 1_555 1_555
H37 C53 0.940 1_555 1_555
C54 C53 1.375 1_555 1_555
H38 C54 0.940 1_555 1_555
C55 C50 1.370 1_555 1_555
H39 C55 0.941 1_555 1_555
C56 C39 1.503 1_555 1_555
H40 C56 0.969 1_555 1_555
H41 C56 0.970 1_555 1_555
H42 C56 0.969 1_555 1_555
C57 C42 1.493 1_555 1_555
H43 C57 0.970 1_555 1_555
H44 C57 0.970 1_555 1_555
H45 C57 0.971 1_555 1_555
C58 C59 1.365 1_555 1_555
C59 H46 0.940 1_555 1_555
C60 C59 1.417 1_555 1_555
H47 C60 0.940 1_555 1_555
C61 C60 1.367 1_555 1_555
C62 C61 1.440 1_555 1_555
C63 C58 1.442 1_555 1_555
C64 C63 1.389 1_555 1_555
H48 C64 0.940 1_555 1_555
C65 C64 1.412 1_555 1_555
C66 C65 1.402 1_555 1_555
C67 C66 1.414 1_555 1_555
C68 C67 1.427 1_555 1_555
H49 C68 0.939 1_555 1_555
C69 C66 1.481 1_555 1_555
C70 C69 1.401 1_555 1_555
H50 C70 0.941 1_555 1_555
C71 C70 1.394 1_555 1_555
H51 C71 0.939 1_555 1_555
C72 C71 1.386 1_555 1_555
H52 C72 0.941 1_555 1_555
C73 C72 1.357 1_555 1_555
H53 C73 0.939 1_555 1_555
C74 C69 1.381 1_555 1_555
H54 C74 0.939 1_555 1_555
C75 C58 1.508 1_555 1_555
H55 C75 0.971 1_555 1_555
H56 C75 0.971 1_555 1_555
H57 C75 0.969 1_555 1_555
C76 C61 1.494 1_555 1_555
H58 C76 0.969 1_555 1_555
H59 C76 0.971 1_555 1_555
H60 C76 0.971 1_555 1_555
C1F C2F 1.361 1_555 1_555
C2F H1F 0.939 1_555 1_555
C3F C2F 1.439 1_555 1_555
H2F C3F 0.941 1_555 1_555
C4F C3F 1.364 1_555 1_555
C5F C11 1.383 1_555 1_555
C6F C1F 1.433 1_555 1_555
C7F C6F 1.382 1_555 1_555
H3F C7F 0.941 1_555 1_555
C8F C10 1.453 1_555 1_555
C9F C8F 1.389 1_555 1_555
C10F C8 1.453 1_555 1_555
C11F C5 1.383 1_555 1_555
H4F C11F 0.942 1_555 1_555
C12F C9F 1.482 1_555 1_555
C13F C12F 1.385 1_555 1_555
H5F C13F 0.939 1_555 1_555
C14F C13F 1.387 1_555 1_555
H6F C14F 0.941 1_555 1_555
C15F C14F 1.362 1_555 1_555
H7F C15F 0.939 1_555 1_555
C16F C15F 1.384 1_555 1_555
H8F C16F 0.941 1_555 1_555
C17F C12F 1.390 1_555 1_555
H9F C17F 0.939 1_555 1_555
C18F C1F 1.489 1_555 1_555
H10F C18F 0.970 1_555 1_555
H11F C18F 0.969 1_555 1_555
H12F C18F 0.972 1_555 1_555
C19F C4F 1.500 1_555 1_555
H13F C19F 0.971 1_555 1_555
H14F C19F 0.970 1_555 1_555
H15F C19F 0.970 1_555 1_555
C20D C21D 1.359 1_555 1_555
C21D H16D 0.939 1_555 1_555
C22D C21D 1.431 1_555 1_555
H17D C22D 0.940 1_555 1_555
C23D C22D 1.345 1_555 1_555
C24D C30 1.371 1_555 1_555
C25D C20D 1.440 1_555 1_555
C26D C25D 1.394 1_555 1_555
H18D C26D 0.941 1_555 1_555
C27D C29 1.454 1_555 1_555
C28D C27D 1.415 1_555 1_555
C29D C27 1.454 1_555 1_555
C30D C24 1.371 1_555 1_555
H19D C30D 0.940 1_555 1_555
C31D C28D 1.502 1_555 1_555
C32D C31D 1.381 1_555 1_555
H20D C32D 0.939 1_555 1_555
C33D C32D 1.380 1_555 1_555
H21D C33D 0.939 1_555 1_555
C34D C33D 1.366 1_555 1_555
H22D C34D 0.940 1_555 1_555
C35D C34D 1.373 1_555 1_555
H23D C35D 0.940 1_555 1_555
C36D C31D 1.390 1_555 1_555
H24D C36D 0.941 1_555 1_555
C37D C20D 1.511 1_555 1_555
H25D C37D 0.969 1_555 1_555
H26D C37D 0.969 1_555 1_555
H27D C37D 0.972 1_555 1_555
C38D C23D 1.488 1_555 1_555
H28D C38D 0.971 1_555 1_555
H29D C38D 0.971 1_555 1_555
H30D C38D 0.971 1_555 1_555
C39D C40D 1.358 1_555 1_555
C40D H31D 0.939 1_555 1_555
C41D C40D 1.421 1_555 1_555
H32D C41D 0.940 1_555 1_555
C42D C41D 1.372 1_555 1_555
C43D C49 1.382 1_555 1_555
C44D C39D 1.444 1_555 1_555
C45D C44D 1.394 1_555 1_555
H33D C45D 0.939 1_555 1_555
C46D C48 1.440 1_555 1_555
C47D C46D 1.419 1_555 1_555
C48D C46 1.440 1_555 1_555
C49D C43 1.382 1_555 1_555
H34D C49D 0.941 1_555 1_555
C50D C47D 1.495 1_555 1_555
C51D C50D 1.398 1_555 1_555
H35D C51D 0.939 1_555 1_555
C52D C51D 1.382 1_555 1_555
H36D C52D 0.940 1_555 1_555
C53D C52D 1.373 1_555 1_555
H37D C53D 0.940 1_555 1_555
C54D C53D 1.375 1_555 1_555
H38D C54D 0.940 1_555 1_555
C55D C50D 1.370 1_555 1_555
H39D C55D 0.941 1_555 1_555
C56D C39D 1.503 1_555 1_555
H40D C56D 0.969 1_555 1_555
H41D C56D 0.970 1_555 1_555
H42D C56D 0.969 1_555 1_555
C57D C42D 1.493 1_555 1_555
H43D C57D 0.970 1_555 1_555
H44D C57D 0.970 1_555 1_555
H45D C57D 0.971 1_555 1_555
C58F C59F 1.365 1_555 1_555
C59F H46F 0.940 1_555 1_555
C60F C59F 1.417 1_555 1_555
H47F C60F 0.940 1_555 1_555
C61F C60F 1.367 1_555 1_555
C62F C68 1.374 1_555 1_555
C63F C58F 1.442 1_555 1_555
C64F C63F 1.389 1_555 1_555
H48F C64F 0.940 1_555 1_555
C65F C67 1.440 1_555 1_555
C66F C65F 1.402 1_555 1_555
C67F C65 1.440 1_555 1_555
C68F C62 1.374 1_555 1_555
H49F C68F 0.939 1_555 1_555
C69F C66F 1.481 1_555 1_555
C70F C69F 1.401 1_555 1_555
H50F C70F 0.941 1_555 1_555
C71F C70F 1.394 1_555 1_555
H51F C71F 0.939 1_555 1_555
C72F C71F 1.386 1_555 1_555
H52F C72F 0.941 1_555 1_555
C73F C72F 1.357 1_555 1_555
H53F C73F 0.939 1_555 1_555
C74F C69F 1.381 1_555 1_555
H54F C74F 0.939 1_555 1_555
C75F C58F 1.508 1_555 1_555
H55F C75F 0.971 1_555 1_555
H56F C75F 0.971 1_555 1_555
H57F C75F 0.969 1_555 1_555
C76F C61F 1.494 1_555 1_555
H58F C76F 0.969 1_555 1_555
H59F C76F 0.971 1_555 1_555
H60F C76F 0.971 1_555 1_555
C5 C6 1.456 1_555 1_555
C16 C17 1.397 1_555 1_555
C24 C25 1.454 1_555 1_555
C35 C36 1.373 1_555 1_555
C43 C44 1.442 1_555 1_555
C54 C55 1.379 1_555 1_555
C62 C63 1.454 1_555 1_555
C73 C74 1.392 1_555 1_555
C4F C5F 1.434 1_555 1_555
C5F C6F 1.456 1_555 1_555
C7F C8F 1.425 1_555 1_555
C9F C10F 1.418 1_555 1_555
C10F C11F 1.418 1_555 1_555
C16F C17F 1.397 1_555 1_555
C23D C24D 1.445 1_555 1_555
C24D C25D 1.454 1_555 1_555
C26D C27D 1.408 1_555 1_555
C28D C29D 1.395 1_555 1_555
C29D C30D 1.425 1_555 1_555
C35D C36D 1.373 1_555 1_555
C42D C43D 1.433 1_555 1_555
C43D C44D 1.442 1_555 1_555
C45D C46D 1.414 1_555 1_555
C47D C48D 1.410 1_555 1_555
C48D C49D 1.415 1_555 1_555
C54D C55D 1.379 1_555 1_555
C61F C62F 1.440 1_555 1_555
C62F C63F 1.454 1_555 1_555
C64F C65F 1.412 1_555 1_555
C66F C67F 1.414 1_555 1_555
C67F C68F 1.427 1_555 1_555
C73F C74F 1.392 1_555 1_555
#END
