
#######################################################################
#
#                 Cambridge Crystallographic Data Centre
#                                CCDC
#
#######################################################################
#
# If this CIF has been generated from an entry in the Cambridge
# Structural Database, then it will include bibliographic, chemical,
# crystal, experimental, refinement or atomic coordinate data resulting
# from the CCDC's data processing and validation procedures.
#
#######################################################################

data_CSD_CIF_IQOXET
_audit_creation_date 2016-07-07
_audit_creation_method CSD-ConQuest-V1
_database_code_CSD IQOXET
_database_code_depnum_ccdc_archive 'CCDC 1475954'
_chemical_formula_sum 'C22 H16'
_chemical_formula_moiety
;
C22 H16
;
_journal_coden_Cambridge 179
_journal_volume 55
_journal_year 2016
_journal_page_first 11120
_journal_name_full 'Angew.Chem.,Int.Ed. '
loop_
_publ_author_name
"R.Dorel"
"P.R.McGonigal"
"A.M.Echavarren"
_chemical_name_systematic
;
8,13-dihydrobenzo[a]tetracene
;
_cell_volume   2857.819
_exptl_crystal_colour 'colorless'
_exptl_crystal_density_diffrn 1.303
_exptl_crystal_description 'plate'
_diffrn_ambient_temperature 100
#These two values have been output from a single CSD field.
_refine_ls_R_factor_gt 0.0719
_refine_ls_wR_factor_gt 0.0719
_symmetry_cell_setting monoclinic
_symmetry_space_group_name_H-M 'P 21/n'
_symmetry_Int_Tables_number 14
loop_
_symmetry_equiv_pos_site_id
_symmetry_equiv_pos_as_xyz
1 x,y,z
2 1/2-x,1/2+y,1/2-z
3 -x,-y,-z
4 -1/2+x,-1/2-y,-1/2+z
_cell_length_a 9.6625(12)
_cell_length_b 29.429(3)
_cell_length_c 10.3159(12)
_cell_angle_alpha 90
_cell_angle_beta 103.035(13)
_cell_angle_gamma 90
_cell_formula_units_Z 8
loop_
_atom_type_symbol
_atom_type_radius_bond
C 0.68
H 0.23
loop_
_atom_site_label
_atom_site_type_symbol
_atom_site_fract_x
_atom_site_fract_y
_atom_site_fract_z
C1 C 0.3213(4) 0.08318(13) 0.7801(3)
C2 C 0.1879(4) 0.08056(13) 0.6976(4)
H1 H 0.13660 0.10720 0.67430
C3 C 0.1286(4) 0.04031(14) 0.6491(4)
H2 H 0.03860 0.03980 0.59290
C4 C 0.2035(5) -0.00034(14) 0.6841(4)
H3 H 0.16260 -0.02800 0.65330
C5 C 0.3352(5) 0.00111(14) 0.7629(4)
H4 H 0.38390 -0.02600 0.78630
C6 C 0.4015(4) 0.04234(13) 0.8110(4)
C7 C 0.5421(4) 0.04381(15) 0.8867(4)
H5 H 0.59220 0.01680 0.90720
C8 C 0.6060(4) 0.08335(14) 0.9301(4)
H6 H 0.70080 0.08350 0.97580
C9 C 0.5290(4) 0.12514(13) 0.9065(3)
C10 C 0.5917(4) 0.16648(13) 0.9592(3)
H7 H 0.68750 0.16680 1.00140
C11 C 0.5155(4) 0.20632(13) 0.9500(3)
C12 C 0.5809(4) 0.24978(13) 1.0110(4)
H8 H 0.57420 0.25060 1.10340
H9 H 0.68090 0.24970 1.00960
C13 C 0.5145(4) 0.29193(13) 0.9437(3)
C14 C 0.5908(4) 0.33113(13) 0.9405(4)
H10 H 0.68700 0.33140 0.98150
C15 C 0.5298(4) 0.36990(14) 0.8788(4)
H11 H 0.58370 0.39610 0.87860
C16 C 0.3851(4) 0.36950(14) 0.8163(4)
H12 H 0.34160 0.39540 0.77430
C17 C 0.3080(4) 0.33001(13) 0.8179(4)
H13 H 0.21200 0.32940 0.77610
C18 C 0.3717(4) 0.29150(12) 0.8806(3)
C19 C 0.2864(3) 0.24866(12) 0.8818(3)
H14 H 0.24560 0.24900 0.95950
H15 H 0.20860 0.24840 0.80360
C20 C 0.3719(4) 0.20603(13) 0.8835(3)
C21 C 0.3113(4) 0.16650(12) 0.8262(3)
H16 H 0.21700 0.16700 0.77950
C22 C 0.3867(4) 0.12526(13) 0.8356(3)
C23 C 0.9251(3) 0.22093(12) 0.8637(3)
C24 C 0.8746(4) 0.20002(12) 0.7388(3)
H17 H 0.84220 0.21810 0.66410
C25 C 0.8722(4) 0.15407(12) 0.7255(4)
H18 H 0.83880 0.14100 0.64220
C26 C 0.9199(4) 0.12630(13) 0.8366(4)
H19 H 0.91890 0.09490 0.82720
C27 C 0.9677(4) 0.14544(12) 0.9585(4)
H20 H 0.99750 0.12680 1.03230
C28 C 0.9731(3) 0.19254(12) 0.9750(3)
C29 C 1.0237(4) 0.21226(12) 1.1032(3)
H21 H 1.05230 0.19340 1.17670
C30 C 1.0309(4) 0.25733(13) 1.1200(3)
H22 H 1.06440 0.26920 1.20490
C31 C 0.9881(4) 0.28754(12) 1.0100(3)
C32 C 1.0023(4) 0.33441(12) 1.0284(3)
H23 H 1.03670 0.34580 1.11370
C33 C 0.9671(3) 0.36389(12) 0.9245(3)
C34 C 0.9876(4) 0.41433(12) 0.9410(4)
H24 H 1.07830 0.42270 0.92220
H25 H 0.99000 0.42250 1.03250
C35 C 0.8710(4) 0.44051(12) 0.8502(4)
C36 C 0.8178(4) 0.48036(13) 0.8892(4)
H26 H 0.85440 0.49170 0.97410
C37 C 0.7126(4) 0.50331(14) 0.8051(4)
H27 H 0.67850 0.53030 0.83290
C38 C 0.6558(4) 0.48702(13) 0.6792(4)
H28 H 0.58270 0.50260 0.62270
C39 C 0.7085(4) 0.44725(13) 0.6376(4)
H29 H 0.67160 0.43630 0.55230
C40 C 0.8165(4) 0.42361(12) 0.7228(4)
C41 C 0.8764(4) 0.38012(11) 0.6830(3)
H30 H 0.96130 0.38680 0.65120
H31 H 0.80770 0.36640 0.61020
C42 C 0.9126(4) 0.34675(11) 0.7960(3)
C43 C 0.8951(4) 0.30098(11) 0.7758(3)
H32 H 0.85650 0.29020 0.69060
C44 C 0.9341(3) 0.26964(12) 0.8815(3)
loop_
_geom_bond_atom_site_label_1
_geom_bond_atom_site_label_2
_geom_bond_distance
_geom_bond_site_symmetry_1
_geom_bond_site_symmetry_2
C1 C2 1.377 1_555 1_555
C2 H1 0.930 1_555 1_555
C3 C2 1.361 1_555 1_555
H2 C3 0.930 1_555 1_555
C4 C3 1.403 1_555 1_555
H3 C4 0.929 1_555 1_555
C5 C4 1.347 1_555 1_555
H4 C5 0.930 1_555 1_555
C6 C1 1.427 1_555 1_555
C7 C6 1.407 1_555 1_555
H5 C7 0.930 1_555 1_555
C8 C7 1.346 1_555 1_555
H6 C8 0.931 1_555 1_555
C9 C8 1.430 1_555 1_555
C10 C9 1.412 1_555 1_555
H7 C10 0.930 1_555 1_555
C11 C10 1.376 1_555 1_555
C12 C11 1.501 1_555 1_555
H8 C12 0.970 1_555 1_555
H9 C12 0.970 1_555 1_555
C13 C12 1.494 1_555 1_555
C14 C13 1.373 1_555 1_555
H10 C14 0.930 1_555 1_555
C15 C14 1.373 1_555 1_555
H11 C15 0.931 1_555 1_555
C16 C15 1.401 1_555 1_555
H12 C16 0.929 1_555 1_555
C17 C16 1.383 1_555 1_555
H13 C17 0.931 1_555 1_555
C18 C13 1.387 1_555 1_555
C19 C18 1.508 1_555 1_555
H14 C19 0.970 1_555 1_555
H15 C19 0.971 1_555 1_555
C20 C11 1.402 1_555 1_555
C21 C20 1.375 1_555 1_555
H16 C21 0.930 1_555 1_555
C22 C1 1.448 1_555 1_555
C23 C24 1.412 1_555 1_555
C24 H17 0.931 1_555 1_555
C25 C24 1.359 1_555 1_555
H18 C25 0.930 1_555 1_555
C26 C25 1.398 1_555 1_555
H19 C26 0.929 1_555 1_555
C27 C26 1.360 1_555 1_555
H20 C27 0.930 1_555 1_555
C28 C23 1.411 1_555 1_555
C29 C28 1.426 1_555 1_555
H21 C29 0.930 1_555 1_555
C30 C29 1.337 1_555 1_555
H22 C30 0.931 1_555 1_555
C31 C30 1.427 1_555 1_555
C32 C31 1.395 1_555 1_555
H23 C32 0.930 1_555 1_555
C33 C32 1.361 1_555 1_555
C34 C33 1.502 1_555 1_555
H24 C34 0.971 1_555 1_555
H25 C34 0.969 1_555 1_555
C35 C34 1.505 1_555 1_555
C36 C35 1.376 1_555 1_555
H26 C36 0.929 1_555 1_555
C37 C36 1.358 1_555 1_555
H27 C37 0.930 1_555 1_555
C38 C37 1.377 1_555 1_555
H28 C38 0.929 1_555 1_555
C39 C38 1.383 1_555 1_555
H29 C39 0.929 1_555 1_555
C40 C35 1.393 1_555 1_555
C41 C40 1.500 1_555 1_555
H30 C41 0.970 1_555 1_555
H31 C41 0.971 1_555 1_555
C42 C33 1.405 1_555 1_555
C43 C42 1.368 1_555 1_555
H32 C43 0.930 1_555 1_555
C44 C23 1.445 1_555 1_555
C5 C6 1.409 1_555 1_555
C9 C22 1.404 1_555 1_555
C17 C18 1.379 1_555 1_555
C19 C20 1.500 1_555 1_555
C21 C22 1.408 1_555 1_555
C27 C28 1.396 1_555 1_555
C31 C44 1.412 1_555 1_555
C39 C40 1.390 1_555 1_555
C41 C42 1.504 1_555 1_555
C43 C44 1.413 1_555 1_555
#END
