
#######################################################################
#
#                 Cambridge Crystallographic Data Centre
#                                CCDC
#
#######################################################################
#
# If this CIF has been generated from an entry in the Cambridge
# Structural Database, then it will include bibliographic, chemical,
# crystal, experimental, refinement or atomic coordinate data resulting
# from the CCDC's data processing and validation procedures.
#
#######################################################################

data_CSD_CIF_IQOXIX
_audit_creation_date 2016-07-07
_audit_creation_method CSD-ConQuest-V1
_database_code_CSD IQOXIX
_database_code_depnum_ccdc_archive 'CCDC 1475955'
_chemical_formula_sum 'C26 H18'
_chemical_formula_moiety
;
C26 H18
;
_journal_coden_Cambridge 179
_journal_volume 55
_journal_year 2016
_journal_page_first 11120
_journal_name_full 'Angew.Chem.,Int.Ed. '
loop_
_publ_author_name
"R.Dorel"
"P.R.McGonigal"
"A.M.Echavarren"
_chemical_name_systematic
;
10,15-dihydrodibenzo[a,c]tetracene
;
_cell_volume   3304.396
_exptl_crystal_colour 'yellow'
_exptl_crystal_density_diffrn 1.328
_exptl_crystal_description 'plate'
_diffrn_ambient_temperature 100
_diffrn_special_details
;
twin

;
#These two values have been output from a single CSD field.
_refine_ls_R_factor_gt 0.1366
_refine_ls_wR_factor_gt 0.1366
_symmetry_cell_setting triclinic
_symmetry_space_group_name_H-M 'P -1'
_symmetry_Int_Tables_number 2
loop_
_symmetry_equiv_pos_site_id
_symmetry_equiv_pos_as_xyz
1 x,y,z
2 -x,-y,-z
_cell_length_a 12.0990(15)
_cell_length_b 12.1273(15)
_cell_length_c 23.625(3)
_cell_angle_alpha 103.003(4)
_cell_angle_beta 101.632(4)
_cell_angle_gamma 90.023(4)
_cell_formula_units_Z 8
loop_
_atom_type_symbol
_atom_type_radius_bond
C 0.68
H 0.23
loop_
_atom_site_label
_atom_site_type_symbol
_atom_site_fract_x
_atom_site_fract_y
_atom_site_fract_z
C1 C 0.4145(4) 0.2897(4) -0.0285(2)
C2 C 0.4508(4) 0.1817(4) -0.0513(3)
H1 H 0.42030 0.14420 -0.09130
C3 C 0.5292(4) 0.1294(4) -0.0170(3)
H2 H 0.55240 0.05640 -0.03340
C4 C 0.5744(4) 0.1820(4) 0.0412(3)
H3 H 0.62720 0.14440 0.06500
C5 C 0.5429(4) 0.2903(4) 0.0652(3)
H4 H 0.57610 0.32660 0.10510
C6 C 0.4635(4) 0.3463(4) 0.0317(2)
C7 C 0.4296(4) 0.4598(4) 0.0560(2)
C8 C 0.4764(4) 0.5167(4) 0.1134(2)
H5 H 0.53180 0.48060 0.13670
C9 C 0.4461(4) 0.6246(4) 0.1386(2)
C10 C 0.4975(4) 0.6839(5) 0.2009(2)
H6 H 0.57230 0.65330 0.21290
H7 H 0.44900 0.66850 0.22770
C11 C 0.5114(4) 0.8092(5) 0.2080(2)
C12 C 0.6037(4) 0.8746(5) 0.2466(2)
H8 H 0.65960 0.83900 0.26980
C13 C 0.6144(5) 0.9898(5) 0.2513(2)
H9 H 0.67690 1.03300 0.27800
C14 C 0.5351(5) 1.0415(5) 0.2176(3)
H10 H 0.54280 1.12090 0.22130
C15 C 0.4423(5) 0.9796(5) 0.1775(3)
H11 H 0.38890 1.01630 0.15350
C16 C 0.4293(4) 0.8637(4) 0.1733(2)
C17 C 0.3310(4) 0.7931(4) 0.1311(2)
H12 H 0.27050 0.78560 0.15280
H13 H 0.30040 0.83240 0.09920
C18 C 0.3642(4) 0.6774(4) 0.1037(2)
C19 C 0.3190(4) 0.6235(4) 0.0460(2)
H14 H 0.26450 0.66080 0.02300
C20 C 0.3500(4) 0.5154(4) 0.0194(2)
C21 C 0.3050(4) 0.4577(4) -0.0427(2)
C22 C 0.2351(4) 0.5161(4) -0.0809(2)
H15 H 0.22000 0.59300 -0.06630
C23 C 0.1896(4) 0.4638(5) -0.1382(2)
H16 H 0.14230 0.50370 -0.16330
C24 C 0.2126(4) 0.3512(5) -0.1601(2)
H17 H 0.18040 0.31380 -0.19990
C25 C 0.2819(4) 0.2945(5) -0.1237(2)
H18 H 0.29590 0.21750 -0.13880
C26 C 0.3325(4) 0.3469(4) -0.0651(2)
C27 C 0.6535(4) 0.8917(4) 0.5576(2)
C28 C 0.7096(4) 0.8985(5) 0.6169(2)
H19 H 0.78500 0.92930 0.63030
C29 C 0.6556(5) 0.8610(5) 0.6553(3)
H20 H 0.69390 0.86670 0.69520
C30 C 0.5457(5) 0.8147(5) 0.6366(2)
H21 H 0.50880 0.78990 0.66380
C31 C 0.4908(4) 0.8051(4) 0.5792(2)
H22 H 0.41570 0.77300 0.56670
C32 C 0.5435(4) 0.8422(4) 0.5377(2)
C33 C 0.4830(4) 0.8335(4) 0.4775(2)
C34 C 0.3735(3) 0.7828(4) 0.4552(2)
H23 H 0.33830 0.75040 0.48050
C35 C 0.3147(4) 0.7780(4) 0.3977(2)
C36 C 0.1950(4) 0.7287(4) 0.3768(2)
H24 H 0.15990 0.73220 0.41150
H25 H 0.19580 0.64800 0.35620
C37 C 0.1246(4) 0.7923(4) 0.3347(2)
C38 C 0.0103(4) 0.8135(5) 0.3364(2)
H26 H -0.02430 0.78770 0.36410
C39 C -0.0510(5) 0.8718(5) 0.2977(3)
H27 H -0.12840 0.88410 0.29800
C40 C -0.0007(5) 0.9125(5) 0.2585(3)
H28 H -0.04370 0.95180 0.23160
C41 C 0.1134(5) 0.8958(5) 0.2584(2)
H29 H 0.14830 0.92560 0.23210
C42 C 0.1767(4) 0.8360(4) 0.2965(2)
C43 C 0.2998(4) 0.8156(5) 0.2976(2)
H30 H 0.30700 0.73920 0.27310
H31 H 0.33170 0.87170 0.27980
C44 C 0.3660(4) 0.8245(4) 0.3593(2)
C45 C 0.4736(4) 0.8738(4) 0.3799(2)
H32 H 0.50810 0.90450 0.35370
C46 C 0.5341(3) 0.8804(4) 0.4377(2)
C47 C 0.6479(3) 0.9356(4) 0.4592(2)
C48 C 0.7005(4) 0.9855(4) 0.4224(2)
H33 H 0.66130 0.98290 0.38300
C49 C 0.8053(4) 1.0373(4) 0.4413(3)
H34 H 0.83830 1.07030 0.41540
C50 C 0.8639(4) 1.0415(4) 0.4989(3)
H35 H 0.93680 1.07830 0.51270
C51 C 0.8159(4) 0.9922(4) 0.5362(3)
H36 H 0.85650 0.99460 0.57530
C52 C 0.7070(4) 0.9382(4) 0.5165(2)
C53 C 1.1480(4) 0.6645(4) 0.5649(2)
C54 C 1.1999(4) 0.7123(5) 0.6253(2)
H37 H 1.27570 0.69580 0.63970
C55 C 1.1432(5) 0.7816(5) 0.6635(2)
H38 H 1.18010 0.81480 0.70320
C56 C 1.0290(5) 0.8024(5) 0.6423(3)
H39 H 0.98640 0.84380 0.66900
C57 C 0.9800(4) 0.7635(4) 0.5841(2)
H40 H 0.90510 0.78330 0.57020
C58 C 1.0368(4) 0.6943(4) 0.5434(2)
C59 C 0.9828(4) 0.6508(4) 0.4813(2)
C60 C 0.8735(4) 0.6822(4) 0.4572(2)
H41 H 0.83610 0.73530 0.48200
C61 C 0.8201(4) 0.6393(4) 0.3998(2)
C62 C 0.7024(4) 0.6700(4) 0.3760(2)
H42 H 0.70630 0.73250 0.35560
H43 H 0.66400 0.69740 0.40940
C63 C 0.6341(4) 0.5708(4) 0.3331(2)
C64 C 0.5163(4) 0.5555(5) 0.3303(2)
H44 H 0.47920 0.60960 0.35490
C65 C 0.4567(4) 0.4639(5) 0.2925(3)
H45 H 0.37860 0.45310 0.29160
C66 C 0.5091(5) 0.3862(5) 0.2554(3)
H46 H 0.46650 0.32290 0.22880
C67 C 0.6236(5) 0.4000(5) 0.2567(2)
H47 H 0.65910 0.34630 0.23110
C68 C 0.6865(4) 0.4931(4) 0.2960(2)
C69 C 0.8113(4) 0.5129(5) 0.2992(2)
H48 H 0.84350 0.44050 0.28280
H49 H 0.82170 0.56690 0.27470
C70 C 0.8734(4) 0.5595(4) 0.3623(2)
C71 C 0.9801(4) 0.5286(4) 0.3857(2)
H50 H 1.01630 0.47430 0.36080
C72 C 1.0369(3) 0.5730(4) 0.4437(2)
C73 C 1.1506(3) 0.5387(4) 0.4670(2)
C74 C 1.2078(4) 0.4598(4) 0.4309(2)
H51 H 1.17240 0.42870 0.39070
C75 C 1.3134(4) 0.4272(5) 0.4526(3)
H52 H 1.35020 0.37420 0.42730
C76 C 1.3658(4) 0.4704(5) 0.5100(3)
H53 H 1.43790 0.44580 0.52530
C77 C 1.3136(4) 0.5503(4) 0.5461(2)
H54 H 1.35120 0.58170 0.58590
C78 C 1.2061(4) 0.5859(4) 0.5250(2)
C79 C 0.8883(4) 1.1578(4) 1.0627(2)
C80 C 0.8898(4) 1.2165(4) 1.1202(2)
H55 H 0.91910 1.29280 1.13280
C81 C 0.8493(4) 1.1665(5) 1.1601(2)
H56 H 0.85180 1.20810 1.19960
C82 C 0.8053(4) 1.0553(4) 1.1418(2)
H57 H 0.77660 1.02070 1.16850
C83 C 0.8036(4) 0.9962(4) 1.0851(2)
H58 H 0.77670 0.91920 1.07360
C84 C 0.8405(4) 1.0455(4) 1.0427(2)
C85 C 0.8331(4) 0.9818(4) 0.9826(2)
C86 C 0.7851(4) 0.8715(4) 0.9605(2)
H59 H 0.75380 0.83660 0.98630
C87 C 0.7810(4) 0.8123(4) 0.9042(2)
C88 C 0.7331(4) 0.6911(4) 0.8833(2)
H60 H 0.73890 0.65690 0.91800
H61 H 0.65210 0.69110 0.86480
C89 C 0.7934(4) 0.6196(4) 0.8392(2)
C90 C 0.8122(4) 0.5061(4) 0.8395(3)
H62 H 0.78510 0.47190 0.86680
C91 C 0.8720(5) 0.4430(5) 0.7989(3)
H63 H 0.88360 0.36520 0.79810
C92 C 0.9133(5) 0.4931(5) 0.7605(2)
H64 H 0.95570 0.45040 0.73410
C93 C 0.8942(4) 0.6055(4) 0.7597(2)
H65 H 0.92130 0.63830 0.73180
C94 C 0.8363(4) 0.6702(4) 0.7988(2)
C95 C 0.8162(5) 0.7937(5) 0.8023(2)
H66 H 0.87270 0.82590 0.78470
H67 H 0.74040 0.80090 0.77840
C96 C 0.8233(4) 0.8598(4) 0.8639(2)
C97 C 0.8736(4) 0.9695(4) 0.8842(2)
H68 H 0.90520 1.00200 0.85770
C98 C 0.8788(4) 1.0326(4) 0.9418(2)
C99 C 0.9321(4) 1.1456(4) 0.9626(2)
C100 C 0.9818(4) 1.1978(4) 0.9245(2)
H69 H 0.97960 1.15780 0.88480
C101 C 1.0325(4) 1.3045(4) 0.9442(3)
H70 H 1.06420 1.33760 0.91790
C102 C 1.0379(4) 1.3644(4) 1.0023(3)
H71 H 1.07520 1.43740 1.01600
C103 C 0.9889(4) 1.3180(4) 1.0402(3)
H72 H 0.99130 1.36040 1.07950
C104 C 0.9354(4) 1.2083(4) 1.0215(2)
loop_
_geom_bond_atom_site_label_1
_geom_bond_atom_site_label_2
_geom_bond_distance
_geom_bond_site_symmetry_1
_geom_bond_site_symmetry_2
C1 C2 1.406 1_555 1_555
C2 H1 0.950 1_555 1_555
C3 C2 1.371 1_555 1_555
H2 C3 0.950 1_555 1_555
C4 C3 1.378 1_555 1_555
H3 C4 0.950 1_555 1_555
C5 C4 1.394 1_555 1_555
H4 C5 0.951 1_555 1_555
C6 C1 1.437 1_555 1_555
C7 C6 1.460 1_555 1_555
C8 C7 1.380 1_555 1_555
H5 C8 0.951 1_555 1_555
C9 C8 1.392 1_555 1_555
C10 C9 1.491 1_555 1_555
H6 C10 0.991 1_555 1_555
H7 C10 0.991 1_555 1_555
C11 C10 1.496 1_555 1_555
C12 C11 1.404 1_555 1_555
H8 C12 0.949 1_555 1_555
C13 C12 1.380 1_555 1_555
H9 C13 0.950 1_555 1_555
C14 C13 1.366 1_555 1_555
H10 C14 0.950 1_555 1_555
C15 C14 1.404 1_555 1_555
H11 C15 0.950 1_555 1_555
C16 C11 1.418 1_555 1_555
C17 C16 1.509 1_555 1_555
H12 C17 0.990 1_555 1_555
H13 C17 0.991 1_555 1_555
C18 C9 1.407 1_555 1_555
C19 C18 1.372 1_555 1_555
H14 C19 0.949 1_555 1_555
C20 C7 1.434 1_555 1_555
C21 C20 1.468 1_555 1_555
C22 C21 1.418 1_555 1_555
H15 C22 0.950 1_555 1_555
C23 C22 1.360 1_555 1_555
H16 C23 0.952 1_555 1_555
C24 C23 1.397 1_555 1_555
H17 C24 0.950 1_555 1_555
C25 C24 1.375 1_555 1_555
H18 C25 0.950 1_555 1_555
C26 C1 1.462 1_555 1_555
C27 C28 1.412 1_555 1_555
C28 H19 0.950 1_555 1_555
C29 C28 1.372 1_555 1_555
H20 C29 0.950 1_555 1_555
C30 C29 1.389 1_555 1_555
H21 C30 0.951 1_555 1_555
C31 C30 1.364 1_555 1_555
H22 C31 0.951 1_555 1_555
C32 C27 1.405 1_555 1_555
C33 C32 1.443 1_555 1_555
C34 C33 1.408 1_555 1_555
H23 C34 0.949 1_555 1_555
C35 C34 1.389 1_555 1_555
C36 C35 1.509 1_555 1_555
H24 C36 0.989 1_555 1_555
H25 C36 0.991 1_555 1_555
C37 C36 1.521 1_555 1_555
C38 C37 1.414 1_555 1_555
H26 C38 0.951 1_555 1_555
C39 C38 1.380 1_555 1_555
H27 C39 0.950 1_555 1_555
C40 C39 1.380 1_555 1_555
H28 C40 0.951 1_555 1_555
C41 C40 1.396 1_555 1_555
H29 C41 0.950 1_555 1_555
C42 C37 1.392 1_555 1_555
C43 C42 1.506 1_555 1_555
H30 C43 0.990 1_555 1_555
H31 C43 0.991 1_555 1_555
C44 C35 1.408 1_555 1_555
C45 C44 1.379 1_555 1_555
H32 C45 0.951 1_555 1_555
C46 C33 1.437 1_555 1_555
C47 C46 1.472 1_555 1_555
C48 C47 1.409 1_555 1_555
H33 C48 0.949 1_555 1_555
C49 C48 1.359 1_555 1_555
H34 C49 0.950 1_555 1_555
C50 C49 1.392 1_555 1_555
H35 C50 0.950 1_555 1_555
C51 C50 1.384 1_555 1_555
H36 C51 0.949 1_555 1_555
C52 C27 1.476 1_555 1_555
C53 C54 1.426 1_555 1_555
C54 H37 0.950 1_555 1_555
C55 C54 1.378 1_555 1_555
H38 C55 0.950 1_555 1_555
C56 C55 1.415 1_555 1_555
H39 C56 0.951 1_555 1_555
C57 C56 1.358 1_555 1_555
H40 C57 0.950 1_555 1_555
C58 C53 1.416 1_555 1_555
C59 C58 1.457 1_555 1_555
C60 C59 1.419 1_555 1_555
H41 C60 0.949 1_555 1_555
C61 C60 1.362 1_555 1_555
C62 C61 1.501 1_555 1_555
H42 C62 0.991 1_555 1_555
H43 C62 0.989 1_555 1_555
C63 C62 1.507 1_555 1_555
C64 C63 1.424 1_555 1_555
H44 C64 0.951 1_555 1_555
C65 C64 1.358 1_555 1_555
H45 C65 0.949 1_555 1_555
C66 C65 1.382 1_555 1_555
H46 C66 0.950 1_555 1_555
C67 C66 1.389 1_555 1_555
H47 C67 0.950 1_555 1_555
C68 C63 1.382 1_555 1_555
C69 C68 1.513 1_555 1_555
H48 C69 0.990 1_555 1_555
H49 C69 0.990 1_555 1_555
C70 C61 1.408 1_555 1_555
C71 C70 1.385 1_555 1_555
H50 C71 0.949 1_555 1_555
C72 C59 1.402 1_555 1_555
C73 C72 1.472 1_555 1_555
C74 C73 1.412 1_555 1_555
H51 C74 0.950 1_555 1_555
C75 C74 1.371 1_555 1_555
H52 C75 0.950 1_555 1_555
C76 C75 1.360 1_555 1_555
H53 C76 0.950 1_555 1_555
C77 C76 1.382 1_555 1_555
H54 C77 0.950 1_555 1_555
C78 C53 1.468 1_555 1_555
C79 C80 1.381 1_555 1_555
C80 H55 0.951 1_555 1_555
C81 C80 1.393 1_555 1_555
H56 C81 0.950 1_555 1_555
C82 C81 1.390 1_555 1_555
H57 C82 0.950 1_555 1_555
C83 C82 1.366 1_555 1_555
H58 C83 0.950 1_555 1_555
C84 C79 1.418 1_555 1_555
C85 C84 1.441 1_555 1_555
C86 C85 1.401 1_555 1_555
H59 C86 0.950 1_555 1_555
C87 C86 1.353 1_555 1_555
C88 C87 1.516 1_555 1_555
H60 C88 0.989 1_555 1_555
H61 C88 0.989 1_555 1_555
C89 C88 1.507 1_555 1_555
C90 C89 1.397 1_555 1_555
H62 C90 0.949 1_555 1_555
C91 C90 1.407 1_555 1_555
H63 C91 0.950 1_555 1_555
C92 C91 1.368 1_555 1_555
H64 C92 0.951 1_555 1_555
C93 C92 1.386 1_555 1_555
H65 C93 0.951 1_555 1_555
C94 C89 1.421 1_555 1_555
C95 C94 1.504 1_555 1_555
H66 C95 0.990 1_555 1_555
H67 C95 0.990 1_555 1_555
C96 C87 1.394 1_555 1_555
C97 C96 1.402 1_555 1_555
H68 C97 0.949 1_555 1_555
C98 C85 1.448 1_555 1_555
C99 C98 1.450 1_555 1_555
C100 C99 1.431 1_555 1_555
H69 C100 0.949 1_555 1_555
C101 C100 1.371 1_555 1_555
H70 C101 0.950 1_555 1_555
C102 C101 1.390 1_555 1_555
H71 C102 0.951 1_555 1_555
C103 C102 1.382 1_555 1_555
H72 C103 0.950 1_555 1_555
C104 C79 1.462 1_555 1_555
C5 C6 1.395 1_555 1_555
C15 C16 1.393 1_555 1_555
C17 C18 1.499 1_555 1_555
C19 C20 1.407 1_555 1_555
C21 C26 1.396 1_555 1_555
C25 C26 1.399 1_555 1_555
C31 C32 1.421 1_555 1_555
C41 C42 1.392 1_555 1_555
C43 C44 1.495 1_555 1_555
C45 C46 1.398 1_555 1_555
C47 C52 1.391 1_555 1_555
C51 C52 1.413 1_555 1_555
C57 C58 1.416 1_555 1_555
C67 C68 1.400 1_555 1_555
C69 C70 1.508 1_555 1_555
C71 C72 1.388 1_555 1_555
C73 C78 1.390 1_555 1_555
C77 C78 1.401 1_555 1_555
C83 C84 1.418 1_555 1_555
C93 C94 1.377 1_555 1_555
C95 C96 1.481 1_555 1_555
C97 C98 1.392 1_555 1_555
C99 C104 1.420 1_555 1_555
C103 C104 1.415 1_555 1_555
#END
