
#######################################################################
#
#                 Cambridge Crystallographic Data Centre
#                                CCDC
#
#######################################################################
#
# If this CIF has been generated from an entry in the Cambridge
# Structural Database, then it will include bibliographic, chemical,
# crystal, experimental, refinement or atomic coordinate data resulting
# from the CCDC's data processing and validation procedures.
#
#######################################################################

data_CSD_CIF_ISILON
_audit_creation_date 2016-08-15
_audit_creation_method CSD-ConQuest-V1
_database_code_CSD ISILON
_database_code_depnum_ccdc_archive 'CCDC 1499227'
_chemical_formula_sum 'C35 H22'
_chemical_formula_moiety
;
C35 H22
;
_journal_coden_Cambridge 1336
_journal_volume 18
_journal_year 2016
_journal_page_first 3654
_journal_name_full 'Org.Lett. '
loop_
_publ_author_name
"H.Oyama"
"M.Akiyama"
"Koji Nakano"
"M.Naito"
"K.Nobusawa"
"K.Nozaki"
_chemical_name_systematic
;
9-phenyl-9H-naphtho[2',1':6,7]indeno[2,1-c]phenanthrene
;
_cell_volume   4583.131
_exptl_crystal_colour 'colorless'
_exptl_crystal_density_diffrn 1.283
_exptl_crystal_description 'Platelet'
_diffrn_ambient_temperature 93
#These two values have been output from a single CSD field.
_refine_ls_R_factor_gt 0.0817
_refine_ls_wR_factor_gt 0.0817
_symmetry_cell_setting monoclinic
_symmetry_space_group_name_H-M 'P 21/c'
_symmetry_Int_Tables_number 14
loop_
_symmetry_equiv_pos_site_id
_symmetry_equiv_pos_as_xyz
1 x,y,z
2 -x,1/2+y,1/2-z
3 -x,-y,-z
4 x,-1/2-y,-1/2+z
_cell_length_a 12.558(4)
_cell_length_b 14.180(4)
_cell_length_c 26.385(8)
_cell_angle_alpha 90
_cell_angle_beta 102.720(5)
_cell_angle_gamma 90
_cell_formula_units_Z 8
loop_
_atom_type_symbol
_atom_type_radius_bond
C 0.68
H 0.23
loop_
_atom_site_label
_atom_site_type_symbol
_atom_site_fract_x
_atom_site_fract_y
_atom_site_fract_z
C1 C 0.65711(16) 0.68182(14) 0.19681(7)
H1 H 0.72130 0.64710 0.18940
C2 C 0.67997(15) 0.85794(14) 0.30378(7)
C3 C 0.60573(15) 0.62295(14) 0.32738(8)
C4 C 0.62158(15) 0.88303(14) 0.34403(7)
C5 C 0.56207(17) 0.53864(15) 0.22693(8)
H2 H 0.55400 0.50850 0.19420
C6 C 0.78590(17) 0.91913(15) 0.24247(8)
H3 H 0.83330 0.96560 0.23370
C7 C 0.62578(15) 0.67441(14) 0.28368(7)
C8 C 0.54645(16) 0.53650(14) 0.31662(8)
C9 C 0.61109(16) 0.62699(14) 0.23578(7)
C10 C 0.64507(16) 0.64772(14) 0.38221(8)
C11 C 0.52577(17) 0.49620(15) 0.26669(8)
H4 H 0.48610 0.43880 0.26040
C12 C 0.60304(17) 0.59925(15) 0.42075(8)
C13 C 0.74760(16) 0.92834(14) 0.28866(8)
C14 C 0.53004(16) 0.83207(14) 0.35168(7)
H5 H 0.50550 0.77900 0.33030
C15 C 0.66828(15) 0.77101(14) 0.27536(7)
C16 C 0.69654(16) 0.77047(14) 0.22692(8)
C17 C 0.75497(17) 0.84332(15) 0.21010(8)
H6 H 0.77300 0.84060 0.17700
C18 C 0.72813(16) 0.71424(15) 0.39919(8)
H7 H 0.76340 0.74210 0.37460
C19 C 0.50816(18) 0.48873(15) 0.35703(9)
H8 H 0.46540 0.43330 0.34890
C20 C 0.65027(16) 0.96672(14) 0.37333(7)
C21 C 0.77444(17) 1.01173(15) 0.31950(8)
H9 H 0.82370 1.05620 0.31050
C22 C 0.47525(16) 0.85738(14) 0.38947(8)
H10 H 0.41490 0.82100 0.39450
C23 C 0.57627(17) 0.70191(14) 0.14559(8)
C24 C 0.75973(17) 0.74013(16) 0.45063(8)
H11 H 0.81390 0.78740 0.46080
C25 C 0.47303(18) 0.73732(15) 0.14550(8)
H12 H 0.45240 0.74760 0.17760
C26 C 0.73121(17) 1.02823(15) 0.36110(8)
H13 H 0.75480 1.08140 0.38250
C27 C 0.50884(17) 0.93690(16) 0.42048(8)
H14 H 0.47310 0.95310 0.44750
C28 C 0.59324(17) 0.99106(15) 0.41177(8)
H15 H 0.61370 1.04620 0.43210
C29 C 0.53145(19) 0.52065(16) 0.40630(9)
H16 H 0.50000 0.49070 0.43170
C30 C 0.3995(2) 0.75800(16) 0.09935(9)
H17 H 0.32950 0.78260 0.10000
C31 C 0.71235(19) 0.69706(17) 0.48793(8)
H18 H 0.73230 0.71640 0.52320
C32 C 0.63687(19) 0.62677(17) 0.47324(8)
H19 H 0.60680 0.59600 0.49890
C33 C 0.4283(2) 0.74279(16) 0.05239(8)
H20 H 0.37860 0.75750 0.02070
C34 C 0.5300(2) 0.70598(17) 0.05193(9)
H21 H 0.54960 0.69430 0.01970
C35 C 0.60395(19) 0.68586(16) 0.09830(8)
H22 H 0.67380 0.66100 0.09750
C36 C 0.95967(16) 0.63681(14) 0.18727(8)
C37 C 0.88373(16) 0.54135(14) 0.26316(7)
C38 C 0.82861(15) 0.39939(14) 0.21994(7)
C39 C 0.87328(15) 0.49699(14) 0.21468(7)
C40 C 0.90082(15) 0.55122(14) 0.17330(7)
C41 C 0.96745(16) 0.34061(14) 0.14283(8)
H23 H 0.99720 0.38850 0.16700
C42 C 0.79632(16) 0.39689(15) 0.26738(7)
C43 C 0.83171(17) 0.48457(15) 0.29910(8)
H24 H 0.76510 0.51860 0.30420
C44 C 0.81635(15) 0.31402(14) 0.18976(7)
C45 C 0.78449(16) 0.46673(15) 0.09691(8)
H25 H 0.74160 0.44030 0.11880
C46 C 0.97503(17) 0.67401(15) 0.23774(8)
H26 H 1.01480 0.73100 0.24620
C47 C 0.74681(16) 0.24266(15) 0.20328(8)
C48 C 0.90323(17) 0.46204(15) 0.35209(8)
C49 C 0.93308(17) 0.62872(15) 0.27493(8)
H27 H 0.93770 0.65650 0.30810
C50 C 0.71668(18) 0.16296(15) 0.16959(9)
H28 H 0.66760 0.11750 0.17780
C51 C 0.87333(16) 0.29160(14) 0.14902(8)
C52 C 0.70792(17) 0.24854(16) 0.24900(8)
H29 H 0.66090 0.20090 0.25690
C53 C 0.92274(17) 0.57667(15) 0.08291(8)
C54 C 1.00614(17) 0.68620(15) 0.14991(9)
H30 H 1.04680 0.74220 0.16000
C55 C 1.01679(18) 0.32048(16) 0.10263(8)
H31 H 1.07930 0.35520 0.09880
C56 C 0.76207(17) 0.44292(16) 0.04504(8)
H32 H 0.70460 0.40000 0.03170
C57 C 0.86959(16) 0.52943(14) 0.11813(7)
C58 C 0.73755(17) 0.32277(15) 0.28242(8)
H33 H 0.71830 0.32360 0.31530
C59 C 0.83858(18) 0.21325(15) 0.11603(8)
C60 C 0.82348(19) 0.48160(18) 0.01189(9)
H34 H 0.81180 0.46140 -0.02320
C61 C 1.01487(18) 0.44629(16) 0.35878(8)
H35 H 1.04800 0.45230 0.32990
C62 C 0.75643(19) 0.15123(16) 0.12656(9)
H36 H 0.72970 0.10150 0.10310
C63 C 0.99318(18) 0.65466(16) 0.10066(9)
H37 H 1.03110 0.68450 0.07760
C64 C 0.90061(18) 0.54884(17) 0.03054(8)
H38 H 0.93990 0.57720 0.00760
C65 C 0.8897(2) 0.19527(18) 0.07467(9)
H39 H 0.86410 0.14480 0.05150
C66 C 1.0782(2) 0.42213(16) 0.40669(9)
H40 H 1.15420 0.41130 0.41050
C67 C 0.8565(2) 0.45402(17) 0.39486(9)
H41 H 0.78060 0.46520 0.39130
C68 C 0.9753(2) 0.24877(18) 0.06709(9)
H42 H 1.00660 0.23750 0.03800
C69 C 1.0315(2) 0.41365(17) 0.44902(9)
H43 H 1.07500 0.39710 0.48200
C70 C 0.9211(2) 0.42940(19) 0.44318(9)
H44 H 0.88870 0.42350 0.47230
loop_
_geom_bond_atom_site_label_1
_geom_bond_atom_site_label_2
_geom_bond_distance
_geom_bond_site_symmetry_1
_geom_bond_site_symmetry_2
C1 H1 1.000 1_555 1_555
C2 C4 1.461 1_555 1_555
C3 C7 1.433 1_555 1_555
C4 C14 1.409 1_555 1_555
C5 H2 0.949 1_555 1_555
C6 H3 0.950 1_555 1_555
C7 C9 1.407 1_555 1_555
C8 C3 1.430 1_555 1_555
C9 C1 1.502 1_555 1_555
C10 C3 1.465 1_555 1_555
C11 C5 1.372 1_555 1_555
H4 C11 0.950 1_555 1_555
C12 C10 1.422 1_555 1_555
C13 C2 1.423 1_555 1_555
C14 H5 0.950 1_555 1_555
C15 C2 1.433 1_555 1_555
C16 C1 1.511 1_555 1_555
C17 C6 1.375 1_555 1_555
H6 C17 0.950 1_555 1_555
C18 C10 1.405 1_555 1_555
H7 C18 0.949 1_555 1_555
C19 C8 1.433 1_555 1_555
H8 C19 0.949 1_555 1_555
C20 C4 1.419 1_555 1_555
C21 C13 1.433 1_555 1_555
H9 C21 0.949 1_555 1_555
C22 C14 1.378 1_555 1_555
H10 C22 0.950 1_555 1_555
C23 C1 1.528 1_555 1_555
C24 C18 1.377 1_555 1_555
H11 C24 0.951 1_555 1_555
C25 C23 1.390 1_555 1_555
H12 C25 0.950 1_555 1_555
C26 C20 1.429 1_555 1_555
H13 C26 0.949 1_555 1_555
C27 C22 1.402 1_555 1_555
H14 C27 0.950 1_555 1_555
C28 C20 1.407 1_555 1_555
H15 C28 0.951 1_555 1_555
C29 C12 1.430 1_555 1_555
H16 C29 0.950 1_555 1_555
C30 C25 1.388 1_555 1_555
H17 C30 0.949 1_555 1_555
C31 C24 1.398 1_555 1_555
H18 C31 0.949 1_555 1_555
C32 C12 1.411 1_555 1_555
H19 C32 0.951 1_555 1_555
C33 C30 1.382 1_555 1_555
H20 C33 0.950 1_555 1_555
C34 C33 1.382 1_555 1_555
H21 C34 0.950 1_555 1_555
C35 C23 1.386 1_555 1_555
H22 C35 0.950 1_555 1_555
C36 C40 1.427 1_555 1_555
C37 C39 1.405 1_555 1_555
C38 C39 1.511 1_555 1_555
C39 C40 1.438 1_555 1_555
C40 C57 1.455 1_555 1_555
C41 H23 0.950 1_555 1_555
C42 C38 1.399 1_555 1_555
C43 C37 1.499 1_555 1_555
H24 C43 1.000 1_555 1_555
C44 C38 1.438 1_555 1_555
C45 H25 0.949 1_555 1_555
C46 C36 1.406 1_555 1_555
H26 C46 0.950 1_555 1_555
C47 C44 1.432 1_555 1_555
C48 C43 1.520 1_555 1_555
C49 C37 1.389 1_555 1_555
H27 C49 0.950 1_555 1_555
C50 C47 1.436 1_555 1_555
H28 C50 0.949 1_555 1_555
C51 C41 1.411 1_555 1_555
C52 C47 1.400 1_555 1_555
H29 C52 0.950 1_555 1_555
C53 C57 1.425 1_555 1_555
C54 C36 1.434 1_555 1_555
H30 C54 0.950 1_555 1_555
C55 C41 1.371 1_555 1_555
H31 C55 0.951 1_555 1_555
C56 C45 1.377 1_555 1_555
H32 C56 0.950 1_555 1_555
C57 C45 1.408 1_555 1_555
C58 C42 1.391 1_555 1_555
H33 C58 0.951 1_555 1_555
C59 C51 1.420 1_555 1_555
C60 C56 1.399 1_555 1_555
H34 C60 0.949 1_555 1_555
C61 C48 1.392 1_555 1_555
H35 C61 0.949 1_555 1_555
C62 C50 1.347 1_555 1_555
H36 C62 0.950 1_555 1_555
C63 C53 1.429 1_555 1_555
H37 C63 0.951 1_555 1_555
C64 C53 1.405 1_555 1_555
H38 C64 0.950 1_555 1_555
C65 C59 1.406 1_555 1_555
H39 C65 0.950 1_555 1_555
C66 C61 1.380 1_555 1_555
H40 C66 0.950 1_555 1_555
C67 C48 1.387 1_555 1_555
H41 C67 0.950 1_555 1_555
C68 C55 1.403 1_555 1_555
H42 C68 0.950 1_555 1_555
C69 C66 1.376 1_555 1_555
H43 C69 0.949 1_555 1_555
C70 C67 1.396 1_555 1_555
H44 C70 0.949 1_555 1_555
C5 C9 1.393 1_555 1_555
C6 C13 1.411 1_555 1_555
C7 C15 1.504 1_555 1_555
C8 C11 1.407 1_555 1_555
C15 C16 1.400 1_555 1_555
C16 C17 1.395 1_555 1_555
C19 C29 1.346 1_555 1_555
C21 C26 1.348 1_555 1_555
C27 C28 1.369 1_555 1_555
C31 C32 1.371 1_555 1_555
C34 C35 1.393 1_555 1_555
C42 C43 1.510 1_555 1_555
C44 C51 1.452 1_555 1_555
C46 C49 1.371 1_555 1_555
C52 C58 1.371 1_555 1_555
C54 C63 1.350 1_555 1_555
C59 C62 1.429 1_555 1_555
C60 C64 1.371 1_555 1_555
C65 C68 1.366 1_555 1_555
C69 C70 1.379 1_555 1_555
#END
