
#######################################################################
#
#                 Cambridge Crystallographic Data Centre
#                                CCDC
#
#######################################################################
#
# If this CIF has been generated from an entry in the Cambridge
# Structural Database, then it will include bibliographic, chemical,
# crystal, experimental, refinement or atomic coordinate data resulting
# from the CCDC's data processing and validation procedures.
#
#######################################################################

data_CSD_CIF_ISIMAA
_audit_creation_date 2016-08-15
_audit_creation_method CSD-ConQuest-V1
_database_code_CSD ISIMAA
_database_code_depnum_ccdc_archive 'CCDC 1499229'
_chemical_formula_sum 'C41 H26'
_chemical_formula_moiety
;
C41 H26
;
_journal_coden_Cambridge 1336
_journal_volume 18
_journal_year 2016
_journal_page_first 3654
_journal_name_full 'Org.Lett. '
loop_
_publ_author_name
"H.Oyama"
"M.Akiyama"
"Koji Nakano"
"M.Naito"
"K.Nobusawa"
"K.Nozaki"
_chemical_name_systematic
;
9,9-diphenyl-9H-naphtho[2',1':6,7]indeno[2,1-c]phenanthrene
;
_cell_volume   2713.597
_exptl_crystal_colour 'colorless'
_exptl_crystal_density_diffrn 1.269
_exptl_crystal_description 'block'
_diffrn_ambient_temperature 296
#These two values have been output from a single CSD field.
_refine_ls_R_factor_gt 0.0758
_refine_ls_wR_factor_gt 0.0758
_symmetry_cell_setting orthorhombic
_symmetry_space_group_name_H-M 'P 21 21 21'
_symmetry_Int_Tables_number 19
loop_
_symmetry_equiv_pos_site_id
_symmetry_equiv_pos_as_xyz
1 x,y,z
2 1/2-x,-y,1/2+z
3 1/2+x,1/2-y,-z
4 -x,1/2+y,1/2-z
_cell_length_a 9.8499(2)
_cell_length_b 11.1882(2)
_cell_length_c 24.6237(4)
_cell_angle_alpha 90
_cell_angle_beta 90
_cell_angle_gamma 90
_cell_formula_units_Z 4
loop_
_atom_type_symbol
_atom_type_radius_bond
C 0.68
H 0.23
loop_
_atom_site_label
_atom_site_type_symbol
_atom_site_fract_x
_atom_site_fract_y
_atom_site_fract_z
C1 C 0.7236(5) 0.0559(5) 0.29664(18)
C2 C 0.6553(5) -0.0829(5) 0.1602(2)
C3 C 0.8687(5) -0.0014(4) 0.17706(19)
C4 C 0.6687(5) 0.0456(5) 0.3500(2)
C5 C 0.9998(5) 0.0259(5) 0.1986(2)
C6 C 1.0958(5) 0.0794(5) 0.1634(2)
C7 C 0.8454(5) 0.2339(5) 0.3272(2)
H1 H 0.90330 0.29720 0.31940
C8 C 0.6790(5) -0.0263(4) 0.25500(19)
C9 C 1.0461(4) -0.0053(5) 0.2530(2)
C10 C 1.2464(5) 0.1206(5) 0.2392(2)
H2 H 1.32010 0.16170 0.25360
C11 C 1.1659(5) 0.0483(5) 0.2735(2)
C12 C 0.7357(5) -0.0355(5) 0.20154(19)
C13 C 1.2176(5) 0.1307(5) 0.1857(2)
H3 H 1.27720 0.17140 0.16300
C14 C 0.5622(5) -0.0972(5) 0.2658(2)
C15 C 0.7189(5) -0.0625(5) 0.1038(2)
C16 C 0.5326(5) -0.1417(5) 0.1710(2)
H4 H 0.47960 -0.17150 0.14280
C17 C 1.0309(5) -0.1250(5) 0.3350(2)
H5 H 0.98890 -0.18500 0.35510
C18 C 0.8106(5) 0.1538(5) 0.2868(2)
H6 H 0.84550 0.16480 0.25210
C19 C 0.8535(5) -0.0037(4) 0.1201(2)
C20 C 0.5355(6) 0.1021(5) 0.0914(2)
H7 H 0.51620 0.09800 0.12840
C21 C 0.4928(5) -0.1541(5) 0.2235(2)
H8 H 0.41780 -0.20140 0.23150
C22 C 0.9840(5) -0.0962(5) 0.2847(2)
H9 H 0.90950 -0.13700 0.27070
C23 C 0.5659(5) -0.0410(5) 0.3611(2)
H10 H 0.53530 -0.05220 0.39640
C24 C 1.0703(6) 0.0867(5) 0.1071(2)
H11 H 1.13280 0.12370 0.08430
C25 C 0.5134(5) -0.1061(5) 0.3204(2)
H12 H 0.44290 -0.15890 0.32790
C26 C 1.2086(5) 0.0212(5) 0.3264(2)
H13 H 1.28240 0.06150 0.34130
C27 C 0.7945(5) 0.2205(6) 0.3793(2)
H14 H 0.82020 0.27330 0.40660
C28 C 0.7069(6) 0.1298(6) 0.3905(2)
H15 H 0.67130 0.12270 0.42530
C29 C 1.1427(6) -0.0640(6) 0.3564(2)
H16 H 1.17260 -0.08140 0.39140
C30 C 0.6361(5) 0.0282(5) 0.0701(2)
C31 C 0.8581(5) -0.2414(5) 0.0759(2)
H17 H 0.93130 -0.21000 0.09500
C32 C 0.6626(6) 0.0390(5) 0.0150(2)
H18 H 0.72940 -0.00890 -0.00050
C33 C 0.9539(5) 0.0394(5) 0.0862(2)
H19 H 0.94210 0.03620 0.04870
C34 C 0.7371(5) -0.1783(5) 0.0746(2)
C35 C 0.6452(6) -0.3399(5) 0.0193(2)
H20 H 0.57270 -0.37250 0.00020
C36 C 0.4926(7) 0.1898(5) 0.0046(2)
H21 H 0.44480 0.24320 -0.01720
C37 C 0.8734(6) -0.3506(6) 0.0493(2)
H22 H 0.95610 -0.39070 0.05070
C38 C 0.5926(7) 0.1190(6) -0.0179(2)
H23 H 0.61290 0.12470 -0.05470
C39 C 0.4634(6) 0.1815(5) 0.0594(2)
H24 H 0.39590 0.22890 0.07460
C40 C 0.6290(6) -0.2319(5) 0.0457(2)
H25 H 0.54530 -0.19350 0.04430
C41 C 0.7656(7) -0.3993(5) 0.0209(2)
H26 H 0.77540 -0.47200 0.00300
loop_
_geom_bond_atom_site_label_1
_geom_bond_atom_site_label_2
_geom_bond_distance
_geom_bond_site_symmetry_1
_geom_bond_site_symmetry_2
C1 C4 1.426 1_555 1_555
C2 C12 1.394 1_555 1_555
C3 C5 1.429 1_555 1_555
C4 C23 1.428 1_555 1_555
C5 C6 1.416 1_555 1_555
C6 C13 1.439 1_555 1_555
C7 H1 0.929 1_555 1_555
C8 C1 1.446 1_555 1_555
C9 C5 1.457 1_555 1_555
C10 H2 0.930 1_555 1_555
C11 C9 1.417 1_555 1_555
C12 C3 1.492 1_555 1_555
C13 C10 1.352 1_555 1_555
H3 C13 0.930 1_555 1_555
C14 C8 1.423 1_555 1_555
C15 C2 1.541 1_555 1_555
C16 C2 1.401 1_555 1_555
H4 C16 0.931 1_555 1_555
C17 H5 0.931 1_555 1_555
C18 C1 1.412 1_555 1_555
H6 C18 0.929 1_555 1_555
C19 C3 1.411 1_555 1_555
C20 H7 0.932 1_555 1_555
C21 C14 1.399 1_555 1_555
H8 C21 0.930 1_555 1_555
C22 C9 1.420 1_555 1_555
H9 C22 0.930 1_555 1_555
C23 H10 0.928 1_555 1_555
C24 C6 1.411 1_555 1_555
H11 C24 0.930 1_555 1_555
C25 C14 1.431 1_555 1_555
H12 C25 0.930 1_555 1_555
C26 C11 1.402 1_555 1_555
H13 C26 0.931 1_555 1_555
C27 C7 1.386 1_555 1_555
H14 C27 0.930 1_555 1_555
C28 C4 1.423 1_555 1_555
H15 C28 0.929 1_555 1_555
C29 C17 1.399 1_555 1_555
H16 C29 0.931 1_555 1_555
C30 C15 1.544 1_555 1_555
C31 H17 0.930 1_555 1_555
C32 C30 1.387 1_555 1_555
H18 C32 0.930 1_555 1_555
C33 C19 1.381 1_555 1_555
H19 C33 0.931 1_555 1_555
C34 C15 1.493 1_555 1_555
C35 H20 0.930 1_555 1_555
C36 H21 0.931 1_555 1_555
C37 C31 1.394 1_555 1_555
H22 C37 0.931 1_555 1_555
C38 C32 1.390 1_555 1_555
H23 C38 0.930 1_555 1_555
C39 C20 1.384 1_555 1_555
H24 C39 0.929 1_555 1_555
C40 C34 1.414 1_555 1_555
H25 C40 0.930 1_555 1_555
C41 C35 1.360 1_555 1_555
H26 C41 0.930 1_555 1_555
C7 C18 1.382 1_555 1_555
C8 C12 1.434 1_555 1_555
C10 C11 1.413 1_555 1_555
C15 C19 1.533 1_555 1_555
C16 C21 1.358 1_555 1_555
C17 C22 1.361 1_555 1_555
C20 C30 1.393 1_555 1_555
C23 C25 1.342 1_555 1_555
C24 C33 1.364 1_555 1_555
C26 C29 1.370 1_555 1_555
C27 C28 1.360 1_555 1_555
C31 C34 1.386 1_555 1_555
C35 C40 1.381 1_555 1_555
C36 C38 1.380 1_555 1_555
C36 C39 1.383 1_555 1_555
C37 C41 1.383 1_555 1_555
#END
