
#######################################################################
#
#                 Cambridge Crystallographic Data Centre
#                                CCDC
#
#######################################################################
#
# If this CIF has been generated from an entry in the Cambridge
# Structural Database, then it will include bibliographic, chemical,
# crystal, experimental, refinement or atomic coordinate data resulting
# from the CCDC's data processing and validation procedures.
#
#######################################################################

data_CSD_CIF_IYIDUP
_audit_creation_date 2004-10-12
_audit_creation_method CSD-ConQuest-V1
_database_code_CSD IYIDUP
_database_code_depnum_ccdc_archive 'CCDC 215142'
_chemical_formula_sum 'C28 H22'
_chemical_formula_moiety
;
C28 H22
;
_journal_coden_Cambridge 16
_journal_volume 60
_journal_year 2004
_journal_page_first 4451
_journal_name_full 'Tetrahedron '
loop_
_publ_author_name
"S.Grilli"
"L.Lunazzi"
"A.Mazzanti"
"M.Pinamonti"
_chemical_name_systematic
;
anti-1,2-bis(2-Methyl-1-naphthyl)benzene
;
_chemical_melting_point 435.15
_cell_volume   1004.555
_exptl_crystal_colour 'colorless'
_exptl_crystal_density_diffrn 1.185
_exptl_special_details
;
Melting point range 435.15-436.15K

;
_exptl_crystal_description 'prismatic'
_exptl_crystal_preparation 'absolute ethanol'
_diffrn_ambient_temperature 293
#These two values have been output from a single CSD field.
_refine_ls_R_factor_gt 0.0532
_refine_ls_wR_factor_gt 0.0532
_symmetry_cell_setting triclinic
_symmetry_space_group_name_H-M 'P -1'
_symmetry_Int_Tables_number 2
loop_
_symmetry_equiv_pos_site_id
_symmetry_equiv_pos_as_xyz
1 x,y,z
2 -x,-y,-z
_cell_length_a 8.9569(3)
_cell_length_b 9.3302(3)
_cell_length_c 12.3044(4)
_cell_angle_alpha 90.945(1)
_cell_angle_beta 97.904(1)
_cell_angle_gamma 99.224(1)
_cell_formula_units_Z 2
loop_
_atom_type_symbol
_atom_type_radius_bond
C 0.68
H 0.23
loop_
_atom_site_label
_atom_site_type_symbol
_atom_site_fract_x
_atom_site_fract_y
_atom_site_fract_z
C1 C 0.10168(11) 0.78806(11) 0.70677(9)
C2 C 0.17127(12) 0.67205(13) 0.75673(9)
C3 C 0.09214(15) 0.52819(13) 0.75898(10)
H1 H -0.01000 0.50680 0.72800
C4 C 0.1629(2) 0.41968(17) 0.80589(12)
H2 H 0.10800 0.32630 0.80680
C5 C 0.3160(2) 0.4479(2) 0.85209(14)
H3 H 0.36380 0.37330 0.88200
C6 C 0.39483(18) 0.5842(2) 0.85324(14)
H4 H 0.49680 0.60220 0.88490
C7 C 0.32612(13) 0.70100(17) 0.80738(11)
C8 C 0.40693(14) 0.84346(19) 0.80898(13)
H5 H 0.50750 0.86390 0.84340
C9 C 0.34020(15) 0.95093(17) 0.76111(13)
H6 H 0.39620 1.04420 0.76340
C10 C 0.18672(13) 0.92549(13) 0.70735(10)
C11 C 0.12685(17) 1.04863(14) 0.64978(14)
H7 H 0.05420 1.01140 0.58700
H8 H 0.20990 1.11340 0.62640
H9 H 0.07790 1.10030 0.69900
C12 C -0.18654(11) 0.89684(12) 0.77382(9)
C13 C -0.22613(12) 1.03875(13) 0.75436(10)
C14 C -0.25213(15) 1.09450(15) 0.64840(13)
H10 H -0.24270 1.03780 0.58760
C15 C -0.29070(18) 1.22945(17) 0.63305(17)
H11 H -0.30600 1.26340 0.56240
C16 C -0.3074(2) 1.31715(18) 0.7227(2)
H12 H -0.33510 1.40830 0.71160
C17 C -0.28312(18) 1.26833(18) 0.82543(18)
H13 H -0.29360 1.32740 0.88460
C18 C -0.24176(13) 1.12872(14) 0.84560(12)
C19 C -0.21891(15) 1.07552(18) 0.95200(13)
H14 H -0.22870 1.13340 1.01210
C20 C -0.18276(14) 0.94086(17) 0.96803(11)
H15 H -0.16820 0.90840 1.03920
C21 C -0.16657(12) 0.84829(14) 0.87937(9)
C22 C -0.13525(16) 0.69824(16) 0.90412(11)
H16 H -0.16830 0.63570 0.83970
H17 H -0.18980 0.66140 0.96240
H18 H -0.02760 0.70150 0.92610
C23 C -0.05703(11) 0.75142(10) 0.64522(8)
C24 C -0.18704(11) 0.79831(11) 0.67644(8)
C25 C -0.32917(13) 0.75043(13) 0.61273(10)
H19 H -0.41580 0.78060 0.63310
C26 C -0.34415(14) 0.65999(13) 0.52092(10)
H20 H -0.43990 0.62930 0.48040
C27 C -0.21684(15) 0.61516(13) 0.48927(10)
H21 H -0.22600 0.55430 0.42730
C28 C -0.07575(14) 0.66121(12) 0.55015(9)
H22 H 0.00980 0.63160 0.52760
loop_
_geom_bond_atom_site_label_1
_geom_bond_atom_site_label_2
_geom_bond_distance
_geom_bond_site_symmetry_1
_geom_bond_site_symmetry_2
C1 C2 1.439 1_555 1_555
C2 C3 1.416 1_555 1_555
C3 H1 0.930 1_555 1_555
C4 C3 1.373 1_555 1_555
H2 C4 0.930 1_555 1_555
C5 C4 1.392 1_555 1_555
H3 C5 0.929 1_555 1_555
C6 C5 1.351 1_555 1_555
H4 C6 0.930 1_555 1_555
C7 C2 1.422 1_555 1_555
C8 C7 1.406 1_555 1_555
H5 C8 0.930 1_555 1_555
C9 C8 1.351 1_555 1_555
H6 C9 0.930 1_555 1_555
C10 C1 1.382 1_555 1_555
C11 C10 1.493 1_555 1_555
H7 C11 0.960 1_555 1_555
H8 C11 0.960 1_555 1_555
H9 C11 0.961 1_555 1_555
C12 C13 1.440 1_555 1_555
C13 C14 1.415 1_555 1_555
C14 H10 0.930 1_555 1_555
C15 C14 1.367 1_555 1_555
H11 C15 0.930 1_555 1_555
C16 C15 1.401 1_555 1_555
H12 C16 0.930 1_555 1_555
C17 C16 1.352 1_555 1_555
H13 C17 0.930 1_555 1_555
C18 C13 1.426 1_555 1_555
C19 C18 1.408 1_555 1_555
H14 C19 0.931 1_555 1_555
C20 C19 1.358 1_555 1_555
H15 C20 0.930 1_555 1_555
C21 C12 1.380 1_555 1_555
C22 C21 1.499 1_555 1_555
H16 C22 0.960 1_555 1_555
H17 C22 0.960 1_555 1_555
H18 C22 0.960 1_555 1_555
C23 C1 1.500 1_555 1_555
C24 C12 1.497 1_555 1_555
C25 C24 1.402 1_555 1_555
H19 C25 0.930 1_555 1_555
C26 C25 1.377 1_555 1_555
H20 C26 0.930 1_555 1_555
C27 C26 1.377 1_555 1_555
H21 C27 0.930 1_555 1_555
C28 C23 1.405 1_555 1_555
H22 C28 0.930 1_555 1_555
C6 C7 1.423 1_555 1_555
C9 C10 1.423 1_555 1_555
C17 C18 1.427 1_555 1_555
C20 C21 1.418 1_555 1_555
C23 C24 1.406 1_555 1_555
C27 C28 1.378 1_555 1_555
#END
