
#######################################################################
#
#                 Cambridge Crystallographic Data Centre
#                                CCDC
#
#######################################################################
#
# If this CIF has been generated from an entry in the Cambridge
# Structural Database, then it will include bibliographic, chemical,
# crystal, experimental, refinement or atomic coordinate data resulting
# from the CCDC's data processing and validation procedures.
#
#######################################################################

data_CSD_CIF_IZUCEL
_audit_creation_date 2004-11-03
_audit_creation_method CSD-ConQuest-V1
_database_code_CSD IZUCEL
_database_code_depnum_ccdc_archive 'CCDC 243211'
_chemical_formula_sum 'C36 H20'
_chemical_formula_moiety
;
C36 H20
;
_journal_coden_Cambridge 579
_journal_volume 23
_journal_year 2004
_journal_page_first 3079
_journal_name_full 'Organometallics '
loop_
_publ_author_name
"T.V.V.Ramakrishna"
"P.R.Sharp"
_chemical_name_systematic
;
Dinaphtho(1,2,3,4-def:1',2',3',4'-pqr)tetraphenylene
;
_cell_volume   4410.244
_exptl_crystal_colour 'colorless'
_exptl_crystal_density_diffrn 1.363
_exptl_crystal_description 'prism'
_diffrn_ambient_temperature 173
#These two values have been output from a single CSD field.
_refine_ls_R_factor_gt 0.1805
_refine_ls_wR_factor_gt 0.1805
_symmetry_cell_setting monoclinic
_symmetry_space_group_name_H-M 'P 21/n'
_symmetry_Int_Tables_number 14
loop_
_symmetry_equiv_pos_site_id
_symmetry_equiv_pos_as_xyz
1 x,y,z
2 1/2+x,1/2-y,1/2+z
3 -x,-y,-z
4 -1/2-x,-1/2+y,-1/2-z
_cell_length_a 22.512(5)
_cell_length_b 7.7037(18)
_cell_length_c 25.655(6)
_cell_angle_alpha 90
_cell_angle_beta 97.591(4)
_cell_angle_gamma 90
_cell_formula_units_Z 8
loop_
_atom_type_symbol
_atom_type_radius_bond
C 0.68
H 0.23
loop_
_atom_site_label
_atom_site_type_symbol
_atom_site_fract_x
_atom_site_fract_y
_atom_site_fract_z
C1 C 0.5760(5) 0.6364(15) -0.1697(4)
C2 C 0.5559(5) 0.7815(15) -0.2008(4)
H1 H 0.52690 0.85700 -0.18920
C3 C 0.5770(6) 0.8151(15) -0.2467(5)
H2 H 0.56760 0.92200 -0.26440
C4 C 0.6123(5) 0.6945(14) -0.2679(4)
H3 H 0.62180 0.71120 -0.30260
C5 C 0.6340(5) 0.5496(15) -0.2398(4)
C6 C 0.6642(5) 0.4042(16) -0.2635(4)
C7 C 0.6811(5) 0.4223(18) -0.3139(5)
H4 H 0.67670 0.53080 -0.33150
C8 C 0.7042(6) 0.2804(17) -0.3378(5)
H5 H 0.71570 0.29300 -0.37190
C9 C 0.7109(6) 0.1187(18) -0.3125(5)
H6 H 0.72620 0.02190 -0.32940
C10 C 0.6949(5) 0.1029(16) -0.2630(5)
H7 H 0.69840 -0.00710 -0.24610
C11 C 0.6731(5) 0.2467(17) -0.2360(5)
C12 C 0.6628(5) 0.2323(16) -0.1816(5)
C13 C 0.6761(6) 0.0853(16) -0.1513(5)
H8 H 0.68480 -0.01970 -0.16820
C14 C 0.6771(5) 0.0856(15) -0.0977(5)
H9 H 0.68230 -0.01980 -0.07840
C15 C 0.6706(5) 0.2429(16) -0.0719(5)
H10 H 0.67760 0.24800 -0.03460
C16 C 0.6536(5) 0.3930(15) -0.1010(4)
C17 C 0.6449(5) 0.3834(15) -0.1556(4)
C18 C 0.6191(5) 0.5269(15) -0.1876(4)
C19 C 0.5380(5) 0.5910(15) -0.1270(5)
C20 C 0.4798(6) 0.5417(16) -0.1450(5)
H11 H 0.47020 0.50920 -0.18090
C21 C 0.4346(5) 0.5381(15) -0.1123(5)
H12 H 0.39650 0.48860 -0.12400
C22 C 0.4474(4) 0.6102(14) -0.0613(4)
H13 H 0.41630 0.62260 -0.03990
C23 C 0.5063(5) 0.6638(14) -0.0422(4)
C24 C 0.5202(5) 0.7560(15) 0.0077(4)
C25 C 0.4740(5) 0.7967(15) 0.0384(4)
H14 H 0.43430 0.75620 0.02790
C26 C 0.4866(6) 0.8954(16) 0.0838(5)
H15 H 0.45570 0.91850 0.10460
C27 C 0.5438(5) 0.9613(16) 0.0993(5)
H16 H 0.55200 1.03130 0.12990
C28 C 0.5885(6) 0.9223(17) 0.0690(5)
H17 H 0.62750 0.96780 0.07930
C29 C 0.5788(5) 0.8187(14) 0.0238(4)
C30 C 0.6282(5) 0.7581(13) -0.0039(4)
C31 C 0.6876(5) 0.7870(15) 0.0168(5)
H18 H 0.69660 0.85870 0.04690
C32 C 0.7337(5) 0.7124(17) -0.0061(5)
H19 H 0.77420 0.74040 0.00630
C33 C 0.7200(5) 0.5945(15) -0.0480(5)
H20 H 0.75160 0.53610 -0.06190
C34 C 0.6611(5) 0.5621(16) -0.0693(5)
C35 C 0.6146(5) 0.6544(14) -0.0493(4)
C36 C 0.5529(5) 0.6384(14) -0.0728(4)
C37 C 0.8594(5) 1.1128(14) 0.0473(4)
C38 C 0.8335(6) 1.0737(15) -0.0020(5)
H21 H 0.79160 1.05100 -0.00760
C39 C 0.8663(6) 1.0652(18) -0.0460(5)
H22 H 0.84820 1.02200 -0.07900
C40 C 0.9234(5) 1.1199(14) -0.0394(4)
H23 H 0.94460 1.12670 -0.06890
C41 C 0.9521(5) 1.1668(15) 0.0100(4)
C42 C 1.0100(5) 1.2528(15) 0.0175(4)
C43 C 1.0411(6) 1.2900(16) -0.0259(5)
H24 H 1.02570 1.24650 -0.05960
C44 C 1.0928(5) 1.3870(16) -0.0206(5)
H25 H 1.11370 1.40300 -0.05000
C45 C 1.1146(5) 1.4621(15) 0.0274(4)
H26 H 1.14830 1.53720 0.03030
C46 C 1.0865(5) 1.4257(16) 0.0709(5)
H27 H 1.10240 1.47150 0.10420
C47 C 1.0343(5) 1.3212(14) 0.0667(4)
C48 C 1.0072(5) 1.2648(15) 0.1129(5)
C49 C 1.0379(5) 1.2946(14) 0.1645(4)
H28 H 1.07330 1.36320 0.16940
C50 C 1.0155(6) 1.2221(16) 0.2074(5)
H29 H 1.03300 1.25190 0.24200
C51 C 0.9680(5) 1.1072(15) 0.2005(4)
H30 H 0.95580 1.05060 0.23020
C52 C 0.9378(5) 1.0729(14) 0.1506(4)
C53 C 0.9548(5) 1.1668(15) 0.1070(4)
C54 C 0.9220(5) 1.1469(14) 0.0550(4)
C55 C 0.8163(5) 1.1600(14) 0.0859(4)
C56 C 0.7795(5) 1.3055(15) 0.0723(4)
H31 H 0.78910 1.38080 0.04540
C57 C 0.7304(6) 1.3419(16) 0.0967(5)
H32 H 0.70940 1.44830 0.09020
C58 C 0.7119(5) 1.2193(16) 0.1312(5)
H33 H 0.67510 1.23550 0.14500
C59 C 0.7468(5) 1.0735(14) 0.1455(4)
C60 C 0.7223(5) 0.9289(16) 0.1747(4)
C61 C 0.6684(6) 0.9497(17) 0.1988(5)
H34 H 0.65030 1.06100 0.19900
C62 C 0.6426(6) 0.8113(19) 0.2215(5)
H35 H 0.60580 0.82590 0.23530
C63 C 0.6716(6) 0.6459(19) 0.2240(5)
H36 H 0.65520 0.54930 0.24030
C64 C 0.7237(6) 0.6315(18) 0.2023(5)
H37 H 0.74250 0.52100 0.20320
C65 C 0.7509(5) 0.7686(15) 0.1790(4)
C66 C 0.8101(5) 0.7518(16) 0.1624(5)
C67 C 0.8457(6) 0.6020(15) 0.1714(5)
H38 H 0.82740 0.49770 0.18100
C68 C 0.9061(5) 0.6001(17) 0.1670(5)
H39 H 0.92790 0.49430 0.16990
C69 C 0.9345(5) 0.7570(16) 0.1580(4)
H40 H 0.97690 0.76100 0.15960
C70 C 0.9008(5) 0.9065(15) 0.1469(4)
C71 C 0.8385(5) 0.9024(15) 0.1444(4)
C72 C 0.8008(5) 1.0494(14) 0.1263(4)
loop_
_geom_bond_atom_site_label_1
_geom_bond_atom_site_label_2
_geom_bond_distance
_geom_bond_site_symmetry_1
_geom_bond_site_symmetry_2
C1 C2 1.413 1_555 1_555
C2 H1 0.951 1_555 1_555
C3 C2 1.352 1_555 1_555
H2 C3 0.951 1_555 1_555
C4 C3 1.380 1_555 1_555
H3 C4 0.951 1_555 1_555
C5 C4 1.383 1_555 1_555
C6 C5 1.482 1_555 1_555
C7 C6 1.402 1_555 1_555
H4 C7 0.949 1_555 1_555
C8 C7 1.388 1_555 1_555
H5 C8 0.950 1_555 1_555
C9 C8 1.404 1_555 1_555
H6 C9 0.950 1_555 1_555
C10 C9 1.370 1_555 1_555
H7 C10 0.950 1_555 1_555
C11 C6 1.405 1_555 1_555
C12 C11 1.449 1_555 1_555
C13 C12 1.384 1_555 1_555
H8 C13 0.950 1_555 1_555
C14 C13 1.372 1_555 1_555
H9 C14 0.950 1_555 1_555
C15 C14 1.398 1_555 1_555
H10 C15 0.950 1_555 1_555
C16 C15 1.402 1_555 1_555
C17 C12 1.426 1_555 1_555
C18 C1 1.408 1_555 1_555
C19 C1 1.517 1_555 1_555
C20 C19 1.384 1_555 1_555
H11 C20 0.951 1_555 1_555
C21 C20 1.402 1_555 1_555
H12 C21 0.950 1_555 1_555
C22 C21 1.416 1_555 1_555
H13 C22 0.950 1_555 1_555
C23 C22 1.413 1_555 1_555
C24 C23 1.461 1_555 1_555
C25 C24 1.420 1_555 1_555
H14 C25 0.951 1_555 1_555
C26 C25 1.388 1_555 1_555
H15 C26 0.948 1_555 1_555
C27 C26 1.392 1_555 1_555
H16 C27 0.950 1_555 1_555
C28 C27 1.383 1_555 1_555
H17 C28 0.950 1_555 1_555
C29 C24 1.414 1_555 1_555
C30 C29 1.473 1_555 1_555
C31 C30 1.390 1_555 1_555
H18 C31 0.949 1_555 1_555
C32 C31 1.383 1_555 1_555
H19 C32 0.950 1_555 1_555
C33 C32 1.410 1_555 1_555
H20 C33 0.950 1_555 1_555
C34 C16 1.533 1_555 1_555
C35 C30 1.412 1_555 1_555
C36 C19 1.434 1_555 1_555
C37 C38 1.355 1_555 1_555
C38 H21 0.951 1_555 1_555
C39 C38 1.430 1_555 1_555
H22 C39 0.950 1_555 1_555
C40 C39 1.342 1_555 1_555
H23 C40 0.948 1_555 1_555
C41 C40 1.392 1_555 1_555
C42 C41 1.452 1_555 1_555
C43 C42 1.421 1_555 1_555
H24 C43 0.949 1_555 1_555
C44 C43 1.375 1_555 1_555
H25 C44 0.948 1_555 1_555
C45 C44 1.390 1_555 1_555
H26 C45 0.949 1_555 1_555
C46 C45 1.382 1_555 1_555
H27 C46 0.950 1_555 1_555
C47 C42 1.410 1_555 1_555
C48 C47 1.469 1_555 1_555
C49 C48 1.429 1_555 1_555
H28 C49 0.951 1_555 1_555
C50 C49 1.387 1_555 1_555
H29 C50 0.951 1_555 1_555
C51 C50 1.381 1_555 1_555
H30 C51 0.949 1_555 1_555
C52 C51 1.393 1_555 1_555
C53 C48 1.392 1_555 1_555
C54 C37 1.421 1_555 1_555
C55 C37 1.519 1_555 1_555
C56 C55 1.410 1_555 1_555
H31 C56 0.948 1_555 1_555
C57 C56 1.369 1_555 1_555
H32 C57 0.950 1_555 1_555
C58 C57 1.395 1_555 1_555
H33 C58 0.951 1_555 1_555
C59 C58 1.392 1_555 1_555
C60 C59 1.488 1_555 1_555
C61 C60 1.442 1_555 1_555
H34 C61 0.950 1_555 1_555
C62 C61 1.379 1_555 1_555
H35 C62 0.950 1_555 1_555
C63 C62 1.429 1_555 1_555
H36 C63 0.952 1_555 1_555
C64 C63 1.368 1_555 1_555
H37 C64 0.950 1_555 1_555
C65 C60 1.390 1_555 1_555
C66 C65 1.457 1_555 1_555
C67 C66 1.407 1_555 1_555
H38 C67 0.950 1_555 1_555
C68 C67 1.379 1_555 1_555
H39 C68 0.949 1_555 1_555
C69 C68 1.401 1_555 1_555
H40 C69 0.950 1_555 1_555
C70 C52 1.525 1_555 1_555
C71 C66 1.430 1_555 1_555
C72 C55 1.420 1_555 1_555
C5 C18 1.434 1_555 1_555
C10 C11 1.427 1_555 1_555
C16 C17 1.390 1_555 1_555
C17 C18 1.452 1_555 1_555
C23 C36 1.405 1_555 1_555
C28 C29 1.401 1_555 1_555
C33 C34 1.388 1_555 1_555
C34 C35 1.417 1_555 1_555
C35 C36 1.445 1_555 1_555
C41 C54 1.422 1_555 1_555
C46 C47 1.417 1_555 1_555
C52 C53 1.426 1_555 1_555
C53 C54 1.445 1_555 1_555
C59 C72 1.383 1_555 1_555
C64 C65 1.394 1_555 1_555
C69 C70 1.388 1_555 1_555
C70 C71 1.396 1_555 1_555
C71 C72 1.454 1_555 1_555
#END
