
#######################################################################
#
#                 Cambridge Crystallographic Data Centre
#                                CCDC
#
#######################################################################
#
# If this CIF has been generated from an entry in the Cambridge
# Structural Database, then it will include bibliographic, chemical,
# crystal, experimental, refinement or atomic coordinate data resulting
# from the CCDC's data processing and validation procedures.
#
#######################################################################

data_CSD_CIF_IZUCIP
_audit_creation_date 2004-11-03
_audit_creation_method CSD-ConQuest-V1
_database_code_CSD IZUCIP
_database_code_depnum_ccdc_archive 'CCDC 243212'
_chemical_formula_sum 'C32 H20'
_chemical_formula_moiety
;
C32 H20
;
_journal_coden_Cambridge 579
_journal_volume 23
_journal_year 2004
_journal_page_first 3079
_journal_name_full 'Organometallics '
loop_
_publ_author_name
"T.V.V.Ramakrishna"
"P.R.Sharp"
_chemical_name_systematic
;
4,5-Diphenyl-benzo(e)pyrene
;
_cell_volume   2018.479
_exptl_crystal_colour 'pale yellow'
_exptl_crystal_density_diffrn 1.331
_exptl_crystal_description 'plate'
_diffrn_ambient_temperature 173
#These two values have been output from a single CSD field.
_refine_ls_R_factor_gt 0.0451
_refine_ls_wR_factor_gt 0.0451
_symmetry_cell_setting monoclinic
_symmetry_space_group_name_H-M 'P 21/c'
_symmetry_Int_Tables_number 14
loop_
_symmetry_equiv_pos_site_id
_symmetry_equiv_pos_as_xyz
1 x,y,z
2 x,1/2-y,1/2+z
3 -x,-y,-z
4 -x,-1/2+y,-1/2-z
_cell_length_a 15.0121(15)
_cell_length_b 9.7971(10)
_cell_length_c 13.7897(13)
_cell_angle_alpha 90
_cell_angle_beta 95.589(2)
_cell_angle_gamma 90
_cell_formula_units_Z 4
loop_
_atom_type_symbol
_atom_type_radius_bond
C 0.68
H 0.23
loop_
_atom_site_label
_atom_site_type_symbol
_atom_site_fract_x
_atom_site_fract_y
_atom_site_fract_z
C1 C 0.61809(8) 0.07799(13) 0.14121(9)
C2 C 0.57923(8) 0.17887(13) 0.07431(9)
C3 C 0.76845(8) 0.17404(14) 0.12098(10)
C4 C 0.71280(8) 0.07233(13) 0.16214(10)
C5 C 0.56311(9) -0.01693(14) 0.18545(10)
C6 C 0.63515(8) 0.27590(13) 0.03361(10)
C7 C 0.48515(8) 0.18088(14) 0.04745(10)
C8 C 0.73077(8) 0.27604(14) 0.06324(10)
C9 C 0.42766(8) 0.08519(14) 0.09395(10)
C10 C 0.86782(8) 0.16527(14) 0.1463(1)
C11 C 0.46548(9) -0.01055(14) 0.16258(10)
C12 C 0.59757(9) 0.36681(14) -0.0373(1)
H1 H 0.63480 0.43060 -0.06600
C13 C 0.45150(9) 0.27447(15) -0.02283(11)
H2 H 0.38900 0.27660 -0.04180
C14 C 0.33388(9) 0.08604(15) 0.07221(11)
H3 H 0.30750 0.15000 0.02630
C15 C 0.74959(9) -0.02869(14) 0.22596(11)
H4 H 0.81270 -0.03380 0.24030
C16 C 0.60353(10) -0.11503(15) 0.24816(11)
H5 H 0.56720 -0.17930 0.27780
C17 C 0.50682(9) 0.36441(15) -0.06578(11)
H6 H 0.48220 0.42490 -0.11520
C18 C 0.91601(9) 0.06123(15) 0.10683(11)
H7 H 0.88580 -0.00140 0.06240
C19 C 0.91412(9) 0.25625(15) 0.20997(11)
H8 H 0.88290 0.32950 0.23660
C20 C 0.69567(10) -0.12074(15) 0.26820(11)
H9 H 0.72180 -0.18850 0.31130
C21 C 0.40835(10) -0.09999(16) 0.20665(11)
H10 H 0.43330 -0.16390 0.25350
C22 C 0.31706(10) -0.09723(17) 0.18346(12)
H11 H 0.27970 -0.15930 0.21360
C23 C 1.00533(9) 0.24149(16) 0.23520(12)
H12 H 1.03580 0.30370 0.27960
C24 C 1.00755(10) 0.04738(16) 0.13126(11)
H13 H 1.03950 -0.02380 0.10320
C25 C 1.05205(9) 0.13694(16) 0.19615(11)
H14 H 1.11440 0.12680 0.21390
C26 C 0.78527(9) 0.39318(15) 0.03216(10)
C27 C 0.27995(10) -0.00343(16) 0.11588(12)
H15 H 0.21700 -0.00110 0.09980
C28 C 0.77473(10) 0.52021(15) 0.07516(12)
H16 H 0.73230 0.53100 0.12140
C29 C 0.84620(9) 0.38032(17) -0.03686(11)
H17 H 0.85330 0.29480 -0.06760
C30 C 0.82572(11) 0.63092(17) 0.05088(13)
H18 H 0.81860 0.71690 0.08100
C31 C 0.89663(10) 0.4910(2) -0.06123(13)
H19 H 0.93820 0.48110 -0.10840
C32 C 0.88670(11) 0.6161(2) -0.01705(14)
H20 H 0.92180 0.69180 -0.03350
loop_
_geom_bond_atom_site_label_1
_geom_bond_atom_site_label_2
_geom_bond_distance
_geom_bond_site_symmetry_1
_geom_bond_site_symmetry_2
C1 C2 1.436 1_555 1_555
C2 C6 1.420 1_555 1_555
C3 C4 1.451 1_555 1_555
C4 C1 1.424 1_555 1_555
C5 C1 1.420 1_555 1_555
C6 C8 1.454 1_555 1_555
C7 C2 1.425 1_555 1_555
C8 C3 1.366 1_555 1_555
C9 C7 1.464 1_555 1_555
C10 C3 1.501 1_555 1_555
C11 C5 1.470 1_555 1_555
C12 C6 1.400 1_555 1_555
H1 C12 0.950 1_555 1_555
C13 C7 1.393 1_555 1_555
H2 C13 0.949 1_555 1_555
C14 C9 1.411 1_555 1_555
H3 C14 0.949 1_555 1_555
C15 C4 1.402 1_555 1_555
H4 C15 0.950 1_555 1_555
C16 C5 1.392 1_555 1_555
H5 C16 0.951 1_555 1_555
C17 C12 1.381 1_555 1_555
H6 C17 0.950 1_555 1_555
C18 C10 1.391 1_555 1_555
H7 C18 0.950 1_555 1_555
C19 C10 1.389 1_555 1_555
H8 C19 0.950 1_555 1_555
C20 C15 1.378 1_555 1_555
H9 C20 0.950 1_555 1_555
C21 C11 1.405 1_555 1_555
H10 C21 0.950 1_555 1_555
C22 C21 1.377 1_555 1_555
H11 C22 0.950 1_555 1_555
C23 C19 1.387 1_555 1_555
H12 C23 0.949 1_555 1_555
C24 C18 1.389 1_555 1_555
H13 C24 0.950 1_555 1_555
C25 C23 1.380 1_555 1_555
H14 C25 0.949 1_555 1_555
C26 C8 1.496 1_555 1_555
C27 C14 1.372 1_555 1_555
H15 C27 0.950 1_555 1_555
C28 C26 1.394 1_555 1_555
H16 C28 0.950 1_555 1_555
C29 C26 1.389 1_555 1_555
H17 C29 0.950 1_555 1_555
C30 C28 1.387 1_555 1_555
H18 C30 0.950 1_555 1_555
C31 C29 1.383 1_555 1_555
H19 C31 0.949 1_555 1_555
C32 C30 1.380 1_555 1_555
H20 C32 0.950 1_555 1_555
C9 C11 1.412 1_555 1_555
C13 C17 1.383 1_555 1_555
C16 C20 1.385 1_555 1_555
C22 C27 1.386 1_555 1_555
C24 C25 1.379 1_555 1_555
C31 C32 1.383 1_555 1_555
#END
