
#######################################################################
#
#                 Cambridge Crystallographic Data Centre
#                                CCDC
#
#######################################################################
#
# If this CIF has been generated from an entry in the Cambridge
# Structural Database, then it will include bibliographic, chemical,
# crystal, experimental, refinement or atomic coordinate data resulting
# from the CCDC's data processing and validation procedures.
#
#######################################################################

data_CSD_CIF_JAKROC
_audit_creation_date 1989-12-21
_audit_creation_method CSD-ConQuest-V1
_database_code_CSD JAKROC
_chemical_formula_sum 'C20 H14'
_chemical_formula_moiety
;
C20 H14
;
_journal_coden_Cambridge 601
_journal_volume 8
_journal_year 1987
_journal_page_first 556
_journal_name_full 'Gaodeng Xuexiao Huaxue Xuebao(Chin.)(Chem.J.Chin.Univ.(Chinese Edition)) '
loop_
_publ_author_name
"Chen Minqin"
"Wu Guang"
"Zhuang Shanming"
"Huang Zuen"
"Qiu Wenjie"
"Wu Wenling"
_chemical_name_systematic
;
2,2'-Binaphthyl
;
_cell_volume    657.962
_exptl_crystal_density_diffrn 1.294
_diffrn_ambient_temperature ?
_diffrn_special_details
;
The study was carried out at room temperature,in the range 283-303K

;
#These two values have been output from a single CSD field.
_refine_ls_R_factor_gt 0.034
_refine_ls_wR_factor_gt 0.034
_symmetry_cell_setting monoclinic
_symmetry_space_group_name_H-M 'P 21/c'
_symmetry_Int_Tables_number 14
loop_
_symmetry_equiv_pos_site_id
_symmetry_equiv_pos_as_xyz
1 x,y,z
2 -x,1/2+y,1/2-z
3 -x,-y,-z
4 x,-1/2-y,-1/2+z
_cell_length_a 13.517(2)
_cell_length_b 5.991(1)
_cell_length_c 8.148(3)
_cell_angle_alpha 90
_cell_angle_beta 85.69(2)
_cell_angle_gamma 90
_cell_formula_units_Z 2
loop_
_atom_type_symbol
_atom_type_radius_bond
C 0.68
H 0.23
loop_
_atom_site_label
_atom_site_type_symbol
_atom_site_fract_x
_atom_site_fract_y
_atom_site_fract_z
C1 C 0.1069(2) 0.1301(4) 0.3714(3)
C2 C 0.0518(2) -0.0210(4) 0.4694(2)
C3 C 0.1007(2) -0.2221(4) 0.5096(3)
C4 C 0.1962(2) -0.2651(4) 0.4559(3)
C5 C 0.3521(2) -0.1504(5) 0.2985(3)
C6 C 0.4041(2) 0.0032(5) 0.2020(3)
C7 C 0.3582(2) 0.2037(5) 0.1596(3)
C8 C 0.2625(2) 0.2468(4) 0.2139(3)
C9 C 0.2062(2) 0.0913(4) 0.3141(2)
C10 C 0.2531(2) -0.1106(4) 0.3561(2)
H1 H 0.07500 0.26800 0.34100
H2 H 0.06400 -0.33200 0.57700
H3 H 0.22700 -0.40400 0.48700
H4 H 0.38500 -0.28800 0.32900
H5 H 0.47300 -0.02600 0.16500
H6 H 0.39600 0.31200 0.09000
H7 H 0.23100 0.38500 0.18200
C2B C -0.0518(2) 0.0210(4) 0.5306(2)
C1B C -0.1069(2) -0.1301(4) 0.6286(3)
C3B C -0.1007(2) 0.2221(4) 0.4904(3)
C9B C -0.2062(2) -0.0913(4) 0.6859(2)
H1B H -0.07500 -0.26800 0.65900
C4B C -0.1962(2) 0.2651(4) 0.5441(3)
H2B H -0.06400 0.33200 0.42300
C8B C -0.2625(2) -0.2468(4) 0.7861(3)
C10B C -0.2531(2) 0.1106(4) 0.6439(2)
H3B H -0.22700 0.40400 0.51300
C7B C -0.3582(2) -0.2037(5) 0.8404(3)
H7B H -0.23100 -0.38500 0.81800
C5B C -0.3521(2) 0.1504(5) 0.7015(3)
C6B C -0.4041(2) -0.0032(5) 0.7980(3)
H6B H -0.39600 -0.31200 0.91000
H4B H -0.38500 0.28800 0.67100
H5B H -0.47300 0.02600 0.83500
loop_
_geom_bond_atom_site_label_1
_geom_bond_atom_site_label_2
_geom_bond_distance
_geom_bond_site_symmetry_1
_geom_bond_site_symmetry_2
C1 C2 1.387 1_555 1_555
C2 C2B 1.472 1_555 1_555
C3 C2 1.424 1_555 1_555
C4 C3 1.356 1_555 1_555
C5 C6 1.370 1_555 1_555
C6 C7 1.407 1_555 1_555
C7 C8 1.360 1_555 1_555
C8 C9 1.421 1_555 1_555
C9 C1 1.407 1_555 1_555
C10 C4 1.420 1_555 1_555
H1 C1 0.973 1_555 1_555
H2 C3 0.970 1_555 1_555
H3 C4 0.973 1_555 1_555
H4 C5 0.978 1_555 1_555
H5 C6 0.973 1_555 1_555
H6 C7 0.980 1_555 1_555
H7 C8 0.975 1_555 1_555
C2B C1B 1.387 1_555 1_555
C1B C9B 1.407 1_555 1_555
C3B C2B 1.424 1_555 1_555
C9B C8B 1.421 1_555 1_555
H1B C1B 0.973 1_555 1_555
C4B C3B 1.356 1_555 1_555
H2B C3B 0.970 1_555 1_555
C8B C7B 1.360 1_555 1_555
C10B C9B 1.419 1_555 1_555
H3B C4B 0.973 1_555 1_555
C7B C6B 1.407 1_555 1_555
H7B C8B 0.975 1_555 1_555
C5B C10B 1.405 1_555 1_555
C6B C5B 1.370 1_555 1_555
H6B C7B 0.980 1_555 1_555
H4B C5B 0.978 1_555 1_555
H5B C6B 0.973 1_555 1_555
C5 C10 1.405 1_555 1_555
C9 C10 1.419 1_555 1_555
C4B C10B 1.420 1_555 1_555
#END
