
#######################################################################
#
#                 Cambridge Crystallographic Data Centre
#                                CCDC
#
#######################################################################
#
# If this CIF has been generated from an entry in the Cambridge
# Structural Database, then it will include bibliographic, chemical,
# crystal, experimental, refinement or atomic coordinate data resulting
# from the CCDC's data processing and validation procedures.
#
#######################################################################

data_CSD_CIF_JALPUI
_audit_creation_date 2005-03-21
_audit_creation_method CSD-ConQuest-V1
_database_code_CSD JALPUI
_database_code_depnum_ccdc_archive 'CCDC 257404'
_chemical_formula_sum 'C60 H50'
_chemical_formula_moiety
;
C60 H50
;
_journal_coden_Cambridge 1336
_journal_volume 6
_journal_year 2004
_journal_page_first 4355
_journal_name_full 'Org.Lett. '
loop_
_publ_author_name
"Weixiang Dai"
"J.L.Petersen"
"K.K.Wang."
_chemical_name_systematic
;
6,9-bis(1,1-Dimethylethyl)-5,10-dihydro-1,14,15,16-tetraphenyldiindeno[2,1-b:1
',2'-h]phenanthrene
;
_cell_volume   4174.537
_exptl_crystal_colour 'yellow'
_exptl_crystal_density_diffrn 1.227
_exptl_crystal_preparation 'dichloromethane/ethanol'
_diffrn_ambient_temperature 223
#These two values have been output from a single CSD field.
_refine_ls_R_factor_gt 0.0489
_refine_ls_wR_factor_gt 0.0489
_symmetry_cell_setting monoclinic
_symmetry_space_group_name_H-M 'C 2/c'
_symmetry_Int_Tables_number 15
loop_
_symmetry_equiv_pos_site_id
_symmetry_equiv_pos_as_xyz
1 x,y,z
2 1/2+x,1/2+y,z
3 -x,y,1/2-z
4 1/2-x,1/2+y,1/2-z
5 -x,-y,-z
6 -1/2-x,-1/2-y,-z
7 x,-y,-1/2+z
8 -1/2+x,-1/2-y,-1/2+z
_cell_length_a 20.496(3)
_cell_length_b 10.8830(16)
_cell_length_c 20.523(3)
_cell_angle_alpha 90
_cell_angle_beta 114.230(3)
_cell_angle_gamma 90
_cell_formula_units_Z 4
loop_
_atom_type_symbol
_atom_type_radius_bond
C 0.68
H 0.23
loop_
_atom_site_label
_atom_site_type_symbol
_atom_site_fract_x
_atom_site_fract_y
_atom_site_fract_z
C1 C 0.49743(11) 0.80296(17) 0.28149(10)
H1 H 0.50200 0.87760 0.30600
C2 C 0.48513(10) 0.69179(17) 0.31247(9)
C3 C 0.4702(1) 0.68892(17) 0.37516(9)
C4 C 0.42808(10) 0.59148(17) 0.37805(9)
C5 C 0.39631(11) 0.56059(18) 0.43152(10)
H2 H 0.43250 0.52470 0.47520
H3 H 0.37620 0.63390 0.44410
C6 C 0.33910(11) 0.46955(18) 0.39257(10)
C7 C 0.28731(13) 0.42121(19) 0.41275(12)
H4 H 0.28950 0.43540 0.45880
C8 C 0.23266(13) 0.3520(2) 0.36385(13)
H5 H 0.19890 0.31450 0.37760
C9 C 0.22705(12) 0.33715(19) 0.29503(12)
H6 H 0.18770 0.29410 0.26180
C10 C 0.27849(11) 0.38465(17) 0.27338(11)
C11 C 0.33778(11) 0.44361(17) 0.32546(10)
C12 C 0.40095(10) 0.50449(16) 0.32161(9)
C13 C 0.43448(10) 0.48644(17) 0.27520(9)
C14 C 0.48027(10) 0.58238(16) 0.27305(9)
C15 C 0.49869(11) 0.79176(18) 0.43123(10)
C16 C 0.57618(12) 0.8266(2) 0.44435(11)
H7 H 0.57760 0.85190 0.39970
H8 H 0.60720 0.75610 0.46320
H9 H 0.59240 0.89370 0.47840
C17 C 0.44957(12) 0.90499(19) 0.40752(11)
H10 H 0.44680 0.93350 0.36170
H11 H 0.46890 0.96980 0.44270
H12 H 0.40210 0.88310 0.40320
C18 C 0.50439(15) 0.7535(2) 0.50530(11)
H13 H 0.53280 0.81350 0.54050
H14 H 0.52710 0.67350 0.51750
H15 H 0.45690 0.74940 0.50480
C19 C 0.2612(1) 0.38954(18) 0.19577(10)
C20 C 0.24565(11) 0.28624(19) 0.15233(11)
H16 H 0.24770 0.20780 0.17230
C21 C 0.22722(11) 0.2983(2) 0.07991(12)
H17 H 0.21820 0.22760 0.05120
C22 C 0.22186(12) 0.4123(2) 0.04943(11)
H18 H 0.20860 0.41970 0.00000
C23 C 0.23596(12) 0.5151(2) 0.09146(11)
H19 H 0.23180 0.59330 0.07070
C24 C 0.25624(11) 0.50423(19) 0.16430(11)
H20 H 0.26680 0.57520 0.19290
C25 C 0.42102(10) 0.37359(16) 0.23129(9)
C26 C 0.42152(10) 0.25982(17) 0.26249(10)
H21 H 0.42980 0.25610 0.31100
C27 C 0.41005(11) 0.15221(19) 0.22363(11)
H22 H 0.41030 0.07630 0.24560
C28 C 0.39827(11) 0.1563(2) 0.15286(12)
H23 H 0.39090 0.08330 0.12630
C29 C 0.39729(11) 0.2679(2) 0.12086(11)
H24 H 0.38920 0.27050 0.07240
C30 C 0.40798(10) 0.37581(19) 0.15908(9)
H25 H 0.40650 0.45140 0.13630
C1B C 0.50257(11) 0.80296(17) 0.21851(10)
H1B H 0.49800 0.87760 0.19400
C2B C 0.51487(10) 0.69179(17) 0.18753(9)
C3B C 0.5298(1) 0.68892(17) 0.12484(9)
C4B C 0.57192(10) 0.59148(17) 0.12195(9)
C5B C 0.60369(11) 0.56059(18) 0.06848(10)
H2B H 0.56750 0.52470 0.02480
H3B H 0.62380 0.63390 0.05590
C6B C 0.66090(11) 0.46955(18) 0.10743(10)
C7B C 0.71269(13) 0.42121(19) 0.08725(12)
H4B H 0.71050 0.43540 0.04120
C8B C 0.76734(13) 0.3520(2) 0.13615(13)
H5B H 0.80110 0.31450 0.12240
C9B C 0.77295(12) 0.33715(19) 0.20497(12)
H6B H 0.81230 0.29410 0.23820
C10B C 0.72151(11) 0.38465(17) 0.22662(11)
C11B C 0.66222(11) 0.44361(17) 0.17454(10)
C12B C 0.59905(10) 0.50449(16) 0.17839(9)
C13B C 0.56552(10) 0.48644(17) 0.22480(9)
C14B C 0.51973(10) 0.58238(16) 0.22695(9)
C25B C 0.57898(10) 0.37359(16) 0.26871(9)
C26B C 0.57848(10) 0.25982(17) 0.23751(10)
H21B H 0.57020 0.25610 0.18900
C27B C 0.58995(11) 0.15221(19) 0.27637(11)
H22B H 0.58970 0.07630 0.25440
C28B C 0.60173(11) 0.1563(2) 0.34714(12)
H23B H 0.60910 0.08330 0.37370
C29B C 0.60271(11) 0.2679(2) 0.37914(11)
H24B H 0.61080 0.27050 0.42760
C30B C 0.59202(10) 0.37581(19) 0.34092(9)
H25B H 0.59350 0.45140 0.36370
C19B C 0.7388(1) 0.38954(18) 0.30423(10)
C20B C 0.75435(11) 0.28624(19) 0.34767(11)
H16B H 0.75230 0.20780 0.32770
C21B C 0.77278(11) 0.2983(2) 0.42009(12)
H17B H 0.78180 0.22760 0.44880
C22B C 0.77814(12) 0.4123(2) 0.45057(11)
H18B H 0.79140 0.41970 0.50000
C23B C 0.76404(12) 0.5151(2) 0.40854(11)
H19B H 0.76820 0.59330 0.42930
C24B C 0.74376(11) 0.50423(19) 0.33570(11)
H20B H 0.73320 0.57520 0.30710
C15B C 0.50131(11) 0.79176(18) 0.06877(10)
C16B C 0.42382(12) 0.8266(2) 0.05565(11)
H7B H 0.42240 0.85190 0.10030
H8B H 0.39280 0.75610 0.03680
H9B H 0.40760 0.89370 0.02160
C17B C 0.55043(12) 0.90499(19) 0.09248(11)
H10B H 0.55320 0.93350 0.13830
H11B H 0.53110 0.96980 0.05730
H12B H 0.59790 0.88310 0.09680
C18B C 0.49561(15) 0.7535(2) -0.00530(11)
H13B H 0.46720 0.81350 -0.04050
H14B H 0.47290 0.67350 -0.01750
H15B H 0.54310 0.74940 -0.00480
loop_
_geom_bond_atom_site_label_1
_geom_bond_atom_site_label_2
_geom_bond_distance
_geom_bond_site_symmetry_1
_geom_bond_site_symmetry_2
C1 H1 0.940 1_555 1_555
C2 C1 1.436 1_555 1_555
C3 C2 1.440 1_555 1_555
C4 C3 1.384 1_555 1_555
C5 C4 1.526 1_555 1_555
H2 C5 0.980 1_555 1_555
H3 C5 0.980 1_555 1_555
C6 C5 1.492 1_555 1_555
C7 C6 1.391 1_555 1_555
H4 C7 0.940 1_555 1_555
C8 C7 1.381 1_555 1_555
H5 C8 0.941 1_555 1_555
C9 C8 1.379 1_555 1_555
H6 C9 0.940 1_555 1_555
C10 C9 1.400 1_555 1_555
C11 C6 1.395 1_555 1_555
C12 C4 1.421 1_555 1_555
C13 C12 1.398 1_555 1_555
C14 C2 1.420 1_555 1_555
C15 C3 1.538 1_555 1_555
C16 C15 1.545 1_555 1_555
H7 C16 0.969 1_555 1_555
H8 C16 0.970 1_555 1_555
H9 C16 0.970 1_555 1_555
C17 C15 1.538 1_555 1_555
H10 C17 0.970 1_555 1_555
H11 C17 0.970 1_555 1_555
H12 C17 0.970 1_555 1_555
C18 C15 1.534 1_555 1_555
H13 C18 0.971 1_555 1_555
H14 C18 0.970 1_555 1_555
H15 C18 0.970 1_555 1_555
C19 C10 1.484 1_555 1_555
C20 C19 1.388 1_555 1_555
H16 C20 0.940 1_555 1_555
C21 C20 1.381 1_555 1_555
H17 C21 0.940 1_555 1_555
C22 C21 1.373 1_555 1_555
H18 C22 0.940 1_555 1_555
C23 C22 1.369 1_555 1_555
H19 C23 0.940 1_555 1_555
C24 C19 1.390 1_555 1_555
H20 C24 0.940 1_555 1_555
C25 C13 1.481 1_555 1_555
C26 C25 1.392 1_555 1_555
H21 C26 0.940 1_555 1_555
C27 C26 1.382 1_555 1_555
H22 C27 0.940 1_555 1_555
C28 C27 1.372 1_555 1_555
H23 C28 0.940 1_555 1_555
C29 C28 1.377 1_555 1_555
H24 C29 0.939 1_555 1_555
C30 C25 1.394 1_555 1_555
H25 C30 0.941 1_555 1_555
C1B C1 1.339 1_555 1_555
H1B C1B 0.940 1_555 1_555
C2B C1B 1.436 1_555 1_555
C3B C2B 1.440 1_555 1_555
C4B C3B 1.384 1_555 1_555
C5B C4B 1.526 1_555 1_555
H2B C5B 0.980 1_555 1_555
H3B C5B 0.980 1_555 1_555
C6B C5B 1.492 1_555 1_555
C7B C6B 1.391 1_555 1_555
H4B C7B 0.940 1_555 1_555
C8B C7B 1.381 1_555 1_555
H5B C8B 0.941 1_555 1_555
C9B C8B 1.379 1_555 1_555
H6B C9B 0.940 1_555 1_555
C10B C9B 1.400 1_555 1_555
C11B C6B 1.395 1_555 1_555
C12B C4B 1.421 1_555 1_555
C13B C12B 1.398 1_555 1_555
C14B C14 1.476 1_555 1_555
C25B C13B 1.481 1_555 1_555
C26B C25B 1.392 1_555 1_555
H21B C26B 0.940 1_555 1_555
C27B C26B 1.382 1_555 1_555
H22B C27B 0.940 1_555 1_555
C28B C27B 1.372 1_555 1_555
H23B C28B 0.940 1_555 1_555
C29B C28B 1.377 1_555 1_555
H24B C29B 0.939 1_555 1_555
C30B C25B 1.394 1_555 1_555
H25B C30B 0.941 1_555 1_555
C19B C10B 1.484 1_555 1_555
C20B C19B 1.388 1_555 1_555
H16B C20B 0.940 1_555 1_555
C21B C20B 1.381 1_555 1_555
H17B C21B 0.940 1_555 1_555
C22B C21B 1.373 1_555 1_555
H18B C22B 0.940 1_555 1_555
C23B C22B 1.369 1_555 1_555
H19B C23B 0.940 1_555 1_555
C24B C19B 1.390 1_555 1_555
H20B C24B 0.940 1_555 1_555
C15B C3B 1.538 1_555 1_555
C16B C15B 1.545 1_555 1_555
H7B C16B 0.969 1_555 1_555
H8B C16B 0.970 1_555 1_555
H9B C16B 0.970 1_555 1_555
C17B C15B 1.538 1_555 1_555
H10B C17B 0.970 1_555 1_555
H11B C17B 0.970 1_555 1_555
H12B C17B 0.970 1_555 1_555
C18B C15B 1.534 1_555 1_555
H13B C18B 0.971 1_555 1_555
H14B C18B 0.970 1_555 1_555
H15B C18B 0.970 1_555 1_555
C10 C11 1.402 1_555 1_555
C11 C12 1.485 1_555 1_555
C13 C14 1.417 1_555 1_555
C23 C24 1.383 1_555 1_555
C29 C30 1.379 1_555 1_555
C2B C14B 1.420 1_555 1_555
C10B C11B 1.402 1_555 1_555
C11B C12B 1.485 1_555 1_555
C13B C14B 1.417 1_555 1_555
C29B C30B 1.379 1_555 1_555
C23B C24B 1.383 1_555 1_555
#END
