
#######################################################################
#
#                 Cambridge Crystallographic Data Centre
#                                CCDC
#
#######################################################################
#
# If this CIF has been generated from an entry in the Cambridge
# Structural Database, then it will include bibliographic, chemical,
# crystal, experimental, refinement or atomic coordinate data resulting
# from the CCDC's data processing and validation procedures.
#
#######################################################################

data_CSD_CIF_JALQAP
_audit_creation_date 2005-03-21
_audit_creation_method CSD-ConQuest-V1
_database_code_CSD JALQAP
_database_code_depnum_ccdc_archive 'CCDC 257405'
_chemical_formula_sum 'C33 H28'
_chemical_formula_moiety
;
C33 H28
;
_journal_coden_Cambridge 1336
_journal_volume 6
_journal_year 2004
_journal_page_first 4355
_journal_name_full 'Org.Lett. '
loop_
_publ_author_name
"Weixiang Dai"
"J.L.Petersen"
"K.K.Wang."
_chemical_name_systematic
;
2-(\a-t-Butylbenzyl)-1-phenylfluoranthrene
;
_chemical_melting_point 485.15
_cell_volume   4624.895
_exptl_crystal_density_diffrn 1.219
_exptl_special_details
;
Melting point range 485.15-488.15K

;
_diffrn_ambient_temperature 223
#These two values have been output from a single CSD field.
_refine_ls_R_factor_gt 0.0594
_refine_ls_wR_factor_gt 0.0594
_symmetry_cell_setting orthorhombic
_symmetry_space_group_name_H-M 'P b c a'
_symmetry_Int_Tables_number 61
loop_
_symmetry_equiv_pos_site_id
_symmetry_equiv_pos_as_xyz
1 x,y,z
2 1/2-x,-y,1/2+z
3 -x,1/2+y,1/2-z
4 1/2+x,1/2-y,-z
5 -x,-y,-z
6 -1/2+x,y,-1/2-z
7 x,-1/2-y,-1/2+z
8 -1/2-x,-1/2+y,z
_cell_length_a 8.8482(5)
_cell_length_b 17.6806(11)
_cell_length_c 29.5631(19)
_cell_angle_alpha 90
_cell_angle_beta 90
_cell_angle_gamma 90
_cell_formula_units_Z 8
loop_
_atom_type_symbol
_atom_type_radius_bond
C 0.68
H 0.23
loop_
_atom_site_label
_atom_site_type_symbol
_atom_site_fract_x
_atom_site_fract_y
_atom_site_fract_z
C1 C 0.8075(3) 0.06932(13) 0.60598(8)
C2 C 0.7310(3) 0.09190(14) 0.56763(8)
H1 H 0.67940 0.13840 0.56780
C3 C 0.7281(3) 0.04638(14) 0.52761(8)
C4 C 0.6534(3) 0.06075(14) 0.48625(9)
H2 H 0.59660 0.10530 0.48250
C5 C 0.6641(3) 0.00933(15) 0.45158(9)
H3 H 0.61250 0.01930 0.42440
C6 C 0.7488(3) -0.05747(15) 0.45501(9)
H4 H 0.75400 -0.09140 0.43060
C7 C 0.8231(3) -0.07218(13) 0.49411(9)
C8 C 0.9235(3) -0.13302(14) 0.51053(8)
C9 C 0.9800(3) -0.19608(15) 0.48911(9)
H5 H 0.95240 -0.20720 0.45910
C10 C 1.0782(3) -0.24270(15) 0.51246(10)
H6 H 1.11760 -0.28580 0.49800
C11 C 1.1194(3) -0.22744(14) 0.55625(10)
H7 H 1.18600 -0.26010 0.57150
C12 C 1.0632(3) -0.16406(14) 0.57823(9)
H8 H 1.09180 -0.15340 0.60820
C13 C 0.9649(3) -0.11680(13) 0.55551(8)
C14 C 0.8908(2) -0.04447(13) 0.56839(8)
C15 C 0.8096(2) -0.02017(13) 0.52994(8)
C16 C 0.8880(2) -0.00077(13) 0.60728(8)
C17 C 0.8072(3) 0.11997(13) 0.64799(8)
H9 H 0.87430 0.09280 0.66930
C18 C 0.8883(3) 0.19483(13) 0.64058(8)
C19 C 1.0236(3) 0.20622(15) 0.66341(9)
H10 H 1.06200 0.16750 0.68190
C20 C 1.1031(3) 0.27317(16) 0.65956(10)
H11 H 1.19430 0.27950 0.67540
C21 C 1.0491(3) 0.33079(16) 0.63253(10)
H12 H 1.10220 0.37660 0.63020
C22 C 0.9173(3) 0.32032(14) 0.60927(9)
H13 H 0.88040 0.35900 0.59050
C23 C 0.8376(3) 0.25307(13) 0.61311(8)
H14 H 0.74730 0.24690 0.59680
C24 C 0.6540(3) 0.12567(14) 0.67442(9)
C25 C 0.5293(3) 0.16859(18) 0.65034(10)
H15 H 0.43910 0.16870 0.66900
H16 H 0.50750 0.14430 0.62170
H17 H 0.56160 0.22030 0.64500
C26 C 0.6863(4) 0.1646(2) 0.71954(10)
H18 H 0.72420 0.21520 0.71400
H19 H 0.76130 0.13570 0.73610
H20 H 0.59390 0.16740 0.73710
C27 C 0.5974(4) 0.04607(16) 0.68406(12)
H21 H 0.50890 0.04860 0.70340
H22 H 0.67610 0.01740 0.69910
H23 H 0.57090 0.02150 0.65580
C28 C 0.9653(2) -0.02956(13) 0.64872(8)
C29 C 1.1072(3) -0.00453(15) 0.66190(9)
H24 H 1.15440 0.03490 0.64590
C30 C 1.1796(3) -0.03723(16) 0.69843(10)
H25 H 1.27640 -0.02030 0.70680
C31 C 1.1120(3) -0.09420(16) 0.72269(9)
H26 H 1.16140 -0.11580 0.74770
C32 C 0.9727(3) -0.11885(15) 0.71011(9)
H27 H 0.92570 -0.15780 0.72650
C33 C 0.8999(3) -0.08736(14) 0.67355(8)
H28 H 0.80400 -0.10540 0.66530
loop_
_geom_bond_atom_site_label_1
_geom_bond_atom_site_label_2
_geom_bond_distance
_geom_bond_site_symmetry_1
_geom_bond_site_symmetry_2
C1 C2 1.379 1_555 1_555
C2 H1 0.940 1_555 1_555
C3 C2 1.431 1_555 1_555
C4 C3 1.413 1_555 1_555
H2 C4 0.941 1_555 1_555
C5 C4 1.373 1_555 1_555
H3 C5 0.941 1_555 1_555
C6 C5 1.402 1_555 1_555
H4 C6 0.940 1_555 1_555
C7 C6 1.355 1_555 1_555
C8 C7 1.477 1_555 1_555
C9 C8 1.376 1_555 1_555
H5 C9 0.941 1_555 1_555
C10 C9 1.382 1_555 1_555
H6 C10 0.941 1_555 1_555
C11 C10 1.372 1_555 1_555
H7 C11 0.940 1_555 1_555
C12 C11 1.388 1_555 1_555
H8 C12 0.941 1_555 1_555
C13 C8 1.409 1_555 1_555
C14 C13 1.487 1_555 1_555
C15 C3 1.382 1_555 1_555
C16 C1 1.430 1_555 1_555
C17 C1 1.531 1_555 1_555
H9 C17 0.990 1_555 1_555
C18 C17 1.521 1_555 1_555
C19 C18 1.389 1_555 1_555
H10 C19 0.940 1_555 1_555
C20 C19 1.382 1_555 1_555
H11 C20 0.940 1_555 1_555
C21 C20 1.380 1_555 1_555
H12 C21 0.939 1_555 1_555
C22 C21 1.366 1_555 1_555
H13 C22 0.939 1_555 1_555
C23 C18 1.386 1_555 1_555
H14 C23 0.940 1_555 1_555
C24 C17 1.568 1_555 1_555
C25 C24 1.517 1_555 1_555
H15 C25 0.970 1_555 1_555
H16 C25 0.969 1_555 1_555
H17 C25 0.971 1_555 1_555
C26 C24 1.528 1_555 1_555
H18 C26 0.969 1_555 1_555
H19 C26 0.970 1_555 1_555
H20 C26 0.970 1_555 1_555
C27 C24 1.521 1_555 1_555
H21 C27 0.971 1_555 1_555
H22 C27 0.969 1_555 1_555
H23 C27 0.970 1_555 1_555
C28 C16 1.493 1_555 1_555
C29 C28 1.387 1_555 1_555
H24 C29 0.940 1_555 1_555
C30 C29 1.382 1_555 1_555
H25 C30 0.940 1_555 1_555
C31 C30 1.374 1_555 1_555
H26 C31 0.940 1_555 1_555
C32 C31 1.359 1_555 1_555
H27 C32 0.939 1_555 1_555
C33 C28 1.385 1_555 1_555
H28 C33 0.939 1_555 1_555
C7 C15 1.408 1_555 1_555
C12 C13 1.381 1_555 1_555
C14 C15 1.412 1_555 1_555
C14 C16 1.385 1_555 1_555
C22 C23 1.387 1_555 1_555
C32 C33 1.376 1_555 1_555
#END
