
#######################################################################
#
#                 Cambridge Crystallographic Data Centre
#                                CCDC
#
#######################################################################
#
# If this CIF has been generated from an entry in the Cambridge
# Structural Database, then it will include bibliographic, chemical,
# crystal, experimental, refinement or atomic coordinate data resulting
# from the CCDC's data processing and validation procedures.
#
#######################################################################

data_CSD_CIF_JASDAL
_audit_creation_date 2017-06-12
_audit_creation_method CSD-ConQuest-V1
_database_code_CSD JASDAL
_database_code_depnum_ccdc_archive 'CCDC 1555496'
_chemical_formula_sum 'C22 H16'
_chemical_formula_moiety
;
C22 H16
;
_journal_coden_Cambridge 1078
_journal_year 2017
_journal_name_full 'CSD Communication(Private Communication) '
loop_
_publ_author_name
"J.W.Bats"
"A.Spielmann"
"M.W.Goebel"
_chemical_name_systematic
;
trans-1,2-bis(naphthalen-2-yl)ethene
;
_cell_volume    729.514
_exptl_crystal_colour 'colorless'
_exptl_crystal_density_diffrn 1.276
_exptl_crystal_description 'block'
_diffrn_ambient_temperature 151
#These two values have been output from a single CSD field.
_refine_ls_R_factor_gt 0.0443
_refine_ls_wR_factor_gt 0.0443
_symmetry_cell_setting monoclinic
_symmetry_space_group_name_H-M 'P 21/c'
_symmetry_Int_Tables_number 14
loop_
_symmetry_equiv_pos_site_id
_symmetry_equiv_pos_as_xyz
1 x,y,z
2 -x,1/2+y,1/2-z
3 -x,-y,-z
4 x,-1/2-y,-1/2+z
_cell_length_a 15.341(4)
_cell_length_b 5.9390(11)
_cell_length_c 8.0163(11)
_cell_angle_alpha 90
_cell_angle_beta 92.769(18)
_cell_angle_gamma 90
_cell_formula_units_Z 2
loop_
_atom_type_symbol
_atom_type_radius_bond
C 0.68
H 0.23
loop_
_atom_site_label
_atom_site_type_symbol
_atom_site_fract_x
_atom_site_fract_y
_atom_site_fract_z
C1 C 0.34051(5) 0.64709(12) 0.69301(9)
C2 C 0.21514(4) 0.39162(12) 0.68617(8)
C3 C 0.25376(4) 0.59991(11) 0.73670(8)
C4 C 0.34793(5) 0.28731(12) 0.55252(9)
C5 C 0.12862(5) 0.34330(13) 0.72886(9)
C6 C 0.26488(5) 0.23675(12) 0.59439(9)
C7 C 0.38764(4) 0.49694(12) 0.60056(9)
C8 C 0.20417(5) 0.75443(13) 0.82879(9)
C9 C 0.47541(5) 0.55823(13) 0.55255(9)
C10 C 0.12028(5) 0.70295(14) 0.86894(9)
C11 C 0.08211(5) 0.49568(14) 0.81868(9)
H1 H 0.2312(7) 0.901(2) 0.8636(14)
H2 H 0.2379(7) 0.0906(19) 0.5601(14)
H3 H 0.3680(8) 0.796(2) 0.7305(15)
H4 H 0.3797(7) 0.175(2) 0.4877(14)
H5 H 0.0873(7) 0.816(2) 0.9342(16)
H6 H 0.0204(8) 0.456(2) 0.8490(14)
H7 H 0.1028(7) 0.194(2) 0.6918(14)
H8 H 0.5002(7) 0.704(2) 0.6063(15)
C1B C 0.65949(5) 0.35291(12) 0.30699(9)
C2B C 0.78486(4) 0.60838(12) 0.31383(8)
C3B C 0.74624(4) 0.40009(11) 0.26330(8)
C4B C 0.65207(5) 0.71269(12) 0.44748(9)
C5B C 0.87138(5) 0.65670(13) 0.27114(9)
C6B C 0.73512(5) 0.76325(12) 0.40561(9)
C7B C 0.61236(4) 0.50306(12) 0.39944(9)
C8B C 0.79583(5) 0.24557(13) 0.17121(9)
C9B C 0.52459(5) 0.44177(13) 0.44745(9)
C10B C 0.87972(5) 0.29705(14) 0.13106(9)
C11B C 0.91789(5) 0.50432(14) 0.18132(9)
H1B H 0.7688(7) 0.099(2) 0.1364(14)
H2B H 0.7621(7) 0.9094(19) 0.4399(14)
H3B H 0.6320(8) 0.204(2) 0.2695(15)
H4B H 0.6203(7) 0.825(2) 0.5123(14)
H5B H 0.9127(7) 0.184(2) 0.0658(16)
H6B H 0.9796(8) 0.544(2) 0.1510(14)
H7B H 0.8972(7) 0.806(2) 0.3082(14)
H8B H 0.4998(7) 0.296(2) 0.3937(15)
loop_
_geom_bond_atom_site_label_1
_geom_bond_atom_site_label_2
_geom_bond_distance
_geom_bond_site_symmetry_1
_geom_bond_site_symmetry_2
C1 C3 1.420 1_555 1_555
C2 C3 1.422 1_555 1_555
C3 C8 1.421 1_555 1_555
C4 C6 1.367 1_555 1_555
C5 C2 1.416 1_555 1_555
C6 C2 1.423 1_555 1_555
C7 C1 1.385 1_555 1_555
C8 C10 1.376 1_555 1_555
C9 C7 1.464 1_555 1_555
C10 C11 1.413 1_555 1_555
C11 C5 1.377 1_555 1_555
H1 C8 0.998 1_555 1_555
H2 C6 0.995 1_555 1_555
H3 C1 1.019 1_555 1_555
H4 C4 0.988 1_555 1_555
H5 C10 1.003 1_555 1_555
H6 C11 1.016 1_555 1_555
H7 C5 1.010 1_555 1_555
H8 C9 1.031 1_555 1_555
C1B C3B 1.420 1_555 1_555
C2B C3B 1.422 1_555 1_555
C3B C8B 1.421 1_555 1_555
C4B C6B 1.367 1_555 1_555
C5B C2B 1.416 1_555 1_555
C6B C2B 1.423 1_555 1_555
C7B C1B 1.385 1_555 1_555
C8B C10B 1.376 1_555 1_555
C9B C9 1.349 1_555 1_555
C10B C11B 1.413 1_555 1_555
C11B C5B 1.377 1_555 1_555
H1B C8B 0.998 1_555 1_555
H2B C6B 0.995 1_555 1_555
H3B C1B 1.019 1_555 1_555
H4B C4B 0.988 1_555 1_555
H5B C10B 1.003 1_555 1_555
H6B C11B 1.016 1_555 1_555
H7B C5B 1.010 1_555 1_555
H8B C9B 1.031 1_555 1_555
C4 C7 1.431 1_555 1_555
C4B C7B 1.431 1_555 1_555
C7B C9B 1.464 1_555 1_555
#END
