
#######################################################################
#
#                 Cambridge Crystallographic Data Centre
#                                CCDC
#
#######################################################################
#
# If this CIF has been generated from an entry in the Cambridge
# Structural Database, then it will include bibliographic, chemical,
# crystal, experimental, refinement or atomic coordinate data resulting
# from the CCDC's data processing and validation procedures.
#
#######################################################################

data_CSD_CIF_JASRIE
_audit_creation_date 1990-03-16
_audit_creation_method CSD-ConQuest-V1
_database_code_CSD JASRIE
_chemical_formula_sum 'C21 H22'
_chemical_formula_moiety
;
C21 H22
;
_journal_coden_Cambridge 16
_journal_volume 45
_journal_year 1989
_journal_page_first 4457
_journal_name_full 'Tetrahedron '
loop_
_publ_author_name
"J.M.Trendel"
"F.Lohmann"
"J.P.Kintzinger"
"P.Albrecht"
"A.Chiaroni"
"C.Riche"
"M.Cesario"
"J.Guilhem"
"C.Pascard"
_chemical_name_systematic
;
Des-A-26,27,28-dinorursa-5,7,9,11,13,15,17-heptaene
;
_chemical_name_common
;
(3R*,4S*)-1,2,3,4-Tetrahydro-3,4,7-trimethylchrysene
;
_cell_volume   1558.648
_exptl_crystal_density_diffrn 1.17
_diffrn_ambient_temperature ?
_diffrn_special_details
;
The study was carried out at room temperature,in the range 283-303K

;
#These two values have been output from a single CSD field.
_refine_ls_R_factor_gt 0.0458
_refine_ls_wR_factor_gt 0.0458
_chemical_compound_source
;
Pond mud
;
_symmetry_cell_setting orthorhombic
_symmetry_space_group_name_H-M 'P 21 21 21'
_symmetry_Int_Tables_number 19
loop_
_symmetry_equiv_pos_site_id
_symmetry_equiv_pos_as_xyz
1 x,y,z
2 1/2+x,1/2-y,-z
3 -x,1/2+y,1/2-z
4 1/2-x,-y,1/2+z
_cell_length_a 8.258(4)
_cell_length_b 8.885(4)
_cell_length_c 21.243(6)
_cell_angle_alpha 90
_cell_angle_beta 90
_cell_angle_gamma 90
_cell_formula_units_Z 4
loop_
_atom_type_symbol
_atom_type_radius_bond
C 0.68
H 0.23
loop_
_atom_site_label
_atom_site_type_symbol
_atom_site_fract_x
_atom_site_fract_y
_atom_site_fract_z
C1 C 0.5626(4) 0.0882(4) 0.1014(1)
C2 C 0.6115(4) -0.0022(4) 0.1521(1)
C3 C 0.5246(3) -0.0028(3) 0.2063(1)
C4 C 0.3835(3) 0.0863(3) 0.2133(1)
C5 C 0.3354(3) 0.1770(3) 0.1616(1)
C6 C 0.4258(4) 0.1762(3) 0.1050(1)
C7 C 0.1938(4) 0.2676(3) 0.1692(1)
C8 C 0.1066(4) 0.2703(3) 0.2229(1)
C9 C 0.1511(3) 0.1814(3) 0.2767(1)
C10 C 0.2899(3) 0.0880(3) 0.2714(1)
C11 C 0.3321(4) -0.0016(3) 0.3235(1)
C12 C 0.2431(4) 0.0032(3) 0.3775(1)
C13 C 0.1068(3) 0.0959(3) 0.3839(1)
C14 C 0.0591(3) 0.1852(3) 0.3336(1)
C15 C -0.0944(3) 0.2790(3) 0.3375(1)
C16 C -0.1404(4) 0.3162(3) 0.4060(1)
C17 C -0.1438(4) 0.1730(4) 0.4456(2)
C18 C 0.0178(5) 0.0952(4) 0.4462(2)
C19 C 0.3762(6) 0.2698(4) 0.0496(2)
C20 C -0.2321(4) 0.1980(4) 0.3033(2)
C21 C -0.0283(5) 0.4330(4) 0.4346(2)
H1 H 0.62600 0.08600 0.06300
H2 H 0.71500 -0.07000 0.14600
H3 H 0.55200 -0.06300 0.24200
H4 H 0.16100 0.32700 0.13700
H5 H 0.01500 0.33700 0.22300
H6 H 0.42400 -0.05900 0.32300
H7 H 0.27700 -0.06000 0.41300
H8 H -0.07800 0.37600 0.31500
H9 H -0.24400 0.36000 0.40600
H10 H -0.18000 0.19700 0.48700
H11 H -0.22600 0.10500 0.42900
H12 H 0.00400 -0.00700 0.45700
H13 H 0.08800 0.13300 0.48000
H14 H 0.44800 0.25600 0.01600
H15 H 0.37800 0.37400 0.06100
H16 H 0.26700 0.26100 0.03600
H17 H -0.33900 0.26000 0.30700
H18 H -0.25700 0.10000 0.32300
H19 H -0.20600 0.18700 0.25900
H20 H -0.03600 0.51600 0.40900
H21 H 0.09600 0.39700 0.43700
H22 H -0.05800 0.45500 0.47800
loop_
_geom_bond_atom_site_label_1
_geom_bond_atom_site_label_2
_geom_bond_distance
_geom_bond_site_symmetry_1
_geom_bond_site_symmetry_2
C1 C2 1.403 1_555 1_555
C2 C3 1.357 1_555 1_555
C3 C4 1.417 1_555 1_555
C4 C5 1.419 1_555 1_555
C5 C6 1.415 1_555 1_555
C6 C1 1.376 1_555 1_555
C7 C5 1.429 1_555 1_555
C8 C7 1.349 1_555 1_555
C9 C8 1.437 1_555 1_555
C10 C4 1.456 1_555 1_555
C11 C10 1.407 1_555 1_555
C12 C11 1.363 1_555 1_555
C13 C12 1.401 1_555 1_555
C14 C9 1.428 1_555 1_555
C15 C14 1.519 1_555 1_555
C16 C15 1.540 1_555 1_555
C17 C16 1.526 1_555 1_555
C18 C13 1.514 1_555 1_555
C19 C6 1.498 1_555 1_555
C20 C15 1.529 1_555 1_555
C21 C16 1.518 1_555 1_555
H1 C1 0.969 1_555 1_555
H2 C2 1.054 1_555 1_555
H3 C3 0.955 1_555 1_555
H4 C7 0.905 1_555 1_555
H5 C8 0.961 1_555 1_555
H6 C11 0.914 1_555 1_555
H7 C12 0.981 1_555 1_555
H8 C15 0.995 1_555 1_555
H9 C16 0.940 1_555 1_555
H10 C17 0.953 1_555 1_555
H11 C17 0.975 1_555 1_555
H12 C18 0.943 1_555 1_555
H13 C18 0.982 1_555 1_555
H14 C19 0.936 1_555 1_555
H15 C19 0.957 1_555 1_555
H16 C19 0.950 1_555 1_555
H17 C20 1.044 1_555 1_555
H18 C20 0.988 1_555 1_555
H19 C20 0.970 1_555 1_555
H20 C21 0.918 1_555 1_555
H21 C21 1.076 1_555 1_555
H22 C21 0.974 1_555 1_555
C9 C10 1.420 1_555 1_555
C13 C14 1.388 1_555 1_555
C17 C18 1.503 1_555 1_555
#END
