
#######################################################################
#
#                 Cambridge Crystallographic Data Centre
#                                CCDC
#
#######################################################################
#
# If this CIF has been generated from an entry in the Cambridge
# Structural Database, then it will include bibliographic, chemical,
# crystal, experimental, refinement or atomic coordinate data resulting
# from the CCDC's data processing and validation procedures.
#
#######################################################################

data_CSD_CIF_JEBBEX
_audit_creation_date 1999-06-30
_audit_creation_method CSD-ConQuest-V1
_database_code_CSD JEBBEX
_database_code_depnum_ccdc_archive 'CCDC 102312'
_chemical_formula_sum 'C42 H40'
_chemical_formula_moiety
;
C42 H40
;
_journal_coden_Cambridge 1220
_journal_volume 5
_journal_year 1999
_journal_page_first 356
_journal_name_full 'Chem.-Eur.J. '
loop_
_publ_author_name
"G.Cafeo"
"M.Giannetto"
"F.H.Kohnke"
"G.L.La Torre"
"M.F.Parisi"
"S.Menzer"
"A.J.P.White"
"D.J.Williams"
_chemical_name_systematic
;
1,4-bis(2-(4-(1-Methylethenyl)naphthyl)-2-methylethyl)naphthalene
;
_chemical_melting_point 517.15
_cell_volume   6422.174
_exptl_crystal_colour 'white'
_exptl_crystal_density_diffrn 1.127
_exptl_crystal_description 'blocks'
_exptl_crystal_preparation 'benzene/hexane'
_diffrn_ambient_temperature ?
_diffrn_special_details
;
The study was carried out at room temperature,in the range 283-303K

;
#These two values have been output from a single CSD field.
_refine_ls_R_factor_gt 0.0566
_refine_ls_wR_factor_gt 0.0566
_symmetry_cell_setting monoclinic
_symmetry_space_group_name_H-M 'I 2/a'
_symmetry_Int_Tables_number 15
loop_
_symmetry_equiv_pos_site_id
_symmetry_equiv_pos_as_xyz
1 x,y,z
2 1/2+x,1/2+y,1/2+z
3 1/2+x,-y,z
4 x,1/2-y,1/2+z
5 -x,-y,-z
6 -1/2-x,-1/2-y,-1/2-z
7 -1/2-x,y,-z
8 -x,-1/2+y,-1/2-z
_cell_length_a 19.9063(8)
_cell_length_b 11.5641(5)
_cell_length_c 28.405(2)
_cell_angle_alpha 90
_cell_angle_beta 100.837(7)
_cell_angle_gamma 90
_cell_formula_units_Z 8
loop_
_atom_type_symbol
_atom_type_radius_bond
C 0.68
H 0.23
loop_
_atom_site_label
_atom_site_type_symbol
_atom_site_fract_x
_atom_site_fract_y
_atom_site_fract_z
C1 C -0.0674(2) 1.2891(3) -0.02611(12)
C2 C -0.0566(3) 1.2192(5) -0.06581(15)
H1 H -0.0647(3) 1.1394(5) -0.05926(15)
H2 H -0.0104(3) 1.2284(5) -0.07042(15)
H3 H -0.0876(3) 1.2429(5) -0.09428(15)
C3 C -0.0595(4) 1.4023(4) -0.0265(3)
H4 H -0.0467(4) 1.4382(4) -0.0527(3)
H5 H -0.0667(4) 1.4462(4) -0.0004(3)
C4 C -0.08903(14) 1.2308(3) 0.01563(10)
C5 C -0.1551(2) 1.2394(3) 0.02167(12)
H6 H -0.1855(2) 1.2852(3) 0.00067(12)
C6 C -0.17857(14) 1.1810(3) 0.05881(12)
H7 H -0.22444(14) 1.1880(3) 0.06095(12)
C7 C -0.13729(12) 1.1143(2) 0.09190(9)
C8 C -0.06599(12) 1.1081(2) 0.08850(9)
C9 C -0.01626(12) 1.0497(2) 0.12258(9)
H8 H -0.02959(12) 1.0137(2) 0.14863(9)
C10 C 0.05075(13) 1.0452(3) 0.11799(11)
H9 H 0.08214(13) 1.0063(3) 0.14094(11)
C11 C 0.07291(14) 1.0980(3) 0.07951(12)
H10 H 0.11862(14) 1.0934(3) 0.07667(12)
C12 C 0.02729(14) 1.1565(3) 0.04605(11)
H11 H 0.04236(14) 1.1918(3) 0.02051(11)
C13 C -0.04281(12) 1.1644(2) 0.04950(9)
C14 C -0.16682(11) 1.0586(2) 0.13303(9)
C15 C -0.24601(12) 1.0501(3) 0.12140(12)
H12 H -0.25990(13) 1.0056(18) 0.0927(5)
H13 H -0.26520(13) 1.1264(3) 0.1168(9)
H14 H -0.26194(15) 1.0132(19) 0.1475(4)
C16 C -0.14874(14) 1.1433(2) 0.17530(11)
H15 H -0.1638(11) 1.2196(4) 0.1650(2)
H16 H -0.1001(2) 1.1438(15) 0.1864(5)
H17 H -0.171(1) 1.1194(11) 0.2009(3)
C17 C -0.14139(11) 0.9351(2) 0.14690(8)
C18 C -0.12271(12) 0.9052(2) 0.19442(9)
H18 H -0.12448(12) 0.9614(2) 0.21757(9)
C19 C -0.10110(12) 0.7934(2) 0.20942(9)
H19 H -0.09060(12) 0.7780(2) 0.24211(9)
C20 C -0.09481(11) 0.7064(2) 0.17808(8)
C21 C -0.11476(11) 0.7320(2) 0.12771(8)
C22 C -0.11119(12) 0.6478(2) 0.09193(9)
H20 H -0.09293(12) 0.5754(2) 0.10112(9)
C23 C -0.13380(15) 0.6700(3) 0.04444(10)
H21 H -0.13154(15) 0.6127(3) 0.02182(10)
C24 C -0.16023(14) 0.7783(3) 0.02976(9)
H22 H -0.17667(14) 0.7924(3) -0.00259(9)
C25 C -0.16217(12) 0.8633(2) 0.06232(9)
H23 H -0.17875(12) 0.9358(2) 0.05173(9)
C26 C -0.13939(11) 0.8444(2) 0.11249(8)
C27 C -0.07265(11) 0.5839(2) 0.19699(9)
C28 C -0.13684(13) 0.5066(2) 0.18532(12)
H24 H -0.1499(7) 0.4980(17) 0.15121(12)
H25 H -0.1736(4) 0.5417(10) 0.1977(7)
H26 H -0.1269(4) 0.4320(7) 0.1998(7)
C29 C -0.05195(14) 0.5815(3) 0.25228(10)
H27 H -0.0149(8) 0.6346(15) 0.26232(11)
H28 H -0.0377(11) 0.5048(5) 0.26260(11)
H29 H -0.0904(4) 0.6037(19) 0.26622(10)
C30 C -0.01040(11) 0.5330(2) 0.17849(9)
C31 C -0.01254(12) 0.4218(2) 0.16174(10)
H30 H -0.05384(12) 0.3821(2) 0.15766(10)
C32 C 0.04467(13) 0.3651(2) 0.15042(11)
H31 H 0.04007(13) 0.2898(2) 0.13880(11)
C33 C 0.10699(12) 0.4182(2) 0.1561(1)
C34 C 0.11234(11) 0.5349(2) 0.17283(8)
C35 C 0.17597(12) 0.5947(3) 0.17943(10)
H32 H 0.21425(12) 0.5565(3) 0.1728(1)
C36 C 0.18230(13) 0.7054(3) 0.19507(10)
H33 H 0.22452(13) 0.7424(3) 0.19937(10)
C37 C 0.12488(13) 0.7639(2) 0.20474(9)
H34 H 0.12889(13) 0.8406(2) 0.21482(9)
C38 C 0.06330(12) 0.7099(2) 0.19953(9)
H35 H 0.02607(12) 0.7505(2) 0.20657(9)
C39 C 0.05392(11) 0.5935(2) 0.18367(8)
C40 C 0.16756(14) 0.3550(3) 0.14488(12)
C41 C 0.1861(2) 0.3738(4) 0.09907(14)
H36 H 0.1949(17) 0.4545(6) 0.0953(5)
H37 H 0.1492(8) 0.3494(28) 0.07418(15)
H38 H 0.2264(11) 0.3300(24) 0.0971(5)
C42 C 0.2022(2) 0.2795(3) 0.1779(2)
H39 H 0.2392(2) 0.2381(3) 0.1710(2)
H40 H 0.1887(2) 0.2695(3) 0.2073(2)
loop_
_geom_bond_atom_site_label_1
_geom_bond_atom_site_label_2
_geom_bond_distance
_geom_bond_site_symmetry_1
_geom_bond_site_symmetry_2
C1 C2 1.436 1_555 1_555
C2 H1 0.961 1_555 1_555
H2 C2 0.959 1_555 1_555
H3 C2 0.960 1_555 1_555
C3 C1 1.319 1_555 1_555
H4 C3 0.929 1_555 1_555
H5 C3 0.932 1_555 1_555
C4 C1 1.496 1_555 1_555
C5 C4 1.362 1_555 1_555
H6 C5 0.931 1_555 1_555
C6 C5 1.405 1_555 1_555
H7 C6 0.930 1_555 1_555
C7 C6 1.365 1_555 1_555
C8 C7 1.442 1_555 1_555
C9 C8 1.419 1_555 1_555
H8 C9 0.930 1_555 1_555
C10 C9 1.365 1_555 1_555
H9 C10 0.930 1_555 1_555
C11 C10 1.394 1_555 1_555
H10 C11 0.930 1_555 1_555
C12 C11 1.364 1_555 1_555
H11 C12 0.930 1_555 1_555
C13 C4 1.424 1_555 1_555
C14 C7 1.544 1_555 1_555
C15 C14 1.552 1_555 1_555
H12 C15 0.960 1_555 1_555
H13 C15 0.961 1_555 1_555
H14 C15 0.960 1_555 1_555
C16 C14 1.539 1_555 1_555
H15 C16 0.960 1_555 1_555
H16 C16 0.960 1_555 1_555
H17 C16 0.961 1_555 1_555
C17 C14 1.541 1_555 1_555
C18 C17 1.375 1_555 1_555
H18 C18 0.930 1_555 1_555
C19 C18 1.403 1_555 1_555
H19 C19 0.930 1_555 1_555
C20 C19 1.365 1_555 1_555
C21 C20 1.442 1_555 1_555
C22 C21 1.419 1_555 1_555
H20 C22 0.930 1_555 1_555
C23 C22 1.364 1_555 1_555
H21 C23 0.930 1_555 1_555
C24 C23 1.392 1_555 1_555
H22 C24 0.930 1_555 1_555
C25 C24 1.355 1_555 1_555
H23 C25 0.930 1_555 1_555
C26 C17 1.439 1_555 1_555
C27 C20 1.549 1_555 1_555
C28 C27 1.544 1_555 1_555
H24 C28 0.960 1_555 1_555
H25 C28 0.960 1_555 1_555
H26 C28 0.960 1_555 1_555
C29 C27 1.547 1_555 1_555
H27 C29 0.961 1_555 1_555
H28 C29 0.960 1_555 1_555
H29 C29 0.960 1_555 1_555
C30 C27 1.550 1_555 1_555
C31 C30 1.369 1_555 1_555
H30 C31 0.930 1_555 1_555
C32 C31 1.403 1_555 1_555
H31 C32 0.930 1_555 1_555
C33 C32 1.366 1_555 1_555
C34 C33 1.428 1_555 1_555
C35 C34 1.424 1_555 1_555
H32 C35 0.930 1_555 1_555
C36 C35 1.353 1_555 1_555
H33 C36 0.930 1_555 1_555
C37 C36 1.399 1_555 1_555
H34 C37 0.931 1_555 1_555
C38 C37 1.359 1_555 1_555
H35 C38 0.930 1_555 1_555
C39 C30 1.442 1_555 1_555
C40 C33 1.495 1_555 1_555
C41 C40 1.434 1_555 1_555
H36 C41 0.959 1_555 1_555
H37 C41 0.961 1_555 1_555
H38 C41 0.959 1_555 1_555
C42 C40 1.369 1_555 1_555
H39 C42 0.930 1_555 1_555
H40 C42 0.931 1_555 1_555
C8 C13 1.434 1_555 1_555
C12 C13 1.420 1_555 1_555
C21 C26 1.427 1_555 1_555
C25 C26 1.429 1_555 1_555
C34 C39 1.429 1_555 1_555
C38 C39 1.421 1_555 1_555
#END
