
#######################################################################
#
#                 Cambridge Crystallographic Data Centre
#                                CCDC
#
#######################################################################
#
# If this CIF has been generated from an entry in the Cambridge
# Structural Database, then it will include bibliographic, chemical,
# crystal, experimental, refinement or atomic coordinate data resulting
# from the CCDC's data processing and validation procedures.
#
#######################################################################

data_CSD_CIF_JEBNAG
_audit_creation_date 2006-04-11
_audit_creation_method CSD-ConQuest-V1
_database_code_CSD JEBNAG
_database_code_depnum_ccdc_archive 'CCDC 281748'
_chemical_formula_sum 'C56 H46'
_chemical_formula_moiety
;
C56 H46
;
_journal_coden_Cambridge 16
_journal_volume 62
_journal_year 2006
_journal_page_first 1231
_journal_name_full 'Tetrahedron '
loop_
_publ_author_name
"Hua Yang"
"J.L.Petersen"
"K.K.Wang"
_chemical_name_systematic
;
13,13'-(1,2-Phenylene)bis(7-t-butyl-8H-indeno(2,1-b)phenanthrene)
;
_cell_volume   8533.568
_diffrn_ambient_temperature 295
#These two values have been output from a single CSD field.
_refine_ls_R_factor_gt 0.0626
_refine_ls_wR_factor_gt 0.0626
_symmetry_cell_setting orthorhombic
_symmetry_space_group_name_H-M 'P b c a'
_symmetry_Int_Tables_number 61
loop_
_symmetry_equiv_pos_site_id
_symmetry_equiv_pos_as_xyz
1 x,y,z
2 1/2-x,-y,1/2+z
3 -x,1/2+y,1/2-z
4 1/2+x,1/2-y,-z
5 -x,-y,-z
6 -1/2+x,y,-1/2-z
7 x,-1/2-y,-1/2+z
8 -1/2-x,-1/2+y,z
_cell_length_a 16.8596(15)
_cell_length_b 16.7551(15)
_cell_length_c 30.209(3)
_cell_angle_alpha 90
_cell_angle_beta 90
_cell_angle_gamma 90
_cell_formula_units_Z 8
loop_
_atom_type_symbol
_atom_type_radius_bond
C 0.68
H 0.23
loop_
_atom_site_label
_atom_site_type_symbol
_atom_site_fract_x
_atom_site_fract_y
_atom_site_fract_z
C1 C 0.87681(11) 0.87263(10) 0.29581(6)
C2 C 0.85364(13) 0.80895(12) 0.26885(7)
H1 H 0.88890 0.76710 0.26420
C3 C 0.78048(14) 0.80647(13) 0.24904(8)
H2 H 0.76660 0.76360 0.23110
C4 C 0.72792(13) 0.86794(13) 0.25589(8)
H3 H 0.67770 0.86610 0.24310
C5 C 0.74955(12) 0.93215(12) 0.28157(7)
H4 H 0.71360 0.97350 0.28580
C6 C 0.82421(10) 0.93674(10) 0.30139(6)
C7 C 0.85247(10) 1.00993(10) 0.32601(7)
C8 C 0.87928(11) 1.0766(1) 0.30315(7)
C9 C 0.87049(11) 1.09747(11) 0.25587(7)
C10 C 0.83472(13) 1.05903(13) 0.22011(7)
H5 H 0.81120 1.00930 0.22380
C11 C 0.83472(13) 1.09593(14) 0.17908(8)
H6 H 0.81090 1.07040 0.15520
C12 C 0.86919(14) 1.16961(14) 0.17291(8)
H7 H 0.86850 1.19330 0.14510
C13 C 0.90475(13) 1.20845(13) 0.20803(8)
H8 H 0.92810 1.25830 0.20410
C14 C 0.90510(12) 1.17211(11) 0.24907(7)
C15 C 0.94008(13) 1.20358(12) 0.29105(7)
H9 H 0.91560 1.25380 0.29930
H10 H 0.99680 1.21150 0.28800
C16 C 0.92210(11) 1.13939(10) 0.32486(7)
C17 C 0.94578(11) 1.13288(10) 0.36874(7)
C18 C 0.92161(11) 1.06122(11) 0.39153(6)
C19 C 0.95534(13) 1.03594(12) 0.43316(7)
H11 H 0.99770 1.06470 0.44480
C20 C 0.92821(15) 0.97297(13) 0.45573(7)
H12 H 0.95630 0.95480 0.48020
C21 C 0.85746(14) 0.93328(12) 0.44307(7)
C22 C 0.81749(19) 0.88027(15) 0.47128(9)
H13 H 0.84100 0.86520 0.49780
C23 C 0.7456(2) 0.85070(18) 0.46059(10)
H14 H 0.72030 0.81470 0.47930
C24 C 0.70934(19) 0.87485(17) 0.42098(10)
H15 H 0.65840 0.85720 0.41430
C25 C 0.74795(14) 0.92398(13) 0.39218(8)
H16 H 0.72330 0.93890 0.36590
C26 C 0.82450(12) 0.95245(11) 0.40159(7)
C27 C 0.86601(11) 1.00808(10) 0.37243(7)
C28 C 0.95330(11) 0.86899(10) 0.32105(7)
C29 C 0.95680(11) 0.82231(11) 0.35885(7)
C30 C 0.89744(12) 0.76490(11) 0.37689(7)
C31 C 0.82236(13) 0.74032(13) 0.36336(9)
H17 H 0.79870 0.76360 0.33870
C32 C 0.78286(17) 0.68099(15) 0.38665(11)
H18 H 0.73350 0.66340 0.37690
C33 C 0.81625(18) 0.64798(17) 0.42411(11)
H19 H 0.78920 0.60850 0.43960
C34 C 0.88892(18) 0.67308(16) 0.43859(10)
H20 H 0.91100 0.65130 0.46410
C35 C 0.92931(14) 0.73105(13) 0.41515(8)
C36 C 1.00948(14) 0.76527(14) 0.42478(8)
H21 H 1.04940 0.72360 0.42540
H22 H 1.00960 0.79280 0.45300
C37 C 1.02472(11) 0.82300(11) 0.38714(7)
C38 C 1.08855(12) 0.87364(11) 0.37991(7)
C39 C 1.08134(11) 0.92710(11) 0.34272(7)
C40 C 1.13209(12) 0.99544(13) 0.33681(8)
H23 H 1.17020 1.00580 0.35830
C41 C 1.12741(13) 1.04498(13) 0.30198(9)
H24 H 1.15660 1.09210 0.30210
C42 C 1.07892(12) 1.02674(12) 0.26515(8)
C43 C 1.08605(15) 1.06839(13) 0.22469(10)
H25 H 1.11720 1.11410 0.22350
C44 C 1.04864(17) 1.04342(16) 0.18758(10)
H26 H 1.05360 1.07180 0.16130
C45 C 1.00277(16) 0.97477(15) 0.18937(8)
H27 H 0.97930 0.95550 0.16370
C46 C 0.99159(13) 0.93485(13) 0.22874(7)
H28 H 0.95960 0.88970 0.22920
C47 C 1.02728(11) 0.96059(11) 0.26832(7)
C48 C 1.01947(11) 0.9184(1) 0.31072(7)
C49 C 0.99318(13) 1.19846(12) 0.39452(7)
C50 C 1.08117(15) 1.17490(16) 0.39990(9)
H29 H 1.10560 1.17130 0.37130
H30 H 1.08460 1.12420 0.41450
H31 H 1.10800 1.21460 0.41720
C51 C 0.99344(19) 1.28009(14) 0.37179(9)
H32 H 1.01770 1.31870 0.39090
H33 H 0.93990 1.29600 0.36550
H34 H 1.02290 1.27680 0.34460
C52 C 0.95421(17) 1.21442(14) 0.43959(8)
H35 H 0.96120 1.16880 0.45840
H36 H 0.89860 1.22420 0.43550
H37 H 0.97840 1.26020 0.45310
C53 C 1.16517(12) 0.87477(13) 0.40869(8)
C54 C 1.17559(15) 0.80269(16) 0.43950(9)
H38 H 1.22720 0.80460 0.45290
H39 H 1.17040 0.75430 0.42270
H40 H 1.13570 0.80410 0.46220
C55 C 1.23929(13) 0.87090(15) 0.37822(9)
H41 H 1.28640 0.87550 0.39590
H42 H 1.23740 0.91390 0.35730
H43 H 1.23980 0.82090 0.36270
C56 C 1.16603(15) 0.94818(16) 0.43958(9)
H44 H 1.11970 0.94750 0.45800
H45 H 1.16630 0.99600 0.42210
H46 H 1.21260 0.94670 0.45780
loop_
_geom_bond_atom_site_label_1
_geom_bond_atom_site_label_2
_geom_bond_distance
_geom_bond_site_symmetry_1
_geom_bond_site_symmetry_2
C1 C2 1.398 1_555 1_555
C2 H1 0.930 1_555 1_555
C3 C2 1.372 1_555 1_555
H2 C3 0.930 1_555 1_555
C4 C3 1.374 1_555 1_555
H3 C4 0.931 1_555 1_555
C5 C4 1.376 1_555 1_555
H4 C5 0.929 1_555 1_555
C6 C1 1.403 1_555 1_555
C7 C6 1.511 1_555 1_555
C8 C7 1.389 1_555 1_555
C9 C8 1.478 1_555 1_555
C10 C9 1.395 1_555 1_555
H5 C10 0.929 1_555 1_555
C11 C10 1.385 1_555 1_555
H6 C11 0.930 1_555 1_555
C12 C11 1.377 1_555 1_555
H7 C12 0.929 1_555 1_555
C13 C12 1.381 1_555 1_555
H8 C13 0.931 1_555 1_555
C14 C9 1.395 1_555 1_555
C15 C14 1.495 1_555 1_555
H9 C15 0.970 1_555 1_555
H10 C15 0.970 1_555 1_555
C16 C8 1.435 1_555 1_555
C17 C16 1.389 1_555 1_555
C18 C17 1.443 1_555 1_555
C19 C18 1.444 1_555 1_555
H11 C19 0.931 1_555 1_555
C20 C19 1.337 1_555 1_555
H12 C20 0.929 1_555 1_555
C21 C20 1.418 1_555 1_555
C22 C21 1.403 1_555 1_555
H13 C22 0.929 1_555 1_555
C23 C22 1.349 1_555 1_555
H14 C23 0.930 1_555 1_555
C24 C23 1.403 1_555 1_555
H15 C24 0.930 1_555 1_555
C25 C24 1.363 1_555 1_555
H16 C25 0.930 1_555 1_555
C26 C21 1.408 1_555 1_555
C27 C7 1.421 1_555 1_555
C28 C1 1.499 1_555 1_555
C29 C28 1.385 1_555 1_555
C30 C29 1.491 1_555 1_555
C31 C30 1.392 1_555 1_555
H17 C31 0.931 1_555 1_555
C32 C31 1.388 1_555 1_555
H18 C32 0.931 1_555 1_555
C33 C32 1.380 1_555 1_555
H19 C33 0.930 1_555 1_555
C34 C33 1.367 1_555 1_555
H20 C34 0.930 1_555 1_555
C35 C30 1.395 1_555 1_555
C36 C35 1.497 1_555 1_555
H21 C36 0.970 1_555 1_555
H22 C36 0.969 1_555 1_555
C37 C29 1.429 1_555 1_555
C38 C37 1.388 1_555 1_555
C39 C38 1.442 1_555 1_555
C40 C39 1.441 1_555 1_555
H23 C40 0.930 1_555 1_555
C41 C40 1.342 1_555 1_555
H24 C41 0.930 1_555 1_555
C42 C41 1.414 1_555 1_555
C43 C42 1.413 1_555 1_555
H25 C43 0.929 1_555 1_555
C44 C43 1.353 1_555 1_555
H26 C44 0.929 1_555 1_555
C45 C44 1.387 1_555 1_555
H27 C45 0.929 1_555 1_555
C46 C45 1.377 1_555 1_555
H28 C46 0.929 1_555 1_555
C47 C42 1.413 1_555 1_555
C48 C28 1.424 1_555 1_555
C49 C17 1.566 1_555 1_555
C50 C49 1.544 1_555 1_555
H29 C50 0.959 1_555 1_555
H30 C50 0.959 1_555 1_555
H31 C50 0.959 1_555 1_555
C51 C49 1.530 1_555 1_555
H32 C51 0.959 1_555 1_555
H33 C51 0.960 1_555 1_555
H34 C51 0.961 1_555 1_555
C52 C49 1.535 1_555 1_555
H35 C52 0.960 1_555 1_555
H36 C52 0.960 1_555 1_555
H37 C52 0.960 1_555 1_555
C53 C38 1.557 1_555 1_555
C54 C53 1.535 1_555 1_555
H38 C54 0.960 1_555 1_555
H39 C54 0.961 1_555 1_555
H40 C54 0.961 1_555 1_555
C55 C53 1.553 1_555 1_555
H41 C55 0.960 1_555 1_555
H42 C55 0.959 1_555 1_555
H43 C55 0.960 1_555 1_555
C56 C53 1.544 1_555 1_555
H44 C56 0.959 1_555 1_555
H45 C56 0.960 1_555 1_555
H46 C56 0.959 1_555 1_555
C5 C6 1.396 1_555 1_555
C13 C14 1.381 1_555 1_555
C15 C16 1.514 1_555 1_555
C18 C27 1.416 1_555 1_555
C25 C26 1.405 1_555 1_555
C26 C27 1.461 1_555 1_555
C34 C35 1.381 1_555 1_555
C36 C37 1.515 1_555 1_555
C39 C48 1.430 1_555 1_555
C46 C47 1.406 1_555 1_555
C47 C48 1.469 1_555 1_555
#END
