
#######################################################################
#
#                 Cambridge Crystallographic Data Centre
#                                CCDC
#
#######################################################################
#
# If this CIF has been generated from an entry in the Cambridge
# Structural Database, then it will include bibliographic, chemical,
# crystal, experimental, refinement or atomic coordinate data resulting
# from the CCDC's data processing and validation procedures.
#
#######################################################################

data_CSD_CIF_JEHZIG
_audit_creation_date 2006-08-21
_audit_creation_method CSD-ConQuest-V1
_database_code_CSD JEHZIG
_database_code_depnum_ccdc_archive 'CCDC 609089'
_chemical_formula_sum 'C18 H16'
_chemical_formula_moiety
;
C18 H16
;
_journal_coden_Cambridge 579
_journal_volume 25
_journal_year 2006
_journal_page_first 2045
_journal_name_full 'Organometallics '
loop_
_publ_author_name
"Haiqing Guo"
"Fanzhi Kong"
"K.Kanno"
"Jianjun He"
"K.Nakajima"
"T.Takahashi"
_chemical_name_systematic
;
1-(1-Phenylethyl)naphthalene
;
_cell_volume   1329.832
_exptl_crystal_colour 'colorless'
_exptl_crystal_density_diffrn 1.16
_exptl_crystal_description 'prismatic'
_diffrn_ambient_temperature 298.2
#These two values have been output from a single CSD field.
_refine_ls_R_factor_gt 0.0545
_refine_ls_wR_factor_gt 0.0545
_symmetry_cell_setting monoclinic
_symmetry_space_group_name_H-M 'P 21/a'
_symmetry_Int_Tables_number 14
loop_
_symmetry_equiv_pos_site_id
_symmetry_equiv_pos_as_xyz
1 x,y,z
2 1/2-x,1/2+y,-z
3 -x,-y,-z
4 -1/2+x,-1/2-y,z
_cell_length_a 17.456(2)
_cell_length_b 6.1758(9)
_cell_length_c 13.086(2)
_cell_angle_alpha 90
_cell_angle_beta 109.498(10)
_cell_angle_gamma 90
_cell_formula_units_Z 4
loop_
_atom_type_symbol
_atom_type_radius_bond
C 0.68
H 0.23
loop_
_atom_site_label
_atom_site_type_symbol
_atom_site_fract_x
_atom_site_fract_y
_atom_site_fract_z
C1 C 0.8512(1) 0.2196(4) 0.8092(2)
C2 C 0.9365(2) 0.2702(7) 0.8861(3)
C3 C 0.8528(1) 0.1987(4) 0.6940(2)
C4 C 0.8287(2) 0.3688(6) 0.6220(3)
C5 C 0.8349(2) 0.3543(9) 0.5193(3)
C6 C 0.8652(2) 0.1733(9) 0.4888(3)
C7 C 0.8911(2) 0.0020(8) 0.5600(3)
C8 C 0.8836(2) 0.0156(5) 0.6613(2)
C9 C 0.8105(1) 0.0290(4) 0.8423(2)
C10 C 0.8548(2) -0.1248(5) 0.9125(2)
C11 C 0.8191(3) -0.2999(6) 0.9453(3)
C12 C 0.7385(3) -0.3264(6) 0.9057(3)
C13 C 0.6877(2) -0.1753(5) 0.8330(2)
C14 C 0.6025(2) -0.2008(7) 0.7923(3)
C15 C 0.5546(2) -0.0501(9) 0.7257(4)
C16 C 0.5893(2) 0.1347(7) 0.6936(3)
C17 C 0.6720(2) 0.1614(5) 0.7312(2)
C18 C 0.7231(1) 0.0069(4) 0.8012(2)
H1 H 0.824(2) 0.350(5) 0.815(2)
H2 H 0.969(2) 0.141(6) 0.887(3)
H3 H 0.941(2) 0.282(5) 0.961(3)
H4 H 0.948(2) 0.443(7) 0.869(3)
H5 H 0.804(2) 0.507(6) 0.649(3)
H6 H 0.811(2) 0.486(6) 0.467(3)
H7 H 0.878(2) 0.151(7) 0.427(3)
H8 H 0.901(2) -0.128(7) 0.548(3)
H9 H 0.899(2) -0.113(5) 0.706(2)
H10 H 0.918(2) -0.120(6) 0.935(3)
H11 H 0.855(2) -0.412(7) 1.006(3)
H12 H 0.712(2) -0.424(7) 0.916(3)
H13 H 0.566(2) -0.331(6) 0.816(3)
H14 H 0.492(3) -0.077(7) 0.695(3)
H15 H 0.564(2) 0.266(6) 0.645(3)
H16 H 0.698(2) 0.289(5) 0.716(2)
loop_
_geom_bond_atom_site_label_1
_geom_bond_atom_site_label_2
_geom_bond_distance
_geom_bond_site_symmetry_1
_geom_bond_site_symmetry_2
C1 C2 1.526 1_555 1_555
C2 H2 0.977 1_555 1_555
C3 C1 1.523 1_555 1_555
C4 C3 1.380 1_555 1_555
C5 C4 1.387 1_555 1_555
C6 C5 1.353 1_555 1_555
C7 C6 1.382 1_555 1_555
C8 C3 1.380 1_555 1_555
C9 C1 1.511 1_555 1_555
C10 C9 1.367 1_555 1_555
C11 C10 1.386 1_555 1_555
C12 C11 1.337 1_555 1_555
C13 C12 1.414 1_555 1_555
C14 C13 1.411 1_555 1_555
C15 C14 1.356 1_555 1_555
C16 C15 1.420 1_555 1_555
C17 C16 1.371 1_555 1_555
C18 C9 1.445 1_555 1_555
H1 C1 0.951 1_555 1_555
H3 C2 0.960 1_555 1_555
H4 C2 1.122 1_555 1_555
H5 C4 1.068 1_555 1_555
H6 C5 1.055 1_555 1_555
H7 C6 0.918 1_555 1_555
H8 C7 0.847 1_555 1_555
H9 C8 0.970 1_555 1_555
H10 C10 1.043 1_555 1_555
H11 C11 1.082 1_555 1_555
H12 C12 0.798 1_555 1_555
H13 C14 1.132 1_555 1_555
H14 C15 1.044 1_555 1_555
H15 C16 1.034 1_555 1_555
H16 C17 0.963 1_555 1_555
C7 C8 1.377 1_555 1_555
C13 C18 1.412 1_555 1_555
C17 C18 1.414 1_555 1_555
#END
