
#######################################################################
#
#                 Cambridge Crystallographic Data Centre
#                                CCDC
#
#######################################################################
#
# If this CIF has been generated from an entry in the Cambridge
# Structural Database, then it will include bibliographic, chemical,
# crystal, experimental, refinement or atomic coordinate data resulting
# from the CCDC's data processing and validation procedures.
#
#######################################################################

data_CSD_CIF_JEKGOW
_audit_creation_date 2006-08-21
_audit_creation_method CSD-ConQuest-V1
_database_code_CSD JEKGOW
_database_code_depnum_ccdc_archive 'CCDC 610357'
_chemical_formula_sum 'C50 H40'
_chemical_formula_moiety
;
C50 H40
;
_journal_coden_Cambridge 1336
_journal_volume 8
_journal_year 2006
_journal_page_first 1145
_journal_name_full 'Org.Lett. '
loop_
_publ_author_name
"Xinliang Feng"
"Jishan Wu"
"V.Enkelmann"
"K.Mullen"
_chemical_name_systematic
;
11-(1,1-dimethylethyl)-20-[4-(1,1-dimethylethyl)phenyl]dibenzo[f,j]naphtho[1,2
,3,4-pqr]picene
;
_chemical_melting_point 513.15
_cell_volume   3418.680
_exptl_crystal_colour 'yellow'
_exptl_crystal_density_diffrn 1.245
_exptl_special_details
;
Melting point range 513.15-518.15K

;
_exptl_crystal_description 'prism'
_exptl_crystal_preparation 'dichloromethane'
_diffrn_ambient_temperature 120
#These two values have been output from a single CSD field.
_refine_ls_R_factor_gt 0.0502
_refine_ls_wR_factor_gt 0.0502
_symmetry_cell_setting monoclinic
_symmetry_space_group_name_H-M 'P 21/n'
_symmetry_Int_Tables_number 14
loop_
_symmetry_equiv_pos_site_id
_symmetry_equiv_pos_as_xyz
1 x,y,z
2 1/2-x,1/2+y,1/2-z
3 -x,-y,-z
4 -1/2+x,-1/2-y,-1/2+z
_cell_length_a 12.1176(5)
_cell_length_b 15.0945(6)
_cell_length_c 18.9522(6)
_cell_angle_alpha 90
_cell_angle_beta 99.5309(12)
_cell_angle_gamma 90
_cell_formula_units_Z 4
loop_
_atom_type_symbol
_atom_type_radius_bond
C 0.68
H 0.23
loop_
_atom_site_label
_atom_site_type_symbol
_atom_site_fract_x
_atom_site_fract_y
_atom_site_fract_z
C1 C 0.72921(18) 0.52315(15) 0.04847(11)
C2 C 0.68735(19) 0.52381(14) 0.11372(12)
C3 C 0.69190(19) 0.60435(15) 0.15334(12)
C4 C 0.73464(19) 0.68139(15) 0.12566(12)
C5 C 0.8133(2) 0.66985(14) 0.07852(12)
C6 C 0.80469(19) 0.59239(15) 0.03682(12)
C7 C 0.70011(19) 0.45620(15) -0.00816(12)
C8 C 0.76412(19) 0.45061(15) -0.06386(12)
C9 C 0.6285(2) 0.44514(15) 0.13750(12)
C10 C 0.5083(2) 0.29068(16) 0.16296(13)
C11 C 0.6514(2) 0.61349(15) 0.22193(12)
C12 C 0.6112(2) 0.69624(16) 0.24048(12)
C13 C 0.6858(2) 0.76655(15) 0.14054(12)
C14 C 0.6186(2) 0.77239(15) 0.19417(13)
C15 C 0.90683(19) 0.73107(15) 0.07790(12)
C16 C 1.0964(2) 0.84321(16) 0.08130(14)
C17 C 0.9819(2) 0.71779(16) 0.02960(12)
C18 C 0.8749(2) 0.58354(15) -0.01753(12)
C19 C 0.9628(2) 0.64428(15) -0.02158(12)
C20 C 0.8582(2) 0.51090(15) -0.06575(12)
C21 C 0.4418(2) 0.20464(17) 0.16613(15)
C22 C 1.1941(2) 0.90859(18) 0.08326(15)
C23 C 0.7336(2) 0.38907(17) -0.11941(13)
C24 C 0.6427(2) 0.33378(17) -0.12056(14)
C25 C 0.5782(2) 0.34041(16) -0.06704(14)
C26 C 0.6048(2) 0.40112(15) -0.01268(12)
C27 C 0.6821(2) 0.36345(15) 0.14853(12)
C28 C 0.6228(2) 0.28819(16) 0.16139(13)
C29 C 0.4566(2) 0.37352(16) 0.15622(13)
C30 C 0.5159(2) 0.44952(16) 0.14408(12)
C31 C 0.6591(2) 0.54419(17) 0.27223(12)
C32 C 0.6204(2) 0.55418(18) 0.33608(14)
C33 C 0.5713(3) 0.63388(19) 0.35094(15)
C34 C 0.5677(2) 0.70388(18) 0.30464(14)
C35 C 0.5610(2) 0.85210(17) 0.20102(15)
C36 C 0.5685(2) 0.92239(18) 0.15641(16)
C37 C 0.6320(2) 0.91603(17) 0.10229(16)
C38 C 0.6898(2) 0.83905(16) 0.09417(14)
C39 C 0.9332(2) 0.79760(16) 0.13046(13)
C40 C 1.0241(2) 0.85242(16) 0.13144(14)
C41 C 1.0756(2) 0.77508(16) 0.03258(13)
C42 C 1.0333(2) 0.63009(17) -0.07172(13)
C43 C 1.0171(2) 0.55900(17) -0.11798(13)
C44 C 0.9305(2) 0.50012(16) -0.11549(13)
H1 H 0.77620 0.38570 -0.15710
H2 H 0.62470 0.29150 -0.15780
H3 H 0.51540 0.30260 -0.06770
H4 H 0.55780 0.40670 0.02250
H5 H 0.75990 0.35960 0.14700
H6 H 0.66130 0.23340 0.16960
H7 H 0.37950 0.37760 0.15990
H8 H 0.47930 0.50540 0.14000
H9 H 0.69220 0.48970 0.26180
H10 H 0.62650 0.50680 0.36950
H11 H 0.54070 0.63970 0.39370
H12 H 0.53540 0.75840 0.31580
H13 H 0.51540 0.85670 0.23710
H14 H 0.53090 0.97620 0.16310
H15 H 0.63550 0.96460 0.07080
H16 H 0.73220 0.83410 0.05650
H17 H 0.88670 0.80450 0.16580
H18 H 1.03830 0.89780 0.16650
H19 H 1.12550 0.76640 -0.00050
H20 H 1.09270 0.67050 -0.07400
H21 H 1.06620 0.55050 -0.15160
H22 H 0.91990 0.45150 -0.14780
C45 C 0.4461(3) 0.1541(2) 0.09614(16)
H23 H 0.40550 0.10020 0.09610
H24 H 0.52190 0.14130 0.09300
H25 H 0.41410 0.18910 0.05630
C46 C 0.4947(3) 0.14645(19) 0.22848(15)
H26 H 0.45210 0.09380 0.22940
H27 H 0.56900 0.13170 0.22290
H28 H 0.49610 0.17780 0.27210
C47 C 0.3205(3) 0.2219(2) 0.1738(3)
H29 H 0.28290 0.16690 0.17550
H30 H 0.31750 0.25420 0.21650
H31 H 0.28510 0.25520 0.13380
C48 C 1.2758(2) 0.88173(19) 0.03341(16)
H32 H 1.33420 0.92420 0.03660
H33 H 1.23740 0.87890 -0.01450
H34 H 1.30660 0.82530 0.04730
C49 C 1.1465(3) 0.99976(18) 0.05890(19)
H35 H 1.20610 1.04090 0.05990
H36 H 1.09790 1.01930 0.09020
H37 H 1.10600 0.99560 0.01160
C50 C 1.2587(3) 0.9159(2) 0.16012(17)
H38 H 1.31890 0.95640 0.16120
H39 H 1.20950 0.93650 0.19070
H40 H 1.28720 0.85940 0.17600
loop_
_geom_bond_atom_site_label_1
_geom_bond_atom_site_label_2
_geom_bond_distance
_geom_bond_site_symmetry_1
_geom_bond_site_symmetry_2
C1 C2 1.412 1_555 1_555
C2 C3 1.425 1_555 1_555
C3 C4 1.409 1_555 1_555
C4 C5 1.421 1_555 1_555
C5 C6 1.405 1_555 1_555
C6 C1 1.430 1_555 1_555
C7 C1 1.474 1_555 1_555
C8 C7 1.412 1_555 1_555
C9 C2 1.493 1_555 1_555
C10 C21 1.535 1_555 1_555
C11 C3 1.470 1_555 1_555
C12 C11 1.406 1_555 1_555
C13 C4 1.462 1_555 1_555
C14 C12 1.458 1_555 1_555
C15 C5 1.464 1_555 1_555
C16 C22 1.537 1_555 1_555
C17 C15 1.408 1_555 1_555
C18 C6 1.447 1_555 1_555
C19 C17 1.467 1_555 1_555
C20 C8 1.464 1_555 1_555
C21 C45 1.539 1_555 1_555
C22 C48 1.532 1_555 1_555
C23 C8 1.407 1_555 1_555
C24 C23 1.379 1_555 1_555
C25 C24 1.383 1_555 1_555
C26 C7 1.414 1_555 1_555
C27 C9 1.393 1_555 1_555
C28 C10 1.393 1_555 1_555
C29 C10 1.395 1_555 1_555
C30 C9 1.392 1_555 1_555
C31 C11 1.408 1_555 1_555
C32 C31 1.377 1_555 1_555
C33 C32 1.391 1_555 1_555
C34 C12 1.408 1_555 1_555
C35 C14 1.408 1_555 1_555
C36 C35 1.369 1_555 1_555
C37 C36 1.384 1_555 1_555
C38 C13 1.409 1_555 1_555
C39 C15 1.413 1_555 1_555
C40 C16 1.402 1_555 1_555
C41 C16 1.377 1_555 1_555
C42 C19 1.396 1_555 1_555
C43 C42 1.379 1_555 1_555
C44 C20 1.399 1_555 1_555
H1 C23 0.949 1_555 1_555
H2 C24 0.950 1_555 1_555
H3 C25 0.950 1_555 1_555
H4 C26 0.950 1_555 1_555
H5 C27 0.950 1_555 1_555
H6 C28 0.950 1_555 1_555
H7 C29 0.950 1_555 1_555
H8 C30 0.950 1_555 1_555
H9 C31 0.950 1_555 1_555
H10 C32 0.950 1_555 1_555
H11 C33 0.949 1_555 1_555
H12 C34 0.950 1_555 1_555
H13 C35 0.950 1_555 1_555
H14 C36 0.950 1_555 1_555
H15 C37 0.951 1_555 1_555
H16 C38 0.949 1_555 1_555
H17 C39 0.950 1_555 1_555
H18 C40 0.950 1_555 1_555
H19 C41 0.949 1_555 1_555
H20 C42 0.950 1_555 1_555
H21 C43 0.950 1_555 1_555
H22 C44 0.951 1_555 1_555
C45 H23 0.951 1_555 1_555
H24 C45 0.950 1_555 1_555
H25 C45 0.950 1_555 1_555
C46 C21 1.526 1_555 1_555
H26 C46 0.949 1_555 1_555
H27 C46 0.950 1_555 1_555
H28 C46 0.950 1_555 1_555
C47 C21 1.523 1_555 1_555
H29 C47 0.950 1_555 1_555
H30 C47 0.951 1_555 1_555
H31 C47 0.951 1_555 1_555
C48 H32 0.949 1_555 1_555
H33 C48 0.950 1_555 1_555
H34 C48 0.950 1_555 1_555
C49 C22 1.533 1_555 1_555
H35 C49 0.950 1_555 1_555
H36 C49 0.949 1_555 1_555
H37 C49 0.950 1_555 1_555
C50 C22 1.539 1_555 1_555
H38 C50 0.949 1_555 1_555
H39 C50 0.950 1_555 1_555
H40 C50 0.950 1_555 1_555
C13 C14 1.406 1_555 1_555
C17 C41 1.421 1_555 1_555
C18 C19 1.417 1_555 1_555
C18 C20 1.420 1_555 1_555
C25 C26 1.377 1_555 1_555
C27 C28 1.387 1_555 1_555
C29 C30 1.393 1_555 1_555
C33 C34 1.370 1_555 1_555
C37 C38 1.378 1_555 1_555
C39 C40 1.375 1_555 1_555
C43 C44 1.382 1_555 1_555
#END
