
#######################################################################
#
#                 Cambridge Crystallographic Data Centre
#                                CCDC
#
#######################################################################
#
# If this CIF has been generated from an entry in the Cambridge
# Structural Database, then it will include bibliographic, chemical,
# crystal, experimental, refinement or atomic coordinate data resulting
# from the CCDC's data processing and validation procedures.
#
#######################################################################

data_CSD_CIF_JEWYUI
_audit_creation_date 2018-03-05
_audit_creation_method CSD-ConQuest-V1
_database_code_CSD JEWYUI
_database_code_depnum_ccdc_archive 'CCDC 1557124'
_chemical_formula_sum 'C37 H22'
_chemical_formula_moiety
;
C37 H22
;
_journal_coden_Cambridge 35
_journal_volume 83
_journal_year 2018
_journal_page_first 2640
_journal_name_full 'J.Org.Chem. '
loop_
_publ_author_name
"H.Lee"
"Hyocheol Jung"
"Seokwoo Kang"
"Jin Hyuck Heo"
"Sang Hyuk Im"
"Jongwook Park"
_chemical_name_systematic
;
spiro[fluorene-9,15'-indeno[2,1-g]chrysene]
;
_chemical_melting_point 523.15
_cell_volume   1199.505
_exptl_crystal_colour 'colorless'
_exptl_crystal_density_diffrn 1.292
_exptl_crystal_description 'block'
_exptl_crystal_preparation 'Re-crystallisation from solvent'
_diffrn_ambient_temperature 296
#These two values have been output from a single CSD field.
_refine_ls_R_factor_gt 0.0514
_refine_ls_wR_factor_gt 0.0514
_symmetry_cell_setting triclinic
_symmetry_space_group_name_H-M 'P -1'
_symmetry_Int_Tables_number 2
loop_
_symmetry_equiv_pos_site_id
_symmetry_equiv_pos_as_xyz
1 x,y,z
2 -x,-y,-z
_cell_length_a 11.082(4)
_cell_length_b 11.456(4)
_cell_length_c 11.777(4)
_cell_angle_alpha 92.038(19)
_cell_angle_beta 110.429(19)
_cell_angle_gamma 118.082(16)
_cell_formula_units_Z 2
loop_
_atom_type_symbol
_atom_type_radius_bond
C 0.68
H 0.23
loop_
_atom_site_label
_atom_site_type_symbol
_atom_site_fract_x
_atom_site_fract_y
_atom_site_fract_z
C1 C 0.72754(14) 0.64413(13) 0.20732(11)
C2 C 0.85702(14) 0.63746(12) 0.25132(11)
C3 C 0.85099(15) 0.51334(12) 0.27939(11)
C4 C 0.97953(17) 0.49541(13) 0.33167(11)
C5 C 1.12935(17) 0.60414(15) 0.39389(13)
H1 H 1.14920 0.69310 0.40070
C6 C 1.2467(2) 0.58272(18) 0.44464(15)
H2 H 1.34400 0.65710 0.48630
C7 C 1.2226(2) 0.4510(2) 0.43472(17)
H3 H 1.30310 0.43720 0.46730
C8 C 1.0793(2) 0.34298(18) 0.37648(17)
H4 H 1.06280 0.25500 0.36910
C9 C 0.9554(2) 0.36114(14) 0.32711(13)
C10 C 0.8055(2) 0.24792(15) 0.27726(16)
H5 H 0.78860 0.15990 0.26690
C11 C 0.6878(2) 0.26637(15) 0.24493(15)
H6 H 0.59170 0.19060 0.21930
C12 C 0.70552(17) 0.39852(13) 0.24862(12)
C13 C 0.57702(16) 0.41403(14) 0.22410(12)
C14 C 0.4394(2) 0.30994(17) 0.22329(16)
H7 H 0.42700 0.22500 0.23130
C15 C 0.3250(2) 0.3318(2) 0.21103(19)
H8 H 0.23640 0.26180 0.21110
C16 C 0.33905(19) 0.4574(2) 0.19849(17)
H9 H 0.26140 0.47200 0.19200
C17 C 0.46804(16) 0.55914(18) 0.19573(14)
H10 H 0.47680 0.64260 0.18620
C18 C 0.58877(15) 0.53976(14) 0.20714(12)
C19 C 0.75350(14) 0.76627(13) 0.15891(11)
C20 C 0.65877(17) 0.81346(16) 0.09632(14)
H11 H 0.55710 0.76420 0.07940
C21 C 0.71825(18) 0.93414(16) 0.06003(14)
H12 H 0.65620 0.96690 0.02020
C22 C 0.86830(19) 1.00688(15) 0.08199(15)
H13 H 0.90660 1.08840 0.05770
C23 C 0.96204(17) 0.95890(13) 0.14001(14)
H14 H 1.06280 1.00670 0.15360
C24 C 0.90342(14) 0.83859(12) 0.17740(11)
C25 C 0.98666(13) 0.76889(11) 0.24516(11)
C26 C 1.11292(15) 0.87746(12) 0.36525(12)
C27 C 1.1022(2) 0.92908(16) 0.46651(14)
H15 H 1.01170 0.88930 0.47490
C28 C 1.2314(2) 1.04303(19) 0.55636(16)
H16 H 1.22720 1.07870 0.62610
C29 C 1.3655(2) 1.10332(19) 0.54277(18)
H17 H 1.44930 1.18050 0.60230
C30 C 1.37659(18) 1.05087(16) 0.44271(16)
H18 H 1.46730 1.09130 0.43480
C31 C 1.24981(15) 0.93622(13) 0.35327(13)
C32 C 1.22859(15) 0.85947(13) 0.23870(13)
C33 C 1.32894(18) 0.87208(17) 0.18708(16)
H19 H 1.43010 0.93940 0.22720
C34 C 1.2753(2) 0.78283(19) 0.07532(17)
H20 H 1.34130 0.79050 0.04030
C35 C 1.1259(2) 0.68290(16) 0.01523(15)
H21 H 1.09200 0.62420 -0.06000
C36 C 1.02492(18) 0.66880(13) 0.06592(13)
H22 H 0.92400 0.60100 0.02530
C37 C 1.07679(14) 0.75691(12) 0.17750(11)
loop_
_geom_bond_atom_site_label_1
_geom_bond_atom_site_label_2
_geom_bond_distance
_geom_bond_site_symmetry_1
_geom_bond_site_symmetry_2
C1 C2 1.386 1_555 1_555
C2 C3 1.447 1_555 1_555
C3 C4 1.457 1_555 1_555
C4 C5 1.408 1_555 1_555
C5 H1 0.930 1_555 1_555
C6 C5 1.370 1_555 1_555
H2 C6 0.930 1_555 1_555
C7 C6 1.396 1_555 1_555
H3 C7 0.931 1_555 1_555
C8 C7 1.361 1_555 1_555
H4 C8 0.931 1_555 1_555
C9 C4 1.427 1_555 1_555
C10 C9 1.422 1_555 1_555
H5 C10 0.930 1_555 1_555
C11 C10 1.345 1_555 1_555
H6 C11 0.930 1_555 1_555
C12 C3 1.422 1_555 1_555
C13 C12 1.448 1_555 1_555
C14 C13 1.423 1_555 1_555
H7 C14 0.930 1_555 1_555
C15 C14 1.365 1_555 1_555
H8 C15 0.931 1_555 1_555
C16 C15 1.392 1_555 1_555
H9 C16 0.930 1_555 1_555
C17 C16 1.367 1_555 1_555
H10 C17 0.930 1_555 1_555
C18 C1 1.436 1_555 1_555
C19 C1 1.469 1_555 1_555
C20 C19 1.400 1_555 1_555
H11 C20 0.930 1_555 1_555
C21 C20 1.382 1_555 1_555
H12 C21 0.930 1_555 1_555
C22 C21 1.381 1_555 1_555
H13 C22 0.930 1_555 1_555
C23 C22 1.385 1_555 1_555
H14 C23 0.930 1_555 1_555
C24 C19 1.390 1_555 1_555
C25 C2 1.543 1_555 1_555
C26 C25 1.536 1_555 1_555
C27 C26 1.379 1_555 1_555
H15 C27 0.930 1_555 1_555
C28 C27 1.399 1_555 1_555
H16 C28 0.930 1_555 1_555
C29 C28 1.385 1_555 1_555
H17 C29 0.930 1_555 1_555
C30 C29 1.373 1_555 1_555
H18 C30 0.929 1_555 1_555
C31 C26 1.403 1_555 1_555
C32 C31 1.466 1_555 1_555
C33 C32 1.398 1_555 1_555
H19 C33 0.930 1_555 1_555
C34 C33 1.385 1_555 1_555
H20 C34 0.930 1_555 1_555
C35 C34 1.376 1_555 1_555
H21 C35 0.930 1_555 1_555
C36 C35 1.392 1_555 1_555
H22 C36 0.930 1_555 1_555
C37 C25 1.526 1_555 1_555
C8 C9 1.410 1_555 1_555
C11 C12 1.429 1_555 1_555
C13 C18 1.412 1_555 1_555
C17 C18 1.419 1_555 1_555
C23 C24 1.384 1_555 1_555
C24 C25 1.533 1_555 1_555
C30 C31 1.393 1_555 1_555
C32 C37 1.401 1_555 1_555
C36 C37 1.381 1_555 1_555
#END
