
#######################################################################
#
#                 Cambridge Crystallographic Data Centre
#                                CCDC
#
#######################################################################
#
# If this CIF has been generated from an entry in the Cambridge
# Structural Database, then it will include bibliographic, chemical,
# crystal, experimental, refinement or atomic coordinate data resulting
# from the CCDC's data processing and validation procedures.
#
#######################################################################

data_CSD_CIF_JICZIH
_audit_creation_date 2018-07-16
_audit_creation_method CSD-ConQuest-V1
_database_code_CSD JICZIH
_database_code_depnum_ccdc_archive 'CCDC 949384'
_chemical_formula_sum 'C46 H30'
_chemical_formula_moiety
;
C46 H30
;
_journal_coden_Cambridge 4
_journal_volume 24
_journal_year 2014
_journal_page_first 2064
_journal_name_full 'J.Am.Chem.Soc. '
loop_
_publ_author_name
"Jian-Yong Hu"
"Yong-Jin Pu"
"F.Satoh"
"So Kawata"
"H.Katagiri"
"H.Sasabe"
"Junji Kido"
_chemical_name_systematic
;
9,9'-(1,4-phenylene)bis(10-phenylanthracene)
;
_cell_volume   6106.368
_exptl_crystal_colour 'colorless'
_exptl_crystal_density_diffrn 1.268
_exptl_crystal_description 'Prism'
_diffrn_ambient_temperature 93
#These two values have been output from a single CSD field.
_refine_ls_R_factor_gt 0.072
_refine_ls_wR_factor_gt 0.072
_symmetry_cell_setting monoclinic
_symmetry_space_group_name_H-M 'P 21/c'
_symmetry_Int_Tables_number 14
loop_
_symmetry_equiv_pos_site_id
_symmetry_equiv_pos_as_xyz
1 x,y,z
2 -x,1/2+y,1/2-z
3 -x,-y,-z
4 x,-1/2-y,-1/2+z
_cell_length_a 17.4709(17)
_cell_length_b 35.296(3)
_cell_length_c 10.1108(10)
_cell_angle_alpha 90
_cell_angle_beta 101.652(2)
_cell_angle_gamma 90
_cell_formula_units_Z 8
loop_
_atom_type_symbol
_atom_type_radius_bond
C 0.68
H 0.23
loop_
_atom_site_label
_atom_site_type_symbol
_atom_site_fract_x
_atom_site_fract_y
_atom_site_fract_z
C1 C 0.42024(16) 0.02254(8) 0.2142(3)
C2 C 0.38901(18) 0.00405(8) 0.3130(3)
H1 H 0.40070 0.01300 0.40350
C3 C 0.34078(18) -0.02743(8) 0.2806(3)
H2 H 0.32010 -0.03990 0.34890
C4 C 0.32297(17) -0.04052(8) 0.1489(3)
H3 H 0.28930 -0.06170 0.12640
C5 C 0.35417(16) -0.02273(8) 0.0502(3)
H4 H 0.34260 -0.03200 -0.03990
C6 C 0.40254(16) 0.00874(8) 0.0822(3)
H5 H 0.42360 0.02090 0.01370
C7 C 0.66928(18) 0.01730(8) 0.3472(3)
H6 H 0.69420 -0.00680 0.35560
C8 C 0.59023(16) 0.01964(8) 0.3052(3)
H7 H 0.56090 -0.00300 0.28370
C9 C 0.55028(16) 0.05532(7) 0.2927(3)
C10 C 0.46848(16) 0.05779(7) 0.2492(3)
C11 C 0.43089(16) 0.09320(8) 0.2420(3)
C12 C 0.34757(16) 0.09671(8) 0.2026(3)
H8 H 0.31710 0.07470 0.17490
C13 C 0.31117(17) 0.13062(8) 0.2038(3)
H9 H 0.25590 0.13210 0.17850
C14 C 0.35584(17) 0.16399(8) 0.2431(3)
H10 H 0.33010 0.18770 0.24430
C15 C 0.43525(16) 0.16220(8) 0.2788(3)
H11 H 0.46400 0.18480 0.30380
C16 C 0.47632(16) 0.12714(8) 0.2797(3)
C17 C 0.55857(15) 0.12452(7) 0.3234(3)
C18 C 0.59604(16) 0.08925(7) 0.3293(3)
C19 C 0.67885(16) 0.08527(8) 0.3703(3)
H12 H 0.71000 0.10730 0.39240
C20 C 0.71443(17) 0.05063(8) 0.3785(3)
H13 H 0.76970 0.04890 0.40520
C21 C 0.60537(15) 0.15979(7) 0.3645(3)
C22 C 0.62262(16) 0.18495(7) 0.2682(3)
H14 H 0.60410 0.17970 0.17510
C23 C 0.66621(16) 0.21756(8) 0.3053(3)
H15 H 0.67730 0.23410 0.23730
C24 C 0.69399(15) 0.22635(7) 0.4413(3)
C25 C 0.67763(16) 0.20096(7) 0.5377(3)
H16 H 0.69670 0.20600 0.63080
C26 C 0.63419(15) 0.16855(7) 0.5003(3)
H17 H 0.62370 0.15190 0.56830
C27 C 0.73990(15) 0.26171(7) 0.4850(3)
C28 C 0.70253(15) 0.29738(7) 0.4788(3)
C29 C 0.62300(16) 0.30302(8) 0.4118(3)
H18 H 0.59340 0.28200 0.37080
C30 C 0.58859(16) 0.33788(8) 0.4053(3)
H19 H 0.53620 0.34090 0.35800
C31 C 0.63052(16) 0.36967(8) 0.4688(3)
H20 H 0.60600 0.39380 0.46430
C32 C 0.70611(16) 0.36562(7) 0.5362(3)
H21 H 0.73310 0.38700 0.58000
C33 C 0.74564(15) 0.32986(7) 0.5424(3)
C34 C 0.82445(15) 0.32616(7) 0.6071(3)
C35 C 0.86403(16) 0.29149(7) 0.6000(3)
C36 C 0.94618(16) 0.28717(8) 0.6487(3)
H22 H 0.97530 0.30800 0.69250
C37 C 0.98400(17) 0.25422(8) 0.6344(3)
H23 H 1.03880 0.25240 0.66720
C38 C 0.94175(16) 0.22242(8) 0.5705(3)
H24 H 0.96850 0.19960 0.55870
C39 C 0.86284(16) 0.22477(8) 0.5262(3)
H25 H 0.83500 0.20310 0.48680
C40 C 0.82071(15) 0.25906(7) 0.5375(3)
C41 C 0.86687(15) 0.35859(7) 0.6850(3)
C42 C 0.91667(16) 0.38259(8) 0.6313(3)
H26 H 0.92310 0.37880 0.54120
C43 C 0.95676(17) 0.41177(8) 0.7074(3)
H27 H 0.99070 0.42760 0.66950
C44 C 0.94731(16) 0.41778(8) 0.8380(3)
H28 H 0.97480 0.43770 0.89010
C45 C 0.89783(17) 0.39478(8) 0.8932(3)
H29 H 0.89120 0.39900 0.98300
C46 C 0.85794(16) 0.36560(8) 0.8172(3)
H30 H 0.82380 0.35000 0.85570
C47 C 0.37290(15) 0.13826(7) 0.6533(3)
C48 C 0.41723(18) 0.11424(8) 0.5911(3)
H31 H 0.41780 0.11760 0.49810
C49 C 0.46108(18) 0.08523(9) 0.6628(3)
H32 H 0.49200 0.06920 0.61900
C50 C 0.45981(17) 0.07962(8) 0.7977(3)
H33 H 0.49020 0.06000 0.84700
C51 C 0.41393(18) 0.10279(8) 0.8607(3)
H34 H 0.41210 0.09880 0.95290
C52 C 0.37071(16) 0.13181(8) 0.7888(3)
H35 H 0.33920 0.14750 0.83240
C53 C 0.32804(16) 0.17119(7) 0.5801(3)
C54 C 0.36717(16) 0.20544(7) 0.5677(3)
C55 C 0.45013(16) 0.20878(8) 0.6021(3)
H36 H 0.48040 0.18770 0.64070
C56 C 0.48696(17) 0.24159(8) 0.5808(3)
H37 H 0.54240 0.24270 0.60080
C57 C 0.44285(16) 0.27410(8) 0.5289(3)
H38 H 0.46890 0.29700 0.51510
C58 C 0.36407(16) 0.27252(8) 0.4993(3)
H39 H 0.33540 0.29470 0.46730
C59 C 0.32230(15) 0.23840(7) 0.5146(3)
C60 C 0.23998(15) 0.23642(7) 0.4778(3)
C61 C 0.20230(15) 0.20092(7) 0.4767(3)
C62 C 0.11999(16) 0.19641(8) 0.4261(3)
H40 H 0.08900 0.21810 0.39640
C63 C 0.08533(17) 0.16157(8) 0.4197(3)
H41 H 0.03100 0.15910 0.38310
C64 C 0.13022(16) 0.12880(8) 0.4679(3)
H42 H 0.10580 0.10470 0.46270
C65 C 0.20809(16) 0.13203(7) 0.5214(3)
H43 H 0.23690 0.11010 0.55550
C66 C 0.24759(16) 0.16788(7) 0.5273(3)
C67 C 0.19380(15) 0.27212(7) 0.4418(3)
C68 C 0.16188(17) 0.29143(8) 0.5381(3)
H44 H 0.16930 0.28170 0.62740
C69 C 0.11925(16) 0.32471(8) 0.5060(3)
H45 H 0.09810 0.33730 0.57350
C70 C 0.10740(15) 0.33961(7) 0.3763(3)
C71 C 0.14014(16) 0.32066(8) 0.2812(3)
H46 H 0.13320 0.33050 0.19210
C72 C 0.18277(16) 0.28766(7) 0.3132(3)
H47 H 0.20480 0.27540 0.24590
C73 C 0.06087(15) 0.37523(7) 0.3383(3)
C74 C 0.09939(15) 0.41005(7) 0.3295(3)
C75 C 0.18286(15) 0.41306(8) 0.3543(3)
H48 H 0.21370 0.39090 0.37680
C76 C 0.21897(17) 0.44699(8) 0.3461(3)
H49 H 0.27440 0.44810 0.36180
C77 C 0.17426(17) 0.48070(8) 0.3144(3)
H50 H 0.19990 0.50430 0.31020
C78 C 0.09489(16) 0.47913(8) 0.2902(3)
H51 H 0.06580 0.50180 0.26850
C79 C 0.05393(16) 0.44420(7) 0.2964(3)
C80 C -0.02833(16) 0.44275(7) 0.2717(3)
C81 C -0.06657(15) 0.40782(8) 0.2780(3)
C82 C -0.15030(16) 0.40488(8) 0.2511(3)
H52 H -0.18080 0.42710 0.22910
C83 C -0.18705(17) 0.37113(8) 0.2565(3)
H53 H -0.24250 0.37000 0.23780
C84 C -0.14241(16) 0.33751(8) 0.2901(3)
H54 H -0.16830 0.31400 0.29450
C85 C -0.06298(16) 0.33873(8) 0.3161(3)
H55 H -0.03430 0.31590 0.33780
C86 C -0.02160(16) 0.37353(8) 0.3115(3)
C87 C -0.07607(15) 0.47819(8) 0.2434(3)
C88 C -0.10269(17) 0.49652(8) 0.3472(3)
H56 H -0.08860 0.48700 0.43680
C89 C -0.14964(18) 0.52856(8) 0.3219(3)
H57 H -0.16730 0.54080 0.39400
C90 C -0.17083(17) 0.54276(8) 0.1920(3)
H58 H -0.20340 0.56450 0.17460
C91 C -0.14436(17) 0.52521(8) 0.0878(3)
H59 H -0.15830 0.53500 -0.00130
C92 C -0.09704(16) 0.49302(8) 0.1130(3)
H60 H -0.07900 0.48110 0.04080
loop_
_geom_bond_atom_site_label_1
_geom_bond_atom_site_label_2
_geom_bond_distance
_geom_bond_site_symmetry_1
_geom_bond_site_symmetry_2
C1 C2 1.393 1_555 1_555
C2 H1 0.950 1_555 1_555
C3 C2 1.393 1_555 1_555
H2 C3 0.950 1_555 1_555
C4 C3 1.384 1_555 1_555
H3 C4 0.950 1_555 1_555
C5 C4 1.381 1_555 1_555
H4 C5 0.950 1_555 1_555
C6 C1 1.395 1_555 1_555
H5 C6 0.950 1_555 1_555
C7 H6 0.952 1_555 1_555
C8 C7 1.363 1_555 1_555
H7 C8 0.950 1_555 1_555
C9 C8 1.433 1_555 1_555
C10 C1 1.504 1_555 1_555
C11 C10 1.407 1_555 1_555
C12 C11 1.435 1_555 1_555
H8 C12 0.951 1_555 1_555
C13 C12 1.357 1_555 1_555
H9 C13 0.949 1_555 1_555
C14 C13 1.424 1_555 1_555
H10 C14 0.951 1_555 1_555
C15 C14 1.363 1_555 1_555
H11 C15 0.949 1_555 1_555
C16 C11 1.445 1_555 1_555
C17 C16 1.419 1_555 1_555
C18 C9 1.446 1_555 1_555
C19 C18 1.429 1_555 1_555
H12 C19 0.950 1_555 1_555
C20 C7 1.416 1_555 1_555
H13 C20 0.951 1_555 1_555
C21 C17 1.501 1_555 1_555
C22 C21 1.395 1_555 1_555
H14 C22 0.950 1_555 1_555
C23 C22 1.389 1_555 1_555
H15 C23 0.951 1_555 1_555
C24 C23 1.398 1_555 1_555
C25 C24 1.395 1_555 1_555
H16 C25 0.950 1_555 1_555
C26 C21 1.398 1_555 1_555
H17 C26 0.950 1_555 1_555
C27 C24 1.501 1_555 1_555
C28 C27 1.414 1_555 1_555
C29 C28 1.431 1_555 1_555
H18 C29 0.950 1_555 1_555
C30 C29 1.365 1_555 1_555
H19 C30 0.949 1_555 1_555
C31 C30 1.421 1_555 1_555
H20 C31 0.950 1_555 1_555
C32 C31 1.366 1_555 1_555
H21 C32 0.951 1_555 1_555
C33 C28 1.449 1_555 1_555
C34 C33 1.406 1_555 1_555
C35 C34 1.415 1_555 1_555
C36 C35 1.428 1_555 1_555
H22 C36 0.951 1_555 1_555
C37 C36 1.360 1_555 1_555
H23 C37 0.950 1_555 1_555
C38 C37 1.425 1_555 1_555
H24 C38 0.951 1_555 1_555
C39 C38 1.363 1_555 1_555
H25 C39 0.950 1_555 1_555
C40 C27 1.407 1_555 1_555
C41 C34 1.498 1_555 1_555
C42 C41 1.400 1_555 1_555
H26 C42 0.950 1_555 1_555
C43 C42 1.388 1_555 1_555
H27 C43 0.950 1_555 1_555
C44 C43 1.380 1_555 1_555
H28 C44 0.949 1_555 1_555
C45 C44 1.383 1_555 1_555
H29 C45 0.950 1_555 1_555
C46 C41 1.399 1_555 1_555
H30 C46 0.951 1_555 1_555
C47 C48 1.382 1_555 1_555
C48 H31 0.950 1_555 1_555
C49 C48 1.392 1_555 1_555
H32 C49 0.951 1_555 1_555
C50 C49 1.383 1_555 1_555
H33 C50 0.950 1_555 1_555
C51 C50 1.387 1_555 1_555
H34 C51 0.950 1_555 1_555
C52 C47 1.397 1_555 1_555
H35 C52 0.950 1_555 1_555
C53 C47 1.510 1_555 1_555
C54 C53 1.407 1_555 1_555
C55 C54 1.425 1_555 1_555
H36 C55 0.950 1_555 1_555
C56 C55 1.363 1_555 1_555
H37 C56 0.949 1_555 1_555
C57 C56 1.422 1_555 1_555
H38 C57 0.952 1_555 1_555
C58 C57 1.349 1_555 1_555
H39 C58 0.950 1_555 1_555
C59 C54 1.444 1_555 1_555
C60 C59 1.413 1_555 1_555
C61 C60 1.414 1_555 1_555
C62 C61 1.435 1_555 1_555
H40 C62 0.951 1_555 1_555
C63 C62 1.366 1_555 1_555
H41 C63 0.951 1_555 1_555
C64 C63 1.427 1_555 1_555
H42 C64 0.948 1_555 1_555
C65 C64 1.364 1_555 1_555
H43 C65 0.949 1_555 1_555
C66 C53 1.404 1_555 1_555
C67 C60 1.501 1_555 1_555
C68 C67 1.394 1_555 1_555
H44 C68 0.950 1_555 1_555
C69 C68 1.394 1_555 1_555
H45 C69 0.950 1_555 1_555
C70 C69 1.389 1_555 1_555
C71 C70 1.386 1_555 1_555
H46 C71 0.950 1_555 1_555
C72 C67 1.388 1_555 1_555
H47 C72 0.951 1_555 1_555
C73 C70 1.504 1_555 1_555
C74 C73 1.413 1_555 1_555
C75 C74 1.433 1_555 1_555
H48 C75 0.951 1_555 1_555
C76 C75 1.364 1_555 1_555
H49 C76 0.950 1_555 1_555
C77 C76 1.424 1_555 1_555
H50 C77 0.951 1_555 1_555
C78 C77 1.360 1_555 1_555
H51 C78 0.950 1_555 1_555
C79 C74 1.445 1_555 1_555
C80 C79 1.409 1_555 1_555
C81 C80 1.410 1_555 1_555
C82 C81 1.437 1_555 1_555
H52 C82 0.949 1_555 1_555
C83 C82 1.360 1_555 1_555
H53 C83 0.950 1_555 1_555
C84 C83 1.423 1_555 1_555
H54 C84 0.950 1_555 1_555
C85 C84 1.360 1_555 1_555
H55 C85 0.951 1_555 1_555
C86 C73 1.413 1_555 1_555
C87 C80 1.499 1_555 1_555
C88 C87 1.390 1_555 1_555
H56 C88 0.951 1_555 1_555
C89 C88 1.390 1_555 1_555
H57 C89 0.951 1_555 1_555
C90 C89 1.385 1_555 1_555
H58 C90 0.950 1_555 1_555
C91 C90 1.380 1_555 1_555
H59 C91 0.950 1_555 1_555
C92 C87 1.397 1_555 1_555
H60 C92 0.950 1_555 1_555
C5 C6 1.394 1_555 1_555
C9 C10 1.411 1_555 1_555
C15 C16 1.430 1_555 1_555
C17 C18 1.402 1_555 1_555
C19 C20 1.367 1_555 1_555
C25 C26 1.383 1_555 1_555
C32 C33 1.434 1_555 1_555
C35 C40 1.445 1_555 1_555
C39 C40 1.433 1_555 1_555
C45 C46 1.386 1_555 1_555
C51 C52 1.388 1_555 1_555
C58 C59 1.433 1_555 1_555
C61 C66 1.444 1_555 1_555
C65 C66 1.437 1_555 1_555
C71 C72 1.385 1_555 1_555
C78 C79 1.433 1_555 1_555
C81 C86 1.445 1_555 1_555
C85 C86 1.431 1_555 1_555
C91 C92 1.398 1_555 1_555
#END
