
#######################################################################
#
#                 Cambridge Crystallographic Data Centre
#                                CCDC
#
#######################################################################
#
# If this CIF has been generated from an entry in the Cambridge
# Structural Database, then it will include bibliographic, chemical,
# crystal, experimental, refinement or atomic coordinate data resulting
# from the CCDC's data processing and validation procedures.
#
#######################################################################

data_CSD_CIF_JILZIO
_audit_creation_date 2008-02-05
_audit_creation_method CSD-ConQuest-V1
_database_code_CSD JILZIO
_database_code_depnum_ccdc_archive 'CCDC 608167'
_chemical_formula_sum 'C38 H34'
_chemical_formula_moiety
;
C38 H34
;
_journal_coden_Cambridge 171
_journal_volume 6
_journal_year 2007
_journal_page_first 982
_journal_name_full 'Photochem.Photobiol.Sci. '
loop_
_publ_author_name
"A.Beeby"
"K.S.Findlay"
"A.E.Goeta"
"L.Porres"
"S.R.Rutter"
"A.L.Thompson"
_chemical_name_systematic
;
9,10-bis(2-(2-t-Butylphenyl)ethynyl)anthracene
;
_cell_volume   1381.864
_exptl_crystal_colour 'pale yellow'
_exptl_crystal_density_diffrn 1.179
_exptl_crystal_description 'block'
_diffrn_ambient_temperature 120
#These two values have been output from a single CSD field.
_refine_ls_R_factor_gt 0.0538
_refine_ls_wR_factor_gt 0.0538
_symmetry_cell_setting monoclinic
_symmetry_space_group_name_H-M 'P 21/n'
_symmetry_Int_Tables_number 14
loop_
_symmetry_equiv_pos_site_id
_symmetry_equiv_pos_as_xyz
1 x,y,z
2 1/2-x,1/2+y,1/2-z
3 -x,-y,-z
4 -1/2+x,-1/2-y,-1/2+z
_cell_length_a 9.5027(6)
_cell_length_b 8.2756(5)
_cell_length_c 17.7737(11)
_cell_angle_alpha 90
_cell_angle_beta 98.642(1)
_cell_angle_gamma 90
_cell_formula_units_Z 2
loop_
_atom_type_symbol
_atom_type_radius_bond
C 0.68
H 0.23
loop_
_atom_site_label
_atom_site_type_symbol
_atom_site_fract_x
_atom_site_fract_y
_atom_site_fract_z
C1 C 0.35501(15) 0.02864(18) 0.00660(8)
C2 C 0.21139(16) 0.0602(2) 0.01601(9)
H1 H 0.1399(17) -0.014(2) -0.0070(9)
C3 C 0.17637(18) 0.1896(2) 0.05667(9)
H2 H 0.079(2) 0.208(2) 0.0622(10)
C4 C 0.28344(17) 0.2983(2) 0.09019(9)
H3 H 0.2559(19) 0.388(2) 0.119(1)
C5 C 0.42178(17) 0.27297(19) 0.08258(9)
H4 H 0.4997(19) 0.350(2) 0.1032(10)
C6 C 0.46321(15) 0.13721(18) 0.04135(8)
C7 C 0.39255(16) -0.10675(18) -0.03457(8)
C8 C 0.28332(16) -0.21401(19) -0.07007(8)
C9 C 0.19301(16) -0.29864(19) -0.10395(9)
C10 C 0.08831(15) -0.40845(18) -0.14263(9)
C11 C 0.05793(17) -0.54492(19) -0.1015(1)
H5 H 0.1042(19) -0.560(2) -0.0488(11)
C12 C -0.03462(17) -0.6633(2) -0.13445(10)
H6 H -0.0524(18) -0.760(2) -0.1067(10)
C13 C -0.09804(17) -0.6446(2) -0.20901(10)
H7 H -0.157(2) -0.728(2) -0.2344(10)
C14 C -0.07110(16) -0.50777(19) -0.24987(9)
H8 H -0.1178(17) -0.4969(19) -0.3012(10)
C15 C 0.02180(15) -0.38572(18) -0.21908(8)
C16 C 0.05184(16) -0.23722(18) -0.26614(9)
C17 C 0.20981(18) -0.2345(2) -0.27589(11)
H9 H 0.234(2) -0.335(3) -0.3042(12)
H10 H 0.2279(19) -0.142(2) -0.3084(10)
H11 H 0.275(2) -0.229(2) -0.2262(11)
C18 C -0.0336(2) -0.2419(2) -0.34664(10)
H12 H -0.010(2) -0.142(3) -0.3751(12)
H13 H -0.139(2) -0.239(2) -0.3453(11)
H14 H -0.0022(19) -0.338(2) -0.3749(10)
C19 C 0.01072(19) -0.0808(2) -0.22781(10)
H15 H 0.027(2) 0.019(2) -0.2610(11)
H16 H 0.0684(19) -0.064(2) -0.1778(11)
H17 H -0.089(2) -0.081(2) -0.2218(10)
C1B C 0.64499(15) -0.02864(18) -0.00660(8)
C2B C 0.78861(16) -0.0602(2) -0.01601(9)
H1B H 0.8601(17) 0.014(2) 0.0070(9)
C3B C 0.82363(18) -0.1896(2) -0.05667(9)
H2B H 0.921(2) -0.208(2) -0.0622(10)
C4B C 0.71656(17) -0.2983(2) -0.09019(9)
H3B H 0.7441(19) -0.388(2) -0.119(1)
C5B C 0.57822(17) -0.27297(19) -0.08258(9)
H4B H 0.5003(19) -0.350(2) -0.1032(10)
C6B C 0.53679(15) -0.13721(18) -0.04135(8)
C7B C 0.60745(16) 0.10675(18) 0.03457(8)
C8B C 0.71668(16) 0.21401(19) 0.07007(8)
C9B C 0.80699(16) 0.29864(19) 0.10395(9)
C10B C 0.91169(15) 0.40845(18) 0.14263(9)
C11B C 0.94207(17) 0.54492(19) 0.1015(1)
H5B H 0.8958(19) 0.560(2) 0.0488(11)
C12B C 1.03462(17) 0.6633(2) 0.13445(10)
H6B H 1.0524(18) 0.760(2) 0.1067(10)
C13B C 1.09804(17) 0.6446(2) 0.20901(10)
H7B H 1.157(2) 0.728(2) 0.2344(10)
C14B C 1.07110(16) 0.50777(19) 0.24987(9)
H8B H 1.1178(17) 0.4969(19) 0.3012(10)
C15B C 0.97820(15) 0.38572(18) 0.21908(8)
C16B C 0.94816(16) 0.23722(18) 0.26614(9)
C17B C 0.79019(18) 0.2345(2) 0.27589(11)
H9B H 0.766(2) 0.335(3) 0.3042(12)
H10B H 0.7721(19) 0.142(2) 0.3084(10)
H11B H 0.725(2) 0.229(2) 0.2262(11)
C18B C 1.0336(2) 0.2419(2) 0.34664(10)
H12B H 1.010(2) 0.142(3) 0.3751(12)
H13B H 1.139(2) 0.239(2) 0.3453(11)
H14B H 1.0022(19) 0.338(2) 0.3749(10)
C19B C 0.98928(19) 0.0808(2) 0.22781(10)
H15B H 0.973(2) -0.019(2) 0.2610(11)
H16B H 0.9316(19) 0.064(2) 0.1778(11)
H17B H 1.089(2) 0.081(2) 0.2218(10)
loop_
_geom_bond_atom_site_label_1
_geom_bond_atom_site_label_2
_geom_bond_distance
_geom_bond_site_symmetry_1
_geom_bond_site_symmetry_2
C1 C2 1.424 1_555 1_555
C2 H1 0.960 1_555 1_555
C3 C2 1.361 1_555 1_555
H2 C3 0.957 1_555 1_555
C4 C3 1.420 1_555 1_555
H3 C4 0.960 1_555 1_555
C5 C4 1.358 1_555 1_555
H4 C5 1.004 1_555 1_555
C6 C1 1.434 1_555 1_555
C7 C1 1.413 1_555 1_555
C8 C7 1.438 1_555 1_555
C9 C8 1.198 1_555 1_555
C10 C9 1.443 1_555 1_555
C11 C10 1.399 1_555 1_555
H5 C11 0.981 1_555 1_555
C12 C11 1.386 1_555 1_555
H6 C12 0.968 1_555 1_555
C13 C12 1.380 1_555 1_555
H7 C13 0.958 1_555 1_555
C14 C13 1.390 1_555 1_555
H8 C14 0.957 1_555 1_555
C15 C10 1.422 1_555 1_555
C16 C15 1.537 1_555 1_555
C17 C16 1.537 1_555 1_555
H9 C17 1.016 1_555 1_555
H10 C17 0.990 1_555 1_555
H11 C17 1.001 1_555 1_555
C18 C16 1.536 1_555 1_555
H12 C18 1.012 1_555 1_555
H13 C18 1.006 1_555 1_555
H14 C18 1.009 1_555 1_555
C19 C16 1.540 1_555 1_555
H15 C19 1.040 1_555 1_555
H16 C19 0.982 1_555 1_555
H17 C19 0.969 1_555 1_555
C1B C2B 1.424 1_555 1_555
C2B H1B 0.960 1_555 1_555
C3B C2B 1.361 1_555 1_555
H2B C3B 0.957 1_555 1_555
C4B C3B 1.420 1_555 1_555
H3B C4B 0.960 1_555 1_555
C5B C4B 1.358 1_555 1_555
H4B C5B 1.004 1_555 1_555
C6B C7 1.416 1_555 1_555
C7B C6 1.416 1_555 1_555
C8B C7B 1.438 1_555 1_555
C9B C8B 1.198 1_555 1_555
C10B C9B 1.443 1_555 1_555
C11B C10B 1.399 1_555 1_555
H5B C11B 0.981 1_555 1_555
C12B C11B 1.386 1_555 1_555
H6B C12B 0.968 1_555 1_555
C13B C12B 1.380 1_555 1_555
H7B C13B 0.958 1_555 1_555
C14B C13B 1.390 1_555 1_555
H8B C14B 0.957 1_555 1_555
C15B C10B 1.422 1_555 1_555
C16B C15B 1.537 1_555 1_555
C17B C16B 1.537 1_555 1_555
H9B C17B 1.016 1_555 1_555
H10B C17B 0.990 1_555 1_555
H11B C17B 1.001 1_555 1_555
C18B C16B 1.536 1_555 1_555
H12B C18B 1.012 1_555 1_555
H13B C18B 1.006 1_555 1_555
H14B C18B 1.009 1_555 1_555
C19B C16B 1.540 1_555 1_555
H15B C19B 1.040 1_555 1_555
H16B C19B 0.982 1_555 1_555
H17B C19B 0.969 1_555 1_555
C5 C6 1.429 1_555 1_555
C14 C15 1.398 1_555 1_555
C1B C6B 1.434 1_555 1_555
C1B C7B 1.413 1_555 1_555
C5B C6B 1.429 1_555 1_555
C14B C15B 1.398 1_555 1_555
#END
