
#######################################################################
#
#                 Cambridge Crystallographic Data Centre
#                                CCDC
#
#######################################################################
#
# If this CIF has been generated from an entry in the Cambridge
# Structural Database, then it will include bibliographic, chemical,
# crystal, experimental, refinement or atomic coordinate data resulting
# from the CCDC's data processing and validation procedures.
#
#######################################################################

data_CSD_CIF_JINYAH
_audit_creation_date 2008-02-05
_audit_creation_method CSD-ConQuest-V1
_database_code_CSD JINYAH
_database_code_depnum_ccdc_archive 'CCDC 655660'
_chemical_formula_sum 'C40 H26'
_chemical_formula_moiety
;
C40 H26
;
_journal_coden_Cambridge 1078
_journal_year 2007
_journal_name_full 'CSD Communication(Private Communication) '
loop_
_publ_author_name
"P.Kasak"
"M.Widhalm"
"K.Mereiter"
_chemical_name_systematic
;
1,2':1',1'':2'',1'''-Quaternaphthalene
;
_cell_volume   2618.340
_exptl_crystal_colour 'colorless'
_exptl_crystal_density_diffrn 1.285
_exptl_special_details
;
contribution from Department of Chemistry, Vienna University of Technology, 
Getreidemarkt 9, A-1060 Vienna, Austria
;
_exptl_crystal_description 'prism'
_exptl_crystal_preparation 'toluene'
_diffrn_ambient_temperature 173
#These two values have been output from a single CSD field.
_refine_ls_R_factor_gt 0.0399
_refine_ls_wR_factor_gt 0.0399
_symmetry_cell_setting monoclinic
_symmetry_space_group_name_H-M 'C 2/c'
_symmetry_Int_Tables_number 15
loop_
_symmetry_equiv_pos_site_id
_symmetry_equiv_pos_as_xyz
1 x,y,z
2 1/2+x,1/2+y,z
3 -x,y,1/2-z
4 1/2-x,1/2+y,1/2-z
5 -x,-y,-z
6 -1/2-x,-1/2-y,-z
7 x,-y,-1/2+z
8 -1/2+x,-1/2-y,-1/2+z
_cell_length_a 14.7084(8)
_cell_length_b 11.2004(6)
_cell_length_c 17.0143(9)
_cell_angle_alpha 90
_cell_angle_beta 110.910(1)
_cell_angle_gamma 90
_cell_formula_units_Z 4
loop_
_atom_type_symbol
_atom_type_radius_bond
C 0.68
H 0.23
loop_
_atom_site_label
_atom_site_type_symbol
_atom_site_fract_x
_atom_site_fract_y
_atom_site_fract_z
C1 C 0.03478(7) 0.41722(9) 0.29473(6)
C2 C 0.10986(7) 0.33620(9) 0.32460(6)
C3 C 0.17897(8) 0.34934(11) 0.40790(6)
H1 H 0.23100 0.29390 0.42810
C4 C 0.17213(8) 0.43926(11) 0.45909(6)
H2 H 0.22090 0.44810 0.51330
C5 C 0.09304(8) 0.5198(1) 0.43240(6)
C6 C 0.08047(10) 0.60823(11) 0.48716(7)
H3 H 0.12870 0.61800 0.54150
C7 C 0.00024(10) 0.67924(11) 0.46293(8)
H4 H -0.00780 0.73730 0.50060
C8 C -0.07093(10) 0.66676(11) 0.38206(8)
H5 H -0.12760 0.71540 0.36590
C9 C -0.05939(8) 0.58516(10) 0.32628(7)
H6 H -0.10700 0.57980 0.27130
C10 C 0.02281(7) 0.50859(9) 0.34967(6)
C11 C 0.12459(7) 0.23357(10) 0.27465(6)
C12 C 0.14694(8) 0.25180(11) 0.20367(7)
H7 H 0.14670 0.33070 0.18310
C13 C 0.17023(9) 0.15525(12) 0.16088(8)
H8 H 0.18540 0.16970 0.11190
C14 C 0.17094(9) 0.04138(12) 0.18956(8)
H9 H 0.18850 -0.02270 0.16120
C15 C 0.14595(8) 0.01761(11) 0.26089(8)
C16 C 0.14256(9) -0.10030(11) 0.29013(9)
H10 H 0.15980 -0.16520 0.26230
C17 C 0.11523(10) -0.12252(12) 0.3571(1)
H11 H 0.11410 -0.20220 0.37590
C18 C 0.08865(9) -0.02782(12) 0.39846(9)
H12 H 0.06840 -0.04380 0.44460
C19 C 0.09166(8) 0.08766(11) 0.37273(7)
H13 H 0.07350 0.15090 0.40130
C20 C 0.12156(7) 0.11421(10) 0.30403(7)
C1B C -0.03478(7) 0.41722(9) 0.20527(6)
C2B C -0.10986(7) 0.33620(9) 0.17540(6)
C3B C -0.17897(8) 0.34934(11) 0.09210(6)
H1B H -0.23100 0.29390 0.07190
C4B C -0.17213(8) 0.43926(11) 0.04091(6)
H2B H -0.22090 0.44810 -0.01330
C5B C -0.09304(8) 0.5198(1) 0.06760(6)
C6B C -0.08047(10) 0.60823(11) 0.01284(7)
H3B H -0.12870 0.61800 -0.04150
C7B C -0.00024(10) 0.67924(11) 0.03707(8)
H4B H 0.00780 0.73730 -0.00060
C8B C 0.07093(10) 0.66676(11) 0.11794(8)
H5B H 0.12760 0.71540 0.13410
C9B C 0.05939(8) 0.58516(10) 0.17372(7)
H6B H 0.10700 0.57980 0.22870
C10B C -0.02281(7) 0.50859(9) 0.15033(6)
C11B C -0.12459(7) 0.23357(10) 0.22535(6)
C12B C -0.14694(8) 0.25180(11) 0.29633(7)
H7B H -0.14670 0.33070 0.31690
C13B C -0.17023(9) 0.15525(12) 0.33912(8)
H8B H -0.18540 0.16970 0.38810
C14B C -0.17094(9) 0.04138(12) 0.31044(8)
H9B H -0.18850 -0.02270 0.33880
C15B C -0.14595(8) 0.01761(11) 0.23911(8)
C16B C -0.14256(9) -0.10030(11) 0.20987(9)
H10B H -0.15980 -0.16520 0.23770
C17B C -0.11523(10) -0.12252(12) 0.1429(1)
H11B H -0.11410 -0.20220 0.12410
C18B C -0.08865(9) -0.02782(12) 0.10154(9)
H12B H -0.06840 -0.04380 0.05540
C19B C -0.09166(8) 0.08766(11) 0.12727(7)
H13B H -0.07350 0.15090 0.09870
C20B C -0.12156(7) 0.11421(10) 0.19597(7)
loop_
_geom_bond_atom_site_label_1
_geom_bond_atom_site_label_2
_geom_bond_distance
_geom_bond_site_symmetry_1
_geom_bond_site_symmetry_2
C1 C2 1.379 1_555 1_555
C2 C3 1.427 1_555 1_555
C3 H1 0.950 1_555 1_555
C4 C3 1.359 1_555 1_555
H2 C4 0.950 1_555 1_555
C5 C4 1.413 1_555 1_555
C6 C5 1.416 1_555 1_555
H3 C6 0.950 1_555 1_555
C7 C6 1.359 1_555 1_555
H4 C7 0.950 1_555 1_555
C8 C7 1.407 1_555 1_555
H5 C8 0.951 1_555 1_555
C9 C8 1.371 1_555 1_555
H6 C9 0.949 1_555 1_555
C10 C1 1.439 1_555 1_555
C11 C2 1.491 1_555 1_555
C12 C11 1.375 1_555 1_555
H7 C12 0.950 1_555 1_555
C13 C12 1.412 1_555 1_555
H8 C13 0.950 1_555 1_555
C14 C13 1.364 1_555 1_555
H9 C14 0.951 1_555 1_555
C15 C14 1.413 1_555 1_555
C16 C15 1.418 1_555 1_555
H10 C16 0.950 1_555 1_555
C17 C16 1.360 1_555 1_555
H11 C17 0.950 1_555 1_555
C18 C17 1.403 1_555 1_555
H12 C18 0.951 1_555 1_555
C19 C18 1.371 1_555 1_555
H13 C19 0.950 1_555 1_555
C20 C11 1.434 1_555 1_555
C1B C1 1.501 1_555 1_555
C2B C1B 1.379 1_555 1_555
C3B C2B 1.427 1_555 1_555
H1B C3B 0.950 1_555 1_555
C4B C3B 1.359 1_555 1_555
H2B C4B 0.950 1_555 1_555
C5B C4B 1.413 1_555 1_555
C6B C5B 1.416 1_555 1_555
H3B C6B 0.950 1_555 1_555
C7B C6B 1.359 1_555 1_555
H4B C7B 0.950 1_555 1_555
C8B C7B 1.407 1_555 1_555
H5B C8B 0.951 1_555 1_555
C9B C8B 1.371 1_555 1_555
H6B C9B 0.949 1_555 1_555
C10B C1B 1.439 1_555 1_555
C11B C2B 1.491 1_555 1_555
C12B C11B 1.375 1_555 1_555
H7B C12B 0.950 1_555 1_555
C13B C12B 1.412 1_555 1_555
H8B C13B 0.950 1_555 1_555
C14B C13B 1.364 1_555 1_555
H9B C14B 0.951 1_555 1_555
C15B C14B 1.413 1_555 1_555
C16B C15B 1.418 1_555 1_555
H10B C16B 0.950 1_555 1_555
C17B C16B 1.360 1_555 1_555
H11B C17B 0.950 1_555 1_555
C18B C17B 1.403 1_555 1_555
H12B C18B 0.951 1_555 1_555
C19B C18B 1.371 1_555 1_555
H13B C19B 0.950 1_555 1_555
C20B C11B 1.434 1_555 1_555
C5 C10 1.423 1_555 1_555
C9 C10 1.419 1_555 1_555
C15 C20 1.423 1_555 1_555
C19 C20 1.420 1_555 1_555
C5B C10B 1.423 1_555 1_555
C9B C10B 1.419 1_555 1_555
C15B C20B 1.423 1_555 1_555
C19B C20B 1.420 1_555 1_555
#END
