
#######################################################################
#
#                 Cambridge Crystallographic Data Centre
#                                CCDC
#
#######################################################################
#
# If this CIF has been generated from an entry in the Cambridge
# Structural Database, then it will include bibliographic, chemical,
# crystal, experimental, refinement or atomic coordinate data resulting
# from the CCDC's data processing and validation procedures.
#
#######################################################################

data_CSD_CIF_JINYAH01
_audit_creation_date 2014-02-08
_audit_creation_method CSD-ConQuest-V1
_database_code_CSD JINYAH01
_database_code_depnum_ccdc_archive 'CCDC 950188'
_chemical_formula_sum 'C40 H26'
_chemical_formula_moiety
;
C40 H26
;
_journal_coden_Cambridge 1090
_journal_volume 24
_journal_year 2013
_journal_page_first 1303
_journal_name_full 'Tetrahedron:Asymm. '
loop_
_publ_author_name
"M.Ehn"
"N.Georgiev Vassilev"
"P.Kasak"
"B.Horvath"
"K.Mereiter"
"E.Rakovsky"
"M.Putala"
_chemical_name_systematic
;
1,2':1',1'':2'',1'''-Quaternaphthalene
;
_cell_volume   2618.340
_exptl_crystal_colour 'colorless'
_exptl_crystal_density_diffrn 1.285
_exptl_crystal_description 'prism'
_diffrn_ambient_temperature 173
#These two values have been output from a single CSD field.
_refine_ls_R_factor_gt 0.0399
_refine_ls_wR_factor_gt 0.0399
_symmetry_cell_setting monoclinic
_symmetry_space_group_name_H-M 'C 2/c'
_symmetry_Int_Tables_number 15
loop_
_symmetry_equiv_pos_site_id
_symmetry_equiv_pos_as_xyz
1 x,y,z
2 -x,y,1/2-z
3 1/2+x,1/2+y,z
4 1/2-x,1/2+y,1/2-z
5 -x,-y,-z
6 x,-y,-1/2+z
7 -1/2-x,-1/2-y,-z
8 -1/2+x,-1/2-y,-1/2+z
_cell_length_a 14.7084(8)
_cell_length_b 11.2004(6)
_cell_length_c 17.0143(9)
_cell_angle_alpha 90
_cell_angle_beta 110.910(1)
_cell_angle_gamma 90
_cell_formula_units_Z 4
loop_
_atom_type_symbol
_atom_type_radius_bond
C 0.68
H 0.23
loop_
_atom_site_label
_atom_site_type_symbol
_atom_site_fract_x
_atom_site_fract_y
_atom_site_fract_z
C1 C 0.03478(7) 0.41722(9) 0.29473(6)
C2 C 0.10986(7) 0.33620(9) 0.32460(6)
C3 C 0.17897(8) 0.34934(11) 0.40790(6)
H1 H 0.23100 0.29390 0.42810
C4 C 0.17213(8) 0.43926(11) 0.45909(6)
H2 H 0.22090 0.44810 0.51330
C5 C 0.09304(8) 0.5198(1) 0.43240(6)
C6 C 0.08047(10) 0.60823(11) 0.48716(7)
H3 H 0.12870 0.61800 0.54150
C7 C 0.00024(10) 0.67924(11) 0.46293(8)
H4 H -0.00780 0.73730 0.50060
C8 C -0.07093(10) 0.66676(11) 0.38206(8)
H5 H -0.12760 0.71540 0.36590
C9 C -0.05939(8) 0.58516(10) 0.32628(7)
H6 H -0.10700 0.57980 0.27130
C10 C 0.02281(7) 0.50859(9) 0.34967(6)
C11 C 0.12459(7) 0.23357(10) 0.27465(6)
C12 C 0.14694(8) 0.25180(11) 0.20367(7)
H7 H 0.14670 0.33070 0.18310
C13 C 0.17023(9) 0.15525(12) 0.16088(8)
H8 H 0.18540 0.16970 0.11190
C14 C 0.17094(9) 0.04138(12) 0.18956(8)
H9 H 0.18850 -0.02270 0.16120
C15 C 0.14595(8) 0.01761(11) 0.26089(8)
C16 C 0.14256(9) -0.10030(11) 0.29013(9)
H10 H 0.15980 -0.16520 0.26230
C17 C 0.11523(10) -0.12252(12) 0.3571(1)
H11 H 0.11410 -0.20220 0.37590
C18 C 0.08865(9) -0.02782(12) 0.39846(9)
H12 H 0.06840 -0.04380 0.44460
C19 C 0.09166(8) 0.08766(11) 0.37273(7)
H13 H 0.07350 0.15090 0.40130
C20 C 0.12156(7) 0.11421(10) 0.30403(7)
C1A C -0.03478(7) 0.41722(9) 0.20527(6)
C2A C -0.10986(7) 0.33620(9) 0.17540(6)
C3A C -0.17897(8) 0.34934(11) 0.09210(6)
H1A H -0.23100 0.29390 0.07190
C4A C -0.17213(8) 0.43926(11) 0.04091(6)
H2A H -0.22090 0.44810 -0.01330
C5A C -0.09304(8) 0.5198(1) 0.06760(6)
C6A C -0.08047(10) 0.60823(11) 0.01284(7)
H3A H -0.12870 0.61800 -0.04150
C7A C -0.00024(10) 0.67924(11) 0.03707(8)
H4A H 0.00780 0.73730 -0.00060
C8A C 0.07093(10) 0.66676(11) 0.11794(8)
H5A H 0.12760 0.71540 0.13410
C9A C 0.05939(8) 0.58516(10) 0.17372(7)
H6A H 0.10700 0.57980 0.22870
C10A C -0.02281(7) 0.50859(9) 0.15033(6)
C11A C -0.12459(7) 0.23357(10) 0.22535(6)
C12A C -0.14694(8) 0.25180(11) 0.29633(7)
H7A H -0.14670 0.33070 0.31690
C13A C -0.17023(9) 0.15525(12) 0.33912(8)
H8A H -0.18540 0.16970 0.38810
C14A C -0.17094(9) 0.04138(12) 0.31044(8)
H9A H -0.18850 -0.02270 0.33880
C15A C -0.14595(8) 0.01761(11) 0.23911(8)
C16A C -0.14256(9) -0.10030(11) 0.20987(9)
H10A H -0.15980 -0.16520 0.23770
C17A C -0.11523(10) -0.12252(12) 0.1429(1)
H11A H -0.11410 -0.20220 0.12410
C18A C -0.08865(9) -0.02782(12) 0.10154(9)
H12A H -0.06840 -0.04380 0.05540
C19A C -0.09166(8) 0.08766(11) 0.12727(7)
H13A H -0.07350 0.15090 0.09870
C20A C -0.12156(7) 0.11421(10) 0.19597(7)
loop_
_geom_bond_atom_site_label_1
_geom_bond_atom_site_label_2
_geom_bond_distance
_geom_bond_site_symmetry_1
_geom_bond_site_symmetry_2
C1 C2 1.379 1_555 1_555
C2 C3 1.427 1_555 1_555
C3 H1 0.950 1_555 1_555
C4 C3 1.359 1_555 1_555
H2 C4 0.950 1_555 1_555
C5 C4 1.413 1_555 1_555
C6 C5 1.416 1_555 1_555
H3 C6 0.950 1_555 1_555
C7 C6 1.359 1_555 1_555
H4 C7 0.950 1_555 1_555
C8 C7 1.407 1_555 1_555
H5 C8 0.951 1_555 1_555
C9 C8 1.371 1_555 1_555
H6 C9 0.949 1_555 1_555
C10 C1 1.439 1_555 1_555
C11 C2 1.491 1_555 1_555
C12 C11 1.375 1_555 1_555
H7 C12 0.950 1_555 1_555
C13 C12 1.412 1_555 1_555
H8 C13 0.950 1_555 1_555
C14 C13 1.364 1_555 1_555
H9 C14 0.951 1_555 1_555
C15 C14 1.413 1_555 1_555
C16 C15 1.418 1_555 1_555
H10 C16 0.950 1_555 1_555
C17 C16 1.360 1_555 1_555
H11 C17 0.950 1_555 1_555
C18 C17 1.403 1_555 1_555
H12 C18 0.951 1_555 1_555
C19 C18 1.371 1_555 1_555
H13 C19 0.950 1_555 1_555
C20 C11 1.434 1_555 1_555
C1A C1 1.501 1_555 1_555
C2A C1A 1.379 1_555 1_555
C3A C2A 1.427 1_555 1_555
H1A C3A 0.950 1_555 1_555
C4A C3A 1.359 1_555 1_555
H2A C4A 0.950 1_555 1_555
C5A C4A 1.413 1_555 1_555
C6A C5A 1.416 1_555 1_555
H3A C6A 0.950 1_555 1_555
C7A C6A 1.359 1_555 1_555
H4A C7A 0.950 1_555 1_555
C8A C7A 1.407 1_555 1_555
H5A C8A 0.951 1_555 1_555
C9A C8A 1.371 1_555 1_555
H6A C9A 0.949 1_555 1_555
C10A C1A 1.439 1_555 1_555
C11A C2A 1.491 1_555 1_555
C12A C11A 1.375 1_555 1_555
H7A C12A 0.950 1_555 1_555
C13A C12A 1.412 1_555 1_555
H8A C13A 0.950 1_555 1_555
C14A C13A 1.364 1_555 1_555
H9A C14A 0.951 1_555 1_555
C15A C14A 1.413 1_555 1_555
C16A C15A 1.418 1_555 1_555
H10A C16A 0.950 1_555 1_555
C17A C16A 1.360 1_555 1_555
H11A C17A 0.950 1_555 1_555
C18A C17A 1.403 1_555 1_555
H12A C18A 0.951 1_555 1_555
C19A C18A 1.371 1_555 1_555
H13A C19A 0.950 1_555 1_555
C20A C11A 1.434 1_555 1_555
C5 C10 1.423 1_555 1_555
C9 C10 1.419 1_555 1_555
C15 C20 1.423 1_555 1_555
C19 C20 1.420 1_555 1_555
C5A C10A 1.423 1_555 1_555
C9A C10A 1.419 1_555 1_555
C15A C20A 1.423 1_555 1_555
C19A C20A 1.420 1_555 1_555
#END
