
#######################################################################
#
#                 Cambridge Crystallographic Data Centre
#                                CCDC
#
#######################################################################
#
# If this CIF has been generated from an entry in the Cambridge
# Structural Database, then it will include bibliographic, chemical,
# crystal, experimental, refinement or atomic coordinate data resulting
# from the CCDC's data processing and validation procedures.
#
#######################################################################

data_CSD_CIF_JOGMOI
_audit_creation_date 2009-02-06
_audit_creation_method CSD-ConQuest-V1
_database_code_CSD JOGMOI
_database_code_depnum_ccdc_archive 'CCDC 703195'
_chemical_formula_sum 'C38 H22'
_chemical_formula_moiety
;
C38 H22
;
_journal_coden_Cambridge 4
_journal_volume 130
_journal_year 2008
_journal_page_first 10729
_journal_name_full 'J.Am.Chem.Soc. '
loop_
_publ_author_name
"Yao-Ting Wu"
"D.Bandera"
"R.Maag"
"A.Linden"
"K.K.Baldridge"
"J.S.Siegel"
_chemical_name_systematic
;
1,6-bis(Phenylethynyl)-2,5-dimethylcorannulene
;
_chemical_melting_point 537.15
_cell_volume   2543.601
_exptl_crystal_colour 'yellow'
_exptl_crystal_density_diffrn 1.25
_exptl_special_details
;
Melting point range 537.15-539.15K
fluorescent

;
_exptl_crystal_description 'plate'
_exptl_crystal_preparation 'dichloromethane/methanol'
_diffrn_ambient_temperature 160
#These two values have been output from a single CSD field.
_refine_ls_R_factor_gt 0.0433
_refine_ls_wR_factor_gt 0.0433
_symmetry_cell_setting orthorhombic
_symmetry_space_group_name_H-M 'P c a 21'
_symmetry_Int_Tables_number 29
loop_
_symmetry_equiv_pos_site_id
_symmetry_equiv_pos_as_xyz
1 x,y,z
2 -x,-y,1/2+z
3 1/2-x,y,1/2+z
4 1/2+x,-y,z
_cell_length_a 15.4564(6)
_cell_length_b 22.1904(10)
_cell_length_c 7.4161(2)
_cell_angle_alpha 90
_cell_angle_beta 90
_cell_angle_gamma 90
_cell_formula_units_Z 4
loop_
_atom_type_symbol
_atom_type_radius_bond
C 0.68
H 0.23
loop_
_atom_site_label
_atom_site_type_symbol
_atom_site_fract_x
_atom_site_fract_y
_atom_site_fract_z
C1 C 0.12432(18) 0.36916(13) 0.3534(4)
C2 C 0.07157(17) 0.31954(12) 0.3961(4)
C3 C 0.12322(17) 0.26720(13) 0.3887(4)
C4 C 0.20836(18) 0.28438(13) 0.3453(4)
C5 C 0.20948(17) 0.34745(13) 0.3229(4)
C6 C 0.02443(18) 0.43386(14) 0.4987(4)
H1 H 0.00510 0.47330 0.52800
C7 C -0.02712(18) 0.38512(14) 0.5406(4)
H2 H -0.08130 0.39210 0.59730
C8 C -0.00161(18) 0.32386(13) 0.5014(4)
C9 C -0.02939(19) 0.26733(14) 0.5800(4)
H3 H -0.08380 0.26550 0.63940
C10 C 0.0208(2) 0.21610(14) 0.5711(4)
H4 H 0.00000 0.18010 0.62530
C11 C 0.10416(19) 0.21532(13) 0.4821(4)
C12 C 0.17782(19) 0.17444(13) 0.5058(4)
C13 C 0.2630(2) 0.19257(12) 0.4687(4)
C14 C 0.28031(17) 0.25169(12) 0.3969(4)
C15 C 0.35890(18) 0.28600(14) 0.3959(4)
H5 H 0.41230 0.26540 0.41160
C16 C 0.36009(18) 0.34772(14) 0.3728(4)
H6 H 0.41410 0.36810 0.37340
C17 C 0.28199(17) 0.38223(13) 0.3481(4)
C18 C 0.26635(18) 0.44577(12) 0.3785(4)
C19 C 0.18189(18) 0.46711(13) 0.4051(4)
C20 C 0.10745(17) 0.42632(13) 0.4108(4)
C21 C 0.1616(2) 0.11582(15) 0.5777(4)
C22 C 0.1474(2) 0.06618(16) 0.6343(5)
C23 C 0.1353(2) 0.00717(15) 0.7125(5)
C24 C 0.0597(3) -0.02510(17) 0.6908(6)
H7 H 0.01320 -0.00870 0.62290
C25 C 0.0520(3) -0.0816(2) 0.7686(9)
H8 H -0.00020 -0.10360 0.75450
C26 C 0.1184(3) -0.10585(19) 0.8651(7)
H9 H 0.11240 -0.14480 0.91680
C27 C 0.1924(3) -0.07493(17) 0.8873(7)
H10 H 0.23860 -0.09220 0.95400
C28 C 0.2015(3) -0.01847(16) 0.8143(6)
H11 H 0.25360 0.00340 0.83340
C29 C 0.3371(2) 0.15272(14) 0.5196(5)
H12 H 0.36330 0.16740 0.63170
H13 H 0.38050 0.15320 0.42320
H14 H 0.31620 0.11140 0.53720
C30 C 0.34152(18) 0.48834(13) 0.3975(5)
H15 H 0.32640 0.52740 0.34420
H16 H 0.39200 0.47160 0.33520
H17 H 0.35510 0.49380 0.52560
C31 C 0.16888(18) 0.53059(14) 0.4366(4)
C32 C 0.16224(18) 0.58385(15) 0.4571(4)
C33 C 0.15819(18) 0.64833(13) 0.4763(4)
C34 C 0.22499(18) 0.68434(13) 0.4099(5)
H18 H 0.27330 0.66640 0.35150
C35 C 0.2207(2) 0.74584(14) 0.4290(5)
H19 H 0.26590 0.77020 0.38170
C36 C 0.1518(2) 0.77287(14) 0.5160(5)
H20 H 0.14960 0.81540 0.52850
C37 C 0.0861(2) 0.73744(14) 0.5848(5)
H21 H 0.03890 0.75570 0.64580
C38 C 0.08869(18) 0.67536(13) 0.5651(4)
H22 H 0.04320 0.65120 0.61210
loop_
_geom_bond_atom_site_label_1
_geom_bond_atom_site_label_2
_geom_bond_distance
_geom_bond_site_symmetry_1
_geom_bond_site_symmetry_2
C1 C2 1.406 1_555 1_555
C2 C3 1.410 1_555 1_555
C3 C4 1.407 1_555 1_555
C4 C5 1.409 1_555 1_555
C5 C1 1.420 1_555 1_555
C6 H1 0.950 1_555 1_555
C7 C6 1.379 1_555 1_555
H2 C7 0.950 1_555 1_555
C8 C2 1.378 1_555 1_555
C9 C8 1.448 1_555 1_555
H3 C9 0.950 1_555 1_555
C10 C9 1.378 1_555 1_555
H4 C10 0.950 1_555 1_555
C11 C3 1.375 1_555 1_555
C12 C11 1.466 1_555 1_555
C13 C12 1.404 1_555 1_555
C14 C4 1.382 1_555 1_555
C15 C14 1.434 1_555 1_555
H5 C15 0.951 1_555 1_555
C16 C15 1.380 1_555 1_555
H6 C16 0.949 1_555 1_555
C17 C5 1.374 1_555 1_555
C18 C17 1.448 1_555 1_555
C19 C18 1.403 1_555 1_555
C20 C1 1.363 1_555 1_555
C21 C12 1.428 1_555 1_555
C22 C21 1.199 1_555 1_555
C23 C22 1.444 1_555 1_555
C24 C23 1.380 1_555 1_555
H7 C24 0.950 1_555 1_555
C25 C24 1.385 1_555 1_555
H8 C25 0.949 1_555 1_555
C26 C25 1.362 1_555 1_555
H9 C26 0.950 1_555 1_555
C27 C26 1.344 1_555 1_555
H10 C27 0.949 1_555 1_555
C28 C23 1.393 1_555 1_555
H11 C28 0.951 1_555 1_555
C29 C13 1.495 1_555 1_555
H12 C29 0.980 1_555 1_555
H13 C29 0.980 1_555 1_555
H14 C29 0.981 1_555 1_555
C30 C18 1.504 1_555 1_555
H15 C30 0.981 1_555 1_555
H16 C30 0.980 1_555 1_555
H17 C30 0.980 1_555 1_555
C31 C19 1.442 1_555 1_555
C32 C31 1.196 1_555 1_555
C33 C32 1.439 1_555 1_555
C34 C33 1.395 1_555 1_555
H18 C34 0.951 1_555 1_555
C35 C34 1.374 1_555 1_555
H19 C35 0.950 1_555 1_555
C36 C35 1.382 1_555 1_555
H20 C36 0.949 1_555 1_555
C37 C36 1.382 1_555 1_555
H21 C37 0.949 1_555 1_555
C38 C33 1.395 1_555 1_555
H22 C38 0.950 1_555 1_555
C6 C20 1.449 1_555 1_555
C7 C8 1.445 1_555 1_555
C10 C11 1.448 1_555 1_555
C13 C14 1.441 1_555 1_555
C16 C17 1.441 1_555 1_555
C19 C20 1.465 1_555 1_555
C27 C28 1.372 1_555 1_555
C37 C38 1.386 1_555 1_555
#END
