
#######################################################################
#
#                 Cambridge Crystallographic Data Centre
#                                CCDC
#
#######################################################################
#
# If this CIF has been generated from an entry in the Cambridge
# Structural Database, then it will include bibliographic, chemical,
# crystal, experimental, refinement or atomic coordinate data resulting
# from the CCDC's data processing and validation procedures.
#
#######################################################################

data_CSD_CIF_JOGNEZ
_audit_creation_date 2009-02-06
_audit_creation_method CSD-ConQuest-V1
_database_code_CSD JOGNEZ
_database_code_depnum_ccdc_archive 'CCDC 703198'
_chemical_formula_sum 'C70 H50'
_chemical_formula_moiety
;
C70 H50
;
_journal_coden_Cambridge 4
_journal_volume 130
_journal_year 2008
_journal_page_first 10729
_journal_name_full 'J.Am.Chem.Soc. '
loop_
_publ_author_name
"Yao-Ting Wu"
"D.Bandera"
"R.Maag"
"A.Linden"
"K.K.Baldridge"
"J.S.Siegel"
_chemical_name_systematic
;
1,3,5,7,9-pentakis(3,5-Dimethylphenylethynyl)corannulene
;
_chemical_melting_point ?
_cell_volume  10123.522
_exptl_crystal_colour 'yellow'
_exptl_crystal_density_diffrn 1.169
_exptl_special_details
;
Decomposes above 568.15K
fluorescent

;
_exptl_crystal_description 'plate'
_exptl_crystal_preparation 'dichloromethane/chloroform/methanol'
_diffrn_ambient_temperature 260
#These two values have been output from a single CSD field.
_refine_ls_R_factor_gt 0.0635
_refine_ls_wR_factor_gt 0.0635
_symmetry_cell_setting monoclinic
_symmetry_space_group_name_H-M 'P 21/n'
_symmetry_Int_Tables_number 14
loop_
_symmetry_equiv_pos_site_id
_symmetry_equiv_pos_as_xyz
1 x,y,z
2 1/2-x,1/2+y,1/2-z
3 -x,-y,-z
4 -1/2+x,-1/2-y,-1/2+z
_cell_length_a 33.4143(12)
_cell_length_b 7.8392(3)
_cell_length_c 41.0964(16)
_cell_angle_alpha 90
_cell_angle_beta 109.8771(8)
_cell_angle_gamma 90
_cell_formula_units_Z 8
loop_
_atom_type_symbol
_atom_type_radius_bond
C 0.68
H 0.23
loop_
_atom_site_label
_atom_site_type_symbol
_atom_site_fract_x
_atom_site_fract_y
_atom_site_fract_z
C1 C 0.26859(11) 0.2418(4) 0.74813(9)
C2 C 0.23104(11) 0.2423(4) 0.75649(9)
C3 C 0.24240(11) 0.2696(4) 0.79242(9)
C4 C 0.28708(11) 0.2864(4) 0.80630(9)
C5 C 0.30311(11) 0.2693(4) 0.77889(9)
C6 C 0.26884(11) 0.2914(4) 0.71595(10)
C7 C 0.22773(11) 0.3192(4) 0.69045(9)
H1 H 0.22580 0.33790 0.66760
C8 C 0.19072(12) 0.3191(4) 0.69870(9)
C9 C 0.19173(11) 0.2915(4) 0.73342(9)
C10 C 0.16096(10) 0.3429(4) 0.74925(9)
H2 H 0.13280 0.35960 0.73530
C11 C 0.17241(11) 0.3677(4) 0.78467(10)
C12 C 0.21591(11) 0.3468(4) 0.80759(9)
C13 C 0.23662(11) 0.4259(4) 0.84020(9)
H3 H 0.22020 0.46580 0.85290
C14 C 0.28064(12) 0.4453(4) 0.85363(9)
C15 C 0.30780(11) 0.3841(4) 0.83549(9)
C16 C 0.34986(10) 0.4371(4) 0.83844(9)
H4 H 0.36700 0.48590 0.85910
C17 C 0.36612(11) 0.4186(4) 0.81163(9)
C18 C 0.34076(11) 0.3452(4) 0.77904(9)
C19 C 0.34384(11) 0.3720(4) 0.74551(10)
H5 H 0.36980 0.40670 0.74410
C20 C 0.30971(12) 0.3486(4) 0.71502(10)
C21 C 0.15117(12) 0.3640(5) 0.67169(10)
C22 C 0.12005(13) 0.3999(5) 0.64846(10)
C23 C 0.08381(12) 0.4450(6) 0.61844(10)
C24 C 0.06799(12) 0.3315(5) 0.59135(11)
H6 H 0.08000 0.22360 0.59280
C25 C 0.03439(14) 0.3769(7) 0.56216(11)
C26 C 0.01737(14) 0.5384(7) 0.56048(12)
H7 H -0.00490 0.57000 0.54070
C27 C 0.03237(15) 0.6551(6) 0.58718(14)
C28 C 0.06585(13) 0.6074(6) 0.61671(11)
H8 H 0.07620 0.68290 0.63510
C29 C 0.01717(14) 0.2517(6) 0.53245(10)
H9 H 0.00390 0.31330 0.51130
H10 H -0.00340 0.17840 0.53690
H11 H 0.04010 0.18410 0.53030
C30 C 0.01438(15) 0.8354(6) 0.58452(12)
H12 H 0.03640 0.91650 0.58590
H13 H 0.00370 0.85470 0.60310
H14 H -0.00830 0.84850 0.56280
C31 C 0.14183(12) 0.4323(5) 0.79992(10)
C32 C 0.11915(12) 0.4851(5) 0.81436(9)
C33 C 0.09214(12) 0.5475(5) 0.83246(10)
C34 C 0.04865(12) 0.5118(4) 0.82127(9)
H15 H 0.03660 0.44790 0.80120
C35 C 0.02296(11) 0.5691(5) 0.83925(11)
C36 C 0.04212(13) 0.6609(4) 0.86927(10)
H16 H 0.02530 0.69880 0.88180
C37 C 0.08513(13) 0.6992(5) 0.88166(10)
C38 C 0.10974(11) 0.6414(5) 0.86279(10)
H17 H 0.13870 0.66580 0.87050
C39 C -0.02388(10) 0.5302(5) 0.82649(10)
H18 H -0.03570 0.55940 0.84410
H19 H -0.02810 0.41080 0.82130
H20 H -0.03780 0.59550 0.80600
C40 C 0.10453(12) 0.7972(5) 0.91483(10)
H21 H 0.12500 0.72660 0.93140
H22 H 0.08260 0.82990 0.92380
H23 H 0.11840 0.89740 0.91040
C41 C 0.29955(11) 0.5559(5) 0.88326(10)
C42 C 0.31690(12) 0.6529(5) 0.90609(10)
C43 C 0.33797(11) 0.7725(6) 0.9329(1)
C44 C 0.35614(12) 0.7185(5) 0.96677(11)
H24 H 0.35430 0.60420 0.97210
C45 C 0.37694(12) 0.8312(7) 0.99277(11)
C46 C 0.38019(13) 0.9984(7) 0.98411(13)
H25 H 0.39420 1.07490 1.00160
C47 C 0.36346(15) 1.0577(6) 0.95057(15)
C48 C 0.34138(13) 0.9441(6) 0.92547(11)
H26 H 0.32830 0.98280 0.90290
C49 C 0.39605(15) 0.7715(6) 1.0298(1)
H27 H 0.40860 0.66100 1.03030
H28 H 0.37420 0.76470 1.04000
H29 H 0.41750 0.85090 1.04260
C50 C 0.36907(17) 1.2430(6) 0.94168(12)
H30 H 0.38190 1.24680 0.92410
H31 H 0.38700 1.30080 0.96200
H32 H 0.34180 1.29800 0.93340
C51 C 0.40769(13) 0.4903(5) 0.81594(9)
C52 C 0.44207(13) 0.5479(5) 0.82115(9)
C53 C 0.48472(12) 0.6131(5) 0.82954(11)
C54 C 0.50369(13) 0.6980(5) 0.86078(11)
H33 H 0.48810 0.71770 0.87530
C55 C 0.54542(14) 0.7536(5) 0.87043(12)
C56 C 0.56746(12) 0.7232(5) 0.84807(13)
H34 H 0.59560 0.75970 0.85440
C57 C 0.54976(13) 0.6413(5) 0.81679(12)
C58 C 0.50786(12) 0.5856(5) 0.80763(10)
H35 H 0.49530 0.52950 0.78670
C59 C 0.56615(14) 0.8409(6) 0.90470(11)
H36 H 0.59460 0.87390 0.90680
H37 H 0.56710 0.76400 0.92310
H38 H 0.55000 0.94030 0.90600
C60 C 0.57526(12) 0.6060(5) 0.79323(11)
H39 H 0.57550 0.48560 0.78910
H40 H 0.60390 0.64570 0.80400
H41 H 0.56250 0.66440 0.77160
C61 C 0.31145(11) 0.3973(5) 0.68157(11)
C62 C 0.30805(11) 0.4413(5) 0.65292(11)
C63 C 0.30293(11) 0.4867(6) 0.6179(1)
C64 C 0.31825(12) 0.6426(6) 0.61043(11)
H42 H 0.33230 0.71650 0.62840
C65 C 0.31274(13) 0.6884(6) 0.57666(13)
C66 C 0.29233(13) 0.5751(6) 0.55041(11)
H43 H 0.28910 0.60350 0.52770
C67 C 0.27660(12) 0.4204(6) 0.55717(11)
C68 C 0.28193(11) 0.3784(5) 0.59096(11)
H44 H 0.27120 0.27540 0.59570
C69 C 0.32900(15) 0.8589(5) 0.56860(11)
H45 H 0.31180 0.94930 0.57260
H46 H 0.32740 0.86060 0.54480
H47 H 0.35800 0.87440 0.58330
C70 C 0.25450(13) 0.2978(5) 0.52805(10)
H48 H 0.26220 0.18280 0.53560
H49 H 0.26310 0.32180 0.50850
H50 H 0.22420 0.31130 0.52160
C71 C 0.24101(12) 0.2595(4) 0.23784(10)
C72 C 0.22191(12) 0.2478(4) 0.26324(10)
C73 C 0.25443(12) 0.2282(4) 0.29543(10)
C74 C 0.29415(11) 0.2269(4) 0.28986(9)
C75 C 0.28544(12) 0.2465(4) 0.25398(10)
C76 C 0.21948(12) 0.2053(4) 0.20389(10)
C77 C 0.17565(11) 0.1665(4) 0.19633(9)
H51 H 0.15890 0.14700 0.17340
C78 C 0.15652(12) 0.1563(4) 0.22184(11)
C79 C 0.18120(12) 0.1836(4) 0.25752(10)
C80 C 0.17398(11) 0.1215(4) 0.28778(10)
H52 H 0.14630 0.09370 0.28630
C81 C 0.20643(13) 0.1009(4) 0.31929(10)
C82 C 0.24980(12) 0.1422(4) 0.32376(10)
C83 C 0.28825(12) 0.0786(4) 0.34837(9)
H53 H 0.28760 0.03460 0.36920
C84 C 0.32664(12) 0.0803(4) 0.34226(9)
C85 C 0.33017(12) 0.1435(4) 0.31077(9)
C86 C 0.36085(10) 0.0986(4) 0.29476(10)
H54 H 0.38750 0.05890 0.30840
C87 C 0.35133(12) 0.1137(4) 0.25922(11)
C88 C 0.31123(12) 0.1782(4) 0.23677(10)
C89 C 0.29033(12) 0.1492(4) 0.20038(9)
H55 H 0.30680 0.12000 0.18700
C90 C 0.24667(12) 0.1631(4) 0.18449(10)
C91 C 0.11277(13) 0.1030(5) 0.21194(10)
C92 C 0.07673(14) 0.0596(5) 0.20158(10)
C93 C 0.03272(12) 0.0072(5) 0.18649(12)
C94 C 0.01830(14) -0.0682(5) 0.15390(12)
H56 H 0.03720 -0.08420 0.14190
C95 C -0.02333(15) -0.1193(5) 0.13906(12)
C96 C -0.05062(13) -0.0942(5) 0.15739(14)
H57 H -0.07870 -0.13000 0.14760
C97 C -0.03789(13) -0.0176(5) 0.18978(13)
C98 C 0.00433(13) 0.0316(5) 0.20421(10)
H58 H 0.01380 0.08160 0.22600
C99 C -0.03784(14) -0.2028(5) 0.10377(11)
H59 H -0.06840 -0.20490 0.09470
H60 H -0.02710 -0.31740 0.10580
H61 H -0.02720 -0.13920 0.08850
C100 C -0.06910(12) 0.0110(6) 0.20834(11)
H62 H -0.07710 -0.09680 0.21540
H63 H -0.09390 0.06740 0.19310
H64 H -0.05620 0.08070 0.22840
C101 C 0.19871(12) 0.0129(5) 0.34786(11)
C102 C 0.19601(12) -0.0664(5) 0.37183(11)
C103 C 0.19408(11) -0.1724(5) 0.39998(10)
C104 C 0.19492(11) -0.3475(6) 0.39756(10)
H65 H 0.19580 -0.39690 0.37720
C105 C 0.19450(11) -0.4508(5) 0.42442(12)
C106 C 0.19263(12) -0.3770(6) 0.45396(11)
H66 H 0.19200 -0.44640 0.47210
C107 C 0.19162(14) -0.2037(6) 0.45755(11)
C108 C 0.19251(12) -0.1022(5) 0.43043(11)
H67 H 0.19200 0.01580 0.43260
C109 C 0.19650(14) -0.6427(5) 0.42149(11)
H68 H 0.17570 -0.69430 0.42980
H69 H 0.22440 -0.68210 0.43510
H70 H 0.19060 -0.67370 0.39770
C110 C 0.19004(19) -0.1275(6) 0.49098(11)
H71 H 0.19770 -0.21290 0.50880
H72 H 0.16180 -0.08740 0.48760
H73 H 0.20970 -0.03380 0.49770
C111 C 0.36331(13) -0.0060(5) 0.36659(10)
C112 C 0.39382(13) -0.0777(5) 0.38547(10)
C113 C 0.42827(13) -0.1760(6) 0.40903(9)
C114 C 0.42371(13) -0.3500(6) 0.41292(10)
H74 H 0.39870 -0.40410 0.39970
C115 C 0.45573(17) -0.4440(6) 0.43608(12)
C116 C 0.49267(15) -0.3613(7) 0.45487(11)
H75 H 0.51430 -0.42420 0.47060
C117 C 0.49914(14) -0.1884(7) 0.45148(11)
C118 C 0.46636(14) -0.0973(5) 0.42807(10)
H76 H 0.46990 0.01860 0.42500
C119 C 0.44957(15) -0.6309(5) 0.44066(12)
H77 H 0.42750 -0.64640 0.45040
H78 H 0.47560 -0.67910 0.45590
H79 H 0.44170 -0.68690 0.41860
C120 C 0.54006(13) -0.0996(6) 0.47254(11)
H80 H 0.53540 -0.03560 0.49090
H81 H 0.54880 -0.02380 0.45790
H82 H 0.56190 -0.18320 0.48220
C121 C 0.38025(12) 0.0437(5) 0.24262(11)
C122 C 0.40227(12) -0.0124(5) 0.22764(11)
C123 C 0.42926(13) -0.0702(5) 0.20940(11)
C124 C 0.47293(13) -0.0400(5) 0.22187(10)
H83 H 0.48510 0.01320 0.24320
C125 C 0.49835(13) -0.0877(6) 0.20314(12)
C126 C 0.47965(16) -0.1687(5) 0.17174(12)
H84 H 0.49670 -0.20100 0.15900
C127 C 0.43630(17) -0.2037(5) 0.15850(11)
C128 C 0.41130(13) -0.1532(5) 0.17762(12)
H85 H 0.38220 -0.17480 0.16920
C129 C 0.54564(12) -0.0507(6) 0.21617(11)
H86 H 0.55290 0.01250 0.19900
H87 H 0.56120 -0.15620 0.22070
H88 H 0.55280 0.01510 0.23710
C130 C 0.41689(15) -0.2977(6) 0.12437(10)
H89 H 0.39170 -0.35650 0.12430
H90 H 0.43700 -0.37860 0.12160
H91 H 0.40970 -0.21720 0.10570
C131 C 0.22633(12) 0.1126(5) 0.14835(11)
C132 C 0.20876(13) 0.0720(5) 0.11929(11)
C133 C 0.18808(12) 0.0157(7) 0.08416(11)
C134 C 0.16182(13) 0.1222(6) 0.05950(12)
H92 H 0.15770 0.23370 0.06540
C135 C 0.14143(15) 0.0667(8) 0.02610(13)
C136 C 0.14813(18) -0.0974(9) 0.01787(13)
H93 H 0.13480 -0.13450 -0.00470
C137 C 0.17363(18) -0.2095(7) 0.04157(16)
C138 C 0.19393(14) -0.1508(7) 0.07514(12)
H94 H 0.21160 -0.22380 0.09170
C139 C 0.11009(17) 0.1836(7) -0.00039(12)
H95 H 0.12430 0.23780 -0.01440
H96 H 0.09970 0.26910 0.01150
H97 H 0.08660 0.11730 -0.01490
C140 C 0.1809(2) -0.3936(7) 0.03268(14)
H98 H 0.20870 -0.43020 0.04710
H99 H 0.17880 -0.40030 0.00880
H100 H 0.15970 -0.46600 0.03650
loop_
_geom_bond_atom_site_label_1
_geom_bond_atom_site_label_2
_geom_bond_distance
_geom_bond_site_symmetry_1
_geom_bond_site_symmetry_2
C1 C2 1.409 1_555 1_555
C2 C3 1.410 1_555 1_555
C3 C4 1.412 1_555 1_555
C4 C5 1.409 1_555 1_555
C5 C1 1.408 1_555 1_555
C6 C1 1.381 1_555 1_555
C7 C6 1.433 1_555 1_555
H1 C7 0.931 1_555 1_555
C8 C7 1.389 1_555 1_555
C9 C2 1.388 1_555 1_555
C10 C9 1.448 1_555 1_555
H2 C10 0.930 1_555 1_555
C11 C10 1.387 1_555 1_555
C12 C3 1.383 1_555 1_555
C13 C12 1.424 1_555 1_555
H3 C13 0.931 1_555 1_555
C14 C13 1.393 1_555 1_555
C15 C4 1.393 1_555 1_555
C16 C15 1.431 1_555 1_555
H4 C16 0.930 1_555 1_555
C17 C16 1.392 1_555 1_555
C18 C5 1.390 1_555 1_555
C19 C18 1.432 1_555 1_555
H5 C19 0.930 1_555 1_555
C20 C6 1.450 1_555 1_555
C21 C8 1.451 1_555 1_555
C22 C21 1.182 1_555 1_555
C23 C22 1.448 1_555 1_555
C24 C23 1.382 1_555 1_555
H6 C24 0.929 1_555 1_555
C25 C24 1.382 1_555 1_555
C26 C25 1.380 1_555 1_555
H7 C26 0.930 1_555 1_555
C27 C26 1.385 1_555 1_555
C28 C23 1.399 1_555 1_555
H8 C28 0.929 1_555 1_555
C29 C25 1.519 1_555 1_555
H9 C29 0.961 1_555 1_555
H10 C29 0.960 1_555 1_555
H11 C29 0.960 1_555 1_555
C30 C27 1.525 1_555 1_555
H12 C30 0.959 1_555 1_555
H13 C30 0.958 1_555 1_555
H14 C30 0.960 1_555 1_555
C31 C11 1.459 1_555 1_555
C32 C31 1.185 1_555 1_555
C33 C32 1.437 1_555 1_555
C34 C33 1.395 1_555 1_555
H15 C34 0.931 1_555 1_555
C35 C34 1.384 1_555 1_555
C36 C35 1.383 1_555 1_555
H16 C36 0.931 1_555 1_555
C37 C36 1.385 1_555 1_555
C38 C33 1.394 1_555 1_555
H17 C38 0.930 1_555 1_555
C39 C35 1.503 1_555 1_555
H18 C39 0.963 1_555 1_555
H19 C39 0.960 1_555 1_555
H20 C39 0.960 1_555 1_555
C40 C37 1.506 1_555 1_555
H21 C40 0.960 1_555 1_555
H22 C40 0.960 1_555 1_555
H23 C40 0.960 1_555 1_555
C41 C14 1.453 1_555 1_555
C42 C41 1.194 1_555 1_555
C43 C42 1.436 1_555 1_555
C44 C43 1.382 1_555 1_555
H24 C44 0.929 1_555 1_555
C45 C44 1.379 1_555 1_555
C46 C45 1.372 1_555 1_555
H25 C46 0.931 1_555 1_555
C47 C46 1.380 1_555 1_555
C48 C43 1.393 1_555 1_555
H26 C48 0.932 1_555 1_555
C49 C45 1.511 1_555 1_555
H27 C49 0.960 1_555 1_555
H28 C49 0.959 1_555 1_555
H29 C49 0.960 1_555 1_555
C50 C47 1.525 1_555 1_555
H30 C50 0.958 1_555 1_555
H31 C50 0.960 1_555 1_555
H32 C50 0.960 1_555 1_555
C51 C17 1.452 1_555 1_555
C52 C51 1.184 1_555 1_555
C53 C52 1.441 1_555 1_555
C54 C53 1.393 1_555 1_555
H33 C54 0.929 1_555 1_555
C55 C54 1.384 1_555 1_555
C56 C55 1.380 1_555 1_555
H34 C56 0.931 1_555 1_555
C57 C56 1.377 1_555 1_555
C58 C53 1.389 1_555 1_555
H35 C58 0.929 1_555 1_555
C59 C55 1.506 1_555 1_555
H36 C59 0.960 1_555 1_555
H37 C59 0.959 1_555 1_555
H38 C59 0.960 1_555 1_555
C60 C57 1.517 1_555 1_555
H39 C60 0.959 1_555 1_555
H40 C60 0.959 1_555 1_555
H41 C60 0.961 1_555 1_555
C61 C20 1.447 1_555 1_555
C62 C61 1.195 1_555 1_555
C63 C62 1.435 1_555 1_555
C64 C63 1.399 1_555 1_555
H42 C64 0.930 1_555 1_555
C65 C64 1.384 1_555 1_555
C66 C65 1.385 1_555 1_555
H43 C66 0.929 1_555 1_555
C67 C66 1.387 1_555 1_555
C68 C63 1.382 1_555 1_555
H44 C68 0.931 1_555 1_555
C69 C65 1.521 1_555 1_555
H45 C69 0.961 1_555 1_555
H46 C69 0.961 1_555 1_555
H47 C69 0.959 1_555 1_555
C70 C67 1.517 1_555 1_555
H48 C70 0.960 1_555 1_555
H49 C70 0.959 1_555 1_555
H50 C70 0.961 1_555 1_555
C71 C72 1.399 1_555 1_555
C72 C73 1.406 1_555 1_555
C73 C74 1.421 1_555 1_555
C74 C75 1.411 1_555 1_555
C75 C71 1.409 1_555 1_555
C76 C71 1.401 1_555 1_555
C77 C76 1.423 1_555 1_555
H51 C77 0.931 1_555 1_555
C78 C77 1.403 1_555 1_555
C79 C72 1.393 1_555 1_555
C80 C79 1.430 1_555 1_555
H52 C80 0.932 1_555 1_555
C81 C80 1.387 1_555 1_555
C82 C73 1.399 1_555 1_555
C83 C82 1.428 1_555 1_555
H53 C83 0.930 1_555 1_555
C84 C83 1.388 1_555 1_555
C85 C74 1.382 1_555 1_555
C86 C85 1.437 1_555 1_555
H54 C86 0.930 1_555 1_555
C87 C86 1.390 1_555 1_555
C88 C75 1.394 1_555 1_555
C89 C88 1.437 1_555 1_555
H55 C89 0.929 1_555 1_555
C90 C76 1.436 1_555 1_555
C91 C78 1.440 1_555 1_555
C92 C91 1.183 1_555 1_555
C93 C92 1.448 1_555 1_555
C94 C93 1.392 1_555 1_555
H56 C94 0.932 1_555 1_555
C95 C94 1.375 1_555 1_555
C96 C95 1.380 1_555 1_555
H57 C96 0.930 1_555 1_555
C97 C96 1.389 1_555 1_555
C98 C93 1.392 1_555 1_555
H58 C98 0.929 1_555 1_555
C99 C95 1.513 1_555 1_555
H59 C99 0.961 1_555 1_555
H60 C99 0.960 1_555 1_555
H61 C99 0.959 1_555 1_555
C100 C97 1.504 1_555 1_555
H62 C100 0.960 1_555 1_555
H63 C100 0.960 1_555 1_555
H64 C100 0.960 1_555 1_555
C101 C81 1.458 1_555 1_555
C102 C101 1.194 1_555 1_555
C103 C102 1.444 1_555 1_555
C104 C103 1.377 1_555 1_555
H65 C104 0.931 1_555 1_555
C105 C104 1.373 1_555 1_555
C106 C105 1.365 1_555 1_555
H66 C106 0.929 1_555 1_555
C107 C106 1.368 1_555 1_555
C108 C103 1.384 1_555 1_555
H67 C108 0.930 1_555 1_555
C109 C105 1.512 1_555 1_555
H68 C109 0.962 1_555 1_555
H69 C109 0.961 1_555 1_555
H70 C109 0.961 1_555 1_555
C110 C107 1.515 1_555 1_555
H71 C110 0.960 1_555 1_555
H72 C110 0.959 1_555 1_555
H73 C110 0.961 1_555 1_555
C111 C84 1.458 1_555 1_555
C112 C111 1.191 1_555 1_555
C113 C112 1.449 1_555 1_555
C114 C113 1.388 1_555 1_555
H74 C114 0.930 1_555 1_555
C115 C114 1.379 1_555 1_555
C116 C115 1.375 1_555 1_555
H75 C116 0.930 1_555 1_555
C117 C116 1.387 1_555 1_555
C118 C113 1.391 1_555 1_555
H76 C118 0.930 1_555 1_555
C119 C115 1.500 1_555 1_555
H77 C119 0.959 1_555 1_555
H78 C119 0.960 1_555 1_555
H79 C119 0.960 1_555 1_555
C120 C117 1.516 1_555 1_555
H80 C120 0.962 1_555 1_555
H81 C120 0.959 1_555 1_555
H82 C120 0.961 1_555 1_555
C121 C87 1.466 1_555 1_555
C122 C121 1.192 1_555 1_555
C123 C122 1.428 1_555 1_555
C124 C123 1.393 1_555 1_555
H83 C124 0.930 1_555 1_555
C125 C124 1.378 1_555 1_555
C126 C125 1.382 1_555 1_555
H84 C126 0.930 1_555 1_555
C127 C126 1.391 1_555 1_555
C128 C123 1.399 1_555 1_555
H85 C128 0.930 1_555 1_555
C129 C125 1.514 1_555 1_555
H86 C129 0.958 1_555 1_555
H87 C129 0.961 1_555 1_555
H88 C129 0.961 1_555 1_555
C130 C127 1.521 1_555 1_555
H89 C130 0.959 1_555 1_555
H90 C130 0.958 1_555 1_555
H91 C130 0.959 1_555 1_555
C131 C90 1.462 1_555 1_555
C132 C131 1.181 1_555 1_555
C133 C132 1.442 1_555 1_555
C134 C133 1.375 1_555 1_555
H92 C134 0.930 1_555 1_555
C135 C134 1.379 1_555 1_555
C136 C135 1.368 1_555 1_555
H93 C136 0.929 1_555 1_555
C137 C136 1.372 1_555 1_555
C138 C133 1.389 1_555 1_555
H94 C138 0.931 1_555 1_555
C139 C135 1.532 1_555 1_555
H95 C139 0.961 1_555 1_555
H96 C139 0.961 1_555 1_555
H97 C139 0.961 1_555 1_555
C140 C137 1.528 1_555 1_555
H98 C140 0.960 1_555 1_555
H99 C140 0.961 1_555 1_555
H100 C140 0.961 1_555 1_555
C8 C9 1.432 1_555 1_555
C11 C12 1.448 1_555 1_555
C14 C15 1.439 1_555 1_555
C17 C18 1.439 1_555 1_555
C19 C20 1.390 1_555 1_555
C27 C28 1.393 1_555 1_555
C37 C38 1.384 1_555 1_555
C47 C48 1.373 1_555 1_555
C57 C58 1.391 1_555 1_555
C67 C68 1.379 1_555 1_555
C78 C79 1.433 1_555 1_555
C81 C82 1.434 1_555 1_555
C84 C85 1.428 1_555 1_555
C87 C88 1.436 1_555 1_555
C89 C90 1.385 1_555 1_555
C97 C98 1.386 1_555 1_555
C107 C108 1.378 1_555 1_555
C117 C118 1.385 1_555 1_555
C127 C128 1.385 1_555 1_555
C137 C138 1.392 1_555 1_555
#END
