
#######################################################################
#
#                 Cambridge Crystallographic Data Centre
#                                CCDC
#
#######################################################################
#
# If this CIF has been generated from an entry in the Cambridge
# Structural Database, then it will include bibliographic, chemical,
# crystal, experimental, refinement or atomic coordinate data resulting
# from the CCDC's data processing and validation procedures.
#
#######################################################################

data_CSD_CIF_JOKSIN
_audit_creation_date 2014-05-21
_audit_creation_method CSD-ConQuest-V1
_database_code_CSD JOKSIN
_database_code_depnum_ccdc_archive 'CCDC 936751'
_chemical_formula_sum 'C47 H36'
_chemical_formula_moiety
;
C47 H36
;
_journal_coden_Cambridge 24
_journal_volume 55
_journal_year 2014
_journal_page_first 1931
_journal_name_full 'Tetrahedron Lett. '
loop_
_publ_author_name
"S.Kumar"
"D.Karthik"
"K.R.Justin Thomas"
"M.S.Hundal"
_chemical_name_systematic
;
4,4-diethyl-1,2,6,7-tetraphenyl-4H-cyclopenta[def]triphenylene
;
_cell_volume   6517.098
_exptl_crystal_density_diffrn 1.225
_diffrn_ambient_temperature 100
#These two values have been output from a single CSD field.
_refine_ls_R_factor_gt 0.0762
_refine_ls_wR_factor_gt 0.0762
_symmetry_cell_setting monoclinic
_symmetry_space_group_name_H-M 'C 2/c'
_symmetry_Int_Tables_number 15
loop_
_symmetry_equiv_pos_site_id
_symmetry_equiv_pos_as_xyz
1 x,y,z
2 -x,y,1/2-z
3 1/2+x,1/2+y,z
4 1/2-x,1/2+y,1/2-z
5 -x,-y,-z
6 x,-y,-1/2+z
7 -1/2-x,-1/2-y,-z
8 -1/2+x,-1/2-y,-1/2+z
_cell_length_a 32.398(4)
_cell_length_b 10.0914(15)
_cell_length_c 20.407(3)
_cell_angle_alpha 90
_cell_angle_beta 102.366(7)
_cell_angle_gamma 90
_cell_formula_units_Z 8
loop_
_atom_type_symbol
_atom_type_radius_bond
C 0.68
H 0.23
loop_
_atom_site_label
_atom_site_type_symbol
_atom_site_fract_x
_atom_site_fract_y
_atom_site_fract_z
C1 C 0.11943(12) 0.1052(4) 0.08507(19)
C2 C 0.10126(12) 0.2079(4) 0.03034(18)
C3 C 0.06164(12) 0.2219(4) -0.01126(18)
H1 H 0.04030 0.15730 -0.01130
C4 C 0.05361(12) 0.3332(4) -0.05327(19)
C5 C 0.08493(12) 0.4274(4) -0.05707(19)
C6 C 0.12689(11) 0.4076(4) -0.01900(18)
C7 C 0.16666(12) 0.4810(4) -0.02095(18)
C8 C 0.16721(12) 0.5898(4) -0.06400(19)
H2 H 0.14120 0.62260 -0.08940
C9 C 0.20403(12) 0.6501(4) -0.07056(19)
H3 H 0.20310 0.72570 -0.09860
C10 C 0.24246(12) 0.6015(4) -0.03665(19)
H4 H 0.26800 0.63970 -0.04340
C11 C 0.24343(12) 0.4961(4) 0.00746(19)
H5 H 0.27010 0.46260 0.03010
C12 C 0.20692(12) 0.4375(4) 0.01989(18)
C13 C 0.20875(11) 0.3290(4) 0.06929(18)
C14 C 0.24353(12) 0.2881(4) 0.12189(18)
C15 C 0.23744(12) 0.1800(4) 0.16223(18)
C16 C 0.19894(12) 0.1090(4) 0.15271(19)
H6 H 0.19630 0.03390 0.17960
C17 C 0.16531(12) 0.1510(4) 0.10366(19)
C18 C 0.13227(12) 0.2973(4) 0.02228(18)
C19 C 0.17145(12) 0.2618(4) 0.06604(17)
C20 C 0.09891(12) 0.1259(5) 0.1482(2)
H7 H 0.11250 0.06340 0.18370
H8 H 0.10570 0.21670 0.16550
C21 C 0.05181(13) 0.1074(5) 0.1368(2)
H9 H 0.04260 0.12270 0.17890
H10 H 0.04450 0.01680 0.12130
H11 H 0.03770 0.17050 0.10280
C22 C 0.11509(13) -0.0372(4) 0.0605(2)
H12 H 0.12680 -0.09680 0.09850
H13 H 0.08470 -0.05840 0.04530
C23 C 0.13730(13) -0.0643(4) 0.0037(2)
H14 H 0.13330 -0.15740 -0.00980
H15 H 0.16750 -0.04570 0.01870
H16 H 0.12540 -0.00730 -0.03460
C24 C 0.27095(11) 0.1404(4) 0.22273(18)
C25 C 0.28062(12) 0.2267(4) 0.27737(18)
H17 H 0.26810 0.31220 0.27470
C26 C 0.30891(12) 0.1867(4) 0.33622(19)
H18 H 0.31530 0.24510 0.37350
C27 C 0.32729(12) 0.0649(4) 0.3402(2)
H19 H 0.34610 0.03860 0.38040
C28 C 0.31869(13) -0.0215(4) 0.2857(2)
H20 H 0.33200 -0.10570 0.28800
C29 C 0.28988(13) 0.0181(4) 0.2272(2)
H21 H 0.28340 -0.04090 0.19020
C30 C 0.28571(12) 0.3543(4) 0.13800(17)
C31 C 0.29056(12) 0.4823(4) 0.16389(18)
H22 H 0.26640 0.53110 0.16920
C32 C 0.33009(12) 0.5388(4) 0.18194(18)
H23 H 0.33280 0.62600 0.19990
C33 C 0.36571(13) 0.4715(4) 0.17451(19)
H24 H 0.39280 0.51150 0.18700
C34 C 0.36129(13) 0.3432(4) 0.1483(2)
H25 H 0.38560 0.29530 0.14270
C35 C 0.32168(12) 0.2856(4) 0.13030(18)
H26 H 0.31900 0.19820 0.11250
C36 C 0.07184(12) 0.5480(4) -0.09907(19)
C37 C 0.06530(12) 0.6683(4) -0.0697(2)
H27 H 0.06940 0.67350 -0.02230
C38 C 0.05285(12) 0.7818(4) -0.1083(2)
H28 H 0.04850 0.86340 -0.08750
C39 C 0.04691(13) 0.7722(5) -0.1784(2)
H29 H 0.03860 0.84810 -0.20550
C40 C 0.05308(13) 0.6540(5) -0.2078(2)
H30 H 0.04880 0.64880 -0.25530
C41 C 0.06552(13) 0.5416(4) -0.16959(19)
H31 H 0.06980 0.46040 -0.19080
C42 C 0.00991(12) 0.3419(4) -0.09766(19)
C43 C -0.01782(12) 0.4455(5) -0.0918(2)
H32 H -0.00870 0.51500 -0.06070
C44 C -0.05862(14) 0.4476(5) -0.1311(2)
H33 H -0.07730 0.51800 -0.12660
C45 C -0.07196(14) 0.3457(5) -0.1771(2)
H34 H -0.09990 0.34570 -0.20380
C46 C -0.04461(14) 0.2459(5) -0.1836(2)
H35 H -0.05320 0.17820 -0.21600
C47 C -0.00414(13) 0.2433(5) -0.1429(2)
H36 H 0.01410 0.17130 -0.14670
loop_
_geom_bond_atom_site_label_1
_geom_bond_atom_site_label_2
_geom_bond_distance
_geom_bond_site_symmetry_1
_geom_bond_site_symmetry_2
C1 C2 1.545 1_555 1_555
C2 C3 1.386 1_555 1_555
C3 H1 0.950 1_555 1_555
C4 C3 1.403 1_555 1_555
C5 C4 1.405 1_555 1_555
C6 C5 1.428 1_555 1_555
C7 C6 1.494 1_555 1_555
C8 C7 1.409 1_555 1_555
H2 C8 0.949 1_555 1_555
C9 C8 1.371 1_555 1_555
H3 C9 0.950 1_555 1_555
C10 C9 1.379 1_555 1_555
H4 C10 0.949 1_555 1_555
C11 C10 1.389 1_555 1_555
H5 C11 0.950 1_555 1_555
C12 C7 1.457 1_555 1_555
C13 C12 1.481 1_555 1_555
C14 C13 1.440 1_555 1_555
C15 C14 1.406 1_555 1_555
C16 C15 1.415 1_555 1_555
H6 C16 0.950 1_555 1_555
C17 C1 1.525 1_555 1_555
C18 C2 1.386 1_555 1_555
C19 C13 1.375 1_555 1_555
C20 C1 1.585 1_555 1_555
H7 C20 0.990 1_555 1_555
H8 C20 0.990 1_555 1_555
C21 C20 1.505 1_555 1_555
H9 C21 0.980 1_555 1_555
H10 C21 0.980 1_555 1_555
H11 C21 0.980 1_555 1_555
C22 C1 1.519 1_555 1_555
H12 C22 0.990 1_555 1_555
H13 C22 0.990 1_555 1_555
C23 C22 1.514 1_555 1_555
H14 C23 0.980 1_555 1_555
H15 C23 0.979 1_555 1_555
H16 C23 0.980 1_555 1_555
C24 C15 1.513 1_555 1_555
C25 C24 1.397 1_555 1_555
H17 C25 0.950 1_555 1_555
C26 C25 1.405 1_555 1_555
H18 C26 0.949 1_555 1_555
C27 C26 1.361 1_555 1_555
H19 C27 0.949 1_555 1_555
C28 C27 1.394 1_555 1_555
H20 C28 0.949 1_555 1_555
C29 C24 1.372 1_555 1_555
H21 C29 0.949 1_555 1_555
C30 C14 1.493 1_555 1_555
C31 C30 1.392 1_555 1_555
H22 C31 0.950 1_555 1_555
C32 C31 1.378 1_555 1_555
H23 C32 0.950 1_555 1_555
C33 C32 1.375 1_555 1_555
H24 C33 0.950 1_555 1_555
C34 C33 1.396 1_555 1_555
H25 C34 0.952 1_555 1_555
C35 C30 1.393 1_555 1_555
H26 C35 0.951 1_555 1_555
C36 C5 1.497 1_555 1_555
C37 C36 1.390 1_555 1_555
H27 C37 0.949 1_555 1_555
C38 C37 1.400 1_555 1_555
H28 C38 0.951 1_555 1_555
C39 C38 1.405 1_555 1_555
H29 C39 0.949 1_555 1_555
C40 C39 1.369 1_555 1_555
H30 C40 0.951 1_555 1_555
C41 C36 1.411 1_555 1_555
H31 C41 0.951 1_555 1_555
C42 C4 1.511 1_555 1_555
C43 C42 1.400 1_555 1_555
H32 C43 0.950 1_555 1_555
C44 C43 1.392 1_555 1_555
H33 C44 0.950 1_555 1_555
C45 C44 1.397 1_555 1_555
H34 C45 0.951 1_555 1_555
C46 C45 1.367 1_555 1_555
H35 C46 0.950 1_555 1_555
C47 C42 1.367 1_555 1_555
H36 C47 0.950 1_555 1_555
C6 C18 1.384 1_555 1_555
C11 C12 1.393 1_555 1_555
C16 C17 1.379 1_555 1_555
C17 C19 1.394 1_555 1_555
C18 C19 1.432 1_555 1_555
C28 C29 1.407 1_555 1_555
C34 C35 1.385 1_555 1_555
C40 C41 1.387 1_555 1_555
C46 C47 1.394 1_555 1_555
#END
