
#######################################################################
#
#                 Cambridge Crystallographic Data Centre
#                                CCDC
#
#######################################################################
#
# If this CIF has been generated from an entry in the Cambridge
# Structural Database, then it will include bibliographic, chemical,
# crystal, experimental, refinement or atomic coordinate data resulting
# from the CCDC's data processing and validation procedures.
#
#######################################################################

data_CSD_CIF_JULSOY
_audit_creation_date 1993-06-03
_audit_creation_method CSD-ConQuest-V1
_database_code_CSD JULSOY
_chemical_formula_sum 'C42 H22'
_chemical_formula_moiety
;
C42 H22
;
_journal_coden_Cambridge 119
_journal_volume 265
_journal_year 1992
_journal_page_first 283
_journal_name_full 'J.Mol.Struct. '
loop_
_publ_author_name
"I.Oonishi"
"S.Ohshima"
"S.Fujisawa"
"J.Aoki"
"Y.Ohashi"
"T.M.Krygowski"
_chemical_name_systematic
;
Tribenzo(a,h,rst)phenanthra(1,2,10-cde)pentaphene
;
_cell_volume   2469.528
_exptl_crystal_colour 'red-brown'
_exptl_crystal_density_diffrn 1.416
_diffrn_ambient_temperature ?
_diffrn_special_details
;
The study was carried out at room temperature,in the range 283-303K

;
#These two values have been output from a single CSD field.
_refine_ls_R_factor_gt 0.057
_refine_ls_wR_factor_gt 0.057
_symmetry_cell_setting monoclinic
_symmetry_space_group_name_H-M 'P 21/n'
_symmetry_Int_Tables_number 14
loop_
_symmetry_equiv_pos_site_id
_symmetry_equiv_pos_as_xyz
1 x,y,z
2 1/2-x,1/2+y,1/2-z
3 -x,-y,-z
4 -1/2+x,-1/2-y,-1/2+z
_cell_length_a 23.962(4)
_cell_length_b 7.444(3)
_cell_length_c 14.263(3)
_cell_angle_alpha 90
_cell_angle_beta 103.91(10)
_cell_angle_gamma 90
_cell_formula_units_Z 4
loop_
_atom_type_symbol
_atom_type_radius_bond
C 0.68
H 0.23
loop_
_atom_site_label
_atom_site_type_symbol
_atom_site_fract_x
_atom_site_fract_y
_atom_site_fract_z
C1 C 1.0525(2) 0.1618(7) 0.1092(3)
C2 C 1.0456(2) 0.1254(6) 0.2009(3)
C3 C 0.9948(2) 0.1637(6) 0.2241(3)
C4 C 0.9482(2) 0.2409(5) 0.1562(3)
C5 C 0.8942(1) 0.2833(4) 0.1766(2)
C6 C 0.8845(1) 0.2500(5) 0.2699(2)
C7 C 0.8331(1) 0.2809(5) 0.2899(2)
C8 C 0.7851(1) 0.3448(4) 0.2186(2)
C9 C 0.7296(1) 0.3604(4) 0.2364(2)
C10 C 0.7201(1) 0.3796(4) 0.3336(2)
C11 C 0.7626(1) 0.4529(4) 0.4102(2)
C12 C 0.7525(2) 0.4770(5) 0.5006(2)
C13 C 0.6996(2) 0.4318(5) 0.5170(2)
C14 C 0.6569(2) 0.3676(5) 0.4423(2)
C15 C 0.6662(1) 0.3406(4) 0.3499(2)
C16 C 0.6189(1) 0.2884(4) 0.2693(2)
C17 C 0.5679(2) 0.2251(5) 0.2826(2)
C18 C 0.5196(2) 0.1944(5) 0.2049(3)
C19 C 0.4670(2) 0.1350(6) 0.2220(3)
C20 C 0.4194(2) 0.1161(6) 0.1474(3)
C21 C 0.4232(2) 0.1538(6) 0.0539(3)
C22 C 0.4741(2) 0.2070(6) 0.0345(3)
C23 C 0.5239(1) 0.2276(5) 0.1094(3)
C24 C 0.5788(2) 0.2806(5) 0.0938(2)
C25 C 0.5882(2) 0.2952(5) -0.0005(2)
C26 C 0.6399(2) 0.3401(5) -0.0161(2)
C27 C 0.6890(1) 0.3742(4) 0.0614(2)
C28 C 0.7441(2) 0.4120(4) 0.0470(2)
C29 C 0.7536(2) 0.4778(4) -0.0451(2)
C30 C 0.7107(2) 0.5707(5) -0.1121(2)
C31 C 0.7201(2) 0.6332(5) -0.1978(3)
C32 C 0.7742(2) 0.6118(5) -0.2177(3)
C33 C 0.8177(2) 0.5300(5) -0.1515(3)
C34 C 0.8086(2) 0.4611(2) -0.0641(2)
C35 C 0.8562(2) 0.3838(5) 0.0092(2)
C36 C 0.9087(2) 0.3458(6) -0.0086(3)
C37 C 0.9551(2) 0.2742(6) 0.0620(3)
C38 C 1.0084(2) 0.2344(7) 0.0408(3)
C39 C 0.8482(2) 0.3504(4) 0.1042(2)
C40 C 0.7924(1) 0.3734(4) 0.1232(2)
C41 C 0.6818(1) 0.3519(4) 0.1576(2)
C42 C 0.6256(1) 0.3098(4) 0.1727(2)
H1 H 1.092(1) 0.133(4) 0.093(2)
H2 H 1.082(1) 0.065(4) 0.254(2)
H3 H 0.991(1) 0.133(4) 0.295(2)
H4 H 0.917(1) 0.195(4) 0.324(2)
H5 H 0.824(1) 0.252(4) 0.360(2)
H6 H 0.803(1) 0.493(4) 0.398(2)
H7 H 0.786(1) 0.530(4) 0.558(2)
H8 H 0.692(1) 0.448(4) 0.587(2)
H9 H 0.615(1) 0.338(4) 0.453(2)
H10 H 0.564(1) 0.198(4) 0.354(2)
H11 H 0.465(1) 0.103(4) 0.294(2)
H12 H 0.380(1) 0.069(4) 0.161(2)
H13 H 0.387(1) 0.143(4) -0.002(2)
H14 H 0.478(1) 0.233(4) -0.040(2)
H15 H 0.553(1) 0.270(4) -0.060(2)
H16 H 0.645(1) 0.350(4) -0.088(2)
H17 H 0.670(1) 0.596(4) -0.096(2)
H18 H 0.687(1) 0.704(4) -0.247(2)
H19 H 0.781(1) 0.658(4) -0.283(2)
H20 H 0.860(1) 0.521(4) -0.164(2)
H21 H 0.915(1) 0.368(4) -0.078(2)
H22 H 1.013(1) 0.260(4) -0.029(2)
loop_
_geom_bond_atom_site_label_1
_geom_bond_atom_site_label_2
_geom_bond_distance
_geom_bond_site_symmetry_1
_geom_bond_site_symmetry_2
C1 C2 1.384 1_555 1_555
C2 C3 1.366 1_555 1_555
C3 C4 1.412 1_555 1_555
C4 C5 1.428 1_555 1_555
C5 C6 1.427 1_555 1_555
C6 C7 1.349 1_555 1_555
C7 C8 1.422 1_555 1_555
C8 C9 1.417 1_555 1_555
C9 C10 1.465 1_555 1_555
C10 C11 1.412 1_555 1_555
C11 C12 1.380 1_555 1_555
C12 C13 1.385 1_555 1_555
C13 C14 1.373 1_555 1_555
C14 C15 1.403 1_555 1_555
C15 C10 1.397 1_555 1_555
C16 C15 1.460 1_555 1_555
C17 C16 1.365 1_555 1_555
C18 C17 1.415 1_555 1_555
C19 C18 1.411 1_555 1_555
C20 C19 1.367 1_555 1_555
C21 C20 1.387 1_555 1_555
C22 C21 1.372 1_555 1_555
C23 C18 1.412 1_555 1_555
C24 C23 1.441 1_555 1_555
C25 C24 1.420 1_555 1_555
C26 C25 1.352 1_555 1_555
C27 C26 1.430 1_555 1_555
C28 C27 1.412 1_555 1_555
C29 C28 1.470 1_555 1_555
C30 C29 1.406 1_555 1_555
C31 C30 1.376 1_555 1_555
C32 C31 1.401 1_555 1_555
C33 C32 1.370 1_555 1_555
C34 C29 1.413 1_555 1_555
C35 C34 1.467 1_555 1_555
C36 C35 1.371 1_555 1_555
C37 C4 1.414 1_555 1_555
C38 C1 1.366 1_555 1_555
C39 C5 1.408 1_555 1_555
C40 C8 1.429 1_555 1_555
C41 C9 1.400 1_555 1_555
C42 C16 1.434 1_555 1_555
H1 C1 1.049 1_555 1_555
H2 C2 1.104 1_555 1_555
H3 C3 1.062 1_555 1_555
H4 C6 1.040 1_555 1_555
H5 C7 1.095 1_555 1_555
H6 C11 1.067 1_555 1_555
H7 C12 1.074 1_555 1_555
H8 C13 1.064 1_555 1_555
H9 C14 1.074 1_555 1_555
H10 C17 1.064 1_555 1_555
H11 C19 1.066 1_555 1_555
H12 C20 1.068 1_555 1_555
H13 C21 1.031 1_555 1_555
H14 C22 1.106 1_555 1_555
H15 C25 1.060 1_555 1_555
H16 C26 1.064 1_555 1_555
H17 C30 1.071 1_555 1_555
H18 C31 1.064 1_555 1_555
H19 C32 1.042 1_555 1_555
H20 C33 1.073 1_555 1_555
H21 C36 1.050 1_555 1_555
H22 C38 1.045 1_555 1_555
C22 C23 1.406 1_555 1_555
C24 C42 1.402 1_555 1_555
C27 C41 1.433 1_555 1_555
C28 C40 1.414 1_555 1_555
C33 C34 1.413 1_555 1_555
C35 C39 1.435 1_555 1_555
C36 C37 1.413 1_555 1_555
C37 C38 1.413 1_555 1_555
C39 C40 1.437 1_555 1_555
C41 C42 1.448 1_555 1_555
#END
