
#######################################################################
#
#                 Cambridge Crystallographic Data Centre
#                                CCDC
#
#######################################################################
#
# If this CIF has been generated from an entry in the Cambridge
# Structural Database, then it will include bibliographic, chemical,
# crystal, experimental, refinement or atomic coordinate data resulting
# from the CCDC's data processing and validation procedures.
#
#######################################################################

data_CSD_CIF_JUYWIL
_audit_creation_date 2015-12-10
_audit_creation_method CSD-ConQuest-V1
_database_code_CSD JUYWIL
_database_code_depnum_ccdc_archive 'CCDC 1431663'
_chemical_formula_sum 'C36 H24'
_chemical_formula_moiety
;
C36 H24
;
_journal_coden_Cambridge 222
_journal_volume 45
_journal_year 2016
_journal_page_first 1085
_journal_name_full 'Dalton Trans. '
loop_
_publ_author_name
"O.N.Frey"
"Timo Stalling"
"F.Schluter"
"Wolfgang Saak"
"M.Schmidtmann"
"D.Haase"
"R.Beckhaus"
_chemical_name_systematic
;
17-benzyl-17H-dibenzo[4,5:6,7]indeno[1,2-l]phenanthrene
;
_cell_volume   1169.449
_exptl_crystal_colour 'yellow'
_exptl_crystal_density_diffrn 1.297
_exptl_crystal_description 'needle'
_diffrn_ambient_temperature 153
#These two values have been output from a single CSD field.
_refine_ls_R_factor_gt 0.0506
_refine_ls_wR_factor_gt 0.0506
_symmetry_cell_setting triclinic
_symmetry_space_group_name_H-M 'P -1'
_symmetry_Int_Tables_number 2
loop_
_symmetry_equiv_pos_site_id
_symmetry_equiv_pos_as_xyz
1 x,y,z
2 -x,-y,-z
_cell_length_a 10.0590(3)
_cell_length_b 11.4457(3)
_cell_length_c 11.6474(3)
_cell_angle_alpha 107.847(2)
_cell_angle_beta 111.646(2)
_cell_angle_gamma 92.073(2)
_cell_formula_units_Z 2
loop_
_atom_type_symbol
_atom_type_radius_bond
C 0.68
H 0.23
loop_
_atom_site_label
_atom_site_type_symbol
_atom_site_fract_x
_atom_site_fract_y
_atom_site_fract_z
C1 C 0.49589(19) 0.64317(17) 0.25071(17)
H1 H 0.39720 0.65420 0.19580
C2 C 0.53294(19) 0.52196(17) 0.18383(16)
C3 C 0.66132(19) 0.54212(16) 0.17097(16)
C4 C 0.71714(19) 0.67803(16) 0.22910(16)
C5 C 0.61175(19) 0.73647(17) 0.25971(16)
C6 C 0.45092(19) 0.40061(17) 0.14035(16)
C7 C 0.3167(2) 0.38154(18) 0.15066(18)
H2 H 0.27880 0.45130 0.18780
C8 C 0.2408(2) 0.26437(19) 0.10812(19)
H3 H 0.15160 0.25300 0.11710
C9 C 0.2945(2) 0.16168(19) 0.0516(2)
H4 H 0.24080 0.08040 0.02070
C10 C 0.4238(2) 0.17708(18) 0.04010(19)
H5 H 0.45850 0.10590 0.00110
C11 C 0.5068(2) 0.29602(17) 0.08488(17)
C12 C 0.64144(19) 0.31550(17) 0.06768(16)
C13 C 0.7006(2) 0.21479(18) 0.01151(18)
H6 H 0.65900 0.13240 -0.00510
C14 C 0.8165(2) 0.23251(19) -0.01983(19)
H7 H 0.85700 0.16330 -0.05410
C15 C 0.8746(2) 0.35190(19) -0.00142(18)
H8 H 0.94960 0.36400 -0.02970
C16 C 0.82339(19) 0.45245(18) 0.05776(17)
H9 H 0.86390 0.53370 0.06970
C17 C 0.71234(19) 0.43834(17) 0.10124(16)
C18 C 0.85611(19) 0.75182(17) 0.26614(16)
C19 C 0.98566(19) 0.70176(18) 0.28444(17)
H10 H 0.98210 0.61500 0.26860
C20 C 1.1161(2) 0.77507(19) 0.32445(18)
H11 H 1.20110 0.73850 0.33380
C21 C 1.1249(2) 0.90267(19) 0.3514(2)
H12 H 1.21480 0.95320 0.37630
C22 C 1.0021(2) 0.95513(19) 0.3415(2)
H13 H 1.00930 1.04280 0.36270
C23 C 0.8665(2) 0.88304(17) 0.30116(17)
C24 C 0.7410(2) 0.94119(17) 0.30522(17)
C25 C 0.7373(2) 1.06822(18) 0.32174(19)
H14 H 0.81770 1.11820 0.32600
C26 C 0.6199(2) 1.12100(19) 0.3317(2)
H15 H 0.61890 1.20640 0.34110
C27 C 0.5022(2) 1.05012(19) 0.32819(19)
H16 H 0.42250 1.08780 0.33770
C28 C 0.5008(2) 0.92619(18) 0.31099(18)
H17 H 0.42030 0.87860 0.30940
C29 C 0.6182(2) 0.86832(17) 0.29564(17)
C30 C 0.5084(2) 0.65546(19) 0.39208(18)
H18 H 0.49290 0.73980 0.43530
H19 H 0.43080 0.59440 0.38470
C31 C 0.6540(2) 0.63407(18) 0.47748(17)
C32 C 0.7653(2) 0.73184(19) 0.56251(18)
H20 H 0.74960 0.81480 0.57090
C33 C 0.9007(2) 0.7106(2) 0.6364(2)
H21 H 0.97600 0.77910 0.69500
C34 C 0.9258(2) 0.5916(2) 0.6250(2)
H22 H 1.01850 0.57690 0.67450
C35 C 0.8122(3) 0.4912(2) 0.5389(2)
H23 H 0.82790 0.40810 0.52950
C36 C 0.6799(2) 0.5136(2) 0.46935(19)
H24 H 0.60320 0.44540 0.41380
loop_
_geom_bond_atom_site_label_1
_geom_bond_atom_site_label_2
_geom_bond_distance
_geom_bond_site_symmetry_1
_geom_bond_site_symmetry_2
C1 H1 1.000 1_555 1_555
C2 C1 1.503 1_555 1_555
C3 C2 1.373 1_555 1_555
C4 C3 1.485 1_555 1_555
C5 C1 1.504 1_555 1_555
C6 C2 1.430 1_555 1_555
C7 C6 1.414 1_555 1_555
H2 C7 0.950 1_555 1_555
C8 C7 1.366 1_555 1_555
H3 C8 0.950 1_555 1_555
C9 C8 1.393 1_555 1_555
H4 C9 0.950 1_555 1_555
C10 C9 1.366 1_555 1_555
H5 C10 0.950 1_555 1_555
C11 C6 1.417 1_555 1_555
C12 C11 1.459 1_555 1_555
C13 C12 1.409 1_555 1_555
H6 C13 0.950 1_555 1_555
C14 C13 1.370 1_555 1_555
H7 C14 0.950 1_555 1_555
C15 C14 1.387 1_555 1_555
H8 C15 0.949 1_555 1_555
C16 C15 1.372 1_555 1_555
H9 C16 0.950 1_555 1_555
C17 C3 1.447 1_555 1_555
C18 C4 1.449 1_555 1_555
C19 C18 1.413 1_555 1_555
H10 C19 0.950 1_555 1_555
C20 C19 1.368 1_555 1_555
H11 C20 0.950 1_555 1_555
C21 C20 1.389 1_555 1_555
H12 C21 0.950 1_555 1_555
C22 C21 1.375 1_555 1_555
H13 C22 0.950 1_555 1_555
C23 C18 1.419 1_555 1_555
C24 C23 1.458 1_555 1_555
C25 C24 1.411 1_555 1_555
H14 C25 0.950 1_555 1_555
C26 C25 1.372 1_555 1_555
H15 C26 0.950 1_555 1_555
C27 C26 1.391 1_555 1_555
H16 C27 0.950 1_555 1_555
C28 C27 1.369 1_555 1_555
H17 C28 0.951 1_555 1_555
C29 C5 1.429 1_555 1_555
C30 C1 1.565 1_555 1_555
H18 C30 0.990 1_555 1_555
H19 C30 0.990 1_555 1_555
C31 C30 1.515 1_555 1_555
C32 C31 1.378 1_555 1_555
H20 C32 0.949 1_555 1_555
C33 C32 1.394 1_555 1_555
H21 C33 0.950 1_555 1_555
C34 C33 1.369 1_555 1_555
H22 C34 0.951 1_555 1_555
C35 C34 1.409 1_555 1_555
H23 C35 0.949 1_555 1_555
C36 C31 1.394 1_555 1_555
H24 C36 0.950 1_555 1_555
C4 C5 1.372 1_555 1_555
C10 C11 1.408 1_555 1_555
C12 C17 1.422 1_555 1_555
C16 C17 1.409 1_555 1_555
C22 C23 1.404 1_555 1_555
C24 C29 1.414 1_555 1_555
C28 C29 1.416 1_555 1_555
C35 C36 1.360 1_555 1_555
#END
