
#######################################################################
#
#                 Cambridge Crystallographic Data Centre
#                                CCDC
#
#######################################################################
#
# If this CIF has been generated from an entry in the Cambridge
# Structural Database, then it will include bibliographic, chemical,
# crystal, experimental, refinement or atomic coordinate data resulting
# from the CCDC's data processing and validation procedures.
#
#######################################################################

data_CSD_CIF_JUZDUF
_audit_creation_date 2015-12-10
_audit_creation_method CSD-ConQuest-V1
_database_code_CSD JUZDUF
_database_code_depnum_ccdc_archive 'CCDC 1037059'
_chemical_formula_sum 'C38 H26'
_chemical_formula_moiety
;
C38 H26
;
_journal_coden_Cambridge 983
_journal_volume 119
_journal_year 2015
_journal_page_first 18602
_journal_name_full 'J.Phys.Chem.C '
loop_
_publ_author_name
"Ye-Xin Li"
"Jin-Xing Qiu"
"Jin-Ling Miao"
"Zhen-Wei Zhang"
"Xiao-Feng Yang"
"Guo-Xin Sun"
_chemical_name_systematic
;
9-(2-(2-(2-(9-Anthryl)vinyl)phenyl)vinyl)phenanthrene
;
_chemical_melting_point 507
_cell_volume   2587.169
_exptl_crystal_colour 'yellow'
_exptl_crystal_density_diffrn 1.239
_exptl_special_details
;
Luminescent
Heat-sensitive

;
_exptl_crystal_description 'needle'
_exptl_crystal_preparation 'Sublimation'
_diffrn_ambient_temperature 293.1
#These two values have been output from a single CSD field.
_refine_ls_R_factor_gt 0.0711
_refine_ls_wR_factor_gt 0.0711
_symmetry_cell_setting orthorhombic
_symmetry_space_group_name_H-M 'P 21 21 21'
_symmetry_Int_Tables_number 19
loop_
_symmetry_equiv_pos_site_id
_symmetry_equiv_pos_as_xyz
1 x,y,z
2 1/2-x,-y,1/2+z
3 1/2+x,1/2-y,-z
4 -x,1/2+y,1/2-z
_cell_length_a 6.5390(2)
_cell_length_b 13.4209(6)
_cell_length_c 29.4803(14)
_cell_angle_alpha 90
_cell_angle_beta 90
_cell_angle_gamma 90
_cell_formula_units_Z 4
loop_
_atom_type_symbol
_atom_type_radius_bond
C 0.68
H 0.23
loop_
_atom_site_label
_atom_site_type_symbol
_atom_site_fract_x
_atom_site_fract_y
_atom_site_fract_z
C1 C 0.5402(6) 0.9346(3) 0.13756(15)
C2 C 0.7121(7) 0.9961(3) 0.13529(15)
H1 H 0.72550 1.04020 0.11110
C3 C 0.1178(6) 0.6780(3) 0.21467(16)
C4 C -0.0290(6) 0.6763(3) 0.25113(16)
C5 C 0.0967(7) 0.6131(4) 0.17941(18)
H2 H 0.19730 0.61180 0.15710
C6 C 0.8440(7) 0.9278(3) 0.20378(17)
H3 H 0.94560 0.92480 0.22580
C7 C -0.2257(7) 0.5477(3) 0.20902(18)
C8 C 0.5206(6) 0.8685(3) 0.17440(15)
C9 C -0.2021(6) 0.6126(3) 0.24801(16)
C10 C 0.6753(6) 0.8667(3) 0.20710(15)
H4 H 0.66420 0.82340 0.23160
C11 C 0.8630(7) 0.9929(3) 0.16818(17)
H5 H 0.97630 1.03460 0.16620
C12 C 0.2881(8) 0.8972(4) -0.01480(16)
C13 C 0.2887(6) 0.7499(3) 0.21436(16)
H6 H 0.35940 0.76060 0.24130
C14 C 0.3469(6) 0.7997(3) 0.17804(15)
H7 H 0.26950 0.79030 0.15190
C15 C 0.4665(11) 0.7652(4) -0.0551(2)
H8 H 0.57720 0.72200 -0.05720
C16 C -0.3973(8) 0.4862(4) 0.2023(2)
H9 H -0.50240 0.48700 0.22350
C17 C 0.1332(8) 0.8955(4) -0.04928(17)
C18 C -0.3218(8) 0.6760(4) 0.32029(19)
H10 H -0.41890 0.67560 0.34330
C19 C -0.0728(7) 0.5474(3) 0.17533(18)
C20 C -0.3442(7) 0.6141(4) 0.28365(18)
H11 H -0.45680 0.57190 0.28240
C21 C -0.4133(10) 0.4253(4) 0.1654(2)
H12 H -0.52780 0.38480 0.16210
C22 C 0.3148(11) 0.7650(4) -0.0889(2)
H13 H 0.32560 0.72180 -0.11340
C23 C 0.2702(7) 0.9643(4) 0.02172(16)
C24 C -0.0102(7) 0.7401(4) 0.28885(17)
H14 H 0.10080 0.78320 0.29060
C25 C 0.4510(9) 0.8290(4) -0.01919(18)
H15 H 0.55130 0.82750 0.00320
C26 C 0.1558(10) 0.8267(5) -0.0858(2)
H16 H 0.05600 0.82480 -0.10830
C27 C -0.1529(8) 0.7398(4) 0.32306(19)
H17 H -0.13740 0.78170 0.34790
C28 C -0.2593(10) 0.4231(4) 0.1323(2)
H18 H -0.27040 0.38140 0.10720
C29 C -0.0280(9) 0.9615(5) -0.04650(19)
H19 H -0.13030 0.95850 -0.06840
C30 C -0.0433(8) 1.0317(4) -0.01244(18)
C31 C 0.1091(8) 1.0338(4) 0.02295(16)
C32 C -0.0628(10) 1.1772(5) 0.0557(2)
H20 H -0.06970 1.22610 0.07790
C33 C -0.0928(9) 0.4834(4) 0.1376(2)
H21 H 0.01000 0.48230 0.11580
C34 C -0.2132(10) 1.1733(5) 0.0214(2)
H22 H -0.31880 1.21970 0.02120
C35 C 0.0925(9) 1.1096(4) 0.05626(19)
H23 H 0.19020 1.11330 0.07910
C36 C -0.2053(10) 1.1033(5) -0.0109(2)
H24 H -0.30730 1.10120 -0.03290
C37 C 0.3840(7) 0.9415(3) 0.10148(15)
H25 H 0.24790 0.93330 0.10980
C38 C 0.4234(7) 0.9584(4) 0.05872(16)
H26 H 0.55970 0.96760 0.05080
loop_
_geom_bond_atom_site_label_1
_geom_bond_atom_site_label_2
_geom_bond_distance
_geom_bond_site_symmetry_1
_geom_bond_site_symmetry_2
C1 C2 1.396 1_555 1_555
C2 H1 0.931 1_555 1_555
C3 C4 1.441 1_555 1_555
C4 C9 1.421 1_555 1_555
C5 C3 1.363 1_555 1_555
H2 C5 0.930 1_555 1_555
C6 H3 0.930 1_555 1_555
C7 C9 1.450 1_555 1_555
C8 C1 1.408 1_555 1_555
C9 C20 1.403 1_555 1_555
C10 C6 1.378 1_555 1_555
H4 C10 0.930 1_555 1_555
C11 C2 1.384 1_555 1_555
H5 C11 0.930 1_555 1_555
C12 C17 1.435 1_555 1_555
C13 C3 1.477 1_555 1_555
H6 C13 0.930 1_555 1_555
C14 C8 1.468 1_555 1_555
H7 C14 0.931 1_555 1_555
C15 H8 0.929 1_555 1_555
C16 C7 1.407 1_555 1_555
H9 C16 0.929 1_555 1_555
C17 C26 1.426 1_555 1_555
C18 H10 0.929 1_555 1_555
C19 C5 1.421 1_555 1_555
C20 C18 1.371 1_555 1_555
H11 C20 0.930 1_555 1_555
C21 C16 1.365 1_555 1_555
H12 C21 0.930 1_555 1_555
C22 C15 1.406 1_555 1_555
H13 C22 0.929 1_555 1_555
C23 C12 1.408 1_555 1_555
C24 C4 1.409 1_555 1_555
H14 C24 0.930 1_555 1_555
C25 C12 1.410 1_555 1_555
H15 C25 0.931 1_555 1_555
C26 C22 1.332 1_555 1_555
H16 C26 0.931 1_555 1_555
C27 C18 1.400 1_555 1_555
H17 C27 0.929 1_555 1_555
C28 C21 1.403 1_555 1_555
H18 C28 0.931 1_555 1_555
C29 C17 1.379 1_555 1_555
H19 C29 0.931 1_555 1_555
C30 C29 1.381 1_555 1_555
C31 C23 1.408 1_555 1_555
C32 H20 0.928 1_555 1_555
C33 C19 1.411 1_555 1_555
H21 C33 0.930 1_555 1_555
C34 C32 1.412 1_555 1_555
H22 C34 0.930 1_555 1_555
C35 C31 1.418 1_555 1_555
H23 C35 0.930 1_555 1_555
C36 C30 1.431 1_555 1_555
H24 C36 0.931 1_555 1_555
C37 C1 1.478 1_555 1_555
H25 C37 0.930 1_555 1_555
C38 C23 1.483 1_555 1_555
H26 C38 0.930 1_555 1_555
C6 C11 1.371 1_555 1_555
C7 C19 1.409 1_555 1_555
C8 C10 1.398 1_555 1_555
C13 C14 1.318 1_555 1_555
C15 C25 1.365 1_555 1_555
C24 C27 1.374 1_555 1_555
C28 C33 1.366 1_555 1_555
C30 C31 1.443 1_555 1_555
C32 C35 1.362 1_555 1_555
C34 C36 1.339 1_555 1_555
C37 C38 1.306 1_555 1_555
#END
