
#######################################################################
#
#                 Cambridge Crystallographic Data Centre
#                                CCDC
#
#######################################################################
#
# If this CIF has been generated from an entry in the Cambridge
# Structural Database, then it will include bibliographic, chemical,
# crystal, experimental, refinement or atomic coordinate data resulting
# from the CCDC's data processing and validation procedures.
#
#######################################################################

data_CSD_CIF_JUZFAN
_audit_creation_date 2015-12-10
_audit_creation_method CSD-ConQuest-V1
_database_code_CSD JUZFAN
_database_code_depnum_ccdc_archive 'CCDC 1037060'
_chemical_formula_sum 'C38 H26'
_chemical_formula_moiety
;
C38 H26
;
_journal_coden_Cambridge 983
_journal_volume 119
_journal_year 2015
_journal_page_first 18602
_journal_name_full 'J.Phys.Chem.C '
loop_
_publ_author_name
"Ye-Xin Li"
"Jin-Xing Qiu"
"Jin-Ling Miao"
"Zhen-Wei Zhang"
"Xiao-Feng Yang"
"Guo-Xin Sun"
_chemical_name_systematic
;
9-(2-(3-(2-(9-Anthryl)vinyl)phenyl)vinyl)phenanthrene
;
_cell_volume   2566.218
_exptl_crystal_density_diffrn 1.249
_exptl_special_details
;
gamma polymorph

;
_diffrn_ambient_temperature 293.1
#These two values have been output from a single CSD field.
_refine_ls_R_factor_gt 0.046
_refine_ls_wR_factor_gt 0.046
_symmetry_cell_setting orthorhombic
_symmetry_space_group_name_H-M 'P 21 21 21'
_symmetry_Int_Tables_number 19
loop_
_symmetry_equiv_pos_site_id
_symmetry_equiv_pos_as_xyz
1 x,y,z
2 1/2-x,-y,1/2+z
3 1/2+x,1/2-y,-z
4 -x,1/2+y,1/2-z
_cell_length_a 5.49845(16)
_cell_length_b 19.2134(6)
_cell_length_c 24.2912(7)
_cell_angle_alpha 90
_cell_angle_beta 90
_cell_angle_gamma 90
_cell_formula_units_Z 4
loop_
_atom_type_symbol
_atom_type_radius_bond
C 0.68
H 0.23
loop_
_atom_site_label
_atom_site_type_symbol
_atom_site_fract_x
_atom_site_fract_y
_atom_site_fract_z
C1 C 0.1126(5) 0.87208(14) 0.74137(10)
H1 H 0.00740 0.89910 0.72030
C2 C 0.0874(5) 0.80037(13) 0.74171(9)
C3 C -0.4447(5) 0.74800(13) 0.64651(9)
C4 C -0.6192(4) 0.78433(13) 0.61127(9)
C5 C 0.4282(5) 0.79265(12) 0.80573(9)
C6 C 0.5914(5) 0.75005(13) 0.83985(10)
H2 H 0.73980 0.77000 0.84920
C7 C 0.2919(6) 0.90355(14) 0.77190(11)
H3 H 0.30700 0.95180 0.77120
C8 C -0.7996(5) 0.74610(14) 0.58282(9)
C9 C 0.4510(6) 0.86444(13) 0.8037(1)
H4 H 0.57310 0.88640 0.82370
C10 C -0.4613(5) 0.67778(15) 0.64997(11)
H5 H -0.34960 0.65450 0.67210
C11 C -0.6388(5) 0.63749(14) 0.62190(11)
C12 C 0.6866(5) 0.64577(12) 0.95021(11)
C13 C -0.8095(5) 0.67111(15) 0.58806(10)
C14 C 0.2476(5) 0.76179(13) 0.77451(9)
H6 H 0.23200 0.71360 0.77530
C15 C 0.7160(5) 0.64542(12) 0.89243(11)
C16 C -0.0931(6) 0.76274(14) 0.70837(11)
H7 H -0.08200 0.71450 0.70950
C17 C -0.6157(5) 0.85676(15) 0.60560(11)
H8 H -0.49620 0.88220 0.62380
C18 C 0.8986(5) 0.60374(13) 0.86877(11)
C19 C 0.8498(5) 0.60668(12) 0.98418(11)
C20 C -0.9612(6) 0.85434(18) 0.54634(12)
H9 H -1.07640 0.87770 0.52520
C21 C 0.4984(5) 0.68389(14) 0.97665(12)
H10 H 0.38980 0.70950 0.95540
C22 C -0.9670(5) 0.78318(18) 0.55016(10)
H11 H -1.08470 0.75870 0.53060
C23 C 0.8159(6) 0.60929(15) 1.04266(12)
H12 H 0.92170 0.58470 1.06540
C24 C 1.0626(5) 0.56481(12) 0.90353(13)
C25 C 0.9264(6) 0.59701(16) 0.81073(13)
H13 H 0.82160 0.62090 0.78730
C26 C 1.0333(6) 0.56821(13) 0.96009(13)
H14 H 1.14050 0.54380 0.98260
C27 C 0.6353(6) 0.64634(16) 1.06545(13)
H15 H 0.61750 0.64710 1.10350
C28 C -0.9909(7) 0.5589(2) 0.56784(16)
H16 H -1.10820 0.53270 0.54960
C29 C -0.7830(6) 0.89135(17) 0.57410(11)
H17 H -0.77710 0.93960 0.57130
C30 C -0.9852(6) 0.62964(18) 0.56122(13)
H18 H -1.09960 0.65080 0.53850
C31 C 0.4735(6) 0.68381(15) 1.03239(12)
H19 H 0.34780 0.70890 1.04860
C32 C -0.6496(6) 0.56405(16) 0.62824(14)
H20 H -0.53760 0.54170 0.65080
C33 C 1.2702(7) 0.52014(17) 0.82443(18)
H21 H 1.39560 0.49360 0.80960
C34 C 1.2463(6) 0.52447(15) 0.87897(16)
H22 H 1.35410 0.50020 0.90140
C35 C 1.1075(8) 0.5554(2) 0.78866(16)
H23 H 1.12240 0.55060 0.75070
C36 C -0.8219(7) 0.52602(19) 0.60169(16)
H24 H -0.82690 0.47800 0.60610
C37 C 0.5523(5) 0.68858(15) 0.85816(12)
H25 H 0.40370 0.66870 0.84880
C38 C -0.2638(5) 0.78716(14) 0.67792(10)
H26 H -0.27360 0.83540 0.67560
loop_
_geom_bond_atom_site_label_1
_geom_bond_atom_site_label_2
_geom_bond_distance
_geom_bond_site_symmetry_1
_geom_bond_site_symmetry_2
C1 H1 0.931 1_555 1_555
C2 C1 1.385 1_555 1_555
C3 C4 1.463 1_555 1_555
C4 C8 1.415 1_555 1_555
C5 C6 1.470 1_555 1_555
C6 H2 0.930 1_555 1_555
C7 C1 1.374 1_555 1_555
H3 C7 0.931 1_555 1_555
C8 C13 1.447 1_555 1_555
C9 C5 1.386 1_555 1_555
H4 C9 0.930 1_555 1_555
C10 C3 1.355 1_555 1_555
H5 C10 0.931 1_555 1_555
C11 C10 1.420 1_555 1_555
C12 C15 1.413 1_555 1_555
C13 C11 1.405 1_555 1_555
C14 C2 1.400 1_555 1_555
H6 C14 0.930 1_555 1_555
C15 C18 1.407 1_555 1_555
C16 C2 1.471 1_555 1_555
H7 C16 0.929 1_555 1_555
C17 C4 1.399 1_555 1_555
H8 C17 0.931 1_555 1_555
C18 C24 1.444 1_555 1_555
C19 C12 1.432 1_555 1_555
C20 H9 0.931 1_555 1_555
C21 C12 1.421 1_555 1_555
H10 C21 0.930 1_555 1_555
C22 C8 1.409 1_555 1_555
H11 C22 0.930 1_555 1_555
C23 C19 1.434 1_555 1_555
H12 C23 0.931 1_555 1_555
C24 C26 1.385 1_555 1_555
C25 C18 1.424 1_555 1_555
H13 C25 0.931 1_555 1_555
C26 C19 1.381 1_555 1_555
H14 C26 0.931 1_555 1_555
C27 C23 1.341 1_555 1_555
H15 C27 0.930 1_555 1_555
C28 H16 0.930 1_555 1_555
C29 C17 1.369 1_555 1_555
H17 C29 0.930 1_555 1_555
C30 C13 1.412 1_555 1_555
H18 C30 0.930 1_555 1_555
C31 C21 1.361 1_555 1_555
H19 C31 0.930 1_555 1_555
C32 C11 1.421 1_555 1_555
H20 C32 0.929 1_555 1_555
C33 H21 0.930 1_555 1_555
C34 C24 1.406 1_555 1_555
H22 C34 0.930 1_555 1_555
C35 C25 1.385 1_555 1_555
H23 C35 0.930 1_555 1_555
C36 C28 1.392 1_555 1_555
H24 C36 0.929 1_555 1_555
C37 C6 1.280 1_555 1_555
H25 C37 0.930 1_555 1_555
C38 C3 1.462 1_555 1_555
H26 C38 0.930 1_555 1_555
C5 C14 1.383 1_555 1_555
C7 C9 1.388 1_555 1_555
C15 C37 1.480 1_555 1_555
C16 C38 1.284 1_555 1_555
C20 C22 1.371 1_555 1_555
C20 C29 1.386 1_555 1_555
C27 C31 1.398 1_555 1_555
C28 C30 1.369 1_555 1_555
C32 C36 1.359 1_555 1_555
C33 C34 1.334 1_555 1_555
C33 C35 1.419 1_555 1_555
#END
