
#######################################################################
#
#                 Cambridge Crystallographic Data Centre
#                                CCDC
#
#######################################################################
#
# If this CIF has been generated from an entry in the Cambridge
# Structural Database, then it will include bibliographic, chemical,
# crystal, experimental, refinement or atomic coordinate data resulting
# from the CCDC's data processing and validation procedures.
#
#######################################################################

data_CSD_CIF_KAFVUI
_audit_creation_date 2000-05-08
_audit_creation_method CSD-ConQuest-V1
_database_code_CSD KAFVUI
_chemical_formula_sum 'C24 H14'
_chemical_formula_moiety
;
C24 H14
;
_journal_coden_Cambridge 557
_journal_volume 19
_journal_year 1998
_journal_page_first 1641
_journal_name_full 'Carcinogenesis '
loop_
_publ_author_name
"A.Kaufman Katz"
"H.L.Carrell"
"J.P.Glusker"
_chemical_name_systematic
;
Dibenzo(a,l)pyrene
;
_chemical_name_common
;
Dibenzo(def,p)chrysene
;
_cell_volume   1438.520
_exptl_crystal_colour 'orange'
_exptl_special_details
;
potent carcinogenic activity

;
_exptl_crystal_description 'oblate plate'
_diffrn_ambient_temperature 120
#These two values have been output from a single CSD field.
_refine_ls_R_factor_gt 0.035
_refine_ls_wR_factor_gt 0.035
_symmetry_cell_setting orthorhombic
_symmetry_space_group_name_H-M 'P 21 21 21'
_symmetry_Int_Tables_number 19
loop_
_symmetry_equiv_pos_site_id
_symmetry_equiv_pos_as_xyz
1 x,y,z
2 1/2-x,-y,1/2+z
3 1/2+x,1/2-y,-z
4 -x,1/2+y,1/2-z
_cell_length_a 4.667(1)
_cell_length_b 16.663(1)
_cell_length_c 18.498(3)
_cell_angle_alpha 90
_cell_angle_beta 90
_cell_angle_gamma 90
_cell_formula_units_Z 4
loop_
_atom_type_symbol
_atom_type_radius_bond
C 0.68
H 0.23
loop_
_atom_site_label
_atom_site_type_symbol
_atom_site_fract_x
_atom_site_fract_y
_atom_site_fract_z
C1 C 0.1494(6) 0.2441(2) 0.6027(2)
C2 C 0.2412(6) 0.3109(2) 0.5663(2)
C3 C 0.4666(6) 0.3558(2) 0.5944(2)
C4 C 0.5818(6) 0.3350(2) 0.6600(2)
C5 C 0.8056(6) 0.2979(2) 0.8040(2)
C6 C 0.8817(6) 0.2866(2) 0.8763(2)
C7 C 0.7414(6) 0.2286(2) 0.9177(2)
C8 C 0.3953(6) 0.1185(2) 0.9279(2)
C9 C 0.2027(6) 0.0689(2) 0.8985(2)
C10 C -0.0748(5) 0.0243(2) 0.7921(2)
C11 C -0.3225(6) -0.0305(2) 0.6864(2)
C12 C -0.3637(6) -0.0351(2) 0.6136(2)
C13 C -0.1982(6) 0.0149(2) 0.5689(2)
C14 C -0.0175(6) 0.0720(2) 0.5974(2)
C15 C 0.2787(6) 0.2171(2) 0.6678(2)
C16 C 0.4916(6) 0.2669(2) 0.6988(2)
C17 C 0.5939(6) 0.2509(2) 0.7721(2)
C18 C 0.4606(6) 0.1900(2) 0.8119(2)
C19 C 0.5346(7) 0.1792(2) 0.8870(2)
C20 C 0.2554(6) 0.1365(2) 0.7795(2)
C21 C 0.1267(6) 0.0754(2) 0.8231(2)
C22 C -0.1327(6) 0.0258(2) 0.7179(2)
C23 C 0.0113(6) 0.0833(2) 0.6731(2)
C24 C 0.1809(6) 0.1446(2) 0.7054(2)
H1 H -0.020(5) 0.215(1) 0.580(1)
H2 H 0.134(6) 0.329(2) 0.519(2)
H3 H 0.544(5) 0.404(2) 0.566(1)
H4 H 0.735(6) 0.367(2) 0.681(2)
H5 H 0.922(6) 0.346(2) 0.775(2)
H6 H 1.044(6) 0.322(2) 0.902(2)
H7 H 0.806(6) 0.219(2) 0.972(2)
H8 H 0.435(5) 0.111(2) 0.982(2)
H9 H 0.093(4) 0.027(1) 0.929(1)
H10 H -0.164(6) -0.021(2) 0.830(2)
H11 H -0.446(6) -0.069(2) 0.720(2)
H12 H -0.508(7) -0.082(2) 0.589(2)
H13 H -0.185(7) 0.006(2) 0.510(2)
H14 H 0.112(6) 0.101(2) 0.564(2)
loop_
_geom_bond_atom_site_label_1
_geom_bond_atom_site_label_2
_geom_bond_distance
_geom_bond_site_symmetry_1
_geom_bond_site_symmetry_2
C1 C2 1.370 1_555 1_555
C2 C3 1.392 1_555 1_555
C3 C4 1.372 1_555 1_555
C4 C16 1.407 1_555 1_555
C5 C6 1.397 1_555 1_555
C6 C7 1.396 1_555 1_555
C7 C19 1.390 1_555 1_555
C8 C9 1.337 1_555 1_555
C9 C21 1.443 1_555 1_555
C10 C21 1.392 1_555 1_555
C11 C12 1.362 1_555 1_555
C12 C13 1.405 1_555 1_555
C13 C14 1.376 1_555 1_555
C14 C23 1.419 1_555 1_555
C15 C1 1.420 1_555 1_555
C16 C15 1.416 1_555 1_555
C17 C5 1.392 1_555 1_555
C18 C17 1.400 1_555 1_555
C19 C8 1.421 1_555 1_555
C20 C18 1.439 1_555 1_555
C21 C20 1.431 1_555 1_555
C22 C10 1.399 1_555 1_555
C23 C22 1.434 1_555 1_555
C24 C15 1.467 1_555 1_555
H1 C1 1.018 1_555 1_555
H2 C2 1.052 1_555 1_555
H3 C3 1.025 1_555 1_555
H4 C4 0.973 1_555 1_555
H5 C5 1.107 1_555 1_555
H6 C6 1.071 1_555 1_555
H7 C7 1.061 1_555 1_555
H8 C8 1.025 1_555 1_555
H9 C9 1.033 1_555 1_555
H10 C10 1.111 1_555 1_555
H11 C11 1.063 1_555 1_555
H12 C12 1.128 1_555 1_555
H13 C13 1.101 1_555 1_555
H14 C14 0.990 1_555 1_555
C11 C22 1.416 1_555 1_555
C16 C17 1.462 1_555 1_555
C18 C19 1.443 1_555 1_555
C20 C24 1.421 1_555 1_555
C23 C24 1.424 1_555 1_555
#END
