
#######################################################################
#
#                 Cambridge Crystallographic Data Centre
#                                CCDC
#
#######################################################################
#
# If this CIF has been generated from an entry in the Cambridge
# Structural Database, then it will include bibliographic, chemical,
# crystal, experimental, refinement or atomic coordinate data resulting
# from the CCDC's data processing and validation procedures.
#
#######################################################################

data_CSD_CIF_KAGFOP
_audit_creation_date 2010-11-24
_audit_creation_method CSD-ConQuest-V1
_database_code_CSD KAGFOP
_database_code_depnum_ccdc_archive 'CCDC 762790'
_chemical_formula_sum 'C36 H22'
_chemical_formula_moiety
;
C36 H22
;
_journal_coden_Cambridge 179
_journal_volume 49
_journal_year 2010
_journal_page_first 7059
_journal_name_full 'Angew.Chem.,Int.Ed. '
loop_
_publ_author_name
"Tsun-Cheng Wu"
"Chia-Hua Chen"
"D.Hibi"
"A.Shimizu"
"Y.Tobe"
"Yao-Ting Wu"
_chemical_name_systematic
;
7,14-Diphenyldibenzo[de,mn]naphthacene
;
_cell_volume   2377.968
_exptl_crystal_colour 'red'
_exptl_crystal_density_diffrn 1.27
_exptl_crystal_description 'columnar'
_exptl_crystal_preparation 'dichloromethane/methanol'
_diffrn_ambient_temperature 296
#These two values have been output from a single CSD field.
_refine_ls_R_factor_gt 0.0767
_refine_ls_wR_factor_gt 0.0767
_symmetry_cell_setting monoclinic
_symmetry_space_group_name_H-M 'P 21/n'
_symmetry_Int_Tables_number 14
loop_
_symmetry_equiv_pos_site_id
_symmetry_equiv_pos_as_xyz
1 x,y,z
2 1/2-x,1/2+y,1/2-z
3 -x,-y,-z
4 -1/2+x,-1/2-y,-1/2+z
_cell_length_a 12.3370(4)
_cell_length_b 17.1641(6)
_cell_length_c 12.3897(4)
_cell_angle_alpha 90
_cell_angle_beta 114.989(2)
_cell_angle_gamma 90
_cell_formula_units_Z 4
loop_
_atom_type_symbol
_atom_type_radius_bond
C 0.68
H 0.23
loop_
_atom_site_label
_atom_site_type_symbol
_atom_site_fract_x
_atom_site_fract_y
_atom_site_fract_z
C1 C 0.0653(3) 0.11319(17) 0.1269(3)
C2 C 0.1859(3) 0.08574(17) 0.1572(3)
C3 C 0.2443(3) 0.0954(2) 0.0837(3)
H1 H 0.20820 0.12470 0.01450
C4 C 0.3568(4) 0.0617(2) 0.1121(3)
H2 H 0.39570 0.07130 0.06350
C5 C 0.4093(3) 0.0160(2) 0.2083(3)
H3 H 0.48280 -0.00690 0.22400
C6 C 0.3536(3) 0.0021(2) 0.2867(3)
C7 C 0.4030(3) -0.0475(2) 0.3852(3)
H4 H 0.47340 -0.07420 0.39980
C8 C 0.3488(3) -0.0570(2) 0.4599(3)
H5 H 0.38050 -0.09240 0.52240
C9 C 0.2481(3) -0.01534(19) 0.4444(3)
H6 H 0.21480 -0.02150 0.49870
C10 C 0.1945(3) 0.03607(17) 0.3491(3)
C11 C 0.0890(3) 0.08311(17) 0.3290(3)
C12 C 0.0617(3) 0.11119(18) 0.4186(3)
C13 C -0.0536(3) 0.14895(18) 0.3911(3)
C14 C -0.0825(3) 0.1805(2) 0.4779(3)
H7 H -0.02460 0.18380 0.55590
C15 C -0.1980(4) 0.2074(2) 0.4496(4)
H8 H -0.21510 0.23030 0.50880
C16 C -0.2859(4) 0.2011(2) 0.3379(5)
H9 H -0.36300 0.21740 0.32230
C17 C -0.2615(3) 0.1700(2) 0.2445(4)
C18 C -0.3493(4) 0.1621(2) 0.1267(4)
H10 H -0.42790 0.17630 0.10830
C19 C -0.3211(3) 0.1343(2) 0.0415(4)
H11 H -0.38130 0.12790 -0.03480
C20 C -0.2047(3) 0.1147(2) 0.0630(3)
H12 H -0.18800 0.09590 0.00130
C21 C -0.1128(3) 0.12319(18) 0.1767(3)
C22 C 0.0134(3) 0.10516(17) 0.2054(3)
C23 C 0.2448(3) 0.04149(17) 0.2644(3)
C24 C -0.1427(3) 0.14727(18) 0.2707(3)
C25 C 0.0032(3) 0.15526(18) 0.0101(3)
C26 C -0.0172(3) 0.2343(2) 0.0097(3)
H13 H 0.00860 0.26070 0.08190
C27 C -0.0746(3) 0.2751(2) -0.0942(3)
H14 H -0.08690 0.32850 -0.09260
C28 C -0.1144(4) 0.2355(3) -0.2026(3)
H15 H -0.15670 0.26180 -0.27370
C29 C -0.0906(4) 0.1571(2) -0.2034(3)
H16 H -0.11370 0.13100 -0.27550
C30 C -0.0332(3) 0.1173(2) -0.0986(3)
H17 H -0.01840 0.06430 -0.10020
C31 C 0.1500(3) 0.10868(18) 0.5465(3)
C32 C 0.2545(3) 0.15222(19) 0.5829(3)
H18 H 0.26880 0.18230 0.52780
C33 C 0.3369(4) 0.1510(2) 0.6999(3)
H19 H 0.40630 0.18050 0.72260
C34 C 0.3198(4) 0.1085(2) 0.7822(3)
H20 H 0.37780 0.10700 0.86030
C35 C 0.2147(4) 0.0667(2) 0.7492(3)
H21 H 0.20050 0.03860 0.80610
C36 C 0.1310(4) 0.0666(2) 0.6327(3)
H22 H 0.06090 0.03800 0.61130
loop_
_geom_bond_atom_site_label_1
_geom_bond_atom_site_label_2
_geom_bond_distance
_geom_bond_site_symmetry_1
_geom_bond_site_symmetry_2
C1 C2 1.451 1_555 1_555
C2 C3 1.389 1_555 1_555
C3 H1 0.929 1_555 1_555
C4 C3 1.404 1_555 1_555
H2 C4 0.930 1_555 1_555
C5 C4 1.343 1_555 1_555
H3 C5 0.930 1_555 1_555
C6 C5 1.427 1_555 1_555
C7 C6 1.399 1_555 1_555
H4 C7 0.930 1_555 1_555
C8 C7 1.361 1_555 1_555
H5 C8 0.931 1_555 1_555
C9 C8 1.375 1_555 1_555
H6 C9 0.931 1_555 1_555
C10 C9 1.397 1_555 1_555
C11 C10 1.461 1_555 1_555
C12 C11 1.376 1_555 1_555
C13 C12 1.466 1_555 1_555
C14 C13 1.379 1_555 1_555
H7 C14 0.930 1_555 1_555
C15 C14 1.394 1_555 1_555
H8 C15 0.932 1_555 1_555
C16 C15 1.355 1_555 1_555
H9 C16 0.930 1_555 1_555
C17 C16 1.417 1_555 1_555
C18 C17 1.409 1_555 1_555
H10 C18 0.930 1_555 1_555
C19 C18 1.332 1_555 1_555
H11 C19 0.930 1_555 1_555
C20 C19 1.387 1_555 1_555
H12 C20 0.930 1_555 1_555
C21 C20 1.393 1_555 1_555
C22 C1 1.379 1_555 1_555
C23 C2 1.433 1_555 1_555
C24 C13 1.431 1_555 1_555
C25 C1 1.505 1_555 1_555
C26 C25 1.379 1_555 1_555
H13 C26 0.931 1_555 1_555
C27 C26 1.371 1_555 1_555
H14 C27 0.931 1_555 1_555
C28 C27 1.396 1_555 1_555
H15 C28 0.929 1_555 1_555
C29 C28 1.378 1_555 1_555
H16 C29 0.930 1_555 1_555
C30 C25 1.389 1_555 1_555
H17 C30 0.930 1_555 1_555
C31 C12 1.497 1_555 1_555
C32 C31 1.390 1_555 1_555
H18 C32 0.930 1_555 1_555
C33 C32 1.375 1_555 1_555
H19 C33 0.930 1_555 1_555
C34 C33 1.341 1_555 1_555
H20 C34 0.930 1_555 1_555
C35 C34 1.384 1_555 1_555
H21 C35 0.930 1_555 1_555
C36 C31 1.389 1_555 1_555
H22 C36 0.930 1_555 1_555
C6 C23 1.422 1_555 1_555
C10 C23 1.430 1_555 1_555
C11 C22 1.467 1_555 1_555
C17 C24 1.416 1_555 1_555
C21 C22 1.476 1_555 1_555
C21 C24 1.423 1_555 1_555
C29 C30 1.370 1_555 1_555
C35 C36 1.375 1_555 1_555
#END
