
#######################################################################
#
#                 Cambridge Crystallographic Data Centre
#                                CCDC
#
#######################################################################
#
# If this CIF has been generated from an entry in the Cambridge
# Structural Database, then it will include bibliographic, chemical,
# crystal, experimental, refinement or atomic coordinate data resulting
# from the CCDC's data processing and validation procedures.
#
#######################################################################

data_CSD_CIF_KAGGAC
_audit_creation_date 2010-11-24
_audit_creation_method CSD-ConQuest-V1
_database_code_CSD KAGGAC
_database_code_depnum_ccdc_archive 'CCDC 762792'
_chemical_formula_sum 'C42 H34'
_chemical_formula_moiety
;
C42 H34
;
_journal_coden_Cambridge 179
_journal_volume 49
_journal_year 2010
_journal_page_first 7059
_journal_name_full 'Angew.Chem.,Int.Ed. '
loop_
_publ_author_name
"Tsun-Cheng Wu"
"Chia-Hua Chen"
"D.Hibi"
"A.Shimizu"
"Y.Tobe"
"Yao-Ting Wu"
_chemical_name_systematic
;
7,14-bis(2,4,6-Trimethylphenyl)dibenzo[de,mn]naphthacene
;
_cell_volume   1497.414
_exptl_crystal_colour 'red'
_exptl_crystal_density_diffrn 1.195
_exptl_crystal_preparation 'dichloromethane/methanol'
_diffrn_ambient_temperature 296
#These two values have been output from a single CSD field.
_refine_ls_R_factor_gt 0.0429
_refine_ls_wR_factor_gt 0.0429
_symmetry_cell_setting triclinic
_symmetry_space_group_name_H-M 'P -1'
_symmetry_Int_Tables_number 2
loop_
_symmetry_equiv_pos_site_id
_symmetry_equiv_pos_as_xyz
1 x,y,z
2 -x,-y,-z
_cell_length_a 9.0007(2)
_cell_length_b 12.9900(3)
_cell_length_c 14.0601(3)
_cell_angle_alpha 66.560(1)
_cell_angle_beta 89.423(1)
_cell_angle_gamma 83.493(1)
_cell_formula_units_Z 2
loop_
_atom_type_symbol
_atom_type_radius_bond
C 0.68
H 0.23
loop_
_atom_site_label
_atom_site_type_symbol
_atom_site_fract_x
_atom_site_fract_y
_atom_site_fract_z
C1 C 0.94922(16) 0.67111(11) 0.18931(11)
C2 C 1.01614(15) 0.74796(11) 0.21296(10)
C3 C 1.15516(16) 0.71989(11) 0.27723(11)
C4 C 1.27105(17) 0.63956(13) 0.27832(14)
H1 H 1.26480 0.60270 0.23400
C5 C 1.39711(19) 0.61282(15) 0.34459(16)
H2 H 1.47370 0.55910 0.34310
C6 C 1.40955(18) 0.66380(14) 0.41097(14)
H3 H 1.49220 0.64260 0.45670
C7 C 1.29775(17) 0.74888(13) 0.41099(12)
C8 C 1.3060(2) 0.80481(15) 0.47854(13)
H4 H 1.38670 0.78420 0.52580
C9 C 1.1981(2) 0.88806(15) 0.47551(13)
H5 H 1.20290 0.92170 0.52260
C10 C 1.07968(18) 0.92344(13) 0.40185(12)
H6 H 1.00850 0.98230 0.39930
C11 C 1.06554(16) 0.87342(11) 0.33287(10)
C12 C 0.95249(15) 0.91773(11) 0.24789(10)
C13 C 0.93682(15) 0.86235(11) 0.18468(10)
C14 C 0.83184(15) 0.90373(11) 0.09433(10)
C15 C 0.79908(17) 1.01684(12) 0.02919(11)
H7 H 0.84660 1.07070 0.04120
C16 C 0.69572(18) 1.05106(14) -0.05420(12)
H8 H 0.67810 1.12700 -0.09860
C17 C 0.62044(18) 0.97435(15) -0.07112(12)
H9 H 0.54800 0.99900 -0.12460
C18 C 0.65084(16) 0.85862(14) -0.00882(12)
C19 C 0.57515(19) 0.77608(16) -0.02357(14)
H10 H 0.49700 0.79860 -0.07300
C20 C 0.6154(2) 0.66465(17) 0.03363(16)
H11 H 0.56190 0.61150 0.02510
C21 C 0.73642(19) 0.62853(14) 0.10533(14)
H12 H 0.76590 0.55160 0.14090
C22 C 0.81297(16) 0.70520(12) 0.12434(11)
C23 C 1.17249(16) 0.78033(11) 0.34047(11)
C24 C 0.76393(15) 0.82286(12) 0.07091(11)
C25 C 1.00492(16) 0.54770(11) 0.23496(11)
C26 C 1.09262(17) 0.49811(12) 0.17797(12)
C27 C 1.14805(18) 0.38464(12) 0.22603(13)
H13 H 1.20730 0.35150 0.18880
C28 C 1.11788(19) 0.31950(12) 0.32752(13)
C29 C 1.02465(19) 0.36884(13) 0.38031(13)
H14 H 1.00030 0.32500 0.44770
C30 C 0.96637(17) 0.48178(12) 0.33577(12)
C31 C 1.1319(2) 0.56660(14) 0.06807(13)
H15 H 1.19920 0.52030 0.04380
H16 H 1.17920 0.63010 0.06590
H17 H 1.04250 0.59300 0.02450
C32 C 1.1843(3) 0.19726(14) 0.37973(17)
H18 H 1.21850 0.17020 0.32800
H19 H 1.10960 0.15280 0.41940
H20 H 1.26710 0.19110 0.42500
C33 C 0.8634(2) 0.53258(15) 0.39515(14)
H21 H 0.83800 0.47380 0.45840
H22 H 0.77390 0.57050 0.35380
H23 H 0.91280 0.58580 0.41110
C34 C 0.85279(16) 1.02169(11) 0.24037(10)
C35 C 0.90521(17) 1.12793(12) 0.19984(11)
C36 C 0.81450(18) 1.22090(13) 0.20156(11)
H24 H 0.85000 1.29110 0.17480
C37 C 0.67426(18) 1.21313(13) 0.24131(12)
C38 C 0.62396(18) 1.10796(14) 0.28092(12)
H25 H 0.52910 1.10130 0.30800
C39 C 0.71072(16) 1.01145(12) 0.28171(11)
C40 C 1.05632(19) 1.14115(14) 0.15379(13)
H26 H 1.07160 1.21950 0.12600
H27 H 1.06200 1.11410 0.09930
H28 H 1.13210 1.09830 0.20660
C41 C 0.5791(2) 1.31754(16) 0.23948(17)
H29 H 0.63460 1.35500 0.27140
H30 H 0.49000 1.29620 0.27690
H31 H 0.55220 1.36770 0.16900
C42 C 0.65098(19) 0.89866(14) 0.32626(14)
H32 H 0.55700 0.90620 0.35710
H33 H 0.72100 0.84480 0.37810
H34 H 0.63690 0.87320 0.27190
loop_
_geom_bond_atom_site_label_1
_geom_bond_atom_site_label_2
_geom_bond_distance
_geom_bond_site_symmetry_1
_geom_bond_site_symmetry_2
C1 C2 1.369 1_555 1_555
C2 C3 1.474 1_555 1_555
C3 C4 1.385 1_555 1_555
C4 H1 0.930 1_555 1_555
C5 C4 1.397 1_555 1_555
H2 C5 0.930 1_555 1_555
C6 C5 1.354 1_555 1_555
H3 C6 0.930 1_555 1_555
C7 C6 1.408 1_555 1_555
C8 C7 1.414 1_555 1_555
H4 C8 0.930 1_555 1_555
C9 C8 1.357 1_555 1_555
H5 C9 0.931 1_555 1_555
C10 C9 1.397 1_555 1_555
H6 C10 0.930 1_555 1_555
C11 C10 1.379 1_555 1_555
C12 C11 1.462 1_555 1_555
C13 C2 1.473 1_555 1_555
C14 C13 1.470 1_555 1_555
C15 C14 1.386 1_555 1_555
H7 C15 0.930 1_555 1_555
C16 C15 1.397 1_555 1_555
H8 C16 0.930 1_555 1_555
C17 C16 1.361 1_555 1_555
H9 C17 0.930 1_555 1_555
C18 C17 1.402 1_555 1_555
C19 C18 1.415 1_555 1_555
H10 C19 0.930 1_555 1_555
C20 C19 1.354 1_555 1_555
H11 C20 0.930 1_555 1_555
C21 C20 1.397 1_555 1_555
H12 C21 0.930 1_555 1_555
C22 C1 1.453 1_555 1_555
C23 C3 1.420 1_555 1_555
C24 C14 1.418 1_555 1_555
C25 C1 1.496 1_555 1_555
C26 C25 1.401 1_555 1_555
C27 C26 1.388 1_555 1_555
H13 C27 0.930 1_555 1_555
C28 C27 1.382 1_555 1_555
C29 C28 1.382 1_555 1_555
H14 C29 0.930 1_555 1_555
C30 C25 1.398 1_555 1_555
C31 C26 1.507 1_555 1_555
H15 C31 0.960 1_555 1_555
H16 C31 0.960 1_555 1_555
H17 C31 0.959 1_555 1_555
C32 C28 1.511 1_555 1_555
H18 C32 0.960 1_555 1_555
H19 C32 0.960 1_555 1_555
H20 C32 0.960 1_555 1_555
C33 C30 1.508 1_555 1_555
H21 C33 0.960 1_555 1_555
H22 C33 0.960 1_555 1_555
H23 C33 0.960 1_555 1_555
C34 C12 1.501 1_555 1_555
C35 C34 1.403 1_555 1_555
C36 C35 1.387 1_555 1_555
H24 C36 0.931 1_555 1_555
C37 C36 1.373 1_555 1_555
C38 C37 1.383 1_555 1_555
H25 C38 0.930 1_555 1_555
C39 C34 1.397 1_555 1_555
C40 C35 1.498 1_555 1_555
H26 C40 0.960 1_555 1_555
H27 C40 0.960 1_555 1_555
H28 C40 0.960 1_555 1_555
C41 C37 1.511 1_555 1_555
H29 C41 0.960 1_555 1_555
H30 C41 0.961 1_555 1_555
H31 C41 0.959 1_555 1_555
C42 C39 1.507 1_555 1_555
H32 C42 0.960 1_555 1_555
H33 C42 0.960 1_555 1_555
H34 C42 0.960 1_555 1_555
C7 C23 1.420 1_555 1_555
C11 C23 1.427 1_555 1_555
C12 C13 1.364 1_555 1_555
C18 C24 1.418 1_555 1_555
C21 C22 1.382 1_555 1_555
C22 C24 1.427 1_555 1_555
C29 C30 1.386 1_555 1_555
C38 C39 1.396 1_555 1_555
#END
