
#######################################################################
#
#                 Cambridge Crystallographic Data Centre
#                                CCDC
#
#######################################################################
#
# If this CIF has been generated from an entry in the Cambridge
# Structural Database, then it will include bibliographic, chemical,
# crystal, experimental, refinement or atomic coordinate data resulting
# from the CCDC's data processing and validation procedures.
#
#######################################################################

data_CSD_CIF_KAGGIK
_audit_creation_date 2010-11-24
_audit_creation_method CSD-ConQuest-V1
_database_code_CSD KAGGIK
_database_code_depnum_ccdc_archive 'CCDC 762794'
_chemical_formula_sum 'C32 H30'
_chemical_formula_moiety
;
C32 H30
;
_journal_coden_Cambridge 179
_journal_volume 49
_journal_year 2010
_journal_page_first 7059
_journal_name_full 'Angew.Chem.,Int.Ed. '
loop_
_publ_author_name
"Tsun-Cheng Wu"
"Chia-Hua Chen"
"D.Hibi"
"A.Shimizu"
"Y.Tobe"
"Yao-Ting Wu"
_chemical_name_systematic
;
7,14-Di-n-butyldibenzo[de,mn]naphthacene
;
_cell_volume   1104.561
_exptl_crystal_colour 'red'
_exptl_crystal_density_diffrn 1.246
_exptl_crystal_description 'columnar'
_exptl_crystal_preparation 'dichloromethane/methanol'
_diffrn_ambient_temperature 100
#These two values have been output from a single CSD field.
_refine_ls_R_factor_gt 0.0995
_refine_ls_wR_factor_gt 0.0995
_symmetry_cell_setting triclinic
_symmetry_space_group_name_H-M 'P -1'
_symmetry_Int_Tables_number 2
loop_
_symmetry_equiv_pos_site_id
_symmetry_equiv_pos_as_xyz
1 x,y,z
2 -x,-y,-z
_cell_length_a 8.2081(6)
_cell_length_b 11.9527(11)
_cell_length_c 12.341(1)
_cell_angle_alpha 105.132(5)
_cell_angle_beta 101.741(4)
_cell_angle_gamma 101.179(4)
_cell_formula_units_Z 2
loop_
_atom_type_symbol
_atom_type_radius_bond
C 0.68
H 0.23
loop_
_atom_site_label
_atom_site_type_symbol
_atom_site_fract_x
_atom_site_fract_y
_atom_site_fract_z
C1 C 0.2348(4) 0.4394(3) 0.8096(3)
C2 C 0.2642(4) 0.4010(3) 0.7024(3)
C3 C 0.2675(5) 0.2760(3) 0.6448(3)
C4 C 0.3301(5) 0.2042(4) 0.7052(4)
H1 H 0.38200 0.23660 0.78680
C5 C 0.3180(6) 0.0848(4) 0.6480(4)
H2 H 0.36260 0.03740 0.69150
C6 C 0.2441(6) 0.0341(4) 0.5318(4)
H3 H 0.23210 -0.04870 0.49560
C7 C 0.1845(5) 0.1055(4) 0.4642(4)
C8 C 0.1041(6) 0.0573(4) 0.3436(4)
H4 H 0.08640 -0.02580 0.30510
C9 C 0.0523(5) 0.1285(4) 0.2827(4)
H5 H -0.00490 0.09390 0.20200
C10 C 0.0802(5) 0.2522(4) 0.3349(3)
H6 H 0.04570 0.30040 0.28890
C11 C 0.1590(4) 0.3053(3) 0.4548(3)
C12 C 0.2095(4) 0.4353(3) 0.5115(3)
C13 C 0.2722(4) 0.4806(3) 0.6297(3)
C14 C 0.3339(4) 0.6107(3) 0.6942(3)
C15 C 0.4189(5) 0.6947(3) 0.6528(3)
H7 H 0.45070 0.66830 0.58250
C16 C 0.4594(5) 0.8169(3) 0.7111(3)
H8 H 0.52010 0.87210 0.68070
C17 C 0.4134(5) 0.8591(3) 0.8116(3)
H9 H 0.43300 0.94300 0.84690
C18 C 0.3357(5) 0.7761(3) 0.8632(3)
C19 C 0.2923(5) 0.8146(4) 0.9696(3)
H10 H 0.30920 0.89780 1.00720
C20 C 0.2268(5) 0.7326(4) 1.0174(3)
H11 H 0.19650 0.75950 1.08830
C21 C 0.2022(5) 0.6099(3) 0.9662(3)
H12 H 0.15850 0.55540 1.00380
C22 C 0.2405(4) 0.5652(3) 0.8602(3)
C23 C 0.2037(5) 0.2292(3) 0.5214(3)
C24 C 0.3026(4) 0.6508(3) 0.8056(3)
C25 C 0.1796(5) 0.3547(3) 0.8769(3)
H13 H 0.14560 0.27130 0.82350
H14 H 0.07580 0.37140 0.90000
C26 C 0.3138(5) 0.3617(3) 0.9862(3)
H15 H 0.35590 0.44600 1.03760
H16 H 0.41320 0.33670 0.96330
C27 C 0.2423(5) 0.2824(3) 1.0543(3)
H17 H 0.33240 0.29510 1.12640
H18 H 0.14320 0.30780 1.07740
C28 C 0.1841(6) 0.1490(4) 0.9859(3)
H19 H 0.08190 0.13350 0.92150
H20 H 0.15600 0.10270 1.03750
H21 H 0.27710 0.12510 0.95460
C29 C 0.1743(5) 0.5121(3) 0.4344(3)
H22 H 0.17850 0.59280 0.48440
H23 H 0.05560 0.47680 0.38280
C30 C 0.2989(5) 0.5268(3) 0.3580(3)
H24 H 0.41710 0.56640 0.40910
H25 H 0.29900 0.44630 0.31000
C31 C 0.2511(5) 0.6005(3) 0.2777(3)
H26 H 0.33510 0.60610 0.23080
H27 H 0.13590 0.55820 0.22330
C32 C 0.2486(6) 0.7257(4) 0.3433(4)
H28 H 0.15750 0.72090 0.38370
H29 H 0.22620 0.77070 0.28840
H30 H 0.36030 0.76660 0.40040
loop_
_geom_bond_atom_site_label_1
_geom_bond_atom_site_label_2
_geom_bond_distance
_geom_bond_site_symmetry_1
_geom_bond_site_symmetry_2
C1 C2 1.369 1_555 1_555
C2 C3 1.486 1_555 1_555
C3 C4 1.380 1_555 1_555
C4 H1 0.950 1_555 1_555
C5 C4 1.391 1_555 1_555
H2 C5 0.950 1_555 1_555
C6 C5 1.357 1_555 1_555
H3 C6 0.950 1_555 1_555
C7 C6 1.425 1_555 1_555
C8 C7 1.410 1_555 1_555
H4 C8 0.950 1_555 1_555
C9 C8 1.347 1_555 1_555
H5 C9 0.950 1_555 1_555
C10 C9 1.402 1_555 1_555
H6 C10 0.950 1_555 1_555
C11 C10 1.404 1_555 1_555
C12 C11 1.463 1_555 1_555
C13 C2 1.470 1_555 1_555
C14 C13 1.481 1_555 1_555
C15 C14 1.377 1_555 1_555
H7 C15 0.950 1_555 1_555
C16 C15 1.388 1_555 1_555
H8 C16 0.950 1_555 1_555
C17 C16 1.369 1_555 1_555
H9 C17 0.950 1_555 1_555
C18 C17 1.430 1_555 1_555
C19 C18 1.415 1_555 1_555
H10 C19 0.950 1_555 1_555
C20 C19 1.351 1_555 1_555
H11 C20 0.951 1_555 1_555
C21 C20 1.393 1_555 1_555
H12 C21 0.950 1_555 1_555
C22 C1 1.457 1_555 1_555
C23 C3 1.422 1_555 1_555
C24 C14 1.426 1_555 1_555
C25 C1 1.528 1_555 1_555
H13 C25 0.990 1_555 1_555
H14 C25 0.991 1_555 1_555
C26 C25 1.530 1_555 1_555
H15 C26 0.990 1_555 1_555
H16 C26 0.990 1_555 1_555
C27 C26 1.533 1_555 1_555
H17 C27 0.990 1_555 1_555
H18 C27 0.990 1_555 1_555
C28 C27 1.523 1_555 1_555
H19 C28 0.980 1_555 1_555
H20 C28 0.979 1_555 1_555
H21 C28 0.980 1_555 1_555
C29 C12 1.509 1_555 1_555
H22 C29 0.990 1_555 1_555
H23 C29 0.990 1_555 1_555
C30 C29 1.541 1_555 1_555
H24 C30 0.990 1_555 1_555
H25 C30 0.990 1_555 1_555
C31 C30 1.531 1_555 1_555
H26 C31 0.990 1_555 1_555
H27 C31 0.990 1_555 1_555
C32 C31 1.510 1_555 1_555
H28 C32 0.980 1_555 1_555
H29 C32 0.980 1_555 1_555
H30 C32 0.980 1_555 1_555
C7 C23 1.424 1_555 1_555
C11 C23 1.426 1_555 1_555
C12 C13 1.364 1_555 1_555
C18 C24 1.425 1_555 1_555
C21 C22 1.401 1_555 1_555
C22 C24 1.435 1_555 1_555
#END
