
#######################################################################
#
#                 Cambridge Crystallographic Data Centre
#                                CCDC
#
#######################################################################
#
# If this CIF has been generated from an entry in the Cambridge
# Structural Database, then it will include bibliographic, chemical,
# crystal, experimental, refinement or atomic coordinate data resulting
# from the CCDC's data processing and validation procedures.
#
#######################################################################

data_CSD_CIF_KAGGEG01
_audit_creation_date 2013-07-05
_audit_creation_method CSD-ConQuest-V1
_database_code_CSD KAGGEG01
_database_code_depnum_ccdc_archive 'CCDC 924397'
_chemical_formula_sum 'C24 H14'
_chemical_formula_moiety
;
C24 H14
;
_journal_coden_Cambridge 1475
_journal_volume 4
_journal_year 2013
_journal_page_first 3294
_journal_name_full 'Chemical Science '
loop_
_publ_author_name
"Liang Shan"
"Zhixiong Liang"
"Xiaomin Xu"
"Qin Tang"
"Qian Miao"
_chemical_name_systematic
;
Dibenzo[de,mn]naphthacene
;
_chemical_name_common
;
Zethrene
;
_cell_volume    729.820
_exptl_crystal_colour 'red'
_exptl_crystal_density_diffrn 1.376
_exptl_crystal_description 'block'
_diffrn_ambient_temperature 296
#These two values have been output from a single CSD field.
_refine_ls_R_factor_gt 0.069
_refine_ls_wR_factor_gt 0.069
_symmetry_cell_setting monoclinic
_symmetry_space_group_name_H-M 'P 21/c'
_symmetry_Int_Tables_number 14
loop_
_symmetry_equiv_pos_site_id
_symmetry_equiv_pos_as_xyz
1 x,y,z
2 -x,1/2+y,1/2-z
3 -x,-y,-z
4 x,-1/2-y,-1/2+z
_cell_length_a 11.6522(13)
_cell_length_b 5.4552(6)
_cell_length_c 11.4821(12)
_cell_angle_alpha 90
_cell_angle_beta 90.607(2)
_cell_angle_gamma 90
_cell_formula_units_Z 2
loop_
_atom_type_symbol
_atom_type_radius_bond
C 0.68
H 0.23
loop_
_atom_site_label
_atom_site_type_symbol
_atom_site_fract_x
_atom_site_fract_y
_atom_site_fract_z
C1 C 0.97702(14) -0.2440(3) 0.10634(15)
H1 H 1.01820 -0.37060 0.14140
C2 C 0.85882(14) -0.2108(3) 0.13756(15)
C3 C 0.80698(16) -0.3602(4) 0.21794(16)
H2 H 0.84960 -0.48340 0.25390
C4 C 0.69157(16) -0.3304(4) 0.24665(17)
H3 H 0.65840 -0.43210 0.30190
C5 C 0.62765(15) -0.1530(4) 0.19395(16)
H4 H 0.55060 -0.13640 0.21280
C6 C 0.67628(14) 0.0068(3) 0.11096(14)
C7 C 0.61247(15) 0.1917(4) 0.05532(17)
H5 H 0.53510 0.21100 0.07220
C8 C 0.66300(16) 0.3429(4) -0.02312(17)
H6 H 0.61990 0.46570 -0.05890
C9 C 0.77939(15) 0.3159(4) -0.05072(16)
H7 H 0.81220 0.42140 -0.10460
C10 C 0.84604(14) 0.1366(3) 0.00036(14)
C11 C 0.96881(13) 0.0999(3) -0.02841(14)
C12 C 0.79415(13) -0.0207(3) 0.08251(13)
C1B C 1.02298(14) 0.2440(3) -0.10634(15)
H1B H 0.98180 0.37060 -0.14140
C2B C 1.14118(14) 0.2108(3) -0.13756(15)
C3B C 1.19302(16) 0.3602(4) -0.21794(16)
H2B H 1.15040 0.48340 -0.25390
C4B C 1.30843(16) 0.3304(4) -0.24665(17)
H3B H 1.34160 0.43210 -0.30190
C5B C 1.37235(15) 0.1530(4) -0.19395(16)
H4B H 1.44940 0.13640 -0.21280
C6B C 1.32372(14) -0.0068(3) -0.11096(14)
C7B C 1.38753(15) -0.1917(4) -0.05532(17)
H5B H 1.46490 -0.21100 -0.07220
C8B C 1.33700(16) -0.3429(4) 0.02312(17)
H6B H 1.38010 -0.46570 0.05890
C9B C 1.22061(15) -0.3159(4) 0.05072(16)
H7B H 1.18780 -0.42140 0.10460
C10B C 1.15396(14) -0.1366(3) -0.00036(14)
C11B C 1.03119(13) -0.0999(3) 0.02841(14)
C12B C 1.20585(13) 0.0207(3) -0.08251(13)
loop_
_geom_bond_atom_site_label_1
_geom_bond_atom_site_label_2
_geom_bond_distance
_geom_bond_site_symmetry_1
_geom_bond_site_symmetry_2
C1 H1 0.930 1_555 1_555
C2 C1 1.438 1_555 1_555
C3 C2 1.376 1_555 1_555
H2 C3 0.930 1_555 1_555
C4 C3 1.397 1_555 1_555
H3 C4 0.930 1_555 1_555
C5 C4 1.359 1_555 1_555
H4 C5 0.930 1_555 1_555
C6 C5 1.414 1_555 1_555
C7 C6 1.403 1_555 1_555
H5 C7 0.930 1_555 1_555
C8 C7 1.360 1_555 1_555
H6 C8 0.930 1_555 1_555
C9 C8 1.404 1_555 1_555
H7 C9 0.930 1_555 1_555
C10 C9 1.376 1_555 1_555
C11 C10 1.485 1_555 1_555
C12 C2 1.426 1_555 1_555
C1B C11 1.352 1_555 1_555
H1B C1B 0.930 1_555 1_555
C2B C1B 1.438 1_555 1_555
C3B C2B 1.376 1_555 1_555
H2B C3B 0.930 1_555 1_555
C4B C3B 1.397 1_555 1_555
H3B C4B 0.930 1_555 1_555
C5B C4B 1.359 1_555 1_555
H4B C5B 0.930 1_555 1_555
C6B C5B 1.414 1_555 1_555
C7B C6B 1.403 1_555 1_555
H5B C7B 0.930 1_555 1_555
C8B C7B 1.360 1_555 1_555
H6B C8B 0.930 1_555 1_555
C9B C8B 1.404 1_555 1_555
H7B C9B 0.930 1_555 1_555
C10B C9B 1.376 1_555 1_555
C11B C1 1.352 1_555 1_555
C12B C2B 1.426 1_555 1_555
C6 C12 1.423 1_555 1_555
C10 C12 1.416 1_555 1_555
C11 C11B 1.460 1_555 1_555
C6B C12B 1.423 1_555 1_555
C10B C11B 1.485 1_555 1_555
C10B C12B 1.416 1_555 1_555
#END
