
#######################################################################
#
#                 Cambridge Crystallographic Data Centre
#                                CCDC
#
#######################################################################
#
# If this CIF has been generated from an entry in the Cambridge
# Structural Database, then it will include bibliographic, chemical,
# crystal, experimental, refinement or atomic coordinate data resulting
# from the CCDC's data processing and validation procedures.
#
#######################################################################

data_CSD_CIF_KAJTEX
_audit_creation_date 2016-01-21
_audit_creation_method CSD-ConQuest-V1
_database_code_CSD KAJTEX
_database_code_depnum_ccdc_archive 'CCDC 1449014'
_chemical_formula_sum 'C46 H26'
_chemical_formula_moiety
;
C46 H26
;
_journal_coden_Cambridge 4
_journal_volume 138
_journal_year 2016
_journal_page_first 617
_journal_name_full 'J.Am.Chem.Soc. '
loop_
_publ_author_name
"N.V.Korovina"
"S.Das"
"Z.Nett"
"Xintian Feng"
"Jimmy Joy"
"R.Haiges"
"A.I.Krylov"
"S.E.Bradforth"
"M.E.Thompson"
_chemical_name_systematic
;
5-((2-(Tetracen-5-ylethynyl)phenyl)ethynyl)tetracene
;
_cell_volume   2915.184
_exptl_crystal_colour 'red'
_exptl_crystal_density_diffrn 1.318
_exptl_crystal_description 'prism'
_diffrn_ambient_temperature 100
#These two values have been output from a single CSD field.
_refine_ls_R_factor_gt 0.0418
_refine_ls_wR_factor_gt 0.0418
_symmetry_cell_setting monoclinic
_symmetry_space_group_name_H-M 'C 2/c'
_symmetry_Int_Tables_number 15
loop_
_symmetry_equiv_pos_site_id
_symmetry_equiv_pos_as_xyz
1 x,y,z
2 -x,y,1/2-z
3 1/2+x,1/2+y,z
4 1/2-x,1/2+y,1/2-z
5 -x,-y,-z
6 x,-y,-1/2+z
7 -1/2-x,-1/2-y,-z
8 -1/2+x,-1/2-y,-1/2+z
_cell_length_a 20.5497(14)
_cell_length_b 13.1892(9)
_cell_length_c 14.0762(10)
_cell_angle_alpha 90
_cell_angle_beta 130.1720(8)
_cell_angle_gamma 90
_cell_formula_units_Z 4
loop_
_atom_type_symbol
_atom_type_radius_bond
C 0.68
H 0.23
loop_
_atom_site_label
_atom_site_type_symbol
_atom_site_fract_x
_atom_site_fract_y
_atom_site_fract_z
C1 C 0.53493(7) -0.06931(8) 0.31346(10)
H1 H 0.55910 -0.13170 0.35640
C2 C 0.56921(7) 0.02150(8) 0.37714(9)
H2 H 0.61660 0.02090 0.46370
C3 C 0.53465(6) 0.11427(7) 0.31514(9)
C4 C 0.56696(6) 0.20799(8) 0.38223(9)
C5 C 0.59144(6) 0.28701(8) 0.43767(9)
C6 C 0.61939(6) 0.38351(7) 0.49823(9)
C7 C 0.70440(6) 0.39650(8) 0.60847(9)
C8 C 0.76515(6) 0.31570(8) 0.66387(9)
H3 H 0.74830 0.25070 0.62590
C9 C 0.84695(7) 0.33067(9) 0.77036(10)
H4 H 0.88650 0.27620 0.80520
C10 C 0.87375(7) 0.42730(9) 0.82989(10)
H5 H 0.93050 0.43640 0.90500
C11 C 0.81826(7) 0.50638(9) 0.77934(10)
H6 H 0.83700 0.57050 0.81950
C12 C 0.73202(6) 0.49485(8) 0.66651(9)
C13 C 0.67544(7) 0.57603(8) 0.61201(9)
H7 H 0.69430 0.64050 0.65120
C14 C 0.59099(6) 0.56518(8) 0.50032(9)
C15 C 0.53517(7) 0.64874(8) 0.44215(10)
H8 H 0.55490 0.71390 0.47940
C16 C 0.45189(7) 0.63809(8) 0.3316(1)
C17 C 0.39515(8) 0.72288(9) 0.26942(11)
H9 H 0.41410 0.78860 0.30500
C18 C 0.31461(7) 0.71028(9) 0.16018(11)
H10 H 0.27820 0.76740 0.11950
C19 C 0.28418(7) 0.61208(9) 0.10594(11)
H11 H 0.22770 0.60440 0.02960
C20 C 0.33535(7) 0.52934(9) 0.16274(10)
H12 H 0.31380 0.46430 0.12630
C21 C 0.42131(6) 0.53900(8) 0.27676(9)
C22 C 0.47594(6) 0.45617(8) 0.33341(9)
H13 H 0.45530 0.39090 0.29700
C23 C 0.56103(6) 0.46659(7) 0.44330(9)
C1A C 0.46507(7) -0.06931(8) 0.18654(10)
H1A H 0.44090 -0.13170 0.14360
C2A C 0.43079(7) 0.02150(8) 0.12286(9)
H2A H 0.38340 0.02090 0.03630
C3A C 0.46535(6) 0.11427(7) 0.18486(9)
C4A C 0.43304(6) 0.20799(8) 0.11777(9)
C5A C 0.40856(6) 0.28701(8) 0.06233(9)
C6A C 0.38061(6) 0.38351(7) 0.00177(9)
C7A C 0.29560(6) 0.39650(8) -0.10847(9)
C8A C 0.23485(6) 0.31570(8) -0.16387(9)
H3A H 0.25170 0.25070 -0.12590
C9A C 0.15305(7) 0.33067(9) -0.27036(10)
H4A H 0.11350 0.27620 -0.30520
C10A C 0.12625(7) 0.42730(9) -0.32989(10)
H5A H 0.06950 0.43640 -0.40500
C11A C 0.18174(7) 0.50638(9) -0.27934(10)
H6A H 0.16300 0.57050 -0.31950
C12A C 0.26798(6) 0.49485(8) -0.16651(9)
C13A C 0.32456(7) 0.57603(8) -0.11201(9)
H7A H 0.30570 0.64050 -0.15120
C14A C 0.40901(6) 0.56518(8) -0.00032(9)
C15A C 0.46483(7) 0.64874(8) 0.05785(10)
H8A H 0.44510 0.71390 0.02060
C16A C 0.54811(7) 0.63809(8) 0.1684(1)
C17A C 0.60485(8) 0.72288(9) 0.23058(11)
H9A H 0.58590 0.78860 0.19500
C18A C 0.68539(7) 0.71028(9) 0.33982(11)
H10A H 0.72180 0.76740 0.38050
C19A C 0.71582(7) 0.61208(9) 0.39406(11)
H11A H 0.77230 0.60440 0.47040
C20A C 0.66465(7) 0.52934(9) 0.33726(10)
H12A H 0.68620 0.46430 0.37370
C21A C 0.57869(6) 0.53900(8) 0.22324(9)
C22A C 0.52406(6) 0.45617(8) 0.16659(9)
H13A H 0.54470 0.39090 0.20300
C23A C 0.43897(6) 0.46659(7) 0.05670(9)
loop_
_geom_bond_atom_site_label_1
_geom_bond_atom_site_label_2
_geom_bond_distance
_geom_bond_site_symmetry_1
_geom_bond_site_symmetry_2
C1 H1 0.950 1_555 1_555
C2 C1 1.385 1_555 1_555
H2 C2 0.950 1_555 1_555
C3 C2 1.401 1_555 1_555
C4 C3 1.432 1_555 1_555
C5 C4 1.201 1_555 1_555
C6 C5 1.430 1_555 1_555
C7 C6 1.411 1_555 1_555
C8 C7 1.430 1_555 1_555
H3 C8 0.950 1_555 1_555
C9 C8 1.364 1_555 1_555
H4 C9 0.950 1_555 1_555
C10 C9 1.426 1_555 1_555
H5 C10 0.949 1_555 1_555
C11 C10 1.359 1_555 1_555
H6 C11 0.950 1_555 1_555
C12 C7 1.440 1_555 1_555
C13 C12 1.391 1_555 1_555
H7 C13 0.950 1_555 1_555
C14 C13 1.408 1_555 1_555
C15 C14 1.410 1_555 1_555
H8 C15 0.951 1_555 1_555
C16 C15 1.391 1_555 1_555
C17 C16 1.435 1_555 1_555
H9 C17 0.950 1_555 1_555
C18 C17 1.359 1_555 1_555
H10 C18 0.950 1_555 1_555
C19 C18 1.427 1_555 1_555
H11 C19 0.950 1_555 1_555
C20 C19 1.361 1_555 1_555
H12 C20 0.950 1_555 1_555
C21 C16 1.440 1_555 1_555
C22 C21 1.391 1_555 1_555
H13 C22 0.950 1_555 1_555
C23 C6 1.428 1_555 1_555
C1A C1 1.394 1_555 1_555
H1A C1A 0.950 1_555 1_555
C2A C1A 1.385 1_555 1_555
H2A C2A 0.950 1_555 1_555
C3A C3 1.422 1_555 1_555
C4A C3A 1.432 1_555 1_555
C5A C4A 1.201 1_555 1_555
C6A C5A 1.430 1_555 1_555
C7A C6A 1.411 1_555 1_555
C8A C7A 1.430 1_555 1_555
H3A C8A 0.950 1_555 1_555
C9A C8A 1.364 1_555 1_555
H4A C9A 0.950 1_555 1_555
C10A C9A 1.426 1_555 1_555
H5A C10A 0.949 1_555 1_555
C11A C10A 1.359 1_555 1_555
H6A C11A 0.950 1_555 1_555
C12A C7A 1.440 1_555 1_555
C13A C12A 1.391 1_555 1_555
H7A C13A 0.950 1_555 1_555
C14A C13A 1.408 1_555 1_555
C15A C14A 1.410 1_555 1_555
H8A C15A 0.951 1_555 1_555
C16A C15A 1.391 1_555 1_555
C17A C16A 1.435 1_555 1_555
H9A C17A 0.950 1_555 1_555
C18A C17A 1.359 1_555 1_555
H10A C18A 0.950 1_555 1_555
C19A C18A 1.427 1_555 1_555
H11A C19A 0.950 1_555 1_555
C20A C19A 1.361 1_555 1_555
H12A C20A 0.950 1_555 1_555
C21A C16A 1.440 1_555 1_555
C22A C21A 1.391 1_555 1_555
H13A C22A 0.950 1_555 1_555
C23A C6A 1.428 1_555 1_555
C11 C12 1.433 1_555 1_555
C14 C23 1.441 1_555 1_555
C20 C21 1.433 1_555 1_555
C22 C23 1.407 1_555 1_555
C2A C3A 1.401 1_555 1_555
C11A C12A 1.433 1_555 1_555
C14A C23A 1.441 1_555 1_555
C20A C21A 1.433 1_555 1_555
C22A C23A 1.407 1_555 1_555
#END
