
#######################################################################
#
#                 Cambridge Crystallographic Data Centre
#                                CCDC
#
#######################################################################
#
# If this CIF has been generated from an entry in the Cambridge
# Structural Database, then it will include bibliographic, chemical,
# crystal, experimental, refinement or atomic coordinate data resulting
# from the CCDC's data processing and validation procedures.
#
#######################################################################

data_CSD_CIF_KAJTUM
_audit_creation_date 2011-02-21
_audit_creation_method CSD-ConQuest-V1
_database_code_CSD KAJTUM
_database_code_depnum_ccdc_archive 'CCDC 798028'
_chemical_formula_sum 'C56 H38'
_chemical_formula_moiety
;
C56 H38
;
_journal_coden_Cambridge 35
_journal_volume 75
_journal_year 2010
_journal_page_first 2482
_journal_name_full 'J.Org.Chem. '
loop_
_publ_author_name
"Z.J.O'Brien"
"S.D.Karlen"
"S.Khan"
"M.A.Garcia-Garibay"
_chemical_name_systematic
;
9,10-bis(3,3,3-Triphenylprop-1-yn-1-yl)anthracene
;
_cell_volume   1981.168
_exptl_crystal_colour 'green'
_exptl_crystal_density_diffrn 1.192
_exptl_crystal_description 'parallelepiped'
_diffrn_ambient_temperature 298
#These two values have been output from a single CSD field.
_refine_ls_R_factor_gt 0.0573
_refine_ls_wR_factor_gt 0.0573
_symmetry_cell_setting monoclinic
_symmetry_space_group_name_H-M 'P 21/n'
_symmetry_Int_Tables_number 14
loop_
_symmetry_equiv_pos_site_id
_symmetry_equiv_pos_as_xyz
1 x,y,z
2 1/2-x,1/2+y,1/2-z
3 -x,-y,-z
4 -1/2+x,-1/2-y,-1/2+z
_cell_length_a 8.5969(12)
_cell_length_b 14.440(2)
_cell_length_c 16.362(2)
_cell_angle_alpha 90
_cell_angle_beta 102.739(3)
_cell_angle_gamma 90
_cell_formula_units_Z 2
loop_
_atom_type_symbol
_atom_type_radius_bond
C 0.68
H 0.23
loop_
_atom_site_label
_atom_site_type_symbol
_atom_site_fract_x
_atom_site_fract_y
_atom_site_fract_z
C1 C 1.1772(3) 0.85371(16) 0.09207(13)
H1 H 1.13790 0.82250 0.13300
C2 C 1.0864(3) 0.92727(15) 0.04683(12)
C3 C 0.9386(3) 0.95451(14) 0.06278(12)
C4 C 0.8516(3) 1.02746(15) 0.01667(13)
C5 C 0.7019(3) 1.05622(16) 0.03012(13)
H2 H 0.65950 1.02650 0.07070
C6 C 0.6188(3) 1.12620(17) -0.01494(15)
H3 H 0.52070 1.14410 -0.00500
C7 C 0.6810(3) 1.17142(17) -0.07662(15)
H4 H 0.62370 1.21940 -0.10730
C8 C 0.8774(3) 0.90553(16) 0.12566(14)
C9 C 0.8384(3) 0.85950(16) 0.17791(14)
C10 C 0.8006(3) 0.79861(15) 0.24381(13)
C11 C 0.7185(3) 0.85694(16) 0.30107(14)
C12 C 0.7497(3) 0.84495(19) 0.38683(15)
H5 H 0.82650 0.80240 0.41200
C13 C 0.6680(4) 0.8955(2) 0.43587(17)
H6 H 0.69020 0.88670 0.49360
C14 C 0.5555(4) 0.9578(2) 0.3997(2)
H7 H 0.50140 0.99220 0.43270
C15 C 0.5216(3) 0.97020(19) 0.31477(19)
H8 H 0.44350 1.01230 0.29000
C16 C 0.6030(3) 0.92030(18) 0.26609(16)
H9 H 0.57960 0.92950 0.20840
C17 C 0.6885(3) 0.72012(16) 0.20284(14)
C18 C 0.6919(3) 0.68827(18) 0.12349(16)
H10 H 0.76020 0.71570 0.09370
C19 C 0.5947(4) 0.6160(2) 0.08812(18)
H11 H 0.59780 0.59540 0.03460
C20 C 0.4944(4) 0.5746(2) 0.1309(2)
H12 H 0.42930 0.52610 0.10660
C21 C 0.4899(3) 0.6047(2) 0.2092(2)
H13 H 0.42220 0.57610 0.23860
C22 C 0.5855(3) 0.67741(18) 0.24509(16)
H14 H 0.58050 0.69790 0.29830
C23 C 0.9613(3) 0.75860(17) 0.29311(13)
C24 C 1.0904(3) 0.8157(2) 0.31837(16)
H15 H 1.08090 0.87830 0.30480
C25 C 1.2346(4) 0.7821(3) 0.36373(19)
H16 H 1.32010 0.82230 0.38080
C26 C 1.2521(3) 0.6907(3) 0.38353(17)
H17 H 1.34900 0.66800 0.41400
C27 C 1.1257(3) 0.6328(2) 0.35813(16)
H18 H 1.13650 0.57010 0.37100
C28 C 0.9821(3) 0.66643(18) 0.31363(14)
H19 H 0.89700 0.62580 0.29700
C1B C 0.8228(3) 1.14629(16) -0.09207(13)
H1B H 0.86210 1.17750 -0.13300
C2B C 0.9136(3) 1.07273(15) -0.04683(12)
C3B C 1.0614(3) 1.04549(14) -0.06278(12)
C4B C 1.1484(3) 0.97254(15) -0.01667(13)
C5B C 1.2981(3) 0.94378(16) -0.03012(13)
H2B H 1.34050 0.97350 -0.07070
C6B C 1.3812(3) 0.87380(17) 0.01494(15)
H3B H 1.47930 0.85590 0.00500
C7B C 1.3190(3) 0.82858(17) 0.07662(15)
H4B H 1.37630 0.78060 0.10730
C8B C 1.1226(3) 1.09447(16) -0.12566(14)
C9B C 1.1616(3) 1.14050(16) -0.17791(14)
C10B C 1.1994(3) 1.20139(15) -0.24381(13)
C11B C 1.2815(3) 1.14306(16) -0.30107(14)
C12B C 1.2503(3) 1.15505(19) -0.38683(15)
H5B H 1.17350 1.19760 -0.41200
C13B C 1.3320(4) 1.1045(2) -0.43587(17)
H6B H 1.30980 1.11330 -0.49360
C14B C 1.4445(4) 1.0422(2) -0.3997(2)
H7B H 1.49860 1.00780 -0.43270
C15B C 1.4784(3) 1.02980(19) -0.31477(19)
H8B H 1.55650 0.98770 -0.29000
C16B C 1.3970(3) 1.07970(18) -0.26609(16)
H9B H 1.42040 1.07050 -0.20840
C17B C 1.3115(3) 1.27988(16) -0.20284(14)
C18B C 1.3081(3) 1.31173(18) -0.12349(16)
H10B H 1.23980 1.28430 -0.09370
C19B C 1.4053(4) 1.3840(2) -0.08812(18)
H11B H 1.40220 1.40460 -0.03460
C20B C 1.5056(4) 1.4254(2) -0.1309(2)
H12B H 1.57070 1.47390 -0.10660
C21B C 1.5101(3) 1.3953(2) -0.2092(2)
H13B H 1.57780 1.42390 -0.23860
C22B C 1.4145(3) 1.32259(18) -0.24509(16)
H14B H 1.41950 1.30210 -0.29830
C23B C 1.0387(3) 1.24140(17) -0.29311(13)
C24B C 0.9096(3) 1.1843(2) -0.31837(16)
H15B H 0.91910 1.12170 -0.30480
C25B C 0.7654(4) 1.2179(3) -0.36373(19)
H16B H 0.67990 1.17770 -0.38080
C26B C 0.7479(3) 1.3093(3) -0.38353(17)
H17B H 0.65100 1.33200 -0.41400
C27B C 0.8743(3) 1.3672(2) -0.35813(16)
H18B H 0.86350 1.42990 -0.37100
C28B C 1.0179(3) 1.33357(18) -0.31363(14)
H19B H 1.10300 1.37420 -0.29700
loop_
_geom_bond_atom_site_label_1
_geom_bond_atom_site_label_2
_geom_bond_distance
_geom_bond_site_symmetry_1
_geom_bond_site_symmetry_2
C1 H1 0.930 1_555 1_555
C2 C1 1.425 1_555 1_555
C3 C2 1.408 1_555 1_555
C4 C3 1.410 1_555 1_555
C5 C4 1.415 1_555 1_555
H2 C5 0.930 1_555 1_555
C6 C5 1.357 1_555 1_555
H3 C6 0.930 1_555 1_555
C7 C6 1.403 1_555 1_555
H4 C7 0.930 1_555 1_555
C8 C3 1.440 1_555 1_555
C9 C8 1.188 1_555 1_555
C10 C9 1.482 1_555 1_555
C11 C10 1.542 1_555 1_555
C12 C11 1.380 1_555 1_555
H5 C12 0.929 1_555 1_555
C13 C12 1.385 1_555 1_555
H6 C13 0.930 1_555 1_555
C14 C13 1.357 1_555 1_555
H7 C14 0.930 1_555 1_555
C15 C14 1.367 1_555 1_555
H8 C15 0.930 1_555 1_555
C16 C11 1.378 1_555 1_555
H9 C16 0.930 1_555 1_555
C17 C10 1.542 1_555 1_555
C18 C17 1.384 1_555 1_555
H10 C18 0.930 1_555 1_555
C19 C18 1.382 1_555 1_555
H11 C19 0.931 1_555 1_555
C20 C19 1.363 1_555 1_555
H12 C20 0.929 1_555 1_555
C21 C20 1.361 1_555 1_555
H13 C21 0.930 1_555 1_555
C22 C17 1.383 1_555 1_555
H14 C22 0.929 1_555 1_555
C23 C10 1.550 1_555 1_555
C24 C23 1.371 1_555 1_555
H15 C24 0.930 1_555 1_555
C25 C24 1.385 1_555 1_555
H16 C25 0.930 1_555 1_555
C26 C25 1.359 1_555 1_555
H17 C26 0.931 1_555 1_555
C27 C26 1.361 1_555 1_555
H18 C27 0.930 1_555 1_555
C28 C23 1.375 1_555 1_555
H19 C28 0.930 1_555 1_555
C1B C7 1.348 1_555 1_555
H1B C1B 0.930 1_555 1_555
C2B C4 1.427 1_555 1_555
C3B C2B 1.408 1_555 1_555
C4B C2 1.427 1_555 1_555
C5B C4B 1.415 1_555 1_555
H2B C5B 0.930 1_555 1_555
C6B C5B 1.357 1_555 1_555
H3B C6B 0.930 1_555 1_555
C7B C1 1.348 1_555 1_555
H4B C7B 0.930 1_555 1_555
C8B C3B 1.440 1_555 1_555
C9B C8B 1.188 1_555 1_555
C10B C9B 1.482 1_555 1_555
C11B C10B 1.542 1_555 1_555
C12B C11B 1.380 1_555 1_555
H5B C12B 0.929 1_555 1_555
C13B C12B 1.385 1_555 1_555
H6B C13B 0.930 1_555 1_555
C14B C13B 1.357 1_555 1_555
H7B C14B 0.930 1_555 1_555
C15B C14B 1.367 1_555 1_555
H8B C15B 0.930 1_555 1_555
C16B C11B 1.378 1_555 1_555
H9B C16B 0.930 1_555 1_555
C17B C10B 1.542 1_555 1_555
C18B C17B 1.384 1_555 1_555
H10B C18B 0.930 1_555 1_555
C19B C18B 1.382 1_555 1_555
H11B C19B 0.931 1_555 1_555
C20B C19B 1.363 1_555 1_555
H12B C20B 0.929 1_555 1_555
C21B C20B 1.361 1_555 1_555
H13B C21B 0.930 1_555 1_555
C22B C17B 1.383 1_555 1_555
H14B C22B 0.929 1_555 1_555
C23B C10B 1.550 1_555 1_555
C24B C23B 1.371 1_555 1_555
H15B C24B 0.930 1_555 1_555
C25B C24B 1.385 1_555 1_555
H16B C25B 0.930 1_555 1_555
C26B C25B 1.359 1_555 1_555
H17B C26B 0.931 1_555 1_555
C27B C26B 1.361 1_555 1_555
H18B C27B 0.930 1_555 1_555
C28B C23B 1.375 1_555 1_555
H19B C28B 0.930 1_555 1_555
C15 C16 1.374 1_555 1_555
C21 C22 1.382 1_555 1_555
C27 C28 1.376 1_555 1_555
C1B C2B 1.425 1_555 1_555
C3B C4B 1.410 1_555 1_555
C6B C7B 1.403 1_555 1_555
C15B C16B 1.374 1_555 1_555
C21B C22B 1.382 1_555 1_555
C27B C28B 1.376 1_555 1_555
#END
