
#######################################################################
#
#                 Cambridge Crystallographic Data Centre
#                                CCDC
#
#######################################################################
#
# If this CIF has been generated from an entry in the Cambridge
# Structural Database, then it will include bibliographic, chemical,
# crystal, experimental, refinement or atomic coordinate data resulting
# from the CCDC's data processing and validation procedures.
#
#######################################################################

data_CSD_CIF_KAKLEO
_audit_creation_date 2005-07-22
_audit_creation_method CSD-ConQuest-V1
_database_code_CSD KAKLEO
_database_code_depnum_ccdc_archive 'CCDC 257118'
_chemical_formula_sum 'C33 H20'
_chemical_formula_moiety
;
C33 H20
;
_journal_coden_Cambridge 1078
_journal_year 2004
_journal_name_full 'CSD Communication(Private Communication) '
loop_
_publ_author_name
"J.Einsiedler"
"R.Gompper"
"K.Polborn"
_chemical_name_systematic
;
Spiro(dibenzo(a,i)fluorene-13,9'-fluorene)
;
_cell_volume   4367.627
_exptl_crystal_colour 'pale yellow'
_exptl_crystal_density_diffrn 1.267
_exptl_special_details
;
contribution from Department Chemie, Universitat Munchen, Butenandtstr. 5-13, 
81377 Munchen, Germany
;
_exptl_crystal_description 'plate'
_diffrn_ambient_temperature 295
#These two values have been output from a single CSD field.
_refine_ls_R_factor_gt 0.0433
_refine_ls_wR_factor_gt 0.0433
_symmetry_cell_setting monoclinic
_symmetry_space_group_name_H-M 'P 21/n'
_symmetry_Int_Tables_number 14
loop_
_symmetry_equiv_pos_site_id
_symmetry_equiv_pos_as_xyz
1 x,y,z
2 1/2-x,1/2+y,1/2-z
3 -x,-y,-z
4 -1/2+x,-1/2-y,-1/2+z
_cell_length_a 17.0006(17)
_cell_length_b 7.9116(8)
_cell_length_c 33.041(3)
_cell_angle_alpha 90
_cell_angle_beta 100.643(7)
_cell_angle_gamma 90
_cell_formula_units_Z 8
loop_
_atom_type_symbol
_atom_type_radius_bond
C 0.68
H 0.23
loop_
_atom_site_label
_atom_site_type_symbol
_atom_site_fract_x
_atom_site_fract_y
_atom_site_fract_z
C1 C 0.05257(12) 0.7605(3) 0.11354(6)
C2 C 0.05649(13) 0.6070(3) 0.14152(7)
C3 C 0.00541(15) 0.4713(3) 0.13835(8)
H1 H -0.03860 0.46480 0.11700
C4 C 0.02076(18) 0.3443(4) 0.16761(9)
H2 H -0.01360 0.25210 0.16600
C5 C 0.08643(19) 0.3526(4) 0.19913(9)
H3 H 0.09630 0.26530 0.21820
C6 C 0.13729(16) 0.4889(4) 0.20249(8)
H4 H 0.18140 0.49450 0.22380
C7 C 0.12211(13) 0.6179(3) 0.17383(7)
C8 C 0.16312(13) 0.7790(3) 0.17023(7)
C9 C 0.22971(15) 0.8513(4) 0.19487(8)
H5 H 0.25620 0.79590 0.21830
C10 C 0.25558(16) 1.0068(4) 0.18383(9)
H6 H 0.30060 1.05560 0.19980
C11 C 0.21602(17) 1.0913(4) 0.14966(9)
H7 H 0.23400 1.19710 0.14310
C12 C 0.14971(15) 1.0198(3) 0.12497(8)
H8 H 0.12310 1.07620 0.10170
C13 C 0.12397(13) 0.8639(3) 0.13545(7)
C14 C -0.02607(13) 0.8584(3) 0.10781(7)
C15 C -0.06568(13) 0.9250(3) 0.13838(7)
C16 C -0.03847(14) 0.9066(3) 0.18138(7)
H9 H 0.00810 0.84580 0.19090
C17 C -0.07924(16) 0.9761(3) 0.20892(8)
H10 H -0.06050 0.96220 0.23700
C18 C -0.14899(17) 1.0683(4) 0.19531(10)
H11 H -0.17630 1.11600 0.21440
C19 C -0.17726(15) 1.0891(4) 0.1547(1)
H12 H -0.22380 1.15120 0.14620
C20 C -0.13728(14) 1.0179(3) 0.12468(8)
C21 C -0.16592(15) 1.0387(4) 0.08213(9)
H13 H -0.21200 1.10210 0.07350
C22 C -0.12796(15) 0.9683(4) 0.05342(8)
H14 H -0.14880 0.97980 0.02550
C23 C -0.05696(14) 0.8785(3) 0.06667(7)
C24 C -0.00438(14) 0.7934(3) 0.04243(7)
C25 C -0.01226(18) 0.7790(4) -0.00061(8)
H15 H -0.05440 0.83090 -0.01820
C26 C 0.04327(19) 0.6873(4) -0.01578(8)
H16 H 0.03880 0.67760 -0.04420
C27 C 0.10737(17) 0.6066(4) 0.00996(8)
C28 C 0.1615(2) 0.5041(4) -0.00646(10)
H17 H 0.15620 0.49370 -0.03490
C29 C 0.2214(2) 0.4202(4) 0.01844(11)
H18 H 0.25560 0.35060 0.00700
C30 C 0.23178(18) 0.4383(4) 0.06112(10)
H19 H 0.27370 0.38270 0.07800
C31 C 0.18068(16) 0.5372(3) 0.07827(8)
H20 H 0.18850 0.54870 0.10670
C32 C 0.11634(15) 0.6220(3) 0.05340(7)
C33 C 0.05854(14) 0.7195(3) 0.06891(7)
C34 C 0.53077(13) 0.2563(3) 0.12358(7)
C35 C 0.47523(13) 0.3565(3) 0.14640(7)
C36 C 0.43958(15) 0.5106(4) 0.13649(9)
H21 H 0.44800 0.56920 0.11330
C37 C 0.39080(17) 0.5768(4) 0.16180(12)
H22 H 0.36570 0.68030 0.15520
C38 C 0.37883(18) 0.4930(5) 0.19626(12)
H23 H 0.34620 0.54030 0.21300
C39 C 0.41451(16) 0.3393(5) 0.20646(9)
H24 H 0.40620 0.28250 0.22990
C40 C 0.46332(14) 0.2693(3) 0.18135(8)
C41 C 0.50818(14) 0.1111(3) 0.18419(8)
C42 C 0.51511(18) -0.0166(4) 0.21285(9)
H25 H 0.48850 -0.01080 0.23500
C43 C 0.5626(2) -0.1535(5) 0.20790(12)
H26 H 0.56750 -0.24170 0.22680
C44 C 0.6026(2) -0.1618(4) 0.17551(12)
H27 H 0.63500 -0.25460 0.17310
C45 C 0.59568(16) -0.0346(4) 0.14644(9)
H28 H 0.62260 -0.04100 0.12440
C46 C 0.54806(14) 0.1015(3) 0.15088(7)
C47 C 0.49270(14) 0.2187(3) 0.07888(7)
C48 C 0.42553(15) 0.1170(3) 0.06343(8)
C49 C 0.38033(15) 0.0273(4) 0.08822(10)
H29 H 0.39280 0.03820 0.11670
C50 C 0.31868(17) -0.0748(4) 0.07095(11)
H30 H 0.28950 -0.13230 0.08780
C51 C 0.29866(19) -0.0944(5) 0.02826(13)
H31 H 0.25720 -0.16660 0.01690
C52 C 0.33978(19) -0.0080(5) 0.00351(11)
H32 H 0.32580 -0.02050 -0.02490
C53 C 0.40337(17) 0.1003(4) 0.02005(9)
C54 C 0.4472(2) 0.1867(4) -0.00559(9)
H33 H 0.43150 0.17660 -0.03400
C55 C 0.5119(2) 0.2850(4) 0.00954(8)
H34 H 0.54000 0.34110 -0.00800
C56 C 0.53496(15) 0.2991(3) 0.05278(8)
C57 C 0.60351(15) 0.3850(3) 0.07708(8)
C58 C 0.66330(18) 0.4821(4) 0.06389(9)
H35 H 0.66190 0.50030 0.03600
C59 C 0.72317(18) 0.5491(4) 0.09235(10)
H36 H 0.76180 0.61630 0.08370
C60 C 0.72796(15) 0.5189(4) 0.13484(9)
C61 C 0.79153(16) 0.5819(4) 0.16428(11)
H37 H 0.83030 0.64840 0.15560
C62 C 0.79797(16) 0.5485(4) 0.20509(11)
H38 H 0.84080 0.59130 0.22390
C63 C 0.73958(15) 0.4491(4) 0.21858(9)
H39 H 0.74440 0.42390 0.24640
C64 C 0.67616(14) 0.3895(3) 0.19136(8)
H40 H 0.63730 0.32640 0.20100
C65 C 0.66765(14) 0.4207(3) 0.14883(8)
C66 C 0.60471(13) 0.3583(3) 0.11827(8)
loop_
_geom_bond_atom_site_label_1
_geom_bond_atom_site_label_2
_geom_bond_distance
_geom_bond_site_symmetry_1
_geom_bond_site_symmetry_2
C1 C2 1.520 1_555 1_555
C2 C3 1.373 1_555 1_555
C3 H1 0.930 1_555 1_555
C4 C3 1.385 1_555 1_555
H2 C4 0.930 1_555 1_555
C5 C4 1.381 1_555 1_555
H3 C5 0.929 1_555 1_555
C6 C5 1.374 1_555 1_555
H4 C6 0.930 1_555 1_555
C7 C2 1.397 1_555 1_555
C8 C7 1.468 1_555 1_555
C9 C8 1.390 1_555 1_555
H5 C9 0.930 1_555 1_555
C10 C9 1.378 1_555 1_555
H6 C10 0.930 1_555 1_555
C11 C10 1.376 1_555 1_555
H7 C11 0.930 1_555 1_555
C12 C11 1.384 1_555 1_555
H8 C12 0.931 1_555 1_555
C13 C1 1.530 1_555 1_555
C14 C1 1.526 1_555 1_555
C15 C14 1.415 1_555 1_555
C16 C15 1.418 1_555 1_555
H9 C16 0.930 1_555 1_555
C17 C16 1.358 1_555 1_555
H10 C17 0.930 1_555 1_555
C18 C17 1.394 1_555 1_555
H11 C18 0.930 1_555 1_555
C19 C18 1.349 1_555 1_555
H12 C19 0.930 1_555 1_555
C20 C15 1.422 1_555 1_555
C21 C20 1.410 1_555 1_555
H13 C21 0.930 1_555 1_555
C22 C21 1.361 1_555 1_555
H14 C22 0.930 1_555 1_555
C23 C14 1.373 1_555 1_555
C24 C23 1.469 1_555 1_555
C25 C24 1.408 1_555 1_555
H15 C25 0.930 1_555 1_555
C26 C25 1.358 1_555 1_555
H16 C26 0.931 1_555 1_555
C27 C26 1.406 1_555 1_555
C28 C27 1.408 1_555 1_555
H17 C28 0.931 1_555 1_555
C29 C28 1.358 1_555 1_555
H18 C29 0.930 1_555 1_555
C30 C29 1.396 1_555 1_555
H19 C30 0.930 1_555 1_555
C31 C30 1.367 1_555 1_555
H20 C31 0.929 1_555 1_555
C32 C27 1.420 1_555 1_555
C33 C1 1.531 1_555 1_555
C34 C35 1.533 1_555 1_555
C35 C36 1.374 1_555 1_555
C36 H21 0.929 1_555 1_555
C37 C36 1.385 1_555 1_555
H22 C37 0.930 1_555 1_555
C38 C37 1.365 1_555 1_555
H23 C38 0.931 1_555 1_555
C39 C38 1.373 1_555 1_555
H24 C39 0.929 1_555 1_555
C40 C35 1.392 1_555 1_555
C41 C40 1.460 1_555 1_555
C42 C41 1.375 1_555 1_555
H25 C42 0.930 1_555 1_555
C43 C42 1.379 1_555 1_555
H26 C43 0.930 1_555 1_555
C44 C43 1.371 1_555 1_555
H27 C44 0.930 1_555 1_555
C45 C44 1.381 1_555 1_555
H28 C45 0.930 1_555 1_555
C46 C34 1.517 1_555 1_555
C47 C34 1.528 1_555 1_555
C48 C47 1.413 1_555 1_555
C49 C48 1.413 1_555 1_555
H29 C49 0.930 1_555 1_555
C50 C49 1.362 1_555 1_555
H30 C50 0.930 1_555 1_555
C51 C50 1.397 1_555 1_555
H31 C51 0.931 1_555 1_555
C52 C51 1.355 1_555 1_555
H32 C52 0.930 1_555 1_555
C53 C48 1.419 1_555 1_555
C54 C53 1.405 1_555 1_555
H33 C54 0.931 1_555 1_555
C55 C54 1.364 1_555 1_555
H34 C55 0.929 1_555 1_555
C56 C47 1.376 1_555 1_555
C57 C56 1.456 1_555 1_555
C58 C57 1.406 1_555 1_555
H35 C58 0.929 1_555 1_555
C59 C58 1.359 1_555 1_555
H36 C59 0.930 1_555 1_555
C60 C59 1.412 1_555 1_555
C61 C60 1.405 1_555 1_555
H37 C61 0.929 1_555 1_555
C62 C61 1.358 1_555 1_555
H38 C62 0.929 1_555 1_555
C63 C62 1.402 1_555 1_555
H39 C63 0.929 1_555 1_555
C64 C63 1.355 1_555 1_555
H40 C64 0.930 1_555 1_555
C65 C60 1.430 1_555 1_555
C66 C34 1.531 1_555 1_555
C6 C7 1.384 1_555 1_555
C8 C13 1.390 1_555 1_555
C12 C13 1.374 1_555 1_555
C19 C20 1.419 1_555 1_555
C22 C23 1.399 1_555 1_555
C24 C33 1.381 1_555 1_555
C31 C32 1.411 1_555 1_555
C32 C33 1.417 1_555 1_555
C39 C40 1.392 1_555 1_555
C41 C46 1.397 1_555 1_555
C45 C46 1.371 1_555 1_555
C52 C53 1.408 1_555 1_555
C55 C56 1.414 1_555 1_555
C57 C66 1.374 1_555 1_555
C64 C65 1.408 1_555 1_555
C65 C66 1.417 1_555 1_555
#END
