
#######################################################################
#
#                 Cambridge Crystallographic Data Centre
#                                CCDC
#
#######################################################################
#
# If this CIF has been generated from an entry in the Cambridge
# Structural Database, then it will include bibliographic, chemical,
# crystal, experimental, refinement or atomic coordinate data resulting
# from the CCDC's data processing and validation procedures.
#
#######################################################################

data_CSD_CIF_KALJEP
_audit_creation_date 2017-03-05
_audit_creation_method CSD-ConQuest-V1
_database_code_CSD KALJEP
_database_code_depnum_ccdc_archive 'CCDC 832522'
_chemical_formula_sum 'C30 H20'
_chemical_formula_moiety
;
C30 H20
;
_journal_coden_Cambridge 862
_journal_volume 187
_journal_year 2017
_journal_page_first 14
_journal_name_full 'J.Lumin. '
loop_
_publ_author_name
"Ye-Xin Li"
"Xiao-Feng Yang"
"Yu Cui"
"Yong Nie"
"Fang-Fang Wang"
"Guo-Xin Sun"
_chemical_name_systematic
;
9-(2-(9-anthryl)vinyl)phenanthrene
;
_cell_volume    981.577
_exptl_crystal_colour 'yellow'
_exptl_crystal_density_diffrn 1.287
_exptl_crystal_description 'block'
_diffrn_ambient_temperature 293
#These two values have been output from a single CSD field.
_refine_ls_R_factor_gt 0.0838
_refine_ls_wR_factor_gt 0.0838
_symmetry_cell_setting triclinic
_symmetry_space_group_name_H-M 'P -1'
_symmetry_Int_Tables_number 2
loop_
_symmetry_equiv_pos_site_id
_symmetry_equiv_pos_as_xyz
1 x,y,z
2 -x,-y,-z
_cell_length_a 9.1646(19)
_cell_length_b 9.6259(19)
_cell_length_c 12.531(2)
_cell_angle_alpha 102.514(16)
_cell_angle_beta 111.253(18)
_cell_angle_gamma 96.887(17)
_cell_formula_units_Z 2
loop_
_atom_type_symbol
_atom_type_radius_bond
C 0.68
H 0.23
loop_
_atom_site_label
_atom_site_type_symbol
_atom_site_fract_x
_atom_site_fract_y
_atom_site_fract_z
C1 C 0.2408(4) 0.4755(4) 0.0816(3)
C2 C 0.2368(4) 0.5952(4) 0.0251(3)
C3 C 0.1837(4) 0.7173(4) 0.0664(3)
C4 C -0.1090(4) 1.0269(4) 0.3428(3)
C5 C 0.0598(4) 1.0402(4) 0.3744(3)
C6 C 0.1866(4) 0.4879(4) 0.1740(3)
C7 C 0.1336(4) 0.6136(4) 0.2118(3)
H1 H 0.09810 0.61900 0.27310
C8 C -0.1645(5) 1.1448(4) 0.3925(3)
C9 C 0.1668(4) 1.1675(4) 0.4569(3)
C10 C 0.1316(4) 0.7278(4) 0.1637(3)
C11 C 0.1093(5) 1.2845(4) 0.5092(3)
C12 C 0.1199(4) 0.9201(4) 0.3240(3)
H2 H 0.19570 0.88550 0.37810
C13 C 0.1857(4) 0.8314(4) 0.0137(3)
H3 H 0.15160 0.91390 0.04110
C14 C 0.1879(5) 0.3728(4) 0.2287(4)
H4 H 0.15210 0.37980 0.28990
C15 C 0.0778(4) 0.8548(4) 0.2089(3)
H5 H 0.00910 0.89330 0.15350
C16 C 0.2958(4) 0.3509(5) 0.0473(4)
H6 H 0.33260 0.34130 -0.01340
C17 C -0.0562(5) 1.2700(4) 0.4746(4)
H7 H -0.09480 1.34590 0.50730
C18 C 0.2363(5) 0.8249(5) -0.0771(4)
H8 H 0.23610 0.90190 -0.11090
C19 C 0.2866(5) 0.5897(5) -0.0683(4)
H9 H 0.31970 0.50730 -0.09730
C20 C -0.3353(5) 1.1332(5) 0.3586(4)
H10 H -0.37300 1.21110 0.38960
C21 C -0.2257(5) 0.8987(4) 0.2645(3)
H11 H -0.19240 0.81830 0.23230
C22 C 0.3348(5) 1.1879(5) 0.4896(4)
H12 H 0.37540 1.11460 0.45560
C23 C 0.2880(5) 0.7025(5) -0.1184(4)
H13 H 0.32330 0.69720 -0.17970
C24 C 0.2403(5) 0.2541(4) 0.1928(4)
H14 H 0.23920 0.17910 0.22860
C25 C 0.2959(5) 0.2427(5) 0.1030(4)
H15 H 0.33380 0.16080 0.08010
C26 C -0.3840(5) 0.8918(5) 0.2359(4)
H16 H -0.45780 0.80700 0.18420
C27 C 0.2209(6) 1.4102(5) 0.5926(4)
H17 H 0.18410 1.48550 0.62810
C28 C 0.4366(5) 1.3102(5) 0.5684(4)
H18 H 0.54600 1.32020 0.58780
C29 C -0.4385(5) 1.0109(5) 0.2832(4)
H19 H -0.54800 1.00440 0.26160
C30 C 0.3802(6) 1.4239(5) 0.6224(4)
H20 H 0.45210 1.50760 0.67800
loop_
_geom_bond_atom_site_label_1
_geom_bond_atom_site_label_2
_geom_bond_distance
_geom_bond_site_symmetry_1
_geom_bond_site_symmetry_2
C1 C2 1.475 1_555 1_555
C2 C3 1.394 1_555 1_555
C3 C10 1.451 1_555 1_555
C4 C5 1.433 1_555 1_555
C5 C9 1.400 1_555 1_555
C6 C1 1.405 1_555 1_555
C7 C6 1.408 1_555 1_555
H1 C7 0.931 1_555 1_555
C8 C4 1.413 1_555 1_555
C9 C11 1.431 1_555 1_555
C10 C7 1.362 1_555 1_555
C11 C17 1.398 1_555 1_555
C12 C5 1.459 1_555 1_555
H2 C12 0.930 1_555 1_555
C13 C3 1.400 1_555 1_555
H3 C13 0.930 1_555 1_555
C14 C6 1.423 1_555 1_555
H4 C14 0.930 1_555 1_555
C15 C10 1.451 1_555 1_555
H5 C15 0.931 1_555 1_555
C16 C1 1.399 1_555 1_555
H6 C16 0.929 1_555 1_555
C17 C8 1.390 1_555 1_555
H7 C17 0.930 1_555 1_555
C18 C13 1.368 1_555 1_555
H8 C18 0.930 1_555 1_555
C19 C2 1.395 1_555 1_555
H9 C19 0.931 1_555 1_555
C20 C8 1.449 1_555 1_555
H10 C20 0.930 1_555 1_555
C21 C4 1.424 1_555 1_555
H11 C21 0.930 1_555 1_555
C22 C9 1.419 1_555 1_555
H12 C22 0.930 1_555 1_555
C23 C18 1.388 1_555 1_555
H13 C23 0.930 1_555 1_555
C24 C14 1.343 1_555 1_555
H14 C24 0.930 1_555 1_555
C25 C16 1.374 1_555 1_555
H15 C25 0.930 1_555 1_555
C26 C21 1.352 1_555 1_555
H16 C26 0.930 1_555 1_555
C27 C11 1.408 1_555 1_555
H17 C27 0.930 1_555 1_555
C28 C22 1.340 1_555 1_555
H18 C28 0.929 1_555 1_555
C29 C20 1.333 1_555 1_555
H19 C29 0.930 1_555 1_555
C30 C27 1.351 1_555 1_555
H20 C30 0.930 1_555 1_555
C12 C15 1.330 1_555 1_555
C19 C23 1.368 1_555 1_555
C24 C25 1.383 1_555 1_555
C26 C29 1.404 1_555 1_555
C28 C30 1.411 1_555 1_555
#END
