
#######################################################################
#
#                 Cambridge Crystallographic Data Centre
#                                CCDC
#
#######################################################################
#
# If this CIF has been generated from an entry in the Cambridge
# Structural Database, then it will include bibliographic, chemical,
# crystal, experimental, refinement or atomic coordinate data resulting
# from the CCDC's data processing and validation procedures.
#
#######################################################################

data_CSD_CIF_KALLAN
_audit_creation_date 2017-03-05
_audit_creation_method CSD-ConQuest-V1
_database_code_CSD KALLAN
_database_code_depnum_ccdc_archive 'CCDC 1058361'
_chemical_formula_sum 'C30 H20'
_chemical_formula_moiety
;
C30 H20
;
_journal_coden_Cambridge 862
_journal_volume 187
_journal_year 2017
_journal_page_first 14
_journal_name_full 'J.Lumin. '
loop_
_publ_author_name
"Ye-Xin Li"
"Xiao-Feng Yang"
"Yu Cui"
"Yong Nie"
"Fang-Fang Wang"
"Guo-Xin Sun"
_chemical_name_systematic
;
9,9'-ethene-1,2-diyldiphenanthrene
;
_cell_volume    975.613
_exptl_crystal_density_diffrn 1.295
_diffrn_ambient_temperature 293.1
#These two values have been output from a single CSD field.
_refine_ls_R_factor_gt 0.0394
_refine_ls_wR_factor_gt 0.0394
_symmetry_cell_setting monoclinic
_symmetry_space_group_name_H-M 'P 21/n'
_symmetry_Int_Tables_number 14
loop_
_symmetry_equiv_pos_site_id
_symmetry_equiv_pos_as_xyz
1 x,y,z
2 1/2-x,1/2+y,1/2-z
3 -x,-y,-z
4 -1/2+x,-1/2-y,-1/2+z
_cell_length_a 7.1703(3)
_cell_length_b 11.4453(4)
_cell_length_c 12.2814(5)
_cell_angle_alpha 90
_cell_angle_beta 104.539(4)
_cell_angle_gamma 90
_cell_formula_units_Z 2
loop_
_atom_type_symbol
_atom_type_radius_bond
C 0.68
H 0.23
loop_
_atom_site_label
_atom_site_type_symbol
_atom_site_fract_x
_atom_site_fract_y
_atom_site_fract_z
C1 C 0.14624(19) 0.14210(11) 0.03260(11)
C2 C 0.01006(19) 0.07449(12) 0.18935(11)
C3 C 0.00420(19) 0.15172(11) 0.09460(11)
C4 C 0.1715(2) -0.08193(13) 0.31231(12)
H1 H 0.27400 -0.13380 0.33400
C5 C 0.16370(19) -0.00587(12) 0.22061(11)
C6 C -0.1326(2) 0.07331(13) 0.24997(12)
H2 H -0.23560 0.12500 0.23010
C7 C -0.1514(2) 0.30595(14) -0.03129(13)
H3 H -0.24910 0.36110 -0.05200
C8 C -0.1411(2) 0.23649(13) 0.06081(12)
H4 H -0.23250 0.24550 0.10210
C9 C 0.1298(2) 0.21388(13) -0.06238(12)
H5 H 0.22000 0.20670 -0.10480
C10 C 0.3076(2) -0.00994(12) 0.15912(11)
H6 H 0.41040 -0.06120 0.18290
C11 C 0.3016(2) 0.05785(12) 0.06711(11)
C12 C -0.0153(2) 0.29393(14) -0.09394(13)
H7 H -0.02320 0.34030 -0.15710
C13 C 0.0311(2) -0.08055(14) 0.36951(13)
H8 H 0.03790 -0.13130 0.42950
C14 C -0.1229(2) -0.00251(15) 0.33758(13)
H9 H -0.21930 -0.00200 0.37600
C15 C 0.4507(2) 0.04782(12) 0.00423(12)
H10 H 0.47770 0.11430 -0.03260
C1B C 0.85376(19) -0.14210(11) -0.03260(11)
C2B C 0.98994(19) -0.07449(12) -0.18935(11)
C3B C 0.99580(19) -0.15172(11) -0.09460(11)
C4B C 0.8285(2) 0.08193(13) -0.31231(12)
H1B H 0.72600 0.13380 -0.33400
C5B C 0.83630(19) 0.00587(12) -0.22061(11)
C6B C 1.1326(2) -0.07331(13) -0.24997(12)
H2B H 1.23560 -0.12500 -0.23010
C7B C 1.1514(2) -0.30595(14) 0.03129(13)
H3B H 1.24910 -0.36110 0.05200
C8B C 1.1411(2) -0.23649(13) -0.06081(12)
H4B H 1.23250 -0.24550 -0.10210
C9B C 0.8702(2) -0.21388(13) 0.06238(12)
H5B H 0.78000 -0.20670 0.10480
C10B C 0.6924(2) 0.00994(12) -0.15912(11)
H6B H 0.58960 0.06120 -0.18290
C11B C 0.6984(2) -0.05785(12) -0.06711(11)
C12B C 1.0153(2) -0.29393(14) 0.09394(13)
H7B H 1.02320 -0.34030 0.15710
C13B C 0.9689(2) 0.08055(14) -0.36951(13)
H8B H 0.96210 0.13130 -0.42950
C14B C 1.1229(2) 0.00251(15) -0.33758(13)
H9B H 1.21930 0.00200 -0.37600
C15B C 0.5493(2) -0.04782(12) -0.00423(12)
H10B H 0.52230 -0.11430 0.03260
loop_
_geom_bond_atom_site_label_1
_geom_bond_atom_site_label_2
_geom_bond_distance
_geom_bond_site_symmetry_1
_geom_bond_site_symmetry_2
C1 C3 1.421 1_555 1_555
C2 C3 1.453 1_555 1_555
C3 C8 1.408 1_555 1_555
C4 H1 0.930 1_555 1_555
C5 C2 1.412 1_555 1_555
C6 C2 1.408 1_555 1_555
H2 C6 0.930 1_555 1_555
C7 H3 0.930 1_555 1_555
C8 C7 1.369 1_555 1_555
H4 C8 0.930 1_555 1_555
C9 C1 1.407 1_555 1_555
H5 C9 0.930 1_555 1_555
C10 C5 1.424 1_555 1_555
H6 C10 0.930 1_555 1_555
C11 C1 1.454 1_555 1_555
C12 C7 1.393 1_555 1_555
H7 C12 0.930 1_555 1_555
C13 C4 1.365 1_555 1_555
H8 C13 0.930 1_555 1_555
C14 C6 1.370 1_555 1_555
H9 C14 0.930 1_555 1_555
C15 C11 1.472 1_555 1_555
H10 C15 0.930 1_555 1_555
C1B C3B 1.421 1_555 1_555
C2B C3B 1.453 1_555 1_555
C3B C8B 1.408 1_555 1_555
C4B H1B 0.930 1_555 1_555
C5B C2B 1.412 1_555 1_555
C6B C2B 1.408 1_555 1_555
H2B C6B 0.930 1_555 1_555
C7B H3B 0.930 1_555 1_555
C8B C7B 1.369 1_555 1_555
H4B C8B 0.930 1_555 1_555
C9B C1B 1.407 1_555 1_555
H5B C9B 0.930 1_555 1_555
C10B C5B 1.424 1_555 1_555
H6B C10B 0.930 1_555 1_555
C11B C1B 1.454 1_555 1_555
C12B C7B 1.393 1_555 1_555
H7B C12B 0.930 1_555 1_555
C13B C4B 1.365 1_555 1_555
H8B C13B 0.930 1_555 1_555
C14B C6B 1.370 1_555 1_555
H9B C14B 0.930 1_555 1_555
C15B C15 1.321 1_555 1_555
H10B C15B 0.930 1_555 1_555
C4 C5 1.413 1_555 1_555
C9 C12 1.367 1_555 1_555
C10 C11 1.362 1_555 1_555
C13 C14 1.398 1_555 1_555
C4B C5B 1.413 1_555 1_555
C9B C12B 1.367 1_555 1_555
C10B C11B 1.362 1_555 1_555
C11B C15B 1.472 1_555 1_555
C13B C14B 1.398 1_555 1_555
#END
