
#######################################################################
#
#                 Cambridge Crystallographic Data Centre
#                                CCDC
#
#######################################################################
#
# If this CIF has been generated from an entry in the Cambridge
# Structural Database, then it will include bibliographic, chemical,
# crystal, experimental, refinement or atomic coordinate data resulting
# from the CCDC's data processing and validation procedures.
#
#######################################################################

data_CSD_CIF_KAMREV
_audit_creation_date 1990-01-09
_audit_creation_method CSD-ConQuest-V1
_database_code_CSD KAMREV
_database_code_depnum_ccdc_archive 'CCDC 1192755'
_chemical_formula_sum 'C38 H32'
_chemical_formula_moiety
;
C38 H32
;
_journal_coden_Cambridge 7
_journal_volume 62
_journal_year 1989
_journal_page_first 164
_journal_name_full 'Bull.Chem.Soc.Jpn. '
loop_
_publ_author_name
"T.Otsubo"
"Y.Aso"
"F.Ogura"
"S.Misumi"
"A.Kawamoto"
"J.Tanaka"
_chemical_name_systematic
;
Triple-layered (2.2)(2.2)naphthalenophane
;
_chemical_melting_point 558.15
_cell_volume   2584.757
_exptl_crystal_colour 'colorless'
_exptl_crystal_density_diffrn 1.256
_diffrn_ambient_temperature ?
_diffrn_special_details
;
The study was carried out at room temperature,in the range 283-303K

;
#These two values have been output from a single CSD field.
_refine_ls_R_factor_gt 0.066
_refine_ls_wR_factor_gt 0.066
_symmetry_cell_setting triclinic
_symmetry_space_group_name_H-M 'P -1'
_symmetry_Int_Tables_number 2
loop_
_symmetry_equiv_pos_site_id
_symmetry_equiv_pos_as_xyz
1 x,y,z
2 -x,-y,-z
_cell_length_a 13.515(3)
_cell_length_b 18.748(3)
_cell_length_c 11.143(2)
_cell_angle_alpha 90.38(2)
_cell_angle_beta 101.62(2)
_cell_angle_gamma 110.30(1)
_cell_formula_units_Z 4
loop_
_atom_type_symbol
_atom_type_radius_bond
C 0.68
H 0.23
loop_
_atom_site_label
_atom_site_type_symbol
_atom_site_fract_x
_atom_site_fract_y
_atom_site_fract_z
C1 C 0.6404(4) 0.7180(2) 0.1613(4)
C2 C 0.6770(4) 0.7787(2) 0.2740(4)
C3 C 0.6816(3) 0.7412(2) 0.3932(3)
C4 C 0.7787(3) 0.7458(2) 0.4668(3)
C5 C 0.7868(3) 0.6937(2) 0.5567(3)
C6 C 0.8859(3) 0.6909(2) 0.6223(4)
C7 C 0.8908(3) 0.6270(3) 0.6788(4)
C8 C 0.7963(4) 0.5619(3) 0.6730(3)
C9 C 0.6983(3) 0.5685(2) 0.6286(3)
C10 C 0.6906(3) 0.6338(2) 0.5691(3)
C11 C 0.5905(3) 0.6371(2) 0.5058(4)
C12 C 0.5856(3) 0.6887(2) 0.4214(4)
C13 C 0.8039(4) 0.4845(3) 0.6964(4)
C14 C 0.8501(4) 0.4555(2) 0.5943(4)
C15 C 0.8015(3) 0.4749(2) 0.4699(3)
C16 C 0.8566(3) 0.5407(2) 0.4228(3)
C17 C 0.8049(3) 0.5758(2) 0.3314(3)
C18 C 0.8589(3) 0.6386(2) 0.2696(3)
C19 C 0.8052(3) 0.6760(2) 0.1937(3)
C20 C 0.6925(3) 0.6593(2) 0.1904(3)
C21 C 0.6370(3) 0.5920(2) 0.2346(3)
C22 C 0.6909(3) 0.5466(2) 0.2999(3)
C23 C 0.6370(3) 0.4729(2) 0.3350(3)
C24 C 0.6911(3) 0.4344(2) 0.4090(3)
C25 C 0.6422(3) 0.3482(2) 0.4057(4)
C26 C 0.6857(4) 0.3109(2) 0.3120(4)
C27 C 0.6935(4) 0.3535(2) 0.1984(4)
C28 C 0.7927(4) 0.3995(2) 0.1781(4)
C29 C 0.8029(4) 0.4572(2) 0.0949(4)
C30 C 0.9036(4) 0.5115(3) 0.0842(4)
C31 C 0.9099(4) 0.5787(3) 0.0333(4)
C32 C 0.8152(4) 0.5953(3) -0.0127(4)
C33 C 0.7169(4) 0.5386(3) -0.0221(3)
C34 C 0.7079(4) 0.4681(2) 0.0310(3)
C35 C 0.6059(4) 0.4134(3) 0.0383(4)
C36 C 0.6000(4) 0.3583(2) 0.1193(4)
C37 C 0.8226(4) 0.6771(3) -0.0271(4)
C38 C 0.8595(4) 0.7245(3) 0.1007(4)
H1 H 0.656(4) 0.747(3) 0.090(4)
H2 H 0.559(4) 0.694(3) 0.144(4)
H3 H 0.620(4) 0.808(3) 0.261(4)
H4 H 0.751(4) 0.821(3) 0.272(4)
H5 H 0.844(4) 0.781(3) 0.455(4)
H6 H 0.954(4) 0.737(3) 0.614(4)
H7 H 0.967(4) 0.627(3) 0.718(4)
H8 H 0.631(4) 0.524(3) 0.634(4)
H9 H 0.519(4) 0.593(3) 0.523(4)
H10 H 0.511(4) 0.686(3) 0.366(4)
H11 H 0.849(4) 0.483(3) 0.781(4)
H12 H 0.725(4) 0.442(3) 0.697(4)
H13 H 0.931(4) 0.488(3) 0.613(4)
H14 H 0.833(4) 0.396(3) 0.595(4)
H15 H 0.936(3) 0.567(2) 0.462(4)
H16 H 0.941(4) 0.652(2) 0.283(4)
H17 H 0.553(3) 0.577(2) 0.225(4)
H18 H 0.554(3) 0.444(2) 0.295(4)
H19 H 0.554(4) 0.331(3) 0.378(4)
H20 H 0.664(4) 0.332(3) 0.489(4)
H21 H 0.633(4) 0.251(3) 0.290(4)
H22 H 0.759(4) 0.311(3) 0.355(4)
H23 H 0.858(4) 0.395(3) 0.240(4)
H24 H 0.971(4) 0.502(3) 0.124(4)
H25 H 0.989(4) 0.623(3) 0.034(4)
H26 H 0.644(4) 0.545(3) -0.067(4)
H27 H 0.532(4) 0.422(3) -0.020(4)
H28 H 0.524(4) 0.324(3) 0.134(4)
H29 H 0.744(4) 0.676(3) -0.087(5)
H30 H 0.869(4) 0.704(3) -0.083(5)
H31 H 0.840(4) 0.771(3) 0.089(4)
H32 H 0.937(4) 0.735(3) 0.130(4)
C39 C 0.6430(4) -0.1529(2) 0.6698(4)
C40 C 0.6830(4) -0.1907(2) 0.7842(4)
C41 C 0.6907(4) -0.1470(2) 0.9028(4)
C42 C 0.7891(4) -0.1011(2) 0.9729(4)
C43 C 0.7975(3) -0.0421(2) 1.0593(4)
C44 C 0.8981(4) 0.0127(3) 1.1195(4)
C45 C 0.9025(4) 0.0807(3) 1.1727(4)
C46 C 0.8076(4) 0.0970(3) 1.1702(3)
C47 C 0.7103(4) 0.0402(3) 1.1298(3)
C48 C 0.7010(3) -0.0313(2) 1.0738(3)
C49 C 0.6005(3) -0.0863(2) 1.0156(4)
C50 C 0.5955(4) -0.1429(2) 0.9330(4)
C51 C 0.8145(4) 0.1788(3) 1.1881(4)
C52 C 0.8554(4) 0.2262(2) 1.0810(4)
C53 C 0.8051(3) 0.1784(2) 0.9599(3)
C54 C 0.8599(3) 0.1392(2) 0.9128(3)
C55 C 0.8060(3) 0.0761(2) 0.8243(3)
C56 C 0.8594(3) 0.0395(2) 0.7614(3)
C57 C 0.8052(3) -0.0273(2) 0.6890(3)
C58 C 0.6936(3) -0.0670(2) 0.6918(3)
C59 C 0.6386(3) -0.0271(2) 0.7368(3)
C60 C 0.6919(3) 0.0469(2) 0.7973(3)
C61 C 0.6386(3) 0.0937(2) 0.8319(3)
C62 C 0.6940(3) 0.1619(2) 0.9032(3)
C63 C 0.6430(4) 0.2222(2) 0.9001(4)
C64 C 0.6849(4) 0.2799(2) 0.8033(4)
C65 C 0.6906(3) 0.2388(2) 0.6893(4)
C66 C 0.7885(3) 0.2418(2) 0.6656(4)
C67 C 0.7963(3) 0.1875(2) 0.5821(3)
C68 C 0.8964(3) 0.1835(2) 0.5695(4)
C69 C 0.9011(4) 0.1182(2) 0.5191(4)
C70 C 0.8064(3) 0.0529(2) 0.4783(3)
C71 C 0.7078(4) 0.0604(2) 0.4706(3)
C72 C 0.7000(3) 0.1275(2) 0.5225(3)
C73 C 0.5989(4) 0.1320(3) 0.5327(4)
C74 C 0.5947(4) 0.1861(2) 0.6127(4)
C75 C 0.8143(4) -0.0250(3) 0.4649(4)
C76 C 0.8557(4) -0.0499(3) 0.5932(4)
H33 H 0.557(4) -0.170(3) 0.648(4)
H34 H 0.659(4) -0.169(3) 0.596(4)
H35 H 0.758(4) -0.196(3) 0.789(4)
H36 H 0.628(4) -0.246(3) 0.785(4)
H37 H 0.858(4) -0.106(3) 0.960(4)
H38 H 0.969(4) 0.004(3) 1.114(4)
H39 H 0.985(4) 0.128(3) 1.207(4)
H40 H 0.642(4) 0.052(3) 1.132(4)
H41 H 0.525(4) -0.078(3) 1.031(4)
H42 H 0.512(4) -0.182(3) 0.878(4)
H43 H 0.864(4) 0.200(3) 1.274(4)
H44 H 0.737(4) 0.178(3) 1.193(4)
H45 H 0.836(4) 0.276(3) 1.080(4)
H46 H 0.936(4) 0.239(3) 1.101(4)
H47 H 0.943(3) 0.155(2) 0.947(4)
H48 H 0.941(3) 0.067(2) 0.768(4)
H49 H 0.556(3) -0.054(2) 0.731(4)
H50 H 0.557(3) 0.083(2) 0.790(4)
H51 H 0.550(4) 0.197(2) 0.860(4)
H52 H 0.663(3) 0.248(2) 0.992(4)
H53 H 0.759(4) 0.318(3) 0.846(4)
H54 H 0.626(4) 0.309(3) 0.781(4)
H55 H 0.860(4) 0.281(2) 0.722(4)
H56 H 0.965(4) 0.227(3) 0.608(4)
H57 H 0.976(4) 0.112(3) 0.522(4)
H58 H 0.638(4) 0.017(3) 0.433(4)
H59 H 0.522(4) 0.090(3) 0.474(4)
H60 H 0.515(4) 0.188(2) 0.633(4)
H61 H 0.734(4) -0.063(3) 0.419(4)
H62 H 0.863(4) -0.027(3) 0.405(4)
H63 H 0.935(4) -0.027(3) 0.621(4)
H64 H 0.842(4) -0.108(3) 0.591(4)
loop_
_geom_bond_atom_site_label_1
_geom_bond_atom_site_label_2
_geom_bond_distance
_geom_bond_site_symmetry_1
_geom_bond_site_symmetry_2
C1 C2 1.567 1_555 1_555
C2 C3 1.507 1_555 1_555
C3 C4 1.374 1_555 1_555
C4 C5 1.419 1_555 1_555
C5 C6 1.409 1_555 1_555
C6 C7 1.373 1_555 1_555
C7 C8 1.417 1_555 1_555
C8 C9 1.366 1_555 1_555
C9 C10 1.421 1_555 1_555
C10 C5 1.425 1_555 1_555
C11 C10 1.416 1_555 1_555
C12 C3 1.426 1_555 1_555
C13 C8 1.511 1_555 1_555
C14 C13 1.579 1_555 1_555
C15 C14 1.514 1_555 1_555
C16 C15 1.371 1_555 1_555
C17 C16 1.414 1_555 1_555
C18 C17 1.418 1_555 1_555
C19 C18 1.359 1_555 1_555
C20 C1 1.504 1_555 1_555
C21 C20 1.378 1_555 1_555
C22 C17 1.411 1_555 1_555
C23 C22 1.420 1_555 1_555
C24 C15 1.436 1_555 1_555
C25 C24 1.516 1_555 1_555
C26 C25 1.564 1_555 1_555
C27 C26 1.503 1_555 1_555
C28 C27 1.384 1_555 1_555
C29 C28 1.418 1_555 1_555
C30 C29 1.417 1_555 1_555
C31 C30 1.368 1_555 1_555
C32 C31 1.418 1_555 1_555
C33 C32 1.367 1_555 1_555
C34 C29 1.419 1_555 1_555
C35 C34 1.423 1_555 1_555
C36 C27 1.419 1_555 1_555
C37 C32 1.514 1_555 1_555
C38 C19 1.515 1_555 1_555
H1 C1 0.982 1_555 1_555
H2 C1 1.010 1_555 1_555
H3 C2 1.080 1_555 1_555
H4 C2 1.043 1_555 1_555
H5 C4 0.936 1_555 1_555
H6 C6 1.042 1_555 1_555
H7 C7 1.034 1_555 1_555
H8 C9 1.012 1_555 1_555
H9 C11 1.085 1_555 1_555
H10 C12 1.055 1_555 1_555
H11 C13 1.021 1_555 1_555
H12 C13 1.089 1_555 1_555
H13 C14 1.027 1_555 1_555
H14 C14 1.058 1_555 1_555
H15 C16 1.013 1_555 1_555
H16 C18 1.028 1_555 1_555
H17 C21 1.053 1_555 1_555
H18 C23 1.060 1_555 1_555
H19 C25 1.097 1_555 1_555
H20 C25 0.998 1_555 1_555
H21 C26 1.095 1_555 1_555
H22 C26 1.009 1_555 1_555
H23 C28 1.034 1_555 1_555
H24 C30 1.005 1_555 1_555
H25 C31 1.101 1_555 1_555
H26 C33 1.058 1_555 1_555
H27 C35 1.139 1_555 1_555
H28 C36 1.052 1_555 1_555
H29 C37 1.128 1_555 1_555
H30 C37 0.989 1_555 1_555
H31 C38 0.997 1_555 1_555
H32 C38 0.980 1_555 1_555
C39 C40 1.556 1_555 1_555
C40 C41 1.516 1_555 1_555
C41 C42 1.378 1_555 1_555
C42 C43 1.421 1_555 1_555
C43 C44 1.417 1_555 1_555
C44 C45 1.380 1_555 1_555
C45 C46 1.413 1_555 1_555
C46 C47 1.360 1_555 1_555
C47 C48 1.429 1_555 1_555
C48 C43 1.427 1_555 1_555
C49 C48 1.412 1_555 1_555
C50 C41 1.420 1_555 1_555
C51 C46 1.513 1_555 1_555
C52 C51 1.568 1_555 1_555
C53 C52 1.509 1_555 1_555
C54 C53 1.376 1_555 1_555
C55 C54 1.414 1_555 1_555
C56 C55 1.423 1_555 1_555
C57 C56 1.367 1_555 1_555
C58 C39 1.511 1_555 1_555
C59 C58 1.376 1_555 1_555
C60 C55 1.412 1_555 1_555
C61 C60 1.408 1_555 1_555
C62 C53 1.429 1_555 1_555
C63 C62 1.512 1_555 1_555
C64 C63 1.578 1_555 1_555
C65 C64 1.510 1_555 1_555
C66 C65 1.383 1_555 1_555
C67 C66 1.419 1_555 1_555
C68 C67 1.415 1_555 1_555
C69 C68 1.370 1_555 1_555
C70 C69 1.419 1_555 1_555
C71 C70 1.374 1_555 1_555
C72 C67 1.424 1_555 1_555
C73 C72 1.425 1_555 1_555
C74 C65 1.428 1_555 1_555
C75 C70 1.509 1_555 1_555
C76 C57 1.508 1_555 1_555
H33 C39 1.067 1_555 1_555
H34 C39 0.963 1_555 1_555
H35 C40 1.043 1_555 1_555
H36 C40 1.047 1_555 1_555
H37 C42 1.005 1_555 1_555
H38 C44 1.039 1_555 1_555
H39 C45 1.146 1_555 1_555
H40 C47 1.026 1_555 1_555
H41 C49 1.129 1_555 1_555
H42 C50 1.152 1_555 1_555
H43 C51 1.036 1_555 1_555
H44 C51 1.055 1_555 1_555
H45 C52 1.053 1_555 1_555
H46 C52 1.007 1_555 1_555
H47 C54 1.044 1_555 1_555
H48 C56 1.029 1_555 1_555
H49 C59 1.041 1_555 1_555
H50 C61 1.055 1_555 1_555
H51 C63 1.167 1_555 1_555
H52 C63 1.071 1_555 1_555
H53 C64 1.023 1_555 1_555
H54 C64 1.103 1_555 1_555
H55 C66 1.061 1_555 1_555
H56 C68 1.010 1_555 1_555
H57 C69 1.053 1_555 1_555
H58 C71 1.015 1_555 1_555
H59 C73 1.131 1_555 1_555
H60 C74 1.156 1_555 1_555
H61 C75 1.087 1_555 1_555
H62 C75 1.036 1_555 1_555
H63 C76 0.987 1_555 1_555
H64 C76 1.039 1_555 1_555
C11 C12 1.362 1_555 1_555
C19 C20 1.437 1_555 1_555
C21 C22 1.418 1_555 1_555
C23 C24 1.366 1_555 1_555
C33 C34 1.428 1_555 1_555
C35 C36 1.368 1_555 1_555
C37 C38 1.567 1_555 1_555
C49 C50 1.375 1_555 1_555
C57 C58 1.439 1_555 1_555
C59 C60 1.413 1_555 1_555
C61 C62 1.382 1_555 1_555
C71 C72 1.427 1_555 1_555
C73 C74 1.369 1_555 1_555
C75 C76 1.563 1_555 1_555
#END
