
#######################################################################
#
#                 Cambridge Crystallographic Data Centre
#                                CCDC
#
#######################################################################
#
# If this CIF has been generated from an entry in the Cambridge
# Structural Database, then it will include bibliographic, chemical,
# crystal, experimental, refinement or atomic coordinate data resulting
# from the CCDC's data processing and validation procedures.
#
#######################################################################

data_CSD_CIF_KAQLAR
_audit_creation_date 2012-03-13
_audit_creation_method CSD-ConQuest-V1
_database_code_CSD KAQLAR
_database_code_depnum_ccdc_archive 'CCDC 867118'
_chemical_formula_sum 'C25 H20'
_chemical_formula_moiety
;
C25 H20
;
_journal_coden_Cambridge 4
_journal_volume 133
_journal_year 2011
_journal_page_first 10716
_journal_name_full 'J.Am.Chem.Soc. '
loop_
_publ_author_name
"K.Mochida"
"K.Kawasumi"
"Y.Segawa"
"K.Itami"
_chemical_name_systematic
;
4-Mesitylpyrene
;
_cell_volume   1763.774
_exptl_crystal_colour 'colorless'
_exptl_crystal_density_diffrn 1.207
_exptl_crystal_description 'block'
_diffrn_ambient_temperature 103
#These two values have been output from a single CSD field.
_refine_ls_R_factor_gt 0.0664
_refine_ls_wR_factor_gt 0.0664
_symmetry_cell_setting monoclinic
_symmetry_space_group_name_H-M 'P 21/c'
_symmetry_Int_Tables_number 14
loop_
_symmetry_equiv_pos_site_id
_symmetry_equiv_pos_as_xyz
1 x,y,z
2 -x,1/2+y,1/2-z
3 -x,-y,-z
4 x,-1/2-y,-1/2+z
_cell_length_a 7.910(3)
_cell_length_b 29.258(11)
_cell_length_c 8.208(3)
_cell_angle_alpha 90
_cell_angle_beta 111.797(6)
_cell_angle_gamma 90
_cell_formula_units_Z 4
loop_
_atom_type_symbol
_atom_type_radius_bond
C 0.68
H 0.23
loop_
_atom_site_label
_atom_site_type_symbol
_atom_site_fract_x
_atom_site_fract_y
_atom_site_fract_z
C1 C 0.2328(4) 0.10604(9) 0.4885(3)
C2 C 0.3951(4) 0.12851(9) 0.4851(3)
C3 C 0.5682(4) 0.11689(10) 0.6012(3)
H1 H 0.58180 0.09380 0.68640
C4 C 0.7219(4) 0.13853(10) 0.5947(4)
H2 H 0.83920 0.13020 0.67530
C5 C 0.7051(4) 0.17207(10) 0.4719(4)
H3 H 0.81150 0.18670 0.47000
C6 C 0.5353(4) 0.18503(10) 0.3502(4)
C7 C 0.5127(4) 0.21968(9) 0.2199(4)
H4 H 0.61740 0.23420 0.21330
C8 C 0.3460(4) 0.2321(1) 0.1064(4)
H5 H 0.33620 0.25530 0.02240
C9 C 0.1832(4) 0.21108(9) 0.1098(3)
C10 C 0.0106(4) 0.22236(10) -0.0074(4)
H6 H -0.00260 0.24570 -0.09150
C11 C -0.1427(5) 0.20024(11) -0.0042(4)
H7 H -0.25950 0.20820 -0.08670
C12 C -0.1261(4) 0.16649(10) 0.1189(4)
H8 H -0.23230 0.15170 0.12070
C13 C 0.0444(4) 0.15383(9) 0.2409(3)
C14 C 0.0669(4) 0.11902(9) 0.3697(3)
H9 H -0.03870 0.10420 0.37290
C15 C 0.3780(4) 0.16360(9) 0.3569(3)
C16 C 0.2020(4) 0.17604(9) 0.2367(3)
C17 C 0.2465(4) 0.06921(9) 0.6189(3)
C18 C 0.2513(3) 0.02341(9) 0.5729(3)
C19 C 0.2599(4) -0.01031(9) 0.6950(3)
H10 H 0.26660 -0.04140 0.66460
C20 C 0.2590(4) -0.00018(10) 0.8599(3)
C21 C 0.2552(4) 0.04571(10) 0.9026(3)
H11 H 0.25510 0.05340 1.01500
C22 C 0.2517(4) 0.0807(1) 0.7871(3)
C23 C 0.2482(4) 0.01018(9) 0.3941(3)
H12 H 0.13330 0.02020 0.30390
H13 H 0.25910 -0.02310 0.38810
H14 H 0.35030 0.02480 0.37420
C24 C 0.2638(4) -0.03754(10) 0.9894(4)
H15 H 0.35900 -0.03070 1.10350
H16 H 0.28990 -0.06690 0.94630
H17 H 0.14550 -0.03910 1.00210
C25 C 0.2570(5) 0.12976(10) 0.8449(4)
H18 H 0.23150 0.13120 0.95280
H19 H 0.16520 0.14740 0.75260
H20 H 0.37800 0.14260 0.86680
loop_
_geom_bond_atom_site_label_1
_geom_bond_atom_site_label_2
_geom_bond_distance
_geom_bond_site_symmetry_1
_geom_bond_site_symmetry_2
C1 C2 1.452 1_555 1_555
C2 C3 1.389 1_555 1_555
C3 H1 0.949 1_555 1_555
C4 C3 1.389 1_555 1_555
H2 C4 0.950 1_555 1_555
C5 C4 1.377 1_555 1_555
H3 C5 0.949 1_555 1_555
C6 C5 1.396 1_555 1_555
C7 C6 1.436 1_555 1_555
H4 C7 0.950 1_555 1_555
C8 C7 1.351 1_555 1_555
H5 C8 0.950 1_555 1_555
C9 C8 1.437 1_555 1_555
C10 C9 1.387 1_555 1_555
H6 C10 0.949 1_555 1_555
C11 C10 1.383 1_555 1_555
H7 C11 0.950 1_555 1_555
C12 C11 1.384 1_555 1_555
H8 C12 0.950 1_555 1_555
C13 C12 1.399 1_555 1_555
C14 C1 1.366 1_555 1_555
H9 C14 0.950 1_555 1_555
C15 C2 1.440 1_555 1_555
C16 C9 1.429 1_555 1_555
C17 C1 1.494 1_555 1_555
C18 C17 1.397 1_555 1_555
C19 C18 1.390 1_555 1_555
H10 C19 0.950 1_555 1_555
C20 C19 1.388 1_555 1_555
C21 C20 1.391 1_555 1_555
H11 C21 0.950 1_555 1_555
C22 C17 1.407 1_555 1_555
C23 C18 1.509 1_555 1_555
H12 C23 0.980 1_555 1_555
H13 C23 0.980 1_555 1_555
H14 C23 0.980 1_555 1_555
C24 C20 1.515 1_555 1_555
H15 C24 0.980 1_555 1_555
H16 C24 0.980 1_555 1_555
H17 C24 0.980 1_555 1_555
C25 C22 1.507 1_555 1_555
H18 C25 0.980 1_555 1_555
H19 C25 0.979 1_555 1_555
H20 C25 0.981 1_555 1_555
C6 C15 1.412 1_555 1_555
C13 C14 1.431 1_555 1_555
C13 C16 1.418 1_555 1_555
C15 C16 1.423 1_555 1_555
C21 C22 1.389 1_555 1_555
#END
