
#######################################################################
#
#                 Cambridge Crystallographic Data Centre
#                                CCDC
#
#######################################################################
#
# If this CIF has been generated from an entry in the Cambridge
# Structural Database, then it will include bibliographic, chemical,
# crystal, experimental, refinement or atomic coordinate data resulting
# from the CCDC's data processing and validation procedures.
#
#######################################################################

data_CSD_CIF_KAYHOK
_audit_creation_date 2017-07-25
_audit_creation_method CSD-ConQuest-V1
_database_code_CSD KAYHOK
_database_code_depnum_ccdc_archive 'CCDC 1522349'
_chemical_formula_sum 'C30 H18'
_chemical_formula_moiety
;
C30 H18
;
_journal_coden_Cambridge 1490
_journal_volume 8
_journal_year 2017
_journal_page_first 16089
_journal_name_full 'Nat.Commun. '
loop_
_publ_author_name
"A.Shiotari"
"T.Nakae"
"K.Iwata"
"S.Mori"
"T.Okujima"
"H.Uno"
"H.Sakaguchi"
"Y.Sugimoto"
_chemical_name_systematic
;
diazuleno[1,2-c:2',1'-g]phenanthrene
;
_cell_volume   3760.936
_exptl_crystal_colour 'green'
_exptl_crystal_density_diffrn 1.337
_exptl_crystal_description 'platelet'
_diffrn_ambient_temperature 100
#These two values have been output from a single CSD field.
_refine_ls_R_factor_gt 0.058
_refine_ls_wR_factor_gt 0.058
_symmetry_cell_setting monoclinic
_symmetry_space_group_name_H-M 'C 2/c'
_symmetry_Int_Tables_number 15
loop_
_symmetry_equiv_pos_site_id
_symmetry_equiv_pos_as_xyz
1 x,y,z
2 -x,y,1/2-z
3 1/2+x,1/2+y,z
4 1/2-x,1/2+y,1/2-z
5 -x,-y,-z
6 x,-y,-1/2+z
7 -1/2-x,-1/2-y,-z
8 -1/2+x,-1/2-y,-1/2+z
_cell_length_a 38.0759(15)
_cell_length_b 12.6702(5)
_cell_length_c 7.9552(3)
_cell_angle_alpha 90
_cell_angle_beta 101.488(7)
_cell_angle_gamma 90
_cell_formula_units_Z 8
loop_
_atom_type_symbol
_atom_type_radius_bond
C 0.68
H 0.23
loop_
_atom_site_label
_atom_site_type_symbol
_atom_site_fract_x
_atom_site_fract_y
_atom_site_fract_z
C1 C 0.53728(7) 0.39265(16) 0.1162(3)
C2 C 0.55770(6) 0.45822(17) 0.2271(3)
C3 C 0.59452(6) 0.43546(14) 0.2932(3)
C4 C 0.61615(7) 0.51057(16) 0.3990(3)
C5 C 0.65216(7) 0.49973(16) 0.4444(3)
C6 C 0.66843(5) 0.41251(14) 0.3788(3)
C7 C 0.70563(6) 0.39454(14) 0.3788(3)
C8 C 0.73347(6) 0.45644(18) 0.4573(3)
C9 C 0.77040(7) 0.44524(19) 0.4601(3)
C10 C 0.78711(7) 0.37065(19) 0.3803(3)
C11 C 0.77268(6) 0.28461(19) 0.2756(3)
C12 C 0.73755(6) 0.25372(17) 0.2275(3)
C13 C 0.70684(6) 0.29892(14) 0.2705(3)
C14 C 0.67193(5) 0.26448(15) 0.2167(3)
C15 C 0.64764(5) 0.33225(14) 0.2823(3)
C16 C 0.60932(5) 0.33857(14) 0.2472(3)
C17 C 0.58521(5) 0.25964(15) 0.1569(3)
C18 C 0.59248(5) 0.14864(14) 0.1540(2)
C19 C 0.62049(5) 0.08499(15) 0.2508(3)
C20 C 0.61337(5) -0.02048(14) 0.2163(3)
C21 C 0.63365(6) -0.10588(15) 0.2935(3)
C22 C 0.62827(6) -0.21188(16) 0.2646(3)
C23 C 0.60078(6) -0.26280(17) 0.1499(3)
C24 C 0.57162(6) -0.22199(17) 0.0432(3)
C25 C 0.56146(6) -0.11524(16) 0.0173(3)
C26 C 0.57891(5) -0.02700(14) 0.0891(3)
C27 C 0.56692(5) 0.07959(15) 0.0573(3)
C28 C 0.53410(6) 0.11713(17) -0.0380(3)
C29 C 0.52584(6) 0.22025(18) -0.0241(3)
C30 C 0.54963(6) 0.29113(16) 0.0800(3)
H1 H 0.5117(5) 0.4059(14) 0.064(2)
H2 H 0.5492(5) 0.5277(17) 0.263(2)
H3 H 0.6029(5) 0.5769(16) 0.433(3)
H4 H 0.6661(5) 0.5532(15) 0.518(3)
H5 H 0.7260(5) 0.5184(16) 0.527(3)
H6 H 0.7864(5) 0.4971(15) 0.528(3)
H7 H 0.8130(6) 0.3752(16) 0.402(3)
H8 H 0.7892(6) 0.2378(17) 0.232(3)
H9 H 0.7332(4) 0.1881(14) 0.148(2)
H10 H 0.6661(5) 0.2004(14) 0.143(2)
H11 H 0.6421(5) 0.1144(14) 0.339(2)
H12 H 0.6558(5) -0.0841(15) 0.385(3)
H13 H 0.6464(5) -0.2617(15) 0.336(3)
H14 H 0.6023(4) -0.3383(15) 0.143(2)
H15 H 0.5552(5) -0.2683(15) -0.029(2)
H16 H 0.5385(5) -0.0984(15) -0.064(3)
H17 H 0.5167(6) 0.0676(16) -0.108(3)
H18 H 0.5018(5) 0.2492(15) -0.078(3)
loop_
_geom_bond_atom_site_label_1
_geom_bond_atom_site_label_2
_geom_bond_distance
_geom_bond_site_symmetry_1
_geom_bond_site_symmetry_2
C1 C2 1.342 1_555 1_555
C2 C3 1.425 1_555 1_555
C3 C4 1.420 1_555 1_555
C4 C5 1.354 1_555 1_555
C5 C6 1.416 1_555 1_555
C6 C7 1.435 1_555 1_555
C7 C8 1.366 1_555 1_555
C8 C9 1.409 1_555 1_555
C9 C10 1.364 1_555 1_555
C10 C11 1.415 1_555 1_555
C11 C12 1.373 1_555 1_555
C12 C13 1.404 1_555 1_555
C13 C7 1.493 1_555 1_555
C14 C13 1.383 1_555 1_555
C15 C6 1.417 1_555 1_555
C16 C3 1.429 1_555 1_555
C17 C16 1.448 1_555 1_555
C18 C17 1.434 1_555 1_555
C19 C18 1.433 1_555 1_555
C20 C19 1.380 1_555 1_555
C21 C20 1.398 1_555 1_555
C22 C21 1.371 1_555 1_555
C23 C22 1.401 1_555 1_555
C24 C23 1.358 1_555 1_555
C25 C24 1.411 1_555 1_555
C26 C20 1.491 1_555 1_555
C27 C18 1.416 1_555 1_555
C28 C27 1.409 1_555 1_555
C29 C28 1.354 1_555 1_555
C30 C1 1.419 1_555 1_555
H1 C1 0.994 1_555 1_555
H2 C2 0.999 1_555 1_555
H3 C4 1.043 1_555 1_555
H4 C5 0.980 1_555 1_555
H5 C8 1.033 1_555 1_555
H6 C9 0.982 1_555 1_555
H7 C10 0.968 1_555 1_555
H8 C11 0.977 1_555 1_555
H9 C12 1.038 1_555 1_555
H10 C14 1.000 1_555 1_555
H11 C19 1.038 1_555 1_555
H12 C21 1.036 1_555 1_555
H13 C22 1.021 1_555 1_555
H14 C23 0.961 1_555 1_555
H15 C24 0.960 1_555 1_555
H16 C25 1.001 1_555 1_555
H17 C28 0.998 1_555 1_555
H18 C29 1.000 1_555 1_555
C14 C15 1.434 1_555 1_555
C15 C16 1.432 1_555 1_555
C17 C30 1.428 1_555 1_555
C25 C26 1.366 1_555 1_555
C26 C27 1.432 1_555 1_555
C29 C30 1.419 1_555 1_555
#END
