
#######################################################################
#
#                 Cambridge Crystallographic Data Centre
#                                CCDC
#
#######################################################################
#
# If this CIF has been generated from an entry in the Cambridge
# Structural Database, then it will include bibliographic, chemical,
# crystal, experimental, refinement or atomic coordinate data resulting
# from the CCDC's data processing and validation procedures.
#
#######################################################################

data_CSD_CIF_KECLAH
_audit_creation_date 2012-09-12
_audit_creation_method CSD-ConQuest-V1
_database_code_CSD KECLAH
_database_code_depnum_ccdc_archive 'CCDC 857476'
_chemical_formula_sum 'C86 H50'
_chemical_formula_moiety
;
C86 H50
;
_journal_coden_Cambridge 179
_journal_volume 51
_journal_year 2012
_journal_page_first 6094
_journal_name_full 'Angew.Chem.,Int.Ed. '
loop_
_publ_author_name
"Jinchong Xiao"
"H.M.Duong"
"Yi Liu"
"Wenxiong Shi"
"Li Ji"
"Gang Li"
"Shuzhou Li"
"Xue-Wei Liu"
"Jan Ma"
"F.Wudl"
"Qichun Zhang"
_chemical_name_systematic
;
9,11,13,22,24,26-Hexaphenyltetrabenzo[de,rs,wx,k~1~l~1~]nonacene
;
_cell_volume   2781.573
_exptl_crystal_colour 'black'
_exptl_crystal_density_diffrn 1.293
_exptl_crystal_description 'block'
_diffrn_ambient_temperature 103
#These two values have been output from a single CSD field.
_refine_ls_R_factor_gt 0.0567
_refine_ls_wR_factor_gt 0.0567
_symmetry_cell_setting monoclinic
_symmetry_space_group_name_H-M 'P 21/n'
_symmetry_Int_Tables_number 14
loop_
_symmetry_equiv_pos_site_id
_symmetry_equiv_pos_as_xyz
1 x,y,z
2 1/2-x,1/2+y,1/2-z
3 -x,-y,-z
4 -1/2+x,-1/2-y,-1/2+z
_cell_length_a 8.2047(4)
_cell_length_b 21.3824(9)
_cell_length_c 16.2708(8)
_cell_angle_alpha 90
_cell_angle_beta 102.978(3)
_cell_angle_gamma 90
_cell_formula_units_Z 2
loop_
_atom_type_symbol
_atom_type_radius_bond
C 0.68
H 0.23
loop_
_atom_site_label
_atom_site_type_symbol
_atom_site_fract_x
_atom_site_fract_y
_atom_site_fract_z
C1 C 1.0351(2) 0.13515(9) 0.43324(11)
H1 H 0.91870 0.13990 0.41000
C2 C 1.1029(3) 0.15862(9) 0.51403(12)
H2 H 1.03240 0.17910 0.54460
C3 C 1.2701(3) 0.15224(9) 0.54930(12)
H3 H 1.31640 0.17030 0.60280
C4 C 1.3725(2) 0.11904(8) 0.50650(11)
C5 C 1.5458(2) 0.10898(9) 0.54442(12)
H4 H 1.59170 0.12600 0.59860
C6 C 1.6445(2) 0.07597(9) 0.50476(12)
H5 H 1.75940 0.07090 0.53100
C7 C 1.5801(2) 0.04814(8) 0.42366(12)
C8 C 1.6822(2) 0.01264(9) 0.38333(12)
H6 H 1.79620 0.00590 0.41010
C9 C 1.6181(2) -0.01249(8) 0.30508(12)
H7 H 1.68960 -0.03450 0.27660
C10 C 1.4491(2) -0.00596(8) 0.26717(12)
H8 H 1.40780 -0.02330 0.21270
C11 C 1.3387(2) 0.02537(8) 0.30696(11)
C12 C 1.4071(2) 0.05600(8) 0.38464(11)
C13 C 1.3034(2) 0.09368(8) 0.42523(11)
C14 C 1.1337(2) 0.10508(8) 0.38602(11)
C15 C 1.0633(2) 0.08037(8) 0.29999(11)
C16 C 1.1565(2) 0.03039(8) 0.26957(11)
C17 C 1.0732(2) -0.00907(8) 0.20610(11)
C18 C 1.1443(2) -0.06907(8) 0.18215(11)
C19 C 1.1769(2) -0.11781(8) 0.24028(11)
H9 H 1.15900 -0.11180 0.29540
C20 C 1.2354(2) -0.17526(8) 0.21846(12)
H10 H 1.25960 -0.20780 0.25910
C21 C 1.2582(2) -0.18499(9) 0.13787(13)
H11 H 1.29610 -0.22440 0.12270
C22 C 1.2255(2) -0.13686(9) 0.07908(12)
H12 H 1.24180 -0.14330 0.02370
C23 C 1.1692(2) -0.07933(8) 0.10125(11)
H13 H 1.14730 -0.04660 0.06080
C24 C 0.9054(2) 0.00538(8) 0.16097(10)
C25 C 0.8310(2) 0.06402(8) 0.17772(10)
C26 C 0.9122(2) 0.10039(8) 0.25032(11)
C27 C 0.8276(2) 0.16011(8) 0.26523(11)
C28 C 0.9081(2) 0.21713(8) 0.26169(11)
H14 H 1.01840 0.21760 0.25250
C29 C 0.8294(2) 0.27315(9) 0.27145(12)
H15 H 0.88560 0.31170 0.26850
C30 C 0.6696(2) 0.27300(9) 0.28546(13)
H16 H 0.61550 0.31140 0.29210
C31 C 0.5881(2) 0.21653(9) 0.28986(12)
H17 H 0.47880 0.21630 0.30030
C32 C 0.6656(2) 0.16072(8) 0.27904(11)
H18 H 0.60810 0.12240 0.28100
C33 C 0.6779(2) 0.08102(8) 0.12669(11)
H19 H 0.63300 0.12090 0.13480
C34 C 0.5861(2) 0.04161(8) 0.06323(10)
C35 C 0.6568(2) -0.01847(8) 0.04969(10)
C36 C 0.8149(2) -0.03447(8) 0.09980(11)
H20 H 0.86140 -0.07400 0.09140
C37 C 0.4292(2) 0.05919(8) 0.01381(11)
C38 C 0.3444(2) 0.11784(8) 0.03171(11)
C39 C 0.3573(2) 0.17378(9) -0.00957(13)
H21 H 0.43010 0.17670 -0.04730
C40 C 0.2639(3) 0.22567(9) 0.00401(13)
H22 H 0.27300 0.26370 -0.02480
C41 C 0.1589(3) 0.22212(9) 0.05873(13)
H23 H 0.09550 0.25750 0.06800
C42 C 0.1464(3) 0.16676(10) 0.10008(15)
H24 H 0.07320 0.16390 0.13770
C43 C 0.2398(3) 0.11522(9) 0.08721(13)
H25 H 0.23180 0.07760 0.11700
C1B C -0.0351(2) -0.13515(9) -0.43324(11)
H1B H 0.08130 -0.13990 -0.41000
C2B C -0.1029(3) -0.15862(9) -0.51403(12)
H2B H -0.03240 -0.17910 -0.54460
C3B C -0.2701(3) -0.15224(9) -0.54930(12)
H3B H -0.31640 -0.17030 -0.60280
C4B C -0.3725(2) -0.11904(8) -0.50650(11)
C5B C -0.5458(2) -0.10898(9) -0.54442(12)
H4B H -0.59170 -0.12600 -0.59860
C6B C -0.6445(2) -0.07597(9) -0.50476(12)
H5B H -0.75940 -0.07090 -0.53100
C7B C -0.5801(2) -0.04814(8) -0.42366(12)
C8B C -0.6822(2) -0.01264(9) -0.38333(12)
H6B H -0.79620 -0.00590 -0.41010
C9B C -0.6181(2) 0.01249(8) -0.30508(12)
H7B H -0.68960 0.03450 -0.27660
C10B C -0.4491(2) 0.00596(8) -0.26717(12)
H8B H -0.40780 0.02330 -0.21270
C11B C -0.3387(2) -0.02537(8) -0.30696(11)
C12B C -0.4071(2) -0.05600(8) -0.38464(11)
C13B C -0.3034(2) -0.09368(8) -0.42523(11)
C14B C -0.1337(2) -0.10508(8) -0.38602(11)
C15B C -0.0633(2) -0.08037(8) -0.29999(11)
C16B C -0.1565(2) -0.03039(8) -0.26957(11)
C17B C -0.0732(2) 0.00907(8) -0.20610(11)
C18B C -0.1443(2) 0.06907(8) -0.18215(11)
C19B C -0.1769(2) 0.11781(8) -0.24028(11)
H9B H -0.15900 0.11180 -0.29540
C20B C -0.2354(2) 0.17526(8) -0.21846(12)
H10B H -0.25960 0.20780 -0.25910
C21B C -0.2582(2) 0.18499(9) -0.13787(13)
H11B H -0.29610 0.22440 -0.12270
C22B C -0.2255(2) 0.13686(9) -0.07908(12)
H12B H -0.24180 0.14330 -0.02370
C23B C -0.1692(2) 0.07933(8) -0.10125(11)
H13B H -0.14730 0.04660 -0.06080
C24B C 0.0946(2) -0.00538(8) -0.16097(10)
C25B C 0.1690(2) -0.06402(8) -0.17772(10)
C26B C 0.0878(2) -0.10039(8) -0.25032(11)
C27B C 0.1724(2) -0.16011(8) -0.26523(11)
C28B C 0.0919(2) -0.21713(8) -0.26169(11)
H14B H -0.01840 -0.21760 -0.25250
C29B C 0.1706(2) -0.27315(9) -0.27145(12)
H15B H 0.11440 -0.31170 -0.26850
C30B C 0.3304(2) -0.27300(9) -0.28546(13)
H16B H 0.38450 -0.31140 -0.29210
C31B C 0.4119(2) -0.21653(9) -0.28986(12)
H17B H 0.52120 -0.21630 -0.30030
C32B C 0.3344(2) -0.16072(8) -0.27904(11)
H18B H 0.39190 -0.12240 -0.28100
C33B C 0.3221(2) -0.08102(8) -0.12669(11)
H19B H 0.36700 -0.12090 -0.13480
C34B C 0.4139(2) -0.04161(8) -0.06323(10)
C35B C 0.3432(2) 0.01847(8) -0.04969(10)
C36B C 0.1851(2) 0.03447(8) -0.09980(11)
H20B H 0.13860 0.07400 -0.09140
C37B C 0.5708(2) -0.05919(8) -0.01381(11)
C38B C 0.6556(2) -0.11784(8) -0.03171(11)
C39B C 0.6427(2) -0.17378(9) 0.00957(13)
H21B H 0.56990 -0.17670 0.04730
C40B C 0.7361(3) -0.22567(9) -0.00401(13)
H22B H 0.72700 -0.26370 0.02480
C41B C 0.8411(3) -0.22212(9) -0.05873(13)
H23B H 0.90450 -0.25750 -0.06800
C42B C 0.8536(3) -0.16676(10) -0.10008(15)
H24B H 0.92680 -0.16390 -0.13770
C43B C 0.7602(3) -0.11522(9) -0.08721(13)
H25B H 0.76820 -0.07760 -0.11700
loop_
_geom_bond_atom_site_label_1
_geom_bond_atom_site_label_2
_geom_bond_distance
_geom_bond_site_symmetry_1
_geom_bond_site_symmetry_2
C1 H1 0.950 1_555 1_555
C2 C1 1.400 1_555 1_555
H2 C2 0.950 1_555 1_555
C3 C2 1.370 1_555 1_555
H3 C3 0.950 1_555 1_555
C4 C3 1.399 1_555 1_555
C5 C4 1.433 1_555 1_555
H4 C5 0.950 1_555 1_555
C6 C5 1.344 1_555 1_555
H5 C6 0.950 1_555 1_555
C7 C6 1.436 1_555 1_555
C8 C7 1.398 1_555 1_555
H6 C8 0.950 1_555 1_555
C9 C8 1.373 1_555 1_555
H7 C9 0.950 1_555 1_555
C10 C9 1.392 1_555 1_555
H8 C10 0.950 1_555 1_555
C11 C10 1.397 1_555 1_555
C12 C7 1.429 1_555 1_555
C13 C4 1.424 1_555 1_555
C14 C1 1.392 1_555 1_555
C15 C14 1.486 1_555 1_555
C16 C11 1.486 1_555 1_555
C17 C16 1.389 1_555 1_555
C18 C17 1.497 1_555 1_555
C19 C18 1.392 1_555 1_555
H9 C19 0.950 1_555 1_555
C20 C19 1.394 1_555 1_555
H10 C20 0.950 1_555 1_555
C21 C20 1.381 1_555 1_555
H11 C21 0.950 1_555 1_555
C22 C21 1.390 1_555 1_555
H12 C22 0.950 1_555 1_555
C23 C18 1.394 1_555 1_555
H13 C23 0.950 1_555 1_555
C24 C17 1.441 1_555 1_555
C25 C24 1.447 1_555 1_555
C26 C15 1.387 1_555 1_555
C27 C26 1.499 1_555 1_555
C28 C27 1.394 1_555 1_555
H14 C28 0.950 1_555 1_555
C29 C28 1.387 1_555 1_555
H15 C29 0.951 1_555 1_555
C30 C29 1.380 1_555 1_555
H16 C30 0.951 1_555 1_555
C31 C30 1.390 1_555 1_555
H17 C31 0.949 1_555 1_555
C32 C27 1.397 1_555 1_555
H18 C32 0.950 1_555 1_555
C33 C25 1.390 1_555 1_555
H19 C33 0.950 1_555 1_555
C34 C33 1.412 1_555 1_555
C35 C34 1.447 1_555 1_555
C36 C24 1.391 1_555 1_555
H20 C36 0.950 1_555 1_555
C37 C34 1.407 1_555 1_555
C38 C37 1.494 1_555 1_555
C39 C38 1.387 1_555 1_555
H21 C39 0.950 1_555 1_555
C40 C39 1.394 1_555 1_555
H22 C40 0.950 1_555 1_555
C41 C40 1.373 1_555 1_555
H23 C41 0.949 1_555 1_555
C42 C41 1.377 1_555 1_555
H24 C42 0.951 1_555 1_555
C43 C38 1.380 1_555 1_555
H25 C43 0.949 1_555 1_555
C1B H1B 0.950 1_555 1_555
C2B C1B 1.400 1_555 1_555
H2B C2B 0.950 1_555 1_555
C3B C2B 1.370 1_555 1_555
H3B C3B 0.950 1_555 1_555
C4B C3B 1.399 1_555 1_555
C5B C4B 1.433 1_555 1_555
H4B C5B 0.950 1_555 1_555
C6B C5B 1.344 1_555 1_555
H5B C6B 0.950 1_555 1_555
C7B C6B 1.436 1_555 1_555
C8B C7B 1.398 1_555 1_555
H6B C8B 0.950 1_555 1_555
C9B C8B 1.373 1_555 1_555
H7B C9B 0.950 1_555 1_555
C10B C9B 1.392 1_555 1_555
H8B C10B 0.950 1_555 1_555
C11B C10B 1.397 1_555 1_555
C12B C7B 1.429 1_555 1_555
C13B C4B 1.424 1_555 1_555
C14B C1B 1.392 1_555 1_555
C15B C14B 1.486 1_555 1_555
C16B C11B 1.486 1_555 1_555
C17B C16B 1.389 1_555 1_555
C18B C17B 1.497 1_555 1_555
C19B C18B 1.392 1_555 1_555
H9B C19B 0.950 1_555 1_555
C20B C19B 1.394 1_555 1_555
H10B C20B 0.950 1_555 1_555
C21B C20B 1.381 1_555 1_555
H11B C21B 0.950 1_555 1_555
C22B C21B 1.390 1_555 1_555
H12B C22B 0.950 1_555 1_555
C23B C18B 1.394 1_555 1_555
H13B C23B 0.950 1_555 1_555
C24B C17B 1.441 1_555 1_555
C25B C24B 1.447 1_555 1_555
C26B C15B 1.387 1_555 1_555
C27B C26B 1.499 1_555 1_555
C28B C27B 1.394 1_555 1_555
H14B C28B 0.950 1_555 1_555
C29B C28B 1.387 1_555 1_555
H15B C29B 0.951 1_555 1_555
C30B C29B 1.380 1_555 1_555
H16B C30B 0.951 1_555 1_555
C31B C30B 1.390 1_555 1_555
H17B C31B 0.949 1_555 1_555
C32B C27B 1.397 1_555 1_555
H18B C32B 0.950 1_555 1_555
C33B C25B 1.390 1_555 1_555
H19B C33B 0.950 1_555 1_555
C34B C33B 1.412 1_555 1_555
C35B C37 1.413 1_555 1_555
C36B C24B 1.391 1_555 1_555
H20B C36B 0.950 1_555 1_555
C37B C35 1.413 1_555 1_555
C38B C37B 1.494 1_555 1_555
C39B C38B 1.387 1_555 1_555
H21B C39B 0.950 1_555 1_555
C40B C39B 1.394 1_555 1_555
H22B C40B 0.950 1_555 1_555
C41B C40B 1.373 1_555 1_555
H23B C41B 0.949 1_555 1_555
C42B C41B 1.377 1_555 1_555
H24B C42B 0.951 1_555 1_555
C43B C38B 1.380 1_555 1_555
H25B C43B 0.949 1_555 1_555
C11 C12 1.422 1_555 1_555
C12 C13 1.436 1_555 1_555
C13 C14 1.416 1_555 1_555
C15 C16 1.463 1_555 1_555
C22 C23 1.390 1_555 1_555
C25 C26 1.446 1_555 1_555
C31 C32 1.382 1_555 1_555
C35 C36 1.410 1_555 1_555
C42 C43 1.385 1_555 1_555
C11B C12B 1.422 1_555 1_555
C12B C13B 1.436 1_555 1_555
C13B C14B 1.416 1_555 1_555
C15B C16B 1.463 1_555 1_555
C22B C23B 1.390 1_555 1_555
C25B C26B 1.446 1_555 1_555
C31B C32B 1.382 1_555 1_555
C34B C35B 1.447 1_555 1_555
C34B C37B 1.407 1_555 1_555
C35B C36B 1.410 1_555 1_555
C42B C43B 1.385 1_555 1_555
#END
