
#######################################################################
#
#                 Cambridge Crystallographic Data Centre
#                                CCDC
#
#######################################################################
#
# If this CIF has been generated from an entry in the Cambridge
# Structural Database, then it will include bibliographic, chemical,
# crystal, experimental, refinement or atomic coordinate data resulting
# from the CCDC's data processing and validation procedures.
#
#######################################################################

data_CSD_CIF_KEFFEJ
_audit_creation_date 2017-07-27
_audit_creation_method CSD-ConQuest-V1
_database_code_CSD KEFFEJ
_database_code_depnum_ccdc_archive 'CCDC 1481421'
_chemical_formula_sum 'C38 H20'
_chemical_formula_moiety
;
C38 H20
;
_journal_coden_Cambridge 1695
_journal_volume 5
_journal_year 2017
_journal_page_first 7935
_journal_name_full 'J.Mater.Chem.C '
loop_
_publ_author_name
"Ding-Chi Huang"
"Chi-Hsien Kuo"
"Man-Tzu Ho"
"Bo-Chao Lin"
"Wei-Tao Peng"
"Ito Chao"
"Chao-Ping Hsu"
"Yu-Tai Tao"
_chemical_name_systematic
;
tetrabenzo[fg,jk,st,wx]hexacene
;
_cell_volume   4535.858
_exptl_crystal_colour 'yellow'
_exptl_crystal_density_diffrn 1.396
_exptl_crystal_description 'prism'
_exptl_crystal_preparation 'Vapour deposition'
_diffrn_ambient_temperature 200
#These two values have been output from a single CSD field.
_refine_ls_R_factor_gt 0.0554
_refine_ls_wR_factor_gt 0.0554
_symmetry_cell_setting orthorhombic
_symmetry_space_group_name_H-M 'P b c a'
_symmetry_Int_Tables_number 61
loop_
_symmetry_equiv_pos_site_id
_symmetry_equiv_pos_as_xyz
1 x,y,z
2 1/2-x,-y,1/2+z
3 -x,1/2+y,1/2-z
4 1/2+x,1/2-y,-z
5 -x,-y,-z
6 -1/2+x,y,-1/2-z
7 x,-1/2-y,-1/2+z
8 -1/2-x,-1/2+y,z
_cell_length_a 18.8657(14)
_cell_length_b 7.6482(4)
_cell_length_c 31.436(2)
_cell_angle_alpha 90
_cell_angle_beta 90
_cell_angle_gamma 90
_cell_formula_units_Z 8
loop_
_atom_type_symbol
_atom_type_radius_bond
C 0.68
H 0.23
loop_
_atom_site_label
_atom_site_type_symbol
_atom_site_fract_x
_atom_site_fract_y
_atom_site_fract_z
C1 C 0.62141(19) 0.7691(5) 0.7285(1)
C2 C 0.6752(2) 0.7674(5) 0.75993(11)
H1 H 0.70560 0.86570 0.76260
C3 C 0.6845(2) 0.6274(6) 0.78667(12)
H2 H 0.72150 0.62840 0.80720
C4 C 0.6398(2) 0.4854(6) 0.78360(12)
H3 H 0.64550 0.38910 0.80240
C5 C 0.5871(2) 0.4829(5) 0.75349(11)
H4 H 0.55660 0.38430 0.75190
C6 C 0.57700(19) 0.6224(5) 0.7249(1)
C7 C 0.52045(18) 0.6192(5) 0.69261(11)
C8 C 0.4767(2) 0.4741(5) 0.68706(12)
H5 H 0.48210 0.37550 0.70510
C9 C 0.4256(2) 0.4721(5) 0.65552(12)
H6 H 0.39860 0.36910 0.65090
C10 C 0.41341(18) 0.6170(4) 0.63075(11)
H7 H 0.37750 0.61370 0.60960
C11 C 0.45333(18) 0.7696(4) 0.63643(10)
C12 C 0.51054(17) 0.7663(4) 0.66568(10)
C13 C 0.55831(17) 0.9137(4) 0.66808(10)
C14 C 0.61171(18) 0.9197(4) 0.69989(10)
C15 C 0.65393(19) 1.0691(5) 0.70292(11)
H8 H 0.69010 1.07480 0.72390
C16 C 0.6439(2) 1.2078(5) 0.67594(11)
H9 H 0.67120 1.31100 0.67950
C17 C 0.59422(17) 1.1990(4) 0.64353(10)
H10 H 0.58830 1.29620 0.62510
C18 C 0.55275(17) 1.0495(4) 0.63757(10)
C19 C 0.49973(16) 1.0372(4) 0.60366(10)
C20 C 0.44378(17) 0.9218(4) 0.6089(1)
C21 C 0.37915(17) 0.9503(4) 0.58477(10)
C22 C 0.31292(18) 0.8861(4) 0.59827(11)
H11 H 0.30950 0.82660 0.62470
C23 C 0.25316(18) 0.9080(4) 0.57395(12)
H12 H 0.20890 0.86530 0.58390
C24 C 0.25701(17) 0.9920(4) 0.53493(11)
H13 H 0.21600 0.99840 0.51750
C25 C 0.32018(17) 1.0673(4) 0.52082(11)
C26 C 0.38073(17) 1.0554(4) 0.54751(10)
C27 C 0.44556(17) 1.1422(4) 0.53576(10)
C28 C 0.50485(17) 1.1365(4) 0.56397(10)
C29 C 0.56980(17) 1.2035(4) 0.54944(10)
H14 H 0.61090 1.19260 0.56670
C30 C 0.57473(18) 1.2849(4) 0.51037(10)
H15 H 0.61920 1.32860 0.50100
C31 C 0.51599(18) 1.3037(4) 0.48479(11)
H16 H 0.51980 1.36730 0.45890
C32 C 0.45109(18) 1.2310(4) 0.49629(10)
C33 C 0.38935(18) 1.2383(4) 0.46778(10)
C34 C 0.32564(18) 1.1560(4) 0.47970(11)
C35 C 0.26920(19) 1.1553(5) 0.45076(12)
H17 H 0.22630 1.09790 0.45830
C36 C 0.2742(2) 1.2352(5) 0.41182(12)
H18 H 0.23520 1.23300 0.39270
C37 C 0.3366(2) 1.3195(5) 0.40038(11)
H19 H 0.34020 1.37560 0.37350
C38 C 0.39300(19) 1.3216(4) 0.42797(11)
H20 H 0.43530 1.38040 0.42000
loop_
_geom_bond_atom_site_label_1
_geom_bond_atom_site_label_2
_geom_bond_distance
_geom_bond_site_symmetry_1
_geom_bond_site_symmetry_2
C1 C2 1.416 1_555 1_555
C2 H1 0.949 1_555 1_555
C3 C2 1.373 1_555 1_555
H2 C3 0.951 1_555 1_555
C4 C3 1.378 1_555 1_555
H3 C4 0.950 1_555 1_555
C5 C4 1.373 1_555 1_555
H4 C5 0.950 1_555 1_555
C6 C1 1.405 1_555 1_555
C7 C6 1.473 1_555 1_555
C8 C7 1.394 1_555 1_555
H5 C8 0.949 1_555 1_555
C9 C8 1.383 1_555 1_555
H6 C9 0.949 1_555 1_555
C10 C9 1.374 1_555 1_555
H7 C10 0.950 1_555 1_555
C11 C10 1.400 1_555 1_555
C12 C7 1.420 1_555 1_555
C13 C12 1.445 1_555 1_555
C14 C1 1.473 1_555 1_555
C15 C14 1.396 1_555 1_555
H8 C15 0.950 1_555 1_555
C16 C15 1.371 1_555 1_555
H9 C16 0.949 1_555 1_555
C17 C16 1.386 1_555 1_555
H10 C17 0.949 1_555 1_555
C18 C13 1.418 1_555 1_555
C19 C18 1.465 1_555 1_555
C20 C11 1.462 1_555 1_555
C21 C20 1.452 1_555 1_555
C22 C21 1.408 1_555 1_555
H11 C22 0.950 1_555 1_555
C23 C22 1.372 1_555 1_555
H12 C23 0.950 1_555 1_555
C24 C23 1.387 1_555 1_555
H13 C24 0.949 1_555 1_555
C25 C24 1.396 1_555 1_555
C26 C21 1.421 1_555 1_555
C27 C26 1.440 1_555 1_555
C28 C19 1.464 1_555 1_555
C29 C28 1.405 1_555 1_555
H14 C29 0.950 1_555 1_555
C30 C29 1.380 1_555 1_555
H15 C30 0.950 1_555 1_555
C31 C30 1.377 1_555 1_555
H16 C31 0.951 1_555 1_555
C32 C27 1.418 1_555 1_555
C33 C32 1.471 1_555 1_555
C34 C25 1.463 1_555 1_555
C35 C34 1.401 1_555 1_555
H17 C35 0.951 1_555 1_555
C36 C35 1.371 1_555 1_555
H18 C36 0.950 1_555 1_555
C37 C36 1.390 1_555 1_555
H19 C37 0.950 1_555 1_555
C38 C33 1.406 1_555 1_555
H20 C38 0.950 1_555 1_555
C5 C6 1.408 1_555 1_555
C11 C12 1.418 1_555 1_555
C13 C14 1.420 1_555 1_555
C17 C18 1.398 1_555 1_555
C19 C20 1.386 1_555 1_555
C25 C26 1.420 1_555 1_555
C27 C28 1.428 1_555 1_555
C31 C32 1.392 1_555 1_555
C33 C34 1.408 1_555 1_555
C37 C38 1.373 1_555 1_555
#END
