
#######################################################################
#
#                 Cambridge Crystallographic Data Centre
#                                CCDC
#
#######################################################################
#
# If this CIF has been generated from an entry in the Cambridge
# Structural Database, then it will include bibliographic, chemical,
# crystal, experimental, refinement or atomic coordinate data resulting
# from the CCDC's data processing and validation procedures.
#
#######################################################################

data_CSD_CIF_KEGHEJ01
_audit_creation_date 2008-06-05
_audit_creation_method CSD-ConQuest-V1
_database_code_CSD KEGHEJ01
_database_code_depnum_ccdc_archive 'CCDC 625564'
_chemical_formula_sum 'C14 H8'
_chemical_formula_moiety
;
C14 H8
;
_journal_coden_Cambridge 155
_journal_volume 360
_journal_year 2007
_journal_page_first 4017
_journal_name_full 'Inorg.Chim.Acta '
loop_
_publ_author_name
"R.E.Marsh"
"D.A.Clemente"
_chemical_name_systematic
;
Cyclopent(fg)acenaphthylene
;
_chemical_name_common
;
Pyracylene
;
_cell_volume    895.138
_exptl_crystal_density_diffrn 1.308
_diffrn_ambient_temperature ?
_diffrn_special_details
;
The study was carried out at room temperature,in the range 283-303K

;
loop_
_citation_database_id_CSD
_citation_special_details
KEGHEJ "is reinterpreted by this entry"
_symmetry_cell_setting orthorhombic
_symmetry_space_group_name_H-M 'C m c a'
_symmetry_Int_Tables_number 64
loop_
_symmetry_equiv_pos_site_id
_symmetry_equiv_pos_as_xyz
1 x,y,z
2 1/2+x,1/2+y,z
3 -x,1/2-y,1/2+z
4 x,-y,-z
5 -x,1/2+y,1/2-z
6 1/2-x,-y,1/2+z
7 1/2+x,1/2-y,-z
8 1/2-x,y,1/2-z
9 -x,-y,-z
10 -1/2-x,-1/2-y,-z
11 x,-1/2+y,-1/2-z
12 -x,y,z
13 x,-1/2-y,-1/2+z
14 -1/2+x,y,-1/2-z
15 -1/2-x,-1/2+y,z
16 -1/2+x,-y,-1/2+z
_cell_length_a 10.873(12)
_cell_length_b 9.115(14)
_cell_length_c 9.032(1)
_cell_angle_alpha 90
_cell_angle_beta 90
_cell_angle_gamma 90
_cell_formula_units_Z 4
loop_
_atom_type_symbol
_atom_type_radius_bond
C 0.68
H 0.23
loop_
_atom_site_label
_atom_site_type_symbol
_atom_site_fract_x
_atom_site_fract_y
_atom_site_fract_z
C1 C 0.06190 0.24915 0.31255
C2 C 0.10840 0.12555 0.40525
C3 C 0.21722 0.06318 0.45190
C4 C 0.00000 0.05980 0.45490
H1 H 0.11405 0.32165 0.26115
H2 H 0.29902 0.10002 0.42090
C1K C -0.06190 0.24915 0.31255
C1H C -0.06190 -0.24915 0.68745
C1C C 0.06190 -0.24915 0.68745
C2K C -0.10840 0.12555 0.40525
C2H C -0.10840 -0.12555 0.59475
C2C C 0.10840 -0.12555 0.59475
C3K C -0.21722 0.06318 0.45190
C3H C -0.21722 -0.06318 0.54810
C3C C 0.21722 -0.06318 0.54810
C4H C 0.00000 -0.05980 0.54510
H1C H 0.11405 -0.32165 0.73885
H1H H -0.11405 -0.32165 0.73885
H1K H -0.11405 0.32165 0.26115
H2C H 0.29902 -0.10002 0.57910
H2H H -0.29902 -0.10002 0.57910
H2K H -0.29902 0.10002 0.42090
loop_
_geom_bond_atom_site_label_1
_geom_bond_atom_site_label_2
_geom_bond_distance
_geom_bond_site_symmetry_1
_geom_bond_site_symmetry_2
C1 C2 1.492 1_555 1_555
C2 C3 1.379 1_555 1_555
C3 H2 0.991 1_555 1_555
C4 C2 1.396 1_555 1_555
H1 C1 0.987 1_555 1_555
C1K C1 1.346 1_555 1_555
C1H C1C 1.346 1_555 1_555
C1C C2C 1.492 1_555 1_555
C2K C4 1.396 1_555 1_555
C2H C1H 1.492 1_555 1_555
C2C C3C 1.379 1_555 1_555
C3K C2K 1.379 1_555 1_555
C3H C2H 1.379 1_555 1_555
C3C C3 1.443 1_555 1_555
C4H C4 1.361 1_555 1_555
H1C C1C 0.987 1_555 1_555
H1H C1H 0.987 1_555 1_555
H1K C1K 0.987 1_555 1_555
H2C C3C 0.991 1_555 1_555
H2H C3H 0.991 1_555 1_555
H2K C3K 0.991 1_555 1_555
C1K C2K 1.492 1_555 1_555
C2H C4H 1.396 1_555 1_555
C2C C4H 1.396 1_555 1_555
C3K C3H 1.443 1_555 1_555
#END
