
#######################################################################
#
#                 Cambridge Crystallographic Data Centre
#                                CCDC
#
#######################################################################
#
# If this CIF has been generated from an entry in the Cambridge
# Structural Database, then it will include bibliographic, chemical,
# crystal, experimental, refinement or atomic coordinate data resulting
# from the CCDC's data processing and validation procedures.
#
#######################################################################

data_CSD_CIF_KEGQOF
_audit_creation_date 2017-07-28
_audit_creation_method CSD-ConQuest-V1
_database_code_CSD KEGQOF
_database_code_depnum_ccdc_archive 'CCDC 1565496'
_chemical_formula_sum 'C40 H40'
_chemical_formula_moiety
;
C40 H40
;
_journal_coden_Cambridge 1336
_journal_volume 19
_journal_year 2017
_journal_page_first 3791
_journal_name_full 'Org.Lett. '
loop_
_publ_author_name
"Y.Suzuki"
"K.Yamada"
"K.Watanabe"
"T.Kochi"
"Yutaka Ie"
"Yoshio Aso"
"F.Kakiuchi"
_chemical_name_systematic
;
6,14-dihexyldibenzo[fg,qr]pentacene
;
_cell_volume   1436.637
_exptl_crystal_colour 'colorless'
_exptl_crystal_density_diffrn 1.204
_exptl_crystal_description 'platelet'
_diffrn_ambient_temperature 93
#These two values have been output from a single CSD field.
_refine_ls_R_factor_gt 0.0917
_refine_ls_wR_factor_gt 0.0917
_symmetry_cell_setting triclinic
_symmetry_space_group_name_H-M 'P -1'
_symmetry_Int_Tables_number 2
loop_
_symmetry_equiv_pos_site_id
_symmetry_equiv_pos_as_xyz
1 x,y,z
2 -x,-y,-z
_cell_length_a 5.4448(19)
_cell_length_b 15.148(5)
_cell_length_c 18.847(6)
_cell_angle_alpha 108.948(6)
_cell_angle_beta 100.966(7)
_cell_angle_gamma 91.599(7)
_cell_formula_units_Z 2
loop_
_atom_type_symbol
_atom_type_radius_bond
C 0.68
H 0.23
loop_
_atom_site_label
_atom_site_type_symbol
_atom_site_fract_x
_atom_site_fract_y
_atom_site_fract_z
C1 C 0.866(1) 0.0502(3) 0.0590(3)
C2 C 0.8041(9) 0.0585(3) -0.0155(2)
C3 C 0.9331(10) 0.0091(3) -0.0751(3)
C4 C 0.8673(10) 0.0190(3) -0.1464(3)
H1 H 0.95430 -0.01280 -0.18500
C5 C 0.674(1) 0.0751(3) -0.1648(3)
C6 C 0.6178(11) 0.0846(3) -0.2381(3)
H2 H 0.71180 0.05360 -0.27500
C7 C 0.431(1) 0.1374(3) -0.2581(3)
C8 C 0.297(1) 0.1827(3) -0.2023(3)
H3 H 0.16840 0.21970 -0.21460
C9 C 0.3461(9) 0.1754(3) -0.1291(3)
H4 H 0.24970 0.20630 -0.09290
C10 C 0.539(1) 0.1221(3) -0.1087(3)
C11 C 0.6072(10) 0.1139(3) -0.0322(2)
C12 C 0.4827(10) 0.1607(3) 0.0267(3)
H5 H 0.35230 0.19810 0.01640
C13 C 0.5467(10) 0.1532(3) 0.0985(3)
H6 H 0.46080 0.18560 0.13720
C14 C 0.7367(10) 0.0983(3) 0.1152(3)
H7 H 0.77840 0.09360 0.16510
C15 C 0.3776(11) 0.1479(4) -0.3364(3)
H8 H 0.36230 0.08470 -0.37560
H9 H 0.21300 0.17350 -0.34380
C16 C 0.5705(13) 0.2096(4) -0.3506(3)
H10 H 0.73870 0.18840 -0.33830
H11 H 0.53400 0.20290 -0.40570
C17 C 0.5747(12) 0.3089(4) -0.3046(3)
H12 H 0.62400 0.31600 -0.24960
H13 H 0.40270 0.32840 -0.31370
C18 C 0.7608(13) 0.3769(4) -0.3230(4)
H14 H 0.78830 0.43840 -0.28120
H15 H 0.92510 0.35060 -0.32370
C19 C 0.6693(13) 0.3922(5) -0.3976(3)
H16 H 0.50750 0.42020 -0.39630
H17 H 0.63690 0.33050 -0.43920
C20 C 0.8544(14) 0.4565(5) -0.4173(4)
H18 H 0.90200 0.51540 -0.37410
H19 H 0.77260 0.47000 -0.46320
H20 H 1.00520 0.42480 -0.42700
C21 C 0.2714(10) 0.4495(3) -0.0528(3)
C22 C 0.3348(10) 0.4405(3) 0.0209(3)
C23 C 0.5599(10) 0.4907(3) 0.0751(3)
C24 C 0.6182(10) 0.4789(3) 0.1458(3)
H21 H 0.76980 0.51010 0.18030
C25 C 0.4595(10) 0.4213(3) 0.1693(3)
C26 C 0.5319(10) 0.4089(3) 0.2414(3)
H22 H 0.68620 0.43980 0.27440
C27 C 0.3838(11) 0.3529(3) 0.2647(3)
C28 C 0.153(1) 0.3098(3) 0.2151(3)
H23 H 0.04560 0.27240 0.23060
C29 C 0.0812(11) 0.3209(3) 0.1455(3)
H24 H -0.07600 0.29110 0.11370
C30 C 0.2332(10) 0.3753(3) 0.1191(3)
C31 C 0.170(1) 0.3841(3) 0.0429(3)
C32 C -0.0487(10) 0.3364(3) -0.0103(3)
H25 H -0.15830 0.29810 0.00370
C33 C -0.1077(10) 0.3440(3) -0.0822(3)
H26 H -0.25720 0.31160 -0.11720
C34 C 0.0525(10) 0.3993(3) -0.1032(3)
H27 H 0.01210 0.40310 -0.15340
C35 C 0.4791(11) 0.3322(3) 0.3385(3)
H28 H 0.33540 0.32490 0.36200
H29 H 0.59540 0.38590 0.37520
C36 C 0.6157(11) 0.2429(3) 0.3237(3)
H30 H 0.49400 0.18880 0.29070
H31 H 0.74730 0.24800 0.29520
C37 C 0.7361(11) 0.2237(4) 0.3955(3)
H32 H 0.60210 0.21060 0.42060
H33 H 0.84130 0.28090 0.43140
C38 C 0.8995(11) 0.1414(4) 0.3816(3)
H34 H 0.79280 0.08370 0.34740
H35 H 1.02920 0.15330 0.35460
C39 C 1.0280(12) 0.1248(4) 0.4538(3)
H36 H 0.89860 0.10790 0.47890
H37 H 1.12550 0.18370 0.48970
C40 C 1.2037(12) 0.0474(4) 0.4388(3)
H38 H 1.10790 -0.01150 0.40400
H39 H 1.28120 0.03930 0.48740
H40 H 1.33520 0.06440 0.41530
C1A C 1.134(1) -0.0502(3) -0.0590(3)
C2A C 1.1959(9) -0.0585(3) 0.0155(2)
C3A C 1.0669(10) -0.0091(3) 0.0751(3)
C4A C 1.1327(10) -0.0190(3) 0.1464(3)
H1A H 1.04570 0.01280 0.18500
C5A C 1.326(1) -0.0751(3) 0.1648(3)
C6A C 1.3822(11) -0.0846(3) 0.2381(3)
H2A H 1.28820 -0.05360 0.27500
C7A C 1.569(1) -0.1374(3) 0.2581(3)
C8A C 1.703(1) -0.1827(3) 0.2023(3)
H3A H 1.83160 -0.21970 0.21460
C9A C 1.6539(9) -0.1754(3) 0.1291(3)
H4A H 1.75030 -0.20630 0.09290
C10A C 1.461(1) -0.1221(3) 0.1087(3)
C11A C 1.3928(10) -0.1139(3) 0.0322(2)
C12A C 1.5173(10) -0.1607(3) -0.0267(3)
H5A H 1.64770 -0.19810 -0.01640
C13A C 1.4533(10) -0.1532(3) -0.0985(3)
H6A H 1.53920 -0.18560 -0.13720
C14A C 1.2633(10) -0.0983(3) -0.1152(3)
H7A H 1.22160 -0.09360 -0.16510
C15A C 1.6224(11) -0.1479(4) 0.3364(3)
H8A H 1.63770 -0.08470 0.37560
H9A H 1.78700 -0.17350 0.34380
C16A C 1.4295(13) -0.2096(4) 0.3506(3)
H10A H 1.26130 -0.18840 0.33830
H11A H 1.46600 -0.20290 0.40570
C17A C 1.4253(12) -0.3089(4) 0.3046(3)
H12A H 1.37600 -0.31600 0.24960
H13A H 1.59730 -0.32840 0.31370
C18A C 1.2392(13) -0.3769(4) 0.3230(4)
H14A H 1.21170 -0.43840 0.28120
H15A H 1.07490 -0.35060 0.32370
C19A C 1.3307(13) -0.3922(5) 0.3976(3)
H16A H 1.49250 -0.42020 0.39630
H17A H 1.36310 -0.33050 0.43920
C20A C 1.1456(14) -0.4565(5) 0.4173(4)
H18A H 1.09800 -0.51540 0.37410
H19A H 1.22740 -0.47000 0.46320
H20A H 0.99480 -0.42480 0.42700
C21A C 0.7286(10) 0.5505(3) 0.0528(3)
C22A C 0.6652(10) 0.5595(3) -0.0209(3)
C23A C 0.4401(10) 0.5093(3) -0.0751(3)
C24A C 0.3818(10) 0.5211(3) -0.1458(3)
H21A H 0.23020 0.48990 -0.18030
C25A C 0.5405(10) 0.5787(3) -0.1693(3)
C26A C 0.4681(10) 0.5911(3) -0.2414(3)
H22A H 0.31380 0.56020 -0.27440
C27A C 0.6162(11) 0.6471(3) -0.2647(3)
C28A C 0.847(1) 0.6902(3) -0.2151(3)
H23A H 0.95440 0.72760 -0.23060
C29A C 0.9188(11) 0.6791(3) -0.1455(3)
H24A H 1.07600 0.70890 -0.11370
C30A C 0.7668(10) 0.6247(3) -0.1191(3)
C31A C 0.830(1) 0.6159(3) -0.0429(3)
C32A C 1.0487(10) 0.6636(3) 0.0103(3)
H25A H 1.15830 0.70190 -0.00370
C33A C 1.1077(10) 0.6560(3) 0.0822(3)
H26A H 1.25720 0.68840 0.11720
C34A C 0.9475(10) 0.6007(3) 0.1032(3)
H27A H 0.98790 0.59690 0.15340
C35A C 0.5209(11) 0.6678(3) -0.3385(3)
H28A H 0.66460 0.67510 -0.36200
H29A H 0.40460 0.61410 -0.37520
C36A C 0.3843(11) 0.7571(3) -0.3237(3)
H30A H 0.50600 0.81120 -0.29070
H31A H 0.25270 0.75200 -0.29520
C37A C 0.2639(11) 0.7763(4) -0.3955(3)
H32A H 0.39790 0.78940 -0.42060
H33A H 0.15870 0.71910 -0.43140
C38A C 0.1005(11) 0.8586(4) -0.3816(3)
H34A H 0.20720 0.91630 -0.34740
H35A H -0.02920 0.84670 -0.35460
C39A C -0.0280(12) 0.8752(4) -0.4538(3)
H36A H 0.10140 0.89210 -0.47890
H37A H -0.12550 0.81630 -0.48970
C40A C -0.2037(12) 0.9526(4) -0.4388(3)
H38A H -0.10790 1.01150 -0.40400
H39A H -0.28120 0.96070 -0.48740
H40A H -0.33520 0.93560 -0.41530
loop_
_geom_bond_atom_site_label_1
_geom_bond_atom_site_label_2
_geom_bond_distance
_geom_bond_site_symmetry_1
_geom_bond_site_symmetry_2
C1 C2 1.428 1_555 1_555
C2 C3 1.449 1_555 1_555
C3 C4 1.381 1_555 1_555
C4 H1 0.950 1_555 1_555
C5 C4 1.433 1_555 1_555
C6 C5 1.412 1_555 1_555
H2 C6 0.950 1_555 1_555
C7 C6 1.383 1_555 1_555
C8 C7 1.400 1_555 1_555
H3 C8 0.950 1_555 1_555
C9 C8 1.395 1_555 1_555
H4 C9 0.950 1_555 1_555
C10 C5 1.415 1_555 1_555
C11 C2 1.430 1_555 1_555
C12 C11 1.413 1_555 1_555
H5 C12 0.951 1_555 1_555
C13 C12 1.374 1_555 1_555
H6 C13 0.950 1_555 1_555
C14 C1 1.400 1_555 1_555
H7 C14 0.951 1_555 1_555
C15 C7 1.510 1_555 1_555
H8 C15 0.991 1_555 1_555
H9 C15 0.990 1_555 1_555
C16 C15 1.504 1_555 1_555
H10 C16 0.990 1_555 1_555
H11 C16 0.990 1_555 1_555
C17 C16 1.469 1_555 1_555
H12 C17 0.989 1_555 1_555
H13 C17 0.990 1_555 1_555
C18 C17 1.586 1_555 1_555
H14 C18 0.991 1_555 1_555
H15 C18 0.990 1_555 1_555
C19 C18 1.493 1_555 1_555
H16 C19 0.989 1_555 1_555
H17 C19 0.991 1_555 1_555
C20 C19 1.557 1_555 1_555
H18 C20 0.980 1_555 1_555
H19 C20 0.981 1_555 1_555
H20 C20 0.980 1_555 1_555
C21 C22 1.418 1_555 1_555
C22 C23 1.446 1_555 1_555
C23 C24 1.380 1_555 1_555
C24 H21 0.950 1_555 1_555
C25 C24 1.435 1_555 1_555
C26 C25 1.415 1_555 1_555
H22 C26 0.950 1_555 1_555
C27 C26 1.379 1_555 1_555
C28 C27 1.411 1_555 1_555
H23 C28 0.950 1_555 1_555
C29 C28 1.361 1_555 1_555
H24 C29 0.950 1_555 1_555
C30 C25 1.407 1_555 1_555
C31 C22 1.427 1_555 1_555
C32 C31 1.405 1_555 1_555
H25 C32 0.950 1_555 1_555
C33 C32 1.375 1_555 1_555
H26 C33 0.950 1_555 1_555
C34 C21 1.397 1_555 1_555
H27 C34 0.951 1_555 1_555
C35 C27 1.523 1_555 1_555
H28 C35 0.990 1_555 1_555
H29 C35 0.990 1_555 1_555
C36 C35 1.533 1_555 1_555
H30 C36 0.990 1_555 1_555
H31 C36 0.989 1_555 1_555
C37 C36 1.508 1_555 1_555
H32 C37 0.990 1_555 1_555
H33 C37 0.990 1_555 1_555
C38 C37 1.534 1_555 1_555
H34 C38 0.990 1_555 1_555
H35 C38 0.990 1_555 1_555
C39 C38 1.508 1_555 1_555
H36 C39 0.991 1_555 1_555
H37 C39 0.990 1_555 1_555
C40 C39 1.523 1_555 1_555
H38 C40 0.981 1_555 1_555
H39 C40 0.980 1_555 1_555
H40 C40 0.980 1_555 1_555
C1A C3 1.484 1_555 1_555
C2A C1A 1.428 1_555 1_555
C3A C1 1.484 1_555 1_555
C4A C3A 1.381 1_555 1_555
H1A C4A 0.950 1_555 1_555
C5A C4A 1.433 1_555 1_555
C6A C5A 1.412 1_555 1_555
H2A C6A 0.950 1_555 1_555
C7A C6A 1.383 1_555 1_555
C8A C7A 1.400 1_555 1_555
H3A C8A 0.950 1_555 1_555
C9A C8A 1.395 1_555 1_555
H4A C9A 0.950 1_555 1_555
C10A C5A 1.415 1_555 1_555
C11A C2A 1.430 1_555 1_555
C12A C11A 1.413 1_555 1_555
H5A C12A 0.951 1_555 1_555
C13A C12A 1.374 1_555 1_555
H6A C13A 0.950 1_555 1_555
C14A C1A 1.400 1_555 1_555
H7A C14A 0.951 1_555 1_555
C15A C7A 1.510 1_555 1_555
H8A C15A 0.991 1_555 1_555
H9A C15A 0.990 1_555 1_555
C16A C15A 1.504 1_555 1_555
H10A C16A 0.990 1_555 1_555
H11A C16A 0.990 1_555 1_555
C17A C16A 1.469 1_555 1_555
H12A C17A 0.989 1_555 1_555
H13A C17A 0.990 1_555 1_555
C18A C17A 1.586 1_555 1_555
H14A C18A 0.991 1_555 1_555
H15A C18A 0.990 1_555 1_555
C19A C18A 1.493 1_555 1_555
H16A C19A 0.989 1_555 1_555
H17A C19A 0.991 1_555 1_555
C20A C19A 1.557 1_555 1_555
H18A C20A 0.980 1_555 1_555
H19A C20A 0.981 1_555 1_555
H20A C20A 0.980 1_555 1_555
C21A C23 1.479 1_555 1_555
C22A C21A 1.418 1_555 1_555
C23A C21 1.479 1_555 1_555
C24A C23A 1.380 1_555 1_555
H21A C24A 0.950 1_555 1_555
C25A C24A 1.435 1_555 1_555
C26A C25A 1.415 1_555 1_555
H22A C26A 0.950 1_555 1_555
C27A C26A 1.379 1_555 1_555
C28A C27A 1.411 1_555 1_555
H23A C28A 0.950 1_555 1_555
C29A C28A 1.361 1_555 1_555
H24A C29A 0.950 1_555 1_555
C30A C25A 1.407 1_555 1_555
C31A C22A 1.427 1_555 1_555
C32A C31A 1.405 1_555 1_555
H25A C32A 0.950 1_555 1_555
C33A C32A 1.375 1_555 1_555
H26A C33A 0.950 1_555 1_555
C34A C21A 1.397 1_555 1_555
H27A C34A 0.951 1_555 1_555
C35A C27A 1.523 1_555 1_555
H28A C35A 0.990 1_555 1_555
H29A C35A 0.990 1_555 1_555
C36A C35A 1.533 1_555 1_555
H30A C36A 0.990 1_555 1_555
H31A C36A 0.989 1_555 1_555
C37A C36A 1.508 1_555 1_555
H32A C37A 0.990 1_555 1_555
H33A C37A 0.990 1_555 1_555
C38A C37A 1.534 1_555 1_555
H34A C38A 0.990 1_555 1_555
H35A C38A 0.990 1_555 1_555
C39A C38A 1.508 1_555 1_555
H36A C39A 0.991 1_555 1_555
H37A C39A 0.990 1_555 1_555
C40A C39A 1.523 1_555 1_555
H38A C40A 0.981 1_555 1_555
H39A C40A 0.980 1_555 1_555
H40A C40A 0.980 1_555 1_555
C9 C10 1.414 1_555 1_555
C10 C11 1.465 1_555 1_555
C13 C14 1.398 1_555 1_555
C29 C30 1.413 1_555 1_555
C30 C31 1.462 1_555 1_555
C33 C34 1.387 1_555 1_555
C2A C3A 1.449 1_555 1_555
C9A C10A 1.414 1_555 1_555
C10A C11A 1.465 1_555 1_555
C13A C14A 1.398 1_555 1_555
C22A C23A 1.446 1_555 1_555
C29A C30A 1.413 1_555 1_555
C30A C31A 1.462 1_555 1_555
C33A C34A 1.387 1_555 1_555
#END
