
#######################################################################
#
#                 Cambridge Crystallographic Data Centre
#                                CCDC
#
#######################################################################
#
# If this CIF has been generated from an entry in the Cambridge
# Structural Database, then it will include bibliographic, chemical,
# crystal, experimental, refinement or atomic coordinate data resulting
# from the CCDC's data processing and validation procedures.
#
#######################################################################

data_CSD_CIF_KEKBEK
_audit_creation_date 2017-11-21
_audit_creation_method CSD-ConQuest-V1
_database_code_CSD KEKBEK
_database_code_depnum_ccdc_archive 'CCDC 1501672'
_chemical_formula_sum 'C46 H30'
_chemical_formula_moiety
;
C46 H30
;
_journal_coden_Cambridge 15
_journal_volume 95
_journal_year 2017
_journal_page_first 390
_journal_name_full 'Can.J.Chem. '
loop_
_publ_author_name
"T.Hackfort"
"B.Neumann"
"H.-G.Stammler"
"D.Kuck"
_chemical_name_systematic
;
tridecacyclo[21.7.7.7^4,12^.1^2,18^.1^3,13^.0^1,23^.0^4,12^.0^6,11^.0^17,39^.0
^22,38^.0^24,29^.0^32,37^.0^40,45^]hexatetraconta-2(38),3(39),6,8,10,13,15,17,
19,21,24,26,28,32,34,36,40,42,44-nonadecaene
;
_cell_volume   3016.263
_exptl_crystal_colour 'light yellow'
_exptl_crystal_density_diffrn 1.283
_exptl_crystal_description 'needles'
_diffrn_ambient_temperature 293
#These two values have been output from a single CSD field.
_refine_ls_R_factor_gt 0.0592
_refine_ls_wR_factor_gt 0.0592
_symmetry_cell_setting monoclinic
_symmetry_space_group_name_H-M 'P 21/n'
_symmetry_Int_Tables_number 14
loop_
_symmetry_equiv_pos_site_id
_symmetry_equiv_pos_as_xyz
1 x,y,z
2 1/2-x,1/2+y,1/2-z
3 -x,-y,-z
4 -1/2+x,-1/2-y,-1/2+z
_cell_length_a 16.105(18)
_cell_length_b 12.507(9)
_cell_length_c 16.844(12)
_cell_angle_alpha 90
_cell_angle_beta 117.25(6)
_cell_angle_gamma 90
_cell_formula_units_Z 4
loop_
_atom_type_symbol
_atom_type_radius_bond
C 0.68
H 0.23
loop_
_atom_site_label
_atom_site_type_symbol
_atom_site_fract_x
_atom_site_fract_y
_atom_site_fract_z
C1 C 0.3565(2) 0.1582(2) 0.5062(2)
C2 C 0.3631(3) 0.0606(3) 0.4714(2)
H1 H 0.41760 0.02030 0.49920
C3 C 0.2885(3) 0.0229(3) 0.3952(3)
H2 H 0.29290 -0.04280 0.37160
C4 C 0.2078(3) 0.0818(3) 0.3538(2)
H3 H 0.15790 0.05490 0.30280
C5 C 0.1996(3) 0.1799(3) 0.3864(2)
H4 H 0.14560 0.22040 0.35720
C6 C 0.2744(2) 0.2172(2) 0.4645(2)
C7 C 0.2808(2) 0.3208(2) 0.5131(2)
H5 H 0.22530 0.33200 0.52080
H6 H 0.28850 0.38110 0.48080
C8 C 0.3682(2) 0.3062(2) 0.6045(2)
C9 C 0.3455(2) 0.2570(2) 0.6770(2)
H7 H 0.34470 0.31150 0.71760
H8 H 0.28550 0.22090 0.65000
C10 C 0.43239(19) 0.4025(2) 0.63244(18)
C11 C 0.4278(2) 0.2168(2) 0.5874(2)
C12 C 0.4684(2) 0.1534(2) 0.6736(2)
C13 C 0.4236(2) 0.1788(2) 0.7246(2)
C14 C 0.4519(3) 0.1323(3) 0.8077(2)
H9 H 0.42090 0.14770 0.84130
C15 C 0.5270(3) 0.0625(3) 0.8401(2)
H10 H 0.54710 0.03180 0.89620
C16 C 0.5721(3) 0.0383(3) 0.7904(3)
H11 H 0.62250 -0.00860 0.81320
C17 C 0.5431(2) 0.0832(2) 0.7059(2)
H12 H 0.57340 0.06620 0.67200
C18 C 0.5052(2) 0.3832(2) 0.60705(19)
C19 C 0.5018(2) 0.2781(2) 0.5751(2)
C20 C 0.5640(2) 0.2477(3) 0.5454(2)
H13 H 0.56080 0.17980 0.52160
C21 C 0.6333(2) 0.3204(3) 0.5512(2)
H14 H 0.67590 0.29990 0.53110
C22 C 0.6391(2) 0.4210(3) 0.5859(2)
H15 H 0.68670 0.46660 0.59040
C23 C 0.57450(19) 0.4564(2) 0.61461(18)
C24 C 0.57290(19) 0.5599(2) 0.65295(18)
C25 C 0.6373(2) 0.6428(3) 0.6708(2)
H16 H 0.68610 0.63500 0.65620
C26 C 0.6287(2) 0.7362(3) 0.7100(2)
H17 H 0.67300 0.78980 0.72270
C27 C 0.5554(2) 0.7528(3) 0.7313(2)
H18 H 0.55030 0.81690 0.75670
C28 C 0.4916(2) 0.6731(2) 0.7142(2)
C29 C 0.50179(19) 0.5761(2) 0.67784(19)
C30 C 0.43097(19) 0.4993(2) 0.66865(19)
C31 C 0.3724(2) 0.5472(2) 0.7094(2)
C32 C 0.4014(2) 0.6698(2) 0.7229(2)
C33 C 0.2664(2) 0.5484(3) 0.6470(2)
H19 H 0.24910 0.49190 0.60290
H20 H 0.23160 0.53930 0.68080
C34 C 0.3989(3) 0.5042(3) 0.8050(2)
H21 H 0.35030 0.45780 0.80440
H22 H 0.45720 0.46490 0.82880
C35 C 0.4104(2) 0.6956(2) 0.8141(2)
C36 C 0.4084(2) 0.6036(3) 0.8593(2)
C37 C 0.4163(2) 0.6100(3) 0.9445(2)
H23 H 0.41480 0.54860 0.97500
C38 C 0.4264(2) 0.7091(3) 0.9831(2)
H24 H 0.43290 0.71440 1.04070
C39 C 0.4272(2) 0.8012(3) 0.9378(3)
H25 H 0.43350 0.86750 0.96490
C40 C 0.4186(2) 0.7951(3) 0.8524(2)
H26 H 0.41830 0.85680 0.82150
C41 C 0.3217(2) 0.7253(3) 0.6476(2)
C42 C 0.2475(2) 0.6568(3) 0.6029(2)
C43 C 0.1687(3) 0.6918(4) 0.5294(3)
H27 H 0.11890 0.64560 0.49880
C44 C 0.1646(3) 0.7973(4) 0.5015(3)
H28 H 0.11170 0.82160 0.45190
C45 C 0.2377(3) 0.8656(3) 0.5466(3)
H29 H 0.23360 0.93610 0.52770
C46 C 0.3172(3) 0.8309(3) 0.6196(2)
H30 H 0.36700 0.87730 0.64970
loop_
_geom_bond_atom_site_label_1
_geom_bond_atom_site_label_2
_geom_bond_distance
_geom_bond_site_symmetry_1
_geom_bond_site_symmetry_2
C1 C2 1.379 1_555 1_555
C2 H1 0.931 1_555 1_555
C3 C2 1.379 1_555 1_555
H2 C3 0.930 1_555 1_555
C4 C3 1.374 1_555 1_555
H3 C4 0.930 1_555 1_555
C5 C4 1.375 1_555 1_555
H4 C5 0.929 1_555 1_555
C6 C1 1.391 1_555 1_555
C7 C6 1.511 1_555 1_555
H5 C7 0.970 1_555 1_555
H6 C7 0.971 1_555 1_555
C8 C7 1.549 1_555 1_555
C9 C8 1.553 1_555 1_555
H7 C9 0.970 1_555 1_555
H8 C9 0.971 1_555 1_555
C10 C8 1.515 1_555 1_555
C11 C1 1.513 1_555 1_555
C12 C11 1.515 1_555 1_555
C13 C9 1.503 1_555 1_555
C14 C13 1.386 1_555 1_555
H9 C14 0.930 1_555 1_555
C15 C14 1.385 1_555 1_555
H10 C15 0.930 1_555 1_555
C16 C15 1.370 1_555 1_555
H11 C16 0.930 1_555 1_555
C17 C12 1.384 1_555 1_555
H12 C17 0.930 1_555 1_555
C18 C10 1.441 1_555 1_555
C19 C11 1.509 1_555 1_555
C20 C19 1.363 1_555 1_555
H13 C20 0.930 1_555 1_555
C21 C20 1.408 1_555 1_555
H14 C21 0.929 1_555 1_555
C22 C21 1.372 1_555 1_555
H15 C22 0.930 1_555 1_555
C23 C18 1.404 1_555 1_555
C24 C23 1.452 1_555 1_555
C25 C24 1.398 1_555 1_555
H16 C25 0.930 1_555 1_555
C26 C25 1.380 1_555 1_555
H17 C26 0.930 1_555 1_555
C27 C26 1.398 1_555 1_555
H18 C27 0.930 1_555 1_555
C28 C27 1.364 1_555 1_555
C29 C24 1.403 1_555 1_555
C30 C10 1.361 1_555 1_555
C31 C30 1.521 1_555 1_555
C32 C28 1.526 1_555 1_555
C33 C31 1.541 1_555 1_555
H19 C33 0.969 1_555 1_555
H20 C33 0.971 1_555 1_555
C34 C31 1.560 1_555 1_555
H21 C34 0.971 1_555 1_555
H22 C34 0.969 1_555 1_555
C35 C32 1.510 1_555 1_555
C36 C34 1.509 1_555 1_555
C37 C36 1.384 1_555 1_555
H23 C37 0.930 1_555 1_555
C38 C37 1.374 1_555 1_555
H24 C38 0.929 1_555 1_555
C39 C38 1.385 1_555 1_555
H25 C39 0.929 1_555 1_555
C40 C35 1.380 1_555 1_555
H26 C40 0.930 1_555 1_555
C41 C32 1.499 1_555 1_555
C42 C33 1.508 1_555 1_555
C43 C42 1.377 1_555 1_555
H27 C43 0.930 1_555 1_555
C44 C43 1.392 1_555 1_555
H28 C44 0.930 1_555 1_555
C45 C44 1.369 1_555 1_555
H29 C45 0.929 1_555 1_555
C46 C41 1.393 1_555 1_555
H30 C46 0.930 1_555 1_555
C5 C6 1.396 1_555 1_555
C8 C11 1.584 1_555 1_555
C12 C13 1.388 1_555 1_555
C16 C17 1.397 1_555 1_555
C18 C19 1.412 1_555 1_555
C22 C23 1.405 1_555 1_555
C28 C29 1.402 1_555 1_555
C29 C30 1.444 1_555 1_555
C31 C32 1.589 1_555 1_555
C35 C36 1.388 1_555 1_555
C39 C40 1.383 1_555 1_555
C41 C42 1.380 1_555 1_555
C45 C46 1.378 1_555 1_555
#END
