
#######################################################################
#
#                 Cambridge Crystallographic Data Centre
#                                CCDC
#
#######################################################################
#
# If this CIF has been generated from an entry in the Cambridge
# Structural Database, then it will include bibliographic, chemical,
# crystal, experimental, refinement or atomic coordinate data resulting
# from the CCDC's data processing and validation procedures.
#
#######################################################################

data_CSD_CIF_KEKQUP
_audit_creation_date 2017-11-21
_audit_creation_method CSD-ConQuest-V1
_database_code_CSD KEKQUP
_database_code_depnum_ccdc_archive 'CCDC 1554066'
_chemical_formula_sum 'C38 H26'
_chemical_formula_moiety
;
C38 H26
;
_journal_coden_Cambridge 179
_journal_volume 56
_journal_year 2017
_journal_page_first 13601
_journal_name_full 'Angew.Chem.,Int.Ed. '
loop_
_publ_author_name
"S.Gadakh"
"L.J.W.Shimon"
"O.Gidron"
_chemical_name_systematic
;
4,4'-dimethyl-1,1'-bitriphenylene
;
_cell_volume   2510.486
_exptl_crystal_colour 'colorless'
_exptl_crystal_density_diffrn 1.277
_exptl_crystal_description 'piece'
_diffrn_ambient_temperature 100
#These two values have been output from a single CSD field.
_refine_ls_R_factor_gt 0.0542
_refine_ls_wR_factor_gt 0.0542
_symmetry_cell_setting triclinic
_symmetry_space_group_name_H-M 'P -1'
_symmetry_Int_Tables_number 2
loop_
_symmetry_equiv_pos_site_id
_symmetry_equiv_pos_as_xyz
1 x,y,z
2 -x,-y,-z
_cell_length_a 11.0483(2)
_cell_length_b 14.7310(2)
_cell_length_c 15.5652(2)
_cell_angle_alpha 88.2278(12)
_cell_angle_beta 87.5929(13)
_cell_angle_gamma 82.8448(14)
_cell_formula_units_Z 4
loop_
_atom_type_symbol
_atom_type_radius_bond
C 0.68
H 0.23
loop_
_atom_site_label
_atom_site_type_symbol
_atom_site_fract_x
_atom_site_fract_y
_atom_site_fract_z
C1 C 0.1475(2) -0.22154(15) 0.07752(15)
H1 H 0.21484 -0.26650 0.09618
H2 H 0.14740 -0.21859 0.01454
H3 H 0.06985 -0.23980 0.10036
C2 C 0.16346(19) -0.12842(14) 0.11072(14)
C3 C 0.22372(19) -0.11389(14) 0.18743(13)
C4 C 0.24945(19) -0.18525(13) 0.25550(13)
C5 C 0.1807(2) -0.25962(14) 0.26584(14)
H4 H 0.11746 -0.26470 0.22744
C6 C 0.2031(2) -0.32509(15) 0.33023(15)
H5 H 0.15580 -0.37472 0.33555
C7 C 0.2948(2) -0.31870(15) 0.38748(15)
H6 H 0.31323 -0.36539 0.43008
C8 C 0.3586(2) -0.24419(15) 0.38186(14)
H7 H 0.41931 -0.23899 0.42229
C9 C 0.33624(19) -0.17537(14) 0.31761(13)
C10 C 0.39995(19) -0.09348(13) 0.31397(12)
C11 C 0.5006(2) -0.08712(15) 0.36475(14)
H8 H 0.52592 -0.13583 0.40394
C12 C 0.5633(2) -0.01211(15) 0.35902(14)
H9 H 0.62963 -0.00857 0.39516
C13 C 0.52959(19) 0.05842(14) 0.30045(13)
H10 H 0.57498 0.10910 0.29450
C14 C 0.43031(18) 0.05462(13) 0.25112(12)
H11 H 0.40764 0.10338 0.21135
C15 C 0.36096(18) -0.01972(13) 0.25786(12)
C16 C 0.25968(18) -0.02623(13) 0.20046(12)
C17 C 0.20508(19) 0.05046(13) 0.15248(12)
C18 C 0.1360(2) 0.03536(15) 0.08305(13)
H12 H 0.09682 0.08595 0.05124
C19 C 0.1238(2) -0.05279(15) 0.05986(14)
H13 H 0.08703 -0.06171 0.00720
C20 C 0.20288(18) 0.14693(13) 0.18044(12)
C21 C 0.15671(18) 0.16337(14) 0.26385(13)
H14 H 0.13177 0.11421 0.29839
C22 C 0.14656(18) 0.24958(14) 0.29720(13)
H15 H 0.12608 0.25694 0.35667
C23 C 0.16528(18) 0.32571(14) 0.24667(12)
C24 C 0.1616(2) 0.41605(14) 0.29096(13)
H16 H 0.07799 0.44748 0.29209
H17 H 0.21597 0.45428 0.25951
H18 H 0.18842 0.40491 0.34999
C25 C 0.19762(18) 0.31240(13) 0.15781(12)
C26 C 0.23251(18) 0.22211(13) 0.12784(12)
C27 C 0.30945(19) 0.21195(13) 0.04767(12)
C28 C 0.3758(2) 0.12763(14) 0.02472(13)
H19 H 0.36612 0.07465 0.05944
C29 C 0.4544(2) 0.11970(15) -0.04660(14)
H20 H 0.49696 0.06174 -0.06087
C30 C 0.4712(2) 0.19664(16) -0.09763(14)
H21 H 0.52464 0.19147 -0.14715
C31 C 0.4102(2) 0.27992(15) -0.07585(13)
H22 H 0.42305 0.33240 -0.11041
C32 C 0.32877(18) 0.28999(13) -0.00370(12)
C33 C 0.26236(18) 0.37951(13) 0.01655(12)
C34 C 0.26190(19) 0.45565(14) -0.04016(12)
H23 H 0.31166 0.45072 -0.09149
C35 C 0.1911(2) 0.53708(14) -0.02312(13)
H24 H 0.19371 0.58825 -0.06153
C36 C 0.11577(19) 0.54396(14) 0.05072(14)
H25 H 0.06242 0.59858 0.06100
C37 C 0.11846(19) 0.47177(14) 0.10882(13)
H26 H 0.06746 0.47778 0.15952
C38 C 0.19458(18) 0.38918(13) 0.09540(12)
C39 C 0.1669(2) 0.14899(14) 0.80271(13)
H27 H 0.19995 0.15404 0.85958
H28 H 0.21893 0.10205 0.77034
H29 H 0.08403 0.13190 0.80938
C40 C 0.16353(18) 0.24017(13) 0.75449(12)
C41 C 0.18765(17) 0.25062(13) 0.66446(12)
C42 C 0.18224(18) 0.17542(13) 0.60519(12)
C43 C 0.10829(19) 0.10588(13) 0.62447(13)
H30 H 0.05944 0.10818 0.67624
C44 C 0.10517(19) 0.03453(13) 0.56990(14)
H31 H 0.05493 -0.01195 0.58440
C45 C 0.1755(2) 0.03037(13) 0.49354(13)
H32 H 0.17705 -0.02060 0.45741
C46 C 0.24282(19) 0.10061(13) 0.47062(13)
H33 H 0.28865 0.09859 0.41754
C47 C 0.24484(18) 0.17549(13) 0.52470(12)
C48 C 0.30961(18) 0.25324(13) 0.49903(12)
C49 C 0.3904(2) 0.24936(14) 0.42662(13)
H34 H 0.40375 0.19479 0.39479
C50 C 0.4507(2) 0.32230(15) 0.40058(13)
H35 H 0.50488 0.31801 0.35146
C51 C 0.4314(2) 0.40260(14) 0.44695(13)
H36 H 0.47182 0.45366 0.42911
C52 C 0.35387(19) 0.40779(13) 0.51859(12)
H37 H 0.34292 0.46258 0.55014
C53 C 0.29000(18) 0.33444(13) 0.54679(12)
C54 C 0.21834(17) 0.33535(13) 0.62933(12)
C55 C 0.19131(17) 0.41468(13) 0.67997(12)
C56 C 0.15298(18) 0.40413(13) 0.76532(12)
H38 H 0.13012 0.45693 0.79862
C57 C 0.14731(18) 0.31843(13) 0.80297(12)
H39 H 0.13199 0.31307 0.86332
C58 C 0.18875(18) 0.51145(13) 0.64729(12)
C59 C 0.11191(19) 0.54012(13) 0.58174(12)
H40 H 0.07044 0.49683 0.55448
C60 C 0.09420(19) 0.63144(14) 0.55496(13)
H41 H 0.04941 0.64837 0.50495
C61 C 0.14085(19) 0.69858(13) 0.60000(13)
C62 C 0.1206(2) 0.79491(14) 0.56226(14)
H42 H 0.04290 0.82604 0.58513
H43 H 0.11842 0.79255 0.49949
H44 H 0.18737 0.82852 0.57769
C63 C 0.20980(18) 0.67174(13) 0.67383(12)
C64 C 0.23936(19) 0.73624(13) 0.73836(13)
C65 C 0.1710(2) 0.82293(14) 0.74744(14)
H45 H 0.10771 0.84169 0.70884
C66 C 0.1934(2) 0.88134(15) 0.81092(15)
H46 H 0.14567 0.93937 0.81559
C67 C 0.2856(2) 0.85553(15) 0.86805(14)
H47 H 0.30348 0.89676 0.91013
C68 C 0.3508(2) 0.76980(14) 0.86320(14)
H48 H 0.41219 0.75170 0.90336
C69 C 0.32823(19) 0.70817(13) 0.79971(12)
C70 C 0.39411(18) 0.61573(13) 0.79674(12)
C71 C 0.4984(2) 0.58961(14) 0.84514(13)
H49 H 0.52444 0.63225 0.88279
C72 C 0.5633(2) 0.50424(14) 0.83926(13)
H50 H 0.63196 0.48759 0.87365
C73 C 0.52767(19) 0.44194(14) 0.78240(13)
H51 H 0.57431 0.38370 0.77597
C74 C 0.42510(18) 0.46512(13) 0.73583(12)
H52 H 0.40171 0.42209 0.69745
C75 C 0.35337(18) 0.55085(13) 0.74322(12)
C76 C 0.24789(18) 0.57711(13) 0.68917(12)
loop_
_geom_bond_atom_site_label_1
_geom_bond_atom_site_label_2
_geom_bond_distance
_geom_bond_site_symmetry_1
_geom_bond_site_symmetry_2
C1 H1 0.980 1_555 1_555
H2 C1 0.980 1_555 1_555
H3 C1 0.980 1_555 1_555
C2 C1 1.514 1_555 1_555
C3 C2 1.426 1_555 1_555
C4 C3 1.480 1_555 1_555
C5 C4 1.410 1_555 1_555
H4 C5 0.950 1_555 1_555
C6 C5 1.377 1_555 1_555
H5 C6 0.950 1_555 1_555
C7 C6 1.391 1_555 1_555
H6 C7 0.950 1_555 1_555
C8 C7 1.375 1_555 1_555
H7 C8 0.950 1_555 1_555
C9 C4 1.413 1_555 1_555
C10 C9 1.469 1_555 1_555
C11 C10 1.405 1_555 1_555
H8 C11 0.950 1_555 1_555
C12 C11 1.374 1_555 1_555
H9 C12 0.950 1_555 1_555
C13 C12 1.387 1_555 1_555
H10 C13 0.950 1_555 1_555
C14 C13 1.373 1_555 1_555
H11 C14 0.950 1_555 1_555
C15 C10 1.409 1_555 1_555
C16 C3 1.420 1_555 1_555
C17 C16 1.419 1_555 1_555
C18 C17 1.388 1_555 1_555
H12 C18 0.950 1_555 1_555
C19 C2 1.383 1_555 1_555
H13 C19 0.950 1_555 1_555
C20 C17 1.496 1_555 1_555
C21 C20 1.392 1_555 1_555
H14 C21 0.950 1_555 1_555
C22 C21 1.377 1_555 1_555
H15 C22 0.950 1_555 1_555
C23 C22 1.382 1_555 1_555
C24 C23 1.513 1_555 1_555
H16 C24 0.980 1_555 1_555
H17 C24 0.980 1_555 1_555
H18 C24 0.980 1_555 1_555
C25 C23 1.427 1_555 1_555
C26 C20 1.420 1_555 1_555
C27 C26 1.481 1_555 1_555
C28 C27 1.409 1_555 1_555
H19 C28 0.950 1_555 1_555
C29 C28 1.379 1_555 1_555
H20 C29 0.950 1_555 1_555
C30 C29 1.391 1_555 1_555
H21 C30 0.950 1_555 1_555
C31 C30 1.369 1_555 1_555
H22 C31 0.950 1_555 1_555
C32 C27 1.413 1_555 1_555
C33 C32 1.464 1_555 1_555
C34 C33 1.405 1_555 1_555
H23 C34 0.950 1_555 1_555
C35 C34 1.375 1_555 1_555
H24 C35 0.950 1_555 1_555
C36 C35 1.389 1_555 1_555
H25 C36 0.950 1_555 1_555
C37 C36 1.373 1_555 1_555
H26 C37 0.950 1_555 1_555
C38 C25 1.466 1_555 1_555
C39 H27 0.980 1_555 1_555
H28 C39 0.980 1_555 1_555
H29 C39 0.980 1_555 1_555
C40 C39 1.515 1_555 1_555
C41 C40 1.423 1_555 1_555
C42 C41 1.472 1_555 1_555
C43 C42 1.406 1_555 1_555
H30 C43 0.950 1_555 1_555
C44 C43 1.376 1_555 1_555
H31 C44 0.950 1_555 1_555
C45 C44 1.391 1_555 1_555
H32 C45 0.950 1_555 1_555
C46 C45 1.378 1_555 1_555
H33 C46 0.950 1_555 1_555
C47 C42 1.405 1_555 1_555
C48 C47 1.461 1_555 1_555
C49 C48 1.406 1_555 1_555
H34 C49 0.950 1_555 1_555
C50 C49 1.375 1_555 1_555
H35 C50 0.950 1_555 1_555
C51 C50 1.394 1_555 1_555
H36 C51 0.950 1_555 1_555
C52 C51 1.375 1_555 1_555
H37 C52 0.950 1_555 1_555
C53 C48 1.417 1_555 1_555
C54 C41 1.421 1_555 1_555
C55 C54 1.424 1_555 1_555
C56 C55 1.387 1_555 1_555
H38 C56 0.950 1_555 1_555
C57 C40 1.386 1_555 1_555
H39 C57 0.950 1_555 1_555
C58 C55 1.496 1_555 1_555
C59 C58 1.377 1_555 1_555
H40 C59 0.950 1_555 1_555
C60 C59 1.389 1_555 1_555
H41 C60 0.950 1_555 1_555
C61 C60 1.391 1_555 1_555
C62 C61 1.513 1_555 1_555
H42 C62 0.980 1_555 1_555
H43 C62 0.980 1_555 1_555
H44 C62 0.980 1_555 1_555
C63 C61 1.424 1_555 1_555
C64 C63 1.477 1_555 1_555
C65 C64 1.408 1_555 1_555
H45 C65 0.950 1_555 1_555
C66 C65 1.380 1_555 1_555
H46 C66 0.950 1_555 1_555
C67 C66 1.390 1_555 1_555
H47 C67 0.950 1_555 1_555
C68 C67 1.376 1_555 1_555
H48 C68 0.950 1_555 1_555
C69 C64 1.414 1_555 1_555
C70 C69 1.463 1_555 1_555
C71 C70 1.410 1_555 1_555
H49 C71 0.950 1_555 1_555
C72 C71 1.371 1_555 1_555
H50 C72 0.950 1_555 1_555
C73 C72 1.396 1_555 1_555
H51 C73 0.950 1_555 1_555
C74 C73 1.372 1_555 1_555
H52 C74 0.950 1_555 1_555
C75 C70 1.413 1_555 1_555
C76 C58 1.421 1_555 1_555
C8 C9 1.409 1_555 1_555
C14 C15 1.412 1_555 1_555
C15 C16 1.475 1_555 1_555
C18 C19 1.383 1_555 1_555
C25 C26 1.425 1_555 1_555
C31 C32 1.409 1_555 1_555
C33 C38 1.412 1_555 1_555
C37 C38 1.406 1_555 1_555
C46 C47 1.411 1_555 1_555
C52 C53 1.412 1_555 1_555
C53 C54 1.480 1_555 1_555
C56 C57 1.383 1_555 1_555
C63 C76 1.421 1_555 1_555
C68 C69 1.413 1_555 1_555
C74 C75 1.410 1_555 1_555
C75 C76 1.472 1_555 1_555
#END
