
#######################################################################
#
#                 Cambridge Crystallographic Data Centre
#                                CCDC
#
#######################################################################
#
# If this CIF has been generated from an entry in the Cambridge
# Structural Database, then it will include bibliographic, chemical,
# crystal, experimental, refinement or atomic coordinate data resulting
# from the CCDC's data processing and validation procedures.
#
#######################################################################

data_CSD_CIF_KENXAD
_audit_creation_date 2006-12-05
_audit_creation_method CSD-ConQuest-V1
_database_code_CSD KENXAD
_database_code_depnum_ccdc_archive 'CCDC 622989'
_chemical_formula_sum 'C35 H22'
_chemical_formula_moiety
;
C35 H22
;
_journal_coden_Cambridge 1336
_journal_volume 8
_journal_year 2006
_journal_page_first 3701
_journal_name_full 'Org.Lett. '
loop_
_publ_author_name
"Ling-Hai Xie"
"Xiao-Ya Hou"
"Yu-Ran Hua"
"Chao Tang"
"Feng Liu"
"Qu-Li Fan"
"Wei Huang"
_chemical_name_systematic
;
1-(9-phenylfluoren-9-yl)pyrene
;
_chemical_melting_point 553.15
_cell_volume   2268.553
_exptl_crystal_density_diffrn 1.296
_diffrn_ambient_temperature 297
#These two values have been output from a single CSD field.
_refine_ls_R_factor_gt 0.0402
_refine_ls_wR_factor_gt 0.0402
_symmetry_cell_setting monoclinic
_symmetry_space_group_name_H-M 'P 21/c'
_symmetry_Int_Tables_number 14
loop_
_symmetry_equiv_pos_site_id
_symmetry_equiv_pos_as_xyz
1 x,y,z
2 -x,1/2+y,1/2-z
3 -x,-y,-z
4 x,-1/2-y,-1/2+z
_cell_length_a 14.922(4)
_cell_length_b 8.735(2)
_cell_length_c 17.450(5)
_cell_angle_alpha 90
_cell_angle_beta 94.143(4)
_cell_angle_gamma 90
_cell_formula_units_Z 4
loop_
_atom_type_symbol
_atom_type_radius_bond
C 0.68
H 0.23
loop_
_atom_site_label
_atom_site_type_symbol
_atom_site_fract_x
_atom_site_fract_y
_atom_site_fract_z
C1 C 0.22011(9) 0.30733(16) -0.02724(8)
C2 C 0.18212(9) 0.40601(17) 0.03586(8)
C3 C 0.23381(10) 0.52048(19) 0.07234(9)
H1 H 0.29330 0.53260 0.06100
C4 C 0.19840(13) 0.6166(2) 0.12515(10)
H2 H 0.23400 0.69220 0.14930
C5 C 0.10964(13) 0.6001(2) 0.14203(10)
H3 H 0.08550 0.66420 0.17780
C6 C 0.05754(11) 0.4888(2) 0.10587(10)
H4 H -0.00220 0.47800 0.11680
C7 C 0.09347(10) 0.39226(19) 0.05299(9)
H5 H 0.05750 0.31720 0.02870
C8 C 0.19884(9) 0.39437(17) -0.10300(8)
C9 C 0.22008(11) 0.54346(18) -0.12114(9)
H6 H 0.25310 0.60460 -0.08580
C10 C 0.19136(12) 0.6006(2) -0.19301(10)
H7 H 0.20510 0.70090 -0.20570
C11 C 0.14271(11) 0.5105(2) -0.24583(10)
H8 H 0.12420 0.55060 -0.29380
C12 C 0.12112(10) 0.3619(2) -0.22850(9)
H9 H 0.08860 0.30110 -0.26430
C13 C 0.14897(9) 0.30460(17) -0.15630(8)
C14 C 0.13169(9) 0.15679(17) -0.12103(9)
C15 C 0.08485(11) 0.0308(2) -0.15154(10)
H10 H 0.06070 0.03170 -0.20220
C16 C 0.07474(12) -0.0945(2) -0.10593(11)
H11 H 0.04350 -0.17940 -0.12580
C17 C 0.11053(11) -0.0962(2) -0.03062(11)
H12 H 0.10260 -0.18180 -0.00020
C18 C 0.15815(10) 0.02861(19) -0.00008(10)
H13 H 0.18260 0.02630 0.05050
C19 C 0.16913(9) 0.15674(17) -0.04526(8)
C20 C 0.32221(9) 0.27365(16) -0.01234(8)
C21 C 0.37811(10) 0.29552(19) -0.07135(9)
H14 H 0.35350 0.33310 -0.11810
C22 C 0.46912(10) 0.2637(2) -0.06343(10)
H15 H 0.50410 0.28040 -0.10460
C23 C 0.50884(10) 0.20728(18) 0.00491(9)
C24 C 0.60334(10) 0.17241(19) 0.01486(11)
H16 H 0.63950 0.18960 -0.02550
C25 C 0.64013(10) 0.1157(2) 0.08114(11)
H17 H 0.70160 0.09630 0.08610
C26 C 0.58735(10) 0.08430(18) 0.1443(1)
C27 C 0.49359(10) 0.11506(17) 0.13604(9)
C28 C 0.45408(9) 0.18026(16) 0.06628(9)
C29 C 0.35998(9) 0.21307(16) 0.05821(8)
C30 C 0.30942(9) 0.17915(18) 0.12346(9)
H18 H 0.24860 0.20320 0.12090
C31 C 0.34687(10) 0.11403(19) 0.18800(9)
H19 H 0.31080 0.09200 0.22790
C32 C 0.43993(10) 0.07807(18) 0.19683(9)
C33 C 0.47929(12) 0.0098(2) 0.26371(10)
H20 H 0.44370 -0.01750 0.30310
C34 C 0.57045(13) -0.0172(2) 0.27142(12)
H21 H 0.59610 -0.06060 0.31650
C35 C 0.62374(12) 0.0196(2) 0.21311(12)
H22 H 0.68520 0.00110 0.21940
loop_
_geom_bond_atom_site_label_1
_geom_bond_atom_site_label_2
_geom_bond_distance
_geom_bond_site_symmetry_1
_geom_bond_site_symmetry_2
C1 C2 1.538 1_555 1_555
C2 C3 1.389 1_555 1_555
C3 H1 0.929 1_555 1_555
C4 C3 1.380 1_555 1_555
H2 C4 0.929 1_555 1_555
C5 C4 1.385 1_555 1_555
H3 C5 0.930 1_555 1_555
C6 C5 1.370 1_555 1_555
H4 C6 0.930 1_555 1_555
C7 C2 1.382 1_555 1_555
H5 C7 0.930 1_555 1_555
C8 C1 1.538 1_555 1_555
C9 C8 1.382 1_555 1_555
H6 C9 0.930 1_555 1_555
C10 C9 1.389 1_555 1_555
H7 C10 0.930 1_555 1_555
C11 C10 1.378 1_555 1_555
H8 C11 0.931 1_555 1_555
C12 C11 1.376 1_555 1_555
H9 C12 0.930 1_555 1_555
C13 C8 1.391 1_555 1_555
C14 C13 1.461 1_555 1_555
C15 C14 1.389 1_555 1_555
H10 C15 0.930 1_555 1_555
C16 C15 1.368 1_555 1_555
H11 C16 0.930 1_555 1_555
C17 C16 1.382 1_555 1_555
H12 C17 0.929 1_555 1_555
C18 C17 1.387 1_555 1_555
H13 C18 0.931 1_555 1_555
C19 C1 1.541 1_555 1_555
C20 C1 1.555 1_555 1_555
C21 C20 1.384 1_555 1_555
H14 C21 0.930 1_555 1_555
C22 C21 1.383 1_555 1_555
H15 C22 0.930 1_555 1_555
C23 C22 1.384 1_555 1_555
C24 C23 1.441 1_555 1_555
H16 C24 0.930 1_555 1_555
C25 C24 1.339 1_555 1_555
H17 C25 0.931 1_555 1_555
C26 C25 1.427 1_555 1_555
C27 C26 1.422 1_555 1_555
C28 C23 1.413 1_555 1_555
C29 C20 1.419 1_555 1_555
C30 C29 1.441 1_555 1_555
H18 C30 0.929 1_555 1_555
C31 C30 1.347 1_555 1_555
H19 C31 0.930 1_555 1_555
C32 C27 1.412 1_555 1_555
C33 C32 1.401 1_555 1_555
H20 C33 0.930 1_555 1_555
C34 C33 1.378 1_555 1_555
H21 C34 0.930 1_555 1_555
C35 C26 1.401 1_555 1_555
H22 C35 0.930 1_555 1_555
C6 C7 1.386 1_555 1_555
C12 C13 1.391 1_555 1_555
C14 C19 1.398 1_555 1_555
C18 C19 1.386 1_555 1_555
C27 C28 1.432 1_555 1_555
C28 C29 1.430 1_555 1_555
C31 C32 1.421 1_555 1_555
C34 C35 1.374 1_555 1_555
#END
