
#######################################################################
#
#                 Cambridge Crystallographic Data Centre
#                                CCDC
#
#######################################################################
#
# If this CIF has been generated from an entry in the Cambridge
# Structural Database, then it will include bibliographic, chemical,
# crystal, experimental, refinement or atomic coordinate data resulting
# from the CCDC's data processing and validation procedures.
#
#######################################################################

data_CSD_CIF_KEQKUN
_audit_creation_date 2006-12-05
_audit_creation_method CSD-ConQuest-V1
_database_code_CSD KEQKUN
_database_code_depnum_ccdc_archive 'CCDC 639209'
_chemical_formula_sum 'C35 H24'
_chemical_formula_moiety
;
C35 H24
;
_journal_coeditor_code "IUCr XU2065"
_journal_coden_Cambridge 1370
_journal_volume 62
_journal_year 2006
_journal_page_first o3187
_journal_name_full 'Acta Crystallogr.,Sect.E:Struct.Rep.Online '
loop_
_publ_author_name
"Lei Tang"
"Jian-Chuan Ye"
"Zi-Xing Wang"
"Ping Lu"
_chemical_name_systematic
;
2',7'-Di-1-naphthylspiro(cyclopropane-1,9'-fluorene)
;
_cell_volume   2357.409
_exptl_crystal_colour 'colorless'
_exptl_crystal_density_diffrn 1.253
_exptl_crystal_description 'block'
_exptl_crystal_preparation 'hexane/dichloromethane'
_diffrn_ambient_temperature 296
#These two values have been output from a single CSD field.
_refine_ls_R_factor_gt 0.036
_refine_ls_wR_factor_gt 0.036
_symmetry_cell_setting orthorhombic
_symmetry_space_group_name_H-M 'P c a 21'
_symmetry_Int_Tables_number 29
loop_
_symmetry_equiv_pos_site_id
_symmetry_equiv_pos_as_xyz
1 x,y,z
2 1/2-x,y,1/2+z
3 1/2+x,-y,z
4 -x,-y,1/2+z
_cell_length_a 17.355(4)
_cell_length_b 18.225(4)
_cell_length_c 7.4532(18)
_cell_angle_alpha 90
_cell_angle_beta 90
_cell_angle_gamma 90
_cell_formula_units_Z 4
loop_
_atom_type_symbol
_atom_type_radius_bond
C 0.68
H 0.23
loop_
_atom_site_label
_atom_site_type_symbol
_atom_site_fract_x
_atom_site_fract_y
_atom_site_fract_z
C1 C 0.62463(9) 0.44907(9) 0.1873(2)
C2 C 0.57995(9) 0.41676(9) 0.3229(2)
C3 C 0.57828(9) 0.33737(10) 0.2923(3)
C4 C 0.54340(11) 0.28078(11) 0.3880(3)
H1 H 0.51370 0.29090 0.48880
C5 C 0.55367(11) 0.20930(11) 0.3305(3)
H2 H 0.53040 0.17140 0.39400
C6 C 0.59793(11) 0.19253(11) 0.1798(3)
C7 C 0.63172(10) 0.24975(10) 0.0831(3)
H3 H 0.66080 0.23960 -0.01880
C8 C 0.62198(9) 0.32135(9) 0.1387(3)
C9 C 0.65207(10) 0.39126(10) 0.0625(3)
C10 C 0.65780(12) 0.40442(12) -0.1386(3)
H4 H 0.64340 0.36450 -0.21790
H5 H 0.64540 0.45300 -0.18300
C11 C 0.72901(11) 0.39590(11) -0.0317(3)
H6 H 0.76010 0.43930 -0.01130
H7 H 0.75810 0.35080 -0.04620
C12 C 0.63802(9) 0.52364(10) 0.1871(3)
H8 H 0.66770 0.54460 0.09680
C13 C 0.60721(9) 0.56773(10) 0.3218(3)
C14 C 0.56140(11) 0.53515(11) 0.4546(3)
H9 H 0.53970 0.56440 0.54350
C15 C 0.54773(10) 0.46032(11) 0.4561(3)
H10 H 0.51730 0.43950 0.54520
C16 C 0.61886(10) 0.64866(10) 0.3195(3)
C17 C 0.55634(12) 0.69436(12) 0.3325(3)
H11 H 0.50780 0.67420 0.35190
C18 C 0.56364(14) 0.77079(12) 0.3172(4)
H12 H 0.52030 0.80060 0.32680
C19 C 0.63368(16) 0.80112(12) 0.2884(4)
H13 H 0.63770 0.85170 0.27390
C20 C 0.70099(13) 0.75736(11) 0.2799(3)
C21 C 0.77535(15) 0.78816(13) 0.2576(4)
H14 H 0.78010 0.83850 0.23990
C22 C 0.83931(15) 0.74619(15) 0.2613(4)
H15 H 0.88750 0.76770 0.24650
C23 C 0.83354(12) 0.67059(13) 0.2873(3)
H16 H 0.87780 0.64200 0.29340
C24 C 0.76287(11) 0.63879(11) 0.3038(3)
H17 H 0.75980 0.58820 0.31860
C25 C 0.69421(10) 0.68021(10) 0.2990(3)
C26 C 0.60699(12) 0.11480(11) 0.1219(3)
C27 C 0.54332(13) 0.07342(12) 0.0869(4)
H18 H 0.49490 0.09410 0.10360
C28 C 0.54829(16) 0.00096(13) 0.0266(5)
H19 H 0.50370 -0.02550 0.00270
C29 C 0.61787(17) -0.03046(13) 0.0033(4)
H20 H 0.62080 -0.07870 -0.03710
C30 C 0.68598(15) 0.00850(12) 0.0392(3)
C31 C 0.75929(18) -0.02313(14) 0.0156(4)
H21 H 0.76290 -0.07090 -0.02770
C32 C 0.82399(18) 0.01381(17) 0.0540(5)
H22 H 0.87160 -0.00840 0.03610
C33 C 0.82049(15) 0.08534(16) 0.1206(4)
H23 H 0.86570 0.11010 0.14940
C34 C 0.75088(13) 0.11916(11) 0.1436(3)
H24 H 0.74920 0.16700 0.18710
C35 C 0.68129(13) 0.08228(11) 0.1020(3)
loop_
_geom_bond_atom_site_label_1
_geom_bond_atom_site_label_2
_geom_bond_distance
_geom_bond_site_symmetry_1
_geom_bond_site_symmetry_2
C1 C2 1.403 1_555 1_555
C2 C3 1.465 1_555 1_555
C3 C4 1.392 1_555 1_555
C4 H1 0.930 1_555 1_555
C5 C4 1.383 1_555 1_555
H2 C5 0.930 1_555 1_555
C6 C5 1.395 1_555 1_555
C7 C6 1.397 1_555 1_555
H3 C7 0.930 1_555 1_555
C8 C3 1.404 1_555 1_555
C9 C1 1.484 1_555 1_555
C10 C9 1.521 1_555 1_555
H4 C10 0.970 1_555 1_555
H5 C10 0.969 1_555 1_555
C11 C9 1.511 1_555 1_555
H6 C11 0.969 1_555 1_555
H7 C11 0.971 1_555 1_555
C12 C1 1.379 1_555 1_555
H8 C12 0.930 1_555 1_555
C13 C12 1.393 1_555 1_555
C14 C13 1.402 1_555 1_555
H9 C14 0.930 1_555 1_555
C15 C2 1.389 1_555 1_555
H10 C15 0.929 1_555 1_555
C16 C13 1.489 1_555 1_555
C17 C16 1.371 1_555 1_555
H11 C17 0.930 1_555 1_555
C18 C17 1.403 1_555 1_555
H12 C18 0.931 1_555 1_555
C19 C18 1.352 1_555 1_555
H13 C19 0.931 1_555 1_555
C20 C19 1.416 1_555 1_555
C21 C20 1.417 1_555 1_555
H14 C21 0.931 1_555 1_555
C22 C21 1.348 1_555 1_555
H15 C22 0.930 1_555 1_555
C23 C22 1.395 1_555 1_555
H16 C23 0.929 1_555 1_555
C24 C23 1.362 1_555 1_555
H17 C24 0.930 1_555 1_555
C25 C16 1.437 1_555 1_555
C26 C6 1.489 1_555 1_555
C27 C26 1.363 1_555 1_555
H18 C27 0.929 1_555 1_555
C28 C27 1.398 1_555 1_555
H19 C28 0.929 1_555 1_555
C29 C28 1.348 1_555 1_555
H20 C29 0.931 1_555 1_555
C30 C29 1.405 1_555 1_555
C31 C30 1.408 1_555 1_555
H21 C31 0.931 1_555 1_555
C32 C31 1.340 1_555 1_555
H22 C32 0.930 1_555 1_555
C33 C32 1.396 1_555 1_555
H23 C33 0.930 1_555 1_555
C34 C33 1.367 1_555 1_555
H24 C34 0.931 1_555 1_555
C35 C26 1.427 1_555 1_555
C7 C8 1.380 1_555 1_555
C8 C9 1.489 1_555 1_555
C10 C11 1.479 1_555 1_555
C14 C15 1.384 1_555 1_555
C20 C25 1.418 1_555 1_555
C24 C25 1.411 1_555 1_555
C30 C35 1.426 1_555 1_555
C34 C35 1.417 1_555 1_555
#END
