
#######################################################################
#
#                 Cambridge Crystallographic Data Centre
#                                CCDC
#
#######################################################################
#
# If this CIF has been generated from an entry in the Cambridge
# Structural Database, then it will include bibliographic, chemical,
# crystal, experimental, refinement or atomic coordinate data resulting
# from the CCDC's data processing and validation procedures.
#
#######################################################################

data_CSD_CIF_KEVDUL
_audit_creation_date 2007-03-22
_audit_creation_method CSD-ConQuest-V1
_database_code_CSD KEVDUL
_database_code_depnum_ccdc_archive 'CCDC 271759'
_chemical_formula_sum 'C34 H36'
_chemical_formula_moiety
;
C34 H36
;
_journal_coden_Cambridge 177
_journal_volume 5
_journal_year 2007
_journal_page_first 87
_journal_name_full 'Org.Biomol.Chem. '
loop_
_publ_author_name
"M.K.J.ter Wiel"
"M.G.Kwit"
"A.Meetsma"
"B.L.Feringa"
_chemical_name_systematic
;
(2S*,2'S*)-(M*,M*)-cis-(+-)-2,2'-Di-t-butyl-2,2',3,3'-tetrahydro-1,1'-bicyclop
enta(a)naphthalenylidene
;
_cell_volume   2525.318
_exptl_crystal_colour 'orange'
_exptl_crystal_density_diffrn 1.169
_exptl_special_details
;
unstable isomer
produced by irradiation in solution of (2S*,2S*)- (P*,P*)-cis isomer
;
_exptl_crystal_description 'block'
_exptl_crystal_preparation 'methanol/n-hexane'
_diffrn_ambient_temperature 100
#These two values have been output from a single CSD field.
_refine_ls_R_factor_gt 0.0341
_refine_ls_wR_factor_gt 0.0341
loop_
_citation_database_id_CSD
_citation_special_details
KEYGIF "is a stereoisomer of this entry"
_symmetry_cell_setting orthorhombic
_symmetry_space_group_name_H-M 'P 21 21 21'
_symmetry_Int_Tables_number 19
loop_
_symmetry_equiv_pos_site_id
_symmetry_equiv_pos_as_xyz
1 x,y,z
2 1/2-x,-y,1/2+z
3 1/2+x,1/2-y,-z
4 -x,1/2+y,1/2-z
_cell_length_a 9.7582(6)
_cell_length_b 14.4454(8)
_cell_length_c 17.915(1)
_cell_angle_alpha 90
_cell_angle_beta 90
_cell_angle_gamma 90
_cell_formula_units_Z 4
loop_
_atom_type_symbol
_atom_type_radius_bond
C 0.68
H 0.23
loop_
_atom_site_label
_atom_site_type_symbol
_atom_site_fract_x
_atom_site_fract_y
_atom_site_fract_z
C1 C 0.67910(16) 0.15099(11) 0.42692(8)
C2 C 0.76921(14) 0.11307(10) 0.36660(8)
C3 C 0.87546(15) 0.04856(10) 0.37503(9)
C4 C 0.93591(15) 0.01198(10) 0.31333(9)
C5 C 0.88188(13) 0.03023(9) 0.24146(8)
C6 C 0.92990(15) -0.01920(11) 0.17858(9)
C7 C 0.86581(16) -0.01319(11) 0.11142(9)
C8 C 0.74896(16) 0.04337(11) 0.10387(9)
C9 C 0.70436(14) 0.09585(9) 0.16227(8)
C10 C 0.77052(13) 0.09310(9) 0.23244(7)
C11 C 0.72644(13) 0.14418(9) 0.29685(7)
C12 C 0.62122(13) 0.21554(10) 0.30568(7)
C13 C 0.60436(14) 0.23249(10) 0.39021(8)
C14 C 0.66555(15) 0.32821(10) 0.41611(8)
C15 C 0.82028(17) 0.33115(14) 0.40502(11)
C16 C 0.6031(3) 0.41035(13) 0.37528(14)
C17 C 0.6352(3) 0.34031(17) 0.49900(11)
C18 C 0.35231(16) 0.35987(11) 0.21556(9)
C19 C 0.45878(15) 0.35269(10) 0.15594(8)
C20 C 0.45365(17) 0.39448(11) 0.08525(9)
C21 C 0.56438(19) 0.39089(11) 0.04000(9)
C22 C 0.69026(17) 0.35203(10) 0.06525(8)
C23 C 0.80879(19) 0.35521(12) 0.02019(9)
C24 C 0.93197(17) 0.32363(11) 0.04529(9)
C25 C 0.94240(15) 0.29027(10) 0.11873(8)
C26 C 0.82940(14) 0.28467(10) 0.16355(8)
C27 C 0.69788(14) 0.31092(9) 0.13817(7)
C28 C 0.57271(13) 0.30344(9) 0.18069(8)
C29 C 0.54281(13) 0.26339(9) 0.25457(8)
C30 C 0.39113(14) 0.28557(10) 0.27234(8)
C31 C 0.29539(14) 0.19797(10) 0.26567(9)
C32 C 0.15086(15) 0.22800(13) 0.29084(10)
C33 C 0.28941(16) 0.16150(12) 0.18541(10)
C34 C 0.33996(17) 0.11813(12) 0.31605(11)
H1 H 0.60923 0.09774 0.44620
H2 H 0.72895 0.16693 0.47220
H3 H 0.90712 0.03007 0.42313
H4 H 1.01211 -0.03044 0.31814
H5 H 1.00312 -0.06353 0.18492
H6 H 0.89337 -0.05311 0.06957
H7 H 0.69852 0.04408 0.05736
H8 H 0.62406 0.13232 0.15603
H9 H 0.50549 0.23365 0.40534
H10 H 0.85854 0.39387 0.42086
H11 H 0.86692 0.28258 0.43469
H12 H 0.84391 0.32525 0.35321
H13 H 0.62182 0.40252 0.32020
H14 H 0.64247 0.46602 0.39640
H15 H 0.49894 0.41187 0.38200
H16 H 0.66299 0.39987 0.51642
H17 H 0.68497 0.28757 0.52797
H18 H 0.53764 0.33551 0.50774
H19 H 0.25769 0.35198 0.19447
H20 H 0.36104 0.42496 0.23670
H21 H 0.36658 0.42603 0.07102
H22 H 0.56508 0.41668 -0.00987
H23 H 0.79824 0.37931 -0.02814
H24 H 1.01778 0.32369 0.01691
H25 H 1.03096 0.26993 0.13842
H26 H 0.84107 0.26300 0.21484
H27 H 0.37854 0.30669 0.32429
H28 H 0.11376 0.28105 0.25850
H29 H 0.15278 0.25051 0.34498
H30 H 0.08921 0.17807 0.28521
H31 H 0.38359 0.13582 0.16895
H32 H 0.26163 0.21203 0.14556
H33 H 0.22457 0.10903 0.18242
H34 H 0.43050 0.09276 0.30289
H35 H 0.34138 0.13655 0.37016
H36 H 0.26949 0.07005 0.31183
loop_
_geom_bond_atom_site_label_1
_geom_bond_atom_site_label_2
_geom_bond_distance
_geom_bond_site_symmetry_1
_geom_bond_site_symmetry_2
C1 C2 1.497 1_555 1_555
C2 C3 1.402 1_555 1_555
C3 C4 1.360 1_555 1_555
C4 C5 1.416 1_555 1_555
C5 C6 1.414 1_555 1_555
C6 C7 1.359 1_555 1_555
C7 C8 1.409 1_555 1_555
C8 C9 1.363 1_555 1_555
C9 C10 1.414 1_555 1_555
C10 C5 1.425 1_555 1_555
C11 C2 1.392 1_555 1_555
C12 C11 1.464 1_555 1_555
C13 C1 1.533 1_555 1_555
C14 C13 1.576 1_555 1_555
C15 C14 1.523 1_555 1_555
C16 C14 1.521 1_555 1_555
C17 C14 1.524 1_555 1_555
C18 C19 1.494 1_555 1_555
C19 C20 1.404 1_555 1_555
C20 C21 1.352 1_555 1_555
C21 C22 1.424 1_555 1_555
C22 C23 1.411 1_555 1_555
C23 C24 1.362 1_555 1_555
C24 C25 1.405 1_555 1_555
C25 C26 1.366 1_555 1_555
C26 C27 1.413 1_555 1_555
C27 C22 1.437 1_555 1_555
C28 C19 1.392 1_555 1_555
C29 C12 1.379 1_555 1_555
C30 C18 1.526 1_555 1_555
C31 C30 1.577 1_555 1_555
C32 C31 1.543 1_555 1_555
C33 C31 1.532 1_555 1_555
C34 C31 1.528 1_555 1_555
H1 C1 1.084 1_555 1_555
H2 C1 0.973 1_555 1_555
H3 C3 0.954 1_555 1_555
H4 C4 0.967 1_555 1_555
H5 C6 0.966 1_555 1_555
H6 C7 0.983 1_555 1_555
H7 C8 0.968 1_555 1_555
H8 C9 0.951 1_555 1_555
H9 C13 1.002 1_555 1_555
H10 C15 1.020 1_555 1_555
H11 C15 0.991 1_555 1_555
H12 C15 0.960 1_555 1_555
H13 C16 1.010 1_555 1_555
H14 C16 0.968 1_555 1_555
H15 C16 1.024 1_555 1_555
H16 C17 0.955 1_555 1_555
H17 C17 1.042 1_555 1_555
H18 C17 0.967 1_555 1_555
H19 C18 1.004 1_555 1_555
H20 C18 1.017 1_555 1_555
H21 C20 0.997 1_555 1_555
H22 C21 0.968 1_555 1_555
H23 C23 0.939 1_555 1_555
H24 C24 0.980 1_555 1_555
H25 C25 0.979 1_555 1_555
H26 C26 0.977 1_555 1_555
H27 C30 0.987 1_555 1_555
H28 C32 1.027 1_555 1_555
H29 C32 1.023 1_555 1_555
H30 C32 0.945 1_555 1_555
H31 C33 1.034 1_555 1_555
H32 C33 1.056 1_555 1_555
H33 C33 0.989 1_555 1_555
H34 C34 0.985 1_555 1_555
H35 C34 1.005 1_555 1_555
H36 C34 0.980 1_555 1_555
C10 C11 1.436 1_555 1_555
C12 C13 1.543 1_555 1_555
C27 C28 1.444 1_555 1_555
C28 C29 1.474 1_555 1_555
C29 C30 1.548 1_555 1_555
#END
