
#######################################################################
#
#                 Cambridge Crystallographic Data Centre
#                                CCDC
#
#######################################################################
#
# If this CIF has been generated from an entry in the Cambridge
# Structural Database, then it will include bibliographic, chemical,
# crystal, experimental, refinement or atomic coordinate data resulting
# from the CCDC's data processing and validation procedures.
#
#######################################################################

data_CSD_CIF_KEYDIB
_audit_creation_date 1991-06-09
_audit_creation_method CSD-ConQuest-V1
_database_code_CSD KEYDIB
_database_code_depnum_ccdc_archive 'CCDC 1195811'
_database_code_depnum_ccdc_fiz 'CSD 54216'
_chemical_formula_sum 'C30 H34'
_chemical_formula_moiety
;
C30 H34
;
_journal_coden_Cambridge 48
_journal_volume 123
_journal_year 1990
_journal_page_first 1899
_journal_name_full 'Chem.Ber. '
loop_
_publ_author_name
"A.Peyman"
"K.Peters"
"H.G.von Schnering"
"C.Ruchardt"
_chemical_name_systematic
;
1-(4-(3-(2,2-Dimethylpropenylidene)benzocyclohexa-2,5-dienyl)-2,2-dimethylprop
yl)naphthalene
;
_chemical_melting_point 381.15
_cell_volume   4781.496
_exptl_crystal_density_diffrn 1.096
_diffrn_ambient_temperature ?
_diffrn_special_details
;
The study was carried out at room temperature,in the range 283-303K

;
#These two values have been output from a single CSD field.
_refine_ls_R_factor_gt 0.057
_refine_ls_wR_factor_gt 0.057
_symmetry_cell_setting orthorhombic
_symmetry_space_group_name_H-M 'P b c a'
_symmetry_Int_Tables_number 61
loop_
_symmetry_equiv_pos_site_id
_symmetry_equiv_pos_as_xyz
1 x,y,z
2 1/2-x,-y,1/2+z
3 1/2+x,1/2-y,-z
4 -x,1/2+y,1/2-z
5 -x,-y,-z
6 -1/2+x,y,-1/2-z
7 -1/2-x,-1/2+y,z
8 x,-1/2-y,-1/2+z
_cell_length_a 25.750(8)
_cell_length_b 16.343(6)
_cell_length_c 11.362(4)
_cell_angle_alpha 90
_cell_angle_beta 90
_cell_angle_gamma 90
_cell_formula_units_Z 8
loop_
_atom_type_symbol
_atom_type_radius_bond
C 0.68
H 0.23
loop_
_atom_site_label
_atom_site_type_symbol
_atom_site_fract_x
_atom_site_fract_y
_atom_site_fract_z
C1 C 0.1363(1) -0.1669(2) 0.4521(2)
C2 C 0.1011(1) -0.1090(1) 0.3811(2)
C3 C 0.1309(1) -0.0318(1) 0.3302(2)
C4 C 0.1371(1) 0.0358(1) 0.4218(2)
C5 C 0.1713(1) 0.0263(2) 0.5145(2)
C6 C 0.1762(1) 0.0848(2) 0.6043(2)
C7 C 0.1471(1) 0.1541(2) 0.6031(2)
C8 C 0.1128(1) 0.1690(1) 0.5080(2)
C9 C 0.0829(1) 0.2423(2) 0.5028(3)
C10 C 0.0502(1) 0.2574(2) 0.4125(3)
C11 C 0.0450(1) 0.2004(2) 0.3214(2)
C12 C 0.0727(1) 0.1291(2) 0.3230(2)
C13 C 0.1074(1) 0.1099(1) 0.4159(2)
C14 C 0.1846(1) -0.0477(1) 0.2662(2)
C15 C 0.2023(1) 0.0320(1) 0.2079(2)
C16 C 0.2332(1) 0.0885(2) 0.2674(2)
C17 C 0.2474(1) 0.1613(2) 0.2142(3)
C18 C 0.2317(1) 0.1792(2) 0.1016(3)
C19 C 0.2019(1) 0.1229(2) 0.0398(2)
C20 C 0.1866(1) 0.0492(1) 0.0922(2)
C21 C 0.1563(1) -0.0136(1) 0.0257(2)
C22 C 0.1674(1) -0.0980(2) 0.0648(2)
C23 C 0.1820(1) -0.1137(1) 0.1739(2)
C24 C 0.1224(1) 0.0066(1) -0.0591(2)
C25 C 0.0869(1) -0.0474(2) -0.1328(2)
C26 C 0.1181(1) -0.1032(2) -0.2157(2)
C27 C 0.0516(1) -0.0995(2) -0.0540(2)
C28 C 0.0524(1) 0.0081(2) -0.2092(2)
C29 C 0.0569(1) -0.0788(2) 0.4610(2)
C30 C 0.0752(1) -0.1583(2) 0.2825(2)
H1 H 0.16460 -0.18470 0.40360
H2 H 0.11680 -0.21420 0.47750
H3 H 0.14960 -0.13890 0.52000
H4 H 0.1087(7) -0.0096(11) 0.2672(15)
H5 H 0.19290 -0.02190 0.51600
H6 H 0.20030 0.07590 0.66740
H7 H 0.15010 0.19260 0.66680
H8 H 0.08490 0.28080 0.56890
H9 H 0.03060 0.30760 0.41020
H10 H 0.02120 0.21170 0.25770
H11 H 0.06840 0.09140 0.25820
H12 H 0.2086(8) -0.0634(13) 0.3249(17)
H13 H 0.24480 0.07650 0.34790
H14 H 0.26820 0.19970 0.25940
H15 H 0.24170 0.23030 0.06580
H16 H 0.19210 0.13510 -0.04030
H17 H 0.16410 -0.14250 0.00980
H18 H 0.19110 -0.16910 0.19550
H19 H 0.12060 0.06430 -0.07510
H20 H 0.13980 -0.13900 -0.17120
H21 H 0.13900 -0.07050 -0.26780
H22 H 0.09450 -0.13580 -0.26310
H23 H 0.02910 -0.13360 -0.10130
H24 H 0.03010 -0.06470 -0.00540
H25 H 0.07210 -0.13400 -0.00370
H26 H 0.03160 0.04310 -0.16000
H27 H 0.02930 -0.02510 -0.25690
H28 H 0.07340 0.04090 -0.26030
H29 H 0.07100 -0.04970 0.52770
H30 H 0.03700 -0.12480 0.49070
H31 H 0.03410 -0.04320 0.41850
H32 H 0.10100 -0.17710 0.22790
H33 H 0.05070 -0.12380 0.24080
H34 H 0.05680 -0.20450 0.31420
loop_
_geom_bond_atom_site_label_1
_geom_bond_atom_site_label_2
_geom_bond_distance
_geom_bond_site_symmetry_1
_geom_bond_site_symmetry_2
C1 C2 1.539 1_555 1_555
C2 C3 1.586 1_555 1_555
C3 C4 1.526 1_555 1_555
C4 C5 1.382 1_555 1_555
C5 C6 1.404 1_555 1_555
C6 C7 1.358 1_555 1_555
C7 C8 1.417 1_555 1_555
C8 C9 1.425 1_555 1_555
C9 C10 1.350 1_555 1_555
C10 C11 1.399 1_555 1_555
C11 C12 1.366 1_555 1_555
C12 C13 1.418 1_555 1_555
C13 C4 1.434 1_555 1_555
C14 C3 1.584 1_555 1_555
C15 C14 1.531 1_555 1_555
C16 C15 1.394 1_555 1_555
C17 C16 1.384 1_555 1_555
C18 C17 1.373 1_555 1_555
C19 C18 1.389 1_555 1_555
C20 C15 1.404 1_555 1_555
C21 C20 1.494 1_555 1_555
C22 C21 1.477 1_555 1_555
C23 C14 1.506 1_555 1_555
C24 C21 1.341 1_555 1_555
C25 C24 1.522 1_555 1_555
C26 C25 1.538 1_555 1_555
C27 C25 1.534 1_555 1_555
C28 C25 1.538 1_555 1_555
C29 C2 1.537 1_555 1_555
C30 C2 1.533 1_555 1_555
H1 C1 0.959 1_555 1_555
H2 C1 0.966 1_555 1_555
H3 C1 0.960 1_555 1_555
H4 C3 0.985 1_555 1_555
H5 C5 0.964 1_555 1_555
H6 C6 0.959 1_555 1_555
H7 C7 0.962 1_555 1_555
H8 C9 0.981 1_555 1_555
H9 C10 0.964 1_555 1_555
H10 C11 0.966 1_555 1_555
H11 C12 0.966 1_555 1_555
H12 C14 0.945 1_555 1_555
H13 C16 0.982 1_555 1_555
H14 C17 0.972 1_555 1_555
H15 C18 0.964 1_555 1_555
H16 C19 0.965 1_555 1_555
H17 C22 0.963 1_555 1_555
H18 C23 0.967 1_555 1_555
H19 C24 0.961 1_555 1_555
H20 C26 0.954 1_555 1_555
H21 C26 0.962 1_555 1_555
H22 C26 0.971 1_555 1_555
H23 C27 0.967 1_555 1_555
H24 C27 0.967 1_555 1_555
H25 C27 0.961 1_555 1_555
H26 C28 0.963 1_555 1_555
H27 C28 0.971 1_555 1_555
H28 C28 0.958 1_555 1_555
H29 C29 0.966 1_555 1_555
H30 C29 0.970 1_555 1_555
H31 C29 0.957 1_555 1_555
H32 C30 0.959 1_555 1_555
H33 C30 0.970 1_555 1_555
H34 C30 0.961 1_555 1_555
C8 C13 1.431 1_555 1_555
C19 C20 1.400 1_555 1_555
C22 C23 1.321 1_555 1_555
#END
