
#######################################################################
#
#                 Cambridge Crystallographic Data Centre
#                                CCDC
#
#######################################################################
#
# If this CIF has been generated from an entry in the Cambridge
# Structural Database, then it will include bibliographic, chemical,
# crystal, experimental, refinement or atomic coordinate data resulting
# from the CCDC's data processing and validation procedures.
#
#######################################################################

data_CSD_CIF_KEYGIF
_audit_creation_date 2007-03-22
_audit_creation_method CSD-ConQuest-V1
_database_code_CSD KEYGIF
_database_code_depnum_ccdc_archive 'CCDC 271758'
_chemical_formula_sum 'C34 H36'
_chemical_formula_moiety
;
C34 H36
;
_journal_coden_Cambridge 177
_journal_volume 5
_journal_year 2007
_journal_page_first 87
_journal_name_full 'Org.Biomol.Chem. '
loop_
_publ_author_name
"M.K.J.ter Wiel"
"M.G.Kwit"
"A.Meetsma"
"B.L.Feringa"
_chemical_name_systematic
;
(2S*,2'S*)-(P*,P*)-cis-(+-)-2,2'-Di-t-butyl-2,2',3,3'-tetrahydro-1,1'-bicyclop
enta(a)naphthalenylidene
;
_chemical_melting_point 496.65
_cell_volume   5129.323
_exptl_crystal_colour 'colorless'
_exptl_crystal_density_diffrn 1.152
_exptl_special_details
;
Melting point range 496.65-497.35K
stable isomer

;
_exptl_crystal_description 'platelet'
_exptl_crystal_preparation 'heptane'
_diffrn_ambient_temperature 100
#These two values have been output from a single CSD field.
_refine_ls_R_factor_gt 0.0475
_refine_ls_wR_factor_gt 0.0475
loop_
_citation_database_id_CSD
_citation_special_details
KEVDUL "is a stereoisomer of this entry"
_symmetry_cell_setting orthorhombic
_symmetry_space_group_name_H-M 'P b c a'
_symmetry_Int_Tables_number 61
loop_
_symmetry_equiv_pos_site_id
_symmetry_equiv_pos_as_xyz
1 x,y,z
2 1/2-x,-y,1/2+z
3 1/2+x,1/2-y,-z
4 -x,1/2+y,1/2-z
5 -x,-y,-z
6 -1/2+x,y,-1/2-z
7 -1/2-x,-1/2+y,z
8 x,-1/2-y,-1/2+z
_cell_length_a 7.2761(3)
_cell_length_b 19.4524(8)
_cell_length_c 36.240(1)
_cell_angle_alpha 90
_cell_angle_beta 90
_cell_angle_gamma 90
_cell_formula_units_Z 8
loop_
_atom_type_symbol
_atom_type_radius_bond
C 0.68
H 0.23
loop_
_atom_site_label
_atom_site_type_symbol
_atom_site_fract_x
_atom_site_fract_y
_atom_site_fract_z
C1 C 0.37036(16) 0.47936(6) 0.10610(3)
C2 C 0.30120(17) 0.51542(6) 0.07085(3)
C3 C 0.44868(18) 0.57241(7) 0.06627(4)
C4 C 0.50145(17) 0.58862(6) 0.10547(4)
C5 C 0.58138(18) 0.64968(7) 0.11873(4)
C6 C 0.59600(19) 0.65951(7) 0.15603(4)
C7 C 0.52590(18) 0.61017(7) 0.18125(4)
C8 C 0.5223(2) 0.62346(8) 0.21980(4)
C9 C 0.4424(2) 0.57872(8) 0.24378(4)
C10 C 0.36134(19) 0.51768(8) 0.23061(4)
C11 C 0.36640(18) 0.50184(7) 0.19378(4)
C12 C 0.44906(17) 0.54711(6) 0.16787(3)
C13 C 0.44666(17) 0.53639(6) 0.12889(3)
C14 C 0.10036(18) 0.54392(7) 0.07330(3)
C15 C 0.0704(2) 0.59317(8) 0.10593(4)
C16 C 0.0533(2) 0.58136(8) 0.03719(4)
C17 C -0.03503(19) 0.48403(7) 0.07729(4)
C18 C 0.38097(17) 0.41039(6) 0.11038(3)
C19 C 0.28910(18) 0.35838(6) 0.08445(4)
C20 C 0.2022(2) 0.30804(7) 0.11270(4)
C21 C 0.33551(19) 0.31039(7) 0.14450(4)
C22 C 0.3616(2) 0.26073(7) 0.17232(4)
C23 C 0.5061(2) 0.26778(7) 0.19615(4)
C24 C 0.63268(19) 0.32287(7) 0.19272(3)
C25 C 0.7930(2) 0.32697(8) 0.21519(4)
C26 C 0.9219(2) 0.37693(8) 0.20971(4)
C27 C 0.8968(2) 0.42627(8) 0.18165(4)
C28 C 0.74172(19) 0.42519(7) 0.16017(3)
C29 C 0.60487(18) 0.37424(6) 0.16505(3)
C30 C 0.44625(18) 0.36801(6) 0.14195(3)
C31 C 0.42152(19) 0.32219(7) 0.05633(4)
C32 C 0.5208(2) 0.37560(8) 0.03247(4)
C33 C 0.3036(3) 0.27753(9) 0.03059(5)
C34 C 0.5686(2) 0.27719(8) 0.07457(4)
H1 H 0.312(2) 0.4606(8) 0.1851(4)
H2 H 0.3020(19) 0.4836(7) 0.0491(4)
H3 H 0.402(2) 0.6145(8) 0.0534(4)
H4 H 0.554(2) 0.5541(8) 0.0517(4)
H5 H 0.623(2) 0.6847(9) 0.1018(4)
H6 H 0.649(2) 0.7021(9) 0.1659(4)
H7 H 0.581(2) 0.6668(8) 0.2283(4)
H8 H 0.438(2) 0.5900(8) 0.2705(4)
H9 H 0.301(2) 0.4868(8) 0.2477(4)
H10 H -0.057(3) 0.6102(8) 0.1051(5)
H11 H 0.154(2) 0.6349(9) 0.1049(5)
H12 H 0.090(2) 0.5689(8) 0.1300(4)
H13 H 0.083(2) 0.5511(8) 0.0152(5)
H14 H 0.122(2) 0.6250(9) 0.0341(4)
H15 H -0.081(3) 0.5924(9) 0.0367(5)
H16 H -0.003(2) 0.4553(8) 0.1000(4)
H17 H -0.031(2) 0.4527(9) 0.0549(5)
H18 H -0.162(2) 0.5020(8) 0.0801(4)
H19 H 0.192(2) 0.3806(7) 0.0690(4)
H20 H 0.182(2) 0.2604(8) 0.1033(4)
H21 H 0.079(2) 0.3245(8) 0.1207(4)
H22 H 0.281(2) 0.2208(8) 0.1737(4)
H23 H 0.532(2) 0.2335(8) 0.2151(4)
H24 H 0.809(2) 0.2924(9) 0.2343(4)
H25 H 1.030(3) 0.3776(9) 0.2256(5)
H26 H 0.991(2) 0.4613(9) 0.1773(4)
H27 H 0.723(2) 0.4600(8) 0.1407(4)
H28 H 0.607(2) 0.3522(9) 0.0150(5)
H29 H 0.590(2) 0.4083(9) 0.0484(5)
H30 H 0.430(3) 0.4023(9) 0.0167(5)
H31 H 0.207(3) 0.306(1) 0.0182(5)
H32 H 0.236(3) 0.2416(10) 0.0445(5)
H33 H 0.381(2) 0.2537(9) 0.0112(5)
H34 H 0.644(2) 0.2535(9) 0.0547(5)
H35 H 0.515(2) 0.2415(9) 0.0911(5)
H36 H 0.659(2) 0.3059(8) 0.0894(4)
loop_
_geom_bond_atom_site_label_1
_geom_bond_atom_site_label_2
_geom_bond_distance
_geom_bond_site_symmetry_1
_geom_bond_site_symmetry_2
C1 C2 1.542 1_555 1_555
C2 C3 1.552 1_555 1_555
C3 C4 1.505 1_555 1_555
C4 C5 1.407 1_555 1_555
C5 C6 1.369 1_555 1_555
C6 C7 1.420 1_555 1_555
C7 C8 1.421 1_555 1_555
C8 C9 1.360 1_555 1_555
C9 C10 1.409 1_555 1_555
C10 C11 1.370 1_555 1_555
C11 C12 1.421 1_555 1_555
C12 C7 1.433 1_555 1_555
C13 C1 1.490 1_555 1_555
C14 C2 1.565 1_555 1_555
C15 C14 1.537 1_555 1_555
C16 C14 1.536 1_555 1_555
C17 C14 1.533 1_555 1_555
C18 C1 1.353 1_555 1_555
C19 C18 1.534 1_555 1_555
C20 C19 1.551 1_555 1_555
C21 C20 1.507 1_555 1_555
C22 C21 1.409 1_555 1_555
C23 C22 1.367 1_555 1_555
C24 C23 1.418 1_555 1_555
C25 C24 1.425 1_555 1_555
C26 C25 1.365 1_555 1_555
C27 C26 1.410 1_555 1_555
C28 C27 1.371 1_555 1_555
C29 C24 1.430 1_555 1_555
C30 C18 1.488 1_555 1_555
C31 C19 1.569 1_555 1_555
C32 C31 1.533 1_555 1_555
C33 C31 1.537 1_555 1_555
C34 C31 1.532 1_555 1_555
H1 C11 0.948 1_555 1_555
H2 C2 1.002 1_555 1_555
H3 C3 1.002 1_555 1_555
H4 C3 0.996 1_555 1_555
H5 C5 0.966 1_555 1_555
H6 C6 0.981 1_555 1_555
H7 C8 0.994 1_555 1_555
H8 C9 0.993 1_555 1_555
H9 C10 0.968 1_555 1_555
H10 C15 0.985 1_555 1_555
H11 C15 1.015 1_555 1_555
H12 C15 1.002 1_555 1_555
H13 C16 1.014 1_555 1_555
H14 C16 0.991 1_555 1_555
H15 C16 1.001 1_555 1_555
H16 C17 1.022 1_555 1_555
H17 C17 1.015 1_555 1_555
H18 C17 0.993 1_555 1_555
H19 C19 1.000 1_555 1_555
H20 C20 0.998 1_555 1_555
H21 C20 0.995 1_555 1_555
H22 C22 0.975 1_555 1_555
H23 C23 0.976 1_555 1_555
H24 C25 0.972 1_555 1_555
H25 C26 0.975 1_555 1_555
H26 C27 0.979 1_555 1_555
H27 C28 0.987 1_555 1_555
H28 C32 1.001 1_555 1_555
H29 C32 0.996 1_555 1_555
H30 C32 1.016 1_555 1_555
H31 C33 1.001 1_555 1_555
H32 C33 0.992 1_555 1_555
H33 C33 1.013 1_555 1_555
H34 C34 1.016 1_555 1_555
H35 C34 0.996 1_555 1_555
H36 C34 1.017 1_555 1_555
C4 C13 1.383 1_555 1_555
C12 C13 1.428 1_555 1_555
C21 C30 1.384 1_555 1_555
C28 C29 1.416 1_555 1_555
C29 C30 1.431 1_555 1_555
#END
