
#######################################################################
#
#                 Cambridge Crystallographic Data Centre
#                                CCDC
#
#######################################################################
#
# If this CIF has been generated from an entry in the Cambridge
# Structural Database, then it will include bibliographic, chemical,
# crystal, experimental, refinement or atomic coordinate data resulting
# from the CCDC's data processing and validation procedures.
#
#######################################################################

data_CSD_CIF_KEYTIS
_audit_creation_date 2007-06-28
_audit_creation_method CSD-ConQuest-V1
_database_code_CSD KEYTIS
_database_code_depnum_ccdc_archive 'CCDC 630820'
_chemical_formula_sum 'C68 H32'
_chemical_formula_moiety
;
C68 H32
;
_journal_coden_Cambridge 241
_journal_volume 36
_journal_year 2007
_journal_page_first 404
_journal_name_full 'Chem.Lett. '
loop_
_publ_author_name
"M.Goichi"
"S.Yamasaki"
"H.Miyahara"
"K.Wakamatsu"
"H.Akashi"
"S.Toyota"
_chemical_name_systematic
;
1,4,9,12(1,8)-tetraanthracenahexadecacyclophane-2,5,7,10,13,15-hexaene
;
_chemical_melting_point 628.15
_cell_volume   4348.704
_exptl_crystal_colour 'orange'
_exptl_crystal_density_diffrn 1.297
_exptl_special_details
;
Melts with decomposition.

;
_exptl_crystal_description 'platelet'
_diffrn_ambient_temperature 123.1
#These two values have been output from a single CSD field.
_refine_ls_R_factor_gt 0.0378
_refine_ls_wR_factor_gt 0.0378
_symmetry_cell_setting orthorhombic
_symmetry_space_group_name_H-M 'P 21 21 21'
_symmetry_Int_Tables_number 19
loop_
_symmetry_equiv_pos_site_id
_symmetry_equiv_pos_as_xyz
1 x,y,z
2 1/2+x,1/2-y,-z
3 -x,1/2+y,1/2-z
4 1/2-x,-y,1/2+z
_cell_length_a 13.0389(2)
_cell_length_b 16.5850(3)
_cell_length_c 20.1096(3)
_cell_angle_alpha 90
_cell_angle_beta 90
_cell_angle_gamma 90
_cell_formula_units_Z 4
loop_
_atom_type_symbol
_atom_type_radius_bond
C 0.68
H 0.23
loop_
_atom_site_label
_atom_site_type_symbol
_atom_site_fract_x
_atom_site_fract_y
_atom_site_fract_z
C1 C 0.45094(14) 0.23931(11) 0.89887(8)
C2 C 0.61959(14) 0.39805(10) 1.06393(8)
C3 C 0.62608(14) 0.27749(11) 0.97885(8)
C4 C 0.54107(14) 0.12373(10) 0.85188(8)
C5 C 0.97144(13) 0.46231(11) 0.98545(9)
C6 C 0.71192(13) 0.44577(10) 1.06697(8)
C7 C 0.88447(13) 0.47677(10) 1.02869(8)
C8 C 0.80669(14) 0.55704(11) 1.11700(9)
C9 C 0.45308(14) 0.10438(11) 0.81545(8)
C10 C 0.61723(14) 0.33198(11) 1.01810(9)
C11 C 0.53024(14) 0.37880(11) 0.77700(8)
C12 C 0.36400(14) 0.22183(11) 0.86086(8)
C13 C 0.27719(14) 0.34523(12) 0.89949(8)
C14 C 0.73099(14) 0.22224(11) 0.73876(8)
C15 C 0.70197(14) 0.53681(11) 0.88466(8)
C16 C 0.27626(15) 0.13454(13) 0.78009(9)
C17 C 0.79565(14) 0.43050(11) 1.02553(8)
C18 C 0.63012(14) 0.21191(10) 0.93264(8)
C19 C 0.65517(14) 0.58211(11) 0.93791(8)
C20 C 0.58027(14) 0.30804(11) 0.75041(8)
C21 C 0.64224(14) 0.47870(11) 0.84860(8)
C22 C 0.29425(13) 0.40430(12) 0.93255(9)
C23 C 0.54364(15) 0.48011(11) 1.15074(9)
C24 C 0.72015(15) 0.10028(11) 0.88023(9)
C25 C 0.42874(15) 0.39319(13) 0.76243(9)
C26 C 0.71709(13) 0.51078(10) 1.11426(8)
C27 C 0.68248(14) 0.28965(11) 0.76530(8)
C28 C 0.19242(15) 0.18316(13) 0.78187(9)
C29 C 0.35514(14) 0.52557(11) 1.00350(8)
C30 C 0.63414(15) 0.07791(11) 0.84641(9)
C31 C 0.36513(14) 0.15197(11) 0.81871(8)
C32 C 0.71339(15) 0.64351(11) 0.97059(9)
C33 C 0.37263(16) 0.34002(14) 0.72085(9)
C34 C 0.96350(14) 0.40106(11) 0.93574(9)
C35 C 0.53878(14) 0.19242(10) 0.89535(8)
C36 C 0.40960(14) 0.58781(11) 1.03667(8)
C37 C 0.32289(13) 0.46952(12) 0.97043(9)
C38 C 0.63058(15) 0.52591(11) 1.15586(9)
C39 C 0.27450(14) 0.27255(11) 0.86097(8)
C40 C 0.52361(15) 0.25537(12) 0.70711(9)
C41 C 0.91965(14) 0.29793(11) 0.84417(9)
C42 C 0.88898(14) 0.25170(11) 0.80224(8)
C43 C 0.53788(15) 0.41575(11) 1.10459(9)
C44 C 0.55540(14) 0.56554(11) 0.95921(8)
C45 C 0.89044(14) 0.54156(11) 1.07540(8)
C46 C 0.80291(15) 0.55142(12) 0.86819(9)
C47 C 0.67559(16) 0.17078(12) 0.69418(9)
C48 C 0.58858(14) 0.43380(11) 0.81741(8)
C49 C 0.72670(19) 0.10148(13) 0.66751(9)
C50 C 0.82609(19) 0.08459(13) 0.68351(10)
C51 C 0.88153(17) 0.13468(12) 0.72793(9)
C52 C 0.83625(14) 0.20189(11) 0.75537(8)
C53 C 0.19035(14) 0.25318(13) 0.82246(9)
C54 C 0.81679(16) 0.65727(13) 0.95011(10)
C55 C 0.71851(15) 0.16773(11) 0.92355(8)
C56 C 0.98103(15) 0.58965(12) 1.07742(10)
C57 C 1.06209(15) 0.57376(13) 1.03673(10)
C58 C 0.94698(13) 0.35177(11) 0.89315(9)
C59 C 0.51134(14) 0.60692(11) 1.01271(9)
C60 C 0.86006(16) 0.61215(13) 0.90095(10)
C61 C 0.52550(17) 0.70700(12) 1.10298(10)
C62 C 0.57313(16) 0.18821(12) 0.67999(9)
C63 C 0.41802(15) 0.27356(13) 0.69381(9)
C64 C 0.66903(16) 0.68562(12) 1.02355(10)
C65 C 0.37105(17) 0.62695(12) 1.09170(9)
C66 C 1.05780(15) 0.50923(12) 0.99053(9)
C67 C 0.56979(15) 0.66801(11) 1.04606(9)
C68 C 0.43028(17) 0.68618(12) 1.12516(10)
H1 H 0.1258(15) 0.2929(11) 0.8247(9)
H2 H 0.1272(15) 0.1702(12) 0.7545(10)
H3 H 0.2793(14) 0.0862(11) 0.7490(9)
H4 H 0.2957(15) 0.3525(11) 0.7108(9)
H5 H 0.3803(14) 0.2343(11) 0.6628(9)
H6 H 0.3938(14) 0.4411(11) 0.7811(9)
H7 H 0.4007(16) 0.7158(12) 1.1681(10)
H8 H 0.2991(16) 0.6120(12) 1.1085(10)
H9 H 0.7104(15) 0.7321(12) 1.0484(9)
H10 H 0.5689(14) 0.7528(12) 1.1245(9)
H11 H 0.8545(16) 0.7004(13) 0.9761(11)
H12 H 0.9843(14) 0.6372(12) 1.1108(10)
H13 H 1.1252(16) 0.6073(12) 1.0382(10)
H14 H 1.1193(16) 0.5019(12) 0.9600(9)
H15 H 0.4526(13) 0.0541(10) 0.7847(8)
H16 H 0.6330(14) 0.0268(11) 0.8143(9)
H17 H 0.7902(16) 0.0652(12) 0.8748(10)
H18 H 0.7836(13) 0.1842(10) 0.9473(8)
H19 H 0.7225(13) 0.3275(10) 0.7960(8)
H20 H 0.6879(16) 0.0654(13) 0.6343(11)
H21 H 0.8632(16) 0.0340(13) 0.6667(10)
H22 H 0.9562(16) 0.1219(12) 0.7402(9)
H23 H 0.5361(13) 0.1524(11) 0.6481(8)
H24 H 0.5151(13) 0.5204(11) 0.9352(9)
H25 H 0.4468(14) 0.2897(11) 0.9288(9)
H26 H 0.4724(13) 0.3792(10) 1.1019(8)
H27 H 0.4792(14) 0.4902(11) 1.1813(9)
H28 H 0.6327(13) 0.5719(10) 1.1890(8)
H29 H 0.8103(15) 0.6029(11) 1.1504(9)
H30 H 0.7897(13) 0.3847(10) 0.9920(8)
H31 H 0.8337(12) 0.5169(10) 0.8320(8)
H32 H 0.9366(15) 0.6170(11) 0.8867(9)
loop_
_geom_bond_atom_site_label_1
_geom_bond_atom_site_label_2
_geom_bond_distance
_geom_bond_site_symmetry_1
_geom_bond_site_symmetry_2
C1 C12 1.398 1_555 1_555
C2 C6 1.442 1_555 1_555
C3 C10 1.205 1_555 1_555
C4 C9 1.399 1_555 1_555
C5 C7 1.449 1_555 1_555
C6 C17 1.397 1_555 1_555
C7 C17 1.391 1_555 1_555
C8 C26 1.399 1_555 1_555
C9 C31 1.394 1_555 1_555
C10 C2 1.432 1_555 1_555
C11 C20 1.445 1_555 1_555
C12 C31 1.436 1_555 1_555
C13 C22 1.205 1_555 1_555
C14 C27 1.391 1_555 1_555
C15 C19 1.443 1_555 1_555
C16 C28 1.359 1_555 1_555
C17 H30 1.019 1_555 1_555
C18 C3 1.432 1_555 1_555
C19 C32 1.430 1_555 1_555
C20 C27 1.400 1_555 1_555
C21 C15 1.436 1_555 1_555
C22 C37 1.375 1_555 1_555
C23 C38 1.368 1_555 1_555
C24 C30 1.363 1_555 1_555
C25 C11 1.376 1_555 1_555
C26 C6 1.439 1_555 1_555
C27 H19 1.023 1_555 1_555
C28 C53 1.420 1_555 1_555
C29 C36 1.419 1_555 1_555
C30 C4 1.436 1_555 1_555
C31 C16 1.425 1_555 1_555
C32 C54 1.428 1_555 1_555
C33 C25 1.418 1_555 1_555
C34 C5 1.429 1_555 1_555
C35 C1 1.386 1_555 1_555
C36 C59 1.447 1_555 1_555
C37 C29 1.218 1_555 1_555
C38 C26 1.427 1_555 1_555
C39 C12 1.439 1_555 1_555
C40 C20 1.438 1_555 1_555
C41 C42 1.208 1_555 1_555
C42 C52 1.430 1_555 1_555
C43 C2 1.375 1_555 1_555
C44 C19 1.397 1_555 1_555
C45 C7 1.429 1_555 1_555
C46 C15 1.379 1_555 1_555
C47 C14 1.433 1_555 1_555
C48 C11 1.439 1_555 1_555
C49 C47 1.433 1_555 1_555
C50 C49 1.364 1_555 1_555
C51 C50 1.418 1_555 1_555
C52 C14 1.452 1_555 1_555
C53 C39 1.381 1_555 1_555
C54 C60 1.362 1_555 1_555
C55 C18 1.378 1_555 1_555
C56 C45 1.426 1_555 1_555
C57 C56 1.362 1_555 1_555
C58 C34 1.203 1_555 1_555
C59 C44 1.399 1_555 1_555
C60 C46 1.416 1_555 1_555
C61 C67 1.436 1_555 1_555
C62 C40 1.398 1_555 1_555
C63 C33 1.364 1_555 1_555
C64 C32 1.399 1_555 1_555
C65 C36 1.378 1_555 1_555
C66 C5 1.373 1_555 1_555
C67 C59 1.434 1_555 1_555
C68 C61 1.364 1_555 1_555
H1 C53 1.070 1_555 1_555
H2 C28 1.036 1_555 1_555
H3 C16 1.017 1_555 1_555
H4 C33 1.044 1_555 1_555
H5 C63 1.027 1_555 1_555
H6 C25 0.990 1_555 1_555
H7 C68 1.066 1_555 1_555
H8 C65 1.027 1_555 1_555
H9 C64 1.065 1_555 1_555
H10 C61 1.041 1_555 1_555
H11 C54 1.013 1_555 1_555
H12 C56 1.036 1_555 1_555
H13 C57 0.994 1_555 1_555
H14 C66 1.017 1_555 1_555
H15 C9 1.038 1_555 1_555
H16 C30 1.066 1_555 1_555
H17 C24 1.088 1_555 1_555
H18 C55 1.011 1_555 1_555
H20 C49 1.030 1_555 1_555
H21 C50 1.026 1_555 1_555
H22 C51 1.027 1_555 1_555
H23 C62 0.999 1_555 1_555
H24 C44 1.034 1_555 1_555
H25 C1 1.031 1_555 1_555
H26 C43 1.048 1_555 1_555
H27 C23 1.054 1_555 1_555
H28 C38 1.013 1_555 1_555
H29 C8 1.016 1_555 1_555
H31 C46 1.009 1_555 1_555
H32 C60 1.041 1_555 1_555
C4 C35 1.436 1_555 1_555
C8 C45 1.399 1_555 1_555
C13 C39 1.433 1_555 1_555
C18 C35 1.444 1_555 1_555
C21 C48 1.199 1_555 1_555
C23 C43 1.416 1_555 1_555
C24 C55 1.418 1_555 1_555
C40 C63 1.435 1_555 1_555
C41 C58 1.376 1_555 1_555
C47 C62 1.396 1_555 1_555
C51 C52 1.377 1_555 1_555
C57 C66 1.418 1_555 1_555
C64 C67 1.402 1_555 1_555
C65 C68 1.419 1_555 1_555
#END
