
#######################################################################
#
#                 Cambridge Crystallographic Data Centre
#                                CCDC
#
#######################################################################
#
# If this CIF has been generated from an entry in the Cambridge
# Structural Database, then it will include bibliographic, chemical,
# crystal, experimental, refinement or atomic coordinate data resulting
# from the CCDC's data processing and validation procedures.
#
#######################################################################

data_CSD_CIF_KICGEL
_audit_creation_date 2018-04-17
_audit_creation_method CSD-ConQuest-V1
_database_code_CSD KICGEL
_database_code_depnum_ccdc_archive 'CCDC 1580653'
_chemical_formula_sum 'C34 H18'
_chemical_formula_moiety
;
C34 H18
;
_journal_coden_Cambridge 35
_journal_volume 83
_journal_year 2018
_journal_page_first 3979
_journal_name_full 'J.Org.Chem. '
loop_
_publ_author_name
"Shi Liu"
"L.M.Roch"
"O.Allemann"
"Jun Xu"
"N.Vanthuyne"
"K.K.Baldridge"
"J.S.Siegel"
_chemical_name_systematic
;
5-methyl-8H-benzo[e]indeno[1',2':4,5]acenaphtho[3,2,1,8-lmnoa]acephenanthrylen
e
;
_cell_volume   4003.026
_exptl_crystal_colour 'light colorless'
_exptl_crystal_density_diffrn 1.415
_exptl_crystal_description 'plate'
_diffrn_ambient_temperature 100.0
#These two values have been output from a single CSD field.
_refine_ls_R_factor_gt 0.0337
_refine_ls_wR_factor_gt 0.0337
_symmetry_cell_setting orthorhombic
_symmetry_space_group_name_H-M 'P c a 21'
_symmetry_Int_Tables_number 29
loop_
_symmetry_equiv_pos_site_id
_symmetry_equiv_pos_as_xyz
1 x,y,z
2 -x,-y,1/2+z
3 1/2+x,-y,z
4 1/2-x,y,1/2+z
_cell_length_a 18.7921(2)
_cell_length_b 27.7246(4)
_cell_length_c 7.6833(1)
_cell_angle_alpha 90
_cell_angle_beta 90
_cell_angle_gamma 90
_cell_formula_units_Z 8
loop_
_atom_type_symbol
_atom_type_radius_bond
C 0.68
H 0.23
loop_
_atom_site_label
_atom_site_type_symbol
_atom_site_fract_x
_atom_site_fract_y
_atom_site_fract_z
C1 C -0.37561(13) -0.44096(9) -0.4347(4)
C2 C -0.39303(13) -0.48382(9) -0.3651(3)
C3 C -0.27333(12) -0.47658(9) -0.5814(4)
H1 H -0.23201 -0.47343 -0.64707
C4 C -0.31297(13) -0.43592(9) -0.5382(3)
C5 C -0.35475(12) -0.52575(9) -0.4103(3)
C6 C -0.28028(12) -0.57007(9) -0.6007(4)
H2 H -0.23788 -0.57345 -0.66197
C7 C -0.29669(12) -0.52423(9) -0.5236(4)
C8 C -0.53415(12) -0.56795(10) -0.4117(4)
C9 C -0.31802(13) -0.38598(9) -0.6045(4)
C10 C -0.47149(13) -0.54585(10) -0.3587(4)
C11 C -0.54233(14) -0.69012(10) -0.6230(4)
C12 C -0.40282(12) -0.56508(9) -0.4031(3)
C13 C -0.45782(13) -0.63482(9) -0.5239(4)
C14 C -0.38620(14) -0.36608(9) -0.5578(4)
C15 C -0.32521(12) -0.60936(9) -0.5873(4)
H3 H -0.31140 -0.63849 -0.63684
C16 C -0.58229(13) -0.6480(1) -0.5511(4)
H4 H -0.61378 -0.65795 -0.45770
H5 H -0.61014 -0.63232 -0.64103
C17 C -0.51974(13) -0.46305(10) -0.3805(3)
C18 C -0.39316(13) -0.60667(9) -0.4985(4)
C19 C -0.58790(13) -0.48657(11) -0.4042(4)
H6 H -0.62864 -0.46761 -0.41067
C20 C -0.52488(12) -0.61502(9) -0.4842(4)
C21 C -0.46557(12) -0.4955(1) -0.3384(4)
C22 C -0.55586(14) -0.37932(10) -0.4936(4)
H7 H -0.55039 -0.37248 -0.61539
H8 H -0.55126 -0.34999 -0.42821
H9 H -0.60199 -0.39310 -0.47336
C23 C -0.46816(13) -0.68161(9) -0.6074(4)
C24 C -0.26920(14) -0.35802(10) -0.6958(4)
H10 H -0.22624 -0.37133 -0.73188
C25 C -0.42033(15) -0.71631(9) -0.6677(4)
H11 H -0.37161 -0.71133 -0.65644
C26 C -0.49930(13) -0.41444(10) -0.4371(4)
C27 C -0.40079(15) -0.31849(10) -0.5979(4)
H12 H -0.44464 -0.30523 -0.56863
C28 C -0.42713(13) -0.40394(9) -0.4627(3)
C29 C -0.59476(13) -0.53584(10) -0.4176(4)
H13 H -0.63998 -0.54896 -0.43095
C30 C -0.34986(16) -0.29036(10) -0.6821(4)
H14 H -0.35925 -0.25804 -0.70487
C31 C -0.28477(15) -0.31035(10) -0.7327(4)
H15 H -0.25171 -0.29147 -0.79161
C32 C -0.44547(17) -0.75803(10) -0.7439(4)
H16 H -0.41353 -0.78080 -0.78623
C33 C -0.56698(16) -0.73251(11) -0.6978(4)
H17 H -0.61561 -0.73813 -0.70746
C34 C -0.51884(17) -0.76633(11) -0.7579(4)
H18 H -0.53524 -0.79478 -0.80796
C35 C -0.37633(13) -0.92717(10) -0.6331(4)
C36 C -0.28693(14) -1.03654(9) -0.6831(4)
C37 C -0.26437(13) -0.95199(9) -0.7168(3)
C38 C -0.30445(13) -0.91132(9) -0.6651(3)
C39 C -0.32646(13) -0.84182(9) -0.4919(4)
C40 C -0.27502(13) -0.87200(9) -0.5826(4)
C41 C -0.31070(13) -0.99156(10) -0.7223(4)
C42 C -0.37944(13) -0.97735(10) -0.6645(4)
C43 C -0.31699(14) -0.79441(9) -0.4119(4)
C44 C -0.42303(13) -1.00883(10) -0.5720(4)
C45 C -0.42062(13) -0.90427(10) -0.5166(4)
C46 C -0.38012(14) -0.78208(10) -0.3222(4)
C47 C -0.26166(14) -0.76148(9) -0.4221(4)
H19 H -0.21976 -0.76938 -0.47987
C48 C -0.15983(13) -0.91421(9) -0.6109(4)
H20 H -0.11064 -0.91355 -0.59771
C49 C -0.33181(14) -1.07196(9) -0.6073(4)
C50 C -0.16596(13) -1.00654(10) -0.6566(4)
H21 H -0.11742 -1.01204 -0.64370
C51 C -0.39604(13) -0.85793(10) -0.4589(4)
C52 C -0.19222(13) -0.95758(9) -0.6758(4)
C53 C -0.21292(14) -1.04517(10) -0.6573(4)
C54 C -0.19813(13) -0.87343(9) -0.5671(4)
H22 H -0.17409 -0.84632 -0.52677
C55 C -0.47606(13) -0.93498(10) -0.4450(4)
H23 H -0.51220 -0.92101 -0.37943
C56 C -0.28198(14) -1.11214(9) -0.5631(4)
C57 C -0.15365(15) -1.12474(10) -0.5482(4)
H24 H -0.10733 -1.11341 -0.56056
C58 C -0.47669(13) -0.98397(10) -0.4711(4)
H25 H -0.51324 -1.00197 -0.42165
C59 C -0.26968(15) -0.71659(10) -0.3450(4)
H26 H -0.23332 -0.69398 -0.35457
C60 C -0.40044(14) -1.0593(1) -0.5530(4)
C61 C -0.43388(14) -0.82207(10) -0.3447(4)
H27 H -0.44630 -0.83631 -0.23342
H28 H -0.47681 -0.81026 -0.40032
C62 C -0.21059(14) -1.09529(9) -0.5901(4)
C63 C -0.23471(17) -1.18791(10) -0.4682(4)
H29 H -0.24221 -1.21935 -0.43029
C64 C -0.38665(15) -0.73776(10) -0.2419(4)
H30 H -0.42775 -0.73001 -0.18053
C65 C -0.16574(17) -1.17115(10) -0.4878(4)
H31 H -0.12751 -1.19105 -0.46040
C66 C -0.29291(16) -1.15863(10) -0.5042(4)
H32 H -0.33890 -1.17025 -0.48869
C67 C -0.33098(16) -0.70482(10) -0.2539(4)
H33 H -0.33489 -0.67482 -0.20061
C68 C -0.44645(15) -1.09433(11) -0.4532(4)
H34 H -0.47864 -1.07677 -0.37972
H35 H -0.41685 -1.11475 -0.38286
H36 H -0.47311 -1.11375 -0.53347
loop_
_geom_bond_atom_site_label_1
_geom_bond_atom_site_label_2
_geom_bond_distance
_geom_bond_site_symmetry_1
_geom_bond_site_symmetry_2
C1 C2 1.344 1_555 1_555
C2 C5 1.410 1_555 1_555
C3 H1 0.930 1_555 1_555
C4 C1 1.427 1_555 1_555
C5 C7 1.396 1_555 1_555
C6 H2 0.930 1_555 1_555
C7 C3 1.461 1_555 1_555
C8 C10 1.388 1_555 1_555
C9 C4 1.478 1_555 1_555
C10 C12 1.437 1_555 1_555
C11 C16 1.494 1_555 1_555
C12 C5 1.417 1_555 1_555
C13 C18 1.457 1_555 1_555
C14 C9 1.440 1_555 1_555
C15 C6 1.382 1_555 1_555
H3 C15 0.930 1_555 1_555
C16 H4 0.970 1_555 1_555
H5 C16 0.970 1_555 1_555
C17 C19 1.449 1_555 1_555
C18 C12 1.378 1_555 1_555
C19 H6 0.930 1_555 1_555
C20 C8 1.430 1_555 1_555
C21 C2 1.416 1_555 1_555
C22 H7 0.960 1_555 1_555
H8 C22 0.960 1_555 1_555
H9 C22 0.960 1_555 1_555
C23 C11 1.419 1_555 1_555
C24 C9 1.391 1_555 1_555
H10 C24 0.930 1_555 1_555
C25 C23 1.396 1_555 1_555
H11 C25 0.930 1_555 1_555
C26 C17 1.467 1_555 1_555
C27 C14 1.382 1_555 1_555
H12 C27 0.930 1_555 1_555
C28 C1 1.427 1_555 1_555
C29 C8 1.446 1_555 1_555
H13 C29 0.930 1_555 1_555
C30 C27 1.394 1_555 1_555
H14 C30 0.930 1_555 1_555
C31 C24 1.383 1_555 1_555
H15 C31 0.930 1_555 1_555
C32 C25 1.380 1_555 1_555
H16 C32 0.930 1_555 1_555
C33 C11 1.388 1_555 1_555
H17 C33 0.930 1_555 1_555
C34 C32 1.402 1_555 1_555
H18 C34 0.930 1_555 1_555
C35 C38 1.442 1_555 1_555
C36 C41 1.358 1_555 1_555
C37 C38 1.413 1_555 1_555
C38 C40 1.377 1_555 1_555
C39 C40 1.456 1_555 1_555
C40 C54 1.450 1_555 1_555
C41 C37 1.401 1_555 1_555
C42 C35 1.413 1_555 1_555
C43 C39 1.462 1_555 1_555
C44 C42 1.392 1_555 1_555
C45 C35 1.377 1_555 1_555
C46 C43 1.414 1_555 1_555
C47 C43 1.386 1_555 1_555
H19 C47 0.930 1_555 1_555
C48 H20 0.930 1_555 1_555
C49 C36 1.419 1_555 1_555
C50 H21 0.930 1_555 1_555
C51 C39 1.405 1_555 1_555
C52 C37 1.401 1_555 1_555
C53 C36 1.425 1_555 1_555
C54 C48 1.382 1_555 1_555
H22 C54 0.930 1_555 1_555
C55 C45 1.454 1_555 1_555
H23 C55 0.930 1_555 1_555
C56 C49 1.494 1_555 1_555
C57 H24 0.930 1_555 1_555
C58 C44 1.447 1_555 1_555
H25 C58 0.930 1_555 1_555
C59 C47 1.387 1_555 1_555
H26 C59 0.930 1_555 1_555
C60 C44 1.470 1_555 1_555
C61 C46 1.510 1_555 1_555
H27 C61 0.970 1_555 1_555
H28 C61 0.970 1_555 1_555
C62 C53 1.483 1_555 1_555
C63 H29 0.930 1_555 1_555
C64 C46 1.380 1_555 1_555
H30 C64 0.930 1_555 1_555
C65 C57 1.387 1_555 1_555
H31 C65 0.930 1_555 1_555
C66 C56 1.381 1_555 1_555
H32 C66 0.930 1_555 1_555
C67 C59 1.387 1_555 1_555
H33 C67 0.930 1_555 1_555
C68 C60 1.510 1_555 1_555
H34 C68 0.960 1_555 1_555
H35 C68 0.960 1_555 1_555
H36 C68 0.960 1_555 1_555
C3 C4 1.391 1_555 1_555
C6 C7 1.436 1_555 1_555
C10 C21 1.409 1_555 1_555
C13 C20 1.408 1_555 1_555
C13 C23 1.460 1_555 1_555
C14 C28 1.492 1_555 1_555
C15 C18 1.450 1_555 1_555
C16 C20 1.505 1_555 1_555
C17 C21 1.397 1_555 1_555
C19 C29 1.376 1_555 1_555
C22 C26 1.505 1_555 1_555
C26 C28 1.401 1_555 1_555
C30 C31 1.398 1_555 1_555
C33 C34 1.382 1_555 1_555
C41 C42 1.422 1_555 1_555
C45 C51 1.435 1_555 1_555
C48 C52 1.437 1_555 1_555
C49 C60 1.400 1_555 1_555
C50 C52 1.452 1_555 1_555
C50 C53 1.388 1_555 1_555
C51 C61 1.505 1_555 1_555
C55 C58 1.373 1_555 1_555
C56 C62 1.436 1_555 1_555
C57 C62 1.384 1_555 1_555
C63 C65 1.385 1_555 1_555
C63 C66 1.390 1_555 1_555
C64 C67 1.392 1_555 1_555
#END
