
#######################################################################
#
#                 Cambridge Crystallographic Data Centre
#                                CCDC
#
#######################################################################
#
# If this CIF has been generated from an entry in the Cambridge
# Structural Database, then it will include bibliographic, chemical,
# crystal, experimental, refinement or atomic coordinate data resulting
# from the CCDC's data processing and validation procedures.
#
#######################################################################

data_CSD_CIF_KICGAH
_audit_creation_date 2018-04-17
_audit_creation_method CSD-ConQuest-V1
_database_code_CSD KICGAH
_database_code_depnum_ccdc_archive 'CCDC 1580652'
_chemical_formula_sum 'C34 H24'
_chemical_formula_moiety
;
C34 H24
;
_journal_coden_Cambridge 35
_journal_volume 83
_journal_year 2018
_journal_page_first 3979
_journal_name_full 'J.Org.Chem. '
loop_
_publ_author_name
"Shi Liu"
"L.M.Roch"
"O.Allemann"
"Jun Xu"
"N.Vanthuyne"
"K.K.Baldridge"
"J.S.Siegel"
_chemical_name_systematic
;
3,14-dimethylbenzo[e]indeno[1',2',3':5,6]acenaphtho[3,2,1,8-lmnoa]acephenanthr
ylene
;
_cell_volume   1980.364
_exptl_crystal_colour 'yellowish yellow'
_exptl_crystal_density_diffrn 1.43
_exptl_crystal_description 'plate'
_diffrn_ambient_temperature 100.0
#These two values have been output from a single CSD field.
_refine_ls_R_factor_gt 0.0292
_refine_ls_wR_factor_gt 0.0292
_symmetry_cell_setting orthorhombic
_symmetry_space_group_name_H-M 'C m c 21'
_symmetry_Int_Tables_number 36
loop_
_symmetry_equiv_pos_site_id
_symmetry_equiv_pos_as_xyz
1 x,y,z
2 -x,-y,1/2+z
3 x,-y,1/2+z
4 -x,y,z
5 1/2+x,1/2+y,z
6 1/2-x,1/2-y,1/2+z
7 1/2+x,1/2-y,1/2+z
8 1/2-x,1/2+y,z
_cell_length_a 26.3604(4)
_cell_length_b 9.2591(2)
_cell_length_c 8.1138(1)
_cell_angle_alpha 90
_cell_angle_beta 90
_cell_angle_gamma 90
_cell_formula_units_Z 4
loop_
_atom_type_symbol
_atom_type_radius_bond
C 0.68
H 0.23
loop_
_atom_site_label
_atom_site_type_symbol
_atom_site_fract_x
_atom_site_fract_y
_atom_site_fract_z
C1 C 0.54263(8) 0.7161(2) 0.7077(2)
C2 C 0.61992(8) 0.6282(2) 0.5775(2)
C3 C 0.50000 0.8049(3) 0.6825(3)
C4 C 0.54882(8) 0.9548(2) 0.4934(3)
H1 H 0.55192 1.03700 0.42831
C5 C 0.55561(9) 0.4554(2) 0.6767(3)
C6 C 0.50000 0.9177(3) 0.5665(3)
C7 C 0.52719(8) 0.5715(2) 0.7340(2)
C8 C 0.65768(8) 0.7027(2) 0.4703(2)
C9 C 0.63957(8) 0.8453(2) 0.4351(3)
C10 C 0.58573(8) 0.7416(2) 0.6216(2)
C11 C 0.60573(8) 0.4856(2) 0.6035(2)
C12 C 0.59064(8) 0.8672(2) 0.5214(3)
C13 C 0.52613(10) 0.3251(2) 0.6572(2)
H2 H 0.54309 0.23774 0.64408
C14 C 0.66691(8) 0.9368(2) 0.3328(3)
H3 H 0.65468 1.02851 0.30829
C15 C 0.71284(9) 0.8898(3) 0.2674(3)
H4 H 0.73135 0.95031 0.19844
C16 C 0.73115(8) 0.7531(3) 0.3044(3)
H5 H 0.76229 0.72410 0.26194
C17 C 0.63579(9) 0.3621(3) 0.5333(3)
H6 H 0.67131 0.38457 0.53823
H7 H 0.62604 0.34659 0.42065
H8 H 0.62922 0.27625 0.59610
C18 C 0.70379(9) 0.6582(3) 0.4040(3)
H9 H 0.71623 0.56623 0.42592
C1C C 0.45737(8) 0.7161(2) 0.7077(2)
C2C C 0.38008(8) 0.6282(2) 0.5775(2)
C4C C 0.45118(8) 0.9548(2) 0.4934(3)
H1C H 0.44808 1.03700 0.42831
C5C C 0.44439(9) 0.4554(2) 0.6767(3)
C7C C 0.47281(8) 0.5715(2) 0.7340(2)
C8C C 0.34232(8) 0.7027(2) 0.4703(2)
C9C C 0.36043(8) 0.8453(2) 0.4351(3)
C10C C 0.41427(8) 0.7416(2) 0.6216(2)
C11C C 0.39427(8) 0.4856(2) 0.6035(2)
C12C C 0.40936(8) 0.8672(2) 0.5214(3)
C13C C 0.47387(10) 0.3251(2) 0.6572(2)
H2C H 0.45691 0.23774 0.64408
C14C C 0.33309(8) 0.9368(2) 0.3328(3)
H3C H 0.34532 1.02851 0.30829
C15C C 0.28716(9) 0.8898(3) 0.2674(3)
H4C H 0.26865 0.95031 0.19844
C16C C 0.26885(8) 0.7531(3) 0.3044(3)
H5C H 0.23771 0.72410 0.26194
C17C C 0.36421(9) 0.3621(3) 0.5333(3)
H6C H 0.32869 0.38457 0.53823
H7C H 0.37396 0.34659 0.42065
H8C H 0.37078 0.27625 0.59610
C18C C 0.29621(9) 0.6582(3) 0.4040(3)
H9C H 0.28377 0.56623 0.42592
loop_
_geom_bond_atom_site_label_1
_geom_bond_atom_site_label_2
_geom_bond_distance
_geom_bond_site_symmetry_1
_geom_bond_site_symmetry_2
C1 C3 1.407 1_555 1_555
C2 C8 1.491 1_555 1_555
C3 C6 1.406 1_555 1_555
C4 H1 0.930 1_555 1_555
C5 C7 1.390 1_555 1_555
C6 C4 1.458 1_555 1_555
C7 C1 1.416 1_555 1_555
C8 C9 1.433 1_555 1_555
C9 C12 1.482 1_555 1_555
C10 C1 1.354 1_555 1_555
C11 C2 1.388 1_555 1_555
C12 C4 1.387 1_555 1_555
C13 C5 1.444 1_555 1_555
H2 C13 0.930 1_555 1_555
C14 C9 1.388 1_555 1_555
H3 C14 0.930 1_555 1_555
C15 C14 1.392 1_555 1_555
H4 C15 0.930 1_555 1_555
C16 C15 1.387 1_555 1_555
H5 C16 0.930 1_555 1_555
C17 C11 1.503 1_555 1_555
H6 C17 0.960 1_555 1_555
H7 C17 0.960 1_555 1_555
H8 C17 0.960 1_555 1_555
C18 C8 1.392 1_555 1_555
H9 C18 0.930 1_555 1_555
C1C C3 1.407 1_555 1_555
C2C C8C 1.491 1_555 1_555
C4C C6 1.458 1_555 1_555
H1C C4C 0.930 1_555 1_555
C5C C7C 1.390 1_555 1_555
C7C C7 1.433 1_555 1_555
C8C C9C 1.433 1_555 1_555
C9C C12C 1.482 1_555 1_555
C10C C1C 1.354 1_555 1_555
C11C C2C 1.388 1_555 1_555
C12C C4C 1.387 1_555 1_555
C13C C13 1.378 1_555 1_555
H2C C13C 0.930 1_555 1_555
C14C C9C 1.388 1_555 1_555
H3C C14C 0.930 1_555 1_555
C15C C14C 1.392 1_555 1_555
H4C C15C 0.930 1_555 1_555
C16C C15C 1.387 1_555 1_555
H5C C16C 0.930 1_555 1_555
C17C C11C 1.503 1_555 1_555
H6C C17C 0.960 1_555 1_555
H7C C17C 0.960 1_555 1_555
H8C C17C 0.960 1_555 1_555
C18C C8C 1.392 1_555 1_555
H9C C18C 0.930 1_555 1_555
C2 C10 1.429 1_555 1_555
C5 C11 1.475 1_555 1_555
C10 C12 1.425 1_555 1_555
C16 C18 1.395 1_555 1_555
C1C C7C 1.416 1_555 1_555
C2C C10C 1.429 1_555 1_555
C5C C11C 1.475 1_555 1_555
C5C C13C 1.444 1_555 1_555
C10C C12C 1.425 1_555 1_555
C16C C18C 1.395 1_555 1_555
#END
