
#######################################################################
#
#                 Cambridge Crystallographic Data Centre
#                                CCDC
#
#######################################################################
#
# If this CIF has been generated from an entry in the Cambridge
# Structural Database, then it will include bibliographic, chemical,
# crystal, experimental, refinement or atomic coordinate data resulting
# from the CCDC's data processing and validation procedures.
#
#######################################################################

data_CSD_CIF_KINPAY
_audit_creation_date 2000-07-14
_audit_creation_method CSD-ConQuest-V1
_database_code_CSD KINPAY
_chemical_formula_sum 'C18 H18'
_chemical_formula_moiety
;
C18 H18
;
_journal_coden_Cambridge 154
_journal_volume 52
_journal_year 1999
_journal_page_first 213
_journal_name_full 'Aust.J.Chem. '
loop_
_publ_author_name
"N.Lahrahar"
"H.Bouas-Laurent"
"J.-P.Desvergne"
"P.Marsau"
"J.Rigaudy"
_chemical_name_systematic
;
1,2,3,4-Tetramethylanthracene
;
_chemical_melting_point 487.15
_cell_volume   1302.172
_exptl_crystal_colour 'colorless'
_exptl_crystal_density_diffrn 1.195
_exptl_crystal_description 'prism'
_exptl_crystal_preparation 'dichloromethane'
_diffrn_ambient_temperature ?
_diffrn_special_details
;
The study was carried out at room temperature,in the range 283-303K

;
#These two values have been output from a single CSD field.
_refine_ls_R_factor_gt 0.069
_refine_ls_wR_factor_gt 0.069
_symmetry_cell_setting monoclinic
_symmetry_space_group_name_H-M 'C 2/c'
_symmetry_Int_Tables_number 15
loop_
_symmetry_equiv_pos_site_id
_symmetry_equiv_pos_as_xyz
1 x,y,z
2 -x,y,1/2-z
3 1/2+x,1/2+y,z
4 1/2-x,1/2+y,1/2-z
5 -x,-y,-z
6 x,-y,-1/2+z
7 -1/2-x,-1/2-y,-z
8 -1/2+x,-1/2-y,-1/2+z
_cell_length_a 13.534(8)
_cell_length_b 12.670(8)
_cell_length_c 7.657(6)
_cell_angle_alpha 90
_cell_angle_beta 97.36(3)
_cell_angle_gamma 90
_cell_formula_units_Z 4
loop_
_atom_type_symbol
_atom_type_radius_bond
C 0.68
H 0.23
loop_
_atom_site_label
_atom_site_type_symbol
_atom_site_fract_x
_atom_site_fract_y
_atom_site_fract_z
C1 C -0.0954(1) 0.6431(1) 0.1615(2)
C2 C -0.0495(1) 0.7394(1) 0.2041(2)
C3 C -0.0960(2) 0.8384(1) 0.1605(3)
C4 C -0.0492(2) 0.9304(1) 0.2038(3)
C5 C -0.0500(1) 0.5462(1) 0.2044(2)
C6 C -0.0995(1) 0.4473(1) 0.1624(2)
C7 C -0.0511(1) 0.3547(1) 0.2077(2)
C8 C -0.2048(2) 0.4498(2) 0.0675(3)
C9 C -0.1027(2) 0.2501(2) 0.1719(3)
H1 H -0.160(1) 0.644(1) 0.114(2)
H2 H -0.165(2) 0.835(2) 0.099(3)
H3 H -0.084(2) 0.992(2) 0.168(3)
H4 H -0.211(2) 0.501(2) -0.026(4)
H5 H -0.228(2) 0.384(3) 0.009(4)
H6 H -0.254(2) 0.473(2) 0.127(4)
H7 H -0.176(2) 0.258(2) 0.173(4)
H8 H -0.084(2) 0.210(2) 0.077(4)
H9 H -0.083(2) 0.199(2) 0.278(3)
C2A C 0.0495(1) 0.7394(1) 0.2959(2)
C1A C 0.0954(1) 0.6431(1) 0.3385(2)
C5A C 0.0500(1) 0.5462(1) 0.2956(2)
C7A C 0.0511(1) 0.3547(1) 0.2923(2)
C6A C 0.0995(1) 0.4473(1) 0.3376(2)
C8A C 0.2048(2) 0.4498(2) 0.4325(3)
H4A H 0.211(2) 0.501(2) 0.526(4)
H5A H 0.228(2) 0.384(3) 0.491(4)
H6A H 0.254(2) 0.473(2) 0.373(4)
C9A C 0.1027(2) 0.2501(2) 0.3281(3)
H7A H 0.176(2) 0.258(2) 0.327(4)
H8A H 0.084(2) 0.210(2) 0.423(4)
H9A H 0.083(2) 0.199(2) 0.222(3)
H1A H 0.160(1) 0.644(1) 0.386(2)
C3A C 0.0960(2) 0.8384(1) 0.3395(3)
C4A C 0.0492(2) 0.9304(1) 0.2962(3)
H3A H 0.084(2) 0.992(2) 0.332(3)
H2A H 0.165(2) 0.835(2) 0.401(3)
loop_
_geom_bond_atom_site_label_1
_geom_bond_atom_site_label_2
_geom_bond_distance
_geom_bond_site_symmetry_1
_geom_bond_site_symmetry_2
C1 C2 1.389 1_555 1_555
C2 C3 1.424 1_555 1_555
C3 C4 1.348 1_555 1_555
C4 H3 0.934 1_555 1_555
C5 C1 1.393 1_555 1_555
C6 C5 1.438 1_555 1_555
C7 C6 1.367 1_555 1_555
C8 C6 1.515 1_555 1_555
C9 C7 1.507 1_555 1_555
H1 C1 0.903 1_555 1_555
H2 C3 0.991 1_555 1_555
H4 C8 0.962 1_555 1_555
H5 C8 0.979 1_555 1_555
H6 C8 0.903 1_555 1_555
H7 C9 0.998 1_555 1_555
H8 C9 0.947 1_555 1_555
H9 C9 1.046 1_555 1_555
C2A C2 1.431 1_555 1_555
C1A C2A 1.389 1_555 1_555
C5A C5 1.441 1_555 1_555
C7A C7 1.450 1_555 1_555
C6A C5A 1.438 1_555 1_555
C8A C6A 1.515 1_555 1_555
H4A C8A 0.962 1_555 1_555
H5A C8A 0.979 1_555 1_555
H6A C8A 0.903 1_555 1_555
C9A C7A 1.507 1_555 1_555
H7A C9A 0.998 1_555 1_555
H8A C9A 0.947 1_555 1_555
H9A C9A 1.046 1_555 1_555
H1A C1A 0.903 1_555 1_555
C3A C2A 1.424 1_555 1_555
C4A C4 1.426 1_555 1_555
H3A C4A 0.934 1_555 1_555
H2A C3A 0.991 1_555 1_555
C1A C5A 1.393 1_555 1_555
C7A C6A 1.367 1_555 1_555
C3A C4A 1.348 1_555 1_555
#END
