
#######################################################################
#
#                 Cambridge Crystallographic Data Centre
#                                CCDC
#
#######################################################################
#
# If this CIF has been generated from an entry in the Cambridge
# Structural Database, then it will include bibliographic, chemical,
# crystal, experimental, refinement or atomic coordinate data resulting
# from the CCDC's data processing and validation procedures.
#
#######################################################################

data_CSD_CIF_KINQAZ
_audit_creation_date 2000-07-14
_audit_creation_method CSD-ConQuest-V1
_database_code_CSD KINQAZ
_chemical_formula_sum 'C30 H26'
_chemical_formula_moiety
;
C30 H26
;
_journal_coden_Cambridge 154
_journal_volume 52
_journal_year 1999
_journal_page_first 213
_journal_name_full 'Aust.J.Chem. '
loop_
_publ_author_name
"N.Lahrahar"
"H.Bouas-Laurent"
"J.-P.Desvergne"
"P.Marsau"
"J.Rigaudy"
_chemical_name_systematic
;
1,2,3,4-Tetramethyl-9,10-diphenylanthracene
;
_chemical_melting_point 547.15
_cell_volume   2134.933
_exptl_crystal_colour 'colorless'
_exptl_crystal_density_diffrn 1.203
_exptl_special_details
;
Melting point range 547.15-549.15K

;
_exptl_crystal_description 'prism'
_exptl_crystal_preparation 'dichloromethane'
_diffrn_ambient_temperature ?
_diffrn_special_details
;
The study was carried out at room temperature,in the range 283-303K

;
#These two values have been output from a single CSD field.
_refine_ls_R_factor_gt 0.042
_refine_ls_wR_factor_gt 0.042
_symmetry_cell_setting monoclinic
_symmetry_space_group_name_H-M 'P 21/c'
_symmetry_Int_Tables_number 14
loop_
_symmetry_equiv_pos_site_id
_symmetry_equiv_pos_as_xyz
1 x,y,z
2 -x,1/2+y,1/2-z
3 -x,-y,-z
4 x,-1/2-y,-1/2+z
_cell_length_a 17.685(3)
_cell_length_b 10.787(3)
_cell_length_c 11.380(2)
_cell_angle_alpha 90
_cell_angle_beta 100.45(9)
_cell_angle_gamma 90
_cell_formula_units_Z 4
loop_
_atom_type_symbol
_atom_type_radius_bond
C 0.68
H 0.23
loop_
_atom_site_label
_atom_site_type_symbol
_atom_site_fract_x
_atom_site_fract_y
_atom_site_fract_z
C1 C 0.1939(1) -0.1364(2) 0.4133(2)
C2 C 0.1375(1) -0.0459(2) 0.3726(2)
C3 C 0.0569(1) -0.0671(2) 0.3699(2)
C4 C 0.0045(1) 0.0239(2) 0.3397(2)
C5 C 0.0275(1) 0.1429(2) 0.3101(2)
C6 C 0.1025(1) 0.1666(2) 0.3080(2)
C7 C 0.1602(1) 0.0726(2) 0.3340(2)
C8 C 0.2371(1) 0.0911(2) 0.3194(2)
C9 C 0.2917(1) -0.0048(2) 0.3467(2)
C10 C 0.3672(1) -0.0010(2) 0.3132(2)
C11 C 0.4228(1) -0.0830(2) 0.3633(2)
C12 C 0.4071(1) -0.1740(2) 0.4471(2)
C13 C 0.3348(1) -0.1892(2) 0.4720(2)
C14 C 0.2725(1) -0.1119(2) 0.4111(2)
C15 C 0.1676(1) -0.2618(2) 0.4443(2)
C16 C 0.1813(1) -0.3626(2) 0.3757(2)
C17 C 0.1559(1) -0.4799(2) 0.3988(2)
C18 C 0.1151(1) -0.4980(2) 0.4893(2)
C19 C 0.1007(1) -0.3987(3) 0.5588(2)
C20 C 0.1270(1) -0.2817(2) 0.5371(2)
C21 C 0.2611(1) 0.2186(2) 0.2897(2)
C22 C 0.3131(1) 0.2827(2) 0.3744(2)
C23 C 0.3382(1) 0.4004(2) 0.3502(2)
C24 C 0.3116(1) 0.4548(2) 0.2412(2)
C25 C 0.2591(1) 0.3934(2) 0.1570(2)
C26 C 0.2336(1) 0.2763(2) 0.1808(2)
C27 C 0.3808(1) 0.0804(2) 0.2109(2)
C28 C 0.5031(1) -0.0770(3) 0.3351(3)
C29 C 0.4728(1) -0.2575(3) 0.5058(3)
C30 C 0.3228(1) -0.2740(2) 0.5723(2)
H1 H 0.0415(9) -0.151(2) 0.393(2)
H2 H -0.052(1) 0.006(2) 0.337(2)
H3 H -0.012(1) 0.210(2) 0.287(2)
H4 H 0.119(1) 0.249(2) 0.287(2)
H5 H 0.333(1) 0.243(2) 0.455(2)
H6 H 0.374(1) 0.445(2) 0.413(2)
H7 H 0.329(1) 0.539(2) 0.222(2)
H8 H 0.241(1) 0.430(2) 0.081(2)
H9 H 0.196(1) 0.235(2) 0.120(2)
H10 H 0.210(1) -0.349(2) 0.304(2)
H11 H 0.167(1) -0.550(2) 0.350(2)
H12 H 0.097(1) -0.582(2) 0.504(2)
H13 H 0.071(1) -0.409(2) 0.625(2)
H14 H 0.120(1) -0.213(2) 0.589(2)
H15 H 0.368(1) -0.280(2) 0.630(2)
H16 H 0.282(1) -0.245(2) 0.616(2)
H17 H 0.307(1) -0.362(2) 0.546(2)
H18 H 0.518(1) -0.242(2) 0.477(2)
H19 H 0.486(1) -0.245(2) 0.584(2)
H20 H 0.464(1) -0.340(2) 0.506(2)
H21 H 0.508(1) -0.001(2) 0.280(2)
H22 H 0.543(1) -0.071(2) 0.403(2)
H23 H 0.518(1) -0.145(2) 0.295(2)
H24 H 0.333(1) 0.107(2) 0.156(2)
H25 H 0.408(1) 0.161(2) 0.240(2)
H26 H 0.413(1) 0.039(2) 0.157(2)
loop_
_geom_bond_atom_site_label_1
_geom_bond_atom_site_label_2
_geom_bond_distance
_geom_bond_site_symmetry_1
_geom_bond_site_symmetry_2
C1 C2 1.412 1_555 1_555
C2 C3 1.438 1_555 1_555
C3 C4 1.351 1_555 1_555
C4 C5 1.406 1_555 1_555
C5 C6 1.355 1_555 1_555
C6 C7 1.431 1_555 1_555
C7 C2 1.432 1_555 1_555
C8 C7 1.414 1_555 1_555
C9 C8 1.411 1_555 1_555
C10 C9 1.454 1_555 1_555
C11 C10 1.368 1_555 1_555
C12 C11 1.430 1_555 1_555
C13 C12 1.369 1_555 1_555
C14 C1 1.420 1_555 1_555
C15 C1 1.493 1_555 1_555
C16 C15 1.385 1_555 1_555
C17 C16 1.384 1_555 1_555
C18 C17 1.374 1_555 1_555
C19 C18 1.382 1_555 1_555
C20 C15 1.397 1_555 1_555
C21 C8 1.496 1_555 1_555
C22 C21 1.390 1_555 1_555
C23 C22 1.389 1_555 1_555
C24 C23 1.376 1_555 1_555
C25 C24 1.377 1_555 1_555
C26 C21 1.393 1_555 1_555
C27 C10 1.512 1_555 1_555
C28 C11 1.513 1_555 1_555
C29 C12 1.525 1_555 1_555
C30 C13 1.507 1_555 1_555
H1 C3 0.994 1_555 1_555
H2 C4 1.013 1_555 1_555
H3 C5 1.007 1_555 1_555
H4 C6 0.979 1_555 1_555
H5 C22 1.016 1_555 1_555
H6 C23 0.989 1_555 1_555
H7 C24 0.996 1_555 1_555
H8 C25 0.952 1_555 1_555
H9 C26 0.976 1_555 1_555
H10 C16 1.046 1_555 1_555
H11 C17 0.979 1_555 1_555
H12 C18 0.985 1_555 1_555
H13 C19 1.000 1_555 1_555
H14 C20 0.969 1_555 1_555
H15 C30 0.940 1_555 1_555
H16 C30 0.998 1_555 1_555
H17 C30 1.019 1_555 1_555
H18 C29 0.932 1_555 1_555
H19 C29 0.888 1_555 1_555
H20 C29 0.904 1_555 1_555
H21 C28 1.045 1_555 1_555
H22 C28 0.949 1_555 1_555
H23 C28 0.927 1_555 1_555
H24 C27 0.998 1_555 1_555
H25 C27 1.019 1_555 1_555
H26 C27 1.013 1_555 1_555
C9 C14 1.441 1_555 1_555
C13 C14 1.453 1_555 1_555
C19 C20 1.383 1_555 1_555
C25 C26 1.384 1_555 1_555
#END
