
#######################################################################
#
#                 Cambridge Crystallographic Data Centre
#                                CCDC
#
#######################################################################
#
# If this CIF has been generated from an entry in the Cambridge
# Structural Database, then it will include bibliographic, chemical,
# crystal, experimental, refinement or atomic coordinate data resulting
# from the CCDC's data processing and validation procedures.
#
#######################################################################

data_CSD_CIF_KOBXEE
_audit_creation_date 1992-03-26
_audit_creation_method CSD-ConQuest-V1
_database_code_CSD KOBXEE
_chemical_formula_sum 'C28 H18'
_chemical_formula_moiety
;
C28 H18
;
_journal_coeditor_code "IUCr HH0453"
_journal_coden_Cambridge 591
_journal_volume 47
_journal_year 1991
_journal_page_first 1848
_journal_name_full 'Acta Crystallogr.,Sect.C:Cryst.Struct.Commun. '
loop_
_publ_author_name
"W.H.Watson"
"R.P.Kashyap"
"B.F.Plummer"
"W.G.Reese"
_chemical_name_systematic
;
7,10-Diphenylfluoranthene
;
_cell_volume   1876.481
_exptl_crystal_colour 'light yellow'
_exptl_crystal_density_diffrn 1.254
_exptl_special_details
;
y(C5B) is 0.3034, not 0.2034

;
_diffrn_ambient_temperature ?
_diffrn_special_details
;
The study was carried out at room temperature,in the range 283-303K

;
#These two values have been output from a single CSD field.
_refine_ls_R_factor_gt 0.0663
_refine_ls_wR_factor_gt 0.0663
_symmetry_cell_setting triclinic
_symmetry_space_group_name_H-M 'P -1'
_symmetry_Int_Tables_number 2
loop_
_symmetry_equiv_pos_site_id
_symmetry_equiv_pos_as_xyz
1 x,y,z
2 -x,-y,-z
_cell_length_a 10.657(2)
_cell_length_b 13.019(2)
_cell_length_c 14.535(2)
_cell_angle_alpha 101.01(1)
_cell_angle_beta 90.90(1)
_cell_angle_gamma 108.01(1)
_cell_formula_units_Z 4
loop_
_atom_type_symbol
_atom_type_radius_bond
C 0.68
H 0.23
loop_
_atom_site_label
_atom_site_type_symbol
_atom_site_fract_x
_atom_site_fract_y
_atom_site_fract_z
C1 C 1.1497(2) 0.4063(2) 0.6220(1)
C2 C 1.0538(2) 0.4607(2) 0.6395(1)
C3 C 1.0917(3) 0.5619(2) 0.6982(2)
C4 C 1.2219(3) 0.6054(2) 0.7413(2)
C5 C 1.3119(3) 0.5510(2) 0.7273(2)
C6 C 1.2782(2) 0.4468(2) 0.6652(2)
C7 C 1.3597(2) 0.3795(2) 0.6402(2)
C8 C 1.3115(3) 0.2816(2) 0.5776(2)
C9 C 1.1812(2) 0.2432(2) 0.5338(2)
C10 C 1.1004(2) 0.3067(2) 0.5550(1)
C11 C 0.9628(2) 0.2976(2) 0.5259(1)
C12 C 0.8719(2) 0.2204(2) 0.4573(1)
C13 C 0.9083(2) 0.1347(2) 0.3905(1)
C14 C 1.0118(2) 0.1678(2) 0.3347(2)
C15 C 1.0491(3) 0.0923(3) 0.2716(2)
C16 C 0.9834(3) -0.0180(3) 0.2626(2)
C17 C 0.8800(3) -0.0522(2) 0.3157(2)
C18 C 0.8419(3) 0.0237(2) 0.3803(2)
C19 C 0.9317(2) 0.3880(2) 0.5815(1)
C20 C 0.8048(2) 0.3953(2) 0.5747(2)
C21 C 0.7621(2) 0.4814(2) 0.6366(2)
C22 C 0.7010(2) 0.5456(2) 0.5992(2)
C23 C 0.6610(3) 0.6246(2) 0.6571(2)
C24 C 0.6798(2) 0.6404(2) 0.7529(2)
C25 C 0.7382(3) 0.5763(2) 0.7913(2)
C26 C 0.7792(2) 0.4972(2) 0.7338(2)
C27 C 0.7120(2) 0.3143(2) 0.5075(2)
C28 C 0.7459(2) 0.2314(2) 0.4487(2)
H1 H 1.0323(22) 0.6070(18) 0.7103(16)
H2 H 1.2473(20) 0.6753(16) 0.7836(14)
H3 H 1.3983(22) 0.5806(17) 0.7611(15)
H4 H 1.4481(19) 0.4053(15) 0.6700(13)
H5 H 1.3662(23) 0.2326(18) 0.5612(15)
H6 H 1.1552(18) 0.1746(15) 0.4898(12)
H7 H 1.0555(18) 0.2471(14) 0.3377(12)
H8 H 1.1241(23) 0.1154(18) 0.2314(16)
H9 H 1.0064(24) -0.0749(20) 0.2176(16)
H10 H 0.8296(23) -0.1230(18) 0.3103(16)
H11 H 0.7706(21) -0.0006(17) 0.4171(14)
H12 H 0.6856(19) 0.5347(15) 0.5314(13)
H13 H 0.6210(22) 0.6721(17) 0.6265(15)
H14 H 0.6509(21) 0.6935(16) 0.7935(14)
H15 H 0.7525(21) 0.5843(17) 0.8589(15)
H16 H 0.8217(20) 0.4521(16) 0.7609(14)
H17 H 0.6231(20) 0.3184(16) 0.5011(13)
H18 H 0.6812(18) 0.1799(15) 0.4016(12)
C29 C 0.4300(2) 0.2039(2) 0.9998(1)
C30 C 0.5634(2) 0.2463(2) 0.9806(2)
C31 C 0.5935(2) 0.3213(2) 0.9233(2)
C32 C 0.4901(3) 0.3495(2) 0.8839(2)
C33 C 0.3610(3) 0.3034(2) 0.8987(2)
C34 C 0.3257(2) 0.2274(2) 0.9589(2)
C35 C 0.1975(2) 0.1717(2) 0.9820(2)
C36 C 0.1812(2) 0.0998(2) 1.0412(2)
C37 C 0.2890(2) 0.0790(2) 1.0836(2)
C38 C 0.4146(2) 0.1324(2) 1.0636(1)
C39 C 0.5493(2) 0.1318(2) 1.0898(1)
C40 C 0.5957(2) 0.0838(2) 1.1546(1)
C41 C 0.5130(2) 0.0303(2) 1.2248(1)
C42 C 0.4367(3) 0.0827(2) 1.2795(2)
C43 C 0.3634(3) 0.0348(3) 1.3468(2)
C44 C 0.3677(3) -0.0656(3) 1.3608(2)
C45 C 0.4439(3) -0.1174(2) 1.3085(2)
C46 C 0.5168(2) -0.0699(2) 1.2410(2)
C47 C 0.6386(2) 0.1957(2) 1.0338(1)
C48 C 0.7708(2) 0.2023(2) 1.0365(1)
C49 C 0.8657(2) 0.2611(2) 0.9752(2)
C50 C 0.9788(2) 0.3455(2) 1.0136(2)
C51 C 1.0679(3) 0.3992(2) 0.9564(2)
C52 C 1.0452(3) 0.3678(2) 0.8603(2)
C53 C 0.9337(3) 0.2830(2) 0.8209(2)
C54 C 0.8449(2) 0.2298(2) 0.8780(2)
C55 C 0.8157(2) 0.1501(2) 1.0998(2)
C56 C 0.7302(3) 0.0931(2) 1.1570(2)
H19 H 0.6836(20) 0.3567(16) 0.9115(14)
H20 H 0.5154(19) 0.4035(15) 0.8457(13)
H21 H 0.2914(20) 0.3200(16) 0.8690(14)
H22 H 0.1233(19) 0.1850(15) 0.9546(13)
H23 H 0.0945(20) 0.0622(16) 1.0555(13)
H24 H 0.2731(18) 0.0264(14) 1.1247(12)
H25 H 0.4391(20) 0.1530(16) 1.2729(13)
H26 H 0.3098(23) 0.0733(18) 1.3855(16)
H27 H 0.3115(26) -0.0986(20) 1.4101(18)
H28 H 0.4464(23) -0.1904(19) 1.3139(16)
H29 H 0.5732(19) -0.1043(15) 1.2037(13)
H30 H 0.9934(19) 0.3699(16) 1.0837(13)
H31 H 1.1460(24) 0.4614(19) 0.9849(16)
H32 H 1.1116(22) 0.4056(18) 0.8165(15)
H33 H 0.9164(22) 0.2596(17) 0.7534(15)
H34 H 0.7682(19) 0.1706(15) 0.8520(13)
H35 H 0.9102(18) 0.1531(15) 1.1045(12)
H36 H 0.7625(17) 0.0627(14) 1.2008(12)
loop_
_geom_bond_atom_site_label_1
_geom_bond_atom_site_label_2
_geom_bond_distance
_geom_bond_site_symmetry_1
_geom_bond_site_symmetry_2
C1 C2 1.413 1_555 1_555
C2 C3 1.363 1_555 1_555
C3 C4 1.411 1_555 1_555
C4 C5 1.354 1_555 1_555
C5 C6 1.416 1_555 1_555
C6 C1 1.396 1_555 1_555
C7 C6 1.419 1_555 1_555
C8 C7 1.362 1_555 1_555
C9 C8 1.416 1_555 1_555
C10 C1 1.409 1_555 1_555
C11 C10 1.482 1_555 1_555
C12 C11 1.388 1_555 1_555
C13 C12 1.484 1_555 1_555
C14 C13 1.388 1_555 1_555
C15 C14 1.369 1_555 1_555
C16 C15 1.369 1_555 1_555
C17 C16 1.365 1_555 1_555
C18 C13 1.376 1_555 1_555
C19 C2 1.483 1_555 1_555
C20 C19 1.388 1_555 1_555
C21 C20 1.489 1_555 1_555
C22 C21 1.385 1_555 1_555
C23 C22 1.378 1_555 1_555
C24 C23 1.370 1_555 1_555
C25 C24 1.372 1_555 1_555
C26 C21 1.389 1_555 1_555
C27 C20 1.406 1_555 1_555
C28 C12 1.400 1_555 1_555
H1 C3 0.985 1_555 1_555
H2 C4 0.953 1_555 1_555
H3 C5 0.965 1_555 1_555
H4 C7 0.961 1_555 1_555
H5 C8 0.990 1_555 1_555
H6 C9 0.952 1_555 1_555
H7 C14 0.985 1_555 1_555
H8 C15 1.002 1_555 1_555
H9 C16 0.984 1_555 1_555
H10 C17 0.900 1_555 1_555
H11 C18 0.945 1_555 1_555
H12 C22 0.972 1_555 1_555
H13 C23 1.012 1_555 1_555
H14 C24 0.950 1_555 1_555
H15 C25 0.973 1_555 1_555
H16 C26 0.976 1_555 1_555
H17 C27 0.969 1_555 1_555
H18 C28 0.958 1_555 1_555
C29 C30 1.411 1_555 1_555
C30 C31 1.369 1_555 1_555
C31 C32 1.410 1_555 1_555
C32 C33 1.359 1_555 1_555
C33 C34 1.413 1_555 1_555
C34 C29 1.393 1_555 1_555
C35 C34 1.414 1_555 1_555
C36 C35 1.363 1_555 1_555
C37 C36 1.417 1_555 1_555
C38 C29 1.412 1_555 1_555
C39 C38 1.482 1_555 1_555
C40 C39 1.387 1_555 1_555
C41 C40 1.491 1_555 1_555
C42 C41 1.384 1_555 1_555
C43 C42 1.383 1_555 1_555
C44 C43 1.375 1_555 1_555
C45 C44 1.362 1_555 1_555
C46 C41 1.381 1_555 1_555
C47 C30 1.475 1_555 1_555
C48 C47 1.384 1_555 1_555
C49 C48 1.488 1_555 1_555
C50 C49 1.377 1_555 1_555
C51 C50 1.385 1_555 1_555
C52 C51 1.374 1_555 1_555
C53 C52 1.373 1_555 1_555
C54 C49 1.388 1_555 1_555
C55 C48 1.401 1_555 1_555
C56 C40 1.400 1_555 1_555
H19 C31 0.962 1_555 1_555
H20 C32 0.955 1_555 1_555
H21 C33 0.953 1_555 1_555
H22 C35 0.957 1_555 1_555
H23 C36 0.950 1_555 1_555
H24 C37 0.971 1_555 1_555
H25 C42 0.931 1_555 1_555
H26 C43 0.987 1_555 1_555
H27 C44 1.014 1_555 1_555
H28 C45 0.977 1_555 1_555
H29 C46 0.969 1_555 1_555
H30 C50 1.002 1_555 1_555
H31 C51 0.982 1_555 1_555
H32 C52 1.033 1_555 1_555
H33 C53 0.967 1_555 1_555
H34 C54 0.946 1_555 1_555
H35 C55 0.996 1_555 1_555
H36 C56 0.924 1_555 1_555
C9 C10 1.368 1_555 1_555
C11 C19 1.426 1_555 1_555
C17 C18 1.389 1_555 1_555
C25 C26 1.382 1_555 1_555
C27 C28 1.387 1_555 1_555
C37 C38 1.369 1_555 1_555
C39 C47 1.433 1_555 1_555
C45 C46 1.381 1_555 1_555
C53 C54 1.379 1_555 1_555
C55 C56 1.383 1_555 1_555
#END
