
#######################################################################
#
#                 Cambridge Crystallographic Data Centre
#                                CCDC
#
#######################################################################
#
# If this CIF has been generated from an entry in the Cambridge
# Structural Database, then it will include bibliographic, chemical,
# crystal, experimental, refinement or atomic coordinate data resulting
# from the CCDC's data processing and validation procedures.
#
#######################################################################

data_CSD_CIF_KOBXEE01
_audit_creation_date 2014-04-08
_audit_creation_method CSD-ConQuest-V1
_database_code_CSD KOBXEE01
_database_code_depnum_ccdc_archive 'CCDC 971315'
_chemical_formula_sum 'C28 H18'
_chemical_formula_moiety
;
C28 H18
;
_journal_coden_Cambridge 1500
_journal_volume 4
_journal_year 2014
_journal_page_first 17171
_journal_name_full 'RSC Advances '
loop_
_publ_author_name
"Hua Wang"
"Yan Liang"
"Yike Wang"
"Huanling Xie"
"Linglong Feng"
"Haifeng Lu"
"Shengyu Feng"
_chemical_name_systematic
;
7,10-Diphenylfluoranthene
;
_cell_volume   1889.792
_diffrn_ambient_temperature 293
#These two values have been output from a single CSD field.
_refine_ls_R_factor_gt 0.0411
_refine_ls_wR_factor_gt 0.0411
_symmetry_cell_setting triclinic
_symmetry_space_group_name_H-M 'P -1'
_symmetry_Int_Tables_number 2
loop_
_symmetry_equiv_pos_site_id
_symmetry_equiv_pos_as_xyz
1 x,y,z
2 -x,-y,-z
_cell_length_a 10.6924(14)
_cell_length_b 13.0351(17)
_cell_length_c 14.5733(19)
_cell_angle_alpha 100.978(2)
_cell_angle_beta 90.8674(19)
_cell_angle_gamma 108.058(2)
_cell_formula_units_Z 4
loop_
_atom_type_symbol
_atom_type_radius_bond
C 0.68
H 0.23
loop_
_atom_site_label
_atom_site_type_symbol
_atom_site_fract_x
_atom_site_fract_y
_atom_site_fract_z
C1 C 0.36227(14) 0.30508(12) 0.96611(10)
C2 C 0.45078(14) 0.36854(12) 0.91031(10)
C3 C 0.57020(15) 0.29645(13) 1.00028(10)
C4 C 0.22918(14) 0.29802(13) 0.96335(10)
C5 C 0.13419(15) 0.23875(13) 1.02443(11)
C6 C 0.40406(15) 0.41681(12) 0.84505(10)
C7 C 0.43693(15) 0.25353(13) 1.01944(10)
C8 C 0.58546(14) 0.36792(12) 0.93625(10)
C9 C 0.48686(15) 0.47106(14) 0.77522(10)
C10 C 0.67480(16) 0.27260(15) 1.04105(12)
C11 C 0.27010(15) 0.40748(14) 0.84252(11)
H1 H 0.23670 0.44020 0.80080
C12 C 0.18595(15) 0.35094(13) 0.90034(11)
H2 H 0.09790 0.34800 0.89730
C13 C 0.71148(15) 0.42165(14) 0.91653(11)
H3 H 0.72610 0.47060 0.87600
C14 C 0.80289(16) 0.32881(16) 1.01815(12)
H4 H 0.87610 0.31660 1.04340
C15 C 0.02078(16) 0.15399(14) 0.98605(13)
H5 H 0.00420 0.13250 0.92130
C16 C 0.81896(16) 0.40074(15) 0.95930(12)
H6 H 0.90420 0.43790 0.94650
C17 C 0.56368(18) 0.41840(17) 0.72068(12)
H7 H 0.56620 0.35030 0.72970
C18 C 0.15580(17) 0.26963(15) 1.12180(12)
H8 H 0.23110 0.32670 1.14890
C19 C 0.48336(17) 0.57167(15) 0.75883(12)
H9 H 0.43140 0.60750 0.79370
C20 C 0.40676(17) 0.17841(15) 1.07669(12)
H10 H 0.31990 0.14680 1.08950
C21 C -0.04579(19) 0.13144(17) 1.13919(15)
H11 H -0.10580 0.09520 1.17720
C22 C 0.06591(19) 0.21596(17) 1.17857(13)
H12 H 0.08120 0.23720 1.24340
C23 C 0.63935(19) 0.19602(17) 1.10081(13)
H13 H 0.70450 0.17700 1.12990
C24 C -0.06806(18) 0.10099(16) 1.04336(15)
H14 H -0.14370 0.04410 1.01670
C25 C 0.5560(2) 0.61937(19) 0.69138(15)
H15 H 0.55290 0.68700 0.68150
C26 C 0.51010(19) 0.14987(17) 1.11597(14)
H16 H 0.48920 0.09770 1.15360
C27 C 0.6365(2) 0.4665(2) 0.65306(14)
H17 H 0.68790 0.43080 0.61720
C28 C 0.6328(2) 0.5671(2) 0.63900(15)
H18 H 0.68230 0.59970 0.59410
C29 C -0.10064(15) 0.19294(13) 0.44529(10)
C30 C 0.06760(15) 0.11170(13) 0.41892(10)
C31 C 0.03659(14) 0.20182(13) 0.47439(10)
C32 C -0.05415(15) 0.03848(13) 0.3608(1)
C33 C 0.09131(16) 0.36540(13) 0.60963(10)
C34 C 0.23758(15) 0.01830(14) 0.36405(11)
C35 C -0.14960(15) 0.09330(13) 0.37827(10)
C36 C 0.19528(15) 0.10443(14) 0.42590(11)
C37 C 0.12831(15) 0.27931(13) 0.54315(10)
C38 C -0.01195(16) 0.33262(15) 0.66565(11)
H19 H -0.05660 0.25790 0.66050
C39 C -0.27859(15) 0.05257(15) 0.33487(11)
C40 C 0.29971(16) -0.04554(14) 0.40108(12)
H20 H 0.31420 -0.03510 0.46580
C41 C 0.28616(16) 0.18485(15) 0.49342(11)
H21 H 0.37150 0.18180 0.49980
C42 C -0.18165(16) 0.25662(14) 0.46652(11)
H22 H -0.15190 0.32370 0.50900
C43 C -0.09237(17) -0.06339(14) 0.30214(11)
H23 H -0.03360 -0.10330 0.29090
C44 C -0.35980(16) 0.11982(16) 0.35954(12)
H24 H -0.44610 0.09720 0.33300
C45 C 0.25377(16) 0.26867(15) 0.55102(11)
H25 H 0.31700 0.31910 0.59600
C46 C 0.22034(17) 0.00206(16) 0.26686(12)
H26 H 0.18080 0.04490 0.24030
C47 C -0.31128(17) 0.21804(16) 0.42243(12)
H27 H -0.36580 0.26130 0.43680
C48 C 0.34030(18) -0.12426(16) 0.34329(14)
H28 H 0.38150 -0.16640 0.36930
C49 C 0.26107(17) -0.07671(17) 0.20921(13)
H29 H 0.24840 -0.08640 0.14450
C50 C -0.04904(19) 0.40868(18) 0.72836(13)
H30 H -0.11920 0.38540 0.76450
C51 C -0.31232(17) -0.05150(16) 0.27309(12)
H31 H -0.39610 -0.08230 0.24200
C52 C 0.32003(17) -0.14069(16) 0.24683(14)
H32 H 0.34610 -0.19450 0.20790
C53 C 0.1589(2) 0.47662(15) 0.62007(12)
H33 H 0.22940 0.50020 0.58430
C54 C -0.22269(17) -0.10688(15) 0.25894(12)
H34 H -0.24820 -0.17600 0.21930
C55 C 0.0175(2) 0.51898(19) 0.73767(14)
H35 H -0.00770 0.57050 0.78010
C56 C 0.1213(3) 0.55349(17) 0.68431(14)
H36 H 0.16660 0.62830 0.69100
loop_
_geom_bond_atom_site_label_1
_geom_bond_atom_site_label_2
_geom_bond_distance
_geom_bond_site_symmetry_1
_geom_bond_site_symmetry_2
C1 C2 1.427 1_555 1_555
C2 C6 1.399 1_555 1_555
C3 C7 1.414 1_555 1_555
C4 C1 1.397 1_555 1_555
C5 C4 1.491 1_555 1_555
C6 C9 1.494 1_555 1_555
C7 C1 1.485 1_555 1_555
C8 C2 1.486 1_555 1_555
C9 C17 1.393 1_555 1_555
C10 C3 1.402 1_555 1_555
C11 C6 1.399 1_555 1_555
H1 C11 0.930 1_555 1_555
C12 C4 1.400 1_555 1_555
H2 C12 0.930 1_555 1_555
C13 C8 1.376 1_555 1_555
H3 C13 0.930 1_555 1_555
C14 C10 1.417 1_555 1_555
H4 C14 0.930 1_555 1_555
C15 C5 1.385 1_555 1_555
H5 C15 0.929 1_555 1_555
C16 C13 1.422 1_555 1_555
H6 C16 0.931 1_555 1_555
C17 H7 0.930 1_555 1_555
C18 C5 1.394 1_555 1_555
H8 C18 0.930 1_555 1_555
C19 C9 1.388 1_555 1_555
H9 C19 0.930 1_555 1_555
C20 C7 1.372 1_555 1_555
H10 C20 0.930 1_555 1_555
C21 H11 0.930 1_555 1_555
C22 C18 1.388 1_555 1_555
H12 C22 0.929 1_555 1_555
C23 C10 1.416 1_555 1_555
H13 C23 0.930 1_555 1_555
C24 C15 1.384 1_555 1_555
H14 C24 0.929 1_555 1_555
C25 C19 1.383 1_555 1_555
H15 C25 0.930 1_555 1_555
C26 C20 1.416 1_555 1_555
H16 C26 0.930 1_555 1_555
C27 C17 1.388 1_555 1_555
H17 C27 0.931 1_555 1_555
C28 C25 1.374 1_555 1_555
H18 C28 0.930 1_555 1_555
C29 C31 1.484 1_555 1_555
C30 C31 1.425 1_555 1_555
C31 C37 1.399 1_555 1_555
C32 C30 1.487 1_555 1_555
C33 C37 1.492 1_555 1_555
C34 C36 1.490 1_555 1_555
C35 C29 1.412 1_555 1_555
C36 C30 1.401 1_555 1_555
C37 C45 1.396 1_555 1_555
C38 C33 1.391 1_555 1_555
H19 C38 0.930 1_555 1_555
C39 C35 1.406 1_555 1_555
C40 C34 1.389 1_555 1_555
H20 C40 0.930 1_555 1_555
C41 C36 1.399 1_555 1_555
H21 C41 0.930 1_555 1_555
C42 C29 1.375 1_555 1_555
H22 C42 0.930 1_555 1_555
C43 C32 1.372 1_555 1_555
H23 C43 0.930 1_555 1_555
C44 C39 1.419 1_555 1_555
H24 C44 0.930 1_555 1_555
C45 C41 1.383 1_555 1_555
H25 C45 0.931 1_555 1_555
C46 C34 1.392 1_555 1_555
H26 C46 0.930 1_555 1_555
C47 C42 1.416 1_555 1_555
H27 C47 0.930 1_555 1_555
C48 C40 1.382 1_555 1_555
H28 C48 0.929 1_555 1_555
C49 C46 1.382 1_555 1_555
H29 C49 0.929 1_555 1_555
C50 C38 1.373 1_555 1_555
H30 C50 0.929 1_555 1_555
C51 C39 1.415 1_555 1_555
H31 C51 0.930 1_555 1_555
C52 C48 1.384 1_555 1_555
H32 C52 0.931 1_555 1_555
C53 C33 1.382 1_555 1_555
H33 C53 0.929 1_555 1_555
C54 C43 1.417 1_555 1_555
H34 C54 0.930 1_555 1_555
C55 C50 1.371 1_555 1_555
H35 C55 0.930 1_555 1_555
C56 C53 1.395 1_555 1_555
H36 C56 0.930 1_555 1_555
C3 C8 1.417 1_555 1_555
C11 C12 1.382 1_555 1_555
C14 C16 1.362 1_555 1_555
C21 C22 1.376 1_555 1_555
C21 C24 1.373 1_555 1_555
C23 C26 1.366 1_555 1_555
C27 C28 1.377 1_555 1_555
C32 C35 1.417 1_555 1_555
C44 C47 1.369 1_555 1_555
C49 C52 1.372 1_555 1_555
C51 C54 1.364 1_555 1_555
C55 C56 1.374 1_555 1_555
#END
