
#######################################################################
#
#                 Cambridge Crystallographic Data Centre
#                                CCDC
#
#######################################################################
#
# If this CIF has been generated from an entry in the Cambridge
# Structural Database, then it will include bibliographic, chemical,
# crystal, experimental, refinement or atomic coordinate data resulting
# from the CCDC's data processing and validation procedures.
#
#######################################################################

data_CSD_CIF_KOJWOW
_audit_creation_date 2009-02-26
_audit_creation_method CSD-ConQuest-V1
_database_code_CSD KOJWOW
_database_code_depnum_ccdc_archive 'CCDC 720021'
_chemical_formula_sum 'C32 H24'
_chemical_formula_moiety
;
C32 H24
;
_journal_coden_Cambridge 4
_journal_volume 130
_journal_year 2008
_journal_page_first 11535
_journal_name_full 'J.Am.Chem.Soc. '
loop_
_publ_author_name
"I.V.Alabugin"
"K.Gilmore"
"S.Patil"
"M.Manoharan"
"S.V.Kovalenko"
"R.J.Clark"
"I.Ghiviriga"
_chemical_name_systematic
;
13-Methyl-1-(p-tolyl)-1,6-dihydrobenzo(a)indeno(2,1-c)fluorene
;
_cell_volume   2113.728
_exptl_crystal_colour 'colorless'
_exptl_crystal_density_diffrn 1.284
_exptl_crystal_description 'irregular'
_diffrn_ambient_temperature 173
#These two values have been output from a single CSD field.
_refine_ls_R_factor_gt 0.0737
_refine_ls_wR_factor_gt 0.0737
_symmetry_cell_setting monoclinic
_symmetry_space_group_name_H-M 'P 21/c'
_symmetry_Int_Tables_number 14
loop_
_symmetry_equiv_pos_site_id
_symmetry_equiv_pos_as_xyz
1 x,y,z
2 -x,1/2+y,1/2-z
3 -x,-y,-z
4 x,-1/2-y,-1/2+z
_cell_length_a 11.0467(17)
_cell_length_b 7.7355(12)
_cell_length_c 24.797(4)
_cell_angle_alpha 90
_cell_angle_beta 94.022(3)
_cell_angle_gamma 90
_cell_formula_units_Z 4
loop_
_atom_type_symbol
_atom_type_radius_bond
C 0.68
H 0.23
loop_
_atom_site_label
_atom_site_type_symbol
_atom_site_fract_x
_atom_site_fract_y
_atom_site_fract_z
C1 C 1.2523(2) 0.5301(3) 0.37745(10)
H1 H 1.24370 0.63620 0.39610
C2 C 1.3636(2) 0.4491(3) 0.37913(10)
H2 H 1.43140 0.50160 0.39830
C3 C 1.3781(2) 0.2940(3) 0.35359(10)
H3 H 1.45550 0.23970 0.35530
C4 C 1.2804(2) 0.2168(3) 0.32549(10)
H4 H 1.28960 0.10870 0.30810
C5 C 1.1694(2) 0.2979(3) 0.32293(9)
C6 C 1.1528(2) 0.4572(3) 0.34860(8)
C7 C 1.0524(2) 0.2365(3) 0.29575(10)
H5 H 1.02830 0.12350 0.31040
H6 H 1.05790 0.22600 0.25620
C8 C 0.9651(2) 0.3759(3) 0.30896(9)
C9 C 1.0237(2) 0.5069(3) 0.33883(8)
C10 C 0.95235(19) 0.6522(3) 0.35352(8)
C11 C 0.8286(2) 0.6513(3) 0.34037(8)
C12 C 0.7687(2) 0.5154(3) 0.31093(8)
C13 C 0.8409(2) 0.3754(3) 0.29368(9)
C14 C 0.7836(2) 0.2435(3) 0.26203(10)
H7 H 0.83080 0.15020 0.25000
C15 C 0.6625(2) 0.2469(4) 0.2484(1)
H8 H 0.62610 0.15680 0.22690
C16 C 0.5912(2) 0.3824(4) 0.26585(10)
H9 H 0.50640 0.38340 0.25630
C17 C 0.6424(2) 0.5125(3) 0.29637(9)
H10 H 0.59260 0.60320 0.30820
C18 C 0.9834(2) 0.8187(3) 0.38089(9)
C19 C 1.0904(2) 0.8936(3) 0.40176(11)
H11 H 1.16550 0.83630 0.39820
C20 C 1.0883(2) 1.0524(3) 0.42787(11)
H12 H 1.16230 1.10070 0.44280
C21 C 0.9816(2) 1.1418(3) 0.43277(9)
C22 C 0.9808(3) 1.3104(3) 0.46283(11)
H13 H 0.97290 1.28800 0.50130
H14 H 0.91230 1.38090 0.44840
H15 H 1.05690 1.37230 0.45830
C23 C 0.8745(2) 1.0719(3) 0.40943(9)
H16 H 0.80030 1.13320 0.41090
C24 C 0.8765(2) 0.9124(3) 0.38402(9)
C25 C 0.7694(2) 0.8161(3) 0.35740(9)
H17 H 0.73930 0.88080 0.32420
C26 C 0.6659(2) 0.7994(3) 0.39435(9)
C27 C 0.6810(2) 0.7087(3) 0.44239(10)
H18 H 0.75470 0.64850 0.45110
C28 C 0.5897(2) 0.7047(3) 0.47789(10)
H19 H 0.60200 0.64210 0.51080
C29 C 0.4807(2) 0.7903(3) 0.46639(10)
C30 C 0.3816(2) 0.7843(4) 0.50537(11)
H20 H 0.34330 0.89830 0.50700
H21 H 0.41660 0.75230 0.54140
H22 H 0.32060 0.69850 0.49300
C31 C 0.4657(2) 0.8801(3) 0.41833(10)
H23 H 0.39180 0.93970 0.40950
C32 C 0.5569(2) 0.8845(3) 0.38281(9)
H24 H 0.54450 0.94710 0.34990
loop_
_geom_bond_atom_site_label_1
_geom_bond_atom_site_label_2
_geom_bond_distance
_geom_bond_site_symmetry_1
_geom_bond_site_symmetry_2
C1 H1 0.950 1_555 1_555
C2 C1 1.378 1_555 1_555
H2 C2 0.950 1_555 1_555
C3 C2 1.371 1_555 1_555
H3 C3 0.951 1_555 1_555
C4 C3 1.379 1_555 1_555
H4 C4 0.950 1_555 1_555
C5 C4 1.375 1_555 1_555
C6 C1 1.388 1_555 1_555
C7 C5 1.493 1_555 1_555
H5 C7 0.990 1_555 1_555
H6 C7 0.990 1_555 1_555
C8 C7 1.498 1_555 1_555
C9 C6 1.480 1_555 1_555
C10 C9 1.434 1_555 1_555
C11 C10 1.383 1_555 1_555
C12 C11 1.417 1_555 1_555
C13 C8 1.398 1_555 1_555
C14 C13 1.410 1_555 1_555
H7 C14 0.951 1_555 1_555
C15 C14 1.357 1_555 1_555
H8 C15 0.950 1_555 1_555
C16 C15 1.398 1_555 1_555
H9 C16 0.950 1_555 1_555
C17 C12 1.417 1_555 1_555
H10 C17 0.951 1_555 1_555
C18 C10 1.485 1_555 1_555
C19 C18 1.384 1_555 1_555
H11 C19 0.950 1_555 1_555
C20 C19 1.390 1_555 1_555
H12 C20 0.950 1_555 1_555
C21 C20 1.379 1_555 1_555
C22 C21 1.503 1_555 1_555
H13 C22 0.979 1_555 1_555
H14 C22 0.980 1_555 1_555
H15 C22 0.981 1_555 1_555
C23 C21 1.390 1_555 1_555
H16 C23 0.950 1_555 1_555
C24 C18 1.392 1_555 1_555
C25 C11 1.507 1_555 1_555
H17 C25 1.000 1_555 1_555
C26 C25 1.520 1_555 1_555
C27 C26 1.382 1_555 1_555
H18 C27 0.950 1_555 1_555
C28 C27 1.385 1_555 1_555
H19 C28 0.950 1_555 1_555
C29 C28 1.386 1_555 1_555
C30 C29 1.511 1_555 1_555
H20 C30 0.980 1_555 1_555
H21 C30 0.980 1_555 1_555
H22 C30 0.980 1_555 1_555
C31 C29 1.379 1_555 1_555
H23 C31 0.950 1_555 1_555
C32 C26 1.384 1_555 1_555
H24 C32 0.951 1_555 1_555
C5 C6 1.405 1_555 1_555
C8 C9 1.388 1_555 1_555
C12 C13 1.428 1_555 1_555
C16 C17 1.358 1_555 1_555
C23 C24 1.386 1_555 1_555
C24 C25 1.510 1_555 1_555
C31 C32 1.384 1_555 1_555
#END
