
#######################################################################
#
#                 Cambridge Crystallographic Data Centre
#                                CCDC
#
#######################################################################
#
# If this CIF has been generated from an entry in the Cambridge
# Structural Database, then it will include bibliographic, chemical,
# crystal, experimental, refinement or atomic coordinate data resulting
# from the CCDC's data processing and validation procedures.
#
#######################################################################

data_CSD_CIF_KOKPAB
_audit_creation_date 2000-07-14
_audit_creation_method CSD-ConQuest-V1
_database_code_CSD KOKPAB
_database_code_depnum_ccdc_archive 'CCDC 138772'
_chemical_formula_sum 'C50 H42'
_chemical_formula_moiety
;
C50 H42
;
_journal_coden_Cambridge 24
_journal_volume 40
_journal_year 1999
_journal_page_first 6435
_journal_name_full 'Tetrahedron Lett. '
loop_
_publ_author_name
"Y.Hayashida"
"Y.Nakamura"
"Y.Chida"
"J.Nishimura"
_chemical_name_systematic
;
syn-2,11,anti-3,10-Tetra(1,4)-naphthalenabicyclo(10.2.0)cyclophane
;
_chemical_name_common
;
(2.6)(4,4')Binaphthylophane
;
_chemical_melting_point 486.15
_cell_volume   3546.826
_exptl_crystal_colour 'colorless'
_exptl_crystal_density_diffrn 1.204
_exptl_special_details
;
Melting point range 486.15-488.15K
In each molecule, one binaphthyl moiety has (R)- and the other 
(S)-configuration
;
_exptl_crystal_description 'prismatic'
_exptl_crystal_preparation 'benzene/hexane'
_diffrn_ambient_temperature ?
_diffrn_special_details
;
The study was carried out at room temperature,in the range 283-303K

;
#These two values have been output from a single CSD field.
_refine_ls_R_factor_gt 0.0608
_refine_ls_wR_factor_gt 0.0608
_symmetry_cell_setting monoclinic
_symmetry_space_group_name_H-M 'P 21/n'
_symmetry_Int_Tables_number 14
loop_
_symmetry_equiv_pos_site_id
_symmetry_equiv_pos_as_xyz
1 x,y,z
2 1/2+x,1/2-y,1/2+z
3 -x,-y,-z
4 -1/2-x,-1/2+y,-1/2-z
_cell_length_a 14.377(1)
_cell_length_b 12.659(2)
_cell_length_c 19.7677(8)
_cell_angle_alpha 90
_cell_angle_beta 99.646(5)
_cell_angle_gamma 90
_cell_formula_units_Z 4
loop_
_atom_type_symbol
_atom_type_radius_bond
C 0.68
H 0.23
loop_
_atom_site_label
_atom_site_type_symbol
_atom_site_fract_x
_atom_site_fract_y
_atom_site_fract_z
C1 C 0.1437(2) 0.1670(3) 0.8786(2)
C2 C 0.2034(2) 0.2082(3) 0.8387(2)
C3 C 0.2963(2) 0.1715(3) 0.8420(2)
C4 C 0.3317(2) 0.0938(3) 0.8870(2)
C5 C 0.2748(2) 0.0546(3) 0.9337(2)
C6 C 0.3081(2) -0.0208(3) 0.9854(2)
C7 C 0.2522(3) -0.0595(4) 1.0283(2)
C8 C 0.1589(3) -0.0260(4) 1.0230(2)
C9 C 0.1234(2) 0.0471(3) 0.9743(2)
C10 C 0.1798(2) 0.0895(3) 0.9288(2)
C11 C 0.0421(2) 0.1986(3) 0.8659(2)
C12 C -0.0243(3) 0.1272(3) 0.8374(2)
C13 C -0.1208(3) 0.1556(3) 0.8213(2)
C14 C -0.1509(3) 0.2543(3) 0.8331(2)
C15 C -0.0840(3) 0.3309(3) 0.8626(2)
C16 C -0.1084(3) 0.4358(4) 0.8769(2)
C17 C -0.0429(3) 0.5077(4) 0.9056(2)
C18 C 0.0526(3) 0.4796(4) 0.9224(2)
C19 C 0.0793(3) 0.3787(3) 0.9094(2)
C20 C 0.0134(3) 0.3022(3) 0.8792(2)
C21 C 0.1531(2) -0.0141(3) 0.6920(2)
C22 C 0.2363(3) 0.0215(3) 0.6767(2)
C23 C 0.3235(2) 0.0010(3) 0.7199(2)
C24 C 0.3279(2) -0.0576(3) 0.7785(2)
C25 C 0.2428(2) -0.1049(3) 0.7927(2)
C26 C 0.2406(3) -0.1729(3) 0.8492(2)
C27 C 0.1588(3) -0.2149(3) 0.8630(2)
C28 C 0.0718(3) -0.1918(3) 0.8208(2)
C29 C 0.0711(2) -0.1271(3) 0.7658(2)
C30 C 0.1548(2) -0.0823(3) 0.7492(2)
C31 C 0.0621(2) 0.0287(3) 0.6537(2)
C32 C 0.0400(3) 0.1305(3) 0.6671(2)
C33 C -0.0427(3) 0.1786(3) 0.6334(2)
C34 C -0.1061(3) 0.1257(4) 0.5867(2)
C35 C -0.0869(3) 0.0193(3) 0.5719(2)
C36 C -0.1481(3) -0.0423(4) 0.5236(2)
C37 C -0.1273(4) -0.1427(4) 0.5087(2)
C38 C -0.0431(3) -0.1892(3) 0.5394(2)
C39 C 0.0183(3) -0.1334(3) 0.5863(2)
C40 C -0.0020(3) -0.0293(3) 0.6044(2)
C41 C -0.2566(3) 0.2793(4) 0.8152(2)
C42 C -0.2864(3) 0.3496(4) 0.7531(3)
C43 C -0.1932(4) 0.1832(5) 0.5511(3)
C44 C 0.4232(2) 0.0404(3) 0.8802(2)
C45 C 0.4941(2) 0.0882(3) 0.8381(2)
C46 C 0.4166(2) -0.0611(3) 0.8317(2)
C47 C 0.5084(2) -0.0216(3) 0.8092(2)
C48 C -0.2595(7) 0.3169(8) 0.6866(4)
C49 C -0.2667(6) 0.2334(7) 0.6538(4)
C50 C -0.2581(4) 0.2177(7) 0.5805(3)
H1 H -0.17250 0.45730 0.86610
H2 H -0.06220 0.57800 0.91450
H3 H 0.09840 0.53010 0.94240
H4 H -0.05500 0.25020 0.64360
H5 H -0.20510 -0.01130 0.50060
H6 H -0.17110 -0.18160 0.47680
H7 H 0.16050 -0.26040 0.90190
H8 H 0.18160 0.26360 0.80760
H9 H 0.27700 -0.10960 1.06260
H10 H 0.12020 -0.05390 1.05310
H11 H -0.28950 0.21390 0.80740
H12 H -0.27490 0.31260 0.85450
H13 H -0.35370 0.34950 0.74470
H14 H -0.26490 0.41900 0.76670
H15 H -0.22540 0.18310 0.68220
H16 H 0.33610 0.19840 0.80980
H17 H 0.36990 -0.04940 0.98870
H18 H 0.05770 0.07510 0.97510
H19 H -0.00660 0.04790 0.82770
H20 H -0.16790 0.10000 0.80150
H21 H 0.14500 0.35710 0.91870
H22 H 0.23870 0.07690 0.64040
H23 H 0.38320 0.03740 0.70470
H24 H 0.30640 -0.18960 0.87950
H25 H 0.01430 -0.22330 0.83870
H26 H 0.00880 -0.10670 0.73700
H27 H 0.08620 0.17190 0.69900
H28 H -0.02700 -0.26950 0.52750
H29 H 0.07640 -0.17000 0.60530
H30 H 0.45730 0.02110 0.92360
H31 H 0.55010 0.12910 0.86420
H32 H 0.46360 0.14160 0.79950
H33 H 0.42480 -0.13370 0.85910
H34 H 0.56250 -0.05820 0.83840
H35 H 0.51420 -0.02140 0.76280
H36 H -0.33110 0.21010 0.65830
H37 H -0.26270 0.28690 0.56460
H38 H -0.30960 0.17640 0.56330
H39 H -0.17230 0.23760 0.52710
H40 H -0.22470 0.13010 0.51940
H41 H -0.28460 0.37700 0.65770
H42 H -0.18890 0.33740 0.69790
loop_
_geom_bond_atom_site_label_1
_geom_bond_atom_site_label_2
_geom_bond_distance
_geom_bond_site_symmetry_1
_geom_bond_site_symmetry_2
C1 C2 1.363 1_555 1_555
C2 C3 1.405 1_555 1_555
C3 C4 1.366 1_555 1_555
C4 C5 1.422 1_555 1_555
C5 C6 1.422 1_555 1_555
C6 C7 1.354 1_555 1_555
C7 C8 1.394 1_555 1_555
C8 C9 1.371 1_555 1_555
C9 C10 1.414 1_555 1_555
C10 C1 1.430 1_555 1_555
C11 C1 1.495 1_555 1_555
C12 C11 1.366 1_555 1_555
C13 C12 1.417 1_555 1_555
C14 C13 1.355 1_555 1_555
C15 C14 1.420 1_555 1_555
C16 C15 1.414 1_555 1_555
C17 C16 1.363 1_555 1_555
C18 C17 1.403 1_555 1_555
C19 C18 1.370 1_555 1_555
C20 C11 1.413 1_555 1_555
C21 C22 1.359 1_555 1_555
C22 C23 1.418 1_555 1_555
C23 C24 1.368 1_555 1_555
C24 C25 1.432 1_555 1_555
C25 C26 1.415 1_555 1_555
C26 C27 1.359 1_555 1_555
C27 C28 1.413 1_555 1_555
C28 C29 1.360 1_555 1_555
C29 C30 1.418 1_555 1_555
C30 C21 1.420 1_555 1_555
C31 C21 1.499 1_555 1_555
C32 C31 1.364 1_555 1_555
C33 C32 1.401 1_555 1_555
C34 C33 1.360 1_555 1_555
C35 C34 1.415 1_555 1_555
C36 C35 1.419 1_555 1_555
C37 C36 1.349 1_555 1_555
C38 C37 1.391 1_555 1_555
C39 C38 1.365 1_555 1_555
C40 C31 1.427 1_555 1_555
C41 C14 1.534 1_555 1_555
C42 C41 1.519 1_555 1_555
C43 C34 1.516 1_555 1_555
C44 C4 1.505 1_555 1_555
C45 C44 1.543 1_555 1_555
C46 C24 1.512 1_555 1_555
C47 C45 1.530 1_555 1_555
C48 C42 1.490 1_555 1_555
C49 C48 1.235 1_555 1_555
C50 C43 1.257 1_555 1_555
H1 C16 0.950 1_555 1_555
H2 C17 0.957 1_555 1_555
H3 C18 0.955 1_555 1_555
H4 C33 0.952 1_555 1_555
H5 C36 0.953 1_555 1_555
H6 C37 0.951 1_555 1_555
H7 C27 0.958 1_555 1_555
H8 C2 0.950 1_555 1_555
H9 C7 0.953 1_555 1_555
H10 C8 0.948 1_555 1_555
H11 C41 0.953 1_555 1_555
H12 C41 0.959 1_555 1_555
H13 C42 0.954 1_555 1_555
H14 C42 0.955 1_555 1_555
H15 C49 0.981 1_555 1_555
H16 C3 0.985 1_555 1_555
H17 C6 0.951 1_555 1_555
H18 C9 1.011 1_555 1_555
H19 C12 1.061 1_555 1_555
H20 C13 1.009 1_555 1_555
H21 C19 0.971 1_555 1_555
H22 C22 1.008 1_555 1_555
H23 C23 1.061 1_555 1_555
H24 C26 1.053 1_555 1_555
H25 C28 1.032 1_555 1_555
H26 C29 1.011 1_555 1_555
H27 C32 0.986 1_555 1_555
H28 C38 1.077 1_555 1_555
H29 C39 0.974 1_555 1_555
H30 C44 0.946 1_555 1_555
H31 C45 1.021 1_555 1_555
H32 C45 1.058 1_555 1_555
H33 C46 1.063 1_555 1_555
H34 C47 1.001 1_555 1_555
H35 C47 0.935 1_555 1_555
H36 C49 0.990 1_555 1_555
H37 C50 0.929 1_555 1_555
H38 C50 0.923 1_555 1_555
H39 C43 0.915 1_555 1_555
H40 C43 0.977 1_555 1_555
H41 C48 0.983 1_555 1_555
H42 C48 1.035 1_555 1_555
C5 C10 1.423 1_555 1_555
C15 C20 1.431 1_555 1_555
C19 C20 1.415 1_555 1_555
C25 C30 1.434 1_555 1_555
C35 C40 1.421 1_555 1_555
C39 C40 1.409 1_555 1_555
C44 C46 1.596 1_555 1_555
C46 C47 1.545 1_555 1_555
C49 C50 1.488 1_555 1_555
#END
