
#######################################################################
#
#                 Cambridge Crystallographic Data Centre
#                                CCDC
#
#######################################################################
#
# If this CIF has been generated from an entry in the Cambridge
# Structural Database, then it will include bibliographic, chemical,
# crystal, experimental, refinement or atomic coordinate data resulting
# from the CCDC's data processing and validation procedures.
#
#######################################################################

data_CSD_CIF_KOKQUW01
_audit_creation_date 2000-07-14
_audit_creation_method CSD-ConQuest-V1
_database_code_CSD KOKQUW01
_database_code_depnum_ccdc_archive 'CCDC 144218'
_database_code_depnum_ccdc_journal 182/1566
_chemical_formula_sum 'C18 H24'
_chemical_formula_moiety
;
C18 H24
;
_journal_coden_Cambridge 182
_journal_year 2000
_journal_page_first 651
_journal_name_full 'Chem.Commun. '
loop_
_publ_author_name
"A.L.Rheingold"
"J.S.Figueroa"
"C.Dybowski"
"P.A.Beckmann"
_chemical_name_systematic
;
2,6-Di-t-butylnaphthalene
;
_chemical_melting_point 419.15
_cell_volume   4774.167
_exptl_crystal_colour 'colorless'
_exptl_crystal_density_diffrn 1.003
_exptl_special_details
;
Melting point range 419.15-420.15K
P21 polymorph E

;
_exptl_crystal_description 'block'
_exptl_crystal_preparation 'ethanol'
_diffrn_ambient_temperature 173
#These two values have been output from a single CSD field.
_refine_ls_R_factor_gt 0.1368
_refine_ls_wR_factor_gt 0.1368
_symmetry_cell_setting monoclinic
_symmetry_space_group_name_H-M 'P 21'
_symmetry_Int_Tables_number 4
loop_
_symmetry_equiv_pos_site_id
_symmetry_equiv_pos_as_xyz
1 x,y,z
2 -x,1/2+y,-z
_cell_length_a 19.6636(1)
_cell_length_b 12.6712(2)
_cell_length_c 19.7853(3)
_cell_angle_alpha 90
_cell_angle_beta 104.4322(1)
_cell_angle_gamma 90
_cell_formula_units_Z 12
loop_
_atom_type_symbol
_atom_type_radius_bond
C 0.68
H 0.23
loop_
_atom_site_label
_atom_site_type_symbol
_atom_site_fract_x
_atom_site_fract_y
_atom_site_fract_z
C1 C 0.4374(5) 0.1550(7) 0.3301(4)
H1 H 0.48470 0.13270 0.33640
C2 C 0.3890(5) 0.1248(7) 0.2689(5)
C3 C 0.3197(5) 0.1545(7) 0.2637(5)
H2 H 0.28570 0.13310 0.22290
C4 C 0.2957(6) 0.2128(8) 0.3128(4)
H3 H 0.24770 0.23130 0.30620
C5 C 0.3259(6) 0.3050(8) 0.4288(4)
H4 H 0.27770 0.32170 0.42330
C6 C 0.3739(6) 0.3375(7) 0.4865(4)
C7 C 0.4492(5) 0.3027(7) 0.4947(4)
H5 H 0.48420 0.32150 0.53550
C8 C 0.4666(6) 0.2454(7) 0.4447(5)
H6 H 0.51400 0.22320 0.45220
C9 C 0.3481(6) 0.2431(7) 0.3739(5)
C10 C 0.4209(5) 0.2169(6) 0.3839(5)
C11 C 0.4075(5) 0.0578(8) 0.2092(5)
C12 C 0.4837(7) 0.0312(13) 0.2267(7)
H7 H 0.49600 -0.00850 0.27060
H8 H 0.51140 0.09640 0.23180
H9 H 0.49400 -0.01180 0.18930
C13 C 0.3651(6) -0.0458(10) 0.2013(7)
H10 H 0.37950 -0.08680 0.24450
H11 H 0.37400 -0.08690 0.16250
H12 H 0.31490 -0.02940 0.19210
C14 C 0.3807(9) 0.1218(12) 0.1392(6)
H13 H 0.33060 0.13770 0.13220
H14 H 0.38760 0.07960 0.09990
H15 H 0.40720 0.18780 0.14200
C15 C 0.3572(5) 0.3983(10) 0.5459(5)
C16 C 0.3859(9) 0.3265(14) 0.6164(6)
H16 H 0.37630 0.36290 0.65670
H17 H 0.43660 0.31560 0.62420
H18 H 0.36200 0.25800 0.61030
C17 C 0.3924(7) 0.5061(10) 0.5510(6)
H19 H 0.37160 0.54720 0.50900
H20 H 0.44280 0.49690 0.55500
H21 H 0.38570 0.54340 0.59220
C18 C 0.2765(6) 0.4106(12) 0.5363(6)
H22 H 0.25730 0.45580 0.49580
H23 H 0.26740 0.44280 0.57820
H24 H 0.25420 0.34110 0.52870
C19 C 0.0851(5) 1.1407(8) -0.6760(4)
H25 H 0.13210 1.11610 -0.66710
C20 C 0.0380(5) 1.1131(7) -0.7398(4)
C21 C -0.0297(5) 1.1484(8) -0.7473(5)
H26 H -0.06380 1.12820 -0.78830
C22 C -0.0521(5) 1.2122(9) -0.6989(4)
H27 H -0.09930 1.23610 -0.70790
C23 C -0.0235(5) 1.3050(8) -0.5835(5)
H28 H -0.07100 1.32670 -0.59070
C24 C 0.0237(5) 1.3344(6) -0.5250(4)
C25 C 0.0938(5) 1.2895(8) -0.5123(4)
H29 H 0.12610 1.30160 -0.46850
C26 C 0.1145(5) 1.2320(8) -0.5601(4)
H30 H 0.16200 1.20980 -0.55140
C27 C -0.0029(5) 1.2396(8) -0.6367(4)
C28 C 0.0657(4) 1.2033(6) -0.6244(4)
C29 C 0.0583(5) 1.0442(9) -0.7957(4)
C30 C 0.1309(6) 1.0341(13) -0.7877(6)
H31 H 0.15210 1.10430 -0.78610
H32 H 0.13960 0.99450 -0.82730
H33 H 0.15170 0.99630 -0.74430
C31 C 0.0182(9) 0.9339(11) -0.8005(8)
H34 H -0.03240 0.94660 -0.80920
H35 H 0.03460 0.89550 -0.75650
H36 H 0.02770 0.89210 -0.83880
C32 C 0.0324(7) 1.1017(11) -0.8684(5)
H37 H 0.05650 1.16970 -0.86680
H38 H -0.01840 1.11330 -0.87840
H39 H 0.04320 1.05760 -0.90520
C33 C 0.0059(5) 1.4038(8) -0.4699(5)
C34 C -0.0689(6) 1.4438(15) -0.4901(8)
H40 H -0.10120 1.38380 -0.50180
H41 H -0.07510 1.49040 -0.53070
H42 H -0.07890 1.48290 -0.45100
C35 C 0.0193(10) 1.3388(13) -0.3985(6)
H43 H 0.06760 1.31240 -0.38610
H44 H -0.01340 1.27910 -0.40440
H45 H 0.01170 1.38500 -0.36130
C36 C 0.0556(6) 1.4970(9) -0.4544(6)
H46 H 0.10420 1.47140 -0.44080
H47 H 0.04570 1.53860 -0.41630
H48 H 0.04910 1.54110 -0.49620
C37 C 0.2598(5) 1.1544(6) -0.1778(4)
H49 H 0.30780 1.13710 -0.17310
C38 C 0.2095(5) 1.1228(7) -0.2379(4)
C39 C 0.1391(5) 1.1478(7) -0.2422(5)
H50 H 0.10440 1.12600 -0.28230
C40 C 0.1175(5) 1.2038(8) -0.1895(4)
H51 H 0.06930 1.21910 -0.19410
C41 C 0.1476(6) 1.2967(7) -0.0744(4)
H52 H 0.09960 1.31270 -0.07860
C42 C 0.1973(5) 1.3287(7) -0.0176(4)
C43 C 0.2713(5) 1.3000(8) -0.0111(4)
H53 H 0.30610 1.32080 0.02920
C44 C 0.2903(5) 1.2444(6) -0.0618(4)
H54 H 0.33830 1.22620 -0.05620
C45 C 0.1689(6) 1.2366(7) -0.1301(4)
C46 C 0.2402(5) 1.2126(6) -0.1231(4)
C47 C 0.2303(6) 1.0596(8) -0.2979(4)
C48 C 0.3090(6) 1.0452(10) -0.2857(5)
H55 H 0.31900 1.00520 -0.32450
H56 H 0.32720 1.00660 -0.24200
H57 H 0.33170 1.11450 -0.28270
C49 C 0.1962(6) 0.9468(11) -0.2999(6)
H58 H 0.14500 0.95380 -0.30920
H59 H 0.21420 0.91170 -0.25490
H60 H 0.20810 0.90470 -0.33700
C50 C 0.2017(6) 1.1178(11) -0.3655(4)
H61 H 0.15140 1.13080 -0.37150
H62 H 0.20880 1.07520 -0.40450
H63 H 0.22620 1.18540 -0.36430
C51 C 0.1807(6) 1.3907(9) 0.0424(5)
C52 C 0.1013(6) 1.4109(10) 0.0338(6)
H64 H 0.08240 1.45070 -0.00930
H65 H 0.09460 1.45160 0.07380
H66 H 0.07670 1.34330 0.03150
C53 C 0.2084(7) 1.3257(12) 0.1146(6)
H67 H 0.18520 1.25660 0.11040
H68 H 0.19730 1.36520 0.15310
H69 H 0.25930 1.31590 0.12400
C54 C 0.2186(6) 1.5010(8) 0.0522(5)
H70 H 0.20010 1.54480 0.01090
H71 H 0.26920 1.49090 0.05830
H72 H 0.21020 1.53620 0.09350
C55 C 0.3401(5) 1.8307(7) -0.4157(4)
H73 H 0.38260 1.86950 -0.40160
C56 C 0.2987(4) 1.8450(6) -0.4804(4)
C57 C 0.2374(6) 1.7821(8) -0.5012(5)
H74 H 0.21000 1.78780 -0.54790
C58 C 0.2155(5) 1.7132(7) -0.4570(4)
H75 H 0.17230 1.67610 -0.47180
C59 C 0.2376(6) 1.6256(7) -0.3397(4)
H76 H 0.19510 1.58700 -0.35460
C60 C 0.2784(6) 1.6122(7) -0.2724(5)
C61 C 0.3425(5) 1.6747(8) -0.2515(5)
H77 H 0.37210 1.66600 -0.20590
C62 C 0.3610(5) 1.7457(7) -0.2960(5)
H78 H 0.40140 1.78850 -0.27950
C63 C 0.2590(5) 1.6992(7) -0.3889(4)
C64 C 0.3211(5) 1.7569(7) -0.3665(4)
C65 C 0.3152(5) 1.9221(8) -0.5342(5)
C66 C 0.3838(5) 1.9899(8) -0.4980(5)
H79 H 0.37390 2.03340 -0.46060
H80 H 0.39640 2.03570 -0.53290
H81 H 0.42290 1.94210 -0.47840
C67 C 0.3362(6) 1.863(1) -0.5926(5)
H82 H 0.29690 1.81930 -0.61770
H83 H 0.37680 1.81780 -0.57290
H84 H 0.34860 1.91370 -0.62500
C68 C 0.2547(6) 1.9961(10) -0.5595(6)
H85 H 0.24430 2.03240 -0.51950
H86 H 0.21340 1.95610 -0.58440
H87 H 0.26700 2.04820 -0.59110
C69 C 0.2618(6) 1.5323(8) -0.2192(5)
C70 C 0.2002(6) 1.4699(11) -0.2499(6)
H88 H 0.16000 1.51670 -0.26730
H89 H 0.19010 1.42240 -0.21450
H90 H 0.20880 1.42820 -0.28860
C71 C 0.2492(7) 1.5941(10) -0.1546(6)
H91 H 0.29040 1.63760 -0.13420
H92 H 0.24150 1.54380 -0.11960
H93 H 0.20780 1.63950 -0.16960
C72 C 0.3261(6) 1.4546(9) -0.1939(6)
H94 H 0.36840 1.49530 -0.17260
H95 H 0.33370 1.41500 -0.23390
H96 H 0.31610 1.40530 -0.15940
C73 C 0.1838(5) 0.8215(7) 0.0908(4)
H97 H 0.22700 0.85870 0.10490
C74 C 0.1423(4) 0.8403(6) 0.0243(4)
C75 C 0.0774(5) 0.7806(7) 0.0051(5)
H98 H 0.04790 0.78750 -0.04070
C76 C 0.0581(5) 0.7153(8) 0.0512(5)
H99 H 0.01380 0.68130 0.03760
C77 C 0.0816(5) 0.6259(7) 0.1674(5)
H100 H 0.03760 0.59090 0.15300
C78 C 0.1242(6) 0.6060(7) 0.2362(5)
C79 C 0.1890(6) 0.6617(9) 0.2532(5)
H101 H 0.22090 0.64940 0.29710
C80 C 0.2073(6) 0.7335(10) 0.2075(5)
H102 H 0.24950 0.77290 0.22290
C81 C 0.1019(5) 0.6952(7) 0.1199(5)
C82 C 0.1662(5) 0.7497(7) 0.1401(5)
C83 C 0.1583(5) 0.9166(7) -0.0272(4)
C84 C 0.2241(5) 0.9819(8) 0.0032(5)
H103 H 0.21760 1.02210 0.04350
H104 H 0.23220 1.03080 -0.03240
H105 H 0.26460 0.93480 0.01810
C85 C 0.1708(6) 0.857(1) -0.0919(5)
H106 H 0.12900 0.81540 -0.11360
H107 H 0.21130 0.80990 -0.07720
H108 H 0.17990 0.90820 -0.12580
C86 C 0.0978(6) 0.9921(10) -0.0524(6)
H109 H 0.05510 0.95210 -0.07310
H110 H 0.10850 1.03960 -0.08750
H111 H 0.09070 1.03360 -0.01290
C87 C 0.1055(6) 0.5305(8) 0.2876(5)
C88 C 0.0399(8) 0.4859(17) 0.2640(9)
H112 H 0.00470 0.54190 0.25010
H113 H 0.02880 0.44360 0.30130
H114 H 0.03940 0.44060 0.22370
C89 C 0.1054(14) 0.5916(12) 0.3558(8)
H115 H 0.14980 0.63000 0.37170
H116 H 0.10020 0.54150 0.39190
H117 H 0.06620 0.64170 0.34660
C90 C 0.1604(7) 0.4435(11) 0.3073(6)
H118 H 0.20640 0.47500 0.32780
H119 H 0.16240 0.40350 0.26540
H120 H 0.14760 0.39610 0.34130
C91 C 0.5008(5) 0.8237(7) 0.0750(4)
H121 H 0.54650 0.85370 0.08540
C92 C 0.4581(5) 0.8467(6) 0.0155(4)
C93 C 0.3874(5) 0.7951(9) -0.0017(5)
H122 H 0.35570 0.80640 -0.04590
C94 C 0.3694(6) 0.7338(8) 0.0448(5)
H123 H 0.32370 0.70370 0.03320
C95 C 0.3942(5) 0.6397(7) 0.1611(4)
H124 H 0.34940 0.60680 0.14960
C96 C 0.4399(5) 0.6200(7) 0.2255(4)
C97 C 0.5079(5) 0.6655(8) 0.2390(5)
H125 H 0.54110 0.64780 0.28130
C98 C 0.5283(6) 0.7356(9) 0.1925(5)
H126 H 0.57260 0.77010 0.20540
C99 C 0.4139(5) 0.7103(6) 0.1106(4)
C100 C 0.4829(5) 0.7538(7) 0.1276(4)
C101 C 0.4743(5) 0.9179(8) -0.0420(5)
C102 C 0.5496(7) 0.9713(16) -0.0124(10)
H127 H 0.54600 1.02680 0.02100
H128 H 0.56580 1.00200 -0.05100
H129 H 0.58320 0.91770 0.01110
C103 C 0.4872(15) 0.8554(16) -0.1019(9)
H130 H 0.44580 0.81210 -0.12220
H131 H 0.52810 0.80950 -0.08520
H132 H 0.49610 0.90360 -0.13740
C104 C 0.4255(7) 1.0029(12) -0.0596(7)
H133 H 0.37910 0.97490 -0.08270
H134 H 0.44110 1.05160 -0.09120
H135 H 0.42290 1.04050 -0.01710
C105 C 0.4229(5) 0.5429(8) 0.2814(5)
C106 C 0.3558(6) 0.4872(13) 0.2554(7)
H136 H 0.35670 0.44860 0.21260
H137 H 0.31730 0.53840 0.24520
H138 H 0.34870 0.43730 0.29090
C107 C 0.4793(6) 0.4538(10) 0.2982(6)
H139 H 0.52560 0.48500 0.31790
H140 H 0.48000 0.41560 0.25530
H141 H 0.46790 0.40470 0.33200
C108 C 0.4232(9) 0.6040(13) 0.3447(7)
H142 H 0.46750 0.64270 0.35960
H143 H 0.41820 0.55580 0.38200
H144 H 0.38400 0.65400 0.33480
loop_
_geom_bond_atom_site_label_1
_geom_bond_atom_site_label_2
_geom_bond_distance
_geom_bond_site_symmetry_1
_geom_bond_site_symmetry_2
C1 H1 0.950 1_555 1_555
C2 C1 1.394 1_555 1_555
C3 C2 1.393 1_555 1_555
H2 C3 0.950 1_555 1_555
C4 C3 1.393 1_555 1_555
H3 C4 0.949 1_555 1_555
C5 H4 0.951 1_555 1_555
C6 C5 1.352 1_555 1_555
C7 C6 1.514 1_555 1_555
H5 C7 0.951 1_555 1_555
C8 C7 1.339 1_555 1_555
H6 C8 0.949 1_555 1_555
C9 C4 1.432 1_555 1_555
C10 C1 1.423 1_555 1_555
C11 C2 1.569 1_555 1_555
C12 C11 1.490 1_555 1_555
H7 C12 0.980 1_555 1_555
H8 C12 0.981 1_555 1_555
H9 C12 0.980 1_555 1_555
C13 C11 1.542 1_555 1_555
H10 C13 0.980 1_555 1_555
H11 C13 0.979 1_555 1_555
H12 C13 0.980 1_555 1_555
C14 C11 1.578 1_555 1_555
H13 C14 0.981 1_555 1_555
H14 C14 0.981 1_555 1_555
H15 C14 0.980 1_555 1_555
C15 C6 1.508 1_555 1_555
C16 C15 1.643 1_555 1_555
H16 C16 0.979 1_555 1_555
H17 C16 0.980 1_555 1_555
H18 C16 0.980 1_555 1_555
C17 C15 1.523 1_555 1_555
H19 C17 0.980 1_555 1_555
H20 C17 0.981 1_555 1_555
H21 C17 0.979 1_555 1_555
C18 C15 1.558 1_555 1_555
H22 C18 0.981 1_555 1_555
H23 C18 0.980 1_555 1_555
H24 C18 0.979 1_555 1_555
C19 H25 0.949 1_555 1_555
C20 C19 1.411 1_555 1_555
C21 C20 1.377 1_555 1_555
H26 C21 0.950 1_555 1_555
C22 C21 1.405 1_555 1_555
H27 C22 0.950 1_555 1_555
C23 H28 0.950 1_555 1_555
C24 C23 1.343 1_555 1_555
C25 C24 1.454 1_555 1_555
H29 C25 0.951 1_555 1_555
C26 C25 1.335 1_555 1_555
H30 C26 0.949 1_555 1_555
C27 C22 1.406 1_555 1_555
C28 C19 1.418 1_555 1_555
C29 C20 1.538 1_555 1_555
C30 C29 1.402 1_555 1_555
H31 C30 0.980 1_555 1_555
H32 C30 0.981 1_555 1_555
H33 C30 0.979 1_555 1_555
C31 C29 1.596 1_555 1_555
H34 C31 0.980 1_555 1_555
H35 C31 0.979 1_555 1_555
H36 C31 0.980 1_555 1_555
C32 C29 1.579 1_555 1_555
H37 C32 0.980 1_555 1_555
H38 C32 0.980 1_555 1_555
H39 C32 0.982 1_555 1_555
C33 C24 1.508 1_555 1_555
C34 C33 1.512 1_555 1_555
H40 C34 0.981 1_555 1_555
H41 C34 0.980 1_555 1_555
H42 C34 0.979 1_555 1_555
C35 C33 1.599 1_555 1_555
H43 C35 0.979 1_555 1_555
H44 C35 0.981 1_555 1_555
H45 C35 0.981 1_555 1_555
C36 C33 1.515 1_555 1_555
H46 C36 0.981 1_555 1_555
H47 C36 0.978 1_555 1_555
H48 C36 0.980 1_555 1_555
C37 H49 0.951 1_555 1_555
C38 C37 1.402 1_555 1_555
C39 C38 1.402 1_555 1_555
H50 C39 0.949 1_555 1_555
C40 C39 1.411 1_555 1_555
H51 C40 0.949 1_555 1_555
C41 H52 0.949 1_555 1_555
C42 C41 1.355 1_555 1_555
C43 C42 1.474 1_555 1_555
H53 C43 0.949 1_555 1_555
C44 C43 1.352 1_555 1_555
H54 C44 0.951 1_555 1_555
C45 C40 1.408 1_555 1_555
C46 C37 1.439 1_555 1_555
C47 C38 1.568 1_555 1_555
C48 C47 1.517 1_555 1_555
H55 C48 0.980 1_555 1_555
H56 C48 0.980 1_555 1_555
H57 C48 0.980 1_555 1_555
C49 C47 1.575 1_555 1_555
H58 C49 0.981 1_555 1_555
H59 C49 0.979 1_555 1_555
H60 C49 0.982 1_555 1_555
C50 C47 1.508 1_555 1_555
H61 C50 0.980 1_555 1_555
H62 C50 0.980 1_555 1_555
H63 C50 0.980 1_555 1_555
C51 C42 1.525 1_555 1_555
C52 C51 1.549 1_555 1_555
H64 C52 0.981 1_555 1_555
H65 C52 0.981 1_555 1_555
H66 C52 0.979 1_555 1_555
C53 C51 1.621 1_555 1_555
H67 C53 0.981 1_555 1_555
H68 C53 0.980 1_555 1_555
H69 C53 0.979 1_555 1_555
C54 C51 1.573 1_555 1_555
H70 C54 0.980 1_555 1_555
H71 C54 0.980 1_555 1_555
H72 C54 0.980 1_555 1_555
C55 H73 0.950 1_555 1_555
C56 C55 1.347 1_555 1_555
C57 C56 1.418 1_555 1_555
H74 C57 0.949 1_555 1_555
C58 C57 1.378 1_555 1_555
H75 C58 0.951 1_555 1_555
C59 H76 0.950 1_555 1_555
C60 C59 1.383 1_555 1_555
C61 C60 1.458 1_555 1_555
H77 C61 0.950 1_555 1_555
C62 C61 1.370 1_555 1_555
H78 C62 0.950 1_555 1_555
C63 C58 1.416 1_555 1_555
C64 C55 1.464 1_555 1_555
C65 C56 1.538 1_555 1_555
C66 C65 1.609 1_555 1_555
H79 C66 0.980 1_555 1_555
H80 C66 0.980 1_555 1_555
H81 C66 0.980 1_555 1_555
C67 C65 1.518 1_555 1_555
H82 C67 0.979 1_555 1_555
H83 C67 0.981 1_555 1_555
H84 C67 0.980 1_555 1_555
C68 C65 1.499 1_555 1_555
H85 C68 0.980 1_555 1_555
H86 C68 0.980 1_555 1_555
H87 C68 0.980 1_555 1_555
C69 C60 1.553 1_555 1_555
C70 C69 1.447 1_555 1_555
H88 C70 0.979 1_555 1_555
H89 C70 0.981 1_555 1_555
H90 C70 0.979 1_555 1_555
C71 C69 1.570 1_555 1_555
H91 C71 0.980 1_555 1_555
H92 C71 0.980 1_555 1_555
H93 C71 0.980 1_555 1_555
C72 C69 1.582 1_555 1_555
H94 C72 0.980 1_555 1_555
H95 C72 0.979 1_555 1_555
H96 C72 0.981 1_555 1_555
C73 H97 0.951 1_555 1_555
C74 C73 1.385 1_555 1_555
C75 C74 1.450 1_555 1_555
H98 C75 0.950 1_555 1_555
C76 C75 1.354 1_555 1_555
H99 C76 0.949 1_555 1_555
C77 H100 0.951 1_555 1_555
C78 C77 1.432 1_555 1_555
C79 C78 1.422 1_555 1_555
H101 C79 0.949 1_555 1_555
C80 C79 1.392 1_555 1_555
H102 C80 0.951 1_555 1_555
C81 C76 1.439 1_555 1_555
C82 C73 1.438 1_555 1_555
C83 C74 1.494 1_555 1_555
C84 C83 1.527 1_555 1_555
H103 C84 0.981 1_555 1_555
H104 C84 0.980 1_555 1_555
H105 C84 0.980 1_555 1_555
C85 C83 1.558 1_555 1_555
H106 C85 0.981 1_555 1_555
H107 C85 0.980 1_555 1_555
H108 C85 0.981 1_555 1_555
C86 C83 1.511 1_555 1_555
H109 C86 0.979 1_555 1_555
H110 C86 0.981 1_555 1_555
H111 C86 0.980 1_555 1_555
C87 C78 1.507 1_555 1_555
C88 C87 1.379 1_555 1_555
H112 C88 0.982 1_555 1_555
H113 C88 0.980 1_555 1_555
H114 C88 0.981 1_555 1_555
C89 C87 1.556 1_555 1_555
H115 C89 0.980 1_555 1_555
H116 C89 0.980 1_555 1_555
H117 C89 0.980 1_555 1_555
C90 C87 1.524 1_555 1_555
H118 C90 0.979 1_555 1_555
H119 C90 0.981 1_555 1_555
H120 C90 0.980 1_555 1_555
C91 H121 0.950 1_555 1_555
C92 C91 1.297 1_555 1_555
C93 C92 1.497 1_555 1_555
H122 C93 0.950 1_555 1_555
C94 C93 1.318 1_555 1_555
H123 C94 0.950 1_555 1_555
C95 H124 0.950 1_555 1_555
C96 C95 1.387 1_555 1_555
C97 C96 1.419 1_555 1_555
H125 C97 0.951 1_555 1_555
C98 C97 1.407 1_555 1_555
H126 C98 0.951 1_555 1_555
C99 C94 1.408 1_555 1_555
C100 C91 1.474 1_555 1_555
C101 C92 1.546 1_555 1_555
C102 C101 1.600 1_555 1_555
H127 C102 0.980 1_555 1_555
H128 C102 0.978 1_555 1_555
H129 C102 0.980 1_555 1_555
C103 C101 1.499 1_555 1_555
H130 C103 0.981 1_555 1_555
H131 C103 0.981 1_555 1_555
H132 C103 0.979 1_555 1_555
C104 C101 1.427 1_555 1_555
H133 C104 0.979 1_555 1_555
H134 C104 0.981 1_555 1_555
H135 C104 0.979 1_555 1_555
C105 C96 1.573 1_555 1_555
C106 C105 1.472 1_555 1_555
H136 C106 0.982 1_555 1_555
H137 C106 0.979 1_555 1_555
H138 C106 0.981 1_555 1_555
C107 C105 1.559 1_555 1_555
H139 C107 0.980 1_555 1_555
H140 C107 0.980 1_555 1_555
H141 C107 0.979 1_555 1_555
C108 C105 1.471 1_555 1_555
H142 C108 0.979 1_555 1_555
H143 C108 0.982 1_555 1_555
H144 C108 0.979 1_555 1_555
C5 C9 1.491 1_555 1_555
C8 C10 1.359 1_555 1_555
C9 C10 1.434 1_555 1_555
C23 C27 1.474 1_555 1_555
C26 C28 1.436 1_555 1_555
C27 C28 1.388 1_555 1_555
C41 C45 1.483 1_555 1_555
C44 C46 1.417 1_555 1_555
C45 C46 1.407 1_555 1_555
C59 C63 1.483 1_555 1_555
C62 C64 1.427 1_555 1_555
C63 C64 1.397 1_555 1_555
C77 C81 1.414 1_555 1_555
C80 C82 1.392 1_555 1_555
C81 C82 1.408 1_555 1_555
C95 C99 1.463 1_555 1_555
C98 C100 1.388 1_555 1_555
C99 C100 1.425 1_555 1_555
#END
