
#######################################################################
#
#                 Cambridge Crystallographic Data Centre
#                                CCDC
#
#######################################################################
#
# If this CIF has been generated from an entry in the Cambridge
# Structural Database, then it will include bibliographic, chemical,
# crystal, experimental, refinement or atomic coordinate data resulting
# from the CCDC's data processing and validation procedures.
#
#######################################################################

data_CSD_CIF_KOKQUW
_audit_creation_date 2000-07-14
_audit_creation_method CSD-ConQuest-V1
_database_code_CSD KOKQUW
_database_code_depnum_ccdc_archive 'CCDC 144219'
_database_code_depnum_ccdc_journal 182/1566
_chemical_formula_sum 'C18 H24'
_chemical_formula_moiety
;
C18 H24
;
_journal_coden_Cambridge 182
_journal_year 2000
_journal_page_first 651
_journal_name_full 'Chem.Commun. '
loop_
_publ_author_name
"A.L.Rheingold"
"J.S.Figueroa"
"C.Dybowski"
"P.A.Beckmann"
_chemical_name_systematic
;
2,6-Di-t-butylnaphthalene
;
_chemical_melting_point 417.15
_cell_volume    752.068
_exptl_crystal_colour 'colorless'
_exptl_crystal_density_diffrn 1.061
_exptl_special_details
;
Melting point range 417.15-419.15K
P21/c polymorph A
phase transition below 144 deg.C
;
_exptl_crystal_description 'plate'
_exptl_crystal_preparation 'acetone'
_diffrn_ambient_temperature 223
#These two values have been output from a single CSD field.
_refine_ls_R_factor_gt 0.0746
_refine_ls_wR_factor_gt 0.0746
_symmetry_cell_setting monoclinic
_symmetry_space_group_name_H-M 'P 21/c'
_symmetry_Int_Tables_number 14
loop_
_symmetry_equiv_pos_site_id
_symmetry_equiv_pos_as_xyz
1 x,y,z
2 x,1/2-y,1/2+z
3 -x,-y,-z
4 -x,-1/2+y,-1/2-z
_cell_length_a 11.3649(4)
_cell_length_b 9.9406(3)
_cell_length_c 6.6728(2)
_cell_angle_alpha 90
_cell_angle_beta 93.943(2)
_cell_angle_gamma 90
_cell_formula_units_Z 2
loop_
_atom_type_symbol
_atom_type_radius_bond
C 0.68
H 0.23
loop_
_atom_site_label
_atom_site_type_symbol
_atom_site_fract_x
_atom_site_fract_y
_atom_site_fract_z
C1 C 0.6471(2) 0.4333(3) -0.0615(3)
C2 C 0.6825(2) 0.5233(2) -0.2006(3)
C3 C 0.6058(2) 0.6329(3) -0.2522(3)
H1 H 0.6292(19) 0.6996(28) -0.3506(35)
C4 C 0.5002(2) 0.6476(3) -0.1693(3)
H2 H 0.4462(20) 0.7218(30) -0.2092(35)
C5 C 0.5378(2) 0.4457(2) 0.0275(3)
C6 C 0.7982(2) 0.5107(3) -0.3043(3)
C7 C 0.7705(3) 0.4977(4) -0.5314(4)
H3 H 0.8440(23) 0.4904(24) -0.5986(38)
H4 H 0.7228(25) 0.5783(31) -0.5910(42)
H5 H 0.7143(26) 0.4216(33) -0.5592(43)
C8 C 0.8733(2) 0.6367(4) -0.2602(4)
H6 H 0.9493(23) 0.6274(28) -0.3259(38)
H7 H 0.8962(23) 0.6477(28) -0.1103(44)
H8 H 0.8294(27) 0.7221(35) -0.3155(46)
C9 C 0.8687(2) 0.3869(4) -0.2328(5)
H9 H 0.9444(24) 0.3872(30) -0.3063(38)
H10 H 0.8940(21) 0.3916(27) -0.0860(41)
H11 H 0.8240(25) 0.2982(35) -0.2625(38)
H12 H 0.6987(20) 0.3616(25) -0.0157(33)
C5B C 0.4622(2) 0.5543(2) -0.0275(3)
C1B C 0.3529(2) 0.5667(3) 0.0615(3)
C2B C 0.3175(2) 0.4767(2) 0.2006(3)
C3B C 0.3942(2) 0.3671(3) 0.2522(3)
H1B H 0.3708(19) 0.3004(28) 0.3506(35)
C4B C 0.4998(2) 0.3524(3) 0.1693(3)
H2B H 0.5538(20) 0.2782(30) 0.2092(35)
C6B C 0.2018(2) 0.4893(3) 0.3043(3)
C7B C 0.2295(3) 0.5023(4) 0.5314(4)
H3B H 0.1560(23) 0.5096(24) 0.5986(38)
H4B H 0.2772(25) 0.4217(31) 0.5910(42)
H5B H 0.2857(26) 0.5784(33) 0.5592(43)
C8B C 0.1267(2) 0.3633(4) 0.2602(4)
H6B H 0.0507(23) 0.3726(28) 0.3259(38)
H7B H 0.1038(23) 0.3523(28) 0.1103(44)
H8B H 0.1706(27) 0.2779(35) 0.3155(46)
C9B C 0.1313(2) 0.6131(4) 0.2328(5)
H9B H 0.0556(24) 0.6128(30) 0.3063(38)
H10B H 0.1060(21) 0.6084(27) 0.0860(41)
H11B H 0.1760(25) 0.7018(35) 0.2625(38)
H12B H 0.3013(20) 0.6384(25) 0.0157(33)
loop_
_geom_bond_atom_site_label_1
_geom_bond_atom_site_label_2
_geom_bond_distance
_geom_bond_site_symmetry_1
_geom_bond_site_symmetry_2
C1 C2 1.369 1_555 1_555
C2 C3 1.423 1_555 1_555
C3 H1 0.983 1_555 1_555
C4 C3 1.363 1_555 1_555
H2 C4 0.984 1_555 1_555
C5 C1 1.419 1_555 1_555
C6 C2 1.533 1_555 1_555
C7 C6 1.532 1_555 1_555
H3 C7 0.978 1_555 1_555
H4 C7 1.032 1_555 1_555
H5 C7 0.999 1_555 1_555
C8 C6 1.533 1_555 1_555
H6 C8 0.999 1_555 1_555
H7 C8 1.022 1_555 1_555
H8 C8 1.039 1_555 1_555
C9 C6 1.527 1_555 1_555
H9 C9 1.019 1_555 1_555
H10 C9 1.003 1_555 1_555
H11 C9 1.030 1_555 1_555
H12 C1 0.960 1_555 1_555
C5B C4 1.414 1_555 1_555
C1B C5B 1.419 1_555 1_555
C2B C1B 1.369 1_555 1_555
C3B C2B 1.423 1_555 1_555
H1B C3B 0.983 1_555 1_555
C4B C5 1.414 1_555 1_555
H2B C4B 0.984 1_555 1_555
C6B C2B 1.533 1_555 1_555
C7B C6B 1.532 1_555 1_555
H3B C7B 0.978 1_555 1_555
H4B C7B 1.032 1_555 1_555
H5B C7B 0.999 1_555 1_555
C8B C6B 1.533 1_555 1_555
H6B C8B 0.999 1_555 1_555
H7B C8B 1.022 1_555 1_555
H8B C8B 1.039 1_555 1_555
C9B C6B 1.527 1_555 1_555
H9B C9B 1.019 1_555 1_555
H10B C9B 1.003 1_555 1_555
H11B C9B 1.030 1_555 1_555
H12B C1B 0.960 1_555 1_555
C5 C5B 1.412 1_555 1_555
C3B C4B 1.363 1_555 1_555
#END
