
#######################################################################
#
#                 Cambridge Crystallographic Data Centre
#                                CCDC
#
#######################################################################
#
# If this CIF has been generated from an entry in the Cambridge
# Structural Database, then it will include bibliographic, chemical,
# crystal, experimental, refinement or atomic coordinate data resulting
# from the CCDC's data processing and validation procedures.
#
#######################################################################

data_CSD_CIF_KOKQUW02
_audit_creation_date 2012-10-16
_audit_creation_method CSD-ConQuest-V1
_database_code_CSD KOKQUW02
_database_code_depnum_ccdc_archive 'CCDC 886377'
_chemical_formula_sum 'C18 H24'
_chemical_formula_moiety
;
C18 H24
;
_journal_coden_Cambridge 1078
_journal_year 2012
_journal_name_full 'CSD Communication(Private Communication) '
loop_
_publ_author_name
"P.Beckmann"
"A.L.Rheingold"
_chemical_name_systematic
;
2,6-Di-t-butylnaphthalene
;
_cell_volume    735.433
_exptl_crystal_colour 'colorless'
_exptl_crystal_density_diffrn 1.085
_exptl_special_details
;
P21/c polymorph A
contribution from Department of Chemistry,University of California, San 
Diego, 9500 Gilman Drive, La Jolla, CA 92093-0358, USA
;
_exptl_crystal_description 'plate'
_diffrn_ambient_temperature 100
#These two values have been output from a single CSD field.
_refine_ls_R_factor_gt 0.0356
_refine_ls_wR_factor_gt 0.0356
_symmetry_cell_setting monoclinic
_symmetry_space_group_name_H-M 'P 21/c'
_symmetry_Int_Tables_number 14
loop_
_symmetry_equiv_pos_site_id
_symmetry_equiv_pos_as_xyz
1 x,y,z
2 -x,1/2+y,1/2-z
3 -x,-y,-z
4 x,-1/2-y,-1/2+z
_cell_length_a 11.3211(6)
_cell_length_b 9.7983(6)
_cell_length_c 6.6452(4)
_cell_angle_alpha 90
_cell_angle_beta 93.895(3)
_cell_angle_gamma 90
_cell_formula_units_Z 2
loop_
_atom_type_symbol
_atom_type_radius_bond
C 0.68
H 0.23
loop_
_atom_site_label
_atom_site_type_symbol
_atom_site_fract_x
_atom_site_fract_y
_atom_site_fract_z
C1 C 0.72886(10) 0.00275(12) 0.53398(16)
H1 H 0.65510 0.01120 0.60200
H2 H 0.77750 0.08430 0.56070
H3 H 0.77230 -0.07800 0.58480
C2 C 0.62502(9) -0.14059(12) 0.26384(17)
H4 H 0.55260 -0.13470 0.33630
H5 H 0.67050 -0.22120 0.30980
H6 H 0.60410 -0.14810 0.11870
C3 C 0.62739(9) 0.11221(12) 0.23136(18)
H7 H 0.55410 0.11640 0.30160
H8 H 0.60800 0.10410 0.08590
H9 H 0.67350 0.19560 0.25900
C4 C 0.70009(9) -0.01179(11) 0.30562(16)
C5 C 1.00139(9) -0.1486(1) 0.17364(15)
H10 H 1.05130 -0.22310 0.21340
C6 C 0.89469(9) -0.13421(11) 0.25679(15)
H11 H 0.87230 -0.19880 0.35370
C7 C 0.81648(8) -0.02447(10) 0.20121(15)
C8 C 0.85075(8) 0.06577(10) 0.05896(15)
H12 H 0.79900 0.13840 0.01780
C9 C 0.96145(8) 0.05426(10) -0.02928(15)
C1B C 1.27114(10) -0.00275(12) -0.53398(16)
H1B H 1.34490 -0.01120 -0.60200
H2B H 1.22250 -0.08430 -0.56070
H3B H 1.22770 0.07800 -0.58480
C2B C 1.37498(9) 0.14059(12) -0.26384(17)
H4B H 1.44740 0.13470 -0.33630
H5B H 1.32950 0.22120 -0.30980
H6B H 1.39590 0.14810 -0.11870
C3B C 1.37261(9) -0.11221(12) -0.23136(18)
H7B H 1.44590 -0.11640 -0.30160
H8B H 1.39200 -0.10410 -0.08590
H9B H 1.32650 -0.19560 -0.25900
C4B C 1.29991(9) 0.01179(11) -0.30562(16)
C5B C 0.99861(9) 0.1486(1) -0.17364(15)
H10B H 0.94870 0.22310 -0.21340
C6B C 1.10531(9) 0.13421(11) -0.25679(15)
H11B H 1.12770 0.19880 -0.35370
C7B C 1.18352(8) 0.02447(10) -0.20121(15)
C8B C 1.14925(8) -0.06577(10) -0.05896(15)
H12B H 1.20100 -0.13840 -0.01780
C9B C 1.03855(8) -0.05426(10) 0.02928(15)
loop_
_geom_bond_atom_site_label_1
_geom_bond_atom_site_label_2
_geom_bond_distance
_geom_bond_site_symmetry_1
_geom_bond_site_symmetry_2
C1 H1 0.980 1_555 1_555
H2 C1 0.980 1_555 1_555
H3 C1 0.979 1_555 1_555
C2 H4 0.980 1_555 1_555
H5 C2 0.980 1_555 1_555
H6 C2 0.980 1_555 1_555
C3 H7 0.980 1_555 1_555
H8 C3 0.980 1_555 1_555
H9 C3 0.980 1_555 1_555
C4 C1 1.537 1_555 1_555
C5 H10 0.950 1_555 1_555
C6 C5 1.369 1_555 1_555
H11 C6 0.950 1_555 1_555
C7 C4 1.535 1_555 1_555
C8 C7 1.370 1_555 1_555
H12 C8 0.950 1_555 1_555
C9 C8 1.424 1_555 1_555
C1B H1B 0.980 1_555 1_555
H2B C1B 0.980 1_555 1_555
H3B C1B 0.979 1_555 1_555
C2B H4B 0.980 1_555 1_555
H5B C2B 0.980 1_555 1_555
H6B C2B 0.980 1_555 1_555
C3B H7B 0.980 1_555 1_555
H8B C3B 0.980 1_555 1_555
H9B C3B 0.980 1_555 1_555
C4B C1B 1.537 1_555 1_555
C5B C9 1.417 1_555 1_555
H10B C5B 0.950 1_555 1_555
C6B C5B 1.369 1_555 1_555
H11B C6B 0.950 1_555 1_555
C7B C4B 1.535 1_555 1_555
C8B C7B 1.370 1_555 1_555
H12B C8B 0.950 1_555 1_555
C9B C5 1.417 1_555 1_555
C2 C4 1.536 1_555 1_555
C3 C4 1.530 1_555 1_555
C6 C7 1.426 1_555 1_555
C9 C9B 1.413 1_555 1_555
C2B C4B 1.536 1_555 1_555
C3B C4B 1.530 1_555 1_555
C6B C7B 1.426 1_555 1_555
C8B C9B 1.424 1_555 1_555
#END
