
#######################################################################
#
#                 Cambridge Crystallographic Data Centre
#                                CCDC
#
#######################################################################
#
# If this CIF has been generated from an entry in the Cambridge
# Structural Database, then it will include bibliographic, chemical,
# crystal, experimental, refinement or atomic coordinate data resulting
# from the CCDC's data processing and validation procedures.
#
#######################################################################

data_CSD_CIF_KUBBOA
_audit_creation_date 2014-12-02
_audit_creation_method CSD-ConQuest-V1
_database_code_CSD KUBBOA
_database_code_depnum_ccdc_archive 'CCDC 1010824'
_chemical_formula_sum 'C42 H26'
_chemical_formula_moiety
;
C42 H26
;
_journal_coden_Cambridge 1500
_journal_volume 5
_journal_year 2015
_journal_page_first 1079
_journal_name_full 'RSC Advances '
loop_
_publ_author_name
"Guo-Feng Zhang"
"M.P.Aldred"
"Ze-Qiang Chen"
"Tao Chen"
"Xianggao Meng"
"Ming-Qiang Zhu"
_chemical_name_systematic
;
9,9'-(9H-fluoren-9-ylidenemethylene)dianthracene
;
_cell_volume   2705.666
_exptl_crystal_density_diffrn 1.303
_diffrn_ambient_temperature 296
#These two values have been output from a single CSD field.
_refine_ls_R_factor_gt 0.0472
_refine_ls_wR_factor_gt 0.0472
_symmetry_cell_setting monoclinic
_symmetry_space_group_name_H-M 'P 21/c'
_symmetry_Int_Tables_number 14
loop_
_symmetry_equiv_pos_site_id
_symmetry_equiv_pos_as_xyz
1 x,y,z
2 -x,1/2+y,1/2-z
3 -x,-y,-z
4 x,-1/2-y,-1/2+z
_cell_length_a 17.948(3)
_cell_length_b 7.2978(13)
_cell_length_c 21.108(4)
_cell_angle_alpha 90
_cell_angle_beta 101.866(3)
_cell_angle_gamma 90
_cell_formula_units_Z 4
loop_
_atom_type_symbol
_atom_type_radius_bond
C 0.68
H 0.23
loop_
_atom_site_label
_atom_site_type_symbol
_atom_site_fract_x
_atom_site_fract_y
_atom_site_fract_z
C1 C 0.37342(10) 0.1031(3) 0.54863(9)
C2 C 0.37660(12) -0.0658(3) 0.51503(10)
H1 H 0.33710 -0.09590 0.48070
C3 C 0.43611(13) -0.1837(3) 0.53214(11)
H2 H 0.43670 -0.29200 0.50900
C4 C 0.49673(13) -0.1445(4) 0.58419(13)
H3 H 0.53740 -0.22540 0.59490
C5 C 0.49546(13) 0.0104(4) 0.61822(12)
H4 H 0.53510 0.03380 0.65320
C6 C 0.43544(11) 0.1395(3) 0.60242(10)
C7 C 0.43392(12) 0.2995(3) 0.63811(11)
H5 H 0.47330 0.32120 0.67350
C8 C 0.37592(12) 0.4279(3) 0.62291(9)
C9 C 0.31407(11) 0.3946(3) 0.56917(9)
C10 C 0.31274(11) 0.2291(3) 0.53331(9)
C11 C 0.25735(12) 0.5339(3) 0.55587(10)
H6 H 0.21710 0.51940 0.52060
C12 C 0.25980(14) 0.6869(3) 0.59266(11)
H7 H 0.22120 0.77360 0.58260
C13 C 0.32039(15) 0.7157(3) 0.64603(11)
H8 H 0.32140 0.82040 0.67130
C14 C 0.37655(14) 0.5916(3) 0.66019(10)
H9 H 0.41670 0.61260 0.69500
C15 C 0.24516(11) 0.1929(3) 0.47981(9)
C16 C 0.17353(11) 0.1969(3) 0.49181(9)
C17 C 0.15161(11) 0.1864(3) 0.55621(9)
C18 C 0.19394(12) 0.1475(3) 0.61775(9)
H10 H 0.24630 0.12960 0.62410
C19 C 0.15757(14) 0.1360(3) 0.66911(11)
H11 H 0.18570 0.11100 0.71030
C20 C 0.07997(16) 0.1610(4) 0.66008(12)
H12 H 0.05640 0.15350 0.69530
C21 C 0.03669(15) 0.1971(4) 0.59928(12)
H13 H -0.01570 0.21270 0.59320
C22 C 0.07289(12) 0.2095(3) 0.54766(11)
C23 C 0.04132(12) 0.2394(3) 0.47903(10)
C24 C -0.03242(14) 0.2837(4) 0.44846(13)
H14 H -0.07060 0.29480 0.47200
C25 C -0.04798(14) 0.3110(4) 0.38259(14)
H15 H -0.09720 0.34100 0.36140
C26 C 0.00893(14) 0.2942(4) 0.34740(12)
H16 H -0.00260 0.31270 0.30290
C27 C 0.08253(12) 0.2502(3) 0.37771(10)
H17 H 0.12030 0.23870 0.35370
C28 C 0.09978(11) 0.2234(3) 0.44441(10)
C29 C 0.25700(11) 0.1545(3) 0.41280(9)
C30 C 0.22673(11) -0.0104(3) 0.38180(9)
C31 C 0.18925(12) -0.1472(3) 0.41213(10)
H18 H 0.18650 -0.13260 0.45540
C32 C 0.15753(13) -0.2978(3) 0.37977(11)
H19 H 0.13320 -0.38370 0.40100
C33 C 0.16106(14) -0.3256(3) 0.31426(11)
H20 H 0.13750 -0.42700 0.29200
C34 C 0.19873(14) -0.2047(3) 0.28405(11)
H21 H 0.20190 -0.22550 0.24120
C35 C 0.23386(12) -0.0457(3) 0.31633(9)
C36 C 0.27373(13) 0.0774(3) 0.28556(9)
H22 H 0.27910 0.05240 0.24350
C37 C 0.30572(11) 0.2364(3) 0.31550(9)
C38 C 0.29605(10) 0.2788(3) 0.37986(9)
C39 C 0.32547(12) 0.4507(3) 0.40646(10)
H23 H 0.32020 0.48240 0.44800
C40 C 0.36094(12) 0.5690(3) 0.37253(11)
H24 H 0.37870 0.68060 0.39090
C41 C 0.37110(13) 0.5240(4) 0.30965(11)
H25 H 0.39630 0.60490 0.28720
C42 C 0.34413(13) 0.3633(4) 0.28229(10)
H26 H 0.35080 0.33510 0.24090
loop_
_geom_bond_atom_site_label_1
_geom_bond_atom_site_label_2
_geom_bond_distance
_geom_bond_site_symmetry_1
_geom_bond_site_symmetry_2
C1 C2 1.429 1_555 1_555
C2 H1 0.930 1_555 1_555
C3 C2 1.361 1_555 1_555
H2 C3 0.930 1_555 1_555
C4 C3 1.408 1_555 1_555
H3 C4 0.930 1_555 1_555
C5 C4 1.342 1_555 1_555
H4 C5 0.930 1_555 1_555
C6 C1 1.442 1_555 1_555
C7 C6 1.393 1_555 1_555
H5 C7 0.930 1_555 1_555
C8 C7 1.388 1_555 1_555
C9 C8 1.435 1_555 1_555
C10 C1 1.411 1_555 1_555
C11 C9 1.425 1_555 1_555
H6 C11 0.931 1_555 1_555
C12 C11 1.356 1_555 1_555
H7 C12 0.930 1_555 1_555
C13 C12 1.411 1_555 1_555
H8 C13 0.930 1_555 1_555
C14 C8 1.429 1_555 1_555
H9 C14 0.930 1_555 1_555
C15 C10 1.501 1_555 1_555
C16 C15 1.361 1_555 1_555
C17 C16 1.493 1_555 1_555
C18 C17 1.393 1_555 1_555
H10 C18 0.931 1_555 1_555
C19 C18 1.378 1_555 1_555
H11 C19 0.929 1_555 1_555
C20 C19 1.378 1_555 1_555
H12 C20 0.929 1_555 1_555
C21 C20 1.382 1_555 1_555
H13 C21 0.929 1_555 1_555
C22 C17 1.397 1_555 1_555
C23 C22 1.459 1_555 1_555
C24 C23 1.386 1_555 1_555
H14 C24 0.929 1_555 1_555
C25 C24 1.375 1_555 1_555
H15 C25 0.931 1_555 1_555
C26 C25 1.386 1_555 1_555
H16 C26 0.929 1_555 1_555
C27 C26 1.382 1_555 1_555
H17 C27 0.930 1_555 1_555
C28 C16 1.499 1_555 1_555
C29 C15 1.499 1_555 1_555
C30 C29 1.423 1_555 1_555
C31 C30 1.427 1_555 1_555
H18 C31 0.931 1_555 1_555
C32 C31 1.356 1_555 1_555
H19 C32 0.930 1_555 1_555
C33 C32 1.412 1_555 1_555
H20 C33 0.930 1_555 1_555
C34 C33 1.349 1_555 1_555
H21 C34 0.930 1_555 1_555
C35 C30 1.437 1_555 1_555
C36 C35 1.390 1_555 1_555
H22 C36 0.931 1_555 1_555
C37 C36 1.388 1_555 1_555
C38 C29 1.413 1_555 1_555
C39 C38 1.430 1_555 1_555
H23 C39 0.930 1_555 1_555
C40 C39 1.361 1_555 1_555
H24 C40 0.930 1_555 1_555
C41 C40 1.415 1_555 1_555
H25 C41 0.930 1_555 1_555
C42 C37 1.422 1_555 1_555
H26 C42 0.929 1_555 1_555
C5 C6 1.418 1_555 1_555
C9 C10 1.423 1_555 1_555
C13 C14 1.342 1_555 1_555
C21 C22 1.382 1_555 1_555
C23 C28 1.401 1_555 1_555
C27 C28 1.392 1_555 1_555
C34 C35 1.425 1_555 1_555
C37 C38 1.438 1_555 1_555
C41 C42 1.352 1_555 1_555
#END
