
#######################################################################
#
#                 Cambridge Crystallographic Data Centre
#                                CCDC
#
#######################################################################
#
# If this CIF has been generated from an entry in the Cambridge
# Structural Database, then it will include bibliographic, chemical,
# crystal, experimental, refinement or atomic coordinate data resulting
# from the CCDC's data processing and validation procedures.
#
#######################################################################

data_CSD_CIF_KUBVUY
_audit_creation_date 1992-12-10
_audit_creation_method CSD-ConQuest-V1
_database_code_CSD KUBVUY
_database_code_depnum_ccdc_archive 'CCDC 113036'
_database_code_depnum_ccdc_fiz 'CSD 320310'
_chemical_formula_sum 'C40 H26'
_chemical_formula_moiety
;
C40 H26
;
_journal_coden_Cambridge 643
_journal_volume 199
_journal_year 1992
_journal_page_first 296
_journal_name_full 'Z.Krist.Cryst.Mater. '
loop_
_publ_author_name
"V.Langer"
"J.Sieler"
"H.-D.Becker"
_chemical_name_systematic
;
10,10'-Diphenyl-9,9'-bianthryl
;
_cell_volume   2826.156
_exptl_crystal_colour 'yellow'
_exptl_special_details
;
CSD 320310 not received

;
_diffrn_ambient_temperature ?
_diffrn_special_details
;
The study was carried out at room temperature,in the range 283-303K

;
#These two values have been output from a single CSD field.
_refine_ls_R_factor_gt 0.043
_refine_ls_wR_factor_gt 0.043
_symmetry_cell_setting monoclinic
_symmetry_space_group_name_H-M 'P 21/c'
_symmetry_Int_Tables_number 14
loop_
_symmetry_equiv_pos_site_id
_symmetry_equiv_pos_as_xyz
1 x,y,z
2 -x,1/2+y,1/2-z
3 -x,-y,-z
4 x,-1/2-y,-1/2+z
_cell_length_a 9.263(3)
_cell_length_b 24.85(1)
_cell_length_c 12.560(4)
_cell_angle_alpha 90
_cell_angle_beta 102.17(2)
_cell_angle_gamma 90
_cell_formula_units_Z 4
loop_
_atom_type_symbol
_atom_type_radius_bond
C 0.68
H 0.23
loop_
_atom_site_label
_atom_site_type_symbol
_atom_site_fract_x
_atom_site_fract_y
_atom_site_fract_z
C1 C 0.0846(4) 0.6385(2) 0.8880(3)
C2 C -0.0471(4) 0.6374(2) 0.9184(3)
C3 C -0.1438(4) 0.5939(2) 0.8887(3)
C4 C -0.1085(4) 0.5528(2) 0.8290(3)
C5 C 0.2546(4) 0.4663(1) 0.6451(2)
C6 C 0.3905(4) 0.4659(1) 0.6200(3)
C7 C 0.4894(4) 0.5087(2) 0.6534(3)
C8 C 0.4511(4) 0.5504(2) 0.7095(3)
C9 C 0.2678(3) 0.5959(1) 0.7970(2)
C10 C 0.0699(3) 0.5089(1) 0.7345(2)
C11 C 0.1292(3) 0.5959(1) 0.8261(2)
C12 C 0.0305(3) 0.5519(1) 0.7952(2)
C13 C 0.3086(3) 0.5528(1) 0.7373(2)
C14 C 0.2080(3) 0.5092(1) 0.7047(2)
C15 C -0.0336(3) 0.4627(1) 0.7040(3)
C16 C -0.0481(4) 0.4243(2) 0.7794(3)
C17 C -0.1439(5) 0.3817(2) 0.7519(4)
C18 C -0.2288(5) 0.3773(2) 0.6480(4)
C19 C -0.2150(4) 0.4152(2) 0.5731(4)
C20 C -0.1184(4) 0.4579(2) 0.5993(3)
C21 C 0.4800(4) 0.5886(1) 1.0002(3)
C22 C 0.5769(4) 0.5837(2) 1.0958(3)
C23 C 0.6777(4) 0.6258(2) 1.1329(3)
C24 C 0.6788(4) 0.6711(1) 1.0746(3)
C25 C 0.4582(4) 0.7791(1) 0.7480(3)
C26 C 0.3592(4) 0.7831(2) 0.6519(3)
C27 C 0.2636(4) 0.7405(2) 0.6133(3)
C28 C 0.2680(4) 0.6947(2) 0.6718(3)
C29 C 0.3738(3) 0.6411(1) 0.8345(2)
C30 C 0.5711(3) 0.7265(1) 0.9121(3)
C31 C 0.4751(3) 0.6357(1) 0.9343(2)
C32 C 0.5762(3) 0.6787(1) 0.9729(2)
C33 C 0.3705(3) 0.6881(1) 0.7729(2)
C34 C 0.4692(3) 0.7315(1) 0.8121(2)
C35 C 0.6729(3) 0.7715(1) 0.9551(3)
C36 C 0.6500(5) 0.8024(2) 1.0420(3)
C37 C 0.7473(6) 0.8432(2) 1.0845(4)
C38 C 0.8667(6) 0.8543(2) 1.0405(5)
C39 C 0.8909(5) 0.8251(2) 0.9539(5)
C40 C 0.7930(4) 0.7837(2) 0.9108(3)
H1 H 0.150(3) 0.669(1) 0.906(2)
H2 H -0.075(4) 0.668(1) 0.957(3)
H3 H -0.237(4) 0.594(1) 0.910(3)
H4 H -0.176(3) 0.521(1) 0.809(2)
H5 H 0.187(3) 0.437(1) 0.620(2)
H6 H 0.424(3) 0.435(1) 0.585(2)
H7 H 0.592(3) 0.508(1) 0.637(2)
H8 H 0.515(3) 0.580(1) 0.734(2)
H9 H 0.007(3) 0.428(1) 0.835(4)
H10 H -0.149(4) 0.353(2) 0.805(3)
H11 H -0.290(4) 0.345(1) 0.628(3)
H12 H -0.278(4) 0.416(1) 0.499(3)
H13 H -0.105(3) 0.486(1) 0.545(3)
H14 H 0.411(3) 0.559(1) 0.973(2)
H15 H 0.582(3) 0.552(1) 1.139(2)
H16 H 0.743(3) 0.620(1) 1.202(3)
H17 H 0.748(3) 0.703(1) 1.098(2)
H18 H 0.523(3) 0.810(1) 0.779(2)
H19 H 0.356(3) 0.816(1) 0.615(2)
H20 H 0.194(3) 0.743(1) 0.546(3)
H21 H 0.204(3) 0.666(1) 0.649(2)
H22 H 0.570(4) 0.792(1) 1.079(3)
H23 H 0.720(5) 0.865(2) 1.142(4)
H24 H 0.940(5) 0.887(2) 1.068(4)
H25 H 0.976(5) 0.827(2) 0.919(3)
H26 H 0.808(3) 0.760(1) 0.849(3)
loop_
_geom_bond_atom_site_label_1
_geom_bond_atom_site_label_2
_geom_bond_distance
_geom_bond_site_symmetry_1
_geom_bond_site_symmetry_2
C1 C2 1.353 1_555 1_555
C2 C3 1.403 1_555 1_555
C3 C4 1.347 1_555 1_555
C4 C12 1.438 1_555 1_555
C5 C6 1.361 1_555 1_555
C6 C7 1.409 1_555 1_555
C7 C8 1.342 1_555 1_555
C8 C13 1.436 1_555 1_555
C9 C11 1.407 1_555 1_555
C10 C12 1.405 1_555 1_555
C11 C1 1.425 1_555 1_555
C12 C11 1.426 1_555 1_555
C13 C9 1.404 1_555 1_555
C14 C5 1.421 1_555 1_555
C15 C10 1.493 1_555 1_555
C16 C15 1.371 1_555 1_555
C17 C16 1.378 1_555 1_555
C18 C17 1.379 1_555 1_555
C19 C18 1.356 1_555 1_555
C20 C15 1.387 1_555 1_555
C21 C22 1.345 1_555 1_555
C22 C23 1.414 1_555 1_555
C23 C24 1.344 1_555 1_555
C24 C32 1.435 1_555 1_555
C25 C26 1.357 1_555 1_555
C26 C27 1.400 1_555 1_555
C27 C28 1.351 1_555 1_555
C28 C33 1.426 1_555 1_555
C29 C9 1.501 1_555 1_555
C30 C32 1.408 1_555 1_555
C31 C21 1.429 1_555 1_555
C32 C31 1.436 1_555 1_555
C33 C29 1.398 1_555 1_555
C34 C25 1.422 1_555 1_555
C35 C30 1.489 1_555 1_555
C36 C35 1.387 1_555 1_555
C37 C36 1.386 1_555 1_555
C38 C37 1.365 1_555 1_555
C39 C38 1.365 1_555 1_555
C40 C35 1.378 1_555 1_555
H1 C1 0.967 1_555 1_555
H2 C2 0.966 1_555 1_555
H3 C3 0.956 1_555 1_555
H4 C4 1.006 1_555 1_555
H5 C5 0.969 1_555 1_555
H6 C6 0.968 1_555 1_555
H7 C7 1.014 1_555 1_555
H8 C8 0.954 1_555 1_555
H9 C16 0.779 1_555 1_555
H10 C17 0.984 1_555 1_555
H11 C18 0.984 1_555 1_555
H12 C19 0.989 1_555 1_555
H13 C20 1.002 1_555 1_555
H14 C21 0.987 1_555 1_555
H15 C22 0.952 1_555 1_555
H16 C23 0.958 1_555 1_555
H17 C24 1.023 1_555 1_555
H18 C25 1.001 1_555 1_555
H19 C26 0.937 1_555 1_555
H20 C27 0.951 1_555 1_555
H21 C28 0.933 1_555 1_555
H22 C36 0.988 1_555 1_555
H23 C37 0.978 1_555 1_555
H24 C38 1.069 1_555 1_555
H25 C39 0.981 1_555 1_555
H26 C40 1.007 1_555 1_555
C10 C14 1.407 1_555 1_555
C13 C14 1.431 1_555 1_555
C19 C20 1.382 1_555 1_555
C29 C31 1.405 1_555 1_555
C30 C34 1.409 1_555 1_555
C33 C34 1.432 1_555 1_555
C39 C40 1.402 1_555 1_555
#END
