
#######################################################################
#
#                 Cambridge Crystallographic Data Centre
#                                CCDC
#
#######################################################################
#
# If this CIF has been generated from an entry in the Cambridge
# Structural Database, then it will include bibliographic, chemical,
# crystal, experimental, refinement or atomic coordinate data resulting
# from the CCDC's data processing and validation procedures.
#
#######################################################################

data_CSD_CIF_KUBWOT
_audit_creation_date 1992-12-10
_audit_creation_method CSD-ConQuest-V1
_database_code_CSD KUBWOT
_database_code_depnum_ccdc_archive 'CCDC 113040'
_database_code_depnum_ccdc_fiz 'CSD 320317'
_chemical_formula_sum 'C29 H20'
_chemical_formula_moiety
;
C29 H20
;
_journal_coden_Cambridge 643
_journal_volume 199
_journal_year 1992
_journal_page_first 310
_journal_name_full 'Z.Krist.Cryst.Mater. '
loop_
_publ_author_name
"V.Langer"
"H.-D.Becker"
_chemical_name_systematic
;
9-(9-Anthrylmethylidene)-9,10-dihydroanthracene
;
_cell_volume   1998.431
_exptl_crystal_colour 'yellow'
_exptl_special_details
;
CSD 320317 not received

;
_diffrn_ambient_temperature ?
_diffrn_special_details
;
The study was carried out at room temperature,in the range 283-303K

;
#These two values have been output from a single CSD field.
_refine_ls_R_factor_gt 0.043
_refine_ls_wR_factor_gt 0.043
_symmetry_cell_setting orthorhombic
_symmetry_space_group_name_H-M 'P 21 21 21'
_symmetry_Int_Tables_number 19
loop_
_symmetry_equiv_pos_site_id
_symmetry_equiv_pos_as_xyz
1 x,y,z
2 1/2+x,1/2-y,-z
3 -x,1/2+y,1/2-z
4 1/2-x,-y,1/2+z
_cell_length_a 14.020(9)
_cell_length_b 17.432(6)
_cell_length_c 8.177(7)
_cell_angle_alpha 90
_cell_angle_beta 90
_cell_angle_gamma 90
_cell_formula_units_Z 4
loop_
_atom_type_symbol
_atom_type_radius_bond
C 0.68
H 0.23
loop_
_atom_site_label
_atom_site_type_symbol
_atom_site_fract_x
_atom_site_fract_y
_atom_site_fract_z
C1 C 0.4891(5) 0.2579(4) 0.1432(8)
C2 C 0.7487(5) 0.0204(3) 0.2091(7)
C3 C 0.4571(6) 0.3311(4) 0.1320(9)
C4 C 0.8436(5) 0.0005(4) 0.2152(8)
C5 C 0.3616(7) 0.3463(5) 0.0856(9)
C6 C 0.9070(5) 0.0473(4) 0.2939(9)
C7 C 0.3013(6) 0.2888(5) 0.0542(9)
C8 C 0.8760(4) 0.1137(4) 0.3696(8)
C9 C 0.2363(6) 0.0124(5) -0.009(1)
C10 C 0.6155(6) 0.2336(4) 0.6497(8)
C11 C 0.2642(5) -0.0604(5) 0.000(1)
C12 C 0.5263(6) 0.2215(4) 0.7152(8)
C13 C 0.3583(5) -0.0773(4) 0.051(1)
C14 C 0.4646(5) 0.1702(4) 0.6404(8)
C15 C 0.4191(4) -0.0205(4) 0.0904(8)
C16 C 0.4914(4) 0.1349(4) 0.4975(8)
C17 C 0.4579(4) 0.1170(3) 0.1172(6)
C18 C 0.6136(4) 0.1101(3) 0.2780(6)
C19 C 0.2700(5) 0.1509(4) 0.0242(8)
C20 C 0.7430(5) 0.2064(4) 0.4397(9)
C21 C 0.4279(4) 0.1944(4) 0.1102(6)
C22 C 0.7157(4) 0.0871(3) 0.2815(6)
C23 C 0.3312(5) 0.2103(4) 0.0625(7)
C24 C 0.7790(4) 0.1335(3) 0.3633(7)
C25 C 0.3935(4) 0.0581(4) 0.0798(7)
C26 C 0.5807(4) 0.1485(3) 0.4276(7)
C27 C 0.2983(4) 0.0751(4) 0.0320(7)
C28 C 0.6443(4) 0.1964(3) 0.5094(7)
C29 C 0.5592(4) 0.0973(3) 0.1480(8)
H1 H 0.557(3) 0.247(36) 0.181(6)
H2 H 0.701(3) -0.013(2) 0.151(5)
H3 H 0.508(3) 0.373(3) 0.147(6)
H4 H 0.866(4) -0.047(3) 0.164(7)
H5 H 0.348(4) 0.397(3) 0.089(7)
H6 H 0.982(4) 0.032(3) 0.297(7)
H7 H 0.236(5) 0.299(4) 0.012(9)
H8 H 0.923(3) 0.150(3) 0.432(6)
H9 H 0.174(4) 0.035(4) -0.047(8)
H10 H 0.657(4) 0.269(3) 0.702(7)
H11 H 0.213(5) -0.114(4) -0.033(8)
H12 H 0.505(4) 0.253(3) 0.814(8)
H13 H 0.373(4) -0.138(3) 0.067(7)
H14 H 0.404(3) 0.166(3) 0.690(6)
H15 H 0.483(3) -0.030(3) 0.136(6)
H16 H 0.450(4) 0.102(3) 0.431(7)
H17 H 0.185(4) 0.162(3) -0.012(6)
H18 H 0.784(4) 0.228(3) 0.513(7)
H19 H 0.746(4) 0.251(3) 0.356(6)
H20 H 0.586(3) 0.069(2) 0.061(5)
loop_
_geom_bond_atom_site_label_1
_geom_bond_atom_site_label_2
_geom_bond_distance
_geom_bond_site_symmetry_1
_geom_bond_site_symmetry_2
C1 C3 1.356 1_555 1_555
C2 C4 1.376 1_555 1_555
C3 C5 1.417 1_555 1_555
C4 C6 1.367 1_555 1_555
C5 C7 1.336 1_555 1_555
C6 C8 1.383 1_555 1_555
C7 C23 1.433 1_555 1_555
C8 C24 1.404 1_555 1_555
C9 C11 1.330 1_555 1_555
C10 C12 1.377 1_555 1_555
C11 C13 1.415 1_555 1_555
C12 C14 1.386 1_555 1_555
C13 C15 1.346 1_555 1_555
C14 C16 1.373 1_555 1_555
C15 C25 1.419 1_555 1_555
C16 C26 1.397 1_555 1_555
C17 C21 1.414 1_555 1_555
C18 C22 1.487 1_555 1_555
C19 C23 1.381 1_555 1_555
C20 C24 1.503 1_555 1_555
C21 C1 1.426 1_555 1_555
C22 C2 1.384 1_555 1_555
C23 C21 1.438 1_555 1_555
C24 C22 1.374 1_555 1_555
C25 C17 1.401 1_555 1_555
C26 C18 1.469 1_555 1_555
C27 C9 1.436 1_555 1_555
C28 C10 1.378 1_555 1_555
C29 C17 1.483 1_555 1_555
H1 C1 1.019 1_555 1_555
H2 C2 1.006 1_555 1_555
H3 C3 1.028 1_555 1_555
H4 C4 0.980 1_555 1_555
H5 C5 0.905 1_555 1_555
H6 C6 1.085 1_555 1_555
H7 C7 0.994 1_555 1_555
H8 C8 1.046 1_555 1_555
H9 C9 1.007 1_555 1_555
H10 C10 0.950 1_555 1_555
H11 C11 1.209 1_555 1_555
H12 C12 1.021 1_555 1_555
H13 C13 1.086 1_555 1_555
H14 C14 0.944 1_555 1_555
H15 C15 0.984 1_555 1_555
H16 C16 0.981 1_555 1_555
H17 C19 1.243 1_555 1_555
H18 C20 0.912 1_555 1_555
H19 C20 1.037 1_555 1_555
H20 C29 0.944 1_555 1_555
C18 C29 1.327 1_555 1_555
C19 C27 1.381 1_555 1_555
C20 C28 1.507 1_555 1_555
C25 C27 1.422 1_555 1_555
C26 C28 1.393 1_555 1_555
#END
