
#######################################################################
#
#                 Cambridge Crystallographic Data Centre
#                                CCDC
#
#######################################################################
#
# If this CIF has been generated from an entry in the Cambridge
# Structural Database, then it will include bibliographic, chemical,
# crystal, experimental, refinement or atomic coordinate data resulting
# from the CCDC's data processing and validation procedures.
#
#######################################################################

data_CSD_CIF_KUBWAF
_audit_creation_date 1992-12-10
_audit_creation_method CSD-ConQuest-V1
_database_code_CSD KUBWAF
_database_code_depnum_ccdc_archive 'CCDC 123938'
_database_code_depnum_ccdc_fiz 'CSD 320313'
_chemical_formula_sum 'C28 H18'
_chemical_formula_moiety
;
C28 H18
;
_journal_coden_Cambridge 643
_journal_volume 199
_journal_year 1992
_journal_page_first 300
_journal_name_full 'Z.Krist.Cryst.Mater. '
loop_
_publ_author_name
"V.Langer"
"J.Sieler"
"H.-D.Becker"
_chemical_name_systematic
;
9,9'-Bianthryl
;
_cell_volume   3808.893
_exptl_crystal_colour 'yellowish'
_exptl_special_details
;
polymorph 1
We have calculated that xyz(C6A) should be 0.7011, 0.0112, -0.5706 not 
0.7018, 0.0115, -0.5428 as originally given. CSD 320313 not received
;
_diffrn_ambient_temperature ?
_diffrn_special_details
;
The study was carried out at room temperature,in the range 283-303K

;
#These two values have been output from a single CSD field.
_refine_ls_R_factor_gt 0.045
_refine_ls_wR_factor_gt 0.045
_symmetry_cell_setting monoclinic
_symmetry_space_group_name_H-M 'P 21/n'
_symmetry_Int_Tables_number 14
loop_
_symmetry_equiv_pos_site_id
_symmetry_equiv_pos_as_xyz
1 x,y,z
2 1/2-x,1/2+y,1/2-z
3 -x,-y,-z
4 -1/2+x,-1/2-y,-1/2+z
_cell_length_a 8.783(2)
_cell_length_b 25.546(3)
_cell_length_c 16.977(1)
_cell_angle_alpha 90
_cell_angle_beta 90.65(1)
_cell_angle_gamma 90
_cell_formula_units_Z 8
loop_
_atom_type_symbol
_atom_type_radius_bond
C 0.68
H 0.23
loop_
_atom_site_label
_atom_site_type_symbol
_atom_site_fract_x
_atom_site_fract_y
_atom_site_fract_z
C1 C 0.7845(4) 0.1960(1) 0.1794(2)
C2 C 0.6985(3) 0.1084(1) -0.2213(2)
C3 C 1.0945(3) 0.2457(1) 0.0070(2)
C4 C 1.0670(4) 0.0702(1) -0.2842(2)
C5 C 0.7376(4) 0.1982(2) 0.2551(2)
C6 C 0.6289(4) 0.1521(1) -0.1943(2)
C7 C 1.2412(4) 0.2549(2) -0.0123(2)
C8 C 1.2109(5) 0.0824(2) -0.2641(3)
C9 C 0.6278(5) 0.2355(2) 0.2779(2)
C10 C 0.5373(4) 0.1829(1) -0.2442(2)
C11 C 1.3307(4) 0.2150(2) -0.0455(2)
C12 C 1.2980(5) 0.0483(2) -0.2165(3)
C13 C 0.5719(4) 0.2699(2) 0.2254(2)
C14 C 0.5188(4) 0.1698(1) -0.3199(2)
C15 C 1.2705(4) 0.1674(2) -0.0586(2)
C16 C 1.2354(4) 0.0041(2) -0.1894(2)
C17 C 0.5627(4) 0.3455(1) -0.0416(3)
C18 C 0.6325(4) 0.0541(2) -0.5434(2)
C19 C 0.8418(5) 0.0445(1) -0.0418(2)
C20 C 0.7890(6) -0.1124(1) -0.1647(2)
C21 C 0.6096(5) 0.3440(2) -0.1162(3)
C22 C 0.70110 0.01120 -0.57060
C23 C 0.6964(5) 0.0351(2) -0.0248(2)
C24 C 0.6441(6) -0.1236(2) -0.1815(2)
C25 C 0.7084(5) 0.3049(2) -0.1425(3)
C26 C 0.7882(5) -0.0212(2) -0.5228(2)
C27 C 0.6028(5) 0.0745(1) 0.0067(2)
C28 C 0.5562(5) -0.0904(2) -0.2310(2)
C29 C 0.7615(4) 0.2679(1) -0.0921(2)
C30 C 0.8051(4) -0.0103(1) -0.4457(2)
C31 C 0.6593(4) 0.1230(1) 0.0192(2)
C32 C 0.6203(4) -0.0467(1) -0.2623(2)
C33 C 0.7727(3) 0.2293(1) 0.0421(2)
C34 C 0.7524(3) 0.0471(1) -0.3310(2)
C35 C 0.8732(3) 0.1859(1) 0.0134(1)
C36 C 0.8423(3) 0.0120(1) -0.2773(1)
C37 C 0.5677(4) 0.3064(1) 0.0908(2)
C38 C 0.5740(4) 0.1108(1) -0.4305(2)
C39 C 1.0551(4) 0.1061(1) -0.0497(2)
C40 C 1.0119(4) -0.0546(1) -0.1789(2)
C41 C 0.7273(3) 0.2312(1) 0.1211(2)
C42 C 0.6826(3) 0.0925(1) -0.3012(2)
C43 C 1.0260(3) 0.1960(1) -0.0053(1)
C44 C 0.9931(3) 0.0239(1) -0.2576(2)
C45 C 0.6197(3) 0.2702(1) 0.1453(2)
C46 C 0.5904(3) 0.12465(1) -0.3518(2)
C47 C 1.1174(3) 0.1554(1) -0.0382(2)
C48 C 1.0811(4) -0.0098(1) -0.2083(2)
C49 C 0.7190(3) 0.2673(1) -0.0115(2)
C50 C 0.7358(3) 0.0345(1) -0.4113(2)
C51 C 0.8125(3) 0.1356(1) 0.0020(1)
C52 C 0.7744(3) -0.0332(1) -0.2460(2)
C53 C 0.6164(3) 0.3071(1) 0.0139(2)
C54 C 0.6458(3) 0.0674(1) -0.4620(2)
C55 C 0.9064(3) 0.0951(1) -0.0298(2)
C56 C 0.86514(4) -0.0670(1) -0.1959(2)
H1 H 0.856(3) 0.1708(9) 0.166(1)
H2 H 0.767(3) 0.0880(9) -0.186(1)
H3 H 1.034(3) 0.276(1) 0.029(1)
H4 H 1.007(3) 0.092(1) -0.317(1)
H5 H 0.783(3) 0.171(1) 0.291(2)
H6 H 0.643(4) 0.161(1) -0.139(1)
H7 H 1.285(3) 0.291(1) -0.003(2)
H8 H 1.260(4) 0.114(1) -0.280(2)
H9 H 0.601(3) 0.234(1) 0.332(2)
H10 H 0.488(3) 0.213(1) -0.224(2)
H11 H 1.437(3) 0.223(1) -0.061(2)
H12 H 1.405(4) 0.056(1) -0.201(2)
H13 H 0.492(3) 0.298(1) 0.240(2)
H14 H 0.452(3) 0.187(1) -0.355(1)
H15 H 1.332(3) 0.139(1) -0.080(1)
H16 H 0.492(3) 0.371(1) -0.020(2)
H17 H 1.286(3) -0.021(1) -0.158(2)
H18 H 0.568(3) 0.077(1) -0.577(1)
H19 H 0.911(3) 0.018(1) -0.062(1)
H20 H 0.851(3) -0.134(1) -0.133(2)
H21 H 0.562(4) 0.372(1) -0.152(2)
H22 H 0.659(3) 0.002(1) -0.033(2)
H23 H 0.599(3) -0.152(1) -0.163(2)
H24 H 0.744(4) 0.304(1) -0.199(2)
H25 H 0.836(3) -0.052(1) -0.545(2)
H26 H 0.497(4) 0.069(1) 0.018(2)
H27 H 0.826(3) 0.239(1) -0.111(1)
H28 H 0.452(3) -0.097(1) -0.246(2)
loop_
_geom_bond_atom_site_label_1
_geom_bond_atom_site_label_2
_geom_bond_distance
_geom_bond_site_symmetry_1
_geom_bond_site_symmetry_2
C1 C5 1.355 1_555 1_555
C2 C6 1.355 1_555 1_555
C3 C7 1.354 1_555 1_555
C4 C8 1.342 1_555 1_555
C5 C9 1.413 1_555 1_555
C6 C10 1.403 1_555 1_555
C7 C11 1.409 1_555 1_555
C8 C12 1.408 1_555 1_555
C9 C13 1.341 1_555 1_555
C10 C14 1.336 1_555 1_555
C11 C15 1.343 1_555 1_555
C12 C16 1.340 1_555 1_555
C13 C45 1.428 1_555 1_555
C14 C46 1.424 1_555 1_555
C15 C47 1.426 1_555 1_555
C16 C48 1.434 1_555 1_555
C17 C21 1.337 1_555 1_555
C18 C22 1.336 1_555 1_555
C19 C23 1.334 1_555 1_555
C20 C24 1.332 1_555 1_555
C21 C25 1.400 1_555 1_555
C22 C26 1.384 1_555 1_555
C23 C27 1.409 1_555 1_555
C24 C28 1.417 1_555 1_555
C25 C29 1.354 1_555 1_555
C26 C30 1.345 1_555 1_555
C27 C31 1.351 1_555 1_555
C28 C32 1.361 1_555 1_555
C29 C49 1.423 1_555 1_555
C30 C50 1.425 1_555 1_555
C31 C51 1.417 1_555 1_555
C32 C52 1.421 1_555 1_555
C33 C35 1.502 1_555 1_555
C34 C36 1.497 1_555 1_555
C35 C43 1.406 1_555 1_555
C36 C44 1.396 1_555 1_555
C37 C45 1.382 1_555 1_555
C38 C46 1.388 1_555 1_555
C39 C47 1.386 1_555 1_555
C40 C48 1.391 1_555 1_555
C41 C1 1.425 1_555 1_555
C42 C2 1.421 1_555 1_555
C43 C3 1.419 1_555 1_555
C44 C4 1.425 1_555 1_555
C45 C41 1.436 1_555 1_555
C46 C42 1.433 1_555 1_555
C47 C43 1.429 1_555 1_555
C48 C44 1.423 1_555 1_555
C49 C33 1.408 1_555 1_555
C50 C34 1.407 1_555 1_555
C51 C35 1.404 1_555 1_555
C52 C36 1.407 1_555 1_555
C53 C17 1.436 1_555 1_555
C54 C18 1.427 1_555 1_555
C55 C19 1.425 1_555 1_555
C56 C20 1.443 1_555 1_555
H1 C1 0.929 1_555 1_555
H2 C2 0.992 1_555 1_555
H3 C3 1.013 1_555 1_555
H4 C4 0.944 1_555 1_555
H5 C5 1.004 1_555 1_555
H6 C6 0.973 1_555 1_555
H7 C7 1.011 1_555 1_555
H8 C8 0.956 1_555 1_555
H9 C9 0.951 1_555 1_555
H10 C10 0.949 1_555 1_555
H11 C11 0.994 1_555 1_555
H12 C12 0.993 1_555 1_555
H13 C13 1.036 1_555 1_555
H14 C14 0.940 1_555 1_555
H15 C15 0.977 1_555 1_555
H16 C17 0.974 1_555 1_555
H17 C16 0.942 1_555 1_555
H18 C18 0.991 1_555 1_555
H19 C19 0.975 1_555 1_555
H20 C20 0.940 1_555 1_555
H21 C21 1.025 1_555 1_555
H22 C23 0.917 1_555 1_555
H23 C24 0.886 1_555 1_555
H24 C25 1.013 1_555 1_555
H25 C26 0.970 1_555 1_555
H26 C27 0.961 1_555 1_555
H27 C29 0.986 1_555 1_555
H28 C28 0.962 1_555 1_555
C33 C41 1.404 1_555 1_555
C34 C42 1.409 1_555 1_555
C37 C53 1.379 1_555 1_555
C38 C54 1.386 1_555 1_555
C39 C55 1.382 1_555 1_555
C40 C56 1.355 1_555 1_555
C49 C53 1.428 1_555 1_555
C50 C54 1.434 1_555 1_555
C51 C55 1.433 1_555 1_555
C52 C56 1.445 1_555 1_555
#END
