
#######################################################################
#
#                 Cambridge Crystallographic Data Centre
#                                CCDC
#
#######################################################################
#
# If this CIF has been generated from an entry in the Cambridge
# Structural Database, then it will include bibliographic, chemical,
# crystal, experimental, refinement or atomic coordinate data resulting
# from the CCDC's data processing and validation procedures.
#
#######################################################################

data_CSD_CIF_KUBWAF01
_audit_creation_date 2007-05-09
_audit_creation_method CSD-ConQuest-V1
_database_code_CSD KUBWAF01
_database_code_depnum_ccdc_archive 'CCDC 640267'
_chemical_formula_sum 'C28 H18'
_chemical_formula_moiety
;
C28 H18
;
_journal_coeditor_code "IUCr BT2243"
_journal_coden_Cambridge 1370
_journal_volume 63
_journal_year 2007
_journal_page_first o1235
_journal_name_full 'Acta Crystallogr.,Sect.E:Struct.Rep.Online '
loop_
_publ_author_name
"J.B.Kyziol"
"J.Zaleski"
_chemical_name_systematic
;
9,9'-Bianthracenyl
;
_chemical_melting_point 589.8
_cell_volume   1847.040
_exptl_crystal_colour 'colorless'
_exptl_crystal_density_diffrn 1.275
_exptl_special_details
;
polymorph 2

;
_exptl_crystal_description 'block'
_exptl_crystal_preparation 'acetic acid'
_diffrn_ambient_temperature 85
#These two values have been output from a single CSD field.
_refine_ls_R_factor_gt 0.0341
_refine_ls_wR_factor_gt 0.0341
_symmetry_cell_setting monoclinic
_symmetry_space_group_name_H-M 'P 21/c'
_symmetry_Int_Tables_number 14
loop_
_symmetry_equiv_pos_site_id
_symmetry_equiv_pos_as_xyz
1 x,y,z
2 -x,1/2+y,1/2-z
3 -x,-y,-z
4 x,-1/2-y,-1/2+z
_cell_length_a 12.7295(6)
_cell_length_b 8.8187(3)
_cell_length_c 17.2680(7)
_cell_angle_alpha 90
_cell_angle_beta 107.667(4)
_cell_angle_gamma 90
_cell_formula_units_Z 4
loop_
_atom_type_symbol
_atom_type_radius_bond
C 0.68
H 0.23
loop_
_atom_site_label
_atom_site_type_symbol
_atom_site_fract_x
_atom_site_fract_y
_atom_site_fract_z
C1 C 0.82648(12) 0.39586(15) 0.85383(9)
H1 H 0.8151(11) 0.3406(15) 0.8016(8)
C2 C 0.87114(13) 0.53756(16) 0.86512(10)
H2 H 0.8972(12) 0.5890(16) 0.8211(9)
C3 C 0.88213(14) 0.61786(18) 0.93804(10)
H3 H 0.9158(13) 0.7211(19) 0.9454(9)
C4 C 0.84919(13) 0.55411(16) 0.99807(9)
H4 H 0.8550(12) 0.6108(15) 1.0503(9)
C5 C 0.67554(12) 0.12931(18) 1.10034(8)
H5 H 0.6820(11) 0.1896(15) 1.1499(8)
C6 C 0.63457(13) -0.01371(18) 1.09214(9)
H6 H 0.6088(12) -0.0630(15) 1.1364(9)
C7 C 0.62817(13) -0.09910(18) 1.02092(9)
H7 H 0.5967(12) -0.2046(17) 1.0150(9)
C8 C 0.66253(11) -0.03853(16) 0.96025(8)
H8 H 0.6551(11) -0.0984(13) 0.9100(8)
C9 C 0.74405(11) 0.17650(14) 0.90496(7)
C10 C 0.76261(12) 0.33990(16) 1.04848(8)
H9 H 0.7704(11) 0.3987(15) 1.0980(8)
C11 C 0.80122(11) 0.40570(15) 0.98907(8)
C12 C 0.71440(11) 0.19642(16) 1.03880(8)
C13 C 0.70660(11) 0.11165(15) 0.96646(7)
C14 C 0.78982(11) 0.32361(14) 0.91512(8)
C15 C 0.93843(12) 0.02967(15) 0.88390(8)
H10 H 0.9446(11) 0.0937(14) 0.9326(8)
C16 C 1.02991(13) -0.03850(17) 0.87514(9)
H11 H 1.1013(13) -0.0255(16) 0.9159(9)
C17 C 1.02261(13) -0.13092(17) 0.80630(9)
H12 H 1.0892(12) -0.1797(15) 0.8015(8)
C18 C 0.92488(13) -0.15006(15) 0.74794(9)
H13 H 0.9212(11) -0.2148(14) 0.7000(8)
C19 C 0.53223(12) -0.01473(15) 0.63044(8)
H14 H 0.5314(11) -0.0760(14) 0.5818(8)
C20 C 0.44353(13) 0.06700(16) 0.63389(9)
H15 H 0.3750(12) 0.0636(15) 0.5903(9)
C21 C 0.44809(13) 0.15428(16) 0.70395(8)
H16 H 0.3808(13) 0.2113(16) 0.7047(9)
C22 C 0.54245(11) 0.15952(14) 0.76777(8)
H17 H 0.5474(10) 0.2256(14) 0.8163(8)
C23 C 0.73822(11) 0.08771(14) 0.82999(7)
C24 C 0.72613(12) -0.09274(14) 0.69280(8)
H18 H 0.7238(11) -0.1555(14) 0.6430(8)
C25 C 0.63865(11) 0.07850(13) 0.76617(7)
C26 C 0.83360(11) 0.01370(14) 0.82362(8)
C27 C 0.63293(11) -0.01261(14) 0.69588(8)
C28 C 0.82661(12) -0.07862(14) 0.75364(8)
loop_
_geom_bond_atom_site_label_1
_geom_bond_atom_site_label_2
_geom_bond_distance
_geom_bond_site_symmetry_1
_geom_bond_site_symmetry_2
C1 H1 0.996 1_555 1_555
C2 C1 1.362 1_555 1_555
H2 C2 1.023 1_555 1_555
C3 C2 1.414 1_555 1_555
H3 C3 0.998 1_555 1_555
C4 C3 1.353 1_555 1_555
H4 C4 1.014 1_555 1_555
C5 H5 0.990 1_555 1_555
C6 C5 1.356 1_555 1_555
H6 C6 1.016 1_555 1_555
C7 C6 1.423 1_555 1_555
H7 C7 1.006 1_555 1_555
C8 C7 1.361 1_555 1_555
H8 C8 0.995 1_555 1_555
C9 C13 1.410 1_555 1_555
C10 H9 0.979 1_555 1_555
C11 C4 1.433 1_555 1_555
C12 C5 1.429 1_555 1_555
C13 C8 1.430 1_555 1_555
C14 C1 1.430 1_555 1_555
C15 H10 0.996 1_555 1_555
C16 C15 1.359 1_555 1_555
H11 C16 0.973 1_555 1_555
C17 C16 1.421 1_555 1_555
H12 C17 0.976 1_555 1_555
C18 C17 1.353 1_555 1_555
H13 C18 0.995 1_555 1_555
C19 H14 0.996 1_555 1_555
C20 C19 1.356 1_555 1_555
H15 C20 0.964 1_555 1_555
C21 C20 1.420 1_555 1_555
H16 C21 0.997 1_555 1_555
C22 C21 1.362 1_555 1_555
H17 C22 1.007 1_555 1_555
C23 C9 1.495 1_555 1_555
C24 H18 1.015 1_555 1_555
C25 C22 1.425 1_555 1_555
C26 C15 1.429 1_555 1_555
C27 C19 1.429 1_555 1_555
C28 C18 1.430 1_555 1_555
C9 C14 1.411 1_555 1_555
C10 C11 1.392 1_555 1_555
C10 C12 1.394 1_555 1_555
C11 C14 1.436 1_555 1_555
C12 C13 1.433 1_555 1_555
C23 C25 1.407 1_555 1_555
C23 C26 1.412 1_555 1_555
C24 C27 1.396 1_555 1_555
C24 C28 1.393 1_555 1_555
C25 C27 1.439 1_555 1_555
C26 C28 1.437 1_555 1_555
#END
