
#######################################################################
#
#                 Cambridge Crystallographic Data Centre
#                                CCDC
#
#######################################################################
#
# If this CIF has been generated from an entry in the Cambridge
# Structural Database, then it will include bibliographic, chemical,
# crystal, experimental, refinement or atomic coordinate data resulting
# from the CCDC's data processing and validation procedures.
#
#######################################################################

data_CSD_CIF_KUBWEJ
_audit_creation_date 1992-12-10
_audit_creation_method CSD-ConQuest-V1
_database_code_CSD KUBWEJ
_database_code_depnum_ccdc_archive 'CCDC 113038'
_database_code_depnum_ccdc_fiz 'CSD 320315'
_chemical_formula_sum 'C21 H16'
_chemical_formula_moiety
;
C21 H16
;
_journal_coden_Cambridge 643
_journal_volume 199
_journal_year 1992
_journal_page_first 304
_journal_name_full 'Z.Krist.Cryst.Mater. '
loop_
_publ_author_name
"V.Langer"
"J.Sieler"
"H.-D.Becker"
_chemical_name_systematic
;
9-p-Tolylanthracene
;
_cell_volume   3064.986
_exptl_crystal_colour 'colorless'
_exptl_special_details
;
CSD 320315 not received

;
_diffrn_ambient_temperature ?
_diffrn_special_details
;
The study was carried out at room temperature,in the range 283-303K

;
#These two values have been output from a single CSD field.
_refine_ls_R_factor_gt 0.05
_refine_ls_wR_factor_gt 0.05
_symmetry_cell_setting monoclinic
_symmetry_space_group_name_H-M 'C 2/c'
_symmetry_Int_Tables_number 15
loop_
_symmetry_equiv_pos_site_id
_symmetry_equiv_pos_as_xyz
1 x,y,z
2 1/2+x,1/2+y,z
3 -x,y,1/2-z
4 1/2-x,1/2+y,1/2-z
5 -x,-y,-z
6 -1/2-x,-1/2-y,-z
7 x,-y,-1/2+z
8 -1/2+x,-1/2-y,-1/2+z
_cell_length_a 16.589(2)
_cell_length_b 7.922(1)
_cell_length_c 23.716(2)
_cell_angle_alpha 90
_cell_angle_beta 100.453(9)
_cell_angle_gamma 90
_cell_formula_units_Z 8
loop_
_atom_type_symbol
_atom_type_radius_bond
C 0.68
H 0.23
loop_
_atom_site_label
_atom_site_type_symbol
_atom_site_fract_x
_atom_site_fract_y
_atom_site_fract_z
C1 C 0.6125(2) 0.1868(4) 0.6587(1)
C2 C 0.7115(2) 0.3965(3) 0.5950(1)
C3 C 0.5668(3) 0.0942(4) 0.6891(2)
C4 C 0.6667(2) 0.3752(4) 0.5411(1)
C5 C 0.6024(3) -0.0413(4) 0.7235(2)
C6 C 0.6348(3) 0.5113(5) 0.5082(2)
C7 C 0.6816(2) -0.0807(4) 0.7260(1)
C8 C 0.6459(2) 0.6731(4) 0.5282(1)
C9 C 0.9493(2) 0.0305(5) 0.6723(2)
C10 C 0.6905(2) 0.6943(4) 0.5818(2)
C11 C 0.9968(3) 0.1241(5) 0.6450(2)
C12 C 0.7231(2) 0.5590(3) 0.6149(1)
C13 C 0.9642(3) 0.2633(5) 0.6115(2)
C14 C 0.6111(5) 0.8217(7) 0.4913(3)
C15 C 0.8844(2) 0.3034(4) 0.6069(1)
C16 C 0.7467(2) 0.2490(3) 0.6307(1)
C17 C 0.8145(2) -0.0243(4) 0.6985(1)
C18 C 0.6970(2) 0.1522(3) 0.6605(1)
C19 C 0.7323(2) 0.0138(3) 0.6956(1)
C20 C 0.8304(2) 0.2093(3) 0.6351(1)
C21 C 0.8646(2) 0.0685(4) 0.6692(1)
H1 H 0.589(2) 0.276(3) 0.637(1)
H2 H 0.509(2) 0.117(4) 0.685(1)
H3 H 0.656(2) 0.264(4) 0.527(1)
H4 H 0.568(2) -0.105(4) 0.744(1)
H5 H 0.602(2) 0.494(4) 0.469(2)
H6 H 0.708(2) -0.176(3) 0.750(1)
H7 H 0.970(2) -0.064(4) 0.695(1)
H8 H 0.701(2) 0.808(4) 0.597(1)
H9 H 1.054(2) 0.102(4) 0.648(1)
H10 H 0.757(2) 0.581(3) 0.655(1)
H11 H 1.001(2) 0.332(4) 0.592(1)
H12 H 0.861(1) 0.398(3) 0.585(1)
H13 H 0.837(2) -0.116(3) 0.721(1)
H14 H 0.616(3) 0.918(7) 0.514(2)
H15 H 0.621(3) 0.818(6) 0.456(2)
H16 H 0.556(3) 0.808(7) 0.490(3)
loop_
_geom_bond_atom_site_label_1
_geom_bond_atom_site_label_2
_geom_bond_distance
_geom_bond_site_symmetry_1
_geom_bond_site_symmetry_2
C1 C3 1.353 1_555 1_555
C2 C4 1.368 1_555 1_555
C3 C5 1.411 1_555 1_555
C4 C6 1.379 1_555 1_555
C5 C7 1.341 1_555 1_555
C6 C8 1.368 1_555 1_555
C7 C19 1.417 1_555 1_555
C8 C10 1.360 1_555 1_555
C9 C11 1.332 1_555 1_555
C10 C12 1.380 1_555 1_555
C11 C13 1.408 1_555 1_555
C12 C2 1.373 1_555 1_555
C13 C15 1.346 1_555 1_555
C14 C8 1.517 1_555 1_555
C15 C20 1.422 1_555 1_555
C16 C2 1.498 1_555 1_555
C17 C19 1.386 1_555 1_555
C18 C1 1.421 1_555 1_555
C19 C18 1.436 1_555 1_555
C20 C16 1.409 1_555 1_555
C21 C9 1.426 1_555 1_555
H1 C1 0.918 1_555 1_555
H2 C3 0.963 1_555 1_555
H3 C4 0.948 1_555 1_555
H4 C5 0.958 1_555 1_555
H5 C6 0.998 1_555 1_555
H6 C7 0.998 1_555 1_555
H7 C9 0.949 1_555 1_555
H8 C10 0.974 1_555 1_555
H9 C11 0.955 1_555 1_555
H10 C12 1.028 1_555 1_555
H11 C13 0.993 1_555 1_555
H12 C15 0.953 1_555 1_555
H13 C17 0.938 1_555 1_555
H14 C14 0.929 1_555 1_555
H15 C14 0.882 1_555 1_555
H16 C14 0.915 1_555 1_555
C16 C18 1.407 1_555 1_555
C17 C21 1.387 1_555 1_555
C20 C21 1.433 1_555 1_555
#END
