
#######################################################################
#
#                 Cambridge Crystallographic Data Centre
#                                CCDC
#
#######################################################################
#
# If this CIF has been generated from an entry in the Cambridge
# Structural Database, then it will include bibliographic, chemical,
# crystal, experimental, refinement or atomic coordinate data resulting
# from the CCDC's data processing and validation procedures.
#
#######################################################################

data_CSD_CIF_KUBWIN
_audit_creation_date 1992-12-10
_audit_creation_method CSD-ConQuest-V1
_database_code_CSD KUBWIN
_database_code_depnum_ccdc_archive 'CCDC 113039'
_database_code_depnum_ccdc_fiz 'CSD 320316'
_chemical_formula_sum 'C29 H20'
_chemical_formula_moiety
;
C29 H20
;
_journal_coden_Cambridge 643
_journal_volume 199
_journal_year 1992
_journal_page_first 307
_journal_name_full 'Z.Krist.Cryst.Mater. '
loop_
_publ_author_name
"V.Langer"
"J.Sieler"
"H.-D.Becker"
_chemical_name_systematic
;
Bi-9-anthrylmethane
;
_cell_volume   1869.831
_exptl_crystal_colour 'yellow'
_exptl_special_details
;
CSD 320316 not received

;
_diffrn_ambient_temperature ?
_diffrn_special_details
;
The study was carried out at room temperature,in the range 283-303K

;
#These two values have been output from a single CSD field.
_refine_ls_R_factor_gt 0.039
_refine_ls_wR_factor_gt 0.039
_symmetry_cell_setting monoclinic
_symmetry_space_group_name_H-M 'C 2/c'
_symmetry_Int_Tables_number 15
loop_
_symmetry_equiv_pos_site_id
_symmetry_equiv_pos_as_xyz
1 x,y,z
2 1/2+x,1/2+y,z
3 -x,y,1/2-z
4 1/2-x,1/2+y,1/2-z
5 -x,-y,-z
6 -1/2-x,-1/2-y,-z
7 x,-y,-1/2+z
8 -1/2+x,-1/2-y,-1/2+z
_cell_length_a 21.052(3)
_cell_length_b 4.992(2)
_cell_length_c 19.765(2)
_cell_angle_alpha 90
_cell_angle_beta 115.816(8)
_cell_angle_gamma 90
_cell_formula_units_Z 4
loop_
_atom_type_symbol
_atom_type_radius_bond
C 0.68
H 0.23
loop_
_atom_site_label
_atom_site_type_symbol
_atom_site_fract_x
_atom_site_fract_y
_atom_site_fract_z
C1 C 0.4541(1) -0.1236(5) 0.0853(1)
C2 C 0.4351(1) -0.1573(6) 0.0109(1)
C3 C 0.3819(1) 0.0023(6) -0.0428(2)
C4 C 0.3489(1) 0.1889(6) -0.0207(1)
C5 C 0.3087(1) 0.6456(6) 0.1772(2)
C6 C 0.3207(1) 0.6688(6) 0.2501(2)
C7 C 0.3715(1) 0.5053(6) 0.3049(2)
C8 C 0.4102(1) 0.3287(5) 0.2863(1)
C9 C 0.44024(9) 0.1148(4) 0.1900(1)
C10 C 0.3321(1) 0.4213(5) 0.0798(1)
C11 C 0.4214(1) 0.0719(5) 0.1127(1)
C12 C 0.3667(1) 0.2301(5) 0.0571(1)
C13 C 0.4006(1) 0.2985(5) 0.2105(1)
C14 C 0.3469(1) 0.4572(5) 0.1550(1)
C15 C 0.50000 -0.0437(7) 0.25000
H1 H 0.492(1) -0.242(5) 0.122(1)
H2 H 0.458(1) -0.307(6) -0.008(1)
H3 H 0.368(1) -0.025(5) -0.098(1)
H4 H 0.311(1) 0.304(5) -0.057(1)
H5 H 0.274(1) 0.754(5) 0.138(1)
H6 H 0.295(1) 0.807(6) 0.264(1)
H7 H 0.381(1) 0.520(5) 0.360(1)
H8 H 0.445(1) 0.216(4) 0.325(1)
H9 H 0.296(1) 0.530(5) 0.041(1)
H10 H 0.4786(9) -0.169(4) 0.273(1)
C9B C 0.55976(9) 0.1148(4) 0.3100(1)
H10B H 0.5214(9) -0.169(4) 0.227(1)
C11B C 0.5786(1) 0.0719(5) 0.3873(1)
C13B C 0.5994(1) 0.2985(5) 0.2895(1)
C1B C 0.5459(1) -0.1236(5) 0.4147(1)
C12B C 0.6333(1) 0.2301(5) 0.4429(1)
C8B C 0.5898(1) 0.3287(5) 0.2137(1)
C14B C 0.6531(1) 0.4572(5) 0.3450(1)
C2B C 0.5649(1) -0.1573(6) 0.4891(1)
H1B H 0.508(1) -0.242(5) 0.378(1)
C4B C 0.6511(1) 0.1889(6) 0.5207(1)
C10B C 0.6679(1) 0.4213(5) 0.4202(1)
C7B C 0.6285(1) 0.5053(6) 0.1951(2)
H8B H 0.555(1) 0.216(4) 0.175(1)
C5B C 0.6913(1) 0.6456(6) 0.3228(2)
C3B C 0.6181(1) 0.0023(6) 0.5428(2)
H2B H 0.542(1) -0.307(6) 0.508(1)
H4B H 0.689(1) 0.304(5) 0.557(1)
H9B H 0.704(1) 0.530(5) 0.459(1)
C6B C 0.6793(1) 0.6688(6) 0.2499(2)
H7B H 0.619(1) 0.520(5) 0.140(1)
H5B H 0.726(1) 0.754(5) 0.362(1)
H3B H 0.632(1) -0.025(5) 0.598(1)
H6B H 0.705(1) 0.807(6) 0.236(1)
loop_
_geom_bond_atom_site_label_1
_geom_bond_atom_site_label_2
_geom_bond_distance
_geom_bond_site_symmetry_1
_geom_bond_site_symmetry_2
C1 C2 1.356 1_555 1_555
C2 C3 1.407 1_555 1_555
C3 C4 1.344 1_555 1_555
C4 C12 1.430 1_555 1_555
C5 C6 1.355 1_555 1_555
C6 C7 1.405 1_555 1_555
C7 C8 1.355 1_555 1_555
C8 C13 1.430 1_555 1_555
C9 C11 1.418 1_555 1_555
C10 C12 1.388 1_555 1_555
C11 C1 1.430 1_555 1_555
C12 C11 1.434 1_555 1_555
C13 C9 1.413 1_555 1_555
C14 C5 1.425 1_555 1_555
C15 C9 1.522 1_555 1_555
H1 C1 1.004 1_555 1_555
H2 C2 1.043 1_555 1_555
H3 C3 1.008 1_555 1_555
H4 C4 0.991 1_555 1_555
H5 C5 0.966 1_555 1_555
H6 C6 0.987 1_555 1_555
H7 C7 1.021 1_555 1_555
H8 C8 0.975 1_555 1_555
H9 C10 0.976 1_555 1_555
H10 C15 0.990 1_555 1_555
C9B C15 1.522 1_555 1_555
H10B C15 0.990 1_555 1_555
C11B C9B 1.418 1_555 1_555
C13B C9B 1.413 1_555 1_555
C1B C11B 1.430 1_555 1_555
C12B C11B 1.434 1_555 1_555
C8B C13B 1.430 1_555 1_555
C14B C13B 1.424 1_555 1_555
C2B C1B 1.356 1_555 1_555
H1B C1B 1.004 1_555 1_555
C4B C12B 1.430 1_555 1_555
C10B C12B 1.388 1_555 1_555
C7B C8B 1.355 1_555 1_555
H8B C8B 0.975 1_555 1_555
C5B C14B 1.425 1_555 1_555
C3B C2B 1.407 1_555 1_555
H2B C2B 1.043 1_555 1_555
H4B C4B 0.991 1_555 1_555
H9B C10B 0.976 1_555 1_555
C6B C7B 1.405 1_555 1_555
H7B C7B 1.021 1_555 1_555
H5B C5B 0.966 1_555 1_555
H3B C3B 1.008 1_555 1_555
H6B C6B 0.987 1_555 1_555
C10 C14 1.391 1_555 1_555
C13 C14 1.424 1_555 1_555
C14B C10B 1.391 1_555 1_555
C4B C3B 1.344 1_555 1_555
C5B C6B 1.355 1_555 1_555
#END
