
#######################################################################
#
#                 Cambridge Crystallographic Data Centre
#                                CCDC
#
#######################################################################
#
# If this CIF has been generated from an entry in the Cambridge
# Structural Database, then it will include bibliographic, chemical,
# crystal, experimental, refinement or atomic coordinate data resulting
# from the CCDC's data processing and validation procedures.
#
#######################################################################

data_CSD_CIF_KUXWAD
_audit_creation_date 2015-09-23
_audit_creation_method CSD-ConQuest-V1
_database_code_CSD KUXWAD
_database_code_depnum_ccdc_archive 'CCDC 1426778'
_chemical_formula_sum 'C21 H26'
_chemical_formula_moiety
;
C21 H26
;
_journal_coden_Cambridge 4
_journal_volume 134
_journal_year 2012
_journal_page_first 11992
_journal_name_full 'J.Am.Chem.Soc. '
loop_
_publ_author_name
"K.Surendra"
"E.J.Corey"
_chemical_name_systematic
;
1,1,4a-trimethyl-1,2,3,4,4a,11,12,12a-octahydrochrysene
;
_cell_volume   3175.808
_exptl_crystal_colour 'colorless'
_exptl_crystal_density_diffrn 1.165
_exptl_crystal_description 'plate'
_diffrn_ambient_temperature 100
_diffrn_radiation_probe x-ray
_diffrn_source synchrotron
#These two values have been output from a single CSD field.
_refine_ls_R_factor_gt 0.0518
_refine_ls_wR_factor_gt 0.0518
_symmetry_cell_setting monoclinic
_symmetry_space_group_name_H-M 'C 2'
_symmetry_Int_Tables_number 5
loop_
_symmetry_equiv_pos_site_id
_symmetry_equiv_pos_as_xyz
1 x,y,z
2 -x,y,-z
3 1/2+x,1/2+y,z
4 1/2-x,1/2+y,-z
_cell_length_a 18.3125(17)
_cell_length_b 7.4191(6)
_cell_length_c 24.023(2)
_cell_angle_alpha 90
_cell_angle_beta 103.336(2)
_cell_angle_gamma 90
_cell_formula_units_Z 8
loop_
_atom_type_symbol
_atom_type_radius_bond
C 0.68
H 0.23
loop_
_atom_site_label
_atom_site_type_symbol
_atom_site_fract_x
_atom_site_fract_y
_atom_site_fract_z
C1 C -0.08371(19) -0.5731(5) -0.11391(15)
C2 C -0.0610(2) -0.7699(5) -0.09858(16)
H1 H -0.01200 -0.79370 -0.10790
H2 H -0.05460 -0.78680 -0.05690
C3 C -0.1178(2) -0.9056(5) -0.12978(16)
H3 H -0.16560 -0.89020 -0.11770
H4 H -0.09910 -1.02900 -0.11920
C4 C -0.1322(2) -0.8832(5) -0.19435(15)
H5 H -0.16960 -0.97360 -0.21300
H6 H -0.08500 -0.90680 -0.20660
C5 C -0.16080(18) -0.6941(4) -0.21448(15)
C6 C -0.16510(16) -0.6661(4) -0.27856(14)
C7 C -0.18706(17) -0.8123(4) -0.31662(16)
H7 H -0.19860 -0.92470 -0.30180
C8 C -0.19215(18) -0.7967(4) -0.37427(15)
H8 H -0.20640 -0.89850 -0.39830
C9 C -0.17652(17) -0.6311(5) -0.39862(14)
C10 C -0.17985(18) -0.6121(5) -0.45709(15)
H9 H -0.19280 -0.71350 -0.48150
C11 C -0.1650(2) -0.4513(5) -0.47994(16)
H10 H -0.16780 -0.44100 -0.51980
C12 C -0.14532(19) -0.3015(5) -0.44384(16)
H11 H -0.13450 -0.18950 -0.45930
C13 C -0.14165(18) -0.3161(4) -0.38632(15)
H12 H -0.12880 -0.21300 -0.36260
C14 C -0.15657(17) -0.4821(4) -0.36123(15)
C15 C -0.15089(18) -0.5017(4) -0.30114(15)
C16 C -0.12516(19) -0.3405(4) -0.26300(15)
H13 H -0.15630 -0.23540 -0.27890
H14 H -0.07270 -0.31250 -0.26410
C17 C -0.1291(2) -0.3645(4) -0.20074(15)
H15 H -0.18110 -0.34330 -0.19700
H16 H -0.09610 -0.27490 -0.17670
C18 C -0.10453(19) -0.5542(5) -0.18001(15)
H17 H -0.05650 -0.57500 -0.19220
C19 C -0.1442(2) -0.5131(5) -0.08398(16)
H18 H -0.12420 -0.51540 -0.04250
H19 H -0.18730 -0.59490 -0.09410
H20 H -0.16030 -0.39040 -0.09600
C20 C -0.0138(2) -0.4572(6) -0.08986(16)
H21 H 0.02400 -0.47900 -0.11210
H22 H 0.00700 -0.48940 -0.04980
H23 H -0.02780 -0.32950 -0.09240
C21 C -0.24192(18) -0.6752(5) -0.20756(15)
H24 H -0.24440 -0.71280 -0.16890
H25 H -0.27510 -0.75160 -0.23580
H26 H -0.25790 -0.54920 -0.21360
C22 C -0.42948(18) -0.4706(5) -0.38570(15)
C23 C -0.3654(2) -0.3750(5) -0.40429(16)
H27 H -0.37670 -0.37100 -0.44660
H28 H -0.31890 -0.44650 -0.39120
C24 C -0.3511(2) -0.1828(5) -0.38123(17)
H29 H -0.30670 -0.13280 -0.39280
H30 H -0.39490 -0.10630 -0.39820
C25 C -0.33776(19) -0.1777(5) -0.31631(15)
H31 H -0.33060 -0.05100 -0.30330
H32 H -0.29100 -0.24430 -0.29950
C26 C -0.40264(18) -0.2600(5) -0.29419(15)
C27 C -0.38231(18) -0.2747(5) -0.22881(15)
C28 C -0.3474(2) -0.1242(5) -0.19658(17)
H33 H -0.33750 -0.01950 -0.21640
C29 C -0.3275(2) -0.1248(5) -0.13843(18)
H34 H -0.30470 -0.02100 -0.11860
C30 C -0.34052(19) -0.2783(5) -0.10722(16)
C31 C -0.3196(2) -0.2842(7) -0.04692(17)
H35 H -0.29610 -0.18260 -0.02610
C32 C -0.3329(2) -0.4346(6) -0.01838(18)
H36 H -0.31980 -0.43630 0.02230
C33 C -0.3655(2) -0.5861(6) -0.04834(16)
H37 H -0.37300 -0.69170 -0.02800
C34 C -0.38693(19) -0.5842(5) -0.10679(16)
H38 H -0.40980 -0.68820 -0.12650
C35 C -0.37564(18) -0.4300(5) -0.13844(15)
C36 C -0.39870(18) -0.4230(4) -0.19973(15)
C37 C -0.44041(19) -0.5830(5) -0.23006(15)
H39 H -0.48160 -0.61490 -0.21150
H40 H -0.40580 -0.68710 -0.22590
C38 C -0.47341(18) -0.5491(5) -0.29378(15)
H41 H -0.48720 -0.66540 -0.31360
H42 H -0.51940 -0.47500 -0.29860
C39 C -0.41653(17) -0.4524(5) -0.32000(14)
H43 H -0.36830 -0.51780 -0.30460
C40 C -0.50559(18) -0.3993(5) -0.41875(15)
H44 H -0.51680 -0.44770 -0.45780
H45 H -0.50400 -0.26740 -0.42020
H46 H -0.54470 -0.43710 -0.39950
C41 C -0.4257(2) -0.6704(5) -0.40122(16)
H47 H -0.38100 -0.72530 -0.37670
H48 H -0.42290 -0.68120 -0.44140
H49 H -0.47070 -0.73250 -0.39560
C42 C -0.47072(19) -0.1317(5) -0.31016(17)
H50 H -0.48020 -0.10210 -0.35100
H51 H -0.46010 -0.02090 -0.28750
H52 H -0.51500 -0.19080 -0.30210
loop_
_geom_bond_atom_site_label_1
_geom_bond_atom_site_label_2
_geom_bond_distance
_geom_bond_site_symmetry_1
_geom_bond_site_symmetry_2
C1 C2 1.539 1_555 1_555
C2 H1 0.990 1_555 1_555
H2 C2 0.989 1_555 1_555
C3 C2 1.516 1_555 1_555
H3 C3 0.990 1_555 1_555
H4 C3 0.990 1_555 1_555
C4 C3 1.521 1_555 1_555
H5 C4 0.989 1_555 1_555
H6 C4 0.991 1_555 1_555
C5 C4 1.536 1_555 1_555
C6 C5 1.537 1_555 1_555
C7 C6 1.416 1_555 1_555
H7 C7 0.949 1_555 1_555
C8 C7 1.371 1_555 1_555
H8 C8 0.950 1_555 1_555
C9 C8 1.418 1_555 1_555
C10 C9 1.399 1_555 1_555
H9 C10 0.950 1_555 1_555
C11 C10 1.367 1_555 1_555
H10 C11 0.950 1_555 1_555
C12 C11 1.405 1_555 1_555
H11 C12 0.950 1_555 1_555
C13 C12 1.372 1_555 1_555
H12 C13 0.950 1_555 1_555
C14 C9 1.418 1_555 1_555
C15 C6 1.384 1_555 1_555
C16 C15 1.514 1_555 1_555
H13 C16 0.989 1_555 1_555
H14 C16 0.989 1_555 1_555
C17 C16 1.524 1_555 1_555
H15 C17 0.989 1_555 1_555
H16 C17 0.990 1_555 1_555
C18 C1 1.552 1_555 1_555
H17 C18 1.001 1_555 1_555
C19 C1 1.520 1_555 1_555
H18 C19 0.979 1_555 1_555
H19 C19 0.981 1_555 1_555
H20 C19 0.980 1_555 1_555
C20 C1 1.540 1_555 1_555
H21 C20 0.980 1_555 1_555
H22 C20 0.979 1_555 1_555
H23 C20 0.980 1_555 1_555
C21 C5 1.539 1_555 1_555
H24 C21 0.981 1_555 1_555
H25 C21 0.980 1_555 1_555
H26 C21 0.980 1_555 1_555
C22 C23 1.524 1_555 1_555
C23 H27 0.990 1_555 1_555
H28 C23 0.991 1_555 1_555
C24 C23 1.530 1_555 1_555
H29 C24 0.990 1_555 1_555
H30 C24 0.990 1_555 1_555
C25 C24 1.522 1_555 1_555
H31 C25 0.990 1_555 1_555
H32 C25 0.990 1_555 1_555
C26 C25 1.536 1_555 1_555
C27 C26 1.532 1_555 1_555
C28 C27 1.424 1_555 1_555
H33 C28 0.950 1_555 1_555
C29 C28 1.360 1_555 1_555
H34 C29 0.950 1_555 1_555
C30 C29 1.414 1_555 1_555
C31 C30 1.411 1_555 1_555
H35 C31 0.951 1_555 1_555
C32 C31 1.361 1_555 1_555
H36 C32 0.951 1_555 1_555
C33 C32 1.393 1_555 1_555
H37 C33 0.950 1_555 1_555
C34 C33 1.368 1_555 1_555
H38 C34 0.951 1_555 1_555
C35 C30 1.421 1_555 1_555
C36 C27 1.373 1_555 1_555
C37 C36 1.506 1_555 1_555
H39 C37 0.989 1_555 1_555
H40 C37 0.989 1_555 1_555
C38 C37 1.531 1_555 1_555
H41 C38 0.990 1_555 1_555
H42 C38 0.990 1_555 1_555
C39 C22 1.547 1_555 1_555
H43 C39 1.001 1_555 1_555
C40 C22 1.530 1_555 1_555
H44 C40 0.981 1_555 1_555
H45 C40 0.980 1_555 1_555
H46 C40 0.979 1_555 1_555
C41 C22 1.534 1_555 1_555
H47 C41 0.980 1_555 1_555
H48 C41 0.982 1_555 1_555
H49 C41 0.980 1_555 1_555
C42 C26 1.545 1_555 1_555
H50 C42 0.981 1_555 1_555
H51 C42 0.980 1_555 1_555
H52 C42 0.980 1_555 1_555
C5 C18 1.559 1_555 1_555
C13 C14 1.425 1_555 1_555
C14 C15 1.431 1_555 1_555
C17 C18 1.526 1_555 1_555
C26 C39 1.554 1_555 1_555
C34 C35 1.415 1_555 1_555
C35 C36 1.436 1_555 1_555
C38 C39 1.516 1_555 1_555
#END
