
#######################################################################
#
#                 Cambridge Crystallographic Data Centre
#                                CCDC
#
#######################################################################
#
# If this CIF has been generated from an entry in the Cambridge
# Structural Database, then it will include bibliographic, chemical,
# crystal, experimental, refinement or atomic coordinate data resulting
# from the CCDC's data processing and validation procedures.
#
#######################################################################

data_CSD_CIF_KUZNUP
_audit_creation_date 2010-11-24
_audit_creation_method CSD-ConQuest-V1
_database_code_CSD KUZNUP
_database_code_depnum_ccdc_archive 'CCDC 797769'
_chemical_formula_sum 'C30 H42'
_chemical_formula_moiety
;
C30 H42
;
_journal_coeditor_code "IUCr YA2127"
_journal_coden_Cambridge 1370
_journal_volume 66
_journal_year 2010
_journal_page_first o2565
_journal_name_full 'Acta Crystallogr.,Sect.E:Struct.Rep.Online '
loop_
_publ_author_name
"C.Kitamura"
"H.Tsukuda"
"T.Kawase"
"T.Kobayashi"
"H.Naito"
_chemical_name_systematic
;
1,4,5,8-Tetra-n-butylanthracene
;
_chemical_melting_point 368
_cell_volume    633.521
_exptl_crystal_colour 'colorless'
_exptl_crystal_density_diffrn 1.055
_exptl_crystal_description 'needle'
_exptl_crystal_preparation 'hexane'
_diffrn_ambient_temperature 223
#These two values have been output from a single CSD field.
_refine_ls_R_factor_gt 0.073
_refine_ls_wR_factor_gt 0.073
_symmetry_cell_setting triclinic
_symmetry_space_group_name_H-M 'P -1'
_symmetry_Int_Tables_number 2
loop_
_symmetry_equiv_pos_site_id
_symmetry_equiv_pos_as_xyz
1 x,y,z
2 -x,-y,-z
_cell_length_a 4.793(2)
_cell_length_b 11.497(6)
_cell_length_c 11.753(6)
_cell_angle_alpha 83.052(14)
_cell_angle_beta 82.205(15)
_cell_angle_gamma 83.202(15)
_cell_formula_units_Z 1
loop_
_atom_type_symbol
_atom_type_radius_bond
C 0.68
H 0.23
loop_
_atom_site_label
_atom_site_type_symbol
_atom_site_fract_x
_atom_site_fract_y
_atom_site_fract_z
C1 C 0.7400(4) 0.4153(2) 0.3252(2)
C2 C 0.8025(5) 0.2989(2) 0.3077(2)
H1 H 0.72140 0.26950 0.25000
C3 C 0.9869(5) 0.2214(2) 0.3745(2)
H2 H 1.02590 0.14240 0.35880
C4 C 1.1078(4) 0.2577(2) 0.4598(2)
C5 C 1.0540(4) 0.37919(19) 0.48075(18)
C6 C 0.8697(4) 0.45829(19) 0.41302(18)
C7 C 0.8223(4) 0.5758(2) 0.43552(18)
H3 H 0.70030 0.62740 0.39180
C8 C 0.5481(4) 0.4958(2) 0.2522(2)
H4 H 0.42400 0.54820 0.30160
H5 H 0.42800 0.44820 0.21980
C9 C 0.7059(4) 0.5708(2) 0.1533(2)
H6 H 0.82830 0.61730 0.18580
H7 H 0.82810 0.51820 0.10350
C10 C 0.5175(5) 0.6530(2) 0.0806(2)
H8 H 0.39910 0.70720 0.12980
H9 H 0.39160 0.60690 0.04950
C11 C 0.6765(7) 0.7242(3) -0.0187(3)
H10 H 0.80210 0.77010 0.01110
H11 H 0.54270 0.77670 -0.06060
H12 H 0.78670 0.67140 -0.07030
C12 C 1.2822(5) 0.1713(2) 0.5349(2)
H13 H 1.44720 0.20770 0.54930
H14 H 1.35140 0.10220 0.49390
C13 C 1.1155(5) 0.1314(2) 0.6507(2)
H15 H 1.02870 0.20140 0.68720
H16 H 0.96220 0.08810 0.63600
C14 C 1.2883(5) 0.0551(2) 0.7335(2)
H17 H 1.43680 0.09950 0.75100
H18 H 1.38130 -0.01350 0.69610
C15 C 1.1173(6) 0.0126(3) 0.8457(2)
H19 H 1.02220 0.07980 0.88280
H20 H 1.24270 -0.03350 0.89630
H21 H 0.97770 -0.03590 0.82970
C1A C 1.2600(4) 0.5847(2) 0.6748(2)
C2A C 1.1975(5) 0.7011(2) 0.6923(2)
H1A H 1.27860 0.73050 0.75000
C3A C 1.0131(5) 0.7786(2) 0.6255(2)
H2A H 0.97410 0.85760 0.64120
C4A C 0.8922(4) 0.7423(2) 0.5402(2)
C5A C 0.9460(4) 0.62081(19) 0.51925(18)
C6A C 1.1303(4) 0.54171(19) 0.58698(18)
C7A C 1.1777(4) 0.4242(2) 0.56448(18)
H3A H 1.29970 0.37260 0.60820
C8A C 1.4519(4) 0.5042(2) 0.7478(2)
H4A H 1.57600 0.45180 0.69840
H5A H 1.57200 0.55180 0.78020
C9A C 1.2941(4) 0.4292(2) 0.8467(2)
H6A H 1.17170 0.38270 0.81420
H7A H 1.17190 0.48180 0.89650
C10A C 1.4825(5) 0.3470(2) 0.9194(2)
H8A H 1.60090 0.29280 0.87020
H9A H 1.60840 0.39310 0.95050
C11A C 1.3235(7) 0.2758(3) 1.0187(3)
H10A H 1.19790 0.22990 0.98890
H11A H 1.45730 0.22330 1.06060
H12A H 1.21330 0.32860 1.07030
C12A C 0.7178(5) 0.8287(2) 0.4651(2)
H13A H 0.55280 0.79230 0.45070
H14A H 0.64860 0.89780 0.50610
C13A C 0.8845(5) 0.8686(2) 0.3493(2)
H15A H 0.97130 0.79860 0.31280
H16A H 1.03780 0.91190 0.36400
C14A C 0.7117(5) 0.9449(2) 0.2665(2)
H17A H 0.56320 0.90050 0.24900
H18A H 0.61870 1.01350 0.30390
C15A C 0.8827(6) 0.9874(3) 0.1543(2)
H19A H 0.97780 0.92020 0.11720
H20A H 0.75730 1.03350 0.10370
H21A H 1.02230 1.03590 0.17030
loop_
_geom_bond_atom_site_label_1
_geom_bond_atom_site_label_2
_geom_bond_distance
_geom_bond_site_symmetry_1
_geom_bond_site_symmetry_2
C1 C2 1.370 1_555 1_555
C2 H1 0.940 1_555 1_555
C3 C2 1.423 1_555 1_555
H2 C3 0.941 1_555 1_555
C4 C3 1.353 1_555 1_555
C5 C4 1.435 1_555 1_555
C6 C1 1.437 1_555 1_555
C7 C6 1.394 1_555 1_555
H3 C7 0.940 1_555 1_555
C8 C1 1.503 1_555 1_555
H4 C8 0.980 1_555 1_555
H5 C8 0.980 1_555 1_555
C9 C8 1.530 1_555 1_555
H6 C9 0.980 1_555 1_555
H7 C9 0.980 1_555 1_555
C10 C9 1.500 1_555 1_555
H8 C10 0.979 1_555 1_555
H9 C10 0.980 1_555 1_555
C11 C10 1.513 1_555 1_555
H10 C11 0.970 1_555 1_555
H11 C11 0.970 1_555 1_555
H12 C11 0.970 1_555 1_555
C12 C4 1.502 1_555 1_555
H13 C12 0.980 1_555 1_555
H14 C12 0.980 1_555 1_555
C13 C12 1.530 1_555 1_555
H15 C13 0.980 1_555 1_555
H16 C13 0.979 1_555 1_555
C14 C13 1.498 1_555 1_555
H17 C14 0.980 1_555 1_555
H18 C14 0.981 1_555 1_555
C15 C14 1.515 1_555 1_555
H19 C15 0.969 1_555 1_555
H20 C15 0.970 1_555 1_555
H21 C15 0.970 1_555 1_555
C1A C2A 1.370 1_555 1_555
C2A H1A 0.940 1_555 1_555
C3A C2A 1.423 1_555 1_555
H2A C3A 0.941 1_555 1_555
C4A C3A 1.353 1_555 1_555
C5A C7 1.393 1_555 1_555
C6A C1A 1.437 1_555 1_555
C7A C5 1.393 1_555 1_555
H3A C7A 0.940 1_555 1_555
C8A C1A 1.503 1_555 1_555
H4A C8A 0.980 1_555 1_555
H5A C8A 0.980 1_555 1_555
C9A C8A 1.530 1_555 1_555
H6A C9A 0.980 1_555 1_555
H7A C9A 0.980 1_555 1_555
C10A C9A 1.500 1_555 1_555
H8A C10A 0.979 1_555 1_555
H9A C10A 0.980 1_555 1_555
C11A C10A 1.513 1_555 1_555
H10A C11A 0.970 1_555 1_555
H11A C11A 0.970 1_555 1_555
H12A C11A 0.970 1_555 1_555
C12A C4A 1.502 1_555 1_555
H13A C12A 0.980 1_555 1_555
H14A C12A 0.980 1_555 1_555
C13A C12A 1.530 1_555 1_555
H15A C13A 0.980 1_555 1_555
H16A C13A 0.979 1_555 1_555
C14A C13A 1.498 1_555 1_555
H17A C14A 0.980 1_555 1_555
H18A C14A 0.981 1_555 1_555
C15A C14A 1.515 1_555 1_555
H19A C15A 0.969 1_555 1_555
H20A C15A 0.970 1_555 1_555
H21A C15A 0.970 1_555 1_555
C5 C6 1.438 1_555 1_555
C4A C5A 1.435 1_555 1_555
C5A C6A 1.438 1_555 1_555
C6A C7A 1.394 1_555 1_555
#END
