
#######################################################################
#
#                 Cambridge Crystallographic Data Centre
#                                CCDC
#
#######################################################################
#
# If this CIF has been generated from an entry in the Cambridge
# Structural Database, then it will include bibliographic, chemical,
# crystal, experimental, refinement or atomic coordinate data resulting
# from the CCDC's data processing and validation procedures.
#
#######################################################################

data_CSD_CIF_KUZXUA
_audit_creation_date 2016-01-19
_audit_creation_method CSD-ConQuest-V1
_database_code_CSD KUZXUA
_database_code_depnum_ccdc_archive 'CCDC 1448236'
_chemical_formula_sum 'C32 H16'
_chemical_formula_moiety
;
C32 H16
;
_journal_coden_Cambridge 1336
_journal_volume 18
_journal_year 2016
_journal_page_first 200
_journal_name_full 'Org.Lett. '
loop_
_publ_author_name
"S.Kumar"
"Man-Tzu Ho"
"Yu-Tai Tao"
_chemical_name_systematic
;
Dibenzo[a,d]coronene
;
_cell_volume    898.933
_exptl_crystal_colour 'yellow'
_exptl_crystal_density_diffrn 1.479
_exptl_crystal_description 'prism'
_diffrn_ambient_temperature 100
_diffrn_special_details
;
twin

;
#These two values have been output from a single CSD field.
_refine_ls_R_factor_gt 0.0406
_refine_ls_wR_factor_gt 0.0406
_symmetry_cell_setting monoclinic
_symmetry_space_group_name_H-M 'P 21'
_symmetry_Int_Tables_number 4
loop_
_symmetry_equiv_pos_site_id
_symmetry_equiv_pos_as_xyz
1 x,y,z
2 -x,1/2+y,-z
_cell_length_a 5.2697(2)
_cell_length_b 14.6808(6)
_cell_length_c 11.6839(4)
_cell_angle_alpha 90
_cell_angle_beta 96.013(2)
_cell_angle_gamma 90
_cell_formula_units_Z 2
loop_
_atom_type_symbol
_atom_type_radius_bond
C 0.68
H 0.23
loop_
_atom_site_label
_atom_site_type_symbol
_atom_site_fract_x
_atom_site_fract_y
_atom_site_fract_z
C1 C 0.3381(5) 0.49941(18) 0.6681(2)
C2 C 0.2265(5) 0.43307(17) 0.7406(2)
C3 C 0.3385(5) 0.41042(18) 0.8526(2)
H1 H 0.49770 0.43700 0.88020
C4 C 0.2245(5) 0.3514(2) 0.9224(2)
H2 H 0.30370 0.33800 0.99730
C5 C -0.0083(5) 0.31092(19) 0.8832(2)
H3 H -0.09520 0.27400 0.93340
C6 C -0.1105(5) 0.32480(19) 0.7718(2)
H4 H -0.26440 0.29460 0.74450
C7 C 0.0070(5) 0.38292(18) 0.6965(2)
C8 C -0.0811(5) 0.38803(18) 0.5756(2)
C9 C -0.2940(5) 0.33667(19) 0.5263(2)
H5 H -0.38980 0.30190 0.57520
C10 C -0.3636(5) 0.33622(19) 0.4107(2)
H6 H -0.50600 0.30080 0.38050
C11 C -0.2279(5) 0.38751(19) 0.3349(2)
C12 C -0.2993(5) 0.3883(2) 0.2146(2)
H7 H -0.44080 0.35270 0.18370
C13 C -0.1692(6) 0.4389(2) 0.1423(3)
H8 H -0.22000 0.43780 0.06190
C14 C 0.0417(6) 0.49344(19) 0.1863(2)
C15 C 0.1753(5) 0.5486(2) 0.1129(2)
H9 H 0.12320 0.54920 0.03250
C16 C 0.3765(6) 0.6006(2) 0.1556(2)
H10 H 0.46360 0.63650 0.10460
C17 C 0.4593(5) 0.60224(19) 0.2756(2)
C18 C 0.6715(5) 0.65407(19) 0.3218(3)
H11 H 0.76350 0.68910 0.27150
C19 C 0.7470(5) 0.65489(19) 0.4370(3)
H12 H 0.89260 0.68940 0.46540
C20 C 0.6119(5) 0.60500(17) 0.5155(2)
C21 C 0.6749(5) 0.61285(18) 0.6388(2)
C22 C 0.8735(5) 0.67049(18) 0.6873(3)
H13 H 0.98650 0.69710 0.63850
C23 C 0.9064(5) 0.6888(2) 0.8032(3)
H14 H 1.04450 0.72580 0.83440
C24 C 0.7357(5) 0.6527(2) 0.8746(2)
H15 H 0.74920 0.66920 0.95360
C25 C 0.5485(5) 0.59364(19) 0.8312(2)
H16 H 0.43290 0.57000 0.88090
C26 C 0.5232(5) 0.56684(19) 0.7138(2)
C27 C 0.2661(5) 0.49744(18) 0.5495(2)
C28 C 0.0569(5) 0.44082(17) 0.5022(2)
C29 C -0.0170(5) 0.44030(18) 0.3813(2)
C30 C 0.1180(5) 0.49420(18) 0.3058(2)
C31 C 0.3259(5) 0.54967(17) 0.3517(2)
C32 C 0.4015(5) 0.55166(17) 0.4729(2)
loop_
_geom_bond_atom_site_label_1
_geom_bond_atom_site_label_2
_geom_bond_distance
_geom_bond_site_symmetry_1
_geom_bond_site_symmetry_2
C1 C2 1.455 1_555 1_555
C2 C3 1.418 1_555 1_555
C3 H1 0.950 1_555 1_555
C4 C3 1.371 1_555 1_555
H2 C4 0.950 1_555 1_555
C5 C4 1.397 1_555 1_555
H3 C5 0.951 1_555 1_555
C6 C5 1.371 1_555 1_555
H4 C6 0.950 1_555 1_555
C7 C2 1.421 1_555 1_555
C8 C7 1.442 1_555 1_555
C9 C8 1.423 1_555 1_555
H5 C9 0.950 1_555 1_555
C10 C9 1.362 1_555 1_555
H6 C10 0.950 1_555 1_555
C11 C10 1.413 1_555 1_555
C12 C11 1.417 1_555 1_555
H7 C12 0.950 1_555 1_555
C13 C12 1.363 1_555 1_555
H8 C13 0.950 1_555 1_555
C14 C13 1.422 1_555 1_555
C15 C14 1.419 1_555 1_555
H9 C15 0.951 1_555 1_555
C16 C15 1.358 1_555 1_555
H10 C16 0.949 1_555 1_555
C17 C16 1.424 1_555 1_555
C18 C17 1.412 1_555 1_555
H11 C18 0.951 1_555 1_555
C19 C18 1.363 1_555 1_555
H12 C19 0.950 1_555 1_555
C20 C19 1.422 1_555 1_555
C21 C20 1.449 1_555 1_555
C22 C21 1.417 1_555 1_555
H13 C22 0.950 1_555 1_555
C23 C22 1.374 1_555 1_555
H14 C23 0.950 1_555 1_555
C24 C23 1.394 1_555 1_555
H15 C24 0.950 1_555 1_555
C25 C24 1.370 1_555 1_555
H16 C25 0.950 1_555 1_555
C26 C1 1.452 1_555 1_555
C27 C1 1.398 1_555 1_555
C28 C8 1.413 1_555 1_555
C29 C11 1.415 1_555 1_555
C30 C14 1.412 1_555 1_555
C31 C17 1.418 1_555 1_555
C32 C20 1.405 1_555 1_555
C6 C7 1.414 1_555 1_555
C21 C26 1.418 1_555 1_555
C25 C26 1.420 1_555 1_555
C27 C28 1.444 1_555 1_555
C27 C32 1.441 1_555 1_555
C28 C29 1.425 1_555 1_555
C29 C30 1.429 1_555 1_555
C30 C31 1.424 1_555 1_555
C31 C32 1.431 1_555 1_555
#END
