
#######################################################################
#
#                 Cambridge Crystallographic Data Centre
#                                CCDC
#
#######################################################################
#
# If this CIF has been generated from an entry in the Cambridge
# Structural Database, then it will include bibliographic, chemical,
# crystal, experimental, refinement or atomic coordinate data resulting
# from the CCDC's data processing and validation procedures.
#
#######################################################################

data_CSD_CIF_KUZYAH
_audit_creation_date 2016-01-19
_audit_creation_method CSD-ConQuest-V1
_database_code_CSD KUZYAH
_database_code_depnum_ccdc_archive 'CCDC 1448237'
_chemical_formula_sum 'C40 H20'
_chemical_formula_moiety
;
C40 H20
;
_journal_coden_Cambridge 1336
_journal_volume 18
_journal_year 2016
_journal_page_first 200
_journal_name_full 'Org.Lett. '
loop_
_publ_author_name
"S.Kumar"
"Man-Tzu Ho"
"Yu-Tai Tao"
_chemical_name_systematic
;
Dinaphtho[1,2-a:2',1'-d]coronene
;
_cell_volume   2283.438
_exptl_crystal_colour 'yellow'
_exptl_crystal_density_diffrn 1.456
_exptl_crystal_description 'prism'
_diffrn_ambient_temperature 100
#These two values have been output from a single CSD field.
_refine_ls_R_factor_gt 0.0543
_refine_ls_wR_factor_gt 0.0543
_symmetry_cell_setting monoclinic
_symmetry_space_group_name_H-M 'C 2/c'
_symmetry_Int_Tables_number 15
loop_
_symmetry_equiv_pos_site_id
_symmetry_equiv_pos_as_xyz
1 x,y,z
2 -x,y,1/2-z
3 1/2+x,1/2+y,z
4 1/2-x,1/2+y,1/2-z
5 -x,-y,-z
6 x,-y,-1/2+z
7 -1/2-x,-1/2-y,-z
8 -1/2+x,-1/2-y,-1/2+z
_cell_length_a 25.1911(10)
_cell_length_b 12.5917(5)
_cell_length_c 7.2168(3)
_cell_angle_alpha 90
_cell_angle_beta 94.052(2)
_cell_angle_gamma 90
_cell_formula_units_Z 4
loop_
_atom_type_symbol
_atom_type_radius_bond
C 0.68
H 0.23
loop_
_atom_site_label
_atom_site_type_symbol
_atom_site_fract_x
_atom_site_fract_y
_atom_site_fract_z
C1 C 0.50000 0.2564(2) 0.25000
C2 C 0.45371(7) 0.20072(16) 0.3081(3)
C3 C 0.45667(8) 0.09350(16) 0.3749(3)
H1 H 0.49010 0.05820 0.38260
C4 C 0.41321(8) 0.04078(16) 0.4276(3)
H2 H 0.41730 -0.02650 0.48640
C5 C 0.36152(8) 0.08580(16) 0.3951(3)
C6 C 0.31529(9) 0.02453(17) 0.4159(3)
H3 H 0.31860 -0.04530 0.46520
C7 C 0.26582(8) 0.06468(18) 0.3658(3)
H4 H 0.23490 0.02330 0.38170
C8 C 0.26102(8) 0.16730(18) 0.2910(3)
H5 H 0.22680 0.19400 0.25110
C9 C 0.30540(8) 0.22984(17) 0.2748(3)
H6 H 0.30130 0.29910 0.22370
C10 C 0.35697(8) 0.19252(16) 0.3331(3)
C11 C 0.40515(7) 0.25546(16) 0.3196(3)
C12 C 0.40577(7) 0.36941(16) 0.3276(3)
C13 C 0.36257(8) 0.42979(16) 0.3910(3)
H7 H 0.33210 0.39350 0.42940
C14 C 0.36380(8) 0.53780(17) 0.3980(3)
H8 H 0.33420 0.57520 0.44040
C15 C 0.40829(8) 0.59547(16) 0.3431(3)
C16 C 0.40931(8) 0.70834(17) 0.3404(3)
H9 H 0.37870 0.74690 0.37100
C17 C 0.45340(8) 0.76192(17) 0.2946(3)
H10 H 0.45300 0.83740 0.29240
C18 C 0.50000 0.7068(2) 0.25000
C19 C 0.50000 0.5944(2) 0.25000
C20 C 0.45366(7) 0.53801(16) 0.2959(3)
C21 C 0.45302(7) 0.42488(16) 0.2926(3)
C22 C 0.50000 0.3675(2) 0.25000
C2A C 0.54629(7) 0.20072(16) 0.1919(3)
C3A C 0.54333(8) 0.09350(16) 0.1251(3)
H1A H 0.50990 0.05820 0.11740
C4A C 0.58679(8) 0.04078(16) 0.0724(3)
H2A H 0.58270 -0.02650 0.01360
C5A C 0.63848(8) 0.08580(16) 0.1049(3)
C6A C 0.68471(9) 0.02453(17) 0.0841(3)
H3A H 0.68140 -0.04530 0.03480
C7A C 0.73418(8) 0.06468(18) 0.1342(3)
H4A H 0.76510 0.02330 0.11830
C8A C 0.73898(8) 0.16730(18) 0.2090(3)
H5A H 0.77320 0.19400 0.24890
C9A C 0.69460(8) 0.22984(17) 0.2252(3)
H6A H 0.69870 0.29910 0.27630
C10A C 0.64303(8) 0.19252(16) 0.1669(3)
C11A C 0.59485(7) 0.25546(16) 0.1804(3)
C12A C 0.59423(7) 0.36941(16) 0.1724(3)
C13A C 0.63743(8) 0.42979(16) 0.1090(3)
H7A H 0.66790 0.39350 0.07060
C14A C 0.63620(8) 0.53780(17) 0.1020(3)
H8A H 0.66580 0.57520 0.05960
C15A C 0.59171(8) 0.59547(16) 0.1569(3)
C16A C 0.59069(8) 0.70834(17) 0.1596(3)
H9A H 0.62130 0.74690 0.12900
C17A C 0.54660(8) 0.76192(17) 0.2054(3)
H10A H 0.54700 0.83740 0.20760
C20A C 0.54634(7) 0.53801(16) 0.2041(3)
C21A C 0.54698(7) 0.42488(16) 0.2074(3)
loop_
_geom_bond_atom_site_label_1
_geom_bond_atom_site_label_2
_geom_bond_distance
_geom_bond_site_symmetry_1
_geom_bond_site_symmetry_2
C1 C2 1.448 1_555 1_555
C2 C3 1.434 1_555 1_555
C3 H1 0.950 1_555 1_555
C4 C3 1.357 1_555 1_555
H2 C4 0.950 1_555 1_555
C5 C4 1.424 1_555 1_555
C6 C5 1.414 1_555 1_555
H3 C6 0.950 1_555 1_555
C7 C6 1.370 1_555 1_555
H4 C7 0.951 1_555 1_555
C8 C7 1.402 1_555 1_555
H5 C8 0.951 1_555 1_555
C9 C8 1.379 1_555 1_555
H6 C9 0.950 1_555 1_555
C10 C5 1.418 1_555 1_555
C11 C2 1.412 1_555 1_555
C12 C11 1.436 1_555 1_555
C13 C12 1.429 1_555 1_555
H7 C13 0.951 1_555 1_555
C14 C13 1.361 1_555 1_555
H8 C14 0.951 1_555 1_555
C15 C14 1.415 1_555 1_555
C16 C15 1.422 1_555 1_555
H9 C16 0.950 1_555 1_555
C17 C16 1.360 1_555 1_555
H10 C17 0.951 1_555 1_555
C18 C17 1.420 1_555 1_555
C19 C18 1.415 1_555 1_555
C20 C15 1.414 1_555 1_555
C21 C12 1.418 1_555 1_555
C22 C1 1.399 1_555 1_555
C2A C1 1.448 1_555 1_555
C3A C2A 1.434 1_555 1_555
H1A C3A 0.950 1_555 1_555
C4A C3A 1.357 1_555 1_555
H2A C4A 0.950 1_555 1_555
C5A C4A 1.424 1_555 1_555
C6A C5A 1.414 1_555 1_555
H3A C6A 0.950 1_555 1_555
C7A C6A 1.370 1_555 1_555
H4A C7A 0.951 1_555 1_555
C8A C7A 1.402 1_555 1_555
H5A C8A 0.951 1_555 1_555
C9A C8A 1.379 1_555 1_555
H6A C9A 0.950 1_555 1_555
C10A C5A 1.418 1_555 1_555
C11A C2A 1.412 1_555 1_555
C12A C11A 1.436 1_555 1_555
C13A C12A 1.429 1_555 1_555
H7A C13A 0.951 1_555 1_555
C14A C13A 1.361 1_555 1_555
H8A C14A 0.951 1_555 1_555
C15A C14A 1.415 1_555 1_555
C16A C15A 1.422 1_555 1_555
H9A C16A 0.950 1_555 1_555
C17A C18 1.420 1_555 1_555
H10A C17A 0.951 1_555 1_555
C20A C19 1.425 1_555 1_555
C21A C22 1.438 1_555 1_555
C9 C10 1.417 1_555 1_555
C10 C11 1.459 1_555 1_555
C19 C20 1.425 1_555 1_555
C20 C21 1.425 1_555 1_555
C21 C22 1.438 1_555 1_555
C9A C10A 1.417 1_555 1_555
C10A C11A 1.459 1_555 1_555
C12A C21A 1.418 1_555 1_555
C15A C20A 1.414 1_555 1_555
C16A C17A 1.360 1_555 1_555
C20A C21A 1.425 1_555 1_555
#END
