
#######################################################################
#
#                 Cambridge Crystallographic Data Centre
#                                CCDC
#
#######################################################################
#
# If this CIF has been generated from an entry in the Cambridge
# Structural Database, then it will include bibliographic, chemical,
# crystal, experimental, refinement or atomic coordinate data resulting
# from the CCDC's data processing and validation procedures.
#
#######################################################################

data_CSD_CIF_LAHGUW
_audit_creation_date 1993-10-28
_audit_creation_method CSD-ConQuest-V1
_database_code_CSD LAHGUW
_database_code_depnum_ccdc_archive 'CCDC 1202853'
_chemical_formula_sum 'C34 H28'
_chemical_formula_moiety
;
C34 H28
;
_journal_coden_Cambridge 182
_journal_year 1993
_journal_page_first 760
_journal_name_full 'Chem.Commun. '
loop_
_publ_author_name
"F.Vogtle"
"E.Schmohel"
"M.Nieger"
_chemical_name_systematic
;
1-(5-Phenylpenta-2(E),4(E)-dienylidene)-2-(5-phenylpenta-1(Z),4(E)-dienyl)acen
aphthene
;
_chemical_melting_point 426.15
_cell_volume   4916.316
_exptl_crystal_colour 'yellow'
_exptl_crystal_density_diffrn 1.18
_exptl_special_details
;
Melting point range 426.15-428.15K

;
_diffrn_ambient_temperature ?
_diffrn_special_details
;
The study was carried out at room temperature,in the range 283-303K

;
#These two values have been output from a single CSD field.
_refine_ls_R_factor_gt 0.069
_refine_ls_wR_factor_gt 0.069
_symmetry_cell_setting monoclinic
_symmetry_space_group_name_H-M 'P 21/c'
_symmetry_Int_Tables_number 14
loop_
_symmetry_equiv_pos_site_id
_symmetry_equiv_pos_as_xyz
1 x,y,z
2 -x,1/2+y,1/2-z
3 -x,-y,-z
4 x,-1/2-y,-1/2+z
_cell_length_a 33.217(6)
_cell_length_b 5.513(1)
_cell_length_c 27.033(4)
_cell_angle_alpha 90
_cell_angle_beta 96.73(2)
_cell_angle_gamma 90
_cell_formula_units_Z 8
loop_
_atom_type_symbol
_atom_type_radius_bond
C 0.68
H 0.23
loop_
_atom_site_label
_atom_site_type_symbol
_atom_site_fract_x
_atom_site_fract_y
_atom_site_fract_z
C1 C 0.1248(1) 0.6412(8) 0.0699(2)
C2 C 0.1662(1) 0.6611(9) 0.0787(2)
C3 C 0.1837(1) 0.8520(9) 0.1049(2)
C4 C 0.1595(1) 1.0250(9) 0.1237(2)
C5 C 0.1177(1) 1.0051(8) 0.1148(2)
C6 C 0.0995(1) 0.8144(8) 0.0875(1)
C7 C 0.0550(1) 0.7926(9) 0.0759(2)
C8 C 0.0281(1) 0.9669(9) 0.0789(2)
C9 C -0.0171(1) 0.9524(8) 0.0652(2)
C10 C -0.0321(1) 0.7247(8) 0.0409(2)
C11 C -0.0638(1) 0.5939(8) 0.0504(1)
C12 C -0.0921(1) 0.6438(8) 0.0889(1)
C13 C -0.1355(1) 0.6791(8) 0.0640(1)
C14 C -0.1520(1) 0.8374(8) 0.0284(2)
C15 C -0.1942(1) 0.8208(9) 0.0125(2)
C16 C -0.2185(1) 0.6523(9) 0.0311(2)
C17 C -0.2019(1) 0.4846(8) 0.0672(1)
C18 C -0.2221(1) 0.2973(8) 0.0902(2)
C19 C -0.2015(1) 0.1512(8) 0.1245(2)
C20 C -0.1596(1) 0.1723(8) 0.1395(1)
C21 C -0.1389(1) 0.3540(8) 0.1179(1)
C22 C -0.1604(1) 0.5043(8) 0.0825(1)
C23 C -0.0965(1) 0.4324(8) 0.1248(1)
C24 C -0.0665(1) 0.3422(9) 0.1573(1)
C25 C -0.0249(1) 0.4209(9) 0.1648(2)
C26 C 0.0041(1) 0.3191(9) 0.1958(2)
C27 C 0.0462(1) 0.3885(9) 0.2017(2)
C28 C 0.0750(1) 0.2706(9) 0.2303(2)
C29 C 0.1187(1) 0.3146(8) 0.2376(1)
C30 C 0.1371(1) 0.5141(9) 0.2179(2)
C31 C 0.1785(1) 0.5411(9) 0.2253(2)
C32 C 0.2025(1) 0.3725(9) 0.2525(2)
C33 C 0.1851(1) 0.1769(9) 0.2724(2)
C34 C 0.1435(1) 0.1494(8) 0.2651(1)
H1 H 0.11300 0.50590 0.05110
H2 H 0.18330 0.54040 0.06630
H3 H 0.21260 0.86600 0.11060
H4 H 0.17150 1.16080 0.14220
H5 H 0.10090 1.12260 0.12870
H6 H 0.04450 0.63700 0.06490
H7 H 0.03930 1.11800 0.09170
H8 H -0.02520 1.08300 0.04270
H9 H -0.03040 0.97460 0.09450
H10 H -0.01620 0.66250 0.01630
H11 H -0.06970 0.44990 0.03100
H12 H -0.08320 0.78680 0.10730
H13 H -0.13530 0.95780 0.01510
H14 H -0.20590 0.93170 -0.01250
H15 H -0.24690 0.64610 0.01950
H16 H -0.25070 0.27470 0.08100
H17 H -0.21620 0.02640 0.13950
H18 H -0.14580 0.06440 0.16360
H19 H -0.07340 0.21110 0.17810
H20 H -0.01780 0.55850 0.14590
H21 H -0.00360 0.18770 0.21600
H22 H 0.05430 0.52700 0.18380
H23 H 0.06540 0.13680 0.24840
H24 H 0.12060 0.63080 0.19850
H25 H 0.19100 0.67940 0.21190
H26 H 0.23140 0.39160 0.25740
H27 H 0.20170 0.06030 0.29180
H28 H 0.13120 0.01030 0.27860
C35 C 0.6279(1) 0.1379(9) 0.4921(2)
C36 C 0.6696(2) 0.1529(10) 0.5040(2)
C37 C 0.6913(2) 0.3401(10) 0.4858(2)
C38 C 0.6706(2) 0.5116(10) 0.4568(2)
C39 C 0.6292(1) 0.5031(9) 0.4453(2)
C40 C 0.6069(1) 0.3143(9) 0.4630(2)
C41 C 0.5620(1) 0.2961(9) 0.4527(2)
C42 C 0.5366(1) 0.4690(9) 0.4367(2)
C43 C 0.4914(1) 0.4580(9) 0.4272(2)
C44 C 0.4737(1) 0.2266(9) 0.4415(2)
C45 C 0.4452(1) 0.0978(9) 0.4146(2)
C46 C 0.4238(1) 0.1583(8) 0.3644(1)
C47 C 0.3787(1) 0.1946(8) 0.3678(2)
C48 C 0.3585(1) 0.3509(9) 0.3958(2)
C49 C 0.3161(1) 0.3361(9) 0.3917(2)
C50 C 0.2942(1) 0.1706(9) 0.3618(2)
C51 C 0.3141(1) 0.0018(9) 0.3333(2)
C52 C 0.2969(1) -0.1852(9) 0.3024(2)
C53 C 0.3212(1) -0.3363(9) 0.2784(2)
C54 C 0.3636(1) -0.3140(9) 0.2833(2)
C55 C 0.3813(1) -0.1308(8) 0.3128(2)
C56 C 0.3565(1) 0.0220(8) 0.3380(1)
C57 C 0.4237(1) -0.0533(8) 0.3264(2)
C58 C 0.4566(1) -0.1476(9) 0.3091(2)
C59 C 0.4977(1) -0.0751(9) 0.3229(2)
C60 C 0.5303(1) -0.1849(10) 0.3081(2)
C61 C 0.5714(1) -0.1224(9) 0.3240(2)
C62 C 0.6034(1) -0.2455(9) 0.3115(2)
C63 C 0.6468(1) -0.1999(8) 0.3268(2)
C64 C 0.6609(1) -0.0003(9) 0.3553(2)
C65 C 0.7022(2) 0.0342(10) 0.3680(2)
C66 C 0.7299(1) -0.1268(10) 0.3528(2)
C67 C 0.7162(1) -0.3211(9) 0.3248(2)
C68 C 0.6752(1) -0.3580(9) 0.3117(2)
H29 H 0.61310 0.00450 0.50390
H30 H 0.68350 0.02900 0.52420
H31 H 0.72020 0.35100 0.49420
H32 H 0.68540 0.64140 0.44370
H33 H 0.61530 0.62640 0.42490
H34 H 0.55010 0.14140 0.45840
H35 H 0.54940 0.61920 0.42970
H36 H 0.48280 0.48510 0.39250
H37 H 0.48050 0.58590 0.44570
H38 H 0.48470 0.16280 0.47320
H39 H 0.43710 -0.05210 0.42850
H40 H 0.43550 0.30140 0.35170
H41 H 0.37330 0.46650 0.41730
H42 H 0.30170 0.44650 0.41070
H43 H 0.26520 0.16650 0.36020
H44 H 0.26810 -0.20950 0.29850
H45 H 0.30860 -0.46220 0.25740
H46 H 0.38000 -0.42440 0.26670
H47 H 0.45230 -0.27210 0.28420
H48 H 0.50250 0.06030 0.34520
H49 H 0.52560 -0.31870 0.28540
H50 H 0.57660 0.01910 0.34450
H51 H 0.59690 -0.38160 0.28990
H52 H 0.64180 0.11240 0.36640
H53 H 0.71170 0.17260 0.38750
H54 H 0.75840 -0.10220 0.36160
H55 H 0.73540 -0.43500 0.31400
H56 H 0.66600 -0.49550 0.29170
loop_
_geom_bond_atom_site_label_1
_geom_bond_atom_site_label_2
_geom_bond_distance
_geom_bond_site_symmetry_1
_geom_bond_site_symmetry_2
C1 C2 1.372 1_555 1_555
C2 C3 1.360 1_555 1_555
C3 C4 1.382 1_555 1_555
C4 C5 1.385 1_555 1_555
C5 C6 1.382 1_555 1_555
C6 C1 1.392 1_555 1_555
C7 C6 1.480 1_555 1_555
C8 C7 1.321 1_555 1_555
C9 C8 1.506 1_555 1_555
C10 C9 1.476 1_555 1_555
C11 C10 1.326 1_555 1_555
C12 C11 1.507 1_555 1_555
C13 C12 1.530 1_555 1_555
C14 C13 1.365 1_555 1_555
C15 C14 1.420 1_555 1_555
C16 C15 1.365 1_555 1_555
C17 C16 1.409 1_555 1_555
C18 C17 1.415 1_555 1_555
C19 C18 1.352 1_555 1_555
C20 C19 1.408 1_555 1_555
C21 C20 1.382 1_555 1_555
C22 C13 1.400 1_555 1_555
C23 C12 1.535 1_555 1_555
C24 C23 1.344 1_555 1_555
C25 C24 1.440 1_555 1_555
C26 C25 1.325 1_555 1_555
C27 C26 1.441 1_555 1_555
C28 C27 1.327 1_555 1_555
C29 C28 1.462 1_555 1_555
C30 C29 1.394 1_555 1_555
C31 C30 1.374 1_555 1_555
C32 C31 1.379 1_555 1_555
C33 C32 1.364 1_555 1_555
C34 C29 1.385 1_555 1_555
H1 C1 0.960 1_555 1_555
H2 C2 0.960 1_555 1_555
H3 C3 0.957 1_555 1_555
H4 C4 0.961 1_555 1_555
H5 C5 0.960 1_555 1_555
H6 C7 0.960 1_555 1_555
H7 C8 0.960 1_555 1_555
H8 C9 0.960 1_555 1_555
H9 C9 0.959 1_555 1_555
H10 C10 0.960 1_555 1_555
H11 C11 0.959 1_555 1_555
H12 C12 0.960 1_555 1_555
H13 C14 0.961 1_555 1_555
H14 C15 0.959 1_555 1_555
H15 C16 0.959 1_555 1_555
H16 C18 0.962 1_555 1_555
H17 C19 0.961 1_555 1_555
H18 C20 0.958 1_555 1_555
H19 C24 0.960 1_555 1_555
H20 C25 0.959 1_555 1_555
H21 C26 0.960 1_555 1_555
H22 C27 0.959 1_555 1_555
H23 C28 0.960 1_555 1_555
H24 C30 0.960 1_555 1_555
H25 C31 0.959 1_555 1_555
H26 C32 0.959 1_555 1_555
H27 C33 0.962 1_555 1_555
H28 C34 0.961 1_555 1_555
C35 C36 1.387 1_555 1_555
C36 C37 1.382 1_555 1_555
C37 C38 1.362 1_555 1_555
C38 C39 1.375 1_555 1_555
C39 C40 1.394 1_555 1_555
C40 C35 1.387 1_555 1_555
C41 C40 1.488 1_555 1_555
C42 C41 1.312 1_555 1_555
C43 C42 1.494 1_555 1_555
C44 C43 1.475 1_555 1_555
C45 C44 1.330 1_555 1_555
C46 C45 1.494 1_555 1_555
C47 C46 1.525 1_555 1_555
C48 C47 1.373 1_555 1_555
C49 C48 1.402 1_555 1_555
C50 C49 1.370 1_555 1_555
C51 C50 1.420 1_555 1_555
C52 C51 1.405 1_555 1_555
C53 C52 1.374 1_555 1_555
C54 C53 1.404 1_555 1_555
C55 C54 1.375 1_555 1_555
C56 C47 1.400 1_555 1_555
C57 C46 1.554 1_555 1_555
C58 C57 1.343 1_555 1_555
C59 C58 1.429 1_555 1_555
C60 C59 1.342 1_555 1_555
C61 C60 1.425 1_555 1_555
C62 C61 1.337 1_555 1_555
C63 C62 1.474 1_555 1_555
C64 C63 1.393 1_555 1_555
C65 C64 1.388 1_555 1_555
C66 C65 1.375 1_555 1_555
C67 C66 1.359 1_555 1_555
C68 C63 1.381 1_555 1_555
H29 C35 0.960 1_555 1_555
H30 C36 0.959 1_555 1_555
H31 C37 0.962 1_555 1_555
H32 C38 0.959 1_555 1_555
H33 C39 0.959 1_555 1_555
H34 C41 0.960 1_555 1_555
H35 C42 0.960 1_555 1_555
H36 C43 0.960 1_555 1_555
H37 C43 0.960 1_555 1_555
H38 C44 0.958 1_555 1_555
H39 C45 0.959 1_555 1_555
H40 C46 0.961 1_555 1_555
H41 C48 0.958 1_555 1_555
H42 C49 0.959 1_555 1_555
H43 C50 0.959 1_555 1_555
H44 C52 0.959 1_555 1_555
H45 C53 0.961 1_555 1_555
H46 C54 0.962 1_555 1_555
H47 C58 0.960 1_555 1_555
H48 C59 0.961 1_555 1_555
H49 C60 0.961 1_555 1_555
H50 C61 0.961 1_555 1_555
H51 C62 0.960 1_555 1_555
H52 C64 0.961 1_555 1_555
H53 C65 0.959 1_555 1_555
H54 C66 0.958 1_555 1_555
H55 C67 0.964 1_555 1_555
H56 C68 0.960 1_555 1_555
C17 C22 1.396 1_555 1_555
C21 C22 1.397 1_555 1_555
C21 C23 1.464 1_555 1_555
C33 C34 1.381 1_555 1_555
C51 C56 1.404 1_555 1_555
C55 C56 1.408 1_555 1_555
C55 C57 1.476 1_555 1_555
C67 C68 1.381 1_555 1_555
#END
