
#######################################################################
#
#                 Cambridge Crystallographic Data Centre
#                                CCDC
#
#######################################################################
#
# If this CIF has been generated from an entry in the Cambridge
# Structural Database, then it will include bibliographic, chemical,
# crystal, experimental, refinement or atomic coordinate data resulting
# from the CCDC's data processing and validation procedures.
#
#######################################################################

data_CSD_CIF_LAQXOR
_audit_creation_date 2005-12-01
_audit_creation_method CSD-ConQuest-V1
_database_code_CSD LAQXOR
_database_code_depnum_ccdc_archive 'CCDC 280076'
_chemical_formula_sum 'C18 H16'
_chemical_formula_moiety
;
C18 H16
;
_journal_coden_Cambridge 4
_journal_volume 127
_journal_year 2005
_journal_page_first 10162
_journal_name_full 'J.Am.Chem.Soc. '
loop_
_publ_author_name
"T.Uto"
"T.Nishinaga"
"A.Matsuura"
"R.Inoue"
"K.Komatsu"
_chemical_name_systematic
;
Hexacyclo(13.1.1.1^4,6^.0^2,14^.0^3,7^.0^8,13^)octadeca-2,7,8,10,12,13-hexene
;
_chemical_melting_point 419.55
_cell_volume   2468.320
_exptl_crystal_colour 'colorless'
_exptl_crystal_density_diffrn 1.25
_exptl_special_details
;
Melting point range 419.55-419.75K

;
_exptl_crystal_description 'plate'
_diffrn_ambient_temperature 100
#These two values have been output from a single CSD field.
_refine_ls_R_factor_gt 0.0458
_refine_ls_wR_factor_gt 0.0458
_symmetry_cell_setting monoclinic
_symmetry_space_group_name_H-M 'P 21/n'
_symmetry_Int_Tables_number 14
loop_
_symmetry_equiv_pos_site_id
_symmetry_equiv_pos_as_xyz
1 x,y,z
2 1/2-x,1/2+y,1/2-z
3 -x,-y,-z
4 -1/2+x,-1/2-y,-1/2+z
_cell_length_a 15.825(3)
_cell_length_b 8.8911(17)
_cell_length_c 17.766(3)
_cell_angle_alpha 90
_cell_angle_beta 99.089(4)
_cell_angle_gamma 90
_cell_formula_units_Z 8
loop_
_atom_type_symbol
_atom_type_radius_bond
C 0.68
H 0.23
loop_
_atom_site_label
_atom_site_type_symbol
_atom_site_fract_x
_atom_site_fract_y
_atom_site_fract_z
C1 C 0.25542(16) 0.8569(2) 0.06260(12)
C2 C 0.28970(18) 0.9754(2) 0.11451(13)
C3 C 0.37758(17) 1.0142(2) 0.11754(13)
H1 H 0.40170 1.08980 0.15220
C4 C 0.31097(17) 0.7911(2) 0.01612(13)
H2 H 0.28950 0.71380 -0.01870
C5 C 0.42789(17) 0.9464(2) 0.07231(13)
H3 H 0.48640 0.97400 0.07600
C6 C 0.39309(18) 0.8350(2) 0.01995(14)
H4 H 0.42780 0.79050 -0.01300
C7 C 0.14995(17) 1.0026(2) 0.15429(13)
C8 C 0.23516(16) 1.0432(2) 0.15841(13)
C9 C 0.17000(16) 0.8168(2) 0.06152(13)
C10 C 0.11109(16) 0.6987(2) 0.01971(13)
H5 H 0.13180 0.62780 -0.01710
C11 C 0.11709(16) 0.8879(2) 0.10600(13)
C12 C 0.06639(16) 0.6394(2) 0.08646(13)
H6 H 0.10590 0.61100 0.13320
H7 H 0.02190 0.56200 0.07170
C13 C 0.03243(16) 0.8049(2) 0.08521(12)
H8 H -0.01890 0.83220 0.10870
C14 C 0.02766(16) 0.7927(2) -0.00328(12)
H9 H -0.02190 0.73520 -0.02970
H10 H 0.03560 0.88890 -0.02940
C15 C 0.24484(17) 1.1684(2) 0.21788(12)
H11 H 0.30060 1.22160 0.23330
C16 C 0.15979(16) 1.2570(2) 0.19200(13)
H12 H 0.15020 1.34300 0.22500
H13 H 0.14900 1.28450 0.13730
C17 C 0.19490(16) 1.0982(2) 0.27804(13)
H14 H 0.18980 1.16410 0.32200
H15 H 0.21290 0.99510 0.29440
C18 C 0.11777(17) 1.1060(2) 0.21182(13)
H16 H 0.05730 1.10180 0.22160
C19 C 0.62273(16) 0.4822(2) 0.12468(13)
C20 C 0.67957(17) 0.5667(2) 0.08864(12)
C21 C 0.74719(16) 0.3453(2) 0.18797(13)
C22 C 0.65896(16) 0.3673(2) 0.17779(13)
C23 C 0.80241(17) 0.4315(2) 0.15109(13)
C24 C 0.80005(17) 0.6609(2) 0.05085(13)
H17 H 0.86230 0.67170 0.04770
C25 C 0.60256(17) 0.2856(2) 0.21888(13)
H18 H 0.62560 0.21160 0.25490
C26 C 0.51715(17) 0.3121(3) 0.20727(14)
H19 H 0.48120 0.25850 0.23600
C27 C 0.76806(16) 0.5445(2) 0.10173(13)
C28 C 0.66906(17) 0.6948(2) 0.03191(13)
H20 H 0.61140 0.73710 0.01170
C29 C 0.80719(16) 0.2337(2) 0.23275(13)
H21 H 0.78560 0.15530 0.26530
C30 C 0.74440(16) 0.7984(2) 0.06805(13)
H22 H 0.74590 0.82050 0.12290
H23 H 0.75220 0.89040 0.03840
C31 C 0.73119(17) 0.6430(2) -0.02247(13)
H24 H 0.73720 0.71430 -0.06410
H25 H 0.72230 0.53850 -0.04140
C32 C 0.88268(17) 0.3404(2) 0.26557(13)
H26 H 0.93240 0.28950 0.29580
H27 H 0.86560 0.43140 0.29150
C33 C 0.53169(17) 0.5023(3) 0.11265(13)
H28 H 0.50620 0.57420 0.07650
C34 C 0.88915(17) 0.3623(2) 0.17918(13)
H29 H 0.94250 0.40100 0.16230
C35 C 0.86345(16) 0.1910(2) 0.17175(13)
H30 H 0.83110 0.16170 0.12160
H31 H 0.91050 0.11980 0.18940
C36 C 0.48124(18) 0.4195(3) 0.15240(14)
H32 H 0.42100 0.43400 0.14320
loop_
_geom_bond_atom_site_label_1
_geom_bond_atom_site_label_2
_geom_bond_distance
_geom_bond_site_symmetry_1
_geom_bond_site_symmetry_2
C1 C2 1.448 1_555 1_555
C2 C3 1.426 1_555 1_555
C3 H1 0.950 1_555 1_555
C4 C1 1.423 1_555 1_555
H2 C4 0.951 1_555 1_555
C5 C3 1.358 1_555 1_555
H3 C5 0.950 1_555 1_555
C6 C4 1.348 1_555 1_555
H4 C6 0.950 1_555 1_555
C7 C8 1.387 1_555 1_555
C8 C2 1.389 1_555 1_555
C9 C1 1.395 1_555 1_555
C10 C9 1.518 1_555 1_555
H5 C10 1.000 1_555 1_555
C11 C7 1.380 1_555 1_555
C12 C10 1.565 1_555 1_555
H6 C12 0.990 1_555 1_555
H7 C12 0.990 1_555 1_555
C13 C11 1.523 1_555 1_555
H8 C13 1.000 1_555 1_555
C14 C10 1.561 1_555 1_555
H9 C14 0.990 1_555 1_555
H10 C14 0.991 1_555 1_555
C15 C8 1.526 1_555 1_555
H11 C15 1.001 1_555 1_555
C16 C15 1.565 1_555 1_555
H12 C16 0.990 1_555 1_555
H13 C16 0.990 1_555 1_555
C17 C15 1.557 1_555 1_555
H14 C17 0.990 1_555 1_555
H15 C17 0.990 1_555 1_555
C18 C7 1.521 1_555 1_555
H16 C18 1.000 1_555 1_555
C19 C20 1.402 1_555 1_555
C20 C27 1.397 1_555 1_555
C21 C22 1.393 1_555 1_555
C22 C19 1.446 1_555 1_555
C23 C21 1.400 1_555 1_555
C24 H17 1.000 1_555 1_555
C25 C22 1.436 1_555 1_555
H18 C25 0.950 1_555 1_555
C26 C25 1.355 1_555 1_555
H19 C26 0.950 1_555 1_555
C27 C23 1.387 1_555 1_555
C28 C20 1.513 1_555 1_555
H20 C28 1.000 1_555 1_555
C29 C21 1.510 1_555 1_555
H21 C29 1.000 1_555 1_555
C30 C24 1.565 1_555 1_555
H22 C30 0.991 1_555 1_555
H23 C30 0.991 1_555 1_555
C31 C24 1.569 1_555 1_555
H24 C31 0.990 1_555 1_555
H25 C31 0.991 1_555 1_555
C32 C29 1.564 1_555 1_555
H26 C32 0.989 1_555 1_555
H27 C32 0.990 1_555 1_555
C33 C19 1.434 1_555 1_555
H28 C33 0.950 1_555 1_555
C34 C23 1.515 1_555 1_555
H29 C34 1.001 1_555 1_555
C35 C29 1.554 1_555 1_555
H30 C35 0.990 1_555 1_555
H31 C35 0.990 1_555 1_555
C36 C26 1.418 1_555 1_555
H32 C36 0.950 1_555 1_555
C5 C6 1.410 1_555 1_555
C9 C11 1.391 1_555 1_555
C12 C13 1.565 1_555 1_555
C13 C14 1.566 1_555 1_555
C16 C18 1.563 1_555 1_555
C17 C18 1.557 1_555 1_555
C24 C27 1.513 1_555 1_555
C28 C30 1.562 1_555 1_555
C28 C31 1.553 1_555 1_555
C32 C34 1.566 1_555 1_555
C33 C36 1.362 1_555 1_555
C34 C35 1.577 1_555 1_555
#END
