
#######################################################################
#
#                 Cambridge Crystallographic Data Centre
#                                CCDC
#
#######################################################################
#
# If this CIF has been generated from an entry in the Cambridge
# Structural Database, then it will include bibliographic, chemical,
# crystal, experimental, refinement or atomic coordinate data resulting
# from the CCDC's data processing and validation procedures.
#
#######################################################################

data_CSD_CIF_LAWRAE
_audit_creation_date 2012-06-19
_audit_creation_method CSD-ConQuest-V1
_database_code_CSD LAWRAE
_database_code_depnum_ccdc_archive 'CCDC 842100'
_chemical_formula_sum 'C60 H62'
_chemical_formula_moiety
;
C60 H62
;
_journal_coden_Cambridge 154
_journal_volume 65
_journal_year 2012
_journal_page_first 145
_journal_name_full 'Aust.J.Chem. '
loop_
_publ_author_name
"M.Brown"
"C.J.Dunn"
"C.M.Forsyth"
"P.Kemppinen"
"Th.B.Singh"
"M.A.Skidmore"
"K.N.Winzenberg"
_chemical_name_systematic
;
9,9,19,19-Tetrapentyl-9,19-dihydrodiindeno[1,2-g:1',2'-s]rubicene
;
_cell_volume   2194.008
_exptl_crystal_colour 'red'
_exptl_crystal_density_diffrn 1.185
_exptl_crystal_description 'prism'
_diffrn_ambient_temperature 123
_diffrn_special_details
;
twin

;
#These two values have been output from a single CSD field.
_refine_ls_R_factor_gt 0.0781
_refine_ls_wR_factor_gt 0.0781
_symmetry_cell_setting triclinic
_symmetry_space_group_name_H-M 'P -1'
_symmetry_Int_Tables_number 2
loop_
_symmetry_equiv_pos_site_id
_symmetry_equiv_pos_as_xyz
1 x,y,z
2 -x,-y,-z
_cell_length_a 9.8829(19)
_cell_length_b 13.629(3)
_cell_length_c 17.419(3)
_cell_angle_alpha 91.449(6)
_cell_angle_beta 94.875(9)
_cell_angle_gamma 109.933(6)
_cell_formula_units_Z 2
loop_
_atom_type_symbol
_atom_type_radius_bond
C 0.68
H 0.23
loop_
_atom_site_label
_atom_site_type_symbol
_atom_site_fract_x
_atom_site_fract_y
_atom_site_fract_z
C1 C 0.5025(6) 0.3653(4) 0.2334(3)
C2 C 0.6590(6) 0.4040(4) 0.2159(3)
C3 C 0.7784(6) 0.4826(4) 0.2540(3)
H1 H 0.76680 0.52300 0.29660
C4 C 0.9130(6) 0.5011(4) 0.2294(3)
H2 H 0.99320 0.55630 0.25440
C5 C 0.9352(6) 0.4413(4) 0.1688(3)
H3 H 1.02960 0.45410 0.15370
C6 C 0.8157(6) 0.3620(4) 0.1306(3)
H4 H 0.82780 0.32100 0.08850
C7 C 0.6824(5) 0.3443(4) 0.1543(3)
C8 C 0.5388(5) 0.2678(4) 0.1244(3)
C9 C 0.5035(5) 0.1924(4) 0.0629(3)
H5 H 0.57610 0.18300 0.03420
C10 C 0.3588(5) 0.1317(4) 0.0454(3)
C11 C 0.2913(5) 0.0491(4) -0.0153(3)
C12 C 0.3433(6) 0.0035(4) -0.0710(3)
H6 H 0.44400 0.02450 -0.07600
C13 C 0.2406(5) -0.0773(4) -0.1219(3)
H7 H 0.27500 -0.11100 -0.16020
C14 C 0.0935(5) -0.1074(4) -0.1168(3)
H8 H 0.02930 -0.16140 -0.15150
C15 C 0.0375(5) -0.0600(4) -0.0619(3)
C16 C 0.1390(5) 0.0195(4) -0.0098(3)
C17 C 0.1115(5) 0.0766(4) 0.0503(3)
C18 C 0.2512(5) 0.1487(4) 0.0869(3)
C19 C 0.2897(5) 0.2227(4) 0.1494(3)
H9 H 0.21770 0.23270 0.17830
C20 C 0.4330(5) 0.2808(4) 0.1681(3)
C21 C 0.4379(6) 0.4532(4) 0.2358(3)
H10 H 0.34490 0.42590 0.25870
H11 H 0.50370 0.51060 0.27140
C22 C 0.4103(6) 0.5000(4) 0.1600(3)
H12 H 0.49690 0.51570 0.13130
H13 H 0.32840 0.44800 0.12800
C23 C 0.3758(5) 0.5997(4) 0.1726(3)
H14 H 0.30080 0.58590 0.20910
H15 H 0.46390 0.65420 0.19780
C24 C 0.3241(6) 0.6432(4) 0.1019(3)
H16 H 0.23030 0.59250 0.07920
H17 H 0.39450 0.65210 0.06310
C25 C 0.3060(6) 0.7480(5) 0.1195(4)
H18 H 0.27750 0.77490 0.07140
H19 H 0.39770 0.79780 0.14350
H20 H 0.23100 0.73850 0.15480
C26 C 0.4897(6) 0.3168(4) 0.3135(3)
H21 H 0.53570 0.37400 0.35370
H22 H 0.38580 0.28720 0.32130
C27 C 0.5551(6) 0.2330(4) 0.3265(3)
H23 H 0.65660 0.25910 0.31390
H24 H 0.50130 0.17120 0.29140
C28 C 0.5513(6) 0.2002(5) 0.4107(3)
H25 H 0.59640 0.14590 0.41650
H26 H 0.60970 0.26140 0.44530
C29 C 0.4016(6) 0.1588(5) 0.4352(3)
H27 H 0.33920 0.10390 0.39670
H28 H 0.36120 0.21600 0.43680
C30 C 0.3993(6) 0.1130(5) 0.5149(3)
H29 H 0.29970 0.08680 0.52880
H30 H 0.45940 0.16750 0.55340
H31 H 0.43750 0.05550 0.51330
C31 C 0.1024(5) 0.1354(4) 0.7149(3)
C32 C -0.0578(5) 0.1141(4) 0.7169(3)
C33 C -0.1560(6) 0.0478(4) 0.7613(3)
H32 H -0.12320 0.00970 0.79910
C34 C -0.3004(6) 0.0364(4) 0.7515(3)
H33 H -0.36600 -0.00870 0.78290
C35 C -0.3508(6) 0.0905(4) 0.6959(3)
H34 H -0.45060 0.08210 0.68950
C36 C -0.2561(6) 0.1565(4) 0.6499(3)
H35 H -0.29060 0.19230 0.61110
C37 C -0.1104(5) 0.1696(4) 0.6611(3)
C38 C 0.0168(5) 0.2373(4) 0.6235(3)
C39 C 0.0246(6) 0.3075(4) 0.5674(3)
H36 H -0.06060 0.31720 0.54480
C40 C 0.1587(5) 0.3641(4) 0.5444(3)
C41 C 0.2034(5) 0.4439(4) 0.4870(3)
C42 C 0.1302(6) 0.4875(4) 0.4364(3)
H37 H 0.02760 0.46570 0.43280
C43 C 0.2100(5) 0.5664(4) 0.3889(3)
H38 H 0.15920 0.59680 0.35380
C44 C 0.3576(5) 0.5993(4) 0.3928(3)
H39 H 0.40680 0.65210 0.36030
C45 C 0.4395(6) 0.5560(4) 0.4445(3)
C46 C 0.3557(5) 0.4779(4) 0.4906(3)
C47 C 0.4117(5) 0.4207(4) 0.5455(3)
C48 C 0.2870(5) 0.3495(4) 0.5788(3)
C49 C 0.2758(5) 0.2762(4) 0.6350(3)
H40 H 0.35960 0.26480 0.65780
C50 C 0.1402(5) 0.2206(4) 0.6568(3)
C51 C 0.1878(6) 0.1722(4) 0.7947(3)
H41 H 0.15630 0.11440 0.82980
H42 H 0.29170 0.18680 0.78950
C52 C 0.1705(6) 0.2698(4) 0.8322(3)
H43 H 0.20910 0.32970 0.79980
H44 H 0.06650 0.25760 0.83520
C53 C 0.2498(6) 0.2957(4) 0.9126(3)
H45 H 0.35390 0.30870 0.90910
H46 H 0.21250 0.23470 0.94430
C54 C 0.2329(6) 0.3912(4) 0.9526(3)
H47 H 0.30810 0.41660 0.99690
H48 H 0.24930 0.44760 0.91600
C55 C 0.0873(7) 0.3698(5) 0.9811(4)
H49 H 0.08360 0.43360 1.00660
H50 H 0.07060 0.31470 1.01790
H51 H 0.01230 0.34700 0.93740
C56 C 0.1312(6) 0.0364(4) 0.6863(3)
H52 H 0.23460 0.05660 0.67760
H53 H 0.11370 -0.01340 0.72790
C57 C 0.0406(6) -0.0198(4) 0.6129(3)
H54 H -0.06260 -0.04510 0.62260
H55 H 0.05250 0.03090 0.57210
C58 C 0.0787(6) -0.1113(4) 0.5836(3)
H56 H 0.17720 -0.08430 0.56670
H57 H 0.01110 -0.14510 0.53760
C59 C 0.0741(6) -0.1949(4) 0.6418(3)
H58 H 0.09890 -0.25150 0.61650
H59 H 0.14880 -0.16320 0.68540
C60 C -0.0707(6) -0.2419(5) 0.6732(3)
H60 H -0.06430 -0.29150 0.71180
H61 H -0.14420 -0.27840 0.63090
H62 H -0.09760 -0.18620 0.69710
C1A C -0.5025(6) -0.3653(4) -0.2334(3)
C2A C -0.6590(6) -0.4040(4) -0.2159(3)
C3A C -0.7784(6) -0.4826(4) -0.2540(3)
H1A H -0.76680 -0.52300 -0.29660
C4A C -0.9130(6) -0.5011(4) -0.2294(3)
H2A H -0.99320 -0.55630 -0.25440
C5A C -0.9352(6) -0.4413(4) -0.1688(3)
H3A H -1.02960 -0.45410 -0.15370
C6A C -0.8157(6) -0.3620(4) -0.1306(3)
H4A H -0.82780 -0.32100 -0.08850
C7A C -0.6824(5) -0.3443(4) -0.1543(3)
C8A C -0.5388(5) -0.2678(4) -0.1244(3)
C9A C -0.5035(5) -0.1924(4) -0.0629(3)
H5A H -0.57610 -0.18300 -0.03420
C10A C -0.3588(5) -0.1317(4) -0.0454(3)
C11A C -0.2913(5) -0.0491(4) 0.0153(3)
C12A C -0.3433(6) -0.0035(4) 0.0710(3)
H6A H -0.44400 -0.02450 0.07600
C13A C -0.2406(5) 0.0773(4) 0.1219(3)
H7A H -0.27500 0.11100 0.16020
C14A C -0.0935(5) 0.1074(4) 0.1168(3)
H8A H -0.02930 0.16140 0.15150
C15A C -0.0375(5) 0.0600(4) 0.0619(3)
C16A C -0.1390(5) -0.0195(4) 0.0098(3)
C17A C -0.1115(5) -0.0766(4) -0.0503(3)
C18A C -0.2512(5) -0.1487(4) -0.0869(3)
C19A C -0.2897(5) -0.2227(4) -0.1494(3)
H9A H -0.21770 -0.23270 -0.17830
C20A C -0.4330(5) -0.2808(4) -0.1681(3)
C21A C -0.4379(6) -0.4532(4) -0.2358(3)
H10A H -0.34490 -0.42590 -0.25870
H11A H -0.50370 -0.51060 -0.27140
C22A C -0.4103(6) -0.5000(4) -0.1600(3)
H12A H -0.49690 -0.51570 -0.13130
H13A H -0.32840 -0.44800 -0.12800
C23A C -0.3758(5) -0.5997(4) -0.1726(3)
H14A H -0.30080 -0.58590 -0.20910
H15A H -0.46390 -0.65420 -0.19780
C24A C -0.3241(6) -0.6432(4) -0.1019(3)
H16A H -0.23030 -0.59250 -0.07920
H17A H -0.39450 -0.65210 -0.06310
C25A C -0.3060(6) -0.7480(5) -0.1195(4)
H18A H -0.27750 -0.77490 -0.07140
H19A H -0.39770 -0.79780 -0.14350
H20A H -0.23100 -0.73850 -0.15480
C26A C -0.4897(6) -0.3168(4) -0.3135(3)
H21A H -0.53570 -0.37400 -0.35370
H22A H -0.38580 -0.28720 -0.32130
C27A C -0.5551(6) -0.2330(4) -0.3265(3)
H23A H -0.65660 -0.25910 -0.31390
H24A H -0.50130 -0.17120 -0.29140
C28A C -0.5513(6) -0.2002(5) -0.4107(3)
H25A H -0.59640 -0.14590 -0.41650
H26A H -0.60970 -0.26140 -0.44530
C29A C -0.4016(6) -0.1588(5) -0.4352(3)
H27A H -0.33920 -0.10390 -0.39670
H28A H -0.36120 -0.21600 -0.43680
C30A C -0.3993(6) -0.1130(5) -0.5149(3)
H29A H -0.29970 -0.08680 -0.52880
H30A H -0.45940 -0.16750 -0.55340
H31A H -0.43750 -0.05550 -0.51330
C31A C 0.8976(5) 0.8646(4) 0.2851(3)
C32A C 1.0578(5) 0.8859(4) 0.2831(3)
C33A C 1.1560(6) 0.9522(4) 0.2387(3)
H32A H 1.12320 0.99030 0.20090
C34A C 1.3004(6) 0.9636(4) 0.2485(3)
H33A H 1.36600 1.00870 0.21710
C35A C 1.3508(6) 0.9095(4) 0.3041(3)
H34A H 1.45060 0.91790 0.31050
C36A C 1.2561(6) 0.8435(4) 0.3501(3)
H35A H 1.29060 0.80770 0.38890
C37A C 1.1104(5) 0.8304(4) 0.3389(3)
C38A C 0.9832(5) 0.7627(4) 0.3765(3)
C39A C 0.9754(6) 0.6925(4) 0.4326(3)
H36A H 1.06060 0.68280 0.45520
C40A C 0.8413(5) 0.6359(4) 0.4556(3)
C41A C 0.7966(5) 0.5561(4) 0.5130(3)
C42A C 0.8698(6) 0.5125(4) 0.5636(3)
H37A H 0.97240 0.53430 0.56720
C43A C 0.7900(5) 0.4336(4) 0.6111(3)
H38A H 0.84080 0.40320 0.64620
C44A C 0.6424(5) 0.4007(4) 0.6072(3)
H39A H 0.59320 0.34790 0.63970
C45A C 0.5605(6) 0.4440(4) 0.5555(3)
C46A C 0.6443(5) 0.5221(4) 0.5094(3)
C47A C 0.5883(5) 0.5793(4) 0.4545(3)
C48A C 0.7130(5) 0.6505(4) 0.4212(3)
C49A C 0.7242(5) 0.7238(4) 0.3650(3)
H40A H 0.64040 0.73520 0.34220
C50A C 0.8598(5) 0.7794(4) 0.3432(3)
C51A C 0.8122(6) 0.8278(4) 0.2053(3)
H41A H 0.84370 0.88560 0.17020
H42A H 0.70830 0.81320 0.21050
C52A C 0.8295(6) 0.7302(4) 0.1678(3)
H43A H 0.79090 0.67030 0.20020
H44A H 0.93350 0.74240 0.16480
C53A C 0.7502(6) 0.7043(4) 0.0874(3)
H45A H 0.64610 0.69130 0.09090
H46A H 0.78750 0.76530 0.05570
C54A C 0.7671(6) 0.6088(4) 0.0474(3)
H47A H 0.69190 0.58340 0.00310
H48A H 0.75070 0.55240 0.08400
C55A C 0.9127(7) 0.6302(5) 0.0189(4)
H49A H 0.91640 0.56640 -0.00660
H50A H 0.92940 0.68530 -0.01790
H51A H 0.98770 0.65300 0.06260
C56A C 0.8688(6) 0.9636(4) 0.3137(3)
H52A H 0.76540 0.94340 0.32240
H53A H 0.88630 1.01340 0.27210
C57A C 0.9594(6) 1.0198(4) 0.3871(3)
H54A H 1.06260 1.04510 0.37740
H55A H 0.94750 0.96910 0.42790
C58A C 0.9213(6) 1.1113(4) 0.4164(3)
H56A H 0.82280 1.08430 0.43330
H57A H 0.98890 1.14510 0.46240
C59A C 0.9259(6) 1.1949(4) 0.3582(3)
H58A H 0.90110 1.25150 0.38350
H59A H 0.85120 1.16320 0.31460
C60A C 1.0707(6) 1.2419(5) 0.3268(3)
H60A H 1.06430 1.29150 0.28820
H61A H 1.14420 1.27840 0.36910
H62A H 1.09760 1.18620 0.30290
loop_
_geom_bond_atom_site_label_1
_geom_bond_atom_site_label_2
_geom_bond_distance
_geom_bond_site_symmetry_1
_geom_bond_site_symmetry_2
C1 C2 1.515 1_555 1_555
C2 C3 1.396 1_555 1_555
C3 H1 0.951 1_555 1_555
C4 C3 1.375 1_555 1_555
H2 C4 0.950 1_555 1_555
C5 C4 1.394 1_555 1_555
H3 C5 0.950 1_555 1_555
C6 C5 1.402 1_555 1_555
H4 C6 0.951 1_555 1_555
C7 C2 1.412 1_555 1_555
C8 C7 1.487 1_555 1_555
C9 C8 1.401 1_555 1_555
H5 C9 0.949 1_555 1_555
C10 C9 1.389 1_555 1_555
C11 C10 1.462 1_555 1_555
C12 C11 1.365 1_555 1_555
H6 C12 0.950 1_555 1_555
C13 C12 1.437 1_555 1_555
H7 C13 0.949 1_555 1_555
C14 C13 1.381 1_555 1_555
H8 C14 0.951 1_555 1_555
C15 C14 1.393 1_555 1_555
C16 C11 1.432 1_555 1_555
C17 C16 1.388 1_555 1_555
C18 C10 1.413 1_555 1_555
C19 C18 1.400 1_555 1_555
H9 C19 0.950 1_555 1_555
C20 C1 1.534 1_555 1_555
C21 C1 1.539 1_555 1_555
H10 C21 0.989 1_555 1_555
H11 C21 0.990 1_555 1_555
C22 C21 1.525 1_555 1_555
H12 C22 0.991 1_555 1_555
H13 C22 0.990 1_555 1_555
C23 C22 1.525 1_555 1_555
H14 C23 0.990 1_555 1_555
H15 C23 0.990 1_555 1_555
C24 C23 1.505 1_555 1_555
H16 C24 0.990 1_555 1_555
H17 C24 0.991 1_555 1_555
C25 C24 1.526 1_555 1_555
H18 C25 0.981 1_555 1_555
H19 C25 0.979 1_555 1_555
H20 C25 0.980 1_555 1_555
C26 C1 1.555 1_555 1_555
H21 C26 0.991 1_555 1_555
H22 C26 0.990 1_555 1_555
C27 C26 1.505 1_555 1_555
H23 C27 0.989 1_555 1_555
H24 C27 0.990 1_555 1_555
C28 C27 1.544 1_555 1_555
H25 C28 0.989 1_555 1_555
H26 C28 0.990 1_555 1_555
C29 C28 1.497 1_555 1_555
H27 C29 0.990 1_555 1_555
H28 C29 0.990 1_555 1_555
C30 C29 1.535 1_555 1_555
H29 C30 0.980 1_555 1_555
H30 C30 0.980 1_555 1_555
H31 C30 0.980 1_555 1_555
C31 C32 1.513 1_555 1_555
C32 C33 1.386 1_555 1_555
C33 H32 0.951 1_555 1_555
C34 C33 1.377 1_555 1_555
H33 C34 0.950 1_555 1_555
C35 C34 1.391 1_555 1_555
H34 C35 0.950 1_555 1_555
C36 C35 1.385 1_555 1_555
H35 C36 0.950 1_555 1_555
C37 C32 1.417 1_555 1_555
C38 C37 1.497 1_555 1_555
C39 C38 1.373 1_555 1_555
H36 C39 0.951 1_555 1_555
C40 C39 1.386 1_555 1_555
C41 C40 1.477 1_555 1_555
C42 C41 1.365 1_555 1_555
H37 C42 0.950 1_555 1_555
C43 C42 1.428 1_555 1_555
H38 C43 0.949 1_555 1_555
C44 C43 1.367 1_555 1_555
H39 C44 0.951 1_555 1_555
C45 C44 1.429 1_555 1_555
C46 C41 1.411 1_555 1_555
C47 C46 1.439 1_555 1_555
C48 C40 1.434 1_555 1_555
C49 C48 1.400 1_555 1_555
H40 C49 0.950 1_555 1_555
C50 C31 1.530 1_555 1_555
C51 C31 1.540 1_555 1_555
H41 C51 0.990 1_555 1_555
H42 C51 0.990 1_555 1_555
C52 C51 1.535 1_555 1_555
H43 C52 0.989 1_555 1_555
H44 C52 0.990 1_555 1_555
C53 C52 1.517 1_555 1_555
H45 C53 0.990 1_555 1_555
H46 C53 0.990 1_555 1_555
C54 C53 1.526 1_555 1_555
H47 C54 0.991 1_555 1_555
H48 C54 0.990 1_555 1_555
C55 C54 1.498 1_555 1_555
H49 C55 0.980 1_555 1_555
H50 C55 0.980 1_555 1_555
H51 C55 0.980 1_555 1_555
C56 C31 1.550 1_555 1_555
H52 C56 0.990 1_555 1_555
H53 C56 0.991 1_555 1_555
C57 C56 1.520 1_555 1_555
H54 C57 0.990 1_555 1_555
H55 C57 0.990 1_555 1_555
C58 C57 1.509 1_555 1_555
H56 C58 0.990 1_555 1_555
H57 C58 0.990 1_555 1_555
C59 C58 1.536 1_555 1_555
H58 C59 0.990 1_555 1_555
H59 C59 0.989 1_555 1_555
C60 C59 1.511 1_555 1_555
H60 C60 0.979 1_555 1_555
H61 C60 0.981 1_555 1_555
H62 C60 0.980 1_555 1_555
C1A C2A 1.515 1_555 1_555
C2A C3A 1.396 1_555 1_555
C3A H1A 0.951 1_555 1_555
C4A C3A 1.375 1_555 1_555
H2A C4A 0.950 1_555 1_555
C5A C4A 1.394 1_555 1_555
H3A C5A 0.950 1_555 1_555
C6A C5A 1.402 1_555 1_555
H4A C6A 0.951 1_555 1_555
C7A C2A 1.412 1_555 1_555
C8A C7A 1.487 1_555 1_555
C9A C8A 1.401 1_555 1_555
H5A C9A 0.949 1_555 1_555
C10A C9A 1.389 1_555 1_555
C11A C10A 1.462 1_555 1_555
C12A C11A 1.365 1_555 1_555
H6A C12A 0.950 1_555 1_555
C13A C12A 1.437 1_555 1_555
H7A C13A 0.949 1_555 1_555
C14A C13A 1.381 1_555 1_555
H8A C14A 0.951 1_555 1_555
C15A C17 1.444 1_555 1_555
C16A C11A 1.432 1_555 1_555
C17A C15 1.444 1_555 1_555
C18A C10A 1.413 1_555 1_555
C19A C18A 1.400 1_555 1_555
H9A C19A 0.950 1_555 1_555
C20A C1A 1.534 1_555 1_555
C21A C1A 1.539 1_555 1_555
H10A C21A 0.989 1_555 1_555
H11A C21A 0.990 1_555 1_555
C22A C21A 1.525 1_555 1_555
H12A C22A 0.991 1_555 1_555
H13A C22A 0.990 1_555 1_555
C23A C22A 1.525 1_555 1_555
H14A C23A 0.990 1_555 1_555
H15A C23A 0.990 1_555 1_555
C24A C23A 1.505 1_555 1_555
H16A C24A 0.990 1_555 1_555
H17A C24A 0.991 1_555 1_555
C25A C24A 1.526 1_555 1_555
H18A C25A 0.981 1_555 1_555
H19A C25A 0.979 1_555 1_555
H20A C25A 0.980 1_555 1_555
C26A C1A 1.555 1_555 1_555
H21A C26A 0.991 1_555 1_555
H22A C26A 0.990 1_555 1_555
C27A C26A 1.505 1_555 1_555
H23A C27A 0.989 1_555 1_555
H24A C27A 0.990 1_555 1_555
C28A C27A 1.544 1_555 1_555
H25A C28A 0.989 1_555 1_555
H26A C28A 0.990 1_555 1_555
C29A C28A 1.497 1_555 1_555
H27A C29A 0.990 1_555 1_555
H28A C29A 0.990 1_555 1_555
C30A C29A 1.535 1_555 1_555
H29A C30A 0.980 1_555 1_555
H30A C30A 0.980 1_555 1_555
H31A C30A 0.980 1_555 1_555
C31A C32A 1.513 1_555 1_555
C32A C33A 1.386 1_555 1_555
C33A H32A 0.951 1_555 1_555
C34A C33A 1.377 1_555 1_555
H33A C34A 0.950 1_555 1_555
C35A C34A 1.391 1_555 1_555
H34A C35A 0.950 1_555 1_555
C36A C35A 1.385 1_555 1_555
H35A C36A 0.950 1_555 1_555
C37A C32A 1.417 1_555 1_555
C38A C37A 1.497 1_555 1_555
C39A C38A 1.373 1_555 1_555
H36A C39A 0.951 1_555 1_555
C40A C39A 1.386 1_555 1_555
C41A C40A 1.477 1_555 1_555
C42A C41A 1.365 1_555 1_555
H37A C42A 0.950 1_555 1_555
C43A C42A 1.428 1_555 1_555
H38A C43A 0.949 1_555 1_555
C44A C43A 1.367 1_555 1_555
H39A C44A 0.951 1_555 1_555
C45A C47 1.389 1_555 1_555
C46A C41A 1.411 1_555 1_555
C47A C45 1.389 1_555 1_555
C48A C40A 1.434 1_555 1_555
C49A C48A 1.400 1_555 1_555
H40A C49A 0.950 1_555 1_555
C50A C31A 1.530 1_555 1_555
C51A C31A 1.540 1_555 1_555
H41A C51A 0.990 1_555 1_555
H42A C51A 0.990 1_555 1_555
C52A C51A 1.535 1_555 1_555
H43A C52A 0.989 1_555 1_555
H44A C52A 0.990 1_555 1_555
C53A C52A 1.517 1_555 1_555
H45A C53A 0.990 1_555 1_555
H46A C53A 0.990 1_555 1_555
C54A C53A 1.526 1_555 1_555
H47A C54A 0.991 1_555 1_555
H48A C54A 0.990 1_555 1_555
C55A C54A 1.498 1_555 1_555
H49A C55A 0.980 1_555 1_555
H50A C55A 0.980 1_555 1_555
H51A C55A 0.980 1_555 1_555
C56A C31A 1.550 1_555 1_555
H52A C56A 0.990 1_555 1_555
H53A C56A 0.991 1_555 1_555
C57A C56A 1.520 1_555 1_555
H54A C57A 0.990 1_555 1_555
H55A C57A 0.990 1_555 1_555
C58A C57A 1.509 1_555 1_555
H56A C58A 0.990 1_555 1_555
H57A C58A 0.990 1_555 1_555
C59A C58A 1.536 1_555 1_555
H58A C59A 0.990 1_555 1_555
H59A C59A 0.989 1_555 1_555
C60A C59A 1.511 1_555 1_555
H60A C60A 0.979 1_555 1_555
H61A C60A 0.981 1_555 1_555
H62A C60A 0.980 1_555 1_555
C6 C7 1.358 1_555 1_555
C8 C20 1.400 1_555 1_555
C15 C16 1.435 1_555 1_555
C17 C18 1.474 1_555 1_555
C19 C20 1.372 1_555 1_555
C36 C37 1.385 1_555 1_555
C38 C50 1.397 1_555 1_555
C45 C46 1.421 1_555 1_555
C47 C48 1.460 1_555 1_555
C49 C50 1.387 1_555 1_555
C6A C7A 1.358 1_555 1_555
C8A C20A 1.400 1_555 1_555
C14A C15A 1.393 1_555 1_555
C15A C16A 1.435 1_555 1_555
C16A C17A 1.388 1_555 1_555
C17A C18A 1.474 1_555 1_555
C19A C20A 1.372 1_555 1_555
C36A C37A 1.385 1_555 1_555
C38A C50A 1.397 1_555 1_555
C44A C45A 1.429 1_555 1_555
C45A C46A 1.421 1_555 1_555
C46A C47A 1.439 1_555 1_555
C47A C48A 1.460 1_555 1_555
C49A C50A 1.387 1_555 1_555
#END
