
#######################################################################
#
#                 Cambridge Crystallographic Data Centre
#                                CCDC
#
#######################################################################
#
# If this CIF has been generated from an entry in the Cambridge
# Structural Database, then it will include bibliographic, chemical,
# crystal, experimental, refinement or atomic coordinate data resulting
# from the CCDC's data processing and validation procedures.
#
#######################################################################

data_CSD_CIF_LEFVAT10
_audit_creation_date 1997-07-03
_audit_creation_method CSD-ConQuest-V1
_database_code_CSD LEFVAT10
_database_code_depnum_ccdc_archive 'CCDC 1204816'
_chemical_formula_sum 'C24 H28'
_chemical_formula_moiety
;
C24 H28
;
_journal_coden_Cambridge 4
_journal_volume 118
_journal_year 1996
_journal_page_first 9488
_journal_name_full 'J.Am.Chem.Soc. '
loop_
_publ_author_name
"Y.Tobe"
"S.Saiki"
"N.Utsumi"
"T.Kusumoto"
"H.Ishii"
"K.Kakiuchi"
"K.Kobiro"
"K.Naemura"
_chemical_name_systematic
;
1,4,5,8-Tetramethyl(6)(9,10)anthracenophane
;
_chemical_melting_point 434.15
_cell_volume   1791.855
_exptl_crystal_colour 'yellow'
_exptl_crystal_density_diffrn 1.173
_exptl_special_details
;
Melting point range 434.15-435.15K

;
_diffrn_ambient_temperature ?
_diffrn_special_details
;
The study was carried out at room temperature,in the range 283-303K

;
#These two values have been output from a single CSD field.
_refine_ls_R_factor_gt 0.034
_refine_ls_wR_factor_gt 0.034
_symmetry_cell_setting monoclinic
_symmetry_space_group_name_H-M 'P 21/c'
_symmetry_Int_Tables_number 14
loop_
_symmetry_equiv_pos_site_id
_symmetry_equiv_pos_as_xyz
1 x,y,z
2 -x,1/2+y,1/2-z
3 -x,-y,-z
4 x,-1/2-y,-1/2+z
_cell_length_a 13.620(4)
_cell_length_b 9.286(2)
_cell_length_c 15.645(2)
_cell_angle_alpha 90
_cell_angle_beta 115.10(1)
_cell_angle_gamma 90
_cell_formula_units_Z 4
loop_
_atom_type_symbol
_atom_type_radius_bond
C 0.68
H 0.23
loop_
_atom_site_label
_atom_site_type_symbol
_atom_site_fract_x
_atom_site_fract_y
_atom_site_fract_z
C1 C 0.2825(6) 0.4551(8) 0.7612(5)
C2 C 0.2010(6) 0.393(1) 0.6672(6)
C3 C 0.2362(6) 0.247(1) 0.6409(6)
C4 C 0.1649(6) 0.118(1) 0.6415(5)
C5 C 0.2281(6) -0.027(1) 0.6779(6)
C6 C 0.2372(6) -0.0750(8) 0.7753(5)
C7 C 0.2850(4) 0.0472(6) 0.8450(4)
C8 C 0.2119(5) 0.1350(6) 0.8648(4)
C9 C 0.1256(5) 0.0767(8) 0.8837(4)
C10 C 0.0527(5) 0.1683(9) 0.8917(5)
C11 C 0.0593(6) 0.3171(9) 0.8822(5)
C12 C 0.1412(5) 0.3801(7) 0.8676(4)
C13 C 0.2216(5) 0.2892(6) 0.8593(4)
C14 C 0.3052(5) 0.3437(6) 0.8372(4)
C15 C 0.4005(5) 0.2586(7) 0.8628(4)
C16 C 0.5049(5) 0.3196(7) 0.8818(4)
C17 C 0.5883(5) 0.2300(8) 0.8978(5)
C18 C 0.5773(5) 0.0801(8) 0.8968(5)
C19 C 0.4816(5) 0.0141(7) 0.8789(4)
C20 C 0.3893(5) 0.1046(7) 0.8639(4)
C21 C 0.1207(7) -0.0825(10) 0.9047(7)
C22 C 0.1475(9) 0.5419(9) 0.8718(8)
C23 C 0.5249(7) 0.4802(8) 0.8933(7)
C24 C 0.4813(7) -0.1486(8) 0.8866(6)
H1 H 0.254(4) 0.571(6) 0.776(4)
H2 H 0.346(4) 0.484(5) 0.749(3)
H3 H 0.127(4) 0.381(6) 0.672(3)
H4 H 0.185(4) 0.460(7) 0.607(4)
H5 H 0.231(5) 0.238(8) 0.582(4)
H6 H 0.318(4) 0.230(6) 0.687(3)
H7 H 0.118(4) 0.084(6) 0.581(3)
H8 H 0.130(4) 0.137(6) 0.692(3)
H9 H 0.187(4) -0.114(6) 0.628(4)
H10 H 0.300(4) -0.023(6) 0.684(3)
H11 H 0.159(4) -0.099(5) 0.763(3)
H12 H 0.281(4) -0.171(6) 0.787(4)
H13 H -0.009(3) 0.122(5) 0.902(3)
H14 H 0.012(4) 0.379(6) 0.896(4)
H15 H 0.652(3) 0.271(5) 0.912(3)
H16 H 0.635(3) 0.018(4) 0.906(3)
H17 H 0.191(4) -0.124(5) 0.929(3)
H18 H 0.073(6) -0.128(10) 0.846(5)
H19 H 0.088(4) -0.090(6) 0.946(4)
H20 H 0.218(5) 0.578(8) 0.900(5)
H21 H 0.110(5) 0.584(6) 0.807(4)
H22 H 0.102(5) 0.572(7) 0.904(4)
H23 H 0.472(4) 0.539(6) 0.910(4)
H24 H 0.516(7) 0.524(9) 0.838(5)
H25 H 0.605(4) 0.504(6) 0.947(4)
H26 H 0.567(4) -0.201(6) 0.922(3)
H27 H 0.465(4) -0.185(6) 0.825(3)
H28 H 0.438(3) -0.181(5) 0.914(3)
loop_
_geom_bond_atom_site_label_1
_geom_bond_atom_site_label_2
_geom_bond_distance
_geom_bond_site_symmetry_1
_geom_bond_site_symmetry_2
C1 C2 1.531 1_555 1_555
C2 C3 1.551 1_555 1_555
C3 C4 1.545 1_555 1_555
C4 C5 1.569 1_555 1_555
C5 C6 1.541 1_555 1_555
C6 C7 1.516 1_555 1_555
C7 C8 1.419 1_555 1_555
C8 C9 1.434 1_555 1_555
C9 C10 1.353 1_555 1_555
C10 C11 1.397 1_555 1_555
C11 C12 1.362 1_555 1_555
C12 C13 1.431 1_555 1_555
C13 C8 1.444 1_555 1_555
C14 C1 1.506 1_555 1_555
C15 C14 1.424 1_555 1_555
C16 C15 1.440 1_555 1_555
C17 C16 1.343 1_555 1_555
C18 C17 1.399 1_555 1_555
C19 C18 1.358 1_555 1_555
C20 C7 1.426 1_555 1_555
C21 C9 1.522 1_555 1_555
C22 C12 1.505 1_555 1_555
C23 C16 1.513 1_555 1_555
C24 C19 1.516 1_555 1_555
H1 C1 1.200 1_555 1_555
H2 C1 0.998 1_555 1_555
H3 C2 1.048 1_555 1_555
H4 C2 1.071 1_555 1_555
H5 C3 0.898 1_555 1_555
H6 C3 1.051 1_555 1_555
H7 C4 0.944 1_555 1_555
H8 C4 1.095 1_555 1_555
H9 C5 1.098 1_555 1_555
H10 C5 0.943 1_555 1_555
H11 C6 1.023 1_555 1_555
H12 C6 1.045 1_555 1_555
H13 C10 1.016 1_555 1_555
H14 C11 0.954 1_555 1_555
H15 C17 0.885 1_555 1_555
H16 C18 0.935 1_555 1_555
H17 C21 0.949 1_555 1_555
H18 C21 0.968 1_555 1_555
H19 C21 0.930 1_555 1_555
H20 C22 0.933 1_555 1_555
H21 C22 1.001 1_555 1_555
H22 C22 0.990 1_555 1_555
H23 C23 1.022 1_555 1_555
H24 C23 0.916 1_555 1_555
H25 C23 1.080 1_555 1_555
H26 C24 1.165 1_555 1_555
H27 C24 0.954 1_555 1_555
H28 C24 0.915 1_555 1_555
C13 C14 1.416 1_555 1_555
C15 C20 1.439 1_555 1_555
C19 C20 1.446 1_555 1_555
#END
