
#######################################################################
#
#                 Cambridge Crystallographic Data Centre
#                                CCDC
#
#######################################################################
#
# If this CIF has been generated from an entry in the Cambridge
# Structural Database, then it will include bibliographic, chemical,
# crystal, experimental, refinement or atomic coordinate data resulting
# from the CCDC's data processing and validation procedures.
#
#######################################################################

data_CSD_CIF_LEHYUT
_audit_creation_date 2006-07-10
_audit_creation_method CSD-ConQuest-V1
_database_code_CSD LEHYUT
_database_code_depnum_ccdc_archive 'CCDC 292502'
_chemical_formula_sum 'C31 H26'
_chemical_formula_moiety
;
C31 H26
;
_journal_coden_Cambridge 16
_journal_volume 62
_journal_year 2006
_journal_page_first 4364
_journal_name_full 'Tetrahedron '
loop_
_publ_author_name
"Yonghong Yang"
"Weixiang Dai"
"Yanzhong Zhang"
"J.L.Petersen"
"Kung K.Wang"
_chemical_name_systematic
;
8-t-Butyl-13-phenyl-7H-dibenzo(b,g)fluorene
;
_cell_volume   2149.217
_exptl_crystal_density_diffrn 1.232
_diffrn_ambient_temperature 295
#These two values have been output from a single CSD field.
_refine_ls_R_factor_gt 0.0576
_refine_ls_wR_factor_gt 0.0576
_symmetry_cell_setting monoclinic
_symmetry_space_group_name_H-M 'P 21'
_symmetry_Int_Tables_number 4
loop_
_symmetry_equiv_pos_site_id
_symmetry_equiv_pos_as_xyz
1 x,y,z
2 -x,1/2+y,-z
_cell_length_a 6.3082(4)
_cell_length_b 18.0830(13)
_cell_length_c 18.9418(13)
_cell_angle_alpha 90
_cell_angle_beta 95.913(1)
_cell_angle_gamma 90
_cell_formula_units_Z 4
loop_
_atom_type_symbol
_atom_type_radius_bond
C 0.68
H 0.23
loop_
_atom_site_label
_atom_site_type_symbol
_atom_site_fract_x
_atom_site_fract_y
_atom_site_fract_z
C1 C 0.9386(5) 0.2395(2) 0.38309(17)
H1 H 1.05370 0.24170 0.42120
H2 H 0.90940 0.18810 0.37100
C2 C 0.9934(4) 0.28135(19) 0.32054(16)
C3 C 1.1689(5) 0.2665(2) 0.28226(19)
H3 H 1.26940 0.23110 0.29830
C4 C 1.1888(5) 0.3046(2) 0.22172(19)
H4 H 1.30780 0.29670 0.19750
C5 C 1.0324(4) 0.35604(18) 0.19458(17)
C6 C 1.0464(5) 0.3908(2) 0.12933(18)
H5 H 1.16830 0.38410 0.10630
C7 C 0.8884(6) 0.4334(2) 0.09909(19)
H6 H 0.90210 0.45630 0.05580
C8 C 0.7026(5) 0.4436(2) 0.13274(17)
H7 H 0.59060 0.47140 0.11080
C9 C 0.6859(5) 0.41263(19) 0.19761(16)
H8 H 0.56120 0.41970 0.21900
C10 C 0.8516(4) 0.37027(18) 0.23330(16)
C11 C 0.8459(4) 0.33539(17) 0.30060(15)
C12 C 0.6987(4) 0.33932(16) 0.35840(15)
C13 C 0.5567(4) 0.39324(17) 0.37373(15)
C14 C 0.4336(4) 0.38072(18) 0.43162(15)
C15 C 0.2802(5) 0.43315(19) 0.44876(17)
H9 H 0.26700 0.47710 0.42320
C16 C 0.1521(6) 0.4220(2) 0.50079(19)
H10 H 0.04800 0.45650 0.50900
C17 C 0.1782(6) 0.3586(2) 0.5416(2)
H11 H 0.09220 0.35080 0.57790
C18 C 0.3263(6) 0.3080(2) 0.52930(18)
H12 H 0.34210 0.26680 0.55870
C19 C 0.4606(5) 0.31448(18) 0.47338(16)
C20 C 0.6233(5) 0.26180(18) 0.46036(17)
C21 C 0.7408(4) 0.27748(18) 0.40451(16)
C22 C 0.5390(4) 0.46637(16) 0.33700(15)
C23 C 0.7140(5) 0.51188(18) 0.33866(18)
H13 H 0.84090 0.49720 0.36420
C24 C 0.7062(6) 0.5783(2) 0.3037(2)
H14 H 0.82680 0.60810 0.30530
C25 C 0.5199(8) 0.6005(2) 0.2665(2)
H15 H 0.51470 0.64520 0.24210
C26 C 0.3401(6) 0.5572(2) 0.26481(19)
H16 H 0.21290 0.57300 0.24020
C27 C 0.3503(5) 0.49042(19) 0.29988(16)
H17 H 0.22910 0.46100 0.29870
C28 C 0.6556(5) 0.1927(2) 0.5086(2)
C29 C 0.8238(7) 0.1375(3) 0.4885(3)
H18 H 0.83120 0.09650 0.52090
H19 H 0.96020 0.16140 0.49100
H20 H 0.78540 0.11990 0.44110
C30 C 0.7249(8) 0.2163(3) 0.5858(2)
H21 H 0.62050 0.24930 0.60180
H22 H 0.86010 0.24100 0.58800
H23 H 0.73730 0.17330 0.61570
C31 C 0.4500(6) 0.1457(2) 0.5034(2)
H24 H 0.33890 0.17300 0.52280
H25 H 0.47660 0.10070 0.52980
H26 H 0.40690 0.13420 0.45460
C32 C -0.2312(4) 0.0471(2) 0.02201(16)
H27 H -0.33960 0.08520 0.02130
H28 H -0.22620 0.02850 -0.02580
C33 C -0.2752(4) -0.01347(19) 0.07111(16)
C34 C -0.4587(5) -0.0570(2) 0.06545(19)
H29 H -0.56780 -0.04800 0.02960
C35 C -0.4772(5) -0.1124(2) 0.1125(2)
H30 H -0.60290 -0.13950 0.11050
C36 C -0.3075(5) -0.12942(19) 0.16436(18)
C37 C -0.3253(7) -0.1887(2) 0.2113(2)
H31 H -0.45420 -0.21370 0.21080
C38 C -0.1575(7) -0.2100(2) 0.2575(2)
H32 H -0.17330 -0.24790 0.28970
C39 C 0.0375(7) -0.1749(2) 0.2562(2)
H33 H 0.15580 -0.19240 0.28470
C40 C 0.0579(5) -0.11442(19) 0.21331(17)
H34 H 0.18960 -0.09120 0.21410
C41 C -0.1140(5) -0.08717(17) 0.16867(16)
C42 C -0.1100(4) -0.02346(17) 0.12345(16)
C43 C 0.0457(4) 0.03763(17) 0.11743(14)
C44 C 0.2115(4) 0.06349(16) 0.16372(15)
C45 C 0.3395(4) 0.12231(16) 0.14011(15)
C46 C 0.5206(4) 0.14758(18) 0.18480(17)
H35 H 0.54950 0.12710 0.22980
C47 C 0.6525(5) 0.2008(2) 0.1634(2)
H36 H 0.77320 0.21490 0.19260
C48 C 0.6056(5) 0.2336(2) 0.09807(19)
H37 H 0.69380 0.27070 0.08370
C49 C 0.4333(5) 0.21256(19) 0.05465(18)
H38 H 0.40590 0.23610 0.01100
C50 C 0.2909(4) 0.15574(17) 0.07259(16)
C51 C 0.1024(4) 0.13370(17) 0.02744(15)
C52 C -0.0154(4) 0.07697(17) 0.05179(15)
C53 C 0.2530(4) 0.03703(17) 0.23841(15)
C54 C 0.4446(5) 0.00266(19) 0.26419(18)
H39 H 0.55350 -0.00220 0.23490
C55 C 0.4724(6) -0.0238(2) 0.3323(2)
H40 H 0.59920 -0.04720 0.34880
C56 C 0.3133(8) -0.0159(2) 0.3763(2)
H41 H 0.33280 -0.03410 0.42240
C57 C 0.1261(6) 0.0186(2) 0.35220(18)
H42 H 0.01930 0.02430 0.38220
C58 C 0.0963(5) 0.04501(19) 0.28363(16)
H43 H -0.03090 0.06850 0.26760
C59 C 0.0503(5) 0.1733(2) -0.04549(18)
C60 C 0.0162(6) 0.2573(2) -0.0351(2)
H44 H 0.01550 0.28210 -0.08000
H45 H 0.12950 0.27660 -0.00260
H46 H -0.11770 0.26530 -0.01640
C61 C 0.2294(5) 0.1571(2) -0.09286(18)
H47 H 0.24270 0.10460 -0.09870
H48 H 0.36150 0.17670 -0.07100
H49 H 0.19550 0.17980 -0.13840
C62 C -0.1520(6) 0.1472(3) -0.0904(2)
H50 H -0.17160 0.17560 -0.13340
H51 H -0.27290 0.15400 -0.06410
H52 H -0.13840 0.09590 -0.10180
loop_
_geom_bond_atom_site_label_1
_geom_bond_atom_site_label_2
_geom_bond_distance
_geom_bond_site_symmetry_1
_geom_bond_site_symmetry_2
C1 H1 0.971 1_555 1_555
H2 C1 0.970 1_555 1_555
C2 C1 1.477 1_555 1_555
C3 C2 1.410 1_555 1_555
H3 C3 0.930 1_555 1_555
C4 C3 1.355 1_555 1_555
H4 C4 0.930 1_555 1_555
C5 C4 1.414 1_555 1_555
C6 C5 1.397 1_555 1_555
H5 C6 0.930 1_555 1_555
C7 C6 1.341 1_555 1_555
H6 C7 0.931 1_555 1_555
C8 C7 1.403 1_555 1_555
H7 C8 0.930 1_555 1_555
C9 C8 1.364 1_555 1_555
H8 C9 0.930 1_555 1_555
C10 C5 1.441 1_555 1_555
C11 C2 1.375 1_555 1_555
C12 C11 1.508 1_555 1_555
C13 C12 1.375 1_555 1_555
C14 C13 1.426 1_555 1_555
C15 C14 1.416 1_555 1_555
H9 C15 0.930 1_555 1_555
C16 C15 1.352 1_555 1_555
H10 C16 0.930 1_555 1_555
C17 C16 1.383 1_555 1_555
H11 C17 0.929 1_555 1_555
C18 C17 1.345 1_555 1_555
H12 C18 0.929 1_555 1_555
C19 C14 1.436 1_555 1_555
C20 C19 1.440 1_555 1_555
C21 C1 1.516 1_555 1_555
C22 C13 1.493 1_555 1_555
C23 C22 1.375 1_555 1_555
H13 C23 0.930 1_555 1_555
C24 C23 1.370 1_555 1_555
H14 C24 0.930 1_555 1_555
C25 C24 1.367 1_555 1_555
H15 C25 0.930 1_555 1_555
C26 C25 1.376 1_555 1_555
H16 C26 0.930 1_555 1_555
C27 C22 1.389 1_555 1_555
H17 C27 0.930 1_555 1_555
C28 C20 1.549 1_555 1_555
C29 C28 1.533 1_555 1_555
H18 C29 0.961 1_555 1_555
H19 C29 0.960 1_555 1_555
H20 C29 0.960 1_555 1_555
C30 C28 1.543 1_555 1_555
H21 C30 0.961 1_555 1_555
H22 C30 0.960 1_555 1_555
H23 C30 0.960 1_555 1_555
C31 C28 1.545 1_555 1_555
H24 C31 0.961 1_555 1_555
H25 C31 0.961 1_555 1_555
H26 C31 0.959 1_555 1_555
C32 H27 0.970 1_555 1_555
H28 C32 0.970 1_555 1_555
C33 C32 1.482 1_555 1_555
C34 C33 1.395 1_555 1_555
H29 C34 0.930 1_555 1_555
C35 C34 1.354 1_555 1_555
H30 C35 0.930 1_555 1_555
C36 C35 1.410 1_555 1_555
C37 C36 1.405 1_555 1_555
H31 C37 0.930 1_555 1_555
C38 C37 1.358 1_555 1_555
H32 C38 0.930 1_555 1_555
C39 C38 1.387 1_555 1_555
H33 C39 0.930 1_555 1_555
C40 C39 1.376 1_555 1_555
H34 C40 0.930 1_555 1_555
C41 C36 1.435 1_555 1_555
C42 C33 1.374 1_555 1_555
C43 C42 1.490 1_555 1_555
C44 C43 1.376 1_555 1_555
C45 C44 1.434 1_555 1_555
C46 C45 1.425 1_555 1_555
H35 C46 0.930 1_555 1_555
C47 C46 1.361 1_555 1_555
H36 C47 0.929 1_555 1_555
C48 C47 1.377 1_555 1_555
H37 C48 0.930 1_555 1_555
C49 C48 1.348 1_555 1_555
H38 C49 0.930 1_555 1_555
C50 C45 1.419 1_555 1_555
C51 C50 1.447 1_555 1_555
C52 C32 1.518 1_555 1_555
C53 C44 1.491 1_555 1_555
C54 C53 1.401 1_555 1_555
H39 C54 0.931 1_555 1_555
C55 C54 1.370 1_555 1_555
H40 C55 0.930 1_555 1_555
C56 C55 1.376 1_555 1_555
H41 C56 0.929 1_555 1_555
C57 C56 1.372 1_555 1_555
H42 C57 0.931 1_555 1_555
C58 C53 1.381 1_555 1_555
H43 C58 0.931 1_555 1_555
C59 C51 1.561 1_555 1_555
C60 C59 1.550 1_555 1_555
H44 C60 0.961 1_555 1_555
H45 C60 0.960 1_555 1_555
H46 C60 0.960 1_555 1_555
C61 C59 1.542 1_555 1_555
H47 C61 0.960 1_555 1_555
H48 C61 0.959 1_555 1_555
H49 C61 0.959 1_555 1_555
C62 C59 1.533 1_555 1_555
H50 C62 0.960 1_555 1_555
H51 C62 0.961 1_555 1_555
H52 C62 0.958 1_555 1_555
C9 C10 1.411 1_555 1_555
C10 C11 1.426 1_555 1_555
C12 C21 1.427 1_555 1_555
C18 C19 1.428 1_555 1_555
C20 C21 1.382 1_555 1_555
C26 C27 1.377 1_555 1_555
C40 C41 1.395 1_555 1_555
C41 C42 1.437 1_555 1_555
C43 C52 1.450 1_555 1_555
C49 C50 1.429 1_555 1_555
C51 C52 1.374 1_555 1_555
C57 C58 1.378 1_555 1_555
#END
