
#######################################################################
#
#                 Cambridge Crystallographic Data Centre
#                                CCDC
#
#######################################################################
#
# If this CIF has been generated from an entry in the Cambridge
# Structural Database, then it will include bibliographic, chemical,
# crystal, experimental, refinement or atomic coordinate data resulting
# from the CCDC's data processing and validation procedures.
#
#######################################################################

data_CSD_CIF_LEHZEE
_audit_creation_date 2006-07-10
_audit_creation_method CSD-ConQuest-V1
_database_code_CSD LEHZEE
_database_code_depnum_ccdc_archive 'CCDC 292504'
_chemical_formula_sum 'C30 H20'
_chemical_formula_moiety
;
C30 H20
;
_journal_coden_Cambridge 16
_journal_volume 62
_journal_year 2006
_journal_page_first 4364
_journal_name_full 'Tetrahedron '
loop_
_publ_author_name
"Yonghong Yang"
"Weixiang Dai"
"Yanzhong Zhang"
"J.L.Petersen"
"Kung K.Wang"
_chemical_name_systematic
;
14b-Phenyl-4b,7,10,14b-tetrahydronaphtho(1,2,3,4-pqr)tetraphene
;
_cell_volume   1994.620
_exptl_crystal_density_diffrn 1.267
_diffrn_ambient_temperature 295
#These two values have been output from a single CSD field.
_refine_ls_R_factor_gt 0.062
_refine_ls_wR_factor_gt 0.062
_symmetry_cell_setting triclinic
_symmetry_space_group_name_H-M 'P -1'
_symmetry_Int_Tables_number 2
loop_
_symmetry_equiv_pos_site_id
_symmetry_equiv_pos_as_xyz
1 x,y,z
2 -x,-y,-z
_cell_length_a 8.6979(8)
_cell_length_b 13.9822(13)
_cell_length_c 16.6375(14)
_cell_angle_alpha 83.895(2)
_cell_angle_beta 89.861(2)
_cell_angle_gamma 82.513(2)
_cell_formula_units_Z 4
loop_
_atom_type_symbol
_atom_type_radius_bond
C 0.68
H 0.23
loop_
_atom_site_label
_atom_site_type_symbol
_atom_site_fract_x
_atom_site_fract_y
_atom_site_fract_z
C1 C 0.2259(3) 0.24977(16) 0.07021(11)
C2 C 0.1667(3) 0.20763(16) -0.00422(12)
C3 C 0.0521(3) 0.14771(17) -0.00317(13)
H1 H 0.00370 0.13080 0.04520
C4 C 0.0080(4) 0.11218(19) -0.07381(15)
H2 H -0.06960 0.07210 -0.07240
C5 C 0.0797(4) 0.13667(19) -0.14551(14)
H3 H 0.05290 0.11170 -0.19240
C6 C 0.1909(3) 0.19794(18) -0.14747(13)
H4 H 0.23870 0.21450 -0.19610
C7 C 0.2332(3) 0.23560(17) -0.07853(12)
C8 C 0.3409(3) 0.31183(18) -0.08075(13)
H5 H 0.34740 0.34200 -0.13570
H6 H 0.44390 0.28180 -0.06340
C9 C 0.2833(3) 0.38795(18) -0.02632(13)
C10 C 0.2184(3) 0.35854(16) 0.04650(12)
C11 C 0.2903(3) 0.4869(2) -0.04892(15)
H7 H 0.33500 0.50620 -0.09780
C12 C 0.2326(4) 0.5548(2) -0.00015(16)
H8 H 0.24090 0.61990 -0.01550
C13 C 0.1603(3) 0.52801(19) 0.07335(15)
C14 C 0.1510(3) 0.42823(18) 0.09686(13)
C15 C 0.0938(4) 0.5983(2) 0.12311(17)
H9 H 0.10050 0.66370 0.10890
C16 C 0.0206(4) 0.5694(3) 0.19136(18)
H10 H -0.02210 0.61590 0.22400
C17 C 0.0073(4) 0.4718(2) 0.21445(14)
H11 H -0.04590 0.45500 0.26130
C18 C 0.0715(3) 0.3996(2) 0.16910(12)
C19 C 0.0640(3) 0.2964(2) 0.19337(12)
C20 C -0.0130(3) 0.2654(3) 0.26413(14)
H12 H -0.06810 0.31160 0.29320
C21 C -0.0092(4) 0.1695(3) 0.29128(16)
H13 H -0.06100 0.15160 0.33840
C22 C 0.0703(4) 0.0988(2) 0.24978(15)
H14 H 0.07510 0.03360 0.26900
C23 C 0.1425(3) 0.1272(2) 0.17918(13)
H15 H 0.19550 0.07980 0.15060
C24 C 0.1393(3) 0.22430(18) 0.14877(11)
C25 C 0.3981(3) 0.20633(17) 0.08756(11)
C26 C 0.4577(3) 0.11397(19) 0.07006(13)
H16 H 0.39500 0.07780 0.04370
C27 C 0.6077(4) 0.0748(2) 0.09093(15)
H17 H 0.64460 0.01240 0.07920
C28 C 0.7032(3) 0.1272(3) 0.12887(16)
H18 H 0.80450 0.10070 0.14280
C29 C 0.6472(3) 0.2193(3) 0.14598(15)
H19 H 0.71140 0.25530 0.17140
C30 C 0.4955(3) 0.2590(2) 0.12575(13)
H20 H 0.45900 0.32130 0.13790
C31 C 0.6532(3) 0.74417(16) 0.43159(11)
C32 C 0.5828(3) 0.78560(16) 0.50788(11)
C33 C 0.4524(3) 0.85355(17) 0.50875(13)
H21 H 0.40020 0.87730 0.46060
C34 C 0.3985(3) 0.88679(18) 0.58093(14)
H22 H 0.30930 0.93140 0.58100
C35 C 0.4767(4) 0.85395(19) 0.65184(14)
H23 H 0.44280 0.87810 0.69970
C36 C 0.6054(3) 0.78518(18) 0.65238(13)
H24 H 0.65760 0.76300 0.70080
C37 C 0.6584(3) 0.74839(17) 0.58122(12)
C38 C 0.7871(3) 0.66559(18) 0.58109(12)
H25 H 0.80180 0.63200 0.63520
H26 H 0.88290 0.69040 0.56510
C39 C 0.7486(3) 0.59564(17) 0.52320(13)
C40 C 0.6750(3) 0.63365(16) 0.45092(12)
C41 C 0.7831(3) 0.4952(2) 0.54181(15)
H27 H 0.83460 0.47030 0.59000
C42 C 0.7420(4) 0.4333(2) 0.49006(16)
H28 H 0.76790 0.36670 0.50270
C43 C 0.6609(3) 0.46894(18) 0.41767(14)
C44 C 0.6242(3) 0.57109(17) 0.39786(12)
C45 C 0.6114(4) 0.4059(2) 0.36484(17)
H29 H 0.63580 0.33920 0.37670
C46 C 0.5284(4) 0.4425(2) 0.29690(17)
H30 H 0.49710 0.40020 0.26250
C47 C 0.4890(4) 0.5426(2) 0.27782(14)
H31 H 0.43020 0.56550 0.23150
C48 C 0.5356(3) 0.60832(18) 0.32609(12)
C49 C 0.5005(3) 0.71434(18) 0.30615(11)
C50 C 0.4143(3) 0.7551(2) 0.23633(13)
H32 H 0.37160 0.71400 0.20480
C51 C 0.3910(3) 0.8524(2) 0.21315(14)
H33 H 0.33250 0.87630 0.16690
C52 C 0.4539(3) 0.9154(2) 0.25808(13)
H34 H 0.44090 0.98170 0.24180
C53 C 0.5365(3) 0.87805(18) 0.32777(12)
H35 H 0.57890 0.92030 0.35830
C54 C 0.5584(3) 0.77915(17) 0.35363(11)
C55 C 0.8158(3) 0.77647(16) 0.41581(11)
C56 C 0.8612(3) 0.85754(18) 0.44506(14)
H36 H 0.79500 0.89320 0.47810
C57 C 1.0054(3) 0.8862(2) 0.42534(16)
H37 H 1.03460 0.94090 0.44530
C58 C 1.1041(3) 0.8347(2) 0.37696(15)
H38 H 1.19960 0.85470 0.36350
C59 C 1.0620(3) 0.7535(2) 0.34844(14)
H39 H 1.12960 0.71750 0.31630
C60 C 0.9186(3) 0.72493(18) 0.36750(12)
H40 H 0.89080 0.66990 0.34740
loop_
_geom_bond_atom_site_label_1
_geom_bond_atom_site_label_2
_geom_bond_distance
_geom_bond_site_symmetry_1
_geom_bond_site_symmetry_2
C1 C2 1.544 1_555 1_555
C2 C3 1.382 1_555 1_555
C3 H1 0.930 1_555 1_555
C4 C3 1.397 1_555 1_555
H2 C4 0.931 1_555 1_555
C5 C4 1.376 1_555 1_555
H3 C5 0.930 1_555 1_555
C6 C5 1.371 1_555 1_555
H4 C6 0.930 1_555 1_555
C7 C2 1.403 1_555 1_555
C8 C7 1.506 1_555 1_555
H5 C8 0.970 1_555 1_555
H6 C8 0.969 1_555 1_555
C9 C8 1.506 1_555 1_555
C10 C1 1.523 1_555 1_555
C11 C9 1.404 1_555 1_555
H7 C11 0.930 1_555 1_555
C12 C11 1.360 1_555 1_555
H8 C12 0.931 1_555 1_555
C13 C12 1.411 1_555 1_555
C14 C10 1.420 1_555 1_555
C15 C13 1.417 1_555 1_555
H9 C15 0.929 1_555 1_555
C16 C15 1.351 1_555 1_555
H10 C16 0.931 1_555 1_555
C17 C16 1.397 1_555 1_555
H11 C17 0.930 1_555 1_555
C18 C14 1.431 1_555 1_555
C19 C18 1.466 1_555 1_555
C20 C19 1.409 1_555 1_555
H12 C20 0.930 1_555 1_555
C21 C20 1.365 1_555 1_555
H13 C21 0.931 1_555 1_555
C22 C21 1.377 1_555 1_555
H14 C22 0.929 1_555 1_555
C23 C22 1.376 1_555 1_555
H15 C23 0.930 1_555 1_555
C24 C1 1.539 1_555 1_555
C25 C1 1.557 1_555 1_555
C26 C25 1.388 1_555 1_555
H16 C26 0.930 1_555 1_555
C27 C26 1.378 1_555 1_555
H17 C27 0.930 1_555 1_555
C28 C27 1.373 1_555 1_555
H18 C28 0.930 1_555 1_555
C29 C28 1.375 1_555 1_555
H19 C29 0.929 1_555 1_555
C30 C25 1.389 1_555 1_555
H20 C30 0.930 1_555 1_555
C31 C32 1.543 1_555 1_555
C32 C33 1.383 1_555 1_555
C33 H21 0.930 1_555 1_555
C34 C33 1.392 1_555 1_555
H22 C34 0.930 1_555 1_555
C35 C34 1.368 1_555 1_555
H23 C35 0.930 1_555 1_555
C36 C35 1.377 1_555 1_555
H24 C36 0.929 1_555 1_555
C37 C32 1.404 1_555 1_555
C38 C37 1.502 1_555 1_555
H25 C38 0.971 1_555 1_555
H26 C38 0.970 1_555 1_555
C39 C38 1.511 1_555 1_555
C40 C31 1.532 1_555 1_555
C41 C39 1.399 1_555 1_555
H27 C41 0.931 1_555 1_555
C42 C41 1.363 1_555 1_555
H28 C42 0.931 1_555 1_555
C43 C42 1.408 1_555 1_555
C44 C40 1.417 1_555 1_555
C45 C43 1.414 1_555 1_555
H29 C45 0.929 1_555 1_555
C46 C45 1.358 1_555 1_555
H30 C46 0.931 1_555 1_555
C47 C46 1.399 1_555 1_555
H31 C47 0.930 1_555 1_555
C48 C44 1.435 1_555 1_555
C49 C48 1.476 1_555 1_555
C50 C49 1.410 1_555 1_555
H32 C50 0.930 1_555 1_555
C51 C50 1.363 1_555 1_555
H33 C51 0.930 1_555 1_555
C52 C51 1.379 1_555 1_555
H34 C52 0.930 1_555 1_555
C53 C52 1.382 1_555 1_555
H35 C53 0.930 1_555 1_555
C54 C31 1.538 1_555 1_555
C55 C31 1.553 1_555 1_555
C56 C55 1.383 1_555 1_555
H36 C56 0.930 1_555 1_555
C57 C56 1.394 1_555 1_555
H37 C57 0.930 1_555 1_555
C58 C57 1.365 1_555 1_555
H38 C58 0.930 1_555 1_555
C59 C58 1.368 1_555 1_555
H39 C59 0.929 1_555 1_555
C60 C55 1.384 1_555 1_555
H40 C60 0.931 1_555 1_555
C6 C7 1.382 1_555 1_555
C9 C10 1.381 1_555 1_555
C13 C14 1.421 1_555 1_555
C17 C18 1.383 1_555 1_555
C19 C24 1.407 1_555 1_555
C23 C24 1.394 1_555 1_555
C29 C30 1.391 1_555 1_555
C36 C37 1.394 1_555 1_555
C39 C40 1.385 1_555 1_555
C43 C44 1.426 1_555 1_555
C47 C48 1.382 1_555 1_555
C49 C54 1.404 1_555 1_555
C53 C54 1.392 1_555 1_555
C59 C60 1.384 1_555 1_555
#END
