
#######################################################################
#
#                 Cambridge Crystallographic Data Centre
#                                CCDC
#
#######################################################################
#
# If this CIF has been generated from an entry in the Cambridge
# Structural Database, then it will include bibliographic, chemical,
# crystal, experimental, refinement or atomic coordinate data resulting
# from the CCDC's data processing and validation procedures.
#
#######################################################################

data_CSD_CIF_LENNEX
_audit_creation_date 2000-04-26
_audit_creation_method CSD-ConQuest-V1
_database_code_CSD LENNEX
_chemical_formula_sum 'C34 H40'
_chemical_formula_moiety
;
C34 H40
;
_journal_coden_Cambridge 24
_journal_volume 40
_journal_year 1999
_journal_page_first 123
_journal_name_full 'Tetrahedron Lett. '
loop_
_publ_author_name
"A.Matsuura"
"T.Nishinaga"
"K.Komatsu"
_chemical_name_systematic
;
1,2:3,4:5,6:7,8-tetrakis(Bicyclo(2.2.2)oct-2-eno)naphthalene
;
_chemical_melting_point 673.15
_cell_volume    588.894
_exptl_crystal_colour 'colorless'
_exptl_crystal_density_diffrn 1.26
_exptl_special_details
;
Melts above 673.15K

;
_exptl_crystal_description 'prismatic'
_exptl_crystal_preparation 'carbon disulfide/hexane'
_diffrn_ambient_temperature 294.15
#These two values have been output from a single CSD field.
_refine_ls_R_factor_gt 0.044
_refine_ls_wR_factor_gt 0.044
_symmetry_cell_setting triclinic
_symmetry_space_group_name_H-M 'P -1'
_symmetry_Int_Tables_number 2
loop_
_symmetry_equiv_pos_site_id
_symmetry_equiv_pos_as_xyz
1 x,y,z
2 -x,-y,-z
_cell_length_a 9.482(2)
_cell_length_b 10.432(2)
_cell_length_c 6.263(1)
_cell_angle_alpha 98.12(1)
_cell_angle_beta 102.15(1)
_cell_angle_gamma 77.79(1)
_cell_formula_units_Z 1
loop_
_atom_type_symbol
_atom_type_radius_bond
C 0.68
H 0.23
loop_
_atom_site_label
_atom_site_type_symbol
_atom_site_fract_x
_atom_site_fract_y
_atom_site_fract_z
C1 C 0.6250(2) 0.5698(2) 0.2434(3)
C2 C 0.5363(2) 0.6872(2) 0.3021(3)
C3 C 0.3981(2) 0.7276(2) 0.1717(3)
C4 C 0.3514(2) 0.6521(2) -0.0192(3)
C5 C 0.5708(2) 0.4788(2) 0.0682(3)
C6 C 0.7804(2) 0.5614(2) 0.3736(3)
C7 C 0.8386(2) 0.6832(2) 0.3438(4)
C8 C 0.7766(2) 0.5630(2) 0.6183(4)
C9 C 0.6095(2) 0.7711(2) 0.4926(3)
C10 C 0.7381(2) 0.8096(2) 0.4204(4)
C11 C 0.6714(2) 0.6884(2) 0.6878(3)
C12 C 0.2971(2) 0.8588(2) 0.2073(3)
C13 C 0.2970(2) 0.9421(2) 0.0250(4)
C14 C 0.1408(2) 0.8332(2) 0.1868(4)
C15 C 0.2219(2) 0.7301(2) -0.1632(3)
C16 C 0.2631(2) 0.8600(2) -0.1959(4)
C17 C 0.0916(2) 0.7641(2) -0.0421(4)
H1 H 0.848(3) 0.484(2) 0.320(4)
H2 H 0.845(3) 0.683(3) 0.183(5)
H3 H 0.939(3) 0.678(2) 0.433(4)
H4 H 0.736(2) 0.484(2) 0.640(4)
H5 H 0.880(3) 0.562(3) 0.715(5)
H6 H 0.545(2) 0.851(2) 0.535(3)
H7 H 0.701(3) 0.866(3) 0.299(4)
H8 H 0.790(3) 0.860(2) 0.537(4)
H9 H 0.584(3) 0.658(3) 0.733(4)
H10 H 0.718(3) 0.745(2) 0.808(4)
H11 H 0.326(2) 0.908(2) 0.348(4)
H12 H 0.392(3) 0.972(2) 0.050(4)
H13 H 0.223(2) 1.023(2) 0.030(3)
H14 H 0.135(3) 0.774(3) 0.300(4)
H15 H 0.082(2) 0.915(2) 0.206(3)
H16 H 0.196(2) 0.682(2) -0.308(3)
H17 H 0.350(3) 0.839(3) -0.273(4)
H18 H 0.189(3) 0.910(3) -0.286(4)
H19 H 0.056(3) 0.690(3) -0.038(4)
H20 H 0.012(3) 0.824(3) -0.123(4)
C5A C 0.4292(2) 0.5212(2) -0.0682(3)
C1A C 0.3750(2) 0.4302(2) -0.2434(3)
C2A C 0.4637(2) 0.3128(2) -0.3021(3)
C3A C 0.6019(2) 0.2724(2) -0.1717(3)
C4A C 0.6486(2) 0.3479(2) 0.0192(3)
C15A C 0.7781(2) 0.2699(2) 0.1632(3)
C16A C 0.7369(2) 0.1400(2) 0.1959(4)
C13A C 0.7030(2) 0.0579(2) -0.0250(4)
C12A C 0.7029(2) 0.1412(2) -0.2073(3)
C14A C 0.8592(2) 0.1668(2) -0.1868(4)
C17A C 0.9084(2) 0.2359(2) 0.0421(4)
H16A H 0.804(2) 0.318(2) 0.308(3)
H19A H 0.944(3) 0.310(3) 0.038(4)
H20A H 0.988(3) 0.176(3) 0.123(4)
H14A H 0.865(3) 0.226(3) -0.300(4)
H15A H 0.918(2) 0.085(2) -0.206(3)
H11A H 0.674(2) 0.092(2) -0.348(4)
H12A H 0.608(3) 0.028(2) -0.050(4)
H13A H 0.777(2) -0.023(2) -0.030(3)
H17A H 0.650(3) 0.161(3) 0.273(4)
H18A H 0.811(3) 0.090(3) 0.286(4)
C9A C 0.3905(2) 0.2289(2) -0.4926(3)
C10A C 0.2619(2) 0.1904(2) -0.4204(4)
C7A C 0.1614(2) 0.3168(2) -0.3438(4)
C6A C 0.2196(2) 0.4386(2) -0.3736(3)
C8A C 0.2234(2) 0.4370(2) -0.6183(4)
C11A C 0.3286(2) 0.3116(2) -0.6878(3)
H6A H 0.455(2) 0.149(2) -0.535(3)
H9A H 0.416(3) 0.342(3) -0.733(4)
H10A H 0.282(3) 0.255(2) -0.808(4)
H4A H 0.264(2) 0.516(2) -0.640(4)
H5A H 0.120(3) 0.438(3) -0.715(5)
H1A H 0.152(3) 0.516(2) -0.320(4)
H2A H 0.155(3) 0.317(3) -0.183(5)
H3A H 0.061(3) 0.322(2) -0.433(4)
H7A H 0.299(3) 0.134(3) -0.299(4)
H8A H 0.210(3) 0.140(2) -0.537(4)
loop_
_geom_bond_atom_site_label_1
_geom_bond_atom_site_label_2
_geom_bond_distance
_geom_bond_site_symmetry_1
_geom_bond_site_symmetry_2
C1 C2 1.382 1_555 1_555
C2 C3 1.405 1_555 1_555
C3 C4 1.380 1_555 1_555
C4 C15 1.517 1_555 1_555
C5 C1 1.430 1_555 1_555
C6 C1 1.518 1_555 1_555
C7 C6 1.536 1_555 1_555
C8 C6 1.538 1_555 1_555
C9 C2 1.512 1_555 1_555
C10 C7 1.536 1_555 1_555
C11 C8 1.538 1_555 1_555
C12 C3 1.513 1_555 1_555
C13 C12 1.529 1_555 1_555
C14 C12 1.537 1_555 1_555
C15 C16 1.538 1_555 1_555
C16 C13 1.531 1_555 1_555
C17 C14 1.537 1_555 1_555
H1 C6 0.985 1_555 1_555
H2 C7 1.021 1_555 1_555
H3 C7 0.992 1_555 1_555
H4 C8 1.017 1_555 1_555
H5 C8 1.037 1_555 1_555
H6 C9 0.964 1_555 1_555
H7 C10 0.987 1_555 1_555
H8 C10 0.950 1_555 1_555
H9 C11 1.050 1_555 1_555
H10 C11 0.977 1_555 1_555
H11 C12 0.972 1_555 1_555
H12 C13 0.989 1_555 1_555
H13 C13 0.978 1_555 1_555
H14 C14 1.021 1_555 1_555
H15 C14 0.923 1_555 1_555
H16 C15 0.982 1_555 1_555
H17 C16 1.011 1_555 1_555
H18 C16 0.919 1_555 1_555
H19 C17 0.912 1_555 1_555
H20 C17 0.973 1_555 1_555
C5A C4 1.433 1_555 1_555
C1A C5A 1.430 1_555 1_555
C2A C1A 1.382 1_555 1_555
C3A C2A 1.405 1_555 1_555
C4A C5 1.433 1_555 1_555
C15A C4A 1.517 1_555 1_555
C16A C15A 1.538 1_555 1_555
C13A C16A 1.531 1_555 1_555
C12A C3A 1.513 1_555 1_555
C14A C12A 1.537 1_555 1_555
C17A C15A 1.536 1_555 1_555
H16A C15A 0.982 1_555 1_555
H19A C17A 0.912 1_555 1_555
H20A C17A 0.973 1_555 1_555
H14A C14A 1.021 1_555 1_555
H15A C14A 0.923 1_555 1_555
H11A C12A 0.972 1_555 1_555
H12A C13A 0.989 1_555 1_555
H13A C13A 0.978 1_555 1_555
H17A C16A 1.011 1_555 1_555
H18A C16A 0.919 1_555 1_555
C9A C2A 1.512 1_555 1_555
C10A C9A 1.531 1_555 1_555
C7A C10A 1.536 1_555 1_555
C6A C1A 1.518 1_555 1_555
C8A C6A 1.538 1_555 1_555
C11A C9A 1.538 1_555 1_555
H6A C9A 0.964 1_555 1_555
H9A C11A 1.050 1_555 1_555
H10A C11A 0.977 1_555 1_555
H4A C8A 1.017 1_555 1_555
H5A C8A 1.037 1_555 1_555
H1A C6A 0.985 1_555 1_555
H2A C7A 1.021 1_555 1_555
H3A C7A 0.992 1_555 1_555
H7A C10A 0.987 1_555 1_555
H8A C10A 0.950 1_555 1_555
C5 C5A 1.449 1_555 1_555
C9 C10 1.531 1_555 1_555
C9 C11 1.538 1_555 1_555
C15 C17 1.536 1_555 1_555
C3A C4A 1.380 1_555 1_555
C13A C12A 1.529 1_555 1_555
C14A C17A 1.537 1_555 1_555
C7A C6A 1.536 1_555 1_555
C8A C11A 1.538 1_555 1_555
#END
