
#######################################################################
#
#                 Cambridge Crystallographic Data Centre
#                                CCDC
#
#######################################################################
#
# If this CIF has been generated from an entry in the Cambridge
# Structural Database, then it will include bibliographic, chemical,
# crystal, experimental, refinement or atomic coordinate data resulting
# from the CCDC's data processing and validation procedures.
#
#######################################################################

data_CSD_CIF_LEPPIF
_audit_creation_date 1994-10-11
_audit_creation_method CSD-ConQuest-V1
_database_code_CSD LEPPIF
_chemical_formula_sum 'C30 H18'
_chemical_formula_moiety
;
C30 H18
;
_journal_coden_Cambridge 1088
_journal_year 1994
_journal_page_first 299
_journal_name_full 'Synlett '
loop_
_publ_author_name
"P.Nguyen"
"S.Todd"
"D.Van den Biggelaar"
"N.J.Taylor"
"T.B.Marder"
"F.Wittmann"
"R.H.Friend"
_chemical_name_systematic
;
9,10-bis(Phenylethynyl)anthracene
;
_cell_volume   1986.294
_exptl_crystal_colour 'orange'
_exptl_crystal_density_diffrn 1.266
_exptl_special_details
;
orthorhombic polymorph

;
_diffrn_ambient_temperature 140
#These two values have been output from a single CSD field.
_refine_ls_R_factor_gt 0.0417
_refine_ls_wR_factor_gt 0.0417
_symmetry_cell_setting orthorhombic
_symmetry_space_group_name_H-M 'P b c n'
_symmetry_Int_Tables_number 60
loop_
_symmetry_equiv_pos_site_id
_symmetry_equiv_pos_as_xyz
1 x,y,z
2 1/2-x,1/2-y,1/2+z
3 1/2+x,1/2-y,-z
4 -x,y,1/2-z
5 -x,-y,-z
6 -1/2+x,-1/2+y,-1/2-z
7 -1/2-x,-1/2+y,z
8 x,-y,-1/2+z
_cell_length_a 24.305(4)
_cell_length_b 11.512(1)
_cell_length_c 7.099(1)
_cell_angle_alpha 90
_cell_angle_beta 90
_cell_angle_gamma 90
_cell_formula_units_Z 4
loop_
_atom_type_symbol
_atom_type_radius_bond
C 0.68
H 0.23
loop_
_atom_site_label
_atom_site_type_symbol
_atom_site_fract_x
_atom_site_fract_y
_atom_site_fract_z
C1 C 0.52842(7) 0.67282(14) 0.22641(24)
C2 C 0.55577(6) 0.57094(14) 0.20427(23)
C3 C 0.52877(5) 0.46235(12) 0.22672(20)
C4 C 0.55660(5) 0.35543(14) 0.20476(20)
C5 C 0.52863(5) 0.24879(12) 0.22641(20)
C6 C 0.55569(6) 0.13974(15) 0.20175(23)
C7 C 0.52823(7) 0.03805(15) 0.22505(27)
C8 C 0.61450(5) 0.35628(13) 0.16402(20)
C9 C 0.66276(6) 0.35955(13) 0.1352(2)
C10 C 0.72130(5) 0.36476(12) 0.10421(20)
C11 C 0.74495(6) 0.46229(14) 0.02058(21)
C12 C 0.80119(6) 0.46693(16) -0.00792(24)
C13 C 0.83416(6) 0.37477(17) 0.04718(24)
C14 C 0.81109(6) 0.27819(16) 0.13140(24)
C15 C 0.75475(6) 0.27226(14) 0.16017(22)
H1 H 0.5464(6) 0.7489(14) 0.2092(24)
H2 H 0.5962(7) 0.5721(13) 0.1723(23)
H3 H 0.5946(7) 0.1402(13) 0.1646(22)
H4 H 0.5465(6) -0.0397(15) 0.2061(27)
H5 H 0.7212(5) 0.5301(14) -0.0147(23)
H6 H 0.8170(6) 0.5369(15) -0.0633(26)
H7 H 0.8748(7) 0.3772(14) 0.0224(24)
H8 H 0.8341(7) 0.2114(15) 0.1717(25)
H9 H 0.7381(6) 0.2038(13) 0.2200(23)
C1C C 0.47158(7) 0.67282(14) 0.27359(24)
C2C C 0.44423(6) 0.57094(14) 0.29573(23)
C3C C 0.47123(5) 0.46235(12) 0.27328(20)
C4C C 0.44340(5) 0.35543(14) 0.29524(20)
C5C C 0.47137(5) 0.24879(12) 0.27359(20)
C6C C 0.44431(6) 0.13974(15) 0.29825(23)
C7C C 0.47177(7) 0.03805(15) 0.27495(27)
C8C C 0.38550(5) 0.35628(13) 0.33598(20)
C9C C 0.33724(6) 0.35955(13) 0.3648(2)
C10C C 0.27870(5) 0.36476(12) 0.39579(20)
C11C C 0.25505(6) 0.46229(14) 0.47942(21)
C12C C 0.19881(6) 0.46693(16) 0.50792(24)
C13C C 0.16584(6) 0.37477(17) 0.45282(24)
C14C C 0.18891(6) 0.27819(16) 0.36860(24)
C15C C 0.24525(6) 0.27226(14) 0.33983(22)
H1C H 0.4536(6) 0.7489(14) 0.2908(24)
H2C H 0.4038(7) 0.5721(13) 0.3277(23)
H3C H 0.4054(7) 0.1402(13) 0.3354(22)
H4C H 0.4535(6) -0.0397(15) 0.2939(27)
H5C H 0.2788(5) 0.5301(14) 0.5147(23)
H6C H 0.1830(6) 0.5369(15) 0.5633(26)
H7C H 0.1252(7) 0.3772(14) 0.4776(24)
H8C H 0.1659(7) 0.2114(15) 0.3283(25)
H9C H 0.2619(6) 0.2038(13) 0.2800(23)
loop_
_geom_bond_atom_site_label_1
_geom_bond_atom_site_label_2
_geom_bond_distance
_geom_bond_site_symmetry_1
_geom_bond_site_symmetry_2
C1 C2 1.357 1_555 1_555
C2 C3 1.421 1_555 1_555
C3 C4 1.413 1_555 1_555
C4 C5 1.412 1_555 1_555
C5 C6 1.428 1_555 1_555
C6 C7 1.358 1_555 1_555
C7 H4 1.008 1_555 1_555
C8 C4 1.437 1_555 1_555
C9 C8 1.191 1_555 1_555
C10 C9 1.441 1_555 1_555
C11 C10 1.394 1_555 1_555
C12 C11 1.383 1_555 1_555
C13 C12 1.386 1_555 1_555
C14 C13 1.381 1_555 1_555
C15 C10 1.397 1_555 1_555
H1 C1 0.986 1_555 1_555
H2 C2 1.009 1_555 1_555
H3 C6 0.982 1_555 1_555
H5 C11 1.003 1_555 1_555
H6 C12 0.975 1_555 1_555
H7 C13 1.004 1_555 1_555
H8 C14 0.993 1_555 1_555
H9 C15 0.982 1_555 1_555
C1C C1 1.422 1_555 1_555
C2C C1C 1.357 1_555 1_555
C3C C3 1.437 1_555 1_555
C4C C3C 1.413 1_555 1_555
C5C C5 1.431 1_555 1_555
C6C C5C 1.428 1_555 1_555
C7C C7 1.417 1_555 1_555
C8C C4C 1.437 1_555 1_555
C9C C8C 1.191 1_555 1_555
C10C C9C 1.441 1_555 1_555
C11C C10C 1.394 1_555 1_555
C12C C11C 1.383 1_555 1_555
C13C C12C 1.386 1_555 1_555
C14C C13C 1.381 1_555 1_555
C15C C10C 1.397 1_555 1_555
H1C C1C 0.986 1_555 1_555
H2C C2C 1.009 1_555 1_555
H3C C6C 0.982 1_555 1_555
H4C C7C 1.008 1_555 1_555
H5C C11C 1.003 1_555 1_555
H6C C12C 0.975 1_555 1_555
H7C C13C 1.004 1_555 1_555
H8C C14C 0.993 1_555 1_555
H9C C15C 0.982 1_555 1_555
C14 C15 1.386 1_555 1_555
C2C C3C 1.421 1_555 1_555
C4C C5C 1.412 1_555 1_555
C6C C7C 1.358 1_555 1_555
C14C C15C 1.386 1_555 1_555
#END
