
#######################################################################
#
#                 Cambridge Crystallographic Data Centre
#                                CCDC
#
#######################################################################
#
# If this CIF has been generated from an entry in the Cambridge
# Structural Database, then it will include bibliographic, chemical,
# crystal, experimental, refinement or atomic coordinate data resulting
# from the CCDC's data processing and validation procedures.
#
#######################################################################

data_CSD_CIF_LEPPIF02
_audit_creation_date 2013-07-31
_audit_creation_method CSD-ConQuest-V1
_database_code_CSD LEPPIF02
_database_code_depnum_ccdc_archive 'CCDC 855468'
_chemical_formula_sum 'C30 H18'
_chemical_formula_moiety
;
C30 H18
;
_journal_coden_Cambridge 1078
_journal_year 2011
_journal_name_full 'CSD Communication(Private Communication) '
loop_
_publ_author_name
"A.S.Batsanov"
"J.C.Collings"
"T.B.Marder"
_chemical_name_systematic
;
9,10-bis(phenylethynyl)anthracene
;
_chemical_melting_point 522
_cell_volume   1982.337
_exptl_crystal_colour 'yellow'
_exptl_crystal_density_diffrn 1.268
_exptl_special_details
;
orthorhombic polymorph
contribution from Department of Chemistry, Durham University, South Road, 
Durham, UK
;
_exptl_crystal_description 'plate'
_diffrn_ambient_temperature 120
#These two values have been output from a single CSD field.
_refine_ls_R_factor_gt 0.0385
_refine_ls_wR_factor_gt 0.0385
_symmetry_cell_setting orthorhombic
_symmetry_space_group_name_H-M 'P b c n'
_symmetry_Int_Tables_number 60
loop_
_symmetry_equiv_pos_site_id
_symmetry_equiv_pos_as_xyz
1 x,y,z
2 1/2-x,1/2-y,1/2+z
3 -x,y,1/2-z
4 1/2+x,1/2-y,-z
5 -x,-y,-z
6 -1/2+x,-1/2+y,-1/2-z
7 x,-y,-1/2+z
8 -1/2-x,-1/2+y,z
_cell_length_a 24.3146(18)
_cell_length_b 11.5043(8)
_cell_length_c 7.0868(5)
_cell_angle_alpha 90
_cell_angle_beta 90
_cell_angle_gamma 90
_cell_formula_units_Z 4
loop_
_atom_type_symbol
_atom_type_radius_bond
C 0.68
H 0.23
loop_
_atom_site_label
_atom_site_type_symbol
_atom_site_fract_x
_atom_site_fract_y
_atom_site_fract_z
C1 C 0.47185(5) 0.03744(11) 0.22485(19)
H1 H 0.4533(5) -0.0388(12) 0.209(2)
C2 C 0.44431(5) 0.13906(10) 0.20122(17)
H2 H 0.4051(5) 0.1402(10) 0.1659(18)
C3 C 0.47142(4) 0.24798(9) 0.22633(15)
C4 C 0.44326(4) 0.35475(10) 0.20467(15)
C5 C 0.47140(4) 0.46170(9) 0.22659(15)
C6 C 0.44429(5) 0.57051(10) 0.20399(16)
H3 H 0.4052(5) 0.5707(10) 0.1724(18)
C7 C 0.47169(5) 0.67239(11) 0.22651(17)
H4 H 0.4523(5) 0.7476(12) 0.2089(19)
C8 C 0.38562(4) 0.35568(10) 0.16392(15)
C9 C 0.33713(4) 0.35903(9) 0.13486(16)
C10 C 0.27881(4) 0.36453(9) 0.10383(15)
C11 C 0.24510(4) 0.27212(10) 0.15971(17)
H5 H 0.2617(5) 0.2034(11) 0.2187(18)
C12 C 0.18894(5) 0.27841(12) 0.13086(18)
H6 H 0.1665(5) 0.2133(12) 0.172(2)
C13 C 0.16583(5) 0.37509(12) 0.04669(18)
H7 H 0.1255(5) 0.3772(11) 0.025(2)
C14 C 0.19896(5) 0.46724(11) -0.00829(17)
H8 H 0.1829(5) 0.5362(11) -0.068(2)
C15 C 0.25514(5) 0.46219(10) 0.02004(16)
H9 H 0.2802(5) 0.5273(11) -0.0183(19)
C1B C 0.52815(5) 0.03744(11) 0.27515(19)
H1B H 0.5467(5) -0.0388(12) 0.291(2)
C2B C 0.55569(5) 0.13906(10) 0.29878(17)
H2B H 0.5949(5) 0.1402(10) 0.3341(18)
C3B C 0.52858(4) 0.24798(9) 0.27367(15)
C4B C 0.55674(4) 0.35475(10) 0.29533(15)
C5B C 0.52860(4) 0.46170(9) 0.27341(15)
C6B C 0.55571(5) 0.57051(10) 0.29601(16)
H3B H 0.5948(5) 0.5707(10) 0.3276(18)
C7B C 0.52831(5) 0.67239(11) 0.27349(17)
H4B H 0.5477(5) 0.7476(12) 0.2911(19)
C8B C 0.61438(4) 0.35568(10) 0.33608(15)
C9B C 0.66287(4) 0.35903(9) 0.36514(16)
C10B C 0.72119(4) 0.36453(9) 0.39617(15)
C11B C 0.75490(4) 0.27212(10) 0.34029(17)
H5B H 0.7383(5) 0.2034(11) 0.2813(18)
C12B C 0.81106(5) 0.27841(12) 0.36914(18)
H6B H 0.8335(5) 0.2133(12) 0.328(2)
C13B C 0.83417(5) 0.37509(12) 0.45331(18)
H7B H 0.8745(5) 0.3772(11) 0.475(2)
C14B C 0.80104(5) 0.46724(11) 0.50829(17)
H8B H 0.8171(5) 0.5362(11) 0.568(2)
C15B C 0.74486(5) 0.46219(10) 0.47996(16)
H9B H 0.7198(5) 0.5273(11) 0.5183(19)
loop_
_geom_bond_atom_site_label_1
_geom_bond_atom_site_label_2
_geom_bond_distance
_geom_bond_site_symmetry_1
_geom_bond_site_symmetry_2
C1 H1 0.993 1_555 1_555
C2 C1 1.358 1_555 1_555
H2 C2 0.986 1_555 1_555
C3 C2 1.427 1_555 1_555
C4 C3 1.415 1_555 1_555
C5 C4 1.416 1_555 1_555
C6 C5 1.424 1_555 1_555
H3 C6 0.976 1_555 1_555
C7 C6 1.358 1_555 1_555
H4 C7 0.993 1_555 1_555
C8 C4 1.431 1_555 1_555
C9 C8 1.197 1_555 1_555
C10 C9 1.436 1_555 1_555
C11 C10 1.400 1_555 1_555
H5 C11 0.981 1_555 1_555
C12 C11 1.383 1_555 1_555
H6 C12 0.971 1_555 1_555
C13 C12 1.382 1_555 1_555
H7 C13 0.993 1_555 1_555
C14 C13 1.387 1_555 1_555
H8 C14 0.980 1_555 1_555
C15 C10 1.395 1_555 1_555
H9 C15 1.003 1_555 1_555
C1B C1 1.415 1_555 1_555
H1B C1B 0.993 1_555 1_555
C2B C1B 1.358 1_555 1_555
H2B C2B 0.986 1_555 1_555
C3B C3 1.430 1_555 1_555
C4B C3B 1.415 1_555 1_555
C5B C5 1.430 1_555 1_555
C6B C5B 1.424 1_555 1_555
H3B C6B 0.976 1_555 1_555
C7B C7 1.416 1_555 1_555
H4B C7B 0.993 1_555 1_555
C8B C4B 1.431 1_555 1_555
C9B C8B 1.197 1_555 1_555
C10B C9B 1.436 1_555 1_555
C11B C10B 1.400 1_555 1_555
H5B C11B 0.981 1_555 1_555
C12B C11B 1.383 1_555 1_555
H6B C12B 0.971 1_555 1_555
C13B C12B 1.382 1_555 1_555
H7B C13B 0.993 1_555 1_555
C14B C13B 1.387 1_555 1_555
H8B C14B 0.980 1_555 1_555
C15B C10B 1.395 1_555 1_555
H9B C15B 1.003 1_555 1_555
C14 C15 1.382 1_555 1_555
C2B C3B 1.427 1_555 1_555
C4B C5B 1.416 1_555 1_555
C6B C7B 1.358 1_555 1_555
C14B C15B 1.382 1_555 1_555
#END
