
#######################################################################
#
#                 Cambridge Crystallographic Data Centre
#                                CCDC
#
#######################################################################
#
# If this CIF has been generated from an entry in the Cambridge
# Structural Database, then it will include bibliographic, chemical,
# crystal, experimental, refinement or atomic coordinate data resulting
# from the CCDC's data processing and validation procedures.
#
#######################################################################

data_CSD_CIF_LETCOE
_audit_creation_date 2013-04-23
_audit_creation_method CSD-ConQuest-V1
_database_code_CSD LETCOE
_database_code_depnum_ccdc_archive 'CCDC 925232'
_chemical_formula_sum 'C26 H18'
_chemical_formula_moiety
;
C26 H18
;
_journal_coeditor_code "IUCr tk5189"
_journal_coden_Cambridge 1370
_journal_volume 69
_journal_year 2013
_journal_page_first o307
_journal_name_full 'Acta Crystallogr.,Sect.E:Struct.Rep.Online '
loop_
_publ_author_name
"M.Tummala"
"R.K.Dhar"
"F.R.Fronczek"
"S.F.Watkins"
_chemical_name_systematic
;
1-[3-(Naphthalen-1-yl)phenyl]naphthalene
;
_chemical_name_common
;
1,1'-(1,3-Phenylene)dinaphthalene
;
_chemical_melting_point 131.5
_cell_volume    872.052
_exptl_crystal_colour 'colorless'
_exptl_crystal_density_diffrn 1.258
_exptl_crystal_description 'prism'
_diffrn_ambient_temperature 100
#These two values have been output from a single CSD field.
_refine_ls_R_factor_gt 0.05
_refine_ls_wR_factor_gt 0.05
_symmetry_cell_setting triclinic
_symmetry_space_group_name_H-M 'P -1'
_symmetry_Int_Tables_number 2
loop_
_symmetry_equiv_pos_site_id
_symmetry_equiv_pos_as_xyz
1 x,y,z
2 -x,-y,-z
_cell_length_a 7.6272(1)
_cell_length_b 10.8453(2)
_cell_length_c 11.8454(2)
_cell_angle_alpha 106.0798(8)
_cell_angle_beta 96.2976(8)
_cell_angle_gamma 108.4307(9)
_cell_formula_units_Z 2
loop_
_atom_type_symbol
_atom_type_radius_bond
C 0.68
H 0.23
loop_
_atom_site_label
_atom_site_type_symbol
_atom_site_fract_x
_atom_site_fract_y
_atom_site_fract_z
C1 C 0.82582(14) 0.47008(10) 0.81621(9)
C2 C 0.69555(14) 0.50351(10) 0.74916(9)
H1 H 0.5744(18) 0.4321(13) 0.7006(12)
C3 C 0.73683(14) 0.63687(10) 0.74479(9)
C4 C 0.91076(15) 0.73893(10) 0.81138(9)
H2 H 0.9414(19) 0.8349(14) 0.8107(13)
C5 C 1.04081(15) 0.70701(11) 0.87862(9)
H3 H 1.159(2) 0.7783(14) 0.9277(13)
C6 C 0.99993(14) 0.57264(10) 0.87979(9)
H4 H 1.0961(19) 0.5510(13) 0.9275(12)
C7 C 0.78015(13) 0.32634(10) 0.81691(9)
C8 C 0.89726(15) 0.25621(11) 0.77886(10)
H5 H 1.013(2) 0.3032(14) 0.7538(13)
C9 C 0.85267(16) 0.11697(11) 0.77163(10)
H6 H 0.939(2) 0.0692(15) 0.7408(14)
C10 C 0.69203(16) 0.04918(10) 0.80376(10)
H7 H 0.658(2) -0.0494(14) 0.7972(13)
C11 C 0.57133(14) 0.11841(10) 0.84745(9)
C12 C 0.40719(16) 0.05083(11) 0.88491(10)
H8 H 0.380(2) -0.0479(15) 0.8764(13)
C13 C 0.29543(16) 0.11944(12) 0.93179(11)
H9 H 0.183(2) 0.0731(15) 0.9603(13)
C14 C 0.34088(16) 0.25987(11) 0.94264(10)
H10 H 0.261(2) 0.3096(14) 0.9777(13)
C15 C 0.49569(14) 0.32721(10) 0.90471(9)
H11 H 0.5279(19) 0.4277(14) 0.9140(13)
C16 C 0.61575(14) 0.25913(9) 0.85565(9)
C17 C 0.59275(14) 0.6685(1) 0.67417(9)
C18 C 0.41114(16) 0.63294(12) 0.69381(11)
H12 H 0.378(2) 0.5841(15) 0.7523(14)
C19 C 0.27133(17) 0.66524(14) 0.63265(12)
H13 H 0.139(2) 0.6350(16) 0.6469(14)
C20 C 0.31553(16) 0.73679(13) 0.55434(11)
H14 H 0.216(2) 0.7599(15) 0.5088(14)
C21 C 0.49962(15) 0.77453(10) 0.53030(9)
C22 C 0.54657(16) 0.84667(11) 0.44775(9)
H15 H 0.4519(19) 0.8779(14) 0.4119(13)
C23 C 0.71984(16) 0.87506(11) 0.41886(10)
H16 H 0.751(2) 0.9230(14) 0.3557(14)
C24 C 0.85601(16) 0.83222(11) 0.47117(10)
H17 H 0.983(2) 0.8506(15) 0.4477(13)
C25 C 0.81667(15) 0.76545(11) 0.55395(10)
H18 H 0.9135(19) 0.7354(14) 0.5896(13)
C26 C 0.63915(14) 0.73646(10) 0.58754(9)
loop_
_geom_bond_atom_site_label_1
_geom_bond_atom_site_label_2
_geom_bond_distance
_geom_bond_site_symmetry_1
_geom_bond_site_symmetry_2
C1 C2 1.401 1_555 1_555
C2 H1 0.984 1_555 1_555
C3 C2 1.397 1_555 1_555
C4 C3 1.402 1_555 1_555
H2 C4 0.995 1_555 1_555
C5 C4 1.391 1_555 1_555
H3 C5 0.971 1_555 1_555
C6 C1 1.397 1_555 1_555
H4 C6 1.002 1_555 1_555
C7 C1 1.489 1_555 1_555
C8 C7 1.381 1_555 1_555
H5 C8 0.992 1_555 1_555
C9 C8 1.414 1_555 1_555
H6 C9 0.999 1_555 1_555
C10 C9 1.369 1_555 1_555
H7 C10 0.995 1_555 1_555
C11 C10 1.416 1_555 1_555
C12 C11 1.422 1_555 1_555
H8 C12 0.997 1_555 1_555
C13 C12 1.366 1_555 1_555
H9 C13 0.993 1_555 1_555
C14 C13 1.416 1_555 1_555
H10 C14 0.987 1_555 1_555
C15 C14 1.372 1_555 1_555
H11 C15 1.009 1_555 1_555
C16 C7 1.431 1_555 1_555
C17 C3 1.490 1_555 1_555
C18 C17 1.380 1_555 1_555
H12 C18 0.991 1_555 1_555
C19 C18 1.411 1_555 1_555
H13 C19 1.007 1_555 1_555
C20 C19 1.370 1_555 1_555
H14 C20 1.018 1_555 1_555
C21 C20 1.417 1_555 1_555
C22 C21 1.421 1_555 1_555
H15 C22 0.992 1_555 1_555
C23 C22 1.363 1_555 1_555
H16 C23 1.031 1_555 1_555
C24 C23 1.415 1_555 1_555
H17 C24 1.011 1_555 1_555
C25 C24 1.377 1_555 1_555
H18 C25 0.995 1_555 1_555
C26 C17 1.434 1_555 1_555
C5 C6 1.395 1_555 1_555
C11 C16 1.427 1_555 1_555
C15 C16 1.424 1_555 1_555
C21 C26 1.427 1_555 1_555
C25 C26 1.417 1_555 1_555
#END
