
#######################################################################
#
#                 Cambridge Crystallographic Data Centre
#                                CCDC
#
#######################################################################
#
# If this CIF has been generated from an entry in the Cambridge
# Structural Database, then it will include bibliographic, chemical,
# crystal, experimental, refinement or atomic coordinate data resulting
# from the CCDC's data processing and validation procedures.
#
#######################################################################

data_CSD_CIF_LEWWIW
_audit_creation_date 2018-05-10
_audit_creation_method CSD-ConQuest-V1
_database_code_CSD LEWWIW
_database_code_depnum_ccdc_archive 'CCDC 1812284'
_chemical_formula_sum 'C52 H34'
_chemical_formula_moiety
;
C52 H34
;
_journal_coden_Cambridge 1220
_journal_volume 24
_journal_year 2018
_journal_page_first 6364
_journal_name_full 'Chem.-Eur.J. '
loop_
_publ_author_name
"R.Yamano"
"Yu Shibata"
"K.Tanaka"
_chemical_name_systematic
;
11,22-bis(4-methylphenyl)tribenzo[a,f,m]naphtho[1,2-k]tetraphene
;
_cell_volume   7049.756
_exptl_crystal_colour 'yellow'
_exptl_crystal_density_diffrn 1.241
_exptl_crystal_description 'plate'
_diffrn_ambient_temperature 193
#These two values have been output from a single CSD field.
_refine_ls_R_factor_gt 0.1563
_refine_ls_wR_factor_gt 0.1563
_symmetry_cell_setting monoclinic
_symmetry_space_group_name_H-M 'P 21/n'
_symmetry_Int_Tables_number 14
loop_
_symmetry_equiv_pos_site_id
_symmetry_equiv_pos_as_xyz
1 x,y,z
2 1/2-x,1/2+y,1/2-z
3 -x,-y,-z
4 -1/2+x,-1/2-y,-1/2+z
_cell_length_a 13.8998(15)
_cell_length_b 19.329(2)
_cell_length_c 26.793(3)
_cell_angle_alpha 90
_cell_angle_beta 101.666(10)
_cell_angle_gamma 90
_cell_formula_units_Z 8
loop_
_atom_type_symbol
_atom_type_radius_bond
C 0.68
H 0.23
loop_
_atom_site_label
_atom_site_type_symbol
_atom_site_fract_x
_atom_site_fract_y
_atom_site_fract_z
C1 C 0.7163(4) 0.8295(3) 0.87763(18)
C2 C 0.5471(4) 0.7803(3) 0.78594(18)
C3 C 0.7214(4) 0.7058(3) 0.89941(18)
C4 C 0.6742(4) 0.7607(3) 0.86992(17)
C5 C 0.6657(4) 0.8906(3) 0.86155(19)
H1 H 0.59861 0.88850 0.84806
C6 C 0.6738(4) 0.6380(3) 0.89706(18)
C7 C 0.5878(4) 0.8900(3) 0.74388(19)
H2 H 0.52300 0.90400 0.74121
C8 C 0.5214(4) 0.6922(3) 0.84723(17)
C9 C 0.2765(4) 0.7584(3) 0.77099(19)
C10 C 0.4481(4) 0.7693(3) 0.75997(18)
C11 C 0.4178(4) 0.6975(3) 0.82952(19)
C12 C 0.7768(4) 0.8479(3) 0.7479(2)
H3 H 0.84033 0.83266 0.74799
C13 C 0.3097(4) 0.7753(3) 0.68436(19)
C14 C 0.6163(4) 0.8249(3) 0.76418(18)
C15 C 0.3819(4) 0.7423(3) 0.78874(18)
C16 C 0.8153(4) 0.8364(3) 0.90552(19)
C17 C 0.5801(4) 0.7473(3) 0.83383(18)
C18 C 0.4119(4) 0.7790(3) 0.70444(18)
C19 C 0.6531(5) 0.9337(3) 0.7277(2)
H4 H 0.63204 0.97698 0.71467
C20 C 0.2115(4) 0.7689(3) 0.8064(2)
C21 C 0.8148(4) 0.7169(3) 0.93131(19)
H5 H 0.84458 0.68104 0.95195
C22 C 0.5728(4) 0.6315(3) 0.8731(2)
C23 C 0.3529(4) 0.6498(3) 0.8515(2)
C24 C 0.8615(4) 0.7784(3) 0.9324(2)
H6 H 0.92529 0.78267 0.95114
C25 C 0.7114(4) 0.8040(3) 0.76482(18)
H7 H 0.73181 0.76009 0.77671
C26 C 0.7495(5) 0.9143(3) 0.7306(2)
C27 C 0.8611(5) 0.9016(3) 0.9074(2)
H8 H 0.92663 0.90577 0.92355
C28 C 0.5834(5) 0.5082(3) 0.8900(2)
H9 H 0.55371 0.46492 0.88712
C29 C 0.6810(5) 0.5147(3) 0.9152(2)
H10 H 0.71599 0.47629 0.92999
C30 C 0.2407(4) 0.7698(3) 0.7194(2)
C31 C 0.7247(4) 0.5785(3) 0.9179(2)
H11 H 0.79026 0.58261 0.93400
C32 C 0.0732(4) 0.7733(3) 0.7335(2)
H12 H 0.00588 0.77201 0.72060
C33 C 0.2466(4) 0.7836(3) 0.8584(2)
H13 H 0.31387 0.78580 0.87121
C34 C 0.1097(4) 0.7742(3) 0.7868(2)
C35 C 0.5306(5) 0.5650(3) 0.8695(2)
H14 H 0.46564 0.55935 0.85274
C36 C 0.8125(5) 0.9581(3) 0.8864(2)
H15 H 0.84519 0.99999 0.88593
C37 C 0.2752(5) 0.7769(4) 0.6311(2)
H16 H 0.20809 0.77473 0.61782
C38 C 0.4751(5) 0.7827(3) 0.6695(2)
H17 H 0.54265 0.78474 0.68154
C39 C 0.3604(4) 0.6439(3) 0.9041(2)
H18 H 0.40043 0.67440 0.92584
C40 C 0.7114(5) 0.9529(3) 0.8650(2)
H19 H 0.67582 0.99243 0.85330
C41 C 0.2890(4) 0.6049(3) 0.8204(2)
H20 H 0.27932 0.60947 0.78521
C42 C 0.1375(4) 0.7742(3) 0.7010(2)
H21 H 0.11314 0.77778 0.66614
C43 C 0.3089(4) 0.5932(3) 0.9243(2)
H22 H 0.31415 0.59080 0.95940
C44 C 0.1821(5) 0.7947(4) 0.8902(2)
H23 H 0.20646 0.80292 0.92461
C45 C 0.3396(5) 0.7815(4) 0.5988(2)
H24 H 0.31602 0.78360 0.56380
C46 C 0.2498(5) 0.5460(3) 0.8934(2)
C47 C 0.4381(5) 0.7832(3) 0.6178(2)
H25 H 0.48127 0.78469 0.59543
C48 C 0.2394(5) 0.5534(3) 0.8411(3)
H26 H 0.19849 0.52324 0.81953
C49 C 0.0450(4) 0.7834(4) 0.8208(3)
H27 H -0.02251 0.78234 0.80857
C50 C 0.0814(5) 0.7939(4) 0.8720(3)
H28 H 0.03876 0.80045 0.89419
C51 C 0.8256(5) 0.9617(4) 0.7155(3)
H29 H 0.85546 0.98938 0.74421
H30 H 0.79453 0.99135 0.68819
H31 H 0.87511 0.93442 0.70442
C52 C 0.1960(6) 0.4896(4) 0.9152(3)
H32 H 0.22072 0.44533 0.90746
H33 H 0.12711 0.49239 0.90063
H34 H 0.20589 0.49503 0.95153
C53 C 0.9833(4) 0.7566(3) 0.55656(18)
C54 C 0.8526(4) 0.7074(3) 0.60267(18)
C55 C 1.0633(3) 0.6204(3) 0.56487(18)
C56 C 1.0870(4) 0.5712(3) 0.67170(19)
C57 C 1.0006(3) 0.6435(3) 0.59999(18)
C58 C 0.7756(4) 0.7599(3) 0.58209(19)
C59 C 0.8383(4) 0.6623(3) 0.64205(18)
C60 C 0.6537(4) 0.6381(3) 0.6163(2)
C61 C 0.9197(4) 0.6205(3) 0.72717(19)
C62 C 0.9413(4) 0.7038(3) 0.58513(18)
C63 C 0.9217(4) 0.6292(3) 0.67250(18)
C64 C 0.7411(4) 0.6489(3) 0.65501(19)
C65 C 1.0977(4) 0.6692(3) 0.53469(19)
C66 C 0.7375(4) 0.6356(3) 0.70609(19)
C67 C 1.0008(4) 0.6135(3) 0.64820(18)
C68 C 0.8300(4) 0.6295(3) 0.74358(19)
C69 C 1.1060(4) 0.7930(4) 0.5091(2)
H35 H 1.15679 0.78179 0.49268
C70 C 1.1815(4) 0.5950(3) 0.67144(18)
H36 H 1.18951 0.63841 0.65784
C71 C 0.8294(4) 0.6282(3) 0.7961(2)
H37 H 0.77002 0.63221 0.80681
C72 C 1.0837(4) 0.5473(3) 0.55896(19)
C73 C 1.0619(4) 0.7400(3) 0.53324(19)
C74 C 0.6444(4) 0.6275(3) 0.7192(2)
H38 H 0.64089 0.62339 0.75338
C75 C 0.9566(4) 0.8272(3) 0.5579(2)
H39 H 0.90710 0.83959 0.57485
C76 C 0.5619(4) 0.6271(3) 0.6308(2)
C77 C 1.0755(4) 0.8605(3) 0.5095(2)
H40 H 1.10450 0.89438 0.49271
C78 C 1.0293(4) 0.4933(3) 0.57517(19)
H41 H 0.97859 0.50401 0.59182
C79 C 0.7344(4) 0.8024(3) 0.6145(2)
H42 H 0.75446 0.79756 0.64964
C80 C 1.1536(4) 0.5285(3) 0.5294(2)
C81 C 1.0785(4) 0.5055(3) 0.6934(2)
H43 H 1.01673 0.48795 0.69462
C82 C 1.0049(4) 0.6130(3) 0.76480(19)
H44 H 1.06473 0.60732 0.75480
C83 C 1.2629(4) 0.5560(3) 0.6908(2)
H45 H 1.32485 0.57353 0.68984
C84 C 0.7432(4) 0.7696(3) 0.5301(2)
H46 H 0.77028 0.74285 0.50754
C85 C 1.0037(4) 0.6135(3) 0.81567(19)
H47 H 1.06199 0.60892 0.83955
C86 C 0.6567(4) 0.6302(3) 0.5640(2)
H48 H 0.71592 0.63601 0.55339
C87 C 1.0496(5) 0.4243(3) 0.5668(2)
H49 H 1.01433 0.38968 0.57921
C88 C 1.1620(5) 0.4670(3) 0.7129(2)
H50 H 1.15493 0.42389 0.72719
C89 C 0.6650(4) 0.8510(3) 0.5953(2)
H51 H 0.63943 0.87881 0.61775
C90 C 1.0017(5) 0.8781(3) 0.5347(2)
H52 H 0.98249 0.92403 0.53601
C91 C 1.1210(5) 0.4066(4) 0.5404(2)
H53 H 1.13410 0.36039 0.53490
C92 C 0.9149(4) 0.6210(3) 0.8317(2)
H54 H 0.91369 0.62117 0.86631
C93 C 0.6316(5) 0.8598(3) 0.5431(3)
C94 C 0.6713(4) 0.8182(3) 0.5107(2)
H55 H 0.64997 0.82266 0.47560
C95 C 1.1680(4) 0.6472(4) 0.5055(2)
H56 H 1.19423 0.67988 0.48653
C96 C 0.5608(4) 0.6256(3) 0.6837(2)
H57 H 0.50093 0.62326 0.69402
C97 C 1.1973(4) 0.5810(4) 0.5046(2)
H58 H 1.24699 0.56951 0.48750
C98 C 0.5738(4) 0.6142(3) 0.5289(2)
H59 H 0.57751 0.60816 0.49486
C99 C 1.1724(5) 0.4576(4) 0.5226(2)
H60 H 1.22155 0.44543 0.50530
C100 C 0.4781(4) 0.6127(4) 0.5937(2)
H61 H 0.41791 0.60702 0.60326
C101 C 1.2554(5) 0.4910(4) 0.7117(2)
C102 C 0.4835(5) 0.6068(4) 0.5437(2)
H62 H 0.42697 0.59793 0.51938
C103 C 1.3464(6) 0.4497(4) 0.7348(3)
H63 H 1.36614 0.42211 0.70882
H64 H 1.33203 0.42005 0.76111
H65 H 1.39856 0.48079 0.74910
C104 C 0.5531(6) 0.9127(4) 0.5225(3)
H66 H 0.49570 0.90393 0.53628
H67 H 0.53648 0.90928 0.48597
H68 H 0.57735 0.95829 0.53200
loop_
_geom_bond_atom_site_label_1
_geom_bond_atom_site_label_2
_geom_bond_distance
_geom_bond_site_symmetry_1
_geom_bond_site_symmetry_2
C1 C4 1.451 1_555 1_555
C2 C10 1.427 1_555 1_555
C3 C4 1.404 1_555 1_555
C4 C17 1.484 1_555 1_555
C5 C1 1.397 1_555 1_555
H1 C5 0.930 1_555 1_555
C6 C3 1.464 1_555 1_555
C7 H2 0.929 1_555 1_555
C8 C11 1.426 1_555 1_555
C9 C15 1.479 1_555 1_555
C10 C15 1.414 1_555 1_555
C11 C15 1.404 1_555 1_555
C12 H3 0.930 1_555 1_555
C13 C18 1.415 1_555 1_555
C14 C2 1.495 1_555 1_555
C16 C1 1.433 1_555 1_555
C17 C2 1.423 1_555 1_555
C18 C10 1.483 1_555 1_555
C19 C7 1.373 1_555 1_555
H4 C19 0.931 1_555 1_555
C20 C9 1.451 1_555 1_555
C21 C3 1.419 1_555 1_555
H5 C21 0.930 1_555 1_555
C22 C6 1.426 1_555 1_555
C23 C11 1.492 1_555 1_555
C24 C16 1.415 1_555 1_555
H6 C24 0.930 1_555 1_555
C25 C12 1.385 1_555 1_555
H7 C25 0.930 1_555 1_555
C26 C12 1.391 1_555 1_555
C27 C16 1.408 1_555 1_555
H8 C27 0.930 1_555 1_555
C28 H9 0.929 1_555 1_555
C29 C28 1.393 1_555 1_555
H10 C29 0.931 1_555 1_555
C30 C9 1.389 1_555 1_555
C31 C6 1.405 1_555 1_555
H11 C31 0.929 1_555 1_555
C32 H12 0.930 1_555 1_555
C33 C20 1.409 1_555 1_555
H13 C33 0.930 1_555 1_555
C34 C20 1.410 1_555 1_555
C35 C22 1.408 1_555 1_555
H14 C35 0.930 1_555 1_555
C36 C27 1.346 1_555 1_555
H15 C36 0.930 1_555 1_555
C37 C13 1.411 1_555 1_555
H16 C37 0.930 1_555 1_555
C38 C18 1.409 1_555 1_555
H17 C38 0.930 1_555 1_555
C39 C23 1.397 1_555 1_555
H18 C39 0.930 1_555 1_555
C40 C5 1.356 1_555 1_555
H19 C40 0.930 1_555 1_555
C41 C23 1.392 1_555 1_555
H20 C41 0.929 1_555 1_555
C42 C30 1.422 1_555 1_555
H21 C42 0.929 1_555 1_555
C43 C39 1.387 1_555 1_555
H22 C43 0.930 1_555 1_555
C44 C33 1.373 1_555 1_555
H23 C44 0.929 1_555 1_555
C45 C37 1.368 1_555 1_555
H24 C45 0.930 1_555 1_555
C46 C43 1.385 1_555 1_555
C47 C38 1.377 1_555 1_555
H25 C47 0.930 1_555 1_555
C48 C41 1.389 1_555 1_555
H26 C48 0.930 1_555 1_555
C49 C34 1.415 1_555 1_555
H27 C49 0.930 1_555 1_555
C50 C44 1.386 1_555 1_555
H28 C50 0.929 1_555 1_555
C51 C26 1.515 1_555 1_555
H29 C51 0.960 1_555 1_555
H30 C51 0.961 1_555 1_555
H31 C51 0.960 1_555 1_555
C52 C46 1.505 1_555 1_555
H32 C52 0.960 1_555 1_555
H33 C52 0.960 1_555 1_555
H34 C52 0.961 1_555 1_555
C53 C62 1.466 1_555 1_555
C54 C58 1.497 1_555 1_555
C55 C57 1.475 1_555 1_555
C56 C67 1.482 1_555 1_555
C57 C62 1.437 1_555 1_555
C58 C79 1.399 1_555 1_555
C59 C54 1.413 1_555 1_555
C60 C64 1.444 1_555 1_555
C61 C63 1.480 1_555 1_555
C62 C54 1.407 1_555 1_555
C63 C59 1.427 1_555 1_555
C64 C59 1.484 1_555 1_555
C65 C55 1.389 1_555 1_555
C66 C64 1.403 1_555 1_555
C67 C57 1.415 1_555 1_555
C68 C61 1.414 1_555 1_555
C69 H35 0.930 1_555 1_555
C70 C56 1.393 1_555 1_555
H36 C70 0.930 1_555 1_555
C71 C68 1.409 1_555 1_555
H37 C71 0.930 1_555 1_555
C72 C55 1.456 1_555 1_555
C73 C53 1.401 1_555 1_555
C74 C66 1.416 1_555 1_555
H38 C74 0.930 1_555 1_555
C75 C53 1.417 1_555 1_555
H39 C75 0.929 1_555 1_555
C76 C60 1.423 1_555 1_555
C77 C69 1.373 1_555 1_555
H40 C77 0.931 1_555 1_555
C78 C72 1.408 1_555 1_555
H41 C78 0.931 1_555 1_555
C79 H42 0.931 1_555 1_555
C80 C72 1.419 1_555 1_555
C81 C56 1.412 1_555 1_555
H43 C81 0.930 1_555 1_555
C82 C61 1.399 1_555 1_555
H44 C82 0.930 1_555 1_555
C83 C70 1.371 1_555 1_555
H45 C83 0.931 1_555 1_555
C84 C58 1.387 1_555 1_555
H46 C84 0.931 1_555 1_555
C85 C82 1.366 1_555 1_555
H47 C85 0.930 1_555 1_555
C86 C60 1.419 1_555 1_555
H48 C86 0.930 1_555 1_555
C87 C78 1.391 1_555 1_555
H49 C87 0.930 1_555 1_555
C88 C81 1.389 1_555 1_555
H50 C88 0.930 1_555 1_555
C89 C79 1.370 1_555 1_555
H51 C89 0.929 1_555 1_555
C90 C75 1.380 1_555 1_555
H52 C90 0.930 1_555 1_555
C91 C87 1.373 1_555 1_555
H53 C91 0.929 1_555 1_555
C92 C71 1.372 1_555 1_555
H54 C92 0.931 1_555 1_555
C93 C89 1.392 1_555 1_555
C94 C84 1.393 1_555 1_555
H55 C94 0.931 1_555 1_555
C95 C65 1.434 1_555 1_555
H56 C95 0.930 1_555 1_555
C96 C74 1.345 1_555 1_555
H57 C96 0.930 1_555 1_555
C97 C80 1.415 1_555 1_555
H58 C97 0.930 1_555 1_555
C98 C86 1.367 1_555 1_555
H59 C98 0.931 1_555 1_555
C99 C80 1.414 1_555 1_555
H60 C99 0.930 1_555 1_555
C100 C76 1.398 1_555 1_555
H61 C100 0.930 1_555 1_555
C101 C83 1.388 1_555 1_555
C102 C98 1.398 1_555 1_555
H62 C102 0.930 1_555 1_555
C103 C101 1.518 1_555 1_555
H63 C103 0.960 1_555 1_555
H64 C103 0.960 1_555 1_555
H65 C103 0.960 1_555 1_555
C104 C93 1.516 1_555 1_555
H66 C104 0.960 1_555 1_555
H67 C104 0.961 1_555 1_555
H68 C104 0.959 1_555 1_555
C7 C14 1.396 1_555 1_555
C8 C17 1.431 1_555 1_555
C8 C22 1.472 1_555 1_555
C13 C30 1.475 1_555 1_555
C14 C25 1.379 1_555 1_555
C19 C26 1.378 1_555 1_555
C21 C24 1.352 1_555 1_555
C28 C35 1.372 1_555 1_555
C29 C31 1.370 1_555 1_555
C32 C34 1.416 1_555 1_555
C32 C42 1.368 1_555 1_555
C36 C40 1.410 1_555 1_555
C45 C47 1.361 1_555 1_555
C46 C48 1.387 1_555 1_555
C49 C50 1.378 1_555 1_555
C63 C67 1.419 1_555 1_555
C65 C73 1.454 1_555 1_555
C66 C68 1.468 1_555 1_555
C69 C73 1.416 1_555 1_555
C76 C96 1.421 1_555 1_555
C77 C90 1.380 1_555 1_555
C85 C92 1.394 1_555 1_555
C88 C101 1.385 1_555 1_555
C91 C99 1.359 1_555 1_555
C93 C94 1.378 1_555 1_555
C95 C97 1.345 1_555 1_555
C100 C102 1.362 1_555 1_555
#END
