
#######################################################################
#
#                 Cambridge Crystallographic Data Centre
#                                CCDC
#
#######################################################################
#
# If this CIF has been generated from an entry in the Cambridge
# Structural Database, then it will include bibliographic, chemical,
# crystal, experimental, refinement or atomic coordinate data resulting
# from the CCDC's data processing and validation procedures.
#
#######################################################################

data_CSD_CIF_LEWWOC
_audit_creation_date 2018-05-10
_audit_creation_method CSD-ConQuest-V1
_database_code_CSD LEWWOC
_database_code_depnum_ccdc_archive 'CCDC 1812285'
_chemical_formula_sum 'C52 H34'
_chemical_formula_moiety
;
C52 H34
;
_journal_coden_Cambridge 1220
_journal_volume 24
_journal_year 2018
_journal_page_first 6364
_journal_name_full 'Chem.-Eur.J. '
loop_
_publ_author_name
"R.Yamano"
"Yu Shibata"
"K.Tanaka"
_chemical_name_systematic
;
(+-)-21,22-bis(4-methylphenyl)dibenzo[i,o]heptahelicene
;
_cell_volume   3491.010
_exptl_crystal_colour 'yellow'
_exptl_crystal_density_diffrn 1.253
_exptl_crystal_description 'plate'
_diffrn_ambient_temperature 293
#These two values have been output from a single CSD field.
_refine_ls_R_factor_gt 0.0697
_refine_ls_wR_factor_gt 0.0697
loop_
_citation_database_id_CSD
_citation_special_details
LEWWES "is a stereoisomer of this entry"
_symmetry_cell_setting monoclinic
_symmetry_space_group_name_H-M 'P 21/c'
_symmetry_Int_Tables_number 14
loop_
_symmetry_equiv_pos_site_id
_symmetry_equiv_pos_as_xyz
1 x,y,z
2 -x,1/2+y,1/2-z
3 -x,-y,-z
4 x,-1/2-y,-1/2+z
_cell_length_a 16.067(2)
_cell_length_b 15.865(2)
_cell_length_c 15.336(2)
_cell_angle_alpha 90
_cell_angle_beta 116.744(18)
_cell_angle_gamma 90
_cell_formula_units_Z 4
loop_
_atom_type_symbol
_atom_type_radius_bond
C 0.68
H 0.23
loop_
_atom_site_label
_atom_site_type_symbol
_atom_site_fract_x
_atom_site_fract_y
_atom_site_fract_z
C1 C 0.08922(11) 0.57859(10) 0.41068(11)
C2 C 0.00065(11) 0.52946(11) 0.24373(11)
C3 C 0.17793(11) 0.5779(1) 0.49948(11)
C4 C -0.08345(11) 0.55094(11) 0.24841(11)
C5 C -0.08010(11) 0.59257(11) 0.32970(11)
C6 C 0.00648(11) 0.59795(10) 0.41691(11)
C7 C 0.01325(11) 0.63037(10) 0.50927(11)
C8 C -0.17504(11) 0.54674(11) 0.15853(11)
C9 C 0.16059(11) 0.57897(11) 0.29014(12)
C10 C 0.10174(12) 0.65437(11) 0.58358(11)
C11 C 0.00422(11) 0.47753(11) 0.16637(11)
C12 C 0.18524(11) 0.62648(11) 0.57838(11)
C13 C 0.25786(11) 0.53039(11) 0.50810(12)
C14 C 0.08567(12) 0.47841(12) 0.15298(12)
C15 C 0.16167(12) 0.53495(12) 0.21145(12)
C16 C -0.16628(11) 0.63920(11) 0.31530(11)
C17 C 0.23036(11) 0.64337(12) 0.33829(12)
C18 C 0.34719(12) 0.55036(13) 0.58521(13)
C19 C -0.06370(12) 0.64039(12) 0.52846(12)
H1 H -0.12136 0.61951 0.48393
C20 C 0.08898(14) 0.42568(13) 0.08087(14)
H2 H 0.14144 0.42700 0.07000
C21 C -0.19492(12) 0.60502(12) 0.08463(12)
H3 H -0.15047 0.64511 0.09050
C22 C -0.06635(13) 0.41973(12) 0.11154(13)
H4 H -0.11876 0.41628 0.12234
C23 C 0.22249(13) 0.70689(12) 0.39874(13)
H5 H 0.16819 0.71034 0.40606
C24 C 0.25260(12) 0.46139(12) 0.44804(13)
H6 H 0.19464 0.44443 0.40001
C25 C -0.05624(14) 0.68020(12) 0.61120(13)
H7 H -0.10855 0.68622 0.62180
C26 C 0.35289(13) 0.61050(14) 0.65544(14)
H8 H 0.41117 0.62739 0.70289
C27 C 0.02879(14) 0.71133(13) 0.67874(13)
H9 H 0.03314 0.74155 0.73259
C28 C 0.27598(13) 0.64395(13) 0.65529(13)
H10 H 0.28187 0.67916 0.70623
C29 C 0.10624(14) 0.69742(12) 0.66586(12)
H11 H 0.16360 0.71689 0.71268
C30 C 0.30895(13) 0.64712(13) 0.31956(15)
C31 C -0.24306(12) 0.48832(12) 0.14733(13)
H12 H -0.23183 0.44880 0.19616
C32 C -0.06055(14) 0.36838(13) 0.04282(13)
H13 H -0.10853 0.33095 0.00744
C33 C -0.28004(13) 0.60441(15) 0.00217(14)
H14 H -0.29183 0.64422 -0.04652
C34 C -0.24592(12) 0.59945(14) 0.30841(13)
H15 H -0.24469 0.54193 0.32062
C35 C -0.34775(13) 0.54604(16) -0.00934(14)
C36 C 0.01738(15) 0.37257(13) 0.02634(14)
H16 H 0.02093 0.33927 -0.02179
C37 C -0.32755(13) 0.48815(14) 0.06419(15)
H17 H -0.37193 0.44780 0.05782
C38 C 0.38071(14) 0.70556(15) 0.37126(17)
H18 H 0.43351 0.70616 0.36097
C39 C -0.17000(13) 0.72546(12) 0.29974(13)
H19 H -0.11699 0.75387 0.30593
C40 C 0.23933(14) 0.54497(15) 0.19112(15)
H20 H 0.24016 0.51601 0.13879
C41 C 0.29258(14) 0.76337(13) 0.44671(15)
H21 H 0.28588 0.80376 0.48705
C42 C 0.33034(14) 0.41876(14) 0.45849(16)
H22 H 0.32470 0.37272 0.41867
C43 C 0.37448(15) 0.76092(15) 0.43563(18)
H23 H 0.42391 0.79672 0.47186
C44 C 0.42619(13) 0.50755(16) 0.59145(16)
H24 H 0.48480 0.52305 0.63941
C45 C 0.31141(15) 0.59524(15) 0.24570(17)
H25 H 0.36383 0.59595 0.23475
C46 C -0.32708(14) 0.64455(17) 0.28356(16)
H26 H -0.37974 0.61687 0.27946
C47 C 0.41899(15) 0.44427(17) 0.52930(18)
H27 H 0.47227 0.41781 0.53335
C48 C -0.33139(15) 0.72978(18) 0.26475(16)
C49 C -0.25154(16) 0.76967(15) 0.27515(15)
H28 H -0.25243 0.82759 0.26544
C50 C 0.08480(11) 0.56196(10) 0.31616(11)
C51 C -0.44093(15) 0.5443(2) -0.10013(17)
H29 H -0.47332 0.59629 -0.10521
H30 H -0.47760 0.49817 -0.09579
H31 H -0.43078 0.53721 -0.15679
C52 C -0.42210(18) 0.7779(2) 0.2332(2)
H32 H -0.46578 0.76020 0.16888
H33 H -0.41050 0.83721 0.23272
H34 H -0.44736 0.76669 0.27810
loop_
_geom_bond_atom_site_label_1
_geom_bond_atom_site_label_2
_geom_bond_distance
_geom_bond_site_symmetry_1
_geom_bond_site_symmetry_2
C1 C3 1.463 1_555 1_555
C2 C4 1.426 1_555 1_555
C3 C12 1.394 1_555 1_555
C4 C5 1.390 1_555 1_555
C5 C6 1.434 1_555 1_555
C6 C1 1.409 1_555 1_555
C7 C6 1.464 1_555 1_555
C8 C4 1.498 1_555 1_555
C9 C15 1.401 1_555 1_555
C10 C7 1.417 1_555 1_555
C11 C2 1.467 1_555 1_555
C12 C10 1.449 1_555 1_555
C13 C3 1.443 1_555 1_555
C14 C11 1.413 1_555 1_555
C15 C14 1.454 1_555 1_555
C16 C5 1.496 1_555 1_555
C17 C9 1.449 1_555 1_555
C18 C13 1.425 1_555 1_555
C19 C7 1.403 1_555 1_555
H1 C19 0.930 1_555 1_555
C20 C14 1.407 1_555 1_555
H2 C20 0.930 1_555 1_555
C21 C8 1.384 1_555 1_555
H3 C21 0.930 1_555 1_555
C22 C11 1.406 1_555 1_555
H4 C22 0.930 1_555 1_555
C23 C17 1.413 1_555 1_555
H5 C23 0.930 1_555 1_555
C24 C13 1.408 1_555 1_555
H6 C24 0.930 1_555 1_555
C25 C19 1.373 1_555 1_555
H7 C25 0.930 1_555 1_555
C26 C18 1.411 1_555 1_555
H8 C26 0.930 1_555 1_555
C27 C25 1.382 1_555 1_555
H9 C27 0.930 1_555 1_555
C28 C12 1.430 1_555 1_555
H10 C28 0.930 1_555 1_555
C29 C10 1.408 1_555 1_555
H11 C29 0.930 1_555 1_555
C30 C17 1.417 1_555 1_555
C31 C8 1.383 1_555 1_555
H12 C31 0.930 1_555 1_555
C32 C22 1.368 1_555 1_555
H13 C32 0.930 1_555 1_555
C33 C21 1.383 1_555 1_555
H14 C33 0.930 1_555 1_555
C34 C16 1.387 1_555 1_555
H15 C34 0.930 1_555 1_555
C35 C33 1.378 1_555 1_555
C36 C20 1.366 1_555 1_555
H16 C36 0.930 1_555 1_555
C37 C31 1.382 1_555 1_555
H17 C37 0.930 1_555 1_555
C38 C30 1.412 1_555 1_555
H18 C38 0.930 1_555 1_555
C39 C16 1.386 1_555 1_555
H19 C39 0.930 1_555 1_555
C40 C15 1.425 1_555 1_555
H20 C40 0.930 1_555 1_555
C41 C23 1.366 1_555 1_555
H21 C41 0.930 1_555 1_555
C42 C24 1.365 1_555 1_555
H22 C42 0.930 1_555 1_555
C43 C38 1.358 1_555 1_555
H23 C43 0.930 1_555 1_555
C44 C18 1.404 1_555 1_555
H24 C44 0.930 1_555 1_555
C45 C30 1.415 1_555 1_555
H25 C45 0.930 1_555 1_555
C46 C34 1.382 1_555 1_555
H26 C46 0.930 1_555 1_555
C47 C42 1.407 1_555 1_555
H27 C47 0.930 1_555 1_555
C48 C46 1.378 1_555 1_555
C49 C39 1.381 1_555 1_555
H28 C49 0.930 1_555 1_555
C50 C1 1.443 1_555 1_555
C51 C35 1.518 1_555 1_555
H29 C51 0.959 1_555 1_555
H30 C51 0.960 1_555 1_555
H31 C51 0.960 1_555 1_555
C52 C48 1.519 1_555 1_555
H32 C52 0.960 1_555 1_555
H33 C52 0.960 1_555 1_555
H34 C52 0.960 1_555 1_555
C2 C50 1.406 1_555 1_555
C9 C50 1.467 1_555 1_555
C26 C28 1.344 1_555 1_555
C27 C29 1.363 1_555 1_555
C32 C36 1.386 1_555 1_555
C35 C37 1.375 1_555 1_555
C40 C45 1.344 1_555 1_555
C41 C43 1.401 1_555 1_555
C44 C47 1.353 1_555 1_555
C48 C49 1.374 1_555 1_555
#END
