
#######################################################################
#
#                 Cambridge Crystallographic Data Centre
#                                CCDC
#
#######################################################################
#
# If this CIF has been generated from an entry in the Cambridge
# Structural Database, then it will include bibliographic, chemical,
# crystal, experimental, refinement or atomic coordinate data resulting
# from the CCDC's data processing and validation procedures.
#
#######################################################################

data_CSD_CIF_LEWWES
_audit_creation_date 2018-05-10
_audit_creation_method CSD-ConQuest-V1
_database_code_CSD LEWWES
_database_code_depnum_ccdc_archive 'CCDC 1812282'
_chemical_formula_sum 'C52 H34'
_chemical_formula_moiety
;
C52 H34
;
_journal_coden_Cambridge 1220
_journal_volume 24
_journal_year 2018
_journal_page_first 6364
_journal_name_full 'Chem.-Eur.J. '
loop_
_publ_author_name
"R.Yamano"
"Yu Shibata"
"K.Tanaka"
_chemical_name_systematic
;
(+)-21,22-bis(4-methylphenyl)dibenzo[i,o]heptahelicene
;
_cell_volume   3375.568
_exptl_crystal_colour 'yellow'
_exptl_crystal_density_diffrn 1.296
_exptl_crystal_description 'plate'
_diffrn_ambient_temperature 193
#These two values have been output from a single CSD field.
_refine_ls_R_factor_gt 0.0512
_refine_ls_wR_factor_gt 0.0512
loop_
_citation_database_id_CSD
_citation_special_details
LEWWOC "is a racemate of this entry"
_symmetry_cell_setting orthorhombic
_symmetry_space_group_name_H-M 'P 21 21 2'
_symmetry_Int_Tables_number 18
loop_
_symmetry_equiv_pos_site_id
_symmetry_equiv_pos_as_xyz
1 x,y,z
2 -x,-y,z
3 1/2-x,1/2+y,-z
4 1/2+x,1/2-y,-z
_cell_length_a 7.7524(6)
_cell_length_b 16.1411(12)
_cell_length_c 26.976(2)
_cell_angle_alpha 90
_cell_angle_beta 90
_cell_angle_gamma 90
_cell_formula_units_Z 4
loop_
_atom_type_symbol
_atom_type_radius_bond
C 0.68
H 0.23
loop_
_atom_site_label
_atom_site_type_symbol
_atom_site_fract_x
_atom_site_fract_y
_atom_site_fract_z
C1 C 0.6659(3) 0.53995(14) 0.81922(8)
C2 C 0.8345(3) 0.58270(14) 0.82198(8)
C3 C 0.5757(3) 0.52326(14) 0.77388(8)
C4 C 0.9432(3) 0.59757(15) 0.78102(9)
H1 H 0.91193 0.57689 0.75012
C5 C 0.6362(3) 0.55634(15) 0.72493(8)
C6 C 0.6646(3) 0.45799(16) 0.95034(8)
C7 C 0.7153(3) 0.50686(16) 0.68950(8)
H2 H 0.72769 0.45040 0.69538
C8 C 0.8924(3) 0.61039(15) 0.86934(9)
C9 C 0.5882(3) 0.51305(14) 0.86381(8)
C10 C 1.0943(3) 0.64190(15) 0.78548(10)
H3 H 1.16456 0.64936 0.75789
C11 C 0.6727(4) 0.67308(16) 0.66983(9)
H4 H 0.65517 0.72899 0.66319
C12 C 0.6138(3) 0.64034(16) 0.71443(9)
H5 H 0.55926 0.67454 0.73732
C13 C 0.7574(4) 0.62434(17) 0.63486(9)
C14 C 0.6890(3) 0.51548(15) 0.90967(8)
C15 C 0.7764(4) 0.54031(16) 0.64539(8)
H6 H 0.83094 0.50605 0.62252
C16 C 0.8166(3) 0.57610(15) 0.91414(9)
C17 C 1.0429(4) 0.65960(16) 0.87193(10)
H7 H 1.07540 0.68186 0.90233
C18 C 0.5873(4) 0.37946(16) 0.94423(9)
H8 H 0.54624 0.36391 0.91320
C19 C 0.8791(4) 0.59637(17) 0.96273(9)
H9 H 0.95548 0.64032 0.96661
C20 C 1.1429(4) 0.67560(16) 0.83088(10)
H10 H 1.24113 0.70836 0.83343
C21 C 0.5719(4) 0.32550(19) 0.98357(10)
H11 H 0.52197 0.27372 0.97877
C22 C 0.7312(4) 0.47879(17) 0.99793(9)
C23 C 0.8286(4) 0.55255(19) 1.00304(9)
H12 H 0.85836 0.57116 1.03453
C24 C 0.7087(4) 0.4230(2) 1.03790(9)
H13 H 0.74752 0.43772 1.06931
C25 C 0.6313(4) 0.3483(2) 1.03104(10)
H14 H 0.61746 0.31227 1.05765
C26 C 0.8230(5) 0.6603(2) 0.58687(11)
H15 H 0.72981 0.66419 0.56356
H16 H 0.91161 0.62513 0.57363
H17 H 0.86952 0.71452 0.59286
C27 C 0.8545(3) 0.86232(15) 0.70760(9)
C28 C 0.8084(3) 0.89953(14) 0.66170(9)
C29 C 0.4567(3) 0.90367(14) 0.78576(8)
C30 C 0.7337(3) 0.86371(15) 0.74901(9)
C31 C 0.5725(4) 0.97453(14) 0.61218(8)
C32 C 0.6436(3) 0.94456(14) 0.65794(8)
C33 C 0.5837(3) 0.91181(14) 0.74666(8)
C34 C 0.5029(4) 0.86148(15) 0.83029(8)
C35 C 0.5577(3) 0.96493(14) 0.70260(8)
C36 C 0.2831(4) 0.92979(15) 0.78189(9)
H18 H 0.24516 0.95342 0.75240
C37 C 0.6628(4) 0.81914(16) 0.83270(9)
H19 H 0.69487 0.79260 0.86188
C38 C 0.7541(4) 0.87866(18) 0.47155(9)
C39 C 0.7698(4) 0.81691(16) 0.79283(9)
H20 H 0.86857 0.78427 0.79406
C40 C 0.6364(3) 0.94332(15) 0.56288(9)
C41 C 0.7166(4) 0.99349(17) 0.52814(8)
H21 H 0.73131 1.04952 0.53497
C42 C 1.0903(4) 0.86049(18) 0.62942(10)
H22 H 1.16968 0.86121 0.60359
C43 C 0.9334(4) 0.89849(16) 0.62354(9)
H23 H 0.90855 0.92435 0.59357
C44 C 0.3847(4) 0.85659(16) 0.87006(9)
H24 H 0.41868 0.83183 0.89961
C45 C 0.6133(4) 0.86042(16) 0.55098(9)
H25 H 0.55839 0.82555 0.57344
C46 C 1.1317(4) 0.82103(18) 0.67345(10)
H26 H 1.23653 0.79363 0.67689
C47 C 0.7753(4) 0.96202(18) 0.48349(9)
H27 H 0.82973 0.99711 0.46107
C48 C 0.1692(4) 0.92123(17) 0.82045(10)
H28 H 0.05530 0.93804 0.81641
C49 C 1.0157(4) 0.82293(17) 0.71200(9)
H29 H 1.04454 0.79748 0.74180
C50 C 0.2219(4) 0.88749(17) 0.86587(10)
H30 H 0.14685 0.88623 0.89275
C51 C 0.6710(4) 0.82861(18) 0.50591(9)
H31 H 0.65360 0.77288 0.49873
C52 C 0.8167(5) 0.8444(2) 0.42269(10)
H32 H 0.72439 0.84571 0.39899
H33 H 0.85455 0.78825 0.42720
H34 H 0.91108 0.87738 0.41080
C1A C 0.3341(3) 0.46005(14) 0.81922(8)
C2A C 0.1655(3) 0.41730(14) 0.82198(8)
C3A C 0.4243(3) 0.47674(14) 0.77388(8)
C4A C 0.0568(3) 0.40243(15) 0.78102(9)
H1A H 0.08807 0.42311 0.75012
C5A C 0.3638(3) 0.44366(15) 0.72493(8)
C6A C 0.3354(3) 0.54201(16) 0.95034(8)
C7A C 0.2847(3) 0.49314(16) 0.68950(8)
H2A H 0.27231 0.54960 0.69538
C8A C 0.1076(3) 0.38961(15) 0.86934(9)
C9A C 0.4118(3) 0.48695(14) 0.86381(8)
C10A C -0.0943(3) 0.35810(15) 0.78548(10)
H3A H -0.16456 0.35064 0.75789
C11A C 0.3273(4) 0.32692(16) 0.66983(9)
H4A H 0.34483 0.27101 0.66319
C12A C 0.3862(3) 0.35966(16) 0.71443(9)
H5A H 0.44074 0.32546 0.73732
C13A C 0.2426(4) 0.37566(17) 0.63486(9)
C14A C 0.3110(3) 0.48452(15) 0.90967(8)
C15A C 0.2236(4) 0.45969(16) 0.64539(8)
H6A H 0.16906 0.49395 0.62252
C16A C 0.1834(3) 0.42390(15) 0.91414(9)
C17A C -0.0429(4) 0.34040(16) 0.87193(10)
H7A H -0.07540 0.31814 0.90233
C18A C 0.4127(4) 0.62054(16) 0.94423(9)
H8A H 0.45376 0.63609 0.91320
C19A C 0.1209(4) 0.40363(17) 0.96273(9)
H9A H 0.04452 0.35968 0.96661
C20A C -0.1429(4) 0.32440(16) 0.83088(10)
H10A H -0.24113 0.29164 0.83343
C21A C 0.4281(4) 0.67450(19) 0.98357(10)
H11A H 0.47803 0.72628 0.97877
C22A C 0.2688(4) 0.52121(17) 0.99793(9)
C23A C 0.1714(4) 0.44745(19) 1.00304(9)
H12A H 0.14164 0.42884 1.03453
C24A C 0.2913(4) 0.5770(2) 1.03790(9)
H13A H 0.25248 0.56228 1.06931
C25A C 0.3687(4) 0.6517(2) 1.03104(10)
H14A H 0.38254 0.68773 1.05765
C26A C 0.1770(5) 0.3397(2) 0.58687(11)
H15A H 0.27019 0.33581 0.56356
H16A H 0.08839 0.37487 0.57363
H17A H 0.13048 0.28548 0.59286
C27A C 0.1455(3) 1.13768(15) 0.70760(9)
C28A C 0.1916(3) 1.10047(14) 0.66170(9)
C29A C 0.5433(3) 1.09633(14) 0.78576(8)
C30A C 0.2663(3) 1.13629(15) 0.74901(9)
C31A C 0.4275(4) 1.02547(14) 0.61218(8)
C32A C 0.3564(3) 1.05544(14) 0.65794(8)
C33A C 0.4163(3) 1.08819(14) 0.74666(8)
C34A C 0.4971(4) 1.13852(15) 0.83029(8)
C35A C 0.4423(3) 1.03507(14) 0.70260(8)
C36A C 0.7169(4) 1.07021(15) 0.78189(9)
H18A H 0.75484 1.04658 0.75240
C37A C 0.3372(4) 1.18086(16) 0.83270(9)
H19A H 0.30513 1.20740 0.86188
C38A C 0.2459(4) 1.12134(18) 0.47155(9)
C39A C 0.2302(4) 1.18309(16) 0.79283(9)
H20A H 0.13143 1.21573 0.79406
C40A C 0.3636(3) 1.05668(15) 0.56288(9)
C41A C 0.2834(4) 1.00651(17) 0.52814(8)
H21A H 0.26869 0.95048 0.53497
C42A C -0.0903(4) 1.13951(18) 0.62942(10)
H22A H -0.16968 1.13879 0.60359
C43A C 0.0666(4) 1.10151(16) 0.62354(9)
H23A H 0.09145 1.07565 0.59357
C44A C 0.6153(4) 1.14341(16) 0.87006(9)
H24A H 0.58132 1.16817 0.89961
C45A C 0.3867(4) 1.13958(16) 0.55098(9)
H25A H 0.44161 1.17445 0.57344
C46A C -0.1317(4) 1.17897(18) 0.67345(10)
H26A H -0.23653 1.20637 0.67689
C47A C 0.2247(4) 1.03798(18) 0.48349(9)
H27A H 0.17027 1.00289 0.46107
C48A C 0.8308(4) 1.07877(17) 0.82045(10)
H28A H 0.94470 1.06196 0.81641
C49A C -0.0157(4) 1.17707(17) 0.71200(9)
H29A H -0.04454 1.20252 0.74180
C50A C 0.7781(4) 1.11251(17) 0.86587(10)
H30A H 0.85315 1.11377 0.89275
C51A C 0.3290(4) 1.17139(18) 0.50591(9)
H31A H 0.34640 1.22712 0.49873
C52A C 0.1833(5) 1.1556(2) 0.42269(10)
H32A H 0.27561 1.15429 0.39899
H33A H 0.14545 1.21175 0.42720
H34A H 0.08892 1.12262 0.41080
loop_
_geom_bond_atom_site_label_1
_geom_bond_atom_site_label_2
_geom_bond_distance
_geom_bond_site_symmetry_1
_geom_bond_site_symmetry_2
C1 C2 1.480 1_555 1_555
C2 C4 1.410 1_555 1_555
C3 C1 1.434 1_555 1_555
C4 H1 0.930 1_555 1_555
C5 C3 1.500 1_555 1_555
C6 C14 1.449 1_555 1_555
C7 C5 1.388 1_555 1_555
H2 C7 0.930 1_555 1_555
C8 C2 1.426 1_555 1_555
C9 C1 1.414 1_555 1_555
C10 C4 1.378 1_555 1_555
H3 C10 0.930 1_555 1_555
C11 H4 0.930 1_555 1_555
C12 C5 1.396 1_555 1_555
H5 C12 0.930 1_555 1_555
C13 C11 1.393 1_555 1_555
C14 C9 1.464 1_555 1_555
C15 C7 1.390 1_555 1_555
H6 C15 0.930 1_555 1_555
C16 C8 1.453 1_555 1_555
C17 C8 1.413 1_555 1_555
H7 C17 0.930 1_555 1_555
C18 C6 1.412 1_555 1_555
H8 C18 0.930 1_555 1_555
C19 C16 1.435 1_555 1_555
H9 C19 0.930 1_555 1_555
C20 C10 1.392 1_555 1_555
H10 C20 0.930 1_555 1_555
C21 C18 1.378 1_555 1_555
H11 C21 0.930 1_555 1_555
C22 C6 1.424 1_555 1_555
C23 C19 1.355 1_555 1_555
H12 C23 0.930 1_555 1_555
C24 C22 1.416 1_555 1_555
H13 C24 0.930 1_555 1_555
C25 C21 1.410 1_555 1_555
H14 C25 0.930 1_555 1_555
C26 C13 1.507 1_555 1_555
H15 C26 0.960 1_555 1_555
H16 C26 0.960 1_555 1_555
H17 C26 0.960 1_555 1_555
C27 C28 1.422 1_555 1_555
C28 C32 1.473 1_555 1_555
C29 C33 1.449 1_555 1_555
C30 C27 1.458 1_555 1_555
C31 C32 1.436 1_555 1_555
C32 C35 1.415 1_555 1_555
C33 C30 1.400 1_555 1_555
C34 C29 1.427 1_555 1_555
C35 C33 1.479 1_555 1_555
C36 C29 1.414 1_555 1_555
H18 C36 0.930 1_555 1_555
C37 C34 1.417 1_555 1_555
H19 C37 0.930 1_555 1_555
C38 C47 1.393 1_555 1_555
C39 C30 1.430 1_555 1_555
H20 C39 0.930 1_555 1_555
C40 C31 1.506 1_555 1_555
C41 C40 1.386 1_555 1_555
H21 C41 0.930 1_555 1_555
C42 H22 0.930 1_555 1_555
C43 C28 1.414 1_555 1_555
H23 C43 0.930 1_555 1_555
C44 C34 1.413 1_555 1_555
H24 C44 0.930 1_555 1_555
C45 C40 1.388 1_555 1_555
H25 C45 0.930 1_555 1_555
C46 C42 1.385 1_555 1_555
H26 C46 0.930 1_555 1_555
C47 C41 1.384 1_555 1_555
H27 C47 0.930 1_555 1_555
C48 C36 1.371 1_555 1_555
H28 C48 0.930 1_555 1_555
C49 C27 1.407 1_555 1_555
H29 C49 0.930 1_555 1_555
C50 C44 1.362 1_555 1_555
H30 C50 0.930 1_555 1_555
C51 C38 1.388 1_555 1_555
H31 C51 0.930 1_555 1_555
C52 C38 1.509 1_555 1_555
H32 C52 0.960 1_555 1_555
H33 C52 0.960 1_555 1_555
H34 C52 0.960 1_555 1_555
C1A C2A 1.480 1_555 1_555
C2A C4A 1.410 1_555 1_555
C3A C3 1.393 1_555 1_555
C4A H1A 0.930 1_555 1_555
C5A C3A 1.500 1_555 1_555
C6A C14A 1.449 1_555 1_555
C7A C5A 1.388 1_555 1_555
H2A C7A 0.930 1_555 1_555
C8A C2A 1.426 1_555 1_555
C9A C9 1.431 1_555 1_555
C10A C4A 1.378 1_555 1_555
H3A C10A 0.930 1_555 1_555
C11A H4A 0.930 1_555 1_555
C12A C5A 1.396 1_555 1_555
H5A C12A 0.930 1_555 1_555
C13A C11A 1.393 1_555 1_555
C14A C9A 1.464 1_555 1_555
C15A C7A 1.390 1_555 1_555
H6A C15A 0.930 1_555 1_555
C16A C8A 1.453 1_555 1_555
C17A C8A 1.413 1_555 1_555
H7A C17A 0.930 1_555 1_555
C18A C6A 1.412 1_555 1_555
H8A C18A 0.930 1_555 1_555
C19A C16A 1.435 1_555 1_555
H9A C19A 0.930 1_555 1_555
C20A C10A 1.392 1_555 1_555
H10A C20A 0.930 1_555 1_555
C21A C18A 1.378 1_555 1_555
H11A C21A 0.930 1_555 1_555
C22A C6A 1.424 1_555 1_555
C23A C19A 1.355 1_555 1_555
H12A C23A 0.930 1_555 1_555
C24A C22A 1.416 1_555 1_555
H13A C24A 0.930 1_555 1_555
C25A C21A 1.410 1_555 1_555
H14A C25A 0.930 1_555 1_555
C26A C13A 1.507 1_555 1_555
H15A C26A 0.960 1_555 1_555
H16A C26A 0.960 1_555 1_555
H17A C26A 0.960 1_555 1_555
C27A C28A 1.422 1_555 1_555
C28A C32A 1.473 1_555 1_555
C29A C33A 1.449 1_555 1_555
C30A C27A 1.458 1_555 1_555
C31A C31 1.393 1_555 1_555
C32A C31A 1.436 1_555 1_555
C33A C30A 1.400 1_555 1_555
C34A C29A 1.427 1_555 1_555
C35A C35 1.443 1_555 1_555
C36A C29A 1.414 1_555 1_555
H18A C36A 0.930 1_555 1_555
C37A C34A 1.417 1_555 1_555
H19A C37A 0.930 1_555 1_555
C38A C47A 1.393 1_555 1_555
C39A C30A 1.430 1_555 1_555
H20A C39A 0.930 1_555 1_555
C40A C31A 1.506 1_555 1_555
C41A C40A 1.386 1_555 1_555
H21A C41A 0.930 1_555 1_555
C42A H22A 0.930 1_555 1_555
C43A C28A 1.414 1_555 1_555
H23A C43A 0.930 1_555 1_555
C44A C34A 1.413 1_555 1_555
H24A C44A 0.930 1_555 1_555
C45A C40A 1.388 1_555 1_555
H25A C45A 0.930 1_555 1_555
C46A C42A 1.385 1_555 1_555
H26A C46A 0.930 1_555 1_555
C47A C41A 1.384 1_555 1_555
H27A C47A 0.930 1_555 1_555
C48A C36A 1.371 1_555 1_555
H28A C48A 0.930 1_555 1_555
C49A C27A 1.407 1_555 1_555
H29A C49A 0.930 1_555 1_555
C50A C44A 1.362 1_555 1_555
H30A C50A 0.930 1_555 1_555
C51A C38A 1.388 1_555 1_555
H31A C51A 0.930 1_555 1_555
C52A C38A 1.509 1_555 1_555
H32A C52A 0.960 1_555 1_555
H33A C52A 0.960 1_555 1_555
H34A C52A 0.960 1_555 1_555
C11 C12 1.391 1_555 1_555
C13 C15 1.394 1_555 1_555
C14 C16 1.397 1_555 1_555
C17 C20 1.376 1_555 1_555
C22 C23 1.417 1_555 1_555
C24 C25 1.359 1_555 1_555
C37 C39 1.359 1_555 1_555
C42 C43 1.371 1_555 1_555
C45 C51 1.394 1_555 1_555
C46 C49 1.375 1_555 1_555
C48 C50 1.402 1_555 1_555
C1A C3A 1.434 1_555 1_555
C1A C9A 1.414 1_555 1_555
C11A C12A 1.391 1_555 1_555
C13A C15A 1.394 1_555 1_555
C14A C16A 1.397 1_555 1_555
C17A C20A 1.376 1_555 1_555
C22A C23A 1.417 1_555 1_555
C24A C25A 1.359 1_555 1_555
C32A C35A 1.415 1_555 1_555
C33A C35A 1.479 1_555 1_555
C37A C39A 1.359 1_555 1_555
C42A C43A 1.371 1_555 1_555
C45A C51A 1.394 1_555 1_555
C46A C49A 1.375 1_555 1_555
C48A C50A 1.402 1_555 1_555
#END
