
#######################################################################
#
#                 Cambridge Crystallographic Data Centre
#                                CCDC
#
#######################################################################
#
# If this CIF has been generated from an entry in the Cambridge
# Structural Database, then it will include bibliographic, chemical,
# crystal, experimental, refinement or atomic coordinate data resulting
# from the CCDC's data processing and validation procedures.
#
#######################################################################

data_CSD_CIF_LEYVIX
_audit_creation_date 2018-05-11
_audit_creation_method CSD-ConQuest-V1
_database_code_CSD LEYVIX
_database_code_depnum_ccdc_archive 'CCDC 1842838'
_chemical_formula_sum 'C34 H20'
_chemical_formula_moiety
;
C34 H20
;
_journal_coden_Cambridge 1078
_journal_year 2018
_journal_name_full 'CSD Communication(Private Communication) '
loop_
_publ_author_name
"J.G.Malecki"
_chemical_name_systematic
;
1,2-diphenylbenzo[ghi]perylene
;
_cell_volume   2221.447
_exptl_crystal_colour 'colorless'
_exptl_crystal_density_diffrn 1.281
_exptl_special_details
;
Institute of Chemistry, University of Silesia, Katowice, Silesia, Poland

;
_exptl_crystal_description 'brick'
_diffrn_ambient_temperature 295
#These two values have been output from a single CSD field.
_refine_ls_R_factor_gt 0.0699
_refine_ls_wR_factor_gt 0.0699
_symmetry_cell_setting monoclinic
_symmetry_space_group_name_H-M 'P 21/c'
_symmetry_Int_Tables_number 14
loop_
_symmetry_equiv_pos_site_id
_symmetry_equiv_pos_as_xyz
1 x,y,z
2 -x,1/2+y,1/2-z
3 -x,-y,-z
4 x,-1/2-y,-1/2+z
_cell_length_a 9.1759(10)
_cell_length_b 11.7699(10)
_cell_length_c 20.982(3)
_cell_angle_alpha 90
_cell_angle_beta 101.386(12)
_cell_angle_gamma 90
_cell_formula_units_Z 4
loop_
_atom_type_symbol
_atom_type_radius_bond
C 0.68
H 0.23
loop_
_atom_site_label
_atom_site_type_symbol
_atom_site_fract_x
_atom_site_fract_y
_atom_site_fract_z
C1 C 0.5464(4) -0.1062(2) 0.40584(17)
C2 C 0.6462(4) -0.0163(3) 0.39921(17)
C3 C 0.8022(4) -0.0267(3) 0.42499(18)
H1 H 0.83960 -0.09260 0.44660
C4 C 0.8955(4) 0.0599(4) 0.41783(19)
H2 H 0.99670 0.05180 0.43450
C5 C 0.8430(5) 0.1625(3) 0.3857(2)
C6 C 0.9427(5) 0.2513(4) 0.3792(2)
H3 H 1.04340 0.24480 0.39720
C7 C 0.8881(6) 0.3467(4) 0.3461(3)
H4 H 0.95360 0.40480 0.34100
C8 C 0.7388(6) 0.3599(3) 0.3198(2)
H5 H 0.70630 0.42650 0.29760
C9 C 0.6354(5) 0.2755(3) 0.32601(19)
C10 C 0.4774(5) 0.2871(3) 0.29913(18)
C11 C 0.4148(6) 0.3867(3) 0.2676(2)
H6 H 0.47530 0.44880 0.26410
C12 C 0.2647(6) 0.3924(4) 0.2422(2)
H7 H 0.22560 0.45870 0.22140
C13 C 0.1730(5) 0.3047(3) 0.2464(2)
H8 H 0.07230 0.31090 0.22830
C14 C 0.2279(4) 0.2038(3) 0.27802(18)
C15 C 0.1347(4) 0.1120(3) 0.2850(2)
H9 H 0.03400 0.11670 0.26670
C16 C 0.1873(4) 0.0174(3) 0.31757(18)
H10 H 0.12200 -0.04130 0.32170
C17 C 0.3415(4) 0.0051(3) 0.34596(17)
C18 C 0.3971(4) -0.0950(2) 0.38009(17)
C19 C 0.5910(4) 0.0834(3) 0.36620(17)
C20 C 0.6901(4) 0.1745(3) 0.35900(18)
C21 C 0.3809(4) 0.1957(3) 0.30519(17)
C22 C 0.4376(4) 0.0942(3) 0.33879(17)
C23 C 0.6026(3) -0.2128(3) 0.44090(19)
C24 C 0.6586(4) -0.2993(3) 0.4090(2)
H11 H 0.67020 -0.28920 0.36630
C25 C 0.6973(5) -0.4009(3) 0.4400(3)
H12 H 0.73440 -0.45930 0.41800
C26 C 0.6821(5) -0.4169(4) 0.5023(3)
H13 H 0.70730 -0.48640 0.52260
C27 C 0.6305(5) -0.3319(4) 0.5347(2)
H14 H 0.62190 -0.34180 0.57780
C28 C 0.5906(5) -0.2302(4) 0.5037(2)
H15 H 0.55450 -0.17200 0.52620
C29 C 0.2912(3) -0.1883(3) 0.38746(18)
C30 C 0.2776(4) -0.2837(3) 0.34856(18)
H16 H 0.33410 -0.29000 0.31650
C31 C 0.1815(4) -0.3693(3) 0.3568(2)
H17 H 0.17530 -0.43400 0.33100
C32 C 0.0951(4) -0.3605(3) 0.4023(2)
H18 H 0.02850 -0.41810 0.40680
C33 C 0.1066(4) -0.2670(3) 0.4413(2)
H19 H 0.04880 -0.26070 0.47290
C34 C 0.2043(4) -0.1822(3) 0.4335(2)
H20 H 0.21170 -0.11860 0.46030
loop_
_geom_bond_atom_site_label_1
_geom_bond_atom_site_label_2
_geom_bond_distance
_geom_bond_site_symmetry_1
_geom_bond_site_symmetry_2
C1 C2 1.424 1_555 1_555
C2 C3 1.432 1_555 1_555
C3 H1 0.929 1_555 1_555
C4 C3 1.358 1_555 1_555
H2 C4 0.930 1_555 1_555
C5 C4 1.420 1_555 1_555
C6 C5 1.413 1_555 1_555
H3 C6 0.930 1_555 1_555
C7 C6 1.363 1_555 1_555
H4 C7 0.930 1_555 1_555
C8 C7 1.381 1_555 1_555
H5 C8 0.930 1_555 1_555
C9 C8 1.397 1_555 1_555
C10 C9 1.455 1_555 1_555
C11 C10 1.411 1_555 1_555
H6 C11 0.929 1_555 1_555
C12 C11 1.377 1_555 1_555
H7 C12 0.931 1_555 1_555
C13 C12 1.346 1_555 1_555
H8 C13 0.930 1_555 1_555
C14 C13 1.404 1_555 1_555
C15 C14 1.403 1_555 1_555
H9 C15 0.930 1_555 1_555
C16 C15 1.345 1_555 1_555
H10 C16 0.930 1_555 1_555
C17 C16 1.430 1_555 1_555
C18 C1 1.376 1_555 1_555
C19 C2 1.405 1_555 1_555
C20 C5 1.411 1_555 1_555
C21 C10 1.415 1_555 1_555
C22 C17 1.397 1_555 1_555
C23 C1 1.494 1_555 1_555
C24 C23 1.373 1_555 1_555
H11 C24 0.930 1_555 1_555
C25 C24 1.374 1_555 1_555
H12 C25 0.929 1_555 1_555
C26 C25 1.355 1_555 1_555
H13 C26 0.930 1_555 1_555
C27 C26 1.347 1_555 1_555
H14 C27 0.930 1_555 1_555
C28 C23 1.359 1_555 1_555
H15 C28 0.929 1_555 1_555
C29 C18 1.494 1_555 1_555
C30 C29 1.379 1_555 1_555
H16 C30 0.930 1_555 1_555
C31 C30 1.372 1_555 1_555
H17 C31 0.930 1_555 1_555
C32 C31 1.360 1_555 1_555
H18 C32 0.930 1_555 1_555
C33 C32 1.363 1_555 1_555
H19 C33 0.930 1_555 1_555
C34 C29 1.371 1_555 1_555
H20 C34 0.931 1_555 1_555
C9 C20 1.417 1_555 1_555
C14 C21 1.410 1_555 1_555
C17 C18 1.420 1_555 1_555
C19 C20 1.433 1_555 1_555
C19 C22 1.417 1_555 1_555
C21 C22 1.432 1_555 1_555
C27 C28 1.377 1_555 1_555
C33 C34 1.373 1_555 1_555
#END
