
#######################################################################
#
#                 Cambridge Crystallographic Data Centre
#                                CCDC
#
#######################################################################
#
# If this CIF has been generated from an entry in the Cambridge
# Structural Database, then it will include bibliographic, chemical,
# crystal, experimental, refinement or atomic coordinate data resulting
# from the CCDC's data processing and validation procedures.
#
#######################################################################

data_CSD_CIF_LEZGEC
_audit_creation_date 1995-01-30
_audit_creation_method CSD-ConQuest-V1
_database_code_CSD LEZGEC
_chemical_formula_sum 'C34 H24'
_chemical_formula_moiety
;
C34 H24
;
_journal_coeditor_code "IUCr BK1003"
_journal_coden_Cambridge 591
_journal_volume 50
_journal_year 1994
_journal_page_first 1602
_journal_name_full 'Acta Crystallogr.,Sect.C:Cryst.Struct.Commun. '
loop_
_publ_author_name
"W.H.Ojala"
"H.L.Gustafson"
"C.R.Ojala"
_chemical_name_systematic
;
1,2,3,4-Tetraphenylnaphthalene
;
_chemical_melting_point 481
_cell_volume   7246.902
_exptl_crystal_colour 'colorless'
_exptl_crystal_density_diffrn 1.189
_diffrn_ambient_temperature ?
_diffrn_special_details
;
The study was carried out at room temperature,in the range 283-303K

;
#These two values have been output from a single CSD field.
_refine_ls_R_factor_gt 0.043
_refine_ls_wR_factor_gt 0.043
_symmetry_cell_setting monoclinic
_symmetry_space_group_name_H-M 'C 2/c'
_symmetry_Int_Tables_number 15
loop_
_symmetry_equiv_pos_site_id
_symmetry_equiv_pos_as_xyz
1 x,y,z
2 1/2+x,1/2+y,z
3 -x,y,1/2-z
4 1/2-x,1/2+y,1/2-z
5 -x,-y,-z
6 -1/2-x,-1/2-y,-z
7 x,-y,-1/2+z
8 -1/2+x,-1/2-y,-1/2+z
_cell_length_a 33.057(7)
_cell_length_b 11.842(3)
_cell_length_c 19.777(4)
_cell_angle_alpha 90
_cell_angle_beta 110.60(2)
_cell_angle_gamma 90
_cell_formula_units_Z 12
loop_
_atom_type_symbol
_atom_type_radius_bond
C 0.68
H 0.23
loop_
_atom_site_label
_atom_site_type_symbol
_atom_site_fract_x
_atom_site_fract_y
_atom_site_fract_z
C1 C 0.30990(5) 0.1455(1) 0.35638(9)
C2 C 0.26631(5) 0.1596(1) 0.31761(8)
C3 C 0.23478(5) 0.1326(1) 0.34967(8)
C4 C 0.24748(5) 0.0910(1) 0.41960(9)
C5 C 0.29238(6) 0.0797(1) 0.46124(9)
C6 C 0.30684(6) 0.0369(2) 0.5330(1)
C7 C 0.34991(7) 0.0271(2) 0.5720(1)
C8 C 0.38067(7) 0.0597(2) 0.5421(1)
C9 C 0.36821(6) 0.0994(2) 0.4727(1)
C10 C 0.32380(5) 0.1088(1) 0.42995(9)
C11 C 0.34215(5) 0.1635(2) 0.32019(9)
C12 C 0.36494(6) 0.0713(2) 0.3072(1)
C13 C 0.39220(6) 0.0855(2) 0.2679(1)
C14 C 0.39721(6) 0.1906(2) 0.2416(1)
C15 C 0.37548(6) 0.2829(2) 0.2554(1)
C16 C 0.34815(6) 0.2688(2) 0.2947(1)
C17 C 0.25118(5) 0.2007(1) 0.24133(9)
C18 C 0.25633(6) 0.1370(2) 0.1859(1)
C19 C 0.24100(7) 0.1756(2) 0.1152(1)
C20 C 0.22081(7) 0.2802(2) 0.0994(1)
C21 C 0.21598(7) 0.3442(2) 0.1541(1)
C22 C 0.23098(6) 0.3056(1) 0.2246(1)
C23 C 0.18788(5) 0.1469(1) 0.30647(9)
C24 C 0.16812(6) 0.0825(2) 0.2445(1)
C25 C 0.12433(7) 0.0948(2) 0.2055(1)
C26 C 0.09992(6) 0.1717(2) 0.2266(1)
C27 C 0.11933(6) 0.2380(2) 0.2873(1)
C28 C 0.16300(6) 0.2251(2) 0.3270(1)
C29 C 0.21428(6) 0.0520(1) 0.44989(9)
C30 C 0.19133(6) -0.0468(2) 0.4231(1)
C31 C 0.15978(7) -0.0834(2) 0.4492(1)
C32 C 0.15075(7) -0.0230(2) 0.5022(1)
C33 C 0.17348(8) 0.0740(2) 0.5291(1)
C34 C 0.20538(7) 0.1114(2) 0.5035(1)
H1 H 0.28630 0.01490 0.55410
H2 H 0.35910 -0.00210 0.61980
H3 H 0.41050 0.05420 0.57020
H4 H 0.38950 0.12080 0.45310
H5 H 0.36180 -0.00120 0.32530
H6 H 0.40750 0.02240 0.25910
H7 H 0.41550 0.19960 0.21420
H8 H 0.37920 0.35550 0.23810
H9 H 0.33340 0.33240 0.30410
H10 H 0.27060 0.06600 0.19660
H11 H 0.24430 0.13060 0.07770
H12 H 0.21040 0.30740 0.05110
H13 H 0.20220 0.41570 0.14330
H14 H 0.22750 0.35090 0.26190
H15 H 0.18470 0.03010 0.22880
H16 H 0.11110 0.04970 0.16380
H17 H 0.06990 0.17940 0.19990
H18 H 0.10280 0.29240 0.30160
H19 H 0.17610 0.27020 0.36870
H20 H 0.19740 -0.08920 0.38690
H21 H 0.14410 -0.15070 0.43050
H22 H 0.12910 -0.04860 0.51990
H23 H 0.16730 0.11600 0.56520
H24 H 0.22120 0.17800 0.52310
C35 C 0.49057(5) 0.1953(1) 0.17458(8)
C36 C 0.49498(5) 0.2962(1) 0.21145(7)
C37 C 0.49576(6) -0.1160(1) 0.21236(9)
C38 C 0.49170(5) -0.0154(1) 0.17632(9)
C39 C 0.49561(5) 0.0900(1) 0.21191(7)
C40 C 0.48758(5) 0.4051(1) 0.17101(8)
C41 C 0.51384(6) 0.4368(2) 0.13190(9)
C42 C 0.50488(7) 0.5353(2) 0.0911(1)
C43 C 0.47007(8) 0.6017(2) 0.0881(1)
C44 C 0.44436(7) 0.5721(2) 0.1275(1)
C45 C 0.45337(6) 0.4747(2) 0.1692(1)
C46 C 0.47884(6) 0.1913(1) 0.09412(8)
C47 C 0.50968(6) 0.1616(2) 0.0641(1)
C48 C 0.49798(8) 0.1509(2) -0.0103(1)
C49 C 0.45634(8) 0.1692(2) -0.0548(1)
C50 C 0.42564(8) 0.2006(2) -0.0257(1)
C51 C 0.43668(6) 0.2111(2) 0.0487(1)
H25 H 0.49290 -0.18540 0.18680
H26 H 0.48610 -0.01630 0.12580
H27 H 0.53770 0.39110 0.13330
H28 H 0.52290 0.55700 0.06500
H29 H 0.46370 0.66780 0.05900
H30 H 0.42060 0.61840 0.12610
H31 H 0.43590 0.45530 0.19670
H32 H 0.53880 0.14880 0.09450
H33 H 0.51920 0.13050 -0.03050
H34 H 0.44850 0.16050 -0.10550
H35 H 0.39680 0.21500 -0.05670
H36 H 0.41540 0.23200 0.06840
C36B C 0.50502(5) 0.2962(1) 0.28855(7)
C39B C 0.50439(5) 0.0900(1) 0.28809(7)
C37B C 0.50424(6) -0.1160(1) 0.28764(9)
C35B C 0.50943(5) 0.1953(1) 0.32542(8)
C40B C 0.51242(5) 0.4051(1) 0.32899(8)
C38B C 0.50830(5) -0.0154(1) 0.32368(9)
H25B H 0.50710 -0.18540 0.31320
C46B C 0.52116(6) 0.1913(1) 0.40588(8)
C41B C 0.48616(6) 0.4368(2) 0.36810(9)
C45B C 0.54663(6) 0.4747(2) 0.3308(1)
H26B H 0.51390 -0.01630 0.37420
C47B C 0.49032(6) 0.1616(2) 0.4359(1)
C51B C 0.56332(6) 0.2111(2) 0.4513(1)
C42B C 0.49512(7) 0.5353(2) 0.4089(1)
H27B H 0.46230 0.39110 0.36670
C44B C 0.55564(7) 0.5721(2) 0.3725(1)
H31B H 0.56410 0.45530 0.30330
C48B C 0.50202(8) 0.1509(2) 0.5103(1)
H32B H 0.46120 0.14880 0.40550
C50B C 0.57436(8) 0.2006(2) 0.5257(1)
H36B H 0.58460 0.23200 0.43160
C43B C 0.52993(8) 0.6017(2) 0.4119(1)
H28B H 0.47710 0.55700 0.43500
H30B H 0.57940 0.61840 0.37390
C49B C 0.54366(8) 0.1692(2) 0.5548(1)
H33B H 0.48080 0.13050 0.53050
H35B H 0.60320 0.21500 0.55670
H29B H 0.53630 0.66780 0.44100
H34B H 0.55150 0.16050 0.60550
loop_
_geom_bond_atom_site_label_1
_geom_bond_atom_site_label_2
_geom_bond_distance
_geom_bond_site_symmetry_1
_geom_bond_site_symmetry_2
C1 C2 1.384 1_555 1_555
C2 C3 1.434 1_555 1_555
C3 C4 1.387 1_555 1_555
C4 C5 1.428 1_555 1_555
C5 C6 1.422 1_555 1_555
C6 C7 1.365 1_555 1_555
C7 C8 1.398 1_555 1_555
C8 C9 1.370 1_555 1_555
C9 C10 1.417 1_555 1_555
C10 C1 1.431 1_555 1_555
C11 C1 1.494 1_555 1_555
C12 C11 1.401 1_555 1_555
C13 C12 1.392 1_555 1_555
C14 C13 1.381 1_555 1_555
C15 C14 1.387 1_555 1_555
C16 C11 1.385 1_555 1_555
C17 C2 1.494 1_555 1_555
C18 C17 1.390 1_555 1_555
C19 C18 1.386 1_555 1_555
C20 C19 1.389 1_555 1_555
C21 C20 1.375 1_555 1_555
C22 C17 1.394 1_555 1_555
C23 C3 1.493 1_555 1_555
C24 C23 1.395 1_555 1_555
C25 C24 1.388 1_555 1_555
C26 C25 1.375 1_555 1_555
C27 C26 1.388 1_555 1_555
C28 C23 1.391 1_555 1_555
C29 C4 1.496 1_555 1_555
C30 C29 1.394 1_555 1_555
C31 C30 1.386 1_555 1_555
C32 C31 1.385 1_555 1_555
C33 C32 1.373 1_555 1_555
C34 C29 1.387 1_555 1_555
H1 C6 0.950 1_555 1_555
H2 C7 0.950 1_555 1_555
H3 C8 0.949 1_555 1_555
H4 C9 0.950 1_555 1_555
H5 C12 0.950 1_555 1_555
H6 C13 0.952 1_555 1_555
H7 C14 0.949 1_555 1_555
H8 C15 0.949 1_555 1_555
H9 C16 0.950 1_555 1_555
H10 C18 0.951 1_555 1_555
H11 C19 0.950 1_555 1_555
H12 C20 0.950 1_555 1_555
H13 C21 0.950 1_555 1_555
H14 C22 0.951 1_555 1_555
H15 C24 0.950 1_555 1_555
H16 C25 0.950 1_555 1_555
H17 C26 0.950 1_555 1_555
H18 C27 0.950 1_555 1_555
H19 C28 0.950 1_555 1_555
H20 C30 0.952 1_555 1_555
H21 C31 0.952 1_555 1_555
H22 C32 0.950 1_555 1_555
H23 C33 0.949 1_555 1_555
H24 C34 0.950 1_555 1_555
C35 C36 1.381 1_555 1_555
C36 C40 1.492 1_555 1_555
C37 C38 1.370 1_555 1_555
C38 C39 1.416 1_555 1_555
C39 C35 1.429 1_555 1_555
C40 C41 1.402 1_555 1_555
C41 C42 1.390 1_555 1_555
C42 C43 1.378 1_555 1_555
C43 C44 1.385 1_555 1_555
C44 C45 1.388 1_555 1_555
C45 C40 1.390 1_555 1_555
C46 C35 1.500 1_555 1_555
C47 C46 1.393 1_555 1_555
C48 C47 1.389 1_555 1_555
C49 C48 1.365 1_555 1_555
C50 C49 1.382 1_555 1_555
C51 C46 1.387 1_555 1_555
H25 C37 0.952 1_555 1_555
H26 C38 0.950 1_555 1_555
H27 C41 0.949 1_555 1_555
H28 C42 0.951 1_555 1_555
H29 C43 0.950 1_555 1_555
H30 C44 0.950 1_555 1_555
H31 C45 0.950 1_555 1_555
H32 C47 0.951 1_555 1_555
H33 C48 0.952 1_555 1_555
H34 C49 0.949 1_555 1_555
H35 C50 0.950 1_555 1_555
H36 C51 0.949 1_555 1_555
C36B C36 1.442 1_555 1_555
C39B C39 1.431 1_555 1_555
C37B C37 1.415 1_555 1_555
C35B C36B 1.381 1_555 1_555
C40B C36B 1.492 1_555 1_555
C38B C39B 1.416 1_555 1_555
H25B C37B 0.952 1_555 1_555
C46B C35B 1.500 1_555 1_555
C41B C40B 1.402 1_555 1_555
C45B C40B 1.390 1_555 1_555
H26B C38B 0.950 1_555 1_555
C47B C46B 1.393 1_555 1_555
C51B C46B 1.387 1_555 1_555
C42B C41B 1.390 1_555 1_555
H27B C41B 0.949 1_555 1_555
C44B C45B 1.388 1_555 1_555
H31B C45B 0.950 1_555 1_555
C48B C47B 1.389 1_555 1_555
H32B C47B 0.951 1_555 1_555
C50B C51B 1.391 1_555 1_555
H36B C51B 0.949 1_555 1_555
C43B C42B 1.378 1_555 1_555
H28B C42B 0.951 1_555 1_555
H30B C44B 0.950 1_555 1_555
C49B C48B 1.365 1_555 1_555
H33B C48B 0.952 1_555 1_555
H35B C50B 0.950 1_555 1_555
H29B C43B 0.950 1_555 1_555
H34B C49B 0.949 1_555 1_555
C5 C10 1.426 1_555 1_555
C15 C16 1.394 1_555 1_555
C21 C22 1.383 1_555 1_555
C27 C28 1.388 1_555 1_555
C33 C34 1.393 1_555 1_555
C50 C51 1.391 1_555 1_555
C39B C35B 1.429 1_555 1_555
C37B C38B 1.370 1_555 1_555
C44B C43B 1.385 1_555 1_555
C50B C49B 1.382 1_555 1_555
#END
