
#######################################################################
#
#                 Cambridge Crystallographic Data Centre
#                                CCDC
#
#######################################################################
#
# If this CIF has been generated from an entry in the Cambridge
# Structural Database, then it will include bibliographic, chemical,
# crystal, experimental, refinement or atomic coordinate data resulting
# from the CCDC's data processing and validation procedures.
#
#######################################################################

data_CSD_CIF_LEZGEC01
_audit_creation_date 2014-10-31
_audit_creation_method CSD-ConQuest-V1
_database_code_CSD LEZGEC01
_database_code_depnum_ccdc_archive 'CCDC 1031696'
_chemical_formula_sum 'C34 H24'
_chemical_formula_moiety
;
C34 H24
;
_journal_coden_Cambridge 1078
_journal_year 2014
_journal_name_full 'CSD Communication(Private Communication) '
loop_
_publ_author_name
"J.G.Malecki"
_chemical_name_systematic
;
1,2,3,4-tetraphenylnaphthalene
;
_cell_volume   2476.813
_exptl_crystal_colour 'colorless'
_exptl_crystal_density_diffrn 1.16
_exptl_special_details
;
contribution from University of Silesia, ul. Bankowa 12, Katowice, Poland

;
_exptl_crystal_description 'block'
_diffrn_ambient_temperature 296.8
#These two values have been output from a single CSD field.
_refine_ls_R_factor_gt 0.0454
_refine_ls_wR_factor_gt 0.0454
_symmetry_cell_setting monoclinic
_symmetry_space_group_name_H-M 'P 21/c'
_symmetry_Int_Tables_number 14
loop_
_symmetry_equiv_pos_site_id
_symmetry_equiv_pos_as_xyz
1 x,y,z
2 -x,1/2+y,1/2-z
3 -x,-y,-z
4 x,-1/2-y,-1/2+z
_cell_length_a 13.8127(10)
_cell_length_b 12.4687(9)
_cell_length_c 14.3822(8)
_cell_angle_alpha 90
_cell_angle_beta 90.694(6)
_cell_angle_gamma 90
_cell_formula_units_Z 4
loop_
_atom_type_symbol
_atom_type_radius_bond
C 0.68
H 0.23
loop_
_atom_site_label
_atom_site_type_symbol
_atom_site_fract_x
_atom_site_fract_y
_atom_site_fract_z
C1 C 0.68665(10) 0.60816(13) 0.21507(9)
C2 C 0.74977(10) 0.63728(12) 0.28593(9)
C3 C 0.77103(10) 0.74797(12) 0.30310(9)
C4 C 0.72751(11) 0.82686(12) 0.24964(10)
C5 C 0.66129(11) 0.79859(14) 0.17644(10)
C6 C 0.61415(13) 0.87638(16) 0.12047(12)
H1 H 0.62650 0.94870 0.13090
C7 C 0.55122(15) 0.84714(19) 0.05181(14)
H2 H 0.52100 0.89970 0.01590
C8 C 0.53148(15) 0.7398(2) 0.03452(14)
H3 H 0.48810 0.72100 -0.01260
C9 C 0.57535(13) 0.66197(17) 0.08626(12)
H4 H 0.56210 0.59030 0.07360
C10 C 0.64104(11) 0.68874(14) 0.15936(10)
C11 C 0.66929(11) 0.49262(13) 0.19394(9)
C12 C 0.59178(14) 0.43757(17) 0.22852(14)
H5 H 0.54670 0.47360 0.26450
C13 C 0.57935(16) 0.32994(18) 0.21102(15)
H6 H 0.52650 0.29410 0.23570
C14 C 0.64349(15) 0.27558(16) 0.15813(12)
H7 H 0.63570 0.20260 0.14710
C15 C 0.71933(15) 0.32973(16) 0.12162(13)
H8 H 0.76330 0.29360 0.08440
C16 C 0.73204(12) 0.43706(14) 0.13884(12)
H9 H 0.78420 0.47270 0.11260
C17 C 0.79609(11) 0.55297(11) 0.34525(9)
C18 C 0.74290(14) 0.50125(14) 0.41215(12)
H10 H 0.67790 0.51860 0.41940
C19 C 0.78425(19) 0.42455(17) 0.46826(14)
H11 H 0.74720 0.39100 0.51340
C20 C 0.8781(2) 0.39730(16) 0.45868(14)
H12 H 0.90570 0.34550 0.49720
C21 C 0.93167(15) 0.44571(18) 0.39287(15)
H13 H 0.99620 0.42650 0.38560
C22 C 0.89104(13) 0.52389(15) 0.33614(12)
H14 H 0.92870 0.55700 0.29130
C23 C 0.84050(11) 0.77849(11) 0.37915(10)
C24 C 0.81597(12) 0.76776(13) 0.47183(10)
H15 H 0.75640 0.73810 0.48700
C25 C 0.87799(15) 0.80018(16) 0.54180(12)
H16 H 0.86010 0.79180 0.60350
C26 C 0.96461(16) 0.84402(15) 0.52181(16)
H17 H 1.00570 0.86700 0.56950
C27 C 0.99200(14) 0.85457(16) 0.43061(17)
H18 H 1.05200 0.88400 0.41660
C28 C 0.93006(13) 0.82123(14) 0.35928(13)
H19 H 0.94920 0.82780 0.29780
C29 C 0.74871(12) 0.94230(13) 0.26894(10)
C30 C 0.70754(18) 0.99381(17) 0.34326(13)
H20 H 0.66330 0.95790 0.38020
C31 C 0.7321(3) 1.0994(2) 0.36308(17)
H21 H 0.70390 1.13410 0.41320
C32 C 0.7975(3) 1.1527(2) 0.3091(2)
H22 H 0.81490 1.22290 0.32350
C33 C 0.83684(18) 1.10306(19) 0.2349(2)
H23 H 0.88060 1.13960 0.19780
C34 C 0.81229(15) 0.99898(15) 0.21405(15)
H24 H 0.83890 0.96610 0.16220
loop_
_geom_bond_atom_site_label_1
_geom_bond_atom_site_label_2
_geom_bond_distance
_geom_bond_site_symmetry_1
_geom_bond_site_symmetry_2
C1 C2 1.382 1_555 1_555
C2 C3 1.432 1_555 1_555
C3 C4 1.382 1_555 1_555
C4 C5 1.430 1_555 1_555
C5 C6 1.414 1_555 1_555
C6 H1 0.930 1_555 1_555
C7 C6 1.358 1_555 1_555
H2 C7 0.930 1_555 1_555
C8 C7 1.388 1_555 1_555
H3 C8 0.929 1_555 1_555
C9 C8 1.361 1_555 1_555
H4 C9 0.930 1_555 1_555
C10 C1 1.427 1_555 1_555
C11 C1 1.491 1_555 1_555
C12 C11 1.370 1_555 1_555
H5 C12 0.930 1_555 1_555
C13 C12 1.376 1_555 1_555
H6 C13 0.930 1_555 1_555
C14 C13 1.356 1_555 1_555
H7 C14 0.930 1_555 1_555
C15 C14 1.357 1_555 1_555
H8 C15 0.931 1_555 1_555
C16 C11 1.370 1_555 1_555
H9 C16 0.930 1_555 1_555
C17 C2 1.493 1_555 1_555
C18 C17 1.378 1_555 1_555
H10 C18 0.931 1_555 1_555
C19 C18 1.371 1_555 1_555
H11 C19 0.931 1_555 1_555
C20 C19 1.349 1_555 1_555
H12 C20 0.930 1_555 1_555
C21 C20 1.351 1_555 1_555
H13 C21 0.930 1_555 1_555
C22 C17 1.369 1_555 1_555
H14 C22 0.930 1_555 1_555
C23 C3 1.495 1_555 1_555
C24 C23 1.386 1_555 1_555
H15 C24 0.930 1_555 1_555
C25 C24 1.374 1_555 1_555
H16 C25 0.930 1_555 1_555
C26 C25 1.350 1_555 1_555
H17 C26 0.930 1_555 1_555
C27 C26 1.376 1_555 1_555
H18 C27 0.931 1_555 1_555
C28 C23 1.380 1_555 1_555
H19 C28 0.930 1_555 1_555
C29 C4 1.494 1_555 1_555
C30 C29 1.376 1_555 1_555
H20 C30 0.930 1_555 1_555
C31 C30 1.388 1_555 1_555
H21 C31 0.930 1_555 1_555
C32 C31 1.370 1_555 1_555
H22 C32 0.930 1_555 1_555
C33 C32 1.353 1_555 1_555
H23 C33 0.930 1_555 1_555
C34 C29 1.382 1_555 1_555
H24 C34 0.931 1_555 1_555
C5 C10 1.419 1_555 1_555
C9 C10 1.420 1_555 1_555
C15 C16 1.372 1_555 1_555
C21 C22 1.386 1_555 1_555
C27 C28 1.391 1_555 1_555
C33 C34 1.374 1_555 1_555
#END
