
#######################################################################
#
#                 Cambridge Crystallographic Data Centre
#                                CCDC
#
#######################################################################
#
# If this CIF has been generated from an entry in the Cambridge
# Structural Database, then it will include bibliographic, chemical,
# crystal, experimental, refinement or atomic coordinate data resulting
# from the CCDC's data processing and validation procedures.
#
#######################################################################

data_CSD_CIF_LEZRUF
_audit_creation_date 2013-05-26
_audit_creation_method CSD-ConQuest-V1
_database_code_CSD LEZRUF
_database_code_depnum_ccdc_archive 'CCDC 826181'
_chemical_formula_sum 'C38 H22'
_chemical_formula_moiety
;
C38 H22
;
_journal_coden_Cambridge 179
_journal_volume 50
_journal_year 2011
_journal_page_first 9413
_journal_name_full 'Angew.Chem.,Int.Ed. '
loop_
_publ_author_name
"Zhenhua Gu"
"G.B.Boursalian"
"V.Gandon"
"R.Padilla"
"Hao Shen"
"T.V.Timofeeva"
"P.Tongwa"
"K.P.C.Vollhardt"
"A.A.Yakovenko"
_chemical_name_systematic
;
13,14-Diphenylbisbenzo[3,4]cyclobuta[1,2-a:1',2'-i]phenanthrene
;
_cell_volume   2475.965
_exptl_crystal_colour 'brown'
_exptl_crystal_density_diffrn 1.284
_exptl_crystal_description 'prism'
_diffrn_ambient_temperature 298
#These two values have been output from a single CSD field.
_refine_ls_R_factor_gt 0.036
_refine_ls_wR_factor_gt 0.036
_symmetry_cell_setting monoclinic
_symmetry_space_group_name_H-M 'C 2/c'
_symmetry_Int_Tables_number 15
loop_
_symmetry_equiv_pos_site_id
_symmetry_equiv_pos_as_xyz
1 x,y,z
2 -x,y,1/2-z
3 1/2+x,1/2+y,z
4 1/2-x,1/2+y,1/2-z
5 -x,-y,-z
6 x,-y,-1/2+z
7 -1/2-x,-1/2-y,-z
8 -1/2+x,-1/2-y,-1/2+z
_cell_length_a 17.5787(3)
_cell_length_b 11.7305(2)
_cell_length_c 13.3209(2)
_cell_angle_alpha 90
_cell_angle_beta 115.660(1)
_cell_angle_gamma 90
_cell_formula_units_Z 4
loop_
_atom_type_symbol
_atom_type_radius_bond
C 0.68
H 0.23
loop_
_atom_site_label
_atom_site_type_symbol
_atom_site_fract_x
_atom_site_fract_y
_atom_site_fract_z
C1 C 0.46896(7) 0.44698(9) 0.19693(9)
C2 C 0.43601(7) 0.34115(9) 0.13901(9)
C3 C 0.37287(7) 0.33534(10) 0.03082(10)
C4 C 0.31114(7) 0.40082(10) -0.06994(10)
C5 C 0.27947(8) 0.50323(11) -0.11739(10)
H1 H 0.30140 0.57190 -0.08170
C6 C 0.21094(8) 0.49850(12) -0.22475(11)
H2 H 0.18710 0.56630 -0.26090
C7 C 0.17885(8) 0.39731(12) -0.27685(10)
H3 H 0.13350 0.39850 -0.34710
C8 C 0.21224(8) 0.29114(12) -0.22766(10)
H4 H 0.19040 0.22230 -0.26310
C9 C 0.27845(8) 0.29609(11) -0.1250(1)
C10 C 0.34108(8) 0.23233(10) -0.02445(10)
C11 C 0.37176(8) 0.12914(10) 0.02408(11)
H5 H 0.35110 0.06080 -0.01320
C12 C 0.43570(8) 0.13211(10) 0.13251(11)
H6 H 0.45830 0.06320 0.16720
C13 C 0.46775(7) 0.23312(9) 0.19216(9)
C14 C 0.43504(7) 0.55846(9) 0.14181(9)
C15 C 0.47246(8) 0.61609(11) 0.08451(11)
H7 H 0.51580 0.58160 0.07330
C16 C 0.44607(10) 0.72468(12) 0.04362(13)
H8 H 0.47150 0.76280 0.00490
C17 C 0.38229(10) 0.77599(12) 0.06039(13)
H9 H 0.36520 0.84950 0.03420
C18 C 0.34374(10) 0.71868(13) 0.11580(12)
H10 H 0.30000 0.75310 0.12620
C19 C 0.36969(8) 0.61039(12) 0.15602(11)
H11 H 0.34310 0.57190 0.19300
C1A C 0.53104(7) 0.44698(9) 0.30307(9)
C2A C 0.56399(7) 0.34115(9) 0.36099(9)
C3A C 0.62713(7) 0.33534(10) 0.46918(10)
C4A C 0.68886(7) 0.40082(10) 0.56994(10)
C5A C 0.72053(8) 0.50323(11) 0.61739(10)
H1A H 0.69860 0.57190 0.58170
C6A C 0.78906(8) 0.49850(12) 0.72475(11)
H2A H 0.81290 0.56630 0.76090
C7A C 0.82115(8) 0.39731(12) 0.77685(10)
H3A H 0.86650 0.39850 0.84710
C8A C 0.78776(8) 0.29114(12) 0.72766(10)
H4A H 0.80960 0.22230 0.76310
C9A C 0.72155(8) 0.29609(11) 0.6250(1)
C10A C 0.65892(8) 0.23233(10) 0.52445(10)
C11A C 0.62824(8) 0.12914(10) 0.47592(11)
H5A H 0.64890 0.06080 0.51320
C12A C 0.56430(8) 0.13211(10) 0.36749(11)
H6A H 0.54170 0.06320 0.33280
C13A C 0.53225(7) 0.23312(9) 0.30784(9)
C14A C 0.56496(7) 0.55846(9) 0.35819(9)
C15A C 0.52754(8) 0.61609(11) 0.41549(11)
H7A H 0.48420 0.58160 0.42670
C16A C 0.55393(10) 0.72468(12) 0.45638(13)
H8A H 0.52850 0.76280 0.49510
C17A C 0.61771(10) 0.77599(12) 0.43961(13)
H9A H 0.63480 0.84950 0.46580
C18A C 0.65626(10) 0.71868(13) 0.38420(12)
H10A H 0.70000 0.75310 0.37380
C19A C 0.63031(8) 0.61039(12) 0.34398(11)
H11A H 0.65690 0.57190 0.30700
loop_
_geom_bond_atom_site_label_1
_geom_bond_atom_site_label_2
_geom_bond_distance
_geom_bond_site_symmetry_1
_geom_bond_site_symmetry_2
C1 C2 1.444 1_555 1_555
C2 C3 1.389 1_555 1_555
C3 C4 1.519 1_555 1_555
C4 C5 1.359 1_555 1_555
C5 H1 0.930 1_555 1_555
C6 C5 1.417 1_555 1_555
H2 C6 0.930 1_555 1_555
C7 C6 1.367 1_555 1_555
H3 C7 0.930 1_555 1_555
C8 C7 1.411 1_555 1_555
H4 C8 0.930 1_555 1_555
C9 C4 1.419 1_555 1_555
C10 C3 1.399 1_555 1_555
C11 C10 1.368 1_555 1_555
H5 C11 0.930 1_555 1_555
C12 C11 1.395 1_555 1_555
H6 C12 0.930 1_555 1_555
C13 C2 1.441 1_555 1_555
C14 C1 1.492 1_555 1_555
C15 C14 1.381 1_555 1_555
H7 C15 0.930 1_555 1_555
C16 C15 1.384 1_555 1_555
H8 C16 0.930 1_555 1_555
C17 C16 1.373 1_555 1_555
H9 C17 0.930 1_555 1_555
C18 C17 1.374 1_555 1_555
H10 C18 0.930 1_555 1_555
C19 C14 1.384 1_555 1_555
H11 C19 0.930 1_555 1_555
C1A C1 1.361 1_555 1_555
C2A C1A 1.444 1_555 1_555
C3A C2A 1.389 1_555 1_555
C4A C3A 1.519 1_555 1_555
C5A C4A 1.359 1_555 1_555
H1A C5A 0.930 1_555 1_555
C6A C5A 1.417 1_555 1_555
H2A C6A 0.930 1_555 1_555
C7A C6A 1.367 1_555 1_555
H3A C7A 0.930 1_555 1_555
C8A C7A 1.411 1_555 1_555
H4A C8A 0.930 1_555 1_555
C9A C4A 1.419 1_555 1_555
C10A C3A 1.399 1_555 1_555
C11A C10A 1.368 1_555 1_555
H5A C11A 0.930 1_555 1_555
C12A C11A 1.395 1_555 1_555
H6A C12A 0.930 1_555 1_555
C13A C13 1.465 1_555 1_555
C14A C1A 1.492 1_555 1_555
C15A C14A 1.381 1_555 1_555
H7A C15A 0.930 1_555 1_555
C16A C15A 1.384 1_555 1_555
H8A C16A 0.930 1_555 1_555
C17A C16A 1.373 1_555 1_555
H9A C17A 0.930 1_555 1_555
C18A C17A 1.374 1_555 1_555
H10A C18A 0.930 1_555 1_555
C19A C14A 1.384 1_555 1_555
H11A C19A 0.930 1_555 1_555
C8 C9 1.360 1_555 1_555
C9 C10 1.513 1_555 1_555
C12 C13 1.402 1_555 1_555
C18 C19 1.377 1_555 1_555
C2A C13A 1.441 1_555 1_555
C8A C9A 1.360 1_555 1_555
C9A C10A 1.513 1_555 1_555
C12A C13A 1.402 1_555 1_555
C18A C19A 1.377 1_555 1_555
#END
