
#######################################################################
#
#                 Cambridge Crystallographic Data Centre
#                                CCDC
#
#######################################################################
#
# If this CIF has been generated from an entry in the Cambridge
# Structural Database, then it will include bibliographic, chemical,
# crystal, experimental, refinement or atomic coordinate data resulting
# from the CCDC's data processing and validation procedures.
#
#######################################################################

data_CSD_CIF_LEZRIT
_audit_creation_date 2013-05-26
_audit_creation_method CSD-ConQuest-V1
_database_code_CSD LEZRIT
_database_code_depnum_ccdc_archive 'CCDC 826183'
_chemical_formula_sum 'C38 H22'
_chemical_formula_moiety
;
C38 H22
;
_journal_coden_Cambridge 179
_journal_volume 50
_journal_year 2011
_journal_page_first 9413
_journal_name_full 'Angew.Chem.,Int.Ed. '
loop_
_publ_author_name
"Zhenhua Gu"
"G.B.Boursalian"
"V.Gandon"
"R.Padilla"
"Hao Shen"
"T.V.Timofeeva"
"P.Tongwa"
"K.P.C.Vollhardt"
"A.A.Yakovenko"
_chemical_name_systematic
;
13,14-Diphenylbisbenzo[3,4]cyclobuta[1,2-a:1',2'-c]phenanthrene
;
_cell_volume   2450.458
_exptl_crystal_colour 'pink'
_exptl_crystal_density_diffrn 1.297
_exptl_crystal_description 'prism'
_diffrn_ambient_temperature 298
#These two values have been output from a single CSD field.
_refine_ls_R_factor_gt 0.0376
_refine_ls_wR_factor_gt 0.0376
_symmetry_cell_setting monoclinic
_symmetry_space_group_name_H-M 'P 21/c'
_symmetry_Int_Tables_number 14
loop_
_symmetry_equiv_pos_site_id
_symmetry_equiv_pos_as_xyz
1 x,y,z
2 -x,1/2+y,1/2-z
3 -x,-y,-z
4 x,-1/2-y,-1/2+z
_cell_length_a 9.4741(1)
_cell_length_b 19.4253(3)
_cell_length_c 13.3729(2)
_cell_angle_alpha 90
_cell_angle_beta 95.333(1)
_cell_angle_gamma 90
_cell_formula_units_Z 4
loop_
_atom_type_symbol
_atom_type_radius_bond
C 0.68
H 0.23
loop_
_atom_site_label
_atom_site_type_symbol
_atom_site_fract_x
_atom_site_fract_y
_atom_site_fract_z
C1 C -0.13971(14) 0.33284(7) 0.2783(1)
H1 H -0.13900 0.28590 0.29230
C2 C -0.23529(15) 0.36218(8) 0.20341(11)
H2 H -0.29980 0.33370 0.16670
C3 C -0.23645(15) 0.43145(8) 0.18281(11)
H3 H -0.30140 0.44830 0.13230
C4 C -0.14304(15) 0.47759(7) 0.23537(11)
H4 H -0.14420 0.52450 0.22160
C5 C -0.05023(13) 0.44915(6) 0.30797(9)
C6 C 0.06900(13) 0.46060(6) 0.38872(9)
C7 C 0.16319(13) 0.50194(6) 0.44222(9)
C8 C 0.22943(14) 0.57129(6) 0.46466(10)
C9 C 0.22985(15) 0.63971(7) 0.4424(1)
H5 H 0.16400 0.65910 0.39460
C10 C 0.33532(16) 0.67909(7) 0.49579(11)
H6 H 0.33970 0.72610 0.48330
C11 C 0.43233(16) 0.65015(7) 0.56601(11)
H7 H 0.50160 0.67820 0.59880
C12 C 0.43112(14) 0.57982(7) 0.59036(11)
H8 H 0.49690 0.56050 0.63830
C13 C 0.32676(13) 0.54140(6) 0.53892(9)
C14 C 0.25929(13) 0.47140(6) 0.51896(9)
C15 C 0.26262(12) 0.40237(6) 0.54364(9)
C16 C 0.35810(12) 0.37185(6) 0.62330(9)
C17 C 0.44750(15) 0.41222(7) 0.68857(10)
H9 H 0.44280 0.45990 0.68340
C18 C 0.54190(15) 0.38285(8) 0.76010(11)
H10 H 0.60110 0.41080 0.80200
C19 C 0.54984(15) 0.31199(8) 0.77051(11)
H11 H 0.61480 0.29230 0.81860
C20 C 0.46106(14) 0.27119(7) 0.70935(10)
H12 H 0.46540 0.22360 0.71710
C21 C 0.36361(12) 0.29968(6) 0.63510(9)
C22 C 0.27111(13) 0.25597(6) 0.56989(9)
C23 C 0.17471(12) 0.28348(6) 0.49898(9)
C24 C 0.16461(12) 0.35715(6) 0.48301(9)
C25 C 0.07193(13) 0.38817(6) 0.41060(9)
C26 C -0.04809(13) 0.37764(6) 0.32906(9)
C27 C 0.08390(13) 0.23541(6) 0.43359(9)
C28 C 0.12048(14) 0.21809(7) 0.33884(10)
H13 H 0.19610 0.24030 0.31300
C29 C 0.04588(16) 0.16821(8) 0.28225(11)
H14 H 0.07180 0.15690 0.21890
C30 C -0.06622(17) 0.13535(8) 0.31939(12)
H15 H -0.11620 0.10170 0.28140
C31 C -0.10448(16) 0.15241(8) 0.41299(12)
H16 H -0.18080 0.13030 0.43810
C32 C -0.03012(14) 0.20214(7) 0.46995(11)
H17 H -0.05680 0.21340 0.53310
C33 C 0.28915(13) 0.17953(6) 0.57621(9)
C34 C 0.36752(16) 0.14686(7) 0.50854(11)
H18 H 0.41370 0.17300 0.46330
C35 C 0.37866(19) 0.07619(8) 0.50674(13)
H19 H 0.43110 0.05500 0.46000
C36 C 0.3129(2) 0.03729(8) 0.57336(14)
H20 H 0.31850 -0.01050 0.57120
C37 C 0.2387(2) 0.06884(8) 0.64328(15)
H21 H 0.19630 0.04250 0.69020
C38 C 0.22621(18) 0.13969(8) 0.64467(12)
H22 H 0.17480 0.16060 0.69230
loop_
_geom_bond_atom_site_label_1
_geom_bond_atom_site_label_2
_geom_bond_distance
_geom_bond_site_symmetry_1
_geom_bond_site_symmetry_2
C1 H1 0.931 1_555 1_555
C2 C1 1.407 1_555 1_555
H2 C2 0.930 1_555 1_555
C3 C2 1.373 1_555 1_555
H3 C3 0.930 1_555 1_555
C4 C3 1.402 1_555 1_555
H4 C4 0.930 1_555 1_555
C5 C4 1.365 1_555 1_555
C6 C5 1.505 1_555 1_555
C7 C6 1.354 1_555 1_555
C8 C7 1.505 1_555 1_555
C9 C8 1.362 1_555 1_555
H5 C9 0.930 1_555 1_555
C10 C9 1.400 1_555 1_555
H6 C10 0.930 1_555 1_555
C11 C10 1.372 1_555 1_555
H7 C11 0.931 1_555 1_555
C12 C11 1.405 1_555 1_555
H8 C12 0.931 1_555 1_555
C13 C8 1.415 1_555 1_555
C14 C7 1.435 1_555 1_555
C15 C14 1.381 1_555 1_555
C16 C15 1.458 1_555 1_555
C17 C16 1.399 1_555 1_555
H9 C17 0.930 1_555 1_555
C18 C17 1.372 1_555 1_555
H10 C18 0.930 1_555 1_555
C19 C18 1.385 1_555 1_555
H11 C19 0.930 1_555 1_555
C20 C19 1.370 1_555 1_555
H12 C20 0.931 1_555 1_555
C21 C16 1.411 1_555 1_555
C22 C21 1.452 1_555 1_555
C23 C22 1.363 1_555 1_555
C24 C15 1.467 1_555 1_555
C25 C6 1.437 1_555 1_555
C26 C1 1.365 1_555 1_555
C27 C23 1.496 1_555 1_555
C28 C27 1.386 1_555 1_555
H13 C28 0.930 1_555 1_555
C29 C28 1.383 1_555 1_555
H14 C29 0.930 1_555 1_555
C30 C29 1.371 1_555 1_555
H15 C30 0.930 1_555 1_555
C31 C30 1.376 1_555 1_555
H16 C31 0.930 1_555 1_555
C32 C27 1.385 1_555 1_555
H17 C32 0.930 1_555 1_555
C33 C22 1.496 1_555 1_555
C34 C33 1.378 1_555 1_555
H18 C34 0.930 1_555 1_555
C35 C34 1.377 1_555 1_555
H19 C35 0.930 1_555 1_555
C36 C35 1.362 1_555 1_555
H20 C36 0.930 1_555 1_555
C37 C36 1.366 1_555 1_555
H21 C37 0.929 1_555 1_555
C38 C33 1.376 1_555 1_555
H22 C38 0.930 1_555 1_555
C5 C26 1.417 1_555 1_555
C12 C13 1.372 1_555 1_555
C13 C14 1.516 1_555 1_555
C20 C21 1.405 1_555 1_555
C23 C24 1.449 1_555 1_555
C24 C25 1.383 1_555 1_555
C25 C26 1.514 1_555 1_555
C31 C32 1.382 1_555 1_555
C37 C38 1.382 1_555 1_555
#END
