
#######################################################################
#
#                 Cambridge Crystallographic Data Centre
#                                CCDC
#
#######################################################################
#
# If this CIF has been generated from an entry in the Cambridge
# Structural Database, then it will include bibliographic, chemical,
# crystal, experimental, refinement or atomic coordinate data resulting
# from the CCDC's data processing and validation procedures.
#
#######################################################################

data_CSD_CIF_LIBNAN
_audit_creation_date 2013-05-26
_audit_creation_method CSD-ConQuest-V1
_database_code_CSD LIBNAN
_database_code_depnum_ccdc_archive 'CCDC 821909'
_chemical_formula_sum 'C39 H26'
_chemical_formula_moiety
;
C39 H26
;
_journal_coden_Cambridge 177
_journal_volume 9
_journal_year 2011
_journal_page_first 7461
_journal_name_full 'Org.Biomol.Chem. '
loop_
_publ_author_name
"Xiang-Chuan Wang"
"Jie Hu"
"Peng-Shuai Sun"
"Mei-Jin Zhong"
"Shaukat Ali"
"Yong-Min Liang"
_chemical_name_systematic
;
1,3,4-Triphenyl-9-(phenylethynyl)-1H-cyclopenta[b]naphthalene
;
_cell_volume   2691.319
_exptl_crystal_colour 'colorless'
_exptl_crystal_density_diffrn 1.221
_exptl_crystal_description 'block'
_diffrn_ambient_temperature 296
#These two values have been output from a single CSD field.
_refine_ls_R_factor_gt 0.1369
_refine_ls_wR_factor_gt 0.1369
_symmetry_cell_setting triclinic
_symmetry_space_group_name_H-M 'P -1'
_symmetry_Int_Tables_number 2
loop_
_symmetry_equiv_pos_site_id
_symmetry_equiv_pos_as_xyz
1 x,y,z
2 -x,-y,-z
_cell_length_a 11.398(5)
_cell_length_b 12.638(5)
_cell_length_c 20.547(11)
_cell_angle_alpha 107.151(12)
_cell_angle_beta 96.768(12)
_cell_angle_gamma 103.674(8)
_cell_formula_units_Z 4
loop_
_atom_type_symbol
_atom_type_radius_bond
C 0.68
H 0.23
loop_
_atom_site_label
_atom_site_type_symbol
_atom_site_fract_x
_atom_site_fract_y
_atom_site_fract_z
C1 C 0.1928(6) 0.8458(6) 0.0169(3)
C2 C 0.2645(6) 0.8529(6) 0.0765(4)
C3 C 0.3582(6) 0.9574(6) 0.1143(3)
C4 C 0.4352(7) 0.9706(7) 0.1766(4)
H1 H 0.42400 0.90930 0.19370
C5 C 0.5250(7) 1.0696(7) 0.2123(4)
H2 H 0.57460 1.07610 0.25340
C6 C 0.5425(7) 1.1619(7) 0.1868(4)
H3 H 0.60510 1.22970 0.21080
C7 C 0.4695(6) 1.1540(7) 0.1278(4)
H4 H 0.48050 1.21750 0.11280
C8 C 0.3766(6) 1.0507(6) 0.0885(3)
C9 C 0.3000(6) 1.0416(6) 0.0251(3)
C10 C 0.2090(6) 0.9396(5) -0.0087(3)
C11 C 0.1112(6) 0.9021(6) -0.0722(3)
C12 C 0.0425(6) 0.7966(6) -0.0822(4)
H5 H -0.02700 0.75810 -0.11740
C13 C 0.0884(6) 0.7445(6) -0.0304(4)
H6 H 0.02430 0.72390 -0.00470
C14 C 0.2505(7) 0.7576(7) 0.1018(4)
C15 C 0.2511(7) 0.6854(7) 0.1278(4)
C16 C 0.2599(7) 0.5959(7) 0.1575(4)
C17 C 0.315(1) 0.5147(7) 0.1286(4)
H7 H 0.34750 0.51650 0.08930
C18 C 0.3236(11) 0.4303(8) 0.1562(6)
H8 H 0.35860 0.37300 0.13500
C19 C 0.2797(12) 0.4314(9) 0.2158(6)
H9 H 0.28740 0.37530 0.23550
C20 C 0.2264(10) 0.5108(12) 0.2460(6)
H10 H 0.19630 0.50950 0.28600
C21 C 0.2163(8) 0.5948(9) 0.2174(5)
H11 H 0.18000 0.65110 0.23850
C22 C 0.3230(6) 1.1403(6) -0.0013(3)
C23 C 0.4297(7) 1.1711(7) -0.0245(4)
H12 H 0.48590 1.12840 -0.02460
C24 C 0.4556(8) 1.2654(8) -0.0482(5)
H13 H 0.52950 1.28770 -0.06230
C25 C 0.3696(9) 1.3240(8) -0.0500(5)
H14 H 0.38440 1.38610 -0.06650
C26 C 0.2635(8) 1.2936(7) -0.0283(4)
H15 H 0.20600 1.33440 -0.03040
C27 C 0.2391(7) 1.2019(6) -0.0029(4)
H16 H 0.16650 1.18250 0.01290
C28 C 0.0926(6) 0.9686(6) -0.1200(3)
C29 C 0.1835(7) 0.9995(6) -0.1551(4)
H17 H 0.25570 0.97800 -0.14960
C30 C 0.1675(8) 1.0629(7) -0.1987(4)
H18 H 0.22880 1.08450 -0.22230
C31 C 0.0589(8) 1.0934(7) -0.2065(4)
H19 H 0.04760 1.13610 -0.23540
C32 C -0.0310(8) 1.0615(7) -0.1725(4)
H20 H -0.10360 1.08220 -0.17810
C33 C -0.0145(6) 0.9982(6) -0.1295(4)
H21 H -0.07680 0.97550 -0.10680
C34 C 0.1260(6) 0.6400(6) -0.0667(4)
C35 C 0.2313(7) 0.6510(7) -0.0935(4)
H22 H 0.28300 0.72420 -0.08620
C36 C 0.2618(9) 0.5535(8) -0.1315(5)
H23 H 0.33410 0.56210 -0.14870
C37 C 0.1856(9) 0.4451(7) -0.1435(5)
H24 H 0.20480 0.38000 -0.16960
C38 C 0.0811(9) 0.4339(7) -0.1167(5)
H25 H 0.02950 0.36050 -0.12440
C39 C 0.0506(8) 0.5299(7) -0.0783(5)
H26 H -0.02070 0.52060 -0.06020
C40 C 0.6975(6) 0.3093(5) 0.4741(3)
C41 C 0.7307(6) 0.2481(5) 0.4162(3)
C42 C 0.7963(6) 0.3083(6) 0.3766(3)
C43 C 0.8309(6) 0.2505(6) 0.3161(3)
H27 H 0.81550 0.17070 0.30250
C44 C 0.8872(7) 0.3090(7) 0.2764(4)
H28 H 0.91110 0.26910 0.23680
C45 C 0.9081(7) 0.4260(7) 0.2949(4)
H29 H 0.94320 0.46490 0.26680
C46 C 0.8782(6) 0.4856(6) 0.3535(4)
H30 H 0.89550 0.56540 0.36550
C47 C 0.8215(6) 0.4309(6) 0.3976(3)
C48 C 0.7881(5) 0.4940(6) 0.4595(3)
C49 C 0.7278(6) 0.4322(5) 0.4971(3)
C50 C 0.6753(6) 0.4694(6) 0.5590(3)
C51 C 0.6138(6) 0.3748(6) 0.5715(4)
H31 H 0.56960 0.37760 0.60700
C52 C 0.6239(6) 0.2642(6) 0.5224(4)
H32 H 0.54170 0.21510 0.49630
C53 C 0.7040(6) 0.1259(6) 0.3945(3)
C54 C 0.6885(6) 0.0229(6) 0.3730(3)
C55 C 0.6768(6) -0.0977(6) 0.3456(4)
C56 C 0.5680(8) -0.1787(7) 0.3082(5)
H33 H 0.49770 -0.15560 0.30000
C57 C 0.5625(10) -0.2926(8) 0.2832(5)
H34 H 0.48710 -0.34600 0.25930
C58 C 0.6612(10) -0.3307(8) 0.2918(5)
H35 H 0.65580 -0.40880 0.27400
C59 C 0.7696(10) -0.2509(8) 0.3274(6)
H36 H 0.83970 -0.27520 0.33390
C60 C 0.7786(8) -0.1367(7) 0.3538(5)
H37 H 0.85450 -0.08430 0.37780
C61 C 0.8195(6) 0.6218(5) 0.4812(3)
C62 C 0.7296(7) 0.6781(6) 0.4806(4)
H38 H 0.64710 0.63510 0.46570
C63 C 0.7597(8) 0.7965(7) 0.5018(5)
H39 H 0.69800 0.83310 0.50100
C64 C 0.8799(9) 0.8602(8) 0.5239(5)
H40 H 0.90010 0.94050 0.53930
C65 C 0.9720(8) 0.8067(7) 0.5236(5)
H41 H 1.05430 0.85030 0.53780
C66 C 0.9407(7) 0.6873(6) 0.5021(4)
H42 H 1.00270 0.65080 0.50190
C67 C 0.6882(6) 0.5891(6) 0.6045(3)
C68 C 0.5832(7) 0.6240(7) 0.6158(4)
H43 H 0.50580 0.57310 0.59350
C69 C 0.5929(8) 0.7332(7) 0.6598(4)
H44 H 0.52270 0.75710 0.66630
C70 C 0.7069(9) 0.8057(7) 0.6936(4)
H45 H 0.71380 0.87880 0.72410
C71 C 0.8118(8) 0.7727(7) 0.6833(4)
H46 H 0.88890 0.82340 0.70640
C72 C 0.8021(7) 0.6637(6) 0.6384(4)
H47 H 0.87280 0.64100 0.63130
C73 C 0.6837(6) 0.2008(6) 0.5616(4)
C74 C 0.8058(8) 0.2390(8) 0.5903(5)
H48 H 0.85510 0.30310 0.58320
C75 C 0.8587(9) 0.1834(10) 0.6304(6)
H49 H 0.94230 0.21110 0.65050
C76 C 0.7874(11) 0.0890(9) 0.6396(5)
H50 H 0.82240 0.05020 0.66480
C77 C 0.6663(10) 0.0514(8) 0.6123(5)
H51 H 0.61720 -0.01200 0.62000
C78 C 0.6146(8) 0.1058(7) 0.5732(4)
H52 H 0.53070 0.07780 0.55400
loop_
_geom_bond_atom_site_label_1
_geom_bond_atom_site_label_2
_geom_bond_distance
_geom_bond_site_symmetry_1
_geom_bond_site_symmetry_2
C1 C2 1.357 1_555 1_555
C2 C3 1.422 1_555 1_555
C3 C4 1.406 1_555 1_555
C4 H1 0.930 1_555 1_555
C5 C4 1.352 1_555 1_555
H2 C5 0.930 1_555 1_555
C6 C5 1.396 1_555 1_555
H3 C6 0.930 1_555 1_555
C7 C6 1.350 1_555 1_555
H4 C7 0.929 1_555 1_555
C8 C3 1.412 1_555 1_555
C9 C8 1.438 1_555 1_555
C10 C1 1.415 1_555 1_555
C11 C10 1.487 1_555 1_555
C12 C11 1.319 1_555 1_555
H5 C12 0.929 1_555 1_555
C13 C1 1.508 1_555 1_555
H6 C13 0.981 1_555 1_555
C14 C2 1.430 1_555 1_555
C15 C14 1.186 1_555 1_555
C16 C15 1.452 1_555 1_555
C17 C16 1.354 1_555 1_555
H7 C17 0.931 1_555 1_555
C18 C17 1.365 1_555 1_555
H8 C18 0.930 1_555 1_555
C19 C18 1.374 1_555 1_555
H9 C19 0.930 1_555 1_555
C20 C19 1.331 1_555 1_555
H10 C20 0.930 1_555 1_555
C21 C16 1.383 1_555 1_555
H11 C21 0.930 1_555 1_555
C22 C9 1.482 1_555 1_555
C23 C22 1.371 1_555 1_555
H12 C23 0.930 1_555 1_555
C24 C23 1.398 1_555 1_555
H13 C24 0.931 1_555 1_555
C25 C24 1.364 1_555 1_555
H14 C25 0.931 1_555 1_555
C26 C25 1.348 1_555 1_555
H15 C26 0.929 1_555 1_555
C27 C22 1.372 1_555 1_555
H16 C27 0.930 1_555 1_555
C28 C11 1.496 1_555 1_555
C29 C28 1.377 1_555 1_555
H17 C29 0.930 1_555 1_555
C30 C29 1.390 1_555 1_555
H18 C30 0.930 1_555 1_555
C31 C30 1.386 1_555 1_555
H19 C31 0.930 1_555 1_555
C32 C31 1.356 1_555 1_555
H20 C32 0.930 1_555 1_555
C33 C28 1.368 1_555 1_555
H21 C33 0.930 1_555 1_555
C34 C13 1.499 1_555 1_555
C35 C34 1.373 1_555 1_555
H22 C35 0.930 1_555 1_555
C36 C35 1.396 1_555 1_555
H23 C36 0.930 1_555 1_555
C37 C36 1.371 1_555 1_555
H24 C37 0.930 1_555 1_555
C38 C37 1.365 1_555 1_555
H25 C38 0.930 1_555 1_555
C39 C34 1.386 1_555 1_555
H26 C39 0.930 1_555 1_555
C40 C41 1.363 1_555 1_555
C41 C42 1.428 1_555 1_555
C42 C43 1.397 1_555 1_555
C43 H27 0.930 1_555 1_555
C44 C43 1.371 1_555 1_555
H28 C44 0.930 1_555 1_555
C45 C44 1.367 1_555 1_555
H29 C45 0.929 1_555 1_555
C46 C45 1.348 1_555 1_555
H30 C46 0.930 1_555 1_555
C47 C42 1.427 1_555 1_555
C48 C47 1.435 1_555 1_555
C49 C40 1.425 1_555 1_555
C50 C49 1.468 1_555 1_555
C51 C50 1.347 1_555 1_555
H31 C51 0.931 1_555 1_555
C52 C40 1.522 1_555 1_555
H32 C52 0.980 1_555 1_555
C53 C41 1.420 1_555 1_555
C54 C53 1.206 1_555 1_555
C55 C54 1.428 1_555 1_555
C56 C55 1.374 1_555 1_555
H33 C56 0.929 1_555 1_555
C57 C56 1.361 1_555 1_555
H34 C57 0.931 1_555 1_555
C58 C57 1.337 1_555 1_555
H35 C58 0.930 1_555 1_555
C59 C58 1.357 1_555 1_555
H36 C59 0.930 1_555 1_555
C60 C55 1.375 1_555 1_555
H37 C60 0.931 1_555 1_555
C61 C48 1.483 1_555 1_555
C62 C61 1.380 1_555 1_555
H38 C62 0.930 1_555 1_555
C63 C62 1.373 1_555 1_555
H39 C63 0.930 1_555 1_555
C64 C63 1.359 1_555 1_555
H40 C64 0.931 1_555 1_555
C65 C64 1.376 1_555 1_555
H41 C65 0.930 1_555 1_555
C66 C61 1.374 1_555 1_555
H42 C66 0.931 1_555 1_555
C67 C50 1.487 1_555 1_555
C68 C67 1.391 1_555 1_555
H43 C68 0.930 1_555 1_555
C69 C68 1.379 1_555 1_555
H44 C69 0.930 1_555 1_555
C70 C69 1.364 1_555 1_555
H45 C70 0.930 1_555 1_555
C71 C70 1.375 1_555 1_555
H46 C71 0.930 1_555 1_555
C72 C67 1.371 1_555 1_555
H47 C72 0.930 1_555 1_555
C73 C52 1.505 1_555 1_555
C74 C73 1.356 1_555 1_555
H48 C74 0.931 1_555 1_555
C75 C74 1.400 1_555 1_555
H49 C75 0.930 1_555 1_555
C76 C75 1.353 1_555 1_555
H50 C76 0.928 1_555 1_555
C77 C76 1.340 1_555 1_555
H51 C77 0.929 1_555 1_555
C78 C73 1.373 1_555 1_555
H52 C78 0.930 1_555 1_555
C7 C8 1.414 1_555 1_555
C9 C10 1.375 1_555 1_555
C12 C13 1.512 1_555 1_555
C20 C21 1.377 1_555 1_555
C26 C27 1.390 1_555 1_555
C32 C33 1.380 1_555 1_555
C38 C39 1.384 1_555 1_555
C46 C47 1.419 1_555 1_555
C48 C49 1.381 1_555 1_555
C51 C52 1.502 1_555 1_555
C59 C60 1.358 1_555 1_555
C65 C66 1.384 1_555 1_555
C71 C72 1.384 1_555 1_555
C77 C78 1.368 1_555 1_555
#END
