
#######################################################################
#
#                 Cambridge Crystallographic Data Centre
#                                CCDC
#
#######################################################################
#
# If this CIF has been generated from an entry in the Cambridge
# Structural Database, then it will include bibliographic, chemical,
# crystal, experimental, refinement or atomic coordinate data resulting
# from the CCDC's data processing and validation procedures.
#
#######################################################################

data_CSD_CIF_LIVDIF
_audit_creation_date 2014-02-25
_audit_creation_method CSD-ConQuest-V1
_database_code_CSD LIVDIF
_database_code_depnum_ccdc_archive 'CCDC 988654'
_chemical_formula_sum 'C24 H20'
_chemical_formula_moiety
;
C24 H20
;
_journal_coden_Cambridge 1078
_journal_year 2014
_journal_name_full 'CSD Communication(Private Communication) '
loop_
_publ_author_name
"J.G.Malecki"
_chemical_name_systematic
;
1,4-dimethyl-2,3-diphenylnaphthalene
;
_cell_volume   3475.121
_exptl_crystal_colour 'colorless'
_exptl_crystal_density_diffrn 1.179
_exptl_special_details
;
contribution from University of Silesia, Katwoice, Poland

;
_exptl_crystal_description 'prism'
_diffrn_ambient_temperature 296
#These two values have been output from a single CSD field.
_refine_ls_R_factor_gt 0.0538
_refine_ls_wR_factor_gt 0.0538
_symmetry_cell_setting orthorhombic
_symmetry_space_group_name_H-M 'P b c a'
_symmetry_Int_Tables_number 61
loop_
_symmetry_equiv_pos_site_id
_symmetry_equiv_pos_as_xyz
1 x,y,z
2 1/2-x,-y,1/2+z
3 -x,1/2+y,1/2-z
4 1/2+x,1/2-y,-z
5 -x,-y,-z
6 -1/2+x,y,-1/2-z
7 x,-1/2-y,-1/2+z
8 -1/2-x,-1/2+y,z
_cell_length_a 9.7405(10)
_cell_length_b 17.0388(12)
_cell_length_c 20.9387(14)
_cell_angle_alpha 90
_cell_angle_beta 90
_cell_angle_gamma 90
_cell_formula_units_Z 8
loop_
_atom_type_symbol
_atom_type_radius_bond
C 0.68
H 0.23
loop_
_atom_site_label
_atom_site_type_symbol
_atom_site_fract_x
_atom_site_fract_y
_atom_site_fract_z
C1 C 0.1485(2) 0.14214(9) 0.29670(8)
C2 C 0.13442(18) 0.08788(10) 0.24870(7)
C3 C 0.11201(18) 0.00678(9) 0.26298(7)
C4 C 0.10810(18) -0.01899(9) 0.32541(7)
C5 C 0.13156(18) 0.03544(9) 0.37579(7)
C6 C 0.14942(18) 0.11637(9) 0.36174(8)
C7 C 0.1690(2) 0.16858(11) 0.41303(8)
H1 H 0.17700 0.22200 0.40470
C8 C 0.1765(2) 0.14308(12) 0.47450(9)
H2 H 0.18970 0.17890 0.50740
C9 C 0.1645(2) 0.06378(12) 0.48809(8)
H3 H 0.17280 0.04630 0.53000
C10 C 0.1408(2) 0.01162(11) 0.44047(8)
H4 H 0.13020 -0.04120 0.45050
C11 C 0.1686(3) 0.22787(11) 0.28179(9)
H5 H 0.17050 0.23510 0.23630
H6 H 0.25370 0.24550 0.29990
H7 H 0.09420 0.25760 0.29970
C12 C 0.0779(2) -0.10362(10) 0.34160(9)
H8 H 0.05120 -0.13120 0.30360
H9 H 0.00470 -0.10590 0.37230
H10 H 0.15860 -0.12760 0.35920
C13 C 0.14880(19) 0.11221(9) 0.18051(7)
C14 C 0.2719(2) 0.10164(10) 0.14951(8)
H11 H 0.34520 0.07940 0.17150
C15 C 0.2891(2) 0.12328(11) 0.08655(8)
H12 H 0.37340 0.11580 0.06660
C16 C 0.1825(3) 0.15562(11) 0.05336(9)
H13 H 0.19350 0.16950 0.01070
C17 C 0.0597(3) 0.16736(13) 0.08323(10)
H14 H -0.01290 0.18970 0.06090
C18 C 0.0425(2) 0.14633(12) 0.14658(9)
H15 H -0.04140 0.15520 0.16650
C19 C 0.09548(19) -0.04895(9) 0.20826(7)
C20 C 0.1944(2) -0.10484(10) 0.19559(8)
H16 H 0.27080 -0.10860 0.22210
C21 C 0.1818(2) -0.15518(11) 0.14430(9)
H17 H 0.24880 -0.19290 0.13670
C22 C 0.0705(3) -0.14953(12) 0.10448(9)
H18 H 0.06200 -0.18330 0.06980
C23 C -0.0281(2) -0.09399(12) 0.11602(9)
H19 H -0.10300 -0.08960 0.08870
C24 C -0.0169(2) -0.04461(10) 0.16787(9)
H20 H -0.08550 -0.00800 0.17580
loop_
_geom_bond_atom_site_label_1
_geom_bond_atom_site_label_2
_geom_bond_distance
_geom_bond_site_symmetry_1
_geom_bond_site_symmetry_2
C1 C2 1.372 1_555 1_555
C2 C3 1.431 1_555 1_555
C3 C4 1.380 1_555 1_555
C4 C5 1.423 1_555 1_555
C5 C6 1.421 1_555 1_555
C6 C1 1.431 1_555 1_555
C7 C6 1.408 1_555 1_555
H1 C7 0.930 1_555 1_555
C8 C7 1.360 1_555 1_555
H2 C8 0.929 1_555 1_555
C9 C8 1.386 1_555 1_555
H3 C9 0.930 1_555 1_555
C10 C5 1.417 1_555 1_555
H4 C10 0.930 1_555 1_555
C11 C1 1.507 1_555 1_555
H5 C11 0.961 1_555 1_555
H6 C11 0.960 1_555 1_555
H7 C11 0.960 1_555 1_555
C12 C4 1.510 1_555 1_555
H8 C12 0.960 1_555 1_555
H9 C12 0.961 1_555 1_555
H10 C12 0.960 1_555 1_555
C13 C2 1.493 1_555 1_555
C14 C13 1.375 1_555 1_555
H11 C14 0.930 1_555 1_555
C15 C14 1.379 1_555 1_555
H12 C15 0.930 1_555 1_555
C16 C15 1.366 1_555 1_555
H13 C16 0.930 1_555 1_555
C17 C16 1.365 1_555 1_555
H14 C17 0.929 1_555 1_555
C18 C13 1.384 1_555 1_555
H15 C18 0.930 1_555 1_555
C19 C3 1.497 1_555 1_555
C20 C19 1.380 1_555 1_555
H16 C20 0.931 1_555 1_555
C21 C20 1.380 1_555 1_555
H17 C21 0.930 1_555 1_555
C22 C21 1.371 1_555 1_555
H18 C22 0.930 1_555 1_555
C23 C22 1.370 1_555 1_555
H19 C23 0.930 1_555 1_555
C24 C19 1.385 1_555 1_555
H20 C24 0.929 1_555 1_555
C9 C10 1.355 1_555 1_555
C17 C18 1.384 1_555 1_555
C23 C24 1.378 1_555 1_555
#END
