
#######################################################################
#
#                 Cambridge Crystallographic Data Centre
#                                CCDC
#
#######################################################################
#
# If this CIF has been generated from an entry in the Cambridge
# Structural Database, then it will include bibliographic, chemical,
# crystal, experimental, refinement or atomic coordinate data resulting
# from the CCDC's data processing and validation procedures.
#
#######################################################################

data_CSD_CIF_LOBZAF
_audit_creation_date 2014-03-03
_audit_creation_method CSD-ConQuest-V1
_database_code_CSD LOBZAF
_database_code_depnum_ccdc_archive 'CCDC 988215'
_chemical_formula_sum 'C60 H34'
_chemical_formula_moiety
;
C60 H34
;
_journal_coden_Cambridge 1078
_journal_year 2014
_journal_name_full 'CSD Communication(Private Communication) '
loop_
_publ_author_name
"A.Sygula"
"F.R.Fronczek"
"P.W.Rabideau"
_chemical_name_systematic
;
11,11',12,12'-tetrahydro-11,11'-bidiindeno[1,2-j:2',1'-l]fluoranthene
;
_cell_volume   3667.358
_exptl_crystal_colour 'orange'
_exptl_crystal_density_diffrn 1.367
_exptl_special_details
;
contribution from Department of Chemistry, Louisiana State University, Baton 
Rouge, LA, 70803, USA
;
_exptl_crystal_description 'parallelepiped'
_diffrn_ambient_temperature 293
#These two values have been output from a single CSD field.
_refine_ls_R_factor_gt 0.0846
_refine_ls_wR_factor_gt 0.0846
_symmetry_cell_setting monoclinic
_symmetry_space_group_name_H-M 'P 21/n'
_symmetry_Int_Tables_number 14
loop_
_symmetry_equiv_pos_site_id
_symmetry_equiv_pos_as_xyz
1 x,y,z
2 1/2-x,1/2+y,1/2-z
3 -x,-y,-z
4 -1/2+x,-1/2-y,-1/2+z
_cell_length_a 8.6371(14)
_cell_length_b 20.4950(13)
_cell_length_c 20.765(6)
_cell_angle_alpha 90
_cell_angle_beta 93.876(16)
_cell_angle_gamma 90
_cell_formula_units_Z 4
loop_
_atom_type_symbol
_atom_type_radius_bond
C 0.68
H 0.23
loop_
_atom_site_label
_atom_site_type_symbol
_atom_site_fract_x
_atom_site_fract_y
_atom_site_fract_z
C1 C 0.7784(7) 0.6493(3) 0.6541(3)
C2 C 0.8779(8) 0.5970(3) 0.6567(3)
H1 H 0.92260 0.58280 0.61970
C3 C 0.9118(9) 0.5650(3) 0.7163(3)
H2 H 0.97590 0.52850 0.71750
C4 C 0.8535(8) 0.5860(3) 0.7720(3)
H3 H 0.87640 0.56340 0.81030
C5 C 0.7586(8) 0.6420(3) 0.7718(3)
C6 C 0.6972(9) 0.6706(4) 0.8256(3)
H4 H 0.71430 0.65160 0.86610
C7 C 0.6119(9) 0.7265(4) 0.8184(3)
H5 H 0.57110 0.74490 0.85460
C8 C 0.5834(8) 0.7577(3) 0.7580(3)
H6 H 0.52730 0.79640 0.75490
C9 C 0.6393(7) 0.7301(3) 0.7037(2)
C10 C 0.7247(7) 0.6723(3) 0.7128(3)
C11 C 0.7158(7) 0.6946(3) 0.6034(3)
C12 C 0.6372(7) 0.7467(3) 0.6340(2)
C13 C 0.5738(8) 0.7986(3) 0.5977(3)
C14 C 0.4909(8) 0.8585(3) 0.6129(3)
C15 C 0.4342(10) 0.8838(4) 0.6687(3)
H7 H 0.45110 0.86120 0.70740
C16 C 0.3538(10) 0.9412(4) 0.6677(4)
H8 H 0.31410 0.95650 0.70540
C17 C 0.3309(10) 0.9769(4) 0.6113(4)
H9 H 0.27820 1.01650 0.61130
C18 C 0.3863(9) 0.9535(3) 0.5558(3)
H10 H 0.37120 0.97700 0.51750
C19 C 0.4631(8) 0.8960(3) 0.5567(3)
C20 C 0.5281(9) 0.8613(3) 0.5007(3)
H11 H 0.60760 0.88730 0.48210
H12 H 0.44720 0.85150 0.46750
C21 C 0.5955(7) 0.7998(3) 0.5305(3)
C22 C 0.6659(7) 0.7488(3) 0.5007(3)
C23 C 0.7214(7) 0.6941(3) 0.5363(3)
C24 C 0.7745(7) 0.6452(3) 0.4902(3)
C25 C 0.8083(9) 0.5797(3) 0.4967(3)
H13 H 0.80830 0.55970 0.53700
C26 C 0.8420(9) 0.5439(4) 0.4429(3)
H14 H 0.86500 0.49970 0.44710
C27 C 0.8418(9) 0.5731(4) 0.3829(3)
H15 H 0.86680 0.54870 0.34730
C28 C 0.8050(8) 0.6381(3) 0.3755(3)
H16 H 0.80570 0.65770 0.33510
C29 C 0.7671(7) 0.6739(3) 0.4284(3)
C30 C 0.6946(8) 0.7406(3) 0.4290(2)
H17 H 0.76920 0.77340 0.41620
C31 C 0.5433(7) 0.7447(3) 0.3837(2)
H18 H 0.48840 0.78490 0.39370
C32 C 0.4346(7) 0.6885(3) 0.3891(3)
C33 C 0.3655(8) 0.6678(3) 0.4433(3)
H19 H 0.38680 0.68860 0.48270
C34 C 0.2645(9) 0.6159(4) 0.4385(3)
H20 H 0.21690 0.60150 0.47470
C35 C 0.2343(9) 0.5857(4) 0.3802(3)
H21 H 0.16600 0.55050 0.37730
C36 C 0.3032(8) 0.6062(3) 0.3254(3)
H22 H 0.27850 0.58570 0.28610
C37 C 0.4079(7) 0.6568(3) 0.3289(2)
C38 C 0.4941(7) 0.6916(3) 0.2812(2)
C39 C 0.5694(7) 0.7444(3) 0.3120(3)
C40 C 0.6520(7) 0.7883(3) 0.2791(3)
C41 C 0.7337(8) 0.8499(3) 0.3048(3)
H23 H 0.66140 0.87940 0.32360
H24 H 0.81690 0.83940 0.33690
C42 C 0.7960(8) 0.8787(3) 0.2451(3)
C43 C 0.8808(8) 0.9341(3) 0.2406(3)
H25 H 0.90350 0.95950 0.27710
C44 C 0.9330(9) 0.9529(3) 0.1826(4)
H26 H 0.98890 0.99140 0.17930
C45 C 0.9017(9) 0.9139(4) 0.1294(3)
H27 H 0.94020 0.92550 0.09020
C46 C 0.8140(9) 0.8579(3) 0.1331(3)
H28 H 0.79350 0.83220 0.09660
C47 C 0.7565(8) 0.8398(3) 0.1914(3)
C48 C 0.6635(7) 0.7843(3) 0.2112(3)
C49 C 0.5899(7) 0.7315(3) 0.1794(2)
C50 C 0.5113(7) 0.6834(3) 0.2143(2)
C51 C 0.4586(8) 0.6305(3) 0.1688(3)
C52 C 0.3938(9) 0.5701(3) 0.1728(3)
H29 H 0.36670 0.55400 0.21240
C53 C 0.3680(9) 0.5320(4) 0.1161(3)
H30 H 0.32720 0.49020 0.11950
C54 C 0.4011(9) 0.5546(4) 0.0568(3)
H31 H 0.37640 0.52960 0.02010
C55 C 0.4720(8) 0.6151(4) 0.0511(3)
C56 C 0.5162(10) 0.6441(4) -0.0063(3)
H32 H 0.50120 0.62190 -0.04530
C57 C 0.5795(10) 0.7035(4) -0.0047(3)
H33 H 0.60430 0.72230 -0.04340
C58 C 0.6110(9) 0.7392(4) 0.0531(3)
H34 H 0.65540 0.78050 0.05200
C59 C 0.5757(8) 0.7126(3) 0.1101(3)
C60 C 0.5012(7) 0.6521(3) 0.1075(2)
loop_
_geom_bond_atom_site_label_1
_geom_bond_atom_site_label_2
_geom_bond_distance
_geom_bond_site_symmetry_1
_geom_bond_site_symmetry_2
C1 C2 1.373 1_555 1_555
C2 H1 0.930 1_555 1_555
C3 C2 1.414 1_555 1_555
H2 C3 0.930 1_555 1_555
C4 C3 1.362 1_555 1_555
H3 C4 0.930 1_555 1_555
C5 C4 1.410 1_555 1_555
C6 C5 1.397 1_555 1_555
H4 C6 0.929 1_555 1_555
C7 C6 1.365 1_555 1_555
H5 C7 0.931 1_555 1_555
C8 C7 1.414 1_555 1_555
H6 C8 0.929 1_555 1_555
C9 C8 1.378 1_555 1_555
C10 C1 1.414 1_555 1_555
C11 C1 1.478 1_555 1_555
C12 C9 1.486 1_555 1_555
C13 C12 1.394 1_555 1_555
C14 C13 1.466 1_555 1_555
C15 C14 1.389 1_555 1_555
H7 C15 0.930 1_555 1_555
C16 C15 1.366 1_555 1_555
H8 C16 0.930 1_555 1_555
C17 C16 1.384 1_555 1_555
H9 C17 0.931 1_555 1_555
C18 C17 1.364 1_555 1_555
H10 C18 0.931 1_555 1_555
C19 C14 1.404 1_555 1_555
C20 C19 1.504 1_555 1_555
H11 C20 0.970 1_555 1_555
H12 C20 0.969 1_555 1_555
C21 C13 1.421 1_555 1_555
C22 C21 1.377 1_555 1_555
C23 C11 1.397 1_555 1_555
C24 C23 1.480 1_555 1_555
C25 C24 1.378 1_555 1_555
H13 C25 0.932 1_555 1_555
C26 C25 1.384 1_555 1_555
H14 C26 0.930 1_555 1_555
C27 C26 1.382 1_555 1_555
H15 C27 0.930 1_555 1_555
C28 C27 1.376 1_555 1_555
H16 C28 0.931 1_555 1_555
C29 C24 1.409 1_555 1_555
C30 C22 1.535 1_555 1_555
H17 C30 0.980 1_555 1_555
C31 C30 1.560 1_555 1_555
H18 C31 0.980 1_555 1_555
C32 C31 1.495 1_555 1_555
C33 C32 1.376 1_555 1_555
H19 C33 0.930 1_555 1_555
C34 C33 1.375 1_555 1_555
H20 C34 0.929 1_555 1_555
C35 C34 1.369 1_555 1_555
H21 C35 0.931 1_555 1_555
C36 C35 1.385 1_555 1_555
H22 C36 0.930 1_555 1_555
C37 C32 1.414 1_555 1_555
C38 C37 1.464 1_555 1_555
C39 C31 1.521 1_555 1_555
C40 C39 1.361 1_555 1_555
C41 C40 1.525 1_555 1_555
H23 C41 0.970 1_555 1_555
H24 C41 0.971 1_555 1_555
C42 C41 1.505 1_555 1_555
C43 C42 1.358 1_555 1_555
H25 C43 0.929 1_555 1_555
C44 C43 1.370 1_555 1_555
H26 C44 0.930 1_555 1_555
C45 C44 1.375 1_555 1_555
H27 C45 0.931 1_555 1_555
C46 C45 1.380 1_555 1_555
H28 C46 0.930 1_555 1_555
C47 C42 1.394 1_555 1_555
C48 C40 1.422 1_555 1_555
C49 C48 1.398 1_555 1_555
C50 C38 1.417 1_555 1_555
C51 C50 1.489 1_555 1_555
C52 C51 1.363 1_555 1_555
H29 C52 0.931 1_555 1_555
C53 C52 1.418 1_555 1_555
H30 C53 0.931 1_555 1_555
C54 C53 1.364 1_555 1_555
H31 C54 0.931 1_555 1_555
C55 C54 1.392 1_555 1_555
C56 C55 1.408 1_555 1_555
H32 C56 0.930 1_555 1_555
C57 C56 1.334 1_555 1_555
H33 C57 0.929 1_555 1_555
C58 C57 1.416 1_555 1_555
H34 C58 0.930 1_555 1_555
C59 C49 1.487 1_555 1_555
C60 C51 1.419 1_555 1_555
C5 C10 1.387 1_555 1_555
C9 C10 1.402 1_555 1_555
C11 C12 1.436 1_555 1_555
C18 C19 1.352 1_555 1_555
C20 C21 1.504 1_555 1_555
C22 C23 1.409 1_555 1_555
C28 C29 1.379 1_555 1_555
C29 C30 1.504 1_555 1_555
C36 C37 1.375 1_555 1_555
C38 C39 1.395 1_555 1_555
C46 C47 1.390 1_555 1_555
C47 C48 1.467 1_555 1_555
C49 C50 1.423 1_555 1_555
C55 C60 1.404 1_555 1_555
C58 C59 1.356 1_555 1_555
C59 C60 1.396 1_555 1_555
#END
