
#######################################################################
#
#                 Cambridge Crystallographic Data Centre
#                                CCDC
#
#######################################################################
#
# If this CIF has been generated from an entry in the Cambridge
# Structural Database, then it will include bibliographic, chemical,
# crystal, experimental, refinement or atomic coordinate data resulting
# from the CCDC's data processing and validation procedures.
#
#######################################################################

data_CSD_CIF_LOMDIB
_audit_creation_date 2009-06-04
_audit_creation_method CSD-ConQuest-V1
_database_code_CSD LOMDIB
_database_code_depnum_ccdc_archive 'CCDC 692386'
_chemical_formula_sum 'C28 H22'
_chemical_formula_moiety
;
C28 H22
;
_journal_coden_Cambridge 1220
_journal_volume 14
_journal_year 2008
_journal_page_first 11429
_journal_name_full 'Chem.-Eur.J. '
loop_
_publ_author_name
"D.Zehm"
"W.Fudickar"
"M.Hans"
"U.Schilde"
"A.Kelling"
"T.Linker"
_chemical_name_systematic
;
anti-9,10-bis(2-Methylphenyl)anthracene
;
_chemical_melting_point 603.15
_cell_volume    992.066
_exptl_crystal_colour 'colorless'
_exptl_crystal_density_diffrn 1.2
_exptl_crystal_description 'plate'
_diffrn_ambient_temperature 210
#These two values have been output from a single CSD field.
_refine_ls_R_factor_gt 0.0431
_refine_ls_wR_factor_gt 0.0431
_symmetry_cell_setting monoclinic
_symmetry_space_group_name_H-M 'P 21/n'
_symmetry_Int_Tables_number 14
loop_
_symmetry_equiv_pos_site_id
_symmetry_equiv_pos_as_xyz
1 x,y,z
2 1/2-x,1/2+y,1/2-z
3 -x,-y,-z
4 -1/2+x,-1/2-y,-1/2+z
_cell_length_a 11.733(4)
_cell_length_b 7.6696(15)
_cell_length_c 12.403(4)
_cell_angle_alpha 90
_cell_angle_beta 117.27(2)
_cell_angle_gamma 90
_cell_formula_units_Z 2
loop_
_atom_type_symbol
_atom_type_radius_bond
C 0.68
H 0.23
loop_
_atom_site_label
_atom_site_type_symbol
_atom_site_fract_x
_atom_site_fract_y
_atom_site_fract_z
C1 C 0.8240(2) 0.2319(3) 0.3219(2)
H1 H 0.774(2) 0.311(3) 0.3448(19)
C2 C 0.8054(2) 0.2248(3) 0.2052(2)
H2 H 0.739(2) 0.300(3) 0.145(2)
C3 C 0.8758(2) 0.1063(3) 0.1722(2)
H3 H 0.864(2) 0.103(3) 0.092(2)
C4 C 1.0386(2) 0.0054(3) 0.7443(2)
H4 H 0.9931(19) 0.092(3) 0.7694(19)
C5 C 0.93154(18) 0.1235(3) 0.5342(2)
C6 C 1.01706(18) 0.0051(3) 0.6210(2)
C7 C 0.91298(19) 0.1188(3) 0.4132(2)
C8 C 0.8628(2) 0.2574(3) 0.57228(19)
C9 C 0.7416(2) 0.2241(3) 0.5644(2)
C10 C 0.6860(3) 0.3518(3) 0.6070(2)
H5 H 0.600(2) 0.329(3) 0.599(2)
C11 C 0.7484(2) 0.5069(4) 0.6543(2)
H6 H 0.704(2) 0.594(3) 0.681(2)
C12 C 0.8668(3) 0.5399(3) 0.6604(2)
H7 H 0.912(2) 0.652(3) 0.692(2)
C13 C 0.9249(2) 0.4154(3) 0.6208(2)
H8 H 1.013(2) 0.438(3) 0.629(2)
C14 C 0.6733(3) 0.0564(4) 0.5147(3)
H9 H 0.593(3) 0.039(3) 0.526(2)
H10 H 0.736(3) -0.047(4) 0.549(2)
H11 H 0.655(3) 0.050(4) 0.440(3)
C1B C 1.1760(2) -0.2319(3) 0.6781(2)
H1B H 1.226(2) -0.311(3) 0.6552(19)
C2B C 1.1946(2) -0.2248(3) 0.7948(2)
H2B H 1.261(2) -0.300(3) 0.855(2)
C3B C 1.1242(2) -0.1063(3) 0.8278(2)
H3B H 1.136(2) -0.103(3) 0.908(2)
C4B C 0.9614(2) -0.0054(3) 0.2557(2)
H4B H 1.0069(19) -0.092(3) 0.2306(19)
C5B C 1.06846(18) -0.1235(3) 0.4658(2)
C6B C 0.98294(18) -0.0051(3) 0.3790(2)
C7B C 1.08702(19) -0.1188(3) 0.5868(2)
C8B C 1.1372(2) -0.2574(3) 0.42772(19)
C9B C 1.2584(2) -0.2241(3) 0.4356(2)
C10B C 1.3140(3) -0.3518(3) 0.3930(2)
H5B H 1.400(2) -0.329(3) 0.401(2)
C11B C 1.2516(2) -0.5069(4) 0.3457(2)
H6B H 1.296(2) -0.594(3) 0.319(2)
C12B C 1.1332(3) -0.5399(3) 0.3396(2)
H7B H 1.088(2) -0.652(3) 0.308(2)
C13B C 1.0751(2) -0.4154(3) 0.3792(2)
H8B H 0.987(2) -0.438(3) 0.371(2)
C14B C 1.3267(3) -0.0564(4) 0.4853(3)
H9B H 1.407(3) -0.039(3) 0.474(2)
H10B H 1.264(3) 0.047(4) 0.451(2)
H11B H 1.345(3) -0.050(4) 0.560(3)
loop_
_geom_bond_atom_site_label_1
_geom_bond_atom_site_label_2
_geom_bond_distance
_geom_bond_site_symmetry_1
_geom_bond_site_symmetry_2
C1 H1 0.972 1_555 1_555
C2 C1 1.362 1_555 1_555
H2 C2 0.982 1_555 1_555
C3 C2 1.409 1_555 1_555
H3 C3 0.940 1_555 1_555
C4 H4 0.988 1_555 1_555
C5 C6 1.414 1_555 1_555
C6 C4 1.431 1_555 1_555
C7 C1 1.429 1_555 1_555
C8 C5 1.509 1_555 1_555
C9 C8 1.403 1_555 1_555
C10 C9 1.407 1_555 1_555
H5 C10 0.983 1_555 1_555
C11 C10 1.379 1_555 1_555
H6 C11 0.993 1_555 1_555
C12 C11 1.380 1_555 1_555
H7 C12 0.992 1_555 1_555
C13 C8 1.400 1_555 1_555
H8 C13 1.006 1_555 1_555
C14 C9 1.491 1_555 1_555
H9 C14 1.023 1_555 1_555
H10 C14 1.032 1_555 1_555
H11 C14 0.851 1_555 1_555
C1B H1B 0.972 1_555 1_555
C2B C1B 1.362 1_555 1_555
H2B C2B 0.982 1_555 1_555
C3B C4 1.365 1_555 1_555
H3B C3B 0.940 1_555 1_555
C4B C3 1.365 1_555 1_555
H4B C4B 0.988 1_555 1_555
C5B C6B 1.414 1_555 1_555
C6B C7 1.441 1_555 1_555
C7B C6 1.441 1_555 1_555
C8B C5B 1.509 1_555 1_555
C9B C8B 1.403 1_555 1_555
C10B C9B 1.407 1_555 1_555
H5B C10B 0.983 1_555 1_555
C11B C10B 1.379 1_555 1_555
H6B C11B 0.993 1_555 1_555
C12B C11B 1.380 1_555 1_555
H7B C12B 0.992 1_555 1_555
C13B C8B 1.400 1_555 1_555
H8B C13B 1.006 1_555 1_555
C14B C9B 1.491 1_555 1_555
H9B C14B 1.023 1_555 1_555
H10B C14B 1.032 1_555 1_555
H11B C14B 0.851 1_555 1_555
C5 C7 1.415 1_555 1_555
C12 C13 1.387 1_555 1_555
C1B C7B 1.429 1_555 1_555
C2B C3B 1.409 1_555 1_555
C4B C6B 1.431 1_555 1_555
C5B C7B 1.415 1_555 1_555
C12B C13B 1.387 1_555 1_555
#END
