
#######################################################################
#
#                 Cambridge Crystallographic Data Centre
#                                CCDC
#
#######################################################################
#
# If this CIF has been generated from an entry in the Cambridge
# Structural Database, then it will include bibliographic, chemical,
# crystal, experimental, refinement or atomic coordinate data resulting
# from the CCDC's data processing and validation procedures.
#
#######################################################################

data_CSD_CIF_LONBAT
_audit_creation_date 2014-07-30
_audit_creation_method CSD-ConQuest-V1
_database_code_CSD LONBAT
_database_code_depnum_ccdc_archive 'CCDC 945411'
_chemical_formula_sum 'C16 H14'
_chemical_formula_moiety
;
C16 H14
;
_journal_coden_Cambridge 8
_journal_volume 139
_journal_year 2013
_journal_page_first 204501
_journal_name_full 'J.Chem.Phys. '
loop_
_publ_author_name
"P.A.Beckmann"
"K.G.Conn"
"C.W.Mallory"
"F.B.Mallory"
"A.L.Rheingold"
"L.Rotkina"
"Xianlong Wang"
_chemical_name_systematic
;
1,6-dimethylphenanthrene
;
_cell_volume   1115.698
_exptl_crystal_colour 'colorless'
_exptl_crystal_density_diffrn 1.228
_exptl_crystal_description 'plate'
_diffrn_ambient_temperature 100
#These two values have been output from a single CSD field.
_refine_ls_R_factor_gt 0.0652
_refine_ls_wR_factor_gt 0.0652
_symmetry_cell_setting monoclinic
_symmetry_space_group_name_H-M 'P c'
_symmetry_Int_Tables_number 7
loop_
_symmetry_equiv_pos_site_id
_symmetry_equiv_pos_as_xyz
1 x,y,z
2 x,-y,1/2+z
_cell_length_a 6.4268(5)
_cell_length_b 8.3339(5)
_cell_length_c 20.8508(13)
_cell_angle_alpha 90
_cell_angle_beta 92.517(5)
_cell_angle_gamma 90
_cell_formula_units_Z 4
loop_
_atom_type_symbol
_atom_type_radius_bond
C 0.68
H 0.23
loop_
_atom_site_label
_atom_site_type_symbol
_atom_site_fract_x
_atom_site_fract_y
_atom_site_fract_z
C1 C 0.0626(8) 0.9352(5) 0.1920(2)
C2 C -0.0959(8) 0.8584(5) 0.2226(2)
H1 H -0.09450 0.85660 0.26810
C3 C -0.2592(8) 0.7829(5) 0.1870(2)
H2 H -0.36560 0.72910 0.20880
C4 C -0.2658(8) 0.7863(5) 0.1220(2)
H3 H -0.37860 0.73610 0.09890
C5 C -0.2800(7) 0.8095(5) -0.0212(2)
H4 H -0.39220 0.75730 -0.00160
C6 C -0.2850(8) 0.8232(5) -0.0864(2)
C7 C -0.1161(8) 0.8958(5) -0.1166(2)
H5 H -0.11710 0.90390 -0.16210
C8 C 0.0495(8) 0.9545(5) -0.0798(2)
H6 H 0.16250 1.00330 -0.10030
C9 C 0.2236(8) 1.0099(5) 0.0256(2)
H7 H 0.33700 1.05730 0.00480
C10 C 0.2268(8) 1.0073(5) 0.0901(2)
H8 H 0.34190 1.05300 0.11370
C11 C -0.1092(7) 0.8629(5) 0.0877(2)
C12 C -0.1126(8) 0.8706(5) 0.0183(2)
C13 C 0.0550(8) 0.9438(5) -0.0126(2)
C14 C 0.0593(8) 0.9366(5) 0.1242(2)
C15 C 0.2351(9) 1.0185(6) 0.2306(2)
H9 H 0.21100 1.00720 0.27650
H10 H 0.23700 1.13260 0.21920
H11 H 0.36910 0.96970 0.22120
C16 C -0.4659(8) 0.7605(6) -0.1279(2)
H12 H -0.59230 0.76050 -0.10320
H13 H -0.43580 0.65080 -0.14170
H14 H -0.48690 0.82950 -0.16570
C17 C 0.5462(8) 0.3662(5) 0.1374(2)
C18 C 0.3913(9) 0.4454(5) 0.1675(2)
H15 H 0.39630 0.45200 0.21300
C19 C 0.2249(9) 0.5173(5) 0.1321(2)
H16 H 0.12060 0.57370 0.15380
C20 C 0.2123(8) 0.5065(5) 0.0666(2)
H17 H 0.09900 0.55610 0.04350
C21 C 0.1796(8) 0.4578(5) -0.0750(2)
H18 H 0.07090 0.51430 -0.05530
C22 C 0.1652(8) 0.4340(5) -0.1402(2)
C23 C 0.3197(8) 0.3429(5) -0.1692(2)
H19 H 0.30760 0.32030 -0.21390
C24 C 0.4876(8) 0.2867(5) -0.1330(2)
H20 H 0.59270 0.22740 -0.15320
C25 C 0.6845(8) 0.2599(5) -0.0290(2)
H21 H 0.79540 0.20970 -0.05000
C26 C 0.6984(8) 0.2774(5) 0.0358(2)
H22 H 0.81650 0.23620 0.05930
C27 C 0.3632(8) 0.4236(5) 0.0326(2)
C28 C 0.3483(7) 0.4021(5) -0.0361(2)
C29 C 0.5068(8) 0.3153(5) -0.0666(2)
C30 C 0.5376(8) 0.3570(5) 0.0694(2)
C31 C 0.7217(9) 0.2888(6) 0.1762(2)
H23 H 0.85410 0.33720 0.16500
H24 H 0.72430 0.17360 0.16700
H25 H 0.70090 0.30530 0.22200
C32 C -0.0101(8) 0.5033(6) -0.1813(2)
H26 H -0.13760 0.50390 -0.15720
H27 H -0.03180 0.43790 -0.22010
H28 H 0.02470 0.61340 -0.19340
loop_
_geom_bond_atom_site_label_1
_geom_bond_atom_site_label_2
_geom_bond_distance
_geom_bond_site_symmetry_1
_geom_bond_site_symmetry_2
C1 C2 1.383 1_555 1_555
C2 H1 0.948 1_555 1_555
C3 C2 1.407 1_555 1_555
H2 C3 0.950 1_555 1_555
C4 C3 1.354 1_555 1_555
H3 C4 0.950 1_555 1_555
C5 H4 0.950 1_555 1_555
C6 C5 1.363 1_555 1_555
C7 C6 1.415 1_555 1_555
H5 C7 0.951 1_555 1_555
C8 C7 1.374 1_555 1_555
H6 C8 0.950 1_555 1_555
C9 H7 0.950 1_555 1_555
C10 C9 1.344 1_555 1_555
H8 C10 0.950 1_555 1_555
C11 C4 1.412 1_555 1_555
C12 C5 1.420 1_555 1_555
C13 C8 1.403 1_555 1_555
C14 C1 1.413 1_555 1_555
C15 C1 1.510 1_555 1_555
H9 C15 0.981 1_555 1_555
H10 C15 0.980 1_555 1_555
H11 C15 0.980 1_555 1_555
C16 C6 1.512 1_555 1_555
H12 C16 0.981 1_555 1_555
H13 C16 0.980 1_555 1_555
H14 C16 0.980 1_555 1_555
C17 C18 1.369 1_555 1_555
C18 H15 0.949 1_555 1_555
C19 C18 1.406 1_555 1_555
H16 C19 0.950 1_555 1_555
C20 C19 1.368 1_555 1_555
H17 C20 0.950 1_555 1_555
C21 H18 0.951 1_555 1_555
C22 C21 1.373 1_555 1_555
C23 C22 1.407 1_555 1_555
H19 C23 0.951 1_555 1_555
C24 C23 1.372 1_555 1_555
H20 C24 0.950 1_555 1_555
C25 H21 0.950 1_555 1_555
C26 C25 1.358 1_555 1_555
H22 C26 0.949 1_555 1_555
C27 C20 1.407 1_555 1_555
C28 C21 1.404 1_555 1_555
C29 C24 1.405 1_555 1_555
C30 C17 1.419 1_555 1_555
C31 C17 1.504 1_555 1_555
H23 C31 0.979 1_555 1_555
H24 C31 0.979 1_555 1_555
H25 C31 0.980 1_555 1_555
C32 C22 1.501 1_555 1_555
H26 C32 0.980 1_555 1_555
H27 C32 0.980 1_555 1_555
H28 C32 0.980 1_555 1_555
C9 C13 1.427 1_555 1_555
C10 C14 1.442 1_555 1_555
C11 C12 1.448 1_555 1_555
C11 C14 1.434 1_555 1_555
C12 C13 1.417 1_555 1_555
C25 C29 1.433 1_555 1_555
C26 C30 1.436 1_555 1_555
C27 C28 1.443 1_555 1_555
C27 C30 1.441 1_555 1_555
C28 C29 1.422 1_555 1_555
#END
