
#######################################################################
#
#                 Cambridge Crystallographic Data Centre
#                                CCDC
#
#######################################################################
#
# If this CIF has been generated from an entry in the Cambridge
# Structural Database, then it will include bibliographic, chemical,
# crystal, experimental, refinement or atomic coordinate data resulting
# from the CCDC's data processing and validation procedures.
#
#######################################################################

data_CSD_CIF_MACSAM
_audit_creation_date 2011-03-31
_audit_creation_method CSD-ConQuest-V1
_database_code_CSD MACSAM
_database_code_depnum_ccdc_archive 'CCDC 765306'
_chemical_formula_sum 'C35 H34'
_chemical_formula_moiety
;
C35 H34
;
_journal_coden_Cambridge 1336
_journal_volume 12
_journal_year 2010
_journal_page_first 3874
_journal_name_full 'Org.Lett. '
loop_
_publ_author_name
"Jing Wang"
"Wen Wan"
"Haizhen Jiang"
"Yan Gao"
"Xueyin Jiang"
"Huaping Lin"
"Weiming Zhao"
"Jian Hao"
_chemical_name_systematic
;
2,6-Di-t-butyl-9-(9H-fluoren-9-yl)anthracene
;
_cell_volume   2617.069
_exptl_crystal_density_diffrn 1.154
_exptl_crystal_preparation 'pentane'
_diffrn_ambient_temperature 296
#These two values have been output from a single CSD field.
_refine_ls_R_factor_gt 0.0545
_refine_ls_wR_factor_gt 0.0545
_symmetry_cell_setting monoclinic
_symmetry_space_group_name_H-M 'P 21/c'
_symmetry_Int_Tables_number 14
loop_
_symmetry_equiv_pos_site_id
_symmetry_equiv_pos_as_xyz
1 x,y,z
2 -x,1/2+y,1/2-z
3 -x,-y,-z
4 x,-1/2-y,-1/2+z
_cell_length_a 17.740(3)
_cell_length_b 16.318(2)
_cell_length_c 9.1125(13)
_cell_angle_alpha 90
_cell_angle_beta 97.205(2)
_cell_angle_gamma 90
_cell_formula_units_Z 4
loop_
_atom_type_symbol
_atom_type_radius_bond
C 0.68
H 0.23
loop_
_atom_site_label
_atom_site_type_symbol
_atom_site_fract_x
_atom_site_fract_y
_atom_site_fract_z
C1 C 0.21143(12) 0.38550(13) 0.7863(2)
C2 C 0.13412(13) 0.36650(14) 0.7381(3)
H1 H 0.10830 0.33130 0.79460
C3 C 0.09711(12) 0.39822(13) 0.6124(2)
H2 H 0.04640 0.38450 0.58480
C4 C 0.13374(11) 0.45220(12) 0.5210(2)
C5 C 0.09576(12) 0.48704(13) 0.3941(2)
H3 H 0.04420 0.47650 0.36950
C6 C 0.13269(11) 0.53743(12) 0.3021(2)
C7 C 0.09314(12) 0.57262(12) 0.1717(2)
H4 H 0.04110 0.56380 0.15160
C8 C 0.12782(12) 0.61851(12) 0.0751(2)
C9 C 0.20775(13) 0.62891(14) 0.1096(3)
H5 H 0.23370 0.65750 0.04330
C10 C 0.24746(12) 0.59936(13) 0.2337(2)
H6 H 0.29940 0.60970 0.25120
C11 C 0.21255(11) 0.55249(12) 0.3400(2)
C12 C 0.25126(11) 0.52117(12) 0.4722(2)
C13 C 0.21224(11) 0.47045(12) 0.5638(2)
C14 C 0.24757(11) 0.43615(13) 0.6989(2)
H7 H 0.29820 0.44910 0.72920
C15 C 0.25020(13) 0.35118(14) 0.9328(3)
C16 C 0.2430(2) 0.25864(18) 0.9345(4)
H8 H 0.19020 0.24370 0.92100
H9 H 0.26660 0.23780 1.02760
H10 H 0.26760 0.23570 0.85590
C17 C 0.21116(18) 0.3851(2) 1.0590(3)
H11 H 0.15930 0.36690 1.04850
H12 H 0.21250 0.44390 1.05660
H13 H 0.23700 0.36610 1.15150
C18 C 0.33362(16) 0.3737(3) 0.9618(4)
H14 H 0.35500 0.35180 1.05570
H15 H 0.33880 0.43220 0.96300
H16 H 0.35990 0.35120 0.88520
C19 C 0.08752(13) 0.65468(13) -0.0677(2)
C20 C 0.00123(14) 0.65168(18) -0.0732(3)
H17 H -0.01490 0.59580 -0.06730
H18 H -0.02190 0.67540 -0.16430
H19 H -0.01380 0.68200 0.00860
C21 C 0.11007(16) 0.60515(17) -0.1980(3)
H20 H 0.16420 0.60740 -0.19740
H21 H 0.08560 0.62780 -0.28900
H22 H 0.09450 0.54920 -0.18940
C22 C 0.11072(17) 0.74418(15) -0.0847(3)
H23 H 0.09940 0.77500 -0.00040
H24 H 0.08310 0.76660 -0.17290
H25 H 0.16420 0.74700 -0.09140
C23 C 0.33439(11) 0.54240(13) 0.5179(2)
H26 H 0.35030 0.57570 0.43770
C24 C 0.39113(12) 0.47271(14) 0.5432(3)
C25 C 0.39875(14) 0.40409(15) 0.4578(3)
H27 H 0.36580 0.39490 0.37160
C26 C 0.45643(16) 0.34929(17) 0.5033(4)
H28 H 0.46200 0.30240 0.44770
C27 C 0.50579(15) 0.36329(18) 0.6299(4)
H29 H 0.54400 0.32550 0.65880
C28 C 0.49948(13) 0.43204(16) 0.7142(3)
H30 H 0.53360 0.44170 0.79850
C29 C 0.44121(12) 0.48681(14) 0.6712(3)
C30 C 0.41734(11) 0.56110(14) 0.7428(3)
C31 C 0.44562(14) 0.59888(16) 0.8748(3)
H31 H 0.48930 0.57910 0.93080
C32 C 0.40817(16) 0.66600(16) 0.9215(3)
H32 H 0.42620 0.69090 1.01090
C33 C 0.34423(15) 0.69684(15) 0.8376(3)
H33 H 0.31980 0.74240 0.87070
C34 C 0.31622(13) 0.66044(13) 0.7047(3)
H34 H 0.27350 0.68160 0.64760
C35 C 0.35256(11) 0.59239(13) 0.6585(2)
loop_
_geom_bond_atom_site_label_1
_geom_bond_atom_site_label_2
_geom_bond_distance
_geom_bond_site_symmetry_1
_geom_bond_site_symmetry_2
C1 C2 1.421 1_555 1_555
C2 H1 0.929 1_555 1_555
C3 C2 1.350 1_555 1_555
H2 C3 0.931 1_555 1_555
C4 C3 1.424 1_555 1_555
C5 C4 1.385 1_555 1_555
H3 C5 0.930 1_555 1_555
C6 C5 1.395 1_555 1_555
C7 C6 1.423 1_555 1_555
H4 C7 0.930 1_555 1_555
C8 C7 1.360 1_555 1_555
C9 C8 1.424 1_555 1_555
H5 C9 0.930 1_555 1_555
C10 C9 1.345 1_555 1_555
H6 C10 0.931 1_555 1_555
C11 C6 1.437 1_555 1_555
C12 C11 1.406 1_555 1_555
C13 C4 1.430 1_555 1_555
C14 C1 1.363 1_555 1_555
H7 C14 0.930 1_555 1_555
C15 C1 1.529 1_555 1_555
C16 C15 1.516 1_555 1_555
H8 C16 0.961 1_555 1_555
H9 C16 0.960 1_555 1_555
H10 C16 0.960 1_555 1_555
C17 C15 1.519 1_555 1_555
H11 C17 0.960 1_555 1_555
H12 C17 0.960 1_555 1_555
H13 C17 0.959 1_555 1_555
C18 C15 1.516 1_555 1_555
H14 C18 0.960 1_555 1_555
H15 C18 0.959 1_555 1_555
H16 C18 0.960 1_555 1_555
C19 C8 1.523 1_555 1_555
C20 C19 1.526 1_555 1_555
H17 C20 0.959 1_555 1_555
H18 C20 0.960 1_555 1_555
H19 C20 0.960 1_555 1_555
C21 C19 1.530 1_555 1_555
H20 C21 0.960 1_555 1_555
H21 C21 0.960 1_555 1_555
H22 C21 0.960 1_555 1_555
C22 C19 1.530 1_555 1_555
H23 C22 0.960 1_555 1_555
H24 C22 0.960 1_555 1_555
H25 C22 0.959 1_555 1_555
C23 C12 1.521 1_555 1_555
H26 C23 0.980 1_555 1_555
C24 C23 1.517 1_555 1_555
C25 C24 1.380 1_555 1_555
H27 C25 0.931 1_555 1_555
C26 C25 1.383 1_555 1_555
H28 C26 0.930 1_555 1_555
C27 C26 1.377 1_555 1_555
H29 C27 0.930 1_555 1_555
C28 C27 1.372 1_555 1_555
H30 C28 0.930 1_555 1_555
C29 C24 1.394 1_555 1_555
C30 C29 1.464 1_555 1_555
C31 C30 1.388 1_555 1_555
H31 C31 0.931 1_555 1_555
C32 C31 1.376 1_555 1_555
H32 C32 0.930 1_555 1_555
C33 C32 1.381 1_555 1_555
H33 C33 0.930 1_555 1_555
C34 C33 1.384 1_555 1_555
H34 C34 0.930 1_555 1_555
C35 C23 1.519 1_555 1_555
C10 C11 1.434 1_555 1_555
C12 C13 1.416 1_555 1_555
C13 C14 1.424 1_555 1_555
C28 C29 1.385 1_555 1_555
C30 C35 1.396 1_555 1_555
C34 C35 1.376 1_555 1_555
#END
