
#######################################################################
#
#                 Cambridge Crystallographic Data Centre
#                                CCDC
#
#######################################################################
#
# If this CIF has been generated from an entry in the Cambridge
# Structural Database, then it will include bibliographic, chemical,
# crystal, experimental, refinement or atomic coordinate data resulting
# from the CCDC's data processing and validation procedures.
#
#######################################################################

data_CSD_CIF_MAHWIE
_audit_creation_date 2016-03-01
_audit_creation_method CSD-ConQuest-V1
_database_code_CSD MAHWIE
_database_code_depnum_ccdc_archive 'CCDC 1430562'
_chemical_formula_sum 'C30 H22'
_chemical_formula_moiety
;
C30 H22
;
_journal_coden_Cambridge 1350
_journal_volume 18
_journal_year 2016
_journal_page_first 2098
_journal_name_full 'CrystEngComm '
loop_
_publ_author_name
"Ye-Xin Li"
"Xiao-Feng Yang"
"Jin-Ling Miao"
"Zhen-Wei Zhang"
"Guo-Xin Sun"
_chemical_name_systematic
;
9-(2-(3-(2-phenylvinyl)phenyl)vinyl)anthracene
;
_cell_volume   4240.446
_exptl_crystal_colour 'yellow'
_exptl_crystal_density_diffrn 1.198
_diffrn_ambient_temperature 293.1
#These two values have been output from a single CSD field.
_refine_ls_R_factor_gt 0.0448
_refine_ls_wR_factor_gt 0.0448
_symmetry_cell_setting monoclinic
_symmetry_space_group_name_H-M 'P 2/c'
_symmetry_Int_Tables_number 13
loop_
_symmetry_equiv_pos_site_id
_symmetry_equiv_pos_as_xyz
1 x,y,z
2 -x,y,1/2-z
3 -x,-y,-z
4 x,-y,-1/2+z
_cell_length_a 22.1305(4)
_cell_length_b 5.90728(9)
_cell_length_c 33.8663(6)
_cell_angle_alpha 90
_cell_angle_beta 106.7088(18)
_cell_angle_gamma 90
_cell_formula_units_Z 8
loop_
_atom_type_symbol
_atom_type_radius_bond
C 0.68
H 0.23
loop_
_atom_site_label
_atom_site_type_symbol
_atom_site_fract_x
_atom_site_fract_y
_atom_site_fract_z
C1 C 1.04929(8) 0.8456(3) 0.44453(5)
C2 C 1.05172(9) 0.6595(4) 0.47160(6)
H1 H 1.01740 0.56180 0.46680
C3 C 1.10304(11) 0.6214(4) 0.50434(7)
H2 H 1.10350 0.49820 0.52150
C4 C 1.15531(10) 0.7667(4) 0.51241(7)
H3 H 1.19020 0.73870 0.53490
C5 C 1.15546(9) 0.9455(4) 0.48813(6)
H4 H 1.19040 1.04060 0.49410
C6 C 1.10268(8) 0.9926(3) 0.45313(6)
C7 C 1.10255(9) 1.1740(3) 0.42744(6)
H5 H 1.13680 1.27240 0.43370
C8 C 1.05239(9) 1.2134(3) 0.39234(6)
C9 C 1.05352(11) 1.3925(4) 0.36456(8)
H6 H 1.08720 1.49320 0.37100
C10 C 1.00700(12) 1.4201(4) 0.32924(8)
H7 H 1.00920 1.53730 0.31140
C11 C 0.95488(11) 1.2719(4) 0.31920(7)
H8 H 0.92330 1.29020 0.29450
C12 C 0.95046(9) 1.1028(3) 0.34533(6)
H9 H 0.91520 1.00930 0.33860
C13 C 0.99886(8) 1.0655(3) 0.38300(6)
C14 C 0.99719(8) 0.8851(3) 0.40999(5)
C15 C 0.94133(8) 0.7336(3) 0.40160(6)
H10 H 0.94650 0.58430 0.39440
C16 C 0.88615(8) 0.7942(3) 0.40351(6)
H11 H 0.88230 0.94380 0.41100
C17 C 0.82847(7) 0.6549(3) 0.39524(5)
C18 C 0.82247(8) 0.4454(3) 0.37529(6)
H12 H 0.85590 0.38800 0.36690
C19 C 0.76731(8) 0.3239(3) 0.36806(5)
H13 H 0.76360 0.18500 0.35460
C20 C 0.71732(8) 0.4063(3) 0.38057(5)
H14 H 0.68060 0.32120 0.37590
C21 C 0.72136(7) 0.6152(3) 0.40012(5)
C22 C 0.77766(7) 0.7351(3) 0.40705(5)
H15 H 0.78120 0.87480 0.42020
C23 C 0.66625(8) 0.7028(3) 0.41119(5)
H16 H 0.63060 0.61100 0.40510
C24 C 0.66233(8) 0.8979(3) 0.42888(5)
H17 H 0.69860 0.98630 0.43560
C25 C 0.60758(8) 0.9933(3) 0.43931(5)
C26 C 0.54804(9) 0.8949(4) 0.42816(6)
H18 H 0.54130 0.76150 0.41290
C27 C 0.49902(10) 0.9921(4) 0.43934(7)
H19 H 0.45950 0.92370 0.43160
C28 C 0.50773(11) 1.1886(4) 0.46175(7)
H20 H 0.47440 1.25340 0.46930
C29 C 0.56579(12) 1.2884(4) 0.47291(7)
H21 H 0.57200 1.42180 0.48820
C30 C 0.6152(1) 1.1930(4) 0.46175(7)
H22 H 0.65440 1.26370 0.46940
C31 C 0.19014(8) 0.5789(3) 0.31498(6)
C32 C 0.15919(9) 0.6081(4) 0.27205(6)
H23 H 0.16870 0.51010 0.25320
C33 C 0.11647(11) 0.7744(4) 0.25810(8)
H24 H 0.09630 0.78630 0.23000
C34 C 0.10207(12) 0.9302(4) 0.28563(10)
H25 H 0.07310 1.04540 0.27570
C35 C 0.13040(11) 0.9118(4) 0.32642(9)
H26 H 0.12100 1.01630 0.34430
C36 C 0.17444(9) 0.7360(3) 0.34270(6)
C37 C 0.20104(10) 0.7082(4) 0.38485(7)
H27 H 0.19210 0.81360 0.40280
C38 C 0.24040(9) 0.5285(4) 0.40090(6)
C39 C 0.26517(11) 0.4926(5) 0.44436(7)
H28 H 0.25530 0.59510 0.46240
C40 C 0.30211(12) 0.3161(5) 0.45968(7)
H29 H 0.31720 0.29660 0.48810
C41 C 0.31827(10) 0.1596(5) 0.43319(7)
H30 H 0.34380 0.03660 0.44420
C42 C 0.29684(9) 0.1863(4) 0.39154(7)
H31 H 0.30880 0.08270 0.37450
C43 C 0.25649(8) 0.3699(3) 0.37354(6)
C44 C 0.23270(8) 0.4010(3) 0.33059(5)
C45 C 0.25246(9) 0.2456(3) 0.30240(5)
H32 H 0.24040 0.09460 0.30190
C46 C 0.28591(8) 0.3087(3) 0.27815(5)
H33 H 0.29760 0.46030 0.27960
C47 C 0.30728(8) 0.1684(3) 0.24873(5)
C48 C 0.28016(9) -0.0403(3) 0.23440(5)
H34 H 0.24690 -0.09540 0.24320
C49 C 0.30262(9) -0.1649(3) 0.20723(5)
H35 H 0.28440 -0.30400 0.19780
C50 C 0.35179(9) -0.0850(3) 0.19388(5)
H36 H 0.36680 -0.17220 0.17580
C51 C 0.37948(8) 0.1236(3) 0.20688(5)
C52 C 0.35634(8) 0.2469(3) 0.23468(5)
H37 H 0.37450 0.38610 0.24400
C53 C 0.42929(8) 0.2088(3) 0.19007(5)
H38 H 0.44280 0.11150 0.17270
C54 C 0.45695(8) 0.4085(3) 0.19690(5)
H39 H 0.44390 0.50380 0.21470
C55 C 0.50591(8) 0.4984(3) 0.17970(5)
C56 C 0.52638(9) 0.3857(3) 0.14983(6)
H40 H 0.50780 0.24890 0.13930
C57 C 0.57372(10) 0.4737(4) 0.13562(7)
H41 H 0.58710 0.39470 0.11590
C58 C 0.60146(10) 0.6761(4) 0.15009(8)
H42 H 0.63360 0.73410 0.14040
C59 C 0.58133(10) 0.7925(4) 0.17905(7)
H43 H 0.59960 0.93090 0.18890
C60 C 0.53400(9) 0.7047(3) 0.19367(6)
H44 H 0.52070 0.78540 0.21320
loop_
_geom_bond_atom_site_label_1
_geom_bond_atom_site_label_2
_geom_bond_distance
_geom_bond_site_symmetry_1
_geom_bond_site_symmetry_2
C1 C2 1.423 1_555 1_555
C2 H1 0.930 1_555 1_555
C3 C2 1.359 1_555 1_555
H2 C3 0.930 1_555 1_555
C4 C3 1.403 1_555 1_555
H3 C4 0.930 1_555 1_555
C5 C4 1.339 1_555 1_555
H4 C5 0.930 1_555 1_555
C6 C1 1.427 1_555 1_555
C7 C6 1.380 1_555 1_555
H5 C7 0.930 1_555 1_555
C8 C7 1.393 1_555 1_555
C9 C8 1.421 1_555 1_555
H6 C9 0.929 1_555 1_555
C10 C9 1.345 1_555 1_555
H7 C10 0.929 1_555 1_555
C11 C10 1.410 1_555 1_555
H8 C11 0.929 1_555 1_555
C12 C11 1.357 1_555 1_555
H9 C12 0.929 1_555 1_555
C13 C8 1.432 1_555 1_555
C14 C1 1.406 1_555 1_555
C15 C14 1.486 1_555 1_555
H10 C15 0.931 1_555 1_555
C16 C15 1.292 1_555 1_555
H11 C16 0.930 1_555 1_555
C17 C16 1.476 1_555 1_555
C18 C17 1.398 1_555 1_555
H12 C18 0.929 1_555 1_555
C19 C18 1.376 1_555 1_555
H13 C19 0.931 1_555 1_555
C20 C19 1.382 1_555 1_555
H14 C20 0.930 1_555 1_555
C21 C20 1.391 1_555 1_555
C22 C17 1.381 1_555 1_555
H15 C22 0.930 1_555 1_555
C23 C21 1.469 1_555 1_555
H16 C23 0.930 1_555 1_555
C24 C23 1.313 1_555 1_555
H17 C24 0.929 1_555 1_555
C25 C24 1.469 1_555 1_555
C26 C25 1.389 1_555 1_555
H18 C26 0.931 1_555 1_555
C27 C26 1.373 1_555 1_555
H19 C27 0.930 1_555 1_555
C28 C27 1.370 1_555 1_555
H20 C28 0.930 1_555 1_555
C29 C28 1.365 1_555 1_555
H21 C29 0.931 1_555 1_555
C30 C25 1.387 1_555 1_555
H22 C30 0.930 1_555 1_555
C31 C32 1.428 1_555 1_555
C32 H23 0.930 1_555 1_555
C33 C32 1.351 1_555 1_555
H24 C33 0.930 1_555 1_555
C34 C33 1.410 1_555 1_555
H25 C34 0.929 1_555 1_555
C35 C34 1.347 1_555 1_555
H26 C35 0.929 1_555 1_555
C36 C31 1.432 1_555 1_555
C37 C36 1.389 1_555 1_555
H27 C37 0.930 1_555 1_555
C38 C37 1.382 1_555 1_555
C39 C38 1.431 1_555 1_555
H28 C39 0.930 1_555 1_555
C40 C39 1.334 1_555 1_555
H29 C40 0.931 1_555 1_555
C41 C40 1.404 1_555 1_555
H30 C41 0.930 1_555 1_555
C42 C41 1.362 1_555 1_555
H31 C42 0.930 1_555 1_555
C43 C38 1.433 1_555 1_555
C44 C31 1.409 1_555 1_555
C45 C44 1.478 1_555 1_555
H32 C45 0.930 1_555 1_555
C46 C45 1.308 1_555 1_555
H33 C46 0.930 1_555 1_555
C47 C46 1.475 1_555 1_555
C48 C47 1.396 1_555 1_555
H34 C48 0.929 1_555 1_555
C49 C48 1.378 1_555 1_555
H35 C49 0.930 1_555 1_555
C50 C49 1.376 1_555 1_555
H36 C50 0.931 1_555 1_555
C51 C50 1.390 1_555 1_555
C52 C47 1.385 1_555 1_555
H37 C52 0.930 1_555 1_555
C53 C51 1.467 1_555 1_555
H38 C53 0.931 1_555 1_555
C54 C53 1.319 1_555 1_555
H39 C54 0.929 1_555 1_555
C55 C54 1.469 1_555 1_555
C56 C55 1.391 1_555 1_555
H40 C56 0.930 1_555 1_555
C57 C56 1.375 1_555 1_555
H41 C57 0.930 1_555 1_555
C58 C57 1.369 1_555 1_555
H42 C58 0.930 1_555 1_555
C59 C58 1.373 1_555 1_555
H43 C59 0.930 1_555 1_555
C60 C55 1.388 1_555 1_555
H44 C60 0.929 1_555 1_555
C5 C6 1.432 1_555 1_555
C12 C13 1.427 1_555 1_555
C13 C14 1.411 1_555 1_555
C21 C22 1.393 1_555 1_555
C29 C30 1.376 1_555 1_555
C35 C36 1.422 1_555 1_555
C42 C43 1.426 1_555 1_555
C43 C44 1.409 1_555 1_555
C51 C52 1.399 1_555 1_555
C59 C60 1.382 1_555 1_555
#END
