
#######################################################################
#
#                 Cambridge Crystallographic Data Centre
#                                CCDC
#
#######################################################################
#
# If this CIF has been generated from an entry in the Cambridge
# Structural Database, then it will include bibliographic, chemical,
# crystal, experimental, refinement or atomic coordinate data resulting
# from the CCDC's data processing and validation procedures.
#
#######################################################################

data_CSD_CIF_MAHWEA
_audit_creation_date 2016-03-01
_audit_creation_method CSD-ConQuest-V1
_database_code_CSD MAHWEA
_database_code_depnum_ccdc_archive 'CCDC 1430563'
_chemical_formula_sum 'C30 H22'
_chemical_formula_moiety
;
C30 H22
;
_journal_coden_Cambridge 1350
_journal_volume 18
_journal_year 2016
_journal_page_first 2098
_journal_name_full 'CrystEngComm '
loop_
_publ_author_name
"Ye-Xin Li"
"Xiao-Feng Yang"
"Jin-Ling Miao"
"Zhen-Wei Zhang"
"Guo-Xin Sun"
_chemical_name_systematic
;
9-(2-(2-(2-phenylvinyl)phenyl)vinyl)anthracene
;
_cell_volume   4217.139
_exptl_crystal_colour 'yellow'
_exptl_crystal_density_diffrn 1.205
_diffrn_ambient_temperature 293.1
#These two values have been output from a single CSD field.
_refine_ls_R_factor_gt 0.0484
_refine_ls_wR_factor_gt 0.0484
_symmetry_cell_setting orthorhombic
_symmetry_space_group_name_H-M 'P c c n'
_symmetry_Int_Tables_number 56
loop_
_symmetry_equiv_pos_site_id
_symmetry_equiv_pos_as_xyz
1 x,y,z
2 1/2-x,1/2-y,z
3 1/2+x,-y,1/2-z
4 -x,1/2+y,1/2-z
5 -x,-y,-z
6 -1/2+x,-1/2+y,-z
7 -1/2-x,y,-1/2+z
8 x,-1/2-y,-1/2+z
_cell_length_a 32.3617(7)
_cell_length_b 18.5058(5)
_cell_length_c 7.04172(13)
_cell_angle_alpha 90
_cell_angle_beta 90
_cell_angle_gamma 90
_cell_formula_units_Z 8
loop_
_atom_type_symbol
_atom_type_radius_bond
C 0.68
H 0.23
loop_
_atom_site_label
_atom_site_type_symbol
_atom_site_fract_x
_atom_site_fract_y
_atom_site_fract_z
C1 C 0.67958(5) 0.92520(12) 0.2346(3)
C2 C 0.67446(6) 0.84864(13) 0.2280(3)
H1 H 0.65920 0.82590 0.32250
C3 C 0.69141(7) 0.80830(16) 0.0870(4)
H2 H 0.68810 0.75840 0.08760
C4 C 0.71401(8) 0.8416(2) -0.0607(4)
H3 H 0.72540 0.81370 -0.15730
C5 C 0.71910(7) 0.9134(2) -0.0616(4)
H4 H 0.73340 0.93470 -0.16170
C6 C 0.70337(5) 0.95809(16) 0.0855(3)
C7 C 0.71203(6) 1.03171(16) 0.0940(3)
H5 H 0.72680 1.05310 -0.00450
C8 C 0.69930(5) 1.07387(13) 0.2451(3)
C9 C 0.70961(7) 1.14909(16) 0.2574(5)
H6 H 0.72570 1.17010 0.16280
C10 C 0.69644(8) 1.18967(16) 0.4031(5)
H7 H 0.70350 1.23830 0.40900
C11 C 0.67216(8) 1.15936(14) 0.5457(4)
H8 H 0.66300 1.18820 0.64530
C12 C 0.66167(6) 1.08849(13) 0.5417(3)
H9 H 0.64530 1.06970 0.63830
C13 C 0.67514(5) 1.04234(11) 0.3928(3)
C14 C 0.66452(5) 0.96820(11) 0.3839(2)
C15 C 0.63833(5) 0.93748(10) 0.5352(2)
H10 H 0.64770 0.94280 0.65930
C16 C 0.60312(5) 0.90338(10) 0.5125(2)
H11 H 0.59310 0.89870 0.38930
C17 C 0.57828(5) 0.87191(8) 0.6670(2)
C18 C 0.59804(6) 0.84561(10) 0.8290(2)
H12 H 0.62670 0.84820 0.83660
C19 C 0.57634(6) 0.81598(10) 0.9778(2)
H13 H 0.59020 0.79860 1.08400
C20 C 0.53392(6) 0.81226(10) 0.9685(2)
H14 H 0.51900 0.79300 1.06930
C21 C 0.51367(5) 0.83716(9) 0.8094(2)
H15 H 0.48500 0.83460 0.80480
C22 C 0.53499(5) 0.86616(8) 0.6546(2)
C23 C 0.51230(5) 0.89086(9) 0.4861(2)
H16 H 0.52350 0.92920 0.41780
C24 C 0.47711(5) 0.86282(10) 0.4238(3)
H17 H 0.46630 0.82480 0.49420
C25 C 0.45342(5) 0.88505(10) 0.2566(3)
C26 C 0.45846(7) 0.95215(11) 0.1723(3)
H18 H 0.47720 0.98490 0.22390
C27 C 0.43630(8) 0.97110(15) 0.0138(4)
H19 H 0.44000 1.01650 -0.04030
C28 C 0.40875(8) 0.92377(19) -0.0654(4)
H20 H 0.39400 0.93680 -0.17340
C29 C 0.40305(7) 0.85735(18) 0.0151(4)
H21 H 0.38430 0.82510 -0.03840
C30 C 0.42505(6) 0.83766(13) 0.1760(3)
H22 H 0.42080 0.79250 0.23030
loop_
_geom_bond_atom_site_label_1
_geom_bond_atom_site_label_2
_geom_bond_distance
_geom_bond_site_symmetry_1
_geom_bond_site_symmetry_2
C1 C2 1.427 1_555 1_555
C2 H1 0.929 1_555 1_555
C3 C2 1.358 1_555 1_555
H2 C3 0.930 1_555 1_555
C4 C3 1.413 1_555 1_555
H3 C4 0.930 1_555 1_555
C5 C4 1.339 1_555 1_555
H4 C5 0.931 1_555 1_555
C6 C1 1.437 1_555 1_555
C7 C6 1.392 1_555 1_555
H5 C7 0.931 1_555 1_555
C8 C7 1.382 1_555 1_555
C9 C8 1.434 1_555 1_555
H6 C9 0.931 1_555 1_555
C10 C9 1.341 1_555 1_555
H7 C10 0.929 1_555 1_555
C11 C10 1.393 1_555 1_555
H8 C11 0.930 1_555 1_555
C12 C11 1.355 1_555 1_555
H9 C12 0.930 1_555 1_555
C13 C8 1.426 1_555 1_555
C14 C1 1.406 1_555 1_555
C15 C14 1.475 1_555 1_555
H10 C15 0.930 1_555 1_555
C16 C15 1.312 1_555 1_555
H11 C16 0.930 1_555 1_555
C17 C16 1.473 1_555 1_555
C18 C17 1.395 1_555 1_555
H12 C18 0.930 1_555 1_555
C19 C18 1.375 1_555 1_555
H13 C19 0.929 1_555 1_555
C20 C19 1.376 1_555 1_555
H14 C20 0.930 1_555 1_555
C21 C20 1.377 1_555 1_555
H15 C21 0.930 1_555 1_555
C22 C17 1.408 1_555 1_555
C23 C22 1.468 1_555 1_555
H16 C23 0.931 1_555 1_555
C24 C23 1.326 1_555 1_555
H17 C24 0.929 1_555 1_555
C25 C24 1.464 1_555 1_555
C26 C25 1.386 1_555 1_555
H18 C26 0.931 1_555 1_555
C27 C26 1.372 1_555 1_555
H19 C27 0.930 1_555 1_555
C28 C27 1.369 1_555 1_555
H20 C28 0.930 1_555 1_555
C29 C28 1.366 1_555 1_555
H21 C29 0.931 1_555 1_555
C30 C25 1.391 1_555 1_555
H22 C30 0.929 1_555 1_555
C5 C6 1.420 1_555 1_555
C12 C13 1.421 1_555 1_555
C13 C14 1.416 1_555 1_555
C21 C22 1.397 1_555 1_555
C29 C30 1.387 1_555 1_555
#END
