
#######################################################################
#
#                 Cambridge Crystallographic Data Centre
#                                CCDC
#
#######################################################################
#
# If this CIF has been generated from an entry in the Cambridge
# Structural Database, then it will include bibliographic, chemical,
# crystal, experimental, refinement or atomic coordinate data resulting
# from the CCDC's data processing and validation procedures.
#
#######################################################################

data_CSD_CIF_MAHWOK
_audit_creation_date 2016-03-01
_audit_creation_method CSD-ConQuest-V1
_database_code_CSD MAHWOK
_database_code_depnum_ccdc_archive 'CCDC 1430564'
_chemical_formula_sum 'C30 H22'
_chemical_formula_moiety
;
C30 H22
;
_journal_coden_Cambridge 1350
_journal_volume 18
_journal_year 2016
_journal_page_first 2098
_journal_name_full 'CrystEngComm '
loop_
_publ_author_name
"Ye-Xin Li"
"Xiao-Feng Yang"
"Jin-Ling Miao"
"Zhen-Wei Zhang"
"Guo-Xin Sun"
_chemical_name_systematic
;
9-(2-(4-(2-phenylvinyl)phenyl)vinyl)anthracene
;
_cell_volume   2067.209
_exptl_crystal_colour 'yellow'
_exptl_crystal_density_diffrn 1.229
_diffrn_ambient_temperature 293.1
#These two values have been output from a single CSD field.
_refine_ls_R_factor_gt 0.1011
_refine_ls_wR_factor_gt 0.1011
_symmetry_cell_setting triclinic
_symmetry_space_group_name_H-M 'P -1'
_symmetry_Int_Tables_number 2
loop_
_symmetry_equiv_pos_site_id
_symmetry_equiv_pos_as_xyz
1 x,y,z
2 -x,-y,-z
_cell_length_a 9.3498(16)
_cell_length_b 9.4481(18)
_cell_length_c 24.396(2)
_cell_angle_alpha 89.902(12)
_cell_angle_beta 81.207(12)
_cell_angle_gamma 76.231(16)
_cell_formula_units_Z 4
loop_
_atom_type_symbol
_atom_type_radius_bond
C 0.68
H 0.23
loop_
_atom_site_label
_atom_site_type_symbol
_atom_site_fract_x
_atom_site_fract_y
_atom_site_fract_z
C1 C 0.7384(7) 0.4174(8) 0.1418(2)
C2 C 0.6232(8) 0.3457(10) 0.1606(3)
H1 H 0.61340 0.31550 0.19700
C3 C 0.5278(8) 0.3197(10) 0.1280(3)
H2 H 0.45760 0.26760 0.14110
C4 C 0.5354(8) 0.3727(9) 0.0733(3)
H3 H 0.46670 0.35940 0.05110
C5 C 0.6414(7) 0.4417(8) 0.0534(3)
H4 H 0.64630 0.47360 0.01720
C6 C 0.7463(7) 0.4670(7) 0.0864(2)
C7 C 0.8543(7) 0.5401(7) 0.0663(2)
H5 H 0.85780 0.57300 0.03030
C8 C 0.9581(6) 0.5665(7) 0.0981(2)
C9 C 1.0703(8) 0.6386(8) 0.0767(3)
H6 H 1.07260 0.67360 0.04100
C10 C 1.1732(8) 0.6573(9) 0.1069(3)
H7 H 1.24570 0.70540 0.09220
C11 C 1.1711(8) 0.6026(9) 0.1621(3)
H8 H 1.24330 0.61450 0.18280
C12 C 1.0666(7) 0.5352(9) 0.1837(3)
H9 H 1.06780 0.50040 0.21940
C13 C 0.9532(7) 0.5150(7) 0.1537(2)
C14 C 0.8403(7) 0.4414(8) 0.1751(2)
C15 C 0.8346(8) 0.3799(10) 0.2315(3)
H10 H 0.86470 0.27870 0.23120
C16 C 0.7989(7) 0.4356(9) 0.2770(2)
H11 H 0.77030 0.53690 0.27700
C17 C 0.7908(6) 0.3767(7) 0.3331(2)
C18 C 0.8455(6) 0.2292(7) 0.3448(2)
H12 H 0.89010 0.16210 0.31570
C19 C 0.8343(6) 0.1826(7) 0.3982(2)
H13 H 0.87080 0.08450 0.40450
C20 C 0.7694(6) 0.2790(7) 0.4433(2)
C21 C 0.7165(7) 0.4236(7) 0.4314(2)
H14 H 0.67280 0.49110 0.46040
C22 C 0.7269(7) 0.4701(7) 0.3777(2)
H15 H 0.68920 0.56820 0.37160
C23 C 0.7644(7) 0.2166(9) 0.4994(3)
H16 H 0.80480 0.11680 0.50030
C24 C 0.7135(8) 0.2803(9) 0.5452(3)
H17 H 0.67280 0.38000 0.54420
C25 C 0.7087(7) 0.2189(8) 0.6014(3)
C26 C 0.7650(7) 0.0744(8) 0.6137(3)
H18 H 0.81260 0.00690 0.58500
C27 C 0.7513(7) 0.0290(8) 0.6680(3)
H19 H 0.78910 -0.06810 0.67560
C28 C 0.6813(7) 0.1290(8) 0.7107(3)
H20 H 0.67090 0.09970 0.74720
C29 C 0.6275(7) 0.2709(8) 0.6989(3)
H21 H 0.58080 0.33850 0.72760
C30 C 0.6415(7) 0.3150(7) 0.6452(3)
H22 H 0.60450 0.41260 0.63830
C31 C 0.0350(6) -0.0147(6) 0.8495(2)
C32 C -0.0799(7) -0.0419(7) 0.8220(3)
H23 H -0.08580 -0.00860 0.78630
C33 C -0.1804(8) -0.1139(9) 0.8454(3)
H24 H -0.25300 -0.13060 0.82590
C34 C -0.1751(8) -0.1643(8) 0.9004(3)
H25 H -0.24610 -0.21170 0.91700
C35 C -0.0678(8) -0.1435(8) 0.9282(3)
H26 H -0.06450 -0.17930 0.96360
C36 C 0.0412(7) -0.0677(7) 0.9048(2)
C37 C 0.1491(7) -0.0440(7) 0.9338(2)
H27 H 0.15150 -0.07830 0.96950
C38 C 0.2548(6) 0.0304(7) 0.9108(2)
C39 C 0.3652(7) 0.0547(8) 0.9415(3)
H28 H 0.36730 0.01920 0.97710
C40 C 0.4673(7) 0.1287(9) 0.9199(3)
H29 H 0.54030 0.14130 0.94010
C41 C 0.4622(7) 0.1868(8) 0.8664(3)
H30 H 0.52940 0.24100 0.85220
C42 C 0.3590(7) 0.1633(7) 0.8357(2)
H31 H 0.35790 0.20140 0.80060
C43 C 0.2531(6) 0.0821(7) 0.8560(2)
C44 C 0.1441(6) 0.0581(7) 0.8256(2)
C45 C 0.1346(7) 0.1094(7) 0.7682(2)
H32 H 0.04140 0.16170 0.76180
C46 C 0.2413(6) 0.0898(7) 0.7261(2)
H33 H 0.33550 0.04050 0.73260
C47 C 0.2285(6) 0.1374(6) 0.6692(2)
C48 C 0.3550(6) 0.1071(6) 0.6295(2)
H34 H 0.44590 0.06100 0.63990
C49 C 0.3501(6) 0.1438(7) 0.5747(2)
H35 H 0.43740 0.12120 0.54910
C50 C 0.2180(6) 0.2131(7) 0.5575(2)
C51 C 0.0903(6) 0.2430(7) 0.5967(2)
H36 H -0.00040 0.28880 0.58620
C52 C 0.0955(7) 0.2059(7) 0.6513(2)
H37 H 0.00780 0.22730 0.67680
C53 C 0.2055(7) 0.2586(7) 0.4999(2)
H38 H 0.10970 0.29390 0.49170
C54 C 0.3153(7) 0.2539(7) 0.4595(2)
H39 H 0.41070 0.22030 0.46820
C55 C 0.3065(7) 0.2955(6) 0.4018(2)
C56 C 0.4365(6) 0.2643(7) 0.3642(2)
H40 H 0.52620 0.22250 0.37630
C57 C 0.4357(7) 0.2938(8) 0.3094(3)
H41 H 0.52510 0.27040 0.28490
C58 C 0.3075(7) 0.3566(8) 0.2897(2)
H42 H 0.30930 0.37630 0.25220
C59 C 0.1753(7) 0.3904(7) 0.3260(3)
H43 H 0.08680 0.43250 0.31310
C60 C 0.1740(7) 0.3619(7) 0.3818(2)
H44 H 0.08460 0.38690 0.40620
loop_
_geom_bond_atom_site_label_1
_geom_bond_atom_site_label_2
_geom_bond_distance
_geom_bond_site_symmetry_1
_geom_bond_site_symmetry_2
C1 C2 1.423 1_555 1_555
C2 H1 0.930 1_555 1_555
C3 C2 1.345 1_555 1_555
H2 C3 0.930 1_555 1_555
C4 C3 1.422 1_555 1_555
H3 C4 0.931 1_555 1_555
C5 C4 1.342 1_555 1_555
H4 C5 0.931 1_555 1_555
C6 C1 1.427 1_555 1_555
C7 C6 1.384 1_555 1_555
H5 C7 0.930 1_555 1_555
C8 C7 1.397 1_555 1_555
C9 C8 1.417 1_555 1_555
H6 C9 0.930 1_555 1_555
C10 C9 1.341 1_555 1_555
H7 C10 0.931 1_555 1_555
C11 C10 1.441 1_555 1_555
H8 C11 0.929 1_555 1_555
C12 C11 1.332 1_555 1_555
H9 C12 0.931 1_555 1_555
C13 C8 1.438 1_555 1_555
C14 C1 1.400 1_555 1_555
C15 C14 1.491 1_555 1_555
H10 C15 0.930 1_555 1_555
C16 C15 1.194 1_555 1_555
H11 C16 0.930 1_555 1_555
C17 C16 1.475 1_555 1_555
C18 C17 1.410 1_555 1_555
H12 C18 0.930 1_555 1_555
C19 C18 1.371 1_555 1_555
H13 C19 0.930 1_555 1_555
C20 C19 1.394 1_555 1_555
C21 C20 1.384 1_555 1_555
H14 C21 0.929 1_555 1_555
C22 C17 1.369 1_555 1_555
H15 C22 0.930 1_555 1_555
C23 C20 1.488 1_555 1_555
H16 C23 0.930 1_555 1_555
C24 C23 1.241 1_555 1_555
H17 C24 0.930 1_555 1_555
C25 C24 1.486 1_555 1_555
C26 C25 1.391 1_555 1_555
H18 C26 0.931 1_555 1_555
C27 C26 1.388 1_555 1_555
H19 C27 0.931 1_555 1_555
C28 C27 1.381 1_555 1_555
H20 C28 0.930 1_555 1_555
C29 C28 1.362 1_555 1_555
H21 C29 0.930 1_555 1_555
C30 C25 1.374 1_555 1_555
H22 C30 0.929 1_555 1_555
C31 C32 1.422 1_555 1_555
C32 H23 0.931 1_555 1_555
C33 C32 1.346 1_555 1_555
H24 C33 0.928 1_555 1_555
C34 C33 1.427 1_555 1_555
H25 C34 0.929 1_555 1_555
C35 C34 1.344 1_555 1_555
H26 C35 0.929 1_555 1_555
C36 C31 1.443 1_555 1_555
C37 C36 1.376 1_555 1_555
H27 C37 0.930 1_555 1_555
C38 C37 1.395 1_555 1_555
C39 C38 1.424 1_555 1_555
H28 C39 0.932 1_555 1_555
C40 C39 1.357 1_555 1_555
H29 C40 0.930 1_555 1_555
C41 C40 1.418 1_555 1_555
H30 C41 0.929 1_555 1_555
C42 C41 1.366 1_555 1_555
H31 C42 0.929 1_555 1_555
C43 C38 1.424 1_555 1_555
C44 C31 1.416 1_555 1_555
C45 C44 1.490 1_555 1_555
H32 C45 0.930 1_555 1_555
C46 C45 1.298 1_555 1_555
H33 C46 0.930 1_555 1_555
C47 C46 1.472 1_555 1_555
C48 C47 1.381 1_555 1_555
H34 C48 0.930 1_555 1_555
C49 C48 1.385 1_555 1_555
H35 C49 0.929 1_555 1_555
C50 C49 1.379 1_555 1_555
C51 C50 1.382 1_555 1_555
H36 C51 0.929 1_555 1_555
C52 C47 1.392 1_555 1_555
H37 C52 0.930 1_555 1_555
C53 C50 1.482 1_555 1_555
H38 C53 0.931 1_555 1_555
C54 C53 1.302 1_555 1_555
H39 C54 0.930 1_555 1_555
C55 C54 1.470 1_555 1_555
C56 C55 1.377 1_555 1_555
H40 C56 0.930 1_555 1_555
C57 C56 1.366 1_555 1_555
H41 C57 0.930 1_555 1_555
C58 C57 1.362 1_555 1_555
H42 C58 0.932 1_555 1_555
C59 C58 1.376 1_555 1_555
H43 C59 0.930 1_555 1_555
C60 C55 1.407 1_555 1_555
H44 C60 0.929 1_555 1_555
C5 C6 1.422 1_555 1_555
C12 C13 1.425 1_555 1_555
C13 C14 1.432 1_555 1_555
C21 C22 1.378 1_555 1_555
C29 C30 1.371 1_555 1_555
C35 C36 1.430 1_555 1_555
C42 C43 1.423 1_555 1_555
C43 C44 1.408 1_555 1_555
C51 C52 1.382 1_555 1_555
C59 C60 1.386 1_555 1_555
#END
