
#######################################################################
#
#                 Cambridge Crystallographic Data Centre
#                                CCDC
#
#######################################################################
#
# If this CIF has been generated from an entry in the Cambridge
# Structural Database, then it will include bibliographic, chemical,
# crystal, experimental, refinement or atomic coordinate data resulting
# from the CCDC's data processing and validation procedures.
#
#######################################################################

data_CSD_CIF_MALMES
_audit_creation_date 2005-08-04
_audit_creation_method CSD-ConQuest-V1
_database_code_CSD MALMES
_database_code_depnum_ccdc_archive 'CCDC 267858'
_chemical_formula_sum 'C40 H26'
_chemical_formula_moiety
;
C40 H26
;
_journal_coden_Cambridge 7
_journal_volume 78
_journal_year 2005
_journal_page_first 142
_journal_name_full 'Bull.Chem.Soc.Jpn. '
loop_
_publ_author_name
"T.Motomura"
"H.Nakamura"
"M.Suginome"
"M.Murakami"
"Y.Ito"
_chemical_name_systematic
;
2,2':3',2'':3'',2'''-Quaternaphthalene
;
_cell_volume   2690.000
_exptl_crystal_density_diffrn 1.25
_exptl_crystal_preparation 'hexane'
_diffrn_ambient_temperature ?
_diffrn_special_details
;
The study was carried out at room temperature,in the range 283-303K

;
#These two values have been output from a single CSD field.
_refine_ls_R_factor_gt 0.051
_refine_ls_wR_factor_gt 0.051
_symmetry_cell_setting orthorhombic
_symmetry_space_group_name_H-M 'P 21 c n'
_symmetry_Int_Tables_number 33
loop_
_symmetry_equiv_pos_site_id
_symmetry_equiv_pos_as_xyz
1 x,y,z
2 1/2+x,1/2+y,-z
3 1/2+x,1/2-y,1/2-z
4 x,-y,1/2+z
_cell_length_a 16.650(3)
_cell_length_b 20.223(3)
_cell_length_c 7.989(1)
_cell_angle_alpha 90
_cell_angle_beta 90
_cell_angle_gamma 90
_cell_formula_units_Z 4
loop_
_atom_type_symbol
_atom_type_radius_bond
C 0.68
H 0.23
loop_
_atom_site_label
_atom_site_type_symbol
_atom_site_fract_x
_atom_site_fract_y
_atom_site_fract_z
C1 C 0.0331(1) 0.2865(3) -0.0480(7)
C2 C -0.0339(6) 0.3136(3) -0.1210(7)
C3 C -0.1018(6) 0.2748(3) -0.1322(7)
C4 C -0.1774(6) 0.3018(4) -0.2112(8)
C5 C -0.2423(6) 0.2628(5) -0.2216(9)
C6 C -0.2431(6) 0.1976(4) -0.1555(9)
C7 C -0.1746(6) 0.1713(4) -0.0824(9)
C8 C -0.1054(6) 0.2106(3) -0.0722(6)
C9 C -0.0315(6) 0.1836(3) 0.0035(7)
C10 C 0.0360(6) 0.2212(2) 0.0158(6)
C11 C 0.1113(6) 0.1931(2) 0.0838(6)
C12 C 0.1390(6) 0.1328(3) 0.0282(7)
C13 C 0.2127(6) 0.1058(2) 0.0803(6)
C14 C 0.2406(6) 0.0433(3) 0.0255(8)
C15 C 0.3109(7) 0.0180(3) 0.083(1)
C16 C 0.3585(6) 0.0545(3) 0.1958(9)
C17 C 0.3349(6) 0.1155(3) 0.2474(7)
C18 C 0.2612(6) 0.1423(2) 0.1926(6)
C19 C 0.2325(6) 0.2043(2) 0.2482(7)
C20 C 0.1596(5) 0.2291(2) 0.2026(6)
C21 C 0.1293(5) 0.2909(2) 0.2834(6)
C22 C 0.1719(6) 0.3490(3) 0.2628(7)
C23 C 0.1453(6) 0.4093(2) 0.3352(7)
C24 C 0.1870(6) 0.4702(3) 0.3129(9)
C25 C 0.1558(8) 0.5268(3) 0.378(1)
C26 C 0.0839(7) 0.5269(3) 0.465(1)
C27 C 0.0425(6) 0.4694(3) 0.4930(8)
C28 C 0.0726(6) 0.4088(2) 0.4261(7)
C29 C 0.0321(6) 0.3485(2) 0.4522(6)
C30 C 0.0598(6) 0.2899(2) 0.3864(6)
C31 C 0.0178(5) 0.2275(2) 0.4342(6)
C32 C 0.0606(6) 0.1748(2) 0.4972(6)
C33 C 0.0205(6) 0.1166(2) 0.5563(6)
C34 C 0.0639(6) 0.0633(3) 0.6248(7)
C35 C 0.0236(8) 0.0095(3) 0.6851(9)
C36 C -0.0595(8) 0.0053(3) 0.6796(9)
C37 C -0.1044(7) 0.0561(3) 0.6094(8)
C38 C -0.0631(6) 0.1146(3) 0.5475(6)
C39 C -0.1065(6) 0.1686(3) 0.4826(8)
C40 C -0.0662(6) 0.2235(3) 0.4267(7)
H1 H 0.089(4) 0.312(3) -0.035(9)
H2 H -0.048(4) 0.359(3) -0.18(1)
H3 H -0.167(5) 0.352(4) -0.248(9)
H4 H -0.302(5) 0.272(4) -0.28(1)
H5 H -0.309(5) 0.165(3) -0.16(1)
H6 H -0.166(4) 0.122(4) -0.01(1)
H7 H -0.036(4) 0.137(3) 0.048(8)
H8 H 0.102(4) 0.114(3) -0.056(8)
H9 H 0.204(4) 0.026(3) -0.06(1)
H10 H 0.323(5) -0.021(4) 0.06(1)
H11 H 0.414(5) 0.039(3) 0.23(1)
H12 H 0.367(4) 0.145(3) 0.325(9)
H13 H 0.265(4) 0.232(3) 0.318(8)
H14 H 0.223(4) 0.346(3) 0.195(8)
H15 H 0.243(5) 0.464(3) 0.24(1)
H16 H 0.186(5) 0.575(4) 0.35(1)
H17 H 0.049(5) 0.572(4) 0.51(1)
H18 H -0.019(5) 0.474(3) 0.580(9)
H19 H -0.024(4) 0.354(3) 0.518(8)
H20 H 0.122(4) 0.174(3) 0.512(7)
H21 H 0.127(5) 0.066(3) 0.640(9)
H22 H 0.059(5) -0.027(4) 0.75(1)
H23 H -0.090(5) -0.034(4) 0.74(1)
H24 H -0.173(5) 0.062(4) 0.60(1)
H25 H -0.163(5) 0.167(3) 0.475(9)
H26 H -0.101(4) 0.264(3) 0.388(8)
loop_
_geom_bond_atom_site_label_1
_geom_bond_atom_site_label_2
_geom_bond_distance
_geom_bond_site_symmetry_1
_geom_bond_site_symmetry_2
C1 C2 1.373 1_555 1_555
C2 C3 1.379 1_555 1_555
C3 C4 1.510 1_555 1_555
C4 C5 1.340 1_555 1_555
C5 C6 1.420 1_555 1_555
C6 C7 1.387 1_555 1_555
C7 C8 1.402 1_555 1_555
C8 C3 1.385 1_555 1_555
C9 C8 1.476 1_555 1_555
C10 C1 1.416 1_555 1_555
C11 C10 1.480 1_555 1_555
C12 C11 1.377 1_555 1_555
C13 C12 1.406 1_555 1_555
C14 C13 1.416 1_555 1_555
C15 C14 1.358 1_555 1_555
C16 C15 1.409 1_555 1_555
C17 C16 1.359 1_555 1_555
C18 C13 1.415 1_555 1_555
C19 C18 1.413 1_555 1_555
C20 C11 1.441 1_555 1_555
C21 C20 1.494 1_555 1_555
C22 C21 1.382 1_555 1_555
C23 C22 1.420 1_555 1_555
C24 C23 1.425 1_555 1_555
C25 C24 1.360 1_555 1_555
C26 C25 1.384 1_555 1_555
C27 C26 1.370 1_555 1_555
C28 C23 1.412 1_555 1_555
C29 C28 1.409 1_555 1_555
C30 C21 1.420 1_555 1_555
C31 C30 1.492 1_555 1_555
C32 C31 1.377 1_555 1_555
C33 C32 1.433 1_555 1_555
C34 C33 1.408 1_555 1_555
C35 C34 1.366 1_555 1_555
C36 C35 1.387 1_555 1_555
C37 C36 1.389 1_555 1_555
C38 C33 1.394 1_555 1_555
C39 C38 1.408 1_555 1_555
C40 C31 1.402 1_555 1_555
H1 C1 1.069 1_555 1_555
H2 C2 1.058 1_555 1_555
H3 C4 1.071 1_555 1_555
H4 C5 1.114 1_555 1_555
H5 C6 1.281 1_555 1_555
H6 C7 1.161 1_555 1_555
H7 C9 1.010 1_555 1_555
H8 C12 0.988 1_555 1_555
H9 C14 0.980 1_555 1_555
H10 C15 0.835 1_555 1_555
H11 C16 1.013 1_555 1_555
H12 C17 1.013 1_555 1_555
H13 C19 0.958 1_555 1_555
H14 C22 1.010 1_555 1_555
H15 C24 1.106 1_555 1_555
H16 C25 1.119 1_555 1_555
H17 C26 1.140 1_555 1_555
H18 C27 1.241 1_555 1_555
H19 C29 1.078 1_555 1_555
H20 C32 1.029 1_555 1_555
H21 C34 1.059 1_555 1_555
H22 C35 1.078 1_555 1_555
H23 C36 1.059 1_555 1_555
H24 C37 1.151 1_555 1_555
H25 C39 0.943 1_555 1_555
H26 C40 1.050 1_555 1_555
C9 C10 1.360 1_555 1_555
C17 C18 1.411 1_555 1_555
C19 C20 1.363 1_555 1_555
C27 C28 1.428 1_555 1_555
C29 C30 1.376 1_555 1_555
C37 C38 1.455 1_555 1_555
C39 C40 1.372 1_555 1_555
#END
