
#######################################################################
#
#                 Cambridge Crystallographic Data Centre
#                                CCDC
#
#######################################################################
#
# If this CIF has been generated from an entry in the Cambridge
# Structural Database, then it will include bibliographic, chemical,
# crystal, experimental, refinement or atomic coordinate data resulting
# from the CCDC's data processing and validation procedures.
#
#######################################################################

data_CSD_CIF_MAMKES
_audit_creation_date 2012-04-24
_audit_creation_method CSD-ConQuest-V1
_database_code_CSD MAMKES
_database_code_depnum_ccdc_archive 'CCDC 854807'
_chemical_formula_sum 'C24 H16'
_chemical_formula_moiety
;
C24 H16
;
_journal_coden_Cambridge 179
_journal_volume 51
_journal_year 2012
_journal_page_first 2736
_journal_name_full 'Angew.Chem.,Int.Ed. '
loop_
_publ_author_name
"P.A.Wender"
"A.B.Lesser"
"L.E.Sirois"
_chemical_name_systematic
;
Naphtho[2',3':5,6]cycloocta[1,2-b]naphthalene
;
_cell_volume   1540.824
_exptl_crystal_colour 'colorless'
_exptl_crystal_density_diffrn 1.312
_exptl_crystal_description 'tablet'
_diffrn_ambient_temperature 100
#These two values have been output from a single CSD field.
_refine_ls_R_factor_gt 0.0381
_refine_ls_wR_factor_gt 0.0381
_symmetry_cell_setting monoclinic
_symmetry_space_group_name_H-M 'P 21/c'
_symmetry_Int_Tables_number 14
loop_
_symmetry_equiv_pos_site_id
_symmetry_equiv_pos_as_xyz
1 x,y,z
2 -x,1/2+y,1/2-z
3 -x,-y,-z
4 x,-1/2-y,-1/2+z
_cell_length_a 15.8250(4)
_cell_length_b 8.9030(2)
_cell_length_c 11.3975(3)
_cell_angle_alpha 90
_cell_angle_beta 106.354(1)
_cell_angle_gamma 90
_cell_formula_units_Z 4
loop_
_atom_type_symbol
_atom_type_radius_bond
C 0.68
H 0.23
loop_
_atom_site_label
_atom_site_type_symbol
_atom_site_fract_x
_atom_site_fract_y
_atom_site_fract_z
C1 C 0.62300(7) 0.25541(12) 0.55023(10)
C2 C 0.68220(7) 0.18406(12) 0.6610(1)
H1 H 0.66420 0.19380 0.73340
C3 C 0.75678(7) 0.10849(12) 0.67363(10)
H2 H 0.78460 0.07200 0.75350
C4 C 0.80213(7) 0.07372(12) 0.57949(10)
C5 C 0.82654(7) -0.07365(12) 0.56913(10)
H3 H 0.81320 -0.14700 0.62180
C6 C 0.87057(7) -0.11915(12) 0.48306(10)
C7 C 0.89497(7) -0.27118(12) 0.47163(10)
H4 H 0.88220 -0.34560 0.52390
C8 C 0.93666(7) -0.31136(12) 0.38619(11)
H5 H 0.95190 -0.41340 0.37890
C9 C 0.95716(7) -0.20148(13) 0.30867(10)
H6 H 0.98650 -0.23010 0.25000
C10 C 0.93497(7) -0.05418(13) 0.31783(10)
H7 H 0.94900 0.01860 0.26530
C11 C 0.89109(7) -0.00883(12) 0.40523(10)
C12 C 0.86910(7) 0.14235(12) 0.42014(10)
H8 H 0.88470 0.21710 0.37050
C13 C 0.82567(7) 0.18562(12) 0.50423(10)
C14 C 0.81510(7) 0.34898(12) 0.52137(10)
H9 H 0.86810 0.40550 0.53910
C15 C 0.74274(7) 0.42882(12) 0.51578(10)
H10 H 0.75140 0.53300 0.53280
C16 C 0.65079(7) 0.37547(12) 0.48641(10)
C17 C 0.58904(7) 0.45061(12) 0.3957(1)
H11 H 0.60710 0.53540 0.35820
C18 C 0.49982(7) 0.40572(12) 0.35665(10)
C19 C 0.43687(7) 0.47885(13) 0.25959(10)
H12 H 0.45420 0.56240 0.22000
C20 C 0.35143(8) 0.42989(14) 0.22265(11)
H13 H 0.31000 0.47920 0.15730
C21 C 0.32459(7) 0.30600(14) 0.28142(11)
H14 H 0.26540 0.27180 0.25430
C22 C 0.38317(7) 0.23493(13) 0.37709(10)
H15 H 0.36400 0.15330 0.41680
C23 C 0.47252(7) 0.28264(12) 0.41718(10)
C24 C 0.53545(7) 0.21371(12) 0.51591(10)
H16 H 0.51680 0.13610 0.56010
loop_
_geom_bond_atom_site_label_1
_geom_bond_atom_site_label_2
_geom_bond_distance
_geom_bond_site_symmetry_1
_geom_bond_site_symmetry_2
C1 C2 1.486 1_555 1_555
C2 H1 0.950 1_555 1_555
C3 C2 1.331 1_555 1_555
H2 C3 0.950 1_555 1_555
C4 C3 1.482 1_555 1_555
C5 C4 1.382 1_555 1_555
H3 C5 0.950 1_555 1_555
C6 C5 1.413 1_555 1_555
C7 C6 1.424 1_555 1_555
H4 C7 0.950 1_555 1_555
C8 C7 1.369 1_555 1_555
H5 C8 0.950 1_555 1_555
C9 C8 1.416 1_555 1_555
H6 C9 0.950 1_555 1_555
C10 C9 1.369 1_555 1_555
H7 C10 0.950 1_555 1_555
C11 C6 1.421 1_555 1_555
C12 C11 1.412 1_555 1_555
H8 C12 0.950 1_555 1_555
C13 C4 1.431 1_555 1_555
C14 C13 1.483 1_555 1_555
H9 C14 0.950 1_555 1_555
C15 C14 1.334 1_555 1_555
H10 C15 0.950 1_555 1_555
C16 C1 1.430 1_555 1_555
C17 C16 1.379 1_555 1_555
H11 C17 0.950 1_555 1_555
C18 C17 1.413 1_555 1_555
C19 C18 1.421 1_555 1_555
H12 C19 0.950 1_555 1_555
C20 C19 1.369 1_555 1_555
H13 C20 0.950 1_555 1_555
C21 C20 1.416 1_555 1_555
H14 C21 0.950 1_555 1_555
C22 C21 1.371 1_555 1_555
H15 C22 0.950 1_555 1_555
C23 C18 1.425 1_555 1_555
C24 C1 1.380 1_555 1_555
H16 C24 0.950 1_555 1_555
C10 C11 1.424 1_555 1_555
C12 C13 1.382 1_555 1_555
C15 C16 1.477 1_555 1_555
C22 C23 1.423 1_555 1_555
C23 C24 1.415 1_555 1_555
#END
