
#######################################################################
#
#                 Cambridge Crystallographic Data Centre
#                                CCDC
#
#######################################################################
#
# If this CIF has been generated from an entry in the Cambridge
# Structural Database, then it will include bibliographic, chemical,
# crystal, experimental, refinement or atomic coordinate data resulting
# from the CCDC's data processing and validation procedures.
#
#######################################################################

data_CSD_CIF_MAMSUQ
_audit_creation_date 2012-06-19
_audit_creation_method CSD-ConQuest-V1
_database_code_CSD MAMSUQ
_database_code_depnum_ccdc_archive 'CCDC 743897'
_chemical_formula_sum 'C36 H22'
_chemical_formula_moiety
;
C36 H22
;
_journal_coden_Cambridge 1336
_journal_volume 14
_journal_year 2012
_journal_page_first 1390
_journal_name_full 'Org.Lett. '
loop_
_publ_author_name
"Xingxian Gu"
"W.A.Luhman"
"E.Yagodkin"
"R.J.Holmes"
"C.J.Douglas"
_chemical_name_systematic
;
9,10-Diphenylindeno[1,2,3-fg]tetracene
;
_cell_volume   2263.137
_exptl_crystal_density_diffrn 1.334
_diffrn_ambient_temperature 273
#These two values have been output from a single CSD field.
_refine_ls_R_factor_gt 0.0496
_refine_ls_wR_factor_gt 0.0496
_symmetry_cell_setting monoclinic
_symmetry_space_group_name_H-M 'C 2/c'
_symmetry_Int_Tables_number 15
loop_
_symmetry_equiv_pos_site_id
_symmetry_equiv_pos_as_xyz
1 x,y,z
2 -x,y,1/2-z
3 1/2+x,1/2+y,z
4 1/2-x,1/2+y,1/2-z
5 -x,-y,-z
6 x,-y,-1/2+z
7 -1/2-x,-1/2-y,-z
8 -1/2+x,-1/2-y,-1/2+z
_cell_length_a 15.866(4)
_cell_length_b 19.443(4)
_cell_length_c 8.0117(18)
_cell_angle_alpha 90
_cell_angle_beta 113.694(3)
_cell_angle_gamma 90
_cell_formula_units_Z 4
loop_
_atom_type_symbol
_atom_type_radius_bond
C 0.68
H 0.23
loop_
_atom_site_label
_atom_site_type_symbol
_atom_site_fract_x
_atom_site_fract_y
_atom_site_fract_z
C1 C 0.00000 0.32663(14) 0.25000
C2 C 0.00000 0.40024(15) 0.25000
C3 C 0.14318(14) 0.33569(11) 0.2006(3)
C4 C 0.07414(14) 0.29469(10) 0.2203(3)
C5 C 0.14218(14) 0.40997(11) 0.2082(3)
C6 C 0.06871(13) 0.44149(10) 0.2314(3)
C7 C 0.28248(15) 0.34280(12) 0.1401(3)
C8 C 0.28134(16) 0.41506(13) 0.1516(3)
C9 C 0.07947(13) 0.2186(1) 0.1972(3)
C10 C 0.21628(14) 0.30490(12) 0.1638(3)
C11 C 0.21448(15) 0.44730(12) 0.1854(3)
C12 C 0.14599(16) 0.17885(12) 0.3303(3)
C13 C 0.02137(15) 0.18660(11) 0.0384(3)
C14 C 0.04179(14) 0.51373(10) 0.2379(3)
C15 C 0.04093(17) 0.63710(11) 0.2389(3)
C16 C 0.02808(16) 0.11658(11) 0.0131(3)
C17 C 0.15276(17) 0.10906(12) 0.3047(3)
C18 C 0.09389(17) 0.07772(12) 0.1457(3)
C19 C 0.08279(17) 0.57597(11) 0.2262(3)
H1 H 0.2182(13) 0.2566(11) 0.158(3)
H2 H 0.1392(15) 0.5781(11) 0.208(3)
H3 H 0.2137(16) 0.4969(14) 0.193(3)
H4 H 0.1998(16) 0.0814(12) 0.401(3)
H5 H 0.0686(14) 0.6804(12) 0.231(3)
H6 H -0.0271(18) 0.2141(13) -0.058(4)
H7 H 0.1903(17) 0.2008(13) 0.445(4)
H8 H 0.3274(17) 0.4419(12) 0.134(3)
H9 H 0.3301(17) 0.3185(12) 0.115(3)
H10 H -0.0158(18) 0.0943(13) -0.098(4)
H11 H 0.0982(15) 0.0276(13) 0.129(3)
C3A C -0.14318(14) 0.33569(11) 0.2994(3)
C4A C -0.07414(14) 0.29469(10) 0.2797(3)
C5A C -0.14218(14) 0.40997(11) 0.2918(3)
C6A C -0.06871(13) 0.44149(10) 0.2686(3)
C7A C -0.28248(15) 0.34280(12) 0.3599(3)
C8A C -0.28134(16) 0.41506(13) 0.3484(3)
C9A C -0.07947(13) 0.2186(1) 0.3028(3)
C10A C -0.21628(14) 0.30490(12) 0.3362(3)
C11A C -0.21448(15) 0.44730(12) 0.3146(3)
C12A C -0.14599(16) 0.17885(12) 0.1697(3)
C13A C -0.02137(15) 0.18660(11) 0.4616(3)
C14A C -0.04179(14) 0.51373(10) 0.2621(3)
C15A C -0.04093(17) 0.63710(11) 0.2611(3)
C16A C -0.02808(16) 0.11658(11) 0.4869(3)
C17A C -0.15276(17) 0.10906(12) 0.1953(3)
C18A C -0.09389(17) 0.07772(12) 0.3543(3)
C19A C -0.08279(17) 0.57597(11) 0.2738(3)
H1A H -0.2182(13) 0.2566(11) 0.342(3)
H2A H -0.1392(15) 0.5781(11) 0.292(3)
H3A H -0.2137(16) 0.4969(14) 0.307(3)
H4A H -0.1998(16) 0.0814(12) 0.099(3)
H5A H -0.0686(14) 0.6804(12) 0.269(3)
H6A H 0.0271(18) 0.2141(13) 0.558(4)
H7A H -0.1903(17) 0.2008(13) 0.055(4)
H8A H -0.3274(17) 0.4419(12) 0.366(3)
H9A H -0.3301(17) 0.3185(12) 0.385(3)
H10A H 0.0158(18) 0.0943(13) 0.598(4)
H11A H -0.0982(15) 0.0276(13) 0.371(3)
loop_
_geom_bond_atom_site_label_1
_geom_bond_atom_site_label_2
_geom_bond_distance
_geom_bond_site_symmetry_1
_geom_bond_site_symmetry_2
C1 C2 1.431 1_555 1_555
C2 C6 1.409 1_555 1_555
C3 C4 1.414 1_555 1_555
C4 C1 1.432 1_555 1_555
C5 C3 1.446 1_555 1_555
C6 C5 1.394 1_555 1_555
C7 C8 1.409 1_555 1_555
C8 C11 1.350 1_555 1_555
C9 C4 1.498 1_555 1_555
C10 C3 1.437 1_555 1_555
C11 C5 1.430 1_555 1_555
C12 C9 1.394 1_555 1_555
C13 C9 1.383 1_555 1_555
C14 C6 1.475 1_555 1_555
C15 C19 1.385 1_555 1_555
C16 C13 1.387 1_555 1_555
C17 C12 1.383 1_555 1_555
C18 C16 1.378 1_555 1_555
C19 C14 1.395 1_555 1_555
H1 C10 0.941 1_555 1_555
H2 C19 0.964 1_555 1_555
H3 C11 0.967 1_555 1_555
H4 C17 0.989 1_555 1_555
H5 C15 0.963 1_555 1_555
H6 C13 0.998 1_555 1_555
H7 C12 1.001 1_555 1_555
H8 C8 0.953 1_555 1_555
H9 C7 0.978 1_555 1_555
H10 C16 0.983 1_555 1_555
H11 C18 0.990 1_555 1_555
C3A C4A 1.414 1_555 1_555
C4A C1 1.432 1_555 1_555
C5A C3A 1.446 1_555 1_555
C6A C2 1.409 1_555 1_555
C7A C8A 1.409 1_555 1_555
C8A C11A 1.350 1_555 1_555
C9A C4A 1.498 1_555 1_555
C10A C3A 1.437 1_555 1_555
C11A C5A 1.430 1_555 1_555
C12A C9A 1.394 1_555 1_555
C13A C9A 1.383 1_555 1_555
C14A C14 1.415 1_555 1_555
C15A C15 1.380 1_555 1_555
C16A C13A 1.387 1_555 1_555
C17A C12A 1.383 1_555 1_555
C18A C16A 1.378 1_555 1_555
C19A C14A 1.395 1_555 1_555
H1A C10A 0.941 1_555 1_555
H2A C19A 0.964 1_555 1_555
H3A C11A 0.967 1_555 1_555
H4A C17A 0.989 1_555 1_555
H5A C15A 0.963 1_555 1_555
H6A C13A 0.998 1_555 1_555
H7A C12A 1.001 1_555 1_555
H8A C8A 0.953 1_555 1_555
H9A C7A 0.978 1_555 1_555
H10A C16A 0.983 1_555 1_555
H11A C18A 0.990 1_555 1_555
C7 C10 1.357 1_555 1_555
C17 C18 1.382 1_555 1_555
C5A C6A 1.394 1_555 1_555
C6A C14A 1.475 1_555 1_555
C7A C10A 1.357 1_555 1_555
C15A C19A 1.385 1_555 1_555
C17A C18A 1.382 1_555 1_555
#END
