
#######################################################################
#
#                 Cambridge Crystallographic Data Centre
#                                CCDC
#
#######################################################################
#
# If this CIF has been generated from an entry in the Cambridge
# Structural Database, then it will include bibliographic, chemical,
# crystal, experimental, refinement or atomic coordinate data resulting
# from the CCDC's data processing and validation procedures.
#
#######################################################################

data_CSD_CIF_MANTHR03
_audit_creation_date 2004-01-28
_audit_creation_method CSD-ConQuest-V1
_database_code_CSD MANTHR03
_database_code_depnum_ccdc_archive 'CCDC 227661'
_chemical_formula_sum 'C15 H12'
_chemical_formula_moiety
;
C15 H12
;
_journal_coeditor_code "IUCr BK0138"
_journal_coden_Cambridge 622
_journal_volume 59
_journal_year 2003
_journal_page_first 779
_journal_name_full 'Acta Crystallogr.,Sect.B:Struct.Sci. '
loop_
_publ_author_name
"I.Turowska-Tyrk"
"E.Trzop"
_chemical_name_systematic
;
9-Methylanthracene
;
_cell_volume   1035.857
_exptl_crystal_colour 'pale yellow'
_exptl_crystal_density_diffrn 1.233
_exptl_special_details
;
light-sensitive

;
_exptl_crystal_description 'plate'
_diffrn_ambient_temperature 293
#These two values have been output from a single CSD field.
_refine_ls_R_factor_gt 0.0596
_refine_ls_wR_factor_gt 0.0596
_symmetry_cell_setting monoclinic
_symmetry_space_group_name_H-M 'P 21/c'
_symmetry_Int_Tables_number 14
loop_
_symmetry_equiv_pos_site_id
_symmetry_equiv_pos_as_xyz
1 x,y,z
2 x,1/2-y,1/2+z
3 -x,-y,-z
4 -x,-1/2+y,-1/2-z
_cell_length_a 8.8859(13)
_cell_length_b 14.594(2)
_cell_length_c 8.0395(11)
_cell_angle_alpha 90
_cell_angle_beta 96.505(14)
_cell_angle_gamma 90
_cell_formula_units_Z 4
loop_
_atom_type_symbol
_atom_type_radius_bond
C 0.68
H 0.23
loop_
_atom_site_label
_atom_site_type_symbol
_atom_site_fract_x
_atom_site_fract_y
_atom_site_fract_z
C1 C 0.1009(3) 0.57943(14) 0.3038(3)
C2 C 0.2497(3) 0.59727(17) 0.3397(3)
C3 C 0.3316(3) 0.64095(18) 0.2223(3)
C4 C 0.2611(2) 0.66448(15) 0.0724(3)
C5 C -0.1959(3) 0.68064(13) -0.3295(3)
C6 C -0.3457(3) 0.66953(15) -0.3674(3)
C7 C -0.4329(3) 0.63021(16) -0.2501(3)
C8 C -0.3658(2) 0.60228(14) -0.0992(3)
C9 C -0.1350(2) 0.58685(12) 0.1057(2)
C10 C 0.0323(2) 0.67012(12) -0.1287(2)
C11 C 0.0196(2) 0.60296(12) 0.1462(2)
C12 C 0.1050(2) 0.64636(12) 0.0266(2)
C13 C -0.1208(2) 0.65419(11) -0.1715(2)
C14 C -0.2076(2) 0.61278(11) -0.0516(2)
C15 C -0.2250(3) 0.5431(2) 0.2326(3)
H1 H 0.039(2) 0.5478(16) 0.400(3)
H2 H 0.308(3) 0.5794(17) 0.448(4)
H3 H 0.444(3) 0.6548(15) 0.252(3)
H4 H 0.314(3) 0.6943(16) -0.018(3)
H5 H -0.132(2) 0.7084(13) -0.409(3)
H6 H -0.397(3) 0.6884(16) -0.476(3)
H7 H -0.556(3) 0.6233(17) -0.281(3)
H8 H -0.433(2) 0.5754(16) -0.016(3)
H9 H 0.092(2) 0.7007(13) -0.214(3)
H10 H -0.245(4) 0.582(3) 0.310(6)
H11 H -0.322(5) 0.516(3) 0.180(6)
H12 H -0.168(4) 0.493(2) 0.293(4)
loop_
_geom_bond_atom_site_label_1
_geom_bond_atom_site_label_2
_geom_bond_distance
_geom_bond_site_symmetry_1
_geom_bond_site_symmetry_2
C1 C2 1.346 1_555 1_555
C2 C3 1.408 1_555 1_555
C3 C4 1.339 1_555 1_555
C4 C12 1.419 1_555 1_555
C5 C6 1.341 1_555 1_555
C6 C7 1.409 1_555 1_555
C7 C8 1.353 1_555 1_555
C8 C14 1.423 1_555 1_555
C9 C11 1.395 1_555 1_555
C10 C12 1.383 1_555 1_555
C11 C1 1.428 1_555 1_555
C12 C11 1.438 1_555 1_555
C13 C5 1.420 1_555 1_555
C14 C9 1.405 1_555 1_555
C15 C9 1.508 1_555 1_555
H1 C1 1.100 1_555 1_555
H2 C2 0.996 1_555 1_555
H3 C3 1.020 1_555 1_555
H4 C4 1.008 1_555 1_555
H5 C5 0.989 1_555 1_555
H6 C6 0.978 1_555 1_555
H7 C7 1.099 1_555 1_555
H8 C8 1.024 1_555 1_555
H9 C10 1.017 1_555 1_555
H10 C15 0.875 1_555 1_555
H11 C15 0.998 1_555 1_555
H12 C15 0.985 1_555 1_555
C10 C13 1.385 1_555 1_555
C13 C14 1.434 1_555 1_555
#END
