
#######################################################################
#
#                 Cambridge Crystallographic Data Centre
#                                CCDC
#
#######################################################################
#
# If this CIF has been generated from an entry in the Cambridge
# Structural Database, then it will include bibliographic, chemical,
# crystal, experimental, refinement or atomic coordinate data resulting
# from the CCDC's data processing and validation procedures.
#
#######################################################################

data_CSD_CIF_MANTTC
_audit_creation_date 1979-11-16
_audit_creation_method CSD-ConQuest-V1
_database_code_CSD MANTTC
_chemical_formula_sum 'C34 H26'
_chemical_formula_moiety
;
C34 H26
;
_journal_coden_Cambridge 4
_journal_volume 101
_journal_year 1979
_journal_page_first 2363
_journal_name_full 'J.Am.Chem.Soc. '
loop_
_publ_author_name
"J.Ferguson"
"A.W.-H.Mau"
"P.O.Whimp"
_chemical_name_systematic
;
9,11-Dihydro-9,10-dimethyl-anthracene-(9,5':10,12'-diyl)-5',12'-dihydrotetrace
ne
;
_cell_volume   2311.035
_exptl_crystal_density_diffrn 1.249
_diffrn_ambient_temperature ?
_diffrn_special_details
;
The study was carried out at room temperature,in the range 283-303K

;
#These two values have been output from a single CSD field.
_refine_ls_R_factor_gt 0.034
_refine_ls_wR_factor_gt 0.034
_symmetry_cell_setting monoclinic
_symmetry_space_group_name_H-M 'P 21/c'
_symmetry_Int_Tables_number 14
loop_
_symmetry_equiv_pos_site_id
_symmetry_equiv_pos_as_xyz
1 x,y,z
2 -x,1/2+y,1/2-z
3 -x,-y,-z
4 x,-1/2-y,-1/2+z
_cell_length_a 21.323(8)
_cell_length_b 12.642(4)
_cell_length_c 8.587(3)
_cell_angle_alpha 90
_cell_angle_beta 93.25(2)
_cell_angle_gamma 90
_cell_formula_units_Z 4
loop_
_atom_type_symbol
_atom_type_radius_bond
C 0.68
H 0.23
loop_
_atom_site_label
_atom_site_type_symbol
_atom_site_fract_x
_atom_site_fract_y
_atom_site_fract_z
C1 C 0.87483 0.99551 1.09070
C2 C 0.93120 1.04875 1.10173
C3 C 0.94374 1.12496 0.99481
C4 C 0.89947 1.14929 0.87677
C5 C 0.84170 1.09704 0.86410
C6 C 0.79061 1.12325 0.73716
C7 C 0.72840 1.12418 0.81561
C8 C 0.68272 1.20141 0.78473
C9 C 0.62666 1.19916 0.85613
C10 C 0.61449 1.11951 0.95914
C11 C 0.65920 1.04207 0.99100
C12 C 0.71632 1.04356 0.92162
C13 C 0.76702 0.95949 0.95471
C14 C 0.82959 1.01814 0.97277
C15 C 0.80351 1.22859 0.65818
C16 C 0.75396 0.89452 1.09965
C17 C 0.87647 0.79898 0.76909
C18 C 0.93198 0.80252 0.69417
C19 C 0.94194 0.87983 0.58473
C20 C 0.89614 0.95565 0.55049
C21 C 0.84013 0.95304 0.62613
C22 C 0.78879 1.03431 0.60600
C23 C 0.72628 0.97797 0.58201
C24 C 0.68085 1.00364 0.46995
C25 C 0.62285 0.94899 0.45796
C26 C 0.57411 0.97581 0.34632
C27 C 0.51874 0.92172 0.33820
C28 C 0.50983 0.83715 0.43930
C29 C 0.55534 0.80880 0.54882
C30 C 0.61304 0.86477 0.56333
C31 C 0.66099 0.84024 0.67882
C32 C 0.71589 0.89535 0.68893
C33 C 0.76888 0.87519 0.81136
C34 C 0.82995 0.87398 0.73479
H1 H 0.86510 0.94310 1.16510
H2 H 0.96250 1.02780 1.18230
H3 H 0.98550 1.16510 0.99890
H4 H 0.90690 1.20670 0.80040
H5 H 0.69180 1.25820 0.70490
H6 H 0.59500 1.25380 0.83040
H7 H 0.57280 1.11650 1.01160
H8 H 0.65060 0.98410 1.06390
H9 H 0.84410 1.22660 0.60450
H10 H 0.76870 1.24500 0.57930
H11 H 0.80400 1.28930 0.73860
H12 H 0.75650 0.94320 1.19500
H13 H 0.78790 0.84080 1.11820
loop_
_geom_bond_atom_site_label_1
_geom_bond_atom_site_label_2
_geom_bond_distance
_geom_bond_site_symmetry_1
_geom_bond_site_symmetry_2
C1 C2 1.376 1_555 1_555
C2 C3 1.368 1_555 1_555
C3 C4 1.380 1_555 1_555
C4 C5 1.397 1_555 1_555
C5 C6 1.533 1_555 1_555
C6 C7 1.521 1_555 1_555
C7 C8 1.394 1_555 1_555
C8 C9 1.374 1_555 1_555
C9 C10 1.375 1_555 1_555
C10 C11 1.383 1_555 1_555
C11 C12 1.386 1_555 1_555
C12 C7 1.400 1_555 1_555
C13 C12 1.531 1_555 1_555
C14 C1 1.388 1_555 1_555
C15 C6 1.527 1_555 1_555
C16 C13 1.530 1_555 1_555
C17 C18 1.380 1_555 1_555
C18 C19 1.381 1_555 1_555
C19 C20 1.388 1_555 1_555
C20 C21 1.392 1_555 1_555
C21 C22 1.504 1_555 1_555
C22 C6 1.590 1_555 1_555
C23 C22 1.515 1_555 1_555
C24 C23 1.365 1_555 1_555
C25 C24 1.415 1_555 1_555
C26 C25 1.415 1_555 1_555
C27 C26 1.363 1_555 1_555
C28 C27 1.397 1_555 1_555
C29 C28 1.361 1_555 1_555
C30 C25 1.420 1_555 1_555
C31 C30 1.418 1_555 1_555
C32 C23 1.416 1_555 1_555
C33 C13 1.630 1_555 1_555
C34 C17 1.392 1_555 1_555
H1 C1 0.951 1_555 1_555
H2 C2 0.971 1_555 1_555
H3 C3 1.024 1_555 1_555
H4 C4 0.997 1_555 1_555
H5 C8 1.019 1_555 1_555
H6 C9 0.982 1_555 1_555
H7 C10 1.020 1_555 1_555
H8 C11 0.988 1_555 1_555
H9 C15 1.004 1_555 1_555
H10 C15 0.998 1_555 1_555
H11 C15 1.032 1_555 1_555
H12 C16 1.023 1_555 1_555
H13 C16 0.999 1_555 1_555
C5 C14 1.400 1_555 1_555
C13 C14 1.527 1_555 1_555
C21 C34 1.393 1_555 1_555
C29 C30 1.419 1_555 1_555
C31 C32 1.361 1_555 1_555
C32 C33 1.521 1_555 1_555
C33 C34 1.492 1_555 1_555
#END
