
#######################################################################
#
#                 Cambridge Crystallographic Data Centre
#                                CCDC
#
#######################################################################
#
# If this CIF has been generated from an entry in the Cambridge
# Structural Database, then it will include bibliographic, chemical,
# crystal, experimental, refinement or atomic coordinate data resulting
# from the CCDC's data processing and validation procedures.
#
#######################################################################

data_CSD_CIF_MARHUK
_audit_creation_date 2012-05-22
_audit_creation_method CSD-ConQuest-V1
_database_code_CSD MARHUK
_database_code_depnum_ccdc_archive 'CCDC 844124'
_chemical_formula_sum 'C30 H22'
_chemical_formula_moiety
;
C30 H22
;
_journal_coden_Cambridge 1350
_journal_volume 14
_journal_year 2012
_journal_page_first 2843
_journal_name_full 'CrystEngComm '
loop_
_publ_author_name
"Ye-Xin Li"
"Jiong Jia"
"Xu-Tang Tao"
_chemical_name_systematic
;
1,1'-(1,4-Phenylenediethene-2,1-diyl)dinaphthalene
;
_cell_volume   2037.822
_exptl_crystal_colour 'yellow'
_exptl_crystal_density_diffrn 1.247
_exptl_crystal_description 'plate'
_diffrn_ambient_temperature 293
#These two values have been output from a single CSD field.
_refine_ls_R_factor_gt 0.0995
_refine_ls_wR_factor_gt 0.0995
_symmetry_cell_setting triclinic
_symmetry_space_group_name_H-M 'P -1'
_symmetry_Int_Tables_number 2
loop_
_symmetry_equiv_pos_site_id
_symmetry_equiv_pos_as_xyz
1 x,y,z
2 -x,-y,-z
_cell_length_a 7.3324(7)
_cell_length_b 7.3383(7)
_cell_length_c 37.984(3)
_cell_angle_alpha 89.627(7)
_cell_angle_beta 89.836(7)
_cell_angle_gamma 85.628(7)
_cell_formula_units_Z 4
loop_
_atom_type_symbol
_atom_type_radius_bond
C 0.68
H 0.23
loop_
_atom_site_label
_atom_site_type_symbol
_atom_site_fract_x
_atom_site_fract_y
_atom_site_fract_z
C1 C 0.6258(8) 0.5390(9) 0.02652(15)
C2 C 0.8723(7) 0.5628(9) 0.14812(17)
C3 C 1.0071(9) 0.6245(10) 0.17174(18)
C4 C 0.9163(8) 0.5623(9) 0.11103(17)
C5 C 0.6540(8) 0.5854(9) -0.00841(16)
H1 H 0.75770 0.64420 -0.01450
C6 C 0.3792(8) 1.1029(9) 0.14619(17)
C7 C 0.2767(9) 0.9933(10) 0.05404(16)
H2 H 0.37940 0.91340 0.05020
C8 C 0.7640(8) 0.5799(10) 0.05315(16)
H3 H 0.85190 0.65800 0.04630
C9 C 0.2731(8) 1.092(1) 0.08307(17)
H4 H 0.17260 1.17460 0.08700
C10 C 0.2012(9) 1.1564(10) 0.15918(17)
H5 H 0.10600 1.17930 0.14330
C11 C 1.0857(9) 0.5999(10) 0.10010(18)
H6 H 1.11490 0.58830 0.07630
C12 C 0.1306(8) 0.9995(10) 0.02703(17)
C13 C 0.7052(9) 0.5239(10) 0.16259(18)
H7 H 0.61470 0.48610 0.14780
C14 C 0.4211(9) 1.0774(9) 0.10956(17)
C15 C 0.7737(8) 0.5157(10) 0.08567(16)
H8 H 0.68710 0.43740 0.09310
C16 C 1.1800(9) 0.6674(11) 0.1585(2)
H9 H 1.26850 0.70400 0.17390
C17 C 1.2173(9) 0.6553(11) 0.12321(19)
H10 H 1.33070 0.68410 0.11470
C18 C 0.1659(9) 0.901(1) -0.00353(16)
H11 H 0.27760 0.83360 -0.00630
C19 C -0.0357(9) 1.0978(10) 0.03001(17)
H12 H -0.06170 1.16540 0.05030
C20 C 0.4694(9) 0.4541(10) 0.03443(17)
H13 H 0.44590 0.42270 0.05770
C21 C 0.5203(9) 1.0736(10) 0.17106(18)
C22 C 0.5992(9) 1.0328(10) 0.09962(19)
H14 H 0.62730 1.02060 0.07580
C23 C 0.7022(9) 1.0219(10) 0.1594(2)
H15 H 0.79480 0.99950 0.17590
C24 C 0.6692(10) 0.5393(11) 0.19781(19)
H16 H 0.55640 0.51020 0.20660
C25 C 0.9604(10) 0.6395(11) 0.20825(18)
H17 H 1.04580 0.67960 0.22390
C26 C 0.1663(11) 1.1749(11) 0.19391(17)
H18 H 0.04820 1.20930 0.20160
C27 C 0.7413(10) 1.0050(11) 0.1249(2)
H19 H 0.86100 0.97530 0.11750
C28 C 0.7987(10) 0.5977(11) 0.22044(19)
H20 H 0.77290 0.60790 0.24440
C29 C 0.3063(12) 1.1427(12) 0.2182(2)
H21 H 0.28130 1.15790 0.24210
C30 C 0.4785(11) 1.0893(12) 0.20770(19)
H22 H 0.56970 1.06300 0.22430
C31 C 0.9591(8) 0.3731(10) 0.47313(16)
C32 C 0.9423(7) 0.0768(10) 0.38948(17)
C33 C 0.9220(8) 0.2367(10) 0.44749(16)
H23 H 0.84480 0.14910 0.45490
C34 C 0.8773(8) -0.0241(12) 0.33001(19)
C35 C 0.9360(7) 0.1146(10) 0.35274(18)
C36 C 0.9847(8) 0.220(1) 0.41434(16)
H24 H 1.06180 0.30670 0.40640
C37 C 0.9755(8) 0.2815(11) 0.33780(17)
H25 H 1.01320 0.37240 0.35250
C38 C 0.8504(9) -0.2300(11) 0.3783(2)
H26 H 0.82310 -0.34360 0.38700
C39 C 0.9609(9) 0.3164(12) 0.30280(19)
H27 H 0.99270 0.42740 0.29360
C40 C 0.9141(8) 0.3496(10) 0.50847(16)
H28 H 0.85700 0.24540 0.51490
C41 C 0.8404(8) -0.1907(12) 0.34369(19)
H29 H 0.80700 -0.28060 0.32840
C42 C 1.0510(8) 0.5298(10) 0.46596(18)
H30 H 1.08920 0.55170 0.44310
C43 C 0.9038(8) -0.092(1) 0.40110(18)
H31 H 0.91310 -0.11760 0.42510
C44 C 0.8584(9) 0.0212(13) 0.29349(18)
H32 H 0.81750 -0.06550 0.27820
C45 C 0.8969(10) 0.1819(13) 0.28054(19)
H33 H 0.88160 0.20630 0.25660
C46 C 0.5006(8) 0.8721(10) 0.47268(16)
C47 C 0.4207(8) 0.5813(11) 0.38946(18)
C48 C 0.4290(8) 0.4802(12) 0.3283(2)
C49 C 0.3995(7) 0.6216(10) 0.35333(18)
C50 C 0.5069(8) 0.7287(10) 0.44577(17)
H34 H 0.58800 0.62700 0.44980
C51 C 0.3486(9) 0.7969(12) 0.34053(17)
H35 H 0.32460 0.89180 0.35640
C52 C 0.4008(9) 1.0401(10) 0.46969(19)
H36 H 0.33370 1.06810 0.44940
C53 C 0.4072(8) 0.7284(10) 0.41572(17)
H37 H 0.32440 0.82840 0.41140
C54 C 0.4672(8) 0.4017(11) 0.3994(2)
H38 H 0.48040 0.37390 0.42330
C55 C 0.4800(9) 0.3024(13) 0.3406(2)
H39 H 0.50430 0.20940 0.32430
C56 C 0.5997(8) 0.8334(10) 0.50336(19)
H40 H 0.66710 0.72150 0.50580
C57 C 0.4193(11) 0.5197(14) 0.2925(2)
H41 H 0.44550 0.42690 0.27630
C58 C 0.4947(9) 0.2627(12) 0.3752(2)
H42 H 0.52300 0.14300 0.38270
C59 C 0.3331(10) 0.8327(12) 0.30502(19)
H43 H 0.29660 0.95020 0.29720
C60 C 0.3718(11) 0.6936(14) 0.2807(2)
H44 H 0.36530 0.71860 0.25670
C1A C 0.3742(8) 0.4610(9) -0.02652(15)
C2A C 0.1277(7) 0.4372(9) -0.14812(17)
C3A C -0.0071(9) 0.3755(10) -0.17174(18)
C4A C 0.0837(8) 0.4377(9) -0.11103(17)
C5A C 0.3460(8) 0.4146(9) 0.00841(16)
H1A H 0.24230 0.35580 0.01450
C6A C -0.3792(8) 0.8971(9) -0.14619(17)
C7A C -0.2767(9) 1.0067(10) -0.05404(16)
H2A H -0.37940 1.08660 -0.05020
C8A C 0.2360(8) 0.4201(10) -0.05315(16)
H3A H 0.14810 0.34200 -0.04630
C9A C -0.2731(8) 0.908(1) -0.08307(17)
H4A H -0.17260 0.82540 -0.08700
C10A C -0.2012(9) 0.8436(10) -0.15918(17)
H5A H -0.10600 0.82070 -0.14330
C11A C -0.0857(9) 0.4001(10) -0.10010(18)
H6A H -0.11490 0.41170 -0.07630
C12A C -0.1306(8) 1.0005(10) -0.02703(17)
C13A C 0.2948(9) 0.4761(10) -0.16259(18)
H7A H 0.38530 0.51390 -0.14780
C14A C -0.4211(9) 0.9226(9) -0.10956(17)
C15A C 0.2263(8) 0.4843(10) -0.08567(16)
H8A H 0.31290 0.56260 -0.09310
C16A C -0.1800(9) 0.3326(11) -0.1585(2)
H9A H -0.26850 0.29600 -0.17390
C17A C -0.2173(9) 0.3447(11) -0.12321(19)
H10A H -0.33070 0.31590 -0.11470
C18A C -0.1659(9) 1.099(1) 0.00353(16)
H11A H -0.27760 1.16640 0.00630
C19A C 0.0357(9) 0.9022(10) -0.03001(17)
H12A H 0.06170 0.83460 -0.05030
C20A C 0.5306(9) 0.5459(10) -0.03443(17)
H13A H 0.55410 0.57730 -0.05770
C21A C -0.5203(9) 0.9264(10) -0.17106(18)
C22A C -0.5992(9) 0.9672(10) -0.09962(19)
H14A H -0.62730 0.97940 -0.07580
C23A C -0.7022(9) 0.9781(10) -0.1594(2)
H15A H -0.79480 1.00050 -0.17590
C24A C 0.3308(10) 0.4607(11) -0.19781(19)
H16A H 0.44360 0.48980 -0.20660
C25A C 0.0396(10) 0.3605(11) -0.20825(18)
H17A H -0.04580 0.32040 -0.22390
C26A C -0.1663(11) 0.8251(11) -0.19391(17)
H18A H -0.04820 0.79070 -0.20160
C27A C -0.7413(10) 0.9950(11) -0.1249(2)
H19A H -0.86100 1.02470 -0.11750
C28A C 0.2013(10) 0.4023(11) -0.22044(19)
H20A H 0.22710 0.39210 -0.24440
C29A C -0.3063(12) 0.8573(12) -0.2182(2)
H21A H -0.28130 0.84210 -0.24210
C30A C -0.4785(11) 0.9107(12) -0.20770(19)
H22A H -0.56970 0.93700 -0.22430
C31A C 1.0409(8) 0.6269(10) 0.52687(16)
C32A C 1.0577(7) 0.9232(10) 0.61052(17)
C33A C 1.0780(8) 0.7633(10) 0.55251(16)
H23A H 1.15520 0.85090 0.54510
C34A C 1.1227(8) 1.0241(12) 0.66999(19)
C35A C 1.0640(7) 0.8854(10) 0.64726(18)
C36A C 1.0153(8) 0.780(1) 0.58566(16)
H24A H 0.93820 0.69330 0.59360
C37A C 1.0245(8) 0.7185(11) 0.66220(17)
H25A H 0.98680 0.62760 0.64750
C38A C 1.1496(9) 1.2300(11) 0.6217(2)
H26A H 1.17690 1.34360 0.61300
C39A C 1.0391(9) 0.6836(12) 0.69720(19)
H27A H 1.00730 0.57260 0.70640
C40A C 1.0859(8) 0.6504(10) 0.49153(16)
H28A H 1.14300 0.75460 0.48510
C41A C 1.1596(8) 1.1907(12) 0.65631(19)
H29A H 1.19300 1.28060 0.67160
C42A C 0.9490(8) 0.4702(10) 0.53404(18)
H30A H 0.91080 0.44830 0.55690
C43A C 1.0962(8) 1.092(1) 0.59890(18)
H31A H 1.08690 1.11760 0.57490
C44A C 1.1416(9) 0.9788(13) 0.70651(18)
H32A H 1.18250 1.06550 0.72180
C45A C 1.1031(10) 0.8181(13) 0.71946(19)
H33A H 1.11840 0.79370 0.74340
C46A C 0.4994(8) 1.1279(10) 0.52732(16)
C47A C 0.5793(8) 1.4187(11) 0.61054(18)
C48A C 0.5710(8) 1.5198(12) 0.6717(2)
C49A C 0.6005(7) 1.3784(10) 0.64667(18)
C50A C 0.4931(8) 1.2713(10) 0.55423(17)
H34A H 0.41200 1.37300 0.55020
C51A C 0.6514(9) 1.2031(12) 0.65947(17)
H35A H 0.67540 1.10820 0.64360
C52A C 0.5992(9) 0.9599(10) 0.53031(19)
H36A H 0.66630 0.93190 0.55060
C53A C 0.5928(8) 1.2716(10) 0.58428(17)
H37A H 0.67560 1.17160 0.58860
C54A C 0.5328(8) 1.5983(11) 0.6006(2)
H38A H 0.51960 1.62610 0.57670
C55A C 0.5200(9) 1.6976(13) 0.6594(2)
H39A H 0.49570 1.79060 0.67570
C56A C 0.4003(8) 1.1666(10) 0.49664(19)
H40A H 0.33290 1.27850 0.49420
C57A C 0.5807(11) 1.4803(14) 0.7075(2)
H41A H 0.55450 1.57310 0.72370
C58A C 0.5053(9) 1.7373(12) 0.6248(2)
H42A H 0.47700 1.85700 0.61730
C59A C 0.6669(10) 1.1673(12) 0.69498(19)
H43A H 0.70340 1.04980 0.70280
C60A C 0.6282(11) 1.3064(14) 0.7193(2)
H44A H 0.63470 1.28140 0.74330
loop_
_geom_bond_atom_site_label_1
_geom_bond_atom_site_label_2
_geom_bond_distance
_geom_bond_site_symmetry_1
_geom_bond_site_symmetry_2
C1 C5 1.386 1_555 1_555
C2 C3 1.437 1_555 1_555
C3 C16 1.419 1_555 1_555
C4 C2 1.444 1_555 1_555
C5 H1 0.930 1_555 1_555
C6 C10 1.422 1_555 1_555
C7 H2 0.930 1_555 1_555
C8 C1 1.482 1_555 1_555
H3 C8 0.930 1_555 1_555
C9 C7 1.322 1_555 1_555
H4 C9 0.930 1_555 1_555
C10 H5 0.929 1_555 1_555
C11 C4 1.356 1_555 1_555
H6 C11 0.931 1_555 1_555
C12 C7 1.483 1_555 1_555
C13 C2 1.390 1_555 1_555
H7 C13 0.930 1_555 1_555
C14 C6 1.434 1_555 1_555
C15 C4 1.484 1_555 1_555
H8 C15 0.930 1_555 1_555
C16 H9 0.931 1_555 1_555
C17 C11 1.391 1_555 1_555
H10 C17 0.930 1_555 1_555
C18 C12 1.385 1_555 1_555
H11 C18 0.930 1_555 1_555
C19 C12 1.373 1_555 1_555
H12 C19 0.931 1_555 1_555
C20 C1 1.378 1_555 1_555
H13 C20 0.931 1_555 1_555
C21 C6 1.406 1_555 1_555
C22 C14 1.374 1_555 1_555
H14 C22 0.931 1_555 1_555
C23 C21 1.429 1_555 1_555
H15 C23 0.930 1_555 1_555
C24 C13 1.367 1_555 1_555
H16 C24 0.930 1_555 1_555
C25 C3 1.430 1_555 1_555
H17 C25 0.930 1_555 1_555
C26 C10 1.349 1_555 1_555
H18 C26 0.930 1_555 1_555
C27 C22 1.421 1_555 1_555
H19 C27 0.931 1_555 1_555
C28 C24 1.377 1_555 1_555
H20 C28 0.931 1_555 1_555
C29 C26 1.388 1_555 1_555
H21 C29 0.931 1_555 1_555
C30 C21 1.428 1_555 1_555
H22 C30 0.929 1_555 1_555
C31 C33 1.442 1_555 1_555
C32 C35 1.421 1_555 1_555
C33 H23 0.930 1_555 1_555
C34 C35 1.431 1_555 1_555
C35 C37 1.396 1_555 1_555
C36 C32 1.469 1_555 1_555
H24 C36 0.931 1_555 1_555
C37 H25 0.931 1_555 1_555
C38 H26 0.930 1_555 1_555
C39 C37 1.355 1_555 1_555
H27 C39 0.930 1_555 1_555
C40 C31 1.394 1_555 1_555
H28 C40 0.930 1_555 1_555
C41 C34 1.371 1_555 1_555
H29 C41 0.929 1_555 1_555
C42 C31 1.401 1_555 1_555
H30 C42 0.928 1_555 1_555
C43 C32 1.362 1_555 1_555
H31 C43 0.931 1_555 1_555
C44 C34 1.429 1_555 1_555
H32 C44 0.931 1_555 1_555
C45 C39 1.412 1_555 1_555
H33 C45 0.931 1_555 1_555
C46 C50 1.470 1_555 1_555
C47 C49 1.409 1_555 1_555
C48 C49 1.416 1_555 1_555
C49 C51 1.396 1_555 1_555
C50 H34 0.930 1_555 1_555
C51 H35 0.930 1_555 1_555
C52 C46 1.389 1_555 1_555
H36 C52 0.929 1_555 1_555
C53 C47 1.472 1_555 1_555
H37 C53 0.930 1_555 1_555
C54 C47 1.386 1_555 1_555
H38 C54 0.933 1_555 1_555
C55 C48 1.407 1_555 1_555
H39 C55 0.931 1_555 1_555
C56 C46 1.391 1_555 1_555
H40 C56 0.930 1_555 1_555
C57 C48 1.389 1_555 1_555
H41 C57 0.930 1_555 1_555
C58 C54 1.381 1_555 1_555
H42 C58 0.930 1_555 1_555
C59 C51 1.376 1_555 1_555
H43 C59 0.930 1_555 1_555
C60 C57 1.370 1_555 1_555
H44 C60 0.929 1_555 1_555
C1A C5A 1.386 1_555 1_555
C2A C3A 1.437 1_555 1_555
C3A C16A 1.419 1_555 1_555
C4A C2A 1.444 1_555 1_555
C5A C20 1.389 1_555 1_555
H1A C5A 0.930 1_555 1_555
C6A C10A 1.422 1_555 1_555
C7A H2A 0.930 1_555 1_555
C8A C1A 1.482 1_555 1_555
H3A C8A 0.930 1_555 1_555
C9A C7A 1.322 1_555 1_555
H4A C9A 0.930 1_555 1_555
C10A H5A 0.929 1_555 1_555
C11A C4A 1.356 1_555 1_555
H6A C11A 0.931 1_555 1_555
C12A C7A 1.483 1_555 1_555
C13A C2A 1.390 1_555 1_555
H7A C13A 0.930 1_555 1_555
C14A C6A 1.434 1_555 1_555
C15A C4A 1.484 1_555 1_555
H8A C15A 0.930 1_555 1_555
C16A H9A 0.931 1_555 1_555
C17A C11A 1.391 1_555 1_555
H10A C17A 0.930 1_555 1_555
C18A C19 1.388 1_555 1_555
H11A C18A 0.930 1_555 1_555
C19A C18 1.388 1_555 1_555
H12A C19A 0.931 1_555 1_555
C20A C5 1.389 1_555 1_555
H13A C20A 0.931 1_555 1_555
C21A C6A 1.406 1_555 1_555
C22A C14A 1.374 1_555 1_555
H14A C22A 0.931 1_555 1_555
C23A C21A 1.429 1_555 1_555
H15A C23A 0.930 1_555 1_555
C24A C13A 1.367 1_555 1_555
H16A C24A 0.930 1_555 1_555
C25A C3A 1.430 1_555 1_555
H17A C25A 0.930 1_555 1_555
C26A C10A 1.349 1_555 1_555
H18A C26A 0.930 1_555 1_555
C27A C22A 1.421 1_555 1_555
H19A C27A 0.931 1_555 1_555
C28A C24A 1.377 1_555 1_555
H20A C28A 0.931 1_555 1_555
C29A C26A 1.388 1_555 1_555
H21A C29A 0.931 1_555 1_555
C30A C21A 1.428 1_555 1_555
H22A C30A 0.929 1_555 1_555
C31A C33A 1.442 1_555 1_555
C32A C35A 1.421 1_555 1_555
C33A H23A 0.930 1_555 1_555
C34A C35A 1.431 1_555 1_555
C35A C37A 1.396 1_555 1_555
C36A C32A 1.469 1_555 1_555
H24A C36A 0.931 1_555 1_555
C37A H25A 0.931 1_555 1_555
C38A H26A 0.930 1_555 1_555
C39A C37A 1.355 1_555 1_555
H27A C39A 0.930 1_555 1_555
C40A C42 1.356 1_555 1_555
H28A C40A 0.930 1_555 1_555
C41A C34A 1.371 1_555 1_555
H29A C41A 0.929 1_555 1_555
C42A C40 1.356 1_555 1_555
H30A C42A 0.928 1_555 1_555
C43A C32A 1.362 1_555 1_555
H31A C43A 0.931 1_555 1_555
C44A C34A 1.429 1_555 1_555
H32A C44A 0.931 1_555 1_555
C45A C39A 1.412 1_555 1_555
H33A C45A 0.931 1_555 1_555
C46A C50A 1.470 1_555 1_555
C47A C49A 1.409 1_555 1_555
C48A C49A 1.416 1_555 1_555
C49A C51A 1.396 1_555 1_555
C50A H34A 0.930 1_555 1_555
C51A H35A 0.930 1_555 1_555
C52A C56 1.386 1_555 1_555
H36A C52A 0.929 1_555 1_555
C53A C47A 1.472 1_555 1_555
H37A C53A 0.930 1_555 1_555
C54A C47A 1.386 1_555 1_555
H38A C54A 0.933 1_555 1_555
C55A C48A 1.407 1_555 1_555
H39A C55A 0.931 1_555 1_555
C56A C52 1.386 1_555 1_555
H40A C56A 0.930 1_555 1_555
C57A C48A 1.389 1_555 1_555
H41A C57A 0.930 1_555 1_555
C58A C54A 1.381 1_555 1_555
H42A C58A 0.930 1_555 1_555
C59A C51A 1.376 1_555 1_555
H43A C59A 0.930 1_555 1_555
C60A C57A 1.370 1_555 1_555
H44A C60A 0.929 1_555 1_555
C8 C15 1.319 1_555 1_555
C9 C14 1.479 1_555 1_555
C16 C17 1.369 1_555 1_555
C23 C27 1.345 1_555 1_555
C25 C28 1.328 1_555 1_555
C29 C30 1.353 1_555 1_555
C33 C36 1.342 1_555 1_555
C38 C41 1.345 1_555 1_555
C38 C43 1.415 1_555 1_555
C44 C45 1.325 1_555 1_555
C50 C53 1.357 1_555 1_555
C55 C58 1.347 1_555 1_555
C59 C60 1.394 1_555 1_555
C1A C20A 1.378 1_555 1_555
C8A C15A 1.319 1_555 1_555
C9A C14A 1.479 1_555 1_555
C12A C18A 1.385 1_555 1_555
C12A C19A 1.373 1_555 1_555
C16A C17A 1.369 1_555 1_555
C23A C27A 1.345 1_555 1_555
C25A C28A 1.328 1_555 1_555
C29A C30A 1.353 1_555 1_555
C31A C40A 1.394 1_555 1_555
C31A C42A 1.401 1_555 1_555
C33A C36A 1.342 1_555 1_555
C38A C41A 1.345 1_555 1_555
C38A C43A 1.415 1_555 1_555
C44A C45A 1.325 1_555 1_555
C46A C52A 1.389 1_555 1_555
C46A C56A 1.391 1_555 1_555
C50A C53A 1.357 1_555 1_555
C55A C58A 1.347 1_555 1_555
C59A C60A 1.394 1_555 1_555
#END
