
#######################################################################
#
#                 Cambridge Crystallographic Data Centre
#                                CCDC
#
#######################################################################
#
# If this CIF has been generated from an entry in the Cambridge
# Structural Database, then it will include bibliographic, chemical,
# crystal, experimental, refinement or atomic coordinate data resulting
# from the CCDC's data processing and validation procedures.
#
#######################################################################

data_CSD_CIF_MASWUB
_audit_creation_date 2017-04-25
_audit_creation_method CSD-ConQuest-V1
_database_code_CSD MASWUB
_database_code_depnum_ccdc_archive 'CCDC 1521684'
_chemical_formula_sum 'C30 H18'
_chemical_formula_moiety
;
C30 H18
;
_journal_coden_Cambridge 171
_journal_volume 16
_journal_year 2017
_journal_page_first 925
_journal_name_full 'Photochem.Photobiol.Sci. '
loop_
_publ_author_name
"Shota Fujino"
"M.Yamaji"
"H.Okamoto"
"T.Mutai"
"Isao Yoshikawa"
"H.Houjou"
"F.Tani"
_chemical_name_systematic
;
tribenzo[a,c,k]tetraphene
;
_chemical_melting_point 485
_cell_volume    937.301
_exptl_crystal_colour 'colorless'
_exptl_crystal_density_diffrn 1.341
_exptl_special_details
;
Melting point range 485-486K

;
_exptl_crystal_description 'needle'
_diffrn_ambient_temperature 93
#These two values have been output from a single CSD field.
_refine_ls_R_factor_gt 0.0703
_refine_ls_wR_factor_gt 0.0703
_symmetry_cell_setting monoclinic
_symmetry_space_group_name_H-M 'P 21'
_symmetry_Int_Tables_number 4
loop_
_symmetry_equiv_pos_site_id
_symmetry_equiv_pos_as_xyz
1 x,y,z
2 -x,1/2+y,-z
_cell_length_a 12.778(11)
_cell_length_b 5.158(4)
_cell_length_c 14.363(12)
_cell_angle_alpha 90
_cell_angle_beta 98.059(13)
_cell_angle_gamma 90
_cell_formula_units_Z 2
loop_
_atom_type_symbol
_atom_type_radius_bond
C 0.68
H 0.23
loop_
_atom_site_label
_atom_site_type_symbol
_atom_site_fract_x
_atom_site_fract_y
_atom_site_fract_z
C1 C 0.1282(3) 0.4702(9) 0.0153(3)
H1 H 0.08200 0.59540 -0.01690
C2 C 0.1745(3) 0.288(1) -0.0350(3)
H2 H 0.16080 0.28820 -0.10170
C3 C 0.2416(3) 0.1027(9) 0.0115(3)
H3 H 0.27400 -0.02250 -0.02370
C4 C 0.2614(3) 0.0996(8) 0.1088(3)
H4 H 0.30640 -0.02970 0.13980
C5 C 0.2160(3) 0.2842(8) 0.1619(2)
C6 C 0.1483(3) 0.4740(9) 0.1143(2)
C7 C 0.1020(3) 0.6695(8) 0.1677(2)
H5 H 0.05670 0.79670 0.13570
C8 C 0.1221(3) 0.6746(8) 0.2631(2)
H6 H 0.09150 0.80710 0.29650
C9 C 0.1887(2) 0.4839(7) 0.3144(2)
C10 C 0.2364(3) 0.2870(8) 0.2646(2)
C11 C 0.3011(3) 0.1084(8) 0.3176(2)
H7 H 0.33550 -0.02090 0.28590
C12 C 0.3173(3) 0.1126(7) 0.4161(2)
C13 C 0.2651(2) 0.3008(8) 0.4664(2)
C14 C 0.2056(2) 0.4889(8) 0.4126(2)
H8 H 0.17540 0.62590 0.44410
C15 C 0.3882(3) -0.0657(8) 0.4677(2)
H9 H 0.41800 -0.20160 0.43540
C16 C 0.4138(3) -0.0449(8) 0.5620(2)
H10 H 0.46490 -0.15960 0.59400
C17 C 0.3658(3) 0.1461(7) 0.6150(3)
C18 C 0.2843(3) 0.2995(7) 0.5690(2)
C19 C 0.2229(3) 0.4582(8) 0.6259(2)
C20 C 0.1183(3) 0.5394(8) 0.5935(2)
H11 H 0.08480 0.48050 0.53400
C21 C 0.0639(3) 0.7009(9) 0.6458(3)
H12 H -0.00600 0.75420 0.62220
C22 C 0.1118(3) 0.7858(11) 0.7333(3)
H13 H 0.07700 0.90770 0.76790
C23 C 0.2093(3) 0.6929(9) 0.7693(3)
H14 H 0.24010 0.74710 0.83020
C24 C 0.2651(3) 0.5208(8) 0.7194(2)
C25 C 0.3599(3) 0.3870(8) 0.7639(2)
C26 C 0.4049(3) 0.4405(8) 0.8575(2)
H15 H 0.37750 0.57940 0.89020
C27 C 0.4878(3) 0.2955(9) 0.9025(3)
H16 H 0.51640 0.33310 0.96570
C28 C 0.5292(3) 0.0937(9) 0.8546(3)
H17 H 0.58580 -0.00750 0.88540
C29 C 0.4883(3) 0.0405(8) 0.7628(3)
H18 H 0.51740 -0.09780 0.73100
C30 C 0.4039(3) 0.1868(7) 0.7146(2)
loop_
_geom_bond_atom_site_label_1
_geom_bond_atom_site_label_2
_geom_bond_distance
_geom_bond_site_symmetry_1
_geom_bond_site_symmetry_2
C1 H1 0.950 1_555 1_555
C2 C1 1.369 1_555 1_555
H2 C2 0.949 1_555 1_555
C3 C2 1.391 1_555 1_555
H3 C3 0.950 1_555 1_555
C4 C3 1.385 1_555 1_555
H4 C4 0.950 1_555 1_555
C5 C4 1.396 1_555 1_555
C6 C1 1.409 1_555 1_555
C7 C6 1.443 1_555 1_555
H5 C7 0.950 1_555 1_555
C8 C7 1.358 1_555 1_555
H6 C8 0.950 1_555 1_555
C9 C8 1.435 1_555 1_555
C10 C5 1.462 1_555 1_555
C11 C10 1.391 1_555 1_555
H7 C11 0.949 1_555 1_555
C12 C11 1.401 1_555 1_555
C13 C12 1.430 1_555 1_555
C14 C9 1.397 1_555 1_555
H8 C14 0.950 1_555 1_555
C15 C12 1.424 1_555 1_555
H9 C15 0.949 1_555 1_555
C16 C15 1.352 1_555 1_555
H10 C16 0.951 1_555 1_555
C17 C16 1.434 1_555 1_555
C18 C13 1.460 1_555 1_555
C19 C18 1.461 1_555 1_555
C20 C19 1.416 1_555 1_555
H11 C20 0.950 1_555 1_555
C21 C20 1.374 1_555 1_555
H12 C21 0.950 1_555 1_555
C22 C21 1.389 1_555 1_555
H13 C22 0.950 1_555 1_555
C23 C22 1.367 1_555 1_555
H14 C23 0.950 1_555 1_555
C24 C19 1.413 1_555 1_555
C25 C24 1.461 1_555 1_555
C26 C25 1.413 1_555 1_555
H15 C26 0.950 1_555 1_555
C27 C26 1.381 1_555 1_555
H16 C27 0.950 1_555 1_555
C28 C27 1.392 1_555 1_555
H17 C28 0.949 1_555 1_555
C29 C28 1.376 1_555 1_555
H18 C29 0.950 1_555 1_555
C30 C17 1.460 1_555 1_555
C5 C6 1.417 1_555 1_555
C9 C10 1.427 1_555 1_555
C13 C14 1.397 1_555 1_555
C17 C18 1.398 1_555 1_555
C23 C24 1.398 1_555 1_555
C25 C30 1.413 1_555 1_555
C29 C30 1.415 1_555 1_555
#END
