
#######################################################################
#
#                 Cambridge Crystallographic Data Centre
#                                CCDC
#
#######################################################################
#
# If this CIF has been generated from an entry in the Cambridge
# Structural Database, then it will include bibliographic, chemical,
# crystal, experimental, refinement or atomic coordinate data resulting
# from the CCDC's data processing and validation procedures.
#
#######################################################################

data_CSD_CIF_MEHPEX
_audit_creation_date 2017-08-30
_audit_creation_method CSD-ConQuest-V1
_database_code_CSD MEHPEX
_database_code_depnum_ccdc_archive 'CCDC 1476389'
_chemical_formula_sum 'C32 H22'
_chemical_formula_moiety
;
C32 H22
;
_journal_coden_Cambridge 440
_journal_volume 41
_journal_year 2017
_journal_page_first 10742
_journal_name_full 'New J.Chem. '
loop_
_publ_author_name
"A.K.Budniak"
"M.Masny"
"K.Prezelj"
"M.Grzeszkiewicz"
"J.Gawraczynski"
"L.Dobrzycki"
"M.K.Cyranski"
"W.Kozminski"
"Z.Mazej"
"K.J.Fijalkowski"
"W.Grochala"
"P.J.Leszczynski"
_chemical_name_systematic
;
4,4'-diphenyl-1,1'-binaphthalene
;
_cell_volume   8464.577
_exptl_crystal_colour 'colorless'
_exptl_crystal_density_diffrn 1.276
_exptl_crystal_description 'planar'
_diffrn_ambient_temperature 100
#These two values have been output from a single CSD field.
_refine_ls_R_factor_gt 0.0694
_refine_ls_wR_factor_gt 0.0694
_symmetry_cell_setting monoclinic
_symmetry_space_group_name_H-M 'P 21/n'
_symmetry_Int_Tables_number 14
loop_
_symmetry_equiv_pos_site_id
_symmetry_equiv_pos_as_xyz
1 x,y,z
2 1/2-x,1/2+y,1/2-z
3 -x,-y,-z
4 -1/2+x,-1/2-y,-1/2+z
_cell_length_a 10.1208(4)
_cell_length_b 25.0267(10)
_cell_length_c 33.4392(14)
_cell_angle_alpha 90
_cell_angle_beta 92.0165(13)
_cell_angle_gamma 90
_cell_formula_units_Z 16
loop_
_atom_type_symbol
_atom_type_radius_bond
C 0.68
H 0.23
loop_
_atom_site_label
_atom_site_type_symbol
_atom_site_fract_x
_atom_site_fract_y
_atom_site_fract_z
C1 C 0.7339(2) 0.29181(11) 0.77081(8)
C2 C 0.6524(3) 0.33252(11) 0.78191(8)
H1 H 0.61230 0.35470 0.76190
C3 C 0.6269(3) 0.34212(11) 0.82249(8)
H2 H 0.56970 0.37060 0.82920
C4 C 0.6833(3) 0.31098(11) 0.85256(8)
C5 C 0.8135(3) 0.22839(11) 0.87018(8)
H3 H 0.79500 0.23290 0.89760
C6 C 0.8871(3) 0.18599(11) 0.85910(9)
H4 H 0.91900 0.16140 0.87880
C7 C 0.9170(3) 0.17790(11) 0.81873(8)
H5 H 0.96980 0.14830 0.81140
C8 C 0.8696(2) 0.21282(11) 0.79018(8)
H6 H 0.89080 0.20750 0.76300
C9 C 0.7887(2) 0.25724(11) 0.80049(8)
C10 C 0.7634(3) 0.26623(11) 0.84200(8)
C11 C 0.7628(2) 0.28651(11) 0.72741(8)
C12 C 0.8398(3) 0.32439(11) 0.70941(8)
H7 H 0.87900 0.35200 0.72530
C13 C 0.8621(3) 0.32337(11) 0.66823(8)
H8 H 0.91690 0.34990 0.65710
C14 C 0.8070(2) 0.28527(11) 0.64377(8)
C15 C 0.6547(3) 0.20673(11) 0.63661(8)
H9 H 0.66210 0.20720 0.60840
C16 C 0.5761(3) 0.16909(11) 0.65363(8)
H10 H 0.52960 0.14400 0.63710
C17 C 0.5638(3) 0.16720(11) 0.69519(8)
H11 H 0.51270 0.13980 0.70680
C18 C 0.6248(3) 0.20450(11) 0.71906(8)
H12 H 0.61340 0.20340 0.74710
C19 C 0.7060(3) 0.24539(11) 0.70254(8)
C20 C 0.7254(2) 0.24525(10) 0.66033(8)
C21 C 0.6593(3) 0.32494(11) 0.89498(8)
C22 C 0.5301(3) 0.33321(11) 0.90729(8)
H13 H 0.45800 0.32900 0.88860
C23 C 0.5066(3) 0.34743(11) 0.94636(8)
H14 H 0.41810 0.35210 0.95440
C24 C 0.6094(3) 0.35497(12) 0.97384(9)
H15 H 0.59200 0.36530 1.00050
C25 C 0.7393(3) 0.34729(12) 0.96234(8)
H16 H 0.81080 0.35230 0.98110
C26 C 0.7635(3) 0.33232(12) 0.92345(8)
H17 H 0.85210 0.32690 0.91580
C27 C 0.8335(2) 0.28811(11) 0.59947(8)
C28 C 0.8709(3) 0.24425(12) 0.57766(8)
H18 H 0.87890 0.21030 0.59030
C29 C 0.8971(3) 0.24948(13) 0.53674(8)
H19 H 0.92170 0.21910 0.52170
C30 C 0.8869(3) 0.29899(13) 0.51865(9)
H20 H 0.90330 0.30270 0.49100
C31 C 0.8530(3) 0.34295(12) 0.54079(8)
H21 H 0.84820 0.37710 0.52850
C32 C 0.8258(3) 0.33773(12) 0.58071(9)
H22 H 0.80160 0.36830 0.59560
C33 C 0.2337(2) 0.34286(11) 0.76645(8)
C34 C 0.1638(3) 0.30352(11) 0.78476(8)
H23 H 0.12930 0.27460 0.76920
C35 C 0.1418(3) 0.30480(11) 0.82572(8)
H24 H 0.09070 0.27710 0.83700
C36 C 0.1913(2) 0.34467(11) 0.85061(8)
C37 C 0.3276(3) 0.42901(11) 0.85491(8)
H25 H 0.31790 0.43000 0.88310
C38 C 0.3996(3) 0.46834(11) 0.83702(8)
H26 H 0.43610 0.49680 0.85260
C39 C 0.4193(3) 0.46650(11) 0.79560(8)
H27 H 0.47000 0.49340 0.78330
C40 C 0.3658(3) 0.42623(11) 0.77332(8)
H28 H 0.38100 0.42520 0.74550
C41 C 0.2878(3) 0.38558(10) 0.79023(8)
C42 C 0.2674(3) 0.38700(11) 0.83247(8)
C43 C 0.2607(3) 0.33793(11) 0.72295(8)
C44 C 0.3420(3) 0.29718(11) 0.71073(8)
H29 H 0.38270 0.27440 0.73030
C45 C 0.3659(3) 0.28866(11) 0.67026(8)
H30 H 0.42470 0.26090 0.66320
C46 C 0.3071(3) 0.31905(11) 0.64056(8)
C47 C 0.1662(3) 0.39840(11) 0.62242(8)
H31 H 0.18060 0.39250 0.59480
C48 C 0.0900(3) 0.44043(11) 0.63376(9)
H32 H 0.05280 0.46380 0.61400
C49 C 0.0662(3) 0.44944(11) 0.67429(8)
H33 H 0.01130 0.47830 0.68170
C50 C 0.1217(3) 0.41678(11) 0.70320(8)
H34 H 0.10650 0.42380 0.73060
C51 C 0.2019(3) 0.37238(11) 0.69285(8)
C52 C 0.2247(3) 0.36307(11) 0.65179(8)
C53 C 0.1653(2) 0.34311(11) 0.89392(8)
C54 C 0.1773(3) 0.29385(12) 0.91409(8)
H35 H 0.20410 0.26310 0.89980
C55 C 0.1511(3) 0.28924(12) 0.95430(8)
H36 H 0.16040 0.25560 0.96730
C56 C 0.1118(3) 0.33288(12) 0.97543(8)
H37 H 0.09290 0.32960 1.00300
C57 C 0.0996(3) 0.38218(12) 0.95639(8)
H38 H 0.07380 0.41270 0.97110
C58 C 0.1248(3) 0.38694(11) 0.91613(8)
H39 H 0.11430 0.42070 0.90340
C59 C 0.3310(3) 0.30460(11) 0.59829(8)
C60 C 0.2275(3) 0.29411(11) 0.57037(9)
H40 H 0.13850 0.29940 0.57750
C61 C 0.2551(3) 0.27600(12) 0.53225(9)
H41 H 0.18410 0.26800 0.51390
C62 C 0.3834(3) 0.26948(12) 0.52054(9)
H42 H 0.40050 0.25760 0.49430
C63 C 0.4878(3) 0.28053(12) 0.54761(9)
H43 H 0.57660 0.27630 0.53990
C64 C 0.4609(3) 0.29796(11) 0.58631(8)
H44 H 0.53220 0.30540 0.60470
C65 C 0.7390(3) 0.40853(10) 0.28330(8)
C66 C 0.6636(3) 0.44731(11) 0.29953(8)
H45 H 0.62590 0.47420 0.28270
C67 C 0.6398(3) 0.44848(11) 0.34092(8)
H46 H 0.58370 0.47530 0.35110
C68 C 0.6956(3) 0.41200(11) 0.36651(8)
C69 C 0.8474(3) 0.33315(11) 0.37557(8)
H47 H 0.84070 0.33580 0.40380
C70 C 0.9237(3) 0.29407(11) 0.36027(8)
H48 H 0.96880 0.26960 0.37770
C71 C 0.9362(3) 0.28971(11) 0.31828(9)
H49 H 0.98700 0.26160 0.30750
C72 C 0.8747(2) 0.32628(11) 0.29326(8)
H50 H 0.88490 0.32370 0.26520
C73 C 0.7958(2) 0.36794(11) 0.30888(8)
C74 C 0.7777(3) 0.37001(11) 0.35069(8)
C75 C 0.7665(2) 0.41134(11) 0.23932(8)
C76 C 0.8479(3) 0.45120(11) 0.22653(8)
H51 H 0.88980 0.47410 0.24570
C77 C 0.8707(3) 0.45890(11) 0.18598(8)
H52 H 0.92660 0.48730 0.17830
C78 C 0.8145(3) 0.42646(11) 0.15702(8)
C79 C 0.6852(3) 0.34266(11) 0.14184(8)
H53 H 0.70450 0.34550 0.11430
C80 C 0.6095(3) 0.30116(12) 0.15443(9)
H54 H 0.57760 0.27530 0.13570
C81 C 0.5782(3) 0.29631(12) 0.19506(8)
H55 H 0.52260 0.26810 0.20330
C82 C 0.6276(3) 0.33196(11) 0.22235(8)
H56 H 0.60670 0.32800 0.24970
C83 C 0.7100(3) 0.37512(11) 0.21099(8)
C84 C 0.7357(2) 0.38190(11) 0.16939(8)
C85 C 0.6684(3) 0.41611(11) 0.40995(8)
C86 C 0.6763(3) 0.46649(12) 0.42861(9)
H57 H 0.70180 0.49690 0.41380
C87 C 0.6470(3) 0.47180(14) 0.46853(9)
H58 H 0.65420 0.50590 0.48080
C88 C 0.6082(3) 0.42927(14) 0.49054(9)
H59 H 0.58730 0.43390 0.51780
C89 C 0.5994(3) 0.37886(14) 0.47286(10)
H60 H 0.57380 0.34890 0.48820
C90 C 0.6283(3) 0.37263(12) 0.43283(9)
H61 H 0.62060 0.33830 0.42080
C91 C 0.8349(3) 0.43882(11) 0.11415(8)
C92 C 0.7274(3) 0.44189(11) 0.08653(8)
H62 H 0.64050 0.43450 0.09490
C93 C 0.7480(3) 0.45564(12) 0.04713(8)
H63 H 0.67450 0.45860 0.02880
C94 C 0.8730(3) 0.46511(12) 0.03412(9)
H64 H 0.88550 0.47390 0.00690
C95 C 0.9813(3) 0.46185(12) 0.06081(9)
H65 H 1.06820 0.46790 0.05190
C96 C 0.9610(3) 0.44958(11) 0.10065(8)
H66 H 1.03450 0.44850 0.11910
C97 C 0.2394(2) 0.46116(11) 0.28164(8)
C98 C 0.1607(3) 0.42116(11) 0.29537(8)
H67 H 0.12030 0.39720 0.27670
C99 C 0.1378(3) 0.41445(11) 0.33631(8)
H68 H 0.08040 0.38670 0.34440
C100 C 0.1959(3) 0.44682(11) 0.36474(8)
C101 C 0.3380(3) 0.52624(11) 0.37975(9)
H69 H 0.32430 0.52170 0.40750
C102 C 0.4153(3) 0.56789(11) 0.36765(9)
H70 H 0.45450 0.59170 0.38680
C103 C 0.4361(3) 0.57502(11) 0.32649(9)
H71 H 0.48900 0.60390 0.31790
C104 C 0.3805(3) 0.54053(11) 0.29878(8)
H72 H 0.39610 0.54570 0.27120
C105 C 0.2995(2) 0.49699(11) 0.31068(8)
C106 C 0.2778(2) 0.48988(11) 0.35225(8)
C107 C 0.2667(3) 0.46361(11) 0.23831(8)
C108 C 0.3381(3) 0.42327(11) 0.22128(8)
H73 H 0.37400 0.39560 0.23780
C109 C 0.3588(3) 0.42225(11) 0.17984(8)
H74 H 0.40850 0.39390 0.16900
C110 C 0.3081(2) 0.46182(11) 0.15458(8)
C111 C 0.1704(2) 0.54442(11) 0.14697(8)
H75 H 0.18020 0.54370 0.11880
C112 C 0.0975(3) 0.58423(11) 0.16353(8)
H76 H 0.06000 0.61150 0.14700
C113 C 0.0780(3) 0.58498(11) 0.20473(8)
H77 H 0.02640 0.61250 0.21600
C114 C 0.1327(3) 0.54625(11) 0.22888(8)
H78 H 0.11790 0.54690 0.25680
C115 C 0.2118(2) 0.50490(11) 0.21285(8)
C116 C 0.2318(3) 0.50399(11) 0.17113(8)
C117 C 0.1701(3) 0.43542(11) 0.40792(8)
C118 C 0.2731(3) 0.42175(12) 0.43489(8)
H79 H 0.36190 0.42290 0.42650
C119 C 0.2471(3) 0.40651(12) 0.47388(9)
H80 H 0.31740 0.39630 0.49180
C120 C 0.1172(3) 0.40634(13) 0.48637(9)
H81 H 0.09850 0.39680 0.51310
C121 C 0.0163(3) 0.42008(13) 0.45983(9)
H82 H -0.07230 0.42020 0.46830
C122 C 0.0429(3) 0.43372(12) 0.42071(9)
H83 H -0.02820 0.44200 0.40250
C123 C 0.3323(3) 0.45783(11) 0.11077(8)
C124 C 0.3731(3) 0.50108(11) 0.08800(8)
H84 H 0.38930 0.53460 0.10070
C125 C 0.3908(3) 0.49612(12) 0.04697(8)
H85 H 0.41730 0.52610 0.03180
C126 C 0.3692(3) 0.44669(12) 0.02820(8)
H86 H 0.38030 0.44290 0.00020
C127 C 0.3320(3) 0.40386(12) 0.05076(9)
H87 H 0.31840 0.37020 0.03820
C128 C 0.3137(3) 0.40864(11) 0.09143(9)
H88 H 0.28820 0.37830 0.10640
loop_
_geom_bond_atom_site_label_1
_geom_bond_atom_site_label_2
_geom_bond_distance
_geom_bond_site_symmetry_1
_geom_bond_site_symmetry_2
C1 C2 1.370 1_555 1_555
C2 H1 0.949 1_555 1_555
C3 C2 1.411 1_555 1_555
H2 C3 0.950 1_555 1_555
C4 C3 1.380 1_555 1_555
C5 H3 0.949 1_555 1_555
C6 C5 1.356 1_555 1_555
H4 C6 0.950 1_555 1_555
C7 C6 1.408 1_555 1_555
H5 C7 0.951 1_555 1_555
C8 C7 1.369 1_555 1_555
H6 C8 0.951 1_555 1_555
C9 C1 1.415 1_555 1_555
C10 C4 1.434 1_555 1_555
C11 C1 1.496 1_555 1_555
C12 C11 1.379 1_555 1_555
H7 C12 0.950 1_555 1_555
C13 C12 1.403 1_555 1_555
H8 C13 0.949 1_555 1_555
C14 C13 1.363 1_555 1_555
C15 H9 0.949 1_555 1_555
C16 C15 1.370 1_555 1_555
H10 C16 0.950 1_555 1_555
C17 C16 1.400 1_555 1_555
H11 C17 0.950 1_555 1_555
C18 C17 1.362 1_555 1_555
H12 C18 0.949 1_555 1_555
C19 C11 1.431 1_555 1_555
C20 C14 1.423 1_555 1_555
C21 C4 1.489 1_555 1_555
C22 C21 1.400 1_555 1_555
H13 C22 0.950 1_555 1_555
C23 C22 1.383 1_555 1_555
H14 C23 0.951 1_555 1_555
C24 C23 1.377 1_555 1_555
H15 C24 0.951 1_555 1_555
C25 C24 1.396 1_555 1_555
H16 C25 0.949 1_555 1_555
C26 C21 1.408 1_555 1_555
H17 C26 0.951 1_555 1_555
C27 C14 1.516 1_555 1_555
C28 C27 1.378 1_555 1_555
H18 C28 0.951 1_555 1_555
C29 C28 1.409 1_555 1_555
H19 C29 0.950 1_555 1_555
C30 C29 1.381 1_555 1_555
H20 C30 0.950 1_555 1_555
C31 C30 1.376 1_555 1_555
H21 C31 0.949 1_555 1_555
C32 C27 1.392 1_555 1_555
H22 C32 0.950 1_555 1_555
C33 C34 1.369 1_555 1_555
C34 H23 0.951 1_555 1_555
C35 C34 1.396 1_555 1_555
H24 C35 0.951 1_555 1_555
C36 C35 1.382 1_555 1_555
C37 H25 0.952 1_555 1_555
C38 C37 1.374 1_555 1_555
H26 C38 0.950 1_555 1_555
C39 C38 1.407 1_555 1_555
H27 C39 0.949 1_555 1_555
C40 C39 1.355 1_555 1_555
H28 C40 0.949 1_555 1_555
C41 C33 1.430 1_555 1_555
C42 C36 1.455 1_555 1_555
C43 C33 1.495 1_555 1_555
C44 C43 1.381 1_555 1_555
H29 C44 0.951 1_555 1_555
C45 C44 1.399 1_555 1_555
H30 C45 0.950 1_555 1_555
C46 C45 1.370 1_555 1_555
C47 H31 0.952 1_555 1_555
C48 C47 1.366 1_555 1_555
H32 C48 0.950 1_555 1_555
C49 C48 1.403 1_555 1_555
H33 C49 0.949 1_555 1_555
C50 C49 1.371 1_555 1_555
H34 C50 0.951 1_555 1_555
C51 C43 1.438 1_555 1_555
C52 C46 1.440 1_555 1_555
C53 C36 1.482 1_555 1_555
C54 C53 1.408 1_555 1_555
H35 C54 0.950 1_555 1_555
C55 C54 1.384 1_555 1_555
H36 C55 0.951 1_555 1_555
C56 C55 1.367 1_555 1_555
H37 C56 0.952 1_555 1_555
C57 C56 1.392 1_555 1_555
H38 C57 0.950 1_555 1_555
C58 C53 1.394 1_555 1_555
H39 C58 0.950 1_555 1_555
C59 C46 1.487 1_555 1_555
C60 C59 1.403 1_555 1_555
H40 C60 0.949 1_555 1_555
C61 C60 1.390 1_555 1_555
H41 C61 0.950 1_555 1_555
C62 C61 1.379 1_555 1_555
H42 C62 0.948 1_555 1_555
C63 C62 1.395 1_555 1_555
H43 C63 0.950 1_555 1_555
C64 C59 1.398 1_555 1_555
H44 C64 0.950 1_555 1_555
C65 C66 1.359 1_555 1_555
C66 H45 0.949 1_555 1_555
C67 C66 1.413 1_555 1_555
H46 C67 0.950 1_555 1_555
C68 C67 1.360 1_555 1_555
C69 H47 0.951 1_555 1_555
C70 C69 1.357 1_555 1_555
H48 C70 0.951 1_555 1_555
C71 C70 1.418 1_555 1_555
H49 C71 0.950 1_555 1_555
C72 C71 1.374 1_555 1_555
H50 C72 0.950 1_555 1_555
C73 C65 1.435 1_555 1_555
C74 C68 1.451 1_555 1_555
C75 C65 1.508 1_555 1_555
C76 C75 1.372 1_555 1_555
H51 C76 0.949 1_555 1_555
C77 C76 1.397 1_555 1_555
H52 C77 0.949 1_555 1_555
C78 C77 1.372 1_555 1_555
C79 H53 0.951 1_555 1_555
C80 C79 1.366 1_555 1_555
H54 C80 0.949 1_555 1_555
C81 C80 1.411 1_555 1_555
H55 C81 0.950 1_555 1_555
C82 C81 1.359 1_555 1_555
H56 C82 0.951 1_555 1_555
C83 C75 1.417 1_555 1_555
C84 C78 1.440 1_555 1_555
C85 C68 1.491 1_555 1_555
C86 C85 1.408 1_555 1_555
H57 C86 0.949 1_555 1_555
C87 C86 1.384 1_555 1_555
H58 C87 0.949 1_555 1_555
C88 C87 1.360 1_555 1_555
H59 C88 0.950 1_555 1_555
C89 C88 1.395 1_555 1_555
H60 C89 0.950 1_555 1_555
C90 C85 1.399 1_555 1_555
H61 C90 0.951 1_555 1_555
C91 C78 1.488 1_555 1_555
C92 C91 1.404 1_555 1_555
H62 C92 0.950 1_555 1_555
C93 C92 1.385 1_555 1_555
H63 C93 0.950 1_555 1_555
C94 C93 1.373 1_555 1_555
H64 C94 0.949 1_555 1_555
C95 C94 1.391 1_555 1_555
H65 C95 0.951 1_555 1_555
C96 C91 1.395 1_555 1_555
H66 C96 0.950 1_555 1_555
C97 C98 1.369 1_555 1_555
C98 H67 0.948 1_555 1_555
C99 C98 1.407 1_555 1_555
H68 C99 0.951 1_555 1_555
C100 C99 1.366 1_555 1_555
C101 H69 0.950 1_555 1_555
C102 C101 1.373 1_555 1_555
H70 C102 0.951 1_555 1_555
C103 C102 1.411 1_555 1_555
H71 C103 0.950 1_555 1_555
C104 C103 1.372 1_555 1_555
H72 C104 0.950 1_555 1_555
C105 C97 1.441 1_555 1_555
C106 C100 1.431 1_555 1_555
C107 C97 1.486 1_555 1_555
C108 C107 1.376 1_555 1_555
H73 C108 0.950 1_555 1_555
C109 C108 1.409 1_555 1_555
H74 C109 0.949 1_555 1_555
C110 C109 1.388 1_555 1_555
C111 H75 0.951 1_555 1_555
C112 C111 1.368 1_555 1_555
H76 C112 0.949 1_555 1_555
C113 C112 1.399 1_555 1_555
H77 C113 0.950 1_555 1_555
C114 C113 1.366 1_555 1_555
H78 C114 0.951 1_555 1_555
C115 C107 1.438 1_555 1_555
C116 C110 1.431 1_555 1_555
C117 C100 1.504 1_555 1_555
C118 C117 1.397 1_555 1_555
H79 C118 0.951 1_555 1_555
C119 C118 1.392 1_555 1_555
H80 C119 0.949 1_555 1_555
C120 C119 1.393 1_555 1_555
H81 C120 0.951 1_555 1_555
C121 C120 1.373 1_555 1_555
H82 C121 0.950 1_555 1_555
C122 C117 1.371 1_555 1_555
H83 C122 0.949 1_555 1_555
C123 C110 1.497 1_555 1_555
C124 C123 1.394 1_555 1_555
H84 C124 0.952 1_555 1_555
C125 C124 1.395 1_555 1_555
H85 C125 0.950 1_555 1_555
C126 C125 1.401 1_555 1_555
H86 C126 0.952 1_555 1_555
C127 C126 1.371 1_555 1_555
H87 C127 0.949 1_555 1_555
C128 C123 1.400 1_555 1_555
H88 C128 0.950 1_555 1_555
C5 C10 1.417 1_555 1_555
C8 C9 1.430 1_555 1_555
C9 C10 1.438 1_555 1_555
C15 C20 1.425 1_555 1_555
C18 C19 1.435 1_555 1_555
C19 C20 1.432 1_555 1_555
C25 C26 1.383 1_555 1_555
C31 C32 1.379 1_555 1_555
C37 C42 1.417 1_555 1_555
C40 C41 1.418 1_555 1_555
C41 C42 1.435 1_555 1_555
C47 C52 1.434 1_555 1_555
C50 C51 1.426 1_555 1_555
C51 C52 1.420 1_555 1_555
C57 C58 1.384 1_555 1_555
C63 C64 1.401 1_555 1_555
C69 C74 1.414 1_555 1_555
C72 C73 1.424 1_555 1_555
C73 C74 1.417 1_555 1_555
C79 C84 1.429 1_555 1_555
C82 C83 1.424 1_555 1_555
C83 C84 1.434 1_555 1_555
C89 C90 1.389 1_555 1_555
C95 C96 1.389 1_555 1_555
C101 C106 1.416 1_555 1_555
C104 C105 1.429 1_555 1_555
C105 C106 1.426 1_555 1_555
C111 C116 1.424 1_555 1_555
C114 C115 1.425 1_555 1_555
C115 C116 1.417 1_555 1_555
C121 C122 1.387 1_555 1_555
C127 C128 1.384 1_555 1_555
#END
