
#######################################################################
#
#                 Cambridge Crystallographic Data Centre
#                                CCDC
#
#######################################################################
#
# If this CIF has been generated from an entry in the Cambridge
# Structural Database, then it will include bibliographic, chemical,
# crystal, experimental, refinement or atomic coordinate data resulting
# from the CCDC's data processing and validation procedures.
#
#######################################################################

data_CSD_CIF_MEPPHB
_audit_creation_date 1981-11-16
_audit_creation_method CSD-ConQuest-V1
_database_code_CSD MEPPHB
_database_code_depnum_ccdc_archive 'CCDC 1211133'
_chemical_formula_sum 'C22 H18'
_chemical_formula_moiety
;
C22 H18
;
_journal_coden_Cambridge 15
_journal_volume 59
_journal_year 1981
_journal_page_first 1149
_journal_name_full 'Can.J.Chem. '
loop_
_publ_author_name
"R.A.Pauptit"
"J.Trotter"
_chemical_name_systematic
;
4,4'-Dimethyl-1,1'-binaphthyl
;
_chemical_melting_point 431.15
_cell_volume   1634.326
_exptl_crystal_density_diffrn 1.148
_exptl_special_details
;
Space group assignment is unreliable (either P41212 or P43212). Attempts to 
determine the absolute configuration were unsuccessful
;
_diffrn_ambient_temperature ?
_diffrn_special_details
;
The study was carried out at room temperature,in the range 283-303K

;
#These two values have been output from a single CSD field.
_refine_ls_R_factor_gt 0.06
_refine_ls_wR_factor_gt 0.06
loop_
_citation_database_id_CSD
_citation_special_details
MEPPHA "is a racemate of this entry"
_symmetry_cell_setting tetragonal
_symmetry_space_group_name_H-M 'P 41 21 2'
_symmetry_Int_Tables_number 92
loop_
_symmetry_equiv_pos_site_id
_symmetry_equiv_pos_as_xyz
1 x,y,z
2 1/2-y,1/2+x,1/4+z
3 -x,-y,1/2+z
4 1/2+y,1/2-x,3/4+z
5 y,x,-z
6 1/2+x,1/2-y,3/4-z
7 -y,-x,1/2-z
8 1/2-x,1/2+y,1/4-z
_cell_length_a 8.3031(8)
_cell_length_b 8.3031(8)
_cell_length_c 23.706(7)
_cell_angle_alpha 90
_cell_angle_beta 90
_cell_angle_gamma 90
_cell_formula_units_Z 4
loop_
_atom_type_symbol
_atom_type_radius_bond
C 0.68
H 0.23
loop_
_atom_site_label
_atom_site_type_symbol
_atom_site_fract_x
_atom_site_fract_y
_atom_site_fract_z
C1 C 0.09510 0.02710 0.24010
C2 C 0.24890 0.02760 0.26180
C3 C 0.36410 0.14440 0.24310
C4 C 0.32690 0.25630 0.20350
C5 C 0.12500 0.36960 0.13710
C6 C -0.02430 0.36360 0.11300
C7 C -0.13770 0.25770 0.13250
C8 C -0.10140 0.14930 0.17420
C9 C 0.05250 0.14500 0.19880
C10 C 0.16900 0.26040 0.17950
C11 C 0.45380 0.37400 0.18360
H1 H 0.27100 -0.05700 0.29100
H2 H 0.48500 0.11800 0.26200
H3 H 0.20600 0.43400 0.12100
H4 H -0.04200 0.43500 0.08100
H5 H -0.25400 0.25900 0.12100
H6 H -0.17700 0.08600 0.18500
H7 H 0.48200 0.34100 0.20100
H8 H 0.40800 0.47000 0.19200
C1F C -0.02710 -0.09510 0.25990
C2F C -0.02760 -0.24890 0.23820
C9F C -0.14500 -0.05250 0.30120
C3F C -0.14440 -0.36410 0.25690
H1F H 0.05700 -0.27100 0.20900
C8F C -0.14930 0.10140 0.32580
C10F C -0.26040 -0.16900 0.32050
C4F C -0.25630 -0.32690 0.29650
H2F H -0.11800 -0.48500 0.23800
C7F C -0.25770 0.13770 0.36750
H6F H -0.08600 0.17700 0.31500
C5F C -0.36960 -0.12500 0.36290
C11F C -0.37400 -0.45380 0.31640
C6F C -0.36360 0.02430 0.38700
H5F H -0.25900 0.25400 0.37900
H3F H -0.43400 -0.20600 0.37900
H7F H -0.34100 -0.48200 0.29900
H8F H -0.47000 -0.40800 0.30800
H4F H -0.43500 0.04200 0.41900
loop_
_geom_bond_atom_site_label_1
_geom_bond_atom_site_label_2
_geom_bond_distance
_geom_bond_site_symmetry_1
_geom_bond_site_symmetry_2
C1 C2 1.377 1_555 1_555
C2 C3 1.432 1_555 1_555
C3 C4 1.356 1_555 1_555
C4 C10 1.430 1_555 1_555
C5 C6 1.366 1_555 1_555
C6 C7 1.369 1_555 1_555
C7 C8 1.370 1_555 1_555
C8 C9 1.405 1_555 1_555
C9 C1 1.429 1_555 1_555
C10 C5 1.402 1_555 1_555
C11 C4 1.513 1_555 1_555
H1 C2 1.003 1_555 1_555
H2 C3 1.121 1_555 1_555
H3 C5 0.940 1_555 1_555
H4 C6 0.974 1_555 1_555
H5 C7 1.003 1_555 1_555
H6 C8 0.858 1_555 1_555
H7 C11 0.548 1_555 1_555
H8 C11 0.905 1_555 1_555
C1F C1 1.510 1_555 1_555
C2F C1F 1.377 1_555 1_555
C9F C1F 1.429 1_555 1_555
C3F C2F 1.432 1_555 1_555
H1F C2F 1.003 1_555 1_555
C8F C9F 1.405 1_555 1_555
C10F C9F 1.436 1_555 1_555
C4F C3F 1.356 1_555 1_555
H2F C3F 1.121 1_555 1_555
C7F C8F 1.370 1_555 1_555
H6F C8F 0.858 1_555 1_555
C5F C10F 1.402 1_555 1_555
C11F C4F 1.513 1_555 1_555
C6F C7F 1.369 1_555 1_555
H5F C7F 1.003 1_555 1_555
H3F C5F 0.940 1_555 1_555
H7F C11F 0.548 1_555 1_555
H8F C11F 0.905 1_555 1_555
H4F C6F 0.974 1_555 1_555
C9 C10 1.436 1_555 1_555
C10F C4F 1.430 1_555 1_555
C5F C6F 1.366 1_555 1_555
#END
