
#######################################################################
#
#                 Cambridge Crystallographic Data Centre
#                                CCDC
#
#######################################################################
#
# If this CIF has been generated from an entry in the Cambridge
# Structural Database, then it will include bibliographic, chemical,
# crystal, experimental, refinement or atomic coordinate data resulting
# from the CCDC's data processing and validation procedures.
#
#######################################################################

data_CSD_CIF_MEPPHA
_audit_creation_date 1981-11-16
_audit_creation_method CSD-ConQuest-V1
_database_code_CSD MEPPHA
_database_code_depnum_ccdc_archive 'CCDC 1211132'
_chemical_formula_sum 'C22 H18'
_chemical_formula_moiety
;
C22 H18
;
_journal_coden_Cambridge 15
_journal_volume 59
_journal_year 1981
_journal_page_first 1149
_journal_name_full 'Can.J.Chem. '
loop_
_publ_author_name
"R.A.Pauptit"
"J.Trotter"
_chemical_name_systematic
;
racemic-4,4'-Dimethyl-1,1'-binaphthyl
;
_chemical_melting_point 418.15
_cell_volume   1504.992
_exptl_crystal_density_diffrn 1.246
_diffrn_ambient_temperature ?
_diffrn_special_details
;
The study was carried out at room temperature,in the range 283-303K

;
#These two values have been output from a single CSD field.
_refine_ls_R_factor_gt 0.074
_refine_ls_wR_factor_gt 0.074
loop_
_citation_database_id_CSD
_citation_special_details
MEPPHB "is a stereoisomer of this entry"
_symmetry_cell_setting monoclinic
_symmetry_space_group_name_H-M 'C 2/c'
_symmetry_Int_Tables_number 15
loop_
_symmetry_equiv_pos_site_id
_symmetry_equiv_pos_as_xyz
1 x,y,z
2 1/2+x,1/2+y,z
3 -x,y,1/2-z
4 1/2-x,1/2+y,1/2-z
5 -x,-y,-z
6 -1/2-x,-1/2-y,-z
7 x,-y,-1/2+z
8 -1/2+x,-1/2-y,-1/2+z
_cell_length_a 13.225(8)
_cell_length_b 10.768(4)
_cell_length_c 11.572(7)
_cell_angle_alpha 90
_cell_angle_beta 114.04(2)
_cell_angle_gamma 90
_cell_formula_units_Z 4
loop_
_atom_type_symbol
_atom_type_radius_bond
C 0.68
H 0.23
loop_
_atom_site_label
_atom_site_type_symbol
_atom_site_fract_x
_atom_site_fract_y
_atom_site_fract_z
C1 C 0.43860 0.29780 0.22960
C2 C 0.38980 0.20390 0.26860
C3 C 0.27450 0.19960 0.23430
C4 C 0.20560 0.28860 0.15860
C5 C 0.18340 0.47470 0.02290
C6 C 0.22770 0.56370 -0.02690
C7 C 0.34280 0.56850 0.00830
C8 C 0.41120 0.48380 0.09210
C9 C 0.36810 0.38920 0.14490
C10 C 0.25130 0.38440 0.10870
C11 C 0.08330 0.28430 0.12780
H1 H 0.43400 0.13600 0.32200
H2 H 0.24300 0.13300 0.27000
H3 H 0.09800 0.47000 -0.00400
H4 H 0.17600 0.62600 -0.08800
H5 H 0.37500 0.63200 -0.02600
H6 H 0.49400 0.49200 0.11400
H7 H 0.03700 0.26600 0.03400
H8 H 0.05200 0.36700 0.14400
H9 H 0.06800 0.22300 0.17800
C1B C 0.56140 0.29780 0.27040
C2B C 0.61020 0.20390 0.23140
C9B C 0.63190 0.38920 0.35510
C3B C 0.72550 0.19960 0.26570
H1B H 0.56600 0.13600 0.17800
C8B C 0.58880 0.48380 0.40790
C10B C 0.74870 0.38440 0.39130
C4B C 0.79440 0.28860 0.34140
H2B H 0.75700 0.13300 0.23000
C7B C 0.65720 0.56850 0.49170
H6B H 0.50600 0.49200 0.38600
C5B C 0.81660 0.47470 0.47710
C11B C 0.91670 0.28430 0.37220
C6B C 0.77230 0.56370 0.52690
H5B H 0.62500 0.63200 0.52600
H3B H 0.90200 0.47000 0.50400
H7B H 0.96300 0.26600 0.46600
H8B H 0.94800 0.36700 0.35600
H9B H 0.93200 0.22300 0.32200
H4B H 0.82400 0.62600 0.58800
loop_
_geom_bond_atom_site_label_1
_geom_bond_atom_site_label_2
_geom_bond_distance
_geom_bond_site_symmetry_1
_geom_bond_site_symmetry_2
C1 C2 1.371 1_555 1_555
C2 C3 1.411 1_555 1_555
C3 C4 1.366 1_555 1_555
C4 C10 1.431 1_555 1_555
C5 C6 1.367 1_555 1_555
C6 C7 1.407 1_555 1_555
C7 C8 1.370 1_555 1_555
C8 C9 1.421 1_555 1_555
C9 C1 1.433 1_555 1_555
C10 C5 1.418 1_555 1_555
C11 C4 1.508 1_555 1_555
H1 C2 0.982 1_555 1_555
H2 C3 0.999 1_555 1_555
H3 C5 1.043 1_555 1_555
H4 C6 1.012 1_555 1_555
H5 C7 0.972 1_555 1_555
H6 C8 1.022 1_555 1_555
H7 C11 1.025 1_555 1_555
H8 C11 1.031 1_555 1_555
H9 C11 0.954 1_555 1_555
C1B C1 1.495 1_555 1_555
C2B C1B 1.371 1_555 1_555
C9B C1B 1.433 1_555 1_555
C3B C2B 1.411 1_555 1_555
H1B C2B 0.982 1_555 1_555
C8B C9B 1.421 1_555 1_555
C10B C9B 1.427 1_555 1_555
C4B C3B 1.366 1_555 1_555
H2B C3B 0.999 1_555 1_555
C7B C8B 1.370 1_555 1_555
H6B C8B 1.022 1_555 1_555
C5B C10B 1.418 1_555 1_555
C11B C4B 1.508 1_555 1_555
C6B C7B 1.407 1_555 1_555
H5B C7B 0.972 1_555 1_555
H3B C5B 1.043 1_555 1_555
H7B C11B 1.025 1_555 1_555
H8B C11B 1.031 1_555 1_555
H9B C11B 0.954 1_555 1_555
H4B C6B 1.012 1_555 1_555
C9 C10 1.427 1_555 1_555
C10B C4B 1.431 1_555 1_555
C5B C6B 1.367 1_555 1_555
#END
