
#######################################################################
#
#                 Cambridge Crystallographic Data Centre
#                                CCDC
#
#######################################################################
#
# If this CIF has been generated from an entry in the Cambridge
# Structural Database, then it will include bibliographic, chemical,
# crystal, experimental, refinement or atomic coordinate data resulting
# from the CCDC's data processing and validation procedures.
#
#######################################################################

data_CSD_CIF_MEWCEZ
_audit_creation_date 2018-05-23
_audit_creation_method CSD-ConQuest-V1
_database_code_CSD MEWCEZ
_database_code_depnum_ccdc_archive 'CCDC 1589724'
_chemical_formula_sum 'C27 H20'
_chemical_formula_moiety
;
C27 H20
;
_journal_coden_Cambridge 179
_journal_volume 57
_journal_year 2018
_journal_page_first 3381
_journal_name_full 'Angew.Chem.,Int.Ed. '
loop_
_publ_author_name
"Qingyang Zhao"
"Wai Chung Fu"
"Fuk YeeKwong"
_chemical_name_systematic
;
1-methyl-9,10-diphenylphenanthrene
;
_cell_volume    925.889
_exptl_crystal_colour 'colorless'
_exptl_crystal_density_diffrn 1.235
_exptl_crystal_description 'Plate'
_diffrn_ambient_temperature 297
#These two values have been output from a single CSD field.
_refine_ls_R_factor_gt 0.0449
_refine_ls_wR_factor_gt 0.0449
_symmetry_cell_setting triclinic
_symmetry_space_group_name_H-M 'P -1'
_symmetry_Int_Tables_number 2
loop_
_symmetry_equiv_pos_site_id
_symmetry_equiv_pos_as_xyz
1 x,y,z
2 -x,-y,-z
_cell_length_a 9.1078(5)
_cell_length_b 10.2389(4)
_cell_length_c 10.9804(5)
_cell_angle_alpha 68.3080(16)
_cell_angle_beta 76.7945(19)
_cell_angle_gamma 83.6184(18)
_cell_formula_units_Z 2
loop_
_atom_type_symbol
_atom_type_radius_bond
C 0.68
H 0.23
loop_
_atom_site_label
_atom_site_type_symbol
_atom_site_fract_x
_atom_site_fract_y
_atom_site_fract_z
C1 C 0.69256(16) 0.77005(14) 0.13042(14)
H1 H 0.71420 0.85780 0.06430
C2 C 0.75620(19) 0.72746(18) 0.24252(17)
H2 H 0.82060 0.78640 0.25130
C3 C 0.7242(2) 0.5981(2) 0.34090(17)
H3 H 0.76790 0.56920 0.41580
C4 C 0.6282(2) 0.51194(18) 0.32872(17)
H4 H 0.60620 0.42480 0.39570
C5 C 0.56382(18) 0.55427(15) 0.21687(15)
H5 H 0.49790 0.49560 0.20960
C6 C 0.59686(14) 0.68324(13) 0.11569(12)
C7 C 0.33416(15) 0.88640(13) 0.19725(12)
H6 H 0.40390 0.95390 0.14110
C8 C 0.26636(17) 0.88888(16) 0.32298(14)
H7 H 0.29070 0.95790 0.35060
C9 C 0.16318(16) 0.78961(17) 0.40702(13)
H8 H 0.11920 0.79030 0.49200
C10 C 0.12551(17) 0.68961(17) 0.36493(14)
H9 H 0.05490 0.62300 0.42130
C11 C 0.19185(17) 0.68714(15) 0.23904(13)
H10 H 0.16420 0.61970 0.21110
C12 C 0.29915(13) 0.78422(13) 0.15415(11)
C13 C 0.52072(14) 0.73123(12) -0.00182(11)
C14 C 0.37484(13) 0.77982(12) 0.01936(11)
C15 C 0.29029(14) 0.82931(12) -0.08659(11)
C16 C 0.13719(15) 0.87293(15) -0.06381(14)
H11 H 0.08910 0.87030 0.02140
C17 C 0.05789(17) 0.91915(17) -0.16504(15)
H12 H -0.04310 0.94720 -0.14820
C18 C 0.12900(18) 0.92386(17) -0.29251(15)
H13 H 0.07520 0.95430 -0.36110
C19 C 0.27735(18) 0.88406(16) -0.31782(14)
H14 H 0.32330 0.88890 -0.40420
C20 C 0.36340(14) 0.83555(12) -0.21641(11)
C21 C 0.52044(14) 0.79062(12) -0.24141(12)
C22 C 0.59682(17) 0.80364(15) -0.37224(13)
H15 H 0.54650 0.84400 -0.44280
C23 C 0.74256(18) 0.75831(17) -0.39687(15)
H16 H 0.79290 0.77150 -0.48420
C24 C 0.81612(17) 0.69240(16) -0.29165(16)
H17 H 0.91480 0.65900 -0.30990
C25 C 0.74861(16) 0.67432(15) -0.16080(14)
C26 C 0.59864(14) 0.73100(12) -0.13350(12)
C27 C 0.8383(2) 0.5870(2) -0.05721(19)
H18 H 0.77760 0.51240 0.00970
H19 H 0.86760 0.64510 -0.01590
H20 H 0.92680 0.54760 -0.09940
loop_
_geom_bond_atom_site_label_1
_geom_bond_atom_site_label_2
_geom_bond_distance
_geom_bond_site_symmetry_1
_geom_bond_site_symmetry_2
C1 H1 0.930 1_555 1_555
C2 C1 1.384 1_555 1_555
H2 C2 0.930 1_555 1_555
C3 C2 1.375 1_555 1_555
H3 C3 0.931 1_555 1_555
C4 C3 1.368 1_555 1_555
H4 C4 0.930 1_555 1_555
C5 C4 1.385 1_555 1_555
H5 C5 0.930 1_555 1_555
C6 C1 1.385 1_555 1_555
C7 H6 0.930 1_555 1_555
C8 C7 1.386 1_555 1_555
H7 C8 0.930 1_555 1_555
C9 C8 1.375 1_555 1_555
H8 C9 0.930 1_555 1_555
C10 C9 1.371 1_555 1_555
H9 C10 0.930 1_555 1_555
C11 C10 1.385 1_555 1_555
H10 C11 0.930 1_555 1_555
C12 C7 1.389 1_555 1_555
C13 C6 1.501 1_555 1_555
C14 C12 1.498 1_555 1_555
C15 C14 1.446 1_555 1_555
C16 C15 1.411 1_555 1_555
H11 C16 0.930 1_555 1_555
C17 C16 1.372 1_555 1_555
H12 C17 0.930 1_555 1_555
C18 C17 1.387 1_555 1_555
H13 C18 0.930 1_555 1_555
C19 C18 1.363 1_555 1_555
H14 C19 0.930 1_555 1_555
C20 C15 1.410 1_555 1_555
C21 C20 1.449 1_555 1_555
C22 C21 1.410 1_555 1_555
H15 C22 0.930 1_555 1_555
C23 C22 1.357 1_555 1_555
H16 C23 0.930 1_555 1_555
C24 C23 1.384 1_555 1_555
H17 C24 0.930 1_555 1_555
C25 C24 1.379 1_555 1_555
C26 C13 1.459 1_555 1_555
C27 C25 1.507 1_555 1_555
H18 C27 0.960 1_555 1_555
H19 C27 0.960 1_555 1_555
H20 C27 0.960 1_555 1_555
C5 C6 1.386 1_555 1_555
C11 C12 1.388 1_555 1_555
C13 C14 1.365 1_555 1_555
C19 C20 1.416 1_555 1_555
C21 C26 1.428 1_555 1_555
C25 C26 1.434 1_555 1_555
#END
