
#######################################################################
#
#                 Cambridge Crystallographic Data Centre
#                                CCDC
#
#######################################################################
#
# If this CIF has been generated from an entry in the Cambridge
# Structural Database, then it will include bibliographic, chemical,
# crystal, experimental, refinement or atomic coordinate data resulting
# from the CCDC's data processing and validation procedures.
#
#######################################################################

data_CSD_CIF_MHXHEL10
_audit_creation_date 1973-06-11
_audit_creation_method CSD-ConQuest-V1
_database_code_CSD MHXHEL10
_chemical_formula_sum 'C27 H18'
_chemical_formula_moiety
;
C27 H18
;
_journal_coeditor_code "IUCr A09852"
_journal_coden_Cambridge 107
_journal_volume 29
_journal_year 1973
_journal_page_first 223
_journal_name_full 'Acta Crystallogr.,Sect.B:Struct.Crystallogr.Cryst.Chem. '
loop_
_publ_author_name
"G.W.Frank"
"D.T.Hefelfinger"
"D.A.Lightner"
_chemical_name_systematic
;
2-Methylhexahelicene
;
_cell_volume   1804.093
_exptl_crystal_density_diffrn 1.26
_diffrn_ambient_temperature ?
_diffrn_special_details
;
The study was carried out at room temperature,in the range 283-303K

;
#These two values have been output from a single CSD field.
_refine_ls_R_factor_gt 0.045
_refine_ls_wR_factor_gt 0.045
_symmetry_cell_setting orthorhombic
_symmetry_space_group_name_H-M 'P 21 21 21'
_symmetry_Int_Tables_number 19
loop_
_symmetry_equiv_pos_site_id
_symmetry_equiv_pos_as_xyz
1 x,y,z
2 1/2+x,1/2-y,-z
3 -x,1/2+y,1/2-z
4 1/2-x,-y,1/2+z
_cell_length_a 17.561(2)
_cell_length_b 13.285(2)
_cell_length_c 7.733(1)
_cell_angle_alpha 90
_cell_angle_beta 90
_cell_angle_gamma 90
_cell_formula_units_Z 4
loop_
_atom_type_symbol
_atom_type_radius_bond
C 0.68
H 0.20
loop_
_atom_site_label
_atom_site_type_symbol
_atom_site_fract_x
_atom_site_fract_y
_atom_site_fract_z
C1 C 0.21260 0.28590 0.41870
C2 C 0.45600 0.39600 0.11470
C3 C 0.40820 0.23540 -0.00230
C4 C 0.37660 0.14560 0.02480
C5 C 0.33510 0.01160 0.22360
C6 C 0.32450 -0.02280 0.38650
C7 C 0.33410 0.04200 0.53250
C8 C 0.35110 0.14230 0.50250
C9 C 0.36000 0.18070 0.33240
C10 C 0.35530 0.11340 0.19360
C11 C 0.38080 0.28560 0.30040
C12 C 0.13890 0.24540 0.41960
C13 C 0.41480 0.30650 0.13810
C14 C 0.37560 0.36400 0.42580
C15 C 0.42810 0.44590 0.40740
C16 C 0.32170 0.37080 0.56720
C17 C 0.34040 0.43480 0.71190
C18 C 0.24680 0.32490 0.56820
C19 C 0.20240 0.32870 0.72460
C20 C 0.10430 0.20450 0.25850
C21 C 0.09800 0.24440 0.57520
C22 C 0.12970 0.28600 0.72160
C23 C 0.23000 0.38100 0.86840
C24 C 0.29400 0.43440 0.86420
C25 C 0.40170 0.50250 0.70180
C26 C 0.44040 0.51190 0.54830
C27 C 0.46650 0.45860 0.25120
H1 H 0.23800 0.28400 0.30000
H2 H 0.50000 0.41000 0.01000
H3 H 0.43000 0.26000 -0.12000
H4 H 0.37000 0.09000 -0.07000
H5 H 0.33000 -0.03000 0.09000
H6 H 0.30600 -0.09600 0.43000
H7 H 0.32200 0.00000 0.66000
H8 H 0.14600 0.21200 0.15000
H9 H 0.08700 0.13500 0.27600
H10 H 0.05800 0.24800 0.22400
H11 H 0.04600 0.21000 0.60000
H12 H 0.09800 0.27600 0.85000
H13 H 0.19800 0.38400 0.99000
H14 H 0.31600 0.48600 0.97000
H15 H 0.42600 0.55200 0.80000
H16 H 0.49000 0.56000 0.54000
H17 H 0.50000 0.52000 0.24000
loop_
_geom_bond_atom_site_label_1
_geom_bond_atom_site_label_2
_geom_bond_distance
_geom_bond_site_symmetry_1
_geom_bond_site_symmetry_2
C1 C12 1.402 1_555 1_555
C2 C13 1.404 1_555 1_555
C3 C4 1.332 1_555 1_555
C4 C10 1.424 1_555 1_555
C5 C6 1.353 1_555 1_555
C6 C7 1.430 1_555 1_555
C7 C8 1.385 1_555 1_555
C8 C9 1.419 1_555 1_555
C9 C10 1.399 1_555 1_555
C10 C5 1.417 1_555 1_555
C11 C9 1.462 1_555 1_555
C12 C20 1.489 1_555 1_555
C13 C3 1.444 1_555 1_555
C14 C11 1.426 1_555 1_555
C15 C14 1.433 1_555 1_555
C16 C14 1.449 1_555 1_555
C17 C16 1.443 1_555 1_555
C18 C1 1.402 1_555 1_555
C19 C18 1.440 1_555 1_555
C20 H8 1.118 1_555 1_555
C21 C12 1.401 1_555 1_555
C22 C19 1.397 1_555 1_555
C23 C19 1.398 1_555 1_555
C24 C17 1.432 1_555 1_555
C25 C17 1.405 1_555 1_555
C26 C15 1.415 1_555 1_555
C27 C2 1.356 1_555 1_555
H1 C1 1.021 1_555 1_555
H2 C2 1.135 1_555 1_555
H3 C3 1.040 1_555 1_555
H4 C4 1.047 1_555 1_555
H5 C5 1.175 1_555 1_555
H6 C6 1.079 1_555 1_555
H7 C7 1.153 1_555 1_555
H9 C20 0.981 1_555 1_555
H10 C20 1.033 1_555 1_555
H11 C21 1.039 1_555 1_555
H12 C22 1.146 1_555 1_555
H13 C23 1.096 1_555 1_555
H14 C24 1.135 1_555 1_555
H15 C25 1.091 1_555 1_555
H16 C26 1.082 1_555 1_555
H17 C27 1.009 1_555 1_555
C11 C13 1.417 1_555 1_555
C15 C27 1.394 1_555 1_555
C16 C18 1.450 1_555 1_555
C21 C22 1.377 1_555 1_555
C23 C24 1.329 1_555 1_555
C25 C26 1.373 1_555 1_555
#END
