
#######################################################################
#
#                 Cambridge Crystallographic Data Centre
#                                CCDC
#
#######################################################################
#
# If this CIF has been generated from an entry in the Cambridge
# Structural Database, then it will include bibliographic, chemical,
# crystal, experimental, refinement or atomic coordinate data resulting
# from the CCDC's data processing and validation procedures.
#
#######################################################################

data_CSD_CIF_MIDTUR
_audit_creation_date 2018-05-28
_audit_creation_method CSD-ConQuest-V1
_database_code_CSD MIDTUR
_database_code_depnum_ccdc_archive 'CCDC 1837064'
_chemical_formula_sum 'C30 H20'
_chemical_formula_moiety
;
C30 H20
;
_journal_coden_Cambridge 1291
_journal_volume 2018
_journal_year 2018
_journal_page_first 4508
_journal_name_full 'Eur.J.Org.Chem. '
loop_
_publ_author_name
"K.Uehara"
"Peifeng Mei"
"T.Murayama"
"F.Tani"
"H.Hayashi"
"M.Suzuki"
"N.Aratani"
"a.Yamada"
_chemical_name_systematic
;
1H-spiro[azulene-2,7'-azuleno[2,1-a]phenalene]
;
_cell_volume   7665.585
_exptl_crystal_colour 'green'
_exptl_crystal_density_diffrn 1.319
_exptl_crystal_description 'prism'
_exptl_crystal_preparation 'Vapour deposition'
_diffrn_ambient_temperature 90
#These two values have been output from a single CSD field.
_refine_ls_R_factor_gt 0.0948
_refine_ls_wR_factor_gt 0.0948
_symmetry_cell_setting monoclinic
_symmetry_space_group_name_H-M 'C 2/c'
_symmetry_Int_Tables_number 15
loop_
_symmetry_equiv_pos_site_id
_symmetry_equiv_pos_as_xyz
1 x,y,z
2 -x,y,1/2-z
3 1/2+x,1/2+y,z
4 1/2-x,1/2+y,1/2-z
5 -x,-y,-z
6 x,-y,-1/2+z
7 -1/2-x,-1/2-y,-z
8 -1/2+x,-1/2-y,-1/2+z
_cell_length_a 22.923(16)
_cell_length_b 13.654(10)
_cell_length_c 26.15(2)
_cell_angle_alpha 90
_cell_angle_beta 110.516(9)
_cell_angle_gamma 90
_cell_formula_units_Z 16
loop_
_atom_type_symbol
_atom_type_radius_bond
C 0.68
H 0.23
loop_
_atom_site_label
_atom_site_type_symbol
_atom_site_fract_x
_atom_site_fract_y
_atom_site_fract_z
C1 C 0.3767(3) 0.2758(5) 0.3195(3)
C2 C 0.3666(4) 0.2511(5) 0.3653(3)
H1 H 0.36360 0.18370 0.37300
C3 C 0.3605(4) 0.3216(5) 0.4027(3)
H2 H 0.35410 0.30070 0.43500
C4 C 0.3635(4) 0.4184(5) 0.3929(3)
H3 H 0.35860 0.46550 0.41790
C5 C 0.3740(4) 0.4490(5) 0.3451(3)
C6 C 0.3778(4) 0.5452(5) 0.3327(3)
H4 H 0.37360 0.59350 0.35730
C7 C 0.3876(4) 0.5751(5) 0.2864(3)
H5 H 0.38880 0.64280 0.27870
C8 C 0.3956(4) 0.5040(5) 0.2502(3)
H6 H 0.40220 0.52430 0.21790
C9 C 0.3941(4) 0.4074(5) 0.2610(3)
C10 C 0.3813(3) 0.3773(5) 0.3075(3)
C11 C 0.3778(4) 0.1947(5) 0.2789(3)
C12 C 0.3152(4) 0.1365(5) 0.2615(3)
H7 H 0.28550 0.17030 0.27540
H8 H 0.29650 0.13410 0.22120
C13 C 0.3259(4) 0.0389(5) 0.2829(3)
C14 C 0.2787(4) -0.0253(5) 0.2791(3)
H9 H 0.23760 -0.00060 0.26250
C15 C 0.2836(4) -0.1245(5) 0.2968(3)
H10 H 0.24530 -0.15710 0.29160
C16 C 0.3364(5) -0.1789(5) 0.3203(3)
H11 H 0.32950 -0.24530 0.32750
C17 C 0.3965(4) -0.1526(5) 0.3347(3)
H12 H 0.42540 -0.20390 0.34970
C18 C 0.4233(4) -0.0630(5) 0.3312(3)
H13 H 0.46750 -0.06010 0.34560
C19 C 0.3918(4) 0.0248(5) 0.3086(3)
C20 C 0.4232(4) 0.1119(5) 0.3077(3)
H14 H 0.46710 0.11930 0.32300
C21 C 0.4014(3) 0.3335(5) 0.2254(3)
C22 C 0.3909(3) 0.2326(5) 0.2317(3)
C23 C 0.4012(3) 0.1818(5) 0.1883(3)
C24 C 0.3930(3) 0.0823(5) 0.1785(3)
H15 H 0.38050 0.04560 0.20370
C25 C 0.4010(4) 0.0297(5) 0.1354(3)
H16 H 0.39280 -0.03850 0.13530
C26 C 0.4185(4) 0.0608(5) 0.0947(3)
H17 H 0.42320 0.01050 0.07130
C27 C 0.4310(4) 0.1541(6) 0.0808(3)
H18 H 0.43980 0.15950 0.04800
C28 C 0.4323(4) 0.2397(5) 0.1084(3)
H19 H 0.44500 0.29610 0.09380
C29 C 0.4174(4) 0.2549(5) 0.1551(3)
C30 C 0.4172(4) 0.3442(5) 0.1782(3)
H20 H 0.42620 0.40470 0.16460
C31 C 0.2966(5) 0.4366(5) 0.0025(3)
C32 C 0.2485(4) 0.3846(6) -0.0302(3)
H21 H 0.20770 0.40080 -0.03150
C33 C 0.2558(4) 0.3081(6) -0.0622(3)
H22 H 0.22050 0.27180 -0.08400
C34 C 0.3137(5) 0.2844(5) -0.0626(3)
H23 H 0.31890 0.23330 -0.08530
C35 C 0.3660(5) 0.3380(5) -0.0283(3)
C36 C 0.4226(5) 0.3187(6) -0.0288(4)
H24 H 0.42750 0.26900 -0.05240
C37 C 0.4734(5) 0.3679(6) 0.0033(4)
H25 H 0.51370 0.35100 0.00350
C38 C 0.4654(5) 0.4477(6) 0.0378(3)
H26 H 0.50040 0.48520 0.05900
C39 C 0.4096(4) 0.4679(6) 0.0397(3)
C40 C 0.3584(5) 0.4182(5) 0.0046(3)
C41 C 0.2829(4) 0.5221(6) 0.0367(3)
C42 C 0.2370(4) 0.4885(5) 0.0655(3)
H27 H 0.23170 0.41660 0.06200
H28 H 0.25520 0.50450 0.10490
C43 C 0.1781(4) 0.5340(5) 0.0429(3)
C44 C 0.1283(4) 0.5161(5) 0.0586(3)
H29 H 0.13580 0.46910 0.08700
C45 C 0.0698(4) 0.5539(5) 0.0406(3)
H30 H 0.04200 0.52900 0.05720
C46 C 0.0460(4) 0.6249(5) 0.0008(3)
H31 H 0.00370 0.64210 -0.00630
C47 C 0.0744(4) 0.6743(5) -0.0300(3)
H32 H 0.04880 0.72050 -0.05510
C48 C 0.1334(4) 0.6667(5) -0.0299(3)
H33 H 0.14380 0.70890 -0.05430
C49 C 0.1812(4) 0.6042(5) 0.0017(3)
C50 C 0.2404(4) 0.6006(5) -0.0028(3)
H34 H 0.25310 0.64070 -0.02670
C51 C 0.3992(4) 0.5421(5) 0.0741(3)
C52 C 0.3406(4) 0.5638(5) 0.0728(3)
C53 C 0.3465(5) 0.6420(5) 0.1131(3)
C54 C 0.2978(4) 0.6861(6) 0.1228(3)
H35 H 0.25730 0.66190 0.10290
C55 C 0.3019(5) 0.7667(5) 0.1609(3)
H36 H 0.26390 0.79140 0.16260
C56 C 0.3545(4) 0.8086(6) 0.1933(3)
H37 H 0.34730 0.85950 0.21510
C57 C 0.4182(5) 0.7942(6) 0.2024(3)
H38 H 0.44610 0.83660 0.22850
C58 C 0.4444(5) 0.7287(5) 0.1793(3)
H39 H 0.48860 0.72900 0.19210
C59 C 0.4148(5) 0.6576(6) 0.1374(3)
C60 C 0.4434(4) 0.5981(5) 0.1138(3)
H40 H 0.48720 0.59400 0.12250
loop_
_geom_bond_atom_site_label_1
_geom_bond_atom_site_label_2
_geom_bond_distance
_geom_bond_site_symmetry_1
_geom_bond_site_symmetry_2
C1 C2 1.340 1_555 1_555
C2 H1 0.950 1_555 1_555
C3 C2 1.414 1_555 1_555
H2 C3 0.950 1_555 1_555
C4 C3 1.353 1_555 1_555
H3 C4 0.951 1_555 1_555
C5 C4 1.416 1_555 1_555
C6 C5 1.363 1_555 1_555
H4 C6 0.949 1_555 1_555
C7 C6 1.369 1_555 1_555
H5 C7 0.949 1_555 1_555
C8 C7 1.412 1_555 1_555
H6 C8 0.950 1_555 1_555
C9 C8 1.352 1_555 1_555
C10 C1 1.433 1_555 1_555
C11 C1 1.540 1_555 1_555
C12 C11 1.562 1_555 1_555
H7 C12 0.991 1_555 1_555
H8 C12 0.989 1_555 1_555
C13 C12 1.433 1_555 1_555
C14 C13 1.369 1_555 1_555
H9 C14 0.950 1_555 1_555
C15 C14 1.423 1_555 1_555
H10 C15 0.951 1_555 1_555
C16 C15 1.369 1_555 1_555
H11 C16 0.950 1_555 1_555
C17 C16 1.344 1_555 1_555
H12 C17 0.949 1_555 1_555
C18 C17 1.386 1_555 1_555
H13 C18 0.950 1_555 1_555
C19 C13 1.435 1_555 1_555
C20 C11 1.542 1_555 1_555
H14 C20 0.949 1_555 1_555
C21 C9 1.422 1_555 1_555
C22 C11 1.463 1_555 1_555
C23 C22 1.419 1_555 1_555
C24 C23 1.383 1_555 1_555
H15 C24 0.949 1_555 1_555
C25 C24 1.402 1_555 1_555
H16 C25 0.950 1_555 1_555
C26 C25 1.332 1_555 1_555
H17 C26 0.951 1_555 1_555
C27 C26 1.382 1_555 1_555
H18 C27 0.950 1_555 1_555
C28 C27 1.368 1_555 1_555
H19 C28 0.949 1_555 1_555
C29 C23 1.454 1_555 1_555
C30 C21 1.410 1_555 1_555
H20 C30 0.950 1_555 1_555
C31 C32 1.338 1_555 1_555
C32 H21 0.950 1_555 1_555
C33 C32 1.385 1_555 1_555
H22 C33 0.950 1_555 1_555
C34 C33 1.370 1_555 1_555
H23 C34 0.950 1_555 1_555
C35 C34 1.423 1_555 1_555
C36 C35 1.328 1_555 1_555
H24 C36 0.950 1_555 1_555
C37 C36 1.352 1_555 1_555
H25 C37 0.950 1_555 1_555
C38 C37 1.467 1_555 1_555
H26 C38 0.949 1_555 1_555
C39 C38 1.326 1_555 1_555
C40 C31 1.421 1_555 1_555
C41 C31 1.568 1_555 1_555
C42 C41 1.562 1_555 1_555
H27 C42 0.990 1_555 1_555
H28 C42 0.991 1_555 1_555
C43 C42 1.414 1_555 1_555
C44 C43 1.364 1_555 1_555
H29 C44 0.950 1_555 1_555
C45 C44 1.358 1_555 1_555
H30 C45 0.951 1_555 1_555
C46 C45 1.387 1_555 1_555
H31 C46 0.951 1_555 1_555
C47 C46 1.377 1_555 1_555
H32 C47 0.950 1_555 1_555
C48 C47 1.356 1_555 1_555
H33 C48 0.950 1_555 1_555
C49 C43 1.462 1_555 1_555
C50 C41 1.568 1_555 1_555
H34 C50 0.950 1_555 1_555
C51 C39 1.429 1_555 1_555
C52 C41 1.446 1_555 1_555
C53 C52 1.473 1_555 1_555
C54 C53 1.368 1_555 1_555
H35 C54 0.950 1_555 1_555
C55 C54 1.465 1_555 1_555
H36 C55 0.950 1_555 1_555
C56 C55 1.335 1_555 1_555
H37 C56 0.949 1_555 1_555
C57 C56 1.409 1_555 1_555
H38 C57 0.951 1_555 1_555
C58 C57 1.334 1_555 1_555
H39 C58 0.949 1_555 1_555
C59 C53 1.484 1_555 1_555
C60 C51 1.397 1_555 1_555
H40 C60 0.950 1_555 1_555
C5 C10 1.438 1_555 1_555
C9 C10 1.408 1_555 1_555
C18 C19 1.417 1_555 1_555
C19 C20 1.395 1_555 1_555
C21 C22 1.418 1_555 1_555
C28 C29 1.394 1_555 1_555
C29 C30 1.361 1_555 1_555
C35 C40 1.440 1_555 1_555
C39 C40 1.388 1_555 1_555
C48 C49 1.406 1_555 1_555
C49 C50 1.403 1_555 1_555
C51 C52 1.364 1_555 1_555
C58 C59 1.443 1_555 1_555
C59 C60 1.324 1_555 1_555
#END
