
#######################################################################
#
#                 Cambridge Crystallographic Data Centre
#                                CCDC
#
#######################################################################
#
# If this CIF has been generated from an entry in the Cambridge
# Structural Database, then it will include bibliographic, chemical,
# crystal, experimental, refinement or atomic coordinate data resulting
# from the CCDC's data processing and validation procedures.
#
#######################################################################

data_CSD_CIF_MILFIY
_audit_creation_date 2013-10-22
_audit_creation_method CSD-ConQuest-V1
_database_code_CSD MILFIY
_database_code_depnum_ccdc_archive 'CCDC 933555'
_chemical_formula_sum 'C32 H24'
_chemical_formula_moiety
;
C32 H24
;
_journal_coden_Cambridge 1220
_journal_volume 19
_journal_year 2013
_journal_page_first 16295
_journal_name_full 'Chem.-Eur.J. '
loop_
_publ_author_name
"A.-C.Bedard"
"A.Vlassova"
"A.C.Hernandez-Perez"
"A.Bessette"
"G.S.Hanan"
"M.A.Heuft"
"S.K.Collins"
_chemical_name_systematic
;
8-t-Butylnaphtho[8,1,2-cde]pentahelicene
;
_cell_volume   2057.648
_exptl_crystal_colour 'colorless'
_exptl_crystal_density_diffrn 1.319
_exptl_crystal_description 'plate'
_diffrn_ambient_temperature 100
#These two values have been output from a single CSD field.
_refine_ls_R_factor_gt 0.052
_refine_ls_wR_factor_gt 0.052
_symmetry_cell_setting monoclinic
_symmetry_space_group_name_H-M 'P 21/c'
_symmetry_Int_Tables_number 14
loop_
_symmetry_equiv_pos_site_id
_symmetry_equiv_pos_as_xyz
1 x,y,z
2 -x,1/2+y,1/2-z
3 -x,-y,-z
4 x,-1/2-y,-1/2+z
_cell_length_a 14.8180(3)
_cell_length_b 17.8548(3)
_cell_length_c 7.8940(1)
_cell_angle_alpha 90
_cell_angle_beta 99.866(1)
_cell_angle_gamma 90
_cell_formula_units_Z 4
loop_
_atom_type_symbol
_atom_type_radius_bond
C 0.68
H 0.23
loop_
_atom_site_label
_atom_site_type_symbol
_atom_site_fract_x
_atom_site_fract_y
_atom_site_fract_z
C1 C 1.08381(14) 0.06277(11) 0.3717(3)
H1 H 1.02650 0.06350 0.41030
C2 C 1.13882(15) 0.00093(11) 0.4042(3)
H2 H 1.11940 -0.04010 0.46570
C3 C 1.22391(15) -0.00239(12) 0.3475(3)
H3 H 1.25990 -0.04670 0.36280
C4 C 1.25376(15) 0.05920(12) 0.2699(3)
H4 H 1.31200 0.05790 0.23510
C5 C 1.19977(15) 0.12483(12) 0.2403(3)
C6 C 1.23671(15) 0.19127(12) 0.1777(3)
H5 H 1.29460 0.18990 0.14150
C7 C 1.18911(15) 0.25609(12) 0.1701(3)
H6 H 1.21610 0.30070 0.13590
C8 C 1.09922(15) 0.25911(12) 0.2121(3)
C9 C 1.05841(15) 0.33040(11) 0.2263(3)
H7 H 1.08870 0.37440 0.19780
C10 C 0.97704(15) 0.33603(11) 0.2801(3)
H8 H 0.95520 0.38380 0.30720
C11 C 0.92310(14) 0.27066(11) 0.2966(3)
C12 C 0.83527(15) 0.27878(11) 0.3376(3)
H9 H 0.81570 0.32690 0.36750
C13 C 0.77633(14) 0.21872(11) 0.3359(3)
C14 C 0.68805(15) 0.22563(11) 0.3849(3)
H10 H 0.67100 0.27190 0.42970
C15 C 0.62835(15) 0.16765(11) 0.3688(3)
H11 H 0.57040 0.17380 0.40320
C16 C 0.65145(15) 0.09674(11) 0.3003(3)
C17 C 0.59124(14) 0.03584(12) 0.2868(3)
H12 H 0.53350 0.04190 0.32220
C18 C 0.61322(14) -0.03377(11) 0.2230(3)
C19 C 0.69716(14) -0.04064(11) 0.1682(3)
H13 H 0.71260 -0.08710 0.12170
C20 C 0.75996(14) 0.01897(11) 0.1792(3)
C21 C 0.84569(14) 0.01359(11) 0.1205(3)
H14 H 0.85930 -0.03050 0.06230
C22 C 0.90826(14) 0.06987(11) 0.1456(3)
H15 H 0.96450 0.06400 0.10460
C23 C 0.89205(14) 0.13819(11) 0.2324(3)
C24 C 0.95752(14) 0.19863(11) 0.2623(3)
C25 C 1.05411(14) 0.19277(11) 0.2487(3)
C26 C 1.11004(14) 0.12586(11) 0.2818(3)
C27 C 0.73790(14) 0.08848(10) 0.2497(3)
C28 C 0.80302(14) 0.14835(11) 0.2727(3)
C29 C 0.54818(14) -0.10117(12) 0.2228(3)
C30 C 0.57776(16) -0.14504(12) 0.3916(3)
H16 H 0.64180 -0.16080 0.40020
H17 H 0.53870 -0.18930 0.39220
H18 H 0.57160 -0.11290 0.48960
C31 C 0.55348(17) -0.15369(13) 0.0703(3)
H19 H 0.54260 -0.12490 -0.03690
H20 H 0.50690 -0.19290 0.06590
H21 H 0.61430 -0.17670 0.08490
C32 C 0.44756(14) -0.07666(12) 0.2134(3)
H22 H 0.44190 -0.04650 0.31480
H23 H 0.40850 -0.12110 0.21000
H24 H 0.42840 -0.04680 0.10930
loop_
_geom_bond_atom_site_label_1
_geom_bond_atom_site_label_2
_geom_bond_distance
_geom_bond_site_symmetry_1
_geom_bond_site_symmetry_2
C1 H1 0.950 1_555 1_555
C2 C1 1.370 1_555 1_555
H2 C2 0.950 1_555 1_555
C3 C2 1.410 1_555 1_555
H3 C3 0.950 1_555 1_555
C4 C3 1.369 1_555 1_555
H4 C4 0.950 1_555 1_555
C5 C4 1.416 1_555 1_555
C6 C5 1.430 1_555 1_555
H5 C6 0.950 1_555 1_555
C7 C6 1.351 1_555 1_555
H6 C7 0.951 1_555 1_555
C8 C7 1.428 1_555 1_555
C9 C8 1.422 1_555 1_555
H7 C9 0.951 1_555 1_555
C10 C9 1.349 1_555 1_555
H8 C10 0.950 1_555 1_555
C11 C10 1.433 1_555 1_555
C12 C11 1.401 1_555 1_555
H9 C12 0.949 1_555 1_555
C13 C12 1.382 1_555 1_555
C14 C13 1.432 1_555 1_555
H10 C14 0.950 1_555 1_555
C15 C14 1.353 1_555 1_555
H11 C15 0.950 1_555 1_555
C16 C15 1.441 1_555 1_555
C17 C16 1.399 1_555 1_555
H12 C17 0.951 1_555 1_555
C18 C17 1.400 1_555 1_555
C19 C18 1.391 1_555 1_555
H13 C19 0.951 1_555 1_555
C20 C19 1.407 1_555 1_555
C21 C20 1.428 1_555 1_555
H14 C21 0.950 1_555 1_555
C22 C21 1.359 1_555 1_555
H15 C22 0.950 1_555 1_555
C23 C22 1.439 1_555 1_555
C24 C11 1.426 1_555 1_555
C25 C8 1.414 1_555 1_555
C26 C1 1.421 1_555 1_555
C27 C16 1.413 1_555 1_555
C28 C13 1.432 1_555 1_555
C29 C18 1.542 1_555 1_555
C30 C29 1.543 1_555 1_555
H16 C30 0.981 1_555 1_555
H17 C30 0.980 1_555 1_555
H18 C30 0.980 1_555 1_555
C31 C29 1.539 1_555 1_555
H19 C31 0.980 1_555 1_555
H20 C31 0.980 1_555 1_555
H21 C31 0.979 1_555 1_555
C32 C29 1.543 1_555 1_555
H22 C32 0.980 1_555 1_555
H23 C32 0.980 1_555 1_555
H24 C32 0.980 1_555 1_555
C5 C26 1.423 1_555 1_555
C20 C27 1.421 1_555 1_555
C23 C24 1.443 1_555 1_555
C23 C28 1.421 1_555 1_555
C24 C25 1.457 1_555 1_555
C25 C26 1.452 1_555 1_555
C27 C28 1.431 1_555 1_555
#END
