
#######################################################################
#
#                 Cambridge Crystallographic Data Centre
#                                CCDC
#
#######################################################################
#
# If this CIF has been generated from an entry in the Cambridge
# Structural Database, then it will include bibliographic, chemical,
# crystal, experimental, refinement or atomic coordinate data resulting
# from the CCDC's data processing and validation procedures.
#
#######################################################################

data_CSD_CIF_MIVCUR
_audit_creation_date 2014-03-13
_audit_creation_method CSD-ConQuest-V1
_database_code_CSD MIVCUR
_database_code_depnum_ccdc_archive 'CCDC 991598'
_chemical_formula_sum 'C46 H36'
_chemical_formula_moiety
;
C46 H36
;
_journal_coden_Cambridge 1096
_journal_volume 25
_journal_year 2013
_journal_page_first 2254
_journal_name_full 'Chem.Mater. '
loop_
_publ_author_name
"K.A.McGarry"
"Wei Xie"
"C.Sutton"
"C.Risko"
"Yanfei Wu"
"V.G.Young Junior"
"J.-L.Bredas"
"C.Daniel Frisbie"
"C.J.Douglas"
_chemical_name_systematic
;
5,6,11,12-tetrakis(4-Methylphenyl)tetracene
;
_cell_volume   9993.026
_exptl_crystal_colour 'red'
_exptl_crystal_density_diffrn 1.174
_exptl_crystal_description 'Block'
_diffrn_ambient_temperature 173
#These two values have been output from a single CSD field.
_refine_ls_R_factor_gt 0.0475
_refine_ls_wR_factor_gt 0.0475
_symmetry_cell_setting monoclinic
_symmetry_space_group_name_H-M 'C 2/c'
_symmetry_Int_Tables_number 15
loop_
_symmetry_equiv_pos_site_id
_symmetry_equiv_pos_as_xyz
1 x,y,z
2 -x,y,1/2-z
3 1/2+x,1/2+y,z
4 1/2-x,1/2+y,1/2-z
5 -x,-y,-z
6 x,-y,-1/2+z
7 -1/2-x,-1/2-y,-z
8 -1/2+x,-1/2-y,-1/2+z
_cell_length_a 41.257(6)
_cell_length_b 10.1464(14)
_cell_length_c 24.038(4)
_cell_angle_alpha 90
_cell_angle_beta 96.739(4)
_cell_angle_gamma 90
_cell_formula_units_Z 12
loop_
_atom_type_symbol
_atom_type_radius_bond
C 0.68
H 0.23
loop_
_atom_site_label
_atom_site_type_symbol
_atom_site_fract_x
_atom_site_fract_y
_atom_site_fract_z
C1 C 0.18490(4) 0.31675(18) 0.22905(8)
C2 C 0.19019(4) 0.31365(18) 0.28754(8)
C3 C 0.20460(5) 0.42136(19) 0.31996(8)
H1 H 0.21010 0.49940 0.30130
C4 C 0.21063(5) 0.4150(2) 0.37643(9)
H2 H 0.22000 0.48850 0.39680
C5 C 0.20303(5) 0.2998(2) 0.40529(9)
H3 H 0.20810 0.29500 0.44480
C6 C 0.18860(5) 0.1965(2) 0.37670(8)
H4 H 0.18390 0.11940 0.39660
C7 C 0.18027(4) 0.20031(18) 0.31728(8)
C8 C 0.16130(4) 0.10211(18) 0.28858(7)
C9 C 0.15293(4) 0.11050(17) 0.22959(7)
C10 C 0.12923(4) 0.02715(17) 0.19914(7)
C11 C 0.12723(5) 0.02267(18) 0.14070(8)
C12 C 0.10424(5) -0.0613(2) 0.10840(8)
H5 H 0.08810 -0.10600 0.12650
C13 C 0.10499(6) -0.0780(2) 0.05289(9)
H6 H 0.08960 -0.13460 0.03250
C14 C 0.12844(6) -0.0124(2) 0.02493(9)
H7 H 0.12940 -0.02840 -0.01380
C15 C 0.14953(5) 0.0732(2) 0.05282(8)
H8 H 0.16490 0.11780 0.03320
C16 C 0.14920(5) 0.09816(18) 0.11142(8)
C17 C 0.16946(4) 0.19236(18) 0.14017(8)
C18 C 0.16943(4) 0.20827(18) 0.19914(8)
C19 C 0.19122(4) 0.44287(18) 0.19996(8)
C20 C 0.16465(5) 0.51587(19) 0.17658(8)
H9 H 0.14320 0.48250 0.17780
C21 C 0.16878(5) 0.6361(2) 0.15161(9)
H10 H 0.15020 0.68390 0.13580
C22 C 0.19944(5) 0.6881(2) 0.14917(10)
C23 C 0.22606(5) 0.6155(2) 0.17269(10)
H11 H 0.24740 0.64920 0.17140
C24 C 0.22214(5) 0.49522(19) 0.19785(8)
H12 H 0.24080 0.44780 0.21390
C25 C 0.15242(5) -0.01545(18) 0.32099(7)
C26 C 0.12844(5) -0.0100(2) 0.35645(8)
H13 H 0.11650 0.06930 0.35950
C27 C 0.12171(6) -0.1184(2) 0.38743(8)
H14 H 0.10470 -0.11320 0.41080
C28 C 0.13895(7) -0.2345(2) 0.38562(9)
C29 C 0.16263(6) -0.2401(2) 0.35003(10)
H15 H 0.17460 -0.31940 0.34730
C30 C 0.16944(5) -0.13187(19) 0.31800(9)
H16 H 0.18600 -0.13800 0.29380
C31 C 0.10410(4) -0.04428(18) 0.22752(7)
C32 C 0.10402(5) -0.18034(19) 0.23432(8)
H17 H 0.12060 -0.23190 0.22080
C33 C 0.08007(5) -0.2411(2) 0.26055(8)
H18 H 0.08070 -0.33410 0.26530
C34 C 0.05516(5) -0.1705(2) 0.28015(8)
C35 C 0.05456(5) -0.0358(2) 0.27150(9)
H19 H 0.03720 0.01500 0.28320
C36 C 0.07876(5) 0.0263(2) 0.24604(8)
H20 H 0.07800 0.11920 0.24120
C37 C 0.19409(5) 0.26178(19) 0.11000(8)
C38 C 0.18587(5) 0.3559(2) 0.06876(8)
H21 H 0.16360 0.37990 0.05960
C39 C 0.20934(5) 0.4151(2) 0.04097(8)
H22 H 0.20300 0.47950 0.01310
C40 C 0.24200(5) 0.3826(2) 0.05291(8)
C41 C 0.25012(5) 0.2876(2) 0.09313(9)
H23 H 0.27230 0.26250 0.10160
C42 C 0.22672(5) 0.2279(2) 0.12148(8)
H24 H 0.23310 0.16300 0.14910
C43 C 0.20369(7) 0.8191(3) 0.12098(14)
H25 H 0.18410 0.83870 0.09510
H26 H 0.22270 0.81490 0.10010
H27 H 0.20700 0.88850 0.14940
C44 C 0.13150(8) -0.3499(3) 0.42119(10)
H28 H 0.13080 -0.32050 0.45990
H29 H 0.14850 -0.41690 0.42030
H30 H 0.11030 -0.38750 0.40660
C45 C 0.03025(6) -0.2391(3) 0.31114(10)
H31 H 0.01030 -0.18590 0.30880
H32 H 0.03910 -0.25030 0.35050
H33 H 0.02520 -0.32570 0.29420
C46 C 0.26773(6) 0.4484(2) 0.02297(10)
H34 H 0.28930 0.43150 0.04340
H35 H 0.26370 0.54360 0.02120
H36 H 0.26690 0.41290 -0.01510
C47 C 0.04102(4) 0.37266(17) 0.22451(7)
C48 C 0.06119(4) 0.36969(17) 0.27544(7)
C49 C 0.09533(4) 0.40011(18) 0.27957(8)
H37 H 0.10430 0.43160 0.24740
C50 C 0.11501(5) 0.3851(2) 0.32809(9)
H38 H 0.13740 0.40890 0.33000
C51 C 0.10269(5) 0.3343(2) 0.37599(8)
H39 H 0.11710 0.31850 0.40910
C52 C 0.07050(5) 0.30797(19) 0.37506(8)
H40 H 0.06260 0.27260 0.40750
C53 C 0.04805(4) 0.33262(17) 0.32589(7)
C54 C 0.01429(4) 0.32474(17) 0.32651(7)
C55 C -0.00690(4) 0.34756(17) 0.27626(7)
C56 C 0.05476(4) 0.41731(18) 0.17295(7)
C57 C 0.07583(4) 0.34103(19) 0.14554(8)
H41 H 0.08220 0.25650 0.15990
C58 C 0.08759(4) 0.3863(2) 0.09768(8)
H42 H 0.10150 0.33120 0.07910
C59 C 0.07957(5) 0.51029(19) 0.07605(8)
C60 C 0.05945(5) 0.58761(19) 0.10452(8)
H43 H 0.05400 0.67390 0.09120
C61 C 0.04707(4) 0.54234(19) 0.15200(8)
H44 H 0.03310 0.59750 0.17050
C62 C 0.00131(4) 0.27893(19) 0.37848(7)
C63 C -0.01287(5) 0.1552(2) 0.37967(8)
H45 H -0.01450 0.10130 0.34710
C64 C -0.02467(5) 0.1093(2) 0.42728(9)
H46 H -0.03420 0.02400 0.42700
C65 C -0.02297(5) 0.1841(3) 0.47525(9)
C66 C -0.00800(5) 0.3059(2) 0.47479(9)
H47 H -0.00600 0.35840 0.50770
C67 C 0.00405(5) 0.3527(2) 0.42739(8)
H48 H 0.01440 0.43650 0.42830
C68 C 0.09198(6) 0.5573(2) 0.02328(9)
H49 H 0.07810 0.62890 0.00690
H50 H 0.09160 0.48420 -0.00350
H51 H 0.11440 0.58930 0.03190
C69 C -0.03785(7) 0.1366(3) 0.52635(10)
H52 H -0.03570 0.04060 0.52940
H53 H -0.06100 0.16060 0.52270
H54 H -0.02650 0.17790 0.56000
C47A C -0.04102(4) 0.37266(17) 0.27549(7)
C48A C -0.06119(4) 0.36969(17) 0.22456(7)
C49A C -0.09533(4) 0.40011(18) 0.22043(8)
H37A H -0.10430 0.43160 0.25260
C50A C -0.11501(5) 0.3851(2) 0.17191(9)
H38A H -0.13740 0.40890 0.17000
C51A C -0.10269(5) 0.3343(2) 0.12401(8)
H39A H -0.11710 0.31850 0.09090
C52A C -0.07050(5) 0.30797(19) 0.12494(8)
H40A H -0.06260 0.27260 0.09250
C53A C -0.04805(4) 0.33262(17) 0.17411(7)
C54A C -0.01429(4) 0.32474(17) 0.17349(7)
C55A C 0.00690(4) 0.34756(17) 0.22374(7)
C56A C -0.05476(4) 0.41731(18) 0.32705(7)
C57A C -0.07583(4) 0.34103(19) 0.35446(8)
H41A H -0.08220 0.25650 0.34010
C58A C -0.08759(4) 0.3863(2) 0.40232(8)
H42A H -0.10150 0.33120 0.42090
C59A C -0.07957(5) 0.51029(19) 0.42395(8)
C60A C -0.05945(5) 0.58761(19) 0.39548(8)
H43A H -0.05400 0.67390 0.40880
C61A C -0.04707(4) 0.54234(19) 0.34800(8)
H44A H -0.03310 0.59750 0.32950
C62A C -0.00131(4) 0.27893(19) 0.12152(7)
C63A C 0.01287(5) 0.1552(2) 0.12033(8)
H45A H 0.01450 0.10130 0.15290
C64A C 0.02467(5) 0.1093(2) 0.07272(9)
H46A H 0.03420 0.02400 0.07300
C65A C 0.02297(5) 0.1841(3) 0.02475(9)
C66A C 0.00800(5) 0.3059(2) 0.02521(9)
H47A H 0.00600 0.35840 -0.00770
C67A C -0.00405(5) 0.3527(2) 0.07261(8)
H48A H -0.01440 0.43650 0.07170
C68A C -0.09198(6) 0.5573(2) 0.47672(9)
H49A H -0.07810 0.62890 0.49310
H50A H -0.09160 0.48420 0.50350
H51A H -0.11440 0.58930 0.46810
C69A C 0.03785(7) 0.1366(3) -0.02635(10)
H52A H 0.03570 0.04060 -0.02940
H53A H 0.06100 0.16060 -0.02270
H54A H 0.02650 0.17790 -0.06000
loop_
_geom_bond_atom_site_label_1
_geom_bond_atom_site_label_2
_geom_bond_distance
_geom_bond_site_symmetry_1
_geom_bond_site_symmetry_2
C1 C2 1.398 1_555 1_555
C2 C3 1.431 1_555 1_555
C3 H1 0.951 1_555 1_555
C4 C3 1.353 1_555 1_555
H2 C4 0.949 1_555 1_555
C5 C4 1.413 1_555 1_555
H3 C5 0.949 1_555 1_555
C6 C5 1.353 1_555 1_555
H4 C6 0.949 1_555 1_555
C7 C2 1.439 1_555 1_555
C8 C7 1.398 1_555 1_555
C9 C8 1.422 1_555 1_555
C10 C9 1.428 1_555 1_555
C11 C10 1.398 1_555 1_555
C12 C11 1.434 1_555 1_555
H5 C12 0.952 1_555 1_555
C13 C12 1.349 1_555 1_555
H6 C13 0.949 1_555 1_555
C14 C13 1.408 1_555 1_555
H7 C14 0.950 1_555 1_555
C15 C14 1.351 1_555 1_555
H8 C15 0.948 1_555 1_555
C16 C11 1.433 1_555 1_555
C17 C16 1.398 1_555 1_555
C18 C1 1.424 1_555 1_555
C19 C1 1.496 1_555 1_555
C20 C19 1.386 1_555 1_555
H9 C20 0.951 1_555 1_555
C21 C20 1.379 1_555 1_555
H10 C21 0.948 1_555 1_555
C22 C21 1.378 1_555 1_555
C23 C22 1.387 1_555 1_555
H11 C23 0.948 1_555 1_555
C24 C19 1.388 1_555 1_555
H12 C24 0.950 1_555 1_555
C25 C8 1.494 1_555 1_555
C26 C25 1.381 1_555 1_555
H13 C26 0.951 1_555 1_555
C27 C26 1.375 1_555 1_555
H14 C27 0.950 1_555 1_555
C28 C27 1.379 1_555 1_555
C29 C28 1.373 1_555 1_555
H15 C29 0.950 1_555 1_555
C30 C25 1.380 1_555 1_555
H16 C30 0.950 1_555 1_555
C31 C10 1.494 1_555 1_555
C32 C31 1.390 1_555 1_555
H17 C32 0.948 1_555 1_555
C33 C32 1.378 1_555 1_555
H18 C33 0.950 1_555 1_555
C34 C33 1.380 1_555 1_555
C35 C34 1.382 1_555 1_555
H19 C35 0.951 1_555 1_555
C36 C31 1.383 1_555 1_555
H20 C36 0.950 1_555 1_555
C37 C17 1.493 1_555 1_555
C38 C37 1.390 1_555 1_555
H21 C38 0.951 1_555 1_555
C39 C38 1.377 1_555 1_555
H22 C39 0.950 1_555 1_555
C40 C39 1.384 1_555 1_555
C41 C40 1.378 1_555 1_555
H23 C41 0.949 1_555 1_555
C42 C37 1.385 1_555 1_555
H24 C42 0.950 1_555 1_555
C43 C22 1.511 1_555 1_555
H25 C43 0.981 1_555 1_555
H26 C43 0.980 1_555 1_555
H27 C43 0.979 1_555 1_555
C44 C28 1.503 1_555 1_555
H28 C44 0.981 1_555 1_555
H29 C44 0.979 1_555 1_555
H30 C44 0.981 1_555 1_555
C45 C34 1.508 1_555 1_555
H31 C45 0.980 1_555 1_555
H32 C45 0.980 1_555 1_555
H33 C45 0.981 1_555 1_555
C46 C40 1.507 1_555 1_555
H34 C46 0.980 1_555 1_555
H35 C46 0.980 1_555 1_555
H36 C46 0.980 1_555 1_555
C47 C48 1.398 1_555 1_555
C48 C49 1.434 1_555 1_555
C49 H37 0.951 1_555 1_555
C50 C49 1.349 1_555 1_555
H38 C50 0.951 1_555 1_555
C51 C50 1.410 1_555 1_555
H39 C51 0.949 1_555 1_555
C52 C51 1.352 1_555 1_555
H40 C52 0.950 1_555 1_555
C53 C48 1.435 1_555 1_555
C54 C53 1.397 1_555 1_555
C55 C54 1.424 1_555 1_555
C56 C47 1.493 1_555 1_555
C57 C56 1.387 1_555 1_555
H41 C57 0.950 1_555 1_555
C58 C57 1.379 1_555 1_555
H42 C58 0.949 1_555 1_555
C59 C58 1.386 1_555 1_555
C60 C59 1.381 1_555 1_555
H43 C60 0.950 1_555 1_555
C61 C56 1.388 1_555 1_555
H44 C61 0.950 1_555 1_555
C62 C54 1.490 1_555 1_555
C63 C62 1.387 1_555 1_555
H45 C63 0.951 1_555 1_555
C64 C63 1.376 1_555 1_555
H46 C64 0.950 1_555 1_555
C65 C64 1.375 1_555 1_555
C66 C65 1.382 1_555 1_555
H47 C66 0.949 1_555 1_555
C67 C62 1.387 1_555 1_555
H48 C67 0.951 1_555 1_555
C68 C59 1.500 1_555 1_555
H49 C68 0.979 1_555 1_555
H50 C68 0.981 1_555 1_555
H51 C68 0.979 1_555 1_555
C69 C65 1.515 1_555 1_555
H52 C69 0.980 1_555 1_555
H53 C69 0.980 1_555 1_555
H54 C69 0.980 1_555 1_555
C47A C55 1.429 1_555 1_555
C48A C47A 1.398 1_555 1_555
C49A C48A 1.434 1_555 1_555
H37A C49A 0.951 1_555 1_555
C50A C49A 1.349 1_555 1_555
H38A C50A 0.951 1_555 1_555
C51A C50A 1.410 1_555 1_555
H39A C51A 0.949 1_555 1_555
C52A C51A 1.352 1_555 1_555
H40A C52A 0.950 1_555 1_555
C53A C48A 1.435 1_555 1_555
C54A C53A 1.397 1_555 1_555
C55A C47 1.429 1_555 1_555
C56A C47A 1.493 1_555 1_555
C57A C56A 1.387 1_555 1_555
H41A C57A 0.950 1_555 1_555
C58A C57A 1.379 1_555 1_555
H42A C58A 0.949 1_555 1_555
C59A C58A 1.386 1_555 1_555
C60A C59A 1.381 1_555 1_555
H43A C60A 0.950 1_555 1_555
C61A C56A 1.388 1_555 1_555
H44A C61A 0.950 1_555 1_555
C62A C54A 1.490 1_555 1_555
C63A C62A 1.387 1_555 1_555
H45A C63A 0.951 1_555 1_555
C64A C63A 1.376 1_555 1_555
H46A C64A 0.950 1_555 1_555
C65A C64A 1.375 1_555 1_555
C66A C65A 1.382 1_555 1_555
H47A C66A 0.949 1_555 1_555
C67A C62A 1.387 1_555 1_555
H48A C67A 0.951 1_555 1_555
C68A C59A 1.500 1_555 1_555
H49A C68A 0.979 1_555 1_555
H50A C68A 0.981 1_555 1_555
H51A C68A 0.979 1_555 1_555
C69A C65A 1.515 1_555 1_555
H52A C69A 0.980 1_555 1_555
H53A C69A 0.980 1_555 1_555
H54A C69A 0.980 1_555 1_555
C6 C7 1.430 1_555 1_555
C9 C18 1.449 1_555 1_555
C15 C16 1.433 1_555 1_555
C17 C18 1.427 1_555 1_555
C23 C24 1.380 1_555 1_555
C29 C30 1.389 1_555 1_555
C35 C36 1.383 1_555 1_555
C41 C42 1.385 1_555 1_555
C52 C53 1.435 1_555 1_555
C55 C55A 1.445 1_555 1_555
C60 C61 1.382 1_555 1_555
C66 C67 1.380 1_555 1_555
C52A C53A 1.435 1_555 1_555
C54A C55A 1.424 1_555 1_555
C60A C61A 1.382 1_555 1_555
C66A C67A 1.380 1_555 1_555
#END
