
#######################################################################
#
#                 Cambridge Crystallographic Data Centre
#                                CCDC
#
#######################################################################
#
# If this CIF has been generated from an entry in the Cambridge
# Structural Database, then it will include bibliographic, chemical,
# crystal, experimental, refinement or atomic coordinate data resulting
# from the CCDC's data processing and validation procedures.
#
#######################################################################

data_CSD_CIF_MIVDEC
_audit_creation_date 2014-03-13
_audit_creation_method CSD-ConQuest-V1
_database_code_CSD MIVDEC
_database_code_depnum_ccdc_archive 'CCDC 991600'
_chemical_formula_sum 'C44 H32'
_chemical_formula_moiety
;
C44 H32
;
_journal_coden_Cambridge 1096
_journal_volume 25
_journal_year 2013
_journal_page_first 2254
_journal_name_full 'Chem.Mater. '
loop_
_publ_author_name
"K.A.McGarry"
"Wei Xie"
"C.Sutton"
"C.Risko"
"Yanfei Wu"
"V.G.Young Junior"
"J.-L.Bredas"
"C.Daniel Frisbie"
"C.J.Douglas"
_chemical_name_systematic
;
5,12-bis(4-Methylphenyl)-6,11-diphenyltetracene
;
_cell_volume   3024.614
_exptl_crystal_colour 'red'
_exptl_crystal_density_diffrn 1.231
_exptl_crystal_description 'Block'
_diffrn_ambient_temperature 173
#These two values have been output from a single CSD field.
_refine_ls_R_factor_gt 0.0421
_refine_ls_wR_factor_gt 0.0421
_symmetry_cell_setting orthorhombic
_symmetry_space_group_name_H-M 'P n a 21'
_symmetry_Int_Tables_number 33
loop_
_symmetry_equiv_pos_site_id
_symmetry_equiv_pos_as_xyz
1 x,y,z
2 -x,-y,1/2+z
3 1/2+x,1/2-y,z
4 1/2-x,1/2+y,1/2+z
_cell_length_a 15.2045(8)
_cell_length_b 13.9010(8)
_cell_length_c 14.3104(8)
_cell_angle_alpha 90
_cell_angle_beta 90
_cell_angle_gamma 90
_cell_formula_units_Z 4
loop_
_atom_type_symbol
_atom_type_radius_bond
C 0.68
H 0.23
loop_
_atom_site_label
_atom_site_type_symbol
_atom_site_fract_x
_atom_site_fract_y
_atom_site_fract_z
C1 C 0.18901(14) 0.34248(16) 0.82923(15)
C2 C 0.12259(14) 0.28637(16) 0.78834(15)
C3 C 0.07987(15) 0.20966(17) 0.83684(17)
H1 H 0.10040 0.19150 0.89700
C4 C 0.01085(15) 0.16245(18) 0.79881(17)
H2 H -0.01600 0.11110 0.83200
C5 C -0.02157(15) 0.18902(17) 0.70999(18)
H3 H -0.07260 0.15840 0.68580
C6 C 0.01935(14) 0.25759(16) 0.65904(17)
H4 H -0.00310 0.27390 0.59910
C7 C 0.09581(14) 0.30613(15) 0.69358(15)
C8 C 0.14479(14) 0.36862(16) 0.63758(15)
C9 C 0.22076(13) 0.41538(15) 0.67560(15)
C10 C 0.28593(14) 0.46139(15) 0.61958(15)
C11 C 0.35092(14) 0.51779(15) 0.66176(16)
C12 C 0.42175(14) 0.55874(17) 0.60927(17)
H5 H 0.42830 0.54220 0.54520
C13 C 0.47958(15) 0.62039(17) 0.64880(17)
H6 H 0.52710 0.64530 0.61310
C14 C 0.46938(15) 0.64759(17) 0.74294(17)
H7 H 0.50770 0.69460 0.76880
C15 C 0.40612(14) 0.60812(16) 0.79750(16)
H8 H 0.40060 0.62790 0.86080
C16 C 0.34713(14) 0.53661(15) 0.76057(15)
C17 C 0.28898(13) 0.48490(15) 0.81673(15)
C18 C 0.23267(13) 0.41464(15) 0.77532(14)
C19 C 0.22389(14) 0.31406(15) 0.92340(15)
C20 C 0.17566(15) 0.31787(17) 1.00518(16)
H9 H 0.11870 0.34590 1.00450
C21 C 0.20887(16) 0.28169(17) 1.08775(17)
H10 H 0.17450 0.28550 1.14300
C22 C 0.29149(16) 0.23988(16) 1.09143(16)
C23 C 0.34104(15) 0.23856(16) 1.01047(16)
H11 H 0.39890 0.21280 1.01180
C24 C 0.30761(14) 0.27432(16) 0.92729(16)
H12 H 0.34240 0.27160 0.87220
C25 C 0.11299(14) 0.39199(17) 0.54176(15)
C26 C 0.11913(17) 0.32856(17) 0.46747(16)
H13 H 0.14230 0.26590 0.47720
C27 C 0.09165(17) 0.35593(18) 0.37906(17)
H14 H 0.09790 0.31200 0.32870
C28 C 0.05529(15) 0.44558(18) 0.36212(16)
C29 C 0.04567(15) 0.50764(18) 0.43724(17)
H15 H 0.01880 0.56860 0.42820
C30 C 0.07487(15) 0.48159(17) 0.52565(17)
H16 H 0.06870 0.52560 0.57600
C31 C 0.29407(14) 0.44177(16) 0.51752(15)
C32 C 0.32472(15) 0.35227(18) 0.48897(16)
H17 H 0.33630 0.30390 0.53420
C33 C 0.33847(18) 0.3330(2) 0.39543(18)
H18 H 0.36000 0.27180 0.37670
C34 C 0.32089(17) 0.4031(2) 0.32861(18)
H19 H 0.32960 0.38970 0.26420
C35 C 0.29094(16) 0.49159(19) 0.35631(17)
H20 H 0.27840 0.53950 0.31090
C36 C 0.27885(15) 0.51157(17) 0.45055(15)
H21 H 0.25990 0.57380 0.46920
C37 C 0.27619(14) 0.51351(16) 0.91690(15)
C38 C 0.34156(16) 0.51006(17) 0.98451(16)
H22 H 0.39740 0.48380 0.96900
C39 C 0.32712(19) 0.5441(2) 1.07392(18)
H23 H 0.37280 0.54130 1.11910
C40 C 0.24615(19) 0.58216(19) 1.09760(19)
H24 H 0.23630 0.60650 1.15880
C41 C 0.17946(18) 0.58472(18) 1.03186(17)
H25 H 0.12330 0.60940 1.04820
C42 C 0.19482(15) 0.55121(17) 0.94231(17)
H26 H 0.14900 0.55400 0.89730
C43 C 0.32462(18) 0.19354(18) 1.18008(17)
H27 H 0.28090 0.20190 1.22980
H28 H 0.38000 0.22390 1.19880
H29 H 0.33440 0.12480 1.16920
C44 C 0.0284(2) 0.4754(2) 0.26447(18)
H30 H 0.04010 0.42260 0.22090
H31 H 0.06210 0.53220 0.24560
H32 H -0.03450 0.49070 0.26370
loop_
_geom_bond_atom_site_label_1
_geom_bond_atom_site_label_2
_geom_bond_distance
_geom_bond_site_symmetry_1
_geom_bond_site_symmetry_2
C1 C2 1.404 1_555 1_555
C2 C3 1.429 1_555 1_555
C3 H1 0.950 1_555 1_555
C4 C3 1.352 1_555 1_555
H2 C4 0.950 1_555 1_555
C5 C4 1.412 1_555 1_555
H3 C5 0.950 1_555 1_555
C6 C5 1.352 1_555 1_555
H4 C6 0.951 1_555 1_555
C7 C2 1.442 1_555 1_555
C8 C7 1.397 1_555 1_555
C9 C8 1.433 1_555 1_555
C10 C9 1.426 1_555 1_555
C11 C10 1.398 1_555 1_555
C12 C11 1.431 1_555 1_555
H5 C12 0.950 1_555 1_555
C13 C12 1.352 1_555 1_555
H6 C13 0.950 1_555 1_555
C14 C13 1.408 1_555 1_555
H7 C14 0.951 1_555 1_555
C15 C14 1.355 1_555 1_555
H8 C15 0.950 1_555 1_555
C16 C11 1.439 1_555 1_555
C17 C16 1.394 1_555 1_555
C18 C1 1.429 1_555 1_555
C19 C1 1.501 1_555 1_555
C20 C19 1.382 1_555 1_555
H9 C20 0.950 1_555 1_555
C21 C20 1.380 1_555 1_555
H10 C21 0.949 1_555 1_555
C22 C21 1.385 1_555 1_555
C23 C22 1.382 1_555 1_555
H11 C23 0.950 1_555 1_555
C24 C19 1.389 1_555 1_555
H12 C24 0.950 1_555 1_555
C25 C8 1.490 1_555 1_555
C26 C25 1.384 1_555 1_555
H13 C26 0.950 1_555 1_555
C27 C26 1.386 1_555 1_555
H14 C27 0.949 1_555 1_555
C28 C27 1.385 1_555 1_555
C29 C28 1.386 1_555 1_555
H15 C29 0.950 1_555 1_555
C30 C25 1.393 1_555 1_555
H16 C30 0.950 1_555 1_555
C31 C10 1.491 1_555 1_555
C32 C31 1.390 1_555 1_555
H17 C32 0.950 1_555 1_555
C33 C32 1.381 1_555 1_555
H18 C33 0.950 1_555 1_555
C34 C33 1.391 1_555 1_555
H19 C34 0.950 1_555 1_555
C35 C34 1.370 1_555 1_555
H20 C35 0.950 1_555 1_555
C36 C31 1.383 1_555 1_555
H21 C36 0.950 1_555 1_555
C37 C17 1.500 1_555 1_555
C38 C37 1.388 1_555 1_555
H22 C38 0.950 1_555 1_555
C39 C38 1.382 1_555 1_555
H23 C39 0.950 1_555 1_555
C40 C39 1.382 1_555 1_555
H24 C40 0.951 1_555 1_555
C41 C40 1.384 1_555 1_555
H25 C41 0.949 1_555 1_555
C42 C37 1.392 1_555 1_555
H26 C42 0.950 1_555 1_555
C43 C22 1.509 1_555 1_555
H27 C43 0.981 1_555 1_555
H28 C43 0.979 1_555 1_555
H29 C43 0.980 1_555 1_555
C44 C28 1.514 1_555 1_555
H30 C44 0.979 1_555 1_555
H31 C44 0.979 1_555 1_555
H32 C44 0.980 1_555 1_555
C6 C7 1.432 1_555 1_555
C9 C18 1.439 1_555 1_555
C15 C16 1.439 1_555 1_555
C17 C18 1.428 1_555 1_555
C23 C24 1.386 1_555 1_555
C29 C30 1.389 1_555 1_555
C35 C36 1.389 1_555 1_555
C41 C42 1.383 1_555 1_555
#END
