
#######################################################################
#
#                 Cambridge Crystallographic Data Centre
#                                CCDC
#
#######################################################################
#
# If this CIF has been generated from an entry in the Cambridge
# Structural Database, then it will include bibliographic, chemical,
# crystal, experimental, refinement or atomic coordinate data resulting
# from the CCDC's data processing and validation procedures.
#
#######################################################################

data_CSD_CIF_MIVDAY
_audit_creation_date 2014-03-13
_audit_creation_method CSD-ConQuest-V1
_database_code_CSD MIVDAY
_database_code_depnum_ccdc_archive 'CCDC 991599'
_chemical_formula_sum 'C48 H40'
_chemical_formula_moiety
;
C48 H40
;
_journal_coden_Cambridge 1096
_journal_volume 25
_journal_year 2013
_journal_page_first 2254
_journal_name_full 'Chem.Mater. '
loop_
_publ_author_name
"K.A.McGarry"
"Wei Xie"
"C.Sutton"
"C.Risko"
"Yanfei Wu"
"V.G.Young Junior"
"J.-L.Bredas"
"C.Daniel Frisbie"
"C.J.Douglas"
_chemical_name_systematic
;
5,12-bis(3,5-Dimethylphenyl)-6,11-bis(4-methylphenyl)tetracene
;
_cell_volume   1716.432
_exptl_crystal_colour 'red'
_exptl_crystal_density_diffrn 1.193
_exptl_crystal_description 'Block'
_diffrn_ambient_temperature 173
#These two values have been output from a single CSD field.
_refine_ls_R_factor_gt 0.0431
_refine_ls_wR_factor_gt 0.0431
_symmetry_cell_setting monoclinic
_symmetry_space_group_name_H-M 'P 21'
_symmetry_Int_Tables_number 4
loop_
_symmetry_equiv_pos_site_id
_symmetry_equiv_pos_as_xyz
1 x,y,z
2 -x,1/2+y,-z
_cell_length_a 12.7495(10)
_cell_length_b 9.4141(7)
_cell_length_c 14.5027(11)
_cell_angle_alpha 90
_cell_angle_beta 99.576(2)
_cell_angle_gamma 90
_cell_formula_units_Z 2
loop_
_atom_type_symbol
_atom_type_radius_bond
C 0.68
H 0.23
loop_
_atom_site_label
_atom_site_type_symbol
_atom_site_fract_x
_atom_site_fract_y
_atom_site_fract_z
C1 C 0.84862(16) 0.07844(19) 0.37158(13)
C2 C 0.95442(16) 0.0659(2) 0.41590(13)
C3 C 0.98392(18) -0.0086(2) 0.50242(15)
H1 H 0.92970 -0.04290 0.53430
C4 C 1.08653(18) -0.0313(2) 0.53977(15)
H2 H 1.10360 -0.08320 0.59650
C5 C 1.16918(18) 0.0217(2) 0.49512(15)
H3 H 1.24130 0.00460 0.52170
C6 C 1.14580(16) 0.0963(2) 0.41510(14)
H4 H 1.20220 0.13060 0.38590
C7 C 1.03850(16) 0.1253(2) 0.37300(13)
C8 C 1.01403(15) 0.2096(2) 0.29240(13)
C9 C 0.90622(16) 0.23090(19) 0.24990(13)
C10 C 0.87459(16) 0.3279(2) 0.17452(13)
C11 C 0.77261(17) 0.3196(2) 0.12101(13)
C12 C 0.74121(18) 0.4094(2) 0.04134(14)
H5 H 0.78580 0.48620 0.03010
C13 C 0.64878(18) 0.3866(3) -0.01834(15)
H6 H 0.62990 0.44660 -0.07120
C14 C 0.58075(19) 0.2744(3) -0.00244(15)
H7 H 0.51780 0.25700 -0.04600
C15 C 0.60456(17) 0.1907(3) 0.07497(14)
H8 H 0.55710 0.11680 0.08510
C16 C 0.69954(16) 0.2122(2) 0.14113(13)
C17 C 0.72435(16) 0.1311(2) 0.22347(13)
C18 C 0.82407(15) 0.1460(2) 0.28231(13)
C19 C 0.76245(16) 0.0337(2) 0.42416(13)
C20 C 0.73817(16) -0.1067(2) 0.44081(13)
H9 H 0.77650 -0.18100 0.41700
C21 C 0.65831(16) -0.1396(2) 0.49199(14)
H10 H 0.64210 -0.23640 0.50160
C22 C 0.60196(17) -0.0345(2) 0.52921(14)
C23 C 0.62903(18) 0.1048(3) 0.51580(15)
H11 H 0.59370 0.17860 0.54310
C24 C 0.70702(17) 0.1396(2) 0.46313(15)
H12 H 0.72270 0.23660 0.45360
C25 C 1.10606(16) 0.2606(2) 0.24844(13)
C26 C 1.16706(16) 0.3770(2) 0.28169(14)
H13 H 1.14990 0.42920 0.33320
C27 C 1.25314(17) 0.4182(3) 0.24058(14)
H14 H 1.29320 0.49950 0.26370
C28 C 1.28162(18) 0.3432(2) 0.16661(16)
C29 C 1.22210(18) 0.2244(2) 0.13498(16)
H15 H 1.24100 0.16990 0.08510
C30 C 1.13537(17) 0.1841(2) 0.17509(14)
H16 H 1.09530 0.10270 0.15200
C31 C 0.94659(17) 0.4451(2) 0.15317(13)
C32 C 0.95927(19) 0.5646(2) 0.20903(16)
H17 H 0.92190 0.57150 0.26030
C33 C 1.0253(2) 0.6745(3) 0.19179(19)
C34 C 1.0795(2) 0.6623(3) 0.11759(19)
H18 H 1.12620 0.73630 0.10610
C35 C 1.06746(18) 0.5443(3) 0.05899(17)
C36 C 0.99860(17) 0.4375(2) 0.07654(14)
H19 H 0.98690 0.35810 0.03560
C37 C 0.64873(16) 0.0147(2) 0.23795(13)
C38 C 0.67649(17) -0.1250(2) 0.22119(14)
H20 H 0.74280 -0.14380 0.20190
C39 C 0.60904(18) -0.2370(2) 0.23213(15)
C40 C 0.51219(18) -0.2070(3) 0.25961(15)
H21 H 0.46560 -0.28320 0.26740
C41 C 0.48145(17) -0.0693(3) 0.27607(14)
C42 C 0.55066(16) 0.0417(2) 0.26434(14)
H22 H 0.53050 0.13680 0.27450
C43 C 0.51476(18) -0.0700(3) 0.58406(16)
H23 H 0.53740 -0.14950 0.62640
H24 H 0.45030 -0.09670 0.54090
H25 H 0.50000 0.01300 0.62060
C44 C 1.3750(2) 0.3903(3) 0.12223(19)
H26 H 1.37380 0.49380 0.11550
H27 H 1.37040 0.34610 0.06050
H28 H 1.44140 0.36130 0.16190
C45 C 1.0400(3) 0.8034(3) 0.2557(2)
H29 H 1.04760 0.77240 0.32100
H30 H 0.97800 0.86580 0.24110
H31 H 1.10410 0.85520 0.24620
C46 C 1.1289(2) 0.5273(4) -0.02079(18)
H32 H 1.20020 0.56770 -0.00300
H33 H 1.09160 0.57690 -0.07610
H34 H 1.13470 0.42610 -0.03520
C47 C 0.6425(2) -0.3876(3) 0.2177(2)
H35 H 0.58180 -0.44100 0.18430
H36 H 0.66710 -0.43210 0.27850
H37 H 0.70030 -0.38770 0.18080
C48 C 0.37698(19) -0.0383(3) 0.30741(19)
H38 H 0.33280 -0.12410 0.30080
H39 H 0.34010 0.03780 0.26880
H40 H 0.39000 -0.00850 0.37310
loop_
_geom_bond_atom_site_label_1
_geom_bond_atom_site_label_2
_geom_bond_distance
_geom_bond_site_symmetry_1
_geom_bond_site_symmetry_2
C1 C2 1.399 1_555 1_555
C2 C3 1.432 1_555 1_555
C3 H1 0.950 1_555 1_555
C4 C3 1.347 1_555 1_555
H2 C4 0.950 1_555 1_555
C5 C4 1.416 1_555 1_555
H3 C5 0.950 1_555 1_555
C6 C5 1.347 1_555 1_555
H4 C6 0.950 1_555 1_555
C7 C2 1.439 1_555 1_555
C8 C7 1.404 1_555 1_555
C9 C8 1.424 1_555 1_555
C10 C9 1.430 1_555 1_555
C11 C10 1.401 1_555 1_555
C12 C11 1.434 1_555 1_555
H5 C12 0.950 1_555 1_555
C13 C12 1.358 1_555 1_555
H6 C13 0.950 1_555 1_555
C14 C13 1.410 1_555 1_555
H7 C14 0.949 1_555 1_555
C15 C14 1.364 1_555 1_555
H8 C15 0.949 1_555 1_555
C16 C11 1.437 1_555 1_555
C17 C16 1.408 1_555 1_555
C18 C1 1.430 1_555 1_555
C19 C1 1.498 1_555 1_555
C20 C19 1.388 1_555 1_555
H9 C20 0.951 1_555 1_555
C21 C20 1.391 1_555 1_555
H10 C21 0.950 1_555 1_555
C22 C21 1.384 1_555 1_555
C23 C22 1.378 1_555 1_555
H11 C23 0.950 1_555 1_555
C24 C19 1.395 1_555 1_555
H12 C24 0.950 1_555 1_555
C25 C8 1.504 1_555 1_555
C26 C25 1.383 1_555 1_555
H13 C26 0.950 1_555 1_555
C27 C26 1.389 1_555 1_555
H14 C27 0.950 1_555 1_555
C28 C27 1.382 1_555 1_555
C29 C28 1.386 1_555 1_555
H15 C29 0.950 1_555 1_555
C30 C25 1.386 1_555 1_555
H16 C30 0.950 1_555 1_555
C31 C10 1.500 1_555 1_555
C32 C31 1.380 1_555 1_555
H17 C32 0.950 1_555 1_555
C33 C32 1.383 1_555 1_555
C34 C33 1.377 1_555 1_555
H18 C34 0.949 1_555 1_555
C35 C34 1.392 1_555 1_555
C36 C31 1.387 1_555 1_555
H19 C36 0.951 1_555 1_555
C37 C17 1.497 1_555 1_555
C38 C37 1.394 1_555 1_555
H20 C38 0.950 1_555 1_555
C39 C38 1.386 1_555 1_555
C40 C39 1.388 1_555 1_555
H21 C40 0.950 1_555 1_555
C41 C40 1.386 1_555 1_555
C42 C37 1.391 1_555 1_555
H22 C42 0.950 1_555 1_555
C43 C22 1.508 1_555 1_555
H23 C43 0.981 1_555 1_555
H24 C43 0.979 1_555 1_555
H25 C43 0.980 1_555 1_555
C44 C28 1.511 1_555 1_555
H26 C44 0.979 1_555 1_555
H27 C44 0.980 1_555 1_555
H28 C44 0.980 1_555 1_555
C45 C33 1.520 1_555 1_555
H29 C45 0.980 1_555 1_555
H30 C45 0.979 1_555 1_555
H31 C45 0.981 1_555 1_555
C46 C35 1.510 1_555 1_555
H32 C46 0.980 1_555 1_555
H33 C46 0.980 1_555 1_555
H34 C46 0.981 1_555 1_555
C47 C39 1.505 1_555 1_555
H35 C47 0.981 1_555 1_555
H36 C47 0.979 1_555 1_555
H37 C47 0.980 1_555 1_555
C48 C41 1.506 1_555 1_555
H38 C48 0.980 1_555 1_555
H39 C48 0.980 1_555 1_555
H40 C48 0.980 1_555 1_555
C6 C7 1.429 1_555 1_555
C9 C18 1.456 1_555 1_555
C15 C16 1.429 1_555 1_555
C17 C18 1.415 1_555 1_555
C23 C24 1.390 1_555 1_555
C29 C30 1.385 1_555 1_555
C35 C36 1.386 1_555 1_555
C41 C42 1.396 1_555 1_555
#END
