
#######################################################################
#
#                 Cambridge Crystallographic Data Centre
#                                CCDC
#
#######################################################################
#
# If this CIF has been generated from an entry in the Cambridge
# Structural Database, then it will include bibliographic, chemical,
# crystal, experimental, refinement or atomic coordinate data resulting
# from the CCDC's data processing and validation procedures.
#
#######################################################################

data_CSD_CIF_MNAPAD
_audit_creation_date 1979-08-06
_audit_creation_method CSD-ConQuest-V1
_database_code_CSD MNAPAD
_chemical_formula_sum 'C19 H14'
_chemical_formula_moiety
;
C19 H14
;
_journal_coeditor_code "IUCr A17275"
_journal_coden_Cambridge 107
_journal_volume 35
_journal_year 1979
_journal_page_first 404
_journal_name_full 'Acta Crystallogr.,Sect.B:Struct.Crystallogr.Cryst.Chem. '
loop_
_publ_author_name
"P.J.Cox"
"G.A.Sim"
_chemical_name_systematic
;
5-Methylnaphthacene
;
_cell_volume   1262.935
_exptl_crystal_colour 'red'
_exptl_crystal_density_diffrn 1.27
_diffrn_ambient_temperature ?
_diffrn_special_details
;
The study was carried out at room temperature,in the range 283-303K

;
#These two values have been output from a single CSD field.
_refine_ls_R_factor_gt 0.066
_refine_ls_wR_factor_gt 0.066
_symmetry_cell_setting monoclinic
_symmetry_space_group_name_H-M 'P 21/c'
_symmetry_Int_Tables_number 14
loop_
_symmetry_equiv_pos_site_id
_symmetry_equiv_pos_as_xyz
1 x,y,z
2 -x,1/2+y,1/2-z
3 -x,-y,-z
4 x,-1/2-y,-1/2+z
_cell_length_a 10.794(2)
_cell_length_b 14.697(4)
_cell_length_c 7.980(2)
_cell_angle_alpha 90
_cell_angle_beta 93.95(3)
_cell_angle_gamma 90
_cell_formula_units_Z 4
loop_
_atom_type_symbol
_atom_type_radius_bond
C 0.68
H 0.23
loop_
_atom_site_label
_atom_site_type_symbol
_atom_site_fract_x
_atom_site_fract_y
_atom_site_fract_z
C1 C 0.89160 0.39850 -0.13370
C2 C 0.94240 0.37010 -0.27550
C3 C 0.86680 0.32990 -0.40790
C4 C 0.74450 0.32110 -0.39580
C5 C 0.19640 0.33390 0.10650
C6 C 0.14370 0.35640 0.25230
C7 C 0.21760 0.39710 0.38480
C8 C 0.33750 0.41680 0.37180
C9 C 0.70740 0.41320 0.03820
C10 C 0.56120 0.33180 -0.23120
C11 C 0.38040 0.33450 -0.06260
C12 C 0.52080 0.41400 0.20410
C13 C 0.76190 0.38730 -0.11180
C14 C 0.68490 0.34790 -0.24770
C15 C 0.50550 0.35380 -0.08150
C16 C 0.32390 0.35280 0.08520
C17 C 0.39740 0.39650 0.22100
C18 C 0.58060 0.39580 0.05510
C19 C 0.78370 0.45700 0.18060
H1 H 0.94900 0.43400 -0.05000
H2 H 1.03100 0.38100 -0.29000
H3 H 0.91300 0.30800 -0.48500
H4 H 0.69200 0.28900 -0.48000
H5 H 0.14500 0.29800 0.01800
H6 H 0.05900 0.33600 0.25500
H7 H 0.17200 0.41600 0.45400
H8 H 0.38700 0.45400 0.46700
H9 H 0.50400 0.29800 -0.32200
H10 H 0.32600 0.29800 -0.15300
H11 H 0.57100 0.44600 0.29600
H12 H 0.82600 0.52600 0.17100
H13 H 0.86000 0.42800 0.20500
H14 H 0.72900 0.47100 0.25400
loop_
_geom_bond_atom_site_label_1
_geom_bond_atom_site_label_2
_geom_bond_distance
_geom_bond_site_symmetry_1
_geom_bond_site_symmetry_2
C1 C2 1.357 1_555 1_555
C2 C3 1.419 1_555 1_555
C3 C4 1.337 1_555 1_555
C4 C14 1.439 1_555 1_555
C5 C6 1.370 1_555 1_555
C6 C7 1.413 1_555 1_555
C7 C8 1.337 1_555 1_555
C8 C17 1.436 1_555 1_555
C9 C13 1.422 1_555 1_555
C10 C14 1.371 1_555 1_555
C11 C15 1.398 1_555 1_555
C12 C17 1.372 1_555 1_555
C13 C1 1.432 1_555 1_555
C14 C13 1.442 1_555 1_555
C15 C10 1.411 1_555 1_555
C16 C5 1.426 1_555 1_555
C17 C16 1.448 1_555 1_555
C18 C9 1.408 1_555 1_555
C19 C9 1.502 1_555 1_555
H1 C1 1.022 1_555 1_555
H2 C2 0.984 1_555 1_555
H3 C3 0.879 1_555 1_555
H4 C4 0.971 1_555 1_555
H5 C5 1.015 1_555 1_555
H6 C6 0.964 1_555 1_555
H7 C7 0.814 1_555 1_555
H8 C8 1.051 1_555 1_555
H9 C10 1.045 1_555 1_555
H10 C11 1.046 1_555 1_555
H11 C12 0.999 1_555 1_555
H12 C19 1.117 1_555 1_555
H13 C19 0.936 1_555 1_555
H14 C19 0.884 1_555 1_555
C11 C16 1.391 1_555 1_555
C12 C18 1.417 1_555 1_555
C15 C18 1.451 1_555 1_555
#END
