
#######################################################################
#
#                 Cambridge Crystallographic Data Centre
#                                CCDC
#
#######################################################################
#
# If this CIF has been generated from an entry in the Cambridge
# Structural Database, then it will include bibliographic, chemical,
# crystal, experimental, refinement or atomic coordinate data resulting
# from the CCDC's data processing and validation procedures.
#
#######################################################################

data_CSD_CIF_MNBOCT
_audit_creation_date 1976-05-03
_audit_creation_method CSD-ConQuest-V1
_database_code_CSD MNBOCT
_chemical_formula_sum 'C20 H24'
_chemical_formula_moiety
;
C20 H24
;
_journal_coeditor_code "IUCr A13096"
_journal_coden_Cambridge 107
_journal_volume 32
_journal_year 1976
_journal_page_first 296
_journal_name_full 'Acta Crystallogr.,Sect.B:Struct.Crystallogr.Cryst.Chem. '
loop_
_publ_author_name
"R.C.Pettersen"
"D.L.Cullen"
"H.L.Pearce"
"B.L.Shapiro"
_chemical_name_systematic
;
1,3,3,5-Tetramethyl-6,7-(1',2'-naphtho)bicyclo(3.2.1)octane
;
_cell_volume   1624.658
_exptl_crystal_density_diffrn 1.079
_diffrn_ambient_temperature ?
_diffrn_special_details
;
The study was carried out at room temperature,in the range 283-303K

;
#These two values have been output from a single CSD field.
_refine_ls_R_factor_gt 0.055
_refine_ls_wR_factor_gt 0.055
_symmetry_cell_setting monoclinic
_symmetry_space_group_name_H-M 'P 21/a'
_symmetry_Int_Tables_number 14
loop_
_symmetry_equiv_pos_site_id
_symmetry_equiv_pos_as_xyz
1 x,y,z
2 1/2-x,1/2+y,-z
3 -x,-y,-z
4 -1/2+x,-1/2-y,z
_cell_length_a 23.482(5)
_cell_length_b 7.845(3)
_cell_length_c 8.825(2)
_cell_angle_alpha 90
_cell_angle_beta 92.06(1)
_cell_angle_gamma 90
_cell_formula_units_Z 4
loop_
_atom_type_symbol
_atom_type_radius_bond
C 0.68
H 0.23
loop_
_atom_site_label
_atom_site_type_symbol
_atom_site_fract_x
_atom_site_fract_y
_atom_site_fract_z
C1 C -0.40830 -0.26260 -0.00310
C2 C -0.24800 -0.22500 -0.21270
C3 C -0.19540 -0.22240 -0.29060
C4 C -0.18150 -0.34700 -0.38480
C5 C -0.21820 -0.47930 -0.41280
C6 C -0.26890 -0.49090 -0.34110
C7 C -0.28550 -0.36560 -0.23750
C8 C -0.33620 -0.36860 -0.15710
C9 C -0.41610 -0.18920 0.15560
C10 C -0.51270 -0.24770 -0.35090
C11 C -0.41580 -0.13790 -0.37150
C12 C -0.41220 -0.45380 -0.01040
C13 C -0.37250 -0.68390 -0.17330
C14 C -0.38560 -0.49350 -0.16390
C15 C -0.42990 -0.44080 -0.28750
C16 C -0.45190 -0.25600 -0.27940
C17 C -0.45460 -0.19060 -0.11450
C18 C -0.34960 -0.23680 -0.06350
C19 C -0.31270 -0.09760 -0.04090
C20 C -0.26280 -0.09400 -0.11500
H1 H -0.18000 -0.11400 -0.27200
H2 H -0.14400 -0.34500 -0.43800
H3 H -0.21200 -0.56700 -0.45400
H4 H -0.29500 -0.58900 -0.35500
H5 H -0.39100 -0.24500 0.23000
H6 H -0.45400 -0.23000 0.17900
H7 H -0.41100 -0.07400 0.15500
H8 H -0.53500 -0.31700 -0.30300
H9 H -0.51200 -0.30600 -0.43800
H10 H -0.52600 -0.13600 -0.34400
H11 H -0.41900 -0.15400 -0.46700
H12 H -0.37600 -0.12900 -0.33900
H13 H -0.42600 -0.02900 -0.39100
H14 H -0.38800 -0.51000 0.05200
H15 H -0.40300 -0.73400 -0.15100
H16 H -0.33700 -0.70200 -0.14300
H17 H -0.35600 -0.70600 -0.26400
H18 H -0.44700 -0.49900 -0.02300
H19 H -0.41700 -0.47000 -0.38400
H20 H -0.46200 -0.51000 -0.28600
H21 H -0.45500 -0.07500 -0.12500
H22 H -0.49100 -0.23400 -0.06400
H23 H -0.32200 -0.01200 0.02900
H24 H -0.24300 0.00200 -0.09400
loop_
_geom_bond_atom_site_label_1
_geom_bond_atom_site_label_2
_geom_bond_distance
_geom_bond_site_symmetry_1
_geom_bond_site_symmetry_2
C1 C9 1.531 1_555 1_555
C2 C3 1.435 1_555 1_555
C3 C4 1.331 1_555 1_555
C4 C5 1.366 1_555 1_555
C5 C6 1.371 1_555 1_555
C6 C7 1.407 1_555 1_555
C7 C2 1.423 1_555 1_555
C8 C7 1.408 1_555 1_555
C9 H5 0.971 1_555 1_555
C10 C16 1.541 1_555 1_555
C11 C16 1.512 1_555 1_555
C12 C1 1.504 1_555 1_555
C13 C14 1.528 1_555 1_555
C14 C8 1.518 1_555 1_555
C15 C14 1.537 1_555 1_555
C16 C15 1.542 1_555 1_555
C17 C1 1.546 1_555 1_555
C18 C1 1.509 1_555 1_555
C19 C18 1.404 1_555 1_555
C20 C2 1.394 1_555 1_555
H1 C3 0.936 1_555 1_555
H2 C4 1.013 1_555 1_555
H3 C5 0.794 1_555 1_555
H4 C6 0.989 1_555 1_555
H6 C9 0.975 1_555 1_555
H7 C9 0.912 1_555 1_555
H8 C10 0.874 1_555 1_555
H9 C10 0.895 1_555 1_555
H10 C10 0.933 1_555 1_555
H11 C11 0.853 1_555 1_555
H12 C11 0.970 1_555 1_555
H13 C11 0.902 1_555 1_555
H14 C12 0.893 1_555 1_555
H15 C13 0.846 1_555 1_555
H16 C13 0.878 1_555 1_555
H17 C13 0.918 1_555 1_555
H18 C12 0.894 1_555 1_555
H19 C15 0.942 1_555 1_555
H20 C15 0.929 1_555 1_555
H21 C17 0.912 1_555 1_555
H22 C17 1.036 1_555 1_555
H23 C19 0.943 1_555 1_555
H24 C20 0.901 1_555 1_555
C8 C18 1.367 1_555 1_555
C12 C14 1.544 1_555 1_555
C16 C17 1.546 1_555 1_555
C19 C20 1.363 1_555 1_555
#END
