
#######################################################################
#
#                 Cambridge Crystallographic Data Centre
#                                CCDC
#
#######################################################################
#
# If this CIF has been generated from an entry in the Cambridge
# Structural Database, then it will include bibliographic, chemical,
# crystal, experimental, refinement or atomic coordinate data resulting
# from the CCDC's data processing and validation procedures.
#
#######################################################################

data_CSD_CIF_MOCBIR
_audit_creation_date 2014-03-17
_audit_creation_method CSD-ConQuest-V1
_database_code_CSD MOCBIR
_database_code_depnum_ccdc_archive 'CCDC 991889'
_chemical_formula_sum 'C27 H32'
_chemical_formula_moiety
;
C27 H32
;
_journal_coden_Cambridge 179
_journal_volume 53
_journal_year 2014
_journal_page_first 2422
_journal_name_full 'Angew.Chem.,Int.Ed. '
loop_
_publ_author_name
"I.M.Yonova"
"A.George Johnson"
"C.A.Osborne"
"C.E.Moore"
"N.S.Morrissette"
"E.R.Jarvo"
_chemical_name_systematic
;
(S)-2-(1-Cyclohexyl-5-phenylpentan-2-yl)naphthalene
;
_chemical_melting_point 353
_cell_volume   1058.558
_exptl_crystal_colour 'colorless'
_exptl_crystal_density_diffrn 1.119
_exptl_special_details
;
Melting point range 353-353K
Absolute configuration

;
_exptl_crystal_description 'Needle'
_exptl_crystal_preparation 'methanol/pentane'
_diffrn_ambient_temperature 90
#These two values have been output from a single CSD field.
_refine_ls_R_factor_gt 0.0312
_refine_ls_wR_factor_gt 0.0312
_symmetry_cell_setting triclinic
_symmetry_space_group_name_H-M 'P 1'
_symmetry_Int_Tables_number 1
loop_
_symmetry_equiv_pos_site_id
_symmetry_equiv_pos_as_xyz
1 x,y,z
_cell_length_a 5.9031(2)
_cell_length_b 13.8552(5)
_cell_length_c 14.0936(5)
_cell_angle_alpha 106.3499(15)
_cell_angle_beta 98.3273(14)
_cell_angle_gamma 101.5540(15)
_cell_formula_units_Z 2
loop_
_atom_type_symbol
_atom_type_radius_bond
C 0.68
H 0.23
loop_
_atom_site_label
_atom_site_type_symbol
_atom_site_fract_x
_atom_site_fract_y
_atom_site_fract_z
C1 C 0.8627(3) 0.27121(16) 0.97590(14)
H1 H 0.99720 0.28650 0.94220
C2 C 0.8982(4) 0.18393(16) 1.02037(15)
H2 H 1.03780 0.21220 1.07740
H3 H 0.75830 0.16240 1.04790
C3 C 0.9335(3) 0.08832(16) 0.94447(14)
H4 H 1.05760 0.11060 0.90920
H5 H 0.78460 0.05320 0.89310
C4 C 1.0054(4) 0.01082(17) 0.99439(15)
H6 H 1.15040 0.04660 1.04790
H7 H 0.87800 -0.01440 1.02680
C5 C 1.0507(3) -0.08079(16) 0.91860(14)
C6 C 0.8896(3) -0.17758(17) 0.88446(15)
H8 H 0.75000 -0.18730 0.91040
C7 C 0.9312(4) -0.26027(17) 0.81258(15)
H9 H 0.81920 -0.32600 0.78930
C8 C 1.1349(4) -0.24731(19) 0.77477(16)
H10 H 1.16360 -0.30410 0.72600
C9 C 1.2964(4) -0.15132(18) 0.80831(16)
H11 H 1.43620 -0.14190 0.78240
C10 C 1.2546(4) -0.06889(18) 0.87971(16)
H12 H 1.36670 -0.00320 0.90250
C11 C 0.8776(3) 0.36921(16) 1.06086(14)
C12 C 1.0775(3) 0.45019(16) 1.09316(14)
H13 H 1.20310 0.44610 1.05820
C13 C 1.1023(3) 0.53986(16) 1.17732(14)
C14 C 0.9133(3) 0.54585(16) 1.22923(14)
C15 C 0.7078(3) 0.46215(16) 1.19446(14)
H14 H 0.57970 0.46540 1.22800
C16 C 0.6901(3) 0.37676(16) 1.11356(14)
H15 H 0.55040 0.32150 1.09210
C17 C 1.3086(3) 0.62339(16) 1.21114(14)
H16 H 1.43590 0.62000 1.17710
C18 C 1.3267(3) 0.70898(17) 1.29234(15)
H17 H 1.46590 0.76450 1.31420
C19 C 1.1385(4) 0.71481(17) 1.34378(15)
H18 H 1.15220 0.77430 1.40010
C20 C 0.9373(4) 0.63554(17) 1.31308(15)
H19 H 0.81210 0.64050 1.34820
C21 C 0.6322(3) 0.23486(16) 0.89404(15)
H20 H 0.64160 0.17300 0.84010
H21 H 0.49880 0.21270 0.92480
C22 C 0.5748(3) 0.31518(15) 0.84460(14)
H22 H 0.54370 0.37360 0.89720
C23 C 0.7800(3) 0.35965(17) 0.80119(15)
H23 H 0.82400 0.30160 0.75460
H24 H 0.91920 0.39790 0.85720
C24 C 0.7172(4) 0.43318(17) 0.74393(16)
H25 H 0.69060 0.49530 0.79200
H26 H 0.85150 0.45670 0.71420
C25 C 0.4963(4) 0.38007(18) 0.66017(15)
H27 H 0.52720 0.32180 0.60860
H28 H 0.45590 0.43030 0.62680
C26 C 0.2893(3) 0.33893(18) 0.70363(15)
H29 H 0.14880 0.30190 0.64800
H30 H 0.24960 0.39800 0.75060
C27 C 0.3503(3) 0.26463(17) 0.76017(15)
H31 H 0.37350 0.20220 0.71140
H32 H 0.21570 0.24180 0.79010
C28 C 0.9460(3) 0.06709(16) 0.33722(14)
H33 H 1.09450 0.04900 0.36170
C29 C 1.0172(4) 0.15679(17) 0.29456(15)
H34 H 1.08800 0.13180 0.23570
H35 H 0.87270 0.17630 0.27000
C30 C 1.1922(4) 0.25327(16) 0.37062(15)
H36 H 1.32090 0.23200 0.40630
H37 H 1.11020 0.28780 0.42160
C31 C 1.2998(4) 0.33088(17) 0.32050(16)
H38 H 1.39790 0.29940 0.27550
H39 H 1.17100 0.34620 0.27830
C32 C 1.4500(4) 0.43075(16) 0.39771(15)
C33 C 1.3548(4) 0.51572(17) 0.42785(15)
H40 H 1.19710 0.51130 0.39710
C34 C 1.4867(4) 0.60672(18) 0.50199(16)
H41 H 1.41900 0.66400 0.52170
C35 C 1.7162(4) 0.61448(18) 0.54735(16)
H42 H 1.80670 0.67700 0.59810
C36 C 1.8138(4) 0.53038(19) 0.51830(16)
H43 H 1.97130 0.53510 0.54950
C37 C 1.6815(4) 0.43950(18) 0.44380(16)
H44 H 1.74980 0.38240 0.42390
C38 C 0.7920(3) -0.02812(16) 0.25261(14)
C39 C 0.8759(3) -0.11343(16) 0.21587(14)
H45 H 1.02910 -0.11420 0.24700
C40 C 0.7410(3) -0.20094(16) 0.13257(14)
C41 C 0.5111(3) -0.19989(16) 0.08628(14)
C42 C 0.4255(3) -0.11136(16) 0.12627(15)
H46 H 0.27200 -0.10950 0.09660
C43 C 0.5600(3) -0.02882(16) 0.20655(15)
H47 H 0.49780 0.02910 0.23210
C44 C 0.8279(3) -0.28913(16) 0.09416(14)
H48 H 0.98090 -0.29080 0.12460
C45 C 0.6937(4) -0.37196(17) 0.01359(15)
H49 H 0.75400 -0.43060 -0.01130
C46 C 0.4663(3) -0.37059(17) -0.03266(15)
H50 H 0.37440 -0.42830 -0.08860
C47 C 0.3773(3) -0.28625(17) 0.00289(15)
H51 H 0.22430 -0.28590 -0.02890
C48 C 0.8305(3) 0.09880(16) 0.42845(15)
H52 H 0.94330 0.15920 0.48130
H53 H 0.68920 0.12190 0.40680
C49 C 0.7554(3) 0.01390(16) 0.47577(14)
H54 H 0.63100 -0.04440 0.42390
C50 C 0.9615(3) -0.02975(17) 0.50852(15)
H55 H 1.02340 -0.06080 0.44860
H56 H 1.09080 0.02770 0.55670
C51 C 0.8856(4) -0.11221(17) 0.55850(16)
H57 H 0.76770 -0.17290 0.50830
H58 H 1.02470 -0.13610 0.58150
C52 C 0.7787(4) -0.06916(19) 0.64858(16)
H59 H 0.90150 -0.01320 0.70190
H60 H 0.72320 -0.12510 0.67710
C53 C 0.5719(4) -0.02618(18) 0.61725(16)
H61 H 0.51210 0.00530 0.67770
H62 H 0.44170 -0.08370 0.56960
C54 C 0.6475(3) 0.05587(17) 0.56668(15)
H63 H 0.76510 0.11670 0.61690
H64 H 0.50810 0.07960 0.54390
loop_
_geom_bond_atom_site_label_1
_geom_bond_atom_site_label_2
_geom_bond_distance
_geom_bond_site_symmetry_1
_geom_bond_site_symmetry_2
C1 H1 1.000 1_555 1_555
C2 C1 1.546 1_555 1_555
H2 C2 0.990 1_555 1_555
H3 C2 0.990 1_555 1_555
C3 C2 1.523 1_555 1_555
H4 C3 0.990 1_555 1_555
H5 C3 0.990 1_555 1_555
C4 C3 1.533 1_555 1_555
H6 C4 0.990 1_555 1_555
H7 C4 0.990 1_555 1_555
C5 C4 1.510 1_555 1_555
C6 C5 1.388 1_555 1_555
H8 C6 0.949 1_555 1_555
C7 C6 1.389 1_555 1_555
H9 C7 0.950 1_555 1_555
C8 C7 1.384 1_555 1_555
H10 C8 0.950 1_555 1_555
C9 C8 1.382 1_555 1_555
H11 C9 0.950 1_555 1_555
C10 C5 1.392 1_555 1_555
H12 C10 0.950 1_555 1_555
C11 C1 1.514 1_555 1_555
C12 C11 1.373 1_555 1_555
H13 C12 0.950 1_555 1_555
C13 C12 1.421 1_555 1_555
C14 C13 1.423 1_555 1_555
C15 C14 1.415 1_555 1_555
H14 C15 0.950 1_555 1_555
C16 C11 1.424 1_555 1_555
H15 C16 0.950 1_555 1_555
C17 C13 1.416 1_555 1_555
H16 C17 0.950 1_555 1_555
C18 C17 1.370 1_555 1_555
H17 C18 0.950 1_555 1_555
C19 C18 1.415 1_555 1_555
H18 C19 0.950 1_555 1_555
C20 C14 1.420 1_555 1_555
H19 C20 0.950 1_555 1_555
C21 C1 1.543 1_555 1_555
H20 C21 0.990 1_555 1_555
H21 C21 0.990 1_555 1_555
C22 C21 1.536 1_555 1_555
H22 C22 1.000 1_555 1_555
C23 C22 1.533 1_555 1_555
H23 C23 0.991 1_555 1_555
H24 C23 0.991 1_555 1_555
C24 C23 1.534 1_555 1_555
H25 C24 0.990 1_555 1_555
H26 C24 0.990 1_555 1_555
C25 C24 1.522 1_555 1_555
H27 C25 0.990 1_555 1_555
H28 C25 0.990 1_555 1_555
C26 C25 1.526 1_555 1_555
H29 C26 0.990 1_555 1_555
H30 C26 0.990 1_555 1_555
C27 C22 1.538 1_555 1_555
H31 C27 0.990 1_555 1_555
H32 C27 0.990 1_555 1_555
C28 H33 1.000 1_555 1_555
C29 C28 1.539 1_555 1_555
H34 C29 0.990 1_555 1_555
H35 C29 0.990 1_555 1_555
C30 C29 1.524 1_555 1_555
H36 C30 0.990 1_555 1_555
H37 C30 0.990 1_555 1_555
C31 C30 1.531 1_555 1_555
H38 C31 0.990 1_555 1_555
H39 C31 0.991 1_555 1_555
C32 C31 1.505 1_555 1_555
C33 C32 1.391 1_555 1_555
H40 C33 0.951 1_555 1_555
C34 C33 1.385 1_555 1_555
H41 C34 0.950 1_555 1_555
C35 C34 1.381 1_555 1_555
H42 C35 0.950 1_555 1_555
C36 C35 1.388 1_555 1_555
H43 C36 0.950 1_555 1_555
C37 C32 1.392 1_555 1_555
H44 C37 0.950 1_555 1_555
C38 C28 1.519 1_555 1_555
C39 C38 1.369 1_555 1_555
H45 C39 0.950 1_555 1_555
C40 C39 1.423 1_555 1_555
C41 C40 1.423 1_555 1_555
C42 C41 1.421 1_555 1_555
H46 C42 0.950 1_555 1_555
C43 C38 1.425 1_555 1_555
H47 C43 0.950 1_555 1_555
C44 C40 1.417 1_555 1_555
H48 C44 0.950 1_555 1_555
C45 C44 1.370 1_555 1_555
H49 C45 0.949 1_555 1_555
C46 C45 1.411 1_555 1_555
H50 C46 0.950 1_555 1_555
C47 C41 1.413 1_555 1_555
H51 C47 0.950 1_555 1_555
C48 C28 1.538 1_555 1_555
H52 C48 0.990 1_555 1_555
H53 C48 0.990 1_555 1_555
C49 C48 1.531 1_555 1_555
H54 C49 1.000 1_555 1_555
C50 C49 1.532 1_555 1_555
H55 C50 0.990 1_555 1_555
H56 C50 0.990 1_555 1_555
C51 C50 1.530 1_555 1_555
H57 C51 0.990 1_555 1_555
H58 C51 0.990 1_555 1_555
C52 C51 1.524 1_555 1_555
H59 C52 0.990 1_555 1_555
H60 C52 0.991 1_555 1_555
C53 C52 1.524 1_555 1_555
H61 C53 0.990 1_555 1_555
H62 C53 0.990 1_555 1_555
C54 C49 1.533 1_555 1_555
H63 C54 0.990 1_555 1_555
H64 C54 0.990 1_555 1_555
C9 C10 1.384 1_555 1_555
C15 C16 1.366 1_555 1_555
C19 C20 1.366 1_555 1_555
C26 C27 1.533 1_555 1_555
C36 C37 1.386 1_555 1_555
C42 C43 1.366 1_555 1_555
C46 C47 1.373 1_555 1_555
C53 C54 1.531 1_555 1_555
#END
