
#######################################################################
#
#                 Cambridge Crystallographic Data Centre
#                                CCDC
#
#######################################################################
#
# If this CIF has been generated from an entry in the Cambridge
# Structural Database, then it will include bibliographic, chemical,
# crystal, experimental, refinement or atomic coordinate data resulting
# from the CCDC's data processing and validation procedures.
#
#######################################################################

data_CSD_CIF_MOGHUM
_audit_creation_date 2009-02-24
_audit_creation_method CSD-ConQuest-V1
_database_code_CSD MOGHUM
_database_code_depnum_ccdc_archive 'CCDC 682300'
_chemical_formula_sum 'C140 H46'
_chemical_formula_moiety
;
C140 H46
;
_journal_coden_Cambridge 920
_journal_volume 3
_journal_year 2008
_journal_page_first 1350
_journal_name_full 'Chem.Asian J. '
loop_
_publ_author_name
"Y.Matsuo"
"K.Morita"
"E.Nakamura"
_chemical_name_systematic
;
6,9,12,15,18-pentapyrenyl-1,6,9,12,15,18-hexahydroC60fullerene
;
_cell_volume   4456.049
_exptl_crystal_colour 'orange'
_exptl_crystal_density_diffrn 1.288
_exptl_special_details
;
fluorescent

;
_exptl_crystal_description 'prism'
_exptl_crystal_preparation 'methanedithione/ethanol'
_diffrn_ambient_temperature 153
#These two values have been output from a single CSD field.
_refine_ls_R_factor_gt 0.1554
_refine_ls_wR_factor_gt 0.1554
_symmetry_cell_setting triclinic
_symmetry_space_group_name_H-M 'P -1'
_symmetry_Int_Tables_number 2
loop_
_symmetry_equiv_pos_site_id
_symmetry_equiv_pos_as_xyz
1 x,y,z
2 -x,-y,-z
_cell_length_a 16.883(5)
_cell_length_b 17.771(5)
_cell_length_c 18.157(5)
_cell_angle_alpha 107.007(5)
_cell_angle_beta 111.846(5)
_cell_angle_gamma 103.635(5)
_cell_formula_units_Z 2
loop_
_atom_type_symbol
_atom_type_radius_bond
C 0.68
H 0.23
loop_
_atom_site_label
_atom_site_type_symbol
_atom_site_fract_x
_atom_site_fract_y
_atom_site_fract_z
C1 C 0.7927(5) 0.4986(6) 0.6082(6)
C2 C 0.8589(5) 0.4679(6) 0.6571(6)
H1 H 0.88730 0.45070 0.62010
C3 C 0.9340(5) 0.5476(5) 0.7328(5)
C4 C 0.9179(5) 0.6161(5) 0.7193(6)
C5 C 0.8297(5) 0.5856(6) 0.6425(5)
C6 C 0.6875(5) 0.4448(6) 0.5487(6)
C7 C 0.8245(5) 0.3870(6) 0.6727(6)
C8 C 1.0000(5) 0.5543(5) 0.8204(6)
C9 C 0.9713(5) 0.7083(5) 0.7862(6)
C10 C 0.7805(5) 0.6417(5) 0.6190(6)
C11 C 0.6618(5) 0.3891(6) 0.5932(6)
C12 C 0.7208(5) 0.3636(5) 0.6467(6)
C13 C 0.8648(5) 0.4140(5) 0.7719(5)
C14 C 0.9413(5) 0.4874(6) 0.8377(6)
C15 C 1.0134(5) 0.6368(6) 0.8911(5)
C16 C 0.9993(5) 0.7053(5) 0.8753(6)
C17 C 0.8972(5) 0.7456(6) 0.7810(6)
C18 C 0.8128(5) 0.7174(6) 0.7086(6)
C19 C 0.6778(5) 0.5928(6) 0.5950(6)
C20 C 0.6382(5) 0.5057(6) 0.5636(6)
C21 C 0.5853(5) 0.3995(5) 0.6058(6)
C22 C 0.7043(6) 0.3492(5) 0.7150(6)
C23 C 0.7932(5) 0.3815(5) 0.7924(6)
C24 C 0.9483(5) 0.5274(6) 0.9222(6)
C25 C 0.9908(5) 0.6177(6) 0.9533(5)
C26 C 0.9660(5) 0.7572(6) 0.9232(6)
C27 C 0.9039(6) 0.7828(5) 0.8663(6)
C28 C 0.7332(6) 0.7212(6) 0.7179(6)
C29 C 0.6522(5) 0.6456(6) 0.6499(6)
C30 C 0.5695(5) 0.4699(6) 0.5885(6)
C31 C 0.5655(5) 0.3812(6) 0.6679(6)
C32 C 0.6264(5) 0.3541(6) 0.7230(6)
C33 C 0.7998(6) 0.4155(6) 0.8747(6)
C34 C 0.8798(6) 0.4899(6) 0.9420(6)
C35 C 0.9631(6) 0.6696(6) 1.0039(6)
C36 C 0.9516(6) 0.7423(6) 0.9900(6)
C37 C 0.8302(6) 0.7918(6) 0.8771(6)
C38 C 0.7426(6) 0.7598(6) 0.8005(6)
C39 C 0.5831(6) 0.6121(6) 0.6689(6)
C40 C 0.5398(6) 0.5215(6) 0.6367(6)
C41 C 0.5351(6) 0.4334(6) 0.7176(6)
C42 C 0.6351(5) 0.3932(6) 0.8111(6)
C43 C 0.7209(6) 0.4216(7) 0.8850(7)
C44 C 0.8515(6) 0.5445(6) 0.9942(6)
C45 C 0.8908(6) 0.6324(7) 1.0248(6)
C46 C 0.8720(6) 0.7496(6) 1.0000(6)
C47 C 0.8120(6) 0.7750(6) 0.9428(7)
C48 C 0.6696(6) 0.7245(7) 0.8193(7)
C49 C 0.5893(6) 0.6494(6) 0.7532(7)
C50 C 0.5214(5) 0.5032(7) 0.7019(7)
C51 C 0.5792(5) 0.4427(6) 0.8082(6)
C52 C 0.7515(6) 0.5013(7) 0.9567(6)
C53 C 0.8346(6) 0.6817(6) 1.0204(6)
C54 C 0.7145(6) 0.7342(7) 0.9089(7)
C55 C 0.5535(6) 0.5837(7) 0.7756(7)
C56 C 0.6084(5) 0.5183(6) 0.8769(6)
C57 C 0.6975(6) 0.5500(7) 0.9547(7)
C58 C 0.7409(6) 0.6428(6) 0.9873(6)
C59 C 0.6768(6) 0.6673(6) 0.9307(7)
C60 C 0.5972(6) 0.5918(7) 0.8623(7)
C61 C 0.6580(5) 0.3984(6) 0.4483(5)
C62 C 0.7072(6) 0.4473(6) 0.4202(6)
H2 H 0.75320 0.50080 0.46050
C63 C 0.6895(7) 0.4181(7) 0.3337(7)
H3 H 0.72240 0.45240 0.31630
C64 C 0.6207(7) 0.3354(7) 0.2716(7)
C65 C 0.5986(8) 0.3032(7) 0.1807(7)
H4 H 0.63030 0.33730 0.16230
C66 C 0.5350(7) 0.2273(7) 0.1233(7)
H5 H 0.52400 0.20870 0.06560
C67 C 0.4825(6) 0.1728(6) 0.1462(6)
C68 C 0.4144(8) 0.0942(8) 0.0889(7)
H6 H 0.40230 0.07310 0.03090
C69 C 0.3622(9) 0.0443(8) 0.1144(8)
H7 H 0.31620 -0.00900 0.07320
C70 C 0.3777(8) 0.0728(8) 0.1989(8)
H8 H 0.34210 0.03920 0.21490
C71 C 0.4474(6) 0.1526(6) 0.2615(6)
C72 C 0.4657(7) 0.1860(7) 0.3491(7)
H9 H 0.42900 0.15410 0.36550
C73 C 0.5331(6) 0.2613(6) 0.4101(6)
H10 H 0.54320 0.27770 0.46740
C74 C 0.5915(5) 0.3187(6) 0.3910(5)
C75 C 0.5730(5) 0.2866(6) 0.3008(6)
C76 C 0.5007(6) 0.2028(7) 0.2362(6)
C77 C 0.8364(5) 0.3111(5) 0.6185(5)
C78 C 0.8044(6) 0.2967(6) 0.5307(6)
H11 H 0.77930 0.33300 0.51170
C79 C 0.8087(7) 0.2312(7) 0.4718(7)
H12 H 0.78920 0.22590 0.41470
C80 C 0.8414(6) 0.1721(6) 0.4949(6)
C81 C 0.8459(6) 0.1047(7) 0.4336(7)
H13 H 0.82840 0.10040 0.37700
C82 C 0.8761(7) 0.0451(7) 0.4569(8)
H14 H 0.87740 0.00030 0.41580
C83 C 0.9053(6) 0.0527(6) 0.5446(7)
C84 C 0.9353(7) -0.0074(7) 0.5693(8)
H15 H 0.93230 -0.05490 0.52760
C85 C 0.9695(8) 0.0035(7) 0.6553(8)
H16 H 0.99240 -0.03500 0.67160
C86 C 0.9699(9) 0.0715(8) 0.7176(8)
H17 H 0.99150 0.07780 0.77510
C87 C 0.9379(7) 0.1299(6) 0.6932(7)
C88 C 0.9386(7) 0.2012(7) 0.7539(7)
H18 H 0.96280 0.20900 0.81190
C89 C 0.9072(7) 0.2579(7) 0.7337(6)
H19 H 0.90870 0.30240 0.77740
C90 C 0.8706(6) 0.2528(6) 0.6459(6)
C91 C 0.8710(5) 0.1819(6) 0.5824(6)
C92 C 0.9042(6) 0.1218(6) 0.6084(6)
C93 C 1.0862(5) 0.5364(6) 0.8216(6)
C94 C 1.0674(5) 0.4640(6) 0.7540(6)
H20 H 1.00620 0.43240 0.71070
C95 C 1.1342(6) 0.4351(6) 0.7464(7)
H21 H 1.11780 0.38570 0.69830
C96 C 1.2253(5) 0.4795(6) 0.8101(7)
C97 C 1.2962(6) 0.4495(7) 0.8033(7)
H22 H 1.28070 0.40070 0.75510
C98 C 1.3854(7) 0.4929(7) 0.8677(7)
H23 H 1.43040 0.47360 0.86220
C99 C 1.4120(6) 0.5666(7) 0.9428(6)
C100 C 1.5023(5) 0.6074(7) 1.0145(7)
H24 H 1.54700 0.58610 1.01190
C101 C 1.5259(6) 0.6767(7) 1.0870(7)
H25 H 1.58490 0.69990 1.13450
C102 C 1.4622(6) 0.7135(7) 1.0908(7)
H26 H 1.47990 0.76340 1.13880
C103 C 1.3692(5) 0.6737(6) 1.0200(6)
C104 C 1.3013(6) 0.7065(6) 1.0226(6)
H27 H 1.31850 0.75720 1.06950
C105 C 1.2123(6) 0.6665(6) 0.9591(6)
H28 H 1.17070 0.69200 0.96230
C106 C 1.1797(5) 0.5865(5) 0.8872(5)
C107 C 1.2492(5) 0.5546(6) 0.8809(6)
C108 C 1.3447(5) 0.6007(6) 0.9497(6)
C109 C 1.0565(5) 0.7541(5) 0.7780(6)
C110 C 1.0975(6) 0.7012(6) 0.7466(6)
H29 H 1.06990 0.64270 0.72830
C111 C 1.1779(6) 0.7335(7) 0.7419(7)
H30 H 1.20110 0.69580 0.71840
C112 C 1.2252(5) 0.8215(6) 0.7719(6)
C113 C 1.3099(5) 0.8591(6) 0.7720(6)
H31 H 1.33510 0.82310 0.74940
C114 C 1.3534(6) 0.9406(6) 0.8019(6)
H32 H 1.40930 0.96110 0.80160
C115 C 1.3174(6) 1.0002(6) 0.8357(6)
C116 C 1.3617(7) 1.0877(7) 0.8689(7)
H33 H 1.41870 1.11000 0.87130
C117 C 1.3243(7) 1.1427(7) 0.8987(7)
H34 H 1.35580 1.20140 0.92110
C118 C 1.2388(7) 1.1100(6) 0.8950(7)
H35 H 1.21190 1.14700 0.91240
C119 C 1.1934(6) 1.0234(6) 0.8657(7)
C120 C 1.1081(7) 0.9885(6) 0.8668(7)
H36 H 1.08190 1.02510 0.88650
C121 C 1.0642(6) 0.9022(6) 0.8395(7)
H37 H 1.01050 0.88270 0.84350
C122 C 1.0978(5) 0.8415(6) 0.8054(6)
C123 C 1.1842(6) 0.8774(6) 0.8038(6)
C124 C 1.2296(5) 0.9660(6) 0.8344(6)
C125 C 0.8038(6) 0.6746(5) 0.5565(6)
C126 C 0.8819(6) 0.6691(6) 0.5490(6)
H38 H 0.91490 0.64350 0.57970
C127 C 0.9125(6) 0.6987(6) 0.4997(6)
H39 H 0.96480 0.69280 0.49710
C128 C 0.8647(6) 0.7387(6) 0.4523(6)
C129 C 0.8940(7) 0.7697(6) 0.3976(7)
H40 H 0.94730 0.76630 0.39560
C130 C 0.8457(7) 0.8031(7) 0.3501(7)
H41 H 0.86440 0.82030 0.31350
C131 C 0.7662(7) 0.8131(6) 0.3541(7)
C132 C 0.7167(7) 0.8504(7) 0.3064(7)
H42 H 0.73430 0.86760 0.26920
C133 C 0.6404(7) 0.8618(7) 0.3145(7)
H43 H 0.60920 0.88830 0.28350
C134 C 0.6107(6) 0.8355(7) 0.3663(7)
H44 H 0.55930 0.84330 0.36960
C135 C 0.6582(6) 0.7961(6) 0.4153(6)
C136 C 0.6318(6) 0.7685(6) 0.4716(6)
H45 H 0.58190 0.77700 0.47760
C137 C 0.6765(6) 0.7307(6) 0.5162(6)
H46 H 0.65650 0.71380 0.55230
C138 C 0.7552(6) 0.7148(6) 0.5106(6)
C139 C 0.7860(5) 0.7451(5) 0.4572(5)
C140 C 0.7358(6) 0.7840(6) 0.4087(6)
loop_
_geom_bond_atom_site_label_1
_geom_bond_atom_site_label_2
_geom_bond_distance
_geom_bond_site_symmetry_1
_geom_bond_site_symmetry_2
C1 C2 1.472 1_555 1_555
C2 H1 0.982 1_555 1_555
C3 C2 1.490 1_555 1_555
C4 C3 1.377 1_555 1_555
C5 C1 1.364 1_555 1_555
C6 C1 1.550 1_555 1_555
C7 C2 1.566 1_555 1_555
C8 C3 1.514 1_555 1_555
C9 C4 1.516 1_555 1_555
C10 C5 1.497 1_555 1_555
C11 C6 1.532 1_555 1_555
C12 C7 1.545 1_555 1_555
C13 C7 1.538 1_555 1_555
C14 C8 1.546 1_555 1_555
C15 C8 1.541 1_555 1_555
C16 C9 1.529 1_555 1_555
C17 C9 1.534 1_555 1_555
C18 C10 1.571 1_555 1_555
C19 C10 1.568 1_555 1_555
C20 C6 1.536 1_555 1_555
C21 C11 1.436 1_555 1_555
C22 C12 1.446 1_555 1_555
C23 C13 1.437 1_555 1_555
C24 C14 1.436 1_555 1_555
C25 C15 1.421 1_555 1_555
C26 C16 1.436 1_555 1_555
C27 C17 1.444 1_555 1_555
C28 C18 1.430 1_555 1_555
C29 C19 1.423 1_555 1_555
C30 C20 1.471 1_555 1_555
C31 C21 1.390 1_555 1_555
C32 C22 1.395 1_555 1_555
C33 C23 1.388 1_555 1_555
C34 C24 1.413 1_555 1_555
C35 C25 1.393 1_555 1_555
C36 C26 1.406 1_555 1_555
C37 C27 1.367 1_555 1_555
C38 C28 1.384 1_555 1_555
C39 C29 1.388 1_555 1_555
C40 C30 1.390 1_555 1_555
C41 C31 1.420 1_555 1_555
C42 C32 1.480 1_555 1_555
C43 C33 1.436 1_555 1_555
C44 C34 1.444 1_555 1_555
C45 C35 1.477 1_555 1_555
C46 C36 1.451 1_555 1_555
C47 C37 1.430 1_555 1_555
C48 C38 1.450 1_555 1_555
C49 C39 1.431 1_555 1_555
C50 C40 1.434 1_555 1_555
C51 C41 1.469 1_555 1_555
C52 C43 1.430 1_555 1_555
C53 C45 1.432 1_555 1_555
C54 C47 1.427 1_555 1_555
C55 C49 1.422 1_555 1_555
C56 C51 1.362 1_555 1_555
C57 C52 1.395 1_555 1_555
C58 C53 1.369 1_555 1_555
C59 C54 1.443 1_555 1_555
C60 C55 1.413 1_555 1_555
C61 C6 1.582 1_555 1_555
C62 C61 1.393 1_555 1_555
H2 C62 0.930 1_555 1_555
C63 C62 1.388 1_555 1_555
H3 C63 0.929 1_555 1_555
C64 C63 1.425 1_555 1_555
C65 C64 1.442 1_555 1_555
H4 C65 0.929 1_555 1_555
C66 C65 1.312 1_555 1_555
H5 C66 0.930 1_555 1_555
C67 C66 1.415 1_555 1_555
C68 C67 1.363 1_555 1_555
H6 C68 0.930 1_555 1_555
C69 C68 1.397 1_555 1_555
H7 C69 0.931 1_555 1_555
C70 C69 1.365 1_555 1_555
H8 C70 0.930 1_555 1_555
C71 C70 1.401 1_555 1_555
C72 C71 1.405 1_555 1_555
H9 C72 0.930 1_555 1_555
C73 C72 1.338 1_555 1_555
H10 C73 0.929 1_555 1_555
C74 C61 1.367 1_555 1_555
C75 C64 1.393 1_555 1_555
C76 C67 1.445 1_555 1_555
C77 C7 1.525 1_555 1_555
C78 C77 1.398 1_555 1_555
H11 C78 0.930 1_555 1_555
C79 C78 1.369 1_555 1_555
H12 C79 0.931 1_555 1_555
C80 C79 1.394 1_555 1_555
C81 C80 1.416 1_555 1_555
H13 C81 0.931 1_555 1_555
C82 C81 1.385 1_555 1_555
H14 C82 0.930 1_555 1_555
C83 C82 1.434 1_555 1_555
C84 C83 1.402 1_555 1_555
H15 C84 0.930 1_555 1_555
C85 C84 1.381 1_555 1_555
H16 C85 0.929 1_555 1_555
C86 C85 1.390 1_555 1_555
H17 C86 0.930 1_555 1_555
C87 C86 1.386 1_555 1_555
C88 C87 1.409 1_555 1_555
H18 C88 0.929 1_555 1_555
C89 C88 1.324 1_555 1_555
H19 C89 0.930 1_555 1_555
C90 C77 1.423 1_555 1_555
C91 C80 1.418 1_555 1_555
C92 C83 1.430 1_555 1_555
C93 C8 1.555 1_555 1_555
C94 C93 1.362 1_555 1_555
H20 C94 0.930 1_555 1_555
C95 C94 1.379 1_555 1_555
H21 C95 0.931 1_555 1_555
C96 C95 1.377 1_555 1_555
C97 C96 1.451 1_555 1_555
H22 C97 0.930 1_555 1_555
C98 C97 1.358 1_555 1_555
H23 C98 0.930 1_555 1_555
C99 C98 1.414 1_555 1_555
C100 C99 1.412 1_555 1_555
H24 C100 0.930 1_555 1_555
C101 C100 1.356 1_555 1_555
H25 C101 0.930 1_555 1_555
C102 C101 1.396 1_555 1_555
H26 C102 0.930 1_555 1_555
C103 C102 1.435 1_555 1_555
C104 C103 1.413 1_555 1_555
H27 C104 0.930 1_555 1_555
C105 C104 1.349 1_555 1_555
H28 C105 0.931 1_555 1_555
C106 C93 1.422 1_555 1_555
C107 C96 1.397 1_555 1_555
C108 C99 1.435 1_555 1_555
C109 C9 1.559 1_555 1_555
C110 C109 1.405 1_555 1_555
H29 C110 0.929 1_555 1_555
C111 C110 1.388 1_555 1_555
H30 C111 0.930 1_555 1_555
C112 C111 1.403 1_555 1_555
C113 C112 1.428 1_555 1_555
H31 C113 0.929 1_555 1_555
C114 C113 1.294 1_555 1_555
H32 C114 0.931 1_555 1_555
C115 C114 1.438 1_555 1_555
C116 C115 1.381 1_555 1_555
H33 C116 0.929 1_555 1_555
C117 C116 1.372 1_555 1_555
H34 C117 0.930 1_555 1_555
C118 C117 1.391 1_555 1_555
H35 C118 0.930 1_555 1_555
C119 C118 1.379 1_555 1_555
C120 C119 1.438 1_555 1_555
H36 C120 0.929 1_555 1_555
C121 C120 1.376 1_555 1_555
H37 C121 0.929 1_555 1_555
C122 C109 1.388 1_555 1_555
C123 C112 1.445 1_555 1_555
C124 C115 1.452 1_555 1_555
C125 C10 1.548 1_555 1_555
C126 C125 1.398 1_555 1_555
H38 C126 0.930 1_555 1_555
C127 C126 1.355 1_555 1_555
H39 C127 0.930 1_555 1_555
C128 C127 1.417 1_555 1_555
C129 C128 1.446 1_555 1_555
H40 C129 0.929 1_555 1_555
C130 C129 1.329 1_555 1_555
H41 C130 0.930 1_555 1_555
C131 C130 1.420 1_555 1_555
C132 C131 1.395 1_555 1_555
H42 C132 0.930 1_555 1_555
C133 C132 1.403 1_555 1_555
H43 C133 0.931 1_555 1_555
C134 C133 1.361 1_555 1_555
H44 C134 0.931 1_555 1_555
C135 C134 1.422 1_555 1_555
C136 C135 1.419 1_555 1_555
H45 C136 0.929 1_555 1_555
C137 C136 1.334 1_555 1_555
H46 C137 0.931 1_555 1_555
C138 C125 1.412 1_555 1_555
C139 C128 1.393 1_555 1_555
C140 C131 1.438 1_555 1_555
C4 C5 1.445 1_555 1_555
C11 C12 1.375 1_555 1_555
C13 C14 1.394 1_555 1_555
C15 C16 1.382 1_555 1_555
C17 C18 1.376 1_555 1_555
C19 C20 1.371 1_555 1_555
C21 C30 1.435 1_555 1_555
C22 C23 1.452 1_555 1_555
C24 C25 1.426 1_555 1_555
C26 C27 1.438 1_555 1_555
C28 C29 1.451 1_555 1_555
C31 C32 1.428 1_555 1_555
C33 C34 1.432 1_555 1_555
C35 C36 1.429 1_555 1_555
C37 C38 1.434 1_555 1_555
C39 C40 1.430 1_555 1_555
C41 C50 1.402 1_555 1_555
C42 C43 1.402 1_555 1_555
C42 C51 1.431 1_555 1_555
C44 C45 1.385 1_555 1_555
C44 C52 1.460 1_555 1_555
C46 C47 1.420 1_555 1_555
C46 C53 1.438 1_555 1_555
C48 C49 1.435 1_555 1_555
C48 C54 1.452 1_555 1_555
C50 C55 1.451 1_555 1_555
C56 C57 1.459 1_555 1_555
C56 C60 1.447 1_555 1_555
C57 C58 1.464 1_555 1_555
C58 C59 1.440 1_555 1_555
C59 C60 1.443 1_555 1_555
C71 C76 1.409 1_555 1_555
C73 C74 1.456 1_555 1_555
C74 C75 1.447 1_555 1_555
C75 C76 1.463 1_555 1_555
C87 C92 1.377 1_555 1_555
C89 C90 1.445 1_555 1_555
C90 C91 1.441 1_555 1_555
C91 C92 1.435 1_555 1_555
C103 C108 1.367 1_555 1_555
C105 C106 1.428 1_555 1_555
C106 C107 1.445 1_555 1_555
C107 C108 1.453 1_555 1_555
C119 C124 1.397 1_555 1_555
C121 C122 1.424 1_555 1_555
C122 C123 1.463 1_555 1_555
C123 C124 1.406 1_555 1_555
C135 C140 1.418 1_555 1_555
C137 C138 1.455 1_555 1_555
C138 C139 1.431 1_555 1_555
C139 C140 1.431 1_555 1_555
#END
