
#######################################################################
#
#                 Cambridge Crystallographic Data Centre
#                                CCDC
#
#######################################################################
#
# If this CIF has been generated from an entry in the Cambridge
# Structural Database, then it will include bibliographic, chemical,
# crystal, experimental, refinement or atomic coordinate data resulting
# from the CCDC's data processing and validation procedures.
#
#######################################################################

data_CSD_CIF_MORROB
_audit_creation_date 2009-06-22
_audit_creation_method CSD-ConQuest-V1
_database_code_CSD MORROB
_database_code_depnum_ccdc_archive 'CCDC 697536'
_chemical_formula_sum 'C30 H20'
_chemical_formula_moiety
;
C30 H20
;
_journal_coden_Cambridge 1088
_journal_volume 2009
_journal_year 2009
_journal_page_first 133
_journal_name_full 'Synlett '
loop_
_publ_author_name
"M.Pillekamp"
"A.Aniol"
"J.Heppekausen"
"S.Neukirchen"
"S.Seel"
"I.M.Oppel"
"G.Dyker"
_chemical_name_systematic
;
Octacyclo[16.6.6.0^2,17^.0^3,16^.0^4,9^.0^10,15^.0^19,24^.0^25,30^]triaconta-3
,5,7,9,11,13,15,19,21,23,25,27,29-tridecaene
;
_chemical_melting_point 538.15
_cell_volume   1911.062
_exptl_crystal_colour 'colorless'
_exptl_crystal_density_diffrn 1.322
_exptl_crystal_description 'prism'
_exptl_crystal_preparation 'dichloromethane/methanol'
_diffrn_ambient_temperature 108
#These two values have been output from a single CSD field.
_refine_ls_R_factor_gt 0.049
_refine_ls_wR_factor_gt 0.049
_symmetry_cell_setting triclinic
_symmetry_space_group_name_H-M 'P -1'
_symmetry_Int_Tables_number 2
loop_
_symmetry_equiv_pos_site_id
_symmetry_equiv_pos_as_xyz
1 x,y,z
2 -x,-y,-z
_cell_length_a 8.3424(14)
_cell_length_b 15.513(2)
_cell_length_c 15.5598(13)
_cell_angle_alpha 75.524(9)
_cell_angle_beta 84.959(10)
_cell_angle_gamma 78.813(13)
_cell_formula_units_Z 4
loop_
_atom_type_symbol
_atom_type_radius_bond
C 0.68
H 0.23
loop_
_atom_site_label
_atom_site_type_symbol
_atom_site_fract_x
_atom_site_fract_y
_atom_site_fract_z
C1 C 0.47575(19) 0.07969(11) 0.33629(11)
H1 H 0.41290 0.05650 0.38790
C2 C 0.5729(2) 0.02140(11) 0.29258(11)
H2 H 0.57720 -0.04200 0.31340
C3 C 0.6658(2) 0.05545(12) 0.21709(11)
H3 H 0.73430 0.01470 0.18720
C4 C 0.65999(18) 0.14620(11) 0.18558(11)
H4 H 0.72420 0.16760 0.13400
C5 C 0.56040(18) 0.20879(11) 0.22817(10)
C6 C 0.55005(18) 0.30630(11) 0.19484(10)
C7 C 0.63961(18) 0.34272(11) 0.11801(10)
H5 H 0.71050 0.30300 0.08790
C8 C 0.62671(19) 0.43389(11) 0.08587(11)
H6 H 0.68770 0.45690 0.03350
C9 C 0.52491(19) 0.49368(11) 0.12912(11)
H7 H 0.51560 0.55710 0.10580
C10 C 0.43821(18) 0.46098(11) 0.20529(10)
H8 H 0.37020 0.50200 0.23510
C11 C 0.44893(17) 0.36752(10) 0.2396(1)
C12 C 0.36283(17) 0.32789(10) 0.31798(10)
C13 C 0.24672(17) 0.35076(10) 0.39325(10)
H9 H 0.13570 0.38290 0.37290
C14 C 0.30871(17) 0.38876(10) 0.46478(10)
H10 H 0.30180 0.45590 0.44610
C15 C 0.20259(17) 0.36035(10) 0.54763(10)
C16 C 0.10058(18) 0.41682(11) 0.59311(10)
H11 H 0.09140 0.48060 0.57310
C17 C 0.01128(19) 0.37956(12) 0.66856(11)
H12 H -0.06020 0.41830 0.69940
C18 C 0.02555(19) 0.28736(11) 0.69877(10)
H13 H -0.03540 0.26250 0.75040
C19 C 0.12960(18) 0.23062(11) 0.65342(10)
H14 H 0.14100 0.16680 0.67460
C20 C 0.21644(17) 0.26682(10) 0.57765(10)
C21 C 0.33185(17) 0.21414(10) 0.52047(10)
H15 H 0.34320 0.14730 0.54470
C22 C 0.25782(18) 0.2454(1) 0.42761(10)
H16 H 0.15230 0.22470 0.42550
C23 C 0.37114(17) 0.23822(10) 0.34774(10)
C24 C 0.46785(18) 0.17319(10) 0.30587(10)
C25 C 0.49322(17) 0.24604(10) 0.51313(10)
C26 C 0.48096(17) 0.33959(10) 0.48506(9)
C27 C 0.61788(18) 0.37887(11) 0.47949(10)
H17 H 0.60950 0.44260 0.45990
C28 C 0.76803(18) 0.32429(11) 0.5028(1)
H18 H 0.86200 0.35090 0.50100
C29 C 0.78081(18) 0.23174(11) 0.52847(10)
H19 H 0.88410 0.19470 0.54330
C30 C 0.64377(18) 0.19197(11) 0.53291(10)
H20 H 0.65360 0.12800 0.54950
C31 C 0.15173(18) 0.02084(11) 0.21758(11)
H21 H 0.21530 -0.01040 0.17730
C32 C 0.08274(19) -0.02690(11) 0.29299(11)
H22 H 0.09830 -0.09100 0.30490
C33 C -0.0103(2) 0.01852(11) 0.35229(11)
H23 H -0.05560 -0.01500 0.40540
C34 C -0.03706(19) 0.11115(11) 0.33470(11)
H24 H -0.10240 0.14100 0.37550
C35 C 0.03034(17) 0.16282(10) 0.25747(10)
C36 C 0.00225(18) 0.26166(11) 0.23733(10)
C37 C -0.10529(18) 0.31065(11) 0.28963(10)
H25 H -0.16440 0.27910 0.33850
C38 C -0.12687(19) 0.40306(11) 0.27174(10)
H26 H -0.20020 0.43480 0.30830
C39 C -0.04212(19) 0.45083(11) 0.20036(10)
H27 H -0.05510 0.51480 0.18960
C40 C 0.05984(18) 0.40590(11) 0.14562(10)
H28 H 0.11540 0.43900 0.09610
C41 C 0.08276(17) 0.31125(10) 0.16225(10)
C42 C 0.18332(17) 0.25955(10) 0.10833(10)
C43 C 0.29169(18) 0.26933(10) 0.02418(10)
H29 H 0.39310 0.29290 0.02900
C44 C 0.21037(18) 0.31047(10) -0.06611(10)
H30 H 0.18840 0.37810 -0.08070
C45 C 0.32752(17) 0.27324(10) -0.13363(10)
C46 C 0.39966(18) 0.32257(11) -0.20832(10)
H31 H 0.37730 0.38680 -0.22160
C47 C 0.50512(19) 0.27790(12) -0.26393(11)
H32 H 0.55500 0.31160 -0.31530
C48 C 0.53721(19) 0.18500(12) -0.24452(11)
H33 H 0.61090 0.15470 -0.28200
C49 C 0.46262(18) 0.13502(11) -0.17038(10)
H34 H 0.48440 0.07080 -0.15760
C50 C 0.35703(17) 0.17902(10) -0.11547(10)
C51 C 0.26097(18) 0.13484(10) -0.03499(10)
H35 H 0.27850 0.06760 -0.02600
C52 C 0.31829(18) 0.16306(10) 0.04415(10)
H36 H 0.43270 0.13340 0.06040
C53 C 0.20364(17) 0.16920(11) 0.12433(10)
C54 C 0.12959(17) 0.11538(10) 0.19916(10)
C55 C 0.08415(18) 0.1781(1) -0.04882(10)
C56 C 0.05646(17) 0.27194(10) -0.06404(10)
C57 C -0.09957(18) 0.32078(11) -0.07937(10)
H37 H -0.11930 0.38480 -0.08890
C58 C -0.22711(19) 0.27588(13) -0.08080(11)
H38 H -0.33440 0.30940 -0.09170
C59 C -0.1997(2) 0.18348(13) -0.06658(11)
H39 H -0.28790 0.15320 -0.06760
C60 C -0.04340(19) 0.13422(12) -0.05072(11)
H40 H -0.02430 0.07020 -0.04120
loop_
_geom_bond_atom_site_label_1
_geom_bond_atom_site_label_2
_geom_bond_distance
_geom_bond_site_symmetry_1
_geom_bond_site_symmetry_2
C1 H1 0.951 1_555 1_555
C2 C1 1.365 1_555 1_555
H2 C2 0.950 1_555 1_555
C3 C2 1.396 1_555 1_555
H3 C3 0.950 1_555 1_555
C4 C3 1.363 1_555 1_555
H4 C4 0.949 1_555 1_555
C5 C4 1.409 1_555 1_555
C6 C5 1.459 1_555 1_555
C7 C6 1.406 1_555 1_555
H5 C7 0.950 1_555 1_555
C8 C7 1.363 1_555 1_555
H6 C8 0.950 1_555 1_555
C9 C8 1.393 1_555 1_555
H7 C9 0.950 1_555 1_555
C10 C9 1.370 1_555 1_555
H8 C10 0.950 1_555 1_555
C11 C6 1.420 1_555 1_555
C12 C11 1.423 1_555 1_555
C13 C12 1.520 1_555 1_555
H9 C13 1.000 1_555 1_555
C14 C13 1.550 1_555 1_555
H10 C14 1.000 1_555 1_555
C15 C14 1.519 1_555 1_555
C16 C15 1.381 1_555 1_555
H11 C16 0.950 1_555 1_555
C17 C16 1.393 1_555 1_555
H12 C17 0.950 1_555 1_555
C18 C17 1.374 1_555 1_555
H13 C18 0.950 1_555 1_555
C19 C18 1.390 1_555 1_555
H14 C19 0.951 1_555 1_555
C20 C15 1.394 1_555 1_555
C21 C20 1.515 1_555 1_555
H15 C21 0.999 1_555 1_555
C22 C13 1.574 1_555 1_555
H16 C22 1.000 1_555 1_555
C23 C12 1.342 1_555 1_555
C24 C1 1.399 1_555 1_555
C25 C21 1.508 1_555 1_555
C26 C14 1.510 1_555 1_555
C27 C26 1.382 1_555 1_555
H17 C27 0.949 1_555 1_555
C28 C27 1.390 1_555 1_555
H18 C28 0.950 1_555 1_555
C29 C28 1.376 1_555 1_555
H19 C29 0.950 1_555 1_555
C30 C25 1.381 1_555 1_555
H20 C30 0.950 1_555 1_555
C31 H21 0.950 1_555 1_555
C32 C31 1.367 1_555 1_555
H22 C32 0.950 1_555 1_555
C33 C32 1.392 1_555 1_555
H23 C33 0.950 1_555 1_555
C34 C33 1.371 1_555 1_555
H24 C34 0.950 1_555 1_555
C35 C34 1.406 1_555 1_555
C36 C35 1.462 1_555 1_555
C37 C36 1.400 1_555 1_555
H25 C37 0.950 1_555 1_555
C38 C37 1.369 1_555 1_555
H26 C38 0.950 1_555 1_555
C39 C38 1.392 1_555 1_555
H27 C39 0.950 1_555 1_555
C40 C39 1.369 1_555 1_555
H28 C40 0.951 1_555 1_555
C41 C36 1.422 1_555 1_555
C42 C41 1.415 1_555 1_555
C43 C42 1.517 1_555 1_555
H29 C43 1.000 1_555 1_555
C44 C43 1.547 1_555 1_555
H30 C44 1.000 1_555 1_555
C45 C44 1.515 1_555 1_555
C46 C45 1.382 1_555 1_555
H31 C46 0.950 1_555 1_555
C47 C46 1.390 1_555 1_555
H32 C47 0.950 1_555 1_555
C48 C47 1.374 1_555 1_555
H33 C48 0.949 1_555 1_555
C49 C48 1.390 1_555 1_555
H34 C49 0.950 1_555 1_555
C50 C45 1.394 1_555 1_555
C51 C50 1.513 1_555 1_555
H35 C51 1.000 1_555 1_555
C52 C43 1.574 1_555 1_555
H36 C52 1.000 1_555 1_555
C53 C42 1.340 1_555 1_555
C54 C31 1.400 1_555 1_555
C55 C51 1.507 1_555 1_555
C56 C44 1.513 1_555 1_555
C57 C56 1.381 1_555 1_555
H37 C57 0.950 1_555 1_555
C58 C57 1.385 1_555 1_555
H38 C58 0.950 1_555 1_555
C59 C58 1.371 1_555 1_555
H39 C59 0.950 1_555 1_555
C60 C55 1.376 1_555 1_555
H40 C60 0.950 1_555 1_555
C5 C24 1.425 1_555 1_555
C10 C11 1.402 1_555 1_555
C19 C20 1.381 1_555 1_555
C21 C22 1.547 1_555 1_555
C22 C23 1.507 1_555 1_555
C23 C24 1.419 1_555 1_555
C25 C26 1.393 1_555 1_555
C29 C30 1.390 1_555 1_555
C35 C54 1.420 1_555 1_555
C40 C41 1.403 1_555 1_555
C49 C50 1.378 1_555 1_555
C51 C52 1.546 1_555 1_555
C52 C53 1.515 1_555 1_555
C53 C54 1.422 1_555 1_555
C55 C56 1.391 1_555 1_555
C59 C60 1.386 1_555 1_555
#END
