
#######################################################################
#
#                 Cambridge Crystallographic Data Centre
#                                CCDC
#
#######################################################################
#
# If this CIF has been generated from an entry in the Cambridge
# Structural Database, then it will include bibliographic, chemical,
# crystal, experimental, refinement or atomic coordinate data resulting
# from the CCDC's data processing and validation procedures.
#
#######################################################################

data_CSD_CIF_MORRIV
_audit_creation_date 2009-06-22
_audit_creation_method CSD-ConQuest-V1
_database_code_CSD MORRIV
_database_code_depnum_ccdc_archive 'CCDC 697535'
_chemical_formula_sum 'C26 H18'
_chemical_formula_moiety
;
C26 H18
;
_journal_coden_Cambridge 1088
_journal_volume 2009
_journal_year 2009
_journal_page_first 133
_journal_name_full 'Synlett '
loop_
_publ_author_name
"M.Pillekamp"
"A.Aniol"
"J.Heppekausen"
"S.Neukirchen"
"S.Seel"
"I.M.Oppel"
"G.Dyker"
_chemical_name_systematic
;
Heptacyclo[12.6.6.0^2,13^.0^3,12^.0^4,9^.0^15,20^.0^21,26^]hexacosa-3,5,7,9,11
,15,17,19,21,23,25-undecaene
;
_chemical_melting_point 429.15
_cell_volume    862.471
_exptl_crystal_colour 'colorless'
_exptl_crystal_density_diffrn 1.272
_exptl_crystal_description 'prism'
_exptl_crystal_preparation 'dichloromethane/methanol'
_diffrn_ambient_temperature 108
#These two values have been output from a single CSD field.
_refine_ls_R_factor_gt 0.0691
_refine_ls_wR_factor_gt 0.0691
_symmetry_cell_setting triclinic
_symmetry_space_group_name_H-M 'P -1'
_symmetry_Int_Tables_number 2
loop_
_symmetry_equiv_pos_site_id
_symmetry_equiv_pos_as_xyz
1 x,y,z
2 -x,-y,-z
_cell_length_a 8.5159(8)
_cell_length_b 10.1940(12)
_cell_length_c 10.4954(13)
_cell_angle_alpha 99.801(10)
_cell_angle_beta 102.565(10)
_cell_angle_gamma 97.658(9)
_cell_formula_units_Z 2
loop_
_atom_type_symbol
_atom_type_radius_bond
C 0.68
H 0.23
loop_
_atom_site_label
_atom_site_type_symbol
_atom_site_fract_x
_atom_site_fract_y
_atom_site_fract_z
C1 C 0.6921(3) 0.2807(3) 0.3667(3)
H1 H 0.71420 0.19120 0.35970
C2 C 0.5840(4) 0.3136(4) 0.2656(3)
H2 H 0.53470 0.24710 0.18680
C3 C 0.5442(4) 0.4434(4) 0.2755(3)
H3 H 0.46770 0.46320 0.20400
C4 C 0.6154(4) 0.5433(4) 0.3886(3)
H4 H 0.58710 0.63080 0.39580
C5 C 0.7308(4) 0.5125(3) 0.4929(3)
C6 C 0.8098(4) 0.6152(3) 0.6141(3)
H5 H 0.78270 0.70300 0.61990
C7 C 0.9178(4) 0.5914(3) 0.7166(3)
H6 H 0.96730 0.65960 0.79410
C8 C 0.9549(3) 0.4584(3) 0.7038(3)
C9 C 1.0550(4) 0.3668(3) 0.7730(3)
H7 H 1.17550 0.39690 0.78890
C10 C 1.0053(3) 0.3155(3) 0.8921(3)
H8 H 1.04810 0.38390 0.97760
C11 C 1.0751(3) 0.1865(3) 0.8971(3)
C12 C 1.1884(3) 0.1627(3) 1.0034(3)
H9 H 1.23030 0.23080 1.08220
C13 C 1.2402(4) 0.0382(3) 0.9938(3)
H10 H 1.31760 0.02120 1.06640
C14 C 1.1800(4) -0.0601(3) 0.8796(3)
H11 H 1.21660 -0.14450 0.87400
C15 C 1.0668(4) -0.0376(3) 0.7731(3)
H12 H 1.02600 -0.10610 0.69450
C16 C 1.0128(3) 0.0854(3) 0.7814(3)
C17 C 0.8863(3) 0.1260(3) 0.6759(3)
H13 H 0.83900 0.05180 0.59560
C18 C 0.9798(3) 0.2548(3) 0.6425(3)
H14 H 1.06260 0.23260 0.59150
C19 C 0.8856(3) 0.3613(3) 0.5923(3)
C20 C 0.7707(3) 0.3810(3) 0.4819(3)
C21 C 0.7573(3) 0.1734(3) 0.7440(3)
C22 C 0.8213(3) 0.2750(3) 0.8588(3)
C23 C 0.7166(3) 0.3267(3) 0.9315(3)
H15 H 0.75900 0.39640 1.00890
C24 C 0.5503(4) 0.2761(3) 0.8905(3)
H16 H 0.47900 0.31170 0.94010
C25 C 0.4872(4) 0.1746(3) 0.7786(3)
H17 H 0.37320 0.13980 0.75230
C26 C 0.5908(4) 0.1230(3) 0.7038(3)
H18 H 0.54740 0.05400 0.62600
loop_
_geom_bond_atom_site_label_1
_geom_bond_atom_site_label_2
_geom_bond_distance
_geom_bond_site_symmetry_1
_geom_bond_site_symmetry_2
C1 H1 0.950 1_555 1_555
C2 C1 1.365 1_555 1_555
H2 C2 0.950 1_555 1_555
C3 C2 1.402 1_555 1_555
H3 C3 0.950 1_555 1_555
C4 C3 1.387 1_555 1_555
H4 C4 0.950 1_555 1_555
C5 C4 1.412 1_555 1_555
C6 C5 1.467 1_555 1_555
H5 C6 0.949 1_555 1_555
C7 C6 1.334 1_555 1_555
H6 C7 0.950 1_555 1_555
C8 C7 1.424 1_555 1_555
C9 C8 1.516 1_555 1_555
H7 C9 1.000 1_555 1_555
C10 C9 1.552 1_555 1_555
H8 C10 1.001 1_555 1_555
C11 C10 1.518 1_555 1_555
C12 C11 1.386 1_555 1_555
H9 C12 0.950 1_555 1_555
C13 C12 1.393 1_555 1_555
H10 C13 0.950 1_555 1_555
C14 C13 1.375 1_555 1_555
H11 C14 0.950 1_555 1_555
C15 C14 1.382 1_555 1_555
H12 C15 0.950 1_555 1_555
C16 C11 1.402 1_555 1_555
C17 C16 1.521 1_555 1_555
H13 C17 0.999 1_555 1_555
C18 C9 1.575 1_555 1_555
H14 C18 1.000 1_555 1_555
C19 C8 1.359 1_555 1_555
C20 C1 1.414 1_555 1_555
C21 C17 1.522 1_555 1_555
C22 C10 1.513 1_555 1_555
C23 C22 1.393 1_555 1_555
H15 C23 0.950 1_555 1_555
C24 C23 1.386 1_555 1_555
H16 C24 0.950 1_555 1_555
C25 C24 1.379 1_555 1_555
H17 C25 0.950 1_555 1_555
C26 C21 1.387 1_555 1_555
H18 C26 0.950 1_555 1_555
C5 C20 1.418 1_555 1_555
C15 C16 1.387 1_555 1_555
C17 C18 1.575 1_555 1_555
C18 C19 1.531 1_555 1_555
C19 C20 1.407 1_555 1_555
C21 C22 1.400 1_555 1_555
C25 C26 1.399 1_555 1_555
#END
