
#######################################################################
#
#                 Cambridge Crystallographic Data Centre
#                                CCDC
#
#######################################################################
#
# If this CIF has been generated from an entry in the Cambridge
# Structural Database, then it will include bibliographic, chemical,
# crystal, experimental, refinement or atomic coordinate data resulting
# from the CCDC's data processing and validation procedures.
#
#######################################################################

data_CSD_CIF_MOSZAV
_audit_creation_date 2002-10-17
_audit_creation_method CSD-ConQuest-V1
_database_code_CSD MOSZAV
_database_code_depnum_ccdc_archive 'CCDC 186660'
_chemical_formula_sum 'C39 H30'
_chemical_formula_moiety
;
C39 H30
;
_journal_coden_Cambridge 35
_journal_volume 67
_journal_year 2002
_journal_page_first 5733
_journal_name_full 'J.Org.Chem. '
loop_
_publ_author_name
"S.Grilli"
"L.Lunazzi"
"A.Mazzanti"
"M.Pinamonti"
_chemical_name_systematic
;
1,3,5-tris(4-Methylnaphth-1-yl)benzene
;
_chemical_melting_point 467.15
_cell_volume   2663.389
_exptl_crystal_colour 'slightly yellow'
_exptl_crystal_density_diffrn 1.244
_exptl_special_details
;
Melting point range 467.15-468.15K

;
_exptl_crystal_description 'plates'
_exptl_crystal_preparation 'absolute ethanol'
_diffrn_ambient_temperature 293
#These two values have been output from a single CSD field.
_refine_ls_R_factor_gt 0.0643
_refine_ls_wR_factor_gt 0.0643
_symmetry_cell_setting monoclinic
_symmetry_space_group_name_H-M 'P 21/c'
_symmetry_Int_Tables_number 14
loop_
_symmetry_equiv_pos_site_id
_symmetry_equiv_pos_as_xyz
1 x,y,z
2 x,1/2-y,1/2+z
3 -x,-y,-z
4 -x,-1/2+y,-1/2-z
_cell_length_a 18.927(3)
_cell_length_b 8.4832(14)
_cell_length_c 16.726(3)
_cell_angle_alpha 90
_cell_angle_beta 97.366(4)
_cell_angle_gamma 90
_cell_formula_units_Z 4
loop_
_atom_type_symbol
_atom_type_radius_bond
C 0.68
H 0.23
loop_
_atom_site_label
_atom_site_type_symbol
_atom_site_fract_x
_atom_site_fract_y
_atom_site_fract_z
C1 C 0.13720(16) 1.0338(4) 0.23424(18)
C2 C 0.17384(17) 1.1032(4) 0.30295(19)
H1 H 0.14900 1.16320 0.33660
C3 C 0.24675(16) 1.0841(4) 0.32188(18)
C4 C 0.28264(16) 0.9961(3) 0.27032(17)
H2 H 0.33170 0.98360 0.28220
C5 C 0.24744(15) 0.9256(3) 0.20091(18)
C6 C 0.17496(16) 0.9440(3) 0.18506(18)
H3 H 0.15050 0.89480 0.14010
C7 C 0.05895(16) 1.0529(4) 0.21527(19)
C8 C 0.01553(19) 1.0064(5) 0.2696(2)
H4 H 0.03550 0.96660 0.31920
C9 C -0.05875(19) 1.0173(5) 0.2525(2)
H5 H -0.08700 0.98270 0.29060
C10 C -0.09054(18) 1.0773(4) 0.1815(2)
C11 C -0.04746(17) 1.1294(4) 0.1234(2)
C12 C 0.02719(16) 1.1197(4) 0.14010(19)
C13 C 0.06802(18) 1.1794(4) 0.0834(2)
H6 H 0.11740 1.17680 0.09470
C14 C 0.0379(2) 1.2411(5) 0.0123(2)
H7 H 0.06660 1.27710 -0.02500
C15 C -0.0356(2) 1.2507(5) -0.0048(2)
H8 H -0.05620 1.29430 -0.05320
C16 C -0.07701(19) 1.1967(4) 0.0490(2)
H9 H -0.12630 1.20370 0.03700
C17 C -0.17114(19) 1.0863(6) 0.1640(3)
H10 H -0.18750 1.01610 0.12050
H11 H -0.18510 1.19220 0.14920
H12 H -0.19180 1.05630 0.21130
C18 C 0.28932(16) 1.1612(3) 0.39296(18)
C19 C 0.34813(16) 1.2451(4) 0.38116(19)
H13 H 0.35910 1.25770 0.32890
C20 C 0.39305(17) 1.3137(4) 0.4454(2)
H14 H 0.43340 1.36850 0.43490
C21 C 0.37799(17) 1.3008(3) 0.52313(19)
C22 C 0.31696(16) 1.2158(3) 0.53726(18)
C23 C 0.27273(16) 1.1429(3) 0.47239(18)
C24 C 0.21541(16) 1.0487(4) 0.4912(2)
H15 H 0.18700 0.99640 0.45010
C25 C 0.20119(19) 1.0332(4) 0.5680(2)
H16 H 0.16350 0.97020 0.57930
C26 C 0.2434(2) 1.1123(5) 0.6307(2)
H17 H 0.23220 1.10480 0.68310
C27 C 0.29904(19) 1.1975(4) 0.6160(2)
H18 H 0.32700 1.24650 0.65870
C28 C 0.42641(18) 1.3763(4) 0.5901(2)
H19 H 0.46080 1.44040 0.56790
H20 H 0.45050 1.29600 0.62370
H21 H 0.39890 1.44080 0.62170
C29 C 0.28813(15) 0.8421(3) 0.14420(18)
C30 C 0.27474(17) 0.8788(3) 0.06364(18)
H22 H 0.23780 0.94770 0.04590
C31 C 0.31586(17) 0.8141(4) 0.00767(18)
H23 H 0.30470 0.83980 -0.04650
C32 C 0.37107(16) 0.7159(4) 0.02992(18)
C33 C 0.38734(16) 0.6742(3) 0.11263(17)
C34 C 0.34435(15) 0.7341(3) 0.16917(17)
C35 C 0.35767(17) 0.6789(4) 0.24973(18)
H24 H 0.32840 0.71130 0.28730
C36 C 0.41285(19) 0.5790(4) 0.2727(2)
H25 H 0.42100 0.54490 0.32600
C37 C 0.45671(19) 0.5275(4) 0.2186(2)
H26 H 0.49460 0.46060 0.23540
C38 C 0.44441(17) 0.5746(4) 0.1404(2)
H27 H 0.47460 0.54000 0.10440
C39 C 0.41447(18) 0.6500(4) -0.03108(19)
H28 H 0.39620 0.68820 -0.08370
H29 H 0.41190 0.53700 -0.03050
H30 H 0.46320 0.68260 -0.01810
loop_
_geom_bond_atom_site_label_1
_geom_bond_atom_site_label_2
_geom_bond_distance
_geom_bond_site_symmetry_1
_geom_bond_site_symmetry_2
C1 C2 1.394 1_555 1_555
C2 H1 0.930 1_555 1_555
C3 C2 1.385 1_555 1_555
C4 C3 1.383 1_555 1_555
H2 C4 0.930 1_555 1_555
C5 C4 1.397 1_555 1_555
C6 C1 1.385 1_555 1_555
H3 C6 0.930 1_555 1_555
C7 C1 1.483 1_555 1_555
C8 C7 1.360 1_555 1_555
H4 C8 0.930 1_555 1_555
C9 C8 1.401 1_555 1_555
H5 C9 0.930 1_555 1_555
C10 C9 1.359 1_555 1_555
C11 C10 1.417 1_555 1_555
C12 C7 1.439 1_555 1_555
C13 C12 1.393 1_555 1_555
H6 C13 0.930 1_555 1_555
C14 C13 1.356 1_555 1_555
H7 C14 0.930 1_555 1_555
C15 C14 1.386 1_555 1_555
H8 C15 0.929 1_555 1_555
C16 C11 1.417 1_555 1_555
H9 C16 0.931 1_555 1_555
C17 C10 1.518 1_555 1_555
H10 C17 0.960 1_555 1_555
H11 C17 0.960 1_555 1_555
H12 C17 0.961 1_555 1_555
C18 C3 1.498 1_555 1_555
C19 C18 1.357 1_555 1_555
H13 C19 0.930 1_555 1_555
C20 C19 1.408 1_555 1_555
H14 C20 0.930 1_555 1_555
C21 C20 1.371 1_555 1_555
C22 C21 1.407 1_555 1_555
C23 C18 1.412 1_555 1_555
C24 C23 1.415 1_555 1_555
H15 C24 0.929 1_555 1_555
C25 C24 1.352 1_555 1_555
H16 C25 0.930 1_555 1_555
C26 C25 1.405 1_555 1_555
H17 C26 0.930 1_555 1_555
C27 C22 1.410 1_555 1_555
H18 C27 0.931 1_555 1_555
C28 C21 1.497 1_555 1_555
H19 C28 0.959 1_555 1_555
H20 C28 0.960 1_555 1_555
H21 C28 0.959 1_555 1_555
C29 C5 1.477 1_555 1_555
C30 C29 1.374 1_555 1_555
H22 C30 0.930 1_555 1_555
C31 C30 1.404 1_555 1_555
H23 C31 0.930 1_555 1_555
C32 C31 1.351 1_555 1_555
C33 C32 1.423 1_555 1_555
C34 C29 1.426 1_555 1_555
C35 C34 1.418 1_555 1_555
H24 C35 0.931 1_555 1_555
C36 C35 1.362 1_555 1_555
H25 C36 0.931 1_555 1_555
C37 C36 1.375 1_555 1_555
H26 C37 0.929 1_555 1_555
C38 C33 1.403 1_555 1_555
H27 C38 0.929 1_555 1_555
C39 C32 1.498 1_555 1_555
H28 C39 0.960 1_555 1_555
H29 C39 0.960 1_555 1_555
H30 C39 0.961 1_555 1_555
C5 C6 1.372 1_555 1_555
C11 C12 1.407 1_555 1_555
C15 C16 1.347 1_555 1_555
C22 C23 1.424 1_555 1_555
C26 C27 1.326 1_555 1_555
C33 C34 1.418 1_555 1_555
C37 C38 1.359 1_555 1_555
#END
