
#######################################################################
#
#                 Cambridge Crystallographic Data Centre
#                                CCDC
#
#######################################################################
#
# If this CIF has been generated from an entry in the Cambridge
# Structural Database, then it will include bibliographic, chemical,
# crystal, experimental, refinement or atomic coordinate data resulting
# from the CCDC's data processing and validation procedures.
#
#######################################################################

data_CSD_CIF_MOVNER
_audit_creation_date 2009-09-28
_audit_creation_method CSD-ConQuest-V1
_database_code_CSD MOVNER
_database_code_depnum_ccdc_archive 'CCDC 689743'
_chemical_formula_sum 'C40 H20'
_chemical_formula_moiety
;
C40 H20
;
_journal_coden_Cambridge 24
_journal_volume 50
_journal_year 2009
_journal_page_first 1689
_journal_name_full 'Tetrahedron Lett. '
loop_
_publ_author_name
"De Lie An"
"Qiang Chen"
"Jingkun Fang"
"Hong Yan"
"A.Orita"
"N.Miura"
"A.Nakahashi"
"K.Monde"
"J.Otera"
_chemical_name_systematic
;
(S,M)-(-)-11,12,17,18,19,20,25,26-Octadehydrodibenzo[11,12:5,6]naphtho[2',1':1
5,16]cyclohexadeca[1,2-a]-naphthalene
;
_chemical_melting_point 438.65
_cell_volume   2777.949
_exptl_crystal_colour 'yellow'
_exptl_crystal_density_diffrn 1.197
_exptl_special_details
;
Melts above 438.65K

;
_exptl_crystal_description 'prismatic'
_diffrn_ambient_temperature 293
#These two values have been output from a single CSD field.
_refine_ls_R_factor_gt 0.0474
_refine_ls_wR_factor_gt 0.0474
_symmetry_cell_setting monoclinic
_symmetry_space_group_name_H-M 'P 21'
_symmetry_Int_Tables_number 4
loop_
_symmetry_equiv_pos_site_id
_symmetry_equiv_pos_as_xyz
1 x,y,z
2 -x,1/2+y,-z
_cell_length_a 12.3515(13)
_cell_length_b 13.0183(14)
_cell_length_c 18.1930(19)
_cell_angle_alpha 90
_cell_angle_beta 108.266(2)
_cell_angle_gamma 90
_cell_formula_units_Z 4
loop_
_atom_type_symbol
_atom_type_radius_bond
C 0.68
H 0.23
loop_
_atom_site_label
_atom_site_type_symbol
_atom_site_fract_x
_atom_site_fract_y
_atom_site_fract_z
C1 C 0.8689(2) 0.8954(2) 0.06357(15)
C2 C 0.9325(2) 0.8773(3) 0.01234(16)
H1 H 0.98100 0.92830 0.00530
C3 C 0.9248(2) 0.7884(3) -0.02637(17)
H2 H 0.96600 0.77970 -0.06090
C4 C 0.8545(2) 0.7075(2) -0.01527(16)
C5 C 0.8467(3) 0.6121(3) -0.05384(19)
H3 H 0.88710 0.60210 -0.08870
C6 C 0.7812(3) 0.5352(3) -0.04074(19)
H4 H 0.77870 0.47210 -0.06530
C7 C 0.7179(3) 0.5504(3) 0.00923(18)
H5 H 0.67200 0.49770 0.01720
C8 C 0.7221(2) 0.6413(2) 0.04666(16)
H6 H 0.67970 0.64950 0.08040
C9 C 0.7898(2) 0.7238(2) 0.03529(14)
C10 C 0.7970(2) 0.8191(2) 0.07425(14)
C11 C 0.7264(2) 0.8354(2) 0.12681(14)
C12 C 0.7759(2) 0.8238(2) 0.20753(15)
C13 C 0.8927(3) 0.8024(3) 0.24259(18)
H7 H 0.93890 0.79170 0.21160
C14 C 0.9388(3) 0.7973(4) 0.3207(2)
H8 H 1.01610 0.78300 0.34240
C15 C 0.8725(4) 0.8131(4) 0.3685(2)
H9 H 0.90580 0.81250 0.42200
C16 C 0.7588(4) 0.8293(3) 0.33718(19)
H10 H 0.71420 0.83610 0.36970
C17 C 0.7069(3) 0.8362(2) 0.25663(16)
C18 C 0.5893(3) 0.8564(2) 0.22247(18)
H11 H 0.54300 0.86280 0.25380
C19 C 0.5436(2) 0.8665(2) 0.14564(18)
H12 H 0.46590 0.87920 0.12450
C20 C 0.6123(2) 0.8582(2) 0.09585(15)
C21 C 0.5608(2) 0.8787(2) 0.01494(17)
C22 C 0.5124(2) 0.9032(2) -0.05076(17)
C23 C 0.4531(2) 0.9391(2) -0.12741(16)
C24 C 0.3769(3) 0.8769(3) -0.18105(18)
H13 H 0.36440 0.81010 -0.16740
C25 C 0.3196(3) 0.9119(3) -0.2538(2)
H14 H 0.26900 0.86870 -0.28900
C26 C 0.3362(3) 1.0099(3) -0.27528(18)
H15 H 0.29790 1.03300 -0.32500
C27 C 0.4097(3) 1.0739(3) -0.22293(17)
H16 H 0.41890 1.14130 -0.23690
C28 C 0.4705(2) 1.0393(2) -0.14936(15)
C29 C 0.5497(3) 1.1044(2) -0.09593(17)
C30 C 0.6190(3) 1.1542(2) -0.04864(17)
C31 C 0.7016(3) 1.2030(2) 0.00869(17)
C32 C 0.7761(3) 1.2366(2) 0.06243(17)
C33 C 0.8664(2) 1.2567(2) 0.13206(16)
C34 C 0.8887(3) 1.3535(3) 0.16368(18)
H17 H 0.84550 1.40910 0.13840
C35 C 0.9743(3) 1.3686(3) 0.2322(2)
H18 H 0.98880 1.43410 0.25350
C36 C 1.0372(4) 1.2881(4) 0.2687(2)
H19 H 1.09510 1.29890 0.31510
C37 C 1.0175(3) 1.1905(3) 0.2389(2)
H20 H 1.06230 1.13620 0.26480
C38 C 0.9311(2) 1.1728(2) 0.17021(18)
C39 C 0.9081(2) 1.0713(3) 0.13635(18)
C40 C 0.8851(2) 0.9908(3) 0.10433(17)
C41 C 0.3063(2) 1.0666(3) 0.41438(16)
C42 C 0.2471(3) 1.1508(3) 0.43317(18)
H21 H 0.25930 1.21690 0.41790
C43 C 0.1738(3) 1.1352(4) 0.4729(2)
H22 H 0.13530 1.19120 0.48460
C44 C 0.1531(3) 1.0364(4) 0.49764(17)
C45 C 0.0758(3) 1.0163(5) 0.5389(2)
H23 H 0.03460 1.07080 0.54990
C46 C 0.0595(4) 0.9232(6) 0.5626(2)
H24 H 0.00790 0.91380 0.58990
C47 C 0.1202(3) 0.8374(4) 0.54682(19)
H25 H 0.10900 0.77200 0.56370
C48 C 0.1953(3) 0.8529(3) 0.50625(17)
H26 H 0.23480 0.79700 0.49550
C49 C 0.2143(2) 0.9507(3) 0.48055(16)
C50 C 0.2903(2) 0.9685(2) 0.43695(15)
C51 C 0.3448(2) 0.8801(2) 0.41064(16)
C52 C 0.3001(2) 0.8477(2) 0.33176(16)
C53 C 0.2044(2) 0.8953(3) 0.27828(16)
H27 H 0.16630 0.94740 0.29510
C54 C 0.1677(3) 0.8663(3) 0.20362(17)
H28 H 0.10540 0.89950 0.16950
C55 C 0.2215(3) 0.7870(3) 0.17619(19)
H29 H 0.19550 0.76780 0.12440
C56 C 0.3116(3) 0.7389(3) 0.22609(19)
H30 H 0.34750 0.68640 0.20790
C57 C 0.3527(2) 0.7662(2) 0.30465(17)
C58 C 0.4461(3) 0.7159(3) 0.3575(2)
H31 H 0.48000 0.66070 0.34080
C59 C 0.4866(3) 0.7465(3) 0.4316(2)
H32 H 0.54760 0.71130 0.46540
C60 C 0.4395(2) 0.8301(3) 0.45916(17)
C61 C 0.4941(3) 0.8644(3) 0.53674(18)
C62 C 0.5525(3) 0.8857(3) 0.60109(19)
C63 C 0.6302(3) 0.9160(3) 0.67483(18)
C64 C 0.6206(3) 0.8784(3) 0.74330(19)
H33 H 0.56230 0.83270 0.74240
C65 C 0.6972(4) 0.9083(4) 0.8134(2)
H34 H 0.69140 0.88140 0.85940
C66 C 0.7802(4) 0.9765(4) 0.8151(2)
H35 H 0.82990 0.99760 0.86250
C67 C 0.7928(3) 1.0156(3) 0.7478(2)
H36 H 0.85050 1.06260 0.75010
C68 C 0.7191(3) 0.9847(3) 0.67644(18)
C69 C 0.7300(3) 1.0219(3) 0.6058(2)
C70 C 0.7253(3) 1.0440(3) 0.5413(2)
C71 C 0.7062(3) 1.0677(3) 0.4648(2)
C72 C 0.6784(3) 1.0834(3) 0.3966(2)
C73 C 0.6319(3) 1.0981(2) 0.31533(18)
C74 C 0.6994(3) 1.0979(3) 0.2665(2)
H37 H 0.77810 1.09140 0.28760
C75 C 0.6524(3) 1.1069(3) 0.1888(2)
H38 H 0.69890 1.10540 0.15740
C76 C 0.5374(4) 1.1182(3) 0.1563(2)
H39 H 0.50590 1.12480 0.10290
C77 C 0.4675(3) 1.1199(3) 0.20283(19)
H40 H 0.38940 1.12950 0.18080
C78 C 0.5138(3) 1.1073(2) 0.28206(19)
C79 C 0.4406(3) 1.0994(3) 0.32940(19)
C80 C 0.3803(3) 1.0860(2) 0.36844(19)
loop_
_geom_bond_atom_site_label_1
_geom_bond_atom_site_label_2
_geom_bond_distance
_geom_bond_site_symmetry_1
_geom_bond_site_symmetry_2
C1 C2 1.414 1_555 1_555
C2 H1 0.930 1_555 1_555
C3 C2 1.343 1_555 1_555
H2 C3 0.931 1_555 1_555
C4 C3 1.419 1_555 1_555
C5 C4 1.415 1_555 1_555
H3 C5 0.931 1_555 1_555
C6 C5 1.354 1_555 1_555
H4 C6 0.931 1_555 1_555
C7 C6 1.387 1_555 1_555
H5 C7 0.930 1_555 1_555
C8 C7 1.358 1_555 1_555
H6 C8 0.929 1_555 1_555
C9 C4 1.411 1_555 1_555
C10 C1 1.386 1_555 1_555
C11 C10 1.497 1_555 1_555
C12 C11 1.411 1_555 1_555
C13 C12 1.410 1_555 1_555
H7 C13 0.930 1_555 1_555
C14 C13 1.357 1_555 1_555
H8 C14 0.930 1_555 1_555
C15 C14 1.384 1_555 1_555
H9 C15 0.930 1_555 1_555
C16 C15 1.356 1_555 1_555
H10 C16 0.930 1_555 1_555
C17 C12 1.424 1_555 1_555
C18 C17 1.414 1_555 1_555
H11 C18 0.929 1_555 1_555
C19 C18 1.340 1_555 1_555
H12 C19 0.930 1_555 1_555
C20 C11 1.376 1_555 1_555
C21 C20 1.434 1_555 1_555
C22 C21 1.200 1_555 1_555
C23 C22 1.435 1_555 1_555
C24 C23 1.385 1_555 1_555
H13 C24 0.930 1_555 1_555
C25 C24 1.369 1_555 1_555
H14 C25 0.931 1_555 1_555
C26 C25 1.368 1_555 1_555
H15 C26 0.930 1_555 1_555
C27 C26 1.372 1_555 1_555
H16 C27 0.930 1_555 1_555
C28 C23 1.400 1_555 1_555
C29 C28 1.423 1_555 1_555
C30 C29 1.196 1_555 1_555
C31 C30 1.366 1_555 1_555
C32 C31 1.196 1_555 1_555
C33 C32 1.425 1_555 1_555
C34 C33 1.377 1_555 1_555
H17 C34 0.931 1_555 1_555
C35 C34 1.373 1_555 1_555
H18 C35 0.930 1_555 1_555
C36 C35 1.349 1_555 1_555
H19 C36 0.930 1_555 1_555
C37 C36 1.373 1_555 1_555
H20 C37 0.930 1_555 1_555
C38 C33 1.402 1_555 1_555
C39 C38 1.448 1_555 1_555
C40 C1 1.428 1_555 1_555
C41 C42 1.418 1_555 1_555
C42 H21 0.931 1_555 1_555
C43 C42 1.339 1_555 1_555
H22 C43 0.931 1_555 1_555
C44 C43 1.412 1_555 1_555
C45 C44 1.412 1_555 1_555
H23 C45 0.931 1_555 1_555
C46 C45 1.323 1_555 1_555
H24 C46 0.931 1_555 1_555
C47 C46 1.424 1_555 1_555
H25 C47 0.930 1_555 1_555
C48 C47 1.369 1_555 1_555
H26 C48 0.930 1_555 1_555
C49 C44 1.435 1_555 1_555
C50 C41 1.375 1_555 1_555
C51 C50 1.486 1_555 1_555
C52 C51 1.430 1_555 1_555
C53 C52 1.417 1_555 1_555
H27 C53 0.930 1_555 1_555
C54 C53 1.344 1_555 1_555
H28 C54 0.930 1_555 1_555
C55 C54 1.402 1_555 1_555
H29 C55 0.929 1_555 1_555
C56 C55 1.350 1_555 1_555
H30 C56 0.930 1_555 1_555
C57 C52 1.411 1_555 1_555
C58 C57 1.410 1_555 1_555
H31 C58 0.929 1_555 1_555
C59 C58 1.343 1_555 1_555
H32 C59 0.930 1_555 1_555
C60 C51 1.387 1_555 1_555
C61 C60 1.432 1_555 1_555
C62 C61 1.199 1_555 1_555
C63 C62 1.439 1_555 1_555
C64 C63 1.378 1_555 1_555
H33 C64 0.930 1_555 1_555
C65 C64 1.384 1_555 1_555
H34 C65 0.930 1_555 1_555
C66 C65 1.349 1_555 1_555
H35 C66 0.930 1_555 1_555
C67 C66 1.379 1_555 1_555
H36 C67 0.930 1_555 1_555
C68 C63 1.409 1_555 1_555
C69 C68 1.419 1_555 1_555
C70 C69 1.192 1_555 1_555
C71 C70 1.372 1_555 1_555
C72 C71 1.197 1_555 1_555
C73 C72 1.421 1_555 1_555
C74 C73 1.396 1_555 1_555
H37 C74 0.930 1_555 1_555
C75 C74 1.354 1_555 1_555
H38 C75 0.929 1_555 1_555
C76 C75 1.365 1_555 1_555
H39 C76 0.930 1_555 1_555
C77 C76 1.386 1_555 1_555
H40 C77 0.930 1_555 1_555
C78 C73 1.398 1_555 1_555
C79 C78 1.435 1_555 1_555
C80 C41 1.441 1_555 1_555
C8 C9 1.416 1_555 1_555
C9 C10 1.418 1_555 1_555
C16 C17 1.406 1_555 1_555
C19 C20 1.426 1_555 1_555
C27 C28 1.389 1_555 1_555
C37 C38 1.385 1_555 1_555
C39 C40 1.189 1_555 1_555
C48 C49 1.401 1_555 1_555
C49 C50 1.425 1_555 1_555
C56 C57 1.404 1_555 1_555
C59 C60 1.399 1_555 1_555
C67 C68 1.391 1_555 1_555
C77 C78 1.384 1_555 1_555
C79 C80 1.192 1_555 1_555
#END
