
#######################################################################
#
#                 Cambridge Crystallographic Data Centre
#                                CCDC
#
#######################################################################
#
# If this CIF has been generated from an entry in the Cambridge
# Structural Database, then it will include bibliographic, chemical,
# crystal, experimental, refinement or atomic coordinate data resulting
# from the CCDC's data processing and validation procedures.
#
#######################################################################

data_CSD_CIF_MUTJOC
_audit_creation_date 2015-10-21
_audit_creation_method CSD-ConQuest-V1
_database_code_CSD MUTJOC
_database_code_depnum_ccdc_archive 'CCDC 1432505'
_chemical_formula_sum 'C40 H28'
_chemical_formula_moiety
;
C40 H28
;
_journal_coden_Cambridge 1748
_journal_volume 3
_journal_year 2016
_journal_page_first 1091
_journal_name_full 'Org.Chem.Front. '
loop_
_publ_author_name
"Bairong He"
"Han Nie"
"Wenwen Luo"
"Rongrong Hu"
"Anjun Qin"
"Zujin Zhao"
"Ben Zhong Tang"
_chemical_name_systematic
;
9-(2-(triphenylvinyl)phenyl)phenanthrene
;
_cell_volume   2739.835
_exptl_crystal_colour 'colorless'
_exptl_crystal_density_diffrn 1.233
_exptl_special_details
;
Luminescent

;
_exptl_crystal_description 'block'
_diffrn_ambient_temperature 173
#These two values have been output from a single CSD field.
_refine_ls_R_factor_gt 0.036
_refine_ls_wR_factor_gt 0.036
_symmetry_cell_setting monoclinic
_symmetry_space_group_name_H-M 'P 21/n'
_symmetry_Int_Tables_number 14
loop_
_symmetry_equiv_pos_site_id
_symmetry_equiv_pos_as_xyz
1 x,y,z
2 1/2-x,1/2+y,1/2-z
3 -x,-y,-z
4 -1/2+x,-1/2-y,-1/2+z
_cell_length_a 11.3717(2)
_cell_length_b 15.9519(3)
_cell_length_c 15.1309(3)
_cell_angle_alpha 90
_cell_angle_beta 93.429(2)
_cell_angle_gamma 90
_cell_formula_units_Z 4
loop_
_atom_type_symbol
_atom_type_radius_bond
C 0.68
H 0.23
loop_
_atom_site_label
_atom_site_type_symbol
_atom_site_fract_x
_atom_site_fract_y
_atom_site_fract_z
C1 C 0.08331(10) 0.62471(7) 0.24229(7)
C2 C 0.17475(9) 0.57284(7) 0.23083(7)
C3 C 0.0475(1) 0.64531(9) 0.33399(7)
C4 C 0.06211(14) 0.72653(10) 0.36554(10)
H1 H 0.09460 0.76830 0.32950
C5 C 0.02890(19) 0.74679(14) 0.45066(12)
H2 H 0.04040 0.80200 0.47310
C6 C -0.02084(19) 0.68583(17) 0.50176(10)
H3 H -0.04340 0.69950 0.55950
C7 C -0.03785(15) 0.60639(15) 0.47024(10)
H4 H -0.07350 0.56540 0.50550
C8 C -0.00299(12) 0.58535(11) 0.38628(8)
H5 H -0.01390 0.52980 0.36480
C9 C 0.24150(9) 0.53142(8) 0.30706(7)
C10 C 0.25685(11) 0.44491(8) 0.30417(9)
H6 H 0.22790 0.41440 0.25350
C11 C 0.31435(13) 0.40275(9) 0.37497(11)
H7 H 0.32330 0.34360 0.37300
C12 C 0.35840(12) 0.44747(11) 0.44826(9)
H8 H 0.39660 0.41890 0.49700
C13 C 0.34672(12) 0.53358(11) 0.45022(9)
H9 H 0.37810 0.56430 0.50000
C14 C 0.28971(11) 0.57510(9) 0.38019(8)
H10 H 0.28320 0.63440 0.38190
C15 C 0.00748(10) 0.66562(7) 0.17061(7)
C16 C -0.11239(11) 0.67422(8) 0.18364(7)
H11 H -0.14220 0.65350 0.23680
C17 C -0.18910(11) 0.71207(8) 0.12142(8)
H12 H -0.27040 0.71660 0.13180
C18 C -0.14700(12) 0.74325(8) 0.04419(8)
H13 H -0.19910 0.76980 0.00150
C19 C -0.02836(12) 0.73557(8) 0.02935(8)
H14 H 0.00070 0.75680 -0.02380
C20 C 0.0483(1) 0.69704(7) 0.09156(8)
H15 H 0.12930 0.69190 0.08040
C21 C 0.21196(10) 0.54707(7) 0.14128(7)
C22 C 0.13566(10) 0.50314(7) 0.08317(8)
H16 H 0.05860 0.49040 0.10020
C23 C 0.16940(11) 0.47741(8) 0.00064(8)
H17 H 0.11670 0.44590 -0.03740
C24 C 0.28021(12) 0.49796(8) -0.02585(8)
H18 H 0.30280 0.48310 -0.08320
C25 C 0.35797(10) 0.54051(8) 0.03241(8)
H19 H 0.43420 0.55430 0.01430
C26 C 0.3269(1) 0.56355(7) 0.11703(7)
C27 C 0.41884(10) 0.60161(7) 0.17968(7)
C28 C 0.41942(10) 0.68465(8) 0.19813(7)
H20 H 0.35840 0.71890 0.17220
C29 C 0.50947(10) 0.72268(8) 0.25567(8)
C30 C 0.51210(12) 0.81026(8) 0.26911(9)
H21 H 0.45270 0.84440 0.24060
C31 C 0.59913(13) 0.84679(9) 0.32264(10)
H22 H 0.60020 0.90590 0.33070
C32 C 0.68627(12) 0.79703(9) 0.36544(9)
H23 H 0.74590 0.82230 0.40320
C33 C 0.68604(11) 0.71185(9) 0.35303(8)
H24 H 0.74560 0.67880 0.38270
C34 C 0.59893(10) 0.67231(8) 0.29703(7)
C35 C 0.59862(10) 0.58292(8) 0.27929(7)
C36 C 0.68424(10) 0.52855(9) 0.31858(8)
H25 H 0.74450 0.55110 0.35780
C37 C 0.68314(12) 0.44431(9) 0.30204(9)
H26 H 0.74200 0.40920 0.32970
C38 C 0.59547(12) 0.40986(8) 0.24443(9)
H27 H 0.59450 0.35130 0.23300
C39 C 0.51084(10) 0.46069(8) 0.20439(8)
H28 H 0.45170 0.43670 0.16520
C40 C 0.50993(10) 0.54796(8) 0.22025(7)
loop_
_geom_bond_atom_site_label_1
_geom_bond_atom_site_label_2
_geom_bond_distance
_geom_bond_site_symmetry_1
_geom_bond_site_symmetry_2
C1 C2 1.348 1_555 1_555
C2 C9 1.496 1_555 1_555
C3 C1 1.506 1_555 1_555
C4 C3 1.387 1_555 1_555
H1 C4 0.950 1_555 1_555
C5 C4 1.401 1_555 1_555
H2 C5 0.950 1_555 1_555
C6 C5 1.384 1_555 1_555
H3 C6 0.951 1_555 1_555
C7 C6 1.364 1_555 1_555
H4 C7 0.950 1_555 1_555
C8 C3 1.387 1_555 1_555
H5 C8 0.949 1_555 1_555
C9 C10 1.392 1_555 1_555
C10 H6 0.950 1_555 1_555
C11 C10 1.394 1_555 1_555
H7 C11 0.950 1_555 1_555
C12 C11 1.387 1_555 1_555
H8 C12 0.950 1_555 1_555
C13 C12 1.381 1_555 1_555
H9 C13 0.950 1_555 1_555
C14 C9 1.392 1_555 1_555
H10 C14 0.949 1_555 1_555
C15 C1 1.495 1_555 1_555
C16 C15 1.396 1_555 1_555
H11 C16 0.951 1_555 1_555
C17 C16 1.383 1_555 1_555
H12 C17 0.950 1_555 1_555
C18 C17 1.382 1_555 1_555
H13 C18 0.950 1_555 1_555
C19 C18 1.386 1_555 1_555
H14 C19 0.950 1_555 1_555
C20 C15 1.401 1_555 1_555
H15 C20 0.950 1_555 1_555
C21 C2 1.501 1_555 1_555
C22 C21 1.388 1_555 1_555
H16 C22 0.950 1_555 1_555
C23 C22 1.390 1_555 1_555
H17 C23 0.950 1_555 1_555
C24 C23 1.384 1_555 1_555
H18 C24 0.950 1_555 1_555
C25 C24 1.388 1_555 1_555
H19 C25 0.950 1_555 1_555
C26 C21 1.403 1_555 1_555
C27 C26 1.497 1_555 1_555
C28 C27 1.354 1_555 1_555
H20 C28 0.949 1_555 1_555
C29 C28 1.438 1_555 1_555
C30 C29 1.412 1_555 1_555
H21 C30 0.951 1_555 1_555
C31 C30 1.371 1_555 1_555
H22 C31 0.951 1_555 1_555
C32 C31 1.398 1_555 1_555
H23 C32 0.950 1_555 1_555
C33 C32 1.372 1_555 1_555
H24 C33 0.950 1_555 1_555
C34 C29 1.413 1_555 1_555
C35 C34 1.451 1_555 1_555
C36 C35 1.409 1_555 1_555
H25 C36 0.950 1_555 1_555
C37 C36 1.367 1_555 1_555
H26 C37 0.950 1_555 1_555
C38 C37 1.397 1_555 1_555
H27 C38 0.950 1_555 1_555
C39 C38 1.371 1_555 1_555
H28 C39 0.950 1_555 1_555
C40 C27 1.451 1_555 1_555
C7 C8 1.394 1_555 1_555
C13 C14 1.378 1_555 1_555
C19 C20 1.388 1_555 1_555
C25 C26 1.398 1_555 1_555
C33 C34 1.413 1_555 1_555
C35 C40 1.421 1_555 1_555
C39 C40 1.413 1_555 1_555
#END
