
#######################################################################
#
#                 Cambridge Crystallographic Data Centre
#                                CCDC
#
#######################################################################
#
# If this CIF has been generated from an entry in the Cambridge
# Structural Database, then it will include bibliographic, chemical,
# crystal, experimental, refinement or atomic coordinate data resulting
# from the CCDC's data processing and validation procedures.
#
#######################################################################

data_CSD_CIF_MUTJIW
_audit_creation_date 2015-10-21
_audit_creation_method CSD-ConQuest-V1
_database_code_CSD MUTJIW
_database_code_depnum_ccdc_archive 'CCDC 1432504'
_chemical_formula_sum 'C40 H28'
_chemical_formula_moiety
;
C40 H28
;
_journal_coden_Cambridge 1748
_journal_volume 3
_journal_year 2016
_journal_page_first 1091
_journal_name_full 'Org.Chem.Front. '
loop_
_publ_author_name
"Bairong He"
"Han Nie"
"Wenwen Luo"
"Rongrong Hu"
"Anjun Qin"
"Zujin Zhao"
"Ben Zhong Tang"
_chemical_name_systematic
;
9-(2-(triphenylvinyl)phenyl)anthracene
;
_cell_volume   2772.678
_exptl_crystal_density_diffrn 1.218
_exptl_special_details
;
Luminescent

;
_exptl_crystal_description 'block'
_diffrn_ambient_temperature 143
#These two values have been output from a single CSD field.
_refine_ls_R_factor_gt 0.0387
_refine_ls_wR_factor_gt 0.0387
_symmetry_cell_setting monoclinic
_symmetry_space_group_name_H-M 'P 21/c'
_symmetry_Int_Tables_number 14
loop_
_symmetry_equiv_pos_site_id
_symmetry_equiv_pos_as_xyz
1 x,y,z
2 -x,1/2+y,1/2-z
3 -x,-y,-z
4 x,-1/2-y,-1/2+z
_cell_length_a 16.4844(14)
_cell_length_b 9.1722(12)
_cell_length_c 19.225(3)
_cell_angle_alpha 90
_cell_angle_beta 107.472(12)
_cell_angle_gamma 90
_cell_formula_units_Z 4
loop_
_atom_type_symbol
_atom_type_radius_bond
C 0.68
H 0.23
loop_
_atom_site_label
_atom_site_type_symbol
_atom_site_fract_x
_atom_site_fract_y
_atom_site_fract_z
C1 C 0.30618(8) 0.46211(16) 0.47123(7)
C2 C 0.33854(8) 0.42083(16) 0.54174(7)
C3 C 0.31938(8) 0.37287(16) 0.41055(7)
C4 C 0.35875(8) 0.43458(17) 0.36281(7)
H1 H 0.37830 0.53250 0.36990
C5 C 0.36981(9) 0.35465(19) 0.30499(8)
H2 H 0.39730 0.39770 0.27320
C6 C 0.34101(9) 0.21315(18) 0.29366(8)
H3 H 0.34790 0.15890 0.25370
C7 C 0.30193(9) 0.15022(18) 0.34091(8)
H4 H 0.28230 0.05240 0.33340
C8 C 0.29133(9) 0.22907(16) 0.39890(7)
H5 H 0.26470 0.18480 0.43100
C9 C 0.38963(9) 0.28477(16) 0.56324(7)
C10 C 0.46497(9) 0.26045(18) 0.54595(8)
H6 H 0.48520 0.33210 0.51950
C11 C 0.51034(10) 0.1327(2) 0.56702(8)
H7 H 0.56210 0.11820 0.55590
C12 C 0.48081(10) 0.02596(19) 0.60426(8)
H8 H 0.51110 -0.06300 0.61710
C13 C 0.4069(1) 0.04965(18) 0.62255(8)
H9 H 0.38640 -0.02310 0.64820
C14 C 0.36263(9) 0.17961(16) 0.60349(7)
H10 H 0.31330 0.19690 0.61810
C15 C 0.32991(9) 0.50621(16) 0.60547(7)
C16 C 0.40310(9) 0.56465(17) 0.65413(8)
H11 H 0.45630 0.55060 0.64550
C17 C 0.39986(10) 0.64281(18) 0.71480(8)
H12 H 0.45030 0.68320 0.74690
C18 C 0.32281(11) 0.66186(18) 0.72840(8)
H13 H 0.32020 0.71500 0.77010
C19 C 0.24929(11) 0.60317(19) 0.68108(9)
H14 H 0.19640 0.61560 0.69060
C20 C 0.25273(9) 0.52634(17) 0.61990(8)
H15 H 0.20200 0.48710 0.58760
C21 C 0.25945(9) 0.60248(16) 0.44837(7)
C22 C 0.29339(9) 0.73175(16) 0.48344(8)
H16 H 0.34540 0.72860 0.52200
C23 C 0.25335(10) 0.86390(18) 0.46360(8)
H17 H 0.27730 0.95020 0.48880
C24 C 0.17823(11) 0.87086(18) 0.40693(9)
H18 H 0.15040 0.96170 0.39310
C25 C 0.14388(10) 0.74430(17) 0.37040(8)
H19 H 0.09240 0.74950 0.33140
C26 C 0.18336(9) 0.60948(17) 0.38976(7)
C27 C 0.14136(8) 0.47694(16) 0.34925(7)
C28 C 0.09557(8) 0.38299(17) 0.38155(7)
C29 C 0.08129(9) 0.41558(17) 0.44960(8)
H20 H 0.10420 0.50260 0.47470
C30 C 0.03546(10) 0.32445(19) 0.47920(9)
H21 H 0.02590 0.34980 0.52400
C31 C 0.00181(10) 0.19238(19) 0.44414(9)
H22 H -0.02900 0.12870 0.46590
C32 C 0.01359(9) 0.15700(18) 0.37949(9)
H23 H -0.00910 0.06810 0.35640
C33 C 0.05946(9) 0.25082(17) 0.34530(8)
C34 C 0.06871(9) 0.21851(17) 0.27725(8)
H24 H 0.04710 0.12890 0.25430
C35 C 0.10882(9) 0.31456(17) 0.24222(8)
C36 C 0.11443(10) 0.28550(19) 0.17085(8)
H25 H 0.09130 0.19740 0.14710
C37 C 0.15212(10) 0.3809(2) 0.13617(8)
H26 H 0.15410 0.36010 0.08830
C38 C 0.18842(9) 0.5112(2) 0.17135(8)
H27 H 0.21480 0.57760 0.14700
C39 C 0.18582(9) 0.54209(18) 0.24003(8)
H28 H 0.21150 0.62930 0.26300
C40 C 0.14552(8) 0.44680(17) 0.27825(8)
loop_
_geom_bond_atom_site_label_1
_geom_bond_atom_site_label_2
_geom_bond_distance
_geom_bond_site_symmetry_1
_geom_bond_site_symmetry_2
C1 C2 1.353 1_555 1_555
C2 C9 1.493 1_555 1_555
C3 C1 1.494 1_555 1_555
C4 C3 1.393 1_555 1_555
H1 C4 0.950 1_555 1_555
C5 C4 1.389 1_555 1_555
H2 C5 0.949 1_555 1_555
C6 C5 1.377 1_555 1_555
H3 C6 0.950 1_555 1_555
C7 C6 1.387 1_555 1_555
H4 C7 0.950 1_555 1_555
C8 C3 1.393 1_555 1_555
H5 C8 0.949 1_555 1_555
C9 C10 1.397 1_555 1_555
C10 H6 0.951 1_555 1_555
C11 C10 1.384 1_555 1_555
H7 C11 0.949 1_555 1_555
C12 C11 1.385 1_555 1_555
H8 C12 0.950 1_555 1_555
C13 C12 1.383 1_555 1_555
H9 C13 0.950 1_555 1_555
C14 C9 1.391 1_555 1_555
H10 C14 0.950 1_555 1_555
C15 C2 1.496 1_555 1_555
C16 C15 1.393 1_555 1_555
H11 C16 0.949 1_555 1_555
C17 C16 1.384 1_555 1_555
H12 C17 0.949 1_555 1_555
C18 C17 1.383 1_555 1_555
H13 C18 0.950 1_555 1_555
C19 C18 1.387 1_555 1_555
H14 C19 0.950 1_555 1_555
C20 C15 1.393 1_555 1_555
H15 C20 0.950 1_555 1_555
C21 C1 1.497 1_555 1_555
C22 C21 1.395 1_555 1_555
H16 C22 0.951 1_555 1_555
C23 C22 1.378 1_555 1_555
H17 C23 0.950 1_555 1_555
C24 C23 1.384 1_555 1_555
H18 C24 0.950 1_555 1_555
C25 C24 1.387 1_555 1_555
H19 C25 0.950 1_555 1_555
C26 C21 1.414 1_555 1_555
C27 C26 1.497 1_555 1_555
C28 C27 1.407 1_555 1_555
C29 C28 1.429 1_555 1_555
H20 C29 0.950 1_555 1_555
C30 C29 1.361 1_555 1_555
H21 C30 0.950 1_555 1_555
C31 C30 1.416 1_555 1_555
H22 C31 0.950 1_555 1_555
C32 C31 1.354 1_555 1_555
H23 C32 0.950 1_555 1_555
C33 C28 1.435 1_555 1_555
C34 C33 1.394 1_555 1_555
H24 C34 0.950 1_555 1_555
C35 C34 1.391 1_555 1_555
C36 C35 1.428 1_555 1_555
H25 C36 0.950 1_555 1_555
C37 C36 1.358 1_555 1_555
H26 C37 0.950 1_555 1_555
C38 C37 1.415 1_555 1_555
H27 C38 0.949 1_555 1_555
C39 C38 1.364 1_555 1_555
H28 C39 0.950 1_555 1_555
C40 C27 1.414 1_555 1_555
C7 C8 1.383 1_555 1_555
C13 C14 1.388 1_555 1_555
C19 C20 1.387 1_555 1_555
C25 C26 1.395 1_555 1_555
C32 C33 1.429 1_555 1_555
C35 C40 1.437 1_555 1_555
C39 C40 1.428 1_555 1_555
#END
