
#######################################################################
#
#                 Cambridge Crystallographic Data Centre
#                                CCDC
#
#######################################################################
#
# If this CIF has been generated from an entry in the Cambridge
# Structural Database, then it will include bibliographic, chemical,
# crystal, experimental, refinement or atomic coordinate data resulting
# from the CCDC's data processing and validation procedures.
#
#######################################################################

data_CSD_CIF_MUTJES
_audit_creation_date 2015-10-21
_audit_creation_method CSD-ConQuest-V1
_database_code_CSD MUTJES
_database_code_depnum_ccdc_archive 'CCDC 955717'
_chemical_formula_sum 'C36 H26'
_chemical_formula_moiety
;
C36 H26
;
_journal_coden_Cambridge 1748
_journal_volume 3
_journal_year 2016
_journal_page_first 1091
_journal_name_full 'Org.Chem.Front. '
loop_
_publ_author_name
"Bairong He"
"Han Nie"
"Wenwen Luo"
"Rongrong Hu"
"Anjun Qin"
"Zujin Zhao"
"Ben Zhong Tang"
_chemical_name_systematic
;
2-(2-(triphenylvinyl)phenyl)naphthalene
;
_cell_volume   1251.373
_exptl_crystal_colour 'colorless'
_exptl_crystal_density_diffrn 1.217
_exptl_special_details
;
Luminescent

;
_exptl_crystal_description 'plate'
_diffrn_ambient_temperature 143
#These two values have been output from a single CSD field.
_refine_ls_R_factor_gt 0.0389
_refine_ls_wR_factor_gt 0.0389
_symmetry_cell_setting triclinic
_symmetry_space_group_name_H-M 'P -1'
_symmetry_Int_Tables_number 2
loop_
_symmetry_equiv_pos_site_id
_symmetry_equiv_pos_as_xyz
1 x,y,z
2 -x,-y,-z
_cell_length_a 9.2253(12)
_cell_length_b 12.0172(19)
_cell_length_c 12.8207(16)
_cell_angle_alpha 65.023(14)
_cell_angle_beta 76.245(11)
_cell_angle_gamma 83.655(12)
_cell_formula_units_Z 2
loop_
_atom_type_symbol
_atom_type_radius_bond
C 0.68
H 0.23
loop_
_atom_site_label
_atom_site_type_symbol
_atom_site_fract_x
_atom_site_fract_y
_atom_site_fract_z
C1 C 0.60914(15) 0.21657(12) 0.25995(13)
C2 C 0.71709(15) 0.19288(11) 0.32141(12)
C3 C 0.61772(15) 0.18099(12) 0.15983(13)
C4 C 0.54911(17) 0.25475(13) 0.06681(14)
H1 H 0.49980 0.32850 0.06670
C5 C 0.55160(19) 0.22230(15) -0.02536(15)
H2 H 0.50480 0.27400 -0.08810
C6 C 0.6220(2) 0.11482(15) -0.02632(15)
H3 H 0.62380 0.09260 -0.08950
C7 C 0.68979(18) 0.03977(14) 0.06555(15)
H4 H 0.73850 -0.03400 0.06510
C8 C 0.68693(16) 0.07172(13) 0.15792(14)
H5 H 0.73250 0.01880 0.22090
C9 C 0.86855(15) 0.14538(12) 0.28591(13)
C10 C 0.95760(16) 0.20585(13) 0.17464(13)
H6 H 0.92100 0.27830 0.11930
C11 C 1.09873(17) 0.16176(14) 0.14368(14)
H7 H 1.15830 0.20400 0.06740
C12 C 1.15342(16) 0.05658(14) 0.22317(14)
H8 H 1.24990 0.02580 0.20150
C13 C 1.06668(17) -0.00402(13) 0.33500(14)
H9 H 1.10390 -0.07630 0.39010
C14 C 0.92643(16) 0.04063(12) 0.36613(13)
H10 H 0.86840 -0.00050 0.44330
C15 C 0.69586(15) 0.21558(12) 0.42998(12)
C16 C 0.79167(15) 0.29422(12) 0.43450(13)
H11 H 0.86740 0.33500 0.36740
C17 C 0.77839(17) 0.31403(12) 0.53542(13)
H12 H 0.84350 0.36910 0.53690
C18 C 0.66950(17) 0.25292(13) 0.63431(14)
H13 H 0.66070 0.26540 0.70400
C19 C 0.57397(17) 0.17396(13) 0.63150(14)
H14 H 0.49970 0.13210 0.69940
C20 C 0.58598(15) 0.15543(13) 0.52984(13)
H15 H 0.51920 0.10170 0.52820
C21 C 0.46655(15) 0.28041(12) 0.28970(12)
C22 C 0.46014(15) 0.40234(12) 0.27921(12)
C23 C 0.32053(16) 0.45470(13) 0.30346(14)
H16 H 0.31500 0.53740 0.29510
C24 C 0.19047(16) 0.39001(14) 0.33914(15)
H17 H 0.09700 0.42780 0.35580
C25 C 0.19622(16) 0.26930(13) 0.35064(14)
H18 H 0.10720 0.22380 0.37530
C26 C 0.33362(15) 0.21646(12) 0.32553(13)
H19 H 0.33760 0.13420 0.33290
C27 C 0.59524(15) 0.47733(12) 0.24509(13)
C28 C 0.70895(16) 0.48918(12) 0.14440(13)
H20 H 0.69860 0.44960 0.09630
C29 C 0.83328(17) 0.55716(13) 0.11613(13)
H21 H 0.90830 0.56340 0.04880
C30 C 0.85259(16) 0.61839(13) 0.18494(13)
C31 C 0.73917(15) 0.60855(12) 0.28469(13)
C32 C 0.61149(15) 0.53751(12) 0.31178(13)
H22 H 0.53490 0.53140 0.37820
C33 C 0.98019(18) 0.68976(15) 0.15814(15)
H23 H 1.05710 0.69750 0.09150
C34 C 0.99329(19) 0.74717(15) 0.22705(16)
H24 H 1.07830 0.79590 0.20710
C35 C 0.88184(19) 0.73505(15) 0.32781(16)
H25 H 0.89300 0.77430 0.37600
C36 C 0.75792(17) 0.66699(13) 0.35628(14)
H26 H 0.68370 0.65870 0.42460
loop_
_geom_bond_atom_site_label_1
_geom_bond_atom_site_label_2
_geom_bond_distance
_geom_bond_site_symmetry_1
_geom_bond_site_symmetry_2
C1 C2 1.347 1_555 1_555
C2 C9 1.492 1_555 1_555
C3 C1 1.498 1_555 1_555
C4 C3 1.397 1_555 1_555
H1 C4 0.950 1_555 1_555
C5 C4 1.387 1_555 1_555
H2 C5 0.950 1_555 1_555
C6 C5 1.384 1_555 1_555
H3 C6 0.950 1_555 1_555
C7 C6 1.386 1_555 1_555
H4 C7 0.950 1_555 1_555
C8 C3 1.402 1_555 1_555
H5 C8 0.950 1_555 1_555
C9 C10 1.392 1_555 1_555
C10 H6 0.950 1_555 1_555
C11 C10 1.383 1_555 1_555
H7 C11 0.950 1_555 1_555
C12 C11 1.381 1_555 1_555
H8 C12 0.950 1_555 1_555
C13 C12 1.388 1_555 1_555
H9 C13 0.950 1_555 1_555
C14 C9 1.395 1_555 1_555
H10 C14 0.950 1_555 1_555
C15 C2 1.493 1_555 1_555
C16 C15 1.390 1_555 1_555
H11 C16 0.950 1_555 1_555
C17 C16 1.387 1_555 1_555
H12 C17 0.950 1_555 1_555
C18 C17 1.388 1_555 1_555
H13 C18 0.950 1_555 1_555
C19 C18 1.381 1_555 1_555
H14 C19 0.950 1_555 1_555
C20 C15 1.397 1_555 1_555
H15 C20 0.950 1_555 1_555
C21 C1 1.500 1_555 1_555
C22 C21 1.410 1_555 1_555
C23 C22 1.395 1_555 1_555
H16 C23 0.950 1_555 1_555
C24 C23 1.378 1_555 1_555
H17 C24 0.950 1_555 1_555
C25 C24 1.391 1_555 1_555
H18 C25 0.950 1_555 1_555
C26 C21 1.396 1_555 1_555
H19 C26 0.950 1_555 1_555
C27 C22 1.488 1_555 1_555
C28 C27 1.422 1_555 1_555
H20 C28 0.949 1_555 1_555
C29 C28 1.369 1_555 1_555
H21 C29 0.950 1_555 1_555
C30 C29 1.415 1_555 1_555
C31 C30 1.417 1_555 1_555
C32 C27 1.372 1_555 1_555
H22 C32 0.950 1_555 1_555
C33 C30 1.422 1_555 1_555
H23 C33 0.949 1_555 1_555
C34 C33 1.362 1_555 1_555
H24 C34 0.950 1_555 1_555
C35 C34 1.411 1_555 1_555
H25 C35 0.950 1_555 1_555
C36 C31 1.419 1_555 1_555
H26 C36 0.950 1_555 1_555
C7 C8 1.385 1_555 1_555
C13 C14 1.380 1_555 1_555
C19 C20 1.390 1_555 1_555
C25 C26 1.384 1_555 1_555
C31 C32 1.419 1_555 1_555
C35 C36 1.366 1_555 1_555
#END
