
#######################################################################
#
#                 Cambridge Crystallographic Data Centre
#                                CCDC
#
#######################################################################
#
# If this CIF has been generated from an entry in the Cambridge
# Structural Database, then it will include bibliographic, chemical,
# crystal, experimental, refinement or atomic coordinate data resulting
# from the CCDC's data processing and validation procedures.
#
#######################################################################

data_CSD_CIF_MUVCIQ
_audit_creation_date 2010-11-04
_audit_creation_method CSD-ConQuest-V1
_database_code_CSD MUVCIQ
_database_code_depnum_ccdc_archive 'CCDC 743896'
_chemical_formula_sum 'C22 H20'
_chemical_formula_moiety
;
C22 H20
;
_journal_coden_Cambridge 24
_journal_volume 51
_journal_year 2010
_journal_page_first 3037
_journal_name_full 'Tetrahedron Lett. '
loop_
_publ_author_name
"E.Yagodkin"
"C.J.Douglas"
_chemical_name_systematic
;
5,6,11,12-Tetramethyltetracene
;
_chemical_melting_point 464
_cell_volume    742.176
_exptl_crystal_colour 'red'
_exptl_crystal_density_diffrn 1.272
_exptl_crystal_description 'needle'
_diffrn_ambient_temperature 173
#These two values have been output from a single CSD field.
_refine_ls_R_factor_gt 0.0438
_refine_ls_wR_factor_gt 0.0438
_symmetry_cell_setting monoclinic
_symmetry_space_group_name_H-M 'P 21/c'
_symmetry_Int_Tables_number 14
loop_
_symmetry_equiv_pos_site_id
_symmetry_equiv_pos_as_xyz
1 x,y,z
2 -x,1/2+y,1/2-z
3 -x,-y,-z
4 x,-1/2-y,-1/2+z
_cell_length_a 10.118(3)
_cell_length_b 7.5483(19)
_cell_length_c 9.825(3)
_cell_angle_alpha 90
_cell_angle_beta 98.476(4)
_cell_angle_gamma 90
_cell_formula_units_Z 2
loop_
_atom_type_symbol
_atom_type_radius_bond
C 0.68
H 0.23
loop_
_atom_site_label
_atom_site_type_symbol
_atom_site_fract_x
_atom_site_fract_y
_atom_site_fract_z
C1 C 0.18341(13) 0.04854(18) 0.49904(14)
C2 C -0.01077(14) 0.05545(18) 0.31095(14)
C3 C 0.04446(13) 0.02701(17) 0.45139(14)
C4 C -0.14946(14) 0.06735(18) 0.27415(14)
C5 C 0.23648(14) -0.01331(18) 0.63026(14)
C6 C 0.34376(16) -0.1337(2) 0.89638(17)
C7 C 0.37782(15) -0.0184(2) 0.67658(16)
C8 C 0.42901(17) -0.0781(2) 0.80302(17)
C9 C -0.20963(16) 0.1257(2) 0.13997(16)
C10 C 0.27463(17) 0.1507(3) 0.41963(19)
C11 C 0.07278(17) 0.0477(3) 0.19482(17)
H1 H 0.4374(15) 0.023(2) 0.6123(17)
H2 H 0.3259(17) 0.069(3) 0.366(2)
H3 H -0.1532(16) 0.163(2) 0.0774(18)
H4 H 0.1619(18) -0.023(3) 0.2213(18)
H5 H 0.525(2) -0.084(3) 0.827(2)
H6 H 0.0188(17) -0.028(2) 0.114(2)
H7 H 0.3796(16) -0.181(2) 0.9881(19)
H8 H 0.2243(15) 0.231(2) 0.3565(17)
H9 H 0.0977(18) 0.168(3) 0.155(2)
H10 H 0.3402(18) 0.225(3) 0.4869(19)
C1B C -0.18341(13) -0.04854(18) 0.50096(14)
C2B C 0.01077(14) -0.05545(18) 0.68905(14)
C3B C -0.04446(13) -0.02701(17) 0.54861(14)
C4B C 0.14946(14) -0.06735(18) 0.72585(14)
C5B C -0.23648(14) 0.01331(18) 0.36974(14)
C6B C -0.34376(16) 0.1337(2) 0.10362(17)
C7B C -0.37782(15) 0.0184(2) 0.32342(16)
C8B C -0.42901(17) 0.0781(2) 0.19698(17)
C9B C 0.20963(16) -0.1257(2) 0.86003(16)
C10B C -0.27463(17) -0.1507(3) 0.58037(19)
C11B C -0.07278(17) -0.0477(3) 0.80518(17)
H1B H -0.4374(15) -0.023(2) 0.3877(17)
H2B H -0.3259(17) -0.069(3) 0.634(2)
H3B H 0.1532(16) -0.163(2) 0.9226(18)
H4B H -0.1619(18) 0.023(3) 0.7787(18)
H5B H -0.525(2) 0.084(3) 0.173(2)
H6B H -0.0188(17) 0.028(2) 0.886(2)
H7B H -0.3796(16) 0.181(2) 0.0119(19)
H8B H -0.2243(15) -0.231(2) 0.6435(17)
H9B H -0.0977(18) -0.168(3) 0.845(2)
H10B H -0.3402(18) -0.225(3) 0.5131(19)
loop_
_geom_bond_atom_site_label_1
_geom_bond_atom_site_label_2
_geom_bond_distance
_geom_bond_site_symmetry_1
_geom_bond_site_symmetry_2
C1 C3 1.424 1_555 1_555
C2 C3 1.427 1_555 1_555
C3 C3B 1.463 1_555 1_555
C4 C2 1.399 1_555 1_555
C5 C1 1.402 1_555 1_555
C6 C8 1.412 1_555 1_555
C7 C5 1.436 1_555 1_555
C8 C7 1.351 1_555 1_555
C9 C4 1.437 1_555 1_555
C10 C1 1.506 1_555 1_555
C11 C2 1.518 1_555 1_555
H1 C7 0.986 1_555 1_555
H2 C10 1.004 1_555 1_555
H3 C9 0.942 1_555 1_555
H4 C11 1.047 1_555 1_555
H5 C8 0.966 1_555 1_555
H6 C11 1.062 1_555 1_555
H7 C6 0.987 1_555 1_555
H8 C10 0.958 1_555 1_555
H9 C11 1.035 1_555 1_555
H10 C10 1.031 1_555 1_555
C1B C3B 1.424 1_555 1_555
C2B C3B 1.427 1_555 1_555
C4B C5 1.438 1_555 1_555
C5B C4 1.438 1_555 1_555
C6B C9 1.353 1_555 1_555
C7B C5B 1.436 1_555 1_555
C8B C6B 1.412 1_555 1_555
C9B C6 1.353 1_555 1_555
C10B C1B 1.506 1_555 1_555
C11B C2B 1.518 1_555 1_555
H1B C7B 0.986 1_555 1_555
H2B C10B 1.004 1_555 1_555
H3B C9B 0.942 1_555 1_555
H4B C11B 1.047 1_555 1_555
H5B C8B 0.966 1_555 1_555
H6B C11B 1.062 1_555 1_555
H7B C6B 0.987 1_555 1_555
H8B C10B 0.958 1_555 1_555
H9B C11B 1.035 1_555 1_555
H10B C10B 1.031 1_555 1_555
C1B C5B 1.402 1_555 1_555
C2B C4B 1.399 1_555 1_555
C4B C9B 1.437 1_555 1_555
C7B C8B 1.351 1_555 1_555
#END
