
#######################################################################
#
#                 Cambridge Crystallographic Data Centre
#                                CCDC
#
#######################################################################
#
# If this CIF has been generated from an entry in the Cambridge
# Structural Database, then it will include bibliographic, chemical,
# crystal, experimental, refinement or atomic coordinate data resulting
# from the CCDC's data processing and validation procedures.
#
#######################################################################

data_CSD_CIF_NALQIB
_audit_creation_date 2005-07-19
_audit_creation_method CSD-ConQuest-V1
_database_code_CSD NALQIB
_database_code_depnum_ccdc_archive 'CCDC 265944'
_chemical_formula_sum 'C40 H28'
_chemical_formula_moiety
;
C40 H28
;
_journal_coden_Cambridge 1078
_journal_year 2005
_journal_name_full 'CSD Communication(Private Communication) '
loop_
_publ_author_name
"M.Kunze"
"R.Gompper"
"K.Polborn"
_chemical_name_systematic
;
7,8,9,10-Tetraphenyl-6b,10a-dihydrofluoranthene
;
_cell_volume   1398.579
_exptl_crystal_colour 'colorless'
_exptl_crystal_density_diffrn 1.208
_exptl_special_details
;
contribution from Department Chemie, Universitat Munchen, Butenandtstr. 5-13, 
81377 Munchen, Germany
;
_exptl_crystal_description 'prism'
_diffrn_ambient_temperature 295
#These two values have been output from a single CSD field.
_refine_ls_R_factor_gt 0.0381
_refine_ls_wR_factor_gt 0.0381
_symmetry_cell_setting triclinic
_symmetry_space_group_name_H-M 'P -1'
_symmetry_Int_Tables_number 2
loop_
_symmetry_equiv_pos_site_id
_symmetry_equiv_pos_as_xyz
1 x,y,z
2 -x,-y,-z
_cell_length_a 7.016(4)
_cell_length_b 11.646(3)
_cell_length_c 17.941(5)
_cell_angle_alpha 98.75(2)
_cell_angle_beta 94.54(4)
_cell_angle_gamma 103.53(3)
_cell_formula_units_Z 2
loop_
_atom_type_symbol
_atom_type_radius_bond
C 0.68
H 0.23
loop_
_atom_site_label
_atom_site_type_symbol
_atom_site_fract_x
_atom_site_fract_y
_atom_site_fract_z
C1 C 0.2996(2) 0.01582(13) 0.68533(9)
H1 H 0.17180 0.01410 0.65820
C2 C 0.4678(2) 0.07606(14) 0.64056(9)
H2 H 0.40470 0.09350 0.59430
C3 C 0.6066(2) 0.19223(14) 0.68262(9)
C4 C 0.5945(2) 0.23673(13) 0.75516(9)
C5 C 0.4484(2) 0.17344(13) 0.80000(9)
C6 C 0.3076(2) 0.07479(13) 0.76756(9)
C7 C 0.3191(2) -0.11309(14) 0.68056(9)
C8 C 0.2114(3) -0.21064(16) 0.70528(11)
H3 H 0.09980 -0.20600 0.72920
C9 C 0.2722(4) -0.31873(17) 0.69395(12)
H4 H 0.19940 -0.38490 0.71130
C10 C 0.4325(4) -0.32977(18) 0.65879(12)
H5 H 0.46800 -0.40240 0.65280
C11 C 0.5463(3) -0.23165(17) 0.63105(11)
C12 C 0.7128(3) -0.2288(2) 0.59138(13)
H6 H 0.76340 -0.29610 0.58340
C13 C 0.7998(3) -0.1285(2) 0.56477(13)
H7 H 0.90800 -0.12940 0.53810
C14 C 0.7319(3) -0.02315(18) 0.57613(11)
H8 H 0.79270 0.04370 0.55650
C15 C 0.5747(2) -0.02097(15) 0.61671(9)
C16 C 0.4826(2) -0.12499(15) 0.64281(9)
C17 C 0.7589(3) 0.25303(14) 0.63876(9)
C18 C 0.7094(3) 0.28438(18) 0.56982(11)
H9 H 0.57740 0.26720 0.54980
C19 C 0.8542(5) 0.3411(2) 0.53028(13)
H10 H 0.81890 0.36230 0.48420
C20 C 1.0485(4) 0.3660(2) 0.55853(15)
H11 H 1.14500 0.40560 0.53220
C21 C 1.1015(3) 0.33313(19) 0.62532(14)
H12 H 1.23420 0.34870 0.64400
C22 C 0.9580(3) 0.27670(16) 0.66525(11)
H13 H 0.99540 0.25410 0.71070
C23 C 0.7153(2) 0.36029(14) 0.79045(9)
C24 C 0.6706(3) 0.45814(15) 0.76552(11)
H14 H 0.56500 0.44630 0.72800
C25 C 0.7792(3) 0.57334(17) 0.79503(13)
H15 H 0.74630 0.63820 0.77750
C26 C 0.9340(3) 0.59202(17) 0.84959(12)
H16 H 1.00870 0.66960 0.86880
C27 C 0.9799(3) 0.49664(17) 0.87632(12)
H17 H 1.08490 0.50950 0.91420
C28 C 0.8709(2) 0.38151(16) 0.84714(10)
H18 H 0.90240 0.31720 0.86590
C29 C 0.4559(2) 0.22675(13) 0.88166(9)
C30 C 0.5804(3) 0.20115(16) 0.93721(10)
H19 H 0.65990 0.14960 0.92350
C31 C 0.5884(3) 0.25080(18) 1.01242(10)
H20 H 0.67240 0.23230 1.04900
C32 C 0.4737(3) 0.32691(18) 1.03365(11)
H21 H 0.47980 0.36080 1.08450
C33 C 0.3498(4) 0.3531(2) 0.97979(13)
H22 H 0.27030 0.40430 0.99410
C34 C 0.3418(3) 0.30392(16) 0.90431(11)
H23 H 0.25790 0.32330 0.86810
C35 C 0.1460(2) 0.01765(13) 0.80936(9)
C36 C 0.1830(3) -0.02686(14) 0.87513(10)
H24 H 0.31250 -0.02250 0.89380
C37 C 0.0306(3) -0.07743(16) 0.91306(10)
H25 H 0.05790 -0.10620 0.95720
C38 C -0.1620(3) -0.08553(17) 0.88590(12)
H26 H -0.26470 -0.11920 0.91180
C39 C -0.2017(3) -0.04375(17) 0.82047(12)
H27 H -0.33160 -0.04950 0.80170
C40 C -0.0494(2) 0.00685(15) 0.78234(10)
H28 H -0.07820 0.03420 0.73770
loop_
_geom_bond_atom_site_label_1
_geom_bond_atom_site_label_2
_geom_bond_distance
_geom_bond_site_symmetry_1
_geom_bond_site_symmetry_2
C1 H1 0.980 1_555 1_555
C2 C1 1.570 1_555 1_555
H2 C2 0.980 1_555 1_555
C3 C2 1.518 1_555 1_555
C4 C3 1.343 1_555 1_555
C5 C4 1.483 1_555 1_555
C6 C1 1.520 1_555 1_555
C7 C1 1.529 1_555 1_555
C8 C7 1.365 1_555 1_555
H3 C8 0.931 1_555 1_555
C9 C8 1.412 1_555 1_555
H4 C9 0.930 1_555 1_555
C10 C9 1.354 1_555 1_555
H5 C10 0.930 1_555 1_555
C11 C10 1.414 1_555 1_555
C12 C11 1.412 1_555 1_555
H6 C12 0.930 1_555 1_555
C13 C12 1.359 1_555 1_555
H7 C13 0.930 1_555 1_555
C14 C13 1.409 1_555 1_555
H8 C14 0.929 1_555 1_555
C15 C2 1.524 1_555 1_555
C16 C7 1.401 1_555 1_555
C17 C3 1.487 1_555 1_555
C18 C17 1.383 1_555 1_555
H9 C18 0.930 1_555 1_555
C19 C18 1.384 1_555 1_555
H10 C19 0.930 1_555 1_555
C20 C19 1.364 1_555 1_555
H11 C20 0.930 1_555 1_555
C21 C20 1.362 1_555 1_555
H12 C21 0.930 1_555 1_555
C22 C17 1.389 1_555 1_555
H13 C22 0.931 1_555 1_555
C23 C4 1.502 1_555 1_555
C24 C23 1.377 1_555 1_555
H14 C24 0.931 1_555 1_555
C25 C24 1.379 1_555 1_555
H15 C25 0.930 1_555 1_555
C26 C25 1.357 1_555 1_555
H16 C26 0.930 1_555 1_555
C27 C26 1.368 1_555 1_555
H17 C27 0.930 1_555 1_555
C28 C23 1.382 1_555 1_555
H18 C28 0.930 1_555 1_555
C29 C5 1.493 1_555 1_555
C30 C29 1.385 1_555 1_555
H19 C30 0.930 1_555 1_555
C31 C30 1.376 1_555 1_555
H20 C31 0.930 1_555 1_555
C32 C31 1.363 1_555 1_555
H21 C32 0.931 1_555 1_555
C33 C32 1.365 1_555 1_555
H22 C33 0.930 1_555 1_555
C34 C29 1.375 1_555 1_555
H23 C34 0.930 1_555 1_555
C35 C6 1.491 1_555 1_555
C36 C35 1.389 1_555 1_555
H24 C36 0.930 1_555 1_555
C37 C36 1.377 1_555 1_555
H25 C37 0.929 1_555 1_555
C38 C37 1.376 1_555 1_555
H26 C38 0.930 1_555 1_555
C39 C38 1.370 1_555 1_555
H27 C39 0.930 1_555 1_555
C40 C35 1.388 1_555 1_555
H28 C40 0.930 1_555 1_555
C5 C6 1.345 1_555 1_555
C11 C16 1.408 1_555 1_555
C14 C15 1.372 1_555 1_555
C15 C16 1.399 1_555 1_555
C21 C22 1.381 1_555 1_555
C27 C28 1.378 1_555 1_555
C33 C34 1.379 1_555 1_555
C39 C40 1.379 1_555 1_555
#END
