
#######################################################################
#
#                 Cambridge Crystallographic Data Centre
#                                CCDC
#
#######################################################################
#
# If this CIF has been generated from an entry in the Cambridge
# Structural Database, then it will include bibliographic, chemical,
# crystal, experimental, refinement or atomic coordinate data resulting
# from the CCDC's data processing and validation procedures.
#
#######################################################################

data_CSD_CIF_NAMQUP
_audit_creation_date 2012-03-30
_audit_creation_method CSD-ConQuest-V1
_database_code_CSD NAMQUP
_database_code_depnum_ccdc_archive 'CCDC 792542'
_chemical_formula_sum 'C39 H38'
_chemical_formula_moiety
;
C39 H38
;
_journal_coden_Cambridge 16
_journal_volume 68
_journal_year 2012
_journal_page_first 1688
_journal_name_full 'Tetrahedron '
loop_
_publ_author_name
"C.Kitamura"
"Y.Tanigawa"
"T.Kobayashi"
"H.Naito"
"H.Kurata"
"T.Kawase"
_chemical_name_systematic
;
17,17-Dipentyl-17H-dibenzo[4,5:6,7]indeno[1,2-l]phenanthrene
;
_cell_volume   5721.507
_exptl_crystal_colour 'colorless'
_exptl_crystal_density_diffrn 1.176
_exptl_crystal_description 'prism'
_diffrn_ambient_temperature 173
#These two values have been output from a single CSD field.
_refine_ls_R_factor_gt 0.0762
_refine_ls_wR_factor_gt 0.0762
_symmetry_cell_setting monoclinic
_symmetry_space_group_name_H-M 'C 2/c'
_symmetry_Int_Tables_number 15
loop_
_symmetry_equiv_pos_site_id
_symmetry_equiv_pos_as_xyz
1 x,y,z
2 -x,y,1/2-z
3 1/2+x,1/2+y,z
4 1/2-x,1/2+y,1/2-z
5 -x,-y,-z
6 x,-y,-1/2+z
7 -1/2-x,-1/2-y,-z
8 -1/2+x,-1/2-y,-1/2+z
_cell_length_a 28.047(3)
_cell_length_b 11.6739(11)
_cell_length_c 17.4859(17)
_cell_angle_alpha 90
_cell_angle_beta 92.057(3)
_cell_angle_gamma 90
_cell_formula_units_Z 8
loop_
_atom_type_symbol
_atom_type_radius_bond
C 0.68
H 0.23
loop_
_atom_site_label
_atom_site_type_symbol
_atom_site_fract_x
_atom_site_fract_y
_atom_site_fract_z
C1 C 0.09946(6) 0.64876(17) 0.69304(10)
C2 C 0.14328(6) 0.70348(16) 0.73173(9)
C3 C 0.14514(6) 0.78204(16) 0.79512(10)
C4 C 0.10412(7) 0.83733(17) 0.82200(11)
H1 H 0.07390 0.82180 0.79800
C5 C 0.10708(8) 0.91332(18) 0.88244(11)
H2 H 0.07930 0.95160 0.89860
C6 C 0.15098(8) 0.93364(18) 0.91958(12)
H3 H 0.15290 0.98410 0.96220
C7 C 0.19150(7) 0.88112(17) 0.89497(11)
H4 H 0.22110 0.89490 0.92160
C8 C 0.19029(7) 0.80715(15) 0.83109(10)
C9 C 0.23320(7) 0.75244(16) 0.80395(10)
C10 C 0.27825(7) 0.76565(19) 0.84196(12)
H5 H 0.28140 0.81810 0.88340
C11 C 0.31731(7) 0.7053(2) 0.82095(12)
H6 H 0.34720 0.71720 0.84690
C12 C 0.31322(7) 0.6258(2) 0.76116(11)
H7 H 0.34000 0.58070 0.74820
C13 C 0.27048(7) 0.61299(17) 0.72129(10)
H8 H 0.26800 0.55910 0.68070
C14 C 0.23007(6) 0.67859(15) 0.73958(10)
C15 C 0.18426(6) 0.66429(15) 0.70005(10)
C16 C 0.17073(6) 0.59694(16) 0.63111(10)
C17 C 0.19786(6) 0.56480(16) 0.56539(9)
C18 C 0.24100(7) 0.61911(16) 0.54733(10)
H9 H 0.25470 0.67410 0.58160
C19 C 0.26353(7) 0.59347(17) 0.48064(10)
H10 H 0.29190 0.63280 0.46840
C20 C 0.24464(7) 0.50962(19) 0.43102(11)
H11 H 0.26100 0.48910 0.38650
C21 C 0.20223(7) 0.45702(18) 0.44698(10)
H12 H 0.18970 0.40020 0.41290
C22 C 0.17688(7) 0.48539(16) 0.51269(10)
C23 C 0.12872(7) 0.44317(17) 0.52357(10)
C24 C 0.10869(7) 0.35461(19) 0.47843(11)
H13 H 0.12790 0.31610 0.44290
C25 C 0.06196(8) 0.3226(2) 0.48459(13)
H14 H 0.04930 0.26180 0.45400
C26 C 0.03297(8) 0.3794(2) 0.53578(13)
H15 H 0.00030 0.35910 0.53870
C27 C 0.05171(7) 0.4641(2) 0.58162(12)
H16 H 0.03170 0.50160 0.61650
C28 C 0.09996(7) 0.49741(17) 0.5785(1)
C29 C 0.12255(6) 0.57715(17) 0.63124(10)
C30 C 0.06448(7) 0.73609(18) 0.65423(11)
H17 H 0.04320 0.69450 0.61730
H18 H 0.04430 0.76940 0.69390
C31 C 0.08876(10) 0.8338(3) 0.61207(16)
H19 H 0.10870 0.87820 0.64940
H20 H 0.11020 0.80060 0.57420
C32 C 0.05422(13) 0.9146(3) 0.57119(19)
H21 H 0.07280 0.96370 0.53700
H22 H 0.03240 0.86790 0.53810
C33 C 0.02583(13) 0.9874(4) 0.6158(2)
H23 H 0.00870 0.93880 0.65220
H24 H 0.00140 1.02320 0.58120
C34 C 0.05104(17) 1.0838(5) 0.6620(3)
H25 H 0.02740 1.12670 0.69050
H26 H 0.06700 1.13560 0.62700
H27 H 0.07470 1.05030 0.69800
C35 C 0.07348(7) 0.57443(17) 0.75268(11)
H28 H 0.06800 0.62240 0.79820
H29 H 0.04180 0.55270 0.73040
C36 C 0.09925(7) 0.46549(19) 0.77907(11)
H30 H 0.10560 0.41740 0.73400
H31 H 0.13030 0.48620 0.80400
C37 C 0.07016(9) 0.3969(2) 0.83495(14)
H32 H 0.06860 0.44100 0.88310
H33 H 0.03720 0.38970 0.81330
C38 C 0.08874(11) 0.2774(2) 0.85414(16)
H34 H 0.06460 0.23660 0.88380
H35 H 0.09270 0.23470 0.80590
C39 C 0.13453(13) 0.2764(3) 0.89832(18)
H36 H 0.14430 0.19700 0.90810
H37 H 0.13080 0.31610 0.94710
H38 H 0.15890 0.31530 0.86910
loop_
_geom_bond_atom_site_label_1
_geom_bond_atom_site_label_2
_geom_bond_distance
_geom_bond_site_symmetry_1
_geom_bond_site_symmetry_2
C1 C2 1.522 1_555 1_555
C2 C3 1.438 1_555 1_555
C3 C4 1.414 1_555 1_555
C4 H1 0.950 1_555 1_555
C5 C4 1.380 1_555 1_555
H2 C5 0.950 1_555 1_555
C6 C5 1.392 1_555 1_555
H3 C6 0.950 1_555 1_555
C7 C6 1.374 1_555 1_555
H4 C7 0.951 1_555 1_555
C8 C3 1.424 1_555 1_555
C9 C8 1.457 1_555 1_555
C10 C9 1.415 1_555 1_555
H5 C10 0.950 1_555 1_555
C11 C10 1.364 1_555 1_555
H6 C11 0.949 1_555 1_555
C12 C11 1.400 1_555 1_555
H7 C12 0.951 1_555 1_555
C13 C12 1.373 1_555 1_555
H8 C13 0.949 1_555 1_555
C14 C9 1.418 1_555 1_555
C15 C2 1.372 1_555 1_555
C16 C15 1.477 1_555 1_555
C17 C16 1.450 1_555 1_555
C18 C17 1.412 1_555 1_555
H9 C18 0.950 1_555 1_555
C19 C18 1.379 1_555 1_555
H10 C19 0.950 1_555 1_555
C20 C19 1.400 1_555 1_555
H11 C20 0.948 1_555 1_555
C21 C20 1.376 1_555 1_555
H12 C21 0.951 1_555 1_555
C22 C17 1.420 1_555 1_555
C23 C22 1.457 1_555 1_555
C24 C23 1.406 1_555 1_555
H13 C24 0.950 1_555 1_555
C25 C24 1.371 1_555 1_555
H14 C25 0.950 1_555 1_555
C26 C25 1.398 1_555 1_555
H15 C26 0.950 1_555 1_555
C27 C26 1.366 1_555 1_555
H16 C27 0.950 1_555 1_555
C28 C23 1.425 1_555 1_555
C29 C1 1.528 1_555 1_555
C30 C1 1.554 1_555 1_555
H17 C30 0.991 1_555 1_555
H18 C30 0.990 1_555 1_555
C31 C30 1.531 1_555 1_555
H19 C31 0.991 1_555 1_555
H20 C31 0.989 1_555 1_555
C32 C31 1.513 1_555 1_555
H21 C32 0.990 1_555 1_555
H22 C32 0.991 1_555 1_555
C33 C32 1.418 1_555 1_555
H23 C33 0.990 1_555 1_555
H24 C33 0.990 1_555 1_555
C34 C33 1.542 1_555 1_555
H25 C34 0.981 1_555 1_555
H26 C34 0.980 1_555 1_555
H27 C34 0.980 1_555 1_555
C35 C1 1.558 1_555 1_555
H28 C35 0.990 1_555 1_555
H29 C35 0.990 1_555 1_555
C36 C35 1.526 1_555 1_555
H30 C36 0.989 1_555 1_555
H31 C36 0.990 1_555 1_555
C37 C36 1.523 1_555 1_555
H32 C37 0.989 1_555 1_555
H33 C37 0.990 1_555 1_555
C38 C37 1.522 1_555 1_555
H34 C38 0.990 1_555 1_555
H35 C38 0.989 1_555 1_555
C39 C38 1.475 1_555 1_555
H36 C39 0.980 1_555 1_555
H37 C39 0.980 1_555 1_555
H38 C39 0.980 1_555 1_555
C7 C8 1.411 1_555 1_555
C13 C14 1.414 1_555 1_555
C14 C15 1.447 1_555 1_555
C16 C29 1.371 1_555 1_555
C21 C22 1.412 1_555 1_555
C27 C28 1.411 1_555 1_555
C28 C29 1.441 1_555 1_555
#END
