
#######################################################################
#
#                 Cambridge Crystallographic Data Centre
#                                CCDC
#
#######################################################################
#
# If this CIF has been generated from an entry in the Cambridge
# Structural Database, then it will include bibliographic, chemical,
# crystal, experimental, refinement or atomic coordinate data resulting
# from the CCDC's data processing and validation procedures.
#
#######################################################################

data_CSD_CIF_NAMQAV
_audit_creation_date 2012-03-30
_audit_creation_method CSD-ConQuest-V1
_database_code_CSD NAMQAV
_database_code_depnum_ccdc_archive 'CCDC 792538'
_chemical_formula_sum 'C37 H34'
_chemical_formula_moiety
;
C37 H34
;
_journal_coden_Cambridge 16
_journal_volume 68
_journal_year 2012
_journal_page_first 1688
_journal_name_full 'Tetrahedron '
loop_
_publ_author_name
"C.Kitamura"
"Y.Tanigawa"
"T.Kobayashi"
"H.Naito"
"H.Kurata"
"T.Kawase"
_chemical_name_systematic
;
17,17-Dibutyl-17H-dibenzo[4,5:6,7]indeno[1,2-l]phenanthrene
;
_cell_volume   5294.082
_exptl_crystal_colour 'colorless'
_exptl_crystal_density_diffrn 1.201
_exptl_crystal_description 'prism'
_diffrn_ambient_temperature 223
#These two values have been output from a single CSD field.
_refine_ls_R_factor_gt 0.0574
_refine_ls_wR_factor_gt 0.0574
_symmetry_cell_setting orthorhombic
_symmetry_space_group_name_H-M 'P n a 21'
_symmetry_Int_Tables_number 33
loop_
_symmetry_equiv_pos_site_id
_symmetry_equiv_pos_as_xyz
1 x,y,z
2 -x,-y,1/2+z
3 1/2-x,1/2+y,1/2+z
4 1/2+x,1/2-y,z
_cell_length_a 16.242(3)
_cell_length_b 9.9743(16)
_cell_length_c 32.679(5)
_cell_angle_alpha 90
_cell_angle_beta 90
_cell_angle_gamma 90
_cell_formula_units_Z 8
loop_
_atom_type_symbol
_atom_type_radius_bond
C 0.68
H 0.23
loop_
_atom_site_label
_atom_site_type_symbol
_atom_site_fract_x
_atom_site_fract_y
_atom_site_fract_z
C1 C -0.72588(13) 0.2251(2) 0.34765(7)
C2 C -0.74703(13) 0.16018(18) 0.38877(7)
C3 C -0.80197(12) 0.2083(2) 0.42037(7)
C4 C -0.84034(15) 0.3363(2) 0.41969(8)
H1 H -0.83420 0.39110 0.39650
C5 C -0.88564(15) 0.3810(2) 0.45174(9)
H2 H -0.91060 0.46600 0.45040
C6 C -0.89560(15) 0.3021(2) 0.48664(8)
H3 H -0.92590 0.33450 0.50910
C7 C -0.86090(14) 0.1768(2) 0.48795(8)
H4 H -0.86740 0.12430 0.51160
C8 C -0.81573(13) 0.12485(19) 0.45480(7)
C9 C -0.78641(12) -0.01268(19) 0.45427(7)
C10 C -0.81692(14) -0.1101(2) 0.48221(8)
H5 H -0.85180 -0.08280 0.50360
C11 C -0.79659(15) -0.2421(2) 0.47865(9)
H6 H -0.81700 -0.30420 0.49780
C12 C -0.74609(15) -0.2860(2) 0.44714(8)
H7 H -0.73400 -0.37780 0.44450
C13 C -0.71359(14) -0.19520(19) 0.41974(8)
H8 H -0.67890 -0.22540 0.39860
C14 C -0.73201(12) -0.05653(18) 0.42314(7)
C15 C -0.70567(12) 0.04066(17) 0.39308(7)
C16 C -0.64524(13) 0.03023(18) 0.35975(6)
C17 C -0.56925(12) -0.04606(18) 0.35803(7)
C18 C -0.53498(14) -0.11004(19) 0.39251(8)
H9 H -0.56410 -0.10990 0.41740
C19 C -0.45985(15) -0.1724(2) 0.39039(9)
H10 H -0.43750 -0.21330 0.41380
C20 C -0.41660(16) -0.1755(2) 0.35371(10)
H11 H -0.36640 -0.22200 0.35210
C21 C -0.44677(15) -0.1111(2) 0.31991(9)
H12 H -0.41660 -0.11340 0.29540
C22 C -0.52249(14) -0.04126(19) 0.32123(7)
C23 C -0.54996(13) 0.04239(19) 0.28723(7)
C24 C -0.51027(16) 0.0414(2) 0.24892(7)
H13 H -0.46770 -0.02070 0.24420
C25 C -0.53182(17) 0.1281(2) 0.21831(8)
H14 H -0.50490 0.12430 0.19290
C26 C -0.59369(16) 0.2218(3) 0.22493(8)
H15 H -0.60730 0.28340 0.20420
C27 C -0.63492(14) 0.2247(2) 0.26152(7)
H16 H -0.67670 0.28860 0.26550
C28 C -0.61626(13) 0.1342(2) 0.29335(7)
C29 C -0.66195(13) 0.12683(18) 0.33091(7)
C30 C -0.80503(14) 0.2355(2) 0.32135(8)
H17 H -0.84400 0.29490 0.33540
H18 H -0.79080 0.27760 0.29520
C31 C -0.84800(15) 0.1032(2) 0.31262(8)
H19 H -0.81150 0.04630 0.29620
H20 H -0.85860 0.05690 0.33850
C32 C -0.92842(15) 0.1214(3) 0.29008(9)
H21 H -0.91700 0.16190 0.26340
H22 H -0.96280 0.18430 0.30550
C33 C -0.97645(19) -0.0068(3) 0.28353(10)
H23 H -1.02710 0.01310 0.26900
H24 H -0.98940 -0.04680 0.30980
H25 H -0.94370 -0.06900 0.26750
C34 C -0.68318(14) 0.3637(2) 0.35284(7)
H26 H -0.66970 0.39920 0.32570
H27 H -0.72210 0.42590 0.36570
C35 C -0.60523(15) 0.3595(2) 0.37837(8)
H28 H -0.61570 0.30490 0.40280
H29 H -0.56210 0.31470 0.36250
C36 C -0.57362(15) 0.4940(2) 0.39181(8)
H30 H -0.61270 0.53370 0.41120
H31 H -0.57000 0.55350 0.36800
C37 C -0.48984(16) 0.4842(2) 0.41184(9)
H32 H -0.47560 0.57000 0.42390
H33 H -0.44900 0.46030 0.39140
H34 H -0.49120 0.41610 0.43300
C38 C -0.53375(13) -0.2811(2) 0.14310(7)
C39 C -0.59798(12) -0.37900(19) 0.16031(6)
C40 C -0.64353(13) -0.36881(19) 0.19805(7)
C41 C -0.62430(14) -0.2766(2) 0.22942(7)
H35 H -0.58190 -0.21400 0.22510
C42 C -0.66573(15) -0.2759(3) 0.26594(8)
H36 H -0.65150 -0.21370 0.28640
C43 C -0.72890(16) -0.3675(2) 0.27275(8)
H37 H -0.75640 -0.36880 0.29800
C44 C -0.75090(15) -0.4558(2) 0.24255(8)
H38 H -0.79420 -0.51630 0.24740
C45 C -0.71027(13) -0.45831(19) 0.20446(7)
C46 C -0.73761(13) -0.54421(19) 0.17098(7)
C47 C -0.81316(16) -0.6131(2) 0.17251(9)
H39 H -0.84350 -0.61280 0.19700
C48 C -0.84365(16) -0.6805(2) 0.13933(9)
H40 H -0.89420 -0.72590 0.14130
C49 C -0.79973(14) -0.6819(2) 0.10263(9)
H41 H -0.82170 -0.72460 0.07940
C50 C -0.72443(14) -0.62064(19) 0.10068(8)
H42 H -0.69460 -0.62350 0.07600
C51 C -0.69035(13) -0.55340(17) 0.13461(7)
C52 C -0.61434(12) -0.47779(18) 0.13230(6)
C53 C -0.55388(13) -0.46824(18) 0.09901(6)
C54 C -0.52640(12) -0.56697(19) 0.06926(6)
C55 C -0.54380(14) -0.7046(2) 0.07317(7)
H43 H -0.57780 -0.73430 0.09460
C56 C -0.51178(16) -0.7961(2) 0.04604(8)
H44 H -0.52390 -0.88770 0.04910
C57 C -0.46174(16) -0.7543(2) 0.01414(9)
H45 H -0.44150 -0.81690 -0.00490
C58 C -0.44183(15) -0.6212(2) 0.01040(7)
H46 H -0.40710 -0.59380 -0.01100
C59 C -0.47228(13) -0.5249(2) 0.03796(7)
C60 C -0.44479(13) -0.38540(19) 0.03639(7)
C61 C -0.40180(15) -0.3331(2) 0.00258(8)
H47 H -0.39430 -0.38740 -0.02060
C62 C -0.37066(15) -0.2060(2) 0.00243(9)
H48 H -0.34330 -0.17310 -0.02080
C63 C -0.37964(16) -0.1255(2) 0.03676(9)
H49 H -0.35650 -0.03910 0.03710
C64 C -0.42233(15) -0.1717(2) 0.07040(8)
H50 H -0.42720 -0.11680 0.09370
C65 C -0.45902(13) -0.30060(19) 0.07047(7)
C66 C -0.51317(13) -0.34789(18) 0.10221(7)
C67 C -0.57696(14) -0.1432(2) 0.13705(8)
H51 H -0.59460 -0.10960 0.16380
H52 H -0.53680 -0.07950 0.12600
C68 C -0.65105(15) -0.1473(2) 0.10887(8)
H53 H -0.63720 -0.20210 0.08500
H54 H -0.69630 -0.19200 0.12320
C69 C -0.68085(17) -0.0137(2) 0.09419(9)
H55 H -0.69540 0.04120 0.11800
H56 H -0.63580 0.03160 0.07980
C70 C -0.7535(2) -0.0214(3) 0.06631(11)
H57 H -0.76320 0.06580 0.05410
H58 H -0.80170 -0.04860 0.08180
H59 H -0.74280 -0.08650 0.04490
C71 C -0.45398(13) -0.2688(2) 0.16880(8)
H60 H -0.41760 -0.20380 0.15540
H61 H -0.46840 -0.23240 0.19570
C72 C -0.40676(15) -0.3975(2) 0.17502(8)
H62 H -0.39420 -0.43660 0.14820
H63 H -0.44170 -0.46120 0.18990
C73 C -0.32705(16) -0.3787(2) 0.19848(10)
H64 H -0.29280 -0.31340 0.18390
H65 H -0.33990 -0.34110 0.22540
C74 C -0.27793(18) -0.5059(3) 0.20432(11)
H66 H -0.22760 -0.48570 0.21910
H67 H -0.26440 -0.54370 0.17780
H68 H -0.31020 -0.56990 0.21990
loop_
_geom_bond_atom_site_label_1
_geom_bond_atom_site_label_2
_geom_bond_distance
_geom_bond_site_symmetry_1
_geom_bond_site_symmetry_2
C1 C2 1.531 1_555 1_555
C2 C3 1.447 1_555 1_555
C3 C4 1.421 1_555 1_555
C4 H1 0.940 1_555 1_555
C5 C4 1.355 1_555 1_555
H2 C5 0.941 1_555 1_555
C6 C5 1.395 1_555 1_555
H3 C6 0.941 1_555 1_555
C7 C6 1.372 1_555 1_555
H4 C7 0.940 1_555 1_555
C8 C3 1.417 1_555 1_555
C9 C8 1.452 1_555 1_555
C10 C9 1.422 1_555 1_555
H5 C10 0.940 1_555 1_555
C11 C10 1.362 1_555 1_555
H6 C11 0.941 1_555 1_555
C12 C11 1.387 1_555 1_555
H7 C12 0.940 1_555 1_555
C13 C12 1.379 1_555 1_555
H8 C13 0.941 1_555 1_555
C14 C9 1.417 1_555 1_555
C15 C2 1.376 1_555 1_555
C16 C15 1.470 1_555 1_555
C17 C16 1.451 1_555 1_555
C18 C17 1.409 1_555 1_555
H9 C18 0.941 1_555 1_555
C19 C18 1.371 1_555 1_555
H10 C19 0.940 1_555 1_555
C20 C19 1.390 1_555 1_555
H11 C20 0.940 1_555 1_555
C21 C20 1.368 1_555 1_555
H12 C21 0.939 1_555 1_555
C22 C17 1.423 1_555 1_555
C23 C22 1.459 1_555 1_555
C24 C23 1.408 1_555 1_555
H13 C24 0.941 1_555 1_555
C25 C24 1.368 1_555 1_555
H14 C25 0.939 1_555 1_555
C26 C25 1.389 1_555 1_555
H15 C26 0.941 1_555 1_555
C27 C26 1.371 1_555 1_555
H16 C27 0.940 1_555 1_555
C28 C23 1.428 1_555 1_555
C29 C1 1.529 1_555 1_555
C30 C1 1.550 1_555 1_555
H17 C30 0.981 1_555 1_555
H18 C30 0.980 1_555 1_555
C31 C30 1.520 1_555 1_555
H19 C31 0.981 1_555 1_555
H20 C31 0.979 1_555 1_555
C32 C31 1.511 1_555 1_555
H21 C32 0.979 1_555 1_555
H22 C32 0.979 1_555 1_555
C33 C32 1.513 1_555 1_555
H23 C33 0.970 1_555 1_555
H24 C33 0.970 1_555 1_555
H25 C33 0.971 1_555 1_555
C34 C1 1.556 1_555 1_555
H26 C34 0.980 1_555 1_555
H27 C34 0.980 1_555 1_555
C35 C34 1.517 1_555 1_555
H28 C35 0.981 1_555 1_555
H29 C35 0.979 1_555 1_555
C36 C35 1.502 1_555 1_555
H30 C36 0.980 1_555 1_555
H31 C36 0.980 1_555 1_555
C37 C36 1.513 1_555 1_555
H32 C37 0.970 1_555 1_555
H33 C37 0.971 1_555 1_555
H34 C37 0.970 1_555 1_555
C38 C39 1.536 1_555 1_555
C39 C40 1.442 1_555 1_555
C40 C41 1.412 1_555 1_555
C41 H35 0.940 1_555 1_555
C42 C41 1.370 1_555 1_555
H36 C42 0.941 1_555 1_555
C43 C42 1.392 1_555 1_555
H37 C43 0.938 1_555 1_555
C44 C43 1.370 1_555 1_555
H38 C44 0.940 1_555 1_555
C45 C40 1.420 1_555 1_555
C46 C45 1.459 1_555 1_555
C47 C46 1.407 1_555 1_555
H39 C47 0.940 1_555 1_555
C48 C47 1.369 1_555 1_555
H40 C48 0.940 1_555 1_555
C49 C48 1.396 1_555 1_555
H41 C49 0.941 1_555 1_555
C50 C49 1.369 1_555 1_555
H42 C50 0.941 1_555 1_555
C51 C46 1.418 1_555 1_555
C52 C39 1.371 1_555 1_555
C53 C52 1.469 1_555 1_555
C54 C53 1.454 1_555 1_555
C55 C54 1.407 1_555 1_555
H43 C55 0.940 1_555 1_555
C56 C55 1.375 1_555 1_555
H44 C56 0.940 1_555 1_555
C57 C56 1.386 1_555 1_555
H45 C57 0.941 1_555 1_555
C58 C57 1.372 1_555 1_555
H46 C58 0.939 1_555 1_555
C59 C54 1.412 1_555 1_555
C60 C59 1.462 1_555 1_555
C61 C60 1.407 1_555 1_555
H47 C61 0.939 1_555 1_555
C62 C61 1.365 1_555 1_555
H48 C62 0.939 1_555 1_555
C63 C62 1.387 1_555 1_555
H49 C63 0.940 1_555 1_555
C64 C63 1.379 1_555 1_555
H50 C64 0.941 1_555 1_555
C65 C60 1.417 1_555 1_555
C66 C38 1.530 1_555 1_555
C67 C38 1.557 1_555 1_555
H51 C67 0.979 1_555 1_555
H52 C67 0.980 1_555 1_555
C68 C67 1.516 1_555 1_555
H53 C68 0.979 1_555 1_555
H54 C68 0.979 1_555 1_555
C69 C68 1.497 1_555 1_555
H55 C69 0.980 1_555 1_555
H56 C69 0.980 1_555 1_555
C70 C69 1.493 1_555 1_555
H57 C70 0.970 1_555 1_555
H58 C70 0.971 1_555 1_555
H59 C70 0.970 1_555 1_555
C71 C38 1.549 1_555 1_555
H60 C71 0.980 1_555 1_555
H61 C71 0.980 1_555 1_555
C72 C71 1.509 1_555 1_555
H62 C72 0.981 1_555 1_555
H63 C72 0.981 1_555 1_555
C73 C72 1.516 1_555 1_555
H64 C73 0.980 1_555 1_555
H65 C73 0.979 1_555 1_555
C74 C73 1.511 1_555 1_555
H66 C74 0.971 1_555 1_555
H67 C74 0.970 1_555 1_555
H68 C74 0.970 1_555 1_555
C7 C8 1.407 1_555 1_555
C13 C14 1.419 1_555 1_555
C14 C15 1.445 1_555 1_555
C16 C29 1.375 1_555 1_555
C21 C22 1.414 1_555 1_555
C27 C28 1.410 1_555 1_555
C28 C29 1.436 1_555 1_555
C44 C45 1.409 1_555 1_555
C50 C51 1.409 1_555 1_555
C51 C52 1.449 1_555 1_555
C53 C66 1.374 1_555 1_555
C58 C59 1.407 1_555 1_555
C64 C65 1.417 1_555 1_555
C65 C66 1.439 1_555 1_555
#END
