
#######################################################################
#
#                 Cambridge Crystallographic Data Centre
#                                CCDC
#
#######################################################################
#
# If this CIF has been generated from an entry in the Cambridge
# Structural Database, then it will include bibliographic, chemical,
# crystal, experimental, refinement or atomic coordinate data resulting
# from the CCDC's data processing and validation procedures.
#
#######################################################################

data_CSD_CIF_NAMRAW
_audit_creation_date 2012-03-30
_audit_creation_method CSD-ConQuest-V1
_database_code_CSD NAMRAW
_database_code_depnum_ccdc_archive 'CCDC 792543'
_chemical_formula_sum 'C35 H30'
_chemical_formula_moiety
;
C35 H30
;
_journal_coden_Cambridge 16
_journal_volume 68
_journal_year 2012
_journal_page_first 1688
_journal_name_full 'Tetrahedron '
loop_
_publ_author_name
"C.Kitamura"
"Y.Tanigawa"
"T.Kobayashi"
"H.Naito"
"H.Kurata"
"T.Kawase"
_chemical_name_systematic
;
17,17-Dipropyl-17H-dibenzo[4,5:6,7]indeno[1,2-l]phenanthrene
;
_cell_volume   4958.068
_exptl_crystal_colour 'colorless'
_exptl_crystal_density_diffrn 1.207
_exptl_crystal_description 'prism'
_diffrn_ambient_temperature 223
#These two values have been output from a single CSD field.
_refine_ls_R_factor_gt 0.0685
_refine_ls_wR_factor_gt 0.0685
_symmetry_cell_setting monoclinic
_symmetry_space_group_name_H-M 'P 21/c'
_symmetry_Int_Tables_number 14
loop_
_symmetry_equiv_pos_site_id
_symmetry_equiv_pos_as_xyz
1 x,y,z
2 -x,1/2+y,1/2-z
3 -x,-y,-z
4 x,-1/2-y,-1/2+z
_cell_length_a 33.491(6)
_cell_length_b 9.7945(17)
_cell_length_c 15.510(3)
_cell_angle_alpha 90
_cell_angle_beta 102.962(2)
_cell_angle_gamma 90
_cell_formula_units_Z 8
loop_
_atom_type_symbol
_atom_type_radius_bond
C 0.68
H 0.23
loop_
_atom_site_label
_atom_site_type_symbol
_atom_site_fract_x
_atom_site_fract_y
_atom_site_fract_z
C1 C 0.39773(5) -0.20155(19) 0.30181(11)
C2 C 0.35744(5) -0.13256(19) 0.30692(10)
C3 C 0.32685(5) -0.17896(19) 0.35274(10)
C4 C 0.32759(6) -0.3099(2) 0.39185(12)
H1 H 0.35000 -0.36800 0.39230
C5 C 0.29648(7) -0.3538(2) 0.42895(13)
H2 H 0.29780 -0.44080 0.45500
C6 C 0.26290(7) -0.2701(2) 0.42824(13)
H3 H 0.24130 -0.30120 0.45260
C7 C 0.26143(6) -0.1417(2) 0.39174(12)
H4 H 0.23860 -0.08600 0.39160
C8 C 0.29323(5) -0.09139(19) 0.35448(10)
C9 C 0.29315(5) 0.04799(19) 0.32111(10)
C10 C 0.26471(6) 0.1468(2) 0.33608(11)
H5 H 0.24290 0.11990 0.36130
C11 C 0.26839(6) 0.2816(2) 0.31440(12)
H6 H 0.24880 0.34530 0.32360
C12 C 0.30086(6) 0.3245(2) 0.27900(11)
H7 H 0.30430 0.41770 0.26820
C13 C 0.32796(6) 0.23032(19) 0.25979(10)
H8 H 0.34950 0.25970 0.23460
C14 C 0.32396(5) 0.08962(19) 0.27726(10)
C15 C 0.35347(5) -0.00999(18) 0.26272(10)
C16 C 0.38629(5) 0.00023(18) 0.21388(10)
C17 C 0.38877(5) 0.07948(18) 0.13633(10)
C18 C 0.35451(6) 0.15045(19) 0.08575(11)
H9 H 0.32960 0.15020 0.10410
C19 C 0.35736(7) 0.2197(2) 0.01005(11)
H10 H 0.33430 0.26540 -0.02340
C20 C 0.39417(7) 0.2222(2) -0.01696(12)
H11 H 0.39640 0.27350 -0.06690
C21 C 0.42718(7) 0.1504(2) 0.02873(12)
H12 H 0.45180 0.15220 0.00920
C22 C 0.42512(6) 0.07332(19) 0.10487(10)
C23 C 0.45874(6) -0.0152(2) 0.14809(11)
C24 C 0.49679(6) -0.0163(2) 0.12460(12)
H13 H 0.50110 0.04430 0.08060
C25 C 0.52782(6) -0.1024(2) 0.16340(12)
H14 H 0.55330 -0.09780 0.14790
C26 C 0.52135(6) -0.1967(2) 0.22602(13)
H15 H 0.54220 -0.25840 0.25140
C27 C 0.48462(6) -0.1993(2) 0.25043(12)
H16 H 0.48060 -0.26390 0.29250
C28 C 0.45255(6) -0.10830(19) 0.21469(10)
C29 C 0.41470(5) -0.10030(19) 0.24373(10)
C30 C 0.39105(6) -0.3394(2) 0.25091(12)
H17 H 0.41760 -0.37280 0.24340
H18 H 0.38040 -0.40630 0.28710
C31 C 0.36186(7) -0.3318(2) 0.16040(13)
H19 H 0.33520 -0.29910 0.16770
H20 H 0.37240 -0.26490 0.12410
C32 C 0.35592(8) -0.4668(2) 0.11179(14)
H21 H 0.33680 -0.45500 0.05520
H22 H 0.34510 -0.53350 0.14680
H23 H 0.38200 -0.49840 0.10220
C33 C 0.42470(6) -0.2181(2) 0.39649(11)
H24 H 0.41070 -0.27960 0.42990
H25 H 0.45060 -0.26140 0.39240
C34 C 0.43414(7) -0.0859(2) 0.44730(12)
H26 H 0.40840 -0.04330 0.45290
H27 H 0.44780 -0.02350 0.41370
C35 C 0.46135(8) -0.1057(3) 0.53921(14)
H28 H 0.46630 -0.01800 0.56880
H29 H 0.48720 -0.14560 0.53410
H30 H 0.44780 -0.16600 0.57330
C36 C 0.10319(5) -0.19249(19) 0.39987(10)
C37 C 0.08547(5) -0.09231(18) 0.32515(10)
C38 C 0.04738(5) -0.10265(19) 0.25999(11)
C39 C 0.01597(6) -0.1951(2) 0.26567(12)
H31 H 0.02060 -0.26000 0.31150
C40 C -0.02131(6) -0.1939(2) 0.20654(12)
H32 H -0.04190 -0.25610 0.21260
C41 C -0.02839(6) -0.0998(2) 0.13750(12)
H33 H -0.05410 -0.09660 0.09770
C42 C 0.00206(6) -0.0119(2) 0.12763(11)
H34 H -0.00290 0.04910 0.07960
C43 C 0.04069(5) -0.01015(19) 0.18728(10)
C44 C 0.07371(6) 0.07887(19) 0.17465(10)
C45 C 0.07141(7) 0.1525(2) 0.09591(11)
H35 H 0.04670 0.15220 0.05270
C46 C 0.10396(7) 0.2244(2) 0.08039(12)
H36 H 0.10130 0.27400 0.02750
C47 C 0.14115(7) 0.2245(2) 0.14277(12)
H37 H 0.16410 0.26990 0.13090
C48 C 0.14395(6) 0.1578(2) 0.22164(11)
H38 H 0.16890 0.15920 0.26390
C49 C 0.11044(5) 0.08740(18) 0.24102(10)
C50 C 0.11296(5) 0.00939(18) 0.32136(10)
C51 C 0.14604(5) 0.00281(18) 0.40239(10)
C52 C 0.17481(5) 0.10666(19) 0.44446(10)
C53 C 0.17081(6) 0.2455(2) 0.42035(11)
H39 H 0.14930 0.27270 0.37350
C54 C 0.19768(6) 0.3419(2) 0.46372(12)
H40 H 0.19430 0.43430 0.44730
C55 C 0.23019(6) 0.3018(2) 0.53253(13)
H41 H 0.24960 0.36660 0.56030
C56 C 0.23383(6) 0.1689(2) 0.55930(12)
H42 H 0.25560 0.14410 0.60620
C57 C 0.20584(5) 0.0671(2) 0.51882(11)
C58 C 0.20666(5) -0.0708(2) 0.55377(10)
C59 C 0.23852(6) -0.1173(2) 0.62256(12)
H43 H 0.26090 -0.05940 0.64420
C60 C 0.23793(7) -0.2434(3) 0.65882(13)
H44 H 0.25960 -0.27090 0.70530
C61 C 0.20534(7) -0.3322(2) 0.62729(13)
H45 H 0.20490 -0.41900 0.65290
C62 C 0.17395(6) -0.2929(2) 0.55913(11)
H46 H 0.15220 -0.35340 0.53820
C63 C 0.17373(5) -0.1623(2) 0.51952(10)
C64 C 0.14285(5) -0.11915(19) 0.44357(10)
C65 C 0.11099(6) -0.3293(2) 0.35589(11)
H47 H 0.12280 -0.39450 0.40260
H48 H 0.08460 -0.36620 0.32410
C66 C 0.13921(8) -0.3196(2) 0.29169(14)
H49 H 0.12780 -0.25320 0.24540
H50 H 0.16600 -0.28530 0.32350
C67 C 0.14528(8) -0.4536(2) 0.24869(14)
H51 H 0.16380 -0.44070 0.20940
H52 H 0.11910 -0.48660 0.21500
H53 H 0.15680 -0.51980 0.29400
C68 C 0.07656(6) -0.2122(2) 0.46873(11)
H54 H 0.05110 -0.25800 0.43970
H55 H 0.09120 -0.27290 0.51550
C69 C 0.06585(7) -0.0822(2) 0.51095(13)
H56 H 0.05170 -0.02020 0.46450
H57 H 0.09120 -0.03730 0.54190
C70 C 0.03869(8) -0.1074(3) 0.57636(15)
H58 H 0.03290 -0.02110 0.60180
H59 H 0.05270 -0.16750 0.62310
H60 H 0.01320 -0.14940 0.54580
loop_
_geom_bond_atom_site_label_1
_geom_bond_atom_site_label_2
_geom_bond_distance
_geom_bond_site_symmetry_1
_geom_bond_site_symmetry_2
C1 C2 1.527 1_555 1_555
C2 C3 1.445 1_555 1_555
C3 C4 1.417 1_555 1_555
C4 H1 0.941 1_555 1_555
C5 C4 1.368 1_555 1_555
H2 C5 0.940 1_555 1_555
C6 C5 1.390 1_555 1_555
H3 C6 0.939 1_555 1_555
C7 C6 1.375 1_555 1_555
H4 C7 0.939 1_555 1_555
C8 C3 1.420 1_555 1_555
C9 C8 1.460 1_555 1_555
C10 C9 1.413 1_555 1_555
H5 C10 0.940 1_555 1_555
C11 C10 1.375 1_555 1_555
H6 C11 0.939 1_555 1_555
C12 C11 1.389 1_555 1_555
H7 C12 0.940 1_555 1_555
C13 C12 1.373 1_555 1_555
H8 C13 0.939 1_555 1_555
C14 C9 1.417 1_555 1_555
C15 C2 1.374 1_555 1_555
C16 C15 1.472 1_555 1_555
C17 C16 1.449 1_555 1_555
C18 C17 1.418 1_555 1_555
H9 C18 0.940 1_555 1_555
C19 C18 1.378 1_555 1_555
H10 C19 0.941 1_555 1_555
C20 C19 1.388 1_555 1_555
H11 C20 0.940 1_555 1_555
C21 C20 1.367 1_555 1_555
H12 C21 0.940 1_555 1_555
C22 C17 1.411 1_555 1_555
C23 C22 1.460 1_555 1_555
C24 C23 1.402 1_555 1_555
H13 C24 0.940 1_555 1_555
C25 C24 1.368 1_555 1_555
H14 C25 0.938 1_555 1_555
C26 C25 1.392 1_555 1_555
H15 C26 0.940 1_555 1_555
C27 C26 1.366 1_555 1_555
H16 C27 0.940 1_555 1_555
C28 C23 1.427 1_555 1_555
C29 C1 1.532 1_555 1_555
C30 C1 1.555 1_555 1_555
H17 C30 0.979 1_555 1_555
H18 C30 0.981 1_555 1_555
C31 C30 1.522 1_555 1_555
H19 C31 0.979 1_555 1_555
H20 C31 0.980 1_555 1_555
C32 C31 1.513 1_555 1_555
H21 C32 0.970 1_555 1_555
H22 C32 0.970 1_555 1_555
H23 C32 0.969 1_555 1_555
C33 C1 1.550 1_555 1_555
H24 C33 0.980 1_555 1_555
H25 C33 0.980 1_555 1_555
C34 C33 1.512 1_555 1_555
H26 C34 0.979 1_555 1_555
H27 C34 0.980 1_555 1_555
C35 C34 1.522 1_555 1_555
H28 C35 0.970 1_555 1_555
H29 C35 0.969 1_555 1_555
H30 C35 0.971 1_555 1_555
C36 C37 1.533 1_555 1_555
C37 C38 1.442 1_555 1_555
C38 C39 1.406 1_555 1_555
C39 H31 0.940 1_555 1_555
C40 C39 1.373 1_555 1_555
H32 C40 0.941 1_555 1_555
C41 C40 1.392 1_555 1_555
H33 C41 0.941 1_555 1_555
C42 C41 1.369 1_555 1_555
H34 C42 0.940 1_555 1_555
C43 C38 1.425 1_555 1_555
C44 C43 1.456 1_555 1_555
C45 C44 1.405 1_555 1_555
H35 C45 0.941 1_555 1_555
C46 C45 1.364 1_555 1_555
H36 C46 0.940 1_555 1_555
C47 C46 1.395 1_555 1_555
H37 C47 0.941 1_555 1_555
C48 C47 1.371 1_555 1_555
H38 C48 0.939 1_555 1_555
C49 C44 1.418 1_555 1_555
C50 C37 1.367 1_555 1_555
C51 C50 1.479 1_555 1_555
C52 C51 1.451 1_555 1_555
C53 C52 1.409 1_555 1_555
H39 C53 0.940 1_555 1_555
C54 C53 1.372 1_555 1_555
H40 C54 0.940 1_555 1_555
C55 C54 1.399 1_555 1_555
H41 C55 0.941 1_555 1_555
C56 C55 1.363 1_555 1_555
H42 C56 0.939 1_555 1_555
C57 C52 1.422 1_555 1_555
C58 C57 1.453 1_555 1_555
C59 C58 1.405 1_555 1_555
H43 C59 0.940 1_555 1_555
C60 C59 1.359 1_555 1_555
H44 C60 0.940 1_555 1_555
C61 C60 1.396 1_555 1_555
H45 C61 0.940 1_555 1_555
C62 C61 1.368 1_555 1_555
H46 C62 0.939 1_555 1_555
C63 C58 1.428 1_555 1_555
C64 C36 1.528 1_555 1_555
C65 C36 1.552 1_555 1_555
H47 C65 0.980 1_555 1_555
H48 C65 0.979 1_555 1_555
C66 C65 1.522 1_555 1_555
H49 C66 0.980 1_555 1_555
H50 C66 0.981 1_555 1_555
C67 C66 1.506 1_555 1_555
H51 C67 0.970 1_555 1_555
H52 C67 0.970 1_555 1_555
H53 C67 0.970 1_555 1_555
C68 C36 1.549 1_555 1_555
H54 C68 0.979 1_555 1_555
H55 C68 0.980 1_555 1_555
C69 C68 1.511 1_555 1_555
H56 C69 0.979 1_555 1_555
H57 C69 0.981 1_555 1_555
C70 C69 1.527 1_555 1_555
H58 C70 0.971 1_555 1_555
H59 C70 0.969 1_555 1_555
H60 C70 0.970 1_555 1_555
C7 C8 1.410 1_555 1_555
C13 C14 1.417 1_555 1_555
C14 C15 1.442 1_555 1_555
C16 C29 1.375 1_555 1_555
C21 C22 1.416 1_555 1_555
C27 C28 1.410 1_555 1_555
C28 C29 1.439 1_555 1_555
C42 C43 1.412 1_555 1_555
C48 C49 1.406 1_555 1_555
C49 C50 1.448 1_555 1_555
C51 C64 1.370 1_555 1_555
C56 C57 1.415 1_555 1_555
C62 C63 1.418 1_555 1_555
C63 C64 1.445 1_555 1_555
#END
