
#######################################################################
#
#                 Cambridge Crystallographic Data Centre
#                                CCDC
#
#######################################################################
#
# If this CIF has been generated from an entry in the Cambridge
# Structural Database, then it will include bibliographic, chemical,
# crystal, experimental, refinement or atomic coordinate data resulting
# from the CCDC's data processing and validation procedures.
#
#######################################################################

data_CSD_CIF_NAMZOQ
_audit_creation_date 1998-03-17
_audit_creation_method CSD-ConQuest-V1
_database_code_CSD NAMZOQ
_database_code_depnum_ccdc_archive 'CCDC 1216603'
_database_code_depnum_ccdc_journal 1003/5139
_chemical_formula_sum 'C16 H10'
_chemical_formula_moiety
;
C16 H10
;
_journal_coden_Cambridge 1003
_journal_volume 27
_journal_year 1997
_journal_page_first 183
_journal_name_full 'J.Chem.Cryst. '
loop_
_publ_author_name
"J.T.Mague"
"M.Foroozesh"
"N.E.Hopkins"
"L.L.-S.Gan"
"W.L.Alworth"
_chemical_name_systematic
;
9-Ethynylphenanthrene
;
_cell_volume   2132.457
_exptl_crystal_colour 'colorless'
_exptl_crystal_density_diffrn 1.26
_exptl_crystal_description 'needle'
_exptl_crystal_preparation 'water/n-propanol'
_diffrn_ambient_temperature ?
_diffrn_special_details
;
The study was carried out at room temperature,in the range 283-303K

;
#These two values have been output from a single CSD field.
_refine_ls_R_factor_gt 0.061
_refine_ls_wR_factor_gt 0.061
_symmetry_cell_setting monoclinic
_symmetry_space_group_name_H-M 'P 21/c'
_symmetry_Int_Tables_number 14
loop_
_symmetry_equiv_pos_site_id
_symmetry_equiv_pos_as_xyz
1 x,y,z
2 -x,1/2+y,1/2-z
3 -x,-y,-z
4 x,-1/2-y,-1/2+z
_cell_length_a 27.755(7)
_cell_length_b 5.1447(9)
_cell_length_c 15.500(2)
_cell_angle_alpha 90
_cell_angle_beta 105.53(2)
_cell_angle_gamma 90
_cell_formula_units_Z 8
loop_
_atom_type_symbol
_atom_type_radius_bond
C 0.68
H 0.23
loop_
_atom_site_label
_atom_site_type_symbol
_atom_site_fract_x
_atom_site_fract_y
_atom_site_fract_z
C1 C 0.1209(2) 0.234(1) 0.7124(3)
C2 C 0.1341(2) 0.079(1) 0.7900(3)
C3 C 0.1779(2) 0.108(1) 0.8520(3)
C4 C 0.2119(2) 0.298(1) 0.8416(4)
C5 C 0.2000(2) 0.451(1) 0.7670(3)
C6 C 0.1551(2) 0.426(1) 0.7002(3)
C7 C 0.1425(2) 0.580(1) 0.6194(3)
C8 C 0.1738(2) 0.776(1) 0.6020(3)
C9 C 0.1608(2) 0.917(1) 0.5245(3)
C10 C 0.1170(2) 0.872(1) 0.4603(3)
C11 C 0.0855(2) 0.683(1) 0.4749(3)
C12 C 0.0984(2) 0.533(1) 0.5548(3)
C13 C 0.0643(2) 0.340(1) 0.5689(3)
C14 C 0.0747(2) 0.198(1) 0.6453(3)
C15 C 0.0398(2) 0.004(1) 0.6597(3)
C16 C 0.0115(2) -0.147(1) 0.6741(4)
H1 H 0.11130 -0.05010 0.79870
H2 H 0.18590 -0.00100 0.90330
H3 H 0.24280 0.31980 0.88570
H4 H 0.22330 0.57990 0.76020
H5 H 0.20460 0.81220 0.64490
H6 H 0.18270 1.04910 0.51500
H7 H 0.10870 0.97030 0.40640
H8 H 0.05470 0.65230 0.43140
H9 H 0.03390 0.31030 0.52420
H10 H -0.01150 -0.26930 0.68570
C17 C 0.4030(2) -0.019(1) 0.9518(4)
C18 C 0.4192(2) -0.163(1) 0.8871(4)
C19 C 0.3886(2) -0.354(1) 0.8387(4)
C20 C 0.3430(2) -0.405(1) 0.8546(4)
C21 C 0.3272(2) -0.267(1) 0.9173(4)
C22 C 0.3574(2) -0.071(1) 0.9680(3)
C23 C 0.3416(2) 0.075(1) 1.0347(3)
C24 C 0.2958(2) 0.042(1) 1.0552(3)
C25 C 0.2813(2) 0.190(1) 1.1176(4)
C26 C 0.3129(2) 0.375(1) 1.1643(4)
C27 C 0.3589(2) 0.415(1) 1.1482(4)
C28 C 0.3741(2) 0.267(1) 1.0846(3)
C29 C 0.4215(2) 0.313(1) 1.0679(3)
C30 C 0.4353(2) 0.178(1) 1.0028(3)
C31 C 0.4552(2) 0.505(1) 1.1186(3)
C32 C 0.4812(2) 0.657(1) 1.1637(4)
H11 H 0.45090 -0.12910 0.87700
H12 H 0.39900 -0.45030 0.79460
H13 H 0.32220 -0.53710 0.82150
H14 H 0.29550 -0.30310 0.92680
H15 H 0.27370 -0.08900 1.02430
H16 H 0.24950 0.16300 1.12820
H17 H 0.30320 0.47670 1.20790
H18 H 0.38050 0.54460 1.18100
H19 H 0.46650 0.21390 0.99090
H20 H 0.50250 0.78100 1.20060
loop_
_geom_bond_atom_site_label_1
_geom_bond_atom_site_label_2
_geom_bond_distance
_geom_bond_site_symmetry_1
_geom_bond_site_symmetry_2
C1 C2 1.407 1_555 1_555
C2 C3 1.341 1_555 1_555
C3 C4 1.398 1_555 1_555
C4 C5 1.364 1_555 1_555
C5 C6 1.397 1_555 1_555
C6 C1 1.417 1_555 1_555
C7 C6 1.444 1_555 1_555
C8 C7 1.403 1_555 1_555
C9 C8 1.366 1_555 1_555
C10 C9 1.369 1_555 1_555
C11 C10 1.366 1_555 1_555
C12 C7 1.379 1_555 1_555
C13 C12 1.428 1_555 1_555
C14 C1 1.430 1_555 1_555
C15 C14 1.449 1_555 1_555
C16 C15 1.168 1_555 1_555
H1 C2 0.952 1_555 1_555
H2 C3 0.949 1_555 1_555
H3 C4 0.949 1_555 1_555
H4 C5 0.952 1_555 1_555
H5 C8 0.950 1_555 1_555
H6 C9 0.949 1_555 1_555
H7 C10 0.951 1_555 1_555
H8 C11 0.950 1_555 1_555
H9 C13 0.950 1_555 1_555
H10 C16 0.947 1_555 1_555
C17 C18 1.414 1_555 1_555
C18 C19 1.381 1_555 1_555
C19 C20 1.378 1_555 1_555
C20 C21 1.367 1_555 1_555
C21 C22 1.409 1_555 1_555
C22 C17 1.381 1_555 1_555
C23 C22 1.438 1_555 1_555
C24 C23 1.401 1_555 1_555
C25 C24 1.373 1_555 1_555
C26 C25 1.363 1_555 1_555
C27 C26 1.380 1_555 1_555
C28 C23 1.419 1_555 1_555
C29 C28 1.427 1_555 1_555
C30 C17 1.441 1_555 1_555
C31 C29 1.440 1_555 1_555
C32 C31 1.162 1_555 1_555
H11 C18 0.950 1_555 1_555
H12 C19 0.950 1_555 1_555
H13 C20 0.949 1_555 1_555
H14 C21 0.949 1_555 1_555
H15 C24 0.950 1_555 1_555
H16 C25 0.950 1_555 1_555
H17 C26 0.949 1_555 1_555
H18 C27 0.948 1_555 1_555
H19 C30 0.951 1_555 1_555
H20 C32 0.950 1_555 1_555
C11 C12 1.421 1_555 1_555
C13 C14 1.355 1_555 1_555
C27 C28 1.397 1_555 1_555
C29 C30 1.362 1_555 1_555
#END
