
#######################################################################
#
#                 Cambridge Crystallographic Data Centre
#                                CCDC
#
#######################################################################
#
# If this CIF has been generated from an entry in the Cambridge
# Structural Database, then it will include bibliographic, chemical,
# crystal, experimental, refinement or atomic coordinate data resulting
# from the CCDC's data processing and validation procedures.
#
#######################################################################

data_CSD_CIF_NAPANT01
_audit_creation_date 1992-10-02
_audit_creation_method CSD-ConQuest-V1
_database_code_CSD NAPANT01
_chemical_formula_sum 'C34 H18'
_chemical_formula_moiety
;
C34 H18
;
_journal_coeditor_code "IUCr AS0534"
_journal_coden_Cambridge 591
_journal_volume 48
_journal_year 1992
_journal_page_first 900
_journal_name_full 'Acta Crystallogr.,Sect.C:Cryst.Struct.Commun. '
loop_
_publ_author_name
"A.Izuoka"
"K.Wakui"
"T.Fukuda"
"N.Sato"
"T.Sugawara"
_chemical_name_systematic
;
Tetrabenzo(de,hi,op,st)pentacene
;
_cell_volume   1001.836
_exptl_crystal_colour 'deep blue'
_exptl_crystal_density_diffrn 1.411
_diffrn_ambient_temperature ?
_diffrn_special_details
;
The study was carried out at room temperature,in the range 283-303K

;
#These two values have been output from a single CSD field.
_refine_ls_R_factor_gt 0.045
_refine_ls_wR_factor_gt 0.045
_symmetry_cell_setting monoclinic
_symmetry_space_group_name_H-M 'P 21'
_symmetry_Int_Tables_number 4
loop_
_symmetry_equiv_pos_site_id
_symmetry_equiv_pos_as_xyz
1 x,y,z
2 -x,1/2+y,-z
_cell_length_a 11.814(5)
_cell_length_b 7.803(1)
_cell_length_c 10.871(4)
_cell_angle_alpha 90
_cell_angle_beta 91.41(4)
_cell_angle_gamma 90
_cell_formula_units_Z 2
loop_
_atom_type_symbol
_atom_type_radius_bond
C 0.68
H 0.23
loop_
_atom_site_label
_atom_site_type_symbol
_atom_site_fract_x
_atom_site_fract_y
_atom_site_fract_z
C1 C 0.7488(3) 0.39620 1.2859(3)
C2 C 0.8161(4) 0.4100(8) 1.3935(4)
C3 C 0.9170(4) 0.3300(8) 1.4031(4)
C4 C 1.0694(4) 0.1628(8) 1.3065(5)
C5 C 1.1106(4) 0.0856(8) 1.2065(5)
C6 C 1.0485(3) 0.0818(8) 1.0961(4)
C7 C 0.9226(4) 0.1041(8) 0.8610(4)
C8 C 0.8605(4) 0.1082(8) 0.7510(4)
C9 C 0.7523(4) 0.1687(8) 0.7457(4)
C10 C 0.5795(4) 0.4072(8) 0.6365(3)
C11 C 0.5197(5) 0.4541(9) 0.5292(4)
C12 C 0.4065(4) 0.4379(8) 0.5226(4)
C13 C 0.2256(4) 0.3775(8) 0.6244(5)
C14 C 0.1695(4) 0.3367(8) 0.7259(5)
C15 C 0.2277(4) 0.3091(8) 0.8372(4)
C16 C 0.3540(3) 0.3027(8) 1.0732(4)
C17 C 0.4137(3) 0.2804(8) 1.1845(4)
C18 C 0.5270(3) 0.2684(7) 1.1869(4)
C19 C 0.9615(3) 0.2391(7) 1.3026(4)
C20 C 0.9415(3) 0.1527(7) 1.0861(4)
C21 C 0.8772(3) 0.1576(7) 0.9688(4)
C22 C 0.6999(3) 0.2290(7) 0.8526(4)
C23 C 0.5865(3) 0.2892(7) 0.8510(3)
C24 C 0.5253(3) 0.3458(7) 0.7382(3)
C25 C 0.3441(4) 0.3863(7) 0.6250(4)
C26 C 0.3445(3) 0.3165(7) 0.8461(3)
C27 C 0.4077(3) 0.3040(7) 0.9635(3)
C28 C 0.5908(3) 0.2790(7) 1.0779(3)
C29 C 0.7104(3) 0.2675(7) 1.0779(3)
C30 C 0.7828(3) 0.2978(7) 1.1888(3)
C31 C 0.8945(3) 0.2282(7) 1.1924(4)
C32 C 0.7623(3) 0.2196(7) 0.9677(3)
C33 C 0.4050(3) 0.3463(7) 0.7369(3)
C34 C 0.5292(3) 0.2921(7) 0.9626(3)
H1 H 0.677(3) 0.464(6) 1.280(3)
H2 H 0.790(3) 0.474(6) 1.463(4)
H3 H 0.964(3) 0.337(5) 1.474(3)
H4 H 1.110(3) 0.173(6) 1.383(4)
H5 H 1.192(4) 0.031(7) 1.204(4)
H6 H 1.081(3) 0.031(5) 1.023(4)
H7 H 0.998(3) 0.066(5) 0.859(4)
H8 H 0.889(3) 0.072(5) 0.678(3)
H9 H 0.712(3) 0.166(5) 0.665(4)
H10 H 0.660(3) 0.414(5) 0.641(3)
H11 H 0.562(3) 0.495(5) 0.459(3)
H12 H 0.365(3) 0.467(6) 0.448(4)
H13 H 0.183(3) 0.402(6) 0.548(4)
H14 H 0.086(3) 0.337(5) 0.726(3)
H15 H 0.185(3) 0.293(6) 0.914(4)
H16 H 0.273(3) 0.318(5) 1.077(3)
H17 H 0.372(3) 0.274(5) 1.261(3)
H18 H 0.565(3) 0.248(5) 1.258(3)
loop_
_geom_bond_atom_site_label_1
_geom_bond_atom_site_label_2
_geom_bond_distance
_geom_bond_site_symmetry_1
_geom_bond_site_symmetry_2
C1 C2 1.402 1_555 1_555
C2 C3 1.347 1_555 1_555
C3 C19 1.415 1_555 1_555
C4 C5 1.344 1_555 1_555
C5 C6 1.391 1_555 1_555
C6 C20 1.382 1_555 1_555
C7 C8 1.388 1_555 1_555
C8 C9 1.363 1_555 1_555
C9 C22 1.411 1_555 1_555
C10 C11 1.398 1_555 1_555
C11 C12 1.343 1_555 1_555
C12 C25 1.409 1_555 1_555
C13 C14 1.339 1_555 1_555
C14 C15 1.394 1_555 1_555
C15 C26 1.382 1_555 1_555
C16 C17 1.396 1_555 1_555
C17 C18 1.341 1_555 1_555
C18 C28 1.422 1_555 1_555
C19 C4 1.407 1_555 1_555
C20 C21 1.469 1_555 1_555
C21 C7 1.366 1_555 1_555
C22 C23 1.419 1_555 1_555
C23 C24 1.476 1_555 1_555
C24 C10 1.377 1_555 1_555
C25 C13 1.401 1_555 1_555
C26 C27 1.466 1_555 1_555
C27 C16 1.365 1_555 1_555
C28 C29 1.416 1_555 1_555
C29 C30 1.480 1_555 1_555
C30 C1 1.373 1_555 1_555
C31 C19 1.422 1_555 1_555
C32 C21 1.441 1_555 1_555
C33 C24 1.421 1_555 1_555
C34 C23 1.404 1_555 1_555
H1 C1 1.000 1_555 1_555
H2 C2 0.963 1_555 1_555
H3 C3 0.940 1_555 1_555
H4 C4 0.953 1_555 1_555
H5 C5 1.053 1_555 1_555
H6 C6 0.975 1_555 1_555
H7 C7 0.940 1_555 1_555
H8 C8 0.914 1_555 1_555
H9 C9 0.988 1_555 1_555
H10 C10 0.953 1_555 1_555
H11 C11 0.976 1_555 1_555
H12 C12 0.964 1_555 1_555
H13 C13 0.979 1_555 1_555
H14 C14 0.986 1_555 1_555
H15 C15 0.994 1_555 1_555
H16 C16 0.966 1_555 1_555
H17 C17 0.978 1_555 1_555
H18 C18 0.898 1_555 1_555
C20 C31 1.422 1_555 1_555
C22 C32 1.438 1_555 1_555
C25 C33 1.432 1_555 1_555
C26 C33 1.420 1_555 1_555
C27 C34 1.439 1_555 1_555
C28 C34 1.437 1_555 1_555
C29 C32 1.410 1_555 1_555
C30 C31 1.427 1_555 1_555
#END
