
#######################################################################
#
#                 Cambridge Crystallographic Data Centre
#                                CCDC
#
#######################################################################
#
# If this CIF has been generated from an entry in the Cambridge
# Structural Database, then it will include bibliographic, chemical,
# crystal, experimental, refinement or atomic coordinate data resulting
# from the CCDC's data processing and validation procedures.
#
#######################################################################

data_CSD_CIF_NAPHTA16
_audit_creation_date 2004-06-30
_audit_creation_method CSD-ConQuest-V1
_database_code_CSD NAPHTA16
_database_code_depnum_ccdc_archive 'CCDC 233929'
_chemical_formula_sum 'C10 H8'
_chemical_formula_moiety
;
C10 H8
;
_journal_coden_Cambridge 1277
_journal_volume 108
_journal_year 2004
_journal_page_first 1057
_journal_name_full 'J.Phys.Chem.A '
loop_
_publ_author_name
"J.Oddershede"
"S.Larsen"
_chemical_name_systematic
;
Naphthalene
;
_cell_volume    345.129
_exptl_crystal_colour 'colorless'
_exptl_crystal_density_diffrn 1.233
_exptl_crystal_description 'block'
_exptl_crystal_preparation 'ethanol'
_diffrn_ambient_temperature 135.0
_diffrn_special_details
;
charge density study

;
#These two values have been output from a single CSD field.
_refine_ls_R_factor_gt 0.0203
_refine_ls_wR_factor_gt 0.0203
_symmetry_cell_setting monoclinic
_symmetry_space_group_name_H-M 'P 21/c'
_symmetry_Int_Tables_number 14
loop_
_symmetry_equiv_pos_site_id
_symmetry_equiv_pos_as_xyz
1 x,y,z
2 -x,1/2+y,1/2-z
3 -x,-y,-z
4 x,-1/2-y,-1/2+z
_cell_length_a 7.8612(1)
_cell_length_b 5.9413(1)
_cell_length_c 8.1224(1)
_cell_angle_alpha 90
_cell_angle_beta 114.528(1)
_cell_angle_gamma 90
_cell_formula_units_Z 2
loop_
_atom_type_symbol
_atom_type_radius_bond
C 0.68
H 0.23
loop_
_atom_site_label
_atom_site_type_symbol
_atom_site_fract_x
_atom_site_fract_y
_atom_site_fract_z
C1 C -0.328536(11) 0.018891(15) -0.245586(11)
C2 C -0.222435(10) 0.162961(12) -0.109168(10)
C3 C -0.037172(8) 0.105056(9) 0.010975(8)
C4 C 0.075497(11) 0.251140(11) 0.152269(9)
C5 C -0.254330(11) -0.190320(14) -0.26757(1)
H1 H -0.46922 0.06729 -0.33652
H2 H -0.27687 0.32409 -0.09108
H3 H 0.01637 0.41044 0.16717
H4 H -0.33707 -0.30432 -0.37515
C3B C 0.037172(8) -0.105056(9) -0.010975(8)
C2B C 0.222435(10) -0.162961(12) 0.109168(10)
C1B C 0.328536(11) -0.018891(15) 0.245586(11)
C5B C 0.254330(11) 0.190320(14) 0.26757(1)
H4B H 0.33707 0.30432 0.37515
H1B H 0.46922 -0.06729 0.33652
H2B H 0.27687 -0.32409 0.09108
C4B C -0.075497(11) -0.251140(11) -0.152269(9)
H3B H -0.01637 -0.41044 -0.16717
loop_
_geom_bond_atom_site_label_1
_geom_bond_atom_site_label_2
_geom_bond_distance
_geom_bond_site_symmetry_1
_geom_bond_site_symmetry_2
C1 C2 1.374 1_555 1_555
C2 C3 1.418 1_555 1_555
C3 C4 1.418 1_555 1_555
C4 H3 1.083 1_555 1_555
C5 C1 1.416 1_555 1_555
H1 C1 1.083 1_555 1_555
H2 C2 1.083 1_555 1_555
H4 C5 1.083 1_555 1_555
C3B C3 1.421 1_555 1_555
C2B C3B 1.418 1_555 1_555
C1B C2B 1.374 1_555 1_555
C5B C4 1.375 1_555 1_555
H4B C5B 1.083 1_555 1_555
H1B C1B 1.083 1_555 1_555
H2B C2B 1.083 1_555 1_555
C4B C5 1.375 1_555 1_555
H3B C4B 1.083 1_555 1_555
C3B C4B 1.418 1_555 1_555
C1B C5B 1.416 1_555 1_555
#END
