
#######################################################################
#
#                 Cambridge Crystallographic Data Centre
#                                CCDC
#
#######################################################################
#
# If this CIF has been generated from an entry in the Cambridge
# Structural Database, then it will include bibliographic, chemical,
# crystal, experimental, refinement or atomic coordinate data resulting
# from the CCDC's data processing and validation procedures.
#
#######################################################################

data_CSD_CIF_NAPHTA50
_audit_creation_date 1983-03-10
_audit_creation_method CSD-ConQuest-V1
_database_code_CSD NAPHTA50
_database_code_depnum_ccdc_archive 'CCDC 1216814'
_chemical_formula_sum 'C10 H8'
_chemical_formula_moiety
;
C10 H8
;
_journal_coeditor_code "IUCr A21415"
_journal_coden_Cambridge 107
_journal_volume 38
_journal_year 1982
_journal_page_first 2218
_journal_name_full 'Acta Crystallogr.,Sect.B:Struct.Crystallogr.Cryst.Chem. '
loop_
_publ_author_name
"C.P.Brock"
"J.D.Dunitz"
_chemical_name_systematic
;
naphthalene
;
_cell_volume    347.385
_exptl_crystal_density_diffrn 1.225
_diffrn_ambient_temperature 143
#These two values have been output from a single CSD field.
_refine_ls_R_factor_gt 0.038
_refine_ls_wR_factor_gt 0.038
_symmetry_cell_setting monoclinic
_symmetry_space_group_name_H-M 'P 21/a'
_symmetry_Int_Tables_number 14
loop_
_symmetry_equiv_pos_site_id
_symmetry_equiv_pos_as_xyz
1 x,y,z
2 1/2-x,1/2+y,-z
3 -x,-y,-z
4 -1/2+x,-1/2-y,z
_cell_length_a 8.1433(39)
_cell_length_b 5.9512(15)
_cell_length_c 8.6594(33)
_cell_angle_alpha 90
_cell_angle_beta 124.128(31)
_cell_angle_gamma 90
_cell_formula_units_Z 2
loop_
_atom_type_symbol
_atom_type_radius_bond
C 0.68
H 0.23
loop_
_atom_site_label
_atom_site_type_symbol
_atom_site_fract_x
_atom_site_fract_y
_atom_site_fract_z
C1 C 0.08280 0.01840 0.32800
C2 C 0.11370 0.16290 0.22280
C3 C 0.04810 0.10510 0.03700
C4 C 0.07660 0.25110 -0.07590
C5 C -0.01280 -0.19010 0.25450
H1 H 0.12070 0.05380 0.44350
H2 H 0.17830 0.30500 0.27070
H3 H 0.14000 0.38840 -0.02380
H4 H -0.02900 -0.28940 0.32700
C1B C -0.08280 -0.01840 -0.32800
C2B C -0.11370 -0.16290 -0.22280
C3B C -0.04810 -0.10510 -0.03700
C4B C -0.07660 -0.25110 0.07590
C5B C 0.01280 0.19010 -0.25450
H1B H -0.12070 -0.05380 -0.44350
H2B H -0.17830 -0.30500 -0.27070
H3B H -0.14000 -0.38840 0.02380
H4B H 0.02900 0.28940 -0.32700
loop_
_geom_bond_atom_site_label_1
_geom_bond_atom_site_label_2
_geom_bond_distance
_geom_bond_site_symmetry_1
_geom_bond_site_symmetry_2
C1 C2 1.375 1_555 1_555
C2 C3 1.424 1_555 1_555
C3 C4 1.421 1_555 1_555
C4 H3 0.936 1_555 1_555
C5 C1 1.412 1_555 1_555
H1 C1 0.891 1_555 1_555
H2 C2 0.959 1_555 1_555
H4 C5 0.924 1_555 1_555
C1B C2B 1.375 1_555 1_555
C2B C3B 1.424 1_555 1_555
C3B C3 1.423 1_555 1_555
C4B C5 1.375 1_555 1_555
C5B C4 1.375 1_555 1_555
H1B C1B 0.891 1_555 1_555
H2B C2B 0.959 1_555 1_555
H3B C4B 0.936 1_555 1_555
H4B C5B 0.924 1_555 1_555
C1B C5B 1.412 1_555 1_555
C3B C4B 1.421 1_555 1_555
#END
