
#######################################################################
#
#                 Cambridge Crystallographic Data Centre
#                                CCDC
#
#######################################################################
#
# If this CIF has been generated from an entry in the Cambridge
# Structural Database, then it will include bibliographic, chemical,
# crystal, experimental, refinement or atomic coordinate data resulting
# from the CCDC's data processing and validation procedures.
#
#######################################################################

data_CSD_CIF_NAPHTA51
_audit_creation_date 1983-03-10
_audit_creation_method CSD-ConQuest-V1
_database_code_CSD NAPHTA51
_database_code_depnum_ccdc_archive 'CCDC 1216815'
_chemical_formula_sum 'C10 H8'
_chemical_formula_moiety
;
C10 H8
;
_journal_coeditor_code "IUCr A21415"
_journal_coden_Cambridge 107
_journal_volume 38
_journal_year 1982
_journal_page_first 2218
_journal_name_full 'Acta Crystallogr.,Sect.B:Struct.Crystallogr.Cryst.Chem. '
loop_
_publ_author_name
"C.P.Brock"
"J.D.Dunitz"
_chemical_name_systematic
;
naphthalene
;
_cell_volume    350.425
_exptl_crystal_density_diffrn 1.215
_diffrn_ambient_temperature 184
#These two values have been output from a single CSD field.
_refine_ls_R_factor_gt 0.038
_refine_ls_wR_factor_gt 0.038
_symmetry_cell_setting monoclinic
_symmetry_space_group_name_H-M 'P 21/a'
_symmetry_Int_Tables_number 14
loop_
_symmetry_equiv_pos_site_id
_symmetry_equiv_pos_as_xyz
1 x,y,z
2 1/2-x,1/2+y,-z
3 -x,-y,-z
4 -1/2+x,-1/2-y,z
_cell_length_a 8.1686(30)
_cell_length_b 5.9617(12)
_cell_length_c 8.6654(27)
_cell_angle_alpha 90
_cell_angle_beta 123.860(25)
_cell_angle_gamma 90
_cell_formula_units_Z 2
loop_
_atom_type_symbol
_atom_type_radius_bond
C 0.68
H 0.23
loop_
_atom_site_label
_atom_site_type_symbol
_atom_site_fract_x
_atom_site_fract_y
_atom_site_fract_z
C1 C 0.08320 0.01800 0.32730
C2 C 0.11390 0.16180 0.22220
C3 C 0.04810 0.10470 0.03670
C4 C 0.07660 0.25020 -0.07590
C5 C -0.01230 -0.18930 0.25450
H1 H 0.11980 0.05080 0.44040
H2 H 0.17970 0.29800 0.27120
H3 H 0.13960 0.38580 -0.02680
H4 H -0.02800 -0.28440 0.32810
C1B C -0.08320 -0.01800 -0.32730
C2B C -0.11390 -0.16180 -0.22220
C3B C -0.04810 -0.10470 -0.03670
C4B C -0.07660 -0.25020 0.07590
C5B C 0.01230 0.18930 -0.25450
H1B H -0.11980 -0.05080 -0.44040
H2B H -0.17970 -0.29800 -0.27120
H3B H -0.13960 -0.38580 0.02680
H4B H 0.02800 0.28440 -0.32810
loop_
_geom_bond_atom_site_label_1
_geom_bond_atom_site_label_2
_geom_bond_distance
_geom_bond_site_symmetry_1
_geom_bond_site_symmetry_2
C1 C2 1.372 1_555 1_555
C2 C3 1.423 1_555 1_555
C3 C4 1.418 1_555 1_555
C4 H3 0.925 1_555 1_555
C5 C1 1.409 1_555 1_555
H1 C1 0.873 1_555 1_555
H2 C2 0.935 1_555 1_555
H4 C5 0.914 1_555 1_555
C1B C2B 1.372 1_555 1_555
C2B C3B 1.423 1_555 1_555
C3B C3 1.423 1_555 1_555
C4B C5 1.377 1_555 1_555
C5B C4 1.377 1_555 1_555
H1B C1B 0.873 1_555 1_555
H2B C2B 0.935 1_555 1_555
H3B C4B 0.925 1_555 1_555
H4B C5B 0.914 1_555 1_555
C1B C5B 1.409 1_555 1_555
C3B C4B 1.418 1_555 1_555
#END
