
#######################################################################
#
#                 Cambridge Crystallographic Data Centre
#                                CCDC
#
#######################################################################
#
# If this CIF has been generated from an entry in the Cambridge
# Structural Database, then it will include bibliographic, chemical,
# crystal, experimental, refinement or atomic coordinate data resulting
# from the CCDC's data processing and validation procedures.
#
#######################################################################

data_CSD_CIF_NAPHTA11
_audit_creation_date 1971-12-31
_audit_creation_method CSD-ConQuest-V1
_database_code_CSD NAPHTA11
_database_code_depnum_ccdc_archive 'CCDC 1216817'
_chemical_formula_sum 'C10 H8'
_chemical_formula_moiety
;
C10 H8
;
_journal_coeditor_code "IUCr A02076"
_journal_coden_Cambridge 1
_journal_volume 10
_journal_year 1957
_journal_page_first 504
_journal_name_full 'Acta Crystallogr. '
loop_
_publ_author_name
"D.W.J.Cruickshank"
_chemical_name_systematic
;
Naphthalene
;
_cell_volume    359.281
_exptl_special_details
;
AVERAGE BOND LENGTHS ONLY

;
_diffrn_ambient_temperature ?
_diffrn_special_details
;
The study was carried out at room temperature,in the range 283-303K

;
loop_
_citation_database_id_CSD
_citation_special_details
NAPHTA "is reinterpreted by this entry"
_symmetry_cell_setting monoclinic
_symmetry_space_group_name_H-M 'P 21/a'
_symmetry_Int_Tables_number 14
loop_
_symmetry_equiv_pos_site_id
_symmetry_equiv_pos_as_xyz
1 x,y,z
2 1/2-x,1/2+y,-z
3 -x,-y,-z
4 -1/2+x,-1/2-y,z
_cell_length_a 8.235(5)
_cell_length_b 6.003(10)
_cell_length_c 8.658(10)
_cell_angle_alpha 90
_cell_angle_beta 122.92(8)
_cell_angle_gamma 90
_cell_formula_units_Z 2
loop_
_atom_type_symbol
_atom_type_radius_bond
C 0.68
loop_
_atom_site_label
_atom_site_type_symbol
_atom_site_fract_x
_atom_site_fract_y
_atom_site_fract_z
C1 C 0.08560 0.01860 0.32510
C2 C -0.01160 -0.18690 0.25410
C3 C 0.11480 0.15880 0.22000
C4 C -0.07490 -0.24710 0.07840
C5 C 0.04720 0.10250 0.03510
C5B C -0.04720 -0.10250 -0.03510
C4B C 0.07490 0.24710 -0.07840
C3B C -0.11480 -0.15880 -0.22000
C2B C 0.01160 0.18690 -0.25410
C1B C -0.08560 -0.01860 -0.32510
loop_
_geom_bond_atom_site_label_1
_geom_bond_atom_site_label_2
_geom_bond_distance
_geom_bond_site_symmetry_1
_geom_bond_site_symmetry_2
C1 C2 1.416 1_555 1_555
C2 C4 1.362 1_555 1_555
C3 C1 1.354 1_555 1_555
C4 C5B 1.419 1_555 1_555
C5 C3 1.421 1_555 1_555
C5B C5 1.405 1_555 1_555
C4B C5 1.419 1_555 1_555
C3B C5B 1.421 1_555 1_555
C2B C4B 1.362 1_555 1_555
C1B C3B 1.354 1_555 1_555
C2B C1B 1.416 1_555 1_555
#END
