
#######################################################################
#
#                 Cambridge Crystallographic Data Centre
#                                CCDC
#
#######################################################################
#
# If this CIF has been generated from an entry in the Cambridge
# Structural Database, then it will include bibliographic, chemical,
# crystal, experimental, refinement or atomic coordinate data resulting
# from the CCDC's data processing and validation procedures.
#
#######################################################################

data_CSD_CIF_NAPPYR
_audit_creation_date 1971-12-31
_audit_creation_method CSD-ConQuest-V1
_database_code_CSD NAPPYR
_chemical_formula_sum 'C38 H18'
_chemical_formula_moiety
;
C38 H18
;
_journal_coden_Cambridge 2
_journal_year 1959
_journal_page_first 2614
_journal_name_full 'J.Chem.Soc. '
loop_
_publ_author_name
"J.M.Robertson"
"J.Trotter"
_chemical_name_systematic
;
Dinaphtho(7',1'-1,13)(1'',7''-6,8)peropyrene
;
_cell_volume   2166.760
_exptl_crystal_density_diffrn 1.446
_exptl_special_details
;
alpha polymorph

;
_diffrn_ambient_temperature ?
_diffrn_special_details
;
The study was carried out at room temperature,in the range 283-303K

;
#These two values have been output from a single CSD field.
_refine_ls_R_factor_gt 0.11
_refine_ls_wR_factor_gt 0.11
_symmetry_cell_setting monoclinic
_symmetry_space_group_name_H-M 'C 2'
_symmetry_Int_Tables_number 5
loop_
_symmetry_equiv_pos_site_id
_symmetry_equiv_pos_as_xyz
1 x,y,z
2 1/2+x,1/2+y,z
3 -x,y,-z
4 1/2-x,1/2+y,-z
_cell_length_a 30.73(5)
_cell_length_b 3.855(10)
_cell_length_c 19.87(3)
_cell_angle_alpha 90
_cell_angle_beta 113.0(5)
_cell_angle_gamma 90
_cell_formula_units_Z 4
loop_
_atom_type_symbol
_atom_type_radius_bond
C 0.68
loop_
_atom_site_label
_atom_site_type_symbol
_atom_site_fract_x
_atom_site_fract_y
_atom_site_fract_z
C1 C 0.07350 -0.32200 -0.11010
C2 C 0.11230 -0.43900 -0.12870
C3 C 0.15840 -0.37200 -0.07700
C4 C 0.16480 -0.20500 -0.00600
C5 C 0.21150 -0.13900 0.04720
C6 C 0.21910 -0.00300 0.11780
C7 C 0.17950 0.07000 0.13740
C8 C 0.18650 0.20300 0.20660
C9 C 0.14840 0.25000 0.22530
C10 C 0.10140 0.19200 0.17540
C11 C 0.06250 0.22600 0.19720
C12 C 0.01490 0.10500 0.14860
C13 C 0.00770 0.00500 0.07450
C14 C 0.04700 0.01000 0.05340
C15 C 0.09400 0.07000 0.10600
C16 C 0.13260 0.01300 0.08450
C17 C 0.12610 -0.11500 0.01250
C18 C 0.07970 -0.15500 -0.04010
C19 C -0.03930 -0.04700 0.02120
C20 C 0.10140 0.14100 -0.32460
C21 C 0.14840 0.01500 -0.27470
C22 C 0.18650 0.07100 -0.29340
C23 C 0.17950 0.20700 -0.36260
C24 C 0.21910 0.30100 -0.38220
C25 C 0.21150 0.43100 -0.45280
C26 C 0.16480 0.50900 -0.50600
C27 C 0.15840 0.64000 -0.57700
C28 C 0.11230 0.69000 -0.62870
C29 C 0.07350 0.62300 -0.61010
C30 C 0.02560 0.63700 -0.66410
C31 C -0.01490 0.52300 -0.64860
C32 C -0.00770 0.42600 -0.57450
C33 C 0.03930 0.44300 -0.52120
C34 C 0.07970 0.51000 -0.54010
C35 C 0.12610 0.45000 -0.48750
C36 C 0.13260 0.33100 -0.41550
C37 C 0.09400 0.29700 -0.39400
C38 C -0.04700 0.35600 -0.55340
C19B C 0.03930 -0.04700 -0.02120
C14B C -0.04700 0.01000 -0.05340
C18B C -0.07970 -0.15500 0.04010
C13B C -0.00770 0.00500 -0.07450
C15B C -0.09400 0.07000 -0.10600
C1B C -0.07350 -0.32200 0.11010
C17B C -0.12610 -0.11500 -0.01250
C12B C -0.01490 0.10500 -0.14860
C10B C -0.10140 0.19200 -0.17540
C16B C -0.13260 0.01300 -0.08450
C2B C -0.11230 -0.43900 0.12870
C4B C -0.16480 -0.20500 0.00600
C11B C -0.06250 0.22600 -0.19720
C9B C -0.14840 0.25000 -0.22530
C7B C -0.17950 0.07000 -0.13740
C3B C -0.15840 -0.37200 0.07700
C5B C -0.21150 -0.13900 -0.04720
C8B C -0.18650 0.20300 -0.20660
C6B C -0.21910 -0.00300 -0.11780
C38B C 0.04700 0.35600 -0.44660
C33B C -0.03930 0.44300 -0.47880
C37B C -0.09400 0.29700 -0.60600
C32B C 0.00770 0.42600 -0.42550
C34B C -0.07970 0.51000 -0.45990
C20B C -0.10140 0.14100 -0.67540
C36B C -0.13260 0.33100 -0.58450
C31B C 0.01490 0.52300 -0.35140
C29B C -0.07350 0.62300 -0.38990
C35B C -0.12610 0.45000 -0.51250
C21B C -0.14840 0.01500 -0.72530
C23B C -0.17950 0.20700 -0.63740
C30B C -0.02560 0.63700 -0.33590
C28B C -0.11230 0.69000 -0.37130
C26B C -0.16480 0.50900 -0.49400
C22B C -0.18650 0.07100 -0.70660
C24B C -0.21910 0.30100 -0.61780
C27B C -0.15840 0.64000 -0.42300
C25B C -0.21150 0.43100 -0.54720
loop_
_geom_bond_atom_site_label_1
_geom_bond_atom_site_label_2
_geom_bond_distance
_geom_bond_site_symmetry_1
_geom_bond_site_symmetry_2
C1 C2 1.451 1_555 1_555
C2 C3 1.411 1_555 1_555
C3 C4 1.492 1_555 1_555
C4 C5 1.434 1_555 1_555
C5 C6 1.429 1_555 1_555
C6 C7 1.443 1_555 1_555
C7 C8 1.403 1_555 1_555
C8 C9 1.372 1_555 1_555
C9 C10 1.414 1_555 1_555
C10 C11 1.428 1_555 1_555
C11 C12 1.478 1_555 1_555
C12 C13 1.453 1_555 1_555
C13 C14 1.425 1_555 1_555
C14 C15 1.433 1_555 1_555
C15 C10 1.389 1_555 1_555
C16 C7 1.431 1_555 1_555
C17 C4 1.418 1_555 1_555
C18 C1 1.476 1_555 1_555
C19 C13 1.433 1_555 1_555
C20 C21 1.479 1_555 1_555
C21 C22 1.377 1_555 1_555
C22 C23 1.407 1_555 1_555
C23 C24 1.461 1_555 1_555
C24 C25 1.420 1_555 1_555
C25 C26 1.443 1_555 1_555
C26 C27 1.438 1_555 1_555
C27 C28 1.401 1_555 1_555
C28 C29 1.403 1_555 1_555
C29 C30 1.445 1_555 1_555
C30 C31 1.462 1_555 1_555
C31 C32 1.450 1_555 1_555
C32 C33 1.420 1_555 1_555
C33 C34 1.454 1_555 1_555
C34 C29 1.398 1_555 1_555
C35 C26 1.394 1_555 1_555
C36 C23 1.492 1_555 1_555
C37 C20 1.439 1_555 1_555
C38 C32 1.450 1_555 1_555
C19B C14 1.424 1_555 1_555
C14B C19 1.424 1_555 1_555
C18B C19 1.490 1_555 1_555
C13B C19B 1.433 1_555 1_555
C15B C14B 1.433 1_555 1_555
C1B C18B 1.476 1_555 1_555
C17B C18B 1.409 1_555 1_555
C12B C13B 1.453 1_555 1_555
C10B C15B 1.389 1_555 1_555
C16B C15B 1.426 1_555 1_555
C2B C1B 1.451 1_555 1_555
C4B C17B 1.418 1_555 1_555
C11B C12B 1.478 1_555 1_555
C9B C10B 1.414 1_555 1_555
C7B C16B 1.431 1_555 1_555
C3B C2B 1.411 1_555 1_555
C5B C4B 1.434 1_555 1_555
C8B C9B 1.372 1_555 1_555
C6B C7B 1.443 1_555 1_555
C38B C33 1.446 1_555 1_555
C33B C38 1.446 1_555 1_555
C37B C38 1.432 1_555 1_555
C32B C38B 1.450 1_555 1_555
C34B C33B 1.454 1_555 1_555
C20B C37B 1.439 1_555 1_555
C36B C37B 1.415 1_555 1_555
C31B C32B 1.450 1_555 1_555
C29B C34B 1.398 1_555 1_555
C35B C34B 1.419 1_555 1_555
C21B C20B 1.479 1_555 1_555
C23B C36B 1.492 1_555 1_555
C30B C31B 1.462 1_555 1_555
C28B C29B 1.403 1_555 1_555
C26B C35B 1.394 1_555 1_555
C22B C21B 1.377 1_555 1_555
C24B C23B 1.461 1_555 1_555
C27B C28B 1.401 1_555 1_555
C25B C26B 1.443 1_555 1_555
C15 C16 1.426 1_555 1_555
C16 C17 1.451 1_555 1_555
C17 C18 1.409 1_555 1_555
C18 C19B 1.490 1_555 1_555
C34 C35 1.419 1_555 1_555
C35 C36 1.440 1_555 1_555
C36 C37 1.415 1_555 1_555
C37 C38B 1.432 1_555 1_555
C14B C13B 1.425 1_555 1_555
C17B C16B 1.451 1_555 1_555
C10B C11B 1.428 1_555 1_555
C4B C3B 1.492 1_555 1_555
C7B C8B 1.403 1_555 1_555
C5B C6B 1.429 1_555 1_555
C33B C32B 1.420 1_555 1_555
C36B C35B 1.440 1_555 1_555
C29B C30B 1.445 1_555 1_555
C23B C22B 1.407 1_555 1_555
C26B C27B 1.438 1_555 1_555
C24B C25B 1.420 1_555 1_555
#END
