
#######################################################################
#
#                 Cambridge Crystallographic Data Centre
#                                CCDC
#
#######################################################################
#
# If this CIF has been generated from an entry in the Cambridge
# Structural Database, then it will include bibliographic, chemical,
# crystal, experimental, refinement or atomic coordinate data resulting
# from the CCDC's data processing and validation procedures.
#
#######################################################################

data_CSD_CIF_NAZBUN
_audit_creation_date 2012-10-03
_audit_creation_method CSD-ConQuest-V1
_database_code_CSD NAZBUN
_database_code_depnum_ccdc_archive 'CCDC 848986'
_chemical_formula_sum 'C38 H26'
_chemical_formula_moiety
;
C38 H26
;
_journal_coden_Cambridge 983
_journal_volume 116
_journal_year 2012
_journal_page_first 6401
_journal_name_full 'J.Phys.Chem.C '
loop_
_publ_author_name
"Ye-Xin Li"
"Zhi Chen"
"Yu Cui"
"Guang-Ming Xia"
"Xiao-Feng Yang"
_chemical_name_systematic
;
1,4-bis[2-(9-anthracenyl)vinyl]benzene
;
_cell_volume   1251.856
_exptl_crystal_colour 'yellow'
_exptl_crystal_density_diffrn 1.28
_exptl_crystal_description 'block'
_diffrn_ambient_temperature 293
#These two values have been output from a single CSD field.
_refine_ls_R_factor_gt 0.0407
_refine_ls_wR_factor_gt 0.0407
_symmetry_cell_setting monoclinic
_symmetry_space_group_name_H-M 'P 21/c'
_symmetry_Int_Tables_number 14
loop_
_symmetry_equiv_pos_site_id
_symmetry_equiv_pos_as_xyz
1 x,y,z
2 -x,1/2+y,1/2-z
3 -x,-y,-z
4 x,-1/2-y,-1/2+z
_cell_length_a 8.1741(18)
_cell_length_b 16.331(3)
_cell_length_c 10.045(2)
_cell_angle_alpha 90
_cell_angle_beta 111.00(3)
_cell_angle_gamma 90
_cell_formula_units_Z 2
loop_
_atom_type_symbol
_atom_type_radius_bond
C 0.68
H 0.23
loop_
_atom_site_label
_atom_site_type_symbol
_atom_site_fract_x
_atom_site_fract_y
_atom_site_fract_z
C1 C 0.87096(16) 0.24400(8) 0.81209(13)
C2 C 0.82807(16) 0.32156(8) 0.74607(14)
C3 C 1.01440(16) 0.23720(8) 0.94350(14)
C4 C 0.60782(15) 0.06888(8) 0.56157(12)
C5 C 0.56130(16) 0.04920(8) 0.41753(13)
H1 H 0.60170 0.08190 0.36000
C6 C 0.93417(18) 0.39191(8) 0.80982(15)
C7 C 1.11368(17) 0.30864(9) 1.00861(14)
C8 C 0.71798(16) 0.14137(8) 0.61946(13)
H2 H 0.75790 0.17000 0.55710
C9 C 0.54312(16) 0.01758(8) 0.64197(13)
H3 H 0.57100 0.02860 0.73840
C10 C 0.76587(16) 0.16980(8) 0.75187(13)
H4 H 0.72900 0.13950 0.81440
C11 C 1.07212(19) 0.38354(9) 0.93912(16)
H5 H 1.13850 0.42940 0.98030
C12 C 0.67923(18) 0.33532(9) 0.61798(14)
H6 H 0.60380 0.29210 0.57720
C13 C 1.06692(18) 0.16097(9) 1.01521(15)
H7 H 1.00730 0.11350 0.97430
C14 C 0.6467(2) 0.41011(10) 0.55547(16)
H8 H 0.54970 0.41730 0.47240
C15 C 1.2956(2) 0.22700(13) 1.20783(16)
H9 H 1.38600 0.22300 1.29590
C16 C 1.20275(19) 0.15632(11) 1.14248(16)
H10 H 1.23460 0.10580 1.18680
C17 C 0.7580(2) 0.47751(10) 0.6144(2)
H11 H 0.73640 0.52780 0.56780
C18 C 1.2538(2) 0.30048(12) 1.14293(16)
H12 H 1.31730 0.34660 1.18640
C19 C 0.8950(2) 0.46899(9) 0.73770(18)
H13 H 0.96550 0.51410 0.77670
C1B C 0.12904(16) -0.24400(8) 0.18791(13)
C2B C 0.17193(16) -0.32156(8) 0.25393(14)
C3B C -0.01440(16) -0.23720(8) 0.05650(14)
C4B C 0.39218(15) -0.06888(8) 0.43843(12)
C5B C 0.43870(16) -0.04920(8) 0.58247(13)
H1B H 0.39830 -0.08190 0.64000
C6B C 0.06583(18) -0.39191(8) 0.19018(15)
C7B C -0.11368(17) -0.30864(9) -0.00861(14)
C8B C 0.28202(16) -0.14137(8) 0.38054(13)
H2B H 0.24210 -0.17000 0.44290
C9B C 0.45688(16) -0.01758(8) 0.35803(13)
H3B H 0.42900 -0.02860 0.26160
C10B C 0.23413(16) -0.16980(8) 0.24813(13)
H4B H 0.27100 -0.13950 0.18560
C11B C -0.07212(19) -0.38354(9) 0.06088(16)
H5B H -0.13850 -0.42940 0.01970
C12B C 0.32077(18) -0.33532(9) 0.38202(14)
H6B H 0.39620 -0.29210 0.42280
C13B C -0.06692(18) -0.16097(9) -0.01521(15)
H7B H -0.00730 -0.11350 0.02570
C14B C 0.3533(2) -0.41011(10) 0.44453(16)
H8B H 0.45030 -0.41730 0.52760
C15B C -0.2956(2) -0.22700(13) -0.20783(16)
H9B H -0.38600 -0.22300 -0.29590
C16B C -0.20275(19) -0.15632(11) -0.14248(16)
H10B H -0.23460 -0.10580 -0.18680
C17B C 0.2420(2) -0.47751(10) 0.3856(2)
H11B H 0.26360 -0.52780 0.43220
C18B C -0.2538(2) -0.30048(12) -0.14293(16)
H12B H -0.31730 -0.34660 -0.18640
C19B C 0.1050(2) -0.46899(9) 0.26230(18)
H13B H 0.03450 -0.51410 0.22330
loop_
_geom_bond_atom_site_label_1
_geom_bond_atom_site_label_2
_geom_bond_distance
_geom_bond_site_symmetry_1
_geom_bond_site_symmetry_2
C1 C2 1.414 1_555 1_555
C2 C6 1.444 1_555 1_555
C3 C1 1.421 1_555 1_555
C4 C5 1.395 1_555 1_555
C5 H1 0.930 1_555 1_555
C6 C11 1.388 1_555 1_555
C7 C3 1.438 1_555 1_555
C8 C4 1.475 1_555 1_555
H2 C8 0.930 1_555 1_555
C9 C4 1.393 1_555 1_555
H3 C9 0.930 1_555 1_555
C10 C1 1.483 1_555 1_555
H4 C10 0.931 1_555 1_555
C11 C7 1.389 1_555 1_555
H5 C11 0.930 1_555 1_555
C12 C2 1.437 1_555 1_555
H6 C12 0.930 1_555 1_555
C13 C3 1.425 1_555 1_555
H7 C13 0.929 1_555 1_555
C14 C12 1.355 1_555 1_555
H8 C14 0.930 1_555 1_555
C15 H9 0.930 1_555 1_555
C16 C13 1.362 1_555 1_555
H10 C16 0.929 1_555 1_555
C17 C14 1.416 1_555 1_555
H11 C17 0.930 1_555 1_555
C18 C7 1.429 1_555 1_555
H12 C18 0.930 1_555 1_555
C19 C6 1.430 1_555 1_555
H13 C19 0.931 1_555 1_555
C1B C2B 1.414 1_555 1_555
C2B C6B 1.444 1_555 1_555
C3B C1B 1.421 1_555 1_555
C4B C5B 1.395 1_555 1_555
C5B C9 1.382 1_555 1_555
H1B C5B 0.930 1_555 1_555
C6B C11B 1.388 1_555 1_555
C7B C3B 1.438 1_555 1_555
C8B C4B 1.475 1_555 1_555
H2B C8B 0.930 1_555 1_555
C9B C5 1.382 1_555 1_555
H3B C9B 0.930 1_555 1_555
C10B C1B 1.483 1_555 1_555
H4B C10B 0.931 1_555 1_555
C11B C7B 1.389 1_555 1_555
H5B C11B 0.930 1_555 1_555
C12B C2B 1.437 1_555 1_555
H6B C12B 0.930 1_555 1_555
C13B C3B 1.425 1_555 1_555
H7B C13B 0.929 1_555 1_555
C14B C12B 1.355 1_555 1_555
H8B C14B 0.930 1_555 1_555
C15B H9B 0.930 1_555 1_555
C16B C13B 1.362 1_555 1_555
H10B C16B 0.929 1_555 1_555
C17B C14B 1.416 1_555 1_555
H11B C17B 0.930 1_555 1_555
C18B C7B 1.429 1_555 1_555
H12B C18B 0.930 1_555 1_555
C19B C6B 1.430 1_555 1_555
H13B C19B 0.931 1_555 1_555
C8 C10 1.328 1_555 1_555
C15 C16 1.408 1_555 1_555
C15 C18 1.350 1_555 1_555
C17 C19 1.347 1_555 1_555
C4B C9B 1.393 1_555 1_555
C8B C10B 1.328 1_555 1_555
C15B C16B 1.408 1_555 1_555
C15B C18B 1.350 1_555 1_555
C17B C19B 1.347 1_555 1_555
#END
