
#######################################################################
#
#                 Cambridge Crystallographic Data Centre
#                                CCDC
#
#######################################################################
#
# If this CIF has been generated from an entry in the Cambridge
# Structural Database, then it will include bibliographic, chemical,
# crystal, experimental, refinement or atomic coordinate data resulting
# from the CCDC's data processing and validation procedures.
#
#######################################################################

data_CSD_CIF_NAZBIB
_audit_creation_date 2012-10-03
_audit_creation_method CSD-ConQuest-V1
_database_code_CSD NAZBIB
_database_code_depnum_ccdc_archive 'CCDC 848984'
_chemical_formula_sum 'C38 H26'
_chemical_formula_moiety
;
C38 H26
;
_journal_coden_Cambridge 983
_journal_volume 116
_journal_year 2012
_journal_page_first 6401
_journal_name_full 'J.Phys.Chem.C '
loop_
_publ_author_name
"Ye-Xin Li"
"Zhi Chen"
"Yu Cui"
"Guang-Ming Xia"
"Xiao-Feng Yang"
_chemical_name_systematic
;
1,2-bis[2-(9-anthracenyl)vinyl]benzene
;
_cell_volume   5136.364
_exptl_crystal_colour 'yellow'
_exptl_crystal_density_diffrn 1.248
_exptl_crystal_description 'needle'
_diffrn_ambient_temperature 291.1
#These two values have been output from a single CSD field.
_refine_ls_R_factor_gt 0.0832
_refine_ls_wR_factor_gt 0.0832
_symmetry_cell_setting monoclinic
_symmetry_space_group_name_H-M 'P 21/c'
_symmetry_Int_Tables_number 14
loop_
_symmetry_equiv_pos_site_id
_symmetry_equiv_pos_as_xyz
1 x,y,z
2 -x,1/2+y,1/2-z
3 -x,-y,-z
4 x,-1/2-y,-1/2+z
_cell_length_a 30.863(4)
_cell_length_b 6.4202(8)
_cell_length_c 26.959(4)
_cell_angle_alpha 90
_cell_angle_beta 105.943(14)
_cell_angle_gamma 90
_cell_formula_units_Z 8
loop_
_atom_type_symbol
_atom_type_radius_bond
C 0.68
H 0.23
loop_
_atom_site_label
_atom_site_type_symbol
_atom_site_fract_x
_atom_site_fract_y
_atom_site_fract_z
C1 C 0.08661(11) 0.6939(6) 0.44303(13)
C2 C -0.15959(12) 0.7224(7) 0.29920(14)
C3 C -0.16898(11) 0.9558(6) 0.36734(14)
C4 C -0.03148(11) 1.1203(6) 0.32130(13)
C5 C 0.11841(11) 0.5646(6) 0.42895(13)
C6 C 0.13489(11) 0.3804(6) 0.45755(14)
C7 C 0.11928(12) 0.3290(6) 0.49983(14)
H1 H 0.12930 0.20710 0.51800
C8 C 0.07299(11) 0.6415(6) 0.48718(14)
C9 C 0.03056(11) 0.9077(6) 0.38042(13)
H2 H 0.00970 0.80170 0.37870
C10 C 0.01463(11) 1.0886(6) 0.34677(12)
C11 C 0.08916(11) 0.4553(6) 0.51537(14)
C12 C -0.04404(12) 1.2945(6) 0.29005(13)
H3 H -0.07430 1.31370 0.27280
C13 C -0.14575(11) 0.8992(6) 0.33045(14)
C14 C -0.21461(12) 0.6430(7) 0.34625(17)
H4 H -0.23600 0.55280 0.35280
C15 C -0.20445(11) 0.8250(7) 0.37487(15)
C16 C -0.19404(12) 0.5905(7) 0.30814(16)
C17 C 0.04310(13) 0.7707(7) 0.50583(15)
H5 H 0.03210 0.89270 0.48830
C18 C -0.01307(13) 1.4395(6) 0.28383(13)
H6 H -0.02230 1.55530 0.26290
C19 C -0.06715(11) 0.9758(6) 0.32729(13)
H7 H -0.06000 0.83530 0.33260
C20 C 0.06943(12) 0.8782(6) 0.41167(14)
H8 H 0.08960 0.98840 0.41500
C21 C 0.04510(12) 1.2371(6) 0.33970(13)
H9 H 0.07550 1.21870 0.35620
C22 C 0.07418(13) 0.4071(7) 0.55990(15)
H10 H 0.08410 0.28530 0.57820
C23 C 0.04592(13) 0.5351(7) 0.57584(15)
H11 H 0.03670 0.50140 0.60490
C24 C 0.03202(12) 1.4099(6) 0.30937(14)
H12 H 0.05340 1.50700 0.30590
C25 C 0.03055(14) 0.7190(7) 0.54847(16)
H13 H 0.01140 0.80700 0.55990
C26 C -0.10872(11) 1.0351(6) 0.32557(13)
H14 H -0.11510 1.17640 0.32080
C27 C 0.17967(13) 0.2976(8) 0.39909(18)
H15 H 0.19970 0.21010 0.38900
C28 C 0.13457(12) 0.6080(7) 0.38488(15)
H16 H 0.12480 0.72780 0.36560
C29 C -0.15868(12) 1.1384(7) 0.39818(15)
H17 H -0.13470 1.22190 0.39580
C30 C -0.18301(14) 1.1932(7) 0.43098(16)
H18 H -0.17590 1.31530 0.45000
C31 C 0.16587(12) 0.2505(7) 0.44121(16)
H19 H 0.17680 0.13090 0.45990
C32 C -0.15805(16) 0.5077(8) 0.22588(18)
H20 H -0.14690 0.48130 0.19780
C33 C -0.20778(14) 0.4134(8) 0.2763(2)
H21 H -0.22890 0.32280 0.28310
C34 C 0.16381(13) 0.4783(8) 0.37062(17)
H22 H 0.17340 0.50960 0.34170
C35 C -0.21867(14) 1.0700(9) 0.43681(17)
H23 H -0.23530 1.11220 0.45900
C36 C -0.14273(13) 0.6742(7) 0.25647(16)
H24 H -0.12070 0.75880 0.24940
C37 C -0.22896(13) 0.8895(8) 0.41022(17)
H25 H -0.25220 0.80650 0.41500
C38 C -0.19082(17) 0.3738(9) 0.2362(2)
H26 H -0.20070 0.25830 0.21530
C39 C 0.32531(11) 0.9593(7) 0.38921(15)
C40 C 0.34391(11) 0.9079(6) 0.34843(15)
C41 C 0.32799(12) 0.7311(7) 0.31736(15)
C42 C 0.29599(12) 0.5943(7) 0.33099(17)
C43 C 0.49846(11) 1.1104(6) 0.34110(13)
C44 C 0.56993(11) 0.6522(6) 0.47342(14)
C45 C 0.45145(12) 1.1335(6) 0.32144(14)
C46 C 0.62885(12) 0.4056(6) 0.43517(15)
C47 C 0.29277(11) 0.8244(7) 0.40129(16)
C48 C 0.55992(12) 0.8990(6) 0.39800(15)
H27 H 0.57970 1.00680 0.39670
C49 C 0.61054(11) 0.5894(7) 0.40890(15)
C50 C 0.51786(12) 0.9302(6) 0.37367(14)
H28 H 0.49770 0.82730 0.37720
C51 C 0.58801(12) 0.4637(6) 0.49905(15)
C52 C 0.57999(11) 0.7122(6) 0.42750(14)
C53 C 0.33793(12) 1.1408(7) 0.41990(16)
H29 H 0.36010 1.22720 0.41390
C54 C 0.46331(14) 1.4542(7) 0.27929(15)
H30 H 0.45140 1.56850 0.25890
C55 C 0.61664(12) 0.3434(6) 0.47865(15)
H31 H 0.62780 0.21850 0.49460
C56 C 0.28031(12) 0.6437(8) 0.37327(18)
H32 H 0.26080 0.55200 0.38300
C57 C 0.37889(11) 1.0443(7) 0.33796(14)
H33 H 0.37230 1.18570 0.33430
C58 C 0.41882(11) 0.9857(6) 0.33320(13)
H34 H 0.42660 0.84560 0.33740
C59 C 0.33971(13) 0.6844(8) 0.27095(17)
H35 H 0.35930 0.77260 0.26030
C60 C 0.52610(13) 1.2631(7) 0.32926(14)
H36 H 0.55720 1.25040 0.34250
C61 C 0.57750(14) 0.4060(7) 0.54572(16)
H37 H 0.58860 0.28170 0.56200
C62 C 0.65946(13) 0.2838(7) 0.41563(18)
H38 H 0.67130 0.16130 0.43240
C63 C 0.50914(14) 1.4318(7) 0.29872(16)
H39 H 0.52860 1.53020 0.29120
C64 C 0.54315(12) 0.7776(7) 0.49728(16)
H40 H 0.53120 0.90240 0.48200
C65 C 0.53494(14) 0.7174(8) 0.54181(17)
H41 H 0.51760 0.80300 0.55670
C66 C 0.62339(13) 0.6455(7) 0.36358(16)
H42 H 0.61150 0.76530 0.34550
C67 C 0.27333(13) 0.8843(8) 0.44172(18)
H43 H 0.25190 0.79850 0.44970
C68 C 0.55167(14) 0.5299(8) 0.56639(17)
H44 H 0.54500 0.49120 0.59670
C69 C 0.43539(13) 1.3055(7) 0.29036(15)
H45 H 0.40440 1.32030 0.27650
C70 C 0.31862(13) 1.1913(7) 0.45746(16)
H46 H 0.32730 1.31280 0.47640
C71 C 0.32314(15) 0.5162(9) 0.24220(18)
H47 H 0.33100 0.49190 0.21180
C72 C 0.67132(15) 0.3441(9) 0.3734(2)
H48 H 0.69190 0.26510 0.36180
C73 C 0.28088(14) 0.4148(8) 0.3002(2)
H49 H 0.26150 0.32210 0.30980
C74 C 0.65300(15) 0.5247(9) 0.34655(18)
H50 H 0.66100 0.56290 0.31700
C75 C 0.28547(14) 1.0625(9) 0.46846(18)
H51 H 0.27200 1.10010 0.49410
C76 C 0.29403(16) 0.3762(9) 0.2574(2)
H52 H 0.28390 0.25740 0.23800
loop_
_geom_bond_atom_site_label_1
_geom_bond_atom_site_label_2
_geom_bond_distance
_geom_bond_site_symmetry_1
_geom_bond_site_symmetry_2
C1 C5 1.415 1_555 1_555
C2 C13 1.408 1_555 1_555
C3 C13 1.424 1_555 1_555
C4 C10 1.415 1_555 1_555
C5 C6 1.427 1_555 1_555
C6 C7 1.394 1_555 1_555
C7 H1 0.930 1_555 1_555
C8 C1 1.408 1_555 1_555
C9 H2 0.929 1_555 1_555
C10 C9 1.473 1_555 1_555
C11 C7 1.382 1_555 1_555
C12 C4 1.390 1_555 1_555
H3 C12 0.930 1_555 1_555
C13 C26 1.472 1_555 1_555
C14 H4 0.931 1_555 1_555
C15 C3 1.438 1_555 1_555
C16 C2 1.431 1_555 1_555
C17 C8 1.431 1_555 1_555
H5 C17 0.929 1_555 1_555
C18 C12 1.377 1_555 1_555
H6 C18 0.929 1_555 1_555
C19 C4 1.482 1_555 1_555
H7 C19 0.930 1_555 1_555
C20 C1 1.466 1_555 1_555
H8 C20 0.930 1_555 1_555
C21 C10 1.389 1_555 1_555
H9 C21 0.929 1_555 1_555
C22 C11 1.434 1_555 1_555
H10 C22 0.930 1_555 1_555
C23 C22 1.352 1_555 1_555
H11 C23 0.930 1_555 1_555
C24 C18 1.386 1_555 1_555
H12 C24 0.931 1_555 1_555
C25 C17 1.351 1_555 1_555
H13 C25 0.929 1_555 1_555
C26 C19 1.327 1_555 1_555
H14 C26 0.930 1_555 1_555
C27 H15 0.930 1_555 1_555
C28 C5 1.436 1_555 1_555
H16 C28 0.931 1_555 1_555
C29 C3 1.422 1_555 1_555
H17 C29 0.930 1_555 1_555
C30 C29 1.354 1_555 1_555
H18 C30 0.929 1_555 1_555
C31 C6 1.427 1_555 1_555
H19 C31 0.929 1_555 1_555
C32 H20 0.929 1_555 1_555
C33 C16 1.418 1_555 1_555
H21 C33 0.929 1_555 1_555
C34 C27 1.403 1_555 1_555
H22 C34 0.929 1_555 1_555
C35 C30 1.399 1_555 1_555
H23 C35 0.929 1_555 1_555
C36 C2 1.422 1_555 1_555
H24 C36 0.930 1_555 1_555
C37 C15 1.431 1_555 1_555
H25 C37 0.930 1_555 1_555
C38 C32 1.412 1_555 1_555
H26 C38 0.931 1_555 1_555
C39 C40 1.412 1_555 1_555
C40 C41 1.416 1_555 1_555
C41 C42 1.443 1_555 1_555
C42 C56 1.392 1_555 1_555
C43 C45 1.409 1_555 1_555
C44 C51 1.429 1_555 1_555
C45 C58 1.480 1_555 1_555
C46 C49 1.412 1_555 1_555
C47 C39 1.430 1_555 1_555
C48 H27 0.930 1_555 1_555
C49 C52 1.422 1_555 1_555
C50 C43 1.476 1_555 1_555
H28 C50 0.930 1_555 1_555
C51 C55 1.395 1_555 1_555
C52 C44 1.410 1_555 1_555
C53 C39 1.420 1_555 1_555
H29 C53 0.929 1_555 1_555
C54 H30 0.930 1_555 1_555
C55 C46 1.385 1_555 1_555
H31 C55 0.930 1_555 1_555
C56 C47 1.380 1_555 1_555
H32 C56 0.930 1_555 1_555
C57 C40 1.476 1_555 1_555
H33 C57 0.930 1_555 1_555
C58 C57 1.328 1_555 1_555
H34 C58 0.930 1_555 1_555
C59 C41 1.426 1_555 1_555
H35 C59 0.930 1_555 1_555
C60 C43 1.393 1_555 1_555
H36 C60 0.931 1_555 1_555
C61 C51 1.432 1_555 1_555
H37 C61 0.930 1_555 1_555
C62 C46 1.433 1_555 1_555
H38 C62 0.930 1_555 1_555
C63 C54 1.374 1_555 1_555
H39 C63 0.932 1_555 1_555
C64 C44 1.427 1_555 1_555
H40 C64 0.930 1_555 1_555
C65 C64 1.350 1_555 1_555
H41 C65 0.931 1_555 1_555
C66 C49 1.430 1_555 1_555
H42 C66 0.930 1_555 1_555
C67 C47 1.434 1_555 1_555
H43 C67 0.930 1_555 1_555
C68 C61 1.350 1_555 1_555
H44 C68 0.930 1_555 1_555
C69 C45 1.392 1_555 1_555
H45 C69 0.931 1_555 1_555
C70 C53 1.348 1_555 1_555
H46 C70 0.930 1_555 1_555
C71 C59 1.346 1_555 1_555
H47 C71 0.930 1_555 1_555
C72 C62 1.345 1_555 1_555
H48 C72 0.931 1_555 1_555
C73 C42 1.422 1_555 1_555
H49 C73 0.930 1_555 1_555
C74 C66 1.370 1_555 1_555
H50 C74 0.929 1_555 1_555
C75 C67 1.349 1_555 1_555
H51 C75 0.931 1_555 1_555
C76 C71 1.409 1_555 1_555
H52 C76 0.929 1_555 1_555
C8 C11 1.431 1_555 1_555
C9 C20 1.277 1_555 1_555
C14 C15 1.388 1_555 1_555
C14 C16 1.389 1_555 1_555
C21 C24 1.371 1_555 1_555
C23 C25 1.404 1_555 1_555
C27 C31 1.352 1_555 1_555
C28 C34 1.359 1_555 1_555
C32 C36 1.354 1_555 1_555
C33 C38 1.348 1_555 1_555
C35 C37 1.354 1_555 1_555
C48 C50 1.299 1_555 1_555
C48 C52 1.478 1_555 1_555
C54 C69 1.373 1_555 1_555
C60 C63 1.374 1_555 1_555
C65 C68 1.402 1_555 1_555
C70 C75 1.409 1_555 1_555
C72 C74 1.401 1_555 1_555
C73 C76 1.347 1_555 1_555
#END
