
#######################################################################
#
#                 Cambridge Crystallographic Data Centre
#                                CCDC
#
#######################################################################
#
# If this CIF has been generated from an entry in the Cambridge
# Structural Database, then it will include bibliographic, chemical,
# crystal, experimental, refinement or atomic coordinate data resulting
# from the CCDC's data processing and validation procedures.
#
#######################################################################

data_CSD_CIF_NAZBOH
_audit_creation_date 2012-10-03
_audit_creation_method CSD-ConQuest-V1
_database_code_CSD NAZBOH
_database_code_depnum_ccdc_archive 'CCDC 848985'
_chemical_formula_sum 'C38 H26'
_chemical_formula_moiety
;
C38 H26
;
_journal_coden_Cambridge 983
_journal_volume 116
_journal_year 2012
_journal_page_first 6401
_journal_name_full 'J.Phys.Chem.C '
loop_
_publ_author_name
"Ye-Xin Li"
"Zhi Chen"
"Yu Cui"
"Guang-Ming Xia"
"Xiao-Feng Yang"
_chemical_name_systematic
;
1,3-bis[2-(9-anthracenyl)vinyl]benzene
;
_cell_volume   2505.765
_exptl_crystal_colour 'yellow'
_exptl_crystal_density_diffrn 1.279
_exptl_crystal_description 'needle'
_diffrn_ambient_temperature 120.0
#These two values have been output from a single CSD field.
_refine_ls_R_factor_gt 0.0403
_refine_ls_wR_factor_gt 0.0403
_symmetry_cell_setting monoclinic
_symmetry_space_group_name_H-M 'P 21/c'
_symmetry_Int_Tables_number 14
loop_
_symmetry_equiv_pos_site_id
_symmetry_equiv_pos_as_xyz
1 x,y,z
2 -x,1/2+y,1/2-z
3 -x,-y,-z
4 x,-1/2-y,-1/2+z
_cell_length_a 6.35972(18)
_cell_length_b 13.7676(3)
_cell_length_c 28.6749(7)
_cell_angle_alpha 90
_cell_angle_beta 93.600(2)
_cell_angle_gamma 90
_cell_formula_units_Z 4
loop_
_atom_type_symbol
_atom_type_radius_bond
C 0.68
H 0.23
loop_
_atom_site_label
_atom_site_type_symbol
_atom_site_fract_x
_atom_site_fract_y
_atom_site_fract_z
C1 C 0.33073(19) 0.16926(9) 0.28384(4)
C2 C 1.1787(2) -0.24013(9) 0.04201(4)
C3 C 0.01806(19) 0.25443(9) 0.31058(4)
C4 C 0.20008(19) 0.25255(9) 0.28317(4)
C5 C -0.0276(2) 0.17403(9) 0.33774(4)
H1 H -0.14810 0.17550 0.35570
C6 C 0.2840(2) 0.08889(9) 0.31215(4)
C7 C 0.8744(2) 0.03104(9) 0.12162(4)
C8 C 0.7132(2) 0.03870(9) 0.15222(4)
H2 H 0.60550 -0.00920 0.15090
C9 C 1.0247(2) -0.07986(9) 0.06232(4)
H3 H 1.14260 -0.03810 0.06010
C10 C 0.8759(2) -0.05396(9) 0.09047(4)
H4 H 0.75630 -0.09530 0.09050
C11 C 0.0999(2) 0.09148(9) 0.33912(4)
C12 C 1.3268(2) -0.40276(10) 0.02815(5)
H5 H 1.31810 -0.46390 0.01280
C13 C 0.8472(2) -0.18917(9) 0.00091(4)
C14 C 1.0164(2) -0.17045(9) 0.03411(4)
C15 C 0.8614(2) 0.18473(9) 0.18577(4)
H6 H 0.85940 0.23670 0.20750
C16 C 0.6812(2) -0.12064(9) -0.00994(4)
H7 H 0.68360 -0.05970 0.00560
C17 C -0.1156(2) 0.3383(1) 0.30787(5)
H8 H -0.23490 0.34080 0.32620
C18 C 1.0288(2) 0.10355(9) 0.12321(4)
H9 H 1.13930 0.10090 0.10240
C19 C 1.3562(2) -0.22415(10) 0.07423(4)
H10 H 1.36900 -0.16390 0.09030
C20 C 1.5077(2) -0.29320(11) 0.08247(5)
H11 H 1.62470 -0.28020 0.10380
C21 C 0.5204(2) -0.1410(1) -0.04200(5)
H12 H 0.41210 -0.09440 -0.04830
C22 C 0.2369(2) 0.33503(9) 0.25424(4)
H13 H 0.35670 0.33570 0.23600
C23 C 1.1657(2) -0.33181(9) 0.01790(4)
C24 C 1.0211(2) 0.17922(10) 0.15499(5)
H14 H 1.12670 0.22810 0.15570
C25 C 0.7035(2) 0.11397(9) 0.18479(4)
C26 C 0.1032(2) 0.41243(10) 0.25239(5)
H15 H 0.12980 0.46580 0.23260
C27 C 0.5321(2) 0.1144(1) 0.21690(5)
H16 H 0.42160 0.06930 0.21000
C28 C 0.0518(2) 0.00873(10) 0.36683(5)
H17 H -0.06960 0.00990 0.38450
C29 C -0.0749(2) 0.4141(1) 0.27963(5)
H18 H -0.16650 0.46870 0.27810
C30 C 0.9965(2) -0.34937(9) -0.01432(4)
H19 H 0.98830 -0.41000 -0.03020
C31 C 1.4917(2) -0.38449(11) 0.05937(5)
H20 H 1.59630 -0.43280 0.06580
C32 C 0.8386(2) -0.28023(9) -0.02395(4)
C33 C 0.6666(2) -0.29814(10) -0.05747(5)
H21 H 0.66010 -0.35810 -0.07390
C34 C 0.3614(3) -0.07357(10) 0.34267(5)
H22 H 0.44950 -0.12930 0.34420
C35 C 0.5124(2) -0.23105(11) -0.06623(5)
H23 H 0.39930 -0.24440 -0.08850
C36 C 0.5120(2) 0.16862(10) 0.25364(4)
H24 H 0.62440 0.21200 0.26190
C37 C 0.4132(2) 0.00359(10) 0.31591(4)
H25 H 0.53780 0.00080 0.29940
C38 C 0.1769(3) -0.07158(10) 0.36828(5)
H26 H 0.14110 -0.12630 0.38640
loop_
_geom_bond_atom_site_label_1
_geom_bond_atom_site_label_2
_geom_bond_distance
_geom_bond_site_symmetry_1
_geom_bond_site_symmetry_2
C1 C4 1.416 1_555 1_555
C2 C14 1.417 1_555 1_555
C3 C4 1.440 1_555 1_555
C4 C22 1.434 1_555 1_555
C5 C3 1.394 1_555 1_555
H1 C5 0.950 1_555 1_555
C6 C1 1.415 1_555 1_555
C7 C8 1.395 1_555 1_555
C8 H2 0.950 1_555 1_555
C9 H3 0.950 1_555 1_555
C10 C7 1.473 1_555 1_555
H4 C10 0.950 1_555 1_555
C11 C5 1.395 1_555 1_555
C12 H5 0.950 1_555 1_555
C13 C14 1.415 1_555 1_555
C14 C9 1.486 1_555 1_555
C15 H6 0.949 1_555 1_555
C16 C13 1.435 1_555 1_555
H7 C16 0.950 1_555 1_555
C17 C3 1.433 1_555 1_555
H8 C17 0.950 1_555 1_555
C18 C7 1.399 1_555 1_555
H9 C18 0.951 1_555 1_555
C19 C2 1.430 1_555 1_555
H10 C19 0.950 1_555 1_555
C20 C19 1.364 1_555 1_555
H11 C20 0.950 1_555 1_555
C21 C16 1.361 1_555 1_555
H12 C21 0.950 1_555 1_555
C22 H13 0.951 1_555 1_555
C23 C2 1.439 1_555 1_555
C24 C15 1.389 1_555 1_555
H14 C24 0.950 1_555 1_555
C25 C8 1.399 1_555 1_555
C26 C22 1.362 1_555 1_555
H15 C26 0.950 1_555 1_555
C27 C25 1.470 1_555 1_555
H16 C27 0.949 1_555 1_555
C28 C11 1.433 1_555 1_555
H17 C28 0.950 1_555 1_555
C29 C17 1.356 1_555 1_555
H18 C29 0.950 1_555 1_555
C30 C23 1.395 1_555 1_555
H19 C30 0.951 1_555 1_555
C31 C12 1.359 1_555 1_555
H20 C31 0.951 1_555 1_555
C32 C13 1.442 1_555 1_555
C33 C32 1.431 1_555 1_555
H21 C33 0.950 1_555 1_555
C34 H22 0.949 1_555 1_555
C35 C21 1.421 1_555 1_555
H23 C35 0.949 1_555 1_555
C36 C1 1.485 1_555 1_555
H24 C36 0.950 1_555 1_555
C37 C6 1.433 1_555 1_555
H25 C37 0.949 1_555 1_555
C38 C28 1.361 1_555 1_555
H26 C38 0.951 1_555 1_555
C6 C11 1.444 1_555 1_555
C9 C10 1.330 1_555 1_555
C12 C23 1.433 1_555 1_555
C15 C25 1.398 1_555 1_555
C18 C24 1.387 1_555 1_555
C20 C31 1.421 1_555 1_555
C26 C29 1.416 1_555 1_555
C27 C36 1.304 1_555 1_555
C30 C32 1.399 1_555 1_555
C33 C35 1.359 1_555 1_555
C34 C37 1.363 1_555 1_555
C34 C38 1.423 1_555 1_555
#END
