
#######################################################################
#
#                 Cambridge Crystallographic Data Centre
#                                CCDC
#
#######################################################################
#
# If this CIF has been generated from an entry in the Cambridge
# Structural Database, then it will include bibliographic, chemical,
# crystal, experimental, refinement or atomic coordinate data resulting
# from the CCDC's data processing and validation procedures.
#
#######################################################################

data_CSD_CIF_NEGCAF
_audit_creation_date 2012-10-16
_audit_creation_method CSD-ConQuest-V1
_database_code_CSD NEGCAF
_database_code_depnum_ccdc_archive 'CCDC 866843'
_chemical_formula_sum 'C48 H28'
_chemical_formula_moiety
;
C48 H28
;
_journal_coden_Cambridge 1220
_journal_volume 18
_journal_year 2012
_journal_page_first 8964
_journal_name_full 'Chem.-Eur.J. '
loop_
_publ_author_name
"J.Nishida"
"S.Tsukaguchi"
"Y.Yamashita"
_chemical_name_systematic
;
6,12-bis(9-Anthryl)indeno[1,2-b]fluorene
;
_cell_volume   3023.473
_exptl_crystal_colour 'black'
_exptl_crystal_density_diffrn 1.328
_exptl_crystal_description 'block'
_diffrn_ambient_temperature 93.1
#These two values have been output from a single CSD field.
_refine_ls_R_factor_gt 0.0613
_refine_ls_wR_factor_gt 0.0613
_symmetry_cell_setting monoclinic
_symmetry_space_group_name_H-M 'C 2/c'
_symmetry_Int_Tables_number 15
loop_
_symmetry_equiv_pos_site_id
_symmetry_equiv_pos_as_xyz
1 x,y,z
2 -x,y,1/2-z
3 1/2+x,1/2+y,z
4 1/2-x,1/2+y,1/2-z
5 -x,-y,-z
6 x,-y,-1/2+z
7 -1/2-x,-1/2-y,-z
8 -1/2+x,-1/2-y,-1/2+z
_cell_length_a 20.6738(20)
_cell_length_b 8.3161(8)
_cell_length_c 17.5904(19)
_cell_angle_alpha 90
_cell_angle_beta 91.287(3)
_cell_angle_gamma 90
_cell_formula_units_Z 4
loop_
_atom_type_symbol
_atom_type_radius_bond
C 0.68
H 0.23
loop_
_atom_site_label
_atom_site_type_symbol
_atom_site_fract_x
_atom_site_fract_y
_atom_site_fract_z
C1 C 0.95002(10) 0.5219(2) 0.55119(15)
C2 C 0.90611(11) 0.5741(2) 0.60338(15)
C3 C 0.92302(11) 0.7392(2) 0.62608(15)
C4 C 0.89411(11) 0.8427(2) 0.67662(15)
C5 C 0.92115(11) 0.9947(2) 0.68778(16)
C6 C 0.97551(12) 1.0420(2) 0.64786(16)
C7 C 1.00422(11) 0.9384(2) 0.59576(16)
C8 C 0.97832(10) 0.7866(2) 0.58538(14)
C9 C 0.99666(11) 0.6508(2) 0.53696(15)
C10 C 1.04477(11) 0.6292(2) 0.48663(15)
C11 C 0.8492(1) 0.4822(2) 0.63072(15)
C12 C 0.79484(10) 0.4641(2) 0.58208(15)
C13 C 0.78909(11) 0.5428(2) 0.51035(16)
C14 C 0.73459(12) 0.5295(2) 0.46565(16)
C15 C 0.68146(11) 0.4345(2) 0.49027(17)
C16 C 0.68524(11) 0.3563(2) 0.55744(16)
C17 C 0.74105(11) 0.3679(2) 0.60643(15)
C18 C 0.74504(11) 0.2900(2) 0.67618(15)
C19 C 0.79780(11) 0.3100(2) 0.72606(15)
C20 C 0.80111(11) 0.2339(2) 0.79829(15)
C21 C 0.85185(13) 0.2594(3) 0.84746(16)
C22 C 0.90317(13) 0.3650(3) 0.82744(17)
C23 C 0.90279(11) 0.4364(2) 0.75740(16)
C24 C 0.85089(11) 0.4124(2) 0.70358(15)
H1 H 0.85610 0.80720 0.71200
H2 H 0.90130 1.06880 0.72380
H3 H 0.99090 1.15020 0.65690
H4 H 1.04220 0.96570 0.56520
H5 H 1.06950 0.71540 0.47750
H6 H 0.82670 0.60440 0.49590
H7 H 0.73000 0.59670 0.41130
H8 H 0.64190 0.42570 0.45060
H9 H 0.64930 0.29300 0.57680
H10 H 0.70770 0.21700 0.69070
H11 H 0.76610 0.15530 0.80990
H12 H 0.85460 0.19810 0.90280
H13 H 0.94120 0.38910 0.86910
H14 H 0.93650 0.50880 0.74210
C1D C 1.04998(10) 0.4781(2) 0.44881(15)
C2D C 1.09389(11) 0.4259(2) 0.39662(15)
C3D C 1.07698(11) 0.2608(2) 0.37392(15)
C4D C 1.10589(11) 0.1573(2) 0.32338(15)
C5D C 1.07885(11) 0.0053(2) 0.31222(16)
C6D C 1.02449(12) -0.0420(2) 0.35214(16)
C7D C 0.99578(11) 0.0616(2) 0.40424(16)
C8D C 1.02168(10) 0.2134(2) 0.41462(14)
C9D C 1.00334(11) 0.3492(2) 0.46304(15)
C10D C 0.95523(11) 0.3708(2) 0.51337(15)
C11D C 1.1508(1) 0.5178(2) 0.36928(15)
C12D C 1.20516(10) 0.5359(2) 0.41792(15)
C13D C 1.21091(11) 0.4572(2) 0.48965(16)
C14D C 1.26541(12) 0.4705(2) 0.53435(16)
C15D C 1.31854(11) 0.5655(2) 0.50973(17)
C16D C 1.31476(11) 0.6437(2) 0.44256(16)
C17D C 1.25895(11) 0.6321(2) 0.39357(15)
C18D C 1.25496(11) 0.7100(2) 0.32382(15)
C19D C 1.20220(11) 0.6900(2) 0.27394(15)
C20D C 1.19889(11) 0.7661(2) 0.20171(15)
C21D C 1.14815(13) 0.7406(3) 0.15254(16)
C22D C 1.09683(13) 0.6350(3) 0.17256(17)
C23D C 1.09721(11) 0.5636(2) 0.24260(16)
C24D C 1.14911(11) 0.5876(2) 0.29642(15)
H1D H 1.14390 0.19280 0.28800
H2D H 1.09870 -0.06880 0.27620
H3D H 1.00910 -0.15020 0.34310
H4D H 0.95780 0.03430 0.43480
H5D H 0.93050 0.28460 0.52250
H6D H 1.17330 0.39560 0.50410
H7D H 1.27000 0.40330 0.58870
H8D H 1.35810 0.57430 0.54940
H9D H 1.35070 0.70700 0.42320
H10D H 1.29230 0.78300 0.30930
H11D H 1.23390 0.84470 0.19010
H12D H 1.14540 0.80190 0.09720
H13D H 1.05880 0.61090 0.13090
H14D H 1.06350 0.49120 0.25790
loop_
_geom_bond_atom_site_label_1
_geom_bond_atom_site_label_2
_geom_bond_distance
_geom_bond_site_symmetry_1
_geom_bond_site_symmetry_2
C1 C2 1.376 1_555 1_555
C2 C3 1.470 1_555 1_555
C3 C4 1.383 1_555 1_555
C4 C5 1.394 1_555 1_555
C5 C6 1.395 1_555 1_555
C6 C7 1.400 1_555 1_555
C7 C8 1.382 1_555 1_555
C8 C3 1.418 1_555 1_555
C9 C1 1.467 1_555 1_555
C10 C9 1.358 1_555 1_555
C11 C2 1.492 1_555 1_555
C12 C11 1.405 1_555 1_555
C13 C12 1.424 1_555 1_555
C14 C13 1.364 1_555 1_555
C15 C14 1.428 1_555 1_555
C16 C15 1.349 1_555 1_555
C17 C12 1.443 1_555 1_555
C18 C17 1.388 1_555 1_555
C19 C18 1.394 1_555 1_555
C20 C19 1.420 1_555 1_555
C21 C20 1.361 1_555 1_555
C22 C21 1.427 1_555 1_555
C23 C22 1.368 1_555 1_555
C24 C11 1.407 1_555 1_555
H1 C4 1.055 1_555 1_555
H2 C5 0.980 1_555 1_555
H3 C6 0.966 1_555 1_555
H4 C7 0.988 1_555 1_555
H5 C10 0.897 1_555 1_555
H6 C13 0.970 1_555 1_555
H7 C14 1.110 1_555 1_555
H8 C15 1.066 1_555 1_555
H9 C16 0.978 1_555 1_555
H10 C18 1.019 1_555 1_555
H11 C20 1.000 1_555 1_555
H12 C21 1.099 1_555 1_555
H13 C22 1.081 1_555 1_555
H14 C23 0.964 1_555 1_555
C1D C10 1.427 1_555 1_555
C2D C1D 1.376 1_555 1_555
C3D C2D 1.470 1_555 1_555
C4D C3D 1.383 1_555 1_555
C5D C4D 1.394 1_555 1_555
C6D C5D 1.395 1_555 1_555
C7D C6D 1.400 1_555 1_555
C8D C3D 1.418 1_555 1_555
C9D C1D 1.467 1_555 1_555
C10D C1 1.427 1_555 1_555
C11D C2D 1.492 1_555 1_555
C12D C11D 1.405 1_555 1_555
C13D C12D 1.424 1_555 1_555
C14D C13D 1.364 1_555 1_555
C15D C14D 1.428 1_555 1_555
C16D C15D 1.349 1_555 1_555
C17D C12D 1.443 1_555 1_555
C18D C17D 1.388 1_555 1_555
C19D C18D 1.394 1_555 1_555
C20D C19D 1.420 1_555 1_555
C21D C20D 1.361 1_555 1_555
C22D C21D 1.427 1_555 1_555
C23D C22D 1.368 1_555 1_555
C24D C11D 1.407 1_555 1_555
H1D C4D 1.055 1_555 1_555
H2D C5D 0.980 1_555 1_555
H3D C6D 0.966 1_555 1_555
H4D C7D 0.988 1_555 1_555
H5D C10D 0.897 1_555 1_555
H6D C13D 0.970 1_555 1_555
H7D C14D 1.110 1_555 1_555
H8D C15D 1.066 1_555 1_555
H9D C16D 0.978 1_555 1_555
H10D C18D 1.019 1_555 1_555
H11D C20D 1.000 1_555 1_555
H12D C21D 1.099 1_555 1_555
H13D C22D 1.081 1_555 1_555
H14D C23D 0.964 1_555 1_555
C8 C9 1.469 1_555 1_555
C16 C17 1.428 1_555 1_555
C19 C24 1.451 1_555 1_555
C23 C24 1.429 1_555 1_555
C7D C8D 1.382 1_555 1_555
C8D C9D 1.469 1_555 1_555
C9D C10D 1.358 1_555 1_555
C16D C17D 1.428 1_555 1_555
C19D C24D 1.451 1_555 1_555
C23D C24D 1.429 1_555 1_555
#END
