
#######################################################################
#
#                 Cambridge Crystallographic Data Centre
#                                CCDC
#
#######################################################################
#
# If this CIF has been generated from an entry in the Cambridge
# Structural Database, then it will include bibliographic, chemical,
# crystal, experimental, refinement or atomic coordinate data resulting
# from the CCDC's data processing and validation procedures.
#
#######################################################################

data_CSD_CIF_NEGJIV
_audit_creation_date 2017-08-09
_audit_creation_method CSD-ConQuest-V1
_database_code_CSD NEGJIV
_database_code_depnum_ccdc_archive 'CCDC 1531485'
_chemical_formula_sum 'C62 H56'
_chemical_formula_moiety
;
C62 H56
;
_journal_coden_Cambridge 4
_journal_volume 139
_journal_year 2017
_journal_page_first 7513
_journal_name_full 'J.Am.Chem.Soc. '
loop_
_publ_author_name
"Junzhi Liu"
"Ji Ma"
"Ke Zhang"
"P.Ravat"
"P.Machata"
"S.Avdoshenko"
"F.Hennersdorf"
"H.Komber"
"W.Pisula"
"J.J.Weigand"
"A.A.Popov"
"R.Berger"
"K.Mullen"
"Xinliang Feng"
_chemical_name_systematic
;
6,12-bis(4-t-butylphenyl)-4,10-bis(2,4,6-trimethylphenyl)cyclopenta[pqr]indeno
[2,1,7-ijk]tetraphene
;
_cell_volume   2228.536
_exptl_crystal_colour 'red'
_exptl_crystal_density_diffrn 1.194
_exptl_crystal_description 'plate'
_diffrn_ambient_temperature 100
#These two values have been output from a single CSD field.
_refine_ls_R_factor_gt 0.0767
_refine_ls_wR_factor_gt 0.0767
_symmetry_cell_setting monoclinic
_symmetry_space_group_name_H-M 'P 21/c'
_symmetry_Int_Tables_number 14
loop_
_symmetry_equiv_pos_site_id
_symmetry_equiv_pos_as_xyz
1 x,y,z
2 -x,1/2+y,1/2-z
3 -x,-y,-z
4 x,-1/2-y,-1/2+z
_cell_length_a 15.4981(17)
_cell_length_b 9.1422(7)
_cell_length_c 15.9220(12)
_cell_angle_alpha 90
_cell_angle_beta 98.939(10)
_cell_angle_gamma 90
_cell_formula_units_Z 2
loop_
_atom_type_symbol
_atom_type_radius_bond
C 0.68
H 0.23
loop_
_atom_site_label
_atom_site_type_symbol
_atom_site_fract_x
_atom_site_fract_y
_atom_site_fract_z
C1 C 0.7985(2) 0.3096(3) 0.66000(18)
C2 C 0.5780(2) 0.2201(3) 0.39704(17)
C3 C 0.5819(2) 0.4866(3) 0.56399(17)
C4 C 0.7180(2) 0.3412(3) 0.59922(18)
C5 C 0.6165(2) 0.2908(3) 0.47281(18)
C6 C 0.6948(2) 0.2556(3) 0.52272(18)
C7 C 0.6622(2) 0.4529(3) 0.61724(18)
H1 H 0.67810 0.50790 0.66630
C8 C 0.4303(2) 0.2436(3) 0.29351(17)
C9 C 0.4500(2) 0.2599(3) 0.21094(17)
C10 C 0.4834(2) 0.4028(3) 0.42543(17)
C11 C 0.5606(2) 0.4023(3) 0.49174(18)
C12 C 0.3532(2) 0.1725(3) 0.30691(18)
C13 C 0.4937(2) 0.2925(3) 0.36845(17)
C14 C 0.3898(2) 0.2088(3) 0.14232(18)
H2 H 0.40210 0.21990 0.08740
C15 C 0.2958(2) 0.1235(3) 0.23673(19)
H3 H 0.24450 0.07680 0.24530
C16 C 0.9501(2) 0.2567(3) 0.7810(2)
C17 C 0.8794(2) 0.2908(3) 0.63513(19)
H4 H 0.88420 0.29570 0.57770
C18 C 0.6230(2) 0.1033(3) 0.36996(18)
H5 H 0.60090 0.05220 0.32080
C19 C 0.5330(2) 0.3337(4) 0.19527(19)
H6 H 0.54280 0.41960 0.23010
H7 H 0.52780 0.36090 0.13650
H8 H 0.58120 0.26760 0.20930
C20 C 0.3126(2) 0.1423(3) 0.15424(19)
C21 C 0.7397(2) 0.1349(3) 0.49255(19)
H9 H 0.79310 0.10460 0.52240
C22 C 0.7039(2) 0.0634(3) 0.41913(19)
H10 H 0.73430 -0.01510 0.40090
C23 C 0.7943(2) 0.2993(4) 0.74663(19)
H11 H 0.74070 0.30870 0.76550
C24 C 0.9541(2) 0.2648(3) 0.6944(2)
H12 H 1.00760 0.25260 0.67570
C25 C 0.8691(2) 0.2753(4) 0.8050(2)
H13 H 0.86440 0.27160 0.86250
C26 C 0.3322(2) 0.1460(4) 0.39490(19)
H14 H 0.38050 0.09750 0.42870
H15 H 0.28110 0.08570 0.39130
H16 H 0.32170 0.23780 0.42070
C27 C 1.0319(2) 0.2324(4) 0.8477(2)
C28 C 0.2458(2) 0.0931(4) 0.0795(2)
H17 H 0.20620 0.17200 0.06180
H18 H 0.21370 0.01100 0.09620
H19 H 0.27520 0.06520 0.03320
C29 C 1.0110(3) 0.1251(4) 0.9156(2)
H20 H 0.96830 0.16760 0.94590
H21 H 1.06330 0.10430 0.95460
H22 H 0.98840 0.03600 0.88880
C30 C 1.1080(2) 0.1717(4) 0.8083(2)
H23 H 1.09140 0.07990 0.78120
H24 H 1.15740 0.15740 0.85190
H25 H 1.12300 0.23950 0.76690
C31 C 1.0586(3) 0.3806(5) 0.8902(3)
H26 H 1.07480 0.44690 0.84860
H27 H 1.10730 0.36660 0.93470
H28 H 1.01030 0.42050 0.91370
C1B C 0.2015(2) 0.6904(3) 0.34000(18)
C2B C 0.4220(2) 0.7799(3) 0.60296(17)
C3B C 0.4181(2) 0.5134(3) 0.43601(17)
C4B C 0.2820(2) 0.6588(3) 0.40078(18)
C5B C 0.3835(2) 0.7092(3) 0.52719(18)
C6B C 0.3052(2) 0.7444(3) 0.47728(18)
C7B C 0.3378(2) 0.5471(3) 0.38276(18)
H1B H 0.32190 0.49210 0.33370
C8B C 0.5697(2) 0.7564(3) 0.70649(17)
C9B C 0.5500(2) 0.7401(3) 0.78906(17)
C10B C 0.5166(2) 0.5972(3) 0.57457(17)
C11B C 0.4394(2) 0.5977(3) 0.50826(18)
C12B C 0.6468(2) 0.8275(3) 0.69309(18)
C13B C 0.5063(2) 0.7075(3) 0.63155(17)
C14B C 0.6102(2) 0.7912(3) 0.85768(18)
H2B H 0.59790 0.78010 0.91260
C15B C 0.7042(2) 0.8765(3) 0.76327(19)
H3B H 0.75550 0.92320 0.75470
C16B C 0.0499(2) 0.7433(3) 0.2190(2)
C17B C 0.1206(2) 0.7092(3) 0.36487(19)
H4B H 0.11580 0.70430 0.42230
C18B C 0.3770(2) 0.8967(3) 0.63004(18)
H5B H 0.39910 0.94780 0.67920
C19B C 0.4670(2) 0.6663(4) 0.80473(19)
H6B H 0.45720 0.58040 0.76990
H7B H 0.47220 0.63910 0.86350
H8B H 0.41880 0.73240 0.79070
C20B C 0.6874(2) 0.8577(3) 0.84576(19)
C21B C 0.2603(2) 0.8651(3) 0.50745(19)
H9B H 0.20690 0.89540 0.47760
C22B C 0.2961(2) 0.9366(3) 0.58087(19)
H10B H 0.26570 1.01510 0.59910
C23B C 0.2057(2) 0.7007(4) 0.25337(19)
H11B H 0.25930 0.69130 0.23450
C24B C 0.0459(2) 0.7352(3) 0.3056(2)
H12B H -0.00760 0.74740 0.32430
C25B C 0.1309(2) 0.7247(4) 0.1950(2)
H13B H 0.13560 0.72840 0.13750
C26B C 0.6678(2) 0.8540(4) 0.60510(19)
H14B H 0.61950 0.90250 0.57130
H15B H 0.71890 0.91430 0.60870
H16B H 0.67830 0.76220 0.57930
C27B C -0.0319(2) 0.7676(4) 0.1523(2)
C28B C 0.7542(2) 0.9069(4) 0.9205(2)
H17B H 0.79380 0.82800 0.93820
H18B H 0.78630 0.98900 0.90380
H19B H 0.72480 0.93480 0.96680
C29B C -0.0110(3) 0.8749(4) 0.0844(2)
H20B H 0.03170 0.83240 0.05410
H21B H -0.06330 0.89570 0.04540
H22B H 0.01160 0.96400 0.11120
C30B C -0.1080(2) 0.8283(4) 0.1917(2)
H23B H -0.09140 0.92010 0.21880
H24B H -0.15740 0.84260 0.14810
H25B H -0.12300 0.76050 0.23310
C31B C -0.0586(3) 0.6194(5) 0.1098(3)
H26B H -0.07480 0.55310 0.15140
H27B H -0.10730 0.63340 0.06530
H28B H -0.01030 0.57950 0.08630
loop_
_geom_bond_atom_site_label_1
_geom_bond_atom_site_label_2
_geom_bond_distance
_geom_bond_site_symmetry_1
_geom_bond_site_symmetry_2
C1 C4 1.484 1_555 1_555
C2 C5 1.416 1_555 1_555
C3 C7 1.426 1_555 1_555
C4 C6 1.445 1_555 1_555
C5 C6 1.381 1_555 1_555
C6 C21 1.427 1_555 1_555
C7 C4 1.396 1_555 1_555
H1 C7 0.929 1_555 1_555
C8 C9 1.403 1_555 1_555
C9 C14 1.402 1_555 1_555
C10 C11 1.468 1_555 1_555
C11 C3 1.381 1_555 1_555
C12 C8 1.405 1_555 1_555
C13 C2 1.472 1_555 1_555
C14 H2 0.929 1_555 1_555
C15 C12 1.390 1_555 1_555
H3 C15 0.931 1_555 1_555
C16 C24 1.392 1_555 1_555
C17 C1 1.383 1_555 1_555
H4 C17 0.930 1_555 1_555
C18 C2 1.381 1_555 1_555
H5 C18 0.930 1_555 1_555
C19 C9 1.507 1_555 1_555
H6 C19 0.960 1_555 1_555
H7 C19 0.959 1_555 1_555
H8 C19 0.960 1_555 1_555
C20 C14 1.381 1_555 1_555
C21 H9 0.930 1_555 1_555
C22 C18 1.419 1_555 1_555
H10 C22 0.929 1_555 1_555
C23 C1 1.394 1_555 1_555
H11 C23 0.930 1_555 1_555
C24 C17 1.396 1_555 1_555
H12 C24 0.930 1_555 1_555
C25 C16 1.378 1_555 1_555
H13 C25 0.930 1_555 1_555
C26 C12 1.506 1_555 1_555
H14 C26 0.960 1_555 1_555
H15 C26 0.959 1_555 1_555
H16 C26 0.959 1_555 1_555
C27 C16 1.538 1_555 1_555
C28 C20 1.519 1_555 1_555
H17 C28 0.961 1_555 1_555
H18 C28 0.961 1_555 1_555
H19 C28 0.959 1_555 1_555
C29 C27 1.531 1_555 1_555
H20 C29 0.960 1_555 1_555
H21 C29 0.960 1_555 1_555
H22 C29 0.960 1_555 1_555
C30 C27 1.524 1_555 1_555
H23 C30 0.960 1_555 1_555
H24 C30 0.959 1_555 1_555
H25 C30 0.959 1_555 1_555
C31 C27 1.542 1_555 1_555
H26 C31 0.960 1_555 1_555
H27 C31 0.960 1_555 1_555
H28 C31 0.959 1_555 1_555
C1B C4B 1.484 1_555 1_555
C2B C5B 1.416 1_555 1_555
C3B C10 1.459 1_555 1_555
C4B C6B 1.445 1_555 1_555
C5B C6B 1.381 1_555 1_555
C6B C21B 1.427 1_555 1_555
C7B C3B 1.426 1_555 1_555
H1B C7B 0.929 1_555 1_555
C8B C9B 1.403 1_555 1_555
C9B C14B 1.402 1_555 1_555
C10B C3 1.459 1_555 1_555
C11B C3B 1.381 1_555 1_555
C12B C8B 1.405 1_555 1_555
C13B C2B 1.472 1_555 1_555
C14B H2B 0.929 1_555 1_555
C15B C12B 1.390 1_555 1_555
H3B C15B 0.931 1_555 1_555
C16B C24B 1.392 1_555 1_555
C17B C1B 1.383 1_555 1_555
H4B C17B 0.930 1_555 1_555
C18B C2B 1.381 1_555 1_555
H5B C18B 0.930 1_555 1_555
C19B C9B 1.507 1_555 1_555
H6B C19B 0.960 1_555 1_555
H7B C19B 0.959 1_555 1_555
H8B C19B 0.960 1_555 1_555
C20B C14B 1.381 1_555 1_555
C21B H9B 0.930 1_555 1_555
C22B C18B 1.419 1_555 1_555
H10B C22B 0.929 1_555 1_555
C23B C1B 1.394 1_555 1_555
H11B C23B 0.930 1_555 1_555
C24B C17B 1.396 1_555 1_555
H12B C24B 0.930 1_555 1_555
C25B C16B 1.378 1_555 1_555
H13B C25B 0.930 1_555 1_555
C26B C12B 1.506 1_555 1_555
H14B C26B 0.960 1_555 1_555
H15B C26B 0.959 1_555 1_555
H16B C26B 0.959 1_555 1_555
C27B C16B 1.538 1_555 1_555
C28B C20B 1.519 1_555 1_555
H17B C28B 0.961 1_555 1_555
H18B C28B 0.961 1_555 1_555
H19B C28B 0.959 1_555 1_555
C29B C27B 1.531 1_555 1_555
H20B C29B 0.960 1_555 1_555
H21B C29B 0.960 1_555 1_555
H22B C29B 0.960 1_555 1_555
C30B C27B 1.524 1_555 1_555
H23B C30B 0.960 1_555 1_555
H24B C30B 0.959 1_555 1_555
H25B C30B 0.959 1_555 1_555
C31B C27B 1.542 1_555 1_555
H26B C31B 0.960 1_555 1_555
H27B C31B 0.960 1_555 1_555
H28B C31B 0.959 1_555 1_555
C5 C11 1.401 1_555 1_555
C8 C13 1.492 1_555 1_555
C10 C13 1.382 1_555 1_555
C15 C20 1.389 1_555 1_555
C21 C22 1.378 1_555 1_555
C23 C25 1.386 1_555 1_555
C4B C7B 1.396 1_555 1_555
C5B C11B 1.401 1_555 1_555
C8B C13B 1.492 1_555 1_555
C10B C11B 1.468 1_555 1_555
C10B C13B 1.382 1_555 1_555
C15B C20B 1.389 1_555 1_555
C21B C22B 1.378 1_555 1_555
C23B C25B 1.386 1_555 1_555
#END
