
#######################################################################
#
#                 Cambridge Crystallographic Data Centre
#                                CCDC
#
#######################################################################
#
# If this CIF has been generated from an entry in the Cambridge
# Structural Database, then it will include bibliographic, chemical,
# crystal, experimental, refinement or atomic coordinate data resulting
# from the CCDC's data processing and validation procedures.
#
#######################################################################

data_CSD_CIF_NEHYUW
_audit_creation_date 2012-10-03
_audit_creation_method CSD-ConQuest-V1
_database_code_CSD NEHYUW
_database_code_depnum_ccdc_archive 'CCDC 871741'
_chemical_formula_sum 'C24 H20'
_chemical_formula_moiety
;
C24 H20
;
_journal_coden_Cambridge 16
_journal_volume 68
_journal_year 2012
_journal_page_first 6305
_journal_name_full 'Tetrahedron '
loop_
_publ_author_name
"Z.Hassan"
"M.Hussain"
"A.Villinger"
"P.Langer"
_chemical_name_systematic
;
1,2-bis(4-methylphenyl)naphthalene
;
_cell_volume   1777.001
_exptl_crystal_colour 'colorless'
_exptl_crystal_density_diffrn 1.153
_exptl_crystal_description 'needle'
_diffrn_ambient_temperature 173
#These two values have been output from a single CSD field.
_refine_ls_R_factor_gt 0.0492
_refine_ls_wR_factor_gt 0.0492
_symmetry_cell_setting monoclinic
_symmetry_space_group_name_H-M 'P 21/c'
_symmetry_Int_Tables_number 14
loop_
_symmetry_equiv_pos_site_id
_symmetry_equiv_pos_as_xyz
1 x,y,z
2 -x,1/2+y,1/2-z
3 -x,-y,-z
4 x,-1/2-y,-1/2+z
_cell_length_a 6.562(2)
_cell_length_b 10.835(3)
_cell_length_c 25.028(8)
_cell_angle_alpha 90
_cell_angle_beta 93.020(15)
_cell_angle_gamma 90
_cell_formula_units_Z 4
loop_
_atom_type_symbol
_atom_type_radius_bond
C 0.68
H 0.23
loop_
_atom_site_label
_atom_site_type_symbol
_atom_site_fract_x
_atom_site_fract_y
_atom_site_fract_z
C1 C 1.2747(2) 0.38598(13) 0.15460(6)
C2 C 1.1136(2) 0.31780(13) 0.12588(6)
C3 C 0.9893(2) 0.37653(13) 0.08624(6)
C4 C 1.0247(3) 0.50443(14) 0.07435(6)
H1 H 0.93930 0.54450 0.04790
C5 C 1.1792(3) 0.56981(15) 0.10037(7)
H2 H 1.20040 0.65370 0.09120
C6 C 1.3086(2) 0.51356(14) 0.14109(6)
C7 C 1.4723(3) 0.57926(16) 0.16869(8)
H3 H 1.49600 0.66310 0.15980
C8 C 1.5959(3) 0.52356(16) 0.20783(8)
H4 H 1.70490 0.56830 0.22520
C9 C 1.5595(2) 0.39899(16) 0.22207(7)
H5 H 1.64300 0.36110 0.24960
C10 C 1.4044(2) 0.33234(14) 0.19640(6)
H6 H 1.38290 0.24910 0.20660
C11 C 1.0756(2) 0.18514(13) 0.14146(5)
C12 C 1.2172(2) 0.09087(13) 0.13281(6)
H7 H 1.34040 0.10970 0.11620
C13 C 1.1780(2) -0.03071(13) 0.14848(6)
H8 H 1.27500 -0.09320 0.14190
C14 C 0.9991(2) -0.06257(14) 0.17369(6)
C15 C 0.8583(2) 0.03191(15) 0.18208(6)
H9 H 0.73590 0.01330 0.19900
C16 C 0.8951(2) 0.15314(14) 0.16589(6)
H10 H 0.79600 0.21500 0.17150
C17 C 0.8240(2) 0.31181(14) 0.05260(6)
C18 C 0.8620(2) 0.20230(15) 0.02428(6)
H11 H 0.99170 0.16360 0.02880
C19 C 0.7114(3) 0.14961(15) -0.01043(6)
H12 H 0.74180 0.07640 -0.02930
C20 C 0.5167(3) 0.20269(16) -0.01788(6)
C21 C 0.4782(2) 0.31015(16) 0.01143(7)
H13 H 0.34680 0.34700 0.00800
C22 C 0.6285(2) 0.36413(15) 0.04555(7)
H14 H 0.59790 0.43750 0.06430
C23 C 0.9587(3) -0.19442(15) 0.19160(7)
H15 H 1.07980 -0.24520 0.18660
H16 H 0.84230 -0.22830 0.17020
H17 H 0.92790 -0.19450 0.22950
C24 C 0.3561(3) 0.14797(19) -0.05763(8)
H18 H 0.21970 0.17270 -0.04750
H19 H 0.36650 0.05770 -0.05710
H20 H 0.37930 0.17840 -0.09370
loop_
_geom_bond_atom_site_label_1
_geom_bond_atom_site_label_2
_geom_bond_distance
_geom_bond_site_symmetry_1
_geom_bond_site_symmetry_2
C1 C2 1.449 1_555 1_555
C2 C3 1.403 1_555 1_555
C3 C4 1.439 1_555 1_555
C4 H1 0.950 1_555 1_555
C5 C4 1.373 1_555 1_555
H2 C5 0.950 1_555 1_555
C6 C1 1.443 1_555 1_555
C7 C6 1.435 1_555 1_555
H3 C7 0.950 1_555 1_555
C8 C7 1.378 1_555 1_555
H4 C8 0.950 1_555 1_555
C9 C8 1.419 1_555 1_555
H5 C9 0.951 1_555 1_555
C10 C1 1.436 1_555 1_555
H6 C10 0.950 1_555 1_555
C11 C2 1.513 1_555 1_555
C12 C11 1.405 1_555 1_555
H7 C12 0.950 1_555 1_555
C13 C12 1.402 1_555 1_555
H8 C13 0.950 1_555 1_555
C14 C13 1.405 1_555 1_555
C15 C14 1.402 1_555 1_555
H9 C15 0.949 1_555 1_555
C16 C11 1.405 1_555 1_555
H10 C16 0.949 1_555 1_555
C17 C3 1.510 1_555 1_555
C18 C17 1.411 1_555 1_555
H11 C18 0.950 1_555 1_555
C19 C18 1.402 1_555 1_555
H12 C19 0.950 1_555 1_555
C20 C19 1.405 1_555 1_555
C21 C20 1.406 1_555 1_555
H13 C21 0.950 1_555 1_555
C22 C17 1.405 1_555 1_555
H14 C22 0.950 1_555 1_555
C23 C14 1.525 1_555 1_555
H15 C23 0.980 1_555 1_555
H16 C23 0.981 1_555 1_555
H17 C23 0.980 1_555 1_555
C24 C20 1.530 1_555 1_555
H18 C24 0.980 1_555 1_555
H19 C24 0.980 1_555 1_555
H20 C24 0.980 1_555 1_555
C5 C6 1.428 1_555 1_555
C9 C10 1.379 1_555 1_555
C15 C16 1.399 1_555 1_555
C21 C22 1.398 1_555 1_555
#END
