
#######################################################################
#
#                 Cambridge Crystallographic Data Centre
#                                CCDC
#
#######################################################################
#
# If this CIF has been generated from an entry in the Cambridge
# Structural Database, then it will include bibliographic, chemical,
# crystal, experimental, refinement or atomic coordinate data resulting
# from the CCDC's data processing and validation procedures.
#
#######################################################################

data_CSD_CIF_NEJGUE01
_audit_creation_date 2001-12-11
_audit_creation_method CSD-ConQuest-V1
_database_code_CSD NEJGUE01
_database_code_depnum_ccdc_archive 'CCDC 1218416'
_chemical_formula_sum 'C38 H42'
_chemical_formula_moiety
;
C38 H42
;
_journal_coden_Cambridge 4
_journal_volume 122
_journal_year 2000
_journal_page_first 10007
_journal_name_full 'J.Am.Chem.Soc. '
loop_
_publ_author_name
"A.Matsuura"
"T.Nishinaga"
"K.Komatsu"
_chemical_name_systematic
;
1,2:3,4:5,6:7,8-tetrakis(Bicyclo(2.2.2)oct-2-eno)anthracene
;
_cell_volume    682.567
_exptl_crystal_colour 'colorless'
_exptl_crystal_density_diffrn 1.213
_exptl_crystal_description 'prismatic'
_diffrn_ambient_temperature 293.15
#These two values have been output from a single CSD field.
_refine_ls_R_factor_gt 0.045
_refine_ls_wR_factor_gt 0.045
_symmetry_cell_setting triclinic
_symmetry_space_group_name_H-M 'P -1'
_symmetry_Int_Tables_number 2
loop_
_symmetry_equiv_pos_site_id
_symmetry_equiv_pos_as_xyz
1 x,y,z
2 -x,-y,-z
_cell_length_a 9.612(2)
_cell_length_b 11.331(2)
_cell_length_c 6.646(1)
_cell_angle_alpha 95.14(2)
_cell_angle_beta 106.94(1)
_cell_angle_gamma 96.32(2)
_cell_formula_units_Z 1
loop_
_atom_type_symbol
_atom_type_radius_bond
C 0.68
H 0.23
loop_
_atom_site_label
_atom_site_type_symbol
_atom_site_fract_x
_atom_site_fract_y
_atom_site_fract_z
C1 C 0.6378(2) 0.7176(2) 0.4142(3)
C2 C 0.5668(2) 0.7728(2) 0.2460(3)
C3 C 0.4222(2) 0.7248(2) 0.1192(3)
C4 C 0.3535(2) 0.6210(2) 0.1589(3)
C5 C 0.4253(2) 0.5584(2) 0.3275(3)
C6 C 0.5706(2) 0.6090(2) 0.4617(3)
C7 C 0.3607(2) 0.4508(2) 0.3702(3)
C8 C 0.7887(2) 0.7835(2) 0.5353(4)
C9 C 0.7709(3) 0.9108(2) 0.6105(4)
C10 C 0.8819(3) 0.7900(3) 0.3828(5)
C11 C 0.6582(3) 0.8833(2) 0.2171(4)
C12 C 0.6998(3) 0.9730(2) 0.4182(4)
C13 C 0.8004(3) 0.8451(3) 0.1863(5)
C14 C 0.3279(2) 0.7788(2) -0.0629(4)
C15 C 0.1887(3) 0.8037(2) -0.0083(5)
C16 C 0.2829(3) 0.6868(3) -0.2610(4)
C17 C 0.1995(2) 0.5851(2) 0.0104(4)
C18 C 0.1126(3) 0.6883(3) 0.0387(5)
C19 C 0.2041(4) 0.5716(3) -0.2171(4)
H1 H 0.835(3) 0.745(2) 0.656(4)
H2 H 0.709(3) 0.907(3) 0.704(4)
H3 H 0.869(4) 0.954(3) 0.685(5)
H4 H 0.902(3) 0.707(3) 0.339(4)
H5 H 0.977(3) 0.841(3) 0.450(4)
H6 H 0.604(2) 0.918(2) 0.089(4)
H7 H 0.618(4) 1.003(3) 0.439(5)
H8 H 0.773(3) 1.039(3) 0.397(5)
H9 H 0.774(3) 0.783(3) 0.063(5)
H10 H 0.866(3) 0.915(3) 0.160(4)
H11 H 0.382(3) 0.851(2) -0.084(4)
H12 H 0.218(3) 0.868(3) 0.112(5)
H13 H 0.117(3) 0.834(2) -0.126(4)
H14 H 0.368(4) 0.672(3) -0.300(5)
H15 H 0.217(3) 0.717(3) -0.386(5)
H16 H 0.152(3) 0.506(2) 0.037(4)
H17 H 0.106(3) 0.697(3) 0.179(5)
H18 H 0.009(3) 0.668(2) -0.065(4)
H19 H 0.255(3) 0.506(3) -0.246(4)
H20 H 0.099(4) 0.557(3) -0.307(5)
H21 H 0.270(3) 0.418(2) 0.277(4)
C7A C 0.6393(2) 0.5492(2) 0.6298(3)
C5A C 0.5747(2) 0.4416(2) 0.6725(3)
C4A C 0.6465(2) 0.3790(2) 0.8411(3)
C3A C 0.5778(2) 0.2752(2) 0.8808(3)
C2A C 0.4332(2) 0.2272(2) 0.7540(3)
C1A C 0.3622(2) 0.2824(2) 0.5858(3)
C6A C 0.4294(2) 0.3910(2) 0.5383(3)
C8A C 0.2113(2) 0.2165(2) 0.4647(4)
C9A C 0.2291(3) 0.0892(2) 0.3895(4)
C12A C 0.3002(3) 0.0270(2) 0.5818(4)
C11A C 0.3418(3) 0.1167(2) 0.7829(4)
C13A C 0.1996(3) 0.1549(3) 0.8137(5)
C10A C 0.1181(3) 0.2100(3) 0.6172(5)
H1A H 0.165(3) 0.255(2) 0.344(4)
H4A H 0.098(3) 0.293(3) 0.661(4)
H5A H 0.023(3) 0.159(3) 0.550(4)
H9A H 0.226(3) 0.217(3) 0.937(5)
H10A H 0.134(3) 0.085(3) 0.840(4)
H6A H 0.396(2) 0.082(2) 0.911(4)
H7A H 0.382(4) -0.003(3) 0.561(5)
H8A H 0.227(3) -0.039(3) 0.603(5)
H2A H 0.291(3) 0.093(3) 0.296(4)
H3A H 0.131(4) 0.046(3) 0.315(5)
C14A C 0.6721(2) 0.2212(2) 1.0629(4)
C15A C 0.8113(3) 0.1963(2) 1.0083(5)
C18A C 0.8874(3) 0.3117(3) 0.9613(5)
C17A C 0.8005(2) 0.4149(2) 0.9896(4)
C19A C 0.7959(4) 0.4284(3) 1.2171(4)
C16A C 0.7171(3) 0.3132(3) 1.2610(4)
H11A H 0.618(3) 0.149(2) 1.084(4)
H14A H 0.632(4) 0.328(3) 1.300(5)
H15A H 0.783(3) 0.283(3) 1.386(5)
H19A H 0.745(3) 0.494(3) 1.246(4)
H20A H 0.901(4) 0.443(3) 1.307(5)
H16A H 0.848(3) 0.494(2) 0.963(4)
H17A H 0.894(3) 0.303(3) 0.821(5)
H18A H 0.991(3) 0.332(2) 1.065(4)
H12A H 0.782(3) 0.132(3) 0.888(5)
H13A H 0.883(3) 0.166(2) 1.126(4)
H21A H 0.730(3) 0.582(2) 0.723(4)
loop_
_geom_bond_atom_site_label_1
_geom_bond_atom_site_label_2
_geom_bond_distance
_geom_bond_site_symmetry_1
_geom_bond_site_symmetry_2
C1 C2 1.372 1_555 1_555
C2 C3 1.417 1_555 1_555
C3 C4 1.369 1_555 1_555
C4 C5 1.426 1_555 1_555
C5 C6 1.443 1_555 1_555
C6 C1 1.430 1_555 1_555
C7 C5 1.397 1_555 1_555
C8 C1 1.511 1_555 1_555
C9 C8 1.528 1_555 1_555
C10 C8 1.537 1_555 1_555
C11 C2 1.509 1_555 1_555
C12 C9 1.535 1_555 1_555
C13 C10 1.538 1_555 1_555
C14 C3 1.509 1_555 1_555
C15 C14 1.533 1_555 1_555
C16 C14 1.526 1_555 1_555
C17 C4 1.508 1_555 1_555
C18 C15 1.529 1_555 1_555
C19 C16 1.530 1_555 1_555
H1 C8 0.964 1_555 1_555
H2 C9 0.978 1_555 1_555
H3 C9 0.978 1_555 1_555
H4 C10 1.015 1_555 1_555
H5 C10 0.984 1_555 1_555
H6 C11 0.999 1_555 1_555
H7 C12 0.931 1_555 1_555
H8 C12 1.017 1_555 1_555
H9 C13 0.983 1_555 1_555
H10 C13 1.017 1_555 1_555
H11 C14 0.964 1_555 1_555
H12 C15 0.984 1_555 1_555
H13 C15 0.995 1_555 1_555
H14 C16 0.954 1_555 1_555
H15 C16 1.000 1_555 1_555
H16 C17 1.014 1_555 1_555
H17 C18 0.950 1_555 1_555
H18 C18 1.020 1_555 1_555
H19 C19 0.969 1_555 1_555
H20 C19 0.999 1_555 1_555
H21 C7 0.924 1_555 1_555
C7A C6 1.396 1_555 1_555
C5A C7A 1.397 1_555 1_555
C4A C5A 1.426 1_555 1_555
C3A C4A 1.369 1_555 1_555
C2A C3A 1.417 1_555 1_555
C1A C2A 1.372 1_555 1_555
C6A C7 1.396 1_555 1_555
C8A C1A 1.511 1_555 1_555
C9A C8A 1.528 1_555 1_555
C12A C9A 1.535 1_555 1_555
C11A C2A 1.509 1_555 1_555
C13A C11A 1.541 1_555 1_555
C10A C8A 1.537 1_555 1_555
H1A C8A 0.964 1_555 1_555
H4A C10A 1.015 1_555 1_555
H5A C10A 0.984 1_555 1_555
H9A C13A 0.983 1_555 1_555
H10A C13A 1.017 1_555 1_555
H6A C11A 0.999 1_555 1_555
H7A C12A 0.931 1_555 1_555
H8A C12A 1.017 1_555 1_555
H2A C9A 0.978 1_555 1_555
H3A C9A 0.978 1_555 1_555
C14A C3A 1.509 1_555 1_555
C15A C14A 1.533 1_555 1_555
C18A C15A 1.529 1_555 1_555
C17A C4A 1.508 1_555 1_555
C19A C17A 1.520 1_555 1_555
C16A C14A 1.526 1_555 1_555
H11A C14A 0.964 1_555 1_555
H14A C16A 0.954 1_555 1_555
H15A C16A 1.000 1_555 1_555
H19A C19A 0.969 1_555 1_555
H20A C19A 0.999 1_555 1_555
H16A C17A 1.014 1_555 1_555
H17A C18A 0.950 1_555 1_555
H18A C18A 1.020 1_555 1_555
H12A C15A 0.984 1_555 1_555
H13A C15A 0.995 1_555 1_555
H21A C7A 0.924 1_555 1_555
C11 C12 1.528 1_555 1_555
C11 C13 1.541 1_555 1_555
C17 C18 1.539 1_555 1_555
C17 C19 1.520 1_555 1_555
C5A C6A 1.443 1_555 1_555
C1A C6A 1.430 1_555 1_555
C12A C11A 1.528 1_555 1_555
C13A C10A 1.538 1_555 1_555
C18A C17A 1.539 1_555 1_555
C19A C16A 1.530 1_555 1_555
#END
