
#######################################################################
#
#                 Cambridge Crystallographic Data Centre
#                                CCDC
#
#######################################################################
#
# If this CIF has been generated from an entry in the Cambridge
# Structural Database, then it will include bibliographic, chemical,
# crystal, experimental, refinement or atomic coordinate data resulting
# from the CCDC's data processing and validation procedures.
#
#######################################################################

data_CSD_CIF_NERYIT
_audit_creation_date 2007-03-09
_audit_creation_method CSD-ConQuest-V1
_database_code_CSD NERYIT
_database_code_depnum_ccdc_archive 'CCDC 630478'
_chemical_formula_sum 'C22 H20'
_chemical_formula_moiety
;
C22 H20
;
_journal_coeditor_code "IUCr SJ2163"
_journal_coden_Cambridge 1370
_journal_volume 62
_journal_year 2006
_journal_page_first o5651
_journal_name_full 'Acta Crystallogr.,Sect.E:Struct.Rep.Online '
loop_
_publ_author_name
"M.Periasamy"
"S.Soundirapandian"
"S.Athimoolam"
"A.Ponnusamy"
"S.Natarajan"
_chemical_name_systematic
;
1-Naphthyl-4-phenylcyclohexene
;
_cell_volume   1632.398
_exptl_crystal_colour 'colorless'
_exptl_crystal_density_diffrn 1.157
_exptl_crystal_description 'block'
_diffrn_ambient_temperature 293
#These two values have been output from a single CSD field.
_refine_ls_R_factor_gt 0.0656
_refine_ls_wR_factor_gt 0.0656
_symmetry_cell_setting monoclinic
_symmetry_space_group_name_H-M 'P 21/c'
_symmetry_Int_Tables_number 14
loop_
_symmetry_equiv_pos_site_id
_symmetry_equiv_pos_as_xyz
1 x,y,z
2 -x,1/2+y,1/2-z
3 -x,-y,-z
4 x,-1/2-y,-1/2+z
_cell_length_a 17.1940(11)
_cell_length_b 7.4760(6)
_cell_length_c 13.7950(8)
_cell_angle_alpha 90
_cell_angle_beta 112.99(2)
_cell_angle_gamma 90
_cell_formula_units_Z 4
loop_
_atom_type_symbol
_atom_type_radius_bond
C 0.68
H 0.23
loop_
_atom_site_label
_atom_site_type_symbol
_atom_site_fract_x
_atom_site_fract_y
_atom_site_fract_z
C1 C 0.0452(2) 1.3199(5) 0.6118(3)
H1 H 0.02280 1.26380 0.54650
C2 C 0.0010(3) 1.4577(5) 0.6328(3)
H2 H -0.05070 1.49270 0.58200
C3 C 0.0319(3) 1.5417(5) 0.7259(4)
H3 H 0.00180 1.63450 0.73990
C4 C 0.1077(3) 1.4899(5) 0.7998(4)
H4 H 0.12960 1.54840 0.86440
C5 C 0.1527(2) 1.3506(5) 0.7796(3)
H5 H 0.20440 1.31610 0.83080
C6 C 0.1213(2) 1.2634(4) 0.6845(3)
C7 C 0.1688(3) 1.1106(5) 0.6611(5)
H6 H 0.21170 1.09700 0.73260
C8 C 0.1349(3) 0.9393(4) 0.6518(5)
H7 H 0.07750 0.94380 0.59940
H8 H 0.13160 0.90900 0.71840
C9 C 0.17948(19) 0.7897(4) 0.6227(3)
H9 H 0.15950 0.67310 0.61810
C10 C 0.25114(16) 0.8269(3) 0.6027(2)
C11 C 0.2774(2) 1.0056(4) 0.5980(3)
H10 H 0.28130 1.02190 0.53030
H11 H 0.33400 1.01910 0.65160
C12 C 0.2244(3) 1.1543(4) 0.6120(4)
H12 H 0.26190 1.24800 0.65280
H13 H 0.19120 1.20370 0.54310
C13 C 0.30257(16) 0.6788(3) 0.5858(2)
C14 C 0.3040(2) 0.6495(4) 0.4883(2)
H14 H 0.27100 0.72070 0.43200
C15 C 0.3540(2) 0.5155(5) 0.4715(2)
H15 H 0.35340 0.49850 0.40440
C16 C 0.40338(19) 0.4096(4) 0.5519(2)
H16 H 0.43670 0.32140 0.53970
C17 C 0.40439(16) 0.4329(3) 0.6539(2)
C18 C 0.45565(18) 0.3260(4) 0.7394(2)
H17 H 0.48890 0.23700 0.72810
C19 C 0.4573(2) 0.3505(5) 0.8377(3)
H18 H 0.49140 0.27850 0.89300
C20 C 0.4079(2) 0.4835(5) 0.8555(2)
H19 H 0.40940 0.49990 0.92310
C21 C 0.35741(17) 0.5898(4) 0.7759(2)
H20 H 0.32480 0.67750 0.78970
C22 C 0.35386(15) 0.5688(3) 0.67203(19)
loop_
_geom_bond_atom_site_label_1
_geom_bond_atom_site_label_2
_geom_bond_distance
_geom_bond_site_symmetry_1
_geom_bond_site_symmetry_2
C1 H1 0.930 1_555 1_555
C2 C1 1.377 1_555 1_555
H2 C2 0.929 1_555 1_555
C3 C2 1.339 1_555 1_555
H3 C3 0.930 1_555 1_555
C4 C3 1.360 1_555 1_555
H4 C4 0.930 1_555 1_555
C5 C4 1.389 1_555 1_555
H5 C5 0.930 1_555 1_555
C6 C1 1.368 1_555 1_555
C7 C6 1.511 1_555 1_555
H6 C7 0.979 1_555 1_555
C8 C7 1.392 1_555 1_555
H7 C8 0.970 1_555 1_555
H8 C8 0.969 1_555 1_555
C9 C8 1.497 1_555 1_555
H9 C9 0.930 1_555 1_555
C10 C9 1.392 1_555 1_555
C11 C10 1.420 1_555 1_555
H10 C11 0.970 1_555 1_555
H11 C11 0.971 1_555 1_555
C12 C7 1.409 1_555 1_555
H12 C12 0.969 1_555 1_555
H13 C12 0.970 1_555 1_555
C13 C10 1.491 1_555 1_555
C14 C13 1.372 1_555 1_555
H14 C14 0.930 1_555 1_555
C15 C14 1.397 1_555 1_555
H15 C15 0.930 1_555 1_555
C16 C15 1.357 1_555 1_555
H16 C16 0.931 1_555 1_555
C17 C16 1.411 1_555 1_555
C18 C17 1.412 1_555 1_555
H17 C18 0.929 1_555 1_555
C19 C18 1.358 1_555 1_555
H18 C19 0.931 1_555 1_555
C20 C19 1.390 1_555 1_555
H19 C20 0.931 1_555 1_555
C21 C20 1.359 1_555 1_555
H20 C21 0.929 1_555 1_555
C22 C13 1.432 1_555 1_555
C5 C6 1.373 1_555 1_555
C11 C12 1.497 1_555 1_555
C17 C22 1.421 1_555 1_555
C21 C22 1.419 1_555 1_555
#END
