
#######################################################################
#
#                 Cambridge Crystallographic Data Centre
#                                CCDC
#
#######################################################################
#
# If this CIF has been generated from an entry in the Cambridge
# Structural Database, then it will include bibliographic, chemical,
# crystal, experimental, refinement or atomic coordinate data resulting
# from the CCDC's data processing and validation procedures.
#
#######################################################################

data_CSD_CIF_NERZAM
_audit_creation_date 2007-03-09
_audit_creation_method CSD-ConQuest-V1
_database_code_CSD NERZAM
_database_code_depnum_ccdc_archive 'CCDC 630481'
_chemical_formula_sum 'C20 H24'
_chemical_formula_moiety
;
C20 H24
;
_journal_coeditor_code "IUCr SJ2168"
_journal_coden_Cambridge 1370
_journal_volume 62
_journal_year 2006
_journal_page_first o5670
_journal_name_full 'Acta Crystallogr.,Sect.E:Struct.Rep.Online '
loop_
_publ_author_name
"M.Periasamy"
"S.Soundirapandian"
"S.Athimoolam"
"A.Ponnusamy"
"S.Natarajan"
_chemical_name_systematic
;
4-t-Butyl-1-(1-napthyl)cyclohexene
;
_cell_volume   3255.766
_exptl_crystal_colour 'colorless'
_exptl_crystal_density_diffrn 1.079
_exptl_crystal_description 'block'
_diffrn_ambient_temperature 293
#These two values have been output from a single CSD field.
_refine_ls_R_factor_gt 0.0631
_refine_ls_wR_factor_gt 0.0631
_symmetry_cell_setting orthorhombic
_symmetry_space_group_name_H-M 'P c c n'
_symmetry_Int_Tables_number 56
loop_
_symmetry_equiv_pos_site_id
_symmetry_equiv_pos_as_xyz
1 x,y,z
2 1/2-x,1/2-y,z
3 1/2+x,-y,1/2-z
4 -x,1/2+y,1/2-z
5 -x,-y,-z
6 -1/2+x,-1/2+y,-z
7 -1/2-x,y,-1/2+z
8 x,-1/2-y,-1/2+z
_cell_length_a 23.8908(18)
_cell_length_b 16.1042(11)
_cell_length_c 8.4622(6)
_cell_angle_alpha 90
_cell_angle_beta 90
_cell_angle_gamma 90
_cell_formula_units_Z 8
loop_
_atom_type_symbol
_atom_type_radius_bond
C 0.68
H 0.23
loop_
_atom_site_label
_atom_site_type_symbol
_atom_site_fract_x
_atom_site_fract_y
_atom_site_fract_z
C1 C 0.6210(2) 0.2124(3) 0.4244(5)
H1 H 0.61290 0.24140 0.32790
H2 H 0.65710 0.22890 0.46290
H3 H 0.59300 0.22570 0.50190
C2 C 0.6681(2) 0.0948(4) 0.2872(5)
H4 H 0.66510 0.12390 0.18860
H5 H 0.66640 0.03600 0.26840
H6 H 0.70320 0.10820 0.33650
C3 C 0.5647(3) 0.1005(4) 0.3074(6)
H7 H 0.56510 0.04410 0.27090
H8 H 0.56040 0.13730 0.21890
H9 H 0.53400 0.10820 0.37910
C4 C 0.62077(19) 0.1201(2) 0.3940(4)
C5 C 0.62171(17) 0.0715(2) 0.5523(4)
H10 H 0.58980 0.09340 0.61180
C6 C 0.67108(18) 0.0875(3) 0.6563(5)
H11 H 0.70440 0.06620 0.60480
H12 H 0.67570 0.14700 0.66850
C7 C 0.66633(17) 0.0490(2) 0.8160(4)
H13 H 0.70330 0.04760 0.86340
H14 H 0.64300 0.08440 0.88130
C8 C 0.64334(14) -0.0344(2) 0.8193(4)
C9 C 0.61768(18) -0.0663(2) 0.6903(4)
H15 H 0.60370 -0.12020 0.69560
C10 C 0.6108(2) -0.0192(2) 0.5406(5)
H16 H 0.57290 -0.02730 0.50280
H17 H 0.63590 -0.04250 0.46230
C11 C 0.65285(15) -0.0849(2) 0.9652(4)
C12 C 0.70605(16) -0.1011(2) 1.0144(4)
H18 H 0.73580 -0.07940 0.95700
C13 C 0.71750(19) -0.1494(2) 1.1479(5)
H19 H 0.75440 -0.15910 1.17730
C14 C 0.6754(2) -0.1819(2) 1.2346(5)
H20 H 0.68360 -0.21470 1.32210
C15 C 0.61841(16) -0.1663(2) 1.1925(4)
C16 C 0.5742(2) -0.1978(2) 1.2821(5)
H21 H 0.58160 -0.23110 1.36940
C17 C 0.5213(2) -0.1803(3) 1.2433(6)
H22 H 0.49230 -0.20160 1.30460
C18 C 0.50850(17) -0.1305(3) 1.1119(5)
H23 H 0.47130 -0.11910 1.08730
C19 C 0.54985(17) -0.0990(2) 1.0215(5)
H24 H 0.54110 -0.06560 0.93540
C20 C 0.60760(14) -0.11697(19) 1.0574(4)
loop_
_geom_bond_atom_site_label_1
_geom_bond_atom_site_label_2
_geom_bond_distance
_geom_bond_site_symmetry_1
_geom_bond_site_symmetry_2
C1 H1 0.960 1_555 1_555
H2 C1 0.959 1_555 1_555
H3 C1 0.961 1_555 1_555
C2 H4 0.960 1_555 1_555
H5 C2 0.961 1_555 1_555
H6 C2 0.961 1_555 1_555
C3 H7 0.959 1_555 1_555
H8 C3 0.961 1_555 1_555
H9 C3 0.960 1_555 1_555
C4 C1 1.509 1_555 1_555
C5 C4 1.552 1_555 1_555
H10 C5 0.979 1_555 1_555
C6 C5 1.494 1_555 1_555
H11 C6 0.970 1_555 1_555
H12 C6 0.970 1_555 1_555
C7 C6 1.491 1_555 1_555
H13 C7 0.970 1_555 1_555
H14 C7 0.970 1_555 1_555
C8 C7 1.451 1_555 1_555
C9 C8 1.353 1_555 1_555
H15 C9 0.931 1_555 1_555
C10 C5 1.487 1_555 1_555
H16 C10 0.969 1_555 1_555
H17 C10 0.969 1_555 1_555
C11 C8 1.496 1_555 1_555
C12 C11 1.363 1_555 1_555
H18 C12 0.929 1_555 1_555
C13 C12 1.399 1_555 1_555
H19 C13 0.929 1_555 1_555
C14 C13 1.350 1_555 1_555
H20 C14 0.930 1_555 1_555
C15 C14 1.430 1_555 1_555
C16 C15 1.396 1_555 1_555
H21 C16 0.930 1_555 1_555
C17 C16 1.336 1_555 1_555
H22 C17 0.931 1_555 1_555
C18 C17 1.405 1_555 1_555
H23 C18 0.931 1_555 1_555
C19 C18 1.348 1_555 1_555
H24 C19 0.929 1_555 1_555
C20 C11 1.430 1_555 1_555
C2 C4 1.504 1_555 1_555
C3 C4 1.559 1_555 1_555
C9 C10 1.486 1_555 1_555
C15 C20 1.416 1_555 1_555
C19 C20 1.442 1_555 1_555
#END
