
#######################################################################
#
#                 Cambridge Crystallographic Data Centre
#                                CCDC
#
#######################################################################
#
# If this CIF has been generated from an entry in the Cambridge
# Structural Database, then it will include bibliographic, chemical,
# crystal, experimental, refinement or atomic coordinate data resulting
# from the CCDC's data processing and validation procedures.
#
#######################################################################

data_CSD_CIF_NIBBIK
_audit_creation_date 2007-06-20
_audit_creation_method CSD-ConQuest-V1
_database_code_CSD NIBBIK
_database_code_depnum_ccdc_archive 'CCDC 643559'
_chemical_formula_sum 'C48 H42'
_chemical_formula_moiety
;
C48 H42
;
_journal_coden_Cambridge 1096
_journal_volume 19
_journal_year 2007
_journal_page_first 418
_journal_name_full 'Chem.Mater. '
loop_
_publ_author_name
"Yuning Li"
"Yiliang Wu"
"Ping Liu"
"Z.Prostran"
"S.Gardner"
"B.S.Ong"
_chemical_name_systematic
;
6,13-bis(4-Pentylphenylethynyl)pentacene
;
_cell_volume   1786.630
_exptl_crystal_colour 'blue'
_exptl_crystal_density_diffrn 1.15
_exptl_crystal_description 'thin rod'
_exptl_crystal_preparation 'hexane/toluene'
_diffrn_ambient_temperature 296
#These two values have been output from a single CSD field.
_refine_ls_R_factor_gt 0.1455
_refine_ls_wR_factor_gt 0.1455
_symmetry_cell_setting monoclinic
_symmetry_space_group_name_H-M 'P 21/c'
_symmetry_Int_Tables_number 14
loop_
_symmetry_equiv_pos_site_id
_symmetry_equiv_pos_as_xyz
1 x,y,z
2 -x,1/2+y,1/2-z
3 -x,-y,-z
4 x,-1/2-y,-1/2+z
_cell_length_a 16.867(14)
_cell_length_b 5.225(4)
_cell_length_c 20.485(15)
_cell_angle_alpha 90
_cell_angle_beta 98.257(19)
_cell_angle_gamma 90
_cell_formula_units_Z 2
loop_
_atom_type_symbol
_atom_type_radius_bond
C 0.73
H 0.23
loop_
_atom_site_label
_atom_site_type_symbol
_atom_site_fract_x
_atom_site_fract_y
_atom_site_fract_z
C1 C 1.5566(5) 1.1343(16) 0.3206(4)
H1 H 1.51960 1.10170 0.28330
C2 C 1.6103(6) 1.3194(19) 0.3187(5)
C3 C 1.6676(6) 1.3721(19) 0.3746(5)
C4 C 1.6134(4) 1.0378(15) 0.4356(4)
C5 C 1.6693(4) 1.2372(15) 0.4301(4)
H2 H 1.70790 1.27460 0.46590
C6 C 1.6119(5) 0.8950(15) 0.4914(5)
C7 C 1.5573(4) 0.6997(14) 0.4975(4)
C8 C 1.4981(4) 0.6463(14) 0.4397(4)
C9 C 1.5543(4) 0.9862(14) 0.3780(4)
C10 C 1.5000(4) 0.7933(15) 0.3832(4)
H3 H 1.46200 0.75900 0.34670
C11 C 1.5580(4) 0.5540(14) 0.5554(4)
C12 C 1.6180(4) 0.6116(13) 0.6104(3)
C13 C 1.6685(4) 0.6741(14) 0.6536(4)
C14 C 1.7323(4) 0.7568(15) 0.7030(4)
C15 C 1.7540(5) 0.6302(17) 0.7616(5)
H4 H 1.72470 0.48730 0.77080
C16 C 1.8172(6) 0.706(2) 0.8070(5)
H5 H 1.82930 0.61740 0.84650
C17 C 1.8613(6) 0.907(3) 0.7948(7)
C18 C 1.8404(7) 1.046(3) 0.7380(8)
C19 C 1.7761(5) 0.9666(19) 0.6920(4)
H6 H 1.76300 1.05880 0.65310
C20 C 1.9284(11) 1.028(4) 0.8540(9)
H7 H 1.92060 0.95790 0.89640
H8 H 1.92270 1.21240 0.85560
C21 C 1.9932(12) 0.974(4) 0.8420(9)
H9 H 1.99370 0.79120 0.83320
H10 H 2.00080 1.06030 0.80150
C22 C 2.0806(12) 1.047(4) 0.9046(11)
H11 H 2.12790 1.07000 0.88330
H12 H 2.09040 0.90620 0.93550
C23 C 2.0681(13) 1.231(4) 0.9322(9)
H13 H 2.05680 1.37560 0.90250
H14 H 2.02440 1.20940 0.95780
C24 C 2.1600(7) 1.264(3) 0.9826(6)
H15 H 2.15930 1.41460 1.00920
H16 H 2.16940 1.11630 1.01060
H17 H 2.20190 1.27800 0.95560
H18 H 1.615(3) 1.437(11) 0.284(3)
H19 H 1.699(4) 1.510(14) 0.369(3)
H20 H 1.649(4) 0.930(12) 0.526(3)
H21 H 1.853(6) 1.20(2) 0.722(5)
C1B C 1.4434(5) -0.1343(16) 0.6794(4)
H1B H 1.48040 -0.10170 0.71670
C2B C 1.3897(6) -0.3194(19) 0.6813(5)
C3B C 1.3324(6) -0.3721(19) 0.6254(5)
C4B C 1.3866(4) -0.0378(15) 0.5644(4)
C5B C 1.3307(4) -0.2372(15) 0.5699(4)
H2B H 1.29210 -0.27460 0.53410
C6B C 1.3881(5) 0.1050(15) 0.5086(5)
C7B C 1.4427(4) 0.3003(14) 0.5025(4)
C8B C 1.5019(4) 0.3537(14) 0.5603(4)
C9B C 1.4457(4) 0.0138(14) 0.6220(4)
C10B C 1.5000(4) 0.2067(15) 0.6168(4)
H3B H 1.53800 0.24100 0.65330
C11B C 1.4420(4) 0.4460(14) 0.4446(4)
C12B C 1.3820(4) 0.3884(13) 0.3896(3)
C13B C 1.3315(4) 0.3259(14) 0.3464(4)
C14B C 1.2677(4) 0.2432(15) 0.2970(4)
C15B C 1.2460(5) 0.3698(17) 0.2384(5)
H4B H 1.27530 0.51270 0.22920
C16B C 1.1828(6) 0.294(2) 0.1930(5)
H5B H 1.17070 0.38260 0.15350
C17B C 1.1387(6) 0.093(3) 0.2052(7)
C18B C 1.1596(7) -0.046(3) 0.2620(8)
C19B C 1.2239(5) 0.0334(19) 0.3080(4)
H6B H 1.23700 -0.05880 0.34690
C20B C 1.0716(11) -0.028(4) 0.1460(9)
H7B H 1.07940 0.04210 0.10360
H8B H 1.07730 -0.21240 0.14440
C21B C 1.0068(12) 0.026(4) 0.1580(9)
H9B H 1.00630 0.20880 0.16680
H10B H 0.99920 -0.06030 0.19850
C22B C 0.9194(12) -0.047(4) 0.0954(11)
H11B H 0.87210 -0.07000 0.11670
H12B H 0.90960 0.09380 0.06450
C23B C 0.9319(13) -0.231(4) 0.0678(9)
H13B H 0.94320 -0.37560 0.09750
H14B H 0.97560 -0.20940 0.04220
C24B C 0.8400(7) -0.264(3) 0.0174(6)
H15B H 0.84070 -0.41460 -0.00920
H16B H 0.83060 -0.11630 -0.01060
H17B H 0.79810 -0.27800 0.04440
H18B H 1.385(3) -0.437(11) 0.716(3)
H19B H 1.301(4) -0.510(14) 0.631(3)
H20B H 1.351(4) 0.070(12) 0.474(3)
H21B H 1.147(6) -0.20(2) 0.278(5)
loop_
_geom_bond_atom_site_label_1
_geom_bond_atom_site_label_2
_geom_bond_distance
_geom_bond_site_symmetry_1
_geom_bond_site_symmetry_2
C1 H1 0.930 1_555 1_555
C2 C1 1.329 1_555 1_555
C3 C2 1.415 1_555 1_555
C4 C5 1.420 1_555 1_555
C5 C3 1.334 1_555 1_555
H2 C5 0.929 1_555 1_555
C6 C4 1.368 1_555 1_555
C7 C6 1.392 1_555 1_555
C8 C7 1.462 1_555 1_555
C9 C1 1.413 1_555 1_555
C10 C8 1.393 1_555 1_555
H3 C10 0.930 1_555 1_555
C11 C7 1.408 1_555 1_555
C12 C11 1.434 1_555 1_555
C13 C12 1.183 1_555 1_555
C14 C13 1.434 1_555 1_555
C15 C14 1.373 1_555 1_555
H4 C15 0.930 1_555 1_555
C16 C15 1.369 1_555 1_555
H5 C16 0.929 1_555 1_555
C17 C16 1.331 1_555 1_555
C18 C17 1.374 1_555 1_555
C19 C14 1.359 1_555 1_555
H6 C19 0.930 1_555 1_555
C20 C17 1.660 1_555 1_555
H7 C20 0.969 1_555 1_555
H8 C20 0.969 1_555 1_555
C21 C20 1.188 1_555 1_555
H9 C21 0.972 1_555 1_555
H10 C21 0.969 1_555 1_555
C22 C21 1.849 1_555 1_555
H11 C22 0.970 1_555 1_555
H12 C22 0.969 1_555 1_555
C23 C22 1.150 1_555 1_555
H13 C23 0.972 1_555 1_555
H14 C23 0.971 1_555 1_555
C24 C23 1.743 1_555 1_555
H15 C24 0.958 1_555 1_555
H16 C24 0.961 1_555 1_555
H17 C24 0.961 1_555 1_555
H18 C2 0.951 1_555 1_555
H19 C3 0.911 1_555 1_555
H20 C6 0.894 1_555 1_555
H21 C18 0.906 1_555 1_555
C1B H1B 0.930 1_555 1_555
C2B C1B 1.329 1_555 1_555
C3B C2B 1.415 1_555 1_555
C4B C5B 1.420 1_555 1_555
C5B C3B 1.334 1_555 1_555
H2B C5B 0.929 1_555 1_555
C6B C4B 1.368 1_555 1_555
C7B C6B 1.392 1_555 1_555
C8B C11 1.424 1_555 1_555
C9B C1B 1.413 1_555 1_555
C10B C8B 1.393 1_555 1_555
H3B C10B 0.930 1_555 1_555
C11B C8 1.424 1_555 1_555
C12B C11B 1.434 1_555 1_555
C13B C12B 1.183 1_555 1_555
C14B C13B 1.434 1_555 1_555
C15B C14B 1.373 1_555 1_555
H4B C15B 0.930 1_555 1_555
C16B C15B 1.369 1_555 1_555
H5B C16B 0.929 1_555 1_555
C17B C16B 1.331 1_555 1_555
C18B C17B 1.374 1_555 1_555
C19B C14B 1.359 1_555 1_555
H6B C19B 0.930 1_555 1_555
C20B C17B 1.660 1_555 1_555
H7B C20B 0.969 1_555 1_555
H8B C20B 0.969 1_555 1_555
C21B C20B 1.188 1_555 1_555
H9B C21B 0.972 1_555 1_555
H10B C21B 0.969 1_555 1_555
C22B C21B 1.849 1_555 1_555
H11B C22B 0.970 1_555 1_555
H12B C22B 0.969 1_555 1_555
C23B C22B 1.150 1_555 1_555
H13B C23B 0.972 1_555 1_555
H14B C23B 0.971 1_555 1_555
C24B C23B 1.743 1_555 1_555
H15B C24B 0.958 1_555 1_555
H16B C24B 0.961 1_555 1_555
H17B C24B 0.961 1_555 1_555
H18B C2B 0.951 1_555 1_555
H19B C3B 0.911 1_555 1_555
H20B C6B 0.894 1_555 1_555
H21B C18B 0.906 1_555 1_555
C4 C9 1.456 1_555 1_555
C9 C10 1.376 1_555 1_555
C18 C19 1.394 1_555 1_555
C4B C9B 1.456 1_555 1_555
C7B C8B 1.462 1_555 1_555
C7B C11B 1.408 1_555 1_555
C9B C10B 1.376 1_555 1_555
C18B C19B 1.394 1_555 1_555
#END
