
#######################################################################
#
#                 Cambridge Crystallographic Data Centre
#                                CCDC
#
#######################################################################
#
# If this CIF has been generated from an entry in the Cambridge
# Structural Database, then it will include bibliographic, chemical,
# crystal, experimental, refinement or atomic coordinate data resulting
# from the CCDC's data processing and validation procedures.
#
#######################################################################

data_CSD_CIF_NIDGIS
_audit_creation_date 2013-05-24
_audit_creation_method CSD-ConQuest-V1
_database_code_CSD NIDGIS
_database_code_depnum_ccdc_archive 'CCDC 870212'
_chemical_formula_sum 'C44 H42'
_chemical_formula_moiety
;
C44 H42
;
_journal_coden_Cambridge 177
_journal_volume 11
_journal_year 2013
_journal_page_first 2186
_journal_name_full 'Org.Biomol.Chem. '
loop_
_publ_author_name
"Jian-Yong Hu"
"A.Paudel"
"N.Seto"
"Xing Feng"
"M.Era"
"T.Matsumoto"
"J.Tanaka"
"M.R.J.Elsegood"
"C.Redshaw"
"T.Yamato"
_chemical_name_systematic
;
8,17-Di-t-butyl-1,3,10,12-tetramethyltetrabenzo[a,fg,j,op]tetracene
;
_cell_volume   3188.366
_exptl_crystal_colour 'colorless'
_exptl_crystal_density_diffrn 1.189
_exptl_crystal_description 'tablet'
_diffrn_ambient_temperature 150
_diffrn_radiation_probe x-ray
_diffrn_source synchrotron
#These two values have been output from a single CSD field.
_refine_ls_R_factor_gt 0.0609
_refine_ls_wR_factor_gt 0.0609
_symmetry_cell_setting triclinic
_symmetry_space_group_name_H-M 'P -1'
_symmetry_Int_Tables_number 2
loop_
_symmetry_equiv_pos_site_id
_symmetry_equiv_pos_as_xyz
1 x,y,z
2 -x,-y,-z
_cell_length_a 11.3212(6)
_cell_length_b 11.3699(6)
_cell_length_c 25.0897(14)
_cell_angle_alpha 96.268(4)
_cell_angle_beta 96.618(4)
_cell_angle_gamma 90.287(4)
_cell_formula_units_Z 4
loop_
_atom_type_symbol
_atom_type_radius_bond
C 0.68
H 0.23
loop_
_atom_site_label
_atom_site_type_symbol
_atom_site_fract_x
_atom_site_fract_y
_atom_site_fract_z
C1 C 0.04512(16) 0.55443(16) 0.26398(8)
C2 C 0.14233(17) 0.53368(16) 0.30215(8)
C3 C 0.20289(18) 0.63106(17) 0.33248(8)
H1 H 0.27280 0.61800 0.35570
C4 C 0.16372(18) 0.74658(17) 0.32964(8)
C5 C 0.06192(18) 0.76398(17) 0.29491(8)
H2 H 0.03200 0.84170 0.29410
C6 C 0.00217(17) 0.67120(16) 0.26122(8)
C7 C -0.10249(17) 0.68989(16) 0.22340(8)
C8 C -0.16291(17) 0.59311(16) 0.19295(8)
C9 C -0.10178(16) 0.48011(16) 0.18743(8)
C10 C -0.12961(16) 0.39773(16) 0.14222(8)
H3 H -0.19220 0.41460 0.11570
C11 C -0.06944(16) 0.29180(16) 0.13445(8)
C12 C 0.02326(17) 0.27004(16) 0.17385(8)
H4 H 0.06220 0.19620 0.17060
C13 C 0.06053(16) 0.35331(16) 0.21785(8)
C14 C 0.16140(17) 0.33291(16) 0.25731(8)
C15 C 0.18849(17) 0.41413(17) 0.30336(8)
C16 C -0.00200(16) 0.46075(16) 0.22434(8)
C17 C -0.14264(18) 0.80611(17) 0.21494(9)
H5 H -0.10610 0.87270 0.23700
C18 C -0.23222(17) 0.82263(17) 0.17589(9)
H6 H -0.24820 0.90030 0.16670
C19 C -0.30250(17) 0.72614(17) 0.14840(8)
C20 C -0.27598(17) 0.61035(16) 0.16195(8)
C21 C -0.36586(17) 0.52075(17) 0.14612(8)
C22 C -0.46123(18) 0.54296(18) 0.10988(8)
H7 H -0.51840 0.48140 0.09810
C23 C -0.47835(18) 0.65279(19) 0.08925(9)
C24 C -0.40180(18) 0.74416(18) 0.11077(9)
H8 H -0.41580 0.82100 0.10020
C25 C 0.23766(18) 0.23462(17) 0.24834(8)
H9 H 0.22020 0.17940 0.21710
C26 C 0.33467(19) 0.21914(18) 0.28385(9)
H10 H 0.39130 0.16140 0.27450
C27 C 0.35249(19) 0.28856(17) 0.33496(8)
C28 C 0.27186(18) 0.38019(17) 0.34729(8)
C29 C 0.2731(2) 0.42586(18) 0.40285(9)
C30 C 0.3623(2) 0.39152(19) 0.44003(9)
H11 H 0.36330 0.42300 0.47670
C31 C 0.4514(2) 0.31253(19) 0.42631(10)
C32 C 0.4438(2) 0.25963(19) 0.37444(9)
H12 H 0.50070 0.20250 0.36480
C33 C 0.22644(19) 0.85254(18) 0.36487(9)
C34 C 0.3444(2) 0.8193(2) 0.39483(11)
H13 H 0.38090 0.88940 0.41690
H14 H 0.39780 0.78880 0.36870
H15 H 0.33020 0.75830 0.41820
C35 C 0.1436(3) 0.8998(2) 0.40581(11)
H16 H 0.13050 0.83910 0.42950
H17 H 0.06730 0.92040 0.38670
H18 H 0.17980 0.97050 0.42760
C36 C 0.2526(2) 0.9505(2) 0.33042(10)
H19 H 0.17770 0.97770 0.31250
H20 H 0.30320 0.91980 0.30310
H21 H 0.29350 1.01690 0.35360
C37 C -0.10404(17) 0.20109(16) 0.08537(8)
C38 C 0.00641(19) 0.1551(2) 0.06046(9)
H22 H -0.01800 0.10200 0.02750
H23 H 0.05550 0.11190 0.08630
H24 H 0.05250 0.22200 0.05150
C39 C -0.16908(19) 0.09592(18) 0.10377(9)
H25 H -0.24270 0.12330 0.11780
H26 H -0.11770 0.06220 0.13220
H27 H -0.18820 0.03530 0.07300
C40 C -0.18470(19) 0.25309(18) 0.04104(8)
H28 H -0.25990 0.27660 0.05450
H29 H -0.20050 0.19350 0.00970
H30 H -0.14540 0.32250 0.03050
C41 C -0.58358(19) 0.6693(2) 0.04873(9)
H31 H -0.58980 0.75310 0.04320
H32 H -0.65620 0.64300 0.06210
H33 H -0.57350 0.62250 0.01440
C42 C -0.36983(18) 0.40809(17) 0.17308(8)
H34 H -0.45100 0.39370 0.18120
H35 H -0.31550 0.41630 0.20670
H36 H -0.34560 0.34140 0.14880
C43 C 0.1727(2) 0.4966(2) 0.42474(9)
H37 H 0.16270 0.47580 0.46090
H38 H 0.09880 0.47840 0.40070
H39 H 0.19150 0.58130 0.42680
C44 C 0.5479(3) 0.2822(2) 0.46927(11)
H40 H 0.51790 0.22130 0.48930
H41 H 0.57110 0.35320 0.49410
H42 H 0.61710 0.25240 0.45220
C45 C 0.49103(17) 0.91223(16) 0.22213(8)
C46 C 0.39068(17) 0.87608(16) 0.18528(8)
C47 C 0.36302(17) 0.93856(16) 0.14062(8)
H43 H 0.30030 0.90950 0.11390
C48 C 0.42347(16) 1.04123(16) 0.13381(8)
C49 C 0.51680(17) 1.08120(16) 0.17312(8)
H44 H 0.55590 1.15400 0.17030
C50 C 0.55451(17) 1.01767(16) 0.21640(8)
C51 C 0.65593(17) 1.05614(17) 0.25588(8)
C52 C 0.68261(18) 0.99672(17) 0.30157(8)
C53 C 0.63510(18) 0.87645(17) 0.29990(8)
C54 C 0.69427(19) 0.79304(17) 0.32985(8)
H45 H 0.76430 0.81690 0.35320
C55 C 0.65414(19) 0.67630(17) 0.32655(8)
C56 C 0.55251(19) 0.64194(17) 0.29137(8)
H46 H 0.52200 0.56360 0.29020
C57 C 0.49388(18) 0.71854(17) 0.25775(8)
C58 C 0.38966(17) 0.68213(17) 0.21964(8)
C59 C 0.32912(17) 0.76468(16) 0.18978(8)
C60 C 0.53761(17) 0.83745(16) 0.26144(8)
C61 C 0.73390(18) 1.14935(17) 0.24727(8)
H47 H 0.71710 1.18980 0.21620
C62 C 0.8312(2) 1.18131(18) 0.28245(9)
H48 H 0.88830 1.23440 0.27300
C63 C 0.84916(19) 1.13661(18) 0.33331(9)
C64 C 0.76728(19) 1.05029(17) 0.34569(9)
C65 C 0.7689(2) 1.03059(19) 0.40111(9)
C66 C 0.8595(2) 1.0815(2) 0.43791(9)
H49 H 0.86080 1.06670 0.47450
C67 C 0.9500(2) 1.1538(2) 0.42456(10)
C68 C 0.9415(2) 1.1830(2) 0.37265(10)
H50 H 0.99900 1.23540 0.36300
C69 C 0.34992(18) 0.56086(17) 0.20984(9)
H51 H 0.38700 0.50430 0.23120
C70 C 0.26055(18) 0.52593(17) 0.17071(9)
H52 H 0.24470 0.44380 0.16100
C71 C 0.18982(18) 0.60953(17) 0.14382(9)
C72 C 0.21613(17) 0.73187(16) 0.15844(8)
C73 C 0.12560(18) 0.81360(17) 0.14363(8)
C74 C 0.02917(19) 0.77293(18) 0.10724(9)
H53 H -0.02880 0.82820 0.09630
C75 C 0.01271(19) 0.65352(18) 0.08563(9)
C76 C 0.09082(19) 0.57302(18) 0.10623(9)
H54 H 0.07770 0.49110 0.09490
C77 C 0.38958(17) 1.11168(17) 0.08586(8)
C78 C 0.30210(18) 1.04291(18) 0.04208(8)
H55 H 0.33690 0.96740 0.02990
H56 H 0.28580 1.08950 0.01150
H57 H 0.22770 1.02800 0.05690
C79 C 0.33226(19) 1.22771(18) 0.10573(9)
H58 H 0.25850 1.21010 0.12050
H59 H 0.31440 1.27500 0.07550
H60 H 0.38720 1.27220 0.13390
C80 C 0.50046(19) 1.1402(2) 0.05973(9)
H61 H 0.55420 1.19220 0.08550
H62 H 0.47710 1.17990 0.02750
H63 H 0.54110 1.06660 0.04950
C81 C 0.7155(2) 0.58737(18) 0.36187(9)
C82 C 0.7422(3) 0.4726(2) 0.32743(10)
H64 H 0.79130 0.49100 0.29960
H65 H 0.66740 0.43480 0.31020
H66 H 0.78500 0.41870 0.35050
C83 C 0.6314(3) 0.5598(3) 0.40250(11)
H67 H 0.66680 0.49990 0.42440
H68 H 0.55530 0.52960 0.38310
H69 H 0.61830 0.63200 0.42600
C84 C 0.8336(3) 0.6359(2) 0.39258(12)
H70 H 0.81960 0.70960 0.41490
H71 H 0.88890 0.65140 0.36680
H72 H 0.86780 0.57770 0.41570
C85 C 1.0476(3) 1.2040(3) 0.46730(12)
H73 H 1.11420 1.23170 0.44990
H74 H 1.07500 1.14250 0.49010
H75 H 1.01690 1.27050 0.48960
C86 C 0.6682(2) 0.9710(2) 0.42309(9)
H76 H 0.68730 0.88800 0.42630
H77 H 0.59490 0.97530 0.39850
H78 H 0.65700 1.01120 0.45870
C87 C 0.12172(18) 0.93765(17) 0.17208(9)
H79 H 0.15000 0.99430 0.14940
H80 H 0.17280 0.94310 0.20660
H81 H 0.03980 0.95590 0.17870
C88 C -0.0933(2) 0.6157(2) 0.04552(10)
H82 H -0.08510 0.53290 0.03120
H83 H -0.09810 0.66560 0.01590
H84 H -0.16590 0.62400 0.06340
loop_
_geom_bond_atom_site_label_1
_geom_bond_atom_site_label_2
_geom_bond_distance
_geom_bond_site_symmetry_1
_geom_bond_site_symmetry_2
C1 C2 1.412 1_555 1_555
C2 C3 1.401 1_555 1_555
C3 H1 0.950 1_555 1_555
C4 C3 1.395 1_555 1_555
C5 C4 1.391 1_555 1_555
H2 C5 0.949 1_555 1_555
C6 C1 1.422 1_555 1_555
C7 C6 1.462 1_555 1_555
C8 C7 1.397 1_555 1_555
C9 C8 1.463 1_555 1_555
C10 C9 1.395 1_555 1_555
H3 C10 0.950 1_555 1_555
C11 C10 1.393 1_555 1_555
C12 C11 1.399 1_555 1_555
H4 C12 0.950 1_555 1_555
C13 C12 1.398 1_555 1_555
C14 C13 1.460 1_555 1_555
C15 C2 1.461 1_555 1_555
C16 C1 1.431 1_555 1_555
C17 C7 1.429 1_555 1_555
H5 C17 0.950 1_555 1_555
C18 C17 1.355 1_555 1_555
H6 C18 0.950 1_555 1_555
C19 C18 1.418 1_555 1_555
C20 C8 1.445 1_555 1_555
C21 C20 1.428 1_555 1_555
C22 C21 1.372 1_555 1_555
H7 C22 0.950 1_555 1_555
C23 C22 1.409 1_555 1_555
C24 C19 1.413 1_555 1_555
H8 C24 0.949 1_555 1_555
C25 C14 1.430 1_555 1_555
H9 C25 0.950 1_555 1_555
C26 C25 1.357 1_555 1_555
H10 C26 0.950 1_555 1_555
C27 C26 1.423 1_555 1_555
C28 C15 1.453 1_555 1_555
C29 C28 1.432 1_555 1_555
C30 C29 1.382 1_555 1_555
H11 C30 0.949 1_555 1_555
C31 C30 1.402 1_555 1_555
C32 C27 1.413 1_555 1_555
H12 C32 0.949 1_555 1_555
C33 C4 1.533 1_555 1_555
C34 C33 1.525 1_555 1_555
H13 C34 0.980 1_555 1_555
H14 C34 0.979 1_555 1_555
H15 C34 0.980 1_555 1_555
C35 C33 1.526 1_555 1_555
H16 C35 0.980 1_555 1_555
H17 C35 0.981 1_555 1_555
H18 C35 0.981 1_555 1_555
C36 C33 1.530 1_555 1_555
H19 C36 0.981 1_555 1_555
H20 C36 0.980 1_555 1_555
H21 C36 0.980 1_555 1_555
C37 C11 1.530 1_555 1_555
C38 C37 1.531 1_555 1_555
H22 C38 0.980 1_555 1_555
H23 C38 0.980 1_555 1_555
H24 C38 0.981 1_555 1_555
C39 C37 1.541 1_555 1_555
H25 C39 0.981 1_555 1_555
H26 C39 0.980 1_555 1_555
H27 C39 0.981 1_555 1_555
C40 C37 1.528 1_555 1_555
H28 C40 0.979 1_555 1_555
H29 C40 0.979 1_555 1_555
H30 C40 0.980 1_555 1_555
C41 C23 1.501 1_555 1_555
H31 C41 0.979 1_555 1_555
H32 C41 0.980 1_555 1_555
H33 C41 0.980 1_555 1_555
C42 C21 1.515 1_555 1_555
H34 C42 0.981 1_555 1_555
H35 C42 0.980 1_555 1_555
H36 C42 0.980 1_555 1_555
C43 C29 1.516 1_555 1_555
H37 C43 0.981 1_555 1_555
H38 C43 0.980 1_555 1_555
H39 C43 0.980 1_555 1_555
C44 C31 1.513 1_555 1_555
H40 C44 0.980 1_555 1_555
H41 C44 0.979 1_555 1_555
H42 C44 0.980 1_555 1_555
C45 C46 1.409 1_555 1_555
C46 C47 1.398 1_555 1_555
C47 H43 0.950 1_555 1_555
C48 C47 1.387 1_555 1_555
C49 C48 1.397 1_555 1_555
H44 C49 0.950 1_555 1_555
C50 C45 1.424 1_555 1_555
C51 C50 1.459 1_555 1_555
C52 C51 1.398 1_555 1_555
C53 C52 1.461 1_555 1_555
C54 C53 1.400 1_555 1_555
H45 C54 0.949 1_555 1_555
C55 C54 1.392 1_555 1_555
C56 C55 1.393 1_555 1_555
H46 C56 0.950 1_555 1_555
C57 C56 1.396 1_555 1_555
C58 C57 1.458 1_555 1_555
C59 C46 1.464 1_555 1_555
C60 C45 1.429 1_555 1_555
C61 C51 1.426 1_555 1_555
H47 C61 0.949 1_555 1_555
C62 C61 1.351 1_555 1_555
H48 C62 0.949 1_555 1_555
C63 C62 1.418 1_555 1_555
C64 C52 1.455 1_555 1_555
C65 C64 1.430 1_555 1_555
C66 C65 1.378 1_555 1_555
H49 C66 0.950 1_555 1_555
C67 C66 1.403 1_555 1_555
C68 C63 1.410 1_555 1_555
H50 C68 0.949 1_555 1_555
C69 C58 1.435 1_555 1_555
H51 C69 0.950 1_555 1_555
C70 C69 1.352 1_555 1_555
H52 C70 0.950 1_555 1_555
C71 C70 1.422 1_555 1_555
C72 C59 1.447 1_555 1_555
C73 C72 1.432 1_555 1_555
C74 C73 1.383 1_555 1_555
H53 C74 0.949 1_555 1_555
C75 C74 1.409 1_555 1_555
C76 C71 1.409 1_555 1_555
H54 C76 0.949 1_555 1_555
C77 C48 1.531 1_555 1_555
C78 C77 1.534 1_555 1_555
H55 C78 0.980 1_555 1_555
H56 C78 0.980 1_555 1_555
H57 C78 0.980 1_555 1_555
C79 C77 1.533 1_555 1_555
H58 C79 0.980 1_555 1_555
H59 C79 0.980 1_555 1_555
H60 C79 0.980 1_555 1_555
C80 C77 1.531 1_555 1_555
H61 C80 0.980 1_555 1_555
H62 C80 0.979 1_555 1_555
H63 C80 0.981 1_555 1_555
C81 C55 1.533 1_555 1_555
C82 C81 1.536 1_555 1_555
H64 C82 0.980 1_555 1_555
H65 C82 0.980 1_555 1_555
H66 C82 0.980 1_555 1_555
C83 C81 1.528 1_555 1_555
H67 C83 0.980 1_555 1_555
H68 C83 0.980 1_555 1_555
H69 C83 0.979 1_555 1_555
C84 C81 1.532 1_555 1_555
H70 C84 0.980 1_555 1_555
H71 C84 0.979 1_555 1_555
H72 C84 0.979 1_555 1_555
C85 C67 1.511 1_555 1_555
H73 C85 0.981 1_555 1_555
H74 C85 0.980 1_555 1_555
H75 C85 0.980 1_555 1_555
C86 C65 1.511 1_555 1_555
H76 C86 0.979 1_555 1_555
H77 C86 0.980 1_555 1_555
H78 C86 0.980 1_555 1_555
C87 C73 1.513 1_555 1_555
H79 C87 0.980 1_555 1_555
H80 C87 0.980 1_555 1_555
H81 C87 0.980 1_555 1_555
C88 C75 1.503 1_555 1_555
H82 C88 0.979 1_555 1_555
H83 C88 0.980 1_555 1_555
H84 C88 0.981 1_555 1_555
C5 C6 1.397 1_555 1_555
C9 C16 1.410 1_555 1_555
C13 C16 1.418 1_555 1_555
C14 C15 1.402 1_555 1_555
C19 C20 1.420 1_555 1_555
C23 C24 1.372 1_555 1_555
C27 C28 1.421 1_555 1_555
C31 C32 1.366 1_555 1_555
C49 C50 1.397 1_555 1_555
C53 C60 1.415 1_555 1_555
C57 C60 1.427 1_555 1_555
C58 C59 1.398 1_555 1_555
C63 C64 1.429 1_555 1_555
C67 C68 1.372 1_555 1_555
C71 C72 1.420 1_555 1_555
C75 C76 1.376 1_555 1_555
#END
