
#######################################################################
#
#                 Cambridge Crystallographic Data Centre
#                                CCDC
#
#######################################################################
#
# If this CIF has been generated from an entry in the Cambridge
# Structural Database, then it will include bibliographic, chemical,
# crystal, experimental, refinement or atomic coordinate data resulting
# from the CCDC's data processing and validation procedures.
#
#######################################################################

data_CSD_CIF_NODVEH
_audit_creation_date 1998-06-26
_audit_creation_method CSD-ConQuest-V1
_database_code_CSD NODVEH
_chemical_formula_sum 'C18 H18'
_chemical_formula_moiety
;
C18 H18
;
_journal_coden_Cambridge 82
_journal_volume 38
_journal_year 1997
_journal_page_first 1140
_journal_name_full 'Zh.Strukt.Khim.(Russ.)(J.Struct.Chem.) '
loop_
_publ_author_name
"T.V.Rybalova"
"Yu.V.Gatilov"
"N.V.Kochubei"
"S.A.Osadchii"
"V.G.Shubin"
_chemical_name_systematic
;
6b,7,8,8a-Tetramethyl-6b,8a-dihydrocyclobuta(a)acenaphthylene
;
_cell_volume   2754.173
_exptl_crystal_colour 'colorless'
_exptl_crystal_density_diffrn 1.13
_diffrn_ambient_temperature ?
_diffrn_special_details
;
The study was carried out at room temperature,in the range 283-303K

;
#These two values have been output from a single CSD field.
_refine_ls_R_factor_gt 0.0477
_refine_ls_wR_factor_gt 0.0477
_symmetry_cell_setting orthorhombic
_symmetry_space_group_name_H-M 'P b c a'
_symmetry_Int_Tables_number 61
loop_
_symmetry_equiv_pos_site_id
_symmetry_equiv_pos_as_xyz
1 x,y,z
2 1/2+x,y,1/2-z
3 x,1/2-y,1/2+z
4 1/2-x,1/2+y,z
5 -x,-y,-z
6 -1/2-x,-y,-1/2+z
7 -x,-1/2+y,-1/2-z
8 -1/2+x,-1/2-y,-z
_cell_length_a 14.762(3)
_cell_length_b 8.305(2)
_cell_length_c 22.465(4)
_cell_angle_alpha 90
_cell_angle_beta 90
_cell_angle_gamma 90
_cell_formula_units_Z 8
loop_
_atom_type_symbol
_atom_type_radius_bond
C 0.68
H 0.23
loop_
_atom_site_label
_atom_site_type_symbol
_atom_site_fract_x
_atom_site_fract_y
_atom_site_fract_z
C1 C 0.3584(2) 0.0243(3) 0.62734(10)
C2 C 0.3561(2) -0.1231(3) 0.65913(12)
C3 C 0.4292(2) -0.1807(3) 0.68933(10)
C4 C 0.51179(15) -0.0939(2) 0.69027(9)
C5 C 0.5931(2) -0.1358(3) 0.72003(10)
C6 C 0.6672(2) -0.0380(3) 0.71651(10)
C7 C 0.66670(14) 0.1065(3) 0.68328(10)
C8 C 0.58916(13) 0.1518(2) 0.65418(8)
C9 C 0.56700(13) 0.2956(2) 0.61569(9)
C10 C 0.58815(14) 0.2683(3) 0.54980(9)
C11 C 0.50260(14) 0.2425(3) 0.53366(9)
C12 C 0.46385(13) 0.2672(2) 0.59597(9)
C13 C 0.43724(13) 0.1117(2) 0.62672(8)
C14 C 0.51236(13) 0.0507(2) 0.65823(8)
C15 C 0.5935(2) 0.4564(3) 0.64273(13)
C16 C 0.6779(2) 0.2652(5) 0.5192(2)
C17 C 0.4552(2) 0.2015(4) 0.47752(11)
C18 C 0.3956(2) 0.4030(3) 0.60220(13)
H1 H 0.3085(17) 0.0678(28) 0.6063(11)
H2 H 0.2986(17) -0.1826(33) 0.6574(11)
H3 H 0.4266(17) -0.2874(32) 0.7092(12)
H4 H 0.5970(15) -0.2351(28) 0.7424(10)
H5 H 0.7251(15) -0.0676(29) 0.7381(10)
H6 H 0.7228(14) 0.1733(27) 0.6816(9)
H7 H 0.5697(23) 0.4714(42) 0.6853(17)
H8 H 0.5748(17) 0.5489(32) 0.6175(11)
H9 H 0.6589(20) 0.4639(33) 0.6451(12)
H10 H 0.7057(22) 0.3726(47) 0.5225(15)
H11 H 0.7147(22) 0.1869(44) 0.5372(14)
H12 H 0.6709(21) 0.2435(36) 0.4754(16)
H13 H 0.4054(22) 0.2823(39) 0.4680(14)
H14 H 0.4997(18) 0.2014(34) 0.4410(13)
H15 H 0.4186(20) 0.1050(42) 0.4825(13)
H16 H 0.3822(18) 0.4285(34) 0.6469(13)
H17 H 0.3367(16) 0.3714(29) 0.5819(11)
H18 H 0.4196(17) 0.4937(32) 0.5824(12)
loop_
_geom_bond_atom_site_label_1
_geom_bond_atom_site_label_2
_geom_bond_distance
_geom_bond_site_symmetry_1
_geom_bond_site_symmetry_2
C1 C2 1.418 1_555 1_555
C2 C3 1.361 1_555 1_555
C3 C4 1.417 1_555 1_555
C4 C5 1.417 1_555 1_555
C5 C6 1.365 1_555 1_555
C6 C7 1.413 1_555 1_555
C7 C8 1.371 1_555 1_555
C8 C9 1.510 1_555 1_555
C9 C10 1.530 1_555 1_555
C10 C11 1.331 1_555 1_555
C11 C12 1.526 1_555 1_555
C12 C9 1.603 1_555 1_555
C13 C1 1.372 1_555 1_555
C14 C4 1.400 1_555 1_555
C15 C9 1.518 1_555 1_555
C16 C10 1.493 1_555 1_555
C17 C11 1.482 1_555 1_555
C18 C12 1.519 1_555 1_555
H1 C1 0.947 1_555 1_555
H2 C2 0.983 1_555 1_555
H3 C3 0.993 1_555 1_555
H4 C5 0.967 1_555 1_555
H5 C6 1.013 1_555 1_555
H6 C7 0.998 1_555 1_555
H7 C15 1.026 1_555 1_555
H8 C15 0.994 1_555 1_555
H9 C15 0.969 1_555 1_555
H10 C16 0.985 1_555 1_555
H11 C16 0.939 1_555 1_555
H12 C16 1.006 1_555 1_555
H13 C17 1.018 1_555 1_555
H14 C17 1.051 1_555 1_555
H15 C17 0.973 1_555 1_555
H16 C18 1.045 1_555 1_555
H17 C18 1.016 1_555 1_555
H18 C18 0.944 1_555 1_555
C8 C14 1.414 1_555 1_555
C12 C13 1.516 1_555 1_555
C13 C14 1.410 1_555 1_555
#END
