
#######################################################################
#
#                 Cambridge Crystallographic Data Centre
#                                CCDC
#
#######################################################################
#
# If this CIF has been generated from an entry in the Cambridge
# Structural Database, then it will include bibliographic, chemical,
# crystal, experimental, refinement or atomic coordinate data resulting
# from the CCDC's data processing and validation procedures.
#
#######################################################################

data_CSD_CIF_NOGLAX
_audit_creation_date 2008-12-16
_audit_creation_method CSD-ConQuest-V1
_database_code_CSD NOGLAX
_database_code_depnum_ccdc_archive 'CCDC 686507'
_chemical_formula_sum 'C23 H16'
_chemical_formula_moiety
;
C23 H16
;
_journal_coden_Cambridge 179
_journal_volume 47
_journal_year 2008
_journal_page_first 4870
_journal_name_full 'Angew.Chem.,Int.Ed. '
loop_
_publ_author_name
"J.Ichikawa"
"M.Yokota"
"T.Kudo"
"S.Umezaki"
_chemical_name_systematic
;
2-methyldibenzo[c,g]phenanthrene
;
_cell_volume   2970.188
_exptl_crystal_density_diffrn 1.308
_diffrn_ambient_temperature 120
#These two values have been output from a single CSD field.
_refine_ls_R_factor_gt 0.0413
_refine_ls_wR_factor_gt 0.0413
_symmetry_cell_setting monoclinic
_symmetry_space_group_name_H-M 'P 21/n'
_symmetry_Int_Tables_number 14
loop_
_symmetry_equiv_pos_site_id
_symmetry_equiv_pos_as_xyz
1 x,y,z
2 1/2-x,1/2+y,1/2-z
3 -x,-y,-z
4 -1/2+x,-1/2-y,-1/2+z
_cell_length_a 10.072(2)
_cell_length_b 8.0358(18)
_cell_length_c 36.700(8)
_cell_angle_alpha 90
_cell_angle_beta 90.6382(10)
_cell_angle_gamma 90
_cell_formula_units_Z 8
loop_
_atom_type_symbol
_atom_type_radius_bond
C 0.68
H 0.23
loop_
_atom_site_label
_atom_site_type_symbol
_atom_site_fract_x
_atom_site_fract_y
_atom_site_fract_z
C1 C 0.6428(2) 0.9969(2) 0.23014(6)
H1 H 0.62260 1.06330 0.25180
H2 H 0.58760 0.89640 0.22990
H3 H 0.62420 1.06260 0.20820
C2 C 0.7877(2) 0.9480(2) 0.23101(6)
C3 C 0.8663(2) 0.9924(2) 0.25953(6)
H4 H 0.83090 1.06190 0.27800
C4 C 1.0003(2) 0.9380(2) 0.26266(5)
C5 C 1.0731(2) 0.9622(2) 0.29532(6)
H5 H 1.03660 1.02920 0.31410
C6 C 1.1952(2) 0.8908(2) 0.30045(6)
H6 H 1.24350 0.90880 0.32250
C7 C 1.2485(2) 0.7904(2) 0.27286(6)
H7 H 1.33150 0.73670 0.27670
C8 C 1.1817(2) 0.7697(2) 0.24052(6)
H8 H 1.21930 0.70130 0.22220
C9 C 1.0580(2) 0.8475(2) 0.23360(5)
C10 C 0.9823(2) 0.8246(2) 0.20011(5)
C11 C 1.0376(2) 0.7596(2) 0.16656(5)
C12 C 1.1744(2) 0.7813(2) 0.15512(5)
C13 C 1.2581(2) 0.9059(2) 0.16984(5)
H9 H 1.22760 0.97120 0.18970
C14 C 1.3821(2) 0.9352(2) 0.15625(6)
H10 H 1.43550 1.02100 0.16650
C15 C 1.4309(2) 0.8399(3) 0.12743(6)
H11 H 1.51800 0.85830 0.11860
C16 C 1.3522(2) 0.7203(3) 0.11219(6)
H12 H 1.38570 0.65450 0.09290
C17 C 1.2218(2) 0.6923(2) 0.12451(6)
C18 C 1.1328(2) 0.5879(2) 0.10451(6)
H13 H 1.16620 0.51690 0.08610
C19 C 1.0015(2) 0.5890(2) 0.11154(5)
H14 H 0.94230 0.52770 0.09630
C20 C 0.9504(2) 0.6815(2) 0.14160(5)
C21 C 0.8112(2) 0.6986(2) 0.14578(6)
H15 H 0.75270 0.64250 0.12940
C22 C 0.7607(2) 0.7939(2) 0.17275(5)
H16 H 0.66850 0.81870 0.17280
C23 C 0.8443(2) 0.8572(2) 0.20097(5)
C24 C 0.5903(2) 0.7858(2) 0.31924(6)
H17 H 0.65350 0.82540 0.30110
H18 H 0.52830 0.87550 0.32520
H19 H 0.54080 0.69070 0.30930
C25 C 0.6644(2) 0.7332(2) 0.35316(5)
C26 C 0.7961(2) 0.7623(2) 0.35705(6)
H20 H 0.84310 0.81020 0.33740
C27 C 0.8660(2) 0.7229(2) 0.38993(6)
C28 C 0.9968(2) 0.7813(2) 0.39599(6)
H21 H 1.04160 0.83760 0.37700
C29 C 1.0596(2) 0.7581(2) 0.42878(6)
H22 H 1.14780 0.79690 0.43240
C30 C 0.9933(2) 0.6768(2) 0.45708(6)
H23 H 1.03550 0.66420 0.48020
C31 C 0.8675(2) 0.6153(2) 0.45146(6)
H24 H 0.82410 0.56060 0.47090
C32 C 0.8010(2) 0.6311(2) 0.41762(5)
C33 C 0.66570(19) 0.5761(2) 0.41137(5)
C34 C 0.59494(19) 0.4648(2) 0.43516(5)
C35 C 0.6565(2) 0.3314(2) 0.45623(5)
C36 C 0.7818(2) 0.2629(2) 0.44787(5)
H25 H 0.83140 0.31020 0.42860
C37 C 0.8337(2) 0.1305(2) 0.46665(6)
H26 H 0.91710 0.08520 0.45990
C38 C 0.7638(2) 0.0618(2) 0.49579(6)
H27 H 0.80150 -0.02660 0.50960
C39 C 0.6412(2) 0.1223(2) 0.50422(6)
H28 H 0.59460 0.07540 0.52410
C40 C 0.5820(2) 0.2526(2) 0.48406(5)
C41 C 0.4461(2) 0.2941(2) 0.48861(6)
H29 H 0.39910 0.25150 0.50890
C42 C 0.3833(2) 0.3937(2) 0.46435(6)
H30 H 0.29000 0.40940 0.46590
C43 C 0.4559(2) 0.4759(2) 0.43625(5)
C44 C 0.3869(2) 0.5670(2) 0.40892(6)
H31 H 0.29310 0.57750 0.40990
C45 C 0.4541(2) 0.6392(2) 0.38136(6)
H32 H 0.40610 0.68470 0.36130
C46 C 0.5942(2) 0.6482(2) 0.38185(5)
loop_
_geom_bond_atom_site_label_1
_geom_bond_atom_site_label_2
_geom_bond_distance
_geom_bond_site_symmetry_1
_geom_bond_site_symmetry_2
C1 H1 0.981 1_555 1_555
H2 C1 0.980 1_555 1_555
H3 C1 0.979 1_555 1_555
C2 C1 1.511 1_555 1_555
C3 C2 1.353 1_555 1_555
H4 C3 0.951 1_555 1_555
C4 C3 1.422 1_555 1_555
C5 C4 1.412 1_555 1_555
H5 C5 0.952 1_555 1_555
C6 C5 1.368 1_555 1_555
H6 C6 0.951 1_555 1_555
C7 C6 1.406 1_555 1_555
H7 C7 0.950 1_555 1_555
C8 C7 1.368 1_555 1_555
H8 C8 0.950 1_555 1_555
C9 C4 1.421 1_555 1_555
C10 C9 1.451 1_555 1_555
C11 C10 1.454 1_555 1_555
C12 C11 1.455 1_555 1_555
C13 C12 1.412 1_555 1_555
H9 C13 0.952 1_555 1_555
C14 C13 1.370 1_555 1_555
H10 C14 0.950 1_555 1_555
C15 C14 1.399 1_555 1_555
H11 C15 0.950 1_555 1_555
C16 C15 1.362 1_555 1_555
H12 C16 0.949 1_555 1_555
C17 C12 1.419 1_555 1_555
C18 C17 1.425 1_555 1_555
H13 C18 0.949 1_555 1_555
C19 C18 1.350 1_555 1_555
H14 C19 0.951 1_555 1_555
C20 C11 1.409 1_555 1_555
C21 C20 1.419 1_555 1_555
H15 C21 0.951 1_555 1_555
C22 C21 1.355 1_555 1_555
H16 C22 0.950 1_555 1_555
C23 C2 1.445 1_555 1_555
C24 H17 0.979 1_555 1_555
H18 C24 0.980 1_555 1_555
H19 C24 0.981 1_555 1_555
C25 C24 1.505 1_555 1_555
C26 C25 1.353 1_555 1_555
H20 C26 0.949 1_555 1_555
C27 C26 1.426 1_555 1_555
C28 C27 1.414 1_555 1_555
H21 C28 0.949 1_555 1_555
C29 C28 1.366 1_555 1_555
H22 C29 0.949 1_555 1_555
C30 C29 1.402 1_555 1_555
H23 C30 0.950 1_555 1_555
C31 C30 1.373 1_555 1_555
H24 C31 0.949 1_555 1_555
C32 C27 1.421 1_555 1_555
C33 C32 1.448 1_555 1_555
C34 C33 1.444 1_555 1_555
C35 C34 1.456 1_555 1_555
C36 C35 1.414 1_555 1_555
H25 C36 0.950 1_555 1_555
C37 C36 1.368 1_555 1_555
H26 C37 0.951 1_555 1_555
C38 C37 1.400 1_555 1_555
H27 C38 0.949 1_555 1_555
C39 C38 1.366 1_555 1_555
H28 C39 0.950 1_555 1_555
C40 C35 1.423 1_555 1_555
C41 C40 1.420 1_555 1_555
H29 C41 0.951 1_555 1_555
C42 C41 1.349 1_555 1_555
H30 C42 0.950 1_555 1_555
C43 C34 1.404 1_555 1_555
C44 C43 1.418 1_555 1_555
H31 C44 0.950 1_555 1_555
C45 C44 1.354 1_555 1_555
H32 C45 0.949 1_555 1_555
C46 C25 1.446 1_555 1_555
C8 C9 1.414 1_555 1_555
C10 C23 1.415 1_555 1_555
C16 C17 1.412 1_555 1_555
C19 C20 1.431 1_555 1_555
C22 C23 1.422 1_555 1_555
C31 C32 1.410 1_555 1_555
C33 C46 1.418 1_555 1_555
C39 C40 1.410 1_555 1_555
C42 C43 1.432 1_555 1_555
C45 C46 1.413 1_555 1_555
#END
