
#######################################################################
#
#                 Cambridge Crystallographic Data Centre
#                                CCDC
#
#######################################################################
#
# If this CIF has been generated from an entry in the Cambridge
# Structural Database, then it will include bibliographic, chemical,
# crystal, experimental, refinement or atomic coordinate data resulting
# from the CCDC's data processing and validation procedures.
#
#######################################################################

data_CSD_CIF_NOTVAT01
_audit_creation_date 2013-09-18
_audit_creation_method CSD-ConQuest-V1
_database_code_CSD NOTVAT01
_database_code_depnum_ccdc_archive 'CCDC 961585'
_chemical_formula_sum 'C30 H28'
_chemical_formula_moiety
;
C30 H28
;
_journal_coden_Cambridge 24
_journal_volume 38
_journal_year 1997
_journal_page_first 5095
_journal_name_full 'Tetrahedron Lett. '
loop_
_publ_author_name
"A.Sygula"
"F.R.Fronczek"
"P.W.Rabideau"
_chemical_name_systematic
;
1,4,5,6,7,10,11,12-Octamethylindeno[1,2,3-cd]fluoranthene
;
_cell_volume   1000.300
_exptl_crystal_colour 'orange'
_exptl_crystal_density_diffrn 1.29
_exptl_crystal_description 'prism'
_diffrn_ambient_temperature 100
#These two values have been output from a single CSD field.
_refine_ls_R_factor_gt 0.065
_refine_ls_wR_factor_gt 0.065
_symmetry_cell_setting triclinic
_symmetry_space_group_name_H-M 'P -1'
_symmetry_Int_Tables_number 2
loop_
_symmetry_equiv_pos_site_id
_symmetry_equiv_pos_as_xyz
1 x,y,z
2 -x,-y,-z
_cell_length_a 7.278(4)
_cell_length_b 11.684(2)
_cell_length_c 12.589(5)
_cell_angle_alpha 101.17(2)
_cell_angle_beta 94.31(4)
_cell_angle_gamma 105.97(3)
_cell_formula_units_Z 2
loop_
_atom_type_symbol
_atom_type_radius_bond
C 0.68
H 0.23
loop_
_atom_site_label
_atom_site_type_symbol
_atom_site_fract_x
_atom_site_fract_y
_atom_site_fract_z
C1 C 0.1690(5) 0.3194(3) 0.5104(3)
C2 C 0.1315(5) 0.1940(3) 0.5061(3)
C3 C 0.1311(5) 0.1111(3) 0.4117(3)
C4 C 0.1507(5) 0.1472(3) 0.3114(3)
C5 C 0.1512(5) 0.3054(3) 0.1072(3)
C6 C 0.2060(5) 0.3991(3) 0.0451(3)
C7 C 0.3594(5) 0.6867(3) -0.0247(3)
C8 C 0.4526(5) 0.8102(3) -0.0175(3)
C9 C 0.5329(5) 0.8912(3) 0.0798(3)
C10 C 0.5102(5) 0.8573(3) 0.1803(3)
C11 C 0.3501(4) 0.7011(3) 0.3785(3)
C12 C 0.3133(4) 0.6071(3) 0.4411(3)
C13 C 0.1972(4) 0.3600(3) 0.4136(3)
C14 C 0.1691(4) 0.2692(3) 0.3117(3)
C15 C 0.1900(5) 0.3334(3) 0.2210(3)
C16 C 0.2518(4) 0.4585(3) 0.2729(3)
C17 C 0.2575(4) 0.4831(3) 0.3876(3)
C18 C 0.2960(5) 0.5472(3) 0.2153(3)
C19 C 0.2778(5) 0.5226(3) 0.0998(3)
C20 C 0.3436(5) 0.6467(3) 0.0737(3)
C21 C 0.4055(5) 0.7369(3) 0.1769(3)
C22 C 0.3586(5) 0.6728(3) 0.2671(3)
C23 C 0.1731(5) 0.3970(3) 0.6220(3)
C24 C 0.1633(5) 0.0511(3) 0.2154(3)
C25 C 0.0279(5) 0.1797(3) 0.0429(3)
C26 C 0.1847(5) 0.3541(3) -0.0779(3)
C27 C 0.2790(6) 0.6107(3) -0.1386(3)
C28 C 0.6194(6) 0.9510(3) 0.2818(3)
C29 C 0.3617(5) 0.8292(3) 0.4374(3)
C30 C 0.3399(5) 0.6524(3) 0.5638(3)
H1 H 0.10550 0.16520 0.57060
H2 H 0.11740 0.02850 0.41420
H3 H 0.46060 0.83930 -0.08300
H4 H 0.60570 0.97210 0.07930
H5 H 0.30260 0.43070 0.65690
H6 H 0.09930 0.34800 0.66490
H7 H 0.11990 0.46120 0.61440
H8 H 0.03740 0.00800 0.17810
H9 H 0.22030 -0.00440 0.24070
H10 H 0.24000 0.08910 0.16690
H11 H 0.10830 0.13670 0.00800
H12 H -0.06300 0.18870 -0.01070
H13 H -0.03850 0.13530 0.09130
H14 H 0.27830 0.40940 -0.10690
H15 H 0.05920 0.34920 -0.10930
H16 H 0.20340 0.27560 -0.09440
H17 H 0.14780 0.56630 -0.14010
H18 H 0.35110 0.55530 -0.15880
H19 H 0.28750 0.66280 -0.18850
H20 H 0.68000 0.91280 0.32800
H21 H 0.53210 0.98530 0.31960
H22 H 0.71460 1.01380 0.26150
H23 H 0.33880 0.87460 0.38550
H24 H 0.48640 0.86780 0.47780
H25 H 0.26730 0.82570 0.48570
H26 H 0.44120 0.72720 0.58480
H27 H 0.37150 0.59340 0.59810
H28 H 0.22370 0.66520 0.58570
loop_
_geom_bond_atom_site_label_1
_geom_bond_atom_site_label_2
_geom_bond_distance
_geom_bond_site_symmetry_1
_geom_bond_site_symmetry_2
C1 C2 1.404 1_555 1_555
C2 C3 1.379 1_555 1_555
C3 C4 1.412 1_555 1_555
C4 C14 1.394 1_555 1_555
C5 C6 1.452 1_555 1_555
C6 C19 1.406 1_555 1_555
C7 C8 1.397 1_555 1_555
C8 C9 1.370 1_555 1_555
C9 C10 1.405 1_555 1_555
C10 C21 1.394 1_555 1_555
C11 C12 1.451 1_555 1_555
C12 C17 1.405 1_555 1_555
C13 C1 1.400 1_555 1_555
C14 C13 1.458 1_555 1_555
C15 C5 1.395 1_555 1_555
C16 C15 1.411 1_555 1_555
C17 C13 1.492 1_555 1_555
C18 C16 1.359 1_555 1_555
C19 C18 1.415 1_555 1_555
C20 C7 1.408 1_555 1_555
C21 C20 1.457 1_555 1_555
C22 C11 1.387 1_555 1_555
C23 C1 1.511 1_555 1_555
C24 C4 1.509 1_555 1_555
C25 C5 1.524 1_555 1_555
C26 C6 1.517 1_555 1_555
C27 C7 1.510 1_555 1_555
C28 C10 1.513 1_555 1_555
C29 C11 1.513 1_555 1_555
C30 C12 1.512 1_555 1_555
H1 C2 0.950 1_555 1_555
H2 C3 0.950 1_555 1_555
H3 C8 0.951 1_555 1_555
H4 C9 0.949 1_555 1_555
H5 C23 0.950 1_555 1_555
H6 C23 0.950 1_555 1_555
H7 C23 0.951 1_555 1_555
H8 C24 0.951 1_555 1_555
H9 C24 0.950 1_555 1_555
H10 C24 0.949 1_555 1_555
H11 C25 0.950 1_555 1_555
H12 C25 0.950 1_555 1_555
H13 C25 0.950 1_555 1_555
H14 C26 0.949 1_555 1_555
H15 C26 0.950 1_555 1_555
H16 C26 0.950 1_555 1_555
H17 C27 0.950 1_555 1_555
H18 C27 0.950 1_555 1_555
H19 C27 0.950 1_555 1_555
H20 C28 0.950 1_555 1_555
H21 C28 0.950 1_555 1_555
H22 C28 0.950 1_555 1_555
H23 C29 0.950 1_555 1_555
H24 C29 0.950 1_555 1_555
H25 C29 0.949 1_555 1_555
H26 C30 0.951 1_555 1_555
H27 C30 0.950 1_555 1_555
H28 C30 0.950 1_555 1_555
C14 C15 1.478 1_555 1_555
C16 C17 1.412 1_555 1_555
C18 C22 1.415 1_555 1_555
C19 C20 1.505 1_555 1_555
C21 C22 1.488 1_555 1_555
#END
