
#######################################################################
#
#                 Cambridge Crystallographic Data Centre
#                                CCDC
#
#######################################################################
#
# If this CIF has been generated from an entry in the Cambridge
# Structural Database, then it will include bibliographic, chemical,
# crystal, experimental, refinement or atomic coordinate data resulting
# from the CCDC's data processing and validation procedures.
#
#######################################################################

data_CSD_CIF_NPCBCP
_audit_creation_date 1980-09-10
_audit_creation_method CSD-ConQuest-V1
_database_code_CSD NPCBCP
_chemical_formula_sum 'C18 H16'
_chemical_formula_moiety
;
C18 H16
;
_journal_coeditor_code "IUCr A18779"
_journal_coden_Cambridge 107
_journal_volume 36
_journal_year 1980
_journal_page_first 963
_journal_name_full 'Acta Crystallogr.,Sect.B:Struct.Crystallogr.Cryst.Chem. '
loop_
_publ_author_name
"D.L.Ward"
_chemical_name_systematic
;
Naphtho(2,3-6,7)dicyclobutene(1,8:4,5)dicyclopentene
;
_cell_volume    292.338
_exptl_crystal_density_diffrn 1.32
_diffrn_ambient_temperature ?
_diffrn_special_details
;
The study was carried out at room temperature,in the range 283-303K

;
#These two values have been output from a single CSD field.
_refine_ls_R_factor_gt 0.035
_refine_ls_wR_factor_gt 0.035
_symmetry_cell_setting triclinic
_symmetry_space_group_name_H-M 'P -1'
_symmetry_Int_Tables_number 2
loop_
_symmetry_equiv_pos_site_id
_symmetry_equiv_pos_as_xyz
1 x,y,z
2 -x,-y,-z
_cell_length_a 6.603(2)
_cell_length_b 8.545(2)
_cell_length_c 5.238(2)
_cell_angle_alpha 95.10(2)
_cell_angle_beta 94.72(3)
_cell_angle_gamma 84.80(2)
_cell_formula_units_Z 1
loop_
_atom_type_symbol
_atom_type_radius_bond
C 0.68
H 0.23
loop_
_atom_site_label
_atom_site_type_symbol
_atom_site_fract_x
_atom_site_fract_y
_atom_site_fract_z
C1 C 0.01100 -0.19500 -0.19520
C2 C -0.14750 -0.25290 -0.09150
C3 C -0.25930 -0.16510 0.10290
C4 C -0.21860 -0.01750 0.20120
C5 C 0.05430 -0.04210 -0.09580
C6 C 0.16140 -0.25000 -0.40070
C7 C -0.27350 -0.39470 -0.09720
C8 C -0.39510 -0.29860 0.12260
C9 C -0.29810 0.10860 0.40140
H1 H 0.08100 -0.28500 -0.57800
H2 H 0.23300 -0.35300 -0.37000
H3 H -0.18800 -0.50400 -0.04600
H4 H -0.36200 -0.42100 -0.26900
H5 H -0.53700 -0.27200 0.08200
H6 H -0.37400 -0.34600 0.29200
H7 H -0.28600 0.06500 0.56900
H8 H -0.44700 0.14200 0.35300
C5A C -0.05430 0.04210 0.09580
C4A C 0.21860 0.01750 -0.20120
C9A C 0.29810 -0.10860 -0.40140
C6A C -0.16140 0.25000 0.40070
C1A C -0.01100 0.19500 0.19520
C3A C 0.25930 0.16510 -0.10290
H7A H 0.28600 -0.06500 -0.56900
H8A H 0.44700 -0.14200 -0.35300
H1A H -0.08100 0.28500 0.57800
H2A H -0.23300 0.35300 0.37000
C2A C 0.14750 0.25290 0.09150
C8A C 0.39510 0.29860 -0.12260
C7A C 0.27350 0.39470 0.09720
H5A H 0.53700 0.27200 -0.08200
H6A H 0.37400 0.34600 -0.29200
H3A H 0.18800 0.50400 0.04600
H4A H 0.36200 0.42100 0.26900
loop_
_geom_bond_atom_site_label_1
_geom_bond_atom_site_label_2
_geom_bond_distance
_geom_bond_site_symmetry_1
_geom_bond_site_symmetry_2
C1 C2 1.368 1_555 1_555
C2 C3 1.426 1_555 1_555
C3 C4 1.361 1_555 1_555
C4 C9 1.524 1_555 1_555
C5 C1 1.408 1_555 1_555
C6 C1 1.539 1_555 1_555
C7 C2 1.528 1_555 1_555
C8 C3 1.529 1_555 1_555
C9 H7 0.978 1_555 1_555
H1 C6 1.064 1_555 1_555
H2 C6 0.980 1_555 1_555
H3 C7 1.089 1_555 1_555
H4 C7 1.050 1_555 1_555
H5 C8 0.955 1_555 1_555
H6 C8 1.002 1_555 1_555
H8 C9 1.017 1_555 1_555
C5A C4 1.411 1_555 1_555
C4A C5 1.411 1_555 1_555
C9A C6 1.573 1_555 1_555
C6A C9 1.573 1_555 1_555
C1A C5A 1.408 1_555 1_555
C3A C4A 1.361 1_555 1_555
H7A C9A 0.978 1_555 1_555
H8A C9A 1.017 1_555 1_555
H1A C6A 1.064 1_555 1_555
H2A C6A 0.980 1_555 1_555
C2A C1A 1.368 1_555 1_555
C8A C3A 1.529 1_555 1_555
C7A C2A 1.528 1_555 1_555
H5A C8A 0.955 1_555 1_555
H6A C8A 1.002 1_555 1_555
H3A C7A 1.089 1_555 1_555
H4A C7A 1.050 1_555 1_555
C5 C5A 1.391 1_555 1_555
C7 C8 1.584 1_555 1_555
C4A C9A 1.524 1_555 1_555
C6A C1A 1.539 1_555 1_555
C3A C2A 1.426 1_555 1_555
C8A C7A 1.584 1_555 1_555
#END
