
#######################################################################
#
#                 Cambridge Crystallographic Data Centre
#                                CCDC
#
#######################################################################
#
# If this CIF has been generated from an entry in the Cambridge
# Structural Database, then it will include bibliographic, chemical,
# crystal, experimental, refinement or atomic coordinate data resulting
# from the CCDC's data processing and validation procedures.
#
#######################################################################

data_CSD_CIF_NPDCBU
_audit_creation_date 1980-04-09
_audit_creation_method CSD-ConQuest-V1
_database_code_CSD NPDCBU
_chemical_formula_sum 'C14 H12'
_chemical_formula_moiety
;
C14 H12
;
_journal_coden_Cambridge 4
_journal_volume 101
_journal_year 1979
_journal_page_first 4273
_journal_name_full 'J.Am.Chem.Soc. '
loop_
_publ_author_name
"J.D.Korp"
"I.Bernal"
_chemical_name_systematic
;
Naphtho(b,e)dicyclobutane
;
_cell_volume    237.240
_exptl_crystal_density_diffrn 1.261
_diffrn_ambient_temperature ?
_diffrn_special_details
;
The study was carried out at room temperature,in the range 283-303K

;
#These two values have been output from a single CSD field.
_refine_ls_R_factor_gt 0.041
_refine_ls_wR_factor_gt 0.041
_symmetry_cell_setting triclinic
_symmetry_space_group_name_H-M 'P -1'
_symmetry_Int_Tables_number 2
loop_
_symmetry_equiv_pos_site_id
_symmetry_equiv_pos_as_xyz
1 x,y,z
2 -x,-y,-z
_cell_length_a 5.700(1)
_cell_length_b 6.790(3)
_cell_length_c 6.946(4)
_cell_angle_alpha 68.10(4)
_cell_angle_beta 72.40(2)
_cell_angle_gamma 86.87(3)
_cell_formula_units_Z 1
loop_
_atom_type_symbol
_atom_type_radius_bond
C 0.68
H 0.23
loop_
_atom_site_label
_atom_site_type_symbol
_atom_site_fract_x
_atom_site_fract_y
_atom_site_fract_z
C1 C -0.12690 -0.03420 0.06280
C2 C -0.24800 0.04320 0.23180
C3 C -0.11490 0.17900 0.26710
C4 C -0.12230 0.31040 0.40770
C5 C 0.15250 0.38800 0.26650
C6 C 0.13210 0.24650 0.14330
C7 C -0.25690 -0.17920 0.01940
H1 H -0.42300 -0.00900 0.31900
H2 H -0.14800 0.22400 0.56600
H3 H -0.24200 0.42800 0.38900
H4 H 0.28000 0.35200 0.34700
H5 H 0.17600 0.53900 0.17200
H6 H -0.42600 -0.23400 0.11800
C1A C 0.12690 0.03420 -0.06280
C7A C 0.25690 0.17920 -0.01940
C6A C -0.13210 -0.24650 -0.14330
C2A C 0.24800 -0.04320 -0.23180
H6A H 0.42600 0.23400 -0.11800
C3A C 0.11490 -0.17900 -0.26710
C5A C -0.15250 -0.38800 -0.26650
H1A H 0.42300 0.00900 -0.31900
C4A C 0.12230 -0.31040 -0.40770
H4A H -0.28000 -0.35200 -0.34700
H5A H -0.17600 -0.53900 -0.17200
H2A H 0.14800 -0.22400 -0.56600
H3A H 0.24200 -0.42800 -0.38900
loop_
_geom_bond_atom_site_label_1
_geom_bond_atom_site_label_2
_geom_bond_distance
_geom_bond_site_symmetry_1
_geom_bond_site_symmetry_2
C1 C2 1.436 1_555 1_555
C2 C3 1.358 1_555 1_555
C3 C4 1.540 1_555 1_555
C4 C5 1.571 1_555 1_555
C5 C6 1.534 1_555 1_555
C6 C3 1.406 1_555 1_555
C7 C1 1.430 1_555 1_555
H1 C2 1.000 1_555 1_555
H2 C4 1.003 1_555 1_555
H3 C4 1.018 1_555 1_555
H4 C5 1.012 1_555 1_555
H5 C5 0.980 1_555 1_555
H6 C7 0.993 1_555 1_555
C1A C1 1.441 1_555 1_555
C7A C6 1.362 1_555 1_555
C6A C7 1.362 1_555 1_555
C2A C1A 1.436 1_555 1_555
H6A C7A 0.993 1_555 1_555
C3A C6A 1.406 1_555 1_555
C5A C6A 1.534 1_555 1_555
H1A C2A 1.000 1_555 1_555
C4A C3A 1.540 1_555 1_555
H4A C5A 1.012 1_555 1_555
H5A C5A 0.980 1_555 1_555
H2A C4A 1.003 1_555 1_555
H3A C4A 1.018 1_555 1_555
C1A C7A 1.430 1_555 1_555
C2A C3A 1.358 1_555 1_555
C5A C4A 1.571 1_555 1_555
#END
