
#######################################################################
#
#                 Cambridge Crystallographic Data Centre
#                                CCDC
#
#######################################################################
#
# If this CIF has been generated from an entry in the Cambridge
# Structural Database, then it will include bibliographic, chemical,
# crystal, experimental, refinement or atomic coordinate data resulting
# from the CCDC's data processing and validation procedures.
#
#######################################################################

data_CSD_CIF_NUHVUJ
_audit_creation_date 2015-04-29
_audit_creation_method CSD-ConQuest-V1
_database_code_CSD NUHVUJ
_database_code_depnum_ccdc_archive 'CCDC 1024631'
_chemical_formula_sum 'C48 H32'
_chemical_formula_moiety
;
C48 H32
;
_journal_coden_Cambridge 1475
_journal_volume 6
_journal_year 2015
_journal_page_first 3538
_journal_name_full 'Chemical Science '
loop_
_publ_author_name
"Zikai He"
"Liang Shan"
"Ju Mei"
"Hong Wang"
"J.W.Y.Lam"
"H.H.Y.Sung"
"I.D.Williams"
"Xiao Gu"
"Qian Miao"
"Ben Zhong Tang"
_chemical_name_systematic
;
6,13-bis(diphenylmethylene)-6,13-dihydropentacene
;
_cell_volume   6678.702
_exptl_crystal_colour 'colorless'
_exptl_crystal_density_diffrn 1.211
_exptl_crystal_description 'block'
_diffrn_ambient_temperature 173
#These two values have been output from a single CSD field.
_refine_ls_R_factor_gt 0.0383
_refine_ls_wR_factor_gt 0.0383
_symmetry_cell_setting monoclinic
_symmetry_space_group_name_H-M 'C 2/c'
_symmetry_Int_Tables_number 15
loop_
_symmetry_equiv_pos_site_id
_symmetry_equiv_pos_as_xyz
1 x,y,z
2 -x,y,1/2-z
3 1/2+x,1/2+y,z
4 1/2-x,1/2+y,1/2-z
5 -x,-y,-z
6 x,-y,-1/2+z
7 -1/2-x,-1/2-y,-z
8 -1/2+x,-1/2-y,-1/2+z
_cell_length_a 28.4000(7)
_cell_length_b 12.0889(2)
_cell_length_c 20.7374(6)
_cell_angle_alpha 90
_cell_angle_beta 110.271(3)
_cell_angle_gamma 90
_cell_formula_units_Z 8
loop_
_atom_type_symbol
_atom_type_radius_bond
C 0.68
H 0.23
loop_
_atom_site_label
_atom_site_type_symbol
_atom_site_fract_x
_atom_site_fract_y
_atom_site_fract_z
C1 C 0.16420(4) 0.69342(8) 0.52494(5)
C2 C 0.15747(4) 0.80709(8) 0.54856(5)
C3 C 0.17490(4) 0.90138(8) 0.52747(5)
H1 H 0.19190 0.89560 0.49540
C4 C 0.16807(4) 1.00703(9) 0.55245(5)
C5 C 0.18499(5) 1.10564(9) 0.53031(6)
H2 H 0.20160 1.10150 0.49780
C6 C 0.17767(5) 1.20626(10) 0.55517(7)
H3 H 0.18910 1.27150 0.53970
C7 C 0.15325(5) 1.21378(9) 0.60363(7)
H4 H 0.14850 1.28410 0.62100
C8 C 0.13627(5) 1.12068(9) 0.62591(6)
H5 H 0.11970 1.12700 0.65850
C9 C 0.14307(4) 1.01461(9) 0.60096(5)
C10 C 0.12556(4) 0.91643(8) 0.62247(5)
H6 H 0.10900 0.92110 0.65510
C11 C 0.13200(4) 0.81469(8) 0.59722(5)
C12 C 0.11650(4) 0.70838(8) 0.62065(5)
C13 C 0.15580(4) 0.62133(8) 0.63250(5)
C14 C 0.17016(4) 0.55307(8) 0.68873(5)
H7 H 0.15410 0.55940 0.72180
C15 C 0.20843(4) 0.47343(8) 0.69855(5)
C16 C 0.22175(4) 0.39898(9) 0.75510(6)
H8 H 0.20450 0.40210 0.78700
C17 C 0.25896(5) 0.32325(10) 0.76397(6)
H9 H 0.26710 0.27280 0.80130
C18 C 0.28558(5) 0.31963(10) 0.71763(6)
H10 H 0.31240 0.26860 0.72520
C19 C 0.27317(4) 0.38859(9) 0.66225(6)
H11 H 0.29120 0.38450 0.63130
C20 C 0.23356(4) 0.46657(8) 0.65027(5)
C21 C 0.21846(4) 0.53812(8) 0.59262(5)
H12 H 0.23500 0.53410 0.56000
C22 C 0.18025(4) 0.61331(8) 0.58302(5)
C23 C 0.15352(4) 0.66434(8) 0.45879(5)
C24 C 0.15119(4) 0.54637(8) 0.43563(5)
C25 C 0.11050(5) 0.48204(10) 0.43504(7)
H13 H 0.08580 0.51230 0.45130
C26 C 0.10554(6) 0.37401(11) 0.41099(8)
H14 H 0.07770 0.33060 0.41110
C27 C 0.14111(6) 0.3297(1) 0.38685(7)
H15 H 0.13760 0.25600 0.37000
C28 C 0.18152(5) 0.39239(11) 0.38727(7)
H16 H 0.20620 0.36150 0.37130
C29 C 0.18646(4) 0.50087(10) 0.41098(6)
H17 H 0.21420 0.54410 0.41030
C30 C 0.13573(4) 0.74566(8) 0.40078(5)
C31 C 0.08590(5) 0.77969(10) 0.37758(6)
H18 H 0.06370 0.75200 0.39900
C32 C 0.06840(5) 0.85367(11) 0.32343(7)
H19 H 0.03430 0.87680 0.30810
C33 C 0.10036(6) 0.89387(10) 0.29165(7)
H20 H 0.08840 0.94520 0.25490
C34 C 0.14973(6) 0.85931(11) 0.31351(7)
H21 H 0.17170 0.88640 0.29140
C35 C 0.16739(5) 0.78523(10) 0.36761(6)
H22 H 0.20130 0.76130 0.38220
C36 C 0.07199(4) 0.68977(8) 0.62858(5)
C37 C 0.05885(4) 0.57639(9) 0.64656(6)
C38 C 0.04751(5) 0.49469(10) 0.59664(7)
H23 H 0.04530 0.51280 0.55110
C39 C 0.03933(6) 0.38641(12) 0.61269(10)
H24 H 0.03170 0.33080 0.57820
C40 C 0.04218(6) 0.35963(14) 0.67824(11)
H25 H 0.03720 0.28530 0.68930
C41 C 0.05227(6) 0.44059(14) 0.72807(9)
H26 H 0.05390 0.42200 0.77330
C42 C 0.06005(5) 0.54890(12) 0.71233(7)
H27 H 0.06620 0.60470 0.74660
C43 C 0.03099(4) 0.77368(9) 0.61310(6)
C44 C 0.01078(5) 0.81912(10) 0.54762(7)
H28 H 0.02410 0.79910 0.51310
C45 C -0.02878(6) 0.89352(12) 0.53257(8)
H29 H -0.04270 0.92320 0.48750
C46 C -0.04797(5) 0.92468(12) 0.58198(9)
H30 H -0.07480 0.97630 0.57140
C47 C -0.02821(6) 0.88079(11) 0.64691(9)
H31 H -0.04140 0.90230 0.68140
C48 C 0.01084(5) 0.80521(10) 0.66239(7)
H32 H 0.02400 0.77460 0.70730
loop_
_geom_bond_atom_site_label_1
_geom_bond_atom_site_label_2
_geom_bond_distance
_geom_bond_site_symmetry_1
_geom_bond_site_symmetry_2
C1 C2 1.493 1_555 1_555
C2 C3 1.373 1_555 1_555
C3 H1 0.950 1_555 1_555
C4 C3 1.417 1_555 1_555
C5 C4 1.420 1_555 1_555
H2 C5 0.949 1_555 1_555
C6 C5 1.365 1_555 1_555
H3 C6 0.950 1_555 1_555
C7 C6 1.408 1_555 1_555
H4 C7 0.951 1_555 1_555
C8 C7 1.366 1_555 1_555
H5 C8 0.951 1_555 1_555
C9 C4 1.421 1_555 1_555
C10 C9 1.417 1_555 1_555
H6 C10 0.950 1_555 1_555
C11 C2 1.434 1_555 1_555
C12 C11 1.493 1_555 1_555
C13 C12 1.491 1_555 1_555
C14 C13 1.370 1_555 1_555
H7 C14 0.949 1_555 1_555
C15 C14 1.413 1_555 1_555
C16 C15 1.422 1_555 1_555
H8 C16 0.951 1_555 1_555
C17 C16 1.362 1_555 1_555
H9 C17 0.949 1_555 1_555
C18 C17 1.414 1_555 1_555
H10 C18 0.950 1_555 1_555
C19 C18 1.363 1_555 1_555
H11 C19 0.951 1_555 1_555
C20 C15 1.419 1_555 1_555
C21 C20 1.416 1_555 1_555
H12 C21 0.949 1_555 1_555
C22 C1 1.489 1_555 1_555
C23 C1 1.345 1_555 1_555
C24 C23 1.499 1_555 1_555
C25 C24 1.389 1_555 1_555
H13 C25 0.951 1_555 1_555
C26 C25 1.388 1_555 1_555
H14 C26 0.950 1_555 1_555
C27 C26 1.381 1_555 1_555
H15 C27 0.950 1_555 1_555
C28 C27 1.373 1_555 1_555
H16 C28 0.949 1_555 1_555
C29 C24 1.386 1_555 1_555
H17 C29 0.950 1_555 1_555
C30 C23 1.499 1_555 1_555
C31 C30 1.390 1_555 1_555
H18 C31 0.949 1_555 1_555
C32 C31 1.386 1_555 1_555
H19 C32 0.951 1_555 1_555
C33 C32 1.382 1_555 1_555
H20 C33 0.950 1_555 1_555
C34 C33 1.380 1_555 1_555
H21 C34 0.951 1_555 1_555
C35 C30 1.392 1_555 1_555
H22 C35 0.949 1_555 1_555
C36 C12 1.349 1_555 1_555
C37 C36 1.501 1_555 1_555
C38 C37 1.386 1_555 1_555
H23 C38 0.950 1_555 1_555
C39 C38 1.390 1_555 1_555
H24 C39 0.950 1_555 1_555
C40 C39 1.372 1_555 1_555
H25 C40 0.950 1_555 1_555
C41 C40 1.379 1_555 1_555
H26 C41 0.950 1_555 1_555
C42 C37 1.393 1_555 1_555
H27 C42 0.951 1_555 1_555
C43 C36 1.493 1_555 1_555
C44 C43 1.391 1_555 1_555
H28 C44 0.950 1_555 1_555
C45 C44 1.388 1_555 1_555
H29 C45 0.950 1_555 1_555
C46 C45 1.370 1_555 1_555
H30 C46 0.950 1_555 1_555
C47 C46 1.373 1_555 1_555
H31 C47 0.951 1_555 1_555
C48 C43 1.387 1_555 1_555
H32 C48 0.950 1_555 1_555
C8 C9 1.421 1_555 1_555
C10 C11 1.374 1_555 1_555
C13 C22 1.428 1_555 1_555
C19 C20 1.422 1_555 1_555
C21 C22 1.376 1_555 1_555
C28 C29 1.390 1_555 1_555
C34 C35 1.386 1_555 1_555
C41 C42 1.386 1_555 1_555
C47 C48 1.386 1_555 1_555
#END
