
#######################################################################
#
#                 Cambridge Crystallographic Data Centre
#                                CCDC
#
#######################################################################
#
# If this CIF has been generated from an entry in the Cambridge
# Structural Database, then it will include bibliographic, chemical,
# crystal, experimental, refinement or atomic coordinate data resulting
# from the CCDC's data processing and validation procedures.
#
#######################################################################

data_CSD_CIF_NUMPOA
_audit_creation_date 1998-09-21
_audit_creation_method CSD-ConQuest-V1
_database_code_CSD NUMPOA
_chemical_formula_sum 'C34 H24'
_chemical_formula_moiety
;
C34 H24
;
_journal_coden_Cambridge 35
_journal_volume 63
_journal_year 1998
_journal_page_first 3735
_journal_name_full 'J.Org.Chem. '
loop_
_publ_author_name
"S.S.Rigby"
"M.Stradiotto"
"S.Brydges"
"D.L.Pole"
"S.Top"
"A.D.Bain"
"M.J.McGlinchey"
_chemical_name_systematic
;
4,5:8,9-bis(Phenanthrene-9,10-diyl)tricyclo(5.2.1.0^2,6^)decane
;
_chemical_melting_point 512.15
_cell_volume   2242.231
_exptl_crystal_colour 'colorless'
_exptl_crystal_density_diffrn 1.281
_exptl_special_details
;
Melting point range 512.15-513.15K

;
_exptl_crystal_description 'plate'
_exptl_crystal_preparation 'acetone/heptane'
_diffrn_ambient_temperature ?
_diffrn_special_details
;
The study was carried out at room temperature,in the range 283-303K

;
#These two values have been output from a single CSD field.
_refine_ls_R_factor_gt 0.0494
_refine_ls_wR_factor_gt 0.0494
_symmetry_cell_setting triclinic
_symmetry_space_group_name_H-M 'P -1'
_symmetry_Int_Tables_number 2
loop_
_symmetry_equiv_pos_site_id
_symmetry_equiv_pos_as_xyz
1 x,y,z
2 -x,-y,-z
_cell_length_a 10.958(5)
_cell_length_b 13.537(5)
_cell_length_c 16.064(4)
_cell_angle_alpha 79.77(2)
_cell_angle_beta 74.10(2)
_cell_angle_gamma 81.348(13)
_cell_formula_units_Z 4
loop_
_atom_type_symbol
_atom_type_radius_bond
C 0.68
H 0.23
loop_
_atom_site_label
_atom_site_type_symbol
_atom_site_fract_x
_atom_site_fract_y
_atom_site_fract_z
C1 C 0.7339(3) 0.0341(2) 0.2363(2)
H1 H 0.6550(3) 0.0454(2) 0.2180(2)
H2 H 0.7355(3) -0.0294(2) 0.2752(2)
C2 C 0.8501(3) 0.0337(2) 0.1568(2)
H3 H 0.8212(3) 0.0486(2) 0.1029(2)
C3 C 0.9300(3) 0.1182(2) 0.1606(2)
H4 H 0.9372(3) 0.1681(2) 0.1077(2)
C4 C 0.8535(3) 0.1657(2) 0.2393(2)
C5 C 0.8856(3) 0.2489(2) 0.2705(2)
C6 C 0.9986(3) 0.2951(2) 0.2292(2)
H5 H 1.0526(3) 0.2735(2) 0.1786(2)
C7 C 1.0292(4) 0.3712(3) 0.2629(3)
H6 H 1.1042(4) 0.4006(3) 0.2355(3)
C8 C 0.9495(4) 0.4046(3) 0.3372(3)
H7 H 0.9715(4) 0.4560(3) 0.3599(3)
C9 C 0.8389(3) 0.3630(2) 0.3779(2)
H8 H 0.7860(3) 0.3873(2) 0.4277(2)
C10 C 0.8026(3) 0.2841(2) 0.3463(2)
C11 C 0.6854(3) 0.2380(2) 0.3882(2)
C12 C 0.5964(3) 0.2722(3) 0.4619(2)
H9 H 0.6111(3) 0.3276(3) 0.4832(2)
C13 C 0.4890(4) 0.2253(3) 0.5025(2)
H10 H 0.4322(4) 0.2485(3) 0.5514(2)
C14 C 0.4641(4) 0.1436(3) 0.4711(2)
H11 H 0.3912(4) 0.1118(3) 0.4992(2)
C15 C 0.5463(3) 0.1097(3) 0.3992(2)
H12 H 0.5278(3) 0.0555(3) 0.3780(2)
C16 C 0.6587(3) 0.1551(2) 0.3560(2)
C17 C 0.7469(3) 0.1201(2) 0.2805(2)
C18 C 0.9501(3) -0.0610(2) 0.1527(2)
H13 H 0.9294(3) -0.1174(2) 0.1301(2)
C19 C 1.0719(3) -0.0136(2) 0.0982(2)
H14 H 1.1479(3) -0.0616(2) 0.0924(2)
H15 H 1.0643(3) 0.0206(2) 0.0412(2)
C20 C 1.0640(3) 0.0597(2) 0.1626(2)
H16 H 1.1349(3) 0.1013(2) 0.1486(2)
C21 C 1.0495(3) -0.0136(2) 0.2465(2)
C22 C 1.0925(3) -0.0126(2) 0.3227(2)
C23 C 1.1615(3) 0.0636(3) 0.3295(2)
H17 H 1.1757(3) 0.1178(3) 0.2848(2)
C24 C 1.2081(3) 0.0594(3) 0.4010(2)
H18 H 1.2522(3) 0.1111(3) 0.4054(2)
C25 C 1.1892(4) -0.0223(3) 0.4667(2)
H19 H 1.2243(4) -0.0269(3) 0.5140(2)
C26 C 1.1200(4) -0.0958(3) 0.4631(2)
H20 H 1.1065(4) -0.1488(3) 0.5090(2)
C27 C 1.0677(3) -0.0942(2) 0.3915(2)
C28 C 0.9905(3) -0.1704(2) 0.3866(2)
C29 C 0.9557(4) -0.2499(3) 0.4548(2)
H21 H 0.9822(4) -0.2544(3) 0.5057(2)
C30 C 0.8834(4) -0.3211(3) 0.4479(3)
H22 H 0.8605(4) -0.3721(3) 0.4944(3)
C31 C 0.8439(4) -0.3178(3) 0.3720(3)
H23 H 0.7966(4) -0.3672(3) 0.3672(3)
C32 C 0.8751(3) -0.2418(3) 0.3051(2)
H24 H 0.8481(3) -0.2394(3) 0.2547(2)
C33 C 0.9473(3) -0.1667(2) 0.3101(2)
C34 C 0.9814(3) -0.0868(2) 0.2407(2)
C35 C 0.5698(3) 0.5176(2) 0.2990(2)
H25 H 0.6304(3) 0.4992(2) 0.3347(2)
H26 H 0.5706(3) 0.4617(2) 0.2685(2)
C36 C 0.4348(3) 0.5463(2) 0.3554(2)
H27 H 0.4366(3) 0.5417(2) 0.4166(2)
C37 C 0.3926(3) 0.6572(2) 0.3193(2)
H28 H 0.3747(3) 0.7003(2) 0.3651(2)
C38 C 0.5047(3) 0.6881(2) 0.2474(2)
C39 C 0.5174(3) 0.7853(2) 0.1952(2)
C40 C 0.4207(3) 0.8662(2) 0.2094(2)
H29 H 0.3463(3) 0.8568(2) 0.2535(2)
C41 C 0.4345(4) 0.9581(3) 0.1593(2)
H30 H 0.3696(4) 1.0107(3) 0.1692(2)
C42 C 0.5445(4) 0.9735(2) 0.0940(2)
H31 H 0.5532(4) 1.0366(2) 0.0602(2)
C43 C 0.6407(3) 0.8971(2) 0.0783(2)
H32 H 0.7141(3) 0.9089(2) 0.0340(2)
C44 C 0.6304(3) 0.8005(2) 0.1284(2)
C45 C 0.7324(3) 0.7181(2) 0.1151(2)
C46 C 0.8480(3) 0.7284(3) 0.0504(2)
H33 H 0.8593(3) 0.7890(3) 0.0130(2)
C47 C 0.9439(3) 0.6505(3) 0.0417(2)
H34 H 1.0194(3) 0.6590(3) -0.0016(2)
C48 C 0.9303(3) 0.5597(3) 0.0962(2)
H35 H 0.9971(3) 0.5080(3) 0.0903(2)
C49 C 0.8189(3) 0.5453(2) 0.1591(2)
H36 H 0.8096(3) 0.4835(2) 0.1949(2)
C50 C 0.7180(3) 0.6242(2) 0.1696(2)
C51 C 0.6008(3) 0.6118(2) 0.2355(2)
C52 C 0.3269(3) 0.4881(2) 0.3492(2)
H37 H 0.3193(3) 0.4221(2) 0.3859(2)
C53 C 0.2116(3) 0.5679(3) 0.3712(2)
H38 H 0.1330(3) 0.5470(3) 0.3668(2)
H39 H 0.1998(3) 0.5889(3) 0.4278(2)
C54 C 0.2669(3) 0.6471(2) 0.2949(2)
H40 H 0.2112(3) 0.7100(2) 0.2874(2)
C55 C 0.2988(3) 0.5853(2) 0.2209(2)
C56 C 0.2967(3) 0.6132(2) 0.1311(2)
C57 C 0.2688(3) 0.7134(3) 0.0945(2)
H41 H 0.2514(3) 0.7645(3) 0.1292(2)
C58 C 0.2669(4) 0.7365(3) 0.0091(3)
H42 H 0.2484(4) 0.8034(3) -0.0140(3)
C59 C 0.2920(3) 0.6619(3) -0.0443(2)
H43 H 0.2898(3) 0.6787(3) -0.1026(2)
C60 C 0.3201(3) 0.5639(3) -0.0109(2)
H44 H 0.3370(3) 0.5145(3) -0.0473(2)
C61 C 0.3241(3) 0.5353(2) 0.0773(2)
C62 C 0.3552(3) 0.4312(2) 0.1142(2)
C63 C 0.3738(3) 0.3501(3) 0.0665(2)
H45 H 0.3656(3) 0.3627(3) 0.0094(2)
C64 C 0.4035(4) 0.2537(3) 0.1021(3)
H46 H 0.4140(4) 0.2014(3) 0.0694(3)
C65 C 0.4184(3) 0.2323(3) 0.1865(3)
H47 H 0.4410(3) 0.1663(3) 0.2096(3)
C66 C 0.3997(3) 0.3084(2) 0.2361(2)
H48 H 0.4092(3) 0.2937(2) 0.2929(2)
C67 C 0.3663(3) 0.4085(2) 0.2016(2)
C68 C 0.3338(3) 0.4889(2) 0.2532(2)
loop_
_geom_bond_atom_site_label_1
_geom_bond_atom_site_label_2
_geom_bond_distance
_geom_bond_site_symmetry_1
_geom_bond_site_symmetry_2
C1 H1 0.970 1_555 1_555
H2 C1 0.970 1_555 1_555
C2 C1 1.537 1_555 1_555
H3 C2 0.980 1_555 1_555
C3 C2 1.560 1_555 1_555
H4 C3 0.980 1_555 1_555
C4 C3 1.503 1_555 1_555
C5 C4 1.435 1_555 1_555
C6 C5 1.414 1_555 1_555
H5 C6 0.930 1_555 1_555
C7 C6 1.367 1_555 1_555
H6 C7 0.930 1_555 1_555
C8 C7 1.376 1_555 1_555
H7 C8 0.930 1_555 1_555
C9 C8 1.362 1_555 1_555
H8 C9 0.931 1_555 1_555
C10 C5 1.416 1_555 1_555
C11 C10 1.453 1_555 1_555
C12 C11 1.412 1_555 1_555
H9 C12 0.929 1_555 1_555
C13 C12 1.368 1_555 1_555
H10 C13 0.930 1_555 1_555
C14 C13 1.384 1_555 1_555
H11 C14 0.930 1_555 1_555
C15 C14 1.360 1_555 1_555
H12 C15 0.931 1_555 1_555
C16 C11 1.414 1_555 1_555
C17 C1 1.510 1_555 1_555
C18 C2 1.554 1_555 1_555
H13 C18 0.981 1_555 1_555
C19 C18 1.542 1_555 1_555
H14 C19 0.970 1_555 1_555
H15 C19 0.969 1_555 1_555
C20 C3 1.566 1_555 1_555
H16 C20 0.981 1_555 1_555
C21 C20 1.510 1_555 1_555
C22 C21 1.430 1_555 1_555
C23 C22 1.403 1_555 1_555
H17 C23 0.930 1_555 1_555
C24 C23 1.368 1_555 1_555
H18 C24 0.931 1_555 1_555
C25 C24 1.384 1_555 1_555
H19 C25 0.930 1_555 1_555
C26 C25 1.356 1_555 1_555
H20 C26 0.930 1_555 1_555
C27 C22 1.417 1_555 1_555
C28 C27 1.454 1_555 1_555
C29 C28 1.407 1_555 1_555
H21 C29 0.929 1_555 1_555
C30 C29 1.373 1_555 1_555
H22 C30 0.929 1_555 1_555
C31 C30 1.393 1_555 1_555
H23 C31 0.931 1_555 1_555
C32 C31 1.357 1_555 1_555
H24 C32 0.929 1_555 1_555
C33 C28 1.424 1_555 1_555
C34 C18 1.514 1_555 1_555
C35 H25 0.970 1_555 1_555
H26 C35 0.970 1_555 1_555
C36 C35 1.542 1_555 1_555
H27 C36 0.979 1_555 1_555
C37 C36 1.560 1_555 1_555
H28 C37 0.979 1_555 1_555
C38 C37 1.491 1_555 1_555
C39 C38 1.433 1_555 1_555
C40 C39 1.408 1_555 1_555
H29 C40 0.930 1_555 1_555
C41 C40 1.361 1_555 1_555
H30 C41 0.929 1_555 1_555
C42 C41 1.379 1_555 1_555
H31 C42 0.930 1_555 1_555
C43 C42 1.365 1_555 1_555
H32 C43 0.929 1_555 1_555
C44 C39 1.413 1_555 1_555
C45 C44 1.455 1_555 1_555
C46 C45 1.409 1_555 1_555
H33 C46 0.930 1_555 1_555
C47 C46 1.369 1_555 1_555
H34 C47 0.931 1_555 1_555
C48 C47 1.379 1_555 1_555
H35 C48 0.931 1_555 1_555
C49 C48 1.369 1_555 1_555
H36 C49 0.929 1_555 1_555
C50 C45 1.413 1_555 1_555
C51 C35 1.503 1_555 1_555
C52 C36 1.550 1_555 1_555
H37 C52 0.980 1_555 1_555
C53 C52 1.539 1_555 1_555
H38 C53 0.970 1_555 1_555
H39 C53 0.970 1_555 1_555
C54 C37 1.562 1_555 1_555
H40 C54 0.980 1_555 1_555
C55 C54 1.508 1_555 1_555
C56 C55 1.430 1_555 1_555
C57 C56 1.403 1_555 1_555
H41 C57 0.930 1_555 1_555
C58 C57 1.357 1_555 1_555
H42 C58 0.930 1_555 1_555
C59 C58 1.388 1_555 1_555
H43 C59 0.930 1_555 1_555
C60 C59 1.363 1_555 1_555
H44 C60 0.930 1_555 1_555
C61 C56 1.427 1_555 1_555
C62 C61 1.457 1_555 1_555
C63 C62 1.407 1_555 1_555
H45 C63 0.929 1_555 1_555
C64 C63 1.358 1_555 1_555
H46 C64 0.930 1_555 1_555
C65 C64 1.384 1_555 1_555
H47 C65 0.929 1_555 1_555
C66 C65 1.370 1_555 1_555
H48 C66 0.930 1_555 1_555
C67 C62 1.418 1_555 1_555
C68 C52 1.521 1_555 1_555
C4 C17 1.353 1_555 1_555
C9 C10 1.410 1_555 1_555
C15 C16 1.409 1_555 1_555
C16 C17 1.433 1_555 1_555
C19 C20 1.534 1_555 1_555
C21 C34 1.357 1_555 1_555
C26 C27 1.414 1_555 1_555
C32 C33 1.404 1_555 1_555
C33 C34 1.420 1_555 1_555
C38 C51 1.358 1_555 1_555
C43 C44 1.411 1_555 1_555
C49 C50 1.414 1_555 1_555
C50 C51 1.434 1_555 1_555
C53 C54 1.530 1_555 1_555
C55 C68 1.355 1_555 1_555
C60 C61 1.412 1_555 1_555
C66 C67 1.404 1_555 1_555
C67 C68 1.428 1_555 1_555
#END
