
#######################################################################
#
#                 Cambridge Crystallographic Data Centre
#                                CCDC
#
#######################################################################
#
# If this CIF has been generated from an entry in the Cambridge
# Structural Database, then it will include bibliographic, chemical,
# crystal, experimental, refinement or atomic coordinate data resulting
# from the CCDC's data processing and validation procedures.
#
#######################################################################

data_CSD_CIF_NUVSON
_audit_creation_date 2010-10-12
_audit_creation_method CSD-ConQuest-V1
_database_code_CSD NUVSON
_database_code_depnum_ccdc_archive 'CCDC 731482'
_chemical_formula_sum 'C19 H12'
_chemical_formula_moiety
;
C19 H12
;
_journal_coden_Cambridge 1003
_journal_volume 40
_journal_year 2010
_journal_page_first 343
_journal_name_full 'J.Chem.Cryst. '
loop_
_publ_author_name
"Naijue Zhu"
"D.Lightsey"
"Jiawang Liu"
"M.Foroozesh"
"K.M.Morgan"
"E.D.Stevens"
"C.L.K.Stevens"
_chemical_name_systematic
;
4-(Prop-1-yn-1-yl)pyrene
;
_cell_volume   2529.430
_exptl_crystal_colour 'colorless'
_exptl_crystal_density_diffrn 1.261
_exptl_special_details
;
Published unit-cell dimensions differ slightly than those published

;
_exptl_crystal_description 'cube'
_diffrn_ambient_temperature 298
#These two values have been output from a single CSD field.
_refine_ls_R_factor_gt 0.058
_refine_ls_wR_factor_gt 0.058
_symmetry_cell_setting orthorhombic
_symmetry_space_group_name_H-M 'P b c a'
_symmetry_Int_Tables_number 61
loop_
_symmetry_equiv_pos_site_id
_symmetry_equiv_pos_as_xyz
1 x,y,z
2 1/2-x,-y,1/2+z
3 1/2+x,1/2-y,-z
4 -x,1/2+y,1/2-z
5 -x,-y,-z
6 -1/2+x,y,-1/2-z
7 -1/2-x,-1/2+y,z
8 x,-1/2-y,-1/2+z
_cell_length_a 9.90(5)
_cell_length_b 13.17(5)
_cell_length_c 19.40(5)
_cell_angle_alpha 90
_cell_angle_beta 90
_cell_angle_gamma 90
_cell_formula_units_Z 8
loop_
_atom_type_symbol
_atom_type_radius_bond
C 0.68
H 0.23
loop_
_atom_site_label
_atom_site_type_symbol
_atom_site_fract_x
_atom_site_fract_y
_atom_site_fract_z
C1 C 0.4382(4) 0.1878(3) 0.1833(2)
C2 C 0.3387(4) 0.2101(3) 0.1358(2)
C3 C 0.3018(3) 0.1389(3) 0.0874(2)
C4 C 0.3277(3) -0.0290(3) 0.03309(17)
C5 C 0.3936(3) -0.1201(3) 0.03179(18)
C6 C 0.5653(4) -0.2384(3) 0.0784(2)
C7 C 0.6655(4) -0.2601(3) 0.1245(2)
C8 C 0.6987(4) -0.1902(4) 0.1742(2)
C9 C 0.6685(4) -0.0224(4) 0.2296(2)
C10 C 0.6076(4) 0.0678(4) 0.23201(19)
C11 C 0.3625(3) 0.0453(3) 0.08466(17)
C12 C 0.4965(3) -0.1455(3) 0.08018(18)
C13 C 0.6348(4) -0.0979(3) 0.17947(18)
C14 C 0.5029(4) 0.0948(3) 0.18316(18)
C15 C 0.4654(3) 0.0213(3) 0.13347(16)
C16 C 0.5306(3) -0.0742(3) 0.13084(17)
C17 C 0.2246(3) -0.0062(3) -0.01602(17)
C18 C 0.1390(3) 0.0142(3) -0.05665(17)
C19 C 0.0355(4) 0.0358(4) -0.1078(2)
H1 H 0.46433 0.23795 0.21662
H2 H 0.29430 0.27481 0.13668
H3 H 0.23252 0.15365 0.05434
H4 H 0.37030 -0.16880 -0.00307
H5 H 0.53809 -0.28732 0.04446
H6 H 0.71307 -0.32337 0.12058
H7 H 0.76819 -0.20602 0.20696
H8 H 0.73703 -0.03918 0.26270
H9 H 0.63301 0.11636 0.26656
H10 H -0.02334 0.08797 -0.09075
H11 H -0.01592 -0.02464 -0.11659
H12 H 0.07729 0.05821 -0.14976
loop_
_geom_bond_atom_site_label_1
_geom_bond_atom_site_label_2
_geom_bond_distance
_geom_bond_site_symmetry_1
_geom_bond_site_symmetry_2
C1 C2 1.380 1_555 1_555
C2 C3 1.376 1_555 1_555
C3 C11 1.372 1_555 1_555
C4 C5 1.366 1_555 1_555
C5 C12 1.425 1_555 1_555
C6 C7 1.366 1_555 1_555
C7 C8 1.373 1_555 1_555
C8 C13 1.374 1_555 1_555
C9 C10 1.333 1_555 1_555
C10 C14 1.449 1_555 1_555
C11 C4 1.441 1_555 1_555
C12 C6 1.401 1_555 1_555
C13 C9 1.430 1_555 1_555
C14 C1 1.382 1_555 1_555
C15 C11 1.426 1_555 1_555
C16 C12 1.401 1_555 1_555
C17 C4 1.428 1_555 1_555
C18 C17 1.188 1_555 1_555
C19 C18 1.454 1_555 1_555
H1 C1 0.960 1_555 1_555
H2 C2 0.959 1_555 1_555
H3 C3 0.959 1_555 1_555
H4 C5 0.960 1_555 1_555
H5 C6 0.960 1_555 1_555
H6 C7 0.960 1_555 1_555
H7 C8 0.960 1_555 1_555
H8 C9 0.960 1_555 1_555
H9 C10 0.960 1_555 1_555
H10 C19 0.960 1_555 1_555
H11 C19 0.960 1_555 1_555
H12 C19 0.960 1_555 1_555
C13 C16 1.432 1_555 1_555
C14 C15 1.416 1_555 1_555
C15 C16 1.415 1_555 1_555
#END
