
#######################################################################
#
#                 Cambridge Crystallographic Data Centre
#                                CCDC
#
#######################################################################
#
# If this CIF has been generated from an entry in the Cambridge
# Structural Database, then it will include bibliographic, chemical,
# crystal, experimental, refinement or atomic coordinate data resulting
# from the CCDC's data processing and validation procedures.
#
#######################################################################

data_CSD_CIF_NUXXIN
_audit_creation_date 1998-10-01
_audit_creation_method CSD-ConQuest-V1
_database_code_CSD NUXXIN
_database_code_depnum_ccdc_archive 'CCDC 1225058'
_chemical_formula_sum 'C28 H26'
_chemical_formula_moiety
;
C28 H26
;
_journal_coden_Cambridge 7
_journal_volume 70
_journal_year 1997
_journal_page_first 1935
_journal_name_full 'Bull.Chem.Soc.Jpn. '
loop_
_publ_author_name
"Y.Tobe"
"S.Saiki"
"H.Minami"
"K.Naemura"
_chemical_name_systematic
;
1^5,8^-Diphenyl-1(1,4)naphthalenacycloheptaphane
;
_chemical_name_common
;
9,10-Diphenyl(6)(1,4)naphthalenophane
;
_chemical_melting_point 449.15
_cell_volume   2035.036
_exptl_crystal_colour 'colorless'
_exptl_crystal_density_diffrn 1.183
_exptl_special_details
;
Melting point range 449.15-450.15K

;
_diffrn_ambient_temperature ?
_diffrn_special_details
;
The study was carried out at room temperature,in the range 283-303K

;
#These two values have been output from a single CSD field.
_refine_ls_R_factor_gt 0.051
_refine_ls_wR_factor_gt 0.051
_symmetry_cell_setting monoclinic
_symmetry_space_group_name_H-M 'P 21/a'
_symmetry_Int_Tables_number 14
loop_
_symmetry_equiv_pos_site_id
_symmetry_equiv_pos_as_xyz
1 x,y,z
2 1/2-x,1/2+y,-z
3 -x,-y,-z
4 -1/2+x,-1/2-y,z
_cell_length_a 11.991(1)
_cell_length_b 12.062(2)
_cell_length_c 14.638(1)
_cell_angle_alpha 90
_cell_angle_beta 106.012(7)
_cell_angle_gamma 90
_cell_formula_units_Z 4
loop_
_atom_type_symbol
_atom_type_radius_bond
C 0.68
H 0.23
loop_
_atom_site_label
_atom_site_type_symbol
_atom_site_fract_x
_atom_site_fract_y
_atom_site_fract_z
C1 C 0.0490(2) 0.4247(3) 0.1116(2)
C2 C -0.0269(2) 0.5062(3) 0.1518(2)
C3 C -0.0939(2) 0.4584(3) 0.2185(2)
C4 C -0.0453(2) 0.4801(2) 0.3257(2)
C5 C -0.0587(2) 0.3884(2) 0.3947(2)
C6 C 0.0530(2) 0.3239(2) 0.4477(2)
C7 C 0.1220(2) 0.3005(2) 0.3774(2)
C8 C 0.2092(2) 0.3763(2) 0.3652(2)
C9 C 0.2890(2) 0.4301(2) 0.4431(2)
C10 C 0.3564(2) 0.5145(2) 0.4249(2)
C11 C 0.3551(2) 0.5436(2) 0.3325(2)
C12 C 0.2858(2) 0.4899(2) 0.2552(2)
C13 C 0.2083(2) 0.4060(2) 0.2697(2)
C14 C 0.1206(2) 0.3566(3) 0.1931(2)
C15 C 0.0717(2) 0.2596(3) 0.2107(2)
C16 C 0.0711(2) 0.2310(2) 0.3039(2)
C17 C 0.3105(2) 0.3924(2) 0.5436(2)
C18 C 0.3276(2) 0.4699(2) 0.6162(2)
C19 C 0.3580(2) 0.4375(3) 0.7106(2)
C20 C 0.3710(2) 0.3270(3) 0.7338(2)
C21 C 0.3530(2) 0.2491(3) 0.6623(2)
C22 C 0.3235(2) 0.2815(2) 0.5677(2)
C23 C 0.3027(2) 0.5157(3) 0.1602(2)
C24 C 0.3091(2) 0.6248(3) 0.1329(2)
C25 C 0.3324(3) 0.6497(4) 0.0472(3)
C26 C 0.3505(3) 0.5659(5) -0.0098(3)
C27 C 0.3440(3) 0.4569(4) 0.0154(2)
C28 C 0.3203(2) 0.4321(3) 0.1013(2)
H1 H -0.00180 0.38030 0.06120
H2 H 0.09800 0.46650 0.08020
H3 H 0.02410 0.56310 0.18660
H4 H -0.08190 0.54330 0.09940
H5 H -0.17280 0.48430 0.19880
H6 H -0.09670 0.37850 0.21000
H7 H 0.03920 0.49560 0.34030
H8 H -0.07740 0.54900 0.34350
H9 H -0.09990 0.41630 0.43740
H10 H -0.11100 0.33320 0.35440
H11 H 0.09720 0.37290 0.50080
H12 H 0.03440 0.25950 0.48010
H13 H 0.40970 0.55650 0.48020
H14 H 0.40620 0.60590 0.32130
H15 H 0.03770 0.20820 0.15790
H16 H 0.03400 0.16060 0.31540
H17 H 0.31710 0.55010 0.60020
H18 H 0.37300 0.48950 0.76390
H19 H 0.39280 0.30100 0.79980
H20 H 0.36380 0.16610 0.67820
H21 H 0.31050 0.22400 0.51660
H22 H 0.29620 0.68730 0.17630
H23 H 0.33910 0.72820 0.02830
H24 H 0.36730 0.58170 -0.07010
H25 H 0.35650 0.39480 -0.02760
H26 H 0.31250 0.34970 0.12010
loop_
_geom_bond_atom_site_label_1
_geom_bond_atom_site_label_2
_geom_bond_distance
_geom_bond_site_symmetry_1
_geom_bond_site_symmetry_2
C1 C2 1.561 1_555 1_555
C2 C3 1.537 1_555 1_555
C3 C4 1.538 1_555 1_555
C4 C5 1.536 1_555 1_555
C5 C6 1.558 1_555 1_555
C6 C7 1.514 1_555 1_555
C7 C8 1.437 1_555 1_555
C8 C9 1.427 1_555 1_555
C9 C10 1.371 1_555 1_555
C10 C11 1.393 1_555 1_555
C11 C12 1.368 1_555 1_555
C12 C13 1.429 1_555 1_555
C13 C8 1.440 1_555 1_555
C14 C1 1.507 1_555 1_555
C15 C14 1.365 1_555 1_555
C16 C7 1.368 1_555 1_555
C17 C9 1.493 1_555 1_555
C18 C17 1.387 1_555 1_555
C19 C18 1.385 1_555 1_555
C20 C19 1.374 1_555 1_555
C21 C20 1.379 1_555 1_555
C22 C17 1.381 1_555 1_555
C23 C12 1.492 1_555 1_555
C24 C23 1.384 1_555 1_555
C25 C24 1.391 1_555 1_555
C26 C25 1.366 1_555 1_555
C27 C26 1.374 1_555 1_555
C28 C23 1.380 1_555 1_555
H1 C1 0.977 1_555 1_555
H2 C1 0.980 1_555 1_555
H3 C2 0.966 1_555 1_555
H4 C2 0.972 1_555 1_555
H5 C3 0.962 1_555 1_555
H6 C3 0.971 1_555 1_555
H7 C4 0.994 1_555 1_555
H8 C4 0.981 1_555 1_555
H9 C5 0.958 1_555 1_555
H10 C5 0.990 1_555 1_555
H11 C6 1.004 1_555 1_555
H12 C6 0.968 1_555 1_555
H13 C10 1.017 1_555 1_555
H14 C11 1.011 1_555 1_555
H15 C15 0.987 1_555 1_555
H16 C16 0.994 1_555 1_555
H17 C18 0.995 1_555 1_555
H18 C19 0.978 1_555 1_555
H19 C20 0.980 1_555 1_555
H20 C21 1.028 1_555 1_555
H21 C22 1.000 1_555 1_555
H22 C24 1.025 1_555 1_555
H23 C25 0.996 1_555 1_555
H24 C26 0.977 1_555 1_555
H25 C27 1.016 1_555 1_555
H26 C28 1.042 1_555 1_555
C13 C14 1.438 1_555 1_555
C15 C16 1.409 1_555 1_555
C21 C22 1.388 1_555 1_555
C27 C28 1.396 1_555 1_555
#END
