
#######################################################################
#
#                 Cambridge Crystallographic Data Centre
#                                CCDC
#
#######################################################################
#
# If this CIF has been generated from an entry in the Cambridge
# Structural Database, then it will include bibliographic, chemical,
# crystal, experimental, refinement or atomic coordinate data resulting
# from the CCDC's data processing and validation procedures.
#
#######################################################################

data_CSD_CIF_OBEFAC
_audit_creation_date 2001-09-13
_audit_creation_method CSD-ConQuest-V1
_database_code_CSD OBEFAC
_database_code_depnum_ccdc_journal 1145/197
_chemical_formula_sum 'C44 H50'
_chemical_formula_moiety
;
C44 H50
;
_journal_coden_Cambridge 1145
_journal_volume 10
_journal_year 2000
_journal_page_first 315
_journal_name_full 'J.Mater.Chem. '
loop_
_publ_author_name
"K.Sugiura"
"S.Mikami"
"K.Iwasaki"
"S.Hino"
"E.Asato"
"Y.Sakat"
_chemical_name_systematic
;
1,6-bis(2,4-di-t-butylphenyl)pyrene
;
_chemical_melting_point 552.15
_cell_volume    874.656
_exptl_crystal_colour 'yellow'
_exptl_special_details
;
Melting point range 552.15-553.15K

;
_exptl_crystal_description 'prismatic'
_exptl_crystal_preparation 'heptane'
_diffrn_ambient_temperature 195.65
_symmetry_cell_setting triclinic
_symmetry_space_group_name_H-M 'P -1'
_symmetry_Int_Tables_number 2
loop_
_symmetry_equiv_pos_site_id
_symmetry_equiv_pos_as_xyz
1 x,y,z
2 -x,-y,-z
_cell_length_a 9.833(1)
_cell_length_b 10.034(2)
_cell_length_c 9.428(1)
_cell_angle_alpha 106.79(1)
_cell_angle_beta 97.32(1)
_cell_angle_gamma 95.49(1)
_cell_formula_units_Z 1
loop_
_atom_type_symbol
_atom_type_radius_bond
C 0.68
H 0.23
loop_
_atom_site_label
_atom_site_type_symbol
_atom_site_fract_x
_atom_site_fract_y
_atom_site_fract_z
C1 C 0.2402(2) -0.0531(2) 0.2578(2)
C2 C 0.1817(2) 0.0618(2) 0.3347(2)
C3 C 0.2471(2) 0.1524(2) 0.4715(2)
C4 C 0.3746(2) 0.1312(2) 0.5385(2)
C5 C 0.4351(2) 0.0119(2) 0.4656(2)
C6 C 0.3672(3) -0.0814(2) 0.3245(2)
C7 C 0.4487(2) 0.2267(2) 0.6774(2)
C8 C 0.4291(2) -0.2030(2) 0.2580(2)
C9 C 0.1661(2) -0.1428(2) 0.1074(2)
C10 C 0.2311(2) -0.1658(2) -0.0200(2)
C11 C 0.1603(2) -0.2428(2) -0.1608(2)
C12 C 0.0213(2) -0.2984(2) -0.1733(2)
C13 C -0.0467(2) -0.2771(3) -0.0491(3)
C14 C 0.0279(2) -0.1979(2) 0.0903(2)
C15 C 0.2295(2) -0.2716(2) -0.3024(2)
C16 C 0.1461(3) -0.2237(3) -0.4233(3)
C17 C 0.3770(3) -0.1934(3) -0.2697(3)
C18 C 0.2356(3) -0.4292(3) -0.3627(3)
C19 C -0.1992(2) -0.3358(2) -0.0597(2)
C20 C -0.2075(2) -0.4341(2) 0.0379(3)
C21 C -0.2804(2) -0.2138(3) -0.0033(3)
C22 C -0.2663(2) -0.4191(3) -0.2205(2)
H1 H 0.09480 0.08040 0.28900
H2 H 0.20870 0.23990 0.52540
H3 H 0.40940 0.31030 0.72360
H4 H 0.38240 -0.27060 0.16650
H5 H 0.32620 -0.12290 -0.00400
H6 H -0.02870 -0.35370 -0.27190
H7 H -0.01680 -0.18020 0.18400
H8 H 0.05350 -0.27930 -0.45710
H9 H 0.18950 -0.24420 -0.51530
H10 H 0.14850 -0.11550 -0.37990
H11 H 0.41240 -0.22180 -0.36470
H12 H 0.37800 -0.08180 -0.22790
H13 H 0.43310 -0.22650 -0.19410
H14 H 0.13950 -0.48270 -0.40060
H15 H 0.28660 -0.44950 -0.45360
H16 H 0.29560 -0.45760 -0.28210
H17 H -0.30850 -0.47510 0.02600
H18 H -0.16540 -0.38000 0.14470
H19 H -0.15980 -0.51610 0.00040
H20 H -0.27960 -0.14930 -0.06500
H21 H -0.37780 -0.24950 -0.00600
H22 H -0.24000 -0.15390 0.10370
H23 H -0.22120 -0.50680 -0.25760
H24 H -0.36790 -0.44850 -0.22260
H25 H -0.26880 -0.35350 -0.28590
C5A C 0.5649(2) -0.0119(2) 0.5344(2)
C4A C 0.6254(2) -0.1312(2) 0.4615(2)
C3A C 0.7529(2) -0.1524(2) 0.5285(2)
C2A C 0.8183(2) -0.0618(2) 0.6653(2)
C1A C 0.7598(2) 0.0531(2) 0.7422(2)
C6A C 0.6328(3) 0.0814(2) 0.6755(2)
C8A C 0.5709(2) 0.2030(2) 0.7420(2)
H4A H 0.61760 0.27060 0.83350
C9A C 0.8339(2) 0.1428(2) 0.8926(2)
C10A C 0.7689(2) 0.1658(2) 1.0200(2)
C11A C 0.8397(2) 0.2428(2) 1.1608(2)
C12A C 0.9787(2) 0.2984(2) 1.1733(2)
C13A C 1.0467(2) 0.2771(3) 1.0491(3)
C14A C 0.9721(2) 0.1979(2) 0.9097(2)
H7A H 1.01680 0.18020 0.81600
C19A C 1.1992(2) 0.3358(2) 1.0597(2)
C20A C 1.2075(2) 0.4341(2) 0.9621(3)
H17A H 1.30850 0.47510 0.97400
H18A H 1.16540 0.38000 0.85530
H19A H 1.15980 0.51610 0.99960
C21A C 1.2804(2) 0.2138(3) 1.0033(3)
H20A H 1.27960 0.14930 1.06500
H21A H 1.37780 0.24950 1.00600
H22A H 1.24000 0.15390 0.89630
C22A C 1.2663(2) 0.4191(3) 1.2205(2)
H23A H 1.22120 0.50680 1.25760
H24A H 1.36790 0.44850 1.22260
H25A H 1.26880 0.35350 1.28590
H6A H 1.02870 0.35370 1.27190
C15A C 0.7705(2) 0.2716(2) 1.3024(2)
C16A C 0.8539(3) 0.2237(3) 1.4233(3)
H8A H 0.94650 0.27930 1.45710
H9A H 0.81050 0.24420 1.51530
H10A H 0.85150 0.11550 1.37990
C17A C 0.6230(3) 0.1934(3) 1.2697(3)
H11A H 0.58760 0.22180 1.36470
H12A H 0.62200 0.08180 1.22790
H13A H 0.56690 0.22650 1.19410
C18A C 0.7644(3) 0.4292(3) 1.3627(3)
H14A H 0.86050 0.48270 1.40060
H15A H 0.71340 0.44950 1.45360
H16A H 0.70440 0.45760 1.28210
H5A H 0.67380 0.12290 1.00400
H1A H 0.90520 -0.08040 0.71100
H2A H 0.79130 -0.23990 0.47460
C7A C 0.5513(2) -0.2267(2) 0.3226(2)
H3A H 0.59060 -0.31030 0.27640
loop_
_geom_bond_atom_site_label_1
_geom_bond_atom_site_label_2
_geom_bond_distance
_geom_bond_site_symmetry_1
_geom_bond_site_symmetry_2
C1 C2 1.391 1_555 1_555
C2 C3 1.379 1_555 1_555
C3 C4 1.394 1_555 1_555
C4 C5 1.423 1_555 1_555
C5 C6 1.424 1_555 1_555
C6 C1 1.416 1_555 1_555
C7 C4 1.436 1_555 1_555
C8 C6 1.432 1_555 1_555
C9 C1 1.492 1_555 1_555
C10 C9 1.403 1_555 1_555
C11 C10 1.383 1_555 1_555
C12 C11 1.403 1_555 1_555
C13 C12 1.395 1_555 1_555
C14 C9 1.388 1_555 1_555
C15 C11 1.541 1_555 1_555
C16 C15 1.535 1_555 1_555
C17 C15 1.531 1_555 1_555
C18 C15 1.528 1_555 1_555
C19 C13 1.538 1_555 1_555
C20 C19 1.534 1_555 1_555
C21 C19 1.529 1_555 1_555
C22 C19 1.530 1_555 1_555
H1 C2 0.966 1_555 1_555
H2 C3 1.013 1_555 1_555
H3 C7 0.968 1_555 1_555
H4 C8 0.957 1_555 1_555
H5 C10 0.965 1_555 1_555
H6 C12 0.973 1_555 1_555
H7 C14 1.014 1_555 1_555
H8 C16 0.984 1_555 1_555
H9 C16 0.992 1_555 1_555
H10 C16 1.041 1_555 1_555
H11 C17 0.978 1_555 1_555
H12 C17 1.073 1_555 1_555
H13 C17 0.997 1_555 1_555
H14 C18 1.007 1_555 1_555
H15 C18 1.027 1_555 1_555
H16 C18 1.025 1_555 1_555
H17 C20 1.017 1_555 1_555
H18 C20 1.007 1_555 1_555
H19 C20 0.985 1_555 1_555
H20 C21 0.987 1_555 1_555
H21 C21 0.984 1_555 1_555
H22 C21 1.019 1_555 1_555
H23 C22 1.015 1_555 1_555
H24 C22 1.010 1_555 1_555
H25 C22 1.024 1_555 1_555
C5A C5 1.430 1_555 1_555
C4A C5A 1.423 1_555 1_555
C3A C4A 1.394 1_555 1_555
C2A C3A 1.379 1_555 1_555
C1A C2A 1.391 1_555 1_555
C6A C5A 1.424 1_555 1_555
C8A C7 1.350 1_555 1_555
H4A C8A 0.957 1_555 1_555
C9A C1A 1.492 1_555 1_555
C10A C9A 1.403 1_555 1_555
C11A C10A 1.383 1_555 1_555
C12A C11A 1.403 1_555 1_555
C13A C12A 1.395 1_555 1_555
C14A C9A 1.388 1_555 1_555
H7A C14A 1.014 1_555 1_555
C19A C13A 1.538 1_555 1_555
C20A C19A 1.534 1_555 1_555
H17A C20A 1.017 1_555 1_555
H18A C20A 1.007 1_555 1_555
H19A C20A 0.985 1_555 1_555
C21A C19A 1.529 1_555 1_555
H20A C21A 0.987 1_555 1_555
H21A C21A 0.984 1_555 1_555
H22A C21A 1.019 1_555 1_555
C22A C19A 1.530 1_555 1_555
H23A C22A 1.015 1_555 1_555
H24A C22A 1.010 1_555 1_555
H25A C22A 1.024 1_555 1_555
H6A C12A 0.973 1_555 1_555
C15A C11A 1.541 1_555 1_555
C16A C15A 1.535 1_555 1_555
H8A C16A 0.984 1_555 1_555
H9A C16A 0.992 1_555 1_555
H10A C16A 1.041 1_555 1_555
C17A C15A 1.531 1_555 1_555
H11A C17A 0.978 1_555 1_555
H12A C17A 1.073 1_555 1_555
H13A C17A 0.997 1_555 1_555
C18A C15A 1.528 1_555 1_555
H14A C18A 1.007 1_555 1_555
H15A C18A 1.027 1_555 1_555
H16A C18A 1.025 1_555 1_555
H5A C10A 0.965 1_555 1_555
H1A C2A 0.966 1_555 1_555
H2A C3A 1.013 1_555 1_555
C7A C8 1.350 1_555 1_555
H3A C7A 0.968 1_555 1_555
C13 C14 1.392 1_555 1_555
C4A C7A 1.436 1_555 1_555
C1A C6A 1.416 1_555 1_555
C6A C8A 1.432 1_555 1_555
C13A C14A 1.392 1_555 1_555
#END
