
#######################################################################
#
#                 Cambridge Crystallographic Data Centre
#                                CCDC
#
#######################################################################
#
# If this CIF has been generated from an entry in the Cambridge
# Structural Database, then it will include bibliographic, chemical,
# crystal, experimental, refinement or atomic coordinate data resulting
# from the CCDC's data processing and validation procedures.
#
#######################################################################

data_CSD_CIF_OBEFEG
_audit_creation_date 2001-09-13
_audit_creation_method CSD-ConQuest-V1
_database_code_CSD OBEFEG
_database_code_depnum_ccdc_journal 1145/197
_chemical_formula_sum 'C44 H50'
_chemical_formula_moiety
;
C44 H50
;
_journal_coden_Cambridge 1145
_journal_volume 10
_journal_year 2000
_journal_page_first 315
_journal_name_full 'J.Mater.Chem. '
loop_
_publ_author_name
"K.Sugiura"
"S.Mikami"
"K.Iwasaki"
"S.Hino"
"E.Asato"
"Y.Sakata"
_chemical_name_systematic
;
1,6-bis(2,4-di-t-butylphenyl)pyrene
;
_chemical_melting_point 469.15
_cell_volume   3482.112
_exptl_crystal_colour 'black'
_exptl_crystal_density_diffrn 1.104
_exptl_special_details
;
Melting point range 469.15-470.15K

;
_exptl_crystal_description 'prismatic'
_exptl_crystal_preparation 'heptane'
_diffrn_ambient_temperature 195.65
#These two values have been output from a single CSD field.
_refine_ls_R_factor_gt 0.064
_refine_ls_wR_factor_gt 0.064
_symmetry_cell_setting monoclinic
_symmetry_space_group_name_H-M 'C 2/c'
_symmetry_Int_Tables_number 15
loop_
_symmetry_equiv_pos_site_id
_symmetry_equiv_pos_as_xyz
1 x,y,z
2 -x,y,1/2-z
3 1/2+x,1/2+y,z
4 1/2-x,1/2+y,1/2-z
5 -x,-y,-z
6 x,-y,-1/2+z
7 -1/2-x,-1/2-y,-z
8 -1/2+x,-1/2-y,-1/2+z
_cell_length_a 15.769(2)
_cell_length_b 11.552(2)
_cell_length_c 19.119(3)
_cell_angle_alpha 90
_cell_angle_beta 91.125(10)
_cell_angle_gamma 90
_cell_formula_units_Z 4
loop_
_atom_type_symbol
_atom_type_radius_bond
C 0.68
H 0.23
loop_
_atom_site_label
_atom_site_type_symbol
_atom_site_fract_x
_atom_site_fract_y
_atom_site_fract_z
C1 C 0.9794(2) 0.6288(3) 0.7197(2)
C2 C 0.9557(2) 0.5233(3) 0.6848(2)
C3 C 0.9772(2) 0.4164(3) 0.7173(1)
C4 C 0.9522(2) 0.3100(3) 0.6850(2)
C5 C 0.9776(2) 0.2043(3) 0.7194(7)
C6 C 0.9122(2) 0.5215(3) 0.6209(2)
C7 C 0.8878(2) 0.4185(3) 0.5904(2)
C8 C 0.9052(2) 0.3122(3) 0.6214(2)
C9 C 0.8748(2) 0.2043(3) 0.5856(2)
C10 C 0.8241(2) 0.1229(3) 0.6195(2)
C11 C 0.7930(2) 0.0259(3) 0.5849(2)
C12 C 0.8141(2) 0.0116(3) 0.5145(2)
C13 C 0.8634(2) 0.0908(3) 0.4784(2)
C14 C 0.8928(2) 0.1878(3) 0.5150(2)
C15 C 0.7388(2) -0.0651(2) 0.6211(2)
C16 C 0.7177(2) -0.0324(4) 0.6961(2)
C17 C 0.7876(3) -0.1803(3) 0.6230(2)
C18 C 0.6549(2) -0.0837(4) 0.5808(2)
C19 C 0.8867(2) 0.0750(3) 0.4013(2)
C20 C 0.9831(2) 0.0786(3) 0.3947(2)
C21 C 0.8478(2) 0.1754(3) 0.3587(2)
C22 C 0.8545(2) -0.0390(3) 0.3710(2)
H1 H 0.96680 0.70070 0.69590
H2 H 0.90130 0.59750 0.59840
H3 H 0.85790 0.42150 0.55150
H4 H 0.95780 0.12660 0.69850
H5 H 0.80980 0.13720 0.66820
H6 H 0.76880 -0.01910 0.72210
H7 H 0.68420 0.03600 0.69600
H8 H 0.68710 -0.09370 0.71710
H9 H 0.83990 -0.16960 0.64850
H10 H 0.79840 -0.20570 0.57760
H11 H 0.75470 -0.23690 0.64710
H12 H 0.62710 -0.01140 0.57440
H13 H 0.66600 -0.11600 0.53640
H14 H 0.61970 -0.13430 0.60650
H15 H 0.79210 -0.05160 0.49130
H16 H 1.00440 0.14950 0.41310
H17 H 0.99740 0.07230 0.34680
H18 H 1.00730 0.01580 0.42020
H19 H 0.86760 0.24720 0.37700
H20 H 0.86390 0.16850 0.31130
H21 H 0.78770 0.17240 0.36140
H22 H 0.87230 -0.04620 0.32400
H23 H 0.79440 -0.04070 0.37220
H24 H 0.87700 -0.10120 0.39800
H25 H 0.92500 0.24630 0.49290
C1A C 1.0206(2) 0.6288(3) 0.7803(2)
C2A C 1.0443(2) 0.5233(3) 0.8152(2)
C3A C 1.0228(2) 0.4164(3) 0.7827(1)
C5A C 1.0224(2) 0.2043(3) 0.7806(7)
C4A C 1.0478(2) 0.3100(3) 0.8150(2)
C8A C 1.0948(2) 0.3122(3) 0.8786(2)
C7A C 1.1122(2) 0.4185(3) 0.9096(2)
C6A C 1.0878(2) 0.5215(3) 0.8791(2)
H2A H 1.09870 0.59750 0.90160
H3A H 1.14210 0.42150 0.94850
C9A C 1.1252(2) 0.2043(3) 0.9144(2)
C10A C 1.1759(2) 0.1229(3) 0.8805(2)
C11A C 1.2070(2) 0.0259(3) 0.9151(2)
C12A C 1.1859(2) 0.0116(3) 0.9855(2)
C13A C 1.1366(2) 0.0908(3) 1.0216(2)
C14A C 1.1072(2) 0.1878(3) 0.9850(2)
H25A H 1.07500 0.24630 1.00710
C19A C 1.1133(2) 0.0750(3) 1.0987(2)
C20A C 1.0169(2) 0.0786(3) 1.1053(2)
H16A H 0.99560 0.14950 1.08690
H17A H 1.00260 0.07230 1.15320
H18A H 0.99270 0.01580 1.07980
C21A C 1.1522(2) 0.1754(3) 1.1413(2)
H19A H 1.13240 0.24720 1.12300
H20A H 1.13610 0.16850 1.18870
H21A H 1.21230 0.17240 1.13860
C22A C 1.1455(2) -0.0390(3) 1.1290(2)
H22A H 1.12770 -0.04620 1.17600
H23A H 1.20560 -0.04070 1.12780
H24A H 1.12300 -0.10120 1.10200
H15A H 1.20790 -0.05160 1.00870
C15A C 1.2612(2) -0.0651(2) 0.8789(2)
C16A C 1.2823(2) -0.0324(4) 0.8039(2)
H6A H 1.23120 -0.01910 0.77790
H7A H 1.31580 0.03600 0.80400
H8A H 1.31290 -0.09370 0.78290
C17A C 1.2124(3) -0.1803(3) 0.8770(2)
H9A H 1.16010 -0.16960 0.85150
H10A H 1.20160 -0.20570 0.92240
H11A H 1.24530 -0.23690 0.85290
C18A C 1.3451(2) -0.0837(4) 0.9192(2)
H12A H 1.37290 -0.01140 0.92560
H13A H 1.33400 -0.11600 0.96360
H14A H 1.38030 -0.13430 0.89350
H5A H 1.19020 0.13720 0.83180
H4A H 1.04220 0.12660 0.80150
H1A H 1.03320 0.70070 0.80410
loop_
_geom_bond_atom_site_label_1
_geom_bond_atom_site_label_2
_geom_bond_distance
_geom_bond_site_symmetry_1
_geom_bond_site_symmetry_2
C1 C2 1.435 1_555 1_555
C2 C3 1.420 1_555 1_555
C3 C4 1.428 1_555 1_555
C4 C5 1.440 1_555 1_555
C5 H4 1.029 1_555 1_555
C6 C2 1.389 1_555 1_555
C7 C6 1.377 1_555 1_555
C8 C4 1.412 1_555 1_555
C9 C8 1.496 1_555 1_555
C10 C9 1.401 1_555 1_555
C11 C10 1.386 1_555 1_555
C12 C11 1.403 1_555 1_555
C13 C12 1.392 1_555 1_555
C14 C9 1.398 1_555 1_555
C15 C11 1.529 1_555 1_555
C16 C15 1.526 1_555 1_555
C17 C15 1.537 1_555 1_555
C18 C15 1.533 1_555 1_555
C19 C13 1.537 1_555 1_555
C20 C19 1.528 1_555 1_555
C21 C19 1.538 1_555 1_555
C22 C19 1.522 1_555 1_555
H1 C1 0.966 1_555 1_555
H2 C6 0.991 1_555 1_555
H3 C7 0.873 1_555 1_555
H5 C10 0.976 1_555 1_555
H6 C16 0.951 1_555 1_555
H7 C16 0.950 1_555 1_555
H8 C16 0.950 1_555 1_555
H9 C17 0.958 1_555 1_555
H10 C17 0.935 1_555 1_555
H11 C17 0.958 1_555 1_555
H12 C18 0.950 1_555 1_555
H13 C18 0.947 1_555 1_555
H14 C18 0.950 1_555 1_555
H15 C12 0.919 1_555 1_555
H16 C20 0.950 1_555 1_555
H17 C20 0.950 1_555 1_555
H18 C20 0.950 1_555 1_555
H19 C21 0.951 1_555 1_555
H20 C21 0.949 1_555 1_555
H21 C21 0.951 1_555 1_555
H22 C22 0.950 1_555 1_555
H23 C22 0.949 1_555 1_555
H24 C22 0.949 1_555 1_555
H25 C14 0.949 1_555 1_555
C1A C1 1.317 1_555 1_555
C2A C1A 1.435 1_555 1_555
C3A C3 1.430 1_555 1_555
C5A C5 1.355 1_555 1_555
C4A C3A 1.428 1_555 1_555
C8A C4A 1.412 1_555 1_555
C7A C8A 1.389 1_555 1_555
C6A C2A 1.389 1_555 1_555
H2A C6A 0.991 1_555 1_555
H3A C7A 0.873 1_555 1_555
C9A C8A 1.496 1_555 1_555
C10A C9A 1.401 1_555 1_555
C11A C10A 1.386 1_555 1_555
C12A C11A 1.403 1_555 1_555
C13A C12A 1.392 1_555 1_555
C14A C9A 1.398 1_555 1_555
H25A C14A 0.949 1_555 1_555
C19A C13A 1.537 1_555 1_555
C20A C19A 1.528 1_555 1_555
H16A C20A 0.950 1_555 1_555
H17A C20A 0.950 1_555 1_555
H18A C20A 0.950 1_555 1_555
C21A C19A 1.538 1_555 1_555
H19A C21A 0.951 1_555 1_555
H20A C21A 0.949 1_555 1_555
H21A C21A 0.951 1_555 1_555
C22A C19A 1.522 1_555 1_555
H22A C22A 0.950 1_555 1_555
H23A C22A 0.949 1_555 1_555
H24A C22A 0.949 1_555 1_555
H15A C12A 0.919 1_555 1_555
C15A C11A 1.529 1_555 1_555
C16A C15A 1.526 1_555 1_555
H6A C16A 0.951 1_555 1_555
H7A C16A 0.950 1_555 1_555
H8A C16A 0.950 1_555 1_555
C17A C15A 1.537 1_555 1_555
H9A C17A 0.958 1_555 1_555
H10A C17A 0.935 1_555 1_555
H11A C17A 0.958 1_555 1_555
C18A C15A 1.533 1_555 1_555
H12A C18A 0.950 1_555 1_555
H13A C18A 0.947 1_555 1_555
H14A C18A 0.950 1_555 1_555
H5A C10A 0.976 1_555 1_555
H4A C5A 1.029 1_555 1_555
H1A C1A 0.966 1_555 1_555
C7 C8 1.389 1_555 1_555
C13 C14 1.396 1_555 1_555
C2A C3A 1.420 1_555 1_555
C5A C4A 1.440 1_555 1_555
C7A C6A 1.377 1_555 1_555
C13A C14A 1.396 1_555 1_555
#END
