
#######################################################################
#
#                 Cambridge Crystallographic Data Centre
#                                CCDC
#
#######################################################################
#
# If this CIF has been generated from an entry in the Cambridge
# Structural Database, then it will include bibliographic, chemical,
# crystal, experimental, refinement or atomic coordinate data resulting
# from the CCDC's data processing and validation procedures.
#
#######################################################################

data_CSD_CIF_OBOHUL
_audit_creation_date 2017-01-07
_audit_creation_method CSD-ConQuest-V1
_database_code_CSD OBOHUL
_database_code_depnum_ccdc_archive 'CCDC 1523781'
_chemical_formula_sum 'C50 H44'
_chemical_formula_moiety
;
C50 H44
;
_journal_coeditor_code "is5468"
_journal_coden_Cambridge 1828
_journal_volume 73
_journal_year 2017
_journal_page_first 99
_journal_name_full 'Acta Crystallogr.,Sect.E:Cryst.Commun. '
loop_
_publ_author_name
"S.Kamata"
"S.Sato"
"J.Wu"
"H.Isobe"
_chemical_name_systematic
;
7,15-bis(4-t-butylphenyl)-1,9-dimethylheptazethrene
;
_cell_volume    894.470
_exptl_crystal_colour 'purple'
_exptl_crystal_density_diffrn 1.197
_exptl_crystal_description 'block'
_diffrn_ambient_temperature 93
#These two values have been output from a single CSD field.
_refine_ls_R_factor_gt 0.044
_refine_ls_wR_factor_gt 0.044
_symmetry_cell_setting triclinic
_symmetry_space_group_name_H-M 'P -1'
_symmetry_Int_Tables_number 2
loop_
_symmetry_equiv_pos_site_id
_symmetry_equiv_pos_as_xyz
1 x,y,z
2 -x,-y,-z
_cell_length_a 8.7644(2)
_cell_length_b 9.2002(3)
_cell_length_c 13.1212(3)
_cell_angle_alpha 105.874(2)
_cell_angle_beta 95.080(2)
_cell_angle_gamma 115.249(3)
_cell_formula_units_Z 1
loop_
_atom_type_symbol
_atom_type_radius_bond
C 0.68
H 0.23
loop_
_atom_site_label
_atom_site_type_symbol
_atom_site_fract_x
_atom_site_fract_y
_atom_site_fract_z
C1 C 0.77143(15) 0.27792(16) 0.37967(10)
C2 C 0.82438(16) 0.19027(16) 0.29671(11)
H1 H 0.90104 0.14922 0.31670
C3 C 0.77086(16) 0.16138(16) 0.18882(11)
H2 H 0.80244 0.09356 0.13522
C4 C 0.66842(15) 0.23267(15) 0.15725(10)
C5 C 0.61706(14) 0.32728(14) 0.23942(10)
C6 C 0.61937(16) 0.21352(16) 0.04656(10)
H3 H 0.65136 0.14750 -0.00797
C7 C 0.52627(16) 0.28945(16) 0.01768(10)
H4 H 0.49280 0.27490 -0.05677
C8 C 0.48038(16) 0.38832(16) 0.09751(10)
H5 H 0.41851 0.44275 0.07640
C9 C 0.52289(15) 0.40922(15) 0.20719(10)
C10 C 0.47383(15) 0.51085(15) 0.28851(10)
C11 C 0.49880(15) 0.51364(15) 0.39461(10)
C12 C 0.42937(15) 0.59605(15) 0.47208(10)
H6 H 0.38690 0.66623 0.45230
C13 C 0.57990(15) 0.41936(15) 0.4277(1)
C14 C 0.65887(15) 0.34037(15) 0.35078(10)
C15 C 0.84692(17) 0.29973(19) 0.49464(11)
H7 H 0.95346 0.28876 0.49640
H8 H 0.76246 0.21136 0.51764
H9 H 0.87365 0.41319 0.54421
C16 C 0.37768(15) 0.59823(15) 0.25632(9)
C17 C 0.45677(15) 0.77354(16) 0.27639(10)
H10 H 0.57845 0.84009 0.30596
C18 C 0.36053(16) 0.85288(16) 0.25386(10)
H11 H 0.41800 0.97279 0.26804
C19 C 0.18176(15) 0.76070(15) 0.21096(10)
C20 C 0.10460(16) 0.58447(16) 0.18943(11)
H12 H -0.01682 0.51732 0.15899
C21 C 0.19987(16) 0.50500(16) 0.21115(11)
H13 H 0.14299 0.38458 0.19496
C22 C 0.06794(16) 0.84316(17) 0.19069(11)
C23 C -0.05461(19) 0.8203(2) 0.26853(15)
H14 H -0.11833 0.69886 0.25986
H15 H -0.13700 0.86107 0.25147
H16 H 0.01334 0.88646 0.34390
C24 C 0.17399(17) 1.03289(17) 0.20891(13)
H17 H 0.09605 1.07831 0.19167
H18 H 0.25572 1.04817 0.16152
H19 H 0.23849 1.09436 0.28528
C25 C -0.04149(19) 0.7524(2) 0.07259(13)
H20 H -0.11858 0.63189 0.06116
H21 H 0.03549 0.75960 0.02226
H22 H -0.11110 0.80790 0.05908
C1A C 0.22857(15) 0.72208(16) 0.62033(10)
C2A C 0.17562(16) 0.80973(16) 0.70329(11)
H1A H 0.09896 0.85078 0.68330
C3A C 0.22914(16) 0.83862(16) 0.81118(11)
H2A H 0.19756 0.90644 0.86478
C4A C 0.33158(15) 0.76733(15) 0.84275(10)
C5A C 0.38294(14) 0.67272(14) 0.76058(10)
C6A C 0.38063(16) 0.78648(16) 0.95344(10)
H3A H 0.34864 0.85250 1.00797
C7A C 0.47373(16) 0.71055(16) 0.98232(10)
H4A H 0.50720 0.72510 1.05677
C8A C 0.51962(16) 0.61168(16) 0.90249(10)
H5A H 0.58149 0.55725 0.92360
C9A C 0.47711(15) 0.59078(15) 0.79281(10)
C10A C 0.52617(15) 0.48915(15) 0.71149(10)
C11A C 0.50120(15) 0.48636(15) 0.60539(10)
C12A C 0.57063(15) 0.40395(15) 0.52792(10)
H6A H 0.61310 0.33377 0.54770
C13A C 0.42010(15) 0.58064(15) 0.5723(1)
C14A C 0.34113(15) 0.65963(15) 0.64922(10)
C15A C 0.15308(17) 0.70027(19) 0.50536(11)
H7A H 0.04654 0.71124 0.50360
H8A H 0.23754 0.78864 0.48236
H9A H 0.12635 0.58681 0.45579
C16A C 0.62232(15) 0.40177(15) 0.74368(9)
C17A C 0.54323(15) 0.22646(16) 0.72361(10)
H10A H 0.42155 0.15991 0.69404
C18A C 0.63947(16) 0.14712(16) 0.74614(10)
H11A H 0.58200 0.02721 0.73196
C19A C 0.81824(15) 0.23930(15) 0.78904(10)
C20A C 0.89540(16) 0.41553(16) 0.81057(11)
H12A H 1.01682 0.48268 0.84101
C21A C 0.80013(16) 0.49500(16) 0.78885(11)
H13A H 0.85701 0.61542 0.80504
C22A C 0.93206(16) 0.15684(17) 0.80931(11)
C23A C 1.05461(19) 0.1797(2) 0.73147(15)
H14A H 1.11833 0.30114 0.74014
H15A H 1.13700 0.13893 0.74853
H16A H 0.98666 0.11354 0.65610
C24A C 0.82601(17) -0.03289(17) 0.79109(13)
H17A H 0.90395 -0.07831 0.80833
H18A H 0.74428 -0.04817 0.83848
H19A H 0.76151 -0.09436 0.71472
C25A C 1.04149(19) 0.2476(2) 0.92741(13)
H20A H 1.11858 0.36811 0.93884
H21A H 0.96451 0.24040 0.97774
H22A H 1.11110 0.19210 0.94091
loop_
_geom_bond_atom_site_label_1
_geom_bond_atom_site_label_2
_geom_bond_distance
_geom_bond_site_symmetry_1
_geom_bond_site_symmetry_2
C1 C2 1.407 1_555 1_555
C2 H1 0.950 1_555 1_555
C3 C2 1.366 1_555 1_555
H2 C3 0.950 1_555 1_555
C4 C3 1.412 1_555 1_555
C5 C4 1.425 1_555 1_555
C6 C4 1.418 1_555 1_555
H3 C6 0.950 1_555 1_555
C7 C6 1.369 1_555 1_555
H4 C7 0.950 1_555 1_555
C8 C7 1.397 1_555 1_555
H5 C8 0.950 1_555 1_555
C9 C5 1.439 1_555 1_555
C10 C9 1.441 1_555 1_555
C11 C10 1.381 1_555 1_555
C12 C11 1.435 1_555 1_555
H6 C12 0.950 1_555 1_555
C13 C11 1.457 1_555 1_555
C14 C1 1.408 1_555 1_555
C15 C1 1.516 1_555 1_555
H7 C15 0.980 1_555 1_555
H8 C15 0.980 1_555 1_555
H9 C15 0.980 1_555 1_555
C16 C10 1.495 1_555 1_555
C17 C16 1.390 1_555 1_555
H10 C17 0.950 1_555 1_555
C18 C17 1.390 1_555 1_555
H11 C18 0.950 1_555 1_555
C19 C18 1.393 1_555 1_555
C20 C19 1.395 1_555 1_555
H12 C20 0.950 1_555 1_555
C21 C16 1.391 1_555 1_555
H13 C21 0.950 1_555 1_555
C22 C19 1.533 1_555 1_555
C23 C22 1.536 1_555 1_555
H14 C23 0.980 1_555 1_555
H15 C23 0.980 1_555 1_555
H16 C23 0.980 1_555 1_555
C24 C22 1.522 1_555 1_555
H17 C24 0.980 1_555 1_555
H18 C24 0.980 1_555 1_555
H19 C24 0.980 1_555 1_555
C25 C22 1.538 1_555 1_555
H20 C25 0.980 1_555 1_555
H21 C25 0.980 1_555 1_555
H22 C25 0.980 1_555 1_555
C1A C2A 1.407 1_555 1_555
C2A H1A 0.950 1_555 1_555
C3A C2A 1.366 1_555 1_555
H2A C3A 0.950 1_555 1_555
C4A C3A 1.412 1_555 1_555
C5A C4A 1.425 1_555 1_555
C6A C4A 1.418 1_555 1_555
H3A C6A 0.950 1_555 1_555
C7A C6A 1.369 1_555 1_555
H4A C7A 0.950 1_555 1_555
C8A C7A 1.397 1_555 1_555
H5A C8A 0.950 1_555 1_555
C9A C5A 1.439 1_555 1_555
C10A C9A 1.441 1_555 1_555
C11A C10A 1.381 1_555 1_555
C12A C13 1.366 1_555 1_555
H6A C12A 0.950 1_555 1_555
C13A C12 1.366 1_555 1_555
C14A C1A 1.408 1_555 1_555
C15A C1A 1.516 1_555 1_555
H7A C15A 0.980 1_555 1_555
H8A C15A 0.980 1_555 1_555
H9A C15A 0.980 1_555 1_555
C16A C10A 1.495 1_555 1_555
C17A C16A 1.390 1_555 1_555
H10A C17A 0.950 1_555 1_555
C18A C17A 1.390 1_555 1_555
H11A C18A 0.950 1_555 1_555
C19A C18A 1.393 1_555 1_555
C20A C19A 1.395 1_555 1_555
H12A C20A 0.950 1_555 1_555
C21A C16A 1.391 1_555 1_555
H13A C21A 0.950 1_555 1_555
C22A C19A 1.533 1_555 1_555
C23A C22A 1.536 1_555 1_555
H14A C23A 0.980 1_555 1_555
H15A C23A 0.980 1_555 1_555
H16A C23A 0.980 1_555 1_555
C24A C22A 1.522 1_555 1_555
H17A C24A 0.980 1_555 1_555
H18A C24A 0.980 1_555 1_555
H19A C24A 0.980 1_555 1_555
C25A C22A 1.538 1_555 1_555
H20A C25A 0.980 1_555 1_555
H21A C25A 0.980 1_555 1_555
H22A C25A 0.980 1_555 1_555
C5 C14 1.434 1_555 1_555
C8 C9 1.393 1_555 1_555
C13 C14 1.476 1_555 1_555
C20 C21 1.380 1_555 1_555
C5A C14A 1.434 1_555 1_555
C8A C9A 1.393 1_555 1_555
C11A C12A 1.435 1_555 1_555
C11A C13A 1.457 1_555 1_555
C13A C14A 1.476 1_555 1_555
C20A C21A 1.380 1_555 1_555
#END
