
#######################################################################
#
#                 Cambridge Crystallographic Data Centre
#                                CCDC
#
#######################################################################
#
# If this CIF has been generated from an entry in the Cambridge
# Structural Database, then it will include bibliographic, chemical,
# crystal, experimental, refinement or atomic coordinate data resulting
# from the CCDC's data processing and validation procedures.
#
#######################################################################

data_CSD_CIF_OCAHIL
_audit_creation_date 2012-01-25
_audit_creation_method CSD-ConQuest-V1
_database_code_CSD OCAHIL
_database_code_depnum_ccdc_archive 'CCDC 858422'
_chemical_formula_sum 'C16 H20'
_chemical_formula_moiety
;
C16 H20
;
_journal_coeditor_code "IUCr HB6496"
_journal_coden_Cambridge 1370
_journal_volume 67
_journal_year 2011
_journal_page_first o3334
_journal_name_full 'Acta Crystallogr.,Sect.E:Struct.Rep.Online '
loop_
_publ_author_name
"B.Schroder"
"L.R.Gomes"
"J.N.Low"
_chemical_name_systematic
;
1,3-Bis(propan-2-yl)naphthalene
;
_chemical_name_common
;
1,3-diisopropylnaphthalene
;
_cell_volume   2516.101
_exptl_crystal_colour 'colorless'
_exptl_crystal_density_diffrn 1.121
_exptl_crystal_description 'block'
_diffrn_ambient_temperature 150
#These two values have been output from a single CSD field.
_refine_ls_R_factor_gt 0.0455
_refine_ls_wR_factor_gt 0.0455
_symmetry_cell_setting orthorhombic
_symmetry_space_group_name_H-M 'P b c a'
_symmetry_Int_Tables_number 61
loop_
_symmetry_equiv_pos_site_id
_symmetry_equiv_pos_as_xyz
1 x,y,z
2 1/2-x,-y,1/2+z
3 -x,1/2+y,1/2-z
4 1/2+x,1/2-y,-z
5 -x,-y,-z
6 -1/2+x,y,-1/2-z
7 x,-1/2-y,-1/2+z
8 -1/2-x,-1/2+y,z
_cell_length_a 16.1044(12)
_cell_length_b 8.2099(5)
_cell_length_c 19.0303(13)
_cell_angle_alpha 90
_cell_angle_beta 90
_cell_angle_gamma 90
_cell_formula_units_Z 8
loop_
_atom_type_symbol
_atom_type_radius_bond
C 0.68
H 0.23
loop_
_atom_site_label
_atom_site_type_symbol
_atom_site_fract_x
_atom_site_fract_y
_atom_site_fract_z
C1 C 0.35224(7) 0.39257(16) 0.18964(7)
C2 C 0.30803(7) 0.23796(16) 0.16559(7)
H1 H 0.25190 0.23660 0.18810
C3 C 0.29530(9) 0.22710(18) 0.08610(7)
H2 H 0.26660 0.12520 0.07460
H3 H 0.34940 0.22950 0.06250
H4 H 0.26170 0.31960 0.07020
C4 C 0.35537(8) 0.08727(17) 0.19147(8)
H5 H 0.32660 -0.01140 0.17580
H6 H 0.35800 0.08850 0.24290
H7 H 0.41180 0.08840 0.17220
C5 C 0.40246(7) 0.47957(16) 0.14496(7)
H8 H 0.40660 0.44500 0.09740
C6 C 0.44854(7) 0.61884(15) 0.16637(7)
C7 C 0.50394(8) 0.70740(16) 0.11426(7)
H9 H 0.53220 0.79790 0.14000
C8 C 0.45361(9) 0.78327(18) 0.05444(8)
H10 H 0.49120 0.83940 0.02200
H11 H 0.41380 0.86160 0.07380
H12 H 0.42360 0.69750 0.02920
C9 C 0.57143(8) 0.59413(18) 0.08548(8)
H13 H 0.60610 0.65390 0.05190
H14 H 0.54540 0.50130 0.06180
H15 H 0.60600 0.55480 0.12430
C10 C 0.44313(7) 0.66789(16) 0.23492(7)
H16 H 0.47380 0.76040 0.25000
C11 C 0.38868(8) 0.63261(16) 0.35543(7)
H17 H 0.42110 0.72240 0.37080
C12 C 0.33889(8) 0.55295(18) 0.40250(7)
H18 H 0.33720 0.58710 0.45020
C13 C 0.29021(8) 0.42038(17) 0.38021(7)
H19 H 0.25460 0.36710 0.41270
C14 C 0.29370(8) 0.36748(17) 0.31199(7)
H20 H 0.26090 0.27690 0.29810
C15 C 0.34551(7) 0.44543(16) 0.26157(7)
C16 C 0.39261(7) 0.58325(16) 0.28397(7)
loop_
_geom_bond_atom_site_label_1
_geom_bond_atom_site_label_2
_geom_bond_distance
_geom_bond_site_symmetry_1
_geom_bond_site_symmetry_2
C1 C2 1.526 1_555 1_555
C2 H1 1.000 1_555 1_555
C3 C2 1.529 1_555 1_555
H2 C3 0.981 1_555 1_555
H3 C3 0.980 1_555 1_555
H4 C3 0.980 1_555 1_555
C4 C2 1.534 1_555 1_555
H5 C4 0.980 1_555 1_555
H6 C4 0.980 1_555 1_555
H7 C4 0.980 1_555 1_555
C5 C1 1.374 1_555 1_555
H8 C5 0.951 1_555 1_555
C6 C5 1.423 1_555 1_555
C7 C6 1.519 1_555 1_555
H9 C7 1.000 1_555 1_555
C8 C7 1.530 1_555 1_555
H10 C8 0.980 1_555 1_555
H11 C8 0.980 1_555 1_555
H12 C8 0.980 1_555 1_555
C9 C7 1.532 1_555 1_555
H13 C9 0.980 1_555 1_555
H14 C9 0.980 1_555 1_555
H15 C9 0.980 1_555 1_555
C10 C6 1.368 1_555 1_555
H16 C10 0.950 1_555 1_555
C11 H17 0.950 1_555 1_555
C12 C11 1.369 1_555 1_555
H18 C12 0.950 1_555 1_555
C13 C12 1.407 1_555 1_555
H19 C13 0.950 1_555 1_555
C14 C13 1.370 1_555 1_555
H20 C14 0.950 1_555 1_555
C15 C1 1.440 1_555 1_555
C16 C10 1.420 1_555 1_555
C11 C16 1.420 1_555 1_555
C14 C15 1.424 1_555 1_555
C15 C16 1.427 1_555 1_555
#END
