
#######################################################################
#
#                 Cambridge Crystallographic Data Centre
#                                CCDC
#
#######################################################################
#
# If this CIF has been generated from an entry in the Cambridge
# Structural Database, then it will include bibliographic, chemical,
# crystal, experimental, refinement or atomic coordinate data resulting
# from the CCDC's data processing and validation procedures.
#
#######################################################################

data_CSD_CIF_ODIVEF
_audit_creation_date 2018-08-24
_audit_creation_method CSD-ConQuest-V1
_database_code_CSD ODIVEF
_database_code_depnum_ccdc_archive 'CCDC 1510638'
_chemical_formula_sum 'C34 H30'
_chemical_formula_moiety
;
C34 H30
;
_journal_coden_Cambridge 15
_journal_volume 95
_journal_year 2017
_journal_page_first 432
_journal_name_full 'Can.J.Chem. '
loop_
_publ_author_name
"K.Uchida"
"T.Kubo"
"D.Yamanaka"
"A.Furube"
"H.Matsuzaki"
"R.Nishii"
"Y.Sakagami"
"A.Abulikemu"
"K.Kamada"
_chemical_name_systematic
;
2,9-di-t-butyldibenzo[cd,lm]perylene
;
_chemical_name_common
;
2,9-di-t-butylperopyrene
;
_cell_volume   1174.441
_exptl_crystal_colour 'yellow'
_exptl_crystal_density_diffrn 1.24
_exptl_crystal_description 'platelet'
_exptl_crystal_preparation 'Re-crystallisation from solvent'
_diffrn_ambient_temperature 200
#These two values have been output from a single CSD field.
_refine_ls_R_factor_gt 0.0463
_refine_ls_wR_factor_gt 0.0463
_symmetry_cell_setting triclinic
_symmetry_space_group_name_H-M 'P -1'
_symmetry_Int_Tables_number 2
loop_
_symmetry_equiv_pos_site_id
_symmetry_equiv_pos_as_xyz
1 x,y,z
2 -x,-y,-z
_cell_length_a 6.3207(5)
_cell_length_b 10.3801(8)
_cell_length_c 18.1328(14)
_cell_angle_alpha 98.522(2)
_cell_angle_beta 90.597(2)
_cell_angle_gamma 93.252(2)
_cell_formula_units_Z 2
loop_
_atom_type_symbol
_atom_type_radius_bond
C 0.68
H 0.23
loop_
_atom_site_label
_atom_site_type_symbol
_atom_site_fract_x
_atom_site_fract_y
_atom_site_fract_z
C1 C 1.0138(3) 0.15075(16) 0.24409(9)
H1 H 1.11120 0.20420 0.22080
C2 C 0.8294(3) 0.09954(16) 0.20535(9)
C3 C 0.6906(3) 0.02055(16) 0.24115(9)
H2 H 0.56400 -0.01570 0.21570
C4 C 0.7302(3) -0.00745(15) 0.31285(9)
C5 C 0.5857(3) -0.08736(16) 0.34963(10)
H3 H 0.46120 -0.12630 0.32370
C6 C 0.6224(3) -0.10836(16) 0.41997(9)
H4 H 0.52170 -0.16070 0.44260
C7 C 0.8089(3) -0.05424(14) 0.46197(9)
C8 C 0.9593(3) 0.02321(14) 0.42648(9)
C9 C 1.1502(3) 0.07764(14) 0.46425(9)
C10 C 1.2911(3) 0.15696(15) 0.4260(1)
H5 H 1.41870 0.19390 0.45050
C11 C 1.2492(3) 0.18106(16) 0.35634(9)
H6 H 1.34650 0.23540 0.33350
C12 C 1.0611(3) 0.12634(15) 0.31626(9)
C13 C 0.9172(3) 0.04695(15) 0.35232(9)
C14 C 0.7758(3) 0.12451(17) 0.12612(10)
C15 C 0.9342(3) 0.22516(19) 0.09990(11)
H7 H 0.93490 0.30710 0.13460
H8 H 0.89240 0.24070 0.04990
H9 H 1.07640 0.19190 0.09850
C16 C 0.7818(4) -0.00381(18) 0.07227(10)
H10 H 0.92390 -0.03670 0.07340
H11 H 0.74700 0.01150 0.02160
H12 H 0.67810 -0.06820 0.08740
C17 C 0.5525(3) 0.1747(2) 0.12345(11)
H13 H 0.44830 0.10770 0.13540
H14 H 0.52220 0.19460 0.07340
H15 H 0.54440 0.25400 0.15990
C18 C 0.4222(3) 0.53753(17) 0.22325(10)
H16 H 0.50110 0.50730 0.18050
C19 C 0.2446(3) 0.60771(16) 0.21417(10)
C20 C 0.1316(3) 0.65030(16) 0.27821(10)
H17 H 0.00990 0.69840 0.27360
C21 C 0.1915(3) 0.62463(15) 0.34899(9)
C22 C 0.0737(3) 0.66779(16) 0.41391(10)
H18 H -0.04920 0.71470 0.40930
C23 C 0.1345(3) 0.64288(15) 0.48193(9)
H19 H 0.05310 0.67370 0.52390
C24 C 0.3165(3) 0.57191(14) 0.49294(9)
C25 C 0.4371(3) 0.52672(15) 0.42913(9)
C26 C 0.6199(3) 0.45507(15) 0.43612(9)
C27 C 0.7341(3) 0.41263(16) 0.36949(9)
H20 H 0.85650 0.36470 0.37310
C28 C 0.6725(3) 0.43900(16) 0.30196(9)
H21 H 0.75330 0.40970 0.25950
C29 C 0.4895(3) 0.50954(16) 0.29274(9)
C30 C 0.3726(3) 0.55363(14) 0.35723(9)
C31 C 0.1809(3) 0.64435(16) 0.13865(10)
C32 C 0.2654(4) 0.78506(19) 0.13682(12)
H22 H 0.19950 0.84350 0.17630
H23 H 0.23120 0.81010 0.08820
H24 H 0.41940 0.79160 0.14470
C33 C 0.2776(4) 0.5560(2) 0.07323(11)
H25 H 0.43210 0.57110 0.07500
H26 H 0.22170 0.57630 0.02590
H27 H 0.24040 0.46430 0.07720
C34 C -0.0593(3) 0.6342(2) 0.12676(12)
H28 H -0.11400 0.54510 0.13040
H29 H -0.09400 0.65520 0.07730
H30 H -0.12410 0.69570 0.16500
C1A C 0.9862(3) -0.15075(16) 0.75591(9)
H1A H 0.88880 -0.20420 0.77920
C2A C 1.1706(3) -0.09954(16) 0.79465(9)
C3A C 1.3094(3) -0.02055(16) 0.75885(9)
H2A H 1.43600 0.01570 0.78430
C4A C 1.2698(3) 0.00745(15) 0.68715(9)
C5A C 1.4143(3) 0.08736(16) 0.65037(10)
H3A H 1.53880 0.12630 0.67630
C6A C 1.3776(3) 0.10836(16) 0.58003(9)
H4A H 1.47830 0.16070 0.55740
C7A C 1.1911(3) 0.05424(14) 0.53803(9)
C8A C 1.0407(3) -0.02321(14) 0.57352(9)
C9A C 0.8498(3) -0.07764(14) 0.53575(9)
C10A C 0.7089(3) -0.15696(15) 0.5740(1)
H5A H 0.58130 -0.19390 0.54950
C11A C 0.7508(3) -0.18106(16) 0.64366(9)
H6A H 0.65350 -0.23540 0.66650
C12A C 0.9389(3) -0.12634(15) 0.68374(9)
C13A C 1.0828(3) -0.04695(15) 0.64768(9)
C14A C 1.2242(3) -0.12451(17) 0.87388(10)
C15A C 1.0658(3) -0.22516(19) 0.90010(11)
H7A H 1.06510 -0.30710 0.86540
H8A H 1.10760 -0.24070 0.95010
H9A H 0.92360 -0.19190 0.90150
C16A C 1.2182(4) 0.00381(18) 0.92773(10)
H10A H 1.07610 0.03670 0.92660
H11A H 1.25300 -0.01150 0.97840
H12A H 1.32190 0.06820 0.91260
C17A C 1.4475(3) -0.1747(2) 0.87655(11)
H13A H 1.55170 -0.10770 0.86460
H14A H 1.47780 -0.19460 0.92660
H15A H 1.45560 -0.25400 0.84010
C18A C 0.5778(3) 0.46247(17) 0.77675(10)
H16A H 0.49890 0.49270 0.81950
C19A C 0.7554(3) 0.39229(16) 0.78583(10)
C20A C 0.8684(3) 0.34970(16) 0.72179(10)
H17A H 0.99010 0.30160 0.72640
C21A C 0.8085(3) 0.37537(15) 0.65101(9)
C22A C 0.9263(3) 0.33221(16) 0.58609(10)
H18A H 1.04920 0.28530 0.59070
C23A C 0.8655(3) 0.35712(15) 0.51807(9)
H19A H 0.94690 0.32630 0.47610
C24A C 0.6835(3) 0.42809(14) 0.50706(9)
C25A C 0.5629(3) 0.47328(15) 0.57087(9)
C26A C 0.3801(3) 0.54493(15) 0.56388(9)
C27A C 0.2659(3) 0.58737(16) 0.63051(9)
H20A H 0.14350 0.63530 0.62690
C28A C 0.3275(3) 0.56100(16) 0.69804(9)
H21A H 0.24670 0.59030 0.74050
C29A C 0.5105(3) 0.49046(16) 0.70726(9)
C30A C 0.6274(3) 0.44637(14) 0.64277(9)
C31A C 0.8191(3) 0.35565(16) 0.86135(10)
C32A C 0.7346(4) 0.21494(19) 0.86318(12)
H22A H 0.80050 0.15650 0.82370
H23A H 0.76880 0.18990 0.91180
H24A H 0.58060 0.20840 0.85530
C33A C 0.7224(4) 0.4440(2) 0.92677(11)
H25A H 0.56790 0.42890 0.92500
H26A H 0.77830 0.42370 0.97410
H27A H 0.75960 0.53570 0.92280
C34A C 1.0593(3) 0.3658(2) 0.87324(12)
H28A H 1.11400 0.45490 0.86960
H29A H 1.09400 0.34480 0.92270
H30A H 1.12410 0.30430 0.83500
loop_
_geom_bond_atom_site_label_1
_geom_bond_atom_site_label_2
_geom_bond_distance
_geom_bond_site_symmetry_1
_geom_bond_site_symmetry_2
C1 H1 0.949 1_555 1_555
C2 C1 1.392 1_555 1_555
C3 C2 1.397 1_555 1_555
H2 C3 0.949 1_555 1_555
C4 C3 1.397 1_555 1_555
C5 C4 1.434 1_555 1_555
H3 C5 0.951 1_555 1_555
C6 C5 1.345 1_555 1_555
H4 C6 0.949 1_555 1_555
C7 C6 1.437 1_555 1_555
C8 C7 1.430 1_555 1_555
C9 C8 1.427 1_555 1_555
C10 C9 1.432 1_555 1_555
H5 C10 0.950 1_555 1_555
C11 C10 1.350 1_555 1_555
H6 C11 0.950 1_555 1_555
C12 C1 1.402 1_555 1_555
C13 C4 1.420 1_555 1_555
C14 C2 1.535 1_555 1_555
C15 C14 1.536 1_555 1_555
H7 C15 0.980 1_555 1_555
H8 C15 0.980 1_555 1_555
H9 C15 0.980 1_555 1_555
C16 C14 1.533 1_555 1_555
H10 C16 0.980 1_555 1_555
H11 C16 0.980 1_555 1_555
H12 C16 0.980 1_555 1_555
C17 C14 1.535 1_555 1_555
H13 C17 0.980 1_555 1_555
H14 C17 0.979 1_555 1_555
H15 C17 0.980 1_555 1_555
C18 H16 0.950 1_555 1_555
C19 C18 1.394 1_555 1_555
C20 C19 1.398 1_555 1_555
H17 C20 0.950 1_555 1_555
C21 C20 1.402 1_555 1_555
C22 C21 1.429 1_555 1_555
H18 C22 0.949 1_555 1_555
C23 C22 1.353 1_555 1_555
H19 C23 0.949 1_555 1_555
C24 C23 1.429 1_555 1_555
C25 C24 1.428 1_555 1_555
C26 C25 1.424 1_555 1_555
C27 C26 1.439 1_555 1_555
H20 C27 0.950 1_555 1_555
C28 C27 1.352 1_555 1_555
H21 C28 0.950 1_555 1_555
C29 C18 1.402 1_555 1_555
C30 C21 1.414 1_555 1_555
C31 C19 1.530 1_555 1_555
C32 C31 1.532 1_555 1_555
H22 C32 0.980 1_555 1_555
H23 C32 0.981 1_555 1_555
H24 C32 0.979 1_555 1_555
C33 C31 1.542 1_555 1_555
H25 C33 0.980 1_555 1_555
H26 C33 0.981 1_555 1_555
H27 C33 0.981 1_555 1_555
C34 C31 1.527 1_555 1_555
H28 C34 0.981 1_555 1_555
H29 C34 0.979 1_555 1_555
H30 C34 0.980 1_555 1_555
C1A H1A 0.949 1_555 1_555
C2A C1A 1.392 1_555 1_555
C3A C2A 1.397 1_555 1_555
H2A C3A 0.949 1_555 1_555
C4A C3A 1.397 1_555 1_555
C5A C4A 1.434 1_555 1_555
H3A C5A 0.951 1_555 1_555
C6A C5A 1.345 1_555 1_555
H4A C6A 0.949 1_555 1_555
C7A C9 1.418 1_555 1_555
C8A C7A 1.430 1_555 1_555
C9A C7 1.418 1_555 1_555
C10A C9A 1.432 1_555 1_555
H5A C10A 0.950 1_555 1_555
C11A C10A 1.350 1_555 1_555
H6A C11A 0.950 1_555 1_555
C12A C1A 1.402 1_555 1_555
C13A C4A 1.420 1_555 1_555
C14A C2A 1.535 1_555 1_555
C15A C14A 1.536 1_555 1_555
H7A C15A 0.980 1_555 1_555
H8A C15A 0.980 1_555 1_555
H9A C15A 0.980 1_555 1_555
C16A C14A 1.533 1_555 1_555
H10A C16A 0.980 1_555 1_555
H11A C16A 0.980 1_555 1_555
H12A C16A 0.980 1_555 1_555
C17A C14A 1.535 1_555 1_555
H13A C17A 0.980 1_555 1_555
H14A C17A 0.979 1_555 1_555
H15A C17A 0.980 1_555 1_555
C18A H16A 0.950 1_555 1_555
C19A C18A 1.394 1_555 1_555
C20A C19A 1.398 1_555 1_555
H17A C20A 0.950 1_555 1_555
C21A C20A 1.402 1_555 1_555
C22A C21A 1.429 1_555 1_555
H18A C22A 0.949 1_555 1_555
C23A C22A 1.353 1_555 1_555
H19A C23A 0.949 1_555 1_555
C24A C26 1.415 1_555 1_555
C25A C24A 1.428 1_555 1_555
C26A C24 1.415 1_555 1_555
C27A C26A 1.439 1_555 1_555
H20A C27A 0.950 1_555 1_555
C28A C27A 1.352 1_555 1_555
H21A C28A 0.950 1_555 1_555
C29A C18A 1.402 1_555 1_555
C30A C21A 1.414 1_555 1_555
C31A C19A 1.530 1_555 1_555
C32A C31A 1.532 1_555 1_555
H22A C32A 0.980 1_555 1_555
H23A C32A 0.981 1_555 1_555
H24A C32A 0.979 1_555 1_555
C33A C31A 1.542 1_555 1_555
H25A C33A 0.980 1_555 1_555
H26A C33A 0.981 1_555 1_555
H27A C33A 0.981 1_555 1_555
C34A C31A 1.527 1_555 1_555
H28A C34A 0.981 1_555 1_555
H29A C34A 0.979 1_555 1_555
H30A C34A 0.980 1_555 1_555
C8 C13 1.428 1_555 1_555
C11 C12 1.431 1_555 1_555
C12 C13 1.422 1_555 1_555
C25 C30 1.433 1_555 1_555
C28 C29 1.425 1_555 1_555
C29 C30 1.421 1_555 1_555
C6A C7A 1.437 1_555 1_555
C8A C9A 1.427 1_555 1_555
C8A C13A 1.428 1_555 1_555
C11A C12A 1.431 1_555 1_555
C12A C13A 1.422 1_555 1_555
C23A C24A 1.429 1_555 1_555
C25A C26A 1.424 1_555 1_555
C25A C30A 1.433 1_555 1_555
C28A C29A 1.425 1_555 1_555
C29A C30A 1.421 1_555 1_555
#END
