
#######################################################################
#
#                 Cambridge Crystallographic Data Centre
#                                CCDC
#
#######################################################################
#
# If this CIF has been generated from an entry in the Cambridge
# Structural Database, then it will include bibliographic, chemical,
# crystal, experimental, refinement or atomic coordinate data resulting
# from the CCDC's data processing and validation procedures.
#
#######################################################################

data_CSD_CIF_ODIVAB
_audit_creation_date 2018-08-24
_audit_creation_method CSD-ConQuest-V1
_database_code_CSD ODIVAB
_database_code_depnum_ccdc_archive 'CCDC 1510637'
_chemical_formula_sum 'C34 H30'
_chemical_formula_moiety
;
C34 H30
;
_journal_coden_Cambridge 15
_journal_volume 95
_journal_year 2017
_journal_page_first 432
_journal_name_full 'Can.J.Chem. '
loop_
_publ_author_name
"K.Uchida"
"T.Kubo"
"D.Yamanaka"
"A.Furube"
"H.Matsuzaki"
"R.Nishii"
"Y.Sakagami"
"A.Abulikemu"
"K.Kamada"
_chemical_name_systematic
;
2,9-dibutyldibenzo[cd,lm]perylene
;
_chemical_name_common
;
2,9-dibutylperopyrene
;
_cell_volume    567.128
_exptl_crystal_colour 'yellow'
_exptl_crystal_density_diffrn 1.284
_exptl_crystal_description 'platelet'
_exptl_crystal_preparation 'Re-crystallisation from solvent'
_diffrn_ambient_temperature 200
#These two values have been output from a single CSD field.
_refine_ls_R_factor_gt 0.0475
_refine_ls_wR_factor_gt 0.0475
_symmetry_cell_setting triclinic
_symmetry_space_group_name_H-M 'P -1'
_symmetry_Int_Tables_number 2
loop_
_symmetry_equiv_pos_site_id
_symmetry_equiv_pos_as_xyz
1 x,y,z
2 -x,-y,-z
_cell_length_a 4.5716(6)
_cell_length_b 8.5913(12)
_cell_length_c 15.400(2)
_cell_angle_alpha 75.991(5)
_cell_angle_beta 85.390(6)
_cell_angle_gamma 75.141(5)
_cell_formula_units_Z 1
loop_
_atom_type_symbol
_atom_type_radius_bond
C 0.68
H 0.23
loop_
_atom_site_label
_atom_site_type_symbol
_atom_site_fract_x
_atom_site_fract_y
_atom_site_fract_z
C1 C 0.3302(3) 0.63522(17) 0.03605(9)
C2 C 0.1546(4) 0.76610(18) 0.07548(10)
H1 H 0.17720 0.87550 0.05230
C3 C -0.0416(4) 0.73821(18) 0.14445(10)
H2 H -0.15260 0.82820 0.16870
C4 C -0.0864(3) 0.57611(19) 0.1820(1)
C5 C -0.2909(4) 0.5456(2) 0.25275(10)
H3 H -0.40370 0.63520 0.27700
C6 C -0.3342(3) 0.3884(2) 0.28871(10)
C7 C -0.1668(3) 0.25834(19) 0.25266(10)
H4 H -0.19520 0.15030 0.27660
C8 C 0.0423(3) 0.28200(18) 0.18205(9)
C9 C 0.2205(4) 0.14862(18) 0.14571(10)
H5 H 0.19820 0.03950 0.17020
C10 C 0.4200(3) 0.17456(17) 0.07716(10)
H6 H 0.53510 0.08280 0.05510
C11 C 0.4635(3) 0.33662(17) 0.03670(9)
C12 C 0.2940(3) 0.47182(17) 0.07235(9)
C13 C 0.0841(3) 0.44345(17) 0.14515(9)
C14 C -0.5460(4) 0.3566(2) 0.36815(10)
H7 H -0.67780 0.28940 0.35600
H8 H -0.67720 0.46350 0.37640
C15 C -0.3736(4) 0.2664(2) 0.45393(10)
H9 H -0.23480 0.16280 0.44390
H10 H -0.24800 0.33630 0.46660
C16 C -0.5726(4) 0.2238(2) 0.53582(10)
H11 H -0.69810 0.32750 0.54980
H12 H -0.71090 0.16170 0.52190
C17 C -0.3906(5) 0.1213(2) 0.61744(11)
H13 H -0.27120 0.01660 0.60480
H14 H -0.52850 0.09850 0.66840
H15 H -0.25440 0.18250 0.63190
C1A C 0.6698(3) 0.36478(17) -0.03605(9)
C2A C 0.8454(4) 0.23390(18) -0.07548(10)
H1A H 0.82280 0.12450 -0.05230
C3A C 1.0416(4) 0.26179(18) -0.14445(10)
H2A H 1.15260 0.17180 -0.16870
C4A C 1.0864(3) 0.42389(19) -0.1820(1)
C5A C 1.2909(4) 0.4544(2) -0.25275(10)
H3A H 1.40370 0.36480 -0.27700
C6A C 1.3342(3) 0.6116(2) -0.28871(10)
C7A C 1.1668(3) 0.74166(19) -0.25266(10)
H4A H 1.19520 0.84970 -0.27660
C8A C 0.9577(3) 0.71800(18) -0.18205(9)
C9A C 0.7795(4) 0.85138(18) -0.14571(10)
H5A H 0.80180 0.96050 -0.17020
C10A C 0.5800(3) 0.82544(17) -0.07716(10)
H6A H 0.46490 0.91720 -0.05510
C11A C 0.5365(3) 0.66338(17) -0.03670(9)
C12A C 0.7060(3) 0.52818(17) -0.07235(9)
C13A C 0.9159(3) 0.55655(17) -0.14515(9)
C14A C 1.5460(4) 0.6434(2) -0.36815(10)
H7A H 1.67780 0.71060 -0.35600
H8A H 1.67720 0.53650 -0.37640
C15A C 1.3736(4) 0.7336(2) -0.45393(10)
H9A H 1.23480 0.83720 -0.44390
H10A H 1.24800 0.66370 -0.46660
C16A C 1.5726(4) 0.7762(2) -0.53582(10)
H11A H 1.69810 0.67250 -0.54980
H12A H 1.71090 0.83830 -0.52190
C17A C 1.3906(5) 0.8787(2) -0.61744(11)
H13A H 1.27120 0.98340 -0.60480
H14A H 1.52850 0.90150 -0.66840
H15A H 1.25440 0.81750 -0.63190
loop_
_geom_bond_atom_site_label_1
_geom_bond_atom_site_label_2
_geom_bond_distance
_geom_bond_site_symmetry_1
_geom_bond_site_symmetry_2
C1 C2 1.438 1_555 1_555
C2 H1 0.950 1_555 1_555
C3 C2 1.351 1_555 1_555
H2 C3 0.950 1_555 1_555
C4 C3 1.433 1_555 1_555
C5 C4 1.398 1_555 1_555
H3 C5 0.950 1_555 1_555
C6 C5 1.388 1_555 1_555
C7 C6 1.391 1_555 1_555
H4 C7 0.950 1_555 1_555
C8 C7 1.401 1_555 1_555
C9 C8 1.431 1_555 1_555
H5 C9 0.950 1_555 1_555
C10 C9 1.353 1_555 1_555
H6 C10 0.950 1_555 1_555
C11 C10 1.438 1_555 1_555
C12 C1 1.427 1_555 1_555
C13 C4 1.419 1_555 1_555
C14 C6 1.514 1_555 1_555
H7 C14 0.990 1_555 1_555
H8 C14 0.990 1_555 1_555
C15 C14 1.525 1_555 1_555
H9 C15 0.990 1_555 1_555
H10 C15 0.990 1_555 1_555
C16 C15 1.521 1_555 1_555
H11 C16 0.990 1_555 1_555
H12 C16 0.990 1_555 1_555
C17 C16 1.518 1_555 1_555
H13 C17 0.980 1_555 1_555
H14 C17 0.980 1_555 1_555
H15 C17 0.980 1_555 1_555
C1A C11 1.421 1_555 1_555
C2A C1A 1.438 1_555 1_555
H1A C2A 0.950 1_555 1_555
C3A C2A 1.351 1_555 1_555
H2A C3A 0.950 1_555 1_555
C4A C3A 1.433 1_555 1_555
C5A C4A 1.398 1_555 1_555
H3A C5A 0.950 1_555 1_555
C6A C5A 1.388 1_555 1_555
C7A C6A 1.391 1_555 1_555
H4A C7A 0.950 1_555 1_555
C8A C7A 1.401 1_555 1_555
C9A C8A 1.431 1_555 1_555
H5A C9A 0.950 1_555 1_555
C10A C9A 1.353 1_555 1_555
H6A C10A 0.950 1_555 1_555
C11A C1 1.421 1_555 1_555
C12A C1A 1.427 1_555 1_555
C13A C4A 1.419 1_555 1_555
C14A C6A 1.514 1_555 1_555
H7A C14A 0.990 1_555 1_555
H8A C14A 0.990 1_555 1_555
C15A C14A 1.525 1_555 1_555
H9A C15A 0.990 1_555 1_555
H10A C15A 0.990 1_555 1_555
C16A C15A 1.521 1_555 1_555
H11A C16A 0.990 1_555 1_555
H12A C16A 0.990 1_555 1_555
C17A C16A 1.518 1_555 1_555
H13A C17A 0.980 1_555 1_555
H14A C17A 0.980 1_555 1_555
H15A C17A 0.980 1_555 1_555
C8 C13 1.421 1_555 1_555
C11 C12 1.425 1_555 1_555
C12 C13 1.432 1_555 1_555
C8A C13A 1.421 1_555 1_555
C10A C11A 1.438 1_555 1_555
C11A C12A 1.425 1_555 1_555
C12A C13A 1.432 1_555 1_555
#END
