
#######################################################################
#
#                 Cambridge Crystallographic Data Centre
#                                CCDC
#
#######################################################################
#
# If this CIF has been generated from an entry in the Cambridge
# Structural Database, then it will include bibliographic, chemical,
# crystal, experimental, refinement or atomic coordinate data resulting
# from the CCDC's data processing and validation procedures.
#
#######################################################################

data_CSD_CIF_OFALOZ
_audit_creation_date 2018-08-28
_audit_creation_method CSD-ConQuest-V1
_database_code_CSD OFALOZ
_database_code_depnum_ccdc_archive 'CCDC 856219'
_chemical_formula_sum 'C32 H16'
_chemical_formula_moiety
;
C32 H16
;
_journal_coden_Cambridge 15
_journal_volume 95
_journal_year 2017
_journal_page_first 410
_journal_name_full 'Can.J.Chem. '
loop_
_publ_author_name
"N.J.Smith"
"L.T.Scott"
_chemical_name_systematic
;
tribenzo(a,d,j)corannulene
;
_cell_volume  11111.415
_exptl_crystal_colour 'colorless'
_exptl_crystal_density_diffrn 1.436
_exptl_crystal_description 'plate'
_diffrn_ambient_temperature 100
#These two values have been output from a single CSD field.
_refine_ls_R_factor_gt 0.0406
_refine_ls_wR_factor_gt 0.0406
_symmetry_cell_setting monoclinic
_symmetry_space_group_name_H-M 'P 21'
_symmetry_Int_Tables_number 4
loop_
_symmetry_equiv_pos_site_id
_symmetry_equiv_pos_as_xyz
1 x,y,z
2 -x,1/2+y,-z
_cell_length_a 19.2518(9)
_cell_length_b 21.6277(10)
_cell_length_c 26.6863(14)
_cell_angle_alpha 90
_cell_angle_beta 90.101(4)
_cell_angle_gamma 90
_cell_formula_units_Z 24
loop_
_atom_type_symbol
_atom_type_radius_bond
C 0.68
H 0.23
loop_
_atom_site_label
_atom_site_type_symbol
_atom_site_fract_x
_atom_site_fract_y
_atom_site_fract_z
C1 C 0.16215(16) 0.91775(13) 0.79880(11)
C2 C 0.22325(16) 0.92156(14) 0.76788(12)
C3 C 0.20474(17) 0.90862(14) 0.71843(12)
C4 C 0.13195(17) 0.89575(14) 0.71714(12)
C5 C 0.10666(17) 0.90058(14) 0.76615(12)
C6 C 0.16214(17) 0.91048(14) 0.84915(12)
C7 C 0.23349(17) 0.91284(14) 0.87186(12)
C8 C 0.29453(17) 0.91700(14) 0.84013(13)
C9 C 0.28911(17) 0.91775(14) 0.78563(13)
C10 C 0.34013(17) 0.90436(14) 0.74783(13)
H1 H 0.38800 0.90460 0.75660
C11 C 0.32103(18) 0.89114(15) 0.69879(13)
H2 H 0.35650 0.88300 0.67500
C12 C 0.25031(17) 0.88926(14) 0.68248(13)
C13 C 0.21711(18) 0.86335(15) 0.63729(12)
C14 C 0.14292(18) 0.85119(14) 0.63545(13)
C15 C 0.09952(18) 0.86350(15) 0.68003(12)
C16 C 0.03277(17) 0.83969(14) 0.69372(13)
H3 H 0.00440 0.82110 0.66870
C17 C 0.00838(17) 0.84306(15) 0.74283(12)
H4 H -0.03550 0.82530 0.75050
C18 C 0.04727(17) 0.87243(14) 0.78220(12)
C19 C 0.03795(17) 0.87204(14) 0.83678(13)
C20 C 0.09314(17) 0.89457(14) 0.86971(13)
C21 C 0.24529(18) 0.90773(15) 0.92336(13)
H5 H 0.20650 0.90380 0.94510
C22 C 0.31154(19) 0.90814(16) 0.94395(14)
H6 H 0.31710 0.90500 0.97920
C23 C 0.36968(19) 0.91310(16) 0.91374(14)
H7 H 0.41490 0.91410 0.92810
C24 C 0.36098(18) 0.91661(15) 0.86286(14)
H8 H 0.40100 0.91890 0.84210
C25 C 0.25613(18) 0.84667(15) 0.59516(13)
H9 H 0.30490 0.85360 0.59560
C26 C 0.2265(2) 0.82063(15) 0.55326(13)
H10 H 0.25480 0.80990 0.52540
C27 C 0.1552(2) 0.81001(16) 0.55151(13)
H11 H 0.13460 0.79270 0.52230
C28 C 0.11454(19) 0.82482(15) 0.59237(12)
H12 H 0.06600 0.81680 0.59110
C29 C -0.02455(17) 0.85046(14) 0.85765(13)
H13 H -0.05950 0.83410 0.83630
C30 C -0.03584(18) 0.85256(16) 0.90815(13)
H14 H -0.07760 0.83620 0.92170
C31 C 0.01367(19) 0.87857(17) 0.93991(14)
H15 H 0.00430 0.88250 0.97470
C32 C 0.07609(19) 0.89854(16) 0.92100(13)
H16 H 0.10920 0.91580 0.94340
C33 C 0.17005(17) 0.91390(14) 0.30623(12)
C34 C 0.22652(17) 0.92233(14) 0.27243(12)
C35 C 0.20280(17) 0.91666(13) 0.22322(12)
C36 C 0.13001(17) 0.90393(14) 0.22520(12)
C37 C 0.10990(17) 0.90247(14) 0.27552(12)
C38 C 0.17620(17) 0.89731(14) 0.35515(12)
C39 C 0.24874(17) 0.89317(14) 0.37317(13)
C40 C 0.30626(17) 0.90231(14) 0.33878(12)
C41 C 0.29468(16) 0.91366(14) 0.28559(12)
C42 C 0.34072(18) 0.90704(15) 0.24374(12)
H17 H 0.38940 0.90700 0.24960
C43 C 0.31673(18) 0.90075(14) 0.19495(13)
H18 H 0.34930 0.89560 0.16860
C44 C 0.24390(17) 0.90181(14) 0.18327(13)
C45 C 0.20593(18) 0.88035(14) 0.13839(12)
C46 C 0.13191(18) 0.86891(15) 0.14027(13)
C47 C 0.09315(17) 0.87656(14) 0.18743(13)
C48 C 0.02814(17) 0.85042(14) 0.20314(13)
H19 H -0.00280 0.83430 0.17860
C49 C 0.00949(18) 0.84813(15) 0.25305(12)
H20 H -0.03380 0.82980 0.26160
C50 C 0.05225(17) 0.87202(14) 0.29268(13)
C51 C 0.04880(18) 0.86470(15) 0.34660(13)
C52 C 0.10785(18) 0.87993(14) 0.37832(13)
C53 C 0.26652(18) 0.87606(15) 0.42272(13)
H21 H 0.23010 0.86810 0.44580
C54 C 0.33390(17) 0.87037(16) 0.43903(13)
H22 H 0.34320 0.85940 0.47290
C55 C 0.38891(18) 0.88071(15) 0.40584(14)
H23 H 0.43560 0.87780 0.41720
C56 C 0.37475(17) 0.89503(14) 0.35686(13)
H24 H 0.41240 0.90020 0.33430
C57 C 0.2406(2) 0.86869(15) 0.09334(13)
H25 H 0.28920 0.87600 0.09160
C58 C 0.2068(2) 0.84711(15) 0.05180(13)
H26 H 0.23220 0.83880 0.02200
C59 C 0.13458(19) 0.83712(15) 0.05293(13)
H27 H 0.11060 0.82340 0.02380
C60 C 0.09985(19) 0.84745(15) 0.09652(13)
H28 H 0.05130 0.83970 0.09730
C61 C -0.01204(17) 0.84364(15) 0.36928(14)
H29 H -0.04990 0.83170 0.34860
C62 C -0.01935(18) 0.83944(16) 0.42042(14)
H30 H -0.06100 0.82390 0.43460
C63 C 0.03478(19) 0.85816(17) 0.45074(14)
H31 H 0.02910 0.85820 0.48610
C64 C 0.09727(17) 0.87688(15) 0.43009(13)
H32 H 0.13430 0.88810 0.45190
C65 C 0.32416(17) 0.74760(15) 0.32437(13)
C66 C 0.38556(17) 0.73852(14) 0.29537(13)
C67 C 0.36802(17) 0.74178(14) 0.24433(13)
C68 C 0.29573(17) 0.75404(14) 0.24038(12)
C69 C 0.26903(17) 0.75717(14) 0.28960(13)
C70 C 0.31596(17) 0.72864(14) 0.37259(13)
C71 C 0.38271(16) 0.71026(14) 0.39691(13)
C72 C 0.44382(16) 0.69793(14) 0.36696(14)
C73 C 0.44302(17) 0.70822(15) 0.31264(13)
C74 C 0.48828(17) 0.68546(15) 0.27416(14)
H33 H 0.53130 0.66720 0.28350
C75 C 0.47124(17) 0.68927(15) 0.22388(14)
H34 H 0.50340 0.67430 0.19980
C76 C 0.40689(18) 0.71494(15) 0.20680(13)
C77 C 0.37027(18) 0.70860(15) 0.15889(13)
C78 C 0.29662(18) 0.72110(14) 0.15472(13)
C79 C 0.25650(18) 0.74036(14) 0.19914(13)
C80 C 0.18319(17) 0.73854(14) 0.20877(13)
H35 H 0.15180 0.73470 0.18140
C81 C 0.15724(17) 0.74222(14) 0.25700(13)
H36 H 0.10830 0.74110 0.26160
C82 C 0.20118(17) 0.74767(14) 0.30037(13)
C83 C 0.18548(17) 0.73258(14) 0.35292(13)
C84 C 0.24288(18) 0.72297(14) 0.38842(13)
C85 C 0.39080(18) 0.70538(15) 0.44926(14)
H37 H 0.35330 0.71700 0.47030
C86 C 0.45179(19) 0.68415(16) 0.47104(14)
H38 H 0.45530 0.68140 0.50650
C87 C 0.50786(18) 0.66688(16) 0.44118(14)
H39 H 0.54860 0.65010 0.45590
C88 C 0.50350(17) 0.67441(15) 0.39026(14)
H40 H 0.54220 0.66330 0.37010
C89 C 0.40572(19) 0.68766(16) 0.11610(13)
H41 H 0.45420 0.67970 0.11820
C90 C 0.3720(2) 0.67849(17) 0.07123(14)
H42 H 0.39730 0.66480 0.04280
C91 C 0.3008(2) 0.68924(16) 0.06744(14)
H43 H 0.27710 0.68190 0.03670
C92 C 0.2650(2) 0.71071(15) 0.10873(13)
H44 H 0.21660 0.71870 0.10550
C93 C 0.11739(17) 0.72428(14) 0.36856(13)
H45 H 0.08090 0.73100 0.34520
C94 C 0.10083(18) 0.70670(15) 0.41650(13)
H46 H 0.05370 0.70240 0.42640
C95 C 0.15451(18) 0.69525(15) 0.45041(13)
H47 H 0.14390 0.68200 0.48350
C96 C 0.22254(18) 0.70291(14) 0.43653(13)
H48 H 0.25770 0.69430 0.46050
C97 C 0.66852(17) 0.92807(14) 0.16277(12)
C98 C 0.60648(16) 0.91313(14) 0.19001(12)
C99 C 0.62290(17) 0.90596(14) 0.24037(13)
C100 C 0.69534(18) 0.91692(14) 0.24647(12)
C101 C 0.72270(18) 0.92999(14) 0.19863(12)
C102 C 0.67699(17) 0.91931(14) 0.11284(12)
C103 C 0.61016(17) 0.90590(14) 0.08552(13)
C104 C 0.54842(17) 0.88798(14) 0.11310(14)
C105 C 0.54868(18) 0.88645(15) 0.16788(14)
C106 C 0.50411(18) 0.85556(15) 0.20250(14)
H49 H 0.46130 0.83940 0.19050
C107 C 0.52033(17) 0.84808(15) 0.25270(13)
H50 H 0.48860 0.82710 0.27390
C108 C 0.58386(17) 0.87129(15) 0.27339(13)
C109 C 0.61969(19) 0.85586(15) 0.32062(13)
C110 C 0.69313(17) 0.86607(15) 0.32624(13)
C111 C 0.73403(18) 0.89473(14) 0.28551(13)
C112 C 0.80741(18) 0.89463(14) 0.27632(13)
H51 H 0.83820 0.88510 0.30310
C113 C 0.83455(19) 0.90803(15) 0.22951(13)
H52 H 0.88350 0.90780 0.22530
C114 C 0.79179(17) 0.92220(14) 0.18742(12)
C115 C 0.80662(17) 0.91900(14) 0.13347(12)
C116 C 0.75063(17) 0.91619(15) 0.09683(12)
C117 C 0.60245(18) 0.91087(16) 0.03380(13)
H53 H 0.64080 0.92540 0.01470
C118 C 0.5418(2) 0.89572(17) 0.00879(14)
H54 H 0.53940 0.89950 -0.02660
C119 C 0.4843(2) 0.87503(17) 0.03539(15)
H55 H 0.44320 0.86290 0.01820
C120 C 0.4876(2) 0.87228(17) 0.08688(15)
H56 H 0.44780 0.85950 0.10510
C121 C 0.58440(19) 0.82557(15) 0.35930(13)
H57 H 0.53590 0.81840 0.35590
C122 C 0.6176(2) 0.80578(16) 0.40212(13)
H58 H 0.59210 0.78610 0.42810
C123 C 0.68977(19) 0.81499(16) 0.40709(13)
H59 H 0.71350 0.80060 0.43610
C124 C 0.7255(2) 0.84472(15) 0.37009(13)
H60 H 0.77400 0.85120 0.37420
C125 C 0.87557(17) 0.91330(15) 0.11725(13)
H61 H 0.91190 0.91460 0.14130
C126 C 0.89180(19) 0.90596(16) 0.06813(13)
H62 H 0.93900 0.90330 0.05810
C127 C 0.8391(2) 0.90233(16) 0.03270(13)
H63 H 0.85040 0.89700 -0.00170
C128 C 0.77073(18) 0.90637(15) 0.04686(13)
H64 H 0.73570 0.90240 0.02200
C129 C 0.16869(17) 0.57667(14) 0.33360(13)
C130 C 0.22278(18) 0.58873(14) 0.29896(13)
C131 C 0.19607(17) 0.58554(14) 0.24951(12)
C132 C 0.12482(17) 0.57076(14) 0.25328(13)
C133 C 0.10704(17) 0.56615(14) 0.30414(12)
C134 C 0.17698(17) 0.55721(14) 0.38142(12)
C135 C 0.25105(16) 0.55313(14) 0.39743(13)
C136 C 0.30595(17) 0.56530(14) 0.36180(13)
C137 C 0.29199(17) 0.58092(14) 0.30967(13)
C138 C 0.33577(17) 0.57836(14) 0.26654(13)
H65 H 0.38470 0.57890 0.27120
C139 C 0.30971(17) 0.57517(14) 0.21788(13)
H66 H 0.34110 0.57310 0.19050
C140 C 0.23607(17) 0.57492(14) 0.20820(12)
C141 C 0.19699(18) 0.55450(15) 0.16361(12)
C142 C 0.12397(19) 0.53928(15) 0.16728(13)
C143 C 0.08770(17) 0.54332(14) 0.21554(12)
C144 C 0.02440(18) 0.51450(15) 0.23203(13)
H67 H -0.00670 0.49820 0.20770
C145 C 0.00739(18) 0.50969(15) 0.28174(13)
H68 H -0.03510 0.49030 0.29060
C146 C 0.05144(17) 0.53286(15) 0.32097(12)
C147 C 0.05073(17) 0.52164(15) 0.37505(13)
C148 C 0.11139(18) 0.53664(15) 0.40582(13)
C149 C 0.27148(17) 0.53264(14) 0.44518(13)
H69 H 0.23640 0.52250 0.46880
C150 C 0.33962(17) 0.52659(15) 0.45925(13)
H70 H 0.35080 0.51330 0.49220
C151 C 0.39220(17) 0.53978(14) 0.42552(13)
H71 H 0.43940 0.53630 0.43550
C152 C 0.37590(17) 0.55778(14) 0.37806(13)
H72 H 0.41240 0.56560 0.35500
C153 C 0.22973(19) 0.54687(16) 0.11714(13)
H73 H 0.27760 0.55670 0.11400
C154 C 0.1940(2) 0.52554(16) 0.07602(13)
H74 H 0.21730 0.52080 0.04490
C155 C 0.1240(2) 0.51092(16) 0.07968(13)
H75 H 0.09970 0.49620 0.05110
C156 C 0.09007(19) 0.51757(16) 0.12419(12)
H76 H 0.04220 0.50720 0.12600
C157 C -0.00838(17) 0.49678(15) 0.39810(13)
H77 H -0.04680 0.48490 0.37780
C158 C -0.01248(18) 0.48904(15) 0.44882(13)
H78 H -0.05230 0.47040 0.46330
C159 C 0.04232(18) 0.50874(16) 0.47908(13)
H79 H 0.03820 0.50670 0.51450
C160 C 0.10258(17) 0.53125(15) 0.45775(13)
H80 H 0.13950 0.54360 0.47920
C161 C 0.82982(17) 0.75598(14) 0.17107(13)
C162 C 0.77540(17) 0.75819(14) 0.20755(12)
C163 C 0.80389(18) 0.74449(14) 0.25461(13)
C164 C 0.87583(17) 0.73296(14) 0.24857(13)
C165 C 0.89209(17) 0.73947(14) 0.19776(13)
C166 C 0.82121(18) 0.74868(14) 0.12124(13)
C167 C 0.74624(17) 0.74858(14) 0.10534(13)
C168 C 0.69163(17) 0.75108(14) 0.14285(12)
C169 C 0.70682(17) 0.75242(14) 0.19640(13)
C170 C 0.66374(18) 0.73747(15) 0.23888(13)
H81 H 0.61470 0.73690 0.23490
C171 C 0.69209(18) 0.72393(14) 0.28533(13)
H82 H 0.66170 0.71460 0.31230
C172 C 0.76561(18) 0.72342(15) 0.29414(13)
C173 C 0.80701(18) 0.69605(14) 0.33553(12)
C174 C 0.88093(18) 0.68445(15) 0.32922(13)
C175 C 0.91550(18) 0.69933(15) 0.28119(13)
C176 C 0.97830(18) 0.67595(15) 0.26053(14)
H83 H 1.01030 0.65550 0.28200
C177 C 0.99426(18) 0.68206(15) 0.21031(13)
H84 H 1.03680 0.66540 0.19840
C178 C 0.94880(17) 0.71282(14) 0.17545(14)
C179 C 0.94854(18) 0.71472(14) 0.12110(13)
C180 C 0.88658(18) 0.73478(15) 0.09353(13)
C181 C 0.72529(19) 0.74266(15) 0.05535(13)
H85 H 0.75980 0.74000 0.03000
C182 C 0.65568(19) 0.74053(16) 0.04153(13)
H86 H 0.64360 0.73730 0.00710
C183 C 0.60395(19) 0.74303(15) 0.07708(14)
H87 H 0.55650 0.74150 0.06730
C184 C 0.62174(18) 0.74778(15) 0.12677(13)
H88 H 0.58590 0.74890 0.15120
C185 C 0.77571(19) 0.67640(15) 0.37994(13)
H89 H 0.72740 0.68340 0.38460
C186 C 0.8131(2) 0.64707(15) 0.41732(13)
H90 H 0.79050 0.63410 0.44710
C187 C 0.88404(19) 0.63644(16) 0.41137(13)
H91 H 0.90970 0.61650 0.43720
C188 C 0.91700(19) 0.65500(15) 0.36787(13)
H92 H 0.96540 0.64750 0.36420
C189 C 1.00791(18) 0.69810(15) 0.09368(14)
H93 H 1.04770 0.68380 0.11130
C190 C 1.01039(19) 0.70170(17) 0.04276(14)
H94 H 1.05070 0.68860 0.02530
C191 C 0.9538(2) 0.72452(17) 0.01664(14)
H95 H 0.95620 0.72930 -0.01870
C192 C 0.89359(19) 0.74034(16) 0.04192(14)
H96 H 0.85540 0.75570 0.02310
C193 C 0.33567(16) 0.40874(14) 0.34577(12)
C194 C 0.39088(17) 0.40057(14) 0.31107(12)
C195 C 0.36422(17) 0.40778(14) 0.26228(12)
C196 C 0.29195(17) 0.42135(14) 0.26618(12)
C197 C 0.27407(17) 0.42107(14) 0.31688(12)
C198 C 0.33543(17) 0.38733(14) 0.39366(12)
C199 C 0.40601(17) 0.36737(15) 0.41129(13)
C200 C 0.45953(17) 0.35343(15) 0.37464(13)
C201 C 0.44968(17) 0.36738(15) 0.32135(13)
C202 C 0.48636(17) 0.34616(15) 0.27785(13)
H97 H 0.52970 0.32590 0.28210
C203 C 0.46061(18) 0.35428(15) 0.22999(13)
H98 H 0.48760 0.34050 0.20240
C204 C 0.39502(18) 0.38254(15) 0.22038(13)
C205 C 0.34940(18) 0.38044(14) 0.17561(12)
C206 C 0.27642(19) 0.39396(14) 0.17957(13)
C207 C 0.24492(17) 0.41082(14) 0.22803(12)
C208 C 0.17408(17) 0.40860(14) 0.24455(13)
H99 H 0.13790 0.40750 0.22030
C209 C 0.15712(17) 0.40807(14) 0.29509(13)
H100 H 0.10950 0.40600 0.30430
C210 C 0.20857(17) 0.41051(14) 0.33372(13)
C211 C 0.20347(17) 0.39221(14) 0.38696(13)
C212 C 0.26584(17) 0.38086(15) 0.41614(13)
C213 C 0.42381(18) 0.35964(16) 0.46146(13)
H101 H 0.39140 0.37160 0.48640
C214 C 0.48680(18) 0.33518(17) 0.47623(14)
H102 H 0.49720 0.33130 0.51090
C215 C 0.53472(18) 0.31638(16) 0.44111(14)
H103 H 0.57660 0.29690 0.45140
C216 C 0.52171(17) 0.32592(15) 0.39137(13)
H104 H 0.55550 0.31370 0.36740
C217 C 0.37533(19) 0.36083(15) 0.12956(13)
H105 H 0.42340 0.35160 0.12660
C218 C 0.3330(2) 0.35446(17) 0.08829(13)
H106 H 0.35190 0.34120 0.05720
C219 C 0.2622(2) 0.36738(17) 0.09200(13)
H107 H 0.23280 0.36240 0.06360
C220 C 0.23501(19) 0.38733(15) 0.13681(13)
H108 H 0.18690 0.39680 0.13870
C221 C 0.13865(18) 0.38196(16) 0.40836(14)
H109 H 0.09820 0.38950 0.38890
C222 C 0.13118(18) 0.36134(16) 0.45677(14)
H110 H 0.08630 0.35580 0.47080
C223 C 0.19002(19) 0.34885(16) 0.48479(13)
H111 H 0.18550 0.33370 0.51800
C224 C 0.25510(19) 0.35828(15) 0.46489(13)
H112 H 0.29450 0.34910 0.48500
C225 C 0.66712(17) 0.58990(13) 0.17704(13)
C226 C 0.60371(17) 0.57568(14) 0.20294(14)
C227 C 0.61730(17) 0.56949(14) 0.25379(13)
C228 C 0.69006(17) 0.57857(14) 0.26119(13)
C229 C 0.71994(18) 0.59106(14) 0.21424(13)
C230 C 0.67700(17) 0.58302(14) 0.12720(13)
C231 C 0.61120(18) 0.57090(14) 0.09869(13)
C232 C 0.54873(17) 0.55255(14) 0.12511(14)
C233 C 0.54650(17) 0.55017(14) 0.17954(13)
C234 C 0.49884(17) 0.52053(15) 0.21354(14)
H113 H 0.45650 0.50450 0.20070
C235 C 0.51259(18) 0.51457(15) 0.26419(14)
H114 H 0.47900 0.49540 0.28510
C236 C 0.57668(17) 0.53675(15) 0.28634(13)
C237 C 0.60945(18) 0.52291(15) 0.33487(14)
C238 C 0.68247(18) 0.53285(14) 0.34259(12)
C239 C 0.72630(18) 0.55771(15) 0.30169(13)
C240 C 0.80004(19) 0.55595(15) 0.29411(13)
H115 H 0.82940 0.54610 0.32160
C241 C 0.82999(18) 0.56817(15) 0.24771(13)
H116 H 0.87910 0.56690 0.24470
C242 C 0.78897(17) 0.58257(14) 0.20436(13)
C243 C 0.80587(17) 0.57987(14) 0.15068(13)
C244 C 0.75131(18) 0.57954(14) 0.11250(13)
C245 C 0.60566(19) 0.57762(15) 0.04676(14)
H117 H 0.64480 0.59230 0.02870
C246 C 0.54541(18) 0.56377(17) 0.02033(15)
H118 H 0.54370 0.56930 -0.01500
C247 C 0.4874(2) 0.54164(17) 0.04589(15)
H119 H 0.44690 0.53000 0.02790
C248 C 0.48919(19) 0.53674(15) 0.09702(14)
H120 H 0.44910 0.52230 0.11410
C249 C 0.57104(19) 0.49529(15) 0.37352(13)
H121 H 0.52280 0.48830 0.36860
C250 C 0.6008(2) 0.47812(16) 0.41796(13)
H122 H 0.57340 0.45990 0.44360
C251 C 0.6722(2) 0.48762(16) 0.42528(13)
H123 H 0.69350 0.47550 0.45590
C252 C 0.7112(2) 0.51452(15) 0.38822(13)
H124 H 0.75940 0.52090 0.39380
C253 C 0.87499(17) 0.57407(15) 0.13581(13)
H125 H 0.91020 0.57340 0.16080
C254 C 0.89384(18) 0.56924(15) 0.08649(13)
H126 H 0.94150 0.56650 0.07750
C255 C 0.84266(18) 0.56844(16) 0.04983(13)
H127 H 0.85540 0.56480 0.01560
C256 C 0.77376(19) 0.57293(15) 0.06266(13)
H128 H 0.73990 0.57150 0.03680
C257 C 0.16592(18) 0.24191(15) 0.33359(12)
C258 C 0.22665(17) 0.25398(14) 0.30589(12)
C259 C 0.21089(16) 0.25233(13) 0.25454(12)
C260 C 0.13882(17) 0.23816(14) 0.24942(13)
C261 C 0.11140(17) 0.23184(14) 0.29783(12)
C262 C 0.16333(18) 0.22157(14) 0.38184(12)
C263 C 0.23280(17) 0.21677(15) 0.40631(13)
C264 C 0.29563(18) 0.22860(14) 0.37749(13)
C265 C 0.29231(17) 0.24448(14) 0.32440(13)
C266 C 0.34478(18) 0.24127(14) 0.28624(13)
H129 H 0.39220 0.24020 0.29620
C267 C 0.32917(18) 0.23976(14) 0.23580(14)
H130 H 0.36610 0.23780 0.21230
C268 C 0.25935(18) 0.24098(14) 0.21764(13)
C269 C 0.22947(18) 0.22258(14) 0.16884(13)
C270 C 0.15639(19) 0.20919(15) 0.16385(13)
C271 C 0.10997(17) 0.21263(14) 0.20758(12)
C272 C 0.04340(17) 0.18362(15) 0.21611(13)
H131 H 0.01730 0.16910 0.18820
C273 C 0.01672(18) 0.17648(15) 0.26377(13)
H132 H -0.02690 0.15650 0.26780
C274 C 0.05284(17) 0.19830(15) 0.30744(12)
C275 C 0.04144(17) 0.18480(14) 0.36083(13)
C276 C 0.09394(17) 0.20020(14) 0.39812(12)
C277 C 0.24190(19) 0.19699(15) 0.45549(13)
H133 H 0.20200 0.18770 0.47500
C278 C 0.30698(19) 0.19027(16) 0.47722(14)
H134 H 0.31080 0.17710 0.51110
C279 C 0.36638(19) 0.20269(16) 0.44983(14)
H135 H 0.41090 0.19890 0.46490
C280 C 0.36013(18) 0.22035(15) 0.40106(14)
H136 H 0.40120 0.22740 0.38220
C281 C 0.27258(19) 0.21401(15) 0.12735(13)
H137 H 0.32100 0.22180 0.13040
C282 C 0.2459(2) 0.19434(17) 0.08181(14)
H138 H 0.27590 0.18930 0.05390
C283 C 0.17577(19) 0.18206(16) 0.07665(13)
H139 H 0.15780 0.16840 0.04540
C284 C 0.13200(19) 0.18972(16) 0.11716(13)
H140 H 0.08380 0.18150 0.11310
C285 C -0.02036(17) 0.15708(15) 0.37651(13)
H141 H -0.05340 0.14490 0.35190
C286 C -0.03530(19) 0.14665(16) 0.42635(14)
H142 H -0.07680 0.12600 0.43580
C287 C 0.01158(19) 0.16689(17) 0.46243(14)
H143 H 0.00050 0.16290 0.49700
C288 C 0.07413(18) 0.19276(16) 0.44832(13)
H144 H 0.10520 0.20620 0.47380
C289 C 0.66805(17) 0.25827(14) 0.19028(12)
C290 C 0.61254(17) 0.24238(14) 0.22332(13)
C291 C 0.63825(17) 0.23644(14) 0.27223(12)
C292 C 0.71161(18) 0.24877(14) 0.27030(13)
C293 C 0.72920(17) 0.26145(14) 0.22053(12)
C294 C 0.66746(17) 0.24991(14) 0.13991(13)
C295 C 0.59671(18) 0.23504(14) 0.11995(13)
C296 C 0.54205(17) 0.21382(14) 0.15368(13)
C297 C 0.55217(17) 0.21378(14) 0.20769(13)
C298 C 0.51461(18) 0.18337(15) 0.24727(13)
H145 H 0.47060 0.16570 0.23980
C299 C 0.53984(17) 0.17883(15) 0.29540(13)
H146 H 0.51230 0.15910 0.32020
C300 C 0.60715(18) 0.20326(14) 0.30928(13)
C301 C 0.65221(18) 0.18849(15) 0.35252(13)
C302 C 0.72609(18) 0.19999(15) 0.35024(13)
C303 C 0.75800(17) 0.22764(14) 0.30546(13)
C304 C 0.82864(18) 0.22832(14) 0.28848(13)
H147 H 0.86460 0.21970 0.31190
C305 C 0.84637(18) 0.24100(15) 0.23961(14)
H148 H 0.89400 0.24080 0.23040
C306 C 0.79502(17) 0.25459(14) 0.20203(13)
C307 C 0.79941(18) 0.25053(14) 0.14754(13)
C308 C 0.73757(17) 0.24718(14) 0.11651(13)
C309 C 0.57821(18) 0.24061(16) 0.06939(13)
H149 H 0.61100 0.25820 0.04700
C310 C 0.51480(19) 0.22187(18) 0.05030(14)
H150 H 0.50480 0.22670 0.01560
C311 C 0.4659(2) 0.19600(18) 0.08209(14)
H151 H 0.42340 0.18050 0.06890
C312 C 0.47894(18) 0.19279(15) 0.13264(13)
H152 H 0.44450 0.17590 0.15410
C313 C 0.6252(2) 0.15907(15) 0.39515(13)
H153 H 0.57670 0.15130 0.39720
C314 C 0.6683(2) 0.14118(16) 0.43438(13)
H154 H 0.64910 0.12130 0.46290
C315 C 0.7392(2) 0.15224(16) 0.43200(14)
H155 H 0.76850 0.13990 0.45890
C316 C 0.76733(19) 0.18109(15) 0.39076(13)
H156 H 0.81600 0.18840 0.38970
C317 C 0.86451(18) 0.24464(15) 0.12432(14)
H157 H 0.90530 0.24630 0.14440
C318 C 0.87083(18) 0.23661(16) 0.07394(15)
H158 H 0.91560 0.23450 0.05910
C319 C 0.81187(19) 0.23158(16) 0.04423(14)
H159 H 0.81640 0.22470 0.00920
C320 C 0.74695(18) 0.23654(15) 0.06532(13)
H160 H 0.70720 0.23260 0.04440
C321 C 0.33717(17) 0.07980(14) 0.32580(13)
C322 C 0.39088(17) 0.07129(14) 0.28962(12)
C323 C 0.36196(18) 0.07616(14) 0.24164(12)
C324 C 0.28985(18) 0.08769(14) 0.24655(13)
C325 C 0.27437(17) 0.08957(13) 0.29834(13)
C326 C 0.34058(17) 0.06059(14) 0.37432(13)
C327 C 0.41175(17) 0.04134(15) 0.39009(13)
C328 C 0.46370(16) 0.02698(15) 0.35287(13)
C329 C 0.45140(17) 0.03932(14) 0.29930(13)
C330 C 0.48665(17) 0.01834(15) 0.25544(12)
H161 H 0.53100 -0.00040 0.25900
C331 C 0.45837(18) 0.02432(15) 0.20792(13)
H162 H 0.48440 0.01010 0.18000
C332 C 0.39192(17) 0.05092(14) 0.19941(13)
C333 C 0.34465(17) 0.04493(14) 0.15607(12)
C334 C 0.27118(18) 0.05583(14) 0.16184(13)
C335 C 0.24157(18) 0.07410(14) 0.21027(13)
C336 C 0.17195(18) 0.07009(14) 0.22886(13)
H163 H 0.13500 0.06610 0.20550
C337 C 0.15632(18) 0.07179(14) 0.27936(14)
H164 H 0.10920 0.06870 0.28950
C338 C 0.20965(17) 0.07806(14) 0.31695(13)
C339 C 0.20807(17) 0.06277(14) 0.37061(13)
C340 C 0.27169(17) 0.05414(14) 0.39870(13)
C341 C 0.43202(18) 0.03461(16) 0.43999(13)
H165 H 0.40080 0.04780 0.46540
C342 C 0.49489(19) 0.00987(18) 0.45439(14)
H166 H 0.50620 0.00620 0.48890
C343 C 0.54182(18) -0.00975(17) 0.41790(14)
H167 H 0.58390 -0.02950 0.42730
C344 C 0.52642(17) -0.00012(15) 0.36830(13)
H168 H 0.55920 -0.01220 0.34360
C345 C 0.36945(19) 0.02508(15) 0.10984(13)
H169 H 0.41790 0.01890 0.10560
C346 C 0.3253(2) 0.01412(16) 0.06978(14)
H170 H 0.34330 0.00020 0.03860
C347 C 0.25435(19) 0.02364(15) 0.07561(13)
H171 H 0.22380 0.01610 0.04830
C348 C 0.22806(19) 0.04390(14) 0.12057(13)
H172 H 0.17940 0.05000 0.12380
C349 C 0.14404(17) 0.05380(15) 0.39459(14)
H173 H 0.10240 0.05960 0.37600
C350 C 0.13955(19) 0.03696(16) 0.44389(14)
H174 H 0.09550 0.03240 0.45950
C351 C 0.20056(19) 0.02662(16) 0.47102(13)
H175 H 0.19820 0.01400 0.50510
C352 C 0.26362(18) 0.03462(16) 0.44867(13)
H176 H 0.30420 0.02660 0.46790
C353 C 0.83535(17) 0.09139(13) 0.17959(12)
C354 C 0.77493(17) 0.09612(14) 0.20975(12)
C355 C 0.79288(17) 0.08224(14) 0.26009(12)
C356 C 0.86508(17) 0.06889(14) 0.26126(13)
C357 C 0.89131(16) 0.07420(14) 0.21245(12)
C358 C 0.83601(17) 0.08284(14) 0.12933(12)
C359 C 0.76543(17) 0.08262(14) 0.10652(13)
C360 C 0.70368(17) 0.08787(14) 0.13747(13)
C361 C 0.70825(16) 0.09117(14) 0.19161(13)
C362 C 0.65723(18) 0.07841(14) 0.22954(13)
H177 H 0.60940 0.07940 0.22060
C363 C 0.67522(17) 0.06482(14) 0.27843(13)
H178 H 0.63950 0.05700 0.30210
C364 C 0.74596(17) 0.06222(14) 0.29442(13)
C365 C 0.77758(17) 0.03266(14) 0.33915(12)
C366 C 0.85122(18) 0.02029(14) 0.34131(12)
C367 C 0.89593(17) 0.03454(14) 0.29808(12)
C368 C 0.96209(18) 0.00996(15) 0.28437(12)
H179 H 0.98930 -0.01000 0.30930
C369 C 0.98834(17) 0.01411(15) 0.23596(12)
H180 H 1.03230 -0.00360 0.22870
C370 C 0.95035(16) 0.04472(14) 0.19649(13)
C371 C 0.95954(16) 0.04485(14) 0.14231(13)
C372 C 0.90558(17) 0.06649(14) 0.10873(12)
C373 C 0.75383(18) 0.07303(15) 0.05499(13)
H181 H 0.79300 0.06780 0.03380
C374 C 0.68850(18) 0.07083(16) 0.03377(14)
H182 H 0.68350 0.06430 -0.00130
C375 C 0.62990(18) 0.07817(16) 0.06372(14)
H183 H 0.58480 0.07810 0.04910
C376 C 0.63792(18) 0.08550(15) 0.11463(14)
H184 H 0.59770 0.08910 0.13500
C377 C 0.73678(18) 0.01280(15) 0.37922(13)
H185 H 0.68820 0.02040 0.37840
C378 C 0.76478(19) -0.01764(15) 0.42005(13)
H186 H 0.73560 -0.03100 0.44660
C379 C 0.83568(19) -0.02859(15) 0.42211(12)
H187 H 0.85500 -0.04890 0.45050
C380 C 0.87833(18) -0.01047(15) 0.38360(12)
H188 H 0.92670 -0.01880 0.38550
C381 C 1.02225(17) 0.02331(15) 0.12136(13)
H189 H 1.05690 0.00670 0.14290
C382 C 1.03468(18) 0.02567(17) 0.07079(13)
H190 H 1.07650 0.00920 0.05750
C383 C 0.9858(2) 0.05229(18) 0.03915(14)
H191 H 0.99560 0.05710 0.00450
C384 C 0.92284(18) 0.07169(16) 0.05823(13)
H192 H 0.88980 0.08940 0.03590
loop_
_geom_bond_atom_site_label_1
_geom_bond_atom_site_label_2
_geom_bond_distance
_geom_bond_site_symmetry_1
_geom_bond_site_symmetry_2
C1 C2 1.440 1_555 1_555
C2 C3 1.395 1_555 1_555
C3 C4 1.429 1_555 1_555
C4 C5 1.400 1_555 1_555
C5 C1 1.427 1_555 1_555
C6 C1 1.353 1_555 1_555
C7 C6 1.501 1_555 1_555
C8 C7 1.452 1_555 1_555
C9 C2 1.355 1_555 1_555
C10 C9 1.439 1_555 1_555
H1 C10 0.950 1_555 1_555
C11 C10 1.389 1_555 1_555
H2 C11 0.950 1_555 1_555
C12 C3 1.367 1_555 1_555
C13 C12 1.475 1_555 1_555
C14 C13 1.453 1_555 1_555
C15 C4 1.362 1_555 1_555
C16 C15 1.432 1_555 1_555
H3 C16 0.951 1_555 1_555
C17 C16 1.395 1_555 1_555
H4 C17 0.951 1_555 1_555
C18 C5 1.365 1_555 1_555
C19 C18 1.468 1_555 1_555
C20 C6 1.479 1_555 1_555
C21 C7 1.397 1_555 1_555
H5 C21 0.950 1_555 1_555
C22 C21 1.388 1_555 1_555
H6 C22 0.949 1_555 1_555
C23 C22 1.385 1_555 1_555
H7 C23 0.951 1_555 1_555
C24 C8 1.415 1_555 1_555
H8 C24 0.951 1_555 1_555
C25 C13 1.401 1_555 1_555
H9 C25 0.951 1_555 1_555
C26 C25 1.375 1_555 1_555
H10 C26 0.951 1_555 1_555
C27 C26 1.392 1_555 1_555
H11 C27 0.951 1_555 1_555
C28 C14 1.394 1_555 1_555
H12 C28 0.951 1_555 1_555
C29 C19 1.406 1_555 1_555
H13 C29 0.949 1_555 1_555
C30 C29 1.366 1_555 1_555
H14 C30 0.950 1_555 1_555
C31 C30 1.393 1_555 1_555
H15 C31 0.950 1_555 1_555
C32 C20 1.411 1_555 1_555
H16 C32 0.950 1_555 1_555
C33 C34 1.426 1_555 1_555
C34 C35 1.395 1_555 1_555
C35 C36 1.429 1_555 1_555
C36 C37 1.399 1_555 1_555
C37 C33 1.439 1_555 1_555
C38 C33 1.359 1_555 1_555
C39 C38 1.479 1_555 1_555
C40 C39 1.453 1_555 1_555
C41 C34 1.371 1_555 1_555
C42 C41 1.434 1_555 1_555
H17 C42 0.950 1_555 1_555
C43 C42 1.387 1_555 1_555
H18 C43 0.950 1_555 1_555
C44 C35 1.367 1_555 1_555
C45 C44 1.477 1_555 1_555
C46 C45 1.447 1_555 1_555
C47 C36 1.367 1_555 1_555
C48 C47 1.437 1_555 1_555
H19 C48 0.951 1_555 1_555
C49 C48 1.381 1_555 1_555
H20 C49 0.951 1_555 1_555
C50 C37 1.370 1_555 1_555
C51 C50 1.449 1_555 1_555
C52 C38 1.503 1_555 1_555
C53 C39 1.415 1_555 1_555
H21 C53 0.950 1_555 1_555
C54 C53 1.373 1_555 1_555
H22 C54 0.951 1_555 1_555
C55 C54 1.400 1_555 1_555
H23 C55 0.950 1_555 1_555
C56 C40 1.412 1_555 1_555
H24 C56 0.950 1_555 1_555
C57 C45 1.399 1_555 1_555
H25 C57 0.950 1_555 1_555
C58 C57 1.367 1_555 1_555
H26 C58 0.951 1_555 1_555
C59 C58 1.407 1_555 1_555
H27 C59 0.951 1_555 1_555
C60 C46 1.399 1_555 1_555
H28 C60 0.950 1_555 1_555
C61 C51 1.396 1_555 1_555
H29 C61 0.949 1_555 1_555
C62 C61 1.375 1_555 1_555
H30 C62 0.949 1_555 1_555
C63 C62 1.379 1_555 1_555
H31 C63 0.950 1_555 1_555
C64 C52 1.398 1_555 1_555
H32 C64 0.951 1_555 1_555
C65 C66 1.428 1_555 1_555
C66 C67 1.404 1_555 1_555
C67 C68 1.420 1_555 1_555
C68 C69 1.413 1_555 1_555
C69 C65 1.424 1_555 1_555
C70 C65 1.360 1_555 1_555
C71 C70 1.493 1_555 1_555
C72 C71 1.448 1_555 1_555
C73 C66 1.365 1_555 1_555
C74 C73 1.435 1_555 1_555
H33 C74 0.950 1_555 1_555
C75 C74 1.383 1_555 1_555
H34 C75 0.950 1_555 1_555
C76 C67 1.379 1_555 1_555
C77 C76 1.465 1_555 1_555
C78 C77 1.448 1_555 1_555
C79 C68 1.366 1_555 1_555
C80 C79 1.436 1_555 1_555
H35 C80 0.951 1_555 1_555
C81 C80 1.384 1_555 1_555
H36 C81 0.951 1_555 1_555
C82 C69 1.354 1_555 1_555
C83 C82 1.472 1_555 1_555
C84 C70 1.475 1_555 1_555
C85 C71 1.409 1_555 1_555
H37 C85 0.949 1_555 1_555
C86 C85 1.387 1_555 1_555
H38 C86 0.950 1_555 1_555
C87 C86 1.394 1_555 1_555
H39 C87 0.949 1_555 1_555
C88 C72 1.401 1_555 1_555
H40 C88 0.951 1_555 1_555
C89 C77 1.406 1_555 1_555
H41 C89 0.951 1_555 1_555
C90 C89 1.375 1_555 1_555
H42 C90 0.950 1_555 1_555
C91 C90 1.394 1_555 1_555
H43 C91 0.951 1_555 1_555
C92 C78 1.387 1_555 1_555
H44 C92 0.951 1_555 1_555
C93 C83 1.388 1_555 1_555
H45 C93 0.950 1_555 1_555
C94 C93 1.373 1_555 1_555
H46 C94 0.950 1_555 1_555
C95 C94 1.395 1_555 1_555
H47 C95 0.951 1_555 1_555
C96 C84 1.411 1_555 1_555
H48 C96 0.949 1_555 1_555
C97 C98 1.436 1_555 1_555
C98 C99 1.389 1_555 1_555
C99 C100 1.424 1_555 1_555
C100 C101 1.411 1_555 1_555
C101 C97 1.415 1_555 1_555
C102 C97 1.356 1_555 1_555
C103 C102 1.506 1_555 1_555
C104 C103 1.452 1_555 1_555
C105 C98 1.385 1_555 1_555
C106 C105 1.428 1_555 1_555
H49 C106 0.950 1_555 1_555
C107 C106 1.385 1_555 1_555
H50 C107 0.949 1_555 1_555
C108 C99 1.381 1_555 1_555
C109 C108 1.474 1_555 1_555
C110 C109 1.439 1_555 1_555
C111 C100 1.367 1_555 1_555
C112 C111 1.434 1_555 1_555
H51 C112 0.950 1_555 1_555
C113 C112 1.386 1_555 1_555
H52 C113 0.949 1_555 1_555
C114 C101 1.374 1_555 1_555
C115 C114 1.470 1_555 1_555
C116 C102 1.483 1_555 1_555
C117 C103 1.392 1_555 1_555
H53 C117 0.951 1_555 1_555
C118 C117 1.383 1_555 1_555
H54 C118 0.949 1_555 1_555
C119 C118 1.390 1_555 1_555
H55 C119 0.951 1_555 1_555
C120 C104 1.405 1_555 1_555
H56 C120 0.949 1_555 1_555
C121 C109 1.400 1_555 1_555
H57 C121 0.951 1_555 1_555
C122 C121 1.377 1_555 1_555
H58 C122 0.951 1_555 1_555
C123 C122 1.410 1_555 1_555
H59 C123 0.951 1_555 1_555
C124 C110 1.403 1_555 1_555
H60 C124 0.950 1_555 1_555
C125 C115 1.402 1_555 1_555
H61 C125 0.949 1_555 1_555
C126 C125 1.357 1_555 1_555
H62 C126 0.949 1_555 1_555
C127 C126 1.388 1_555 1_555
H63 C127 0.951 1_555 1_555
C128 C116 1.405 1_555 1_555
H64 C128 0.949 1_555 1_555
C129 C130 1.418 1_555 1_555
C130 C131 1.417 1_555 1_555
C131 C132 1.412 1_555 1_555
C132 C133 1.404 1_555 1_555
C133 C129 1.441 1_555 1_555
C134 C129 1.353 1_555 1_555
C135 C134 1.491 1_555 1_555
C136 C135 1.447 1_555 1_555
C137 C130 1.373 1_555 1_555
C138 C137 1.429 1_555 1_555
H65 C138 0.950 1_555 1_555
C139 C138 1.393 1_555 1_555
H66 C139 0.950 1_555 1_555
C140 C131 1.365 1_555 1_555
C141 C140 1.474 1_555 1_555
C142 C141 1.447 1_555 1_555
C143 C132 1.369 1_555 1_555
C144 C143 1.438 1_555 1_555
H67 C144 0.950 1_555 1_555
C145 C144 1.371 1_555 1_555
H68 C145 0.950 1_555 1_555
C146 C133 1.367 1_555 1_555
C147 C146 1.464 1_555 1_555
C148 C134 1.490 1_555 1_555
C149 C135 1.405 1_555 1_555
H69 C149 0.950 1_555 1_555
C150 C149 1.370 1_555 1_555
H70 C150 0.949 1_555 1_555
C151 C150 1.385 1_555 1_555
H71 C151 0.949 1_555 1_555
C152 C136 1.423 1_555 1_555
H72 C152 0.950 1_555 1_555
C153 C141 1.402 1_555 1_555
H73 C153 0.950 1_555 1_555
C154 C153 1.374 1_555 1_555
H74 C154 0.950 1_555 1_555
C155 C154 1.388 1_555 1_555
H75 C155 0.949 1_555 1_555
C156 C142 1.402 1_555 1_555
H76 C156 0.950 1_555 1_555
C157 C147 1.402 1_555 1_555
H77 C157 0.951 1_555 1_555
C158 C157 1.366 1_555 1_555
H78 C158 0.949 1_555 1_555
C159 C158 1.394 1_555 1_555
H79 C159 0.950 1_555 1_555
C160 C148 1.401 1_555 1_555
H80 C160 0.950 1_555 1_555
C161 C162 1.432 1_555 1_555
C162 C163 1.401 1_555 1_555
C163 C164 1.417 1_555 1_555
C164 C165 1.399 1_555 1_555
C165 C161 1.438 1_555 1_555
C166 C161 1.349 1_555 1_555
C167 C166 1.504 1_555 1_555
C168 C167 1.454 1_555 1_555
C169 C162 1.359 1_555 1_555
C170 C169 1.443 1_555 1_555
H81 C170 0.950 1_555 1_555
C171 C170 1.385 1_555 1_555
H82 C171 0.950 1_555 1_555
C172 C163 1.366 1_555 1_555
C173 C172 1.484 1_555 1_555
C174 C173 1.455 1_555 1_555
C175 C164 1.367 1_555 1_555
C176 C175 1.423 1_555 1_555
H83 C176 0.950 1_555 1_555
C177 C176 1.382 1_555 1_555
H84 C177 0.950 1_555 1_555
C178 C165 1.371 1_555 1_555
C179 C178 1.451 1_555 1_555
C180 C166 1.491 1_555 1_555
C181 C167 1.399 1_555 1_555
H85 C181 0.951 1_555 1_555
C182 C181 1.390 1_555 1_555
H86 C182 0.950 1_555 1_555
C183 C182 1.378 1_555 1_555
H87 C183 0.950 1_555 1_555
C184 C168 1.413 1_555 1_555
H88 C184 0.950 1_555 1_555
C185 C173 1.397 1_555 1_555
H89 C185 0.951 1_555 1_555
C186 C185 1.383 1_555 1_555
H90 C186 0.949 1_555 1_555
C187 C186 1.394 1_555 1_555
H91 C187 0.951 1_555 1_555
C188 C174 1.396 1_555 1_555
H92 C188 0.951 1_555 1_555
C189 C179 1.405 1_555 1_555
H93 C189 0.950 1_555 1_555
C190 C189 1.362 1_555 1_555
H94 C190 0.949 1_555 1_555
C191 C190 1.383 1_555 1_555
H95 C191 0.950 1_555 1_555
C192 C180 1.389 1_555 1_555
H96 C192 0.950 1_555 1_555
C193 C194 1.422 1_555 1_555
C194 C195 1.407 1_555 1_555
C195 C196 1.426 1_555 1_555
C196 C197 1.397 1_555 1_555
C197 C193 1.438 1_555 1_555
C198 C193 1.359 1_555 1_555
C199 C198 1.501 1_555 1_555
C200 C199 1.454 1_555 1_555
C201 C194 1.368 1_555 1_555
C202 C201 1.435 1_555 1_555
H97 C202 0.949 1_555 1_555
C203 C202 1.380 1_555 1_555
H98 C203 0.950 1_555 1_555
C204 C195 1.379 1_555 1_555
C205 C204 1.482 1_555 1_555
C206 C205 1.439 1_555 1_555
C207 C196 1.380 1_555 1_555
C208 C207 1.435 1_555 1_555
H99 C208 0.950 1_555 1_555
C209 C208 1.388 1_555 1_555
H100 C209 0.951 1_555 1_555
C210 C197 1.359 1_555 1_555
C211 C210 1.478 1_555 1_555
C212 C198 1.476 1_555 1_555
C213 C199 1.392 1_555 1_555
H101 C213 0.949 1_555 1_555
C214 C213 1.380 1_555 1_555
H102 C214 0.950 1_555 1_555
C215 C214 1.378 1_555 1_555
H103 C215 0.950 1_555 1_555
C216 C200 1.409 1_555 1_555
H104 C216 0.951 1_555 1_555
C217 C205 1.393 1_555 1_555
H105 C217 0.950 1_555 1_555
C218 C217 1.376 1_555 1_555
H106 C218 0.951 1_555 1_555
C219 C218 1.395 1_555 1_555
H107 C219 0.951 1_555 1_555
C220 C206 1.398 1_555 1_555
H108 C220 0.950 1_555 1_555
C221 C211 1.391 1_555 1_555
H109 C221 0.949 1_555 1_555
C222 C221 1.374 1_555 1_555
H110 C222 0.950 1_555 1_555
C223 C222 1.383 1_555 1_555
H111 C223 0.949 1_555 1_555
C224 C212 1.405 1_555 1_555
H112 C224 0.949 1_555 1_555
C225 C226 1.437 1_555 1_555
C226 C227 1.388 1_555 1_555
C227 C228 1.428 1_555 1_555
C228 C229 1.406 1_555 1_555
C229 C225 1.420 1_555 1_555
C230 C225 1.352 1_555 1_555
C231 C230 1.500 1_555 1_555
C232 C231 1.451 1_555 1_555
C233 C226 1.380 1_555 1_555
C234 C233 1.442 1_555 1_555
H113 C234 0.949 1_555 1_555
C235 C234 1.383 1_555 1_555
H114 C235 0.950 1_555 1_555
C236 C227 1.367 1_555 1_555
C237 C236 1.470 1_555 1_555
C238 C237 1.437 1_555 1_555
C239 C228 1.362 1_555 1_555
C240 C239 1.435 1_555 1_555
H115 C240 0.950 1_555 1_555
C241 C240 1.392 1_555 1_555
H116 C241 0.949 1_555 1_555
C242 C229 1.368 1_555 1_555
C243 C242 1.471 1_555 1_555
C244 C230 1.486 1_555 1_555
C245 C231 1.397 1_555 1_555
H117 C245 0.950 1_555 1_555
C246 C245 1.389 1_555 1_555
H118 C246 0.951 1_555 1_555
C247 C246 1.394 1_555 1_555
H119 C247 0.949 1_555 1_555
C248 C232 1.411 1_555 1_555
H120 C248 0.950 1_555 1_555
C249 C237 1.404 1_555 1_555
H121 C249 0.950 1_555 1_555
C250 C249 1.368 1_555 1_555
H122 C250 0.950 1_555 1_555
C251 C250 1.403 1_555 1_555
H123 C251 0.950 1_555 1_555
C252 C238 1.394 1_555 1_555
H124 C252 0.950 1_555 1_555
C253 C243 1.395 1_555 1_555
H125 C253 0.950 1_555 1_555
C254 C253 1.370 1_555 1_555
H126 C254 0.951 1_555 1_555
C255 C254 1.387 1_555 1_555
H127 C255 0.950 1_555 1_555
C256 C244 1.407 1_555 1_555
H128 C256 0.949 1_555 1_555
C257 C258 1.409 1_555 1_555
C258 C259 1.403 1_555 1_555
C259 C260 1.427 1_555 1_555
C260 C261 1.403 1_555 1_555
C261 C257 1.434 1_555 1_555
C262 C257 1.362 1_555 1_555
C263 C262 1.491 1_555 1_555
C264 C263 1.457 1_555 1_555
C265 C258 1.372 1_555 1_555
C266 C265 1.437 1_555 1_555
H129 C266 0.951 1_555 1_555
C267 C266 1.379 1_555 1_555
H130 C267 0.950 1_555 1_555
C268 C259 1.380 1_555 1_555
C269 C268 1.477 1_555 1_555
C270 C269 1.442 1_555 1_555
C271 C260 1.363 1_555 1_555
C272 C271 1.445 1_555 1_555
H131 C272 0.951 1_555 1_555
C273 C272 1.381 1_555 1_555
H132 C273 0.951 1_555 1_555
C274 C261 1.365 1_555 1_555
C275 C274 1.471 1_555 1_555
C276 C262 1.480 1_555 1_555
C277 C263 1.391 1_555 1_555
H133 C277 0.950 1_555 1_555
C278 C277 1.387 1_555 1_555
H134 C278 0.951 1_555 1_555
C279 C278 1.385 1_555 1_555
H135 C279 0.950 1_555 1_555
C280 C264 1.402 1_555 1_555
H136 C280 0.950 1_555 1_555
C281 C269 1.397 1_555 1_555
H137 C281 0.951 1_555 1_555
C282 C281 1.385 1_555 1_555
H138 C282 0.950 1_555 1_555
C283 C282 1.383 1_555 1_555
H139 C283 0.949 1_555 1_555
C284 C270 1.396 1_555 1_555
H140 C284 0.951 1_555 1_555
C285 C275 1.397 1_555 1_555
H141 C285 0.951 1_555 1_555
C286 C285 1.380 1_555 1_555
H142 C286 0.950 1_555 1_555
C287 C286 1.389 1_555 1_555
H143 C287 0.951 1_555 1_555
C288 C276 1.403 1_555 1_555
H144 C288 0.950 1_555 1_555
C289 C290 1.429 1_555 1_555
C290 C291 1.401 1_555 1_555
C291 C292 1.438 1_555 1_555
C292 C293 1.398 1_555 1_555
C293 C289 1.428 1_555 1_555
C294 C289 1.356 1_555 1_555
C295 C294 1.497 1_555 1_555
C296 C295 1.460 1_555 1_555
C297 C290 1.380 1_555 1_555
C298 C297 1.440 1_555 1_555
H145 C298 0.950 1_555 1_555
C299 C298 1.376 1_555 1_555
H146 C299 0.950 1_555 1_555
C300 C291 1.361 1_555 1_555
C301 C300 1.477 1_555 1_555
C302 C301 1.445 1_555 1_555
C303 C292 1.373 1_555 1_555
C304 C303 1.434 1_555 1_555
H147 C304 0.950 1_555 1_555
C305 C304 1.376 1_555 1_555
H148 C305 0.950 1_555 1_555
C306 C293 1.369 1_555 1_555
C307 C306 1.459 1_555 1_555
C308 C294 1.489 1_555 1_555
C309 C295 1.400 1_555 1_555
H149 C309 0.950 1_555 1_555
C310 C309 1.383 1_555 1_555
H150 C310 0.951 1_555 1_555
C311 C310 1.386 1_555 1_555
H151 C311 0.951 1_555 1_555
C312 C296 1.413 1_555 1_555
H152 C312 0.950 1_555 1_555
C313 C301 1.404 1_555 1_555
H153 C313 0.950 1_555 1_555
C314 C313 1.390 1_555 1_555
H154 C314 0.950 1_555 1_555
C315 C314 1.387 1_555 1_555
H155 C315 0.950 1_555 1_555
C316 C302 1.401 1_555 1_555
H156 C316 0.951 1_555 1_555
C317 C307 1.405 1_555 1_555
H157 C317 0.951 1_555 1_555
C318 C317 1.361 1_555 1_555
H158 C318 0.950 1_555 1_555
C319 C318 1.388 1_555 1_555
H159 C319 0.951 1_555 1_555
C320 C308 1.397 1_555 1_555
H160 C320 0.950 1_555 1_555
C321 C322 1.428 1_555 1_555
C322 C323 1.399 1_555 1_555
C323 C324 1.417 1_555 1_555
C324 C325 1.415 1_555 1_555
C325 C321 1.428 1_555 1_555
C326 C321 1.361 1_555 1_555
C327 C326 1.492 1_555 1_555
C328 C327 1.445 1_555 1_555
C329 C322 1.379 1_555 1_555
C330 C329 1.428 1_555 1_555
H161 C330 0.950 1_555 1_555
C331 C330 1.385 1_555 1_555
H162 C331 0.950 1_555 1_555
C332 C323 1.379 1_555 1_555
C333 C332 1.476 1_555 1_555
C334 C333 1.442 1_555 1_555
C335 C324 1.373 1_555 1_555
C336 C335 1.433 1_555 1_555
H163 C336 0.949 1_555 1_555
C337 C336 1.382 1_555 1_555
H164 C337 0.949 1_555 1_555
C338 C325 1.365 1_555 1_555
C339 C338 1.470 1_555 1_555
C340 C326 1.485 1_555 1_555
C341 C327 1.395 1_555 1_555
H165 C341 0.951 1_555 1_555
C342 C341 1.377 1_555 1_555
H166 C342 0.949 1_555 1_555
C343 C342 1.396 1_555 1_555
H167 C343 0.949 1_555 1_555
C344 C328 1.403 1_555 1_555
H168 C344 0.950 1_555 1_555
C345 C333 1.392 1_555 1_555
H169 C345 0.949 1_555 1_555
C346 C345 1.385 1_555 1_555
H170 C346 0.951 1_555 1_555
C347 C346 1.390 1_555 1_555
H171 C347 0.950 1_555 1_555
C348 C334 1.402 1_555 1_555
H172 C348 0.950 1_555 1_555
C349 C339 1.403 1_555 1_555
H173 C349 0.950 1_555 1_555
C350 C349 1.368 1_555 1_555
H174 C350 0.951 1_555 1_555
C351 C350 1.397 1_555 1_555
H175 C351 0.951 1_555 1_555
C352 C340 1.408 1_555 1_555
H176 C352 0.950 1_555 1_555
C353 C354 1.419 1_555 1_555
C354 C355 1.419 1_555 1_555
C355 C356 1.420 1_555 1_555
C356 C357 1.403 1_555 1_555
C357 C353 1.437 1_555 1_555
C358 C353 1.354 1_555 1_555
C359 C358 1.488 1_555 1_555
C360 C359 1.453 1_555 1_555
C361 C354 1.375 1_555 1_555
C362 C361 1.438 1_555 1_555
H177 C362 0.951 1_555 1_555
C363 C362 1.381 1_555 1_555
H178 C363 0.950 1_555 1_555
C364 C355 1.359 1_555 1_555
C365 C364 1.484 1_555 1_555
C366 C365 1.444 1_555 1_555
C367 C356 1.367 1_555 1_555
C368 C367 1.428 1_555 1_555
H179 C368 0.950 1_555 1_555
C369 C368 1.391 1_555 1_555
H180 C369 0.949 1_555 1_555
C370 C357 1.372 1_555 1_555
C371 C370 1.457 1_555 1_555
C372 C358 1.491 1_555 1_555
C373 C359 1.408 1_555 1_555
H181 C373 0.950 1_555 1_555
C374 C373 1.379 1_555 1_555
H182 C374 0.951 1_555 1_555
C375 C374 1.393 1_555 1_555
H183 C375 0.951 1_555 1_555
C376 C360 1.405 1_555 1_555
H184 C376 0.950 1_555 1_555
C377 C365 1.396 1_555 1_555
H185 C377 0.950 1_555 1_555
C378 C377 1.382 1_555 1_555
H186 C378 0.950 1_555 1_555
C379 C378 1.386 1_555 1_555
H187 C379 0.951 1_555 1_555
C380 C366 1.409 1_555 1_555
H188 C380 0.950 1_555 1_555
C381 C371 1.410 1_555 1_555
H189 C381 0.950 1_555 1_555
C382 C381 1.372 1_555 1_555
H190 C382 0.950 1_555 1_555
C383 C382 1.388 1_555 1_555
H191 C383 0.950 1_555 1_555
C384 C372 1.393 1_555 1_555
H192 C384 0.951 1_555 1_555
C8 C9 1.458 1_555 1_555
C11 C12 1.429 1_555 1_555
C14 C15 1.479 1_555 1_555
C17 C18 1.437 1_555 1_555
C19 C20 1.461 1_555 1_555
C23 C24 1.370 1_555 1_555
C27 C28 1.381 1_555 1_555
C31 C32 1.374 1_555 1_555
C40 C41 1.457 1_555 1_555
C43 C44 1.436 1_555 1_555
C46 C47 1.474 1_555 1_555
C49 C50 1.435 1_555 1_555
C51 C52 1.454 1_555 1_555
C55 C56 1.370 1_555 1_555
C59 C60 1.361 1_555 1_555
C63 C64 1.385 1_555 1_555
C72 C73 1.467 1_555 1_555
C75 C76 1.431 1_555 1_555
C78 C79 1.476 1_555 1_555
C81 C82 1.437 1_555 1_555
C83 C84 1.469 1_555 1_555
C87 C88 1.371 1_555 1_555
C91 C92 1.381 1_555 1_555
C95 C96 1.372 1_555 1_555
C104 C105 1.462 1_555 1_555
C107 C108 1.432 1_555 1_555
C110 C111 1.479 1_555 1_555
C113 C114 1.425 1_555 1_555
C115 C116 1.455 1_555 1_555
C119 C120 1.377 1_555 1_555
C123 C124 1.365 1_555 1_555
C127 C128 1.373 1_555 1_555
C136 C137 1.456 1_555 1_555
C139 C140 1.441 1_555 1_555
C142 C143 1.469 1_555 1_555
C145 C146 1.436 1_555 1_555
C147 C148 1.463 1_555 1_555
C151 C152 1.361 1_555 1_555
C155 C156 1.364 1_555 1_555
C159 C160 1.382 1_555 1_555
C168 C169 1.458 1_555 1_555
C171 C172 1.434 1_555 1_555
C174 C175 1.481 1_555 1_555
C177 C178 1.439 1_555 1_555
C179 C180 1.466 1_555 1_555
C183 C184 1.373 1_555 1_555
C187 C188 1.383 1_555 1_555
C191 C192 1.385 1_555 1_555
C200 C201 1.466 1_555 1_555
C203 C204 1.426 1_555 1_555
C206 C207 1.475 1_555 1_555
C209 C210 1.429 1_555 1_555
C211 C212 1.451 1_555 1_555
C215 C216 1.366 1_555 1_555
C219 C220 1.376 1_555 1_555
C223 C224 1.377 1_555 1_555
C232 C233 1.454 1_555 1_555
C235 C236 1.449 1_555 1_555
C238 C239 1.482 1_555 1_555
C241 C242 1.434 1_555 1_555
C243 C244 1.462 1_555 1_555
C247 C248 1.369 1_555 1_555
C251 C252 1.372 1_555 1_555
C255 C256 1.374 1_555 1_555
C264 C265 1.459 1_555 1_555
C267 C268 1.428 1_555 1_555
C270 C271 1.473 1_555 1_555
C273 C274 1.436 1_555 1_555
C275 C276 1.456 1_555 1_555
C279 C280 1.362 1_555 1_555
C283 C284 1.382 1_555 1_555
C287 C288 1.381 1_555 1_555
C296 C297 1.454 1_555 1_555
C299 C300 1.447 1_555 1_555
C302 C303 1.472 1_555 1_555
C305 C306 1.437 1_555 1_555
C307 C308 1.451 1_555 1_555
C311 C312 1.373 1_555 1_555
C315 C316 1.377 1_555 1_555
C319 C320 1.376 1_555 1_555
C328 C329 1.473 1_555 1_555
C331 C332 1.421 1_555 1_555
C334 C335 1.468 1_555 1_555
C337 C338 1.441 1_555 1_555
C339 C340 1.447 1_555 1_555
C343 C344 1.372 1_555 1_555
C347 C348 1.375 1_555 1_555
C351 C352 1.365 1_555 1_555
C360 C361 1.449 1_555 1_555
C363 C364 1.428 1_555 1_555
C366 C367 1.473 1_555 1_555
C369 C370 1.442 1_555 1_555
C371 C372 1.448 1_555 1_555
C375 C376 1.376 1_555 1_555
C379 C380 1.374 1_555 1_555
C383 C384 1.381 1_555 1_555
#END
