
#######################################################################
#
#                 Cambridge Crystallographic Data Centre
#                                CCDC
#
#######################################################################
#
# If this CIF has been generated from an entry in the Cambridge
# Structural Database, then it will include bibliographic, chemical,
# crystal, experimental, refinement or atomic coordinate data resulting
# from the CCDC's data processing and validation procedures.
#
#######################################################################

data_CSD_CIF_OHCHRY01
_audit_creation_date 1996-07-16
_audit_creation_method CSD-ConQuest-V1
_database_code_CSD OHCHRY01
_database_code_depnum_ccdc_archive 'CCDC 126719'
_chemical_formula_sum 'C18 H20'
_chemical_formula_moiety
;
C18 H20
;
_journal_coeditor_code "IUCr FG1138"
_journal_coden_Cambridge 591
_journal_volume 52
_journal_year 1996
_journal_page_first 1241
_journal_name_full 'Acta Crystallogr.,Sect.C:Cryst.Struct.Commun. '
loop_
_publ_author_name
"C.J.Burd"
"A.J.Dobson"
"R.E.Gerkin"
_chemical_name_systematic
;
1,2,3,4,7,8,9,10-Octahydrochrysene
;
_cell_volume    655.052
_exptl_crystal_colour 'amber'
_exptl_crystal_density_diffrn 1.198
_diffrn_ambient_temperature ?
_diffrn_special_details
;
The study was carried out at room temperature,in the range 283-303K

;
#These two values have been output from a single CSD field.
_refine_ls_R_factor_gt 0.045
_refine_ls_wR_factor_gt 0.045
_symmetry_cell_setting monoclinic
_symmetry_space_group_name_H-M 'P 21/c'
_symmetry_Int_Tables_number 14
loop_
_symmetry_equiv_pos_site_id
_symmetry_equiv_pos_as_xyz
1 x,y,z
2 -x,1/2+y,1/2-z
3 -x,-y,-z
4 x,-1/2-y,-1/2+z
_cell_length_a 9.1293(7)
_cell_length_b 7.2499(6)
_cell_length_c 10.0753(8)
_cell_angle_alpha 90
_cell_angle_beta 100.793(6)
_cell_angle_gamma 90
_cell_formula_units_Z 2
loop_
_atom_type_symbol
_atom_type_radius_bond
C 0.68
H 0.23
loop_
_atom_site_label
_atom_site_type_symbol
_atom_site_fract_x
_atom_site_fract_y
_atom_site_fract_z
C1 C -0.3555(2) -0.0178(3) 0.1858(2)
C2 C -0.3334(3) 0.1400(3) 0.2876(2)
C3 C -0.2930(3) 0.3140(3) 0.2211(2)
C4 C -0.1441(2) 0.2902(3) 0.1755(2)
C5 C -0.1025(2) -0.2212(3) -0.0336(2)
C6 C -0.2156(2) -0.1958(3) 0.0348(2)
C7 C -0.2303(2) -0.0312(3) 0.1063(2)
C8 C -0.1297(2) 0.1097(2) 0.1044(2)
C9 C 0.0078(2) -0.0840(2) -0.0347(2)
H1 H -0.450(3) 0.002(3) 0.121(2)
H2 H -0.365(2) -0.141(3) 0.230(2)
H3 H -0.246(2) 0.106(3) 0.366(2)
H4 H -0.430(3) 0.158(3) 0.329(2)
H5 H -0.292(2) 0.421(3) 0.282(2)
H6 H -0.377(2) 0.338(3) 0.136(2)
H7 H -0.062(2) 0.302(3) 0.257(2)
H8 H -0.135(2) 0.394(3) 0.112(2)
H9 H -0.093(2) -0.334(3) -0.080(2)
H10 H -0.287(2) -0.298(3) 0.039(2)
C8B C 0.1297(2) -0.1097(2) -0.1044(2)
C4B C 0.1441(2) -0.2902(3) -0.1755(2)
C3B C 0.2930(3) -0.3140(3) -0.2211(2)
C2B C 0.3334(3) -0.1400(3) -0.2876(2)
C1B C 0.3555(2) 0.0178(3) -0.1858(2)
C7B C 0.2303(2) 0.0312(3) -0.1063(2)
C6B C 0.2156(2) 0.1958(3) -0.0348(2)
C5B C 0.1025(2) 0.2212(3) 0.0336(2)
C9B C -0.0078(2) 0.0840(2) 0.0347(2)
H9B H 0.093(2) 0.334(3) 0.080(2)
H10B H 0.287(2) 0.298(3) -0.039(2)
H1B H 0.450(3) -0.002(3) -0.121(2)
H2B H 0.365(2) 0.141(3) -0.230(2)
H3B H 0.246(2) -0.106(3) -0.366(2)
H4B H 0.430(3) -0.158(3) -0.329(2)
H5B H 0.292(2) -0.421(3) -0.282(2)
H6B H 0.377(2) -0.338(3) -0.136(2)
H7B H 0.062(2) -0.302(3) -0.257(2)
H8B H 0.135(2) -0.394(3) -0.112(2)
loop_
_geom_bond_atom_site_label_1
_geom_bond_atom_site_label_2
_geom_bond_distance
_geom_bond_site_symmetry_1
_geom_bond_site_symmetry_2
C1 C2 1.524 1_555 1_555
C2 C3 1.506 1_555 1_555
C3 C4 1.524 1_555 1_555
C4 C8 1.509 1_555 1_555
C5 C6 1.357 1_555 1_555
C6 C7 1.413 1_555 1_555
C7 C1 1.517 1_555 1_555
C8 C7 1.376 1_555 1_555
C9 C5 1.417 1_555 1_555
H1 C1 0.990 1_555 1_555
H2 C1 1.009 1_555 1_555
H3 C2 1.042 1_555 1_555
H4 C2 1.052 1_555 1_555
H5 C3 0.988 1_555 1_555
H6 C3 1.052 1_555 1_555
H7 C4 1.006 1_555 1_555
H8 C4 1.001 1_555 1_555
H9 C5 0.954 1_555 1_555
H10 C6 0.993 1_555 1_555
C8B C9 1.435 1_555 1_555
C4B C8B 1.509 1_555 1_555
C3B C4B 1.524 1_555 1_555
C2B C3B 1.506 1_555 1_555
C1B C2B 1.524 1_555 1_555
C7B C8B 1.376 1_555 1_555
C6B C7B 1.413 1_555 1_555
C5B C6B 1.357 1_555 1_555
C9B C8 1.435 1_555 1_555
H9B C5B 0.954 1_555 1_555
H10B C6B 0.993 1_555 1_555
H1B C1B 0.990 1_555 1_555
H2B C1B 1.009 1_555 1_555
H3B C2B 1.042 1_555 1_555
H4B C2B 1.052 1_555 1_555
H5B C3B 0.988 1_555 1_555
H6B C3B 1.052 1_555 1_555
H7B C4B 1.006 1_555 1_555
H8B C4B 1.001 1_555 1_555
C9 C9B 1.425 1_555 1_555
C1B C7B 1.517 1_555 1_555
C5B C9B 1.417 1_555 1_555
#END
