
#######################################################################
#
#                 Cambridge Crystallographic Data Centre
#                                CCDC
#
#######################################################################
#
# If this CIF has been generated from an entry in the Cambridge
# Structural Database, then it will include bibliographic, chemical,
# crystal, experimental, refinement or atomic coordinate data resulting
# from the CCDC's data processing and validation procedures.
#
#######################################################################

data_CSD_CIF_OHICUD
_audit_creation_date 2003-01-24
_audit_creation_method CSD-ConQuest-V1
_database_code_CSD OHICUD
_database_code_depnum_ccdc_archive 'CCDC 191506'
_chemical_formula_sum 'C28 H18'
_chemical_formula_moiety
;
C28 H18
;
_journal_coden_Cambridge 24
_journal_volume 43
_journal_year 2002
_journal_page_first 8227
_journal_name_full 'Tetrahedron Lett. '
loop_
_publ_author_name
"B.R.Kaafarani"
"B.Wex"
"J.A.K.Bauer"
"D.C.Neckers"
_chemical_name_systematic
;
4-Phenyl-2-(2-phenylethynyl)phenanthrene
;
_cell_volume    927.970
_exptl_crystal_colour 'colorless'
_exptl_crystal_density_diffrn 1.268
_exptl_crystal_description 'plate'
_diffrn_ambient_temperature 150
#These two values have been output from a single CSD field.
_refine_ls_R_factor_gt 0.0525
_refine_ls_wR_factor_gt 0.0525
_symmetry_cell_setting triclinic
_symmetry_space_group_name_H-M 'P -1'
_symmetry_Int_Tables_number 2
loop_
_symmetry_equiv_pos_site_id
_symmetry_equiv_pos_as_xyz
1 x,y,z
2 -x,-y,-z
_cell_length_a 9.7963(8)
_cell_length_b 9.8307(8)
_cell_length_c 11.4386(9)
_cell_angle_alpha 109.710(1)
_cell_angle_beta 91.701(1)
_cell_angle_gamma 114.163(1)
_cell_formula_units_Z 2
loop_
_atom_type_symbol
_atom_type_radius_bond
C 0.68
H 0.23
loop_
_atom_site_label
_atom_site_type_symbol
_atom_site_fract_x
_atom_site_fract_y
_atom_site_fract_z
C1 C 0.21133(17) 0.34878(18) 0.92897(14)
C2 C 0.23831(17) 0.23888(18) 0.97096(14)
C3 C 0.15321(18) 0.06335(18) 0.91208(15)
C4 C 0.01775(19) -0.01897(19) 0.81957(15)
H1 H -0.026(2) 0.041(2) 0.7909(17)
C5 C -0.0622(2) -0.1849(2) 0.77019(16)
H2 H -0.158(2) -0.238(2) 0.7063(19)
C6 C -0.0110(2) -0.2774(2) 0.81127(18)
H3 H -0.068(2) -0.395(3) 0.7782(19)
C7 C 0.1168(2) -0.2021(2) 0.90319(18)
H4 H 0.155(2) -0.263(2) 0.9338(19)
C8 C 0.2013(2) -0.0325(2) 0.95630(16)
C9 C 0.3298(2) 0.0436(2) 1.05732(17)
H5 H 0.364(2) -0.026(2) 1.0856(18)
C10 C 0.3990(2) 0.2045(2) 1.11918(17)
H6 H 0.481(2) 0.260(2) 1.1909(17)
C11 C 0.35207(18) 0.30645(19) 1.08117(15)
C12 C 0.41855(18) 0.4731(2) 1.15531(16)
H7 H 0.4940(19) 0.5163(19) 1.2329(16)
C13 C 0.37714(18) 0.57523(19) 1.12177(15)
C14 C 0.27751(18) 0.51103(19) 1.00525(15)
H8 H 0.2597(18) 0.587(2) 0.9741(16)
C15 C 0.43670(18) 0.74453(19) 1.20011(15)
C16 C 0.47933(18) 0.8842(2) 1.26344(15)
C17 C 0.53112(18) 1.05404(19) 1.33799(15)
C18 C 0.67233(19) 1.1666(2) 1.33266(17)
H9 H 0.734(2) 1.127(2) 1.2794(18)
C19 C 0.7211(2) 1.3299(2) 1.40057(18)
H10 H 0.819(2) 1.406(3) 1.395(2)
C20 C 0.6306(2) 1.3821(2) 1.47578(17)
H11 H 0.662(2) 1.493(3) 1.519(2)
C21 C 0.4907(2) 1.2713(2) 1.48183(18)
H12 H 0.429(2) 1.311(2) 1.535(2)
C22 C 0.4405(2) 1.1079(2) 1.41397(17)
H13 H 0.342(2) 1.030(2) 1.4196(19)
C23 C 0.12659(17) 0.30282(18) 0.80042(15)
C24 C 0.00083(18) 0.33196(19) 0.78407(16)
H14 H -0.0395(19) 0.373(2) 0.8576(16)
C25 C -0.07266(19) 0.2931(2) 0.66355(17)
H15 H -0.164(2) 0.308(2) 0.6537(17)
C26 C -0.0197(2) 0.2285(2) 0.55839(17)
H16 H -0.072(2) 0.201(2) 0.474(2)
C27 C 0.10572(19) 0.1999(2) 0.57338(16)
H17 H 0.144(2) 0.155(2) 0.4978(17)
C28 C 0.17801(18) 0.23612(18) 0.69331(15)
H18 H 0.264(2) 0.216(2) 0.7037(17)
loop_
_geom_bond_atom_site_label_1
_geom_bond_atom_site_label_2
_geom_bond_distance
_geom_bond_site_symmetry_1
_geom_bond_site_symmetry_2
C1 C2 1.430 1_555 1_555
C2 C3 1.460 1_555 1_555
C3 C4 1.413 1_555 1_555
C4 H1 0.984 1_555 1_555
C5 C4 1.378 1_555 1_555
H2 C5 0.994 1_555 1_555
C6 C5 1.395 1_555 1_555
H3 C6 0.977 1_555 1_555
C7 C6 1.363 1_555 1_555
H4 C7 0.969 1_555 1_555
C8 C3 1.427 1_555 1_555
C9 C8 1.428 1_555 1_555
H5 C9 1.008 1_555 1_555
C10 C9 1.342 1_555 1_555
H6 C10 0.957 1_555 1_555
C11 C2 1.421 1_555 1_555
C12 C11 1.409 1_555 1_555
H7 C12 0.982 1_555 1_555
C13 C12 1.380 1_555 1_555
C14 C1 1.381 1_555 1_555
H8 C14 0.999 1_555 1_555
C15 C13 1.443 1_555 1_555
C16 C15 1.194 1_555 1_555
C17 C16 1.447 1_555 1_555
C18 C17 1.393 1_555 1_555
H9 C18 0.971 1_555 1_555
C19 C18 1.385 1_555 1_555
H10 C19 0.965 1_555 1_555
C20 C19 1.382 1_555 1_555
H11 C20 0.938 1_555 1_555
C21 C20 1.380 1_555 1_555
H12 C21 0.971 1_555 1_555
C22 C17 1.394 1_555 1_555
H13 C22 0.977 1_555 1_555
C23 C1 1.493 1_555 1_555
C24 C23 1.395 1_555 1_555
H14 C24 0.973 1_555 1_555
C25 C24 1.388 1_555 1_555
H15 C25 0.973 1_555 1_555
C26 C25 1.382 1_555 1_555
H16 C26 0.974 1_555 1_555
C27 C26 1.386 1_555 1_555
H17 C27 0.990 1_555 1_555
C28 C23 1.396 1_555 1_555
H18 C28 0.954 1_555 1_555
C7 C8 1.411 1_555 1_555
C10 C11 1.437 1_555 1_555
C13 C14 1.407 1_555 1_555
C21 C22 1.384 1_555 1_555
C27 C28 1.384 1_555 1_555
#END
