
#######################################################################
#
#                 Cambridge Crystallographic Data Centre
#                                CCDC
#
#######################################################################
#
# If this CIF has been generated from an entry in the Cambridge
# Structural Database, then it will include bibliographic, chemical,
# crystal, experimental, refinement or atomic coordinate data resulting
# from the CCDC's data processing and validation procedures.
#
#######################################################################

data_CSD_CIF_OJONOR
_audit_creation_date 2011-04-18
_audit_creation_method CSD-ConQuest-V1
_database_code_CSD OJONOR
_database_code_depnum_ccdc_archive 'CCDC 779935'
_chemical_formula_sum 'C27 H18'
_chemical_formula_moiety
;
C27 H18
;
_journal_coden_Cambridge 1366
_journal_volume 352
_journal_year 2010
_journal_page_first 3267
_journal_name_full 'Adv.Synth.Catal. '
loop_
_publ_author_name
"Chien-Chi Hsiao"
"Yi-Kuan Lin"
"Chia-Ju Liu"
"Tsun-Cheng Wu"
"Yao-Ting Wu"
_chemical_name_systematic
;
8,9-Diphenyl-4H-cyclopenta[def]phenanthrene
;
_cell_volume    921.543
_exptl_crystal_colour 'colorless'
_exptl_crystal_density_diffrn 1.234
_exptl_crystal_description 'tabular'
_diffrn_ambient_temperature 295
#These two values have been output from a single CSD field.
_refine_ls_R_factor_gt 0.0479
_refine_ls_wR_factor_gt 0.0479
_symmetry_cell_setting triclinic
_symmetry_space_group_name_H-M 'P -1'
_symmetry_Int_Tables_number 2
loop_
_symmetry_equiv_pos_site_id
_symmetry_equiv_pos_as_xyz
1 x,y,z
2 -x,-y,-z
_cell_length_a 8.6884(9)
_cell_length_b 9.9953(11)
_cell_length_c 11.1578(12)
_cell_angle_alpha 81.570(2)
_cell_angle_beta 74.060(2)
_cell_angle_gamma 88.541(2)
_cell_formula_units_Z 2
loop_
_atom_type_symbol
_atom_type_radius_bond
C 0.68
H 0.23
loop_
_atom_site_label
_atom_site_type_symbol
_atom_site_fract_x
_atom_site_fract_y
_atom_site_fract_z
C1 C 0.1909(2) 0.08607(18) 1.41007(15)
H1 H 0.14130 0.05610 1.49460
C2 C 0.2236(2) -0.00372(17) 1.32421(15)
H2 H 0.19560 -0.09460 1.35070
C3 C 0.29786(18) 0.04047(14) 1.19914(14)
H3 H 0.31890 -0.02090 1.14180
C4 C 0.34170(15) 0.17571(13) 1.15769(12)
C5 C 0.41922(15) 0.22207(12) 1.02138(12)
C6 C 0.57295(15) 0.27729(12) 0.98048(12)
C7 C 0.64797(15) 0.32168(12) 0.84638(12)
C8 C 0.80370(16) 0.37485(14) 0.78668(14)
H4 H 0.87320 0.38790 0.83430
C9 C 0.85204(18) 0.40736(16) 0.65692(15)
H5 H 0.95520 0.44200 0.61950
C10 C 0.75444(18) 0.39106(16) 0.57857(14)
H6 H 0.79150 0.41520 0.49170
C11 C 0.18115(18) 0.19853(16) 0.73358(15)
H7 H 0.13210 0.19330 0.67000
C12 C 0.09843(17) 0.15839(15) 0.86097(15)
H8 H -0.00690 0.12780 0.87990
C13 C 0.16578(16) 0.16208(14) 0.95930(14)
H9 H 0.10630 0.13430 1.04190
C14 C 0.32566(15) 0.20841(12) 0.93339(12)
C15 C 0.23224(19) 0.22101(17) 1.36979(14)
H10 H 0.20940 0.28220 1.42730
C16 C 0.30698(17) 0.26548(14) 1.24495(13)
H11 H 0.33440 0.35650 1.21890
C17 C 0.66890(15) 0.29078(13) 1.07052(12)
C18 C 0.72286(18) 0.41751(15) 1.08031(16)
H12 H 0.69580 0.49400 1.03250
C19 C 0.8161(2) 0.43129(19) 1.16007(19)
H13 H 0.85060 0.51680 1.16600
C20 C 0.8579(2) 0.3194(2) 1.23062(17)
H14 H 0.92240 0.32860 1.28310
C21 C 0.8039(2) 0.19290(19) 1.22329(15)
H15 H 0.83070 0.11700 1.27210
C22 C 0.71016(17) 0.17859(15) 1.14374(14)
H16 H 0.67440 0.09300 1.13930
C23 C 0.55680(15) 0.30549(13) 0.76480(12)
C24 C 0.40083(15) 0.24974(13) 0.80665(12)
C25 C 0.33662(17) 0.24569(14) 0.70540(13)
C26 C 0.46417(19) 0.30090(17) 0.58460(14)
H17 H 0.49540 0.23260 0.52940
H18 H 0.42620 0.37950 0.53960
C27 C 0.60280(17) 0.33850(15) 0.63347(13)
loop_
_geom_bond_atom_site_label_1
_geom_bond_atom_site_label_2
_geom_bond_distance
_geom_bond_site_symmetry_1
_geom_bond_site_symmetry_2
C1 H1 0.930 1_555 1_555
C2 C1 1.376 1_555 1_555
H2 C2 0.930 1_555 1_555
C3 C2 1.378 1_555 1_555
H3 C3 0.930 1_555 1_555
C4 C3 1.390 1_555 1_555
C5 C4 1.493 1_555 1_555
C6 C5 1.388 1_555 1_555
C7 C6 1.465 1_555 1_555
C8 C7 1.412 1_555 1_555
H4 C8 0.930 1_555 1_555
C9 C8 1.383 1_555 1_555
H5 C9 0.930 1_555 1_555
C10 C9 1.402 1_555 1_555
H6 C10 0.930 1_555 1_555
C11 H7 0.930 1_555 1_555
C12 C11 1.409 1_555 1_555
H8 C12 0.930 1_555 1_555
C13 C12 1.383 1_555 1_555
H9 C13 0.930 1_555 1_555
C14 C5 1.458 1_555 1_555
C15 C1 1.381 1_555 1_555
H10 C15 0.930 1_555 1_555
C16 C4 1.387 1_555 1_555
H11 C16 0.930 1_555 1_555
C17 C6 1.493 1_555 1_555
C18 C17 1.391 1_555 1_555
H12 C18 0.930 1_555 1_555
C19 C18 1.380 1_555 1_555
H13 C19 0.930 1_555 1_555
C20 C19 1.371 1_555 1_555
H14 C20 0.930 1_555 1_555
C21 C20 1.381 1_555 1_555
H15 C21 0.931 1_555 1_555
C22 C17 1.388 1_555 1_555
H16 C22 0.930 1_555 1_555
C23 C7 1.389 1_555 1_555
C24 C14 1.390 1_555 1_555
C25 C11 1.379 1_555 1_555
C26 C25 1.530 1_555 1_555
H17 C26 0.970 1_555 1_555
H18 C26 0.970 1_555 1_555
C27 C10 1.373 1_555 1_555
C13 C14 1.414 1_555 1_555
C15 C16 1.377 1_555 1_555
C21 C22 1.383 1_555 1_555
C23 C24 1.407 1_555 1_555
C23 C27 1.400 1_555 1_555
C24 C25 1.396 1_555 1_555
C26 C27 1.527 1_555 1_555
#END
