
#######################################################################
#
#                 Cambridge Crystallographic Data Centre
#                                CCDC
#
#######################################################################
#
# If this CIF has been generated from an entry in the Cambridge
# Structural Database, then it will include bibliographic, chemical,
# crystal, experimental, refinement or atomic coordinate data resulting
# from the CCDC's data processing and validation procedures.
#
#######################################################################

data_CSD_CIF_OKUDOP
_audit_creation_date 2016-04-11
_audit_creation_method CSD-ConQuest-V1
_database_code_CSD OKUDOP
_database_code_depnum_ccdc_archive 'CCDC 1439225'
_chemical_formula_sum 'C28 H20'
_chemical_formula_moiety
;
C28 H20
;
_journal_coden_Cambridge 179
_journal_volume 55
_journal_year 2016
_journal_page_first 7728
_journal_name_full 'Angew.Chem.,Int.Ed. '
loop_
_publ_author_name
"M.Rehan"
"S.Maity"
"L.K.Morya"
"K.Pal"
"P.Ghorai"
_chemical_name_systematic
;
2'-(2-naphthyl)-1,1':4',1''-terphenyl
;
_cell_volume   1919.701
_exptl_crystal_colour 'white'
_exptl_crystal_density_diffrn 1.233
_exptl_crystal_description 'block'
_diffrn_ambient_temperature 150
#These two values have been output from a single CSD field.
_refine_ls_R_factor_gt 0.0498
_refine_ls_wR_factor_gt 0.0498
_symmetry_cell_setting monoclinic
_symmetry_space_group_name_H-M 'P 21/n'
_symmetry_Int_Tables_number 14
loop_
_symmetry_equiv_pos_site_id
_symmetry_equiv_pos_as_xyz
1 x,y,z
2 1/2-x,1/2+y,1/2-z
3 -x,-y,-z
4 -1/2+x,-1/2-y,-1/2+z
_cell_length_a 6.5699(18)
_cell_length_b 9.518(2)
_cell_length_c 30.709(8)
_cell_angle_alpha 90
_cell_angle_beta 91.437(9)
_cell_angle_gamma 90
_cell_formula_units_Z 4
loop_
_atom_type_symbol
_atom_type_radius_bond
C 0.68
H 0.23
loop_
_atom_site_label
_atom_site_type_symbol
_atom_site_fract_x
_atom_site_fract_y
_atom_site_fract_z
C1 C 0.9582(3) 0.24424(16) 0.50356(5)
C2 C 0.6962(3) 0.64311(15) 0.67347(5)
C3 C 0.4990(3) 0.20675(15) 0.60082(5)
C4 C 0.3417(3) 0.18835(15) 0.63412(5)
C5 C 0.7617(3) 0.33939(16) 0.56600(5)
H1 H 0.84030 0.42290 0.56430
C6 C 0.6141(3) 0.33035(16) 0.59740(5)
C7 C 0.7993(3) 0.23053(16) 0.53678(5)
C8 C 0.5751(3) 0.45814(16) 0.62453(5)
C9 C 0.5060(3) 0.71203(16) 0.66888(5)
C10 C 0.6832(3) 0.10932(16) 0.54040(5)
H2 H 0.70390 0.03330 0.52100
C11 C 0.5387(3) 0.09828(16) 0.57183(5)
H3 H 0.46310 0.01350 0.57380
C12 C 0.7268(3) 0.51497(16) 0.65015(5)
H4 H 0.85470 0.46870 0.65250
C13 C 0.3783(3) 0.22575(17) 0.67752(6)
H5 H 0.50750 0.26240 0.68620
C14 C 0.1515(3) 0.13178(16) 0.62307(6)
H6 H 0.12370 0.10340 0.59390
C15 C 0.8504(3) 0.70334(17) 0.69992(5)
H7 H 0.97750 0.65670 0.70360
C16 C 1.1444(3) 0.30681(16) 0.51337(6)
H8 H 1.16880 0.34460 0.54170
C17 C 0.3847(3) 0.52659(17) 0.62177(5)
H9 H 0.27700 0.48550 0.60500
C18 C 0.9272(3) 0.19231(16) 0.46135(6)
H10 H 0.80070 0.14980 0.45350
C19 C 1.2611(3) 0.26230(17) 0.44175(6)
H11 H 1.36480 0.26750 0.42080
C20 C 0.3522(3) 0.65038(18) 0.64271(5)
H12 H 0.22380 0.69560 0.63960
C21 C 1.0768(3) 0.20182(17) 0.43104(6)
H13 H 1.05250 0.16630 0.40250
C22 C 1.2947(3) 0.31536(17) 0.48305(6)
H14 H 1.42150 0.35790 0.49060
C23 C 0.6314(3) 0.89831(18) 0.71520(6)
H15 H 0.61180 0.98570 0.72940
C24 C 0.0026(3) 0.11609(18) 0.65365(6)
H16 H -0.12600 0.07750 0.64540
C25 C 0.8187(3) 0.82840(18) 0.72036(5)
H17 H 0.92380 0.86840 0.73820
C26 C 0.4784(3) 0.84326(17) 0.69029(5)
H18 H 0.35280 0.89200 0.68710
C27 C 0.2288(3) 0.21028(17) 0.70814(6)
H19 H 0.25580 0.23680 0.73750
C28 C 0.0410(3) 0.15654(18) 0.69614(6)
H20 H -0.06190 0.14740 0.71710
loop_
_geom_bond_atom_site_label_1
_geom_bond_atom_site_label_2
_geom_bond_distance
_geom_bond_site_symmetry_1
_geom_bond_site_symmetry_2
C1 C7 1.484 1_555 1_555
C2 C9 1.415 1_555 1_555
C3 C4 1.482 1_555 1_555
C4 C13 1.395 1_555 1_555
C5 H1 0.950 1_555 1_555
C6 C3 1.404 1_555 1_555
C7 C5 1.397 1_555 1_555
C8 C6 1.500 1_555 1_555
C9 C20 1.404 1_555 1_555
C10 C7 1.389 1_555 1_555
H2 C10 0.949 1_555 1_555
C11 C3 1.392 1_555 1_555
H3 C11 0.950 1_555 1_555
C12 C2 1.431 1_555 1_555
H4 C12 0.950 1_555 1_555
C13 H5 0.950 1_555 1_555
C14 C4 1.395 1_555 1_555
H6 C14 0.949 1_555 1_555
C15 C2 1.405 1_555 1_555
H7 C15 0.950 1_555 1_555
C16 C1 1.387 1_555 1_555
H8 C16 0.951 1_555 1_555
C17 C8 1.411 1_555 1_555
H9 C17 0.949 1_555 1_555
C18 C1 1.397 1_555 1_555
H10 C18 0.950 1_555 1_555
C19 H11 0.950 1_555 1_555
C20 C17 1.362 1_555 1_555
H12 C20 0.950 1_555 1_555
C21 C18 1.373 1_555 1_555
H13 C21 0.949 1_555 1_555
C22 C16 1.376 1_555 1_555
H14 C22 0.950 1_555 1_555
C23 H15 0.949 1_555 1_555
C24 C14 1.381 1_555 1_555
H16 C24 0.950 1_555 1_555
C25 C15 1.364 1_555 1_555
H17 C25 0.950 1_555 1_555
C26 C9 1.425 1_555 1_555
H18 C26 0.950 1_555 1_555
C27 C13 1.385 1_555 1_555
H19 C27 0.949 1_555 1_555
C28 C24 1.378 1_555 1_555
H20 C28 0.949 1_555 1_555
C5 C6 1.387 1_555 1_555
C8 C12 1.366 1_555 1_555
C10 C11 1.375 1_555 1_555
C19 C21 1.373 1_555 1_555
C19 C22 1.378 1_555 1_555
C23 C25 1.404 1_555 1_555
C23 C26 1.353 1_555 1_555
C27 C28 1.377 1_555 1_555
#END
