
#######################################################################
#
#                 Cambridge Crystallographic Data Centre
#                                CCDC
#
#######################################################################
#
# If this CIF has been generated from an entry in the Cambridge
# Structural Database, then it will include bibliographic, chemical,
# crystal, experimental, refinement or atomic coordinate data resulting
# from the CCDC's data processing and validation procedures.
#
#######################################################################

data_CSD_CIF_OLAGEO
_audit_creation_date 2011-05-03
_audit_creation_method CSD-ConQuest-V1
_database_code_CSD OLAGEO
_database_code_depnum_ccdc_archive 'CCDC 812910'
_chemical_formula_sum 'C26 H22'
_chemical_formula_moiety
;
C26 H22
;
_journal_coden_Cambridge 579
_journal_volume 29
_journal_year 2010
_journal_page_first 3571
_journal_name_full 'Organometallics '
loop_
_publ_author_name
"S.K.S.Tse"
"Wei Bai"
"H.H.-Y.Sung"
"I.D.Williams"
"Guochen Jia"
_chemical_name_systematic
;
1-((2,3,4,5-Tetramethylcyclopenta-2,4-dien-1-ylidene)methyl)pyrene
;
_cell_volume   1816.383
_exptl_crystal_colour 'purple'
_exptl_crystal_density_diffrn 1.223
_exptl_crystal_description 'plate'
_diffrn_ambient_temperature 143
#These two values have been output from a single CSD field.
_refine_ls_R_factor_gt 0.0432
_refine_ls_wR_factor_gt 0.0432
_symmetry_cell_setting monoclinic
_symmetry_space_group_name_H-M 'P 21/c'
_symmetry_Int_Tables_number 14
loop_
_symmetry_equiv_pos_site_id
_symmetry_equiv_pos_as_xyz
1 x,y,z
2 -x,1/2+y,1/2-z
3 -x,-y,-z
4 x,-1/2-y,-1/2+z
_cell_length_a 29.3956(9)
_cell_length_b 6.5728(2)
_cell_length_c 9.5187(3)
_cell_angle_alpha 90
_cell_angle_beta 99.019(2)
_cell_angle_gamma 90
_cell_formula_units_Z 4
loop_
_atom_type_symbol
_atom_type_radius_bond
C 0.68
H 0.23
loop_
_atom_site_label
_atom_site_type_symbol
_atom_site_fract_x
_atom_site_fract_y
_atom_site_fract_z
C1 C 0.34929(5) 0.6557(2) 0.33871(16)
C2 C 0.39511(5) 0.6443(2) 0.34691(17)
C3 C 0.40740(5) 0.4567(2) 0.27500(17)
C4 C 0.36871(5) 0.3535(2) 0.22529(16)
C5 C 0.32919(5) 0.4730(2) 0.26269(15)
C6 C 0.32363(6) 0.8097(3) 0.41368(19)
H1 H 0.34410 0.86380 0.49640
H2 H 0.29700 0.74440 0.44520
H3 H 0.31310 0.92120 0.34820
C7 C 0.43035(6) 0.7901(3) 0.4210(2)
H4 H 0.41470 0.90700 0.45580
H5 H 0.45030 0.83700 0.35400
H6 H 0.44910 0.72130 0.50130
C8 C 0.45607(6) 0.4003(3) 0.2621(2)
H7 H 0.45610 0.27650 0.20480
H8 H 0.47360 0.37620 0.35710
H9 H 0.47040 0.51150 0.21610
C9 C 0.36375(6) 0.1639(3) 0.13769(19)
H10 H 0.39420 0.11890 0.12050
H11 H 0.34410 0.19130 0.04660
H12 H 0.34970 0.05710 0.18850
C10 C 0.28532(5) 0.4103(2) 0.23219(15)
H13 H 0.28110 0.27320 0.20120
C11 C 0.24258(5) 0.5256(2) 0.24021(15)
C12 C 0.20586(5) 0.4389(2) 0.29943(14)
C13 C 0.21018(5) 0.2482(2) 0.37493(16)
H14 H 0.23890 0.17900 0.38760
C14 C 0.17438(5) 0.1653(2) 0.42831(15)
H15 H 0.17850 0.03910 0.47740
C15 C 0.13038(5) 0.2637(2) 0.41237(15)
C16 C 0.12506(5) 0.4533(2) 0.34021(14)
C17 C 0.16296(5) 0.5422(2) 0.28470(14)
C18 C 0.15713(5) 0.7327(2) 0.21348(15)
C19 C 0.19458(5) 0.8179(2) 0.16054(16)
H16 H 0.19140 0.94680 0.11490
C20 C 0.23623(5) 0.7158(2) 0.17408(16)
H17 H 0.26120 0.77660 0.13740
C21 C 0.09246(5) 0.1786(2) 0.46467(16)
H18 H 0.09580 0.05230 0.51380
C22 C 0.05052(5) 0.2765(2) 0.44538(18)
H19 H 0.02520 0.21630 0.48050
C23 C 0.04485(5) 0.4617(2) 0.37541(18)
H20 H 0.01570 0.52760 0.36360
C24 C 0.08171(5) 0.5527(2) 0.32186(15)
C25 C 0.07721(5) 0.7445(2) 0.24916(17)
H21 H 0.04840 0.81290 0.23690
C26 C 0.11294(5) 0.8303(2) 0.19769(16)
H22 H 0.10880 0.95760 0.15010
loop_
_geom_bond_atom_site_label_1
_geom_bond_atom_site_label_2
_geom_bond_distance
_geom_bond_site_symmetry_1
_geom_bond_site_symmetry_2
C1 C2 1.339 1_555 1_555
C2 C3 1.482 1_555 1_555
C3 C4 1.345 1_555 1_555
C4 C5 1.491 1_555 1_555
C5 C1 1.477 1_555 1_555
C6 C1 1.507 1_555 1_555
H1 C6 0.980 1_555 1_555
H2 C6 0.980 1_555 1_555
H3 C6 0.980 1_555 1_555
C7 C2 1.503 1_555 1_555
H4 C7 0.980 1_555 1_555
H5 C7 0.981 1_555 1_555
H6 C7 0.980 1_555 1_555
C8 C3 1.501 1_555 1_555
H7 C8 0.980 1_555 1_555
H8 C8 0.981 1_555 1_555
H9 C8 0.980 1_555 1_555
C9 C4 1.494 1_555 1_555
H10 C9 0.980 1_555 1_555
H11 C9 0.980 1_555 1_555
H12 C9 0.980 1_555 1_555
C10 C5 1.342 1_555 1_555
H13 C10 0.950 1_555 1_555
C11 C10 1.479 1_555 1_555
C12 C11 1.414 1_555 1_555
C13 C12 1.441 1_555 1_555
H14 C13 0.950 1_555 1_555
C14 C13 1.353 1_555 1_555
H15 C14 0.950 1_555 1_555
C15 C14 1.433 1_555 1_555
C16 C15 1.420 1_555 1_555
C17 C12 1.420 1_555 1_555
C18 C17 1.421 1_555 1_555
C19 C18 1.398 1_555 1_555
H16 C19 0.950 1_555 1_555
C20 C11 1.399 1_555 1_555
H17 C20 0.949 1_555 1_555
C21 C15 1.406 1_555 1_555
H18 C21 0.950 1_555 1_555
C22 C21 1.377 1_555 1_555
H19 C22 0.949 1_555 1_555
C23 C22 1.385 1_555 1_555
H20 C23 0.951 1_555 1_555
C24 C16 1.418 1_555 1_555
C25 C24 1.434 1_555 1_555
H21 C25 0.950 1_555 1_555
C26 C18 1.435 1_555 1_555
H22 C26 0.950 1_555 1_555
C16 C17 1.431 1_555 1_555
C19 C20 1.384 1_555 1_555
C23 C24 1.402 1_555 1_555
C25 C26 1.350 1_555 1_555
#END
