
#######################################################################
#
#                 Cambridge Crystallographic Data Centre
#                                CCDC
#
#######################################################################
#
# If this CIF has been generated from an entry in the Cambridge
# Structural Database, then it will include bibliographic, chemical,
# crystal, experimental, refinement or atomic coordinate data resulting
# from the CCDC's data processing and validation procedures.
#
#######################################################################

data_CSD_CIF_OLIDUI
_audit_creation_date 2004-02-04
_audit_creation_method CSD-ConQuest-V1
_database_code_CSD OLIDUI
_database_code_depnum_ccdc_archive 'CCDC 213941'
_chemical_formula_sum 'C44 H30'
_chemical_formula_moiety
;
C44 H30
;
_journal_coden_Cambridge 24
_journal_volume 44
_journal_year 2003
_journal_page_first 7775
_journal_name_full 'Tetrahedron Lett. '
loop_
_publ_author_name
"S.Toyota"
"T.Makino"
_chemical_name_systematic
;
1,2-bis(1-(4-methylphenyl)-9-anthryl)ethyne
;
_chemical_melting_point 519.0
_cell_volume   5903.281
_exptl_crystal_colour 'yellow'
_exptl_crystal_density_diffrn 1.257
_exptl_special_details
;
Melting point range 519.0-519.5K

;
_exptl_crystal_description 'plate'
_exptl_crystal_preparation 'hexane/ether'
_diffrn_ambient_temperature 113.2
#These two values have been output from a single CSD field.
_refine_ls_R_factor_gt 0.0535
_refine_ls_wR_factor_gt 0.0535
_symmetry_cell_setting monoclinic
_symmetry_space_group_name_H-M 'C 2/c'
_symmetry_Int_Tables_number 15
loop_
_symmetry_equiv_pos_site_id
_symmetry_equiv_pos_as_xyz
1 x,y,z
2 x,-y,1/2+z
3 1/2+x,1/2+y,z
4 1/2+x,1/2-y,1/2+z
5 -x,-y,-z
6 -x,y,-1/2-z
7 -1/2-x,-1/2-y,-z
8 -1/2-x,-1/2+y,-1/2-z
_cell_length_a 26.905(1)
_cell_length_b 14.784(2)
_cell_length_c 15.660(2)
_cell_angle_alpha 90
_cell_angle_beta 108.610(6)
_cell_angle_gamma 90
_cell_formula_units_Z 8
loop_
_atom_type_symbol
_atom_type_radius_bond
C 0.68
H 0.23
loop_
_atom_site_label
_atom_site_type_symbol
_atom_site_fract_x
_atom_site_fract_y
_atom_site_fract_z
C1 C 0.85683(6) 0.41104(10) 0.45991(8)
C2 C 0.87925(6) 0.4951(1) 0.48031(9)
C3 C 0.93016(7) 0.5074(1) 0.5423(1)
C4 C 0.95761(6) 0.4357(1) 0.5866(1)
C5 C 0.98418(7) 0.1087(1) 0.6251(1)
C6 C 0.97012(8) 0.0234(1) 0.5956(2)
C7 C 0.92320(8) 0.0074(1) 0.5237(1)
C8 C 0.89141(6) 0.0773(1) 0.4826(1)
C9 C 0.87337(5) 0.24221(9) 0.46842(8)
C10 C 0.96780(6) 0.2721(1) 0.60880(9)
C11 C 0.88783(5) 0.33211(10) 0.49771(8)
C12 C 0.93787(6) 0.3459(1) 0.56561(8)
C13 C 0.90495(6) 0.16778(10) 0.51117(9)
C14 C 0.95247(6) 0.1838(1) 0.58358(9)
C15 C 0.79976(6) 0.40887(9) 0.40718(8)
C16 C 0.76388(6) 0.36415(9) 0.44052(8)
C17 C 0.71036(6) 0.36953(10) 0.39626(9)
C18 C 0.69036(6) 0.4196(1) 0.31671(9)
C19 C 0.72602(6) 0.4639(1) 0.28387(9)
C20 C 0.77987(6) 0.45896(10) 0.32827(9)
C21 C 0.63188(7) 0.4238(1) 0.2689(1)
C22 C 0.82967(5) 0.22575(9) 0.38955(8)
C23 C 0.80292(6) 0.31257(9) 0.15220(8)
C24 C 0.79996(6) 0.3705(1) 0.08206(9)
C25 C 0.75179(7) 0.3926(1) 0.01548(9)
C26 C 0.70684(6) 0.3539(1) 0.01853(9)
C27 C 0.60880(6) 0.1658(1) 0.16793(9)
C28 C 0.60687(6) 0.1175(1) 0.24082(9)
C29 C 0.65342(6) 0.1022(1) 0.31411(9)
C30 C 0.70028(6) 0.13567(9) 0.31275(8)
C31 C 0.75222(6) 0.22474(9) 0.23634(8)
C32 C 0.65965(6) 0.2571(1) 0.09311(8)
C33 C 0.75517(6) 0.27542(9) 0.16083(8)
C34 C 0.70673(6) 0.29434(10) 0.09033(8)
C35 C 0.70400(5) 0.18748(9) 0.23792(8)
C36 C 0.65711(6) 0.2030(1) 0.16457(8)
C37 C 0.85664(6) 0.29015(10) 0.21324(8)
C38 C 0.87556(6) 0.20164(10) 0.22566(9)
C39 C 0.92599(6) 0.1832(1) 0.28203(10)
C40 C 0.95917(6) 0.2519(1) 0.3288(1)
C41 C 0.94051(6) 0.3400(1) 0.3148(1)
C42 C 0.89028(6) 0.3591(1) 0.25789(9)
C43 C 1.01302(7) 0.2314(1) 0.3938(1)
C44 C 0.79591(5) 0.21939(9) 0.31730(8)
H1 H 0.85890 0.54940 0.45030
H2 H 0.94590 0.56930 0.55330
H3 H 0.99210 0.44540 0.63450
H4 H 1.01710 0.11900 0.67660
H5 H 0.99310 -0.02870 0.62460
H6 H 0.91320 -0.05600 0.50280
H7 H 0.85840 0.06470 0.43210
H8 H 1.00110 0.28320 0.65920
H9 H 0.77710 0.32780 0.49720
H10 H 0.68560 0.33710 0.42160
H11 H 0.71280 0.50010 0.22720
H12 H 0.80460 0.49190 0.30310
H13 H 0.83300 0.39810 0.07780
H14 H 0.75110 0.43660 -0.03350
H15 H 0.67320 0.36720 -0.03020
H16 H 0.57600 0.17530 0.11620
H17 H 0.57270 0.09280 0.24280
H18 H 0.65170 0.06650 0.36730
H19 H 0.73260 0.12380 0.36490
H20 H 0.62680 0.26960 0.04240
H21 H 0.85260 0.15090 0.19350
H22 H 0.93880 0.11930 0.28940
H23 H 0.96370 0.39090 0.34620
H24 H 0.87810 0.42330 0.24880
H25 H 0.61250 0.45370 0.31430
H26 H 0.62410 0.46560 0.20810
H27 H 0.61680 0.35500 0.25010
H28 H 1.02020 0.15820 0.39450
H29 H 1.04270 0.26730 0.37210
H30 H 1.01500 0.25410 0.46160
loop_
_geom_bond_atom_site_label_1
_geom_bond_atom_site_label_2
_geom_bond_distance
_geom_bond_site_symmetry_1
_geom_bond_site_symmetry_2
C1 C2 1.374 1_555 1_555
C2 C3 1.415 1_555 1_555
C3 C4 1.350 1_555 1_555
C4 C12 1.429 1_555 1_555
C5 C6 1.355 1_555 1_555
C6 C7 1.418 1_555 1_555
C7 C8 1.365 1_555 1_555
C8 C13 1.421 1_555 1_555
C9 C11 1.419 1_555 1_555
C10 C12 1.396 1_555 1_555
C11 C1 1.447 1_555 1_555
C12 C11 1.439 1_555 1_555
C13 C9 1.421 1_555 1_555
C14 C5 1.425 1_555 1_555
C15 C1 1.494 1_555 1_555
C16 C15 1.401 1_555 1_555
C17 C16 1.387 1_555 1_555
C18 C17 1.401 1_555 1_555
C19 C18 1.389 1_555 1_555
C20 C15 1.393 1_555 1_555
C21 C18 1.513 1_555 1_555
C22 C9 1.428 1_555 1_555
C23 C24 1.375 1_555 1_555
C24 C25 1.418 1_555 1_555
C25 C26 1.352 1_555 1_555
C26 C34 1.429 1_555 1_555
C27 C28 1.361 1_555 1_555
C28 C29 1.421 1_555 1_555
C29 C30 1.361 1_555 1_555
C30 C35 1.430 1_555 1_555
C31 C33 1.423 1_555 1_555
C32 C34 1.395 1_555 1_555
C33 C23 1.443 1_555 1_555
C34 C33 1.441 1_555 1_555
C35 C31 1.417 1_555 1_555
C36 C27 1.428 1_555 1_555
C37 C23 1.494 1_555 1_555
C38 C37 1.395 1_555 1_555
C39 C38 1.389 1_555 1_555
C40 C39 1.396 1_555 1_555
C41 C40 1.388 1_555 1_555
C42 C37 1.394 1_555 1_555
C43 C40 1.512 1_555 1_555
C44 C22 1.208 1_555 1_555
H1 C2 1.000 1_555 1_555
H2 C3 1.000 1_555 1_555
H3 C4 1.000 1_555 1_555
H4 C5 1.001 1_555 1_555
H5 C6 1.001 1_555 1_555
H6 C7 1.001 1_555 1_555
H7 C8 1.000 1_555 1_555
H8 C10 1.001 1_555 1_555
H9 C16 1.001 1_555 1_555
H10 C17 1.000 1_555 1_555
H11 C19 1.000 1_555 1_555
H12 C20 1.001 1_555 1_555
H13 C24 1.000 1_555 1_555
H14 C25 1.001 1_555 1_555
H15 C26 1.000 1_555 1_555
H16 C27 0.999 1_555 1_555
H17 C28 0.999 1_555 1_555
H18 C29 1.000 1_555 1_555
H19 C30 1.000 1_555 1_555
H20 C32 0.999 1_555 1_555
H21 C38 1.000 1_555 1_555
H22 C39 1.000 1_555 1_555
H23 C41 1.001 1_555 1_555
H24 C42 0.999 1_555 1_555
H25 C21 1.100 1_555 1_555
H26 C21 1.098 1_555 1_555
H27 C21 1.100 1_555 1_555
H28 C43 1.099 1_555 1_555
H29 C43 1.099 1_555 1_555
H30 C43 1.098 1_555 1_555
C10 C14 1.388 1_555 1_555
C13 C14 1.432 1_555 1_555
C19 C20 1.395 1_555 1_555
C31 C44 1.430 1_555 1_555
C32 C36 1.395 1_555 1_555
C35 C36 1.428 1_555 1_555
C41 C42 1.390 1_555 1_555
#END
