
#######################################################################
#
#                 Cambridge Crystallographic Data Centre
#                                CCDC
#
#######################################################################
#
# If this CIF has been generated from an entry in the Cambridge
# Structural Database, then it will include bibliographic, chemical,
# crystal, experimental, refinement or atomic coordinate data resulting
# from the CCDC's data processing and validation procedures.
#
#######################################################################

data_CSD_CIF_OMIRIM
_audit_creation_date 2011-05-25
_audit_creation_method CSD-ConQuest-V1
_database_code_CSD OMIRIM
_database_code_depnum_ccdc_archive 'CCDC 784221'
_chemical_formula_sum 'C34 H50'
_chemical_formula_moiety
;
C34 H50
;
_journal_coden_Cambridge 1488
_journal_volume 26
_journal_year 2010
_journal_page_first 65
_journal_name_full 'X-ray.Str.Anal.Online. '
loop_
_publ_author_name
"C.Kitamura"
"H.Tsukuda"
"T.Kawase"
"T.Kobayashi"
"H.Naito"
_chemical_name_systematic
;
1,4,5,8-Tetrapentylanthracene
;
_chemical_melting_point 366
_cell_volume    750.385
_exptl_crystal_colour 'colorless'
_exptl_crystal_density_diffrn 1.015
_exptl_crystal_description 'prism'
_exptl_crystal_preparation 'hexane'
_diffrn_ambient_temperature 223
#These two values have been output from a single CSD field.
_refine_ls_R_factor_gt 0.0915
_refine_ls_wR_factor_gt 0.0915
_symmetry_cell_setting triclinic
_symmetry_space_group_name_H-M 'P -1'
_symmetry_Int_Tables_number 2
loop_
_symmetry_equiv_pos_site_id
_symmetry_equiv_pos_as_xyz
1 x,y,z
2 -x,-y,-z
_cell_length_a 5.350(4)
_cell_length_b 9.580(7)
_cell_length_c 14.946(10)
_cell_angle_alpha 99.685(9)
_cell_angle_beta 90.243(11)
_cell_angle_gamma 96.275(15)
_cell_formula_units_Z 1
loop_
_atom_type_symbol
_atom_type_radius_bond
C 0.68
H 0.23
loop_
_atom_site_label
_atom_site_type_symbol
_atom_site_fract_x
_atom_site_fract_y
_atom_site_fract_z
C1 C 0.8302(3) 0.2887(2) 0.43659(14)
C2 C 0.8221(4) 0.1732(2) 0.47919(16)
H1 H 0.92980 0.10330 0.46000
C3 C 0.6582(4) 0.1544(2) 0.55095(16)
H2 H 0.66080 0.07260 0.57780
C4 C 0.4957(4) 0.2508(2) 0.58276(15)
C5 C 0.4960(3) 0.3765(2) 0.54139(14)
C6 C 0.6650(3) 0.3962(2) 0.46864(13)
C7 C 0.3365(3) 0.4808(2) 0.56984(14)
H3 H 0.22520 0.46750 0.61700
C8 C 1.0021(4) 0.3086(2) 0.35917(14)
H4 H 1.11980 0.39430 0.37850
H5 H 0.90000 0.32650 0.30860
C9 C 1.1548(4) 0.1862(2) 0.32369(15)
H6 H 1.26760 0.17170 0.37230
H7 H 1.04020 0.09860 0.30650
C10 C 1.3090(4) 0.2143(3) 0.24247(16)
H8 H 1.42470 0.30120 0.26040
H9 H 1.19550 0.23150 0.19490
C11 C 1.4601(5) 0.0943(3) 0.2033(2)
H10 H 1.34500 0.00710 0.18520
H11 H 1.57470 0.07710 0.25060
C12 C 1.6123(6) 0.1248(4) 0.1219(2)
H12 H 1.49930 0.13450 0.07300
H13 H 1.71170 0.04700 0.10210
H14 H 1.72320 0.21260 0.13880
C13 C 0.3233(4) 0.2267(2) 0.65925(16)
H15 H 0.30190 0.12470 0.66210
H16 H 0.15790 0.25400 0.64550
C14 C 0.4133(5) 0.3079(3) 0.75161(17)
H17 H 0.44030 0.41000 0.74910
H18 H 0.57440 0.27760 0.76760
C15 C 0.2215(6) 0.2822(4) 0.8250(2)
H19 H 0.06490 0.31850 0.81010
H20 H 0.18440 0.17920 0.82280
C16 C 0.2993(8) 0.3470(6) 0.9168(3)
H21 H 0.32780 0.45060 0.92050
H22 H 0.45890 0.31390 0.93170
C17 C 0.1021(8) 0.3111(6) 0.9872(3)
H23 H -0.05180 0.35100 0.97600
H24 H 0.16690 0.35130 1.04790
H25 H 0.06740 0.20850 0.98190
C1A C 0.1698(3) 0.7113(2) 0.56341(14)
C2A C 0.1779(4) 0.8268(2) 0.52081(16)
H1A H 0.07020 0.89670 0.54000
C3A C 0.3418(4) 0.8456(2) 0.44905(16)
H2A H 0.33920 0.92740 0.42220
C4A C 0.5043(4) 0.7492(2) 0.41724(15)
C5A C 0.5040(3) 0.6235(2) 0.45861(14)
C6A C 0.3350(3) 0.6038(2) 0.53136(13)
C7A C 0.6635(3) 0.5192(2) 0.43016(14)
H3A H 0.77480 0.53250 0.38300
C8A C -0.0021(4) 0.6914(2) 0.64083(14)
H4A H -0.11980 0.60570 0.62150
H5A H 0.10000 0.67350 0.69140
C9A C -0.1548(4) 0.8138(2) 0.67631(15)
H6A H -0.26760 0.82830 0.62770
H7A H -0.04020 0.90140 0.69350
C10A C -0.3090(4) 0.7857(3) 0.75753(16)
H8A H -0.42470 0.69880 0.73960
H9A H -0.19550 0.76850 0.80510
C11A C -0.4601(5) 0.9057(3) 0.7967(2)
H10A H -0.34500 0.99290 0.81480
H11A H -0.57470 0.92290 0.74940
C12A C -0.6123(6) 0.8752(4) 0.8781(2)
H12A H -0.49930 0.86550 0.92700
H13A H -0.71170 0.95300 0.89790
H14A H -0.72320 0.78740 0.86120
C13A C 0.6767(4) 0.7733(2) 0.34075(16)
H15A H 0.69810 0.87530 0.33790
H16A H 0.84210 0.74600 0.35450
C14A C 0.5867(5) 0.6921(3) 0.24839(17)
H17A H 0.55970 0.59000 0.25090
H18A H 0.42560 0.72240 0.23240
C15A C 0.7785(6) 0.7178(4) 0.1750(2)
H19A H 0.93510 0.68150 0.18990
H20A H 0.81560 0.82080 0.17720
C16A C 0.7007(8) 0.6530(6) 0.0832(3)
H21A H 0.67220 0.54940 0.07950
H22A H 0.54110 0.68610 0.06830
C17A C 0.8979(8) 0.6889(6) 0.0128(3)
H23A H 1.05180 0.64900 0.02400
H24A H 0.83310 0.64870 -0.04790
H25A H 0.93260 0.79150 0.01810
loop_
_geom_bond_atom_site_label_1
_geom_bond_atom_site_label_2
_geom_bond_distance
_geom_bond_site_symmetry_1
_geom_bond_site_symmetry_2
C1 C2 1.363 1_555 1_555
C2 H1 0.940 1_555 1_555
C3 C2 1.411 1_555 1_555
H2 C3 0.940 1_555 1_555
C4 C3 1.366 1_555 1_555
C5 C4 1.443 1_555 1_555
C6 C1 1.452 1_555 1_555
C7 C5 1.398 1_555 1_555
H3 C7 0.941 1_555 1_555
C8 C1 1.505 1_555 1_555
H4 C8 0.980 1_555 1_555
H5 C8 0.980 1_555 1_555
C9 C8 1.526 1_555 1_555
H6 C9 0.980 1_555 1_555
H7 C9 0.980 1_555 1_555
C10 C9 1.515 1_555 1_555
H8 C10 0.979 1_555 1_555
H9 C10 0.979 1_555 1_555
C11 C10 1.516 1_555 1_555
H10 C11 0.980 1_555 1_555
H11 C11 0.980 1_555 1_555
C12 C11 1.518 1_555 1_555
H12 C12 0.969 1_555 1_555
H13 C12 0.969 1_555 1_555
H14 C12 0.970 1_555 1_555
C13 C4 1.504 1_555 1_555
H15 C13 0.979 1_555 1_555
H16 C13 0.980 1_555 1_555
C14 C13 1.514 1_555 1_555
H17 C14 0.980 1_555 1_555
H18 C14 0.980 1_555 1_555
C15 C14 1.537 1_555 1_555
H19 C15 0.980 1_555 1_555
H20 C15 0.980 1_555 1_555
C16 C15 1.447 1_555 1_555
H21 C16 0.980 1_555 1_555
H22 C16 0.980 1_555 1_555
C17 C16 1.546 1_555 1_555
H23 C17 0.970 1_555 1_555
H24 C17 0.971 1_555 1_555
H25 C17 0.970 1_555 1_555
C1A C2A 1.363 1_555 1_555
C2A H1A 0.940 1_555 1_555
C3A C2A 1.411 1_555 1_555
H2A C3A 0.940 1_555 1_555
C4A C3A 1.366 1_555 1_555
C5A C4A 1.443 1_555 1_555
C6A C7 1.396 1_555 1_555
C7A C6 1.396 1_555 1_555
H3A C7A 0.941 1_555 1_555
C8A C1A 1.505 1_555 1_555
H4A C8A 0.980 1_555 1_555
H5A C8A 0.980 1_555 1_555
C9A C8A 1.526 1_555 1_555
H6A C9A 0.980 1_555 1_555
H7A C9A 0.980 1_555 1_555
C10A C9A 1.515 1_555 1_555
H8A C10A 0.979 1_555 1_555
H9A C10A 0.979 1_555 1_555
C11A C10A 1.516 1_555 1_555
H10A C11A 0.980 1_555 1_555
H11A C11A 0.980 1_555 1_555
C12A C11A 1.518 1_555 1_555
H12A C12A 0.969 1_555 1_555
H13A C12A 0.969 1_555 1_555
H14A C12A 0.970 1_555 1_555
C13A C4A 1.504 1_555 1_555
H15A C13A 0.979 1_555 1_555
H16A C13A 0.980 1_555 1_555
C14A C13A 1.514 1_555 1_555
H17A C14A 0.980 1_555 1_555
H18A C14A 0.980 1_555 1_555
C15A C14A 1.537 1_555 1_555
H19A C15A 0.980 1_555 1_555
H20A C15A 0.980 1_555 1_555
C16A C15A 1.447 1_555 1_555
H21A C16A 0.980 1_555 1_555
H22A C16A 0.980 1_555 1_555
C17A C16A 1.546 1_555 1_555
H23A C17A 0.970 1_555 1_555
H24A C17A 0.971 1_555 1_555
H25A C17A 0.970 1_555 1_555
C5 C6 1.441 1_555 1_555
C1A C6A 1.452 1_555 1_555
C5A C6A 1.441 1_555 1_555
C5A C7A 1.398 1_555 1_555
#END
