
#######################################################################
#
#                 Cambridge Crystallographic Data Centre
#                                CCDC
#
#######################################################################
#
# If this CIF has been generated from an entry in the Cambridge
# Structural Database, then it will include bibliographic, chemical,
# crystal, experimental, refinement or atomic coordinate data resulting
# from the CCDC's data processing and validation procedures.
#
#######################################################################

data_CSD_CIF_OMNAPH01
_audit_creation_date 1982-07-05
_audit_creation_method CSD-ConQuest-V1
_database_code_CSD OMNAPH01
_chemical_formula_sum 'C18 H24'
_chemical_formula_moiety
;
C18 H24
;
_journal_coeditor_code "IUCr A20936"
_journal_coden_Cambridge 107
_journal_volume 38
_journal_year 1982
_journal_page_first 623
_journal_name_full 'Acta Crystallogr.,Sect.B:Struct.Crystallogr.Cryst.Chem. '
loop_
_publ_author_name
"G.A.Sim"
_chemical_name_systematic
;
Octamethylnaphthalene
;
_cell_volume   1423.833
_exptl_crystal_density_diffrn 1.121
_diffrn_ambient_temperature ?
_diffrn_special_details
;
The study was carried out at room temperature,in the range 283-303K

;
#These two values have been output from a single CSD field.
_refine_ls_R_factor_gt 0.042
_refine_ls_wR_factor_gt 0.042
_symmetry_cell_setting orthorhombic
_symmetry_space_group_name_H-M 'C c c a'
_symmetry_Int_Tables_number 68
loop_
_symmetry_equiv_pos_site_id
_symmetry_equiv_pos_as_xyz
1 x,y,z
2 1/2+x,1/2+y,z
3 1/2-x,y,1/2+z
4 -x,1/2+y,1/2+z
5 x,-y,1/2+z
6 1/2+x,1/2-y,1/2+z
7 1/2-x,-y,z
8 -x,1/2-y,z
9 -x,-y,-z
10 -1/2-x,-1/2-y,-z
11 -1/2+x,-y,-1/2-z
12 x,-1/2-y,-1/2-z
13 -x,y,-1/2-z
14 -1/2-x,-1/2+y,-1/2-z
15 -1/2+x,y,-z
16 x,-1/2+y,-z
_cell_length_a 16.595(2)
_cell_length_b 11.242(3)
_cell_length_c 7.632(2)
_cell_angle_alpha 90
_cell_angle_beta 90
_cell_angle_gamma 90
_cell_formula_units_Z 4
loop_
_atom_type_symbol
_atom_type_radius_bond
C 0.68
H 0.23
loop_
_atom_site_label
_atom_site_type_symbol
_atom_site_fract_x
_atom_site_fract_y
_atom_site_fract_z
C1 C 0.41680 0.13920 0.28070
C2 C 0.45860 0.03430 0.27120
C3 C 0.45710 0.25000 0.25000
C4 C 0.33010 0.13860 0.34590
C5 C 0.41760 -0.08470 0.29990
H1 H 0.32310 0.07700 0.44000
H2 H 0.31420 0.22200 0.40100
H3 H 0.28790 0.12000 0.24900
H4 H 0.36000 -0.06300 0.30900
H5 H 0.43500 -0.12900 0.40200
H6 H 0.42200 -0.13900 0.20500
C2L C 0.54140 0.03430 0.22880
C1K C 0.41680 0.36080 0.21930
C3L C 0.54290 0.25000 0.25000
C1L C 0.58320 0.13920 0.21930
C5L C 0.58240 -0.08470 0.20010
C2K C 0.45860 0.46570 0.22880
C4K C 0.33010 0.36140 0.15410
C1G C 0.58320 0.36080 0.28070
C4L C 0.66990 0.13860 0.15410
H4L H 0.64000 -0.06300 0.19100
H5L H 0.56500 -0.12900 0.09800
H6L H 0.57800 -0.13900 0.29500
C2G C 0.54140 0.46570 0.27120
C5K C 0.41760 0.58470 0.20010
H1K H 0.32310 0.42300 0.06000
H2K H 0.31420 0.27800 0.09900
H3K H 0.28790 0.38000 0.25100
C4G C 0.66990 0.36140 0.34590
H1L H 0.67690 0.07700 0.06000
H2L H 0.68580 0.22200 0.09900
H3L H 0.71210 0.12000 0.25100
C5G C 0.58240 0.58470 0.29990
H4K H 0.36000 0.56300 0.19100
H5K H 0.43500 0.62900 0.09800
H6K H 0.42200 0.63900 0.29500
H1G H 0.67690 0.42300 0.44000
H2G H 0.68580 0.27800 0.40100
H3G H 0.71210 0.38000 0.24900
H4G H 0.64000 0.56300 0.30900
H5G H 0.56500 0.62900 0.40200
H6G H 0.57800 0.63900 0.20500
loop_
_geom_bond_atom_site_label_1
_geom_bond_atom_site_label_2
_geom_bond_distance
_geom_bond_site_symmetry_1
_geom_bond_site_symmetry_2
C1 C2 1.370 1_555 1_555
C2 C5 1.517 1_555 1_555
C3 C1 1.433 1_555 1_555
C4 C1 1.522 1_555 1_555
C5 H4 0.989 1_555 1_555
H1 C4 1.004 1_555 1_555
H2 C4 1.061 1_555 1_555
H3 C4 1.040 1_555 1_555
H5 C5 0.969 1_555 1_555
H6 C5 0.950 1_555 1_555
C2L C2 1.412 1_555 1_555
C1K C3 1.433 1_555 1_555
C3L C3 1.424 1_555 1_555
C1L C2L 1.370 1_555 1_555
C5L C2L 1.517 1_555 1_555
C2K C1K 1.370 1_555 1_555
C4K C1K 1.522 1_555 1_555
C1G C3L 1.433 1_555 1_555
C4L C1L 1.522 1_555 1_555
H4L C5L 0.989 1_555 1_555
H5L C5L 0.969 1_555 1_555
H6L C5L 0.950 1_555 1_555
C2G C2K 1.412 1_555 1_555
C5K C2K 1.517 1_555 1_555
H1K C4K 1.004 1_555 1_555
H2K C4K 1.061 1_555 1_555
H3K C4K 1.040 1_555 1_555
C4G C1G 1.522 1_555 1_555
H1L C4L 1.004 1_555 1_555
H2L C4L 1.061 1_555 1_555
H3L C4L 1.040 1_555 1_555
C5G C2G 1.517 1_555 1_555
H4K C5K 0.989 1_555 1_555
H5K C5K 0.969 1_555 1_555
H6K C5K 0.950 1_555 1_555
H1G C4G 1.004 1_555 1_555
H2G C4G 1.061 1_555 1_555
H3G C4G 1.040 1_555 1_555
H4G C5G 0.989 1_555 1_555
H5G C5G 0.969 1_555 1_555
H6G C5G 0.950 1_555 1_555
C3L C1L 1.433 1_555 1_555
C1G C2G 1.370 1_555 1_555
#END
