
#######################################################################
#
#                 Cambridge Crystallographic Data Centre
#                                CCDC
#
#######################################################################
#
# If this CIF has been generated from an entry in the Cambridge
# Structural Database, then it will include bibliographic, chemical,
# crystal, experimental, refinement or atomic coordinate data resulting
# from the CCDC's data processing and validation procedures.
#
#######################################################################

data_CSD_CIF_OMUGEK
_audit_creation_date 2016-05-17
_audit_creation_method CSD-ConQuest-V1
_database_code_CSD OMUGEK
_database_code_depnum_ccdc_archive 'CCDC 1060466'
_chemical_formula_sum 'C48 H46'
_chemical_formula_moiety
;
C48 H46
;
_journal_coden_Cambridge 241
_journal_volume 45
_journal_year 2016
_journal_page_first 403
_journal_name_full 'Chem.Lett. '
loop_
_publ_author_name
"K.Oda"
"S.Hiroto"
"D.Sakamaki"
"Shu Seki"
"H.Shinokubo"
_chemical_name_systematic
;
(4Z,6Z)-5,6-Di-n-propyl-4,7-dipyrenyl-4,6-decadiene
;
_cell_volume  13973.270
_exptl_crystal_colour 'colorless'
_exptl_crystal_density_diffrn 1.184
_exptl_crystal_description 'prism'
_diffrn_ambient_temperature 153
#These two values have been output from a single CSD field.
_refine_ls_R_factor_gt 0.0554
_refine_ls_wR_factor_gt 0.0554
_symmetry_cell_setting orthorhombic
_symmetry_space_group_name_H-M 'P b c a'
_symmetry_Int_Tables_number 61
loop_
_symmetry_equiv_pos_site_id
_symmetry_equiv_pos_as_xyz
1 x,y,z
2 1/2-x,-y,1/2+z
3 -x,1/2+y,1/2-z
4 1/2+x,1/2-y,-z
5 -x,-y,-z
6 -1/2+x,y,-1/2-z
7 x,-1/2-y,-1/2+z
8 -1/2-x,-1/2+y,z
_cell_length_a 16.266(4)
_cell_length_b 16.272(4)
_cell_length_c 52.793(12)
_cell_angle_alpha 90
_cell_angle_beta 90
_cell_angle_gamma 90
_cell_formula_units_Z 16
loop_
_atom_type_symbol
_atom_type_radius_bond
C 0.68
H 0.23
loop_
_atom_site_label
_atom_site_type_symbol
_atom_site_fract_x
_atom_site_fract_y
_atom_site_fract_z
C1 C 0.61781(12) 0.89619(13) 0.21196(4)
C2 C 0.65221(12) 0.83225(13) 0.22425(4)
C3 C 0.42116(13) 0.83627(13) 0.14337(4)
C4 C 0.59096(13) 0.75854(12) 0.30064(4)
C5 C 0.52749(13) 0.77062(12) 0.28258(4)
C6 C 0.44064(12) 0.79234(13) 0.16584(4)
C7 C 0.62891(13) 0.80713(12) 0.25057(4)
C8 C 0.55372(13) 0.95127(13) 0.22373(4)
C9 C 0.45774(12) 0.83690(13) 0.18784(4)
H1 H 0.47050 0.80760 0.20290
C10 C 0.48197(13) 0.96730(13) 0.21208(4)
C11 C 0.57186(13) 0.73427(12) 0.32584(4)
C12 C 0.48900(13) 0.72136(13) 0.33322(4)
C13 C 0.54784(13) 0.79460(12) 0.25804(4)
H2 H 0.50510 0.80270 0.24600
C14 C 0.67350(13) 0.77166(13) 0.29337(4)
C15 C 0.41750(13) 0.92367(14) 0.14402(4)
C16 C 0.40519(13) 0.79253(14) 0.12048(4)
C17 C 0.43505(13) 0.96465(14) 0.16651(4)
H3 H 0.43220 1.02290 0.16690
C18 C 0.64449(13) 0.92053(13) 0.18535(4)
H4 H 0.69070 0.88460 0.18020
H5 H 0.59830 0.90990 0.17360
C19 C 0.45686(13) 0.92214(13) 0.18859(4)
C20 C 0.69063(13) 0.79502(13) 0.26862(4)
H6 H 0.74630 0.80310 0.26380
C21 C 0.44323(13) 0.70420(13) 0.16485(4)
H7 H 0.45580 0.67410 0.17980
C22 C 0.44446(13) 0.75755(13) 0.29066(4)
H8 H 0.40090 0.76570 0.27890
C23 C 0.63591(14) 0.72476(14) 0.34385(4)
C24 C 0.40872(13) 0.70555(15) 0.12014(4)
C25 C 0.71671(13) 0.77730(13) 0.21195(4)
H9 H 0.74860 0.74930 0.22540
H10 H 0.75530 0.81190 0.20210
C26 C 0.42648(14) 0.73387(13) 0.31457(4)
H11 H 0.37060 0.72530 0.31910
C27 C 0.57844(14) 0.99520(13) 0.24814(4)
H12 H 0.52860 1.00400 0.25860
H13 H 0.61600 0.95910 0.25780
C28 C 0.73679(14) 0.76113(15) 0.31199(4)
H14 H 0.79250 0.77010 0.30740
C29 C 0.61537(15) 0.70283(14) 0.36858(4)
H15 H 0.65770 0.69640 0.38080
C30 C 0.47214(15) 0.69916(13) 0.35805(4)
H16 H 0.41680 0.68990 0.36310
C31 C 0.38706(14) 0.83676(16) 0.09791(4)
C32 C 0.42814(14) 0.66324(14) 0.14309(4)
H17 H 0.43050 0.60490 0.14300
C33 C 0.53475(15) 0.69028(14) 0.37555(4)
H18 H 0.52210 0.67540 0.39250
C34 C 0.62037(14) 1.07745(13) 0.24400(4)
H19 H 0.58810 1.11000 0.23170
H20 H 0.67560 1.06810 0.23670
C35 C 0.42154(14) 1.03200(14) 0.22088(4)
H21 H 0.41090 1.07040 0.20670
H22 H 0.44700 1.06390 0.23480
C36 C 0.39795(14) 0.96574(15) 0.12086(4)
H23 H 0.39460 1.02400 0.12090
C37 C 0.71857(14) 0.73864(15) 0.33592(4)
H24 H 0.76190 0.73190 0.34780
C38 C 0.68318(15) 1.03277(14) 0.15485(4)
H25 H 0.72460 0.99680 0.14720
H26 H 0.70170 1.09000 0.15380
H27 H 0.63110 1.02670 0.14570
C39 C 0.67105(16) 1.00936(14) 0.18233(4)
H28 H 0.62890 1.04560 0.18990
H29 H 0.72320 1.01810 0.19160
C40 C 0.38425(15) 0.92471(16) 0.09907(5)
H30 H 0.37240 0.95490 0.08410
C41 C 0.67942(15) 0.71258(14) 0.19439(4)
H31 H 0.64340 0.74040 0.18190
H32 H 0.72430 0.68540 0.18490
C42 C 0.39375(14) 0.66427(16) 0.09727(5)
H33 H 0.39500 0.60590 0.09680
C43 C 0.37395(15) 0.79249(18) 0.07563(5)
H34 H 0.36260 0.82120 0.06040
C44 C 0.33954(14) 0.99753(16) 0.23016(5)
H35 H 0.30170 1.04370 0.23380
H36 H 0.31470 0.96390 0.21650
C45 C 0.62897(16) 1.12616(15) 0.26838(5)
H37 H 0.57430 1.13710 0.27540
H38 H 0.65670 1.17840 0.26480
H39 H 0.66140 1.09450 0.28060
C46 C 0.37716(15) 0.70769(18) 0.07540(5)
H40 H 0.36780 0.67890 0.06000
C47 C 0.63023(16) 0.64797(15) 0.20807(5)
H41 H 0.66500 0.62090 0.22070
H42 H 0.61040 0.60710 0.19590
H43 H 0.58320 0.67380 0.21650
C48 C 0.34823(16) 0.94517(16) 0.25379(5)
H44 H 0.38170 0.89670 0.24990
H45 H 0.29370 0.92760 0.25950
H46 H 0.37490 0.97740 0.26720
C49 C 0.57638(13) 0.75798(13) 1.05426(4)
C50 C 0.53566(13) 0.82175(13) 1.00578(4)
C51 C 0.57225(13) 0.84377(13) 1.05022(4)
C52 C 0.44879(13) 0.82738(12) 0.96676(4)
C53 C 0.47592(14) 0.61480(13) 0.89556(4)
C54 C 0.51368(14) 0.85567(13) 0.98032(4)
C55 C 0.55274(13) 0.87364(13) 1.02619(4)
H47 H 0.55100 0.93140 1.02360
C56 C 0.39005(14) 0.62991(13) 0.89657(4)
C57 C 0.38733(13) 0.76743(13) 0.97742(4)
C58 C 0.40156(14) 0.66887(13) 0.94112(4)
C59 C 0.36207(13) 0.69960(14) 0.96494(4)
C60 C 0.61052(13) 0.78035(14) 1.09911(4)
C61 C 0.59525(13) 0.72597(14) 1.07863(4)
C62 C 0.52388(14) 0.62568(13) 0.91773(4)
C63 C 0.59969(15) 0.57748(14) 0.87133(4)
C64 C 0.54077(13) 0.73707(13) 1.01005(4)
H48 H 0.53080 0.70070 0.99630
C65 C 0.48535(14) 0.65254(13) 0.94001(4)
H49 H 0.51760 0.65980 0.95480
C66 C 0.59672(13) 0.63995(14) 1.08273(4)
C67 C 0.51364(14) 0.58939(13) 0.87243(4)
C68 C 0.34597(13) 0.79456(14) 1.00188(4)
H50 H 0.38510 0.82850 1.01170
H51 H 0.33280 0.74530 1.01210
C69 C 0.55996(13) 0.70402(13) 1.03374(4)
C70 C 0.35481(14) 0.65610(13) 0.91929(4)
H52 H 0.29720 0.66550 0.91990
C71 C 0.42872(13) 0.85703(14) 0.94019(4)
H53 H 0.43720 0.81080 0.92830
H54 H 0.46830 0.90080 0.93560
C72 C 0.58764(14) 0.89703(14) 1.07131(4)
H55 H 0.58500 0.95490 1.06890
C73 C 0.61298(14) 0.61006(15) 1.10701(4)
H56 H 0.61340 0.55250 1.11000
C74 C 0.60579(14) 0.86681(15) 1.09449(4)
H57 H 0.61560 0.90390 1.10800
C75 C 0.46535(15) 0.57916(13) 0.85030(4)
C76 C 0.34337(15) 0.61919(14) 0.87379(4)
H58 H 0.28590 0.62970 0.87400
C77 C 0.57263(14) 0.92161(14) 0.97105(4)
H59 H 0.54630 0.95210 0.95700
H60 H 0.58270 0.96100 0.98500
C78 C 0.61068(14) 0.61087(14) 0.91610(4)
H61 H 0.64360 0.61680 0.93080
C79 C 0.56296(15) 0.61729(14) 1.03849(4)
H62 H 0.55290 0.58020 1.02490
C80 C 0.62731(14) 0.74734(15) 1.12289(4)
H63 H 0.63820 0.78310 1.13670
C81 C 0.34215(14) 0.89017(15) 0.93645(4)
H64 H 0.33490 0.94060 0.94670
H65 H 0.30170 0.84890 0.94240
C82 C 0.63599(16) 0.55552(14) 0.84833(5)
H66 H 0.69380 0.54750 0.84740
C83 C 0.50463(17) 0.55654(14) 0.82781(4)
H67 H 0.47290 0.54880 0.81290
C84 C 0.62842(14) 0.66363(16) 1.12666(4)
H68 H 0.64000 0.64250 1.14300
C85 C 0.26737(15) 0.84368(15) 0.99767(4)
H69 H 0.28100 0.89560 0.98880
H70 H 0.22980 0.81190 0.98660
C86 C 0.28990(15) 0.64753(14) 0.97382(5)
H71 H 0.25070 0.64110 0.95960
H72 H 0.26110 0.67700 0.98760
C87 C 0.57981(15) 0.58699(15) 1.06179(4)
H73 H 0.58040 0.52920 1.06430
C88 C 0.64652(15) 0.58867(15) 0.89413(5)
H74 H 0.70430 0.58020 0.89370
C89 C 0.58826(17) 0.54532(14) 0.82688(5)
H75 H 0.61360 0.53040 0.81130
C90 C 0.37924(16) 0.59446(15) 0.85199(5)
H76 H 0.34610 0.58710 0.83740
C91 C 0.65427(15) 0.88815(16) 0.96199(5)
H77 H 0.69310 0.93440 0.95980
H78 H 0.67690 0.85130 0.97520
C92 C 0.22387(16) 0.86333(16) 1.02249(5)
H79 H 0.21420 0.81230 1.03190
H80 H 0.17120 0.89010 1.01890
H81 H 0.25830 0.90020 1.03260
C93 C 0.64861(16) 0.84165(17) 0.93745(5)
H82 H 0.60980 0.79600 0.93930
H83 H 0.70290 0.82000 0.93300
H84 H 0.62940 0.87860 0.92400
C94 C 0.31461(18) 0.56250(15) 0.98331(5)
H85 H 0.26460 0.53260 0.98880
H86 H 0.33960 0.53130 0.96920
C95 C 0.32633(16) 0.90976(17) 0.90870(4)
H87 H 0.37130 0.94370 0.90210
H88 H 0.27430 0.93970 0.90710
H89 H 0.32320 0.85850 0.89900
C96 C 0.37436(19) 0.56540(17) 1.00498(6)
H90 H 0.42310 0.59670 0.99990
H91 H 0.39060 0.50930 1.00960
H92 H 0.34830 0.59200 1.01960
loop_
_geom_bond_atom_site_label_1
_geom_bond_atom_site_label_2
_geom_bond_distance
_geom_bond_site_symmetry_1
_geom_bond_site_symmetry_2
C1 C2 1.348 1_555 1_555
C2 C7 1.497 1_555 1_555
C3 C6 1.421 1_555 1_555
C4 C5 1.419 1_555 1_555
C5 C13 1.393 1_555 1_555
C6 C9 1.397 1_555 1_555
C7 C13 1.391 1_555 1_555
C8 C1 1.509 1_555 1_555
C9 H1 0.950 1_555 1_555
C10 C8 1.345 1_555 1_555
C11 C4 1.422 1_555 1_555
C12 C11 1.419 1_555 1_555
C13 H2 0.951 1_555 1_555
C14 C4 1.413 1_555 1_555
C15 C3 1.424 1_555 1_555
C16 C3 1.426 1_555 1_555
C17 C15 1.391 1_555 1_555
H3 C17 0.949 1_555 1_555
C18 C1 1.523 1_555 1_555
H4 C18 0.990 1_555 1_555
H5 C18 0.990 1_555 1_555
C19 C9 1.388 1_555 1_555
C20 C7 1.398 1_555 1_555
H6 C20 0.950 1_555 1_555
C21 C6 1.436 1_555 1_555
H7 C21 0.951 1_555 1_555
C22 C5 1.432 1_555 1_555
H8 C22 0.951 1_555 1_555
C23 C11 1.419 1_555 1_555
C24 C16 1.417 1_555 1_555
C25 C2 1.524 1_555 1_555
H9 C25 0.990 1_555 1_555
H10 C25 0.991 1_555 1_555
C26 C12 1.430 1_555 1_555
H11 C26 0.950 1_555 1_555
C27 C8 1.528 1_555 1_555
H12 C27 0.991 1_555 1_555
H13 C27 0.989 1_555 1_555
C28 C14 1.434 1_555 1_555
H14 C28 0.949 1_555 1_555
C29 C23 1.394 1_555 1_555
H15 C29 0.949 1_555 1_555
C30 C12 1.387 1_555 1_555
H16 C30 0.951 1_555 1_555
C31 C16 1.423 1_555 1_555
C32 C21 1.351 1_555 1_555
H17 C32 0.950 1_555 1_555
C33 C29 1.377 1_555 1_555
H18 C33 0.950 1_555 1_555
C34 C27 1.518 1_555 1_555
H19 C34 0.989 1_555 1_555
H20 C34 0.989 1_555 1_555
C35 C10 1.513 1_555 1_555
H21 C35 0.990 1_555 1_555
H22 C35 0.990 1_555 1_555
C36 C15 1.437 1_555 1_555
H23 C36 0.950 1_555 1_555
C37 C23 1.426 1_555 1_555
H24 C37 0.950 1_555 1_555
C38 H25 0.980 1_555 1_555
H26 C38 0.980 1_555 1_555
H27 C38 0.980 1_555 1_555
C39 C18 1.517 1_555 1_555
H28 C39 0.989 1_555 1_555
H29 C39 0.990 1_555 1_555
C40 C31 1.433 1_555 1_555
H30 C40 0.950 1_555 1_555
C41 C25 1.529 1_555 1_555
H31 C41 0.991 1_555 1_555
H32 C41 0.990 1_555 1_555
C42 C24 1.403 1_555 1_555
H33 C42 0.950 1_555 1_555
C43 C31 1.396 1_555 1_555
H34 C43 0.948 1_555 1_555
C44 C35 1.528 1_555 1_555
H35 C44 0.990 1_555 1_555
H36 C44 0.991 1_555 1_555
C45 C34 1.518 1_555 1_555
H37 C45 0.980 1_555 1_555
H38 C45 0.981 1_555 1_555
H39 C45 0.980 1_555 1_555
C46 C42 1.380 1_555 1_555
H40 C46 0.951 1_555 1_555
C47 C41 1.506 1_555 1_555
H41 C47 0.979 1_555 1_555
H42 C47 0.979 1_555 1_555
H43 C47 0.980 1_555 1_555
C48 C44 1.517 1_555 1_555
H44 C48 0.980 1_555 1_555
H45 C48 0.979 1_555 1_555
H46 C48 0.982 1_555 1_555
C49 C51 1.414 1_555 1_555
C50 C54 1.496 1_555 1_555
C51 C55 1.395 1_555 1_555
C52 C54 1.356 1_555 1_555
C53 C56 1.419 1_555 1_555
C54 C77 1.520 1_555 1_555
C55 C50 1.397 1_555 1_555
H47 C55 0.950 1_555 1_555
C56 C70 1.396 1_555 1_555
C57 C52 1.506 1_555 1_555
C58 C59 1.498 1_555 1_555
C59 C57 1.349 1_555 1_555
C60 C61 1.419 1_555 1_555
C61 C49 1.422 1_555 1_555
C62 C53 1.418 1_555 1_555
C63 C67 1.414 1_555 1_555
C64 C50 1.399 1_555 1_555
H48 C64 0.951 1_555 1_555
C65 C58 1.390 1_555 1_555
H49 C65 0.948 1_555 1_555
C66 C61 1.417 1_555 1_555
C67 C53 1.428 1_555 1_555
C68 C57 1.522 1_555 1_555
H50 C68 0.989 1_555 1_555
H51 C68 0.990 1_555 1_555
C69 C49 1.420 1_555 1_555
C70 C58 1.396 1_555 1_555
H52 C70 0.950 1_555 1_555
C71 C52 1.519 1_555 1_555
H53 C71 0.989 1_555 1_555
H54 C71 0.990 1_555 1_555
C72 C51 1.433 1_555 1_555
H55 C72 0.951 1_555 1_555
C73 C66 1.396 1_555 1_555
H56 C73 0.950 1_555 1_555
C74 C60 1.430 1_555 1_555
H57 C74 0.948 1_555 1_555
C75 C67 1.418 1_555 1_555
C76 C56 1.433 1_555 1_555
H58 C76 0.950 1_555 1_555
C77 H59 0.990 1_555 1_555
H60 C77 0.990 1_555 1_555
C78 C62 1.435 1_555 1_555
H61 C78 0.948 1_555 1_555
C79 C69 1.434 1_555 1_555
H62 C79 0.952 1_555 1_555
C80 C60 1.393 1_555 1_555
H63 C80 0.949 1_555 1_555
C81 C71 1.521 1_555 1_555
H64 C81 0.990 1_555 1_555
H65 C81 0.991 1_555 1_555
C82 C63 1.397 1_555 1_555
H66 C82 0.951 1_555 1_555
C83 C75 1.398 1_555 1_555
H67 C83 0.950 1_555 1_555
C84 C73 1.378 1_555 1_555
H68 C84 0.948 1_555 1_555
C85 C68 1.524 1_555 1_555
H69 C85 0.991 1_555 1_555
H70 C85 0.991 1_555 1_555
C86 C59 1.522 1_555 1_555
H71 C86 0.991 1_555 1_555
H72 C86 0.989 1_555 1_555
C87 C66 1.428 1_555 1_555
H73 C87 0.950 1_555 1_555
C88 C63 1.436 1_555 1_555
H74 C88 0.950 1_555 1_555
C89 C82 1.383 1_555 1_555
H75 C89 0.952 1_555 1_555
C90 C75 1.425 1_555 1_555
H76 C90 0.948 1_555 1_555
C91 C77 1.513 1_555 1_555
H77 C91 0.989 1_555 1_555
H78 C91 0.991 1_555 1_555
C92 C85 1.523 1_555 1_555
H79 C92 0.980 1_555 1_555
H80 C92 0.980 1_555 1_555
H81 C92 0.979 1_555 1_555
C93 C91 1.503 1_555 1_555
H82 C93 0.980 1_555 1_555
H83 C93 0.979 1_555 1_555
H84 C93 0.981 1_555 1_555
C94 C86 1.525 1_555 1_555
H85 C94 0.991 1_555 1_555
H86 C94 0.989 1_555 1_555
C95 C81 1.521 1_555 1_555
H87 C95 0.981 1_555 1_555
H88 C95 0.980 1_555 1_555
H89 C95 0.980 1_555 1_555
C96 C94 1.502 1_555 1_555
H90 C96 0.980 1_555 1_555
H91 C96 0.981 1_555 1_555
H92 C96 0.981 1_555 1_555
C10 C19 1.498 1_555 1_555
C14 C20 1.389 1_555 1_555
C17 C19 1.401 1_555 1_555
C22 C26 1.352 1_555 1_555
C24 C32 1.429 1_555 1_555
C28 C37 1.348 1_555 1_555
C30 C33 1.383 1_555 1_555
C36 C40 1.349 1_555 1_555
C38 C39 1.513 1_555 1_555
C43 C46 1.381 1_555 1_555
C62 C65 1.403 1_555 1_555
C64 C69 1.397 1_555 1_555
C72 C74 1.351 1_555 1_555
C76 C90 1.352 1_555 1_555
C78 C88 1.347 1_555 1_555
C79 C87 1.353 1_555 1_555
C80 C84 1.377 1_555 1_555
C83 C89 1.373 1_555 1_555
#END
