
#######################################################################
#
#                 Cambridge Crystallographic Data Centre
#                                CCDC
#
#######################################################################
#
# If this CIF has been generated from an entry in the Cambridge
# Structural Database, then it will include bibliographic, chemical,
# crystal, experimental, refinement or atomic coordinate data resulting
# from the CCDC's data processing and validation procedures.
#
#######################################################################

data_CSD_CIF_ONADUE
_audit_creation_date 2016-05-17
_audit_creation_method CSD-ConQuest-V1
_database_code_CSD ONADUE
_database_code_depnum_ccdc_archive 'CCDC 1060427'
_chemical_formula_sum 'C60 H38'
_chemical_formula_moiety
;
C60 H38
;
_journal_coden_Cambridge 241
_journal_volume 45
_journal_year 2016
_journal_page_first 403
_journal_name_full 'Chem.Lett. '
loop_
_publ_author_name
"K.Oda"
"S.Hiroto"
"D.Sakamaki"
"Shu Seki"
"H.Shinokubo"
_chemical_name_systematic
;
(1Z,3Z)-1,2,3,4-tetraphenyl-1,4-dipyrenylbutadiene
;
_chemical_name_common
;
2,2'-(1,2,3,4-tetraphenylbuta-1,3-diene-1,4-diyl)dipyrene
;
_cell_volume   8166.112
_exptl_crystal_colour 'colorless'
_exptl_crystal_density_diffrn 1.235
_exptl_crystal_description 'prism'
_diffrn_ambient_temperature 153
#These two values have been output from a single CSD field.
_refine_ls_R_factor_gt 0.0554
_refine_ls_wR_factor_gt 0.0554
_symmetry_cell_setting monoclinic
_symmetry_space_group_name_H-M 'C 2/c'
_symmetry_Int_Tables_number 15
loop_
_symmetry_equiv_pos_site_id
_symmetry_equiv_pos_as_xyz
1 x,y,z
2 -x,y,1/2-z
3 1/2+x,1/2+y,z
4 1/2-x,1/2+y,1/2-z
5 -x,-y,-z
6 x,-y,-1/2+z
7 -1/2-x,-1/2-y,-z
8 -1/2+x,-1/2-y,-1/2+z
_cell_length_a 21.3322(19)
_cell_length_b 20.4374(19)
_cell_length_c 19.9075(18)
_cell_angle_alpha 90
_cell_angle_beta 109.7990(19)
_cell_angle_gamma 90
_cell_formula_units_Z 8
loop_
_atom_type_symbol
_atom_type_radius_bond
C 0.68
H 0.23
loop_
_atom_site_label
_atom_site_type_symbol
_atom_site_fract_x
_atom_site_fract_y
_atom_site_fract_z
C1 C 0.24835(8) 0.94422(7) 0.31911(8)
C2 C 0.12269(8) 0.96942(8) 0.05379(9)
C3 C 0.36231(8) 0.95381(8) 0.18217(9)
C4 C 0.38706(8) 1.08687(8) 0.21824(9)
C5 C 0.18435(8) 0.94618(8) 0.32206(9)
H1 H 0.14880 0.92640 0.28500
C6 C 0.13474(8) 0.90192(8) 0.06987(9)
C7 C 0.18002(8) 0.88380(8) 0.13592(9)
H2 H 0.18820 0.83860 0.14650
C8 C 0.26083(8) 0.91070(7) 0.25849(9)
C9 C 0.31040(8) 0.86702(7) 0.26709(9)
C10 C 0.32683(8) 0.84211(8) 0.20447(9)
C11 C 0.15649(8) 1.01688(8) 0.10530(9)
C12 C 0.34683(8) 0.88340(8) 0.16269(9)
C13 C 0.07681(8) 0.98916(8) -0.01324(9)
C14 C 0.21372(8) 0.93002(8) 0.18699(9)
C15 C 0.20047(8) 0.99621(8) 0.17079(9)
H3 H 0.22220 1.02810 0.20560
C16 C 0.34211(8) 1.06871(8) 0.15022(9)
C17 C 0.40746(8) 0.97221(8) 0.24841(9)
H4 H 0.42960 0.93920 0.28150
C18 C 0.33165(9) 1.00247(8) 0.13347(9)
H5 H 0.30270 0.99030 0.08740
C19 C 0.32171(9) 0.76916(8) 0.19670(9)
C20 C 0.39832(9) 1.15429(8) 0.23674(9)
C21 C 0.04264(8) 0.94149(9) -0.06429(9)
C22 C 0.35124(9) 0.86511(8) 0.09186(9)
C23 C 0.42085(8) 1.03767(8) 0.26723(9)
C24 C 0.35062(9) 0.83712(8) 0.33663(9)
C25 C 0.09885(9) 0.85477(8) 0.01754(9)
H6 H 0.10600 0.80940 0.02780
C26 C 0.06526(9) 1.05672(9) -0.02913(10)
C27 C 0.29931(9) 0.97488(8) 0.37313(9)
H7 H 0.34330 0.97500 0.37160
C28 C 0.22257(9) 1.00581(9) 0.43179(9)
H8 H 0.21390 1.02640 0.47050
C29 C 0.17148(9) 0.97642(8) 0.37808(9)
H9 H 0.12750 0.97700 0.37960
C30 C 0.05517(9) 0.87379(9) -0.04586(10)
H10 H 0.03200 0.84140 -0.07930
C31 C 0.2862(1) 1.00528(9) 0.4291(1)
H11 H 0.32130 1.02590 0.46590
C32 C 0.27404(9) 0.73573(8) 0.21733(9)
H12 H 0.24230 0.76000 0.23090
C33 C 0.44494(10) 1.17238(9) 0.30382(10)
C34 C 0.10071(9) 1.10322(9) 0.02353(10)
H13 H 0.09370 1.14860 0.01320
C35 C 0.30777(9) 1.11932(9) 0.10197(10)
H14 H 0.27770 1.10780 0.05610
C36 C 0.14372(9) 1.08480(8) 0.08742(10)
H15 H 0.16600 1.11730 0.12120
C37 C 0.29889(10) 0.83314(8) 0.04073(10)
H16 H 0.26060 0.82080 0.05180
C38 C 0.46813(9) 1.05774(9) 0.33434(10)
H17 H 0.49180 1.02540 0.36750
C39 C 0.36331(9) 1.20317(9) 0.18795(10)
C40 C -0.00170(9) 0.9622(1) -0.13026(10)
H18 H -0.02470 0.93070 -0.16500
C41 C 0.41632(10) 0.81829(8) 0.34776(11)
H19 H 0.43490 0.82650 0.31150
C42 C 0.40598(9) 0.88372(10) 0.07338(10)
H20 H 0.44160 0.90680 0.10690
C43 C 0.27207(11) 0.66814(9) 0.21838(10)
H21 H 0.23910 0.64650 0.23240
C44 C 0.31732(10) 1.18303(9) 0.12042(10)
H22 H 0.29290 1.21530 0.08770
C45 C -0.01226(9) 1.02818(10) -0.14524(11)
H23 H -0.04240 1.04160 -0.19030
C46 C 0.47984(10) 1.12149(10) 0.35148(10)
H24 H 0.51200 1.13300 0.39620
C47 C 0.32430(12) 0.82272(9) 0.38986(10)
H25 H 0.27920 0.83300 0.38310
C48 C 0.30212(12) 0.81919(9) -0.02606(10)
H26 H 0.26600 0.79750 -0.06050
C49 C 0.02038(9) 1.07481(10) -0.09557(10)
H27 H 0.01220 1.11990 -0.10680
C50 C 0.37521(11) 1.26878(9) 0.20753(12)
H28 H 0.35200 1.30200 0.17530
C51 C 0.35755(12) 0.83671(10) -0.04291(11)
H29 H 0.36000 0.82650 -0.08850
C52 C 0.36752(11) 0.73214(9) 0.17733(11)
H30 H 0.40060 0.75340 0.16310
C53 C 0.31768(13) 0.63242(9) 0.19914(11)
H31 H 0.31650 0.58600 0.19990
C54 C 0.45483(11) 1.23882(10) 0.32046(12)
H32 H 0.48600 1.25170 0.36520
C55 C 0.40920(11) 0.86908(11) 0.00679(11)
H33 H 0.44730 0.88150 -0.00470
C56 C 0.45466(12) 0.78831(10) 0.40964(13)
H34 H 0.49910 0.77560 0.41550
C57 C 0.36522(13) 0.6643(1) 0.17865(12)
H35 H 0.39680 0.63950 0.16530
C58 C 0.42000(12) 1.28593(10) 0.27284(13)
H36 H 0.42710 1.33090 0.28540
C59 C 0.42926(13) 0.77668(10) 0.46264(12)
H37 H 0.45640 0.75720 0.50610
C60 C 0.36402(15) 0.79316(10) 0.45328(12)
H38 H 0.34610 0.78440 0.49000
loop_
_geom_bond_atom_site_label_1
_geom_bond_atom_site_label_2
_geom_bond_distance
_geom_bond_site_symmetry_1
_geom_bond_site_symmetry_2
C1 C5 1.387 1_555 1_555
C2 C6 1.420 1_555 1_555
C3 C12 1.498 1_555 1_555
C4 C16 1.418 1_555 1_555
C5 H1 0.951 1_555 1_555
C6 C7 1.392 1_555 1_555
C7 H2 0.950 1_555 1_555
C8 C1 1.488 1_555 1_555
C9 C8 1.350 1_555 1_555
C10 C9 1.494 1_555 1_555
C11 C2 1.418 1_555 1_555
C12 C10 1.351 1_555 1_555
C13 C2 1.420 1_555 1_555
C14 C7 1.396 1_555 1_555
C15 C11 1.389 1_555 1_555
H3 C15 0.950 1_555 1_555
C16 C18 1.394 1_555 1_555
C17 C3 1.396 1_555 1_555
H4 C17 0.949 1_555 1_555
C18 C3 1.388 1_555 1_555
H5 C18 0.949 1_555 1_555
C19 C10 1.499 1_555 1_555
C20 C4 1.425 1_555 1_555
C21 C13 1.418 1_555 1_555
C22 C12 1.492 1_555 1_555
C23 C4 1.416 1_555 1_555
C24 C9 1.490 1_555 1_555
C25 C6 1.435 1_555 1_555
H6 C25 0.951 1_555 1_555
C26 C13 1.419 1_555 1_555
C27 C1 1.392 1_555 1_555
H7 C27 0.949 1_555 1_555
C28 H8 0.950 1_555 1_555
C29 C5 1.381 1_555 1_555
H9 C29 0.949 1_555 1_555
C30 C21 1.433 1_555 1_555
H10 C30 0.950 1_555 1_555
C31 C27 1.384 1_555 1_555
H11 C31 0.950 1_555 1_555
C32 C19 1.397 1_555 1_555
H12 C32 0.949 1_555 1_555
C33 C20 1.418 1_555 1_555
C34 C26 1.427 1_555 1_555
H13 C34 0.951 1_555 1_555
C35 C16 1.433 1_555 1_555
H14 C35 0.951 1_555 1_555
C36 C11 1.436 1_555 1_555
H15 C36 0.950 1_555 1_555
C37 C22 1.393 1_555 1_555
H16 C37 0.949 1_555 1_555
C38 C23 1.434 1_555 1_555
H17 C38 0.950 1_555 1_555
C39 C20 1.417 1_555 1_555
C40 C21 1.399 1_555 1_555
H18 C40 0.951 1_555 1_555
C41 C24 1.397 1_555 1_555
H19 C41 0.949 1_555 1_555
C42 C22 1.391 1_555 1_555
H20 C42 0.950 1_555 1_555
C43 C32 1.382 1_555 1_555
H21 C43 0.949 1_555 1_555
C44 C35 1.349 1_555 1_555
H22 C44 0.949 1_555 1_555
C45 C40 1.383 1_555 1_555
H23 C45 0.950 1_555 1_555
C46 C33 1.434 1_555 1_555
H24 C46 0.951 1_555 1_555
C47 C24 1.388 1_555 1_555
H25 C47 0.949 1_555 1_555
C48 C37 1.384 1_555 1_555
H26 C48 0.950 1_555 1_555
C49 C26 1.395 1_555 1_555
H27 C49 0.950 1_555 1_555
C50 C39 1.395 1_555 1_555
H28 C50 0.950 1_555 1_555
C51 C48 1.381 1_555 1_555
H29 C51 0.950 1_555 1_555
C52 C19 1.390 1_555 1_555
H30 C52 0.950 1_555 1_555
C53 C43 1.371 1_555 1_555
H31 C53 0.949 1_555 1_555
C54 C33 1.397 1_555 1_555
H32 C54 0.951 1_555 1_555
C55 C42 1.383 1_555 1_555
H33 C55 0.950 1_555 1_555
C56 C41 1.371 1_555 1_555
H34 C56 0.951 1_555 1_555
C57 C52 1.388 1_555 1_555
H35 C57 0.950 1_555 1_555
C58 C50 1.373 1_555 1_555
H36 C58 0.951 1_555 1_555
C59 C56 1.360 1_555 1_555
H37 C59 0.950 1_555 1_555
C60 C47 1.397 1_555 1_555
H38 C60 0.950 1_555 1_555
C8 C14 1.491 1_555 1_555
C14 C15 1.397 1_555 1_555
C17 C23 1.393 1_555 1_555
C25 C30 1.347 1_555 1_555
C28 C29 1.379 1_555 1_555
C28 C31 1.376 1_555 1_555
C34 C36 1.346 1_555 1_555
C38 C46 1.349 1_555 1_555
C39 C44 1.430 1_555 1_555
C45 C49 1.380 1_555 1_555
C51 C55 1.376 1_555 1_555
C53 C57 1.378 1_555 1_555
C54 C58 1.379 1_555 1_555
C59 C60 1.382 1_555 1_555
#END
