
#######################################################################
#
#                 Cambridge Crystallographic Data Centre
#                                CCDC
#
#######################################################################
#
# If this CIF has been generated from an entry in the Cambridge
# Structural Database, then it will include bibliographic, chemical,
# crystal, experimental, refinement or atomic coordinate data resulting
# from the CCDC's data processing and validation procedures.
#
#######################################################################

data_CSD_CIF_OQEYUF
_audit_creation_date 2011-08-01
_audit_creation_method CSD-ConQuest-V1
_database_code_CSD OQEYUF
_database_code_depnum_ccdc_archive 'CCDC 807039'
_chemical_formula_sum 'C30 H20'
_chemical_formula_moiety
;
C30 H20
;
_journal_coden_Cambridge 1291
_journal_year 2011
_journal_page_first 2993
_journal_name_full 'Eur.J.Org.Chem. '
loop_
_publ_author_name
"Ying Lin"
"Luling Wu"
"Xian Huang"
_chemical_name_systematic
;
11-(Diphenylmethylene)-11H-benzo[b]fluorene
;
_cell_volume   2062.000
_exptl_crystal_colour 'yellow'
_exptl_crystal_density_diffrn 1.226
_exptl_crystal_description 'platelet'
_diffrn_ambient_temperature 293
#These two values have been output from a single CSD field.
_refine_ls_R_factor_gt 0.0446
_refine_ls_wR_factor_gt 0.0446
_symmetry_cell_setting orthorhombic
_symmetry_space_group_name_H-M 'P c a 21'
_symmetry_Int_Tables_number 29
loop_
_symmetry_equiv_pos_site_id
_symmetry_equiv_pos_as_xyz
1 x,y,z
2 -x,-y,1/2+z
3 1/2-x,y,1/2+z
4 1/2+x,-y,z
_cell_length_a 18.7779(13)
_cell_length_b 13.4178(7)
_cell_length_c 8.1839(5)
_cell_angle_alpha 90
_cell_angle_beta 90
_cell_angle_gamma 90
_cell_formula_units_Z 4
loop_
_atom_type_symbol
_atom_type_radius_bond
C 0.68
H 0.23
loop_
_atom_site_label
_atom_site_type_symbol
_atom_site_fract_x
_atom_site_fract_y
_atom_site_fract_z
C1 C -0.1932(2) 0.4766(2) 0.4674(4)
H1 H -0.22140 0.44730 0.54750
C2 C -0.2180(2) 0.5586(2) 0.3854(5)
H2 H -0.26280 0.58430 0.40900
C3 C -0.1756(3) 0.6032(3) 0.2664(5)
H3 H -0.19230 0.65940 0.21190
C4 C -0.1110(2) 0.5664(3) 0.2288(5)
H4 H -0.08370 0.59770 0.14910
C5 C -0.0839(2) 0.4808(2) 0.3088(4)
C6 C -0.1260(2) 0.4362(2) 0.4328(4)
C7 C -0.09913(19) 0.3520(2) 0.5187(4)
H5 H -0.12630 0.32270 0.60070
C8 C -0.03380(19) 0.3141(2) 0.4813(4)
C9 C 0.00608(19) 0.3552(2) 0.3489(4)
C10 C -0.0180(2) 0.4379(2) 0.2671(4)
H6 H 0.00940 0.46560 0.18390
C11 C 0.06990(19) 0.2946(2) 0.3225(4)
C12 C 0.1206(2) 0.3017(3) 0.2038(4)
H7 H 0.11850 0.35220 0.12620
C13 C 0.1753(2) 0.2326(3) 0.2004(5)
H8 H 0.21010 0.23620 0.11970
C14 C 0.1781(2) 0.1587(3) 0.3163(5)
H9 H 0.21530 0.11290 0.31360
C15 C 0.1268(2) 0.1508(3) 0.4372(5)
H10 H 0.12960 0.10020 0.51470
C16 C 0.07129(18) 0.2185(2) 0.4422(4)
C17 C 0.00826(18) 0.2290(2) 0.5504(4)
C18 C -0.00666(18) 0.1767(2) 0.6862(4)
C19 C -0.0687(2) 0.1974(2) 0.7945(4)
C20 C -0.0725(2) 0.2836(3) 0.8887(5)
H11 H -0.03520 0.32910 0.88690
C21 C -0.1314(2) 0.3019(3) 0.9847(5)
H12 H -0.13360 0.36000 1.04640
C22 C -0.1861(2) 0.2361(4) 0.9900(6)
H13 H -0.22610 0.24970 1.05330
C23 C -0.1823(2) 0.1493(3) 0.9014(6)
H14 H -0.21920 0.10310 0.90680
C24 C -0.1240(2) 0.1310(3) 0.8050(5)
H15 H -0.12190 0.07210 0.74530
C25 C 0.03880(18) 0.0908(2) 0.7421(4)
C26 C 0.02566(19) -0.0044(2) 0.6841(5)
H16 H -0.01090 -0.01500 0.60950
C27 C 0.0664(2) -0.0832(3) 0.7364(5)
H17 H 0.05730 -0.14710 0.69750
C28 C 0.1203(2) -0.0677(3) 0.8455(5)
H18 H 0.14780 -0.12120 0.88080
C29 C 0.1343(2) 0.0266(3) 0.9036(5)
H19 H 0.17160 0.03700 0.97640
C30 C 0.0928(2) 0.1055(3) 0.8534(4)
H20 H 0.10120 0.16890 0.89480
loop_
_geom_bond_atom_site_label_1
_geom_bond_atom_site_label_2
_geom_bond_distance
_geom_bond_site_symmetry_1
_geom_bond_site_symmetry_2
C1 H1 0.930 1_555 1_555
C2 C1 1.370 1_555 1_555
H2 C2 0.929 1_555 1_555
C3 C2 1.393 1_555 1_555
H3 C3 0.931 1_555 1_555
C4 C3 1.345 1_555 1_555
H4 C4 0.930 1_555 1_555
C5 C4 1.417 1_555 1_555
C6 C1 1.402 1_555 1_555
C7 C6 1.423 1_555 1_555
H5 C7 0.930 1_555 1_555
C8 C7 1.363 1_555 1_555
C9 C8 1.428 1_555 1_555
C10 C5 1.407 1_555 1_555
H6 C10 0.931 1_555 1_555
C11 C9 1.464 1_555 1_555
C12 C11 1.363 1_555 1_555
H7 C12 0.930 1_555 1_555
C13 C12 1.384 1_555 1_555
H8 C13 0.930 1_555 1_555
C14 C13 1.373 1_555 1_555
H9 C14 0.931 1_555 1_555
C15 C14 1.385 1_555 1_555
H10 C15 0.931 1_555 1_555
C16 C11 1.415 1_555 1_555
C17 C8 1.499 1_555 1_555
C18 C17 1.344 1_555 1_555
C19 C18 1.490 1_555 1_555
C20 C19 1.392 1_555 1_555
H11 C20 0.929 1_555 1_555
C21 C20 1.379 1_555 1_555
H12 C21 0.930 1_555 1_555
C22 C21 1.355 1_555 1_555
H13 C22 0.931 1_555 1_555
C23 C22 1.374 1_555 1_555
H14 C23 0.931 1_555 1_555
C24 C19 1.371 1_555 1_555
H15 C24 0.930 1_555 1_555
C25 C18 1.505 1_555 1_555
C26 C25 1.385 1_555 1_555
H16 C26 0.930 1_555 1_555
C27 C26 1.373 1_555 1_555
H17 C27 0.930 1_555 1_555
C28 C27 1.366 1_555 1_555
H18 C28 0.930 1_555 1_555
C29 C28 1.377 1_555 1_555
H19 C29 0.930 1_555 1_555
C30 C25 1.377 1_555 1_555
H20 C30 0.929 1_555 1_555
C5 C6 1.419 1_555 1_555
C9 C10 1.373 1_555 1_555
C15 C16 1.383 1_555 1_555
C16 C17 1.485 1_555 1_555
C23 C24 1.372 1_555 1_555
C29 C30 1.377 1_555 1_555
#END
