
#######################################################################
#
#                 Cambridge Crystallographic Data Centre
#                                CCDC
#
#######################################################################
#
# If this CIF has been generated from an entry in the Cambridge
# Structural Database, then it will include bibliographic, chemical,
# crystal, experimental, refinement or atomic coordinate data resulting
# from the CCDC's data processing and validation procedures.
#
#######################################################################

data_CSD_CIF_OSIKAD
_audit_creation_date 2011-09-07
_audit_creation_method CSD-ConQuest-V1
_database_code_CSD OSIKAD
_database_code_depnum_ccdc_archive 'CCDC 806565'
_chemical_formula_sum 'C52 H52'
_chemical_formula_moiety
;
C52 H52
;
_journal_coden_Cambridge 179
_journal_volume 50
_journal_year 2011
_journal_page_first 6048
_journal_name_full 'Angew.Chem.,Int.Ed. '
loop_
_publ_author_name
"W.Nakanishi"
"T.Matsuno"
"J.Ichikawa"
"H.Isobe"
_chemical_name_systematic
;
6,10,19,23-Tetrabutylnonacyclo-[13.11.5.5^2,14^.0^5,35^.0^8,34^.0^11,33^.0^18,
30^.0^21,29^.0^24,28^]-hexatriaconta-1(27),2(36),3,5(35),6,8(34),9,11(33),12,1
4(32),15,17,19,21(29),22,24(28),25,30-octadecaene
;
_chemical_name_common
;
Cyclobis(4)helicene
;
_cell_volume   7283.804
_exptl_crystal_colour 'colorless'
_exptl_crystal_density_diffrn 1.235
_exptl_crystal_description 'plate'
_exptl_crystal_preparation 'chloroform/hexane'
_diffrn_ambient_temperature 100
#These two values have been output from a single CSD field.
_refine_ls_R_factor_gt 0.0445
_refine_ls_wR_factor_gt 0.0445
_symmetry_cell_setting monoclinic
_symmetry_space_group_name_H-M 'C 2/c'
_symmetry_Int_Tables_number 15
loop_
_symmetry_equiv_pos_site_id
_symmetry_equiv_pos_as_xyz
1 x,y,z
2 -x,y,1/2-z
3 1/2+x,1/2+y,z
4 1/2-x,1/2+y,1/2-z
5 -x,-y,-z
6 x,-y,-1/2+z
7 -1/2-x,-1/2-y,-z
8 -1/2+x,-1/2-y,-1/2+z
_cell_length_a 46.839(9)
_cell_length_b 7.4131(14)
_cell_length_c 24.630(6)
_cell_angle_alpha 90
_cell_angle_beta 121.603(4)
_cell_angle_gamma 90
_cell_formula_units_Z 8
loop_
_atom_type_symbol
_atom_type_radius_bond
C 0.68
H 0.23
loop_
_atom_site_label
_atom_site_type_symbol
_atom_site_fract_x
_atom_site_fract_y
_atom_site_fract_z
C1 C 0.19416(3) 0.36172(17) 0.20487(6)
C2 C 0.26068(3) 0.39179(17) 0.31071(6)
C3 C 0.29639(3) 0.40448(17) 0.36255(6)
C4 C 0.37950(3) 0.32954(17) 0.37356(6)
C5 C 0.25302(3) 0.42465(18) 0.24916(6)
H1 H 0.2708(4) 0.478(2) 0.2457(7)
C6 C 0.23432(3) 0.34346(18) 0.31976(6)
H2 H 0.2390(4) 0.316(2) 0.3631(7)
C7 C 0.21394(3) 0.41836(17) 0.13020(6)
C8 C 0.18060(3) 0.44261(17) 0.08159(6)
C9 C 0.13139(3) 0.32008(18) 0.16113(6)
H3 H 0.1359(4) 0.199(2) 0.1822(7)
H4 H 0.1306(4) 0.411(2) 0.1909(7)
C10 C 0.36580(3) 0.42771(17) 0.45421(6)
C11 C 0.41316(3) 0.31478(18) 0.42285(6)
C12 C 0.22088(3) 0.39830(17) 0.19468(6)
C13 C 0.37179(3) 0.30828(17) 0.30862(6)
C14 C 0.23027(3) 0.47129(17) 0.05023(6)
C15 C 0.39701(3) 0.24509(18) 0.29705(7)
C16 C 0.17253(3) 0.49523(18) 0.01952(6)
H5 H 0.1491(4) 0.520(2) -0.0107(7)
C17 C 0.30762(3) 0.47717(18) 0.42335(6)
H6 H 0.2915(4) 0.526(2) 0.4328(7)
C18 C 0.29703(3) 0.36515(18) 0.14065(6)
C19 C 0.35490(3) 0.36892(17) 0.39113(6)
C20 C 0.27173(3) 0.35064(18) 0.15366(6)
H7 H 0.2774(4) 0.287(2) 0.1934(8)
C21 C 0.40096(3) 0.42260(18) 0.50240(6)
C22 C 0.15995(3) 0.36471(17) 0.15170(6)
C23 C 0.23894(3) 0.41516(17) 0.11243(6)
C24 C 0.33172(3) 0.32184(18) 0.19243(6)
C25 C 0.15432(3) 0.41464(18) 0.09369(6)
H8 H 0.1320(4) 0.429(2) 0.0573(7)
C26 C 0.32013(3) 0.34555(17) 0.34924(6)
H9 H 0.3116(4) 0.280(2) 0.3092(7)
C27 C 0.34062(3) 0.35635(18) 0.25463(6)
H10 H 0.3243(4) 0.426(2) 0.2592(7)
C28 C 0.20209(3) 0.33331(18) 0.26821(6)
H11 H 0.1842(4) 0.304(2) 0.2753(7)
C29 C 0.34127(3) 0.48311(18) 0.46791(6)
H12 H 0.3486(4) 0.530(2) 0.5096(7)
C30 C 0.43804(3) 0.26027(19) 0.40908(7)
H13 H 0.4610(4) 0.250(2) 0.4460(7)
C31 C 0.15105(3) 0.65600(19) -0.10302(6)
H14 H 0.1348(4) 0.554(2) -0.1113(7)
H15 H 0.1464(4) 0.753(2) -0.0801(7)
C32 C 0.35635(3) 0.24827(19) 0.18239(7)
H16 H 0.3505(4) 0.225(2) 0.1392(7)
C33 C 0.19610(3) 0.51870(18) 0.00361(6)
C34 C 0.43091(3) 0.22119(18) 0.34951(7)
C35 C 0.42287(3) 0.35856(19) 0.48663(7)
H17 H 0.4469(4) 0.348(2) 0.5192(7)
C36 C 0.09706(3) 0.31343(19) 0.09993(6)
H18 H 0.0978(4) 0.224(2) 0.0699(7)
H19 H 0.0919(4) 0.434(2) 0.0790(7)
C37 C 0.38783(3) 0.21446(19) 0.23319(7)
H20 H 0.4058(4) 0.167(2) 0.2273(8)
C38 C 0.28832(3) 0.42734(19) 0.07969(6)
H21 H 0.3059(4) 0.437(2) 0.0694(8)
C39 C 0.25589(3) 0.47408(19) 0.03580(7)
H22 H 0.2499(4) 0.511(2) -0.0074(7)
C40 C 0.18720(3) 0.5924(2) -0.06076(6)
H23 H 0.1922(4) 0.497(2) -0.0835(7)
H24 H 0.2027(4) 0.696(2) -0.0530(7)
C41 C 0.06883(3) 0.26195(19) 0.11039(6)
H25 H 0.06870 0.34600 0.14150
H26 H 0.07290 0.13880 0.12850
C42 C 0.14346(4) 0.7310(2) -0.16687(6)
H27 H 0.15900 0.83180 -0.15920
H28 H 0.14740 0.63560 -0.19030
C43 C 0.45846(4) 0.1658(2) 0.33806(8)
H29 H 0.4786(4) 0.126(2) 0.3794(7)
H30 H 0.4510(4) 0.057(2) 0.3076(8)
C44 C 0.03476(3) 0.2680(2) 0.04834(7)
H31 H 0.03410 0.17710 0.01880
H32 H 0.03120 0.38790 0.02910
H33 H 0.01710 0.24270 0.05730
C45 C 0.10758(4) 0.7979(2) -0.20780(7)
H34 H 0.10340 0.89140 -0.18470
H35 H 0.09210 0.69710 -0.21750
H36 H 0.10410 0.84830 -0.24760
C46 C 0.41401(4) 0.4940(2) 0.56853(7)
H37 H 0.4003(4) 0.460(2) 0.5844(7)
H38 H 0.4357(4) 0.435(2) 0.5983(7)
C47 C 0.46921(4) 0.3174(2) 0.30995(7)
H39 H 0.4489(4) 0.367(2) 0.2708(8)
H40 H 0.4847(4) 0.263(2) 0.2964(8)
C48 C 0.41918(4) 0.6994(2) 0.57134(7)
H41 H 0.4363(4) 0.742(2) 0.5594(8)
H42 H 0.3956(5) 0.758(3) 0.5404(9)
C49 C 0.48692(4) 0.4718(2) 0.35579(8)
H43 H 0.5098(4) 0.430(2) 0.3928(8)
H44 H 0.4729(5) 0.512(3) 0.3723(9)
C50 C 0.49194(4) 0.6352(2) 0.32457(9)
H45 H 0.50280 0.73160 0.35620
H46 H 0.47010 0.67740 0.28960
H47 H 0.50610 0.60200 0.30780
C51 C 0.43341(4) 0.7761(3) 0.63741(8)
H48 H 0.45390 0.70840 0.66770
H49 H 0.41690 0.75940 0.65060
C52 C 0.44194(5) 0.9752(3) 0.64122(11)
H50 H 0.42180 1.04280 0.61080
H51 H 0.45930 0.99180 0.63090
H52 H 0.45020 1.01940 0.68450
loop_
_geom_bond_atom_site_label_1
_geom_bond_atom_site_label_2
_geom_bond_distance
_geom_bond_site_symmetry_1
_geom_bond_site_symmetry_2
C1 C12 1.426 1_555 1_555
C2 C3 1.483 1_555 1_555
C3 C17 1.409 1_555 1_555
C4 C11 1.402 1_555 1_555
C5 C2 1.384 1_555 1_555
H1 C5 0.965 1_555 1_555
C6 C2 1.411 1_555 1_555
H2 C6 0.992 1_555 1_555
C7 C8 1.395 1_555 1_555
C8 C16 1.424 1_555 1_555
C9 H3 1.002 1_555 1_555
H4 C9 1.011 1_555 1_555
C10 C19 1.426 1_555 1_555
C11 C30 1.432 1_555 1_555
C12 C5 1.410 1_555 1_555
C13 C4 1.452 1_555 1_555
C14 C23 1.426 1_555 1_555
C15 C13 1.431 1_555 1_555
C16 H5 0.967 1_555 1_555
C17 H6 0.969 1_555 1_555
C18 C20 1.384 1_555 1_555
C19 C4 1.457 1_555 1_555
C20 H7 0.989 1_555 1_555
C21 C10 1.440 1_555 1_555
C22 C1 1.444 1_555 1_555
C23 C7 1.449 1_555 1_555
C24 C18 1.483 1_555 1_555
C25 C8 1.425 1_555 1_555
H8 C25 0.962 1_555 1_555
C26 C3 1.384 1_555 1_555
H9 C26 0.977 1_555 1_555
C27 C13 1.411 1_555 1_555
H10 C27 0.977 1_555 1_555
C28 C1 1.417 1_555 1_555
H11 C28 0.966 1_555 1_555
C29 C10 1.417 1_555 1_555
H12 C29 0.961 1_555 1_555
C30 H13 0.982 1_555 1_555
C31 H14 1.015 1_555 1_555
H15 C31 1.006 1_555 1_555
C32 C24 1.410 1_555 1_555
H16 C32 0.965 1_555 1_555
C33 C14 1.441 1_555 1_555
C34 C15 1.439 1_555 1_555
C35 C11 1.425 1_555 1_555
H17 C35 0.985 1_555 1_555
C36 C9 1.523 1_555 1_555
H18 C36 1.007 1_555 1_555
H19 C36 0.996 1_555 1_555
C37 C15 1.415 1_555 1_555
H20 C37 0.991 1_555 1_555
C38 C18 1.411 1_555 1_555
H21 C38 0.983 1_555 1_555
C39 C14 1.419 1_555 1_555
H22 C39 0.986 1_555 1_555
C40 C31 1.525 1_555 1_555
H23 C40 1.003 1_555 1_555
H24 C40 1.004 1_555 1_555
C41 C36 1.522 1_555 1_555
H25 C41 0.990 1_555 1_555
H26 C41 0.990 1_555 1_555
C42 C31 1.524 1_555 1_555
H27 C42 0.990 1_555 1_555
H28 C42 0.989 1_555 1_555
C43 C34 1.515 1_555 1_555
H29 C43 1.003 1_555 1_555
H30 C43 1.030 1_555 1_555
C44 C41 1.526 1_555 1_555
H31 C44 0.980 1_555 1_555
H32 C44 0.980 1_555 1_555
H33 C44 0.979 1_555 1_555
C45 C42 1.520 1_555 1_555
H34 C45 0.979 1_555 1_555
H35 C45 0.980 1_555 1_555
H36 C45 0.980 1_555 1_555
C46 C21 1.504 1_555 1_555
H37 C46 0.944 1_555 1_555
H38 C46 0.990 1_555 1_555
C47 C43 1.537 1_555 1_555
H39 C47 1.004 1_555 1_555
H40 C47 1.027 1_555 1_555
C48 C46 1.538 1_555 1_555
H41 C48 1.037 1_555 1_555
H42 C48 1.052 1_555 1_555
C49 C47 1.514 1_555 1_555
H43 C49 1.025 1_555 1_555
H44 C49 0.982 1_555 1_555
C50 C49 1.518 1_555 1_555
H45 C50 0.980 1_555 1_555
H46 C50 0.981 1_555 1_555
H47 C50 0.979 1_555 1_555
C51 C48 1.510 1_555 1_555
H48 C51 0.990 1_555 1_555
H49 C51 0.991 1_555 1_555
C52 C51 1.519 1_555 1_555
H50 C52 0.981 1_555 1_555
H51 C52 0.979 1_555 1_555
H52 C52 0.980 1_555 1_555
C6 C28 1.374 1_555 1_555
C7 C12 1.452 1_555 1_555
C9 C22 1.509 1_555 1_555
C16 C33 1.362 1_555 1_555
C17 C29 1.370 1_555 1_555
C19 C26 1.409 1_555 1_555
C20 C23 1.409 1_555 1_555
C21 C35 1.359 1_555 1_555
C22 C25 1.361 1_555 1_555
C24 C27 1.385 1_555 1_555
C30 C34 1.354 1_555 1_555
C32 C37 1.367 1_555 1_555
C33 C40 1.514 1_555 1_555
C38 C39 1.369 1_555 1_555
#END
