
#######################################################################
#
#                 Cambridge Crystallographic Data Centre
#                                CCDC
#
#######################################################################
#
# If this CIF has been generated from an entry in the Cambridge
# Structural Database, then it will include bibliographic, chemical,
# crystal, experimental, refinement or atomic coordinate data resulting
# from the CCDC's data processing and validation procedures.
#
#######################################################################

data_CSD_CIF_OSOYIF
_audit_creation_date 2011-08-04
_audit_creation_method CSD-ConQuest-V1
_database_code_CSD OSOYIF
_database_code_depnum_ccdc_archive 'CCDC 776938'
_chemical_formula_sum 'C38 H34'
_chemical_formula_moiety
;
C38 H34
;
_journal_coden_Cambridge 4
_journal_volume 132
_journal_year 2010
_journal_page_first 17980
_journal_name_full 'J.Am.Chem.Soc. '
loop_
_publ_author_name
"E.Faggi"
"R.M.Sebastian"
"R.Pleixats"
"A.Vallribera"
"A.Shafir"
"A.Rodriguez-Gimeno"
"C.R.de Arellano"
_chemical_name_systematic
;
4,4'-Dimesityl-1,1'-binaphthalene
;
_cell_volume   5603.488
_exptl_crystal_colour 'colorless'
_exptl_crystal_density_diffrn 1.163
_exptl_crystal_description 'prism'
_diffrn_ambient_temperature 110
#These two values have been output from a single CSD field.
_refine_ls_R_factor_gt 0.0426
_refine_ls_wR_factor_gt 0.0426
_symmetry_cell_setting monoclinic
_symmetry_space_group_name_H-M 'P 2/c'
_symmetry_Int_Tables_number 13
loop_
_symmetry_equiv_pos_site_id
_symmetry_equiv_pos_as_xyz
1 x,y,z
2 -x,y,1/2-z
3 -x,-y,-z
4 x,-y,-1/2+z
_cell_length_a 24.806(2)
_cell_length_b 9.6651(8)
_cell_length_c 24.423(2)
_cell_angle_alpha 90
_cell_angle_beta 106.87(2)
_cell_angle_gamma 90
_cell_formula_units_Z 8
loop_
_atom_type_symbol
_atom_type_radius_bond
C 0.68
H 0.23
loop_
_atom_site_label
_atom_site_type_symbol
_atom_site_fract_x
_atom_site_fract_y
_atom_site_fract_z
C1 C 0.18661(6) 0.66880(15) 0.33268(6)
C2 C 0.17292(7) 0.74682(16) 0.37348(7)
H1 H 0.14330 0.81260 0.36210
C3 C 0.20165(7) 0.73192(16) 0.43180(7)
H2 H 0.19040 0.78630 0.45900
C4 C 0.24548(6) 0.64114(15) 0.45058(6)
C5 C 0.30317(6) 0.45370(14) 0.42582(6)
H3 H 0.32300 0.44230 0.46520
C6 C 0.31655(6) 0.37180(15) 0.38640(6)
H4 H 0.34560 0.30460 0.39840
C7 C 0.28773(6) 0.38598(15) 0.32801(6)
H5 H 0.29730 0.32860 0.30060
C8 C 0.24614(6) 0.48202(15) 0.31072(6)
H6 H 0.22690 0.49060 0.27110
C9 C 0.26048(6) 0.55550(14) 0.40963(6)
C10 C 0.23080(6) 0.56954(14) 0.35029(6)
C11 C 0.27729(6) 0.64021(15) 0.51271(6)
C12 C 0.33120(7) 0.69081(15) 0.53034(6)
H7 H 0.34930 0.71650 0.50250
C13 C 0.36041(7) 0.70552(15) 0.58869(6)
H8 H 0.39770 0.74100 0.59930
C14 C 0.33643(7) 0.66994(15) 0.63076(6)
C15 C 0.25506(7) 0.56519(16) 0.65505(7)
H9 H 0.27440 0.57420 0.69460
C16 C 0.20254(7) 0.50831(17) 0.63904(7)
H10 H 0.18580 0.47800 0.66740
C17 C 0.17311(7) 0.49433(17) 0.58102(7)
H11 H 0.13640 0.45520 0.57010
C18 C 0.19684(7) 0.53658(15) 0.54008(7)
H12 H 0.17640 0.52610 0.50090
C19 C 0.28136(7) 0.61102(15) 0.61422(6)
C20 C 0.25140(6) 0.59594(14) 0.55489(6)
C21 C 0.15519(6) 0.68903(15) 0.27056(6)
C22 C 0.17586(7) 0.78047(17) 0.23734(7)
C23 C 0.14557(8) 0.80203(18) 0.18066(7)
H13 H 0.16010 0.86400 0.15820
C24 C 0.09479(8) 0.73601(17) 0.15569(7)
C25 C 0.07501(7) 0.64517(16) 0.18927(6)
H14 H 0.04040 0.59840 0.17280
C26 C 0.10434(7) 0.61992(15) 0.24668(6)
C27 C 0.23062(8) 0.8565(2) 0.26298(9)
H15 H 0.26140 0.78950 0.27540
H16 H 0.22790 0.91100 0.29590
H17 H 0.23810 0.91830 0.23420
C28 C 0.06134(9) 0.76526(19) 0.09458(7)
H18 H 0.03320 0.69230 0.08100
H19 H 0.08680 0.76780 0.07050
H20 H 0.04230 0.85480 0.09260
C29 C 0.08101(7) 0.52101(18) 0.28123(7)
H21 H 0.11200 0.47110 0.30800
H22 H 0.05600 0.45480 0.25560
H23 H 0.05970 0.57240 0.30270
C30 C 0.36743(6) 0.69818(15) 0.69249(6)
C31 C 0.35483(7) 0.81920(16) 0.71837(7)
C32 C 0.38443(7) 0.84625(17) 0.77527(7)
H24 H 0.37580 0.92760 0.79290
C33 C 0.42574(7) 0.75896(17) 0.80677(6)
C34 C 0.43735(7) 0.64037(17) 0.78034(7)
H25 H 0.46590 0.57920 0.80140
C35 C 0.40838(7) 0.60824(16) 0.72377(7)
C36 C 0.31053(7) 0.91874(18) 0.68502(7)
H26 H 0.27310 0.87890 0.67990
H27 H 0.31610 0.93570 0.64750
H28 H 0.31360 1.00620 0.70600
C37 C 0.45783(8) 0.78854(19) 0.86868(7)
H29 H 0.49510 0.74540 0.87780
H30 H 0.43700 0.75050 0.89380
H31 H 0.46200 0.88880 0.87450
C38 C 0.42097(8) 0.47464(18) 0.69807(7)
H32 H 0.38780 0.41440 0.68970
H33 H 0.45280 0.42830 0.72520
H34 H 0.43050 0.49440 0.66260
C39 C 0.09132(7) 0.14280(15) 0.40948(6)
C40 C 0.13026(7) 0.20816(18) 0.38896(7)
H35 H 0.11780 0.25660 0.35370
C41 C 0.18794(7) 0.20627(17) 0.41815(7)
H36 H 0.21350 0.25340 0.40220
C42 C 0.20828(6) 0.13786(15) 0.46917(6)
C43 C 0.18738(7) -0.01938(15) 0.54152(6)
H37 H 0.22620 -0.02150 0.56230
C44 C 0.15026(7) -0.09481(16) 0.56058(6)
H38 H 0.16340 -0.15060 0.59380
C45 C 0.09225(7) -0.09069(16) 0.53121(6)
H39 H 0.06640 -0.14280 0.54490
C46 C 0.07334(6) -0.01208(14) 0.48331(6)
H40 H 0.03410 -0.00900 0.46420
C47 C 0.16949(6) 0.06258(14) 0.49125(6)
C48 C 0.11078(6) 0.06521(14) 0.46128(6)
C49 C 0.26929(6) 0.14844(15) 0.50217(6)
C50 C 0.28430(7) 0.22592(17) 0.55103(7)
H41 H 0.25570 0.26600 0.56470
C51 C 0.34106(7) 0.24763(17) 0.58140(7)
H42 H 0.34980 0.30330 0.61490
C52 C 0.38405(6) 0.19160(15) 0.56451(6)
C53 C 0.41251(7) 0.03840(16) 0.49595(6)
H43 H 0.45100 0.05020 0.51700
C54 C 0.39893(8) -0.04248(18) 0.44826(7)
H44 H 0.42780 -0.08710 0.43640
C55 C 0.34225(8) -0.05997(19) 0.41662(7)
H45 H 0.33300 -0.11530 0.38300
C56 C 0.30049(7) 0.00129(16) 0.43347(6)
H46 H 0.26240 -0.01240 0.41150
C57 C 0.37022(6) 0.10531(15) 0.51479(6)
C58 C 0.31246(6) 0.08508(15) 0.48305(6)
C59 C 0.02974(6) 0.15574(16) 0.37815(6)
C60 C -0.00040(7) 0.27273(16) 0.38646(6)
C61 C -0.05692(7) 0.28580(17) 0.35485(7)
H47 H -0.07740 0.36480 0.36060
C62 C -0.08395(7) 0.18757(17) 0.31554(7)
C63 C -0.05360(7) 0.07146(17) 0.30849(6)
H48 H -0.07180 0.00230 0.28190
C64 C 0.00276(7) 0.05361(16) 0.33923(6)
C65 C 0.02765(8) 0.38328(17) 0.42912(7)
H49 H 0.05230 0.43970 0.41310
H50 H 0.05010 0.33950 0.46460
H51 H -0.00120 0.44230 0.43720
C66 C -0.14505(7) 0.20514(19) 0.28104(7)
H52 H -0.15170 0.15750 0.24420
H53 H -0.15350 0.30380 0.27440
H54 H -0.16940 0.16540 0.30220
C67 C 0.03381(7) -0.07394(17) 0.33034(7)
H55 H 0.00770 -0.13630 0.30370
H56 H 0.04960 -0.12090 0.36710
H57 H 0.06440 -0.04780 0.31440
C68 C 0.44450(6) 0.22174(15) 0.59647(6)
C69 C 0.47309(7) 0.32978(16) 0.57814(7)
C70 C 0.52907(7) 0.35572(16) 0.60741(7)
H58 H 0.54830 0.42790 0.59440
C71 C 0.55771(7) 0.27950(16) 0.65499(7)
C72 C 0.52853(7) 0.17614(16) 0.67330(7)
H59 H 0.54730 0.12410 0.70630
C73 C 0.47220(7) 0.14560(15) 0.64486(6)
C74 C 0.44281(7) 0.41896(18) 0.52822(7)
H60 H 0.46710 0.49650 0.52470
H61 H 0.40800 0.45480 0.53430
H62 H 0.43360 0.36380 0.49310
C75 C 0.61890(7) 0.30984(17) 0.68572(7)
H63 H 0.62160 0.39650 0.70720
H64 H 0.64010 0.31850 0.65770
H65 H 0.63470 0.23410 0.71220
C76 C 0.44199(7) 0.03366(17) 0.66702(7)
H66 H 0.41610 0.07570 0.68590
H67 H 0.46950 -0.02370 0.69460
H68 H 0.42060 -0.02400 0.63510
H69? H -0.16470 0.26030 0.30300
H70? H -0.16290 0.11400 0.27280
H71? H -0.14700 0.25240 0.24500
H72? H 0.43430 0.84440 0.88620
H73? H 0.49240 0.83930 0.87020
H74? H 0.46740 0.70110 0.88950
loop_
_geom_bond_atom_site_label_1
_geom_bond_atom_site_label_2
_geom_bond_distance
_geom_bond_site_symmetry_1
_geom_bond_site_symmetry_2
C1 C2 1.369 1_555 1_555
C2 H1 0.950 1_555 1_555
C3 C2 1.403 1_555 1_555
H2 C3 0.950 1_555 1_555
C4 C3 1.369 1_555 1_555
C5 H3 0.951 1_555 1_555
C6 C5 1.360 1_555 1_555
H4 C6 0.951 1_555 1_555
C7 C6 1.404 1_555 1_555
H5 C7 0.951 1_555 1_555
C8 C7 1.361 1_555 1_555
H6 C8 0.950 1_555 1_555
C9 C4 1.428 1_555 1_555
C10 C1 1.426 1_555 1_555
C11 C4 1.493 1_555 1_555
C12 C11 1.371 1_555 1_555
H7 C12 0.950 1_555 1_555
C13 C12 1.406 1_555 1_555
H8 C13 0.949 1_555 1_555
C14 C13 1.372 1_555 1_555
C15 H9 0.950 1_555 1_555
C16 C15 1.363 1_555 1_555
H10 C16 0.951 1_555 1_555
C17 C16 1.400 1_555 1_555
H11 C17 0.950 1_555 1_555
C18 C17 1.362 1_555 1_555
H12 C18 0.949 1_555 1_555
C19 C14 1.426 1_555 1_555
C20 C11 1.429 1_555 1_555
C21 C1 1.504 1_555 1_555
C22 C21 1.394 1_555 1_555
C23 C22 1.386 1_555 1_555
H13 C23 0.951 1_555 1_555
C24 C23 1.386 1_555 1_555
C25 C24 1.385 1_555 1_555
H14 C25 0.950 1_555 1_555
C26 C21 1.397 1_555 1_555
C27 C22 1.511 1_555 1_555
H15 C27 0.980 1_555 1_555
H16 C27 0.980 1_555 1_555
H17 C27 0.980 1_555 1_555
C28 C24 1.509 1_555 1_555
H18 C28 0.980 1_555 1_555
H19 C28 0.980 1_555 1_555
H20 C28 0.980 1_555 1_555
C29 C26 1.498 1_555 1_555
H21 C29 0.979 1_555 1_555
H22 C29 0.980 1_555 1_555
H23 C29 0.981 1_555 1_555
C30 C14 1.505 1_555 1_555
C31 C30 1.407 1_555 1_555
C32 C31 1.395 1_555 1_555
H24 C32 0.950 1_555 1_555
C33 C32 1.377 1_555 1_555
C34 C33 1.386 1_555 1_555
H25 C34 0.951 1_555 1_555
C35 C30 1.386 1_555 1_555
C36 C31 1.509 1_555 1_555
H26 C36 0.979 1_555 1_555
H27 C36 0.979 1_555 1_555
H28 C36 0.980 1_555 1_555
C37 C33 1.518 1_555 1_555
H29 C37 0.979 1_555 1_555
H30 C37 0.981 1_555 1_555
H31 C37 0.980 1_555 1_555
C38 C35 1.508 1_555 1_555
H32 C38 0.980 1_555 1_555
H33 C38 0.979 1_555 1_555
H34 C38 0.981 1_555 1_555
C39 C40 1.365 1_555 1_555
C40 H35 0.950 1_555 1_555
C41 C40 1.401 1_555 1_555
H36 C41 0.951 1_555 1_555
C42 C41 1.371 1_555 1_555
C43 H37 0.950 1_555 1_555
C44 C43 1.358 1_555 1_555
H38 C44 0.950 1_555 1_555
C45 C44 1.410 1_555 1_555
H39 C45 0.949 1_555 1_555
C46 C45 1.359 1_555 1_555
H40 C46 0.950 1_555 1_555
C47 C42 1.431 1_555 1_555
C48 C39 1.429 1_555 1_555
C49 C42 1.497 1_555 1_555
C50 C49 1.366 1_555 1_555
H41 C50 0.950 1_555 1_555
C51 C50 1.404 1_555 1_555
H42 C51 0.950 1_555 1_555
C52 C51 1.362 1_555 1_555
C53 H43 0.951 1_555 1_555
C54 C53 1.361 1_555 1_555
H44 C54 0.950 1_555 1_555
C55 C54 1.404 1_555 1_555
H45 C55 0.951 1_555 1_555
C56 C55 1.357 1_555 1_555
H46 C56 0.951 1_555 1_555
C57 C52 1.430 1_555 1_555
C58 C49 1.425 1_555 1_555
C59 C39 1.502 1_555 1_555
C60 C59 1.402 1_555 1_555
C61 C60 1.396 1_555 1_555
H47 C61 0.950 1_555 1_555
C62 C61 1.378 1_555 1_555
C63 C62 1.390 1_555 1_555
H48 C63 0.950 1_555 1_555
C64 C59 1.399 1_555 1_555
C65 C60 1.513 1_555 1_555
H49 C65 0.981 1_555 1_555
H50 C65 0.980 1_555 1_555
H51 C65 0.979 1_555 1_555
C66 C62 1.515 1_555 1_555
H52 C66 0.981 1_555 1_555
H53 C66 0.980 1_555 1_555
H54 C66 0.980 1_555 1_555
C67 C64 1.502 1_555 1_555
H55 C67 0.981 1_555 1_555
H56 C67 0.980 1_555 1_555
H57 C67 0.981 1_555 1_555
C68 C52 1.504 1_555 1_555
C69 C68 1.406 1_555 1_555
C70 C69 1.388 1_555 1_555
H58 C70 0.950 1_555 1_555
C71 C70 1.385 1_555 1_555
C72 C71 1.382 1_555 1_555
H59 C72 0.949 1_555 1_555
C73 C68 1.393 1_555 1_555
C74 C69 1.504 1_555 1_555
H60 C74 0.981 1_555 1_555
H61 C74 0.981 1_555 1_555
H62 C74 0.979 1_555 1_555
C75 C71 1.514 1_555 1_555
H63 C75 0.980 1_555 1_555
H64 C75 0.980 1_555 1_555
H65 C75 0.980 1_555 1_555
C76 C73 1.503 1_555 1_555
H66 C76 0.981 1_555 1_555
H67 C76 0.980 1_555 1_555
H68 C76 0.980 1_555 1_555
C5 C9 1.415 1_555 1_555
C8 C10 1.417 1_555 1_555
C9 C10 1.429 1_555 1_555
C15 C19 1.412 1_555 1_555
C18 C20 1.417 1_555 1_555
C19 C20 1.431 1_555 1_555
C25 C26 1.401 1_555 1_555
C34 C35 1.395 1_555 1_555
C43 C47 1.420 1_555 1_555
C46 C48 1.414 1_555 1_555
C47 C48 1.428 1_555 1_555
C53 C57 1.418 1_555 1_555
C56 C58 1.415 1_555 1_555
C57 C58 1.431 1_555 1_555
C63 C64 1.392 1_555 1_555
C72 C73 1.400 1_555 1_555
#END
