
#######################################################################
#
#                 Cambridge Crystallographic Data Centre
#                                CCDC
#
#######################################################################
#
# If this CIF has been generated from an entry in the Cambridge
# Structural Database, then it will include bibliographic, chemical,
# crystal, experimental, refinement or atomic coordinate data resulting
# from the CCDC's data processing and validation procedures.
#
#######################################################################

data_CSD_CIF_OTOFUA
_audit_creation_date 2016-08-22
_audit_creation_method CSD-ConQuest-V1
_database_code_CSD OTOFUA
_database_code_depnum_ccdc_archive 'CCDC 1475239'
_chemical_formula_sum 'C36 H18'
_chemical_formula_moiety
;
C36 H18
;
_journal_coden_Cambridge 1336
_journal_volume 18
_journal_year 2016
_journal_page_first 3992
_journal_name_full 'Org.Lett. '
loop_
_publ_author_name
"T.Fujikawa"
"D.V.Preda"
"Y.Segawa"
"K.Itami"
"L.T.Scott"
_chemical_name_systematic
;
benzo[4,5]fluoreno[1,9,8-cdef]hexahelicene
;
_cell_volume   4297.026
_exptl_crystal_colour 'yellow'
_exptl_crystal_density_diffrn 1.393
_exptl_crystal_description 'Block'
_diffrn_ambient_temperature 123
#These two values have been output from a single CSD field.
_refine_ls_R_factor_gt 0.033
_refine_ls_wR_factor_gt 0.033
_symmetry_cell_setting monoclinic
_symmetry_space_group_name_H-M 'C c'
_symmetry_Int_Tables_number 9
loop_
_symmetry_equiv_pos_site_id
_symmetry_equiv_pos_as_xyz
1 x,y,z
2 x,-y,1/2+z
3 1/2+x,1/2+y,z
4 1/2+x,1/2-y,1/2+z
_cell_length_a 28.619(3)
_cell_length_b 13.5049(14)
_cell_length_c 11.3279(11)
_cell_angle_alpha 90
_cell_angle_beta 101.050(2)
_cell_angle_gamma 90
_cell_formula_units_Z 8
loop_
_atom_type_symbol
_atom_type_radius_bond
C 0.68
H 0.23
loop_
_atom_site_label
_atom_site_type_symbol
_atom_site_fract_x
_atom_site_fract_y
_atom_site_fract_z
C1 C 0.44661(8) 0.35774(15) 0.46271(19)
C2 C 0.41790(8) 0.39726(16) 0.54032(19)
C3 C 0.37576(8) 0.34009(17) 0.52702(19)
C4 C 0.37824(7) 0.26493(16) 0.44167(19)
C5 C 0.42174(7) 0.27752(15) 0.39910(18)
C6 C 0.44386(7) 0.20287(15) 0.34848(17)
C7 C 0.49420(7) 0.21852(15) 0.35576(18)
H1 H 0.51120 0.17440 0.31400
C8 C 0.51872(8) 0.29498(15) 0.42100(19)
H2 H 0.55210 0.30050 0.42450
C9 C 0.49535(8) 0.36656(15) 0.48384(19)
C10 C 0.51466(9) 0.43065(17) 0.5837(2)
H3 H 0.54760 0.44680 0.59780
C11 C 0.48661(9) 0.46905(18) 0.6592(2)
H4 H 0.50090 0.51090 0.72340
C12 C 0.43678(9) 0.44793(16) 0.6440(2)
C13 C 0.4053(1) 0.45298(19) 0.7301(2)
H5 H 0.41300 0.49650 0.79690
C14 C 0.36472(9) 0.3966(2) 0.7175(2)
H6 H 0.34550 0.40180 0.77700
C15 C 0.35008(8) 0.33038(19) 0.6189(2)
C16 C 0.32208(8) 0.2414(2) 0.6108(2)
H7 H 0.29990 0.23400 0.66280
C17 C 0.32612(8) 0.16641(19) 0.5308(2)
H8 H 0.30750 0.10820 0.53150
C18 C 0.35761(7) 0.17339(17) 0.44618(19)
C19 C 0.37660(7) 0.09446(17) 0.38099(19)
C20 C 0.41567(7) 0.11175(16) 0.32033(18)
C21 C 0.42957(7) 0.03432(16) 0.24669(19)
C22 C 0.45865(8) 0.05014(16) 0.15601(19)
C23 C 0.46236(7) 0.14374(16) 0.09487(19)
C24 C 0.42898(8) 0.22064(16) 0.0901(2)
H9 H 0.40230 0.21220 0.12770
C25 C 0.43442(9) 0.30781(18) 0.0318(2)
H10 H 0.41110 0.35840 0.02870
C26 C 0.47365(9) 0.3236(2) -0.0231(2)
H11 H 0.47840 0.38620 -0.05740
C27 C 0.50488(9) 0.2484(2) -0.0268(2)
H12 H 0.53090 0.25790 -0.06650
C28 C 0.49915(8) 0.15625(18) 0.0275(2)
C29 C 0.52745(9) 0.0741(2) 0.0075(2)
H13 H 0.55350 0.08310 -0.03230
C30 C 0.51750(9) -0.0156(2) 0.0446(2)
H14 H 0.53390 -0.07110 0.02100
C31 C 0.48284(8) -0.03150(17) 0.1189(2)
C32 C 0.47217(9) -0.12853(18) 0.1537(2)
H15 H 0.48950 -0.18310 0.13120
C33 C 0.43778(9) -0.14473(17) 0.2184(2)
H16 H 0.42850 -0.21060 0.23210
C34 C 0.41537(9) -0.06338(16) 0.2663(2)
C35 C 0.37998(8) -0.07957(17) 0.3356(2)
H17 H 0.37040 -0.14550 0.34810
C36 C 0.35922(8) -0.00368(18) 0.3847(2)
H18 H 0.33280 -0.01640 0.42190
C37 C 0.68653(8) 0.35800(16) 0.32737(19)
C38 C 0.71526(9) 0.39633(17) 0.4327(2)
C39 C 0.75584(8) 0.33534(19) 0.4625(2)
C40 C 0.75225(8) 0.25901(18) 0.3755(2)
C41 C 0.70940(7) 0.27512(16) 0.28923(18)
C42 C 0.68587(8) 0.20161(15) 0.21795(19)
C43 C 0.63620(8) 0.22299(15) 0.17371(19)
H19 H 0.61840 0.17980 0.11570
C44 C 0.61345(8) 0.30358(15) 0.21212(19)
H20 H 0.58050 0.31330 0.18060
C45 C 0.63780(8) 0.37305(15) 0.29787(19)
C46 C 0.62007(9) 0.44224(16) 0.3766(2)
H21 H 0.58790 0.46350 0.35590
C47 C 0.64795(10) 0.47836(18) 0.4801(2)
H22 H 0.63430 0.52300 0.52880
C48 C 0.69721(9) 0.45069(18) 0.5170(2)
C49 C 0.72791(11) 0.4531(2) 0.6342(2)
H23 H 0.72070 0.49760 0.69320
C50 C 0.76728(10) 0.3929(2) 0.6630(2)
H24 H 0.78620 0.39720 0.74160
C51 C 0.78104(9) 0.3238(2) 0.5793(2)
C52 C 0.80725(9) 0.2322(2) 0.5992(2)
H25 H 0.82890 0.22330 0.67330
C53 C 0.80224(8) 0.1574(2) 0.5158(2)
H26 H 0.81970 0.09780 0.53480
C54 C 0.77119(8) 0.16683(19) 0.4001(2)
C55 C 0.75132(8) 0.08882(18) 0.3157(2)
C56 C 0.71244(8) 0.10793(16) 0.2176(2)
C57 C 0.69771(8) 0.03041(16) 0.1294(2)
C58 C 0.66862(8) 0.04649(18) 0.0106(2)
C59 C 0.66560(8) 0.13892(18) -0.0549(2)
C60 C 0.69942(8) 0.21605(17) -0.0280(2)
H27 H 0.72570 0.20770 0.03660
C61 C 0.69534(9) 0.30201(19) -0.0923(2)
H28 H 0.71900 0.35170 -0.07250
C62 C 0.65663(10) 0.3183(2) -0.1873(2)
H29 H 0.65260 0.38030 -0.22750
C63 C 0.62517(10) 0.2433(2) -0.2203(2)
H30 H 0.59940 0.25300 -0.28570
C64 C 0.62979(9) 0.1521(2) -0.1603(2)
C65 C 0.60173(10) 0.0693(3) -0.2079(3)
H31 H 0.57670 0.07760 -0.27550
C66 C 0.61019(9) -0.0189(3) -0.1590(3)
H32 H 0.59320 -0.07410 -0.19790
C67 C 0.64377(9) -0.03536(19) -0.0500(3)
C68 C 0.65448(11) -0.1319(2) -0.0058(3)
H33 H 0.63710 -0.18640 -0.04520
C69 C 0.68878(11) -0.14851(19) 0.0908(3)
H34 H 0.69800 -0.21460 0.11290
C70 C 0.71182(10) -0.06726(18) 0.1616(3)
C71 C 0.74674(10) -0.08469(19) 0.2645(3)
H35 H 0.75590 -0.15100 0.28540
C72 C 0.76782(10) -0.0101(2) 0.3350(3)
H36 H 0.79400 -0.02410 0.39810
loop_
_geom_bond_atom_site_label_1
_geom_bond_atom_site_label_2
_geom_bond_distance
_geom_bond_site_symmetry_1
_geom_bond_site_symmetry_2
C1 C2 1.418 1_555 1_555
C2 C3 1.415 1_555 1_555
C3 C4 1.413 1_555 1_555
C4 C5 1.429 1_555 1_555
C5 C1 1.415 1_555 1_555
C6 C5 1.373 1_555 1_555
C7 C6 1.443 1_555 1_555
H1 C7 0.951 1_555 1_555
C8 C7 1.381 1_555 1_555
H2 C8 0.951 1_555 1_555
C9 C1 1.374 1_555 1_555
C10 C9 1.447 1_555 1_555
H3 C10 0.951 1_555 1_555
C11 C10 1.381 1_555 1_555
H4 C11 0.950 1_555 1_555
C12 C2 1.377 1_555 1_555
C13 C12 1.451 1_555 1_555
H5 C13 0.950 1_555 1_555
C14 C13 1.373 1_555 1_555
H6 C14 0.951 1_555 1_555
C15 C3 1.391 1_555 1_555
C16 C15 1.437 1_555 1_555
H7 C16 0.950 1_555 1_555
C17 C16 1.379 1_555 1_555
H8 C17 0.951 1_555 1_555
C18 C4 1.375 1_555 1_555
C19 C18 1.460 1_555 1_555
C20 C6 1.472 1_555 1_555
C21 C20 1.440 1_555 1_555
C22 C21 1.456 1_555 1_555
C23 C22 1.455 1_555 1_555
C24 C23 1.405 1_555 1_555
H9 C24 0.950 1_555 1_555
C25 C24 1.373 1_555 1_555
H10 C25 0.951 1_555 1_555
C26 C25 1.400 1_555 1_555
H11 C26 0.951 1_555 1_555
C27 C26 1.359 1_555 1_555
H12 C27 0.950 1_555 1_555
C28 C23 1.424 1_555 1_555
C29 C28 1.417 1_555 1_555
H13 C29 0.950 1_555 1_555
C30 C29 1.331 1_555 1_555
H14 C30 0.950 1_555 1_555
C31 C22 1.408 1_555 1_555
C32 C31 1.418 1_555 1_555
H15 C32 0.950 1_555 1_555
C33 C32 1.353 1_555 1_555
H16 C33 0.950 1_555 1_555
C34 C21 1.411 1_555 1_555
C35 C34 1.412 1_555 1_555
H17 C35 0.950 1_555 1_555
C36 C19 1.419 1_555 1_555
H18 C36 0.949 1_555 1_555
C37 C38 1.411 1_555 1_555
C38 C39 1.411 1_555 1_555
C39 C40 1.416 1_555 1_555
C40 C41 1.431 1_555 1_555
C41 C37 1.406 1_555 1_555
C42 C41 1.372 1_555 1_555
C43 C42 1.443 1_555 1_555
H19 C43 0.950 1_555 1_555
C44 C43 1.381 1_555 1_555
H20 C44 0.951 1_555 1_555
C45 C37 1.385 1_555 1_555
C46 C45 1.449 1_555 1_555
H21 C46 0.950 1_555 1_555
C47 C46 1.375 1_555 1_555
H22 C47 0.950 1_555 1_555
C48 C38 1.381 1_555 1_555
C49 C48 1.445 1_555 1_555
H23 C49 0.950 1_555 1_555
C50 C49 1.377 1_555 1_555
H24 C50 0.951 1_555 1_555
C51 C39 1.389 1_555 1_555
C52 C51 1.442 1_555 1_555
H25 C52 0.951 1_555 1_555
C53 C52 1.372 1_555 1_555
H26 C53 0.950 1_555 1_555
C54 C40 1.365 1_555 1_555
C55 C54 1.463 1_555 1_555
C56 C42 1.476 1_555 1_555
C57 C56 1.453 1_555 1_555
C58 C57 1.457 1_555 1_555
C59 C58 1.446 1_555 1_555
C60 C59 1.415 1_555 1_555
H27 C60 0.950 1_555 1_555
C61 C60 1.364 1_555 1_555
H28 C61 0.949 1_555 1_555
C62 C61 1.406 1_555 1_555
H29 C62 0.950 1_555 1_555
C63 C62 1.359 1_555 1_555
H30 C63 0.949 1_555 1_555
C64 C59 1.428 1_555 1_555
C65 C64 1.421 1_555 1_555
H31 C65 0.950 1_555 1_555
C66 C65 1.316 1_555 1_555
H32 C66 0.951 1_555 1_555
C67 C58 1.418 1_555 1_555
C68 C67 1.409 1_555 1_555
H33 C68 0.950 1_555 1_555
C69 C68 1.341 1_555 1_555
H34 C69 0.951 1_555 1_555
C70 C57 1.407 1_555 1_555
C71 C70 1.402 1_555 1_555
H35 C71 0.950 1_555 1_555
C72 C55 1.420 1_555 1_555
H36 C72 0.950 1_555 1_555
C8 C9 1.439 1_555 1_555
C11 C12 1.432 1_555 1_555
C14 C15 1.429 1_555 1_555
C17 C18 1.439 1_555 1_555
C19 C20 1.439 1_555 1_555
C27 C28 1.412 1_555 1_555
C30 C31 1.435 1_555 1_555
C33 C34 1.430 1_555 1_555
C35 C36 1.356 1_555 1_555
C44 C45 1.432 1_555 1_555
C47 C48 1.441 1_555 1_555
C50 C51 1.438 1_555 1_555
C53 C54 1.441 1_555 1_555
C55 C56 1.437 1_555 1_555
C63 C64 1.401 1_555 1_555
C66 C67 1.429 1_555 1_555
C69 C70 1.442 1_555 1_555
C71 C72 1.353 1_555 1_555
#END
