
#######################################################################
#
#                 Cambridge Crystallographic Data Centre
#                                CCDC
#
#######################################################################
#
# If this CIF has been generated from an entry in the Cambridge
# Structural Database, then it will include bibliographic, chemical,
# crystal, experimental, refinement or atomic coordinate data resulting
# from the CCDC's data processing and validation procedures.
#
#######################################################################

data_CSD_CIF_OTUROM
_audit_creation_date 2016-09-15
_audit_creation_method CSD-ConQuest-V1
_database_code_CSD OTUROM
_database_code_depnum_ccdc_archive 'CCDC 1457936'
_chemical_formula_sum 'C27 H18'
_chemical_formula_moiety
;
C27 H18
;
_journal_coden_Cambridge 1220
_journal_volume 22
_journal_year 2016
_journal_page_first 14633
_journal_name_full 'Chem.-Eur.J. '
loop_
_publ_author_name
"M.W.van der Meijden"
"T.Balandina"
"O.Ivasenko"
"S.De Feyter"
"K.Wurst"
"R.M.Kellogg"
_chemical_name_systematic
;
7-methylhexahelicene
;
_cell_volume   1802.458
_exptl_crystal_colour 'colorless'
_exptl_crystal_density_diffrn 1.262
_exptl_crystal_description 'prism'
_diffrn_ambient_temperature 233
#These two values have been output from a single CSD field.
_refine_ls_R_factor_gt 0.0528
_refine_ls_wR_factor_gt 0.0528
_symmetry_cell_setting monoclinic
_symmetry_space_group_name_H-M 'P 21/c'
_symmetry_Int_Tables_number 14
loop_
_symmetry_equiv_pos_site_id
_symmetry_equiv_pos_as_xyz
1 x,y,z
2 -x,1/2+y,1/2-z
3 -x,-y,-z
4 x,-1/2-y,-1/2+z
_cell_length_a 13.974(2)
_cell_length_b 10.509(1)
_cell_length_c 12.287(1)
_cell_angle_alpha 90
_cell_angle_beta 92.645(4)
_cell_angle_gamma 90
_cell_formula_units_Z 4
loop_
_atom_type_symbol
_atom_type_radius_bond
C 0.68
H 0.23
loop_
_atom_site_label
_atom_site_type_symbol
_atom_site_fract_x
_atom_site_fract_y
_atom_site_fract_z
C1 C 0.1964(2) 0.0211(3) -0.0088(3)
H1 H 0.21020 0.09660 -0.04600
C2 C 0.1151(3) -0.0454(3) -0.0384(3)
H2 H 0.07480 -0.01650 -0.09660
C3 C 0.0916(3) -0.1568(3) 0.0180(3)
H3 H 0.03400 -0.19990 0.00040
C4 C 0.1523(3) -0.2012(3) 0.0976(3)
H4 H 0.13670 -0.27620 0.13450
C5 C 0.2382(3) -0.1381(3) 0.1267(3)
C6 C 0.3078(3) -0.1942(3) 0.2007(3)
H5 H 0.29180 -0.26710 0.24040
C7 C 0.3957(3) -0.1437(3) 0.2140(2)
H6 H 0.44130 -0.18610 0.25930
C8 C 0.4229(3) -0.0287(3) 0.1624(2)
C9 C 0.5206(2) 0.0109(3) 0.1638(2)
C10 C 0.5428(2) 0.1123(3) 0.1012(2)
H7 H 0.60760 0.13000 0.09070
C11 C 0.4719(2) 0.1925(3) 0.0509(2)
C12 C 0.4987(3) 0.2976(3) -0.0134(2)
H8 H 0.56380 0.31220 -0.02500
C13 C 0.4323(3) 0.3763(3) -0.0576(2)
H9 H 0.44960 0.43610 -0.11010
C14 C 0.3362(2) 0.3704(3) -0.0262(2)
C15 C 0.2711(3) 0.4684(3) -0.0596(3)
H10 H 0.28900 0.52730 -0.11250
C16 C 0.1847(3) 0.4788(3) -0.0173(3)
H11 H 0.14200 0.54210 -0.04320
C17 C 0.1572(2) 0.3946(3) 0.0669(2)
C18 C 0.0732(3) 0.4172(3) 0.1227(3)
H12 H 0.03250 0.48420 0.09980
C19 C 0.0495(3) 0.3446(4) 0.2087(3)
H13 H -0.00790 0.35950 0.24370
C20 C 0.1116(3) 0.2469(3) 0.2449(3)
H14 H 0.09700 0.19860 0.30640
C21 C 0.1928(2) 0.2215(3) 0.1915(2)
H15 H 0.23340 0.15560 0.21700
C22 C 0.2176(2) 0.2917(3) 0.0990(2)
C23 C 0.3069(2) 0.2724(3) 0.0439(2)
C24 C 0.3737(2) 0.1691(3) 0.0668(2)
C25 C 0.3499(2) 0.0420(3) 0.1050(2)
C26 C 0.2600(2) -0.0213(3) 0.0762(2)
C27 C 0.5982(3) -0.0635(3) 0.2239(3)
H16 H 0.66010 -0.02750 0.20890
H17 H 0.59570 -0.15150 0.20000
H18 H 0.58870 -0.05960 0.30160
loop_
_geom_bond_atom_site_label_1
_geom_bond_atom_site_label_2
_geom_bond_distance
_geom_bond_site_symmetry_1
_geom_bond_site_symmetry_2
C1 H1 0.940 1_555 1_555
C2 C1 1.369 1_555 1_555
H2 C2 0.940 1_555 1_555
C3 C2 1.407 1_555 1_555
H3 C3 0.940 1_555 1_555
C4 C3 1.348 1_555 1_555
H4 C4 0.940 1_555 1_555
C5 C4 1.403 1_555 1_555
C6 C5 1.428 1_555 1_555
H5 C6 0.941 1_555 1_555
C7 C6 1.341 1_555 1_555
H6 C7 0.939 1_555 1_555
C8 C7 1.425 1_555 1_555
C9 C8 1.427 1_555 1_555
C10 C9 1.358 1_555 1_555
H7 C10 0.939 1_555 1_555
C11 C10 1.420 1_555 1_555
C12 C11 1.418 1_555 1_555
H8 C12 0.940 1_555 1_555
C13 C12 1.339 1_555 1_555
H9 C13 0.940 1_555 1_555
C14 C13 1.416 1_555 1_555
C15 C14 1.422 1_555 1_555
H10 C15 0.940 1_555 1_555
C16 C15 1.341 1_555 1_555
H11 C16 0.939 1_555 1_555
C17 C16 1.427 1_555 1_555
C18 C17 1.407 1_555 1_555
H12 C18 0.940 1_555 1_555
C19 C18 1.357 1_555 1_555
H13 C19 0.941 1_555 1_555
C20 C19 1.403 1_555 1_555
H14 C20 0.940 1_555 1_555
C21 C20 1.363 1_555 1_555
H15 C21 0.940 1_555 1_555
C22 C17 1.417 1_555 1_555
C23 C14 1.415 1_555 1_555
C24 C11 1.416 1_555 1_555
C25 C8 1.423 1_555 1_555
C26 C1 1.412 1_555 1_555
C27 C9 1.503 1_555 1_555
H16 C27 0.970 1_555 1_555
H17 C27 0.970 1_555 1_555
H18 C27 0.971 1_555 1_555
C5 C26 1.415 1_555 1_555
C21 C22 1.412 1_555 1_555
C22 C23 1.461 1_555 1_555
C23 C24 1.451 1_555 1_555
C24 C25 1.459 1_555 1_555
C25 C26 1.451 1_555 1_555
#END
