
#######################################################################
#
#                 Cambridge Crystallographic Data Centre
#                                CCDC
#
#######################################################################
#
# If this CIF has been generated from an entry in the Cambridge
# Structural Database, then it will include bibliographic, chemical,
# crystal, experimental, refinement or atomic coordinate data resulting
# from the CCDC's data processing and validation procedures.
#
#######################################################################

data_CSD_CIF_OTUREC
_audit_creation_date 2016-09-15
_audit_creation_method CSD-ConQuest-V1
_database_code_CSD OTUREC
_database_code_depnum_ccdc_archive 'CCDC 1457571'
_chemical_formula_sum 'C30 H30'
_chemical_formula_moiety
;
C30 H30
;
_journal_coden_Cambridge 179
_journal_volume 55
_journal_year 2016
_journal_page_first 9277
_journal_name_full 'Angew.Chem.,Int.Ed. '
loop_
_publ_author_name
"Paul Kahl"
"J.P.Wagner"
"C.Balestrieri"
"J.Becker"
"H.Hausmann"
"G.J.Bodwell"
"P.R.Schreiner"
_chemical_name_systematic
;
octacyclo[16.7.1.1^4,8^.1^4,10^.1^6,10^.1^13,21^.0^15,20^.0^19,24^]triaconta-1
(26),13,15,17,19,21(27),22,24-octaene
;
_cell_volume   2113.249
_exptl_crystal_colour 'colorless'
_exptl_crystal_density_diffrn 1.228
_exptl_crystal_description 'block'
_diffrn_ambient_temperature 100
#These two values have been output from a single CSD field.
_refine_ls_R_factor_gt 0.0433
_refine_ls_wR_factor_gt 0.0433
_symmetry_cell_setting monoclinic
_symmetry_space_group_name_H-M 'P 21/n'
_symmetry_Int_Tables_number 14
loop_
_symmetry_equiv_pos_site_id
_symmetry_equiv_pos_as_xyz
1 x,y,z
2 1/2-x,1/2+y,1/2-z
3 -x,-y,-z
4 -1/2+x,-1/2-y,-1/2+z
_cell_length_a 9.5369(4)
_cell_length_b 17.0328(7)
_cell_length_c 13.0190(5)
_cell_angle_alpha 90
_cell_angle_beta 92.200(2)
_cell_angle_gamma 90
_cell_formula_units_Z 4
loop_
_atom_type_symbol
_atom_type_radius_bond
C 0.68
H 0.23
loop_
_atom_site_label
_atom_site_type_symbol
_atom_site_fract_x
_atom_site_fract_y
_atom_site_fract_z
C1 C 0.61006(15) 0.51775(8) 0.29378(11)
C2 C 0.46116(14) 0.51110(8) 0.33920(11)
H1 H 0.3998(16) 0.5552(9) 0.3115(12)
H2 H 0.4717(16) 0.5150(9) 0.4165(12)
C3 C 0.37372(16) 0.42759(8) 0.19301(11)
H3 H 0.3123(16) 0.4711(9) 0.1665(11)
H4 H 0.3275(17) 0.3767(10) 0.1692(12)
C4 C 0.38752(15) 0.43167(8) 0.31090(11)
C5 C 0.51910(16) 0.43362(8) 0.14584(12)
H5 H 0.5069(17) 0.4306(9) 0.0685(14)
C6 C 0.62830(15) 0.36863(8) 0.30099(11)
H6 H 0.6891(16) 0.3238(9) 0.3265(12)
C7 C 0.61024(17) 0.36471(9) 0.18387(12)
H7 H 0.7059(19) 0.3666(10) 0.1519(13)
H8 H 0.5666(16) 0.3137(10) 0.1632(12)
C8 C 0.69752(16) 0.44630(9) 0.33180(12)
H9 H 0.7128(18) 0.4487(10) 0.4099(14)
H10 H 0.7923(18) 0.4512(9) 0.3015(12)
C9 C 0.59102(16) 0.51172(9) 0.17637(12)
H11 H 0.5325(17) 0.557(1) 0.1483(12)
H12 H 0.6844(19) 0.5149(10) 0.1439(13)
C10 C 0.48518(15) 0.36421(8) 0.34858(11)
H13 H 0.4974(17) 0.3665(9) 0.4271(13)
H14 H 0.4406(16) 0.3128(10) 0.3316(12)
C11 C 0.69504(16) 0.59129(9) 0.33390(13)
H15 H 0.2507(18) 0.450(1) 0.4328(14)
H16 H 0.2501(17) 0.3624(10) 0.3907(13)
H17 H 0.6542(17) 0.6074(10) 0.4015(14)
H18 H 0.7930(19) 0.5715(9) 0.3496(13)
C12 C 0.24735(15) 0.41803(9) 0.36808(12)
C13 C 0.71431(17) 0.66741(9) 0.26960(15)
H19 H 0.0309(19) 0.4063(11) 0.3656(14)
H20 H 0.0902(17) 0.400(1) 0.2515(14)
H21 H 0.791(2) 0.6982(11) 0.3052(14)
H22 H 0.7515(18) 0.6547(10) 0.2017(14)
C14 C 0.09887(16) 0.42971(9) 0.31627(14)
C15 C 0.50373(18) 0.71179(8) 0.16380(13)
H23 H 0.0551(19) 0.5091(11) 0.1379(14)
H24 H 0.5514(18) 0.6984(10) 0.1023(14)
C16 C 0.06868(16) 0.54519(9) 0.19702(13)
C17 C 0.35703(17) 0.71211(8) 0.16061(12)
C18 C 0.11810(16) 0.62113(9) 0.17853(12)
C19 C 0.28877(16) 0.71303(8) 0.25536(11)
C20 C 0.16612(15) 0.66600(8) 0.26457(12)
C21 C 0.36485(16) 0.73606(8) 0.34623(11)
C22 C 0.12674(15) 0.64402(9) 0.36448(11)
C23 C 0.51071(17) 0.73635(8) 0.34481(13)
H25 H 0.0693(18) 0.5498(10) 0.4483(14)
H26 H 0.5633(18) 0.7414(10) 0.4104(14)
C24 C 0.07763(15) 0.56805(9) 0.37816(13)
C25 C 0.27739(19) 0.68875(9) 0.06939(12)
H27 H 0.3362(18) 0.7625(10) 0.5035(14)
H28 H 0.317(2) 0.6982(11) 0.0018(15)
C26 C 0.29184(17) 0.73610(8) 0.44194(12)
C27 C 0.16135(19) 0.64461(9) 0.07816(12)
H29 H 0.1342(19) 0.6839(10) 0.5171(15)
H30 H 0.114(2) 0.6210(11) 0.0179(15)
C28 C 0.17673(17) 0.69131(9) 0.45056(12)
C29 C 0.57882(17) 0.71195(8) 0.25711(12)
C30 C 0.06994(15) 0.51543(9) 0.29600(13)
loop_
_geom_bond_atom_site_label_1
_geom_bond_atom_site_label_2
_geom_bond_distance
_geom_bond_site_symmetry_1
_geom_bond_site_symmetry_2
C1 C2 1.563 1_555 1_555
C2 H1 1.010 1_555 1_555
H2 C2 1.010 1_555 1_555
C3 H3 0.998 1_555 1_555
H4 C3 1.015 1_555 1_555
C4 C2 1.562 1_555 1_555
C5 C3 1.541 1_555 1_555
H5 C5 1.010 1_555 1_555
C6 H6 1.007 1_555 1_555
C7 C5 1.531 1_555 1_555
H7 C7 1.018 1_555 1_555
H8 C7 0.996 1_555 1_555
C8 C1 1.546 1_555 1_555
H9 C8 1.022 1_555 1_555
H10 C8 1.003 1_555 1_555
C9 C1 1.536 1_555 1_555
H11 C9 1.012 1_555 1_555
H12 C9 1.002 1_555 1_555
C10 C4 1.547 1_555 1_555
H13 C10 1.025 1_555 1_555
H14 C10 0.995 1_555 1_555
C11 C1 1.570 1_555 1_555
H15 C12 1.003 1_555 1_555
H16 C12 0.992 1_555 1_555
H17 C11 1.014 1_555 1_555
H18 C11 1.007 1_555 1_555
C12 C4 1.572 1_555 1_555
C13 C11 1.558 1_555 1_555
H19 C14 1.012 1_555 1_555
H20 C14 0.984 1_555 1_555
H21 C13 0.999 1_555 1_555
H22 C13 0.989 1_555 1_555
C14 C12 1.558 1_555 1_555
C15 H24 0.963 1_555 1_555
H23 C16 0.990 1_555 1_555
C16 C18 1.401 1_555 1_555
C17 C15 1.398 1_555 1_555
C18 C20 1.417 1_555 1_555
C19 C17 1.417 1_555 1_555
C20 C19 1.427 1_555 1_555
C21 C19 1.419 1_555 1_555
C22 C20 1.418 1_555 1_555
C23 C21 1.392 1_555 1_555
H25 C24 0.971 1_555 1_555
H26 C23 0.977 1_555 1_555
C24 C22 1.390 1_555 1_555
C25 C17 1.441 1_555 1_555
H27 C26 0.999 1_555 1_555
H28 C25 0.984 1_555 1_555
C26 C21 1.451 1_555 1_555
C27 C18 1.442 1_555 1_555
H29 C28 0.979 1_555 1_555
H30 C27 0.977 1_555 1_555
C28 C22 1.446 1_555 1_555
C29 C13 1.502 1_555 1_555
C30 C14 1.507 1_555 1_555
C3 C4 1.537 1_555 1_555
C5 C9 1.542 1_555 1_555
C6 C7 1.529 1_555 1_555
C6 C8 1.525 1_555 1_555
C6 C10 1.522 1_555 1_555
C15 C29 1.386 1_555 1_555
C16 C30 1.384 1_555 1_555
C23 C29 1.398 1_555 1_555
C24 C30 1.395 1_555 1_555
C25 C27 1.346 1_555 1_555
C26 C28 1.345 1_555 1_555
#END
