
#######################################################################
#
#                 Cambridge Crystallographic Data Centre
#                                CCDC
#
#######################################################################
#
# If this CIF has been generated from an entry in the Cambridge
# Structural Database, then it will include bibliographic, chemical,
# crystal, experimental, refinement or atomic coordinate data resulting
# from the CCDC's data processing and validation procedures.
#
#######################################################################

data_CSD_CIF_OVALEN01
_audit_creation_date 1974-05-08
_audit_creation_method CSD-ConQuest-V1
_database_code_CSD OVALEN01
_chemical_formula_sum 'C32 H14'
_chemical_formula_moiety
;
C32 H14
;
_journal_coden_Cambridge 5
_journal_volume 137
_journal_year 1973
_journal_page_first 159
_journal_name_full 'Z.Kristallogr.,Kristallgeom.,Kristallphys.,Kristallchem. '
loop_
_publ_author_name
"R.G.Hazell"
"G.S.Pawley"
_chemical_name_systematic
;
Ovalene
;
_chemical_name_common
;
Octabenzonaphthalene
;
_cell_volume    894.516
_exptl_special_details
;
y(C1)=-.0022, not -.0217

;
_diffrn_ambient_temperature ?
_diffrn_special_details
;
The study was carried out at room temperature,in the range 283-303K

;
#These two values have been output from a single CSD field.
_refine_ls_R_factor_gt 0.0831
_refine_ls_wR_factor_gt 0.0831
_symmetry_cell_setting monoclinic
_symmetry_space_group_name_H-M 'P 21/a'
_symmetry_Int_Tables_number 14
loop_
_symmetry_equiv_pos_site_id
_symmetry_equiv_pos_as_xyz
1 x,y,z
2 1/2-x,1/2+y,-z
3 -x,-y,-z
4 -1/2+x,-1/2-y,z
_cell_length_a 19.47(5)
_cell_length_b 4.70(1)
_cell_length_c 10.12(4)
_cell_angle_alpha 90
_cell_angle_beta 105.0(3)
_cell_angle_gamma 90
_cell_formula_units_Z 2
loop_
_atom_type_symbol
_atom_type_radius_bond
C 0.68
H 0.20
loop_
_atom_site_label
_atom_site_type_symbol
_atom_site_fract_x
_atom_site_fract_y
_atom_site_fract_z
C1 C 0.05820 -0.00220 0.31570
C2 C -0.04240 -0.32430 0.23390
C3 C 0.00940 -0.20130 0.34060
C4 C 0.00190 -0.04070 0.06920
C5 C 0.05420 0.08030 0.17830
C6 C 0.10300 0.28680 0.15120
C7 C 0.09490 0.36770 0.01350
C8 C -0.04630 -0.24430 0.09670
C9 C 0.11280 0.12350 0.42350
C10 C 0.15940 0.31860 0.39680
C11 C 0.15590 0.40840 0.26020
C12 C 0.20270 0.61230 0.22900
C13 C 0.19820 0.69350 0.09750
C14 C 0.14690 0.57460 -0.01370
C15 C 0.14190 0.64890 -0.15270
C16 C -0.09300 -0.53040 0.25730
H1 H 0.11800 0.06500 0.52600
H2 H 0.19300 0.41400 0.47400
H3 H 0.23400 0.70600 0.29900
H4 H 0.22600 0.84600 0.07700
H5 H 0.17200 0.78700 -0.16300
H6 H -0.09200 -0.58600 0.34700
H7 H 0.01400 -0.26300 0.44100
C4B C -0.00190 0.04070 -0.06920
C8B C 0.04630 0.24430 -0.09670
C7B C -0.09490 -0.36770 -0.01350
C16B C 0.09300 0.53040 -0.25730
C15B C -0.14190 -0.64890 0.15270
C5B C -0.05420 -0.08030 -0.17830
C2B C 0.04240 0.32430 -0.23390
C6B C -0.10300 -0.28680 -0.15120
C14B C -0.14690 -0.57460 0.01370
H6B H 0.09200 0.58600 -0.34700
H5B H -0.17200 -0.78700 0.16300
C1B C -0.05820 0.00220 -0.31570
C3B C -0.00940 0.20130 -0.34060
C11B C -0.15590 -0.40840 -0.26020
C13B C -0.19820 -0.69350 -0.09750
C9B C -0.11280 -0.12350 -0.42350
H7B H -0.01400 0.26300 -0.44100
C10B C -0.15940 -0.31860 -0.39680
C12B C -0.20270 -0.61230 -0.22900
H4B H -0.22600 -0.84600 -0.07700
H1B H -0.11800 -0.06500 -0.52600
H2B H -0.19300 -0.41400 -0.47400
H3B H -0.23400 -0.70600 -0.29900
loop_
_geom_bond_atom_site_label_1
_geom_bond_atom_site_label_2
_geom_bond_distance
_geom_bond_site_symmetry_1
_geom_bond_site_symmetry_2
C1 C3 1.402 1_555 1_555
C2 C3 1.398 1_555 1_555
C3 H7 1.038 1_555 1_555
C4 C5 1.413 1_555 1_555
C5 C1 1.426 1_555 1_555
C6 C5 1.433 1_555 1_555
C7 C6 1.413 1_555 1_555
C8 C2 1.421 1_555 1_555
C9 C1 1.438 1_555 1_555
C10 C9 1.365 1_555 1_555
C11 C6 1.420 1_555 1_555
C12 C11 1.413 1_555 1_555
C13 C12 1.365 1_555 1_555
C14 C7 1.480 1_555 1_555
C15 C14 1.428 1_555 1_555
C16 C2 1.444 1_555 1_555
H1 C9 1.052 1_555 1_555
H2 C10 0.987 1_555 1_555
H3 C12 0.919 1_555 1_555
H4 C13 0.953 1_555 1_555
H5 C15 0.898 1_555 1_555
H6 C16 0.940 1_555 1_555
C4B C4 1.435 1_555 1_555
C8B C7 1.389 1_555 1_555
C7B C8 1.389 1_555 1_555
C16B C15 1.347 1_555 1_555
C15B C16 1.347 1_555 1_555
C5B C4B 1.413 1_555 1_555
C2B C8B 1.421 1_555 1_555
C6B C7B 1.413 1_555 1_555
C14B C7B 1.480 1_555 1_555
H6B C16B 0.940 1_555 1_555
H5B C15B 0.898 1_555 1_555
C1B C5B 1.426 1_555 1_555
C3B C2B 1.398 1_555 1_555
C11B C6B 1.420 1_555 1_555
C13B C14B 1.412 1_555 1_555
C9B C1B 1.438 1_555 1_555
H7B C3B 1.038 1_555 1_555
C10B C11B 1.430 1_555 1_555
C12B C11B 1.413 1_555 1_555
H4B C13B 0.953 1_555 1_555
H1B C9B 1.052 1_555 1_555
H2B C10B 0.987 1_555 1_555
H3B C12B 0.919 1_555 1_555
C4 C8 1.417 1_555 1_555
C10 C11 1.430 1_555 1_555
C13 C14 1.412 1_555 1_555
C4B C8B 1.417 1_555 1_555
C16B C2B 1.444 1_555 1_555
C15B C14B 1.428 1_555 1_555
C5B C6B 1.433 1_555 1_555
C1B C3B 1.402 1_555 1_555
C13B C12B 1.365 1_555 1_555
C9B C10B 1.365 1_555 1_555
#END
