
#######################################################################
#
#                 Cambridge Crystallographic Data Centre
#                                CCDC
#
#######################################################################
#
# If this CIF has been generated from an entry in the Cambridge
# Structural Database, then it will include bibliographic, chemical,
# crystal, experimental, refinement or atomic coordinate data resulting
# from the CCDC's data processing and validation procedures.
#
#######################################################################

data_CSD_CIF_OVEQOX
_audit_creation_date 2016-09-16
_audit_creation_method CSD-ConQuest-V1
_database_code_CSD OVEQOX
_database_code_depnum_ccdc_archive 'CCDC 1491939'
_chemical_formula_sum 'C32 H20'
_chemical_formula_moiety
;
C32 H20
;
_journal_coden_Cambridge 1540
_journal_volume 6
_journal_year 2016
_journal_page_first 33131
_journal_name_full 'Scientific Reports '
loop_
_publ_author_name
"Chendan Zhu"
"Yue Zhao"
"Di Wang"
"Wei-Yin Sun"
"Zhuangzhi Shi"
_chemical_name_systematic
;
dibenzo[a,i]tetraphenylene
;
_cell_volume   4314.539
_exptl_crystal_density_diffrn 1.245
_diffrn_ambient_temperature 296
#These two values have been output from a single CSD field.
_refine_ls_R_factor_gt 0.0526
_refine_ls_wR_factor_gt 0.0526
_symmetry_cell_setting orthorhombic
_symmetry_space_group_name_H-M 'P b c a'
_symmetry_Int_Tables_number 61
loop_
_symmetry_equiv_pos_site_id
_symmetry_equiv_pos_as_xyz
1 x,y,z
2 1/2-x,-y,1/2+z
3 -x,1/2+y,1/2-z
4 1/2+x,1/2-y,-z
5 -x,-y,-z
6 -1/2+x,y,-1/2-z
7 x,-1/2-y,-1/2+z
8 -1/2-x,-1/2+y,z
_cell_length_a 17.468(3)
_cell_length_b 13.475(3)
_cell_length_c 18.330(4)
_cell_angle_alpha 90
_cell_angle_beta 90
_cell_angle_gamma 90
_cell_formula_units_Z 8
loop_
_atom_type_symbol
_atom_type_radius_bond
C 0.68
H 0.23
loop_
_atom_site_label
_atom_site_type_symbol
_atom_site_fract_x
_atom_site_fract_y
_atom_site_fract_z
C1 C 0.29886(11) 0.07930(14) 0.09804(11)
C2 C 0.35712(11) 0.10477(16) 0.14828(12)
H1 H 0.34700 0.15120 0.18460
C3 C 0.42810(13) 0.06213(19) 0.14432(13)
H2 H 0.46550 0.07990 0.17790
C4 C 0.44499(15) -0.0075(2) 0.09062(15)
H3 H 0.49340 -0.03610 0.08850
C5 C 0.39077(16) -0.0336(2) 0.04143(15)
H4 H 0.40250 -0.08040 0.00580
C6 C 0.31698(13) 0.00867(16) 0.04296(12)
C7 C 0.26036(15) -0.01754(18) -0.00784(13)
H5 H 0.27190 -0.06300 -0.04440
C8 C 0.18936(14) 0.02208(18) -0.00462(12)
H6 H 0.15290 0.00350 -0.03900
C9 C 0.16962(12) 0.09158(15) 0.05033(11)
C10 C 0.22336(11) 0.12102(14) 0.1005(1)
C11 C 0.20405(10) 0.19755(13) 0.15662(10)
C12 C 0.23823(12) 0.29062(15) 0.15320(12)
H7 H 0.27190 0.30500 0.11530
C13 C 0.22293(14) 0.36184(16) 0.20508(14)
H8 H 0.24620 0.42380 0.20200
C14 C 0.17356(14) 0.34158(17) 0.26120(15)
H9 H 0.16350 0.38970 0.29630
C15 C 0.13899(11) 0.25049(16) 0.26569(12)
H10 H 0.10590 0.23720 0.30420
C16 C 0.15271(10) 0.17769(13) 0.21354(10)
C17 C 0.11449(10) 0.07952(14) 0.21994(10)
C18 C 0.13064(11) 0.01873(16) 0.27926(11)
H11 H 0.16420 0.04100 0.31510
C19 C 0.09795(13) -0.07362(18) 0.28584(14)
H12 H 0.10950 -0.11350 0.32570
C20 C 0.04836(13) -0.10652(17) 0.23339(15)
H13 H 0.02690 -0.16950 0.23720
C21 C 0.03014(12) -0.04685(15) 0.17510(13)
H14 H -0.00420 -0.06960 0.14020
C22 C 0.06221(10) 0.04693(14) 0.16752(10)
C23 C 0.03920(11) 0.11180(14) 0.10525(10)
C24 C -0.03712(12) 0.15153(14) 0.10224(11)
C25 C -0.09227(12) 0.13454(16) 0.15705(12)
H15 H -0.07970 0.09490 0.19680
C26 C -0.16378(13) 0.17520(17) 0.15285(14)
H16 H -0.19910 0.16320 0.18980
C27 C -0.18425(15) 0.23435(19) 0.09386(16)
H17 H -0.23300 0.26180 0.09140
C28 C -0.13312(16) 0.25192(17) 0.04015(15)
H18 H -0.14750 0.29130 0.00080
C29 C -0.05803(14) 0.21176(15) 0.04230(12)
C30 C -0.00427(17) 0.22958(18) -0.01323(13)
H19 H -0.01820 0.26820 -0.05310
C31 C 0.06757(15) 0.19155(17) -0.00978(12)
H20 H 0.10210 0.20440 -0.04720
C32 C 0.09048(12) 0.13251(14) 0.05029(11)
loop_
_geom_bond_atom_site_label_1
_geom_bond_atom_site_label_2
_geom_bond_distance
_geom_bond_site_symmetry_1
_geom_bond_site_symmetry_2
C1 C2 1.415 1_555 1_555
C2 H1 0.931 1_555 1_555
C3 C2 1.368 1_555 1_555
H2 C3 0.929 1_555 1_555
C4 C3 1.392 1_555 1_555
H3 C4 0.930 1_555 1_555
C5 C4 1.354 1_555 1_555
H4 C5 0.931 1_555 1_555
C6 C1 1.423 1_555 1_555
C7 C6 1.404 1_555 1_555
H5 C7 0.930 1_555 1_555
C8 C7 1.352 1_555 1_555
H6 C8 0.930 1_555 1_555
C9 C8 1.418 1_555 1_555
C10 C1 1.434 1_555 1_555
C11 C10 1.495 1_555 1_555
C12 C11 1.390 1_555 1_555
H7 C12 0.931 1_555 1_555
C13 C12 1.377 1_555 1_555
H8 C13 0.930 1_555 1_555
C14 C13 1.370 1_555 1_555
H9 C14 0.930 1_555 1_555
C15 C14 1.370 1_555 1_555
H10 C15 0.930 1_555 1_555
C16 C11 1.402 1_555 1_555
C17 C16 1.486 1_555 1_555
C18 C17 1.390 1_555 1_555
H11 C18 0.930 1_555 1_555
C19 C18 1.374 1_555 1_555
H12 C19 0.929 1_555 1_555
C20 C19 1.368 1_555 1_555
H13 C20 0.930 1_555 1_555
C21 C20 1.375 1_555 1_555
H14 C21 0.929 1_555 1_555
C22 C17 1.396 1_555 1_555
C23 C22 1.493 1_555 1_555
C24 C23 1.438 1_555 1_555
C25 C24 1.411 1_555 1_555
H15 C25 0.930 1_555 1_555
C26 C25 1.366 1_555 1_555
H16 C26 0.930 1_555 1_555
C27 C26 1.390 1_555 1_555
H17 C27 0.930 1_555 1_555
C28 C27 1.350 1_555 1_555
H18 C28 0.930 1_555 1_555
C29 C24 1.414 1_555 1_555
C30 C29 1.406 1_555 1_555
H19 C30 0.930 1_555 1_555
C31 C30 1.357 1_555 1_555
H20 C31 0.930 1_555 1_555
C32 C9 1.488 1_555 1_555
C5 C6 1.409 1_555 1_555
C9 C10 1.373 1_555 1_555
C15 C16 1.391 1_555 1_555
C21 C22 1.389 1_555 1_555
C23 C32 1.377 1_555 1_555
C28 C29 1.419 1_555 1_555
C31 C32 1.416 1_555 1_555
#END
