
#######################################################################
#
#                 Cambridge Crystallographic Data Centre
#                                CCDC
#
#######################################################################
#
# If this CIF has been generated from an entry in the Cambridge
# Structural Database, then it will include bibliographic, chemical,
# crystal, experimental, refinement or atomic coordinate data resulting
# from the CCDC's data processing and validation procedures.
#
#######################################################################

data_CSD_CIF_OVILOW
_audit_creation_date 2016-09-19
_audit_creation_method CSD-ConQuest-V1
_database_code_CSD OVILOW
_database_code_depnum_ccdc_archive 'CCDC 1438969'
_chemical_formula_sum 'C40 H22'
_chemical_formula_moiety
;
C40 H22
;
_journal_coden_Cambridge 35
_journal_volume 81
_journal_year 2016
_journal_page_first 8312
_journal_name_full 'J.Org.Chem. '
loop_
_publ_author_name
"Bingxin Yuan"
"Junpeng Zhuang"
"K.M.Kirmess"
"C.N.Bridgmohan"
"A.C.Whalley"
"Lichang Wang"
"K.N.Plunkett"
_chemical_name_systematic
;
7,14-diphenylacenaphtho[1',2':4,5]pentaleno[1,2-a]acenaphthylene
;
_chemical_name_common
;
7,14-diphenylpentaleno[1,2-a:4,5-a']diacenaphthylene
;
_cell_volume   1212.224
_exptl_crystal_colour 'red'
_exptl_crystal_density_diffrn 1.377
_exptl_special_details
;
The data crystal was mounted using oil (Parantone-N, Exxon) to a  0.3 mm 
cryo-loop (Hampton Research) with the (-3 0 4) scattering  planes roughly 
normal to the spindle axis.
;
_exptl_crystal_description 'tablet'
_diffrn_ambient_temperature 100
#These two values have been output from a single CSD field.
_refine_ls_R_factor_gt 0.0428
_refine_ls_wR_factor_gt 0.0428
_symmetry_cell_setting monoclinic
_symmetry_space_group_name_H-M 'P 21/n'
_symmetry_Int_Tables_number 14
loop_
_symmetry_equiv_pos_site_id
_symmetry_equiv_pos_as_xyz
1 x,y,z
2 1/2-x,1/2+y,1/2-z
3 -x,-y,-z
4 -1/2+x,-1/2-y,-1/2+z
_cell_length_a 12.8411(10)
_cell_length_b 6.8502(5)
_cell_length_c 14.7405(11)
_cell_angle_alpha 90
_cell_angle_beta 110.788(4)
_cell_angle_gamma 90
_cell_formula_units_Z 2
loop_
_atom_type_symbol
_atom_type_radius_bond
C 0.68
H 0.23
loop_
_atom_site_label
_atom_site_type_symbol
_atom_site_fract_x
_atom_site_fract_y
_atom_site_fract_z
C1 C 0.55963(12) 0.4926(2) 0.50771(11)
C2 C 0.61460(13) 0.4612(2) 0.60494(12)
C3 C 0.72434(13) 0.4465(2) 0.68138(11)
C4 C 0.83319(13) 0.4495(2) 0.68572(12)
H1 H 0.85000 0.45940 0.62810
C5 C 0.91963(14) 0.4375(2) 0.77734(12)
H2 H 0.99470 0.43770 0.78010
C6 C 0.89914(13) 0.4256(2) 0.86278(12)
H3 H 0.95960 0.41800 0.92290
C7 C 0.78817(13) 0.4244(2) 0.86133(11)
C8 C 0.70324(13) 0.4336(2) 0.76958(11)
C9 C 0.75374(14) 0.4108(2) 0.94224(12)
H4 H 0.80800 0.40190 1.00570
C10 C 0.64229(14) 0.4103(2) 0.92978(12)
H5 H 0.62160 0.40060 0.98540
C11 C 0.55751(14) 0.4237(2) 0.83723(12)
H6 H 0.48130 0.42500 0.83090
C12 C 0.58763(13) 0.4349(2) 0.75646(11)
C13 C 0.52900(13) 0.4518(2) 0.65203(11)
C14 C 0.42438(13) 0.4792(2) 0.58542(11)
C15 C 0.31835(13) 0.4862(2) 0.60222(11)
C16 C 0.23787(13) 0.6258(3) 0.55634(12)
H7 H 0.25220 0.71890 0.51450
C17 C 0.13719(14) 0.6302(3) 0.57121(12)
H8 H 0.08310 0.72610 0.53950
C18 C 0.11523(14) 0.4955(3) 0.63199(13)
H9 H 0.04580 0.49770 0.64140
C19 C 0.19483(14) 0.3574(3) 0.67909(12)
H10 H 0.18050 0.26610 0.72170
C20 C 0.29567(13) 0.3522(2) 0.66407(11)
H11 H 0.34970 0.25660 0.69620
C1B C 0.44037(12) 0.5074(2) 0.49229(11)
C2B C 0.38540(13) 0.5388(2) 0.39506(12)
C3B C 0.27566(13) 0.5535(2) 0.31862(11)
C4B C 0.16681(13) 0.5505(2) 0.31428(12)
H1B H 0.15000 0.54060 0.37190
C5B C 0.08037(14) 0.5625(2) 0.22266(12)
H2B H 0.00530 0.56230 0.21990
C6B C 0.10086(13) 0.5744(2) 0.13722(12)
H3B H 0.04040 0.58200 0.07710
C7B C 0.21183(13) 0.5756(2) 0.13867(11)
C8B C 0.29676(13) 0.5664(2) 0.23042(11)
C9B C 0.24626(14) 0.5892(2) 0.05776(12)
H4B H 0.19200 0.59810 -0.00570
C10B C 0.35771(14) 0.5897(2) 0.07022(12)
H5B H 0.37840 0.59940 0.01460
C11B C 0.44249(14) 0.5763(2) 0.16277(12)
H6B H 0.51870 0.57500 0.16910
C12B C 0.41237(13) 0.5651(2) 0.24354(11)
C13B C 0.47100(13) 0.5482(2) 0.34797(11)
C14B C 0.57562(13) 0.5208(2) 0.41458(11)
C15B C 0.68165(13) 0.5138(2) 0.39778(11)
C16B C 0.76213(13) 0.3742(3) 0.44366(12)
H7B H 0.74780 0.28110 0.48550
C17B C 0.86281(14) 0.3698(3) 0.42879(12)
H8B H 0.91690 0.27390 0.46050
C18B C 0.88477(14) 0.5045(3) 0.36801(13)
H9B H 0.95420 0.50230 0.35860
C19B C 0.80517(14) 0.6426(3) 0.32091(12)
H10B H 0.81950 0.73390 0.27830
C20B C 0.70433(13) 0.6478(2) 0.33593(11)
H11B H 0.65030 0.74340 0.30380
loop_
_geom_bond_atom_site_label_1
_geom_bond_atom_site_label_2
_geom_bond_distance
_geom_bond_site_symmetry_1
_geom_bond_site_symmetry_2
C1 C2 1.371 1_555 1_555
C2 C3 1.462 1_555 1_555
C3 C4 1.377 1_555 1_555
C4 H1 0.950 1_555 1_555
C5 C4 1.414 1_555 1_555
H2 C5 0.950 1_555 1_555
C6 C5 1.377 1_555 1_555
H3 C6 0.950 1_555 1_555
C7 C6 1.418 1_555 1_555
C8 C3 1.422 1_555 1_555
C9 C7 1.415 1_555 1_555
H4 C9 0.950 1_555 1_555
C10 C9 1.377 1_555 1_555
H5 C10 0.950 1_555 1_555
C11 C10 1.414 1_555 1_555
H6 C11 0.950 1_555 1_555
C12 C8 1.427 1_555 1_555
C13 C2 1.495 1_555 1_555
C14 C13 1.367 1_555 1_555
C15 C14 1.469 1_555 1_555
C16 C15 1.394 1_555 1_555
H7 C16 0.949 1_555 1_555
C17 C16 1.386 1_555 1_555
H8 C17 0.950 1_555 1_555
C18 C17 1.383 1_555 1_555
H9 C18 0.950 1_555 1_555
C19 C18 1.385 1_555 1_555
H10 C19 0.950 1_555 1_555
C20 C15 1.395 1_555 1_555
H11 C20 0.949 1_555 1_555
C1B C1 1.470 1_555 1_555
C2B C1B 1.371 1_555 1_555
C3B C2B 1.462 1_555 1_555
C4B C3B 1.377 1_555 1_555
H1B C4B 0.950 1_555 1_555
C5B C4B 1.414 1_555 1_555
H2B C5B 0.950 1_555 1_555
C6B C5B 1.377 1_555 1_555
H3B C6B 0.950 1_555 1_555
C7B C6B 1.418 1_555 1_555
C8B C3B 1.422 1_555 1_555
C9B C7B 1.415 1_555 1_555
H4B C9B 0.950 1_555 1_555
C10B C9B 1.377 1_555 1_555
H5B C10B 0.950 1_555 1_555
C11B C10B 1.414 1_555 1_555
H6B C11B 0.950 1_555 1_555
C12B C8B 1.427 1_555 1_555
C13B C2B 1.495 1_555 1_555
C14B C1 1.471 1_555 1_555
C15B C14B 1.469 1_555 1_555
C16B C15B 1.394 1_555 1_555
H7B C16B 0.949 1_555 1_555
C17B C16B 1.386 1_555 1_555
H8B C17B 0.950 1_555 1_555
C18B C17B 1.383 1_555 1_555
H9B C18B 0.950 1_555 1_555
C19B C18B 1.385 1_555 1_555
H10B C19B 0.950 1_555 1_555
C20B C15B 1.395 1_555 1_555
H11B C20B 0.949 1_555 1_555
C7 C8 1.406 1_555 1_555
C11 C12 1.378 1_555 1_555
C12 C13 1.458 1_555 1_555
C14 C1B 1.471 1_555 1_555
C19 C20 1.389 1_555 1_555
C7B C8B 1.406 1_555 1_555
C11B C12B 1.378 1_555 1_555
C12B C13B 1.458 1_555 1_555
C13B C14B 1.367 1_555 1_555
C19B C20B 1.389 1_555 1_555
#END
