
#######################################################################
#
#                 Cambridge Crystallographic Data Centre
#                                CCDC
#
#######################################################################
#
# If this CIF has been generated from an entry in the Cambridge
# Structural Database, then it will include bibliographic, chemical,
# crystal, experimental, refinement or atomic coordinate data resulting
# from the CCDC's data processing and validation procedures.
#
#######################################################################

data_CSD_CIF_OXOVOO
_audit_creation_date 2016-10-19
_audit_creation_method CSD-ConQuest-V1
_database_code_CSD OXOVOO
_database_code_depnum_ccdc_archive 'CCDC 1482704'
_chemical_formula_sum 'C30 H18'
_chemical_formula_moiety
;
C30 H18
;
_journal_coden_Cambridge 1336
_journal_volume 18
_journal_year 2016
_journal_page_first 4876
_journal_name_full 'Org.Lett. '
loop_
_publ_author_name
"S.Kumar"
"Man-Tzu Ho"
"Yu-Tai Tao"
_chemical_name_systematic
;
8-phenyldibenzo[f,pqr]tetraphene
;
_cell_volume   1850.082
_exptl_crystal_colour 'yellow'
_exptl_crystal_density_diffrn 1.359
_exptl_crystal_description 'prism'
_diffrn_ambient_temperature 296
#These two values have been output from a single CSD field.
_refine_ls_R_factor_gt 0.0549
_refine_ls_wR_factor_gt 0.0549
_symmetry_cell_setting monoclinic
_symmetry_space_group_name_H-M 'P 21/c'
_symmetry_Int_Tables_number 14
loop_
_symmetry_equiv_pos_site_id
_symmetry_equiv_pos_as_xyz
1 x,y,z
2 -x,1/2+y,1/2-z
3 -x,-y,-z
4 x,-1/2-y,-1/2+z
_cell_length_a 12.5439(17)
_cell_length_b 5.7438(10)
_cell_length_c 26.240(3)
_cell_angle_alpha 90
_cell_angle_beta 101.881(6)
_cell_angle_gamma 90
_cell_formula_units_Z 4
loop_
_atom_type_symbol
_atom_type_radius_bond
C 0.68
H 0.23
loop_
_atom_site_label
_atom_site_type_symbol
_atom_site_fract_x
_atom_site_fract_y
_atom_site_fract_z
C1 C 0.0621(2) -0.0993(5) 0.10624(10)
C2 C 0.0210(2) -0.2917(5) 0.12846(10)
H1 H 0.06700 -0.41500 0.14100
C3 C -0.0866(2) -0.3006(6) 0.13196(11)
H2 H -0.11270 -0.42890 0.14730
C4 C -0.1563(3) -0.1214(6) 0.11300(12)
H3 H -0.22870 -0.12640 0.11630
C5 C -0.1182(2) 0.0658(6) 0.08910(12)
H4 H -0.16550 0.18520 0.07530
C6 C -0.0094(2) 0.0760(5) 0.08571(11)
H5 H 0.01570 0.20240 0.06940
C7 C 0.1801(2) -0.0834(5) 0.10341(10)
C8 C 0.2522(2) 0.0750(5) 0.13231(10)
C9 C 0.2269(2) 0.2189(5) 0.17499(11)
C10 C 0.1417(2) 0.1665(6) 0.20041(11)
H6 H 0.10200 0.03070 0.19130
C11 C 0.1145(3) 0.3075(6) 0.23826(12)
H7 H 0.05790 0.26610 0.25440
C12 C 0.1721(3) 0.5110(7) 0.25199(13)
H8 H 0.15110 0.61310 0.27570
C13 C 0.2594(3) 0.5611(6) 0.23070(12)
H9 H 0.29910 0.69610 0.24090
C14 C 0.2915(2) 0.4136(6) 0.19361(11)
C15 C 0.3961(2) 0.4508(6) 0.17773(11)
C16 C 0.4669(3) 0.6296(7) 0.19826(13)
H10 H 0.44530 0.73610 0.22090
C17 C 0.5682(4) 0.6535(8) 0.18607(16)
H11 H 0.61380 0.77450 0.20050
C18 C 0.6013(3) 0.5004(8) 0.15301(17)
H12 H 0.67000 0.51640 0.14530
C19 C 0.5331(3) 0.3189(7) 0.13044(13)
C20 C 0.4288(2) 0.2904(6) 0.14312(11)
C21 C 0.3585(2) 0.1050(5) 0.11971(10)
C22 C 0.3932(2) -0.0434(6) 0.08359(11)
C23 C 0.4979(3) -0.0084(7) 0.07150(14)
H13 H 0.52080 -0.10670 0.04770
C24 C 0.5644(3) 0.1644(7) 0.09386(15)
H14 H 0.63220 0.18270 0.08510
C25 C 0.3234(2) -0.2252(6) 0.05877(11)
C26 C 0.3570(3) -0.3947(6) 0.02581(12)
H15 H 0.42830 -0.39160 0.02080
C27 C 0.2879(3) -0.5608(6) 0.00145(12)
H16 H 0.31260 -0.67110 -0.01940
C28 C 0.1803(3) -0.5667(6) 0.00748(12)
H17 H 0.13270 -0.67860 -0.00990
C29 C 0.1448(2) -0.4084(6) 0.03884(11)
H18 H 0.07240 -0.41250 0.04200
C30 C 0.2151(2) -0.2370(5) 0.06685(10)
loop_
_geom_bond_atom_site_label_1
_geom_bond_atom_site_label_2
_geom_bond_distance
_geom_bond_site_symmetry_1
_geom_bond_site_symmetry_2
C1 C2 1.397 1_555 1_555
C2 H1 0.930 1_555 1_555
C3 C2 1.373 1_555 1_555
H2 C3 0.931 1_555 1_555
C4 C3 1.376 1_555 1_555
H3 C4 0.930 1_555 1_555
C5 C4 1.379 1_555 1_555
H4 C5 0.930 1_555 1_555
C6 C1 1.382 1_555 1_555
H5 C6 0.930 1_555 1_555
C7 C1 1.500 1_555 1_555
C8 C7 1.392 1_555 1_555
C9 C8 1.478 1_555 1_555
C10 C9 1.404 1_555 1_555
H6 C10 0.930 1_555 1_555
C11 C10 1.378 1_555 1_555
H7 C11 0.929 1_555 1_555
C12 C11 1.382 1_555 1_555
H8 C12 0.932 1_555 1_555
C13 C12 1.359 1_555 1_555
H9 C13 0.931 1_555 1_555
C14 C9 1.408 1_555 1_555
C15 C14 1.472 1_555 1_555
C16 C15 1.392 1_555 1_555
H10 C16 0.931 1_555 1_555
C17 C16 1.380 1_555 1_555
H11 C17 0.930 1_555 1_555
C18 C17 1.359 1_555 1_555
H12 C18 0.929 1_555 1_555
C19 C18 1.400 1_555 1_555
C20 C15 1.413 1_555 1_555
C21 C8 1.449 1_555 1_555
C22 C21 1.409 1_555 1_555
C23 C22 1.427 1_555 1_555
H13 C23 0.930 1_555 1_555
C24 C19 1.421 1_555 1_555
H14 C24 0.931 1_555 1_555
C25 C22 1.431 1_555 1_555
C26 C25 1.423 1_555 1_555
H15 C26 0.931 1_555 1_555
C27 C26 1.357 1_555 1_555
H16 C27 0.931 1_555 1_555
C28 C27 1.391 1_555 1_555
H17 C28 0.930 1_555 1_555
C29 C28 1.361 1_555 1_555
H18 C29 0.929 1_555 1_555
C30 C7 1.437 1_555 1_555
C5 C6 1.387 1_555 1_555
C13 C14 1.410 1_555 1_555
C19 C20 1.424 1_555 1_555
C20 C21 1.437 1_555 1_555
C23 C24 1.350 1_555 1_555
C25 C30 1.419 1_555 1_555
C29 C30 1.421 1_555 1_555
#END
