
#######################################################################
#
#                 Cambridge Crystallographic Data Centre
#                                CCDC
#
#######################################################################
#
# If this CIF has been generated from an entry in the Cambridge
# Structural Database, then it will include bibliographic, chemical,
# crystal, experimental, refinement or atomic coordinate data resulting
# from the CCDC's data processing and validation procedures.
#
#######################################################################

data_CSD_CIF_OYUNUS
_audit_creation_date 2011-12-12
_audit_creation_method CSD-ConQuest-V1
_database_code_CSD OYUNUS
_database_code_depnum_ccdc_archive 'CCDC 759636'
_chemical_formula_sum 'C25 H20'
_chemical_formula_moiety
;
C25 H20
;
_journal_coden_Cambridge 579
_journal_volume 30
_journal_year 2011
_journal_page_first 627
_journal_name_full 'Organometallics '
loop_
_publ_author_name
"Zhi-Bin Zhu"
"Kai Chen"
"Yin Wei"
"Min Shi"
_chemical_name_systematic
;
7,7-Dimethyl-5-phenyl-7H-benzo[c]fluorene
;
_cell_volume   1806.716
_exptl_crystal_colour 'colorless'
_exptl_crystal_density_diffrn 1.178
_exptl_special_details
;
Absolute configuration

;
_exptl_crystal_description 'prismatic'
_diffrn_ambient_temperature 293
#These two values have been output from a single CSD field.
_refine_ls_R_factor_gt 0.0475
_refine_ls_wR_factor_gt 0.0475
_symmetry_cell_setting orthorhombic
_symmetry_space_group_name_H-M 'P 21 21 21'
_symmetry_Int_Tables_number 19
loop_
_symmetry_equiv_pos_site_id
_symmetry_equiv_pos_as_xyz
1 x,y,z
2 1/2-x,-y,1/2+z
3 -x,1/2+y,1/2-z
4 1/2+x,1/2-y,-z
_cell_length_a 8.1602(14)
_cell_length_b 13.070(2)
_cell_length_c 16.940(3)
_cell_angle_alpha 90
_cell_angle_beta 90
_cell_angle_gamma 90
_cell_formula_units_Z 4
loop_
_atom_type_symbol
_atom_type_radius_bond
C 0.68
H 0.23
loop_
_atom_site_label
_atom_site_type_symbol
_atom_site_fract_x
_atom_site_fract_y
_atom_site_fract_z
C1 C 0.9087(3) 0.2146(2) 0.25086(14)
C2 C 0.7845(3) 0.2963(2) 0.27240(14)
C3 C 0.7939(4) 0.3677(2) 0.33179(17)
H1 H 0.88410 0.36880 0.36530
C4 C 0.6691(4) 0.4378(2) 0.34149(17)
H2 H 0.67550 0.48670 0.38120
C5 C 0.5343(4) 0.4349(2) 0.29197(18)
H3 H 0.45010 0.48200 0.29880
C6 C 0.5231(4) 0.3627(2) 0.23233(17)
H4 H 0.43180 0.36120 0.19950
C7 C 0.6482(3) 0.29307(19) 0.22190(14)
C8 C 0.6769(3) 0.20971(18) 0.16432(13)
C9 C 0.8274(3) 0.16731(19) 0.17880(14)
C10 C 0.8928(3) 0.0890(2) 0.13138(14)
H5 H 0.99510 0.06150 0.14310
C11 C 0.8058(3) 0.05303(19) 0.06771(14)
C12 C 0.6484(3) 0.09465(19) 0.05084(13)
C13 C 0.5800(3) 0.17334(18) 0.09988(13)
C14 C 0.4226(3) 0.2098(2) 0.08070(16)
H6 H 0.37470 0.25940 0.11270
C15 C 0.3386(4) 0.1750(2) 0.01706(16)
H7 H 0.23450 0.20040 0.00630
C16 C 0.4074(4) 0.1016(2) -0.03228(16)
H8 H 0.35080 0.07970 -0.07690
C17 C 0.5568(3) 0.0618(2) -0.01549(15)
H9 H 0.60030 0.01170 -0.04840
C18 C 0.8754(3) -0.0300(2) 0.01782(15)
C19 C 0.9890(4) -0.0091(3) -0.0397(2)
H10 H 1.02630 0.05760 -0.04650
C20 C 1.0483(4) -0.0856(3) -0.0874(2)
H11 H 1.12480 -0.07000 -0.12630
C21 C 0.9967(5) -0.1839(3) -0.0785(2)
H12 H 1.03700 -0.23530 -0.11110
C22 C 0.8854(5) -0.2059(2) -0.0213(2)
H13 H 0.85020 -0.27300 -0.01440
C23 C 0.8243(4) -0.1299(2) 0.02630(18)
H14 H 0.74740 -0.14610 0.06480
C24 C 1.0767(4) 0.2604(3) 0.23113(19)
H15 H 1.06490 0.31030 0.18990
H16 H 1.14910 0.20700 0.21380
H17 H 1.12140 0.29260 0.27730
C25 C 0.9256(4) 0.1350(3) 0.31697(17)
H18 H 0.96590 0.16770 0.36390
H19 H 1.00090 0.08260 0.30080
H20 H 0.82050 0.10500 0.32760
loop_
_geom_bond_atom_site_label_1
_geom_bond_atom_site_label_2
_geom_bond_distance
_geom_bond_site_symmetry_1
_geom_bond_site_symmetry_2
C1 C2 1.517 1_555 1_555
C2 C3 1.374 1_555 1_555
C3 H1 0.930 1_555 1_555
C4 C3 1.380 1_555 1_555
H2 C4 0.929 1_555 1_555
C5 C4 1.384 1_555 1_555
H3 C5 0.930 1_555 1_555
C6 C5 1.385 1_555 1_555
H4 C6 0.930 1_555 1_555
C7 C2 1.404 1_555 1_555
C8 C7 1.481 1_555 1_555
C9 C1 1.521 1_555 1_555
C10 C9 1.406 1_555 1_555
H5 C10 0.930 1_555 1_555
C11 C10 1.374 1_555 1_555
C12 C11 1.424 1_555 1_555
C13 C8 1.429 1_555 1_555
C14 C13 1.408 1_555 1_555
H6 C14 0.931 1_555 1_555
C15 C14 1.356 1_555 1_555
H7 C15 0.930 1_555 1_555
C16 C15 1.391 1_555 1_555
H8 C16 0.931 1_555 1_555
C17 C12 1.416 1_555 1_555
H9 C17 0.930 1_555 1_555
C18 C11 1.488 1_555 1_555
C19 C18 1.372 1_555 1_555
H10 C19 0.931 1_555 1_555
C20 C19 1.374 1_555 1_555
H11 C20 0.930 1_555 1_555
C21 C20 1.360 1_555 1_555
H12 C21 0.930 1_555 1_555
C22 C21 1.359 1_555 1_555
H13 C22 0.930 1_555 1_555
C23 C18 1.378 1_555 1_555
H14 C23 0.929 1_555 1_555
C24 C1 1.533 1_555 1_555
H15 C24 0.960 1_555 1_555
H16 C24 0.960 1_555 1_555
H17 C24 0.960 1_555 1_555
C25 C1 1.535 1_555 1_555
H18 C25 0.961 1_555 1_555
H19 C25 0.960 1_555 1_555
H20 C25 0.960 1_555 1_555
C6 C7 1.379 1_555 1_555
C8 C9 1.369 1_555 1_555
C12 C13 1.435 1_555 1_555
C16 C17 1.356 1_555 1_555
C22 C23 1.373 1_555 1_555
#END
