
#######################################################################
#
#                 Cambridge Crystallographic Data Centre
#                                CCDC
#
#######################################################################
#
# If this CIF has been generated from an entry in the Cambridge
# Structural Database, then it will include bibliographic, chemical,
# crystal, experimental, refinement or atomic coordinate data resulting
# from the CCDC's data processing and validation procedures.
#
#######################################################################

data_CSD_CIF_OYUWOW
_audit_creation_date 2016-11-16
_audit_creation_method CSD-ConQuest-V1
_database_code_CSD OYUWOW
_database_code_depnum_ccdc_archive 'CCDC 883826'
_chemical_formula_sum 'C34 H24'
_chemical_formula_moiety
;
C34 H24
;
_journal_coden_Cambridge 1078
_journal_year 2016
_journal_name_full 'CSD Communication(Private Communication) '
loop_
_publ_author_name
"L.R.Gomes"
"J.N.Low"
_chemical_name_systematic
;
2,2'-naphthalene-2,6-diyldibiphenyl
;
_cell_volume   1133.405
_exptl_crystal_colour 'colorless'
_exptl_crystal_density_diffrn 1.267
_exptl_crystal_description 'plate'
_diffrn_ambient_temperature 150
#These two values have been output from a single CSD field.
_refine_ls_R_factor_gt 0.0568
_refine_ls_wR_factor_gt 0.0568
_symmetry_cell_setting monoclinic
_symmetry_space_group_name_H-M 'P 21/c'
_symmetry_Int_Tables_number 14
loop_
_symmetry_equiv_pos_site_id
_symmetry_equiv_pos_as_xyz
1 x,y,z
2 -x,1/2+y,1/2-z
3 -x,-y,-z
4 x,-1/2-y,-1/2+z
_cell_length_a 5.9369(4)
_cell_length_b 11.9879(7)
_cell_length_c 15.9289(11)
_cell_angle_alpha 90
_cell_angle_beta 91.250(4)
_cell_angle_gamma 90
_cell_formula_units_Z 2
loop_
_atom_type_symbol
_atom_type_radius_bond
C 0.68
H 0.23
loop_
_atom_site_label
_atom_site_type_symbol
_atom_site_fract_x
_atom_site_fract_y
_atom_site_fract_z
C1 C 0.6222(2) 0.42169(10) 0.59197(8)
H1 H 0.75740 0.38370 0.60740
C2 C 0.4515(2) 0.42892(10) 0.64845(8)
C3 C 0.7474(2) 0.51126(11) 0.37359(8)
H2 H 0.86590 0.50630 0.33460
C4 C 0.7704(2) 0.46061(11) 0.45031(8)
H3 H 0.90230 0.41850 0.46320
C5 C 0.6002(2) 0.47014(10) 0.51067(8)
C6 C 0.4742(2) 0.37807(11) 0.73372(7)
C7 C 0.3383(2) 0.28897(10) 0.75969(8)
C8 C 0.3663(3) 0.24971(11) 0.84228(8)
H4 H 0.27680 0.18910 0.86060
C9 C 0.5215(3) 0.29727(12) 0.89774(8)
H5 H 0.53620 0.26980 0.95350
C10 C 0.6552(3) 0.38479(12) 0.87180(8)
H6 H 0.76210 0.41750 0.90960
C11 C 0.6317(2) 0.42448(11) 0.79006(8)
H7 H 0.72440 0.48420 0.77220
C12 C 0.1716(2) 0.23160(11) 0.70282(8)
C13 C -0.0361(2) 0.19712(11) 0.73343(9)
H8 H -0.07360 0.21400 0.78970
C14 C -0.1883(2) 0.13859(12) 0.68281(9)
H9 H -0.32800 0.11520 0.70490
C15 C -0.1378(3) 0.11400(12) 0.60035(9)
H10 H -0.24220 0.07390 0.56580
C16 C 0.0666(3) 0.14857(12) 0.56859(9)
H11 H 0.10140 0.13300 0.51190
C17 C 0.2205(2) 0.20580(11) 0.61942(8)
H12 H 0.36100 0.22780 0.59730
C1B C 0.3778(2) 0.57831(10) 0.40803(8)
H1B H 0.24260 0.61630 0.39260
C2B C 0.5485(2) 0.57108(10) 0.35155(8)
C3B C 0.2526(2) 0.48874(11) 0.62641(8)
H2B H 0.13410 0.49370 0.66540
C4B C 0.2296(2) 0.53939(11) 0.54969(8)
H3B H 0.09770 0.58150 0.53680
C5B C 0.3998(2) 0.52986(10) 0.48933(8)
C6B C 0.5258(2) 0.62193(11) 0.26628(7)
C7B C 0.6617(2) 0.71103(10) 0.24031(8)
C8B C 0.6337(3) 0.75029(11) 0.15772(8)
H4B H 0.72320 0.81090 0.13940
C9B C 0.4785(3) 0.70273(12) 0.10226(8)
H5B H 0.46380 0.73020 0.04650
C10B C 0.3448(3) 0.61521(12) 0.12820(8)
H6B H 0.23790 0.58250 0.09040
C11B C 0.3683(2) 0.57552(11) 0.20994(8)
H7B H 0.27560 0.51580 0.22780
C12B C 0.8284(2) 0.76840(11) 0.29718(8)
C13B C 1.0361(2) 0.80288(11) 0.26657(9)
H8B H 1.07360 0.78600 0.21030
C14B C 1.1883(2) 0.86141(12) 0.31719(9)
H9B H 1.32800 0.88480 0.29510
C15B C 1.1378(3) 0.88600(12) 0.39965(9)
H10B H 1.24220 0.92610 0.43420
C16B C 0.9334(3) 0.85143(12) 0.43141(9)
H11B H 0.89860 0.86700 0.48810
C17B C 0.7795(2) 0.79420(11) 0.38058(8)
H12B H 0.63900 0.77220 0.40270
loop_
_geom_bond_atom_site_label_1
_geom_bond_atom_site_label_2
_geom_bond_distance
_geom_bond_site_symmetry_1
_geom_bond_site_symmetry_2
C1 H1 0.951 1_555 1_555
C2 C1 1.372 1_555 1_555
C3 H2 0.950 1_555 1_555
C4 C3 1.369 1_555 1_555
H3 C4 0.950 1_555 1_555
C5 C1 1.423 1_555 1_555
C6 C2 1.492 1_555 1_555
C7 C6 1.406 1_555 1_555
C8 C7 1.404 1_555 1_555
H4 C8 0.950 1_555 1_555
C9 C8 1.385 1_555 1_555
H5 C9 0.950 1_555 1_555
C10 C9 1.384 1_555 1_555
H6 C10 0.950 1_555 1_555
C11 C6 1.397 1_555 1_555
H7 C11 0.950 1_555 1_555
C12 C7 1.495 1_555 1_555
C13 C12 1.398 1_555 1_555
H8 C13 0.950 1_555 1_555
C14 C13 1.388 1_555 1_555
H9 C14 0.950 1_555 1_555
C15 C14 1.385 1_555 1_555
H10 C15 0.950 1_555 1_555
C16 C15 1.388 1_555 1_555
H11 C16 0.949 1_555 1_555
C17 C12 1.401 1_555 1_555
H12 C17 0.950 1_555 1_555
C1B H1B 0.951 1_555 1_555
C2B C3 1.419 1_555 1_555
C3B C2 1.419 1_555 1_555
H2B C3B 0.950 1_555 1_555
C4B C3B 1.369 1_555 1_555
H3B C4B 0.950 1_555 1_555
C5B C5 1.423 1_555 1_555
C6B C2B 1.492 1_555 1_555
C7B C6B 1.406 1_555 1_555
C8B C7B 1.404 1_555 1_555
H4B C8B 0.950 1_555 1_555
C9B C8B 1.385 1_555 1_555
H5B C9B 0.950 1_555 1_555
C10B C9B 1.384 1_555 1_555
H6B C10B 0.950 1_555 1_555
C11B C6B 1.397 1_555 1_555
H7B C11B 0.950 1_555 1_555
C12B C7B 1.495 1_555 1_555
C13B C12B 1.398 1_555 1_555
H8B C13B 0.950 1_555 1_555
C14B C13B 1.388 1_555 1_555
H9B C14B 0.950 1_555 1_555
C15B C14B 1.385 1_555 1_555
H10B C15B 0.950 1_555 1_555
C16B C15B 1.388 1_555 1_555
H11B C16B 0.949 1_555 1_555
C17B C12B 1.401 1_555 1_555
H12B C17B 0.950 1_555 1_555
C4 C5 1.415 1_555 1_555
C10 C11 1.390 1_555 1_555
C16 C17 1.389 1_555 1_555
C1B C2B 1.372 1_555 1_555
C1B C5B 1.423 1_555 1_555
C4B C5B 1.415 1_555 1_555
C10B C11B 1.390 1_555 1_555
C16B C17B 1.389 1_555 1_555
#END
