
#######################################################################
#
#                 Cambridge Crystallographic Data Centre
#                                CCDC
#
#######################################################################
#
# If this CIF has been generated from an entry in the Cambridge
# Structural Database, then it will include bibliographic, chemical,
# crystal, experimental, refinement or atomic coordinate data resulting
# from the CCDC's data processing and validation procedures.
#
#######################################################################

data_CSD_CIF_PAMREA
_audit_creation_date 1993-05-12
_audit_creation_method CSD-ConQuest-V1
_database_code_CSD PAMREA
_database_code_depnum_ccdc_archive 'CCDC 113043'
_database_code_depnum_ccdc_fiz 'CSD 320368'
_chemical_formula_sum 'C31 H22'
_chemical_formula_moiety
;
C31 H22
;
_journal_coden_Cambridge 643
_journal_volume 202
_journal_year 1992
_journal_page_first 128
_journal_name_full 'Z.Krist.Cryst.Mater. '
loop_
_publ_author_name
"V.Langer"
"H.-D.Becker"
_chemical_name_systematic
;
3-(9-Anthryl)-1H-2,3-dihydrobenz(de)anthracene
;
_cell_volume   1995.356
_exptl_crystal_colour 'yellow'
_diffrn_ambient_temperature 133
#These two values have been output from a single CSD field.
_refine_ls_R_factor_gt 0.039
_refine_ls_wR_factor_gt 0.039
_symmetry_cell_setting monoclinic
_symmetry_space_group_name_H-M 'P 21/a'
_symmetry_Int_Tables_number 14
loop_
_symmetry_equiv_pos_site_id
_symmetry_equiv_pos_as_xyz
1 x,y,z
2 1/2-x,1/2+y,-z
3 -x,-y,-z
4 -1/2+x,-1/2-y,z
_cell_length_a 11.552(2)
_cell_length_b 8.393(1)
_cell_length_c 21.142(4)
_cell_angle_alpha 90
_cell_angle_beta 103.24(1)
_cell_angle_gamma 90
_cell_formula_units_Z 4
loop_
_atom_type_symbol
_atom_type_radius_bond
C 0.68
H 0.23
loop_
_atom_site_label
_atom_site_type_symbol
_atom_site_fract_x
_atom_site_fract_y
_atom_site_fract_z
C1 C 0.8749(2) -0.1447(2) 0.1256(1)
C2 C 0.9173(2) -0.1366(3) 0.0707(1)
C3 C 0.8544(2) -0.0534(3) 0.0151(1)
C4 C 0.7504(2) 0.0183(3) 0.0164(1)
C5 C 0.4337(2) 0.1555(2) 0.1264(1)
C6 C 0.3826(2) 0.1465(2) 0.1777(1)
C7 C 0.4415(2) 0.0602(2) 0.2338(1)
C8 C 0.5479(2) -0.0111(2) 0.23727(9)
C9 C 0.7188(2) -0.0725(2) 0.18620(8)
C10 C 0.5948(2) 0.0871(2) 0.07318(9)
C11 C 0.7658(2) -0.0690(2) 0.12979(9)
C12 C 0.7019(2) 0.0132(2) 0.07269(9)
C13 C 0.6067(2) -0.0028(2) 0.18422(9)
C14 C 0.5450(2) 0.0806(2) 0.12710(9)
C15 C 0.7916(2) -0.1469(2) 0.24872(9)
C16 C 0.8295(2) -0.0268(2) 0.30438(9)
C17 C 0.9096(2) -0.1089(3) 0.3624(1)
C18 C 0.8505(2) -0.2518(2) 0.38487(9)
C19 C 0.8804(2) -0.3012(2) 0.45031(9)
C20 C 0.9735(2) -0.2294(3) 0.4983(1)
C21 C 1.0008(2) -0.2827(3) 0.5609(1)
C22 C 0.9359(2) -0.4076(3) 0.5808(1)
C23 C 0.8478(2) -0.4809(3) 0.5371(1)
C24 C 0.8196(2) -0.4335(2) 0.47031(9)
C25 C 0.7400(2) -0.5205(2) 0.4240(1)
C26 C 0.7155(2) -0.4807(2) 0.35846(9)
C27 C 0.6416(2) -0.5774(2) 0.3102(1)
C28 C 0.6168(2) -0.5358(2) 0.2467(1)
C29 C 0.6637(2) -0.3923(2) 0.22719(9)
C30 C 0.7363(2) -0.2951(2) 0.27097(8)
C31 C 0.7677(2) -0.3391(2) 0.33866(8)
H1 H 0.921(2) -0.208(2) 0.1620(9)
H2 H 0.993(2) -0.192(2) 0.0697(9)
H3 H 0.886(2) -0.048(2) -0.025(1)
H4 H 0.705(2) 0.077(2) -0.0217(9)
H5 H 0.552(2) 0.143(2) 0.0344(9)
H6 H 0.395(2) 0.210(2) 0.0873(9)
H7 H 0.307(2) 0.201(2) 0.1755(9)
H8 H 0.406(2) 0.051(2) 0.2707(9)
H9 H 0.585(2) -0.074(2) 0.2772(9)
H10 H 0.871(2) -0.188(2) 0.2401(8)
H11 H 0.877(2) 0.062(3) 0.2897(9)
H12 H 0.755(2) 0.022(2) 0.3163(9)
H13 H 0.988(2) -0.146(3) 0.349(1)
H14 H 0.932(2) -0.035(3) 0.398(1)
H15 H 1.017(2) -0.143(2) 0.4847(8)
H16 H 1.071(2) -0.234(3) 0.594(1)
H17 H 0.955(2) -0.443(3) 0.627(1)
H18 H 0.800(2) -0.574(3) 0.549(1)
H19 H 0.703(2) -0.612(2) 0.4365(9)
H20 H 0.609(2) -0.678(3) 0.3251(9)
H21 H 0.563(2) -0.604(2) 0.213(1)
H22 H 0.647(2) -0.364(2) 0.180(1)
loop_
_geom_bond_atom_site_label_1
_geom_bond_atom_site_label_2
_geom_bond_distance
_geom_bond_site_symmetry_1
_geom_bond_site_symmetry_2
C1 C2 1.361 1_555 1_555
C2 C3 1.416 1_555 1_555
C3 C4 1.350 1_555 1_555
C4 C12 1.427 1_555 1_555
C5 C6 1.350 1_555 1_555
C6 C7 1.423 1_555 1_555
C7 C8 1.354 1_555 1_555
C8 C13 1.440 1_555 1_555
C9 C11 1.419 1_555 1_555
C10 C12 1.386 1_555 1_555
C11 C1 1.432 1_555 1_555
C12 C11 1.439 1_555 1_555
C13 C9 1.413 1_555 1_555
C14 C5 1.428 1_555 1_555
C15 C9 1.528 1_555 1_555
C16 C15 1.535 1_555 1_555
C17 C16 1.522 1_555 1_555
C18 C17 1.510 1_555 1_555
C19 C18 1.409 1_555 1_555
C20 C19 1.432 1_555 1_555
C21 C20 1.364 1_555 1_555
C22 C21 1.408 1_555 1_555
C23 C22 1.355 1_555 1_555
C24 C19 1.429 1_555 1_555
C25 C24 1.387 1_555 1_555
C26 C25 1.390 1_555 1_555
C27 C26 1.425 1_555 1_555
C28 C27 1.353 1_555 1_555
C29 C28 1.420 1_555 1_555
C30 C15 1.521 1_555 1_555
C31 C18 1.406 1_555 1_555
H1 C1 0.985 1_555 1_555
H2 C2 0.995 1_555 1_555
H3 C3 0.998 1_555 1_555
H4 C4 0.986 1_555 1_555
H5 C10 0.975 1_555 1_555
H6 C5 0.961 1_555 1_555
H7 C6 0.977 1_555 1_555
H8 C7 0.964 1_555 1_555
H9 C8 1.005 1_555 1_555
H10 C15 1.034 1_555 1_555
H11 C16 1.015 1_555 1_555
H12 C16 1.035 1_555 1_555
H13 C17 1.056 1_555 1_555
H14 C17 0.964 1_555 1_555
H15 C20 0.963 1_555 1_555
H16 C21 1.027 1_555 1_555
H17 C22 0.996 1_555 1_555
H18 C23 1.021 1_555 1_555
H19 C25 0.946 1_555 1_555
H20 C27 1.004 1_555 1_555
H21 C28 1.009 1_555 1_555
H22 C29 1.000 1_555 1_555
C10 C14 1.391 1_555 1_555
C13 C14 1.436 1_555 1_555
C23 C24 1.431 1_555 1_555
C26 C31 1.438 1_555 1_555
C29 C30 1.367 1_555 1_555
C30 C31 1.442 1_555 1_555
#END
