
#######################################################################
#
#                 Cambridge Crystallographic Data Centre
#                                CCDC
#
#######################################################################
#
# If this CIF has been generated from an entry in the Cambridge
# Structural Database, then it will include bibliographic, chemical,
# crystal, experimental, refinement or atomic coordinate data resulting
# from the CCDC's data processing and validation procedures.
#
#######################################################################

data_CSD_CIF_PASDOF
_audit_creation_date 2017-06-20
_audit_creation_method CSD-ConQuest-V1
_database_code_CSD PASDOF
_database_code_depnum_ccdc_archive 'CCDC 1535712'
_chemical_formula_sum 'C50 H32'
_chemical_formula_moiety
;
C50 H32
;
_journal_coden_Cambridge 574
_journal_volume 146
_journal_year 2017
_journal_page_first 234
_journal_name_full 'Dyes Pigm. '
loop_
_publ_author_name
"Xiang-Yang Liu"
"Xun Tang"
"Yue Zhao"
"Danli Zhao"
"Jian Fan"
"Liang-Sheng Liao"
_chemical_name_systematic
;
2,7,10,15-tetraphenyldibenzo[g,p]chrysene
;
_cell_volume   7019.346
_exptl_crystal_density_diffrn 1.197
_diffrn_ambient_temperature 296
#These two values have been output from a single CSD field.
_refine_ls_R_factor_gt 0.1008
_refine_ls_wR_factor_gt 0.1008
_symmetry_cell_setting triclinic
_symmetry_space_group_name_H-M 'P -1'
_symmetry_Int_Tables_number 2
loop_
_symmetry_equiv_pos_site_id
_symmetry_equiv_pos_as_xyz
1 x,y,z
2 -x,-y,-z
_cell_length_a 18.687(2)
_cell_length_b 19.224(2)
_cell_length_c 23.145(3)
_cell_angle_alpha 90.790(3)
_cell_angle_beta 111.283(3)
_cell_angle_gamma 112.903(4)
_cell_formula_units_Z 8
loop_
_atom_type_symbol
_atom_type_radius_bond
C 0.68
H 0.23
loop_
_atom_site_label
_atom_site_type_symbol
_atom_site_fract_x
_atom_site_fract_y
_atom_site_fract_z
C1 C 0.0460(6) 0.8747(4) 0.5198(5)
H1 H 0.06533 0.87390 0.48805
C2 C 0.0555(7) 0.9436(5) 0.5467(7)
H2 H 0.08201 0.98867 0.53375
C3 C 0.0260(6) 0.9460(6) 0.5925(6)
H3 H 0.03163 0.99226 0.61074
C4 C -0.0122(6) 0.8786(6) 0.6111(4)
H4 H -0.03190 0.87945 0.64264
C5 C -0.0217(5) 0.8096(5) 0.5834(3)
H5 H -0.04917 0.76416 0.59541
C6 C 0.0095(4) 0.8078(4) 0.5379(3)
C7 C 0.0000(4) 0.7339(3) 0.5073(3)
C8 C -0.0712(4) 0.6654(3) 0.4973(3)
H6 H -0.11333 0.66596 0.50940
C9 C -0.0792(4) 0.5982(3) 0.4702(3)
H7 H -0.12672 0.55348 0.46478
C10 C -0.0187(3) 0.5934(3) 0.4500(2)
C11 C 0.0518(4) 0.6626(3) 0.4559(2)
C12 C 0.0606(4) 0.7309(3) 0.4877(2)
H8 H 0.10923 0.77559 0.49572
C13 C -0.0265(3) 0.5215(3) 0.4227(2)
C14 C -0.0992(4) 0.4522(3) 0.4102(3)
H9 H -0.14077 0.45230 0.42326
C15 C -0.1103(4) 0.3851(3) 0.3798(3)
H10 H -0.15731 0.34003 0.37470
C16 C -0.0520(4) 0.3832(3) 0.3560(2)
C17 C -0.0689(4) 0.3107(3) 0.3179(2)
C18 C -0.1269(4) 0.2404(3) 0.3213(3)
H11 H -0.15498 0.23864 0.34751
C19 C -0.1436(4) 0.1722(4) 0.2858(3)
H12 H -0.18232 0.12561 0.28878
C20 C -0.1030(5) 0.1739(4) 0.2467(3)
H13 H -0.11359 0.12851 0.22353
C21 C -0.0461(5) 0.2435(4) 0.2420(3)
H14 H -0.01842 0.24485 0.21548
C22 C -0.0303(4) 0.3116(4) 0.2768(3)
H15 H 0.00672 0.35819 0.27234
C23 C 0.0215(4) 0.4497(3) 0.3703(3)
H16 H 0.06165 0.44893 0.35589
C24 C 0.0379(3) 0.5188(3) 0.4059(2)
C25 C 0.1159(4) 0.5883(3) 0.4217(2)
C26 C 0.1165(3) 0.6600(3) 0.4351(2)
C27 C 0.1808(3) 0.7281(3) 0.4266(2)
C28 C 0.1691(4) 0.7954(3) 0.4137(2)
H17 H 0.11915 0.79711 0.41157
C29 C 0.2293(3) 0.8596(3) 0.4040(2)
C30 C 0.2165(4) 0.9304(3) 0.3908(2)
C31 C 0.1524(4) 0.9432(4) 0.3999(3)
H18 H 0.11493 0.90549 0.41273
C32 C 0.1433(5) 1.0108(4) 0.3902(3)
H19 H 0.10057 1.01807 0.39713
C33 C 0.1969(4) 1.0673(4) 0.3703(3)
H20 H 0.19082 1.11269 0.36398
C34 C 0.2596(5) 1.0555(4) 0.3599(4)
H21 H 0.29543 1.09276 0.34563
C35 C 0.2697(4) 0.9888(3) 0.3707(3)
H22 H 0.31335 0.98250 0.36431
C36 C 0.3038(4) 0.8554(3) 0.4074(2)
H23 H 0.34648 0.89813 0.40340
C37 C 0.3149(4) 0.7898(3) 0.4165(2)
H24 H 0.36430 0.78836 0.41700
C38 C 0.2547(3) 0.7248(3) 0.4252(2)
C39 C 0.2653(3) 0.6541(3) 0.4328(2)
C40 C 0.3450(4) 0.6523(3) 0.4453(2)
H25 H 0.39092 0.69697 0.44793
C41 C 0.3549(4) 0.5857(3) 0.4536(3)
H26 H 0.40760 0.58625 0.46177
C42 C 0.2883(4) 0.5174(3) 0.4502(2)
C43 C 0.2103(4) 0.5183(3) 0.4385(2)
H27 H 0.16588 0.47323 0.43738
C44 C 0.1953(3) 0.5853(3) 0.4281(2)
C45 C 0.3002(4) 0.4456(3) 0.4579(3)
C46 C 0.3763(4) 0.4470(4) 0.5010(3)
H28 H 0.41965 0.49335 0.52577
C47 C 0.3876(4) 0.3800(4) 0.5071(3)
H29 H 0.43832 0.38166 0.53616
C48 C 0.3244(5) 0.3109(4) 0.4705(3)
H30 H 0.33236 0.26614 0.47463
C49 C 0.2486(5) 0.3088(4) 0.4274(3)
H31 H 0.20569 0.26246 0.40242
C50 C 0.2370(4) 0.3757(3) 0.4216(3)
H32 H 0.18586 0.37367 0.39280
C51 C 0.4818(4) 0.4608(3) 0.2756(3)
H33 H 0.50856 0.44288 0.25609
C52 C 0.4793(5) 0.5308(4) 0.2668(3)
H34 H 0.50418 0.55964 0.24165
C53 C 0.4398(5) 0.5578(4) 0.2954(3)
H35 H 0.43835 0.60511 0.29001
C54 C 0.4022(5) 0.5143(4) 0.3324(3)
H36 H 0.37494 0.53230 0.35124
C55 C 0.4052(4) 0.4447(4) 0.3412(3)
H37 H 0.38019 0.41611 0.36630
C56 C 0.4453(4) 0.4165(3) 0.3128(2)
C57 C 0.4514(4) 0.3428(3) 0.3245(2)
C58 C 0.4690(4) 0.3250(3) 0.3846(3)
H38 H 0.47531 0.35869 0.41717
C59 C 0.4774(4) 0.2578(3) 0.3965(2)
H39 H 0.48984 0.24730 0.43725
C60 C 0.4674(3) 0.2048(3) 0.3486(2)
C61 C 0.4479(3) 0.2220(3) 0.2864(2)
C62 C 0.4409(4) 0.2907(3) 0.2769(2)
H40 H 0.42857 0.30225 0.23650
C63 C 0.4747(3) 0.1334(3) 0.3612(2)
C64 C 0.5122(3) 0.1208(3) 0.4222(2)
H41 H 0.53235 0.15911 0.45644
C65 C 0.5201(4) 0.0538(3) 0.4328(2)
H42 H 0.54361 0.04691 0.47402
C66 C 0.4929(3) -0.0051(3) 0.3822(2)
C67 C 0.4556(3) 0.0074(3) 0.3218(2)
H43 H 0.43769 -0.03036 0.28773
C68 C 0.4436(3) 0.0745(3) 0.3097(2)
C69 C 0.5065(3) -0.0758(3) 0.3943(2)
C70 C 0.5616(4) -0.0798(3) 0.4527(3)
H44 H 0.59065 -0.03725 0.48496
C71 C 0.5742(4) -0.1458(4) 0.4638(3)
H45 H 0.61183 -0.14655 0.50300
C72 C 0.5313(4) -0.2102(4) 0.4171(3)
H46 H 0.53913 -0.25468 0.42462
C73 C 0.4769(4) -0.2072(3) 0.3595(3)
H47 H 0.44853 -0.24982 0.32734
C74 C 0.4634(4) -0.1416(3) 0.3481(3)
H48 H 0.42486 -0.14164 0.30892
C75 C 0.4069(3) 0.0869(3) 0.2453(2)
C76 C 0.4264(3) 0.1622(3) 0.2344(2)
C77 C 0.5687(5) 0.4029(3) 0.1418(3)
H49 H 0.57893 0.39364 0.18275
C78 C 0.6106(5) 0.4764(4) 0.1330(3)
H50 H 0.64835 0.51561 0.16756
C79 C 0.5964(4) 0.4912(4) 0.0729(3)
H51 H 0.62302 0.54075 0.06646
C80 C 0.5427(4) 0.4326(3) 0.0227(3)
H52 H 0.53385 0.44209 -0.01802
C81 C 0.5014(4) 0.3595(3) 0.0320(3)
H53 H 0.46544 0.32030 -0.00281
C82 C 0.5118(4) 0.3426(3) 0.0918(2)
C83 C 0.4648(3) 0.2640(3) 0.1016(2)
C84 C 0.4163(3) 0.2013(3) 0.0508(2)
H54 H 0.41259 0.20914 0.01045
C85 C 0.3749(3) 0.1293(3) 0.0603(2)
H55 H 0.34503 0.08877 0.02625
C86 C 0.3758(3) 0.1140(3) 0.1201(2)
C87 C 0.4210(3) 0.1765(3) 0.1711(2)
C88 C 0.4651(3) 0.2492(3) 0.1602(2)
H56 H 0.49637 0.28989 0.19412
C89 C 0.3331(3) 0.0370(3) 0.1296(2)
C90 C 0.2727(3) -0.0252(3) 0.0802(2)
H57 H 0.26171 -0.01777 0.03881
C91 C 0.2297(3) -0.0960(3) 0.0911(2)
H58 H 0.19174 -0.13599 0.05721
C92 C 0.2419(3) -0.1092(3) 0.1530(2)
C93 C 0.3002(3) -0.0488(3) 0.2016(2)
H59 H 0.30776 -0.05618 0.24263
C94 C 0.3494(3) 0.0242(3) 0.1920(2)
C95 C 0.1926(4) -0.1853(3) 0.1663(2)
C96 C 0.1218(4) -0.2416(3) 0.1187(3)
H60 H 0.10452 -0.23197 0.07781
C97 C 0.0762(4) -0.3125(3) 0.1314(3)
H61 H 0.02938 -0.34975 0.09883
C98 C 0.1004(4) -0.3271(4) 0.1919(3)
H62 H 0.07001 -0.37403 0.20054
C99 C 0.1699(4) -0.2716(3) 0.2394(3)
H63 H 0.18634 -0.28110 0.28043
C100 C 0.2157(4) -0.2018(3) 0.2269(3)
H64 H 0.26288 -0.16525 0.25968
C101 C 0.7308(4) 0.4665(3) 0.3003(3)
H65 H 0.74637 0.44082 0.27611
C102 C 0.7457(4) 0.5425(3) 0.2968(3)
H66 H 0.77073 0.56711 0.27021
C103 C 0.7233(4) 0.5817(3) 0.3328(3)
H67 H 0.73193 0.63235 0.32987
C104 C 0.6884(4) 0.5455(3) 0.3727(3)
H68 H 0.67484 0.57236 0.39771
C105 C 0.6727(4) 0.4691(3) 0.3768(3)
H69 H 0.64885 0.44546 0.40426
C106 C 0.6931(3) 0.4278(3) 0.3394(2)
C107 C 0.6810(3) 0.3477(3) 0.3443(2)
C108 C 0.6940(4) 0.3216(3) 0.4021(2)
H70 H 0.70516 0.35361 0.43777
C109 C 0.6904(4) 0.2491(3) 0.4065(2)
H71 H 0.69812 0.23270 0.44498
C110 C 0.6754(3) 0.1991(3) 0.3542(2)
C111 C 0.6606(3) 0.2235(3) 0.2953(2)
C112 C 0.6627(3) 0.2972(3) 0.2918(2)
H72 H 0.65151 0.31290 0.25295
C113 C 0.6764(3) 0.1242(3) 0.3587(2)
C114 C 0.7105(3) 0.1034(3) 0.4169(3)
H73 H 0.72862 0.13687 0.45385
C115 C 0.7179(4) 0.0352(3) 0.4209(3)
H74 H 0.74025 0.02340 0.46039
C116 C 0.6922(3) -0.0173(3) 0.3665(3)
C117 C 0.6569(3) 0.0024(3) 0.3086(3)
H75 H 0.63998 -0.03109 0.27192
C118 C 0.6457(3) 0.0713(3) 0.3031(2)
C119 C 0.7013(4) -0.0907(3) 0.3717(3)
C120 C 0.7514(4) -0.1026(4) 0.4289(3)
H76 H 0.78245 -0.06244 0.46332
C121 C 0.7563(5) -0.1714(4) 0.4360(4)
H77 H 0.79038 -0.17712 0.47471
C122 C 0.7114(5) -0.2318(4) 0.3865(4)
H78 H 0.71414 -0.27870 0.39151
C123 C 0.6614(5) -0.2220(4) 0.3283(3)
H79 H 0.63077 -0.26253 0.29426
C124 C 0.6575(4) -0.1517(4) 0.3213(3)
H80 H 0.62492 -0.14549 0.28221
C125 C 0.8323(4) 0.4124(3) 0.1814(3)
H81 H 0.84571 0.38658 0.21454
C126 C 0.8864(4) 0.4883(3) 0.1866(3)
H82 H 0.93503 0.51320 0.22323
C127 C 0.8680(5) 0.5270(4) 0.1372(3)
H83 H 0.90367 0.57810 0.14070
C128 C 0.7962(5) 0.4891(4) 0.0824(3)
H84 H 0.78446 0.51450 0.04874
C129 C 0.7419(4) 0.4138(3) 0.0776(3)
H85 H 0.69375 0.38906 0.04058
C130 C 0.7583(4) 0.3742(3) 0.1275(2)
C131 C 0.6983(3) 0.2947(3) 0.1247(2)
C132 C 0.6404(3) 0.2441(3) 0.0673(2)
H86 H 0.63743 0.26091 0.02941
C133 C 0.5881(4) 0.1701(3) 0.0667(2)
H87 H 0.55207 0.13718 0.02819
C134 C 0.5873(3) 0.1424(3) 0.1227(2)
C135 C 0.6383(3) 0.1949(3) 0.1796(2)
C136 C 0.6947(4) 0.2687(3) 0.1795(2)
H88 H 0.73133 0.30160 0.21788
C137 C 0.6378(3) 0.1701(3) 0.2393(2)
C138 C 0.6126(3) 0.0921(3) 0.2419(2)
C139 C 0.5545(3) 0.0370(3) 0.1830(2)
C140 C 0.5374(3) 0.0623(3) 0.1240(2)
C141 C 0.4749(3) 0.0108(3) 0.0694(2)
H89 H 0.46413 0.02750 0.03090
C142 C 0.4288(4) -0.0643(3) 0.0713(2)
H90 H 0.38826 -0.09777 0.03397
C143 C 0.4416(3) -0.0919(3) 0.1289(2)
C144 C 0.5040(3) -0.0405(3) 0.1832(2)
H91 H 0.51319 -0.05751 0.22156
C145 C 0.3888(4) -0.1729(3) 0.1304(2)
C146 C 0.3139(4) -0.2176(3) 0.0798(3)
H92 H 0.29649 -0.19707 0.04395
C147 C 0.2641(4) -0.2926(3) 0.0816(3)
H93 H 0.21402 -0.32144 0.04702
C148 C 0.2883(5) -0.3246(4) 0.1340(3)
H94 H 0.25446 -0.37444 0.13542
C149 C 0.3641(5) -0.2809(4) 0.1846(3)
H95 H 0.38165 -0.30195 0.22021
C150 C 0.4137(4) -0.2064(3) 0.1826(3)
H96 H 0.46462 -0.17814 0.21673
C151 C 1.0774(4) 0.2152(3) -0.0679(3)
H97 H 1.02005 0.19207 -0.07591
C152 C 1.1058(4) 0.2700(4) -0.1028(3)
H98 H 1.06737 0.28331 -0.13351
C153 C 1.1905(4) 0.3045(3) -0.0918(3)
H99 H 1.20923 0.34034 -0.11567
C154 C 1.2485(4) 0.2852(4) -0.0446(3)
H100 H 1.30587 0.30871 -0.03664
C155 C 1.2196(4) 0.2309(3) -0.0098(3)
H101 H 1.25836 0.21860 0.02163
C156 C 1.1341(4) 0.1944(3) -0.0210(3)
C157 C 1.1049(4) 0.1371(3) 0.0177(2)
C158 C 1.1486(4) 0.0925(3) 0.0430(3)
H102 H 1.19472 0.09696 0.03400
C159 C 1.1243(4) 0.0425(3) 0.0808(3)
H103 H 1.15291 0.01194 0.09564
C160 C 1.0575(3) 0.0358(3) 0.0977(2)
C161 C 1.0136(3) 0.0817(3) 0.0742(2)
C162 C 1.0366(4) 0.1288(3) 0.0317(2)
H104 H 1.00441 0.15512 0.01252
C163 C 1.0344(4) -0.0149(3) 0.1404(2)
C164 C 1.0865(4) -0.0486(3) 0.1758(3)
H105 H 1.13691 -0.03875 0.17142
C165 C 1.0655(4) -0.0956(3) 0.2165(3)
H106 H 1.10133 -0.11727 0.23900
C166 C 0.9900(4) -0.1111(3) 0.2243(2)
C167 C 0.9399(4) -0.0761(3) 0.1913(2)
H107 H 0.89194 -0.08330 0.19860
C168 C 0.9576(3) -0.0298(3) 0.1471(2)
C169 C 0.9652(4) -0.1639(3) 0.2664(3)
C170 C 0.9840(4) -0.2275(3) 0.2727(3)
H108 H 1.01477 -0.23531 0.25151
C171 C 0.9576(4) -0.2795(4) 0.3099(3)
H109 H 0.96941 -0.32238 0.31229
C172 C 0.9142(5) -0.2677(4) 0.3431(3)
H110 H 0.89737 -0.30218 0.36844
C173 C 0.8957(4) -0.2047(4) 0.3386(3)
H111 H 0.86637 -0.19676 0.36114
C174 C 0.9207(4) -0.1525(4) 0.3004(3)
H112 H 0.90774 -0.11027 0.29761
C175 C 0.9420(3) 0.0740(3) 0.0902(2)
C176 C 0.9056(3) 0.0096(3) 0.1143(2)
C177 C 1.0398(4) 0.3574(3) 0.0436(3)
H113 H 1.04670 0.31611 0.02894
C178 C 1.0875(4) 0.4306(4) 0.0378(3)
H114 H 1.12555 0.43813 0.01895
C179 C 1.0787(5) 0.4929(4) 0.0602(3)
H115 H 1.11035 0.54220 0.05606
C180 C 1.0222(5) 0.4806(4) 0.0887(3)
H116 H 1.01633 0.52216 0.10409
C181 C 0.9747(4) 0.4077(3) 0.0943(3)
H117 H 0.93753 0.40087 0.11398
C182 C 0.9808(4) 0.3439(3) 0.0715(2)
C183 C 0.9290(4) 0.2657(3) 0.0762(2)
C184 C 0.8483(4) 0.2463(3) 0.0761(2)
H118 H 0.82611 0.28261 0.07084
C185 C 0.8019(3) 0.1746(3) 0.0837(2)
H119 H 0.75036 0.16433 0.08622
C186 C 0.8299(3) 0.1155(3) 0.0878(2)
C187 C 0.9086(3) 0.1322(3) 0.0837(2)
C188 C 0.9573(4) 0.2084(3) 0.0812(2)
H120 H 1.01159 0.22107 0.08308
C189 C 0.7822(3) 0.0406(3) 0.0981(2)
C190 C 0.7004(3) 0.0179(3) 0.0983(2)
H121 H 0.67554 0.05218 0.09060
C191 C 0.6574(4) -0.0517(3) 0.1093(2)
H122 H 0.60565 -0.06292 0.11188
C192 C 0.6900(4) -0.1079(3) 0.1169(2)
C193 C 0.7686(3) -0.0875(3) 0.1147(2)
H123 H 0.78871 -0.12496 0.11583
C194 C 0.8196(3) -0.0126(3) 0.1109(2)
C195 C 0.6415(4) -0.1858(3) 0.1266(2)
C196 C 0.5534(4) -0.2175(3) 0.1063(3)
H124 H 0.52401 -0.18918 0.08663
C197 C 0.5095(4) -0.2900(3) 0.1149(3)
H125 H 0.45083 -0.30967 0.10104
C198 C 0.5503(5) -0.3341(4) 0.1436(3)
H126 H 0.51979 -0.38325 0.14879
C199 C 0.6388(5) -0.3034(4) 0.1650(3)
H127 H 0.66752 -0.33233 0.18442
C200 C 0.6835(4) -0.2299(3) 0.1571(3)
H128 H 0.74232 -0.20955 0.17238
loop_
_geom_bond_atom_site_label_1
_geom_bond_atom_site_label_2
_geom_bond_distance
_geom_bond_site_symmetry_1
_geom_bond_site_symmetry_2
C1 H1 0.931 1_555 1_555
C2 C1 1.374 1_555 1_555
H2 C2 0.931 1_555 1_555
C3 C2 1.368 1_555 1_555
H3 C3 0.930 1_555 1_555
C4 C3 1.376 1_555 1_555
H4 C4 0.932 1_555 1_555
C5 C4 1.383 1_555 1_555
H5 C5 0.930 1_555 1_555
C6 C1 1.354 1_555 1_555
C7 C6 1.495 1_555 1_555
C8 C7 1.401 1_555 1_555
H6 C8 0.930 1_555 1_555
C9 C8 1.358 1_555 1_555
H7 C9 0.930 1_555 1_555
C10 C9 1.403 1_555 1_555
C11 C10 1.423 1_555 1_555
C12 C7 1.384 1_555 1_555
H8 C12 0.929 1_555 1_555
C13 C10 1.443 1_555 1_555
C14 C13 1.414 1_555 1_555
H9 C14 0.931 1_555 1_555
C15 C14 1.365 1_555 1_555
H10 C15 0.931 1_555 1_555
C16 C15 1.399 1_555 1_555
C17 C16 1.497 1_555 1_555
C18 C17 1.390 1_555 1_555
H11 C18 0.929 1_555 1_555
C19 C18 1.399 1_555 1_555
H12 C19 0.930 1_555 1_555
C20 C19 1.370 1_555 1_555
H13 C20 0.929 1_555 1_555
C21 C20 1.383 1_555 1_555
H14 C21 0.930 1_555 1_555
C22 C17 1.384 1_555 1_555
H15 C22 0.929 1_555 1_555
C23 C16 1.386 1_555 1_555
H16 C23 0.930 1_555 1_555
C24 C13 1.411 1_555 1_555
C25 C24 1.458 1_555 1_555
C26 C11 1.471 1_555 1_555
C27 C26 1.467 1_555 1_555
C28 C27 1.412 1_555 1_555
H17 C28 0.930 1_555 1_555
C29 C28 1.396 1_555 1_555
C30 C29 1.488 1_555 1_555
C31 C30 1.397 1_555 1_555
H18 C31 0.931 1_555 1_555
C32 C31 1.386 1_555 1_555
H19 C32 0.929 1_555 1_555
C33 C32 1.377 1_555 1_555
H20 C33 0.930 1_555 1_555
C34 C33 1.376 1_555 1_555
H21 C34 0.930 1_555 1_555
C35 C30 1.395 1_555 1_555
H22 C35 0.931 1_555 1_555
C36 C29 1.400 1_555 1_555
H23 C36 0.930 1_555 1_555
C37 C36 1.363 1_555 1_555
H24 C37 0.930 1_555 1_555
C38 C27 1.419 1_555 1_555
C39 C38 1.452 1_555 1_555
C40 C39 1.425 1_555 1_555
H25 C40 0.930 1_555 1_555
C41 C40 1.370 1_555 1_555
H26 C41 0.929 1_555 1_555
C42 C41 1.390 1_555 1_555
C43 C42 1.390 1_555 1_555
H27 C43 0.930 1_555 1_555
C44 C25 1.461 1_555 1_555
C45 C42 1.484 1_555 1_555
C46 C45 1.399 1_555 1_555
H28 C46 0.930 1_555 1_555
C47 C46 1.385 1_555 1_555
H29 C47 0.930 1_555 1_555
C48 C47 1.378 1_555 1_555
H30 C48 0.929 1_555 1_555
C49 C48 1.390 1_555 1_555
H31 C49 0.930 1_555 1_555
C50 C45 1.386 1_555 1_555
H32 C50 0.931 1_555 1_555
C51 H33 0.931 1_555 1_555
C52 C51 1.380 1_555 1_555
H34 C52 0.931 1_555 1_555
C53 C52 1.377 1_555 1_555
H35 C53 0.929 1_555 1_555
C54 C53 1.388 1_555 1_555
H36 C54 0.929 1_555 1_555
C55 C54 1.376 1_555 1_555
H37 C55 0.930 1_555 1_555
C56 C51 1.388 1_555 1_555
C57 C56 1.486 1_555 1_555
C58 C57 1.389 1_555 1_555
H38 C58 0.930 1_555 1_555
C59 C58 1.380 1_555 1_555
H39 C59 0.931 1_555 1_555
C60 C59 1.404 1_555 1_555
C61 C60 1.429 1_555 1_555
C62 C57 1.384 1_555 1_555
H40 C62 0.930 1_555 1_555
C63 C60 1.454 1_555 1_555
C64 C63 1.402 1_555 1_555
H41 C64 0.929 1_555 1_555
C65 C64 1.368 1_555 1_555
H42 C65 0.930 1_555 1_555
C66 C65 1.413 1_555 1_555
C67 C66 1.389 1_555 1_555
H43 C67 0.930 1_555 1_555
C68 C63 1.410 1_555 1_555
C69 C66 1.489 1_555 1_555
C70 C69 1.395 1_555 1_555
H44 C70 0.930 1_555 1_555
C71 C70 1.389 1_555 1_555
H45 C71 0.929 1_555 1_555
C72 C71 1.380 1_555 1_555
H46 C72 0.931 1_555 1_555
C73 C72 1.370 1_555 1_555
H47 C73 0.930 1_555 1_555
C74 C69 1.392 1_555 1_555
H48 C74 0.931 1_555 1_555
C75 C68 1.464 1_555 1_555
C76 C61 1.477 1_555 1_555
C77 H49 0.931 1_555 1_555
C78 C77 1.383 1_555 1_555
H50 C78 0.930 1_555 1_555
C79 C78 1.374 1_555 1_555
H51 C79 0.931 1_555 1_555
C80 C79 1.365 1_555 1_555
H52 C80 0.929 1_555 1_555
C81 C80 1.379 1_555 1_555
H53 C81 0.930 1_555 1_555
C82 C77 1.387 1_555 1_555
C83 C82 1.492 1_555 1_555
C84 C83 1.412 1_555 1_555
H54 C84 0.930 1_555 1_555
C85 C84 1.364 1_555 1_555
H55 C85 0.930 1_555 1_555
C86 C85 1.414 1_555 1_555
C87 C76 1.469 1_555 1_555
C88 C83 1.388 1_555 1_555
H56 C88 0.929 1_555 1_555
C89 C86 1.447 1_555 1_555
C90 C89 1.409 1_555 1_555
H57 C90 0.930 1_555 1_555
C91 C90 1.366 1_555 1_555
H58 C91 0.930 1_555 1_555
C92 C91 1.410 1_555 1_555
C93 C92 1.375 1_555 1_555
H59 C93 0.929 1_555 1_555
C94 C75 1.455 1_555 1_555
C95 C92 1.501 1_555 1_555
C96 C95 1.389 1_555 1_555
H60 C96 0.929 1_555 1_555
C97 C96 1.400 1_555 1_555
H61 C97 0.930 1_555 1_555
C98 C97 1.376 1_555 1_555
H62 C98 0.930 1_555 1_555
C99 C98 1.373 1_555 1_555
H63 C99 0.931 1_555 1_555
C100 C95 1.391 1_555 1_555
H64 C100 0.930 1_555 1_555
C101 H65 0.930 1_555 1_555
C102 C101 1.386 1_555 1_555
H66 C102 0.931 1_555 1_555
C103 C102 1.385 1_555 1_555
H67 C103 0.931 1_555 1_555
C104 C103 1.365 1_555 1_555
H68 C104 0.931 1_555 1_555
C105 C104 1.393 1_555 1_555
H69 C105 0.930 1_555 1_555
C106 C101 1.394 1_555 1_555
C107 C106 1.479 1_555 1_555
C108 C107 1.406 1_555 1_555
H70 C108 0.930 1_555 1_555
C109 C108 1.376 1_555 1_555
H71 C109 0.929 1_555 1_555
C110 C109 1.407 1_555 1_555
C111 C110 1.414 1_555 1_555
C112 C107 1.394 1_555 1_555
H72 C112 0.929 1_555 1_555
C113 C110 1.452 1_555 1_555
C114 C113 1.404 1_555 1_555
H73 C114 0.930 1_555 1_555
C115 C114 1.372 1_555 1_555
H74 C115 0.929 1_555 1_555
C116 C115 1.408 1_555 1_555
C117 C116 1.393 1_555 1_555
H75 C117 0.931 1_555 1_555
C118 C113 1.412 1_555 1_555
C119 C116 1.487 1_555 1_555
C120 C119 1.399 1_555 1_555
H76 C120 0.931 1_555 1_555
C121 C120 1.369 1_555 1_555
H77 C121 0.929 1_555 1_555
C122 C121 1.368 1_555 1_555
H78 C122 0.929 1_555 1_555
C123 C122 1.398 1_555 1_555
H79 C123 0.929 1_555 1_555
C124 C119 1.388 1_555 1_555
H80 C124 0.929 1_555 1_555
C125 H81 0.930 1_555 1_555
C126 C125 1.387 1_555 1_555
H82 C126 0.930 1_555 1_555
C127 C126 1.384 1_555 1_555
H83 C127 0.930 1_555 1_555
C128 C127 1.385 1_555 1_555
H84 C128 0.929 1_555 1_555
C129 C128 1.381 1_555 1_555
H85 C129 0.931 1_555 1_555
C130 C125 1.393 1_555 1_555
C131 C130 1.486 1_555 1_555
C132 C131 1.408 1_555 1_555
H86 C132 0.929 1_555 1_555
C133 C132 1.374 1_555 1_555
H87 C133 0.930 1_555 1_555
C134 C133 1.411 1_555 1_555
C135 C134 1.402 1_555 1_555
C136 C131 1.384 1_555 1_555
H88 C136 0.930 1_555 1_555
C137 C111 1.462 1_555 1_555
C138 C118 1.456 1_555 1_555
C139 C138 1.466 1_555 1_555
C140 C134 1.465 1_555 1_555
C141 C140 1.391 1_555 1_555
H89 C141 0.930 1_555 1_555
C142 C141 1.375 1_555 1_555
H90 C142 0.930 1_555 1_555
C143 C142 1.415 1_555 1_555
C144 C139 1.421 1_555 1_555
H91 C144 0.931 1_555 1_555
C145 C143 1.493 1_555 1_555
C146 C145 1.384 1_555 1_555
H92 C146 0.929 1_555 1_555
C147 C146 1.390 1_555 1_555
H93 C147 0.929 1_555 1_555
C148 C147 1.376 1_555 1_555
H94 C148 0.929 1_555 1_555
C149 C148 1.388 1_555 1_555
H95 C149 0.931 1_555 1_555
C150 C145 1.392 1_555 1_555
H96 C150 0.930 1_555 1_555
C151 H97 0.929 1_555 1_555
C152 C151 1.394 1_555 1_555
H98 C152 0.929 1_555 1_555
C153 C152 1.377 1_555 1_555
H99 C153 0.930 1_555 1_555
C154 C153 1.404 1_555 1_555
H100 C154 0.930 1_555 1_555
C155 C154 1.389 1_555 1_555
H101 C155 0.930 1_555 1_555
C156 C151 1.403 1_555 1_555
C157 C156 1.493 1_555 1_555
C158 C157 1.399 1_555 1_555
H102 C158 0.931 1_555 1_555
C159 C158 1.367 1_555 1_555
H103 C159 0.930 1_555 1_555
C160 C159 1.399 1_555 1_555
C161 C160 1.414 1_555 1_555
C162 C157 1.379 1_555 1_555
H104 C162 0.930 1_555 1_555
C163 C160 1.457 1_555 1_555
C164 C163 1.402 1_555 1_555
H105 C164 0.930 1_555 1_555
C165 C164 1.369 1_555 1_555
H106 C165 0.929 1_555 1_555
C166 C165 1.404 1_555 1_555
C167 C166 1.378 1_555 1_555
H107 C167 0.930 1_555 1_555
C168 C163 1.417 1_555 1_555
C169 C166 1.478 1_555 1_555
C170 C169 1.393 1_555 1_555
H108 C170 0.929 1_555 1_555
C171 C170 1.390 1_555 1_555
H109 C171 0.930 1_555 1_555
C172 C171 1.375 1_555 1_555
H110 C172 0.930 1_555 1_555
C173 C172 1.379 1_555 1_555
H111 C173 0.931 1_555 1_555
C174 C169 1.404 1_555 1_555
H112 C174 0.930 1_555 1_555
C175 C161 1.468 1_555 1_555
C176 C168 1.465 1_555 1_555
C177 H113 0.930 1_555 1_555
C178 C177 1.381 1_555 1_555
H114 C178 0.929 1_555 1_555
C179 C178 1.389 1_555 1_555
H115 C179 0.930 1_555 1_555
C180 C179 1.386 1_555 1_555
H116 C180 0.931 1_555 1_555
C181 C180 1.374 1_555 1_555
H117 C181 0.931 1_555 1_555
C182 C177 1.414 1_555 1_555
C183 C182 1.469 1_555 1_555
C184 C183 1.405 1_555 1_555
H118 C184 0.930 1_555 1_555
C185 C184 1.367 1_555 1_555
H119 C185 0.929 1_555 1_555
C186 C185 1.415 1_555 1_555
C187 C175 1.464 1_555 1_555
C188 C183 1.385 1_555 1_555
H120 C188 0.930 1_555 1_555
C189 C186 1.445 1_555 1_555
C190 C189 1.419 1_555 1_555
H121 C190 0.929 1_555 1_555
C191 C190 1.350 1_555 1_555
H122 C191 0.930 1_555 1_555
C192 C191 1.417 1_555 1_555
C193 C192 1.386 1_555 1_555
H123 C193 0.930 1_555 1_555
C194 C176 1.464 1_555 1_555
C195 C192 1.488 1_555 1_555
C196 C195 1.397 1_555 1_555
H124 C196 0.929 1_555 1_555
C197 C196 1.375 1_555 1_555
H125 C197 0.931 1_555 1_555
C198 C197 1.376 1_555 1_555
H126 C198 0.931 1_555 1_555
C199 C198 1.402 1_555 1_555
H127 C199 0.929 1_555 1_555
C200 C195 1.402 1_555 1_555
H128 C200 0.930 1_555 1_555
C5 C6 1.382 1_555 1_555
C11 C12 1.418 1_555 1_555
C21 C22 1.395 1_555 1_555
C23 C24 1.417 1_555 1_555
C25 C26 1.404 1_555 1_555
C34 C35 1.380 1_555 1_555
C37 C38 1.395 1_555 1_555
C39 C44 1.421 1_555 1_555
C43 C44 1.427 1_555 1_555
C49 C50 1.386 1_555 1_555
C55 C56 1.397 1_555 1_555
C61 C62 1.390 1_555 1_555
C67 C68 1.408 1_555 1_555
C73 C74 1.390 1_555 1_555
C75 C76 1.399 1_555 1_555
C81 C82 1.388 1_555 1_555
C86 C87 1.413 1_555 1_555
C87 C88 1.400 1_555 1_555
C89 C94 1.410 1_555 1_555
C93 C94 1.420 1_555 1_555
C99 C100 1.383 1_555 1_555
C105 C106 1.408 1_555 1_555
C111 C112 1.406 1_555 1_555
C117 C118 1.420 1_555 1_555
C123 C124 1.390 1_555 1_555
C129 C130 1.399 1_555 1_555
C135 C136 1.401 1_555 1_555
C135 C137 1.470 1_555 1_555
C137 C138 1.395 1_555 1_555
C139 C140 1.423 1_555 1_555
C143 C144 1.386 1_555 1_555
C149 C150 1.383 1_555 1_555
C155 C156 1.391 1_555 1_555
C161 C162 1.414 1_555 1_555
C167 C168 1.411 1_555 1_555
C173 C174 1.402 1_555 1_555
C175 C176 1.395 1_555 1_555
C181 C182 1.389 1_555 1_555
C186 C187 1.418 1_555 1_555
C187 C188 1.407 1_555 1_555
C189 C194 1.427 1_555 1_555
C193 C194 1.409 1_555 1_555
C199 C200 1.388 1_555 1_555
#END
