
#######################################################################
#
#                 Cambridge Crystallographic Data Centre
#                                CCDC
#
#######################################################################
#
# If this CIF has been generated from an entry in the Cambridge
# Structural Database, then it will include bibliographic, chemical,
# crystal, experimental, refinement or atomic coordinate data resulting
# from the CCDC's data processing and validation procedures.
#
#######################################################################

data_CSD_CIF_PAWVOB
_audit_creation_date 2017-06-21
_audit_creation_method CSD-ConQuest-V1
_database_code_CSD PAWVOB
_database_code_depnum_ccdc_archive 'CCDC 1539450'
_chemical_formula_sum 'C36 H44'
_chemical_formula_moiety
;
C36 H44
;
_journal_coden_Cambridge 1475
_journal_volume 8
_journal_year 2017
_journal_page_first 5675
_journal_name_full 'Chemical Science '
loop_
_publ_author_name
"S.J.Hein"
"D.Lehnherr"
"W.R.Dichtel"
_chemical_name_systematic
;
2,3,8,9-tetrabutyldibenzo[b,h]biphenylene
;
_cell_volume    663.023
_exptl_crystal_density_diffrn 1.194
_exptl_crystal_description 'hexagonal'
_diffrn_ambient_temperature 100
#These two values have been output from a single CSD field.
_refine_ls_R_factor_gt 0.0481
_refine_ls_wR_factor_gt 0.0481
_symmetry_cell_setting triclinic
_symmetry_space_group_name_H-M 'P -1'
_symmetry_Int_Tables_number 2
loop_
_symmetry_equiv_pos_site_id
_symmetry_equiv_pos_as_xyz
1 x,y,z
2 -x,-y,-z
_cell_length_a 8.2828(4)
_cell_length_b 8.9132(4)
_cell_length_c 9.1524(4)
_cell_angle_alpha 88.129(2)
_cell_angle_beta 79.474(2)
_cell_angle_gamma 86.662(2)
_cell_formula_units_Z 1
loop_
_atom_type_symbol
_atom_type_radius_bond
C 0.68
H 0.23
loop_
_atom_site_label
_atom_site_type_symbol
_atom_site_fract_x
_atom_site_fract_y
_atom_site_fract_z
C1 C 0.72427(18) 0.58712(15) 1.03367(16)
H1 H 0.77420 0.52180 0.95160
H2 H 0.66960 0.52580 1.11690
H3 H 0.81000 0.64240 1.06600
C2 C 0.59850(17) 0.69818(15) 0.98158(15)
H4 H 0.51930 0.64220 0.93840
H5 H 0.53640 0.75340 1.06810
C3 C 0.67970(16) 0.81027(15) 0.86603(15)
H6 H 0.75370 0.75410 0.78660
H7 H 0.74830 0.87400 0.91360
C4 C 0.55840(16) 0.91251(14) 0.79473(14)
H8 H 0.47060 0.95340 0.87390
H9 H 0.61700 0.99830 0.74290
C5 C 0.48112(16) 0.83071(14) 0.68526(15)
C6 C 0.32722(16) 0.77529(14) 0.72950(14)
H10 H 0.27030 0.79430 0.82760
C7 C 0.25084(16) 0.69196(14) 0.63588(14)
C8 C 0.08971(15) 0.63698(14) 0.68709(14)
H11 H 0.03090 0.65510 0.78470
C9 C 0.02637(15) 0.55809(14) 0.58894(15)
C10 C 0.11503(16) 0.52704(14) 0.44119(15)
C11 C 0.26736(16) 0.57546(14) 0.38942(14)
H12 H 0.32470 0.55310 0.29220
C12 C 0.33785(15) 0.66251(14) 0.48932(14)
C13 C 0.49467(16) 0.72203(14) 0.44501(14)
H13 H 0.55260 0.70420 0.34700
C14 C 0.56703(15) 0.80480(13) 0.53786(14)
C15 C 0.73391(15) 0.86974(14) 0.48591(14)
H14 H 0.80650 0.83560 0.55650
H15 H 0.71980 0.98060 0.49100
C16 C 0.82066(16) 0.82948(14) 0.32997(15)
H16 H 0.75320 0.87020 0.25750
H17 H 0.83010 0.71870 0.32170
C17 C 0.99203(16) 0.89077(14) 0.29063(15)
H18 H 0.98210 1.00200 0.28790
H19 H 1.05610 0.85870 0.36860
C18 C 1.08334(17) 0.83533(16) 0.14049(16)
H20 H 1.02430 0.87320 0.06210
H21 H 1.08970 0.72520 0.14160
H22 H 1.19470 0.87200 0.12120
C1A C -0.72427(18) 0.41288(15) -0.03367(16)
H1A H -0.77420 0.47820 0.04840
H2A H -0.66960 0.47420 -0.11690
H3A H -0.81000 0.35760 -0.06600
C2A C -0.59850(17) 0.30182(15) 0.01842(15)
H4A H -0.51930 0.35780 0.06160
H5A H -0.53640 0.24660 -0.06810
C3A C -0.67970(16) 0.18973(15) 0.13397(15)
H6A H -0.75370 0.24590 0.21340
H7A H -0.74830 0.12600 0.08640
C4A C -0.55840(16) 0.08749(14) 0.20527(14)
H8A H -0.47060 0.04660 0.12610
H9A H -0.61700 0.00170 0.25710
C5A C -0.48112(16) 0.16929(14) 0.31474(15)
C6A C -0.32722(16) 0.22471(14) 0.27050(14)
H10A H -0.27030 0.20570 0.17240
C7A C -0.25084(16) 0.30804(14) 0.36412(14)
C8A C -0.08971(15) 0.36302(14) 0.31291(14)
H11A H -0.03090 0.34490 0.21530
C9A C -0.02637(15) 0.44191(14) 0.41106(15)
C10A C -0.11503(16) 0.47296(14) 0.55881(15)
C11A C -0.26736(16) 0.42454(14) 0.61058(14)
H12A H -0.32470 0.44690 0.70780
C12A C -0.33785(15) 0.33749(14) 0.51068(14)
C13A C -0.49467(16) 0.27797(14) 0.55499(14)
H13A H -0.55260 0.29580 0.65300
C14A C -0.56703(15) 0.19520(13) 0.46214(14)
C15A C -0.73391(15) 0.13026(14) 0.51409(14)
H14A H -0.80650 0.16440 0.44350
H15A H -0.71980 0.01940 0.50900
C16A C -0.82066(16) 0.17052(14) 0.67003(15)
H16A H -0.75320 0.12980 0.74250
H17A H -0.83010 0.28130 0.67830
C17A C -0.99203(16) 0.10923(14) 0.70937(15)
H18A H -0.98210 -0.00200 0.71210
H19A H -1.05610 0.14130 0.63140
C18A C -1.08334(17) 0.16467(16) 0.85951(16)
H20A H -1.02430 0.12680 0.93790
H21A H -1.08970 0.27480 0.85840
H22A H -1.19470 0.12800 0.87880
loop_
_geom_bond_atom_site_label_1
_geom_bond_atom_site_label_2
_geom_bond_distance
_geom_bond_site_symmetry_1
_geom_bond_site_symmetry_2
C1 H1 0.980 1_555 1_555
H2 C1 0.980 1_555 1_555
H3 C1 0.981 1_555 1_555
C2 C1 1.524 1_555 1_555
H4 C2 0.991 1_555 1_555
H5 C2 0.990 1_555 1_555
C3 C2 1.523 1_555 1_555
H6 C3 0.990 1_555 1_555
H7 C3 0.990 1_555 1_555
C4 C3 1.536 1_555 1_555
H8 C4 0.990 1_555 1_555
H9 C4 0.990 1_555 1_555
C5 C4 1.510 1_555 1_555
C6 C5 1.380 1_555 1_555
H10 C6 0.950 1_555 1_555
C7 C6 1.407 1_555 1_555
C8 C7 1.440 1_555 1_555
H11 C8 0.950 1_555 1_555
C9 C8 1.354 1_555 1_555
C10 C9 1.443 1_555 1_555
C11 C10 1.354 1_555 1_555
H12 C11 0.950 1_555 1_555
C12 C7 1.427 1_555 1_555
C13 C12 1.417 1_555 1_555
H13 C13 0.950 1_555 1_555
C14 C5 1.425 1_555 1_555
C15 C14 1.519 1_555 1_555
H14 C15 0.990 1_555 1_555
H15 C15 0.990 1_555 1_555
C16 C15 1.520 1_555 1_555
H16 C16 0.990 1_555 1_555
H17 C16 0.990 1_555 1_555
C17 C16 1.528 1_555 1_555
H18 C17 0.990 1_555 1_555
H19 C17 0.990 1_555 1_555
C18 C17 1.525 1_555 1_555
H20 C18 0.980 1_555 1_555
H21 C18 0.980 1_555 1_555
H22 C18 0.980 1_555 1_555
C1A H1A 0.980 1_555 1_555
H2A C1A 0.980 1_555 1_555
H3A C1A 0.981 1_555 1_555
C2A C1A 1.524 1_555 1_555
H4A C2A 0.991 1_555 1_555
H5A C2A 0.990 1_555 1_555
C3A C2A 1.523 1_555 1_555
H6A C3A 0.990 1_555 1_555
H7A C3A 0.990 1_555 1_555
C4A C3A 1.536 1_555 1_555
H8A C4A 0.990 1_555 1_555
H9A C4A 0.990 1_555 1_555
C5A C4A 1.510 1_555 1_555
C6A C5A 1.380 1_555 1_555
H10A C6A 0.950 1_555 1_555
C7A C6A 1.407 1_555 1_555
C8A C7A 1.440 1_555 1_555
H11A C8A 0.950 1_555 1_555
C9A C10 1.503 1_555 1_555
C10A C9 1.503 1_555 1_555
C11A C10A 1.354 1_555 1_555
H12A C11A 0.950 1_555 1_555
C12A C7A 1.427 1_555 1_555
C13A C12A 1.417 1_555 1_555
H13A C13A 0.950 1_555 1_555
C14A C5A 1.425 1_555 1_555
C15A C14A 1.519 1_555 1_555
H14A C15A 0.990 1_555 1_555
H15A C15A 0.990 1_555 1_555
C16A C15A 1.520 1_555 1_555
H16A C16A 0.990 1_555 1_555
H17A C16A 0.990 1_555 1_555
C17A C16A 1.528 1_555 1_555
H18A C17A 0.990 1_555 1_555
H19A C17A 0.990 1_555 1_555
C18A C17A 1.525 1_555 1_555
H20A C18A 0.980 1_555 1_555
H21A C18A 0.980 1_555 1_555
H22A C18A 0.980 1_555 1_555
C11 C12 1.440 1_555 1_555
C13 C14 1.380 1_555 1_555
C8A C9A 1.354 1_555 1_555
C9A C10A 1.443 1_555 1_555
C11A C12A 1.440 1_555 1_555
C13A C14A 1.380 1_555 1_555
#END
