
#######################################################################
#
#                 Cambridge Crystallographic Data Centre
#                                CCDC
#
#######################################################################
#
# If this CIF has been generated from an entry in the Cambridge
# Structural Database, then it will include bibliographic, chemical,
# crystal, experimental, refinement or atomic coordinate data resulting
# from the CCDC's data processing and validation procedures.
#
#######################################################################

data_CSD_CIF_PAZLUZ
_audit_creation_date 2012-10-16
_audit_creation_method CSD-ConQuest-V1
_database_code_CSD PAZLUZ
_database_code_depnum_ccdc_archive 'CCDC 855660'
_chemical_formula_sum 'C16 H20'
_chemical_formula_moiety
;
C16 H20
;
_journal_coden_Cambridge 1078
_journal_year 2012
_journal_name_full 'CSD Communication(Private Communication) '
loop_
_publ_author_name
"B.Schroder"
"L.R.Gomes"
"J.N.Low"
_chemical_name_systematic
;
1,5-Diisopropylnaphthalene
;
_chemical_name_common
;
1,5-bis(propan-2-yl)naphthalene
;
_cell_volume    610.693
_exptl_crystal_colour 'colorless'
_exptl_crystal_density_diffrn 1.155
_exptl_special_details
;
contribution from Aberdeen University, Aberdeen, Scotland

;
_exptl_crystal_description 'lath'
_diffrn_ambient_temperature 150
#These two values have been output from a single CSD field.
_refine_ls_R_factor_gt 0.0449
_refine_ls_wR_factor_gt 0.0449
_symmetry_cell_setting monoclinic
_symmetry_space_group_name_H-M 'P 21/c'
_symmetry_Int_Tables_number 14
loop_
_symmetry_equiv_pos_site_id
_symmetry_equiv_pos_as_xyz
1 x,y,z
2 -x,1/2+y,1/2-z
3 -x,-y,-z
4 x,-1/2-y,-1/2+z
_cell_length_a 7.4330(5)
_cell_length_b 7.5665(4)
_cell_length_c 10.8778(6)
_cell_angle_alpha 90
_cell_angle_beta 93.427(3)
_cell_angle_gamma 90
_cell_formula_units_Z 2
loop_
_atom_type_symbol
_atom_type_radius_bond
C 0.68
H 0.23
loop_
_atom_site_label
_atom_site_type_symbol
_atom_site_fract_x
_atom_site_fract_y
_atom_site_fract_z
C1 C 0.65623(14) 0.57837(14) 0.37855(9)
C2 C 0.79344(14) 0.45772(15) 0.39805(10)
H1 H 0.89420 0.46290 0.34840
C3 C 0.78844(15) 0.32658(15) 0.48985(10)
H2 H 0.88560 0.24550 0.50130
C4 C 0.35481(14) 0.68514(14) 0.4374(1)
H3 H 0.35550 0.77350 0.37540
C5 C 0.50302(13) 0.56657(13) 0.45345(9)
C6 C 0.66821(15) 0.72582(15) 0.28411(10)
H4 H 0.54660 0.73900 0.24060
C7 C 0.80370(17) 0.68848(17) 0.18683(11)
H5 H 0.80470 0.78770 0.12890
H6 H 0.76900 0.58010 0.14210
H7 H 0.92420 0.67370 0.22720
C8 C 0.71597(17) 0.90214(15) 0.34791(11)
H8 H 0.72300 0.99530 0.28580
H9 H 0.83260 0.89130 0.39430
H10 H 0.62280 0.93240 0.40440
C1B C 0.34377(14) 0.42163(14) 0.62145(9)
C2B C 0.20656(14) 0.54228(15) 0.60195(10)
H1B H 0.10580 0.53710 0.65160
C3B C 0.21156(15) 0.67342(15) 0.51015(10)
H2B H 0.11440 0.75450 0.49870
C4B C 0.64519(14) 0.31486(14) 0.5626(1)
H3B H 0.64450 0.22650 0.62460
C5B C 0.49698(13) 0.43343(13) 0.54655(9)
C6B C 0.33179(15) 0.27418(15) 0.71589(10)
H4B H 0.45340 0.26100 0.75940
C7B C 0.19630(17) 0.31152(17) 0.81317(11)
H5B H 0.19530 0.21230 0.87110
H6B H 0.23100 0.41990 0.85790
H7B H 0.07580 0.32630 0.77280
C8B C 0.28403(17) 0.09786(15) 0.65209(11)
H8B H 0.27700 0.00470 0.71420
H9B H 0.16740 0.10870 0.60570
H10B H 0.37720 0.06760 0.59560
loop_
_geom_bond_atom_site_label_1
_geom_bond_atom_site_label_2
_geom_bond_distance
_geom_bond_site_symmetry_1
_geom_bond_site_symmetry_2
C1 C2 1.376 1_555 1_555
C2 H1 0.950 1_555 1_555
C3 C2 1.410 1_555 1_555
H2 C3 0.950 1_555 1_555
C4 H3 0.950 1_555 1_555
C5 C1 1.442 1_555 1_555
C6 C1 1.523 1_555 1_555
H4 C6 1.000 1_555 1_555
C7 C6 1.530 1_555 1_555
H5 C7 0.980 1_555 1_555
H6 C7 0.980 1_555 1_555
H7 C7 0.980 1_555 1_555
C8 C6 1.536 1_555 1_555
H8 C8 0.980 1_555 1_555
H9 C8 0.980 1_555 1_555
H10 C8 0.980 1_555 1_555
C1B C2B 1.376 1_555 1_555
C2B H1B 0.950 1_555 1_555
C3B C4 1.367 1_555 1_555
H2B C3B 0.950 1_555 1_555
C4B C3 1.367 1_555 1_555
H3B C4B 0.950 1_555 1_555
C5B C5 1.431 1_555 1_555
C6B C1B 1.523 1_555 1_555
H4B C6B 1.000 1_555 1_555
C7B C6B 1.530 1_555 1_555
H5B C7B 0.980 1_555 1_555
H6B C7B 0.980 1_555 1_555
H7B C7B 0.980 1_555 1_555
C8B C6B 1.536 1_555 1_555
H8B C8B 0.980 1_555 1_555
H9B C8B 0.980 1_555 1_555
H10B C8B 0.980 1_555 1_555
C4 C5 1.423 1_555 1_555
C1B C5B 1.442 1_555 1_555
C2B C3B 1.410 1_555 1_555
C4B C5B 1.423 1_555 1_555
#END
