
#######################################################################
#
#                 Cambridge Crystallographic Data Centre
#                                CCDC
#
#######################################################################
#
# If this CIF has been generated from an entry in the Cambridge
# Structural Database, then it will include bibliographic, chemical,
# crystal, experimental, refinement or atomic coordinate data resulting
# from the CCDC's data processing and validation procedures.
#
#######################################################################

data_CSD_CIF_PEKFIU
_audit_creation_date 1994-02-02
_audit_creation_method CSD-ConQuest-V1
_database_code_CSD PEKFIU
_database_code_depnum_ccdc_archive 'CCDC 1230501'
_chemical_formula_sum 'C26 H20'
_chemical_formula_moiety
;
C26 H20
;
_journal_coden_Cambridge 7
_journal_volume 66
_journal_year 1993
_journal_page_first 589
_journal_name_full 'Bull.Chem.Soc.Jpn. '
loop_
_publ_author_name
"M.Oki"
"K.Shionoiri"
"K.Otake"
"M.Ono"
"S.Toyota"
_chemical_name_systematic
;
sp-1-(9-Fluorenyl)-2-(1-methylethenyl)naphthalene
;
_chemical_melting_point 430.65
_cell_volume   1881.141
_exptl_special_details
;
Melting point range 430.65-431.15K
Dx reported as 1.20; we calculate 1.17

;
_diffrn_ambient_temperature ?
_diffrn_special_details
;
The study was carried out at room temperature,in the range 283-303K

;
#These two values have been output from a single CSD field.
_refine_ls_R_factor_gt 0.053
_refine_ls_wR_factor_gt 0.053
_symmetry_cell_setting monoclinic
_symmetry_space_group_name_H-M 'P 21/c'
_symmetry_Int_Tables_number 14
loop_
_symmetry_equiv_pos_site_id
_symmetry_equiv_pos_as_xyz
1 x,y,z
2 -x,1/2+y,1/2-z
3 -x,-y,-z
4 x,-1/2-y,-1/2+z
_cell_length_a 13.519(3)
_cell_length_b 11.373(2)
_cell_length_c 13.419(4)
_cell_angle_alpha 90
_cell_angle_beta 114.25(2)
_cell_angle_gamma 90
_cell_formula_units_Z 4
loop_
_atom_type_symbol
_atom_type_radius_bond
C 0.68
loop_
_atom_site_label
_atom_site_type_symbol
_atom_site_fract_x
_atom_site_fract_y
_atom_site_fract_z
C1 C 0.2677(1) 0.3654(1) 0.8015(1)
C2 C 0.2546(1) 0.4756(1) 0.7519(1)
C3 C 0.1706(1) 0.5483(1) 0.7464(1)
C4 C 0.0974(1) 0.5133(1) 0.7893(1)
C5 C 0.10988(9) 0.4029(1) 0.83924(9)
C6 C 0.04794(9) 0.3436(1) 0.8930(1)
C7 C -0.0396(1) 0.3806(1) 0.9144(1)
C8 C -0.0770(1) 0.3086(2) 0.9756(1)
C9 C -0.0285(1) 0.2011(2) 1.0151(1)
C10 C 0.0577(1) 0.1622(1) 0.9927(1)
C11 C 0.09529(9) 0.2336(1) 0.93145(9)
C12 C 0.18811(9) 0.2132(1) 0.8972(1)
C13 C 0.19541(9) 0.3304(1) 0.84546(9)
C14 C 0.29036(9) 0.1606(1) 0.9862(1)
C15 C 0.36292(9) 0.2279(1) 1.0716(1)
C16 C 0.4601(1) 0.1752(2) 1.1496(1)
C17 C 0.4801(1) 0.0583(2) 1.1431(2)
C18 C 0.4059(1) -0.0138(2) 1.0610(2)
C19 C 0.4251(2) -0.1376(2) 1.0569(2)
C20 C 0.3516(3) -0.2062(2) 0.9770(3)
C21 C 0.2573(2) -0.1576(2) 0.8981(2)
C22 C 0.2365(2) -0.0404(1) 0.8933(2)
C23 C 0.3103(1) 0.0365(1) 0.9811(1)
C24 C 0.3468(1) 0.3552(1) 1.0894(1)
C25 C 0.2728(1) 0.3899(1) 1.1245(1)
C26 C 0.4250(2) 0.4394(2) 1.0736(2)
loop_
_geom_bond_atom_site_label_1
_geom_bond_atom_site_label_2
_geom_bond_distance
_geom_bond_site_symmetry_1
_geom_bond_site_symmetry_2
C1 C2 1.396 1_555 1_555
C2 C3 1.382 1_555 1_555
C3 C4 1.392 1_555 1_555
C4 C5 1.400 1_555 1_555
C5 C6 1.474 1_555 1_555
C6 C7 1.393 1_555 1_555
C7 C8 1.393 1_555 1_555
C8 C9 1.386 1_555 1_555
C9 C10 1.390 1_555 1_555
C10 C11 1.392 1_555 1_555
C11 C6 1.403 1_555 1_555
C12 C11 1.521 1_555 1_555
C13 C1 1.391 1_555 1_555
C14 C12 1.529 1_555 1_555
C15 C14 1.392 1_555 1_555
C16 C15 1.432 1_555 1_555
C17 C16 1.367 1_555 1_555
C18 C17 1.409 1_555 1_555
C19 C18 1.437 1_555 1_555
C20 C19 1.368 1_555 1_555
C21 C20 1.394 1_555 1_555
C22 C21 1.358 1_555 1_555
C23 C14 1.444 1_555 1_555
C24 C15 1.498 1_555 1_555
C25 C24 1.329 1_555 1_555
C26 C24 1.505 1_555 1_555
C5 C13 1.394 1_555 1_555
C12 C13 1.525 1_555 1_555
C18 C23 1.417 1_555 1_555
C22 C23 1.477 1_555 1_555
#END
