
#######################################################################
#
#                 Cambridge Crystallographic Data Centre
#                                CCDC
#
#######################################################################
#
# If this CIF has been generated from an entry in the Cambridge
# Structural Database, then it will include bibliographic, chemical,
# crystal, experimental, refinement or atomic coordinate data resulting
# from the CCDC's data processing and validation procedures.
#
#######################################################################

data_CSD_CIF_PENCEN05
_audit_creation_date 2007-12-14
_audit_creation_method CSD-ConQuest-V1
_database_code_CSD PENCEN05
_database_code_depnum_ccdc_archive 'CCDC 619981'
_chemical_formula_sum 'C22 H14'
_chemical_formula_moiety
;
C22 H14
;
_journal_coden_Cambridge 1089
_journal_volume 19
_journal_year 2007
_journal_page_first 2079
_journal_name_full 'Adv.Mater. '
loop_
_publ_author_name
"T.Siegrist"
"C.Besnard"
"S.Haas"
"M.Schiltz"
"P.Pattison"
"D.Chernyshov"
"B.Batlogg"
"C.Kloc"
_chemical_name_systematic
;
Pentacene
;
_cell_volume    714.725
_exptl_crystal_density_diffrn 1.293
_exptl_special_details
;
polymorph I
phase transition at around 463 K

;
_diffrn_ambient_temperature 478
_diffrn_radiation_probe x-ray
_diffrn_source synchrotron
#These two values have been output from a single CSD field.
_refine_ls_R_factor_gt 0.0781
_refine_ls_wR_factor_gt 0.0781
_symmetry_cell_setting triclinic
_symmetry_space_group_name_H-M 'P -1'
_symmetry_Int_Tables_number 2
loop_
_symmetry_equiv_pos_site_id
_symmetry_equiv_pos_as_xyz
1 x,y,z
2 -x,-y,-z
_cell_length_a 6.119(2)
_cell_length_b 8.058(2)
_cell_length_c 15.097(3)
_cell_angle_alpha 80.88(2)
_cell_angle_beta 76.68(2)
_cell_angle_gamma 85.89(2)
_cell_formula_units_Z 2
loop_
_atom_type_symbol
_atom_type_radius_bond
C 0.68
H 0.23
loop_
_atom_site_label
_atom_site_type_symbol
_atom_site_fract_x
_atom_site_fract_y
_atom_site_fract_z
C1 C 0.1968(12) 0.2011(8) 0.1535(5)
C2 C 0.3706(15) 0.2867(9) 0.0949(5)
C3 C 0.5456(12) 0.3430(8) 0.1300(6)
C4 C 0.5422(11) 0.3091(7) 0.2208(6)
C5 C 0.3663(10) 0.2188(7) 0.2865(5)
C6 C 0.1891(11) 0.1634(7) 0.2495(5)
C7 C 0.3543(11) 0.1808(7) 0.3789(5)
C8 C 0.1777(11) 0.0908(7) 0.4397(5)
C9 C 0.000(1) 0.0338(7) 0.4030(5)
C10 C 0.014(1) 0.0740(7) 0.3079(5)
C11 C 0.1717(9) 0.0555(7) 0.5331(5)
H1 H 0.08090 0.16460 0.12960
H2 H 0.37470 0.31030 0.03060
H3 H 0.66520 0.40540 0.08800
H4 H 0.66000 0.34730 0.24320
H5 H 0.46870 0.21620 0.40420
H6 H -0.09800 0.03820 0.28210
H7 H 0.28750 0.09440 0.55610
C12 C 1.0499(12) 0.6633(9) 0.1915(6)
C13 C 1.0309(14) 0.7634(11) 0.1128(6)
C14 C 0.8239(17) 0.8531(9) 0.1050(6)
C15 C 0.6437(13) 0.8384(8) 0.1771(6)
C16 C 0.6515(12) 0.7342(8) 0.2620(5)
C17 C 0.8626(13) 0.6450(8) 0.2683(5)
C18 C 0.4725(9) 0.7133(7) 0.3358(5)
C19 C 0.4892(12) 0.6071(8) 0.4179(4)
C20 C 0.6970(9) 0.5149(8) 0.4272(5)
C21 C 0.8780(9) 0.5421(8) 0.3495(4)
C22 C 0.3005(10) 0.5888(7) 0.4900(5)
H8 H 1.18780 0.60340 0.19600
H9 H 1.15740 0.77420 0.06100
H10 H 0.81270 0.92490 0.04810
H11 H 0.50780 0.89760 0.17080
H12 H 0.33250 0.77200 0.33070
H13 H 1.01760 0.48380 0.35360
H14 H 0.16370 0.65010 0.48330
C1A C -0.1968(12) -0.2011(8) 0.8465(5)
C2A C -0.3706(15) -0.2867(9) 0.9051(5)
C3A C -0.5456(12) -0.3430(8) 0.8700(6)
C4A C -0.5422(11) -0.3091(7) 0.7792(6)
C5A C -0.3663(10) -0.2188(7) 0.7135(5)
C6A C -0.1891(11) -0.1634(7) 0.7505(5)
C7A C -0.3543(11) -0.1808(7) 0.6211(5)
C8A C -0.1777(11) -0.0908(7) 0.5603(5)
C9A C 0.000(1) -0.0338(7) 0.5970(5)
C10A C -0.014(1) -0.0740(7) 0.6921(5)
C11A C -0.1717(9) -0.0555(7) 0.4669(5)
H1A H -0.08090 -0.16460 0.87040
H2A H -0.37470 -0.31030 0.96940
H3A H -0.66520 -0.40540 0.91200
H4A H -0.66000 -0.34730 0.75680
H5A H -0.46870 -0.21620 0.59580
H6A H 0.09800 -0.03820 0.71790
H7A H -0.28750 -0.09440 0.44390
C12A C -0.0499(12) 0.3367(9) 0.8085(6)
C13A C -0.0309(14) 0.2366(11) 0.8872(6)
C14A C 0.1761(17) 0.1469(9) 0.8950(6)
C15A C 0.3563(13) 0.1616(8) 0.8229(6)
C16A C 0.3485(12) 0.2658(8) 0.7380(5)
C17A C 0.1374(13) 0.3550(8) 0.7317(5)
C18A C 0.5275(9) 0.2867(7) 0.6642(5)
C19A C 0.5108(12) 0.3929(8) 0.5821(4)
C20A C 0.3030(9) 0.4851(8) 0.5728(5)
C21A C 0.1220(9) 0.4579(8) 0.6505(4)
C22A C 0.6995(10) 0.4112(7) 0.5100(5)
H8A H -0.18780 0.39660 0.80400
H9A H -0.15740 0.22580 0.93900
H10A H 0.18730 0.07510 0.95190
H11A H 0.49220 0.10240 0.82920
H12A H 0.66750 0.22800 0.66930
H13A H -0.01760 0.51620 0.64640
H14A H 0.83630 0.34990 0.51670
loop_
_geom_bond_atom_site_label_1
_geom_bond_atom_site_label_2
_geom_bond_distance
_geom_bond_site_symmetry_1
_geom_bond_site_symmetry_2
C1 C2 1.367 1_555 1_555
C2 C3 1.428 1_555 1_555
C3 C4 1.350 1_555 1_555
C4 C5 1.436 1_555 1_555
C5 C6 1.454 1_555 1_555
C6 C1 1.423 1_555 1_555
C7 C5 1.366 1_555 1_555
C8 C7 1.407 1_555 1_555
C9 C8 1.459 1_555 1_555
C10 C6 1.385 1_555 1_555
C11 C8 1.386 1_555 1_555
H1 C1 0.949 1_555 1_555
H2 C2 0.954 1_555 1_555
H3 C3 0.963 1_555 1_555
H4 C4 0.952 1_555 1_555
H5 C7 0.951 1_555 1_555
H6 C10 0.944 1_555 1_555
H7 C11 0.949 1_555 1_555
C12 C13 1.350 1_555 1_555
C13 C14 1.432 1_555 1_555
C14 C15 1.356 1_555 1_555
C15 C16 1.425 1_555 1_555
C16 C17 1.448 1_555 1_555
C17 C12 1.427 1_555 1_555
C18 C16 1.369 1_555 1_555
C19 C18 1.410 1_555 1_555
C20 C19 1.450 1_555 1_555
C21 C17 1.385 1_555 1_555
C22 C19 1.391 1_555 1_555
H8 C12 0.952 1_555 1_555
H9 C13 0.963 1_555 1_555
H10 C14 0.970 1_555 1_555
H11 C15 0.945 1_555 1_555
H12 C18 0.961 1_555 1_555
H13 C21 0.955 1_555 1_555
H14 C22 0.959 1_555 1_555
C1A C2A 1.367 1_555 1_555
C2A C3A 1.428 1_555 1_555
C3A C4A 1.350 1_555 1_555
C4A C5A 1.436 1_555 1_555
C5A C6A 1.454 1_555 1_555
C6A C1A 1.423 1_555 1_555
C7A C5A 1.366 1_555 1_555
C8A C7A 1.407 1_555 1_555
C9A C11 1.405 1_555 1_555
C10A C6A 1.385 1_555 1_555
C11A C9 1.405 1_555 1_555
H1A C1A 0.949 1_555 1_555
H2A C2A 0.954 1_555 1_555
H3A C3A 0.963 1_555 1_555
H4A C4A 0.952 1_555 1_555
H5A C7A 0.951 1_555 1_555
H6A C10A 0.944 1_555 1_555
H7A C11A 0.949 1_555 1_555
C12A C13A 1.350 1_555 1_555
C13A C14A 1.432 1_555 1_555
C14A C15A 1.356 1_555 1_555
C15A C16A 1.425 1_555 1_555
C16A C17A 1.448 1_555 1_555
C17A C12A 1.427 1_555 1_555
C18A C16A 1.369 1_555 1_555
C19A C18A 1.410 1_555 1_555
C20A C22 1.392 1_555 1_555
C21A C17A 1.385 1_555 1_555
C22A C20 1.392 1_555 1_555
H8A C12A 0.952 1_555 1_555
H9A C13A 0.963 1_555 1_555
H10A C14A 0.970 1_555 1_555
H11A C15A 0.945 1_555 1_555
H12A C18A 0.961 1_555 1_555
H13A C21A 0.955 1_555 1_555
H14A C22A 0.959 1_555 1_555
C9 C10 1.405 1_555 1_555
C20 C21 1.416 1_555 1_555
C8A C9A 1.459 1_555 1_555
C8A C11A 1.386 1_555 1_555
C9A C10A 1.405 1_555 1_555
C19A C20A 1.450 1_555 1_555
C19A C22A 1.391 1_555 1_555
C20A C21A 1.416 1_555 1_555
#END
