
#######################################################################
#
#                 Cambridge Crystallographic Data Centre
#                                CCDC
#
#######################################################################
#
# If this CIF has been generated from an entry in the Cambridge
# Structural Database, then it will include bibliographic, chemical,
# crystal, experimental, refinement or atomic coordinate data resulting
# from the CCDC's data processing and validation procedures.
#
#######################################################################

data_CSD_CIF_PENCEN01
_audit_creation_date 2000-05-08
_audit_creation_method CSD-ConQuest-V1
_database_code_CSD PENCEN01
_database_code_depnum_ccdc_archive 'CCDC 114447'
_chemical_formula_sum 'C22 H14'
_chemical_formula_moiety
;
C22 H14
;
_journal_coden_Cambridge 1220
_journal_volume 5
_journal_year 1999
_journal_page_first 3399
_journal_name_full 'Chem.-Eur.J. '
loop_
_publ_author_name
"D.Holmes"
"S.Kumaraswamy"
"A.J.Matzger"
"K.P.C.Vollhardt"
_chemical_name_systematic
;
Pentacene
;
_cell_volume    677.335
_exptl_crystal_colour 'violet-blue'
_exptl_crystal_density_diffrn 1.37
_exptl_special_details
;
polymorph II

;
_exptl_crystal_description 'platelet'
_exptl_crystal_preparation '1,2,4-trichlorobenzene'
_diffrn_ambient_temperature 180.15
#These two values have been output from a single CSD field.
_refine_ls_R_factor_gt 0.054
_refine_ls_wR_factor_gt 0.054
_symmetry_cell_setting triclinic
_symmetry_space_group_name_H-M 'P -1'
_symmetry_Int_Tables_number 2
loop_
_symmetry_equiv_pos_site_id
_symmetry_equiv_pos_as_xyz
1 x,y,z
2 -x,-y,-z
_cell_length_a 6.2753(8)
_cell_length_b 7.7138(10)
_cell_length_c 14.4424(19)
_cell_angle_alpha 76.752(2)
_cell_angle_beta 88.011(2)
_cell_angle_gamma 84.524(2)
_cell_formula_units_Z 2
loop_
_atom_type_symbol
_atom_type_radius_bond
C 0.68
H 0.23
loop_
_atom_site_label
_atom_site_type_symbol
_atom_site_fract_x
_atom_site_fract_y
_atom_site_fract_z
C1 C 0.8451(6) 0.4008(4) 0.0574(3)
C2 C 0.6940(6) 0.3011(4) 0.1166(3)
C3 C 0.7211(6) 0.2462(4) 0.2144(3)
C4 C 0.5695(5) 0.1437(4) 0.2758(3)
C5 C 0.5997(6) 0.0905(5) 0.3708(3)
C6 C 0.7835(6) 0.1356(5) 0.4124(3)
C7 C 0.9327(6) 0.2305(5) 0.3582(3)
C8 C 0.9077(6) 0.2900(4) 0.2570(3)
C9 C 1.0563(6) 0.3882(4) 0.1994(2)
C10 C 1.0325(6) 0.4460(4) 0.1004(3)
C11 C 0.8179(5) 0.4562(4) -0.0413(2)
H1 H 0.57140 0.27110 0.08890
H2 H 0.44620 0.11290 0.24910
H3 H 0.49800 0.02280 0.40990
H4 H 0.80180 0.09860 0.47930
H5 H 1.05460 0.25790 0.38750
H6 H 1.17830 0.41740 0.22790
H7 H 0.69390 0.42620 -0.06780
C12 C 0.3342(6) -0.0266(4) 0.0706(2)
C13 C 0.1751(6) -0.0569(4) 0.1431(3)
C14 C 0.2138(6) -0.1792(4) 0.2285(2)
C15 C 0.0545(6) -0.2085(4) 0.3023(3)
C16 C 0.0955(6) -0.3279(5) 0.3857(3)
C17 C 0.3000(6) -0.4279(5) 0.4020(3)
C18 C 0.4553(6) -0.4044(5) 0.3338(2)
C19 C 0.4205(6) -0.2804(4) 0.2446(2)
C20 C 0.5780(6) -0.2539(5) 0.1742(3)
C21 C 0.5431(6) -0.1286(4) 0.0871(2)
C22 C 0.2992(5) 0.0988(4) -0.0157(2)
H8 H 0.03850 0.00840 0.13280
H9 H -0.08220 -0.14330 0.29260
H10 H -0.01250 -0.34540 0.43380
H11 H 0.32710 -0.51100 0.46090
H12 H 0.59020 -0.47210 0.34560
H13 H 0.71280 -0.32200 0.18500
H14 H 0.16260 0.16430 -0.02500
C10A C 0.9675(6) 0.5540(4) -0.1004(3)
C1A C 1.1549(6) 0.5992(4) -0.0574(3)
C2A C 1.3060(6) 0.6989(4) -0.1166(3)
C3A C 1.2789(6) 0.7538(4) -0.2144(3)
C4A C 1.4305(5) 0.8563(4) -0.2758(3)
C5A C 1.4003(6) 0.9095(5) -0.3708(3)
C6A C 1.2165(6) 0.8644(5) -0.4124(3)
C7A C 1.0673(6) 0.7695(5) -0.3582(3)
C8A C 1.0923(6) 0.7100(4) -0.2570(3)
C9A C 0.9437(6) 0.6118(4) -0.1994(2)
H6A H 0.82170 0.58260 -0.22790
H5A H 0.94540 0.74210 -0.38750
H4A H 1.19820 0.90140 -0.47930
H3A H 1.50200 0.97720 -0.40990
H2A H 1.55380 0.88710 -0.24910
H1A H 1.42860 0.72890 -0.08890
C11A C 1.1821(5) 0.5438(4) 0.0413(2)
H7A H 1.30610 0.57380 0.06780
C21A C 0.4569(6) 0.1286(4) -0.0871(2)
C12A C 0.6658(6) 0.0266(4) -0.0706(2)
C13A C 0.8249(6) 0.0569(4) -0.1431(3)
C14A C 0.7862(6) 0.1792(4) -0.2285(2)
C15A C 0.9455(6) 0.2085(4) -0.3023(3)
C16A C 0.9045(6) 0.3279(5) -0.3857(3)
C17A C 0.7000(6) 0.4279(5) -0.4020(3)
C18A C 0.5447(6) 0.4044(5) -0.3338(2)
C19A C 0.5795(6) 0.2804(4) -0.2446(2)
C20A C 0.4220(6) 0.2539(5) -0.1742(3)
H13A H 0.28720 0.32200 -0.18500
H12A H 0.40980 0.47210 -0.34560
H11A H 0.67290 0.51100 -0.46090
H10A H 1.01250 0.34540 -0.43380
H9A H 1.08220 0.14330 -0.29260
H8A H 0.96150 -0.00840 -0.13280
C22A C 0.7008(5) -0.0988(4) 0.0157(2)
H14A H 0.83740 -0.16430 0.02500
loop_
_geom_bond_atom_site_label_1
_geom_bond_atom_site_label_2
_geom_bond_distance
_geom_bond_site_symmetry_1
_geom_bond_site_symmetry_2
C1 C2 1.415 1_555 1_555
C2 C3 1.390 1_555 1_555
C3 C4 1.442 1_555 1_555
C4 C5 1.353 1_555 1_555
C5 C6 1.426 1_555 1_555
C6 C7 1.357 1_555 1_555
C7 C8 1.437 1_555 1_555
C8 C3 1.444 1_555 1_555
C9 C8 1.388 1_555 1_555
C10 C1 1.455 1_555 1_555
C11 C1 1.403 1_555 1_555
H1 C2 0.950 1_555 1_555
H2 C4 0.950 1_555 1_555
H3 C5 0.950 1_555 1_555
H4 C6 0.950 1_555 1_555
H5 C7 0.950 1_555 1_555
H6 C9 0.951 1_555 1_555
H7 C11 0.949 1_555 1_555
C12 C13 1.417 1_555 1_555
C13 C14 1.383 1_555 1_555
C14 C15 1.430 1_555 1_555
C15 C16 1.354 1_555 1_555
C16 C17 1.430 1_555 1_555
C17 C18 1.356 1_555 1_555
C18 C19 1.427 1_555 1_555
C19 C14 1.446 1_555 1_555
C20 C19 1.388 1_555 1_555
C21 C12 1.461 1_555 1_555
C22 C12 1.401 1_555 1_555
H8 C13 0.950 1_555 1_555
H9 C15 0.950 1_555 1_555
H10 C16 0.950 1_555 1_555
H11 C17 0.950 1_555 1_555
H12 C18 0.950 1_555 1_555
H13 C20 0.950 1_555 1_555
H14 C22 0.950 1_555 1_555
C10A C11 1.401 1_555 1_555
C1A C10A 1.455 1_555 1_555
C2A C1A 1.415 1_555 1_555
C3A C2A 1.390 1_555 1_555
C4A C3A 1.442 1_555 1_555
C5A C4A 1.353 1_555 1_555
C6A C5A 1.426 1_555 1_555
C7A C6A 1.357 1_555 1_555
C8A C3A 1.444 1_555 1_555
C9A C10A 1.405 1_555 1_555
H6A C9A 0.951 1_555 1_555
H5A C7A 0.950 1_555 1_555
H4A C6A 0.950 1_555 1_555
H3A C5A 0.950 1_555 1_555
H2A C4A 0.950 1_555 1_555
H1A C2A 0.950 1_555 1_555
C11A C10 1.401 1_555 1_555
H7A C11A 0.949 1_555 1_555
C21A C22 1.400 1_555 1_555
C12A C21A 1.461 1_555 1_555
C13A C12A 1.417 1_555 1_555
C14A C13A 1.383 1_555 1_555
C15A C14A 1.430 1_555 1_555
C16A C15A 1.354 1_555 1_555
C17A C16A 1.430 1_555 1_555
C18A C17A 1.356 1_555 1_555
C19A C14A 1.446 1_555 1_555
C20A C21A 1.409 1_555 1_555
H13A C20A 0.950 1_555 1_555
H12A C18A 0.950 1_555 1_555
H11A C17A 0.950 1_555 1_555
H10A C16A 0.950 1_555 1_555
H9A C15A 0.950 1_555 1_555
H8A C13A 0.950 1_555 1_555
C22A C21 1.400 1_555 1_555
H14A C22A 0.950 1_555 1_555
C9 C10 1.405 1_555 1_555
C20 C21 1.409 1_555 1_555
C1A C11A 1.403 1_555 1_555
C7A C8A 1.437 1_555 1_555
C8A C9A 1.388 1_555 1_555
C12A C22A 1.401 1_555 1_555
C18A C19A 1.427 1_555 1_555
C19A C20A 1.388 1_555 1_555
#END
