
#######################################################################
#
#                 Cambridge Crystallographic Data Centre
#                                CCDC
#
#######################################################################
#
# If this CIF has been generated from an entry in the Cambridge
# Structural Database, then it will include bibliographic, chemical,
# crystal, experimental, refinement or atomic coordinate data resulting
# from the CCDC's data processing and validation procedures.
#
#######################################################################

data_CSD_CIF_PENCEN10
_audit_creation_date 2008-01-31
_audit_creation_method CSD-ConQuest-V1
_database_code_CSD PENCEN10
_database_code_depnum_ccdc_archive 'CCDC 665900'
_chemical_formula_sum 'C22 H14'
_chemical_formula_moiety
;
C22 H14
;
_journal_coden_Cambridge 4
_journal_volume 129
_journal_year 2007
_journal_page_first 10316
_journal_name_full 'J.Am.Chem.Soc. '
loop_
_publ_author_name
"S.Schiefer"
"M.Huth"
"A.Dobrinevski"
"B.Nickel"
_chemical_name_systematic
;
Pentacene
;
_chemical_melting_point 573
_cell_volume    696.952
_exptl_crystal_colour 'violet'
_exptl_special_details
;
fibre structured thin-film on alpha-SiO2
polymorph III (thin-film phase)
No R-factor is reported
;
_exptl_crystal_preparation 'Molecular beam deposition'
_diffrn_ambient_temperature 293
_diffrn_ambient_pressure 1000000.0
_diffrn_radiation_probe x-ray
_diffrn_source synchrotron
_symmetry_cell_setting triclinic
_symmetry_space_group_name_H-M 'P -1'
_symmetry_Int_Tables_number 2
loop_
_symmetry_equiv_pos_site_id
_symmetry_equiv_pos_as_xyz
1 x,y,z
2 -x,-y,-z
_cell_length_a 5.958
_cell_length_b 7.596
_cell_length_c 15.6096
_cell_angle_alpha 81.25
_cell_angle_beta 86.56
_cell_angle_gamma 89.8
_cell_formula_units_Z 2
loop_
_atom_type_symbol
_atom_type_radius_bond
C 0.68
H 0.23
loop_
_atom_site_label
_atom_site_type_symbol
_atom_site_fract_x
_atom_site_fract_y
_atom_site_fract_z
C1 C 0.21070 -0.08300 -0.00700
C2 C 0.11850 -0.06660 0.07580
C3 C 0.22450 -0.12780 0.15220
C4 C 0.12710 -0.10850 0.23340
C5 C 0.24090 -0.17030 0.31150
C6 C 0.14790 -0.15060 0.39000
C7 C -0.06930 -0.06750 0.39790
C8 C -0.18020 -0.00720 0.32550
C9 C -0.08750 -0.02320 0.23970
C10 C -0.19470 0.03750 0.16600
C11 C 0.09980 -0.01890 -0.08300
H1 H 0.34960 -0.13790 -0.01220
H2 H 0.36360 -0.18290 0.14850
H3 H 0.38050 -0.22440 0.30730
H4 H 0.22380 -0.19070 0.43950
H5 H -0.13350 -0.05530 0.45250
H6 H -0.31990 0.04590 0.33170
H7 H -0.33380 0.09230 0.17080
C12 C 0.71040 0.58690 -0.00910
C13 C 0.62000 0.52480 0.07460
C14 C 0.72710 0.54460 0.14990
C15 C 0.63100 0.48110 0.23220
C16 C 0.74280 0.50520 0.30920
C17 C 0.64950 0.44520 0.38870
C18 C 0.43490 0.35410 0.39870
C19 C 0.32500 0.33000 0.32740
C20 C 0.41600 0.39320 0.24060
C21 C 0.30820 0.37180 0.16800
C22 C 0.59750 0.56550 -0.08400
H8 H 0.84960 0.64410 -0.01580
H9 H 0.86620 0.60160 0.14480
H10 H 0.88120 0.56330 0.30360
H11 H 0.72350 0.46240 0.43760
H12 H 0.37190 0.31180 0.45400
H13 H 0.18700 0.27100 0.33490
H14 H 0.16920 0.31450 0.17420
C1A C -0.21070 0.08300 0.00700
C2A C -0.11850 0.06660 -0.07580
C3A C -0.22450 0.12780 -0.15220
C4A C -0.12710 0.10850 -0.23340
C5A C -0.24090 0.17030 -0.31150
C6A C -0.14790 0.15060 -0.39000
C7A C 0.06930 0.06750 -0.39790
C8A C 0.18020 0.00720 -0.32550
C9A C 0.08750 0.02320 -0.23970
C10A C 0.19470 -0.03750 -0.16600
C11A C -0.09980 0.01890 0.08300
H1A H -0.34960 0.13790 0.01220
H2A H -0.36360 0.18290 -0.14850
H3A H -0.38050 0.22440 -0.30730
H4A H -0.22380 0.19070 -0.43950
H5A H 0.13350 0.05530 -0.45250
H6A H 0.31990 -0.04590 -0.33170
H7A H 0.33380 -0.09230 -0.17080
C12A C 0.28960 0.41310 0.00910
C13A C 0.38000 0.47520 -0.07460
C14A C 0.27290 0.45540 -0.14990
C15A C 0.36900 0.51890 -0.23220
C16A C 0.25720 0.49480 -0.30920
C17A C 0.35050 0.55480 -0.38870
C18A C 0.56510 0.64590 -0.39870
C19A C 0.67500 0.67000 -0.32740
C20A C 0.58400 0.60680 -0.24060
C21A C 0.69180 0.62820 -0.16800
C22A C 0.40250 0.43450 0.08400
H8A H 0.15040 0.35590 0.01580
H9A H 0.13380 0.39840 -0.14480
H10A H 0.11880 0.43670 -0.30360
H11A H 0.27650 0.53760 -0.43760
H12A H 0.62810 0.68820 -0.45400
H13A H 0.81300 0.72900 -0.33490
H14A H 0.83080 0.68550 -0.17420
loop_
_geom_bond_atom_site_label_1
_geom_bond_atom_site_label_2
_geom_bond_distance
_geom_bond_site_symmetry_1
_geom_bond_site_symmetry_2
C1 C2 1.397 1_555 1_555
C2 C3 1.399 1_555 1_555
C3 C4 1.390 1_555 1_555
C4 C5 1.445 1_555 1_555
C5 C6 1.343 1_555 1_555
C6 C7 1.445 1_555 1_555
C7 C8 1.361 1_555 1_555
C8 C9 1.440 1_555 1_555
C9 C4 1.436 1_555 1_555
C10 C9 1.367 1_555 1_555
C11 C1 1.413 1_555 1_555
H1 C1 0.930 1_555 1_555
H2 C3 0.930 1_555 1_555
H3 C5 0.930 1_555 1_555
H4 C6 0.929 1_555 1_555
H5 C7 0.931 1_555 1_555
H6 C8 0.930 1_555 1_555
H7 C10 0.930 1_555 1_555
C12 C13 1.396 1_555 1_555
C13 C14 1.399 1_555 1_555
C14 C15 1.391 1_555 1_555
C15 C16 1.444 1_555 1_555
C16 C17 1.343 1_555 1_555
C17 C18 1.445 1_555 1_555
C18 C19 1.361 1_555 1_555
C19 C20 1.441 1_555 1_555
C20 C15 1.436 1_555 1_555
C21 C20 1.367 1_555 1_555
C22 C12 1.414 1_555 1_555
H8 C12 0.930 1_555 1_555
H9 C14 0.930 1_555 1_555
H10 C16 0.930 1_555 1_555
H11 C17 0.930 1_555 1_555
H12 C18 0.931 1_555 1_555
H13 C19 0.930 1_555 1_555
H14 C21 0.930 1_555 1_555
C1A C2A 1.397 1_555 1_555
C2A C11 1.458 1_555 1_555
C3A C2A 1.399 1_555 1_555
C4A C3A 1.390 1_555 1_555
C5A C4A 1.445 1_555 1_555
C6A C5A 1.343 1_555 1_555
C7A C6A 1.445 1_555 1_555
C8A C7A 1.361 1_555 1_555
C9A C4A 1.436 1_555 1_555
C10A C11 1.409 1_555 1_555
C11A C2 1.458 1_555 1_555
H1A C1A 0.930 1_555 1_555
H2A C3A 0.930 1_555 1_555
H3A C5A 0.930 1_555 1_555
H4A C6A 0.929 1_555 1_555
H5A C7A 0.931 1_555 1_555
H6A C8A 0.930 1_555 1_555
H7A C10A 0.930 1_555 1_555
C12A C13A 1.396 1_555 1_555
C13A C22 1.457 1_555 1_555
C14A C13A 1.399 1_555 1_555
C15A C14A 1.391 1_555 1_555
C16A C15A 1.444 1_555 1_555
C17A C16A 1.343 1_555 1_555
C18A C17A 1.445 1_555 1_555
C19A C18A 1.361 1_555 1_555
C20A C15A 1.436 1_555 1_555
C21A C22 1.409 1_555 1_555
C22A C13 1.457 1_555 1_555
H8A C12A 0.930 1_555 1_555
H9A C14A 0.930 1_555 1_555
H10A C16A 0.930 1_555 1_555
H11A C17A 0.930 1_555 1_555
H12A C18A 0.931 1_555 1_555
H13A C19A 0.930 1_555 1_555
H14A C21A 0.930 1_555 1_555
C10 C11A 1.409 1_555 1_555
C21 C22A 1.409 1_555 1_555
C1A C11A 1.413 1_555 1_555
C8A C9A 1.440 1_555 1_555
C9A C10A 1.367 1_555 1_555
C12A C22A 1.414 1_555 1_555
C19A C20A 1.441 1_555 1_555
C20A C21A 1.367 1_555 1_555
#END
