
#######################################################################
#
#                 Cambridge Crystallographic Data Centre
#                                CCDC
#
#######################################################################
#
# If this CIF has been generated from an entry in the Cambridge
# Structural Database, then it will include bibliographic, chemical,
# crystal, experimental, refinement or atomic coordinate data resulting
# from the CCDC's data processing and validation procedures.
#
#######################################################################

data_CSD_CIF_PENCEN02
_audit_creation_date 2001-08-28
_audit_creation_method CSD-ConQuest-V1
_database_code_CSD PENCEN02
_database_code_depnum_ccdc_archive 'CCDC 145333'
_chemical_formula_sum 'C22 H14'
_chemical_formula_moiety
;
C22 H14
;
_journal_coden_Cambridge 179
_journal_volume 40
_journal_year 2001
_journal_page_first 1732
_journal_name_full 'Angew.Chem.,Int.Ed. '
loop_
_publ_author_name
"T.Siegrist"
"C.Kloc"
"J.H.Schon"
"B.Batlogg"
"R.C.Haddon"
"S.Berg"
"G.A.Thomas"
_chemical_name_systematic
;
Pentacene
;
_cell_volume    685.488
_exptl_crystal_colour 'black'
_exptl_crystal_density_diffrn 1.351
_exptl_special_details
;
crystal grown from vapour
polymorph II

;
_exptl_crystal_description 'small platelet'
_exptl_crystal_preparation 'vapour-grown'
_diffrn_ambient_temperature ?
_diffrn_special_details
;
The study was carried out at room temperature,in the range 283-303K

;
#These two values have been output from a single CSD field.
_refine_ls_R_factor_gt 0.041
_refine_ls_wR_factor_gt 0.041
_symmetry_cell_setting triclinic
_symmetry_space_group_name_H-M 'P -1'
_symmetry_Int_Tables_number 2
loop_
_symmetry_equiv_pos_site_id
_symmetry_equiv_pos_as_xyz
1 x,y,z
2 -x,-y,-z
_cell_length_a 6.265(2)
_cell_length_b 7.786(2)
_cell_length_c 14.511(4)
_cell_angle_alpha 76.65(2)
_cell_angle_beta 87.50(2)
_cell_angle_gamma 84.61(2)
_cell_formula_units_Z 2
loop_
_atom_type_symbol
_atom_type_radius_bond
C 0.68
H 0.23
loop_
_atom_site_label
_atom_site_type_symbol
_atom_site_fract_x
_atom_site_fract_y
_atom_site_fract_z
C1 C 0.9439(10) 0.7079(8) 0.1980(5)
C2 C 0.9049(11) 0.8262(9) 0.1144(5)
C3 C 0.6995(12) 0.9235(9) 0.1002(5)
C4 C 0.5444(11) 0.9012(8) 0.1665(5)
C5 C 0.5777(12) 0.7791(8) 0.2568(5)
C6 C 0.7850(12) 0.6777(8) 0.2722(5)
C7 C 0.4233(11) 0.7526(8) 0.3273(5)
C8 C 0.4601(13) 0.6271(9) 0.4140(5)
C9 C 0.6676(13) 0.5261(8) 0.4296(4)
C10 C 0.8251(11) 0.5576(8) 0.3563(5)
C11 C 0.2999(11) 0.5968(8) 0.4839(5)
H1 H 1.087(6) 0.651(5) 0.208(3)
H2 H 1.027(6) 0.848(5) 0.064(3)
H3 H 0.678(6) 1.000(5) 0.043(3)
H4 H 0.386(6) 0.964(5) 0.156(3)
H5 H 0.273(6) 0.823(5) 0.315(3)
H6 H 0.973(6) 0.480(5) 0.371(3)
H7 H 0.157(6) 0.665(5) 0.480(3)
C12 C -0.4294(11) 0.6459(8) 0.7761(5)
C13 C -0.4005(12) 0.5915(9) 0.8699(5)
C14 C -0.2181(12) 0.6390(9) 0.9106(5)
C15 C -0.0692(11) 0.7326(8) 0.8559(5)
C16 C -0.0921(13) 0.7910(8) 0.7559(5)
C17 C -0.2785(11) 0.7474(8) 0.7145(5)
C18 C 0.0556(11) 0.8893(8) 0.6991(5)
C19 C 0.0316(13) 0.9467(8) 0.5996(5)
C20 C -0.1556(14) 0.9003(8) 0.5584(5)
C21 C -0.3075(11) 0.8009(8) 0.6168(5)
C22 C 0.1818(11) 1.0452(8) 0.5401(5)
H8 H -0.558(6) 0.607(5) 0.747(3)
H9 H -0.520(6) 0.512(5) 0.907(3)
H10 H -0.194(6) 0.596(5) 0.986(3)
H11 H 0.052(6) 0.781(5) 0.881(3)
H12 H 0.185(6) 0.935(5) 0.727(3)
H13 H -0.433(6) 0.767(5) 0.584(3)
H14 H 0.312(6) 1.082(5) 0.569(3)
C9A C 0.3324(13) 0.4739(8) 0.5704(4)
C8A C 0.5399(13) 0.3729(9) 0.5860(5)
C7A C 0.5767(11) 0.2474(8) 0.6727(5)
C5A C 0.4223(12) 0.2209(8) 0.7432(5)
C4A C 0.4556(11) 0.0988(8) 0.8335(5)
C3A C 0.3005(12) 0.0765(9) 0.8998(5)
C2A C 0.0951(11) 0.1738(9) 0.8856(5)
C1A C 0.0561(10) 0.2921(8) 0.8020(5)
C6A C 0.2150(12) 0.3223(8) 0.7278(5)
C10A C 0.1749(11) 0.4424(8) 0.6437(5)
H6A H 0.027(6) 0.520(5) 0.629(3)
H1A H -0.087(6) 0.349(5) 0.792(3)
H2A H -0.027(6) 0.152(5) 0.936(3)
H3A H 0.322(6) 0.000(5) 0.957(3)
H4A H 0.614(6) 0.036(5) 0.844(3)
H5A H 0.727(6) 0.177(5) 0.685(3)
C11A C 0.7001(11) 0.4032(8) 0.5161(5)
H7A H 0.843(6) 0.335(5) 0.520(3)
C20A C 0.1556(14) 1.0997(8) 0.4416(5)
C19A C -0.0316(13) 1.0533(8) 0.4004(5)
C18A C -0.0556(11) 1.1107(8) 0.3009(5)
C16A C 0.0921(13) 1.2090(8) 0.2441(5)
C15A C 0.0692(11) 1.2674(8) 0.1441(5)
C14A C 0.2181(12) 1.3610(9) 0.0894(5)
C13A C 0.4005(12) 1.4085(9) 0.1301(5)
C12A C 0.4294(11) 1.3541(8) 0.2239(5)
C17A C 0.2785(11) 1.2526(8) 0.2855(5)
C21A C 0.3075(11) 1.1991(8) 0.3832(5)
H13A H 0.433(6) 1.233(5) 0.416(3)
H8A H 0.558(6) 1.393(5) 0.253(3)
H9A H 0.520(6) 1.488(5) 0.093(3)
H10A H 0.194(6) 1.404(5) 0.014(3)
H11A H -0.052(6) 1.219(5) 0.119(3)
H12A H -0.185(6) 1.065(5) 0.273(3)
C22A C -0.1818(11) 0.9548(8) 0.4599(5)
H14A H -0.312(6) 0.918(5) 0.431(3)
loop_
_geom_bond_atom_site_label_1
_geom_bond_atom_site_label_2
_geom_bond_distance
_geom_bond_site_symmetry_1
_geom_bond_site_symmetry_2
C1 C2 1.359 1_555 1_555
C2 C3 1.428 1_555 1_555
C3 C4 1.332 1_555 1_555
C4 C5 1.441 1_555 1_555
C5 C6 1.453 1_555 1_555
C6 C1 1.428 1_555 1_555
C7 C5 1.371 1_555 1_555
C8 C7 1.416 1_555 1_555
C9 C8 1.453 1_555 1_555
C10 C6 1.372 1_555 1_555
C11 C8 1.392 1_555 1_555
H1 C1 0.963 1_555 1_555
H2 C2 1.033 1_555 1_555
H3 C3 0.910 1_555 1_555
H4 C4 1.065 1_555 1_555
H5 C7 1.045 1_555 1_555
H6 C10 1.059 1_555 1_555
H7 C11 0.994 1_555 1_555
C12 C13 1.344 1_555 1_555
C13 C14 1.425 1_555 1_555
C14 C15 1.352 1_555 1_555
C15 C16 1.426 1_555 1_555
C16 C17 1.439 1_555 1_555
C17 C12 1.434 1_555 1_555
C18 C16 1.377 1_555 1_555
C19 C18 1.420 1_555 1_555
C20 C19 1.450 1_555 1_555
C21 C17 1.397 1_555 1_555
C22 C19 1.406 1_555 1_555
H8 C12 1.027 1_555 1_555
H9 C13 1.064 1_555 1_555
H10 C14 1.081 1_555 1_555
H11 C15 0.996 1_555 1_555
H12 C18 1.047 1_555 1_555
H13 C21 1.022 1_555 1_555
H14 C22 1.026 1_555 1_555
C9A C11 1.401 1_555 1_555
C8A C9A 1.453 1_555 1_555
C7A C8A 1.416 1_555 1_555
C5A C7A 1.371 1_555 1_555
C4A C5A 1.441 1_555 1_555
C3A C4A 1.332 1_555 1_555
C2A C3A 1.428 1_555 1_555
C1A C2A 1.359 1_555 1_555
C6A C5A 1.453 1_555 1_555
C10A C9A 1.414 1_555 1_555
H6A C10A 1.059 1_555 1_555
H1A C1A 0.963 1_555 1_555
H2A C2A 1.033 1_555 1_555
H3A C3A 0.910 1_555 1_555
H4A C4A 1.065 1_555 1_555
H5A C7A 1.045 1_555 1_555
C11A C9 1.401 1_555 1_555
H7A C11A 0.994 1_555 1_555
C20A C22 1.406 1_555 1_555
C19A C20A 1.450 1_555 1_555
C18A C19A 1.420 1_555 1_555
C16A C18A 1.377 1_555 1_555
C15A C16A 1.426 1_555 1_555
C14A C15A 1.352 1_555 1_555
C13A C14A 1.425 1_555 1_555
C12A C13A 1.344 1_555 1_555
C17A C16A 1.439 1_555 1_555
C21A C20A 1.410 1_555 1_555
H13A C21A 1.022 1_555 1_555
H8A C12A 1.027 1_555 1_555
H9A C13A 1.064 1_555 1_555
H10A C14A 1.081 1_555 1_555
H11A C15A 0.996 1_555 1_555
H12A C18A 1.047 1_555 1_555
C22A C20 1.406 1_555 1_555
H14A C22A 1.026 1_555 1_555
C9 C10 1.414 1_555 1_555
C20 C21 1.410 1_555 1_555
C8A C11A 1.392 1_555 1_555
C1A C6A 1.428 1_555 1_555
C6A C10A 1.372 1_555 1_555
C19A C22A 1.406 1_555 1_555
C12A C17A 1.434 1_555 1_555
C17A C21A 1.397 1_555 1_555
#END
