
#######################################################################
#
#                 Cambridge Crystallographic Data Centre
#                                CCDC
#
#######################################################################
#
# If this CIF has been generated from an entry in the Cambridge
# Structural Database, then it will include bibliographic, chemical,
# crystal, experimental, refinement or atomic coordinate data resulting
# from the CCDC's data processing and validation procedures.
#
#######################################################################

data_CSD_CIF_PENCEN09
_audit_creation_date 2007-12-14
_audit_creation_method CSD-ConQuest-V1
_database_code_CSD PENCEN09
_database_code_depnum_ccdc_archive 'CCDC 619982'
_chemical_formula_sum 'C22 H14'
_chemical_formula_moiety
;
C22 H14
;
_journal_coden_Cambridge 1089
_journal_volume 19
_journal_year 2007
_journal_page_first 2079
_journal_name_full 'Adv.Mater. '
loop_
_publ_author_name
"T.Siegrist"
"C.Besnard"
"S.Haas"
"M.Schiltz"
"P.Pattison"
"D.Chernyshov"
"B.Batlogg"
"C.Kloc"
_chemical_name_systematic
;
Pentacene
;
_cell_volume    718.836
_exptl_crystal_colour 'orange'
_exptl_crystal_density_diffrn 1.286
_exptl_special_details
;
polymorph I
phase transition at around 463 K

;
_exptl_crystal_description 'platelet'
_diffrn_ambient_temperature 498
_diffrn_radiation_probe x-ray
_diffrn_source synchrotron
#These two values have been output from a single CSD field.
_refine_ls_R_factor_gt 0.086
_refine_ls_wR_factor_gt 0.086
_symmetry_cell_setting triclinic
_symmetry_space_group_name_H-M 'P -1'
_symmetry_Int_Tables_number 2
loop_
_symmetry_equiv_pos_site_id
_symmetry_equiv_pos_as_xyz
1 x,y,z
2 -x,-y,-z
_cell_length_a 6.1239(16)
_cell_length_b 8.078(2)
_cell_length_c 15.134(3)
_cell_angle_alpha 80.802(18)
_cell_angle_beta 76.71(2)
_cell_angle_gamma 86.04(2)
_cell_formula_units_Z 2
loop_
_atom_type_symbol
_atom_type_radius_bond
C 0.68
H 0.23
loop_
_atom_site_label
_atom_site_type_symbol
_atom_site_fract_x
_atom_site_fract_y
_atom_site_fract_z
C1 C 0.1958(11) 0.2018(8) 0.1546(6)
C2 C 0.3685(14) 0.2859(8) 0.0939(5)
C3 C 0.5417(12) 0.3422(7) 0.1288(6)
C4 C 0.5425(10) 0.3093(7) 0.2195(6)
C5 C 0.3663(10) 0.2194(7) 0.2864(6)
C6 C 0.1854(12) 0.1638(7) 0.2500(6)
C7 C 0.3543(10) 0.1802(7) 0.3784(6)
C8 C 0.1797(11) 0.0900(7) 0.4413(6)
C9 C 0.0025(12) 0.0336(7) 0.4037(5)
C10 C 0.013(1) 0.0740(7) 0.3102(6)
C11 C 0.1728(9) 0.0543(7) 0.5337(6)
H1 H 0.07790 0.16850 0.13170
H2 H 0.37150 0.30850 0.03000
H3 H 0.66130 0.40380 0.08810
H4 H 0.66030 0.34640 0.24090
H5 H 0.46950 0.21520 0.40320
H6 H -0.10070 0.03940 0.28570
H7 H 0.28820 0.09030 0.55690
C12 C 1.0493(10) 0.6647(8) 0.1916(6)
C13 C 1.0277(14) 0.7639(10) 0.1116(6)
C14 C 0.8228(16) 0.8526(9) 0.1051(6)
C15 C 0.6431(12) 0.8376(8) 0.1772(6)
C16 C 0.6528(10) 0.7329(7) 0.2627(5)
C17 C 0.8591(11) 0.6462(7) 0.2685(5)
C18 C 0.4721(8) 0.7133(7) 0.3365(5)
C19 C 0.4927(12) 0.6055(7) 0.4176(5)
C20 C 0.6980(9) 0.5152(7) 0.4270(6)
C21 C 0.8789(8) 0.5413(7) 0.3490(5)
C22 C 0.3021(10) 0.5872(7) 0.4892(5)
H8 H 1.18820 0.60850 0.19610
H9 H 1.14980 0.77340 0.06050
H10 H 0.81250 0.92370 0.05010
H11 H 0.50790 0.89480 0.17070
H12 H 0.33670 0.77380 0.33270
H13 H 1.02080 0.48490 0.35260
H14 H 0.16410 0.64830 0.48080
C1A C -0.1958(11) -0.2018(8) 0.8454(6)
C2A C -0.3685(14) -0.2859(8) 0.9061(5)
C3A C -0.5417(12) -0.3422(7) 0.8712(6)
C4A C -0.5425(10) -0.3093(7) 0.7805(6)
C5A C -0.3663(10) -0.2194(7) 0.7136(6)
C6A C -0.1854(12) -0.1638(7) 0.7500(6)
C7A C -0.3543(10) -0.1802(7) 0.6216(6)
C8A C -0.1797(11) -0.0900(7) 0.5587(6)
C9A C -0.0025(12) -0.0336(7) 0.5963(5)
C10A C -0.013(1) -0.0740(7) 0.6898(6)
C11A C -0.1728(9) -0.0543(7) 0.4663(6)
H1A H -0.07790 -0.16850 0.86830
H2A H -0.37150 -0.30850 0.97000
H3A H -0.66130 -0.40380 0.91190
H4A H -0.66030 -0.34640 0.75910
H5A H -0.46950 -0.21520 0.59680
H6A H 0.10070 -0.03940 0.71430
H7A H -0.28820 -0.09030 0.44310
C12A C -0.0493(10) 0.3353(8) 0.8084(6)
C13A C -0.0277(14) 0.2361(10) 0.8884(6)
C14A C 0.1772(16) 0.1474(9) 0.8949(6)
C15A C 0.3569(12) 0.1624(8) 0.8228(6)
C16A C 0.3472(10) 0.2671(7) 0.7373(5)
C17A C 0.1409(11) 0.3538(7) 0.7315(5)
C18A C 0.5279(8) 0.2867(7) 0.6635(5)
C19A C 0.5073(12) 0.3945(7) 0.5824(5)
C20A C 0.3020(9) 0.4848(7) 0.5730(6)
C21A C 0.1211(8) 0.4587(7) 0.6510(5)
C22A C 0.6979(10) 0.4128(7) 0.5108(5)
H8A H -0.18820 0.39150 0.80390
H9A H -0.14980 0.22660 0.93950
H10A H 0.18750 0.07630 0.94990
H11A H 0.49210 0.10520 0.82930
H12A H 0.66330 0.22620 0.66730
H13A H -0.02080 0.51510 0.64740
H14A H 0.83590 0.35170 0.51920
loop_
_geom_bond_atom_site_label_1
_geom_bond_atom_site_label_2
_geom_bond_distance
_geom_bond_site_symmetry_1
_geom_bond_site_symmetry_2
C1 C2 1.370 1_555 1_555
C2 C3 1.418 1_555 1_555
C3 C4 1.357 1_555 1_555
C4 C5 1.445 1_555 1_555
C5 C6 1.470 1_555 1_555
C6 C1 1.415 1_555 1_555
C7 C5 1.364 1_555 1_555
C8 C7 1.414 1_555 1_555
C9 C8 1.464 1_555 1_555
C10 C6 1.387 1_555 1_555
C11 C8 1.373 1_555 1_555
H1 C1 0.941 1_555 1_555
H2 C2 0.951 1_555 1_555
H3 C3 0.953 1_555 1_555
H4 C4 0.940 1_555 1_555
H5 C7 0.950 1_555 1_555
H6 C10 0.938 1_555 1_555
H7 C11 0.939 1_555 1_555
C12 C13 1.369 1_555 1_555
C13 C14 1.417 1_555 1_555
C14 C15 1.357 1_555 1_555
C15 C16 1.439 1_555 1_555
C16 C17 1.415 1_555 1_555
C17 C12 1.442 1_555 1_555
C18 C16 1.377 1_555 1_555
C19 C18 1.412 1_555 1_555
C20 C19 1.434 1_555 1_555
C21 C17 1.393 1_555 1_555
C22 C19 1.396 1_555 1_555
H8 C12 0.947 1_555 1_555
H9 C13 0.941 1_555 1_555
H10 C14 0.945 1_555 1_555
H11 C15 0.937 1_555 1_555
H12 C18 0.942 1_555 1_555
H13 C21 0.962 1_555 1_555
H14 C22 0.972 1_555 1_555
C1A C2A 1.370 1_555 1_555
C2A C3A 1.418 1_555 1_555
C3A C4A 1.357 1_555 1_555
C4A C5A 1.445 1_555 1_555
C5A C6A 1.470 1_555 1_555
C6A C1A 1.415 1_555 1_555
C7A C5A 1.364 1_555 1_555
C8A C7A 1.414 1_555 1_555
C9A C11 1.406 1_555 1_555
C10A C6A 1.387 1_555 1_555
C11A C9 1.406 1_555 1_555
H1A C1A 0.941 1_555 1_555
H2A C2A 0.951 1_555 1_555
H3A C3A 0.953 1_555 1_555
H4A C4A 0.940 1_555 1_555
H5A C7A 0.950 1_555 1_555
H6A C10A 0.938 1_555 1_555
H7A C11A 0.939 1_555 1_555
C12A C13A 1.369 1_555 1_555
C13A C14A 1.417 1_555 1_555
C14A C15A 1.357 1_555 1_555
C15A C16A 1.439 1_555 1_555
C16A C17A 1.415 1_555 1_555
C17A C12A 1.442 1_555 1_555
C18A C16A 1.377 1_555 1_555
C19A C18A 1.412 1_555 1_555
C20A C22 1.399 1_555 1_555
C21A C17A 1.393 1_555 1_555
C22A C20 1.399 1_555 1_555
H8A C12A 0.947 1_555 1_555
H9A C13A 0.941 1_555 1_555
H10A C14A 0.945 1_555 1_555
H11A C15A 0.937 1_555 1_555
H12A C18A 0.942 1_555 1_555
H13A C21A 0.962 1_555 1_555
H14A C22A 0.972 1_555 1_555
C9 C10 1.388 1_555 1_555
C20 C21 1.420 1_555 1_555
C8A C9A 1.464 1_555 1_555
C8A C11A 1.373 1_555 1_555
C9A C10A 1.388 1_555 1_555
C19A C20A 1.434 1_555 1_555
C19A C22A 1.396 1_555 1_555
C20A C21A 1.420 1_555 1_555
#END
