
#######################################################################
#
#                 Cambridge Crystallographic Data Centre
#                                CCDC
#
#######################################################################
#
# If this CIF has been generated from an entry in the Cambridge
# Structural Database, then it will include bibliographic, chemical,
# crystal, experimental, refinement or atomic coordinate data resulting
# from the CCDC's data processing and validation procedures.
#
#######################################################################

data_CSD_CIF_PENCEN12
_audit_creation_date 2008-01-31
_audit_creation_method CSD-ConQuest-V1
_database_code_CSD PENCEN12
_database_code_depnum_ccdc_archive 'CCDC 674031'
_chemical_formula_sum 'C22 H14'
_chemical_formula_moiety
;
C22 H14
;
_journal_coden_Cambridge 4
_journal_volume 129
_journal_year 2007
_journal_page_first 10316
_journal_name_full 'J.Am.Chem.Soc. '
loop_
_publ_author_name
"S.Schiefer"
"M.Huth"
"A.Dobrinevski"
"B.Nickel"
_chemical_name_systematic
;
Pentacene
;
_chemical_melting_point 573
_cell_volume    697.069
_exptl_crystal_colour 'violet'
_exptl_special_details
;
fibre structured thin-film on Ticonia cyclo-olefin copolymers (Topas)
polymorph III (thin-film phase)
No R-factor is reported
;
_exptl_crystal_preparation 'Molecular beam deposition'
_diffrn_ambient_temperature 293
_diffrn_ambient_pressure 1000000.0
_diffrn_radiation_probe x-ray
_diffrn_source synchrotron
_symmetry_cell_setting triclinic
_symmetry_space_group_name_H-M 'P -1'
_symmetry_Int_Tables_number 2
loop_
_symmetry_equiv_pos_site_id
_symmetry_equiv_pos_as_xyz
1 x,y,z
2 -x,-y,-z
_cell_length_a 5.959
_cell_length_b 7.596
_cell_length_c 15.6096
_cell_angle_alpha 81.25
_cell_angle_beta 86.56
_cell_angle_gamma 89.8
_cell_formula_units_Z 2
loop_
_atom_type_symbol
_atom_type_radius_bond
C 0.68
H 0.23
loop_
_atom_site_label
_atom_site_type_symbol
_atom_site_fract_x
_atom_site_fract_y
_atom_site_fract_z
C1 C 0.20570 -0.09050 -0.00600
C2 C 0.11490 -0.06920 0.07630
C3 C 0.21760 -0.13270 0.15320
C4 C 0.12170 -0.10830 0.23400
C5 C 0.23200 -0.17250 0.31250
C6 C 0.14060 -0.14800 0.39060
C7 C -0.07170 -0.05720 0.39750
C8 C -0.17930 0.00560 0.32460
C9 C -0.08790 -0.01530 0.23920
C10 C -0.19180 0.04760 0.16500
C11 C 0.09830 -0.02410 -0.08250
H1 H 0.34130 -0.15040 -0.01060
H2 H 0.35340 -0.19270 0.15020
H3 H 0.36850 -0.23160 0.30900
H4 H 0.21430 -0.18980 0.44040
H5 H -0.13490 -0.04160 0.45180
H6 H -0.31590 0.06380 0.33010
H7 H -0.32760 0.10740 0.16920
C12 C 0.70540 0.59430 -0.00960
C13 C 0.61800 0.52990 0.07430
C14 C 0.72340 0.55450 0.14930
C15 C 0.63050 0.48850 0.23180
C16 C 0.74030 0.51760 0.30850
C17 C 0.65000 0.45520 0.38820
C18 C 0.44080 0.35650 0.39880
C19 C 0.33280 0.32770 0.32770
C20 C 0.42060 0.39310 0.24070
C21 C 0.31460 0.36700 0.16840
C22 C 0.59430 0.56800 -0.08420
H8 H 0.84110 0.65640 -0.01660
H9 H 0.85910 0.61640 0.14390
H10 H 0.87530 0.58050 0.30260
H11 H 0.72270 0.47560 0.43690
H12 H 0.37990 0.31260 0.45410
H13 H 0.19820 0.26390 0.33560
H14 H 0.17900 0.30470 0.17490
C1A C -0.20570 0.09050 0.00600
C2A C -0.11490 0.06920 -0.07630
C3A C -0.21760 0.13270 -0.15320
C4A C -0.12170 0.10830 -0.23400
C5A C -0.23200 0.17250 -0.31250
C6A C -0.14060 0.14800 -0.39060
C7A C 0.07170 0.05720 -0.39750
C8A C 0.17930 -0.00560 -0.32460
C9A C 0.08790 0.01530 -0.23920
C10A C 0.19180 -0.04760 -0.16500
C11A C -0.09830 0.02410 0.08250
H1A H -0.34130 0.15040 0.01060
H2A H -0.35340 0.19270 -0.15020
H3A H -0.36850 0.23160 -0.30900
H4A H -0.21430 0.18980 -0.44040
H5A H 0.13490 0.04160 -0.45180
H6A H 0.31590 -0.06380 -0.33010
H7A H 0.32760 -0.10740 -0.16920
C12A C 0.29460 0.40570 0.00960
C13A C 0.38200 0.47010 -0.07430
C14A C 0.27660 0.44550 -0.14930
C15A C 0.36950 0.51150 -0.23180
C16A C 0.25970 0.48240 -0.30850
C17A C 0.35000 0.54480 -0.38820
C18A C 0.55920 0.64350 -0.39880
C19A C 0.66720 0.67230 -0.32770
C20A C 0.57940 0.60690 -0.24070
C21A C 0.68540 0.63300 -0.16840
C22A C 0.40570 0.43200 0.08420
H8A H 0.15890 0.34360 0.01660
H9A H 0.14090 0.38360 -0.14390
H10A H 0.12470 0.41950 -0.30260
H11A H 0.27730 0.52440 -0.43690
H12A H 0.62010 0.68740 -0.45410
H13A H 0.80180 0.73610 -0.33560
H14A H 0.82100 0.69530 -0.17490
loop_
_geom_bond_atom_site_label_1
_geom_bond_atom_site_label_2
_geom_bond_distance
_geom_bond_site_symmetry_1
_geom_bond_site_symmetry_2
C1 C2 1.396 1_555 1_555
C2 C3 1.399 1_555 1_555
C3 C4 1.391 1_555 1_555
C4 C5 1.444 1_555 1_555
C5 C6 1.344 1_555 1_555
C6 C7 1.445 1_555 1_555
C7 C8 1.362 1_555 1_555
C8 C9 1.441 1_555 1_555
C9 C4 1.437 1_555 1_555
C10 C9 1.367 1_555 1_555
C11 C1 1.413 1_555 1_555
H1 C1 0.930 1_555 1_555
H2 C3 0.930 1_555 1_555
H3 C5 0.930 1_555 1_555
H4 C6 0.929 1_555 1_555
H5 C7 0.931 1_555 1_555
H6 C8 0.931 1_555 1_555
H7 C10 0.930 1_555 1_555
C12 C13 1.397 1_555 1_555
C13 C14 1.398 1_555 1_555
C14 C15 1.391 1_555 1_555
C15 C16 1.444 1_555 1_555
C16 C17 1.343 1_555 1_555
C17 C18 1.445 1_555 1_555
C18 C19 1.362 1_555 1_555
C19 C20 1.441 1_555 1_555
C20 C15 1.437 1_555 1_555
C21 C20 1.366 1_555 1_555
C22 C12 1.414 1_555 1_555
H8 C12 0.930 1_555 1_555
H9 C14 0.930 1_555 1_555
H10 C16 0.930 1_555 1_555
H11 C17 0.930 1_555 1_555
H12 C18 0.929 1_555 1_555
H13 C19 0.931 1_555 1_555
H14 C21 0.930 1_555 1_555
C1A C2A 1.396 1_555 1_555
C2A C11 1.458 1_555 1_555
C3A C2A 1.399 1_555 1_555
C4A C3A 1.391 1_555 1_555
C5A C4A 1.444 1_555 1_555
C6A C5A 1.344 1_555 1_555
C7A C6A 1.445 1_555 1_555
C8A C7A 1.362 1_555 1_555
C9A C4A 1.437 1_555 1_555
C10A C11 1.408 1_555 1_555
C11A C2 1.458 1_555 1_555
H1A C1A 0.930 1_555 1_555
H2A C3A 0.930 1_555 1_555
H3A C5A 0.930 1_555 1_555
H4A C6A 0.929 1_555 1_555
H5A C7A 0.931 1_555 1_555
H6A C8A 0.931 1_555 1_555
H7A C10A 0.930 1_555 1_555
C12A C13A 1.397 1_555 1_555
C13A C22 1.458 1_555 1_555
C14A C13A 1.398 1_555 1_555
C15A C14A 1.391 1_555 1_555
C16A C15A 1.444 1_555 1_555
C17A C16A 1.343 1_555 1_555
C18A C17A 1.445 1_555 1_555
C19A C18A 1.362 1_555 1_555
C20A C15A 1.437 1_555 1_555
C21A C22 1.409 1_555 1_555
C22A C13 1.458 1_555 1_555
H8A C12A 0.930 1_555 1_555
H9A C14A 0.930 1_555 1_555
H10A C16A 0.930 1_555 1_555
H11A C17A 0.930 1_555 1_555
H12A C18A 0.929 1_555 1_555
H13A C19A 0.931 1_555 1_555
H14A C21A 0.930 1_555 1_555
C10 C11A 1.408 1_555 1_555
C21 C22A 1.409 1_555 1_555
C1A C11A 1.413 1_555 1_555
C8A C9A 1.441 1_555 1_555
C9A C10A 1.367 1_555 1_555
C12A C22A 1.414 1_555 1_555
C19A C20A 1.441 1_555 1_555
C20A C21A 1.366 1_555 1_555
#END
