
#######################################################################
#
#                 Cambridge Crystallographic Data Centre
#                                CCDC
#
#######################################################################
#
# If this CIF has been generated from an entry in the Cambridge
# Structural Database, then it will include bibliographic, chemical,
# crystal, experimental, refinement or atomic coordinate data resulting
# from the CCDC's data processing and validation procedures.
#
#######################################################################

data_CSD_CIF_PENCEN06
_audit_creation_date 2007-12-14
_audit_creation_method CSD-ConQuest-V1
_database_code_CSD PENCEN06
_database_code_depnum_ccdc_archive 'CCDC 619978'
_chemical_formula_sum 'C22 H14'
_chemical_formula_moiety
;
C22 H14
;
_journal_coden_Cambridge 1089
_journal_volume 19
_journal_year 2007
_journal_page_first 2079
_journal_name_full 'Adv.Mater. '
loop_
_publ_author_name
"T.Siegrist"
"C.Besnard"
"S.Haas"
"M.Schiltz"
"P.Pattison"
"D.Chernyshov"
"B.Batlogg"
"C.Kloc"
_chemical_name_systematic
;
Pentacene
;
_cell_volume    675.684
_exptl_crystal_colour 'black'
_exptl_crystal_density_diffrn 1.368
_exptl_special_details
;
polymorph II
phase transition at around 463 K

;
_diffrn_ambient_temperature 120
#These two values have been output from a single CSD field.
_refine_ls_R_factor_gt 0.0591
_refine_ls_wR_factor_gt 0.0591
_symmetry_cell_setting triclinic
_symmetry_space_group_name_H-M 'P -1'
_symmetry_Int_Tables_number 2
loop_
_symmetry_equiv_pos_site_id
_symmetry_equiv_pos_as_xyz
1 x,y,z
2 -x,-y,-z
_cell_length_a 6.292(2)
_cell_length_b 7.6901(13)
_cell_length_c 14.4103(16)
_cell_angle_alpha 76.861(13)
_cell_angle_beta 88.16(2)
_cell_angle_gamma 84.36(2)
_cell_formula_units_Z 2
loop_
_atom_type_symbol
_atom_type_radius_bond
C 0.68
H 0.23
loop_
_atom_site_label
_atom_site_type_symbol
_atom_site_fract_x
_atom_site_fract_y
_atom_site_fract_z
C1 C 0.0670(2) 0.2699(2) 0.14133(16)
C2 C 0.2158(2) 0.3662(2) 0.08604(16)
C3 C 0.3999(2) 0.4101(2) 0.12925(17)
C4 C 0.4300(2) 0.3565(2) 0.22450(15)
C5 C 0.2786(2) 0.25471(18) 0.28543(15)
C6 C 0.0912(2) 0.21112(19) 0.24171(15)
C7 C 0.3062(2) 0.19968(18) 0.38300(14)
C8 C 0.15539(19) 0.09901(18) 0.44330(15)
C9 C -0.0316(2) 0.05548(17) 0.39915(14)
C10 C -0.0575(2) 0.11250(18) 0.29970(15)
C11 C 0.18223(19) 0.04384(18) 0.54151(14)
H1 H -0.05740 0.24190 0.11200
H2 H 0.19660 0.40550 0.01610
H3 H 0.50820 0.47850 0.08970
H4 H 0.55150 0.38580 0.25340
H5 H 0.42830 0.22960 0.41070
H6 H -0.18040 0.08210 0.27080
H7 H 0.30490 0.07300 0.56920
C12 C 0.9457(2) 0.7095(2) 0.19727(14)
C13 C 0.9049(2) 0.8289(2) 0.11342(16)
C14 C 0.7006(2) 0.9305(2) 0.09676(15)
C15 C 0.5431(2) 0.9075(2) 0.16485(15)
C16 C 0.5796(2) 0.78177(18) 0.25432(14)
C17 C 0.78647(18) 0.67957(18) 0.27183(13)
C18 C 0.4216(2) 0.75473(18) 0.32532(14)
C19 C 0.45755(19) 0.62871(17) 0.41283(14)
C20 C 0.66529(19) 0.52591(18) 0.42971(13)
C21 C 0.8251(2) 0.55586(18) 0.35733(13)
C22 C 0.29853(19) 0.59962(18) 0.48435(13)
H8 H 1.08020 0.64300 0.20850
H9 H 1.01580 0.84540 0.06300
H10 H 0.67180 1.01710 0.03530
H11 H 0.40730 0.97610 0.15350
H12 H 0.28520 0.82270 0.31310
H13 H 0.96130 0.48910 0.36820
H14 H 0.16250 0.66690 0.47420
C1A C -0.0670(2) -0.2699(2) 0.85867(16)
C2A C -0.2158(2) -0.3662(2) 0.91396(16)
C3A C -0.3999(2) -0.4101(2) 0.87075(17)
C4A C -0.4300(2) -0.3565(2) 0.77550(15)
C5A C -0.2786(2) -0.25471(18) 0.71457(15)
C6A C -0.0912(2) -0.21112(19) 0.75829(15)
C7A C -0.3062(2) -0.19968(18) 0.61700(14)
C8A C -0.15539(19) -0.09901(18) 0.55670(15)
C9A C 0.0316(2) -0.05548(17) 0.60085(14)
C10A C 0.0575(2) -0.11250(18) 0.70030(15)
C11A C -0.18223(19) -0.04384(18) 0.45849(14)
H1A H 0.05740 -0.24190 0.88800
H2A H -0.19660 -0.40550 0.98390
H3A H -0.50820 -0.47850 0.91030
H4A H -0.55150 -0.38580 0.74660
H5A H -0.42830 -0.22960 0.58930
H6A H 0.18040 -0.08210 0.72920
H7A H -0.30490 -0.07300 0.43080
C12A C 0.0543(2) 0.2905(2) 0.80273(14)
C13A C 0.0951(2) 0.1711(2) 0.88658(16)
C14A C 0.2994(2) 0.0695(2) 0.90324(15)
C15A C 0.4569(2) 0.0925(2) 0.83515(15)
C16A C 0.4204(2) 0.21823(18) 0.74568(14)
C17A C 0.21353(18) 0.32043(18) 0.72817(13)
C18A C 0.5784(2) 0.24527(18) 0.67468(14)
C19A C 0.54245(19) 0.37129(17) 0.58717(14)
C20A C 0.33471(19) 0.47409(18) 0.57029(13)
C21A C 0.1749(2) 0.44414(18) 0.64267(13)
C22A C 0.70147(19) 0.40038(18) 0.51565(13)
H8A H -0.08020 0.35700 0.79150
H9A H -0.01580 0.15460 0.93700
H10A H 0.32820 -0.01710 0.96470
H11A H 0.59270 0.02390 0.84650
H12A H 0.71480 0.17730 0.68690
H13A H 0.03870 0.51090 0.63180
H14A H 0.83750 0.33310 0.52580
loop_
_geom_bond_atom_site_label_1
_geom_bond_atom_site_label_2
_geom_bond_distance
_geom_bond_site_symmetry_1
_geom_bond_site_symmetry_2
C1 C2 1.371 1_555 1_555
C2 C3 1.436 1_555 1_555
C3 C4 1.354 1_555 1_555
C4 C5 1.439 1_555 1_555
C5 C6 1.456 1_555 1_555
C6 C1 1.422 1_555 1_555
C7 C5 1.385 1_555 1_555
C8 C7 1.428 1_555 1_555
C9 C8 1.457 1_555 1_555
C10 C6 1.396 1_555 1_555
C11 C8 1.393 1_555 1_555
H1 C1 0.966 1_555 1_555
H2 C2 0.992 1_555 1_555
H3 C3 0.987 1_555 1_555
H4 C4 0.952 1_555 1_555
H5 C7 0.948 1_555 1_555
H6 C10 0.963 1_555 1_555
H7 C11 0.949 1_555 1_555
C12 C13 1.356 1_555 1_555
C13 C14 1.434 1_555 1_555
C14 C15 1.367 1_555 1_555
C15 C16 1.435 1_555 1_555
C16 C17 1.451 1_555 1_555
C17 C12 1.440 1_555 1_555
C18 C16 1.399 1_555 1_555
C19 C18 1.414 1_555 1_555
C20 C19 1.457 1_555 1_555
C21 C17 1.387 1_555 1_555
C22 C19 1.409 1_555 1_555
H8 C12 0.943 1_555 1_555
H9 C13 0.987 1_555 1_555
H10 C14 0.990 1_555 1_555
H11 C15 0.957 1_555 1_555
H12 C18 0.959 1_555 1_555
H13 C21 0.953 1_555 1_555
H14 C22 0.953 1_555 1_555
C1A C2A 1.371 1_555 1_555
C2A C3A 1.436 1_555 1_555
C3A C4A 1.354 1_555 1_555
C4A C5A 1.439 1_555 1_555
C5A C6A 1.456 1_555 1_555
C6A C1A 1.422 1_555 1_555
C7A C5A 1.385 1_555 1_555
C8A C7A 1.428 1_555 1_555
C9A C11 1.416 1_555 1_555
C10A C6A 1.396 1_555 1_555
C11A C9 1.416 1_555 1_555
H1A C1A 0.966 1_555 1_555
H2A C2A 0.992 1_555 1_555
H3A C3A 0.987 1_555 1_555
H4A C4A 0.952 1_555 1_555
H5A C7A 0.948 1_555 1_555
H6A C10A 0.963 1_555 1_555
H7A C11A 0.949 1_555 1_555
C12A C13A 1.356 1_555 1_555
C13A C14A 1.434 1_555 1_555
C14A C15A 1.367 1_555 1_555
C15A C16A 1.435 1_555 1_555
C16A C17A 1.451 1_555 1_555
C17A C12A 1.440 1_555 1_555
C18A C16A 1.399 1_555 1_555
C19A C18A 1.414 1_555 1_555
C20A C22 1.396 1_555 1_555
C21A C17A 1.387 1_555 1_555
C22A C20 1.396 1_555 1_555
H8A C12A 0.943 1_555 1_555
H9A C13A 0.987 1_555 1_555
H10A C14A 0.990 1_555 1_555
H11A C15A 0.957 1_555 1_555
H12A C18A 0.959 1_555 1_555
H13A C21A 0.953 1_555 1_555
H14A C22A 0.953 1_555 1_555
C9 C10 1.410 1_555 1_555
C20 C21 1.422 1_555 1_555
C8A C9A 1.457 1_555 1_555
C8A C11A 1.393 1_555 1_555
C9A C10A 1.410 1_555 1_555
C19A C20A 1.457 1_555 1_555
C19A C22A 1.409 1_555 1_555
C20A C21A 1.422 1_555 1_555
#END
