
#######################################################################
#
#                 Cambridge Crystallographic Data Centre
#                                CCDC
#
#######################################################################
#
# If this CIF has been generated from an entry in the Cambridge
# Structural Database, then it will include bibliographic, chemical,
# crystal, experimental, refinement or atomic coordinate data resulting
# from the CCDC's data processing and validation procedures.
#
#######################################################################

data_CSD_CIF_PENCEN07
_audit_creation_date 2007-12-14
_audit_creation_method CSD-ConQuest-V1
_database_code_CSD PENCEN07
_database_code_depnum_ccdc_archive 'CCDC 619979'
_chemical_formula_sum 'C22 H14'
_chemical_formula_moiety
;
C22 H14
;
_journal_coden_Cambridge 1089
_journal_volume 19
_journal_year 2007
_journal_page_first 2079
_journal_name_full 'Adv.Mater. '
loop_
_publ_author_name
"T.Siegrist"
"C.Besnard"
"S.Haas"
"M.Schiltz"
"P.Pattison"
"D.Chernyshov"
"B.Batlogg"
"C.Kloc"
_chemical_name_systematic
;
Pentacene
;
_cell_volume    692.548
_exptl_crystal_density_diffrn 1.335
_exptl_special_details
;
polymorph II
phase transition at around 463 K

;
_diffrn_ambient_temperature 293
_diffrn_radiation_probe x-ray
_diffrn_source synchrotron
#These two values have been output from a single CSD field.
_refine_ls_R_factor_gt 0.0641
_refine_ls_wR_factor_gt 0.0641
_symmetry_cell_setting triclinic
_symmetry_space_group_name_H-M 'P -1'
_symmetry_Int_Tables_number 2
loop_
_symmetry_equiv_pos_site_id
_symmetry_equiv_pos_as_xyz
1 x,y,z
2 -x,-y,-z
_cell_length_a 6.2873(9)
_cell_length_b 7.8058(9)
_cell_length_c 14.5799(11)
_cell_angle_alpha 76.461(8)
_cell_angle_beta 87.629(10)
_cell_angle_gamma 84.707(10)
_cell_formula_units_Z 2
loop_
_atom_type_symbol
_atom_type_radius_bond
C 0.68
H 0.23
loop_
_atom_site_label
_atom_site_type_symbol
_atom_site_fract_x
_atom_site_fract_y
_atom_site_fract_z
C1 C 0.0683(4) 0.2669(3) 1.14391(18)
C2 C 0.2170(5) 0.3619(3) 1.0887(2)
C3 C 0.4002(5) 0.4074(3) 1.1301(2)
C4 C 0.4306(4) 0.3546(3) 1.2247(2)
C5 C 0.2792(4) 0.2533(3) 1.28592(18)
C6 C 0.0930(4) 0.2086(3) 1.24365(18)
C7 C 0.3059(4) 0.1984(3) 1.38253(18)
C8 C 0.1554(4) 0.0992(3) 1.44275(18)
C9 C -0.0315(4) 0.0538(3) 1.40063(18)
C10 C -0.0557(4) 0.1105(3) 1.30170(18)
C11 C 0.1817(4) 0.0444(3) 1.54032(17)
H1 H -0.05630 0.23850 1.11550
H2 H 0.19460 0.39890 1.01990
H3 H 0.50820 0.47690 1.08890
H4 H 0.55690 0.38360 1.25220
H5 H 0.42980 0.22780 1.41050
H6 H -0.17960 0.08040 1.27430
H7 H 0.30650 0.07520 1.56800
C12 C 0.9041(5) 0.8262(4) 1.1150(2)
C13 C 0.7011(5) 0.9251(4) 1.0993(2)
C14 C 0.5447(4) 0.9023(3) 1.16710(19)
C15 C 0.5789(4) 0.7786(3) 1.25629(18)
C16 C 0.7857(4) 0.6785(3) 1.27187(17)
C17 C 0.9455(4) 0.7079(3) 1.19792(19)
C18 C 0.4223(4) 0.7517(3) 1.32681(17)
C19 C 0.4586(4) 0.6273(3) 1.41351(17)
C20 C 0.6658(4) 0.5265(3) 1.42940(17)
C21 C 0.8240(4) 0.5570(3) 1.35677(17)
C22 C 0.2996(4) 0.5981(3) 1.48480(17)
H8 H 1.01670 0.84540 1.06550
H9 H 0.67180 1.01090 1.03840
H10 H 0.40660 0.96910 1.15660
H11 H 1.08330 0.64050 1.20850
H12 H 0.28420 0.81900 1.31660
H13 H 0.96250 0.49040 1.36760
H14 H 0.16200 0.66500 1.47370
C1A C -0.0683(4) -0.2669(3) 1.85609(18)
C2A C -0.2170(5) -0.3619(3) 1.9113(2)
C3A C -0.4002(5) -0.4074(3) 1.8699(2)
C4A C -0.4306(4) -0.3546(3) 1.7753(2)
C5A C -0.2792(4) -0.2533(3) 1.71408(18)
C6A C -0.0930(4) -0.2086(3) 1.75635(18)
C7A C -0.3059(4) -0.1984(3) 1.61747(18)
C8A C -0.1554(4) -0.0992(3) 1.55725(18)
C9A C 0.0315(4) -0.0538(3) 1.59937(18)
C10A C 0.0557(4) -0.1105(3) 1.69830(18)
C11A C -0.1817(4) -0.0444(3) 1.45968(17)
H1A H 0.05630 -0.23850 1.88450
H2A H -0.19460 -0.39890 1.98010
H3A H -0.50820 -0.47690 1.91110
H4A H -0.55690 -0.38360 1.74780
H5A H -0.42980 -0.22780 1.58950
H6A H 0.17960 -0.08040 1.72570
H7A H -0.30650 -0.07520 1.43200
C12A C 0.0959(5) 0.1738(4) 1.8850(2)
C13A C 0.2989(5) 0.0749(4) 1.9007(2)
C14A C 0.4553(4) 0.0977(3) 1.83290(19)
C15A C 0.4211(4) 0.2214(3) 1.74371(18)
C16A C 0.2143(4) 0.3215(3) 1.72813(17)
C17A C 0.0545(4) 0.2921(3) 1.80208(19)
C18A C 0.5777(4) 0.2483(3) 1.67319(17)
C19A C 0.5414(4) 0.3727(3) 1.58649(17)
C20A C 0.3342(4) 0.4735(3) 1.57060(17)
C21A C 0.1760(4) 0.4430(3) 1.64323(17)
C22A C 0.7004(4) 0.4019(3) 1.51520(17)
H8A H -0.01670 0.15460 1.93450
H9A H 0.32820 -0.01090 1.96160
H10A H 0.59340 0.03090 1.84340
H11A H -0.08330 0.35950 1.79150
H12A H 0.71580 0.18100 1.68340
H13A H 0.03750 0.50960 1.63240
H14A H 0.83800 0.33500 1.52630
loop_
_geom_bond_atom_site_label_1
_geom_bond_atom_site_label_2
_geom_bond_distance
_geom_bond_site_symmetry_1
_geom_bond_site_symmetry_2
C1 C2 1.363 1_555 1_555
C2 C3 1.432 1_555 1_555
C3 C4 1.360 1_555 1_555
C4 C5 1.437 1_555 1_555
C5 C6 1.452 1_555 1_555
C6 C1 1.429 1_555 1_555
C7 C5 1.385 1_555 1_555
C8 C7 1.419 1_555 1_555
C9 C8 1.457 1_555 1_555
C10 C6 1.393 1_555 1_555
C11 C8 1.398 1_555 1_555
H1 C1 0.968 1_555 1_555
H2 C2 0.989 1_555 1_555
H3 C3 0.999 1_555 1_555
H4 C4 0.972 1_555 1_555
H5 C7 0.964 1_555 1_555
H6 C10 0.962 1_555 1_555
H7 C11 0.971 1_555 1_555
C12 C13 1.427 1_555 1_555
C13 C14 1.358 1_555 1_555
C14 C15 1.438 1_555 1_555
C15 C16 1.451 1_555 1_555
C16 C17 1.436 1_555 1_555
C17 C12 1.357 1_555 1_555
C18 C15 1.387 1_555 1_555
C19 C18 1.415 1_555 1_555
C20 C19 1.456 1_555 1_555
C21 C16 1.387 1_555 1_555
C22 C19 1.406 1_555 1_555
H8 C12 0.985 1_555 1_555
H9 C13 0.992 1_555 1_555
H10 C14 0.969 1_555 1_555
H11 C17 0.970 1_555 1_555
H12 C18 0.971 1_555 1_555
H13 C21 0.971 1_555 1_555
H14 C22 0.967 1_555 1_555
C1A C2A 1.363 1_555 1_555
C2A C3A 1.432 1_555 1_555
C3A C4A 1.360 1_555 1_555
C4A C5A 1.437 1_555 1_555
C5A C6A 1.452 1_555 1_555
C6A C1A 1.429 1_555 1_555
C7A C5A 1.385 1_555 1_555
C8A C7A 1.419 1_555 1_555
C9A C11 1.406 1_555 1_555
C10A C6A 1.393 1_555 1_555
C11A C9 1.406 1_555 1_555
H1A C1A 0.968 1_555 1_555
H2A C2A 0.989 1_555 1_555
H3A C3A 0.999 1_555 1_555
H4A C4A 0.972 1_555 1_555
H5A C7A 0.964 1_555 1_555
H6A C10A 0.962 1_555 1_555
H7A C11A 0.971 1_555 1_555
C12A C13A 1.427 1_555 1_555
C13A C14A 1.358 1_555 1_555
C14A C15A 1.438 1_555 1_555
C15A C16A 1.451 1_555 1_555
C16A C17A 1.436 1_555 1_555
C17A C12A 1.357 1_555 1_555
C18A C15A 1.387 1_555 1_555
C19A C18A 1.415 1_555 1_555
C20A C22 1.404 1_555 1_555
C21A C16A 1.387 1_555 1_555
C22A C20 1.404 1_555 1_555
H8A C12A 0.985 1_555 1_555
H9A C13A 0.992 1_555 1_555
H10A C14A 0.969 1_555 1_555
H11A C17A 0.970 1_555 1_555
H12A C18A 0.971 1_555 1_555
H13A C21A 0.971 1_555 1_555
H14A C22A 0.967 1_555 1_555
C9 C10 1.416 1_555 1_555
C20 C21 1.416 1_555 1_555
C8A C9A 1.457 1_555 1_555
C8A C11A 1.398 1_555 1_555
C9A C10A 1.416 1_555 1_555
C19A C20A 1.456 1_555 1_555
C19A C22A 1.406 1_555 1_555
C20A C21A 1.416 1_555 1_555
#END
