
#######################################################################
#
#                 Cambridge Crystallographic Data Centre
#                                CCDC
#
#######################################################################
#
# If this CIF has been generated from an entry in the Cambridge
# Structural Database, then it will include bibliographic, chemical,
# crystal, experimental, refinement or atomic coordinate data resulting
# from the CCDC's data processing and validation procedures.
#
#######################################################################

data_CSD_CIF_PENCEN
_audit_creation_date 1971-12-31
_audit_creation_method CSD-ConQuest-V1
_database_code_CSD PENCEN
_database_code_depnum_ccdc_archive 'CCDC 1230799'
_chemical_formula_sum 'C22 H14'
_chemical_formula_moiety
;
C22 H14
;
_journal_coeditor_code "IUCr A03426"
_journal_coden_Cambridge 1
_journal_volume 15
_journal_year 1962
_journal_page_first 289
_journal_name_full 'Acta Crystallogr. '
loop_
_publ_author_name
"R.B.Campbell"
"J.M.Robertson"
"J.Trotter"
_chemical_name_systematic
;
Pentacene
;
_cell_volume    692.384
_exptl_special_details
;
crystal grown from solution
polymorph I

;
_diffrn_ambient_temperature ?
_diffrn_special_details
;
The study was carried out at room temperature,in the range 283-303K

;
#These two values have been output from a single CSD field.
_refine_ls_R_factor_gt 0.104
_refine_ls_wR_factor_gt 0.104
_symmetry_cell_setting triclinic
_symmetry_space_group_name_H-M 'P -1'
_symmetry_Int_Tables_number 2
loop_
_symmetry_equiv_pos_site_id
_symmetry_equiv_pos_as_xyz
1 x,y,z
2 -x,-y,-z
_cell_length_a 7.9
_cell_length_b 6.06
_cell_length_c 16.01
_cell_angle_alpha 101.9
_cell_angle_beta 112.6
_cell_angle_gamma 85.8
_cell_formula_units_Z 2
loop_
_atom_type_symbol
_atom_type_radius_bond
C 0.68
H 0.20
loop_
_atom_site_label
_atom_site_type_symbol
_atom_site_fract_x
_atom_site_fract_y
_atom_site_fract_z
C1 C 0.14840 0.01830 0.40710
C2 C -0.01520 -0.26340 0.27860
C3 C 0.05190 -0.18000 0.37060
C4 C 0.17070 0.13610 0.34910
C5 C 0.10300 0.06040 0.25080
C6 C 0.12740 0.16500 0.18940
C7 C 0.05720 0.09510 0.09500
C8 C 0.09250 0.20950 0.03350
C9 C -0.02270 -0.12270 0.05670
C10 C -0.05400 -0.23250 0.12250
C11 C 0.01500 -0.15160 0.21490
H1 H 0.20200 0.08700 0.48200
H2 H -0.08500 -0.42700 0.25100
H3 H 0.03300 -0.27200 0.42000
H4 H 0.24600 0.29400 0.37000
H5 H 0.20200 0.32100 0.21800
H6 H 0.16200 0.36200 0.06100
H7 H -0.12200 -0.39500 0.09800
C12 C -0.43730 -0.42670 0.40140
C13 C -0.49650 -0.31950 0.32860
C14 C -0.47900 -0.41240 0.24340
C15 C -0.54180 -0.29900 0.16860
C16 C -0.51900 -0.39380 0.08460
C17 C -0.57690 -0.28620 0.01000
C18 C -0.43780 -0.62060 0.07540
C19 C -0.38970 -0.72570 0.14830
C20 C -0.39390 -0.63480 0.23420
C21 C -0.34510 -0.74300 0.30940
C22 C -0.35040 -0.65130 0.39250
H8 H -0.44700 -0.33900 0.47500
H9 H -0.55300 -0.14700 0.33500
H10 H -0.59900 -0.12700 0.17800
H11 H -0.63800 -0.11300 0.02000
H12 H -0.32700 -0.89600 0.14200
H13 H -0.28200 -0.91200 0.30400
H14 H -0.30000 -0.73500 0.45300
C9A C 0.02270 0.12270 -0.05670
C8A C -0.09250 -0.20950 -0.03350
C7A C -0.05720 -0.09510 -0.09500
C10A C 0.05400 0.23250 -0.12250
H6A H -0.16200 -0.36200 -0.06100
C6A C -0.12740 -0.16500 -0.18940
C11A C -0.01500 0.15160 -0.21490
H7A H 0.12200 0.39500 -0.09800
C5A C -0.10300 -0.06040 -0.25080
H5A H -0.20200 -0.32100 -0.21800
C2A C 0.01520 0.26340 -0.27860
C4A C -0.17070 -0.13610 -0.34910
C3A C -0.05190 0.18000 -0.37060
H2A H 0.08500 0.42700 -0.25100
C1A C -0.14840 -0.01830 -0.40710
H4A H -0.24600 -0.29400 -0.37000
H3A H -0.03300 0.27200 -0.42000
H1A H -0.20200 -0.08700 -0.48200
C18A C -0.56220 -0.37940 -0.07540
C17A C -0.42310 -0.71380 -0.01000
C16A C -0.48100 -0.60620 -0.08460
C19A C -0.61030 -0.27430 -0.14830
H11A H -0.36200 -0.88700 -0.02000
C15A C -0.45820 -0.70100 -0.16860
C20A C -0.60610 -0.36520 -0.23420
H12A H -0.67300 -0.10400 -0.14200
C14A C -0.52100 -0.58760 -0.24340
H10A H -0.40100 -0.87300 -0.17800
C21A C -0.65490 -0.25700 -0.30940
C13A C -0.50350 -0.68050 -0.32860
C22A C -0.64960 -0.34870 -0.39250
H13A H -0.71800 -0.08800 -0.30400
C12A C -0.56270 -0.57330 -0.40140
H9A H -0.44700 -0.85300 -0.33500
H14A H -0.70000 -0.26500 -0.45300
H8A H -0.55300 -0.66100 -0.47500
loop_
_geom_bond_atom_site_label_1
_geom_bond_atom_site_label_2
_geom_bond_distance
_geom_bond_site_symmetry_1
_geom_bond_site_symmetry_2
C1 C3 1.367 1_555 1_555
C2 C3 1.356 1_555 1_555
C3 H3 1.115 1_555 1_555
C4 C1 1.349 1_555 1_555
C5 C4 1.437 1_555 1_555
C6 C5 1.351 1_555 1_555
C7 C6 1.377 1_555 1_555
C8 C7 1.431 1_555 1_555
C9 C7 1.417 1_555 1_555
C10 C9 1.458 1_555 1_555
C11 C2 1.432 1_555 1_555
H1 C1 1.105 1_555 1_555
H2 C2 1.093 1_555 1_555
H4 C4 1.086 1_555 1_555
H5 C6 1.071 1_555 1_555
H6 C8 1.034 1_555 1_555
H7 C10 1.081 1_555 1_555
C12 C13 1.359 1_555 1_555
C13 C14 1.419 1_555 1_555
C14 C15 1.409 1_555 1_555
C15 C16 1.422 1_555 1_555
C16 C17 1.385 1_555 1_555
C17 H11 1.130 1_555 1_555
C18 C16 1.477 1_555 1_555
C19 C18 1.357 1_555 1_555
C20 C14 1.467 1_555 1_555
C21 C20 1.400 1_555 1_555
C22 C12 1.484 1_555 1_555
H8 C12 1.217 1_555 1_555
H9 C13 1.107 1_555 1_555
H10 C15 1.110 1_555 1_555
H12 C19 1.114 1_555 1_555
H13 C21 1.108 1_555 1_555
H14 C22 1.109 1_555 1_555
C9A C8 1.335 1_555 1_555
C8A C9 1.335 1_555 1_555
C7A C9A 1.417 1_555 1_555
C10A C9A 1.458 1_555 1_555
H6A C8A 1.034 1_555 1_555
C6A C7A 1.377 1_555 1_555
C11A C10A 1.359 1_555 1_555
H7A C10A 1.081 1_555 1_555
C5A C6A 1.351 1_555 1_555
H5A C6A 1.071 1_555 1_555
C2A C11A 1.432 1_555 1_555
C4A C5A 1.437 1_555 1_555
C3A C2A 1.356 1_555 1_555
H2A C2A 1.093 1_555 1_555
C1A C4A 1.349 1_555 1_555
H4A C4A 1.086 1_555 1_555
H3A C3A 1.115 1_555 1_555
H1A C1A 1.105 1_555 1_555
C18A C17 1.413 1_555 1_555
C17A C18 1.413 1_555 1_555
C16A C18A 1.477 1_555 1_555
C19A C18A 1.357 1_555 1_555
H11A C17A 1.130 1_555 1_555
C15A C16A 1.422 1_555 1_555
C20A C19A 1.384 1_555 1_555
H12A C19A 1.114 1_555 1_555
C14A C15A 1.409 1_555 1_555
H10A C15A 1.110 1_555 1_555
C21A C20A 1.400 1_555 1_555
C13A C14A 1.419 1_555 1_555
C22A C21A 1.347 1_555 1_555
H13A C21A 1.108 1_555 1_555
C12A C13A 1.359 1_555 1_555
H9A C13A 1.107 1_555 1_555
H14A C22A 1.109 1_555 1_555
H8A C12A 1.217 1_555 1_555
C5 C11 1.408 1_555 1_555
C10 C11 1.359 1_555 1_555
C19 C20 1.384 1_555 1_555
C21 C22 1.347 1_555 1_555
C8A C7A 1.431 1_555 1_555
C11A C5A 1.408 1_555 1_555
C3A C1A 1.367 1_555 1_555
C17A C16A 1.385 1_555 1_555
C20A C14A 1.467 1_555 1_555
C22A C12A 1.484 1_555 1_555
#END
