
#######################################################################
#
#                 Cambridge Crystallographic Data Centre
#                                CCDC
#
#######################################################################
#
# If this CIF has been generated from an entry in the Cambridge
# Structural Database, then it will include bibliographic, chemical,
# crystal, experimental, refinement or atomic coordinate data resulting
# from the CCDC's data processing and validation procedures.
#
#######################################################################

data_CSD_CIF_PENCEN11
_audit_creation_date 2008-01-31
_audit_creation_method CSD-ConQuest-V1
_database_code_CSD PENCEN11
_database_code_depnum_ccdc_archive 'CCDC 674030'
_chemical_formula_sum 'C22 H14'
_chemical_formula_moiety
;
C22 H14
;
_journal_coden_Cambridge 4
_journal_volume 129
_journal_year 2007
_journal_page_first 10316
_journal_name_full 'J.Am.Chem.Soc. '
loop_
_publ_author_name
"S.Schiefer"
"M.Huth"
"A.Dobrinevski"
"B.Nickel"
_chemical_name_systematic
;
Pentacene
;
_chemical_melting_point 573
_cell_volume    696.952
_exptl_crystal_colour 'violet'
_exptl_special_details
;
fibre structured thin-film on octadecyltrichlorosilane-treated alpha-SiO2 
(OTS)
polymorph III (thin-film phase)
No R-factor is reported
;
_exptl_crystal_preparation 'Molecular beam deposition'
_diffrn_ambient_temperature 293
_diffrn_ambient_pressure 1000000.0
_diffrn_radiation_probe x-ray
_diffrn_source synchrotron
_symmetry_cell_setting triclinic
_symmetry_space_group_name_H-M 'P -1'
_symmetry_Int_Tables_number 2
loop_
_symmetry_equiv_pos_site_id
_symmetry_equiv_pos_as_xyz
1 x,y,z
2 -x,-y,-z
_cell_length_a 5.958
_cell_length_b 7.596
_cell_length_c 15.6096
_cell_angle_alpha 81.25
_cell_angle_beta 86.56
_cell_angle_gamma 89.8
_cell_formula_units_Z 2
loop_
_atom_type_symbol
_atom_type_radius_bond
C 0.68
H 0.23
loop_
_atom_site_label
_atom_site_type_symbol
_atom_site_fract_x
_atom_site_fract_y
_atom_site_fract_z
C1 C 0.20930 -0.08500 -0.00730
C2 C 0.11970 -0.06620 0.07550
C3 C 0.22700 -0.12700 0.15170
C4 C 0.13220 -0.10530 0.23300
C5 C 0.24720 -0.16660 0.31080
C6 C 0.15680 -0.14470 0.38930
C7 C -0.05900 -0.05960 0.39760
C8 C -0.17100 0.00040 0.32550
C9 C -0.08100 -0.01800 0.23960
C10 C -0.18950 0.04230 0.16610
C11 C 0.09710 -0.02140 -0.08310
H1 H 0.34720 -0.14120 -0.01280
H2 H 0.36510 -0.18340 0.14780
H3 H 0.38600 -0.22200 0.30640
H4 H 0.23350 -0.18450 0.43870
H5 H -0.12140 -0.04580 0.45220
H6 H -0.30990 0.05490 0.33190
H7 H -0.32760 0.09840 0.17110
C12 C 0.70890 0.58930 -0.01050
C13 C 0.62010 0.53010 0.07370
C14 C 0.72740 0.55510 0.14830
C15 C 0.63290 0.49430 0.23110
C16 C 0.74480 0.52380 0.30730
C17 C 0.65310 0.46640 0.38740
C18 C 0.44020 0.37280 0.39890
C19 C 0.33020 0.34370 0.32840
C20 C 0.41950 0.40380 0.24100
C21 C 0.31150 0.37740 0.16910
C22 C 0.59580 0.56270 -0.08460
H8 H 0.84690 0.64820 -0.01810
H9 H 0.86540 0.61380 0.14230
H10 H 0.88220 0.58350 0.30080
H11 H 0.72710 0.48700 0.43570
H12 H 0.37830 0.33230 0.45450
H13 H 0.19330 0.28320 0.33680
H14 H 0.17360 0.31840 0.17620
C1A C -0.20930 0.08500 0.00730
C2A C -0.11970 0.06620 -0.07550
C3A C -0.22700 0.12700 -0.15170
C4A C -0.13220 0.10530 -0.23300
C5A C -0.24720 0.16660 -0.31080
C6A C -0.15680 0.14470 -0.38930
C7A C 0.05900 0.05960 -0.39760
C8A C 0.17100 -0.00040 -0.32550
C9A C 0.08100 0.01800 -0.23960
C10A C 0.18950 -0.04230 -0.16610
C11A C -0.09710 0.02140 0.08310
H1A H -0.34720 0.14120 0.01280
H2A H -0.36510 0.18340 -0.14780
H3A H -0.38600 0.22200 -0.30640
H4A H -0.23350 0.18450 -0.43870
H5A H 0.12140 0.04580 -0.45220
H6A H 0.30990 -0.05490 -0.33190
H7A H 0.32760 -0.09840 -0.17110
C12A C 0.29110 0.41070 0.01050
C13A C 0.37990 0.46990 -0.07370
C14A C 0.27260 0.44490 -0.14830
C15A C 0.36710 0.50570 -0.23110
C16A C 0.25520 0.47620 -0.30730
C17A C 0.34690 0.53360 -0.38740
C18A C 0.55980 0.62720 -0.39890
C19A C 0.66980 0.65630 -0.32840
C20A C 0.58050 0.59620 -0.24100
C21A C 0.68850 0.62260 -0.16910
C22A C 0.40420 0.43730 0.08460
H8A H 0.15310 0.35180 0.01810
H9A H 0.13460 0.38620 -0.14230
H10A H 0.11780 0.41650 -0.30080
H11A H 0.27290 0.51300 -0.43570
H12A H 0.62170 0.66770 -0.45450
H13A H 0.80670 0.71680 -0.33680
H14A H 0.82640 0.68160 -0.17620
loop_
_geom_bond_atom_site_label_1
_geom_bond_atom_site_label_2
_geom_bond_distance
_geom_bond_site_symmetry_1
_geom_bond_site_symmetry_2
C1 C2 1.396 1_555 1_555
C2 C3 1.400 1_555 1_555
C3 C4 1.391 1_555 1_555
C4 C5 1.445 1_555 1_555
C5 C6 1.342 1_555 1_555
C6 C7 1.445 1_555 1_555
C7 C8 1.361 1_555 1_555
C8 C9 1.441 1_555 1_555
C9 C4 1.436 1_555 1_555
C10 C9 1.368 1_555 1_555
C11 C1 1.414 1_555 1_555
H1 C1 0.930 1_555 1_555
H2 C3 0.929 1_555 1_555
H3 C5 0.930 1_555 1_555
H4 C6 0.930 1_555 1_555
H5 C7 0.930 1_555 1_555
H6 C8 0.931 1_555 1_555
H7 C10 0.930 1_555 1_555
C12 C13 1.396 1_555 1_555
C13 C14 1.399 1_555 1_555
C14 C15 1.391 1_555 1_555
C15 C16 1.445 1_555 1_555
C16 C17 1.344 1_555 1_555
C17 C18 1.445 1_555 1_555
C18 C19 1.361 1_555 1_555
C19 C20 1.441 1_555 1_555
C20 C15 1.436 1_555 1_555
C21 C20 1.367 1_555 1_555
C22 C12 1.414 1_555 1_555
H8 C12 0.930 1_555 1_555
H9 C14 0.930 1_555 1_555
H10 C16 0.930 1_555 1_555
H11 C17 0.929 1_555 1_555
H12 C18 0.930 1_555 1_555
H13 C19 0.930 1_555 1_555
H14 C21 0.930 1_555 1_555
C1A C2A 1.396 1_555 1_555
C2A C11 1.458 1_555 1_555
C3A C2A 1.400 1_555 1_555
C4A C3A 1.391 1_555 1_555
C5A C4A 1.445 1_555 1_555
C6A C5A 1.342 1_555 1_555
C7A C6A 1.445 1_555 1_555
C8A C7A 1.361 1_555 1_555
C9A C4A 1.436 1_555 1_555
C10A C11 1.408 1_555 1_555
C11A C2 1.458 1_555 1_555
H1A C1A 0.930 1_555 1_555
H2A C3A 0.929 1_555 1_555
H3A C5A 0.930 1_555 1_555
H4A C6A 0.930 1_555 1_555
H5A C7A 0.930 1_555 1_555
H6A C8A 0.931 1_555 1_555
H7A C10A 0.930 1_555 1_555
C12A C13A 1.396 1_555 1_555
C13A C22 1.457 1_555 1_555
C14A C13A 1.399 1_555 1_555
C15A C14A 1.391 1_555 1_555
C16A C15A 1.445 1_555 1_555
C17A C16A 1.344 1_555 1_555
C18A C17A 1.445 1_555 1_555
C19A C18A 1.361 1_555 1_555
C20A C15A 1.436 1_555 1_555
C21A C22 1.408 1_555 1_555
C22A C13 1.457 1_555 1_555
H8A C12A 0.930 1_555 1_555
H9A C14A 0.930 1_555 1_555
H10A C16A 0.930 1_555 1_555
H11A C17A 0.929 1_555 1_555
H12A C18A 0.930 1_555 1_555
H13A C19A 0.930 1_555 1_555
H14A C21A 0.930 1_555 1_555
C10 C11A 1.408 1_555 1_555
C21 C22A 1.408 1_555 1_555
C1A C11A 1.414 1_555 1_555
C8A C9A 1.441 1_555 1_555
C9A C10A 1.368 1_555 1_555
C12A C22A 1.414 1_555 1_555
C19A C20A 1.441 1_555 1_555
C20A C21A 1.367 1_555 1_555
#END
