
#######################################################################
#
#                 Cambridge Crystallographic Data Centre
#                                CCDC
#
#######################################################################
#
# If this CIF has been generated from an entry in the Cambridge
# Structural Database, then it will include bibliographic, chemical,
# crystal, experimental, refinement or atomic coordinate data resulting
# from the CCDC's data processing and validation procedures.
#
#######################################################################

data_CSD_CIF_PENCEN03
_audit_creation_date 2001-10-24
_audit_creation_method CSD-ConQuest-V1
_database_code_CSD PENCEN03
_database_code_depnum_ccdc_archive 'CCDC 170186'
_chemical_formula_sum 'C22 H14'
_chemical_formula_moiety
;
C22 H14
;
_journal_coeditor_code "IUCr SK1477"
_journal_coden_Cambridge 591
_journal_volume 57
_journal_year 2001
_journal_page_first 939
_journal_name_full 'Acta Crystallogr.,Sect.C:Cryst.Struct.Commun. '
loop_
_publ_author_name
"C.C.Mattheus"
"A.B.Dros"
"J.Baas"
"A.Meetsma"
"J.L.de Boer"
"T.T.M.Palstra"
_chemical_name_systematic
;
Pentacene
;
_cell_volume    685.155
_exptl_crystal_colour 'violet'
_exptl_crystal_density_diffrn 1.349
_exptl_special_details
;
crystal grown from vapour
polymorph II

;
_exptl_crystal_description 'needle-block'
_exptl_crystal_preparation 'sublimation'
_diffrn_ambient_temperature 293
#These two values have been output from a single CSD field.
_refine_ls_R_factor_gt 0.0685
_refine_ls_wR_factor_gt 0.0685
_symmetry_cell_setting triclinic
_symmetry_space_group_name_H-M 'P -1'
_symmetry_Int_Tables_number 2
loop_
_symmetry_equiv_pos_site_id
_symmetry_equiv_pos_as_xyz
1 x,y,z
2 -x,-y,-z
_cell_length_a 6.266(1)
_cell_length_b 7.775(1)
_cell_length_c 14.530(1)
_cell_angle_alpha 76.475(4)
_cell_angle_beta 87.682(4)
_cell_angle_gamma 84.684(4)
_cell_formula_units_Z 2
loop_
_atom_type_symbol
_atom_type_radius_bond
C 0.68
H 0.23
loop_
_atom_site_label
_atom_site_type_symbol
_atom_site_fract_x
_atom_site_fract_y
_atom_site_fract_z
C1 C 0.6994(8) 0.4035(6) 0.0149(3)
C2 C 0.5410(9) 0.3719(6) 0.0864(3)
C3 C 0.5776(8) 0.2470(6) 0.1736(3)
C4 C 0.4200(9) 0.2212(7) 0.2443(3)
C5 C 0.4551(8) 0.0979(6) 0.3327(3)
C6 C 0.2986(9) 0.0764(7) 0.4009(4)
C7 C 0.0967(9) 0.1741(7) 0.3851(4)
C8 C 0.0548(8) 0.2913(6) 0.3020(3)
C9 C 0.2132(8) 0.3216(6) 0.2283(3)
C10 C 0.1755(8) 0.4436(6) 0.1432(3)
C11 C 0.6641(9) 0.5285(7) -0.0709(3)
H1 H 0.83247 0.33915 0.02479
H2 H 0.70958 0.18106 0.18368
H3 H 0.58649 0.03122 0.34389
H4 H 0.32476 -0.00351 0.45863
H5 H -0.00866 0.15758 0.43255
H6 H -0.07976 0.35329 0.29283
H7 H 0.04263 0.50821 0.13324
C12 C -0.1814(8) -0.0442(6) -0.0408(3)
C13 C -0.1548(8) -0.0991(6) 0.0582(3)
C14 C -0.3054(8) -0.1986(6) 0.1172(3)
C15 C -0.2797(8) -0.2530(7) 0.2129(3)
C16 C -0.4310(8) -0.3542(6) 0.2754(3)
C17 C -0.4010(9) -0.4079(7) 0.3704(4)
C18 C -0.2131(9) -0.3636(7) 0.4114(4)
C19 C -0.0681(8) -0.2681(6) 0.3564(3)
C20 C -0.0957(9) -0.2083(6) 0.2554(3)
C21 C 0.0555(8) -0.1106(6) 0.1985(3)
C22 C -0.0332(8) 0.0537(6) -0.1004(3)
H8 H -0.30151 -0.07431 -0.06712
H9 H -0.42529 -0.22804 0.09045
H10 H -0.55280 -0.38368 0.25004
H11 H -0.50152 -0.47306 0.40892
H12 H -0.19243 -0.40143 0.47625
H13 H 0.05188 -0.24014 0.38370
H14 H 0.17444 -0.08227 0.22636
C11A C 0.3359(9) 0.4715(7) 0.0709(3)
C1A C 0.3006(8) 0.5965(6) -0.0149(3)
C2A C 0.4590(9) 0.6281(6) -0.0864(3)
C3A C 0.4224(8) 0.7530(6) -0.1736(3)
C4A C 0.5800(9) 0.7788(7) -0.2443(3)
C5A C 0.5449(8) 0.9021(6) -0.3327(3)
C6A C 0.7014(9) 0.9236(7) -0.4009(4)
C7A C 0.9033(9) 0.8259(7) -0.3851(4)
C8A C 0.9452(8) 0.7087(6) -0.3020(3)
C9A C 0.7868(8) 0.6784(6) -0.2283(3)
C10A C 0.8245(8) 0.5564(6) -0.1432(3)
H7A H 0.95737 0.49179 -0.13324
H6A H 1.07976 0.64671 -0.29283
H5A H 1.00866 0.84242 -0.43255
H4A H 0.67524 1.00351 -0.45863
H3A H 0.41351 0.96878 -0.34389
H2A H 0.29042 0.81894 -0.18368
H1A H 0.16753 0.66085 -0.02479
C22A C 0.0332(8) -0.0537(6) 0.1004(3)
C12A C 0.1814(8) 0.0442(6) 0.0408(3)
C13A C 0.1548(8) 0.0991(6) -0.0582(3)
C14A C 0.3054(8) 0.1986(6) -0.1172(3)
C15A C 0.2797(8) 0.2530(7) -0.2129(3)
C16A C 0.4310(8) 0.3542(6) -0.2754(3)
C17A C 0.4010(9) 0.4079(7) -0.3704(4)
C18A C 0.2131(9) 0.3636(7) -0.4114(4)
C19A C 0.0681(8) 0.2681(6) -0.3564(3)
C20A C 0.0957(9) 0.2083(6) -0.2554(3)
C21A C -0.0555(8) 0.1106(6) -0.1985(3)
H14A H -0.17444 0.08227 -0.22636
H13A H -0.05188 0.24014 -0.38370
H12A H 0.19243 0.40143 -0.47625
H11A H 0.50152 0.47306 -0.40892
H10A H 0.55280 0.38368 -0.25004
H9A H 0.42529 0.22804 -0.09045
H8A H 0.30151 0.07431 0.06712
loop_
_geom_bond_atom_site_label_1
_geom_bond_atom_site_label_2
_geom_bond_distance
_geom_bond_site_symmetry_1
_geom_bond_site_symmetry_2
C1 C2 1.403 1_555 1_555
C2 C3 1.417 1_555 1_555
C3 C4 1.389 1_555 1_555
C4 C5 1.423 1_555 1_555
C5 C6 1.359 1_555 1_555
C6 C7 1.412 1_555 1_555
C7 C8 1.351 1_555 1_555
C8 C9 1.424 1_555 1_555
C9 C4 1.447 1_555 1_555
C10 C9 1.385 1_555 1_555
C11 C1 1.401 1_555 1_555
H1 C1 0.930 1_555 1_555
H2 C3 0.930 1_555 1_555
H3 C5 0.930 1_555 1_555
H4 C6 0.930 1_555 1_555
H5 C7 0.930 1_555 1_555
H6 C8 0.930 1_555 1_555
H7 C10 0.930 1_555 1_555
C12 C13 1.414 1_555 1_555
C13 C14 1.408 1_555 1_555
C14 C15 1.367 1_555 1_555
C15 C16 1.441 1_555 1_555
C16 C17 1.361 1_555 1_555
C17 C18 1.445 1_555 1_555
C18 C19 1.343 1_555 1_555
C19 C20 1.444 1_555 1_555
C20 C15 1.437 1_555 1_555
C21 C20 1.391 1_555 1_555
C22 C12 1.396 1_555 1_555
H8 C12 0.930 1_555 1_555
H9 C14 0.930 1_555 1_555
H10 C16 0.930 1_555 1_555
H11 C17 0.930 1_555 1_555
H12 C18 0.930 1_555 1_555
H13 C19 0.930 1_555 1_555
H14 C21 0.930 1_555 1_555
C11A C2 1.435 1_555 1_555
C1A C11A 1.401 1_555 1_555
C2A C11 1.435 1_555 1_555
C3A C2A 1.417 1_555 1_555
C4A C3A 1.389 1_555 1_555
C5A C4A 1.423 1_555 1_555
C6A C5A 1.359 1_555 1_555
C7A C6A 1.412 1_555 1_555
C8A C7A 1.351 1_555 1_555
C9A C4A 1.447 1_555 1_555
C10A C11 1.417 1_555 1_555
H7A C10A 0.930 1_555 1_555
H6A C8A 0.930 1_555 1_555
H5A C7A 0.930 1_555 1_555
H4A C6A 0.930 1_555 1_555
H3A C5A 0.930 1_555 1_555
H2A C3A 0.930 1_555 1_555
H1A C1A 0.930 1_555 1_555
C22A C13 1.458 1_555 1_555
C12A C22A 1.396 1_555 1_555
C13A C22 1.458 1_555 1_555
C14A C13A 1.408 1_555 1_555
C15A C14A 1.367 1_555 1_555
C16A C15A 1.441 1_555 1_555
C17A C16A 1.361 1_555 1_555
C18A C17A 1.445 1_555 1_555
C19A C18A 1.343 1_555 1_555
C20A C15A 1.437 1_555 1_555
C21A C22 1.399 1_555 1_555
H14A C21A 0.930 1_555 1_555
H13A C19A 0.930 1_555 1_555
H12A C18A 0.930 1_555 1_555
H11A C17A 0.930 1_555 1_555
H10A C16A 0.930 1_555 1_555
H9A C14A 0.930 1_555 1_555
H8A C12A 0.930 1_555 1_555
C10 C11A 1.417 1_555 1_555
C21 C22A 1.399 1_555 1_555
C1A C2A 1.403 1_555 1_555
C8A C9A 1.424 1_555 1_555
C9A C10A 1.385 1_555 1_555
C12A C13A 1.414 1_555 1_555
C19A C20A 1.444 1_555 1_555
C20A C21A 1.391 1_555 1_555
#END
