
#######################################################################
#
#                 Cambridge Crystallographic Data Centre
#                                CCDC
#
#######################################################################
#
# If this CIF has been generated from an entry in the Cambridge
# Structural Database, then it will include bibliographic, chemical,
# crystal, experimental, refinement or atomic coordinate data resulting
# from the CCDC's data processing and validation procedures.
#
#######################################################################

data_CSD_CIF_PENCEN08
_audit_creation_date 2007-12-14
_audit_creation_method CSD-ConQuest-V1
_database_code_CSD PENCEN08
_database_code_depnum_ccdc_archive 'CCDC 619980'
_chemical_formula_sum 'C22 H14'
_chemical_formula_moiety
;
C22 H14
;
_journal_coden_Cambridge 1089
_journal_volume 19
_journal_year 2007
_journal_page_first 2079
_journal_name_full 'Adv.Mater. '
loop_
_publ_author_name
"T.Siegrist"
"C.Besnard"
"S.Haas"
"M.Schiltz"
"P.Pattison"
"D.Chernyshov"
"B.Batlogg"
"C.Kloc"
_chemical_name_systematic
;
Pentacene
;
_cell_volume    703.530
_exptl_crystal_density_diffrn 1.314
_exptl_special_details
;
polymorph II
phase transition at around 463 K
The CIF has a study temperature of 293 K but the structure is described as a 
high temperature study at a temperature of 414 K, as input
;
_diffrn_ambient_temperature 414
_diffrn_radiation_probe x-ray
_diffrn_source synchrotron
#These two values have been output from a single CSD field.
_refine_ls_R_factor_gt 0.0548
_refine_ls_wR_factor_gt 0.0548
_symmetry_cell_setting triclinic
_symmetry_space_group_name_H-M 'P -1'
_symmetry_Int_Tables_number 2
loop_
_symmetry_equiv_pos_site_id
_symmetry_equiv_pos_as_xyz
1 x,y,z
2 -x,-y,-z
_cell_length_a 6.2749(13)
_cell_length_b 7.8882(12)
_cell_length_c 14.7095(19)
_cell_angle_alpha 76.014(13)
_cell_angle_beta 87.233(15)
_cell_angle_gamma 84.996(15)
_cell_formula_units_Z 2
loop_
_atom_type_symbol
_atom_type_radius_bond
C 0.68
H 0.23
loop_
_atom_site_label
_atom_site_type_symbol
_atom_site_fract_x
_atom_site_fract_y
_atom_site_fract_z
C1 C 0.0702(5) 0.2637(4) 0.1471(2)
C2 C 0.2176(6) 0.3583(5) 0.0909(3)
C3 C 0.4015(6) 0.4039(5) 0.1310(3)
C4 C 0.4306(5) 0.3531(4) 0.2239(3)
C5 C 0.2808(4) 0.2519(4) 0.2869(2)
C6 C 0.0952(5) 0.2069(4) 0.2457(2)
C7 C 0.3054(5) 0.1978(4) 0.3821(2)
C8 C 0.1540(5) 0.0982(4) 0.4418(2)
C9 C -0.0330(4) 0.0520(3) 0.4010(2)
C10 C -0.0535(5) 0.1091(4) 0.3033(2)
C11 C 0.1812(4) 0.0453(4) 0.5381(2)
H1 H -0.04910 0.23520 0.11950
H2 H 0.19900 0.39430 0.02340
H3 H 0.50690 0.47130 0.08800
H4 H 0.55220 0.38300 0.25130
H5 H 0.42500 0.22960 0.41050
H6 H -0.17260 0.07930 0.27530
H7 H 0.30030 0.07530 0.56660
C12 C 0.9433(5) 0.7063(4) 0.1990(2)
C13 C 0.9053(6) 0.8224(5) 0.1160(3)
C14 C 0.7030(7) 0.9200(5) 0.1015(2)
C15 C 0.5455(5) 0.8983(4) 0.1689(2)
C16 C 0.5768(5) 0.7764(4) 0.2583(2)
C17 C 0.7818(5) 0.6787(4) 0.2721(2)
C18 C 0.4236(5) 0.7491(4) 0.3287(2)
C19 C 0.4640(5) 0.6244(4) 0.4141(2)
C20 C 0.6687(4) 0.5257(3) 0.4289(2)
C21 C 0.8240(4) 0.5578(4) 0.3558(2)
C22 C 0.3023(5) 0.5969(3) 0.4845(2)
H8 H 1.07970 0.64020 0.20880
H9 H 1.01570 0.83600 0.06680
H10 H 0.67380 1.00410 0.04170
H11 H 0.41270 0.96520 0.15730
H12 H 0.28920 0.81510 0.31940
H13 H 0.95900 0.49340 0.36470
H14 H 0.17100 0.66370 0.47380
C1A C -0.0702(5) -0.2637(4) 0.8529(2)
C2A C -0.2176(6) -0.3583(5) 0.9091(3)
C3A C -0.4015(6) -0.4039(5) 0.8690(3)
C4A C -0.4306(5) -0.3531(4) 0.7761(3)
C5A C -0.2808(4) -0.2519(4) 0.7131(2)
C6A C -0.0952(5) -0.2069(4) 0.7543(2)
C7A C -0.3054(5) -0.1978(4) 0.6179(2)
C8A C -0.1540(5) -0.0982(4) 0.5582(2)
C9A C 0.0330(4) -0.0520(3) 0.5990(2)
C10A C 0.0535(5) -0.1091(4) 0.6967(2)
C11A C -0.1812(4) -0.0453(4) 0.4619(2)
H1A H 0.04910 -0.23520 0.88050
H2A H -0.19900 -0.39430 0.97660
H3A H -0.50690 -0.47130 0.91200
H4A H -0.55220 -0.38300 0.74870
H5A H -0.42500 -0.22960 0.58950
H6A H 0.17260 -0.07930 0.72470
H7A H -0.30030 -0.07530 0.43340
C12A C 0.0567(5) 0.2937(4) 0.8010(2)
C13A C 0.0947(6) 0.1776(5) 0.8840(3)
C14A C 0.2970(7) 0.0800(5) 0.8985(2)
C15A C 0.4545(5) 0.1017(4) 0.8311(2)
C16A C 0.4232(5) 0.2236(4) 0.7417(2)
C17A C 0.2182(5) 0.3213(4) 0.7279(2)
C18A C 0.5764(5) 0.2509(4) 0.6713(2)
C19A C 0.5360(5) 0.3756(4) 0.5859(2)
C20A C 0.3313(4) 0.4743(3) 0.5711(2)
C21A C 0.1760(4) 0.4422(4) 0.6442(2)
C22A C 0.6977(5) 0.4031(3) 0.5155(2)
H8A H -0.07970 0.35980 0.79120
H9A H -0.01570 0.16400 0.93320
H10A H 0.32620 -0.00410 0.95830
H11A H 0.58730 0.03480 0.84270
H12A H 0.71080 0.18490 0.68060
H13A H 0.04100 0.50660 0.63530
H14A H 0.82900 0.33630 0.52620
loop_
_geom_bond_atom_site_label_1
_geom_bond_atom_site_label_2
_geom_bond_distance
_geom_bond_site_symmetry_1
_geom_bond_site_symmetry_2
C1 C2 1.358 1_555 1_555
C2 C3 1.432 1_555 1_555
C3 C4 1.345 1_555 1_555
C4 C5 1.438 1_555 1_555
C5 C6 1.447 1_555 1_555
C6 C1 1.423 1_555 1_555
C7 C5 1.374 1_555 1_555
C8 C7 1.417 1_555 1_555
C9 C8 1.455 1_555 1_555
C10 C6 1.385 1_555 1_555
C11 C8 1.391 1_555 1_555
H1 C1 0.937 1_555 1_555
H2 C2 0.974 1_555 1_555
H3 C3 0.989 1_555 1_555
H4 C4 0.953 1_555 1_555
H5 C7 0.956 1_555 1_555
H6 C10 0.944 1_555 1_555
H7 C11 0.948 1_555 1_555
C12 C13 1.355 1_555 1_555
C13 C14 1.423 1_555 1_555
C14 C15 1.357 1_555 1_555
C15 C16 1.440 1_555 1_555
C16 C17 1.438 1_555 1_555
C17 C12 1.432 1_555 1_555
C18 C16 1.369 1_555 1_555
C19 C18 1.414 1_555 1_555
C20 C19 1.440 1_555 1_555
C21 C17 1.384 1_555 1_555
C22 C19 1.406 1_555 1_555
H8 C12 0.961 1_555 1_555
H9 C13 0.971 1_555 1_555
H10 C14 0.980 1_555 1_555
H11 C15 0.946 1_555 1_555
H12 C18 0.949 1_555 1_555
H13 C21 0.947 1_555 1_555
H14 C22 0.937 1_555 1_555
C1A C2A 1.358 1_555 1_555
C2A C3A 1.432 1_555 1_555
C3A C4A 1.345 1_555 1_555
C4A C5A 1.438 1_555 1_555
C5A C6A 1.447 1_555 1_555
C6A C1A 1.423 1_555 1_555
C7A C5A 1.374 1_555 1_555
C8A C7A 1.417 1_555 1_555
C9A C11 1.403 1_555 1_555
C10A C6A 1.385 1_555 1_555
C11A C9 1.403 1_555 1_555
H1A C1A 0.937 1_555 1_555
H2A C2A 0.974 1_555 1_555
H3A C3A 0.989 1_555 1_555
H4A C4A 0.953 1_555 1_555
H5A C7A 0.956 1_555 1_555
H6A C10A 0.944 1_555 1_555
H7A C11A 0.948 1_555 1_555
C12A C13A 1.355 1_555 1_555
C13A C14A 1.423 1_555 1_555
C14A C15A 1.357 1_555 1_555
C15A C16A 1.440 1_555 1_555
C16A C17A 1.438 1_555 1_555
C17A C12A 1.432 1_555 1_555
C18A C16A 1.369 1_555 1_555
C19A C18A 1.414 1_555 1_555
C20A C22 1.410 1_555 1_555
C21A C17A 1.384 1_555 1_555
C22A C20 1.410 1_555 1_555
H8A C12A 0.961 1_555 1_555
H9A C13A 0.971 1_555 1_555
H10A C14A 0.980 1_555 1_555
H11A C15A 0.946 1_555 1_555
H12A C18A 0.949 1_555 1_555
H13A C21A 0.947 1_555 1_555
H14A C22A 0.937 1_555 1_555
C9 C10 1.407 1_555 1_555
C20 C21 1.407 1_555 1_555
C8A C9A 1.455 1_555 1_555
C8A C11A 1.391 1_555 1_555
C9A C10A 1.407 1_555 1_555
C19A C20A 1.440 1_555 1_555
C19A C22A 1.406 1_555 1_555
C20A C21A 1.407 1_555 1_555
#END
