
#######################################################################
#
#                 Cambridge Crystallographic Data Centre
#                                CCDC
#
#######################################################################
#
# If this CIF has been generated from an entry in the Cambridge
# Structural Database, then it will include bibliographic, chemical,
# crystal, experimental, refinement or atomic coordinate data resulting
# from the CCDC's data processing and validation procedures.
#
#######################################################################

data_CSD_CIF_PERLEN03
_audit_creation_date 1995-06-12
_audit_creation_method CSD-ConQuest-V1
_database_code_CSD PERLEN03
_database_code_depnum_ccdc_archive 'CCDC 1231187'
_chemical_formula_sum 'C20 H12'
_chemical_formula_moiety
;
C20 H12
;
_journal_coden_Cambridge 456
_journal_volume 68
_journal_year 1994
_journal_page_first 2097
_journal_name_full 'Pol.J.Chem. '
loop_
_publ_author_name
"T.M.Krygowski"
"A.Ciesielski"
"B.Swirska"
"P.Leszczynski"
_chemical_name_systematic
;
Perylene
;
_cell_volume   1230.715
_exptl_crystal_density_diffrn 1.362
_exptl_special_details
;
alpha polymorph

;
_diffrn_ambient_temperature ?
_diffrn_special_details
;
The study was carried out at room temperature,in the range 283-303K

;
#These two values have been output from a single CSD field.
_refine_ls_R_factor_gt 0.0534
_refine_ls_wR_factor_gt 0.0534
_symmetry_cell_setting monoclinic
_symmetry_space_group_name_H-M 'P 21/a'
_symmetry_Int_Tables_number 14
loop_
_symmetry_equiv_pos_site_id
_symmetry_equiv_pos_as_xyz
1 x,y,z
2 1/2-x,1/2+y,-z
3 -x,-y,-z
4 -1/2+x,-1/2-y,z
_cell_length_a 11.264(2)
_cell_length_b 10.826(2)
_cell_length_c 10.266(2)
_cell_angle_alpha 90
_cell_angle_beta 100.55(3)
_cell_angle_gamma 90
_cell_formula_units_Z 4
loop_
_atom_type_symbol
_atom_type_radius_bond
C 0.68
loop_
_atom_site_label
_atom_site_type_symbol
_atom_site_fract_x
_atom_site_fract_y
_atom_site_fract_z
C1 C 0.1441(2) -0.2325(2) 0.4023(2)
C2 C 0.0663(2) -0.3209(2) 0.3448(2)
C3 C 0.0268(2) -0.3227(1) 0.2078(2)
C4 C -0.0547(2) -0.3268(2) -0.0823(2)
C5 C -0.0920(2) -0.3278(2) -0.2193(2)
C6 C -0.0519(2) -0.2404(2) -0.2965(2)
C7 C 0.0674(2) -0.0521(2) -0.3156(2)
C8 C 0.1406(2) 0.0395(2) -0.2574(2)
C9 C 0.1782(2) 0.0424(2) -0.1204(2)
C10 C 0.2627(2) 0.0427(1) 0.1695(2)
C11 C 0.3006(2) 0.0426(2) 0.3065(2)
C12 C 0.2629(2) -0.0464(2) 0.3831(2)
C13 C 0.1849(1) -0.1403(1) 0.3243(2)
C14 C 0.0643(1) -0.2358(1) 0.1252(1)
C15 C 0.0237(1) -0.2377(1) -0.0194(1)
C16 C 0.0274(1) -0.1464(2) -0.2381(1)
C17 C 0.1855(1) -0.0469(1) 0.1053(1)
C18 C 0.1443(1) -0.0478(1) -0.0392(1)
C19 C 0.1453(1) -0.1415(1) 0.1839(1)
C20 C 0.0660(1) -0.1442(1) -0.0982(1)
loop_
_geom_bond_atom_site_label_1
_geom_bond_atom_site_label_2
_geom_bond_distance
_geom_bond_site_symmetry_1
_geom_bond_site_symmetry_2
C1 C2 1.358 1_555 1_555
C2 C3 1.395 1_555 1_555
C3 C14 1.383 1_555 1_555
C4 C5 1.392 1_555 1_555
C5 C6 1.363 1_555 1_555
C6 C16 1.413 1_555 1_555
C7 C8 1.356 1_555 1_555
C8 C9 1.393 1_555 1_555
C9 C18 1.382 1_555 1_555
C10 C11 1.393 1_555 1_555
C11 C12 1.360 1_555 1_555
C12 C13 1.406 1_555 1_555
C13 C1 1.408 1_555 1_555
C14 C15 1.471 1_555 1_555
C15 C4 1.385 1_555 1_555
C16 C7 1.418 1_555 1_555
C17 C10 1.386 1_555 1_555
C18 C17 1.471 1_555 1_555
C19 C13 1.429 1_555 1_555
C20 C15 1.431 1_555 1_555
C14 C19 1.427 1_555 1_555
C16 C20 1.423 1_555 1_555
C17 C19 1.428 1_555 1_555
C18 C20 1.428 1_555 1_555
#END
