
#######################################################################
#
#                 Cambridge Crystallographic Data Centre
#                                CCDC
#
#######################################################################
#
# If this CIF has been generated from an entry in the Cambridge
# Structural Database, then it will include bibliographic, chemical,
# crystal, experimental, refinement or atomic coordinate data resulting
# from the CCDC's data processing and validation procedures.
#
#######################################################################

data_CSD_CIF_PERLEN04
_audit_creation_date 1999-06-22
_audit_creation_method CSD-ConQuest-V1
_database_code_CSD PERLEN04
_database_code_depnum_ccdc_archive 'CCDC 1231188'
_chemical_formula_sum 'C20 H12'
_chemical_formula_moiety
;
C20 H12
;
_journal_coden_Cambridge 579
_journal_volume 17
_journal_year 1998
_journal_page_first 4707
_journal_name_full 'Organometallics '
loop_
_publ_author_name
"C.Nather"
"H.Bock"
"Z.Havlas"
"T.Hauck"
_chemical_name_systematic
;
Perylene
;
_cell_volume   1234.286
_exptl_crystal_colour 'yellow-orange'
_exptl_crystal_density_diffrn 1.353
_exptl_special_details
;
alpha polymorph

;
_diffrn_ambient_temperature ?
_diffrn_special_details
;
The study was carried out at room temperature,in the range 283-303K

;
#These two values have been output from a single CSD field.
_refine_ls_R_factor_gt 0.0422
_refine_ls_wR_factor_gt 0.0422
_symmetry_cell_setting monoclinic
_symmetry_space_group_name_H-M 'P 21/c'
_symmetry_Int_Tables_number 14
loop_
_symmetry_equiv_pos_site_id
_symmetry_equiv_pos_as_xyz
1 x,y,z
2 -x,1/2+y,1/2-z
3 -x,-y,-z
4 x,-1/2-y,-1/2+z
_cell_length_a 10.270(1)
_cell_length_b 10.839(1)
_cell_length_c 11.278(1)
_cell_angle_alpha 90
_cell_angle_beta 100.53(1)
_cell_angle_gamma 90
_cell_formula_units_Z 4
loop_
_atom_type_symbol
_atom_type_radius_bond
C 0.68
H 0.23
loop_
_atom_site_label
_atom_site_type_symbol
_atom_site_fract_x
_atom_site_fract_y
_atom_site_fract_z
C1 C -0.2073(2) 0.6773(2) 0.9732(2)
C2 C -0.3441(2) 0.6794(2) 0.9332(2)
C3 C -0.4013(2) 0.7674(2) 0.8561(2)
C4 C -0.3239(2) 0.8598(2) 0.8152(2)
C5 C -0.3819(2) 0.9539(2) 0.7369(2)
C6 C -0.3061(2) 1.0427(2) 0.6993(2)
C7 C -0.1691(2) 1.0427(2) 0.7377(2)
C8 C -0.1057(2) 0.9530(1) 0.8144(1)
C9 C -0.1839(2) 0.8582(1) 0.8547(1)
C10 C -0.1252(2) 0.7641(2) 0.9358(1)
C11 C 0.0822(2) 0.6739(2) 1.0541(2)
C12 C 0.2193(2) 0.6725(2) 1.0914(2)
C13 C 0.2960(2) 0.7596(2) 1.0519(2)
C14 C 0.2385(2) 0.8539(2) 0.9734(2)
C15 C 0.3153(2) 0.9476(2) 0.9325(2)
C16 C 0.2573(2) 1.0393(2) 0.8592(2)
C17 C 0.1203(2) 1.0419(2) 0.8218(2)
C18 C 0.0392(2) 0.9523(1) 0.8559(1)
C19 C 0.0983(2) 0.8556(2) 0.9341(1)
C20 C 0.0198(2) 0.7625(2) 0.9764(1)
H1 H -0.1705(2) 0.6158(2) 1.0264(2)
H2 H -0.3966(2) 0.6194(2) 0.9601(2)
H3 H -0.4926(2) 0.7669(2) 0.8299(2)
H4 H -0.4732(2) 0.9550(2) 0.7108(2)
H5 H -0.3458(2) 1.1042(2) 0.6474(2)
H6 H -0.1189(2) 1.1048(2) 0.7110(2)
H7 H 0.0316(2) 0.6134(2) 1.0826(2)
H8 H 0.2585(2) 0.6113(2) 1.1438(2)
H9 H 0.3874(2) 0.7571(2) 1.0769(2)
H10 H 0.4069(2) 0.9465(2) 0.9563(2)
H11 H 0.3093(2) 1.1006(2) 0.8338(2)
H12 H 0.0824(2) 1.1060(2) 0.7725(2)
loop_
_geom_bond_atom_site_label_1
_geom_bond_atom_site_label_2
_geom_bond_distance
_geom_bond_site_symmetry_1
_geom_bond_site_symmetry_2
C1 C2 1.395 1_555 1_555
C2 C3 1.351 1_555 1_555
C3 C4 1.408 1_555 1_555
C4 C5 1.408 1_555 1_555
C5 C6 1.354 1_555 1_555
C6 C7 1.394 1_555 1_555
C7 C8 1.383 1_555 1_555
C8 C9 1.429 1_555 1_555
C9 C4 1.425 1_555 1_555
C10 C1 1.380 1_555 1_555
C11 C12 1.394 1_555 1_555
C12 C13 1.356 1_555 1_555
C13 C14 1.409 1_555 1_555
C14 C15 1.414 1_555 1_555
C15 C16 1.359 1_555 1_555
C16 C17 1.393 1_555 1_555
C17 C18 1.379 1_555 1_555
C18 C8 1.476 1_555 1_555
C19 C14 1.427 1_555 1_555
C20 C10 1.476 1_555 1_555
H1 C1 0.930 1_555 1_555
H2 C2 0.930 1_555 1_555
H3 C3 0.930 1_555 1_555
H4 C5 0.930 1_555 1_555
H5 C6 0.931 1_555 1_555
H6 C7 0.931 1_555 1_555
H7 C11 0.930 1_555 1_555
H8 C12 0.930 1_555 1_555
H9 C13 0.930 1_555 1_555
H10 C15 0.930 1_555 1_555
H11 C16 0.930 1_555 1_555
H12 C17 0.930 1_555 1_555
C9 C10 1.428 1_555 1_555
C11 C20 1.377 1_555 1_555
C18 C19 1.431 1_555 1_555
C19 C20 1.427 1_555 1_555
#END
