
#######################################################################
#
#                 Cambridge Crystallographic Data Centre
#                                CCDC
#
#######################################################################
#
# If this CIF has been generated from an entry in the Cambridge
# Structural Database, then it will include bibliographic, chemical,
# crystal, experimental, refinement or atomic coordinate data resulting
# from the CCDC's data processing and validation procedures.
#
#######################################################################

data_CSD_CIF_PEVNUC05
_audit_creation_date 2018-03-09
_audit_creation_method CSD-ConQuest-V1
_database_code_CSD PEVNUC05
_database_code_depnum_ccdc_archive 'CCDC 1567396'
_chemical_formula_sum 'C42 H28'
_chemical_formula_moiety
;
C42 H28
;
_journal_coden_Cambridge 1885
_journal_volume 4
_journal_year 2018
_journal_page_first 795
_journal_name_full 'CheM '
loop_
_publ_author_name
"Y.Ishigaki"
"T.Shimajiri"
"T.Takeda"
"R.Katoono"
"T.Suzuki"
_chemical_name_systematic
;
5',6'-dihydrodispiro[dibenzo[a,d][7]annulene-5,1'-cyclopenta[fg]acenaphthylene
-2',5''-dibenzo[a,d][7]annulene]
;
_cell_volume   2796.226
_exptl_crystal_colour 'colorless'
_exptl_crystal_density_diffrn 1.265
_exptl_crystal_description 'block'
_diffrn_ambient_temperature 200
#These two values have been output from a single CSD field.
_refine_ls_R_factor_gt 0.0633
_refine_ls_wR_factor_gt 0.0633
_symmetry_cell_setting monoclinic
_symmetry_space_group_name_H-M 'P 21/c'
_symmetry_Int_Tables_number 14
loop_
_symmetry_equiv_pos_site_id
_symmetry_equiv_pos_as_xyz
1 x,y,z
2 -x,1/2+y,1/2-z
3 -x,-y,-z
4 x,-1/2-y,-1/2+z
_cell_length_a 12.782(2)
_cell_length_b 9.2280(15)
_cell_length_c 24.084(4)
_cell_angle_alpha 90
_cell_angle_beta 100.159(3)
_cell_angle_gamma 90
_cell_formula_units_Z 4
loop_
_atom_type_symbol
_atom_type_radius_bond
C 0.68
H 0.23
loop_
_atom_site_label
_atom_site_type_symbol
_atom_site_fract_x
_atom_site_fract_y
_atom_site_fract_z
C1 C 0.83229(17) 0.3831(2) 0.86490(9)
C2 C 0.8493(2) 0.5311(3) 0.86722(11)
C3 C 0.9497(3) 0.5903(3) 0.89893(14)
C4 C 1.0272(3) 0.5028(4) 0.92660(13)
C5 C 1.00790(19) 0.3568(3) 0.92396(10)
C6 C 1.08965(18) 0.2679(4) 0.95193(10)
C7 C 1.0751(2) 0.1231(4) 0.94986(11)
C8 C 0.97987(17) 0.0631(3) 0.91976(10)
C9 C 0.89973(15) 0.1503(3) 0.89179(8)
C10 C 0.91371(15) 0.2984(3) 0.89424(8)
C11 C 1.1378(3) 0.5221(4) 0.96125(14)
C12 C 1.1792(3) 0.3685(5) 0.97772(14)
C13 C 0.74074(15) 0.28679(19) 0.83560(8)
C14 C 0.72310(17) 0.3067(3) 0.77121(9)
C15 C 0.7839(2) 0.4048(3) 0.74667(11)
C16 C 0.7788(4) 0.4183(4) 0.68970(15)
C17 C 0.7114(4) 0.3286(6) 0.65406(15)
C18 C 0.6494(3) 0.2315(4) 0.67577(12)
C19 C 0.6512(2) 0.2199(3) 0.73474(10)
C20 C 0.5778(2) 0.1172(3) 0.75201(11)
C21 C 0.53223(18) 0.1215(3) 0.79788(11)
C22 C 0.54476(16) 0.2323(3) 0.84170(9)
C23 C 0.45809(18) 0.2536(3) 0.86953(12)
C24 C 0.4586(3) 0.3587(4) 0.90954(13)
C25 C 0.5465(3) 0.4462(3) 0.92361(12)
C26 C 0.63329(18) 0.4238(3) 0.8982(1)
C27 C 0.63688(15) 0.3166(2) 0.85784(8)
C28 C 0.79226(15) 0.11252(19) 0.85586(8)
C29 C 0.81906(15) 0.0318(2) 0.80427(9)
C30 C 0.89871(18) 0.0974(3) 0.77977(10)
C31 C 0.9324(3) 0.0468(4) 0.73232(12)
C32 C 0.8898(4) -0.0761(5) 0.70753(15)
C33 C 0.8127(3) -0.1456(4) 0.72941(13)
C34 C 0.7741(2) -0.0951(3) 0.77825(11)
C35 C 0.6917(3) -0.1807(3) 0.79435(15)
C36 C 0.6472(2) -0.1787(3) 0.83953(15)
C37 C 0.66497(17) -0.0859(3) 0.88904(12)
C38 C 0.6132(3) -0.1288(4) 0.93305(18)
C39 C 0.6177(3) -0.0549(5) 0.98163(17)
C40 C 0.6763(3) 0.0718(4) 0.98881(11)
C41 C 0.73069(18) 0.1160(3) 0.94713(9)
C42 C 0.72773(15) 0.0418(2) 0.89659(9)
H1 H 0.79630 0.59480 0.84840
H2 H 0.96040 0.69230 0.90000
H3 H 1.12910 0.06090 0.96880
H4 H 0.97090 -0.03910 0.91880
H5 H 1.13470 0.58060 0.99540
H6 H 1.18490 0.57150 0.93870
H7 H 1.24460 0.34790 0.96230
H8 H 1.19510 0.35740 1.01920
H9 H 0.83160 0.46580 0.77080
H10 H 0.82100 0.48830 0.67490
H11 H 0.70830 0.33460 0.61440
H12 H 0.60370 0.16980 0.65080
H13 H 0.55970 0.03640 0.72780
H14 H 0.48620 0.04320 0.80240
H15 H 0.39740 0.19310 0.86020
H16 H 0.39870 0.37130 0.92750
H17 H 0.54720 0.52130 0.95060
H18 H 0.69370 0.48420 0.90860
H19 H 0.93150 0.18240 0.79710
H20 H 0.98530 0.09780 0.71700
H21 H 0.91360 -0.11350 0.67520
H22 H 0.78310 -0.23160 0.71150
H23 H 0.66390 -0.25250 0.76750
H24 H 0.59400 -0.25050 0.83990
H25 H 0.57240 -0.21530 0.92830
H26 H 0.58150 -0.08900 1.01030
H27 H 0.67910 0.12790 1.02210
H28 H 0.77240 0.20160 0.95330
loop_
_geom_bond_atom_site_label_1
_geom_bond_atom_site_label_2
_geom_bond_distance
_geom_bond_site_symmetry_1
_geom_bond_site_symmetry_2
C1 C2 1.383 1_555 1_555
C2 C3 1.477 1_555 1_555
C3 C4 1.358 1_555 1_555
C4 C5 1.369 1_555 1_555
C5 C6 1.404 1_555 1_555
C6 C7 1.349 1_555 1_555
C7 C8 1.415 1_555 1_555
C8 C9 1.381 1_555 1_555
C9 C10 1.378 1_555 1_555
C10 C1 1.391 1_555 1_555
C11 C4 1.520 1_555 1_555
C12 C6 1.519 1_555 1_555
C13 C1 1.538 1_555 1_555
C14 C13 1.538 1_555 1_555
C15 C14 1.391 1_555 1_555
C16 C15 1.368 1_555 1_555
C17 C16 1.380 1_555 1_555
C18 C17 1.360 1_555 1_555
C19 C14 1.405 1_555 1_555
C20 C19 1.445 1_555 1_555
C21 C20 1.337 1_555 1_555
C22 C21 1.458 1_555 1_555
C23 C22 1.406 1_555 1_555
C24 C23 1.366 1_555 1_555
C25 C24 1.377 1_555 1_555
C26 C25 1.374 1_555 1_555
C27 C13 1.541 1_555 1_555
C28 C9 1.529 1_555 1_555
C29 C28 1.538 1_555 1_555
C30 C29 1.401 1_555 1_555
C31 C30 1.372 1_555 1_555
C32 C31 1.351 1_555 1_555
C33 C32 1.358 1_555 1_555
C34 C29 1.403 1_555 1_555
C35 C34 1.424 1_555 1_555
C36 C35 1.314 1_555 1_555
C37 C36 1.453 1_555 1_555
C38 C37 1.402 1_555 1_555
C39 C38 1.347 1_555 1_555
C40 C39 1.383 1_555 1_555
C41 C40 1.380 1_555 1_555
C42 C28 1.534 1_555 1_555
H1 C2 0.950 1_555 1_555
H2 C3 0.951 1_555 1_555
H3 C7 0.950 1_555 1_555
H4 C8 0.950 1_555 1_555
H5 C11 0.990 1_555 1_555
H6 C11 0.990 1_555 1_555
H7 C12 0.991 1_555 1_555
H8 C12 0.989 1_555 1_555
H9 C15 0.949 1_555 1_555
H10 C16 0.950 1_555 1_555
H11 C17 0.951 1_555 1_555
H12 C18 0.950 1_555 1_555
H13 C20 0.950 1_555 1_555
H14 C21 0.950 1_555 1_555
H15 C23 0.950 1_555 1_555
H16 C24 0.951 1_555 1_555
H17 C25 0.949 1_555 1_555
H18 C26 0.949 1_555 1_555
H19 C30 0.950 1_555 1_555
H20 C31 0.950 1_555 1_555
H21 C32 0.949 1_555 1_555
H22 C33 0.949 1_555 1_555
H23 C35 0.950 1_555 1_555
H24 C36 0.951 1_555 1_555
H25 C38 0.949 1_555 1_555
H26 C39 0.950 1_555 1_555
H27 C40 0.950 1_555 1_555
H28 C41 0.950 1_555 1_555
C5 C10 1.396 1_555 1_555
C11 C12 1.540 1_555 1_555
C13 C28 1.773 1_555 1_555
C18 C19 1.420 1_555 1_555
C22 C27 1.408 1_555 1_555
C26 C27 1.393 1_555 1_555
C33 C34 1.431 1_555 1_555
C37 C42 1.419 1_555 1_555
C41 C42 1.391 1_555 1_555
#END
