
#######################################################################
#
#                 Cambridge Crystallographic Data Centre
#                                CCDC
#
#######################################################################
#
# If this CIF has been generated from an entry in the Cambridge
# Structural Database, then it will include bibliographic, chemical,
# crystal, experimental, refinement or atomic coordinate data resulting
# from the CCDC's data processing and validation procedures.
#
#######################################################################

data_CSD_CIF_PEVNUC01
_audit_creation_date 2018-03-09
_audit_creation_method CSD-ConQuest-V1
_database_code_CSD PEVNUC01
_database_code_depnum_ccdc_archive 'CCDC 1567398'
_chemical_formula_sum 'C42 H28'
_chemical_formula_moiety
;
C42 H28
;
_journal_coden_Cambridge 1885
_journal_volume 4
_journal_year 2018
_journal_page_first 795
_journal_name_full 'CheM '
loop_
_publ_author_name
"Y.Ishigaki"
"T.Shimajiri"
"T.Takeda"
"R.Katoono"
"T.Suzuki"
_chemical_name_systematic
;
5',6'-dihydrodispiro[dibenzo[a,d][7]annulene-5,1'-cyclopenta[fg]acenaphthylene
-2',5''-dibenzo[a,d][7]annulene]
;
_cell_volume   2799.546
_exptl_crystal_colour 'colorless'
_exptl_crystal_density_diffrn 1.264
_exptl_crystal_description 'block'
_diffrn_ambient_temperature 280
#These two values have been output from a single CSD field.
_refine_ls_R_factor_gt 0.0684
_refine_ls_wR_factor_gt 0.0684
_symmetry_cell_setting monoclinic
_symmetry_space_group_name_H-M 'P 21/c'
_symmetry_Int_Tables_number 14
loop_
_symmetry_equiv_pos_site_id
_symmetry_equiv_pos_as_xyz
1 x,y,z
2 -x,1/2+y,1/2-z
3 -x,-y,-z
4 x,-1/2-y,-1/2+z
_cell_length_a 12.791(3)
_cell_length_b 9.2296(19)
_cell_length_c 24.091(5)
_cell_angle_alpha 90
_cell_angle_beta 100.153(3)
_cell_angle_gamma 90
_cell_formula_units_Z 4
loop_
_atom_type_symbol
_atom_type_radius_bond
C 0.68
H 0.23
loop_
_atom_site_label
_atom_site_type_symbol
_atom_site_fract_x
_atom_site_fract_y
_atom_site_fract_z
C1 C 0.83214(17) 0.3832(3) 0.86486(9)
C2 C 0.8494(3) 0.5312(3) 0.86731(13)
C3 C 0.9496(3) 0.5898(4) 0.89889(15)
C4 C 1.0270(3) 0.5029(4) 0.92645(15)
C5 C 1.0075(2) 0.3575(3) 0.92368(11)
C6 C 1.08967(18) 0.2680(4) 0.95173(11)
C7 C 1.0747(2) 0.1228(4) 0.94970(12)
C8 C 0.97975(18) 0.0634(4) 0.91973(11)
C9 C 0.89957(15) 0.1505(3) 0.89169(8)
C10 C 0.91365(16) 0.2991(3) 0.89404(9)
C11 C 1.1375(3) 0.5219(5) 0.96101(16)
C12 C 1.1786(3) 0.3687(5) 0.97736(16)
C13 C 0.74045(15) 0.2864(2) 0.83565(8)
C14 C 0.72240(18) 0.3062(3) 0.77116(9)
C15 C 0.7837(3) 0.4045(4) 0.74672(11)
C16 C 0.7782(4) 0.4174(5) 0.68956(16)
C17 C 0.7109(5) 0.3281(7) 0.65434(15)
C18 C 0.6488(3) 0.2299(5) 0.67604(13)
C19 C 0.6506(2) 0.2195(3) 0.73489(10)
C20 C 0.5773(2) 0.1169(4) 0.75238(12)
C21 C 0.53203(19) 0.1215(3) 0.79831(12)
C22 C 0.54479(16) 0.2322(3) 0.84196(10)
C23 C 0.45843(19) 0.2541(4) 0.87002(13)
C24 C 0.4590(3) 0.3594(4) 0.91002(14)
C25 C 0.5469(3) 0.4465(4) 0.92402(13)
C26 C 0.63356(19) 0.4239(3) 0.89841(10)
C27 C 0.63688(15) 0.3164(3) 0.85796(8)
C28 C 0.79200(15) 0.1125(2) 0.85605(8)
C29 C 0.81888(16) 0.0310(3) 0.80452(9)
C30 C 0.89860(19) 0.0967(3) 0.78001(10)
C31 C 0.9318(3) 0.0453(5) 0.73243(13)
C32 C 0.8890(4) -0.0783(6) 0.70766(16)
C33 C 0.8118(4) -0.1463(4) 0.72985(15)
C34 C 0.7735(2) -0.0953(3) 0.77857(11)
C35 C 0.6911(3) -0.1811(3) 0.79498(17)
C36 C 0.6469(3) -0.1785(3) 0.84023(17)
C37 C 0.66505(18) -0.0849(3) 0.88971(13)
C38 C 0.6134(3) -0.1276(4) 0.9336(2)
C39 C 0.6183(3) -0.0536(6) 0.98231(19)
C40 C 0.6771(3) 0.0724(5) 0.98931(12)
C41 C 0.73129(19) 0.1169(3) 0.94761(10)
C42 C 0.72777(15) 0.0422(3) 0.89704(9)
H1 H 0.79760 0.59380 0.84900
H2 H 0.96000 0.68950 0.89990
H3 H 1.12740 0.06170 0.96820
H4 H 0.97090 -0.03660 0.91880
H5 H 1.13470 0.57920 0.99450
H6 H 1.18370 0.57030 0.93900
H7 H 1.24260 0.34860 0.96230
H8 H 1.19400 0.35790 1.01800
H9 H 0.83050 0.46420 0.77030
H10 H 0.81950 0.48550 0.67490
H11 H 0.70740 0.33440 0.61550
H12 H 0.60450 0.16880 0.65170
H13 H 0.55950 0.03780 0.72870
H14 H 0.48710 0.04500 0.80290
H15 H 0.39900 0.19490 0.86110
H16 H 0.40040 0.37200 0.92760
H17 H 0.54770 0.52000 0.95050
H18 H 0.69270 0.48300 0.90850
H19 H 0.93090 0.17970 0.79690
H20 H 0.98350 0.09500 0.71730
H21 H 0.91220 -0.11560 0.67610
H22 H 0.78230 -0.23040 0.71250
H23 H 0.66390 -0.25170 0.76890
H24 H 0.59490 -0.24860 0.84080
H25 H 0.57320 -0.21200 0.92900
H26 H 0.58300 -0.08680 1.01050
H27 H 0.68020 0.12720 1.02200
H28 H 0.77210 0.20070 0.95350
loop_
_geom_bond_atom_site_label_1
_geom_bond_atom_site_label_2
_geom_bond_distance
_geom_bond_site_symmetry_1
_geom_bond_site_symmetry_2
C1 C2 1.383 1_555 1_555
C2 C3 1.473 1_555 1_555
C3 C4 1.354 1_555 1_555
C4 C5 1.364 1_555 1_555
C5 C6 1.412 1_555 1_555
C6 C7 1.353 1_555 1_555
C7 C8 1.410 1_555 1_555
C8 C9 1.382 1_555 1_555
C9 C10 1.383 1_555 1_555
C10 C1 1.388 1_555 1_555
C11 C4 1.519 1_555 1_555
C12 C6 1.514 1_555 1_555
C13 C1 1.542 1_555 1_555
C14 C13 1.541 1_555 1_555
C15 C14 1.395 1_555 1_555
C16 C15 1.372 1_555 1_555
C17 C16 1.372 1_555 1_555
C18 C17 1.368 1_555 1_555
C19 C14 1.402 1_555 1_555
C20 C19 1.447 1_555 1_555
C21 C20 1.337 1_555 1_555
C22 C21 1.455 1_555 1_555
C23 C22 1.408 1_555 1_555
C24 C23 1.368 1_555 1_555
C25 C24 1.375 1_555 1_555
C26 C25 1.376 1_555 1_555
C27 C13 1.540 1_555 1_555
C28 C9 1.529 1_555 1_555
C29 C28 1.541 1_555 1_555
C30 C29 1.403 1_555 1_555
C31 C30 1.375 1_555 1_555
C32 C31 1.357 1_555 1_555
C33 C32 1.357 1_555 1_555
C34 C29 1.400 1_555 1_555
C35 C34 1.429 1_555 1_555
C36 C35 1.314 1_555 1_555
C37 C36 1.457 1_555 1_555
C38 C37 1.399 1_555 1_555
C39 C38 1.350 1_555 1_555
C40 C39 1.379 1_555 1_555
C41 C40 1.380 1_555 1_555
C42 C28 1.535 1_555 1_555
H1 C2 0.930 1_555 1_555
H2 C3 0.929 1_555 1_555
H3 C7 0.930 1_555 1_555
H4 C8 0.930 1_555 1_555
H5 C11 0.971 1_555 1_555
H6 C11 0.970 1_555 1_555
H7 C12 0.970 1_555 1_555
H8 C12 0.969 1_555 1_555
H9 C15 0.930 1_555 1_555
H10 C16 0.930 1_555 1_555
H11 C17 0.931 1_555 1_555
H12 C18 0.930 1_555 1_555
H13 C20 0.930 1_555 1_555
H14 C21 0.929 1_555 1_555
H15 C23 0.930 1_555 1_555
H16 C24 0.931 1_555 1_555
H17 C25 0.930 1_555 1_555
H18 C26 0.930 1_555 1_555
H19 C30 0.929 1_555 1_555
H20 C31 0.930 1_555 1_555
H21 C32 0.930 1_555 1_555
H22 C33 0.930 1_555 1_555
H23 C35 0.929 1_555 1_555
H24 C36 0.930 1_555 1_555
H25 C38 0.929 1_555 1_555
H26 C39 0.931 1_555 1_555
H27 C40 0.931 1_555 1_555
H28 C41 0.930 1_555 1_555
C5 C10 1.393 1_555 1_555
C11 C12 1.536 1_555 1_555
C13 C28 1.771 1_555 1_555
C18 C19 1.417 1_555 1_555
C22 C27 1.407 1_555 1_555
C26 C27 1.397 1_555 1_555
C33 C34 1.429 1_555 1_555
C37 C42 1.415 1_555 1_555
C41 C42 1.394 1_555 1_555
#END
