
#######################################################################
#
#                 Cambridge Crystallographic Data Centre
#                                CCDC
#
#######################################################################
#
# If this CIF has been generated from an entry in the Cambridge
# Structural Database, then it will include bibliographic, chemical,
# crystal, experimental, refinement or atomic coordinate data resulting
# from the CCDC's data processing and validation procedures.
#
#######################################################################

data_CSD_CIF_PEVNUC02
_audit_creation_date 2018-03-09
_audit_creation_method CSD-ConQuest-V1
_database_code_CSD PEVNUC02
_database_code_depnum_ccdc_archive 'CCDC 1567399'
_chemical_formula_sum 'C42 H28'
_chemical_formula_moiety
;
C42 H28
;
_journal_coden_Cambridge 1885
_journal_volume 4
_journal_year 2018
_journal_page_first 795
_journal_name_full 'CheM '
loop_
_publ_author_name
"Y.Ishigaki"
"T.Shimajiri"
"T.Takeda"
"R.Katoono"
"T.Suzuki"
_chemical_name_systematic
;
5',6'-dihydrodispiro[dibenzo[a,d][7]annulene-5,1'-cyclopenta[fg]acenaphthylene
-2',5''-dibenzo[a,d][7]annulene]
;
_cell_volume   2796.345
_exptl_crystal_colour 'colorless'
_exptl_crystal_density_diffrn 1.265
_exptl_crystal_description 'block'
_diffrn_ambient_temperature 320
#These two values have been output from a single CSD field.
_refine_ls_R_factor_gt 0.0702
_refine_ls_wR_factor_gt 0.0702
_symmetry_cell_setting monoclinic
_symmetry_space_group_name_H-M 'P 21/c'
_symmetry_Int_Tables_number 14
loop_
_symmetry_equiv_pos_site_id
_symmetry_equiv_pos_as_xyz
1 x,y,z
2 -x,1/2+y,1/2-z
3 -x,-y,-z
4 x,-1/2-y,-1/2+z
_cell_length_a 12.780(5)
_cell_length_b 9.232(3)
_cell_length_c 24.074(9)
_cell_angle_alpha 90
_cell_angle_beta 100.101(5)
_cell_angle_gamma 90
_cell_formula_units_Z 4
loop_
_atom_type_symbol
_atom_type_radius_bond
C 0.68
H 0.23
loop_
_atom_site_label
_atom_site_type_symbol
_atom_site_fract_x
_atom_site_fract_y
_atom_site_fract_z
C1 C 0.83203(19) 0.3833(3) 0.86477(10)
C2 C 0.8493(3) 0.5310(3) 0.86706(13)
C3 C 0.9498(3) 0.5895(4) 0.89884(17)
C4 C 1.0271(3) 0.5031(4) 0.92621(15)
C5 C 1.0076(3) 0.3577(3) 0.92337(11)
C6 C 1.0899(2) 0.2682(5) 0.95168(12)
C7 C 1.0751(3) 0.1229(5) 0.94953(13)
C8 C 0.9799(2) 0.0636(4) 0.91945(12)
C9 C 0.89964(16) 0.1507(3) 0.89162(9)
C10 C 0.91370(17) 0.2993(3) 0.89401(9)
C11 C 1.1370(3) 0.5226(5) 0.96049(17)
C12 C 1.1785(3) 0.3690(6) 0.97707(18)
C13 C 0.74030(16) 0.2863(3) 0.83563(8)
C14 C 0.72244(19) 0.3060(3) 0.77127(9)
C15 C 0.7836(3) 0.4038(4) 0.74664(12)
C16 C 0.7775(4) 0.4161(6) 0.68939(18)
C17 C 0.7101(5) 0.3262(7) 0.65419(16)
C18 C 0.6488(4) 0.2303(5) 0.67614(13)
C19 C 0.6509(3) 0.2194(4) 0.73493(11)
C20 C 0.5772(3) 0.1166(4) 0.75254(12)
C21 C 0.5319(2) 0.1213(3) 0.79839(13)
C22 C 0.54471(17) 0.2324(3) 0.84233(10)
C23 C 0.4586(2) 0.2542(4) 0.87005(14)
C24 C 0.4592(3) 0.3593(4) 0.91024(14)
C25 C 0.5468(3) 0.4464(4) 0.92404(13)
C26 C 0.6337(2) 0.4240(3) 0.89844(11)
C27 C 0.63697(16) 0.3164(3) 0.85818(9)
C28 C 0.79198(16) 0.1125(2) 0.85611(8)
C29 C 0.81867(17) 0.0310(3) 0.80459(9)
C30 C 0.8985(2) 0.0963(4) 0.77987(11)
C31 C 0.9319(3) 0.0447(5) 0.73255(14)
C32 C 0.8883(4) -0.0785(6) 0.70778(18)
C33 C 0.8118(4) -0.1468(5) 0.73021(16)
C34 C 0.7734(3) -0.0953(3) 0.77870(12)
C35 C 0.6910(3) -0.1808(4) 0.79510(18)
C36 C 0.6470(3) -0.1781(3) 0.84030(19)
C37 C 0.66514(19) -0.0846(3) 0.89006(14)
C38 C 0.6137(3) -0.1270(5) 0.9342(3)
C39 C 0.6185(3) -0.0524(6) 0.9827(2)
C40 C 0.6776(3) 0.0731(5) 0.98945(13)
C41 C 0.7315(2) 0.1174(4) 0.94761(10)
C42 C 0.72777(16) 0.0424(3) 0.89716(10)
H1 H 0.79760 0.59370 0.84860
H2 H 0.96010 0.68930 0.90000
H3 H 1.12780 0.06180 0.96800
H4 H 0.97110 -0.03640 0.91840
H5 H 1.13410 0.58010 0.99390
H6 H 1.18310 0.57080 0.93830
H7 H 1.24260 0.34890 0.96200
H8 H 1.19400 0.35840 1.01780
H9 H 0.83070 0.46350 0.77010
H10 H 0.81840 0.48440 0.67450
H11 H 0.70680 0.33160 0.61530
H12 H 0.60390 0.16960 0.65190
H13 H 0.55930 0.03740 0.72890
H14 H 0.48680 0.04490 0.80290
H15 H 0.39900 0.19550 0.86090
H16 H 0.40070 0.37150 0.92800
H17 H 0.54760 0.51990 0.95050
H18 H 0.69280 0.48340 0.90840
H19 H 0.93070 0.17960 0.79660
H20 H 0.98400 0.09380 0.71750
H21 H 0.91070 -0.11540 0.67590
H22 H 0.78290 -0.23160 0.71310
H23 H 0.66350 -0.25130 0.76900
H24 H 0.59490 -0.24820 0.84080
H25 H 0.57390 -0.21180 0.92980
H26 H 0.58290 -0.08490 1.01090
H27 H 0.68110 0.12790 1.02210
H28 H 0.77230 0.20120 0.95340
loop_
_geom_bond_atom_site_label_1
_geom_bond_atom_site_label_2
_geom_bond_distance
_geom_bond_site_symmetry_1
_geom_bond_site_symmetry_2
C1 C2 1.381 1_555 1_555
C2 C3 1.477 1_555 1_555
C3 C4 1.348 1_555 1_555
C4 C5 1.365 1_555 1_555
C5 C6 1.415 1_555 1_555
C6 C7 1.354 1_555 1_555
C7 C8 1.413 1_555 1_555
C8 C9 1.381 1_555 1_555
C9 C10 1.383 1_555 1_555
C10 C1 1.389 1_555 1_555
C11 C4 1.510 1_555 1_555
C12 C6 1.510 1_555 1_555
C13 C1 1.543 1_555 1_555
C14 C13 1.537 1_555 1_555
C15 C14 1.393 1_555 1_555
C16 C15 1.371 1_555 1_555
C17 C16 1.376 1_555 1_555
C18 C17 1.350 1_555 1_555
C19 C14 1.400 1_555 1_555
C20 C19 1.452 1_555 1_555
C21 C20 1.334 1_555 1_555
C22 C21 1.462 1_555 1_555
C23 C22 1.398 1_555 1_555
C24 C23 1.369 1_555 1_555
C25 C24 1.371 1_555 1_555
C26 C25 1.377 1_555 1_555
C27 C13 1.539 1_555 1_555
C28 C9 1.528 1_555 1_555
C29 C28 1.539 1_555 1_555
C30 C29 1.404 1_555 1_555
C31 C30 1.370 1_555 1_555
C32 C31 1.358 1_555 1_555
C33 C32 1.353 1_555 1_555
C34 C29 1.399 1_555 1_555
C35 C34 1.426 1_555 1_555
C36 C35 1.310 1_555 1_555
C37 C36 1.462 1_555 1_555
C38 C37 1.400 1_555 1_555
C39 C38 1.348 1_555 1_555
C40 C39 1.377 1_555 1_555
C41 C40 1.378 1_555 1_555
C42 C28 1.534 1_555 1_555
H1 C2 0.931 1_555 1_555
H2 C3 0.930 1_555 1_555
H3 C7 0.930 1_555 1_555
H4 C8 0.930 1_555 1_555
H5 C11 0.970 1_555 1_555
H6 C11 0.970 1_555 1_555
H7 C12 0.970 1_555 1_555
H8 C12 0.971 1_555 1_555
H9 C15 0.930 1_555 1_555
H10 C16 0.930 1_555 1_555
H11 C17 0.931 1_555 1_555
H12 C18 0.931 1_555 1_555
H13 C20 0.930 1_555 1_555
H14 C21 0.929 1_555 1_555
H15 C23 0.929 1_555 1_555
H16 C24 0.931 1_555 1_555
H17 C25 0.930 1_555 1_555
H18 C26 0.930 1_555 1_555
H19 C30 0.930 1_555 1_555
H20 C31 0.930 1_555 1_555
H21 C32 0.930 1_555 1_555
H22 C33 0.930 1_555 1_555
H23 C35 0.930 1_555 1_555
H24 C36 0.930 1_555 1_555
H25 C38 0.929 1_555 1_555
H26 C39 0.931 1_555 1_555
H27 C40 0.929 1_555 1_555
H28 C41 0.930 1_555 1_555
C5 C10 1.390 1_555 1_555
C11 C12 1.542 1_555 1_555
C13 C28 1.772 1_555 1_555
C18 C19 1.414 1_555 1_555
C22 C27 1.407 1_555 1_555
C26 C27 1.394 1_555 1_555
C33 C34 1.425 1_555 1_555
C37 C42 1.413 1_555 1_555
C41 C42 1.392 1_555 1_555
#END
