
#######################################################################
#
#                 Cambridge Crystallographic Data Centre
#                                CCDC
#
#######################################################################
#
# If this CIF has been generated from an entry in the Cambridge
# Structural Database, then it will include bibliographic, chemical,
# crystal, experimental, refinement or atomic coordinate data resulting
# from the CCDC's data processing and validation procedures.
#
#######################################################################

data_CSD_CIF_PEVNUC04
_audit_creation_date 2018-03-09
_audit_creation_method CSD-ConQuest-V1
_database_code_CSD PEVNUC04
_database_code_depnum_ccdc_archive 'CCDC 1567401'
_chemical_formula_sum 'C42 H28'
_chemical_formula_moiety
;
C42 H28
;
_journal_coden_Cambridge 1885
_journal_volume 4
_journal_year 2018
_journal_page_first 795
_journal_name_full 'CheM '
loop_
_publ_author_name
"Y.Ishigaki"
"T.Shimajiri"
"T.Takeda"
"R.Katoono"
"T.Suzuki"
_chemical_name_systematic
;
5',6'-dihydrodispiro[dibenzo[a,d][7]annulene-5,1'-cyclopenta[fg]acenaphthylene
-2',5''-dibenzo[a,d][7]annulene]
;
_cell_volume   2795.955
_exptl_crystal_colour 'colorless'
_exptl_crystal_density_diffrn 1.265
_exptl_crystal_description 'block'
_diffrn_ambient_temperature 400
#These two values have been output from a single CSD field.
_refine_ls_R_factor_gt 0.07
_refine_ls_wR_factor_gt 0.07
_symmetry_cell_setting monoclinic
_symmetry_space_group_name_H-M 'P 21/c'
_symmetry_Int_Tables_number 14
loop_
_symmetry_equiv_pos_site_id
_symmetry_equiv_pos_as_xyz
1 x,y,z
2 -x,1/2+y,1/2-z
3 -x,-y,-z
4 x,-1/2-y,-1/2+z
_cell_length_a 12.781(5)
_cell_length_b 9.231(3)
_cell_length_c 24.071(9)
_cell_angle_alpha 90
_cell_angle_beta 100.096(5)
_cell_angle_gamma 90
_cell_formula_units_Z 4
loop_
_atom_type_symbol
_atom_type_radius_bond
C 0.68
H 0.23
loop_
_atom_site_label
_atom_site_type_symbol
_atom_site_fract_x
_atom_site_fract_y
_atom_site_fract_z
C1 C 0.83190(19) 0.3833(3) 0.86472(10)
C2 C 0.8489(3) 0.5313(3) 0.86697(14)
C3 C 0.9496(3) 0.5901(4) 0.89867(17)
C4 C 1.0267(3) 0.5033(4) 0.92602(15)
C5 C 1.0076(2) 0.3580(4) 0.92334(11)
C6 C 1.0896(2) 0.2686(5) 0.95153(12)
C7 C 1.0749(3) 0.1232(5) 0.94938(13)
C8 C 0.97993(19) 0.0636(4) 0.91953(11)
C9 C 0.89972(16) 0.1509(3) 0.89174(9)
C10 C 0.91340(17) 0.2995(3) 0.89383(9)
C11 C 1.1372(3) 0.5227(6) 0.96041(18)
C12 C 1.1781(3) 0.3692(6) 0.97681(17)
C13 C 0.74021(16) 0.2863(3) 0.83567(8)
C14 C 0.72203(19) 0.3055(3) 0.77125(9)
C15 C 0.7835(3) 0.4037(4) 0.74665(12)
C16 C 0.7774(4) 0.4160(6) 0.68929(17)
C17 C 0.7104(5) 0.3260(7) 0.65418(16)
C18 C 0.6486(4) 0.2299(5) 0.67628(13)
C19 C 0.6505(3) 0.2190(4) 0.73499(10)
C20 C 0.5768(3) 0.1167(4) 0.75272(12)
C21 C 0.5320(2) 0.1213(3) 0.79859(13)
C22 C 0.54452(17) 0.2323(3) 0.84233(10)
C23 C 0.4585(2) 0.2544(4) 0.87018(14)
C24 C 0.4592(3) 0.3596(4) 0.91040(15)
C25 C 0.5470(3) 0.4464(4) 0.92424(14)
C26 C 0.6337(2) 0.4237(3) 0.89842(11)
C27 C 0.63679(16) 0.3164(3) 0.85815(9)
C28 C 0.79197(15) 0.1126(2) 0.85607(8)
C29 C 0.81853(17) 0.0310(3) 0.80469(9)
C30 C 0.8985(2) 0.0959(4) 0.78001(11)
C31 C 0.9315(3) 0.0446(5) 0.73243(14)
C32 C 0.8883(4) -0.0790(6) 0.70793(18)
C33 C 0.8115(4) -0.1470(5) 0.73022(16)
C34 C 0.7732(3) -0.0955(3) 0.77887(12)
C35 C 0.6906(3) -0.1808(4) 0.79546(18)
C36 C 0.6468(3) -0.1778(3) 0.84065(19)
C37 C 0.66520(19) -0.0843(3) 0.89026(14)
C38 C 0.6139(3) -0.1264(5) 0.9345(3)
C39 C 0.6191(3) -0.0521(6) 0.9829(2)
C40 C 0.6776(3) 0.0732(5) 0.98962(13)
C41 C 0.7318(2) 0.1177(4) 0.94774(10)
C42 C 0.72782(16) 0.0427(3) 0.89731(9)
H1 H 0.79710 0.59380 0.84860
H2 H 0.96010 0.68980 0.89970
H3 H 1.12790 0.06230 0.96770
H4 H 0.97110 -0.03640 0.91850
H5 H 1.13440 0.58010 0.99390
H6 H 1.18330 0.57080 0.93820
H7 H 1.24210 0.34890 0.96170
H8 H 1.19370 0.35860 1.01750
H9 H 0.83050 0.46330 0.77010
H10 H 0.81830 0.48440 0.67440
H11 H 0.70720 0.33100 0.61530
H12 H 0.60380 0.16930 0.65210
H13 H 0.55860 0.03780 0.72900
H14 H 0.48730 0.04450 0.80330
H15 H 0.39880 0.19570 0.86110
H16 H 0.40070 0.37200 0.92810
H17 H 0.54800 0.51980 0.95080
H18 H 0.69290 0.48290 0.90840
H19 H 0.93110 0.17880 0.79690
H20 H 0.98310 0.09410 0.71710
H21 H 0.91120 -0.11650 0.67630
H22 H 0.78220 -0.23150 0.71300
H23 H 0.66300 -0.25140 0.76940
H24 H 0.59470 -0.24780 0.84130
H25 H 0.57370 -0.21100 0.93010
H26 H 0.58390 -0.08490 1.01120
H27 H 0.68070 0.12810 1.02230
H28 H 0.77260 0.20150 0.95350
loop_
_geom_bond_atom_site_label_1
_geom_bond_atom_site_label_2
_geom_bond_distance
_geom_bond_site_symmetry_1
_geom_bond_site_symmetry_2
C1 C2 1.383 1_555 1_555
C2 C3 1.480 1_555 1_555
C3 C4 1.349 1_555 1_555
C4 C5 1.363 1_555 1_555
C5 C6 1.411 1_555 1_555
C6 C7 1.355 1_555 1_555
C7 C8 1.409 1_555 1_555
C8 C9 1.381 1_555 1_555
C9 C10 1.383 1_555 1_555
C10 C1 1.385 1_555 1_555
C11 C4 1.517 1_555 1_555
C12 C6 1.507 1_555 1_555
C13 C1 1.542 1_555 1_555
C14 C13 1.537 1_555 1_555
C15 C14 1.397 1_555 1_555
C16 C15 1.374 1_555 1_555
C17 C16 1.373 1_555 1_555
C18 C17 1.357 1_555 1_555
C19 C14 1.398 1_555 1_555
C20 C19 1.450 1_555 1_555
C21 C20 1.331 1_555 1_555
C22 C21 1.458 1_555 1_555
C23 C22 1.399 1_555 1_555
C24 C23 1.370 1_555 1_555
C25 C24 1.372 1_555 1_555
C26 C25 1.378 1_555 1_555
C27 C13 1.539 1_555 1_555
C28 C9 1.531 1_555 1_555
C29 C28 1.536 1_555 1_555
C30 C29 1.403 1_555 1_555
C31 C30 1.372 1_555 1_555
C32 C31 1.357 1_555 1_555
C33 C32 1.353 1_555 1_555
C34 C29 1.400 1_555 1_555
C35 C34 1.429 1_555 1_555
C36 C35 1.308 1_555 1_555
C37 C36 1.459 1_555 1_555
C38 C37 1.400 1_555 1_555
C39 C38 1.343 1_555 1_555
C40 C39 1.371 1_555 1_555
C41 C40 1.382 1_555 1_555
C42 C28 1.536 1_555 1_555
H1 C2 0.930 1_555 1_555
H2 C3 0.930 1_555 1_555
H3 C7 0.930 1_555 1_555
H4 C8 0.930 1_555 1_555
H5 C11 0.971 1_555 1_555
H6 C11 0.970 1_555 1_555
H7 C12 0.970 1_555 1_555
H8 C12 0.970 1_555 1_555
H9 C15 0.929 1_555 1_555
H10 C16 0.931 1_555 1_555
H11 C17 0.931 1_555 1_555
H12 C18 0.929 1_555 1_555
H13 C20 0.930 1_555 1_555
H14 C21 0.930 1_555 1_555
H15 C23 0.930 1_555 1_555
H16 C24 0.930 1_555 1_555
H17 C25 0.930 1_555 1_555
H18 C26 0.930 1_555 1_555
H19 C30 0.930 1_555 1_555
H20 C31 0.930 1_555 1_555
H21 C32 0.929 1_555 1_555
H22 C33 0.931 1_555 1_555
H23 C35 0.930 1_555 1_555
H24 C36 0.930 1_555 1_555
H25 C38 0.931 1_555 1_555
H26 C39 0.930 1_555 1_555
H27 C40 0.931 1_555 1_555
H28 C41 0.930 1_555 1_555
C5 C10 1.395 1_555 1_555
C11 C12 1.538 1_555 1_555
C13 C28 1.771 1_555 1_555
C18 C19 1.413 1_555 1_555
C22 C27 1.407 1_555 1_555
C26 C27 1.391 1_555 1_555
C33 C34 1.428 1_555 1_555
C37 C42 1.413 1_555 1_555
C41 C42 1.391 1_555 1_555
#END
