
#######################################################################
#
#                 Cambridge Crystallographic Data Centre
#                                CCDC
#
#######################################################################
#
# If this CIF has been generated from an entry in the Cambridge
# Structural Database, then it will include bibliographic, chemical,
# crystal, experimental, refinement or atomic coordinate data resulting
# from the CCDC's data processing and validation procedures.
#
#######################################################################

data_CSD_CIF_PEVNUC
_audit_creation_date 2018-03-09
_audit_creation_method CSD-ConQuest-V1
_database_code_CSD PEVNUC
_database_code_depnum_ccdc_archive 'CCDC 1567397'
_chemical_formula_sum 'C42 H28'
_chemical_formula_moiety
;
C42 H28
;
_journal_coden_Cambridge 1885
_journal_volume 4
_journal_year 2018
_journal_page_first 795
_journal_name_full 'CheM '
loop_
_publ_author_name
"Y.Ishigaki"
"T.Shimajiri"
"T.Takeda"
"R.Katoono"
"T.Suzuki"
_chemical_name_systematic
;
5',6'-dihydrodispiro[dibenzo[a,d][7]annulene-5,1'-cyclopenta[fg]acenaphthylene
-2',5''-dibenzo[a,d][7]annulene]
;
_cell_volume   2798.866
_exptl_crystal_colour 'colorless'
_exptl_crystal_density_diffrn 1.264
_exptl_crystal_description 'block'
_diffrn_ambient_temperature 240
#These two values have been output from a single CSD field.
_refine_ls_R_factor_gt 0.0711
_refine_ls_wR_factor_gt 0.0711
_symmetry_cell_setting monoclinic
_symmetry_space_group_name_H-M 'P 21/c'
_symmetry_Int_Tables_number 14
loop_
_symmetry_equiv_pos_site_id
_symmetry_equiv_pos_as_xyz
1 x,y,z
2 -x,1/2+y,1/2-z
3 -x,-y,-z
4 x,-1/2-y,-1/2+z
_cell_length_a 12.789(3)
_cell_length_b 9.2286(17)
_cell_length_c 24.088(5)
_cell_angle_alpha 90
_cell_angle_beta 100.106(3)
_cell_angle_gamma 90
_cell_formula_units_Z 4
loop_
_atom_type_symbol
_atom_type_radius_bond
C 0.68
H 0.23
loop_
_atom_site_label
_atom_site_type_symbol
_atom_site_fract_x
_atom_site_fract_y
_atom_site_fract_z
C1 C 0.83213(19) 0.3833(3) 0.86472(10)
C2 C 0.8491(3) 0.5314(3) 0.86714(14)
C3 C 0.9502(3) 0.5897(4) 0.89901(17)
C4 C 1.0272(3) 0.5026(4) 0.92661(16)
C5 C 1.0077(3) 0.3574(4) 0.92375(12)
C6 C 1.0895(2) 0.2675(5) 0.95166(12)
C7 C 1.0755(3) 0.1221(5) 0.95008(13)
C8 C 0.9798(2) 0.0629(4) 0.91957(12)
C9 C 0.89981(17) 0.1503(3) 0.89185(9)
C10 C 0.91409(17) 0.2987(3) 0.8945(1)
C11 C 1.1378(3) 0.5214(6) 0.96142(19)
C12 C 1.1790(3) 0.3682(6) 0.97762(18)
C13 C 0.74075(17) 0.2866(3) 0.83570(9)
C14 C 0.72269(19) 0.3064(3) 0.77119(9)
C15 C 0.7843(3) 0.4051(4) 0.74698(13)
C16 C 0.7784(4) 0.4181(6) 0.68970(18)
C17 C 0.7105(5) 0.3281(7) 0.65418(16)
C18 C 0.6488(4) 0.2303(5) 0.67608(14)
C19 C 0.6505(3) 0.2193(4) 0.73474(11)
C20 C 0.5774(3) 0.1168(4) 0.75230(13)
C21 C 0.5319(2) 0.1215(3) 0.79792(13)
C22 C 0.54461(18) 0.2322(3) 0.84191(10)
C23 C 0.4586(2) 0.2537(4) 0.86996(14)
C24 C 0.4586(3) 0.3589(4) 0.90962(15)
C25 C 0.5465(3) 0.4465(4) 0.92383(14)
C26 C 0.6337(2) 0.4240(3) 0.89839(11)
C27 C 0.63688(17) 0.3164(3) 0.85782(9)
C28 C 0.79216(16) 0.1125(3) 0.85615(9)
C29 C 0.81911(17) 0.0313(3) 0.8044(1)
C30 C 0.8990(3) 0.0973(4) 0.78016(12)
C31 C 0.9321(3) 0.0460(5) 0.73245(15)
C32 C 0.8895(4) -0.0764(6) 0.70754(19)
C33 C 0.8125(4) -0.1455(5) 0.72949(16)
C34 C 0.7734(3) -0.0951(3) 0.77824(13)
C35 C 0.6911(3) -0.1812(4) 0.79459(19)
C36 C 0.6470(3) -0.1788(3) 0.83980(19)
C37 C 0.66509(19) -0.0851(3) 0.88958(14)
C38 C 0.6132(3) -0.1280(5) 0.9335(3)
C39 C 0.6179(3) -0.0541(6) 0.9820(2)
C40 C 0.6767(3) 0.0720(5) 0.98902(14)
C41 C 0.7311(2) 0.1165(4) 0.94750(11)
C42 C 0.72757(16) 0.0419(3) 0.89675(10)
H1 H 0.79680 0.59480 0.84870
H2 H 0.96100 0.69050 0.90010
H3 H 1.12870 0.06070 0.96900
H4 H 0.97080 -0.03820 0.91830
H5 H 1.13470 0.57890 0.99530
H6 H 1.18460 0.57060 0.93930
H7 H 1.24370 0.34810 0.96240
H8 H 1.19450 0.35690 1.01870
H9 H 0.83170 0.46520 0.77090
H10 H 0.81990 0.48720 0.67480
H11 H 0.70690 0.33430 0.61490
H12 H 0.60410 0.16860 0.65150
H13 H 0.55980 0.03650 0.72850
H14 H 0.48600 0.04440 0.80230
H15 H 0.39880 0.19340 0.86110
H16 H 0.39920 0.37160 0.92720
H17 H 0.54710 0.52070 0.95060
H18 H 0.69350 0.48370 0.90870
H19 H 0.93170 0.18100 0.79740
H20 H 0.98450 0.09630 0.71720
H21 H 0.91280 -0.11330 0.67540
H22 H 0.78330 -0.23070 0.71180
H23 H 0.66350 -0.25250 0.76820
H24 H 0.59450 -0.24980 0.84030
H25 H 0.57270 -0.21360 0.92870
H26 H 0.58200 -0.08750 1.01050
H27 H 0.67960 0.12730 1.02200
H28 H 0.77260 0.20100 0.95360
loop_
_geom_bond_atom_site_label_1
_geom_bond_atom_site_label_2
_geom_bond_distance
_geom_bond_site_symmetry_1
_geom_bond_site_symmetry_2
C1 C2 1.384 1_555 1_555
C2 C3 1.484 1_555 1_555
C3 C4 1.352 1_555 1_555
C4 C5 1.363 1_555 1_555
C5 C6 1.410 1_555 1_555
C6 C7 1.353 1_555 1_555
C7 C8 1.422 1_555 1_555
C8 C9 1.380 1_555 1_555
C9 C10 1.382 1_555 1_555
C10 C1 1.400 1_555 1_555
C11 C4 1.522 1_555 1_555
C12 C6 1.521 1_555 1_555
C13 C1 1.538 1_555 1_555
C14 C13 1.541 1_555 1_555
C15 C14 1.397 1_555 1_555
C16 C15 1.374 1_555 1_555
C17 C16 1.384 1_555 1_555
C18 C17 1.364 1_555 1_555
C19 C14 1.409 1_555 1_555
C20 C19 1.444 1_555 1_555
C21 C20 1.331 1_555 1_555
C22 C21 1.460 1_555 1_555
C23 C22 1.402 1_555 1_555
C24 C23 1.362 1_555 1_555
C25 C24 1.378 1_555 1_555
C26 C25 1.379 1_555 1_555
C27 C13 1.540 1_555 1_555
C28 C9 1.530 1_555 1_555
C29 C28 1.544 1_555 1_555
C30 C29 1.402 1_555 1_555
C31 C30 1.377 1_555 1_555
C32 C31 1.348 1_555 1_555
C33 C32 1.356 1_555 1_555
C34 C29 1.404 1_555 1_555
C35 C34 1.428 1_555 1_555
C36 C35 1.312 1_555 1_555
C37 C36 1.463 1_555 1_555
C38 C37 1.401 1_555 1_555
C39 C38 1.345 1_555 1_555
C40 C39 1.380 1_555 1_555
C41 C40 1.377 1_555 1_555
C42 C28 1.532 1_555 1_555
H1 C2 0.940 1_555 1_555
H2 C3 0.940 1_555 1_555
H3 C7 0.940 1_555 1_555
H4 C8 0.940 1_555 1_555
H5 C11 0.980 1_555 1_555
H6 C11 0.980 1_555 1_555
H7 C12 0.980 1_555 1_555
H8 C12 0.980 1_555 1_555
H9 C15 0.940 1_555 1_555
H10 C16 0.940 1_555 1_555
H11 C17 0.941 1_555 1_555
H12 C18 0.940 1_555 1_555
H13 C20 0.940 1_555 1_555
H14 C21 0.940 1_555 1_555
H15 C23 0.940 1_555 1_555
H16 C24 0.940 1_555 1_555
H17 C25 0.940 1_555 1_555
H18 C26 0.940 1_555 1_555
H19 C30 0.940 1_555 1_555
H20 C31 0.941 1_555 1_555
H21 C32 0.941 1_555 1_555
H22 C33 0.940 1_555 1_555
H23 C35 0.940 1_555 1_555
H24 C36 0.940 1_555 1_555
H25 C38 0.941 1_555 1_555
H26 C39 0.942 1_555 1_555
H27 C40 0.939 1_555 1_555
H28 C41 0.940 1_555 1_555
C5 C10 1.388 1_555 1_555
C11 C12 1.535 1_555 1_555
C13 C28 1.773 1_555 1_555
C18 C19 1.413 1_555 1_555
C22 C27 1.409 1_555 1_555
C26 C27 1.399 1_555 1_555
C33 C34 1.432 1_555 1_555
C37 C42 1.412 1_555 1_555
C41 C42 1.397 1_555 1_555
#END
