
#######################################################################
#
#                 Cambridge Crystallographic Data Centre
#                                CCDC
#
#######################################################################
#
# If this CIF has been generated from an entry in the Cambridge
# Structural Database, then it will include bibliographic, chemical,
# crystal, experimental, refinement or atomic coordinate data resulting
# from the CCDC's data processing and validation procedures.
#
#######################################################################

data_CSD_CIF_PEVNUC03
_audit_creation_date 2018-03-09
_audit_creation_method CSD-ConQuest-V1
_database_code_CSD PEVNUC03
_database_code_depnum_ccdc_archive 'CCDC 1567400'
_chemical_formula_sum 'C42 H28'
_chemical_formula_moiety
;
C42 H28
;
_journal_coden_Cambridge 1885
_journal_volume 4
_journal_year 2018
_journal_page_first 795
_journal_name_full 'CheM '
loop_
_publ_author_name
"Y.Ishigaki"
"T.Shimajiri"
"T.Takeda"
"R.Katoono"
"T.Suzuki"
_chemical_name_systematic
;
5',6'-dihydrodispiro[dibenzo[a,d][7]annulene-5,1'-cyclopenta[fg]acenaphthylene
-2',5''-dibenzo[a,d][7]annulene]
;
_cell_volume   2797.190
_exptl_crystal_colour 'colorless'
_exptl_crystal_density_diffrn 1.265
_exptl_crystal_description 'block'
_diffrn_ambient_temperature 360
#These two values have been output from a single CSD field.
_refine_ls_R_factor_gt 0.0699
_refine_ls_wR_factor_gt 0.0699
_symmetry_cell_setting monoclinic
_symmetry_space_group_name_H-M 'P 21/c'
_symmetry_Int_Tables_number 14
loop_
_symmetry_equiv_pos_site_id
_symmetry_equiv_pos_as_xyz
1 x,y,z
2 -x,1/2+y,1/2-z
3 -x,-y,-z
4 x,-1/2-y,-1/2+z
_cell_length_a 12.784(4)
_cell_length_b 9.232(3)
_cell_length_c 24.073(8)
_cell_angle_alpha 90
_cell_angle_beta 100.091(5)
_cell_angle_gamma 90
_cell_formula_units_Z 4
loop_
_atom_type_symbol
_atom_type_radius_bond
C 0.68
H 0.23
loop_
_atom_site_label
_atom_site_type_symbol
_atom_site_fract_x
_atom_site_fract_y
_atom_site_fract_z
C1 C 0.83195(18) 0.3834(3) 0.86474(9)
C2 C 0.8491(3) 0.5311(3) 0.86702(13)
C3 C 0.9494(3) 0.5900(4) 0.89851(16)
C4 C 1.0266(3) 0.5034(4) 0.92605(15)
C5 C 1.0074(2) 0.3582(3) 0.92332(11)
C6 C 1.08955(19) 0.2690(5) 0.95146(11)
C7 C 1.0749(2) 0.1234(5) 0.94941(13)
C8 C 0.97985(18) 0.0636(4) 0.91957(11)
C9 C 0.89964(15) 0.1507(3) 0.89170(9)
C10 C 0.91347(16) 0.2993(3) 0.89385(9)
C11 C 1.1373(3) 0.5229(5) 0.96051(17)
C12 C 1.1783(3) 0.3696(6) 0.97682(17)
C13 C 0.74025(15) 0.2863(2) 0.83562(8)
C14 C 0.72230(18) 0.3058(3) 0.77123(9)
C15 C 0.7837(3) 0.4038(4) 0.74668(12)
C16 C 0.7778(4) 0.4161(6) 0.68938(16)
C17 C 0.7106(5) 0.3269(7) 0.65419(15)
C18 C 0.6487(3) 0.2299(5) 0.67625(13)
C19 C 0.6505(2) 0.2191(4) 0.73493(10)
C20 C 0.5770(3) 0.1167(4) 0.75267(12)
C21 C 0.53194(19) 0.1218(3) 0.79851(12)
C22 C 0.54475(17) 0.2323(3) 0.84224(10)
C23 C 0.45853(19) 0.2545(4) 0.87012(13)
C24 C 0.4593(3) 0.3595(4) 0.91037(14)
C25 C 0.5469(3) 0.4463(4) 0.92412(13)
C26 C 0.6338(2) 0.4239(3) 0.89844(10)
C27 C 0.63676(16) 0.3164(3) 0.85813(9)
C28 C 0.79207(15) 0.1125(2) 0.85613(8)
C29 C 0.81871(16) 0.0310(3) 0.80461(9)
C30 C 0.8985(2) 0.0963(4) 0.77993(10)
C31 C 0.9316(3) 0.0446(5) 0.73253(14)
C32 C 0.8882(4) -0.0793(6) 0.70778(17)
C33 C 0.8113(4) -0.1468(4) 0.73027(15)
C34 C 0.7734(2) -0.0951(3) 0.77875(12)
C35 C 0.6909(3) -0.1811(4) 0.79524(17)
C36 C 0.6469(3) -0.1777(3) 0.84060(18)
C37 C 0.66519(18) -0.0843(3) 0.89012(13)
C38 C 0.6138(3) -0.1263(5) 0.9343(2)
C39 C 0.6185(3) -0.0521(6) 0.9828(2)
C40 C 0.6775(3) 0.0732(5) 0.98953(13)
C41 C 0.7317(2) 0.1175(4) 0.94771(10)
C42 C 0.72794(15) 0.0425(3) 0.89732(9)
H1 H 0.79730 0.59360 0.84860
H2 H 0.95980 0.68980 0.89940
H3 H 1.12790 0.06260 0.96780
H4 H 0.97110 -0.03640 0.91860
H5 H 1.13440 0.58020 0.99400
H6 H 1.18330 0.57120 0.93840
H7 H 1.24230 0.34950 0.96170
H8 H 1.19400 0.35890 1.01750
H9 H 0.83070 0.46350 0.77020
H10 H 0.81900 0.48430 0.67460
H11 H 0.70730 0.33260 0.61530
H12 H 0.60400 0.16910 0.65200
H13 H 0.55920 0.03730 0.72910
H14 H 0.48680 0.04550 0.80310
H15 H 0.39880 0.19590 0.86100
H16 H 0.40090 0.37180 0.92820
H17 H 0.54770 0.51990 0.95060
H18 H 0.69300 0.48300 0.90850
H19 H 0.93080 0.17940 0.79670
H20 H 0.98350 0.09390 0.71730
H21 H 0.91100 -0.11680 0.67610
H22 H 0.78170 -0.23110 0.71310
H23 H 0.66370 -0.25190 0.76920
H24 H 0.59470 -0.24750 0.84120
H25 H 0.57370 -0.21100 0.92990
H26 H 0.58290 -0.08460 1.01100
H27 H 0.68080 0.12800 1.02220
H28 H 0.77250 0.20130 0.95350
loop_
_geom_bond_atom_site_label_1
_geom_bond_atom_site_label_2
_geom_bond_distance
_geom_bond_site_symmetry_1
_geom_bond_site_symmetry_2
C1 C2 1.381 1_555 1_555
C2 C3 1.474 1_555 1_555
C3 C4 1.350 1_555 1_555
C4 C5 1.362 1_555 1_555
C5 C6 1.411 1_555 1_555
C6 C7 1.357 1_555 1_555
C7 C8 1.411 1_555 1_555
C8 C9 1.381 1_555 1_555
C9 C10 1.383 1_555 1_555
C10 C1 1.387 1_555 1_555
C11 C4 1.521 1_555 1_555
C12 C6 1.510 1_555 1_555
C13 C1 1.543 1_555 1_555
C14 C13 1.537 1_555 1_555
C15 C14 1.395 1_555 1_555
C16 C15 1.373 1_555 1_555
C17 C16 1.371 1_555 1_555
C18 C17 1.363 1_555 1_555
C19 C14 1.402 1_555 1_555
C20 C19 1.449 1_555 1_555
C21 C20 1.332 1_555 1_555
C22 C21 1.454 1_555 1_555
C23 C22 1.402 1_555 1_555
C24 C23 1.369 1_555 1_555
C25 C24 1.370 1_555 1_555
C26 C25 1.378 1_555 1_555
C27 C13 1.540 1_555 1_555
C28 C9 1.528 1_555 1_555
C29 C28 1.539 1_555 1_555
C30 C29 1.403 1_555 1_555
C31 C30 1.370 1_555 1_555
C32 C31 1.362 1_555 1_555
C33 C32 1.354 1_555 1_555
C34 C29 1.397 1_555 1_555
C35 C34 1.431 1_555 1_555
C36 C35 1.313 1_555 1_555
C37 C36 1.457 1_555 1_555
C38 C37 1.399 1_555 1_555
C39 C38 1.346 1_555 1_555
C40 C39 1.375 1_555 1_555
C41 C40 1.380 1_555 1_555
C42 C28 1.536 1_555 1_555
H1 C2 0.930 1_555 1_555
H2 C3 0.931 1_555 1_555
H3 C7 0.930 1_555 1_555
H4 C8 0.930 1_555 1_555
H5 C11 0.970 1_555 1_555
H6 C11 0.968 1_555 1_555
H7 C12 0.970 1_555 1_555
H8 C12 0.970 1_555 1_555
H9 C15 0.931 1_555 1_555
H10 C16 0.931 1_555 1_555
H11 C17 0.931 1_555 1_555
H12 C18 0.930 1_555 1_555
H13 C20 0.930 1_555 1_555
H14 C21 0.929 1_555 1_555
H15 C23 0.930 1_555 1_555
H16 C24 0.931 1_555 1_555
H17 C25 0.931 1_555 1_555
H18 C26 0.930 1_555 1_555
H19 C30 0.929 1_555 1_555
H20 C31 0.931 1_555 1_555
H21 C32 0.930 1_555 1_555
H22 C33 0.930 1_555 1_555
H23 C35 0.930 1_555 1_555
H24 C36 0.930 1_555 1_555
H25 C38 0.931 1_555 1_555
H26 C39 0.931 1_555 1_555
H27 C40 0.930 1_555 1_555
H28 C41 0.930 1_555 1_555
C5 C10 1.394 1_555 1_555
C11 C12 1.536 1_555 1_555
C13 C28 1.773 1_555 1_555
C18 C19 1.412 1_555 1_555
C22 C27 1.405 1_555 1_555
C26 C27 1.393 1_555 1_555
C33 C34 1.422 1_555 1_555
C37 C42 1.413 1_555 1_555
C41 C42 1.390 1_555 1_555
#END
