
#######################################################################
#
#                 Cambridge Crystallographic Data Centre
#                                CCDC
#
#######################################################################
#
# If this CIF has been generated from an entry in the Cambridge
# Structural Database, then it will include bibliographic, chemical,
# crystal, experimental, refinement or atomic coordinate data resulting
# from the CCDC's data processing and validation procedures.
#
#######################################################################

data_CSD_CIF_PEVQAL01
_audit_creation_date 2018-03-09
_audit_creation_method CSD-ConQuest-V1
_database_code_CSD PEVQAL01
_database_code_depnum_ccdc_archive 'CCDC 1586193'
_chemical_formula_sum 'C42 H26'
_chemical_formula_moiety
;
C42 H26
;
_journal_coden_Cambridge 1885
_journal_volume 4
_journal_year 2018
_journal_page_first 795
_journal_name_full 'CheM '
loop_
_publ_author_name
"Y.Ishigaki"
"T.Shimajiri"
"T.Takeda"
"R.Katoono"
"T.Suzuki"
_chemical_name_systematic
;
dispiro[dibenzo[a,d][7]annulene-5,1'-cyclopenta[fg]acenaphthylene-2',5''-diben
zo[a,d][7]annulene]
;
_cell_volume   5260.559
_exptl_crystal_colour 'orange'
_exptl_crystal_density_diffrn 1.34
_exptl_crystal_description 'platelet'
_diffrn_ambient_temperature 100
#These two values have been output from a single CSD field.
_refine_ls_R_factor_gt 0.0419
_refine_ls_wR_factor_gt 0.0419
_symmetry_cell_setting orthorhombic
_symmetry_space_group_name_H-M 'P b c a'
_symmetry_Int_Tables_number 61
loop_
_symmetry_equiv_pos_site_id
_symmetry_equiv_pos_as_xyz
1 x,y,z
2 1/2-x,-y,1/2+z
3 1/2+x,1/2-y,-z
4 -x,1/2+y,1/2-z
5 -x,-y,-z
6 -1/2+x,y,-1/2-z
7 -1/2-x,-1/2+y,z
8 x,-1/2-y,-1/2+z
_cell_length_a 17.960(3)
_cell_length_b 15.813(3)
_cell_length_c 18.523(4)
_cell_angle_alpha 90
_cell_angle_beta 90
_cell_angle_gamma 90
_cell_formula_units_Z 8
loop_
_atom_type_symbol
_atom_type_radius_bond
C 0.68
H 0.23
loop_
_atom_site_label
_atom_site_type_symbol
_atom_site_fract_x
_atom_site_fract_y
_atom_site_fract_z
C1 C 0.00507(7) -0.21956(8) 0.17736(7)
C2 C -0.04685(7) -0.28083(9) 0.15790(7)
C3 C -0.10743(7) -0.26238(9) 0.11026(7)
C4 C -0.11677(7) -0.18175(9) 0.08257(7)
C5 C -0.06510(7) -0.12105(9) 0.10463(7)
C6 C -0.07619(7) -0.04162(9) 0.07304(7)
C7 C -0.02556(8) 0.02086(9) 0.09061(7)
C8 C 0.03603(8) 0.00294(9) 0.13743(7)
C9 C 0.04639(7) -0.07702(8) 0.16608(7)
C10 C -0.00620(7) -0.13865(8) 0.14936(7)
C11 C -0.16524(7) -0.13591(10) 0.03123(7)
C12 C -0.14154(8) -0.05436(10) 0.02592(7)
C13 C 0.07568(7) -0.22091(8) 0.22434(7)
C14 C 0.13268(7) -0.28511(8) 0.19511(7)
C15 C 0.11783(8) -0.33197(9) 0.13253(7)
C16 C 0.16964(8) -0.38624(9) 0.10199(8)
C17 C 0.23904(9) -0.39527(10) 0.13293(8)
C18 C 0.25566(8) -0.34936(10) 0.19408(8)
C19 C 0.20351(7) -0.29531(9) 0.22672(7)
C20 C 0.22866(8) -0.25198(9) 0.29149(8)
C21 C 0.18861(8) -0.22554(9) 0.34798(7)
C22 C 0.10880(7) -0.23435(8) 0.35948(7)
C23 C 0.08509(8) -0.23663(9) 0.43159(7)
C24 C 0.01174(8) -0.2500(1) 0.45007(8)
C25 C -0.04011(8) -0.26106(9) 0.39567(8)
C26 C -0.01864(7) -0.25393(8) 0.32401(7)
C27 C 0.05538(7) -0.23926(8) 0.30369(7)
C28 C 0.10818(7) -0.11429(8) 0.21367(7)
C29 C 0.17951(7) -0.11526(8) 0.16726(7)
C30 C 0.16902(8) -0.13991(9) 0.09522(7)
C31 C 0.22654(8) -0.14928(9) 0.04610(8)
C32 C 0.29893(8) -0.13464(10) 0.06774(8)
C33 C 0.31097(8) -0.1096(1) 0.13758(8)
C34 C 0.25369(7) -0.09739(9) 0.18809(8)
C35 C 0.27904(8) -0.06243(10) 0.25663(8)
C36 C 0.24155(8) -0.03469(10) 0.31375(8)
C37 C 0.16198(8) -0.03339(9) 0.32929(7)
C38 C 0.14397(9) 0.0046(1) 0.39584(8)
C39 C 0.07238(9) 0.01247(10) 0.42063(8)
C40 C 0.01491(8) -0.01708(9) 0.37791(8)
C41 C 0.03103(8) -0.05452(9) 0.31237(7)
C42 C 0.10370(7) -0.06602(8) 0.28610(7)
H1 H -0.04190 -0.33640 0.17680
H2 H -0.14150 -0.30580 0.09750
H3 H -0.03160 0.07620 0.07150
H4 H 0.07030 0.04670 0.14900
H5 H -0.20630 -0.15960 0.00600
H6 H -0.16370 -0.01210 -0.00360
H7 H 0.07050 -0.32630 0.11020
H8 H 0.15730 -0.41720 0.05970
H9 H 0.27480 -0.43250 0.11240
H10 H 0.30390 -0.35440 0.21480
H11 H 0.28060 -0.24100 0.29400
H12 H 0.21550 -0.19760 0.38510
H13 H 0.12070 -0.22870 0.46890
H14 H -0.00300 -0.25160 0.49930
H15 H -0.09040 -0.27360 0.40740
H16 H -0.05540 -0.25920 0.28740
H17 H 0.11970 -0.15080 0.07920
H18 H 0.21620 -0.16570 -0.00220
H19 H 0.33930 -0.14170 0.03510
H20 H 0.36080 -0.10000 0.15270
H21 H 0.33160 -0.05890 0.26130
H22 H 0.27190 -0.01170 0.35090
H23 H 0.18330 0.02580 0.42490
H24 H 0.06250 0.03770 0.46620
H25 H -0.03530 -0.01170 0.39350
H26 H -0.00930 -0.07360 0.28340
loop_
_geom_bond_atom_site_label_1
_geom_bond_atom_site_label_2
_geom_bond_distance
_geom_bond_site_symmetry_1
_geom_bond_site_symmetry_2
C1 C2 1.392 1_555 1_555
C2 C3 1.431 1_555 1_555
C3 C4 1.384 1_555 1_555
C4 C5 1.396 1_555 1_555
C5 C6 1.400 1_555 1_555
C6 C7 1.382 1_555 1_555
C7 C8 1.434 1_555 1_555
C8 C9 1.384 1_555 1_555
C9 C10 1.392 1_555 1_555
C10 C1 1.395 1_555 1_555
C11 C4 1.479 1_555 1_555
C12 C6 1.476 1_555 1_555
C13 C1 1.538 1_555 1_555
C14 C13 1.540 1_555 1_555
C15 C14 1.401 1_555 1_555
C16 C15 1.386 1_555 1_555
C17 C16 1.379 1_555 1_555
C18 C17 1.378 1_555 1_555
C19 C14 1.410 1_555 1_555
C20 C19 1.454 1_555 1_555
C21 C20 1.337 1_555 1_555
C22 C21 1.456 1_555 1_555
C23 C22 1.402 1_555 1_555
C24 C23 1.377 1_555 1_555
C25 C24 1.383 1_555 1_555
C26 C25 1.387 1_555 1_555
C27 C13 1.542 1_555 1_555
C28 C9 1.535 1_555 1_555
C29 C28 1.543 1_555 1_555
C30 C29 1.403 1_555 1_555
C31 C30 1.385 1_555 1_555
C32 C31 1.380 1_555 1_555
C33 C32 1.370 1_555 1_555
C34 C29 1.416 1_555 1_555
C35 C34 1.458 1_555 1_555
C36 C35 1.329 1_555 1_555
C37 C36 1.458 1_555 1_555
C38 C37 1.409 1_555 1_555
C39 C38 1.371 1_555 1_555
C40 C39 1.382 1_555 1_555
C41 C40 1.381 1_555 1_555
C42 C28 1.546 1_555 1_555
H1 C2 0.950 1_555 1_555
H2 C3 0.950 1_555 1_555
H3 C7 0.950 1_555 1_555
H4 C8 0.951 1_555 1_555
H5 C11 0.950 1_555 1_555
H6 C12 0.951 1_555 1_555
H7 C15 0.950 1_555 1_555
H8 C16 0.950 1_555 1_555
H9 C17 0.951 1_555 1_555
H10 C18 0.951 1_555 1_555
H11 C20 0.950 1_555 1_555
H12 C21 0.949 1_555 1_555
H13 C23 0.950 1_555 1_555
H14 C24 0.950 1_555 1_555
H15 C25 0.950 1_555 1_555
H16 C26 0.950 1_555 1_555
H17 C30 0.950 1_555 1_555
H18 C31 0.950 1_555 1_555
H19 C32 0.951 1_555 1_555
H20 C33 0.950 1_555 1_555
H21 C35 0.950 1_555 1_555
H22 C36 0.950 1_555 1_555
H23 C38 0.949 1_555 1_555
H24 C39 0.950 1_555 1_555
H25 C40 0.951 1_555 1_555
H26 C41 0.951 1_555 1_555
C5 C10 1.372 1_555 1_555
C11 C12 1.362 1_555 1_555
C13 C28 1.795 1_555 1_555
C18 C19 1.405 1_555 1_555
C22 C27 1.412 1_555 1_555
C26 C27 1.401 1_555 1_555
C33 C34 1.404 1_555 1_555
C37 C42 1.415 1_555 1_555
C41 C42 1.405 1_555 1_555
#END
