
#######################################################################
#
#                 Cambridge Crystallographic Data Centre
#                                CCDC
#
#######################################################################
#
# If this CIF has been generated from an entry in the Cambridge
# Structural Database, then it will include bibliographic, chemical,
# crystal, experimental, refinement or atomic coordinate data resulting
# from the CCDC's data processing and validation procedures.
#
#######################################################################

data_CSD_CIF_PEVQAL08
_audit_creation_date 2018-03-09
_audit_creation_method CSD-ConQuest-V1
_database_code_CSD PEVQAL08
_database_code_depnum_ccdc_archive 'CCDC 1567407'
_chemical_formula_sum 'C42 H26'
_chemical_formula_moiety
;
C42 H26
;
_journal_coden_Cambridge 1885
_journal_volume 4
_journal_year 2018
_journal_page_first 795
_journal_name_full 'CheM '
loop_
_publ_author_name
"Y.Ishigaki"
"T.Shimajiri"
"T.Takeda"
"R.Katoono"
"T.Suzuki"
_chemical_name_systematic
;
dispiro[dibenzo[a,d][7]annulene-5,1'-cyclopenta[fg]acenaphthylene-2',5''-diben
zo[a,d][7]annulene]
;
_cell_volume   5401.060
_exptl_crystal_colour 'red'
_exptl_crystal_density_diffrn 1.305
_exptl_crystal_description 'platelet'
_diffrn_ambient_temperature 400
#These two values have been output from a single CSD field.
_refine_ls_R_factor_gt 0.05
_refine_ls_wR_factor_gt 0.05
_symmetry_cell_setting orthorhombic
_symmetry_space_group_name_H-M 'P b c a'
_symmetry_Int_Tables_number 61
loop_
_symmetry_equiv_pos_site_id
_symmetry_equiv_pos_as_xyz
1 x,y,z
2 1/2-x,-y,1/2+z
3 1/2+x,1/2-y,-z
4 -x,1/2+y,1/2-z
5 -x,-y,-z
6 -1/2+x,y,-1/2-z
7 -1/2-x,-1/2+y,z
8 x,-1/2-y,-1/2+z
_cell_length_a 18.076(3)
_cell_length_b 15.999(3)
_cell_length_c 18.676(4)
_cell_angle_alpha 90
_cell_angle_beta 90
_cell_angle_gamma 90
_cell_formula_units_Z 8
loop_
_atom_type_symbol
_atom_type_radius_bond
C 0.68
H 0.23
loop_
_atom_site_label
_atom_site_type_symbol
_atom_site_fract_x
_atom_site_fract_y
_atom_site_fract_z
C1 C 0.00610(8) -0.21906(10) 0.17721(8)
C2 C -0.04507(9) -0.27972(10) 0.15772(8)
C3 C -0.10499(9) -0.26207(11) 0.11077(9)
C4 C -0.11506(9) -0.18270(11) 0.08332(8)
C5 C -0.06402(9) -0.12242(11) 0.10530(8)
C6 C -0.07573(9) -0.04400(11) 0.07404(9)
C7 C -0.02603(10) 0.01784(12) 0.0916(1)
C8 C 0.03492(9) 0.00097(11) 0.13797(9)
C9 C 0.04610(8) -0.0778(1) 0.16651(8)
C10 C -0.00561(8) -0.13921(10) 0.14966(8)
C11 C -0.16327(10) -0.13774(13) 0.03274(9)
C12 C -0.14038(10) -0.05759(14) 0.02749(9)
C13 C 0.07587(8) -0.22013(9) 0.22413(8)
C14 C 0.13297(9) -0.28303(10) 0.19535(8)
C15 C 0.11924(10) -0.32850(11) 0.13287(9)
C16 C 0.17065(12) -0.38220(12) 0.10300(11)
C17 C 0.23850(13) -0.39188(13) 0.13361(12)
C18 C 0.25443(11) -0.34746(13) 0.19446(11)
C19 C 0.20298(9) -0.29406(11) 0.22718(9)
C20 C 0.22737(10) -0.25228(13) 0.29175(10)
C21 C 0.1872(1) -0.22665(12) 0.34739(10)
C22 C 0.10798(10) -0.23484(10) 0.35820(8)
C23 C 0.08373(12) -0.23891(12) 0.42910(9)
C24 C 0.01148(13) -0.25174(13) 0.44686(10)
C25 C -0.03976(11) -0.26089(12) 0.39296(10)
C26 C -0.01818(9) -0.25243(11) 0.32237(9)
C27 C 0.05526(9) -0.23828(9) 0.30264(8)
C28 C 0.10759(8) -0.11377(9) 0.21357(8)
C29 C 0.17857(9) -0.11406(10) 0.16761(9)
C30 C 0.16854(10) -0.13759(11) 0.09614(9)
C31 C 0.22561(11) -0.14607(12) 0.04757(11)
C32 C 0.29683(12) -0.13221(13) 0.06904(12)
C33 C 0.30864(10) -0.10819(14) 0.13792(12)
C34 C 0.25202(9) -0.09685(11) 0.18825(10)
C35 C 0.27696(11) -0.06318(14) 0.25630(11)
C36 C 0.23978(12) -0.03638(14) 0.31311(11)
C37 C 0.16087(11) -0.03472(11) 0.32822(9)
C38 C 0.14268(13) 0.00296(13) 0.39423(10)
C39 C 0.07229(14) 0.01118(13) 0.41823(11)
C40 C 0.01546(12) -0.01715(12) 0.37608(10)
C41 C 0.0313(1) -0.05445(11) 0.31142(9)
C42 C 0.10310(9) -0.06635(10) 0.28553(8)
H1 H -0.04000 -0.33350 0.17590
H2 H -0.13780 -0.30450 0.09840
H3 H -0.03220 0.07130 0.07300
H4 H 0.06780 0.04380 0.14920
H5 H -0.20320 -0.16090 0.00830
H6 H -0.16220 -0.01700 -0.00130
H7 H 0.07360 -0.32240 0.11040
H8 H 0.15880 -0.41190 0.06170
H9 H 0.27330 -0.42780 0.11370
H10 H 0.30110 -0.35290 0.21480
H11 H 0.27790 -0.24190 0.29480
H12 H 0.21320 -0.20020 0.38390
H13 H 0.11820 -0.23260 0.46560
H14 H -0.00290 -0.25430 0.49460
H15 H -0.08880 -0.27270 0.40400
H16 H -0.05390 -0.25630 0.28670
H17 H 0.12060 -0.14810 0.08040
H18 H 0.21560 -0.16110 0.00050
H19 H 0.33610 -0.13900 0.03740
H20 H 0.35710 -0.09870 0.15250
H21 H 0.32810 -0.05980 0.26090
H22 H 0.26930 -0.01500 0.34960
H23 H 0.18090 0.02320 0.42270
H24 H 0.06270 0.03560 0.46250
H25 H -0.03330 -0.01120 0.39100
H26 H -0.00800 -0.07280 0.28340
loop_
_geom_bond_atom_site_label_1
_geom_bond_atom_site_label_2
_geom_bond_distance
_geom_bond_site_symmetry_1
_geom_bond_site_symmetry_2
C1 C2 1.389 1_555 1_555
C2 C3 1.422 1_555 1_555
C3 C4 1.381 1_555 1_555
C4 C5 1.396 1_555 1_555
C5 C6 1.400 1_555 1_555
C6 C7 1.376 1_555 1_555
C7 C8 1.427 1_555 1_555
C8 C9 1.383 1_555 1_555
C9 C10 1.392 1_555 1_555
C10 C1 1.393 1_555 1_555
C11 C4 1.473 1_555 1_555
C12 C6 1.473 1_555 1_555
C13 C1 1.536 1_555 1_555
C14 C13 1.538 1_555 1_555
C15 C14 1.397 1_555 1_555
C16 C15 1.383 1_555 1_555
C17 C16 1.362 1_555 1_555
C18 C17 1.371 1_555 1_555
C19 C14 1.409 1_555 1_555
C20 C19 1.448 1_555 1_555
C21 C20 1.332 1_555 1_555
C22 C21 1.452 1_555 1_555
C23 C22 1.396 1_555 1_555
C24 C23 1.363 1_555 1_555
C25 C24 1.376 1_555 1_555
C26 C25 1.381 1_555 1_555
C27 C13 1.540 1_555 1_555
C28 C9 1.529 1_555 1_555
C29 C28 1.544 1_555 1_555
C30 C29 1.399 1_555 1_555
C31 C30 1.380 1_555 1_555
C32 C31 1.366 1_555 1_555
C33 C32 1.359 1_555 1_555
C34 C29 1.410 1_555 1_555
C35 C34 1.452 1_555 1_555
C36 C35 1.327 1_555 1_555
C37 C36 1.454 1_555 1_555
C38 C37 1.411 1_555 1_555
C39 C38 1.355 1_555 1_555
C40 C39 1.371 1_555 1_555
C41 C40 1.377 1_555 1_555
C42 C28 1.545 1_555 1_555
H1 C2 0.930 1_555 1_555
H2 C3 0.931 1_555 1_555
H3 C7 0.930 1_555 1_555
H4 C8 0.931 1_555 1_555
H5 C11 0.931 1_555 1_555
H6 C12 0.931 1_555 1_555
H7 C15 0.931 1_555 1_555
H8 C16 0.931 1_555 1_555
H9 C17 0.930 1_555 1_555
H10 C18 0.929 1_555 1_555
H11 C20 0.930 1_555 1_555
H12 C21 0.930 1_555 1_555
H13 C23 0.929 1_555 1_555
H14 C24 0.930 1_555 1_555
H15 C25 0.930 1_555 1_555
H16 C26 0.930 1_555 1_555
H17 C30 0.930 1_555 1_555
H18 C31 0.929 1_555 1_555
H19 C32 0.930 1_555 1_555
H20 C33 0.930 1_555 1_555
H21 C35 0.930 1_555 1_555
H22 C36 0.931 1_555 1_555
H23 C38 0.930 1_555 1_555
H24 C39 0.931 1_555 1_555
H25 C40 0.929 1_555 1_555
H26 C41 0.930 1_555 1_555
C5 C10 1.369 1_555 1_555
C11 C12 1.351 1_555 1_555
C13 C28 1.806 1_555 1_555
C18 C19 1.403 1_555 1_555
C22 C27 1.410 1_555 1_555
C26 C27 1.396 1_555 1_555
C33 C34 1.401 1_555 1_555
C37 C42 1.408 1_555 1_555
C41 C42 1.398 1_555 1_555
#END
