
#######################################################################
#
#                 Cambridge Crystallographic Data Centre
#                                CCDC
#
#######################################################################
#
# If this CIF has been generated from an entry in the Cambridge
# Structural Database, then it will include bibliographic, chemical,
# crystal, experimental, refinement or atomic coordinate data resulting
# from the CCDC's data processing and validation procedures.
#
#######################################################################

data_CSD_CIF_PEVQAL07
_audit_creation_date 2018-03-09
_audit_creation_method CSD-ConQuest-V1
_database_code_CSD PEVQAL07
_database_code_depnum_ccdc_archive 'CCDC 1567406'
_chemical_formula_sum 'C42 H26'
_chemical_formula_moiety
;
C42 H26
;
_journal_coden_Cambridge 1885
_journal_volume 4
_journal_year 2018
_journal_page_first 795
_journal_name_full 'CheM '
loop_
_publ_author_name
"Y.Ishigaki"
"T.Shimajiri"
"T.Takeda"
"R.Katoono"
"T.Suzuki"
_chemical_name_systematic
;
dispiro[dibenzo[a,d][7]annulene-5,1'-cyclopenta[fg]acenaphthylene-2',5''-diben
zo[a,d][7]annulene]
;
_cell_volume   5375.482
_exptl_crystal_colour 'orange'
_exptl_crystal_density_diffrn 1.311
_exptl_crystal_description 'platelet'
_diffrn_ambient_temperature 360
#These two values have been output from a single CSD field.
_refine_ls_R_factor_gt 0.0465
_refine_ls_wR_factor_gt 0.0465
_symmetry_cell_setting orthorhombic
_symmetry_space_group_name_H-M 'P b c a'
_symmetry_Int_Tables_number 61
loop_
_symmetry_equiv_pos_site_id
_symmetry_equiv_pos_as_xyz
1 x,y,z
2 1/2-x,-y,1/2+z
3 1/2+x,1/2-y,-z
4 -x,1/2+y,1/2-z
5 -x,-y,-z
6 -1/2+x,y,-1/2-z
7 -1/2-x,-1/2+y,z
8 x,-1/2-y,-1/2+z
_cell_length_a 18.054(3)
_cell_length_b 15.970(3)
_cell_length_c 18.644(3)
_cell_angle_alpha 90
_cell_angle_beta 90
_cell_angle_gamma 90
_cell_formula_units_Z 8
loop_
_atom_type_symbol
_atom_type_radius_bond
C 0.68
H 0.23
loop_
_atom_site_label
_atom_site_type_symbol
_atom_site_fract_x
_atom_site_fract_y
_atom_site_fract_z
C1 C 0.00594(8) -0.21920(9) 0.17727(7)
C2 C -0.04525(8) -0.27996(10) 0.15774(8)
C3 C -0.10532(8) -0.26201(11) 0.11078(8)
C4 C -0.11524(8) -0.18252(10) 0.08321(8)
C5 C -0.06404(8) -0.12213(10) 0.10513(8)
C6 C -0.07578(9) -0.04353(11) 0.07387(8)
C7 C -0.02587(9) 0.01841(11) 0.09153(9)
C8 C 0.03502(9) 0.00117(10) 0.13786(8)
C9 C 0.04615(8) -0.07772(9) 0.16647(7)
C10 C -0.00572(8) -0.13926(9) 0.14960(7)
C11 C -0.16352(9) -0.13760(12) 0.03250(8)
C12 C -0.14060(9) -0.05709(12) 0.02728(9)
C13 C 0.07576(8) -0.22009(9) 0.22412(7)
C14 C 0.13293(8) -0.28328(9) 0.19528(8)
C15 C 0.11906(9) -0.32898(10) 0.13289(9)
C16 C 0.17048(11) -0.38276(11) 0.10283(10)
C17 C 0.23852(11) -0.39225(12) 0.13362(11)
C18 C 0.25467(10) -0.34761(12) 0.19451(10)
C19 C 0.20296(8) -0.29407(10) 0.22715(8)
C20 C 0.22754(9) -0.25216(12) 0.29170(9)
C21 C 0.18726(9) -0.22655(11) 0.34745(9)
C22 C 0.10796(9) -0.23483(9) 0.35842(8)
C23 C 0.08387(11) -0.23853(11) 0.42939(8)
C24 C 0.01159(11) -0.25142(12) 0.44720(9)
C25 C -0.03989(10) -0.26098(11) 0.39325(9)
C26 C -0.01825(9) -0.25271(10) 0.32253(8)
C27 C 0.05532(8) -0.23846(9) 0.30274(7)
C28 C 0.10767(8) -0.11380(9) 0.21357(7)
C29 C 0.17868(8) -0.11436(9) 0.16753(8)
C30 C 0.16858(9) -0.13783(10) 0.09588(8)
C31 C 0.22578(10) -0.14641(11) 0.04731(10)
C32 C 0.29717(11) -0.13262(12) 0.06878(11)
C33 C 0.30903(10) -0.10852(12) 0.13787(11)
C34 C 0.25213(9) -0.09689(11) 0.18831(9)
C35 C 0.27727(10) -0.06326(13) 0.25634(10)
C36 C 0.2399(1) -0.03617(12) 0.31329(10)
C37 C 0.16107(10) -0.03459(10) 0.32842(8)
C38 C 0.14284(12) 0.00318(12) 0.39443(10)
C39 C 0.07229(12) 0.01151(12) 0.41849(10)
C40 C 0.01541(11) -0.01711(11) 0.37634(9)
C41 C 0.03136(9) -0.0544(1) 0.31149(8)
C42 C 0.10315(8) -0.06638(9) 0.28563(8)
H1 H -0.04010 -0.33390 0.17590
H2 H -0.13830 -0.30440 0.09850
H3 H -0.03200 0.07200 0.07300
H4 H 0.06800 0.04390 0.14910
H5 H -0.20340 -0.16080 0.00800
H6 H -0.16250 -0.01640 -0.00140
H7 H 0.07330 -0.32300 0.11060
H8 H 0.15860 -0.41250 0.06150
H9 H 0.27330 -0.42830 0.11370
H10 H 0.30150 -0.35300 0.21490
H11 H 0.27810 -0.24170 0.29470
H12 H 0.21330 -0.20000 0.38400
H13 H 0.11840 -0.23190 0.46590
H14 H -0.00280 -0.25370 0.49500
H15 H -0.08900 -0.27290 0.40440
H16 H -0.05400 -0.25680 0.28680
H17 H 0.12060 -0.14820 0.08010
H18 H 0.21580 -0.16150 0.00010
H19 H 0.33650 -0.13950 0.03710
H20 H 0.35760 -0.09920 0.15250
H21 H 0.32850 -0.06010 0.26100
H22 H 0.26940 -0.01450 0.34970
H23 H 0.18110 0.02340 0.42290
H24 H 0.06270 0.03620 0.46270
H25 H -0.03340 -0.01140 0.39140
H26 H -0.00800 -0.07260 0.28330
loop_
_geom_bond_atom_site_label_1
_geom_bond_atom_site_label_2
_geom_bond_distance
_geom_bond_site_symmetry_1
_geom_bond_site_symmetry_2
C1 C2 1.389 1_555 1_555
C2 C3 1.423 1_555 1_555
C3 C4 1.381 1_555 1_555
C4 C5 1.397 1_555 1_555
C5 C6 1.400 1_555 1_555
C6 C7 1.378 1_555 1_555
C7 C8 1.425 1_555 1_555
C8 C9 1.383 1_555 1_555
C9 C10 1.393 1_555 1_555
C10 C1 1.393 1_555 1_555
C11 C4 1.472 1_555 1_555
C12 C6 1.473 1_555 1_555
C13 C1 1.534 1_555 1_555
C14 C13 1.540 1_555 1_555
C15 C14 1.396 1_555 1_555
C16 C15 1.383 1_555 1_555
C17 C16 1.364 1_555 1_555
C18 C17 1.372 1_555 1_555
C19 C14 1.408 1_555 1_555
C20 C19 1.447 1_555 1_555
C21 C20 1.333 1_555 1_555
C22 C21 1.452 1_555 1_555
C23 C22 1.394 1_555 1_555
C24 C23 1.362 1_555 1_555
C25 C24 1.378 1_555 1_555
C26 C25 1.381 1_555 1_555
C27 C13 1.540 1_555 1_555
C28 C9 1.529 1_555 1_555
C29 C28 1.543 1_555 1_555
C30 C29 1.399 1_555 1_555
C31 C30 1.380 1_555 1_555
C32 C31 1.367 1_555 1_555
C33 C32 1.361 1_555 1_555
C34 C29 1.409 1_555 1_555
C35 C34 1.450 1_555 1_555
C36 C35 1.330 1_555 1_555
C37 C36 1.451 1_555 1_555
C38 C37 1.410 1_555 1_555
C39 C38 1.357 1_555 1_555
C40 C39 1.371 1_555 1_555
C41 C40 1.378 1_555 1_555
C42 C28 1.544 1_555 1_555
H1 C2 0.930 1_555 1_555
H2 C3 0.930 1_555 1_555
H3 C7 0.930 1_555 1_555
H4 C8 0.930 1_555 1_555
H5 C11 0.930 1_555 1_555
H6 C12 0.930 1_555 1_555
H7 C15 0.930 1_555 1_555
H8 C16 0.930 1_555 1_555
H9 C17 0.929 1_555 1_555
H10 C18 0.931 1_555 1_555
H11 C20 0.930 1_555 1_555
H12 C21 0.930 1_555 1_555
H13 C23 0.929 1_555 1_555
H14 C24 0.929 1_555 1_555
H15 C25 0.930 1_555 1_555
H16 C26 0.930 1_555 1_555
H17 C30 0.930 1_555 1_555
H18 C31 0.930 1_555 1_555
H19 C32 0.930 1_555 1_555
H20 C33 0.930 1_555 1_555
H21 C35 0.930 1_555 1_555
H22 C36 0.930 1_555 1_555
H23 C38 0.929 1_555 1_555
H24 C39 0.930 1_555 1_555
H25 C40 0.929 1_555 1_555
H26 C41 0.930 1_555 1_555
C5 C10 1.368 1_555 1_555
C11 C12 1.354 1_555 1_555
C13 C28 1.803 1_555 1_555
C18 C19 1.405 1_555 1_555
C22 C27 1.409 1_555 1_555
C26 C27 1.397 1_555 1_555
C33 C34 1.405 1_555 1_555
C37 C42 1.410 1_555 1_555
C41 C42 1.396 1_555 1_555
#END
