
#######################################################################
#
#                 Cambridge Crystallographic Data Centre
#                                CCDC
#
#######################################################################
#
# If this CIF has been generated from an entry in the Cambridge
# Structural Database, then it will include bibliographic, chemical,
# crystal, experimental, refinement or atomic coordinate data resulting
# from the CCDC's data processing and validation procedures.
#
#######################################################################

data_CSD_CIF_PEVQAL05
_audit_creation_date 2018-03-09
_audit_creation_method CSD-ConQuest-V1
_database_code_CSD PEVQAL05
_database_code_depnum_ccdc_archive 'CCDC 1567404'
_chemical_formula_sum 'C42 H26'
_chemical_formula_moiety
;
C42 H26
;
_journal_coden_Cambridge 1885
_journal_volume 4
_journal_year 2018
_journal_page_first 795
_journal_name_full 'CheM '
loop_
_publ_author_name
"Y.Ishigaki"
"T.Shimajiri"
"T.Takeda"
"R.Katoono"
"T.Suzuki"
_chemical_name_systematic
;
dispiro[dibenzo[a,d][7]annulene-5,1'-cyclopenta[fg]acenaphthylene-2',5''-diben
zo[a,d][7]annulene]
;
_cell_volume   5346.322
_exptl_crystal_colour 'orange'
_exptl_crystal_density_diffrn 1.318
_exptl_crystal_description 'platelet'
_diffrn_ambient_temperature 280
#These two values have been output from a single CSD field.
_refine_ls_R_factor_gt 0.0445
_refine_ls_wR_factor_gt 0.0445
_symmetry_cell_setting orthorhombic
_symmetry_space_group_name_H-M 'P b c a'
_symmetry_Int_Tables_number 61
loop_
_symmetry_equiv_pos_site_id
_symmetry_equiv_pos_as_xyz
1 x,y,z
2 1/2-x,-y,1/2+z
3 1/2+x,1/2-y,-z
4 -x,1/2+y,1/2-z
5 -x,-y,-z
6 -1/2+x,y,-1/2-z
7 -1/2-x,-1/2+y,z
8 x,-1/2-y,-1/2+z
_cell_length_a 18.030(3)
_cell_length_b 15.931(3)
_cell_length_c 18.613(3)
_cell_angle_alpha 90
_cell_angle_beta 90
_cell_angle_gamma 90
_cell_formula_units_Z 8
loop_
_atom_type_symbol
_atom_type_radius_bond
C 0.68
H 0.23
loop_
_atom_site_label
_atom_site_type_symbol
_atom_site_fract_x
_atom_site_fract_y
_atom_site_fract_z
C1 C 0.00572(8) -0.21935(9) 0.17732(7)
C2 C -0.04583(8) -0.28017(9) 0.15781(8)
C3 C -0.10599(8) -0.26209(10) 0.11060(8)
C4 C -0.11580(8) -0.18224(10) 0.08290(7)
C5 C -0.06447(8) -0.12175(9) 0.10497(7)
C6 C -0.07598(8) -0.04294(10) 0.07350(8)
C7 C -0.02584(9) 0.01911(10) 0.09119(9)
C8 C 0.03542(8) 0.00180(9) 0.13772(8)
C9 C 0.04620(8) -0.07750(9) 0.16630(7)
C10 C -0.00590(8) -0.13908(9) 0.14938(7)
C11 C -0.16408(9) -0.13687(11) 0.03209(8)
C12 C -0.14077(9) -0.05619(11) 0.02684(8)
C13 C 0.07578(7) -0.22036(8) 0.22417(7)
C14 C 0.13282(8) -0.28390(9) 0.19522(8)
C15 C 0.11867(9) -0.32985(10) 0.13270(8)
C16 C 0.17014(10) -0.38385(10) 0.10261(9)
C17 C 0.23865(10) -0.39321(11) 0.13339(10)
C18 C 0.25485(9) -0.34830(11) 0.19435(10)
C19 C 0.20322(8) -0.2945(1) 0.22690(8)
C20 C 0.22790(9) -0.25200(11) 0.29159(9)
C21 C 0.18773(9) -0.22625(10) 0.34761(9)
C22 C 0.10822(8) -0.23469(9) 0.35874(8)
C23 C 0.08425(10) -0.23797(10) 0.43005(8)
C24 C 0.01157(10) -0.25102(11) 0.44801(9)
C25 C -0.04001(10) -0.26098(10) 0.39400(9)
C26 C -0.01835(8) -0.25311(9) 0.32305(8)
C27 C 0.05532(8) -0.23867(8) 0.30312(7)
C28 C 0.10784(7) -0.11395(8) 0.21371(7)
C29 C 0.17898(8) -0.11443(9) 0.16747(8)
C30 C 0.16878(9) -0.13847(10) 0.09558(8)
C31 C 0.22591(9) -0.14735(11) 0.04698(9)
C32 C 0.29771(10) -0.13326(11) 0.06856(10)
C33 C 0.30960(9) -0.10873(11) 0.13787(10)
C34 C 0.25257(8) -0.09699(10) 0.18820(9)
C35 C 0.27788(10) -0.06284(12) 0.25633(10)
C36 C 0.24034(10) -0.03568(12) 0.31333(10)
C37 C 0.16143(9) -0.03414(10) 0.32866(8)
C38 C 0.14318(11) 0.00365(11) 0.39483(9)
C39 C 0.07224(11) 0.01177(11) 0.41906(9)
C40 C 0.01535(10) -0.01720(11) 0.37677(9)
C41 C 0.03136(9) -0.05449(9) 0.31171(8)
C42 C 0.10333(8) -0.06630(9) 0.28581(8)
H1 H -0.04090 -0.33420 0.17610
H2 H -0.13910 -0.30450 0.09830
H3 H -0.03190 0.07290 0.07260
H4 H 0.06860 0.04450 0.14900
H5 H -0.20410 -0.15990 0.00760
H6 H -0.16250 -0.01530 -0.00200
H7 H 0.07280 -0.32390 0.11040
H8 H 0.15820 -0.41390 0.06140
H9 H 0.27350 -0.42930 0.11340
H10 H 0.30170 -0.35370 0.21480
H11 H 0.27850 -0.24130 0.29440
H12 H 0.21380 -0.19950 0.38410
H13 H 0.11890 -0.23100 0.46660
H14 H -0.00280 -0.25310 0.49600
H15 H -0.08910 -0.27300 0.40520
H16 H -0.05410 -0.25760 0.28730
H17 H 0.12070 -0.14900 0.07990
H18 H 0.21590 -0.16280 -0.00020
H19 H 0.33710 -0.14020 0.03690
H20 H 0.35820 -0.09930 0.15250
H21 H 0.32920 -0.05940 0.26090
H22 H 0.26990 -0.01380 0.34980
H23 H 0.18150 0.02400 0.42340
H24 H 0.06250 0.03650 0.46340
H25 H -0.03360 -0.01170 0.39190
H26 H -0.00800 -0.07280 0.28350
loop_
_geom_bond_atom_site_label_1
_geom_bond_atom_site_label_2
_geom_bond_distance
_geom_bond_site_symmetry_1
_geom_bond_site_symmetry_2
C1 C2 1.391 1_555 1_555
C2 C3 1.425 1_555 1_555
C3 C4 1.384 1_555 1_555
C4 C5 1.398 1_555 1_555
C5 C6 1.401 1_555 1_555
C6 C7 1.379 1_555 1_555
C7 C8 1.430 1_555 1_555
C8 C9 1.384 1_555 1_555
C9 C10 1.394 1_555 1_555
C10 C1 1.396 1_555 1_555
C11 C4 1.475 1_555 1_555
C12 C6 1.471 1_555 1_555
C13 C1 1.535 1_555 1_555
C14 C13 1.540 1_555 1_555
C15 C14 1.398 1_555 1_555
C16 C15 1.384 1_555 1_555
C17 C16 1.370 1_555 1_555
C18 C17 1.373 1_555 1_555
C19 C14 1.410 1_555 1_555
C20 C19 1.451 1_555 1_555
C21 C20 1.334 1_555 1_555
C22 C21 1.455 1_555 1_555
C23 C22 1.397 1_555 1_555
C24 C23 1.368 1_555 1_555
C25 C24 1.379 1_555 1_555
C26 C25 1.383 1_555 1_555
C27 C13 1.543 1_555 1_555
C28 C9 1.533 1_555 1_555
C29 C28 1.545 1_555 1_555
C30 C29 1.404 1_555 1_555
C31 C30 1.378 1_555 1_555
C32 C31 1.374 1_555 1_555
C33 C32 1.365 1_555 1_555
C34 C29 1.409 1_555 1_555
C35 C34 1.453 1_555 1_555
C36 C35 1.331 1_555 1_555
C37 C36 1.451 1_555 1_555
C38 C37 1.410 1_555 1_555
C39 C38 1.362 1_555 1_555
C40 C39 1.373 1_555 1_555
C41 C40 1.379 1_555 1_555
C42 C28 1.544 1_555 1_555
H1 C2 0.930 1_555 1_555
H2 C3 0.930 1_555 1_555
H3 C7 0.931 1_555 1_555
H4 C8 0.930 1_555 1_555
H5 C11 0.929 1_555 1_555
H6 C12 0.931 1_555 1_555
H7 C15 0.930 1_555 1_555
H8 C16 0.929 1_555 1_555
H9 C17 0.929 1_555 1_555
H10 C18 0.930 1_555 1_555
H11 C20 0.930 1_555 1_555
H12 C21 0.929 1_555 1_555
H13 C23 0.930 1_555 1_555
H14 C24 0.931 1_555 1_555
H15 C25 0.929 1_555 1_555
H16 C26 0.929 1_555 1_555
H17 C30 0.930 1_555 1_555
H18 C31 0.930 1_555 1_555
H19 C32 0.929 1_555 1_555
H20 C33 0.930 1_555 1_555
H21 C35 0.931 1_555 1_555
H22 C36 0.931 1_555 1_555
H23 C38 0.930 1_555 1_555
H24 C39 0.931 1_555 1_555
H25 C40 0.931 1_555 1_555
H26 C41 0.930 1_555 1_555
C5 C10 1.369 1_555 1_555
C11 C12 1.356 1_555 1_555
C13 C28 1.802 1_555 1_555
C18 C19 1.403 1_555 1_555
C22 C27 1.409 1_555 1_555
C26 C27 1.398 1_555 1_555
C33 C34 1.404 1_555 1_555
C37 C42 1.413 1_555 1_555
C41 C42 1.397 1_555 1_555
#END
