
#######################################################################
#
#                 Cambridge Crystallographic Data Centre
#                                CCDC
#
#######################################################################
#
# If this CIF has been generated from an entry in the Cambridge
# Structural Database, then it will include bibliographic, chemical,
# crystal, experimental, refinement or atomic coordinate data resulting
# from the CCDC's data processing and validation procedures.
#
#######################################################################

data_CSD_CIF_PEVQAL02
_audit_creation_date 2018-03-09
_audit_creation_method CSD-ConQuest-V1
_database_code_CSD PEVQAL02
_database_code_depnum_ccdc_archive 'CCDC 1586194'
_chemical_formula_sum 'C42 H26'
_chemical_formula_moiety
;
C42 H26
;
_journal_coden_Cambridge 1885
_journal_volume 4
_journal_year 2018
_journal_page_first 795
_journal_name_full 'CheM '
loop_
_publ_author_name
"Y.Ishigaki"
"T.Shimajiri"
"T.Takeda"
"R.Katoono"
"T.Suzuki"
_chemical_name_systematic
;
dispiro[dibenzo[a,d][7]annulene-5,1'-cyclopenta[fg]acenaphthylene-2',5''-diben
zo[a,d][7]annulene]
;
_cell_volume   5258.910
_exptl_crystal_colour 'orange'
_exptl_crystal_density_diffrn 1.34
_exptl_crystal_description 'platelet'
_diffrn_ambient_temperature 120
#These two values have been output from a single CSD field.
_refine_ls_R_factor_gt 0.0395
_refine_ls_wR_factor_gt 0.0395
_symmetry_cell_setting orthorhombic
_symmetry_space_group_name_H-M 'P b c a'
_symmetry_Int_Tables_number 61
loop_
_symmetry_equiv_pos_site_id
_symmetry_equiv_pos_as_xyz
1 x,y,z
2 1/2-x,-y,1/2+z
3 1/2+x,1/2-y,-z
4 -x,1/2+y,1/2-z
5 -x,-y,-z
6 -1/2+x,y,-1/2-z
7 -1/2-x,-1/2+y,z
8 x,-1/2-y,-1/2+z
_cell_length_a 17.960(3)
_cell_length_b 15.820(3)
_cell_length_c 18.509(3)
_cell_angle_alpha 90
_cell_angle_beta 90
_cell_angle_gamma 90
_cell_formula_units_Z 8
loop_
_atom_type_symbol
_atom_type_radius_bond
C 0.68
H 0.23
loop_
_atom_site_label
_atom_site_type_symbol
_atom_site_fract_x
_atom_site_fract_y
_atom_site_fract_z
C1 C 0.00502(6) -0.21961(8) 0.17729(6)
C2 C -0.04696(7) -0.28091(8) 0.15790(6)
C3 C -0.10766(7) -0.26243(8) 0.11032(6)
C4 C -0.11700(7) -0.18173(8) 0.08242(6)
C5 C -0.06513(7) -0.12101(8) 0.10458(6)
C6 C -0.07622(7) -0.04141(8) 0.07299(6)
C7 C -0.02550(7) 0.02107(8) 0.09052(7)
C8 C 0.03608(7) 0.00308(8) 0.13741(7)
C9 C 0.04644(6) -0.07693(8) 0.16601(6)
C10 C -0.00629(6) -0.13869(8) 0.14928(6)
C11 C -0.16548(7) -0.13571(9) 0.03112(7)
C12 C -0.14161(7) -0.05416(9) 0.02571(7)
C13 C 0.07559(6) -0.22092(8) 0.22429(6)
C14 C 0.13263(7) -0.28520(8) 0.19517(6)
C15 C 0.11773(7) -0.33218(8) 0.13253(7)
C16 C 0.16952(8) -0.38665(8) 0.10207(7)
C17 C 0.23913(8) -0.39552(9) 0.13284(7)
C18 C 0.25574(7) -0.34952(9) 0.19407(7)
C19 C 0.20350(7) -0.29547(8) 0.22669(7)
C20 C 0.22885(7) -0.25205(9) 0.29140(7)
C21 C 0.18873(7) -0.22540(8) 0.34799(7)
C22 C 0.10886(7) -0.23430(8) 0.35963(7)
C23 C 0.08512(7) -0.23644(8) 0.43183(7)
C24 C 0.01177(8) -0.24988(9) 0.45036(7)
C25 C -0.04022(7) -0.26108(8) 0.39586(7)
C26 C -0.01876(7) -0.25411(8) 0.32420(7)
C27 C 0.05539(6) -0.23921(7) 0.30375(6)
C28 C 0.10818(6) -0.11432(8) 0.21373(6)
C29 C 0.17967(7) -0.11531(8) 0.16721(7)
C30 C 0.16901(7) -0.14015(8) 0.09509(7)
C31 C 0.22654(7) -0.14953(9) 0.04584(7)
C32 C 0.29905(7) -0.13498(9) 0.06765(7)
C33 C 0.31130(7) -0.10962(9) 0.13751(8)
C34 C 0.25378(7) -0.09740(8) 0.18810(7)
C35 C 0.27924(7) -0.06228(9) 0.25670(7)
C36 C 0.24165(7) -0.03446(9) 0.31391(7)
C37 C 0.16214(7) -0.03331(8) 0.32929(7)
C38 C 0.14404(8) 0.00476(9) 0.39605(7)
C39 C 0.07243(8) 0.01262(9) 0.42081(7)
C40 C 0.01482(8) -0.01708(9) 0.37805(7)
C41 C 0.03108(7) -0.05460(8) 0.31245(7)
C42 C 0.10376(7) -0.06606(8) 0.28608(6)
H1 H -0.04200 -0.33650 0.17680
H2 H -0.14190 -0.30580 0.09770
H3 H -0.03150 0.07640 0.07130
H4 H 0.07030 0.04680 0.14900
H5 H -0.20670 -0.15930 0.00600
H6 H -0.16360 -0.01200 -0.00390
H7 H 0.07040 -0.32650 0.11010
H8 H 0.15710 -0.41790 0.06000
H9 H 0.27490 -0.43260 0.11220
H10 H 0.30390 -0.35450 0.21480
H11 H 0.28080 -0.24110 0.29390
H12 H 0.21560 -0.19730 0.38510
H13 H 0.12080 -0.22840 0.46910
H14 H -0.00290 -0.25140 0.49960
H15 H -0.09050 -0.27350 0.40760
H16 H -0.05550 -0.25960 0.28760
H17 H 0.11970 -0.15110 0.07920
H18 H 0.21620 -0.16580 -0.00250
H19 H 0.33940 -0.14240 0.03510
H20 H 0.36110 -0.09980 0.15250
H21 H 0.33180 -0.05860 0.26130
H22 H 0.27190 -0.01140 0.35110
H23 H 0.18340 0.02590 0.42520
H24 H 0.06250 0.03790 0.46640
H25 H -0.03540 -0.01170 0.39360
H26 H -0.00920 -0.07370 0.28350
loop_
_geom_bond_atom_site_label_1
_geom_bond_atom_site_label_2
_geom_bond_distance
_geom_bond_site_symmetry_1
_geom_bond_site_symmetry_2
C1 C2 1.393 1_555 1_555
C2 C3 1.432 1_555 1_555
C3 C4 1.387 1_555 1_555
C4 C5 1.400 1_555 1_555
C5 C6 1.403 1_555 1_555
C6 C7 1.383 1_555 1_555
C7 C8 1.434 1_555 1_555
C8 C9 1.385 1_555 1_555
C9 C10 1.395 1_555 1_555
C10 C1 1.396 1_555 1_555
C11 C4 1.480 1_555 1_555
C12 C6 1.478 1_555 1_555
C13 C1 1.537 1_555 1_555
C14 C13 1.541 1_555 1_555
C15 C14 1.403 1_555 1_555
C16 C15 1.388 1_555 1_555
C17 C16 1.381 1_555 1_555
C18 C17 1.379 1_555 1_555
C19 C14 1.410 1_555 1_555
C20 C19 1.454 1_555 1_555
C21 C20 1.339 1_555 1_555
C22 C21 1.457 1_555 1_555
C23 C22 1.403 1_555 1_555
C24 C23 1.378 1_555 1_555
C25 C24 1.386 1_555 1_555
C26 C25 1.386 1_555 1_555
C27 C13 1.542 1_555 1_555
C28 C9 1.536 1_555 1_555
C29 C28 1.546 1_555 1_555
C30 C29 1.405 1_555 1_555
C31 C30 1.386 1_555 1_555
C32 C31 1.383 1_555 1_555
C33 C32 1.372 1_555 1_555
C34 C29 1.415 1_555 1_555
C35 C34 1.459 1_555 1_555
C36 C35 1.331 1_555 1_555
C37 C36 1.456 1_555 1_555
C38 C37 1.413 1_555 1_555
C39 C38 1.371 1_555 1_555
C40 C39 1.385 1_555 1_555
C41 C40 1.383 1_555 1_555
C42 C28 1.544 1_555 1_555
H1 C2 0.951 1_555 1_555
H2 C3 0.951 1_555 1_555
H3 C7 0.951 1_555 1_555
H4 C8 0.950 1_555 1_555
H5 C11 0.951 1_555 1_555
H6 C12 0.949 1_555 1_555
H7 C15 0.950 1_555 1_555
H8 C16 0.949 1_555 1_555
H9 C17 0.950 1_555 1_555
H10 C18 0.950 1_555 1_555
H11 C20 0.950 1_555 1_555
H12 C21 0.950 1_555 1_555
H13 C23 0.950 1_555 1_555
H14 C24 0.949 1_555 1_555
H15 C25 0.949 1_555 1_555
H16 C26 0.950 1_555 1_555
H17 C30 0.949 1_555 1_555
H18 C31 0.949 1_555 1_555
H19 C32 0.950 1_555 1_555
H20 C33 0.949 1_555 1_555
H21 C35 0.950 1_555 1_555
H22 C36 0.950 1_555 1_555
H23 C38 0.950 1_555 1_555
H24 C39 0.951 1_555 1_555
H25 C40 0.951 1_555 1_555
H26 C41 0.950 1_555 1_555
C5 C10 1.371 1_555 1_555
C11 C12 1.363 1_555 1_555
C13 C28 1.796 1_555 1_555
C18 C19 1.406 1_555 1_555
C22 C27 1.414 1_555 1_555
C26 C27 1.404 1_555 1_555
C33 C34 1.408 1_555 1_555
C37 C42 1.417 1_555 1_555
C41 C42 1.405 1_555 1_555
#END
