
#######################################################################
#
#                 Cambridge Crystallographic Data Centre
#                                CCDC
#
#######################################################################
#
# If this CIF has been generated from an entry in the Cambridge
# Structural Database, then it will include bibliographic, chemical,
# crystal, experimental, refinement or atomic coordinate data resulting
# from the CCDC's data processing and validation procedures.
#
#######################################################################

data_CSD_CIF_PEVQAL06
_audit_creation_date 2018-03-09
_audit_creation_method CSD-ConQuest-V1
_database_code_CSD PEVQAL06
_database_code_depnum_ccdc_archive 'CCDC 1567405'
_chemical_formula_sum 'C42 H26'
_chemical_formula_moiety
;
C42 H26
;
_journal_coden_Cambridge 1885
_journal_volume 4
_journal_year 2018
_journal_page_first 795
_journal_name_full 'CheM '
loop_
_publ_author_name
"Y.Ishigaki"
"T.Shimajiri"
"T.Takeda"
"R.Katoono"
"T.Suzuki"
_chemical_name_systematic
;
dispiro[dibenzo[a,d][7]annulene-5,1'-cyclopenta[fg]acenaphthylene-2',5''-diben
zo[a,d][7]annulene]
;
_cell_volume   5363.189
_exptl_crystal_colour 'orange'
_exptl_crystal_density_diffrn 1.314
_exptl_crystal_description 'platelet'
_diffrn_ambient_temperature 320
#These two values have been output from a single CSD field.
_refine_ls_R_factor_gt 0.0457
_refine_ls_wR_factor_gt 0.0457
_symmetry_cell_setting orthorhombic
_symmetry_space_group_name_H-M 'P b c a'
_symmetry_Int_Tables_number 61
loop_
_symmetry_equiv_pos_site_id
_symmetry_equiv_pos_as_xyz
1 x,y,z
2 1/2-x,-y,1/2+z
3 1/2+x,1/2-y,-z
4 -x,1/2+y,1/2-z
5 -x,-y,-z
6 -1/2+x,y,-1/2-z
7 -1/2-x,-1/2+y,z
8 x,-1/2-y,-1/2+z
_cell_length_a 18.0425(8)
_cell_length_b 15.9563(6)
_cell_length_c 18.6292(8)
_cell_angle_alpha 90
_cell_angle_beta 90
_cell_angle_gamma 90
_cell_formula_units_Z 8
loop_
_atom_type_symbol
_atom_type_radius_bond
C 0.68
H 0.23
loop_
_atom_site_label
_atom_site_type_symbol
_atom_site_fract_x
_atom_site_fract_y
_atom_site_fract_z
C1 C 0.00580(8) -0.21930(9) 0.17730(7)
C2 C -0.04558(8) -0.28008(10) 0.15765(8)
C3 C -0.10552(8) -0.26215(10) 0.11066(8)
C4 C -0.11553(8) -0.18246(10) 0.08302(7)
C5 C -0.06426(8) -0.12192(10) 0.10511(7)
C6 C -0.07596(8) -0.04319(10) 0.07366(8)
C7 C -0.02580(9) 0.01884(10) 0.09132(9)
C8 C 0.03524(8) 0.00143(10) 0.13785(8)
C9 C 0.04623(8) -0.07763(9) 0.16638(7)
C10 C -0.00586(8) -0.13907(9) 0.14941(7)
C11 C -0.16385(9) -0.13728(12) 0.03233(8)
C12 C -0.14072(9) -0.05666(12) 0.02710(8)
C13 C 0.07577(7) -0.22029(9) 0.22411(7)
C14 C 0.13290(8) -0.28350(9) 0.19523(7)
C15 C 0.11892(9) -0.3293(1) 0.13281(8)
C16 C 0.1703(1) -0.38341(11) 0.10259(10)
C17 C 0.23863(11) -0.39261(12) 0.1336(1)
C18 C 0.2547(1) -0.34813(12) 0.19438(10)
C19 C 0.20319(8) -0.29426(10) 0.22693(8)
C20 C 0.22771(9) -0.25201(11) 0.29163(9)
C21 C 0.18743(9) -0.22620(11) 0.34753(9)
C22 C 0.10816(9) -0.23477(9) 0.35857(8)
C23 C 0.08399(10) -0.23831(11) 0.42967(8)
C24 C 0.01159(11) -0.25131(12) 0.44770(9)
C25 C -0.03989(10) -0.26090(11) 0.39364(9)
C26 C -0.01830(9) -0.25304(10) 0.32281(8)
C27 C 0.05527(8) -0.23864(9) 0.30297(7)
C28 C 0.10779(7) -0.11392(9) 0.21362(7)
C29 C 0.17879(8) -0.11444(9) 0.16751(8)
C30 C 0.16864(9) -0.13822(10) 0.09579(8)
C31 C 0.22589(10) -0.14703(11) 0.04723(9)
C32 C 0.29741(10) -0.13291(12) 0.06875(10)
C33 C 0.30927(9) -0.10862(12) 0.1380(1)
C34 C 0.25234(9) -0.09701(10) 0.18810(9)
C35 C 0.27749(10) -0.06314(12) 0.2564(1)
C36 C 0.24017(10) -0.03582(12) 0.31329(10)
C37 C 0.16122(9) -0.03433(10) 0.32857(8)
C38 C 0.14290(11) 0.00337(11) 0.39462(9)
C39 C 0.07227(11) 0.01174(12) 0.41884(9)
C40 C 0.0154(1) -0.01708(11) 0.37663(9)
C41 C 0.03140(9) -0.05453(10) 0.31170(8)
C42 C 0.10325(8) -0.06641(9) 0.28555(7)
H1 H -0.04050 -0.33410 0.17580
H2 H -0.13850 -0.30460 0.09830
H3 H -0.03180 0.07250 0.07270
H4 H 0.06830 0.04420 0.14920
H5 H -0.20390 -0.16040 0.00780
H6 H -0.16260 -0.01590 -0.00170
H7 H 0.07310 -0.32320 0.11050
H8 H 0.15840 -0.41340 0.06140
H9 H 0.27360 -0.42860 0.11360
H10 H 0.30140 -0.35380 0.21490
H11 H 0.27830 -0.24150 0.29460
H12 H 0.21340 -0.19940 0.38400
H13 H 0.11860 -0.23150 0.46620
H14 H -0.00280 -0.25370 0.49560
H15 H -0.08910 -0.27260 0.40480
H16 H -0.05400 -0.25750 0.28700
H17 H 0.12060 -0.14870 0.08000
H18 H 0.21600 -0.16250 0.00010
H19 H 0.33680 -0.13970 0.03700
H20 H 0.35780 -0.09930 0.15270
H21 H 0.32870 -0.06000 0.26110
H22 H 0.26970 -0.01390 0.34960
H23 H 0.18120 0.02360 0.42320
H24 H 0.06270 0.03650 0.46310
H25 H -0.03350 -0.01140 0.39170
H26 H -0.00800 -0.07300 0.28360
loop_
_geom_bond_atom_site_label_1
_geom_bond_atom_site_label_2
_geom_bond_distance
_geom_bond_site_symmetry_1
_geom_bond_site_symmetry_2
C1 C2 1.391 1_555 1_555
C2 C3 1.420 1_555 1_555
C3 C4 1.384 1_555 1_555
C4 C5 1.399 1_555 1_555
C5 C6 1.402 1_555 1_555
C6 C7 1.381 1_555 1_555
C7 C8 1.429 1_555 1_555
C8 C9 1.383 1_555 1_555
C9 C10 1.394 1_555 1_555
C10 C1 1.398 1_555 1_555
C11 C4 1.474 1_555 1_555
C12 C6 1.471 1_555 1_555
C13 C1 1.534 1_555 1_555
C14 C13 1.539 1_555 1_555
C15 C14 1.396 1_555 1_555
C16 C15 1.386 1_555 1_555
C17 C16 1.369 1_555 1_555
C18 C17 1.367 1_555 1_555
C19 C14 1.409 1_555 1_555
C20 C19 1.450 1_555 1_555
C21 C20 1.335 1_555 1_555
C22 C21 1.451 1_555 1_555
C23 C22 1.396 1_555 1_555
C24 C23 1.365 1_555 1_555
C25 C24 1.379 1_555 1_555
C26 C25 1.382 1_555 1_555
C27 C13 1.543 1_555 1_555
C28 C9 1.531 1_555 1_555
C29 C28 1.542 1_555 1_555
C30 C29 1.401 1_555 1_555
C31 C30 1.380 1_555 1_555
C32 C31 1.370 1_555 1_555
C33 C32 1.364 1_555 1_555
C34 C29 1.409 1_555 1_555
C35 C34 1.455 1_555 1_555
C36 C35 1.329 1_555 1_555
C37 C36 1.453 1_555 1_555
C38 C37 1.409 1_555 1_555
C39 C38 1.358 1_555 1_555
C40 C39 1.372 1_555 1_555
C41 C40 1.380 1_555 1_555
C42 C28 1.542 1_555 1_555
H1 C2 0.930 1_555 1_555
H2 C3 0.931 1_555 1_555
H3 C7 0.930 1_555 1_555
H4 C8 0.931 1_555 1_555
H5 C11 0.931 1_555 1_555
H6 C12 0.931 1_555 1_555
H7 C15 0.930 1_555 1_555
H8 C16 0.929 1_555 1_555
H9 C17 0.931 1_555 1_555
H10 C18 0.930 1_555 1_555
H11 C20 0.930 1_555 1_555
H12 C21 0.930 1_555 1_555
H13 C23 0.930 1_555 1_555
H14 C24 0.930 1_555 1_555
H15 C25 0.931 1_555 1_555
H16 C26 0.930 1_555 1_555
H17 C30 0.930 1_555 1_555
H18 C31 0.929 1_555 1_555
H19 C32 0.931 1_555 1_555
H20 C33 0.929 1_555 1_555
H21 C35 0.929 1_555 1_555
H22 C36 0.929 1_555 1_555
H23 C38 0.930 1_555 1_555
H24 C39 0.930 1_555 1_555
H25 C40 0.930 1_555 1_555
H26 C41 0.931 1_555 1_555
C5 C10 1.366 1_555 1_555
C11 C12 1.356 1_555 1_555
C13 C28 1.804 1_555 1_555
C18 C19 1.404 1_555 1_555
C22 C27 1.410 1_555 1_555
C26 C27 1.397 1_555 1_555
C33 C34 1.400 1_555 1_555
C37 C42 1.414 1_555 1_555
C41 C42 1.398 1_555 1_555
#END
