
#######################################################################
#
#                 Cambridge Crystallographic Data Centre
#                                CCDC
#
#######################################################################
#
# If this CIF has been generated from an entry in the Cambridge
# Structural Database, then it will include bibliographic, chemical,
# crystal, experimental, refinement or atomic coordinate data resulting
# from the CCDC's data processing and validation procedures.
#
#######################################################################

data_CSD_CIF_PEVQAL03
_audit_creation_date 2018-03-09
_audit_creation_method CSD-ConQuest-V1
_database_code_CSD PEVQAL03
_database_code_depnum_ccdc_archive 'CCDC 1586195'
_chemical_formula_sum 'C42 H26'
_chemical_formula_moiety
;
C42 H26
;
_journal_coden_Cambridge 1885
_journal_volume 4
_journal_year 2018
_journal_page_first 795
_journal_name_full 'CheM '
loop_
_publ_author_name
"Y.Ishigaki"
"T.Shimajiri"
"T.Takeda"
"R.Katoono"
"T.Suzuki"
_chemical_name_systematic
;
dispiro[dibenzo[a,d][7]annulene-5,1'-cyclopenta[fg]acenaphthylene-2',5''-diben
zo[a,d][7]annulene]
;
_cell_volume   5279.091
_exptl_crystal_colour 'orange'
_exptl_crystal_density_diffrn 1.335
_exptl_crystal_description 'platelet'
_diffrn_ambient_temperature 160
#These two values have been output from a single CSD field.
_refine_ls_R_factor_gt 0.0415
_refine_ls_wR_factor_gt 0.0415
_symmetry_cell_setting orthorhombic
_symmetry_space_group_name_H-M 'P b c a'
_symmetry_Int_Tables_number 61
loop_
_symmetry_equiv_pos_site_id
_symmetry_equiv_pos_as_xyz
1 x,y,z
2 1/2-x,-y,1/2+z
3 1/2+x,1/2-y,-z
4 -x,1/2+y,1/2-z
5 -x,-y,-z
6 -1/2+x,y,-1/2-z
7 -1/2-x,-1/2+y,z
8 x,-1/2-y,-1/2+z
_cell_length_a 17.977(3)
_cell_length_b 15.846(3)
_cell_length_c 18.532(3)
_cell_angle_alpha 90
_cell_angle_beta 90
_cell_angle_gamma 90
_cell_formula_units_Z 8
loop_
_atom_type_symbol
_atom_type_radius_bond
C 0.68
H 0.23
loop_
_atom_site_label
_atom_site_type_symbol
_atom_site_fract_x
_atom_site_fract_y
_atom_site_fract_z
C1 C 0.00525(7) -0.21957(8) 0.17732(7)
C2 C -0.04679(7) -0.28073(9) 0.15785(7)
C3 C -0.10718(7) -0.26241(9) 0.11033(7)
C4 C -0.11671(7) -0.18176(9) 0.08255(7)
C5 C -0.06497(7) -0.12112(8) 0.10481(7)
C6 C -0.07611(7) -0.04174(9) 0.07300(7)
C7 C -0.02552(8) 0.02055(9) 0.09069(8)
C8 C 0.03577(8) 0.00275(9) 0.13745(7)
C9 C 0.04643(7) -0.07706(8) 0.16609(7)
C10 C -0.00616(7) -0.13883(8) 0.14935(7)
C11 C -0.16512(8) -0.13598(10) 0.03136(7)
C12 C -0.14141(8) -0.05472(10) 0.02609(7)
C13 C 0.07568(7) -0.22077(8) 0.22422(7)
C14 C 0.13267(7) -0.28490(8) 0.19523(7)
C15 C 0.11794(8) -0.33152(9) 0.13256(7)
C16 C 0.16966(8) -0.38600(9) 0.10217(8)
C17 C 0.23892(9) -0.39506(9) 0.13304(8)
C18 C 0.25549(8) -0.34932(10) 0.19415(8)
C19 C 0.20347(7) -0.29517(9) 0.22671(7)
C20 C 0.22865(8) -0.25203(9) 0.29152(8)
C21 C 0.18843(8) -0.22570(9) 0.34798(7)
C22 C 0.10869(7) -0.23444(8) 0.35938(7)
C23 C 0.08498(8) -0.23687(9) 0.43138(7)
C24 C 0.01181(8) -0.25001(10) 0.44977(8)
C25 C -0.04015(8) -0.26095(9) 0.39549(8)
C26 C -0.01863(8) -0.25375(8) 0.32382(7)
C27 C 0.05530(7) -0.23907(8) 0.30360(7)
C28 C 0.10816(7) -0.11426(8) 0.21375(7)
C29 C 0.17948(7) -0.11505(8) 0.16731(7)
C30 C 0.16897(8) -0.13977(9) 0.09527(7)
C31 C 0.22645(8) -0.14901(9) 0.04611(8)
C32 C 0.29878(8) -0.13456(10) 0.06783(8)
C33 C 0.31072(8) -0.10945(10) 0.13772(8)
C34 C 0.25354(8) -0.09733(9) 0.18811(8)
C35 C 0.27885(8) -0.06232(10) 0.25659(8)
C36 C 0.24142(8) -0.03486(10) 0.31378(8)
C37 C 0.16197(8) -0.03350(9) 0.32910(7)
C38 C 0.14383(9) 0.00446(10) 0.39574(8)
C39 C 0.07232(9) 0.01254(9) 0.42032(8)
C40 C 0.01502(9) -0.01709(9) 0.37764(8)
C41 C 0.03120(8) -0.05461(9) 0.31230(7)
C42 C 0.10362(7) -0.06602(8) 0.28603(7)
H1 H -0.04190 -0.33620 0.17670
H2 H -0.14120 -0.30580 0.09760
H3 H -0.03150 0.07580 0.07160
H4 H 0.06980 0.04650 0.14910
H5 H -0.20620 -0.15950 0.00620
H6 H -0.16360 -0.01260 -0.00340
H7 H 0.07080 -0.32560 0.11000
H8 H 0.15730 -0.41710 0.06000
H9 H 0.27460 -0.43220 0.11250
H10 H 0.30360 -0.35450 0.21490
H11 H 0.28050 -0.24110 0.29410
H12 H 0.21520 -0.19790 0.38520
H13 H 0.12060 -0.22920 0.46870
H14 H -0.00290 -0.25160 0.49900
H15 H -0.09040 -0.27330 0.40720
H16 H -0.05530 -0.25900 0.28720
H17 H 0.11970 -0.15080 0.07940
H18 H 0.21620 -0.16520 -0.00220
H19 H 0.33910 -0.14180 0.03530
H20 H 0.36050 -0.09970 0.15280
H21 H 0.33140 -0.05850 0.26110
H22 H 0.27170 -0.01220 0.35110
H23 H 0.18310 0.02540 0.42490
H24 H 0.06240 0.03800 0.46570
H25 H -0.03510 -0.01170 0.39310
H26 H -0.00910 -0.07380 0.28350
loop_
_geom_bond_atom_site_label_1
_geom_bond_atom_site_label_2
_geom_bond_distance
_geom_bond_site_symmetry_1
_geom_bond_site_symmetry_2
C1 C2 1.394 1_555 1_555
C2 C3 1.428 1_555 1_555
C3 C4 1.388 1_555 1_555
C4 C5 1.400 1_555 1_555
C5 C6 1.404 1_555 1_555
C6 C7 1.382 1_555 1_555
C7 C8 1.430 1_555 1_555
C8 C9 1.385 1_555 1_555
C9 C10 1.396 1_555 1_555
C10 C1 1.396 1_555 1_555
C11 C4 1.478 1_555 1_555
C12 C6 1.475 1_555 1_555
C13 C1 1.536 1_555 1_555
C14 C13 1.540 1_555 1_555
C15 C14 1.402 1_555 1_555
C16 C15 1.388 1_555 1_555
C17 C16 1.378 1_555 1_555
C18 C17 1.377 1_555 1_555
C19 C14 1.410 1_555 1_555
C20 C19 1.454 1_555 1_555
C21 C20 1.339 1_555 1_555
C22 C21 1.456 1_555 1_555
C23 C22 1.401 1_555 1_555
C24 C23 1.375 1_555 1_555
C25 C24 1.384 1_555 1_555
C26 C25 1.388 1_555 1_555
C27 C13 1.543 1_555 1_555
C28 C9 1.536 1_555 1_555
C29 C28 1.544 1_555 1_555
C30 C29 1.404 1_555 1_555
C31 C30 1.385 1_555 1_555
C32 C31 1.380 1_555 1_555
C33 C32 1.372 1_555 1_555
C34 C29 1.414 1_555 1_555
C35 C34 1.458 1_555 1_555
C36 C35 1.329 1_555 1_555
C37 C36 1.456 1_555 1_555
C38 C37 1.412 1_555 1_555
C39 C38 1.370 1_555 1_555
C40 C39 1.381 1_555 1_555
C41 C40 1.380 1_555 1_555
C42 C28 1.544 1_555 1_555
H1 C2 0.950 1_555 1_555
H2 C3 0.950 1_555 1_555
H3 C7 0.950 1_555 1_555
H4 C8 0.949 1_555 1_555
H5 C11 0.950 1_555 1_555
H6 C12 0.950 1_555 1_555
H7 C15 0.950 1_555 1_555
H8 C16 0.950 1_555 1_555
H9 C17 0.950 1_555 1_555
H10 C18 0.950 1_555 1_555
H11 C20 0.949 1_555 1_555
H12 C21 0.949 1_555 1_555
H13 C23 0.950 1_555 1_555
H14 C24 0.950 1_555 1_555
H15 C25 0.949 1_555 1_555
H16 C26 0.950 1_555 1_555
H17 C30 0.950 1_555 1_555
H18 C31 0.949 1_555 1_555
H19 C32 0.950 1_555 1_555
H20 C33 0.950 1_555 1_555
H21 C35 0.950 1_555 1_555
H22 C36 0.951 1_555 1_555
H23 C38 0.949 1_555 1_555
H24 C39 0.950 1_555 1_555
H25 C40 0.949 1_555 1_555
H26 C41 0.950 1_555 1_555
C5 C10 1.370 1_555 1_555
C11 C12 1.360 1_555 1_555
C13 C28 1.796 1_555 1_555
C18 C19 1.405 1_555 1_555
C22 C27 1.412 1_555 1_555
C26 C27 1.400 1_555 1_555
C33 C34 1.402 1_555 1_555
C37 C42 1.415 1_555 1_555
C41 C42 1.402 1_555 1_555
#END
