
#######################################################################
#
#                 Cambridge Crystallographic Data Centre
#                                CCDC
#
#######################################################################
#
# If this CIF has been generated from an entry in the Cambridge
# Structural Database, then it will include bibliographic, chemical,
# crystal, experimental, refinement or atomic coordinate data resulting
# from the CCDC's data processing and validation procedures.
#
#######################################################################

data_CSD_CIF_PEVQAL
_audit_creation_date 2018-03-09
_audit_creation_method CSD-ConQuest-V1
_database_code_CSD PEVQAL
_database_code_depnum_ccdc_archive 'CCDC 1567402'
_chemical_formula_sum 'C42 H26'
_chemical_formula_moiety
;
C42 H26
;
_journal_coden_Cambridge 1885
_journal_volume 4
_journal_year 2018
_journal_page_first 795
_journal_name_full 'CheM '
loop_
_publ_author_name
"Y.Ishigaki"
"T.Shimajiri"
"T.Takeda"
"R.Katoono"
"T.Suzuki"
_chemical_name_systematic
;
dispiro[dibenzo[a,d][7]annulene-5,1'-cyclopenta[fg]acenaphthylene-2',5''-diben
zo[a,d][7]annulene]
;
_cell_volume   5293.988
_exptl_crystal_colour 'orange'
_exptl_crystal_density_diffrn 1.332
_exptl_crystal_description 'platelet'
_diffrn_ambient_temperature 200
#These two values have been output from a single CSD field.
_refine_ls_R_factor_gt 0.0415
_refine_ls_wR_factor_gt 0.0415
_symmetry_cell_setting orthorhombic
_symmetry_space_group_name_H-M 'P b c a'
_symmetry_Int_Tables_number 61
loop_
_symmetry_equiv_pos_site_id
_symmetry_equiv_pos_as_xyz
1 x,y,z
2 1/2-x,-y,1/2+z
3 1/2+x,1/2-y,-z
4 -x,1/2+y,1/2-z
5 -x,-y,-z
6 -1/2+x,y,-1/2-z
7 -1/2-x,-1/2+y,z
8 x,-1/2-y,-1/2+z
_cell_length_a 17.983(3)
_cell_length_b 15.870(3)
_cell_length_c 18.550(3)
_cell_angle_alpha 90
_cell_angle_beta 90
_cell_angle_gamma 90
_cell_formula_units_Z 8
loop_
_atom_type_symbol
_atom_type_radius_bond
C 0.68
H 0.23
loop_
_atom_site_label
_atom_site_type_symbol
_atom_site_fract_x
_atom_site_fract_y
_atom_site_fract_z
C1 C 0.00530(7) -0.21949(8) 0.17729(6)
C2 C -0.04639(7) -0.28062(8) 0.15783(7)
C3 C -0.10693(7) -0.26234(9) 0.11039(7)
C4 C -0.11647(7) -0.18194(9) 0.08273(6)
C5 C -0.06483(7) -0.12131(8) 0.10475(6)
C6 C -0.07614(7) -0.04217(9) 0.07321(7)
C7 C -0.02563(8) 0.02016(9) 0.09085(7)
C8 C 0.03568(7) 0.00243(9) 0.13760(7)
C9 C 0.04634(7) -0.07721(8) 0.16612(6)
C10 C -0.00615(7) -0.13881(8) 0.14938(6)
C11 C -0.16477(7) -0.13619(10) 0.03156(7)
C12 C -0.14127(7) -0.05512(10) 0.02621(7)
C13 C 0.07568(6) -0.22060(8) 0.22426(6)
C14 C 0.13277(7) -0.28467(8) 0.19518(7)
C15 C 0.11815(7) -0.33097(9) 0.13268(7)
C16 C 0.16979(8) -0.38539(9) 0.10229(8)
C17 C 0.23898(9) -0.39433(10) 0.13320(8)
C18 C 0.25540(8) -0.34896(10) 0.19416(8)
C19 C 0.20336(7) -0.29495(9) 0.22678(7)
C20 C 0.22848(7) -0.25206(9) 0.29146(7)
C21 C 0.18831(8) -0.22567(9) 0.34779(7)
C22 C 0.10854(7) -0.23444(8) 0.35918(7)
C23 C 0.08471(8) -0.23716(9) 0.43099(7)
C24 C 0.01158(9) -0.25045(10) 0.44930(7)
C25 C -0.04010(8) -0.26105(9) 0.39502(8)
C26 C -0.01852(7) -0.25374(8) 0.32364(7)
C27 C 0.05536(7) -0.23889(8) 0.30346(6)
C28 C 0.10804(6) -0.11412(8) 0.21368(6)
C29 C 0.17937(7) -0.11504(8) 0.16731(7)
C30 C 0.16880(7) -0.13938(9) 0.09529(7)
C31 C 0.22633(8) -0.14851(9) 0.04632(8)
C32 C 0.29853(8) -0.13419(10) 0.06802(8)
C33 C 0.31057(8) -0.10928(10) 0.13769(8)
C34 C 0.25328(7) -0.09720(9) 0.18807(7)
C35 C 0.27872(8) -0.06249(10) 0.25653(8)
C36 C 0.24104(8) -0.03515(10) 0.31362(8)
C37 C 0.16176(8) -0.03373(9) 0.32897(7)
C38 C 0.14366(9) 0.00427(10) 0.39548(8)
C39 C 0.07235(9) 0.01223(10) 0.42006(8)
C40 C 0.01502(8) -0.01712(9) 0.37752(8)
C41 C 0.03111(7) -0.05453(8) 0.31212(7)
C42 C 0.10357(7) -0.06614(8) 0.28587(7)
H1 H -0.04130 -0.33600 0.17660
H2 H -0.14090 -0.30570 0.09770
H3 H -0.03170 0.07530 0.07170
H4 H 0.06970 0.04610 0.14930
H5 H -0.20580 -0.15980 0.00640
H6 H -0.16340 -0.01310 -0.00330
H7 H 0.07100 -0.32500 0.11010
H8 H 0.15740 -0.41640 0.06020
H9 H 0.27470 -0.43130 0.11270
H10 H 0.30350 -0.35420 0.21500
H11 H 0.28040 -0.24130 0.29410
H12 H 0.21510 -0.19780 0.38490
H13 H 0.12030 -0.22960 0.46830
H14 H -0.00320 -0.25230 0.49850
H15 H -0.09040 -0.27330 0.40660
H16 H -0.05520 -0.25900 0.28700
H17 H 0.11950 -0.15020 0.07930
H18 H 0.21610 -0.16460 -0.00200
H19 H 0.33880 -0.14140 0.03550
H20 H 0.36030 -0.09960 0.15280
H21 H 0.33120 -0.05870 0.26120
H22 H 0.27120 -0.01260 0.35090
H23 H 0.18300 0.02530 0.42460
H24 H 0.06250 0.03750 0.46550
H25 H -0.03510 -0.01170 0.39310
H26 H -0.00920 -0.07350 0.28330
loop_
_geom_bond_atom_site_label_1
_geom_bond_atom_site_label_2
_geom_bond_distance
_geom_bond_site_symmetry_1
_geom_bond_site_symmetry_2
C1 C2 1.391 1_555 1_555
C2 C3 1.430 1_555 1_555
C3 C4 1.386 1_555 1_555
C4 C5 1.398 1_555 1_555
C5 C6 1.400 1_555 1_555
C6 C7 1.382 1_555 1_555
C7 C8 1.431 1_555 1_555
C8 C9 1.383 1_555 1_555
C9 C10 1.394 1_555 1_555
C10 C1 1.396 1_555 1_555
C11 C4 1.477 1_555 1_555
C12 C6 1.474 1_555 1_555
C13 C1 1.537 1_555 1_555
C14 C13 1.542 1_555 1_555
C15 C14 1.398 1_555 1_555
C16 C15 1.388 1_555 1_555
C17 C16 1.377 1_555 1_555
C18 C17 1.373 1_555 1_555
C19 C14 1.408 1_555 1_555
C20 C19 1.452 1_555 1_555
C21 C20 1.338 1_555 1_555
C22 C21 1.457 1_555 1_555
C23 C22 1.400 1_555 1_555
C24 C23 1.375 1_555 1_555
C25 C24 1.381 1_555 1_555
C26 C25 1.385 1_555 1_555
C27 C13 1.541 1_555 1_555
C28 C9 1.534 1_555 1_555
C29 C28 1.545 1_555 1_555
C30 C29 1.404 1_555 1_555
C31 C30 1.384 1_555 1_555
C32 C31 1.378 1_555 1_555
C33 C32 1.369 1_555 1_555
C34 C29 1.412 1_555 1_555
C35 C34 1.458 1_555 1_555
C36 C35 1.330 1_555 1_555
C37 C36 1.454 1_555 1_555
C38 C37 1.411 1_555 1_555
C39 C38 1.367 1_555 1_555
C40 C39 1.379 1_555 1_555
C41 C40 1.381 1_555 1_555
C42 C28 1.543 1_555 1_555
H1 C2 0.950 1_555 1_555
H2 C3 0.950 1_555 1_555
H3 C7 0.951 1_555 1_555
H4 C8 0.950 1_555 1_555
H5 C11 0.950 1_555 1_555
H6 C12 0.950 1_555 1_555
H7 C15 0.950 1_555 1_555
H8 C16 0.949 1_555 1_555
H9 C17 0.949 1_555 1_555
H10 C18 0.951 1_555 1_555
H11 C20 0.950 1_555 1_555
H12 C21 0.950 1_555 1_555
H13 C23 0.950 1_555 1_555
H14 C24 0.951 1_555 1_555
H15 C25 0.950 1_555 1_555
H16 C26 0.951 1_555 1_555
H17 C30 0.951 1_555 1_555
H18 C31 0.950 1_555 1_555
H19 C32 0.949 1_555 1_555
H20 C33 0.950 1_555 1_555
H21 C35 0.950 1_555 1_555
H22 C36 0.949 1_555 1_555
H23 C38 0.951 1_555 1_555
H24 C39 0.950 1_555 1_555
H25 C40 0.950 1_555 1_555
H26 C41 0.950 1_555 1_555
C5 C10 1.370 1_555 1_555
C11 C12 1.358 1_555 1_555
C13 C28 1.798 1_555 1_555
C18 C19 1.406 1_555 1_555
C22 C27 1.410 1_555 1_555
C26 C27 1.400 1_555 1_555
C33 C34 1.404 1_555 1_555
C37 C42 1.414 1_555 1_555
C41 C42 1.403 1_555 1_555
#END
