
#######################################################################
#
#                 Cambridge Crystallographic Data Centre
#                                CCDC
#
#######################################################################
#
# If this CIF has been generated from an entry in the Cambridge
# Structural Database, then it will include bibliographic, chemical,
# crystal, experimental, refinement or atomic coordinate data resulting
# from the CCDC's data processing and validation procedures.
#
#######################################################################

data_CSD_CIF_PEVQAL04
_audit_creation_date 2018-03-09
_audit_creation_method CSD-ConQuest-V1
_database_code_CSD PEVQAL04
_database_code_depnum_ccdc_archive 'CCDC 1567403'
_chemical_formula_sum 'C42 H26'
_chemical_formula_moiety
;
C42 H26
;
_journal_coden_Cambridge 1885
_journal_volume 4
_journal_year 2018
_journal_page_first 795
_journal_name_full 'CheM '
loop_
_publ_author_name
"Y.Ishigaki"
"T.Shimajiri"
"T.Takeda"
"R.Katoono"
"T.Suzuki"
_chemical_name_systematic
;
dispiro[dibenzo[a,d][7]annulene-5,1'-cyclopenta[fg]acenaphthylene-2',5''-diben
zo[a,d][7]annulene]
;
_cell_volume   5318.452
_exptl_crystal_colour 'orange'
_exptl_crystal_density_diffrn 1.325
_exptl_crystal_description 'platelet'
_diffrn_ambient_temperature 240
#These two values have been output from a single CSD field.
_refine_ls_R_factor_gt 0.0429
_refine_ls_wR_factor_gt 0.0429
_symmetry_cell_setting orthorhombic
_symmetry_space_group_name_H-M 'P b c a'
_symmetry_Int_Tables_number 61
loop_
_symmetry_equiv_pos_site_id
_symmetry_equiv_pos_as_xyz
1 x,y,z
2 1/2-x,-y,1/2+z
3 1/2+x,1/2-y,-z
4 -x,1/2+y,1/2-z
5 -x,-y,-z
6 -1/2+x,y,-1/2-z
7 -1/2-x,-1/2+y,z
8 x,-1/2-y,-1/2+z
_cell_length_a 18.005(3)
_cell_length_b 15.899(3)
_cell_length_c 18.579(3)
_cell_angle_alpha 90
_cell_angle_beta 90
_cell_angle_gamma 90
_cell_formula_units_Z 8
loop_
_atom_type_symbol
_atom_type_radius_bond
C 0.68
H 0.23
loop_
_atom_site_label
_atom_site_type_symbol
_atom_site_fract_x
_atom_site_fract_y
_atom_site_fract_z
C1 C 0.00557(7) -0.21948(8) 0.17733(7)
C2 C -0.04607(8) -0.28038(9) 0.15779(7)
C3 C -0.10643(8) -0.26226(9) 0.11051(7)
C4 C -0.11605(7) -0.18210(9) 0.08279(7)
C5 C -0.06459(7) -0.12158(9) 0.10493(7)
C6 C -0.07608(8) -0.04251(9) 0.07336(7)
C7 C -0.02576(8) 0.01969(10) 0.09105(8)
C8 C 0.03544(8) 0.00209(9) 0.13768(8)
C9 C 0.04628(7) -0.07731(8) 0.16622(7)
C10 C -0.00608(7) -0.13883(8) 0.14952(7)
C11 C -0.16435(8) -0.13663(11) 0.03192(8)
C12 C -0.14095(8) -0.05568(10) 0.02642(8)
C13 C 0.07573(7) -0.22043(8) 0.22421(7)
C14 C 0.13279(8) -0.28423(8) 0.19517(7)
C15 C 0.11837(8) -0.33042(9) 0.13274(8)
C16 C 0.16999(9) -0.38467(10) 0.10256(9)
C17 C 0.23883(10) -0.39377(10) 0.13323(9)
C18 C 0.25509(9) -0.34869(10) 0.19426(9)
C19 C 0.20323(8) -0.29467(9) 0.22690(8)
C20 C 0.22812(8) -0.25211(10) 0.29152(8)
C21 C 0.18798(9) -0.22594(10) 0.34770(8)
C22 C 0.10838(8) -0.23457(9) 0.35895(7)
C23 C 0.08443(9) -0.23767(10) 0.43049(8)
C24 C 0.01155(10) -0.25076(10) 0.44863(8)
C25 C -0.03999(9) -0.2610(1) 0.39443(8)
C26 C -0.01853(8) -0.25330(9) 0.32327(8)
C27 C 0.05531(7) -0.23877(8) 0.30320(7)
C28 C 0.10794(7) -0.11405(8) 0.21365(7)
C29 C 0.17916(8) -0.11462(8) 0.16741(7)
C30 C 0.16886(8) -0.13883(9) 0.09545(8)
C31 C 0.22612(9) -0.14793(10) 0.04663(9)
C32 C 0.29808(9) -0.13362(10) 0.06836(9)
C33 C 0.31012(9) -0.10902(11) 0.13783(9)
C34 C 0.25296(8) -0.09711(9) 0.18812(8)
C35 C 0.27817(9) -0.06281(11) 0.25638(9)
C36 C 0.24068(9) -0.03538(11) 0.31346(9)
C37 C 0.16151(9) -0.03387(9) 0.32881(8)
C38 C 0.14346(10) 0.0039(1) 0.39510(9)
C39 C 0.0723(1) 0.01207(10) 0.41950(9)
C40 C 0.01513(9) -0.01711(10) 0.37712(8)
C41 C 0.03122(8) -0.05457(9) 0.31189(8)
C42 C 0.10346(8) -0.06627(8) 0.28582(7)
H1 H -0.04110 -0.33510 0.17630
H2 H -0.14000 -0.30510 0.09800
H3 H -0.03180 0.07410 0.07220
H4 H 0.06900 0.04540 0.14920
H5 H -0.20490 -0.16000 0.00720
H6 H -0.16280 -0.01440 -0.00290
H7 H 0.07190 -0.32450 0.11030
H8 H 0.15780 -0.41530 0.06090
H9 H 0.27420 -0.43020 0.11290
H10 H 0.30250 -0.35410 0.21490
H11 H 0.27940 -0.24150 0.29430
H12 H 0.21440 -0.19860 0.38450
H13 H 0.11950 -0.23050 0.46740
H14 H -0.00310 -0.25270 0.49720
H15 H -0.08970 -0.27320 0.40580
H16 H -0.05480 -0.25800 0.28710
H17 H 0.12020 -0.14950 0.07960
H18 H 0.21600 -0.16380 -0.00110
H19 H 0.33790 -0.14060 0.03620
H20 H 0.35930 -0.09960 0.15270
H21 H 0.33010 -0.05940 0.26100
H22 H 0.27060 -0.01310 0.35030
H23 H 0.18230 0.02450 0.42390
H24 H 0.06250 0.03710 0.46430
H25 H -0.03440 -0.01160 0.39240
H26 H -0.00860 -0.07330 0.28330
loop_
_geom_bond_atom_site_label_1
_geom_bond_atom_site_label_2
_geom_bond_distance
_geom_bond_site_symmetry_1
_geom_bond_site_symmetry_2
C1 C2 1.391 1_555 1_555
C2 C3 1.427 1_555 1_555
C3 C4 1.385 1_555 1_555
C4 C5 1.398 1_555 1_555
C5 C6 1.403 1_555 1_555
C6 C7 1.381 1_555 1_555
C7 C8 1.429 1_555 1_555
C8 C9 1.383 1_555 1_555
C9 C10 1.393 1_555 1_555
C10 C1 1.398 1_555 1_555
C11 C4 1.474 1_555 1_555
C12 C6 1.473 1_555 1_555
C13 C1 1.534 1_555 1_555
C14 C13 1.541 1_555 1_555
C15 C14 1.397 1_555 1_555
C16 C15 1.386 1_555 1_555
C17 C16 1.372 1_555 1_555
C18 C17 1.373 1_555 1_555
C19 C14 1.408 1_555 1_555
C20 C19 1.449 1_555 1_555
C21 C20 1.336 1_555 1_555
C22 C21 1.455 1_555 1_555
C23 C22 1.398 1_555 1_555
C24 C23 1.371 1_555 1_555
C25 C24 1.379 1_555 1_555
C26 C25 1.383 1_555 1_555
C27 C13 1.541 1_555 1_555
C28 C9 1.533 1_555 1_555
C29 C28 1.544 1_555 1_555
C30 C29 1.404 1_555 1_555
C31 C30 1.381 1_555 1_555
C32 C31 1.376 1_555 1_555
C33 C32 1.366 1_555 1_555
C34 C29 1.411 1_555 1_555
C35 C34 1.453 1_555 1_555
C36 C35 1.331 1_555 1_555
C37 C36 1.454 1_555 1_555
C38 C37 1.408 1_555 1_555
C39 C38 1.365 1_555 1_555
C40 C39 1.376 1_555 1_555
C41 C40 1.381 1_555 1_555
C42 C28 1.543 1_555 1_555
H1 C2 0.940 1_555 1_555
H2 C3 0.940 1_555 1_555
H3 C7 0.940 1_555 1_555
H4 C8 0.941 1_555 1_555
H5 C11 0.939 1_555 1_555
H6 C12 0.939 1_555 1_555
H7 C15 0.940 1_555 1_555
H8 C16 0.940 1_555 1_555
H9 C17 0.940 1_555 1_555
H10 C18 0.940 1_555 1_555
H11 C20 0.940 1_555 1_555
H12 C21 0.940 1_555 1_555
H13 C23 0.939 1_555 1_555
H14 C24 0.941 1_555 1_555
H15 C25 0.940 1_555 1_555
H16 C26 0.940 1_555 1_555
H17 C30 0.940 1_555 1_555
H18 C31 0.940 1_555 1_555
H19 C32 0.940 1_555 1_555
H20 C33 0.940 1_555 1_555
H21 C35 0.940 1_555 1_555
H22 C36 0.940 1_555 1_555
H23 C38 0.939 1_555 1_555
H24 C39 0.939 1_555 1_555
H25 C40 0.940 1_555 1_555
H26 C41 0.941 1_555 1_555
C5 C10 1.368 1_555 1_555
C11 C12 1.358 1_555 1_555
C13 C28 1.799 1_555 1_555
C18 C19 1.406 1_555 1_555
C22 C27 1.411 1_555 1_555
C26 C27 1.400 1_555 1_555
C33 C34 1.403 1_555 1_555
C37 C42 1.413 1_555 1_555
C41 C42 1.400 1_555 1_555
#END
