
#######################################################################
#
#                 Cambridge Crystallographic Data Centre
#                                CCDC
#
#######################################################################
#
# If this CIF has been generated from an entry in the Cambridge
# Structural Database, then it will include bibliographic, chemical,
# crystal, experimental, refinement or atomic coordinate data resulting
# from the CCDC's data processing and validation procedures.
#
#######################################################################

data_CSD_CIF_PEVRIU02
_audit_creation_date 2018-03-09
_audit_creation_method CSD-ConQuest-V1
_database_code_CSD PEVRIU02
_database_code_depnum_ccdc_archive 'CCDC 1567390'
_chemical_formula_sum 'C40 H26'
_chemical_formula_moiety
;
C40 H26
;
_journal_coden_Cambridge 1885
_journal_volume 4
_journal_year 2018
_journal_page_first 795
_journal_name_full 'CheM '
loop_
_publ_author_name
"Y.Ishigaki"
"T.Shimajiri"
"T.Takeda"
"R.Katoono"
"T.Suzuki"
_chemical_name_systematic
;
dispiro[dibenzo[a,d][7]annulene-5,1'-acenaphthylene-2',5''-dibenzo[a,d][7]annu
lene]
;
_cell_volume   3850.152
_exptl_crystal_colour 'colorless'
_exptl_crystal_density_diffrn 1.311
_exptl_crystal_description 'platelet'
_diffrn_ambient_temperature 200
#These two values have been output from a single CSD field.
_refine_ls_R_factor_gt 0.0507
_refine_ls_wR_factor_gt 0.0507
_symmetry_cell_setting triclinic
_symmetry_space_group_name_H-M 'P -1'
_symmetry_Int_Tables_number 2
loop_
_symmetry_equiv_pos_site_id
_symmetry_equiv_pos_as_xyz
1 x,y,z
2 -x,-y,-z
_cell_length_a 10.931(2)
_cell_length_b 15.103(3)
_cell_length_c 23.692(5)
_cell_angle_alpha 98.979(4)
_cell_angle_beta 90.644(3)
_cell_angle_gamma 94.544(3)
_cell_formula_units_Z 6
loop_
_atom_type_symbol
_atom_type_radius_bond
C 0.68
H 0.23
loop_
_atom_site_label
_atom_site_type_symbol
_atom_site_fract_x
_atom_site_fract_y
_atom_site_fract_z
C1 C 0.02361(14) 0.26109(10) 0.54325(6)
C2 C -0.03284(16) 0.27798(11) 0.59526(7)
C3 C -0.16198(16) 0.27689(12) 0.59675(7)
C4 C -0.23525(16) 0.25906(12) 0.54826(7)
C5 C -0.18145(15) 0.23901(11) 0.49431(7)
C6 C -0.24367(16) 0.21649(12) 0.44040(7)
C7 C -0.17850(16) 0.19637(12) 0.39139(7)
C8 C -0.04903(15) 0.19971(11) 0.39214(6)
C9 C 0.01397(14) 0.22319(10) 0.44361(6)
C10 C -0.05209(14) 0.24095(10) 0.49382(6)
C11 C 0.16029(14) 0.25937(11) 0.52944(6)
C12 C 0.21728(15) 0.18425(11) 0.55554(6)
C13 C 0.14788(16) 0.12961(12) 0.58825(7)
C14 C 0.19112(18) 0.05441(13) 0.60549(8)
C15 C 0.30621(19) 0.02954(13) 0.58977(8)
C16 C 0.37849(17) 0.08292(13) 0.55900(8)
C17 C 0.33828(15) 0.16193(12) 0.54310(6)
C18 C 0.42665(15) 0.21421(13) 0.51360(7)
C19 C 0.43455(16) 0.30260(13) 0.51254(7)
C20 C 0.35657(16) 0.36900(12) 0.54095(7)
C21 C 0.41360(19) 0.45557(14) 0.55772(9)
C22 C 0.3512(3) 0.52438(14) 0.58613(10)
C23 C 0.2297(2) 0.50713(14) 0.59845(9)
C24 C 0.17126(18) 0.42238(12) 0.58129(7)
C25 C 0.23083(15) 0.35133(11) 0.55179(6)
C26 C 0.15277(14) 0.23561(10) 0.45508(6)
C27 C 0.20155(14) 0.14351(10) 0.43392(6)
C28 C 0.13290(15) 0.07015(11) 0.45141(6)
C29 C 0.16920(16) -0.01637(11) 0.44338(7)
C30 C 0.27638(17) -0.03425(12) 0.41507(7)
C31 C 0.34166(16) 0.03472(12) 0.39420(7)
C32 C 0.30768(15) 0.12358(11) 0.40250(6)
C33 C 0.38790(16) 0.18535(12) 0.37561(7)
C34 C 0.38144(16) 0.27182(12) 0.37120(7)
C35 C 0.29397(15) 0.33531(11) 0.39310(6)
C36 C 0.31360(17) 0.41965(12) 0.37490(7)
C37 C 0.24362(18) 0.48994(13) 0.39162(8)
C38 C 0.14741(18) 0.47695(12) 0.42787(8)
C39 C 0.12434(16) 0.39430(11) 0.44515(7)
C40 C 0.19545(15) 0.32130(11) 0.42964(6)
H1 H 0.01490 0.29020 0.62980
H2 H -0.19970 0.28900 0.63280
H3 H -0.32180 0.26020 0.55100
H4 H -0.33060 0.21530 0.43820
H5 H -0.22200 0.17970 0.35590
H6 H -0.00610 0.18600 0.35770
H7 H 0.06790 0.14500 0.59900
H8 H 0.14170 0.01980 0.62810
H9 H 0.33520 -0.02360 0.60000
H10 H 0.45780 0.06580 0.54820
H11 H 0.48620 0.18140 0.49240
H12 H 0.49880 0.32490 0.49060
H13 H 0.49750 0.46730 0.54930
H14 H 0.39150 0.58270 0.59700
H15 H 0.18600 0.55350 0.61870
H16 H 0.08720 0.41210 0.58990
H17 H 0.05740 0.08070 0.46980
H18 H 0.12090 -0.06320 0.45720
H19 H 0.30440 -0.09290 0.41010
H20 H 0.41330 0.02170 0.37310
H21 H 0.45720 0.15950 0.35810
H22 H 0.44550 0.29610 0.35000
H23 H 0.37890 0.42820 0.34970
H24 H 0.26050 0.54610 0.37870
H25 H 0.09780 0.52460 0.44070
H26 H 0.05630 0.38630 0.46890
C41 C -0.15752(16) 0.13752(11) 0.76798(7)
C42 C -0.13308(17) 0.07831(13) 0.71988(8)
C43 C -0.13222(18) -0.01412(13) 0.72305(9)
C44 C -0.15415(18) -0.04772(12) 0.77298(9)
C45 C -0.17859(17) 0.01097(12) 0.82351(8)
C46 C -0.20327(19) -0.01250(14) 0.87815(9)
C47 C -0.22827(19) 0.05251(14) 0.92277(9)
C48 C -0.22966(18) 0.14390(13) 0.91693(7)
C49 C -0.20449(16) 0.16896(11) 0.86463(7)
C50 C -0.18003(15) 0.10298(11) 0.81887(7)
C51 C -0.16908(15) 0.23909(11) 0.77553(6)
C52 C -0.28110(15) 0.25622(11) 0.73889(6)
C53 C -0.35998(16) 0.18326(12) 0.71298(7)
C54 C -0.46357(18) 0.19325(14) 0.68128(8)
C55 C -0.49424(18) 0.27767(15) 0.67426(7)
C56 C -0.42016(17) 0.35083(14) 0.70025(7)
C57 C -0.31415(16) 0.34256(12) 0.73261(6)
C58 C -0.24606(18) 0.42686(12) 0.75709(8)
C59 C -0.12433(19) 0.44245(13) 0.76681(9)
C60 C -0.03054(16) 0.37923(11) 0.75501(7)
C61 C 0.08343(18) 0.41640(13) 0.73965(8)
C62 C 0.18143(18) 0.36618(14) 0.72692(8)
C63 C 0.16772(18) 0.27648(14) 0.73150(9)
C64 C 0.05603(17) 0.23843(13) 0.74729(8)
C65 C -0.04702(15) 0.28677(11) 0.75845(6)
C66 C -0.19769(16) 0.26334(11) 0.84729(6)
C67 C -0.32652(16) 0.29705(12) 0.85729(6)
C68 C -0.42544(18) 0.23177(14) 0.84569(8)
C69 C -0.5471(2) 0.24977(18) 0.84846(11)
C70 C -0.5751(3) 0.33778(18) 0.8650(1)
C71 C -0.4811(3) 0.40355(16) 0.87718(9)
C72 C -0.3577(2) 0.38632(13) 0.87378(8)
C73 C -0.2752(3) 0.46653(15) 0.89113(9)
C74 C -0.1546(3) 0.47585(15) 0.90225(10)
C75 C -0.06702(19) 0.40859(13) 0.90132(8)
C76 C 0.0449(3) 0.44330(15) 0.92855(9)
C77 C 0.1384(3) 0.39222(17) 0.93644(10)
C78 C 0.1235(3) 0.30103(17) 0.91421(11)
C79 C 0.01369(19) 0.26577(14) 0.88743(9)
C80 C -0.08462(16) 0.31614(11) 0.88004(6)
H27 H -0.11690 0.09960 0.68480
H28 H -0.11600 -0.05450 0.68960
H29 H -0.15290 -0.11040 0.77360
H30 H -0.20250 -0.07330 0.88390
H31 H -0.24530 0.03530 0.95890
H32 H -0.24770 0.18740 0.94860
H33 H -0.34150 0.12430 0.71740
H34 H -0.51390 0.14160 0.66420
H35 H -0.56460 0.28510 0.65210
H36 H -0.44140 0.40930 0.69620
H37 H -0.29340 0.47680 0.76740
H38 H -0.09600 0.50200 0.78340
H39 H 0.09320 0.47900 0.73800
H40 H 0.25680 0.39270 0.71530
H41 H 0.23480 0.24040 0.72380
H42 H 0.04940 0.17640 0.75070
H43 H -0.40760 0.17090 0.83520
H44 H -0.61050 0.20270 0.83920
H45 H -0.65810 0.35220 0.86780
H46 H -0.50070 0.46380 0.88850
H47 H -0.31360 0.52140 0.89520
H48 H -0.12080 0.53620 0.91240
H49 H 0.05600 0.50600 0.94220
H50 H 0.21170 0.41790 0.95650
H51 H 0.18810 0.26350 0.91740
H52 H 0.00470 0.20320 0.87320
C81 C 0.07601(16) -0.22125(11) 0.88878(7)
C82 C -0.00481(18) -0.22288(14) 0.93286(8)
C83 C -0.12854(19) -0.25575(15) 0.92037(9)
C84 C -0.17232(17) -0.28682(13) 0.86613(9)
C85 C -0.09207(16) -0.28715(11) 0.81959(8)
C86 C -0.12060(17) -0.31945(12) 0.76115(8)
C87 C -0.03148(17) -0.31907(13) 0.72114(7)
C88 C 0.09116(17) -0.28556(12) 0.73598(7)
C89 C 0.12124(15) -0.25184(11) 0.79198(7)
C90 C 0.03093(15) -0.25362(11) 0.83322(7)
C91 C 0.21336(15) -0.18950(11) 0.88975(6)
C92 C 0.28796(16) -0.24460(11) 0.92587(6)
C93 C 0.2302(2) -0.31350(12) 0.95169(7)
C94 C 0.2949(3) -0.36933(14) 0.97970(8)
C95 C 0.4209(3) -0.35961(16) 0.98212(9)
C96 C 0.4803(2) -0.29284(16) 0.95745(8)
C97 C 0.41742(17) -0.23311(13) 0.93057(7)
C98 C 0.49346(18) -0.16335(14) 0.90899(8)
C99 C 0.46452(18) -0.08066(14) 0.90440(8)
C100 C 0.35006(18) -0.04071(12) 0.91905(7)
C101 C 0.3606(3) 0.05218(14) 0.93874(9)
C102 C 0.2613(3) 0.09838(15) 0.95385(10)
C103 C 0.1454(3) 0.05359(15) 0.94794(9)
C104 C 0.1324(2) -0.03779(13) 0.92812(8)
C105 C 0.23262(17) -0.08791(11) 0.91370(7)
C106 C 0.24646(15) -0.21266(11) 0.81828(6)
C107 C 0.32905(15) -0.29146(12) 0.80690(6)
C108 C 0.27399(17) -0.37348(12) 0.81919(7)
C109 C 0.33099(19) -0.45238(13) 0.81280(8)
C110 C 0.4478(2) -0.45340(15) 0.79111(9)
C111 C 0.50417(19) -0.37524(16) 0.77856(8)
C112 C 0.44975(16) -0.29261(13) 0.78647(7)
C113 C 0.52770(18) -0.21698(15) 0.77322(8)
C114 C 0.50392(18) -0.13369(15) 0.76860(8)
C115 C 0.38930(18) -0.09080(14) 0.77357(8)
C116 C 0.3954(3) -0.00643(16) 0.75502(9)
C117 C 0.2971(3) 0.04364(17) 0.75457(11)
C118 C 0.1862(3) 0.01066(15) 0.77400(11)
C119 C 0.17738(19) -0.07189(13) 0.79229(8)
C120 C 0.27630(16) -0.12481(12) 0.79354(7)
H53 H 0.02220 -0.20220 0.97120
H54 H -0.18360 -0.25620 0.95110
H55 H -0.25620 -0.30810 0.85960
H56 H -0.20230 -0.34160 0.74970
H57 H -0.05250 -0.34190 0.68230
H58 H 0.15180 -0.28640 0.70750
H59 H 0.14310 -0.32220 0.94990
H60 H 0.25200 -0.41450 0.99730
H61 H 0.46600 -0.39860 1.00060
H62 H 0.56750 -0.28680 0.95860
H63 H 0.57280 -0.17820 0.89680
H64 H 0.52630 -0.04320 0.88970
H65 H 0.43970 0.08380 0.94160
H66 H 0.27130 0.16090 0.96830
H67 H 0.07500 0.08550 0.95750
H68 H 0.05220 -0.06760 0.92420
H69 H 0.19250 -0.37450 0.83270
H70 H 0.29060 -0.50530 0.82320
H71 H 0.48810 -0.50750 0.78510
H72 H 0.58450 -0.37650 0.76370
H73 H 0.61070 -0.22920 0.76670
H74 H 0.57320 -0.09580 0.76080
H75 H 0.47170 0.01670 0.74220
H76 H 0.30450 0.09990 0.74120
H77 H 0.11660 0.04470 0.77470
H78 H 0.10010 -0.09390 0.80470
loop_
_geom_bond_atom_site_label_1
_geom_bond_atom_site_label_2
_geom_bond_distance
_geom_bond_site_symmetry_1
_geom_bond_site_symmetry_2
C1 C2 1.381 1_555 1_555
C2 C3 1.411 1_555 1_555
C3 C4 1.372 1_555 1_555
C4 C5 1.413 1_555 1_555
C5 C6 1.420 1_555 1_555
C6 C7 1.375 1_555 1_555
C7 C8 1.412 1_555 1_555
C8 C9 1.376 1_555 1_555
C9 C10 1.400 1_555 1_555
C10 C1 1.406 1_555 1_555
C11 C1 1.534 1_555 1_555
C12 C11 1.543 1_555 1_555
C13 C12 1.404 1_555 1_555
C14 C13 1.380 1_555 1_555
C15 C14 1.380 1_555 1_555
C16 C15 1.379 1_555 1_555
C17 C12 1.414 1_555 1_555
C18 C17 1.453 1_555 1_555
C19 C18 1.335 1_555 1_555
C20 C19 1.457 1_555 1_555
C21 C20 1.400 1_555 1_555
C22 C21 1.379 1_555 1_555
C23 C22 1.376 1_555 1_555
C24 C23 1.383 1_555 1_555
C25 C11 1.548 1_555 1_555
C26 C9 1.530 1_555 1_555
C27 C26 1.542 1_555 1_555
C28 C27 1.407 1_555 1_555
C29 C28 1.381 1_555 1_555
C30 C29 1.381 1_555 1_555
C31 C30 1.375 1_555 1_555
C32 C27 1.413 1_555 1_555
C33 C32 1.454 1_555 1_555
C34 C33 1.334 1_555 1_555
C35 C34 1.451 1_555 1_555
C36 C35 1.409 1_555 1_555
C37 C36 1.369 1_555 1_555
C38 C37 1.386 1_555 1_555
C39 C38 1.379 1_555 1_555
C40 C26 1.552 1_555 1_555
H1 C2 0.951 1_555 1_555
H2 C3 0.951 1_555 1_555
H3 C4 0.950 1_555 1_555
H4 C6 0.950 1_555 1_555
H5 C7 0.950 1_555 1_555
H6 C8 0.949 1_555 1_555
H7 C13 0.950 1_555 1_555
H8 C14 0.949 1_555 1_555
H9 C15 0.950 1_555 1_555
H10 C16 0.951 1_555 1_555
H11 C18 0.950 1_555 1_555
H12 C19 0.950 1_555 1_555
H13 C21 0.950 1_555 1_555
H14 C22 0.949 1_555 1_555
H15 C23 0.950 1_555 1_555
H16 C24 0.949 1_555 1_555
H17 C28 0.951 1_555 1_555
H18 C29 0.950 1_555 1_555
H19 C30 0.951 1_555 1_555
H20 C31 0.951 1_555 1_555
H21 C33 0.950 1_555 1_555
H22 C34 0.950 1_555 1_555
H23 C36 0.950 1_555 1_555
H24 C37 0.951 1_555 1_555
H25 C38 0.950 1_555 1_555
H26 C39 0.949 1_555 1_555
C41 C42 1.377 1_555 1_555
C42 C43 1.410 1_555 1_555
C43 C44 1.374 1_555 1_555
C44 C45 1.416 1_555 1_555
C45 C46 1.418 1_555 1_555
C46 C47 1.372 1_555 1_555
C47 C48 1.410 1_555 1_555
C48 C49 1.375 1_555 1_555
C49 C50 1.397 1_555 1_555
C50 C41 1.403 1_555 1_555
C51 C41 1.532 1_555 1_555
C52 C51 1.554 1_555 1_555
C53 C52 1.400 1_555 1_555
C54 C53 1.383 1_555 1_555
C55 C54 1.378 1_555 1_555
C56 C55 1.375 1_555 1_555
C57 C52 1.410 1_555 1_555
C58 C57 1.456 1_555 1_555
C59 C58 1.344 1_555 1_555
C60 C59 1.456 1_555 1_555
C61 C60 1.401 1_555 1_555
C62 C61 1.371 1_555 1_555
C63 C62 1.372 1_555 1_555
C64 C63 1.388 1_555 1_555
C65 C51 1.553 1_555 1_555
C66 C49 1.540 1_555 1_555
C67 C66 1.543 1_555 1_555
C68 C67 1.399 1_555 1_555
C69 C68 1.379 1_555 1_555
C70 C69 1.385 1_555 1_555
C71 C70 1.367 1_555 1_555
C72 C67 1.413 1_555 1_555
C73 C72 1.454 1_555 1_555
C74 C73 1.334 1_555 1_555
C75 C74 1.448 1_555 1_555
C76 C75 1.401 1_555 1_555
C77 C76 1.357 1_555 1_555
C78 C77 1.392 1_555 1_555
C79 C78 1.380 1_555 1_555
C80 C66 1.547 1_555 1_555
H27 C42 0.950 1_555 1_555
H28 C43 0.949 1_555 1_555
H29 C44 0.950 1_555 1_555
H30 C46 0.950 1_555 1_555
H31 C47 0.949 1_555 1_555
H32 C48 0.951 1_555 1_555
H33 C53 0.950 1_555 1_555
H34 C54 0.950 1_555 1_555
H35 C55 0.950 1_555 1_555
H36 C56 0.949 1_555 1_555
H37 C58 0.951 1_555 1_555
H38 C59 0.950 1_555 1_555
H39 C61 0.950 1_555 1_555
H40 C62 0.950 1_555 1_555
H41 C63 0.950 1_555 1_555
H42 C64 0.950 1_555 1_555
H43 C68 0.950 1_555 1_555
H44 C69 0.951 1_555 1_555
H45 C70 0.950 1_555 1_555
H46 C71 0.950 1_555 1_555
H47 C73 0.950 1_555 1_555
H48 C74 0.949 1_555 1_555
H49 C76 0.949 1_555 1_555
H50 C77 0.950 1_555 1_555
H51 C78 0.949 1_555 1_555
H52 C79 0.949 1_555 1_555
C81 C82 1.377 1_555 1_555
C82 C83 1.415 1_555 1_555
C83 C84 1.365 1_555 1_555
C84 C85 1.416 1_555 1_555
C85 C86 1.417 1_555 1_555
C86 C87 1.367 1_555 1_555
C87 C88 1.415 1_555 1_555
C88 C89 1.371 1_555 1_555
C89 C90 1.398 1_555 1_555
C90 C81 1.400 1_555 1_555
C91 C81 1.538 1_555 1_555
C92 C91 1.550 1_555 1_555
C93 C92 1.400 1_555 1_555
C94 C93 1.382 1_555 1_555
C95 C94 1.373 1_555 1_555
C96 C95 1.367 1_555 1_555
C97 C92 1.413 1_555 1_555
C98 C97 1.450 1_555 1_555
C99 C98 1.333 1_555 1_555
C100 C99 1.454 1_555 1_555
C101 C100 1.403 1_555 1_555
C102 C101 1.358 1_555 1_555
C103 C102 1.383 1_555 1_555
C104 C103 1.382 1_555 1_555
C105 C91 1.548 1_555 1_555
C106 C89 1.533 1_555 1_555
C107 C106 1.543 1_555 1_555
C108 C107 1.407 1_555 1_555
C109 C108 1.376 1_555 1_555
C110 C109 1.382 1_555 1_555
C111 C110 1.364 1_555 1_555
C112 C107 1.411 1_555 1_555
C113 C112 1.447 1_555 1_555
C114 C113 1.325 1_555 1_555
C115 C114 1.453 1_555 1_555
C116 C115 1.408 1_555 1_555
C117 C116 1.363 1_555 1_555
C118 C117 1.385 1_555 1_555
C119 C118 1.379 1_555 1_555
C120 C106 1.546 1_555 1_555
H53 C82 0.949 1_555 1_555
H54 C83 0.950 1_555 1_555
H55 C84 0.950 1_555 1_555
H56 C86 0.950 1_555 1_555
H57 C87 0.950 1_555 1_555
H58 C88 0.951 1_555 1_555
H59 C93 0.950 1_555 1_555
H60 C94 0.950 1_555 1_555
H61 C95 0.950 1_555 1_555
H62 C96 0.950 1_555 1_555
H63 C98 0.950 1_555 1_555
H64 C99 0.951 1_555 1_555
H65 C101 0.950 1_555 1_555
H66 C102 0.950 1_555 1_555
H67 C103 0.951 1_555 1_555
H68 C104 0.950 1_555 1_555
H69 C108 0.950 1_555 1_555
H70 C109 0.950 1_555 1_555
H71 C110 0.951 1_555 1_555
H72 C111 0.950 1_555 1_555
H73 C113 0.950 1_555 1_555
H74 C114 0.950 1_555 1_555
H75 C116 0.950 1_555 1_555
H76 C117 0.950 1_555 1_555
H77 C118 0.950 1_555 1_555
H78 C119 0.950 1_555 1_555
C5 C10 1.412 1_555 1_555
C11 C26 1.742 1_555 1_555
C16 C17 1.407 1_555 1_555
C20 C25 1.413 1_555 1_555
C24 C25 1.397 1_555 1_555
C31 C32 1.406 1_555 1_555
C35 C40 1.413 1_555 1_555
C39 C40 1.404 1_555 1_555
C45 C50 1.412 1_555 1_555
C51 C66 1.720 1_555 1_555
C56 C57 1.407 1_555 1_555
C60 C65 1.409 1_555 1_555
C64 C65 1.396 1_555 1_555
C71 C72 1.395 1_555 1_555
C75 C80 1.406 1_555 1_555
C79 C80 1.390 1_555 1_555
C85 C90 1.414 1_555 1_555
C91 C106 1.723 1_555 1_555
C96 C97 1.400 1_555 1_555
C100 C105 1.413 1_555 1_555
C104 C105 1.396 1_555 1_555
C111 C112 1.412 1_555 1_555
C115 C120 1.415 1_555 1_555
C119 C120 1.397 1_555 1_555
#END
