
#######################################################################
#
#                 Cambridge Crystallographic Data Centre
#                                CCDC
#
#######################################################################
#
# If this CIF has been generated from an entry in the Cambridge
# Structural Database, then it will include bibliographic, chemical,
# crystal, experimental, refinement or atomic coordinate data resulting
# from the CCDC's data processing and validation procedures.
#
#######################################################################

data_CSD_CIF_PEVRIU03
_audit_creation_date 2018-03-09
_audit_creation_method CSD-ConQuest-V1
_database_code_CSD PEVRIU03
_database_code_depnum_ccdc_archive 'CCDC 1567391'
_chemical_formula_sum 'C40 H26'
_chemical_formula_moiety
;
C40 H26
;
_journal_coden_Cambridge 1885
_journal_volume 4
_journal_year 2018
_journal_page_first 795
_journal_name_full 'CheM '
loop_
_publ_author_name
"Y.Ishigaki"
"T.Shimajiri"
"T.Takeda"
"R.Katoono"
"T.Suzuki"
_chemical_name_systematic
;
dispiro[dibenzo[a,d][7]annulene-5,1'-acenaphthylene-2',5''-dibenzo[a,d][7]annu
lene]
;
_cell_volume   3863.749
_exptl_crystal_colour 'colorless'
_exptl_crystal_density_diffrn 1.306
_exptl_crystal_description 'platelet'
_diffrn_ambient_temperature 240
#These two values have been output from a single CSD field.
_refine_ls_R_factor_gt 0.052
_refine_ls_wR_factor_gt 0.052
_symmetry_cell_setting triclinic
_symmetry_space_group_name_H-M 'P -1'
_symmetry_Int_Tables_number 2
loop_
_symmetry_equiv_pos_site_id
_symmetry_equiv_pos_as_xyz
1 x,y,z
2 -x,-y,-z
_cell_length_a 10.9491(19)
_cell_length_b 15.115(3)
_cell_length_c 23.719(4)
_cell_angle_alpha 98.957(3)
_cell_angle_beta 90.541(3)
_cell_angle_gamma 94.657(2)
_cell_formula_units_Z 6
loop_
_atom_type_symbol
_atom_type_radius_bond
C 0.68
H 0.23
loop_
_atom_site_label
_atom_site_type_symbol
_atom_site_fract_x
_atom_site_fract_y
_atom_site_fract_z
C1 C 0.02360(15) 0.26093(11) 0.54323(7)
C2 C -0.03294(17) 0.27781(12) 0.59506(7)
C3 C -0.16157(17) 0.27656(12) 0.59668(8)
C4 C -0.23481(17) 0.25854(13) 0.54833(8)
C5 C -0.18097(16) 0.23907(12) 0.49442(7)
C6 C -0.24267(17) 0.21640(13) 0.44054(8)
C7 C -0.17775(17) 0.19645(13) 0.39177(8)
C8 C -0.04844(16) 0.19974(12) 0.39247(7)
C9 C 0.01413(15) 0.22325(11) 0.44382(7)
C10 C -0.05182(15) 0.24075(11) 0.49389(7)
C11 C 0.16000(15) 0.25954(11) 0.52943(6)
C12 C 0.21719(15) 0.18442(11) 0.55550(6)
C13 C 0.14776(18) 0.12983(12) 0.58798(7)
C14 C 0.1910(2) 0.05483(14) 0.60525(8)
C15 C 0.3059(2) 0.03032(14) 0.58986(9)
C16 C 0.37832(18) 0.08339(14) 0.55906(8)
C17 C 0.33799(16) 0.16205(12) 0.54318(7)
C18 C 0.42635(16) 0.21458(13) 0.51371(7)
C19 C 0.43394(16) 0.30278(14) 0.51267(8)
C20 C 0.35611(17) 0.36893(13) 0.54094(7)
C21 C 0.4124(2) 0.45555(14) 0.55770(9)
C22 C 0.3504(3) 0.52408(16) 0.58609(11)
C23 C 0.2291(3) 0.50666(15) 0.59824(10)
C24 C 0.17108(19) 0.42212(13) 0.58108(8)
C25 C 0.23057(16) 0.35110(11) 0.55178(7)
C26 C 0.15292(14) 0.23583(11) 0.45525(6)
C27 C 0.20171(15) 0.14377(11) 0.43396(6)
C28 C 0.13329(16) 0.07047(11) 0.45135(7)
C29 C 0.16950(17) -0.01584(12) 0.44323(7)
C30 C 0.27654(18) -0.03378(13) 0.41491(8)
C31 C 0.34145(17) 0.03524(12) 0.39421(8)
C32 C 0.30785(16) 0.12415(12) 0.40258(7)
C33 C 0.38796(17) 0.18571(13) 0.37575(7)
C34 C 0.38142(17) 0.27183(13) 0.37149(7)
C35 C 0.29389(16) 0.33536(12) 0.39330(7)
C36 C 0.31355(18) 0.41962(13) 0.37519(8)
C37 C 0.2436(2) 0.48940(13) 0.39185(9)
C38 C 0.14770(19) 0.47646(13) 0.42802(8)
C39 C 0.12421(17) 0.39421(12) 0.44525(7)
C40 C 0.19551(15) 0.32110(11) 0.42978(6)
H1 H 0.01420 0.29010 0.62910
H2 H -0.19880 0.28850 0.63230
H3 H -0.32030 0.25910 0.55110
H4 H -0.32860 0.21510 0.43830
H5 H -0.22070 0.18000 0.35670
H6 H -0.00590 0.18610 0.35840
H7 H 0.06860 0.14480 0.59840
H8 H 0.14190 0.02050 0.62750
H9 H 0.33450 -0.02200 0.60020
H10 H 0.45670 0.06660 0.54840
H11 H 0.48540 0.18230 0.49280
H12 H 0.49750 0.32500 0.49100
H13 H 0.49530 0.46740 0.54930
H14 H 0.39020 0.58180 0.59700
H15 H 0.18570 0.55240 0.61820
H16 H 0.08790 0.41190 0.58950
H17 H 0.05870 0.08080 0.46950
H18 H 0.12160 -0.06210 0.45690
H19 H 0.30410 -0.09170 0.40990
H20 H 0.41220 0.02250 0.37330
H21 H 0.45640 0.16030 0.35830
H22 H 0.44490 0.29600 0.35060
H23 H 0.37820 0.42830 0.35030
H24 H 0.26020 0.54490 0.37910
H25 H 0.09890 0.52370 0.44070
H26 H 0.05670 0.38630 0.46870
C41 C -0.15836(16) 0.13727(11) 0.76811(7)
C42 C -0.13407(18) 0.07854(13) 0.72010(8)
C43 C -0.1332(2) -0.01391(14) 0.72344(10)
C44 C -0.15464(19) -0.04739(13) 0.77337(10)
C45 C -0.17936(18) 0.01120(12) 0.82373(9)
C46 C -0.2041(2) -0.01192(14) 0.87833(10)
C47 C -0.2293(2) 0.05293(15) 0.92287(9)
C48 C -0.23034(19) 0.14422(14) 0.91693(8)
C49 C -0.20560(16) 0.16913(12) 0.86455(7)
C50 C -0.18085(16) 0.10314(11) 0.81897(7)
C51 C -0.17008(16) 0.23889(11) 0.77565(6)
C52 C -0.28181(16) 0.25613(12) 0.73904(6)
C53 C -0.36048(17) 0.18348(13) 0.71316(8)
C54 C -0.46386(19) 0.19344(15) 0.68162(8)
C55 C -0.49379(19) 0.27769(16) 0.67446(8)
C56 C -0.41990(19) 0.35058(15) 0.70031(8)
C57 C -0.31460(17) 0.34233(12) 0.73259(7)
C58 C -0.24636(19) 0.42644(13) 0.75692(9)
C59 C -0.1250(2) 0.44172(13) 0.76655(9)
C60 C -0.03145(17) 0.37871(12) 0.75506(7)
C61 C 0.08288(19) 0.41549(14) 0.73971(9)
C62 C 0.18043(19) 0.36522(15) 0.72729(9)
C63 C 0.16642(19) 0.27584(16) 0.73185(9)
C64 C 0.05505(18) 0.23816(14) 0.74755(9)
C65 C -0.04810(16) 0.28635(12) 0.75855(7)
C66 C -0.19871(16) 0.26322(11) 0.84734(7)
C67 C -0.32733(17) 0.29708(12) 0.85723(7)
C68 C -0.42591(19) 0.23164(15) 0.84590(9)
C69 C -0.5474(3) 0.24976(19) 0.84866(11)
C70 C -0.5751(3) 0.3377(2) 0.86524(11)
C71 C -0.4817(3) 0.40316(18) 0.87716(9)
C72 C -0.3585(2) 0.38590(14) 0.87361(8)
C73 C -0.2764(3) 0.46625(16) 0.8908(1)
C74 C -0.1560(3) 0.47531(16) 0.90184(11)
C75 C -0.0684(2) 0.40847(13) 0.90086(9)
C76 C 0.0433(3) 0.44345(16) 0.92797(10)
C77 C 0.1361(3) 0.39227(19) 0.93602(11)
C78 C 0.1212(3) 0.30138(18) 0.91427(12)
C79 C 0.0119(2) 0.26605(15) 0.88757(10)
C80 C -0.08594(17) 0.31619(12) 0.87994(7)
H27 H -0.11820 0.09960 0.68540
H28 H -0.11740 -0.05390 0.69030
H29 H -0.15290 -0.10930 0.77410
H30 H -0.20320 -0.07200 0.88410
H31 H -0.24640 0.03590 0.95860
H32 H -0.24770 0.18730 0.94820
H33 H -0.34230 0.12510 0.71740
H34 H -0.51390 0.14240 0.66500
H35 H -0.56300 0.28510 0.65240
H36 H -0.44060 0.40840 0.69620
H37 H -0.29280 0.47590 0.76710
H38 H -0.09680 0.50070 0.78280
H39 H 0.09290 0.47730 0.73790
H40 H 0.25510 0.39140 0.71590
H41 H 0.23250 0.24010 0.72430
H42 H 0.04830 0.17690 0.75100
H43 H -0.40830 0.17150 0.83580
H44 H -0.61020 0.20330 0.83950
H45 H -0.65710 0.35190 0.86820
H46 H -0.50100 0.46280 0.88830
H47 H -0.31410 0.52050 0.89480
H48 H -0.12250 0.53500 0.91190
H49 H 0.05450 0.50560 0.94130
H50 H 0.20860 0.41770 0.95580
H51 H 0.18490 0.26430 0.91770
H52 H 0.00300 0.20410 0.87360
C81 C 0.07590(16) -0.22114(12) 0.88867(7)
C82 C -0.00492(19) -0.22270(15) 0.93271(9)
C83 C -0.1283(2) -0.25544(16) 0.92022(10)
C84 C -0.17198(18) -0.28666(14) 0.86611(9)
C85 C -0.09184(17) -0.28716(12) 0.81985(8)
C86 C -0.12031(18) -0.31928(13) 0.76155(8)
C87 C -0.03143(19) -0.31897(14) 0.72152(8)
C88 C 0.09086(18) -0.28530(13) 0.73625(7)
C89 C 0.12084(16) -0.25184(11) 0.79199(7)
C90 C 0.03092(16) -0.25354(11) 0.83321(7)
C91 C 0.21319(16) -0.18962(11) 0.88953(7)
C92 C 0.28747(17) -0.24459(12) 0.92569(7)
C93 C 0.2294(2) -0.31326(13) 0.95129(8)
C94 C 0.2940(3) -0.36912(15) 0.97942(9)
C95 C 0.4193(3) -0.35958(17) 0.98217(10)
C96 C 0.4790(3) -0.29283(17) 0.95756(9)
C97 C 0.41649(18) -0.23315(13) 0.93050(7)
C98 C 0.49231(19) -0.16358(15) 0.90901(8)
C99 C 0.46397(19) -0.08107(15) 0.90426(8)
C100 C 0.34921(19) -0.04101(13) 0.91882(8)
C101 C 0.3594(3) 0.05184(15) 0.93838(10)
C102 C 0.2606(3) 0.09786(16) 0.95343(11)
C103 C 0.1451(3) 0.05330(16) 0.94756(10)
C104 C 0.1320(2) -0.03779(14) 0.92785(9)
C105 C 0.23202(17) -0.08811(12) 0.91348(7)
C106 C 0.24600(15) -0.21260(11) 0.81817(7)
C107 C 0.32841(16) -0.29150(12) 0.80685(7)
C108 C 0.27354(18) -0.37346(12) 0.81908(7)
C109 C 0.3305(2) -0.45225(14) 0.81271(8)
C110 C 0.4467(3) -0.45318(17) 0.79108(10)
C111 C 0.5031(2) -0.37517(17) 0.77844(9)
C112 C 0.44888(18) -0.29259(14) 0.78645(7)
C113 C 0.52699(19) -0.21737(17) 0.77331(9)
C114 C 0.5031(2) -0.13407(17) 0.76864(9)
C115 C 0.38892(19) -0.09117(15) 0.77358(8)
C116 C 0.3951(3) -0.00706(17) 0.75512(11)
C117 C 0.2972(3) 0.04283(18) 0.75461(13)
C118 C 0.1859(3) 0.01028(16) 0.77386(12)
C119 C 0.17748(19) -0.07219(14) 0.79213(9)
C120 C 0.27596(17) -0.12506(12) 0.79351(7)
H53 H 0.02170 -0.20220 0.97060
H54 H -0.18280 -0.25570 0.95060
H55 H -0.25490 -0.30770 0.85970
H56 H -0.20110 -0.34100 0.75030
H57 H -0.05210 -0.34180 0.68320
H58 H 0.15070 -0.28590 0.70810
H59 H 0.14340 -0.32200 0.94940
H60 H 0.25130 -0.41390 0.99670
H61 H 0.46340 -0.39810 1.00060
H62 H 0.56520 -0.28670 0.95880
H63 H 0.57070 -0.17830 0.89700
H64 H 0.52520 -0.04410 0.88980
H65 H 0.43750 0.08320 0.94110
H66 H 0.27060 0.15960 0.96780
H67 H 0.07570 0.08480 0.95700
H68 H 0.05270 -0.06720 0.92390
H69 H 0.19300 -0.37460 0.83240
H70 H 0.29060 -0.50470 0.82300
H71 H 0.48640 -0.50660 0.78520
H72 H 0.58240 -0.37640 0.76360
H73 H 0.60900 -0.22940 0.76700
H74 H 0.57160 -0.09660 0.76080
H75 H 0.47060 0.01590 0.74250
H76 H 0.30500 0.09850 0.74140
H77 H 0.11730 0.04390 0.77450
H78 H 0.10100 -0.09410 0.80440
loop_
_geom_bond_atom_site_label_1
_geom_bond_atom_site_label_2
_geom_bond_distance
_geom_bond_site_symmetry_1
_geom_bond_site_symmetry_2
C1 C2 1.379 1_555 1_555
C2 C3 1.408 1_555 1_555
C3 C4 1.372 1_555 1_555
C4 C5 1.412 1_555 1_555
C5 C6 1.420 1_555 1_555
C6 C7 1.370 1_555 1_555
C7 C8 1.413 1_555 1_555
C8 C9 1.374 1_555 1_555
C9 C10 1.397 1_555 1_555
C10 C1 1.405 1_555 1_555
C11 C1 1.533 1_555 1_555
C12 C11 1.546 1_555 1_555
C13 C12 1.400 1_555 1_555
C14 C13 1.380 1_555 1_555
C15 C14 1.377 1_555 1_555
C16 C15 1.377 1_555 1_555
C17 C12 1.414 1_555 1_555
C18 C17 1.455 1_555 1_555
C19 C18 1.333 1_555 1_555
C20 C19 1.455 1_555 1_555
C21 C20 1.398 1_555 1_555
C22 C21 1.376 1_555 1_555
C23 C22 1.375 1_555 1_555
C24 C23 1.380 1_555 1_555
C25 C11 1.544 1_555 1_555
C26 C9 1.532 1_555 1_555
C27 C26 1.544 1_555 1_555
C28 C27 1.404 1_555 1_555
C29 C28 1.380 1_555 1_555
C30 C29 1.381 1_555 1_555
C31 C30 1.371 1_555 1_555
C32 C27 1.413 1_555 1_555
C33 C32 1.450 1_555 1_555
C34 C33 1.329 1_555 1_555
C35 C34 1.453 1_555 1_555
C36 C35 1.407 1_555 1_555
C37 C36 1.365 1_555 1_555
C38 C37 1.383 1_555 1_555
C39 C38 1.374 1_555 1_555
C40 C26 1.547 1_555 1_555
H1 C2 0.939 1_555 1_555
H2 C3 0.940 1_555 1_555
H3 C4 0.940 1_555 1_555
H4 C6 0.940 1_555 1_555
H5 C7 0.940 1_555 1_555
H6 C8 0.940 1_555 1_555
H7 C13 0.939 1_555 1_555
H8 C14 0.939 1_555 1_555
H9 C15 0.940 1_555 1_555
H10 C16 0.940 1_555 1_555
H11 C18 0.940 1_555 1_555
H12 C19 0.940 1_555 1_555
H13 C21 0.940 1_555 1_555
H14 C22 0.940 1_555 1_555
H15 C23 0.940 1_555 1_555
H16 C24 0.940 1_555 1_555
H17 C28 0.940 1_555 1_555
H18 C29 0.940 1_555 1_555
H19 C30 0.940 1_555 1_555
H20 C31 0.941 1_555 1_555
H21 C33 0.940 1_555 1_555
H22 C34 0.940 1_555 1_555
H23 C36 0.940 1_555 1_555
H24 C37 0.940 1_555 1_555
H25 C38 0.940 1_555 1_555
H26 C39 0.940 1_555 1_555
C41 C42 1.373 1_555 1_555
C42 C43 1.413 1_555 1_555
C43 C44 1.373 1_555 1_555
C44 C45 1.414 1_555 1_555
C45 C46 1.416 1_555 1_555
C46 C47 1.371 1_555 1_555
C47 C48 1.410 1_555 1_555
C48 C49 1.376 1_555 1_555
C49 C50 1.397 1_555 1_555
C50 C41 1.400 1_555 1_555
C51 C41 1.534 1_555 1_555
C52 C51 1.556 1_555 1_555
C53 C52 1.397 1_555 1_555
C54 C53 1.382 1_555 1_555
C55 C54 1.375 1_555 1_555
C56 C55 1.371 1_555 1_555
C57 C52 1.410 1_555 1_555
C58 C57 1.455 1_555 1_555
C59 C58 1.341 1_555 1_555
C60 C59 1.454 1_555 1_555
C61 C60 1.403 1_555 1_555
C62 C61 1.369 1_555 1_555
C63 C62 1.368 1_555 1_555
C64 C63 1.383 1_555 1_555
C65 C51 1.552 1_555 1_555
C66 C49 1.536 1_555 1_555
C67 C66 1.545 1_555 1_555
C68 C67 1.398 1_555 1_555
C69 C68 1.380 1_555 1_555
C70 C69 1.385 1_555 1_555
C71 C70 1.359 1_555 1_555
C72 C67 1.409 1_555 1_555
C73 C72 1.453 1_555 1_555
C74 C73 1.333 1_555 1_555
C75 C74 1.446 1_555 1_555
C76 C75 1.401 1_555 1_555
C77 C76 1.355 1_555 1_555
C78 C77 1.386 1_555 1_555
C79 C78 1.377 1_555 1_555
C80 C66 1.547 1_555 1_555
H27 C42 0.940 1_555 1_555
H28 C43 0.941 1_555 1_555
H29 C44 0.940 1_555 1_555
H30 C46 0.940 1_555 1_555
H31 C47 0.939 1_555 1_555
H32 C48 0.939 1_555 1_555
H33 C53 0.940 1_555 1_555
H34 C54 0.940 1_555 1_555
H35 C55 0.941 1_555 1_555
H36 C56 0.940 1_555 1_555
H37 C58 0.940 1_555 1_555
H38 C59 0.941 1_555 1_555
H39 C61 0.939 1_555 1_555
H40 C62 0.940 1_555 1_555
H41 C63 0.940 1_555 1_555
H42 C64 0.939 1_555 1_555
H43 C68 0.939 1_555 1_555
H44 C69 0.940 1_555 1_555
H45 C70 0.941 1_555 1_555
H46 C71 0.941 1_555 1_555
H47 C73 0.940 1_555 1_555
H48 C74 0.940 1_555 1_555
H49 C76 0.941 1_555 1_555
H50 C77 0.941 1_555 1_555
H51 C78 0.940 1_555 1_555
H52 C79 0.940 1_555 1_555
C81 C82 1.377 1_555 1_555
C82 C83 1.413 1_555 1_555
C83 C84 1.364 1_555 1_555
C84 C85 1.411 1_555 1_555
C85 C86 1.415 1_555 1_555
C86 C87 1.366 1_555 1_555
C87 C88 1.414 1_555 1_555
C88 C89 1.367 1_555 1_555
C89 C90 1.396 1_555 1_555
C90 C81 1.400 1_555 1_555
C91 C81 1.539 1_555 1_555
C92 C91 1.551 1_555 1_555
C93 C92 1.395 1_555 1_555
C94 C93 1.386 1_555 1_555
C95 C94 1.368 1_555 1_555
C96 C95 1.367 1_555 1_555
C97 C92 1.411 1_555 1_555
C98 C97 1.445 1_555 1_555
C99 C98 1.331 1_555 1_555
C100 C99 1.460 1_555 1_555
C101 C100 1.403 1_555 1_555
C102 C101 1.354 1_555 1_555
C103 C102 1.379 1_555 1_555
C104 C103 1.379 1_555 1_555
C105 C91 1.547 1_555 1_555
C106 C89 1.534 1_555 1_555
C107 C106 1.545 1_555 1_555
C108 C107 1.405 1_555 1_555
C109 C108 1.377 1_555 1_555
C110 C109 1.377 1_555 1_555
C111 C110 1.363 1_555 1_555
C112 C107 1.410 1_555 1_555
C113 C112 1.442 1_555 1_555
C114 C113 1.328 1_555 1_555
C115 C114 1.452 1_555 1_555
C116 C115 1.404 1_555 1_555
C117 C116 1.361 1_555 1_555
C118 C117 1.385 1_555 1_555
C119 C118 1.379 1_555 1_555
C120 C106 1.541 1_555 1_555
H53 C82 0.939 1_555 1_555
H54 C83 0.940 1_555 1_555
H55 C84 0.940 1_555 1_555
H56 C86 0.939 1_555 1_555
H57 C87 0.939 1_555 1_555
H58 C88 0.939 1_555 1_555
H59 C93 0.940 1_555 1_555
H60 C94 0.940 1_555 1_555
H61 C95 0.940 1_555 1_555
H62 C96 0.941 1_555 1_555
H63 C98 0.940 1_555 1_555
H64 C99 0.939 1_555 1_555
H65 C101 0.940 1_555 1_555
H66 C102 0.940 1_555 1_555
H67 C103 0.940 1_555 1_555
H68 C104 0.940 1_555 1_555
H69 C108 0.939 1_555 1_555
H70 C109 0.941 1_555 1_555
H71 C110 0.940 1_555 1_555
H72 C111 0.940 1_555 1_555
H73 C113 0.939 1_555 1_555
H74 C114 0.940 1_555 1_555
H75 C116 0.940 1_555 1_555
H76 C117 0.940 1_555 1_555
H77 C118 0.939 1_555 1_555
H78 C119 0.941 1_555 1_555
C5 C10 1.412 1_555 1_555
C11 C26 1.740 1_555 1_555
C16 C17 1.404 1_555 1_555
C20 C25 1.413 1_555 1_555
C24 C25 1.396 1_555 1_555
C31 C32 1.407 1_555 1_555
C35 C40 1.412 1_555 1_555
C39 C40 1.409 1_555 1_555
C45 C50 1.413 1_555 1_555
C51 C66 1.720 1_555 1_555
C56 C57 1.403 1_555 1_555
C60 C65 1.409 1_555 1_555
C64 C65 1.398 1_555 1_555
C71 C72 1.395 1_555 1_555
C75 C80 1.403 1_555 1_555
C79 C80 1.388 1_555 1_555
C85 C90 1.413 1_555 1_555
C91 C106 1.721 1_555 1_555
C96 C97 1.402 1_555 1_555
C100 C105 1.411 1_555 1_555
C104 C105 1.398 1_555 1_555
C111 C112 1.412 1_555 1_555
C115 C120 1.414 1_555 1_555
C119 C120 1.396 1_555 1_555
#END
