
#######################################################################
#
#                 Cambridge Crystallographic Data Centre
#                                CCDC
#
#######################################################################
#
# If this CIF has been generated from an entry in the Cambridge
# Structural Database, then it will include bibliographic, chemical,
# crystal, experimental, refinement or atomic coordinate data resulting
# from the CCDC's data processing and validation procedures.
#
#######################################################################

data_CSD_CIF_PEVRIU01
_audit_creation_date 2018-03-09
_audit_creation_method CSD-ConQuest-V1
_database_code_CSD PEVRIU01
_database_code_depnum_ccdc_archive 'CCDC 1586192'
_chemical_formula_sum 'C40 H26'
_chemical_formula_moiety
;
C40 H26
;
_journal_coden_Cambridge 1885
_journal_volume 4
_journal_year 2018
_journal_page_first 795
_journal_name_full 'CheM '
loop_
_publ_author_name
"Y.Ishigaki"
"T.Shimajiri"
"T.Takeda"
"R.Katoono"
"T.Suzuki"
_chemical_name_systematic
;
dispiro[dibenzo[a,d][7]annulene-5,1'-acenaphthylene-2',5''-dibenzo[a,d][7]annu
lene]
;
_cell_volume   3835.416
_exptl_crystal_colour 'colorless'
_exptl_crystal_density_diffrn 1.316
_exptl_crystal_description 'platelet'
_diffrn_ambient_temperature 160
#These two values have been output from a single CSD field.
_refine_ls_R_factor_gt 0.0485
_refine_ls_wR_factor_gt 0.0485
_symmetry_cell_setting triclinic
_symmetry_space_group_name_H-M 'P -1'
_symmetry_Int_Tables_number 2
loop_
_symmetry_equiv_pos_site_id
_symmetry_equiv_pos_as_xyz
1 x,y,z
2 -x,-y,-z
_cell_length_a 10.9156(4)
_cell_length_b 15.0873(8)
_cell_length_c 23.6604(15)
_cell_angle_alpha 98.975(4)
_cell_angle_beta 90.724(3)
_cell_angle_gamma 94.562(3)
_cell_formula_units_Z 6
loop_
_atom_type_symbol
_atom_type_radius_bond
C 0.68
H 0.23
loop_
_atom_site_label
_atom_site_type_symbol
_atom_site_fract_x
_atom_site_fract_y
_atom_site_fract_z
C1 C 0.02365(14) 0.26104(10) 0.54331(6)
C2 C -0.03288(15) 0.27807(11) 0.59536(6)
C3 C -0.16212(15) 0.27709(11) 0.59692(7)
C4 C -0.23574(15) 0.25930(11) 0.54840(7)
C5 C -0.18185(15) 0.23920(11) 0.49427(7)
C6 C -0.24441(15) 0.21674(11) 0.44015(7)
C7 C -0.17944(15) 0.19652(11) 0.39120(7)
C8 C -0.04967(15) 0.19941(11) 0.39192(6)
C9 C 0.01333(14) 0.22297(10) 0.44339(6)
C10 C -0.05244(14) 0.2410(1) 0.49375(6)
C11 C 0.16028(14) 0.25936(10) 0.52947(6)
C12 C 0.21746(14) 0.18417(10) 0.55569(6)
C13 C 0.14777(16) 0.12954(11) 0.58840(6)
C14 C 0.19108(17) 0.05406(12) 0.60572(7)
C15 C 0.30627(18) 0.02902(12) 0.58985(8)
C16 C 0.37853(16) 0.08240(12) 0.55891(7)
C17 C 0.33843(15) 0.16147(11) 0.54312(6)
C18 C 0.42694(15) 0.21383(12) 0.51357(7)
C19 C 0.43499(15) 0.30243(12) 0.51241(7)
C20 C 0.35723(15) 0.36903(11) 0.54086(6)
C21 C 0.41455(18) 0.45590(13) 0.55759(8)
C22 C 0.3524(2) 0.52475(13) 0.58601(9)
C23 C 0.23049(19) 0.50753(13) 0.59857(8)
C24 C 0.17196(17) 0.42260(11) 0.58147(7)
C25 C 0.23135(15) 0.35128(11) 0.55186(6)
C26 C 0.15283(14) 0.2356(1) 0.45515(6)
C27 C 0.20155(14) 0.1432(1) 0.43383(6)
C28 C 0.13247(14) 0.06976(10) 0.45137(6)
C29 C 0.16903(15) -0.01676(11) 0.44347(7)
C30 C 0.27653(16) -0.03486(11) 0.41511(7)
C31 C 0.34195(15) 0.03431(11) 0.39427(7)
C32 C 0.30759(14) 0.12335(11) 0.40242(6)
C33 C 0.38788(15) 0.18515(11) 0.37540(7)
C34 C 0.38131(15) 0.27150(11) 0.37088(7)
C35 C 0.29389(15) 0.33523(11) 0.39289(6)
C36 C 0.31375(16) 0.41971(11) 0.37463(7)
C37 C 0.24340(17) 0.49023(12) 0.39144(7)
C38 C 0.14758(17) 0.47724(11) 0.42782(7)
C39 C 0.12410(15) 0.39448(11) 0.44524(6)
C40 C 0.19539(14) 0.32124(10) 0.42954(6)
H1 H 0.01500 0.29040 0.62990
H2 H -0.19970 0.28920 0.63300
H3 H -0.32240 0.26050 0.55110
H4 H -0.33150 0.21580 0.43790
H5 H -0.22310 0.18000 0.35560
H6 H -0.00680 0.18530 0.35740
H7 H 0.06770 0.14500 0.59910
H8 H 0.14170 0.01950 0.62850
H9 H 0.33530 -0.02420 0.60010
H10 H 0.45770 0.06520 0.54800
H11 H 0.48660 0.18090 0.49240
H12 H 0.49920 0.32460 0.49040
H13 H 0.49850 0.46760 0.54910
H14 H 0.39280 0.58320 0.59680
H15 H 0.18680 0.55390 0.61890
H16 H 0.08780 0.41230 0.59020
H17 H 0.05680 0.08040 0.46960
H18 H 0.12070 -0.06350 0.45740
H19 H 0.30450 -0.09360 0.41020
H20 H 0.41380 0.02140 0.37340
H21 H 0.45730 0.15930 0.35790
H22 H 0.44510 0.29570 0.34940
H23 H 0.37910 0.42830 0.34940
H24 H 0.26000 0.54640 0.37850
H25 H 0.09820 0.52510 0.44070
H26 H 0.05610 0.38660 0.46910
C41 C -0.15627(15) 0.13738(11) 0.76778(6)
C42 C -0.13196(17) 0.07855(12) 0.71955(7)
C43 C -0.13130(17) -0.01423(12) 0.72255(8)
C44 C -0.15317(17) -0.04812(12) 0.77264(9)
C45 C -0.17756(16) 0.01048(11) 0.82315(8)
C46 C -0.20263(18) -0.01305(13) 0.87799(9)
C47 C -0.22764(18) 0.05173(13) 0.92267(8)
C48 C -0.22884(17) 0.14361(12) 0.91691(7)
C49 C -0.20354(15) 0.16885(11) 0.86464(6)
C50 C -0.17897(15) 0.10277(11) 0.81861(7)
C51 C -0.16811(15) 0.23928(10) 0.77553(6)
C52 C -0.28068(15) 0.25630(11) 0.73876(6)
C53 C -0.35970(16) 0.18315(12) 0.71275(7)
C54 C -0.46354(17) 0.19322(13) 0.68107(7)
C55 C -0.49412(17) 0.27783(14) 0.67403(7)
C56 C -0.41996(17) 0.35103(13) 0.70019(7)
C57 C -0.31374(15) 0.34293(11) 0.73261(6)
C58 C -0.24596(17) 0.42735(12) 0.75721(8)
C59 C -0.12381(18) 0.44300(12) 0.76705(8)
C60 C -0.02989(16) 0.37993(11) 0.75502(6)
C61 C 0.08423(17) 0.41736(12) 0.73953(7)
C62 C 0.18268(17) 0.36722(13) 0.72671(8)
C63 C 0.16903(17) 0.27711(13) 0.73119(8)
C64 C 0.05718(16) 0.23890(12) 0.74714(7)
C65 C -0.04612(15) 0.28724(11) 0.75837(6)
C66 C -0.19676(15) 0.26327(10) 0.84735(6)
C67 C -0.32577(16) 0.29707(11) 0.85736(6)
C68 C -0.42489(17) 0.23170(13) 0.84566(8)
C69 C -0.5465(2) 0.24979(16) 0.84823(10)
C70 C -0.5746(2) 0.33789(16) 0.86494(9)
C71 C -0.4804(2) 0.40374(15) 0.87725(8)
C72 C -0.35677(19) 0.38641(13) 0.87394(8)
C73 C -0.2737(3) 0.46702(14) 0.89143(9)
C74 C -0.1529(3) 0.47606(14) 0.90277(9)
C75 C -0.06539(18) 0.40877(12) 0.90182(8)
C76 C 0.0472(2) 0.44324(14) 0.92921(9)
C77 C 0.1406(2) 0.39179(16) 0.93679(9)
C78 C 0.1254(2) 0.30069(15) 0.91406(10)
C79 C 0.01561(18) 0.26553(13) 0.88726(9)
C80 C -0.08329(16) 0.31603(11) 0.88018(6)
H27 H -0.11580 0.10010 0.68450
H28 H -0.11530 -0.05460 0.68890
H29 H -0.15190 -0.11090 0.77320
H30 H -0.20200 -0.07400 0.88370
H31 H -0.24480 0.03440 0.95880
H32 H -0.24680 0.18710 0.94860
H33 H -0.34110 0.12410 0.71710
H34 H -0.51410 0.14160 0.66410
H35 H -0.56440 0.28530 0.65170
H36 H -0.44140 0.40960 0.69620
H37 H -0.29340 0.47720 0.76750
H38 H -0.09550 0.50250 0.78390
H39 H 0.09380 0.48000 0.73790
H40 H 0.25800 0.39390 0.71510
H41 H 0.23610 0.24100 0.72340
H42 H 0.05070 0.17680 0.75060
H43 H -0.40710 0.17080 0.83530
H44 H -0.61000 0.20280 0.83870
H45 H -0.65770 0.35230 0.86780
H46 H -0.50000 0.46410 0.88860
H47 H -0.31190 0.52200 0.89540
H48 H -0.11890 0.53640 0.91310
H49 H 0.05850 0.50600 0.94320
H50 H 0.21400 0.41710 0.95700
H51 H 0.19020 0.26310 0.91700
H52 H 0.00670 0.20300 0.87270
C81 C 0.07640(15) -0.22151(11) 0.88893(7)
C82 C -0.00475(17) -0.22318(13) 0.93302(7)
C83 C -0.12886(18) -0.25628(14) 0.92049(8)
C84 C -0.17283(16) -0.28732(12) 0.86601(8)
C85 C -0.09207(15) -0.28731(11) 0.81947(7)
C86 C -0.12104(16) -0.31964(12) 0.76079(7)
C87 C -0.03129(16) -0.31920(12) 0.72080(7)
C88 C 0.09159(16) -0.28544(11) 0.73582(7)
C89 C 0.12141(14) -0.25187(10) 0.79188(6)
C90 C 0.03100(15) -0.25366(10) 0.83318(6)
C91 C 0.21400(15) -0.18956(11) 0.88992(6)
C92 C 0.28865(16) -0.24464(11) 0.92602(6)
C93 C 0.23099(19) -0.31360(12) 0.95195(7)
C94 C 0.2959(3) -0.36948(13) 0.97996(8)
C95 C 0.4222(3) -0.36006(14) 0.98216(8)
C96 C 0.4817(2) -0.29316(14) 0.95743(8)
C97 C 0.41834(17) -0.23337(12) 0.93062(7)
C98 C 0.49426(17) -0.16335(13) 0.90891(7)
C99 C 0.46544(17) -0.08044(13) 0.90446(7)
C100 C 0.35075(17) -0.04051(12) 0.91922(7)
C101 C 0.3612(3) 0.05251(13) 0.93909(8)
C102 C 0.2617(3) 0.09885(14) 0.95445(9)
C103 C 0.1455(3) 0.05383(14) 0.94845(9)
C104 C 0.13266(19) -0.03770(13) 0.92848(8)
C105 C 0.23309(16) -0.08777(11) 0.91398(6)
C106 C 0.24705(14) -0.21258(11) 0.81836(6)
C107 C 0.32961(15) -0.29139(11) 0.80706(6)
C108 C 0.27466(16) -0.37360(11) 0.81938(7)
C109 C 0.33142(18) -0.45258(12) 0.81308(7)
C110 C 0.44880(19) -0.45343(14) 0.79114(8)
C111 C 0.50497(18) -0.37523(14) 0.77844(8)
C112 C 0.45020(16) -0.29250(13) 0.78647(7)
C113 C 0.52875(17) -0.21660(14) 0.77315(8)
C114 C 0.50441(17) -0.13325(14) 0.76848(7)
C115 C 0.38973(17) -0.09043(13) 0.77364(7)
C116 C 0.3958(2) -0.00576(15) 0.75505(9)
C117 C 0.2972(3) 0.04438(16) 0.75482(10)
C118 C 0.1859(2) 0.01129(14) 0.77427(10)
C119 C 0.17767(17) -0.07141(12) 0.79269(8)
C120 C 0.27680(16) -0.12446(11) 0.79363(6)
H53 H 0.02230 -0.20230 0.97150
H54 H -0.18390 -0.25700 0.95120
H55 H -0.25680 -0.30870 0.85940
H56 H -0.20290 -0.34170 0.74920
H57 H -0.05210 -0.34220 0.68190
H58 H 0.15240 -0.28610 0.70740
H59 H 0.14380 -0.32230 0.95020
H60 H 0.25310 -0.41460 0.99780
H61 H 0.46740 -0.39930 1.00050
H62 H 0.56910 -0.28710 0.95850
H63 H 0.57350 -0.17830 0.89650
H64 H 0.52730 -0.04290 0.88990
H65 H 0.44040 0.08420 0.94190
H66 H 0.27190 0.16140 0.96910
H67 H 0.07500 0.08560 0.95800
H68 H 0.05240 -0.06770 0.92450
H69 H 0.19310 -0.37460 0.83290
H70 H 0.29110 -0.50560 0.82350
H71 H 0.48920 -0.50750 0.78510
H72 H 0.58520 -0.37640 0.76340
H73 H 0.61190 -0.22870 0.76670
H74 H 0.57350 -0.09530 0.76040
H75 H 0.47210 0.01740 0.74210
H76 H 0.30460 0.10080 0.74160
H77 H 0.11610 0.04520 0.77490
H78 H 0.10060 -0.09340 0.80540
loop_
_geom_bond_atom_site_label_1
_geom_bond_atom_site_label_2
_geom_bond_distance
_geom_bond_site_symmetry_1
_geom_bond_site_symmetry_2
C1 C2 1.382 1_555 1_555
C2 C3 1.411 1_555 1_555
C3 C4 1.372 1_555 1_555
C4 C5 1.416 1_555 1_555
C5 C6 1.424 1_555 1_555
C6 C7 1.372 1_555 1_555
C7 C8 1.414 1_555 1_555
C8 C9 1.374 1_555 1_555
C9 C10 1.400 1_555 1_555
C10 C1 1.408 1_555 1_555
C11 C1 1.532 1_555 1_555
C12 C11 1.544 1_555 1_555
C13 C12 1.404 1_555 1_555
C14 C13 1.384 1_555 1_555
C15 C14 1.381 1_555 1_555
C16 C15 1.380 1_555 1_555
C17 C12 1.414 1_555 1_555
C18 C17 1.454 1_555 1_555
C19 C18 1.337 1_555 1_555
C20 C19 1.457 1_555 1_555
C21 C20 1.403 1_555 1_555
C22 C21 1.377 1_555 1_555
C23 C22 1.380 1_555 1_555
C24 C23 1.384 1_555 1_555
C25 C11 1.548 1_555 1_555
C26 C9 1.536 1_555 1_555
C27 C26 1.545 1_555 1_555
C28 C27 1.410 1_555 1_555
C29 C28 1.381 1_555 1_555
C30 C29 1.384 1_555 1_555
C31 C30 1.376 1_555 1_555
C32 C27 1.410 1_555 1_555
C33 C32 1.455 1_555 1_555
C34 C33 1.331 1_555 1_555
C35 C34 1.452 1_555 1_555
C36 C35 1.410 1_555 1_555
C37 C36 1.373 1_555 1_555
C38 C37 1.384 1_555 1_555
C39 C38 1.381 1_555 1_555
C40 C26 1.552 1_555 1_555
H1 C2 0.950 1_555 1_555
H2 C3 0.950 1_555 1_555
H3 C4 0.950 1_555 1_555
H4 C6 0.950 1_555 1_555
H5 C7 0.951 1_555 1_555
H6 C8 0.950 1_555 1_555
H7 C13 0.950 1_555 1_555
H8 C14 0.950 1_555 1_555
H9 C15 0.950 1_555 1_555
H10 C16 0.949 1_555 1_555
H11 C18 0.951 1_555 1_555
H12 C19 0.949 1_555 1_555
H13 C21 0.949 1_555 1_555
H14 C22 0.950 1_555 1_555
H15 C23 0.950 1_555 1_555
H16 C24 0.950 1_555 1_555
H17 C28 0.950 1_555 1_555
H18 C29 0.950 1_555 1_555
H19 C30 0.951 1_555 1_555
H20 C31 0.949 1_555 1_555
H21 C33 0.950 1_555 1_555
H22 C34 0.950 1_555 1_555
H23 C36 0.950 1_555 1_555
H24 C37 0.950 1_555 1_555
H25 C38 0.950 1_555 1_555
H26 C39 0.949 1_555 1_555
C41 C42 1.375 1_555 1_555
C42 C43 1.413 1_555 1_555
C43 C44 1.378 1_555 1_555
C44 C45 1.413 1_555 1_555
C45 C46 1.422 1_555 1_555
C46 C47 1.369 1_555 1_555
C47 C48 1.415 1_555 1_555
C48 C49 1.375 1_555 1_555
C49 C50 1.401 1_555 1_555
C50 C41 1.401 1_555 1_555
C51 C41 1.536 1_555 1_555
C52 C51 1.557 1_555 1_555
C53 C52 1.401 1_555 1_555
C54 C53 1.382 1_555 1_555
C55 C54 1.379 1_555 1_555
C56 C55 1.375 1_555 1_555
C57 C52 1.412 1_555 1_555
C58 C57 1.455 1_555 1_555
C59 C58 1.346 1_555 1_555
C60 C59 1.454 1_555 1_555
C61 C60 1.403 1_555 1_555
C62 C61 1.373 1_555 1_555
C63 C62 1.377 1_555 1_555
C64 C63 1.390 1_555 1_555
C65 C51 1.554 1_555 1_555
C66 C49 1.539 1_555 1_555
C67 C66 1.544 1_555 1_555
C68 C67 1.399 1_555 1_555
C69 C68 1.377 1_555 1_555
C70 C69 1.386 1_555 1_555
C71 C70 1.367 1_555 1_555
C72 C67 1.413 1_555 1_555
C73 C72 1.460 1_555 1_555
C74 C73 1.334 1_555 1_555
C75 C74 1.446 1_555 1_555
C76 C75 1.405 1_555 1_555
C77 C76 1.356 1_555 1_555
C78 C77 1.392 1_555 1_555
C79 C78 1.376 1_555 1_555
C80 C66 1.548 1_555 1_555
H27 C42 0.950 1_555 1_555
H28 C43 0.951 1_555 1_555
H29 C44 0.951 1_555 1_555
H30 C46 0.951 1_555 1_555
H31 C47 0.949 1_555 1_555
H32 C48 0.950 1_555 1_555
H33 C53 0.950 1_555 1_555
H34 C54 0.949 1_555 1_555
H35 C55 0.950 1_555 1_555
H36 C56 0.950 1_555 1_555
H37 C58 0.949 1_555 1_555
H38 C59 0.949 1_555 1_555
H39 C61 0.949 1_555 1_555
H40 C62 0.949 1_555 1_555
H41 C63 0.950 1_555 1_555
H42 C64 0.950 1_555 1_555
H43 C68 0.949 1_555 1_555
H44 C69 0.950 1_555 1_555
H45 C70 0.950 1_555 1_555
H46 C71 0.950 1_555 1_555
H47 C73 0.950 1_555 1_555
H48 C74 0.949 1_555 1_555
H49 C76 0.951 1_555 1_555
H50 C77 0.949 1_555 1_555
H51 C78 0.950 1_555 1_555
H52 C79 0.949 1_555 1_555
C81 C82 1.379 1_555 1_555
C82 C83 1.417 1_555 1_555
C83 C84 1.368 1_555 1_555
C84 C85 1.419 1_555 1_555
C85 C86 1.421 1_555 1_555
C86 C87 1.371 1_555 1_555
C87 C88 1.417 1_555 1_555
C88 C89 1.369 1_555 1_555
C89 C90 1.399 1_555 1_555
C90 C81 1.402 1_555 1_555
C91 C81 1.539 1_555 1_555
C92 C91 1.548 1_555 1_555
C93 C92 1.400 1_555 1_555
C94 C93 1.382 1_555 1_555
C95 C94 1.374 1_555 1_555
C96 C95 1.368 1_555 1_555
C97 C92 1.413 1_555 1_555
C98 C97 1.452 1_555 1_555
C99 C98 1.333 1_555 1_555
C100 C99 1.455 1_555 1_555
C101 C100 1.404 1_555 1_555
C102 C101 1.361 1_555 1_555
C103 C102 1.385 1_555 1_555
C104 C103 1.383 1_555 1_555
C105 C91 1.549 1_555 1_555
C106 C89 1.536 1_555 1_555
C107 C106 1.541 1_555 1_555
C108 C107 1.408 1_555 1_555
C109 C108 1.375 1_555 1_555
C110 C109 1.389 1_555 1_555
C111 C110 1.363 1_555 1_555
C112 C107 1.410 1_555 1_555
C113 C112 1.452 1_555 1_555
C114 C113 1.327 1_555 1_555
C115 C114 1.452 1_555 1_555
C116 C115 1.411 1_555 1_555
C117 C116 1.364 1_555 1_555
C118 C117 1.388 1_555 1_555
C119 C118 1.381 1_555 1_555
C120 C106 1.547 1_555 1_555
H53 C82 0.951 1_555 1_555
H54 C83 0.949 1_555 1_555
H55 C84 0.950 1_555 1_555
H56 C86 0.950 1_555 1_555
H57 C87 0.950 1_555 1_555
H58 C88 0.950 1_555 1_555
H59 C93 0.950 1_555 1_555
H60 C94 0.951 1_555 1_555
H61 C95 0.950 1_555 1_555
H62 C96 0.951 1_555 1_555
H63 C98 0.950 1_555 1_555
H64 C99 0.949 1_555 1_555
H65 C101 0.950 1_555 1_555
H66 C102 0.950 1_555 1_555
H67 C103 0.950 1_555 1_555
H68 C104 0.950 1_555 1_555
H69 C108 0.950 1_555 1_555
H70 C109 0.950 1_555 1_555
H71 C110 0.950 1_555 1_555
H72 C111 0.950 1_555 1_555
H73 C113 0.950 1_555 1_555
H74 C114 0.950 1_555 1_555
H75 C116 0.950 1_555 1_555
H76 C117 0.950 1_555 1_555
H77 C118 0.950 1_555 1_555
H78 C119 0.949 1_555 1_555
C5 C10 1.411 1_555 1_555
C11 C26 1.738 1_555 1_555
C16 C17 1.404 1_555 1_555
C20 C25 1.414 1_555 1_555
C24 C25 1.399 1_555 1_555
C31 C32 1.408 1_555 1_555
C35 C40 1.413 1_555 1_555
C39 C40 1.407 1_555 1_555
C45 C50 1.414 1_555 1_555
C51 C66 1.719 1_555 1_555
C56 C57 1.406 1_555 1_555
C60 C65 1.410 1_555 1_555
C64 C65 1.397 1_555 1_555
C71 C72 1.396 1_555 1_555
C75 C80 1.410 1_555 1_555
C79 C80 1.393 1_555 1_555
C85 C90 1.413 1_555 1_555
C91 C106 1.723 1_555 1_555
C96 C97 1.400 1_555 1_555
C100 C105 1.413 1_555 1_555
C104 C105 1.397 1_555 1_555
C111 C112 1.414 1_555 1_555
C115 C120 1.413 1_555 1_555
C119 C120 1.398 1_555 1_555
#END
