
#######################################################################
#
#                 Cambridge Crystallographic Data Centre
#                                CCDC
#
#######################################################################
#
# If this CIF has been generated from an entry in the Cambridge
# Structural Database, then it will include bibliographic, chemical,
# crystal, experimental, refinement or atomic coordinate data resulting
# from the CCDC's data processing and validation procedures.
#
#######################################################################

data_CSD_CIF_PEVRIU05
_audit_creation_date 2018-03-09
_audit_creation_method CSD-ConQuest-V1
_database_code_CSD PEVRIU05
_database_code_depnum_ccdc_archive 'CCDC 1567393'
_chemical_formula_sum 'C40 H26'
_chemical_formula_moiety
;
C40 H26
;
_journal_coden_Cambridge 1885
_journal_volume 4
_journal_year 2018
_journal_page_first 795
_journal_name_full 'CheM '
loop_
_publ_author_name
"Y.Ishigaki"
"T.Shimajiri"
"T.Takeda"
"R.Katoono"
"T.Suzuki"
_chemical_name_systematic
;
dispiro[dibenzo[a,d][7]annulene-5,1'-acenaphthylene-2',5''-dibenzo[a,d][7]annu
lene]
;
_cell_volume   3897.061
_exptl_crystal_colour 'colorless'
_exptl_crystal_density_diffrn 1.295
_exptl_crystal_description 'platelet'
_diffrn_ambient_temperature 320
#These two values have been output from a single CSD field.
_refine_ls_R_factor_gt 0.0544
_refine_ls_wR_factor_gt 0.0544
_symmetry_cell_setting triclinic
_symmetry_space_group_name_H-M 'P -1'
_symmetry_Int_Tables_number 2
loop_
_symmetry_equiv_pos_site_id
_symmetry_equiv_pos_as_xyz
1 x,y,z
2 -x,-y,-z
_cell_length_a 10.976(2)
_cell_length_b 15.158(3)
_cell_length_c 23.792(5)
_cell_angle_alpha 98.983(5)
_cell_angle_beta 90.449(3)
_cell_angle_gamma 94.482(3)
_cell_formula_units_Z 6
loop_
_atom_type_symbol
_atom_type_radius_bond
C 0.68
H 0.23
loop_
_atom_site_label
_atom_site_type_symbol
_atom_site_fract_x
_atom_site_fract_y
_atom_site_fract_z
C1 C 0.02394(16) 0.26086(11) 0.54318(7)
C2 C -0.03293(18) 0.27748(13) 0.59473(7)
C3 C -0.16084(18) 0.27616(13) 0.59636(8)
C4 C -0.23325(18) 0.25800(14) 0.54837(9)
C5 C -0.17960(17) 0.23840(13) 0.49461(8)
C6 C -0.24079(18) 0.21612(14) 0.44095(8)
C7 C -0.17600(18) 0.19653(14) 0.39229(8)
C8 C -0.04737(17) 0.20014(13) 0.39297(7)
C9 C 0.01507(15) 0.22339(11) 0.44399(7)
C10 C -0.05094(15) 0.24077(11) 0.49398(7)
C11 C 0.16000(15) 0.25952(11) 0.52936(6)
C12 C 0.21717(16) 0.18477(12) 0.55522(7)
C13 C 0.14778(19) 0.13016(13) 0.58758(8)
C14 C 0.1910(3) 0.05565(15) 0.60478(9)
C15 C 0.3058(3) 0.03142(16) 0.58981(10)
C16 C 0.3778(2) 0.08446(15) 0.55943(9)
C17 C 0.33762(17) 0.16277(13) 0.54328(7)
C18 C 0.42567(17) 0.21500(15) 0.51417(8)
C19 C 0.43301(18) 0.30305(15) 0.51301(8)
C20 C 0.35503(18) 0.36883(13) 0.54106(8)
C21 C 0.4106(3) 0.45531(16) 0.55784(10)
C22 C 0.3480(3) 0.52318(18) 0.58609(13)
C23 C 0.2274(3) 0.50592(16) 0.59810(11)
C24 C 0.1701(2) 0.42176(14) 0.58087(9)
C25 C 0.22995(17) 0.35121(12) 0.55175(7)
C26 C 0.15310(15) 0.23589(11) 0.45533(6)
C27 C 0.20215(15) 0.14424(11) 0.43418(7)
C28 C 0.13395(17) 0.07117(12) 0.45136(7)
C29 C 0.17008(18) -0.01515(13) 0.44300(8)
C30 C 0.2765(2) -0.03266(14) 0.41467(9)
C31 C 0.34133(19) 0.03586(13) 0.39433(8)
C32 C 0.30779(17) 0.12458(12) 0.40277(7)
C33 C 0.38754(18) 0.18625(14) 0.37629(8)
C34 C 0.38119(18) 0.27214(14) 0.37206(8)
C35 C 0.29410(17) 0.33522(13) 0.39374(7)
C36 C 0.3135(2) 0.41937(14) 0.37570(8)
C37 C 0.2437(3) 0.48887(15) 0.39211(10)
C38 C 0.1480(2) 0.47594(14) 0.42802(9)
C39 C 0.12447(18) 0.39380(13) 0.44517(8)
C40 C 0.19535(16) 0.32120(12) 0.42998(7)
H1 H 0.01330 0.28950 0.62840
H2 H -0.19770 0.28810 0.63150
H3 H -0.31770 0.25860 0.55110
H4 H -0.32560 0.21480 0.43880
H5 H -0.21820 0.18030 0.35770
H6 H -0.00530 0.18700 0.35930
H7 H 0.06940 0.14490 0.59780
H8 H 0.14250 0.02160 0.62660
H9 H 0.33430 -0.02010 0.60010
H10 H 0.45550 0.06810 0.54930
H11 H 0.48440 0.18320 0.49370
H12 H 0.49570 0.32490 0.49160
H13 H 0.49240 0.46720 0.54960
H14 H 0.38690 0.58010 0.59690
H15 H 0.18430 0.55100 0.61790
H16 H 0.08790 0.41160 0.58900
H17 H 0.06030 0.08140 0.46940
H18 H 0.12300 -0.06090 0.45640
H19 H 0.30370 -0.08990 0.40950
H20 H 0.41130 0.02320 0.37380
H21 H 0.45540 0.16120 0.35920
H22 H 0.44390 0.29590 0.35150
H23 H 0.37750 0.42790 0.35120
H24 H 0.25990 0.54360 0.37950
H25 H 0.09960 0.52250 0.44060
H26 H 0.05760 0.38600 0.46820
C41 C -0.16018(17) 0.13739(12) 0.76847(7)
C42 C -0.1358(2) 0.07824(14) 0.72074(9)
C43 C -0.1346(3) -0.01356(16) 0.72413(11)
C44 C -0.1562(2) -0.04662(14) 0.77402(12)
C45 C -0.18098(19) 0.01212(13) 0.82412(10)
C46 C -0.2055(3) -0.01052(16) 0.87859(11)
C47 C -0.2302(3) 0.05413(17) 0.92283(10)
C48 C -0.2316(2) 0.14486(15) 0.91685(8)
C49 C -0.20687(17) 0.16943(12) 0.86457(7)
C50 C -0.18256(17) 0.10351(12) 0.81919(8)
C51 C -0.17147(17) 0.23862(12) 0.77579(7)
C52 C -0.28237(16) 0.25584(12) 0.73920(7)
C53 C -0.36120(19) 0.18366(14) 0.71358(8)
C54 C -0.4636(2) 0.19350(17) 0.68214(9)
C55 C -0.4935(2) 0.27738(18) 0.67506(9)
C56 C -0.4199(2) 0.35007(16) 0.70050(8)
C57 C -0.31464(18) 0.34192(13) 0.73260(7)
C58 C -0.2465(2) 0.42542(14) 0.75657(10)
C59 C -0.1259(3) 0.44062(15) 0.76615(10)
C60 C -0.03274(19) 0.37747(13) 0.75488(8)
C61 C 0.0816(2) 0.41387(15) 0.73999(9)
C62 C 0.1784(2) 0.36347(17) 0.72788(10)
C63 C 0.1644(2) 0.27457(18) 0.73255(10)
C64 C 0.0530(2) 0.23750(15) 0.74795(9)
C65 C -0.04969(17) 0.28580(12) 0.75877(7)
C66 C -0.20069(17) 0.26289(11) 0.84731(7)
C67 C -0.32846(19) 0.29692(13) 0.85732(7)
C68 C -0.4266(2) 0.23204(16) 0.84623(10)
C69 C -0.5477(3) 0.2499(3) 0.84937(13)
C70 C -0.5753(3) 0.3374(3) 0.86556(13)
C71 C -0.4827(3) 0.4027(2) 0.87706(10)
C72 C -0.3598(3) 0.38549(15) 0.87344(9)
C73 C -0.2780(4) 0.46532(18) 0.89011(12)
C74 C -0.1582(4) 0.47443(18) 0.90086(12)
C75 C -0.0706(3) 0.40806(15) 0.90017(9)
C76 C 0.0407(3) 0.44306(18) 0.92706(11)
C77 C 0.1325(3) 0.3926(3) 0.93522(12)
C78 C 0.1181(3) 0.3019(2) 0.91425(13)
C79 C 0.0095(3) 0.26642(16) 0.8876(1)
C80 C -0.08809(18) 0.31604(12) 0.87967(7)
H27 H -0.12020 0.09870 0.68640
H28 H -0.11860 -0.05310 0.69150
H29 H -0.15440 -0.10770 0.77480
H30 H -0.20480 -0.06980 0.88430
H31 H -0.24670 0.03750 0.95820
H32 H -0.24900 0.18750 0.94770
H33 H -0.34360 0.12610 0.71800
H34 H -0.51260 0.14320 0.66560
H35 H -0.56200 0.28470 0.65350
H36 H -0.44040 0.40710 0.69630
H37 H -0.29240 0.47440 0.76650
H38 H -0.09830 0.49880 0.78200
H39 H 0.09190 0.47490 0.73830
H40 H 0.25220 0.38900 0.71670
H41 H 0.22970 0.23910 0.72540
H42 H 0.04610 0.17700 0.75130
H43 H -0.40910 0.17270 0.83600
H44 H -0.60950 0.20410 0.84080
H45 H -0.65620 0.35150 0.86850
H46 H -0.50210 0.46160 0.88780
H47 H -0.31540 0.51890 0.89390
H48 H -0.12530 0.53340 0.91040
H49 H 0.05150 0.50440 0.93990
H50 H 0.20390 0.41800 0.95450
H51 H 0.18090 0.26540 0.91810
H52 H 0.00110 0.20520 0.87410
C81 C 0.07612(17) -0.22102(13) 0.88857(8)
C82 C -0.0048(2) -0.22232(16) 0.93239(9)
C83 C -0.1276(3) -0.25499(17) 0.92014(11)
C84 C -0.1707(2) -0.28583(15) 0.86661(11)
C85 C -0.09118(18) -0.28683(13) 0.82023(9)
C86 C -0.11943(19) -0.31896(14) 0.76218(9)
C87 C -0.0313(2) -0.31858(15) 0.72213(9)
C88 C 0.09067(19) -0.28522(14) 0.73662(8)
C89 C 0.12068(16) -0.25153(12) 0.79222(7)
C90 C 0.03118(16) -0.25341(12) 0.83335(7)
C91 C 0.21268(17) -0.18960(12) 0.88929(7)
C92 C 0.28684(18) -0.24449(12) 0.92526(7)
C93 C 0.2286(3) -0.31334(14) 0.95067(8)
C94 C 0.2926(3) -0.36855(16) 0.97871(10)
C95 C 0.4171(4) -0.3588(2) 0.98175(11)
C96 C 0.4770(3) -0.29236(19) 0.95755(10)
C97 C 0.4149(2) -0.23282(14) 0.93031(8)
C98 C 0.4909(2) -0.16343(18) 0.90915(9)
C99 C 0.4625(2) -0.08138(17) 0.90440(9)
C100 C 0.3483(2) -0.04144(14) 0.91846(8)
C101 C 0.3576(3) 0.05090(17) 0.93781(11)
C102 C 0.2597(4) 0.09689(18) 0.95259(12)
C103 C 0.1444(3) 0.05249(17) 0.94682(11)
C104 C 0.1323(3) -0.03820(15) 0.92739(9)
C105 C 0.23151(19) -0.08845(13) 0.91310(7)
C106 C 0.24553(16) -0.21280(12) 0.81811(7)
C107 C 0.32736(17) -0.29131(13) 0.80665(7)
C108 C 0.27307(19) -0.37328(14) 0.81850(8)
C109 C 0.3294(3) -0.45176(15) 0.81212(9)
C110 C 0.4456(3) -0.45272(19) 0.79086(11)
C111 C 0.5021(3) -0.3749(2) 0.77858(10)
C112 C 0.44774(19) -0.29249(16) 0.78657(8)
C113 C 0.5257(2) -0.2178(2) 0.77353(10)
C114 C 0.5022(2) -0.1347(2) 0.76901(10)
C115 C 0.3881(2) -0.09183(16) 0.77359(9)
C116 C 0.3942(3) -0.0080(2) 0.75521(12)
C117 C 0.2974(4) 0.0415(2) 0.75453(14)
C118 C 0.1862(3) 0.00904(18) 0.77352(13)
C119 C 0.1775(2) -0.07288(15) 0.79178(10)
C120 C 0.27520(18) -0.12545(13) 0.79334(7)
H53 H 0.02130 -0.20180 0.96980
H54 H -0.18140 -0.25540 0.95020
H55 H -0.25260 -0.30630 0.86040
H56 H -0.19910 -0.34060 0.75120
H57 H -0.05190 -0.34080 0.68430
H58 H 0.14970 -0.28620 0.70880
H59 H 0.14380 -0.32210 0.94850
H60 H 0.25060 -0.41280 0.99570
H61 H 0.46050 -0.39680 1.00000
H62 H 0.56200 -0.28630 0.95910
H63 H 0.56850 -0.17800 0.89750
H64 H 0.52320 -0.04490 0.89030
H65 H 0.43450 0.08180 0.94060
H66 H 0.26960 0.15790 0.96650
H67 H 0.07570 0.08360 0.95600
H68 H 0.05410 -0.06730 0.92360
H69 H 0.19340 -0.37440 0.83160
H70 H 0.28980 -0.50350 0.82200
H71 H 0.48480 -0.50550 0.78500
H72 H 0.58060 -0.37610 0.76420
H73 H 0.60660 -0.23000 0.76720
H74 H 0.56990 -0.09770 0.76170
H75 H 0.46880 0.01460 0.74290
H76 H 0.30510 0.09640 0.74160
H77 H 0.11830 0.04220 0.77390
H78 H 0.10190 -0.09430 0.80380
loop_
_geom_bond_atom_site_label_1
_geom_bond_atom_site_label_2
_geom_bond_distance
_geom_bond_site_symmetry_1
_geom_bond_site_symmetry_2
C1 C2 1.377 1_555 1_555
C2 C3 1.403 1_555 1_555
C3 C4 1.365 1_555 1_555
C4 C5 1.411 1_555 1_555
C5 C6 1.418 1_555 1_555
C6 C7 1.368 1_555 1_555
C7 C8 1.408 1_555 1_555
C8 C9 1.372 1_555 1_555
C9 C10 1.398 1_555 1_555
C10 C1 1.405 1_555 1_555
C11 C1 1.533 1_555 1_555
C12 C11 1.542 1_555 1_555
C13 C12 1.403 1_555 1_555
C14 C13 1.376 1_555 1_555
C15 C14 1.374 1_555 1_555
C16 C15 1.373 1_555 1_555
C17 C12 1.409 1_555 1_555
C18 C17 1.450 1_555 1_555
C19 C18 1.335 1_555 1_555
C20 C19 1.451 1_555 1_555
C21 C20 1.399 1_555 1_555
C22 C21 1.373 1_555 1_555
C23 C22 1.370 1_555 1_555
C24 C23 1.378 1_555 1_555
C25 C11 1.549 1_555 1_555
C26 C9 1.529 1_555 1_555
C27 C26 1.541 1_555 1_555
C28 C27 1.404 1_555 1_555
C29 C28 1.382 1_555 1_555
C30 C29 1.376 1_555 1_555
C31 C30 1.366 1_555 1_555
C32 C27 1.411 1_555 1_555
C33 C32 1.450 1_555 1_555
C34 C33 1.329 1_555 1_555
C35 C34 1.446 1_555 1_555
C36 C35 1.409 1_555 1_555
C37 C36 1.361 1_555 1_555
C38 C37 1.381 1_555 1_555
C39 C38 1.376 1_555 1_555
C40 C26 1.551 1_555 1_555
H1 C2 0.931 1_555 1_555
H2 C3 0.930 1_555 1_555
H3 C4 0.930 1_555 1_555
H4 C6 0.930 1_555 1_555
H5 C7 0.930 1_555 1_555
H6 C8 0.930 1_555 1_555
H7 C13 0.930 1_555 1_555
H8 C14 0.930 1_555 1_555
H9 C15 0.930 1_555 1_555
H10 C16 0.930 1_555 1_555
H11 C18 0.930 1_555 1_555
H12 C19 0.930 1_555 1_555
H13 C21 0.930 1_555 1_555
H14 C22 0.930 1_555 1_555
H15 C23 0.931 1_555 1_555
H16 C24 0.930 1_555 1_555
H17 C28 0.931 1_555 1_555
H18 C29 0.930 1_555 1_555
H19 C30 0.930 1_555 1_555
H20 C31 0.930 1_555 1_555
H21 C33 0.930 1_555 1_555
H22 C34 0.930 1_555 1_555
H23 C36 0.930 1_555 1_555
H24 C37 0.930 1_555 1_555
H25 C38 0.930 1_555 1_555
H26 C39 0.931 1_555 1_555
C41 C42 1.375 1_555 1_555
C42 C43 1.407 1_555 1_555
C43 C44 1.374 1_555 1_555
C44 C45 1.414 1_555 1_555
C45 C46 1.414 1_555 1_555
C46 C47 1.366 1_555 1_555
C47 C48 1.406 1_555 1_555
C48 C49 1.376 1_555 1_555
C49 C50 1.394 1_555 1_555
C50 C41 1.400 1_555 1_555
C51 C41 1.532 1_555 1_555
C52 C51 1.553 1_555 1_555
C53 C52 1.397 1_555 1_555
C54 C53 1.376 1_555 1_555
C55 C54 1.373 1_555 1_555
C56 C55 1.370 1_555 1_555
C57 C52 1.410 1_555 1_555
C58 C57 1.451 1_555 1_555
C59 C58 1.337 1_555 1_555
C60 C59 1.453 1_555 1_555
C61 C60 1.402 1_555 1_555
C62 C61 1.363 1_555 1_555
C63 C62 1.366 1_555 1_555
C64 C63 1.382 1_555 1_555
C65 C51 1.553 1_555 1_555
C66 C49 1.532 1_555 1_555
C67 C66 1.539 1_555 1_555
C68 C67 1.395 1_555 1_555
C69 C68 1.377 1_555 1_555
C70 C69 1.380 1_555 1_555
C71 C70 1.357 1_555 1_555
C72 C67 1.408 1_555 1_555
C73 C72 1.450 1_555 1_555
C74 C73 1.330 1_555 1_555
C75 C74 1.443 1_555 1_555
C76 C75 1.401 1_555 1_555
C77 C76 1.342 1_555 1_555
C78 C77 1.384 1_555 1_555
C79 C78 1.376 1_555 1_555
C80 C66 1.551 1_555 1_555
H27 C42 0.931 1_555 1_555
H28 C43 0.931 1_555 1_555
H29 C44 0.931 1_555 1_555
H30 C46 0.930 1_555 1_555
H31 C47 0.931 1_555 1_555
H32 C48 0.931 1_555 1_555
H33 C53 0.930 1_555 1_555
H34 C54 0.930 1_555 1_555
H35 C55 0.930 1_555 1_555
H36 C56 0.930 1_555 1_555
H37 C58 0.931 1_555 1_555
H38 C59 0.930 1_555 1_555
H39 C61 0.930 1_555 1_555
H40 C62 0.929 1_555 1_555
H41 C63 0.930 1_555 1_555
H42 C64 0.930 1_555 1_555
H43 C68 0.930 1_555 1_555
H44 C69 0.929 1_555 1_555
H45 C70 0.930 1_555 1_555
H46 C71 0.931 1_555 1_555
H47 C73 0.931 1_555 1_555
H48 C74 0.930 1_555 1_555
H49 C76 0.930 1_555 1_555
H50 C77 0.930 1_555 1_555
H51 C78 0.930 1_555 1_555
H52 C79 0.931 1_555 1_555
C81 C82 1.376 1_555 1_555
C82 C83 1.411 1_555 1_555
C83 C84 1.354 1_555 1_555
C84 C85 1.411 1_555 1_555
C85 C86 1.414 1_555 1_555
C86 C87 1.363 1_555 1_555
C87 C88 1.414 1_555 1_555
C88 C89 1.369 1_555 1_555
C89 C90 1.394 1_555 1_555
C90 C81 1.400 1_555 1_555
C91 C81 1.536 1_555 1_555
C92 C91 1.551 1_555 1_555
C93 C92 1.401 1_555 1_555
C94 C93 1.378 1_555 1_555
C95 C94 1.363 1_555 1_555
C96 C95 1.364 1_555 1_555
C97 C92 1.405 1_555 1_555
C98 C97 1.446 1_555 1_555
C99 C98 1.327 1_555 1_555
C100 C99 1.453 1_555 1_555
C101 C100 1.399 1_555 1_555
C102 C101 1.346 1_555 1_555
C103 C102 1.382 1_555 1_555
C104 C103 1.376 1_555 1_555
C105 C91 1.547 1_555 1_555
C106 C89 1.533 1_555 1_555
C107 C106 1.538 1_555 1_555
C108 C107 1.405 1_555 1_555
C109 C108 1.371 1_555 1_555
C110 C109 1.376 1_555 1_555
C111 C110 1.363 1_555 1_555
C112 C107 1.409 1_555 1_555
C113 C112 1.440 1_555 1_555
C114 C113 1.326 1_555 1_555
C115 C114 1.453 1_555 1_555
C116 C115 1.404 1_555 1_555
C117 C116 1.349 1_555 1_555
C118 C117 1.386 1_555 1_555
C119 C118 1.375 1_555 1_555
C120 C106 1.545 1_555 1_555
H53 C82 0.931 1_555 1_555
H54 C83 0.931 1_555 1_555
H55 C84 0.931 1_555 1_555
H56 C86 0.930 1_555 1_555
H57 C87 0.930 1_555 1_555
H58 C88 0.929 1_555 1_555
H59 C93 0.930 1_555 1_555
H60 C94 0.930 1_555 1_555
H61 C95 0.930 1_555 1_555
H62 C96 0.930 1_555 1_555
H63 C98 0.930 1_555 1_555
H64 C99 0.931 1_555 1_555
H65 C101 0.929 1_555 1_555
H66 C102 0.930 1_555 1_555
H67 C103 0.930 1_555 1_555
H68 C104 0.931 1_555 1_555
H69 C108 0.930 1_555 1_555
H70 C109 0.930 1_555 1_555
H71 C110 0.930 1_555 1_555
H72 C111 0.930 1_555 1_555
H73 C113 0.930 1_555 1_555
H74 C114 0.930 1_555 1_555
H75 C116 0.930 1_555 1_555
H76 C117 0.929 1_555 1_555
H77 C118 0.930 1_555 1_555
H78 C119 0.931 1_555 1_555
C5 C10 1.410 1_555 1_555
C11 C26 1.742 1_555 1_555
C16 C17 1.405 1_555 1_555
C20 C25 1.411 1_555 1_555
C24 C25 1.393 1_555 1_555
C31 C32 1.407 1_555 1_555
C35 C40 1.414 1_555 1_555
C39 C40 1.400 1_555 1_555
C45 C50 1.410 1_555 1_555
C51 C66 1.722 1_555 1_555
C56 C57 1.404 1_555 1_555
C60 C65 1.405 1_555 1_555
C64 C65 1.395 1_555 1_555
C71 C72 1.395 1_555 1_555
C75 C80 1.402 1_555 1_555
C79 C80 1.384 1_555 1_555
C85 C90 1.413 1_555 1_555
C91 C106 1.722 1_555 1_555
C96 C97 1.404 1_555 1_555
C100 C105 1.412 1_555 1_555
C104 C105 1.391 1_555 1_555
C111 C112 1.413 1_555 1_555
C115 C120 1.415 1_555 1_555
C119 C120 1.389 1_555 1_555
#END
