
#######################################################################
#
#                 Cambridge Crystallographic Data Centre
#                                CCDC
#
#######################################################################
#
# If this CIF has been generated from an entry in the Cambridge
# Structural Database, then it will include bibliographic, chemical,
# crystal, experimental, refinement or atomic coordinate data resulting
# from the CCDC's data processing and validation procedures.
#
#######################################################################

data_CSD_CIF_PEVRIU07
_audit_creation_date 2018-03-09
_audit_creation_method CSD-ConQuest-V1
_database_code_CSD PEVRIU07
_database_code_depnum_ccdc_archive 'CCDC 1567395'
_chemical_formula_sum 'C40 H26'
_chemical_formula_moiety
;
C40 H26
;
_journal_coden_Cambridge 1885
_journal_volume 4
_journal_year 2018
_journal_page_first 795
_journal_name_full 'CheM '
loop_
_publ_author_name
"Y.Ishigaki"
"T.Shimajiri"
"T.Takeda"
"R.Katoono"
"T.Suzuki"
_chemical_name_systematic
;
dispiro[dibenzo[a,d][7]annulene-5,1'-acenaphthylene-2',5''-dibenzo[a,d][7]annu
lene]
;
_cell_volume   3932.847
_exptl_crystal_colour 'colorless'
_exptl_crystal_density_diffrn 1.283
_exptl_crystal_description 'platelet'
_diffrn_ambient_temperature 400
#These two values have been output from a single CSD field.
_refine_ls_R_factor_gt 0.0591
_refine_ls_wR_factor_gt 0.0591
_symmetry_cell_setting triclinic
_symmetry_space_group_name_H-M 'P -1'
_symmetry_Int_Tables_number 2
loop_
_symmetry_equiv_pos_site_id
_symmetry_equiv_pos_as_xyz
1 x,y,z
2 -x,-y,-z
_cell_length_a 11.009(3)
_cell_length_b 15.203(4)
_cell_length_c 23.865(6)
_cell_angle_alpha 98.972(6)
_cell_angle_beta 90.356(5)
_cell_angle_gamma 94.448(4)
_cell_formula_units_Z 6
loop_
_atom_type_symbol
_atom_type_radius_bond
C 0.68
H 0.23
loop_
_atom_site_label
_atom_site_type_symbol
_atom_site_fract_x
_atom_site_fract_y
_atom_site_fract_z
C1 C 0.02442(17) 0.26089(12) 0.54311(7)
C2 C -0.03253(19) 0.27699(14) 0.59444(8)
C3 C -0.1603(2) 0.27570(15) 0.59610(9)
C4 C -0.2322(2) 0.25754(15) 0.54836(9)
C5 C -0.17838(18) 0.23821(14) 0.49473(8)
C6 C -0.2389(2) 0.21567(16) 0.44125(9)
C7 C -0.1747(2) 0.19674(16) 0.39278(9)
C8 C -0.04657(19) 0.20062(14) 0.39346(8)
C9 C 0.01539(16) 0.22370(12) 0.44417(7)
C10 C -0.05008(17) 0.24082(12) 0.49406(7)
C11 C 0.15984(16) 0.25966(12) 0.52935(7)
C12 C 0.21718(17) 0.18508(13) 0.55510(7)
C13 C 0.1480(2) 0.13051(15) 0.58726(8)
C14 C 0.1912(3) 0.05644(17) 0.60446(10)
C15 C 0.3057(3) 0.03254(18) 0.58975(11)
C16 C 0.3779(3) 0.08522(17) 0.5595(1)
C17 C 0.33761(19) 0.16355(14) 0.54333(8)
C18 C 0.42542(19) 0.21556(17) 0.51440(8)
C19 C 0.4324(2) 0.30336(17) 0.51347(9)
C20 C 0.3545(2) 0.36882(15) 0.54116(8)
C21 C 0.4090(3) 0.45509(19) 0.55817(11)
C22 C 0.3462(4) 0.5224(2) 0.58619(14)
C23 C 0.2265(3) 0.50524(19) 0.59783(12)
C24 C 0.1697(3) 0.42115(15) 0.58066(9)
C25 C 0.22942(18) 0.35098(13) 0.55173(7)
C26 C 0.15320(16) 0.23624(12) 0.45536(7)
C27 C 0.20209(16) 0.14476(12) 0.43430(7)
C28 C 0.13452(18) 0.07167(13) 0.45148(7)
C29 C 0.1702(2) -0.01437(14) 0.44287(8)
C30 C 0.2764(3) -0.03180(15) 0.41460(9)
C31 C 0.3412(2) 0.03637(15) 0.39443(9)
C32 C 0.30794(18) 0.12492(14) 0.40299(7)
C33 C 0.3878(2) 0.18638(16) 0.37679(9)
C34 C 0.3812(2) 0.27225(16) 0.37268(9)
C35 C 0.29391(18) 0.33528(14) 0.39411(7)
C36 C 0.3133(3) 0.41898(16) 0.37610(9)
C37 C 0.2440(3) 0.48809(17) 0.3923(1)
C38 C 0.1484(3) 0.47542(16) 0.42797(10)
C39 C 0.1246(2) 0.39320(14) 0.44508(8)
C40 C 0.19583(17) 0.32116(13) 0.43017(7)
H1 H 0.01340 0.28870 0.62800
H2 H -0.19710 0.28770 0.63110
H3 H -0.31640 0.25790 0.55110
H4 H -0.32350 0.21380 0.43920
H5 H -0.21670 0.18080 0.35830
H6 H -0.00450 0.18770 0.35990
H7 H 0.06970 0.14500 0.59740
H8 H 0.14270 0.02240 0.62610
H9 H 0.33410 -0.01880 0.60020
H10 H 0.45550 0.06880 0.54940
H11 H 0.48410 0.18400 0.49400
H12 H 0.49520 0.32530 0.49230
H13 H 0.49070 0.46720 0.55020
H14 H 0.38480 0.57920 0.59710
H15 H 0.18310 0.55020 0.61730
H16 H 0.08770 0.41090 0.58880
H17 H 0.06140 0.08190 0.46970
H18 H 0.12310 -0.06010 0.45600
H19 H 0.30340 -0.08890 0.40930
H20 H 0.41090 0.02370 0.37390
H21 H 0.45570 0.16150 0.35990
H22 H 0.44410 0.29610 0.35240
H23 H 0.37730 0.42730 0.35170
H24 H 0.26060 0.54260 0.37970
H25 H 0.10010 0.52190 0.44040
H26 H 0.05760 0.38530 0.46780
C41 C -0.16138(19) 0.13765(13) 0.76875(8)
C42 C -0.1369(3) 0.07800(16) 0.72127(9)
C43 C -0.1359(3) -0.01330(17) 0.72483(12)
C44 C -0.1573(3) -0.04581(16) 0.77454(13)
C45 C -0.1825(2) 0.01267(15) 0.82452(10)
C46 C -0.2066(3) -0.00961(18) 0.87891(13)
C47 C -0.2310(3) 0.05509(19) 0.92279(11)
C48 C -0.2328(3) 0.14541(16) 0.91671(9)
C49 C -0.20827(19) 0.16989(13) 0.86468(8)
C50 C -0.18379(18) 0.10364(13) 0.81946(8)
C51 C -0.17314(18) 0.23856(12) 0.77586(7)
C52 C -0.28312(18) 0.25559(13) 0.73945(7)
C53 C -0.3614(2) 0.18382(16) 0.71401(8)
C54 C -0.4635(3) 0.1935(2) 0.68288(10)
C55 C -0.4931(3) 0.2769(2) 0.67545(10)
C56 C -0.4196(3) 0.34974(18) 0.70062(9)
C57 C -0.31462(19) 0.34123(14) 0.73262(7)
C58 C -0.2467(3) 0.42473(16) 0.75646(10)
C59 C -0.1265(3) 0.43953(16) 0.76605(11)
C60 C -0.0335(2) 0.37675(14) 0.75486(8)
C61 C 0.0809(3) 0.41241(17) 0.74001(10)
C62 C 0.1769(3) 0.3622(2) 0.72845(11)
C63 C 0.1627(3) 0.2740(2) 0.73321(11)
C64 C 0.0515(3) 0.23698(17) 0.74826(10)
C65 C -0.05078(18) 0.28535(14) 0.75888(7)
C66 C -0.20222(18) 0.26297(12) 0.84724(7)
C67 C -0.3294(2) 0.29708(14) 0.85728(7)
C68 C -0.4270(3) 0.23221(18) 0.84644(10)
C69 C -0.5475(3) 0.2506(3) 0.84978(14)
C70 C -0.5750(4) 0.3373(3) 0.86588(14)
C71 C -0.4828(4) 0.4031(3) 0.87719(11)
C72 C -0.3607(3) 0.38501(17) 0.87308(9)
C73 C -0.2795(4) 0.4645(2) 0.88968(12)
C74 C -0.1597(4) 0.4736(2) 0.90025(13)
C75 C -0.0724(3) 0.40767(16) 0.89939(10)
C76 C 0.0383(4) 0.4428(2) 0.92607(12)
C77 C 0.1296(4) 0.3927(3) 0.93458(13)
C78 C 0.1155(3) 0.3025(3) 0.91433(14)
C79 C 0.0072(3) 0.26674(18) 0.88770(11)
C80 C -0.0896(2) 0.31611(13) 0.87947(7)
H27 H -0.12100 0.09810 0.68700
H28 H -0.12030 -0.05290 0.69240
H29 H -0.15530 -0.10660 0.77540
H30 H -0.20580 -0.06860 0.88480
H31 H -0.24720 0.03880 0.95810
H32 H -0.25030 0.18790 0.94740
H33 H -0.34370 0.12640 0.71840
H34 H -0.51270 0.14330 0.66680
H35 H -0.56130 0.28400 0.65390
H36 H -0.44000 0.40660 0.69640
H37 H -0.29240 0.47370 0.76620
H38 H -0.09900 0.49750 0.78190
H39 H 0.09140 0.47310 0.73800
H40 H 0.25080 0.38750 0.71750
H41 H 0.22790 0.23870 0.72630
H42 H 0.04440 0.17660 0.75150
H43 H -0.40960 0.17300 0.83640
H44 H -0.60920 0.20500 0.84130
H45 H -0.65580 0.35110 0.86900
H46 H -0.50190 0.46180 0.88800
H47 H -0.31690 0.51790 0.89360
H48 H -0.12710 0.53240 0.90970
H49 H 0.04900 0.50410 0.93850
H50 H 0.20070 0.41820 0.95370
H51 H 0.17820 0.26620 0.91860
H52 H -0.00100 0.20570 0.87450
C81 C 0.07616(19) -0.22082(14) 0.88857(8)
C82 C -0.0046(3) -0.22202(17) 0.93222(10)
C83 C -0.1269(3) -0.25475(19) 0.91983(12)
C84 C -0.1700(3) -0.28551(17) 0.86670(12)
C85 C -0.09012(19) -0.28642(14) 0.82069(9)
C86 C -0.1190(3) -0.31833(16) 0.76286(10)
C87 C -0.0310(3) -0.31793(16) 0.72306(10)
C88 C 0.0900(2) -0.28500(15) 0.73708(8)
C89 C 0.12077(18) -0.25154(13) 0.79240(7)
C90 C 0.03130(18) -0.25324(13) 0.83359(8)
C91 C 0.21236(18) -0.18963(13) 0.88904(7)
C92 C 0.2864(2) -0.24433(14) 0.92491(7)
C93 C 0.2279(3) -0.31313(15) 0.95017(9)
C94 C 0.2916(4) -0.36817(18) 0.97789(10)
C95 C 0.4154(4) -0.3583(3) 0.98141(12)
C96 C 0.4744(3) -0.2920(3) 0.95745(11)
C97 C 0.4138(3) -0.23271(16) 0.93027(8)
C98 C 0.4893(3) -0.1631(2) 0.90939(9)
C99 C 0.4610(3) -0.08135(19) 0.9045(1)
C100 C 0.3470(3) -0.04161(15) 0.91824(9)
C101 C 0.3568(4) 0.05034(19) 0.93731(12)
C102 C 0.2584(5) 0.0961(2) 0.95203(14)
C103 C 0.1441(4) 0.0516(2) 0.94643(12)
C104 C 0.1321(3) -0.03859(16) 0.92677(10)
C105 C 0.2312(2) -0.08872(14) 0.91259(8)
C106 C 0.24512(17) -0.21289(13) 0.81787(7)
C107 C 0.32698(18) -0.29157(14) 0.80636(7)
C108 C 0.2727(2) -0.37333(14) 0.81815(8)
C109 C 0.3291(3) -0.45153(17) 0.81164(10)
C110 C 0.4448(3) -0.4523(3) 0.79074(12)
C111 C 0.5012(3) -0.3748(3) 0.77856(10)
C112 C 0.4468(2) -0.29269(18) 0.78669(8)
C113 C 0.5240(3) -0.2181(3) 0.77375(10)
C114 C 0.5007(3) -0.1352(3) 0.76916(11)
C115 C 0.3874(3) -0.09221(17) 0.77371(9)
C116 C 0.3937(4) -0.0088(3) 0.75527(13)
C117 C 0.2967(4) 0.0405(3) 0.75470(15)
C118 C 0.1865(3) 0.0086(2) 0.77330(14)
C119 C 0.1775(3) -0.07339(16) 0.79158(10)
C120 C 0.2746(2) -0.12561(14) 0.79330(8)
H53 H 0.02110 -0.20150 0.96950
H54 H -0.18050 -0.25510 0.94980
H55 H -0.25160 -0.30590 0.86050
H56 H -0.19840 -0.33970 0.75200
H57 H -0.05160 -0.34020 0.68540
H58 H 0.14850 -0.28590 0.70910
H59 H 0.14330 -0.32170 0.94810
H60 H 0.24960 -0.41270 0.99440
H61 H 0.45860 -0.39590 0.99980
H62 H 0.55910 -0.28580 0.95930
H63 H 0.56700 -0.17740 0.89800
H64 H 0.52170 -0.04500 0.89060
H65 H 0.43350 0.08110 0.94000
H66 H 0.26780 0.15690 0.96580
H67 H 0.07550 0.08240 0.95590
H68 H 0.05420 -0.06750 0.92270
H69 H 0.19330 -0.37440 0.83120
H70 H 0.28940 -0.50320 0.82120
H71 H 0.48400 -0.50490 0.78500
H72 H 0.57950 -0.37600 0.76420
H73 H 0.60480 -0.23010 0.76750
H74 H 0.56830 -0.09850 0.76180
H75 H 0.46810 0.01370 0.74290
H76 H 0.30450 0.09530 0.74190
H77 H 0.11900 0.04180 0.77360
H78 H 0.10200 -0.09470 0.80340
loop_
_geom_bond_atom_site_label_1
_geom_bond_atom_site_label_2
_geom_bond_distance
_geom_bond_site_symmetry_1
_geom_bond_site_symmetry_2
C1 C2 1.376 1_555 1_555
C2 C3 1.406 1_555 1_555
C3 C4 1.363 1_555 1_555
C4 C5 1.412 1_555 1_555
C5 C6 1.417 1_555 1_555
C6 C7 1.363 1_555 1_555
C7 C8 1.407 1_555 1_555
C8 C9 1.369 1_555 1_555
C9 C10 1.396 1_555 1_555
C10 C1 1.405 1_555 1_555
C11 C1 1.529 1_555 1_555
C12 C11 1.544 1_555 1_555
C13 C12 1.402 1_555 1_555
C14 C13 1.374 1_555 1_555
C15 C14 1.371 1_555 1_555
C16 C15 1.372 1_555 1_555
C17 C12 1.410 1_555 1_555
C18 C17 1.448 1_555 1_555
C19 C18 1.335 1_555 1_555
C20 C19 1.448 1_555 1_555
C21 C20 1.398 1_555 1_555
C22 C21 1.369 1_555 1_555
C23 C22 1.362 1_555 1_555
C24 C23 1.379 1_555 1_555
C25 C11 1.549 1_555 1_555
C26 C9 1.531 1_555 1_555
C27 C26 1.542 1_555 1_555
C28 C27 1.405 1_555 1_555
C29 C28 1.380 1_555 1_555
C30 C29 1.376 1_555 1_555
C31 C30 1.364 1_555 1_555
C32 C27 1.415 1_555 1_555
C33 C32 1.449 1_555 1_555
C34 C33 1.332 1_555 1_555
C35 C34 1.449 1_555 1_555
C36 C35 1.407 1_555 1_555
C37 C36 1.355 1_555 1_555
C38 C37 1.378 1_555 1_555
C39 C38 1.381 1_555 1_555
C40 C26 1.549 1_555 1_555
H1 C2 0.930 1_555 1_555
H2 C3 0.929 1_555 1_555
H3 C4 0.930 1_555 1_555
H4 C6 0.930 1_555 1_555
H5 C7 0.930 1_555 1_555
H6 C8 0.930 1_555 1_555
H7 C13 0.930 1_555 1_555
H8 C14 0.929 1_555 1_555
H9 C15 0.931 1_555 1_555
H10 C16 0.931 1_555 1_555
H11 C18 0.929 1_555 1_555
H12 C19 0.930 1_555 1_555
H13 C21 0.931 1_555 1_555
H14 C22 0.930 1_555 1_555
H15 C23 0.930 1_555 1_555
H16 C24 0.931 1_555 1_555
H17 C28 0.929 1_555 1_555
H18 C29 0.930 1_555 1_555
H19 C30 0.930 1_555 1_555
H20 C31 0.930 1_555 1_555
H21 C33 0.930 1_555 1_555
H22 C34 0.930 1_555 1_555
H23 C36 0.930 1_555 1_555
H24 C37 0.930 1_555 1_555
H25 C38 0.930 1_555 1_555
H26 C39 0.930 1_555 1_555
C41 C42 1.378 1_555 1_555
C42 C43 1.405 1_555 1_555
C43 C44 1.369 1_555 1_555
C44 C45 1.415 1_555 1_555
C45 C46 1.413 1_555 1_555
C46 C47 1.364 1_555 1_555
C47 C48 1.405 1_555 1_555
C48 C49 1.373 1_555 1_555
C49 C50 1.399 1_555 1_555
C50 C41 1.404 1_555 1_555
C51 C41 1.533 1_555 1_555
C52 C51 1.547 1_555 1_555
C53 C52 1.394 1_555 1_555
C54 C53 1.373 1_555 1_555
C55 C54 1.371 1_555 1_555
C56 C55 1.375 1_555 1_555
C57 C52 1.406 1_555 1_555
C58 C57 1.455 1_555 1_555
C59 C58 1.337 1_555 1_555
C60 C59 1.451 1_555 1_555
C61 C60 1.402 1_555 1_555
C62 C61 1.356 1_555 1_555
C63 C62 1.360 1_555 1_555
C64 C63 1.381 1_555 1_555
C65 C51 1.560 1_555 1_555
C66 C49 1.533 1_555 1_555
C67 C66 1.538 1_555 1_555
C68 C67 1.395 1_555 1_555
C69 C68 1.377 1_555 1_555
C70 C69 1.372 1_555 1_555
C71 C70 1.363 1_555 1_555
C72 C67 1.401 1_555 1_555
C73 C72 1.447 1_555 1_555
C74 C73 1.334 1_555 1_555
C75 C74 1.439 1_555 1_555
C76 C75 1.400 1_555 1_555
C77 C76 1.340 1_555 1_555
C78 C77 1.377 1_555 1_555
C79 C78 1.380 1_555 1_555
C80 C66 1.556 1_555 1_555
H27 C42 0.930 1_555 1_555
H28 C43 0.929 1_555 1_555
H29 C44 0.930 1_555 1_555
H30 C46 0.930 1_555 1_555
H31 C47 0.929 1_555 1_555
H32 C48 0.930 1_555 1_555
H33 C53 0.930 1_555 1_555
H34 C54 0.930 1_555 1_555
H35 C55 0.930 1_555 1_555
H36 C56 0.930 1_555 1_555
H37 C58 0.931 1_555 1_555
H38 C59 0.930 1_555 1_555
H39 C61 0.930 1_555 1_555
H40 C62 0.929 1_555 1_555
H41 C63 0.930 1_555 1_555
H42 C64 0.930 1_555 1_555
H43 C68 0.930 1_555 1_555
H44 C69 0.930 1_555 1_555
H45 C70 0.930 1_555 1_555
H46 C71 0.930 1_555 1_555
H47 C73 0.931 1_555 1_555
H48 C74 0.930 1_555 1_555
H49 C76 0.931 1_555 1_555
H50 C77 0.930 1_555 1_555
H51 C78 0.931 1_555 1_555
H52 C79 0.930 1_555 1_555
C81 C82 1.375 1_555 1_555
C82 C83 1.412 1_555 1_555
C83 C84 1.351 1_555 1_555
C84 C85 1.410 1_555 1_555
C85 C86 1.415 1_555 1_555
C86 C87 1.361 1_555 1_555
C87 C88 1.406 1_555 1_555
C88 C89 1.369 1_555 1_555
C89 C90 1.398 1_555 1_555
C90 C81 1.400 1_555 1_555
C91 C81 1.537 1_555 1_555
C92 C91 1.552 1_555 1_555
C93 C92 1.403 1_555 1_555
C94 C93 1.374 1_555 1_555
C95 C94 1.360 1_555 1_555
C96 C95 1.359 1_555 1_555
C97 C92 1.402 1_555 1_555
C98 C97 1.446 1_555 1_555
C99 C98 1.327 1_555 1_555
C100 C99 1.452 1_555 1_555
C101 C100 1.397 1_555 1_555
C102 C101 1.351 1_555 1_555
C103 C102 1.377 1_555 1_555
C104 C103 1.374 1_555 1_555
C105 C91 1.547 1_555 1_555
C106 C89 1.530 1_555 1_555
C107 C106 1.545 1_555 1_555
C108 C107 1.406 1_555 1_555
C109 C108 1.372 1_555 1_555
C110 C109 1.371 1_555 1_555
C111 C110 1.362 1_555 1_555
C112 C107 1.403 1_555 1_555
C113 C112 1.438 1_555 1_555
C114 C113 1.326 1_555 1_555
C115 C114 1.449 1_555 1_555
C116 C115 1.403 1_555 1_555
C117 C116 1.353 1_555 1_555
C118 C117 1.374 1_555 1_555
C119 C118 1.380 1_555 1_555
C120 C106 1.545 1_555 1_555
H53 C82 0.930 1_555 1_555
H54 C83 0.930 1_555 1_555
H55 C84 0.931 1_555 1_555
H56 C86 0.929 1_555 1_555
H57 C87 0.930 1_555 1_555
H58 C88 0.930 1_555 1_555
H59 C93 0.930 1_555 1_555
H60 C94 0.930 1_555 1_555
H61 C95 0.929 1_555 1_555
H62 C96 0.930 1_555 1_555
H63 C98 0.931 1_555 1_555
H64 C99 0.930 1_555 1_555
H65 C101 0.930 1_555 1_555
H66 C102 0.929 1_555 1_555
H67 C103 0.930 1_555 1_555
H68 C104 0.930 1_555 1_555
H69 C108 0.930 1_555 1_555
H70 C109 0.930 1_555 1_555
H71 C110 0.930 1_555 1_555
H72 C111 0.930 1_555 1_555
H73 C113 0.930 1_555 1_555
H74 C114 0.929 1_555 1_555
H75 C116 0.931 1_555 1_555
H76 C117 0.929 1_555 1_555
H77 C118 0.930 1_555 1_555
H78 C119 0.930 1_555 1_555
C5 C10 1.410 1_555 1_555
C11 C26 1.746 1_555 1_555
C16 C17 1.410 1_555 1_555
C20 C25 1.415 1_555 1_555
C24 C25 1.390 1_555 1_555
C31 C32 1.407 1_555 1_555
C35 C40 1.409 1_555 1_555
C39 C40 1.399 1_555 1_555
C45 C50 1.408 1_555 1_555
C51 C66 1.723 1_555 1_555
C56 C57 1.407 1_555 1_555
C60 C65 1.406 1_555 1_555
C64 C65 1.395 1_555 1_555
C71 C72 1.394 1_555 1_555
C75 C80 1.397 1_555 1_555
C79 C80 1.380 1_555 1_555
C85 C90 1.406 1_555 1_555
C91 C106 1.726 1_555 1_555
C96 C97 1.396 1_555 1_555
C100 C105 1.408 1_555 1_555
C104 C105 1.392 1_555 1_555
C111 C112 1.413 1_555 1_555
C115 C120 1.415 1_555 1_555
C119 C120 1.384 1_555 1_555
#END
