
#######################################################################
#
#                 Cambridge Crystallographic Data Centre
#                                CCDC
#
#######################################################################
#
# If this CIF has been generated from an entry in the Cambridge
# Structural Database, then it will include bibliographic, chemical,
# crystal, experimental, refinement or atomic coordinate data resulting
# from the CCDC's data processing and validation procedures.
#
#######################################################################

data_CSD_CIF_PEVRIU04
_audit_creation_date 2018-03-09
_audit_creation_method CSD-ConQuest-V1
_database_code_CSD PEVRIU04
_database_code_depnum_ccdc_archive 'CCDC 1567392'
_chemical_formula_sum 'C40 H26'
_chemical_formula_moiety
;
C40 H26
;
_journal_coden_Cambridge 1885
_journal_volume 4
_journal_year 2018
_journal_page_first 795
_journal_name_full 'CheM '
loop_
_publ_author_name
"Y.Ishigaki"
"T.Shimajiri"
"T.Takeda"
"R.Katoono"
"T.Suzuki"
_chemical_name_systematic
;
dispiro[dibenzo[a,d][7]annulene-5,1'-acenaphthylene-2',5''-dibenzo[a,d][7]annu
lene]
;
_cell_volume   3883.260
_exptl_crystal_colour 'colorless'
_exptl_crystal_density_diffrn 1.3
_exptl_crystal_description 'platelet'
_diffrn_ambient_temperature 280
#These two values have been output from a single CSD field.
_refine_ls_R_factor_gt 0.0522
_refine_ls_wR_factor_gt 0.0522
_symmetry_cell_setting triclinic
_symmetry_space_group_name_H-M 'P -1'
_symmetry_Int_Tables_number 2
loop_
_symmetry_equiv_pos_site_id
_symmetry_equiv_pos_as_xyz
1 x,y,z
2 -x,-y,-z
_cell_length_a 10.967(3)
_cell_length_b 15.141(4)
_cell_length_c 23.757(5)
_cell_angle_alpha 98.935(5)
_cell_angle_beta 90.513(5)
_cell_angle_gamma 94.649(3)
_cell_formula_units_Z 6
loop_
_atom_type_symbol
_atom_type_radius_bond
C 0.68
H 0.23
loop_
_atom_site_label
_atom_site_type_symbol
_atom_site_fract_x
_atom_site_fract_y
_atom_site_fract_z
C1 C 0.02377(14) 0.26091(10) 0.54321(6)
C2 C -0.03289(16) 0.27767(12) 0.59494(7)
C3 C -0.16129(16) 0.27623(12) 0.59647(7)
C4 C -0.23394(16) 0.25837(12) 0.54826(8)
C5 C -0.18023(15) 0.23874(11) 0.49449(7)
C6 C -0.24173(16) 0.21634(13) 0.44073(8)
C7 C -0.17701(16) 0.19654(13) 0.39202(8)
C8 C -0.04773(16) 0.19988(11) 0.39274(7)
C9 C 0.01447(14) 0.22341(10) 0.44392(6)
C10 C -0.05136(14) 0.24076(10) 0.49392(6)
C11 C 0.16010(14) 0.25957(10) 0.52937(6)
C12 C 0.21723(14) 0.18464(11) 0.55538(6)
C13 C 0.14772(17) 0.12987(12) 0.58777(7)
C14 C 0.1912(2) 0.05516(13) 0.60505(8)
C15 C 0.3061(2) 0.03092(14) 0.58976(9)
C16 C 0.37812(18) 0.08397(13) 0.55915(8)
C17 C 0.33792(15) 0.16246(12) 0.54316(7)
C18 C 0.42589(15) 0.21481(13) 0.51394(7)
C19 C 0.43377(16) 0.30289(13) 0.51285(7)
C20 C 0.35540(16) 0.36901(12) 0.54097(7)
C21 C 0.4118(2) 0.45561(15) 0.5578(1)
C22 C 0.3493(3) 0.52364(16) 0.58609(11)
C23 C 0.2282(3) 0.50623(14) 0.59824(10)
C24 C 0.17048(19) 0.42184(12) 0.58102(8)
C25 C 0.23024(15) 0.35112(11) 0.55176(6)
C26 C 0.15291(14) 0.23601(10) 0.45525(6)
C27 C 0.20188(14) 0.14411(10) 0.43402(6)
C28 C 0.13366(15) 0.07085(11) 0.45127(6)
C29 C 0.16967(16) -0.01549(11) 0.44321(7)
C30 C 0.27652(18) -0.03322(12) 0.41485(8)
C31 C 0.34154(17) 0.03541(12) 0.39426(7)
C32 C 0.30766(15) 0.12442(11) 0.40269(6)
C33 C 0.38789(16) 0.18600(12) 0.37607(7)
C34 C 0.38145(17) 0.27200(13) 0.37175(7)
C35 C 0.29400(15) 0.33512(11) 0.39355(7)
C36 C 0.31356(18) 0.41934(13) 0.37549(8)
C37 C 0.2434(2) 0.48918(13) 0.39195(9)
C38 C 0.14799(19) 0.47639(13) 0.42811(9)
C39 C 0.12441(16) 0.39395(11) 0.44517(7)
C40 C 0.19556(14) 0.3211(1) 0.42990(6)
H1 H 0.01350 0.28990 0.62860
H2 H -0.19820 0.28790 0.63160
H3 H -0.31840 0.25920 0.55090
H4 H -0.32660 0.21510 0.43860
H5 H -0.21940 0.18040 0.35740
H6 H -0.00560 0.18640 0.35910
H7 H 0.06930 0.14450 0.59800
H8 H 0.14280 0.02110 0.62710
H9 H 0.33450 -0.02070 0.60000
H10 H 0.45560 0.06750 0.54870
H11 H 0.48430 0.18290 0.49330
H12 H 0.49690 0.32480 0.49160
H13 H 0.49370 0.46740 0.54960
H14 H 0.38840 0.58070 0.59680
H15 H 0.18530 0.55130 0.61800
H16 H 0.08830 0.41160 0.58930
H17 H 0.05990 0.08100 0.46920
H18 H 0.12250 -0.06120 0.45670
H19 H 0.30360 -0.09050 0.40990
H20 H 0.41150 0.02280 0.37370
H21 H 0.45570 0.16090 0.35900
H22 H 0.44410 0.29590 0.35110
H23 H 0.37770 0.42800 0.35100
H24 H 0.25960 0.54380 0.37910
H25 H 0.10000 0.52310 0.44090
H26 H 0.05750 0.38600 0.46820
C41 C -0.15947(16) 0.13735(11) 0.76839(7)
C42 C -0.13482(18) 0.07832(13) 0.72038(8)
C43 C -0.1339(2) -0.01377(14) 0.72393(10)
C44 C -0.15542(19) -0.04691(13) 0.77378(11)
C45 C -0.18002(17) 0.01158(12) 0.82387(9)
C46 C -0.2047(2) -0.01133(14) 0.87838(10)
C47 C -0.2299(2) 0.05356(15) 0.92281(9)
C48 C -0.23123(18) 0.14461(13) 0.91681(8)
C49 C -0.20626(16) 0.16919(11) 0.86462(7)
C50 C -0.18174(15) 0.10328(11) 0.81906(7)
C51 C -0.17082(15) 0.23882(10) 0.77568(6)
C52 C -0.28214(15) 0.25588(11) 0.73919(6)
C53 C -0.36073(17) 0.18340(13) 0.71336(7)
C54 C -0.46383(19) 0.19335(15) 0.68193(8)
C55 C -0.49385(19) 0.27760(16) 0.67475(8)
C56 C -0.42004(18) 0.35052(14) 0.70035(8)
C57 C -0.31457(16) 0.34214(12) 0.73255(7)
C58 C -0.24646(19) 0.42591(13) 0.75671(9)
C59 C -0.1253(2) 0.44120(13) 0.76641(9)
C60 C -0.03192(17) 0.37799(12) 0.75495(7)
C61 C 0.08213(19) 0.41464(13) 0.73986(8)
C62 C 0.17935(19) 0.36447(15) 0.72756(9)
C63 C 0.16536(19) 0.27518(15) 0.73220(9)
C64 C 0.05419(18) 0.23785(14) 0.74774(9)
C65 C -0.04900(15) 0.28606(11) 0.75864(6)
C66 C -0.19965(16) 0.26307(10) 0.84726(6)
C67 C -0.32810(17) 0.29704(12) 0.85723(7)
C68 C -0.42625(18) 0.23166(15) 0.84604(9)
C69 C -0.5474(3) 0.25010(19) 0.84905(12)
C70 C -0.5753(3) 0.3378(2) 0.86538(12)
C71 C -0.4823(3) 0.40293(18) 0.87716(9)
C72 C -0.3592(2) 0.38592(14) 0.87346(8)
C73 C -0.2772(3) 0.46581(15) 0.89048(10)
C74 C -0.1576(3) 0.47500(16) 0.90136(11)
C75 C -0.0696(2) 0.40827(13) 0.90058(9)
C76 C 0.0419(3) 0.44335(16) 0.9274(1)
C77 C 0.1343(3) 0.39247(19) 0.93565(11)
C78 C 0.1196(3) 0.30176(18) 0.91432(12)
C79 C 0.01086(19) 0.26640(14) 0.88758(10)
C80 C -0.08699(17) 0.31609(11) 0.87968(6)
H27 H -0.11900 0.09900 0.68610
H28 H -0.11810 -0.05340 0.69130
H29 H -0.15380 -0.10800 0.77460
H30 H -0.20370 -0.07070 0.88410
H31 H -0.24670 0.03680 0.95820
H32 H -0.24870 0.18720 0.94760
H33 H -0.34280 0.12580 0.71750
H34 H -0.51330 0.14290 0.66550
H35 H -0.56240 0.28480 0.65310
H36 H -0.44050 0.40760 0.69630
H37 H -0.29230 0.47480 0.76670
H38 H -0.09750 0.49940 0.78240
H39 H 0.09220 0.47570 0.73810
H40 H 0.25320 0.39030 0.71630
H41 H 0.23060 0.23980 0.72490
H42 H 0.04740 0.17730 0.75120
H43 H -0.40890 0.17220 0.83600
H44 H -0.60950 0.20420 0.84020
H45 H -0.65630 0.35180 0.86820
H46 H -0.50140 0.46170 0.88820
H47 H -0.31460 0.51940 0.89440
H48 H -0.12470 0.53400 0.91110
H49 H 0.05290 0.50480 0.94020
H50 H 0.20570 0.41780 0.95510
H51 H 0.18250 0.26520 0.91800
H52 H 0.00240 0.20520 0.87390
C81 C 0.07590(16) -0.22110(11) 0.88866(7)
C82 C -0.00515(19) -0.22246(14) 0.93248(8)
C83 C -0.1281(2) -0.25531(15) 0.9202(1)
C84 C -0.17139(18) -0.28638(14) 0.86642(9)
C85 C -0.09146(16) -0.28688(11) 0.81995(8)
C86 C -0.12003(17) -0.31911(13) 0.76180(8)
C87 C -0.03166(18) -0.31869(13) 0.72186(8)
C88 C 0.09068(17) -0.28530(12) 0.73643(7)
C89 C 0.12077(15) -0.25181(11) 0.79218(7)
C90 C 0.03095(15) -0.25345(11) 0.83334(7)
C91 C 0.21288(15) -0.18956(11) 0.88940(6)
C92 C 0.28692(16) -0.24453(11) 0.92539(6)
C93 C 0.2288(2) -0.31327(13) 0.95097(8)
C94 C 0.2933(3) -0.36867(15) 0.97916(9)
C95 C 0.4181(3) -0.35908(17) 0.98192(10)
C96 C 0.4779(3) -0.29239(17) 0.95748(9)
C97 C 0.41573(18) -0.23297(13) 0.93039(7)
C98 C 0.49160(18) -0.16333(15) 0.90904(8)
C99 C 0.46308(19) -0.08103(15) 0.90434(8)
C100 C 0.34854(19) -0.04127(13) 0.91865(8)
C101 C 0.3589(3) 0.05143(15) 0.93808(10)
C102 C 0.2599(3) 0.09739(16) 0.95298(11)
C103 C 0.1451(3) 0.05293(15) 0.9472(1)
C104 C 0.1319(2) -0.03816(13) 0.92760(8)
C105 C 0.23192(17) -0.08850(11) 0.91327(7)
C106 C 0.24577(14) -0.21281(11) 0.81815(6)
C107 C 0.32798(15) -0.29150(12) 0.80677(6)
C108 C 0.27303(17) -0.37342(12) 0.81875(7)
C109 C 0.3301(2) -0.45198(14) 0.81244(8)
C110 C 0.4462(3) -0.45301(17) 0.79088(10)
C111 C 0.5027(2) -0.37502(17) 0.77853(9)
C112 C 0.44823(17) -0.29270(14) 0.78650(7)
C113 C 0.52635(19) -0.21746(17) 0.77333(9)
C114 C 0.50247(19) -0.13433(17) 0.76873(9)
C115 C 0.38814(19) -0.09131(14) 0.77365(8)
C116 C 0.3945(3) -0.00733(17) 0.75503(11)
C117 C 0.2967(3) 0.04245(18) 0.75448(13)
C118 C 0.1863(3) 0.00955(16) 0.77359(12)
C119 C 0.17727(19) -0.07252(13) 0.79194(9)
C120 C 0.27567(16) -0.12534(12) 0.79340(7)
H53 H 0.02100 -0.20190 0.96990
H54 H -0.18190 -0.25570 0.95020
H55 H -0.25320 -0.30720 0.86020
H56 H -0.19980 -0.34080 0.75080
H57 H -0.05230 -0.34090 0.68400
H58 H 0.14980 -0.28610 0.70860
H59 H 0.14390 -0.32210 0.94900
H60 H 0.25130 -0.41280 0.99640
H61 H 0.46160 -0.39720 1.00010
H62 H 0.56300 -0.28630 0.95890
H63 H 0.56920 -0.17770 0.89730
H64 H 0.52370 -0.04440 0.89020
H65 H 0.43600 0.08240 0.94080
H66 H 0.26960 0.15850 0.96700
H67 H 0.07650 0.08410 0.95650
H68 H 0.05360 -0.06720 0.92380
H69 H 0.19330 -0.37470 0.83170
H70 H 0.29070 -0.50370 0.82260
H71 H 0.48530 -0.50580 0.78490
H72 H 0.58120 -0.37600 0.76410
H73 H 0.60740 -0.22930 0.76700
H74 H 0.57010 -0.09730 0.76110
H75 H 0.46910 0.01530 0.74250
H76 H 0.30410 0.09750 0.74150
H77 H 0.11840 0.04270 0.77410
H78 H 0.10170 -0.09400 0.80400
loop_
_geom_bond_atom_site_label_1
_geom_bond_atom_site_label_2
_geom_bond_distance
_geom_bond_site_symmetry_1
_geom_bond_site_symmetry_2
C1 C2 1.380 1_555 1_555
C2 C3 1.407 1_555 1_555
C3 C4 1.368 1_555 1_555
C4 C5 1.411 1_555 1_555
C5 C6 1.419 1_555 1_555
C6 C7 1.369 1_555 1_555
C7 C8 1.414 1_555 1_555
C8 C9 1.372 1_555 1_555
C9 C10 1.397 1_555 1_555
C10 C1 1.405 1_555 1_555
C11 C1 1.535 1_555 1_555
C12 C11 1.545 1_555 1_555
C13 C12 1.403 1_555 1_555
C14 C13 1.380 1_555 1_555
C15 C14 1.377 1_555 1_555
C16 C15 1.374 1_555 1_555
C17 C12 1.413 1_555 1_555
C18 C17 1.449 1_555 1_555
C19 C18 1.334 1_555 1_555
C20 C19 1.459 1_555 1_555
C21 C20 1.401 1_555 1_555
C22 C21 1.375 1_555 1_555
C23 C22 1.375 1_555 1_555
C24 C23 1.379 1_555 1_555
C25 C11 1.545 1_555 1_555
C26 C9 1.531 1_555 1_555
C27 C26 1.545 1_555 1_555
C28 C27 1.404 1_555 1_555
C29 C28 1.382 1_555 1_555
C30 C29 1.381 1_555 1_555
C31 C30 1.368 1_555 1_555
C32 C27 1.411 1_555 1_555
C33 C32 1.450 1_555 1_555
C34 C33 1.329 1_555 1_555
C35 C34 1.451 1_555 1_555
C36 C35 1.408 1_555 1_555
C37 C36 1.368 1_555 1_555
C38 C37 1.380 1_555 1_555
C39 C38 1.377 1_555 1_555
C40 C26 1.546 1_555 1_555
H1 C2 0.930 1_555 1_555
H2 C3 0.929 1_555 1_555
H3 C4 0.930 1_555 1_555
H4 C6 0.930 1_555 1_555
H5 C7 0.930 1_555 1_555
H6 C8 0.930 1_555 1_555
H7 C13 0.930 1_555 1_555
H8 C14 0.931 1_555 1_555
H9 C15 0.930 1_555 1_555
H10 C16 0.930 1_555 1_555
H11 C18 0.931 1_555 1_555
H12 C19 0.930 1_555 1_555
H13 C21 0.930 1_555 1_555
H14 C22 0.930 1_555 1_555
H15 C23 0.929 1_555 1_555
H16 C24 0.930 1_555 1_555
H17 C28 0.930 1_555 1_555
H18 C29 0.929 1_555 1_555
H19 C30 0.930 1_555 1_555
H20 C31 0.930 1_555 1_555
H21 C33 0.930 1_555 1_555
H22 C34 0.930 1_555 1_555
H23 C36 0.931 1_555 1_555
H24 C37 0.930 1_555 1_555
H25 C38 0.931 1_555 1_555
H26 C39 0.930 1_555 1_555
C41 C42 1.379 1_555 1_555
C42 C43 1.411 1_555 1_555
C43 C44 1.371 1_555 1_555
C44 C45 1.411 1_555 1_555
C45 C46 1.415 1_555 1_555
C46 C47 1.372 1_555 1_555
C47 C48 1.409 1_555 1_555
C48 C49 1.372 1_555 1_555
C49 C50 1.397 1_555 1_555
C50 C41 1.397 1_555 1_555
C51 C41 1.534 1_555 1_555
C52 C51 1.553 1_555 1_555
C53 C52 1.397 1_555 1_555
C54 C53 1.381 1_555 1_555
C55 C54 1.378 1_555 1_555
C56 C55 1.372 1_555 1_555
C57 C52 1.413 1_555 1_555
C58 C57 1.452 1_555 1_555
C59 C58 1.342 1_555 1_555
C60 C59 1.457 1_555 1_555
C61 C60 1.399 1_555 1_555
C62 C61 1.366 1_555 1_555
C63 C62 1.370 1_555 1_555
C64 C63 1.380 1_555 1_555
C65 C51 1.551 1_555 1_555
C66 C49 1.537 1_555 1_555
C67 C66 1.546 1_555 1_555
C68 C67 1.396 1_555 1_555
C69 C68 1.380 1_555 1_555
C70 C69 1.384 1_555 1_555
C71 C70 1.355 1_555 1_555
C72 C67 1.411 1_555 1_555
C73 C72 1.449 1_555 1_555
C74 C73 1.327 1_555 1_555
C75 C74 1.451 1_555 1_555
C76 C75 1.400 1_555 1_555
C77 C76 1.352 1_555 1_555
C78 C77 1.384 1_555 1_555
C79 C78 1.375 1_555 1_555
C80 C66 1.547 1_555 1_555
H27 C42 0.930 1_555 1_555
H28 C43 0.930 1_555 1_555
H29 C44 0.930 1_555 1_555
H30 C46 0.931 1_555 1_555
H31 C47 0.931 1_555 1_555
H32 C48 0.929 1_555 1_555
H33 C53 0.929 1_555 1_555
H34 C54 0.931 1_555 1_555
H35 C55 0.930 1_555 1_555
H36 C56 0.929 1_555 1_555
H37 C58 0.930 1_555 1_555
H38 C59 0.930 1_555 1_555
H39 C61 0.930 1_555 1_555
H40 C62 0.930 1_555 1_555
H41 C63 0.930 1_555 1_555
H42 C64 0.930 1_555 1_555
H43 C68 0.930 1_555 1_555
H44 C69 0.931 1_555 1_555
H45 C70 0.930 1_555 1_555
H46 C71 0.929 1_555 1_555
H47 C73 0.931 1_555 1_555
H48 C74 0.929 1_555 1_555
H49 C76 0.931 1_555 1_555
H50 C77 0.929 1_555 1_555
H51 C78 0.930 1_555 1_555
H52 C79 0.930 1_555 1_555
C81 C82 1.376 1_555 1_555
C82 C83 1.411 1_555 1_555
C83 C84 1.358 1_555 1_555
C84 C85 1.415 1_555 1_555
C85 C86 1.415 1_555 1_555
C86 C87 1.363 1_555 1_555
C87 C88 1.415 1_555 1_555
C88 C89 1.370 1_555 1_555
C89 C90 1.396 1_555 1_555
C90 C81 1.400 1_555 1_555
C91 C81 1.538 1_555 1_555
C92 C91 1.550 1_555 1_555
C93 C92 1.398 1_555 1_555
C94 C93 1.384 1_555 1_555
C95 C94 1.365 1_555 1_555
C96 C95 1.367 1_555 1_555
C97 C92 1.411 1_555 1_555
C98 C97 1.447 1_555 1_555
C99 C98 1.330 1_555 1_555
C100 C99 1.457 1_555 1_555
C101 C100 1.403 1_555 1_555
C102 C101 1.357 1_555 1_555
C103 C102 1.374 1_555 1_555
C104 C103 1.381 1_555 1_555
C105 C91 1.544 1_555 1_555
C106 C89 1.533 1_555 1_555
C107 C106 1.544 1_555 1_555
C108 C107 1.405 1_555 1_555
C109 C108 1.377 1_555 1_555
C110 C109 1.377 1_555 1_555
C111 C110 1.363 1_555 1_555
C112 C107 1.409 1_555 1_555
C113 C112 1.445 1_555 1_555
C114 C113 1.327 1_555 1_555
C115 C114 1.457 1_555 1_555
C116 C115 1.407 1_555 1_555
C117 C116 1.361 1_555 1_555
C118 C117 1.379 1_555 1_555
C119 C118 1.376 1_555 1_555
C120 C106 1.543 1_555 1_555
H53 C82 0.930 1_555 1_555
H54 C83 0.930 1_555 1_555
H55 C84 0.929 1_555 1_555
H56 C86 0.930 1_555 1_555
H57 C87 0.929 1_555 1_555
H58 C88 0.930 1_555 1_555
H59 C93 0.930 1_555 1_555
H60 C94 0.930 1_555 1_555
H61 C95 0.930 1_555 1_555
H62 C96 0.930 1_555 1_555
H63 C98 0.930 1_555 1_555
H64 C99 0.930 1_555 1_555
H65 C101 0.930 1_555 1_555
H66 C102 0.931 1_555 1_555
H67 C103 0.930 1_555 1_555
H68 C104 0.929 1_555 1_555
H69 C108 0.929 1_555 1_555
H70 C109 0.929 1_555 1_555
H71 C110 0.930 1_555 1_555
H72 C111 0.930 1_555 1_555
H73 C113 0.930 1_555 1_555
H74 C114 0.929 1_555 1_555
H75 C116 0.931 1_555 1_555
H76 C117 0.930 1_555 1_555
H77 C118 0.930 1_555 1_555
H78 C119 0.930 1_555 1_555
C5 C10 1.411 1_555 1_555
C11 C26 1.741 1_555 1_555
C16 C17 1.405 1_555 1_555
C20 C25 1.411 1_555 1_555
C24 C25 1.396 1_555 1_555
C31 C32 1.412 1_555 1_555
C35 C40 1.412 1_555 1_555
C39 C40 1.406 1_555 1_555
C45 C50 1.412 1_555 1_555
C51 C66 1.721 1_555 1_555
C56 C57 1.406 1_555 1_555
C60 C65 1.406 1_555 1_555
C64 C65 1.400 1_555 1_555
C71 C72 1.396 1_555 1_555
C75 C80 1.404 1_555 1_555
C79 C80 1.387 1_555 1_555
C85 C90 1.411 1_555 1_555
C91 C106 1.722 1_555 1_555
C96 C97 1.400 1_555 1_555
C100 C105 1.409 1_555 1_555
C104 C105 1.401 1_555 1_555
C111 C112 1.413 1_555 1_555
C115 C120 1.410 1_555 1_555
C119 C120 1.398 1_555 1_555
#END
