
#######################################################################
#
#                 Cambridge Crystallographic Data Centre
#                                CCDC
#
#######################################################################
#
# If this CIF has been generated from an entry in the Cambridge
# Structural Database, then it will include bibliographic, chemical,
# crystal, experimental, refinement or atomic coordinate data resulting
# from the CCDC's data processing and validation procedures.
#
#######################################################################

data_CSD_CIF_PEVRIU
_audit_creation_date 2018-03-09
_audit_creation_method CSD-ConQuest-V1
_database_code_CSD PEVRIU
_database_code_depnum_ccdc_archive 'CCDC 1586191'
_chemical_formula_sum 'C40 H26'
_chemical_formula_moiety
;
C40 H26
;
_journal_coden_Cambridge 1885
_journal_volume 4
_journal_year 2018
_journal_page_first 795
_journal_name_full 'CheM '
loop_
_publ_author_name
"Y.Ishigaki"
"T.Shimajiri"
"T.Takeda"
"R.Katoono"
"T.Suzuki"
_chemical_name_systematic
;
dispiro[dibenzo[a,d][7]annulene-5,1'-acenaphthylene-2',5''-dibenzo[a,d][7]annu
lene]
;
_cell_volume   3817.698
_exptl_crystal_colour 'colorless'
_exptl_crystal_density_diffrn 1.322
_exptl_crystal_description 'platelet'
_diffrn_ambient_temperature 120
#These two values have been output from a single CSD field.
_refine_ls_R_factor_gt 0.0488
_refine_ls_wR_factor_gt 0.0488
_symmetry_cell_setting triclinic
_symmetry_space_group_name_H-M 'P -1'
_symmetry_Int_Tables_number 2
loop_
_symmetry_equiv_pos_site_id
_symmetry_equiv_pos_as_xyz
1 x,y,z
2 -x,-y,-z
_cell_length_a 10.9023(15)
_cell_length_b 15.063(2)
_cell_length_c 23.622(3)
_cell_angle_alpha 98.955(3)
_cell_angle_beta 90.783(2)
_cell_angle_gamma 94.6989(19)
_cell_formula_units_Z 6
loop_
_atom_type_symbol
_atom_type_radius_bond
C 0.68
H 0.23
loop_
_atom_site_label
_atom_site_type_symbol
_atom_site_fract_x
_atom_site_fract_y
_atom_site_fract_z
C1 C 0.02344(14) 0.26118(10) 0.54333(6)
C2 C -0.03284(15) 0.27833(11) 0.59551(6)
C3 C -0.16218(15) 0.27744(11) 0.59712(7)
C4 C -0.23634(15) 0.25967(11) 0.54839(7)
C5 C -0.18234(15) 0.23957(11) 0.49423(7)
C6 C -0.24544(15) 0.21703(11) 0.44005(7)
C7 C -0.18017(16) 0.19658(11) 0.39108(7)
C8 C -0.05020(15) 0.19934(11) 0.39169(6)
C9 C 0.01291(14) 0.22289(10) 0.44334(6)
C10 C -0.05268(14) 0.24105(10) 0.49376(6)
C11 C 0.16051(14) 0.25927(10) 0.52946(6)
C12 C 0.21769(14) 0.18401(10) 0.55578(6)
C13 C 0.14789(15) 0.12949(11) 0.58870(6)
C14 C 0.19117(17) 0.05393(12) 0.60596(7)
C15 C 0.30656(17) 0.02854(12) 0.59001(7)
C16 C 0.37887(16) 0.08190(12) 0.55889(7)
C17 C 0.33869(15) 0.16125(11) 0.54314(6)
C18 C 0.42733(15) 0.21355(12) 0.51340(6)
C19 C 0.43527(15) 0.30221(12) 0.51233(7)
C20 C 0.35787(15) 0.36893(11) 0.54080(6)
C21 C 0.41537(17) 0.45596(12) 0.55750(7)
C22 C 0.35349(19) 0.52525(13) 0.58601(8)
C23 C 0.23115(18) 0.50800(12) 0.59858(8)
C24 C 0.17258(16) 0.42288(11) 0.58154(7)
C25 C 0.23185(15) 0.35144(11) 0.55188(6)
C26 C 0.15271(14) 0.23556(10) 0.45503(6)
C27 C 0.20141(14) 0.1429(1) 0.43375(6)
C28 C 0.13211(15) 0.06959(11) 0.45148(6)
C29 C 0.16871(15) -0.01727(11) 0.44364(6)
C30 C 0.27649(16) -0.03524(11) 0.41516(7)
C31 C 0.34188(15) 0.03377(11) 0.39424(7)
C32 C 0.30763(15) 0.12310(11) 0.40234(6)
C33 C 0.38805(15) 0.18476(11) 0.37516(6)
C34 C 0.38145(15) 0.27125(11) 0.37065(6)
C35 C 0.29380(15) 0.33511(11) 0.39273(6)
C36 C 0.31366(16) 0.41977(11) 0.37436(7)
C37 C 0.24326(17) 0.49051(12) 0.39113(7)
C38 C 0.14750(16) 0.47749(12) 0.42781(7)
C39 C 0.12426(15) 0.39452(11) 0.44524(6)
C40 C 0.19514(14) 0.32108(10) 0.42948(6)
H1 H 0.01530 0.29060 0.63010
H2 H -0.19960 0.28960 0.63330
H3 H -0.32310 0.26090 0.55110
H4 H -0.33260 0.21610 0.43780
H5 H -0.22400 0.18000 0.35550
H6 H -0.00740 0.18520 0.35710
H7 H 0.06790 0.14510 0.59950
H8 H 0.14170 0.01940 0.62880
H9 H 0.33540 -0.02470 0.60030
H10 H 0.45800 0.06460 0.54780
H11 H 0.48680 0.18070 0.49210
H12 H 0.49950 0.32450 0.49020
H13 H 0.49950 0.46760 0.54890
H14 H 0.39430 0.58380 0.59680
H15 H 0.18750 0.55450 0.61890
H16 H 0.08840 0.41240 0.59040
H17 H 0.05640 0.08020 0.46970
H18 H 0.12040 -0.06420 0.45770
H19 H 0.30440 -0.09400 0.41030
H20 H 0.41370 0.02080 0.37330
H21 H 0.45740 0.15890 0.35750
H22 H 0.44530 0.29560 0.34920
H23 H 0.37910 0.42840 0.34910
H24 H 0.25970 0.54660 0.37800
H25 H 0.09820 0.52530 0.44090
H26 H 0.05640 0.38660 0.46930
C41 C -0.15507(15) 0.13764(11) 0.76764(6)
C42 C -0.13084(16) 0.07867(12) 0.71919(7)
C43 C -0.13028(17) -0.01430(12) 0.72209(8)
C44 C -0.15218(17) -0.04865(12) 0.77209(8)
C45 C -0.17670(16) 0.01020(11) 0.82287(7)
C46 C -0.20169(17) -0.01374(12) 0.87764(8)
C47 C -0.22694(18) 0.05118(13) 0.92260(8)
C48 C -0.22772(17) 0.14320(12) 0.91689(7)
C49 C -0.20262(15) 0.16860(11) 0.86454(6)
C50 C -0.17799(15) 0.10247(11) 0.81845(7)
C51 C -0.16722(15) 0.23949(11) 0.77546(6)
C52 C -0.28022(15) 0.25654(11) 0.73877(6)
C53 C -0.35921(16) 0.18336(12) 0.71260(7)
C54 C -0.46332(16) 0.19320(13) 0.68089(7)
C55 C -0.49438(17) 0.27797(13) 0.67380(7)
C56 C -0.42007(17) 0.35151(12) 0.70013(7)
C57 C -0.31333(15) 0.34331(11) 0.73266(6)
C58 C -0.24563(17) 0.42788(12) 0.75748(8)
C59 C -0.12324(18) 0.44382(12) 0.76735(8)
C60 C -0.02911(16) 0.38047(11) 0.75503(6)
C61 C 0.08514(16) 0.41837(12) 0.73937(7)
C62 C 0.18364(17) 0.36809(12) 0.72636(7)
C63 C 0.17015(17) 0.27779(13) 0.73086(8)
C64 C 0.05864(16) 0.23947(12) 0.74693(7)
C65 C -0.04510(15) 0.28772(11) 0.75831(6)
C66 C -0.19560(15) 0.26326(11) 0.84736(6)
C67 C -0.32459(16) 0.29735(11) 0.85739(6)
C68 C -0.42400(17) 0.23164(13) 0.84557(8)
C69 C -0.54628(19) 0.24989(15) 0.84808(9)
C70 C -0.5743(2) 0.33831(16) 0.86483(9)
C71 C -0.4797(2) 0.40404(14) 0.87733(8)
C72 C -0.35594(19) 0.38672(13) 0.87404(8)
C73 C -0.2727(3) 0.46753(14) 0.89175(8)
C74 C -0.1514(3) 0.47653(14) 0.90308(9)
C75 C -0.06400(18) 0.40850(12) 0.90219(8)
C76 C 0.0488(2) 0.44339(14) 0.92974(8)
C77 C 0.1425(2) 0.39176(15) 0.93726(8)
C78 C 0.1273(2) 0.30026(15) 0.91426(9)
C79 C 0.01708(18) 0.26524(13) 0.88732(8)
C80 C -0.08176(16) 0.31614(11) 0.88031(6)
H27 H -0.11460 0.10030 0.68410
H28 H -0.11420 -0.05450 0.68840
H29 H -0.15090 -0.11150 0.77260
H30 H -0.20090 -0.07480 0.88320
H31 H -0.24450 0.03360 0.95880
H32 H -0.24530 0.18670 0.94870
H33 H -0.34040 0.12420 0.71680
H34 H -0.51390 0.14130 0.66380
H35 H -0.56490 0.28530 0.65140
H36 H -0.44160 0.41020 0.69620
H37 H -0.29320 0.47770 0.76800
H38 H -0.09480 0.50340 0.78440
H39 H 0.09470 0.48120 0.73770
H40 H 0.25900 0.39490 0.71460
H41 H 0.23730 0.24170 0.72290
H42 H 0.05220 0.17730 0.75040
H43 H -0.40630 0.17060 0.83520
H44 H -0.61000 0.20280 0.83850
H45 H -0.65750 0.35270 0.86750
H46 H -0.49900 0.46450 0.88880
H47 H -0.31080 0.52260 0.89590
H48 H -0.11690 0.53700 0.91330
H49 H 0.06020 0.50620 0.94380
H50 H 0.21610 0.41720 0.95760
H51 H 0.19220 0.26260 0.91720
H52 H 0.00780 0.20260 0.87260
C81 C 0.07660(15) -0.22165(11) 0.88905(7)
C82 C -0.00470(17) -0.22356(13) 0.93307(7)
C83 C -0.12883(18) -0.25672(13) 0.92062(8)
C84 C -0.17329(17) -0.28740(12) 0.86590(8)
C85 C -0.09219(16) -0.28754(11) 0.81935(7)
C86 C -0.12122(16) -0.31964(12) 0.76054(7)
C87 C -0.03145(16) -0.31915(12) 0.72051(7)
C88 C 0.09158(16) -0.28550(11) 0.73565(7)
C89 C 0.12155(15) -0.25188(11) 0.79191(6)
C90 C 0.03094(15) -0.25371(11) 0.83303(6)
C91 C 0.21426(15) -0.18951(11) 0.89011(6)
C92 C 0.28949(16) -0.24476(11) 0.92630(6)
C93 C 0.23145(18) -0.31376(12) 0.95225(7)
C94 C 0.2974(2) -0.36985(13) 0.98028(8)
C95 C 0.4239(3) -0.36054(14) 0.98232(8)
C96 C 0.48312(19) -0.29345(14) 0.95745(8)
C97 C 0.41926(16) -0.23345(12) 0.93069(7)
C98 C 0.49509(17) -0.16326(13) 0.90890(7)
C99 C 0.46633(17) -0.08024(13) 0.90459(7)
C100 C 0.35146(17) -0.04028(12) 0.91960(7)
C101 C 0.3622(2) 0.05280(13) 0.93954(8)
C102 C 0.2624(3) 0.09915(13) 0.95487(9)
C103 C 0.1457(3) 0.05420(13) 0.94894(8)
C104 C 0.13295(18) -0.03756(12) 0.92881(7)
C105 C 0.23357(16) -0.08777(11) 0.91426(6)
C106 C 0.24739(15) -0.21221(11) 0.81852(6)
C107 C 0.32999(15) -0.29125(11) 0.80714(6)
C108 C 0.27501(16) -0.37358(11) 0.81963(7)
C109 C 0.33225(17) -0.45263(12) 0.81334(7)
C110 C 0.44960(19) -0.45369(14) 0.79113(8)
C111 C 0.50577(17) -0.37504(14) 0.77839(7)
C112 C 0.45070(16) -0.29233(12) 0.78650(7)
C113 C 0.52941(17) -0.21635(14) 0.77313(7)
C114 C 0.50527(17) -0.13271(14) 0.76852(7)
C115 C 0.39019(17) -0.09000(13) 0.77363(7)
C116 C 0.3958(2) -0.00497(14) 0.75521(8)
C117 C 0.2972(2) 0.04518(15) 0.75503(10)
C118 C 0.1858(2) 0.01190(14) 0.77465(9)
C119 C 0.17770(17) -0.07098(12) 0.79294(7)
C120 C 0.27707(16) -0.12400(11) 0.79380(6)
H53 H 0.02250 -0.20270 0.97160
H54 H -0.18370 -0.25780 0.95150
H55 H -0.25760 -0.30840 0.85920
H56 H -0.20330 -0.34160 0.74890
H57 H -0.05240 -0.34200 0.68150
H58 H 0.15250 -0.28620 0.70730
H59 H 0.14410 -0.32250 0.95060
H60 H 0.25460 -0.41500 0.99820
H61 H 0.46920 -0.39980 1.00060
H62 H 0.57060 -0.28730 0.95830
H63 H 0.57430 -0.17820 0.89630
H64 H 0.52820 -0.04250 0.89000
H65 H 0.44150 0.08460 0.94250
H66 H 0.27280 0.16180 0.96950
H67 H 0.07520 0.08600 0.95860
H68 H 0.05250 -0.06770 0.92470
H69 H 0.19340 -0.37470 0.83320
H70 H 0.29200 -0.50570 0.82400
H71 H 0.48980 -0.50790 0.78500
H72 H 0.58600 -0.37590 0.76330
H73 H 0.61260 -0.22850 0.76650
H74 H 0.57450 -0.09450 0.76060
H75 H 0.47210 0.01850 0.74230
H76 H 0.30460 0.10170 0.74180
H77 H 0.11590 0.04580 0.77550
H78 H 0.10050 -0.09330 0.80560
loop_
_geom_bond_atom_site_label_1
_geom_bond_atom_site_label_2
_geom_bond_distance
_geom_bond_site_symmetry_1
_geom_bond_site_symmetry_2
C1 C2 1.382 1_555 1_555
C2 C3 1.410 1_555 1_555
C3 C4 1.376 1_555 1_555
C4 C5 1.416 1_555 1_555
C5 C6 1.424 1_555 1_555
C6 C7 1.374 1_555 1_555
C7 C8 1.414 1_555 1_555
C8 C9 1.375 1_555 1_555
C9 C10 1.399 1_555 1_555
C10 C1 1.405 1_555 1_555
C11 C1 1.536 1_555 1_555
C12 C11 1.544 1_555 1_555
C13 C12 1.404 1_555 1_555
C14 C13 1.383 1_555 1_555
C15 C14 1.385 1_555 1_555
C16 C15 1.380 1_555 1_555
C17 C12 1.414 1_555 1_555
C18 C17 1.454 1_555 1_555
C19 C18 1.335 1_555 1_555
C20 C19 1.455 1_555 1_555
C21 C20 1.402 1_555 1_555
C22 C21 1.381 1_555 1_555
C23 C22 1.383 1_555 1_555
C24 C23 1.383 1_555 1_555
C25 C11 1.548 1_555 1_555
C26 C9 1.536 1_555 1_555
C27 C26 1.547 1_555 1_555
C28 C27 1.408 1_555 1_555
C29 C28 1.385 1_555 1_555
C30 C29 1.387 1_555 1_555
C31 C30 1.372 1_555 1_555
C32 C27 1.411 1_555 1_555
C33 C32 1.453 1_555 1_555
C34 C33 1.331 1_555 1_555
C35 C34 1.456 1_555 1_555
C36 C35 1.411 1_555 1_555
C37 C36 1.376 1_555 1_555
C38 C37 1.387 1_555 1_555
C39 C38 1.381 1_555 1_555
C40 C26 1.546 1_555 1_555
H1 C2 0.950 1_555 1_555
H2 C3 0.950 1_555 1_555
H3 C4 0.950 1_555 1_555
H4 C6 0.950 1_555 1_555
H5 C7 0.949 1_555 1_555
H6 C8 0.950 1_555 1_555
H7 C13 0.950 1_555 1_555
H8 C14 0.950 1_555 1_555
H9 C15 0.949 1_555 1_555
H10 C16 0.950 1_555 1_555
H11 C18 0.950 1_555 1_555
H12 C19 0.950 1_555 1_555
H13 C21 0.950 1_555 1_555
H14 C22 0.950 1_555 1_555
H15 C23 0.951 1_555 1_555
H16 C24 0.950 1_555 1_555
H17 C28 0.950 1_555 1_555
H18 C29 0.951 1_555 1_555
H19 C30 0.950 1_555 1_555
H20 C31 0.949 1_555 1_555
H21 C33 0.951 1_555 1_555
H22 C34 0.949 1_555 1_555
H23 C36 0.950 1_555 1_555
H24 C37 0.949 1_555 1_555
H25 C38 0.950 1_555 1_555
H26 C39 0.950 1_555 1_555
C41 C42 1.378 1_555 1_555
C42 C43 1.413 1_555 1_555
C43 C44 1.377 1_555 1_555
C44 C45 1.419 1_555 1_555
C45 C46 1.420 1_555 1_555
C46 C47 1.374 1_555 1_555
C47 C48 1.414 1_555 1_555
C48 C49 1.375 1_555 1_555
C49 C50 1.401 1_555 1_555
C50 C41 1.403 1_555 1_555
C51 C41 1.533 1_555 1_555
C52 C51 1.558 1_555 1_555
C53 C52 1.399 1_555 1_555
C54 C53 1.382 1_555 1_555
C55 C54 1.382 1_555 1_555
C56 C55 1.377 1_555 1_555
C57 C52 1.412 1_555 1_555
C58 C57 1.454 1_555 1_555
C59 C58 1.347 1_555 1_555
C60 C59 1.460 1_555 1_555
C61 C60 1.406 1_555 1_555
C62 C61 1.375 1_555 1_555
C63 C62 1.377 1_555 1_555
C64 C63 1.386 1_555 1_555
C65 C51 1.553 1_555 1_555
C66 C49 1.538 1_555 1_555
C67 C66 1.545 1_555 1_555
C68 C67 1.401 1_555 1_555
C69 C68 1.383 1_555 1_555
C70 C69 1.389 1_555 1_555
C71 C70 1.365 1_555 1_555
C72 C67 1.413 1_555 1_555
C73 C72 1.460 1_555 1_555
C74 C73 1.337 1_555 1_555
C75 C74 1.453 1_555 1_555
C76 C75 1.406 1_555 1_555
C77 C76 1.359 1_555 1_555
C78 C77 1.396 1_555 1_555
C79 C78 1.378 1_555 1_555
C80 C66 1.549 1_555 1_555
H27 C42 0.950 1_555 1_555
H28 C43 0.950 1_555 1_555
H29 C44 0.950 1_555 1_555
H30 C46 0.950 1_555 1_555
H31 C47 0.951 1_555 1_555
H32 C48 0.950 1_555 1_555
H33 C53 0.950 1_555 1_555
H34 C54 0.950 1_555 1_555
H35 C55 0.951 1_555 1_555
H36 C56 0.951 1_555 1_555
H37 C58 0.950 1_555 1_555
H38 C59 0.950 1_555 1_555
H39 C61 0.951 1_555 1_555
H40 C62 0.950 1_555 1_555
H41 C63 0.951 1_555 1_555
H42 C64 0.950 1_555 1_555
H43 C68 0.950 1_555 1_555
H44 C69 0.950 1_555 1_555
H45 C70 0.950 1_555 1_555
H46 C71 0.950 1_555 1_555
H47 C73 0.950 1_555 1_555
H48 C74 0.950 1_555 1_555
H49 C76 0.950 1_555 1_555
H50 C77 0.950 1_555 1_555
H51 C78 0.951 1_555 1_555
H52 C79 0.950 1_555 1_555
C81 C82 1.378 1_555 1_555
C82 C83 1.414 1_555 1_555
C83 C84 1.371 1_555 1_555
C84 C85 1.420 1_555 1_555
C85 C86 1.420 1_555 1_555
C86 C87 1.371 1_555 1_555
C87 C88 1.415 1_555 1_555
C88 C89 1.371 1_555 1_555
C89 C90 1.397 1_555 1_555
C90 C81 1.406 1_555 1_555
C91 C81 1.537 1_555 1_555
C92 C91 1.553 1_555 1_555
C93 C92 1.399 1_555 1_555
C94 C93 1.389 1_555 1_555
C95 C94 1.374 1_555 1_555
C96 C95 1.368 1_555 1_555
C97 C92 1.412 1_555 1_555
C98 C97 1.451 1_555 1_555
C99 C98 1.332 1_555 1_555
C100 C99 1.458 1_555 1_555
C101 C100 1.403 1_555 1_555
C102 C101 1.363 1_555 1_555
C103 C102 1.386 1_555 1_555
C104 C103 1.385 1_555 1_555
C105 C91 1.546 1_555 1_555
C106 C89 1.536 1_555 1_555
C107 C106 1.544 1_555 1_555
C108 C107 1.408 1_555 1_555
C109 C108 1.378 1_555 1_555
C110 C109 1.390 1_555 1_555
C111 C110 1.366 1_555 1_555
C112 C107 1.410 1_555 1_555
C113 C112 1.451 1_555 1_555
C114 C113 1.328 1_555 1_555
C115 C114 1.454 1_555 1_555
C116 C115 1.412 1_555 1_555
C117 C116 1.364 1_555 1_555
C118 C117 1.389 1_555 1_555
C119 C118 1.380 1_555 1_555
C120 C106 1.545 1_555 1_555
H53 C82 0.950 1_555 1_555
H54 C83 0.951 1_555 1_555
H55 C84 0.950 1_555 1_555
H56 C86 0.950 1_555 1_555
H57 C87 0.950 1_555 1_555
H58 C88 0.949 1_555 1_555
H59 C93 0.950 1_555 1_555
H60 C94 0.950 1_555 1_555
H61 C95 0.950 1_555 1_555
H62 C96 0.950 1_555 1_555
H63 C98 0.950 1_555 1_555
H64 C99 0.949 1_555 1_555
H65 C101 0.950 1_555 1_555
H66 C102 0.950 1_555 1_555
H67 C103 0.950 1_555 1_555
H68 C104 0.951 1_555 1_555
H69 C108 0.950 1_555 1_555
H70 C109 0.950 1_555 1_555
H71 C110 0.950 1_555 1_555
H72 C111 0.949 1_555 1_555
H73 C113 0.950 1_555 1_555
H74 C114 0.950 1_555 1_555
H75 C116 0.950 1_555 1_555
H76 C117 0.949 1_555 1_555
H77 C118 0.950 1_555 1_555
H78 C119 0.950 1_555 1_555
C5 C10 1.412 1_555 1_555
C11 C26 1.738 1_555 1_555
C16 C17 1.407 1_555 1_555
C20 C25 1.413 1_555 1_555
C24 C25 1.399 1_555 1_555
C31 C32 1.411 1_555 1_555
C35 C40 1.414 1_555 1_555
C39 C40 1.407 1_555 1_555
C45 C50 1.411 1_555 1_555
C51 C66 1.718 1_555 1_555
C56 C57 1.410 1_555 1_555
C60 C65 1.408 1_555 1_555
C64 C65 1.401 1_555 1_555
C71 C72 1.396 1_555 1_555
C75 C80 1.403 1_555 1_555
C79 C80 1.395 1_555 1_555
C85 C90 1.411 1_555 1_555
C91 C106 1.722 1_555 1_555
C96 C97 1.404 1_555 1_555
C100 C105 1.413 1_555 1_555
C104 C105 1.400 1_555 1_555
C111 C112 1.414 1_555 1_555
C115 C120 1.414 1_555 1_555
C119 C120 1.399 1_555 1_555
#END
