
#######################################################################
#
#                 Cambridge Crystallographic Data Centre
#                                CCDC
#
#######################################################################
#
# If this CIF has been generated from an entry in the Cambridge
# Structural Database, then it will include bibliographic, chemical,
# crystal, experimental, refinement or atomic coordinate data resulting
# from the CCDC's data processing and validation procedures.
#
#######################################################################

data_CSD_CIF_PEVRIU06
_audit_creation_date 2018-03-09
_audit_creation_method CSD-ConQuest-V1
_database_code_CSD PEVRIU06
_database_code_depnum_ccdc_archive 'CCDC 1567394'
_chemical_formula_sum 'C40 H26'
_chemical_formula_moiety
;
C40 H26
;
_journal_coden_Cambridge 1885
_journal_volume 4
_journal_year 2018
_journal_page_first 795
_journal_name_full 'CheM '
loop_
_publ_author_name
"Y.Ishigaki"
"T.Shimajiri"
"T.Takeda"
"R.Katoono"
"T.Suzuki"
_chemical_name_systematic
;
dispiro[dibenzo[a,d][7]annulene-5,1'-acenaphthylene-2',5''-dibenzo[a,d][7]annu
lene]
;
_cell_volume   3909.655
_exptl_crystal_colour 'colorless'
_exptl_crystal_density_diffrn 1.291
_exptl_crystal_description 'platelet'
_diffrn_ambient_temperature 360
#These two values have been output from a single CSD field.
_refine_ls_R_factor_gt 0.0553
_refine_ls_wR_factor_gt 0.0553
_symmetry_cell_setting triclinic
_symmetry_space_group_name_H-M 'P -1'
_symmetry_Int_Tables_number 2
loop_
_symmetry_equiv_pos_site_id
_symmetry_equiv_pos_as_xyz
1 x,y,z
2 -x,-y,-z
_cell_length_a 10.985(3)
_cell_length_b 15.180(4)
_cell_length_c 23.813(6)
_cell_angle_alpha 98.959(7)
_cell_angle_beta 90.456(5)
_cell_angle_gamma 94.475(4)
_cell_formula_units_Z 6
loop_
_atom_type_symbol
_atom_type_radius_bond
C 0.68
H 0.23
loop_
_atom_site_label
_atom_site_type_symbol
_atom_site_fract_x
_atom_site_fract_y
_atom_site_fract_z
C1 C 0.02431(17) 0.26109(12) 0.54320(7)
C2 C -0.03296(19) 0.27738(14) 0.59450(8)
C3 C -0.1606(2) 0.27603(15) 0.59622(9)
C4 C -0.23259(19) 0.25787(15) 0.54827(9)
C5 C -0.17884(17) 0.23844(14) 0.49467(8)
C6 C -0.23976(19) 0.21587(16) 0.44109(9)
C7 C -0.1754(2) 0.19660(16) 0.39255(9)
C8 C -0.04695(19) 0.20044(14) 0.39327(8)
C9 C 0.01485(17) 0.22355(12) 0.44417(7)
C10 C -0.05038(16) 0.24073(12) 0.49405(7)
C11 C 0.16028(16) 0.25951(12) 0.52938(7)
C12 C 0.21727(17) 0.18487(13) 0.55510(7)
C13 C 0.1477(2) 0.13025(14) 0.58744(8)
C14 C 0.1913(3) 0.05602(16) 0.60459(10)
C15 C 0.3056(3) 0.03183(17) 0.58968(11)
C16 C 0.3776(3) 0.08494(16) 0.5594(1)
C17 C 0.33759(18) 0.16303(14) 0.54330(8)
C18 C 0.42558(19) 0.21545(16) 0.51421(9)
C19 C 0.43256(19) 0.30323(17) 0.51325(9)
C20 C 0.35474(19) 0.36879(15) 0.54123(8)
C21 C 0.4101(3) 0.45518(18) 0.55787(11)
C22 C 0.3478(3) 0.5229(2) 0.58607(14)
C23 C 0.2274(3) 0.50559(18) 0.59794(12)
C24 C 0.1698(3) 0.42136(15) 0.58071(9)
C25 C 0.22945(18) 0.35106(13) 0.55160(7)
C26 C 0.15332(16) 0.23620(12) 0.45538(7)
C27 C 0.20203(16) 0.14454(12) 0.43425(7)
C28 C 0.13435(18) 0.07141(13) 0.45141(8)
C29 C 0.1700(2) -0.01475(14) 0.44299(8)
C30 C 0.2762(3) -0.03215(15) 0.41469(9)
C31 C 0.3409(2) 0.03625(15) 0.39428(9)
C32 C 0.30755(18) 0.12471(13) 0.40286(7)
C33 C 0.3878(2) 0.18638(15) 0.37643(8)
C34 C 0.3814(2) 0.27229(15) 0.37238(9)
C35 C 0.29430(18) 0.33503(14) 0.39385(8)
C36 C 0.3134(3) 0.41902(16) 0.37599(9)
C37 C 0.2440(3) 0.48828(16) 0.39219(10)
C38 C 0.1481(3) 0.47560(16) 0.42795(10)
C39 C 0.1248(2) 0.39361(14) 0.44508(8)
C40 C 0.19559(17) 0.32112(13) 0.42995(7)
H1 H 0.01310 0.28930 0.62810
H2 H -0.19750 0.28790 0.63130
H3 H -0.31700 0.25830 0.55090
H4 H -0.32450 0.21420 0.43900
H5 H -0.21760 0.18050 0.35800
H6 H -0.00480 0.18750 0.35970
H7 H 0.06940 0.14480 0.59760
H8 H 0.14290 0.02200 0.62640
H9 H 0.33410 -0.01970 0.59990
H10 H 0.45520 0.06860 0.54930
H11 H 0.48430 0.18380 0.49370
H12 H 0.49520 0.32520 0.49190
H13 H 0.49180 0.46710 0.54950
H14 H 0.38670 0.57970 0.59700
H15 H 0.18420 0.55060 0.61760
H16 H 0.08770 0.41130 0.58890
H17 H 0.06100 0.08170 0.46960
H18 H 0.12280 -0.06040 0.45630
H19 H 0.30350 -0.08930 0.40960
H20 H 0.41070 0.02360 0.37370
H21 H 0.45560 0.16130 0.35930
H22 H 0.44440 0.29620 0.35210
H23 H 0.37750 0.42760 0.35160
H24 H 0.26050 0.54290 0.37950
H25 H 0.09970 0.52210 0.44040
H26 H 0.05800 0.38590 0.46810
C41 C -0.16106(19) 0.13741(13) 0.76857(8)
C42 C -0.1367(3) 0.07829(15) 0.72093(9)
C43 C -0.1354(3) -0.01329(17) 0.72441(12)
C44 C -0.1570(3) -0.04614(16) 0.77437(13)
C45 C -0.1814(2) 0.01233(14) 0.82423(10)
C46 C -0.2062(3) -0.00983(17) 0.87873(12)
C47 C -0.2305(3) 0.05455(18) 0.92278(11)
C48 C -0.2323(3) 0.14514(16) 0.91673(9)
C49 C -0.20746(18) 0.16966(13) 0.86459(8)
C50 C -0.18322(18) 0.10365(13) 0.81919(8)
C51 C -0.17180(18) 0.23846(12) 0.77569(7)
C52 C -0.28267(18) 0.25580(13) 0.73928(7)
C53 C -0.3612(2) 0.18384(15) 0.71388(9)
C54 C -0.4637(3) 0.19357(19) 0.68255(10)
C55 C -0.4932(3) 0.2770(2) 0.6752(1)
C56 C -0.4196(3) 0.34984(18) 0.70052(9)
C57 C -0.31485(19) 0.34174(14) 0.73251(8)
C58 C -0.2467(3) 0.42528(15) 0.75654(10)
C59 C -0.1257(3) 0.44006(16) 0.76632(11)
C60 C -0.0334(2) 0.37696(14) 0.75486(8)
C61 C 0.0813(3) 0.41289(17) 0.7400(1)
C62 C 0.1776(3) 0.36275(19) 0.72808(11)
C63 C 0.1634(3) 0.2744(2) 0.73294(11)
C64 C 0.0518(2) 0.23712(16) 0.74812(10)
C65 C -0.05044(19) 0.28540(13) 0.75888(7)
C66 C -0.20127(19) 0.26288(12) 0.84729(7)
C67 C -0.3291(2) 0.29685(14) 0.85729(7)
C68 C -0.4268(3) 0.23213(18) 0.84629(10)
C69 C -0.5477(3) 0.2500(3) 0.84941(14)
C70 C -0.5752(3) 0.3374(3) 0.86583(14)
C71 C -0.4829(4) 0.4030(3) 0.87730(11)
C72 C -0.3602(3) 0.38561(17) 0.87317(10)
C73 C -0.2791(4) 0.46497(19) 0.88990(13)
C74 C -0.1595(4) 0.4742(2) 0.90037(13)
C75 C -0.0716(3) 0.40798(16) 0.89979(10)
C76 C 0.0394(3) 0.4431(2) 0.92643(12)
C77 C 0.1312(3) 0.3927(3) 0.93475(13)
C78 C 0.1165(3) 0.3026(3) 0.91440(14)
C79 C 0.0083(3) 0.26684(17) 0.88767(11)
C80 C -0.0891(2) 0.31622(13) 0.87966(7)
H27 H -0.12120 0.09870 0.68660
H28 H -0.11950 -0.05290 0.69190
H29 H -0.15550 -0.10710 0.77520
H30 H -0.20600 -0.06900 0.88450
H31 H -0.24650 0.03800 0.95820
H32 H -0.24990 0.18770 0.94750
H33 H -0.34350 0.12640 0.71840
H34 H -0.51300 0.14330 0.66630
H35 H -0.56150 0.28420 0.65350
H36 H -0.44020 0.40670 0.69620
H37 H -0.29230 0.47430 0.76630
H38 H -0.09780 0.49800 0.78240
H39 H 0.09180 0.47380 0.73820
H40 H 0.25150 0.38810 0.71690
H41 H 0.22880 0.23910 0.72600
H42 H 0.04470 0.17670 0.75130
H43 H -0.40930 0.17290 0.83610
H44 H -0.60950 0.20420 0.84070
H45 H -0.65610 0.35130 0.86900
H46 H -0.50220 0.46170 0.88830
H47 H -0.31660 0.51840 0.89400
H48 H -0.12680 0.53310 0.90960
H49 H 0.05020 0.50440 0.93900
H50 H 0.20280 0.41810 0.95380
H51 H 0.17910 0.26620 0.91870
H52 H 0.00020 0.20570 0.87420
C81 C 0.07625(18) -0.22097(13) 0.88858(8)
C82 C -0.0044(3) -0.22204(17) 0.93246(10)
C83 C -0.1271(3) -0.25467(19) 0.92027(12)
C84 C -0.1700(2) -0.28562(17) 0.86675(12)
C85 C -0.09107(19) -0.28671(14) 0.82049(10)
C86 C -0.1190(3) -0.31862(16) 0.76245(10)
C87 C -0.0317(3) -0.31823(16) 0.7227(1)
C88 C 0.0901(2) -0.28501(15) 0.73691(8)
C89 C 0.12057(17) -0.25164(13) 0.79236(8)
C90 C 0.03117(18) -0.25325(13) 0.83356(8)
C91 C 0.21243(18) -0.18968(13) 0.88914(7)
C92 C 0.2864(2) -0.24446(13) 0.92506(7)
C93 C 0.2284(3) -0.31325(15) 0.95036(9)
C94 C 0.2921(4) -0.36823(18) 0.97836(10)
C95 C 0.4162(4) -0.3586(3) 0.98158(12)
C96 C 0.4760(3) -0.2920(2) 0.95753(11)
C97 C 0.4144(3) -0.23252(16) 0.93038(8)
C98 C 0.4903(3) -0.16327(19) 0.9092(1)
C99 C 0.4618(3) -0.08119(19) 0.90447(10)
C100 C 0.3477(3) -0.04148(15) 0.91832(9)
C101 C 0.3573(4) 0.05093(18) 0.93755(12)
C102 C 0.2588(4) 0.09653(19) 0.95229(13)
C103 C 0.1446(4) 0.05216(19) 0.94670(13)
C104 C 0.1317(3) -0.03838(16) 0.92706(10)
C105 C 0.2314(2) -0.08858(14) 0.91289(8)
C106 C 0.24542(17) -0.21290(13) 0.81800(7)
C107 C 0.32738(18) -0.29141(14) 0.80659(7)
C108 C 0.2728(2) -0.37333(14) 0.81838(8)
C109 C 0.3287(3) -0.45161(17) 0.81197(10)
C110 C 0.4449(3) -0.4527(2) 0.79074(12)
C111 C 0.5010(3) -0.3749(3) 0.77845(11)
C112 C 0.4471(2) -0.29262(17) 0.78659(9)
C113 C 0.5248(3) -0.2176(3) 0.7736(1)
C114 C 0.5012(3) -0.1347(2) 0.76902(11)
C115 C 0.3878(3) -0.09188(17) 0.77375(9)
C116 C 0.3942(3) -0.0085(3) 0.75517(13)
C117 C 0.2973(4) 0.0409(3) 0.75463(15)
C118 C 0.1864(3) 0.00862(19) 0.77324(14)
C119 C 0.1771(3) -0.07325(16) 0.7917(1)
C120 C 0.27499(19) -0.12559(14) 0.79318(8)
H53 H 0.02170 -0.20140 0.96980
H54 H -0.18080 -0.25500 0.95030
H55 H -0.25170 -0.30620 0.86060
H56 H -0.19850 -0.34020 0.75140
H57 H -0.05250 -0.34050 0.68490
H58 H 0.14880 -0.28580 0.70890
H59 H 0.14370 -0.32210 0.94810
H60 H 0.25000 -0.41240 0.99530
H61 H 0.45950 -0.39670 0.99980
H62 H 0.56090 -0.28600 0.95920
H63 H 0.56790 -0.17780 0.89760
H64 H 0.52250 -0.04470 0.89060
H65 H 0.43410 0.08190 0.94020
H66 H 0.26820 0.15750 0.96610
H67 H 0.07610 0.08320 0.95620
H68 H 0.05360 -0.06720 0.92310
H69 H 0.19330 -0.37430 0.83140
H70 H 0.28890 -0.50320 0.82180
H71 H 0.48410 -0.50540 0.78490
H72 H 0.57930 -0.37620 0.76390
H73 H 0.60570 -0.22960 0.76730
H74 H 0.56880 -0.09780 0.76150
H75 H 0.46860 0.01380 0.74260
H76 H 0.30520 0.09600 0.74190
H77 H 0.11870 0.04170 0.77330
H78 H 0.10160 -0.09450 0.80370
loop_
_geom_bond_atom_site_label_1
_geom_bond_atom_site_label_2
_geom_bond_distance
_geom_bond_site_symmetry_1
_geom_bond_site_symmetry_2
C1 C2 1.375 1_555 1_555
C2 C3 1.402 1_555 1_555
C3 C4 1.363 1_555 1_555
C4 C5 1.409 1_555 1_555
C5 C6 1.417 1_555 1_555
C6 C7 1.364 1_555 1_555
C7 C8 1.408 1_555 1_555
C8 C9 1.368 1_555 1_555
C9 C10 1.392 1_555 1_555
C10 C1 1.404 1_555 1_555
C11 C1 1.533 1_555 1_555
C12 C11 1.540 1_555 1_555
C13 C12 1.405 1_555 1_555
C14 C13 1.375 1_555 1_555
C15 C14 1.370 1_555 1_555
C16 C15 1.373 1_555 1_555
C17 C12 1.408 1_555 1_555
C18 C17 1.452 1_555 1_555
C19 C18 1.332 1_555 1_555
C20 C19 1.449 1_555 1_555
C21 C20 1.399 1_555 1_555
C22 C21 1.370 1_555 1_555
C23 C22 1.369 1_555 1_555
C24 C23 1.382 1_555 1_555
C25 C11 1.545 1_555 1_555
C26 C9 1.534 1_555 1_555
C27 C26 1.542 1_555 1_555
C28 C27 1.403 1_555 1_555
C29 C28 1.380 1_555 1_555
C30 C29 1.375 1_555 1_555
C31 C30 1.366 1_555 1_555
C32 C27 1.411 1_555 1_555
C33 C32 1.454 1_555 1_555
C34 C33 1.330 1_555 1_555
C35 C34 1.443 1_555 1_555
C36 C35 1.407 1_555 1_555
C37 C36 1.356 1_555 1_555
C38 C37 1.380 1_555 1_555
C39 C38 1.375 1_555 1_555
C40 C26 1.549 1_555 1_555
H1 C2 0.929 1_555 1_555
H2 C3 0.930 1_555 1_555
H3 C4 0.930 1_555 1_555
H4 C6 0.930 1_555 1_555
H5 C7 0.930 1_555 1_555
H6 C8 0.929 1_555 1_555
H7 C13 0.929 1_555 1_555
H8 C14 0.930 1_555 1_555
H9 C15 0.930 1_555 1_555
H10 C16 0.929 1_555 1_555
H11 C18 0.930 1_555 1_555
H12 C19 0.930 1_555 1_555
H13 C21 0.931 1_555 1_555
H14 C22 0.930 1_555 1_555
H15 C23 0.930 1_555 1_555
H16 C24 0.930 1_555 1_555
H17 C28 0.930 1_555 1_555
H18 C29 0.930 1_555 1_555
H19 C30 0.930 1_555 1_555
H20 C31 0.930 1_555 1_555
H21 C33 0.931 1_555 1_555
H22 C34 0.930 1_555 1_555
H23 C36 0.931 1_555 1_555
H24 C37 0.931 1_555 1_555
H25 C38 0.930 1_555 1_555
H26 C39 0.930 1_555 1_555
C41 C42 1.374 1_555 1_555
C42 C43 1.407 1_555 1_555
C43 C44 1.375 1_555 1_555
C44 C45 1.408 1_555 1_555
C45 C46 1.414 1_555 1_555
C46 C47 1.361 1_555 1_555
C47 C48 1.406 1_555 1_555
C48 C49 1.374 1_555 1_555
C49 C50 1.397 1_555 1_555
C50 C41 1.397 1_555 1_555
C51 C41 1.531 1_555 1_555
C52 C51 1.552 1_555 1_555
C53 C52 1.394 1_555 1_555
C54 C53 1.376 1_555 1_555
C55 C54 1.368 1_555 1_555
C56 C55 1.373 1_555 1_555
C57 C52 1.410 1_555 1_555
C58 C57 1.454 1_555 1_555
C59 C58 1.343 1_555 1_555
C60 C59 1.447 1_555 1_555
C61 C60 1.404 1_555 1_555
C62 C61 1.357 1_555 1_555
C63 C62 1.361 1_555 1_555
C64 C63 1.384 1_555 1_555
C65 C51 1.547 1_555 1_555
C66 C49 1.531 1_555 1_555
C67 C66 1.541 1_555 1_555
C68 C67 1.392 1_555 1_555
C69 C68 1.376 1_555 1_555
C70 C69 1.381 1_555 1_555
C71 C70 1.359 1_555 1_555
C72 C67 1.411 1_555 1_555
C73 C72 1.443 1_555 1_555
C74 C73 1.328 1_555 1_555
C75 C74 1.446 1_555 1_555
C76 C75 1.398 1_555 1_555
C77 C76 1.344 1_555 1_555
C78 C77 1.375 1_555 1_555
C79 C78 1.376 1_555 1_555
C80 C66 1.550 1_555 1_555
H27 C42 0.931 1_555 1_555
H28 C43 0.930 1_555 1_555
H29 C44 0.930 1_555 1_555
H30 C46 0.930 1_555 1_555
H31 C47 0.931 1_555 1_555
H32 C48 0.931 1_555 1_555
H33 C53 0.930 1_555 1_555
H34 C54 0.930 1_555 1_555
H35 C55 0.931 1_555 1_555
H36 C56 0.930 1_555 1_555
H37 C58 0.930 1_555 1_555
H38 C59 0.930 1_555 1_555
H39 C61 0.931 1_555 1_555
H40 C62 0.930 1_555 1_555
H41 C63 0.930 1_555 1_555
H42 C64 0.929 1_555 1_555
H43 C68 0.930 1_555 1_555
H44 C69 0.931 1_555 1_555
H45 C70 0.930 1_555 1_555
H46 C71 0.930 1_555 1_555
H47 C73 0.930 1_555 1_555
H48 C74 0.930 1_555 1_555
H49 C76 0.930 1_555 1_555
H50 C77 0.930 1_555 1_555
H51 C78 0.930 1_555 1_555
H52 C79 0.931 1_555 1_555
C81 C82 1.377 1_555 1_555
C82 C83 1.411 1_555 1_555
C83 C84 1.355 1_555 1_555
C84 C85 1.406 1_555 1_555
C85 C86 1.414 1_555 1_555
C86 C87 1.353 1_555 1_555
C87 C88 1.412 1_555 1_555
C88 C89 1.368 1_555 1_555
C89 C90 1.395 1_555 1_555
C90 C81 1.398 1_555 1_555
C91 C81 1.533 1_555 1_555
C92 C91 1.549 1_555 1_555
C93 C92 1.399 1_555 1_555
C94 C93 1.374 1_555 1_555
C95 C94 1.360 1_555 1_555
C96 C95 1.365 1_555 1_555
C97 C92 1.406 1_555 1_555
C98 C97 1.446 1_555 1_555
C99 C98 1.329 1_555 1_555
C100 C99 1.451 1_555 1_555
C101 C100 1.402 1_555 1_555
C102 C101 1.349 1_555 1_555
C103 C102 1.372 1_555 1_555
C104 C103 1.377 1_555 1_555
C105 C91 1.548 1_555 1_555
C106 C89 1.532 1_555 1_555
C107 C106 1.541 1_555 1_555
C108 C107 1.407 1_555 1_555
C109 C108 1.368 1_555 1_555
C110 C109 1.377 1_555 1_555
C111 C110 1.363 1_555 1_555
C112 C107 1.403 1_555 1_555
C113 C112 1.443 1_555 1_555
C114 C113 1.325 1_555 1_555
C115 C114 1.447 1_555 1_555
C116 C115 1.401 1_555 1_555
C117 C116 1.350 1_555 1_555
C118 C117 1.380 1_555 1_555
C119 C118 1.378 1_555 1_555
C120 C106 1.546 1_555 1_555
H53 C82 0.931 1_555 1_555
H54 C83 0.931 1_555 1_555
H55 C84 0.930 1_555 1_555
H56 C86 0.930 1_555 1_555
H57 C87 0.931 1_555 1_555
H58 C88 0.931 1_555 1_555
H59 C93 0.930 1_555 1_555
H60 C94 0.930 1_555 1_555
H61 C95 0.931 1_555 1_555
H62 C96 0.930 1_555 1_555
H63 C98 0.930 1_555 1_555
H64 C99 0.929 1_555 1_555
H65 C101 0.930 1_555 1_555
H66 C102 0.930 1_555 1_555
H67 C103 0.930 1_555 1_555
H68 C104 0.929 1_555 1_555
H69 C108 0.929 1_555 1_555
H70 C109 0.930 1_555 1_555
H71 C110 0.930 1_555 1_555
H72 C111 0.930 1_555 1_555
H73 C113 0.930 1_555 1_555
H74 C114 0.930 1_555 1_555
H75 C116 0.930 1_555 1_555
H76 C117 0.931 1_555 1_555
H77 C118 0.929 1_555 1_555
H78 C119 0.930 1_555 1_555
C5 C10 1.409 1_555 1_555
C11 C26 1.742 1_555 1_555
C16 C17 1.402 1_555 1_555
C20 C25 1.413 1_555 1_555
C24 C25 1.391 1_555 1_555
C31 C32 1.404 1_555 1_555
C35 C40 1.412 1_555 1_555
C39 C40 1.400 1_555 1_555
C45 C50 1.412 1_555 1_555
C51 C66 1.726 1_555 1_555
C56 C57 1.399 1_555 1_555
C60 C65 1.406 1_555 1_555
C64 C65 1.392 1_555 1_555
C71 C72 1.395 1_555 1_555
C75 C80 1.398 1_555 1_555
C79 C80 1.382 1_555 1_555
C85 C90 1.413 1_555 1_555
C91 C106 1.723 1_555 1_555
C96 C97 1.400 1_555 1_555
C100 C105 1.409 1_555 1_555
C104 C105 1.396 1_555 1_555
C111 C112 1.411 1_555 1_555
C115 C120 1.413 1_555 1_555
C119 C120 1.389 1_555 1_555
#END
