
#######################################################################
#
#                 Cambridge Crystallographic Data Centre
#                                CCDC
#
#######################################################################
#
# If this CIF has been generated from an entry in the Cambridge
# Structural Database, then it will include bibliographic, chemical,
# crystal, experimental, refinement or atomic coordinate data resulting
# from the CCDC's data processing and validation procedures.
#
#######################################################################

data_CSD_CIF_PEZPIU
_audit_creation_date 2007-07-19
_audit_creation_method CSD-ConQuest-V1
_database_code_CSD PEZPIU
_database_code_depnum_ccdc_archive 'CCDC 614432'
_chemical_formula_sum 'C32 H20'
_chemical_formula_moiety
;
C32 H20
;
_journal_coden_Cambridge 1088
_journal_year 2007
_journal_page_first 897
_journal_name_full 'Synlett '
loop_
_publ_author_name
"G.Dyker"
"K.Merz"
"I.M.Oppel"
"E.Muth"
_chemical_name_systematic
;
1-(acenaphthylen-1-yl)-2,2-binaphthalene
;
_cell_volume   2141.462
_exptl_crystal_colour 'colorless'
_exptl_crystal_density_diffrn 1.255
_exptl_crystal_description 'plate'
_diffrn_ambient_temperature 293
_diffrn_special_details
;
twin

;
#These two values have been output from a single CSD field.
_refine_ls_R_factor_gt 0.1268
_refine_ls_wR_factor_gt 0.1268
_symmetry_cell_setting monoclinic
_symmetry_space_group_name_H-M 'P 21/c'
_symmetry_Int_Tables_number 14
loop_
_symmetry_equiv_pos_site_id
_symmetry_equiv_pos_as_xyz
1 x,y,z
2 -x,1/2+y,1/2-z
3 -x,-y,-z
4 x,-1/2-y,-1/2+z
_cell_length_a 11.352(3)
_cell_length_b 24.248(4)
_cell_length_c 7.8348(19)
_cell_angle_alpha 90
_cell_angle_beta 96.80(2)
_cell_angle_gamma 90
_cell_formula_units_Z 4
loop_
_atom_type_symbol
_atom_type_radius_bond
C 0.68
H 0.23
loop_
_atom_site_label
_atom_site_type_symbol
_atom_site_fract_x
_atom_site_fract_y
_atom_site_fract_z
C1 C 0.7785(8) -0.0233(3) -0.6921(9)
H1 H 0.81050 -0.02790 -0.79510
C2 C 0.8989(6) 0.2208(3) 0.4781(7)
H2 H 0.86510 0.24900 0.53650
C3 C 0.4695(6) 0.2039(2) -0.3497(7)
H3 H 0.41720 0.21870 -0.43830
C4 C 1.0164(7) 0.2058(3) 0.5276(9)
H4 H 1.05910 0.22290 0.62160
C5 C 0.6731(7) -0.0505(3) -0.6701(9)
H5 H 0.63630 -0.07240 -0.75830
C6 C 0.6247(6) -0.0455(2) -0.5248(9)
H6 H 0.55450 -0.06360 -0.50980
C7 C 0.2872(6) 0.1744(3) 0.0085(11)
H7 H 0.20970 0.17690 0.03500
C8 C 0.8364(7) 0.0096(3) -0.5692(10)
H8 H 0.90620 0.02740 -0.58780
C9 C 0.3115(6) 0.1918(2) -0.1511(10)
H9 H 0.25120 0.20600 -0.22950
C10 C 1.0683(6) 0.1670(3) 0.4412(9)
H10 H 1.14730 0.15800 0.47410
C11 C 0.6706(5) 0.1757(2) -0.2384(7)
H11 H 0.75000 0.17200 -0.25490
C12 C 0.6014(4) 0.1307(2) 0.1818(7)
H12 H 0.61390 0.11730 0.29360
C13 C 0.6389(6) -0.0045(3) -0.2362(10)
H13 H 0.56800 -0.02190 -0.22060
C14 C 0.8334(5) 0.1951(2) 0.3467(6)
H14 H 0.75480 0.20550 0.31670
C15 C 0.8502(6) 0.0506(2) -0.2771(10)
H15 H 0.91990 0.06930 -0.29160
C16 C 0.3736(5) 0.1531(2) 0.1317(8)
H16 H 0.35410 0.14220 0.23860
C17 C 0.7902(5) 0.0157(2) -0.4202(8)
C18 C 0.9936(5) 0.0762(2) 0.0637(8)
H17 H 1.03140 0.05130 -0.00210
C19 C 0.5854(6) 0.1980(2) -0.3718(7)
H18 H 0.61070 0.20850 -0.47570
C20 C 1.0044(5) 0.1395(2) 0.3003(7)
C21 C 0.6976(6) 0.0274(3) -0.1056(8)
H19 H 0.66640 0.03050 -0.00150
C22 C 0.8725(5) 0.0877(2) 0.0180(6)
C23 C 1.0557(5) 0.1002(2) 0.2001(8)
H20 H 1.13480 0.09050 0.22910
C24 C 0.4882(5) 0.1484(2) 0.0934(7)
C25 C 0.4259(5) 0.1881(2) -0.1939(8)
C26 C 0.6857(6) -0.0101(3) -0.3868(8)
C27 C 0.6871(5) 0.1372(2) 0.0735(6)
C28 C 0.8033(5) 0.0549(2) -0.1287(7)
C29 C 0.5108(4) 0.1669(2) -0.0704(7)
C30 C 0.8157(4) 0.1240(2) 0.1127(6)
C31 C 0.6321(5) 0.1606(2) -0.0897(7)
C32 C 0.8827(4) 0.1527(2) 0.2538(6)
loop_
_geom_bond_atom_site_label_1
_geom_bond_atom_site_label_2
_geom_bond_distance
_geom_bond_site_symmetry_1
_geom_bond_site_symmetry_2
C1 H1 0.930 1_555 1_555
C2 H2 0.930 1_555 1_555
C3 H3 0.930 1_555 1_555
C4 C2 1.393 1_555 1_555
H4 C4 0.930 1_555 1_555
C5 C1 1.395 1_555 1_555
H5 C5 0.930 1_555 1_555
C6 C5 1.327 1_555 1_555
H6 C6 0.929 1_555 1_555
C7 H7 0.930 1_555 1_555
C8 C1 1.359 1_555 1_555
H8 C8 0.929 1_555 1_555
C9 C7 1.378 1_555 1_555
H9 C9 0.930 1_555 1_555
C10 C4 1.336 1_555 1_555
H10 C10 0.929 1_555 1_555
C11 H11 0.930 1_555 1_555
C12 H12 0.929 1_555 1_555
C13 H13 0.930 1_555 1_555
C14 C2 1.349 1_555 1_555
H14 C14 0.930 1_555 1_555
C15 H15 0.931 1_555 1_555
C16 C7 1.391 1_555 1_555
H16 C16 0.930 1_555 1_555
C17 C8 1.343 1_555 1_555
C18 H17 0.931 1_555 1_555
C19 C3 1.355 1_555 1_555
H18 C19 0.930 1_555 1_555
C20 C10 1.414 1_555 1_555
C21 C13 1.388 1_555 1_555
H19 C21 0.930 1_555 1_555
C22 C18 1.407 1_555 1_555
C23 C18 1.341 1_555 1_555
H20 C23 0.930 1_555 1_555
C24 C12 1.451 1_555 1_555
C25 C3 1.423 1_555 1_555
C26 C6 1.486 1_555 1_555
C27 C12 1.374 1_555 1_555
C28 C15 1.339 1_555 1_555
C29 C24 1.411 1_555 1_555
C30 C22 1.362 1_555 1_555
C31 C11 1.343 1_555 1_555
C32 C14 1.413 1_555 1_555
C9 C25 1.382 1_555 1_555
C11 C19 1.443 1_555 1_555
C13 C26 1.357 1_555 1_555
C15 C17 1.502 1_555 1_555
C16 C24 1.374 1_555 1_555
C17 C26 1.393 1_555 1_555
C20 C23 1.404 1_555 1_555
C20 C32 1.423 1_555 1_555
C21 C28 1.403 1_555 1_555
C22 C28 1.535 1_555 1_555
C25 C29 1.382 1_555 1_555
C27 C30 1.491 1_555 1_555
C27 C31 1.469 1_555 1_555
C29 C31 1.411 1_555 1_555
C30 C32 1.444 1_555 1_555
#END
