
#######################################################################
#
#                 Cambridge Crystallographic Data Centre
#                                CCDC
#
#######################################################################
#
# If this CIF has been generated from an entry in the Cambridge
# Structural Database, then it will include bibliographic, chemical,
# crystal, experimental, refinement or atomic coordinate data resulting
# from the CCDC's data processing and validation procedures.
#
#######################################################################

data_CSD_CIF_PEZPUG
_audit_creation_date 2007-07-19
_audit_creation_method CSD-ConQuest-V1
_database_code_CSD PEZPUG
_database_code_depnum_ccdc_archive 'CCDC 611565'
_chemical_formula_sum 'C32 H20'
_chemical_formula_moiety
;
C32 H20
;
_journal_coden_Cambridge 1088
_journal_year 2007
_journal_page_first 897
_journal_name_full 'Synlett '
loop_
_publ_author_name
"G.Dyker"
"K.Merz"
"I.M.Oppel"
"E.Muth"
_chemical_name_systematic
;
1,2-bis(naphthalen-1-yl)acenaphthylene
;
_chemical_melting_point 541.15
_cell_volume   2072.846
_exptl_crystal_density_diffrn 1.296
_exptl_special_details
;
Melting point range 541.15-543.15K

;
_diffrn_ambient_temperature 213
#These two values have been output from a single CSD field.
_refine_ls_R_factor_gt 0.0416
_refine_ls_wR_factor_gt 0.0416
_symmetry_cell_setting monoclinic
_symmetry_space_group_name_H-M 'P 21/n'
_symmetry_Int_Tables_number 14
loop_
_symmetry_equiv_pos_site_id
_symmetry_equiv_pos_as_xyz
1 x,y,z
2 1/2-x,1/2+y,1/2-z
3 -x,-y,-z
4 -1/2+x,-1/2-y,-1/2+z
_cell_length_a 12.190(5)
_cell_length_b 10.104(4)
_cell_length_c 17.237(7)
_cell_angle_alpha 90
_cell_angle_beta 102.484(9)
_cell_angle_gamma 90
_cell_formula_units_Z 4
loop_
_atom_type_symbol
_atom_type_radius_bond
C 0.68
H 0.23
loop_
_atom_site_label
_atom_site_type_symbol
_atom_site_fract_x
_atom_site_fract_y
_atom_site_fract_z
C1 C 0.44968(13) 0.26765(16) -0.00824(9)
C2 C 0.35008(13) 0.28139(16) -0.07480(9)
C3 C 0.38306(13) 0.23231(16) -0.14309(9)
C4 C 0.49559(13) 0.19110(16) -0.12396(9)
C5 C 0.54218(15) 0.14233(18) -0.18369(10)
H1 H 0.61720 0.11320 -0.17320
C6 C 0.47452(16) 0.13687(19) -0.26168(11)
H2 H 0.50620 0.10310 -0.30270
C7 C 0.36519(16) 0.17851(18) -0.27987(10)
H3 H 0.32340 0.17290 -0.33240
C8 C 0.31485(14) 0.23014(17) -0.2194(1)
C9 C 0.53612(13) 0.21633(16) -0.03771(9)
C10 C 0.24395(14) 0.33241(17) -0.08399(10)
H4 H 0.21870 0.36630 -0.04020
C11 C 0.17299(15) 0.33309(18) -0.16084(11)
H5 H 0.10020 0.36830 -0.16700
C12 C 0.20578(15) 0.28470(18) -0.22651(11)
H6 H 0.15600 0.28760 -0.27640
C13 C 0.65171(13) 0.18214(16) 0.00495(9)
C14 C 0.67091(14) 0.08224(17) 0.06042(10)
H7 H 0.60970 0.04230 0.07640
C15 C 0.78057(15) 0.03901(18) 0.09361(10)
H8 H 0.79190 -0.02870 0.13190
C16 C 0.87024(14) 0.09390(19) 0.07106(10)
H9 H 0.94270 0.06050 0.09160
C17 C 0.85579(14) 0.20096(18) 0.01694(10)
C18 C 0.74580(13) 0.24791(16) -0.01559(9)
C19 C 0.73298(14) 0.36070(17) -0.06564(10)
H10 H 0.66060 0.39360 -0.08700
C20 C 0.82403(14) 0.42209(19) -0.08325(10)
H11 H 0.81410 0.49770 -0.11580
C21 C 0.93259(15) 0.3730(2) -0.05304(11)
H12 H 0.99480 0.41460 -0.06660
C22 C 0.94828(15) 0.2657(2) -0.00427(11)
H13 H 1.02150 0.23410 0.01570
C23 C 0.45472(13) 0.31427(16) 0.07393(9)
C24 C 0.53280(13) 0.40756(17) 0.10697(10)
H14 H 0.58390 0.43920 0.07760
C25 C 0.53782(15) 0.45675(17) 0.18396(10)
H15 H 0.59230 0.52030 0.20540
C26 C 0.46489(15) 0.41337(18) 0.22768(10)
H16 H 0.46850 0.44820 0.27880
C27 C 0.38360(14) 0.31651(17) 0.19721(10)
C28 C 0.37763(13) 0.26519(16) 0.11959(9)
C29 C 0.29822(13) 0.16515(17) 0.09141(10)
H17 H 0.29470 0.12840 0.04080
C30 C 0.22657(14) 0.12105(19) 0.13648(11)
H18 H 0.17380 0.05490 0.11640
C31 C 0.23083(16) 0.1734(2) 0.21248(11)
H19 H 0.18070 0.14290 0.24300
C32 C 0.30736(16) 0.2679(2) 0.24181(11)
H20 H 0.30990 0.30200 0.29290
loop_
_geom_bond_atom_site_label_1
_geom_bond_atom_site_label_2
_geom_bond_distance
_geom_bond_site_symmetry_1
_geom_bond_site_symmetry_2
C1 C2 1.486 1_555 1_555
C2 C3 1.413 1_555 1_555
C3 C4 1.403 1_555 1_555
C4 C5 1.370 1_555 1_555
C5 H1 0.940 1_555 1_555
C6 C5 1.418 1_555 1_555
H2 C6 0.940 1_555 1_555
C7 C6 1.368 1_555 1_555
H3 C7 0.940 1_555 1_555
C8 C3 1.396 1_555 1_555
C9 C1 1.367 1_555 1_555
C10 C2 1.370 1_555 1_555
H4 C10 0.939 1_555 1_555
C11 C10 1.417 1_555 1_555
H5 C11 0.940 1_555 1_555
C12 C8 1.420 1_555 1_555
H6 C12 0.940 1_555 1_555
C13 C9 1.482 1_555 1_555
C14 C13 1.375 1_555 1_555
H7 C14 0.940 1_555 1_555
C15 C14 1.405 1_555 1_555
H8 C15 0.940 1_555 1_555
C16 C15 1.355 1_555 1_555
H9 C16 0.940 1_555 1_555
C17 C16 1.414 1_555 1_555
C18 C13 1.435 1_555 1_555
C19 C18 1.417 1_555 1_555
H10 C19 0.940 1_555 1_555
C20 C19 1.362 1_555 1_555
H11 C20 0.940 1_555 1_555
C21 C20 1.404 1_555 1_555
H12 C21 0.940 1_555 1_555
C22 C17 1.418 1_555 1_555
H13 C22 0.940 1_555 1_555
C23 C1 1.481 1_555 1_555
C24 C23 1.373 1_555 1_555
H14 C24 0.940 1_555 1_555
C25 C24 1.406 1_555 1_555
H15 C25 0.940 1_555 1_555
C26 C25 1.356 1_555 1_555
H16 C26 0.941 1_555 1_555
C27 C26 1.411 1_555 1_555
C28 C23 1.438 1_555 1_555
C29 C28 1.411 1_555 1_555
H17 C29 0.941 1_555 1_555
C30 C29 1.363 1_555 1_555
H18 C30 0.940 1_555 1_555
C31 C30 1.403 1_555 1_555
H19 C31 0.940 1_555 1_555
C32 C27 1.416 1_555 1_555
H20 C32 0.940 1_555 1_555
C4 C9 1.484 1_555 1_555
C7 C8 1.418 1_555 1_555
C11 C12 1.370 1_555 1_555
C17 C18 1.418 1_555 1_555
C21 C22 1.360 1_555 1_555
C27 C28 1.422 1_555 1_555
C31 C32 1.354 1_555 1_555
#END
