
#######################################################################
#
#                 Cambridge Crystallographic Data Centre
#                                CCDC
#
#######################################################################
#
# If this CIF has been generated from an entry in the Cambridge
# Structural Database, then it will include bibliographic, chemical,
# crystal, experimental, refinement or atomic coordinate data resulting
# from the CCDC's data processing and validation procedures.
#
#######################################################################

data_CSD_CIF_PHENAN04
_audit_creation_date 1972-11-03
_audit_creation_method CSD-ConQuest-V1
_database_code_CSD PHENAN04
_chemical_formula_sum 'C14 H10'
_chemical_formula_moiety
;
C14 H10
;
_journal_coden_Cambridge 195
_journal_volume 1
_journal_year 1971
_journal_page_first 17
_journal_name_full 'J.Cryst.Mol.Struct. '
loop_
_publ_author_name
"D.W.Jones"
"J.Yerkess"
_chemical_name_systematic
;
Phenanthrene
;
_cell_volume    489.066
_exptl_special_details
;
room temperature polymorph

;
_diffrn_ambient_temperature ?
_diffrn_radiation_probe 'neutron radiation'
_diffrn_special_details
;
The study was carried out at room temperature,in the range 283-303K

;
#These two values have been output from a single CSD field.
_refine_ls_R_factor_gt 0.122
_refine_ls_wR_factor_gt 0.122
_symmetry_cell_setting monoclinic
_symmetry_space_group_name_H-M 'P 21'
_symmetry_Int_Tables_number 4
loop_
_symmetry_equiv_pos_site_id
_symmetry_equiv_pos_as_xyz
1 x,y,z
2 -x,1/2+y,-z
_cell_length_a 8.46
_cell_length_b 6.16
_cell_length_c 9.47
_cell_angle_alpha 90
_cell_angle_beta 97.7
_cell_angle_gamma 90
_cell_formula_units_Z 2
loop_
_atom_type_symbol
_atom_type_radius_bond
C 0.68
H 0.20
loop_
_atom_site_label
_atom_site_type_symbol
_atom_site_fract_x
_atom_site_fract_y
_atom_site_fract_z
C1 C 0.16650 0.38730 -0.30810
C2 C 0.32280 0.57240 -0.10170
C3 C 0.22780 0.39730 -0.15590
C4 C 0.19190 0.23210 -0.06530
C5 C 0.25440 0.24270 0.08450
C6 C 0.34670 0.42550 0.13550
C7 C 0.07470 0.20980 -0.35490
C8 C 0.03540 0.04400 -0.26410
C9 C 0.09540 0.05800 -0.11940
C10 C 0.22920 0.08610 0.18720
C11 C 0.29670 0.10460 0.32620
C12 C 0.38580 0.28640 0.37370
C13 C 0.41790 0.45050 0.28230
C14 C 0.37860 0.58490 0.04100
H1 H 0.18500 0.51400 -0.36900
H2 H 0.34600 0.70700 -0.16500
H3 H 0.03400 0.20800 -0.46400
H4 H -0.03500 -0.06000 -0.29500
H5 H 0.07000 -0.04200 -0.06200
H6 H 0.16000 -0.05300 0.14900
H7 H 0.27800 -0.02400 0.40100
H8 H 0.42900 0.31400 0.48500
H9 H 0.48900 0.57400 0.31700
H10 H 0.44600 0.74800 0.07900
loop_
_geom_bond_atom_site_label_1
_geom_bond_atom_site_label_2
_geom_bond_distance
_geom_bond_site_symmetry_1
_geom_bond_site_symmetry_2
C1 C3 1.466 1_555 1_555
C2 C3 1.401 1_555 1_555
C3 C4 1.391 1_555 1_555
C4 C5 1.448 1_555 1_555
C5 C6 1.418 1_555 1_555
C6 C13 1.447 1_555 1_555
C7 C1 1.379 1_555 1_555
C8 C7 1.403 1_555 1_555
C9 C4 1.403 1_555 1_555
C10 C5 1.406 1_555 1_555
C11 C10 1.368 1_555 1_555
C12 C11 1.391 1_555 1_555
C13 C12 1.381 1_555 1_555
C14 C2 1.373 1_555 1_555
H1 C1 0.995 1_555 1_555
H2 C2 1.057 1_555 1_555
H3 C7 1.044 1_555 1_555
H4 C8 0.897 1_555 1_555
H5 C9 0.867 1_555 1_555
H6 C10 1.073 1_555 1_555
H7 C11 1.088 1_555 1_555
H8 C12 1.082 1_555 1_555
H9 C13 0.998 1_555 1_555
H10 C14 1.187 1_555 1_555
C6 C14 1.379 1_555 1_555
C8 C9 1.399 1_555 1_555
#END
