
#######################################################################
#
#                 Cambridge Crystallographic Data Centre
#                                CCDC
#
#######################################################################
#
# If this CIF has been generated from an entry in the Cambridge
# Structural Database, then it will include bibliographic, chemical,
# crystal, experimental, refinement or atomic coordinate data resulting
# from the CCDC's data processing and validation procedures.
#
#######################################################################

data_CSD_CIF_PHINDC01
_audit_creation_date 1985-08-16
_audit_creation_method CSD-ConQuest-V1
_database_code_CSD PHINDC01
_chemical_formula_sum 'C58 H40'
_chemical_formula_moiety
;
C58 H40
;
_journal_coeditor_code "IUCr A24526"
_journal_coden_Cambridge 591
_journal_volume 41
_journal_year 1985
_journal_page_first 157
_journal_name_full 'Acta Crystallogr.,Sect.C:Cryst.Struct.Commun. '
loop_
_publ_author_name
"C.T.Grainger"
_chemical_name_systematic
;
1,1,2,3,4,5,6-Heptaphenyl-1,4-dihydrobenz(e)-as-indacene
;
_cell_volume   2057.766
_exptl_crystal_density_diffrn 1.19
_diffrn_ambient_temperature ?
_diffrn_special_details
;
The study was carried out at room temperature,in the range 283-303K

;
#These two values have been output from a single CSD field.
_refine_ls_R_factor_gt 0.042
_refine_ls_wR_factor_gt 0.042
_symmetry_cell_setting triclinic
_symmetry_space_group_name_H-M 'P -1'
_symmetry_Int_Tables_number 2
loop_
_symmetry_equiv_pos_site_id
_symmetry_equiv_pos_as_xyz
1 x,y,z
2 -x,-y,-z
_cell_length_a 11.903(4)
_cell_length_b 18.433(6)
_cell_length_c 10.035(4)
_cell_angle_alpha 107.05(3)
_cell_angle_beta 95.42(3)
_cell_angle_gamma 98.76(3)
_cell_formula_units_Z 2
loop_
_atom_type_symbol
_atom_type_radius_bond
C 0.68
H 0.23
loop_
_atom_site_label
_atom_site_type_symbol
_atom_site_fract_x
_atom_site_fract_y
_atom_site_fract_z
C1 C 0.9874(1) 0.2031(1) -0.0678(1)
C2 C 0.8888(1) 0.1510(1) -0.1085(2)
C3 C 0.7879(1) 0.1859(1) -0.0465(2)
C4 C 0.8474(1) 0.2699(1) 0.0282(1)
C5 C 1.2253(1) 0.3274(1) 0.2015(2)
C6 C 1.1823(2) 0.3199(1) 0.3216(2)
C7 C 1.2355(2) 0.2843(1) 0.4056(2)
C8 C 1.3325(2) 0.2556(1) 0.3718(3)
C9 C 0.7988(1) 0.3330(1) 0.1012(2)
C10 C 1.3765(2) 0.2627(1) 0.2535(3)
C11 C 0.6801(1) 0.3269(1) 0.1124(2)
C12 C 1.3229(2) 0.2986(1) 0.1683(2)
C13 C 0.6369(1) 0.3894(1) 0.1843(2)
C14 C 1.1004(1) 0.1868(1) -0.1062(2)
C15 C 0.7098(2) 0.4615(1) 0.2471(2)
C16 C 1.1636(2) 0.2269(1) -0.1811(2)
C17 C 0.8244(1) 0.4704(1) 0.2380(2)
C18 C 1.2691(2) 0.2096(1) -0.2141(2)
C19 C 0.8734(1) 0.4069(1) 0.1668(1)
C20 C 1.3120(2) 0.1526(2) -0.1732(3)
C21 C 0.9932(1) 0.4121(1) 0.1606(1)
C22 C 1.2495(2) 0.1125(1) -0.1005(3)
C23 C 1.0894(1) 0.4786(1) 0.2227(2)
C24 C 1.1444(2) 0.1293(1) -0.0677(2)
C25 C 1.1885(1) 0.4554(1) 0.1931(2)
C26 C 0.8732(1) 0.0715(1) -0.2092(2)
C27 C 1.1678(1) 0.3697(1) 0.1131(2)
C28 C 0.8763(2) 0.0618(1) -0.3501(2)
C29 C 1.0382(1) 0.3489(1) 0.0913(1)
C30 C 0.8609(2) -0.0105(1) -0.4469(2)
C31 C 0.9638(1) 0.2774(1) 0.0203(1)
C32 C 0.8424(2) -0.0747(1) -0.4045(2)
C33 C 1.0838(1) 0.5591(1) 0.3049(2)
C34 C 0.8400(2) -0.0662(1) -0.2646(2)
C35 C 1.0689(2) 0.6132(1) 0.2382(2)
C36 C 0.8542(2) 0.0064(1) -0.1678(2)
C37 C 1.0675(2) 0.6885(1) 0.3150(2)
C38 C 0.6927(1) 0.1740(1) -0.1693(2)
C39 C 1.0813(2) 0.7108(1) 0.4592(2)
C40 C 0.6237(2) 0.1014(1) -0.2339(2)
C41 C 1.0968(2) 0.6577(1) 0.5264(2)
C42 C 0.5443(2) 0.0883(1) -0.3516(2)
C43 C 1.0984(2) 0.5825(1) 0.4506(2)
C44 C 0.5335(2) 0.1461(2) -0.4095(2)
C45 C 1.3053(1) 0.5041(1) 0.2305(2)
C46 C 0.6012(2) 0.2185(1) -0.3485(2)
C47 C 1.3639(2) 0.5274(1) 0.3642(2)
C48 C 0.6798(2) 0.2322(1) -0.2275(2)
C49 C 1.4712(2) 0.5750(1) 0.3980(2)
C50 C 0.7499(2) 0.1495(1) 0.0673(2)
C51 C 1.5200(2) 0.5990(1) 0.2981(3)
C52 C 0.8344(2) 0.1365(1) 0.1596(2)
C53 C 1.4636(2) 0.5752(1) 0.1636(3)
C54 C 0.8062(2) 0.1047(1) 0.2635(2)
C55 C 1.3568(2) 0.5280(1) 0.1304(2)
C56 C 0.6929(3) 0.0867(1) 0.2795(3)
C57 C 0.6078(2) 0.1000(1) 0.1916(3)
C58 C 0.6357(2) 0.1313(1) 0.0843(2)
H1 H 0.62840 0.27550 0.06740
H2 H 1.13250 0.26820 -0.21030
H3 H 0.55270 0.38310 0.19050
H4 H 1.31440 0.23880 -0.26730
H5 H 0.67820 0.50730 0.29910
H6 H 1.38790 0.14040 -0.19730
H7 H 0.87610 0.52190 0.28300
H8 H 1.28060 0.07110 -0.07140
H9 H 1.19540 0.36190 0.01970
H10 H 1.09910 0.10010 -0.01450
H11 H 1.05880 0.59690 0.13680
H12 H 0.88960 0.10870 -0.38150
H13 H 1.05630 0.72730 0.26560
H14 H 0.86330 -0.01680 -0.54900
H15 H 1.08060 0.76540 0.51490
H16 H 0.83130 -0.12740 -0.47470
H17 H 1.10690 0.67410 0.63170
H18 H 0.82680 -0.11320 -0.23320
H19 H 1.10970 0.54370 0.50010
H20 H 0.85190 0.01270 -0.06570
H21 H 1.32720 0.50990 0.43790
H22 H 0.63190 0.05900 -0.19250
H23 H 1.51330 0.59240 0.49630
H24 H 0.49500 0.04600 -0.39680
H25 H 1.59750 0.63330 0.32230
H26 H 0.47650 0.13600 -0.49570
H27 H 1.50030 0.59260 0.08980
H28 H 0.59310 0.26090 -0.39000
H29 H 1.31480 0.51070 0.03210
H30 H 0.72900 0.28460 -0.18240
H31 H 1.11160 0.34070 0.34640
H32 H 0.91670 0.14970 0.14800
H33 H 1.20370 0.27910 0.49170
H34 H 0.86760 0.09510 0.32790
H35 H 1.37120 0.22980 0.43290
H36 H 0.67230 0.06440 0.35550
H37 H 1.44720 0.24190 0.22860
H38 H 0.52550 0.08680 0.20320
H39 H 1.35460 0.30380 0.08210
H40 H 0.57450 0.14090 0.01980
loop_
_geom_bond_atom_site_label_1
_geom_bond_atom_site_label_2
_geom_bond_distance
_geom_bond_site_symmetry_1
_geom_bond_site_symmetry_2
C1 C2 1.343 1_555 1_555
C2 C3 1.544 1_555 1_555
C3 C4 1.532 1_555 1_555
C4 C9 1.418 1_555 1_555
C5 C6 1.388 1_555 1_555
C6 C7 1.376 1_555 1_555
C7 C8 1.372 1_555 1_555
C8 C10 1.374 1_555 1_555
C9 C11 1.418 1_555 1_555
C10 C12 1.390 1_555 1_555
C11 C13 1.369 1_555 1_555
C12 C5 1.378 1_555 1_555
C13 C15 1.404 1_555 1_555
C14 C1 1.484 1_555 1_555
C15 C17 1.364 1_555 1_555
C16 C14 1.393 1_555 1_555
C17 C19 1.420 1_555 1_555
C18 C16 1.388 1_555 1_555
C19 C9 1.440 1_555 1_555
C20 C18 1.382 1_555 1_555
C21 C19 1.423 1_555 1_555
C22 C20 1.372 1_555 1_555
C23 C21 1.480 1_555 1_555
C24 C14 1.385 1_555 1_555
C25 C23 1.345 1_555 1_555
C26 C2 1.489 1_555 1_555
C27 C5 1.522 1_555 1_555
C28 C26 1.377 1_555 1_555
C29 C21 1.383 1_555 1_555
C30 C28 1.373 1_555 1_555
C31 C1 1.480 1_555 1_555
C32 C30 1.365 1_555 1_555
C33 C23 1.486 1_555 1_555
C34 C32 1.370 1_555 1_555
C35 C33 1.377 1_555 1_555
C36 C26 1.375 1_555 1_555
C37 C35 1.379 1_555 1_555
C38 C3 1.534 1_555 1_555
C39 C37 1.370 1_555 1_555
C40 C38 1.393 1_555 1_555
C41 C39 1.366 1_555 1_555
C42 C40 1.378 1_555 1_555
C43 C33 1.383 1_555 1_555
C44 C42 1.371 1_555 1_555
C45 C25 1.484 1_555 1_555
C46 C44 1.380 1_555 1_555
C47 C45 1.366 1_555 1_555
C48 C38 1.384 1_555 1_555
C49 C47 1.385 1_555 1_555
C50 C3 1.554 1_555 1_555
C51 C49 1.353 1_555 1_555
C52 C50 1.398 1_555 1_555
C53 C51 1.363 1_555 1_555
C54 C52 1.381 1_555 1_555
C55 C45 1.368 1_555 1_555
C56 C54 1.375 1_555 1_555
C57 C56 1.378 1_555 1_555
C58 C50 1.388 1_555 1_555
H1 C11 1.000 1_555 1_555
H2 C16 0.999 1_555 1_555
H3 C13 1.001 1_555 1_555
H4 C18 1.000 1_555 1_555
H5 C15 1.001 1_555 1_555
H6 C20 0.998 1_555 1_555
H7 C17 1.001 1_555 1_555
H8 C22 1.000 1_555 1_555
H9 C27 1.000 1_555 1_555
H10 C24 1.000 1_555 1_555
H11 C35 0.963 1_555 1_555
H12 C28 1.000 1_555 1_555
H13 C37 1.000 1_555 1_555
H14 C30 1.000 1_555 1_555
H15 C39 0.999 1_555 1_555
H16 C32 1.000 1_555 1_555
H17 C41 1.000 1_555 1_555
H18 C34 1.001 1_555 1_555
H19 C43 1.001 1_555 1_555
H20 C36 1.000 1_555 1_555
H21 C47 1.000 1_555 1_555
H22 C40 0.999 1_555 1_555
H23 C49 1.000 1_555 1_555
H24 C42 0.872 1_555 1_555
H25 C51 1.000 1_555 1_555
H26 C44 1.000 1_555 1_555
H27 C53 1.000 1_555 1_555
H28 C46 1.000 1_555 1_555
H29 C55 0.999 1_555 1_555
H30 C48 1.001 1_555 1_555
H31 C6 1.000 1_555 1_555
H32 C52 0.999 1_555 1_555
H33 C7 0.999 1_555 1_555
H34 C54 1.000 1_555 1_555
H35 C8 0.999 1_555 1_555
H36 C56 1.000 1_555 1_555
H37 C10 1.000 1_555 1_555
H38 C57 0.999 1_555 1_555
H39 C12 1.000 1_555 1_555
H40 C58 0.999 1_555 1_555
C4 C31 1.383 1_555 1_555
C22 C24 1.380 1_555 1_555
C25 C27 1.517 1_555 1_555
C27 C29 1.510 1_555 1_555
C29 C31 1.415 1_555 1_555
C34 C36 1.379 1_555 1_555
C41 C43 1.376 1_555 1_555
C46 C48 1.395 1_555 1_555
C53 C55 1.377 1_555 1_555
C57 C58 1.406 1_555 1_555
#END
