
#######################################################################
#
#                 Cambridge Crystallographic Data Centre
#                                CCDC
#
#######################################################################
#
# If this CIF has been generated from an entry in the Cambridge
# Structural Database, then it will include bibliographic, chemical,
# crystal, experimental, refinement or atomic coordinate data resulting
# from the CCDC's data processing and validation procedures.
#
#######################################################################

data_CSD_CIF_PHINDC
_audit_creation_date 1981-02-05
_audit_creation_method CSD-ConQuest-V1
_database_code_CSD PHINDC
_chemical_formula_sum 'C58 H40'
_chemical_formula_moiety
;
C58 H40
;
_journal_coeditor_code "IUCr A19044"
_journal_coden_Cambridge 107
_journal_volume 36
_journal_year 1980
_journal_page_first 1967
_journal_name_full 'Acta Crystallogr.,Sect.B:Struct.Crystallogr.Cryst.Chem. '
loop_
_publ_author_name
"M.Shoja"
"A.A.Espiritu"
"J.G.White"
"I.J.Borowitz"
_chemical_name_systematic
;
1,1,2,3,4,5,6-Heptaphenyl-1,4-dihydrobenz(e)-as-indacene
;
_cell_volume   2064.038
_exptl_crystal_density_diffrn 1.186
_diffrn_ambient_temperature ?
_diffrn_special_details
;
The study was carried out at room temperature,in the range 283-303K

;
#These two values have been output from a single CSD field.
_refine_ls_R_factor_gt 0.06
_refine_ls_wR_factor_gt 0.06
_symmetry_cell_setting triclinic
_symmetry_space_group_name_H-M 'P -1'
_symmetry_Int_Tables_number 2
loop_
_symmetry_equiv_pos_site_id
_symmetry_equiv_pos_as_xyz
1 x,y,z
2 -x,-y,-z
_cell_length_a 10.041(2)
_cell_length_b 11.916(2)
_cell_length_c 18.264(4)
_cell_angle_alpha 77.85(2)
_cell_angle_beta 104.74(2)
_cell_angle_gamma 95.44(2)
_cell_formula_units_Z 2
loop_
_atom_type_symbol
_atom_type_radius_bond
C 0.68
loop_
_atom_site_label
_atom_site_type_symbol
_atom_site_fract_x
_atom_site_fract_y
_atom_site_fract_z
C1 C 0.26750 0.78670 0.81400
C2 C 0.24010 0.88740 0.84900
C3 C 0.22920 0.98640 0.79670
C4 C 0.24400 1.16710 0.63050
C5 C 0.23750 1.18790 0.54490
C6 C 0.24420 1.08990 0.52160
C7 C 0.26800 0.82440 0.53030
C8 C 0.28600 0.71020 0.53940
C9 C 0.29520 0.63730 0.61120
C10 C 0.28570 0.68060 0.67290
C11 C 0.26860 0.79870 0.66730
C12 C 0.25850 0.84710 0.73020
C13 C 0.24340 0.96330 0.72280
C14 C 0.24300 1.03770 0.65190
C15 C 0.24860 0.99280 0.58830
C16 C 0.26050 0.87350 0.59340
C17 C 0.15430 0.69220 0.82520
C18 C 0.03960 0.67930 0.76700
C19 C -0.06720 0.60070 0.78090
C20 C -0.05730 0.53360 0.85270
C21 C 0.05680 0.54330 0.91000
C22 C 0.16190 0.62270 0.89780
C23 C 0.41750 0.74810 0.85050
C24 C 0.45240 0.63500 0.86870
C25 C 0.58960 0.60710 0.90010
C26 C 0.68960 0.69130 0.91290
C27 C 0.65750 0.80380 0.89490
C28 C 0.52160 0.83240 0.86320
C29 C 0.21920 0.87210 0.92810
C30 C 0.32520 0.85150 0.99280
C31 C 0.30080 0.83720 1.06590
C32 C 0.16980 0.84040 1.07450
C33 C 0.06490 0.85960 1.01120
C34 C 0.08870 0.87610 0.93820
C35 C 0.20700 1.10000 0.81320
C36 C 0.30310 1.14340 0.87050
C37 C 0.28550 1.24840 0.88670
C38 C 0.17410 1.30970 0.84740
C39 C 0.07600 1.26810 0.79020
C40 C 0.09250 1.16250 0.77300
C41 C 0.37530 1.22470 0.67300
C42 C 0.50180 1.18070 0.68000
C43 C 0.62080 1.23490 0.71530
C44 C 0.61660 1.33110 0.74360
C45 C 0.49230 1.37560 0.73680
C46 C 0.37100 1.32210 0.70110
C47 C 0.22590 1.30570 0.49610
C48 C 0.10290 1.35660 0.47270
C49 C 0.08850 1.46380 0.42490
C50 C 0.19870 1.51960 0.40180
C51 C 0.32250 1.47200 0.42500
C52 C 0.33700 1.36510 0.47280
C53 C 0.24560 1.08370 0.44170
C54 C 0.36770 1.09950 0.41780
C55 C 0.36750 1.09850 0.34230
C56 C 0.24730 1.08270 0.28980
C57 C 0.12690 1.06830 0.31270
C58 C 0.12550 1.06860 0.38760
loop_
_geom_bond_atom_site_label_1
_geom_bond_atom_site_label_2
_geom_bond_distance
_geom_bond_site_symmetry_1
_geom_bond_site_symmetry_2
C1 C2 1.549 1_555 1_555
C2 C3 1.346 1_555 1_555
C3 C13 1.476 1_555 1_555
C4 C5 1.516 1_555 1_555
C5 C6 1.337 1_555 1_555
C6 C15 1.488 1_555 1_555
C7 C8 1.359 1_555 1_555
C8 C9 1.399 1_555 1_555
C9 C10 1.362 1_555 1_555
C10 C11 1.413 1_555 1_555
C11 C12 1.418 1_555 1_555
C12 C1 1.532 1_555 1_555
C13 C12 1.382 1_555 1_555
C14 C4 1.509 1_555 1_555
C15 C14 1.393 1_555 1_555
C16 C7 1.419 1_555 1_555
C17 C1 1.543 1_555 1_555
C18 C17 1.376 1_555 1_555
C19 C18 1.393 1_555 1_555
C20 C19 1.370 1_555 1_555
C21 C20 1.355 1_555 1_555
C22 C17 1.396 1_555 1_555
C23 C1 1.554 1_555 1_555
C24 C23 1.375 1_555 1_555
C25 C24 1.393 1_555 1_555
C26 C25 1.363 1_555 1_555
C27 C26 1.361 1_555 1_555
C28 C23 1.390 1_555 1_555
C29 C2 1.483 1_555 1_555
C30 C29 1.370 1_555 1_555
C31 C30 1.391 1_555 1_555
C32 C31 1.369 1_555 1_555
C33 C32 1.347 1_555 1_555
C34 C29 1.375 1_555 1_555
C35 C3 1.495 1_555 1_555
C36 C35 1.383 1_555 1_555
C37 C36 1.382 1_555 1_555
C38 C37 1.351 1_555 1_555
C39 C38 1.382 1_555 1_555
C40 C35 1.385 1_555 1_555
C41 C4 1.531 1_555 1_555
C42 C41 1.386 1_555 1_555
C43 C42 1.377 1_555 1_555
C44 C43 1.361 1_555 1_555
C45 C44 1.369 1_555 1_555
C46 C41 1.373 1_555 1_555
C47 C5 1.493 1_555 1_555
C48 C47 1.357 1_555 1_555
C49 C48 1.384 1_555 1_555
C50 C49 1.351 1_555 1_555
C51 C50 1.346 1_555 1_555
C52 C47 1.375 1_555 1_555
C53 C6 1.480 1_555 1_555
C54 C53 1.387 1_555 1_555
C55 C54 1.381 1_555 1_555
C56 C55 1.362 1_555 1_555
C57 C56 1.361 1_555 1_555
C58 C53 1.375 1_555 1_555
C11 C16 1.440 1_555 1_555
C13 C14 1.406 1_555 1_555
C15 C16 1.419 1_555 1_555
C21 C22 1.378 1_555 1_555
C27 C28 1.384 1_555 1_555
C33 C34 1.384 1_555 1_555
C39 C40 1.394 1_555 1_555
C45 C46 1.392 1_555 1_555
C51 C52 1.381 1_555 1_555
C57 C58 1.372 1_555 1_555
#END
