
#######################################################################
#
#                 Cambridge Crystallographic Data Centre
#                                CCDC
#
#######################################################################
#
# If this CIF has been generated from an entry in the Cambridge
# Structural Database, then it will include bibliographic, chemical,
# crystal, experimental, refinement or atomic coordinate data resulting
# from the CCDC's data processing and validation procedures.
#
#######################################################################

data_CSD_CIF_PHNAPH01
_audit_creation_date 2016-04-13
_audit_creation_method CSD-ConQuest-V1
_database_code_CSD PHNAPH01
_database_code_depnum_ccdc_archive 'CCDC 1448430'
_chemical_formula_sum 'C30 H16'
_chemical_formula_moiety
;
C30 H16
;
_journal_coden_Cambridge 179
_journal_volume 55
_journal_year 2016
_journal_page_first 6041
_journal_name_full 'Angew.Chem.,Int.Ed. '
loop_
_publ_author_name
"T.Wombacher"
"A.Gassmann"
"S.Foro"
"H.von Seggern"
"J.J.Schneider"
_chemical_name_systematic
;
Di-indeno[1,2,3-fg:1',2',3'-op]tetracene
;
_cell_volume    901.170
_exptl_crystal_colour 'black'
_exptl_crystal_density_diffrn 1.387
_exptl_special_details
;
P21/n polymorph

;
_exptl_crystal_description 'rod'
_diffrn_ambient_temperature 293
#These two values have been output from a single CSD field.
_refine_ls_R_factor_gt 0.0621
_refine_ls_wR_factor_gt 0.0621
_symmetry_cell_setting monoclinic
_symmetry_space_group_name_H-M 'P 21/n'
_symmetry_Int_Tables_number 14
loop_
_symmetry_equiv_pos_site_id
_symmetry_equiv_pos_as_xyz
1 x,y,z
2 1/2-x,1/2+y,1/2-z
3 -x,-y,-z
4 -1/2+x,-1/2-y,-1/2+z
_cell_length_a 10.910(1)
_cell_length_b 5.1627(5)
_cell_length_c 16.006(2)
_cell_angle_alpha 90
_cell_angle_beta 91.64(1)
_cell_angle_gamma 90
_cell_formula_units_Z 2
loop_
_atom_type_symbol
_atom_type_radius_bond
C 0.68
H 0.23
loop_
_atom_site_label
_atom_site_type_symbol
_atom_site_fract_x
_atom_site_fract_y
_atom_site_fract_z
C1 C 0.5516(3) 0.5286(6) -0.02112(18)
C2 C 0.4468(3) 0.2726(6) 0.08161(18)
C3 C 0.5560(3) 0.1374(6) 0.09844(18)
C4 C 0.5651(3) -0.0638(6) 0.16014(19)
H1 H 0.49620 -0.10640 0.19020
C5 C 0.6709(3) -0.1929(7) 0.1758(2)
H2 H 0.67400 -0.32020 0.21690
C6 C 0.7765(3) -0.1370(7) 0.1306(2)
H3 H 0.84850 -0.22870 0.14170
C7 C 0.7739(3) 0.0490(6) 0.07128(19)
H4 H 0.84440 0.08140 0.04170
C8 C 0.6666(3) 0.1970(6) 0.05261(18)
C9 C 0.6624(3) 0.3973(6) -0.00803(18)
C10 C 0.7479(3) 0.5268(6) -0.06468(18)
C11 C 0.8717(3) 0.4956(6) -0.07778(19)
H5 H 0.91540 0.36440 -0.05050
C12 C 0.9304(3) 0.6616(7) -0.1320(2)
H6 H 1.01380 0.64030 -0.14050
C13 C 0.8679(3) 0.8567(7) -0.1732(2)
H7 H 0.90950 0.96770 -0.20830
C14 C 0.7435(3) 0.8889(6) -0.16282(19)
H8 H 0.70130 1.01830 -0.19200
C15 C 0.6814(3) 0.7279(6) -0.10868(18)
C1B C 0.4484(3) 0.4714(6) 0.02112(18)
C2B C 0.5532(3) 0.7274(6) -0.08161(18)
C3B C 0.4440(3) 0.8626(6) -0.09844(18)
C4B C 0.4349(3) 1.0638(6) -0.16014(19)
H1B H 0.50380 1.10640 -0.19020
C5B C 0.3291(3) 1.1929(7) -0.1758(2)
H2B H 0.32600 1.32020 -0.21690
C6B C 0.2235(3) 1.1370(7) -0.1306(2)
H3B H 0.15150 1.22870 -0.14170
C7B C 0.2261(3) 0.9510(6) -0.07128(19)
H4B H 0.15560 0.91860 -0.04170
C8B C 0.3334(3) 0.8030(6) -0.05261(18)
C9B C 0.3376(3) 0.6027(6) 0.00803(18)
C10B C 0.2521(3) 0.4732(6) 0.06468(18)
C11B C 0.1283(3) 0.5044(6) 0.07778(19)
H5B H 0.08460 0.63560 0.05050
C12B C 0.0696(3) 0.3384(7) 0.1320(2)
H6B H -0.01380 0.35970 0.14050
C13B C 0.1321(3) 0.1433(7) 0.1732(2)
H7B H 0.09050 0.03230 0.20830
C14B C 0.2565(3) 0.1111(6) 0.16282(19)
H8B H 0.29870 -0.01830 0.19200
C15B C 0.3186(3) 0.2721(6) 0.10868(18)
loop_
_geom_bond_atom_site_label_1
_geom_bond_atom_site_label_2
_geom_bond_distance
_geom_bond_site_symmetry_1
_geom_bond_site_symmetry_2
C1 C9 1.396 1_555 1_555
C2 C3 1.400 1_555 1_555
C3 C4 1.435 1_555 1_555
C4 H1 0.930 1_555 1_555
C5 C4 1.350 1_555 1_555
H2 C5 0.930 1_555 1_555
C6 C5 1.408 1_555 1_555
H3 C6 0.930 1_555 1_555
C7 C6 1.350 1_555 1_555
H4 C7 0.930 1_555 1_555
C8 C3 1.463 1_555 1_555
C9 C8 1.418 1_555 1_555
C10 C9 1.479 1_555 1_555
C11 C10 1.382 1_555 1_555
H5 C11 0.930 1_555 1_555
C12 C11 1.389 1_555 1_555
H6 C12 0.930 1_555 1_555
C13 C12 1.374 1_555 1_555
H7 C13 0.930 1_555 1_555
C14 C13 1.382 1_555 1_555
H8 C14 0.930 1_555 1_555
C15 C10 1.439 1_555 1_555
C1B C1 1.362 1_555 1_555
C2B C1 1.411 1_555 1_555
C3B C2B 1.400 1_555 1_555
C4B C3B 1.435 1_555 1_555
H1B C4B 0.930 1_555 1_555
C5B C4B 1.350 1_555 1_555
H2B C5B 0.930 1_555 1_555
C6B C5B 1.408 1_555 1_555
H3B C6B 0.930 1_555 1_555
C7B C6B 1.350 1_555 1_555
H4B C7B 0.930 1_555 1_555
C8B C3B 1.463 1_555 1_555
C9B C1B 1.396 1_555 1_555
C10B C9B 1.479 1_555 1_555
C11B C10B 1.382 1_555 1_555
H5B C11B 0.930 1_555 1_555
C12B C11B 1.389 1_555 1_555
H6B C12B 0.930 1_555 1_555
C13B C12B 1.374 1_555 1_555
H7B C13B 0.930 1_555 1_555
C14B C13B 1.382 1_555 1_555
H8B C14B 0.930 1_555 1_555
C15B C2 1.476 1_555 1_555
C2 C1B 1.411 1_555 1_555
C7 C8 1.422 1_555 1_555
C14 C15 1.391 1_555 1_555
C15 C2B 1.476 1_555 1_555
C7B C8B 1.422 1_555 1_555
C8B C9B 1.418 1_555 1_555
C10B C15B 1.439 1_555 1_555
C14B C15B 1.391 1_555 1_555
#END
