
#######################################################################
#
#                 Cambridge Crystallographic Data Centre
#                                CCDC
#
#######################################################################
#
# If this CIF has been generated from an entry in the Cambridge
# Structural Database, then it will include bibliographic, chemical,
# crystal, experimental, refinement or atomic coordinate data resulting
# from the CCDC's data processing and validation procedures.
#
#######################################################################

data_CSD_CIF_PHTCHP
_audit_creation_date 1977-12-13
_audit_creation_method CSD-ConQuest-V1
_database_code_CSD PHTCHP
_chemical_formula_sum 'C18 H12'
_chemical_formula_moiety
;
C18 H12
;
_journal_coeditor_code "IUCr A14878"
_journal_coden_Cambridge 107
_journal_volume 33
_journal_year 1977
_journal_page_first 2344
_journal_name_full 'Acta Crystallogr.,Sect.B:Struct.Crystallogr.Cryst.Chem. '
loop_
_publ_author_name
"A.C.Hazell"
"R.M.Pagni"
"M.Burnett"
_chemical_name_systematic
;
1,10-Phenanthrotricyclo(4.1.1.0^2,7^)heptene
;
_cell_volume   2401.290
_exptl_crystal_density_diffrn 1.26
_diffrn_ambient_temperature ?
_diffrn_special_details
;
The study was carried out at room temperature,in the range 283-303K

;
#These two values have been output from a single CSD field.
_refine_ls_R_factor_gt 0.067
_refine_ls_wR_factor_gt 0.067
_symmetry_cell_setting orthorhombic
_symmetry_space_group_name_H-M 'I b a 2'
_symmetry_Int_Tables_number 45
loop_
_symmetry_equiv_pos_site_id
_symmetry_equiv_pos_as_xyz
1 x,y,z
2 1/2+x,1/2+y,1/2+z
3 1/2-x,1/2+y,z
4 -x,y,1/2+z
5 1/2+x,1/2-y,z
6 x,-y,1/2+z
7 -x,-y,z
8 1/2-x,1/2-y,1/2+z
_cell_length_a 16.34(1)
_cell_length_b 18.64(1)
_cell_length_c 7.884(5)
_cell_angle_alpha 90
_cell_angle_beta 90
_cell_angle_gamma 90
_cell_formula_units_Z 8
loop_
_atom_type_symbol
_atom_type_radius_bond
C 0.68
loop_
_atom_site_label
_atom_site_type_symbol
_atom_site_fract_x
_atom_site_fract_y
_atom_site_fract_z
C1 C 0.13100 0.18800 0.00000
C2 C 0.17900 0.18800 0.14600
C3 C 0.22600 0.12600 0.18000
C4 C 0.22400 0.06700 0.07400
C5 C 0.17400 0.07000 -0.07400
C6 C 0.12900 0.12900 -0.11100
C7 C 0.07400 0.13300 -0.26100
C8 C 0.06800 0.20300 -0.34800
C9 C -0.00200 0.17700 -0.24800
C10 C 0.03700 0.24800 -0.20700
C11 C 0.08300 0.25100 -0.04400
C12 C 0.08600 0.31000 0.05400
C13 C 0.13300 0.31100 0.20500
C14 C 0.18100 0.25200 0.25400
C15 C 0.22400 0.25600 0.40500
C16 C 0.22600 0.31500 0.50300
C17 C 0.17900 0.37500 0.45500
C18 C 0.13200 0.37200 0.31200
loop_
_geom_bond_atom_site_label_1
_geom_bond_atom_site_label_2
_geom_bond_distance
_geom_bond_site_symmetry_1
_geom_bond_site_symmetry_2
C1 C2 1.393 1_555 1_555
C2 C3 1.413 1_555 1_555
C3 C4 1.382 1_555 1_555
C4 C5 1.426 1_555 1_555
C5 C6 1.355 1_555 1_555
C6 C1 1.406 1_555 1_555
C7 C6 1.487 1_555 1_555
C8 C7 1.477 1_555 1_555
C9 C7 1.492 1_555 1_555
C10 C8 1.482 1_555 1_555
C11 C1 1.454 1_555 1_555
C12 C11 1.345 1_555 1_555
C13 C12 1.417 1_555 1_555
C14 C2 1.466 1_555 1_555
C15 C14 1.384 1_555 1_555
C16 C15 1.344 1_555 1_555
C17 C16 1.408 1_555 1_555
C18 C13 1.416 1_555 1_555
C8 C9 1.471 1_555 1_555
C9 C10 1.504 1_555 1_555
C10 C11 1.490 1_555 1_555
C13 C14 1.405 1_555 1_555
C17 C18 1.365 1_555 1_555
#END
