
#######################################################################
#
#                 Cambridge Crystallographic Data Centre
#                                CCDC
#
#######################################################################
#
# If this CIF has been generated from an entry in the Cambridge
# Structural Database, then it will include bibliographic, chemical,
# crystal, experimental, refinement or atomic coordinate data resulting
# from the CCDC's data processing and validation procedures.
#
#######################################################################

data_CSD_CIF_PHTPIC
_audit_creation_date 1980-10-28
_audit_creation_method CSD-ConQuest-V1
_database_code_CSD PHTPIC
_database_code_depnum_ccdc_archive 'CCDC 1232711'
_chemical_formula_sum 'C46 H26'
_chemical_formula_moiety
;
C46 H26
;
_journal_coden_Cambridge 54
_journal_volume 88
_journal_year 1979
_journal_page_first 847
_journal_name_full 'Bull.Soc.Chim.Belg. '
loop_
_publ_author_name
"W.Marsh"
"J.D.Dunitz"
_chemical_name_systematic
;
Diphenanthro(4,3-a;3',4'-o)picene
;
_cell_volume   2918.019
_exptl_crystal_density_diffrn 1.308
_diffrn_ambient_temperature ?
_diffrn_special_details
;
The study was carried out at room temperature,in the range 283-303K

;
#These two values have been output from a single CSD field.
_refine_ls_R_factor_gt 0.058
_refine_ls_wR_factor_gt 0.058
_symmetry_cell_setting monoclinic
_symmetry_space_group_name_H-M 'P 21/c'
_symmetry_Int_Tables_number 14
loop_
_symmetry_equiv_pos_site_id
_symmetry_equiv_pos_as_xyz
1 x,y,z
2 -x,1/2+y,1/2-z
3 -x,-y,-z
4 x,-1/2-y,-1/2+z
_cell_length_a 9.605
_cell_length_b 15.444
_cell_length_c 19.846
_cell_angle_alpha 90
_cell_angle_beta 97.61
_cell_angle_gamma 90
_cell_formula_units_Z 4
loop_
_atom_type_symbol
_atom_type_radius_bond
C 0.68
H 0.23
loop_
_atom_site_label
_atom_site_type_symbol
_atom_site_fract_x
_atom_site_fract_y
_atom_site_fract_z
C1 C 0.44170 0.15840 -0.13380
C2 C 0.51890 0.22180 -0.15680
C3 C 0.66220 0.23270 -0.13230
C4 C 0.74670 0.29310 -0.16340
C5 C 0.88530 0.29580 -0.14610
C6 C 0.95190 0.24530 -0.09230
C7 C 1.10120 0.24320 -0.07910
C8 C 1.16530 0.19090 -0.03240
C9 C 1.09340 0.14190 0.01150
C10 C 1.15980 0.08120 0.05710
C11 C 1.08970 0.03410 0.09770
C12 C 0.94750 0.05540 0.10510
C13 C 0.87810 0.01620 0.15510
C14 C 0.75290 0.04110 0.17140
C15 C 0.68520 0.11690 0.13750
C16 C 0.55660 0.15020 0.15710
C17 C 0.47610 0.10240 0.19920
C18 C 0.34970 0.12940 0.21050
C19 C 0.29150 0.20940 0.18530
C20 C 0.14860 0.23050 0.18890
C21 C 0.08590 0.29780 0.15610
C22 C 0.17040 0.36060 0.12610
C23 C 0.10470 0.43120 0.09050
C24 C 0.17950 0.49390 0.06480
C25 C 0.32910 0.49530 0.08070
C26 C 0.40740 0.56500 0.05840
C27 C 0.54600 0.57080 0.07370
C28 C 0.62040 0.51040 0.12000
C29 C 0.76520 0.52010 0.14210
C30 C 0.83140 0.47010 0.19240
C31 C 0.75600 0.40850 0.22340
C32 C 0.61650 0.39480 0.20090
C33 C 0.54460 0.44230 0.14650
C34 C 0.39830 0.42800 0.11940
C35 C 0.31860 0.35160 0.13270
C36 C 0.37490 0.26570 0.15100
C37 C 0.50260 0.23060 0.13120
C38 C 0.57520 0.27110 0.08220
C39 C 0.69300 0.23720 0.06180
C40 C 0.75150 0.15710 0.08750
C41 C 0.87730 0.12120 0.06430
C42 C 0.94250 0.15310 0.00720
C43 C 0.87240 0.19350 -0.05260
C44 C 0.72490 0.17910 -0.07920
C45 C 0.64310 0.11220 -0.05750
C46 C 0.50500 0.10120 -0.08490
H1 H 0.34100 0.14700 -0.15300
H2 H 0.48100 0.26100 -0.19000
H3 H 0.69300 0.33100 -0.19900
H4 H 0.95100 0.33800 -0.17100
H5 H 1.15800 0.28100 -0.10900
H6 H 1.27800 0.18400 -0.02100
H7 H 1.27900 0.07700 0.05700
H8 H 1.13200 -0.01400 0.13000
H9 H 0.93400 -0.03300 0.17800
H10 H 0.69400 0.01600 0.20300
H11 H 0.52800 0.04200 0.21900
H12 H 0.29600 0.09400 0.23600
H13 H 0.09900 0.18600 0.21500
H14 H -0.01500 0.31400 0.15200
H15 H -0.00200 0.43600 0.08600
H16 H 0.13900 0.54600 0.03900
H17 H 0.35000 0.60800 0.03000
H18 H 0.61100 0.61800 0.05000
H19 H 0.81800 0.56600 0.12000
H20 H 0.93700 0.47700 0.20700
H21 H 0.80100 0.37700 0.26400
H22 H 0.56100 0.35000 0.22400
H23 H 0.54100 0.32700 0.06100
H24 H 0.73700 0.26800 0.02000
H25 H 0.68300 0.06800 -0.02300
H26 H 0.45100 0.04900 -0.07000
loop_
_geom_bond_atom_site_label_1
_geom_bond_atom_site_label_2
_geom_bond_distance
_geom_bond_site_symmetry_1
_geom_bond_site_symmetry_2
C1 C2 1.344 1_555 1_555
C2 C3 1.408 1_555 1_555
C3 C4 1.429 1_555 1_555
C4 C5 1.331 1_555 1_555
C5 C6 1.406 1_555 1_555
C6 C7 1.424 1_555 1_555
C7 C8 1.319 1_555 1_555
C8 C9 1.403 1_555 1_555
C9 C10 1.397 1_555 1_555
C10 C11 1.332 1_555 1_555
C11 C12 1.431 1_555 1_555
C12 C13 1.404 1_555 1_555
C13 C14 1.342 1_555 1_555
C14 C15 1.459 1_555 1_555
C15 C16 1.438 1_555 1_555
C16 C17 1.418 1_555 1_555
C17 C18 1.331 1_555 1_555
C18 C19 1.420 1_555 1_555
C19 C20 1.422 1_555 1_555
C20 C21 1.328 1_555 1_555
C21 C22 1.443 1_555 1_555
C22 C23 1.403 1_555 1_555
C23 C24 1.346 1_555 1_555
C24 C25 1.430 1_555 1_555
C25 C26 1.417 1_555 1_555
C26 C27 1.329 1_555 1_555
C27 C28 1.432 1_555 1_555
C28 C29 1.410 1_555 1_555
C29 C30 1.352 1_555 1_555
C30 C31 1.388 1_555 1_555
C31 C32 1.372 1_555 1_555
C32 C33 1.408 1_555 1_555
C33 C28 1.419 1_555 1_555
C34 C25 1.406 1_555 1_555
C35 C22 1.419 1_555 1_555
C36 C19 1.416 1_555 1_555
C37 C16 1.416 1_555 1_555
C38 C37 1.415 1_555 1_555
C39 C38 1.356 1_555 1_555
C40 C15 1.394 1_555 1_555
C41 C12 1.414 1_555 1_555
C42 C9 1.451 1_555 1_555
C43 C6 1.415 1_555 1_555
C44 C3 1.411 1_555 1_555
C45 C44 1.400 1_555 1_555
C46 C1 1.391 1_555 1_555
H1 C1 1.007 1_555 1_555
H2 C2 0.933 1_555 1_555
H3 C4 1.006 1_555 1_555
H4 C5 1.072 1_555 1_555
H5 C7 1.037 1_555 1_555
H6 C8 1.081 1_555 1_555
H7 C10 1.147 1_555 1_555
H8 C11 1.029 1_555 1_555
H9 C13 1.004 1_555 1_555
H10 C14 0.979 1_555 1_555
H11 C17 1.105 1_555 1_555
H12 C18 0.943 1_555 1_555
H13 C20 1.016 1_555 1_555
H14 C21 0.994 1_555 1_555
H15 C23 1.020 1_555 1_555
H16 C24 1.004 1_555 1_555
H17 C26 0.990 1_555 1_555
H18 C27 1.105 1_555 1_555
H19 C29 1.005 1_555 1_555
H20 C30 1.023 1_555 1_555
H21 C31 0.990 1_555 1_555
H22 C32 1.019 1_555 1_555
H23 C38 0.997 1_555 1_555
H24 C39 1.089 1_555 1_555
H25 C45 1.006 1_555 1_555
H26 C46 1.023 1_555 1_555
C33 C34 1.453 1_555 1_555
C34 C35 1.450 1_555 1_555
C35 C36 1.460 1_555 1_555
C36 C37 1.442 1_555 1_555
C39 C40 1.425 1_555 1_555
C40 C41 1.458 1_555 1_555
C41 C42 1.452 1_555 1_555
C42 C43 1.428 1_555 1_555
C43 C44 1.462 1_555 1_555
C45 C46 1.376 1_555 1_555
#END
