
#######################################################################
#
#                 Cambridge Crystallographic Data Centre
#                                CCDC
#
#######################################################################
#
# If this CIF has been generated from an entry in the Cambridge
# Structural Database, then it will include bibliographic, chemical,
# crystal, experimental, refinement or atomic coordinate data resulting
# from the CCDC's data processing and validation procedures.
#
#######################################################################

data_CSD_CIF_PIBWED
_audit_creation_date 2007-07-19
_audit_creation_method CSD-ConQuest-V1
_database_code_CSD PIBWED
_database_code_depnum_ccdc_archive 'CCDC 646219'
_chemical_formula_sum 'C52 H44'
_chemical_formula_moiety
;
C52 H44
;
_journal_coden_Cambridge 1336
_journal_volume 9
_journal_year 2007
_journal_page_first 1025
_journal_name_full 'Org.Lett. '
loop_
_publ_author_name
"Yanzhong Zhang"
"J.L.Petersen"
"Kung K.Wang"
_chemical_name_systematic
;
6,11-di-t-butyl-17,18-diphenyl-5,12-dihydrofluoreno[3,2-g]indeno[2,1-b]phenant
hrene
;
_cell_volume   1878.122
_exptl_crystal_density_diffrn 1.183
_exptl_crystal_preparation 'dichloromethane/hexane'
_diffrn_ambient_temperature 295
#These two values have been output from a single CSD field.
_refine_ls_R_factor_gt 0.0648
_refine_ls_wR_factor_gt 0.0648
_symmetry_cell_setting triclinic
_symmetry_space_group_name_H-M 'P -1'
_symmetry_Int_Tables_number 2
loop_
_symmetry_equiv_pos_site_id
_symmetry_equiv_pos_as_xyz
1 x,y,z
2 -x,-y,-z
_cell_length_a 9.4794(6)
_cell_length_b 12.9657(9)
_cell_length_c 16.3977(11)
_cell_angle_alpha 96.245(1)
_cell_angle_beta 103.061(1)
_cell_angle_gamma 103.806(1)
_cell_formula_units_Z 2
loop_
_atom_type_symbol
_atom_type_radius_bond
C 0.68
H 0.23
loop_
_atom_site_label
_atom_site_type_symbol
_atom_site_fract_x
_atom_site_fract_y
_atom_site_fract_z
C1 C 0.7115(2) 0.95288(17) 0.22966(13)
C2 C 0.7365(2) 1.04353(18) 0.18865(15)
H1 H 0.65980 1.07660 0.17350
C3 C 0.8697(2) 1.08298(18) 0.17108(15)
H2 H 0.88830 1.14920 0.15280
C4 C 0.9829(2) 1.02628(17) 0.17965(13)
C5 C 1.1194(2) 1.06121(18) 0.15343(13)
C6 C 1.18213(19) 0.97991(18) 0.13042(12)
C7 C 1.3032(2) 0.9835(2) 0.08266(15)
H3 H 1.27950 1.01390 0.03140
H4 H 1.40080 1.02590 0.11810
C8 C 1.3014(2) 0.8692(2) 0.06180(14)
C9 C 1.3892(3) 0.8275(3) 0.01731(18)
H5 H 1.46050 0.87320 -0.00260
C10 C 1.3702(3) 0.7190(3) 0.0031(2)
H6 H 1.42980 0.69070 -0.02610
C11 C 1.2630(3) 0.6508(3) 0.03163(19)
H7 H 1.24950 0.57670 0.02050
C12 C 1.1751(3) 0.6918(2) 0.07682(16)
H8 H 1.10300 0.64540 0.09570
C13 C 1.1957(2) 0.8021(2) 0.09352(13)
C14 C 1.1227(2) 0.87105(18) 0.13832(12)
C15 C 1.01168(19) 0.84294(17) 0.18075(12)
C16 C 0.94663(18) 0.92488(16) 0.20617(12)
C17 C 0.82693(19) 0.90297(15) 0.24904(12)
C18 C 0.82145(19) 0.83153(15) 0.31062(12)
C19 C 0.95404(18) 0.82946(16) 0.37154(12)
C20 C 0.9384(2) 0.75700(17) 0.42657(13)
C21 C 1.0463(2) 0.74631(18) 0.50334(13)
C22 C 1.1902(2) 0.8092(2) 0.54855(14)
H9 H 1.23680 0.86980 0.52930
C23 C 1.2623(3) 0.7804(3) 0.62216(17)
H10 H 1.35800 0.82220 0.65230
C24 C 1.1952(3) 0.6917(3) 0.6513(2)
H11 H 1.24630 0.67310 0.70050
C25 C 1.0529(3) 0.6295(3) 0.60853(19)
H12 H 1.00750 0.56910 0.62850
C26 C 0.9781(3) 0.6581(2) 0.53528(15)
C27 C 0.8215(3) 0.6061(2) 0.48223(16)
H13 H 0.74960 0.60350 0.51620
H14 H 0.81180 0.53340 0.45530
C28 C 0.7982(2) 0.67838(16) 0.41658(13)
C29 C 0.6657(2) 0.68417(16) 0.36253(13)
C30 C 0.67854(19) 0.77386(16) 0.31800(12)
C31 C 0.5570(2) 0.81936(18) 0.28680(14)
H15 H 0.46120 0.78530 0.29080
C32 C 0.5761(2) 0.90924(18) 0.25201(14)
H16 H 0.49940 0.94330 0.24240
C33 C 1.1869(2) 1.18148(19) 0.15227(16)
C34 C 1.1664(3) 1.2535(2) 0.2273(2)
H17 H 1.21680 1.23660 0.27980
H18 H 1.06110 1.24100 0.22400
H19 H 1.20860 1.32790 0.22500
C35 C 1.1177(4) 1.2113(3) 0.0673(2)
H20 H 1.16180 1.28620 0.06740
H21 H 1.01110 1.19850 0.05930
H22 H 1.13680 1.16810 0.02180
C36 C 1.3582(3) 1.2111(2) 0.1660(2)
H23 H 1.38160 1.18190 0.11590
H24 H 1.40260 1.18180 0.21350
H25 H 1.39750 1.28810 0.17710
C37 C 0.9403(2) 0.72763(18) 0.18259(13)
C38 C 0.7923(3) 0.6809(2) 0.13509(17)
H26 H 0.73890 0.72250 0.10510
C39 C 0.7245(4) 0.5734(3) 0.1323(2)
H27 H 0.62580 0.54300 0.10000
C40 C 0.8008(6) 0.5113(3) 0.1764(3)
H28 H 0.75440 0.43890 0.17420
C41 C 0.9455(5) 0.5560(3) 0.2236(2)
H29 H 0.99750 0.51400 0.25410
C42 C 1.0151(3) 0.6631(2) 0.22636(16)
H30 H 1.11420 0.69230 0.25830
C43 C 1.09550(19) 0.91786(17) 0.38569(12)
C44 C 1.0940(2) 1.02303(18) 0.41110(14)
H31 H 1.00410 1.03720 0.41570
C45 C 1.2224(2) 1.1065(2) 0.42956(17)
H32 H 1.21900 1.17640 0.44670
C46 C 1.3555(2) 1.0873(2) 0.42287(17)
H33 H 1.44250 1.14410 0.43540
C47 C 1.3602(2) 0.9846(2) 0.39777(16)
H34 H 1.45060 0.97150 0.39310
C48 C 1.2321(2) 0.90057(19) 0.37940(14)
H35 H 1.23670 0.83090 0.36250
C49 C 0.5110(2) 0.60220(18) 0.35039(15)
C50 C 0.5227(3) 0.4917(2) 0.3704(2)
H36 H 0.58900 0.46730 0.34130
H37 H 0.42470 0.44120 0.35210
H38 H 0.56160 0.49700 0.43060
C51 C 0.4244(3) 0.6458(2) 0.40963(18)
H39 H 0.32760 0.59560 0.40090
H40 H 0.41150 0.71400 0.39690
H41 H 0.48050 0.65470 0.46780
C52 C 0.4180(3) 0.5783(2) 0.25642(18)
H42 H 0.47100 0.54760 0.22120
H43 H 0.40310 0.64410 0.23900
H44 H 0.32210 0.52840 0.25070
loop_
_geom_bond_atom_site_label_1
_geom_bond_atom_site_label_2
_geom_bond_distance
_geom_bond_site_symmetry_1
_geom_bond_site_symmetry_2
C1 C2 1.415 1_555 1_555
C2 H1 0.930 1_555 1_555
C3 C2 1.352 1_555 1_555
H2 C3 0.930 1_555 1_555
C4 C3 1.429 1_555 1_555
C5 C4 1.442 1_555 1_555
C6 C5 1.386 1_555 1_555
C7 C6 1.524 1_555 1_555
H3 C7 0.970 1_555 1_555
H4 C7 0.970 1_555 1_555
C8 C7 1.479 1_555 1_555
C9 C8 1.386 1_555 1_555
H5 C9 0.930 1_555 1_555
C10 C9 1.362 1_555 1_555
H6 C10 0.931 1_555 1_555
C11 C10 1.382 1_555 1_555
H7 C11 0.930 1_555 1_555
C12 C11 1.390 1_555 1_555
H8 C12 0.930 1_555 1_555
C13 C8 1.396 1_555 1_555
C14 C6 1.421 1_555 1_555
C15 C14 1.388 1_555 1_555
C16 C4 1.418 1_555 1_555
C17 C1 1.394 1_555 1_555
C18 C17 1.444 1_555 1_555
C19 C18 1.426 1_555 1_555
C20 C19 1.377 1_555 1_555
C21 C20 1.474 1_555 1_555
C22 C21 1.398 1_555 1_555
H9 C22 0.929 1_555 1_555
C23 C22 1.382 1_555 1_555
H10 C23 0.930 1_555 1_555
C24 C23 1.365 1_555 1_555
H11 C24 0.930 1_555 1_555
C25 C24 1.375 1_555 1_555
H12 C25 0.930 1_555 1_555
C26 C21 1.390 1_555 1_555
C27 C26 1.492 1_555 1_555
H13 C27 0.970 1_555 1_555
H14 C27 0.970 1_555 1_555
C28 C20 1.432 1_555 1_555
C29 C28 1.387 1_555 1_555
C30 C18 1.421 1_555 1_555
C31 C30 1.436 1_555 1_555
H15 C31 0.931 1_555 1_555
C32 C1 1.419 1_555 1_555
H16 C32 0.930 1_555 1_555
C33 C5 1.542 1_555 1_555
C34 C33 1.539 1_555 1_555
H17 C34 0.960 1_555 1_555
H18 C34 0.960 1_555 1_555
H19 C34 0.960 1_555 1_555
C35 C33 1.532 1_555 1_555
H20 C35 0.961 1_555 1_555
H21 C35 0.960 1_555 1_555
H22 C35 0.960 1_555 1_555
C36 C33 1.534 1_555 1_555
H23 C36 0.960 1_555 1_555
H24 C36 0.960 1_555 1_555
H25 C36 0.960 1_555 1_555
C37 C15 1.493 1_555 1_555
C38 C37 1.393 1_555 1_555
H26 C38 0.930 1_555 1_555
C39 C38 1.380 1_555 1_555
H27 C39 0.931 1_555 1_555
C40 C39 1.365 1_555 1_555
H28 C40 0.930 1_555 1_555
C41 C40 1.364 1_555 1_555
H29 C41 0.930 1_555 1_555
C42 C37 1.379 1_555 1_555
H30 C42 0.930 1_555 1_555
C43 C19 1.495 1_555 1_555
C44 C43 1.386 1_555 1_555
H31 C44 0.931 1_555 1_555
C45 C44 1.370 1_555 1_555
H32 C45 0.930 1_555 1_555
C46 C45 1.368 1_555 1_555
H33 C46 0.930 1_555 1_555
C47 C46 1.364 1_555 1_555
H34 C47 0.930 1_555 1_555
C48 C43 1.390 1_555 1_555
H35 C48 0.930 1_555 1_555
C49 C29 1.549 1_555 1_555
C50 C49 1.528 1_555 1_555
H36 C50 0.959 1_555 1_555
H37 C50 0.961 1_555 1_555
H38 C50 0.961 1_555 1_555
C51 C49 1.549 1_555 1_555
H39 C51 0.960 1_555 1_555
H40 C51 0.960 1_555 1_555
H41 C51 0.961 1_555 1_555
C52 C49 1.549 1_555 1_555
H42 C52 0.960 1_555 1_555
H43 C52 0.960 1_555 1_555
H44 C52 0.960 1_555 1_555
C12 C13 1.384 1_555 1_555
C13 C14 1.483 1_555 1_555
C15 C16 1.420 1_555 1_555
C16 C17 1.453 1_555 1_555
C25 C26 1.386 1_555 1_555
C27 C28 1.515 1_555 1_555
C29 C30 1.434 1_555 1_555
C31 C32 1.344 1_555 1_555
C41 C42 1.379 1_555 1_555
C47 C48 1.373 1_555 1_555
#END
