
#######################################################################
#
#                 Cambridge Crystallographic Data Centre
#                                CCDC
#
#######################################################################
#
# If this CIF has been generated from an entry in the Cambridge
# Structural Database, then it will include bibliographic, chemical,
# crystal, experimental, refinement or atomic coordinate data resulting
# from the CCDC's data processing and validation procedures.
#
#######################################################################

data_CSD_CIF_PICWIH
_audit_creation_date 1994-07-25
_audit_creation_method CSD-ConQuest-V1
_database_code_CSD PICWIH
_chemical_formula_sum 'C30 H26'
_chemical_formula_moiety
;
C30 H26
;
_journal_coden_Cambridge 24
_journal_volume 34
_journal_year 1993
_journal_page_first 7929
_journal_name_full 'Tetrahedron Lett. '
loop_
_publ_author_name
"K.Kobayashi"
"K.Endo"
"Y.Aoyama"
"H.Masuda"
_chemical_name_systematic
;
9,10-bis(3,5-Dimethylphenyl)anthracene
;
_cell_volume   1127.376
_diffrn_ambient_temperature ?
_diffrn_special_details
;
The study was carried out at room temperature,in the range 283-303K

;
#These two values have been output from a single CSD field.
_refine_ls_R_factor_gt 0.049
_refine_ls_wR_factor_gt 0.049
_symmetry_cell_setting monoclinic
_symmetry_space_group_name_H-M 'P 21/n'
_symmetry_Int_Tables_number 14
loop_
_symmetry_equiv_pos_site_id
_symmetry_equiv_pos_as_xyz
1 x,y,z
2 1/2-x,1/2+y,1/2-z
3 -x,-y,-z
4 -1/2+x,-1/2-y,-1/2+z
_cell_length_a 9.184(5)
_cell_length_b 8.159(2)
_cell_length_c 15.284(8)
_cell_angle_alpha 90
_cell_angle_beta 100.14(2)
_cell_angle_gamma 90
_cell_formula_units_Z 2
loop_
_atom_type_symbol
_atom_type_radius_bond
C 0.68
H 0.23
loop_
_atom_site_label
_atom_site_type_symbol
_atom_site_fract_x
_atom_site_fract_y
_atom_site_fract_z
C1 C 0.8899(1) -0.1036(2) -0.04808(8)
C2 C 0.8548(1) -0.0014(2) 0.01881(8)
C3 C 0.7107(1) -0.0005(2) 0.04221(9)
C4 C 0.6781(2) 0.0985(2) 0.1066(1)
C5 C 0.7855(2) 0.2070(2) 0.15228(9)
C6 C 0.9240(2) 0.2093(2) 0.13324(9)
C7 C 1.0347(1) -0.1050(2) -0.06684(8)
C8 C 0.7730(1) -0.2083(2) -0.10172(8)
C9 C 0.7375(2) -0.3615(2) -0.0723(1)
C10 C 0.6283(2) -0.4568(2) -0.1228(1)
C11 C 0.5936(3) -0.6256(3) -0.0910(2)
C12 C 0.5561(2) -0.3962(2) -0.2031(1)
C13 C 0.5901(2) -0.2445(2) -0.23489(9)
C14 C 0.5087(2) -0.1817(3) -0.3222(1)
C15 C 0.6995(2) -0.1512(2) -0.18291(9)
H1 H 0.640(2) -0.077(2) 0.0119(9)
H2 H 0.578(2) 0.093(2) 0.122(1)
H3 H 0.753(2) 0.281(2) 0.1945(9)
H4 H 1.000(2) 0.277(2) 0.1632(9)
H5 H 0.491(3) -0.625(3) -0.090(2)
H6 H 0.653(3) -0.655(4) -0.035(2)
H7 H 0.607(3) -0.707(4) -0.134(2)
H8 H 0.481(2) -0.460(2) -0.2382(9)
H9 H 0.577(3) -0.143(3) -0.357(2)
H10 H 0.452(3) -0.089(3) -0.309(2)
H11 H 0.441(3) -0.263(3) -0.351(1)
H12 H 0.726(2) -0.047(2) -0.2046(9)
C7B C 0.9653(1) 0.1050(2) 0.06684(8)
C2B C 1.1452(1) 0.0014(2) -0.01881(8)
C6B C 1.0760(2) -0.2093(2) -0.13324(9)
C1B C 1.1101(1) 0.1036(2) 0.04808(8)
C3B C 1.2893(1) 0.0005(2) -0.04221(9)
C5B C 1.2145(2) -0.2070(2) -0.15228(9)
H4B H 1.000(2) -0.277(2) -0.1632(9)
C8B C 1.2270(1) 0.2083(2) 0.10172(8)
C4B C 1.3219(2) -0.0985(2) -0.1066(1)
H1B H 1.360(2) 0.077(2) -0.0119(9)
H3B H 1.247(2) -0.281(2) -0.1945(9)
C9B C 1.2625(2) 0.3615(2) 0.0723(1)
C15B C 1.3005(2) 0.1512(2) 0.18291(9)
H2B H 1.422(2) -0.093(2) -0.122(1)
C10B C 1.3717(2) 0.4568(2) 0.1228(1)
C13B C 1.4099(2) 0.2445(2) 0.23489(9)
H12B H 1.274(2) 0.047(2) 0.2046(9)
C11B C 1.4064(3) 0.6256(3) 0.0910(2)
C12B C 1.4439(2) 0.3962(2) 0.2031(1)
C14B C 1.4913(2) 0.1817(3) 0.3222(1)
H5B H 1.509(3) 0.625(3) 0.090(2)
H6B H 1.347(3) 0.655(4) 0.035(2)
H7B H 1.393(3) 0.707(4) 0.134(2)
H8B H 1.519(2) 0.460(2) 0.2382(9)
H9B H 1.423(3) 0.143(3) 0.357(2)
H10B H 1.548(3) 0.089(3) 0.309(2)
H11B H 1.559(3) 0.263(3) 0.351(1)
loop_
_geom_bond_atom_site_label_1
_geom_bond_atom_site_label_2
_geom_bond_distance
_geom_bond_site_symmetry_1
_geom_bond_site_symmetry_2
C1 C2 1.400 1_555 1_555
C2 C3 1.430 1_555 1_555
C3 C4 1.347 1_555 1_555
C4 C5 1.415 1_555 1_555
C5 C6 1.354 1_555 1_555
C6 H4 0.943 1_555 1_555
C7 C1 1.409 1_555 1_555
C8 C1 1.498 1_555 1_555
C9 C8 1.387 1_555 1_555
C10 C9 1.391 1_555 1_555
C11 C10 1.513 1_555 1_555
C12 C10 1.380 1_555 1_555
C13 C12 1.385 1_555 1_555
C14 C13 1.500 1_555 1_555
C15 C8 1.385 1_555 1_555
H1 C3 0.959 1_555 1_555
H2 C4 0.989 1_555 1_555
H3 C5 0.968 1_555 1_555
H5 C11 0.945 1_555 1_555
H6 C11 0.961 1_555 1_555
H7 C11 0.957 1_555 1_555
H8 C12 0.951 1_555 1_555
H9 C14 0.945 1_555 1_555
H10 C14 0.960 1_555 1_555
H11 C14 0.961 1_555 1_555
H12 C15 0.959 1_555 1_555
C7B C2 1.435 1_555 1_555
C2B C7 1.435 1_555 1_555
C6B C7 1.426 1_555 1_555
C1B C7B 1.409 1_555 1_555
C3B C2B 1.430 1_555 1_555
C5B C6B 1.354 1_555 1_555
H4B C6B 0.943 1_555 1_555
C8B C1B 1.498 1_555 1_555
C4B C3B 1.347 1_555 1_555
H1B C3B 0.959 1_555 1_555
H3B C5B 0.968 1_555 1_555
C9B C8B 1.387 1_555 1_555
C15B C8B 1.385 1_555 1_555
H2B C4B 0.989 1_555 1_555
C10B C9B 1.391 1_555 1_555
C13B C15B 1.393 1_555 1_555
H12B C15B 0.959 1_555 1_555
C11B C10B 1.513 1_555 1_555
C12B C10B 1.380 1_555 1_555
C14B C13B 1.500 1_555 1_555
H5B C11B 0.945 1_555 1_555
H6B C11B 0.961 1_555 1_555
H7B C11B 0.957 1_555 1_555
H8B C12B 0.951 1_555 1_555
H9B C14B 0.945 1_555 1_555
H10B C14B 0.960 1_555 1_555
H11B C14B 0.961 1_555 1_555
C6 C7B 1.426 1_555 1_555
C13 C15 1.393 1_555 1_555
C2B C1B 1.400 1_555 1_555
C5B C4B 1.415 1_555 1_555
C13B C12B 1.385 1_555 1_555
#END
