
#######################################################################
#
#                 Cambridge Crystallographic Data Centre
#                                CCDC
#
#######################################################################
#
# If this CIF has been generated from an entry in the Cambridge
# Structural Database, then it will include bibliographic, chemical,
# crystal, experimental, refinement or atomic coordinate data resulting
# from the CCDC's data processing and validation procedures.
#
#######################################################################

data_CSD_CIF_PIDCUA
_audit_creation_date 1994-07-28
_audit_creation_method CSD-ConQuest-V1
_database_code_CSD PIDCUA
_database_code_depnum_ccdc_archive 'CCDC 1233074; CCDC 400260'
_database_code_depnum_ccdc_fiz 'CSD 400260'
_chemical_formula_sum 'C34 H20'
_chemical_formula_moiety
;
C34 H20
;
_journal_coden_Cambridge 179
_journal_volume 32
_journal_year 1993
_journal_page_first 1733
_journal_name_full 'Angew.Chem.,Int.Ed. '
loop_
_publ_author_name
"G.Dyker"
"J.Korning"
"P.G.Jones"
"P.Bubenitschek"
_chemical_name_systematic
;
Dinaphtho-diphenyl(4.3.3)propellane
;
_chemical_melting_point 611.15
_cell_volume   4217.562
_exptl_crystal_colour 'colorless'
_diffrn_ambient_temperature 143.15
#These two values have been output from a single CSD field.
_refine_ls_R_factor_gt 0.071
_refine_ls_wR_factor_gt 0.071
_symmetry_cell_setting orthorhombic
_symmetry_space_group_name_H-M 'P b c a'
_symmetry_Int_Tables_number 61
loop_
_symmetry_equiv_pos_site_id
_symmetry_equiv_pos_as_xyz
1 x,y,z
2 1/2-x,-y,1/2+z
3 1/2+x,1/2-y,-z
4 -x,1/2+y,1/2-z
5 -x,-y,-z
6 -1/2+x,y,-1/2-z
7 -1/2-x,-1/2+y,z
8 x,-1/2-y,-1/2+z
_cell_length_a 16.336(5)
_cell_length_b 15.177(5)
_cell_length_c 17.011(5)
_cell_angle_alpha 90
_cell_angle_beta 90
_cell_angle_gamma 90
_cell_formula_units_Z 8
loop_
_atom_type_symbol
_atom_type_radius_bond
C 0.68
H 0.23
loop_
_atom_site_label
_atom_site_type_symbol
_atom_site_fract_x
_atom_site_fract_y
_atom_site_fract_z
C1 C 0.1547(2) 0.1796(2) 0.1096(2)
H1 H 0.2054(2) 0.1806(2) 0.0823(2)
C2 C 0.0832(2) 0.1957(2) 0.0684(2)
H2 H 0.0847(2) 0.2065(2) 0.0134(2)
C3 C 0.0099(2) 0.1959(2) 0.1084(2)
H3 H -0.0394(2) 0.2101(2) 0.0816(2)
C4 C 0.0081(2) 0.1754(2) 0.1870(2)
H4 H -0.0430(2) 0.1741(2) 0.2137(2)
C5 C 0.0794(2) 0.1566(2) 0.2285(2)
C6 C 0.0756(2) 0.1339(2) 0.3126(2)
C7 C 0.0020(2) 0.1088(2) 0.3477(2)
H5 H -0.0455(2) 0.1034(2) 0.3158(2)
C8 C -0.0042(2) 0.0919(2) 0.4257(2)
H6 H -0.0551(2) 0.0738(2) 0.4472(2)
C9 C 0.0618(2) 0.1007(2) 0.4730(2)
H7 H 0.0565(2) 0.0934(2) 0.5283(2)
C10 C 0.1373(2) 0.1206(2) 0.4401(2)
H8 H 0.1842(2) 0.1229(2) 0.4731(2)
C11 C 0.1465(2) 0.1372(2) 0.3603(2)
C12 C 0.2307(2) 0.1558(2) 0.3270(2)
C13 C 0.2931(2) 0.0863(2) 0.3539(2)
C14 C 0.3295(2) 0.0715(2) 0.4244(2)
H9 H 0.3208(2) 0.1100(2) 0.4675(2)
C15 C 0.3816(2) -0.0042(2) 0.4316(2)
H10 H 0.4078(2) -0.0153(2) 0.4805(2)
C16 C 0.3947(2) -0.0605(2) 0.3709(2)
H11 H 0.4287(2) -0.1105(2) 0.3786(2)
C17 C 0.3589(2) -0.0462(2) 0.2965(2)
C18 C 0.3099(2) 0.0293(2) 0.2896(2)
C19 C 0.3644(2) -0.0982(2) 0.2275(2)
H12 H 0.3963(2) -0.1505(2) 0.2285(2)
C20 C 0.3256(2) -0.0757(2) 0.1604(2)
H13 H 0.3289(2) -0.1140(2) 0.1164(2)
C21 C 0.2792(2) 0.0047(2) 0.1534(2)
H14 H 0.2535(2) 0.0207(2) 0.1054(2)
C22 C 0.2738(2) 0.0570(2) 0.2185(2)
C23 C 0.2359(2) 0.1477(2) 0.2327(2)
C24 C 0.1545(2) 0.1619(2) 0.1900(2)
C25 C 0.2971(2) 0.2220(2) 0.2119(2)
C26 C 0.2649(2) 0.2477(2) 0.3446(2)
C27 C 0.2668(2) 0.2958(2) 0.4124(2)
H15 H 0.2375(2) 0.2771(2) 0.4576(2)
C28 C 0.3136(2) 0.3746(2) 0.4134(2)
H16 H 0.3148(2) 0.4090(2) 0.4600(2)
C29 C 0.3572(2) 0.4024(2) 0.3490(2)
H17 H 0.3891(2) 0.4546(2) 0.3521(2)
C30 C 0.3550(2) 0.3543(2) 0.2786(2)
C31 C 0.3064(2) 0.2775(2) 0.2777(2)
C32 C 0.3964(2) 0.3733(2) 0.2069(2)
H18 H 0.4289(2) 0.4250(2) 0.2028(2)
C33 C 0.3898(2) 0.3181(2) 0.1446(2)
H19 H 0.4200(2) 0.3312(2) 0.0983(2)
C34 C 0.3396(2) 0.2412(2) 0.1455(2)
H20 H 0.3360(2) 0.2042(2) 0.1006(2)
loop_
_geom_bond_atom_site_label_1
_geom_bond_atom_site_label_2
_geom_bond_distance
_geom_bond_site_symmetry_1
_geom_bond_site_symmetry_2
C1 H1 0.950 1_555 1_555
C2 C1 1.384 1_555 1_555
H2 C2 0.950 1_555 1_555
C3 C2 1.377 1_555 1_555
H3 C3 0.950 1_555 1_555
C4 C3 1.373 1_555 1_555
H4 C4 0.951 1_555 1_555
C5 C4 1.392 1_555 1_555
C6 C5 1.473 1_555 1_555
C7 C6 1.395 1_555 1_555
H5 C7 0.950 1_555 1_555
C8 C7 1.355 1_555 1_555
H6 C8 0.949 1_555 1_555
C9 C8 1.352 1_555 1_555
H7 C9 0.951 1_555 1_555
C10 C9 1.388 1_555 1_555
H8 C10 0.950 1_555 1_555
C11 C6 1.415 1_555 1_555
C12 C11 1.514 1_555 1_555
C13 C12 1.537 1_555 1_555
C14 C13 1.357 1_555 1_555
H9 C14 0.948 1_555 1_555
C15 C14 1.435 1_555 1_555
H10 C15 0.951 1_555 1_555
C16 C15 1.357 1_555 1_555
H11 C16 0.949 1_555 1_555
C17 C16 1.411 1_555 1_555
C18 C13 1.421 1_555 1_555
C19 C17 1.417 1_555 1_555
H12 C19 0.950 1_555 1_555
C20 C19 1.350 1_555 1_555
H13 C20 0.949 1_555 1_555
C21 C20 1.441 1_555 1_555
H14 C21 0.950 1_555 1_555
C22 C18 1.410 1_555 1_555
C23 C12 1.611 1_555 1_555
C24 C1 1.394 1_555 1_555
C25 C23 1.548 1_555 1_555
C26 C12 1.532 1_555 1_555
C27 C26 1.365 1_555 1_555
H15 C27 0.949 1_555 1_555
C28 C27 1.420 1_555 1_555
H16 C28 0.949 1_555 1_555
C29 C28 1.373 1_555 1_555
H17 C29 0.950 1_555 1_555
C30 C29 1.403 1_555 1_555
C31 C25 1.409 1_555 1_555
C32 C30 1.424 1_555 1_555
H18 C32 0.950 1_555 1_555
C33 C32 1.355 1_555 1_555
H19 C33 0.950 1_555 1_555
C34 C25 1.357 1_555 1_555
H20 C34 0.950 1_555 1_555
C5 C24 1.393 1_555 1_555
C10 C11 1.389 1_555 1_555
C17 C18 1.403 1_555 1_555
C21 C22 1.365 1_555 1_555
C22 C23 1.529 1_555 1_555
C23 C24 1.530 1_555 1_555
C26 C31 1.400 1_555 1_555
C30 C31 1.410 1_555 1_555
C33 C34 1.426 1_555 1_555
#END
