
#######################################################################
#
#                 Cambridge Crystallographic Data Centre
#                                CCDC
#
#######################################################################
#
# If this CIF has been generated from an entry in the Cambridge
# Structural Database, then it will include bibliographic, chemical,
# crystal, experimental, refinement or atomic coordinate data resulting
# from the CCDC's data processing and validation procedures.
#
#######################################################################

data_CSD_CIF_PIFHIW
_audit_creation_date 2007-07-19
_audit_creation_method CSD-ConQuest-V1
_database_code_CSD PIFHIW
_database_code_depnum_ccdc_archive 'CCDC 651430'
_chemical_formula_sum 'C50 H44'
_chemical_formula_moiety
;
C50 H44
;
_journal_coeditor_code "IUCr HB2400"
_journal_coden_Cambridge 1370
_journal_volume 63
_journal_year 2007
_journal_page_first o2893
_journal_name_full 'Acta Crystallogr.,Sect.E:Struct.Rep.Online '
loop_
_publ_author_name
"G.Schuck"
"S.Haas"
"A.F.Stassen"
"H.-J.Kirner"
"B.Batlogg"
_chemical_name_systematic
;
5,12-bis(4-t-Butylphenyl)-6,11-diphenylnaphthacene
;
_cell_volume   3618.344
_exptl_crystal_colour 'orange'
_exptl_crystal_density_diffrn 1.184
_exptl_crystal_description 'plate'
_exptl_crystal_preparation 'physical vapour transport at 533 K (Ar)'
_diffrn_ambient_temperature 292.0
#These two values have been output from a single CSD field.
_refine_ls_R_factor_gt 0.0742
_refine_ls_wR_factor_gt 0.0742
_symmetry_cell_setting orthorhombic
_symmetry_space_group_name_H-M 'P n m a'
_symmetry_Int_Tables_number 62
loop_
_symmetry_equiv_pos_site_id
_symmetry_equiv_pos_as_xyz
1 x,y,z
2 1/2-x,-y,1/2+z
3 1/2+x,1/2-y,1/2-z
4 -x,1/2+y,-z
5 -x,-y,-z
6 -1/2+x,y,-1/2-z
7 -1/2-x,-1/2+y,-1/2+z
8 x,-1/2-y,z
_cell_length_a 14.158(2)
_cell_length_b 35.390(5)
_cell_length_c 7.2215(11)
_cell_angle_alpha 90
_cell_angle_beta 90
_cell_angle_gamma 90
_cell_formula_units_Z 4
loop_
_atom_type_symbol
_atom_type_radius_bond
C 0.68
H 0.23
loop_
_atom_site_label
_atom_site_type_symbol
_atom_site_fract_x
_atom_site_fract_y
_atom_site_fract_z
C1 C 0.93705(17) 0.70977(7) 0.3527(4)
C2 C 0.89917(17) 0.72967(7) 0.2033(3)
C3 C 0.85410(19) 0.71093(9) 0.0504(4)
C4 C 0.98466(18) 0.72940(7) 0.4982(3)
C5 C 1.03201(17) 0.70973(7) 0.6438(4)
C6 C 1.11360(19) 0.71085(9) 0.9468(4)
C7 C 1.06983(17) 0.72991(7) 0.7940(3)
C8 C 0.8150(2) 0.73005(9) -0.0912(4)
C9 C 1.1524(2) 0.73011(8) 1.0896(4)
H1 H 1.1141(19) 0.6838(8) 0.942(4)
H2 H 0.8547(19) 0.6831(8) 0.045(4)
H3 H 0.948(2) 0.6491(8) 0.807(4)
H4 H 1.219(3) 0.6126(10) 0.480(5)
H5 H 0.798(2) 0.6770(9) 0.527(5)
H6 H 1.000(2) 0.5855(9) 0.807(5)
H7 H 0.745(3) 0.6144(11) 0.534(6)
H8 H 1.171(2) 0.6769(8) 0.470(4)
H9 H 1.019(3) 0.6479(9) 0.194(5)
H10 H 0.828(3) 0.5687(11) 0.359(5)
H11 H 0.787(2) 0.7156(8) -0.197(4)
H12 H 0.964(3) 0.5854(10) 0.196(5)
H13 H 1.179(2) 0.7171(8) 1.191(4)
C10 C 0.91358(19) 0.66864(7) 0.3598(4)
C11 C 1.05447(18) 0.66849(7) 0.6373(4)
C12 C 1.0058(2) 0.64137(8) 0.7376(4)
C13 C 0.9614(2) 0.64110(8) 0.2608(4)
C14 C 1.1346(2) 0.65679(8) 0.5419(4)
C15 C 0.8324(2) 0.65765(9) 0.4549(5)
C16 C 0.8020(3) 0.62075(10) 0.4534(6)
C17 C 1.1634(2) 0.61949(9) 0.5450(5)
C18 C 1.0352(3) 0.60433(9) 0.7392(5)
C19 C 1.1156(2) 0.59238(8) 0.6449(5)
C20 C 0.9308(3) 0.60409(10) 0.2607(6)
C21 C 0.8510(3) 0.59405(11) 0.3566(6)
C22 C 1.1464(3) 0.55077(10) 0.6420(6)
C23 C 1.1059(6) 0.52857(12) 0.8005(9)
H14 H 1.03830 0.52780 0.78960
H15 H 1.12290 0.54040 0.91530
H16 H 1.13050 0.50330 0.79790
C24 C 1.2544(4) 0.54734(13) 0.6482(8)
H17 H 1.27770 0.55880 0.75960
H18 H 1.28110 0.55990 0.54270
H19 H 1.27190 0.52110 0.64630
C25 C 1.1162(4) 0.53380(12) 0.4580(8)
H20 H 1.13570 0.50780 0.45240
H21 H 1.14500 0.54760 0.35850
H22 H 1.04870 0.53520 0.44670
C1G C 0.93705(17) 0.79023(7) 0.3527(4)
C2G C 0.89917(17) 0.77033(7) 0.2033(3)
C3G C 0.85410(19) 0.78907(9) 0.0504(4)
C4G C 0.98466(18) 0.77060(7) 0.4982(3)
C5G C 1.03201(17) 0.79027(7) 0.6438(4)
C6G C 1.11360(19) 0.78915(9) 0.9468(4)
C7G C 1.06983(17) 0.77009(7) 0.7940(3)
C8G C 0.8150(2) 0.76995(9) -0.0912(4)
C9G C 1.1524(2) 0.76989(8) 1.0896(4)
H1G H 1.1141(19) 0.8162(8) 0.942(4)
H2G H 0.8547(19) 0.8169(8) 0.045(4)
H3G H 0.948(2) 0.8509(8) 0.807(4)
H4G H 1.219(3) 0.8874(10) 0.480(5)
H5G H 0.798(2) 0.8230(9) 0.527(5)
H6G H 1.000(2) 0.9145(9) 0.807(5)
H7G H 0.745(3) 0.8856(11) 0.534(6)
H8G H 1.171(2) 0.8231(8) 0.470(4)
H9G H 1.019(3) 0.8521(9) 0.194(5)
H10G H 0.828(3) 0.9313(11) 0.359(5)
H11G H 0.787(2) 0.7844(8) -0.197(4)
H12G H 0.964(3) 0.9146(10) 0.196(5)
H13G H 1.179(2) 0.7829(8) 1.191(4)
C10G C 0.91358(19) 0.83136(7) 0.3598(4)
C11G C 1.05447(18) 0.83151(7) 0.6373(4)
C12G C 1.0058(2) 0.85863(8) 0.7376(4)
C13G C 0.9614(2) 0.85890(8) 0.2608(4)
C14G C 1.1346(2) 0.84321(8) 0.5419(4)
C15G C 0.8324(2) 0.84235(9) 0.4549(5)
C16G C 0.8020(3) 0.87925(10) 0.4534(6)
C17G C 1.1634(2) 0.88051(9) 0.5450(5)
C18G C 1.0352(3) 0.89567(9) 0.7392(5)
C19G C 1.1156(2) 0.90762(8) 0.6449(5)
C20G C 0.9308(3) 0.89591(10) 0.2607(6)
C21G C 0.8510(3) 0.90595(11) 0.3566(6)
C22G C 1.1464(3) 0.94923(10) 0.6420(6)
C23G C 1.1059(6) 0.97143(12) 0.8005(9)
H14G H 1.03830 0.97220 0.78960
H15G H 1.12290 0.95960 0.91530
H16G H 1.13050 0.99670 0.79790
C24G C 1.2544(4) 0.95266(13) 0.6482(8)
H17G H 1.27770 0.94120 0.75960
H18G H 1.28110 0.94010 0.54270
H19G H 1.27190 0.97890 0.64630
C25G C 1.1162(4) 0.96620(12) 0.4580(8)
H20G H 1.13570 0.99220 0.45240
H21G H 1.14500 0.95240 0.35850
H22G H 1.04870 0.96480 0.44670
loop_
_geom_bond_atom_site_label_1
_geom_bond_atom_site_label_2
_geom_bond_distance
_geom_bond_site_symmetry_1
_geom_bond_site_symmetry_2
C1 C2 1.396 1_555 1_555
C2 C3 1.437 1_555 1_555
C3 C8 1.345 1_555 1_555
C4 C1 1.429 1_555 1_555
C5 C4 1.428 1_555 1_555
C6 C7 1.434 1_555 1_555
C7 C5 1.405 1_555 1_555
C8 H11 1.001 1_555 1_555
C9 C6 1.353 1_555 1_555
H1 C6 0.958 1_555 1_555
H2 C3 0.986 1_555 1_555
H3 C12 0.998 1_555 1_555
H4 C17 0.948 1_555 1_555
H5 C15 0.989 1_555 1_555
H6 C18 0.965 1_555 1_555
H7 C16 1.020 1_555 1_555
H8 C14 1.021 1_555 1_555
H9 C13 0.978 1_555 1_555
H10 C21 0.955 1_555 1_555
H12 C20 0.936 1_555 1_555
H13 C9 0.943 1_555 1_555
C10 C1 1.494 1_555 1_555
C11 C5 1.494 1_555 1_555
C12 C11 1.386 1_555 1_555
C13 C10 1.385 1_555 1_555
C14 C11 1.390 1_555 1_555
C15 C10 1.394 1_555 1_555
C16 C15 1.375 1_555 1_555
C17 C14 1.382 1_555 1_555
C18 C12 1.375 1_555 1_555
C19 C17 1.378 1_555 1_555
C20 C13 1.380 1_555 1_555
C21 C16 1.365 1_555 1_555
C22 C19 1.536 1_555 1_555
C23 C22 1.502 1_555 1_555
H14 C23 0.961 1_555 1_555
H15 C23 0.959 1_555 1_555
H16 C23 0.960 1_555 1_555
C24 C22 1.535 1_555 1_555
H17 C24 0.959 1_555 1_555
H18 C24 0.960 1_555 1_555
H19 C24 0.961 1_555 1_555
C25 C22 1.520 1_555 1_555
H20 C25 0.962 1_555 1_555
H21 C25 0.960 1_555 1_555
H22 C25 0.960 1_555 1_555
C1G C2G 1.396 1_555 1_555
C2G C2 1.439 1_555 1_555
C3G C2G 1.437 1_555 1_555
C4G C4 1.458 1_555 1_555
C5G C4G 1.428 1_555 1_555
C6G C7G 1.434 1_555 1_555
C7G C7 1.422 1_555 1_555
C8G C8 1.412 1_555 1_555
C9G C9 1.408 1_555 1_555
H1G C6G 0.958 1_555 1_555
H2G C3G 0.986 1_555 1_555
H3G C12G 0.998 1_555 1_555
H4G C17G 0.948 1_555 1_555
H5G C15G 0.989 1_555 1_555
H6G C18G 0.965 1_555 1_555
H7G C16G 1.020 1_555 1_555
H8G C14G 1.021 1_555 1_555
H9G C13G 0.978 1_555 1_555
H10G C21G 0.955 1_555 1_555
H11G C8G 1.001 1_555 1_555
H12G C20G 0.936 1_555 1_555
H13G C9G 0.943 1_555 1_555
C10G C1G 1.494 1_555 1_555
C11G C5G 1.494 1_555 1_555
C12G C11G 1.386 1_555 1_555
C13G C10G 1.385 1_555 1_555
C14G C11G 1.390 1_555 1_555
C15G C10G 1.394 1_555 1_555
C16G C15G 1.375 1_555 1_555
C17G C14G 1.382 1_555 1_555
C18G C12G 1.375 1_555 1_555
C19G C17G 1.378 1_555 1_555
C20G C13G 1.380 1_555 1_555
C21G C16G 1.365 1_555 1_555
C22G C19G 1.536 1_555 1_555
C23G C22G 1.502 1_555 1_555
H14G C23G 0.961 1_555 1_555
H15G C23G 0.959 1_555 1_555
H16G C23G 0.960 1_555 1_555
C24G C22G 1.535 1_555 1_555
H17G C24G 0.959 1_555 1_555
H18G C24G 0.960 1_555 1_555
H19G C24G 0.961 1_555 1_555
C25G C22G 1.520 1_555 1_555
H20G C25G 0.962 1_555 1_555
H21G C25G 0.960 1_555 1_555
H22G C25G 0.960 1_555 1_555
C18 C19 1.392 1_555 1_555
C20 C21 1.372 1_555 1_555
C1G C4G 1.429 1_555 1_555
C3G C8G 1.345 1_555 1_555
C5G C7G 1.405 1_555 1_555
C6G C9G 1.353 1_555 1_555
C18G C19G 1.392 1_555 1_555
C20G C21G 1.372 1_555 1_555
#END
