
#######################################################################
#
#                 Cambridge Crystallographic Data Centre
#                                CCDC
#
#######################################################################
#
# If this CIF has been generated from an entry in the Cambridge
# Structural Database, then it will include bibliographic, chemical,
# crystal, experimental, refinement or atomic coordinate data resulting
# from the CCDC's data processing and validation procedures.
#
#######################################################################

data_CSD_CIF_PIFHOC
_audit_creation_date 2007-07-19
_audit_creation_method CSD-ConQuest-V1
_database_code_CSD PIFHOC
_database_code_depnum_ccdc_archive 'CCDC 651431'
_chemical_formula_sum 'C50 H44'
_chemical_formula_moiety
;
C50 H44
;
_journal_coeditor_code "IUCr HB2402"
_journal_coden_Cambridge 1370
_journal_volume 63
_journal_year 2007
_journal_page_first o2894
_journal_name_full 'Acta Crystallogr.,Sect.E:Struct.Rep.Online '
loop_
_publ_author_name
"G.Schuck"
"S.Haas"
"A.F.Stassen"
"U.Berens"
"B.Batlogg"
_chemical_name_systematic
;
5,11-bis(4-t-Butyl-phenyl)-6,12-diphenylnaphthacene
;
_cell_volume   3752.803
_exptl_crystal_colour 'orange'
_exptl_crystal_density_diffrn 1.141
_exptl_special_details
;
polymorph A

;
_exptl_crystal_description 'plate'
_exptl_crystal_preparation 'physical vapour transport above 533 K (Ar)'
_diffrn_ambient_temperature 292.0
#These two values have been output from a single CSD field.
_refine_ls_R_factor_gt 0.0977
_refine_ls_wR_factor_gt 0.0977
_symmetry_cell_setting monoclinic
_symmetry_space_group_name_H-M 'P 21/c'
_symmetry_Int_Tables_number 14
loop_
_symmetry_equiv_pos_site_id
_symmetry_equiv_pos_as_xyz
1 x,y,z
2 -x,1/2+y,1/2-z
3 -x,-y,-z
4 x,-1/2-y,-1/2+z
_cell_length_a 23.527(3)
_cell_length_b 9.0277(10)
_cell_length_c 17.764(2)
_cell_angle_alpha 90
_cell_angle_beta 95.928(4)
_cell_angle_gamma 90
_cell_formula_units_Z 4
loop_
_atom_type_symbol
_atom_type_radius_bond
C 0.68
H 0.23
loop_
_atom_site_label
_atom_site_type_symbol
_atom_site_fract_x
_atom_site_fract_y
_atom_site_fract_z
C1 C 0.4082(2) 0.7231(5) 0.3755(3)
C2 C 0.43973(19) 0.6785(5) 0.4434(3)
C3 C 0.35092(18) 0.7072(5) 0.3654(2)
C4 C 0.41355(18) 0.6099(5) 0.4982(3)
C5 C 0.32005(16) 0.6423(4) 0.4231(2)
C6 C 0.35296(15) 0.5814(4) 0.4884(2)
C7 C 0.26002(16) 0.6412(4) 0.4184(2)
C8 C 0.32605(15) 0.4935(4) 0.5393(2)
C9 C 0.23227(15) 0.5692(4) 0.4762(2)
C10 C 0.26556(15) 0.4713(4) 0.5276(2)
C11 C 0.17319(15) 0.5862(4) 0.4856(2)
C12 C 0.23732(16) 0.3584(4) 0.5653(2)
C13 C 0.14684(15) 0.4909(4) 0.5329(2)
C14 C 0.17806(16) 0.3674(4) 0.5681(2)
C15 C 0.08776(17) 0.5078(5) 0.5463(2)
C16 C 0.14702(19) 0.2603(5) 0.6065(3)
C17 C 0.0615(2) 0.4075(6) 0.5867(3)
C18 C 0.0911(2) 0.2800(6) 0.6153(3)
C19 C 0.22674(17) 0.6982(5) 0.3482(2)
C20 C 0.2261(2) 0.8465(6) 0.3280(3)
C21 C 0.1970(3) 0.8925(10) 0.2595(5)
C22 C 0.1690(3) 0.7895(13) 0.2123(4)
C23 C 0.1700(3) 0.6451(11) 0.2308(3)
C24 C 0.1988(2) 0.5961(7) 0.2987(3)
C25 C 0.35873(15) 0.4391(4) 0.6107(2)
C26 C 0.40131(16) 0.3323(5) 0.6126(2)
C27 C 0.42905(18) 0.2851(5) 0.6807(3)
C28 C 0.41595(18) 0.3416(5) 0.7495(2)
C29 C 0.3746(2) 0.4500(5) 0.7468(2)
C30 C 0.34595(19) 0.4986(5) 0.6788(2)
C31 C 0.4456(2) 0.2853(6) 0.8254(3)
C32 C 0.4903(4) 0.3883(8) 0.8554(4)
H1 H 0.50540 0.35710 0.90520
H2 H 0.47450 0.48600 0.85800
H3 H 0.52040 0.38930 0.82280
C33 C 0.4708(3) 0.1331(7) 0.8175(3)
H4 H 0.50470 0.14070 0.79200
H5 H 0.44350 0.07100 0.78860
H6 H 0.48020 0.09080 0.86670
C34 C 0.4024(4) 0.2652(12) 0.8809(4)
H7 H 0.41840 0.20460 0.92220
H8 H 0.36890 0.21800 0.85630
H9 H 0.39220 0.36010 0.89990
C35 C 0.14101(16) 0.7183(4) 0.4525(2)
C36 C 0.15368(19) 0.8579(5) 0.4817(2)
C37 C 0.1243(2) 0.9821(5) 0.4531(3)
C38 C 0.08086(18) 0.9718(5) 0.3945(2)
C39 C 0.06779(18) 0.8326(5) 0.3667(2)
C40 C 0.09662(17) 0.7067(5) 0.3952(2)
C41 C 0.0491(2) 1.1098(5) 0.3632(3)
C42 C 0.0073(3) 1.1571(8) 0.4184(4)
H10 H 0.02820 1.19120 0.46450
H11 H -0.01610 1.07430 0.42920
H12 H -0.01640 1.23570 0.39650
C43 C 0.0899(3) 1.2343(6) 0.3525(4)
H13 H 0.10740 1.26660 0.40090
H14 H 0.06950 1.31540 0.32730
H15 H 0.11900 1.20050 0.32230
C44 C 0.0140(3) 1.0800(6) 0.2874(3)
H16 H -0.00430 1.16980 0.26900
H17 H -0.01450 1.00630 0.29410
H18 H 0.03880 1.04500 0.25150
C45 C 0.26843(17) 0.2211(5) 0.5919(3)
C46 C 0.2768(2) 0.1763(6) 0.6668(3)
C47 C 0.3053(2) 0.0437(8) 0.6856(4)
C48 C 0.3249(3) -0.0439(7) 0.6305(6)
C49 C 0.3169(3) -0.0008(7) 0.5560(5)
C50 C 0.2890(2) 0.1303(5) 0.5368(3)
H19 H 0.4291(19) 0.759(5) 0.335(2)
H20 H 0.4827(19) 0.693(5) 0.454(2)
H21 H 0.3284(18) 0.744(5) 0.317(2)
H22 H 0.4347(18) 0.574(5) 0.547(2)
H23 H 0.0685(18) 0.600(5) 0.524(2)
H24 H 0.1680(18) 0.174(5) 0.630(2)
H25 H 0.0193(19) 0.428(5) 0.596(2)
H26 H 0.0713(19) 0.218(5) 0.644(2)
H27 H 0.245(2) 0.918(6) 0.366(3)
H28 H 0.197(2) 0.993(6) 0.249(3)
H29 H 0.148(2) 0.818(6) 0.163(3)
H30 H 0.152(2) 0.564(6) 0.199(3)
H31 H 0.201(2) 0.488(6) 0.316(3)
H32 H 0.4121(18) 0.287(5) 0.565(2)
H33 H 0.4602(19) 0.215(5) 0.678(2)
H34 H 0.3639(18) 0.496(5) 0.793(2)
H35 H 0.3160(18) 0.572(5) 0.681(2)
H36 H 0.1844(18) 0.866(5) 0.523(2)
H37 H 0.1385(18) 1.075(5) 0.476(2)
H38 H 0.0400(18) 0.817(5) 0.325(2)
H39 H 0.0856(18) 0.607(5) 0.373(2)
H40 H 0.263(2) 0.241(6) 0.706(3)
H41 H 0.310(2) 0.018(6) 0.736(3)
H42 H 0.346(2) -0.140(6) 0.646(3)
H43 H 0.329(2) -0.069(6) 0.514(3)
H44 H 0.281(2) 0.163(5) 0.480(3)
loop_
_geom_bond_atom_site_label_1
_geom_bond_atom_site_label_2
_geom_bond_distance
_geom_bond_site_symmetry_1
_geom_bond_site_symmetry_2
C1 C2 1.408 1_555 1_555
C2 C4 1.354 1_555 1_555
C3 C1 1.349 1_555 1_555
C4 C6 1.441 1_555 1_555
C5 C3 1.441 1_555 1_555
C6 C5 1.436 1_555 1_555
C7 C5 1.406 1_555 1_555
C8 C6 1.402 1_555 1_555
C9 C7 1.429 1_555 1_555
C10 C8 1.431 1_555 1_555
C11 C9 1.425 1_555 1_555
C12 C10 1.422 1_555 1_555
C13 C11 1.392 1_555 1_555
C14 C12 1.403 1_555 1_555
C15 C13 1.442 1_555 1_555
C16 C14 1.427 1_555 1_555
C17 C15 1.345 1_555 1_555
C18 C16 1.353 1_555 1_555
C19 C7 1.494 1_555 1_555
C20 C19 1.386 1_555 1_555
C21 C20 1.396 1_555 1_555
C22 C21 1.374 1_555 1_555
C23 C22 1.344 1_555 1_555
C24 C19 1.391 1_555 1_555
C25 C8 1.497 1_555 1_555
C26 C25 1.388 1_555 1_555
C27 C26 1.381 1_555 1_555
C28 C27 1.388 1_555 1_555
C29 C28 1.377 1_555 1_555
C30 C25 1.385 1_555 1_555
C31 C28 1.539 1_555 1_555
C32 C31 1.462 1_555 1_555
H1 C32 0.961 1_555 1_555
H2 C32 0.960 1_555 1_555
H3 C32 0.960 1_555 1_555
C33 C31 1.509 1_555 1_555
H4 C33 0.959 1_555 1_555
H5 C33 0.960 1_555 1_555
H6 C33 0.958 1_555 1_555
C34 C31 1.498 1_555 1_555
H7 C34 0.960 1_555 1_555
H8 C34 0.961 1_555 1_555
H9 C34 0.960 1_555 1_555
C35 C11 1.500 1_555 1_555
C36 C35 1.384 1_555 1_555
C37 C36 1.386 1_555 1_555
C38 C37 1.385 1_555 1_555
C39 C38 1.373 1_555 1_555
C40 C35 1.385 1_555 1_555
C41 C38 1.528 1_555 1_555
C42 C41 1.520 1_555 1_555
H10 C42 0.961 1_555 1_555
H11 C42 0.959 1_555 1_555
H12 C42 0.960 1_555 1_555
C43 C41 1.503 1_555 1_555
H13 C43 0.960 1_555 1_555
H14 C43 0.960 1_555 1_555
H15 C43 0.962 1_555 1_555
C44 C41 1.529 1_555 1_555
H16 C44 0.959 1_555 1_555
H17 C44 0.961 1_555 1_555
H18 C44 0.961 1_555 1_555
C45 C12 1.491 1_555 1_555
C46 C45 1.385 1_555 1_555
C47 C46 1.396 1_555 1_555
C48 C47 1.375 1_555 1_555
C49 C48 1.374 1_555 1_555
C50 C45 1.401 1_555 1_555
H19 C1 0.968 1_555 1_555
H20 C2 1.017 1_555 1_555
H21 C3 1.018 1_555 1_555
H22 C4 1.007 1_555 1_555
H23 C15 1.009 1_555 1_555
H24 C16 0.991 1_555 1_555
H25 C17 1.040 1_555 1_555
H26 C18 0.916 1_555 1_555
H27 C20 1.004 1_555 1_555
H28 C21 0.926 1_555 1_555
H29 C22 0.994 1_555 1_555
H30 C23 0.993 1_555 1_555
H31 C24 1.023 1_555 1_555
H32 C26 0.995 1_555 1_555
H33 C27 0.973 1_555 1_555
H34 C29 0.976 1_555 1_555
H35 C30 0.971 1_555 1_555
H36 C36 0.978 1_555 1_555
H37 C37 0.976 1_555 1_555
H38 C39 0.947 1_555 1_555
H39 C40 1.006 1_555 1_555
H40 C46 0.989 1_555 1_555
H41 C47 0.920 1_555 1_555
H42 C48 1.023 1_555 1_555
H43 C49 1.030 1_555 1_555
H44 C50 1.049 1_555 1_555
C9 C10 1.442 1_555 1_555
C13 C14 1.442 1_555 1_555
C17 C18 1.412 1_555 1_555
C23 C24 1.393 1_555 1_555
C29 C30 1.392 1_555 1_555
C39 C40 1.392 1_555 1_555
C49 C50 1.379 1_555 1_555
#END
