
#######################################################################
#
#                 Cambridge Crystallographic Data Centre
#                                CCDC
#
#######################################################################
#
# If this CIF has been generated from an entry in the Cambridge
# Structural Database, then it will include bibliographic, chemical,
# crystal, experimental, refinement or atomic coordinate data resulting
# from the CCDC's data processing and validation procedures.
#
#######################################################################

data_CSD_CIF_PIFTEG
_audit_creation_date 2018-07-24
_audit_creation_method CSD-ConQuest-V1
_database_code_CSD PIFTEG
_database_code_depnum_ccdc_archive 'CCDC 1826745'
_chemical_formula_sum 'C42 H24'
_chemical_formula_moiety
;
C42 H24
;
_journal_coden_Cambridge 3056
_journal_volume 1
_journal_year 2018
_journal_page_first 38
_journal_name_full 'Communications Chemistry '
loop_
_publ_author_name
"H.Tanaka"
"M.Ikenosako"
"Yuka Kato"
"Michiya Fujiki"
"Y.Inoue"
"T.Mori"
_chemical_name_systematic
;
dinaphtho[2,1-i:1',2'-l]hexahelicene
;
_cell_volume   2618.471
_exptl_crystal_colour 'yellow'
_exptl_crystal_density_diffrn 1.341
_exptl_crystal_description 'prism'
_diffrn_ambient_temperature 123
#These two values have been output from a single CSD field.
_refine_ls_R_factor_gt 0.074
_refine_ls_wR_factor_gt 0.074
_symmetry_cell_setting monoclinic
_symmetry_space_group_name_H-M 'P 21/n'
_symmetry_Int_Tables_number 14
loop_
_symmetry_equiv_pos_site_id
_symmetry_equiv_pos_as_xyz
1 x,y,z
2 1/2-x,1/2+y,1/2-z
3 -x,-y,-z
4 -1/2+x,-1/2-y,-1/2+z
_cell_length_a 12.6320(2)
_cell_length_b 11.6262(2)
_cell_length_c 18.4299(3)
_cell_angle_alpha 90
_cell_angle_beta 104.6657(8)
_cell_angle_gamma 90
_cell_formula_units_Z 4
loop_
_atom_type_symbol
_atom_type_radius_bond
C 0.68
H 0.23
loop_
_atom_site_label
_atom_site_type_symbol
_atom_site_fract_x
_atom_site_fract_y
_atom_site_fract_z
C1 C 0.2556(2) 0.2044(2) 0.58351(16)
C2 C 0.3642(2) 0.2397(2) 0.57763(16)
C3 C 0.3841(3) 0.2910(3) 0.50978(16)
C4 C 0.2995(3) 0.3215(3) 0.44592(17)
C5 C 0.3221(3) 0.3713(3) 0.38387(18)
C6 C 0.4301(3) 0.3898(3) 0.3810(2)
C7 C 0.5130(3) 0.3664(3) 0.44190(19)
C8 C 0.4914(3) 0.3202(3) 0.50737(18)
C9 C 0.5780(3) 0.3089(3) 0.57381(19)
C10 C 0.5577(3) 0.2746(3) 0.63918(18)
C11 C 0.4506(2) 0.2384(2) 0.64291(16)
C12 C 0.4308(2) 0.1971(2) 0.71242(16)
C13 C 0.5192(3) 0.1747(3) 0.77626(17)
C14 C 0.5016(3) 0.1311(3) 0.84007(18)
C15 C 0.3957(3) 0.0994(3) 0.84472(16)
C16 C 0.3784(3) 0.0441(3) 0.90937(18)
C17 C 0.2792(3) 0.0009(3) 0.91077(19)
C18 C 0.1921(3) 0.0101(3) 0.84622(18)
C19 C 0.2050(3) 0.0689(3) 0.78454(17)
C20 C 0.3059(2) 0.1185(3) 0.78243(16)
C21 C 0.3237(2) 0.1800(2) 0.71810(16)
C22 C 0.2340(2) 0.2102(2) 0.65440(16)
C23 C 0.1247(2) 0.2461(2) 0.65863(15)
C24 C 0.1046(2) 0.3046(3) 0.72375(16)
C25 C 0.1878(3) 0.3400(3) 0.78674(16)
C26 C 0.1638(3) 0.3907(3) 0.84845(18)
C27 C 0.0543(3) 0.4086(3) 0.8502(2)
C28 C -0.0271(3) 0.3835(3) 0.78866(19)
C29 C -0.0054(3) 0.3332(3) 0.72375(17)
C30 C -0.0896(3) 0.3184(3) 0.65754(18)
C31 C -0.0685(3) 0.2760(3) 0.59421(19)
C32 C 0.0381(2) 0.2363(3) 0.59321(16)
C33 C 0.0575(3) 0.1831(3) 0.52703(16)
C34 C -0.0310(3) 0.1478(3) 0.46646(17)
C35 C -0.0140(3) 0.0954(3) 0.40562(18)
C36 C 0.0936(3) 0.0650(3) 0.40087(16)
C37 C 0.1116(3) 0.0016(3) 0.33981(19)
C38 C 0.2123(3) -0.0373(3) 0.3393(2)
C39 C 0.3020(3) -0.0160(3) 0.40088(19)
C40 C 0.2878(3) 0.0498(3) 0.45957(18)
C41 C 0.1848(3) 0.0956(2) 0.46076(16)
C42 C 0.1661(2) 0.1656(3) 0.52204(15)
H1 H 0.221(2) 0.315(3) 0.4467(15)
H2 H 0.254(3) 0.391(3) 0.3373(19)
H3 H 0.448(3) 0.421(3) 0.330(2)
H4 H 0.596(2) 0.382(2) 0.4393(14)
H5 H 0.657(2) 0.330(2) 0.5691(14)
H6 H 0.61838 0.27181 0.68872
H7 H 0.59192 0.19072 0.77383
H8 H 0.5633(18) 0.1169(19) 0.8862(13)
H9 H 0.44239 0.03342 0.95294
H10 H 0.261(2) -0.032(3) 0.9578(17)
H11 H 0.125(3) -0.011(3) 0.8485(17)
H12 H 0.136(2) 0.073(2) 0.7397(15)
H13 H 0.267(2) 0.334(2) 0.7838(14)
H14 H 0.224(2) 0.419(2) 0.8906(14)
H15 H 0.038(2) 0.445(3) 0.8938(18)
H16 H -0.114(3) 0.397(3) 0.7871(19)
H17 H -0.169(3) 0.341(3) 0.6586(16)
H18 H -0.131(3) 0.262(3) 0.5486(18)
H19 H -0.118(3) 0.152(3) 0.4704(19)
H20 H -0.074(2) 0.070(3) 0.3644(18)
H21 H 0.041(2) -0.013(3) 0.2954(17)
H22 H 0.224(3) -0.084(3) 0.293(2)
H23 H 0.380(2) -0.042(2) 0.4076(15)
H24 H 0.353(2) 0.061(2) 0.5062(14)
loop_
_geom_bond_atom_site_label_1
_geom_bond_atom_site_label_2
_geom_bond_distance
_geom_bond_site_symmetry_1
_geom_bond_site_symmetry_2
C1 C2 1.462 1_555 1_555
C2 C3 1.463 1_555 1_555
C3 C4 1.420 1_555 1_555
C4 C5 1.375 1_555 1_555
C5 C6 1.395 1_555 1_555
C6 C7 1.355 1_555 1_555
C7 C8 1.409 1_555 1_555
C8 C3 1.409 1_555 1_555
C9 C8 1.427 1_555 1_555
C10 C9 1.354 1_555 1_555
C11 C2 1.405 1_555 1_555
C12 C11 1.448 1_555 1_555
C13 C12 1.426 1_555 1_555
C14 C13 1.350 1_555 1_555
C15 C14 1.411 1_555 1_555
C16 C15 1.419 1_555 1_555
C17 C16 1.356 1_555 1_555
C18 C17 1.405 1_555 1_555
C19 C18 1.371 1_555 1_555
C20 C15 1.412 1_555 1_555
C21 C12 1.397 1_555 1_555
C22 C1 1.402 1_555 1_555
C23 C22 1.463 1_555 1_555
C24 C23 1.457 1_555 1_555
C25 C24 1.416 1_555 1_555
C26 C25 1.381 1_555 1_555
C27 C26 1.407 1_555 1_555
C28 C27 1.356 1_555 1_555
C29 C24 1.429 1_555 1_555
C30 C29 1.412 1_555 1_555
C31 C30 1.354 1_555 1_555
C32 C23 1.413 1_555 1_555
C33 C32 1.443 1_555 1_555
C34 C33 1.426 1_555 1_555
C35 C34 1.340 1_555 1_555
C36 C35 1.428 1_555 1_555
C37 C36 1.411 1_555 1_555
C38 C37 1.352 1_555 1_555
C39 C38 1.408 1_555 1_555
C40 C39 1.373 1_555 1_555
C41 C36 1.424 1_555 1_555
C42 C1 1.455 1_555 1_555
H1 C4 0.998 1_555 1_555
H2 C5 1.075 1_555 1_555
H3 C6 1.083 1_555 1_555
H4 C7 1.077 1_555 1_555
H5 C9 1.052 1_555 1_555
H6 C10 1.033 1_555 1_555
H7 C13 0.949 1_555 1_555
H8 C14 1.011 1_555 1_555
H9 C16 0.992 1_555 1_555
H10 C17 1.025 1_555 1_555
H11 C18 0.894 1_555 1_555
H12 C19 1.039 1_555 1_555
H13 C25 1.018 1_555 1_555
H14 C26 0.995 1_555 1_555
H15 C27 0.975 1_555 1_555
H16 C28 1.102 1_555 1_555
H17 C30 1.042 1_555 1_555
H18 C31 1.010 1_555 1_555
H19 C34 1.121 1_555 1_555
H20 C35 0.973 1_555 1_555
H21 C37 1.060 1_555 1_555
H22 C38 1.053 1_555 1_555
H23 C39 1.008 1_555 1_555
H24 C40 1.037 1_555 1_555
C10 C11 1.435 1_555 1_555
C19 C20 1.408 1_555 1_555
C20 C21 1.450 1_555 1_555
C21 C22 1.453 1_555 1_555
C28 C29 1.419 1_555 1_555
C31 C32 1.428 1_555 1_555
C33 C42 1.413 1_555 1_555
C40 C41 1.411 1_555 1_555
C41 C42 1.459 1_555 1_555
#END
