
#######################################################################
#
#                 Cambridge Crystallographic Data Centre
#                                CCDC
#
#######################################################################
#
# If this CIF has been generated from an entry in the Cambridge
# Structural Database, then it will include bibliographic, chemical,
# crystal, experimental, refinement or atomic coordinate data resulting
# from the CCDC's data processing and validation procedures.
#
#######################################################################

data_CSD_CIF_PIHZEO
_audit_creation_date 2018-07-25
_audit_creation_method CSD-ConQuest-V1
_database_code_CSD PIHZEO
_database_code_depnum_ccdc_archive 'CCDC 1811916'
_chemical_formula_sum 'C40 H32'
_chemical_formula_moiety
;
C40 H32
;
_journal_coden_Cambridge 179
_journal_volume 57
_journal_year 2018
_journal_page_first 6541
_journal_name_full 'Angew.Chem.,Int.Ed. '
loop_
_publ_author_name
"Yanwei Gu"
"Xiaojin Wu"
"Tullimilli Y.Gopalakrishna"
"Hoa Phan"
"Jishan Wu"
_chemical_name_systematic
;
6,12-bis(2,4,6-trimethylphenyl)naphtho[7,8,1,2,3-nopqr]tetraphene
;
_cell_volume   1358.291
_exptl_crystal_colour 'yellow'
_exptl_crystal_density_diffrn 1.253
_exptl_crystal_description 'prism frag'
_diffrn_ambient_temperature 200
#These two values have been output from a single CSD field.
_refine_ls_R_factor_gt 0.0396
_refine_ls_wR_factor_gt 0.0396
_symmetry_cell_setting monoclinic
_symmetry_space_group_name_H-M 'P 21/c'
_symmetry_Int_Tables_number 14
loop_
_symmetry_equiv_pos_site_id
_symmetry_equiv_pos_as_xyz
1 x,y,z
2 -x,1/2+y,1/2-z
3 -x,-y,-z
4 x,-1/2-y,-1/2+z
_cell_length_a 8.0764(14)
_cell_length_b 22.582(4)
_cell_length_c 7.7184(12)
_cell_angle_alpha 90
_cell_angle_beta 105.224(10)
_cell_angle_gamma 90
_cell_formula_units_Z 2
loop_
_atom_type_symbol
_atom_type_radius_bond
C 0.68
H 0.23
loop_
_atom_site_label
_atom_site_type_symbol
_atom_site_fract_x
_atom_site_fract_y
_atom_site_fract_z
C1 C 0.43884(15) 0.49307(5) 0.41908(16)
C2 C 0.67438(15) 0.55673(5) 0.58927(17)
C3 C 0.42878(15) 0.52828(5) 0.26398(16)
C4 C 0.94853(16) 0.63735(6) 0.43414(17)
C5 C 0.54214(15) 0.57722(5) 0.27248(17)
C6 C 0.66437(15) 0.59117(5) 0.43758(17)
C7 C 0.77952(16) 0.64405(5) 0.44793(17)
C8 C 0.30581(16) 0.51452(6) 0.09913(17)
C9 C 0.52919(17) 0.61042(6) 0.11368(18)
H1 H 0.60410 0.64300 0.11620
C10 C 0.71857(17) 0.70055(6) 0.4736(2)
C11 C 0.99262(17) 0.74375(6) 0.46890(18)
C12 C 0.20396(16) 0.43093(6) 0.24126(18)
H2 H 0.12830 0.39820 0.23260
C13 C 0.29827(17) 0.54892(6) -0.05196(18)
H3 H 0.21600 0.54000 -0.16160
C14 C 1.05132(16) 0.68750(6) 0.44506(18)
H4 H 1.16560 0.68290 0.43580
C15 C 0.41031(18) 0.59637(6) -0.04405(18)
H5 H 0.40450 0.61930 -0.14880
C16 C 0.82567(18) 0.74932(6) 0.4835(2)
H6 H 0.78340 0.78750 0.50080
C17 C 0.19472(17) 0.46454(6) 0.09518(18)
H7 H 0.11240 0.45500 -0.01380
C18 C 1.02181(18) 0.57748(6) 0.4117(2)
H8 H 1.11370 0.58190 0.35120
H9 H 0.93120 0.55210 0.33930
H10 H 1.06830 0.55940 0.52990
C19 C 1.1055(2) 0.79726(7) 0.4763(2)
H11 H 1.10380 0.80940 0.35400
H12 H 1.22330 0.78750 0.54270
H13 H 1.06290 0.82970 0.53700
C20 C 0.5391(2) 0.70922(7) 0.4930(3)
H14 H 0.52410 0.68570 0.59460
H15 H 0.45580 0.69630 0.38270
H16 H 0.52080 0.75120 0.51430
C1B C 0.56116(15) 0.50693(5) 0.58092(16)
C2B C 0.32562(15) 0.44327(5) 0.41073(17)
C3B C 0.57122(15) 0.47172(5) 0.73602(16)
C4B C 0.05147(16) 0.36265(6) 0.56586(17)
C5B C 0.45786(15) 0.42278(5) 0.72752(17)
C6B C 0.33563(15) 0.40883(5) 0.56242(17)
C7B C 0.22048(16) 0.35595(5) 0.55207(17)
C8B C 0.69419(16) 0.48548(6) 0.90087(17)
C9B C 0.47081(17) 0.38958(6) 0.88632(18)
H1B H 0.39590 0.35700 0.88380
C10B C 0.28143(17) 0.29945(6) 0.5264(2)
C11B C 0.00738(17) 0.25625(6) 0.53110(18)
C12B C 0.79604(16) 0.56907(6) 0.75874(18)
H2B H 0.87170 0.60180 0.76740
C13B C 0.70173(17) 0.45108(6) 1.05196(18)
H3B H 0.78400 0.46000 1.16160
C14B C -0.05132(16) 0.31250(6) 0.55494(18)
H4B H -0.16560 0.31710 0.56420
C15B C 0.58969(18) 0.40363(6) 1.04405(18)
H5B H 0.59550 0.38070 1.14880
C16B C 0.17433(18) 0.25068(6) 0.5165(2)
H6B H 0.21660 0.21250 0.49920
C17B C 0.80528(17) 0.53546(6) 0.90482(18)
H7B H 0.88760 0.54500 1.01380
C18B C -0.02181(18) 0.42252(6) 0.5883(2)
H8B H -0.11370 0.41810 0.64880
H9B H 0.06880 0.44790 0.66070
H10B H -0.06830 0.44060 0.47010
C19B C -0.1055(2) 0.20274(7) 0.5237(2)
H11B H -0.10380 0.19060 0.64600
H12B H -0.22330 0.21250 0.45730
H13B H -0.06290 0.17030 0.46300
C20B C 0.4609(2) 0.29078(7) 0.5070(3)
H14B H 0.47590 0.31430 0.40540
H15B H 0.54420 0.30370 0.61730
H16B H 0.47920 0.24880 0.48570
loop_
_geom_bond_atom_site_label_1
_geom_bond_atom_site_label_2
_geom_bond_distance
_geom_bond_site_symmetry_1
_geom_bond_site_symmetry_2
C1 C3 1.422 1_555 1_555
C2 C6 1.390 1_555 1_555
C3 C5 1.426 1_555 1_555
C4 C7 1.405 1_555 1_555
C5 C6 1.427 1_555 1_555
C6 C7 1.503 1_555 1_555
C7 C10 1.400 1_555 1_555
C8 C3 1.428 1_555 1_555
C9 C5 1.417 1_555 1_555
H1 C9 0.949 1_555 1_555
C10 C16 1.390 1_555 1_555
C11 C14 1.385 1_555 1_555
C12 H2 0.950 1_555 1_555
C13 C8 1.389 1_555 1_555
H3 C13 0.950 1_555 1_555
C14 C4 1.394 1_555 1_555
H4 C14 0.950 1_555 1_555
C15 C9 1.375 1_555 1_555
H5 C15 0.951 1_555 1_555
C16 C11 1.388 1_555 1_555
H6 C16 0.950 1_555 1_555
C17 C8 1.437 1_555 1_555
H7 C17 0.950 1_555 1_555
C18 C4 1.504 1_555 1_555
H8 C18 0.980 1_555 1_555
H9 C18 0.981 1_555 1_555
H10 C18 0.980 1_555 1_555
C19 C11 1.506 1_555 1_555
H11 C19 0.980 1_555 1_555
H12 C19 0.980 1_555 1_555
H13 C19 0.979 1_555 1_555
C20 C10 1.509 1_555 1_555
H14 C20 0.981 1_555 1_555
H15 C20 0.981 1_555 1_555
H16 C20 0.980 1_555 1_555
C1B C1 1.409 1_555 1_555
C2B C1 1.440 1_555 1_555
C3B C1B 1.422 1_555 1_555
C4B C7B 1.405 1_555 1_555
C5B C3B 1.426 1_555 1_555
C6B C2B 1.390 1_555 1_555
C7B C6B 1.503 1_555 1_555
C8B C3B 1.428 1_555 1_555
C9B C5B 1.417 1_555 1_555
H1B C9B 0.949 1_555 1_555
C10B C7B 1.400 1_555 1_555
C11B C14B 1.385 1_555 1_555
C12B C2 1.442 1_555 1_555
H2B C12B 0.950 1_555 1_555
C13B C8B 1.389 1_555 1_555
H3B C13B 0.950 1_555 1_555
C14B C4B 1.394 1_555 1_555
H4B C14B 0.950 1_555 1_555
C15B C9B 1.375 1_555 1_555
H5B C15B 0.951 1_555 1_555
C16B C10B 1.390 1_555 1_555
H6B C16B 0.950 1_555 1_555
C17B C8B 1.437 1_555 1_555
H7B C17B 0.950 1_555 1_555
C18B C4B 1.504 1_555 1_555
H8B C18B 0.980 1_555 1_555
H9B C18B 0.981 1_555 1_555
H10B C18B 0.980 1_555 1_555
C19B C11B 1.506 1_555 1_555
H11B C19B 0.980 1_555 1_555
H12B C19B 0.980 1_555 1_555
H13B C19B 0.979 1_555 1_555
C20B C10B 1.509 1_555 1_555
H14B C20B 0.981 1_555 1_555
H15B C20B 0.981 1_555 1_555
H16B C20B 0.980 1_555 1_555
C2 C1B 1.440 1_555 1_555
C12 C17 1.345 1_555 1_555
C12 C2B 1.442 1_555 1_555
C13 C15 1.393 1_555 1_555
C5B C6B 1.427 1_555 1_555
C11B C16B 1.388 1_555 1_555
C12B C17B 1.345 1_555 1_555
C13B C15B 1.393 1_555 1_555
#END
