
#######################################################################
#
#                 Cambridge Crystallographic Data Centre
#                                CCDC
#
#######################################################################
#
# If this CIF has been generated from an entry in the Cambridge
# Structural Database, then it will include bibliographic, chemical,
# crystal, experimental, refinement or atomic coordinate data resulting
# from the CCDC's data processing and validation procedures.
#
#######################################################################

data_CSD_CIF_PIRBOH
_audit_creation_date 1994-11-22
_audit_creation_method CSD-ConQuest-V1
_database_code_CSD PIRBOH
_database_code_depnum_ccdc_fiz 'CSD 57962'
_chemical_formula_sum 'C38 H38'
_chemical_formula_moiety
;
C38 H38
;
_journal_coden_Cambridge 6
_journal_volume 368
_journal_year 1994
_journal_page_first 831
_journal_name_full 'Nature (London) '
loop_
_publ_author_name
"A.-D.Schluter"
"M.Loffler"
"V.Enkelmann"
_chemical_name_systematic
;
(2,3,5,6-(bis(Naphthalen-1,2-diyl))cyclohex-1,3-dien-1,4-diyl)cyclododecane
;
_cell_volume   2623.791
_exptl_crystal_density_diffrn 1.25
_diffrn_ambient_temperature ?
_diffrn_special_details
;
The study was carried out at room temperature,in the range 283-303K

;
#These two values have been output from a single CSD field.
_refine_ls_R_factor_gt 0.056
_refine_ls_wR_factor_gt 0.056
_symmetry_cell_setting monoclinic
_symmetry_space_group_name_H-M 'P 21/c'
_symmetry_Int_Tables_number 14
loop_
_symmetry_equiv_pos_site_id
_symmetry_equiv_pos_as_xyz
1 x,y,z
2 -x,1/2+y,1/2-z
3 -x,-y,-z
4 x,-1/2-y,-1/2+z
_cell_length_a 17.896(6)
_cell_length_b 10.9867(19)
_cell_length_c 14.140(8)
_cell_angle_alpha 90
_cell_angle_beta 109.309(20)
_cell_angle_gamma 90
_cell_formula_units_Z 4
loop_
_atom_type_symbol
_atom_type_radius_bond
C 0.68
H 0.23
loop_
_atom_site_label
_atom_site_type_symbol
_atom_site_fract_x
_atom_site_fract_y
_atom_site_fract_z
C1 C 0.2527(4) -0.0773(7) -0.0134(5)
C2 C 0.2530(4) -0.2045(7) 0.0126(5)
C3 C 0.3284(4) -0.2562(7) 0.0535(5)
C4 C 0.3951(4) -0.1907(7) 0.0699(5)
C5 C 0.3937(4) -0.0655(7) 0.0412(5)
C6 C 0.3212(4) -0.0115(7) 0.0012(5)
C7 C 0.1785(4) -0.2580(7) -0.0090(5)
C8 C 0.1111(4) -0.1917(7) -0.0467(6)
C9 C 0.1109(4) -0.0664(7) -0.0714(5)
C10 C 0.1821(4) -0.0103(7) -0.0547(5)
C11 C 0.2040(4) 0.1169(6) -0.0790(6)
C12 C 0.2983(4) 0.1181(7) -0.0435(6)
C13 C 0.3395(4) 0.2178(6) 0.0266(5)
C14 C 0.2990(4) 0.2889(7) 0.0692(5)
C15 C 0.2095(4) 0.2878(6) 0.0362(5)
C16 C 0.1661(4) 0.2180(7) -0.0384(5)
C17 C 0.1866(4) 0.3896(7) 0.0917(5)
C18 C 0.1151(4) 0.4333(7) 0.0953(5)
C19 C 0.1163(4) 0.5331(7) 0.1586(5)
C20 C 0.1857(4) 0.5879(7) 0.2170(5)
C21 C 0.2596(4) 0.5442(6) 0.2175(5)
C22 C 0.2575(4) 0.4434(7) 0.1527(5)
C23 C 0.3258(4) 0.3891(7) 0.1419(5)
C24 C 0.3984(4) 0.4360(7) 0.1983(5)
C25 C 0.4018(4) 0.5337(7) 0.2649(5)
C26 C 0.3364(4) 0.5866(7) 0.2747(5)
C27 C 0.4244(4) 0.2408(7) 0.0349(5)
C28 C 0.4296(4) 0.3548(7) -0.0268(5)
C29 C 0.3833(4) 0.3386(7) -0.1396(5)
C30 C 0.3885(4) 0.4482(7) -0.2042(5)
C31 C 0.3576(4) 0.5680(7) -0.1767(6)
C32 C 0.2726(4) 0.5620(7) -0.1764(5)
C33 C 0.2118(4) 0.5344(7) -0.2797(6)
C34 C 0.1256(4) 0.5496(7) -0.2816(6)
C35 C 0.0978(4) 0.4593(7) -0.2170(6)
C36 C 0.1017(4) 0.3282(7) -0.2479(5)
C37 C 0.0546(4) 0.2394(7) -0.2075(5)
C38 C 0.0778(3) 0.2381(7) -0.0930(5)
H1 H 0.32600 -0.33800 0.07800
H2 H 0.45200 -0.22600 0.10000
H3 H 0.45300 -0.02800 0.03700
H4 H 0.17600 -0.33100 0.03400
H5 H 0.06100 -0.23800 -0.06400
H6 H 0.05100 -0.02300 -0.09900
H7 H 0.06200 0.35400 0.05800
H8 H 0.05700 0.55700 0.17300
H9 H 0.18000 0.66200 0.26400
H10 H 0.45000 0.40600 0.18100
H11 H 0.45700 0.57100 0.31800
H12 H 0.34600 0.64200 0.34300
H13 H 0.44600 0.27400 0.11100
H14 H 0.46100 0.16900 0.00200
H15 H 0.40200 0.41300 0.00300
H16 H 0.49100 0.36200 -0.03500
H17 H 0.31900 0.32600 -0.14500
H18 H 0.43000 0.28400 -0.15500
H19 H 0.36700 0.42000 -0.27300
H20 H 0.44500 0.44800 -0.20000
H21 H 0.37200 0.62900 -0.23200
H22 H 0.38900 0.60300 -0.08800
H23 H 0.26000 0.63800 -0.15300
H24 H 0.26900 0.49900 -0.13200
H25 H 0.22400 0.45200 -0.29300
H26 H 0.21600 0.60300 -0.33100
H27 H 0.11500 0.52900 -0.33300
H28 H 0.10800 0.62400 -0.26200
H29 H 0.12600 0.46300 -0.12300
H30 H 0.04600 0.49100 -0.22900
H31 H 0.07800 0.33300 -0.32300
H32 H 0.16800 0.29800 -0.22800
H33 H -0.00700 0.25000 -0.22300
H34 H 0.06700 0.17100 -0.24100
H35 H 0.06800 0.32200 -0.08300
H36 H 0.06400 0.19200 -0.06000
H37 H 0.18900 0.11600 -0.16600
H38 H 0.31100 0.12000 -0.09600
loop_
_geom_bond_atom_site_label_1
_geom_bond_atom_site_label_2
_geom_bond_distance
_geom_bond_site_symmetry_1
_geom_bond_site_symmetry_2
C1 C2 1.445 1_555 1_555
C2 C3 1.401 1_555 1_555
C3 C4 1.347 1_555 1_555
C4 C5 1.432 1_555 1_555
C5 C6 1.367 1_555 1_555
C6 C1 1.379 1_555 1_555
C7 C2 1.395 1_555 1_555
C8 C7 1.358 1_555 1_555
C9 C8 1.420 1_555 1_555
C10 C1 1.411 1_555 1_555
C11 C10 1.521 1_555 1_555
C12 C6 1.557 1_555 1_555
C13 C12 1.498 1_555 1_555
C14 C13 1.337 1_555 1_555
C15 C14 1.513 1_555 1_555
C16 C11 1.510 1_555 1_555
C17 C15 1.499 1_555 1_555
C18 C17 1.383 1_555 1_555
C19 C18 1.411 1_555 1_555
C20 C19 1.382 1_555 1_555
C21 C20 1.405 1_555 1_555
C22 C17 1.407 1_555 1_555
C23 C14 1.474 1_555 1_555
C24 C23 1.380 1_555 1_555
C25 C24 1.416 1_555 1_555
C26 C21 1.423 1_555 1_555
C27 C13 1.506 1_555 1_555
C28 C27 1.547 1_555 1_555
C29 C28 1.545 1_555 1_555
C30 C29 1.533 1_555 1_555
C31 C30 1.527 1_555 1_555
C32 C31 1.524 1_555 1_555
C33 C32 1.536 1_555 1_555
C34 C33 1.543 1_555 1_555
C35 C34 1.538 1_555 1_555
C36 C35 1.513 1_555 1_555
C37 C36 1.519 1_555 1_555
C38 C16 1.528 1_555 1_555
H1 C3 0.969 1_555 1_555
H2 C4 1.040 1_555 1_555
H3 C5 1.158 1_555 1_555
H4 C7 1.016 1_555 1_555
H5 C8 0.989 1_555 1_555
H6 C9 1.119 1_555 1_555
H7 C18 1.268 1_555 1_555
H8 C19 1.175 1_555 1_555
H9 C20 1.077 1_555 1_555
H10 C24 1.082 1_555 1_555
H11 C25 1.103 1_555 1_555
H12 C26 1.106 1_555 1_555
H13 C27 1.079 1_555 1_555
H14 C27 1.212 1_555 1_555
H15 C28 0.984 1_555 1_555
H16 C28 1.145 1_555 1_555
H17 C29 1.136 1_555 1_555
H18 C29 1.107 1_555 1_555
H19 C30 0.971 1_555 1_555
H20 C30 0.993 1_555 1_555
H21 C31 1.123 1_555 1_555
H22 C31 1.253 1_555 1_555
H23 C32 0.952 1_555 1_555
H24 C32 0.951 1_555 1_555
H25 C33 0.964 1_555 1_555
H26 C33 1.066 1_555 1_555
H27 C34 0.724 1_555 1_555
H28 C34 0.950 1_555 1_555
H29 C35 1.257 1_555 1_555
H30 C35 0.952 1_555 1_555
H31 C36 1.006 1_555 1_555
H32 C36 1.173 1_555 1_555
H33 C37 1.057 1_555 1_555
H34 C37 0.953 1_555 1_555
H35 C38 0.958 1_555 1_555
H36 C38 0.782 1_555 1_555
H37 C11 1.169 1_555 1_555
H38 C12 0.845 1_555 1_555
C9 C10 1.364 1_555 1_555
C11 C12 1.594 1_555 1_555
C15 C16 1.327 1_555 1_555
C21 C22 1.430 1_555 1_555
C22 C23 1.413 1_555 1_555
C25 C26 1.354 1_555 1_555
C37 C38 1.533 1_555 1_555
#END
