
#######################################################################
#
#                 Cambridge Crystallographic Data Centre
#                                CCDC
#
#######################################################################
#
# If this CIF has been generated from an entry in the Cambridge
# Structural Database, then it will include bibliographic, chemical,
# crystal, experimental, refinement or atomic coordinate data resulting
# from the CCDC's data processing and validation procedures.
#
#######################################################################

data_CSD_CIF_PIRBUN
_audit_creation_date 1994-11-22
_audit_creation_method CSD-ConQuest-V1
_database_code_CSD PIRBUN
_database_code_depnum_ccdc_fiz 'CSD 57962'
_chemical_formula_sum 'C38 H36'
_chemical_formula_moiety
;
C38 H36
;
_journal_coden_Cambridge 6
_journal_volume 368
_journal_year 1994
_journal_page_first 831
_journal_name_full 'Nature (London) '
loop_
_publ_author_name
"A.-D.Schluter"
"M.Loffler"
"V.Enkelmann"
_chemical_name_systematic
;
(2,3,5,6-bis(Naphthalen-1,2-diyl))phenyl-1,4-cyclo-dodecane
;
_cell_volume   2653.488
_exptl_crystal_density_diffrn 1.25
_exptl_special_details
;
The space group is P21/n, not P21/c

;
_diffrn_ambient_temperature ?
_diffrn_special_details
;
The study was carried out at room temperature,in the range 283-303K

;
#These two values have been output from a single CSD field.
_refine_ls_R_factor_gt 0.04
_refine_ls_wR_factor_gt 0.04
_symmetry_cell_setting monoclinic
_symmetry_space_group_name_H-M 'P 21/n'
_symmetry_Int_Tables_number 14
loop_
_symmetry_equiv_pos_site_id
_symmetry_equiv_pos_as_xyz
1 x,y,z
2 1/2-x,1/2+y,1/2-z
3 -x,-y,-z
4 -1/2+x,-1/2-y,-1/2+z
_cell_length_a 9.1481(5)
_cell_length_b 20.5659(11)
_cell_length_c 14.1275(6)
_cell_angle_alpha 90
_cell_angle_beta 93.314(5)
_cell_angle_gamma 90
_cell_formula_units_Z 4
loop_
_atom_type_symbol
_atom_type_radius_bond
C 0.68
H 0.23
loop_
_atom_site_label
_atom_site_type_symbol
_atom_site_fract_x
_atom_site_fract_y
_atom_site_fract_z
C1 C 0.4448(3) 0.3348(1) 0.2543(2)
C2 C 0.4737(3) 0.2721(1) 0.2891(2)
C3 C 0.5541(3) 0.3800(1) 0.2319(2)
C4 C 0.3022(3) 0.3597(1) 0.2345(2)
C5 C 0.3219(3) 0.4250(1) 0.1934(2)
C6 C 0.4740(3) 0.4372(1) 0.1902(2)
C7 C 0.5255(3) 0.4952(1) 0.1524(2)
C8 C 0.4202(3) 0.5366(1) 0.1092(2)
C9 C 0.2673(3) 0.5242(1) 0.1130(2)
C10 C 0.2162(3) 0.4706(1) 0.1618(2)
C11 C 0.1870(3) 0.5777(1) 0.0622(2)
C12 C 0.2647(3) 0.6788(1) -0.0178(2)
C13 C 0.2950(3) 0.6214(1) 0.0325(2)
C14 C 0.4384(3) 0.5991(1) 0.0588(2)
C15 C 0.6230(3) 0.2554(1) 0.3054(2)
H1 H 0.6488(3) 0.2137(1) 0.3297(2)
C16 C 0.7294(3) 0.2993(2) 0.2872(2)
H2 H 0.8284(3) 0.2867(2) 0.3000(2)
C17 C 0.6970(3) 0.3615(1) 0.2497(2)
H3 H 0.7738(3) 0.3910(1) 0.2377(2)
C18 C 0.3500(3) 0.2324(1) 0.3034(2)
H4 H 0.3634(3) 0.1889(1) 0.3248(2)
C19 C 0.2120(3) 0.2561(1) 0.2860(2)
H5 H 0.1320(3) 0.2286(1) 0.2987(2)
C20 C 0.1857(3) 0.3198(1) 0.2516(2)
H6 H 0.0887(3) 0.3358(1) 0.2407(2)
C21 C 0.0430(3) 0.5923(1) 0.0365(2)
H7 H -0.0309(3) 0.5620(1) 0.0509(2)
C22 C 0.0099(3) 0.6497(1) -0.0156(2)
H8 H -0.0899(3) 0.6593(1) -0.0320(2)
C23 C 0.1152(3) 0.6920(1) -0.0405(2)
H9 H 0.0892(3) 0.7301(1) -0.0755(2)
C24 C 0.5535(3) 0.6368(1) 0.0329(2)
H10 H 0.6511(3) 0.6226(1) 0.0469(2)
C25 C 0.5261(3) 0.6958(1) -0.0162(2)
H11 H 0.6061(3) 0.7232(1) -0.0292(2)
C26 C 0.3875(3) 0.7169(1) -0.0401(2)
H12 H 0.3727(3) 0.7551(1) -0.0771(2)
C27 C 0.6834(3) 0.5154(1) 0.1627(2)
H13 H 0.7090(3) 0.5302(1) 0.1022(2)
H14 H 0.7449(3) 0.4800(1) 0.1822(2)
C28 C 0.7069(3) 0.5717(1) 0.2335(2)
H15 H 0.6586(3) 0.6092(1) 0.2078(2)
H16 H 0.8089(3) 0.5803(1) 0.2425(2)
C29 C 0.6533(3) 0.5587(1) 0.3322(2)
H17 H 0.7075(3) 0.5241(1) 0.3620(2)
H18 H 0.5531(3) 0.5466(1) 0.3242(2)
C30 C 0.6653(3) 0.6182(2) 0.3947(2)
H19 H 0.6127(3) 0.6524(2) 0.3630(2)
H20 H 0.7660(3) 0.6294(2) 0.4020(2)
C31 C 0.6051(4) 0.6109(2) 0.4924(2)
H21 H 0.6180(4) 0.6511(2) 0.5249(2)
H22 H 0.6608(4) 0.5781(2) 0.5252(2)
C32 C 0.4428(3) 0.5932(2) 0.4933(2)
H23 H 0.4163(3) 0.5899(2) 0.5572(2)
H24 H 0.4297(3) 0.5523(2) 0.4628(2)
C33 C 0.3391(3) 0.6413(1) 0.4428(2)
H25 H 0.3539(3) 0.6391(1) 0.3769(2)
H26 H 0.3645(3) 0.6834(1) 0.4659(2)
C34 C 0.1783(4) 0.6299(2) 0.4588(3)
H27 H 0.1241(4) 0.6608(2) 0.4212(3)
H28 H 0.1630(4) 0.6373(2) 0.5239(3)
C35 C 0.1177(3) 0.5631(2) 0.4321(2)
H29 H 0.0183(3) 0.5611(2) 0.4480(2)
H30 H 0.1728(3) 0.5312(2) 0.4671(2)
C36 C 0.1254(3) 0.5469(1) 0.3277(2)
H31 H 0.2251(3) 0.5468(1) 0.3124(2)
H32 H 0.0742(3) 0.5801(1) 0.2927(2)
C37 C 0.0602(3) 0.4812(1) 0.3001(2)
H33 H -0.0387(3) 0.4808(1) 0.3172(2)
H34 H 0.1132(3) 0.4479(1) 0.3337(2)
C38 C 0.0622(3) 0.4670(1) 0.1932(2)
H35 H 0.0211(3) 0.4253(1) 0.1801(2)
H36 H 0.0045(3) 0.4992(1) 0.1606(2)
loop_
_geom_bond_atom_site_label_1
_geom_bond_atom_site_label_2
_geom_bond_distance
_geom_bond_site_symmetry_1
_geom_bond_site_symmetry_2
C1 C2 1.400 1_555 1_555
C2 C15 1.414 1_555 1_555
C3 C1 1.414 1_555 1_555
C4 C1 1.414 1_555 1_555
C5 C4 1.478 1_555 1_555
C6 C3 1.489 1_555 1_555
C7 C6 1.400 1_555 1_555
C8 C7 1.399 1_555 1_555
C9 C8 1.426 1_555 1_555
C10 C5 1.401 1_555 1_555
C11 C9 1.485 1_555 1_555
C12 C13 1.397 1_555 1_555
C13 C11 1.417 1_555 1_555
C14 C8 1.483 1_555 1_555
C15 H1 0.949 1_555 1_555
C16 C15 1.363 1_555 1_555
H2 C16 0.949 1_555 1_555
C17 C3 1.371 1_555 1_555
H3 C17 0.951 1_555 1_555
C18 C2 1.419 1_555 1_555
H4 C18 0.950 1_555 1_555
C19 C18 1.362 1_555 1_555
H5 C19 0.950 1_555 1_555
C20 C4 1.377 1_555 1_555
H6 C20 0.951 1_555 1_555
C21 C11 1.379 1_555 1_555
H7 C21 0.950 1_555 1_555
C22 C21 1.415 1_555 1_555
H8 C22 0.950 1_555 1_555
C23 C12 1.413 1_555 1_555
H9 C23 0.949 1_555 1_555
C24 C14 1.374 1_555 1_555
H10 C24 0.949 1_555 1_555
C25 C24 1.413 1_555 1_555
H11 C25 0.950 1_555 1_555
C26 C12 1.420 1_555 1_555
H12 C26 0.949 1_555 1_555
C27 C7 1.502 1_555 1_555
H13 C27 0.949 1_555 1_555
H14 C27 0.951 1_555 1_555
C28 C27 1.537 1_555 1_555
H15 C28 0.950 1_555 1_555
H16 C28 0.951 1_555 1_555
C29 C28 1.528 1_555 1_555
H17 C29 0.951 1_555 1_555
H18 C29 0.950 1_555 1_555
C30 C29 1.509 1_555 1_555
H19 C30 0.950 1_555 1_555
H20 C30 0.949 1_555 1_555
C31 C30 1.523 1_555 1_555
H21 C31 0.950 1_555 1_555
H22 C31 0.950 1_555 1_555
C32 C31 1.529 1_555 1_555
H23 C32 0.951 1_555 1_555
H24 C32 0.950 1_555 1_555
C33 C32 1.520 1_555 1_555
H25 C33 0.950 1_555 1_555
H26 C33 0.949 1_555 1_555
C34 C33 1.519 1_555 1_555
H27 C34 0.949 1_555 1_555
H28 C34 0.951 1_555 1_555
C35 C34 1.521 1_555 1_555
H29 C35 0.950 1_555 1_555
H30 C35 0.949 1_555 1_555
C36 C35 1.518 1_555 1_555
H31 C36 0.949 1_555 1_555
H32 C36 0.950 1_555 1_555
C37 C36 1.519 1_555 1_555
H33 C37 0.950 1_555 1_555
H34 C37 0.950 1_555 1_555
C38 C10 1.503 1_555 1_555
H35 C38 0.950 1_555 1_555
H36 C38 0.949 1_555 1_555
C5 C6 1.417 1_555 1_555
C9 C10 1.395 1_555 1_555
C13 C14 1.419 1_555 1_555
C16 C17 1.410 1_555 1_555
C19 C20 1.413 1_555 1_555
C22 C23 1.359 1_555 1_555
C25 C26 1.364 1_555 1_555
C37 C38 1.539 1_555 1_555
#END
