
#######################################################################
#
#                 Cambridge Crystallographic Data Centre
#                                CCDC
#
#######################################################################
#
# If this CIF has been generated from an entry in the Cambridge
# Structural Database, then it will include bibliographic, chemical,
# crystal, experimental, refinement or atomic coordinate data resulting
# from the CCDC's data processing and validation procedures.
#
#######################################################################

data_CSD_CIF_PIVCAZ
_audit_creation_date 2008-06-16
_audit_creation_method CSD-ConQuest-V1
_database_code_CSD PIVCAZ
_database_code_depnum_ccdc_archive 'CCDC 677822'
_chemical_formula_sum 'C28 H26'
_chemical_formula_moiety
;
C28 H26
;
_journal_coden_Cambridge 4
_journal_volume 129
_journal_year 2007
_journal_page_first 15752
_journal_name_full 'J.Am.Chem.Soc. '
loop_
_publ_author_name
"T.Takahashi"
"K.Kashima"
"S.Li"
"K.Nakajima"
"K.Kanno"
_chemical_name_systematic
;
6,13-Dipropylpentacene
;
_cell_volume    972.292
_exptl_crystal_colour 'brown'
_exptl_crystal_density_diffrn 1.238
_exptl_crystal_description 'Prism'
_exptl_crystal_preparation 'hexane'
_diffrn_ambient_temperature 298.1
#These two values have been output from a single CSD field.
_refine_ls_R_factor_gt 0.0998
_refine_ls_wR_factor_gt 0.0998
_symmetry_cell_setting monoclinic
_symmetry_space_group_name_H-M 'P 21/n'
_symmetry_Int_Tables_number 14
loop_
_symmetry_equiv_pos_site_id
_symmetry_equiv_pos_as_xyz
1 x,y,z
2 1/2-x,1/2+y,1/2-z
3 -x,-y,-z
4 -1/2+x,-1/2-y,-1/2+z
_cell_length_a 11.394(2)
_cell_length_b 5.1116(11)
_cell_length_c 16.983(4)
_cell_angle_alpha 90
_cell_angle_beta 100.583(5)
_cell_angle_gamma 90
_cell_formula_units_Z 2
loop_
_atom_type_symbol
_atom_type_radius_bond
C 0.68
H 0.23
loop_
_atom_site_label
_atom_site_type_symbol
_atom_site_fract_x
_atom_site_fract_y
_atom_site_fract_z
C1 C 1.0527(3) 0.0556(7) 0.9311(2)
C2 C 0.9515(3) 0.1931(7) 0.9428(2)
C3 C 0.8962(3) 0.3884(7) 0.8881(2)
C4 C 0.7988(3) 0.5311(7) 0.8994(2)
C5 C 0.7463(4) 0.7292(8) 0.8443(2)
C6 C 0.6526(4) 0.8726(9) 0.8588(2)
C7 C 0.6017(4) 0.8219(9) 0.9282(2)
C8 C 0.6477(3) 0.6375(8) 0.9809(2)
C9 C 0.7474(3) 0.4862(7) 0.9696(2)
C10 C 0.7966(3) 0.2954(8) 1.0233(2)
C11 C 1.1024(3) -0.1429(7) 0.9864(2)
C12 C 1.1109(4) 0.1050(9) 0.8588(2)
C13 C 1.0596(5) -0.0619(9) 0.7861(2)
C14 C 1.1188(6) -0.0095(13) 0.7143(3)
H1 H 0.933(2) 0.413(5) 0.8398(17)
H2 H 0.782(2) 0.767(5) 0.7970(19)
H3 H 0.619(2) 1.000(5) 0.8216(17)
H4 H 0.528(3) 0.927(6) 0.934(2)
H5 H 0.620(2) 0.586(5) 1.0311(17)
H6 H 0.760(2) 0.253(4) 1.0753(16)
H7 H 1.094(2) 0.288(5) 0.8422(16)
H8 H 1.201(3) 0.073(7) 0.869(2)
H9 H 0.956(5) -0.034(8) 0.764(2)
H10 H 1.069(2) -0.233(6) 0.8052(18)
H11 H 1.106(4) 0.188(9) 0.692(2)
H12 H 1.203(3) -0.025(8) 0.726(2)
H13 H 1.088(3) -0.143(8) 0.665(3)
C1B C 0.9473(3) -0.0556(7) 1.0689(2)
C2B C 1.0485(3) -0.1931(7) 1.0572(2)
C3B C 1.1038(3) -0.3884(7) 1.1119(2)
C4B C 1.2012(3) -0.5311(7) 1.1006(2)
C5B C 1.2537(4) -0.7292(8) 1.1557(2)
C6B C 1.3474(4) -0.8726(9) 1.1412(2)
C7B C 1.3983(4) -0.8219(9) 1.0718(2)
C8B C 1.3523(3) -0.6375(8) 1.0191(2)
C9B C 1.2526(3) -0.4862(7) 1.0304(2)
C10B C 1.2034(3) -0.2954(8) 0.9767(2)
C11B C 0.8976(3) 0.1429(7) 1.0136(2)
C12B C 0.8891(4) -0.1050(9) 1.1412(2)
C13B C 0.9404(5) 0.0619(9) 1.2139(2)
C14B C 0.8812(6) 0.0095(13) 1.2857(3)
H1B H 1.067(2) -0.413(5) 1.1602(17)
H2B H 1.218(2) -0.767(5) 1.2030(19)
H3B H 1.381(2) -1.000(5) 1.1784(17)
H4B H 1.472(3) -0.927(6) 1.066(2)
H5B H 1.380(2) -0.586(5) 0.9689(17)
H6B H 1.240(2) -0.253(4) 0.9247(16)
H7B H 0.906(2) -0.288(5) 1.1578(16)
H8B H 0.799(3) -0.073(7) 1.131(2)
H9B H 1.044(5) 0.034(8) 1.236(2)
H10B H 0.931(2) 0.233(6) 1.1948(18)
H11B H 0.894(4) -0.188(9) 1.308(2)
H12B H 0.797(3) 0.025(8) 1.274(2)
H13B H 0.912(3) 0.143(8) 1.335(3)
loop_
_geom_bond_atom_site_label_1
_geom_bond_atom_site_label_2
_geom_bond_distance
_geom_bond_site_symmetry_1
_geom_bond_site_symmetry_2
C1 C2 1.395 1_555 1_555
C2 C3 1.429 1_555 1_555
C3 C4 1.371 1_555 1_555
C4 C5 1.433 1_555 1_555
C5 C6 1.354 1_555 1_555
C6 C7 1.430 1_555 1_555
C7 C8 1.339 1_555 1_555
C8 C9 1.416 1_555 1_555
C9 C4 1.440 1_555 1_555
C10 C9 1.382 1_555 1_555
C11 C1 1.427 1_555 1_555
C12 C1 1.520 1_555 1_555
C13 C12 1.526 1_555 1_555
C14 C13 1.522 1_555 1_555
H1 C3 0.995 1_555 1_555
H2 C5 0.984 1_555 1_555
H3 C6 0.939 1_555 1_555
H4 C7 1.017 1_555 1_555
H5 C8 0.997 1_555 1_555
H6 C10 1.066 1_555 1_555
H7 C12 0.986 1_555 1_555
H8 C12 1.022 1_555 1_555
H9 C13 1.180 1_555 1_555
H10 C13 0.932 1_555 1_555
H11 C14 1.079 1_555 1_555
H12 C14 0.947 1_555 1_555
H13 C14 1.087 1_555 1_555
C1B C2B 1.395 1_555 1_555
C2B C11 1.470 1_555 1_555
C3B C2B 1.429 1_555 1_555
C4B C3B 1.371 1_555 1_555
C5B C4B 1.433 1_555 1_555
C6B C5B 1.354 1_555 1_555
C7B C6B 1.430 1_555 1_555
C8B C7B 1.339 1_555 1_555
C9B C4B 1.440 1_555 1_555
C10B C11 1.424 1_555 1_555
C11B C2 1.470 1_555 1_555
C12B C1B 1.520 1_555 1_555
C13B C12B 1.526 1_555 1_555
C14B C13B 1.522 1_555 1_555
H1B C3B 0.995 1_555 1_555
H2B C5B 0.984 1_555 1_555
H3B C6B 0.939 1_555 1_555
H4B C7B 1.017 1_555 1_555
H5B C8B 0.997 1_555 1_555
H6B C10B 1.066 1_555 1_555
H7B C12B 0.986 1_555 1_555
H8B C12B 1.022 1_555 1_555
H9B C13B 1.180 1_555 1_555
H10B C13B 0.932 1_555 1_555
H11B C14B 1.079 1_555 1_555
H12B C14B 0.947 1_555 1_555
H13B C14B 1.087 1_555 1_555
C10 C11B 1.424 1_555 1_555
C1B C11B 1.427 1_555 1_555
C8B C9B 1.416 1_555 1_555
C9B C10B 1.382 1_555 1_555
#END
