
#######################################################################
#
#                 Cambridge Crystallographic Data Centre
#                                CCDC
#
#######################################################################
#
# If this CIF has been generated from an entry in the Cambridge
# Structural Database, then it will include bibliographic, chemical,
# crystal, experimental, refinement or atomic coordinate data resulting
# from the CCDC's data processing and validation procedures.
#
#######################################################################

data_CSD_CIF_PIYQET
_audit_creation_date 1998-11-19
_audit_creation_method CSD-ConQuest-V1
_database_code_CSD PIYQET
_chemical_formula_sum 'C24 H18'
_chemical_formula_moiety
;
C24 H18
;
_journal_coden_Cambridge 35
_journal_volume 62
_journal_year 1997
_journal_page_first 6476
_journal_name_full 'J.Org.Chem. '
loop_
_publ_author_name
"M.Ashram"
"D.O.Miller"
"J.N.Bridson"
"P.E.Georghiou"
_chemical_name_systematic
;
1,2,6,7-Tetrahydrodibenzo(d,k)pyrene
;
_chemical_melting_point 523.15
_cell_volume   2380.048
_exptl_crystal_colour 'yellow'
_exptl_crystal_density_diffrn 1.283
_exptl_special_details
;
Melting point range 523.15-525.15K

;
_diffrn_ambient_temperature ?
_diffrn_special_details
;
The study was carried out at room temperature,in the range 283-303K

;
#These two values have been output from a single CSD field.
_refine_ls_R_factor_gt 0.03
_refine_ls_wR_factor_gt 0.03
_symmetry_cell_setting monoclinic
_symmetry_space_group_name_H-M 'P 21'
_symmetry_Int_Tables_number 4
loop_
_symmetry_equiv_pos_site_id
_symmetry_equiv_pos_as_xyz
1 x,y,z
2 -x,1/2+y,-z
_cell_length_a 11.229(5)
_cell_length_b 15.31(1)
_cell_length_c 14.338(4)
_cell_angle_alpha 90
_cell_angle_beta 105.08(3)
_cell_angle_gamma 90
_cell_formula_units_Z 6
loop_
_atom_type_symbol
_atom_type_radius_bond
C 0.68
H 0.23
loop_
_atom_site_label
_atom_site_type_symbol
_atom_site_fract_x
_atom_site_fract_y
_atom_site_fract_z
C1 C 0.16980 0.90010 0.72380
C2 C 0.34980 0.64250 0.75920
C3 C 0.46950 1.18500 0.65160
C4 C 0.24940 0.82260 0.76350
C5 C 0.39320 0.56060 0.75670
C6 C 0.43800 1.26770 0.67120
C7 C 0.38190 0.71260 0.70460
C8 C 0.47280 0.54120 0.69830
C9 C 0.33620 1.28490 0.70270
C10 C 0.46390 0.69250 0.64840
C11 C 0.50670 0.60580 0.64400
C12 C 0.25630 1.21930 0.71440
C13 C 0.50260 0.76270 0.59630
C14 C 0.50730 0.92080 0.54760
C15 C 0.53060 1.00210 0.60890
C16 C 0.39260 1.11440 0.66470
C17 C 0.28710 1.13150 0.69730
C18 C 0.21310 1.06050 0.71600
C19 C 0.24480 0.97520 0.70270
C20 C 0.33920 0.80040 0.70710
C21 C 0.46680 0.84660 0.60070
C22 C 0.42030 1.02520 0.64540
C23 C 0.34860 0.95830 0.66700
C24 C 0.38300 0.86520 0.65760
H1 H 0.12350 0.91690 0.76500
H2 H 0.11240 0.89240 0.66540
H3 H 0.27650 0.65540 0.79390
H4 H 0.55150 1.17300 0.63190
H5 H 0.29630 0.82730 0.83080
H6 H 0.19080 0.76810 0.76190
H7 H 0.36820 0.50560 0.79160
H8 H 0.50270 1.31000 0.66390
H9 H 0.50710 0.47850 0.69090
H10 H 0.31250 1.34130 0.72320
H11 H 0.57490 0.59710 0.60510
H12 H 0.19590 1.23590 0.75050
H13 H 0.56760 0.74390 0.55200
H14 H 0.58710 0.90130 0.53590
H15 H 0.44010 0.92690 0.48200
H16 H 0.54650 1.06470 0.56980
H17 H 0.60190 0.98870 0.66500
H18 H 0.13400 1.07370 0.73910
C25 C 0.0777(5) 0.5489(4) 0.5133(3)
C26 C 0.1647(5) 0.2793(5) 0.4536(4)
C27 C 0.2115(5) 0.8165(4) 0.2758(4)
C28 C 0.1521(5) 0.4670(4) 0.5117(4)
C29 C 0.1720(6) 0.1948(5) 0.4282(5)
C30 C 0.2139(5) 0.9010(4) 0.3057(5)
C31 C 0.1574(5) 0.3479(4) 0.3851(5)
C32 C 0.1783(5) 0.1715(4) 0.3345(5)
C33 C 0.1824(6) 0.9227(4) 0.3902(5)
C34 C 0.1609(5) 0.3255(4) 0.2908(4)
C35 C 0.1734(5) 0.2368(4) 0.2672(4)
C36 C 0.1500(6) 0.8631(4) 0.4446(4)
C37 C 0.1491(5) 0.3927(4) 0.2199(4)
C38 C 0.1187(5) 0.5487(4) 0.1690(3)
C39 C 0.1912(5) 0.6310(4) 0.2099(4)
C40 C 0.1747(5) 0.7489(4) 0.3309(4)
C41 C 0.1481(5) 0.7720(4) 0.4185(4)
C42 C 0.1135(5) 0.7071(4) 0.4773(4)
C43 C 0.1135(5) 0.6204(4) 0.4519(4)
C44 C 0.1473(5) 0.4390(4) 0.4106(4)
C45 C 0.1376(4) 0.4769(4) 0.2434(4)
C46 C 0.1674(5) 0.6582(4) 0.3036(4)
C47 C 0.1390(4) 0.5949(4) 0.3637(4)
C48 C 0.1387(4) 0.5016(4) 0.3398(4)
H19 H 0.08810 0.57450 0.58110
H20 H 0.15780 0.29380 0.51900
H21 H -0.00600 0.54030 0.49260
H22 H 0.23260 0.80780 0.21330
H23 H 0.12560 0.41770 0.54970
H24 H 0.18270 0.14610 0.47390
H25 H 0.23590 0.47320 0.55000
H26 H 0.23750 0.93920 0.26530
H27 H 0.17950 0.11090 0.31620
H28 H 0.18950 0.99010 0.41120
H29 H 0.17270 0.22000 0.20120
H30 H 0.13500 0.87250 0.51010
H31 H 0.15970 0.37800 0.15170
H32 H 0.14100 0.52780 0.11030
H33 H 0.03090 0.56360 0.14640
H34 H 0.16430 0.67970 0.16380
H35 H 0.27960 0.61470 0.21790
H36 H 0.09910 0.72480 0.54420
C49 C 0.49890 0.03570 0.93320
C50 C 0.63710 -0.23100 0.92820
C51 C 0.86940 0.30050 1.02880
C52 C 0.55170 -0.04800 0.90130
C53 C 0.67750 -0.31610 0.93920
C54 C 0.84070 0.38520 0.99860
C55 C 0.70480 -0.16400 0.98560
C56 C 0.78410 -0.33860 1.00900
C57 C 0.72000 0.40650 0.94830
C58 C 0.81530 -0.18730 1.05520
C59 C 0.85090 -0.27520 1.06600
C60 C 0.62930 0.34560 0.92850
C61 C 0.88600 -0.12030 1.11350
C62 C 0.92370 0.03820 1.15970
C63 C 0.93040 0.11810 1.09820
C64 C 0.77740 0.23510 1.00980
C65 C 0.65730 0.25710 0.95790
C66 C 0.56400 0.19250 0.93430
C67 C 0.59210 0.10820 0.95820
C68 C 0.66860 -0.07430 0.97620
C69 C 0.85090 -0.03500 1.10120
C70 C 0.80470 0.14510 1.04030
C71 C 0.71330 0.08320 1.01190
C72 C 0.74170 -0.01050 1.03090
H37 H 0.46430 0.02690 0.98990
H38 H 0.55940 -0.21550 0.87850
H39 H 0.42990 0.05500 0.88110
H40 H 0.95750 0.28460 1.07000
H41 H 0.56800 -0.04340 0.83900
H42 H 0.49320 -0.09680 0.89150
H43 H 0.62370 -0.36250 0.89270
H44 H 0.90720 0.43250 1.01140
H45 H 0.81070 -0.40530 1.01930
H46 H 0.69840 0.46990 0.92830
H47 H 0.92810 -0.29010 1.11410
H48 H 0.54640 0.35990 0.89410
H49 H 0.95650 -0.13470 1.16230
H50 H 0.88690 0.05370 1.21240
H51 H 1.01190 0.02320 1.19150
H52 H 0.98430 0.10490 1.05580
H53 H 0.97790 0.16970 1.14480
H54 H 0.47920 0.21020 0.89520
loop_
_geom_bond_atom_site_label_1
_geom_bond_atom_site_label_2
_geom_bond_distance
_geom_bond_site_symmetry_1
_geom_bond_site_symmetry_2
C1 C4 1.505 1_555 1_555
C2 C5 1.349 1_555 1_555
C3 C6 1.363 1_555 1_555
C4 C20 1.487 1_555 1_555
C5 C8 1.406 1_555 1_555
C6 C9 1.360 1_555 1_555
C7 C2 1.429 1_555 1_555
C8 C11 1.372 1_555 1_555
C9 C12 1.386 1_555 1_555
C10 C7 1.406 1_555 1_555
C11 C10 1.419 1_555 1_555
C12 C17 1.425 1_555 1_555
C13 C10 1.439 1_555 1_555
C14 C15 1.507 1_555 1_555
C15 C22 1.507 1_555 1_555
C16 C3 1.426 1_555 1_555
C17 C16 1.407 1_555 1_555
C18 C17 1.435 1_555 1_555
C19 C1 1.502 1_555 1_555
C20 C7 1.431 1_555 1_555
C21 C13 1.352 1_555 1_555
C22 C16 1.443 1_555 1_555
C23 C19 1.413 1_555 1_555
C24 C20 1.383 1_555 1_555
H1 C1 0.919 1_555 1_555
H2 C1 0.922 1_555 1_555
H3 C2 1.085 1_555 1_555
H4 C3 1.047 1_555 1_555
H5 C4 0.974 1_555 1_555
H6 C4 1.059 1_555 1_555
H7 C5 1.054 1_555 1_555
H8 C6 0.999 1_555 1_555
H9 C8 1.050 1_555 1_555
H10 C9 0.971 1_555 1_555
H11 C11 1.067 1_555 1_555
H12 C12 0.988 1_555 1_555
H13 C13 1.123 1_555 1_555
H14 C14 0.999 1_555 1_555
H15 C14 1.046 1_555 1_555
H16 C15 1.148 1_555 1_555
H17 C15 0.997 1_555 1_555
H18 C18 1.045 1_555 1_555
C25 C28 1.510 1_555 1_555
C26 C29 1.352 1_555 1_555
C27 C30 1.361 1_555 1_555
C28 C44 1.499 1_555 1_555
C29 C32 1.409 1_555 1_555
C30 C33 1.388 1_555 1_555
C31 C26 1.426 1_555 1_555
C32 C35 1.381 1_555 1_555
C33 C36 1.312 1_555 1_555
C34 C31 1.405 1_555 1_555
C35 C34 1.415 1_555 1_555
C36 C41 1.443 1_555 1_555
C37 C34 1.428 1_555 1_555
C38 C39 1.532 1_555 1_555
C39 C46 1.496 1_555 1_555
C40 C27 1.427 1_555 1_555
C41 C40 1.410 1_555 1_555
C42 C41 1.421 1_555 1_555
C43 C25 1.523 1_555 1_555
C44 C31 1.454 1_555 1_555
C45 C37 1.347 1_555 1_555
C46 C40 1.439 1_555 1_555
C47 C43 1.422 1_555 1_555
C48 C44 1.381 1_555 1_555
H19 C25 1.026 1_555 1_555
H20 C26 0.986 1_555 1_555
H21 C25 0.918 1_555 1_555
H22 C27 0.994 1_555 1_555
H23 C28 1.020 1_555 1_555
H24 C29 0.979 1_555 1_555
H25 C28 0.963 1_555 1_555
H26 C30 0.910 1_555 1_555
H27 C32 0.965 1_555 1_555
H28 C33 1.072 1_555 1_555
H29 C35 0.979 1_555 1_555
H30 C36 1.007 1_555 1_555
H31 C37 1.040 1_555 1_555
H32 C38 0.992 1_555 1_555
H33 C38 0.981 1_555 1_555
H34 C39 0.990 1_555 1_555
H35 C39 1.001 1_555 1_555
H36 C42 1.049 1_555 1_555
C49 C52 1.531 1_555 1_555
C50 C53 1.375 1_555 1_555
C51 C54 1.379 1_555 1_555
C52 C68 1.518 1_555 1_555
C53 C56 1.389 1_555 1_555
C54 C57 1.398 1_555 1_555
C55 C50 1.408 1_555 1_555
C56 C59 1.362 1_555 1_555
C57 C60 1.355 1_555 1_555
C58 C55 1.421 1_555 1_555
C59 C58 1.401 1_555 1_555
C60 C65 1.429 1_555 1_555
C61 C58 1.427 1_555 1_555
C62 C63 1.521 1_555 1_555
C63 C70 1.498 1_555 1_555
C64 C51 1.413 1_555 1_555
C65 C64 1.401 1_555 1_555
C66 C65 1.416 1_555 1_555
C67 C49 1.504 1_555 1_555
C68 C55 1.429 1_555 1_555
C69 C61 1.362 1_555 1_555
C70 C64 1.454 1_555 1_555
C71 C67 1.430 1_555 1_555
C72 C68 1.381 1_555 1_555
H37 C49 0.997 1_555 1_555
H38 C50 1.001 1_555 1_555
H39 C49 0.972 1_555 1_555
H40 C51 1.041 1_555 1_555
H41 C52 0.960 1_555 1_555
H42 C52 0.981 1_555 1_555
H43 C53 1.051 1_555 1_555
H44 C54 1.022 1_555 1_555
H45 C56 1.063 1_555 1_555
H46 C57 1.023 1_555 1_555
H47 C59 0.984 1_555 1_555
H48 C60 0.959 1_555 1_555
H49 C61 0.936 1_555 1_555
H50 C62 0.980 1_555 1_555
H51 C62 1.003 1_555 1_555
H52 C63 0.984 1_555 1_555
H53 C63 1.081 1_555 1_555
H54 C66 1.008 1_555 1_555
C14 C21 1.502 1_555 1_555
C18 C19 1.380 1_555 1_555
C21 C24 1.425 1_555 1_555
C22 C23 1.387 1_555 1_555
C23 C24 1.492 1_555 1_555
C38 C45 1.508 1_555 1_555
C42 C43 1.376 1_555 1_555
C45 C48 1.430 1_555 1_555
C46 C47 1.388 1_555 1_555
C47 C48 1.469 1_555 1_555
C62 C69 1.507 1_555 1_555
C66 C67 1.351 1_555 1_555
C69 C72 1.420 1_555 1_555
C70 C71 1.378 1_555 1_555
C71 C72 1.479 1_555 1_555
#END
