
#######################################################################
#
#                 Cambridge Crystallographic Data Centre
#                                CCDC
#
#######################################################################
#
# If this CIF has been generated from an entry in the Cambridge
# Structural Database, then it will include bibliographic, chemical,
# crystal, experimental, refinement or atomic coordinate data resulting
# from the CCDC's data processing and validation procedures.
#
#######################################################################

data_CSD_CIF_POBPIG
_audit_creation_date 2008-10-16
_audit_creation_method CSD-ConQuest-V1
_database_code_CSD POBPIG
_database_code_depnum_ccdc_archive 'CCDC 642476'
_chemical_formula_sum 'C32 H16'
_chemical_formula_moiety
;
C32 H16
;
_journal_coden_Cambridge 983
_journal_volume 111
_journal_year 2007
_journal_page_first 18878
_journal_name_full 'J.Phys.Chem.C '
loop_
_publ_author_name
"M.A.Heinrich"
"J.Pflaum"
"A.K.Tripathi"
"W.Frey"
"M.L.Steigerwald"
"T.Siegrist"
_chemical_name_systematic
;
diindeno[1,2,3-cd:1',2',3'-lm]perylene
;
_chemical_name_common
;
di-indenoperylene
;
_cell_volume   1916.895
_exptl_crystal_colour 'red'
_exptl_crystal_density_diffrn 1.388
_exptl_special_details
;
alpha polymorph
phase transition at 403 K to beta polymorph

;
_exptl_crystal_description 'platelet'
_diffrn_ambient_temperature 110
#These two values have been output from a single CSD field.
_refine_ls_R_factor_gt 0.0426
_refine_ls_wR_factor_gt 0.0426
_symmetry_cell_setting triclinic
_symmetry_space_group_name_H-M 'P -1'
_symmetry_Int_Tables_number 2
loop_
_symmetry_equiv_pos_site_id
_symmetry_equiv_pos_as_xyz
1 x,y,z
2 -x,-y,-z
_cell_length_a 11.4616(6)
_cell_length_b 12.8653(7)
_cell_length_c 14.7649(7)
_cell_angle_alpha 97.696(4)
_cell_angle_beta 98.263(4)
_cell_angle_gamma 114.376(5)
_cell_formula_units_Z 4
loop_
_atom_type_symbol
_atom_type_radius_bond
C 0.68
H 0.23
loop_
_atom_site_label
_atom_site_type_symbol
_atom_site_fract_x
_atom_site_fract_y
_atom_site_fract_z
C1 C 0.25465(11) 0.87145(10) 0.66336(8)
C2 C 0.25361(11) 0.94047(10) 0.74357(8)
C3 C 0.13963(12) 0.92176(10) 0.77882(8)
C4 C 0.17876(12) 1.02201(11) 0.85671(9)
C5 C 0.31549(12) 1.09472(11) 0.86801(9)
C6 C 0.36436(12) 1.04205(10) 0.79673(8)
C7 C 0.48228(12) 1.07037(11) 0.77058(9)
C8 C 0.48666(11) 1.00097(10) 0.68954(8)
C9 C 0.37631(11) 0.90461(10) 0.63411(8)
C10 C 0.37542(11) 0.83696(10) 0.54619(8)
C11 C 0.25294(11) 0.74209(10) 0.49606(8)
C12 C 0.25109(11) 0.68034(10) 0.41066(8)
C13 C 0.36330(12) 0.70416(10) 0.37207(8)
C14 C 0.31855(13) 0.61891(11) 0.28244(9)
C15 C 0.18094(13) 0.54743(11) 0.26973(9)
C16 C 0.13751(12) 0.58652(10) 0.35177(8)
C17 C 0.02066(12) 0.55522(10) 0.38027(9)
C18 C 0.01934(11) 0.61602(10) 0.46727(9)
C19 C 0.13152(11) 0.70711(10) 0.52609(8)
C20 C 0.13318(11) 0.77393(10) 0.61498(8)
C21 C 0.02305(11) 0.75197(10) 0.65336(9)
C22 C 0.02449(12) 0.82530(11) 0.73452(9)
C23 C 0.11270(13) 0.46020(11) 0.18928(9)
C24 C 0.18199(15) 0.44443(12) 0.12255(10)
C25 C 0.31658(15) 0.51326(12) 0.13575(10)
C26 C 0.38586(13) 0.60128(11) 0.21590(9)
C27 C 0.48064(12) 0.79486(11) 0.42073(9)
C28 C 0.48500(11) 0.8606(1) 0.50655(9)
C29 C 0.37709(13) 1.19950(11) 0.93366(9)
C30 C 0.30190(14) 1.23241(12) 0.98722(9)
C31 C 0.16859(14) 1.16188(12) 0.97613(9)
C32 C 0.10558(13) 1.05587(12) 0.91094(9)
C33 C 0.23205(11) 0.14428(10) 0.40016(8)
C34 C 0.21670(11) 0.0627(1) 0.32222(8)
C35 C 0.16145(11) -0.05922(10) 0.31689(8)
C36 C 0.16278(12) -0.11283(11) 0.22260(9)
C37 C 0.22233(12) -0.02087(11) 0.17542(9)
C38 C 0.25602(11) 0.09129(10) 0.23876(8)
C39 C 0.31181(12) 0.20751(11) 0.23416(9)
C40 C 0.32648(11) 0.29257(10) 0.31210(8)
C41 C 0.28834(11) 0.26461(10) 0.39469(8)
C42 C 0.30236(11) 0.35015(10) 0.47661(8)
C43 C 0.26387(11) 0.30756(10) 0.55741(8)
C44 C 0.27969(11) 0.38933(10) 0.63581(8)
C45 C 0.32935(11) 0.51046(10) 0.63969(8)
C46 C 0.32527(12) 0.56303(11) 0.73316(9)
C47 C 0.27341(12) 0.47167(11) 0.78239(9)
C48 C 0.24523(11) 0.36053(11) 0.72049(8)
C49 C 0.19538(12) 0.24490(11) 0.72695(8)
C50 C 0.17882(12) 0.16014(10) 0.64844(8)
C51 C 0.20935(11) 0.18721(10) 0.56368(8)
C52 C 0.19043(11) 0.10114(10) 0.48059(8)
C53 C 0.13701(11) -0.01902(10) 0.47508(8)
C54 C 0.12135(12) -0.09998(10) 0.39393(9)
C55 C 0.25421(13) 0.49687(12) 0.87179(9)
C56 C 0.28710(14) 0.61241(12) 0.91243(9)
C57 C 0.33848(13) 0.70147(12) 0.86473(10)
C58 C 0.35789(12) 0.67779(11) 0.77468(9)
C59 C 0.36556(11) 0.55099(10) 0.56117(9)
C60 C 0.35097(11) 0.47022(10) 0.48082(8)
C61 C 0.23676(13) -0.04764(12) 0.08430(9)
C62 C 0.19076(14) -0.16483(12) 0.04080(9)
C63 C 0.13283(14) -0.25350(12) 0.08719(10)
C64 C 0.11859(13) -0.22877(11) 0.17876(9)
H1 H 0.56440 1.14090 0.80750
H2 H 0.57340 1.02270 0.66930
H3 H -0.06410 0.48810 0.34110
H4 H -0.06700 0.58700 0.48730
H5 H -0.06070 0.68000 0.62300
H6 H -0.05940 0.80610 0.75930
H7 H 0.01500 0.40870 0.17820
H8 H 0.13370 0.38160 0.06390
H9 H 0.36630 0.50140 0.08580
H10 H 0.48430 0.65170 0.22280
H11 H 0.56400 0.81910 0.39580
H12 H 0.56900 0.92810 0.54140
H13 H 0.47630 1.25250 0.94350
H14 H 0.34500 1.30600 1.03640
H15 H 0.11620 1.18730 1.01530
H16 H 0.00790 1.00230 0.90210
H17 H 0.34190 0.23400 0.17920
H18 H 0.36570 0.37610 0.30650
H19 H 0.16960 0.22180 0.78680
H20 H 0.13940 0.07540 0.65430
H21 H 0.10680 -0.05300 0.53050
H22 H 0.07940 -0.18620 0.39390
H23 H 0.22220 0.43440 0.90690
H24 H 0.27450 0.63120 0.97740
H25 H 0.36390 0.78460 0.89520
H26 H 0.39600 0.74270 0.73950
H27 H 0.40500 0.63820 0.55950
H28 H 0.38020 0.50280 0.42440
H29 H 0.27890 0.01620 0.05350
H30 H 0.20300 -0.18230 -0.02750
H31 H 0.10270 -0.33610 0.05530
H32 H 0.07560 -0.29290 0.21350
loop_
_geom_bond_atom_site_label_1
_geom_bond_atom_site_label_2
_geom_bond_distance
_geom_bond_site_symmetry_1
_geom_bond_site_symmetry_2
C1 C2 1.386 1_555 1_555
C2 C3 1.416 1_555 1_555
C3 C4 1.471 1_555 1_555
C4 C5 1.425 1_555 1_555
C5 C6 1.474 1_555 1_555
C6 C2 1.416 1_555 1_555
C7 C6 1.375 1_555 1_555
C8 C7 1.414 1_555 1_555
C9 C1 1.430 1_555 1_555
C10 C9 1.459 1_555 1_555
C11 C10 1.433 1_555 1_555
C12 C11 1.390 1_555 1_555
C13 C12 1.416 1_555 1_555
C14 C13 1.473 1_555 1_555
C15 C14 1.428 1_555 1_555
C16 C12 1.416 1_555 1_555
C17 C16 1.377 1_555 1_555
C18 C17 1.417 1_555 1_555
C19 C11 1.432 1_555 1_555
C20 C1 1.434 1_555 1_555
C21 C20 1.396 1_555 1_555
C22 C3 1.376 1_555 1_555
C23 C15 1.391 1_555 1_555
C24 C23 1.395 1_555 1_555
C25 C24 1.393 1_555 1_555
C26 C14 1.384 1_555 1_555
C27 C13 1.374 1_555 1_555
C28 C10 1.399 1_555 1_555
C29 C5 1.387 1_555 1_555
C30 C29 1.398 1_555 1_555
C31 C30 1.389 1_555 1_555
C32 C4 1.391 1_555 1_555
C33 C34 1.387 1_555 1_555
C34 C35 1.414 1_555 1_555
C35 C36 1.474 1_555 1_555
C36 C37 1.429 1_555 1_555
C37 C38 1.477 1_555 1_555
C38 C34 1.415 1_555 1_555
C39 C38 1.378 1_555 1_555
C40 C39 1.416 1_555 1_555
C41 C33 1.429 1_555 1_555
C42 C41 1.463 1_555 1_555
C43 C42 1.430 1_555 1_555
C44 C43 1.391 1_555 1_555
C45 C44 1.411 1_555 1_555
C46 C45 1.469 1_555 1_555
C47 C46 1.428 1_555 1_555
C48 C44 1.415 1_555 1_555
C49 C48 1.379 1_555 1_555
C50 C49 1.413 1_555 1_555
C51 C43 1.433 1_555 1_555
C52 C33 1.438 1_555 1_555
C53 C52 1.394 1_555 1_555
C54 C35 1.375 1_555 1_555
C55 C47 1.387 1_555 1_555
C56 C55 1.395 1_555 1_555
C57 C56 1.391 1_555 1_555
C58 C46 1.390 1_555 1_555
C59 C45 1.382 1_555 1_555
C60 C42 1.398 1_555 1_555
C61 C37 1.394 1_555 1_555
C62 C61 1.397 1_555 1_555
C63 C62 1.388 1_555 1_555
C64 C36 1.387 1_555 1_555
H1 C7 1.011 1_555 1_555
H2 C8 1.017 1_555 1_555
H3 C17 1.018 1_555 1_555
H4 C18 1.007 1_555 1_555
H5 C21 1.006 1_555 1_555
H6 C22 1.024 1_555 1_555
H7 C23 1.013 1_555 1_555
H8 C24 1.008 1_555 1_555
H9 C25 1.027 1_555 1_555
H10 C26 1.024 1_555 1_555
H11 C27 1.016 1_555 1_555
H12 C28 0.997 1_555 1_555
H13 C29 1.032 1_555 1_555
H14 C30 0.997 1_555 1_555
H15 C31 1.007 1_555 1_555
H16 C32 1.021 1_555 1_555
H17 C39 0.975 1_555 1_555
H18 C40 1.000 1_555 1_555
H19 C49 1.015 1_555 1_555
H20 C50 1.015 1_555 1_555
H21 C53 1.016 1_555 1_555
H22 C54 1.011 1_555 1_555
H23 C55 0.986 1_555 1_555
H24 C56 1.003 1_555 1_555
H25 C57 1.004 1_555 1_555
H26 C58 1.019 1_555 1_555
H27 C59 1.028 1_555 1_555
H28 C60 1.020 1_555 1_555
H29 C61 0.975 1_555 1_555
H30 C62 1.046 1_555 1_555
H31 C63 0.993 1_555 1_555
H32 C64 1.018 1_555 1_555
C8 C9 1.394 1_555 1_555
C15 C16 1.478 1_555 1_555
C18 C19 1.394 1_555 1_555
C19 C20 1.463 1_555 1_555
C21 C22 1.416 1_555 1_555
C25 C26 1.394 1_555 1_555
C27 C28 1.408 1_555 1_555
C31 C32 1.394 1_555 1_555
C40 C41 1.396 1_555 1_555
C47 C48 1.472 1_555 1_555
C50 C51 1.397 1_555 1_555
C51 C52 1.463 1_555 1_555
C53 C54 1.415 1_555 1_555
C57 C58 1.394 1_555 1_555
C59 C60 1.409 1_555 1_555
C63 C64 1.395 1_555 1_555
#END
