
#######################################################################
#
#                 Cambridge Crystallographic Data Centre
#                                CCDC
#
#######################################################################
#
# If this CIF has been generated from an entry in the Cambridge
# Structural Database, then it will include bibliographic, chemical,
# crystal, experimental, refinement or atomic coordinate data resulting
# from the CCDC's data processing and validation procedures.
#
#######################################################################

data_CSD_CIF_POBPIG05
_audit_creation_date 2008-10-16
_audit_creation_method CSD-ConQuest-V1
_database_code_CSD POBPIG05
_database_code_depnum_ccdc_archive 'CCDC 642481'
_chemical_formula_sum 'C32 H16'
_chemical_formula_moiety
;
C32 H16
;
_journal_coden_Cambridge 983
_journal_volume 111
_journal_year 2007
_journal_page_first 18878
_journal_name_full 'J.Phys.Chem.C '
loop_
_publ_author_name
"M.A.Heinrich"
"J.Pflaum"
"A.K.Tripathi"
"W.Frey"
"M.L.Steigerwald"
"T.Siegrist"
_chemical_name_systematic
;
diindeno[1,2,3-cd:1',2',3'-lm]perylene
;
_chemical_name_common
;
di-indenoperylene
;
_cell_volume   1991.269
_exptl_crystal_colour 'red'
_exptl_crystal_density_diffrn 1.336
_exptl_special_details
;
alpha polymorph
phase transition at 403 K to beta polymorph

;
_exptl_crystal_description 'platelet'
_diffrn_ambient_temperature 403
#These two values have been output from a single CSD field.
_refine_ls_R_factor_gt 0.0354
_refine_ls_wR_factor_gt 0.0354
_symmetry_cell_setting triclinic
_symmetry_space_group_name_H-M 'P -1'
_symmetry_Int_Tables_number 2
loop_
_symmetry_equiv_pos_site_id
_symmetry_equiv_pos_as_xyz
1 x,y,z
2 -x,-y,-z
_cell_length_a 11.6592(8)
_cell_length_b 13.0102(9)
_cell_length_c 14.9663(10)
_cell_angle_alpha 98.440(6)
_cell_angle_beta 98.023(6)
_cell_angle_gamma 114.548(7)
_cell_formula_units_Z 4
loop_
_atom_type_symbol
_atom_type_radius_bond
C 0.68
H 0.23
loop_
_atom_site_label
_atom_site_type_symbol
_atom_site_fract_x
_atom_site_fract_y
_atom_site_fract_z
C1 C 0.1753(5) 1.1601(4) 0.9726(3)
C2 C 0.3070(5) 1.2282(3) 0.9849(2)
C3 C 0.1117(4) 1.0561(3) 0.9067(2)
C4 C 0.3789(4) 1.1957(3) 0.9304(2)
C5 C 0.1816(3) 1.0218(3) 0.8521(2)
C6 C 0.3169(3) 1.0928(3) 0.8643(2)
C7 C 0.1424(3) 0.9233(3) 0.7738(2)
C8 C 0.3631(3) 1.0402(2) 0.79259(19)
C9 C 0.0292(3) 0.8290(3) 0.7277(2)
C10 C 0.2539(3) 0.9407(2) 0.73916(19)
C11 C 0.4789(3) 1.0674(2) 0.7667(2)
C12 C 0.0261(3) 0.7558(2) 0.6472(2)
C13 C 0.2544(2) 0.8716(2) 0.65971(18)
C14 C 0.4828(3) 0.9980(2) 0.6861(2)
C15 C 0.1346(2) 0.7757(2) 0.61041(18)
C16 C 0.3736(2) 0.9026(2) 0.63082(18)
C17 C 0.1328(2) 0.7079(2) 0.52322(19)
C18 C 0.3728(2) 0.8348(2) 0.54400(18)
C19 C 0.0226(3) 0.6169(2) 0.4651(2)
C20 C 0.2524(2) 0.7408(2) 0.49410(18)
C21 C 0.4805(2) 0.8565(2) 0.5058(2)
C22 C 0.0240(3) 0.5554(2) 0.3798(2)
C23 C 0.2502(3) 0.6783(2) 0.40960(19)
C24 C 0.4759(3) 0.7907(3) 0.4209(2)
C25 C 0.1381(3) 0.5848(2) 0.3518(2)
C26 C 0.3612(3) 0.7011(2) 0.3725(2)
C27 C 0.1811(3) 0.5449(3) 0.2713(2)
C28 C 0.3174(3) 0.6154(3) 0.2844(2)
C29 C 0.1143(4) 0.4575(3) 0.1925(3)
C30 C 0.3823(4) 0.5955(3) 0.2191(3)
C31 C 0.1822(5) 0.4394(4) 0.1270(3)
C32 C 0.3136(5) 0.5074(4) 0.1402(3)
C33 C 0.2880(4) 0.6092(4) 0.9082(3)
C34 C 0.3364(4) 0.6967(4) 0.8610(3)
C35 C 0.2558(3) 0.4963(3) 0.8668(2)
C36 C 0.3548(3) 0.6733(3) 0.7716(3)
C37 C 0.2730(3) 0.4697(3) 0.7787(2)
C38 C 0.3234(3) 0.5598(3) 0.7305(2)
C39 C 0.2458(2) 0.3599(3) 0.71700(19)
C40 C 0.3273(2) 0.5069(2) 0.6378(2)
C41 C 0.1975(3) 0.2459(3) 0.7220(2)
C42 C 0.2793(2) 0.3874(2) 0.63405(19)
C43 C 0.3621(2) 0.5464(2) 0.5609(2)
C44 C 0.1809(3) 0.1610(2) 0.6446(2)
C45 C 0.2641(2) 0.3064(2) 0.55611(18)
C46 C 0.3485(2) 0.4661(2) 0.4808(2)
C47 C 0.2108(2) 0.1873(2) 0.56126(18)
C48 C 0.3020(2) 0.3478(2) 0.47662(17)
C49 C 0.1920(2) 0.1016(2) 0.47918(18)
C50 C 0.2877(2) 0.2624(2) 0.39551(18)
C51 C 0.1399(2) -0.0176(2) 0.4728(2)
C52 C 0.2322(2) 0.1433(2) 0.39992(18)
C53 C 0.3242(2) 0.2890(2) 0.31403(19)
C54 C 0.1245(3) -0.0979(3) 0.3929(2)
C55 C 0.2172(2) 0.0621(2) 0.32226(19)
C56 C 0.3089(3) 0.2041(3) 0.2366(2)
C57 C 0.1632(2) -0.0585(2) 0.3167(2)
C58 C 0.2543(3) 0.0893(3) 0.2401(2)
C59 C 0.1644(3) -0.1121(3) 0.2235(2)
C60 C 0.2212(3) -0.0215(3) 0.1766(2)
C61 C 0.1216(3) -0.2272(3) 0.1798(3)
C62 C 0.2342(3) -0.0491(3) 0.0876(2)
C63 C 0.1352(4) -0.2522(4) 0.0895(3)
C64 C 0.1901(4) -0.1647(4) 0.0436(3)
H1 H 0.12730 1.18570 1.00950
H2 H 0.34800 1.29750 1.03280
H3 H 0.02090 1.00740 0.89930
H4 H 0.47060 1.24310 0.93850
H5 H -0.04910 0.81200 0.75100
H6 H 0.55690 1.13360 0.80290
H7 H -0.05380 0.68870 0.61520
H8 H 0.56490 1.01870 0.66650
H9 H -0.05880 0.59340 0.48530
H10 H 0.56250 0.92250 0.53970
H11 H -0.05470 0.49270 0.34250
H12 H 0.55220 0.80940 0.39580
H13 H 0.02320 0.41060 0.18430
H14 H 0.47280 0.64260 0.22950
H15 H 0.13910 0.37860 0.07280
H16 H 0.35570 0.49190 0.09380
H17 H 0.27830 0.62860 0.97020
H18 H 0.35800 0.77480 0.89140
H19 H 0.22150 0.43580 0.89820
H20 H 0.38930 0.73460 0.73710
H21 H 0.17500 0.22320 0.77900
H22 H 0.39530 0.62980 0.56100
H23 H 0.14630 0.07920 0.64790
H24 H 0.37330 0.49570 0.42580
H25 H 0.11440 -0.04580 0.52780
H26 H 0.36190 0.37160 0.31140
H27 H 0.08780 -0.18110 0.39110
H28 H 0.33680 0.22730 0.18160
H29 H 0.08410 -0.28680 0.21270
H30 H 0.27360 0.01150 0.05770
H31 H 0.10650 -0.33130 0.05820
H32 H 0.19830 -0.18280 -0.01960
loop_
_geom_bond_atom_site_label_1
_geom_bond_atom_site_label_2
_geom_bond_distance
_geom_bond_site_symmetry_1
_geom_bond_site_symmetry_2
C1 C2 1.385 1_555 1_555
C2 C4 1.390 1_555 1_555
C3 C1 1.387 1_555 1_555
C4 C6 1.379 1_555 1_555
C5 C3 1.383 1_555 1_555
C6 C5 1.426 1_555 1_555
C7 C5 1.465 1_555 1_555
C8 C6 1.470 1_555 1_555
C9 C7 1.369 1_555 1_555
C10 C7 1.410 1_555 1_555
C11 C8 1.374 1_555 1_555
C12 C9 1.408 1_555 1_555
C13 C10 1.384 1_555 1_555
C14 C11 1.415 1_555 1_555
C15 C12 1.391 1_555 1_555
C16 C13 1.426 1_555 1_555
C17 C15 1.456 1_555 1_555
C18 C16 1.456 1_555 1_555
C19 C17 1.390 1_555 1_555
C20 C17 1.430 1_555 1_555
C21 C18 1.392 1_555 1_555
C22 C19 1.410 1_555 1_555
C23 C20 1.390 1_555 1_555
C24 C21 1.405 1_555 1_555
C25 C22 1.368 1_555 1_555
C26 C23 1.415 1_555 1_555
C27 C25 1.474 1_555 1_555
C28 C26 1.466 1_555 1_555
C29 C27 1.380 1_555 1_555
C30 C28 1.375 1_555 1_555
C31 C29 1.395 1_555 1_555
C32 C30 1.388 1_555 1_555
C33 C34 1.388 1_555 1_555
C34 C36 1.394 1_555 1_555
C35 C33 1.376 1_555 1_555
C36 C38 1.384 1_555 1_555
C37 C35 1.377 1_555 1_555
C38 C37 1.426 1_555 1_555
C39 C37 1.466 1_555 1_555
C40 C38 1.471 1_555 1_555
C41 C39 1.369 1_555 1_555
C42 C39 1.404 1_555 1_555
C43 C40 1.373 1_555 1_555
C44 C41 1.408 1_555 1_555
C45 C42 1.389 1_555 1_555
C46 C43 1.413 1_555 1_555
C47 C44 1.394 1_555 1_555
C48 C45 1.428 1_555 1_555
C49 C47 1.456 1_555 1_555
C50 C48 1.459 1_555 1_555
C51 C49 1.393 1_555 1_555
C52 C49 1.433 1_555 1_555
C53 C50 1.391 1_555 1_555
C54 C51 1.404 1_555 1_555
C55 C52 1.388 1_555 1_555
C56 C53 1.413 1_555 1_555
C57 C54 1.375 1_555 1_555
C58 C55 1.405 1_555 1_555
C59 C57 1.470 1_555 1_555
C60 C58 1.471 1_555 1_555
C61 C59 1.386 1_555 1_555
C62 C60 1.374 1_555 1_555
C63 C61 1.390 1_555 1_555
C64 C62 1.390 1_555 1_555
H1 C1 0.957 1_555 1_555
H2 C2 0.955 1_555 1_555
H3 C3 0.961 1_555 1_555
H4 C4 0.965 1_555 1_555
H5 C9 0.973 1_555 1_555
H6 C11 0.968 1_555 1_555
H7 C12 0.968 1_555 1_555
H8 C14 0.981 1_555 1_555
H9 C19 0.976 1_555 1_555
H10 C21 0.982 1_555 1_555
H11 C22 0.959 1_555 1_555
H12 C24 0.965 1_555 1_555
H13 C29 0.958 1_555 1_555
H14 C30 0.950 1_555 1_555
H15 C31 0.951 1_555 1_555
H16 C32 0.949 1_555 1_555
H17 C33 0.960 1_555 1_555
H18 C34 0.961 1_555 1_555
H19 C35 0.949 1_555 1_555
H20 C36 0.988 1_555 1_555
H21 C41 0.978 1_555 1_555
H22 C43 0.989 1_555 1_555
H23 C44 0.981 1_555 1_555
H24 C46 0.988 1_555 1_555
H25 C51 0.983 1_555 1_555
H26 C53 0.987 1_555 1_555
H27 C54 0.979 1_555 1_555
H28 C56 0.970 1_555 1_555
H29 C61 0.962 1_555 1_555
H30 C62 0.945 1_555 1_555
H31 C63 0.959 1_555 1_555
H32 C64 0.968 1_555 1_555
C8 C10 1.407 1_555 1_555
C13 C15 1.430 1_555 1_555
C14 C16 1.392 1_555 1_555
C18 C20 1.427 1_555 1_555
C23 C25 1.411 1_555 1_555
C24 C26 1.363 1_555 1_555
C27 C28 1.433 1_555 1_555
C31 C32 1.381 1_555 1_555
C40 C42 1.406 1_555 1_555
C45 C47 1.429 1_555 1_555
C46 C48 1.391 1_555 1_555
C50 C52 1.426 1_555 1_555
C55 C57 1.411 1_555 1_555
C56 C58 1.371 1_555 1_555
C59 C60 1.430 1_555 1_555
C63 C64 1.387 1_555 1_555
#END
