
#######################################################################
#
#                 Cambridge Crystallographic Data Centre
#                                CCDC
#
#######################################################################
#
# If this CIF has been generated from an entry in the Cambridge
# Structural Database, then it will include bibliographic, chemical,
# crystal, experimental, refinement or atomic coordinate data resulting
# from the CCDC's data processing and validation procedures.
#
#######################################################################

data_CSD_CIF_POBPIG02
_audit_creation_date 2008-10-16
_audit_creation_method CSD-ConQuest-V1
_database_code_CSD POBPIG02
_database_code_depnum_ccdc_archive 'CCDC 642478'
_chemical_formula_sum 'C32 H16'
_chemical_formula_moiety
;
C32 H16
;
_journal_coden_Cambridge 983
_journal_volume 111
_journal_year 2007
_journal_page_first 18878
_journal_name_full 'J.Phys.Chem.C '
loop_
_publ_author_name
"M.A.Heinrich"
"J.Pflaum"
"A.K.Tripathi"
"W.Frey"
"M.L.Steigerwald"
"T.Siegrist"
_chemical_name_systematic
;
diindeno[1,2,3-cd:1',2',3'-lm]perylene
;
_chemical_name_common
;
di-indenoperylene
;
_cell_volume   1962.311
_exptl_crystal_colour 'red'
_exptl_crystal_density_diffrn 1.355
_exptl_special_details
;
alpha polymorph
phase transition at 403 K to beta polymorph

;
_diffrn_ambient_temperature 298
#These two values have been output from a single CSD field.
_refine_ls_R_factor_gt 0.0335
_refine_ls_wR_factor_gt 0.0335
_symmetry_cell_setting triclinic
_symmetry_space_group_name_H-M 'P -1'
_symmetry_Int_Tables_number 2
loop_
_symmetry_equiv_pos_site_id
_symmetry_equiv_pos_as_xyz
1 x,y,z
2 -x,-y,-z
_cell_length_a 11.5824(6)
_cell_length_b 12.9617(7)
_cell_length_c 14.8812(7)
_cell_angle_alpha 98.128(4)
_cell_angle_beta 98.091(4)
_cell_angle_gamma 114.516(5)
_cell_formula_units_Z 4
loop_
_atom_type_symbol
_atom_type_radius_bond
C 0.68
H 0.23
loop_
_atom_site_label
_atom_site_type_symbol
_atom_site_fract_x
_atom_site_fract_y
_atom_site_fract_z
C1 C 0.25453(13) 0.87147(11) 0.66110(9)
C2 C 0.25409(14) 0.94071(12) 0.74082(10)
C3 C 0.14197(15) 0.92298(13) 0.77576(10)
C4 C 0.18089(16) 1.02206(13) 0.85387(10)
C5 C 0.31629(16) 1.09382(13) 0.86558(10)
C6 C 0.36316(15) 1.04064(12) 0.79413(10)
C7 C 0.47958(14) 1.06836(12) 0.76815(10)
C8 C 0.48382(13) 0.99892(12) 0.6875(1)
C9 C 0.37480(13) 0.90367(11) 0.63253(10)
C10 C 0.37381(13) 0.83569(11) 0.54522(9)
C11 C 0.25263(13) 0.74147(11) 0.49495(9)
C12 C 0.25056(14) 0.67903(12) 0.41029(10)
C13 C 0.36176(15) 0.70211(12) 0.37235(10)
C14 C 0.31699(17) 0.61650(13) 0.28364(10)
C15 C 0.18122(17) 0.54606(13) 0.27083(11)
C16 C 0.13809(15) 0.58579(12) 0.35191(10)
C17 C 0.02324(14) 0.55565(12) 0.38027(10)
C18 C 0.02155(14) 0.61689(12) 0.46605(10)
C19 C 0.13236(13) 0.70777(11) 0.5246(1)
C20 C 0.13397(13) 0.77516(11) 0.6126(1)
C21 C 0.02513(13) 0.75491(12) 0.6499(1)
C22 C 0.02818(14) 0.82831(13) 0.73092(10)
C23 C 0.11402(17) 0.45882(13) 0.19135(12)
C24 C 0.1824(2) 0.44163(16) 0.12561(12)
C25 C 0.3149(2) 0.51006(17) 0.13895(13)
C26 C 0.38336(17) 0.59796(14) 0.21803(12)
C27 C 0.47705(14) 0.79170(12) 0.42071(10)
C28 C 0.48174(13) 0.85798(11) 0.50608(10)
C29 C 0.37784(16) 1.19729(13) 0.93175(10)
C30 C 0.3047(2) 1.22999(15) 0.98563(11)
C31 C 0.1730(2) 1.16073(17) 0.97382(11)
C32 C 0.10984(16) 1.05618(14) 0.90837(11)
C33 C 0.23233(12) 0.14387(12) 0.40018(9)
C34 C 0.21704(12) 0.06224(12) 0.32264(10)
C35 C 0.16271(13) -0.05849(13) 0.31684(10)
C36 C 0.16364(14) -0.11233(14) 0.22342(11)
C37 C 0.22136(14) -0.02145(13) 0.17650(11)
C38 C 0.25490(13) 0.08987(13) 0.23976(10)
C39 C 0.31032(13) 0.20496(13) 0.23593(10)
C40 C 0.32524(13) 0.28975(12) 0.31327(10)
C41 C 0.28816(12) 0.26323(12) 0.39529(9)
C42 C 0.30183(12) 0.34862(12) 0.47641(9)
C43 C 0.26400(12) 0.30667(12) 0.55666(9)
C44 C 0.27936(12) 0.38814(12) 0.6345(1)
C45 C 0.32807(13) 0.50832(13) 0.63871(10)
C46 C 0.32401(13) 0.56104(14) 0.73159(10)
C47 C 0.27309(14) 0.47066(13) 0.78008(11)
C48 C 0.24578(13) 0.36026(13) 0.71839(10)
C49 C 0.19662(13) 0.24607(13) 0.7241(1)
C50 C 0.18020(13) 0.16106(12) 0.64638(10)
C51 C 0.21031(12) 0.18722(12) 0.56246(9)
C52 C 0.19164(12) 0.10137(12) 0.47972(10)
C53 C 0.13897(13) -0.01774(12) 0.47357(10)
C54 C 0.12334(13) -0.09823(12) 0.39315(10)
C55 C 0.25502(14) 0.49649(15) 0.86863(11)
C56 C 0.28663(17) 0.61084(18) 0.90919(12)
C57 C 0.33649(17) 0.69837(16) 0.86193(13)
C58 C 0.35563(14) 0.67443(14) 0.77251(12)
C59 C 0.36330(12) 0.54759(12) 0.56112(10)
C60 C 0.34941(12) 0.46695(12) 0.48089(10)
C61 C 0.23531(15) -0.04860(15) 0.08658(11)
C62 C 0.19082(17) -0.16513(17) 0.04323(12)
C63 C 0.13467(17) -0.25231(16) 0.08922(13)
C64 C 0.12057(15) -0.22711(14) 0.17960(12)
H1 H 0.55770 1.13430 0.80300
H2 H 0.56580 1.02000 0.66950
H3 H -0.05730 0.49280 0.34270
H4 H -0.06260 0.59300 0.48490
H5 H -0.05840 0.68690 0.61840
H6 H -0.05270 0.81180 0.75210
H7 H 0.02120 0.41090 0.18110
H8 H 0.13800 0.38240 0.07140
H9 H 0.35520 0.49650 0.09150
H10 H 0.47560 0.64330 0.22730
H11 H 0.55850 0.81150 0.39800
H12 H 0.56560 0.92330 0.53940
H13 H 0.47040 1.24510 0.94140
H14 H 0.34560 1.29830 1.03140
H15 H 0.12570 1.18510 1.01050
H16 H 0.01790 1.01100 0.89880
H17 H 0.33610 0.22950 0.18180
H18 H 0.36140 0.37250 0.30730
H19 H 0.17560 0.22150 0.78050
H20 H 0.14690 0.07870 0.65250
H21 H 0.11320 -0.04980 0.52920
H22 H 0.08550 -0.18280 0.39340
H23 H 0.22360 0.43800 0.90130
H24 H 0.27880 0.62760 0.97210
H25 H 0.35740 0.77590 0.89030
H26 H 0.38850 0.73890 0.73750
H27 H 0.39680 0.63200 0.55840
H28 H 0.37390 0.50000 0.42550
H29 H 0.27290 0.00980 0.05560
H30 H 0.19520 -0.18190 -0.02090
H31 H 0.10440 -0.33100 0.05840
H32 H 0.08350 -0.28990 0.21360
loop_
_geom_bond_atom_site_label_1
_geom_bond_atom_site_label_2
_geom_bond_distance
_geom_bond_site_symmetry_1
_geom_bond_site_symmetry_2
C1 C2 1.385 1_555 1_555
C2 C3 1.409 1_555 1_555
C3 C4 1.467 1_555 1_555
C4 C5 1.422 1_555 1_555
C5 C6 1.472 1_555 1_555
C6 C2 1.404 1_555 1_555
C7 C6 1.371 1_555 1_555
C8 C7 1.414 1_555 1_555
C9 C1 1.425 1_555 1_555
C10 C9 1.459 1_555 1_555
C11 C10 1.430 1_555 1_555
C12 C11 1.389 1_555 1_555
C13 C12 1.414 1_555 1_555
C14 C13 1.469 1_555 1_555
C15 C14 1.420 1_555 1_555
C16 C12 1.411 1_555 1_555
C17 C16 1.369 1_555 1_555
C18 C17 1.412 1_555 1_555
C19 C11 1.431 1_555 1_555
C20 C1 1.430 1_555 1_555
C21 C20 1.389 1_555 1_555
C22 C3 1.366 1_555 1_555
C23 C15 1.384 1_555 1_555
C24 C23 1.392 1_555 1_555
C25 C24 1.384 1_555 1_555
C26 C14 1.378 1_555 1_555
C27 C13 1.362 1_555 1_555
C28 C10 1.392 1_555 1_555
C29 C5 1.383 1_555 1_555
C30 C29 1.390 1_555 1_555
C31 C30 1.381 1_555 1_555
C32 C4 1.385 1_555 1_555
C33 C34 1.387 1_555 1_555
C34 C35 1.408 1_555 1_555
C35 C36 1.468 1_555 1_555
C36 C37 1.426 1_555 1_555
C37 C38 1.472 1_555 1_555
C38 C34 1.410 1_555 1_555
C39 C38 1.371 1_555 1_555
C40 C39 1.411 1_555 1_555
C41 C33 1.425 1_555 1_555
C42 C41 1.460 1_555 1_555
C43 C42 1.431 1_555 1_555
C44 C43 1.389 1_555 1_555
C45 C44 1.408 1_555 1_555
C46 C45 1.469 1_555 1_555
C47 C46 1.423 1_555 1_555
C48 C44 1.410 1_555 1_555
C49 C48 1.368 1_555 1_555
C50 C49 1.411 1_555 1_555
C51 C43 1.430 1_555 1_555
C52 C33 1.433 1_555 1_555
C53 C52 1.388 1_555 1_555
C54 C35 1.371 1_555 1_555
C55 C47 1.380 1_555 1_555
C56 C55 1.389 1_555 1_555
C57 C56 1.383 1_555 1_555
C58 C46 1.379 1_555 1_555
C59 C45 1.373 1_555 1_555
C60 C42 1.386 1_555 1_555
C61 C37 1.384 1_555 1_555
C62 C61 1.396 1_555 1_555
C63 C62 1.379 1_555 1_555
C64 C36 1.380 1_555 1_555
H1 C7 0.959 1_555 1_555
H2 C8 0.962 1_555 1_555
H3 C17 0.970 1_555 1_555
H4 C18 0.988 1_555 1_555
H5 C21 0.990 1_555 1_555
H6 C22 0.979 1_555 1_555
H7 C23 0.968 1_555 1_555
H8 C24 0.941 1_555 1_555
H9 C25 0.934 1_555 1_555
H10 C26 0.959 1_555 1_555
H11 C27 0.992 1_555 1_555
H12 C28 0.985 1_555 1_555
H13 C29 0.967 1_555 1_555
H14 C30 0.929 1_555 1_555
H15 C31 0.936 1_555 1_555
H16 C32 0.956 1_555 1_555
H17 C39 0.949 1_555 1_555
H18 C40 0.999 1_555 1_555
H19 C49 0.966 1_555 1_555
H20 C50 0.996 1_555 1_555
H21 C53 1.005 1_555 1_555
H22 C54 0.998 1_555 1_555
H23 C55 0.932 1_555 1_555
H24 C56 0.956 1_555 1_555
H25 C57 0.947 1_555 1_555
H26 C58 1.015 1_555 1_555
H27 C59 1.007 1_555 1_555
H28 C60 1.004 1_555 1_555
H29 C61 0.926 1_555 1_555
H30 C62 0.962 1_555 1_555
H31 C63 0.948 1_555 1_555
H32 C64 0.995 1_555 1_555
C8 C9 1.385 1_555 1_555
C15 C16 1.476 1_555 1_555
C18 C19 1.391 1_555 1_555
C19 C20 1.461 1_555 1_555
C21 C22 1.413 1_555 1_555
C25 C26 1.386 1_555 1_555
C27 C28 1.410 1_555 1_555
C31 C32 1.387 1_555 1_555
C40 C41 1.391 1_555 1_555
C47 C48 1.470 1_555 1_555
C50 C51 1.393 1_555 1_555
C51 C52 1.463 1_555 1_555
C53 C54 1.408 1_555 1_555
C57 C58 1.393 1_555 1_555
C59 C60 1.413 1_555 1_555
C63 C64 1.387 1_555 1_555
#END
