
#######################################################################
#
#                 Cambridge Crystallographic Data Centre
#                                CCDC
#
#######################################################################
#
# If this CIF has been generated from an entry in the Cambridge
# Structural Database, then it will include bibliographic, chemical,
# crystal, experimental, refinement or atomic coordinate data resulting
# from the CCDC's data processing and validation procedures.
#
#######################################################################

data_CSD_CIF_POBPIG01
_audit_creation_date 2008-10-16
_audit_creation_method CSD-ConQuest-V1
_database_code_CSD POBPIG01
_database_code_depnum_ccdc_archive 'CCDC 642477'
_chemical_formula_sum 'C32 H16'
_chemical_formula_moiety
;
C32 H16
;
_journal_coden_Cambridge 983
_journal_volume 111
_journal_year 2007
_journal_page_first 18878
_journal_name_full 'J.Phys.Chem.C '
loop_
_publ_author_name
"M.A.Heinrich"
"J.Pflaum"
"A.K.Tripathi"
"W.Frey"
"M.L.Steigerwald"
"T.Siegrist"
_chemical_name_systematic
;
diindeno[1,2,3-cd:1',2',3'-lm]perylene
;
_chemical_name_common
;
di-indenoperylene
;
_cell_volume   1930.243
_exptl_crystal_density_diffrn 1.378
_exptl_special_details
;
alpha polymorph
phase transition at 403 K to beta polymorph

;
_diffrn_ambient_temperature 200
#These two values have been output from a single CSD field.
_refine_ls_R_factor_gt 0.0358
_refine_ls_wR_factor_gt 0.0358
_symmetry_cell_setting triclinic
_symmetry_space_group_name_H-M 'P -1'
_symmetry_Int_Tables_number 2
loop_
_symmetry_equiv_pos_site_id
_symmetry_equiv_pos_as_xyz
1 x,y,z
2 -x,-y,-z
_cell_length_a 11.5164(6)
_cell_length_b 12.9066(7)
_cell_length_c 14.7649(7)
_cell_angle_alpha 97.872(4)
_cell_angle_beta 98.190(4)
_cell_angle_gamma 114.443(5)
_cell_formula_units_Z 4
loop_
_atom_type_symbol
_atom_type_radius_bond
C 0.68
H 0.23
loop_
_atom_site_label
_atom_site_type_symbol
_atom_site_fract_x
_atom_site_fract_y
_atom_site_fract_z
C1 C 0.25458(12) 0.87125(10) 0.66226(9)
C2 C 0.25395(13) 0.94055(11) 0.74231(9)
C3 C 0.14081(13) 0.92226(11) 0.77756(9)
C4 C 0.17978(14) 1.02200(12) 0.85546(9)
C5 C 0.31593(14) 1.09443(12) 0.86691(9)
C6 C 0.36375(13) 1.04122(11) 0.79563(9)
C7 C 0.48080(13) 1.06941(11) 0.76934(9)
C8 C 0.48524(13) 1.00008(11) 0.68857(9)
C9 C 0.37574(12) 0.90432(11) 0.63354(9)
C10 C 0.37480(12) 0.83643(10) 0.54581(9)
C11 C 0.25291(12) 0.74185(10) 0.49564(9)
C12 C 0.25077(13) 0.67971(11) 0.41046(9)
C13 C 0.36284(13) 0.70334(11) 0.37217(9)
C14 C 0.31797(15) 0.61785(12) 0.28311(10)
C15 C 0.18088(15) 0.54681(12) 0.27019(10)
C16 C 0.13768(13) 0.58623(11) 0.35190(9)
C17 C 0.02213(13) 0.55564(11) 0.38048(10)
C18 C 0.02036(13) 0.61649(11) 0.46679(9)
C19 C 0.13191(12) 0.70757(10) 0.52556(9)
C20 C 0.13361(12) 0.77463(10) 0.61390(9)
C21 C 0.02415(13) 0.75351(11) 0.65191(9)
C22 C 0.02646(13) 0.82661(12) 0.73277(9)
C23 C 0.11339(15) 0.45963(12) 0.19038(10)
C24 C 0.18200(18) 0.44294(14) 0.12388(11)
C25 C 0.31567(18) 0.51169(14) 0.13734(11)
C26 C 0.38463(15) 0.59973(13) 0.21676(10)
C27 C 0.47878(13) 0.79339(11) 0.42048(10)
C28 C 0.48325(13) 0.85918(11) 0.50632(9)
C29 C 0.37750(15) 1.19848(12) 0.93288(9)
C30 C 0.30334(17) 1.23140(13) 0.98654(10)
C31 C 0.17064(17) 1.16138(14) 0.97499(10)
C32 C 0.10781(15) 1.05611(13) 0.90968(10)
C33 C 0.23225(12) 0.14433(11) 0.40025(9)
C34 C 0.21703(12) 0.06248(11) 0.32239(9)
C35 C 0.16206(12) -0.05877(11) 0.31697(9)
C36 C 0.16320(13) -0.11257(12) 0.22315(10)
C37 C 0.22172(13) -0.02117(12) 0.17584(10)
C38 C 0.25552(12) 0.09070(12) 0.23917(9)
C39 C 0.31114(13) 0.20632(12) 0.23513(9)
C40 C 0.32584(12) 0.29096(11) 0.31267(9)
C41 C 0.28819(12) 0.26391(11) 0.39504(9)
C42 C 0.30225(12) 0.34965(11) 0.47651(9)
C43 C 0.26384(12) 0.30706(11) 0.55704(9)
C44 C 0.27943(12) 0.38866(11) 0.63520(9)
C45 C 0.32857(12) 0.50936(11) 0.63922(9)
C46 C 0.32455(13) 0.56201(12) 0.73254(10)
C47 C 0.27304(13) 0.47103(12) 0.78152(10)
C48 C 0.24539(12) 0.36031(12) 0.71961(9)
C49 C 0.19589(12) 0.24539(12) 0.72538(9)
C50 C 0.17935(12) 0.16062(11) 0.64740(9)
C51 C 0.20980(12) 0.18718(11) 0.56330(9)
C52 C 0.19094(12) 0.10124(11) 0.48034(9)
C53 C 0.13807(12) -0.01821(11) 0.47432(9)
C54 C 0.12238(12) -0.09876(11) 0.39358(10)
C55 C 0.25481(14) 0.49701(13) 0.87039(10)
C56 C 0.28681(15) 0.61149(14) 0.91096(11)
C57 C 0.33762(15) 0.70003(14) 0.86343(11)
C58 C 0.35667(13) 0.67587(13) 0.77366(10)
C59 C 0.36449(12) 0.54906(11) 0.56131(9)
C60 C 0.35025(12) 0.46848(11) 0.48095(9)
C61 C 0.23621(14) -0.04796(13) 0.08545(10)
C62 C 0.19091(15) -0.16501(14) 0.04212(11)
C63 C 0.13347(15) -0.25316(14) 0.08831(11)
C64 C 0.11949(14) -0.22795(12) 0.17911(10)
H1 H 0.55910 1.13640 0.80510
H2 H 0.56810 1.02110 0.67050
H3 H -0.05850 0.49250 0.34280
H4 H -0.06430 0.59340 0.48560
H5 H -0.05880 0.68580 0.61960
H6 H -0.05350 0.81160 0.75550
H7 H 0.02000 0.41060 0.18150
H8 H 0.13610 0.38180 0.06780
H9 H 0.35910 0.49810 0.08970
H10 H 0.47860 0.64590 0.22680
H11 H 0.56020 0.81310 0.39740
H12 H 0.56660 0.92430 0.54110
H13 H 0.47240 1.24780 0.94210
H14 H 0.34720 1.30230 1.03400
H15 H 0.11970 1.18630 1.01190
H16 H 0.01360 1.00870 0.89990
H17 H 0.33830 0.23030 0.18010
H18 H 0.36300 0.37350 0.30770
H19 H 0.17280 0.22180 0.78230
H20 H 0.14450 0.07870 0.65280
H21 H 0.11160 -0.04910 0.52980
H22 H 0.08450 -0.18250 0.39360
H23 H 0.22110 0.43570 0.90360
H24 H 0.27840 0.62900 0.97510
H25 H 0.35930 0.77970 0.89170
H26 H 0.39020 0.73950 0.73850
H27 H 0.39800 0.63280 0.55920
H28 H 0.37540 0.50010 0.42550
H29 H 0.27660 0.01320 0.05390
H30 H 0.19670 -0.18180 -0.02350
H31 H 0.10460 -0.33310 0.05770
H32 H 0.08190 -0.29010 0.21350
loop_
_geom_bond_atom_site_label_1
_geom_bond_atom_site_label_2
_geom_bond_distance
_geom_bond_site_symmetry_1
_geom_bond_site_symmetry_2
C1 C2 1.384 1_555 1_555
C2 C3 1.413 1_555 1_555
C3 C4 1.467 1_555 1_555
C4 C5 1.424 1_555 1_555
C5 C6 1.471 1_555 1_555
C6 C2 1.408 1_555 1_555
C7 C6 1.372 1_555 1_555
C8 C7 1.410 1_555 1_555
C9 C1 1.426 1_555 1_555
C10 C9 1.457 1_555 1_555
C11 C10 1.431 1_555 1_555
C12 C11 1.387 1_555 1_555
C13 C12 1.417 1_555 1_555
C14 C13 1.467 1_555 1_555
C15 C14 1.428 1_555 1_555
C16 C12 1.412 1_555 1_555
C17 C16 1.370 1_555 1_555
C18 C17 1.410 1_555 1_555
C19 C11 1.432 1_555 1_555
C20 C1 1.429 1_555 1_555
C21 C20 1.392 1_555 1_555
C22 C3 1.371 1_555 1_555
C23 C15 1.382 1_555 1_555
C24 C23 1.392 1_555 1_555
C25 C24 1.389 1_555 1_555
C26 C14 1.380 1_555 1_555
C27 C13 1.364 1_555 1_555
C28 C10 1.392 1_555 1_555
C29 C5 1.383 1_555 1_555
C30 C29 1.392 1_555 1_555
C31 C30 1.386 1_555 1_555
C32 C4 1.384 1_555 1_555
C33 C34 1.387 1_555 1_555
C34 C35 1.410 1_555 1_555
C35 C36 1.466 1_555 1_555
C36 C37 1.427 1_555 1_555
C37 C38 1.474 1_555 1_555
C38 C34 1.408 1_555 1_555
C39 C38 1.373 1_555 1_555
C40 C39 1.408 1_555 1_555
C41 C33 1.424 1_555 1_555
C42 C41 1.459 1_555 1_555
C43 C42 1.428 1_555 1_555
C44 C43 1.387 1_555 1_555
C45 C44 1.409 1_555 1_555
C46 C45 1.466 1_555 1_555
C47 C46 1.426 1_555 1_555
C48 C44 1.409 1_555 1_555
C49 C48 1.371 1_555 1_555
C50 C49 1.407 1_555 1_555
C51 C43 1.431 1_555 1_555
C52 C33 1.434 1_555 1_555
C53 C52 1.388 1_555 1_555
C54 C35 1.366 1_555 1_555
C55 C47 1.376 1_555 1_555
C56 C55 1.386 1_555 1_555
C57 C56 1.387 1_555 1_555
C58 C46 1.381 1_555 1_555
C59 C45 1.371 1_555 1_555
C60 C42 1.387 1_555 1_555
C61 C37 1.383 1_555 1_555
C62 C61 1.397 1_555 1_555
C63 C62 1.384 1_555 1_555
C64 C36 1.384 1_555 1_555
H1 C7 0.966 1_555 1_555
H2 C8 0.966 1_555 1_555
H3 C17 0.969 1_555 1_555
H4 C18 0.988 1_555 1_555
H5 C21 0.984 1_555 1_555
H6 C22 0.978 1_555 1_555
H7 C23 0.974 1_555 1_555
H8 C24 0.969 1_555 1_555
H9 C25 0.956 1_555 1_555
H10 C26 0.972 1_555 1_555
H11 C27 0.989 1_555 1_555
H12 C28 0.982 1_555 1_555
H13 C29 0.988 1_555 1_555
H14 C30 0.962 1_555 1_555
H15 C31 0.972 1_555 1_555
H16 C32 0.977 1_555 1_555
H17 C39 0.957 1_555 1_555
H18 C40 0.988 1_555 1_555
H19 C49 0.968 1_555 1_555
H20 C50 0.983 1_555 1_555
H21 C53 0.991 1_555 1_555
H22 C54 0.984 1_555 1_555
H23 C55 0.961 1_555 1_555
H24 C56 0.971 1_555 1_555
H25 C57 0.967 1_555 1_555
H26 C58 1.002 1_555 1_555
H27 C59 0.993 1_555 1_555
H28 C60 0.991 1_555 1_555
H29 C61 0.957 1_555 1_555
H30 C62 0.981 1_555 1_555
H31 C63 0.962 1_555 1_555
H32 C64 0.988 1_555 1_555
C8 C9 1.386 1_555 1_555
C15 C16 1.475 1_555 1_555
C18 C19 1.392 1_555 1_555
C19 C20 1.456 1_555 1_555
C21 C22 1.406 1_555 1_555
C25 C26 1.386 1_555 1_555
C27 C28 1.407 1_555 1_555
C31 C32 1.389 1_555 1_555
C40 C41 1.389 1_555 1_555
C47 C48 1.470 1_555 1_555
C50 C51 1.387 1_555 1_555
C51 C52 1.460 1_555 1_555
C53 C54 1.407 1_555 1_555
C57 C58 1.389 1_555 1_555
C59 C60 1.408 1_555 1_555
C63 C64 1.384 1_555 1_555
#END
