
#######################################################################
#
#                 Cambridge Crystallographic Data Centre
#                                CCDC
#
#######################################################################
#
# If this CIF has been generated from an entry in the Cambridge
# Structural Database, then it will include bibliographic, chemical,
# crystal, experimental, refinement or atomic coordinate data resulting
# from the CCDC's data processing and validation procedures.
#
#######################################################################

data_CSD_CIF_POBPIG03
_audit_creation_date 2008-10-16
_audit_creation_method CSD-ConQuest-V1
_database_code_CSD POBPIG03
_database_code_depnum_ccdc_archive 'CCDC 642479'
_chemical_formula_sum 'C32 H16'
_chemical_formula_moiety
;
C32 H16
;
_journal_coden_Cambridge 983
_journal_volume 111
_journal_year 2007
_journal_page_first 18878
_journal_name_full 'J.Phys.Chem.C '
loop_
_publ_author_name
"M.A.Heinrich"
"J.Pflaum"
"A.K.Tripathi"
"W.Frey"
"M.L.Steigerwald"
"T.Siegrist"
_chemical_name_systematic
;
diindeno[1,2,3-cd:1',2',3'-lm]perylene
;
_chemical_name_common
;
di-indenoperylene
;
_cell_volume   1979.673
_exptl_crystal_colour 'red'
_exptl_crystal_density_diffrn 1.344
_exptl_special_details
;
alpha polymorph
phase transition at 403 K to beta polymorph

;
_diffrn_ambient_temperature 363
#These two values have been output from a single CSD field.
_refine_ls_R_factor_gt 0.0347
_refine_ls_wR_factor_gt 0.0347
_symmetry_cell_setting triclinic
_symmetry_space_group_name_H-M 'P -1'
_symmetry_Int_Tables_number 2
loop_
_symmetry_equiv_pos_site_id
_symmetry_equiv_pos_as_xyz
1 x,y,z
2 -x,-y,-z
_cell_length_a 11.6284(8)
_cell_length_b 12.9916(9)
_cell_length_c 14.9311(9)
_cell_angle_alpha 98.294(5)
_cell_angle_beta 98.050(5)
_cell_angle_gamma 114.543(7)
_cell_formula_units_Z 4
loop_
_atom_type_symbol
_atom_type_radius_bond
C 0.68
H 0.23
loop_
_atom_site_label
_atom_site_type_symbol
_atom_site_fract_x
_atom_site_fract_y
_atom_site_fract_z
C1 C 0.25428(15) 0.87134(13) 0.66025(11)
C2 C 0.25411(17) 0.94062(14) 0.73979(12)
C3 C 0.14272(18) 0.92361(15) 0.77464(12)
C4 C 0.1816(2) 1.02217(16) 0.85289(12)
C5 C 0.3165(2) 1.09307(16) 0.86458(12)
C6 C 0.36289(18) 1.04021(15) 0.79315(12)
C7 C 0.47879(17) 1.06764(14) 0.76729(12)
C8 C 0.48298(15) 0.99852(14) 0.68690(12)
C9 C 0.37420(16) 0.90335(13) 0.63188(11)
C10 C 0.37327(16) 0.83525(13) 0.54474(11)
C11 C 0.25235(16) 0.74104(13) 0.49446(11)
C12 C 0.25049(16) 0.67870(14) 0.41021(12)
C13 C 0.36113(18) 0.70105(15) 0.37227(12)
C14 C 0.3166(2) 0.61552(16) 0.28403(13)
C15 C 0.1815(2) 0.54572(17) 0.27121(13)
C16 C 0.13840(18) 0.58538(14) 0.35173(12)
C17 C 0.02409(17) 0.55550(13) 0.37985(13)
C18 C 0.02249(16) 0.61705(14) 0.46529(12)
C19 C 0.13256(15) 0.70791(13) 0.52396(11)
C20 C 0.13425(15) 0.77537(13) 0.61150(11)
C21 C 0.02577(15) 0.75568(13) 0.64854(12)
C22 C 0.02906(17) 0.82907(16) 0.72936(12)
C23 C 0.1144(2) 0.45836(16) 0.19209(15)
C24 C 0.1824(3) 0.44093(19) 0.12670(15)
C25 C 0.3142(3) 0.5086(2) 0.13979(16)
C26 C 0.3825(2) 0.59652(17) 0.21861(15)
C27 C 0.47599(17) 0.79064(15) 0.42055(13)
C28 C 0.48090(15) 0.85706(13) 0.50581(12)
C29 C 0.37788(19) 1.19628(16) 0.93088(13)
C30 C 0.3056(3) 1.22878(18) 0.98492(13)
C31 C 0.1744(3) 1.1602(2) 0.97309(14)
C32 C 0.11113(19) 1.05616(18) 0.90732(13)
C33 C 0.23237(14) 0.14345(14) 0.40011(11)
C34 C 0.21725(14) 0.06217(15) 0.32269(12)
C35 C 0.16291(15) -0.05839(16) 0.31671(13)
C36 C 0.16417(16) -0.11207(17) 0.22371(13)
C37 C 0.22090(16) -0.02195(17) 0.17702(13)
C38 C 0.25475(15) 0.08939(16) 0.23997(12)
C39 C 0.30948(15) 0.20429(17) 0.23656(11)
C40 C 0.32502(14) 0.28902(14) 0.31383(12)
C41 C 0.28801(14) 0.26282(14) 0.39556(11)
C42 C 0.30170(14) 0.34806(14) 0.47649(11)
C43 C 0.26397(14) 0.30648(14) 0.55634(11)
C44 C 0.27933(14) 0.38761(15) 0.63404(12)
C45 C 0.32769(14) 0.50749(16) 0.63838(12)
C46 C 0.32342(15) 0.56015(17) 0.73090(13)
C47 C 0.27324(16) 0.47043(17) 0.77924(13)
C48 C 0.24584(15) 0.36016(16) 0.71741(12)
C49 C 0.19732(15) 0.24621(16) 0.72298(11)
C50 C 0.18060(14) 0.16115(14) 0.64525(12)
C51 C 0.21056(14) 0.18714(14) 0.56185(11)
C52 C 0.19193(14) 0.10141(14) 0.47934(11)
C53 C 0.13960(14) -0.01748(15) 0.47293(12)
C54 C 0.12413(14) -0.09768(14) 0.39280(13)
C55 C 0.25536(17) 0.49632(19) 0.86755(13)
C56 C 0.2868(2) 0.6102(2) 0.90799(14)
C57 C 0.3359(2) 0.69726(19) 0.86097(16)
C58 C 0.35468(16) 0.67325(17) 0.77194(14)
C59 C 0.36228(14) 0.54639(14) 0.56109(12)
C60 C 0.34896(14) 0.46619(15) 0.48089(11)
C61 C 0.23477(17) -0.04888(18) 0.08740(14)
C62 C 0.1905(2) -0.1654(2) 0.04388(14)
C63 C 0.1355(2) -0.25225(19) 0.08993(17)
C64 C 0.12112(17) -0.22693(17) 0.17980(15)
H1 H 0.55650 1.13320 0.80260
H2 H 0.56430 1.01960 0.66920
H3 H -0.05630 0.49330 0.34270
H4 H -0.06140 0.59260 0.48380
H5 H -0.05750 0.68820 0.61690
H6 H -0.05170 0.81170 0.75070
H7 H 0.02300 0.41140 0.18200
H8 H 0.13900 0.38220 0.07300
H9 H 0.35380 0.49450 0.09300
H10 H 0.47350 0.64180 0.22790
H11 H 0.55660 0.81040 0.39830
H12 H 0.56430 0.92240 0.53890
H13 H 0.46840 1.24370 0.93950
H14 H 0.34710 1.29630 1.03110
H15 H 0.12830 1.18560 1.00940
H16 H 0.02100 1.01150 0.89810
H17 H 0.33580 0.22840 0.18300
H18 H 0.36120 0.37110 0.30790
H19 H 0.17630 0.22180 0.77850
H20 H 0.14770 0.07960 0.65160
H21 H 0.11360 -0.04930 0.52750
H22 H 0.08650 -0.18150 0.39270
H23 H 0.22360 0.43910 0.89950
H24 H 0.27980 0.62740 0.97000
H25 H 0.35680 0.77450 0.88950
H26 H 0.38670 0.73690 0.73740
H27 H 0.39520 0.63020 0.55830
H28 H 0.37460 0.49880 0.42610
H29 H 0.27250 0.00850 0.05760
H30 H 0.19480 -0.18230 -0.01950
H31 H 0.10590 -0.33000 0.05940
H32 H 0.08450 -0.28940 0.21300
loop_
_geom_bond_atom_site_label_1
_geom_bond_atom_site_label_2
_geom_bond_distance
_geom_bond_site_symmetry_1
_geom_bond_site_symmetry_2
C1 C2 1.384 1_555 1_555
C2 C3 1.408 1_555 1_555
C3 C4 1.466 1_555 1_555
C4 C5 1.420 1_555 1_555
C5 C6 1.469 1_555 1_555
C6 C2 1.403 1_555 1_555
C7 C6 1.371 1_555 1_555
C8 C7 1.411 1_555 1_555
C9 C1 1.425 1_555 1_555
C10 C9 1.460 1_555 1_555
C11 C10 1.431 1_555 1_555
C12 C11 1.387 1_555 1_555
C13 C12 1.415 1_555 1_555
C14 C13 1.465 1_555 1_555
C15 C14 1.417 1_555 1_555
C16 C12 1.412 1_555 1_555
C17 C16 1.367 1_555 1_555
C18 C17 1.411 1_555 1_555
C19 C11 1.431 1_555 1_555
C20 C1 1.428 1_555 1_555
C21 C20 1.389 1_555 1_555
C22 C3 1.369 1_555 1_555
C23 C15 1.383 1_555 1_555
C24 C23 1.390 1_555 1_555
C25 C24 1.381 1_555 1_555
C26 C14 1.378 1_555 1_555
C27 C13 1.362 1_555 1_555
C28 C10 1.393 1_555 1_555
C29 C5 1.383 1_555 1_555
C30 C29 1.386 1_555 1_555
C31 C30 1.379 1_555 1_555
C32 C4 1.382 1_555 1_555
C33 C34 1.385 1_555 1_555
C34 C35 1.408 1_555 1_555
C35 C36 1.466 1_555 1_555
C36 C37 1.419 1_555 1_555
C37 C38 1.470 1_555 1_555
C38 C34 1.410 1_555 1_555
C39 C38 1.370 1_555 1_555
C40 C39 1.409 1_555 1_555
C41 C33 1.427 1_555 1_555
C42 C41 1.458 1_555 1_555
C43 C42 1.429 1_555 1_555
C44 C43 1.386 1_555 1_555
C45 C44 1.407 1_555 1_555
C46 C45 1.468 1_555 1_555
C47 C46 1.420 1_555 1_555
C48 C44 1.406 1_555 1_555
C49 C48 1.368 1_555 1_555
C50 C49 1.412 1_555 1_555
C51 C43 1.431 1_555 1_555
C52 C33 1.431 1_555 1_555
C53 C52 1.388 1_555 1_555
C54 C35 1.369 1_555 1_555
C55 C47 1.379 1_555 1_555
C56 C55 1.385 1_555 1_555
C57 C56 1.380 1_555 1_555
C58 C46 1.379 1_555 1_555
C59 C45 1.371 1_555 1_555
C60 C42 1.386 1_555 1_555
C61 C37 1.382 1_555 1_555
C62 C61 1.398 1_555 1_555
C63 C62 1.379 1_555 1_555
C64 C36 1.383 1_555 1_555
H1 C7 0.958 1_555 1_555
H2 C8 0.956 1_555 1_555
H3 C17 0.966 1_555 1_555
H4 C18 0.986 1_555 1_555
H5 C21 0.988 1_555 1_555
H6 C22 0.981 1_555 1_555
H7 C23 0.956 1_555 1_555
H8 C24 0.933 1_555 1_555
H9 C25 0.926 1_555 1_555
H10 C26 0.950 1_555 1_555
H11 C27 0.983 1_555 1_555
H12 C28 0.983 1_555 1_555
H13 C29 0.951 1_555 1_555
H14 C30 0.927 1_555 1_555
H15 C31 0.931 1_555 1_555
H16 C32 0.941 1_555 1_555
H17 C39 0.945 1_555 1_555
H18 C40 0.993 1_555 1_555
H19 C49 0.957 1_555 1_555
H20 C50 0.990 1_555 1_555
H21 C53 0.994 1_555 1_555
H22 C54 0.990 1_555 1_555
H23 C55 0.917 1_555 1_555
H24 C56 0.944 1_555 1_555
H25 C57 0.945 1_555 1_555
H26 C58 1.005 1_555 1_555
H27 C59 1.003 1_555 1_555
H28 C60 1.000 1_555 1_555
H29 C61 0.908 1_555 1_555
H30 C62 0.953 1_555 1_555
H31 C63 0.939 1_555 1_555
H32 C64 0.987 1_555 1_555
C8 C9 1.386 1_555 1_555
C15 C16 1.472 1_555 1_555
C18 C19 1.390 1_555 1_555
C19 C20 1.458 1_555 1_555
C21 C22 1.411 1_555 1_555
C25 C26 1.385 1_555 1_555
C27 C28 1.411 1_555 1_555
C31 C32 1.386 1_555 1_555
C40 C41 1.391 1_555 1_555
C47 C48 1.471 1_555 1_555
C50 C51 1.390 1_555 1_555
C51 C52 1.461 1_555 1_555
C53 C54 1.405 1_555 1_555
C57 C58 1.389 1_555 1_555
C59 C60 1.413 1_555 1_555
C63 C64 1.385 1_555 1_555
#END
