
#######################################################################
#
#                 Cambridge Crystallographic Data Centre
#                                CCDC
#
#######################################################################
#
# If this CIF has been generated from an entry in the Cambridge
# Structural Database, then it will include bibliographic, chemical,
# crystal, experimental, refinement or atomic coordinate data resulting
# from the CCDC's data processing and validation procedures.
#
#######################################################################

data_CSD_CIF_POBPIG04
_audit_creation_date 2008-10-16
_audit_creation_method CSD-ConQuest-V1
_database_code_CSD POBPIG04
_database_code_depnum_ccdc_archive 'CCDC 642480'
_chemical_formula_sum 'C32 H16'
_chemical_formula_moiety
;
C32 H16
;
_journal_coden_Cambridge 983
_journal_volume 111
_journal_year 2007
_journal_page_first 18878
_journal_name_full 'J.Phys.Chem.C '
loop_
_publ_author_name
"M.A.Heinrich"
"J.Pflaum"
"A.K.Tripathi"
"W.Frey"
"M.L.Steigerwald"
"T.Siegrist"
_chemical_name_systematic
;
diindeno[1,2,3-cd:1',2',3'-lm]perylene
;
_chemical_name_common
;
di-indenoperylene
;
_cell_volume   1985.220
_exptl_crystal_colour 'red'
_exptl_crystal_density_diffrn 1.34
_exptl_special_details
;
alpha polymorph
phase transition at 403 K to beta polymorph

;
_diffrn_ambient_temperature 383
#These two values have been output from a single CSD field.
_refine_ls_R_factor_gt 0.0285
_refine_ls_wR_factor_gt 0.0285
_symmetry_cell_setting triclinic
_symmetry_space_group_name_H-M 'P -1'
_symmetry_Int_Tables_number 2
loop_
_symmetry_equiv_pos_site_id
_symmetry_equiv_pos_as_xyz
1 x,y,z
2 -x,-y,-z
_cell_length_a 11.6432(8)
_cell_length_b 13.0004(9)
_cell_length_c 14.948(1)
_cell_angle_alpha 98.360(6)
_cell_angle_beta 98.042(6)
_cell_angle_gamma 114.545(7)
_cell_formula_units_Z 4
loop_
_atom_type_symbol
_atom_type_radius_bond
C 0.68
H 0.23
loop_
_atom_site_label
_atom_site_type_symbol
_atom_site_fract_x
_atom_site_fract_y
_atom_site_fract_z
C1 C 0.25410(14) 0.87120(12) 0.6599(1)
C2 C 0.25405(15) 0.94059(13) 0.73933(11)
C3 C 0.14324(16) 0.92355(14) 0.77433(11)
C4 C 0.18187(19) 1.02201(14) 0.85264(11)
C5 C 0.31668(19) 1.09281(15) 0.86438(11)
C6 C 0.36238(16) 1.03973(13) 0.79273(10)
C7 C 0.47845(15) 1.06759(12) 0.76707(10)
C8 C 0.48278(13) 0.99819(12) 0.68639(10)
C9 C 0.37380(14) 0.90316(12) 0.63174(10)
C10 C 0.37299(14) 0.83517(12) 0.54458(10)
C11 C 0.25236(14) 0.74106(11) 0.49411(10)
C12 C 0.25039(15) 0.67847(12) 0.40982(10)
C13 C 0.36087(17) 0.70069(14) 0.37231(11)
C14 C 0.3169(2) 0.61537(15) 0.28421(12)
C15 C 0.1815(2) 0.54547(16) 0.27131(12)
C16 C 0.13841(17) 0.58508(12) 0.35162(11)
C17 C 0.02406(15) 0.55523(12) 0.37972(11)
C18 C 0.02246(14) 0.61697(12) 0.46519(11)
C19 C 0.13281(14) 0.70803(12) 0.52376(10)
C20 C 0.13446(14) 0.77555(12) 0.61125(10)
C21 C 0.02583(14) 0.75594(12) 0.64799(10)
C22 C 0.02916(15) 0.82936(14) 0.72883(11)
C23 C 0.11415(18) 0.45794(14) 0.19251(14)
C24 C 0.1815(3) 0.43970(17) 0.12655(14)
C25 C 0.3139(3) 0.5079(2) 0.13989(14)
C26 C 0.38235(17) 0.59617(15) 0.21878(14)
C27 C 0.47577(15) 0.79044(13) 0.42072(11)
C28 C 0.48066(13) 0.85686(11) 0.50583(11)
C29 C 0.37868(17) 1.19605(15) 0.93067(12)
C30 C 0.3067(2) 1.22897(16) 0.98515(12)
C31 C 0.1751(2) 1.1604(2) 0.97293(13)
C32 C 0.11120(16) 1.05595(16) 0.90689(12)
C33 C 0.23250(12) 0.14345(13) 0.39990(11)
C34 C 0.21726(13) 0.06213(14) 0.32258(11)
C35 C 0.16314(13) -0.05817(14) 0.31661(12)
C36 C 0.16426(14) -0.11195(16) 0.22387(12)
C37 C 0.22078(14) -0.02187(16) 0.17703(12)
C38 C 0.25447(13) 0.08926(15) 0.24019(11)
C39 C 0.30963(13) 0.20424(15) 0.2365(1)
C40 C 0.32480(12) 0.28897(12) 0.31402(11)
C41 C 0.28777(12) 0.26246(13) 0.39543(10)
C42 C 0.30171(12) 0.34779(13) 0.47654(10)
C43 C 0.26402(12) 0.30647(13) 0.55612(10)
C44 C 0.27937(12) 0.38761(14) 0.63388(11)
C45 C 0.32745(13) 0.50705(14) 0.63831(11)
C46 C 0.32331(14) 0.55992(16) 0.73078(12)
C47 C 0.27315(14) 0.47022(15) 0.77901(12)
C48 C 0.24603(13) 0.36033(15) 0.71717(11)
C49 C 0.19720(13) 0.24616(15) 0.72265(10)
C50 C 0.18062(12) 0.16106(12) 0.64496(11)
C51 C 0.21068(12) 0.18744(13) 0.56165(10)
C52 C 0.19235(12) 0.10173(13) 0.47901(10)
C53 C 0.13962(12) -0.01743(14) 0.4728(1)
C54 C 0.12424(12) -0.09769(12) 0.39250(12)
C55 C 0.25527(15) 0.49584(17) 0.86727(12)
C56 C 0.28720(18) 0.6098(2) 0.90788(13)
C57 C 0.33576(17) 0.69725(17) 0.86081(15)
C58 C 0.35469(14) 0.67310(15) 0.77166(13)
C59 C 0.36218(12) 0.54645(12) 0.56114(11)
C60 C 0.34890(12) 0.46581(13) 0.48085(10)
C61 C 0.23487(15) -0.04890(16) 0.08753(12)
C62 C 0.19026(19) -0.1657(2) 0.04391(13)
C63 C 0.13532(18) -0.25256(17) 0.09001(16)
C64 C 0.12137(15) -0.22693(15) 0.18004(13)
H1 H 0.55950 1.13600 0.80390
H2 H 0.56680 1.01980 0.66580
H3 H -0.05660 0.48970 0.34180
H4 H -0.06170 0.59300 0.48670
H5 H -0.05670 0.68640 0.61450
H6 H -0.05130 0.81260 0.75270
H7 H 0.02010 0.40830 0.18440
H8 H 0.13880 0.37660 0.07150
H9 H 0.35750 0.49050 0.09160
H10 H 0.47660 0.64430 0.22970
H11 H 0.55520 0.80970 0.39520
H12 H 0.56420 0.92540 0.54070
H13 H 0.47360 1.24460 0.93920
H14 H 0.35000 1.30110 1.03510
H15 H 0.12550 1.18670 1.01090
H16 H 0.01920 1.00600 0.89910
H17 H 0.33710 0.23000 0.18040
H18 H 0.36370 0.37600 0.31100
H19 H 0.17390 0.22140 0.78060
H20 H 0.14380 0.07580 0.64930
H21 H 0.11310 -0.04740 0.52960
H22 H 0.08590 -0.18420 0.39040
H23 H 0.22180 0.43510 0.89990
H24 H 0.27820 0.63040 0.97230
H25 H 0.35880 0.77920 0.89160
H26 H 0.39120 0.73740 0.73560
H27 H 0.39750 0.63360 0.56050
H28 H 0.37550 0.49720 0.42410
H29 H 0.27430 0.01320 0.05670
H30 H 0.19770 -0.18410 -0.02160
H31 H 0.10570 -0.33460 0.05850
H32 H 0.08210 -0.28910 0.21520
loop_
_geom_bond_atom_site_label_1
_geom_bond_atom_site_label_2
_geom_bond_distance
_geom_bond_site_symmetry_1
_geom_bond_site_symmetry_2
C1 C2 1.383 1_555 1_555
C2 C3 1.404 1_555 1_555
C3 C4 1.466 1_555 1_555
C4 C5 1.420 1_555 1_555
C5 C6 1.468 1_555 1_555
C6 C2 1.399 1_555 1_555
C7 C6 1.372 1_555 1_555
C8 C7 1.418 1_555 1_555
C9 C1 1.423 1_555 1_555
C10 C9 1.461 1_555 1_555
C11 C10 1.430 1_555 1_555
C12 C11 1.389 1_555 1_555
C13 C12 1.412 1_555 1_555
C14 C13 1.463 1_555 1_555
C15 C14 1.422 1_555 1_555
C16 C12 1.411 1_555 1_555
C17 C16 1.369 1_555 1_555
C18 C17 1.413 1_555 1_555
C19 C11 1.432 1_555 1_555
C20 C1 1.425 1_555 1_555
C21 C20 1.391 1_555 1_555
C22 C3 1.371 1_555 1_555
C23 C15 1.381 1_555 1_555
C24 C23 1.395 1_555 1_555
C25 C24 1.389 1_555 1_555
C26 C14 1.377 1_555 1_555
C27 C13 1.364 1_555 1_555
C28 C10 1.394 1_555 1_555
C29 C5 1.383 1_555 1_555
C30 C29 1.392 1_555 1_555
C31 C30 1.384 1_555 1_555
C32 C4 1.383 1_555 1_555
C33 C34 1.384 1_555 1_555
C34 C35 1.406 1_555 1_555
C35 C36 1.463 1_555 1_555
C36 C37 1.422 1_555 1_555
C37 C38 1.470 1_555 1_555
C38 C34 1.406 1_555 1_555
C39 C38 1.373 1_555 1_555
C40 C39 1.413 1_555 1_555
C41 C33 1.424 1_555 1_555
C42 C41 1.460 1_555 1_555
C43 C42 1.426 1_555 1_555
C44 C43 1.387 1_555 1_555
C45 C44 1.402 1_555 1_555
C46 C45 1.468 1_555 1_555
C47 C46 1.420 1_555 1_555
C48 C44 1.406 1_555 1_555
C49 C48 1.371 1_555 1_555
C50 C49 1.413 1_555 1_555
C51 C43 1.428 1_555 1_555
C52 C33 1.429 1_555 1_555
C53 C52 1.392 1_555 1_555
C54 C35 1.370 1_555 1_555
C55 C47 1.379 1_555 1_555
C56 C55 1.385 1_555 1_555
C57 C56 1.385 1_555 1_555
C58 C46 1.379 1_555 1_555
C59 C45 1.374 1_555 1_555
C60 C42 1.386 1_555 1_555
C61 C37 1.383 1_555 1_555
C62 C61 1.401 1_555 1_555
C63 C62 1.382 1_555 1_555
C64 C36 1.384 1_555 1_555
H1 C7 1.000 1_555 1_555
H2 C8 1.006 1_555 1_555
H3 C17 0.987 1_555 1_555
H4 C18 1.012 1_555 1_555
H5 C21 1.002 1_555 1_555
H6 C22 0.999 1_555 1_555
H7 C23 0.992 1_555 1_555
H8 C24 0.973 1_555 1_555
H9 C25 0.990 1_555 1_555
H10 C26 0.986 1_555 1_555
H11 C27 0.999 1_555 1_555
H12 C28 1.007 1_555 1_555
H13 C29 0.997 1_555 1_555
H14 C30 0.995 1_555 1_555
H15 C31 0.986 1_555 1_555
H16 C32 0.974 1_555 1_555
H17 C39 0.993 1_555 1_555
H18 C40 1.040 1_555 1_555
H19 C49 1.001 1_555 1_555
H20 C50 1.025 1_555 1_555
H21 C53 1.019 1_555 1_555
H22 C54 1.017 1_555 1_555
H23 C55 0.961 1_555 1_555
H24 C56 0.993 1_555 1_555
H25 C57 1.002 1_555 1_555
H26 C58 1.034 1_555 1_555
H27 C59 1.034 1_555 1_555
H28 C60 1.025 1_555 1_555
H29 C61 0.967 1_555 1_555
H30 C62 0.998 1_555 1_555
H31 C63 0.991 1_555 1_555
H32 C64 1.011 1_555 1_555
C8 C9 1.385 1_555 1_555
C15 C16 1.470 1_555 1_555
C18 C19 1.392 1_555 1_555
C19 C20 1.458 1_555 1_555
C21 C22 1.412 1_555 1_555
C25 C26 1.388 1_555 1_555
C27 C28 1.410 1_555 1_555
C31 C32 1.392 1_555 1_555
C40 C41 1.390 1_555 1_555
C47 C48 1.468 1_555 1_555
C50 C51 1.392 1_555 1_555
C51 C52 1.463 1_555 1_555
C53 C54 1.408 1_555 1_555
C57 C58 1.393 1_555 1_555
C59 C60 1.418 1_555 1_555
C63 C64 1.387 1_555 1_555
#END
