
#######################################################################
#
#                 Cambridge Crystallographic Data Centre
#                                CCDC
#
#######################################################################
#
# If this CIF has been generated from an entry in the Cambridge
# Structural Database, then it will include bibliographic, chemical,
# crystal, experimental, refinement or atomic coordinate data resulting
# from the CCDC's data processing and validation procedures.
#
#######################################################################

data_CSD_CIF_POQCEE
_audit_creation_date 2009-09-08
_audit_creation_method CSD-ConQuest-V1
_database_code_CSD POQCEE
_database_code_depnum_ccdc_archive 'CCDC 705746'
_chemical_formula_sum 'C44 H32'
_chemical_formula_moiety
;
C44 H32
;
_journal_coden_Cambridge 1336
_journal_volume 11
_journal_year 2009
_journal_page_first 321
_journal_name_full 'Org.Lett. '
loop_
_publ_author_name
"S.Toyota"
"H.Onishi"
"Y.Kawai"
"T.Morimoto"
"H.Miyahara"
"T.Iwanaga"
"K.Wakamatsu"
_chemical_name_systematic
;
16,33-Dibutylheptacyclo[29.3.1.1^14,18^.0^5,34^.0^10,15^.0^17,22^.0^27,32^]hex
atriaconta-1(35),2,4,10,12,14,16,18(36),19,21,27,29,31,33-tetradecaene-6,8,23,
25-tetrayne
;
_chemical_name_common
;
anti-1$9!,6$9!-di-n-butyl-1,6(1,8)-dianthracenadecacyclophane-2,4,7,9-tetrayne
;
_chemical_melting_point 516.15
_cell_volume    746.240
_exptl_crystal_colour 'orange'
_exptl_crystal_density_diffrn 1.248
_exptl_special_details
;
Melts with decomposition.
fluorescent
anti conformer

;
_exptl_crystal_description 'platelet'
_exptl_crystal_preparation 'chlorobenzene'
_diffrn_ambient_temperature 173
#These two values have been output from a single CSD field.
_refine_ls_R_factor_gt 0.0617
_refine_ls_wR_factor_gt 0.0617
loop_
_citation_database_id_CSD
_citation_special_details
POXGOZ "is a stereoisomer of this entry"
_symmetry_cell_setting triclinic
_symmetry_space_group_name_H-M 'P -1'
_symmetry_Int_Tables_number 2
loop_
_symmetry_equiv_pos_site_id
_symmetry_equiv_pos_as_xyz
1 x,y,z
2 -x,-y,-z
_cell_length_a 9.0642(7)
_cell_length_b 10.2306(7)
_cell_length_c 10.1873(7)
_cell_angle_alpha 113.734(5)
_cell_angle_beta 100.374(3)
_cell_angle_gamma 111.086(2)
_cell_formula_units_Z 1
loop_
_atom_type_symbol
_atom_type_radius_bond
C 0.68
H 0.23
loop_
_atom_site_label
_atom_site_type_symbol
_atom_site_fract_x
_atom_site_fract_y
_atom_site_fract_z
C1 C 0.62219(15) 0.78711(14) 0.46976(14)
C2 C 0.60800(16) 0.88880(15) 0.60136(15)
H1 H 0.558(2) 0.962(2) 0.5944(18)
C3 C 0.64654(16) 0.88368(15) 0.73807(15)
H2 H 0.637(2) 0.960(2) 0.830(2)
C4 C 0.69418(16) 0.77177(15) 0.74204(15)
H3 H 0.715(2) 0.760(2) 0.837(2)
C5 C 0.81400(17) 0.31893(15) 0.49683(17)
H4 H 0.838(2) 0.325(2) 0.597(2)
C6 C 0.81640(17) 0.20272(16) 0.37015(17)
H5 H 0.843(2) 0.122(2) 0.377(2)
C7 C 0.76937(16) 0.19568(15) 0.22758(15)
H6 H 0.758(2) 0.102(2) 0.131(2)
C8 C 0.72976(15) 0.31003(14) 0.21303(14)
C9 C 0.71855(14) 0.57623(14) 0.34788(13)
C10 C 0.76285(16) 0.55182(15) 0.61754(15)
H7 H 0.787(2) 0.548(2) 0.714(2)
C11 C 0.68727(15) 0.67540(14) 0.47311(14)
C12 C 0.71379(15) 0.66527(14) 0.61034(15)
C13 C 0.74131(14) 0.44525(14) 0.34919(14)
C14 C 0.77143(15) 0.43861(14) 0.48780(15)
C15 C 0.55124(15) 0.78203(14) 0.33033(14)
C16 C 0.48308(16) 0.77487(14) 0.21183(14)
C17 C 0.65650(15) 0.27703(14) 0.05947(14)
C18 C 0.58835(16) 0.24434(14) -0.07132(14)
C19 C 0.75174(16) 0.62095(13) 0.22757(13)
H8 H 0.790(2) 0.549(2) 0.1653(19)
H9 H 0.644(2) 0.5972(19) 0.1500(18)
C20 C 0.89036(15) 0.79840(14) 0.29703(14)
H10 H 0.8621(19) 0.8801(18) 0.3705(16)
H11 H 1.003(2) 0.8136(18) 0.3607(18)
C21 C 0.91301(18) 0.84109(17) 0.17280(17)
H12 H 1.000(2) 0.962(2) 0.225(2)
H13 H 0.798(2) 0.819(2) 0.107(2)
C22 C 0.9746(2) 0.7407(2) 0.06286(19)
H14 H 1.078(3) 0.750(2) 0.126(2)
H15 H 1.002(3) 0.779(3) -0.009(3)
H16 H 0.886(3) 0.619(2) -0.005(2)
C1A C 0.37781(15) 0.21289(14) -0.46976(14)
C2A C 0.39200(16) 0.11120(15) -0.60136(15)
H1A H 0.442(2) 0.038(2) -0.5944(18)
C3A C 0.35346(16) 0.11632(15) -0.73807(15)
H2A H 0.363(2) 0.040(2) -0.830(2)
C4A C 0.30582(16) 0.22823(15) -0.74204(15)
H3A H 0.285(2) 0.240(2) -0.837(2)
C5A C 0.18600(17) 0.68107(15) -0.49683(17)
H4A H 0.162(2) 0.675(2) -0.597(2)
C6A C 0.18360(17) 0.79728(16) -0.37015(17)
H5A H 0.157(2) 0.878(2) -0.377(2)
C7A C 0.23063(16) 0.80432(15) -0.22758(15)
H6A H 0.242(2) 0.898(2) -0.131(2)
C8A C 0.27024(15) 0.68997(14) -0.21303(14)
C9A C 0.28145(14) 0.42377(14) -0.34788(13)
C10A C 0.23715(16) 0.44818(15) -0.61754(15)
H7A H 0.213(2) 0.452(2) -0.714(2)
C11A C 0.31273(15) 0.32460(14) -0.47311(14)
C12A C 0.28621(15) 0.33473(14) -0.61034(15)
C13A C 0.25869(14) 0.55475(14) -0.34919(14)
C14A C 0.22857(15) 0.56139(14) -0.48780(15)
C15A C 0.44876(15) 0.21797(14) -0.33033(14)
C16A C 0.51692(16) 0.22513(14) -0.21183(14)
C17A C 0.34350(15) 0.72297(14) -0.05947(14)
C18A C 0.41165(16) 0.75566(14) 0.07132(14)
C19A C 0.24826(16) 0.37905(13) -0.22757(13)
H8A H 0.210(2) 0.451(2) -0.1653(19)
H9A H 0.356(2) 0.4028(19) -0.1500(18)
C20A C 0.10964(15) 0.20160(14) -0.29703(14)
H10A H 0.1379(19) 0.1199(18) -0.3705(16)
H11A H -0.003(2) 0.1864(18) -0.3607(18)
C21A C 0.08699(18) 0.15891(17) -0.17280(17)
H12A H 0.000(2) 0.038(2) -0.225(2)
H13A H 0.202(2) 0.181(2) -0.107(2)
C22A C 0.0254(2) 0.2593(2) -0.06286(19)
H14A H -0.078(3) 0.250(2) -0.126(2)
H15A H -0.002(3) 0.221(3) 0.009(3)
H16A H 0.114(3) 0.381(2) 0.005(2)
loop_
_geom_bond_atom_site_label_1
_geom_bond_atom_site_label_2
_geom_bond_distance
_geom_bond_site_symmetry_1
_geom_bond_site_symmetry_2
C1 C2 1.390 1_555 1_555
C2 H1 1.023 1_555 1_555
C3 C2 1.400 1_555 1_555
H2 C3 0.992 1_555 1_555
C4 C3 1.373 1_555 1_555
H3 C4 1.015 1_555 1_555
C5 H4 0.976 1_555 1_555
C6 C5 1.369 1_555 1_555
H5 C6 0.964 1_555 1_555
C7 C6 1.403 1_555 1_555
H6 C7 1.015 1_555 1_555
C8 C7 1.394 1_555 1_555
C9 C11 1.426 1_555 1_555
C10 H7 0.987 1_555 1_555
C11 C1 1.471 1_555 1_555
C12 C4 1.438 1_555 1_555
C13 C8 1.465 1_555 1_555
C14 C5 1.440 1_555 1_555
C15 C1 1.422 1_555 1_555
C16 C15 1.213 1_555 1_555
C17 C8 1.429 1_555 1_555
C18 C17 1.210 1_555 1_555
C19 C9 1.512 1_555 1_555
H8 C19 0.975 1_555 1_555
H9 C19 1.017 1_555 1_555
C20 C19 1.543 1_555 1_555
H10 C20 1.022 1_555 1_555
H11 C20 1.026 1_555 1_555
C21 C20 1.519 1_555 1_555
H12 C21 1.026 1_555 1_555
H13 C21 1.022 1_555 1_555
C22 C21 1.527 1_555 1_555
H14 C22 0.985 1_555 1_555
H15 C22 0.989 1_555 1_555
H16 C22 1.030 1_555 1_555
C1A C2A 1.390 1_555 1_555
C2A H1A 1.023 1_555 1_555
C3A C2A 1.400 1_555 1_555
H2A C3A 0.992 1_555 1_555
C4A C3A 1.373 1_555 1_555
H3A C4A 1.015 1_555 1_555
C5A H4A 0.976 1_555 1_555
C6A C5A 1.369 1_555 1_555
H5A C6A 0.964 1_555 1_555
C7A C6A 1.403 1_555 1_555
H6A C7A 1.015 1_555 1_555
C8A C7A 1.394 1_555 1_555
C9A C11A 1.426 1_555 1_555
C10A H7A 0.987 1_555 1_555
C11A C1A 1.471 1_555 1_555
C12A C4A 1.438 1_555 1_555
C13A C8A 1.465 1_555 1_555
C14A C5A 1.440 1_555 1_555
C15A C1A 1.422 1_555 1_555
C16A C18 1.362 1_555 1_555
C17A C8A 1.429 1_555 1_555
C18A C16 1.362 1_555 1_555
C19A C9A 1.512 1_555 1_555
H8A C19A 0.975 1_555 1_555
H9A C19A 1.017 1_555 1_555
C20A C19A 1.543 1_555 1_555
H10A C20A 1.022 1_555 1_555
H11A C20A 1.026 1_555 1_555
C21A C20A 1.519 1_555 1_555
H12A C21A 1.026 1_555 1_555
H13A C21A 1.022 1_555 1_555
C22A C21A 1.527 1_555 1_555
H14A C22A 0.985 1_555 1_555
H15A C22A 0.989 1_555 1_555
H16A C22A 1.030 1_555 1_555
C9 C13 1.432 1_555 1_555
C10 C12 1.407 1_555 1_555
C10 C14 1.401 1_555 1_555
C11 C12 1.427 1_555 1_555
C13 C14 1.423 1_555 1_555
C9A C13A 1.432 1_555 1_555
C10A C12A 1.407 1_555 1_555
C10A C14A 1.401 1_555 1_555
C11A C12A 1.427 1_555 1_555
C13A C14A 1.423 1_555 1_555
C15A C16A 1.213 1_555 1_555
C17A C18A 1.210 1_555 1_555
#END
