
#######################################################################
#
#                 Cambridge Crystallographic Data Centre
#                                CCDC
#
#######################################################################
#
# If this CIF has been generated from an entry in the Cambridge
# Structural Database, then it will include bibliographic, chemical,
# crystal, experimental, refinement or atomic coordinate data resulting
# from the CCDC's data processing and validation procedures.
#
#######################################################################

data_CSD_CIF_POXGOZ
_audit_creation_date 2009-09-08
_audit_creation_method CSD-ConQuest-V1
_database_code_CSD POXGOZ
_database_code_depnum_ccdc_archive 'CCDC 705747'
_chemical_formula_sum 'C44 H32'
_chemical_formula_moiety
;
C44 H32
;
_journal_coden_Cambridge 1336
_journal_volume 11
_journal_year 2009
_journal_page_first 321
_journal_name_full 'Org.Lett. '
loop_
_publ_author_name
"S.Toyota"
"H.Onishi"
"Y.Kawai"
"T.Morimoto"
"H.Miyahara"
"T.Iwanaga"
"K.Wakamatsu"
_chemical_name_systematic
;
16,33-Dibutylheptacyclo[29.3.1.1^14,18^.0^5,34^.0^10,15^.0^17,22^.0^27,32^]hex
atriaconta-1(35),2,4,10,12,14,16,18(36),19,21,27,29,31,33-tetradecaene-6,8,23,
25-tetrayne
;
_chemical_name_common
;
syn-1$9!,6$9!-di-n-butyl-1,6(1,8)-dianthracenadecacyclophane-2,4,7,9-tetrayne
;
_chemical_melting_point 451.15
_cell_volume   1530.675
_exptl_crystal_colour 'orange'
_exptl_crystal_density_diffrn 1.217
_exptl_special_details
;
Melts with decomposition.
fluorescent
syn conformer

;
_exptl_crystal_description 'block'
_exptl_crystal_preparation 'hexane'
_diffrn_ambient_temperature 113
#These two values have been output from a single CSD field.
_refine_ls_R_factor_gt 0.0586
_refine_ls_wR_factor_gt 0.0586
loop_
_citation_database_id_CSD
_citation_special_details
POQCEE "is a stereoisomer of this entry"
_symmetry_cell_setting triclinic
_symmetry_space_group_name_H-M 'P -1'
_symmetry_Int_Tables_number 2
loop_
_symmetry_equiv_pos_site_id
_symmetry_equiv_pos_as_xyz
1 x,y,z
2 -x,-y,-z
_cell_length_a 11.1772(7)
_cell_length_b 11.9076(14)
_cell_length_c 13.265(3)
_cell_angle_alpha 72.870(12)
_cell_angle_beta 72.915(14)
_cell_angle_gamma 68.027(9)
_cell_formula_units_Z 2
loop_
_atom_type_symbol
_atom_type_radius_bond
C 0.68
H 0.23
loop_
_atom_site_label
_atom_site_type_symbol
_atom_site_fract_x
_atom_site_fract_y
_atom_site_fract_z
C1 C 0.6438(2) 0.07890(19) 0.35714(17)
C2 C 0.5138(2) 0.0839(2) 0.37656(18)
H1 H 0.492(2) 0.022(2) 0.3569(18)
C3 C 0.4099(2) 0.1714(2) 0.43022(19)
H2 H 0.321(2) 0.169(2) 0.4436(19)
C4 C 0.4382(2) 0.2499(2) 0.46946(18)
H3 H 0.372(2) 0.300(2) 0.5097(18)
C5 C 0.7503(2) 0.4100(2) 0.52986(18)
H4 H 0.679(2) 0.462(2) 0.5687(18)
C6 C 0.8747(2) 0.4094(2) 0.52114(19)
H5 H 0.891(2) 0.459(2) 0.5532(18)
C7 C 0.9828(2) 0.3219(2) 0.47016(18)
H6 H 1.075(2) 0.3106(19) 0.4662(17)
C8 C 0.9657(2) 0.24161(19) 0.42226(17)
C9 C 0.8067(2) 0.17855(19) 0.36377(17)
C10 C 0.5973(2) 0.3310(2) 0.49294(18)
H7 H 0.530(2) 0.382(2) 0.5316(18)
C11 C 0.6771(2) 0.16928(19) 0.38918(16)
C12 C 0.5700(2) 0.25036(19) 0.45206(17)
C13 C 0.8337(2) 0.24742(19) 0.42085(16)
C14 C 0.7260(2) 0.32869(19) 0.48252(17)
C15 C 0.9063(2) 0.1319(2) 0.26747(18)
H8 H 0.988(2) 0.0631(19) 0.2908(16)
H9 H 0.869(2) 0.0932(19) 0.2298(17)
C16 C 0.9516(2) 0.2347(2) 0.18056(18)
H10 H 0.876(2) 0.291(2) 0.1469(19)
H11 H 0.978(2) 0.284(2) 0.2129(18)
C17 C 1.0648(3) 0.1831(2) 0.09208(19)
H12 H 1.038(2) 0.127(2) 0.0613(19)
H13 H 1.146(3) 0.123(2) 0.127(2)
C18 C 1.1028(3) 0.2829(3) -0.0003(2)
H14 H 1.131(3) 0.334(2) 0.027(2)
H15 H 1.180(3) 0.243(2) -0.054(2)
H16 H 1.026(3) 0.334(3) -0.038(2)
C19 C 1.0817(2) 0.1472(2) 0.38430(18)
C20 C 1.1787(2) 0.0675(2) 0.35404(18)
C21 C 1.2817(2) -0.0272(2) 0.31404(18)
C22 C 1.3638(2) -0.1119(2) 0.27554(17)
C23 C 1.4626(2) -0.22045(19) 0.24383(17)
C24 C 1.5887(2) -0.2425(2) 0.25691(18)
H17 H 1.606(2) -0.1746(19) 0.2776(17)
C25 C 1.6875(2) -0.3586(2) 0.25157(18)
H18 H 1.773(2) -0.367(2) 0.2618(19)
C26 C 1.6581(2) -0.4524(2) 0.23601(18)
H19 H 1.725(2) -0.536(2) 0.2384(18)
C27 C 1.3452(2) -0.6260(2) 0.19667(18)
H20 H 1.421(2) -0.7070(19) 0.1940(16)
C28 C 1.2211(2) -0.6196(2) 0.19737(19)
H21 H 1.202(2) -0.699(2) 0.1942(19)
C29 C 1.1176(2) -0.5073(2) 0.20580(19)
H22 H 1.027(2) -0.506(2) 0.2116(18)
C30 C 1.1397(2) -0.4019(2) 0.20866(17)
C31 C 1.3067(2) -0.29664(19) 0.19526(16)
C32 C 1.5014(2) -0.5329(2) 0.20712(18)
H23 H 1.574(3) -0.618(2) 0.205(2)
C33 C 1.4306(2) -0.31484(19) 0.21744(16)
C34 C 1.5299(2) -0.4340(2) 0.22023(17)
C35 C 1.2730(2) -0.40239(19) 0.20008(16)
C36 C 1.3743(2) -0.5209(2) 0.20162(17)
C37 C 1.2227(2) -0.1678(2) 0.15101(18)
H24 H 1.132(2) -0.1386(19) 0.1974(17)
H25 H 1.264(2) -0.1066(19) 0.1469(16)
C38 C 1.2065(2) -0.1570(2) 0.03617(19)
H26 H 1.139(2) -0.071(2) 0.0091(19)
H27 H 1.159(2) -0.214(2) 0.0355(17)
C39 C 1.3372(3) -0.1784(2) -0.0466(2)
H28 H 1.400(2) -0.265(2) -0.0227(18)
H29 H 1.318(3) -0.172(2) -0.119(2)
C40 C 1.4066(3) -0.0837(3) -0.0636(3)
H30 H 1.344(3) 0.002(3) -0.082(2)
H31 H 1.439(3) -0.092(2) 0.004(2)
H32 H 1.486(3) -0.091(2) -0.122(2)
C41 C 1.0255(2) -0.2991(2) 0.23344(18)
C42 C 0.9270(2) -0.2176(2) 0.26155(18)
C43 C 0.8239(2) -0.1185(2) 0.29330(18)
C44 C 0.7421(2) -0.0263(2) 0.31995(17)
loop_
_geom_bond_atom_site_label_1
_geom_bond_atom_site_label_2
_geom_bond_distance
_geom_bond_site_symmetry_1
_geom_bond_site_symmetry_2
C1 C2 1.380 1_555 1_555
C2 H1 0.978 1_555 1_555
C3 C2 1.409 1_555 1_555
H2 C3 0.967 1_555 1_555
C4 C3 1.360 1_555 1_555
H3 C4 0.902 1_555 1_555
C5 H4 0.928 1_555 1_555
C6 C5 1.358 1_555 1_555
H5 C6 0.915 1_555 1_555
C7 C6 1.413 1_555 1_555
H6 C7 0.975 1_555 1_555
C8 C7 1.386 1_555 1_555
C9 C11 1.427 1_555 1_555
C10 H7 0.901 1_555 1_555
C11 C1 1.463 1_555 1_555
C12 C4 1.424 1_555 1_555
C13 C8 1.456 1_555 1_555
C14 C5 1.436 1_555 1_555
C15 C9 1.516 1_555 1_555
H8 C15 1.028 1_555 1_555
H9 C15 1.019 1_555 1_555
C16 C15 1.541 1_555 1_555
H10 C16 0.992 1_555 1_555
H11 C16 0.984 1_555 1_555
C17 C16 1.525 1_555 1_555
H12 C17 1.042 1_555 1_555
H13 C17 1.056 1_555 1_555
C18 C17 1.519 1_555 1_555
H14 C18 0.970 1_555 1_555
H15 C18 1.005 1_555 1_555
H16 C18 1.019 1_555 1_555
C19 C8 1.434 1_555 1_555
C20 C19 1.198 1_555 1_555
C21 C20 1.379 1_555 1_555
C22 C21 1.206 1_555 1_555
C23 C22 1.431 1_555 1_555
C24 C23 1.388 1_555 1_555
H17 C24 1.022 1_555 1_555
C25 C24 1.416 1_555 1_555
H18 C25 0.969 1_555 1_555
C26 C25 1.360 1_555 1_555
H19 C26 0.995 1_555 1_555
C27 H20 1.020 1_555 1_555
C28 C27 1.358 1_555 1_555
H21 C28 1.059 1_555 1_555
C29 C28 1.412 1_555 1_555
H22 C29 0.987 1_555 1_555
C30 C29 1.380 1_555 1_555
C31 C33 1.424 1_555 1_555
C32 H23 1.036 1_555 1_555
C33 C23 1.456 1_555 1_555
C34 C26 1.435 1_555 1_555
C35 C30 1.458 1_555 1_555
C36 C27 1.429 1_555 1_555
C37 C31 1.515 1_555 1_555
H24 C37 1.011 1_555 1_555
H25 C37 0.980 1_555 1_555
C38 C37 1.549 1_555 1_555
H26 C38 1.054 1_555 1_555
H27 C38 1.009 1_555 1_555
C39 C38 1.532 1_555 1_555
H28 C39 1.026 1_555 1_555
H29 C39 1.020 1_555 1_555
C40 C39 1.525 1_555 1_555
H30 C40 1.005 1_555 1_555
H31 C40 1.028 1_555 1_555
H32 C40 0.987 1_555 1_555
C41 C30 1.434 1_555 1_555
C42 C41 1.211 1_555 1_555
C43 C42 1.374 1_555 1_555
C44 C1 1.427 1_555 1_555
C9 C13 1.422 1_555 1_555
C10 C12 1.390 1_555 1_555
C10 C14 1.395 1_555 1_555
C11 C12 1.443 1_555 1_555
C13 C14 1.439 1_555 1_555
C31 C35 1.423 1_555 1_555
C32 C34 1.397 1_555 1_555
C32 C36 1.395 1_555 1_555
C33 C34 1.436 1_555 1_555
C35 C36 1.440 1_555 1_555
C43 C44 1.206 1_555 1_555
#END
