
#######################################################################
#
#                 Cambridge Crystallographic Data Centre
#                                CCDC
#
#######################################################################
#
# If this CIF has been generated from an entry in the Cambridge
# Structural Database, then it will include bibliographic, chemical,
# crystal, experimental, refinement or atomic coordinate data resulting
# from the CCDC's data processing and validation procedures.
#
#######################################################################

data_CSD_CIF_PRYNAP
_audit_creation_date 1972-12-21
_audit_creation_method CSD-ConQuest-V1
_database_code_CSD PRYNAP
_database_code_depnum_ccdc_archive 'CCDC 1238202'
_chemical_formula_sum 'C16 H12'
_chemical_formula_moiety
;
C16 H12
;
_journal_coden_Cambridge 48
_journal_volume 105
_journal_year 1972
_journal_page_first 1595
_journal_name_full 'Chem.Ber. '
loop_
_publ_author_name
"A.E.Jungk"
_chemical_name_systematic
;
1,8-Di(prop-1-ynyl)naphthalene
;
_cell_volume   2373.277
_exptl_crystal_density_diffrn 1.16
_exptl_special_details
;
VALUES ARE ALSO REPORTED FOR ATOMIC COORDINATES CORRECTED FOR THERMAL 
VIBRATION
;
_diffrn_ambient_temperature ?
_diffrn_special_details
;
The study was carried out at room temperature,in the range 283-303K

;
#These two values have been output from a single CSD field.
_refine_ls_R_factor_gt 0.058
_refine_ls_wR_factor_gt 0.058
_symmetry_cell_setting monoclinic
_symmetry_space_group_name_H-M 'P 21/c'
_symmetry_Int_Tables_number 14
loop_
_symmetry_equiv_pos_site_id
_symmetry_equiv_pos_as_xyz
1 x,y,z
2 -x,1/2+y,1/2-z
3 -x,-y,-z
4 x,-1/2-y,-1/2+z
_cell_length_a 15.4306(4)
_cell_length_b 12.9498(3)
_cell_length_c 11.9690(2)
_cell_angle_alpha 90
_cell_angle_beta 97.113(2)
_cell_angle_gamma 90
_cell_formula_units_Z 8
loop_
_atom_type_symbol
_atom_type_radius_bond
C 0.68
H 0.20
loop_
_atom_site_label
_atom_site_type_symbol
_atom_site_fract_x
_atom_site_fract_y
_atom_site_fract_z
C1 C 0.08240 0.12670 0.06860
C2 C -0.02340 0.22410 -0.06050
C3 C 0.10910 0.06000 0.16340
C4 C 0.13860 0.00880 0.24090
C5 C 0.16810 -0.05790 0.33840
C6 C -0.07420 0.04560 0.17670
C7 C -0.07850 -0.01120 0.25440
C8 C -0.08040 -0.08190 0.35020
C9 C 0.14760 0.16680 0.01210
C10 C 0.13020 0.23520 -0.07870
C11 C 0.04650 0.26360 -0.11370
C12 C -0.10970 0.25460 -0.09960
C13 C -0.17810 0.21850 -0.05010
C14 C -0.16330 0.14950 0.04090
C15 C -0.08070 0.11670 0.08290
C16 C -0.00690 0.15400 0.03260
H1 H 0.20800 0.14700 0.03800
H2 H 0.17700 0.26200 -0.11600
H3 H 0.03200 0.31100 -0.17400
H4 H -0.11800 0.30000 -0.15900
H5 H -0.23700 0.23600 -0.07800
H6 H -0.21000 0.12000 0.07800
H7 H 0.20800 -0.03200 0.38600
H8 H 0.14100 -0.05500 0.38500
H9 H 0.19800 -0.12100 0.31700
H10 H -0.05700 -0.05300 0.41500
H11 H -0.13100 -0.09100 0.36400
H12 H -0.03100 -0.12700 0.35700
C17 C -0.39030 -0.07920 0.14370
C18 C -0.31210 -0.03740 0.19190
C19 C -0.30830 0.04630 0.26690
C20 C -0.38280 0.08900 0.29390
C21 C -0.54230 0.09960 0.27390
C22 C -0.62190 0.06610 0.22860
C23 C -0.62890 -0.01710 0.15220
C24 C -0.55620 -0.06760 0.12200
C25 C -0.47100 -0.03430 0.16890
C26 C -0.46500 0.05140 0.24610
C27 C -0.38450 -0.16840 0.07130
C28 C -0.36930 -0.24110 0.01600
C29 C -0.35450 -0.33140 -0.05510
C30 C -0.57110 -0.15240 0.04230
C31 C -0.58940 -0.22000 -0.02380
C32 C -0.60550 -0.30580 -0.10510
H13 H -0.26000 -0.07000 0.17700
H14 H -0.25000 0.07200 0.30100
H15 H -0.38600 0.15000 0.34500
H16 H -0.53300 0.15900 0.32400
H17 H -0.67300 0.10000 0.24400
H18 H -0.68800 -0.03900 0.12200
H19 H -0.30000 -0.36500 -0.03300
H20 H -0.37300 -0.31200 -0.13200
H21 H -0.39200 -0.38200 -0.04700
H22 H -0.60500 -0.37600 -0.06800
H23 H -0.56600 -0.30800 -0.15900
H24 H -0.64900 -0.29200 -0.15200
loop_
_geom_bond_atom_site_label_1
_geom_bond_atom_site_label_2
_geom_bond_distance
_geom_bond_site_symmetry_1
_geom_bond_site_symmetry_2
C1 C3 1.445 1_555 1_555
C2 C11 1.414 1_555 1_555
C3 C4 1.184 1_555 1_555
C4 C5 1.478 1_555 1_555
C5 H7 0.854 1_555 1_555
C6 C7 1.194 1_555 1_555
C7 C8 1.470 1_555 1_555
C8 H10 0.896 1_555 1_555
C9 C1 1.381 1_555 1_555
C10 C9 1.402 1_555 1_555
C11 C10 1.358 1_555 1_555
C12 C2 1.412 1_555 1_555
C13 C12 1.356 1_555 1_555
C14 C13 1.405 1_555 1_555
C15 C6 1.446 1_555 1_555
C16 C1 1.436 1_555 1_555
H1 C9 0.979 1_555 1_555
H2 C10 0.960 1_555 1_555
H3 C11 0.953 1_555 1_555
H4 C12 0.919 1_555 1_555
H5 C13 0.956 1_555 1_555
H6 C14 0.970 1_555 1_555
H8 C5 0.738 1_555 1_555
H9 C5 0.988 1_555 1_555
H11 C8 0.826 1_555 1_555
H12 C8 0.956 1_555 1_555
C17 C18 1.382 1_555 1_555
C18 C19 1.404 1_555 1_555
C19 C20 1.350 1_555 1_555
C20 C26 1.412 1_555 1_555
C21 C22 1.351 1_555 1_555
C22 C23 1.409 1_555 1_555
C23 C24 1.385 1_555 1_555
C24 C25 1.431 1_555 1_555
C25 C17 1.440 1_555 1_555
C26 C21 1.422 1_555 1_555
C27 C17 1.453 1_555 1_555
C28 C27 1.191 1_555 1_555
C29 C28 1.481 1_555 1_555
C30 C24 1.454 1_555 1_555
C31 C30 1.190 1_555 1_555
C32 C31 1.478 1_555 1_555
H13 C18 0.944 1_555 1_555
H14 C19 0.998 1_555 1_555
H15 C20 1.004 1_555 1_555
H16 C21 0.975 1_555 1_555
H17 C22 0.940 1_555 1_555
H18 C23 0.980 1_555 1_555
H19 C29 0.955 1_555 1_555
H20 C29 0.963 1_555 1_555
H21 C29 0.887 1_555 1_555
H22 C32 1.011 1_555 1_555
H23 C32 0.941 1_555 1_555
H24 C32 0.839 1_555 1_555
C2 C16 1.435 1_555 1_555
C14 C15 1.378 1_555 1_555
C15 C16 1.436 1_555 1_555
C25 C26 1.440 1_555 1_555
#END
