
#######################################################################
#
#                 Cambridge Crystallographic Data Centre
#                                CCDC
#
#######################################################################
#
# If this CIF has been generated from an entry in the Cambridge
# Structural Database, then it will include bibliographic, chemical,
# crystal, experimental, refinement or atomic coordinate data resulting
# from the CCDC's data processing and validation procedures.
#
#######################################################################

data_CSD_CIF_PUBVUD
_audit_creation_date 1998-11-26
_audit_creation_method CSD-ConQuest-V1
_database_code_CSD PUBVUD
_database_code_depnum_ccdc_journal 1003/5334
_chemical_formula_sum 'C20 H16'
_chemical_formula_moiety
;
C20 H16
;
_journal_coden_Cambridge 1003
_journal_volume 28
_journal_year 1998
_journal_page_first 317
_journal_name_full 'J.Chem.Cryst. '
loop_
_publ_author_name
"M.J.Plater"
"R.A.Howie"
"D.M.Schmidt"
_chemical_name_systematic
;
1,4-Dimethyltriphenylene
;
_chemical_melting_point 379
_cell_volume   2789.471
_exptl_crystal_colour 'colorless'
_exptl_crystal_density_diffrn 1.221
_exptl_special_details
;
Melting point range 379-379.5K

;
_exptl_crystal_description 'block'
_diffrn_ambient_temperature ?
_diffrn_special_details
;
The study was carried out at room temperature,in the range 283-303K

;
#These two values have been output from a single CSD field.
_refine_ls_R_factor_gt 0.0883
_refine_ls_wR_factor_gt 0.0883
_symmetry_cell_setting monoclinic
_symmetry_space_group_name_H-M 'P 21/n'
_symmetry_Int_Tables_number 14
loop_
_symmetry_equiv_pos_site_id
_symmetry_equiv_pos_as_xyz
1 x,y,z
2 1/2+x,1/2-y,1/2+z
3 -x,-y,-z
4 -1/2-x,-1/2+y,-1/2-z
_cell_length_a 10.063(8)
_cell_length_b 23.015(15)
_cell_length_c 12.938(10)
_cell_angle_alpha 90
_cell_angle_beta 111.42(6)
_cell_angle_gamma 90
_cell_formula_units_Z 8
loop_
_atom_type_symbol
_atom_type_radius_bond
C 0.68
H 0.23
loop_
_atom_site_label
_atom_site_type_symbol
_atom_site_fract_x
_atom_site_fract_y
_atom_site_fract_z
C1 C 0.2958(4) 0.15770(17) -0.0675(3)
C2 C 0.4265(5) 0.13804(19) -0.0713(4)
H1 H 0.46530 0.15660 -0.11770
C3 C 0.4974(5) 0.0919(2) -0.0078(4)
H2 H 0.58380 0.07990 -0.01150
C4 C 0.4434(5) 0.0633(2) 0.0608(4)
H3 H 0.49440 0.03330 0.10620
C5 C 0.3122(5) 0.07972(19) 0.0617(4)
H4 H 0.27330 0.05930 0.10600
C6 C 0.2360(4) 0.12618(17) -0.0022(4)
C7 C 0.0945(4) 0.14249(18) -0.0028(4)
C8 C 0.0434(5) 0.1194(2) 0.0755(4)
H5 H 0.09900 0.09270 0.12720
C9 C -0.0869(6) 0.1352(2) 0.0777(5)
H6 H -0.12060 0.11900 0.12940
C10 C -0.1678(5) 0.1759(2) 0.0010(5)
H7 H -0.25560 0.18760 0.00240
C11 C -0.1203(5) 0.19859(19) -0.0752(4)
H8 H -0.17570 0.22640 -0.12430
C12 C 0.0102(4) 0.18167(17) -0.0830(4)
C13 C 0.0660(4) 0.20957(17) -0.1602(4)
C14 C -0.0202(5) 0.2419(2) -0.2549(4)
C15 C 0.0482(6) 0.2788(2) -0.3029(4)
H9 H -0.00620 0.30010 -0.36510
C16 C 0.1933(6) 0.2854(2) -0.2624(4)
H10 H 0.23370 0.31510 -0.28980
C17 C 0.2812(5) 0.24876(18) -0.1817(4)
C18 C 0.2172(4) 0.20666(17) -0.1361(3)
C19 C -0.1808(5) 0.2362(3) -0.3103(5)
H11 H -0.22610 0.26640 -0.28370
H12 H -0.21030 0.19900 -0.29300
H13 H -0.20770 0.23980 -0.38920
C20 C 0.4418(5) 0.2596(2) -0.1451(5)
H14 H 0.47940 0.23760 -0.19130
H15 H 0.48810 0.24780 -0.06920
H16 H 0.45880 0.30020 -0.15190
C21 C 0.3231(5) 0.03140(18) 0.3554(4)
C22 C 0.4575(5) 0.0119(2) 0.3608(4)
H17 H 0.53790 0.03300 0.40310
C23 C 0.4754(5) -0.0366(2) 0.3068(4)
H18 H 0.56660 -0.04810 0.31290
C24 C 0.3583(6) -0.0684(2) 0.2430(5)
H19 H 0.36960 -0.10070 0.20380
C25 C 0.2249(5) -0.0521(2) 0.2379(4)
H20 H 0.14630 -0.07430 0.19650
C26 C 0.2045(5) -0.00262(17) 0.2936(4)
C27 C 0.0632(5) 0.01300(17) 0.2915(4)
C28 C -0.0607(5) -0.0125(2) 0.2134(4)
H21 H -0.05200 -0.03930 0.16240
C29 C -0.1939(5) 0.0020(2) 0.2120(5)
H22 H -0.27460 -0.01580 0.16160
C30 C -0.2076(5) 0.0425(2) 0.2845(5)
H23 H -0.29790 0.05230 0.28300
C31 C -0.0896(5) 0.0688(2) 0.3597(4)
H24 H -0.10120 0.09700 0.40720
C32 C 0.0491(4) 0.05390(18) 0.3661(4)
C33 C 0.1766(5) 0.08559(17) 0.4419(4)
C34 C 0.1732(6) 0.1211(2) 0.5294(4)
C35 C 0.2853(6) 0.1595(2) 0.5759(4)
H25 H 0.28520 0.18330 0.63400
C36 C 0.3965(6) 0.1635(2) 0.5389(5)
H26 H 0.46280 0.19320 0.56550
C37 C 0.4124(5) 0.12451(19) 0.4631(4)
C38 C 0.3044(5) 0.08155(18) 0.4188(4)
C39 C 0.0627(6) 0.1187(2) 0.5829(5)
H27 H 0.10590 0.12950 0.65960
H28 H 0.02550 0.07990 0.57760
H29 H -0.01370 0.14510 0.54550
C40 C 0.5410(6) 0.1328(2) 0.4306(5)
H30 H 0.57100 0.17270 0.44180
H31 H 0.51620 0.12290 0.35380
H32 H 0.61730 0.10820 0.47550
loop_
_geom_bond_atom_site_label_1
_geom_bond_atom_site_label_2
_geom_bond_distance
_geom_bond_site_symmetry_1
_geom_bond_site_symmetry_2
C1 C2 1.409 1_555 1_555
C2 H1 0.931 1_555 1_555
C3 C2 1.372 1_555 1_555
H2 C3 0.930 1_555 1_555
C4 C3 1.367 1_555 1_555
H3 C4 0.930 1_555 1_555
C5 C4 1.377 1_555 1_555
H4 C5 0.931 1_555 1_555
C6 C1 1.405 1_555 1_555
C7 C6 1.470 1_555 1_555
C8 C7 1.398 1_555 1_555
H5 C8 0.930 1_555 1_555
C9 C8 1.371 1_555 1_555
H6 C9 0.931 1_555 1_555
C10 C9 1.391 1_555 1_555
H7 C10 0.930 1_555 1_555
C11 C10 1.348 1_555 1_555
H8 C11 0.930 1_555 1_555
C12 C7 1.402 1_555 1_555
C13 C12 1.461 1_555 1_555
C14 C13 1.425 1_555 1_555
C15 C14 1.376 1_555 1_555
H9 C15 0.931 1_555 1_555
C16 C15 1.368 1_555 1_555
H10 C16 0.929 1_555 1_555
C17 C16 1.382 1_555 1_555
C18 C1 1.473 1_555 1_555
C19 C14 1.515 1_555 1_555
H11 C19 0.961 1_555 1_555
H12 C19 0.959 1_555 1_555
H13 C19 0.959 1_555 1_555
C20 C17 1.529 1_555 1_555
H14 C20 0.960 1_555 1_555
H15 C20 0.960 1_555 1_555
H16 C20 0.960 1_555 1_555
C21 C22 1.402 1_555 1_555
C22 H17 0.931 1_555 1_555
C23 C22 1.363 1_555 1_555
H18 C23 0.930 1_555 1_555
C24 C23 1.377 1_555 1_555
H19 C24 0.930 1_555 1_555
C25 C24 1.372 1_555 1_555
H20 C25 0.930 1_555 1_555
C26 C21 1.407 1_555 1_555
C27 C26 1.457 1_555 1_555
C28 C27 1.414 1_555 1_555
H21 C28 0.930 1_555 1_555
C29 C28 1.375 1_555 1_555
H22 C29 0.930 1_555 1_555
C30 C29 1.365 1_555 1_555
H23 C30 0.930 1_555 1_555
C31 C30 1.371 1_555 1_555
H24 C31 0.930 1_555 1_555
C32 C27 1.392 1_555 1_555
C33 C32 1.490 1_555 1_555
C34 C33 1.407 1_555 1_555
C35 C34 1.386 1_555 1_555
H25 C35 0.930 1_555 1_555
C36 C35 1.372 1_555 1_555
H26 C36 0.929 1_555 1_555
C37 C36 1.381 1_555 1_555
C38 C21 1.467 1_555 1_555
C39 C34 1.510 1_555 1_555
H27 C39 0.959 1_555 1_555
H28 C39 0.961 1_555 1_555
H29 C39 0.961 1_555 1_555
C40 C37 1.512 1_555 1_555
H30 C40 0.961 1_555 1_555
H31 C40 0.959 1_555 1_555
H32 C40 0.960 1_555 1_555
C5 C6 1.397 1_555 1_555
C11 C12 1.408 1_555 1_555
C13 C18 1.439 1_555 1_555
C17 C18 1.407 1_555 1_555
C25 C26 1.402 1_555 1_555
C31 C32 1.410 1_555 1_555
C33 C38 1.426 1_555 1_555
C37 C38 1.426 1_555 1_555
#END
