
#######################################################################
#
#                 Cambridge Crystallographic Data Centre
#                                CCDC
#
#######################################################################
#
# If this CIF has been generated from an entry in the Cambridge
# Structural Database, then it will include bibliographic, chemical,
# crystal, experimental, refinement or atomic coordinate data resulting
# from the CCDC's data processing and validation procedures.
#
#######################################################################

data_CSD_CIF_PUJQIV
_audit_creation_date 2010-04-23
_audit_creation_method CSD-ConQuest-V1
_database_code_CSD PUJQIV
_database_code_depnum_ccdc_archive 'CCDC 769987'
_chemical_formula_sum 'C20 H14'
_chemical_formula_moiety
;
C20 H14
;
_journal_coeditor_code "IUCr SJ2726"
_journal_coden_Cambridge 1370
_journal_volume 66
_journal_year 2010
_journal_page_first o592
_journal_name_full 'Acta Crystallogr.,Sect.E:Struct.Rep.Online '
loop_
_publ_author_name
"Jian Ye"
"Zi-Fa Shi"
"Chun-Lin Sun"
"Zhu-Guo Xu"
"Hao-Li Zhang"
_chemical_name_systematic
;
2-(Naphthalen-2-yl)azulene
;
_chemical_melting_point 547.15
_cell_volume    663.378
_exptl_crystal_colour 'blue'
_exptl_crystal_density_diffrn 1.273
_exptl_special_details
;
Melting point range 547.15-549.15K

;
_exptl_crystal_description 'block'
_exptl_crystal_preparation 'chloroform'
_diffrn_ambient_temperature 293
#These two values have been output from a single CSD field.
_refine_ls_R_factor_gt 0.0497
_refine_ls_wR_factor_gt 0.0497
_symmetry_cell_setting triclinic
_symmetry_space_group_name_H-M 'P 1'
_symmetry_Int_Tables_number 1
loop_
_symmetry_equiv_pos_site_id
_symmetry_equiv_pos_as_xyz
1 x,y,z
_cell_length_a 6.0754(8)
_cell_length_b 7.6324(11)
_cell_length_c 14.5662(19)
_cell_angle_alpha 97.997(7)
_cell_angle_beta 97.179(6)
_cell_angle_gamma 90.526(7)
_cell_formula_units_Z 2
loop_
_atom_type_symbol
_atom_type_radius_bond
C 0.68
H 0.23
loop_
_atom_site_label
_atom_site_type_symbol
_atom_site_fract_x
_atom_site_fract_y
_atom_site_fract_z
C1 C 0.3852(6) 0.1216(5) 0.5454(3)
H1 H 0.47270 0.08390 0.49880
C2 C 0.4630(7) 0.1084(5) 0.6353(3)
H2 H 0.60200 0.06170 0.64930
C3 C 0.3356(7) 0.1650(5) 0.7080(3)
C4 C 0.4094(7) 0.1490(6) 0.8036(3)
H3 H 0.54530 0.09920 0.81990
C5 C 0.2791(9) 0.2075(7) 0.8705(3)
H4 H 0.32770 0.19720 0.93260
C6 C 0.0742(8) 0.2825(6) 0.8480(3)
H5 H -0.01160 0.32200 0.89490
C7 C 0.0002(7) 0.2978(5) 0.7577(3)
H6 H -0.13650 0.34820 0.74370
C8 C 0.1255(6) 0.2393(5) 0.6846(3)
C9 C 0.0509(6) 0.2508(5) 0.5908(3)
H7 H -0.08590 0.30030 0.57590
C10 C 0.1729(6) 0.1915(4) 0.5200(2)
C11 C 0.0910(6) 0.1919(5) 0.4208(3)
C12 C -0.1122(6) 0.2601(5) 0.3858(3)
H8 H -0.21340 0.31570 0.42230
C13 C -0.1395(6) 0.2324(4) 0.2889(3)
C14 C -0.3185(6) 0.2829(5) 0.2301(3)
H9 H -0.43080 0.33890 0.25990
C15 C -0.3528(7) 0.2615(6) 0.1338(3)
H10 H -0.48410 0.30570 0.10720
C16 C -0.2149(7) 0.1818(6) 0.0712(3)
H11 H -0.26760 0.18090 0.00840
C17 C -0.0131(7) 0.1044(6) 0.0883(3)
H12 H 0.04980 0.05870 0.03540
C18 C 0.1091(7) 0.0848(5) 0.1718(3)
H13 H 0.24180 0.02630 0.16750
C19 C 0.0620(6) 0.1398(5) 0.2616(3)
C20 C 0.1931(6) 0.1178(5) 0.3448(3)
H14 H 0.32860 0.06190 0.34880
C21 C 0.5370(6) 0.6436(5) 0.5553(3)
H15 H 0.39750 0.59080 0.53520
C22 C 0.6193(6) 0.6635(4) 0.6506(3)
C23 C 0.4909(7) 0.6150(5) 0.7189(3)
H16 H 0.35050 0.56330 0.69970
C24 C 0.5691(7) 0.6425(6) 0.8116(3)
H17 H 0.48300 0.60790 0.85480
C25 C 0.7779(7) 0.7226(6) 0.8422(3)
H18 H 0.82770 0.74460 0.90590
C26 C 0.9095(7) 0.7690(5) 0.7797(3)
H19 H 1.04960 0.81980 0.80080
C27 C 0.8332(6) 0.7400(5) 0.6821(3)
C28 C 0.9599(6) 0.7907(5) 0.6147(3)
H20 H 1.10290 0.83740 0.63330
C29 C 0.8756(6) 0.7720(5) 0.5237(3)
H21 H 0.96260 0.80700 0.48090
C30 C 0.6590(6) 0.7009(4) 0.4907(2)
C31 C 0.5689(6) 0.6949(4) 0.3917(3)
C32 C 0.6771(6) 0.7610(5) 0.3238(3)
H22 H 0.81710 0.81590 0.33420
C33 C 0.5428(6) 0.7320(5) 0.2383(3)
C34 C 0.5962(7) 0.7764(5) 0.1547(3)
H23 H 0.73340 0.83350 0.15770
C35 C 0.4729(7) 0.7471(6) 0.0676(3)
H24 H 0.53910 0.78710 0.01980
C36 C 0.2669(7) 0.6676(6) 0.0410(3)
H25 H 0.21590 0.65950 -0.02240
C37 C 0.1225(7) 0.5972(5) 0.0944(3)
H26 H -0.01190 0.55110 0.06200
C38 C 0.1523(6) 0.5867(5) 0.1894(3)
H27 H 0.03570 0.53450 0.21240
C39 C 0.3336(6) 0.6442(4) 0.2542(3)
C40 C 0.3596(6) 0.6260(5) 0.3491(3)
H28 H 0.25430 0.57580 0.37950
loop_
_geom_bond_atom_site_label_1
_geom_bond_atom_site_label_2
_geom_bond_distance
_geom_bond_site_symmetry_1
_geom_bond_site_symmetry_2
C1 H1 0.930 1_555 1_555
C2 C1 1.353 1_555 1_555
H2 C2 0.930 1_555 1_555
C3 C2 1.411 1_555 1_555
C4 C3 1.431 1_555 1_555
H3 C4 0.930 1_555 1_555
C5 C4 1.362 1_555 1_555
H4 C5 0.930 1_555 1_555
C6 C5 1.396 1_555 1_555
H5 C6 0.929 1_555 1_555
C7 C6 1.357 1_555 1_555
H6 C7 0.930 1_555 1_555
C8 C3 1.423 1_555 1_555
C9 C8 1.400 1_555 1_555
H7 C9 0.930 1_555 1_555
C10 C1 1.426 1_555 1_555
C11 C10 1.469 1_555 1_555
C12 C11 1.408 1_555 1_555
H8 C12 0.930 1_555 1_555
C13 C12 1.386 1_555 1_555
C14 C13 1.390 1_555 1_555
H9 C14 0.930 1_555 1_555
C15 C14 1.379 1_555 1_555
H10 C15 0.930 1_555 1_555
C16 C15 1.396 1_555 1_555
H11 C16 0.930 1_555 1_555
C17 C16 1.376 1_555 1_555
H12 C17 0.929 1_555 1_555
C18 C17 1.371 1_555 1_555
H13 C18 0.930 1_555 1_555
C19 C13 1.489 1_555 1_555
C20 C11 1.391 1_555 1_555
H14 C20 0.930 1_555 1_555
C21 H15 0.930 1_555 1_555
C22 C21 1.402 1_555 1_555
C23 C22 1.424 1_555 1_555
H16 C23 0.930 1_555 1_555
C24 C23 1.361 1_555 1_555
H17 C24 0.930 1_555 1_555
C25 C24 1.397 1_555 1_555
H18 C25 0.931 1_555 1_555
C26 C25 1.364 1_555 1_555
H19 C26 0.930 1_555 1_555
C27 C22 1.415 1_555 1_555
C28 C27 1.413 1_555 1_555
H20 C28 0.929 1_555 1_555
C29 C28 1.348 1_555 1_555
H21 C29 0.930 1_555 1_555
C30 C21 1.382 1_555 1_555
C31 C30 1.471 1_555 1_555
C32 C31 1.400 1_555 1_555
H22 C32 0.930 1_555 1_555
C33 C32 1.390 1_555 1_555
C34 C33 1.384 1_555 1_555
H23 C34 0.930 1_555 1_555
C35 C34 1.379 1_555 1_555
H24 C35 0.931 1_555 1_555
C36 C35 1.373 1_555 1_555
H25 C36 0.930 1_555 1_555
C37 C36 1.393 1_555 1_555
H26 C37 0.930 1_555 1_555
C38 C37 1.387 1_555 1_555
H27 C38 0.930 1_555 1_555
C39 C33 1.490 1_555 1_555
C40 C31 1.406 1_555 1_555
H28 C40 0.930 1_555 1_555
C7 C8 1.410 1_555 1_555
C9 C10 1.373 1_555 1_555
C18 C19 1.383 1_555 1_555
C19 C20 1.396 1_555 1_555
C26 C27 1.425 1_555 1_555
C29 C30 1.419 1_555 1_555
C38 C39 1.383 1_555 1_555
C39 C40 1.398 1_555 1_555
#END
