
#######################################################################
#
#                 Cambridge Crystallographic Data Centre
#                                CCDC
#
#######################################################################
#
# If this CIF has been generated from an entry in the Cambridge
# Structural Database, then it will include bibliographic, chemical,
# crystal, experimental, refinement or atomic coordinate data resulting
# from the CCDC's data processing and validation procedures.
#
#######################################################################

data_CSD_CIF_PYRENE03
_audit_creation_date 1978-09-01
_audit_creation_method CSD-ConQuest-V1
_database_code_CSD PYRENE03
_database_code_depnum_ccdc_archive 'CCDC 1240737'
_chemical_formula_sum 'C16 H10'
_chemical_formula_moiety
;
C16 H10
;
_journal_coeditor_code "IUCr A15992"
_journal_coden_Cambridge 107
_journal_volume 34
_journal_year 1978
_journal_page_first 1263
_journal_name_full 'Acta Crystallogr.,Sect.B:Struct.Crystallogr.Cryst.Chem. '
loop_
_publ_author_name
"Y.Kai"
"F.Hama"
"N.Yasuoka"
"N.Kasai"
_chemical_name_systematic
;
Pyrene
;
_cell_volume   1022.892
_exptl_crystal_density_diffrn 1.313
_exptl_special_details
;
polymorph I

;
_diffrn_ambient_temperature 113.15
#These two values have been output from a single CSD field.
_refine_ls_R_factor_gt 0.063
_refine_ls_wR_factor_gt 0.063
_symmetry_cell_setting monoclinic
_symmetry_space_group_name_H-M 'P 21/a'
_symmetry_Int_Tables_number 14
loop_
_symmetry_equiv_pos_site_id
_symmetry_equiv_pos_as_xyz
1 x,y,z
2 1/2-x,1/2+y,-z
3 -x,-y,-z
4 -1/2+x,-1/2-y,z
_cell_length_a 13.532(1)
_cell_length_b 9.159(1)
_cell_length_c 8.387(1)
_cell_angle_alpha 90
_cell_angle_beta 100.25(1)
_cell_angle_gamma 90
_cell_formula_units_Z 4
loop_
_atom_type_symbol
_atom_type_radius_bond
C 0.68
H 0.23
loop_
_atom_site_label
_atom_site_type_symbol
_atom_site_fract_x
_atom_site_fract_y
_atom_site_fract_z
C1 C 0.28220 -0.03540 0.41730
C2 C 0.29450 0.03020 0.27340
C3 C 0.22990 -0.00380 0.12800
C4 C 0.24090 0.05910 -0.02450
C5 C 0.17790 0.02470 -0.16320
C6 C 0.09670 -0.07620 -0.16370
C7 C 0.03040 -0.11450 -0.30540
C8 C -0.04690 -0.21260 -0.30200
C9 C -0.06010 -0.27630 -0.15770
C10 C 0.00440 -0.24220 -0.01200
C11 C -0.00610 -0.30630 0.14060
C12 C 0.05750 -0.27330 0.27920
C13 C 0.13880 -0.17200 0.28030
C14 C 0.20630 -0.13640 0.42140
C15 C 0.15040 -0.10520 0.13180
C16 C 0.08330 -0.14070 -0.01450
H1 H 0.32600 -0.01000 0.51900
H2 H 0.34900 0.10100 0.26900
H3 H 0.29600 0.12700 -0.02600
H4 H 0.18700 0.06800 -0.26500
H5 H 0.04100 -0.07000 -0.40500
H6 H -0.09300 -0.23900 -0.40400
H7 H -0.11700 -0.34200 -0.15000
H8 H -0.06200 -0.37400 0.14400
H9 H 0.04900 -0.32000 0.38500
H10 H 0.19800 -0.18700 0.52500
loop_
_geom_bond_atom_site_label_1
_geom_bond_atom_site_label_2
_geom_bond_distance
_geom_bond_site_symmetry_1
_geom_bond_site_symmetry_2
C1 C2 1.384 1_555 1_555
C2 C3 1.403 1_555 1_555
C3 C4 1.434 1_555 1_555
C4 C5 1.351 1_555 1_555
C5 C6 1.435 1_555 1_555
C6 C7 1.400 1_555 1_555
C7 C8 1.383 1_555 1_555
C8 C9 1.383 1_555 1_555
C9 C10 1.405 1_555 1_555
C10 C11 1.438 1_555 1_555
C11 C12 1.352 1_555 1_555
C12 C13 1.438 1_555 1_555
C13 C14 1.399 1_555 1_555
C14 C1 1.387 1_555 1_555
C15 C3 1.426 1_555 1_555
C16 C6 1.424 1_555 1_555
H1 C1 0.976 1_555 1_555
H2 C2 0.988 1_555 1_555
H3 C4 0.973 1_555 1_555
H4 C5 0.969 1_555 1_555
H5 C7 0.963 1_555 1_555
H6 C8 0.995 1_555 1_555
H7 C9 0.988 1_555 1_555
H8 C11 0.982 1_555 1_555
H9 C12 1.010 1_555 1_555
H10 C14 1.009 1_555 1_555
C10 C16 1.419 1_555 1_555
C13 C15 1.421 1_555 1_555
C15 C16 1.428 1_555 1_555
#END
