
#######################################################################
#
#                 Cambridge Crystallographic Data Centre
#                                CCDC
#
#######################################################################
#
# If this CIF has been generated from an entry in the Cambridge
# Structural Database, then it will include bibliographic, chemical,
# crystal, experimental, refinement or atomic coordinate data resulting
# from the CCDC's data processing and validation procedures.
#
#######################################################################

data_CSD_CIF_PYRENE01
_audit_creation_date 1972-03-21
_audit_creation_method CSD-ConQuest-V1
_database_code_CSD PYRENE01
_database_code_depnum_ccdc_archive 'CCDC 1240735'
_chemical_formula_sum 'C16 H10'
_chemical_formula_moiety
;
C16 H10
;
_journal_coden_Cambridge 5
_journal_volume 132
_journal_year 1970
_journal_page_first 129
_journal_name_full 'Z.Kristallogr.,Kristallgeom.,Kristallphys.,Kristallchem. '
loop_
_publ_author_name
"R.Allmann"
_chemical_name_systematic
;
Pyrene
;
_chemical_melting_point 426.15
_cell_volume   1052.540
_exptl_crystal_density_diffrn 1.27
_exptl_special_details
;
Melting point range 426.15-427.15K
polymorph I

;
_diffrn_ambient_temperature ?
_diffrn_special_details
;
The study was carried out at room temperature,in the range 283-303K

;
#These two values have been output from a single CSD field.
_refine_ls_R_factor_gt 0.044
_refine_ls_wR_factor_gt 0.044
_symmetry_cell_setting monoclinic
_symmetry_space_group_name_H-M 'P 21/a'
_symmetry_Int_Tables_number 14
loop_
_symmetry_equiv_pos_site_id
_symmetry_equiv_pos_as_xyz
1 x,y,z
2 1/2-x,1/2+y,-z
3 -x,-y,-z
4 -1/2+x,-1/2-y,z
_cell_length_a 13.649(7)
_cell_length_b 9.253(5)
_cell_length_c 8.470(4)
_cell_angle_alpha 90
_cell_angle_beta 100.28(3)
_cell_angle_gamma 90
_cell_formula_units_Z 4
loop_
_atom_type_symbol
_atom_type_radius_bond
C 0.68
H 0.20
loop_
_atom_site_label
_atom_site_type_symbol
_atom_site_fract_x
_atom_site_fract_y
_atom_site_fract_z
C1 C 0.28090 -0.04220 0.41320
C2 C 0.00680 -0.24110 -0.01340
C3 C -0.00340 -0.30590 0.13510
C4 C 0.05870 -0.27560 0.27200
C5 C 0.13910 -0.17490 0.27600
C6 C 0.20610 -0.14060 0.41550
C7 C 0.15100 -0.10730 0.12960
C8 C 0.08460 -0.14130 -0.01490
C9 C 0.29350 0.02420 0.27300
C10 C 0.22940 -0.00750 0.12820
C11 C 0.24020 0.05600 -0.02130
C12 C 0.17800 0.02460 -0.15700
C13 C 0.09800 -0.07510 -0.16070
C14 C 0.03270 -0.11060 -0.30150
C15 C -0.04330 -0.20760 -0.29870
C16 C -0.05720 -0.27240 -0.15890
H1 H 0.32500 -0.01900 0.51700
H2 H -0.06300 -0.37600 0.12800
H3 H 0.04900 -0.32100 0.37100
H4 H 0.19600 -0.18500 0.51800
H5 H 0.34900 0.09500 0.27700
H6 H 0.30000 0.12800 -0.01600
H7 H 0.18400 0.06900 -0.27300
H8 H 0.04700 -0.05400 -0.40200
H9 H -0.09100 -0.21900 -0.40300
H10 H -0.11200 -0.34100 -0.14400
loop_
_geom_bond_atom_site_label_1
_geom_bond_atom_site_label_2
_geom_bond_distance
_geom_bond_site_symmetry_1
_geom_bond_site_symmetry_2
C1 C6 1.371 1_555 1_555
C2 C3 1.422 1_555 1_555
C3 C4 1.338 1_555 1_555
C4 C5 1.435 1_555 1_555
C5 C6 1.396 1_555 1_555
C6 H4 0.992 1_555 1_555
C7 C5 1.424 1_555 1_555
C8 C2 1.409 1_555 1_555
C9 C1 1.375 1_555 1_555
C10 C7 1.415 1_555 1_555
C11 C10 1.427 1_555 1_555
C12 C11 1.333 1_555 1_555
C13 C8 1.419 1_555 1_555
C14 C13 1.395 1_555 1_555
C15 C14 1.375 1_555 1_555
C16 C2 1.408 1_555 1_555
H1 C1 0.996 1_555 1_555
H2 C3 1.034 1_555 1_555
H3 C4 0.968 1_555 1_555
H5 C9 0.997 1_555 1_555
H6 C11 1.048 1_555 1_555
H7 C12 1.081 1_555 1_555
H8 C14 1.047 1_555 1_555
H9 C15 1.005 1_555 1_555
H10 C16 1.006 1_555 1_555
C7 C8 1.422 1_555 1_555
C9 C10 1.405 1_555 1_555
C12 C13 1.426 1_555 1_555
C15 C16 1.370 1_555 1_555
#END
