
#######################################################################
#
#                 Cambridge Crystallographic Data Centre
#                                CCDC
#
#######################################################################
#
# If this CIF has been generated from an entry in the Cambridge
# Structural Database, then it will include bibliographic, chemical,
# crystal, experimental, refinement or atomic coordinate data resulting
# from the CCDC's data processing and validation procedures.
#
#######################################################################

data_CSD_CIF_PYRENE08
_audit_creation_date 2006-11-23
_audit_creation_method CSD-ConQuest-V1
_database_code_CSD PYRENE08
_database_code_depnum_ccdc_archive 'CCDC 624347'
_chemical_formula_sum 'C16 H10'
_chemical_formula_moiety
;
C16 H10
;
_journal_coeditor_code "IUCr BS5035"
_journal_coden_Cambridge 622
_journal_volume 62
_journal_year 2006
_journal_page_first 826
_journal_name_full 'Acta Crystallogr.,Sect.B:Struct.Sci. '
loop_
_publ_author_name
"F.P.A.Fabbiani"
"D.R.Allan"
"S.Parsons"
"C.R.Pulham"
_chemical_name_systematic
;
Pyrene
;
_cell_volume    497.741
_exptl_crystal_colour 'colorless'
_exptl_crystal_density_diffrn 1.349
_exptl_special_details
;
polymorph III

;
_exptl_crystal_description 'block'
_diffrn_ambient_temperature 298
_diffrn_ambient_pressure 300000.0
#These two values have been output from a single CSD field.
_refine_ls_R_factor_gt 0.1182
_refine_ls_wR_factor_gt 0.1182
_symmetry_cell_setting monoclinic
_symmetry_space_group_name_H-M 'P 21/a'
_symmetry_Int_Tables_number 14
loop_
_symmetry_equiv_pos_site_id
_symmetry_equiv_pos_as_xyz
1 x,y,z
2 1/2-x,1/2+y,-z
3 -x,-y,-z
4 -1/2+x,-1/2-y,z
_cell_length_a 15.35(9)
_cell_length_b 3.852(3)
_cell_length_c 8.65(7)
_cell_angle_alpha 90
_cell_angle_beta 103.3(4)
_cell_angle_gamma 90
_cell_formula_units_Z 2
loop_
_atom_type_symbol
_atom_type_radius_bond
C 0.68
H 0.23
loop_
_atom_site_label
_atom_site_type_symbol
_atom_site_fract_x
_atom_site_fract_y
_atom_site_fract_z
C1 C 0.6567(4) 0.042(2) 0.8665(5)
H1 H 0.69830 0.05400 0.96330
C2 C 0.6787(3) 0.1718(19) 0.7310(6)
H2 H 0.73470 0.27150 0.73800
C3 C 0.6175(3) 0.1541(15) 0.5836(5)
C4 C 0.6376(4) 0.281(2) 0.4397(6)
H3 H 0.69350 0.38010 0.44500
C5 C 0.5791(4) 0.265(3) 0.2974(7)
H4 H 0.59590 0.34460 0.20710
C6 C 0.4906(3) 0.1234(17) 0.2838(5)
C7 C 0.5736(4) -0.1044(18) 0.8597(5)
H5 H 0.56030 -0.19150 0.95190
C8 C 0.5320(3) 0.0041(15) 0.5756(4)
C1B C 0.3433(4) -0.042(2) 0.1335(5)
H1B H 0.30170 -0.05400 0.03670
C2B C 0.3213(3) -0.1718(19) 0.2690(6)
H2B H 0.26530 -0.27150 0.26200
C3B C 0.3825(3) -0.1541(15) 0.4164(5)
C4B C 0.3624(4) -0.281(2) 0.5603(6)
H3B H 0.30650 -0.38010 0.55500
C5B C 0.4209(4) -0.265(3) 0.7026(7)
H4B H 0.40410 -0.34460 0.79290
C6B C 0.5094(3) -0.1234(17) 0.7162(5)
C7B C 0.4264(4) 0.1044(18) 0.1403(5)
H5B H 0.43970 0.19150 0.04810
C8B C 0.4680(3) -0.0041(15) 0.4244(4)
loop_
_geom_bond_atom_site_label_1
_geom_bond_atom_site_label_2
_geom_bond_distance
_geom_bond_site_symmetry_1
_geom_bond_site_symmetry_2
C1 H1 0.930 1_555 1_555
C2 C1 1.386 1_555 1_555
H2 C2 0.931 1_555 1_555
C3 C2 1.401 1_555 1_555
C4 C3 1.435 1_555 1_555
H3 C4 0.931 1_555 1_555
C5 C4 1.348 1_555 1_555
H4 C5 0.929 1_555 1_555
C6 C5 1.443 1_555 1_555
C7 C1 1.384 1_555 1_555
H5 C7 0.930 1_555 1_555
C8 C3 1.421 1_555 1_555
C1B H1B 0.930 1_555 1_555
C2B C1B 1.386 1_555 1_555
H2B C2B 0.931 1_555 1_555
C3B C2B 1.401 1_555 1_555
C4B C3B 1.435 1_555 1_555
H3B C4B 0.931 1_555 1_555
C5B C4B 1.348 1_555 1_555
H4B C5B 0.929 1_555 1_555
C6B C7 1.398 1_555 1_555
C7B C6 1.398 1_555 1_555
H5B C7B 0.930 1_555 1_555
C8B C6 1.426 1_555 1_555
C8 C6B 1.426 1_555 1_555
C8 C8B 1.444 1_555 1_555
C1B C7B 1.384 1_555 1_555
C3B C8B 1.421 1_555 1_555
C5B C6B 1.443 1_555 1_555
#END
