
#######################################################################
#
#                 Cambridge Crystallographic Data Centre
#                                CCDC
#
#######################################################################
#
# If this CIF has been generated from an entry in the Cambridge
# Structural Database, then it will include bibliographic, chemical,
# crystal, experimental, refinement or atomic coordinate data resulting
# from the CCDC's data processing and validation procedures.
#
#######################################################################

data_CSD_CIF_PYRENE02
_audit_creation_date 1973-02-27
_audit_creation_method CSD-ConQuest-V1
_database_code_CSD PYRENE02
_database_code_depnum_ccdc_archive 'CCDC 1240736'
_chemical_formula_sum 'C16 H10'
_chemical_formula_moiety
;
C16 H10
;
_journal_coeditor_code "IUCr A09335"
_journal_coden_Cambridge 107
_journal_volume 28
_journal_year 1972
_journal_page_first 2977
_journal_name_full 'Acta Crystallogr.,Sect.B:Struct.Crystallogr.Cryst.Chem. '
loop_
_publ_author_name
"A.C.Hazell"
"F.K.Larsen"
"M.S.Lehmann"
_chemical_name_systematic
;
Pyrene
;
_chemical_melting_point 423.15
_cell_volume   1052.881
_exptl_special_details
;
polymorph I

;
_diffrn_ambient_temperature ?
_diffrn_radiation_probe 'neutron radiation'
_diffrn_special_details
;
The study was carried out at room temperature,in the range 283-303K

;
#These two values have been output from a single CSD field.
_refine_ls_R_factor_gt 0.032
_refine_ls_wR_factor_gt 0.032
_symmetry_cell_setting monoclinic
_symmetry_space_group_name_H-M 'P 21/a'
_symmetry_Int_Tables_number 14
loop_
_symmetry_equiv_pos_site_id
_symmetry_equiv_pos_as_xyz
1 x,y,z
2 1/2-x,1/2+y,-z
3 -x,-y,-z
4 -1/2+x,-1/2-y,z
_cell_length_a 13.649(1)
_cell_length_b 9.256(1)
_cell_length_c 8.470(1)
_cell_angle_alpha 90
_cell_angle_beta 100.28(4)
_cell_angle_gamma 90
_cell_formula_units_Z 4
loop_
_atom_type_symbol
_atom_type_radius_bond
C 0.68
H 0.20
loop_
_atom_site_label
_atom_site_type_symbol
_atom_site_fract_x
_atom_site_fract_y
_atom_site_fract_z
C1 C 0.28146 -0.04125 0.41456
C2 C 0.00682 -0.24163 -0.01365
C3 C -0.00398 -0.30658 0.13503
C4 C 0.05839 -0.27524 0.27387
C5 C 0.13914 -0.17466 0.27559
C6 C 0.20577 -0.14134 0.41660
C7 C 0.15091 -0.10765 0.13034
C8 C 0.08484 -0.14100 -0.01484
C9 C 0.29365 0.02457 0.27270
C10 C 0.22965 -0.00771 0.12844
C11 C 0.24096 0.05720 -0.01973
C12 C 0.17783 0.02502 -0.15876
C13 C 0.09800 -0.07557 -0.16095
C14 C 0.03315 -0.10959 -0.30127
C15 C -0.04367 -0.20713 -0.30042
C16 C -0.05747 -0.27280 -0.15874
H1 H 0.33033 -0.01684 0.52300
H2 H -0.06478 -0.38321 0.13549
H3 H 0.04891 -0.32458 0.38439
H4 H 0.19801 -0.19427 0.52686
H5 H 0.35285 0.10229 0.27111
H6 H 0.30123 0.13070 -0.01986
H7 H 0.18702 0.07616 -0.26842
H8 H 0.04394 -0.05841 -0.41017
H9 H -0.09439 -0.23365 -0.40938
H10 H -0.11709 -0.34934 -0.15871
loop_
_geom_bond_atom_site_label_1
_geom_bond_atom_site_label_2
_geom_bond_distance
_geom_bond_site_symmetry_1
_geom_bond_site_symmetry_2
C1 C6 1.390 1_555 1_555
C2 C3 1.427 1_555 1_555
C3 C4 1.354 1_555 1_555
C4 C5 1.441 1_555 1_555
C5 C6 1.400 1_555 1_555
C6 H4 1.076 1_555 1_555
C7 C5 1.412 1_555 1_555
C8 C2 1.416 1_555 1_555
C9 C1 1.383 1_555 1_555
C10 C7 1.420 1_555 1_555
C11 C10 1.424 1_555 1_555
C12 C11 1.362 1_555 1_555
C13 C8 1.418 1_555 1_555
C14 C13 1.386 1_555 1_555
C15 C14 1.385 1_555 1_555
C16 C2 1.407 1_555 1_555
H1 C1 1.059 1_555 1_555
H2 C3 1.092 1_555 1_555
H3 C4 1.070 1_555 1_555
H5 C9 1.084 1_555 1_555
H6 C11 1.068 1_555 1_555
H7 C12 1.070 1_555 1_555
H8 C14 1.070 1_555 1_555
H9 C15 1.079 1_555 1_555
H10 C16 1.079 1_555 1_555
C7 C8 1.423 1_555 1_555
C9 C10 1.402 1_555 1_555
C12 C13 1.431 1_555 1_555
C15 C16 1.388 1_555 1_555
#END
