
#######################################################################
#
#                 Cambridge Crystallographic Data Centre
#                                CCDC
#
#######################################################################
#
# If this CIF has been generated from an entry in the Cambridge
# Structural Database, then it will include bibliographic, chemical,
# crystal, experimental, refinement or atomic coordinate data resulting
# from the CCDC's data processing and validation procedures.
#
#######################################################################

data_CSD_CIF_PYROPD
_audit_creation_date 1978-09-01
_audit_creation_method CSD-ConQuest-V1
_database_code_CSD PYROPD
_database_code_depnum_ccdc_archive 'CCDC 1240785'
_chemical_formula_sum 'C36 H20'
_chemical_formula_moiety
;
C36 H20
;
_journal_coeditor_code "IUCr A15992"
_journal_coden_Cambridge 107
_journal_volume 34
_journal_year 1978
_journal_page_first 1263
_journal_name_full 'Acta Crystallogr.,Sect.B:Struct.Crystallogr.Cryst.Chem. '
loop_
_publ_author_name
"Y.Kai"
"F.Hama"
"N.Yasuoka"
"N.Kasai"
_chemical_name_systematic
;
(2.2)(2,7)Pyrenophane-1,1'-diene
;
_cell_volume   1135.862
_exptl_crystal_density_diffrn 1.323
_diffrn_ambient_temperature 113.15
#These two values have been output from a single CSD field.
_refine_ls_R_factor_gt 0.064
_refine_ls_wR_factor_gt 0.064
_symmetry_cell_setting monoclinic
_symmetry_space_group_name_H-M 'P 21/c'
_symmetry_Int_Tables_number 14
loop_
_symmetry_equiv_pos_site_id
_symmetry_equiv_pos_as_xyz
1 x,y,z
2 -x,1/2+y,1/2-z
3 -x,-y,-z
4 x,-1/2-y,-1/2+z
_cell_length_a 9.829(2)
_cell_length_b 12.631(2)
_cell_length_c 10.001(2)
_cell_angle_alpha 90
_cell_angle_beta 113.82(1)
_cell_angle_gamma 90
_cell_formula_units_Z 2
loop_
_atom_type_symbol
_atom_type_radius_bond
C 0.68
H 0.23
loop_
_atom_site_label
_atom_site_type_symbol
_atom_site_fract_x
_atom_site_fract_y
_atom_site_fract_z
C1 C -0.01050 -0.41170 0.19240
C2 C 0.01120 -0.34420 0.30310
C3 C 0.16070 -0.33880 0.42730
C4 C 0.19420 -0.40230 0.55080
C5 C 0.34220 -0.42350 0.64570
C6 C 0.38060 -0.49850 0.76370
C7 C 0.52230 -0.53220 0.83640
C8 C 0.64050 -0.49510 0.79820
C9 C 0.78050 -0.54500 0.84990
C10 C 0.11380 -0.48450 0.20320
C11 C 0.14010 -0.57340 0.29330
C12 C 0.27760 -0.62480 0.34810
C13 C 0.31340 -0.70600 0.45720
C14 C 0.45510 -0.74000 0.53030
C15 C 0.57540 -0.69560 0.50090
C16 C 0.27570 -0.28530 0.40750
C17 C 0.45880 -0.37790 0.61560
C18 C 0.60830 -0.41330 0.69240
H1 H -0.10800 -0.41700 0.10700
H2 H -0.07300 -0.29600 0.29600
H3 H 0.11100 -0.44000 0.56600
H4 H 0.30200 -0.52900 0.78900
H5 H 0.54700 -0.58400 0.91400
H6 H 0.80800 -0.61400 0.92700
H7 H 0.06300 -0.59600 0.33400
H8 H 0.23500 -0.74000 0.48400
H9 H 0.47900 -0.79600 0.60900
H10 H 0.24900 -0.23400 0.32000
C10B C 0.88620 -0.51550 0.79680
C9B C 0.21950 -0.45500 0.15010
C18B C 0.39170 -0.58670 0.30760
C16B C 0.72430 -0.71470 0.59250
C17B C 0.54120 -0.62210 0.38440
C15B C 0.42460 -0.30440 0.49910
C12B C 0.72240 -0.37520 0.65190
C1B C 1.01050 -0.58830 0.80760
C11B C 0.85990 -0.42660 0.70670
C8B C 0.35950 -0.50490 0.20180
H6B H 0.19200 -0.38600 0.07300
C3B C 0.83930 -0.66120 0.57270
H10B H 0.75100 -0.76600 0.68000
C5B C 0.65780 -0.57650 0.35430
C14B C 0.54490 -0.26000 0.46970
C13B C 0.68660 -0.29400 0.54280
C2B C 0.98880 -0.65580 0.69690
H1B H 1.10800 -0.58300 0.89300
H7B H 0.93700 -0.40400 0.66600
C7B C 0.47770 -0.46780 0.16360
C4B C 0.80580 -0.59770 0.44920
C6B C 0.61940 -0.50150 0.23630
H9B H 0.52100 -0.20400 0.39100
H8B H 0.76500 -0.26000 0.51600
H2B H 1.07300 -0.70400 0.70400
H5B H 0.45300 -0.41600 0.08600
H3B H 0.88900 -0.56000 0.43400
H4B H 0.69800 -0.47100 0.21100
loop_
_geom_bond_atom_site_label_1
_geom_bond_atom_site_label_2
_geom_bond_distance
_geom_bond_site_symmetry_1
_geom_bond_site_symmetry_2
C1 C2 1.344 1_555 1_555
C2 C3 1.494 1_555 1_555
C3 C4 1.396 1_555 1_555
C4 C5 1.405 1_555 1_555
C5 C6 1.440 1_555 1_555
C6 C7 1.353 1_555 1_555
C7 C8 1.440 1_555 1_555
C8 C9 1.408 1_555 1_555
C9 H6 1.122 1_555 1_555
C10 C1 1.498 1_555 1_555
C11 C10 1.397 1_555 1_555
C12 C11 1.396 1_555 1_555
C13 C12 1.434 1_555 1_555
C14 C13 1.355 1_555 1_555
C15 C14 1.442 1_555 1_555
C16 C3 1.398 1_555 1_555
C17 C5 1.419 1_555 1_555
C18 C8 1.420 1_555 1_555
H1 C1 0.996 1_555 1_555
H2 C2 1.007 1_555 1_555
H3 C4 1.009 1_555 1_555
H4 C6 0.983 1_555 1_555
H5 C7 0.968 1_555 1_555
H7 C11 1.035 1_555 1_555
H8 C13 1.008 1_555 1_555
H9 C14 1.013 1_555 1_555
H10 C16 1.034 1_555 1_555
C10B C9 1.395 1_555 1_555
C9B C10 1.395 1_555 1_555
C18B C12 1.421 1_555 1_555
C16B C15 1.399 1_555 1_555
C17B C15 1.420 1_555 1_555
C15B C16 1.399 1_555 1_555
C12B C18 1.421 1_555 1_555
C1B C10B 1.498 1_555 1_555
C11B C10B 1.397 1_555 1_555
C8B C9B 1.408 1_555 1_555
H6B C9B 1.122 1_555 1_555
C3B C16B 1.398 1_555 1_555
H10B C16B 1.034 1_555 1_555
C5B C17B 1.419 1_555 1_555
C14B C15B 1.442 1_555 1_555
C13B C12B 1.434 1_555 1_555
C2B C1B 1.344 1_555 1_555
H1B C1B 0.996 1_555 1_555
H7B C11B 1.035 1_555 1_555
C7B C8B 1.440 1_555 1_555
C4B C3B 1.396 1_555 1_555
C6B C5B 1.440 1_555 1_555
H9B C14B 1.013 1_555 1_555
H8B C13B 1.008 1_555 1_555
H2B C2B 1.007 1_555 1_555
H5B C7B 0.968 1_555 1_555
H3B C4B 1.009 1_555 1_555
H4B C6B 0.983 1_555 1_555
C17 C18 1.427 1_555 1_555
C17 C15B 1.420 1_555 1_555
C18B C17B 1.427 1_555 1_555
C18B C8B 1.420 1_555 1_555
C12B C11B 1.396 1_555 1_555
C3B C2B 1.494 1_555 1_555
C5B C4B 1.405 1_555 1_555
C14B C13B 1.355 1_555 1_555
C7B C6B 1.353 1_555 1_555
#END
