
#######################################################################
#
#                 Cambridge Crystallographic Data Centre
#                                CCDC
#
#######################################################################
#
# If this CIF has been generated from an entry in the Cambridge
# Structural Database, then it will include bibliographic, chemical,
# crystal, experimental, refinement or atomic coordinate data resulting
# from the CCDC's data processing and validation procedures.
#
#######################################################################

data_CSD_CIF_PYRPYR10
_audit_creation_date 1972-07-27
_audit_creation_method CSD-ConQuest-V1
_database_code_CSD PYRPYR10
_database_code_depnum_ccdc_archive 'CCDC 1240807'
_chemical_formula_sum 'C30 H16'
_chemical_formula_moiety
;
C30 H16
;
_journal_coeditor_code "IUCr A08939"
_journal_coden_Cambridge 107
_journal_volume 28
_journal_year 1972
_journal_page_first 879
_journal_name_full 'Acta Crystallogr.,Sect.B:Struct.Crystallogr.Cryst.Chem. '
loop_
_publ_author_name
"K.W.Muir"
"J.M.Robertson"
_chemical_name_systematic
;
Pyreno(1',2'.1,2)-pyrene
;
_cell_volume   1813.270
_exptl_crystal_density_diffrn 1.379
_diffrn_ambient_temperature ?
_diffrn_special_details
;
The study was carried out at room temperature,in the range 283-303K

;
#These two values have been output from a single CSD field.
_refine_ls_R_factor_gt 0.11
_refine_ls_wR_factor_gt 0.11
_symmetry_cell_setting monoclinic
_symmetry_space_group_name_H-M 'P 21/c'
_symmetry_Int_Tables_number 14
loop_
_symmetry_equiv_pos_site_id
_symmetry_equiv_pos_as_xyz
1 x,y,z
2 -x,1/2+y,1/2-z
3 -x,-y,-z
4 x,-1/2-y,-1/2+z
_cell_length_a 13.17
_cell_length_b 7.71
_cell_length_c 20.32
_cell_angle_alpha 90
_cell_angle_beta 118.5
_cell_angle_gamma 90
_cell_formula_units_Z 4
loop_
_atom_type_symbol
_atom_type_radius_bond
C 0.68
H 0.20
loop_
_atom_site_label
_atom_site_type_symbol
_atom_site_fract_x
_atom_site_fract_y
_atom_site_fract_z
C1 C -0.48640 -0.22780 0.19480
C2 C -0.19680 -0.30930 0.20770
C3 C -0.07510 -0.28710 0.26370
C4 C -0.04750 -0.27410 0.33810
C5 C -0.13520 -0.21750 0.35850
C6 C -0.10740 -0.14580 0.42830
C7 C -0.19220 -0.08620 0.44510
C8 C -0.30630 -0.09930 0.39240
C9 C 0.01610 -0.28070 0.24280
C10 C -0.00430 -0.23730 0.17060
C11 C 0.08700 -0.22880 0.15500
C12 C -0.45670 -0.16870 0.26390
C13 C 0.19870 -0.26720 0.20760
C14 C 0.22190 -0.30490 0.27980
C15 C 0.13120 -0.30560 0.29930
C16 C 0.15710 -0.33760 0.37500
C17 C 0.06920 -0.32430 0.39560
C18 C 0.09680 -0.37760 0.46790
C19 C 0.20460 -0.43440 0.51940
C20 C 0.29280 -0.43340 0.50040
C21 C 0.27110 -0.38730 0.42890
C22 C 0.35970 -0.38560 0.40720
C23 C -0.33810 -0.16350 0.32080
C24 C 0.33700 -0.34540 0.33770
C25 C -0.25220 -0.21700 0.30220
C26 C -0.28360 -0.27090 0.22820
C27 C -0.40260 -0.28450 0.17330
C28 C -0.43180 -0.34510 0.10240
C29 C -0.34810 -0.39690 0.08550
C30 C -0.23250 -0.38090 0.13670
H1 H -0.56300 -0.22700 0.15500
H2 H -0.03200 -0.13000 0.46100
H3 H -0.16600 -0.02400 0.49800
H4 H -0.35900 -0.05500 0.40400
H5 H -0.08100 -0.20600 0.12800
H6 H 0.07800 -0.19300 0.10700
H7 H -0.51700 -0.11100 0.27600
H8 H 0.26100 -0.28300 0.19400
H9 H 0.03800 -0.37600 0.48000
H10 H 0.22500 -0.50100 0.57100
H11 H 0.36600 -0.47200 0.53900
H12 H 0.43300 -0.43000 0.44600
H13 H 0.38600 -0.35600 0.31600
H14 H -0.51400 -0.33700 0.05700
H15 H -0.36400 -0.44800 0.04300
H16 H -0.17700 -0.41700 0.12300
loop_
_geom_bond_atom_site_label_1
_geom_bond_atom_site_label_2
_geom_bond_distance
_geom_bond_site_symmetry_1
_geom_bond_site_symmetry_2
C1 C12 1.345 1_555 1_555
C2 C3 1.467 1_555 1_555
C3 C4 1.380 1_555 1_555
C4 C5 1.467 1_555 1_555
C5 C6 1.398 1_555 1_555
C6 C7 1.392 1_555 1_555
C7 C8 1.371 1_555 1_555
C8 C23 1.398 1_555 1_555
C9 C3 1.453 1_555 1_555
C10 C9 1.400 1_555 1_555
C11 C10 1.384 1_555 1_555
C12 C23 1.433 1_555 1_555
C13 C11 1.376 1_555 1_555
C14 C13 1.379 1_555 1_555
C15 C9 1.411 1_555 1_555
C16 C15 1.429 1_555 1_555
C17 C4 1.471 1_555 1_555
C18 C17 1.396 1_555 1_555
C19 C18 1.373 1_555 1_555
C20 C19 1.388 1_555 1_555
C21 C16 1.425 1_555 1_555
C22 C21 1.431 1_555 1_555
C23 C25 1.415 1_555 1_555
C24 C14 1.441 1_555 1_555
C25 C5 1.415 1_555 1_555
C26 C2 1.422 1_555 1_555
C27 C1 1.435 1_555 1_555
C28 C27 1.383 1_555 1_555
C29 C28 1.362 1_555 1_555
C30 C2 1.400 1_555 1_555
H1 C1 0.945 1_555 1_555
H2 C6 0.902 1_555 1_555
H3 C7 1.073 1_555 1_555
H4 C8 0.900 1_555 1_555
H5 C10 0.997 1_555 1_555
H6 C11 0.965 1_555 1_555
H7 C12 1.037 1_555 1_555
H8 C13 0.990 1_555 1_555
H9 C18 0.918 1_555 1_555
H10 C19 1.080 1_555 1_555
H11 C20 0.955 1_555 1_555
H12 C22 0.972 1_555 1_555
H13 C24 0.943 1_555 1_555
H14 C28 1.036 1_555 1_555
H15 C29 0.879 1_555 1_555
H16 C30 0.940 1_555 1_555
C14 C15 1.427 1_555 1_555
C16 C17 1.410 1_555 1_555
C20 C21 1.387 1_555 1_555
C22 C24 1.333 1_555 1_555
C25 C26 1.418 1_555 1_555
C26 C27 1.429 1_555 1_555
C29 C30 1.380 1_555 1_555
#END
