
#######################################################################
#
#                 Cambridge Crystallographic Data Centre
#                                CCDC
#
#######################################################################
#
# If this CIF has been generated from an entry in the Cambridge
# Structural Database, then it will include bibliographic, chemical,
# crystal, experimental, refinement or atomic coordinate data resulting
# from the CCDC's data processing and validation procedures.
#
#######################################################################

data_CSD_CIF_QAPLIF
_audit_creation_date 2017-05-05
_audit_creation_method CSD-ConQuest-V1
_database_code_CSD QAPLIF
_database_code_depnum_ccdc_archive 'CCDC 969149'
_chemical_formula_sum 'C19 H16'
_chemical_formula_moiety
;
C19 H16
;
_journal_coden_Cambridge 1453
_journal_volume 6
_journal_year 2014
_journal_page_first 1599
_journal_name_full 'ChemCatChem '
loop_
_publ_author_name
"Weiwei Jin"
"Wing-Tak Wong"
"G.-L.Law"
_chemical_name_systematic
;
1-(3-phenylprop-2-en-1-yl)naphthalene
;
_cell_volume   1385.084
_exptl_crystal_colour 'colorless'
_exptl_crystal_density_diffrn 1.172
_exptl_crystal_description 'Block'
_diffrn_ambient_temperature 296
#These two values have been output from a single CSD field.
_refine_ls_R_factor_gt 0.0467
_refine_ls_wR_factor_gt 0.0467
_symmetry_cell_setting triclinic
_symmetry_space_group_name_H-M 'P -1'
_symmetry_Int_Tables_number 2
loop_
_symmetry_equiv_pos_site_id
_symmetry_equiv_pos_as_xyz
1 x,y,z
2 -x,-y,-z
_cell_length_a 6.0778(1)
_cell_length_b 14.2353(3)
_cell_length_c 16.2220(4)
_cell_angle_alpha 81.6867(12)
_cell_angle_beta 89.9601(13)
_cell_angle_gamma 85.8639(13)
_cell_formula_units_Z 4
loop_
_atom_type_symbol
_atom_type_radius_bond
C 0.68
H 0.23
loop_
_atom_site_label
_atom_site_type_symbol
_atom_site_fract_x
_atom_site_fract_y
_atom_site_fract_z
C1 C 0.3152(3) 1.20989(11) 0.09413(10)
H1 H 0.20730 1.18070 0.06860
C2 C 0.3022(3) 1.30772(12) 0.08850(12)
H2 H 0.18600 1.34370 0.05920
C3 C 0.4577(3) 1.35204(12) 0.12547(11)
H3 H 0.44830 1.41810 0.12130
C4 C 0.6283(3) 1.29911(11) 0.16893(11)
H4 H 0.73420 1.32910 0.19480
C5 C 0.6430(3) 1.20122(11) 0.17438(10)
H5 H 0.76030 1.16600 0.20360
C6 C 0.4866(2) 1.15441(10) 0.13728(9)
C7 C 0.4984(3) 1.05012(10) 0.14099(10)
H6 H 0.38620 1.02570 0.11350
C8 C 0.6479(3) 0.98791(10) 0.17836(10)
H7 H 0.76100 1.01130 0.20620
C9 C 0.6536(3) 0.88244(10) 0.18032(10)
H8 H 0.51590 0.86700 0.15710
H9 H 0.66200 0.85250 0.23800
C10 C 0.8426(2) 0.83988(9) 0.13339(8)
C11 C 0.9880(3) 0.89541(10) 0.08891(9)
H10 H 0.96900 0.96110 0.08670
C12 C 1.1649(3) 0.85644(11) 0.04653(10)
H11 H 1.26080 0.89630 0.01660
C13 C 1.1972(3) 0.76080(11) 0.04882(10)
H12 H 1.31640 0.73550 0.02110
C14 C 1.0518(3) 0.69958(10) 0.09274(9)
C15 C 1.0790(3) 0.59949(11) 0.09449(11)
H13 H 1.19760 0.57330 0.06710
C16 C 0.9352(4) 0.54168(12) 0.13540(12)
H14 H 0.95490 0.47630 0.13550
C17 C 0.7575(3) 0.57955(11) 0.17737(12)
H15 H 0.65970 0.53920 0.20550
C18 C 0.7258(3) 0.67549(10) 0.17749(10)
H16 H 0.60630 0.69960 0.20580
C19 C 0.8708(2) 0.73870(9) 0.13544(8)
C20 C -0.1870(3) 1.24073(11) 0.40096(10)
H17 H -0.29220 1.20310 0.42760
C21 C -0.2031(3) 1.33705(12) 0.40436(12)
H18 H -0.31760 1.36350 0.43360
C22 C -0.0525(3) 1.39384(11) 0.36519(11)
H19 H -0.06410 1.45890 0.36750
C23 C 0.1163(3) 1.35444(11) 0.32239(11)
H20 H 0.21930 1.39300 0.29540
C24 C 0.1342(3) 1.25801(11) 0.31919(10)
H21 H 0.24980 1.23210 0.29010
C25 C -0.0178(2) 1.19888(10) 0.35879(9)
C26 C -0.0056(3) 1.09532(10) 0.35755(9)
H22 H -0.11910 1.06270 0.38410
C27 C 0.1459(3) 1.04381(10) 0.32350(9)
H23 H 0.26190 1.07510 0.29740
C28 C 0.1481(3) 0.93869(9) 0.32304(10)
H24 H 0.15250 0.92680 0.26560
H25 H 0.01090 0.91680 0.34660
C29 C 0.3377(2) 0.87987(9) 0.37027(8)
C30 C 0.4873(3) 0.92027(10) 0.41406(9)
H26 H 0.47150 0.98550 0.41560
C31 C 0.6643(3) 0.86604(12) 0.45684(10)
H27 H 0.76340 0.89560 0.48630
C32 C 0.6926(3) 0.77083(12) 0.45575(10)
H28 H 0.81200 0.73580 0.48390
C33 C 0.5422(3) 0.72455(10) 0.41220(9)
C34 C 0.5633(3) 0.62494(11) 0.41161(11)
H29 H 0.68080 0.58870 0.43990
C35 C 0.4156(3) 0.58150(12) 0.37057(12)
H30 H 0.43150 0.51590 0.37130
C36 C 0.2394(3) 0.63494(11) 0.32721(12)
H31 H 0.13940 0.60480 0.29860
C37 C 0.2126(3) 0.73114(10) 0.32644(10)
H32 H 0.09420 0.76560 0.29730
C38 C 0.3613(2) 0.77921(9) 0.36906(8)
loop_
_geom_bond_atom_site_label_1
_geom_bond_atom_site_label_2
_geom_bond_distance
_geom_bond_site_symmetry_1
_geom_bond_site_symmetry_2
C1 H1 0.929 1_555 1_555
C2 C1 1.379 1_555 1_555
H2 C2 0.930 1_555 1_555
C3 C2 1.359 1_555 1_555
H3 C3 0.931 1_555 1_555
C4 C3 1.369 1_555 1_555
H4 C4 0.930 1_555 1_555
C5 C4 1.380 1_555 1_555
H5 C5 0.930 1_555 1_555
C6 C1 1.386 1_555 1_555
C7 C6 1.474 1_555 1_555
H6 C7 0.930 1_555 1_555
C8 C7 1.306 1_555 1_555
H7 C8 0.930 1_555 1_555
C9 C8 1.495 1_555 1_555
H8 C9 0.970 1_555 1_555
H9 C9 0.970 1_555 1_555
C10 C9 1.516 1_555 1_555
C11 C10 1.364 1_555 1_555
H10 C11 0.929 1_555 1_555
C12 C11 1.400 1_555 1_555
H11 C12 0.930 1_555 1_555
C13 C12 1.357 1_555 1_555
H12 C13 0.930 1_555 1_555
C14 C13 1.407 1_555 1_555
C15 C14 1.419 1_555 1_555
H13 C15 0.930 1_555 1_555
C16 C15 1.351 1_555 1_555
H14 C16 0.930 1_555 1_555
C17 C16 1.393 1_555 1_555
H15 C17 0.930 1_555 1_555
C18 C17 1.366 1_555 1_555
H16 C18 0.930 1_555 1_555
C19 C10 1.434 1_555 1_555
C20 H17 0.930 1_555 1_555
C21 C20 1.377 1_555 1_555
H18 C21 0.930 1_555 1_555
C22 C21 1.361 1_555 1_555
H19 C22 0.930 1_555 1_555
C23 C22 1.370 1_555 1_555
H20 C23 0.930 1_555 1_555
C24 C23 1.378 1_555 1_555
H21 C24 0.930 1_555 1_555
C25 C20 1.382 1_555 1_555
C26 C25 1.474 1_555 1_555
H22 C26 0.930 1_555 1_555
C27 C26 1.308 1_555 1_555
H23 C27 0.930 1_555 1_555
C28 C27 1.497 1_555 1_555
H24 C28 0.971 1_555 1_555
H25 C28 0.970 1_555 1_555
C29 C28 1.514 1_555 1_555
C30 C29 1.363 1_555 1_555
H26 C30 0.931 1_555 1_555
C31 C30 1.400 1_555 1_555
H27 C31 0.929 1_555 1_555
C32 C31 1.357 1_555 1_555
H28 C32 0.931 1_555 1_555
C33 C32 1.411 1_555 1_555
C34 C33 1.416 1_555 1_555
H29 C34 0.930 1_555 1_555
C35 C34 1.353 1_555 1_555
H30 C35 0.930 1_555 1_555
C36 C35 1.396 1_555 1_555
H31 C36 0.930 1_555 1_555
C37 C36 1.366 1_555 1_555
H32 C37 0.930 1_555 1_555
C38 C29 1.433 1_555 1_555
C5 C6 1.385 1_555 1_555
C14 C19 1.422 1_555 1_555
C18 C19 1.410 1_555 1_555
C24 C25 1.389 1_555 1_555
C33 C38 1.423 1_555 1_555
C37 C38 1.411 1_555 1_555
#END
