
#######################################################################
#
#                 Cambridge Crystallographic Data Centre
#                                CCDC
#
#######################################################################
#
# If this CIF has been generated from an entry in the Cambridge
# Structural Database, then it will include bibliographic, chemical,
# crystal, experimental, refinement or atomic coordinate data resulting
# from the CCDC's data processing and validation procedures.
#
#######################################################################

data_CSD_CIF_QAQQEH
_audit_creation_date 2017-05-06
_audit_creation_method CSD-ConQuest-V1
_database_code_CSD QAQQEH
_database_code_depnum_ccdc_archive 'CCDC 1510554'
_chemical_formula_sum 'C40 H26'
_chemical_formula_moiety
;
C40 H26
;
_journal_coden_Cambridge 179
_journal_volume 56
_journal_year 2017
_journal_page_first 1361
_journal_name_full 'Angew.Chem.,Int.Ed. '
loop_
_publ_author_name
"K.Ozaki"
"K.Murai"
"W.Matsuoka"
"K.Kawasumi"
"H.Ito"
"K.Itami"
_chemical_name_systematic
;
10,10'-diphenyl-9,9'-biphenanthrene
;
_cell_volume   2653.011
_exptl_crystal_colour 'colorless'
_exptl_crystal_density_diffrn 1.268
_exptl_crystal_description 'Block'
_exptl_crystal_preparation 'hexane/chloroform'
_diffrn_ambient_temperature 123
#These two values have been output from a single CSD field.
_refine_ls_R_factor_gt 0.0546
_refine_ls_wR_factor_gt 0.0546
_symmetry_cell_setting monoclinic
_symmetry_space_group_name_H-M 'P 21/c'
_symmetry_Int_Tables_number 14
loop_
_symmetry_equiv_pos_site_id
_symmetry_equiv_pos_as_xyz
1 x,y,z
2 -x,1/2+y,1/2-z
3 -x,-y,-z
4 x,-1/2-y,-1/2+z
_cell_length_a 14.447(3)
_cell_length_b 17.736(4)
_cell_length_c 10.386(3)
_cell_angle_alpha 90
_cell_angle_beta 94.503(6)
_cell_angle_gamma 90
_cell_formula_units_Z 4
loop_
_atom_type_symbol
_atom_type_radius_bond
C 0.68
H 0.23
loop_
_atom_site_label
_atom_site_type_symbol
_atom_site_fract_x
_atom_site_fract_y
_atom_site_fract_z
C1 C 0.73304(16) 0.05124(12) -0.0621(2)
C2 C 0.64139(16) 0.01960(12) 0.1244(2)
C3 C 0.87365(16) -0.01737(12) 0.1183(2)
C4 C 0.72944(17) -0.15261(13) -0.1856(2)
C5 C 0.86415(17) -0.03893(13) 0.2452(2)
H1 H 0.82880 -0.08250 0.26210
C6 C 0.75482(16) 0.18277(13) -0.1352(2)
C7 C 0.67548(16) 0.07464(12) 0.0289(2)
C8 C 0.64281(18) -0.02282(14) 0.3459(2)
H2 H 0.66130 -0.01550 0.43490
C9 C 0.69210(16) 0.20783(13) -0.0411(2)
C10 C 0.77236(16) 0.10453(13) -0.1482(2)
C11 C 0.65138(17) 0.15375(12) 0.0385(2)
C12 C 0.75882(16) -0.03053(12) -0.0729(2)
C13 C 0.80405(17) -0.18576(13) -0.1019(2)
C14 C 0.79849(17) 0.23322(14) -0.2160(2)
H3 H 0.78810 0.28580 -0.20760
C15 C 0.66924(18) 0.28460(13) -0.0248(2)
H4 H 0.69650 0.32150 -0.07630
C16 C 0.87162(18) 0.13121(14) -0.3205(2)
H5 H 0.91050 0.11390 -0.38410
C17 C 0.58410(17) -0.08711(14) -0.3421(2)
H6 H 0.53450 -0.06510 -0.39460
C18 C 0.90554(19) 0.00238(13) 0.3476(2)
H7 H 0.89810 -0.01280 0.43390
C19 C 0.85150(17) -0.14086(12) -0.0044(2)
C20 C 0.66723(17) 0.02936(13) 0.2560(2)
H8 H 0.70210 0.07260 0.28380
C21 C 0.70855(16) -0.07562(13) -0.1722(2)
C22 C 0.82622(16) -0.06238(12) 0.0098(2)
C23 C 0.58664(17) 0.17876(13) 0.1251(2)
H9 H 0.55670 0.14280 0.17550
C24 C 0.92678(16) 0.04640(13) 0.0959(2)
H10 H 0.93460 0.06170 0.00970
C25 C 0.63499(16) -0.04393(13) -0.2530(2)
H11 H 0.62070 0.00810 -0.24520
C26 C 0.95157(19) -0.24723(14) 0.0568(2)
H12 H 1.00140 -0.26830 0.11010
C27 C 0.56406(18) -0.09586(14) 0.1769(2)
H13 H 0.52820 -0.13870 0.14990
C28 C 0.83121(17) 0.08051(14) -0.2425(2)
H14 H 0.84300 0.02820 -0.25220
C29 C 0.58883(17) -0.04361(13) 0.0865(2)
H15 H 0.56980 -0.05100 -0.00220
C30 C 0.60888(18) 0.30721(13) 0.0632(2)
H16 H 0.59600 0.35930 0.07350
C31 C 0.59153(18) -0.08565(14) 0.3068(2)
H17 H 0.57510 -0.12180 0.36860
C32 C 0.60514(18) -0.16343(14) -0.3557(2)
H18 H 0.56990 -0.19320 -0.41780
C33 C 0.96835(18) 0.08772(13) 0.1983(2)
H19 H 1.00420 0.13110 0.18210
C34 C 0.92563(17) -0.17414(13) 0.0732(2)
H20 H 0.95820 -0.14470 0.13850
C35 C 0.67643(18) -0.19533(14) -0.2798(2)
H21 H 0.69050 -0.24720 -0.29060
C36 C 0.85559(18) 0.20821(14) -0.3064(2)
H22 H 0.88430 0.24340 -0.35950
C37 C 0.8323(2) -0.26048(14) -0.1154(3)
H23 H 0.80060 -0.29120 -0.17950
C38 C 0.56652(18) 0.25367(13) 0.1374(2)
H24 H 0.52350 0.26930 0.19680
C39 C 0.95750(19) 0.06553(13) 0.3242(2)
H25 H 0.98580 0.09380 0.39440
C40 C 0.9044(2) -0.29075(15) -0.0389(3)
H26 H 0.92230 -0.34160 -0.05110
loop_
_geom_bond_atom_site_label_1
_geom_bond_atom_site_label_2
_geom_bond_distance
_geom_bond_site_symmetry_1
_geom_bond_site_symmetry_2
C1 C7 1.371 1_555 1_555
C2 C7 1.502 1_555 1_555
C3 C5 1.389 1_555 1_555
C4 C13 1.455 1_555 1_555
C5 H1 0.950 1_555 1_555
C6 C9 1.454 1_555 1_555
C7 C11 1.451 1_555 1_555
C8 H2 0.951 1_555 1_555
C9 C11 1.423 1_555 1_555
C10 C1 1.448 1_555 1_555
C11 C23 1.419 1_555 1_555
C12 C1 1.504 1_555 1_555
C13 C19 1.421 1_555 1_555
C14 C6 1.409 1_555 1_555
H3 C14 0.950 1_555 1_555
C15 C9 1.414 1_555 1_555
H4 C15 0.950 1_555 1_555
C16 H5 0.951 1_555 1_555
C17 H6 0.950 1_555 1_555
C18 C5 1.388 1_555 1_555
H7 C18 0.950 1_555 1_555
C19 C22 1.449 1_555 1_555
C20 C2 1.399 1_555 1_555
H8 C20 0.950 1_555 1_555
C21 C4 1.408 1_555 1_555
C22 C3 1.502 1_555 1_555
C23 H9 0.950 1_555 1_555
C24 C3 1.397 1_555 1_555
H10 C24 0.951 1_555 1_555
C25 C17 1.370 1_555 1_555
H11 C25 0.950 1_555 1_555
C26 H12 0.950 1_555 1_555
C27 H13 0.949 1_555 1_555
C28 C10 1.412 1_555 1_555
H14 C28 0.950 1_555 1_555
C29 C2 1.393 1_555 1_555
H15 C29 0.950 1_555 1_555
C30 C15 1.372 1_555 1_555
H16 C30 0.950 1_555 1_555
C31 C8 1.381 1_555 1_555
H17 C31 0.950 1_555 1_555
C32 C17 1.397 1_555 1_555
H18 C32 0.950 1_555 1_555
C33 C24 1.389 1_555 1_555
H19 C33 0.950 1_555 1_555
C34 C19 1.418 1_555 1_555
H20 C34 0.951 1_555 1_555
C35 C4 1.414 1_555 1_555
H21 C35 0.951 1_555 1_555
C36 C14 1.371 1_555 1_555
H22 C36 0.950 1_555 1_555
C37 C13 1.397 1_555 1_555
H23 C37 0.950 1_555 1_555
C38 C23 1.368 1_555 1_555
H24 C38 0.951 1_555 1_555
C39 C18 1.380 1_555 1_555
H25 C39 0.950 1_555 1_555
C40 C26 1.393 1_555 1_555
H26 C40 0.949 1_555 1_555
C6 C10 1.419 1_555 1_555
C8 C20 1.380 1_555 1_555
C12 C21 1.454 1_555 1_555
C12 C22 1.369 1_555 1_555
C16 C28 1.371 1_555 1_555
C16 C36 1.395 1_555 1_555
C21 C25 1.418 1_555 1_555
C26 C34 1.364 1_555 1_555
C27 C29 1.386 1_555 1_555
C27 C31 1.388 1_555 1_555
C30 C38 1.394 1_555 1_555
C32 C35 1.369 1_555 1_555
C33 C39 1.386 1_555 1_555
C37 C40 1.369 1_555 1_555
#END
