
#######################################################################
#
#                 Cambridge Crystallographic Data Centre
#                                CCDC
#
#######################################################################
#
# If this CIF has been generated from an entry in the Cambridge
# Structural Database, then it will include bibliographic, chemical,
# crystal, experimental, refinement or atomic coordinate data resulting
# from the CCDC's data processing and validation procedures.
#
#######################################################################

data_CSD_CIF_QAYJEI
_audit_creation_date 2017-08-31
_audit_creation_method CSD-ConQuest-V1
_database_code_CSD QAYJEI
_database_code_depnum_ccdc_archive 'CCDC 1508865'
_chemical_formula_sum 'C24 H16'
_chemical_formula_moiety
;
C24 H16
;
_journal_coden_Cambridge 1499
_journal_volume 7
_journal_year 2017
_journal_page_first 4242
_journal_name_full 'ACS Catalysis '
loop_
_publ_author_name
"Liu-Zhu Yu"
"Yin-Wei"
"Min Shi"
_chemical_name_systematic
;
7-phenyltetraphene
;
_cell_volume   3147.383
_exptl_crystal_colour 'colorless'
_exptl_crystal_density_diffrn 1.285
_exptl_crystal_description 'prismatic'
_diffrn_ambient_temperature 293
_diffrn_special_details
;
twin

;
#These two values have been output from a single CSD field.
_refine_ls_R_factor_gt 0.0933
_refine_ls_wR_factor_gt 0.0933
_symmetry_cell_setting monoclinic
_symmetry_space_group_name_H-M 'P 21/n'
_symmetry_Int_Tables_number 14
loop_
_symmetry_equiv_pos_site_id
_symmetry_equiv_pos_as_xyz
1 x,y,z
2 1/2-x,1/2+y,1/2-z
3 -x,-y,-z
4 -1/2+x,-1/2-y,-1/2+z
_cell_length_a 13.051(3)
_cell_length_b 8.553(2)
_cell_length_c 28.871(8)
_cell_angle_alpha 90
_cell_angle_beta 102.414(7)
_cell_angle_gamma 90
_cell_formula_units_Z 8
loop_
_atom_type_symbol
_atom_type_radius_bond
C 0.68
H 0.23
loop_
_atom_site_label
_atom_site_type_symbol
_atom_site_fract_x
_atom_site_fract_y
_atom_site_fract_z
C1 C 0.3725(4) 0.8984(7) 1.00439(19)
C2 C 0.3126(5) 0.9715(8) 1.0329(2)
H1 H 0.26340 1.04670 1.01980
C3 C 0.3258(5) 0.9332(8) 1.0800(2)
H2 H 0.28550 0.98300 1.09850
C4 C 0.3983(5) 0.8216(8) 1.1002(2)
H3 H 0.40690 0.79790 1.13230
C5 C 0.4576(5) 0.7457(8) 1.0735(2)
H4 H 0.50620 0.67070 1.08740
C6 C 0.4450(4) 0.7813(7) 1.0246(2)
C7 C 0.5067(5) 0.7026(7) 0.9965(2)
H5 H 0.55770 0.63180 1.01100
C8 C 0.4925(4) 0.7285(7) 0.9491(2)
H6 H 0.53160 0.67150 0.93150
C9 C 0.4177(4) 0.8434(6) 0.9254(2)
C10 C 0.3619(4) 0.9367(7) 0.95369(19)
C11 C 0.3003(4) 1.0580(7) 0.9320(2)
H7 H 0.26420 1.11920 0.94980
C12 C 0.2905(4) 1.0917(6) 0.8839(2)
C13 C 0.2292(4) 1.2211(7) 0.8621(2)
H8 H 0.19910 1.28880 0.88070
C14 C 0.2145(5) 1.2462(8) 0.8150(3)
H9 H 0.17360 1.33020 0.80130
C15 C 0.2602(5) 1.1470(8) 0.7862(2)
H10 H 0.24820 1.16440 0.75360
C16 C 0.3212(4) 1.0271(7) 0.8056(2)
H11 H 0.35190 0.96400 0.78610
C17 C 0.3403(4) 0.9938(7) 0.85467(19)
C18 C 0.4033(4) 0.8682(6) 0.87644(19)
C19 C 0.4479(4) 0.7569(7) 0.84663(19)
C20 C 0.4112(4) 0.6041(7) 0.8414(2)
H12 H 0.35960 0.57260 0.85710
C21 C 0.4496(5) 0.4978(8) 0.8134(2)
H13 H 0.42330 0.39640 0.81040
C22 C 0.5257(5) 0.5401(8) 0.7900(2)
H14 H 0.55230 0.46770 0.77170
C23 C 0.5632(5) 0.6936(8) 0.7940(2)
H15 H 0.61360 0.72480 0.77750
C24 C 0.5255(5) 0.7985(7) 0.8225(2)
H16 H 0.55240 0.89950 0.82560
C25 C 0.8676(4) 0.5996(7) -0.00464(19)
C26 C 0.7806(4) 0.5238(7) -0.0332(2)
H17 H 0.74580 0.44540 -0.02040
C27 C 0.7466(5) 0.5663(9) -0.0808(2)
H18 H 0.68840 0.51750 -0.09930
C28 C 0.7988(5) 0.6798(8) -0.1003(2)
H19 H 0.77610 0.70600 -0.13210
C29 C 0.8828(5) 0.7537(8) -0.0738(2)
H20 H 0.91740 0.82990 -0.08760
C30 C 0.9182(4) 0.7165(7) -0.0257(2)
C31 C 1.0057(4) 0.7954(7) 0.0032(2)
H21 H 1.04200 0.86800 -0.01110
C32 C 1.0379(4) 0.7698(7) 0.0497(2)
H22 H 1.09390 0.82720 0.06690
C33 C 0.9876(4) 0.6550(7) 0.07370(19)
C34 C 0.9051(4) 0.5608(7) 0.04589(19)
C35 C 0.8647(4) 0.4384(7) 0.0675(2)
H23 H 0.81180 0.37700 0.04960
C36 C 0.9013(4) 0.4041(7) 0.1157(2)
C37 C 0.8630(4) 0.2741(7) 0.1367(2)
H24 H 0.81550 0.20700 0.11790
C38 C 0.8937(4) 0.2445(8) 0.1837(2)
H25 H 0.86920 0.15650 0.19680
C39 C 0.9641(4) 0.3498(8) 0.2127(2)
H26 H 0.98260 0.33310 0.24530
C40 C 1.0037(4) 0.4714(7) 0.1941(2)
H27 H 1.05040 0.53720 0.21390
C41 C 0.9769(4) 0.5042(6) 0.14463(19)
C42 C 1.0188(4) 0.6302(6) 0.12274(19)
C43 C 1.0942(4) 0.7400(7) 0.15228(19)
C44 C 1.0654(4) 0.8956(7) 0.15667(19)
H28 H 0.99910 0.92880 0.14110
C45 C 1.1333(5) 1.0018(8) 0.1836(2)
H29 H 1.11260 1.10500 0.18610
C46 C 1.2314(5) 0.9534(8) 0.2067(2)
H30 H 1.27740 1.02400 0.22490
C47 C 1.2618(5) 0.7998(8) 0.2030(2)
H31 H 1.32800 0.76730 0.21890
C48 C 1.1943(4) 0.6944(8) 0.1757(2)
H32 H 1.21610 0.59190 0.17290
loop_
_geom_bond_atom_site_label_1
_geom_bond_atom_site_label_2
_geom_bond_distance
_geom_bond_site_symmetry_1
_geom_bond_site_symmetry_2
C1 C2 1.399 1_555 1_555
C2 H1 0.930 1_555 1_555
C3 C2 1.373 1_555 1_555
H2 C3 0.930 1_555 1_555
C4 C3 1.382 1_555 1_555
H3 C4 0.932 1_555 1_555
C5 C4 1.368 1_555 1_555
H4 C5 0.930 1_555 1_555
C6 C1 1.415 1_555 1_555
C7 C6 1.428 1_555 1_555
H5 C7 0.930 1_555 1_555
C8 C7 1.359 1_555 1_555
H6 C8 0.932 1_555 1_555
C9 C8 1.449 1_555 1_555
C10 C1 1.477 1_555 1_555
C11 C10 1.378 1_555 1_555
H7 C11 0.930 1_555 1_555
C12 C11 1.397 1_555 1_555
C13 C12 1.430 1_555 1_555
H8 C13 0.932 1_555 1_555
C14 C13 1.349 1_555 1_555
H9 C14 0.931 1_555 1_555
C15 C14 1.407 1_555 1_555
H10 C15 0.932 1_555 1_555
C16 C15 1.344 1_555 1_555
H11 C16 0.930 1_555 1_555
C17 C12 1.439 1_555 1_555
C18 C9 1.401 1_555 1_555
C19 C18 1.484 1_555 1_555
C20 C19 1.389 1_555 1_555
H12 C20 0.929 1_555 1_555
C21 C20 1.380 1_555 1_555
H13 C21 0.930 1_555 1_555
C22 C21 1.365 1_555 1_555
H14 C22 0.928 1_555 1_555
C23 C22 1.397 1_555 1_555
H15 C23 0.930 1_555 1_555
C24 C19 1.393 1_555 1_555
H16 C24 0.930 1_555 1_555
C25 C26 1.410 1_555 1_555
C26 H17 0.930 1_555 1_555
C27 C26 1.398 1_555 1_555
H18 C27 0.928 1_555 1_555
C28 C27 1.374 1_555 1_555
H19 C28 0.929 1_555 1_555
C29 C28 1.351 1_555 1_555
H20 C29 0.930 1_555 1_555
C30 C25 1.406 1_555 1_555
C31 C30 1.430 1_555 1_555
H21 C31 0.930 1_555 1_555
C32 C31 1.336 1_555 1_555
H22 C32 0.930 1_555 1_555
C33 C32 1.439 1_555 1_555
C34 C25 1.473 1_555 1_555
C35 C34 1.380 1_555 1_555
H23 C35 0.931 1_555 1_555
C36 C35 1.402 1_555 1_555
C37 C36 1.409 1_555 1_555
H24 C37 0.929 1_555 1_555
C38 C37 1.354 1_555 1_555
H25 C38 0.929 1_555 1_555
C39 C38 1.423 1_555 1_555
H26 C39 0.931 1_555 1_555
C40 C39 1.325 1_555 1_555
H27 C40 0.930 1_555 1_555
C41 C36 1.432 1_555 1_555
C42 C33 1.403 1_555 1_555
C43 C42 1.489 1_555 1_555
C44 C43 1.396 1_555 1_555
H28 C44 0.930 1_555 1_555
C45 C44 1.385 1_555 1_555
H29 C45 0.930 1_555 1_555
C46 C45 1.374 1_555 1_555
H30 C46 0.930 1_555 1_555
C47 C46 1.383 1_555 1_555
H31 C47 0.929 1_555 1_555
C48 C43 1.391 1_555 1_555
H32 C48 0.931 1_555 1_555
C5 C6 1.419 1_555 1_555
C9 C10 1.446 1_555 1_555
C16 C17 1.414 1_555 1_555
C17 C18 1.415 1_555 1_555
C23 C24 1.378 1_555 1_555
C29 C30 1.403 1_555 1_555
C33 C34 1.443 1_555 1_555
C40 C41 1.423 1_555 1_555
C41 C42 1.417 1_555 1_555
C47 C48 1.383 1_555 1_555
#END
