
#######################################################################
#
#                 Cambridge Crystallographic Data Centre
#                                CCDC
#
#######################################################################
#
# If this CIF has been generated from an entry in the Cambridge
# Structural Database, then it will include bibliographic, chemical,
# crystal, experimental, refinement or atomic coordinate data resulting
# from the CCDC's data processing and validation procedures.
#
#######################################################################

data_CSD_CIF_QEFLAO
_audit_creation_date 2001-05-08
_audit_creation_method CSD-ConQuest-V1
_database_code_CSD QEFLAO
_database_code_depnum_ccdc_archive 'CCDC 158681'
_chemical_formula_sum 'C20 H16'
_chemical_formula_moiety
;
C20 H16
;
_journal_coden_Cambridge 4
_journal_volume 122
_journal_year 2000
_journal_page_first 12629
_journal_name_full 'J.Am.Chem.Soc. '
loop_
_publ_author_name
"M.K.Lakshman"
"P.L.Kole"
"S.Chaturvedi"
"J.H.Saugier"
"H.J.C.Yeh"
"J.P.Glusker"
"H.L.Carrell"
"A.K.Katz"
"C.E.Afshar"
"W.-M.Dashwood"
"G.Kenniston"
"W.M.Baird"
_chemical_name_systematic
;
1,4-Dimethylbenzo(c)phenanthrene
;
_cell_volume    672.732
_exptl_crystal_colour 'colorless'
_exptl_crystal_description 'trapezoid'
_diffrn_ambient_temperature 120
#These two values have been output from a single CSD field.
_refine_ls_R_factor_gt 0.06
_refine_ls_wR_factor_gt 0.06
_symmetry_cell_setting monoclinic
_symmetry_space_group_name_H-M 'P 21'
_symmetry_Int_Tables_number 4
loop_
_symmetry_equiv_pos_site_id
_symmetry_equiv_pos_as_xyz
1 x,y,z
2 -x,1/2+y,-z
_cell_length_a 8.812(3)
_cell_length_b 8.266(2)
_cell_length_c 9.497(8)
_cell_angle_alpha 90
_cell_angle_beta 103.47(4)
_cell_angle_gamma 90
_cell_formula_units_Z 2
loop_
_atom_type_symbol
_atom_type_radius_bond
C 0.68
H 0.23
loop_
_atom_site_label
_atom_site_type_symbol
_atom_site_fract_x
_atom_site_fract_y
_atom_site_fract_z
C1 C 0.5418(4) 0.22145 0.0513(3)
C2 C 0.6727(4) 0.2797(4) 0.1492(4)
C3 C 0.6751(4) 0.3045(4) 0.2961(4)
C4 C 0.5510(4) 0.2553(4) 0.3508(3)
C5 C 0.2899(4) 0.1300(4) 0.3082(3)
C6 C 0.1653(4) 0.0590(4) 0.2208(4)
C7 C 0.0047(4) 0.0046(4) -0.0242(4)
C8 C -0.0305(4) 0.0265(4) -0.1684(4)
C9 C 0.0143(4) 0.1788(4) -0.3778(3)
C10 C 0.0905(4) 0.2977(4) -0.4355(4)
C11 C 0.2166(4) 0.3792(4) -0.3444(4)
C12 C 0.2697(4) 0.3326(4) -0.2024(4)
C13 C 0.4030(3) 0.1937(4) 0.1012(3)
C14 C 0.4147(4) 0.1966(4) 0.2539(4)
C15 C 0.1414(4) 0.0699(4) 0.0683(4)
C16 C 0.2523(3) 0.1529(4) 0.0069(3)
C17 C 0.2004(4) 0.2029(4) -0.1430(3)
C18 C 0.0626(4) 0.1321(4) -0.2315(4)
C19 C 0.5663(4) 0.1699(5) -0.0962(4)
C20 C 0.5644(4) 0.2568(6) 0.5132(4)
H1 H 0.782(2) 0.310(2) 0.115(2)
H2 H 0.778(2) 0.363(2) 0.362(2)
H3 H 0.295(2) 0.136(2) 0.419(2)
H4 H 0.080(2) -0.008(2) 0.263(2)
H5 H -0.077(2) -0.066(2) 0.019(2)
H6 H -0.130(2) -0.037(2) -0.234(2)
H7 H -0.086(2) 0.118(2) -0.445(2)
H8 H 0.054(2) 0.326(2) -0.545(2)
H9 H 0.274(2) 0.478(2) -0.382(2)
H10 H 0.367(2) 0.398(2) -0.136(2)
H11 H 0.682(2) 0.102(2) -0.085(2)
H12 H 0.460(2) 0.096(2) -0.150(2)
H13 H 0.571(2) 0.277(2) -0.162(2)
H14 H 0.623(2) 0.146(2) 0.560(2)
H15 H 0.642(2) 0.359(2) 0.561(2)
H16 H 0.440(2) 0.268(2) 0.534(2)
loop_
_geom_bond_atom_site_label_1
_geom_bond_atom_site_label_2
_geom_bond_distance
_geom_bond_site_symmetry_1
_geom_bond_site_symmetry_2
C1 C2 1.388 1_555 1_555
C2 C3 1.405 1_555 1_555
C3 C4 1.377 1_555 1_555
C4 C14 1.418 1_555 1_555
C5 C6 1.347 1_555 1_555
C6 C15 1.417 1_555 1_555
C7 C8 1.344 1_555 1_555
C8 C18 1.422 1_555 1_555
C9 C10 1.374 1_555 1_555
C10 C11 1.410 1_555 1_555
C11 C12 1.375 1_555 1_555
C12 C17 1.415 1_555 1_555
C13 C1 1.429 1_555 1_555
C14 C5 1.429 1_555 1_555
C15 C7 1.422 1_555 1_555
C16 C13 1.458 1_555 1_555
C17 C16 1.450 1_555 1_555
C18 C9 1.409 1_555 1_555
C19 C1 1.527 1_555 1_555
C20 C4 1.519 1_555 1_555
H1 C2 1.114 1_555 1_555
H2 C3 1.088 1_555 1_555
H3 C5 1.044 1_555 1_555
H4 C6 1.083 1_555 1_555
H5 C7 1.079 1_555 1_555
H6 C8 1.085 1_555 1_555
H7 C9 1.085 1_555 1_555
H8 C10 1.041 1_555 1_555
H9 C11 1.065 1_555 1_555
H10 C12 1.083 1_555 1_555
H11 C19 1.147 1_555 1_555
H12 C19 1.135 1_555 1_555
H13 C19 1.090 1_555 1_555
H14 C20 1.094 1_555 1_555
H15 C20 1.115 1_555 1_555
H16 C20 1.162 1_555 1_555
C13 C14 1.430 1_555 1_555
C15 C16 1.425 1_555 1_555
C17 C18 1.431 1_555 1_555
#END
