
#######################################################################
#
#                 Cambridge Crystallographic Data Centre
#                                CCDC
#
#######################################################################
#
# If this CIF has been generated from an entry in the Cambridge
# Structural Database, then it will include bibliographic, chemical,
# crystal, experimental, refinement or atomic coordinate data resulting
# from the CCDC's data processing and validation procedures.
#
#######################################################################

data_CSD_CIF_QICKES
_audit_creation_date 2001-06-05
_audit_creation_method CSD-ConQuest-V1
_database_code_CSD QICKES
_chemical_formula_sum 'C46 H36'
_chemical_formula_moiety
;
C46 H36
;
_journal_coden_Cambridge 7
_journal_volume 72
_journal_year 1999
_journal_page_first 2111
_journal_name_full 'Bull.Chem.Soc.Jpn. '
loop_
_publ_author_name
"K.Yano"
"S.Matsuda"
"K.Tani"
"K.Yamamoto"
"H.Matsubara"
_chemical_name_systematic
;
3,9(1,10)-Diphenanthracena-6(2,6,7,3)naphthalenaspiro(5.5)undecaphane
;
_chemical_melting_point 573.15
_cell_volume   3173.914
_exptl_crystal_colour 'colorless'
_exptl_crystal_density_diffrn 1.232
_exptl_special_details
;
Melts above 573.15K

;
_exptl_crystal_description 'plates'
_exptl_crystal_preparation 'benzene'
_diffrn_ambient_temperature ?
_diffrn_special_details
;
The study was carried out at room temperature,in the range 283-303K

;
#These two values have been output from a single CSD field.
_refine_ls_R_factor_gt 0.04
_refine_ls_wR_factor_gt 0.04
_symmetry_cell_setting monoclinic
_symmetry_space_group_name_H-M 'P 21/n'
_symmetry_Int_Tables_number 14
loop_
_symmetry_equiv_pos_site_id
_symmetry_equiv_pos_as_xyz
1 x,y,z
2 1/2-x,1/2+y,1/2-z
3 -x,-y,-z
4 -1/2+x,-1/2-y,-1/2+z
_cell_length_a 14.419(4)
_cell_length_b 16.205(5)
_cell_length_c 14.854(5)
_cell_angle_alpha 90
_cell_angle_beta 113.87(2)
_cell_angle_gamma 90
_cell_formula_units_Z 4
loop_
_atom_type_symbol
_atom_type_radius_bond
C 0.68
H 0.23
loop_
_atom_site_label
_atom_site_type_symbol
_atom_site_fract_x
_atom_site_fract_y
_atom_site_fract_z
C1 C 0.6653(3) 0.1003(2) 0.7982(2)
C2 C 0.5728(3) 0.1345(2) 0.7316(2)
C3 C 0.5249(3) 0.1983(2) 0.7583(2)
C4 C 0.5701(3) 0.2297(2) 0.8543(3)
C5 C 0.6617(3) 0.2009(3) 0.9187(3)
C6 C 0.7120(3) 0.1366(2) 0.8922(3)
C7 C 0.7109(3) 0.0266(2) 0.7755(3)
C8 C 0.6634(3) -0.0209(2) 0.6903(3)
C9 C 0.7009(4) -0.0965(3) 0.6772(3)
C10 C 0.7956(4) -0.1223(3) 0.7502(5)
C11 C 0.8455(4) -0.0762(4) 0.8307(4)
C12 C 0.8045(3) -0.0019(3) 0.8472(3)
C13 C 0.8082(3) 0.1064(3) 0.9601(3)
C14 C 0.8521(3) 0.0416(3) 0.9382(4)
C15 C 0.1223(3) -0.0818(2) 0.6709(3)
C16 C 0.2130(3) -0.0693(2) 0.7563(3)
C17 C 0.2169(3) -0.0142(2) 0.8297(3)
C18 C 0.1282(3) 0.0262(3) 0.8207(3)
C19 C 0.0388(3) 0.0125(3) 0.7413(4)
C20 C 0.0332(3) -0.0405(3) 0.6652(3)
C21 C 0.1183(3) -0.1331(3) 0.5888(3)
C22 C 0.2017(4) -0.1762(3) 0.5857(3)
C23 C 0.1960(5) -0.2182(5) 0.5032(4)
C24 C 0.1019(7) -0.2199(4) 0.4200(5)
C25 C 0.0198(6) -0.1809(4) 0.4221(5)
C26 C 0.0238(4) -0.1366(3) 0.5039(3)
C27 C -0.0593(3) -0.0497(3) 0.5789(4)
C28 C -0.0627(5) -0.0942(4) 0.5025(4)
C29 C 0.3485(2) 0.0988(2) 0.7145(2)
C30 C 0.3954(2) 0.0545(2) 0.8050(2)
C31 C 0.4479(3) -0.0159(2) 0.8057(2)
C32 C 0.4426(3) -0.0526(2) 0.7177(2)
C33 C 0.3754(3) -0.0189(2) 0.6271(2)
C34 C 0.3338(3) 0.0596(2) 0.6287(2)
C35 C 0.3519(3) -0.0661(2) 0.5394(3)
C36 C 0.4005(4) -0.1386(2) 0.5417(3)
C37 C 0.4865(4) -0.1608(2) 0.6286(3)
C38 C 0.5020(3) -0.1216(2) 0.7149(3)
C39 C 0.4212(3) 0.2302(2) 0.6905(3)
C40 C 0.3350(3) 0.1916(2) 0.7127(3)
C41 C 0.6410(4) -0.1544(3) 0.5952(4)
C42 C 0.5708(5) -0.2129(3) 0.6229(4)
C43 C 0.3155(3) 0.0049(3) 0.9165(3)
C44 C 0.3778(3) 0.0755(2) 0.8964(3)
C45 C 0.2858(5) -0.2591(3) 0.4966(4)
C46 C 0.3505(4) -0.2010(3) 0.4603(4)
H1 H 0.533(2) 0.111(2) 0.663(2)
H2 H 0.534(3) 0.278(2) 0.868(2)
H3 H 0.693(2) 0.226(2) 0.990(2)
H4 H 0.595(2) -0.005(2) 0.638(2)
H5 H 0.820(3) -0.172(2) 0.732(3)
H6 H 0.910(3) -0.094(2) 0.887(2)
H7 H 0.834(3) 0.132(2) 1.024(2)
H8 H 0.918(2) 0.017(2) 0.985(2)
H9 H 0.276(2) -0.102(2) 0.762(2)
H10 H 0.127(3) 0.069(2) 0.871(3)
H11 H -0.022(3) 0.041(2) 0.734(3)
H12 H 0.271(3) -0.178(3) 0.641(3)
H13 H 0.093(3) -0.247(2) 0.366(3)
H14 H -0.052(3) -0.180(2) 0.356(3)
H15 H -0.118(3) -0.023(2) 0.579(3)
H16 H -0.127(3) -0.100(2) 0.440(3)
H17 H 0.496(2) -0.044(2) 0.871(2)
H18 H 0.296(2) 0.088(2) 0.566(2)
H19 H 0.293(2) -0.047(2) 0.477(2)
H20 H 0.561(3) -0.135(2) 0.773(2)
H21 H 0.410(2) 0.218(2) 0.615(2)
H22 H 0.418(3) 0.288(2) 0.697(2)
H23 H 0.265(2) 0.210(2) 0.655(2)
H24 H 0.335(2) 0.211(2) 0.777(2)
H25 H 0.594(2) -0.120(2) 0.529(2)
H26 H 0.683(3) -0.188(2) 0.572(2)
H27 H 0.618(3) -0.234(2) 0.685(2)
H28 H 0.537(3) -0.255(2) 0.567(2)
H29 H 0.365(3) -0.044(2) 0.937(2)
H30 H 0.305(2) 0.022(2) 0.976(2)
H31 H 0.346(3) 0.131(2) 0.889(2)
H32 H 0.448(2) 0.082(2) 0.956(2)
H33 H 0.349(3) -0.286(2) 0.557(3)
H34 H 0.258(3) -0.299(2) 0.448(3)
H35 H 0.300(3) -0.167(2) 0.399(2)
H36 H 0.410(3) -0.231(2) 0.452(3)
loop_
_geom_bond_atom_site_label_1
_geom_bond_atom_site_label_2
_geom_bond_distance
_geom_bond_site_symmetry_1
_geom_bond_site_symmetry_2
C1 C2 1.413 1_555 1_555
C2 C3 1.387 1_555 1_555
C3 C4 1.402 1_555 1_555
C4 C5 1.362 1_555 1_555
C5 C6 1.413 1_555 1_555
C6 C1 1.410 1_555 1_555
C7 C1 1.467 1_555 1_555
C8 C7 1.401 1_555 1_555
C9 C8 1.384 1_555 1_555
C10 C9 1.420 1_555 1_555
C11 C10 1.345 1_555 1_555
C12 C7 1.416 1_555 1_555
C13 C6 1.431 1_555 1_555
C14 C12 1.430 1_555 1_555
C15 C16 1.421 1_555 1_555
C16 C17 1.393 1_555 1_555
C17 C18 1.394 1_555 1_555
C18 C19 1.368 1_555 1_555
C19 C20 1.396 1_555 1_555
C20 C15 1.420 1_555 1_555
C21 C15 1.458 1_555 1_555
C22 C21 1.407 1_555 1_555
C23 C22 1.375 1_555 1_555
C24 C23 1.418 1_555 1_555
C25 C24 1.353 1_555 1_555
C26 C21 1.435 1_555 1_555
C27 C20 1.436 1_555 1_555
C28 C26 1.417 1_555 1_555
C29 C30 1.430 1_555 1_555
C30 C31 1.367 1_555 1_555
C31 C32 1.410 1_555 1_555
C32 C33 1.412 1_555 1_555
C33 C34 1.411 1_555 1_555
C34 C29 1.362 1_555 1_555
C35 C33 1.428 1_555 1_555
C36 C35 1.361 1_555 1_555
C37 C36 1.428 1_555 1_555
C38 C32 1.419 1_555 1_555
C39 C3 1.516 1_555 1_555
C40 C29 1.515 1_555 1_555
C41 C9 1.503 1_555 1_555
C42 C37 1.510 1_555 1_555
C43 C17 1.515 1_555 1_555
C44 C30 1.517 1_555 1_555
C45 C23 1.493 1_555 1_555
C46 C36 1.516 1_555 1_555
H1 C2 1.020 1_555 1_555
H2 C4 1.005 1_555 1_555
H3 C5 1.051 1_555 1_555
H4 C8 1.011 1_555 1_555
H5 C10 0.960 1_555 1_555
H6 C11 1.009 1_555 1_555
H7 C13 0.962 1_555 1_555
H8 C14 1.005 1_555 1_555
H9 C16 1.025 1_555 1_555
H10 C18 1.025 1_555 1_555
H11 C19 0.957 1_555 1_555
H12 C22 1.005 1_555 1_555
H13 C24 0.877 1_555 1_555
H14 C25 1.102 1_555 1_555
H15 C27 0.951 1_555 1_555
H16 C28 1.017 1_555 1_555
H17 C31 1.042 1_555 1_555
H18 C34 0.983 1_555 1_555
H19 C35 1.019 1_555 1_555
H20 C38 0.960 1_555 1_555
H21 C39 1.085 1_555 1_555
H22 C39 0.945 1_555 1_555
H23 C40 1.069 1_555 1_555
H24 C40 1.006 1_555 1_555
H25 C41 1.094 1_555 1_555
H26 C41 0.975 1_555 1_555
H27 C42 0.961 1_555 1_555
H28 C42 1.032 1_555 1_555
H29 C43 1.027 1_555 1_555
H30 C43 0.995 1_555 1_555
H31 C44 0.995 1_555 1_555
H32 C44 1.046 1_555 1_555
H33 C45 1.079 1_555 1_555
H34 C45 0.930 1_555 1_555
H35 C46 1.061 1_555 1_555
H36 C46 1.036 1_555 1_555
C11 C12 1.406 1_555 1_555
C13 C14 1.333 1_555 1_555
C25 C26 1.392 1_555 1_555
C27 C28 1.329 1_555 1_555
C37 C38 1.366 1_555 1_555
C39 C40 1.542 1_555 1_555
C41 C42 1.559 1_555 1_555
C43 C44 1.556 1_555 1_555
C45 C46 1.567 1_555 1_555
#END
