
#######################################################################
#
#                 Cambridge Crystallographic Data Centre
#                                CCDC
#
#######################################################################
#
# If this CIF has been generated from an entry in the Cambridge
# Structural Database, then it will include bibliographic, chemical,
# crystal, experimental, refinement or atomic coordinate data resulting
# from the CCDC's data processing and validation procedures.
#
#######################################################################

data_CSD_CIF_QIRGIJ01
_audit_creation_date 2013-10-30
_audit_creation_method CSD-ConQuest-V1
_database_code_CSD QIRGIJ01
_database_code_depnum_ccdc_archive 'CCDC 805494'
_chemical_formula_sum 'C42 H24'
_chemical_formula_moiety
;
C42 H24
;
_journal_coden_Cambridge 15
_journal_volume 91
_journal_year 2013
_journal_page_first 1059
_journal_name_full 'Can.J.Chem. '
loop_
_publ_author_name
"G.L.Eakins"
"M.Cooper"
"T.Phillips"
"N.N.Gerasimchuk"
"B.E.Breyfogle"
"C.J.Stearman"
_chemical_name_systematic
;
7-(7H-Dibenzo[c,g]fluoren-7-ylidene)-7H-dibenzo[c,g]fluorene
;
_chemical_name_common
;
Fused-(phenyl)bis-fluorenone
;
_cell_volume   5345.153
_exptl_crystal_colour 'black violet'
_exptl_crystal_density_diffrn 1.314
_exptl_special_details
;
monoclinic C2/c polymorph

;
_exptl_crystal_description 'prism'
_diffrn_ambient_temperature 296
#These two values have been output from a single CSD field.
_refine_ls_R_factor_gt 0.0469
_refine_ls_wR_factor_gt 0.0469
_symmetry_cell_setting monoclinic
_symmetry_space_group_name_H-M 'C 2/c'
_symmetry_Int_Tables_number 15
loop_
_symmetry_equiv_pos_site_id
_symmetry_equiv_pos_as_xyz
1 x,y,z
2 -x,y,1/2-z
3 1/2+x,1/2+y,z
4 1/2-x,1/2+y,1/2-z
5 -x,-y,-z
6 x,-y,-1/2+z
7 -1/2-x,-1/2-y,-z
8 -1/2+x,-1/2-y,-1/2+z
_cell_length_a 24.1802(17)
_cell_length_b 15.1459(11)
_cell_length_c 18.2993(14)
_cell_angle_alpha 90
_cell_angle_beta 127.101(1)
_cell_angle_gamma 90
_cell_formula_units_Z 8
loop_
_atom_type_symbol
_atom_type_radius_bond
C 0.68
H 0.23
loop_
_atom_site_label
_atom_site_type_symbol
_atom_site_fract_x
_atom_site_fract_y
_atom_site_fract_z
C1 C 0.04083(12) -0.33527(13) 0.58410(15)
H1 H 0.03180 -0.38530 0.54910
C2 C 0.09278(11) -0.33687(11) 0.67811(15)
H2 H 0.11950 -0.38750 0.70540
C3 C 0.10503(9) -0.26484(10) 0.73090(13)
H3 H 0.13990 -0.26730 0.79380
C4 C 0.06574(8) -0.18658(9) 0.69177(10)
C5 C 0.07876(7) -0.10706(9) 0.74151(10)
C6 C 0.05195(7) -0.02681(9) 0.69457(10)
C7 C 0.09403(7) 0.04545(9) 0.75838(9)
C8 C 0.09142(7) 0.13412(9) 0.73874(9)
C9 C 0.15086(7) 0.19438(9) 0.77802(9)
C10 C 0.12682(7) 0.27731(8) 0.73733(9)
C11 C 0.17369(7) 0.33941(9) 0.74316(10)
C12 C 0.15355(8) 0.41383(10) 0.68519(11)
H4 H 0.10670 0.42480 0.64000
C13 C 0.20172(9) 0.46960(11) 0.69460(14)
H5 H 0.18720 0.51770 0.65540
C14 C 0.27254(9) 0.45561(11) 0.76223(14)
H6 H 0.30470 0.49650 0.77080
C15 C 0.20356(11) -0.23212(12) 1.08143(14)
H7 H 0.22200 -0.26440 1.13480
C16 C 0.1550(1) -0.27052(12) 0.99673(14)
H8 H 0.13990 -0.32780 0.99380
C17 C 0.12907(9) -0.22536(10) 0.91766(12)
H9 H 0.09560 -0.25170 0.86160
C18 C 0.15236(7) -0.13894(9) 0.9195(1)
C19 C 0.19906(7) -0.09782(10) 1.00665(10)
C20 C 0.21586(7) -0.00788(10) 1.01216(10)
H10 H 0.24770 0.01760 1.06940
C21 C 0.18666(7) 0.04250(9) 0.93584(10)
H11 H 0.19590 0.10270 0.94110
C22 C 0.14222(7) 0.00321(9) 0.84862(9)
C23 C 0.00345(11) -0.26096(12) 0.54363(13)
H12 H -0.03100 -0.26060 0.48060
C24 C 0.01542(8) -0.18378(10) 0.59477(11)
C25 C -0.01692(9) -0.10331(11) 0.55119(11)
H13 H -0.05280 -0.10310 0.48860
C26 C 0.00309(8) -0.02568(10) 0.59843(10)
H14 H -0.01540 0.02750 0.56740
C27 C 0.12791(7) -0.08708(9) 0.84037(10)
C28 C 0.24612(7) 0.32028(9) 0.80522(10)
C29 C 0.29436(8) 0.38232(11) 0.81535(12)
H15 H 0.34160 0.37250 0.85910
C30 C 0.26840(7) 0.23762(10) 0.84949(10)
H16 H 0.31560 0.22610 0.89080
C31 C 0.22209(7) 0.17442(10) 0.83291(10)
H17 H 0.23750 0.11820 0.85780
C32 C 0.05056(7) 0.27657(9) 0.68322(9)
C33 C 0.00091(7) 0.34619(9) 0.65005(9)
C34 C 0.01680(8) 0.4367(1) 0.66961(11)
H18 H 0.06300 0.45440 0.70650
C35 C -0.03402(9) 0.49898(11) 0.63565(13)
H19 H -0.02200 0.55830 0.64850
C36 C -0.10378(9) 0.47468(12) 0.58188(14)
H20 H -0.13810 0.51770 0.55760
C37 C -0.12135(8) 0.38790(11) 0.56523(12)
H21 H -0.16780 0.37190 0.53090
C38 C -0.07043(7) 0.32164(10) 0.59902(10)
C39 C -0.08893(7) 0.2317(1) 0.58804(10)
H22 H -0.13560 0.21650 0.55210
C40 C -0.04050(7) 0.16672(10) 0.62851(10)
H23 H -0.05370 0.10820 0.62470
C41 C 0.02985(7) 0.18865(9) 0.67623(9)
C42 C 0.22422(9) -0.14739(12) 1.08659(12)
H24 H 0.25550 -0.12150 1.14380
loop_
_geom_bond_atom_site_label_1
_geom_bond_atom_site_label_2
_geom_bond_distance
_geom_bond_site_symmetry_1
_geom_bond_site_symmetry_2
C1 H1 0.929 1_555 1_555
C2 C1 1.390 1_555 1_555
H2 C2 0.930 1_555 1_555
C3 C2 1.366 1_555 1_555
H3 C3 0.931 1_555 1_555
C4 C3 1.414 1_555 1_555
C5 C4 1.426 1_555 1_555
C6 C5 1.401 1_555 1_555
C7 C6 1.471 1_555 1_555
C8 C7 1.382 1_555 1_555
C9 C8 1.473 1_555 1_555
C10 C9 1.396 1_555 1_555
C11 C10 1.426 1_555 1_555
C12 C11 1.418 1_555 1_555
H4 C12 0.930 1_555 1_555
C13 C12 1.363 1_555 1_555
H5 C13 0.930 1_555 1_555
C14 C13 1.397 1_555 1_555
H6 C14 0.930 1_555 1_555
C15 H7 0.931 1_555 1_555
C16 C15 1.387 1_555 1_555
H8 C16 0.930 1_555 1_555
C17 C16 1.364 1_555 1_555
H9 C17 0.930 1_555 1_555
C18 C17 1.417 1_555 1_555
C19 C18 1.426 1_555 1_555
C20 C19 1.408 1_555 1_555
H10 C20 0.931 1_555 1_555
C21 C20 1.357 1_555 1_555
H11 C21 0.930 1_555 1_555
C22 C7 1.474 1_555 1_555
C23 C1 1.351 1_555 1_555
H12 C23 0.930 1_555 1_555
C24 C4 1.424 1_555 1_555
C25 C24 1.407 1_555 1_555
H13 C25 0.930 1_555 1_555
C26 C6 1.408 1_555 1_555
H14 C26 0.930 1_555 1_555
C27 C5 1.477 1_555 1_555
C28 C11 1.429 1_555 1_555
C29 C14 1.355 1_555 1_555
H15 C29 0.930 1_555 1_555
C30 C28 1.410 1_555 1_555
H16 C30 0.929 1_555 1_555
C31 C9 1.407 1_555 1_555
H17 C31 0.931 1_555 1_555
C32 C10 1.476 1_555 1_555
C33 C32 1.429 1_555 1_555
C34 C33 1.410 1_555 1_555
H18 C34 0.930 1_555 1_555
C35 C34 1.366 1_555 1_555
H19 C35 0.930 1_555 1_555
C36 C35 1.395 1_555 1_555
H20 C36 0.930 1_555 1_555
C37 C36 1.358 1_555 1_555
H21 C37 0.929 1_555 1_555
C38 C33 1.429 1_555 1_555
C39 C38 1.410 1_555 1_555
H22 C39 0.929 1_555 1_555
C40 C39 1.357 1_555 1_555
H23 C40 0.930 1_555 1_555
C41 C8 1.467 1_555 1_555
C42 C15 1.360 1_555 1_555
H24 C42 0.931 1_555 1_555
C18 C27 1.425 1_555 1_555
C19 C42 1.414 1_555 1_555
C21 C22 1.410 1_555 1_555
C22 C27 1.396 1_555 1_555
C23 C24 1.414 1_555 1_555
C25 C26 1.364 1_555 1_555
C28 C29 1.420 1_555 1_555
C30 C31 1.361 1_555 1_555
C32 C41 1.401 1_555 1_555
C37 C38 1.410 1_555 1_555
C40 C41 1.405 1_555 1_555
#END
