
#######################################################################
#
#                 Cambridge Crystallographic Data Centre
#                                CCDC
#
#######################################################################
#
# If this CIF has been generated from an entry in the Cambridge
# Structural Database, then it will include bibliographic, chemical,
# crystal, experimental, refinement or atomic coordinate data resulting
# from the CCDC's data processing and validation procedures.
#
#######################################################################

data_CSD_CIF_QIXVEZ
_audit_creation_date 2008-09-17
_audit_creation_method CSD-ConQuest-V1
_database_code_CSD QIXVEZ
_database_code_depnum_ccdc_archive 'CCDC 655193'
_chemical_formula_sum 'C62 H52'
_chemical_formula_moiety
;
C62 H52
;
_journal_coden_Cambridge 1145
_journal_volume 17
_journal_year 2007
_journal_page_first 4670
_journal_name_full 'J.Mater.Chem. '
loop_
_publ_author_name
"Soo-Kang Kim"
"Young-Il Park"
"In-Nam Kang"
"Jong-Wook Park"
_chemical_name_systematic
;
1,2-bis(4'-t-butylphenyl)-1,2-bis(4'-(anthracene-9-yl)phenyl)ethene
;
_cell_volume   4561.354
_exptl_crystal_colour 'colorless'
_exptl_crystal_density_diffrn 1.161
_exptl_special_details
;
luminescent

;
_exptl_crystal_description 'block'
_diffrn_ambient_temperature 293
#These two values have been output from a single CSD field.
_refine_ls_R_factor_gt 0.1204
_refine_ls_wR_factor_gt 0.1204
_symmetry_cell_setting orthorhombic
_symmetry_space_group_name_H-M 'P b c a'
_symmetry_Int_Tables_number 61
loop_
_symmetry_equiv_pos_site_id
_symmetry_equiv_pos_as_xyz
1 x,y,z
2 1/2-x,-y,1/2+z
3 -x,1/2+y,1/2-z
4 1/2+x,1/2-y,-z
5 -x,-y,-z
6 -1/2+x,y,-1/2-z
7 x,-1/2-y,-1/2+z
8 -1/2-x,-1/2+y,z
_cell_length_a 20.268(3)
_cell_length_b 10.0519(13)
_cell_length_c 22.389(3)
_cell_angle_alpha 90
_cell_angle_beta 90
_cell_angle_gamma 90
_cell_formula_units_Z 4
loop_
_atom_type_symbol
_atom_type_radius_bond
C 0.68
H 0.23
loop_
_atom_site_label
_atom_site_type_symbol
_atom_site_fract_x
_atom_site_fract_y
_atom_site_fract_z
C1 C -0.0894(3) 0.2585(7) 0.2492(3)
H1 H -0.10520 0.17700 0.23570
C2 C -0.0510(4) 0.3312(8) 0.2139(3)
H2 H -0.04050 0.29940 0.17600
C3 C -0.0260(4) 0.4543(7) 0.2321(3)
H3 H -0.00020 0.50410 0.20610
C4 C -0.0394(3) 0.5014(6) 0.2876(3)
H4 H -0.02120 0.58210 0.29960
C5 C -0.0803(3) 0.4303(6) 0.3276(3)
C6 C -0.0963(3) 0.4773(5) 0.3852(3)
C7 C -0.1394(3) 0.4040(6) 0.4221(3)
C8 C -0.1583(3) 0.4510(7) 0.4798(3)
H5 H -0.14110 0.53030 0.49440
C9 C -0.2018(4) 0.3792(8) 0.5134(3)
H6 H -0.21550 0.41270 0.55000
C10 C -0.2261(4) 0.2562(8) 0.4939(4)
H7 H -0.25460 0.20770 0.51810
C11 C -0.2085(4) 0.2081(7) 0.4404(4)
H8 H -0.22470 0.12600 0.42810
C12 C -0.1656(3) 0.2802(6) 0.4023(3)
C13 C -0.1479(3) 0.2318(7) 0.3463(3)
H9 H -0.16390 0.14950 0.33390
C14 C -0.1068(3) 0.3042(6) 0.3084(3)
C15 C -0.0685(3) 0.6057(5) 0.4063(3)
C16 C -0.1051(3) 0.7221(6) 0.4037(3)
H10 H -0.14720 0.72030 0.38720
C17 C -0.0800(3) 0.8407(6) 0.4253(3)
H11 H -0.10570 0.91720 0.42310
C18 C -0.0172(3) 0.8481(5) 0.4501(3)
C19 C 0.0197(3) 0.7319(5) 0.4517(3)
H12 H 0.06220 0.73380 0.46720
C20 C -0.0061(3) 0.6120(6) 0.4305(3)
H13 H 0.01940 0.53510 0.43270
C21 C 0.0081(3) 0.9777(5) 0.4728(2)
C22 C 0.0509(3) 1.0546(5) 0.4318(2)
C23 C 0.0300(3) 1.1708(6) 0.4053(3)
H14 H -0.01200 1.20230 0.41410
C24 C 0.0691(3) 1.2427(6) 0.3658(3)
H15 H 0.05240 1.32020 0.34890
C25 C 0.1323(3) 1.2019(6) 0.3511(3)
C26 C 0.1528(3) 1.0846(6) 0.3772(3)
H16 H 0.19470 1.05270 0.36820
C27 C 0.1136(3) 1.0122(6) 0.4163(3)
H17 H 0.12980 0.93340 0.43250
C28 C 0.1765(3) 1.2775(7) 0.3077(3)
C29 C 0.2453(4) 1.2856(10) 0.3305(4)
H18 H 0.27020 1.34610 0.30620
H19 H 0.26520 1.19910 0.32910
H20 H 0.24480 1.31700 0.37100
C30 C 0.1534(6) 1.4136(13) 0.2983(8)
H21 H 0.13210 1.44520 0.33390
H22 H 0.12260 1.41510 0.26570
H23 H 0.19030 1.46990 0.28910
C31 C 0.1826(8) 1.1996(15) 0.2509(4)
H24 H 0.14090 1.19920 0.23050
H25 H 0.19540 1.10990 0.25990
H26 H 0.21540 1.23990 0.22580
C1D C 0.0894(3) 1.7415(7) 0.7508(3)
H1D H 0.10520 1.82300 0.76430
C2D C 0.0510(4) 1.6688(8) 0.7861(3)
H2D H 0.04050 1.70060 0.82400
C3D C 0.0260(4) 1.5457(7) 0.7679(3)
H3D H 0.00020 1.49590 0.79390
C4D C 0.0394(3) 1.4986(6) 0.7124(3)
H4D H 0.02120 1.41790 0.70040
C5D C 0.0803(3) 1.5697(6) 0.6724(3)
C6D C 0.0963(3) 1.5227(5) 0.6148(3)
C7D C 0.1394(3) 1.5960(6) 0.5779(3)
C8D C 0.1583(3) 1.5490(7) 0.5202(3)
H5D H 0.14110 1.46970 0.50560
C9D C 0.2018(4) 1.6208(8) 0.4866(3)
H6D H 0.21550 1.58730 0.45000
C10D C 0.2261(4) 1.7438(8) 0.5061(4)
H7D H 0.25460 1.79230 0.48190
C11D C 0.2085(4) 1.7919(7) 0.5596(4)
H8D H 0.22470 1.87400 0.57190
C12D C 0.1656(3) 1.7198(6) 0.5977(3)
C13D C 0.1479(3) 1.7682(7) 0.6537(3)
H9D H 0.16390 1.85050 0.66610
C14D C 0.1068(3) 1.6958(6) 0.6916(3)
C15D C 0.0685(3) 1.3943(5) 0.5937(3)
C16D C 0.1051(3) 1.2779(6) 0.5963(3)
H10D H 0.14720 1.27970 0.61280
C17D C 0.0800(3) 1.1593(6) 0.5747(3)
H11D H 0.10570 1.08280 0.57690
C18D C 0.0172(3) 1.1519(5) 0.5499(3)
C19D C -0.0197(3) 1.2681(5) 0.5483(3)
H12D H -0.06220 1.26620 0.53280
C20D C 0.0061(3) 1.3880(6) 0.5695(3)
H13D H -0.01940 1.46490 0.56730
C21D C -0.0081(3) 1.0223(5) 0.5272(2)
C22D C -0.0509(3) 0.9454(5) 0.5682(2)
C23D C -0.0300(3) 0.8292(6) 0.5947(3)
H14D H 0.01200 0.79770 0.58590
C24D C -0.0691(3) 0.7573(6) 0.6342(3)
H15D H -0.05240 0.67980 0.65110
C25D C -0.1323(3) 0.7981(6) 0.6489(3)
C26D C -0.1528(3) 0.9154(6) 0.6228(3)
H16D H -0.19470 0.94730 0.63180
C27D C -0.1136(3) 0.9878(6) 0.5837(3)
H17D H -0.12980 1.06660 0.56750
C28D C -0.1765(3) 0.7225(7) 0.6923(3)
C29D C -0.2453(4) 0.7144(10) 0.6695(4)
H18D H -0.27020 0.65390 0.69380
H19D H -0.26520 0.80090 0.67090
H20D H -0.24480 0.68300 0.62900
C30D C -0.1534(6) 0.5864(13) 0.7017(8)
H21D H -0.13210 0.55480 0.66610
H22D H -0.12260 0.58490 0.73430
H23D H -0.19030 0.53010 0.71090
C31D C -0.1826(8) 0.8004(15) 0.7491(4)
H24D H -0.14090 0.80080 0.76950
H25D H -0.19540 0.89010 0.74010
H26D H -0.21540 0.76010 0.77420
loop_
_geom_bond_atom_site_label_1
_geom_bond_atom_site_label_2
_geom_bond_distance
_geom_bond_site_symmetry_1
_geom_bond_site_symmetry_2
C1 H1 0.930 1_555 1_555
C2 C1 1.328 1_555 1_555
H2 C2 0.931 1_555 1_555
C3 C2 1.398 1_555 1_555
H3 C3 0.929 1_555 1_555
C4 C3 1.357 1_555 1_555
H4 C4 0.931 1_555 1_555
C5 C4 1.414 1_555 1_555
C6 C5 1.411 1_555 1_555
C7 C6 1.410 1_555 1_555
C8 C7 1.428 1_555 1_555
H5 C8 0.929 1_555 1_555
C9 C8 1.365 1_555 1_555
H6 C9 0.928 1_555 1_555
C10 C9 1.401 1_555 1_555
H7 C10 0.930 1_555 1_555
C11 C10 1.340 1_555 1_555
H8 C11 0.930 1_555 1_555
C12 C7 1.424 1_555 1_555
C13 C12 1.392 1_555 1_555
H9 C13 0.931 1_555 1_555
C14 C1 1.446 1_555 1_555
C15 C6 1.485 1_555 1_555
C16 C15 1.387 1_555 1_555
H10 C16 0.930 1_555 1_555
C17 C16 1.383 1_555 1_555
H11 C17 0.930 1_555 1_555
C18 C17 1.391 1_555 1_555
C19 C18 1.387 1_555 1_555
H12 C19 0.929 1_555 1_555
C20 C15 1.377 1_555 1_555
H13 C20 0.931 1_555 1_555
C21 C18 1.489 1_555 1_555
C22 C21 1.481 1_555 1_555
C23 C22 1.377 1_555 1_555
H14 C23 0.929 1_555 1_555
C24 C23 1.390 1_555 1_555
H15 C24 0.930 1_555 1_555
C25 C24 1.385 1_555 1_555
C26 C25 1.380 1_555 1_555
H16 C26 0.930 1_555 1_555
C27 C22 1.385 1_555 1_555
H17 C27 0.931 1_555 1_555
C28 C25 1.525 1_555 1_555
C29 C28 1.487 1_555 1_555
H18 C29 0.959 1_555 1_555
H19 C29 0.959 1_555 1_555
H20 C29 0.960 1_555 1_555
C30 C28 1.461 1_555 1_555
H21 C30 0.960 1_555 1_555
H22 C30 0.961 1_555 1_555
H23 C30 0.960 1_555 1_555
C31 C28 1.499 1_555 1_555
H24 C31 0.961 1_555 1_555
H25 C31 0.960 1_555 1_555
H26 C31 0.960 1_555 1_555
C1D H1D 0.930 1_555 1_555
C2D C1D 1.328 1_555 1_555
H2D C2D 0.931 1_555 1_555
C3D C2D 1.398 1_555 1_555
H3D C3D 0.929 1_555 1_555
C4D C3D 1.357 1_555 1_555
H4D C4D 0.931 1_555 1_555
C5D C4D 1.414 1_555 1_555
C6D C5D 1.411 1_555 1_555
C7D C6D 1.410 1_555 1_555
C8D C7D 1.428 1_555 1_555
H5D C8D 0.929 1_555 1_555
C9D C8D 1.365 1_555 1_555
H6D C9D 0.928 1_555 1_555
C10D C9D 1.401 1_555 1_555
H7D C10D 0.930 1_555 1_555
C11D C10D 1.340 1_555 1_555
H8D C11D 0.930 1_555 1_555
C12D C7D 1.424 1_555 1_555
C13D C12D 1.392 1_555 1_555
H9D C13D 0.931 1_555 1_555
C14D C1D 1.446 1_555 1_555
C15D C6D 1.485 1_555 1_555
C16D C15D 1.387 1_555 1_555
H10D C16D 0.930 1_555 1_555
C17D C16D 1.383 1_555 1_555
H11D C17D 0.930 1_555 1_555
C18D C17D 1.391 1_555 1_555
C19D C18D 1.387 1_555 1_555
H12D C19D 0.929 1_555 1_555
C20D C15D 1.377 1_555 1_555
H13D C20D 0.931 1_555 1_555
C21D C21 1.339 1_555 1_555
C22D C21D 1.481 1_555 1_555
C23D C22D 1.377 1_555 1_555
H14D C23D 0.929 1_555 1_555
C24D C23D 1.390 1_555 1_555
H15D C24D 0.930 1_555 1_555
C25D C24D 1.385 1_555 1_555
C26D C25D 1.380 1_555 1_555
H16D C26D 0.930 1_555 1_555
C27D C22D 1.385 1_555 1_555
H17D C27D 0.931 1_555 1_555
C28D C25D 1.525 1_555 1_555
C29D C28D 1.487 1_555 1_555
H18D C29D 0.959 1_555 1_555
H19D C29D 0.959 1_555 1_555
H20D C29D 0.960 1_555 1_555
C30D C28D 1.461 1_555 1_555
H21D C30D 0.960 1_555 1_555
H22D C30D 0.961 1_555 1_555
H23D C30D 0.960 1_555 1_555
C31D C28D 1.499 1_555 1_555
H24D C31D 0.961 1_555 1_555
H25D C31D 0.960 1_555 1_555
H26D C31D 0.960 1_555 1_555
C5 C14 1.442 1_555 1_555
C11 C12 1.417 1_555 1_555
C13 C14 1.394 1_555 1_555
C19 C20 1.397 1_555 1_555
C26 C27 1.388 1_555 1_555
C5D C14D 1.442 1_555 1_555
C11D C12D 1.417 1_555 1_555
C13D C14D 1.394 1_555 1_555
C18D C21D 1.489 1_555 1_555
C19D C20D 1.397 1_555 1_555
C26D C27D 1.388 1_555 1_555
#END
