
#######################################################################
#
#                 Cambridge Crystallographic Data Centre
#                                CCDC
#
#######################################################################
#
# If this CIF has been generated from an entry in the Cambridge
# Structural Database, then it will include bibliographic, chemical,
# crystal, experimental, refinement or atomic coordinate data resulting
# from the CCDC's data processing and validation procedures.
#
#######################################################################

data_CSD_CIF_QODDIX
_audit_creation_date 2008-09-17
_audit_creation_method CSD-ConQuest-V1
_database_code_CSD QODDIX
_database_code_depnum_ccdc_archive 'CCDC 675773'
_chemical_formula_sum 'C18 H18'
_chemical_formula_moiety
;
C18 H18
;
_journal_coden_Cambridge 316
_journal_volume 345
_journal_year 2008
_journal_page_first 116
_journal_name_full 'Chem.Phys. '
loop_
_publ_author_name
"A.L.Rheingold"
"A.G.DiPasquale"
"P.A.Beckmann"
_chemical_name_systematic
;
2-t-Butylanthracene
;
_cell_volume   3959.873
_exptl_crystal_colour 'colorless'
_exptl_crystal_density_diffrn 1.179
_exptl_crystal_description 'plate'
_exptl_crystal_preparation 'toluene/ethanol/heptane'
_diffrn_ambient_temperature 100
#These two values have been output from a single CSD field.
_refine_ls_R_factor_gt 0.0797
_refine_ls_wR_factor_gt 0.0797
_symmetry_cell_setting monoclinic
_symmetry_space_group_name_H-M 'P 21/c'
_symmetry_Int_Tables_number 14
loop_
_symmetry_equiv_pos_site_id
_symmetry_equiv_pos_as_xyz
1 x,y,z
2 -x,1/2+y,1/2-z
3 -x,-y,-z
4 x,-1/2-y,-1/2+z
_cell_length_a 30.1630(15)
_cell_length_b 5.9411(3)
_cell_length_c 22.1184(10)
_cell_angle_alpha 90
_cell_angle_beta 92.501(3)
_cell_angle_gamma 90
_cell_formula_units_Z 12
loop_
_atom_type_symbol
_atom_type_radius_bond
C 0.68
H 0.23
loop_
_atom_site_label
_atom_site_type_symbol
_atom_site_fract_x
_atom_site_fract_y
_atom_site_fract_z
C1 C 0.55551(11) -0.6000(6) 0.63542(14)
C2 C 0.87234(11) -0.0700(5) 0.51871(13)
C3 C 0.87547(11) -0.5629(5) 0.30520(13)
C4 C 0.55740(11) -0.3922(6) 0.66867(14)
H1 H 0.53060 -0.32520 0.68070
C5 C 0.87001(11) 0.1367(5) 0.48529(13)
H2 H 0.89680 0.21120 0.47630
C6 C 0.87326(11) -0.3547(5) 0.33823(13)
H3 H 0.90000 -0.27730 0.34910
C7 C 0.59653(12) -0.2894(6) 0.68333(14)
H4 H 0.59640 -0.14960 0.70420
C8 C 0.83064(11) 0.2297(5) 0.46607(13)
H5 H 0.83050 0.36830 0.44460
C9 C 0.83382(11) -0.2656(5) 0.35425(13)
H6 H 0.83360 -0.12790 0.37610
C10 C 0.63774(11) -0.3859(5) 0.66828(13)
C11 C 0.78951(11) 0.1224(5) 0.47764(13)
C12 C 0.79300(11) -0.3756(5) 0.33880(13)
C13 C 0.67847(11) -0.2851(5) 0.68300(13)
H7 H 0.67900 -0.14250 0.70250
C14 C 0.74822(11) 0.2166(5) 0.46086(13)
H8 H 0.74710 0.35830 0.44090
C15 C 0.75186(11) -0.2854(5) 0.35183(13)
H9 H 0.75070 -0.14420 0.37190
C16 C 0.71835(11) -0.3879(5) 0.66994(13)
C17 C 0.70865(11) 0.1056(5) 0.47296(13)
C18 C 0.71229(11) -0.3979(5) 0.33611(12)
C19 C 0.76051(11) -0.2891(6) 0.68569(13)
H10 H 0.76160 -0.14660 0.70520
C20 C 0.66638(11) 0.2017(6) 0.45728(13)
H11 H 0.66480 0.34430 0.43790
C21 C 0.66972(11) -0.3053(6) 0.34755(13)
H12 H 0.66790 -0.16300 0.36690
C22 C 0.79901(11) -0.3950(6) 0.67335(14)
H13 H 0.82670 -0.32680 0.68450
C23 C 0.62818(12) 0.0917(6) 0.46978(14)
H14 H 0.60030 0.15720 0.45860
C24 C 0.63194(11) -0.4177(6) 0.33119(14)
H15 H 0.60400 -0.35310 0.33900
C25 C 0.79801(11) -0.6088(6) 0.64365(14)
H16 H 0.82500 -0.68140 0.63480
C26 C 0.62988(12) -0.1216(6) 0.49963(14)
H17 H 0.60310 -0.19700 0.50840
C27 C 0.63379(11) -0.6306(6) 0.30255(14)
H18 H 0.60710 -0.70770 0.29160
C28 C 0.75856(11) -0.7092(5) 0.62794(13)
H19 H 0.75850 -0.85130 0.60820
C29 C 0.66963(11) -0.2173(6) 0.51560(13)
H20 H 0.67030 -0.35890 0.53560
C30 C 0.67363(11) -0.7257(6) 0.29060(13)
H21 H 0.67440 -0.86850 0.27130
C31 C 0.71731(11) -0.6049(5) 0.64052(13)
C32 C 0.71022(11) -0.1088(5) 0.50288(13)
C33 C 0.71425(11) -0.6121(5) 0.30687(13)
C34 C 0.67655(11) -0.7026(5) 0.62516(13)
H22 H 0.67590 -0.84450 0.60530
C35 C 0.75159(11) -0.2002(5) 0.51992(12)
H23 H 0.75280 -0.34180 0.53990
C36 C 0.7553(1) -0.7023(5) 0.29382(13)
H24 H 0.75650 -0.84490 0.27450
C37 C 0.63653(11) -0.5998(5) 0.63786(13)
C38 C 0.79108(11) -0.0892(5) 0.50847(12)
C39 C 0.79475(11) -0.5879(5) 0.30844(13)
C40 C 0.59468(11) -0.6982(5) 0.62175(13)
H25 H 0.59400 -0.83760 0.60070
C41 C 0.83335(11) -0.1785(5) 0.52845(12)
H26 H 0.83430 -0.31850 0.54920
C42 C 0.83685(10) -0.6747(5) 0.29231(13)
H27 H 0.83790 -0.81520 0.27190
C43 C 0.51022(11) -0.7050(6) 0.61991(14)
C44 C 0.91752(11) -0.1606(6) 0.54039(14)
C45 C 0.92075(11) -0.6505(6) 0.28692(14)
C46 C 0.47854(12) -0.5268(6) 0.59202(15)
H28 H 0.45030 -0.59800 0.57960
H29 H 0.49180 -0.45950 0.55660
H30 H 0.47330 -0.40950 0.62200
C47 C 0.94245(13) -0.2461(7) 0.48637(16)
H31 H 0.94550 -0.12370 0.45720
H32 H 0.92590 -0.37050 0.46700
H33 H 0.97200 -0.29890 0.50020
C48 C 0.94736(12) -0.4646(6) 0.25715(16)
H34 H 0.95390 -0.34460 0.28660
H35 H 0.93000 -0.40290 0.22250
H36 H 0.97520 -0.52720 0.24330
C49 C 0.49126(12) -0.7957(6) 0.67815(15)
H37 H 0.51200 -0.90480 0.69690
H38 H 0.46270 -0.86950 0.66860
H39 H 0.48690 -0.67100 0.70630
C50 C 0.91370(11) -0.3538(6) 0.58568(14)
H40 H 0.94340 -0.40640 0.59840
H41 H 0.89690 -0.47780 0.56650
H42 H 0.89830 -0.30060 0.62110
C51 C 0.91579(11) -0.8451(6) 0.24174(14)
H43 H 0.94520 -0.89400 0.23000
H44 H 0.89840 -0.79490 0.20580
H45 H 0.90060 -0.97100 0.26060
C52 C 0.51344(12) -0.8960(6) 0.57422(15)
H46 H 0.53170 -1.01760 0.59200
H47 H 0.52710 -0.83990 0.53770
H48 H 0.48370 -0.95340 0.56360
C53 C 0.94509(12) 0.0261(6) 0.57231(17)
H49 H 0.94920 0.15080 0.54410
H50 H 0.97410 -0.03420 0.58570
H51 H 0.92950 0.08050 0.60740
C54 C 0.94691(12) -0.7333(7) 0.34366(15)
H52 H 0.95100 -0.60850 0.37230
H53 H 0.97590 -0.78940 0.33230
H54 H 0.93050 -0.85480 0.36260
loop_
_geom_bond_atom_site_label_1
_geom_bond_atom_site_label_2
_geom_bond_distance
_geom_bond_site_symmetry_1
_geom_bond_site_symmetry_2
C1 C4 1.437 1_555 1_555
C2 C5 1.433 1_555 1_555
C3 C6 1.440 1_555 1_555
C4 H1 0.949 1_555 1_555
C5 H2 0.950 1_555 1_555
C6 H3 0.950 1_555 1_555
C7 C4 1.356 1_555 1_555
H4 C7 0.950 1_555 1_555
C8 C5 1.361 1_555 1_555
H5 C8 0.950 1_555 1_555
C9 C6 1.363 1_555 1_555
H6 C9 0.950 1_555 1_555
C10 C7 1.422 1_555 1_555
C11 C8 1.428 1_555 1_555
C12 C9 1.422 1_555 1_555
C13 C10 1.392 1_555 1_555
H7 C13 0.950 1_555 1_555
C14 C11 1.401 1_555 1_555
H8 C14 0.951 1_555 1_555
C15 C12 1.393 1_555 1_555
H9 C15 0.950 1_555 1_555
C16 C13 1.391 1_555 1_555
C17 C14 1.400 1_555 1_555
C18 C15 1.399 1_555 1_555
C19 C16 1.430 1_555 1_555
H10 C19 0.950 1_555 1_555
C20 C17 1.426 1_555 1_555
H11 C20 0.950 1_555 1_555
C21 C18 1.430 1_555 1_555
H12 C21 0.950 1_555 1_555
C22 C19 1.359 1_555 1_555
H13 C22 0.951 1_555 1_555
C23 C20 1.363 1_555 1_555
H14 C23 0.950 1_555 1_555
C24 C21 1.356 1_555 1_555
H15 C24 0.949 1_555 1_555
C25 C22 1.430 1_555 1_555
H16 C25 0.949 1_555 1_555
C26 C23 1.429 1_555 1_555
H17 C26 0.951 1_555 1_555
C27 C24 1.417 1_555 1_555
H18 C27 0.948 1_555 1_555
C28 C25 1.362 1_555 1_555
H19 C28 0.950 1_555 1_555
C29 C26 1.360 1_555 1_555
H20 C29 0.950 1_555 1_555
C30 C27 1.364 1_555 1_555
H21 C30 0.950 1_555 1_555
C31 C16 1.444 1_555 1_555
C32 C17 1.435 1_555 1_555
C33 C18 1.430 1_555 1_555
C34 C31 1.388 1_555 1_555
H22 C34 0.950 1_555 1_555
C35 C32 1.397 1_555 1_555
H23 C35 0.950 1_555 1_555
C36 C33 1.391 1_555 1_555
H24 C36 0.950 1_555 1_555
C37 C10 1.438 1_555 1_555
C38 C11 1.430 1_555 1_555
C39 C12 1.431 1_555 1_555
C40 C1 1.363 1_555 1_555
H25 C40 0.950 1_555 1_555
C41 C2 1.366 1_555 1_555
H26 C41 0.950 1_555 1_555
C42 C3 1.360 1_555 1_555
H27 C42 0.950 1_555 1_555
C43 C1 1.527 1_555 1_555
C44 C2 1.523 1_555 1_555
C45 C3 1.532 1_555 1_555
C46 C43 1.537 1_555 1_555
H28 C46 0.980 1_555 1_555
H29 C46 0.980 1_555 1_555
H30 C46 0.980 1_555 1_555
C47 C44 1.526 1_555 1_555
H31 C47 0.979 1_555 1_555
H32 C47 0.980 1_555 1_555
H33 C47 0.981 1_555 1_555
C48 C45 1.531 1_555 1_555
H34 C48 0.980 1_555 1_555
H35 C48 0.980 1_555 1_555
H36 C48 0.980 1_555 1_555
C49 C43 1.530 1_555 1_555
H37 C49 0.980 1_555 1_555
H38 C49 0.981 1_555 1_555
H39 C49 0.980 1_555 1_555
C50 C44 1.531 1_555 1_555
H40 C50 0.978 1_555 1_555
H41 C50 0.980 1_555 1_555
H42 C50 0.980 1_555 1_555
C51 C45 1.531 1_555 1_555
H43 C51 0.979 1_555 1_555
H44 C51 0.980 1_555 1_555
H45 C51 0.980 1_555 1_555
C52 C43 1.525 1_555 1_555
H46 C52 0.980 1_555 1_555
H47 C52 0.981 1_555 1_555
H48 C52 0.979 1_555 1_555
C53 C44 1.539 1_555 1_555
H49 C53 0.980 1_555 1_555
H50 C53 0.979 1_555 1_555
H51 C53 0.980 1_555 1_555
C54 C45 1.534 1_555 1_555
H52 C54 0.980 1_555 1_555
H53 C54 0.979 1_555 1_555
H54 C54 0.980 1_555 1_555
C28 C31 1.428 1_555 1_555
C29 C32 1.423 1_555 1_555
C30 C33 1.431 1_555 1_555
C34 C37 1.392 1_555 1_555
C35 C38 1.394 1_555 1_555
C36 C39 1.396 1_555 1_555
C37 C40 1.422 1_555 1_555
C38 C41 1.433 1_555 1_555
C39 C42 1.430 1_555 1_555
#END
