
#######################################################################
#
#                 Cambridge Crystallographic Data Centre
#                                CCDC
#
#######################################################################
#
# If this CIF has been generated from an entry in the Cambridge
# Structural Database, then it will include bibliographic, chemical,
# crystal, experimental, refinement or atomic coordinate data resulting
# from the CCDC's data processing and validation procedures.
#
#######################################################################

data_CSD_CIF_QOKKOS
_audit_creation_date 2014-08-14
_audit_creation_method CSD-ConQuest-V1
_database_code_CSD QOKKOS
_database_code_depnum_ccdc_archive 'CCDC 994030'
_chemical_formula_sum 'C18 H10'
_chemical_formula_moiety
;
C18 H10
;
_journal_coden_Cambridge 177
_journal_volume 12
_journal_year 2014
_journal_page_first 7355
_journal_name_full 'Org.Biomol.Chem. '
loop_
_publ_author_name
"J.-H.Lamm"
"J.Glatthor"
"Jan-Henrik Weddeling"
"A.Mix"
"J.Chmiel"
"B.Neumann"
"H.-G.Stammler"
"N.W.Mitzel"
_chemical_name_systematic
;
1,5-diethynylanthracene
;
_cell_volume   1180.308
_exptl_crystal_colour 'light yellow'
_exptl_crystal_density_diffrn 1.273
_exptl_crystal_description 'irregular'
_diffrn_ambient_temperature 100.0
#These two values have been output from a single CSD field.
_refine_ls_R_factor_gt 0.0428
_refine_ls_wR_factor_gt 0.0428
_symmetry_cell_setting monoclinic
_symmetry_space_group_name_H-M 'P 21/c'
_symmetry_Int_Tables_number 14
loop_
_symmetry_equiv_pos_site_id
_symmetry_equiv_pos_as_xyz
1 x,y,z
2 -x,1/2+y,1/2-z
3 -x,-y,-z
4 x,-1/2-y,-1/2+z
_cell_length_a 10.93715(19)
_cell_length_b 11.26203(16)
_cell_length_c 9.96535(16)
_cell_angle_alpha 90
_cell_angle_beta 105.9353(17)
_cell_angle_gamma 90
_cell_formula_units_Z 4
loop_
_atom_type_symbol
_atom_type_radius_bond
C 0.68
H 0.23
loop_
_atom_site_label
_atom_site_type_symbol
_atom_site_fract_x
_atom_site_fract_y
_atom_site_fract_z
C1 C 0.87558(8) 0.57215(8) 0.63338(9)
C2 C 0.74358(8) 0.58198(7) 0.63231(8)
C3 C 0.69223(8) 0.51745(8) 0.72347(9)
H1 H 0.74500 0.46410 0.78800
C4 C 0.56441(8) 0.52995(7) 0.72147(9)
C5 C 0.51261(9) 0.46433(8) 0.81567(9)
H2 H 0.56510 0.41050 0.87960
C6 C 0.38821(9) 0.47826(9) 0.81479(9)
H3 H 0.35500 0.43410 0.87810
C7 C 0.30845(8) 0.55805(8) 0.72024(9)
H4 H 0.22220 0.56660 0.72090
C8 C 0.35368(8) 0.62356(8) 0.62730(9)
C9 C 0.48438(8) 0.61100(7) 0.62496(8)
C10 C 0.53541(8) 0.67387(8) 0.53170(9)
H5 H 0.48250 0.72650 0.46650
C11 C 0.66299(8) 0.66049(7) 0.53289(9)
C12 C 0.71438(8) 0.72255(8) 0.43572(9)
H6 H 0.66140 0.77430 0.36940
C13 C 0.83889(9) 0.70836(8) 0.43696(9)
H7 H 0.87100 0.74900 0.37030
C14 C 0.92041(8) 0.63341(8) 0.53692(9)
H8 H 1.00700 0.62530 0.53740
C15 C 0.95990(8) 0.49980(8) 0.73718(10)
C16 C 1.02993(9) 0.44149(10) 0.82583(11)
H9 H 1.08560 0.39510 0.89630
C17 C 0.26982(8) 0.70396(8) 0.53381(10)
C18 C 0.19763(9) 0.77071(10) 0.45879(12)
H10 H 0.14010 0.82390 0.39910
loop_
_geom_bond_atom_site_label_1
_geom_bond_atom_site_label_2
_geom_bond_distance
_geom_bond_site_symmetry_1
_geom_bond_site_symmetry_2
C1 C2 1.445 1_555 1_555
C2 C3 1.396 1_555 1_555
C3 H1 0.951 1_555 1_555
C4 C3 1.400 1_555 1_555
C5 C4 1.428 1_555 1_555
H2 C5 0.950 1_555 1_555
C6 C5 1.367 1_555 1_555
H3 C6 0.950 1_555 1_555
C7 C6 1.416 1_555 1_555
H4 C7 0.950 1_555 1_555
C8 C7 1.378 1_555 1_555
C9 C4 1.436 1_555 1_555
C10 C9 1.400 1_555 1_555
H5 C10 0.950 1_555 1_555
C11 C2 1.436 1_555 1_555
C12 C11 1.429 1_555 1_555
H6 C12 0.950 1_555 1_555
C13 C12 1.368 1_555 1_555
H7 C13 0.950 1_555 1_555
C14 C1 1.378 1_555 1_555
H8 C14 0.950 1_555 1_555
C15 C1 1.435 1_555 1_555
C16 C15 1.194 1_555 1_555
H9 C16 0.950 1_555 1_555
C17 C8 1.435 1_555 1_555
C18 C17 1.193 1_555 1_555
H10 C18 0.950 1_555 1_555
C8 C9 1.443 1_555 1_555
C10 C11 1.400 1_555 1_555
C13 C14 1.418 1_555 1_555
#END
