
#######################################################################
#
#                 Cambridge Crystallographic Data Centre
#                                CCDC
#
#######################################################################
#
# If this CIF has been generated from an entry in the Cambridge
# Structural Database, then it will include bibliographic, chemical,
# crystal, experimental, refinement or atomic coordinate data resulting
# from the CCDC's data processing and validation procedures.
#
#######################################################################

data_CSD_CIF_QOLTUI
_audit_creation_date 2014-08-15
_audit_creation_method CSD-ConQuest-V1
_database_code_CSD QOLTUI
_database_code_depnum_ccdc_archive 'CCDC 1019528'
_chemical_formula_sum 'C34 H24'
_chemical_formula_moiety
;
C34 H24
;
_journal_coden_Cambridge 1096
_journal_volume 26
_journal_year 2014
_journal_page_first 4433
_journal_name_full 'Chem.Mater. '
loop_
_publ_author_name
"Guo-Feng Zhang"
"Hongfeng Wang"
"M.P.Aldred"
"Tao Chen"
"Ze-Qiang Chen"
"Xianggao Meng"
"Ming-Qiang Zhu"
_chemical_name_systematic
;
1,1'-(2,2-Diphenylethene-1,1-diyl)dinaphthalene
;
_cell_volume   2409.339
_exptl_crystal_colour 'colorless'
_exptl_crystal_density_diffrn 1.192
_exptl_crystal_description 'block'
_diffrn_ambient_temperature 296
#These two values have been output from a single CSD field.
_refine_ls_R_factor_gt 0.0582
_refine_ls_wR_factor_gt 0.0582
_symmetry_cell_setting monoclinic
_symmetry_space_group_name_H-M 'P 21/c'
_symmetry_Int_Tables_number 14
loop_
_symmetry_equiv_pos_site_id
_symmetry_equiv_pos_as_xyz
1 x,y,z
2 -x,1/2+y,1/2-z
3 -x,-y,-z
4 x,-1/2-y,-1/2+z
_cell_length_a 13.7789(17)
_cell_length_b 9.4646(12)
_cell_length_c 19.552(3)
_cell_angle_alpha 90
_cell_angle_beta 109.107(2)
_cell_angle_gamma 90
_cell_formula_units_Z 4
loop_
_atom_type_symbol
_atom_type_radius_bond
C 0.68
H 0.23
loop_
_atom_site_label
_atom_site_type_symbol
_atom_site_fract_x
_atom_site_fract_y
_atom_site_fract_z
C1 C 0.4526(3) 0.1715(3) 0.07378(15)
H1 H 0.48810 0.08920 0.07110
C2 C 0.3652(2) 0.1648(2) 0.09311(14)
H2 H 0.34200 0.07800 0.10380
C3 C 0.31168(17) 0.2869(2) 0.09661(11)
H3 H 0.25210 0.28180 0.10900
C4 C 0.22357(19) 0.8018(3) -0.10510(12)
H4 H 0.20870 0.85490 -0.14730
C5 C 0.29184(15) 0.78473(19) 0.02366(10)
H5 H 0.32330 0.82810 0.06810
C6 C 0.22117(16) 0.5809(2) -0.04595(10)
H6 H 0.20450 0.48540 -0.04910
C7 C 0.4873(2) 0.2989(3) 0.05855(15)
H7 H 0.54680 0.30340 0.04610
C8 C 0.43418(17) 0.4210(2) 0.06160(11)
H8 H 0.45740 0.50710 0.05000
C9 C 0.4060(2) 0.3232(3) 0.33768(12)
H9 H 0.43540 0.26640 0.37800
C10 C 0.46679(19) 0.3906(3) 0.30546(12)
H10 H 0.53760 0.37860 0.32340
C11 C 0.1568(3) 0.9918(3) 0.18547(15)
H11 H 0.13470 1.08170 0.19270
C12 C 0.2505(2) 0.9449(3) 0.22919(13)
H12 H 0.29120 1.00160 0.26640
C13 C 0.34670(14) 0.41692(19) 0.08172(9)
C14 C 0.2967(2) 0.3396(2) 0.30958(11)
C15 C 0.26987(18) 0.8639(2) -0.03925(12)
H13 H 0.28660 0.95940 -0.03670
C16 C 0.26784(13) 0.64244(18) 0.02155(9)
C17 C 0.19930(19) 0.6612(3) -0.10855(11)
H14 H 0.16780 0.61900 -0.15330
C18 C 0.42349(17) 0.4777(2) 0.24561(11)
H15 H 0.46670 0.52430 0.22510
C19 C 0.14575(18) 0.4372(2) 0.22054(13)
H16 H 0.11480 0.49360 0.18040
C20 C 0.09273(19) 0.9055(2) 0.12913(12)
C21 C -0.03085(19) 0.7339(3) 0.02075(15)
H17 H -0.07320 0.67720 -0.01580
C22 C 0.06415(17) 0.6851(2) 0.06103(12)
H18 H 0.08560 0.59610 0.05170
C23 C 0.29464(14) 0.55255(18) 0.08786(9)
C24 C 0.27860(14) 0.58851(19) 0.15041(9)
C25 C 0.32042(15) 0.4968(2) 0.21623(9)
C26 C 0.25487(16) 0.42721(19) 0.24813(10)
C27 C 0.2320(3) 0.2696(3) 0.34109(15)
H19 H 0.26060 0.21400 0.38200
C28 C 0.1298(3) 0.2816(3) 0.31320(17)
H20 H 0.08800 0.23420 0.33450
C29 C 0.0860(2) 0.3652(3) 0.25214(16)
H21 H 0.01490 0.37200 0.23270
C30 C 0.23039(16) 0.72484(19) 0.16177(10)
C31 C 0.13087(16) 0.7708(2) 0.11771(11)
C32 C 0.2843(2) 0.8105(2) 0.21735(12)
H22 H 0.34660 0.77810 0.24890
C33 C -0.0062(2) 0.9476(3) 0.08545(17)
H23 H -0.03090 1.03540 0.09340
C34 C -0.0652(2) 0.8654(4) 0.03310(19)
H24 H -0.12990 0.89660 0.00470
loop_
_geom_bond_atom_site_label_1
_geom_bond_atom_site_label_2
_geom_bond_distance
_geom_bond_site_symmetry_1
_geom_bond_site_symmetry_2
C1 H1 0.930 1_555 1_555
C2 C1 1.377 1_555 1_555
H2 C2 0.930 1_555 1_555
C3 C2 1.385 1_555 1_555
H3 C3 0.930 1_555 1_555
C4 H4 0.930 1_555 1_555
C5 H5 0.930 1_555 1_555
C6 H6 0.930 1_555 1_555
C7 C1 1.365 1_555 1_555
H7 C7 0.929 1_555 1_555
C8 C7 1.380 1_555 1_555
H8 C8 0.930 1_555 1_555
C9 H9 0.930 1_555 1_555
C10 C9 1.360 1_555 1_555
H10 C10 0.929 1_555 1_555
C11 H11 0.930 1_555 1_555
C12 C11 1.368 1_555 1_555
H12 C12 0.930 1_555 1_555
C13 C3 1.387 1_555 1_555
C14 C9 1.433 1_555 1_555
C15 C4 1.368 1_555 1_555
H13 C15 0.930 1_555 1_555
C16 C5 1.384 1_555 1_555
C17 C4 1.368 1_555 1_555
H14 C17 0.930 1_555 1_555
C18 C10 1.396 1_555 1_555
H15 C18 0.931 1_555 1_555
C19 H16 0.929 1_555 1_555
C20 C11 1.422 1_555 1_555
C21 H17 0.931 1_555 1_555
C22 C21 1.368 1_555 1_555
H18 C22 0.930 1_555 1_555
C23 C13 1.494 1_555 1_555
C24 C23 1.355 1_555 1_555
C25 C18 1.358 1_555 1_555
C26 C14 1.418 1_555 1_555
C27 C14 1.405 1_555 1_555
H19 C27 0.930 1_555 1_555
C28 C27 1.338 1_555 1_555
H20 C28 0.929 1_555 1_555
C29 C19 1.363 1_555 1_555
H21 C29 0.930 1_555 1_555
C30 C24 1.501 1_555 1_555
C31 C20 1.424 1_555 1_555
C32 C12 1.400 1_555 1_555
H22 C32 0.930 1_555 1_555
C33 C20 1.409 1_555 1_555
H23 C33 0.930 1_555 1_555
C34 C21 1.381 1_555 1_555
H24 C34 0.931 1_555 1_555
C5 C15 1.386 1_555 1_555
C6 C16 1.392 1_555 1_555
C6 C17 1.387 1_555 1_555
C8 C13 1.385 1_555 1_555
C16 C23 1.493 1_555 1_555
C19 C26 1.425 1_555 1_555
C22 C31 1.437 1_555 1_555
C24 C25 1.502 1_555 1_555
C25 C26 1.417 1_555 1_555
C28 C29 1.394 1_555 1_555
C30 C31 1.428 1_555 1_555
C30 C32 1.364 1_555 1_555
C33 C34 1.330 1_555 1_555
#END
