
#######################################################################
#
#                 Cambridge Crystallographic Data Centre
#                                CCDC
#
#######################################################################
#
# If this CIF has been generated from an entry in the Cambridge
# Structural Database, then it will include bibliographic, chemical,
# crystal, experimental, refinement or atomic coordinate data resulting
# from the CCDC's data processing and validation procedures.
#
#######################################################################

data_CSD_CIF_QOLVAQ01
_audit_creation_date 2014-08-15
_audit_creation_method CSD-ConQuest-V1
_database_code_CSD QOLVAQ01
_database_code_depnum_ccdc_archive 'CCDC 1019530'
_chemical_formula_sum 'C42 H28'
_chemical_formula_moiety
;
C42 H28
;
_journal_coden_Cambridge 1096
_journal_volume 26
_journal_year 2014
_journal_page_first 4433
_journal_name_full 'Chem.Mater. '
loop_
_publ_author_name
"Guo-Feng Zhang"
"Hongfeng Wang"
"M.P.Aldred"
"Tao Chen"
"Ze-Qiang Chen"
"Xianggao Meng"
"Ming-Qiang Zhu"
_chemical_name_systematic
;
9,9'-(2,2-Diphenylethene-1,1-diyl)dianthracene
;
_cell_volume   1405.595
_exptl_crystal_colour 'yellow'
_exptl_crystal_density_diffrn 1.259
_exptl_crystal_description 'block'
_diffrn_ambient_temperature 100
#These two values have been output from a single CSD field.
_refine_ls_R_factor_gt 0.046
_refine_ls_wR_factor_gt 0.046
_symmetry_cell_setting triclinic
_symmetry_space_group_name_H-M 'P -1'
_symmetry_Int_Tables_number 2
loop_
_symmetry_equiv_pos_site_id
_symmetry_equiv_pos_as_xyz
1 x,y,z
2 -x,-y,-z
_cell_length_a 9.6966(8)
_cell_length_b 11.6563(9)
_cell_length_c 13.4072(10)
_cell_angle_alpha 87.669(1)
_cell_angle_beta 70.561(1)
_cell_angle_gamma 79.684(1)
_cell_formula_units_Z 2
loop_
_atom_type_symbol
_atom_type_radius_bond
C 0.68
H 0.23
loop_
_atom_site_label
_atom_site_type_symbol
_atom_site_fract_x
_atom_site_fract_y
_atom_site_fract_z
C1 C 0.74479(9) 0.77638(7) 0.31605(7)
C2 C 0.68737(10) 0.78484(8) 0.42820(7)
C3 C 0.77315(10) 0.73997(8) 0.49448(7)
H1 H 0.87240 0.70630 0.46340
C4 C 0.71245(11) 0.74560(9) 0.60232(7)
H2 H 0.77010 0.71370 0.64320
C5 C 0.56249(11) 0.79948(9) 0.65275(7)
H3 H 0.52240 0.80250 0.72620
C6 C 0.47766(11) 0.84669(9) 0.59329(8)
H4 H 0.38030 0.88350 0.62660
C7 C 0.53622(10) 0.84045(8) 0.48012(7)
C8 C 0.44722(10) 0.88703(8) 0.42019(8)
H5 H 0.35140 0.92650 0.45420
C9 C 0.4991(1) 0.87556(8) 0.31015(8)
C10 C 0.40488(11) 0.91882(10) 0.24943(9)
H6 H 0.30970 0.95960 0.28330
C11 C 0.45285(12) 0.90105(10) 0.14261(9)
H7 H 0.39110 0.93020 0.10380
C12 C 0.59713(11) 0.83802(10) 0.09086(8)
H8 H 0.62780 0.82340 0.01840
C13 C 0.69215(10) 0.79823(9) 0.14554(7)
H9 H 0.78670 0.75790 0.10940
C14 C 0.64882(10) 0.81748(8) 0.25732(7)
C15 C 0.99549(9) 0.80764(8) 0.18518(7)
C16 C 1.00613(9) 0.91645(8) 0.22319(7)
C17 C 0.95244(10) 0.94827(9) 0.33327(7)
H10 H 0.91000 0.89550 0.38280
C18 C 0.96237(11) 1.05495(9) 0.36701(8)
H11 H 0.92700 1.07310 0.43900
C19 C 1.02563(12) 1.13809(9) 0.29394(9)
H12 H 1.02770 1.21150 0.31760
C20 C 1.08326(11) 1.10980(8) 0.18897(8)
H13 H 1.12650 1.16390 0.14130
C21 C 1.07857(10) 0.99840(8) 0.15064(7)
C22 C 1.14532(10) 0.96797(8) 0.04373(7)
H14 H 1.19110 1.02160 -0.00320
C23 C 1.14464(10) 0.85882(8) 0.00600(7)
C24 C 1.21885(11) 0.82838(9) -0.10347(7)
H15 H 1.27050 0.88090 -0.14810
C25 C 1.21528(11) 0.72403(9) -0.14338(7)
H16 H 1.26510 0.70490 -0.21450
C26 C 1.13468(11) 0.64439(9) -0.07536(7)
H17 H 1.13070 0.57350 -0.10290
C27 C 1.06287(10) 0.67016(8) 0.02980(7)
H18 H 1.01040 0.61660 0.07230
C28 C 1.06649(9) 0.77769(8) 0.07618(7)
C29 C 0.90597(9) 0.72675(8) 0.25891(6)
C30 C 0.96688(9) 0.61516(8) 0.27267(6)
C31 C 0.8745(1) 0.53026(8) 0.33356(7)
C32 C 0.73754(10) 0.52173(8) 0.32318(7)
H19 H 0.70560 0.56600 0.27320
C33 C 0.64880(11) 0.44739(9) 0.38725(8)
H20 H 0.55810 0.44230 0.37980
C34 C 0.69558(13) 0.38084(9) 0.46217(8)
H21 H 0.63490 0.33320 0.50640
C35 C 0.83332(13) 0.38572(9) 0.47076(8)
H22 H 0.86560 0.34000 0.51990
C36 C 0.92303(11) 0.45873(8) 0.40618(7)
H23 H 1.01610 0.46010 0.41120
C37 C 1.13053(10) 0.57147(8) 0.23113(7)
C38 C 1.18611(11) 0.46209(9) 0.18024(8)
H24 H 1.12060 0.41610 0.17330
C39 C 1.33868(13) 0.4214(1) 0.13991(9)
H25 H 1.37430 0.34920 0.10520
C40 C 1.43754(12) 0.48823(11) 0.15138(10)
H26 H 1.53930 0.46110 0.12410
C41 C 1.38414(11) 0.59555(10) 0.20371(9)
H27 H 1.45010 0.63990 0.21270
C42 C 1.23165(10) 0.63711(9) 0.24289(8)
H28 H 1.19680 0.70950 0.27730
loop_
_geom_bond_atom_site_label_1
_geom_bond_atom_site_label_2
_geom_bond_distance
_geom_bond_site_symmetry_1
_geom_bond_site_symmetry_2
C1 C2 1.420 1_555 1_555
C2 C3 1.433 1_555 1_555
C3 H1 0.930 1_555 1_555
C4 C3 1.367 1_555 1_555
H2 C4 0.930 1_555 1_555
C5 C4 1.421 1_555 1_555
H3 C5 0.930 1_555 1_555
C6 C5 1.361 1_555 1_555
H4 C6 0.930 1_555 1_555
C7 C2 1.439 1_555 1_555
C8 C7 1.394 1_555 1_555
H5 C8 0.930 1_555 1_555
C9 C8 1.395 1_555 1_555
C10 C9 1.431 1_555 1_555
H6 C10 0.930 1_555 1_555
C11 C10 1.363 1_555 1_555
H7 C11 0.930 1_555 1_555
C12 C11 1.416 1_555 1_555
H8 C12 0.930 1_555 1_555
C13 C12 1.368 1_555 1_555
H9 C13 0.930 1_555 1_555
C14 C1 1.419 1_555 1_555
C15 C16 1.419 1_555 1_555
C16 C17 1.432 1_555 1_555
C17 H10 0.930 1_555 1_555
C18 C17 1.370 1_555 1_555
H11 C18 0.930 1_555 1_555
C19 C18 1.418 1_555 1_555
H12 C19 0.930 1_555 1_555
C20 C19 1.360 1_555 1_555
H13 C20 0.930 1_555 1_555
C21 C16 1.436 1_555 1_555
C22 C21 1.393 1_555 1_555
H14 C22 0.930 1_555 1_555
C23 C22 1.390 1_555 1_555
C24 C23 1.430 1_555 1_555
H15 C24 0.930 1_555 1_555
C25 C24 1.359 1_555 1_555
H16 C25 0.930 1_555 1_555
C26 C25 1.422 1_555 1_555
H17 C26 0.931 1_555 1_555
C27 C26 1.367 1_555 1_555
H18 C27 0.930 1_555 1_555
C28 C15 1.420 1_555 1_555
C29 C1 1.510 1_555 1_555
C30 C29 1.361 1_555 1_555
C31 C30 1.488 1_555 1_555
C32 C31 1.402 1_555 1_555
H19 C32 0.930 1_555 1_555
C33 C32 1.394 1_555 1_555
H20 C33 0.930 1_555 1_555
C34 C33 1.389 1_555 1_555
H21 C34 0.930 1_555 1_555
C35 C34 1.389 1_555 1_555
H22 C35 0.930 1_555 1_555
C36 C31 1.401 1_555 1_555
H23 C36 0.930 1_555 1_555
C37 C30 1.494 1_555 1_555
C38 C37 1.401 1_555 1_555
H24 C38 0.930 1_555 1_555
C39 C38 1.394 1_555 1_555
H25 C39 0.930 1_555 1_555
C40 C39 1.387 1_555 1_555
H26 C40 0.930 1_555 1_555
C41 C40 1.387 1_555 1_555
H27 C41 0.930 1_555 1_555
C42 C37 1.398 1_555 1_555
H28 C42 0.930 1_555 1_555
C6 C7 1.432 1_555 1_555
C9 C14 1.439 1_555 1_555
C13 C14 1.431 1_555 1_555
C15 C29 1.505 1_555 1_555
C20 C21 1.429 1_555 1_555
C23 C28 1.437 1_555 1_555
C27 C28 1.433 1_555 1_555
C35 C36 1.391 1_555 1_555
C41 C42 1.394 1_555 1_555
#END
