
#######################################################################
#
#                 Cambridge Crystallographic Data Centre
#                                CCDC
#
#######################################################################
#
# If this CIF has been generated from an entry in the Cambridge
# Structural Database, then it will include bibliographic, chemical,
# crystal, experimental, refinement or atomic coordinate data resulting
# from the CCDC's data processing and validation procedures.
#
#######################################################################

data_CSD_CIF_QOLVAQ
_audit_creation_date 2014-08-15
_audit_creation_method CSD-ConQuest-V1
_database_code_CSD QOLVAQ
_database_code_depnum_ccdc_archive 'CCDC 1019529'
_chemical_formula_sum 'C42 H28'
_chemical_formula_moiety
;
C42 H28
;
_journal_coden_Cambridge 1096
_journal_volume 26
_journal_year 2014
_journal_page_first 4433
_journal_name_full 'Chem.Mater. '
loop_
_publ_author_name
"Guo-Feng Zhang"
"Hongfeng Wang"
"M.P.Aldred"
"Tao Chen"
"Ze-Qiang Chen"
"Xianggao Meng"
"Ming-Qiang Zhu"
_chemical_name_systematic
;
9,9'-(2,2-Diphenylethene-1,1-diyl)dianthracene
;
_cell_volume   1443.306
_exptl_crystal_colour 'yellow'
_exptl_crystal_density_diffrn 1.226
_exptl_crystal_description 'block'
_diffrn_ambient_temperature 298
#These two values have been output from a single CSD field.
_refine_ls_R_factor_gt 0.047
_refine_ls_wR_factor_gt 0.047
_symmetry_cell_setting triclinic
_symmetry_space_group_name_H-M 'P -1'
_symmetry_Int_Tables_number 2
loop_
_symmetry_equiv_pos_site_id
_symmetry_equiv_pos_as_xyz
1 x,y,z
2 -x,-y,-z
_cell_length_a 9.7985(14)
_cell_length_b 11.7195(17)
_cell_length_c 13.649(2)
_cell_angle_alpha 87.418(2)
_cell_angle_beta 69.712(2)
_cell_angle_gamma 79.112(2)
_cell_formula_units_Z 2
loop_
_atom_type_symbol
_atom_type_radius_bond
C 0.68
H 0.23
loop_
_atom_site_label
_atom_site_type_symbol
_atom_site_fract_x
_atom_site_fract_y
_atom_site_fract_z
C1 C 0.49512(14) 0.80823(11) 0.1861(1)
C2 C 0.56588(14) 0.77831(12) 0.07801(10)
C3 C 0.56199(16) 0.67205(13) 0.03241(11)
H1 H 0.50960 0.61910 0.07470
C4 C 0.63281(18) 0.64638(16) -0.07117(12)
H2 H 0.62870 0.57610 -0.09810
C5 C 0.7123(2) 0.72451(18) -0.13819(13)
H3 H 0.76160 0.70530 -0.20860
C6 C 0.71677(18) 0.82699(17) -0.10000(12)
H4 H 0.76830 0.87870 -0.14490
C7 C 0.64400(15) 0.85804(13) 0.00811(11)
C8 C 0.64549(16) 0.96527(14) 0.04538(12)
H5 H 0.69220 1.01790 -0.00130
C9 C 0.57923(15) 0.99668(12) 0.15044(13)
C10 C 0.58464(19) 1.10627(14) 0.18772(16)
H6 H 0.62880 1.15940 0.14030
C11 C 0.5272(2) 1.13487(15) 0.29024(17)
H7 H 0.53030 1.20760 0.31320
C12 C 0.46226(18) 1.05381(16) 0.36276(15)
H8 H 0.42610 1.07270 0.43370
C13 C 0.45161(16) 0.94878(14) 0.33075(13)
H9 H 0.40810 0.89720 0.38030
C14 C 0.50580(14) 0.91591(12) 0.22257(11)
C15 C 0.24472(14) 0.77750(11) 0.31727(10)
C16 C 0.14924(14) 0.81803(12) 0.26105(11)
C17 C 0.19095(17) 0.80138(15) 0.15099(12)
H10 H 0.28630 0.76310 0.11370
C18 C 0.0962(2) 0.83945(18) 0.09903(15)
H11 H 0.12670 0.82550 0.02740
C19 C -0.0476(2) 0.8997(2) 0.15211(18)
H12 H -0.11010 0.92870 0.11520
C20 C -0.0947(2) 0.91550(18) 0.25623(18)
H13 H -0.19080 0.95440 0.29070
C21 C -0.00116(16) 0.87409(13) 0.31532(13)
C22 C -0.05130(16) 0.88409(13) 0.42315(14)
H14 H -0.14770 0.92200 0.45790
C23 C 0.03748(16) 0.83943(12) 0.48112(12)
C24 C -0.01895(19) 0.84531(15) 0.59247(13)
H15 H -0.11650 0.88130 0.62670
C25 C 0.0655(2) 0.80001(17) 0.64922(13)
H16 H 0.02580 0.80330 0.72180
C26 C 0.2150(2) 0.74725(15) 0.59806(12)
H17 H 0.27330 0.71600 0.63740
C27 C 0.27397(17) 0.74192(13) 0.49219(11)
H18 H 0.37330 0.70900 0.46050
C28 C 0.18865(14) 0.78505(11) 0.42798(10)
C29 C 0.40577(14) 0.72774(12) 0.25972(10)
C30 C 0.46606(14) 0.61661(11) 0.27233(10)
C31 C 0.62890(15) 0.57129(13) 0.23061(11)
C32 C 0.72920(17) 0.63422(15) 0.24203(14)
H19 H 0.69470 0.70620 0.27640
C33 C 0.8801(2) 0.5912(2) 0.20280(19)
H20 H 0.94590 0.63440 0.21110
C34 C 0.9328(2) 0.4854(2) 0.15191(19)
H21 H 1.03420 0.45700 0.12520
C35 C 0.8354(2) 0.4216(2) 0.14057(17)
H22 H 0.87100 0.34970 0.10590
C36 C 0.68425(19) 0.46320(15) 0.18032(13)
H23 H 0.61920 0.41840 0.17330
C37 C 0.37390(15) 0.53214(12) 0.33288(10)
C38 C 0.41862(19) 0.46232(13) 0.40543(12)
H24 H 0.50940 0.46470 0.41200
C39 C 0.3302(2) 0.38936(15) 0.46800(14)
H25 H 0.36080 0.34450 0.51710
C40 C 0.1976(2) 0.38307(17) 0.45776(15)
H26 H 0.13780 0.33460 0.50050
C41 C 0.1528(2) 0.44869(16) 0.38396(16)
H27 H 0.06350 0.44350 0.37630
C42 C 0.24080(16) 0.52234(13) 0.32125(12)
H28 H 0.21070 0.56550 0.27110
loop_
_geom_bond_atom_site_label_1
_geom_bond_atom_site_label_2
_geom_bond_distance
_geom_bond_site_symmetry_1
_geom_bond_site_symmetry_2
C1 C2 1.423 1_555 1_555
C2 C3 1.430 1_555 1_555
C3 H1 0.930 1_555 1_555
C4 C3 1.360 1_555 1_555
H2 C4 0.930 1_555 1_555
C5 C4 1.408 1_555 1_555
H3 C5 0.930 1_555 1_555
C6 C5 1.345 1_555 1_555
H4 C6 0.930 1_555 1_555
C7 C2 1.433 1_555 1_555
C8 C7 1.381 1_555 1_555
H5 C8 0.930 1_555 1_555
C9 C8 1.387 1_555 1_555
C10 C9 1.419 1_555 1_555
H6 C10 0.930 1_555 1_555
C11 C10 1.346 1_555 1_555
H7 C11 0.931 1_555 1_555
C12 C11 1.412 1_555 1_555
H8 C12 0.929 1_555 1_555
C13 C12 1.358 1_555 1_555
H9 C13 0.930 1_555 1_555
C14 C1 1.412 1_555 1_555
C15 C16 1.410 1_555 1_555
C16 C17 1.426 1_555 1_555
C17 H10 0.930 1_555 1_555
C18 C17 1.355 1_555 1_555
H11 C18 0.930 1_555 1_555
C19 C18 1.404 1_555 1_555
H12 C19 0.930 1_555 1_555
C20 C19 1.343 1_555 1_555
H13 C20 0.930 1_555 1_555
C21 C16 1.440 1_555 1_555
C22 C21 1.383 1_555 1_555
H14 C22 0.930 1_555 1_555
C23 C22 1.387 1_555 1_555
C24 C23 1.426 1_555 1_555
H15 C24 0.930 1_555 1_555
C25 C24 1.345 1_555 1_555
H16 C25 0.930 1_555 1_555
C26 C25 1.415 1_555 1_555
H17 C26 0.930 1_555 1_555
C27 C26 1.357 1_555 1_555
H18 C27 0.930 1_555 1_555
C28 C15 1.418 1_555 1_555
C29 C1 1.511 1_555 1_555
C30 C29 1.354 1_555 1_555
C31 C30 1.493 1_555 1_555
C32 C31 1.387 1_555 1_555
H19 C32 0.929 1_555 1_555
C33 C32 1.386 1_555 1_555
H20 C33 0.930 1_555 1_555
C34 C33 1.369 1_555 1_555
H21 C34 0.930 1_555 1_555
C35 C34 1.370 1_555 1_555
H22 C35 0.931 1_555 1_555
C36 C31 1.389 1_555 1_555
H23 C36 0.930 1_555 1_555
C37 C30 1.492 1_555 1_555
C38 C37 1.391 1_555 1_555
H24 C38 0.930 1_555 1_555
C39 C38 1.383 1_555 1_555
H25 C39 0.929 1_555 1_555
C40 C39 1.370 1_555 1_555
H26 C40 0.930 1_555 1_555
C41 C40 1.381 1_555 1_555
H27 C41 0.930 1_555 1_555
C42 C37 1.393 1_555 1_555
H28 C42 0.929 1_555 1_555
C6 C7 1.428 1_555 1_555
C9 C14 1.437 1_555 1_555
C13 C14 1.429 1_555 1_555
C15 C29 1.510 1_555 1_555
C20 C21 1.427 1_555 1_555
C23 C28 1.437 1_555 1_555
C27 C28 1.425 1_555 1_555
C35 C36 1.385 1_555 1_555
C41 C42 1.387 1_555 1_555
#END
