
#######################################################################
#
#                 Cambridge Crystallographic Data Centre
#                                CCDC
#
#######################################################################
#
# If this CIF has been generated from an entry in the Cambridge
# Structural Database, then it will include bibliographic, chemical,
# crystal, experimental, refinement or atomic coordinate data resulting
# from the CCDC's data processing and validation procedures.
#
#######################################################################

data_CSD_CIF_QOQTEV
_audit_creation_date 2001-08-17
_audit_creation_method CSD-ConQuest-V1
_database_code_CSD QOQTEV
_database_code_depnum_ccdc_archive 'CCDC 165663'
_chemical_formula_sum 'C18 H20'
_chemical_formula_moiety
;
C18 H20
;
_journal_coeditor_code "IUCr CV6017"
_journal_coden_Cambridge 1370
_journal_volume 57
_journal_year 2001
_journal_page_first o441
_journal_name_full 'Acta Crystallogr.,Sect.E:Struct.Rep.Online '
loop_
_publ_author_name
"M.Parvez"
"D.V.Simion"
"T.S.Sorensen"
_chemical_name_systematic
;
(6bR,10aS)-6b,10a-Dimethyl-10,10a-dihydro-9H-fluoranthene
;
_chemical_melting_point 393
_cell_volume   1367.930
_exptl_crystal_colour 'colorless'
_exptl_crystal_density_diffrn 1.148
_exptl_special_details
;
Melting point range 393-395K

;
_exptl_crystal_description 'prism'
_exptl_crystal_preparation 'hexane'
_diffrn_ambient_temperature 200
#These two values have been output from a single CSD field.
_refine_ls_R_factor_gt 0.054
_refine_ls_wR_factor_gt 0.054
_symmetry_cell_setting orthorhombic
_symmetry_space_group_name_H-M 'P 21 21 21'
_symmetry_Int_Tables_number 19
loop_
_symmetry_equiv_pos_site_id
_symmetry_equiv_pos_as_xyz
1 x,y,z
2 1/2-x,-y,1/2+z
3 1/2+x,1/2-y,-z
4 -x,1/2+y,1/2-z
_cell_length_a 13.332(3)
_cell_length_b 13.791(3)
_cell_length_c 7.440(2)
_cell_angle_alpha 90
_cell_angle_beta 90
_cell_angle_gamma 90
_cell_formula_units_Z 4
loop_
_atom_type_symbol
_atom_type_radius_bond
C 0.68
H 0.23
loop_
_atom_site_label
_atom_site_type_symbol
_atom_site_fract_x
_atom_site_fract_y
_atom_site_fract_z
C1 C 0.4412(4) 0.1819(3) 0.4497(6)
H1 H 0.47390 0.23560 0.50400
C2 C 0.3581(4) 0.1963(4) 0.3357(7)
H2 H 0.33560 0.26070 0.31500
C3 C 0.3082(4) 0.1215(4) 0.2533(6)
H3 H 0.25370 0.13470 0.17500
C4 C 0.3385(3) 0.0239(4) 0.2856(5)
C5 C 0.2958(3) -0.0617(4) 0.2152(6)
H4 H 0.23980 -0.05790 0.13650
C6 C 0.3349(4) -0.1501(4) 0.2599(7)
H5 H 0.30630 -0.20670 0.20820
C7 C 0.4162(4) -0.1604(3) 0.3803(7)
H6 H 0.44090 -0.22290 0.41120
C8 C 0.4588(3) -0.0789(3) 0.4514(5)
C9 C 0.5375(3) -0.0635(3) 0.5972(5)
C10 C 0.4799(3) -0.0765(3) 0.7778(5)
H7 H 0.41300 -0.04600 0.76640
H8 H 0.46960 -0.14660 0.79940
C11 C 0.5328(4) -0.0333(4) 0.9388(6)
H9 H 0.60040 -0.06220 0.95190
H10 H 0.49420 -0.04680 1.04970
C12 C 0.5412(5) 0.0750(4) 0.9099(6)
H11 H 0.57300 0.10530 1.01630
H12 H 0.47340 0.10320 0.89570
C13 C 0.6037(4) 0.0970(4) 0.7427(6)
H13 H 0.60380 0.16790 0.72250
H14 H 0.67390 0.07680 0.76550
C14 C 0.5669(3) 0.0471(3) 0.5719(5)
C15 C 0.4742(3) 0.0889(3) 0.4813(5)
C16 C 0.4204(3) 0.0114(3) 0.4021(5)
C17 C 0.6243(4) -0.1348(4) 0.5907(7)
H15 H 0.59900 -0.20070 0.60940
H16 H 0.67270 -0.11890 0.68530
H17 H 0.65730 -0.13080 0.47310
C18 C 0.6523(4) 0.0571(4) 0.4302(7)
H18 H 0.63570 0.01830 0.32390
H19 H 0.71550 0.03390 0.48190
H20 H 0.65940 0.12530 0.39560
loop_
_geom_bond_atom_site_label_1
_geom_bond_atom_site_label_2
_geom_bond_distance
_geom_bond_site_symmetry_1
_geom_bond_site_symmetry_2
C1 H1 0.950 1_555 1_555
C2 C1 1.409 1_555 1_555
H2 C2 0.950 1_555 1_555
C3 C2 1.372 1_555 1_555
H3 C3 0.949 1_555 1_555
C4 C3 1.426 1_555 1_555
C5 C4 1.411 1_555 1_555
H4 C5 0.950 1_555 1_555
C6 C5 1.367 1_555 1_555
H5 C6 0.950 1_555 1_555
C7 C6 1.413 1_555 1_555
H6 C7 0.951 1_555 1_555
C8 C7 1.366 1_555 1_555
C9 C8 1.524 1_555 1_555
C10 C9 1.558 1_555 1_555
H7 C10 0.990 1_555 1_555
H8 C10 0.990 1_555 1_555
C11 C10 1.512 1_555 1_555
H9 C11 0.990 1_555 1_555
H10 C11 0.990 1_555 1_555
C12 C11 1.513 1_555 1_555
H11 C12 0.990 1_555 1_555
H12 C12 0.990 1_555 1_555
C13 C12 1.528 1_555 1_555
H13 C13 0.989 1_555 1_555
H14 C13 0.991 1_555 1_555
C14 C9 1.586 1_555 1_555
C15 C1 1.376 1_555 1_555
C16 C4 1.405 1_555 1_555
C17 C9 1.519 1_555 1_555
H15 C17 0.979 1_555 1_555
H16 C17 0.980 1_555 1_555
H17 C17 0.981 1_555 1_555
C18 C14 1.558 1_555 1_555
H18 C18 0.980 1_555 1_555
H19 C18 0.980 1_555 1_555
H20 C18 0.980 1_555 1_555
C8 C16 1.396 1_555 1_555
C13 C14 1.526 1_555 1_555
C14 C15 1.521 1_555 1_555
C15 C16 1.416 1_555 1_555
#END
