
#######################################################################
#
#                 Cambridge Crystallographic Data Centre
#                                CCDC
#
#######################################################################
#
# If this CIF has been generated from an entry in the Cambridge
# Structural Database, then it will include bibliographic, chemical,
# crystal, experimental, refinement or atomic coordinate data resulting
# from the CCDC's data processing and validation procedures.
#
#######################################################################

data_CSD_CIF_QOQYEC
_audit_creation_date 2014-08-19
_audit_creation_method CSD-ConQuest-V1
_database_code_CSD QOQYEC
_database_code_depnum_ccdc_archive 'CCDC 1001196'
_chemical_formula_sum 'C30 H18'
_chemical_formula_moiety
;
C30 H18
;
_journal_coden_Cambridge 1350
_journal_volume 16
_journal_year 2014
_journal_page_first 8946
_journal_name_full 'CrystEngComm '
loop_
_publ_author_name
"K.Nagarajan"
"S.K.Rajagopal"
"M.Hariharan"
_chemical_name_systematic
;
1-(anthracen-9-yl)pyrene
;
_chemical_melting_point 523.15
_cell_volume   4028.031
_exptl_crystal_colour 'colorless'
_exptl_crystal_density_diffrn 1.248
_exptl_special_details
;
Luminescent
orthorhombic polymorph

;
_exptl_crystal_description 'block'
_exptl_crystal_preparation 'Ethyl acetate/ dichloromethane'
_diffrn_ambient_temperature 296
#These two values have been output from a single CSD field.
_refine_ls_R_factor_gt 0.0477
_refine_ls_wR_factor_gt 0.0477
_symmetry_cell_setting orthorhombic
_symmetry_space_group_name_H-M 'I b a 2'
_symmetry_Int_Tables_number 45
loop_
_symmetry_equiv_pos_site_id
_symmetry_equiv_pos_as_xyz
1 x,y,z
2 -x,-y,z
3 -x,y,1/2+z
4 x,-y,1/2+z
5 1/2+x,1/2+y,1/2+z
6 1/2-x,1/2-y,1/2+z
7 1/2-x,1/2+y,z
8 1/2+x,1/2-y,z
_cell_length_a 17.0600(14)
_cell_length_b 29.727(3)
_cell_length_c 7.9426(6)
_cell_angle_alpha 90
_cell_angle_beta 90
_cell_angle_gamma 90
_cell_formula_units_Z 8
loop_
_atom_type_symbol
_atom_type_radius_bond
C 0.68
H 0.23
loop_
_atom_site_label
_atom_site_type_symbol
_atom_site_fract_x
_atom_site_fract_y
_atom_site_fract_z
C1 C 0.9084(2) 0.08384(13) -0.0649(5)
H1 H 0.93360 0.10380 0.00730
C2 C 0.9501(2) 0.06292(15) -0.1895(6)
H2 H 1.00360 0.06830 -0.19940
C3 C 0.9131(3) 0.03351(17) -0.3025(6)
H3 H 0.94210 0.01990 -0.38750
C4 C 0.8367(3) 0.02492(14) -0.2890(5)
H4 H 0.81320 0.00550 -0.36560
C5 C 0.5861(3) 0.04090(15) 0.0078(6)
H5 H 0.56300 0.02040 -0.06550
C6 C 0.5426(3) 0.05908(18) 0.1324(7)
H6 H 0.49000 0.05160 0.14280
C7 C 0.5764(2) 0.08884(18) 0.2444(7)
H7 H 0.54610 0.10100 0.33050
C8 C 0.6533(2) 0.10073(15) 0.2310(6)
H8 H 0.67450 0.12080 0.30830
C9 C 0.7814(2) 0.09489(12) 0.0851(4)
C10 C 0.7111(2) 0.03430(13) -0.1418(5)
H9 H 0.68790 0.01460 -0.21790
C11 C 0.6662(2) 0.05226(12) -0.0139(5)
C12 C 0.7015(2) 0.08322(13) 0.1022(5)
C13 C 0.8263(2) 0.07535(12) -0.0445(4)
C14 C 0.7902(2) 0.04478(12) -0.1602(5)
C15 C 0.8179(2) 0.12628(12) 0.2085(4)
C16 C 0.8415(3) 0.10977(14) 0.3651(5)
H10 H 0.83440 0.07940 0.38940
C17 C 0.8750(3) 0.13728(15) 0.4840(5)
H11 H 0.88960 0.12520 0.58740
C18 C 0.8874(2) 0.18255(15) 0.4531(5)
C19 C 0.9220(3) 0.21325(19) 0.5745(6)
H12 H 0.93870 0.20210 0.67780
C20 C 0.9305(3) 0.2570(2) 0.5422(7)
H13 H 0.95450 0.27520 0.62230
C21 C 0.9042(3) 0.27669(16) 0.3893(6)
C22 C 0.9097(3) 0.32287(18) 0.3581(9)
H14 H 0.93140 0.34170 0.43930
C23 C 0.8838(4) 0.3406(2) 0.2104(12)
H15 H 0.88780 0.37140 0.19110
C24 C 0.8514(4) 0.31306(18) 0.0891(9)
H16 H 0.83310 0.32570 -0.01060
C25 C 0.8453(3) 0.26602(16) 0.1128(6)
C26 C 0.8124(3) 0.23621(16) -0.0105(6)
H17 H 0.79620 0.24800 -0.11330
C27 C 0.8043(2) 0.19190(14) 0.0173(6)
H18 H 0.78280 0.17380 -0.06630
C28 C 0.8280(2) 0.17208(12) 0.1733(5)
C29 C 0.8630(2) 0.20088(13) 0.2972(5)
C30 C 0.8713(2) 0.24778(14) 0.2652(6)
loop_
_geom_bond_atom_site_label_1
_geom_bond_atom_site_label_2
_geom_bond_distance
_geom_bond_site_symmetry_1
_geom_bond_site_symmetry_2
C1 H1 0.930 1_555 1_555
C2 C1 1.368 1_555 1_555
H2 C2 0.930 1_555 1_555
C3 C2 1.403 1_555 1_555
H3 C3 0.930 1_555 1_555
C4 C3 1.332 1_555 1_555
H4 C4 0.930 1_555 1_555
C5 H5 0.930 1_555 1_555
C6 C5 1.350 1_555 1_555
H6 C6 0.928 1_555 1_555
C7 C6 1.381 1_555 1_555
H7 C7 0.930 1_555 1_555
C8 C7 1.363 1_555 1_555
H8 C8 0.929 1_555 1_555
C9 C12 1.413 1_555 1_555
C10 H9 0.930 1_555 1_555
C11 C5 1.418 1_555 1_555
C12 C8 1.412 1_555 1_555
C13 C1 1.432 1_555 1_555
C14 C4 1.423 1_555 1_555
C15 C9 1.490 1_555 1_555
C16 C15 1.396 1_555 1_555
H10 C16 0.931 1_555 1_555
C17 C16 1.374 1_555 1_555
H11 C17 0.930 1_555 1_555
C18 C17 1.384 1_555 1_555
C19 C18 1.453 1_555 1_555
H12 C19 0.930 1_555 1_555
C20 C19 1.334 1_555 1_555
H13 C20 0.930 1_555 1_555
C21 C20 1.421 1_555 1_555
C22 C21 1.398 1_555 1_555
H14 C22 0.931 1_555 1_555
C23 C22 1.360 1_555 1_555
H15 C23 0.931 1_555 1_555
C24 C23 1.380 1_555 1_555
H16 C24 0.930 1_555 1_555
C25 C24 1.415 1_555 1_555
C26 C25 1.435 1_555 1_555
H17 C26 0.931 1_555 1_555
C27 C26 1.343 1_555 1_555
H18 C27 0.930 1_555 1_555
C28 C15 1.401 1_555 1_555
C29 C18 1.415 1_555 1_555
C30 C21 1.423 1_555 1_555
C9 C13 1.408 1_555 1_555
C10 C11 1.380 1_555 1_555
C10 C14 1.393 1_555 1_555
C11 C12 1.435 1_555 1_555
C13 C14 1.432 1_555 1_555
C25 C30 1.399 1_555 1_555
C27 C28 1.430 1_555 1_555
C28 C29 1.435 1_555 1_555
C29 C30 1.424 1_555 1_555
#END
