
#######################################################################
#
#                 Cambridge Crystallographic Data Centre
#                                CCDC
#
#######################################################################
#
# If this CIF has been generated from an entry in the Cambridge
# Structural Database, then it will include bibliographic, chemical,
# crystal, experimental, refinement or atomic coordinate data resulting
# from the CCDC's data processing and validation procedures.
#
#######################################################################

data_CSD_CIF_QOQYEC01
_audit_creation_date 2014-08-19
_audit_creation_method CSD-ConQuest-V1
_database_code_CSD QOQYEC01
_database_code_depnum_ccdc_archive 'CCDC 1001197'
_chemical_formula_sum 'C30 H18'
_chemical_formula_moiety
;
C30 H18
;
_journal_coden_Cambridge 1350
_journal_volume 16
_journal_year 2014
_journal_page_first 8946
_journal_name_full 'CrystEngComm '
loop_
_publ_author_name
"K.Nagarajan"
"S.K.Rajagopal"
"M.Hariharan"
_chemical_name_systematic
;
1-(anthracen-9-yl)pyrene
;
_chemical_melting_point 523.15
_cell_volume   1982.384
_exptl_crystal_colour 'yellow'
_exptl_crystal_density_diffrn 1.268
_exptl_special_details
;
Luminescent
monoclinic polymorph

;
_exptl_crystal_description 'block'
_exptl_crystal_preparation 'Hexane/Dichloromethane'
_diffrn_ambient_temperature 296
#These two values have been output from a single CSD field.
_refine_ls_R_factor_gt 0.0412
_refine_ls_wR_factor_gt 0.0412
_symmetry_cell_setting monoclinic
_symmetry_space_group_name_H-M 'P 21/c'
_symmetry_Int_Tables_number 14
loop_
_symmetry_equiv_pos_site_id
_symmetry_equiv_pos_as_xyz
1 x,y,z
2 -x,1/2+y,1/2-z
3 -x,-y,-z
4 x,-1/2-y,-1/2+z
_cell_length_a 7.357(5)
_cell_length_b 10.583(5)
_cell_length_c 25.606(5)
_cell_angle_alpha 90
_cell_angle_beta 96.097(5)
_cell_angle_gamma 90
_cell_formula_units_Z 4
loop_
_atom_type_symbol
_atom_type_radius_bond
C 0.68
H 0.23
loop_
_atom_site_label
_atom_site_type_symbol
_atom_site_fract_x
_atom_site_fract_y
_atom_site_fract_z
C1 C 1.0379(2) 0.17623(17) 0.49916(6)
H1 H 0.94940 0.11460 0.49090
C2 C 1.1672(3) 0.1577(2) 0.54026(7)
H2 H 1.16670 0.08330 0.55960
C3 C 1.3026(3) 0.2499(2) 0.55411(7)
H3 H 1.38950 0.23610 0.58260
C4 C 1.3065(2) 0.3576(2) 0.52617(7)
H4 H 1.39630 0.41750 0.53580
C5 C 1.0487(3) 0.62923(17) 0.37998(7)
H5 H 1.14190 0.68780 0.38780
C6 C 0.9169(3) 0.65326(18) 0.34028(8)
H6 H 0.91980 0.72790 0.32120
C7 C 0.7754(3) 0.56554(18) 0.32784(7)
H7 H 0.68460 0.58310 0.30070
C8 C 0.7692(2) 0.45560(17) 0.35490(6)
H8 H 0.67430 0.39900 0.34590
C9 C 0.9022(2) 0.31194(14) 0.42563(5)
C10 C 1.1781(2) 0.49130(16) 0.45222(6)
H9 H 1.27030 0.55020 0.46080
C11 C 1.0478(2) 0.51589(15) 0.41007(6)
C12 C 0.9054(2) 0.42505(15) 0.39688(6)
C13 C 1.0354(2) 0.28885(15) 0.46831(6)
C14 C 1.1753(2) 0.38175(16) 0.48197(6)
C15 C 0.7579(2) 0.21518(14) 0.40978(6)
C16 C 0.6078(2) 0.20143(17) 0.43814(6)
H10 H 0.59940 0.25200 0.46750
C17 C 0.4708(2) 0.11478(18) 0.42387(7)
H11 H 0.37280 0.10800 0.44380
C18 C 0.4771(2) 0.03744(15) 0.38010(6)
C19 C 0.3379(2) -0.05372(18) 0.36350(7)
H12 H 0.23760 -0.06170 0.38250
C20 C 0.3487(2) -0.12745(17) 0.32143(7)
H13 H 0.25580 -0.18530 0.31200
C21 C 0.4999(2) -0.11941(15) 0.29059(6)
C22 C 0.5149(3) -0.19536(16) 0.24665(7)
H14 H 0.42510 -0.25530 0.23700
C23 C 0.6604(3) -0.18303(18) 0.21744(7)
H15 H 0.66710 -0.23420 0.18820
C24 C 0.7967(3) -0.09576(17) 0.23100(7)
H16 H 0.89370 -0.08840 0.21070
C25 C 0.7901(2) -0.01816(14) 0.27514(6)
C26 C 0.9296(2) 0.07185(16) 0.29144(6)
H17 H 1.02890 0.08010 0.27200
C27 C 0.9212(2) 0.14531(15) 0.33430(6)
H18 H 1.01530 0.20210 0.34380
C28 C 0.77019(19) 0.13779(14) 0.36553(5)
C29 C 0.62943(19) 0.04867(13) 0.35042(5)
C30 C 0.6396(2) -0.02957(13) 0.30540(5)
loop_
_geom_bond_atom_site_label_1
_geom_bond_atom_site_label_2
_geom_bond_distance
_geom_bond_site_symmetry_1
_geom_bond_site_symmetry_2
C1 H1 0.930 1_555 1_555
C2 C1 1.356 1_555 1_555
H2 C2 0.930 1_555 1_555
C3 C2 1.412 1_555 1_555
H3 C3 0.929 1_555 1_555
C4 C3 1.348 1_555 1_555
H4 C4 0.930 1_555 1_555
C5 H5 0.930 1_555 1_555
C6 C5 1.352 1_555 1_555
H6 C6 0.930 1_555 1_555
C7 C6 1.406 1_555 1_555
H7 C7 0.930 1_555 1_555
C8 C7 1.357 1_555 1_555
H8 C8 0.930 1_555 1_555
C9 C12 1.407 1_555 1_555
C10 H9 0.930 1_555 1_555
C11 C5 1.426 1_555 1_555
C12 C8 1.427 1_555 1_555
C13 C1 1.429 1_555 1_555
C14 C4 1.430 1_555 1_555
C15 C9 1.500 1_555 1_555
C16 C15 1.392 1_555 1_555
H10 C16 0.930 1_555 1_555
C17 C16 1.383 1_555 1_555
H11 C17 0.929 1_555 1_555
C18 C17 1.393 1_555 1_555
C19 C18 1.438 1_555 1_555
H12 C19 0.930 1_555 1_555
C20 C19 1.339 1_555 1_555
H13 C20 0.930 1_555 1_555
C21 C20 1.433 1_555 1_555
C22 C21 1.397 1_555 1_555
H14 C22 0.930 1_555 1_555
C23 C22 1.376 1_555 1_555
H15 C23 0.930 1_555 1_555
C24 C23 1.380 1_555 1_555
H16 C24 0.930 1_555 1_555
C25 C24 1.402 1_555 1_555
C26 C25 1.430 1_555 1_555
H17 C26 0.931 1_555 1_555
C27 C26 1.352 1_555 1_555
H18 C27 0.929 1_555 1_555
C28 C15 1.409 1_555 1_555
C29 C18 1.424 1_555 1_555
C30 C21 1.422 1_555 1_555
C9 C13 1.410 1_555 1_555
C10 C11 1.390 1_555 1_555
C10 C14 1.389 1_555 1_555
C11 C12 1.436 1_555 1_555
C13 C14 1.439 1_555 1_555
C25 C30 1.422 1_555 1_555
C27 C28 1.438 1_555 1_555
C28 C29 1.424 1_555 1_555
C29 C30 1.428 1_555 1_555
#END
