
#######################################################################
#
#                 Cambridge Crystallographic Data Centre
#                                CCDC
#
#######################################################################
#
# If this CIF has been generated from an entry in the Cambridge
# Structural Database, then it will include bibliographic, chemical,
# crystal, experimental, refinement or atomic coordinate data resulting
# from the CCDC's data processing and validation procedures.
#
#######################################################################

data_CSD_CIF_QQQCIG23
_audit_creation_date 2015-08-18
_audit_creation_method CSD-ConQuest-V1
_database_code_CSD QQQCIG23
_database_code_depnum_ccdc_archive 'CCDC 1418604'
_chemical_formula_sum 'C42 H28'
_chemical_formula_moiety
;
C42 H28
;
_journal_coeditor_code "lc5064"
_journal_coden_Cambridge 1742
_journal_volume 2
_journal_year 2015
_journal_page_first 563
_journal_name_full 'IUCrJ '
loop_
_publ_author_name
"V.R.Hathwar"
"M.Sist"
"M.R.V.Jrgensen"
"A.H.Mamakhel"
"X.Wang"
"C.M.Hoffmann"
"K.Sugimoto"
"J.Overgaard"
"B.B.Iversen"
_chemical_name_systematic
;
5,6,11,12-Tetraphenyltetracene
;
_chemical_name_common
;
Rubrene
;
_cell_volume   2715.187
_exptl_crystal_colour 'orange'
_exptl_crystal_density_diffrn 1.303
_exptl_special_details
;
orthorhombic polymorph

;
_exptl_crystal_description 'Block'
_diffrn_ambient_temperature 20
_diffrn_radiation_probe x-ray
_diffrn_source synchrotron
_refine_special_details
;
multipole refinement

;
#These two values have been output from a single CSD field.
_refine_ls_R_factor_gt 0.02
_refine_ls_wR_factor_gt 0.02
_symmetry_cell_setting orthorhombic
_symmetry_space_group_name_H-M 'C m c a'
_symmetry_Int_Tables_number 64
loop_
_symmetry_equiv_pos_site_id
_symmetry_equiv_pos_as_xyz
1 x,y,z
2 -x,1/2-y,1/2+z
3 x,-y,-z
4 -x,1/2+y,1/2-z
5 1/2+x,1/2+y,z
6 1/2+x,1/2-y,-z
7 1/2-x,y,1/2-z
8 1/2-x,-y,1/2+z
9 -x,-y,-z
10 x,-1/2+y,-1/2-z
11 -x,y,z
12 x,-1/2-y,-1/2+z
13 -1/2-x,-1/2-y,-z
14 -1/2-x,-1/2+y,z
15 -1/2+x,-y,-1/2+z
16 -1/2+x,y,-1/2-z
_cell_length_a 26.7965(5)
_cell_length_b 7.1599(1)
_cell_length_c 14.1519(3)
_cell_angle_alpha 90
_cell_angle_beta 90
_cell_angle_gamma 90
_cell_formula_units_Z 4
loop_
_atom_type_symbol
_atom_type_radius_bond
C 0.68
H 0.23
loop_
_atom_site_label
_atom_site_type_symbol
_atom_site_fract_x
_atom_site_fract_y
_atom_site_fract_z
C1 C 0.027363(4) 0.00000 0.00000
C2 C 0.053282(3) -0.144726(10) 0.049020(5)
C3 C 0.026881(3) -0.296465(9) 0.087609(5)
C4 C 0.052190(3) -0.448123(11) 0.134043(6)
C5 C 0.026565(3) -0.591212(11) 0.175632(6)
C6 C 0.107690(3) -0.135027(10) 0.072749(5)
C7 C 0.142988(3) -0.249463(11) 0.028385(6)
C8 C 0.192345(3) -0.252907(13) 0.059457(7)
C9 C 0.207491(3) -0.140269(14) 0.134836(7)
C10 C 0.172652(3) -0.025087(14) 0.179449(6)
C11 C 0.123090(3) -0.023814(12) 0.148752(6)
H1 H 0.09262 -0.44918 0.13648
H2 H 0.04652 -0.70480 0.20990
H3 H 0.13250 -0.33793 -0.03072
H4 H 0.21876 -0.34476 0.02449
H5 H 0.24621 -0.14391 0.15740
H6 H 0.18310 0.06419 0.23828
H7 H 0.09492 0.06268 0.18198
C1J C -0.027363(4) 0.00000 0.00000
C2J C -0.053282(3) -0.144726(10) 0.049020(5)
C3J C -0.026881(3) -0.296465(9) 0.087609(5)
C4J C -0.052190(3) -0.448123(11) 0.134043(6)
C5J C -0.026565(3) -0.591212(11) 0.175632(6)
C6J C -0.107690(3) -0.135027(10) 0.072749(5)
C7J C -0.142988(3) -0.249463(11) 0.028385(6)
C8J C -0.192345(3) -0.252907(13) 0.059457(7)
C9J C -0.207491(3) -0.140269(14) 0.134836(7)
C10J C -0.172652(3) -0.025087(14) 0.179449(6)
C11J C -0.123090(3) -0.023814(12) 0.148752(6)
H1J H -0.09262 -0.44918 0.13648
H2J H -0.04652 -0.70480 0.20990
H3J H -0.13250 -0.33793 -0.03072
H4J H -0.21876 -0.34476 0.02449
H5J H -0.24621 -0.14391 0.15740
H6J H -0.18310 0.06419 0.23828
H7J H -0.09492 0.06268 0.18198
C2H C -0.053282(3) 0.144726(10) -0.049020(5)
C3H C -0.026881(3) 0.296465(9) -0.087609(5)
C4H C -0.052190(3) 0.448123(11) -0.134043(6)
C5H C -0.026565(3) 0.591212(11) -0.175632(6)
C6H C -0.107690(3) 0.135027(10) -0.072749(5)
C7H C -0.142988(3) 0.249463(11) -0.028385(6)
C8H C -0.192345(3) 0.252907(13) -0.059457(7)
C9H C -0.207491(3) 0.140269(14) -0.134836(7)
C10H C -0.172652(3) 0.025087(14) -0.179449(6)
C11H C -0.123090(3) 0.023814(12) -0.148752(6)
H1H H -0.09262 0.44918 -0.13648
H2H H -0.04652 0.70480 -0.20990
H3H H -0.13250 0.33793 0.03072
H4H H -0.21876 0.34476 -0.02449
H5H H -0.24621 0.14391 -0.15740
H6H H -0.18310 -0.06419 -0.23828
H7H H -0.09492 -0.06268 -0.18198
C2B C 0.053282(3) 0.144726(10) -0.049020(5)
C3B C 0.026881(3) 0.296465(9) -0.087609(5)
C4B C 0.052190(3) 0.448123(11) -0.134043(6)
C5B C 0.026565(3) 0.591212(11) -0.175632(6)
C6B C 0.107690(3) 0.135027(10) -0.072749(5)
C7B C 0.142988(3) 0.249463(11) -0.028385(6)
C8B C 0.192345(3) 0.252907(13) -0.059457(7)
C9B C 0.207491(3) 0.140269(14) -0.134836(7)
C10B C 0.172652(3) 0.025087(14) -0.179449(6)
C11B C 0.123090(3) 0.023814(12) -0.148752(6)
H1B H 0.09262 0.44918 -0.13648
H2B H 0.04652 0.70480 -0.20990
H3B H 0.13250 0.33793 0.03072
H4B H 0.21876 0.34476 -0.02449
H5B H 0.24621 0.14391 -0.15740
H6B H 0.18310 -0.06419 -0.23828
H7B H 0.09492 -0.06268 -0.18198
loop_
_geom_bond_atom_site_label_1
_geom_bond_atom_site_label_2
_geom_bond_distance
_geom_bond_site_symmetry_1
_geom_bond_site_symmetry_2
C1 C2 1.427 1_555 1_555
C2 C3 1.407 1_555 1_555
C3 C4 1.439 1_555 1_555
C4 C5 1.367 1_555 1_555
C5 H2 1.088 1_555 1_555
C6 C2 1.498 1_555 1_555
C7 C6 1.400 1_555 1_555
C8 C7 1.394 1_555 1_555
C9 C8 1.398 1_555 1_555
C10 C9 1.397 1_555 1_555
C11 C6 1.400 1_555 1_555
H1 C4 1.084 1_555 1_555
H3 C7 1.086 1_555 1_555
H4 C8 1.085 1_555 1_555
H5 C9 1.086 1_555 1_555
H6 C10 1.086 1_555 1_555
H7 C11 1.084 1_555 1_555
C1J C1 1.466 1_555 1_555
C2J C1J 1.427 1_555 1_555
C3J C3 1.441 1_555 1_555
C4J C3J 1.439 1_555 1_555
C5J C5 1.424 1_555 1_555
C6J C2J 1.498 1_555 1_555
C7J C6J 1.400 1_555 1_555
C8J C7J 1.394 1_555 1_555
C9J C8J 1.398 1_555 1_555
C10J C9J 1.397 1_555 1_555
C11J C6J 1.400 1_555 1_555
H1J C4J 1.084 1_555 1_555
H2J C5J 1.088 1_555 1_555
H3J C7J 1.086 1_555 1_555
H4J C8J 1.085 1_555 1_555
H5J C9J 1.086 1_555 1_555
H6J C10J 1.086 1_555 1_555
H7J C11J 1.084 1_555 1_555
C2H C1J 1.427 1_555 1_555
C3H C2H 1.407 1_555 1_555
C4H C3H 1.439 1_555 1_555
C5H C4H 1.367 1_555 1_555
C6H C2H 1.498 1_555 1_555
C7H C6H 1.400 1_555 1_555
C8H C7H 1.394 1_555 1_555
C9H C8H 1.398 1_555 1_555
C10H C9H 1.397 1_555 1_555
C11H C6H 1.400 1_555 1_555
H1H C4H 1.084 1_555 1_555
H2H C5H 1.088 1_555 1_555
H3H C7H 1.086 1_555 1_555
H4H C8H 1.085 1_555 1_555
H5H C9H 1.086 1_555 1_555
H6H C10H 1.086 1_555 1_555
H7H C11H 1.084 1_555 1_555
C2B C1 1.427 1_555 1_555
C3B C3H 1.441 1_555 1_555
C4B C3B 1.439 1_555 1_555
C5B C5H 1.424 1_555 1_555
C6B C2B 1.498 1_555 1_555
C7B C6B 1.400 1_555 1_555
C8B C7B 1.394 1_555 1_555
C9B C8B 1.398 1_555 1_555
C10B C9B 1.397 1_555 1_555
C11B C6B 1.400 1_555 1_555
H1B C4B 1.084 1_555 1_555
H2B C5B 1.088 1_555 1_555
H3B C7B 1.086 1_555 1_555
H4B C8B 1.085 1_555 1_555
H5B C9B 1.086 1_555 1_555
H6B C10B 1.086 1_555 1_555
H7B C11B 1.084 1_555 1_555
C10 C11 1.397 1_555 1_555
C2J C3J 1.407 1_555 1_555
C4J C5J 1.367 1_555 1_555
C10J C11J 1.397 1_555 1_555
C10H C11H 1.397 1_555 1_555
C2B C3B 1.407 1_555 1_555
C4B C5B 1.367 1_555 1_555
C10B C11B 1.397 1_555 1_555
#END
