
#######################################################################
#
#                 Cambridge Crystallographic Data Centre
#                                CCDC
#
#######################################################################
#
# If this CIF has been generated from an entry in the Cambridge
# Structural Database, then it will include bibliographic, chemical,
# crystal, experimental, refinement or atomic coordinate data resulting
# from the CCDC's data processing and validation procedures.
#
#######################################################################

data_CSD_CIF_QQQCIG14
_audit_creation_date 2010-09-05
_audit_creation_method CSD-ConQuest-V1
_database_code_CSD QQQCIG14
_database_code_depnum_ccdc_archive 'CCDC 726176'
_chemical_formula_sum 'C42 H28'
_chemical_formula_moiety
;
C42 H28
;
_journal_coden_Cambridge 1145
_journal_volume 20
_journal_year 2010
_journal_page_first 159
_journal_name_full 'J.Mater.Chem. '
loop_
_publ_author_name
"Liwei Huang"
"Qing Liao"
"Qiang Shi"
"Hongbing Fu"
"Jinshi Ma"
"Jiannian Yao"
_chemical_name_systematic
;
5,6,11,12-Tetraphenyltetracene
;
_chemical_name_common
;
Rubrene
;
_cell_volume    683.504
_exptl_crystal_colour 'yellow'
_exptl_crystal_density_diffrn 1.294
_exptl_special_details
;
triclinic polymorph

;
_exptl_crystal_description 'plate'
_diffrn_ambient_temperature 173
#These two values have been output from a single CSD field.
_refine_ls_R_factor_gt 0.0672
_refine_ls_wR_factor_gt 0.0672
_symmetry_cell_setting triclinic
_symmetry_space_group_name_H-M 'P -1'
_symmetry_Int_Tables_number 2
loop_
_symmetry_equiv_pos_site_id
_symmetry_equiv_pos_as_xyz
1 x,y,z
2 -x,-y,-z
_cell_length_a 7.0196(14)
_cell_length_b 8.5432(17)
_cell_length_c 11.948(2)
_cell_angle_alpha 93.04(3)
_cell_angle_beta 105.58(3)
_cell_angle_gamma 96.28(3)
_cell_formula_units_Z 1
loop_
_atom_type_symbol
_atom_type_radius_bond
C 0.68
H 0.23
loop_
_atom_site_label
_atom_site_type_symbol
_atom_site_fract_x
_atom_site_fract_y
_atom_site_fract_z
C1 C 0.4714(3) 0.4476(2) 0.94576(17)
C2 C 0.2924(3) 0.4640(2) 0.85884(18)
C3 C 0.1620(3) 0.5672(3) 0.88137(19)
C4 C 0.5987(3) 0.3333(2) 0.93061(18)
C5 C 0.2166(3) 0.6688(3) 0.98744(19)
C6 C 0.2395(3) 0.3889(3) 0.73646(19)
C7 C 0.5353(3) 0.1985(3) 0.83734(19)
C8 C -0.0927(4) 0.7855(3) 0.9216(2)
H1 H -0.18020 0.85720 0.93510
C9 C 0.1022(3) 0.2530(3) 0.6990(2)
H2 H 0.04940 0.19920 0.75380
C10 C -0.0220(3) 0.5829(3) 0.7959(2)
H3 H -0.05830 0.51910 0.72400
C11 C 0.0816(4) 0.7781(3) 1.0038(2)
H4 H 0.11540 0.84620 1.07350
C12 C 0.4210(4) 0.0638(3) 0.8547(2)
H5 H 0.37570 0.06180 0.92280
C13 C 0.6024(3) 0.1980(3) 0.7377(2)
H6 H 0.68280 0.28830 0.72450
C14 C -0.1449(4) 0.6872(3) 0.8159(2)
H7 H -0.26650 0.69410 0.75860
C15 C 0.3113(4) 0.4670(3) 0.6537(2)
H8 H 0.40310 0.56080 0.67740
C16 C 0.4380(4) -0.0667(3) 0.6757(2)
H9 H 0.40500 -0.15650 0.62050
C17 C 0.3715(4) -0.0683(3) 0.7748(2)
H10 H 0.29240 -0.15920 0.78800
C18 C 0.1161(4) 0.2731(3) 0.5011(2)
H11 H 0.07520 0.23320 0.42150
C19 C 0.5525(4) 0.0663(3) 0.6575(2)
H12 H 0.59760 0.06770 0.58930
C20 C 0.0422(4) 0.1955(3) 0.5823(2)
H13 H -0.05030 0.10220 0.55810
C21 C 0.2503(4) 0.4095(3) 0.5368(2)
H14 H 0.30080 0.46390 0.48140
C1A C 0.5286(3) 0.5524(2) 1.05424(17)
C2A C 0.7076(3) 0.5360(2) 1.14116(18)
C3A C 0.8380(3) 0.4328(3) 1.11863(19)
C4A C 0.4013(3) 0.6667(2) 1.06939(18)
C5A C 0.7834(3) 0.3312(3) 1.01256(19)
C6A C 0.7605(3) 0.6111(3) 1.26354(19)
C7A C 0.4647(3) 0.8015(3) 1.16266(19)
C8A C 1.0927(4) 0.2145(3) 1.0784(2)
H1A H 1.18020 0.14280 1.06490
C9A C 0.8978(3) 0.7470(3) 1.3010(2)
H2A H 0.95060 0.80080 1.24620
C10A C 1.0220(3) 0.4171(3) 1.2041(2)
H3A H 1.05830 0.48090 1.27600
C11A C 0.9184(4) 0.2219(3) 0.9962(2)
H4A H 0.88460 0.15380 0.92650
C12A C 0.5790(4) 0.9362(3) 1.1453(2)
H5A H 0.62430 0.93820 1.07720
C13A C 0.3976(3) 0.8020(3) 1.2623(2)
H6A H 0.31720 0.71170 1.27550
C14A C 1.1449(4) 0.3128(3) 1.1841(2)
H7A H 1.26650 0.30590 1.24140
C15A C 0.6887(4) 0.5330(3) 1.3463(2)
H8A H 0.59690 0.43920 1.32260
C16A C 0.5620(4) 1.0667(3) 1.3243(2)
H9A H 0.59500 1.15650 1.37950
C17A C 0.6285(4) 1.0683(3) 1.2252(2)
H10A H 0.70760 1.15920 1.21200
C18A C 0.8839(4) 0.7269(3) 1.4989(2)
H11A H 0.92480 0.76680 1.57850
C19A C 0.4475(4) 0.9337(3) 1.3425(2)
H12A H 0.40240 0.93230 1.41070
C20A C 0.9578(4) 0.8045(3) 1.4177(2)
H13A H 1.05030 0.89780 1.44190
C21A C 0.7497(4) 0.5905(3) 1.4632(2)
H14A H 0.69920 0.53610 1.51860
loop_
_geom_bond_atom_site_label_1
_geom_bond_atom_site_label_2
_geom_bond_distance
_geom_bond_site_symmetry_1
_geom_bond_site_symmetry_2
C1 C2 1.425 1_555 1_555
C2 C3 1.404 1_555 1_555
C3 C5 1.434 1_555 1_555
C4 C1 1.430 1_555 1_555
C5 C11 1.443 1_555 1_555
C6 C2 1.498 1_555 1_555
C7 C4 1.501 1_555 1_555
C8 H1 0.951 1_555 1_555
C9 C6 1.395 1_555 1_555
H2 C9 0.950 1_555 1_555
C10 C3 1.440 1_555 1_555
H3 C10 0.950 1_555 1_555
C11 C8 1.358 1_555 1_555
H4 C11 0.949 1_555 1_555
C12 C7 1.387 1_555 1_555
H5 C12 0.950 1_555 1_555
C13 C7 1.393 1_555 1_555
H6 C13 0.951 1_555 1_555
C14 C8 1.416 1_555 1_555
H7 C14 0.950 1_555 1_555
C15 C6 1.393 1_555 1_555
H8 C15 0.950 1_555 1_555
C16 H9 0.950 1_555 1_555
C17 C12 1.388 1_555 1_555
H10 C17 0.950 1_555 1_555
C18 H11 0.949 1_555 1_555
C19 C13 1.388 1_555 1_555
H12 C19 0.950 1_555 1_555
C20 C9 1.389 1_555 1_555
H13 C20 0.950 1_555 1_555
C21 C15 1.391 1_555 1_555
H14 C21 0.950 1_555 1_555
C1A C1 1.470 1_555 1_555
C2A C1A 1.425 1_555 1_555
C3A C2A 1.404 1_555 1_555
C4A C5 1.402 1_555 1_555
C5A C4 1.402 1_555 1_555
C6A C2A 1.498 1_555 1_555
C7A C4A 1.501 1_555 1_555
C8A H1A 0.951 1_555 1_555
C9A C6A 1.395 1_555 1_555
H2A C9A 0.950 1_555 1_555
C10A C3A 1.440 1_555 1_555
H3A C10A 0.950 1_555 1_555
C11A C5A 1.443 1_555 1_555
H4A C11A 0.949 1_555 1_555
C12A C7A 1.387 1_555 1_555
H5A C12A 0.950 1_555 1_555
C13A C7A 1.393 1_555 1_555
H6A C13A 0.951 1_555 1_555
C14A C8A 1.416 1_555 1_555
H7A C14A 0.950 1_555 1_555
C15A C6A 1.393 1_555 1_555
H8A C15A 0.950 1_555 1_555
C16A H9A 0.950 1_555 1_555
C17A C12A 1.388 1_555 1_555
H10A C17A 0.950 1_555 1_555
C18A H11A 0.949 1_555 1_555
C19A C13A 1.388 1_555 1_555
H12A C19A 0.950 1_555 1_555
C20A C9A 1.389 1_555 1_555
H13A C20A 0.950 1_555 1_555
C21A C15A 1.391 1_555 1_555
H14A C21A 0.950 1_555 1_555
C10 C14 1.361 1_555 1_555
C16 C17 1.385 1_555 1_555
C16 C19 1.380 1_555 1_555
C18 C20 1.383 1_555 1_555
C18 C21 1.385 1_555 1_555
C1A C4A 1.430 1_555 1_555
C3A C5A 1.434 1_555 1_555
C8A C11A 1.358 1_555 1_555
C10A C14A 1.361 1_555 1_555
C16A C17A 1.385 1_555 1_555
C16A C19A 1.380 1_555 1_555
C18A C20A 1.383 1_555 1_555
C18A C21A 1.385 1_555 1_555
#END
