
#######################################################################
#
#                 Cambridge Crystallographic Data Centre
#                                CCDC
#
#######################################################################
#
# If this CIF has been generated from an entry in the Cambridge
# Structural Database, then it will include bibliographic, chemical,
# crystal, experimental, refinement or atomic coordinate data resulting
# from the CCDC's data processing and validation procedures.
#
#######################################################################

data_CSD_CIF_QQQCIG13
_audit_creation_date 2010-09-05
_audit_creation_method CSD-ConQuest-V1
_database_code_CSD QQQCIG13
_database_code_depnum_ccdc_archive 'CCDC 726175'
_chemical_formula_sum 'C42 H28'
_chemical_formula_moiety
;
C42 H28
;
_journal_coden_Cambridge 1145
_journal_volume 20
_journal_year 2010
_journal_page_first 159
_journal_name_full 'J.Mater.Chem. '
loop_
_publ_author_name
"Liwei Huang"
"Qing Liao"
"Qiang Shi"
"Hongbing Fu"
"Jinshi Ma"
"Jiannian Yao"
_chemical_name_systematic
;
5,6,11,12-Tetraphenyltetracene
;
_chemical_name_common
;
Rubrene
;
_cell_volume   1383.330
_exptl_crystal_colour 'orange'
_exptl_crystal_density_diffrn 1.279
_exptl_special_details
;
monoclinic polymorph

;
_exptl_crystal_description 'block'
_diffrn_ambient_temperature 173
#These two values have been output from a single CSD field.
_refine_ls_R_factor_gt 0.0494
_refine_ls_wR_factor_gt 0.0494
_symmetry_cell_setting monoclinic
_symmetry_space_group_name_H-M 'P 21/c'
_symmetry_Int_Tables_number 14
loop_
_symmetry_equiv_pos_site_id
_symmetry_equiv_pos_as_xyz
1 x,y,z
2 -x,1/2+y,1/2-z
3 -x,-y,-z
4 x,-1/2-y,-1/2+z
_cell_length_a 8.7397(17)
_cell_length_b 10.125(2)
_cell_length_c 15.635(3)
_cell_angle_alpha 90
_cell_angle_beta 90.98(3)
_cell_angle_gamma 90
_cell_formula_units_Z 2
loop_
_atom_type_symbol
_atom_type_radius_bond
C 0.68
H 0.23
loop_
_atom_site_label
_atom_site_type_symbol
_atom_site_fract_x
_atom_site_fract_y
_atom_site_fract_z
C1 C 0.17647(15) 1.27906(13) 0.18099(9)
H1 H 0.22870 1.32130 0.13580
C2 C 0.21308(16) 1.31069(14) 0.26531(9)
H2 H 0.29250 1.37230 0.27740
C3 C 0.13464(17) 1.25302(15) 0.33191(9)
H3 H 0.15910 1.27590 0.38950
C4 C 0.02078(17) 1.16215(14) 0.31409(9)
H4 H -0.03380 1.12270 0.35950
C5 C -0.01406(15) 1.12832(13) 0.22990(8)
H5 H -0.09200 1.06510 0.21820
C6 C 0.06385(14) 1.18589(12) 0.16235(8)
C7 C 0.01065(14) 1.14837(12) 0.07359(8)
C8 C 0.04701(14) 1.02417(12) 0.03590(8)
C9 C 0.17338(14) 0.94658(12) 0.06548(8)
C10 C 0.29635(14) 1.00181(13) 0.12276(8)
C11 C 0.40605(15) 1.08424(14) 0.08810(9)
H6 H 0.39950 1.10720 0.02920
C12 C 0.52543(16) 1.13364(16) 0.13854(10)
H7 H 0.59950 1.19050 0.11430
C13 C 0.53619(16) 1.09981(16) 0.22427(10)
H8 H 0.61700 1.13410 0.25900
C14 C 0.42887(17) 1.01592(15) 0.25916(9)
H9 H 0.43690 0.99210 0.31780
C15 C 0.30981(15) 0.96647(14) 0.20905(8)
H10 H 0.23710 0.90840 0.23340
C16 C 0.19559(14) 0.81858(12) 0.03378(8)
C17 C 0.31725(15) 0.73539(14) 0.06523(8)
H11 H 0.38550 0.76820 0.10810
C18 C 0.33697(17) 0.61086(14) 0.03502(9)
H12 H 0.41630 0.55690 0.05830
C19 C 0.23994(17) 0.56078(14) -0.03108(9)
H13 H 0.25260 0.47270 -0.05070
C20 C 0.12899(16) 0.63859(13) -0.06628(9)
H14 H 0.06880 0.60550 -0.11270
C21 C 0.10034(14) 0.76952(12) -0.03509(8)
C1B C -0.17647(15) 0.72094(13) -0.18099(9)
H1B H -0.22870 0.67870 -0.13580
C2B C -0.21308(16) 0.68931(14) -0.26531(9)
H2B H -0.29250 0.62770 -0.27740
C3B C -0.13464(17) 0.74698(15) -0.33191(9)
H3B H -0.15910 0.72410 -0.38950
C4B C -0.02078(17) 0.83785(14) -0.31409(9)
H4B H 0.03380 0.87730 -0.35950
C5B C 0.01406(15) 0.87168(13) -0.22990(8)
H5B H 0.09200 0.93490 -0.21820
C6B C -0.06385(14) 0.81411(12) -0.16235(8)
C7B C -0.01065(14) 0.85163(12) -0.07359(8)
C8B C -0.04701(14) 0.97583(12) -0.03590(8)
C9B C -0.17338(14) 1.05342(12) -0.06548(8)
C10B C -0.29635(14) 0.99819(13) -0.12276(8)
C11B C -0.40605(15) 0.91576(14) -0.08810(9)
H6B H -0.39950 0.89280 -0.02920
C12B C -0.52543(16) 0.86636(16) -0.13854(10)
H7B H -0.59950 0.80950 -0.11430
C13B C -0.53619(16) 0.90019(16) -0.22427(10)
H8B H -0.61700 0.86590 -0.25900
C14B C -0.42887(17) 0.98408(15) -0.25916(9)
H9B H -0.43690 1.00790 -0.31780
C15B C -0.30981(15) 1.03353(14) -0.20905(8)
H10B H -0.23710 1.09160 -0.23340
C16B C -0.19559(14) 1.18142(12) -0.03378(8)
C17B C -0.31725(15) 1.26461(14) -0.06523(8)
H11B H -0.38550 1.23180 -0.10810
C18B C -0.33697(17) 1.38914(14) -0.03502(9)
H12B H -0.41630 1.44310 -0.05830
C19B C -0.23994(17) 1.43922(14) 0.03108(9)
H13B H -0.25260 1.52730 0.05070
C20B C -0.12899(16) 1.36141(13) 0.06628(9)
H14B H -0.06880 1.39450 0.11270
C21B C -0.10034(14) 1.23048(12) 0.03509(8)
loop_
_geom_bond_atom_site_label_1
_geom_bond_atom_site_label_2
_geom_bond_distance
_geom_bond_site_symmetry_1
_geom_bond_site_symmetry_2
C1 H1 0.949 1_555 1_555
C2 C1 1.389 1_555 1_555
H2 C2 0.950 1_555 1_555
C3 C2 1.386 1_555 1_555
H3 C3 0.951 1_555 1_555
C4 C3 1.380 1_555 1_555
H4 C4 0.950 1_555 1_555
C5 C4 1.389 1_555 1_555
H5 C5 0.950 1_555 1_555
C6 C1 1.391 1_555 1_555
C7 C6 1.505 1_555 1_555
C8 C7 1.427 1_555 1_555
C9 C8 1.426 1_555 1_555
C10 C9 1.496 1_555 1_555
C11 C10 1.388 1_555 1_555
H6 C11 0.951 1_555 1_555
C12 C11 1.390 1_555 1_555
H7 C12 0.950 1_555 1_555
C13 C12 1.385 1_555 1_555
H8 C13 0.949 1_555 1_555
C14 C13 1.384 1_555 1_555
H9 C14 0.949 1_555 1_555
C15 C10 1.399 1_555 1_555
H10 C15 0.950 1_555 1_555
C16 C9 1.402 1_555 1_555
C17 C16 1.437 1_555 1_555
H11 C17 0.950 1_555 1_555
C18 C17 1.358 1_555 1_555
H12 C18 0.950 1_555 1_555
C19 C18 1.419 1_555 1_555
H13 C19 0.950 1_555 1_555
C20 C19 1.359 1_555 1_555
H14 C20 0.950 1_555 1_555
C21 C16 1.438 1_555 1_555
C1B H1B 0.949 1_555 1_555
C2B C1B 1.389 1_555 1_555
H2B C2B 0.950 1_555 1_555
C3B C2B 1.386 1_555 1_555
H3B C3B 0.951 1_555 1_555
C4B C3B 1.380 1_555 1_555
H4B C4B 0.950 1_555 1_555
C5B C4B 1.389 1_555 1_555
H5B C5B 0.950 1_555 1_555
C6B C1B 1.391 1_555 1_555
C7B C21 1.405 1_555 1_555
C8B C8 1.464 1_555 1_555
C9B C8B 1.426 1_555 1_555
C10B C9B 1.496 1_555 1_555
C11B C10B 1.388 1_555 1_555
H6B C11B 0.951 1_555 1_555
C12B C11B 1.390 1_555 1_555
H7B C12B 0.950 1_555 1_555
C13B C12B 1.385 1_555 1_555
H8B C13B 0.949 1_555 1_555
C14B C13B 1.384 1_555 1_555
H9B C14B 0.949 1_555 1_555
C15B C10B 1.399 1_555 1_555
H10B C15B 0.950 1_555 1_555
C16B C9B 1.402 1_555 1_555
C17B C16B 1.437 1_555 1_555
H11B C17B 0.950 1_555 1_555
C18B C17B 1.358 1_555 1_555
H12B C18B 0.950 1_555 1_555
C19B C18B 1.419 1_555 1_555
H13B C19B 0.950 1_555 1_555
C20B C19B 1.359 1_555 1_555
H14B C20B 0.950 1_555 1_555
C21B C7 1.405 1_555 1_555
C5 C6 1.394 1_555 1_555
C14 C15 1.385 1_555 1_555
C20 C21 1.436 1_555 1_555
C5B C6B 1.394 1_555 1_555
C6B C7B 1.505 1_555 1_555
C7B C8B 1.427 1_555 1_555
C14B C15B 1.385 1_555 1_555
C16B C21B 1.438 1_555 1_555
C20B C21B 1.436 1_555 1_555
#END
