
#######################################################################
#
#                 Cambridge Crystallographic Data Centre
#                                CCDC
#
#######################################################################
#
# If this CIF has been generated from an entry in the Cambridge
# Structural Database, then it will include bibliographic, chemical,
# crystal, experimental, refinement or atomic coordinate data resulting
# from the CCDC's data processing and validation procedures.
#
#######################################################################

data_CSD_CIF_QQQCIG27
_audit_creation_date 2016-06-09
_audit_creation_method CSD-ConQuest-V1
_database_code_CSD QQQCIG27
_database_code_depnum_ccdc_archive 'CCDC 991023'
_chemical_formula_sum 'C42 H28'
_chemical_formula_moiety
;
C42 H28
;
_journal_coden_Cambridge 983
_journal_volume 119
_journal_year 2014
_journal_page_first 13476
_journal_name_full 'J.Phys.Chem.C '
loop_
_publ_author_name
"S.Bergantin"
"M.Moret"
"G.Buth"
"F.P.A.Fabbiani"
_chemical_name_systematic
;
5,6,11,12-tetraphenyltetracene
;
_chemical_name_common
;
rubrene
;
_chemical_melting_point 588
_cell_volume    577.631
_exptl_crystal_colour 'red'
_exptl_crystal_density_diffrn 1.531
_exptl_special_details
;
Luminescent, high-pressure data collection in a diamond anvil cell.
polymorph I
Oxygen-sensitive, Light-sensitive
;
_exptl_crystal_description 'prism'
_exptl_crystal_preparation '1,1,2,2-Tetrachloroethane'
_diffrn_ambient_temperature 293
_diffrn_ambient_pressure 3580000.0
_diffrn_radiation_probe x-ray
_diffrn_source synchrotron
_diffrn_special_details
;
twin

;
#These two values have been output from a single CSD field.
_refine_ls_R_factor_gt 0.0656
_refine_ls_wR_factor_gt 0.0656
_symmetry_cell_setting triclinic
_symmetry_space_group_name_H-M 'P -1'
_symmetry_Int_Tables_number 2
loop_
_symmetry_equiv_pos_site_id
_symmetry_equiv_pos_as_xyz
1 x,y,z
2 -x,-y,-z
_cell_length_a 6.6779(5)
_cell_length_b 7.9256(17)
_cell_length_c 11.3415(16)
_cell_angle_alpha 89.367(17)
_cell_angle_beta 104.460(7)
_cell_angle_gamma 96.321(9)
_cell_formula_units_Z 1
loop_
_atom_type_symbol
_atom_type_radius_bond
C 0.68
H 0.23
loop_
_atom_site_label
_atom_site_type_symbol
_atom_site_fract_x
_atom_site_fract_y
_atom_site_fract_z
C1 C 0.5439(10) 0.1832(12) 0.8384(7)
C2 C 0.4103(10) 0.0432(12) 0.8559(6)
H1 H 0.36080 0.03670 0.92570
C3 C 0.3507(9) -0.0872(11) 0.7690(7)
H2 H 0.26140 -0.18080 0.78070
C4 C 0.4247(10) -0.0774(11) 0.6647(7)
H3 H 0.38480 -0.16460 0.60660
C5 C 0.5583(10) 0.0626(12) 0.6472(6)
H4 H 0.60770 0.06910 0.57740
C6 C 0.6178(9) 0.1929(11) 0.7341(7)
H5 H 0.70720 0.28660 0.72240
C7 C 0.2307(9) 0.3885(11) 0.7283(6)
C8 C 0.0919(8) 0.2426(11) 0.6968(6)
H6 H 0.03860 0.18460 0.75590
C9 C 0.0328(8) 0.1834(10) 0.5768(6)
H7 H -0.06010 0.08570 0.55570
C10 C 0.1124(9) 0.2701(11) 0.4884(6)
H8 H 0.07280 0.23050 0.40810
C11 C 0.2512(9) 0.4160(11) 0.5199(6)
H9 H 0.30450 0.47400 0.46070
C12 C 0.3103(9) 0.4752(10) 0.6398(7)
H10 H 0.40320 0.57290 0.66090
C13 C 0.6102(12) 0.3289(19) 0.9304(12)
C14 C 0.4724(11) 0.445(2) 0.9450(12)
C15 C 0.2835(11) 0.462(2) 0.8569(10)
C16 C 0.1425(11) 0.567(2) 0.8790(12)
C17 C -0.0499(12) 0.587(2) 0.7903(13)
H11 H -0.08200 0.52570 0.71720
C18 C -0.1821(12) 0.689(2) 0.8104(13)
H12 H -0.30750 0.69560 0.75290
C19 C -0.1342(12) 0.790(2) 0.9189(13)
H13 H -0.22880 0.86010 0.93310
C20 C 0.0481(12) 0.783(2) 1.0005(13)
H14 H 0.08050 0.85510 1.06820
C21 C 0.1969(12) 0.669(2) 0.9893(12)
C1A C 0.4561(10) 0.8168(12) 1.1616(7)
C2A C 0.5897(10) 0.9568(12) 1.1441(6)
H1A H 0.63920 0.96330 1.07430
C3A C 0.6493(9) 1.0872(11) 1.2310(7)
H2A H 0.73860 1.18080 1.21930
C4A C 0.5753(10) 1.0774(11) 1.3353(7)
H3A H 0.61520 1.16460 1.39340
C5A C 0.4417(10) 0.9374(12) 1.3528(6)
H4A H 0.39230 0.93090 1.42260
C6A C 0.3822(9) 0.8071(11) 1.2659(7)
H5A H 0.29280 0.71340 1.27760
C7A C 0.7693(9) 0.6115(11) 1.2717(6)
C8A C 0.9081(8) 0.7574(11) 1.3032(6)
H6A H 0.96140 0.81540 1.24410
C9A C 0.9672(8) 0.8166(10) 1.4232(6)
H7A H 1.06010 0.91430 1.44430
C10A C 0.8876(9) 0.7299(11) 1.5116(6)
H8A H 0.92720 0.76950 1.59190
C11A C 0.7488(9) 0.5840(11) 1.4801(6)
H9A H 0.69550 0.52600 1.53930
C12A C 0.6897(9) 0.5248(10) 1.3602(7)
H10A H 0.59680 0.42710 1.33910
C13A C 0.3898(12) 0.6711(19) 1.0696(12)
C14A C 0.5276(11) 0.555(2) 1.0550(12)
C15A C 0.7165(11) 0.538(2) 1.1431(10)
C16A C 0.8575(11) 0.433(2) 1.1210(12)
C17A C 1.0499(12) 0.413(2) 1.2097(13)
H11A H 1.08200 0.47430 1.28280
C18A C 1.1821(12) 0.311(2) 1.1896(13)
H12A H 1.30750 0.30440 1.24710
C19A C 1.1342(12) 0.210(2) 1.0811(13)
H13A H 1.22880 0.13990 1.06690
C20A C 0.9519(12) 0.217(2) 0.9995(13)
H14A H 0.91950 0.14490 0.93180
C21A C 0.8031(12) 0.331(2) 1.0107(12)
loop_
_geom_bond_atom_site_label_1
_geom_bond_atom_site_label_2
_geom_bond_distance
_geom_bond_site_symmetry_1
_geom_bond_site_symmetry_2
C1 C2 1.390 1_555 1_555
C2 H1 0.930 1_555 1_555
C3 C2 1.391 1_555 1_555
H2 C3 0.929 1_555 1_555
C4 C3 1.390 1_555 1_555
H3 C4 0.930 1_555 1_555
C5 C4 1.390 1_555 1_555
H4 C5 0.929 1_555 1_555
C6 C1 1.389 1_555 1_555
H5 C6 0.930 1_555 1_555
C7 C8 1.390 1_555 1_555
C8 H6 0.929 1_555 1_555
C9 C8 1.390 1_555 1_555
H7 C9 0.931 1_555 1_555
C10 C9 1.389 1_555 1_555
H8 C10 0.930 1_555 1_555
C11 C10 1.390 1_555 1_555
H9 C11 0.930 1_555 1_555
C12 C7 1.390 1_555 1_555
H10 C12 0.931 1_555 1_555
C13 C1 1.517 1_555 1_555
C14 C13 1.410 1_555 1_555
C15 C7 1.519 1_555 1_555
C16 C15 1.392 1_555 1_555
C17 C16 1.444 1_555 1_555
H11 C17 0.931 1_555 1_555
C18 C17 1.322 1_555 1_555
H12 C18 0.930 1_555 1_555
C19 C18 1.423 1_555 1_555
H13 C19 0.929 1_555 1_555
C20 C19 1.339 1_555 1_555
H14 C20 0.929 1_555 1_555
C21 C16 1.443 1_555 1_555
C1A C2A 1.390 1_555 1_555
C2A H1A 0.930 1_555 1_555
C3A C2A 1.391 1_555 1_555
H2A C3A 0.929 1_555 1_555
C4A C3A 1.390 1_555 1_555
H3A C4A 0.930 1_555 1_555
C5A C4A 1.390 1_555 1_555
H4A C5A 0.929 1_555 1_555
C6A C1A 1.389 1_555 1_555
H5A C6A 0.930 1_555 1_555
C7A C8A 1.390 1_555 1_555
C8A H6A 0.929 1_555 1_555
C9A C8A 1.390 1_555 1_555
H7A C9A 0.931 1_555 1_555
C10A C9A 1.389 1_555 1_555
H8A C10A 0.930 1_555 1_555
C11A C10A 1.390 1_555 1_555
H9A C11A 0.930 1_555 1_555
C12A C7A 1.390 1_555 1_555
H10A C12A 0.931 1_555 1_555
C13A C21 1.378 1_555 1_555
C14A C14 1.475 1_555 1_555
C15A C7A 1.519 1_555 1_555
C16A C15A 1.392 1_555 1_555
C17A C16A 1.444 1_555 1_555
H11A C17A 0.931 1_555 1_555
C18A C17A 1.322 1_555 1_555
H12A C18A 0.930 1_555 1_555
C19A C18A 1.423 1_555 1_555
H13A C19A 0.929 1_555 1_555
C20A C19A 1.339 1_555 1_555
H14A C20A 0.929 1_555 1_555
C21A C13 1.378 1_555 1_555
C5 C6 1.390 1_555 1_555
C11 C12 1.389 1_555 1_555
C14 C15 1.419 1_555 1_555
C20 C21 1.443 1_555 1_555
C1A C13A 1.517 1_555 1_555
C5A C6A 1.390 1_555 1_555
C11A C12A 1.389 1_555 1_555
C13A C14A 1.410 1_555 1_555
C14A C15A 1.419 1_555 1_555
C16A C21A 1.443 1_555 1_555
C20A C21A 1.443 1_555 1_555
#END
