
#######################################################################
#
#                 Cambridge Crystallographic Data Centre
#                                CCDC
#
#######################################################################
#
# If this CIF has been generated from an entry in the Cambridge
# Structural Database, then it will include bibliographic, chemical,
# crystal, experimental, refinement or atomic coordinate data resulting
# from the CCDC's data processing and validation procedures.
#
#######################################################################

data_CSD_CIF_QQQCIG04
_audit_creation_date 2006-05-23
_audit_creation_method CSD-ConQuest-V1
_database_code_CSD QQQCIG04
_database_code_depnum_ccdc_archive 'CCDC 605647'
_chemical_formula_sum 'C42 H28'
_chemical_formula_moiety
;
C42 H28
;
_journal_coeditor_code "IUCr BK5027"
_journal_coden_Cambridge 622
_journal_volume 62
_journal_year 2006
_journal_page_first 330
_journal_name_full 'Acta Crystallogr.,Sect.B:Struct.Sci. '
loop_
_publ_author_name
"O.D.Jurchescu"
"A.Meetsma"
"T.T.M.Palstra"
_chemical_name_systematic
;
Rubrene
;
_cell_volume   2729.608
_exptl_crystal_colour 'orange'
_exptl_crystal_density_diffrn 1.296
_exptl_special_details
;
orthorhombic polymorph

;
_exptl_crystal_description 'platelet'
_diffrn_ambient_temperature 100.0
#These two values have been output from a single CSD field.
_refine_ls_R_factor_gt 0.0372
_refine_ls_wR_factor_gt 0.0372
_symmetry_cell_setting orthorhombic
_symmetry_space_group_name_H-M 'C m c a'
_symmetry_Int_Tables_number 64
loop_
_symmetry_equiv_pos_site_id
_symmetry_equiv_pos_as_xyz
1 x,y,z
2 1/2+x,1/2+y,z
3 -x,1/2-y,1/2+z
4 x,-y,-z
5 -x,1/2+y,1/2-z
6 1/2-x,-y,1/2+z
7 1/2+x,1/2-y,-z
8 1/2-x,y,1/2-z
9 -x,-y,-z
10 -1/2-x,-1/2-y,-z
11 x,-1/2+y,-1/2-z
12 -x,y,z
13 x,-1/2-y,-1/2+z
14 -1/2+x,y,-1/2-z
15 -1/2-x,-1/2+y,z
16 -1/2+x,-y,-1/2+z
_cell_length_a 26.789(4)
_cell_length_b 7.170(1)
_cell_length_c 14.211(2)
_cell_angle_alpha 90
_cell_angle_beta 90
_cell_angle_gamma 90
_cell_formula_units_Z 4
loop_
_atom_type_symbol
_atom_type_radius_bond
C 0.68
H 0.23
loop_
_atom_site_label
_atom_site_type_symbol
_atom_site_fract_x
_atom_site_fract_y
_atom_site_fract_z
C1 C 0.02737(6) 0.00000 0.00000
C2 C 0.05314(5) -0.14464(16) 0.04914(8)
C3 C 0.02678(5) -0.29578(16) 0.08755(8)
C4 C 0.05191(5) -0.44754(17) 0.13412(9)
C5 C 0.02646(5) -0.58934(17) 0.17534(9)
C6 C 0.10760(5) -0.13448(16) 0.07274(8)
C7 C 0.14292(5) -0.24817(18) 0.02881(9)
C8 C 0.19199(5) -0.25089(19) 0.05979(10)
C9 C 0.20685(5) -0.1389(2) 0.13448(10)
C10 C 0.17219(5) -0.0251(2) 0.17857(10)
C11 C 0.12302(5) -0.02362(18) 0.14816(9)
H1 H 0.0883(5) -0.447(2) 0.1357(10)
H2 H 0.0438(5) -0.689(2) 0.2065(10)
H3 H 0.1328(5) -0.327(2) -0.0256(10)
H4 H 0.2167(5) -0.332(2) 0.0279(11)
H5 H 0.2413(6) -0.140(2) 0.1546(10)
H6 H 0.1825(6) 0.054(2) 0.2311(12)
H7 H 0.0978(5) 0.054(2) 0.1804(11)
C1H C -0.02737(6) 0.00000 0.00000
C2K C -0.05314(5) -0.14464(16) 0.04914(8)
C2C C 0.05314(5) 0.14464(16) -0.04914(8)
C2H C -0.05314(5) 0.14464(16) -0.04914(8)
C3K C -0.02678(5) -0.29578(16) 0.08755(8)
C3C C 0.02678(5) 0.29578(16) -0.08755(8)
C3H C -0.02678(5) 0.29578(16) -0.08755(8)
C4H C -0.05191(5) 0.44754(17) -0.13412(9)
C4C C 0.05191(5) 0.44754(17) -0.13412(9)
C4K C -0.05191(5) -0.44754(17) 0.13412(9)
C5H C -0.02646(5) 0.58934(17) -0.17534(9)
C5C C 0.02646(5) 0.58934(17) -0.17534(9)
C5K C -0.02646(5) -0.58934(17) 0.17534(9)
C6H C -0.10760(5) 0.13448(16) -0.07274(8)
C6C C 0.10760(5) 0.13448(16) -0.07274(8)
C6K C -0.10760(5) -0.13448(16) 0.07274(8)
C7H C -0.14292(5) 0.24817(18) -0.02881(9)
C7C C 0.14292(5) 0.24817(18) -0.02881(9)
C7K C -0.14292(5) -0.24817(18) 0.02881(9)
C8H C -0.19199(5) 0.25089(19) -0.05979(10)
C8C C 0.19199(5) 0.25089(19) -0.05979(10)
C8K C -0.19199(5) -0.25089(19) 0.05979(10)
C9H C -0.20685(5) 0.1389(2) -0.13448(10)
C9C C 0.20685(5) 0.1389(2) -0.13448(10)
C9K C -0.20685(5) -0.1389(2) 0.13448(10)
C10H C -0.17219(5) 0.0251(2) -0.17857(10)
C10C C 0.17219(5) 0.0251(2) -0.17857(10)
C10K C -0.17219(5) -0.0251(2) 0.17857(10)
C11H C -0.12302(5) 0.02362(18) -0.14816(9)
C11C C 0.12302(5) 0.02362(18) -0.14816(9)
C11K C -0.12302(5) -0.02362(18) 0.14816(9)
H1C H 0.0883(5) 0.447(2) -0.1357(10)
H1H H -0.0883(5) 0.447(2) -0.1357(10)
H1K H -0.0883(5) -0.447(2) 0.1357(10)
H2C H 0.0438(5) 0.689(2) -0.2065(10)
H2H H -0.0438(5) 0.689(2) -0.2065(10)
H2K H -0.0438(5) -0.689(2) 0.2065(10)
H3H H -0.1328(5) 0.327(2) 0.0256(10)
H3C H 0.1328(5) 0.327(2) 0.0256(10)
H3K H -0.1328(5) -0.327(2) -0.0256(10)
H4H H -0.2167(5) 0.332(2) -0.0279(11)
H4C H 0.2167(5) 0.332(2) -0.0279(11)
H4K H -0.2167(5) -0.332(2) 0.0279(11)
H5H H -0.2413(6) 0.140(2) -0.1546(10)
H5C H 0.2413(6) 0.140(2) -0.1546(10)
H5K H -0.2413(6) -0.140(2) 0.1546(10)
H6H H -0.1825(6) -0.054(2) -0.2311(12)
H6C H 0.1825(6) -0.054(2) -0.2311(12)
H6K H -0.1825(6) 0.054(2) 0.2311(12)
H7H H -0.0978(5) -0.054(2) -0.1804(11)
H7C H 0.0978(5) -0.054(2) -0.1804(11)
H7K H -0.0978(5) 0.054(2) 0.1804(11)
loop_
_geom_bond_atom_site_label_1
_geom_bond_atom_site_label_2
_geom_bond_distance
_geom_bond_site_symmetry_1
_geom_bond_site_symmetry_2
C1 C2 1.428 1_555 1_555
C2 C3 1.404 1_555 1_555
C3 C4 1.441 1_555 1_555
C4 C5 1.357 1_555 1_555
C5 H2 0.960 1_555 1_555
C6 C2 1.499 1_555 1_555
C7 C6 1.396 1_555 1_555
C8 C7 1.386 1_555 1_555
C9 C8 1.389 1_555 1_555
C10 C9 1.386 1_555 1_555
C11 C6 1.397 1_555 1_555
H1 C4 0.975 1_555 1_555
H3 C7 0.995 1_555 1_555
H4 C8 0.991 1_555 1_555
H5 C9 0.966 1_555 1_555
H6 C10 0.977 1_555 1_555
H7 C11 0.988 1_555 1_555
C1H C1 1.466 1_555 1_555
C2K C1H 1.428 1_555 1_555
C2C C1 1.428 1_555 1_555
C2H C1H 1.428 1_555 1_555
C3K C3 1.435 1_555 1_555
C3C C2C 1.404 1_555 1_555
C3H C2H 1.404 1_555 1_555
C4H C3H 1.441 1_555 1_555
C4C C3C 1.441 1_555 1_555
C4K C3K 1.441 1_555 1_555
C5H C4H 1.357 1_555 1_555
C5C C4C 1.357 1_555 1_555
C5K C5 1.418 1_555 1_555
C6H C2H 1.499 1_555 1_555
C6C C2C 1.499 1_555 1_555
C6K C2K 1.499 1_555 1_555
C7H C6H 1.396 1_555 1_555
C7C C6C 1.396 1_555 1_555
C7K C6K 1.396 1_555 1_555
C8H C7H 1.386 1_555 1_555
C8C C7C 1.386 1_555 1_555
C8K C7K 1.386 1_555 1_555
C9H C8H 1.389 1_555 1_555
C9C C8C 1.389 1_555 1_555
C9K C8K 1.389 1_555 1_555
C10H C9H 1.386 1_555 1_555
C10C C9C 1.386 1_555 1_555
C10K C9K 1.386 1_555 1_555
C11H C6H 1.397 1_555 1_555
C11C C6C 1.397 1_555 1_555
C11K C6K 1.397 1_555 1_555
H1C C4C 0.975 1_555 1_555
H1H C4H 0.975 1_555 1_555
H1K C4K 0.975 1_555 1_555
H2C C5C 0.960 1_555 1_555
H2H C5H 0.960 1_555 1_555
H2K C5K 0.960 1_555 1_555
H3H C7H 0.995 1_555 1_555
H3C C7C 0.995 1_555 1_555
H3K C7K 0.995 1_555 1_555
H4H C8H 0.991 1_555 1_555
H4C C8C 0.991 1_555 1_555
H4K C8K 0.991 1_555 1_555
H5H C9H 0.966 1_555 1_555
H5C C9C 0.966 1_555 1_555
H5K C9K 0.966 1_555 1_555
H6H C10H 0.977 1_555 1_555
H6C C10C 0.977 1_555 1_555
H6K C10K 0.977 1_555 1_555
H7H C11H 0.988 1_555 1_555
H7C C11C 0.988 1_555 1_555
H7K C11K 0.988 1_555 1_555
C10 C11 1.386 1_555 1_555
C2K C3K 1.404 1_555 1_555
C3C C3H 1.435 1_555 1_555
C4K C5K 1.357 1_555 1_555
C5H C5C 1.418 1_555 1_555
C10H C11H 1.386 1_555 1_555
C10C C11C 1.386 1_555 1_555
C10K C11K 1.386 1_555 1_555
#END
