
#######################################################################
#
#                 Cambridge Crystallographic Data Centre
#                                CCDC
#
#######################################################################
#
# If this CIF has been generated from an entry in the Cambridge
# Structural Database, then it will include bibliographic, chemical,
# crystal, experimental, refinement or atomic coordinate data resulting
# from the CCDC's data processing and validation procedures.
#
#######################################################################

data_CSD_CIF_QUJNEQ
_audit_creation_date 2015-06-09
_audit_creation_method CSD-ConQuest-V1
_database_code_CSD QUJNEQ
_database_code_depnum_ccdc_archive 'CCDC 1051158'
_chemical_formula_sum 'C38 H22'
_chemical_formula_moiety
;
C38 H22
;
_journal_coden_Cambridge 179
_journal_volume 54
_journal_year 2015
_journal_page_first 6847
_journal_name_full 'Angew.Chem.,Int.Ed. '
loop_
_publ_author_name
"K.Mori"
"T.Murase"
"M.Fujita"
_chemical_name_systematic
;
nonahelicene
;
_cell_volume   3561.571
_exptl_crystal_colour 'yellow'
_exptl_crystal_density_diffrn 1.339
_exptl_crystal_description 'needle'
_diffrn_ambient_temperature 90
#These two values have been output from a single CSD field.
_refine_ls_R_factor_gt 0.0823
_refine_ls_wR_factor_gt 0.0823
_symmetry_cell_setting monoclinic
_symmetry_space_group_name_H-M 'P 21'
_symmetry_Int_Tables_number 4
loop_
_symmetry_equiv_pos_site_id
_symmetry_equiv_pos_as_xyz
1 x,y,z
2 -x,1/2+y,-z
_cell_length_a 9.9439(10)
_cell_length_b 14.2085(14)
_cell_length_c 25.208(3)
_cell_angle_alpha 90
_cell_angle_beta 90.165(1)
_cell_angle_gamma 90
_cell_formula_units_Z 6
loop_
_atom_type_symbol
_atom_type_radius_bond
C 0.68
H 0.23
loop_
_atom_site_label
_atom_site_type_symbol
_atom_site_fract_x
_atom_site_fract_y
_atom_site_fract_z
C1 C 0.4944(6) 0.3500(4) 0.9821(2)
C2 C 0.5855(6) 0.4054(4) 0.8817(3)
C3 C 0.2032(6) 0.2501(4) 0.8742(2)
C4 C 0.6783(6) 0.3874(4) 0.9239(3)
H1 H 0.77150 0.39880 0.91870
C5 C 0.4093(6) 0.4253(4) 0.7949(2)
C6 C 0.2616(6) 0.3925(4) 0.9602(2)
C7 C 0.1674(6) 0.4447(4) 0.9292(2)
H2 H 0.19410 0.46920 0.89580
C8 C -0.0307(6) 0.2742(5) 0.8450(3)
H3 H -0.12430 0.26650 0.85100
C9 C 0.4460(6) 0.3853(4) 0.8892(2)
C10 C 0.4805(6) 0.1839(4) 0.8354(2)
H4 H 0.42250 0.21300 0.81020
C11 C 0.2485(6) 0.1466(4) 0.9504(2)
C12 C 0.4333(6) 0.1672(4) 0.8874(2)
C13 C 0.2226(6) 0.3682(4) 1.0122(2)
C14 C 0.0641(6) 0.2355(4) 0.8818(2)
C15 C 0.6345(6) 0.3544(4) 0.9713(3)
H5 H 0.69760 0.33420 0.99730
C16 C 0.3640(6) 0.3773(4) 0.8413(2)
C17 C 0.5181(6) 0.1174(4) 0.9224(3)
C18 C 0.3207(7) 0.4372(5) 0.7512(2)
H6 H 0.35170 0.46730 0.71990
C19 C 0.2416(6) 0.3238(4) 0.8382(2)
C20 C 0.3993(6) 0.3745(4) 0.9432(2)
C21 C 0.6098(6) 0.1585(4) 0.8202(3)
H7 H 0.64040 0.17090 0.78520
C22 C 0.2956(6) 0.1912(4) 0.9041(2)
C23 C 0.0898(6) 0.3831(5) 1.0284(2)
H8 H 0.06280 0.36220 1.06250
C24 C 0.6306(6) 0.4435(4) 0.8331(3)
H9 H 0.72320 0.45770 0.82870
C25 C 0.4515(6) 0.3268(5) 1.0347(3)
H10 H 0.51620 0.30820 1.06040
C26 C 0.6949(7) 0.1143(4) 0.8573(3)
H11 H 0.78410 0.09830 0.84740
C27 C 0.6509(6) 0.0941(5) 0.9073(3)
H12 H 0.70940 0.06430 0.93190
C28 C 0.0185(6) 0.1855(4) 0.9276(3)
H13 H -0.07520 0.17890 0.93390
C29 C 0.0396(6) 0.4598(4) 0.9468(3)
H14 H -0.02220 0.49330 0.92500
C30 C 0.4674(7) 0.0860(4) 0.9729(3)
H15 H 0.52650 0.05740 0.99780
C31 C 0.0115(7) 0.3213(5) 0.8022(3)
H16 H -0.05030 0.33560 0.77450
C32 C 0.1480(6) 0.3501(4) 0.7976(3)
C33 C 0.1069(7) 0.1483(5) 0.9615(3)
H17 H 0.07540 0.12220 0.99390
C34 C 0.1921(7) 0.4058(5) 0.7536(3)
H18 H 0.13070 0.42100 0.72600
C35 C 0.3376(7) 0.0970(4) 0.9848(2)
H19 H 0.30390 0.07120 1.01680
C36 C 0.3207(7) 0.3309(4) 1.0481(3)
H20 H 0.29310 0.30870 1.08190
C37 C -0.0017(6) 0.4266(5) 0.9966(3)
H21 H -0.09210 0.43440 1.00790
C38 C 0.5438(7) 0.4603(5) 0.7925(3)
H22 H 0.57250 0.49530 0.76250
C39 C 0.1954(6) 0.6595(4) 0.7277(2)
C40 C 0.1142(6) 0.8647(4) 0.7108(3)
C41 C 0.3279(6) 0.6986(4) 0.7230(2)
C42 C 0.4140(6) 0.6607(4) 0.6840(2)
C43 C 0.1736(6) 0.6647(4) 0.8288(2)
C44 C 0.3602(6) 0.6472(4) 0.8913(2)
H23 H 0.45160 0.63200 0.89810
C45 C 0.2950(6) 0.8432(4) 0.7821(2)
C46 C 0.3801(6) 0.7756(4) 0.7550(2)
C47 C 0.3102(6) 0.6434(4) 0.8397(2)
H24 H 0.36840 0.62620 0.81140
C48 C 0.2753(7) 0.6737(4) 0.9336(2)
H25 H 0.31060 0.68030 0.96850
C49 C 0.1604(6) 0.8695(4) 0.7654(2)
C50 C 0.2255(7) 0.5900(4) 0.6395(2)
H26 H 0.18770 0.56250 0.60850
C51 C -0.0635(7) 0.9242(5) 0.7911(3)
H27 H -0.12240 0.94690 0.81790
C52 C 0.2026(7) 0.8583(4) 0.6664(2)
H28 H 0.29680 0.85410 0.67230
C53 C 0.3597(7) 0.6044(5) 0.6419(2)
H29 H 0.41740 0.57750 0.61610
C54 C 0.1166(6) 0.6584(4) 0.7763(2)
C55 C 0.6056(7) 0.7332(5) 0.7269(3)
H30 H 0.70020 0.73740 0.73180
C56 C -0.0233(6) 0.6424(4) 0.7720(3)
C57 C 0.0749(6) 0.9110(4) 0.8033(3)
C58 C 0.5730(7) 0.8415(5) 0.8030(3)
H31 H 0.66760 0.84780 0.80700
C59 C 0.1411(6) 0.6148(4) 0.6814(3)
C60 C 0.0010(7) 0.5915(5) 0.6813(3)
H32 H -0.03690 0.56220 0.65090
C61 C -0.0262(7) 0.8793(4) 0.7004(3)
C62 C 0.5193(6) 0.7836(4) 0.7614(2)
C63 C -0.0542(6) 0.6798(4) 0.8649(3)
H33 H -0.11200 0.69540 0.89350
C64 C 0.5563(6) 0.6789(5) 0.6869(2)
H34 H 0.61520 0.65330 0.66110
C65 C -0.1129(7) 0.9051(5) 0.7423(3)
H35 H -0.20700 0.90900 0.73610
C66 C 0.4900(7) 0.8870(5) 0.8365(2)
H36 H 0.52630 0.91790 0.86670
C67 C 0.3490(7) 0.8895(4) 0.8273(2)
C68 C 0.0874(6) 0.6809(4) 0.8726(3)
C69 C -0.0785(7) 0.6098(4) 0.7232(3)
H37 H -0.17290 0.60090 0.72010
C70 C 0.1427(7) 0.6896(4) 0.9239(2)
H38 H 0.08580 0.70710 0.95240
C71 C 0.1298(7) 0.9427(5) 0.8523(3)
H39 H 0.07070 0.96780 0.87830
C72 C -0.1069(6) 0.6570(4) 0.8176(3)
H40 H -0.20160 0.65020 0.81430
C73 C 0.2611(7) 0.9387(4) 0.8633(3)
H41 H 0.29610 0.96790 0.89430
C74 C 0.1543(8) 0.8580(5) 0.6159(3)
H42 H 0.21570 0.85450 0.58710
C75 C 0.0166(8) 0.8626(5) 0.6052(3)
H43 H -0.01560 0.85780 0.56980
C76 C -0.0718(8) 0.8741(5) 0.6463(3)
H44 H -0.16530 0.87860 0.63890
C77 C 0.2240(7) 0.0922(5) 0.5502(3)
H45 H 0.25130 0.06300 0.58240
C78 C 0.5270(6) 0.3317(4) 0.6658(3)
H46 H 0.46620 0.29800 0.68780
C79 C 0.4978(6) 0.1482(4) 0.5954(3)
C80 C 0.2737(7) 0.1891(5) 0.4740(3)
C81 C 0.3082(9) 0.3968(5) 0.5499(3)
C82 C 0.2550(6) 0.2781(5) 0.6175(2)
C83 C 0.3145(6) 0.1525(4) 0.5242(2)
C84 C 0.4148(7) 0.1442(4) 0.6418(3)
C85 C 0.0980(7) 0.0743(5) 0.5308(3)
H47 H 0.03920 0.03370 0.54980
C86 C 0.4510(6) 0.1713(4) 0.5425(3)
C87 C 0.3509(7) 0.3430(4) 0.5936(3)
C88 C 0.2911(6) 0.1969(5) 0.6478(2)
C89 C 0.4857(7) 0.3611(4) 0.6146(3)
C90 C 0.6372(8) 0.1288(5) 0.6022(4)
C91 C 0.1158(7) 0.2954(6) 0.6081(3)
C92 C 0.5433(7) 0.2053(5) 0.5054(3)
C93 C 0.1424(9) 0.1705(5) 0.4542(3)
H48 H 0.11480 0.19600 0.42100
C94 C 0.0550(8) 0.1154(5) 0.4830(3)
H49 H -0.03410 0.10530 0.47060
C95 C 0.5774(8) 0.4162(5) 0.5840(3)
C96 C 0.1966(9) 0.1614(6) 0.6852(3)
C97 C 0.6556(7) 0.3518(5) 0.6842(3)
H50 H 0.68240 0.33030 0.71830
C98 C 0.461(1) 0.0886(5) 0.6843(3)
C99 C 0.3669(10) 0.2391(5) 0.4422(3)
H51 H 0.33710 0.27040 0.41100
C100 C 0.4045(11) 0.4512(5) 0.5207(3)
H52 H 0.37580 0.48460 0.49000
C101 C 0.5331(11) 0.4559(5) 0.5354(3)
H53 H 0.59610 0.48640 0.51300
C102 C 0.1726(11) 0.4005(6) 0.5358(4)
H54 H 0.14580 0.43340 0.50470
C103 C 0.4981(10) 0.2424(5) 0.4562(3)
H55 H 0.56120 0.26990 0.43260
C104 C 0.6852(8) 0.1995(6) 0.5170(4)
H56 H 0.74870 0.22570 0.49310
C105 C 0.7279(7) 0.1568(6) 0.5619(4)
H57 H 0.82120 0.14530 0.56670
C106 C 0.0214(8) 0.2483(7) 0.6411(4)
H58 H -0.07190 0.25780 0.63510
C107 C 0.684(1) 0.0825(7) 0.6484(5)
H59 H 0.77670 0.06820 0.65260
C108 C 0.7051(8) 0.4353(6) 0.6047(4)
H60 H 0.76640 0.47170 0.58440
C109 C 0.2401(13) 0.0978(7) 0.7247(3)
H61 H 0.17760 0.07610 0.75040
C110 C 0.5962(12) 0.0592(6) 0.6862(4)
H62 H 0.62570 0.02160 0.71520
C111 C 0.0751(10) 0.3558(6) 0.5675(4)
H63 H -0.01790 0.36670 0.56120
C112 C 0.7444(8) 0.4022(6) 0.6541(4)
H64 H 0.83260 0.41430 0.66690
C113 C 0.0609(9) 0.1902(8) 0.6811(4)
H65 H -0.00300 0.16880 0.70630
C114 C 0.3705(14) 0.0666(7) 0.7269(4)
H66 H 0.40080 0.03070 0.75640
loop_
_geom_bond_atom_site_label_1
_geom_bond_atom_site_label_2
_geom_bond_distance
_geom_bond_site_symmetry_1
_geom_bond_site_symmetry_2
C1 C15 1.422 1_555 1_555
C2 C4 1.429 1_555 1_555
C3 C14 1.412 1_555 1_555
C4 H1 0.950 1_555 1_555
C5 C16 1.428 1_555 1_555
C6 C7 1.426 1_555 1_555
C7 H2 0.950 1_555 1_555
C8 H3 0.950 1_555 1_555
C9 C2 1.429 1_555 1_555
C10 H4 0.951 1_555 1_555
C11 C22 1.409 1_555 1_555
C12 C10 1.414 1_555 1_555
C13 C6 1.411 1_555 1_555
C14 C8 1.431 1_555 1_555
C15 C4 1.357 1_555 1_555
H5 C15 0.950 1_555 1_555
C16 C9 1.459 1_555 1_555
C17 C12 1.409 1_555 1_555
C18 C5 1.419 1_555 1_555
H6 C18 0.950 1_555 1_555
C19 C3 1.438 1_555 1_555
C20 C1 1.404 1_555 1_555
C21 C10 1.390 1_555 1_555
H7 C21 0.951 1_555 1_555
C22 C3 1.452 1_555 1_555
C23 C13 1.399 1_555 1_555
H8 C23 0.949 1_555 1_555
C24 C2 1.414 1_555 1_555
H9 C24 0.949 1_555 1_555
C25 C1 1.432 1_555 1_555
H10 C25 0.949 1_555 1_555
C26 C21 1.407 1_555 1_555
H11 C26 0.950 1_555 1_555
C27 C17 1.415 1_555 1_555
H12 C27 0.949 1_555 1_555
C28 C14 1.430 1_555 1_555
H13 C28 0.950 1_555 1_555
C29 C7 1.364 1_555 1_555
H14 C29 0.951 1_555 1_555
C30 C17 1.441 1_555 1_555
H15 C30 0.950 1_555 1_555
C31 C8 1.338 1_555 1_555
H16 C31 0.951 1_555 1_555
C32 C19 1.431 1_555 1_555
C33 C11 1.437 1_555 1_555
H17 C33 0.951 1_555 1_555
C34 C18 1.356 1_555 1_555
H18 C34 0.949 1_555 1_555
C35 C11 1.424 1_555 1_555
H19 C35 0.948 1_555 1_555
C36 C13 1.431 1_555 1_555
H20 C36 0.950 1_555 1_555
C37 C23 1.360 1_555 1_555
H21 C37 0.950 1_555 1_555
C38 C5 1.428 1_555 1_555
H22 C38 0.950 1_555 1_555
C39 C41 1.435 1_555 1_555
C40 C49 1.451 1_555 1_555
C41 C42 1.412 1_555 1_555
C42 C53 1.433 1_555 1_555
C43 C47 1.418 1_555 1_555
C44 H23 0.949 1_555 1_555
C45 C46 1.452 1_555 1_555
C46 C41 1.454 1_555 1_555
C47 C44 1.392 1_555 1_555
H24 C47 0.952 1_555 1_555
C48 C44 1.413 1_555 1_555
H25 C48 0.951 1_555 1_555
C49 C45 1.451 1_555 1_555
C50 H26 0.950 1_555 1_555
C51 H27 0.952 1_555 1_555
C52 C40 1.428 1_555 1_555
H28 C52 0.950 1_555 1_555
C53 C50 1.351 1_555 1_555
H29 C53 0.949 1_555 1_555
C54 C39 1.456 1_555 1_555
C55 H30 0.950 1_555 1_555
C56 C54 1.413 1_555 1_555
C57 C49 1.410 1_555 1_555
C58 H31 0.950 1_555 1_555
C59 C39 1.433 1_555 1_555
C60 C59 1.432 1_555 1_555
H32 C60 0.949 1_555 1_555
C61 C40 1.435 1_555 1_555
C62 C46 1.398 1_555 1_555
C63 H33 0.950 1_555 1_555
C64 C42 1.440 1_555 1_555
H34 C64 0.949 1_555 1_555
C65 C51 1.351 1_555 1_555
H35 C65 0.950 1_555 1_555
C66 C58 1.348 1_555 1_555
H36 C66 0.949 1_555 1_555
C67 C45 1.420 1_555 1_555
C68 C43 1.419 1_555 1_555
C69 C56 1.423 1_555 1_555
H37 C69 0.950 1_555 1_555
C70 C48 1.359 1_555 1_555
H38 C70 0.949 1_555 1_555
C71 C57 1.422 1_555 1_555
H39 C71 0.951 1_555 1_555
C72 C56 1.436 1_555 1_555
H40 C72 0.950 1_555 1_555
C73 C67 1.442 1_555 1_555
H41 C73 0.950 1_555 1_555
C74 C52 1.359 1_555 1_555
H42 C74 0.951 1_555 1_555
C75 C74 1.396 1_555 1_555
H43 C75 0.950 1_555 1_555
C76 C61 1.438 1_555 1_555
H44 C76 0.950 1_555 1_555
C77 H45 0.950 1_555 1_555
C78 H46 0.951 1_555 1_555
C79 C84 1.435 1_555 1_555
C80 C83 1.426 1_555 1_555
C81 C87 1.405 1_555 1_555
C82 C87 1.458 1_555 1_555
C83 C77 1.406 1_555 1_555
C84 C88 1.448 1_555 1_555
C85 C77 1.368 1_555 1_555
H47 C85 0.952 1_555 1_555
C86 C79 1.449 1_555 1_555
C87 C89 1.463 1_555 1_555
C88 C82 1.429 1_555 1_555
C89 C78 1.416 1_555 1_555
C90 C79 1.423 1_555 1_555
C91 C82 1.425 1_555 1_555
C92 C86 1.398 1_555 1_555
C93 C80 1.421 1_555 1_555
H48 C93 0.952 1_555 1_555
C94 C85 1.405 1_555 1_555
H49 C94 0.950 1_555 1_555
C95 C89 1.429 1_555 1_555
C96 C88 1.425 1_555 1_555
C97 C78 1.389 1_555 1_555
H50 C97 0.950 1_555 1_555
C98 C84 1.407 1_555 1_555
C99 C80 1.418 1_555 1_555
H51 C99 0.950 1_555 1_555
C100 C81 1.435 1_555 1_555
H52 C100 0.951 1_555 1_555
C101 C95 1.418 1_555 1_555
H53 C101 0.949 1_555 1_555
C102 C81 1.394 1_555 1_555
H54 C102 0.950 1_555 1_555
C103 C92 1.419 1_555 1_555
H55 C103 0.950 1_555 1_555
C104 C92 1.443 1_555 1_555
H56 C104 0.950 1_555 1_555
C105 C90 1.417 1_555 1_555
H57 C105 0.949 1_555 1_555
C106 C91 1.423 1_555 1_555
H58 C106 0.949 1_555 1_555
C107 C90 1.415 1_555 1_555
H59 C107 0.950 1_555 1_555
C108 C95 1.398 1_555 1_555
H60 C108 0.950 1_555 1_555
C109 C96 1.412 1_555 1_555
H61 C109 0.950 1_555 1_555
C110 C98 1.409 1_555 1_555
H62 C110 0.951 1_555 1_555
C111 C91 1.395 1_555 1_555
H63 C111 0.951 1_555 1_555
C112 C97 1.368 1_555 1_555
H64 C112 0.949 1_555 1_555
C113 C96 1.414 1_555 1_555
H65 C113 0.950 1_555 1_555
C114 C98 1.437 1_555 1_555
H66 C114 0.950 1_555 1_555
C6 C20 1.459 1_555 1_555
C9 C20 1.448 1_555 1_555
C12 C22 1.474 1_555 1_555
C16 C19 1.437 1_555 1_555
C24 C38 1.358 1_555 1_555
C25 C36 1.346 1_555 1_555
C26 C27 1.366 1_555 1_555
C28 C33 1.333 1_555 1_555
C29 C37 1.404 1_555 1_555
C30 C35 1.335 1_555 1_555
C31 C32 1.423 1_555 1_555
C32 C34 1.432 1_555 1_555
C43 C54 1.441 1_555 1_555
C50 C59 1.396 1_555 1_555
C51 C57 1.422 1_555 1_555
C55 C62 1.418 1_555 1_555
C55 C64 1.360 1_555 1_555
C58 C62 1.435 1_555 1_555
C60 C69 1.346 1_555 1_555
C61 C65 1.414 1_555 1_555
C63 C68 1.421 1_555 1_555
C63 C72 1.341 1_555 1_555
C66 C67 1.421 1_555 1_555
C68 C70 1.409 1_555 1_555
C71 C73 1.335 1_555 1_555
C75 C76 1.370 1_555 1_555
C83 C86 1.457 1_555 1_555
C93 C94 1.378 1_555 1_555
C99 C103 1.351 1_555 1_555
C100 C101 1.332 1_555 1_555
C102 C111 1.409 1_555 1_555
C104 C105 1.352 1_555 1_555
C106 C113 1.360 1_555 1_555
C107 C110 1.336 1_555 1_555
C108 C112 1.386 1_555 1_555
C109 C114 1.371 1_555 1_555
#END
