
#######################################################################
#
#                 Cambridge Crystallographic Data Centre
#                                CCDC
#
#######################################################################
#
# If this CIF has been generated from an entry in the Cambridge
# Structural Database, then it will include bibliographic, chemical,
# crystal, experimental, refinement or atomic coordinate data resulting
# from the CCDC's data processing and validation procedures.
#
#######################################################################

data_CSD_CIF_QUJPIU
_audit_creation_date 2001-11-07
_audit_creation_method CSD-ConQuest-V1
_database_code_CSD QUJPIU
_database_code_depnum_ccdc_archive 'CCDC 160393'
_chemical_formula_sum 'C26 H20'
_chemical_formula_moiety
;
C26 H20
;
_journal_coden_Cambridge 1336
_journal_volume 3
_journal_year 2001
_journal_page_first 2093
_journal_name_full 'Org.Lett. '
loop_
_publ_author_name
"G.J.Bodwell"
"D.O.Miller"
"R.J.Vermeij"
_chemical_name_systematic
;
(2)Paracyclo(2)(2,7)pyrenophane
;
_cell_volume   1807.374
_exptl_crystal_colour 'colorless'
_exptl_crystal_density_diffrn 1.222
_exptl_crystal_description 'prism'
_diffrn_ambient_temperature 299.2
#These two values have been output from a single CSD field.
_refine_ls_R_factor_gt 0.0588
_refine_ls_wR_factor_gt 0.0588
_symmetry_cell_setting orthorhombic
_symmetry_space_group_name_H-M 'P 21 21 21'
_symmetry_Int_Tables_number 19
loop_
_symmetry_equiv_pos_site_id
_symmetry_equiv_pos_as_xyz
1 x,y,z
2 1/2-x,-y,1/2+z
3 1/2+x,1/2-y,-z
4 -x,1/2+y,1/2-z
_cell_length_a 12.451(2)
_cell_length_b 15.773(3)
_cell_length_c 9.203(2)
_cell_angle_alpha 90
_cell_angle_beta 90
_cell_angle_gamma 90
_cell_formula_units_Z 4
loop_
_atom_type_symbol
_atom_type_radius_bond
C 0.68
H 0.23
loop_
_atom_site_label
_atom_site_type_symbol
_atom_site_fract_x
_atom_site_fract_y
_atom_site_fract_z
C1 C 0.8158(3) 0.4552(2) 0.0795(4)
C2 C 0.8217(3) 0.3942(3) -0.0257(4)
C3 C 0.7425(3) 0.3328(2) -0.0416(3)
C4 C 0.6543(2) 0.3348(2) 0.0564(3)
C5 C 0.6356(3) 0.4090(2) 0.1384(4)
C6 C 0.7176(4) 0.4695(2) 0.1470(4)
C7 C 0.7587(3) 0.2572(3) -0.1243(4)
C8 C 0.7147(3) 0.1845(2) -0.0803(4)
C9 C 0.6511(2) 0.1806(2) 0.0485(4)
C10 C 0.6083(2) 0.2573(2) 0.1030(3)
C11 C 0.5454(2) 0.2567(2) 0.2309(3)
C12 C 0.5039(3) 0.3356(3) 0.2851(4)
C13 C 0.5475(3) 0.4080(3) 0.2392(4)
C14 C 0.6500(3) 0.1111(2) 0.1403(5)
C15 C 0.6117(3) 0.1170(2) 0.2806(5)
C16 C 0.5477(3) 0.1845(2) 0.3170(4)
C17 C 0.6666(3) 0.0669(2) 0.4010(5)
C18 C 0.7669(5) 0.1048(3) 0.4438(8)
C19 C 0.8076(4) 0.1894(3) 0.3911(5)
C20 C 0.7739(3) 0.2637(3) 0.4525(4)
C21 C 0.8162(3) 0.3412(2) 0.4102(4)
C22 C 0.8969(3) 0.3469(2) 0.3078(4)
C23 C 0.9309(3) 0.2724(3) 0.2489(4)
C24 C 0.8873(4) 0.1965(3) 0.2879(6)
C25 C 0.9528(4) 0.4293(3) 0.2680(7)
C26 C 0.9157(4) 0.4863(3) 0.1522(6)
H1 H 0.889(2) 0.379(2) -0.081(3)
H2 H 0.718(2) 0.522(2) 0.234(3)
H3 H 0.807(2) 0.259(2) -0.205(3)
H4 H 0.729(2) 0.129(2) -0.125(3)
H5 H 0.442(2) 0.326(2) 0.378(3)
H6 H 0.533(2) 0.456(2) 0.284(4)
H7 H 0.701(2) 0.068(2) 0.115(3)
H8 H 0.515(2) 0.186(2) 0.418(3)
H9 H 0.722(2) 0.269(2) 0.518(4)
H10 H 0.794(2) 0.388(2) 0.466(3)
H11 H 0.994(2) 0.276(2) 0.166(3)
H12 H 0.913(3) 0.139(2) 0.239(4)
H13 H 0.911(4) 0.475(3) 0.334(6)
H14 H 1.021(3) 0.438(3) 0.325(5)
H15 H 0.977(3) 0.480(3) 0.079(4)
H16 H 0.922(3) 0.547(2) 0.155(5)
H17 H 0.76310 0.11010 0.54600
H18 H 0.82130 0.06530 0.41830
H19 H 0.61940 0.06260 0.48110
H20 H 0.67970 0.01020 0.36420
loop_
_geom_bond_atom_site_label_1
_geom_bond_atom_site_label_2
_geom_bond_distance
_geom_bond_site_symmetry_1
_geom_bond_site_symmetry_2
C1 C2 1.367 1_555 1_555
C2 C3 1.390 1_555 1_555
C3 C4 1.421 1_555 1_555
C4 C5 1.412 1_555 1_555
C5 C6 1.400 1_555 1_555
C6 C1 1.390 1_555 1_555
C7 C3 1.429 1_555 1_555
C8 C7 1.334 1_555 1_555
C9 C8 1.427 1_555 1_555
C10 C4 1.416 1_555 1_555
C11 C10 1.414 1_555 1_555
C12 C11 1.437 1_555 1_555
C13 C5 1.437 1_555 1_555
C14 C9 1.384 1_555 1_555
C15 C14 1.380 1_555 1_555
C16 C11 1.388 1_555 1_555
C17 C15 1.523 1_555 1_555
C18 C17 1.439 1_555 1_555
C19 C18 1.508 1_555 1_555
C20 C19 1.367 1_555 1_555
C21 C20 1.387 1_555 1_555
C22 C21 1.381 1_555 1_555
C23 C22 1.362 1_555 1_555
C24 C19 1.378 1_555 1_555
C25 C22 1.519 1_555 1_555
C26 C1 1.495 1_555 1_555
H1 C2 1.009 1_555 1_555
H2 C6 1.152 1_555 1_555
H3 C7 0.956 1_555 1_555
H4 C8 0.983 1_555 1_555
H5 C12 1.161 1_555 1_555
H6 C13 0.881 1_555 1_555
H7 C14 0.959 1_555 1_555
H8 C16 1.015 1_555 1_555
H9 C20 0.888 1_555 1_555
H10 C21 0.941 1_555 1_555
H11 C23 1.097 1_555 1_555
H12 C24 1.062 1_555 1_555
H13 C25 1.077 1_555 1_555
H14 C25 1.008 1_555 1_555
H15 C26 1.023 1_555 1_555
H16 C26 0.961 1_555 1_555
H17 C18 0.945 1_555 1_555
H18 C18 0.950 1_555 1_555
H19 C17 0.945 1_555 1_555
H20 C17 0.970 1_555 1_555
C9 C10 1.414 1_555 1_555
C12 C13 1.333 1_555 1_555
C15 C16 1.371 1_555 1_555
C23 C24 1.363 1_555 1_555
C25 C26 1.469 1_555 1_555
#END
