
#######################################################################
#
#                 Cambridge Crystallographic Data Centre
#                                CCDC
#
#######################################################################
#
# If this CIF has been generated from an entry in the Cambridge
# Structural Database, then it will include bibliographic, chemical,
# crystal, experimental, refinement or atomic coordinate data resulting
# from the CCDC's data processing and validation procedures.
#
#######################################################################

data_CSD_CIF_QULDUW
_audit_creation_date 2001-11-07
_audit_creation_method CSD-ConQuest-V1
_database_code_CSD QULDUW
_database_code_depnum_ccdc_archive 'CCDC 167913'
_chemical_formula_sum 'C29 H32'
_chemical_formula_moiety
;
C29 H32
;
_journal_coden_Cambridge 1078
_journal_year 2001
_journal_name_full 'CSD Communication(Private Communication) '
loop_
_publ_author_name
"J.Ruhdorfer"
"R.Knorr"
"K.Polborn"
_chemical_name_systematic
;
2,2-Dimethyl-4-(1,1,3,3-tetramethyl-2-indanylidene)benzo(f)indane
;
_cell_volume   1124.239
_exptl_crystal_density_diffrn 1.124
_exptl_special_details
;
contribution from Department of Chemistry, University of Munich, Germany

;
_exptl_crystal_description 'plate'
_diffrn_ambient_temperature 293
#These two values have been output from a single CSD field.
_refine_ls_R_factor_gt 0.0388
_refine_ls_wR_factor_gt 0.0388
_symmetry_cell_setting triclinic
_symmetry_space_group_name_H-M 'P -1'
_symmetry_Int_Tables_number 2
loop_
_symmetry_equiv_pos_site_id
_symmetry_equiv_pos_as_xyz
1 x,y,z
2 -x,-y,-z
_cell_length_a 10.577(3)
_cell_length_b 10.866(3)
_cell_length_c 11.289(3)
_cell_angle_alpha 72.36(2)
_cell_angle_beta 66.95(2)
_cell_angle_gamma 75.33(2)
_cell_formula_units_Z 2
loop_
_atom_type_symbol
_atom_type_radius_bond
C 0.68
H 0.23
loop_
_atom_site_label
_atom_site_type_symbol
_atom_site_fract_x
_atom_site_fract_y
_atom_site_fract_z
C1 C -0.0132(2) 1.00274(15) 0.8334(2)
C2 C 0.1331(2) 0.9620(2) 0.7786(2)
C3 C 0.2293(2) 1.0511(2) 0.7134(2)
H1 H 0.1967(2) 1.1403(2) 0.7027(2)
C4 C 0.3685(2) 1.0096(2) 0.6658(2)
H2 H 0.4296(2) 1.0703(2) 0.6232(2)
C5 C 0.4197(2) 0.8764(2) 0.6807(2)
H3 H 0.5150(2) 0.8485(2) 0.6487(2)
C6 C 0.3313(2) 0.7875(2) 0.7417(2)
H4 H 0.3671(2) 0.6991(2) 0.7501(2)
C7 C 0.1862(2) 0.8260(2) 0.7928(2)
C8 C 0.0938(2) 0.7342(2) 0.8599(2)
H5 H 0.1277(2) 0.6455(2) 0.8672(2)
C9 C -0.0444(2) 0.7742(2) 0.9140(2)
C10 C -0.1606(2) 0.6961(2) 0.9982(2)
H6 H -0.1581(2) 0.6612(2) 1.0873(2)
H7 H -0.1539(2) 0.6241(2) 0.9609(2)
C11 C -0.2951(2) 0.7936(2) 0.9984(2)
C12 C -0.2514(2) 0.9265(2) 0.9743(2)
H8 H -0.2998(2) 0.9951(2) 0.9222(2)
H9 H -0.2719(2) 0.9489(2) 1.0576(2)
C13 C -0.0978(2) 0.90931(15) 0.9009(2)
C14 C -0.3362(2) 0.7922(2) 0.8848(2)
H10 H -0.4164(9) 0.8570(9) 0.8819(8)
H11 H -0.3576(14) 0.7075(4) 0.8971(7)
H12 H -0.2606(6) 0.8113(13) 0.8033(3)
C15 C -0.4135(2) 0.7637(2) 1.1272(2)
H13 H -0.4957(4) 0.8247(8) 1.1223(5)
H14 H -0.3895(6) 0.7708(13) 1.1983(3)
H15 H -0.4307(9) 0.6765(5) 1.1429(7)
C16 C -0.0718(2) 1.14366(15) 0.8287(2)
H16 H -0.0764(2) 1.17313(15) 0.8997(2)
C17 C -0.1180(2) 1.23295(14) 0.7402(2)
C18 C -0.1228(2) 1.21753(14) 0.6121(2)
C19 C -0.2043(2) 1.34726(15) 0.5666(2)
C20 C -0.2484(2) 1.3841(2) 0.4600(2)
H17 H -0.2287(2) 1.3262(2) 0.4067(2)
C21 C -0.3219(2) 1.5068(2) 0.4321(2)
H18 H -0.3525(2) 1.5319(2) 0.3601(2)
C22 C -0.3501(2) 1.5924(2) 0.5106(2)
H19 H -0.3991(2) 1.6755(2) 0.4911(2)
C23 C -0.3067(2) 1.5560(2) 0.6170(2)
H20 H -0.3264(2) 1.6142(2) 0.6700(2)
C24 C -0.2333(2) 1.43260(14) 0.6459(2)
C25 C -0.1755(2) 1.37406(14) 0.7560(2)
C26 C -0.1955(2) 1.1048(2) 0.6304(2)
H21 H -0.2867(5) 1.1137(7) 0.6956(9)
H22 H -0.1423(7) 1.0233(2) 0.6592(12)
H23 H -0.2031(12) 1.1065(7) 0.5479(4)
C27 C 0.0239(2) 1.2022(2) 0.5091(2)
H24 H 0.0708(5) 1.2712(7) 0.5000(9)
H25 H 0.0173(2) 1.2064(12) 0.4256(3)
H26 H 0.0752(5) 1.1194(5) 0.5376(6)
C28 C -0.2873(2) 1.3799(2) 0.8903(2)
H27 H -0.3576(6) 1.3303(9) 0.9054(5)
H28 H -0.3285(8) 1.4692(2) 0.8920(4)
H29 H -0.2463(3) 1.344(1) 0.9583(2)
C29 C -0.0578(2) 1.4445(2) 0.7359(2)
H30 H 0.0128(6) 1.4403(9) 0.6514(5)
H31 H -0.0184(8) 1.4032(7) 0.8045(6)
H32 H -0.0940(3) 1.5343(3) 0.7393(11)
loop_
_geom_bond_atom_site_label_1
_geom_bond_atom_site_label_2
_geom_bond_distance
_geom_bond_site_symmetry_1
_geom_bond_site_symmetry_2
C1 C2 1.429 1_555 1_555
C2 C3 1.412 1_555 1_555
C3 H1 0.930 1_555 1_555
C4 C3 1.360 1_555 1_555
H2 C4 0.930 1_555 1_555
C5 C4 1.394 1_555 1_555
H3 C5 0.930 1_555 1_555
C6 C5 1.353 1_555 1_555
H4 C6 0.929 1_555 1_555
C7 C2 1.425 1_555 1_555
C8 C7 1.407 1_555 1_555
H5 C8 0.930 1_555 1_555
C9 C8 1.356 1_555 1_555
C10 C9 1.503 1_555 1_555
H6 C10 0.970 1_555 1_555
H7 C10 0.971 1_555 1_555
C11 C10 1.543 1_555 1_555
C12 C11 1.541 1_555 1_555
H8 C12 0.970 1_555 1_555
H9 C12 0.971 1_555 1_555
C13 C1 1.367 1_555 1_555
C14 C11 1.512 1_555 1_555
H10 C14 0.960 1_555 1_555
H11 C14 0.960 1_555 1_555
H12 C14 0.960 1_555 1_555
C15 C11 1.511 1_555 1_555
H13 C15 0.960 1_555 1_555
H14 C15 0.960 1_555 1_555
H15 C15 0.961 1_555 1_555
C16 C1 1.492 1_555 1_555
H16 C16 0.930 1_555 1_555
C17 C16 1.316 1_555 1_555
C18 C17 1.527 1_555 1_555
C19 C18 1.512 1_555 1_555
C20 C19 1.371 1_555 1_555
H17 C20 0.931 1_555 1_555
C21 C20 1.376 1_555 1_555
H18 C21 0.931 1_555 1_555
C22 C21 1.375 1_555 1_555
H19 C22 0.930 1_555 1_555
C23 C22 1.364 1_555 1_555
H20 C23 0.931 1_555 1_555
C24 C19 1.378 1_555 1_555
C25 C17 1.537 1_555 1_555
C26 C18 1.528 1_555 1_555
H21 C26 0.960 1_555 1_555
H22 C26 0.961 1_555 1_555
H23 C26 0.960 1_555 1_555
C27 C18 1.537 1_555 1_555
H24 C27 0.959 1_555 1_555
H25 C27 0.959 1_555 1_555
H26 C27 0.960 1_555 1_555
C28 C25 1.522 1_555 1_555
H27 C28 0.959 1_555 1_555
H28 C28 0.960 1_555 1_555
H29 C28 0.961 1_555 1_555
C29 C25 1.531 1_555 1_555
H30 C29 0.960 1_555 1_555
H31 C29 0.960 1_555 1_555
H32 C29 0.960 1_555 1_555
C6 C7 1.411 1_555 1_555
C9 C13 1.418 1_555 1_555
C12 C13 1.499 1_555 1_555
C23 C24 1.383 1_555 1_555
C24 C25 1.497 1_555 1_555
#END
