
#######################################################################
#
#                 Cambridge Crystallographic Data Centre
#                                CCDC
#
#######################################################################
#
# If this CIF has been generated from an entry in the Cambridge
# Structural Database, then it will include bibliographic, chemical,
# crystal, experimental, refinement or atomic coordinate data resulting
# from the CCDC's data processing and validation procedures.
#
#######################################################################

data_CSD_CIF_QURDOY
_audit_creation_date 2015-10-30
_audit_creation_method CSD-ConQuest-V1
_database_code_CSD QURDOY
_database_code_depnum_ccdc_archive 'CCDC 1427122'
_chemical_formula_sum 'C20 H14'
_chemical_formula_moiety
;
C20 H14
;
_journal_coden_Cambridge 182
_journal_volume 52
_journal_year 2016
_journal_page_first 1124
_journal_name_full 'Chem.Commun. '
loop_
_publ_author_name
"H.Iwahara"
"T.Kushida"
"S.Yamaguchi"
_chemical_name_systematic
;
9-phenylanthracene
;
_cell_volume    654.717
_exptl_crystal_colour 'colorless'
_exptl_crystal_density_diffrn 1.29
_exptl_crystal_description 'prism'
_diffrn_ambient_temperature 123
#These two values have been output from a single CSD field.
_refine_ls_R_factor_gt 0.1195
_refine_ls_wR_factor_gt 0.1195
_symmetry_cell_setting triclinic
_symmetry_space_group_name_H-M 'P -1'
_symmetry_Int_Tables_number 2
loop_
_symmetry_equiv_pos_site_id
_symmetry_equiv_pos_as_xyz
1 x,y,z
2 -x,-y,-z
_cell_length_a 6.247(6)
_cell_length_b 10.259(11)
_cell_length_c 10.779(11)
_cell_angle_alpha 84.94(4)
_cell_angle_beta 76.39(4)
_cell_angle_gamma 77.39(4)
_cell_formula_units_Z 2
loop_
_atom_type_symbol
_atom_type_radius_bond
C 0.68
H 0.23
loop_
_atom_site_label
_atom_site_type_symbol
_atom_site_fract_x
_atom_site_fract_y
_atom_site_fract_z
C1 C 0.2356(6) 0.3117(4) 0.2005(4)
C2 C 0.5494(6) 0.1621(4) 0.3402(4)
C3 C 0.4471(6) 0.2443(4) 0.1352(4)
C4 C 0.6069(6) 0.1703(4) 0.1995(4)
C5 C 0.1819(6) 0.3064(4) 0.3411(4)
C6 C 0.7089(6) 0.0838(4) 0.4032(4)
H1 H 0.67200 0.07690 0.49390
C7 C -0.0301(7) 0.3772(4) 0.4051(4)
H2 H -0.06460 0.37450 0.49590
C8 C 0.3398(7) 0.2316(4) 0.4024(4)
H3 H 0.30360 0.22710 0.49320
C9 C 0.5024(6) 0.2515(4) -0.0083(3)
C10 C 0.8252(6) 0.0999(4) 0.1392(4)
H4 H 0.86860 0.10450 0.04860
C11 C 0.4538(6) 0.1873(4) -0.2102(4)
H5 H 0.38480 0.13950 -0.25580
C12 C -0.1358(7) 0.4525(4) 0.2065(4)
H6 H -0.24420 0.50110 0.16180
C13 C 0.9142(7) 0.0171(4) 0.3405(4)
H7 H 1.01680 -0.03530 0.38690
C14 C 0.9729(7) 0.0271(4) 0.2049(4)
H8 H 1.11650 -0.01760 0.16030
C15 C 0.0647(6) 0.3874(4) 0.1416(4)
H9 H 0.09380 0.39240 0.05090
C16 C 0.6043(6) 0.2637(4) -0.2754(3)
H10 H 0.63890 0.26770 -0.36620
C17 C 0.7057(6) 0.3348(4) -0.2104(4)
H11 H 0.80800 0.38780 -0.25600
C18 C 0.4041(6) 0.1808(4) -0.0779(4)
H12 H 0.30140 0.12740 -0.03340
C19 C -0.1857(7) 0.4484(4) 0.3445(4)
H13 H -0.32570 0.49510 0.39150
C20 C 0.6555(6) 0.3275(4) -0.0773(3)
H14 H 0.72650 0.37500 -0.03250
loop_
_geom_bond_atom_site_label_1
_geom_bond_atom_site_label_2
_geom_bond_distance
_geom_bond_site_symmetry_1
_geom_bond_site_symmetry_2
C1 C3 1.403 1_555 1_555
C2 C4 1.473 1_555 1_555
C3 C4 1.398 1_555 1_555
C4 C10 1.428 1_555 1_555
C5 C1 1.472 1_555 1_555
C6 C2 1.404 1_555 1_555
H1 C6 0.950 1_555 1_555
C7 C5 1.413 1_555 1_555
H2 C7 0.951 1_555 1_555
C8 C2 1.391 1_555 1_555
H3 C8 0.951 1_555 1_555
C9 C3 1.502 1_555 1_555
C10 H4 0.950 1_555 1_555
C11 H5 0.950 1_555 1_555
C12 H6 0.950 1_555 1_555
C13 C6 1.364 1_555 1_555
H7 C13 0.950 1_555 1_555
C14 C10 1.351 1_555 1_555
H8 C14 0.950 1_555 1_555
C15 C1 1.420 1_555 1_555
H9 C15 0.950 1_555 1_555
C16 C11 1.381 1_555 1_555
H10 C16 0.951 1_555 1_555
C17 C16 1.387 1_555 1_555
H11 C17 0.950 1_555 1_555
C18 C9 1.405 1_555 1_555
H12 C18 0.951 1_555 1_555
C19 C7 1.345 1_555 1_555
H13 C19 0.950 1_555 1_555
C20 C9 1.402 1_555 1_555
H14 C20 0.951 1_555 1_555
C5 C8 1.373 1_555 1_555
C11 C18 1.385 1_555 1_555
C12 C15 1.345 1_555 1_555
C12 C19 1.445 1_555 1_555
C13 C14 1.421 1_555 1_555
C17 C20 1.393 1_555 1_555
#END
