
#######################################################################
#
#                 Cambridge Crystallographic Data Centre
#                                CCDC
#
#######################################################################
#
# If this CIF has been generated from an entry in the Cambridge
# Structural Database, then it will include bibliographic, chemical,
# crystal, experimental, refinement or atomic coordinate data resulting
# from the CCDC's data processing and validation procedures.
#
#######################################################################

data_CSD_CIF_RABSOC
_audit_creation_date 1997-07-21
_audit_creation_method CSD-ConQuest-V1
_database_code_CSD RABSOC
_database_code_depnum_ccdc_archive 'CCDC 1245929'
_chemical_formula_sum 'C24 H14'
_chemical_formula_moiety
;
C24 H14
;
_journal_coden_Cambridge 1234
_journal_volume 268
_journal_year 1995
_journal_page_first 55
_journal_name_full 'Mol.Cryst.Liq.Cryst.Sci.Technol.,Sect.A '
loop_
_publ_author_name
"T.Manisekaran"
"A.Sarkar"
"L.P.Bhagwat"
"S.S.Talwar"
"J.S.Prasad"
_chemical_name_systematic
;
1,4-bis(2-Naphthyl)buta-1,3-diyne
;
_cell_volume    798.669
_exptl_crystal_colour 'white'
_exptl_crystal_density_diffrn 1.257
_diffrn_ambient_temperature ?
_diffrn_special_details
;
The study was carried out at room temperature,in the range 283-303K

;
#These two values have been output from a single CSD field.
_refine_ls_R_factor_gt 0.0389
_refine_ls_wR_factor_gt 0.0389
_symmetry_cell_setting monoclinic
_symmetry_space_group_name_H-M 'P 21/a'
_symmetry_Int_Tables_number 14
loop_
_symmetry_equiv_pos_site_id
_symmetry_equiv_pos_as_xyz
1 x,y,z
2 1/2-x,1/2+y,-z
3 -x,-y,-z
4 -1/2+x,-1/2-y,z
_cell_length_a 7.534(1)
_cell_length_b 6.012(1)
_cell_length_c 17.969(3)
_cell_angle_alpha 90
_cell_angle_beta 101.1(1)
_cell_angle_gamma 90
_cell_formula_units_Z 2
loop_
_atom_type_symbol
_atom_type_radius_bond
C 0.68
loop_
_atom_site_label
_atom_site_type_symbol
_atom_site_fract_x
_atom_site_fract_y
_atom_site_fract_z
C1 C 0.5001(3) 0.4266(4) 0.9706(1)
C2 C 0.4988(3) 0.3010(3) 0.9192(1)
C3 C 0.4978(3) 0.1583(4) 0.8554(1)
C4 C 0.4241(2) 0.2329(3) 0.7839(1)
C5 C 0.4301(2) 0.1007(3) 0.7198(1)
C6 C 0.3575(3) 0.1740(4) 0.6453(1)
C7 C 0.3705(3) 0.0440(4) 0.5846(1)
C8 C 0.4544(3) -0.1630(4) 0.5950(1)
C9 C 0.5247(3) -0.2394(4) 0.6654(1)
C10 C 0.5138(2) -0.1099(3) 0.7298(1)
C11 C 0.5856(3) -0.1849(3) 0.8042(1)
C12 C 0.5764(3) -0.0542(3) 0.8651(1)
C1B C 0.4999(3) 0.5734(4) 1.0294(1)
C2B C 0.5012(3) 0.6990(3) 1.0808(1)
C3B C 0.5022(3) 0.8417(4) 1.1446(1)
C4B C 0.5759(2) 0.7671(3) 1.2161(1)
C5B C 0.5699(2) 0.8993(3) 1.2802(1)
C6B C 0.6425(3) 0.8260(4) 1.3547(1)
C7B C 0.6295(3) 0.9560(4) 1.4154(1)
C8B C 0.5456(3) 1.1630(4) 1.4050(1)
C9B C 0.4753(3) 1.2394(4) 1.3346(1)
C10B C 0.4862(2) 1.1099(3) 1.2702(1)
C11B C 0.4144(3) 1.1849(3) 1.1958(1)
C12B C 0.4236(3) 1.0542(3) 1.1349(1)
loop_
_geom_bond_atom_site_label_1
_geom_bond_atom_site_label_2
_geom_bond_distance
_geom_bond_site_symmetry_1
_geom_bond_site_symmetry_2
C1 C2 1.192 1_555 1_555
C2 C3 1.431 1_555 1_555
C3 C4 1.373 1_555 1_555
C4 C5 1.407 1_555 1_555
C5 C6 1.415 1_555 1_555
C6 C7 1.361 1_555 1_555
C7 C8 1.392 1_555 1_555
C8 C9 1.354 1_555 1_555
C9 C10 1.410 1_555 1_555
C10 C5 1.410 1_555 1_555
C11 C10 1.416 1_555 1_555
C12 C3 1.405 1_555 1_555
C1B C1 1.377 1_555 1_555
C2B C1B 1.192 1_555 1_555
C3B C2B 1.431 1_555 1_555
C4B C3B 1.373 1_555 1_555
C5B C4B 1.407 1_555 1_555
C6B C5B 1.415 1_555 1_555
C7B C6B 1.361 1_555 1_555
C8B C7B 1.392 1_555 1_555
C9B C8B 1.354 1_555 1_555
C10B C5B 1.410 1_555 1_555
C11B C10B 1.416 1_555 1_555
C12B C3B 1.405 1_555 1_555
C11 C12 1.360 1_555 1_555
C9B C10B 1.410 1_555 1_555
C11B C12B 1.360 1_555 1_555
#END
