
#######################################################################
#
#                 Cambridge Crystallographic Data Centre
#                                CCDC
#
#######################################################################
#
# If this CIF has been generated from an entry in the Cambridge
# Structural Database, then it will include bibliographic, chemical,
# crystal, experimental, refinement or atomic coordinate data resulting
# from the CCDC's data processing and validation procedures.
#
#######################################################################

data_CSD_CIF_RABWUP
_audit_creation_date 2015-12-04
_audit_creation_method CSD-ConQuest-V1
_database_code_CSD RABWUP
_database_code_depnum_ccdc_archive 'CCDC 1440515'
_chemical_formula_sum 'C20 H14'
_chemical_formula_moiety
;
C20 H14
;
_journal_coden_Cambridge 1336
_journal_volume 18
_journal_year 2016
_journal_page_first 2024
_journal_name_full 'Org.Lett. '
loop_
_publ_author_name
"Yujing Zhou"
"Fei Ye"
"Qi Zhou"
"Yan Zhang"
"Jianbo Wang"
_chemical_name_systematic
;
2-(2-phenylbut-1-en-3-yn-1-yl)naphthalene
;
_cell_volume    677.298
_exptl_crystal_density_diffrn 1.247
_diffrn_ambient_temperature 180
#These two values have been output from a single CSD field.
_refine_ls_R_factor_gt 0.0466
_refine_ls_wR_factor_gt 0.0466
_symmetry_cell_setting monoclinic
_symmetry_space_group_name_H-M 'P 21'
_symmetry_Int_Tables_number 4
loop_
_symmetry_equiv_pos_site_id
_symmetry_equiv_pos_as_xyz
1 x,y,z
2 -x,1/2+y,-z
_cell_length_a 6.4855(7)
_cell_length_b 7.5481(6)
_cell_length_c 13.9074(11)
_cell_angle_alpha 90
_cell_angle_beta 95.824(9)
_cell_angle_gamma 90
_cell_formula_units_Z 2
loop_
_atom_type_symbol
_atom_type_radius_bond
C 0.68
H 0.23
loop_
_atom_site_label
_atom_site_type_symbol
_atom_site_fract_x
_atom_site_fract_y
_atom_site_fract_z
C1 C 0.7239(5) 0.5544(4) 0.05973(19)
C2 C 0.5402(5) 0.5988(4) 0.0072(2)
H1 H 0.43450 0.65340 0.03940
C3 C 0.5033(5) 0.5659(4) -0.09335(19)
C4 C 0.3146(6) 0.6132(4) -0.1474(2)
H2 H 0.20740 0.66740 -0.11600
C5 C 0.2860(6) 0.5813(4) -0.2444(2)
H3 H 0.15850 0.61300 -0.28000
C6 C 0.4426(7) 0.5024(4) -0.2922(2)
H4 H 0.42110 0.48200 -0.35990
C7 C 0.6243(7) 0.4553(4) -0.2422(2)
H5 H 0.72880 0.40110 -0.27530
C8 C 0.6614(5) 0.4855(4) -0.14109(19)
C9 C 0.8485(6) 0.4395(4) -0.0865(2)
H6 H 0.95460 0.38320 -0.11770
C10 C 0.8805(6) 0.4742(4) 0.0105(2)
H7 H 1.00950 0.44410 0.04520
C11 C 0.7423(5) 0.5919(4) 0.16386(18)
H8 H 0.62700 0.65310 0.18490
C12 C 0.8940(5) 0.5550(4) 0.2352(2)
C13 C 1.0860(6) 0.4732(4) 0.2195(2)
C14 C 1.2467(6) 0.4041(5) 0.2113(2)
H9 H 1.37590 0.34850 0.20460
C15 C 0.8673(5) 0.5999(4) 0.33774(19)
C16 C 1.0339(6) 0.6587(4) 0.4001(2)
H10 H 1.16750 0.66610 0.37810
C17 C 1.0074(7) 0.7067(5) 0.4942(2)
H11 H 1.12220 0.74930 0.53560
C18 C 0.8169(7) 0.6931(5) 0.5280(2)
H12 H 0.79930 0.72670 0.59250
C19 C 0.6514(6) 0.6305(5) 0.4681(2)
H13 H 0.51980 0.61890 0.49180
C20 C 0.6751(6) 0.5839(5) 0.3729(2)
H14 H 0.55970 0.54110 0.33190
loop_
_geom_bond_atom_site_label_1
_geom_bond_atom_site_label_2
_geom_bond_distance
_geom_bond_site_symmetry_1
_geom_bond_site_symmetry_2
C1 C2 1.374 1_555 1_555
C2 H1 0.950 1_555 1_555
C3 C2 1.417 1_555 1_555
C4 C3 1.415 1_555 1_555
H2 C4 0.950 1_555 1_555
C5 C4 1.364 1_555 1_555
H3 C5 0.950 1_555 1_555
C6 C5 1.402 1_555 1_555
H4 C6 0.950 1_555 1_555
C7 C6 1.354 1_555 1_555
H5 C7 0.950 1_555 1_555
C8 C3 1.414 1_555 1_555
C9 C8 1.408 1_555 1_555
H6 C9 0.950 1_555 1_555
C10 C1 1.417 1_555 1_555
H7 C10 0.950 1_555 1_555
C11 C1 1.469 1_555 1_555
H8 C11 0.950 1_555 1_555
C12 C11 1.353 1_555 1_555
C13 C12 1.426 1_555 1_555
C14 C13 1.181 1_555 1_555
H9 C14 0.950 1_555 1_555
C15 C12 1.493 1_555 1_555
C16 C15 1.388 1_555 1_555
H10 C16 0.949 1_555 1_555
C17 C16 1.385 1_555 1_555
H11 C17 0.950 1_555 1_555
C18 C17 1.370 1_555 1_555
H12 C18 0.950 1_555 1_555
C19 C18 1.374 1_555 1_555
H13 C19 0.950 1_555 1_555
C20 C15 1.390 1_555 1_555
H14 C20 0.950 1_555 1_555
C7 C8 1.421 1_555 1_555
C9 C10 1.369 1_555 1_555
C19 C20 1.393 1_555 1_555
#END
