
#######################################################################
#
#                 Cambridge Crystallographic Data Centre
#                                CCDC
#
#######################################################################
#
# If this CIF has been generated from an entry in the Cambridge
# Structural Database, then it will include bibliographic, chemical,
# crystal, experimental, refinement or atomic coordinate data resulting
# from the CCDC's data processing and validation procedures.
#
#######################################################################

data_CSD_CIF_RAFTEX
_audit_creation_date 1997-07-21
_audit_creation_method CSD-ConQuest-V1
_database_code_CSD RAFTEX
_database_code_depnum_ccdc_archive 'CCDC 122489; CCDC 405624'
_chemical_formula_sum 'C23 H14'
_chemical_formula_moiety
;
C23 H14
;
_journal_coden_Cambridge 423
_journal_volume 132
_journal_year 1997
_journal_page_first 880
_journal_name_full 'J.Chem.Res. '
loop_
_publ_author_name
"G.Dyker"
"J.Korning"
"P.Bubenitschek"
"P.G.Jones"
_chemical_name_systematic
;
6b,12b-Methano-6b,12b-dihydroacenaphth(1,2-a)acenaphthylene
;
_chemical_melting_point 449.15
_cell_volume    720.109
_exptl_crystal_colour 'colorless'
_exptl_crystal_density_diffrn 1.339
_diffrn_ambient_temperature 143
#These two values have been output from a single CSD field.
_refine_ls_R_factor_gt 0.0377
_refine_ls_wR_factor_gt 0.0377
_symmetry_cell_setting triclinic
_symmetry_space_group_name_H-M 'P -1'
_symmetry_Int_Tables_number 2
loop_
_symmetry_equiv_pos_site_id
_symmetry_equiv_pos_as_xyz
1 x,y,z
2 -x,-y,-z
_cell_length_a 7.7038(12)
_cell_length_b 8.8188(15)
_cell_length_c 11.4785(16)
_cell_angle_alpha 101.492(9)
_cell_angle_beta 107.875(9)
_cell_angle_gamma 93.999(11)
_cell_formula_units_Z 2
loop_
_atom_type_symbol
_atom_type_radius_bond
C 0.68
H 0.23
loop_
_atom_site_label
_atom_site_type_symbol
_atom_site_fract_x
_atom_site_fract_y
_atom_site_fract_z
C1 C 0.51950(18) 0.68019(14) 0.10656(11)
H1 H 0.61070 0.62580 0.08370
C2 C 0.51098(19) 0.83872(15) 0.09985(12)
H2 H 0.59900 0.88980 0.07270
C3 C 0.38081(19) 0.92090(15) 0.13105(12)
H3 H 0.37790 1.02600 0.12310
C4 C 0.25024(18) 0.84968(14) 0.17520(11)
C5 C 0.11688(19) 0.92133(15) 0.22042(12)
H4 H 0.10180 1.02640 0.21670
C6 C 0.00978(19) 0.83998(15) 0.26940(13)
H5 H -0.07970 0.89020 0.29800
C7 C 0.02745(17) 0.68316(15) 0.27902(12)
H6 H -0.04750 0.62970 0.31430
C8 C 0.15486(16) 0.61135(14) 0.23622(11)
C9 C 0.21302(16) 0.45285(13) 0.23274(11)
C10 C 0.28105(16) 0.37551(13) 0.34004(11)
C11 C 0.21911(18) 0.35492(14) 0.43622(12)
H7 H 0.11310 0.39730 0.44610
C12 C 0.3168(2) 0.26874(15) 0.52082(12)
H8 H 0.27390 0.25400 0.58760
C13 C 0.47003(19) 0.20611(15) 0.51027(12)
H9 H 0.52840 0.14580 0.56710
C14 C 0.54215(18) 0.23079(14) 0.41488(12)
C15 C 0.44510(17) 0.31783(13) 0.33295(11)
C16 C 0.70422(18) 0.18216(15) 0.39524(12)
H10 H 0.77380 0.12080 0.44670
C17 C 0.76150(18) 0.22299(15) 0.30255(13)
H11 H 0.87060 0.18850 0.29120
C18 C 0.66460(17) 0.31468(14) 0.22278(12)
H12 H 0.70930 0.34370 0.16070
C19 C 0.50519(16) 0.36024(13) 0.23752(11)
C20 C 0.36431(16) 0.44814(13) 0.16901(11)
C21 C 0.39359(16) 0.60787(14) 0.14666(11)
C22 C 0.26277(16) 0.69397(14) 0.18301(11)
C23 C 0.17481(17) 0.35269(14) 0.10084(11)
H13 H 0.16500 0.23790 0.09050
H14 H 0.09180 0.38770 0.02960
loop_
_geom_bond_atom_site_label_1
_geom_bond_atom_site_label_2
_geom_bond_distance
_geom_bond_site_symmetry_1
_geom_bond_site_symmetry_2
C1 H1 0.950 1_555 1_555
C2 C1 1.420 1_555 1_555
H2 C2 0.950 1_555 1_555
C3 C2 1.370 1_555 1_555
H3 C3 0.950 1_555 1_555
C4 C3 1.419 1_555 1_555
C5 C4 1.418 1_555 1_555
H4 C5 0.950 1_555 1_555
C6 C5 1.369 1_555 1_555
H5 C6 0.950 1_555 1_555
C7 C6 1.422 1_555 1_555
H6 C7 0.949 1_555 1_555
C8 C7 1.365 1_555 1_555
C9 C8 1.494 1_555 1_555
C10 C9 1.498 1_555 1_555
C11 C10 1.368 1_555 1_555
H7 C11 0.950 1_555 1_555
C12 C11 1.419 1_555 1_555
H8 C12 0.950 1_555 1_555
C13 C12 1.366 1_555 1_555
H9 C13 0.950 1_555 1_555
C14 C13 1.417 1_555 1_555
C15 C10 1.414 1_555 1_555
C16 C14 1.415 1_555 1_555
H10 C16 0.950 1_555 1_555
C17 C16 1.369 1_555 1_555
H11 C17 0.950 1_555 1_555
C18 C17 1.417 1_555 1_555
H12 C18 0.950 1_555 1_555
C19 C15 1.416 1_555 1_555
C20 C9 1.553 1_555 1_555
C21 C1 1.365 1_555 1_555
C22 C4 1.402 1_555 1_555
C23 C9 1.522 1_555 1_555
H13 C23 0.990 1_555 1_555
H14 C23 0.990 1_555 1_555
C8 C22 1.414 1_555 1_555
C14 C15 1.403 1_555 1_555
C18 C19 1.367 1_555 1_555
C19 C20 1.494 1_555 1_555
C20 C21 1.495 1_555 1_555
C20 C23 1.522 1_555 1_555
C21 C22 1.416 1_555 1_555
#END
