
#######################################################################
#
#                 Cambridge Crystallographic Data Centre
#                                CCDC
#
#######################################################################
#
# If this CIF has been generated from an entry in the Cambridge
# Structural Database, then it will include bibliographic, chemical,
# crystal, experimental, refinement or atomic coordinate data resulting
# from the CCDC's data processing and validation procedures.
#
#######################################################################

data_CSD_CIF_RARRUZ
_audit_creation_date 2012-08-20
_audit_creation_method CSD-ConQuest-V1
_database_code_CSD RARRUZ
_database_code_depnum_ccdc_archive 'CCDC 854255'
_chemical_formula_sum 'C24 H18'
_chemical_formula_moiety
;
C24 H18
;
_journal_coden_Cambridge 1366
_journal_volume 354
_journal_year 2012
_journal_page_first 1551
_journal_name_full 'Adv.Synth.Catal. '
loop_
_publ_author_name
"Jheng-Jhih Chen"
"S.Onogi"
"Ya-Chu Hsieh"
"Chien-Chi Hsiao"
"S.Higashibayashi"
"H.Sakurai"
"Yao-Ting Wu"
_chemical_name_systematic
;
syn-9-(2-Methyl-1-naphthyl)-9H-fluorene
;
_chemical_melting_point 390.15
_cell_volume   1710.951
_exptl_crystal_colour 'colorless'
_exptl_crystal_density_diffrn 1.189
_exptl_special_details
;
Melting point range 390.15-391.15K

;
_exptl_crystal_description 'tabular'
_diffrn_ambient_temperature 296
#These two values have been output from a single CSD field.
_refine_ls_R_factor_gt 0.0657
_refine_ls_wR_factor_gt 0.0657
loop_
_citation_database_id_CSD
_citation_special_details
COTYUF "is a stereoisomer of this entry"
_symmetry_cell_setting monoclinic
_symmetry_space_group_name_H-M 'P 21/c'
_symmetry_Int_Tables_number 14
loop_
_symmetry_equiv_pos_site_id
_symmetry_equiv_pos_as_xyz
1 x,y,z
2 -x,1/2+y,1/2-z
3 -x,-y,-z
4 x,-1/2-y,-1/2+z
_cell_length_a 8.9565(4)
_cell_length_b 9.8582(4)
_cell_length_c 19.6356(10)
_cell_angle_alpha 90
_cell_angle_beta 99.297(2)
_cell_angle_gamma 90
_cell_formula_units_Z 4
loop_
_atom_type_symbol
_atom_type_radius_bond
C 0.68
H 0.23
loop_
_atom_site_label
_atom_site_type_symbol
_atom_site_fract_x
_atom_site_fract_y
_atom_site_fract_z
C1 C 0.4379(3) 0.7709(2) 0.35407(16)
H1 H 0.50030 0.84030 0.37420
C2 C 0.3749(3) 0.6791(2) 0.39596(13)
H2 H 0.39570 0.68780 0.44370
C3 C 0.2829(2) 0.5766(2) 0.36674(11)
H3 H 0.24210 0.51620 0.39520
C4 C 0.2486(2) 0.56067(18) 0.29446(11)
C5 C 0.1475(2) 0.45736(18) 0.26134(10)
C6 C 0.0758(2) 0.35567(18) 0.30413(10)
H4 H 0.02310 0.28970 0.27140
C7 C -0.0419(2) 0.41003(18) 0.34483(10)
C8 C -0.0197(2) 0.3562(2) 0.4112(1)
C9 C -0.1198(3) 0.3853(3) 0.45610(12)
H5 H -0.10560 0.34910 0.50040
C10 C -0.2408(3) 0.4690(3) 0.43354(15)
H6 H -0.30900 0.48970 0.46300
C11 C 0.4087(3) 0.7594(2) 0.28484(15)
H7 H 0.45150 0.82080 0.25760
C12 C 0.3135(2) 0.6547(2) 0.25295(13)
C13 C 0.2787(3) 0.6442(2) 0.18060(13)
H8 H 0.32340 0.70350 0.15300
C14 C 0.1811(3) 0.5488(2) 0.15084(12)
H9 H 0.15900 0.54500 0.10290
C15 C 0.1113(2) 0.4547(2) 0.19001(10)
C16 C -0.0035(3) 0.3591(2) 0.15129(11)
H10 H 0.03790 0.26910 0.15280
H11 H -0.02830 0.38810 0.10410
H12 H -0.09320 0.35920 0.17220
C17 C 0.1766(2) 0.27384(18) 0.35853(10)
C18 C 0.1164(2) 0.2709(2) 0.4197(1)
C19 C -0.1625(3) 0.4943(2) 0.32252(12)
H13 H -0.17690 0.53110 0.27830
C20 C -0.2620(3) 0.5225(3) 0.36802(16)
H14 H -0.34470 0.57860 0.35390
C21 C 0.1883(3) 0.1956(2) 0.47568(12)
H15 H 0.14880 0.19250 0.51660
C22 C 0.3183(3) 0.1262(2) 0.46944(14)
H16 H 0.36680 0.07550 0.50650
C23 C 0.3773(3) 0.1305(2) 0.40956(15)
H17 H 0.46580 0.08300 0.40650
C24 C 0.3078(2) 0.2041(2) 0.35331(12)
H18 H 0.34880 0.20660 0.31270
loop_
_geom_bond_atom_site_label_1
_geom_bond_atom_site_label_2
_geom_bond_distance
_geom_bond_site_symmetry_1
_geom_bond_site_symmetry_2
C1 H1 0.930 1_555 1_555
C2 C1 1.401 1_555 1_555
H2 C2 0.930 1_555 1_555
C3 C2 1.370 1_555 1_555
H3 C3 0.931 1_555 1_555
C4 C3 1.412 1_555 1_555
C5 C4 1.446 1_555 1_555
C6 C5 1.516 1_555 1_555
H4 C6 0.980 1_555 1_555
C7 C6 1.520 1_555 1_555
C8 C7 1.391 1_555 1_555
C9 C8 1.385 1_555 1_555
H5 C9 0.930 1_555 1_555
C10 C9 1.377 1_555 1_555
H6 C10 0.929 1_555 1_555
C11 C1 1.347 1_555 1_555
H7 C11 0.930 1_555 1_555
C12 C4 1.419 1_555 1_555
C13 C12 1.408 1_555 1_555
H8 C13 0.931 1_555 1_555
C14 C13 1.351 1_555 1_555
H9 C14 0.931 1_555 1_555
C15 C5 1.386 1_555 1_555
C16 C15 1.507 1_555 1_555
H10 C16 0.960 1_555 1_555
H11 C16 0.961 1_555 1_555
H12 C16 0.959 1_555 1_555
C17 C6 1.515 1_555 1_555
C18 C8 1.468 1_555 1_555
C19 C7 1.377 1_555 1_555
H13 C19 0.931 1_555 1_555
C20 C10 1.375 1_555 1_555
H14 C20 0.930 1_555 1_555
C21 C18 1.395 1_555 1_555
H15 C21 0.929 1_555 1_555
C22 C21 1.373 1_555 1_555
H16 C22 0.931 1_555 1_555
C23 C22 1.365 1_555 1_555
H17 C23 0.931 1_555 1_555
C24 C17 1.379 1_555 1_555
H18 C24 0.931 1_555 1_555
C11 C12 1.418 1_555 1_555
C14 C15 1.414 1_555 1_555
C17 C18 1.394 1_555 1_555
C19 C20 1.388 1_555 1_555
C23 C24 1.383 1_555 1_555
#END
