
#######################################################################
#
#                 Cambridge Crystallographic Data Centre
#                                CCDC
#
#######################################################################
#
# If this CIF has been generated from an entry in the Cambridge
# Structural Database, then it will include bibliographic, chemical,
# crystal, experimental, refinement or atomic coordinate data resulting
# from the CCDC's data processing and validation procedures.
#
#######################################################################

data_CSD_CIF_REBWIE
_audit_creation_date 1997-08-26
_audit_creation_method CSD-ConQuest-V1
_database_code_CSD REBWIE
_database_code_depnum_ccdc_archive 'CCDC 122437; CCDC 405362'
_database_code_depnum_ccdc_journal 207/95
_chemical_formula_sum 'C30 H18'
_chemical_formula_moiety
;
C30 H18
;
_journal_coden_Cambridge 207
_journal_year 1997
_journal_page_first 1163
_journal_name_full 'J.Chem.Soc.,Perkin Trans.1 '
loop_
_publ_author_name
"G.Dyker"
"T.Kerl"
"P.G.Jones"
"I.Dix"
"P.Bubenitschek"
_chemical_name_systematic
;
4'-Phenyl-dibenzo(j,l)fluoroanthene
;
_cell_volume   1883.679
_exptl_crystal_colour 'pale orange'
_exptl_crystal_density_diffrn 1.335
_diffrn_ambient_temperature 173
#These two values have been output from a single CSD field.
_refine_ls_R_factor_gt 0.0411
_refine_ls_wR_factor_gt 0.0411
_symmetry_cell_setting monoclinic
_symmetry_space_group_name_H-M 'P 21/c'
_symmetry_Int_Tables_number 14
loop_
_symmetry_equiv_pos_site_id
_symmetry_equiv_pos_as_xyz
1 x,y,z
2 -x,1/2+y,1/2-z
3 -x,-y,-z
4 x,-1/2-y,-1/2+z
_cell_length_a 10.8387(10)
_cell_length_b 15.861(2)
_cell_length_c 11.237(2)
_cell_angle_alpha 90
_cell_angle_beta 102.813(10)
_cell_angle_gamma 90
_cell_formula_units_Z 4
loop_
_atom_type_symbol
_atom_type_radius_bond
C 0.68
H 0.23
loop_
_atom_site_label
_atom_site_type_symbol
_atom_site_fract_x
_atom_site_fract_y
_atom_site_fract_z
C1 C 0.9746(2) 0.29420(12) 0.9999(2)
H1 H 0.9599(2) 0.35229(12) 1.0121(2)
C2 C 1.0514(2) 0.24898(14) 1.0910(2)
H2 H 1.0874(2) 0.27541(14) 1.1666(2)
C3 C 1.0767(2) 0.16480(13) 1.0733(2)
H3 H 1.1314(2) 0.13390(13) 1.1360(2)
C4 C 1.0227(2) 0.12629(12) 0.9652(2)
H4 H 1.0419(2) 0.06886(12) 0.9534(2)
C5 C 0.9396(2) 0.16961(11) 0.8710(2)
C6 C 0.8694(2) 0.12606(11) 0.7624(2)
C7 C 0.8910(2) 0.04043(12) 0.7432(2)
H5 H 0.9593(2) 0.01264(12) 0.7962(2)
C8 C 0.8168(2) -0.00397(12) 0.6506(2)
H6 H 0.8363(2) -0.06090(12) 0.6361(2)
C9 C 0.7113(2) 0.03542(12) 0.5772(2)
H7 H 0.6550(2) 0.00307(12) 0.5177(2)
C10 C 0.6871(2) 0.11968(11) 0.5892(2)
C11 C 0.7735(2) 0.16919(11) 0.6764(2)
C12 C 0.7714(2) 0.26023(11) 0.6851(2)
C13 C 0.7149(2) 0.32551(11) 0.5938(2)
C14 C 0.6598(2) 0.32880(12) 0.4716(2)
H8 H 0.6455(2) 0.27843(12) 0.4248(2)
C15 C 0.6243(2) 0.40799(13) 0.4155(2)
H9 H 0.5860(2) 0.40938(13) 0.3308(2)
C16 C 0.6431(2) 0.48224(13) 0.4784(2)
H10 H 0.6157(2) 0.53389(13) 0.4383(2)
C17 C 0.7037(2) 0.48175(12) 0.6038(2)
C18 C 0.7407(2) 0.40409(12) 0.6554(2)
C19 C 0.7320(2) 0.55300(13) 0.6809(2)
H11 H 0.7047(2) 0.60748(13) 0.6511(2)
C20 C 0.7987(2) 0.54306(13) 0.7985(2)
H12 H 0.8151(2) 0.59114(13) 0.8500(2)
C21 C 0.8440(2) 0.46347(13) 0.8460(2)
H13 H 0.8951(2) 0.45924(13) 0.9263(2)
C22 C 0.8142(2) 0.39267(11) 0.7760(2)
C23 C 0.8367(2) 0.30112(11) 0.7899(2)
C24 C 0.9171(2) 0.25572(12) 0.8883(2)
C25 C 0.5637(2) 0.15231(11) 0.5179(2)
C26 C 0.4834(2) 0.19702(12) 0.5754(2)
H14 H 0.5092(2) 0.20913(12) 0.6601(2)
C27 C 0.3661(2) 0.22422(13) 0.5109(2)
H15 H 0.3118(2) 0.25445(13) 0.5514(2)
C28 C 0.3284(2) 0.20725(13) 0.3876(2)
H16 H 0.2486(2) 0.22645(13) 0.3429(2)
C29 C 0.4071(2) 0.16235(13) 0.3296(2)
H17 H 0.3811(2) 0.15055(13) 0.2448(2)
C30 C 0.5230(2) 0.13464(13) 0.3940(2)
H18 H 0.5759(2) 0.10307(13) 0.3535(2)
loop_
_geom_bond_atom_site_label_1
_geom_bond_atom_site_label_2
_geom_bond_distance
_geom_bond_site_symmetry_1
_geom_bond_site_symmetry_2
C1 H1 0.950 1_555 1_555
C2 C1 1.370 1_555 1_555
H2 C2 0.950 1_555 1_555
C3 C2 1.386 1_555 1_555
H3 C3 0.950 1_555 1_555
C4 C3 1.370 1_555 1_555
H4 C4 0.950 1_555 1_555
C5 C4 1.407 1_555 1_555
C6 C5 1.461 1_555 1_555
C7 C6 1.403 1_555 1_555
H5 C7 0.949 1_555 1_555
C8 C7 1.362 1_555 1_555
H6 C8 0.950 1_555 1_555
C9 C8 1.400 1_555 1_555
H7 C9 0.950 1_555 1_555
C10 C9 1.374 1_555 1_555
C11 C6 1.427 1_555 1_555
C12 C11 1.448 1_555 1_555
C13 C12 1.490 1_555 1_555
C14 C13 1.372 1_555 1_555
H8 C14 0.950 1_555 1_555
C15 C14 1.420 1_555 1_555
H9 C15 0.950 1_555 1_555
C16 C15 1.365 1_555 1_555
H10 C16 0.950 1_555 1_555
C17 C16 1.417 1_555 1_555
C18 C13 1.423 1_555 1_555
C19 C17 1.416 1_555 1_555
H11 C19 0.950 1_555 1_555
C20 C19 1.367 1_555 1_555
H12 C20 0.950 1_555 1_555
C21 C20 1.415 1_555 1_555
H13 C21 0.951 1_555 1_555
C22 C18 1.423 1_555 1_555
C23 C12 1.392 1_555 1_555
C24 C1 1.410 1_555 1_555
C25 C10 1.491 1_555 1_555
C26 C25 1.388 1_555 1_555
H14 C26 0.950 1_555 1_555
C27 C26 1.385 1_555 1_555
H15 C27 0.950 1_555 1_555
C28 C27 1.381 1_555 1_555
H16 C28 0.949 1_555 1_555
C29 C28 1.381 1_555 1_555
H17 C29 0.950 1_555 1_555
C30 C25 1.393 1_555 1_555
H18 C30 0.950 1_555 1_555
C5 C24 1.408 1_555 1_555
C10 C11 1.431 1_555 1_555
C17 C18 1.382 1_555 1_555
C21 C22 1.368 1_555 1_555
C22 C23 1.475 1_555 1_555
C23 C24 1.440 1_555 1_555
C29 C30 1.375 1_555 1_555
#END
