
#######################################################################
#
#                 Cambridge Crystallographic Data Centre
#                                CCDC
#
#######################################################################
#
# If this CIF has been generated from an entry in the Cambridge
# Structural Database, then it will include bibliographic, chemical,
# crystal, experimental, refinement or atomic coordinate data resulting
# from the CCDC's data processing and validation procedures.
#
#######################################################################

data_CSD_CIF_REBWEA
_audit_creation_date 1997-08-26
_audit_creation_method CSD-ConQuest-V1
_database_code_CSD REBWEA
_database_code_depnum_ccdc_archive 'CCDC 122436; CCDC 405361'
_database_code_depnum_ccdc_journal 207/95
_chemical_formula_sum 'C26 H16'
_chemical_formula_moiety
;
C26 H16
;
_journal_coden_Cambridge 207
_journal_year 1997
_journal_page_first 1163
_journal_name_full 'J.Chem.Soc.,Perkin Trans.1 '
loop_
_publ_author_name
"G.Dyker"
"T.Kerl"
"P.G.Jones"
"I.Dix"
"P.Bubenitschek"
_chemical_name_systematic
;
7,12-Dihydro-7,12-benzenobenzo(k)fluoranthene
;
_chemical_melting_point 554.15
_cell_volume   3359.538
_exptl_crystal_colour 'orange'
_exptl_crystal_density_diffrn 1.298
_exptl_special_details
;
Melting point range 554.15-555.15K

;
_diffrn_ambient_temperature 143
#These two values have been output from a single CSD field.
_refine_ls_R_factor_gt 0.0454
_refine_ls_wR_factor_gt 0.0454
_symmetry_cell_setting orthorhombic
_symmetry_space_group_name_H-M 'P b c a'
_symmetry_Int_Tables_number 61
loop_
_symmetry_equiv_pos_site_id
_symmetry_equiv_pos_as_xyz
1 x,y,z
2 1/2-x,-y,1/2+z
3 -x,1/2+y,1/2-z
4 1/2+x,1/2-y,-z
5 -x,-y,-z
6 -1/2+x,y,-1/2-z
7 x,-1/2-y,-1/2+z
8 -1/2-x,-1/2+y,z
_cell_length_a 8.3122(8)
_cell_length_b 16.112(2)
_cell_length_c 25.085(3)
_cell_angle_alpha 90
_cell_angle_beta 90
_cell_angle_gamma 90
_cell_formula_units_Z 8
loop_
_atom_type_symbol
_atom_type_radius_bond
C 0.68
H 0.23
loop_
_atom_site_label
_atom_site_type_symbol
_atom_site_fract_x
_atom_site_fract_y
_atom_site_fract_z
C1 C 0.2291(2) 0.48613(12) 0.04541(8)
H1 H 0.1798(2) 0.50910(12) 0.07624(8)
C2 C 0.1971(2) 0.51926(12) -0.00593(8)
H2 H 0.1252(2) 0.56489(12) -0.00877(8)
C3 C 0.2650(2) 0.48852(13) -0.05149(8)
H3 H 0.2391(2) 0.51234(13) -0.08505(8)
C4 C 0.3744(2) 0.42084(12) -0.04856(7)
C5 C 0.4647(3) 0.38397(13) -0.09050(8)
H4 H 0.4503(3) 0.40278(13) -0.12607(8)
C6 C 0.5721(3) 0.32173(13) -0.08014(8)
H5 H 0.6316(3) 0.29890(13) -0.10894(8)
C7 C 0.5981(2) 0.28986(12) -0.02812(7)
H6 H 0.6723(2) 0.24602(12) -0.02208(7)
C8 C 0.5131(2) 0.32411(11) 0.01310(7)
C9 C 0.5088(2) 0.31506(11) 0.07112(7)
C10 C 0.6047(2) 0.26603(11) 0.11147(7)
H7 H 0.6801(2) 0.22494(11) 0.09511(7)
C11 C 0.6891(2) 0.33258(11) 0.14518(7)
C12 C 0.8518(2) 0.34008(12) 0.15338(8)
H8 H 0.9242(2) 0.30037(12) 0.13894(8)
C13 C 0.9093(2) 0.40694(12) 0.18324(8)
H9 H 1.0217(2) 0.41295(12) 0.18890(8)
C14 C 0.8044(2) 0.46433(12) 0.20461(7)
H10 H 0.8450(2) 0.50964(12) 0.22477(7)
C15 C 0.6399(2) 0.45624(11) 0.19681(7)
H11 H 0.5676(2) 0.49553(11) 0.21176(7)
C16 C 0.5822(2) 0.39053(11) 0.16710(7)
C17 C 0.4063(2) 0.37387(11) 0.15294(7)
H12 H 0.3297(2) 0.41526(11) 0.16839(7)
C18 C 0.4048(2) 0.37106(11) 0.09232(7)
C19 C 0.3326(2) 0.42023(11) 0.04950(7)
C20 C 0.4029(2) 0.38877(11) 0.00190(7)
C21 C 0.3757(2) 0.28482(11) 0.17150(7)
C22 C 0.4800(2) 0.22698(12) 0.14829(7)
C23 C 0.4640(3) 0.14355(12) 0.15906(7)
H13 H 0.5338(3) 0.10426(12) 0.14286(7)
C24 C 0.3434(3) 0.11754(13) 0.19423(8)
H14 H 0.3295(3) 0.06006(13) 0.20130(8)
C25 C 0.2444(3) 0.17479(13) 0.21873(8)
H15 H 0.1650(3) 0.15656(13) 0.24334(8)
C26 C 0.2601(2) 0.25926(13) 0.20759(7)
H16 H 0.1923(2) 0.29867(13) 0.22457(7)
loop_
_geom_bond_atom_site_label_1
_geom_bond_atom_site_label_2
_geom_bond_distance
_geom_bond_site_symmetry_1
_geom_bond_site_symmetry_2
C1 H1 0.950 1_555 1_555
C2 C1 1.419 1_555 1_555
H2 C2 0.950 1_555 1_555
C3 C2 1.367 1_555 1_555
H3 C3 0.950 1_555 1_555
C4 C3 1.422 1_555 1_555
C5 C4 1.422 1_555 1_555
H4 C5 0.950 1_555 1_555
C6 C5 1.368 1_555 1_555
H5 C6 0.950 1_555 1_555
C7 C6 1.419 1_555 1_555
H6 C7 0.950 1_555 1_555
C8 C7 1.369 1_555 1_555
C9 C8 1.463 1_555 1_555
C10 C9 1.511 1_555 1_555
H7 C10 1.000 1_555 1_555
C11 C10 1.535 1_555 1_555
C12 C11 1.373 1_555 1_555
H8 C12 0.950 1_555 1_555
C13 C12 1.396 1_555 1_555
H9 C13 0.950 1_555 1_555
C14 C13 1.379 1_555 1_555
H10 C14 0.950 1_555 1_555
C15 C14 1.387 1_555 1_555
H11 C15 0.950 1_555 1_555
C16 C11 1.401 1_555 1_555
C17 C16 1.528 1_555 1_555
H12 C17 1.000 1_555 1_555
C18 C9 1.358 1_555 1_555
C19 C1 1.370 1_555 1_555
C20 C4 1.388 1_555 1_555
C21 C17 1.530 1_555 1_555
C22 C10 1.524 1_555 1_555
C23 C22 1.378 1_555 1_555
H13 C23 0.950 1_555 1_555
C24 C23 1.400 1_555 1_555
H14 C24 0.950 1_555 1_555
C25 C24 1.380 1_555 1_555
H15 C25 0.950 1_555 1_555
C26 C21 1.383 1_555 1_555
H16 C26 0.950 1_555 1_555
C8 C20 1.415 1_555 1_555
C15 C16 1.381 1_555 1_555
C17 C18 1.521 1_555 1_555
C18 C19 1.463 1_555 1_555
C19 C20 1.423 1_555 1_555
C21 C22 1.400 1_555 1_555
C25 C26 1.395 1_555 1_555
#END
