
#######################################################################
#
#                 Cambridge Crystallographic Data Centre
#                                CCDC
#
#######################################################################
#
# If this CIF has been generated from an entry in the Cambridge
# Structural Database, then it will include bibliographic, chemical,
# crystal, experimental, refinement or atomic coordinate data resulting
# from the CCDC's data processing and validation procedures.
#
#######################################################################

data_CSD_CIF_REFWIK
_audit_creation_date 2013-02-22
_audit_creation_method CSD-ConQuest-V1
_database_code_CSD REFWIK
_database_code_depnum_ccdc_archive 'CCDC 887712'
_chemical_formula_sum 'C30 H18'
_chemical_formula_moiety
;
C30 H18
;
_journal_coden_Cambridge 1291
_journal_year 2012
_journal_page_first 6155
_journal_name_full 'Eur.J.Org.Chem. '
loop_
_publ_author_name
"A.Mueller"
"K.Yu.Amsharov"
_chemical_name_systematic
;
3,3'-Ethyne-1,2-diyldiphenanthrene
;
_chemical_name_common
;
1,2-bis(phenanthrene-3-yl)ethyne
;
_cell_volume    943.800
_exptl_crystal_colour 'orange'
_exptl_crystal_density_diffrn 1.332
_exptl_crystal_description 'drop'
_diffrn_ambient_temperature 100
#These two values have been output from a single CSD field.
_refine_ls_R_factor_gt 0.0411
_refine_ls_wR_factor_gt 0.0411
_symmetry_cell_setting monoclinic
_symmetry_space_group_name_H-M 'P 21/c'
_symmetry_Int_Tables_number 14
loop_
_symmetry_equiv_pos_site_id
_symmetry_equiv_pos_as_xyz
1 x,y,z
2 -x,1/2+y,1/2-z
3 -x,-y,-z
4 x,-1/2-y,-1/2+z
_cell_length_a 9.3136(11)
_cell_length_b 7.8691(9)
_cell_length_c 13.1155(15)
_cell_angle_alpha 90
_cell_angle_beta 100.928(1)
_cell_angle_gamma 90
_cell_formula_units_Z 2
loop_
_atom_type_symbol
_atom_type_radius_bond
C 0.68
H 0.23
loop_
_atom_site_label
_atom_site_type_symbol
_atom_site_fract_x
_atom_site_fract_y
_atom_site_fract_z
C1 C 0.96630(12) 0.45489(15) 0.02367(8)
C2 C 0.65765(13) 0.21947(14) 0.10695(8)
C3 C 0.73135(13) 0.14742(15) 0.20153(9)
C4 C 0.73829(12) 0.32063(14) 0.04951(8)
H1 H 0.69000 0.37020 -0.01380
C5 C 0.50169(13) 0.18846(14) 0.07260(9)
C6 C 0.95884(13) 0.27634(15) 0.17764(9)
H2 H 1.06050 0.29480 0.20120
C7 C 0.65162(15) 0.04337(16) 0.26160(9)
H3 H 0.70140 -0.00700 0.32420
C8 C 0.42706(14) 0.08817(15) 0.13582(10)
C9 C 0.42113(13) 0.25402(15) -0.02096(9)
H4 H 0.46930 0.32150 -0.06430
C10 C 0.88171(14) 0.17897(15) 0.23491(9)
H5 H 0.93080 0.13160 0.29870
C11 C 0.88657(12) 0.34968(14) 0.08300(9)
C12 C 0.27589(15) 0.05753(16) 0.10395(11)
H6 H 0.22580 -0.00930 0.14640
C13 C 0.50684(15) 0.01631(16) 0.23023(10)
H7 H 0.45650 -0.05210 0.27180
C14 C 0.20037(14) 0.12326(17) 0.01230(11)
H8 H 0.09860 0.10210 -0.00850
C15 C 0.27431(14) 0.22202(16) -0.05061(10)
H9 H 0.22220 0.26700 -0.11420
C1B C 1.03370(12) 0.54511(15) -0.02367(8)
C2B C 1.34235(13) 0.78053(14) -0.10695(8)
C3B C 1.26865(13) 0.85258(15) -0.20153(9)
C4B C 1.26171(12) 0.67937(14) -0.04951(8)
H1B H 1.31000 0.62980 0.01380
C5B C 1.49831(13) 0.81154(14) -0.07260(9)
C6B C 1.04116(13) 0.72366(15) -0.17764(9)
H2B H 0.93950 0.70520 -0.20120
C7B C 1.34838(15) 0.95663(16) -0.26160(9)
H3B H 1.29860 1.00700 -0.32420
C8B C 1.57294(14) 0.91183(15) -0.13582(10)
C9B C 1.57887(13) 0.74598(15) 0.02096(9)
H4B H 1.53070 0.67850 0.06430
C10B C 1.11829(14) 0.82103(15) -0.23491(9)
H5B H 1.06920 0.86840 -0.29870
C11B C 1.11343(12) 0.65032(14) -0.08300(9)
C12B C 1.72411(15) 0.94247(16) -0.10395(11)
H6B H 1.77420 1.00930 -0.14640
C13B C 1.49316(15) 0.98369(16) -0.23023(10)
H7B H 1.54350 1.05210 -0.27180
C14B C 1.79963(14) 0.87674(17) -0.01230(11)
H8B H 1.90140 0.89790 0.00850
C15B C 1.72569(14) 0.77798(16) 0.05061(10)
H9B H 1.77780 0.73300 0.11420
loop_
_geom_bond_atom_site_label_1
_geom_bond_atom_site_label_2
_geom_bond_distance
_geom_bond_site_symmetry_1
_geom_bond_site_symmetry_2
C1 C11 1.436 1_555 1_555
C2 C3 1.417 1_555 1_555
C3 C7 1.437 1_555 1_555
C4 C2 1.407 1_555 1_555
H1 C4 0.950 1_555 1_555
C5 C2 1.457 1_555 1_555
C6 H2 0.950 1_555 1_555
C7 H3 0.950 1_555 1_555
C8 C5 1.418 1_555 1_555
C9 C5 1.409 1_555 1_555
H4 C9 0.950 1_555 1_555
C10 C3 1.408 1_555 1_555
H5 C10 0.950 1_555 1_555
C11 C4 1.387 1_555 1_555
C12 C8 1.411 1_555 1_555
H6 C12 0.950 1_555 1_555
C13 C7 1.350 1_555 1_555
H7 C13 0.951 1_555 1_555
C14 C12 1.374 1_555 1_555
H8 C14 0.950 1_555 1_555
C15 C9 1.372 1_555 1_555
H9 C15 0.950 1_555 1_555
C1B C1 1.196 1_555 1_555
C2B C3B 1.417 1_555 1_555
C3B C7B 1.437 1_555 1_555
C4B C2B 1.407 1_555 1_555
H1B C4B 0.950 1_555 1_555
C5B C2B 1.457 1_555 1_555
C6B H2B 0.950 1_555 1_555
C7B H3B 0.950 1_555 1_555
C8B C5B 1.418 1_555 1_555
C9B C5B 1.409 1_555 1_555
H4B C9B 0.950 1_555 1_555
C10B C3B 1.408 1_555 1_555
H5B C10B 0.950 1_555 1_555
C11B C1B 1.436 1_555 1_555
C12B C8B 1.411 1_555 1_555
H6B C12B 0.950 1_555 1_555
C13B C7B 1.350 1_555 1_555
H7B C13B 0.951 1_555 1_555
C14B C12B 1.374 1_555 1_555
H8B C14B 0.950 1_555 1_555
C15B C9B 1.372 1_555 1_555
H9B C15B 0.950 1_555 1_555
C6 C10 1.368 1_555 1_555
C6 C11 1.418 1_555 1_555
C8 C13 1.434 1_555 1_555
C14 C15 1.405 1_555 1_555
C4B C11B 1.387 1_555 1_555
C6B C10B 1.368 1_555 1_555
C6B C11B 1.418 1_555 1_555
C8B C13B 1.434 1_555 1_555
C14B C15B 1.405 1_555 1_555
#END
