
#######################################################################
#
#                 Cambridge Crystallographic Data Centre
#                                CCDC
#
#######################################################################
#
# If this CIF has been generated from an entry in the Cambridge
# Structural Database, then it will include bibliographic, chemical,
# crystal, experimental, refinement or atomic coordinate data resulting
# from the CCDC's data processing and validation procedures.
#
#######################################################################

data_CSD_CIF_REGSEE
_audit_creation_date 2017-10-11
_audit_creation_method CSD-ConQuest-V1
_database_code_CSD REGSEE
_database_code_depnum_ccdc_archive 'CCDC 1531785'
_chemical_formula_sum 'C32 H42'
_chemical_formula_moiety
;
C32 H42
;
_journal_coden_Cambridge 983
_journal_volume 121
_journal_year 2017
_journal_page_first 9202
_journal_name_full 'J.Phys.Chem.C '
loop_
_publ_author_name
"M.Ivanov"
"K.Thakur"
"A.Boddeda"
"Denan Wang"
"R.Rathore"
_chemical_name_systematic
;
1,6-dioctylpyrene
;
_cell_volume   2461.109
_exptl_crystal_colour 'colorless'
_exptl_crystal_density_diffrn 1.151
_exptl_crystal_description 'needle'
_diffrn_ambient_temperature 100
#These two values have been output from a single CSD field.
_refine_ls_R_factor_gt 0.0403
_refine_ls_wR_factor_gt 0.0403
_symmetry_cell_setting monoclinic
_symmetry_space_group_name_H-M 'P 21/n'
_symmetry_Int_Tables_number 14
loop_
_symmetry_equiv_pos_site_id
_symmetry_equiv_pos_as_xyz
1 x,y,z
2 1/2-x,1/2+y,1/2-z
3 -x,-y,-z
4 -1/2+x,-1/2-y,-1/2+z
_cell_length_a 7.75029(12)
_cell_length_b 34.4156(5)
_cell_length_c 9.25694(17)
_cell_angle_alpha 90
_cell_angle_beta 94.6142(15)
_cell_angle_gamma 90
_cell_formula_units_Z 4
loop_
_atom_type_symbol
_atom_type_radius_bond
C 0.68
H 0.23
loop_
_atom_site_label
_atom_site_type_symbol
_atom_site_fract_x
_atom_site_fract_y
_atom_site_fract_z
C1 C 0.57535(13) 0.71164(3) 0.24080(12)
C2 C 0.55987(14) 0.69960(3) 0.09673(13)
H1 H 0.58970 0.71720 0.02360
C3 C 0.50216(14) 0.66272(3) 0.05714(12)
H2 H 0.49290 0.65550 -0.04220
C4 C 0.45743(13) 0.63603(3) 0.16163(12)
C5 C 0.39999(14) 0.59738(3) 0.12492(12)
H3 H 0.39060 0.58960 0.02610
C6 C 0.35892(13) 0.57173(3) 0.22735(12)
H4 H 0.32160 0.54640 0.19880
C7 C 0.37040(13) 0.58187(3) 0.37837(12)
C8 C 0.32922(13) 0.55504(3) 0.48641(12)
C9 C 0.34117(14) 0.56727(3) 0.63039(12)
H5 H 0.31360 0.54950 0.70370
C10 C 0.39242(14) 0.60480(3) 0.66932(12)
H6 H 0.39760 0.61220 0.76840
C11 C 0.43641(13) 0.63177(3) 0.56578(12)
C12 C 0.49220(14) 0.67064(3) 0.60238(12)
H7 H 0.49760 0.67870 0.70080
C13 C 0.53724(13) 0.69599(3) 0.50003(12)
H8 H 0.57540 0.72130 0.52870
C14 C 0.52881(13) 0.68563(3) 0.34914(12)
C15 C 0.47038(13) 0.64738(3) 0.30954(11)
C16 C 0.42578(12) 0.62035(3) 0.41780(11)
C17 C 0.63727(14) 0.75254(3) 0.27526(13)
H9 H 0.70660 0.76170 0.19680
H10 H 0.71380 0.75210 0.36620
C18 C 0.48953(14) 0.78116(3) 0.29213(13)
H11 H 0.41070 0.78100 0.20250
H12 H 0.42260 0.77260 0.37310
C19 C 0.55385(14) 0.82254(3) 0.32159(13)
H13 H 0.64020 0.82240 0.40640
H14 H 0.61200 0.83200 0.23690
C20 C 0.40736(14) 0.85013(3) 0.35069(13)
H15 H 0.34700 0.83990 0.43300
H16 H 0.32300 0.85060 0.26450
C21 C 0.46567(14) 0.89161(3) 0.38530(13)
H17 H 0.55540 0.89130 0.46770
H18 H 0.51820 0.90270 0.30050
C22 C 0.31617(14) 0.91737(3) 0.42351(13)
H19 H 0.22770 0.91790 0.34020
H20 H 0.26220 0.90570 0.50660
C23 C 0.36855(15) 0.95894(3) 0.46200(14)
H21 H 0.41710 0.97130 0.37760
H22 H 0.46010 0.95870 0.54300
C24 C 0.21567(16) 0.98291(3) 0.50559(14)
H23 H 0.12620 0.98390 0.42460
H24 H 0.25460 1.00930 0.53060
H25 H 0.16790 0.97090 0.58970
C25 C 0.27278(14) 0.51411(3) 0.44380(12)
H26 H 0.36470 0.50230 0.38990
H27 H 0.16770 0.51600 0.37590
C26 C 0.23405(14) 0.48657(3) 0.56518(12)
H28 H 0.14180 0.49790 0.62010
H29 H 0.33910 0.48360 0.63260
C27 C 0.17632(14) 0.44655(3) 0.50838(12)
H30 H 0.07260 0.44960 0.43960
H31 H 0.26940 0.43510 0.45460
C28 C 0.13416(14) 0.41870(3) 0.62876(12)
H32 H 0.04340 0.43050 0.68410
H33 H 0.23880 0.41520 0.69610
C29 C 0.07206(14) 0.37900(3) 0.57275(12)
H34 H -0.03130 0.38250 0.50390
H35 H 0.16380 0.36700 0.51920
C30 C 0.02675(14) 0.35164(3) 0.69352(12)
H36 H -0.06590 0.36360 0.74630
H37 H 0.12970 0.34840 0.76300
C31 C -0.03356(14) 0.31162(3) 0.63863(12)
H38 H -0.13800 0.31470 0.57060
H39 H 0.05820 0.29970 0.58460
C32 C -0.07524(15) 0.28455(3) 0.76135(14)
H40 H -0.10700 0.25890 0.72170
H41 H -0.17210 0.29520 0.81050
H42 H 0.02650 0.28210 0.83080
loop_
_geom_bond_atom_site_label_1
_geom_bond_atom_site_label_2
_geom_bond_distance
_geom_bond_site_symmetry_1
_geom_bond_site_symmetry_2
C1 C2 1.392 1_555 1_555
C2 H1 0.951 1_555 1_555
C3 C2 1.385 1_555 1_555
H2 C3 0.950 1_555 1_555
C4 C3 1.398 1_555 1_555
C5 C4 1.435 1_555 1_555
H3 C5 0.950 1_555 1_555
C6 C5 1.352 1_555 1_555
H4 C6 0.949 1_555 1_555
C7 C6 1.437 1_555 1_555
C8 C7 1.416 1_555 1_555
C9 C8 1.394 1_555 1_555
H5 C9 0.951 1_555 1_555
C10 C9 1.390 1_555 1_555
H6 C10 0.950 1_555 1_555
C11 C10 1.396 1_555 1_555
C12 C11 1.438 1_555 1_555
H7 C12 0.950 1_555 1_555
C13 C12 1.354 1_555 1_555
H8 C13 0.951 1_555 1_555
C14 C1 1.413 1_555 1_555
C15 C4 1.420 1_555 1_555
C16 C7 1.430 1_555 1_555
C17 C1 1.513 1_555 1_555
H9 C17 0.989 1_555 1_555
H10 C17 0.990 1_555 1_555
C18 C17 1.528 1_555 1_555
H11 C18 0.990 1_555 1_555
H12 C18 0.990 1_555 1_555
C19 C18 1.526 1_555 1_555
H13 C19 0.990 1_555 1_555
H14 C19 0.990 1_555 1_555
C20 C19 1.521 1_555 1_555
H15 C20 0.990 1_555 1_555
H16 C20 0.990 1_555 1_555
C21 C20 1.524 1_555 1_555
H17 C21 0.990 1_555 1_555
H18 C21 0.989 1_555 1_555
C22 C21 1.523 1_555 1_555
H19 C22 0.990 1_555 1_555
H20 C22 0.990 1_555 1_555
C23 C22 1.522 1_555 1_555
H21 C23 0.990 1_555 1_555
H22 C23 0.990 1_555 1_555
C24 C23 1.525 1_555 1_555
H23 C24 0.980 1_555 1_555
H24 C24 0.979 1_555 1_555
H25 C24 0.980 1_555 1_555
C25 C8 1.518 1_555 1_555
H26 C25 0.989 1_555 1_555
H27 C25 0.990 1_555 1_555
C26 C25 1.518 1_555 1_555
H28 C26 0.990 1_555 1_555
H29 C26 0.990 1_555 1_555
C27 C26 1.528 1_555 1_555
H30 C27 0.990 1_555 1_555
H31 C27 0.991 1_555 1_555
C28 C27 1.525 1_555 1_555
H32 C28 0.990 1_555 1_555
H33 C28 0.990 1_555 1_555
C29 C28 1.525 1_555 1_555
H34 C29 0.990 1_555 1_555
H35 C29 0.989 1_555 1_555
C30 C29 1.524 1_555 1_555
H36 C30 0.990 1_555 1_555
H37 C30 0.990 1_555 1_555
C31 C30 1.528 1_555 1_555
H38 C31 0.990 1_555 1_555
H39 C31 0.991 1_555 1_555
C32 C31 1.524 1_555 1_555
H40 C32 0.980 1_555 1_555
H41 C32 0.980 1_555 1_555
H42 C32 0.980 1_555 1_555
C11 C16 1.421 1_555 1_555
C13 C14 1.438 1_555 1_555
C14 C15 1.430 1_555 1_555
C15 C16 1.430 1_555 1_555
#END
