
#######################################################################
#
#                 Cambridge Crystallographic Data Centre
#                                CCDC
#
#######################################################################
#
# If this CIF has been generated from an entry in the Cambridge
# Structural Database, then it will include bibliographic, chemical,
# crystal, experimental, refinement or atomic coordinate data resulting
# from the CCDC's data processing and validation procedures.
#
#######################################################################

data_CSD_CIF_REGSAA
_audit_creation_date 2017-10-11
_audit_creation_method CSD-ConQuest-V1
_database_code_CSD REGSAA
_database_code_depnum_ccdc_archive 'CCDC 1531784'
_chemical_formula_sum 'C64 H82'
_chemical_formula_moiety
;
C64 H82
;
_journal_coden_Cambridge 983
_journal_volume 121
_journal_year 2017
_journal_page_first 9202
_journal_name_full 'J.Phys.Chem.C '
loop_
_publ_author_name
"M.Ivanov"
"K.Thakur"
"A.Boddeda"
"Denan Wang"
"R.Rathore"
_chemical_name_systematic
;
3,3',8,8'-tetraoctyl-1,1'-bipyrene
;
_cell_volume   5098.361
_exptl_crystal_colour 'colorless'
_exptl_crystal_density_diffrn 1.109
_exptl_crystal_description 'prism'
_diffrn_ambient_temperature 99.9
#These two values have been output from a single CSD field.
_refine_ls_R_factor_gt 0.0542
_refine_ls_wR_factor_gt 0.0542
_symmetry_cell_setting monoclinic
_symmetry_space_group_name_H-M 'I 2/a'
_symmetry_Int_Tables_number 15
loop_
_symmetry_equiv_pos_site_id
_symmetry_equiv_pos_as_xyz
1 x,y,z
2 1/2-x,y,-z
3 1/2+x,1/2+y,1/2+z
4 -x,1/2+y,1/2-z
5 -x,-y,-z
6 -1/2+x,-y,z
7 -1/2-x,-1/2-y,-1/2-z
8 x,-1/2-y,-1/2+z
_cell_length_a 16.3409(6)
_cell_length_b 9.0662(3)
_cell_length_c 35.1804(13)
_cell_angle_alpha 90
_cell_angle_beta 101.985(4)
_cell_angle_gamma 90
_cell_formula_units_Z 4
loop_
_atom_type_symbol
_atom_type_radius_bond
C 0.68
H 0.23
loop_
_atom_site_label
_atom_site_type_symbol
_atom_site_fract_x
_atom_site_fract_y
_atom_site_fract_z
C1 C -0.06350(11) 0.46934(19) 0.43186(5)
C2 C 0.00506(10) 0.38222(18) 0.45051(5)
C3 C 0.08233(10) 0.37972(18) 0.43734(5)
H1 H 0.08810 0.43860 0.41570
C4 C 0.14756(10) 0.29474(18) 0.45519(5)
H2 H 0.19790 0.29540 0.44570
C5 C 0.14219(10) 0.20375(17) 0.48813(4)
C6 C 0.20994(10) 0.11746(17) 0.50695(5)
C7 C 0.20210(11) 0.03461(18) 0.53940(5)
H3 H 0.24830 -0.02300 0.55210
C8 C 0.12906(11) 0.03310(18) 0.55392(5)
C9 C 0.06011(11) 0.11726(18) 0.53543(5)
C10 C -0.01817(11) 0.1211(2) 0.54799(5)
H4 H -0.02470 0.06220 0.56950
C11 C -0.08259(11) 0.2059(2) 0.53013(5)
H5 H -0.13290 0.20600 0.53970
C12 C -0.07741(11) 0.2956(2) 0.49725(5)
C13 C -0.14308(11) 0.3846(2) 0.47837(6)
H6 H -0.19370 0.38740 0.48760
C14 C -0.13599(11) 0.4687(2) 0.44655(5)
H7 H -0.18200 0.52780 0.43440
C15 C -0.0016(1) 0.29389(18) 0.48325(5)
C16 C 0.06675(10) 0.20521(17) 0.50211(4)
C17 C -0.06022(12) 0.55848(19) 0.39613(5)
H8 H -0.00580 0.61040 0.40010
H9 H -0.10480 0.63420 0.39260
C18 C -0.07107(12) 0.46463(19) 0.35920(5)
H10 H -0.02510 0.39170 0.36220
H11 H -0.12440 0.40960 0.35580
C19 C -0.07116(12) 0.55713(19) 0.32316(5)
H12 H -0.01870 0.61510 0.32720
H13 H -0.11840 0.62760 0.31970
C20 C -0.07866(12) 0.46623(18) 0.28615(5)
H14 H -0.02990 0.39940 0.28900
H15 H -0.12960 0.40440 0.28280
C21 C -0.08307(12) 0.55959(19) 0.25003(5)
H16 H -0.03190 0.62090 0.25340
H17 H -0.13160 0.62710 0.24740
C22 C -0.09127(12) 0.4700(2) 0.21284(5)
H18 H -0.14130 0.40620 0.21000
H19 H -0.04180 0.40500 0.21510
C23 C -0.09861(13) 0.5643(2) 0.17648(6)
H20 H -0.14820 0.62910 0.17410
H21 H -0.04860 0.62820 0.17930
C24 C -0.10662(15) 0.4738(3) 0.13945(6)
H22 H -0.11050 0.54020 0.11720
H23 H -0.15710 0.41260 0.13590
H24 H -0.05740 0.41020 0.14140
C25 C 0.12757(13) -0.05740(19) 0.59011(5)
H25 H 0.17080 -0.13530 0.59270
H26 H 0.07250 -0.10640 0.58710
C26 C 0.14329(11) 0.03571(18) 0.62724(5)
H27 H 0.19610 0.09120 0.62910
H28 H 0.09740 0.10830 0.62560
C27 C 0.14887(11) -0.05651(18) 0.66396(5)
H29 H 0.09770 -0.11740 0.66120
H30 H 0.19720 -0.12430 0.66650
C28 C 0.15850(11) 0.03545(18) 0.70091(5)
H31 H 0.20920 0.09750 0.70350
H32 H 0.10970 0.10210 0.69860
C29 C 0.16532(11) -0.05731(18) 0.73747(5)
H33 H 0.21510 -0.12180 0.74010
H34 H 0.11550 -0.12180 0.73440
C30 C 0.17224(11) 0.03223(18) 0.77469(5)
H35 H 0.22220 0.09660 0.77790
H36 H 0.12250 0.09660 0.77220
C31 C 0.17893(13) -0.0633(2) 0.81080(5)
H37 H 0.22880 -0.12730 0.81330
H38 H 0.12920 -0.12810 0.80740
C32 C 0.18539(14) 0.0247(2) 0.84819(5)
H39 H 0.13460 0.08400 0.84670
H40 H 0.23420 0.09000 0.85170
H41 H 0.19150 -0.04310 0.87030
C1A C 0.56350(11) 0.46934(19) 0.56814(5)
C2A C 0.49494(10) 0.38222(18) 0.54949(5)
C3A C 0.41767(10) 0.37972(18) 0.56266(5)
H1A H 0.41190 0.43860 0.58430
C4A C 0.35244(10) 0.29474(18) 0.54481(5)
H2A H 0.30210 0.29540 0.55430
C5A C 0.35781(10) 0.20375(17) 0.51187(4)
C6A C 0.29006(10) 0.11746(17) 0.49305(5)
C7A C 0.29790(11) 0.03461(18) 0.46060(5)
H3A H 0.25170 -0.02300 0.44790
C8A C 0.37094(11) 0.03310(18) 0.44608(5)
C9A C 0.43989(11) 0.11726(18) 0.46457(5)
C10A C 0.51817(11) 0.1211(2) 0.45201(5)
H4A H 0.52470 0.06220 0.43050
C11A C 0.58259(11) 0.2059(2) 0.46987(5)
H5A H 0.63290 0.20600 0.46030
C12A C 0.57741(11) 0.2956(2) 0.50275(5)
C13A C 0.64308(11) 0.3846(2) 0.52163(6)
H6A H 0.69370 0.38740 0.51240
C14A C 0.63599(11) 0.4687(2) 0.55345(5)
H7A H 0.68200 0.52780 0.56560
C15A C 0.5016(1) 0.29389(18) 0.51675(5)
C16A C 0.43325(10) 0.20521(17) 0.49789(4)
C17A C 0.56022(12) 0.55848(19) 0.60387(5)
H8A H 0.50580 0.61040 0.59990
H9A H 0.60480 0.63420 0.60740
C18A C 0.57107(12) 0.46463(19) 0.64080(5)
H10A H 0.52510 0.39170 0.63780
H11A H 0.62440 0.40960 0.64420
C19A C 0.57116(12) 0.55713(19) 0.67684(5)
H12A H 0.51870 0.61510 0.67280
H13A H 0.61840 0.62760 0.68030
C20A C 0.57866(12) 0.46623(18) 0.71385(5)
H14A H 0.52990 0.39940 0.71100
H15A H 0.62960 0.40440 0.71720
C21A C 0.58307(12) 0.55959(19) 0.74997(5)
H16A H 0.53190 0.62090 0.74660
H17A H 0.63160 0.62710 0.75260
C22A C 0.59127(12) 0.4700(2) 0.78716(5)
H18A H 0.64130 0.40620 0.79000
H19A H 0.54180 0.40500 0.78490
C23A C 0.59861(13) 0.5643(2) 0.82352(6)
H20A H 0.64820 0.62910 0.82590
H21A H 0.54860 0.62820 0.82070
C24A C 0.60662(15) 0.4738(3) 0.86055(6)
H22A H 0.61050 0.54020 0.88280
H23A H 0.65710 0.41260 0.86410
H24A H 0.55740 0.41020 0.85860
C25A C 0.37243(13) -0.05740(19) 0.40989(5)
H25A H 0.32920 -0.13530 0.40730
H26A H 0.42750 -0.10640 0.41290
C26A C 0.35671(11) 0.03571(18) 0.37276(5)
H27A H 0.30390 0.09120 0.37090
H28A H 0.40260 0.10830 0.37440
C27A C 0.35113(11) -0.05651(18) 0.33604(5)
H29A H 0.40230 -0.11740 0.33880
H30A H 0.30280 -0.12430 0.33350
C28A C 0.34150(11) 0.03545(18) 0.29909(5)
H31A H 0.29080 0.09750 0.29650
H32A H 0.39030 0.10210 0.30140
C29A C 0.33468(11) -0.05731(18) 0.26253(5)
H33A H 0.28490 -0.12180 0.25990
H34A H 0.38450 -0.12180 0.26560
C30A C 0.32776(11) 0.03223(18) 0.22531(5)
H35A H 0.27780 0.09660 0.22210
H36A H 0.37750 0.09660 0.22780
C31A C 0.32107(13) -0.0633(2) 0.18920(5)
H37A H 0.27120 -0.12730 0.18670
H38A H 0.37080 -0.12810 0.19260
C32A C 0.31461(14) 0.0247(2) 0.15181(5)
H39A H 0.36540 0.08400 0.15330
H40A H 0.26580 0.09000 0.14830
H41A H 0.30850 -0.04310 0.12970
loop_
_geom_bond_atom_site_label_1
_geom_bond_atom_site_label_2
_geom_bond_distance
_geom_bond_site_symmetry_1
_geom_bond_site_symmetry_2
C1 C2 1.416 1_555 1_555
C2 C3 1.433 1_555 1_555
C3 H1 0.950 1_555 1_555
C4 C3 1.359 1_555 1_555
H2 C4 0.950 1_555 1_555
C5 C4 1.440 1_555 1_555
C6 C5 1.404 1_555 1_555
C7 C6 1.394 1_555 1_555
H3 C7 0.950 1_555 1_555
C8 C7 1.392 1_555 1_555
C9 C8 1.404 1_555 1_555
C10 C9 1.438 1_555 1_555
H4 C10 0.950 1_555 1_555
C11 C10 1.349 1_555 1_555
H5 C11 0.951 1_555 1_555
C12 C11 1.431 1_555 1_555
C13 C12 1.396 1_555 1_555
H6 C13 0.950 1_555 1_555
C14 C1 1.387 1_555 1_555
H7 C14 0.950 1_555 1_555
C15 C2 1.425 1_555 1_555
C16 C5 1.419 1_555 1_555
C17 C1 1.505 1_555 1_555
H8 C17 0.990 1_555 1_555
H9 C17 0.990 1_555 1_555
C18 C17 1.532 1_555 1_555
H10 C18 0.990 1_555 1_555
H11 C18 0.990 1_555 1_555
C19 C18 1.520 1_555 1_555
H12 C19 0.990 1_555 1_555
H13 C19 0.990 1_555 1_555
C20 C19 1.524 1_555 1_555
H14 C20 0.989 1_555 1_555
H15 C20 0.990 1_555 1_555
C21 C20 1.516 1_555 1_555
H16 C21 0.990 1_555 1_555
H17 C21 0.991 1_555 1_555
C22 C21 1.522 1_555 1_555
H18 C22 0.989 1_555 1_555
H19 C22 0.990 1_555 1_555
C23 C22 1.522 1_555 1_555
H20 C23 0.990 1_555 1_555
H21 C23 0.990 1_555 1_555
C24 C23 1.522 1_555 1_555
H22 C24 0.979 1_555 1_555
H23 C24 0.980 1_555 1_555
H24 C24 0.980 1_555 1_555
C25 C8 1.519 1_555 1_555
H25 C25 0.990 1_555 1_555
H26 C25 0.989 1_555 1_555
C26 C25 1.532 1_555 1_555
H27 C26 0.989 1_555 1_555
H28 C26 0.990 1_555 1_555
C27 C26 1.526 1_555 1_555
H29 C27 0.990 1_555 1_555
H30 C27 0.990 1_555 1_555
C28 C27 1.525 1_555 1_555
H31 C28 0.990 1_555 1_555
H32 C28 0.990 1_555 1_555
C29 C28 1.521 1_555 1_555
H33 C29 0.990 1_555 1_555
H34 C29 0.990 1_555 1_555
C30 C29 1.525 1_555 1_555
H35 C30 0.991 1_555 1_555
H36 C30 0.990 1_555 1_555
C31 C30 1.523 1_555 1_555
H37 C31 0.989 1_555 1_555
H38 C31 0.990 1_555 1_555
C32 C31 1.523 1_555 1_555
H39 C32 0.981 1_555 1_555
H40 C32 0.980 1_555 1_555
H41 C32 0.980 1_555 1_555
C1A C2A 1.416 1_555 1_555
C2A C3A 1.433 1_555 1_555
C3A H1A 0.950 1_555 1_555
C4A C3A 1.359 1_555 1_555
H2A C4A 0.950 1_555 1_555
C5A C4A 1.440 1_555 1_555
C6A C6 1.490 1_555 1_555
C7A C6A 1.394 1_555 1_555
H3A C7A 0.950 1_555 1_555
C8A C7A 1.392 1_555 1_555
C9A C8A 1.404 1_555 1_555
C10A C9A 1.438 1_555 1_555
H4A C10A 0.950 1_555 1_555
C11A C10A 1.349 1_555 1_555
H5A C11A 0.951 1_555 1_555
C12A C11A 1.431 1_555 1_555
C13A C12A 1.396 1_555 1_555
H6A C13A 0.950 1_555 1_555
C14A C1A 1.387 1_555 1_555
H7A C14A 0.950 1_555 1_555
C15A C2A 1.425 1_555 1_555
C16A C5A 1.419 1_555 1_555
C17A C1A 1.505 1_555 1_555
H8A C17A 0.990 1_555 1_555
H9A C17A 0.990 1_555 1_555
C18A C17A 1.532 1_555 1_555
H10A C18A 0.990 1_555 1_555
H11A C18A 0.990 1_555 1_555
C19A C18A 1.520 1_555 1_555
H12A C19A 0.990 1_555 1_555
H13A C19A 0.990 1_555 1_555
C20A C19A 1.524 1_555 1_555
H14A C20A 0.989 1_555 1_555
H15A C20A 0.990 1_555 1_555
C21A C20A 1.516 1_555 1_555
H16A C21A 0.990 1_555 1_555
H17A C21A 0.991 1_555 1_555
C22A C21A 1.522 1_555 1_555
H18A C22A 0.989 1_555 1_555
H19A C22A 0.990 1_555 1_555
C23A C22A 1.522 1_555 1_555
H20A C23A 0.990 1_555 1_555
H21A C23A 0.990 1_555 1_555
C24A C23A 1.522 1_555 1_555
H22A C24A 0.979 1_555 1_555
H23A C24A 0.980 1_555 1_555
H24A C24A 0.980 1_555 1_555
C25A C8A 1.519 1_555 1_555
H25A C25A 0.990 1_555 1_555
H26A C25A 0.989 1_555 1_555
C26A C25A 1.532 1_555 1_555
H27A C26A 0.989 1_555 1_555
H28A C26A 0.990 1_555 1_555
C27A C26A 1.526 1_555 1_555
H29A C27A 0.990 1_555 1_555
H30A C27A 0.990 1_555 1_555
C28A C27A 1.525 1_555 1_555
H31A C28A 0.990 1_555 1_555
H32A C28A 0.990 1_555 1_555
C29A C28A 1.521 1_555 1_555
H33A C29A 0.990 1_555 1_555
H34A C29A 0.990 1_555 1_555
C30A C29A 1.525 1_555 1_555
H35A C30A 0.991 1_555 1_555
H36A C30A 0.990 1_555 1_555
C31A C30A 1.523 1_555 1_555
H37A C31A 0.989 1_555 1_555
H38A C31A 0.990 1_555 1_555
C32A C31A 1.523 1_555 1_555
H39A C32A 0.981 1_555 1_555
H40A C32A 0.980 1_555 1_555
H41A C32A 0.980 1_555 1_555
C9 C16 1.440 1_555 1_555
C12 C15 1.425 1_555 1_555
C13 C14 1.379 1_555 1_555
C15 C16 1.423 1_555 1_555
C5A C6A 1.404 1_555 1_555
C9A C16A 1.440 1_555 1_555
C12A C15A 1.425 1_555 1_555
C13A C14A 1.379 1_555 1_555
C15A C16A 1.423 1_555 1_555
#END
