
#######################################################################
#
#                 Cambridge Crystallographic Data Centre
#                                CCDC
#
#######################################################################
#
# If this CIF has been generated from an entry in the Cambridge
# Structural Database, then it will include bibliographic, chemical,
# crystal, experimental, refinement or atomic coordinate data resulting
# from the CCDC's data processing and validation procedures.
#
#######################################################################

data_CSD_CIF_REGXUY
_audit_creation_date 2013-03-18
_audit_creation_method CSD-ConQuest-V1
_database_code_CSD REGXUY
_database_code_depnum_ccdc_archive 'CCDC 900243'
_chemical_formula_sum 'C18 H14'
_chemical_formula_moiety
;
C18 H14
;
_journal_coden_Cambridge 182
_journal_volume 48
_journal_year 2012
_journal_page_first 11963
_journal_name_full 'Chem.Commun. '
loop_
_publ_author_name
"Y.Segawa"
"D.W.Stephan"
_chemical_name_systematic
;
5,12-Dihydrotetracene
;
_cell_volume   1179.490
_exptl_crystal_density_diffrn 1.297
_diffrn_ambient_temperature 150
#These two values have been output from a single CSD field.
_refine_ls_R_factor_gt 0.0344
_refine_ls_wR_factor_gt 0.0344
_symmetry_cell_setting orthorhombic
_symmetry_space_group_name_H-M 'P 21 21 21'
_symmetry_Int_Tables_number 19
loop_
_symmetry_equiv_pos_site_id
_symmetry_equiv_pos_as_xyz
1 x,y,z
2 1/2+x,1/2-y,-z
3 -x,1/2+y,1/2-z
4 1/2-x,-y,1/2+z
_cell_length_a 6.0792(3)
_cell_length_b 7.5470(3)
_cell_length_c 25.7083(12)
_cell_angle_alpha 90
_cell_angle_beta 90
_cell_angle_gamma 90
_cell_formula_units_Z 4
loop_
_atom_type_symbol
_atom_type_radius_bond
C 0.68
H 0.23
loop_
_atom_site_label
_atom_site_type_symbol
_atom_site_fract_x
_atom_site_fract_y
_atom_site_fract_z
C1 C 0.7928(2) 0.79470(17) 0.35675(5)
H1 H 0.84510 0.82580 0.39040
C2 C 0.9180(2) 0.83169(15) 0.31387(5)
H2 H 1.05710 0.88730 0.31800
C3 C 0.8421(2) 0.78784(15) 0.26306(5)
C4 C 0.9654(2) 0.82605(14) 0.21789(5)
H3 H 1.10430 0.88270 0.22110
C5 C 0.88796(19) 0.78267(14) 0.16945(5)
C6 C 1.0147(2) 0.82032(16) 0.12007(5)
H4 H 1.12890 0.91070 0.12710
H5 H 1.08920 0.71080 0.10830
C7 C 0.8631(2) 0.88605(14) 0.07779(5)
C8 C 0.9202(2) 1.02250(16) 0.04392(5)
H6 H 1.05920 1.07890 0.04720
C9 C 0.7748(2) 1.07652(16) 0.00533(5)
H7 H 0.81480 1.16950 -0.01770
C10 C 0.5716(2) 0.99490(17) 0.00041(5)
H8 H 0.47200 1.03260 -0.02580
C11 C 0.5134(2) 0.85772(15) 0.03389(5)
H9 H 0.37430 0.80160 0.03030
C12 C 0.6584(2) 0.80263(15) 0.07257(5)
C13 C 0.5864(2) 0.71066(16) 0.35147(5)
H10 H 0.50130 0.68500 0.38150
C14 C 0.5085(2) 0.66605(15) 0.30332(5)
H11 H 0.36980 0.60900 0.30020
C15 C 0.6328(2) 0.70422(14) 0.25793(5)
C16 C 0.5559(2) 0.66080(14) 0.20734(5)
H12 H 0.41670 0.60520 0.20340
C17 C 0.67975(19) 0.69805(15) 0.16419(5)
C18 C 0.6061(2) 0.65276(15) 0.10954(5)
H13 H 0.68140 0.54350 0.09780
H14 H 0.44570 0.63010 0.10940
loop_
_geom_bond_atom_site_label_1
_geom_bond_atom_site_label_2
_geom_bond_distance
_geom_bond_site_symmetry_1
_geom_bond_site_symmetry_2
C1 H1 0.951 1_555 1_555
C2 C1 1.368 1_555 1_555
H2 C2 0.950 1_555 1_555
C3 C2 1.424 1_555 1_555
C4 C3 1.412 1_555 1_555
H3 C4 0.950 1_555 1_555
C5 C4 1.371 1_555 1_555
C6 C5 1.512 1_555 1_555
H4 C6 0.990 1_555 1_555
H5 C6 0.990 1_555 1_555
C7 C6 1.509 1_555 1_555
C8 C7 1.393 1_555 1_555
H6 C8 0.950 1_555 1_555
C9 C8 1.390 1_555 1_555
H7 C9 0.950 1_555 1_555
C10 C9 1.386 1_555 1_555
H8 C10 0.950 1_555 1_555
C11 C10 1.392 1_555 1_555
H9 C11 0.950 1_555 1_555
C12 C7 1.401 1_555 1_555
C13 C1 1.412 1_555 1_555
H10 C13 0.949 1_555 1_555
C14 C13 1.367 1_555 1_555
H11 C14 0.950 1_555 1_555
C15 C3 1.426 1_555 1_555
C16 C15 1.420 1_555 1_555
H12 C16 0.950 1_555 1_555
C17 C5 1.424 1_555 1_555
C18 C12 1.511 1_555 1_555
H13 C18 0.990 1_555 1_555
H14 C18 0.990 1_555 1_555
C11 C12 1.392 1_555 1_555
C14 C15 1.420 1_555 1_555
C16 C17 1.370 1_555 1_555
C17 C18 1.514 1_555 1_555
#END
