
#######################################################################
#
#                 Cambridge Crystallographic Data Centre
#                                CCDC
#
#######################################################################
#
# If this CIF has been generated from an entry in the Cambridge
# Structural Database, then it will include bibliographic, chemical,
# crystal, experimental, refinement or atomic coordinate data resulting
# from the CCDC's data processing and validation procedures.
#
#######################################################################

data_CSD_CIF_REGXUY01
_audit_creation_date 2016-07-07
_audit_creation_method CSD-ConQuest-V1
_database_code_CSD REGXUY01
_database_code_depnum_ccdc_archive 'CCDC 1475950'
_chemical_formula_sum 'C18 H14'
_chemical_formula_moiety
;
C18 H14
;
_journal_coden_Cambridge 179
_journal_volume 55
_journal_year 2016
_journal_page_first 11120
_journal_name_full 'Angew.Chem.,Int.Ed. '
loop_
_publ_author_name
"R.Dorel"
"P.R.McGonigal"
"A.M.Echavarren"
_chemical_name_systematic
;
5,12-dihydrotetracene
;
_cell_volume   1169.305
_exptl_crystal_colour 'colorless'
_exptl_crystal_density_diffrn 1.308
_exptl_special_details
;
Absolute configuration

;
_exptl_crystal_description 'needle'
_diffrn_ambient_temperature 100
#These two values have been output from a single CSD field.
_refine_ls_R_factor_gt 0.0325
_refine_ls_wR_factor_gt 0.0325
_symmetry_cell_setting orthorhombic
_symmetry_space_group_name_H-M 'P 21 21 21'
_symmetry_Int_Tables_number 19
loop_
_symmetry_equiv_pos_site_id
_symmetry_equiv_pos_as_xyz
1 x,y,z
2 1/2-x,-y,1/2+z
3 -x,1/2+y,1/2-z
4 1/2+x,1/2-y,-z
_cell_length_a 6.0583(2)
_cell_length_b 7.5146(3)
_cell_length_c 25.6845(9)
_cell_angle_alpha 90
_cell_angle_beta 90
_cell_angle_gamma 90
_cell_formula_units_Z 4
loop_
_atom_type_symbol
_atom_type_radius_bond
C 0.68
H 0.23
loop_
_atom_site_label
_atom_site_type_symbol
_atom_site_fract_x
_atom_site_fract_y
_atom_site_fract_z
C1 C 0.36346(13) 0.11467(10) 0.42255(3)
C2 C 0.42100(15) -0.02265(11) 0.45645(3)
H1 H 0.56050 -0.07920 0.45310
C3 C 0.27502(16) -0.07749(11) 0.49527(3)
H2 H 0.31550 -0.17070 0.51840
C4 C 0.07004(15) 0.00454(11) 0.50013(3)
H3 H -0.02990 -0.03320 0.52640
C5 C 0.01126(14) 0.14245(10) 0.46637(3)
H4 H -0.12870 0.19830 0.46970
C6 C 0.15749(13) 0.19839(10) 0.42776(3)
C7 C 0.10497(13) 0.34854(10) 0.39066(3)
H5 H 0.18020 0.45840 0.40240
H6 H -0.05600 0.37110 0.39070
C8 C 0.17923(12) 0.30298(10) 0.33609(3)
C9 C 0.05489(13) 0.34047(10) 0.29274(3)
H7 H -0.08480 0.39630 0.29660
C10 C 0.13261(13) 0.29673(10) 0.24209(3)
C11 C 0.00740(14) 0.33484(11) 0.19662(3)
H8 H -0.13200 0.39180 0.19980
C12 C 0.08616(16) 0.29007(11) 0.14808(3)
H9 H 0.00090 0.31560 0.11790
C13 C 0.29410(16) 0.20606(11) 0.14305(3)
H10 H 0.34730 0.17510 0.10950
C14 C 0.41994(14) 0.16880(11) 0.18624(3)
H11 H 0.55970 0.11310 0.18220
C15 C 0.34255(13) 0.21304(10) 0.23689(3)
C16 C 0.46732(13) 0.17442(10) 0.28228(3)
H12 H 0.60680 0.11760 0.27910
C17 C 0.38841(12) 0.21838(10) 0.33081(3)
C18 C 0.51530(13) 0.18104(11) 0.38028(3)
H13 H 0.63040 0.09060 0.37330
H14 H 0.58950 0.29130 0.39210
loop_
_geom_bond_atom_site_label_1
_geom_bond_atom_site_label_2
_geom_bond_distance
_geom_bond_site_symmetry_1
_geom_bond_site_symmetry_2
C1 C2 1.394 1_555 1_555
C2 H1 0.950 1_555 1_555
C3 C2 1.395 1_555 1_555
H2 C3 0.951 1_555 1_555
C4 C3 1.392 1_555 1_555
H3 C4 0.950 1_555 1_555
C5 C4 1.397 1_555 1_555
H4 C5 0.950 1_555 1_555
C6 C1 1.404 1_555 1_555
C7 C6 1.511 1_555 1_555
H5 C7 0.990 1_555 1_555
H6 C7 0.990 1_555 1_555
C8 C7 1.511 1_555 1_555
C9 C8 1.374 1_555 1_555
H7 C9 0.950 1_555 1_555
C10 C9 1.422 1_555 1_555
C11 C10 1.422 1_555 1_555
H8 C11 0.950 1_555 1_555
C12 C11 1.377 1_555 1_555
H9 C12 0.951 1_555 1_555
C13 C12 1.415 1_555 1_555
H10 C13 0.949 1_555 1_555
C14 C13 1.375 1_555 1_555
H11 C14 0.950 1_555 1_555
C15 C10 1.425 1_555 1_555
C16 C15 1.419 1_555 1_555
H12 C16 0.950 1_555 1_555
C17 C8 1.424 1_555 1_555
C18 C1 1.508 1_555 1_555
H13 C18 0.990 1_555 1_555
H14 C18 0.990 1_555 1_555
C5 C6 1.395 1_555 1_555
C14 C15 1.422 1_555 1_555
C16 C17 1.375 1_555 1_555
C17 C18 1.511 1_555 1_555
#END
