
#######################################################################
#
#                 Cambridge Crystallographic Data Centre
#                                CCDC
#
#######################################################################
#
# If this CIF has been generated from an entry in the Cambridge
# Structural Database, then it will include bibliographic, chemical,
# crystal, experimental, refinement or atomic coordinate data resulting
# from the CCDC's data processing and validation procedures.
#
#######################################################################

data_CSD_CIF_RELGUN
_audit_creation_date 2017-10-12
_audit_creation_method CSD-ConQuest-V1
_database_code_CSD RELGUN
_database_code_depnum_ccdc_archive 'CCDC 1571035'
_chemical_formula_sum 'C31 H30'
_chemical_formula_moiety
;
C31 H30
;
_journal_coden_Cambridge 179
_journal_volume 56
_journal_year 2017
_journal_page_first 14591
_journal_name_full 'Angew.Chem.,Int.Ed. '
loop_
_publ_author_name
"Xiang Yin"
"M.Mato"
"A.M.Echavarren"
_chemical_name_systematic
;
7-cyclohexyl-7a-methyl-8-(naphthalen-1-yl)-7,7a,8,8a-tetrahydrocyclopropa[4,5]
cyclopenta[1,2-a]naphthalene
;
_cell_volume   4421.764
_exptl_crystal_colour 'colorless'
_exptl_crystal_density_diffrn 1.209
_exptl_crystal_description 'needle'
_diffrn_ambient_temperature 100
#These two values have been output from a single CSD field.
_refine_ls_R_factor_gt 0.0379
_refine_ls_wR_factor_gt 0.0379
_symmetry_cell_setting orthorhombic
_symmetry_space_group_name_H-M 'P c a 21'
_symmetry_Int_Tables_number 29
loop_
_symmetry_equiv_pos_site_id
_symmetry_equiv_pos_as_xyz
1 x,y,z
2 -x,-y,1/2+z
3 1/2+x,-y,z
4 1/2-x,y,1/2+z
_cell_length_a 21.3313(10)
_cell_length_b 6.0491(2)
_cell_length_c 34.2679(15)
_cell_angle_alpha 90
_cell_angle_beta 90
_cell_angle_gamma 90
_cell_formula_units_Z 8
loop_
_atom_type_symbol
_atom_type_radius_bond
C 0.68
H 0.23
loop_
_atom_site_label
_atom_site_type_symbol
_atom_site_fract_x
_atom_site_fract_y
_atom_site_fract_z
C1 C 0.72673(11) -0.1486(4) 0.57499(7)
H1 H 0.71680 -0.25580 0.55370
C2 C 0.74067(11) -0.2666(4) 0.61340(6)
H2 H 0.73500 -0.43020 0.61560
C3 C 0.73721(11) -0.1242(4) 0.64870(6)
C4 C 0.69521(11) -0.1455(4) 0.68065(6)
C5 C 0.65240(11) -0.3235(4) 0.68467(7)
H3 H 0.65110 -0.43620 0.66540
C6 C 0.61292(12) -0.3343(5) 0.71615(8)
H4 H 0.58490 -0.45550 0.71860
C7 C 0.61345(12) -0.1679(5) 0.74480(7)
H5 H 0.58580 -0.17750 0.76650
C8 C 0.65372(12) 0.0085(5) 0.74162(7)
H6 H 0.65340 0.12070 0.76100
C9 C 0.69592(11) 0.0246(4) 0.70955(6)
C10 C 0.73681(11) 0.2076(4) 0.70506(7)
H7 H 0.73620 0.32280 0.72390
C11 C 0.77716(11) 0.2214(4) 0.67405(7)
H8 H 0.80410 0.34560 0.67140
C12 C 0.77847(11) 0.0502(4) 0.64613(6)
C13 C 0.82205(10) 0.0267(4) 0.61116(6)
H9 H 0.81950 0.16260 0.59460
C14 C 0.79394(11) -0.1715(4) 0.58874(6)
C15 C 0.83556(11) -0.3194(4) 0.56437(7)
H10 H 0.81010 -0.43510 0.55210
H11 H 0.86740 -0.38770 0.58110
H12 H 0.85620 -0.23140 0.54410
C16 C 0.69131(10) 0.0622(4) 0.57026(6)
C17 C 0.70378(10) 0.1940(4) 0.53629(6)
C18 C 0.75231(11) 0.1413(4) 0.50926(7)
H13 H 0.77810 0.01590 0.51380
C19 C 0.76223(12) 0.2694(4) 0.47680(7)
H14 H 0.79510 0.23280 0.45920
C20 C 0.72426(13) 0.4542(4) 0.46934(7)
H15 H 0.73130 0.54140 0.44670
C21 C 0.67724(12) 0.5090(4) 0.49452(7)
H16 H 0.65150 0.63340 0.48900
C22 C 0.66613(11) 0.3836(4) 0.52861(7)
C23 C 0.61822(11) 0.4430(4) 0.55539(7)
H17 H 0.59330 0.57030 0.55070
C24 C 0.60799(11) 0.3173(4) 0.58788(7)
H18 H 0.57640 0.35930 0.60590
C25 C 0.64409(11) 0.1253(4) 0.59486(7)
H19 H 0.63530 0.03780 0.61720
C26 C 0.89110(11) -0.0152(4) 0.62305(7)
H20 H 0.91290 -0.07150 0.59920
C27 C 0.89802(11) -0.1959(4) 0.65420(6)
H21 H 0.88040 -0.14330 0.67930
H22 H 0.87460 -0.32950 0.64610
C28 C 0.96762(11) -0.2528(4) 0.65939(7)
H23 H 0.97210 -0.36790 0.67970
H24 H 0.98440 -0.31310 0.63460
C29 C 1.00536(12) -0.0490(4) 0.67110(7)
H25 H 1.05040 -0.08800 0.67250
H26 H 0.99190 0.00080 0.69730
C30 C 0.99630(11) 0.1392(4) 0.64188(7)
H27 H 1.01530 0.09720 0.61660
H28 H 1.01810 0.27290 0.65150
C31 C 0.92670(11) 0.1917(4) 0.63580(7)
H29 H 0.90860 0.24860 0.66040
H30 H 0.92230 0.30790 0.61560
C32 C 0.48503(11) 0.3443(4) 0.42379(7)
H31 H 0.49360 0.24030 0.44580
C33 C 0.47178(11) 0.2203(4) 0.38597(7)
H32 H 0.47670 0.05600 0.38480
C34 C 0.47756(10) 0.3551(4) 0.34994(6)
C35 C 0.52037(11) 0.3239(4) 0.31892(7)
C36 C 0.56118(12) 0.1388(5) 0.31640(8)
H33 H 0.56100 0.03050 0.33650
C37 C 0.60090(13) 0.1156(5) 0.28517(8)
H34 H 0.62730 -0.01040 0.28340
C38 C 0.60255(13) 0.2782(6) 0.25580(8)
H35 H 0.63060 0.26200 0.23450
C39 C 0.56462(13) 0.4575(6) 0.25758(7)
H36 H 0.56670 0.56530 0.23750
C40 C 0.52167(12) 0.4877(5) 0.28893(7)
C41 C 0.48168(12) 0.6724(4) 0.29142(7)
H37 H 0.48350 0.78230 0.27160
C42 C 0.44005(11) 0.6977(4) 0.32180(7)
H38 H 0.41370 0.82410 0.32310
C43 C 0.43701(10) 0.5332(4) 0.35104(6)
C44 C 0.39196(11) 0.5184(4) 0.38508(7)
H39 H 0.39410 0.65740 0.40080
C45 C 0.41804(10) 0.3232(4) 0.40930(6)
C46 C 0.37483(12) 0.1799(4) 0.43356(7)
H40 H 0.39940 0.06580 0.44690
H41 H 0.34380 0.10950 0.41650
H42 H 0.35330 0.27170 0.45300
C47 C 0.52178(11) 0.5531(4) 0.42781(6)
C48 C 0.50956(11) 0.6920(4) 0.46083(6)
C49 C 0.46038(12) 0.6478(4) 0.48779(7)
H43 H 0.43370 0.52430 0.48370
C50 C 0.45094(12) 0.7813(4) 0.51973(7)
H44 H 0.41760 0.75020 0.53730
C51 C 0.49043(13) 0.9639(4) 0.52663(7)
H45 H 0.48390 1.05440 0.54890
C52 C 0.53800(12) 1.0111(4) 0.50145(7)
H46 H 0.56440 1.13430 0.50640
C53 C 0.54870(11) 0.8791(4) 0.46788(6)
C54 C 0.59710(11) 0.9308(4) 0.44114(7)
H47 H 0.62250 1.05770 0.44520
C55 C 0.60722(11) 0.7979(4) 0.40948(7)
H48 H 0.63940 0.83430 0.39140
C56 C 0.57051(11) 0.6080(4) 0.40329(7)
H49 H 0.57960 0.51520 0.38160
C57 C 0.32344(10) 0.4771(4) 0.37194(6)
H50 H 0.30060 0.41690 0.39510
C58 C 0.31835(11) 0.3025(4) 0.33970(7)
H51 H 0.33870 0.35850 0.31570
H52 H 0.34070 0.16690 0.34790
C59 C 0.24993(12) 0.2463(4) 0.33098(7)
H53 H 0.24810 0.14010 0.30900
H54 H 0.23090 0.17480 0.35410
C60 C 0.21254(12) 0.4528(4) 0.32052(8)
H55 H 0.22720 0.51050 0.29510
H56 H 0.16770 0.41340 0.31780
C61 C 0.21944(12) 0.6325(4) 0.35139(8)
H57 H 0.19920 0.58290 0.37590
H58 H 0.19770 0.76790 0.34250
C62 C 0.28846(11) 0.6863(4) 0.35941(8)
H59 H 0.30800 0.74760 0.33560
H60 H 0.29140 0.79900 0.38030
loop_
_geom_bond_atom_site_label_1
_geom_bond_atom_site_label_2
_geom_bond_distance
_geom_bond_site_symmetry_1
_geom_bond_site_symmetry_2
C1 H1 0.999 1_555 1_555
C2 C1 1.527 1_555 1_555
H2 C2 1.000 1_555 1_555
C3 C2 1.487 1_555 1_555
C4 C3 1.421 1_555 1_555
C5 C4 1.419 1_555 1_555
H3 C5 0.950 1_555 1_555
C6 C5 1.370 1_555 1_555
H4 C6 0.950 1_555 1_555
C7 C6 1.406 1_555 1_555
H5 C7 0.951 1_555 1_555
C8 C7 1.374 1_555 1_555
H6 C8 0.950 1_555 1_555
C9 C4 1.428 1_555 1_555
C10 C9 1.418 1_555 1_555
H7 C10 0.950 1_555 1_555
C11 C10 1.370 1_555 1_555
H8 C11 0.950 1_555 1_555
C12 C3 1.377 1_555 1_555
C13 C12 1.523 1_555 1_555
H9 C13 1.000 1_555 1_555
C14 C1 1.515 1_555 1_555
C15 C14 1.512 1_555 1_555
H10 C15 0.981 1_555 1_555
H11 C15 0.980 1_555 1_555
H12 C15 0.980 1_555 1_555
C16 C1 1.491 1_555 1_555
C17 C16 1.436 1_555 1_555
C18 C17 1.425 1_555 1_555
H13 C18 0.950 1_555 1_555
C19 C18 1.372 1_555 1_555
H14 C19 0.951 1_555 1_555
C20 C19 1.404 1_555 1_555
H15 C20 0.950 1_555 1_555
C21 C20 1.364 1_555 1_555
H16 C21 0.951 1_555 1_555
C22 C17 1.425 1_555 1_555
C23 C22 1.420 1_555 1_555
H17 C23 0.949 1_555 1_555
C24 C23 1.366 1_555 1_555
H18 C24 0.949 1_555 1_555
C25 C16 1.368 1_555 1_555
H19 C25 0.949 1_555 1_555
C26 C13 1.549 1_555 1_555
H20 C26 1.000 1_555 1_555
C27 C26 1.535 1_555 1_555
H21 C27 0.991 1_555 1_555
H22 C27 0.990 1_555 1_555
C28 C27 1.534 1_555 1_555
H23 C28 0.989 1_555 1_555
H24 C28 0.991 1_555 1_555
C29 C28 1.526 1_555 1_555
H25 C29 0.990 1_555 1_555
H26 C29 0.990 1_555 1_555
C30 C29 1.528 1_555 1_555
H27 C30 0.990 1_555 1_555
H28 C30 0.989 1_555 1_555
C31 C26 1.528 1_555 1_555
H29 C31 0.989 1_555 1_555
H30 C31 0.991 1_555 1_555
C32 H31 0.999 1_555 1_555
C33 C32 1.524 1_555 1_555
H32 C33 1.000 1_555 1_555
C34 C33 1.485 1_555 1_555
C35 C34 1.414 1_555 1_555
C36 C35 1.421 1_555 1_555
H33 C36 0.951 1_555 1_555
C37 C36 1.372 1_555 1_555
H34 C37 0.950 1_555 1_555
C38 C37 1.408 1_555 1_555
H35 C38 0.949 1_555 1_555
C39 C38 1.355 1_555 1_555
H36 C39 0.949 1_555 1_555
C40 C35 1.428 1_555 1_555
C41 C40 1.408 1_555 1_555
H37 C41 0.951 1_555 1_555
C42 C41 1.377 1_555 1_555
H38 C42 0.950 1_555 1_555
C43 C34 1.382 1_555 1_555
C44 C43 1.514 1_555 1_555
H39 C44 1.000 1_555 1_555
C45 C32 1.518 1_555 1_555
C46 C45 1.514 1_555 1_555
H40 C46 0.980 1_555 1_555
H41 C46 0.980 1_555 1_555
H42 C46 0.981 1_555 1_555
C47 C32 1.493 1_555 1_555
C48 C47 1.433 1_555 1_555
C49 C48 1.423 1_555 1_555
H43 C49 0.950 1_555 1_555
C50 C49 1.375 1_555 1_555
H44 C50 0.951 1_555 1_555
C51 C50 1.409 1_555 1_555
H45 C51 0.949 1_555 1_555
C52 C51 1.362 1_555 1_555
H46 C52 0.949 1_555 1_555
C53 C48 1.427 1_555 1_555
C54 C53 1.415 1_555 1_555
H47 C54 0.950 1_555 1_555
C55 C54 1.367 1_555 1_555
H48 C55 0.951 1_555 1_555
C56 C47 1.377 1_555 1_555
H49 C56 0.951 1_555 1_555
C57 C44 1.550 1_555 1_555
H50 C57 1.000 1_555 1_555
C58 C57 1.532 1_555 1_555
H51 C58 0.990 1_555 1_555
H52 C58 0.989 1_555 1_555
C59 C58 1.528 1_555 1_555
H53 C59 0.991 1_555 1_555
H54 C59 0.990 1_555 1_555
C60 C59 1.525 1_555 1_555
H55 C60 0.989 1_555 1_555
H56 C60 0.990 1_555 1_555
C61 C60 1.524 1_555 1_555
H57 C61 0.991 1_555 1_555
H58 C61 0.989 1_555 1_555
C62 C57 1.531 1_555 1_555
H59 C62 0.988 1_555 1_555
H60 C62 0.991 1_555 1_555
C2 C14 1.528 1_555 1_555
C8 C9 1.424 1_555 1_555
C11 C12 1.410 1_555 1_555
C13 C14 1.545 1_555 1_555
C21 C22 1.413 1_555 1_555
C24 C25 1.414 1_555 1_555
C30 C31 1.532 1_555 1_555
C33 C45 1.530 1_555 1_555
C39 C40 1.424 1_555 1_555
C42 C43 1.414 1_555 1_555
C44 C45 1.547 1_555 1_555
C52 C53 1.419 1_555 1_555
C55 C56 1.406 1_555 1_555
C61 C62 1.533 1_555 1_555
#END
