
#######################################################################
#
#                 Cambridge Crystallographic Data Centre
#                                CCDC
#
#######################################################################
#
# If this CIF has been generated from an entry in the Cambridge
# Structural Database, then it will include bibliographic, chemical,
# crystal, experimental, refinement or atomic coordinate data resulting
# from the CCDC's data processing and validation procedures.
#
#######################################################################

data_CSD_CIF_RELGIB
_audit_creation_date 2017-10-12
_audit_creation_method CSD-ConQuest-V1
_database_code_CSD RELGIB
_database_code_depnum_ccdc_archive 'CCDC 1571033'
_chemical_formula_sum 'C20 H18'
_chemical_formula_moiety
;
C20 H18
;
_journal_coden_Cambridge 179
_journal_volume 56
_journal_year 2017
_journal_page_first 14591
_journal_name_full 'Angew.Chem.,Int.Ed. '
loop_
_publ_author_name
"Xiang Yin"
"M.Mato"
"A.M.Echavarren"
_chemical_name_systematic
;
1,1,2-trimethyl-1H-cyclopenta[l]phenanthrene
;
_cell_volume   5587.683
_exptl_crystal_colour 'yellow'
_exptl_crystal_density_diffrn 1.228
_exptl_crystal_description 'block'
_diffrn_ambient_temperature 100
#These two values have been output from a single CSD field.
_refine_ls_R_factor_gt 0.0391
_refine_ls_wR_factor_gt 0.0391
_symmetry_cell_setting orthorhombic
_symmetry_space_group_name_H-M 'I b a 2'
_symmetry_Int_Tables_number 45
loop_
_symmetry_equiv_pos_site_id
_symmetry_equiv_pos_as_xyz
1 x,y,z
2 -x,-y,z
3 1/2+x,1/2-y,z
4 1/2-x,1/2+y,z
5 1/2+x,1/2+y,1/2+z
6 1/2-x,1/2-y,1/2+z
7 x,-y,1/2+z
8 -x,y,1/2+z
_cell_length_a 20.2195(6)
_cell_length_b 31.6626(10)
_cell_length_c 8.7280(2)
_cell_angle_alpha 90
_cell_angle_beta 90
_cell_angle_gamma 90
_cell_formula_units_Z 16
loop_
_atom_type_symbol
_atom_type_radius_bond
C 0.68
H 0.23
loop_
_atom_site_label
_atom_site_type_symbol
_atom_site_fract_x
_atom_site_fract_y
_atom_site_fract_z
C1 C 0.16335(7) 0.18380(5) 0.5232(2)
C2 C 0.12961(7) 0.18891(5) 0.6787(2)
C3 C 0.10244(7) 0.15772(5) 0.7789(2)
C4 C 0.10388(8) 0.11393(5) 0.7453(2)
H1 H 0.12450 0.10450 0.65370
C5 C 0.07588(9) 0.08485(5) 0.8428(2)
H2 H 0.07760 0.05560 0.81850
C6 C 0.04485(8) 0.09826(6) 0.9783(2)
H3 H 0.02490 0.07820 1.04460
C7 C 0.04335(7) 0.14060(6) 1.0150(2)
H4 H 0.02280 0.14930 1.10770
C8 C 0.07170(7) 0.17140(5) 0.9182(2)
C9 C 0.07016(7) 0.21613(5) 0.9571(2)
C10 C 0.04103(8) 0.23166(6) 1.0931(2)
H5 H 0.02070 0.21240 1.16190
C11 C 0.04146(9) 0.27400(6) 1.1282(2)
H6 H 0.02180 0.28350 1.22090
C12 C 0.07058(9) 0.30314(6) 1.0284(2)
H7 H 0.07110 0.33230 1.05380
C13 C 0.09847(8) 0.28944(5) 0.8933(2)
H8 H 0.11780 0.30930 0.82520
C14 C 0.09849(7) 0.24597(5) 0.8551(2)
C15 C 0.12642(7) 0.23120(5) 0.7146(2)
C16 C 0.15500(7) 0.25579(5) 0.5891(2)
H9 H 0.15770 0.28570 0.58570
C17 C 0.17681(7) 0.22954(5) 0.4794(2)
C18 C 0.20933(9) 0.24111(6) 0.3312(2)
H10 H 0.18040 0.23330 0.24580
H11 H 0.25140 0.22600 0.32200
H12 H 0.21750 0.27160 0.32890
C19 C 0.22942(8) 0.15950(5) 0.5367(2)
H13 H 0.25090 0.15840 0.43620
H14 H 0.22080 0.13070 0.57290
H15 H 0.25840 0.17400 0.60970
C20 C 0.11757(8) 0.16371(6) 0.4032(2)
H16 H 0.07690 0.18040 0.39490
H17 H 0.10660 0.13480 0.43450
H18 H 0.14000 0.16310 0.30370
C21 C 0.28606(7) 0.10653(5) 0.0420(2)
C22 C 0.28996(7) 0.08652(5) 0.19998(19)
C23 C 0.23955(7) 0.06582(5) 0.2884(2)
C24 C 0.17261(7) 0.06376(5) 0.2404(2)
H19 H 0.16030 0.07570 0.14470
C25 C 0.12500(8) 0.04467(5) 0.3303(2)
H20 H 0.08040 0.04360 0.29630
C26 C 0.14249(8) 0.02696(5) 0.4718(2)
H21 H 0.10960 0.01410 0.53390
C27 C 0.20715(8) 0.02817(5) 0.5212(2)
H22 H 0.21830 0.01610 0.61740
C28 C 0.25747(7) 0.04710(5) 0.43123(19)
C29 C 0.32615(7) 0.04785(5) 0.4825(2)
C30 C 0.34770(8) 0.02611(5) 0.6144(2)
H23 H 0.31660 0.01040 0.67250
C31 C 0.41282(9) 0.02715(5) 0.6609(2)
H24 H 0.42610 0.01240 0.75060
C32 C 0.45967(8) 0.05004(6) 0.5755(2)
H25 H 0.50460 0.05070 0.60740
C33 C 0.44052(8) 0.07134(5) 0.4463(2)
H26 H 0.47240 0.08690 0.38970
C34 C 0.37387(7) 0.07044(5) 0.3957(2)
C35 C 0.35357(7) 0.08969(5) 0.2553(2)
C36 C 0.39401(8) 0.11223(5) 0.1416(2)
H27 H 0.43940 0.11920 0.15370
C37 C 0.35727(8) 0.12136(5) 0.0184(2)
C38 C 0.38060(9) 0.14132(6) -0.1271(2)
H28 H 0.42590 0.15170 -0.11340
H29 H 0.35150 0.16500 -0.15360
H30 H 0.37980 0.12040 -0.20970
C39 C 0.26773(9) 0.07387(5) -0.0815(2)
H31 H 0.29840 0.05000 -0.07630
H32 H 0.27060 0.08700 -0.18300
H33 H 0.22250 0.06380 -0.06400
C40 C 0.23861(8) 0.14466(5) 0.0358(2)
H34 H 0.19310 0.13500 0.05220
H35 H 0.24190 0.15830 -0.06470
H36 H 0.25060 0.16490 0.11600
loop_
_geom_bond_atom_site_label_1
_geom_bond_atom_site_label_2
_geom_bond_distance
_geom_bond_site_symmetry_1
_geom_bond_site_symmetry_2
C1 C2 1.528 1_555 1_555
C2 C3 1.429 1_555 1_555
C3 C4 1.417 1_555 1_555
C4 H1 0.950 1_555 1_555
C5 C4 1.376 1_555 1_555
H2 C5 0.951 1_555 1_555
C6 C5 1.404 1_555 1_555
H3 C6 0.949 1_555 1_555
C7 C6 1.379 1_555 1_555
H4 C7 0.950 1_555 1_555
C8 C3 1.433 1_555 1_555
C9 C8 1.457 1_555 1_555
C10 C9 1.413 1_555 1_555
H5 C10 0.949 1_555 1_555
C11 C10 1.375 1_555 1_555
H6 C11 0.950 1_555 1_555
C12 C11 1.399 1_555 1_555
H7 C12 0.950 1_555 1_555
C13 C12 1.377 1_555 1_555
H8 C13 0.949 1_555 1_555
C14 C9 1.419 1_555 1_555
C15 C2 1.377 1_555 1_555
C16 C15 1.463 1_555 1_555
H9 C16 0.949 1_555 1_555
C17 C1 1.522 1_555 1_555
C18 C17 1.497 1_555 1_555
H10 C18 0.979 1_555 1_555
H11 C18 0.979 1_555 1_555
H12 C18 0.980 1_555 1_555
C19 C1 1.546 1_555 1_555
H13 C19 0.979 1_555 1_555
H14 C19 0.981 1_555 1_555
H15 C19 0.980 1_555 1_555
C20 C1 1.536 1_555 1_555
H16 C20 0.980 1_555 1_555
H17 C20 0.981 1_555 1_555
H18 C20 0.980 1_555 1_555
C21 C22 1.519 1_555 1_555
C22 C23 1.437 1_555 1_555
C23 C24 1.418 1_555 1_555
C24 H19 0.950 1_555 1_555
C25 C24 1.381 1_555 1_555
H20 C25 0.950 1_555 1_555
C26 C25 1.402 1_555 1_555
H21 C26 0.950 1_555 1_555
C27 C26 1.377 1_555 1_555
H22 C27 0.950 1_555 1_555
C28 C23 1.427 1_555 1_555
C29 C28 1.459 1_555 1_555
C30 C29 1.410 1_555 1_555
H23 C30 0.949 1_555 1_555
C31 C30 1.378 1_555 1_555
H24 C31 0.950 1_555 1_555
C32 C31 1.406 1_555 1_555
H25 C32 0.950 1_555 1_555
C33 C32 1.370 1_555 1_555
H26 C33 0.950 1_555 1_555
C34 C29 1.420 1_555 1_555
C35 C22 1.377 1_555 1_555
C36 C35 1.471 1_555 1_555
H27 C36 0.950 1_555 1_555
C37 C21 1.528 1_555 1_555
C38 C37 1.495 1_555 1_555
H28 C38 0.980 1_555 1_555
H29 C38 0.981 1_555 1_555
H30 C38 0.979 1_555 1_555
C39 C21 1.539 1_555 1_555
H31 C39 0.979 1_555 1_555
H32 C39 0.980 1_555 1_555
H33 C39 0.980 1_555 1_555
C40 C21 1.543 1_555 1_555
H34 C40 0.980 1_555 1_555
H35 C40 0.980 1_555 1_555
H36 C40 0.980 1_555 1_555
C7 C8 1.412 1_555 1_555
C13 C14 1.416 1_555 1_555
C14 C15 1.429 1_555 1_555
C16 C17 1.342 1_555 1_555
C27 C28 1.418 1_555 1_555
C33 C34 1.418 1_555 1_555
C34 C35 1.429 1_555 1_555
C36 C37 1.339 1_555 1_555
#END
