
#######################################################################
#
#                 Cambridge Crystallographic Data Centre
#                                CCDC
#
#######################################################################
#
# If this CIF has been generated from an entry in the Cambridge
# Structural Database, then it will include bibliographic, chemical,
# crystal, experimental, refinement or atomic coordinate data resulting
# from the CCDC's data processing and validation procedures.
#
#######################################################################

data_CSD_CIF_REYKAJ
_audit_creation_date 2013-05-19
_audit_creation_method CSD-ConQuest-V1
_database_code_CSD REYKAJ
_database_code_depnum_ccdc_archive 'CCDC 909678'
_chemical_formula_sum 'C23 H16'
_chemical_formula_moiety
;
C23 H16
;
_journal_coden_Cambridge 1336
_journal_volume 15
_journal_year 2013
_journal_page_first 1806
_journal_name_full 'Org.Lett. '
loop_
_publ_author_name
"K.Yamamoto"
"M.Okazumi"
"H.Suemune"
"K.Usui"
_chemical_name_systematic
;
1-Methylpentahelicene
;
_cell_volume   3028.240
_exptl_crystal_density_diffrn 1.283
_diffrn_ambient_temperature 296
#These two values have been output from a single CSD field.
_refine_ls_R_factor_gt 0.0531
_refine_ls_wR_factor_gt 0.0531
_symmetry_cell_setting orthorhombic
_symmetry_space_group_name_H-M 'P b c a'
_symmetry_Int_Tables_number 61
loop_
_symmetry_equiv_pos_site_id
_symmetry_equiv_pos_as_xyz
1 x,y,z
2 1/2+x,1/2-y,-z
3 -x,1/2+y,1/2-z
4 1/2-x,-y,1/2+z
5 -x,-y,-z
6 -1/2-x,-1/2+y,z
7 x,-1/2-y,-1/2+z
8 -1/2+x,y,-1/2-z
_cell_length_a 11.3527(11)
_cell_length_b 13.2503(13)
_cell_length_c 20.131(2)
_cell_angle_alpha 90
_cell_angle_beta 90
_cell_angle_gamma 90
_cell_formula_units_Z 8
loop_
_atom_type_symbol
_atom_type_radius_bond
C 0.68
H 0.23
loop_
_atom_site_label
_atom_site_type_symbol
_atom_site_fract_x
_atom_site_fract_y
_atom_site_fract_z
C1 C 0.50773(13) 0.31501(11) 0.57778(6)
H1 H 0.50340 0.31580 0.62390
C2 C 0.42834(12) 0.36776(11) 0.54069(6)
H2 H 0.37080 0.40570 0.56210
C3 C 0.43140(12) 0.36628(10) 0.47049(6)
C4 C 0.51388(10) 0.30328(9) 0.43754(6)
C5 C 0.51435(10) 0.29986(9) 0.36557(6)
C6 C 0.58256(10) 0.22887(9) 0.32752(6)
C7 C 0.6133(1) 0.12747(9) 0.34940(6)
C8 C 0.54050(11) 0.06757(9) 0.39191(6)
C9 C 0.58123(12) -0.02594(10) 0.41144(6)
H3 H 0.53490 -0.06480 0.43970
C10 C 0.68977(12) -0.06441(10) 0.39026(6)
H4 H 0.71810 -0.12490 0.40740
C11 C 0.59864(11) 0.25339(10) 0.47729(6)
H5 H 0.65740 0.21560 0.45680
C12 C 0.59626(12) 0.25942(10) 0.54547(6)
H6 H 0.65360 0.22650 0.57040
C13 C 0.45280(12) 0.37663(9) 0.33081(6)
C14 C 0.37110(12) 0.43905(10) 0.36604(6)
H7 H 0.32640 0.48590 0.34270
C15 C 0.35750(12) 0.43146(11) 0.43244(6)
H8 H 0.29940 0.46910 0.45360
C16 C 0.47728(12) 0.3938(1) 0.26266(6)
H9 H 0.43260 0.44020 0.23880
C17 C 0.56598(12) 0.3426(1) 0.23198(6)
H10 H 0.59030 0.36200 0.18980
C18 C 0.62173(12) 0.25957(9) 0.26401(6)
C19 C 0.71478(11) 0.08195(9) 0.32090(6)
C20 C 0.76990(12) 0.12833(10) 0.26440(6)
H11 H 0.84100 0.10310 0.24850
C21 C 0.71928(12) 0.20837(10) 0.23416(6)
H12 H 0.74820 0.23050 0.19350
C22 C 0.75370(12) -0.01227(10) 0.34411(6)
H13 H 0.82360 -0.03940 0.32790
C23 C 0.41632(11) 0.09531(11) 0.41050(6)
H14 H 0.37020 0.03500 0.41540
H15 H 0.38270 0.13670 0.37630
H16 H 0.41680 0.13190 0.45170
loop_
_geom_bond_atom_site_label_1
_geom_bond_atom_site_label_2
_geom_bond_distance
_geom_bond_site_symmetry_1
_geom_bond_site_symmetry_2
C1 H1 0.930 1_555 1_555
C2 C1 1.363 1_555 1_555
H2 C2 0.930 1_555 1_555
C3 C2 1.414 1_555 1_555
C4 C3 1.419 1_555 1_555
C5 C4 1.450 1_555 1_555
C6 C5 1.439 1_555 1_555
C7 C6 1.456 1_555 1_555
C8 C7 1.430 1_555 1_555
C9 C8 1.380 1_555 1_555
H3 C9 0.930 1_555 1_555
C10 C9 1.400 1_555 1_555
H4 C10 0.930 1_555 1_555
C11 C4 1.415 1_555 1_555
H5 C11 0.931 1_555 1_555
C12 C1 1.406 1_555 1_555
H6 C12 0.931 1_555 1_555
C13 C5 1.419 1_555 1_555
C14 C13 1.431 1_555 1_555
H7 C14 0.929 1_555 1_555
C15 C3 1.427 1_555 1_555
H8 C15 0.930 1_555 1_555
C16 C13 1.418 1_555 1_555
H9 C16 0.931 1_555 1_555
C17 C16 1.362 1_555 1_555
H10 C17 0.929 1_555 1_555
C18 C6 1.413 1_555 1_555
C19 C7 1.421 1_555 1_555
C20 C19 1.436 1_555 1_555
H11 C20 0.930 1_555 1_555
C21 C18 1.431 1_555 1_555
H12 C21 0.929 1_555 1_555
C22 C10 1.366 1_555 1_555
H13 C22 0.930 1_555 1_555
C23 C8 1.504 1_555 1_555
H14 C23 0.960 1_555 1_555
H15 C23 0.959 1_555 1_555
H16 C23 0.961 1_555 1_555
C11 C12 1.375 1_555 1_555
C14 C15 1.349 1_555 1_555
C17 C18 1.424 1_555 1_555
C19 C22 1.404 1_555 1_555
C20 C21 1.351 1_555 1_555
#END
