
#######################################################################
#
#                 Cambridge Crystallographic Data Centre
#                                CCDC
#
#######################################################################
#
# If this CIF has been generated from an entry in the Cambridge
# Structural Database, then it will include bibliographic, chemical,
# crystal, experimental, refinement or atomic coordinate data resulting
# from the CCDC's data processing and validation procedures.
#
#######################################################################

data_CSD_CIF_RIBYIL
_audit_creation_date 2007-08-13
_audit_creation_method CSD-ConQuest-V1
_database_code_CSD RIBYIL
_database_code_depnum_ccdc_archive 'CCDC 647463'
_chemical_formula_sum 'C32 H26'
_chemical_formula_moiety
;
C32 H26
;
_journal_coeditor_code "IUCr WN2126"
_journal_coden_Cambridge 1370
_journal_volume 63
_journal_year 2007
_journal_page_first o2400
_journal_name_full 'Acta Crystallogr.,Sect.E:Struct.Rep.Online '
loop_
_publ_author_name
"M.Arslan"
"E.Asker"
"J.Masnovi"
"R.J.Baker"
_chemical_name_systematic
;
1,4-bis(9-Anthryl)butane
;
_chemical_melting_point 527
_cell_volume   1147.437
_exptl_crystal_colour 'colorless'
_exptl_crystal_density_diffrn 1.188
_exptl_special_details
;
Melting point range 527-528K

;
_exptl_crystal_description 'prism'
_exptl_crystal_preparation 'chloroform-hexane'
_diffrn_ambient_temperature 295
#These two values have been output from a single CSD field.
_refine_ls_R_factor_gt 0.0404
_refine_ls_wR_factor_gt 0.0404
_symmetry_cell_setting monoclinic
_symmetry_space_group_name_H-M 'P 21/n'
_symmetry_Int_Tables_number 14
loop_
_symmetry_equiv_pos_site_id
_symmetry_equiv_pos_as_xyz
1 x,y,z
2 1/2-x,1/2+y,1/2-z
3 -x,-y,-z
4 -1/2+x,-1/2-y,-1/2+z
_cell_length_a 11.3964(8)
_cell_length_b 7.900(1)
_cell_length_c 12.7887(6)
_cell_angle_alpha 90
_cell_angle_beta 94.747(5)
_cell_angle_gamma 90
_cell_formula_units_Z 2
loop_
_atom_type_symbol
_atom_type_radius_bond
C 0.68
H 0.23
loop_
_atom_site_label
_atom_site_type_symbol
_atom_site_fract_x
_atom_site_fract_y
_atom_site_fract_z
C1 C -0.14207(16) 0.1711(3) 0.71332(16)
H1 H -0.1738(16) 0.251(2) 0.6602(15)
C2 C -0.2007(2) 0.1316(3) 0.79732(18)
H2 H -0.2777(18) 0.184(3) 0.8071(16)
C3 C -0.1535(2) 0.0170(3) 0.87315(18)
H3 H -0.1927(17) -0.010(3) 0.9350(16)
C4 C -0.0492(2) -0.0580(3) 0.86213(14)
H4 H -0.0116(16) -0.141(2) 0.9124(14)
C5 C 0.01687(14) -0.0205(2) 0.77455(12)
C6 C 0.30077(16) -0.1347(2) 0.66829(17)
H5 H 0.3277(16) -0.214(2) 0.7237(15)
C7 C 0.36296(18) -0.1001(3) 0.58613(18)
H6 H 0.4369(18) -0.157(3) 0.5788(14)
C8 C 0.31971(18) 0.0175(3) 0.50959(16)
H7 H 0.3643(17) 0.041(3) 0.4495(16)
C9 C 0.21483(15) 0.0955(2) 0.51754(13)
H8 H 0.1847(13) 0.174(2) 0.4629(12)
C10 C 0.14429(13) 0.06225(17) 0.60210(11)
C11 C 0.03332(13) 0.13725(17) 0.61031(11)
C12 C -0.03013(13) 0.09790(18) 0.69707(11)
C13 C 0.12531(15) -0.0954(2) 0.76339(13)
H9 H 0.1571(13) -0.180(2) 0.8178(13)
C14 C 0.19041(13) -0.05673(18) 0.67982(12)
C15 C -0.01613(16) 0.25880(18) 0.52658(13)
H10 H -0.1057(14) 0.254(2) 0.5212(12)
H11 H 0.0107(12) 0.2253(19) 0.4560(12)
C16 C 0.02295(17) 0.44292(19) 0.54506(14)
H12 H -0.0058(14) 0.487(2) 0.6132(13)
H13 H 0.1122(15) 0.450(2) 0.5538(12)
C1B C 0.14207(16) 0.8289(3) 0.28668(16)
H1B H 0.1738(16) 0.749(2) 0.3398(15)
C2B C 0.2007(2) 0.8684(3) 0.20268(18)
H2B H 0.2777(18) 0.816(3) 0.1929(16)
C3B C 0.1535(2) 0.9830(3) 0.12685(18)
H3B H 0.1927(17) 1.010(3) 0.0650(16)
C4B C 0.0492(2) 1.0580(3) 0.13787(14)
H4B H 0.0116(16) 1.141(2) 0.0876(14)
C5B C -0.01687(14) 1.0205(2) 0.22545(12)
C6B C -0.30077(16) 1.1347(2) 0.33171(17)
H5B H -0.3277(16) 1.214(2) 0.2763(15)
C7B C -0.36296(18) 1.1001(3) 0.41387(18)
H6B H -0.4369(18) 1.157(3) 0.4212(14)
C8B C -0.31971(18) 0.9825(3) 0.49041(16)
H7B H -0.3643(17) 0.959(3) 0.5505(16)
C9B C -0.21483(15) 0.9045(2) 0.48246(13)
H8B H -0.1847(13) 0.826(2) 0.5371(12)
C10B C -0.14429(13) 0.93775(17) 0.39790(11)
C11B C -0.03332(13) 0.86275(17) 0.38969(11)
C12B C 0.03013(13) 0.90210(18) 0.30293(11)
C13B C -0.12531(15) 1.0954(2) 0.23661(13)
H9B H -0.1571(13) 1.180(2) 0.1822(13)
C14B C -0.19041(13) 1.05673(18) 0.32018(12)
C15B C 0.01613(16) 0.74120(18) 0.47342(13)
H10B H 0.1057(14) 0.746(2) 0.4788(12)
H11B H -0.0107(12) 0.7747(19) 0.5440(12)
C16B C -0.02295(17) 0.55708(19) 0.45494(14)
H12B H 0.0058(14) 0.513(2) 0.3868(13)
H13B H -0.1122(15) 0.550(2) 0.4462(12)
loop_
_geom_bond_atom_site_label_1
_geom_bond_atom_site_label_2
_geom_bond_distance
_geom_bond_site_symmetry_1
_geom_bond_site_symmetry_2
C1 H1 0.975 1_555 1_555
C2 C1 1.348 1_555 1_555
H2 C2 0.988 1_555 1_555
C3 C2 1.401 1_555 1_555
H3 C3 0.964 1_555 1_555
C4 C3 1.346 1_555 1_555
H4 C4 0.991 1_555 1_555
C5 C4 1.431 1_555 1_555
C6 H5 0.976 1_555 1_555
C7 C6 1.343 1_555 1_555
H6 C7 0.966 1_555 1_555
C8 C7 1.409 1_555 1_555
H7 C8 0.974 1_555 1_555
C9 C8 1.356 1_555 1_555
H8 C9 0.975 1_555 1_555
C10 C9 1.424 1_555 1_555
C11 C10 1.408 1_555 1_555
C12 C1 1.431 1_555 1_555
C13 C5 1.388 1_555 1_555
H9 C13 1.010 1_555 1_555
C14 C6 1.419 1_555 1_555
C15 C11 1.512 1_555 1_555
H10 C15 1.018 1_555 1_555
H11 C15 1.012 1_555 1_555
C16 C15 1.534 1_555 1_555
H12 C16 1.017 1_555 1_555
H13 C16 1.016 1_555 1_555
C1B H1B 0.975 1_555 1_555
C2B C1B 1.348 1_555 1_555
H2B C2B 0.988 1_555 1_555
C3B C2B 1.401 1_555 1_555
H3B C3B 0.964 1_555 1_555
C4B C3B 1.346 1_555 1_555
H4B C4B 0.991 1_555 1_555
C5B C4B 1.431 1_555 1_555
C6B H5B 0.976 1_555 1_555
C7B C6B 1.343 1_555 1_555
H6B C7B 0.966 1_555 1_555
C8B C7B 1.409 1_555 1_555
H7B C8B 0.974 1_555 1_555
C9B C8B 1.356 1_555 1_555
H8B C9B 0.975 1_555 1_555
C10B C9B 1.424 1_555 1_555
C11B C10B 1.408 1_555 1_555
C12B C1B 1.431 1_555 1_555
C13B C5B 1.388 1_555 1_555
H9B C13B 1.010 1_555 1_555
C14B C6B 1.419 1_555 1_555
C15B C11B 1.512 1_555 1_555
H10B C15B 1.018 1_555 1_555
H11B C15B 1.012 1_555 1_555
C16B C16 1.522 1_555 1_555
H12B C16B 1.017 1_555 1_555
H13B C16B 1.016 1_555 1_555
C5 C12 1.434 1_555 1_555
C10 C14 1.436 1_555 1_555
C11 C12 1.408 1_555 1_555
C13 C14 1.385 1_555 1_555
C5B C12B 1.434 1_555 1_555
C10B C14B 1.436 1_555 1_555
C11B C12B 1.408 1_555 1_555
C13B C14B 1.385 1_555 1_555
C15B C16B 1.534 1_555 1_555
#END
