
#######################################################################
#
#                 Cambridge Crystallographic Data Centre
#                                CCDC
#
#######################################################################
#
# If this CIF has been generated from an entry in the Cambridge
# Structural Database, then it will include bibliographic, chemical,
# crystal, experimental, refinement or atomic coordinate data resulting
# from the CCDC's data processing and validation procedures.
#
#######################################################################

data_CSD_CIF_RIFJAU
_audit_creation_date 2018-07-05
_audit_creation_method CSD-ConQuest-V1
_database_code_CSD RIFJAU
_database_code_depnum_ccdc_archive 'CCDC 1848067'
_chemical_formula_sum 'C19 H20'
_chemical_formula_moiety
;
C19 H20
;
_journal_coden_Cambridge 1336
_journal_volume 20
_journal_year 2018
_journal_page_first 4341
_journal_name_full 'Org.Lett. '
loop_
_publ_author_name
"M.Mato"
"B.Herle"
"A.M.Echavarren"
_chemical_name_systematic
;
2-[2-(bicyclo[4.1.0]heptan-7-yl)ethenyl]naphthalene
;
_cell_volume   2069.851
_exptl_crystal_colour 'colorless'
_exptl_crystal_density_diffrn 1.195
_exptl_crystal_description 'needle'
_diffrn_ambient_temperature 100
#These two values have been output from a single CSD field.
_refine_ls_R_factor_gt 0.0624
_refine_ls_wR_factor_gt 0.0624
_symmetry_cell_setting triclinic
_symmetry_space_group_name_H-M 'P -1'
_symmetry_Int_Tables_number 2
loop_
_symmetry_equiv_pos_site_id
_symmetry_equiv_pos_as_xyz
1 x,y,z
2 -x,-y,-z
_cell_length_a 5.9984(2)
_cell_length_b 18.7613(7)
_cell_length_c 19.9913(9)
_cell_angle_alpha 111.117(4)
_cell_angle_beta 92.903(3)
_cell_angle_gamma 97.381(3)
_cell_formula_units_Z 6
loop_
_atom_type_symbol
_atom_type_radius_bond
C 0.68
H 0.23
loop_
_atom_site_label
_atom_site_type_symbol
_atom_site_fract_x
_atom_site_fract_y
_atom_site_fract_z
C1 C 0.8674(3) 0.40684(11) 0.64596(11)
H1 H 0.79070 0.38120 0.67530
C2 C 1.0502(4) 0.36573(12) 0.60588(11)
H2 H 1.01260 0.31100 0.59710
H3 H 1.19140 0.38500 0.63700
C3 C 1.0883(4) 0.37447(12) 0.53372(11)
H4 H 1.18790 0.42270 0.54260
H5 H 1.16220 0.33250 0.50460
C4 C 0.8684(4) 0.37386(12) 0.49225(11)
H6 H 0.76900 0.32540 0.48260
H7 H 0.89930 0.37760 0.44630
C5 C 0.7517(4) 0.44108(12) 0.53483(11)
H8 H 0.84260 0.48930 0.53860
H9 H 0.60660 0.43700 0.50890
C6 C 0.7151(3) 0.44311(12) 0.61004(11)
H10 H 0.55650 0.43690 0.61950
C7 C 0.8801(3) 0.49419(12) 0.67552(11)
H11 H 0.80810 0.51420 0.72010
C8 C 1.0774(3) 0.54695(11) 0.6711(1)
H12 H 1.16830 0.52810 0.63440
C9 C 1.1338(3) 0.62018(11) 0.71656(10)
H13 H 1.04050 0.63780 0.75290
C10 C 1.3268(3) 0.67581(11) 0.71536(9)
C11 C 1.5123(3) 0.65280(11) 0.67519(10)
H14 H 1.51210 0.60060 0.64860
C12 C 1.6893(3) 0.70570(11) 0.67499(10)
H15 H 1.80780 0.68890 0.64820
C13 C 1.6981(3) 0.78637(11) 0.71482(10)
C14 C 1.8795(3) 0.84243(12) 0.71563(10)
H16 H 2.00020 0.82700 0.68940
C15 C 1.8810(4) 0.91933(12) 0.75437(11)
H17 H 2.00230 0.95570 0.75460
C16 C 1.6978(4) 0.94344(12) 0.79412(11)
H18 H 1.69940 0.99570 0.82050
C17 C 1.5190(4) 0.89058(11) 0.79404(10)
H19 H 1.39880 0.90730 0.81990
C18 C 1.5138(3) 0.81041(11) 0.75508(10)
C19 C 1.3327(3) 0.75371(11) 0.75457(10)
H20 H 1.21380 0.76940 0.78150
C20 C -0.8581(3) 0.42370(11) -0.14307(10)
H21 H -1.02110 0.41850 -0.15550
C21 C -0.7906(3) 0.43310(12) -0.06613(10)
H22 H -0.92400 0.43630 -0.04040
H23 H -0.68730 0.48120 -0.04280
C22 C -0.6779(4) 0.36645(12) -0.06129(11)
H24 H -0.78610 0.31900 -0.07930
H25 H -0.62790 0.37670 -0.01130
C23 C -0.4757(3) 0.35677(12) -0.10543(10)
H26 H -0.40040 0.31630 -0.09950
H27 H -0.36880 0.40460 -0.08750
C24 C -0.5479(3) 0.33593(11) -0.1857(1)
H28 H -0.41630 0.34800 -0.20820
H29 H -0.59730 0.28050 -0.20760
C25 C -0.7340(3) 0.37591(11) -0.20296(10)
H30 H -0.83080 0.34510 -0.24770
C26 C -0.7094(3) 0.46274(11) -0.1842(1)
H31 H -0.79510 0.47740 -0.21890
C27 C -0.4967(3) 0.51549(11) -0.15099(10)
H32 H -0.39660 0.50110 -0.12290
C28 C -0.4398(3) 0.58269(11) -0.15895(10)
H33 H -0.54150 0.59460 -0.18850
C29 C -0.2364(3) 0.64015(11) -0.12686(9)
C30 C -0.2316(3) 0.71430(11) -0.12587(9)
H34 H -0.35640 0.72580 -0.14720
C31 C -0.0448(3) 0.77315(11) -0.09384(9)
C32 C -0.0411(3) 0.84984(11) -0.0915(1)
H35 H -0.16610 0.86240 -0.11180
C33 C 0.1425(4) 0.90542(12) -0.0601(1)
H36 H 0.14110 0.95550 -0.05860
C34 C 0.3353(4) 0.88715(12) -0.0297(1)
H37 H 0.46060 0.92520 -0.00860
C35 C 0.3378(3) 0.81383(12) -0.03134(10)
H38 H 0.46560 0.80240 -0.01140
C36 C 0.1498(3) 0.75519(11) -0.06274(9)
C37 C 0.1440(3) 0.67824(11) -0.06523(10)
H39 H 0.26930 0.66530 -0.04550
C38 C -0.0410(3) 0.62315(11) -0.09585(10)
H40 H -0.03960 0.57340 -0.09650
C39 C 1.5436(3) 0.80767(11) 0.54161(10)
H41 H 1.59800 0.76660 0.55420
C40 C 1.3711(3) 0.84696(11) 0.58911(10)
H42 H 1.39660 0.84270 0.63570
H43 H 1.22160 0.81900 0.56780
C41 C 1.3737(3) 0.93261(11) 0.60111(10)
H44 H 1.28380 0.93640 0.56120
H45 H 1.30510 0.95730 0.64480
C42 C 1.6119(3) 0.97497(11) 0.60738(10)
H46 H 1.70220 0.97140 0.64740
H47 H 1.60690 1.02920 0.61720
C43 C 1.7216(3) 0.94056(12) 0.53824(10)
H48 H 1.64090 0.94950 0.49940
H49 H 1.87620 0.96660 0.54470
C44 C 1.7212(3) 0.85425(11) 0.51736(10)
H50 H 1.87120 0.83880 0.51700
C45 C 1.5382(3) 0.79449(11) 0.46215(10)
H51 H 1.59050 0.74670 0.43260
C46 C 1.3611(3) 0.81806(11) 0.42462(10)
H52 H 1.27550 0.85320 0.45280
C47 C 1.3146(3) 0.79288(10) 0.35363(10)
H53 H 1.39730 0.75640 0.32580
C48 C 1.1439(3) 0.81764(10) 0.31508(9)
C49 C 0.9589(3) 0.85043(11) 0.34911(10)
H54 H 0.93910 0.85290 0.39570
C50 C 0.8099(3) 0.87829(11) 0.3148(1)
H55 H 0.69080 0.89950 0.33850
C51 C 0.8325(3) 0.87568(10) 0.24410(9)
C52 C 0.6806(3) 0.90428(11) 0.20685(10)
H56 H 0.56000 0.92580 0.22930
C53 C 0.7093(4) 0.90058(11) 0.13870(11)
H57 H 0.60850 0.91970 0.11520
C54 C 0.8906(3) 0.86790(12) 0.10326(10)
H58 H 0.90980 0.86620 0.05690
C55 C 1.0380(3) 0.83878(11) 0.13727(10)
H59 H 1.15550 0.81660 0.11330
C56 C 1.0146(3) 0.84189(10) 0.20832(10)
C57 C 1.1649(3) 0.81287(10) 0.24523(9)
H60 H 1.28170 0.78980 0.22160
loop_
_geom_bond_atom_site_label_1
_geom_bond_atom_site_label_2
_geom_bond_distance
_geom_bond_site_symmetry_1
_geom_bond_site_symmetry_2
C1 H1 0.980 1_555 1_555
C2 C1 1.517 1_555 1_555
H2 C2 0.971 1_555 1_555
H3 C2 0.970 1_555 1_555
C3 C2 1.534 1_555 1_555
H4 C3 0.970 1_555 1_555
H5 C3 0.970 1_555 1_555
C4 C3 1.519 1_555 1_555
H6 C4 0.971 1_555 1_555
H7 C4 0.971 1_555 1_555
C5 C4 1.523 1_555 1_555
H8 C5 0.970 1_555 1_555
H9 C5 0.970 1_555 1_555
C6 C1 1.503 1_555 1_555
H10 C6 0.980 1_555 1_555
C7 C1 1.519 1_555 1_555
H11 C7 0.980 1_555 1_555
C8 C7 1.470 1_555 1_555
H12 C8 0.929 1_555 1_555
C9 C8 1.333 1_555 1_555
H13 C9 0.931 1_555 1_555
C10 C9 1.463 1_555 1_555
C11 C10 1.426 1_555 1_555
H14 C11 0.931 1_555 1_555
C12 C11 1.358 1_555 1_555
H15 C12 0.931 1_555 1_555
C13 C12 1.426 1_555 1_555
C14 C13 1.408 1_555 1_555
H16 C14 0.931 1_555 1_555
C15 C14 1.368 1_555 1_555
H17 C15 0.930 1_555 1_555
C16 C15 1.415 1_555 1_555
H18 C16 0.930 1_555 1_555
C17 C16 1.364 1_555 1_555
H19 C17 0.930 1_555 1_555
C18 C13 1.425 1_555 1_555
C19 C10 1.382 1_555 1_555
H20 C19 0.929 1_555 1_555
C20 H21 0.980 1_555 1_555
C21 C20 1.511 1_555 1_555
H22 C21 0.970 1_555 1_555
H23 C21 0.969 1_555 1_555
C22 C21 1.526 1_555 1_555
H24 C22 0.970 1_555 1_555
H25 C22 0.971 1_555 1_555
C23 C22 1.527 1_555 1_555
H26 C23 0.971 1_555 1_555
H27 C23 0.971 1_555 1_555
C24 C23 1.533 1_555 1_555
H28 C24 0.970 1_555 1_555
H29 C24 0.970 1_555 1_555
C25 C20 1.510 1_555 1_555
H30 C25 0.980 1_555 1_555
C26 C20 1.532 1_555 1_555
H31 C26 0.979 1_555 1_555
C27 C26 1.471 1_555 1_555
H32 C27 0.930 1_555 1_555
C28 C27 1.331 1_555 1_555
H33 C28 0.930 1_555 1_555
C29 C28 1.465 1_555 1_555
C30 C29 1.381 1_555 1_555
H34 C30 0.930 1_555 1_555
C31 C30 1.409 1_555 1_555
C32 C31 1.420 1_555 1_555
H35 C32 0.931 1_555 1_555
C33 C32 1.363 1_555 1_555
H36 C33 0.930 1_555 1_555
C34 C33 1.416 1_555 1_555
H37 C34 0.930 1_555 1_555
C35 C34 1.366 1_555 1_555
H38 C35 0.930 1_555 1_555
C36 C31 1.429 1_555 1_555
C37 C36 1.422 1_555 1_555
H39 C37 0.930 1_555 1_555
C38 C29 1.423 1_555 1_555
H40 C38 0.930 1_555 1_555
C39 H41 0.980 1_555 1_555
C40 C39 1.519 1_555 1_555
H42 C40 0.969 1_555 1_555
H43 C40 0.970 1_555 1_555
C41 C40 1.535 1_555 1_555
H44 C41 0.969 1_555 1_555
H45 C41 0.970 1_555 1_555
C42 C41 1.519 1_555 1_555
H46 C42 0.971 1_555 1_555
H47 C42 0.969 1_555 1_555
C43 C42 1.523 1_555 1_555
H48 C43 0.971 1_555 1_555
H49 C43 0.970 1_555 1_555
C44 C39 1.501 1_555 1_555
H50 C44 0.980 1_555 1_555
C45 C39 1.515 1_555 1_555
H51 C45 0.980 1_555 1_555
C46 C45 1.472 1_555 1_555
H52 C46 0.930 1_555 1_555
C47 C46 1.326 1_555 1_555
H53 C47 0.930 1_555 1_555
C48 C47 1.469 1_555 1_555
C49 C48 1.422 1_555 1_555
H54 C49 0.930 1_555 1_555
C50 C49 1.363 1_555 1_555
H55 C50 0.930 1_555 1_555
C51 C50 1.411 1_555 1_555
C52 C51 1.420 1_555 1_555
H56 C52 0.930 1_555 1_555
C53 C52 1.360 1_555 1_555
H57 C53 0.929 1_555 1_555
C54 C53 1.413 1_555 1_555
H58 C54 0.929 1_555 1_555
C55 C54 1.369 1_555 1_555
H59 C55 0.930 1_555 1_555
C56 C51 1.427 1_555 1_555
C57 C48 1.380 1_555 1_555
H60 C57 0.930 1_555 1_555
C5 C6 1.518 1_555 1_555
C6 C7 1.527 1_555 1_555
C17 C18 1.418 1_555 1_555
C18 C19 1.416 1_555 1_555
C24 C25 1.513 1_555 1_555
C25 C26 1.519 1_555 1_555
C35 C36 1.410 1_555 1_555
C37 C38 1.362 1_555 1_555
C43 C44 1.519 1_555 1_555
C44 C45 1.533 1_555 1_555
C55 C56 1.415 1_555 1_555
C56 C57 1.415 1_555 1_555
#END
