
#######################################################################
#
#                 Cambridge Crystallographic Data Centre
#                                CCDC
#
#######################################################################
#
# If this CIF has been generated from an entry in the Cambridge
# Structural Database, then it will include bibliographic, chemical,
# crystal, experimental, refinement or atomic coordinate data resulting
# from the CCDC's data processing and validation procedures.
#
#######################################################################

data_CSD_CIF_RIQMIN
_audit_creation_date 1997-11-21
_audit_creation_method CSD-ConQuest-V1
_database_code_CSD RIQMIN
_chemical_formula_sum 'C110 H74'
_chemical_formula_moiety
;
C110 H74
;
_journal_coden_Cambridge 4
_journal_volume 119
_journal_year 1997
_journal_page_first 7291
_journal_name_full 'J.Am.Chem.Soc. '
loop_
_publ_author_name
"Ling Tong"
"D.M.Ho"
"N.J.Vogelaar"
"C.E.Schutt"
"R.A.Pascal Junior"
_chemical_name_systematic
;
1,3-bis(Heptaphenyl-1-naphthyl)benzene
;
_chemical_melting_point 623.15
_cell_volume   7820.654
_exptl_crystal_colour 'colorless'
_exptl_crystal_density_diffrn 1.185
_exptl_special_details
;
Melts above 623.15K

;
_diffrn_ambient_temperature ?
_diffrn_special_details
;
The study was carried out at room temperature,in the range 283-303K

;
#These two values have been output from a single CSD field.
_refine_ls_R_factor_gt 0.0647
_refine_ls_wR_factor_gt 0.0647
_symmetry_cell_setting triclinic
_symmetry_space_group_name_H-M 'P -1'
_symmetry_Int_Tables_number 2
loop_
_symmetry_equiv_pos_site_id
_symmetry_equiv_pos_as_xyz
1 x,y,z
2 -x,-y,-z
_cell_length_a 12.433(12)
_cell_length_b 25.507(19)
_cell_length_c 27.736(47)
_cell_angle_alpha 114.89(7)
_cell_angle_beta 100.08(9)
_cell_angle_gamma 90.61(8)
_cell_formula_units_Z 4
loop_
_atom_type_symbol
_atom_type_radius_bond
C 0.68
H 0.23
loop_
_atom_site_label
_atom_site_type_symbol
_atom_site_fract_x
_atom_site_fract_y
_atom_site_fract_z
C1 C 0.8688(3) 0.1303(2) 0.22491(13)
C2 C 0.8239(3) 0.1789(2) 0.25780(13)
H1 H 0.8200(3) 0.2102(2) 0.24885(13)
C3 C 0.7839(2) 0.1840(2) 0.30381(12)
C4 C 0.7920(3) 0.1369(2) 0.31630(14)
H2 H 0.7684(3) 0.1386(2) 0.34688(14)
C5 C 0.8348(3) 0.0875(2) 0.28390(15)
H3 H 0.8384(3) 0.0561(2) 0.29263(15)
C6 C 0.8721(3) 0.08411(15) 0.23881(13)
H4 H 0.8999(3) 0.05025(15) 0.21739(13)
C7 C 0.9071(3) 0.13471(14) 0.17768(13)
C8 C 0.8569(3) 0.10298(14) 0.12419(13)
C9 C 0.8750(3) 0.1224(2) 0.08417(12)
C10 C 0.9313(3) 0.1758(2) 0.09944(13)
C11 C 0.9762(3) 0.21070(15) 0.15565(14)
C12 C 1.0152(3) 0.2713(2) 0.17821(15)
C13 C 1.0734(3) 0.3000(2) 0.23141(15)
C14 C 1.1041(3) 0.2671(2) 0.26184(13)
C15 C 1.0584(3) 0.2107(2) 0.24271(13)
C16 C 0.9814(3) 0.18527(14) 0.19197(12)
C17 C 0.7844(3) 0.0487(2) 0.10691(12)
C18 C 0.6723(4) 0.0460(2) 0.09013(14)
H5 H 0.6414(4) 0.0787(2) 0.08906(14)
C19 C 0.6054(4) -0.0039(3) 0.0750(2)
H6 H 0.5304(4) -0.0049(3) 0.0629(2)
C20 C 0.6479(7) -0.0515(3) 0.0775(2)
H7 H 0.6019(7) -0.0843(3) 0.0693(2)
C21 C 0.7581(7) -0.0510(2) 0.0920(2)
H8 H 0.7880(7) -0.0842(2) 0.0920(2)
C22 C 0.8267(4) -0.0005(2) 0.1069(2)
H9 H 0.9021(4) -0.0004(2) 0.1170(2)
C23 C 0.8352(3) 0.0843(2) 0.02528(14)
C24 C 0.7304(4) 0.0859(2) -0.0013(2)
H10 H 0.6816(4) 0.1089(2) 0.0184(2)
C25 C 0.6976(4) 0.0533(3) -0.0569(2)
H11 H 0.6277(4) 0.0551(3) -0.0745(2)
C26 C 0.7686(7) 0.0189(2) -0.0857(2)
H12 H 0.7464(7) -0.0035(2) -0.1228(2)
C27 C 0.8703(5) 0.0170(2) -0.0608(2)
H13 H 0.9184(5) -0.0065(2) -0.0807(2)
C28 C 0.9035(4) 0.0501(2) -0.0054(2)
H14 H 0.9745(4) 0.0489(2) 0.0112(2)
C29 C 0.9615(3) 0.19126(15) 0.05664(13)
C30 C 0.8852(3) 0.1998(2) 0.0185(2)
H15 H 0.8114(3) 0.1993(2) 0.0207(2)
C31 C 0.9177(5) 0.2091(2) -0.0232(2)
H16 H 0.8657(5) 0.2142(2) -0.0490(2)
C32 C 1.0254(5) 0.2108(2) -0.0258(2)
H17 H 1.0475(5) 0.2169(2) -0.0535(2)
C33 C 1.1025(4) 0.2033(2) 0.0126(2)
H18 H 1.1765(4) 0.2050(2) 0.0110(2)
C34 C 1.0699(3) 0.1935(2) 0.0531(2)
H19 H 1.1224(3) 0.1882(2) 0.0787(2)
C35 C 0.9759(4) 0.3050(2) 0.1471(2)
C36 C 0.8638(5) 0.3055(2) 0.1325(2)
H20 H 0.8173(5) 0.2855(2) 0.1432(2)
C37 C 0.8175(6) 0.3348(3) 0.1024(2)
H21 H 0.7420(6) 0.3346(3) 0.0923(2)
C38 C 0.8933(9) 0.3644(3) 0.0887(3)
H22 H 0.8661(9) 0.3841(3) 0.0683(3)
C39 C 1.0005(9) 0.3662(3) 0.1026(3)
H23 H 1.0467(9) 0.3872(3) 0.0927(3)
C40 C 1.0444(5) 0.3360(2) 0.1326(2)
H24 H 1.1201(5) 0.3370(2) 0.1428(2)
C41 C 1.1056(4) 0.3636(2) 0.25551(15)
C42 C 1.0260(5) 0.4021(3) 0.2637(2)
H25 H 0.9527(5) 0.3880(3) 0.2557(2)
C43 C 1.0536(5) 0.4624(2) 0.2840(2)
H26 H 0.9993(5) 0.4879(2) 0.2890(2)
C44 C 1.1603(7) 0.4823(3) 0.2961(2)
H27 H 1.1783(7) 0.5219(3) 0.3081(2)
C45 C 1.2422(6) 0.4470(3) 0.2913(2)
H28 H 1.3151(6) 0.4623(3) 0.3016(2)
C46 C 1.2152(4) 0.3865(2) 0.2703(2)
H29 H 1.2708(4) 0.3617(2) 0.2663(2)
C47 C 1.1805(3) 0.2949(2) 0.31579(15)
C48 C 1.1484(4) 0.3391(2) 0.3592(2)
H30 H 1.0804(4) 0.3530(2) 0.3541(2)
C49 C 1.2147(5) 0.3628(2) 0.4093(2)
H31 H 1.1929(5) 0.3934(2) 0.4377(2)
C50 C 1.3133(6) 0.3416(3) 0.4179(2)
H32 H 1.3563(6) 0.3566(3) 0.4526(2)
C51 C 1.3499(4) 0.2981(2) 0.3757(2)
H33 H 1.4180(4) 0.2848(2) 0.3815(2)
C52 C 1.2828(4) 0.2747(2) 0.3243(2)
H34 H 1.3063(4) 0.2455(2) 0.2955(2)
C53 C 1.0977(3) 0.1723(2) 0.26953(15)
C54 C 1.0916(3) 0.1837(2) 0.3222(2)
H35 H 1.0599(3) 0.2164(2) 0.3429(2)
C55 C 1.1326(4) 0.1465(3) 0.3443(2)
H36 H 1.1272(4) 0.1546(3) 0.3797(2)
C56 C 1.1810(4) 0.0980(3) 0.3152(2)
H37 H 1.2095(4) 0.0739(3) 0.3307(2)
C57 C 1.1862(3) 0.0859(2) 0.2620(2)
H38 H 1.2175(3) 0.0530(2) 0.2412(2)
C58 C 1.1445(3) 0.1231(2) 0.2402(2)
H39 H 1.1482(3) 0.1145(2) 0.2045(2)
C59 C 0.7391(3) 0.2401(2) 0.33375(13)
C60 C 0.7870(2) 0.2801(2) 0.38547(12)
C61 C 0.7608(3) 0.3387(2) 0.40515(12)
C62 C 0.6950(3) 0.3585(2) 0.37151(12)
C63 C 0.6491(2) 0.31835(15) 0.31668(12)
C64 C 0.5974(3) 0.33547(14) 0.27584(13)
C65 C 0.5400(3) 0.29362(15) 0.22645(12)
C66 C 0.5250(3) 0.23530(14) 0.21799(12)
C67 C 0.5826(3) 0.21726(13) 0.25503(12)
C68 C 0.6565(2) 0.25887(15) 0.30197(11)
C69 C 0.8627(3) 0.26216(14) 0.42277(12)
C70 C 0.9741(3) 0.2715(2) 0.43170(15)
H40 H 1.0065(3) 0.2888(2) 0.41354(15)
C71 C 1.0397(4) 0.2547(2) 0.4686(2)
H41 H 1.1158(4) 0.2605(2) 0.4748(2)
C72 C 0.9906(6) 0.2297(2) 0.4953(2)
H42 H 1.0341(6) 0.2177(2) 0.5189(2)
C73 C 0.8817(5) 0.2222(2) 0.4881(2)
H43 H 0.8496(5) 0.2064(2) 0.5075(2)
C74 C 0.8178(3) 0.2379(2) 0.45197(15)
H44 H 0.7419(3) 0.2322(2) 0.44676(15)
C75 C 0.8069(3) 0.38130(14) 0.46218(12)
C76 C 0.9111(3) 0.4093(2) 0.47569(14)
H45 H 0.9553(3) 0.3987(2) 0.44988(14)
C77 C 0.9507(4) 0.4529(2) 0.5273(2)
H46 H 1.0207(4) 0.4716(2) 0.5361(2)
C78 C 0.8864(6) 0.4678(2) 0.5648(2)
H47 H 0.9124(6) 0.4974(2) 0.5992(2)
C79 C 0.7853(5) 0.4407(2) 0.5531(2)
H48 H 0.7425(5) 0.4511(2) 0.5796(2)
C80 C 0.7450(3) 0.3972(2) 0.50174(14)
H49 H 0.6752(3) 0.3786(2) 0.49391(14)
C81 C 0.6569(4) 0.4177(2) 0.39574(13)
C82 C 0.7231(4) 0.4677(2) 0.4165(2)
H50 H 0.7964(4) 0.4663(2) 0.4134(2)
C83 C 0.6826(7) 0.5221(3) 0.4429(2)
H51 H 0.7276(7) 0.5565(3) 0.4561(2)
C84 C 0.5775(10) 0.5225(3) 0.4482(2)
H52 H 0.5516(10) 0.5580(3) 0.4669(2)
C85 C 0.5058(6) 0.4732(4) 0.4274(3)
H53 H 0.4329(6) 0.4753(4) 0.4311(3)
C86 C 0.5462(4) 0.4206(3) 0.4009(2)
H54 H 0.4995(4) 0.3866(3) 0.3861(2)
C87 C 0.6177(4) 0.3965(2) 0.28380(12)
C88 C 0.7238(4) 0.4190(2) 0.2906(2)
H55 H 0.7812(4) 0.3957(2) 0.2893(2)
C89 C 0.7454(6) 0.4763(3) 0.2995(2)
H56 H 0.8166(6) 0.4916(3) 0.3041(2)
C90 C 0.6596(8) 0.5096(3) 0.3011(2)
H57 H 0.6739(8) 0.5479(3) 0.3071(2)
C91 C 0.5538(6) 0.4890(2) 0.2943(2)
H58 H 0.4964(6) 0.5124(2) 0.2959(2)
C92 C 0.5356(5) 0.4314(2) 0.2850(2)
H59 H 0.4639(5) 0.4160(2) 0.2793(2)
C93 C 0.4927(4) 0.3104(2) 0.18112(14)
C94 C 0.5628(4) 0.3301(2) 0.1575(2)
H60 H 0.6381(4) 0.3340(2) 0.1703(2)
C95 C 0.5216(6) 0.3445(2) 0.1140(2)
H61 H 0.5686(6) 0.3581(2) 0.0982(2)
C96 C 0.4132(6) 0.3379(2) 0.0965(2)
H62 H 0.3862(6) 0.3472(2) 0.0679(2)
C97 C 0.3398(5) 0.3185(2) 0.1174(2)
H63 H 0.2649(5) 0.3143(2) 0.1035(2)
C98 C 0.3818(4) 0.3045(2) 0.1618(2)
H64 H 0.3337(4) 0.2914(2) 0.1774(2)
C99 C 0.4528(3) 0.19150(14) 0.16705(13)
C100 C 0.4883(3) 0.17165(15) 0.11841(14)
H65 H 0.5562(3) 0.18608(15) 0.11711(14)
C101 C 0.4230(4) 0.1303(2) 0.07158(14)
H66 H 0.4481(4) 0.1166(2) 0.03915(14)
C102 C 0.3232(4) 0.1097(2) 0.0725(2)
H67 H 0.2799(4) 0.0821(2) 0.0407(2)
C103 C 0.2855(4) 0.1294(2) 0.1203(2)
H68 H 0.2166(4) 0.1155(2) 0.1210(2)
C104 C 0.3506(3) 0.1700(2) 0.16723(14)
H69 H 0.3253(3) 0.1831(2) 0.19958(14)
C105 C 0.5564(2) 0.1592(2) 0.25252(13)
C106 C 0.5667(3) 0.1074(2) 0.20992(15)
H70 H 0.5933(3) 0.1080(2) 0.18084(15)
C107 C 0.5387(3) 0.0544(2) 0.2092(2)
H71 H 0.5467(3) 0.0200(2) 0.1802(2)
C108 C 0.4989(3) 0.0534(2) 0.2521(2)
H72 H 0.4794(3) 0.0179(2) 0.2517(2)
C109 C 0.4875(3) 0.1036(2) 0.2951(2)
H73 H 0.4610(3) 0.1025(2) 0.3240(2)
C110 C 0.5161(3) 0.1565(2) 0.29518(15)
H74 H 0.5080(3) 0.1908(2) 0.32437(15)
C111 C 0.3716(2) 0.1254(2) 0.72258(12)
C112 C 0.3341(2) 0.1758(2) 0.75741(12)
H75 H 0.3349(2) 0.2078(2) 0.74955(12)
C113 C 0.2952(2) 0.1815(2) 0.80375(11)
C114 C 0.2957(3) 0.1335(2) 0.81474(13)
H76 H 0.2720(3) 0.1355(2) 0.84540(13)
C115 C 0.3311(3) 0.0829(2) 0.78073(14)
H77 H 0.3298(3) 0.0508(2) 0.78853(14)
C116 C 0.3687(3) 0.07825(14) 0.73488(12)
H78 H 0.3921(3) 0.04340(14) 0.71245(12)
C117 C 0.4089(2) 0.12844(13) 0.67444(11)
C118 C 0.3551(2) 0.09706(14) 0.62163(12)
C119 C 0.3715(2) 0.11587(14) 0.58144(11)
C120 C 0.4323(2) 0.16746(15) 0.59481(11)
C121 C 0.4890(2) 0.20113(14) 0.64980(12)
C122 C 0.5474(2) 0.25792(14) 0.67033(12)
C123 C 0.6041(2) 0.28501(14) 0.72375(12)
C124 C 0.6189(2) 0.25413(15) 0.75669(12)
C125 C 0.5663(2) 0.19952(14) 0.73774(11)
C126 C 0.4886(2) 0.17607(14) 0.68717(11)
C127 C 0.2786(3) 0.0440(2) 0.60496(11)
C128 C 0.1681(3) 0.0428(2) 0.58550(12)
H79 H 0.1411(3) 0.0755(2) 0.58278(12)
C129 C 0.0971(4) -0.0058(2) 0.57001(15)
H80 H 0.0230(4) -0.0059(2) 0.55658(15)
C130 C 0.1359(5) -0.0535(2) 0.5745(2)
H81 H 0.0874(5) -0.0857(2) 0.5656(2)
C131 C 0.2455(5) -0.0548(2) 0.5919(2)
H82 H 0.2720(5) -0.0880(2) 0.5938(2)
C132 C 0.3168(4) -0.0056(2) 0.60674(14)
H83 H 0.3915(4) -0.0064(2) 0.61806(14)
C133 C 0.3209(3) 0.0785(2) 0.52330(14)
C134 C 0.2321(3) 0.0924(2) 0.4952(2)
H84 H 0.1984(3) 0.1257(2) 0.5130(2)
C135 C 0.1918(4) 0.0569(3) 0.4399(2)
H85 H 0.1323(4) 0.0670(3) 0.4212(2)
C136 C 0.2395(6) 0.0080(3) 0.4140(2)
H86 H 0.2126(6) -0.0152(3) 0.3774(2)
C137 C 0.3258(5) -0.0075(2) 0.4406(2)
H87 H 0.3586(5) -0.0409(2) 0.4225(2)
C138 C 0.3649(4) 0.0277(2) 0.4958(2)
H88 H 0.4225(4) 0.0164(2) 0.5144(2)
C139 C 0.4454(3) 0.1816(2) 0.54850(12)
C140 C 0.3738(3) 0.2124(2) 0.5296(2)
H89 H 0.3173(3) 0.2281(2) 0.5476(2)
C141 C 0.3840(5) 0.2205(3) 0.4840(2)
H90 H 0.3359(5) 0.2423(3) 0.4722(2)
C142 C 0.4632(7) 0.1969(3) 0.4576(2)
H91 H 0.4700(7) 0.2027(3) 0.4273(2)
C143 C 0.5348(5) 0.1644(3) 0.4734(2)
H92 H 0.5883(5) 0.1473(3) 0.4537(2)
C144 C 0.5257(4) 0.1574(2) 0.5203(2)
H93 H 0.5748(4) 0.1361(2) 0.5322(2)
C145 C 0.5484(3) 0.2914(2) 0.63725(12)
C146 C 0.4685(3) 0.3266(2) 0.63371(15)
H94 H 0.4094(3) 0.3279(2) 0.65050(15)
C147 C 0.4725(4) 0.3605(2) 0.6059(2)
H95 H 0.4176(4) 0.3846(2) 0.6047(2)
C148 C 0.5567(5) 0.3580(2) 0.5808(2)
H96 H 0.5596(5) 0.3804(2) 0.5617(2)
C149 C 0.6376(4) 0.3231(2) 0.5828(2)
H97 H 0.6948(4) 0.3213(2) 0.5648(2)
C150 C 0.6350(3) 0.2902(2) 0.61177(14)
H98 H 0.6917(3) 0.2673(2) 0.61402(14)
C151 C 0.6567(3) 0.3456(2) 0.74719(13)
C152 C 0.5932(4) 0.3919(2) 0.75798(15)
H99 H 0.5172(4) 0.3849(2) 0.74957(15)
C153 C 0.6412(6) 0.4486(2) 0.7812(2)
H100 H 0.5966(6) 0.4789(2) 0.7874(2)
C154 C 0.7506(7) 0.4606(3) 0.7947(2)
H101 H 0.7822(7) 0.4987(3) 0.8104(2)
C155 C 0.8144(5) 0.4155(3) 0.7850(2)
H102 H 0.8903(5) 0.4234(3) 0.7949(2)
C156 C 0.7692(3) 0.3579(2) 0.76068(15)
H103 H 0.8147(3) 0.3279(2) 0.75360(15)
C157 C 0.6904(3) 0.2822(2) 0.81228(13)
C158 C 0.6579(3) 0.3302(2) 0.85227(15)
H104 H 0.5922(3) 0.3449(2) 0.84459(15)
C159 C 0.7227(5) 0.3563(2) 0.9034(2)
H105 H 0.7009(5) 0.3889(2) 0.9300(2)
C160 C 0.8176(5) 0.3350(2) 0.9154(2)
H106 H 0.8595(5) 0.3526(2) 0.9503(2)
C161 C 0.8531(4) 0.2877(2) 0.8767(2)
H107 H 0.9190(4) 0.2736(2) 0.8850(2)
C162 C 0.7884(3) 0.2612(2) 0.82447(13)
H108 H 0.8115(3) 0.2293(2) 0.79782(13)
C163 C 0.6001(3) 0.1603(2) 0.76422(14)
C164 C 0.5924(3) 0.1720(2) 0.81684(14)
H109 H 0.5600(3) 0.2047(2) 0.83702(14)
C165 C 0.6318(4) 0.1360(3) 0.8395(2)
H110 H 0.6254(4) 0.1442(3) 0.8749(2)
C166 C 0.6808(4) 0.0878(3) 0.8107(2)
H111 H 0.7085(4) 0.0639(3) 0.8266(2)
C167 C 0.6891(3) 0.0749(2) 0.7580(2)
H112 H 0.7218(3) 0.0422(2) 0.7381(2)
C168 C 0.6482(3) 0.1113(2) 0.7351(2)
H113 H 0.6532(3) 0.1025(2) 0.6995(2)
C169 C 0.2560(2) 0.2388(2) 0.83527(12)
C170 C 0.3036(2) 0.2770(2) 0.88823(12)
C171 C 0.2758(2) 0.3355(2) 0.91022(11)
C172 C 0.2166(3) 0.3577(2) 0.87741(12)
C173 C 0.1798(2) 0.32017(14) 0.82055(11)
C174 C 0.1469(2) 0.34128(13) 0.78011(11)
C175 C 0.0921(2) 0.30276(14) 0.72885(11)
C176 C 0.0601(2) 0.24429(13) 0.71861(11)
C177 C 0.1041(2) 0.22259(13) 0.75486(11)
C178 C 0.1792(2) 0.26057(14) 0.80412(11)
C179 C 0.3840(3) 0.25718(14) 0.92251(11)
C180 C 0.4952(3) 0.2698(2) 0.92995(13)
H114 H 0.5218(3) 0.2898(2) 0.91248(13)
C181 C 0.5684(3) 0.2525(2) 0.9639(2)
H115 H 0.6437(3) 0.2604(2) 0.9684(2)
C182 C 0.5297(6) 0.2243(2) 0.9901(2)
H116 H 0.5786(6) 0.2126(2) 1.0123(2)
C183 C 0.4204(5) 0.2129(2) 0.9842(2)
H117 H 0.3944(5) 0.1944(2) 1.0031(2)
C184 C 0.3475(3) 0.2287(2) 0.95020(14)
H118 H 0.2725(3) 0.2201(2) 0.94585(14)
C185 C 0.3105(3) 0.37541(14) 0.96919(12)
C186 C 0.4142(3) 0.4043(2) 0.98997(13)
H119 H 0.4677(3) 0.3938(2) 0.96889(13)
C187 C 0.4393(4) 0.4486(2) 1.0417(2)
H120 H 0.5093(4) 0.4681(2) 1.0553(2)
C188 C 0.3615(5) 0.4636(2) 1.0729(2)
H121 H 0.3783(5) 0.4942(2) 1.1074(2)
C189 C 0.2599(4) 0.4348(2) 1.0543(2)
H122 H 0.2078(4) 0.4446(2) 1.0763(2)
C190 C 0.2344(3) 0.3906(2) 1.00246(13)
H123 H 0.1648(3) 0.3707(2) 0.98970(13)
C191 C 0.1725(3) 0.4156(2) 0.90102(12)
C192 C 0.2374(3) 0.4679(2) 0.92957(14)
H124 H 0.3130(3) 0.4692(2) 0.93205(14)
C193 C 0.1877(6) 0.5185(2) 0.9545(2)
H125 H 0.2306(6) 0.5537(2) 0.9736(2)
C194 C 0.0761(6) 0.5169(2) 0.9513(2)
H126 H 0.0441(6) 0.5509(2) 0.9689(2)
C195 C 0.0132(4) 0.4663(3) 0.9226(2)
H127 H -0.0625(4) 0.4654(3) 0.9199(2)
C196 C 0.0598(3) 0.4160(2) 0.89741(14)
H128 H 0.0150(3) 0.3814(2) 0.87745(14)
C197 C 0.1908(3) 0.4013(2) 0.79258(11)
C198 C 0.3029(3) 0.4152(2) 0.80702(12)
H129 H 0.3489(3) 0.3867(2) 0.80697(12)
C199 C 0.3477(4) 0.4705(2) 0.82149(15)
H130 H 0.4235(4) 0.4792(2) 0.83131(15)
C200 C 0.2821(6) 0.5121(2) 0.8215(2)
H131 H 0.3128(6) 0.5496(2) 0.8316(2)
C201 C 0.1718(5) 0.5000(2) 0.8067(2)
H132 H 0.1270(5) 0.5289(2) 0.8067(2)
C202 C 0.1257(3) 0.4441(2) 0.79167(13)
H133 H 0.0500(3) 0.4357(2) 0.78086(13)
C203 C 0.0731(3) 0.32229(13) 0.68451(11)
C204 C 0.1586(3) 0.3277(2) 0.66145(14)
H134 H 0.2269(3) 0.3177(2) 0.67293(14)
C205 C 0.1471(4) 0.3472(2) 0.6221(2)
H135 H 0.2067(4) 0.3502(2) 0.6069(2)
C206 C 0.0489(5) 0.3622(2) 0.6053(2)
H136 H 0.0413(5) 0.3760(2) 0.5788(2)
C207 C -0.0393(4) 0.3575(2) 0.6265(2)
H137 H -0.1069(4) 0.3679(2) 0.6148(2)
C208 C -0.0270(3) 0.3367(2) 0.66626(14)
H138 H -0.0872(3) 0.3325(2) 0.68048(14)
C209 C -0.0187(3) 0.20660(13) 0.66806(12)
C210 C 0.0140(3) 0.18076(15) 0.61899(13)
H139 H 0.0858(3) 0.18863(15) 0.61691(13)
C211 C -0.0581(4) 0.1434(2) 0.57290(13)
H140 H -0.0340(4) 0.1256(2) 0.54031(13)
C212 C -0.1641(4) 0.1325(2) 0.5748(2)
H141 H -0.2124(4) 0.1072(2) 0.5436(2)
C213 C -0.1998(3) 0.1588(2) 0.6229(2)
H142 H -0.2726(3) 0.1519(2) 0.6243(2)
C214 C -0.1269(3) 0.19563(15) 0.66936(13)
H143 H -0.1512(3) 0.21323(15) 0.70191(13)
C215 C 0.0667(2) 0.16437(14) 0.75040(12)
C216 C 0.0719(3) 0.1127(2) 0.70659(14)
H144 H 0.0994(3) 0.1130(2) 0.67761(14)
C217 C 0.0371(3) 0.0604(2) 0.7051(2)
H145 H 0.0423(3) 0.0259(2) 0.6755(2)
C218 C -0.0051(3) 0.0590(2) 0.7471(2)
H146 H -0.0293(3) 0.0238(2) 0.7459(2)
C219 C -0.0115(3) 0.1099(2) 0.7908(2)
H147 H -0.0399(3) 0.1092(2) 0.8195(2)
C220 C 0.0240(3) 0.1625(2) 0.79269(13)
H148 H 0.0192(3) 0.1968(2) 0.82255(13)
loop_
_geom_bond_atom_site_label_1
_geom_bond_atom_site_label_2
_geom_bond_distance
_geom_bond_site_symmetry_1
_geom_bond_site_symmetry_2
C1 C2 1.386 1_555 1_555
C2 H1 0.930 1_555 1_555
C3 C2 1.406 1_555 1_555
C4 C3 1.384 1_555 1_555
H2 C4 0.929 1_555 1_555
C5 C4 1.381 1_555 1_555
H3 C5 0.929 1_555 1_555
C6 C1 1.384 1_555 1_555
H4 C6 0.930 1_555 1_555
C7 C1 1.515 1_555 1_555
C8 C7 1.378 1_555 1_555
C9 C8 1.441 1_555 1_555
C10 C9 1.384 1_555 1_555
C11 C10 1.432 1_555 1_555
C12 C11 1.442 1_555 1_555
C13 C12 1.394 1_555 1_555
C14 C13 1.433 1_555 1_555
C15 C14 1.381 1_555 1_555
C16 C7 1.446 1_555 1_555
C17 C8 1.491 1_555 1_555
C18 C17 1.381 1_555 1_555
H5 C18 0.932 1_555 1_555
C19 C18 1.376 1_555 1_555
H6 C19 0.930 1_555 1_555
C20 C19 1.353 1_555 1_555
H7 C20 0.929 1_555 1_555
C21 C20 1.357 1_555 1_555
H8 C21 0.928 1_555 1_555
C22 C17 1.366 1_555 1_555
H9 C22 0.930 1_555 1_555
C23 C9 1.493 1_555 1_555
C24 C23 1.390 1_555 1_555
H10 C24 0.930 1_555 1_555
C25 C24 1.389 1_555 1_555
H11 C25 0.931 1_555 1_555
C26 C25 1.364 1_555 1_555
H12 C26 0.929 1_555 1_555
C27 C26 1.342 1_555 1_555
H13 C27 0.931 1_555 1_555
C28 C23 1.360 1_555 1_555
H14 C28 0.929 1_555 1_555
C29 C10 1.501 1_555 1_555
C30 C29 1.383 1_555 1_555
H15 C30 0.930 1_555 1_555
C31 C30 1.396 1_555 1_555
H16 C31 0.930 1_555 1_555
C32 C31 1.355 1_555 1_555
H17 C32 0.929 1_555 1_555
C33 C32 1.381 1_555 1_555
H18 C33 0.930 1_555 1_555
C34 C29 1.371 1_555 1_555
H19 C34 0.932 1_555 1_555
C35 C12 1.486 1_555 1_555
C36 C35 1.383 1_555 1_555
H20 C36 0.929 1_555 1_555
C37 C36 1.398 1_555 1_555
H21 C37 0.931 1_555 1_555
C38 C37 1.398 1_555 1_555
H22 C38 0.929 1_555 1_555
C39 C38 1.316 1_555 1_555
H23 C39 0.930 1_555 1_555
C40 C35 1.373 1_555 1_555
H24 C40 0.931 1_555 1_555
C41 C13 1.489 1_555 1_555
C42 C41 1.381 1_555 1_555
H25 C42 0.930 1_555 1_555
C43 C42 1.412 1_555 1_555
H26 C43 0.930 1_555 1_555
C44 C43 1.348 1_555 1_555
H27 C44 0.931 1_555 1_555
C45 C44 1.353 1_555 1_555
H28 C45 0.929 1_555 1_555
C46 C41 1.397 1_555 1_555
H29 C46 0.931 1_555 1_555
C47 C14 1.496 1_555 1_555
C48 C47 1.384 1_555 1_555
H30 C48 0.931 1_555 1_555
C49 C48 1.363 1_555 1_555
H31 C49 0.930 1_555 1_555
C50 C49 1.368 1_555 1_555
H32 C50 0.930 1_555 1_555
C51 C50 1.383 1_555 1_555
H33 C51 0.929 1_555 1_555
C52 C47 1.396 1_555 1_555
H34 C52 0.929 1_555 1_555
C53 C15 1.499 1_555 1_555
C54 C53 1.381 1_555 1_555
H35 C54 0.929 1_555 1_555
C55 C54 1.388 1_555 1_555
H36 C55 0.929 1_555 1_555
C56 C55 1.375 1_555 1_555
H37 C56 0.928 1_555 1_555
C57 C56 1.388 1_555 1_555
H38 C57 0.931 1_555 1_555
C58 C53 1.377 1_555 1_555
H39 C58 0.930 1_555 1_555
C59 C3 1.492 1_555 1_555
C60 C59 1.382 1_555 1_555
C61 C60 1.423 1_555 1_555
C62 C61 1.390 1_555 1_555
C63 C62 1.435 1_555 1_555
C64 C63 1.433 1_555 1_555
C65 C64 1.391 1_555 1_555
C66 C65 1.410 1_555 1_555
C67 C66 1.388 1_555 1_555
C68 C59 1.452 1_555 1_555
C69 C60 1.494 1_555 1_555
C70 C69 1.364 1_555 1_555
H40 C70 0.930 1_555 1_555
C71 C70 1.407 1_555 1_555
H41 C71 0.930 1_555 1_555
C72 C71 1.369 1_555 1_555
H42 C72 0.929 1_555 1_555
C73 C72 1.333 1_555 1_555
H43 C73 0.930 1_555 1_555
C74 C69 1.387 1_555 1_555
H44 C74 0.930 1_555 1_555
C75 C61 1.495 1_555 1_555
C76 C75 1.383 1_555 1_555
H45 C76 0.930 1_555 1_555
C77 C76 1.389 1_555 1_555
H46 C77 0.929 1_555 1_555
C78 C77 1.353 1_555 1_555
H47 C78 0.930 1_555 1_555
C79 C78 1.346 1_555 1_555
H48 C79 0.933 1_555 1_555
C80 C75 1.374 1_555 1_555
H49 C80 0.929 1_555 1_555
C81 C62 1.493 1_555 1_555
C82 C81 1.352 1_555 1_555
H50 C82 0.930 1_555 1_555
C83 C82 1.416 1_555 1_555
H51 C83 0.930 1_555 1_555
C84 C83 1.340 1_555 1_555
H52 C84 0.928 1_555 1_555
C85 C84 1.376 1_555 1_555
H53 C85 0.929 1_555 1_555
C86 C81 1.408 1_555 1_555
H54 C86 0.929 1_555 1_555
C87 C64 1.489 1_555 1_555
C88 C87 1.382 1_555 1_555
H55 C88 0.929 1_555 1_555
C89 C88 1.391 1_555 1_555
H56 C89 0.929 1_555 1_555
C90 C89 1.366 1_555 1_555
H57 C90 0.929 1_555 1_555
C91 C90 1.363 1_555 1_555
H58 C91 0.930 1_555 1_555
C92 C87 1.357 1_555 1_555
H59 C92 0.930 1_555 1_555
C93 C65 1.520 1_555 1_555
C94 C93 1.382 1_555 1_555
H60 C94 0.930 1_555 1_555
C95 C94 1.419 1_555 1_555
H61 C95 0.931 1_555 1_555
C96 C95 1.333 1_555 1_555
H62 C96 0.930 1_555 1_555
C97 C96 1.353 1_555 1_555
H63 C97 0.930 1_555 1_555
C98 C93 1.371 1_555 1_555
H64 C98 0.930 1_555 1_555
C99 C66 1.502 1_555 1_555
C100 C99 1.382 1_555 1_555
H65 C100 0.930 1_555 1_555
C101 C100 1.385 1_555 1_555
H66 C101 0.930 1_555 1_555
C102 C101 1.351 1_555 1_555
H67 C102 0.931 1_555 1_555
C103 C102 1.375 1_555 1_555
H68 C103 0.930 1_555 1_555
C104 C99 1.380 1_555 1_555
H69 C104 0.930 1_555 1_555
C105 C67 1.483 1_555 1_555
C106 C105 1.379 1_555 1_555
H70 C106 0.929 1_555 1_555
C107 C106 1.383 1_555 1_555
H71 C107 0.929 1_555 1_555
C108 C107 1.376 1_555 1_555
H72 C108 0.930 1_555 1_555
C109 C108 1.364 1_555 1_555
H73 C109 0.929 1_555 1_555
C110 C105 1.390 1_555 1_555
H74 C110 0.930 1_555 1_555
C111 C112 1.389 1_555 1_555
C112 H75 0.930 1_555 1_555
C113 C112 1.403 1_555 1_555
C114 C113 1.380 1_555 1_555
H76 C114 0.930 1_555 1_555
C115 C114 1.372 1_555 1_555
H77 C115 0.931 1_555 1_555
C116 C111 1.383 1_555 1_555
H78 C116 0.930 1_555 1_555
C117 C111 1.519 1_555 1_555
C118 C117 1.376 1_555 1_555
C119 C118 1.429 1_555 1_555
C120 C119 1.382 1_555 1_555
C121 C120 1.438 1_555 1_555
C122 C121 1.445 1_555 1_555
C123 C122 1.390 1_555 1_555
C124 C123 1.428 1_555 1_555
C125 C124 1.374 1_555 1_555
C126 C117 1.440 1_555 1_555
C127 C118 1.497 1_555 1_555
C128 C127 1.380 1_555 1_555
H79 C128 0.930 1_555 1_555
C129 C128 1.377 1_555 1_555
H80 C129 0.931 1_555 1_555
C130 C129 1.359 1_555 1_555
H81 C130 0.930 1_555 1_555
C131 C130 1.369 1_555 1_555
H82 C131 0.931 1_555 1_555
C132 C127 1.373 1_555 1_555
H83 C132 0.930 1_555 1_555
C133 C119 1.498 1_555 1_555
C134 C133 1.375 1_555 1_555
H84 C134 0.932 1_555 1_555
C135 C134 1.406 1_555 1_555
H85 C135 0.930 1_555 1_555
C136 C135 1.354 1_555 1_555
H86 C136 0.929 1_555 1_555
C137 C136 1.353 1_555 1_555
H87 C137 0.929 1_555 1_555
C138 C133 1.374 1_555 1_555
H88 C138 0.929 1_555 1_555
C139 C120 1.506 1_555 1_555
C140 C139 1.372 1_555 1_555
H89 C140 0.929 1_555 1_555
C141 C140 1.391 1_555 1_555
H90 C141 0.930 1_555 1_555
C142 C141 1.327 1_555 1_555
H91 C142 0.930 1_555 1_555
C143 C142 1.363 1_555 1_555
H92 C143 0.930 1_555 1_555
C144 C139 1.367 1_555 1_555
H93 C144 0.930 1_555 1_555
C145 C122 1.495 1_555 1_555
C146 C145 1.364 1_555 1_555
H94 C146 0.930 1_555 1_555
C147 C146 1.385 1_555 1_555
H95 C147 0.929 1_555 1_555
C148 C147 1.343 1_555 1_555
H96 C148 0.932 1_555 1_555
C149 C148 1.360 1_555 1_555
H97 C149 0.929 1_555 1_555
C150 C145 1.381 1_555 1_555
H98 C150 0.931 1_555 1_555
C151 C123 1.491 1_555 1_555
C152 C151 1.383 1_555 1_555
H99 C152 0.929 1_555 1_555
C153 C152 1.388 1_555 1_555
H100 C153 0.930 1_555 1_555
C154 C153 1.342 1_555 1_555
H101 C154 0.930 1_555 1_555
C155 C154 1.363 1_555 1_555
H102 C155 0.930 1_555 1_555
C156 C151 1.380 1_555 1_555
H103 C156 0.930 1_555 1_555
C157 C124 1.503 1_555 1_555
C158 C157 1.385 1_555 1_555
H104 C158 0.931 1_555 1_555
C159 C158 1.377 1_555 1_555
H105 C159 0.931 1_555 1_555
C160 C159 1.351 1_555 1_555
H106 C160 0.929 1_555 1_555
C161 C160 1.375 1_555 1_555
H107 C161 0.929 1_555 1_555
C162 C157 1.381 1_555 1_555
H108 C162 0.929 1_555 1_555
C163 C125 1.495 1_555 1_555
C164 C163 1.382 1_555 1_555
H109 C164 0.930 1_555 1_555
C165 C164 1.366 1_555 1_555
H110 C165 0.932 1_555 1_555
C166 C165 1.371 1_555 1_555
H111 C166 0.929 1_555 1_555
C167 C166 1.380 1_555 1_555
H112 C167 0.929 1_555 1_555
C168 C163 1.381 1_555 1_555
H113 C168 0.930 1_555 1_555
C169 C113 1.492 1_555 1_555
C170 C169 1.391 1_555 1_555
C171 C170 1.427 1_555 1_555
C172 C171 1.378 1_555 1_555
C173 C172 1.442 1_555 1_555
C174 C173 1.438 1_555 1_555
C175 C174 1.386 1_555 1_555
C176 C175 1.433 1_555 1_555
C177 C176 1.378 1_555 1_555
C178 C169 1.447 1_555 1_555
C179 C170 1.497 1_555 1_555
C180 C179 1.376 1_555 1_555
H114 C180 0.930 1_555 1_555
C181 C180 1.403 1_555 1_555
H115 C181 0.931 1_555 1_555
C182 C181 1.354 1_555 1_555
H116 C182 0.930 1_555 1_555
C183 C182 1.353 1_555 1_555
H117 C183 0.931 1_555 1_555
C184 C179 1.381 1_555 1_555
H118 C184 0.931 1_555 1_555
C185 C171 1.497 1_555 1_555
C186 C185 1.378 1_555 1_555
H119 C186 0.930 1_555 1_555
C187 C186 1.380 1_555 1_555
H120 C187 0.930 1_555 1_555
C188 C187 1.361 1_555 1_555
H121 C188 0.931 1_555 1_555
C189 C188 1.354 1_555 1_555
H122 C189 0.932 1_555 1_555
C190 C185 1.382 1_555 1_555
H123 C190 0.929 1_555 1_555
C191 C172 1.496 1_555 1_555
C192 C191 1.386 1_555 1_555
H124 C192 0.930 1_555 1_555
C193 C192 1.393 1_555 1_555
H125 C193 0.928 1_555 1_555
C194 C193 1.374 1_555 1_555
H126 C194 0.931 1_555 1_555
C195 C194 1.344 1_555 1_555
H127 C195 0.930 1_555 1_555
C196 C191 1.388 1_555 1_555
H128 C196 0.931 1_555 1_555
C197 C174 1.494 1_555 1_555
C198 C197 1.380 1_555 1_555
H129 C198 0.929 1_555 1_555
C199 C198 1.375 1_555 1_555
H130 C199 0.931 1_555 1_555
C200 C199 1.345 1_555 1_555
H131 C200 0.932 1_555 1_555
C201 C200 1.353 1_555 1_555
H132 C201 0.929 1_555 1_555
C202 C197 1.372 1_555 1_555
H133 C202 0.930 1_555 1_555
C203 C175 1.494 1_555 1_555
C204 C203 1.366 1_555 1_555
H134 C204 0.931 1_555 1_555
C205 C204 1.365 1_555 1_555
H135 C205 0.932 1_555 1_555
C206 C205 1.347 1_555 1_555
H136 C206 0.931 1_555 1_555
C207 C206 1.358 1_555 1_555
H137 C207 0.929 1_555 1_555
C208 C203 1.373 1_555 1_555
H138 C208 0.930 1_555 1_555
C209 C176 1.488 1_555 1_555
C210 C209 1.377 1_555 1_555
H139 C210 0.930 1_555 1_555
C211 C210 1.379 1_555 1_555
H140 C211 0.930 1_555 1_555
C212 C211 1.359 1_555 1_555
H141 C212 0.930 1_555 1_555
C213 C212 1.374 1_555 1_555
H142 C213 0.931 1_555 1_555
C214 C209 1.381 1_555 1_555
H143 C214 0.930 1_555 1_555
C215 C177 1.499 1_555 1_555
C216 C215 1.378 1_555 1_555
H144 C216 0.930 1_555 1_555
C217 C216 1.380 1_555 1_555
H145 C217 0.930 1_555 1_555
C218 C217 1.372 1_555 1_555
H146 C218 0.929 1_555 1_555
C219 C218 1.368 1_555 1_555
H147 C219 0.932 1_555 1_555
C220 C215 1.387 1_555 1_555
H148 C220 0.929 1_555 1_555
C5 C6 1.378 1_555 1_555
C11 C16 1.403 1_555 1_555
C15 C16 1.437 1_555 1_555
C21 C22 1.401 1_555 1_555
C27 C28 1.387 1_555 1_555
C33 C34 1.372 1_555 1_555
C39 C40 1.405 1_555 1_555
C45 C46 1.413 1_555 1_555
C51 C52 1.393 1_555 1_555
C57 C58 1.385 1_555 1_555
C63 C68 1.404 1_555 1_555
C67 C68 1.436 1_555 1_555
C73 C74 1.364 1_555 1_555
C79 C80 1.385 1_555 1_555
C85 C86 1.381 1_555 1_555
C91 C92 1.389 1_555 1_555
C97 C98 1.437 1_555 1_555
C103 C104 1.379 1_555 1_555
C109 C110 1.391 1_555 1_555
C115 C116 1.390 1_555 1_555
C121 C126 1.429 1_555 1_555
C125 C126 1.437 1_555 1_555
C131 C132 1.394 1_555 1_555
C137 C138 1.400 1_555 1_555
C143 C144 1.408 1_555 1_555
C149 C150 1.388 1_555 1_555
C155 C156 1.395 1_555 1_555
C161 C162 1.400 1_555 1_555
C167 C168 1.385 1_555 1_555
C173 C178 1.391 1_555 1_555
C177 C178 1.448 1_555 1_555
C183 C184 1.379 1_555 1_555
C189 C190 1.381 1_555 1_555
C195 C196 1.369 1_555 1_555
C201 C202 1.391 1_555 1_555
C207 C208 1.399 1_555 1_555
C213 C214 1.385 1_555 1_555
C219 C220 1.385 1_555 1_555
#END
