
#######################################################################
#
#                 Cambridge Crystallographic Data Centre
#                                CCDC
#
#######################################################################
#
# If this CIF has been generated from an entry in the Cambridge
# Structural Database, then it will include bibliographic, chemical,
# crystal, experimental, refinement or atomic coordinate data resulting
# from the CCDC's data processing and validation procedures.
#
#######################################################################

data_CSD_CIF_ROPXIF
_audit_creation_date 2014-10-14
_audit_creation_method CSD-ConQuest-V1
_database_code_CSD ROPXIF
_database_code_depnum_ccdc_archive 'CCDC 1029018'
_chemical_formula_sum 'C32 H18'
_chemical_formula_moiety
;
C32 H18
;
_journal_coden_Cambridge 179
_journal_volume 54
_journal_year 2015
_journal_page_first 3069
_journal_name_full 'Angew.Chem.,Int.Ed. '
loop_
_publ_author_name
"Ya-Chu Hsieh"
"Hau-Yu Fang"
"Yi-Ting Chen"
"Rong Yang"
"Chen-I Yang"
"Pi-Tai Chou"
"Ming-Yu Kuo"
"Yao-Ting Wu"
_chemical_name_systematic
;
5,15-dihydrodinaphtho[3,2,1-de:3',2',1'-mn]tetracene
;
_cell_volume   3858.170
_exptl_crystal_colour 'black'
_exptl_crystal_density_diffrn 1.386
_exptl_crystal_description 'acicular'
_diffrn_ambient_temperature 100
#These two values have been output from a single CSD field.
_refine_ls_R_factor_gt 0.0658
_refine_ls_wR_factor_gt 0.0658
_symmetry_cell_setting orthorhombic
_symmetry_space_group_name_H-M 'P b c a'
_symmetry_Int_Tables_number 61
loop_
_symmetry_equiv_pos_site_id
_symmetry_equiv_pos_as_xyz
1 x,y,z
2 1/2+x,1/2-y,-z
3 -x,1/2+y,1/2-z
4 1/2-x,-y,1/2+z
5 -x,-y,-z
6 -1/2-x,-1/2+y,z
7 x,-1/2-y,-1/2+z
8 -1/2+x,y,-1/2-z
_cell_length_a 19.564(5)
_cell_length_b 7.6443(17)
_cell_length_c 25.798(6)
_cell_angle_alpha 90
_cell_angle_beta 90
_cell_angle_gamma 90
_cell_formula_units_Z 8
loop_
_atom_type_symbol
_atom_type_radius_bond
C 0.68
H 0.23
loop_
_atom_site_label
_atom_site_type_symbol
_atom_site_fract_x
_atom_site_fract_y
_atom_site_fract_z
C1 C -0.0167(2) 0.5695(5) 0.18358(17)
H1 H -0.06400 0.54200 0.18430
C2 C 0.0208(2) 0.5523(5) 0.13728(16)
H2 H -0.00120 0.50700 0.10730
C3 C 0.0877(2) 0.5990(4) 0.13444(15)
H3 H 0.11150 0.58830 0.10250
C4 C 0.1228(2) 0.6645(5) 0.17941(14)
C5 C 0.1933(2) 0.7120(4) 0.17964(14)
C6 C 0.23437(19) 0.7394(4) 0.13189(14)
C7 C 0.30818(19) 0.7278(4) 0.13578(15)
C8 C 0.3487(2) 0.7314(4) 0.08766(14)
C9 C 0.41762(19) 0.6737(5) 0.08541(14)
C10 C 0.4584(2) 0.7208(5) 0.04121(15)
C11 C 0.5291(2) 0.6768(6) 0.04107(16)
H4 H 0.55730 0.71710 0.01360
C12 C 0.5570(2) 0.5786(5) 0.07935(15)
H5 H 0.60440 0.55160 0.07860
C13 C 0.2262(2) 0.7368(5) 0.22803(15)
C14 C 0.1880(2) 0.7416(5) 0.27531(15)
C15 C 0.1184(2) 0.7142(5) 0.27345(16)
H6 H 0.09230 0.72520 0.30430
C16 C 0.0851(2) 0.6705(5) 0.22700(16)
C17 C 0.0151(2) 0.6254(5) 0.22706(17)
H7 H -0.01020 0.63460 0.25840
C18 C 0.2235(2) 0.7738(5) 0.32303(15)
H8 H 0.19850 0.77930 0.35450
C19 C 0.2922(2) 0.7965(5) 0.32387(15)
H9 H 0.31470 0.81800 0.35590
C20 C 0.3304(2) 0.7883(5) 0.27760(14)
H10 H 0.37850 0.80390 0.27890
C21 C 0.2990(2) 0.7580(4) 0.23006(15)
C22 C 0.3380(2) 0.7442(5) 0.18353(14)
H11 H 0.38650 0.74640 0.18580
C23 C 0.2066(2) 0.8000(5) 0.08679(15)
H12 H 0.15840 0.81430 0.08470
C24 C 0.2479(2) 0.8431(5) 0.04229(14)
C25 C 0.31883(19) 0.8064(5) 0.04328(14)
C26 C 0.5159(2) 0.5165(5) 0.12027(15)
H13 H 0.53520 0.44220 0.14590
C27 C 0.4488(2) 0.5623(5) 0.12328(14)
H14 H 0.42200 0.51940 0.15120
C28 C 0.4289(2) 0.8100(5) -0.00046(15)
H15 H 0.45690 0.84690 -0.02850
C29 C 0.3595(2) 0.8453(5) -0.00138(14)
C30 C 0.3271(2) 0.9253(5) -0.04499(14)
H16 H 0.35350 0.95530 -0.07460
C31 C 0.2589(2) 0.9589(5) -0.04452(15)
H17 H 0.23780 1.01110 -0.07390
C32 C 0.2197(2) 0.9170(5) -0.00109(14)
H18 H 0.17200 0.94040 -0.00160
loop_
_geom_bond_atom_site_label_1
_geom_bond_atom_site_label_2
_geom_bond_distance
_geom_bond_site_symmetry_1
_geom_bond_site_symmetry_2
C1 H1 0.949 1_555 1_555
C2 C1 1.408 1_555 1_555
H2 C2 0.950 1_555 1_555
C3 C2 1.359 1_555 1_555
H3 C3 0.950 1_555 1_555
C4 C3 1.438 1_555 1_555
C5 C4 1.426 1_555 1_555
C6 C5 1.486 1_555 1_555
C7 C6 1.450 1_555 1_555
C8 C7 1.473 1_555 1_555
C9 C8 1.420 1_555 1_555
C10 C9 1.437 1_555 1_555
C11 C10 1.423 1_555 1_555
H4 C11 0.949 1_555 1_555
C12 C11 1.355 1_555 1_555
H5 C12 0.950 1_555 1_555
C13 C5 1.417 1_555 1_555
C14 C13 1.431 1_555 1_555
C15 C14 1.379 1_555 1_555
H6 C15 0.949 1_555 1_555
C16 C4 1.433 1_555 1_555
C17 C1 1.352 1_555 1_555
H7 C17 0.951 1_555 1_555
C18 C14 1.435 1_555 1_555
H8 C18 0.949 1_555 1_555
C19 C18 1.355 1_555 1_555
H9 C19 0.951 1_555 1_555
C20 C19 1.410 1_555 1_555
H10 C20 0.949 1_555 1_555
C21 C13 1.434 1_555 1_555
C22 C7 1.369 1_555 1_555
H11 C22 0.951 1_555 1_555
C23 C6 1.365 1_555 1_555
H12 C23 0.951 1_555 1_555
C24 C23 1.442 1_555 1_555
C25 C8 1.407 1_555 1_555
C26 C12 1.409 1_555 1_555
H13 C26 0.950 1_555 1_555
C27 C9 1.432 1_555 1_555
H14 C27 0.949 1_555 1_555
C28 C10 1.398 1_555 1_555
H15 C28 0.950 1_555 1_555
C29 C25 1.431 1_555 1_555
C30 C29 1.429 1_555 1_555
H16 C30 0.950 1_555 1_555
C31 C30 1.359 1_555 1_555
H17 C31 0.951 1_555 1_555
C32 C24 1.370 1_555 1_555
H18 C32 0.950 1_555 1_555
C15 C16 1.404 1_555 1_555
C16 C17 1.412 1_555 1_555
C20 C21 1.391 1_555 1_555
C21 C22 1.426 1_555 1_555
C24 C25 1.416 1_555 1_555
C26 C27 1.361 1_555 1_555
C28 C29 1.385 1_555 1_555
C31 C32 1.395 1_555 1_555
#END
