
#######################################################################
#
#                 Cambridge Crystallographic Data Centre
#                                CCDC
#
#######################################################################
#
# If this CIF has been generated from an entry in the Cambridge
# Structural Database, then it will include bibliographic, chemical,
# crystal, experimental, refinement or atomic coordinate data resulting
# from the CCDC's data processing and validation procedures.
#
#######################################################################

data_CSD_CIF_RUNGOX
_audit_creation_date 2010-03-19
_audit_creation_method CSD-ConQuest-V1
_database_code_CSD RUNGOX
_database_code_depnum_ccdc_archive 'CCDC 704959'
_chemical_formula_sum 'C42 H36'
_chemical_formula_moiety
;
C42 H36
;
_journal_coden_Cambridge 24
_journal_volume 50
_journal_year 2009
_journal_page_first 3693
_journal_name_full 'Tetrahedron Lett. '
loop_
_publ_author_name
"T.Takeda"
"H.Kawai"
"R.Herges"
"E.Mucke"
"Y.Sawai"
"K.Murakoshi"
"K.Fujiwara"
"T.Suzuki"
_chemical_name_systematic
;
1,1,2,2-tetrakis(4-methylphenyl)-1,2,5,6-tetrahydrocyclopenta[fg]acenaphthylen
e
;
_chemical_name_common
;
1,1,2,2-tetrakis(4-methylphenyl)pyracene
;
_chemical_melting_point 543.15
_cell_volume   1474.916
_exptl_crystal_colour 'colorless'
_exptl_crystal_density_diffrn 1.218
_exptl_special_details
;
Melts with decomposition.

;
_exptl_crystal_description 'platelet'
_exptl_crystal_preparation 'dichloromethane/hexane'
_diffrn_ambient_temperature 123.1
#These two values have been output from a single CSD field.
_refine_ls_R_factor_gt 0.0953
_refine_ls_wR_factor_gt 0.0953
_symmetry_cell_setting triclinic
_symmetry_space_group_name_H-M 'P -1'
_symmetry_Int_Tables_number 2
loop_
_symmetry_equiv_pos_site_id
_symmetry_equiv_pos_as_xyz
1 x,y,z
2 -x,-y,-z
_cell_length_a 9.155(3)
_cell_length_b 12.079(3)
_cell_length_c 14.414(4)
_cell_angle_alpha 73.416(13)
_cell_angle_beta 84.957(18)
_cell_angle_gamma 74.926(15)
_cell_formula_units_Z 2
loop_
_atom_type_symbol
_atom_type_radius_bond
C 0.68
H 0.23
loop_
_atom_site_label
_atom_site_type_symbol
_atom_site_fract_x
_atom_site_fract_y
_atom_site_fract_z
C1 C 0.6185(3) 0.3257(2) 0.2619(2)
C2 C 0.4633(3) 0.3371(2) 0.2707(2)
C3 C 0.3619(4) 0.4376(3) 0.2090(2)
C4 C 0.4130(3) 0.5231(2) 0.1414(2)
C5 C 0.5688(3) 0.5127(2) 0.1350(2)
C6 C 0.6191(4) 0.6014(2) 0.0637(2)
C7 C 0.7722(4) 0.5911(2) 0.0555(2)
C8 C 0.8746(3) 0.4936(2) 0.1187(2)
C9 C 0.8235(3) 0.4069(2) 0.1886(2)
C10 C 0.6677(3) 0.4169(2) 0.1945(2)
C11 C 0.3439(4) 0.6349(3) 0.0624(2)
C12 C 0.4794(4) 0.6860(3) 0.0114(2)
C13 C 0.7554(3) 0.2312(2) 0.3140(2)
C14 C 0.7328(3) 0.2252(2) 0.4226(2)
C15 C 0.7281(4) 0.1214(3) 0.4944(2)
C16 C 0.6983(4) 0.1228(3) 0.5904(2)
C17 C 0.6746(4) 0.2264(3) 0.6191(2)
C18 C 0.6798(3) 0.3299(3) 0.5469(2)
C19 C 0.7055(3) 0.3308(2) 0.4507(2)
C20 C 0.6408(4) 0.2282(4) 0.7235(2)
C21 C 0.7715(3) 0.1082(2) 0.2984(2)
C22 C 0.6615(3) 0.0810(2) 0.2536(2)
C23 C 0.6843(4) -0.0284(3) 0.2339(2)
C24 C 0.8182(4) -0.1150(2) 0.2559(2)
C25 C 0.9264(4) -0.0900(2) 0.3042(2)
C26 C 0.9019(4) 0.0176(2) 0.3255(2)
C27 C 0.8496(5) -0.2301(3) 0.2271(3)
C28 C 0.9032(3) 0.2911(2) 0.2611(2)
C29 C 0.9949(3) 0.3110(2) 0.3355(2)
C30 C 1.0012(3) 0.4241(2) 0.3370(2)
C31 C 1.0905(3) 0.4409(3) 0.4032(2)
C32 C 1.1788(3) 0.3443(2) 0.4691(2)
C33 C 1.1693(3) 0.2309(3) 0.4696(2)
C34 C 1.0793(3) 0.2146(2) 0.4057(2)
C35 C 1.2832(4) 0.3586(3) 0.5357(2)
C36 C 1.0062(3) 0.2180(2) 0.1977(2)
C37 C 1.1641(3) 0.1823(2) 0.2046(2)
C38 C 1.2504(3) 0.1196(2) 0.1442(2)
C39 C 1.1868(4) 0.0900(3) 0.0735(2)
C40 C 1.0303(3) 0.1303(2) 0.0631(2)
C41 C 0.9437(3) 0.1935(2) 0.1227(2)
C42 C 1.2822(4) 0.0200(3) 0.0108(3)
H1 H 0.42520 0.27880 0.31860
H2 H 0.25610 0.44360 0.21560
H3 H 0.81000 0.64990 0.00800
H4 H 0.98020 0.48820 0.11190
H5 H 0.29050 0.61580 0.01790
H6 H 0.27660 0.69080 0.09090
H7 H 0.46930 0.76420 0.01680
H8 H 0.48510 0.68750 -0.05510
H9 H 0.74460 0.04860 0.47740
H10 H 0.69570 0.05070 0.63850
H11 H 0.66470 0.40220 0.56430
H12 H 0.70470 0.40360 0.40260
H13 H 0.67730 0.28920 0.73600
H14 H 0.53460 0.24290 0.73510
H15 H 0.68930 0.15320 0.76490
H16 H 0.56880 0.13910 0.23630
H17 H 0.60590 -0.04410 0.20440
H18 H 1.01820 -0.14890 0.32240
H19 H 0.97680 0.03080 0.35990
H20 H 0.81460 -0.28870 0.27670
H21 H 0.95540 -0.25740 0.21750
H22 H 0.79860 -0.21630 0.16870
H23 H 0.94400 0.49160 0.29140
H24 H 1.09130 0.51940 0.40290
H25 H 1.22730 0.16360 0.51490
H26 H 1.07510 0.13590 0.40860
H27 H 1.31240 0.28700 0.58610
H28 H 1.37030 0.37640 0.49990
H29 H 1.23420 0.42200 0.56280
H30 H 1.21160 0.20160 0.25180
H31 H 1.35720 0.09580 0.15080
H32 H 0.98330 0.11430 0.01380
H33 H 0.83760 0.22130 0.11340
H34 H 1.31290 0.07260 -0.04560
H35 H 1.22590 -0.02620 -0.00740
H36 H 1.36900 -0.03140 0.04550
loop_
_geom_bond_atom_site_label_1
_geom_bond_atom_site_label_2
_geom_bond_distance
_geom_bond_site_symmetry_1
_geom_bond_site_symmetry_2
C1 C2 1.389 1_555 1_555
C2 C3 1.438 1_555 1_555
C3 C4 1.353 1_555 1_555
C4 C5 1.396 1_555 1_555
C5 C6 1.400 1_555 1_555
C6 C7 1.372 1_555 1_555
C7 C8 1.435 1_555 1_555
C8 C9 1.379 1_555 1_555
C9 C10 1.397 1_555 1_555
C10 C1 1.389 1_555 1_555
C11 C4 1.525 1_555 1_555
C12 C6 1.516 1_555 1_555
C13 C1 1.539 1_555 1_555
C14 C13 1.544 1_555 1_555
C15 C14 1.387 1_555 1_555
C16 C15 1.391 1_555 1_555
C17 C16 1.387 1_555 1_555
C18 C17 1.388 1_555 1_555
C19 C14 1.402 1_555 1_555
C20 C17 1.515 1_555 1_555
C21 C13 1.533 1_555 1_555
C22 C21 1.395 1_555 1_555
C23 C22 1.390 1_555 1_555
C24 C23 1.382 1_555 1_555
C25 C24 1.398 1_555 1_555
C26 C21 1.391 1_555 1_555
C27 C24 1.513 1_555 1_555
C28 C9 1.533 1_555 1_555
C29 C28 1.524 1_555 1_555
C30 C29 1.389 1_555 1_555
C31 C30 1.398 1_555 1_555
C32 C31 1.389 1_555 1_555
C33 C32 1.393 1_555 1_555
C34 C29 1.405 1_555 1_555
C35 C32 1.486 1_555 1_555
C36 C28 1.543 1_555 1_555
C37 C36 1.401 1_555 1_555
C38 C37 1.378 1_555 1_555
C39 C38 1.388 1_555 1_555
C40 C39 1.395 1_555 1_555
C41 C36 1.401 1_555 1_555
C42 C39 1.486 1_555 1_555
H1 C2 0.950 1_555 1_555
H2 C3 0.951 1_555 1_555
H3 C7 0.950 1_555 1_555
H4 C8 0.950 1_555 1_555
H5 C11 0.950 1_555 1_555
H6 C11 0.950 1_555 1_555
H7 C12 0.950 1_555 1_555
H8 C12 0.951 1_555 1_555
H9 C15 0.951 1_555 1_555
H10 C16 0.950 1_555 1_555
H11 C18 0.949 1_555 1_555
H12 C19 0.951 1_555 1_555
H13 C20 0.949 1_555 1_555
H14 C20 0.950 1_555 1_555
H15 C20 0.950 1_555 1_555
H16 C22 0.950 1_555 1_555
H17 C23 0.950 1_555 1_555
H18 C25 0.950 1_555 1_555
H19 C26 0.950 1_555 1_555
H20 C27 0.951 1_555 1_555
H21 C27 0.950 1_555 1_555
H22 C27 0.950 1_555 1_555
H23 C30 0.951 1_555 1_555
H24 C31 0.949 1_555 1_555
H25 C33 0.950 1_555 1_555
H26 C34 0.950 1_555 1_555
H27 C35 0.950 1_555 1_555
H28 C35 0.950 1_555 1_555
H29 C35 0.950 1_555 1_555
H30 C37 0.950 1_555 1_555
H31 C38 0.950 1_555 1_555
H32 C40 0.950 1_555 1_555
H33 C41 0.950 1_555 1_555
H34 C42 0.949 1_555 1_555
H35 C42 0.950 1_555 1_555
H36 C42 0.950 1_555 1_555
C5 C10 1.385 1_555 1_555
C11 C12 1.562 1_555 1_555
C13 C28 1.717 1_555 1_555
C18 C19 1.383 1_555 1_555
C25 C26 1.378 1_555 1_555
C33 C34 1.374 1_555 1_555
C40 C41 1.374 1_555 1_555
#END
