
#######################################################################
#
#                 Cambridge Crystallographic Data Centre
#                                CCDC
#
#######################################################################
#
# If this CIF has been generated from an entry in the Cambridge
# Structural Database, then it will include bibliographic, chemical,
# crystal, experimental, refinement or atomic coordinate data resulting
# from the CCDC's data processing and validation procedures.
#
#######################################################################

data_CSD_CIF_RUNHUE
_audit_creation_date 2010-03-19
_audit_creation_method CSD-ConQuest-V1
_database_code_CSD RUNHUE
_database_code_depnum_ccdc_archive 'CCDC 715129'
_chemical_formula_sum 'C46 H44'
_chemical_formula_moiety
;
C46 H44
;
_journal_coden_Cambridge 24
_journal_volume 50
_journal_year 2009
_journal_page_first 3693
_journal_name_full 'Tetrahedron Lett. '
loop_
_publ_author_name
"T.Takeda"
"H.Kawai"
"R.Herges"
"E.Mucke"
"Y.Sawai"
"K.Murakoshi"
"K.Fujiwara"
"T.Suzuki"
_chemical_name_systematic
;
1,1,2,2-tetrakis(3,5-dimethylphenyl)-1,2,5,6-tetrahydrocyclopenta[fg]acenaphth
ylene
;
_chemical_name_common
;
1,1,2,2-tetrakis(3,5-dimethylphenyl)pyracene
;
_chemical_melting_point 545.15
_cell_volume   1725.398
_exptl_crystal_colour 'colorless'
_exptl_crystal_density_diffrn 1.149
_exptl_special_details
;
Melting point range 545.15-546.15K

;
_exptl_crystal_description 'block'
_exptl_crystal_preparation 'dichloromethane/hexane'
_diffrn_ambient_temperature 153.1
#These two values have been output from a single CSD field.
_refine_ls_R_factor_gt 0.0654
_refine_ls_wR_factor_gt 0.0654
_symmetry_cell_setting triclinic
_symmetry_space_group_name_H-M 'P -1'
_symmetry_Int_Tables_number 2
loop_
_symmetry_equiv_pos_site_id
_symmetry_equiv_pos_as_xyz
1 x,y,z
2 -x,-y,-z
_cell_length_a 10.4116(18)
_cell_length_b 11.278(2)
_cell_length_c 15.559(3)
_cell_angle_alpha 86.359(9)
_cell_angle_beta 82.619(8)
_cell_angle_gamma 72.291(5)
_cell_formula_units_Z 2
loop_
_atom_type_symbol
_atom_type_radius_bond
C 0.68
H 0.23
loop_
_atom_site_label
_atom_site_type_symbol
_atom_site_fract_x
_atom_site_fract_y
_atom_site_fract_z
C1 C 0.90414(16) 0.32143(14) 0.11535(10)
C2 C 0.99623(18) 0.35230(17) 0.05255(12)
C3 C 1.02708(18) 0.29737(18) -0.03096(12)
C4 C 0.96538(18) 0.21285(17) -0.05111(11)
C5 C 0.87212(17) 0.18337(16) 0.01217(11)
C6 C 0.81112(18) 0.09662(17) -0.00951(11)
C7 C 0.72082(18) 0.06363(17) 0.05256(12)
C8 C 0.68760(18) 0.12048(16) 0.13568(11)
C9 C 0.74592(16) 0.20901(14) 0.15509(10)
C10 C 0.84108(16) 0.23741(14) 0.09325(10)
C11 C 0.9689(2) 0.1384(2) -0.13027(12)
C12 C 0.8678(2) 0.0612(2) -0.10256(12)
C13 C 0.84865(16) 0.36574(14) 0.20801(10)
C14 C 0.95848(17) 0.33184(14) 0.27028(11)
C15 C 0.92468(19) 0.35700(16) 0.35855(12)
C16 C 1.0225(2) 0.32391(18) 0.41657(12)
C17 C 1.1551(2) 0.26250(19) 0.38547(13)
C18 C 1.19256(19) 0.23291(19) 0.29922(13)
C19 C 1.09296(18) 0.26926(17) 0.24204(12)
C20 C 0.9823(2) 0.3518(2) 0.51132(12)
C21 C 1.3360(2) 0.1600(2) 0.26646(17)
C22 C 0.77935(17) 0.50750(14) 0.20125(11)
C23 C 0.69248(18) 0.55350(16) 0.13699(11)
C24 C 0.62134(19) 0.67807(17) 0.12931(12)
C25 C 0.6387(2) 0.76098(17) 0.18616(12)
C26 C 0.72775(19) 0.72103(17) 0.24842(12)
C27 C 0.79774(18) 0.59402(16) 0.25487(11)
C28 C 0.5253(2) 0.7228(2) 0.06127(16)
C29 C 0.7483(2) 0.81149(19) 0.30866(13)
C30 C 0.73037(16) 0.28481(14) 0.23638(10)
C31 C 0.76789(16) 0.18864(14) 0.3108(1)
C32 C 0.89622(16) 0.09952(14) 0.30110(11)
C33 C 0.93948(18) 0.00971(14) 0.36522(11)
C34 C 0.85042(19) 0.00465(17) 0.43875(11)
C35 C 0.71955(19) 0.08660(18) 0.44847(11)
C36 C 0.68008(17) 0.17895(17) 0.38421(11)
C37 C 1.0801(2) -0.08094(18) 0.35315(12)
C38 C 0.6222(2) 0.0749(2) 0.52638(13)
C39 C 0.58777(16) 0.37611(14) 0.25385(11)
C40 C 0.49078(17) 0.39340(16) 0.19683(11)
C41 C 0.36287(18) 0.48179(18) 0.21075(12)
C42 C 0.3332(2) 0.5527(2) 0.28375(14)
C43 C 0.4274(2) 0.5397(2) 0.34191(13)
C44 C 0.55354(18) 0.45096(17) 0.32622(12)
C45 C 0.2612(2) 0.4990(2) 0.14666(14)
C46 C 0.3951(2) 0.6176(3) 0.4214(2)
H1 H 1.03940 0.41120 0.06520
H2 H 1.09090 0.31960 -0.07310
H3 H 0.68020 0.00270 0.04020
H4 H 0.62510 0.09680 0.17810
H5 H 0.94070 0.19280 -0.17800
H6 H 1.05790 0.08480 -0.14550
H7 H 0.91390 -0.02550 -0.10540
H8 H 0.79690 0.08200 -0.13880
H9 H 0.83300 0.39800 0.37960
H10 H 1.22230 0.24000 0.42450
H11 H 1.11820 0.25130 0.18230
H12 H 0.68230 0.49700 0.09750
H13 H 0.58910 0.84670 0.18220
H14 H 0.85980 0.56600 0.29690
H15 H 0.95480 0.10040 0.24910
H16 H 0.87920 -0.05570 0.48330
H17 H 0.59140 0.23640 0.39110
H18 H 0.51220 0.34350 0.14700
H19 H 0.24640 0.61230 0.29450
H20 H 0.61850 0.44150 0.36580
H21 H 0.96270 0.28440 0.54240
H22 H 1.05820 0.36560 0.53810
H23 H 0.90430 0.42760 0.52280
H24 H 1.35400 0.18190 0.20710
H25 H 1.39820 0.17890 0.29890
H26 H 1.34570 0.07340 0.27200
H27 H 1.11530 -0.10980 0.41140
H28 H 1.08020 -0.15570 0.32280
H29 H 1.14100 -0.04270 0.31730
H30 H 0.53620 0.13410 0.52100
H31 H 0.61300 -0.00660 0.53020
H32 H 0.65560 0.09030 0.57720
H33 H 0.27700 0.42590 0.11050
H34 H 0.16560 0.52350 0.17300
H35 H 0.26190 0.56490 0.10580
H36 H 0.32210 0.69090 0.41410
H37 H 0.37020 0.56980 0.46960
H38 H 0.47280 0.63980 0.43150
H39 H 0.72780 0.78640 0.36690
H40 H 0.84000 0.81250 0.29950
H41 H 0.68990 0.89250 0.29770
H42 H 0.52000 0.65330 0.03200
H43 H 0.43770 0.76650 0.08800
H44 H 0.55790 0.77660 0.02080
loop_
_geom_bond_atom_site_label_1
_geom_bond_atom_site_label_2
_geom_bond_distance
_geom_bond_site_symmetry_1
_geom_bond_site_symmetry_2
C1 C2 1.384 1_555 1_555
C2 C3 1.431 1_555 1_555
C3 C4 1.372 1_555 1_555
C4 C5 1.390 1_555 1_555
C5 C6 1.396 1_555 1_555
C6 C7 1.374 1_555 1_555
C7 C8 1.435 1_555 1_555
C8 C9 1.382 1_555 1_555
C9 C10 1.385 1_555 1_555
C10 C1 1.387 1_555 1_555
C11 C4 1.525 1_555 1_555
C12 C6 1.521 1_555 1_555
C13 C1 1.537 1_555 1_555
C14 C13 1.538 1_555 1_555
C15 C14 1.398 1_555 1_555
C16 C15 1.398 1_555 1_555
C17 C16 1.382 1_555 1_555
C18 C17 1.381 1_555 1_555
C19 C14 1.390 1_555 1_555
C20 C16 1.506 1_555 1_555
C21 C18 1.509 1_555 1_555
C22 C13 1.544 1_555 1_555
C23 C22 1.403 1_555 1_555
C24 C23 1.380 1_555 1_555
C25 C24 1.392 1_555 1_555
C26 C25 1.386 1_555 1_555
C27 C22 1.394 1_555 1_555
C28 C24 1.507 1_555 1_555
C29 C26 1.507 1_555 1_555
C30 C9 1.535 1_555 1_555
C31 C30 1.539 1_555 1_555
C32 C31 1.403 1_555 1_555
C33 C32 1.391 1_555 1_555
C34 C33 1.387 1_555 1_555
C35 C34 1.390 1_555 1_555
C36 C31 1.389 1_555 1_555
C37 C33 1.506 1_555 1_555
C38 C35 1.503 1_555 1_555
C39 C30 1.530 1_555 1_555
C40 C39 1.390 1_555 1_555
C41 C40 1.400 1_555 1_555
C42 C41 1.378 1_555 1_555
C43 C42 1.388 1_555 1_555
C44 C39 1.394 1_555 1_555
C45 C41 1.508 1_555 1_555
C46 C43 1.505 1_555 1_555
H1 C2 0.950 1_555 1_555
H2 C3 0.950 1_555 1_555
H3 C7 0.950 1_555 1_555
H4 C8 0.950 1_555 1_555
H5 C11 0.950 1_555 1_555
H6 C11 0.949 1_555 1_555
H7 C12 0.950 1_555 1_555
H8 C12 0.950 1_555 1_555
H9 C15 0.950 1_555 1_555
H10 C17 0.951 1_555 1_555
H11 C19 0.950 1_555 1_555
H12 C23 0.950 1_555 1_555
H13 C25 0.950 1_555 1_555
H14 C27 0.950 1_555 1_555
H15 C32 0.950 1_555 1_555
H16 C34 0.950 1_555 1_555
H17 C36 0.950 1_555 1_555
H18 C40 0.950 1_555 1_555
H19 C42 0.950 1_555 1_555
H20 C44 0.950 1_555 1_555
H21 C20 0.936 1_555 1_555
H22 C20 0.995 1_555 1_555
H23 C20 0.991 1_555 1_555
H24 C21 0.951 1_555 1_555
H25 C21 0.949 1_555 1_555
H26 C21 0.950 1_555 1_555
H27 C37 1.018 1_555 1_555
H28 C37 0.992 1_555 1_555
H29 C37 0.972 1_555 1_555
H30 C38 0.950 1_555 1_555
H31 C38 0.950 1_555 1_555
H32 C38 0.949 1_555 1_555
H33 C45 0.988 1_555 1_555
H34 C45 0.989 1_555 1_555
H35 C45 0.948 1_555 1_555
H36 C46 0.950 1_555 1_555
H37 C46 0.951 1_555 1_555
H38 C46 0.950 1_555 1_555
H39 C29 0.949 1_555 1_555
H40 C29 0.950 1_555 1_555
H41 C29 0.950 1_555 1_555
H42 C28 0.950 1_555 1_555
H43 C28 0.950 1_555 1_555
H44 C28 0.950 1_555 1_555
C5 C10 1.393 1_555 1_555
C11 C12 1.564 1_555 1_555
C13 C30 1.743 1_555 1_555
C18 C19 1.403 1_555 1_555
C26 C27 1.399 1_555 1_555
C35 C36 1.402 1_555 1_555
C43 C44 1.391 1_555 1_555
#END
