
#######################################################################
#
#                 Cambridge Crystallographic Data Centre
#                                CCDC
#
#######################################################################
#
# If this CIF has been generated from an entry in the Cambridge
# Structural Database, then it will include bibliographic, chemical,
# crystal, experimental, refinement or atomic coordinate data resulting
# from the CCDC's data processing and validation procedures.
#
#######################################################################

data_CSD_CIF_RUNHIS
_audit_creation_date 2010-03-19
_audit_creation_method CSD-ConQuest-V1
_database_code_CSD RUNHIS
_database_code_depnum_ccdc_archive 'CCDC 704963'
_chemical_formula_sum 'C40 H34'
_chemical_formula_moiety
;
C40 H34
;
_journal_coden_Cambridge 24
_journal_volume 50
_journal_year 2009
_journal_page_first 3693
_journal_name_full 'Tetrahedron Lett. '
loop_
_publ_author_name
"T.Takeda"
"H.Kawai"
"R.Herges"
"E.Mucke"
"Y.Sawai"
"K.Murakoshi"
"K.Fujiwara"
"T.Suzuki"
_chemical_name_systematic
;
1,1,2,2-tetrakis(4-methylphenyl)acenaphthylene
;
_chemical_melting_point 464.15
_cell_volume   1440.737
_exptl_crystal_colour 'colorless'
_exptl_special_details
;
Melting point range 464.15-465.15K

;
_exptl_crystal_description 'block'
_exptl_crystal_preparation 'dichloromethane/methanol'
_diffrn_ambient_temperature 123.1
#These two values have been output from a single CSD field.
_refine_ls_R_factor_gt 0.0592
_refine_ls_wR_factor_gt 0.0592
_symmetry_cell_setting triclinic
_symmetry_space_group_name_H-M 'P -1'
_symmetry_Int_Tables_number 2
loop_
_symmetry_equiv_pos_site_id
_symmetry_equiv_pos_as_xyz
1 x,y,z
2 -x,-y,-z
_cell_length_a 9.2341(14)
_cell_length_b 12.1584(11)
_cell_length_c 14.746(2)
_cell_angle_alpha 71.019(11)
_cell_angle_beta 85.892(14)
_cell_angle_gamma 67.23(1)
_cell_formula_units_Z 2
loop_
_atom_type_symbol
_atom_type_radius_bond
C 0.68
H 0.23
loop_
_atom_site_label
_atom_site_type_symbol
_atom_site_fract_x
_atom_site_fract_y
_atom_site_fract_z
C1 C 0.9021(2) 0.12061(19) 0.26240(13)
C2 C 1.0592(2) 0.0985(2) 0.25434(16)
C3 C 1.1716(2) -0.0116(2) 0.31870(17)
C4 C 1.1272(2) -0.0973(2) 0.38843(16)
C5 C 0.9669(2) -0.0801(2) 0.39713(14)
C6 C 0.9020(2) -0.1593(2) 0.46458(16)
C7 C 0.7427(2) -0.1280(2) 0.46459(16)
C8 C 0.6371(2) -0.0178(2) 0.39735(14)
C9 C 0.6955(2) 0.06077(19) 0.32965(14)
C10 C 0.8584(2) 0.0301(2) 0.33133(13)
C11 C 0.7572(2) 0.23197(19) 0.20553(13)
C12 C 0.7381(2) 0.35596(19) 0.22137(13)
C13 C 0.6071(2) 0.4665(2) 0.18187(14)
C14 C 0.5801(2) 0.5765(2) 0.20133(14)
C15 C 0.6846(2) 0.5813(2) 0.26161(16)
C16 C 0.8176(2) 0.4738(2) 0.29878(16)
C17 C 0.8451(2) 0.3629(2) 0.27927(14)
C18 C 0.6523(3) 0.7002(2) 0.28591(19)
C19 C 0.7778(2) 0.24109(19) 0.09897(13)
C20 C 0.7796(2) 0.3482(2) 0.02659(14)
C21 C 0.8048(2) 0.3491(2) -0.06751(14)
C22 C 0.8292(2) 0.2440(2) -0.09373(14)
C23 C 0.8288(2) 0.1369(2) -0.02181(14)
C24 C 0.8058(2) 0.13455(19) 0.07252(14)
C25 C 0.8627(3) 0.2429(2) -0.19521(16)
C26 C 0.6083(2) 0.18726(19) 0.25299(13)
C27 C 0.4988(2) 0.27335(19) 0.30776(14)
C28 C 0.3381(2) 0.3405(2) 0.28490(16)
C29 C 0.2481(2) 0.4217(2) 0.33445(16)
C30 C 0.3121(2) 0.4376(2) 0.40827(14)
C31 C 0.4710(2) 0.3646(2) 0.43497(16)
C32 C 0.5614(2) 0.2837(2) 0.38699(14)
C33 C 0.2135(3) 0.5296(2) 0.45817(19)
C34 C 0.5141(2) 0.17711(19) 0.17708(14)
C35 C 0.4333(2) 0.2833(2) 0.09914(14)
C36 C 0.3421(2) 0.2786(2) 0.03117(14)
C37 C 0.3292(2) 0.1668(2) 0.03630(14)
C38 C 0.4128(2) 0.0600(2) 0.11172(16)
C39 C 0.5020(2) 0.0652(2) 0.18077(14)
C40 C 0.2259(2) 0.1641(2) -0.03621(17)
H1 H 1.09190 0.15640 0.20600
H2 H 1.28020 -0.02630 0.31350
H3 H 1.20500 -0.16940 0.43130
H4 H 0.97020 -0.23520 0.50990
H5 H 0.70180 -0.18150 0.51140
H6 H 0.52700 0.00210 0.39820
H7 H 0.53360 0.46570 0.14040
H8 H 0.48900 0.64970 0.17310
H9 H 0.89260 0.47540 0.33870
H10 H 0.93780 0.29030 0.30580
H11 H 0.76290 0.42190 0.04220
H12 H 0.80500 0.42360 -0.11530
H13 H 0.84530 0.06350 -0.03770
H14 H 0.80800 0.05930 0.12030
H15 H 0.28970 0.33010 0.23530
H16 H 0.13900 0.46770 0.31660
H17 H 0.51760 0.37060 0.48760
H18 H 0.66870 0.23330 0.40790
H19 H 0.44150 0.36100 0.09270
H20 H 0.28680 0.35320 -0.01990
H21 H 0.40780 -0.01810 0.11590
H22 H 0.55710 -0.00950 0.23170
H23 H 0.61190 0.69140 0.34780
H24 H 0.74720 0.71340 0.28570
H25 H 0.57740 0.77020 0.23970
H26 H 0.96650 0.23960 -0.20760
H27 H 0.85360 0.17100 -0.20260
H28 H 0.78950 0.31720 -0.23920
H29 H 0.27600 0.52640 0.50810
H30 H 0.17440 0.61250 0.41330
H31 H 0.12770 0.50770 0.48470
H32 H 0.20430 0.23700 -0.09120
H33 H 0.27780 0.09080 -0.05440
H34 H 0.12990 0.16280 -0.00890
loop_
_geom_bond_atom_site_label_1
_geom_bond_atom_site_label_2
_geom_bond_distance
_geom_bond_site_symmetry_1
_geom_bond_site_symmetry_2
C1 C2 1.373 1_555 1_555
C2 C3 1.417 1_555 1_555
C3 C4 1.373 1_555 1_555
C4 C5 1.415 1_555 1_555
C5 C6 1.419 1_555 1_555
C6 C7 1.369 1_555 1_555
C7 C8 1.411 1_555 1_555
C8 C9 1.379 1_555 1_555
C9 C10 1.403 1_555 1_555
C10 C1 1.402 1_555 1_555
C11 C1 1.532 1_555 1_555
C12 C11 1.541 1_555 1_555
C13 C12 1.394 1_555 1_555
C14 C13 1.384 1_555 1_555
C15 C14 1.387 1_555 1_555
C16 C15 1.380 1_555 1_555
C17 C12 1.394 1_555 1_555
C18 C15 1.515 1_555 1_555
C19 C11 1.542 1_555 1_555
C20 C19 1.395 1_555 1_555
C21 C20 1.388 1_555 1_555
C22 C21 1.385 1_555 1_555
C23 C22 1.388 1_555 1_555
C24 C19 1.397 1_555 1_555
C25 C22 1.510 1_555 1_555
C26 C9 1.527 1_555 1_555
C27 C26 1.544 1_555 1_555
C28 C27 1.392 1_555 1_555
C29 C28 1.395 1_555 1_555
C30 C29 1.374 1_555 1_555
C31 C30 1.394 1_555 1_555
C32 C27 1.401 1_555 1_555
C33 C30 1.508 1_555 1_555
C34 C26 1.529 1_555 1_555
C35 C34 1.399 1_555 1_555
C36 C35 1.383 1_555 1_555
C37 C36 1.387 1_555 1_555
C38 C37 1.388 1_555 1_555
C39 C34 1.391 1_555 1_555
C40 C37 1.499 1_555 1_555
H1 C2 0.950 1_555 1_555
H2 C3 0.950 1_555 1_555
H3 C4 0.949 1_555 1_555
H4 C6 0.951 1_555 1_555
H5 C7 0.950 1_555 1_555
H6 C8 0.950 1_555 1_555
H7 C13 0.950 1_555 1_555
H8 C14 0.950 1_555 1_555
H9 C16 0.950 1_555 1_555
H10 C17 0.950 1_555 1_555
H11 C20 0.950 1_555 1_555
H12 C21 0.950 1_555 1_555
H13 C23 0.949 1_555 1_555
H14 C24 0.950 1_555 1_555
H15 C28 0.949 1_555 1_555
H16 C29 0.950 1_555 1_555
H17 C31 0.950 1_555 1_555
H18 C32 0.950 1_555 1_555
H19 C35 0.950 1_555 1_555
H20 C36 0.950 1_555 1_555
H21 C38 0.950 1_555 1_555
H22 C39 0.949 1_555 1_555
H23 C18 0.950 1_555 1_555
H24 C18 0.950 1_555 1_555
H25 C18 0.950 1_555 1_555
H26 C25 0.951 1_555 1_555
H27 C25 0.950 1_555 1_555
H28 C25 0.950 1_555 1_555
H29 C33 0.949 1_555 1_555
H30 C33 0.950 1_555 1_555
H31 C33 0.950 1_555 1_555
H32 C40 0.950 1_555 1_555
H33 C40 0.950 1_555 1_555
H34 C40 0.951 1_555 1_555
C5 C10 1.412 1_555 1_555
C11 C26 1.694 1_555 1_555
C16 C17 1.394 1_555 1_555
C23 C24 1.385 1_555 1_555
C31 C32 1.377 1_555 1_555
C38 C39 1.386 1_555 1_555
#END
