
#######################################################################
#
#                 Cambridge Crystallographic Data Centre
#                                CCDC
#
#######################################################################
#
# If this CIF has been generated from an entry in the Cambridge
# Structural Database, then it will include bibliographic, chemical,
# crystal, experimental, refinement or atomic coordinate data resulting
# from the CCDC's data processing and validation procedures.
#
#######################################################################

data_CSD_CIF_RUNJAM
_audit_creation_date 2010-03-19
_audit_creation_method CSD-ConQuest-V1
_database_code_CSD RUNJAM
_database_code_depnum_ccdc_archive 'CCDC 715130'
_chemical_formula_sum 'C44 H42'
_chemical_formula_moiety
;
C44 H42
;
_journal_coden_Cambridge 24
_journal_volume 50
_journal_year 2009
_journal_page_first 3693
_journal_name_full 'Tetrahedron Lett. '
loop_
_publ_author_name
"T.Takeda"
"H.Kawai"
"R.Herges"
"E.Mucke"
"Y.Sawai"
"K.Murakoshi"
"K.Fujiwara"
"T.Suzuki"
_chemical_name_systematic
;
1,1,2,2-tetrakis(3,5-dimethylphenyl)acenaphthylene
;
_chemical_melting_point 511.15
_cell_volume   3233.618
_exptl_crystal_colour 'colorless'
_exptl_crystal_density_diffrn 1.172
_exptl_special_details
;
Melting point range 511.15-513.15K

;
_exptl_crystal_description 'platelet'
_exptl_crystal_preparation 'dichloromethane/methanol'
_diffrn_ambient_temperature 123.1
#These two values have been output from a single CSD field.
_refine_ls_R_factor_gt 0.0557
_refine_ls_wR_factor_gt 0.0557
_symmetry_cell_setting monoclinic
_symmetry_space_group_name_H-M 'P 21/c'
_symmetry_Int_Tables_number 14
loop_
_symmetry_equiv_pos_site_id
_symmetry_equiv_pos_as_xyz
1 x,y,z
2 -x,1/2+y,1/2-z
3 -x,-y,-z
4 x,-1/2-y,-1/2+z
_cell_length_a 13.097(3)
_cell_length_b 14.917(3)
_cell_length_c 16.639(4)
_cell_angle_alpha 90
_cell_angle_beta 95.881(4)
_cell_angle_gamma 90
_cell_formula_units_Z 4
loop_
_atom_type_symbol
_atom_type_radius_bond
C 0.68
H 0.23
loop_
_atom_site_label
_atom_site_type_symbol
_atom_site_fract_x
_atom_site_fract_y
_atom_site_fract_z
C1 C 0.18435(16) 0.06359(13) 0.12311(12)
C2 C 0.12368(17) 0.09745(14) 0.05813(13)
C3 C 0.11460(17) 0.04969(14) -0.01561(13)
C4 C 0.16471(17) -0.02985(14) -0.02479(13)
C5 C 0.22705(17) -0.06734(13) 0.04163(13)
C6 C 0.28479(17) -0.14821(13) 0.04213(13)
C7 C 0.34122(17) -0.17552(13) 0.11157(13)
C8 C 0.34344(16) -0.12713(12) 0.18478(13)
C9 C 0.28821(16) -0.04925(12) 0.18600(12)
C10 C 0.23257(16) -0.01967(12) 0.11494(12)
C11 C 0.20682(16) 0.10018(12) 0.20882(12)
C12 C 0.26479(16) 0.18977(12) 0.21050(13)
C13 C 0.29384(16) 0.23451(13) 0.28306(13)
C14 C 0.35175(17) 0.31275(13) 0.28696(14)
C15 C 0.38461(17) 0.34583(13) 0.21563(16)
C16 C 0.36035(17) 0.30288(14) 0.14290(16)
C17 C 0.29859(16) 0.22630(13) 0.14080(13)
C18 C 0.37753(18) 0.35938(14) 0.36686(14)
C19 C 0.40268(19) 0.33461(14) 0.06712(16)
C20 C 0.10232(16) 0.10590(13) 0.24395(12)
C21 C 0.06845(16) 0.18053(13) 0.28417(12)
C22 C -0.02527(17) 0.18058(13) 0.31751(13)
C23 C -0.08669(16) 0.10494(13) 0.30862(13)
C24 C -0.05738(17) 0.03041(13) 0.26587(13)
C25 C 0.03647(16) 0.03246(13) 0.23439(12)
C26 C -0.05797(17) 0.26202(13) 0.36229(14)
C27 C -0.12565(17) -0.05052(13) 0.25590(13)
C28 C 0.28342(16) 0.01881(12) 0.25415(12)
C29 C 0.23551(14) -0.02006(13) 0.32710(12)
C30 C 0.20011(16) -0.10796(13) 0.32829(13)
C31 C 0.14734(17) -0.14064(14) 0.39093(13)
C32 C 0.13098(16) -0.08387(14) 0.45431(13)
C33 C 0.16536(16) 0.00429(14) 0.45602(13)
C34 C 0.21732(16) 0.03429(13) 0.39247(12)
C35 C 0.10352(18) -0.23435(13) 0.38755(14)
C36 C 0.14644(17) 0.06531(14) 0.52456(13)
C37 C 0.39514(16) 0.05150(12) 0.27398(13)
C38 C 0.44539(16) 0.05668(12) 0.35153(13)
C39 C 0.54760(16) 0.08529(12) 0.36511(13)
C40 C 0.59848(17) 0.10985(13) 0.29960(14)
C41 C 0.55176(17) 0.10434(13) 0.22179(14)
C42 C 0.45142(16) 0.07440(12) 0.20957(13)
C43 C 0.60058(17) 0.09020(14) 0.44921(13)
C44 C 0.60863(18) 0.13189(16) 0.15100(14)
H1 H 0.08800 0.15240 0.06270
H2 H 0.07180 0.07320 -0.06020
H3 H 0.15830 -0.05940 -0.07560
H4 H 0.28390 -0.18310 -0.00570
H5 H 0.38090 -0.22870 0.11050
H6 H 0.38220 -0.14820 0.23240
H7 H 0.27330 0.21050 0.33180
H8 H 0.42420 0.39930 0.21730
H9 H 0.27890 0.19830 0.09030
H10 H 0.11040 0.23260 0.28920
H11 H -0.14980 0.10390 0.33210
H12 H 0.05630 -0.01780 0.20460
H13 H 0.21180 -0.14690 0.28500
H14 H 0.09560 -0.10570 0.49740
H15 H 0.24150 0.09440 0.39330
H16 H 0.40970 0.03990 0.39610
H17 H 0.66730 0.13050 0.30850
H18 H 0.41940 0.06940 0.15590
H19 H 0.42820 0.40380 0.36120
H20 H 0.31730 0.38700 0.38260
H21 H 0.40290 0.31730 0.40690
H22 H -0.04470 0.31260 0.33060
H23 H -0.13040 0.25180 0.38130
H24 H -0.01700 0.26790 0.41310
H25 H -0.09290 -0.10010 0.28890
H26 H -0.19400 -0.03920 0.27100
H27 H -0.12660 -0.07380 0.20130
H28 H 0.09770 -0.25590 0.44060
H29 H 0.03760 -0.23320 0.35790
H30 H 0.14750 -0.27280 0.36130
H31 H 0.08620 0.04810 0.55320
H32 H 0.19970 0.06630 0.56540
H33 H 0.13740 0.13490 0.50500
H34 H 0.58750 0.15620 0.47410
H35 H 0.58080 0.05090 0.48200
H36 H 0.67610 0.09510 0.45210
H37 H 0.67420 0.10400 0.15590
H38 H 0.57100 0.11370 0.10190
H39 H 0.61690 0.19520 0.15100
H40 H 0.44030 0.28750 0.04550
H41 H 0.34740 0.35170 0.02870
H42 H 0.44660 0.38460 0.07910
loop_
_geom_bond_atom_site_label_1
_geom_bond_atom_site_label_2
_geom_bond_distance
_geom_bond_site_symmetry_1
_geom_bond_site_symmetry_2
C1 C2 1.371 1_555 1_555
C2 C3 1.413 1_555 1_555
C3 C4 1.372 1_555 1_555
C4 C5 1.420 1_555 1_555
C5 C6 1.423 1_555 1_555
C6 C7 1.368 1_555 1_555
C7 C8 1.414 1_555 1_555
C8 C9 1.370 1_555 1_555
C9 C10 1.395 1_555 1_555
C10 C1 1.406 1_555 1_555
C11 C1 1.527 1_555 1_555
C12 C11 1.536 1_555 1_555
C13 C12 1.398 1_555 1_555
C14 C13 1.390 1_555 1_555
C15 C14 1.394 1_555 1_555
C16 C15 1.377 1_555 1_555
C17 C12 1.394 1_555 1_555
C18 C14 1.508 1_555 1_555
C19 C16 1.505 1_555 1_555
C20 C11 1.545 1_555 1_555
C21 C20 1.395 1_555 1_555
C22 C21 1.398 1_555 1_555
C23 C22 1.385 1_555 1_555
C24 C23 1.395 1_555 1_555
C25 C20 1.393 1_555 1_555
C26 C22 1.510 1_555 1_555
C27 C24 1.501 1_555 1_555
C28 C9 1.528 1_555 1_555
C29 C28 1.536 1_555 1_555
C30 C29 1.392 1_555 1_555
C31 C30 1.396 1_555 1_555
C32 C31 1.386 1_555 1_555
C33 C32 1.389 1_555 1_555
C34 C29 1.397 1_555 1_555
C35 C31 1.510 1_555 1_555
C36 C33 1.499 1_555 1_555
C37 C28 1.546 1_555 1_555
C38 C37 1.389 1_555 1_555
C39 C38 1.401 1_555 1_555
C40 C39 1.384 1_555 1_555
C41 C40 1.377 1_555 1_555
C42 C37 1.404 1_555 1_555
C43 C39 1.499 1_555 1_555
C44 C41 1.514 1_555 1_555
H1 C2 0.950 1_555 1_555
H2 C3 0.950 1_555 1_555
H3 C4 0.950 1_555 1_555
H4 C6 0.950 1_555 1_555
H5 C7 0.950 1_555 1_555
H6 C8 0.950 1_555 1_555
H7 C13 0.950 1_555 1_555
H8 C15 0.950 1_555 1_555
H9 C17 0.950 1_555 1_555
H10 C21 0.950 1_555 1_555
H11 C23 0.950 1_555 1_555
H12 C25 0.950 1_555 1_555
H13 C30 0.950 1_555 1_555
H14 C32 0.950 1_555 1_555
H15 C34 0.951 1_555 1_555
H16 C38 0.950 1_555 1_555
H17 C40 0.950 1_555 1_555
H18 C42 0.950 1_555 1_555
H19 C18 0.949 1_555 1_555
H20 C18 0.950 1_555 1_555
H21 C18 0.950 1_555 1_555
H22 C26 0.947 1_555 1_555
H23 C26 1.041 1_555 1_555
H24 C26 0.958 1_555 1_555
H25 C27 0.992 1_555 1_555
H26 C27 0.969 1_555 1_555
H27 C27 0.971 1_555 1_555
H28 C35 0.950 1_555 1_555
H29 C35 0.950 1_555 1_555
H30 C35 0.950 1_555 1_555
H31 C36 0.996 1_555 1_555
H32 C36 0.923 1_555 1_555
H33 C36 1.091 1_555 1_555
H34 C43 1.088 1_555 1_555
H35 C43 0.859 1_555 1_555
H36 C43 0.988 1_555 1_555
H37 C44 0.950 1_555 1_555
H38 C44 0.949 1_555 1_555
H39 C44 0.951 1_555 1_555
H40 C19 0.950 1_555 1_555
H41 C19 0.950 1_555 1_555
H42 C19 0.950 1_555 1_555
C5 C10 1.407 1_555 1_555
C11 C28 1.701 1_555 1_555
C16 C17 1.398 1_555 1_555
C24 C25 1.385 1_555 1_555
C33 C34 1.389 1_555 1_555
C41 C42 1.383 1_555 1_555
#END
