
#######################################################################
#
#                 Cambridge Crystallographic Data Centre
#                                CCDC
#
#######################################################################
#
# If this CIF has been generated from an entry in the Cambridge
# Structural Database, then it will include bibliographic, chemical,
# crystal, experimental, refinement or atomic coordinate data resulting
# from the CCDC's data processing and validation procedures.
#
#######################################################################

data_CSD_CIF_RUNZEH
_audit_creation_date 2015-08-07
_audit_creation_method CSD-ConQuest-V1
_database_code_CSD RUNZEH
_database_code_depnum_ccdc_archive 'CCDC 1040408'
_chemical_formula_sum 'C30 H20'
_chemical_formula_moiety
;
C30 H20
;
_journal_coden_Cambridge 1220
_journal_volume 21
_journal_year 2015
_journal_page_first 9970
_journal_name_full 'Chem.-Eur.J. '
loop_
_publ_author_name
"B.T.Haire"
"K.W.J.Heard"
"M.S.Little"
"A.V.S.Parry"
"J.Raftery"
"P.Quayle"
"S.G.Yeates"
_chemical_name_systematic
;
4,9-Diphenylbenzo[c]phenanthrene
;
_chemical_melting_point 432.15
_cell_volume    976.281
_exptl_crystal_colour 'white'
_exptl_crystal_density_diffrn 1.294
_exptl_crystal_description 'block'
_exptl_crystal_preparation 'hexane/toluene'
_diffrn_ambient_temperature 100
#These two values have been output from a single CSD field.
_refine_ls_R_factor_gt 0.0531
_refine_ls_wR_factor_gt 0.0531
_symmetry_cell_setting triclinic
_symmetry_space_group_name_H-M 'P -1'
_symmetry_Int_Tables_number 2
loop_
_symmetry_equiv_pos_site_id
_symmetry_equiv_pos_as_xyz
1 x,y,z
2 -x,-y,-z
_cell_length_a 9.4832(5)
_cell_length_b 9.6223(5)
_cell_length_c 11.9463(5)
_cell_angle_alpha 76.453(4)
_cell_angle_beta 73.874(5)
_cell_angle_gamma 70.737(5)
_cell_formula_units_Z 2
loop_
_atom_type_symbol
_atom_type_radius_bond
C 0.68
H 0.23
loop_
_atom_site_label
_atom_site_type_symbol
_atom_site_fract_x
_atom_site_fract_y
_atom_site_fract_z
C1 C 0.22296(15) 0.44540(16) 0.09512(12)
C2 C 0.21452(16) 0.54965(15) -0.00609(12)
H1 H 0.15710 0.54610 -0.05860
C3 C 0.28921(16) 0.66008(16) -0.03231(12)
H2 H 0.28630 0.72770 -0.10430
C4 C 0.36708(16) 0.67216(15) 0.04477(12)
H3 H 0.41680 0.74850 0.02540
C5 C 0.37444(15) 0.57256(15) 0.15265(12)
C6 C 0.45951(15) 0.57924(15) 0.23489(12)
C7 C 0.50252(16) 0.70949(15) 0.23695(12)
C8 C 0.42648(16) 0.85540(16) 0.18836(13)
H4 H 0.34290 0.86960 0.15380
C9 C 0.47102(18) 0.97622(16) 0.19025(14)
H5 H 0.41840 1.07270 0.15680
C10 C 0.59349(18) 0.95893(16) 0.24108(13)
H6 H 0.62660 1.04300 0.23810
C11 C 0.66651(16) 0.82066(16) 0.29551(12)
C12 C 0.61855(16) 0.69413(15) 0.29827(12)
C13 C 0.67452(15) 0.55349(15) 0.36884(12)
H7 H 0.75530 0.53970 0.40640
C14 C 0.61319(16) 0.44077(15) 0.38219(12)
H8 H 0.64350 0.35280 0.43620
C15 C 0.50374(16) 0.45066(15) 0.31699(12)
C16 C 0.43810(16) 0.33202(15) 0.33550(12)
H9 H 0.46490 0.24780 0.39370
C17 C 0.33779(16) 0.33604(15) 0.27194(12)
H10 H 0.28730 0.26030 0.29190
C18 C 0.30722(15) 0.45314(15) 0.17521(12)
C19 C 0.15118(16) 0.32279(15) 0.11491(12)
C20 C 0.04609(16) 0.29274(16) 0.21883(12)
H11 H 0.01820 0.35210 0.27910
C21 C -0.01796(17) 0.17691(17) 0.23483(13)
H12 H -0.08960 0.15800 0.30580
C22 C 0.02194(17) 0.08856(16) 0.14783(14)
H13 H -0.02010 0.00790 0.15980
C23 C 0.12368(17) 0.11926(17) 0.04327(14)
H14 H 0.14980 0.06060 -0.01720
C24 C 0.18735(16) 0.23487(16) 0.02661(13)
H15 H 0.25650 0.25500 -0.04560
C25 C 0.79150(16) 0.80822(15) 0.35355(12)
C26 C 0.93685(17) 0.70975(16) 0.32447(12)
H16 H 0.95760 0.64920 0.26620
C27 C 1.05160(17) 0.69928(17) 0.37980(13)
H17 H 1.15000 0.63130 0.35970
C28 C 1.02245(17) 0.78837(17) 0.46456(13)
H18 H 1.10100 0.78100 0.50250
C29 C 0.87888(18) 0.88806(16) 0.49394(13)
H19 H 0.85900 0.94910 0.55180
C30 C 0.76445(17) 0.89812(15) 0.43837(12)
H20 H 0.66650 0.96690 0.45820
loop_
_geom_bond_atom_site_label_1
_geom_bond_atom_site_label_2
_geom_bond_distance
_geom_bond_site_symmetry_1
_geom_bond_site_symmetry_2
C1 C2 1.381 1_555 1_555
C2 H1 0.950 1_555 1_555
C3 C2 1.395 1_555 1_555
H2 C3 0.950 1_555 1_555
C4 C3 1.375 1_555 1_555
H3 C4 0.951 1_555 1_555
C5 C4 1.418 1_555 1_555
C6 C5 1.457 1_555 1_555
C7 C6 1.447 1_555 1_555
C8 C7 1.418 1_555 1_555
H4 C8 0.949 1_555 1_555
C9 C8 1.368 1_555 1_555
H5 C9 0.950 1_555 1_555
C10 C9 1.401 1_555 1_555
H6 C10 0.950 1_555 1_555
C11 C10 1.382 1_555 1_555
C12 C7 1.435 1_555 1_555
C13 C12 1.437 1_555 1_555
H7 C13 0.950 1_555 1_555
C14 C13 1.350 1_555 1_555
H8 C14 0.950 1_555 1_555
C15 C6 1.409 1_555 1_555
C16 C15 1.419 1_555 1_555
H9 C16 0.950 1_555 1_555
C17 C16 1.359 1_555 1_555
H10 C17 0.950 1_555 1_555
C18 C1 1.434 1_555 1_555
C19 C1 1.490 1_555 1_555
C20 C19 1.397 1_555 1_555
H11 C20 0.950 1_555 1_555
C21 C20 1.389 1_555 1_555
H12 C21 0.950 1_555 1_555
C22 C21 1.389 1_555 1_555
H13 C22 0.950 1_555 1_555
C23 C22 1.387 1_555 1_555
H14 C23 0.949 1_555 1_555
C24 C19 1.404 1_555 1_555
H15 C24 0.950 1_555 1_555
C25 C11 1.491 1_555 1_555
C26 C25 1.395 1_555 1_555
H16 C26 0.949 1_555 1_555
C27 C26 1.388 1_555 1_555
H17 C27 0.950 1_555 1_555
C28 C27 1.390 1_555 1_555
H18 C28 0.950 1_555 1_555
C29 C28 1.388 1_555 1_555
H19 C29 0.950 1_555 1_555
C30 C25 1.400 1_555 1_555
H20 C30 0.950 1_555 1_555
C5 C18 1.429 1_555 1_555
C11 C12 1.424 1_555 1_555
C14 C15 1.429 1_555 1_555
C17 C18 1.432 1_555 1_555
C23 C24 1.384 1_555 1_555
C29 C30 1.389 1_555 1_555
#END
