
#######################################################################
#
#                 Cambridge Crystallographic Data Centre
#                                CCDC
#
#######################################################################
#
# If this CIF has been generated from an entry in the Cambridge
# Structural Database, then it will include bibliographic, chemical,
# crystal, experimental, refinement or atomic coordinate data resulting
# from the CCDC's data processing and validation procedures.
#
#######################################################################

data_CSD_CIF_RUQROL
_audit_creation_date 2010-03-26
_audit_creation_method CSD-ConQuest-V1
_database_code_CSD RUQROL
_database_code_depnum_ccdc_archive 'CCDC 716948'
_chemical_formula_sum 'C52 H38'
_chemical_formula_moiety
;
C52 H38
;
_journal_coden_Cambridge 1336
_journal_volume 11
_journal_year 2009
_journal_page_first 1951
_journal_name_full 'Org.Lett. '
loop_
_publ_author_name
"K.Kitazawa"
"T.Kochi"
"M.Sato"
"F.Kakiuchi"
_chemical_name_systematic
;
9,10-Bis(4-methylphenyl)-1,4,5,8-tetraphenylanthracene
;
_chemical_melting_point 548.15
_cell_volume   3637.788
_exptl_crystal_colour 'yellow'
_exptl_crystal_density_diffrn 1.21
_exptl_special_details
;
Melts with decomposition.

;
_exptl_crystal_description 'platelet'
_diffrn_ambient_temperature 103
#These two values have been output from a single CSD field.
_refine_ls_R_factor_gt 0.0481
_refine_ls_wR_factor_gt 0.0481
_symmetry_cell_setting monoclinic
_symmetry_space_group_name_H-M 'P 21/a'
_symmetry_Int_Tables_number 14
loop_
_symmetry_equiv_pos_site_id
_symmetry_equiv_pos_as_xyz
1 x,y,z
2 1/2-x,1/2+y,-z
3 -x,-y,-z
4 -1/2+x,-1/2-y,z
_cell_length_a 14.800(6)
_cell_length_b 14.463(6)
_cell_length_c 16.996(7)
_cell_angle_alpha 90
_cell_angle_beta 90.6671(18)
_cell_angle_gamma 90
_cell_formula_units_Z 4
loop_
_atom_type_symbol
_atom_type_radius_bond
C 0.68
H 0.23
loop_
_atom_site_label
_atom_site_type_symbol
_atom_site_fract_x
_atom_site_fract_y
_atom_site_fract_z
C1 C 0.37151(10) 0.60694(10) 0.62215(9)
C2 C 0.37122(10) 0.54023(10) 0.68608(9)
C3 C 0.34269(10) 0.55934(10) 0.76384(9)
C4 C 0.36337(10) 0.4959(1) 0.82507(9)
C5 C 0.32365(10) 0.49962(10) 0.90278(9)
C6 C 0.36805(11) 0.45562(11) 0.96328(9)
H1 H 0.34350 0.45800 1.01460
C7 C 0.44909(11) 0.40695(11) 0.95131(9)
H2 H 0.48340 0.38680 0.99570
C8 C 0.47978(10) 0.38788(10) 0.87747(9)
C9 C 0.42937(10) 0.42484(10) 0.81014(9)
C10 C 0.43749(10) 0.39386(10) 0.73126(9)
C11 C 0.39851(10) 0.44694(10) 0.66893(9)
C12 C 0.3866(1) 0.41419(10) 0.58817(9)
C13 C 0.37545(10) 0.47875(11) 0.53002(9)
H3 H 0.36750 0.45870 0.47720
C14 C 0.37542(10) 0.57411(11) 0.54645(9)
H4 H 0.37820 0.61690 0.50410
C15 C 0.37679(10) 0.70921(10) 0.63291(9)
C16 C 0.43368(11) 0.74835(11) 0.69002(9)
H5 H 0.46670 0.70930 0.72480
C17 C 0.44250(12) 0.84356(12) 0.69649(10)
H6 H 0.48160 0.86920 0.73550
C18 C 0.39442(12) 0.90144(11) 0.64615(11)
H7 H 0.40040 0.96660 0.65060
C19 C 0.33767(12) 0.86358(11) 0.58944(10)
H8 H 0.30460 0.90300 0.55490
C20 C 0.32873(11) 0.76866(11) 0.58264(9)
H9 H 0.28960 0.74360 0.54350
C21 C 0.29035(10) 0.64467(10) 0.77966(9)
C22 C 0.31218(13) 0.70352(11) 0.84187(10)
H10 H 0.36110 0.68880 0.87630
C23 C 0.26245(17) 0.78362(12) 0.85362(11)
H11 H 0.27740 0.82290 0.89660
C24 C 0.19095(18) 0.80742(14) 0.80344(11)
C25 C 0.1354(3) 0.8936(2) 0.81680(16)
H12 H 0.15880 0.92650 0.86310
H13 H 0.07230 0.87640 0.82540
H14 H 0.13920 0.93390 0.77060
C26 C 0.17056(13) 0.74967(12) 0.74123(10)
H15 H 0.12290 0.76550 0.70580
C27 C 0.21849(11) 0.66931(11) 0.72991(9)
H16 H 0.20240 0.62980 0.68740
C28 C 0.23210(11) 0.53737(10) 0.91862(9)
C29 C 0.21561(11) 0.58721(11) 0.9872(1)
H17 H 0.26440 0.60280 1.02150
C30 C 0.12865(12) 0.61418(13) 1.00572(11)
H18 H 0.11820 0.64830 1.05250
C31 C 0.05670(12) 0.59179(12) 0.95643(11)
H19 H -0.00290 0.61030 0.96930
C32 C 0.07223(11) 0.54214(11) 0.88817(10)
H20 H 0.02310 0.52650 0.85420
C33 C 0.15907(11) 0.5152(1) 0.86926(9)
H21 H 0.16910 0.48130 0.82230
C34 C 0.56678(10) 0.33606(10) 0.87204(9)
C35 C 0.63494(10) 0.36246(11) 0.82083(9)
H22 H 0.62580 0.41400 0.78700
C36 C 0.71586(11) 0.31453(11) 0.81863(10)
H23 H 0.76150 0.33340 0.78320
C37 C 0.73084(11) 0.23937(11) 0.86752(10)
H24 H 0.78610 0.20620 0.86530
C38 C 0.66453(12) 0.21307(11) 0.91967(10)
H25 H 0.67450 0.16210 0.95390
C39 C 0.58351(11) 0.26102(11) 0.92205(9)
H26 H 0.53850 0.24260 0.95830
C40 C 0.48563(10) 0.30695(10) 0.71256(9)
C41 C 0.54992(10) 0.30522(11) 0.65316(9)
H27 H 0.56570 0.36110 0.62740
C42 C 0.59085(11) 0.22378(11) 0.63128(9)
H28 H 0.63380 0.22430 0.59020
C43 C 0.57037(11) 0.14090(11) 0.66827(9)
C44 C 0.61319(14) 0.05194(13) 0.64207(12)
H29 H 0.59110 0.00090 0.67450
H30 H 0.67900 0.05660 0.64790
H31 H 0.59740 0.04040 0.58680
C45 C 0.50816(11) 0.14282(11) 0.72911(9)
H32 H 0.49420 0.08730 0.75620
C46 C 0.46641(10) 0.22411(10) 0.75067(9)
H33 H 0.42390 0.22360 0.79210
C47 C 0.37608(10) 0.31499(10) 0.56661(9)
C48 C 0.41581(11) 0.27917(11) 0.49867(9)
H34 H 0.45160 0.31830 0.46670
C49 C 0.40355(11) 0.18745(11) 0.4775(1)
H35 H 0.43180 0.16390 0.43180
C50 C 0.35031(11) 0.13010(11) 0.52272(10)
H36 H 0.34200 0.06720 0.50820
C51 C 0.30917(11) 0.16483(11) 0.58936(9)
H37 H 0.27210 0.12580 0.62030
C52 C 0.32195(10) 0.25629(11) 0.61103(9)
H38 H 0.29340 0.27940 0.65680
loop_
_geom_bond_atom_site_label_1
_geom_bond_atom_site_label_2
_geom_bond_distance
_geom_bond_site_symmetry_1
_geom_bond_site_symmetry_2
C1 C2 1.453 1_555 1_555
C2 C3 1.419 1_555 1_555
C3 C4 1.418 1_555 1_555
C4 C5 1.453 1_555 1_555
C5 C6 1.371 1_555 1_555
C6 H1 0.949 1_555 1_555
C7 C6 1.408 1_555 1_555
H2 C7 0.950 1_555 1_555
C8 C7 1.368 1_555 1_555
C9 C4 1.442 1_555 1_555
C10 C9 1.420 1_555 1_555
C11 C2 1.439 1_555 1_555
C12 C11 1.461 1_555 1_555
C13 C12 1.368 1_555 1_555
H3 C13 0.949 1_555 1_555
C14 C1 1.373 1_555 1_555
H4 C14 0.951 1_555 1_555
C15 C1 1.492 1_555 1_555
C16 C15 1.397 1_555 1_555
H5 C16 0.949 1_555 1_555
C17 C16 1.387 1_555 1_555
H6 C17 0.950 1_555 1_555
C18 C17 1.387 1_555 1_555
H7 C18 0.949 1_555 1_555
C19 C18 1.384 1_555 1_555
H8 C19 0.950 1_555 1_555
C20 C15 1.400 1_555 1_555
H9 C20 0.949 1_555 1_555
C21 C3 1.483 1_555 1_555
C22 C21 1.392 1_555 1_555
H10 C22 0.950 1_555 1_555
C23 C22 1.388 1_555 1_555
H11 C23 0.950 1_555 1_555
C24 C23 1.394 1_555 1_555
C25 C24 1.512 1_555 1_555
H12 C25 0.979 1_555 1_555
H13 C25 0.979 1_555 1_555
H14 C25 0.980 1_555 1_555
C26 C24 1.378 1_555 1_555
H15 C26 0.950 1_555 1_555
C27 C21 1.397 1_555 1_555
H16 C27 0.949 1_555 1_555
C28 C5 1.488 1_555 1_555
C29 C28 1.394 1_555 1_555
H17 C29 0.950 1_555 1_555
C30 C29 1.385 1_555 1_555
H18 C30 0.950 1_555 1_555
C31 C30 1.386 1_555 1_555
H19 C31 0.950 1_555 1_555
C32 C31 1.386 1_555 1_555
H20 C32 0.950 1_555 1_555
C33 C28 1.398 1_555 1_555
H21 C33 0.950 1_555 1_555
C34 C8 1.494 1_555 1_555
C35 C34 1.393 1_555 1_555
H22 C35 0.950 1_555 1_555
C36 C35 1.385 1_555 1_555
H23 C36 0.950 1_555 1_555
C37 C36 1.385 1_555 1_555
H24 C37 0.949 1_555 1_555
C38 C37 1.383 1_555 1_555
H25 C38 0.950 1_555 1_555
C39 C34 1.399 1_555 1_555
H26 C39 0.951 1_555 1_555
C40 C10 1.481 1_555 1_555
C41 C40 1.396 1_555 1_555
H27 C41 0.950 1_555 1_555
C42 C41 1.378 1_555 1_555
H28 C42 0.950 1_555 1_555
C43 C42 1.389 1_555 1_555
C44 C43 1.504 1_555 1_555
H29 C44 0.980 1_555 1_555
H30 C44 0.980 1_555 1_555
H31 C44 0.980 1_555 1_555
C45 C43 1.393 1_555 1_555
H32 C45 0.950 1_555 1_555
C46 C40 1.393 1_555 1_555
H33 C46 0.950 1_555 1_555
C47 C12 1.489 1_555 1_555
C48 C47 1.401 1_555 1_555
H34 C48 0.950 1_555 1_555
C49 C48 1.386 1_555 1_555
H35 C49 0.950 1_555 1_555
C50 C49 1.383 1_555 1_555
H36 C50 0.950 1_555 1_555
C51 C50 1.386 1_555 1_555
H37 C51 0.950 1_555 1_555
C52 C47 1.395 1_555 1_555
H38 C52 0.950 1_555 1_555
C8 C9 1.460 1_555 1_555
C10 C11 1.425 1_555 1_555
C13 C14 1.407 1_555 1_555
C19 C20 1.384 1_555 1_555
C26 C27 1.376 1_555 1_555
C32 C33 1.384 1_555 1_555
C38 C39 1.386 1_555 1_555
C45 C46 1.380 1_555 1_555
C51 C52 1.385 1_555 1_555
#END
