
#######################################################################
#
#                 Cambridge Crystallographic Data Centre
#                                CCDC
#
#######################################################################
#
# If this CIF has been generated from an entry in the Cambridge
# Structural Database, then it will include bibliographic, chemical,
# crystal, experimental, refinement or atomic coordinate data resulting
# from the CCDC's data processing and validation procedures.
#
#######################################################################

data_CSD_CIF_RUZHIF
_audit_creation_date 2015-12-02
_audit_creation_method CSD-ConQuest-V1
_database_code_CSD RUZHIF
_database_code_depnum_ccdc_archive 'CCDC 965006'
_chemical_formula_sum 'C35 H24'
_chemical_formula_moiety
;
C35 H24
;
_journal_coden_Cambridge 1695
_journal_volume 4
_journal_year 2016
_journal_page_first 193
_journal_name_full 'J.Mater.Chem.C '
loop_
_publ_author_name
"S.Kumar"
"D.Kumar"
"Y.Patil"
"S.Patil"
_chemical_name_systematic
;
8-(4-methylphenyl)-7,10-diphenylfluoranthene
;
_cell_volume   2388.349
_exptl_crystal_density_diffrn 1.236
_exptl_crystal_description 'rectangular'
_diffrn_ambient_temperature 110
#These two values have been output from a single CSD field.
_refine_ls_R_factor_gt 0.0878
_refine_ls_wR_factor_gt 0.0878
_symmetry_cell_setting monoclinic
_symmetry_space_group_name_H-M 'P 21/c'
_symmetry_Int_Tables_number 14
loop_
_symmetry_equiv_pos_site_id
_symmetry_equiv_pos_as_xyz
1 x,y,z
2 -x,1/2+y,1/2-z
3 -x,-y,-z
4 x,-1/2-y,-1/2+z
_cell_length_a 10.717(5)
_cell_length_b 21.264(5)
_cell_length_c 11.420(5)
_cell_angle_alpha 90
_cell_angle_beta 113.404(5)
_cell_angle_gamma 90
_cell_formula_units_Z 4
loop_
_atom_type_symbol
_atom_type_radius_bond
C 0.68
H 0.23
loop_
_atom_site_label
_atom_site_type_symbol
_atom_site_fract_x
_atom_site_fract_y
_atom_site_fract_z
C1 C 0.3650(4) 0.16337(18) 0.5367(3)
C2 C 0.2425(4) 0.19680(17) 0.5091(3)
C3 C 0.2216(4) 0.25190(18) 0.4402(3)
H1 H 0.14050 0.27550 0.42050
C4 C 0.3242(5) 0.2727(2) 0.3990(4)
H2 H 0.31010 0.31050 0.35110
C5 C 0.4429(4) 0.2396(2) 0.4267(4)
H3 H 0.50910 0.25500 0.39780
C6 C 0.4677(4) 0.1831(2) 0.4974(3)
C7 C 0.5824(4) 0.1430(2) 0.5312(4)
H4 H 0.65530 0.15400 0.50780
C8 C 0.5892(4) 0.0884(2) 0.5975(4)
H5 H 0.66730 0.06250 0.61870
C9 C 0.4835(4) 0.0690(2) 0.6356(3)
H6 H 0.49090 0.03100 0.68160
C10 C 0.3708(3) 0.10684(18) 0.6041(3)
C11 C 0.2400(3) 0.10421(17) 0.6216(3)
C12 C 0.1638(3) 0.15901(16) 0.5647(3)
C13 C 0.0363(4) 0.16962(16) 0.5669(3)
C14 C -0.0129(4) 0.12462(16) 0.6270(3)
H7 H -0.09880 0.13150 0.63090
C15 C 0.0590(3) 0.07000(16) 0.6817(3)
C16 C 0.1885(3) 0.05908(16) 0.6805(3)
C17 C 0.2679(3) 0.00281(17) 0.7476(3)
C18 C 0.3018(5) -0.04565(19) 0.6839(4)
H8 H 0.27690 -0.04280 0.59440
C19 C 0.3715(5) -0.0979(2) 0.7498(4)
H9 H 0.39390 -0.13060 0.70480
C20 C 0.4089(4) -0.1034(2) 0.8798(4)
H10 H 0.45600 -0.13960 0.92420
C21 C 0.3771(4) -0.05577(19) 0.9438(4)
H11 H 0.40300 -0.05880 1.03340
C22 C 0.3071(3) -0.00288(17) 0.8787(3)
H12 H 0.28590 0.02980 0.92440
C23 C -0.0517(4) 0.22435(16) 0.5053(3)
C24 C -0.1357(6) 0.2234(2) 0.3762(4)
H13 H -0.13230 0.18840 0.32570
C25 C -0.2242(6) 0.2725(2) 0.3200(4)
H14 H -0.28080 0.27090 0.23150
C26 C -0.2304(4) 0.32294(19) 0.3908(4)
H15 H -0.29180 0.35640 0.35220
C27 C -0.1481(5) 0.3252(2) 0.5175(4)
H16 H -0.15090 0.36070 0.56700
C28 C -0.0600(5) 0.2758(2) 0.5745(4)
H17 H -0.00450 0.27760 0.66320
C29 C -0.0117(3) 0.02291(16) 0.7315(3)
C30 C -0.0658(4) 0.04093(18) 0.8198(3)
H18 H -0.05210 0.08260 0.85230
C31 C -0.1390(4) -0.00120(18) 0.8602(4)
H19 H -0.17490 0.01210 0.91990
C32 C -0.1606(4) -0.06211(19) 0.8150(3)
C33 C -0.1075(4) -0.08007(19) 0.7276(3)
H20 H -0.12230 -0.12170 0.69490
C34 C -0.0330(4) -0.03855(17) 0.6866(3)
H21 H 0.00350 -0.05230 0.62760
C35 C -0.2404(5) -0.1082(2) 0.8594(4)
H22 H -0.32710 -0.08920 0.85010
H23 H -0.18790 -0.11880 0.94920
H24 H -0.25790 -0.14650 0.80760
loop_
_geom_bond_atom_site_label_1
_geom_bond_atom_site_label_2
_geom_bond_distance
_geom_bond_site_symmetry_1
_geom_bond_site_symmetry_2
C1 C2 1.414 1_555 1_555
C2 C3 1.379 1_555 1_555
C3 H1 0.950 1_555 1_555
C4 C3 1.427 1_555 1_555
H2 C4 0.950 1_555 1_555
C5 C4 1.376 1_555 1_555
H3 C5 0.952 1_555 1_555
C6 C1 1.408 1_555 1_555
C7 C6 1.418 1_555 1_555
H4 C7 0.950 1_555 1_555
C8 C7 1.372 1_555 1_555
H5 C8 0.949 1_555 1_555
C9 C8 1.426 1_555 1_555
H6 C9 0.950 1_555 1_555
C10 C1 1.415 1_555 1_555
C11 C10 1.494 1_555 1_555
C12 C2 1.478 1_555 1_555
C13 C12 1.395 1_555 1_555
C14 C13 1.397 1_555 1_555
H7 C14 0.950 1_555 1_555
C15 C14 1.397 1_555 1_555
C16 C11 1.405 1_555 1_555
C17 C16 1.492 1_555 1_555
C18 C17 1.390 1_555 1_555
H8 C18 0.950 1_555 1_555
C19 C18 1.383 1_555 1_555
H9 C19 0.950 1_555 1_555
C20 C19 1.380 1_555 1_555
H10 C20 0.949 1_555 1_555
C21 C20 1.369 1_555 1_555
H11 C21 0.950 1_555 1_555
C22 C17 1.390 1_555 1_555
H12 C22 0.949 1_555 1_555
C23 C13 1.487 1_555 1_555
C24 C23 1.389 1_555 1_555
H13 C24 0.951 1_555 1_555
C25 C24 1.385 1_555 1_555
H14 C25 0.951 1_555 1_555
C26 C25 1.361 1_555 1_555
H15 C26 0.950 1_555 1_555
C27 C26 1.364 1_555 1_555
H16 C27 0.951 1_555 1_555
C28 C23 1.373 1_555 1_555
H17 C28 0.950 1_555 1_555
C29 C15 1.498 1_555 1_555
C30 C29 1.402 1_555 1_555
H18 C30 0.949 1_555 1_555
C31 C30 1.385 1_555 1_555
H19 C31 0.949 1_555 1_555
C32 C31 1.379 1_555 1_555
C33 C32 1.385 1_555 1_555
H20 C33 0.949 1_555 1_555
C34 C29 1.389 1_555 1_555
H21 C34 0.950 1_555 1_555
C35 C32 1.514 1_555 1_555
H22 C35 0.980 1_555 1_555
H23 C35 0.980 1_555 1_555
H24 C35 0.980 1_555 1_555
C5 C6 1.413 1_555 1_555
C9 C10 1.375 1_555 1_555
C11 C12 1.423 1_555 1_555
C15 C16 1.413 1_555 1_555
C21 C22 1.392 1_555 1_555
C27 C28 1.389 1_555 1_555
C33 C34 1.390 1_555 1_555
#END
