
#######################################################################
#
#                 Cambridge Crystallographic Data Centre
#                                CCDC
#
#######################################################################
#
# If this CIF has been generated from an entry in the Cambridge
# Structural Database, then it will include bibliographic, chemical,
# crystal, experimental, refinement or atomic coordinate data resulting
# from the CCDC's data processing and validation procedures.
#
#######################################################################

data_CSD_CIF_RUZHEB
_audit_creation_date 2015-12-02
_audit_creation_method CSD-ConQuest-V1
_database_code_CSD RUZHEB
_database_code_depnum_ccdc_archive 'CCDC 965009'
_chemical_formula_sum 'C34 H22'
_chemical_formula_moiety
;
C34 H22
;
_journal_coden_Cambridge 1695
_journal_volume 4
_journal_year 2016
_journal_page_first 193
_journal_name_full 'J.Mater.Chem.C '
loop_
_publ_author_name
"S.Kumar"
"D.Kumar"
"Y.Patil"
"S.Patil"
_chemical_name_systematic
;
7,8,10-triphenylfluoranthene
;
_cell_volume   2224.372
_exptl_crystal_density_diffrn 1.286
_exptl_crystal_description 'rectangular'
_diffrn_ambient_temperature 110
#These two values have been output from a single CSD field.
_refine_ls_R_factor_gt 0.0406
_refine_ls_wR_factor_gt 0.0406
_symmetry_cell_setting monoclinic
_symmetry_space_group_name_H-M 'P 21/c'
_symmetry_Int_Tables_number 14
loop_
_symmetry_equiv_pos_site_id
_symmetry_equiv_pos_as_xyz
1 x,y,z
2 -x,1/2+y,1/2-z
3 -x,-y,-z
4 x,-1/2-y,-1/2+z
_cell_length_a 10.4175(4)
_cell_length_b 24.6449(11)
_cell_length_c 8.6723(4)
_cell_angle_alpha 90
_cell_angle_beta 92.512(4)
_cell_angle_gamma 90
_cell_formula_units_Z 4
loop_
_atom_type_symbol
_atom_type_radius_bond
C 0.68
H 0.23
loop_
_atom_site_label
_atom_site_type_symbol
_atom_site_fract_x
_atom_site_fract_y
_atom_site_fract_z
C1 C 0.65927(12) -0.03660(5) 0.74216(15)
C2 C 0.54198(12) -0.05716(5) 0.79536(15)
C3 C 0.54124(13) -0.10935(6) 0.85226(16)
H1 H 0.46550 -0.12410 0.89280
C4 C 0.65510(13) -0.14063(6) 0.84928(16)
H2 H 0.65330 -0.17700 0.88580
C5 C 0.76772(13) -0.12075(6) 0.79593(16)
H3 H 0.84190 -0.14320 0.79610
C6 C 0.77340(12) -0.06674(6) 0.74059(16)
C7 C 0.88198(13) -0.03972(6) 0.68266(17)
H4 H 0.96230 -0.05790 0.68050
C8 C 0.87028(13) 0.01256(6) 0.62999(16)
H5 H 0.94320 0.02960 0.58900
C9 C 0.75369(13) 0.04241(6) 0.63409(16)
H6 H 0.74890 0.07860 0.59650
C10 C 0.64772(12) 0.01793(5) 0.69350(15)
C11 C 0.51330(12) 0.03417(5) 0.72109(15)
C12 C 0.44758(12) -0.01228(5) 0.77537(15)
C13 C 0.31601(12) -0.00960(5) 0.80000(15)
C14 C 0.25544(12) 0.04041(5) 0.77692(16)
H7 H 0.16610 0.04280 0.79340
C15 C 0.31928(12) 0.08709(5) 0.73095(15)
C16 C 0.45180(12) 0.08421(5) 0.70249(15)
C17 C 0.52339(12) 0.13326(5) 0.65366(16)
C18 C 0.62654(13) 0.15360(6) 0.74461(16)
H8 H 0.65210 0.13590 0.83830
C19 C 0.69192(13) 0.19955(6) 0.69875(17)
H9 H 0.76220 0.21300 0.76090
C20 C 0.65502(14) 0.22586(6) 0.56239(18)
H10 H 0.69970 0.25740 0.53140
C21 C 0.55237(14) 0.20587(6) 0.47138(17)
H11 H 0.52710 0.22370 0.37780
C22 C 0.48698(13) 0.16003(6) 0.51703(16)
H12 H 0.41660 0.14670 0.45460
C23 C 0.23868(12) -0.05696(5) 0.84846(16)
C24 C 0.23885(13) -0.10578(6) 0.76606(16)
H13 H 0.28910 -0.10890 0.67770
C25 C 0.16638(13) -0.14955(6) 0.81225(17)
H14 H 0.16720 -0.18250 0.75530
C26 C 0.09253(13) -0.14556(6) 0.94131(17)
H15 H 0.04430 -0.17590 0.97400
C27 C 0.08974(13) -0.09717(6) 1.02186(17)
H16 H 0.03840 -0.09410 1.10930
C28 C 0.16165(12) -0.05298(6) 0.97561(16)
H17 H 0.15830 -0.01980 1.03110
C29 C 0.24356(12) 0.13847(5) 0.71864(16)
C30 C 0.12383(13) 0.13908(6) 0.63921(18)
H18 H 0.09490 0.10770 0.58450
C31 C 0.04673(14) 0.18502(7) 0.6392(2)
H19 H -0.03390 0.18510 0.58370
C32 C 0.08721(15) 0.23083(6) 0.7201(2)
H20 H 0.03320 0.26180 0.72320
C33 C 0.20699(15) 0.23121(6) 0.79675(19)
H21 H 0.23550 0.26280 0.85100
C34 C 0.28503(14) 0.18574(6) 0.79435(16)
H22 H 0.36780 0.18670 0.84480
loop_
_geom_bond_atom_site_label_1
_geom_bond_atom_site_label_2
_geom_bond_distance
_geom_bond_site_symmetry_1
_geom_bond_site_symmetry_2
C1 C2 1.418 1_555 1_555
C2 C3 1.378 1_555 1_555
C3 H1 0.950 1_555 1_555
C4 C3 1.416 1_555 1_555
H2 C4 0.951 1_555 1_555
C5 C4 1.370 1_555 1_555
H3 C5 0.950 1_555 1_555
C6 C1 1.402 1_555 1_555
C7 C6 1.423 1_555 1_555
H4 C7 0.950 1_555 1_555
C8 C7 1.371 1_555 1_555
H5 C8 0.951 1_555 1_555
C9 C8 1.422 1_555 1_555
H6 C9 0.950 1_555 1_555
C10 C1 1.412 1_555 1_555
C11 C10 1.486 1_555 1_555
C12 C2 1.485 1_555 1_555
C13 C12 1.398 1_555 1_555
C14 C13 1.395 1_555 1_555
H7 C14 0.950 1_555 1_555
C15 C14 1.396 1_555 1_555
C16 C11 1.396 1_555 1_555
C17 C16 1.491 1_555 1_555
C18 C17 1.398 1_555 1_555
H8 C18 0.950 1_555 1_555
C19 C18 1.389 1_555 1_555
H9 C19 0.950 1_555 1_555
C20 C19 1.388 1_555 1_555
H10 C20 0.951 1_555 1_555
C21 C20 1.391 1_555 1_555
H11 C21 0.950 1_555 1_555
C22 C17 1.394 1_555 1_555
H12 C22 0.951 1_555 1_555
C23 C13 1.489 1_555 1_555
C24 C23 1.399 1_555 1_555
H13 C24 0.950 1_555 1_555
C25 C24 1.386 1_555 1_555
H14 C25 0.951 1_555 1_555
C26 C25 1.389 1_555 1_555
H15 C26 0.951 1_555 1_555
C27 C26 1.383 1_555 1_555
H16 C27 0.950 1_555 1_555
C28 C23 1.395 1_555 1_555
H17 C28 0.950 1_555 1_555
C29 C15 1.493 1_555 1_555
C30 C29 1.398 1_555 1_555
H18 C30 0.949 1_555 1_555
C31 C30 1.388 1_555 1_555
H19 C31 0.950 1_555 1_555
C32 C31 1.385 1_555 1_555
H20 C32 0.949 1_555 1_555
C33 C32 1.388 1_555 1_555
H21 C33 0.950 1_555 1_555
C34 C29 1.396 1_555 1_555
H22 C34 0.950 1_555 1_555
C5 C6 1.417 1_555 1_555
C9 C10 1.378 1_555 1_555
C11 C12 1.424 1_555 1_555
C15 C16 1.415 1_555 1_555
C21 C22 1.386 1_555 1_555
C27 C28 1.391 1_555 1_555
C33 C34 1.385 1_555 1_555
#END
