
#######################################################################
#
#                 Cambridge Crystallographic Data Centre
#                                CCDC
#
#######################################################################
#
# If this CIF has been generated from an entry in the Cambridge
# Structural Database, then it will include bibliographic, chemical,
# crystal, experimental, refinement or atomic coordinate data resulting
# from the CCDC's data processing and validation procedures.
#
#######################################################################

data_CSD_CIF_SAHKIY
_audit_creation_date 2017-02-07
_audit_creation_method CSD-ConQuest-V1
_database_code_CSD SAHKIY
_database_code_depnum_ccdc_archive 'CCDC 878817'
_chemical_formula_sum 'C23 H16'
_chemical_formula_moiety
;
C23 H16
;
_journal_coden_Cambridge 661
_journal_volume 60
_journal_year 2013
_journal_page_first 166
_journal_name_full 'J.Chin.Chem.Soc.(Taipei) '
loop_
_publ_author_name
"Hsing-Yang Tsai"
"Ming-Hui Luo"
"Tzu-Chien Fang"
"Ming-Jen Chang"
"Kew-Yu Chen"
_chemical_name_systematic
;
hexacyclo[10.10.1.0^2,11^.0^4,9^.0^13,22^.0^15,20^]tricosa-2,4,6,8,10,13,15,17
,19,21-decaene
;
_cell_volume   1548.413
_exptl_crystal_colour 'colorless'
_exptl_crystal_density_diffrn 1.254
_exptl_crystal_description 'parallelepiped'
_diffrn_ambient_temperature 297
#These two values have been output from a single CSD field.
_refine_ls_R_factor_gt 0.043
_refine_ls_wR_factor_gt 0.043
_symmetry_cell_setting orthorhombic
_symmetry_space_group_name_H-M 'P 21 21 21'
_symmetry_Int_Tables_number 19
loop_
_symmetry_equiv_pos_site_id
_symmetry_equiv_pos_as_xyz
1 x,y,z
2 1/2-x,-y,1/2+z
3 -x,1/2+y,1/2-z
4 1/2+x,1/2-y,-z
_cell_length_a 6.0185(4)
_cell_length_b 8.1914(6)
_cell_length_c 31.4080(19)
_cell_angle_alpha 90
_cell_angle_beta 90
_cell_angle_gamma 90
_cell_formula_units_Z 4
loop_
_atom_type_symbol
_atom_type_radius_bond
C 0.68
H 0.23
loop_
_atom_site_label
_atom_site_type_symbol
_atom_site_fract_x
_atom_site_fract_y
_atom_site_fract_z
C1 C 0.1891(3) 0.4569(3) 0.10041(6)
C2 C 0.0268(3) 0.3936(3) 0.07534(5)
H1 H -0.09930 0.45510 0.06940
C3 C 0.0486(3) 0.2348(3) 0.05830(6)
C4 C -0.1124(3) 0.1667(3) 0.03135(6)
H2 H -0.24030 0.22580 0.02520
C5 C -0.0849(4) 0.0166(4) 0.01420(7)
H3 H -0.19400 -0.02630 -0.00360
C6 C 0.1055(4) -0.0745(3) 0.02291(7)
H4 H 0.12340 -0.17770 0.01110
C7 C 0.2654(4) -0.0111(3) 0.04893(7)
H5 H 0.39240 -0.07230 0.05440
C8 C 0.2436(3) 0.1438(3) 0.06760(6)
C9 C 0.4107(3) 0.2139(3) 0.09375(6)
H6 H 0.53920 0.15510 0.09970
C10 C 0.3848(3) 0.3650(3) 0.10997(6)
C11 C 0.5323(3) 0.4741(3) 0.13662(6)
H7 H 0.68980 0.44430 0.13800
C12 C 0.4157(3) 0.5010(3) 0.17892(6)
C13 C 0.4698(3) 0.4601(3) 0.21939(6)
H8 H 0.59920 0.40190 0.22500
C14 C 0.3254(3) 0.5074(3) 0.25323(5)
C15 C 0.3718(3) 0.4686(3) 0.29609(6)
H9 H 0.50090 0.41180 0.30280
C16 C 0.2289(4) 0.5135(3) 0.32786(6)
H10 H 0.26240 0.48750 0.35600
C17 C 0.0345(4) 0.5976(3) 0.31864(7)
H11 H -0.06180 0.62650 0.34050
C18 C -0.0160(3) 0.6379(3) 0.27775(7)
H12 H -0.14580 0.69540 0.27200
C19 C 0.1267(3) 0.5933(3) 0.24397(6)
C20 C 0.0771(3) 0.6357(3) 0.20106(6)
H13 H -0.05180 0.69320 0.19460
C21 C 0.2199(3) 0.5914(3) 0.16961(6)
C22 C 0.2215(3) 0.6216(3) 0.12177(6)
H14 H 0.12890 0.71160 0.11140
C23 C 0.4771(3) 0.6387(3) 0.11502(7)
H15 H 0.51890 0.64150 0.08520
H16 H 0.53980 0.73160 0.12990
loop_
_geom_bond_atom_site_label_1
_geom_bond_atom_site_label_2
_geom_bond_distance
_geom_bond_site_symmetry_1
_geom_bond_site_symmetry_2
C1 C2 1.358 1_555 1_555
C2 H1 0.930 1_555 1_555
C3 C2 1.413 1_555 1_555
C4 C3 1.402 1_555 1_555
H2 C4 0.930 1_555 1_555
C5 C4 1.353 1_555 1_555
H3 C5 0.931 1_555 1_555
C6 C5 1.395 1_555 1_555
H4 C6 0.929 1_555 1_555
C7 C6 1.365 1_555 1_555
H5 C7 0.930 1_555 1_555
C8 C3 1.421 1_555 1_555
C9 C8 1.420 1_555 1_555
H6 C9 0.930 1_555 1_555
C10 C1 1.430 1_555 1_555
C11 C10 1.512 1_555 1_555
H7 C11 0.980 1_555 1_555
C12 C11 1.519 1_555 1_555
C13 C12 1.354 1_555 1_555
H8 C13 0.930 1_555 1_555
C14 C13 1.427 1_555 1_555
C15 C14 1.411 1_555 1_555
H9 C15 0.930 1_555 1_555
C16 C15 1.368 1_555 1_555
H10 C16 0.931 1_555 1_555
C17 C16 1.388 1_555 1_555
H11 C17 0.929 1_555 1_555
C18 C17 1.360 1_555 1_555
H12 C18 0.930 1_555 1_555
C19 C14 1.418 1_555 1_555
C20 C19 1.423 1_555 1_555
H13 C20 0.930 1_555 1_555
C21 C12 1.422 1_555 1_555
C22 C1 1.519 1_555 1_555
H14 C22 0.980 1_555 1_555
C23 C11 1.545 1_555 1_555
H15 C23 0.970 1_555 1_555
H16 C23 0.969 1_555 1_555
C7 C8 1.404 1_555 1_555
C9 C10 1.348 1_555 1_555
C18 C19 1.413 1_555 1_555
C20 C21 1.359 1_555 1_555
C21 C22 1.523 1_555 1_555
C22 C23 1.559 1_555 1_555
#END
