
#######################################################################
#
#                 Cambridge Crystallographic Data Centre
#                                CCDC
#
#######################################################################
#
# If this CIF has been generated from an entry in the Cambridge
# Structural Database, then it will include bibliographic, chemical,
# crystal, experimental, refinement or atomic coordinate data resulting
# from the CCDC's data processing and validation procedures.
#
#######################################################################

data_CSD_CIF_SALFUG
_audit_creation_date 1989-10-10
_audit_creation_method CSD-ConQuest-V1
_database_code_CSD SALFUG
_chemical_formula_sum 'C20 H14'
_chemical_formula_moiety
;
C20 H14
;
_journal_coden_Cambridge 179
_journal_volume 27
_journal_year 1988
_journal_page_first 1064
_journal_name_full 'Angew.Chem.,Int.Ed. '
loop_
_publ_author_name
"N.E.Blank"
"M.W.Haenel"
"C.Kruger"
"Yi-Hung Tsay"
"H.Wientges"
_chemical_name_systematic
;
(2)(2,6)Naphthaleno(2)paracyclophane-1,11-diene
;
_cell_volume   2755.940
_exptl_crystal_colour 'colorless'
_exptl_crystal_density_diffrn 1.23
_diffrn_ambient_temperature ?
_diffrn_special_details
;
The study was carried out at room temperature,in the range 283-303K

;
#These two values have been output from a single CSD field.
_refine_ls_R_factor_gt 0.065
_refine_ls_wR_factor_gt 0.065
_symmetry_cell_setting monoclinic
_symmetry_space_group_name_H-M 'P 21/c'
_symmetry_Int_Tables_number 14
loop_
_symmetry_equiv_pos_site_id
_symmetry_equiv_pos_as_xyz
1 x,y,z
2 -x,1/2+y,1/2-z
3 -x,-y,-z
4 x,-1/2-y,-1/2+z
_cell_length_a 7.738(1)
_cell_length_b 11.242(2)
_cell_length_c 31.772(4)
_cell_angle_alpha 90
_cell_angle_beta 94.34(1)
_cell_angle_gamma 90
_cell_formula_units_Z 8
loop_
_atom_type_symbol
_atom_type_radius_bond
C 0.68
H 0.23
loop_
_atom_site_label
_atom_site_type_symbol
_atom_site_fract_x
_atom_site_fract_y
_atom_site_fract_z
C1 C 0.4340(4) -0.0930(3) 0.1666(1)
C2 C 0.4728(5) -0.0284(4) 0.2028(1)
C3 C 0.5637(4) 0.0809(3) 0.2009(1)
C4 C 0.6483(4) 0.1073(3) 0.1655(1)
C5 C 0.6419(4) 0.0961(3) 0.0880(1)
C6 C 0.5308(4) 0.0789(3) 0.0531(1)
C7 C 0.3797(4) 0.0073(3) 0.0560(1)
C8 C 0.3693(1) -0.0660(3) 0.0900(1)
C9 C 0.4796(4) -0.0473(3) 0.1275(1)
C10 C 0.6045(4) 0.0456(3) 0.1274(1)
C11 C 0.1653(4) 0.1471(3) 0.1680(1)
C12 C 0.2932(4) 0.2338(3) 0.1737(1)
C13 C 0.3391(4) 0.2944(3) 0.1383(1)
C14 C 0.2717(4) 0.2633(3) 0.0981(1)
C15 C 0.1570(4) 0.1691(3) 0.0919(1)
C16 C 0.0985(4) 0.1149(3) 0.1277(1)
C17 C 0.1142(4) 0.1195(4) 0.0487(1)
C18 C 0.2169(5) 0.0437(4) 0.0304(1)
C19 C 0.3903(5) 0.2517(4) 0.2157(1)
C20 C 0.5202(5) 0.1795(4) 0.2298(1)
C21 C 0.1372(5) -0.3843(3) 0.0848(1)
C22 C 0.0239(5) -0.3634(4) 0.0509(1)
C23 C -0.1270(5) -0.2933(4) 0.0548(1)
C24 C -0.1337(4) -0.2234(3) 0.0899(1)
C25 C -0.0638(4) -0.2038(3) 0.1666(1)
C26 C -0.0240(4) -0.2704(4) 0.2015(1)
C27 C 0.0644(4) -0.3806(3) 0.1985(1)
C28 C 0.1466(4) -0.4032(3) 0.1622(1)
C29 C 0.1017(4) -0.3381(3) 0.1249(1)
C30 C -0.0219(4) -0.2455(3) 0.1264(1)
C31 C -0.2340(5) -0.5550(3) 0.0938(1)
C32 C -0.3482(4) -0.4590(3) 0.0895(1)
C33 C -0.4026(4) -0.4087(3) 0.1263(1)
C34 C -0.3330(4) -0.4451(3) 0.1658(1)
C35 C -0.2052(4) -0.5328(3) 0.1696(1)
C36 C -0.1614(4) -0.5911(3) 0.1330(1)
C37 C -0.1044(5) -0.5539(4) 0.2114(1)
C38 C 0.0233(5) -0.4820(4) 0.2259(1)
C39 C -0.3958(5) -0.4029(4) 0.0472(1)
C40 C -0.2927(6) -0.3263(4) 0.0301(1)
H1 H 0.35480 -0.16820 0.16920
H2 H 0.39940 -0.04630 0.23050
H3 H 0.71910 0.18550 0.16680
H4 H 0.74830 0.15270 0.09060
H5 H 0.54530 0.13390 0.02650
H6 H 0.25770 -0.12200 0.09150
H7 H 0.13160 0.10330 0.19540
H8 H 0.40440 0.37410 0.13900
H9 H 0.30390 0.31010 0.07130
H10 H 0.02740 0.03530 0.12550
H11 H 0.00550 0.15560 0.02920
H12 H 0.19250 0.01740 -0.00180
H13 H 0.37550 0.32110 0.23670
H14 H 0.58190 0.19410 0.25800
H15 H 0.24580 -0.45310 0.08590
H16 H 0.03090 -0.40210 0.02080
H17 H -0.24000 -0.16800 0.09110
H18 H -0.13140 -0.12270 0.16790
H19 H -0.08480 -0.24970 0.23080
H20 H 0.21340 -0.48700 0.16270
H21 H -0.16820 -0.58430 0.06920
H22 H -0.48390 -0.33540 0.12220
H23 H -0.37390 -0.39080 0.19370
H24 H -0.07260 -0.66360 0.13750
H25 H -0.12300 -0.63060 0.22770
H26 H 0.08320 -0.50610 0.25690
H27 H -0.48670 -0.45770 0.02950
H28 H -0.31750 -0.29090 -0.00080
loop_
_geom_bond_atom_site_label_1
_geom_bond_atom_site_label_2
_geom_bond_distance
_geom_bond_site_symmetry_1
_geom_bond_site_symmetry_2
C1 C2 1.374 1_555 1_555
C2 C3 1.419 1_555 1_555
C3 C4 1.376 1_555 1_555
C4 C10 1.414 1_555 1_555
C5 C6 1.364 1_555 1_555
C6 C7 1.428 1_555 1_555
C7 C8 1.366 1_555 1_555
C8 C9 1.428 1_555 1_555
C9 C1 1.414 1_555 1_555
C10 C5 1.424 1_555 1_555
C11 C12 1.391 1_555 1_555
C12 C13 1.384 1_555 1_555
C13 C14 1.387 1_555 1_555
C14 C15 1.386 1_555 1_555
C15 C16 1.396 1_555 1_555
C16 C11 1.392 1_555 1_555
C17 C15 1.495 1_555 1_555
C18 C7 1.504 1_555 1_555
C19 C12 1.495 1_555 1_555
C20 C3 1.494 1_555 1_555
C21 C22 1.357 1_555 1_555
C22 C23 1.422 1_555 1_555
C23 C24 1.368 1_555 1_555
C24 C30 1.415 1_555 1_555
C25 C26 1.354 1_555 1_555
C26 C27 1.422 1_555 1_555
C27 C28 1.382 1_555 1_555
C28 C29 1.414 1_555 1_555
C29 C21 1.422 1_555 1_555
C30 C25 1.421 1_555 1_555
C31 C32 1.395 1_555 1_555
C32 C33 1.392 1_555 1_555
C33 C34 1.389 1_555 1_555
C34 C35 1.395 1_555 1_555
C35 C36 1.399 1_555 1_555
C36 C31 1.388 1_555 1_555
C37 C35 1.507 1_555 1_555
C38 C27 1.483 1_555 1_555
C39 C32 1.505 1_555 1_555
C40 C23 1.498 1_555 1_555
H1 C1 1.051 1_555 1_555
H2 C2 1.101 1_555 1_555
H3 C4 1.035 1_555 1_555
H4 C5 1.039 1_555 1_555
H5 C6 1.060 1_555 1_555
H6 C8 1.073 1_555 1_555
H7 C11 1.050 1_555 1_555
H8 C13 1.028 1_555 1_555
H9 C14 1.047 1_555 1_555
H10 C16 1.050 1_555 1_555
H11 C17 1.085 1_555 1_555
H12 C18 1.068 1_555 1_555
H13 C19 1.039 1_555 1_555
H14 C20 0.996 1_555 1_555
H15 C21 1.141 1_555 1_555
H16 C22 1.056 1_555 1_555
H17 C24 1.035 1_555 1_555
H18 C25 1.053 1_555 1_555
H19 C26 1.099 1_555 1_555
H20 C28 1.074 1_555 1_555
H21 C31 1.019 1_555 1_555
H22 C33 1.039 1_555 1_555
H23 C34 1.141 1_555 1_555
H24 C36 1.069 1_555 1_555
H25 C37 1.022 1_555 1_555
H26 C38 1.091 1_555 1_555
H27 C39 1.063 1_555 1_555
H28 C40 1.063 1_555 1_555
C9 C10 1.423 1_555 1_555
C17 C18 1.329 1_555 1_555
C19 C20 1.342 1_555 1_555
C29 C30 1.417 1_555 1_555
C37 C38 1.332 1_555 1_555
C39 C40 1.319 1_555 1_555
#END
