
#######################################################################
#
#                 Cambridge Crystallographic Data Centre
#                                CCDC
#
#######################################################################
#
# If this CIF has been generated from an entry in the Cambridge
# Structural Database, then it will include bibliographic, chemical,
# crystal, experimental, refinement or atomic coordinate data resulting
# from the CCDC's data processing and validation procedures.
#
#######################################################################

data_CSD_CIF_SALFOA
_audit_creation_date 1989-10-10
_audit_creation_method CSD-ConQuest-V1
_database_code_CSD SALFOA
_chemical_formula_sum 'C20 H18'
_chemical_formula_moiety
;
C20 H18
;
_journal_coden_Cambridge 179
_journal_volume 27
_journal_year 1988
_journal_page_first 1064
_journal_name_full 'Angew.Chem.,Int.Ed. '
loop_
_publ_author_name
"N.E.Blank"
"M.W.Haenel"
"C.Kruger"
"Yi-Hung Tsay"
"H.Wientges"
_chemical_name_systematic
;
(2)(2,6)Naphthaleno(2)paracyclophane
;
_cell_volume   1412.427
_exptl_crystal_colour 'colorless'
_exptl_crystal_density_diffrn 1.21
_diffrn_ambient_temperature ?
_diffrn_special_details
;
The study was carried out at room temperature,in the range 283-303K

;
#These two values have been output from a single CSD field.
_refine_ls_R_factor_gt 0.081
_refine_ls_wR_factor_gt 0.081
_symmetry_cell_setting orthorhombic
_symmetry_space_group_name_H-M 'P 21 21 21'
_symmetry_Int_Tables_number 19
loop_
_symmetry_equiv_pos_site_id
_symmetry_equiv_pos_as_xyz
1 x,y,z
2 1/2+x,1/2-y,-z
3 -x,1/2+y,1/2-z
4 1/2-x,-y,1/2+z
_cell_length_a 7.915(1)
_cell_length_b 11.079(1)
_cell_length_c 16.107(2)
_cell_angle_alpha 90
_cell_angle_beta 90
_cell_angle_gamma 90
_cell_formula_units_Z 4
loop_
_atom_type_symbol
_atom_type_radius_bond
C 0.68
H 0.23
loop_
_atom_site_label
_atom_site_type_symbol
_atom_site_fract_x
_atom_site_fract_y
_atom_site_fract_z
C1 C 1.0387(6) 0.2704(5) 0.2971(4)
C2 C 0.9449(7) 0.2405(6) 0.3657(4)
C3 C 0.7998(7) 0.1646(5) 0.3573(3)
C4 C 0.7760(7) 0.1024(5) 0.2844(3)
C5 C 0.8050(7) 0.1033(5) 0.1318(3)
C6 C 0.8301(7) 0.1801(5) 0.0665(3)
C7 C 0.9225(7) 0.2887(5) 0.0762(3)
C8 C 1.0204(6) 0.3025(5) 0.1473(3)
C9 C 0.9867(6) 0.2300(4) 0.2186(3)
C10 C 0.8658(6) 0.1370(4) 0.2114(3)
C11 C 0.6883(7) 0.4447(5) 0.2916(3)
C12 C 0.5795(6) 0.3501(5) 0.3067(3)
C13 C 0.4972(6) 0.2984(4) 0.2384(3)
C14 C 0.5350(6) 0.3353(5) 0.1582(3)
C15 C 0.6541(6) 0.4234(4) 0.1417(3)
C16 C 0.7270(6) 0.4789(5) 0.2101(3)
C17 C 0.7080(9) 0.4531(7) 0.0538(4)
C18 C 0.881(1) 0.3977(7) 0.0250(4)
C19 C 0.555(1) 0.3024(7) 0.3952(3)
C20 C 0.6552(8) 0.1818(6) 0.4158(4)
H1 H 1.102(8) 0.346(6) 0.300(4)
H2 H 1.005(7) 0.257(5) 0.427(4)
H3 H 0.683(7) 0.050(5) 0.285(3)
H4 H 0.718(7) 0.036(5) 0.125(4)
H5 H 0.762(7) 0.167(5) 0.019(4)
H6 H 1.089(8) 0.372(6) 0.163(3)
H7 H 0.760(7) 0.481(5) 0.341(3)
H8 H 0.413(6) 0.231(5) 0.243(3)
H9 H 0.476(8) 0.303(6) 0.115(4)
H10 H 0.786(7) 0.530(6) 0.201(4)
H11 H 0.618(9) 0.406(6) 0.008(3)
H12 H 0.714(8) 0.544(6) 0.040(4)
H13 H 0.895(8) 0.385(6) -0.037(4)
H14 H 0.983(8) 0.462(6) 0.034(4)
H15 H 0.435(7) 0.296(5) 0.430(3)
H16 H 0.606(9) 0.372(6) 0.437(4)
H17 H 0.723(7) 0.198(5) 0.479(3)
H18 H 0.558(9) 0.113(6) 0.402(4)
loop_
_geom_bond_atom_site_label_1
_geom_bond_atom_site_label_2
_geom_bond_distance
_geom_bond_site_symmetry_1
_geom_bond_site_symmetry_2
C1 C2 1.372 1_555 1_555
C2 C3 1.430 1_555 1_555
C3 C4 1.374 1_555 1_555
C4 C10 1.426 1_555 1_555
C5 C6 1.367 1_555 1_555
C6 C7 1.417 1_555 1_555
C7 C8 1.391 1_555 1_555
C8 C9 1.427 1_555 1_555
C9 C1 1.403 1_555 1_555
C10 C5 1.419 1_555 1_555
C11 C12 1.378 1_555 1_555
C12 C13 1.401 1_555 1_555
C13 C14 1.388 1_555 1_555
C14 C15 1.383 1_555 1_555
C15 C16 1.387 1_555 1_555
C16 C11 1.400 1_555 1_555
C17 C15 1.515 1_555 1_555
C18 C7 1.499 1_555 1_555
C19 C12 1.533 1_555 1_555
C20 C3 1.495 1_555 1_555
H1 C1 0.977 1_555 1_555
H2 C2 1.111 1_555 1_555
H3 C4 0.938 1_555 1_555
H4 C5 1.021 1_555 1_555
H5 C6 0.947 1_555 1_555
H6 C8 0.976 1_555 1_555
H7 C11 1.057 1_555 1_555
H8 C13 1.004 1_555 1_555
H9 C14 0.911 1_555 1_555
H10 C16 0.748 1_555 1_555
H11 C17 1.151 1_555 1_555
H12 C17 1.032 1_555 1_555
H13 C18 1.015 1_555 1_555
H14 C18 1.086 1_555 1_555
H15 C19 1.105 1_555 1_555
H16 C19 1.100 1_555 1_555
H17 C20 1.165 1_555 1_555
H18 C20 1.106 1_555 1_555
C9 C10 1.411 1_555 1_555
C17 C18 1.571 1_555 1_555
C19 C20 1.589 1_555 1_555
#END
