
#######################################################################
#
#                 Cambridge Crystallographic Data Centre
#                                CCDC
#
#######################################################################
#
# If this CIF has been generated from an entry in the Cambridge
# Structural Database, then it will include bibliographic, chemical,
# crystal, experimental, refinement or atomic coordinate data resulting
# from the CCDC's data processing and validation procedures.
#
#######################################################################

data_CSD_CIF_SANTOP10
_audit_creation_date 1986-11-20
_audit_creation_method CSD-ConQuest-V1
_database_code_CSD SANTOP10
_database_code_depnum_ccdc_archive 'CCDC 1254856'
_chemical_formula_sum 'C32 H24'
_chemical_formula_moiety
;
C32 H24
;
_journal_coden_Cambridge 7
_journal_volume 58
_journal_year 1985
_journal_page_first 2348
_journal_name_full 'Bull.Chem.Soc.Jpn. '
loop_
_publ_author_name
"T.Toyoda"
"N.Kasai"
"S.Misumi"
_chemical_name_systematic
;
syn-(2.2)(1,4)Anthracenophane
;
_cell_volume   4114.231
_exptl_crystal_density_diffrn 1.319
_exptl_special_details
;
room temperature data a 25.344(5) b 8.1340(2) c 20.734(4) beta 104.80(15) v 
4238.9 dx 1.28 z 8 sg A2
;
_diffrn_ambient_temperature 124.15
#These two values have been output from a single CSD field.
_refine_ls_R_factor_gt 0.053
_refine_ls_wR_factor_gt 0.053
_symmetry_cell_setting monoclinic
_symmetry_space_group_name_H-M 'A 2'
_symmetry_Int_Tables_number 5
loop_
_symmetry_equiv_pos_site_id
_symmetry_equiv_pos_as_xyz
1 x,y,z
2 x,1/2+y,1/2+z
3 -x,y,-z
4 -x,1/2+y,1/2-z
_cell_length_a 25.539(2)
_cell_length_b 8.152(1)
_cell_length_c 20.561(3)
_cell_angle_alpha 90
_cell_angle_beta 106.03(1)
_cell_angle_gamma 90
_cell_formula_units_Z 8
loop_
_atom_type_symbol
_atom_type_radius_bond
C 0.68
H 0.23
loop_
_atom_site_label
_atom_site_type_symbol
_atom_site_fract_x
_atom_site_fract_y
_atom_site_fract_z
C1 C 0.34434(14) 1.3132(5) 0.33565(17)
C2 C 0.39834(14) 1.2430(5) 0.33140(18)
C3 C 0.44068(15) 1.2253(5) 0.38840(18)
C4 C 0.48142(14) 1.1033(5) 0.39351(18)
C5 C 0.47983(13) 1.0001(5) 0.34089(18)
C6 C 0.50651(15) 0.8313(5) 0.35561(18)
C7 C 0.44529(14) 1.0426(5) 0.27460(17)
C8 C 0.44964(14) 0.9668(5) 0.21576(19)
C9 C 0.41507(14) 1.0063(5) 0.15174(18)
C10 C 0.41999(15) 0.9317(5) 0.09131(20)
C11 C 0.38644(16) 0.9751(6) 0.03029(20)
C12 C 0.34552(15) 1.0947(6) 0.02559(18)
C13 C 0.33909(14) 1.1692(5) 0.08213(19)
C14 C 0.37345(14) 1.1284(5) 0.14715(18)
C15 C 0.36918(14) 1.2036(5) 0.20664(19)
C16 C 0.40378(14) 1.1654(5) 0.27024(17)
C17 C 0.30823(15) 1.1841(6) 0.36180(21)
C18 C 0.33370(14) 1.0158(6) 0.37244(20)
C19 C 0.36721(16) 0.9736(6) 0.43398(20)
C20 C 0.40771(16) 0.8533(6) 0.44054(19)
C21 C 0.41612(15) 0.7737(5) 0.38504(19)
C22 C 0.47157(15) 0.7064(5) 0.38660(19)
C23 C 0.37414(14) 0.7865(5) 0.32266(19)
C24 C 0.37439(15) 0.6909(5) 0.26684(19)
C25 C 0.33597(15) 0.7094(5) 0.20368(19)
C26 C 0.33774(15) 0.6169(6) 0.14577(20)
C27 C 0.29984(17) 0.6386(6) 0.08531(19)
C28 C 0.25813(16) 0.7580(6) 0.07823(20)
C29 C 0.25560(15) 0.8510(5) 0.1325(2)
C30 C 0.29393(14) 0.8316(5) 0.1971(2)
C31 C 0.29250(15) 0.9263(6) 0.25312(21)
C32 C 0.33192(14) 0.9098(5) 0.31597(20)
H1 H 0.3205(14) 1.352(5) 0.2908(17)
H2 H 0.3481(15) 1.403(6) 0.3637(18)
H3 H 0.4381(14) 1.285(5) 0.4288(17)
H4 H 0.5072(14) 1.075(6) 0.4400(17)
H5 H 0.5438(15) 0.845(6) 0.3906(18)
H6 H 0.5117(15) 0.783(6) 0.3162(18)
H7 H 0.4783(14) 0.881(6) 0.2188(17)
H8 H 0.4496(15) 0.848(6) 0.0954(19)
H9 H 0.3946(17) 0.917(6) -0.0082(20)
H10 H 0.3228(16) 1.125(6) -0.0200(19)
H11 H 0.3076(15) 1.237(6) 0.0773(18)
H12 H 0.3403(14) 1.285(5) 0.2038(17)
H13 H 0.2688(15) 1.192(6) 0.3288(18)
H14 H 0.3014(15) 1.216(6) 0.4059(18)
H15 H 0.3687(16) 1.045(6) 0.4734(19)
H16 H 0.4370(15) 0.838(6) 0.4862(18)
H17 H 0.4956(15) 0.678(6) 0.4358(18)
H18 H 0.4697(15) 0.589(6) 0.3610(18)
H19 H 0.4052(15) 0.615(6) 0.2684(18)
H20 H 0.3679(16) 0.539(6) 0.1504(19)
H21 H 0.2990(16) 0.570(6) 0.0436(19)
H22 H 0.2286(16) 0.777(6) 0.0288(19)
H23 H 0.2245(16) 0.936(6) 0.1244(19)
H24 H 0.2633(15) 1.009(6) 0.2466(18)
C33 C 0.22445(13) 0.8118(5) 0.41690(17)
C34 C 0.20205(13) 0.6419(5) 0.42137(16)
C35 C 0.18701(14) 0.5980(5) 0.47816(16)
C36 C 0.14626(14) 0.4789(5) 0.47577(16)
C37 C 0.11935(13) 0.4026(5) 0.41635(17)
C38 C 0.06214(14) 0.3389(5) 0.40717(17)
C39 C 0.14425(13) 0.4128(5) 0.36095(16)
C40 C 0.12787(13) 0.3112(5) 0.30399(17)
C41 C 0.15190(13) 0.3192(5) 0.25049(16)
C42 C 0.13452(14) 0.2177(5) 0.19206(17)
C43 C 0.15882(15) 0.2291(5) 0.14078(17)
C44 C 0.20230(15) 0.3422(5) 0.14500(17)
C45 C 0.21965(14) 0.4422(5) 0.19980(17)
C46 C 0.19468(13) 0.4349(5) 0.25429(16)
C47 C 0.21092(13) 0.5396(5) 0.31032(17)
C48 C 0.18644(13) 0.5323(5) 0.36393(16)
C49 C 0.18238(13) 0.9531(5) 0.41925(16)
C50 C 0.12441(13) 0.8899(5) 0.40495(16)
C51 C 0.09974(14) 0.8702(5) 0.45540(17)
C52 C 0.05865(14) 0.7510(5) 0.45137(17)
C53 C 0.04143(13) 0.6501(5) 0.39648(16)
C54 C 0.01851(13) 0.4822(5) 0.40222(17)
C55 C 0.05659(13) 0.6936(5) 0.33557(16)
C56 C 0.03466(13) 0.6125(5) 0.27435(17)
C57 C 0.05411(13) 0.6408(5) 0.21774(16)
C58 C 0.03438(14) 0.5500(5) 0.15632(17)
C59 C 0.05653(15) 0.5731(5) 0.10385(17)
C60 C 0.09982(15) 0.6869(5) 0.10900(17)
C61 C 0.11950(14) 0.7760(5) 0.16635(18)
C62 C 0.09690(13) 0.7579(5) 0.22268(16)
C63 C 0.11767(13) 0.8421(5) 0.28337(17)
C64 C 0.09869(13) 0.8135(5) 0.34022(16)
H25 H 0.2343(13) 0.823(5) 0.3715(16)
H26 H 0.2564(14) 0.825(5) 0.4537(17)
H27 H 0.2001(14) 0.660(5) 0.5220(17)
H28 H 0.1293(14) 0.461(5) 0.5132(17)
H29 H 0.0588(14) 0.270(6) 0.4448(17)
H30 H 0.0514(14) 0.266(5) 0.3656(17)
H31 H 0.0972(14) 0.231(5) 0.3006(17)
H32 H 0.1017(14) 0.137(5) 0.1895(17)
H33 H 0.1425(15) 0.167(6) 0.1005(17)
H34 H 0.2184(14) 0.358(5) 0.1079(17)
H35 H 0.2505(14) 0.520(6) 0.2021(17)
H36 H 0.2400(14) 0.617(5) 0.3102(17)
H37 H 0.1875(14) 1.034(5) 0.3868(17)
H38 H 0.1953(14) 1.000(6) 0.4654(17)
H39 H 0.1171(14) 0.904(5) 0.5009(17)
H40 H 0.0490(14) 0.708(6) 0.4916(17)
H41 H 0.0058(14) 0.484(6) 0.4444(17)
H42 H -0.0108(4) 0.453(5) 0.3670(17)
H43 H 0.0040(15) 0.533(6) 0.2693(16)
H44 H 0.0028(14) 0.478(5) 0.1528(17)
H45 H 0.0395(15) 0.513(6) 0.0619(17)
H46 H 0.1135(15) 0.702(6) 0.0718(18)
H47 H 0.1477(14) 0.852(5) 0.1691(17)
H48 H 0.1465(14) 0.919(5) 0.2886(17)
loop_
_geom_bond_atom_site_label_1
_geom_bond_atom_site_label_2
_geom_bond_distance
_geom_bond_site_symmetry_1
_geom_bond_site_symmetry_2
C1 C2 1.518 1_555 1_555
C2 C3 1.365 1_555 1_555
C3 C4 1.422 1_555 1_555
C4 C5 1.362 1_555 1_555
C5 C6 1.528 1_555 1_555
C6 C22 1.598 1_555 1_555
C7 C5 1.446 1_555 1_555
C8 C7 1.390 1_555 1_555
C9 C8 1.405 1_555 1_555
C10 C9 1.420 1_555 1_555
C11 C10 1.356 1_555 1_555
C12 C11 1.413 1_555 1_555
C13 C12 1.361 1_555 1_555
C14 C9 1.440 1_555 1_555
C15 C14 1.399 1_555 1_555
C16 C2 1.448 1_555 1_555
C17 C1 1.588 1_555 1_555
C18 C17 1.508 1_555 1_555
C19 C18 1.362 1_555 1_555
C20 C19 1.405 1_555 1_555
C21 C20 1.380 1_555 1_555
C22 C21 1.511 1_555 1_555
C23 C21 1.430 1_555 1_555
C24 C23 1.389 1_555 1_555
C25 C24 1.403 1_555 1_555
C26 C25 1.421 1_555 1_555
C27 C26 1.360 1_555 1_555
C28 C27 1.420 1_555 1_555
C29 C28 1.365 1_555 1_555
C30 C25 1.443 1_555 1_555
C31 C30 1.395 1_555 1_555
C32 C18 1.438 1_555 1_555
H1 C1 1.006 1_555 1_555
H2 C1 0.920 1_555 1_555
H3 C3 0.981 1_555 1_555
H4 C4 1.026 1_555 1_555
H5 C6 1.029 1_555 1_555
H6 C6 0.943 1_555 1_555
H7 C8 1.002 1_555 1_555
H8 C10 1.005 1_555 1_555
H9 C11 0.993 1_555 1_555
H10 C12 0.988 1_555 1_555
H11 C13 0.958 1_555 1_555
H12 C15 0.982 1_555 1_555
H13 C17 1.049 1_555 1_555
H14 C17 1.004 1_555 1_555
H15 C19 0.990 1_555 1_555
H16 C20 1.034 1_555 1_555
H17 C22 1.054 1_555 1_555
H18 C22 1.087 1_555 1_555
H19 C24 0.995 1_555 1_555
H20 C26 0.982 1_555 1_555
H21 C27 1.019 1_555 1_555
H22 C28 1.097 1_555 1_555
H23 C29 1.032 1_555 1_555
H24 C31 0.987 1_555 1_555
C33 C34 1.511 1_555 1_555
C34 C35 1.374 1_555 1_555
C35 C36 1.414 1_555 1_555
C36 C37 1.374 1_555 1_555
C37 C38 1.513 1_555 1_555
C38 C54 1.598 1_555 1_555
C39 C37 1.452 1_555 1_555
C40 C39 1.401 1_555 1_555
C41 C40 1.401 1_555 1_555
C42 C41 1.425 1_555 1_555
C43 C42 1.366 1_555 1_555
C44 C43 1.427 1_555 1_555
C45 C44 1.362 1_555 1_555
C46 C41 1.429 1_555 1_555
C47 C46 1.401 1_555 1_555
C48 C34 1.446 1_555 1_555
C49 C33 1.585 1_555 1_555
C50 C49 1.518 1_555 1_555
C51 C50 1.364 1_555 1_555
C52 C51 1.416 1_555 1_555
C53 C52 1.367 1_555 1_555
C54 C53 1.506 1_555 1_555
C55 C53 1.453 1_555 1_555
C56 C55 1.395 1_555 1_555
C57 C56 1.405 1_555 1_555
C58 C57 1.430 1_555 1_555
C59 C58 1.362 1_555 1_555
C60 C59 1.425 1_555 1_555
C61 C60 1.358 1_555 1_555
C62 C57 1.433 1_555 1_555
C63 C62 1.394 1_555 1_555
C64 C50 1.452 1_555 1_555
H25 C33 1.036 1_555 1_555
H26 C33 0.953 1_555 1_555
H27 C35 1.007 1_555 1_555
H28 C36 0.993 1_555 1_555
H29 C38 0.979 1_555 1_555
H30 C38 1.015 1_555 1_555
H31 C40 1.008 1_555 1_555
H32 C42 1.055 1_555 1_555
H33 C43 0.962 1_555 1_555
H34 C44 0.970 1_555 1_555
H35 C45 1.002 1_555 1_555
H36 C47 0.975 1_555 1_555
H37 C49 0.972 1_555 1_555
H38 C49 0.991 1_555 1_555
H39 C51 0.958 1_555 1_555
H40 C52 0.990 1_555 1_555
H41 C54 1.007 1_555 1_555
H42 C54 0.918 1_555 1_555
H43 C56 1.000 1_555 1_555
H44 C58 0.984 1_555 1_555
H45 C59 0.983 1_555 1_555
H46 C60 0.933 1_555 1_555
H47 C61 0.940 1_555 1_555
H48 C63 0.950 1_555 1_555
C7 C16 1.443 1_555 1_555
C13 C14 1.421 1_555 1_555
C15 C16 1.396 1_555 1_555
C23 C32 1.453 1_555 1_555
C29 C30 1.425 1_555 1_555
C31 C32 1.408 1_555 1_555
C39 C48 1.441 1_555 1_555
C45 C46 1.435 1_555 1_555
C47 C48 1.411 1_555 1_555
C55 C64 1.437 1_555 1_555
C61 C62 1.437 1_555 1_555
C63 C64 1.403 1_555 1_555
#END
