
#######################################################################
#
#                 Cambridge Crystallographic Data Centre
#                                CCDC
#
#######################################################################
#
# If this CIF has been generated from an entry in the Cambridge
# Structural Database, then it will include bibliographic, chemical,
# crystal, experimental, refinement or atomic coordinate data resulting
# from the CCDC's data processing and validation procedures.
#
#######################################################################

data_CSD_CIF_SAPTUZ
_audit_creation_date 2005-10-13
_audit_creation_method CSD-ConQuest-V1
_database_code_CSD SAPTUZ
_database_code_depnum_ccdc_archive 'CCDC 275062'
_chemical_formula_sum 'C24 H26'
_chemical_formula_moiety
;
C24 H26
;
_journal_coden_Cambridge 579
_journal_volume 24
_journal_year 2005
_journal_page_first 2670
_journal_name_full 'Organometallics '
loop_
_publ_author_name
"R.A.Begum"
"P.R.Sharp"
_chemical_name_systematic
;
7,8,9,10-Tetraethylfluoranthene
;
_cell_volume   3568.974
_exptl_crystal_colour 'colorless'
_exptl_crystal_density_diffrn 1.17
_exptl_crystal_description 'plate'
_diffrn_ambient_temperature 173
#These two values have been output from a single CSD field.
_refine_ls_R_factor_gt 0.0471
_refine_ls_wR_factor_gt 0.0471
_symmetry_cell_setting orthorhombic
_symmetry_space_group_name_H-M 'A b a 2'
_symmetry_Int_Tables_number 41
loop_
_symmetry_equiv_pos_site_id
_symmetry_equiv_pos_as_xyz
1 x,y,z
2 -x,-y,z
3 1/2-x,y,1/2+z
4 1/2+x,-y,1/2+z
5 x,1/2+y,1/2+z
6 -x,1/2-y,1/2+z
7 1/2-x,1/2+y,z
8 1/2+x,1/2-y,z
_cell_length_a 18.2792(12)
_cell_length_b 22.9191(15)
_cell_length_c 8.5190(6)
_cell_angle_alpha 90
_cell_angle_beta 90
_cell_angle_gamma 90
_cell_formula_units_Z 8
loop_
_atom_type_symbol
_atom_type_radius_bond
C 0.68
H 0.23
loop_
_atom_site_label
_atom_site_type_symbol
_atom_site_fract_x
_atom_site_fract_y
_atom_site_fract_z
C1 C 0.16040(11) 0.27978(9) 0.4424(2)
C2 C 0.09272(11) 0.28061(9) 0.3596(2)
C3 C 0.06996(11) 0.21952(9) 0.3291(3)
C4 C 0.19551(10) 0.33129(9) 0.4860(2)
C5 C 0.09601(11) 0.38589(10) 0.3602(2)
C6 C 0.06047(11) 0.33366(9) 0.3167(3)
C7 C 0.16266(11) 0.38468(9) 0.4428(3)
C8 C 0.18252(11) 0.21762(9) 0.4633(3)
C9 C -0.01082(11) 0.33418(10) 0.2269(3)
H1 H -0.01250 0.29990 0.15640
H2 H -0.01280 0.36960 0.16070
C10 C 0.26908(11) 0.32845(9) 0.5677(3)
H3 H 0.26870 0.29580 0.64390
H4 H 0.27700 0.36510 0.62700
C11 C 0.12599(12) 0.18400(8) 0.3935(3)
C12 C 0.20011(11) 0.44183(9) 0.4862(3)
H5 H 0.25370 0.43550 0.48970
H6 H 0.19000 0.47110 0.40340
C13 C 0.01109(13) 0.19141(10) 0.2607(3)
H7 H -0.02820 0.21340 0.21760
C14 C 0.24183(14) 0.12672(10) 0.5255(3)
H8 H 0.28220 0.10690 0.57110
C15 C 0.06431(13) 0.09627(10) 0.3177(3)
H9 H 0.06100 0.05500 0.31240
C16 C 0.12579(15) 0.12278(8) 0.3901(3)
C17 C 0.24073(12) 0.18839(9) 0.5282(3)
H10 H 0.27990 0.20950 0.57460
C18 C 0.06326(11) 0.44384(9) 0.3108(3)
H11 H 0.07580 0.47380 0.39000
H12 H 0.00930 0.44020 0.30780
C19 C 0.00978(13) 0.13007(10) 0.2555(3)
H13 H -0.03060 0.11130 0.20680
C20 C -0.07781(12) 0.33303(11) 0.3349(3)
H14 H -0.07530 0.29870 0.40320
H15 H -0.12240 0.33120 0.27120
H16 H -0.07860 0.36850 0.39920
C21 C 0.18671(12) 0.09467(10) 0.4594(3)
H17 H 0.18940 0.05330 0.45990
C22 C 0.33215(11) 0.31977(11) 0.4529(3)
H18 H 0.32280 0.28520 0.38830
H19 H 0.37780 0.31440 0.51150
H20 H 0.33640 0.35410 0.38510
C23 C 0.09069(12) 0.4639(1) 0.1493(3)
H21 H 0.14410 0.46770 0.15170
H22 H 0.06870 0.50170 0.12330
H23 H 0.07680 0.43510 0.06970
C24 C 0.17493(13) 0.46602(9) 0.6437(3)
H24 H 0.12220 0.47370 0.63980
H25 H 0.20110 0.50240 0.66610
H26 H 0.18520 0.43750 0.72650
loop_
_geom_bond_atom_site_label_1
_geom_bond_atom_site_label_2
_geom_bond_distance
_geom_bond_site_symmetry_1
_geom_bond_site_symmetry_2
C1 C2 1.424 1_555 1_555
C2 C3 1.484 1_555 1_555
C3 C11 1.419 1_555 1_555
C4 C1 1.394 1_555 1_555
C5 C6 1.411 1_555 1_555
C6 C2 1.400 1_555 1_555
C7 C4 1.412 1_555 1_555
C8 C1 1.492 1_555 1_555
C9 C6 1.511 1_555 1_555
H1 C9 0.989 1_555 1_555
H2 C9 0.989 1_555 1_555
C10 C4 1.516 1_555 1_555
H3 C10 0.991 1_555 1_555
H4 C10 0.991 1_555 1_555
C11 C8 1.420 1_555 1_555
C12 C7 1.523 1_555 1_555
H5 C12 0.991 1_555 1_555
H6 C12 0.991 1_555 1_555
C13 C3 1.383 1_555 1_555
H7 C13 0.951 1_555 1_555
C14 H8 0.950 1_555 1_555
C15 H9 0.949 1_555 1_555
C16 C11 1.403 1_555 1_555
C17 C8 1.374 1_555 1_555
H10 C17 0.950 1_555 1_555
C18 C5 1.516 1_555 1_555
H11 C18 0.990 1_555 1_555
H12 C18 0.990 1_555 1_555
C19 C13 1.407 1_555 1_555
H13 C19 0.950 1_555 1_555
C20 C9 1.532 1_555 1_555
H14 C20 0.980 1_555 1_555
H15 C20 0.980 1_555 1_555
H16 C20 0.980 1_555 1_555
C21 C14 1.368 1_555 1_555
H17 C21 0.949 1_555 1_555
C22 C10 1.525 1_555 1_555
H18 C22 0.980 1_555 1_555
H19 C22 0.980 1_555 1_555
H20 C22 0.979 1_555 1_555
C23 C18 1.535 1_555 1_555
H21 C23 0.980 1_555 1_555
H22 C23 0.980 1_555 1_555
H23 C23 0.980 1_555 1_555
C24 C12 1.523 1_555 1_555
H24 C24 0.980 1_555 1_555
H25 C24 0.980 1_555 1_555
H26 C24 0.980 1_555 1_555
C5 C7 1.407 1_555 1_555
C14 C17 1.414 1_555 1_555
C15 C16 1.419 1_555 1_555
C15 C19 1.369 1_555 1_555
C16 C21 1.415 1_555 1_555
#END
