
#######################################################################
#
#                 Cambridge Crystallographic Data Centre
#                                CCDC
#
#######################################################################
#
# If this CIF has been generated from an entry in the Cambridge
# Structural Database, then it will include bibliographic, chemical,
# crystal, experimental, refinement or atomic coordinate data resulting
# from the CCDC's data processing and validation procedures.
#
#######################################################################

data_CSD_CIF_SAXXUL
_audit_creation_date 2006-02-24
_audit_creation_method CSD-ConQuest-V1
_database_code_CSD SAXXUL
_database_code_depnum_ccdc_archive 'CCDC 291058'
_chemical_formula_sum 'C34 H36'
_chemical_formula_moiety
;
C34 H36
;
_journal_coden_Cambridge 4
_journal_volume 127
_journal_year 2005
_journal_page_first 14208
_journal_name_full 'J.Am.Chem.Soc. '
loop_
_publ_author_name
"M.K.J.ter Wiel"
"R.A.van Delden"
"A.Meetsma"
"B.L.Feringa"
_chemical_name_systematic
;
rac-(3R*,3'R*)-(P*,P*)-trans-(+-)-1,1',2,2',3,3',4,4'-octahydro-3,3'-diethyl-7
,7'-dimethyl-4,4'-biphenanthrylidene
;
_chemical_melting_point 510.75
_cell_volume   2507.674
_exptl_crystal_colour 'colorless'
_exptl_crystal_density_diffrn 1.178
_exptl_special_details
;
Melting point range 510.75-511.35K
The use of the asterisk in the name denotes the use of racemic compounds and 
is used to clarify the relation between the helicity in the molecule and the 
absolute configuration of the C atom of the stereogenic centre
;
_exptl_crystal_description 'block'
_exptl_crystal_preparation 'n-hexane'
_diffrn_ambient_temperature 100
#These two values have been output from a single CSD field.
_refine_ls_R_factor_gt 0.0465
_refine_ls_wR_factor_gt 0.0465
loop_
_citation_database_id_CSD
_citation_special_details
SAZRAN "is a stereoisomer of this entry"
_symmetry_cell_setting monoclinic
_symmetry_space_group_name_H-M 'C 2/c'
_symmetry_Int_Tables_number 15
loop_
_symmetry_equiv_pos_site_id
_symmetry_equiv_pos_as_xyz
1 x,y,z
2 1/2+x,1/2+y,z
3 -x,y,1/2-z
4 1/2-x,1/2+y,1/2-z
5 -x,-y,-z
6 -1/2-x,-1/2-y,-z
7 x,-y,-1/2+z
8 -1/2+x,-1/2-y,-1/2+z
_cell_length_a 18.841(1)
_cell_length_b 6.9763(4)
_cell_length_c 20.604(1)
_cell_angle_alpha 90
_cell_angle_beta 112.187(1)
_cell_angle_gamma 90
_cell_formula_units_Z 4
loop_
_atom_type_symbol
_atom_type_radius_bond
C 0.68
H 0.23
loop_
_atom_site_label
_atom_site_type_symbol
_atom_site_fract_x
_atom_site_fract_y
_atom_site_fract_z
C1 C 0.02689(7) 0.44475(16) 0.23602(6)
C2 C 0.00918(7) 0.45487(19) 0.15787(6)
C3 C 0.04087(8) 0.6436(2) 0.13990(7)
C4 C 0.08910(8) 0.75969(19) 0.20508(7)
C5 C 0.14223(7) 0.63069(18) 0.26061(7)
C6 C 0.22099(7) 0.67140(19) 0.29533(7)
C7 C 0.26693(7) 0.54945(19) 0.34572(7)
C8 C 0.23743(7) 0.37822(18) 0.36237(6)
C9 C 0.28495(7) 0.24859(19) 0.41350(7)
C10 C 0.25793(7) 0.08062(19) 0.42915(6)
C11 C 0.17942(7) 0.03460(19) 0.39212(7)
C12 C 0.13157(7) 0.15648(18) 0.34301(7)
C13 C 0.15830(7) 0.33371(17) 0.32704(6)
C14 C 0.11064(7) 0.46719(17) 0.27711(6)
C15 C 0.04438(8) 0.2773(2) 0.13639(7)
C16 C 0.01385(9) 0.2426(3) 0.05805(8)
C17 C 0.30930(8) -0.0540(2) 0.48424(8)
H1 H -0.04695 0.45367 0.13270
H2 H -0.00253 0.73202 0.11118
H3 H 0.07559 0.60988 0.11269
H4 H 0.11720 0.85816 0.19301
H5 H 0.05367 0.82393 0.22642
H6 H 0.24278 0.79103 0.28520
H7 H 0.32101 0.57708 0.37123
H8 H 0.33912 0.28826 0.43738
H9 H 0.15856 -0.09107 0.40239
H10 H 0.07797 0.12213 0.31715
H11 H 0.03301 0.15941 0.15786
H12 H 0.10254 0.29544 0.15486
H13 H -0.04164 0.21192 0.04058
H14 H 0.02273 0.36331 0.03174
H15 H 0.04088 0.13021 0.04752
H16 H 0.36365 -0.00860 0.49957
H17 H 0.30491 -0.18944 0.46723
H18 H 0.29534 -0.05514 0.52581
C1B C -0.02689(7) 0.44475(16) 0.26398(6)
C2B C -0.00918(7) 0.45487(19) 0.34213(6)
C3B C -0.04087(8) 0.6436(2) 0.36010(7)
C4B C -0.08910(8) 0.75969(19) 0.29492(7)
C5B C -0.14223(7) 0.63069(18) 0.23939(7)
C6B C -0.22099(7) 0.67140(19) 0.20467(7)
C7B C -0.26693(7) 0.54945(19) 0.15428(7)
C8B C -0.23743(7) 0.37822(18) 0.13763(6)
C9B C -0.28495(7) 0.24859(19) 0.08650(7)
C10B C -0.25793(7) 0.08062(19) 0.07085(6)
C11B C -0.17942(7) 0.03460(19) 0.10788(7)
C12B C -0.13157(7) 0.15648(18) 0.15699(7)
C13B C -0.15830(7) 0.33371(17) 0.17296(6)
C14B C -0.11064(7) 0.46719(17) 0.22289(6)
C15B C -0.04438(8) 0.2773(2) 0.36361(7)
C16B C -0.01385(9) 0.2426(3) 0.44195(8)
C17B C -0.30930(8) -0.0540(2) 0.01576(8)
H1B H 0.04695 0.45367 0.36730
H2B H 0.00253 0.73202 0.38882
H3B H -0.07559 0.60988 0.38731
H4B H -0.11720 0.85816 0.30699
H5B H -0.05367 0.82393 0.27358
H6B H -0.24278 0.79103 0.21480
H7B H -0.32101 0.57708 0.12877
H8B H -0.33912 0.28826 0.06262
H9B H -0.15856 -0.09107 0.09761
H10B H -0.07797 0.12213 0.18285
H11B H -0.03301 0.15941 0.34214
H12B H -0.10254 0.29544 0.34514
H13B H 0.04164 0.21192 0.45942
H14B H -0.02273 0.36331 0.46826
H15B H -0.04088 0.13021 0.45248
H16B H -0.36365 -0.00860 0.00043
H17B H -0.30491 -0.18944 0.03277
H18B H -0.29534 -0.05514 -0.02581
loop_
_geom_bond_atom_site_label_1
_geom_bond_atom_site_label_2
_geom_bond_distance
_geom_bond_site_symmetry_1
_geom_bond_site_symmetry_2
C1 C2 1.518 1_555 1_555
C2 C3 1.547 1_555 1_555
C3 C4 1.537 1_555 1_555
C4 C5 1.502 1_555 1_555
C5 C6 1.412 1_555 1_555
C6 C7 1.368 1_555 1_555
C7 C8 1.413 1_555 1_555
C8 C9 1.420 1_555 1_555
C9 C10 1.364 1_555 1_555
C10 C11 1.422 1_555 1_555
C11 C12 1.368 1_555 1_555
C12 C13 1.420 1_555 1_555
C13 C8 1.425 1_555 1_555
C14 C1 1.491 1_555 1_555
C15 C2 1.547 1_555 1_555
C16 C15 1.514 1_555 1_555
C17 C10 1.509 1_555 1_555
H1 C2 0.987 1_555 1_555
H2 C3 1.017 1_555 1_555
H3 C3 1.037 1_555 1_555
H4 C4 0.956 1_555 1_555
H5 C4 1.030 1_555 1_555
H6 C6 0.987 1_555 1_555
H7 C7 0.973 1_555 1_555
H8 C9 0.990 1_555 1_555
H9 C11 1.015 1_555 1_555
H10 C12 0.977 1_555 1_555
H11 C15 0.995 1_555 1_555
H12 C15 1.023 1_555 1_555
H13 C16 0.992 1_555 1_555
H14 C16 1.049 1_555 1_555
H15 C16 1.002 1_555 1_555
H16 C17 1.002 1_555 1_555
H17 C17 1.000 1_555 1_555
H18 C17 0.986 1_555 1_555
C1B C1 1.341 1_555 1_555
C2B C1B 1.518 1_555 1_555
C3B C2B 1.547 1_555 1_555
C4B C3B 1.537 1_555 1_555
C5B C4B 1.502 1_555 1_555
C6B C5B 1.412 1_555 1_555
C7B C6B 1.368 1_555 1_555
C8B C7B 1.413 1_555 1_555
C9B C8B 1.420 1_555 1_555
C10B C9B 1.364 1_555 1_555
C11B C10B 1.422 1_555 1_555
C12B C11B 1.368 1_555 1_555
C13B C8B 1.425 1_555 1_555
C14B C1B 1.491 1_555 1_555
C15B C2B 1.547 1_555 1_555
C16B C15B 1.514 1_555 1_555
C17B C10B 1.509 1_555 1_555
H1B C2B 0.987 1_555 1_555
H2B C3B 1.017 1_555 1_555
H3B C3B 1.037 1_555 1_555
H4B C4B 0.956 1_555 1_555
H5B C4B 1.030 1_555 1_555
H6B C6B 0.987 1_555 1_555
H7B C7B 0.973 1_555 1_555
H8B C9B 0.990 1_555 1_555
H9B C11B 1.015 1_555 1_555
H10B C12B 0.977 1_555 1_555
H11B C15B 0.995 1_555 1_555
H12B C15B 1.023 1_555 1_555
H13B C16B 0.992 1_555 1_555
H14B C16B 1.049 1_555 1_555
H15B C16B 1.002 1_555 1_555
H16B C17B 1.002 1_555 1_555
H17B C17B 1.000 1_555 1_555
H18B C17B 0.986 1_555 1_555
C5 C14 1.387 1_555 1_555
C13 C14 1.426 1_555 1_555
C5B C14B 1.387 1_555 1_555
C12B C13B 1.420 1_555 1_555
C13B C14B 1.426 1_555 1_555
#END
