
#######################################################################
#
#                 Cambridge Crystallographic Data Centre
#                                CCDC
#
#######################################################################
#
# If this CIF has been generated from an entry in the Cambridge
# Structural Database, then it will include bibliographic, chemical,
# crystal, experimental, refinement or atomic coordinate data resulting
# from the CCDC's data processing and validation procedures.
#
#######################################################################

data_CSD_CIF_SAXXOF
_audit_creation_date 2006-02-24
_audit_creation_method CSD-ConQuest-V1
_database_code_CSD SAXXOF
_database_code_depnum_ccdc_archive 'CCDC 291056'
_chemical_formula_sum 'C36 H40'
_chemical_formula_moiety
;
C36 H40
;
_journal_coden_Cambridge 4
_journal_volume 127
_journal_year 2005
_journal_page_first 14208
_journal_name_full 'J.Am.Chem.Soc. '
loop_
_publ_author_name
"M.K.J.ter Wiel"
"R.A.van Delden"
"A.Meetsma"
"B.L.Feringa"
_chemical_name_systematic
;
rac-(3R*,3'R*)-(P*,P*)-trans-(+-)-1,1',2,2',3,3',4,4'-octahydro-3,3'-diisoprop
yl-7,7'-dimethyl-4,4'-biphenanthrylidene
;
_cell_volume   1372.773
_exptl_crystal_colour 'light-yellow'
_exptl_crystal_density_diffrn 1.144
_exptl_special_details
;
The use of the asterisk in the name denotes the use of racemic compounds and 
is used to clarify the relation between the helicity in the molecule and the 
absolute configuration of the C atom of the stereogenic centre
;
_exptl_crystal_description 'block'
_diffrn_ambient_temperature 100
#These two values have been output from a single CSD field.
_refine_ls_R_factor_gt 0.0563
_refine_ls_wR_factor_gt 0.0563
loop_
_citation_database_id_CSD
_citation_special_details
SAZRER "is a stereoisomer of this entry"
SAZRIV "is a stereoisomer of this entry"
_symmetry_cell_setting triclinic
_symmetry_space_group_name_H-M 'P -1'
_symmetry_Int_Tables_number 2
loop_
_symmetry_equiv_pos_site_id
_symmetry_equiv_pos_as_xyz
1 x,y,z
2 -x,-y,-z
_cell_length_a 9.523(4)
_cell_length_b 12.352(5)
_cell_length_c 13.559(5)
_cell_angle_alpha 63.298(6)
_cell_angle_beta 77.596(7)
_cell_angle_gamma 76.146(6)
_cell_formula_units_Z 2
loop_
_atom_type_symbol
_atom_type_radius_bond
C 0.68
H 0.23
loop_
_atom_site_label
_atom_site_type_symbol
_atom_site_fract_x
_atom_site_fract_y
_atom_site_fract_z
C1 C 0.36787(19) 0.02443(17) 0.70977(16)
C2 C 0.3369(2) -0.07644(18) 0.68101(17)
C3 C 0.2778(3) -0.0163(2) 0.5673(2)
C4 C 0.1919(3) 0.1125(2) 0.5411(2)
C5 C 0.2968(2) 0.19126(19) 0.53049(17)
C6 C 0.3066(3) 0.3070(2) 0.4411(2)
C7 C 0.4118(3) 0.3714(2) 0.4282(2)
C8 C 0.5199(2) 0.32023(18) 0.50082(17)
C9 C 0.6388(3) 0.3809(2) 0.4819(2)
C10 C 0.7496(2) 0.3309(2) 0.5457(2)
C11 C 0.7430(2) 0.2142(2) 0.63547(19)
C12 C 0.6273(2) 0.1546(2) 0.65951(18)
C13 C 0.5113(2) 0.20372(18) 0.59335(16)
C14 C 0.3910(2) 0.14219(17) 0.61093(16)
C15 C 0.2361(3) -0.1665(2) 0.7701(2)
C16 C 0.2449(4) -0.2770(3) 0.7458(3)
C17 C 0.0791(3) -0.1097(3) 0.7877(3)
C18 C 0.8777(4) 0.3954(3) 0.5217(4)
C19 C 0.37226(19) 0.00986(17) 0.81514(16)
C20 C 0.3482(2) 0.11741(17) 0.85086(16)
C21 C 0.2938(2) 0.0722(2) 0.97741(17)
C22 C 0.2101(2) -0.0344(2) 1.0230(2)
C23 C 0.3128(2) -0.14048(18) 1.00869(16)
C24 C 0.3260(3) -0.2598(2) 1.09486(19)
C25 C 0.4293(3) -0.3518(2) 1.0824(2)
C26 C 0.5326(2) -0.32781(18) 0.98574(18)
C27 C 0.6508(3) -0.4192(2) 0.9773(2)
C28 C 0.7577(3) -0.3960(2) 0.8890(2)
C29 C 0.7476(3) -0.2765(2) 0.8037(2)
C30 C 0.6315(2) -0.1868(2) 0.80584(19)
C31 C 0.5198(2) -0.20791(18) 0.89693(16)
C32 C 0.4003(2) -0.11463(17) 0.90752(16)
C33 C 0.2462(2) 0.23664(18) 0.78474(19)
C34 C 0.0861(3) 0.2238(3) 0.8045(3)
C35 C 0.2617(3) 0.3440(2) 0.8064(3)
C36 C 0.8865(4) -0.4933(3) 0.8822(4)
H1 H 0.43756 -0.12845 0.67168
H2 H 0.21865 -0.07083 0.56567
H3 H 0.36081 -0.00650 0.50128
H4 H 0.15447 0.14781 0.47048
H5 H 0.11157 0.10916 0.60220
H6 H 0.23714 0.33786 0.38942
H7 H 0.40469 0.45836 0.36751
H8 H 0.63981 0.45675 0.41922
H9 H 0.82431 0.17630 0.68583
H10 H 0.62681 0.07563 0.71866
H11 H 0.27893 -0.20321 0.84122
H12 H 0.35185 -0.32341 0.74008
H13 H 0.19360 -0.25407 0.68119
H14 H 0.19742 -0.34052 0.80873
H15 H 0.02672 -0.16824 0.85058
H16 H 0.07259 -0.03541 0.79751
H17 H 0.02341 -0.07842 0.72505
H18 H 0.97400 0.34815 0.51639
H19 H 0.86331 0.47427 0.46306
H20 H 0.87353 0.41986 0.58677
H21 H 0.44497 0.14430 0.83985
H22 H 0.23883 0.14053 0.99424
H23 H 0.37866 0.04440 1.02073
H24 H 0.17637 -0.05892 1.10161
H25 H 0.12413 -0.00925 0.98197
H26 H 0.25537 -0.27501 1.16658
H27 H 0.42859 -0.43713 1.14276
H28 H 0.65491 -0.50267 1.04222
H29 H 0.82712 -0.25519 0.74303
H30 H 0.62340 -0.10612 0.74646
H31 H 0.28132 0.25832 0.70479
H32 H 0.02899 0.30098 0.75472
H33 H 0.07606 0.15471 0.79520
H34 H 0.03920 0.20771 0.88506
H35 H 0.36680 0.35726 0.78815
H36 H 0.20301 0.41922 0.75780
H37 H 0.22853 0.32767 0.88849
H38 H 0.98196 -0.46840 0.86752
H39 H 0.87762 -0.52142 0.83126
H40 H 0.86339 -0.57049 0.94264
loop_
_geom_bond_atom_site_label_1
_geom_bond_atom_site_label_2
_geom_bond_distance
_geom_bond_site_symmetry_1
_geom_bond_site_symmetry_2
C1 C2 1.566 1_555 1_555
C2 C3 1.546 1_555 1_555
C3 C4 1.523 1_555 1_555
C4 C5 1.498 1_555 1_555
C5 C6 1.407 1_555 1_555
C6 C7 1.360 1_555 1_555
C7 C8 1.412 1_555 1_555
C8 C9 1.421 1_555 1_555
C9 C10 1.358 1_555 1_555
C10 C11 1.413 1_555 1_555
C11 C12 1.371 1_555 1_555
C12 C13 1.417 1_555 1_555
C13 C8 1.429 1_555 1_555
C14 C1 1.495 1_555 1_555
C15 C2 1.557 1_555 1_555
C16 C15 1.522 1_555 1_555
C17 C15 1.510 1_555 1_555
C18 C10 1.513 1_555 1_555
C19 C1 1.366 1_555 1_555
C20 C19 1.561 1_555 1_555
C21 C20 1.556 1_555 1_555
C22 C21 1.520 1_555 1_555
C23 C22 1.498 1_555 1_555
C24 C23 1.407 1_555 1_555
C25 C24 1.361 1_555 1_555
C26 C25 1.418 1_555 1_555
C27 C26 1.417 1_555 1_555
C28 C27 1.364 1_555 1_555
C29 C28 1.404 1_555 1_555
C30 C29 1.371 1_555 1_555
C31 C26 1.426 1_555 1_555
C32 C19 1.490 1_555 1_555
C33 C20 1.555 1_555 1_555
C34 C33 1.524 1_555 1_555
C35 C33 1.526 1_555 1_555
C36 C28 1.517 1_555 1_555
H1 C2 1.036 1_555 1_555
H2 C3 0.986 1_555 1_555
H3 C3 1.042 1_555 1_555
H4 C4 0.965 1_555 1_555
H5 C4 0.993 1_555 1_555
H6 C6 0.955 1_555 1_555
H7 C7 1.015 1_555 1_555
H8 C9 0.941 1_555 1_555
H9 C11 1.025 1_555 1_555
H10 C12 0.945 1_555 1_555
H11 C15 0.995 1_555 1_555
H12 C16 1.048 1_555 1_555
H13 C16 0.990 1_555 1_555
H14 C16 0.975 1_555 1_555
H15 C17 0.967 1_555 1_555
H16 C17 0.971 1_555 1_555
H17 C17 0.976 1_555 1_555
H18 C18 0.969 1_555 1_555
H19 C18 0.942 1_555 1_555
H20 C18 1.044 1_555 1_555
H21 C20 1.012 1_555 1_555
H22 C21 0.974 1_555 1_555
H23 C21 1.003 1_555 1_555
H24 C22 0.970 1_555 1_555
H25 C22 0.997 1_555 1_555
H26 C24 1.024 1_555 1_555
H27 C25 1.003 1_555 1_555
H28 C27 1.010 1_555 1_555
H29 C29 0.976 1_555 1_555
H30 C30 0.957 1_555 1_555
H31 C33 0.992 1_555 1_555
H32 C34 0.996 1_555 1_555
H33 C34 0.946 1_555 1_555
H34 C34 1.034 1_555 1_555
H35 C35 1.013 1_555 1_555
H36 C35 0.984 1_555 1_555
H37 C35 1.028 1_555 1_555
H38 C36 0.981 1_555 1_555
H39 C36 0.927 1_555 1_555
H40 C36 0.975 1_555 1_555
C5 C14 1.388 1_555 1_555
C13 C14 1.444 1_555 1_555
C23 C32 1.386 1_555 1_555
C30 C31 1.416 1_555 1_555
C31 C32 1.447 1_555 1_555
#END
