
#######################################################################
#
#                 Cambridge Crystallographic Data Centre
#                                CCDC
#
#######################################################################
#
# If this CIF has been generated from an entry in the Cambridge
# Structural Database, then it will include bibliographic, chemical,
# crystal, experimental, refinement or atomic coordinate data resulting
# from the CCDC's data processing and validation procedures.
#
#######################################################################

data_CSD_CIF_SAZQUG
_audit_creation_date 2006-02-24
_audit_creation_method CSD-ConQuest-V1
_database_code_CSD SAZQUG
_database_code_depnum_ccdc_archive 'CCDC 291059'
_chemical_formula_sum 'C32 H32'
_chemical_formula_moiety
;
C32 H32
;
_journal_coden_Cambridge 4
_journal_volume 127
_journal_year 2005
_journal_page_first 14208
_journal_name_full 'J.Am.Chem.Soc. '
loop_
_publ_author_name
"M.K.J.ter Wiel"
"R.A.van Delden"
"A.Meetsma"
"B.L.Feringa"
_chemical_name_systematic
;
rac-(3R*,3'R*)-(P*,P*)-cis-(+-)-1,1',2,2',3,3',4,4'-Octahydro-3,3'-tetramethyl
-4,4'-biphenanthrylidene
;
_cell_volume   4851.489
_exptl_crystal_colour 'colorless'
_exptl_crystal_density_diffrn 1.141
_exptl_special_details
;
The use of the asterisk in the name denotes the use of racemic compounds and 
is used to clarify the relation between the helicity in the molecule and the 
absolute configuration of the C atom of the stereogenic centre
;
_exptl_crystal_description 'block'
_exptl_crystal_preparation 'heptane'
_diffrn_ambient_temperature 100
#These two values have been output from a single CSD field.
_refine_ls_R_factor_gt 0.0514
_refine_ls_wR_factor_gt 0.0514
loop_
_citation_database_id_CSD
_citation_special_details
HUTGOS "is a stereoisomer of this entry"
_symmetry_cell_setting orthorhombic
_symmetry_space_group_name_H-M 'P b c a'
_symmetry_Int_Tables_number 61
loop_
_symmetry_equiv_pos_site_id
_symmetry_equiv_pos_as_xyz
1 x,y,z
2 1/2-x,-y,1/2+z
3 1/2+x,1/2-y,-z
4 -x,1/2+y,1/2-z
5 -x,-y,-z
6 -1/2+x,y,-1/2-z
7 -1/2-x,-1/2+y,z
8 x,-1/2-y,-1/2+z
_cell_length_a 11.736(3)
_cell_length_b 16.546(4)
_cell_length_c 24.984(5)
_cell_angle_alpha 90
_cell_angle_beta 90
_cell_angle_gamma 90
_cell_formula_units_Z 8
loop_
_atom_type_symbol
_atom_type_radius_bond
C 0.68
H 0.23
loop_
_atom_site_label
_atom_site_type_symbol
_atom_site_fract_x
_atom_site_fract_y
_atom_site_fract_z
C1 C 0.24287(17) 0.07317(12) 0.08343(9)
C2 C 0.15509(17) 0.10713(12) 0.11974(9)
C3 C 0.15859(17) 0.10110(12) 0.17652(9)
C4 C 0.25185(18) 0.06834(13) 0.20504(10)
C5 C 0.2519(2) 0.06462(15) 0.25935(11)
C6 C 0.1598(2) 0.09274(15) 0.28965(10)
C7 C 0.0694(2) 0.12506(15) 0.26315(11)
C8 C 0.06618(18) 0.13157(12) 0.20682(10)
C9 C -0.0249(2) 0.16962(14) 0.17984(12)
C10 C -0.0234(2) 0.17876(15) 0.12621(12)
C11 C 0.06677(19) 0.14827(13) 0.09544(10)
C12 C 0.0734(3) 0.1594(2) 0.03617(12)
C13 C 0.1906(3) 0.1899(2) 0.02242(16)
C14 C 0.2872(2) 0.13480(14) 0.04279(11)
C15 C 0.1645(4) 0.0886(3) 0.35013(13)
C16 C 0.3830(4) 0.1841(3) 0.06693(19)
C17 C 0.27753(17) -0.00441(12) 0.08362(8)
C18 C 0.23335(17) -0.06760(11) 0.12037(8)
C19 C 0.11551(17) -0.08666(12) 0.12754(8)
C20 C 0.02761(19) -0.05311(14) 0.09633(10)
C21 C -0.0835(2) -0.07342(16) 0.10465(11)
C22 C -0.1156(2) -0.12829(16) 0.14485(12)
C23 C -0.0322(2) -0.16215(17) 0.17443(12)
C24 C 0.08451(19) -0.14400(13) 0.16712(9)
C25 C 0.1709(2) -0.18328(16) 0.19632(11)
C26 C 0.2822(2) -0.16880(15) 0.18605(11)
C27 C 0.31471(17) -0.11085(13) 0.14831(9)
C28 C 0.4370(2) -0.09447(19) 0.13550(11)
C29 C 0.4518(2) -0.09464(18) 0.07539(12)
C30 C 0.3712(2) -0.03536(15) 0.04666(10)
C31 C -0.2401(3) -0.1487(4) 0.1538(3)
C32 C 0.3189(3) -0.0733(2) -0.00266(13)
H1 H 0.31775 0.05064 0.18553
H2 H 0.31723 0.04354 0.27673
H3 H 0.00542 0.14621 0.28396
H4 H -0.09062 0.19009 0.20252
H5 H -0.08541 0.20841 0.10710
H6 H 0.01253 0.19908 0.02490
H7 H 0.05881 0.10479 0.01724
H8 H 0.20390 0.24539 0.04049
H9 H 0.20226 0.19821 -0.01526
H10 H 0.31596 0.10646 0.01114
H11 H 0.21936 0.11921 0.36834
H12 H 0.16160 0.03032 0.36166
H13 H 0.09774 0.10926 0.36886
H14 H 0.45497 0.15120 0.07913
H15 H 0.40631 0.22582 0.03943
H16 H 0.34608 0.21552 0.09570
H17 H 0.04872 -0.01602 0.06704
H18 H -0.14599 -0.04886 0.08239
H19 H -0.04949 -0.20040 0.19979
H20 H 0.14763 -0.22458 0.22232
H21 H 0.34269 -0.19667 0.20662
H22 H 0.48884 -0.13407 0.15260
H23 H 0.45784 -0.03973 0.15078
H24 H 0.53509 -0.08353 0.06643
H25 H 0.43239 -0.15175 0.06280
H26 H 0.42038 0.01125 0.03567
H27 H -0.24300 -0.19622 0.17084
H28 H -0.27422 -0.14944 0.12074
H29 H -0.28424 -0.10574 0.16202
H30 H 0.37518 -0.09975 -0.02522
H31 H 0.26167 -0.11816 0.00620
H32 H 0.27633 -0.03406 -0.02470
loop_
_geom_bond_atom_site_label_1
_geom_bond_atom_site_label_2
_geom_bond_distance
_geom_bond_site_symmetry_1
_geom_bond_site_symmetry_2
C1 C2 1.483 1_555 1_555
C2 C3 1.423 1_555 1_555
C3 C4 1.414 1_555 1_555
C4 C5 1.358 1_555 1_555
C5 C6 1.399 1_555 1_555
C6 C7 1.360 1_555 1_555
C7 C8 1.412 1_555 1_555
C8 C3 1.415 1_555 1_555
C9 C8 1.412 1_555 1_555
C10 C9 1.349 1_555 1_555
C11 C2 1.381 1_555 1_555
C12 C11 1.494 1_555 1_555
C13 C12 1.505 1_555 1_555
C14 C1 1.530 1_555 1_555
C15 C6 1.514 1_555 1_555
C16 C14 1.514 1_555 1_555
C17 C1 1.347 1_555 1_555
C18 C17 1.485 1_555 1_555
C19 C18 1.430 1_555 1_555
C20 C19 1.407 1_555 1_555
C21 C20 1.363 1_555 1_555
C22 C21 1.405 1_555 1_555
C23 C22 1.348 1_555 1_555
C24 C19 1.418 1_555 1_555
C25 C24 1.408 1_555 1_555
C26 C25 1.353 1_555 1_555
C27 C18 1.382 1_555 1_555
C28 C27 1.495 1_555 1_555
C29 C28 1.512 1_555 1_555
C30 C17 1.524 1_555 1_555
C31 C22 1.516 1_555 1_555
C32 C30 1.513 1_555 1_555
H1 C4 0.960 1_555 1_555
H2 C5 0.948 1_555 1_555
H3 C7 0.978 1_555 1_555
H4 C9 1.015 1_555 1_555
H5 C10 0.999 1_555 1_555
H6 C12 1.010 1_555 1_555
H7 C12 1.034 1_555 1_555
H8 C13 1.035 1_555 1_555
H9 C13 0.961 1_555 1_555
H10 C14 0.979 1_555 1_555
H11 C15 0.937 1_555 1_555
H12 C15 1.007 1_555 1_555
H13 C15 0.975 1_555 1_555
H14 C16 1.050 1_555 1_555
H15 C16 1.012 1_555 1_555
H16 C16 0.987 1_555 1_555
H17 C20 0.987 1_555 1_555
H18 C21 1.006 1_555 1_555
H19 C23 0.918 1_555 1_555
H20 C25 0.982 1_555 1_555
H21 C26 0.990 1_555 1_555
H22 C28 0.991 1_555 1_555
H23 C28 1.013 1_555 1_555
H24 C29 1.020 1_555 1_555
H25 C29 1.022 1_555 1_555
H26 C30 1.002 1_555 1_555
H27 C31 0.895 1_555 1_555
H28 C31 0.918 1_555 1_555
H29 C31 0.903 1_555 1_555
H30 C32 0.972 1_555 1_555
H31 C32 1.025 1_555 1_555
H32 C32 0.987 1_555 1_555
C10 C11 1.402 1_555 1_555
C13 C14 1.541 1_555 1_555
C23 C24 1.414 1_555 1_555
C26 C27 1.398 1_555 1_555
C29 C30 1.540 1_555 1_555
#END
