
#######################################################################
#
#                 Cambridge Crystallographic Data Centre
#                                CCDC
#
#######################################################################
#
# If this CIF has been generated from an entry in the Cambridge
# Structural Database, then it will include bibliographic, chemical,
# crystal, experimental, refinement or atomic coordinate data resulting
# from the CCDC's data processing and validation procedures.
#
#######################################################################

data_CSD_CIF_SAZRAN
_audit_creation_date 2006-02-24
_audit_creation_method CSD-ConQuest-V1
_database_code_CSD SAZRAN
_database_code_depnum_ccdc_archive 'CCDC 291060'
_chemical_formula_sum 'C34 H36'
_chemical_formula_moiety
;
C34 H36
;
_journal_coden_Cambridge 4
_journal_volume 127
_journal_year 2005
_journal_page_first 14208
_journal_name_full 'J.Am.Chem.Soc. '
loop_
_publ_author_name
"M.K.J.ter Wiel"
"R.A.van Delden"
"A.Meetsma"
"B.L.Feringa"
_chemical_name_systematic
;
rac-(3R*,3'R*)-(P*,P*)-cis-(+-)-1,1',2,2',3,3',4,4'-octahydro-3,3'-diethyl-7,7
'-dimethyl-4,4'-biphenanthrylidene
;
_cell_volume   5022.813
_exptl_crystal_colour 'colorless'
_exptl_crystal_density_diffrn 1.176
_exptl_special_details
;
The use of the asterisk in the name denotes the use of racemic compounds and 
is used to clarify the relation between the helicity in the molecule and the 
absolute configuration of the C atom of the stereogenic centre
;
_exptl_crystal_description 'platelet'
_diffrn_ambient_temperature 100
#These two values have been output from a single CSD field.
_refine_ls_R_factor_gt 0.0474
_refine_ls_wR_factor_gt 0.0474
loop_
_citation_database_id_CSD
_citation_special_details
SAXXUL "is a stereoisomer of this entry"
_symmetry_cell_setting orthorhombic
_symmetry_space_group_name_H-M 'P b c a'
_symmetry_Int_Tables_number 61
loop_
_symmetry_equiv_pos_site_id
_symmetry_equiv_pos_as_xyz
1 x,y,z
2 1/2-x,-y,1/2+z
3 1/2+x,1/2-y,-z
4 -x,1/2+y,1/2-z
5 -x,-y,-z
6 -1/2+x,y,-1/2-z
7 -1/2-x,-1/2+y,z
8 x,-1/2-y,-1/2+z
_cell_length_a 11.8625(6)
_cell_length_b 16.6360(8)
_cell_length_c 25.452(1)
_cell_angle_alpha 90
_cell_angle_beta 90
_cell_angle_gamma 90
_cell_formula_units_Z 8
loop_
_atom_type_symbol
_atom_type_radius_bond
C 0.68
H 0.23
loop_
_atom_site_label
_atom_site_type_symbol
_atom_site_fract_x
_atom_site_fract_y
_atom_site_fract_z
C1 C 0.24959(12) 0.23245(9) 0.09373(6)
C2 C 0.29484(13) 0.29630(9) 0.05605(6)
C3 C 0.20107(14) 0.35514(11) 0.03872(8)
C4 C 0.08286(14) 0.32337(11) 0.05110(7)
C5 C 0.07704(12) 0.30808(9) 0.10910(6)
C6 C -0.01124(13) 0.33788(9) 0.14062(7)
C7 C -0.01138(14) 0.32513(10) 0.19344(7)
C8 C 0.07939(12) 0.28486(9) 0.21828(6)
C9 C 0.08418(14) 0.27544(10) 0.27377(6)
C10 C 0.17441(14) 0.24028(10) 0.29829(6)
C11 C 0.26509(14) 0.21279(10) 0.26684(6)
C12 C 0.26303(13) 0.22050(9) 0.21337(6)
C13 C 0.16994(13) 0.25548(9) 0.18703(6)
C14 C 0.16452(12) 0.26491(9) 0.13130(6)
C15 C 0.39367(15) 0.34143(10) 0.08105(7)
C16 C 0.44764(15) 0.40294(11) 0.04457(7)
C17 C 0.18050(18) 0.23169(14) 0.35722(7)
C18 C 0.28099(12) 0.15440(9) 0.09161(6)
C19 C 0.37120(13) 0.12304(9) 0.05395(6)
C20 C 0.45407(14) 0.06514(10) 0.08224(6)
C21 C 0.43972(14) 0.06502(10) 0.14202(6)
C22 C 0.31809(13) 0.04731(9) 0.15416(6)
C23 C 0.28633(15) -0.01243(10) 0.19053(6)
C24 C 0.17533(15) -0.02793(10) 0.20005(6)
C25 C 0.08963(13) 0.01309(9) 0.17220(6)
C26 C -0.02611(14) -0.00602(10) 0.17928(7)
C27 C -0.10954(14) 0.0293(1) 0.15045(6)
C28 C -0.07771(13) 0.08679(10) 0.11203(7)
C29 C 0.03286(13) 0.10759(9) 0.10464(6)
C30 C 0.12051(13) 0.07239(9) 0.13464(6)
C31 C 0.23726(13) 0.09097(9) 0.12736(6)
C32 C 0.31645(14) 0.0805(1) 0.00663(6)
C33 C 0.25502(15) 0.13558(11) -0.03134(7)
C34 C -0.23226(15) 0.00804(13) 0.15835(8)
H1 H 0.32250 0.27032 0.02377
H2 H 0.21191 0.40990 0.05933
H3 H 0.20780 0.36813 0.00147
H4 H 0.02637 0.36345 0.04047
H5 H 0.06620 0.27389 0.03025
H6 H -0.07305 0.36813 0.12359
H7 H -0.07167 0.34410 0.21596
H8 H 0.02102 0.29538 0.29412
H9 H 0.33110 0.18854 0.28491
H10 H 0.32673 0.20340 0.19281
H11 H 0.45372 0.30066 0.09376
H12 H 0.36363 0.36790 0.11314
H13 H 0.47767 0.37568 0.01240
H14 H 0.51126 0.43005 0.06299
H15 H 0.39269 0.44576 0.03416
H16 H 0.12948 0.26910 0.37514
H17 H 0.25887 0.24284 0.37032
H18 H 0.16438 0.17477 0.36863
H19 H 0.41530 0.16941 0.04026
H20 H 0.43950 0.00912 0.06958
H21 H 0.53279 0.07994 0.07168
H22 H 0.48958 0.02558 0.15967
H23 H 0.46215 0.11960 0.15678
H24 H 0.34417 -0.04166 0.20859
H25 H 0.15335 -0.06828 0.22545
H26 H -0.04554 -0.04710 0.20507
H27 H -0.13943 0.11043 0.08954
H28 H 0.05211 0.14517 0.07745
H29 H 0.26170 0.03831 0.02066
H30 H 0.37659 0.05217 -0.01302
H31 H 0.19240 0.16452 -0.01309
H32 H 0.22210 0.10351 -0.06209
H33 H 0.30912 0.17450 -0.04763
H34 H -0.24041 -0.04983 0.17212
H35 H -0.27556 0.01118 0.12397
H36 H -0.27068 0.04449 0.18457
loop_
_geom_bond_atom_site_label_1
_geom_bond_atom_site_label_2
_geom_bond_distance
_geom_bond_site_symmetry_1
_geom_bond_site_symmetry_2
C1 C2 1.528 1_555 1_555
C2 C3 1.546 1_555 1_555
C3 C4 1.531 1_555 1_555
C4 C5 1.500 1_555 1_555
C5 C6 1.409 1_555 1_555
C6 C7 1.361 1_555 1_555
C7 C8 1.417 1_555 1_555
C8 C9 1.422 1_555 1_555
C9 C10 1.370 1_555 1_555
C10 C11 1.417 1_555 1_555
C11 C12 1.367 1_555 1_555
C12 C13 1.417 1_555 1_555
C13 C8 1.423 1_555 1_555
C14 C1 1.491 1_555 1_555
C15 C2 1.531 1_555 1_555
C16 C15 1.523 1_555 1_555
C17 C10 1.508 1_555 1_555
C18 C1 1.352 1_555 1_555
C19 C18 1.528 1_555 1_555
C20 C19 1.553 1_555 1_555
C21 C20 1.531 1_555 1_555
C22 C21 1.505 1_555 1_555
C23 C22 1.409 1_555 1_555
C24 C23 1.363 1_555 1_555
C25 C24 1.415 1_555 1_555
C26 C25 1.421 1_555 1_555
C27 C26 1.365 1_555 1_555
C28 C27 1.419 1_555 1_555
C29 C28 1.369 1_555 1_555
C30 C25 1.422 1_555 1_555
C31 C18 1.487 1_555 1_555
C32 C19 1.541 1_555 1_555
C33 C32 1.518 1_555 1_555
C34 C27 1.512 1_555 1_555
H1 C2 0.985 1_555 1_555
H2 C3 1.059 1_555 1_555
H3 C3 0.976 1_555 1_555
H4 C4 0.983 1_555 1_555
H5 C4 0.999 1_555 1_555
H6 C6 0.989 1_555 1_555
H7 C7 0.969 1_555 1_555
H8 C9 0.969 1_555 1_555
H9 C11 0.994 1_555 1_555
H10 C12 0.962 1_555 1_555
H11 C15 1.035 1_555 1_555
H12 C15 0.994 1_555 1_555
H13 C16 1.001 1_555 1_555
H14 C16 0.996 1_555 1_555
H15 C16 1.001 1_555 1_555
H16 C17 0.981 1_555 1_555
H17 C17 1.005 1_555 1_555
H18 C17 1.009 1_555 1_555
H19 C19 0.995 1_555 1_555
H20 C20 1.001 1_555 1_555
H21 C20 1.002 1_555 1_555
H22 C21 0.991 1_555 1_555
H23 C21 1.018 1_555 1_555
H24 C23 0.958 1_555 1_555
H25 C24 0.968 1_555 1_555
H26 C26 0.975 1_555 1_555
H27 C28 1.009 1_555 1_555
H28 C29 0.960 1_555 1_555
H29 C32 1.021 1_555 1_555
H30 C32 0.991 1_555 1_555
H31 C33 1.000 1_555 1_555
H32 C33 1.025 1_555 1_555
H33 C33 1.001 1_555 1_555
H34 C34 1.029 1_555 1_555
H35 C34 1.016 1_555 1_555
H36 C34 1.010 1_555 1_555
C5 C14 1.383 1_555 1_555
C13 C14 1.429 1_555 1_555
C22 C31 1.383 1_555 1_555
C29 C30 1.417 1_555 1_555
C30 C31 1.431 1_555 1_555
#END
