
#######################################################################
#
#                 Cambridge Crystallographic Data Centre
#                                CCDC
#
#######################################################################
#
# If this CIF has been generated from an entry in the Cambridge
# Structural Database, then it will include bibliographic, chemical,
# crystal, experimental, refinement or atomic coordinate data resulting
# from the CCDC's data processing and validation procedures.
#
#######################################################################

data_CSD_CIF_SEHNAW01
_audit_creation_date 2013-02-22
_audit_creation_method CSD-ConQuest-V1
_database_code_CSD SEHNAW01
_database_code_depnum_ccdc_archive 'CCDC 885362'
_chemical_formula_sum 'C26 H18'
_chemical_formula_moiety
;
C26 H18
;
_journal_coden_Cambridge 1350
_journal_volume 14
_journal_year 2012
_journal_page_first 8286
_journal_name_full 'CrystEngComm '
loop_
_publ_author_name
"Ye-Xin Li"
"Hong-Bo Zhou"
"Jin-Ling Miao"
"Guo-Xin Sun"
"Guo-Bao Li"
"Yong Nie"
"Chang-Long Chen"
"Zhi Chen"
"Xu-Tang Tao"
_chemical_name_systematic
;
9-(2-(1-Naphthyl)vinyl)anthracene
;
_cell_volume   1745.176
_exptl_crystal_colour 'yellow'
_exptl_crystal_density_diffrn 1.258
_exptl_special_details
;
orthorhombic P212121 polymorph

;
_exptl_crystal_description 'needle'
_diffrn_ambient_temperature 293.1
#These two values have been output from a single CSD field.
_refine_ls_R_factor_gt 0.0474
_refine_ls_wR_factor_gt 0.0474
_symmetry_cell_setting orthorhombic
_symmetry_space_group_name_H-M 'P 21 21 21'
_symmetry_Int_Tables_number 19
loop_
_symmetry_equiv_pos_site_id
_symmetry_equiv_pos_as_xyz
1 x,y,z
2 1/2-x,-y,1/2+z
3 1/2+x,1/2-y,-z
4 -x,1/2+y,1/2-z
_cell_length_a 5.5771(3)
_cell_length_b 12.0652(6)
_cell_length_c 25.9356(12)
_cell_angle_alpha 90
_cell_angle_beta 90
_cell_angle_gamma 90
_cell_formula_units_Z 4
loop_
_atom_type_symbol
_atom_type_radius_bond
C 0.68
H 0.23
loop_
_atom_site_label
_atom_site_type_symbol
_atom_site_fract_x
_atom_site_fract_y
_atom_site_fract_z
C1 C 0.4702(5) 0.8241(2) 0.07418(9)
C2 C -0.0386(6) 0.5026(2) 0.21129(10)
C3 C 0.1333(5) 0.5007(2) 0.17086(10)
C4 C 0.6397(6) 0.9122(2) 0.06955(10)
C5 C 0.6932(6) 0.7578(2) 0.14797(10)
H1 H 0.71550 0.70590 0.17410
C6 C 0.2835(6) 0.8181(2) 0.0378(1)
H2 H 0.17160 0.76130 0.04030
C7 C 0.1363(6) 0.4093(2) 0.13674(10)
C8 C 0.8306(6) 0.9207(2) 0.10478(11)
H3 H 0.93940 0.97870 0.10170
C9 C -0.0448(6) 0.3254(2) 0.14036(11)
C10 C -0.2162(6) 0.3312(2) 0.17924(11)
H4 H -0.33480 0.27720 0.18110
C11 C 0.6117(6) 0.9890(2) 0.02865(11)
H5 H 0.72100 1.04680 0.02530
C12 C 0.5007(5) 0.7459(2) 0.11553(10)
C13 C 0.8582(6) 0.8454(2) 0.14326(11)
H6 H 0.98530 0.85160 0.16630
C14 C 0.3330(6) 0.6527(2) 0.12252(10)
H7 H 0.24040 0.63300 0.09410
C15 C -0.0482(7) 0.5903(2) 0.24866(10)
H8 H 0.06220 0.64790 0.24690
C16 C 0.3010(6) 0.5941(2) 0.16512(10)
H9 H 0.39190 0.61350 0.19380
C17 C -0.2136(6) 0.4165(2) 0.21543(10)
C18 C 0.2624(6) 0.8944(2) -0.00139(10)
H10 H 0.13720 0.88860 -0.02490
C19 C -0.3869(6) 0.4211(3) 0.25585(11)
H11 H -0.50180 0.36560 0.25850
C20 C -0.2165(7) 0.5904(3) 0.28672(11)
H12 H -0.21890 0.64780 0.31070
C21 C 0.4286(7) 0.9805(2) -0.00592(11)
H13 H 0.41430 1.03190 -0.03250
C22 C 0.3222(7) 0.3928(2) 0.09923(11)
H14 H 0.44550 0.44440 0.09640
C23 C -0.3868(7) 0.5047(3) 0.29024(12)
H15 H -0.50010 0.50580 0.31650
C24 C 0.1346(8) 0.2240(3) 0.07029(13)
H16 H 0.13460 0.16380 0.04790
C25 C -0.0428(7) 0.2354(2) 0.10491(12)
H17 H -0.16620 0.18360 0.10570
C26 C 0.3200(8) 0.3025(3) 0.06774(11)
H18 H 0.44360 0.29260 0.04410
loop_
_geom_bond_atom_site_label_1
_geom_bond_atom_site_label_2
_geom_bond_distance
_geom_bond_site_symmetry_1
_geom_bond_site_symmetry_2
C1 C4 1.428 1_555 1_555
C2 C3 1.421 1_555 1_555
C3 C7 1.414 1_555 1_555
C4 C8 1.407 1_555 1_555
C5 H1 0.931 1_555 1_555
C6 C1 1.407 1_555 1_555
H2 C6 0.929 1_555 1_555
C7 C9 1.433 1_555 1_555
C8 H3 0.930 1_555 1_555
C9 C10 1.391 1_555 1_555
C10 H4 0.930 1_555 1_555
C11 C4 1.417 1_555 1_555
H5 C11 0.930 1_555 1_555
C12 C1 1.438 1_555 1_555
C13 C5 1.407 1_555 1_555
H6 C13 0.930 1_555 1_555
C14 C12 1.474 1_555 1_555
H7 C14 0.931 1_555 1_555
C15 C2 1.436 1_555 1_555
H8 C15 0.930 1_555 1_555
C16 C3 1.472 1_555 1_555
H9 C16 0.930 1_555 1_555
C17 C2 1.429 1_555 1_555
C18 C6 1.376 1_555 1_555
H10 C18 0.930 1_555 1_555
C19 C17 1.427 1_555 1_555
H11 C19 0.929 1_555 1_555
C20 C15 1.362 1_555 1_555
H12 C20 0.931 1_555 1_555
C21 C11 1.363 1_555 1_555
H13 C21 0.931 1_555 1_555
C22 C7 1.436 1_555 1_555
H14 C22 0.931 1_555 1_555
C23 C19 1.346 1_555 1_555
H15 C23 0.929 1_555 1_555
C24 H16 0.930 1_555 1_555
C25 C9 1.423 1_555 1_555
H17 C25 0.930 1_555 1_555
C26 C22 1.362 1_555 1_555
H18 C26 0.930 1_555 1_555
C5 C12 1.372 1_555 1_555
C8 C13 1.358 1_555 1_555
C10 C17 1.393 1_555 1_555
C14 C16 1.324 1_555 1_555
C18 C21 1.397 1_555 1_555
C20 C23 1.407 1_555 1_555
C24 C25 1.343 1_555 1_555
C24 C26 1.404 1_555 1_555
#END
