
#######################################################################
#
#                 Cambridge Crystallographic Data Centre
#                                CCDC
#
#######################################################################
#
# If this CIF has been generated from an entry in the Cambridge
# Structural Database, then it will include bibliographic, chemical,
# crystal, experimental, refinement or atomic coordinate data resulting
# from the CCDC's data processing and validation procedures.
#
#######################################################################

data_CSD_CIF_SEJFEU
_audit_creation_date 2013-02-22
_audit_creation_method CSD-ConQuest-V1
_database_code_CSD SEJFEU
_database_code_depnum_ccdc_archive 'CCDC 894151'
_chemical_formula_sum 'C27 H20'
_chemical_formula_moiety
;
C27 H20
;
_journal_coden_Cambridge 1500
_journal_volume 2
_journal_year 2012
_journal_page_first 11529
_journal_name_full 'RSC Advances '
loop_
_publ_author_name
"Lijian Yang"
"Junwei Ye"
"Lifeng Xu"
"Xinyu Yang"
"Weitao Gong"
"Yuan Lin"
"Guiling Ning"
_chemical_name_systematic
;
1-(3,4-Diphenylcyclopenta-1,3-dien-1-yl)naphthalene
;
_cell_volume   1930.375
_exptl_crystal_colour 'yellow'
_exptl_crystal_density_diffrn 1.185
_exptl_crystal_description 'block'
_diffrn_ambient_temperature 293
#These two values have been output from a single CSD field.
_refine_ls_R_factor_gt 0.0528
_refine_ls_wR_factor_gt 0.0528
_symmetry_cell_setting orthorhombic
_symmetry_space_group_name_H-M 'P c a 21'
_symmetry_Int_Tables_number 29
loop_
_symmetry_equiv_pos_site_id
_symmetry_equiv_pos_as_xyz
1 x,y,z
2 -x,-y,1/2+z
3 1/2-x,y,1/2+z
4 1/2+x,-y,z
_cell_length_a 14.060(5)
_cell_length_b 17.548(6)
_cell_length_c 7.824(3)
_cell_angle_alpha 90
_cell_angle_beta 90
_cell_angle_gamma 90
_cell_formula_units_Z 4
loop_
_atom_type_symbol
_atom_type_radius_bond
C 0.68
H 0.23
loop_
_atom_site_label
_atom_site_type_symbol
_atom_site_fract_x
_atom_site_fract_y
_atom_site_fract_z
C1 C 0.33647(18) 0.33711(17) 0.3001(4)
C2 C 0.3935(2) 0.27859(17) 0.2540(4)
C3 C 0.3359(2) 0.20993(17) 0.2337(4)
H1 H 0.35940 0.16260 0.20050
C4 C 0.2433(2) 0.22477(16) 0.2699(4)
C5 C 0.23608(19) 0.30652(15) 0.3149(4)
H2 H 0.21230 0.31270 0.43040
H3 H 0.19380 0.33290 0.23680
C6 C 0.3582(2) 0.41782(16) 0.3250(4)
C7 C 0.3115(2) 0.4599(2) 0.4485(4)
H4 H 0.26580 0.43640 0.51640
C8 C 0.3310(3) 0.5358(3) 0.4731(6)
H5 H 0.29920 0.56290 0.55770
C9 C 0.3969(3) 0.5714(2) 0.3741(7)
H6 H 0.41050 0.62270 0.39100
C10 C 0.4427(3) 0.5312(2) 0.2499(6)
H7 H 0.48750 0.55550 0.18140
C11 C 0.4235(2) 0.45526(18) 0.2246(5)
H8 H 0.45510 0.42890 0.13850
C12 C 0.4982(2) 0.27582(17) 0.2350(4)
C13 C 0.5578(2) 0.31583(18) 0.3428(5)
H9 H 0.53220 0.34610 0.42880
C14 C 0.6558(3) 0.3112(2) 0.3235(6)
H10 H 0.69560 0.33850 0.39600
C15 C 0.6937(3) 0.2661(3) 0.1973(7)
H11 H 0.75940 0.26270 0.18450
C16 C 0.6356(3) 0.2266(2) 0.0914(6)
H12 H 0.66170 0.19620 0.00610
C17 C 0.5380(2) 0.23111(19) 0.1089(4)
H13 H 0.49880 0.20380 0.03520
C18 C 0.1604(2) 0.17376(18) 0.2572(4)
C19 C 0.1659(2) 0.09469(19) 0.3021(4)
C20 C 0.2453(3) 0.06163(19) 0.3809(4)
H14 H 0.29680 0.09210 0.41030
C21 C 0.2481(3) -0.0149(2) 0.4153(4)
H15 H 0.30160 -0.03590 0.46680
C22 C 0.1711(3) -0.0614(2) 0.3733(5)
H16 H 0.17430 -0.11370 0.39250
C23 C 0.0926(3) -0.0309(2) 0.3054(5)
H17 H 0.04110 -0.06230 0.28100
C24 C 0.0858(3) 0.0475(2) 0.2698(4)
C25 C 0.0034(3) 0.0799(3) 0.2027(5)
H18 H -0.04910 0.04890 0.18310
C26 C -0.0026(3) 0.1552(3) 0.1649(6)
H19 H -0.05900 0.17570 0.12300
C27 C 0.0779(2) 0.2021(2) 0.1901(5)
H20 H 0.07470 0.25330 0.16040
loop_
_geom_bond_atom_site_label_1
_geom_bond_atom_site_label_2
_geom_bond_distance
_geom_bond_site_symmetry_1
_geom_bond_site_symmetry_2
C1 C2 1.352 1_555 1_555
C2 C3 1.460 1_555 1_555
C3 H1 0.931 1_555 1_555
C4 C3 1.358 1_555 1_555
C5 C1 1.515 1_555 1_555
H2 C5 0.970 1_555 1_555
H3 C5 0.970 1_555 1_555
C6 C1 1.462 1_555 1_555
C7 C6 1.382 1_555 1_555
H4 C7 0.930 1_555 1_555
C8 C7 1.373 1_555 1_555
H5 C8 0.930 1_555 1_555
C9 C8 1.360 1_555 1_555
H6 C9 0.930 1_555 1_555
C10 C9 1.363 1_555 1_555
H7 C10 0.930 1_555 1_555
C11 C6 1.375 1_555 1_555
H8 C11 0.930 1_555 1_555
C12 C2 1.480 1_555 1_555
C13 C12 1.381 1_555 1_555
H9 C13 0.930 1_555 1_555
C14 C13 1.389 1_555 1_555
H10 C14 0.930 1_555 1_555
C15 C14 1.373 1_555 1_555
H11 C15 0.931 1_555 1_555
C16 C15 1.354 1_555 1_555
H12 C16 0.930 1_555 1_555
C17 C12 1.379 1_555 1_555
H13 C17 0.931 1_555 1_555
C18 C4 1.473 1_555 1_555
C19 C18 1.433 1_555 1_555
C20 C19 1.401 1_555 1_555
H14 C20 0.929 1_555 1_555
C21 C20 1.370 1_555 1_555
H15 C21 0.930 1_555 1_555
C22 C21 1.395 1_555 1_555
H16 C22 0.931 1_555 1_555
C23 C22 1.337 1_555 1_555
H17 C23 0.930 1_555 1_555
C24 C19 1.421 1_555 1_555
C25 C24 1.393 1_555 1_555
H18 C25 0.930 1_555 1_555
C26 C25 1.357 1_555 1_555
H19 C26 0.930 1_555 1_555
C27 C18 1.367 1_555 1_555
H20 C27 0.929 1_555 1_555
C4 C5 1.481 1_555 1_555
C10 C11 1.374 1_555 1_555
C16 C17 1.381 1_555 1_555
C23 C24 1.407 1_555 1_555
C26 C27 1.413 1_555 1_555
#END
