
#######################################################################
#
#                 Cambridge Crystallographic Data Centre
#                                CCDC
#
#######################################################################
#
# If this CIF has been generated from an entry in the Cambridge
# Structural Database, then it will include bibliographic, chemical,
# crystal, experimental, refinement or atomic coordinate data resulting
# from the CCDC's data processing and validation procedures.
#
#######################################################################

data_CSD_CIF_SEMMOO
_audit_creation_date 2013-02-22
_audit_creation_method CSD-ConQuest-V1
_database_code_CSD SEMMOO
_database_code_depnum_ccdc_archive 'CCDC 883448'
_chemical_formula_sum 'C15 H16'
_chemical_formula_moiety
;
C15 H16
;
_journal_coden_Cambridge 222
_journal_volume 41
_journal_year 2012
_journal_page_first 14117
_journal_name_full 'Dalton Trans. '
loop_
_publ_author_name
"A.F.Borowski"
"L.Vendier"
"S.Sabo-Etienne"
"E.Rozycka-Sokolowska"
"A.V.Gaudyn"
_chemical_name_systematic
;
9-Methyl-1,2,3,4-tetrahydroanthracene
;
_cell_volume   1083.986
_exptl_crystal_colour 'colorless'
_exptl_crystal_density_diffrn 1.203
_exptl_crystal_description 'block'
_diffrn_ambient_temperature 180
#These two values have been output from a single CSD field.
_refine_ls_R_factor_gt 0.0449
_refine_ls_wR_factor_gt 0.0449
_symmetry_cell_setting orthorhombic
_symmetry_space_group_name_H-M 'P 21 21 21'
_symmetry_Int_Tables_number 19
loop_
_symmetry_equiv_pos_site_id
_symmetry_equiv_pos_as_xyz
1 x,y,z
2 1/2-x,-y,1/2+z
3 1/2+x,1/2-y,-z
4 -x,1/2+y,1/2-z
_cell_length_a 6.9319(11)
_cell_length_b 11.2138(16)
_cell_length_c 13.945(2)
_cell_angle_alpha 90
_cell_angle_beta 90
_cell_angle_gamma 90
_cell_formula_units_Z 4
loop_
_atom_type_symbol
_atom_type_radius_bond
C 0.68
H 0.23
loop_
_atom_site_label
_atom_site_type_symbol
_atom_site_fract_x
_atom_site_fract_y
_atom_site_fract_z
C1 C 0.2090(2) -0.08160(13) 0.14820(11)
H1 H 0.09390 -0.07970 0.10620
H2 H 0.16290 -0.08430 0.21540
C2 C 0.3203(2) -0.19494(13) 0.12777(12)
H3 H 0.40610 -0.21270 0.18270
H4 H 0.22870 -0.26210 0.12080
C3 C 0.4396(2) -0.18456(13) 0.03784(12)
H5 H 0.35480 -0.16680 -0.01750
H6 H 0.50630 -0.26100 0.02520
C4 C 0.5871(2) -0.08566(13) 0.04976(11)
H7 H 0.68680 -0.11200 0.09590
H8 H 0.65140 -0.07160 -0.01260
C5 C 0.5008(2) 0.03005(12) 0.08458(9)
C6 C 0.6324(3) 0.35237(13) 0.08777(11)
H9 H 0.75200 0.35060 0.05450
C7 C 0.5624(3) 0.45826(14) 0.12101(11)
H10 H 0.63320 0.52960 0.11050
C8 C 0.3865(3) 0.46240(13) 0.17054(11)
H11 H 0.34010 0.53630 0.19450
C9 C 0.2817(2) 0.36098(14) 0.18456(11)
H12 H 0.16140 0.36570 0.21700
C10 C 0.3486(2) 0.24826(12) 0.15166(9)
C11 C 0.24511(19) 0.13973(13) 0.1661(1)
C12 C 0.32052(19) 0.03212(12) 0.13385(9)
C13 C 0.5991(2) 0.13458(13) 0.06914(10)
H13 H 0.71780 0.13240 0.03510
C14 C 0.5287(2) 0.24485(12) 0.10231(9)
C15 C 0.0521(2) 0.14299(16) 0.21668(13)
H14 H -0.02520 0.07410 0.19690
H15 H -0.01590 0.21660 0.19970
H16 H 0.07240 0.14040 0.28620
loop_
_geom_bond_atom_site_label_1
_geom_bond_atom_site_label_2
_geom_bond_distance
_geom_bond_site_symmetry_1
_geom_bond_site_symmetry_2
C1 H1 0.990 1_555 1_555
H2 C1 0.991 1_555 1_555
C2 C1 1.514 1_555 1_555
H3 C2 0.990 1_555 1_555
H4 C2 0.990 1_555 1_555
C3 C2 1.507 1_555 1_555
H5 C3 0.990 1_555 1_555
H6 C3 0.990 1_555 1_555
C4 C3 1.518 1_555 1_555
H7 C4 0.989 1_555 1_555
H8 C4 0.990 1_555 1_555
C5 C4 1.509 1_555 1_555
C6 H9 0.950 1_555 1_555
C7 C6 1.364 1_555 1_555
H10 C7 0.950 1_555 1_555
C8 C7 1.402 1_555 1_555
H11 C8 0.950 1_555 1_555
C9 C8 1.364 1_555 1_555
H12 C9 0.950 1_555 1_555
C10 C9 1.422 1_555 1_555
C11 C10 1.427 1_555 1_555
C12 C1 1.505 1_555 1_555
C13 C5 1.373 1_555 1_555
H13 C13 0.950 1_555 1_555
C14 C6 1.418 1_555 1_555
C15 C11 1.513 1_555 1_555
H14 C15 0.980 1_555 1_555
H15 C15 0.980 1_555 1_555
H16 C15 0.980 1_555 1_555
C5 C12 1.426 1_555 1_555
C10 C14 1.426 1_555 1_555
C11 C12 1.390 1_555 1_555
C13 C14 1.408 1_555 1_555
#END
