
#######################################################################
#
#                 Cambridge Crystallographic Data Centre
#                                CCDC
#
#######################################################################
#
# If this CIF has been generated from an entry in the Cambridge
# Structural Database, then it will include bibliographic, chemical,
# crystal, experimental, refinement or atomic coordinate data resulting
# from the CCDC's data processing and validation procedures.
#
#######################################################################

data_CSD_CIF_SESPEL
_audit_creation_date 1990-12-10
_audit_creation_method CSD-ConQuest-V1
_database_code_CSD SESPEL
_chemical_formula_sum 'C30 H16'
_chemical_formula_moiety
;
C30 H16
;
_journal_coden_Cambridge 1094
_journal_volume 1
_journal_year 1990
_journal_page_first 123
_journal_name_full 'Struct.Chem. '
loop_
_publ_author_name
"J.J.Stezowski"
"T.Hildenbrand"
"M.R.Suissa"
"I.Agranat"
_chemical_name_systematic
;
Bi-4H-cyclopenta(d,e,f)phenanthren-4-ylidene
;
_cell_volume   1808.391
_exptl_crystal_density_diffrn 1.383
_exptl_special_details
;
P21/c polymorph

;
_diffrn_ambient_temperature ?
_diffrn_special_details
;
The study was carried out at room temperature,in the range 283-303K

;
#These two values have been output from a single CSD field.
_refine_ls_R_factor_gt 0.06
_refine_ls_wR_factor_gt 0.06
_symmetry_cell_setting monoclinic
_symmetry_space_group_name_H-M 'P 21/c'
_symmetry_Int_Tables_number 14
loop_
_symmetry_equiv_pos_site_id
_symmetry_equiv_pos_as_xyz
1 x,y,z
2 -x,1/2+y,1/2-z
3 -x,-y,-z
4 x,-1/2-y,-1/2+z
_cell_length_a 18.716(7)
_cell_length_b 3.996(1)
_cell_length_c 25.143(5)
_cell_angle_alpha 90
_cell_angle_beta 105.91(2)
_cell_angle_gamma 90
_cell_formula_units_Z 4
loop_
_atom_type_symbol
_atom_type_radius_bond
C 0.68
H 0.23
loop_
_atom_site_label
_atom_site_type_symbol
_atom_site_fract_x
_atom_site_fract_y
_atom_site_fract_z
C1 C 0.20248(17) 1.16134(17) 0.39304(12)
C2 C 0.25828(17) 1.19455(79) 0.44303(12)
C3 C 0.31915(19) 1.38295(85) 0.44066(14)
C4 C 0.32380(23) 1.50341(96) 0.38871(16)
C5 C 0.26901(22) 1.44969(97) 0.33975(15)
C6 C 0.20409(19) 1.27672(85) 0.34108(12)
C7 C 0.13904(23) 1.2052(10) 0.29650(14)
C8 C 0.08033(22) 1.02865(99) 0.30445(14)
C9 C 0.07889(18) 0.91165(84) 0.35848(13)
C10 C 0.02372(19) 0.72590(97) 0.37345(16)
C11 C 0.03481(20) 0.63308(99) 0.42807(16)
C12 C 0.09824(18) 0.71930(89) 0.47062(14)
C13 C 0.15265(17) 0.91299(80) 0.45787(12)
C14 C 0.14058(18) 0.99141(79) 0.40168(12)
C15 C 0.22976(17) 1.03500(77) 0.48725(12)
H1 H 0.3562(17) 1.4400(85) 0.4746(13)
H2 H 0.3700(21) 1.629(11) 0.3898(15)
H3 H 0.2779(17) 1.5483(90) 0.3051(14)
H4 H 0.1362(18) 1.2877(96) 0.2591(15)
H5 H 0.0367(16) 0.9962(80) 0.2677(12)
H6 H -0.0205(19) 0.6605(95) 0.3452(15)
H7 H -0.0030(21) 0.489(10) 0.4384(14)
H8 H 0.1013(17) 0.6354(85) 0.5079(13)
C16 C 0.28993(17) 0.78417(81) 0.63195(12)
C17 C 0.23291(17) 0.89620(79) 0.58737(11)
C18 C 0.16383(19) 0.93769(91) 0.59641(13)
C19 C 0.15429(21) 0.83542(98) 0.64779(14)
C20 C 0.21090(22) 0.70521(96) 0.68997(14)
C21 C 0.28335(20) 0.67910(87) 0.68330(12)
C22 C 0.35087(24) 0.5673(10) 0.72215(14)
C23 C 0.41699(22) 0.57198(99) 0.70918(15)
C24 C 0.42409(19) 0.69436(89) 0.65676(14)
C25 C 0.48747(20) 0.7217(11) 0.63769(16)
C26 C 0.48157(20) 0.8421(11) 0.58557(17)
C27 C 0.41384(18) 0.94596(95) 0.54855(14)
C28 C 0.34974(17) 0.93160(81) 0.56618(12)
C29 C 0.35861(17) 0.80059(82) 0.61957(12)
C30 C 0.26728(17) 0.97724(79) 0.54121(11)
H9 H 0.1222(17) 1.0322(83) 0.5695(12)
H10 H 0.1077(18) 0.8603(87) 0.6543(12)
H11 H 0.2015(17) 0.6304(87) 0.7248(14)
H12 H 0.3499(16) 0.4864(85) 0.7633(13)
H13 H 0.4640(18) 0.4912(93) 0.7379(14)
H14 H 0.5362(18) 0.6585(87) 0.6602(13)
H15 H 0.5252(20) 0.8508(96) 0.5716(14)
H16 H 0.4121(16) 1.0295(85) 0.5102(13)
loop_
_geom_bond_atom_site_label_1
_geom_bond_atom_site_label_2
_geom_bond_distance
_geom_bond_site_symmetry_1
_geom_bond_site_symmetry_2
C1 C2 1.403 1_555 1_555
C2 C3 1.380 1_555 1_555
C3 C4 1.417 1_555 1_555
C4 C5 1.386 1_555 1_555
C5 C6 1.406 1_555 1_555
C6 C1 1.393 1_555 1_555
C7 C6 1.439 1_555 1_555
C8 C7 1.366 1_555 1_555
C9 C8 1.444 1_555 1_555
C10 C9 1.404 1_555 1_555
C11 C10 1.382 1_555 1_555
C12 C11 1.406 1_555 1_555
C13 C12 1.385 1_555 1_555
C14 C1 1.410 1_555 1_555
C15 C2 1.501 1_555 1_555
H1 C3 0.968 1_555 1_555
H2 C4 0.994 1_555 1_555
H3 C5 1.011 1_555 1_555
H4 C7 0.984 1_555 1_555
H5 C8 1.060 1_555 1_555
H6 C10 0.967 1_555 1_555
H7 C11 1.000 1_555 1_555
H8 C12 0.982 1_555 1_555
C16 C17 1.393 1_555 1_555
C17 C18 1.383 1_555 1_555
C18 C19 1.412 1_555 1_555
C19 C20 1.379 1_555 1_555
C20 C21 1.415 1_555 1_555
C21 C16 1.395 1_555 1_555
C22 C21 1.440 1_555 1_555
C23 C22 1.364 1_555 1_555
C24 C23 1.446 1_555 1_555
C25 C24 1.400 1_555 1_555
C26 C25 1.372 1_555 1_555
C27 C26 1.414 1_555 1_555
C28 C27 1.389 1_555 1_555
C29 C16 1.405 1_555 1_555
C30 C15 1.366 1_555 1_555
H9 C18 0.958 1_555 1_555
H10 C19 0.936 1_555 1_555
H11 C20 0.986 1_555 1_555
H12 C22 1.089 1_555 1_555
H13 C23 1.025 1_555 1_555
H14 C25 0.966 1_555 1_555
H15 C26 0.974 1_555 1_555
H16 C27 1.012 1_555 1_555
C9 C14 1.388 1_555 1_555
C13 C14 1.404 1_555 1_555
C13 C15 1.511 1_555 1_555
C17 C30 1.508 1_555 1_555
C24 C29 1.389 1_555 1_555
C28 C29 1.408 1_555 1_555
C28 C30 1.509 1_555 1_555
#END
