
#######################################################################
#
#                 Cambridge Crystallographic Data Centre
#                                CCDC
#
#######################################################################
#
# If this CIF has been generated from an entry in the Cambridge
# Structural Database, then it will include bibliographic, chemical,
# crystal, experimental, refinement or atomic coordinate data resulting
# from the CCDC's data processing and validation procedures.
#
#######################################################################

data_CSD_CIF_SESPEL01
_audit_creation_date 2001-12-11
_audit_creation_method CSD-ConQuest-V1
_database_code_CSD SESPEL01
_chemical_formula_sum 'C30 H16'
_chemical_formula_moiety
;
C30 H16
;
_journal_coden_Cambridge 1094
_journal_volume 11
_journal_year 2000
_journal_page_first 245
_journal_name_full 'Struct.Chem. '
loop_
_publ_author_name
"E.Lee-Ruff"
"A.Grant"
"D.V.Stynes"
"I.Vernik"
_chemical_name_systematic
;
4,4'-bi(4H-cyclopenta(def)phenanthrylidene)
;
_cell_volume   1832.711
_exptl_crystal_colour 'orange'
_exptl_crystal_density_diffrn 1.371
_exptl_special_details
;
P21/n polymorph

;
_exptl_crystal_description 'needle'
_diffrn_ambient_temperature 295
#These two values have been output from a single CSD field.
_refine_ls_R_factor_gt 0.0515
_refine_ls_wR_factor_gt 0.0515
_symmetry_cell_setting monoclinic
_symmetry_space_group_name_H-M 'P 21/n'
_symmetry_Int_Tables_number 14
loop_
_symmetry_equiv_pos_site_id
_symmetry_equiv_pos_as_xyz
1 x,y,z
2 1/2-x,1/2+y,1/2-z
3 -x,-y,-z
4 -1/2+x,-1/2-y,-1/2+z
_cell_length_a 14.004(3)
_cell_length_b 7.583(2)
_cell_length_c 17.819(4)
_cell_angle_alpha 90
_cell_angle_beta 104.41(3)
_cell_angle_gamma 90
_cell_formula_units_Z 4
loop_
_atom_type_symbol
_atom_type_radius_bond
C 0.68
H 0.23
loop_
_atom_site_label
_atom_site_type_symbol
_atom_site_fract_x
_atom_site_fract_y
_atom_site_fract_z
C1 C 0.3229(2) 0.2083(3) 0.8157(1)
C2 C 0.2234(2) 0.2168(3) 0.7602(1)
C3 C 0.1535(2) 0.1848(3) 0.8034(1)
C4 C 0.2010(2) 0.1561(3) 0.8815(1)
C5 C 0.3036(2) 0.1690(3) 0.8931(1)
C6 C 0.3594(2) 0.1189(3) 0.9659(1)
C7 C 0.3102(2) 0.0675(4) 1.0225(1)
C8 C 0.2091(2) 0.0636(4) 1.0094(2)
C9 C 0.1501(2) 0.1079(3) 0.9359(2)
C10 C 0.0442(2) 0.1038(4) 0.9076(2)
C11 C -0.0018(2) 0.1396(4) 0.8324(2)
C12 C 0.0517(2) 0.1828(3) 0.7758(2)
C13 C 0.0166(2) 0.2225(4) 0.6967(2)
C14 C 0.0826(2) 0.2637(4) 0.6535(2)
C15 C 0.1851(2) 0.2626(3) 0.6831(1)
C16 C 0.4123(2) 0.2248(3) 0.7993(1)
C17 C 0.4372(2) 0.1910(3) 0.7233(1)
C18 C 0.5382(2) 0.2259(3) 0.7347(1)
C19 C 0.5790(2) 0.2811(3) 0.8107(1)
C20 C 0.5075(2) 0.2814(3) 0.8536(1)
C21 C 0.5360(2) 0.3516(3) 0.9275(1)
C22 C 0.6342(2) 0.4084(4) 0.9557(2)
C23 C 0.7032(2) 0.4012(4) 0.9126(2)
C24 C 0.6762(2) 0.3380(4) 0.8362(2)
C25 C 0.7334(2) 0.3242(4) 0.7794(2)
C26 C 0.6954(2) 0.2635(4) 0.7064(2)
C27 C 0.5936(2) 0.2106(4) 0.6801(2)
C28 C 0.5418(2) 0.1467(4) 0.6075(2)
C29 C 0.4439(2) 0.1012(4) 0.5958(2)
C30 C 0.3901(2) 0.1205(4) 0.6520(1)
H1 H 0.43010 0.11900 0.97740
H2 H 0.34920 0.03360 1.07270
H3 H 0.17920 0.03080 1.05030
H4 H 0.00490 0.07430 0.94290
H5 H -0.07250 0.13620 0.81380
H6 H -0.05290 0.22110 0.67300
H7 H 0.05680 0.29500 0.60000
H8 H 0.22810 0.29270 0.65070
H9 H 0.48970 0.36140 0.95900
H10 H 0.65400 0.45450 1.00740
H11 H 0.76960 0.43920 0.93480
H12 H 0.80140 0.35920 0.79380
H13 H 0.73730 0.25570 0.67130
H14 H 0.57440 0.13420 0.56640
H15 H 0.41070 0.05410 0.54610
H16 H 0.32220 0.08530 0.64120
loop_
_geom_bond_atom_site_label_1
_geom_bond_atom_site_label_2
_geom_bond_distance
_geom_bond_site_symmetry_1
_geom_bond_site_symmetry_2
C1 C2 1.496 1_555 1_555
C2 C3 1.409 1_555 1_555
C3 C4 1.402 1_555 1_555
C4 C5 1.403 1_555 1_555
C5 C1 1.500 1_555 1_555
C6 C5 1.390 1_555 1_555
C7 C6 1.411 1_555 1_555
C8 C7 1.377 1_555 1_555
C9 C4 1.388 1_555 1_555
C10 C9 1.443 1_555 1_555
C11 C10 1.362 1_555 1_555
C12 C3 1.388 1_555 1_555
C13 C12 1.405 1_555 1_555
C14 C13 1.378 1_555 1_555
C15 C2 1.389 1_555 1_555
C16 C1 1.360 1_555 1_555
C17 C16 1.502 1_555 1_555
C18 C17 1.403 1_555 1_555
C19 C18 1.397 1_555 1_555
C20 C16 1.502 1_555 1_555
C21 C20 1.384 1_555 1_555
C22 C21 1.409 1_555 1_555
C23 C22 1.377 1_555 1_555
C24 C19 1.392 1_555 1_555
C25 C24 1.442 1_555 1_555
C26 C25 1.357 1_555 1_555
C27 C18 1.392 1_555 1_555
C28 C27 1.403 1_555 1_555
C29 C28 1.378 1_555 1_555
C30 C17 1.385 1_555 1_555
H1 C6 0.960 1_555 1_555
H2 C7 0.960 1_555 1_555
H3 C8 0.959 1_555 1_555
H4 C10 0.960 1_555 1_555
H5 C11 0.963 1_555 1_555
H6 C13 0.960 1_555 1_555
H7 C14 0.961 1_555 1_555
H8 C15 0.960 1_555 1_555
H9 C21 0.960 1_555 1_555
H10 C22 0.959 1_555 1_555
H11 C23 0.960 1_555 1_555
H12 C25 0.960 1_555 1_555
H13 C26 0.960 1_555 1_555
H14 C28 0.959 1_555 1_555
H15 C29 0.961 1_555 1_555
H16 C30 0.960 1_555 1_555
C8 C9 1.404 1_555 1_555
C11 C12 1.436 1_555 1_555
C14 C15 1.401 1_555 1_555
C19 C20 1.403 1_555 1_555
C23 C24 1.403 1_555 1_555
C26 C27 1.442 1_555 1_555
C29 C30 1.403 1_555 1_555
#END
