
#######################################################################
#
#                 Cambridge Crystallographic Data Centre
#                                CCDC
#
#######################################################################
#
# If this CIF has been generated from an entry in the Cambridge
# Structural Database, then it will include bibliographic, chemical,
# crystal, experimental, refinement or atomic coordinate data resulting
# from the CCDC's data processing and validation procedures.
#
#######################################################################

data_CSD_CIF_SETTES
_audit_creation_date 2013-05-17
_audit_creation_method CSD-ConQuest-V1
_database_code_CSD SETTES
_database_code_depnum_ccdc_archive 'CCDC 939900'
_chemical_formula_sum 'C40 H20'
_chemical_formula_moiety
;
C40 H20
;
_journal_coden_Cambridge 1096
_journal_volume 24
_journal_year 2012
_journal_page_first 2566
_journal_name_full 'Chem.Mater. '
loop_
_publ_author_name
"S.Pola"
"C.-H.Kuo"
"W.-T.Peng"
"Md M.Islam"
"I.Chao"
"Y.-T.Tao"
_chemical_name_systematic
;
Tetrabenzo[a,d,j,m]coronene
;
_cell_volume   1097.397
_exptl_crystal_colour 'orange'
_exptl_crystal_density_diffrn 1.515
_exptl_crystal_description 'plate'
_diffrn_ambient_temperature 100
#These two values have been output from a single CSD field.
_refine_ls_R_factor_gt 0.0376
_refine_ls_wR_factor_gt 0.0376
_symmetry_cell_setting monoclinic
_symmetry_space_group_name_H-M 'P 21/n'
_symmetry_Int_Tables_number 14
loop_
_symmetry_equiv_pos_site_id
_symmetry_equiv_pos_as_xyz
1 x,y,z
2 1/2-x,1/2+y,1/2-z
3 -x,-y,-z
4 -1/2+x,-1/2-y,-1/2+z
_cell_length_a 16.2469(9)
_cell_length_b 3.7651(2)
_cell_length_c 18.7150(11)
_cell_angle_alpha 90
_cell_angle_beta 106.549(2)
_cell_angle_gamma 90
_cell_formula_units_Z 2
loop_
_atom_type_symbol
_atom_type_radius_bond
C 0.68
H 0.23
loop_
_atom_site_label
_atom_site_type_symbol
_atom_site_fract_x
_atom_site_fract_y
_atom_site_fract_z
C1 C 0.16747(9) 0.2371(4) 0.57986(8)
C2 C 0.17968(10) 0.3848(4) 0.65168(8)
C3 C 0.11595(9) 0.3818(4) 0.68564(8)
C4 C -0.01064(10) 0.2335(4) 0.76763(8)
C5 C -0.06776(10) 0.1421(4) 0.80603(8)
C6 C -0.14485(10) -0.0251(4) 0.76885(8)
C7 C -0.16583(10) -0.0737(4) 0.69318(8)
C8 C -0.13321(9) -0.0012(4) 0.57043(8)
C9 C -0.06770(9) -0.0013(3) 0.53589(7)
C10 C 0.08473(9) 0.1160(4) 0.54060(8)
C11 C 0.03436(9) 0.2329(4) 0.65039(8)
C12 C -0.02938(9) 0.1786(4) 0.68983(8)
C13 C -0.11127(9) 0.0421(4) 0.65088(8)
C14 C 0.01770(9) 0.1142(4) 0.57609(8)
C15 C 0.23826(9) 0.1870(4) 0.54789(8)
C16 C 0.22145(9) 0.0479(4) 0.47475(8)
C17 C 0.29221(9) -0.0683(4) 0.45105(8)
C18 C 0.3755(1) -0.0153(4) 0.49357(8)
C19 C 0.39154(10) 0.1564(4) 0.56238(8)
C20 C 0.32444(10) 0.2477(4) 0.58941(8)
H1 H 0.2363(10) 0.492(4) 0.6786(8)
H2 H 0.1274(10) 0.485(4) 0.7368(9)
H3 H 0.0458(10) 0.335(4) 0.7945(8)
H4 H -0.0532(10) 0.187(4) 0.8604(9)
H5 H -0.1849(10) -0.111(4) 0.7970(8)
H6 H -0.2209(10) -0.208(4) 0.6669(9)
H7 H 0.2833(9) -0.201(4) 0.4042(9)
H8 H 0.4254(10) -0.106(4) 0.4762(8)
H9 H 0.4511(10) 0.203(4) 0.5922(9)
H10 H 0.3361(9) 0.357(4) 0.6398(8)
C1B C -0.16747(9) -0.2371(4) 0.42014(8)
C2B C -0.17968(10) -0.3848(4) 0.34832(8)
C3B C -0.11595(9) -0.3818(4) 0.31436(8)
C4B C 0.01064(10) -0.2335(4) 0.23237(8)
C5B C 0.06776(10) -0.1421(4) 0.19397(8)
C6B C 0.14485(10) 0.0251(4) 0.23115(8)
C7B C 0.16583(10) 0.0737(4) 0.30682(8)
C8B C 0.13321(9) 0.0012(4) 0.42957(8)
C9B C 0.06770(9) 0.0013(3) 0.46411(7)
C10B C -0.08473(9) -0.1160(4) 0.45940(8)
C11B C -0.03436(9) -0.2329(4) 0.34961(8)
C12B C 0.02938(9) -0.1786(4) 0.31017(8)
C13B C 0.11127(9) -0.0421(4) 0.34912(8)
C14B C -0.01770(9) -0.1142(4) 0.42391(8)
C15B C -0.23826(9) -0.1870(4) 0.45211(8)
C16B C -0.22145(9) -0.0479(4) 0.52525(8)
C17B C -0.29221(9) 0.0683(4) 0.54895(8)
C18B C -0.3755(1) 0.0153(4) 0.50643(8)
C19B C -0.39154(10) -0.1564(4) 0.43762(8)
C20B C -0.32444(10) -0.2477(4) 0.41059(8)
H1B H -0.2363(10) -0.492(4) 0.3214(8)
H2B H -0.1274(10) -0.485(4) 0.2632(9)
H3B H -0.0458(10) -0.335(4) 0.2055(8)
H4B H 0.0532(10) -0.187(4) 0.1396(9)
H5B H 0.1849(10) 0.111(4) 0.2030(8)
H6B H 0.2209(10) 0.208(4) 0.3331(9)
H7B H -0.2833(9) 0.201(4) 0.5958(9)
H8B H -0.4254(10) 0.106(4) 0.5238(8)
H9B H -0.4511(10) -0.203(4) 0.4078(9)
H10B H -0.3361(9) -0.357(4) 0.3602(8)
loop_
_geom_bond_atom_site_label_1
_geom_bond_atom_site_label_2
_geom_bond_distance
_geom_bond_site_symmetry_1
_geom_bond_site_symmetry_2
C1 C2 1.415 1_555 1_555
C2 C3 1.361 1_555 1_555
C3 C11 1.417 1_555 1_555
C4 C5 1.370 1_555 1_555
C5 C6 1.397 1_555 1_555
C6 C7 1.371 1_555 1_555
C7 C13 1.415 1_555 1_555
C8 C9 1.394 1_555 1_555
C9 C14 1.444 1_555 1_555
C10 C1 1.411 1_555 1_555
C11 C12 1.447 1_555 1_555
C12 C4 1.415 1_555 1_555
C13 C8 1.454 1_555 1_555
C14 C10 1.428 1_555 1_555
C15 C1 1.452 1_555 1_555
C16 C15 1.418 1_555 1_555
C17 C16 1.414 1_555 1_555
C18 C17 1.375 1_555 1_555
C19 C18 1.398 1_555 1_555
C20 C15 1.413 1_555 1_555
H1 C2 0.999 1_555 1_555
H2 C3 1.000 1_555 1_555
H3 C4 0.988 1_555 1_555
H4 C5 0.991 1_555 1_555
H5 C6 1.000 1_555 1_555
H6 C7 1.023 1_555 1_555
H7 C17 0.983 1_555 1_555
H8 C18 1.015 1_555 1_555
H9 C19 0.985 1_555 1_555
H10 C20 0.996 1_555 1_555
C1B C2B 1.415 1_555 1_555
C2B C3B 1.361 1_555 1_555
C3B C11B 1.417 1_555 1_555
C4B C5B 1.370 1_555 1_555
C5B C6B 1.397 1_555 1_555
C6B C7B 1.371 1_555 1_555
C7B C13B 1.415 1_555 1_555
C8B C16 1.453 1_555 1_555
C9B C10 1.445 1_555 1_555
C10B C9 1.445 1_555 1_555
C11B C12B 1.447 1_555 1_555
C12B C4B 1.415 1_555 1_555
C13B C8B 1.454 1_555 1_555
C14B C9B 1.444 1_555 1_555
C15B C1B 1.452 1_555 1_555
C16B C8 1.453 1_555 1_555
C17B C16B 1.414 1_555 1_555
C18B C17B 1.375 1_555 1_555
C19B C18B 1.398 1_555 1_555
C20B C15B 1.413 1_555 1_555
H1B C2B 0.999 1_555 1_555
H2B C3B 1.000 1_555 1_555
H3B C4B 0.988 1_555 1_555
H4B C5B 0.991 1_555 1_555
H5B C6B 1.000 1_555 1_555
H6B C7B 1.023 1_555 1_555
H7B C17B 0.983 1_555 1_555
H8B C18B 1.015 1_555 1_555
H9B C19B 0.985 1_555 1_555
H10B C20B 0.996 1_555 1_555
C11 C14 1.411 1_555 1_555
C12 C13 1.419 1_555 1_555
C19 C20 1.370 1_555 1_555
C1B C10B 1.411 1_555 1_555
C8B C9B 1.394 1_555 1_555
C10B C14B 1.428 1_555 1_555
C11B C14B 1.411 1_555 1_555
C12B C13B 1.419 1_555 1_555
C15B C16B 1.418 1_555 1_555
C19B C20B 1.370 1_555 1_555
#END
