
#######################################################################
#
#                 Cambridge Crystallographic Data Centre
#                                CCDC
#
#######################################################################
#
# If this CIF has been generated from an entry in the Cambridge
# Structural Database, then it will include bibliographic, chemical,
# crystal, experimental, refinement or atomic coordinate data resulting
# from the CCDC's data processing and validation procedures.
#
#######################################################################

data_CSD_CIF_SETTUI
_audit_creation_date 2013-05-17
_audit_creation_method CSD-ConQuest-V1
_database_code_CSD SETTUI
_database_code_depnum_ccdc_archive 'CCDC 939903'
_chemical_formula_sum 'C44 H28'
_chemical_formula_moiety
;
C44 H28
;
_journal_coden_Cambridge 1096
_journal_volume 24
_journal_year 2012
_journal_page_first 2566
_journal_name_full 'Chem.Mater. '
loop_
_publ_author_name
"S.Pola"
"C.-H.Kuo"
"W.-T.Peng"
"Md M.Islam"
"I.Chao"
"Y.-T.Tao"
_chemical_name_systematic
;
2,7,12,17-Tetramethyltetrabenzo[a,d,j,m]coronene
;
_cell_volume   5284.349
_exptl_crystal_colour 'yellow'
_exptl_crystal_density_diffrn 1.399
_exptl_crystal_description 'plate'
_diffrn_ambient_temperature 100
#These two values have been output from a single CSD field.
_refine_ls_R_factor_gt 0.0595
_refine_ls_wR_factor_gt 0.0595
_symmetry_cell_setting monoclinic
_symmetry_space_group_name_H-M 'C 2/c'
_symmetry_Int_Tables_number 15
loop_
_symmetry_equiv_pos_site_id
_symmetry_equiv_pos_as_xyz
1 x,y,z
2 -x,y,1/2-z
3 1/2+x,1/2+y,z
4 1/2-x,1/2+y,1/2-z
5 -x,-y,-z
6 x,-y,-1/2+z
7 -1/2-x,-1/2-y,-z
8 -1/2+x,-1/2-y,-1/2+z
_cell_length_a 24.6531(12)
_cell_length_b 7.3293(3)
_cell_length_c 29.8656(14)
_cell_angle_alpha 90
_cell_angle_beta 101.697(4)
_cell_angle_gamma 90
_cell_formula_units_Z 8
loop_
_atom_type_symbol
_atom_type_radius_bond
C 0.68
H 0.23
loop_
_atom_site_label
_atom_site_type_symbol
_atom_site_fract_x
_atom_site_fract_y
_atom_site_fract_z
C1 C 0.92856(11) 0.7391(3) 0.09038(9)
C2 C 0.92508(11) 0.7891(3) 0.13398(9)
H1 H 0.95790 0.78870 0.15710
C3 C 0.87463(11) 0.8412(3) 0.14596(9)
C4 C 0.87104(11) 0.8822(3) 0.19280(9)
C5 C 0.91810(12) 0.8879(3) 0.22871(9)
H2 H 0.95370 0.86850 0.22200
C6 C 0.91362(11) 0.9207(3) 0.27268(9)
H3 H 0.94640 0.92790 0.29570
C7 C 0.86183(11) 0.9442(3) 0.28510(9)
C8 C 0.85621(11) 0.9833(3) 0.33150(9)
C9 C 0.90299(11) 1.0296(3) 0.36529(9)
H4 H 0.93860 1.02460 0.35770
C10 C 0.89894(12) 1.0816(3) 0.40877(9)
C11 C 0.84626(12) 1.0913(3) 0.41914(9)
H5 H 0.84240 1.12970 0.44870
C12 C 0.80028(11) 1.0462(3) 0.38724(9)
H6 H 0.76490 1.05490 0.39520
C13 C 0.80352(11) 0.9867(3) 0.34268(9)
C14 C 0.75487(11) 0.9457(3) 0.30786(9)
C15 C 0.70045(11) 0.9084(3) 0.31806(9)
C16 C 0.69308(11) 0.8468(3) 0.36129(9)
H7 H 0.72470 0.83290 0.38520
C17 C 0.64201(12) 0.8066(3) 0.36984(9)
H8 H 0.63890 0.76530 0.39940
C18 C 0.59425(12) 0.8254(3) 0.33565(9)
C19 C 0.60040(11) 0.8773(3) 0.29277(9)
H9 H 0.56840 0.88800 0.26910
C20 C 0.65273(11) 0.9151(3) 0.28268(9)
C21 C 0.65837(11) 0.9484(3) 0.23623(9)
C22 C 0.61239(11) 0.9725(3) 0.20022(9)
H10 H 0.57620 0.97360 0.20670
C23 C 0.61852(11) 0.9944(3) 0.15610(9)
H11 H 0.58660 1.01240 0.13270
C24 C 0.67090(11) 0.9909(3) 0.14460(9)
C25 C 0.67840(11) 1.0237(3) 0.09844(9)
C26 C 0.63566(11) 1.1018(3) 0.06549(9)
H12 H 0.60090 1.12400 0.07350
C27 C 0.64223(11) 1.1472(3) 0.02220(9)
C28 C 0.69428(11) 1.1171(3) 0.01142(9)
H13 H 0.70030 1.14990 -0.01800
C29 C 0.73649(11) 1.0411(3) 0.04268(9)
H14 H 0.77130 1.02310 0.03440
C30 C 0.73016(11) 0.9883(3) 0.08701(9)
C31 C 0.77526(11) 0.9179(3) 0.12180(9)
C32 C 0.82642(11) 0.8486(3) 0.11126(9)
C33 C 0.82971(11) 0.7778(3) 0.06784(9)
H15 H 0.79680 0.76540 0.04520
C34 C 0.87931(11) 0.7266(3) 0.05760(9)
H16 H 0.88030 0.68220 0.02790
C35 C 0.81911(11) 0.9119(3) 0.20351(9)
C36 C 0.81395(11) 0.9353(3) 0.25037(9)
C37 C 0.76003(11) 0.9427(3) 0.26182(9)
C38 C 0.71141(11) 0.9475(3) 0.22577(9)
C39 C 0.71762(11) 0.9585(3) 0.17926(9)
C40 C 0.77089(11) 0.9287(3) 0.16777(9)
C41 C 0.98322(11) 0.6921(3) 0.07816(10)
H17 H 1.01340 0.72400 0.10370
H18 H 0.98740 0.76070 0.05090
H19 H 0.98440 0.56110 0.07200
C42 C 0.94917(12) 1.1428(3) 0.44323(9)
H20 H 0.98260 1.12140 0.43090
H21 H 0.95160 1.07350 0.47160
H22 H 0.94600 1.27320 0.44950
C43 C 0.53822(11) 0.7794(3) 0.34518(9)
H23 H 0.52330 0.88580 0.35850
H24 H 0.54170 0.67710 0.36670
H25 H 0.51310 0.74540 0.31660
C44 C 0.59633(11) 1.2360(3) -0.01182(9)
H26 H 0.56330 1.24730 0.00160
H27 H 0.58760 1.16110 -0.03950
H28 H 0.60820 1.35750 -0.01960
loop_
_geom_bond_atom_site_label_1
_geom_bond_atom_site_label_2
_geom_bond_distance
_geom_bond_site_symmetry_1
_geom_bond_site_symmetry_2
C1 C2 1.372 1_555 1_555
C2 H1 0.951 1_555 1_555
C3 C2 1.415 1_555 1_555
C4 C3 1.451 1_555 1_555
C5 C4 1.412 1_555 1_555
H2 C5 0.950 1_555 1_555
C6 C5 1.361 1_555 1_555
H3 C6 0.950 1_555 1_555
C7 C6 1.410 1_555 1_555
C8 C7 1.449 1_555 1_555
C9 C8 1.411 1_555 1_555
H4 C9 0.951 1_555 1_555
C10 C9 1.376 1_555 1_555
C11 C10 1.397 1_555 1_555
H5 C11 0.950 1_555 1_555
C12 C11 1.365 1_555 1_555
H6 C12 0.952 1_555 1_555
C13 C8 1.405 1_555 1_555
C14 C13 1.451 1_555 1_555
C15 C14 1.461 1_555 1_555
C16 C15 1.414 1_555 1_555
H7 C16 0.950 1_555 1_555
C17 C16 1.367 1_555 1_555
H8 C17 0.951 1_555 1_555
C18 C17 1.400 1_555 1_555
C19 C18 1.373 1_555 1_555
H9 C19 0.950 1_555 1_555
C20 C15 1.414 1_555 1_555
C21 C20 1.443 1_555 1_555
C22 C21 1.407 1_555 1_555
H10 C22 0.951 1_555 1_555
C23 C22 1.366 1_555 1_555
H11 C23 0.950 1_555 1_555
C24 C23 1.402 1_555 1_555
C25 C24 1.448 1_555 1_555
C26 C25 1.409 1_555 1_555
H12 C26 0.949 1_555 1_555
C27 C26 1.376 1_555 1_555
C28 C27 1.402 1_555 1_555
H13 C28 0.951 1_555 1_555
C29 C28 1.368 1_555 1_555
H14 C29 0.949 1_555 1_555
C30 C25 1.410 1_555 1_555
C31 C30 1.454 1_555 1_555
C32 C3 1.411 1_555 1_555
C33 C32 1.414 1_555 1_555
H15 C33 0.949 1_555 1_555
C34 C1 1.400 1_555 1_555
H16 C34 0.950 1_555 1_555
C35 C4 1.398 1_555 1_555
C36 C7 1.406 1_555 1_555
C37 C14 1.407 1_555 1_555
C38 C21 1.405 1_555 1_555
C39 C24 1.404 1_555 1_555
C40 C31 1.401 1_555 1_555
C41 C1 1.506 1_555 1_555
H17 C41 0.980 1_555 1_555
H18 C41 0.980 1_555 1_555
H19 C41 0.979 1_555 1_555
C42 C10 1.509 1_555 1_555
H20 C42 0.981 1_555 1_555
H21 C42 0.979 1_555 1_555
H22 C42 0.980 1_555 1_555
C43 C18 1.504 1_555 1_555
H23 C43 0.980 1_555 1_555
H24 C43 0.980 1_555 1_555
H25 C43 0.980 1_555 1_555
C44 C27 1.507 1_555 1_555
H26 C44 0.981 1_555 1_555
H27 C44 0.979 1_555 1_555
H28 C44 0.980 1_555 1_555
C12 C13 1.418 1_555 1_555
C19 C20 1.411 1_555 1_555
C29 C30 1.418 1_555 1_555
C31 C32 1.452 1_555 1_555
C33 C34 1.372 1_555 1_555
C35 C36 1.441 1_555 1_555
C35 C40 1.433 1_555 1_555
C36 C37 1.439 1_555 1_555
C37 C38 1.440 1_555 1_555
C38 C39 1.430 1_555 1_555
C39 C40 1.440 1_555 1_555
#END
