
#######################################################################
#
#                 Cambridge Crystallographic Data Centre
#                                CCDC
#
#######################################################################
#
# If this CIF has been generated from an entry in the Cambridge
# Structural Database, then it will include bibliographic, chemical,
# crystal, experimental, refinement or atomic coordinate data resulting
# from the CCDC's data processing and validation procedures.
#
#######################################################################

data_CSD_CIF_SEVYOK
_audit_creation_date 2018-03-16
_audit_creation_method CSD-ConQuest-V1
_database_code_CSD SEVYOK
_database_code_depnum_ccdc_archive 'CCDC 1830502'
_chemical_formula_sum 'C21 H14'
_chemical_formula_moiety
;
C21 H14
;
_journal_coden_Cambridge 557
_journal_volume 18
_journal_year 1997
_journal_page_first 415
_journal_name_full 'Carcinogenesis '
loop_
_publ_author_name
"C.J.Carrell"
"T.G.Carrell"
"H.L.Carrell"
"K.Prout"
"J.P.Glusker"
_chemical_name_systematic
;
4-methylbenzo[pqr]tetraphene
;
_cell_volume   1302.956
_diffrn_ambient_temperature 120
_symmetry_cell_setting orthorhombic
_symmetry_space_group_name_H-M 'P c a 21'
_symmetry_Int_Tables_number 29
loop_
_symmetry_equiv_pos_site_id
_symmetry_equiv_pos_as_xyz
1 x,y,z
2 -x,-y,1/2+z
3 1/2+x,-y,z
4 1/2-x,y,1/2+z
_cell_length_a 21.649(7)
_cell_length_b 11.453(2)
_cell_length_c 5.255(2)
_cell_angle_alpha 90
_cell_angle_beta 90
_cell_angle_gamma 90
_cell_formula_units_Z 4
loop_
_atom_type_symbol
_atom_type_radius_bond
C 0.68
H 0.23
loop_
_atom_site_label
_atom_site_type_symbol
_atom_site_fract_x
_atom_site_fract_y
_atom_site_fract_z
C1 C 0.5216(2) 0.3204(3) -0.07709
C2 C 0.5382(2) 0.4069(3) 0.0919(7)
C3 C 0.5846(2) 0.3846(3) 0.2768(7)
C4 C 0.6609(2) 0.2512(3) 0.4799(7)
C5 C 0.6835(2) 0.1437(3) 0.4969(7)
C6 C 0.6862(2) -0.0638(3) 0.3644(7)
C7 C 0.6871(2) -0.2708(3) 0.2462(8)
C8 C 0.6691(2) -0.3603(3) 0.0931(8)
C9 C 0.6284(2) -0.3372(3) -0.1057(8)
C10 C 0.6070(2) -0.2263(3) -0.1507(7)
C11 C 0.5575(2) 0.0120(3) -0.2213(7)
C12 C 0.5327(2) 0.1203(3) -0.2397(7)
C13 C 0.6127(2) 0.2763(3) 0.2920(8)
C14 C 0.5495(2) 0.2103(3) -0.0691(8)
C15 C 0.5945(2) 0.1864(3) 0.1221(7)
C16 C 0.6202(2) 0.0725(3) 0.1385(7)
C17 C 0.6644(2) 0.0492(3) 0.3338(8)
C18 C 0.6004(2) -0.0162(3) -0.0275(7)
C19 C 0.6243(2) -0.1335(3) 0.0050(8)
C20 C 0.6665(2) -0.1547(3) 0.2099(9)
C21 C 0.6829(2) 0.3488(3) 0.6575(9)
H1 H 0.48900 0.33700 -0.20700
H2 H 0.51800 0.48500 0.08400
H3 H 0.59700 0.44800 0.39700
H4 H 0.71500 0.12700 0.63000
H5 H 0.71700 -0.08000 0.50200
H6 H 0.71600 -0.28800 0.39000
H7 H 0.68500 -0.44100 0.12300
H8 H 0.61500 -0.40300 -0.21800
H9 H 0.57900 -0.21200 -0.29800
H10 H 0.54500 -0.04900 -0.34700
H11 H 0.50200 0.13700 -0.37700
H12 H 0.65900 0.42500 0.61300
H13 H 0.72900 0.37300 0.64700
H14 H 0.67500 0.33900 0.85100
loop_
_geom_bond_atom_site_label_1
_geom_bond_atom_site_label_2
_geom_bond_distance
_geom_bond_site_symmetry_1
_geom_bond_site_symmetry_2
C1 C2 1.378 1_555 1_555
C2 C3 1.421 1_555 1_555
C3 C13 1.384 1_555 1_555
C4 C5 1.328 1_555 1_555
C5 C17 1.441 1_555 1_555
C6 C17 1.387 1_555 1_555
C7 C8 1.360 1_555 1_555
C8 C9 1.392 1_555 1_555
C9 C10 1.373 1_555 1_555
C10 C19 1.393 1_555 1_555
C11 C12 1.355 1_555 1_555
C12 C14 1.414 1_555 1_555
C13 C4 1.465 1_555 1_555
C14 C1 1.399 1_555 1_555
C15 C13 1.419 1_555 1_555
C16 C15 1.421 1_555 1_555
C17 C16 1.428 1_555 1_555
C18 C11 1.416 1_555 1_555
C19 C18 1.450 1_555 1_555
C20 C6 1.387 1_555 1_555
C21 C4 1.532 1_555 1_555
H1 C1 1.000 1_555 1_555
H2 C2 0.997 1_555 1_555
H3 C3 0.999 1_555 1_555
H4 C5 0.995 1_555 1_555
H5 C6 1.001 1_555 1_555
H6 C7 1.001 1_555 1_555
H7 C8 0.999 1_555 1_555
H8 C9 1.000 1_555 1_555
H9 C10 0.997 1_555 1_555
H10 C11 0.999 1_555 1_555
H11 C12 0.999 1_555 1_555
H12 C21 1.041 1_555 1_555
H13 C21 1.037 1_555 1_555
H14 C21 1.037 1_555 1_555
C7 C20 1.415 1_555 1_555
C14 C15 1.426 1_555 1_555
C16 C18 1.406 1_555 1_555
C19 C20 1.433 1_555 1_555
#END
