
#######################################################################
#
#                 Cambridge Crystallographic Data Centre
#                                CCDC
#
#######################################################################
#
# If this CIF has been generated from an entry in the Cambridge
# Structural Database, then it will include bibliographic, chemical,
# crystal, experimental, refinement or atomic coordinate data resulting
# from the CCDC's data processing and validation procedures.
#
#######################################################################

data_CSD_CIF_SIDQIH
_audit_creation_date 2013-07-25
_audit_creation_method CSD-ConQuest-V1
_database_code_CSD SIDQIH
_database_code_depnum_ccdc_archive 'CCDC 860992'
_chemical_formula_sum 'C34 H24'
_chemical_formula_moiety
;
C34 H24
;
_journal_coden_Cambridge 1500
_journal_volume 3
_journal_year 2013
_journal_page_first 14950
_journal_name_full 'RSC Advances '
loop_
_publ_author_name
"Ye-Xin Li"
"Mao-Ping Pang"
"Zhen-Wei Zhang"
"Guo-Bao Li"
"Guo-Xin Sun"
_chemical_name_systematic
;
trans,trans-9-(2-(4-(2-(1-Naphthyl)vinyl)phenyl)vinyl)anthracene
;
_cell_volume   2345.228
_exptl_crystal_colour 'yellow'
_exptl_crystal_density_diffrn 1.225
_exptl_crystal_description 'needle'
_diffrn_ambient_temperature 291.1
#These two values have been output from a single CSD field.
_refine_ls_R_factor_gt 0.053
_refine_ls_wR_factor_gt 0.053
loop_
_citation_database_id_CSD
_citation_special_details
SIDQON "is a stereoisomer of this entry"
_symmetry_cell_setting monoclinic
_symmetry_space_group_name_H-M 'P 21/n'
_symmetry_Int_Tables_number 14
loop_
_symmetry_equiv_pos_site_id
_symmetry_equiv_pos_as_xyz
1 x,y,z
2 1/2-x,1/2+y,1/2-z
3 -x,-y,-z
4 -1/2+x,-1/2-y,-1/2+z
_cell_length_a 15.7869(7)
_cell_length_b 6.0629(3)
_cell_length_c 25.6359(10)
_cell_angle_alpha 90
_cell_angle_beta 107.102(5)
_cell_angle_gamma 90
_cell_formula_units_Z 4
loop_
_atom_type_symbol
_atom_type_radius_bond
C 0.68
H 0.23
loop_
_atom_site_label
_atom_site_type_symbol
_atom_site_fract_x
_atom_site_fract_y
_atom_site_fract_z
C1 C 0.74337(11) 0.5154(3) 0.15549(6)
C2 C 0.59679(12) 0.6217(3) 0.09772(6)
C3 C 0.70576(12) 0.3248(3) 0.17326(6)
C4 C 0.68863(12) 0.6585(3) 0.11658(6)
C5 C 0.55974(12) 0.4306(3) 0.11596(7)
C6 C 0.61529(12) 0.2870(3) 0.15257(7)
H1 H 0.59120 0.16160 0.16360
C7 C 0.84959(11) 1.3543(3) -0.03223(7)
C8 C 0.77378(12) 1.0324(3) 0.02037(6)
C9 C 0.76273(13) 0.1795(3) 0.21148(7)
H2 H 0.73900 0.05470 0.22300
C10 C 0.88552(13) 1.5281(3) -0.05929(7)
H3 H 0.92010 1.63490 -0.03680
C11 C 0.83641(12) 0.5481(3) 0.17757(7)
H4 H 0.86250 0.66960 0.16630
C12 C 0.88734(11) 1.7238(3) -0.19875(7)
C13 C 0.85061(14) 0.2194(3) 0.23141(7)
H5 H 0.88660 0.12240 0.25640
C14 C 0.85084(13) 1.3760(3) 0.02200(7)
H6 H 0.87740 1.49970 0.04150
C15 C 0.81384(12) 1.2198(3) 0.04762(7)
H7 H 0.81580 1.24040 0.08390
C16 C 0.73105(12) 0.8421(3) 0.09511(7)
H8 H 0.75960 0.95050 0.11970
C17 C 0.87406(12) 1.5493(3) -0.11210(7)
H9 H 0.84050 1.43980 -0.13420
C18 C 0.81085(12) 1.1640(3) -0.05918(7)
H10 H 0.81020 1.14120 -0.09520
C19 C 0.73152(12) 0.8634(3) 0.04505(7)
H11 H 0.70050 0.75560 0.02120
C20 C 0.88794(13) 0.4075(3) 0.21444(8)
H12 H 0.94830 0.43500 0.22870
C21 C 0.77357(13) 1.0094(3) -0.03362(7)
H13 H 0.74730 0.88520 -0.05300
C22 C 0.83840(13) 1.5560(4) -0.23259(8)
H14 H 0.81480 1.44190 -0.21700
C23 C 0.91978(12) 1.8983(3) -0.22464(8)
C24 C 0.90752(12) 1.7237(3) -0.14040(7)
C25 C 0.53689(14) 0.7700(4) 0.06202(7)
H15 H 0.55910 0.89600 0.05000
C26 C 0.46612(13) 0.3956(4) 0.09637(8)
H16 H 0.44160 0.27080 0.10730
C27 C 0.95838(13) 1.8931(3) -0.11163(8)
H17 H 0.97270 1.89310 -0.07380
C28 C 0.98923(14) 2.0656(4) -0.13766(10)
H18 H 1.02310 2.17830 -0.11710
C29 C 0.90382(14) 1.8937(4) -0.28172(9)
H19 H 0.92510 2.00800 -0.29850
C30 C 0.96976(14) 2.0684(4) -0.19266(10)
H20 H 0.98980 2.18450 -0.20960
C31 C 0.44860(15) 0.7318(4) 0.04520(8)
H21 H 0.41120 0.83250 0.02220
C32 C 0.41257(14) 0.5423(4) 0.06200(8)
H22 H 0.35180 0.51730 0.04950
C33 C 0.82489(15) 1.5573(4) -0.28775(8)
H23 H 0.79300 1.44380 -0.30910
C34 C 0.85875(15) 1.7285(5) -0.31232(9)
H24 H 0.85000 1.72760 -0.34980
loop_
_geom_bond_atom_site_label_1
_geom_bond_atom_site_label_2
_geom_bond_distance
_geom_bond_site_symmetry_1
_geom_bond_site_symmetry_2
C1 C3 1.433 1_555 1_555
C2 C4 1.405 1_555 1_555
C3 C6 1.389 1_555 1_555
C4 C1 1.410 1_555 1_555
C5 C2 1.437 1_555 1_555
C6 C5 1.387 1_555 1_555
H1 C6 0.931 1_555 1_555
C7 C10 1.464 1_555 1_555
C8 C15 1.385 1_555 1_555
C9 C3 1.424 1_555 1_555
H2 C9 0.930 1_555 1_555
C10 H3 0.930 1_555 1_555
C11 C1 1.424 1_555 1_555
H4 C11 0.930 1_555 1_555
C12 C22 1.411 1_555 1_555
C13 C9 1.352 1_555 1_555
H5 C13 0.930 1_555 1_555
C14 C7 1.391 1_555 1_555
H6 C14 0.930 1_555 1_555
C15 C14 1.377 1_555 1_555
H7 C15 0.930 1_555 1_555
C16 C4 1.486 1_555 1_555
H8 C16 0.930 1_555 1_555
C17 C10 1.318 1_555 1_555
H9 C17 0.931 1_555 1_555
C18 C7 1.391 1_555 1_555
H10 C18 0.931 1_555 1_555
C19 C8 1.464 1_555 1_555
H11 C19 0.930 1_555 1_555
C20 C11 1.353 1_555 1_555
H12 C20 0.930 1_555 1_555
C21 C8 1.390 1_555 1_555
H13 C21 0.930 1_555 1_555
C22 H14 0.930 1_555 1_555
C23 C12 1.422 1_555 1_555
C24 C12 1.435 1_555 1_555
C25 C2 1.425 1_555 1_555
H15 C25 0.930 1_555 1_555
C26 C5 1.430 1_555 1_555
H16 C26 0.930 1_555 1_555
C27 C24 1.377 1_555 1_555
H17 C27 0.929 1_555 1_555
C28 C27 1.403 1_555 1_555
H18 C28 0.930 1_555 1_555
C29 C23 1.410 1_555 1_555
H19 C29 0.929 1_555 1_555
C30 C23 1.406 1_555 1_555
H20 C30 0.930 1_555 1_555
C31 C25 1.352 1_555 1_555
H21 C31 0.930 1_555 1_555
C32 C26 1.358 1_555 1_555
H22 C32 0.930 1_555 1_555
C33 C22 1.367 1_555 1_555
H23 C33 0.930 1_555 1_555
C34 C29 1.340 1_555 1_555
H24 C34 0.930 1_555 1_555
C13 C20 1.410 1_555 1_555
C16 C19 1.292 1_555 1_555
C17 C24 1.466 1_555 1_555
C18 C21 1.372 1_555 1_555
C28 C30 1.352 1_555 1_555
C31 C32 1.405 1_555 1_555
C33 C34 1.399 1_555 1_555
#END
