
#######################################################################
#
#                 Cambridge Crystallographic Data Centre
#                                CCDC
#
#######################################################################
#
# If this CIF has been generated from an entry in the Cambridge
# Structural Database, then it will include bibliographic, chemical,
# crystal, experimental, refinement or atomic coordinate data resulting
# from the CCDC's data processing and validation procedures.
#
#######################################################################

data_CSD_CIF_SIDQON
_audit_creation_date 2013-07-25
_audit_creation_method CSD-ConQuest-V1
_database_code_CSD SIDQON
_database_code_depnum_ccdc_archive 'CCDC 860990'
_chemical_formula_sum 'C34 H24'
_chemical_formula_moiety
;
C34 H24
;
_journal_coden_Cambridge 1500
_journal_volume 3
_journal_year 2013
_journal_page_first 14950
_journal_name_full 'RSC Advances '
loop_
_publ_author_name
"Ye-Xin Li"
"Mao-Ping Pang"
"Zhen-Wei Zhang"
"Guo-Bao Li"
"Guo-Xin Sun"
_chemical_name_systematic
;
cis,trans-9-(2-(4-(2-(1-Naphthyl)vinyl)phenyl)vinyl)anthracene
;
_cell_volume   2357.117
_exptl_crystal_colour 'yellow'
_exptl_crystal_density_diffrn 1.219
_exptl_crystal_description 'needle'
_diffrn_ambient_temperature 291.1
#These two values have been output from a single CSD field.
_refine_ls_R_factor_gt 0.0718
_refine_ls_wR_factor_gt 0.0718
loop_
_citation_database_id_CSD
_citation_special_details
SIDQIH "is a stereoisomer of this entry"
_symmetry_cell_setting monoclinic
_symmetry_space_group_name_H-M 'P 21/c'
_symmetry_Int_Tables_number 14
loop_
_symmetry_equiv_pos_site_id
_symmetry_equiv_pos_as_xyz
1 x,y,z
2 -x,1/2+y,1/2-z
3 -x,-y,-z
4 x,-1/2-y,-1/2+z
_cell_length_a 16.850(4)
_cell_length_b 6.4351(18)
_cell_length_c 22.782(6)
_cell_angle_alpha 90
_cell_angle_beta 107.41(3)
_cell_angle_gamma 90
_cell_formula_units_Z 4
loop_
_atom_type_symbol
_atom_type_radius_bond
C 0.68
H 0.23
loop_
_atom_site_label
_atom_site_type_symbol
_atom_site_fract_x
_atom_site_fract_y
_atom_site_fract_z
C1 C 0.11333(18) 0.4331(5) 0.33156(13)
C2 C 0.09152(19) 0.3085(5) 0.37522(14)
C3 C 0.0223(2) 0.3623(6) 0.39448(14)
C4 C 0.0029(2) 0.6743(6) 0.33263(15)
H1 H -0.02520 0.79820 0.31960
C5 C 0.0681(2) 0.6203(6) 0.31035(15)
C6 C 0.18090(18) 0.0853(5) 0.45835(14)
H2 H 0.17090 0.17850 0.48650
C7 C 0.35122(19) -0.4035(5) 0.53612(15)
C8 C 0.23682(18) -0.0866(5) 0.48416(14)
C9 C 0.14298(19) 0.1245(5) 0.40008(15)
H3 H 0.14910 0.02670 0.37170
C10 C 0.5737(2) -0.2954(6) 0.67978(16)
C11 C 0.3415(2) -0.2369(6) 0.57126(15)
H4 H 0.37300 -0.22850 0.61240
C12 C 0.3009(2) -0.4166(5) 0.47584(14)
H5 H 0.30460 -0.53200 0.45220
C13 C 0.28490(19) -0.0818(5) 0.54547(14)
H6 H 0.27890 0.02910 0.56990
C14 C 0.2447(2) -0.2586(6) 0.45022(15)
H7 H 0.21190 -0.26930 0.40950
C15 C -0.0219(2) 0.5508(6) 0.37349(15)
C16 C 0.1805(2) 0.3826(6) 0.30842(15)
H8 H 0.21190 0.26400 0.32270
C17 C 0.1997(2) 0.5035(7) 0.26602(18)
H9 H 0.24370 0.46690 0.25130
C18 C 0.0911(2) 0.7416(6) 0.26618(16)
H10 H 0.06230 0.86400 0.25210
C19 C 0.5353(2) -0.3510(7) 0.61860(17)
C20 C 0.6337(2) 0.0098(7) 0.6450(2)
H11 H 0.66700 0.12800 0.65330
C21 C 0.5463(2) -0.2260(7) 0.57338(18)
H12 H 0.52020 -0.26120 0.53260
C22 C -0.0086(2) 0.2314(7) 0.43283(16)
H13 H 0.01850 0.10710 0.44700
C23 C 0.6227(2) -0.1139(6) 0.69473(17)
C24 C 0.4879(2) -0.5477(6) 0.60230(16)
H14 H 0.51450 -0.66780 0.62100
C25 C 0.4111(2) -0.5712(6) 0.56363(14)
H15 H 0.39340 -0.70680 0.55290
C26 C -0.0928(2) 0.6003(7) 0.39239(17)
H16 H -0.12150 0.72330 0.37900
C27 C 0.1532(2) 0.6850(7) 0.24400(16)
H17 H 0.16560 0.76550 0.21400
C28 C 0.6018(3) -0.3537(8) 0.78860(18)
H18 H 0.59440 -0.43330 0.82070
C29 C 0.5642(2) -0.4150(7) 0.72989(17)
H19 H 0.53210 -0.53530 0.72230
C30 C 0.5952(2) -0.0473(7) 0.58600(19)
H20 H 0.60140 0.03330 0.55380
C31 C 0.6612(2) -0.0583(8) 0.7560(2)
H21 H 0.69410 0.06040 0.76490
C32 C -0.1192(3) 0.4717(9) 0.42950(19)
H22 H -0.16520 0.50690 0.44200
C33 C -0.0769(3) 0.2847(8) 0.44911(18)
H23 H -0.09610 0.19520 0.47390
C34 C 0.6510(3) -0.1754(9) 0.8027(2)
H24 H 0.67640 -0.13770 0.84340
loop_
_geom_bond_atom_site_label_1
_geom_bond_atom_site_label_2
_geom_bond_distance
_geom_bond_site_symmetry_1
_geom_bond_site_symmetry_2
C1 C2 1.409 1_555 1_555
C2 C3 1.407 1_555 1_555
C3 C15 1.429 1_555 1_555
C4 H1 0.929 1_555 1_555
C5 C1 1.430 1_555 1_555
C6 H2 0.930 1_555 1_555
C7 C11 1.377 1_555 1_555
C8 C6 1.458 1_555 1_555
C9 C2 1.477 1_555 1_555
H3 C9 0.930 1_555 1_555
C10 C19 1.396 1_555 1_555
C11 H4 0.930 1_555 1_555
C12 C7 1.384 1_555 1_555
H5 C12 0.930 1_555 1_555
C13 C8 1.390 1_555 1_555
H6 C13 0.929 1_555 1_555
C14 C8 1.379 1_555 1_555
H7 C14 0.930 1_555 1_555
C15 C4 1.380 1_555 1_555
C16 C1 1.422 1_555 1_555
H8 C16 0.930 1_555 1_555
C17 C16 1.353 1_555 1_555
H9 C17 0.931 1_555 1_555
C18 C5 1.416 1_555 1_555
H10 C18 0.930 1_555 1_555
C19 C21 1.363 1_555 1_555
C20 H11 0.930 1_555 1_555
C21 H12 0.929 1_555 1_555
C22 C3 1.420 1_555 1_555
H13 C22 0.930 1_555 1_555
C23 C10 1.412 1_555 1_555
C24 C19 1.483 1_555 1_555
H14 C24 0.930 1_555 1_555
C25 C7 1.482 1_555 1_555
H15 C25 0.931 1_555 1_555
C26 C15 1.422 1_555 1_555
H16 C26 0.930 1_555 1_555
C27 C17 1.412 1_555 1_555
H17 C27 0.930 1_555 1_555
C28 H18 0.931 1_555 1_555
C29 C10 1.425 1_555 1_555
H19 C29 0.930 1_555 1_555
C30 C20 1.357 1_555 1_555
H20 C30 0.929 1_555 1_555
C31 C23 1.398 1_555 1_555
H21 C31 0.930 1_555 1_555
C32 C26 1.350 1_555 1_555
H22 C32 0.930 1_555 1_555
C33 C22 1.355 1_555 1_555
H23 C33 0.930 1_555 1_555
C34 C28 1.396 1_555 1_555
H24 C34 0.930 1_555 1_555
C4 C5 1.385 1_555 1_555
C6 C9 1.314 1_555 1_555
C11 C13 1.384 1_555 1_555
C12 C14 1.393 1_555 1_555
C18 C27 1.341 1_555 1_555
C20 C23 1.441 1_555 1_555
C21 C30 1.394 1_555 1_555
C24 C25 1.338 1_555 1_555
C28 C29 1.356 1_555 1_555
C31 C34 1.356 1_555 1_555
C32 C33 1.402 1_555 1_555
#END
