
#######################################################################
#
#                 Cambridge Crystallographic Data Centre
#                                CCDC
#
#######################################################################
#
# If this CIF has been generated from an entry in the Cambridge
# Structural Database, then it will include bibliographic, chemical,
# crystal, experimental, refinement or atomic coordinate data resulting
# from the CCDC's data processing and validation procedures.
#
#######################################################################

data_CSD_CIF_SIJHOK
_audit_creation_date 2013-07-29
_audit_creation_method CSD-ConQuest-V1
_database_code_CSD SIJHOK
_database_code_depnum_ccdc_archive 'CCDC 773768'
_chemical_formula_sum 'C44 H26'
_chemical_formula_moiety
;
C44 H26
;
_journal_coden_Cambridge 440
_journal_volume 37
_journal_year 2013
_journal_page_first 2881
_journal_name_full 'New J.Chem. '
loop_
_publ_author_name
"Jongchul Kwon"
"Jung-Pyo Hong"
"Seonghoon Lee"
"Jong-In Hong"
_chemical_name_systematic
;
1,1'-Biphenyl-4,4'-diyldipyrene
;
_cell_volume    672.018
_exptl_crystal_density_diffrn 1.371
_diffrn_ambient_temperature 296
#These two values have been output from a single CSD field.
_refine_ls_R_factor_gt 0.0753
_refine_ls_wR_factor_gt 0.0753
_symmetry_cell_setting triclinic
_symmetry_space_group_name_H-M 'P -1'
_symmetry_Int_Tables_number 2
loop_
_symmetry_equiv_pos_site_id
_symmetry_equiv_pos_as_xyz
1 x,y,z
2 -x,-y,-z
_cell_length_a 8.0943(4)
_cell_length_b 8.7229(4)
_cell_length_c 10.6687(5)
_cell_angle_alpha 99.129(3)
_cell_angle_beta 90.439(3)
_cell_angle_gamma 114.943(2)
_cell_formula_units_Z 1
loop_
_atom_type_symbol
_atom_type_radius_bond
C 0.68
H 0.23
loop_
_atom_site_label
_atom_site_type_symbol
_atom_site_fract_x
_atom_site_fract_y
_atom_site_fract_z
C1 C 0.04879(17) -0.40498(14) 0.52199(11)
C2 C 0.02798(19) -0.32774(16) 0.64229(12)
H1 H -0.04880 -0.39570 0.69570
C3 C 0.1199(2) -0.15138(16) 0.68351(12)
H2 H 0.10470 -0.10380 0.76450
C4 C 0.23408(19) -0.04440(16) 0.60630(12)
C5 C 0.2528(2) -0.12050(16) 0.48523(12)
H3 H 0.32620 -0.05180 0.43080
C6 C 0.1637(2) -0.29712(16) 0.44487(12)
H4 H 0.18110 -0.34470 0.36450
C7 C 0.32498(19) 0.14648(16) 0.64517(12)
C8 C 0.45323(18) 0.22894(16) 0.75253(12)
C9 C 0.53223(18) 0.41210(16) 0.78387(12)
C10 C 0.48442(19) 0.50866(16) 0.70791(12)
C11 C 0.3577(2) 0.42211(17) 0.60223(12)
H5 H 0.32530 0.48430 0.55160
C12 C 0.27997(19) 0.24433(17) 0.57233(12)
H6 H 0.19560 0.18900 0.50180
C13 C 0.51004(19) 0.13776(16) 0.83116(12)
H7 H 0.46390 0.01880 0.80990
C14 C 0.6295(2) 0.22105(17) 0.93588(12)
H8 H 0.66210 0.15780 0.98530
C15 C 0.70677(19) 0.40519(17) 0.97189(12)
C16 C 0.65959(19) 0.49906(16) 0.89370(12)
C17 C 0.7368(2) 0.68210(17) 0.92521(13)
C18 C 0.6860(2) 0.77529(16) 0.84549(14)
H9 H 0.73650 0.89460 0.86550
C19 C 0.5660(2) 0.69334(17) 0.74175(13)
H10 H 0.53570 0.75710 0.69150
C20 C 0.8267(2) 0.49248(19) 1.08155(13)
H11 H 0.85710 0.43090 1.13390
C21 C 0.9002(2) 0.6703(2) 1.11224(13)
H12 H 0.97960 0.72710 1.18510
C22 C 0.8569(2) 0.76344(18) 1.03591(13)
H13 H 0.90800 0.88260 1.05790
C1A C -0.04879(17) -0.59502(14) 0.47801(11)
C2A C -0.02798(19) -0.67226(16) 0.35771(12)
H1A H 0.04880 -0.60430 0.30430
C3A C -0.1199(2) -0.84862(16) 0.31649(12)
H2A H -0.10470 -0.89620 0.23550
C4A C -0.23408(19) -0.95560(16) 0.39370(12)
C5A C -0.2528(2) -0.87950(16) 0.51477(12)
H3A H -0.32620 -0.94820 0.56920
C6A C -0.1637(2) -0.70288(16) 0.55513(12)
H4A H -0.18110 -0.65530 0.63550
C7A C -0.32498(19) -1.14648(16) 0.35483(12)
C8A C -0.45323(18) -1.22894(16) 0.24747(12)
C9A C -0.53223(18) -1.41210(16) 0.21613(12)
C10A C -0.48442(19) -1.50866(16) 0.29209(12)
C11A C -0.3577(2) -1.42211(17) 0.39777(12)
H5A H -0.32530 -1.48430 0.44840
C12A C -0.27997(19) -1.24433(17) 0.42767(12)
H6A H -0.19560 -1.18900 0.49820
C13A C -0.51004(19) -1.13776(16) 0.16884(12)
H7A H -0.46390 -1.01880 0.19010
C14A C -0.6295(2) -1.22105(17) 0.06412(12)
H8A H -0.66210 -1.15780 0.01470
C15A C -0.70677(19) -1.40519(17) 0.02811(12)
C16A C -0.65959(19) -1.49906(16) 0.10630(12)
C17A C -0.7368(2) -1.68210(17) 0.07479(13)
C18A C -0.6860(2) -1.77529(16) 0.15451(14)
H9A H -0.73650 -1.89460 0.13450
C19A C -0.5660(2) -1.69334(17) 0.25825(13)
H10A H -0.53570 -1.75710 0.30850
C20A C -0.8267(2) -1.49248(19) -0.08155(13)
H11A H -0.85710 -1.43090 -0.13390
C21A C -0.9002(2) -1.6703(2) -0.11224(13)
H12A H -0.97960 -1.72710 -0.18510
C22A C -0.8569(2) -1.76344(18) -0.03591(13)
H13A H -0.90800 -1.88260 -0.05790
loop_
_geom_bond_atom_site_label_1
_geom_bond_atom_site_label_2
_geom_bond_distance
_geom_bond_site_symmetry_1
_geom_bond_site_symmetry_2
C1 C2 1.398 1_555 1_555
C2 H1 0.930 1_555 1_555
C3 C2 1.389 1_555 1_555
H2 C3 0.930 1_555 1_555
C4 C3 1.390 1_555 1_555
C5 C4 1.396 1_555 1_555
H3 C5 0.930 1_555 1_555
C6 C1 1.395 1_555 1_555
H4 C6 0.930 1_555 1_555
C7 C4 1.493 1_555 1_555
C8 C7 1.413 1_555 1_555
C9 C8 1.428 1_555 1_555
C10 C9 1.415 1_555 1_555
C11 C10 1.397 1_555 1_555
H5 C11 0.930 1_555 1_555
C12 C7 1.391 1_555 1_555
H6 C12 0.930 1_555 1_555
C13 C8 1.436 1_555 1_555
H7 C13 0.930 1_555 1_555
C14 C13 1.358 1_555 1_555
H8 C14 0.930 1_555 1_555
C15 C14 1.439 1_555 1_555
C16 C9 1.432 1_555 1_555
C17 C16 1.427 1_555 1_555
C18 C17 1.431 1_555 1_555
H9 C18 0.930 1_555 1_555
C19 C10 1.441 1_555 1_555
H10 C19 0.930 1_555 1_555
C20 C15 1.403 1_555 1_555
H11 C20 0.930 1_555 1_555
C21 C20 1.387 1_555 1_555
H12 C21 0.930 1_555 1_555
C22 C17 1.406 1_555 1_555
H13 C22 0.930 1_555 1_555
C1A C1 1.495 1_555 1_555
C2A C1A 1.398 1_555 1_555
H1A C2A 0.930 1_555 1_555
C3A C2A 1.389 1_555 1_555
H2A C3A 0.930 1_555 1_555
C4A C3A 1.390 1_555 1_555
C5A C4A 1.396 1_555 1_555
H3A C5A 0.930 1_555 1_555
C6A C1A 1.395 1_555 1_555
H4A C6A 0.930 1_555 1_555
C7A C4A 1.493 1_555 1_555
C8A C7A 1.413 1_555 1_555
C9A C8A 1.428 1_555 1_555
C10A C9A 1.415 1_555 1_555
C11A C10A 1.397 1_555 1_555
H5A C11A 0.930 1_555 1_555
C12A C7A 1.391 1_555 1_555
H6A C12A 0.930 1_555 1_555
C13A C8A 1.436 1_555 1_555
H7A C13A 0.930 1_555 1_555
C14A C13A 1.358 1_555 1_555
H8A C14A 0.930 1_555 1_555
C15A C14A 1.439 1_555 1_555
C16A C9A 1.432 1_555 1_555
C17A C16A 1.427 1_555 1_555
C18A C17A 1.431 1_555 1_555
H9A C18A 0.930 1_555 1_555
C19A C10A 1.441 1_555 1_555
H10A C19A 0.930 1_555 1_555
C20A C15A 1.403 1_555 1_555
H11A C20A 0.930 1_555 1_555
C21A C20A 1.387 1_555 1_555
H12A C21A 0.930 1_555 1_555
C22A C17A 1.406 1_555 1_555
H13A C22A 0.930 1_555 1_555
C5 C6 1.388 1_555 1_555
C11 C12 1.385 1_555 1_555
C15 C16 1.410 1_555 1_555
C18 C19 1.351 1_555 1_555
C21 C22 1.375 1_555 1_555
C5A C6A 1.388 1_555 1_555
C11A C12A 1.385 1_555 1_555
C15A C16A 1.410 1_555 1_555
C18A C19A 1.351 1_555 1_555
C21A C22A 1.375 1_555 1_555
#END
