
#######################################################################
#
#                 Cambridge Crystallographic Data Centre
#                                CCDC
#
#######################################################################
#
# If this CIF has been generated from an entry in the Cambridge
# Structural Database, then it will include bibliographic, chemical,
# crystal, experimental, refinement or atomic coordinate data resulting
# from the CCDC's data processing and validation procedures.
#
#######################################################################

data_CSD_CIF_SIWFUZ10
_audit_creation_date 1996-09-23
_audit_creation_method CSD-ConQuest-V1
_database_code_CSD SIWFUZ10
_database_code_depnum_ccdc_fiz 'CSD 320155'
_chemical_formula_sum 'C12 H8'
_chemical_formula_moiety
;
C12 H8
;
_journal_coden_Cambridge 1078
_journal_year 1996
_journal_name_full 'CSD Communication(Private Communication) '
loop_
_publ_author_name
"R.Boese"
"D.Blaser"
"N.Niederprum"
"T.Miebach"
_chemical_name_systematic
;
Dicyclopropa(b,g)naphthalene
;
_cell_volume    380.262
_diffrn_ambient_temperature 117
#These two values have been output from a single CSD field.
_refine_ls_R_factor_gt 0.05
_refine_ls_wR_factor_gt 0.05
_symmetry_cell_setting monoclinic
_symmetry_space_group_name_H-M 'P 21/n'
_symmetry_Int_Tables_number 14
loop_
_symmetry_equiv_pos_site_id
_symmetry_equiv_pos_as_xyz
1 x,y,z
2 1/2-x,1/2+y,1/2-z
3 -x,-y,-z
4 -1/2+x,-1/2-y,-1/2+z
_cell_length_a 5.7144(13)
_cell_length_b 6.3137(14)
_cell_length_c 10.5929(25)
_cell_angle_alpha 90
_cell_angle_beta 95.745(19)
_cell_angle_gamma 90
_cell_formula_units_Z 2
loop_
_atom_type_symbol
_atom_type_radius_bond
C 0.68
H 0.23
loop_
_atom_site_label
_atom_site_type_symbol
_atom_site_fract_x
_atom_site_fract_y
_atom_site_fract_z
C1 C -0.19975(41) 0.01259(36) 0.64916(22)
H1 H -0.2946(42) 0.0181(33) 0.7223(22)
H2 H -0.1788(38) -0.1317(36) 0.616(2)
C2 C -0.02255(37) 0.18657(33) 0.63355(19)
C3 C 0.15098(37) 0.33157(35) 0.63403(19)
H3 H 0.2988(38) 0.3280(32) 0.6893(20)
C4 C 0.10819(38) 0.49831(34) 0.54222(18)
C5 C 0.28226(37) 0.66058(36) 0.53462(20)
H4 H 0.4267(42) 0.6546(35) 0.5907(22)
C6 C -0.22586(37) 0.19015(32) 0.55489(19)
C4B C -0.10819(38) 0.50169(34) 0.45778(18)
C3B C -0.15098(37) 0.66843(35) 0.36597(19)
C2B C 0.02255(37) 0.81343(33) 0.36645(19)
C1B C 0.19975(41) 0.98741(36) 0.35084(22)
H1B H 0.2946(42) 0.9819(33) 0.2777(22)
H2B H 0.1788(38) 1.1317(36) 0.384(2)
C6B C 0.22586(37) 0.80985(32) 0.44511(19)
H3B H -0.2988(38) 0.6720(32) 0.3107(20)
C5B C -0.28226(37) 0.33942(36) 0.46538(20)
H4B H -0.4267(42) 0.3454(35) 0.4093(22)
loop_
_geom_bond_atom_site_label_1
_geom_bond_atom_site_label_2
_geom_bond_distance
_geom_bond_site_symmetry_1
_geom_bond_site_symmetry_2
C1 H1 0.990 1_555 1_555
H2 C1 0.988 1_555 1_555
C2 C1 1.514 1_555 1_555
C3 C2 1.349 1_555 1_555
H3 C3 0.979 1_555 1_555
C4 C3 1.437 1_555 1_555
C5 C4 1.436 1_555 1_555
H4 C5 0.968 1_555 1_555
C6 C1 1.499 1_555 1_555
C4B C4 1.452 1_555 1_555
C3B C4B 1.437 1_555 1_555
C2B C3B 1.349 1_555 1_555
C1B C2B 1.514 1_555 1_555
H1B C1B 0.990 1_555 1_555
H2B C1B 0.988 1_555 1_555
C6B C5 1.353 1_555 1_555
H3B C3B 0.979 1_555 1_555
C5B C6 1.353 1_555 1_555
H4B C5B 0.968 1_555 1_555
C2 C6 1.360 1_555 1_555
C4B C5B 1.436 1_555 1_555
C2B C6B 1.360 1_555 1_555
C1B C6B 1.499 1_555 1_555
#END
