
#######################################################################
#
#                 Cambridge Crystallographic Data Centre
#                                CCDC
#
#######################################################################
#
# If this CIF has been generated from an entry in the Cambridge
# Structural Database, then it will include bibliographic, chemical,
# crystal, experimental, refinement or atomic coordinate data resulting
# from the CCDC's data processing and validation procedures.
#
#######################################################################

data_CSD_CIF_SOBCIV
_audit_creation_date 1991-11-25
_audit_creation_method CSD-ConQuest-V1
_database_code_CSD SOBCIV
_chemical_formula_sum 'C38 H24'
_chemical_formula_moiety
;
C38 H24
;
_journal_coden_Cambridge 35
_journal_volume 56
_journal_year 1991
_journal_page_first 3219
_journal_name_full 'J.Org.Chem. '
loop_
_publ_author_name
"B.F.Plummer"
"S.J.Russell"
"W.G.Reese"
"W.H.Watson"
"M.Krawiec"
_chemical_name_systematic
;
7,10-Diphenyl-8,9-(1',8'-naphthenylene)acephenanthrene
;
_chemical_melting_point 573.15
_cell_volume   2490.643
_exptl_crystal_colour 'yellow'
_exptl_crystal_density_diffrn 1.28
_exptl_special_details
;
Melts with decomposition.
Fluorescent

;
_diffrn_ambient_temperature ?
_diffrn_special_details
;
The study was carried out at room temperature,in the range 283-303K

;
#These two values have been output from a single CSD field.
_refine_ls_R_factor_gt 0.0655
_refine_ls_wR_factor_gt 0.0655
_symmetry_cell_setting monoclinic
_symmetry_space_group_name_H-M 'P 21/c'
_symmetry_Int_Tables_number 14
loop_
_symmetry_equiv_pos_site_id
_symmetry_equiv_pos_as_xyz
1 x,y,z
2 -x,1/2+y,1/2-z
3 -x,-y,-z
4 x,-1/2-y,-1/2+z
_cell_length_a 10.097(6)
_cell_length_b 13.244(8)
_cell_length_c 18.723(8)
_cell_angle_alpha 90
_cell_angle_beta 95.86(4)
_cell_angle_gamma 90
_cell_formula_units_Z 4
loop_
_atom_type_symbol
_atom_type_radius_bond
C 0.68
H 0.23
loop_
_atom_site_label
_atom_site_type_symbol
_atom_site_fract_x
_atom_site_fract_y
_atom_site_fract_z
C1 C -0.4734(4) 0.6244(3) -0.1791(2)
C2 C -0.3666(4) 0.5597(3) -0.1968(3)
C3 C -0.3995(4) 0.4797(3) -0.2423(2)
C4 C -0.5361(5) 0.4671(4) -0.2688(2)
C5 C -0.6348(4) 0.5315(4) -0.2529(2)
C6 C -0.6039(4) 0.6133(4) -0.2067(2)
C7 C -0.6951(4) 0.6857(4) -0.1841(2)
C8 C -0.6509(4) 0.7553(3) -0.1343(2)
C9 C -0.5183(4) 0.7621(3) -0.1037(2)
C10 C -0.4260(4) 0.6947(3) -0.1266(2)
C11 C -0.2815(4) 0.6757(3) -0.1085(2)
C12 C -0.1893(4) 0.7170(3) -0.0575(2)
C13 C -0.2410(4) 0.7971(3) -0.0102(2)
C14 C -0.2559(4) 0.8963(3) -0.0343(2)
C15 C -0.3073(5) 0.9682(4) 0.0083(3)
C16 C -0.3465(5) 0.9418(5) 0.0730(3)
C17 C -0.3333(5) 0.8447(5) 0.0988(3)
C18 C -0.2782(4) 0.7726(3) 0.0561(2)
C19 C -0.2444(3) 0.5940(3) -0.1542(2)
C20 C -0.1172(4) 0.5592(3) -0.1480(2)
C21 C -0.0756(4) 0.4842(3) -0.2007(2)
C22 C -0.0387(4) 0.3861(3) -0.1821(2)
C23 C 0.0019(4) 0.3199(3) -0.2322(3)
C24 C 0.0040(5) 0.3497(4) -0.3024(3)
C25 C -0.0342(4) 0.4447(4) -0.3226(2)
C26 C -0.0742(4) 0.5134(3) -0.2722(2)
C27 C -0.0222(4) 0.5977(3) -0.0934(2)
C28 C -0.0586(3) 0.6808(3) -0.0487(2)
C29 C 0.0486(4) 0.7209(3) 0.0028(2)
C30 C 0.0462(4) 0.8078(3) 0.0467(2)
C31 C 0.1548(4) 0.8328(4) 0.0934(2)
C32 C 0.2725(4) 0.7778(4) 0.0997(2)
C33 C 0.2806(4) 0.6950(3) 0.0566(2)
C34 C 0.3941(4) 0.6226(3) 0.0496(2)
C35 C 0.3393(4) 0.5494(4) -0.0093(3)
C36 C 0.1995(4) 0.5833(3) -0.0319(2)
C37 C 0.1084(4) 0.5531(4) -0.0828(2)
C38 C 0.1696(4) 0.6685(3) 0.0097(2)
H1 H -0.3093(34) 0.4316(30) -0.2535(19)
H2 H -0.5529(31) 0.4104(27) -0.2984(18)
H3 H -0.7355(30) 0.5216(27) -0.2716(18)
H4 H -0.7908(28) 0.6834(24) -0.2053(16)
H5 H -0.7183(31) 0.7970(27) -0.1146(18)
H6 H -0.4934(33) 0.8024(28) -0.0609(18)
H7 H -0.2304(33) 0.9095(30) -0.083(2)
H8 H -0.3423(39) 1.0310(35) -0.0067(22)
H9 H -0.3887(29) 0.9884(25) 0.1047(17)
H10 H -0.3631(38) 0.8211(34) 0.1469(23)
H11 H -0.2674(23) 0.7116(21) 0.0739(13)
H12 H -0.0360(29) 0.3741(25) -0.1304(17)
H13 H 0.0516(35) 0.2667(33) -0.2155(21)
H14 H 0.0574(38) 0.3025(33) -0.3384(22)
H15 H -0.0453(30) 0.4677(28) -0.3765(18)
H16 H -0.1400(47) 0.5786(39) -0.2907(28)
H17 H -0.0446(26) 0.8506(23) 0.0418(15)
H18 H 0.1518(36) 0.8903(32) 0.1296(20)
H19 H 0.3538(30) 0.7940(28) 0.1334(17)
H20 H 0.4861(37) 0.6615(33) 0.0335(22)
H21 H 0.4386(40) 0.5881(36) 0.0936(25)
H22 H 0.3943(40) 0.5520(34) -0.0521(23)
H23 H 0.3490(39) 0.4942(33) -0.0020(23)
H24 H 0.1408(37) 0.5016(32) -0.1127(22)
loop_
_geom_bond_atom_site_label_1
_geom_bond_atom_site_label_2
_geom_bond_distance
_geom_bond_site_symmetry_1
_geom_bond_site_symmetry_2
C1 C2 1.442 1_555 1_555
C2 C3 1.379 1_555 1_555
C3 C4 1.427 1_555 1_555
C4 C5 1.367 1_555 1_555
C5 C6 1.401 1_555 1_555
C6 C1 1.373 1_555 1_555
C7 C6 1.423 1_555 1_555
C8 C7 1.354 1_555 1_555
C9 C8 1.404 1_555 1_555
C10 C1 1.402 1_555 1_555
C11 C10 1.485 1_555 1_555
C12 C11 1.377 1_555 1_555
C13 C12 1.509 1_555 1_555
C14 C13 1.392 1_555 1_555
C15 C14 1.377 1_555 1_555
C16 C15 1.358 1_555 1_555
C17 C16 1.375 1_555 1_555
C18 C13 1.372 1_555 1_555
C19 C2 1.471 1_555 1_555
C20 C19 1.358 1_555 1_555
C21 C20 1.490 1_555 1_555
C22 C21 1.386 1_555 1_555
C23 C22 1.377 1_555 1_555
C24 C23 1.375 1_555 1_555
C25 C24 1.358 1_555 1_555
C26 C21 1.395 1_555 1_555
C27 C20 1.423 1_555 1_555
C28 C12 1.398 1_555 1_555
C29 C28 1.473 1_555 1_555
C30 C29 1.416 1_555 1_555
C31 C30 1.371 1_555 1_555
C32 C31 1.389 1_555 1_555
C33 C32 1.369 1_555 1_555
C34 C33 1.510 1_555 1_555
C35 C34 1.529 1_555 1_555
C36 C35 1.500 1_555 1_555
C37 C27 1.440 1_555 1_555
C38 C29 1.400 1_555 1_555
H1 C3 1.148 1_555 1_555
H2 C4 0.938 1_555 1_555
H3 C5 1.049 1_555 1_555
H4 C7 1.007 1_555 1_555
H5 C8 0.977 1_555 1_555
H6 C9 0.974 1_555 1_555
H7 C14 0.988 1_555 1_555
H8 C15 0.936 1_555 1_555
H9 C16 0.983 1_555 1_555
H10 C17 1.027 1_555 1_555
H11 C18 0.876 1_555 1_555
H12 C22 0.979 1_555 1_555
H13 C23 0.902 1_555 1_555
H14 C24 1.100 1_555 1_555
H15 C25 1.049 1_555 1_555
H16 C26 1.123 1_555 1_555
H17 C30 1.074 1_555 1_555
H18 C31 1.022 1_555 1_555
H19 C32 1.006 1_555 1_555
H20 C34 1.130 1_555 1_555
H21 C34 1.007 1_555 1_555
H22 C35 1.021 1_555 1_555
H23 C35 0.748 1_555 1_555
H24 C37 0.961 1_555 1_555
C9 C10 1.390 1_555 1_555
C11 C19 1.452 1_555 1_555
C17 C18 1.397 1_555 1_555
C25 C26 1.400 1_555 1_555
C27 C28 1.452 1_555 1_555
C33 C38 1.396 1_555 1_555
C36 C37 1.317 1_555 1_555
C36 C38 1.421 1_555 1_555
#END
