
#######################################################################
#
#                 Cambridge Crystallographic Data Centre
#                                CCDC
#
#######################################################################
#
# If this CIF has been generated from an entry in the Cambridge
# Structural Database, then it will include bibliographic, chemical,
# crystal, experimental, refinement or atomic coordinate data resulting
# from the CCDC's data processing and validation procedures.
#
#######################################################################

data_CSD_CIF_SOFLUV
_audit_creation_date 2008-10-28
_audit_creation_method CSD-ConQuest-V1
_database_code_CSD SOFLUV
_database_code_depnum_ccdc_archive 'CCDC 680455'
_chemical_formula_sum 'C23 H24'
_chemical_formula_moiety
;
C23 H24
;
_journal_coden_Cambridge 24
_journal_volume 49
_journal_year 2008
_journal_page_first 4630
_journal_name_full 'Tetrahedron Lett. '
loop_
_publ_author_name
"C.Aouf"
"D.El Abed"
"M.Giorgi"
"M.Santelli"
_chemical_name_systematic
;
9-(2-Naphthyl)-4,4a,4b,5,6,8a,9,9a-octahydro-3H-fluorene
;
_chemical_melting_point 421
_cell_volume   1695.201
_exptl_crystal_colour 'colorless'
_exptl_crystal_density_diffrn 1.177
_exptl_crystal_description 'prism'
_diffrn_ambient_temperature 293
#These two values have been output from a single CSD field.
_refine_ls_R_factor_gt 0.0676
_refine_ls_wR_factor_gt 0.0676
_symmetry_cell_setting monoclinic
_symmetry_space_group_name_H-M 'P 21/c'
_symmetry_Int_Tables_number 14
loop_
_symmetry_equiv_pos_site_id
_symmetry_equiv_pos_as_xyz
1 x,y,z
2 -x,1/2+y,1/2-z
3 -x,-y,-z
4 x,-1/2-y,-1/2+z
_cell_length_a 12.3730(3)
_cell_length_b 6.1630(1)
_cell_length_c 23.8020(7)
_cell_angle_alpha 90
_cell_angle_beta 110.9350(9)
_cell_angle_gamma 90
_cell_formula_units_Z 4
loop_
_atom_type_symbol
_atom_type_radius_bond
C 0.68
H 0.23
loop_
_atom_site_label
_atom_site_type_symbol
_atom_site_fract_x
_atom_site_fract_y
_atom_site_fract_z
C1 C 0.18453(19) 0.0026(3) 0.09391(9)
H1 H 0.14620 -0.14790 0.08910
C2 C 0.31352(19) -0.0171(4) 0.13087(10)
H2 H 0.35070 0.13560 0.14280
C3 C 0.3482(2) -0.1483(4) 0.18740(11)
H3 H 0.29880 -0.13310 0.21760
C4 C 0.4406(3) -0.2700(5) 0.20364(14)
H4 H 0.46600 -0.36350 0.24170
C5 C 0.5197(3) -0.2912(6) 0.16919(18)
H5 H 0.60420 -0.23790 0.19850
H6 H 0.52310 -0.44030 0.16210
C6 C 0.4908(3) -0.1384(6) 0.11470(17)
H7 H 0.53080 -0.18530 0.08940
H8 H 0.52630 0.00850 0.13150
C7 C 0.3619(2) -0.1127(4) 0.08566(12)
H9 H 0.32190 -0.26180 0.07380
C8 C 0.3067(3) 0.0271(4) 0.02952(12)
H10 H 0.30670 -0.07140 -0.01130
C9 C 0.3712(3) 0.2383(5) 0.02927(16)
H11 H 0.38920 0.30940 0.07240
H12 H 0.44920 0.20310 0.02960
C10 C 0.3014(4) 0.3893(6) -0.02108(15)
H13 H 0.28810 0.33130 -0.06710
H14 H 0.34910 0.50200 -0.02400
C11 C 0.1844(3) 0.4259(5) -0.01845(12)
H15 H 0.14860 0.57070 -0.03920
C12 C 0.1342(3) 0.2860(4) 0.00619(11)
H16 H 0.05150 0.30720 0.00740
C13 C 0.1830(2) 0.0666(4) 0.02907(10)
H17 H 0.12640 -0.05190 0.00110
C14 C 0.11734(18) 0.1470(3) 0.12109(9)
C15 C 0.01450(18) 0.0789(3) 0.12407(9)
H18 H -0.02280 -0.06830 0.10800
C16 C -0.05153(18) 0.2107(4) 0.14916(9)
C17 C -0.1585(2) 0.1456(4) 0.15255(12)
H19 H -0.18980 -0.00130 0.13340
C18 C -0.2175(2) 0.2792(5) 0.17781(13)
H20 H -0.29690 0.21790 0.17620
C19 C -0.1723(2) 0.4827(5) 0.20069(13)
H21 H -0.22120 0.58960 0.21720
C20 C -0.0701(2) 0.5502(4) 0.19788(11)
H22 H -0.04120 0.67990 0.21060
C21 C -0.00709(18) 0.4173(4) 0.17203(9)
C22 C 0.0994(2) 0.4851(4) 0.16885(10)
H23 H 0.12720 0.63460 0.18450
C23 C 0.1590(2) 0.3561(4) 0.14378(10)
H24 H 0.23970 0.41340 0.14010
loop_
_geom_bond_atom_site_label_1
_geom_bond_atom_site_label_2
_geom_bond_distance
_geom_bond_site_symmetry_1
_geom_bond_site_symmetry_2
C1 H1 1.029 1_555 1_555
C2 C1 1.527 1_555 1_555
H2 C2 1.041 1_555 1_555
C3 C2 1.495 1_555 1_555
H3 C3 1.101 1_555 1_555
C4 C3 1.305 1_555 1_555
H4 C4 1.024 1_555 1_555
C5 C4 1.490 1_555 1_555
H5 C5 1.080 1_555 1_555
H6 C5 0.938 1_555 1_555
C6 C5 1.538 1_555 1_555
H7 C6 0.951 1_555 1_555
H8 C6 1.023 1_555 1_555
C7 C2 1.524 1_555 1_555
H9 C7 1.034 1_555 1_555
C8 C7 1.530 1_555 1_555
H10 C8 1.146 1_555 1_555
C9 C8 1.528 1_555 1_555
H11 C9 1.064 1_555 1_555
H12 C9 0.986 1_555 1_555
C10 C9 1.519 1_555 1_555
H13 C10 1.107 1_555 1_555
H14 C10 0.930 1_555 1_555
C11 C10 1.488 1_555 1_555
H15 C11 1.039 1_555 1_555
C12 C11 1.317 1_555 1_555
H16 C12 1.042 1_555 1_555
C13 C1 1.586 1_555 1_555
H17 C13 1.065 1_555 1_555
C14 C1 1.512 1_555 1_555
C15 C14 1.366 1_555 1_555
H18 C15 1.028 1_555 1_555
C16 C15 1.426 1_555 1_555
C17 C16 1.413 1_555 1_555
H19 C17 1.025 1_555 1_555
C18 C17 1.373 1_555 1_555
H20 C18 1.040 1_555 1_555
C19 C18 1.402 1_555 1_555
H21 C19 1.060 1_555 1_555
C20 C19 1.355 1_555 1_555
H22 C20 0.884 1_555 1_555
C21 C16 1.416 1_555 1_555
C22 C21 1.410 1_555 1_555
H23 C22 1.007 1_555 1_555
C23 C14 1.421 1_555 1_555
H24 C23 1.092 1_555 1_555
C6 C7 1.503 1_555 1_555
C8 C13 1.546 1_555 1_555
C12 C13 1.502 1_555 1_555
C20 C21 1.414 1_555 1_555
C22 C23 1.359 1_555 1_555
#END
