
#######################################################################
#
#                 Cambridge Crystallographic Data Centre
#                                CCDC
#
#######################################################################
#
# If this CIF has been generated from an entry in the Cambridge
# Structural Database, then it will include bibliographic, chemical,
# crystal, experimental, refinement or atomic coordinate data resulting
# from the CCDC's data processing and validation procedures.
#
#######################################################################

data_CSD_CIF_SOHVUG
_audit_creation_date 1992-03-02
_audit_creation_method CSD-ConQuest-V1
_database_code_CSD SOHVUG
_database_code_depnum_ccdc_archive 'CCDC 1261422'
_chemical_formula_sum 'C15 H12'
_chemical_formula_moiety
;
C15 H12
;
_journal_coden_Cambridge 388
_journal_volume 26
_journal_year 1990
_journal_page_first 845
_journal_name_full 'Zh.Org.Khim.(Russ.)(Russ.J.Org.Chem.) '
loop_
_publ_author_name
"Z.V.Todres"
"K.I.Dyusengaliev"
"M.M.Buzlanova"
"V.E.Shklover"
"Yu.T.Struchkov"
_chemical_name_systematic
;
3-Methylphenanthrene
;
_chemical_melting_point 334.65
_cell_volume   1071.824
_exptl_crystal_colour 'colorless'
_exptl_crystal_density_diffrn 1.2
_exptl_special_details
;
Melting point range 334.65-335.65K
Coordinates of C15 have been corrected, although it is not possible to tell 
from the paper with which atom of the phenanthrene moiety, the methyl group 
is associated; no reply from authors
;
_diffrn_ambient_temperature ?
_diffrn_special_details
;
The study was carried out at room temperature,in the range 283-303K

;
#These two values have been output from a single CSD field.
_refine_ls_R_factor_gt 0.062
_refine_ls_wR_factor_gt 0.062
_symmetry_cell_setting monoclinic
_symmetry_space_group_name_H-M 'P 21/c'
_symmetry_Int_Tables_number 14
loop_
_symmetry_equiv_pos_site_id
_symmetry_equiv_pos_as_xyz
1 x,y,z
2 -x,1/2+y,1/2-z
3 -x,-y,-z
4 x,-1/2-y,-1/2+z
_cell_length_a 8.142(2)
_cell_length_b 6.570(2)
_cell_length_c 20.376(5)
_cell_angle_alpha 90
_cell_angle_beta 100.47(2)
_cell_angle_gamma 90
_cell_formula_units_Z 4
loop_
_atom_type_symbol
_atom_type_radius_bond
C 0.68
loop_
_atom_site_label
_atom_site_type_symbol
_atom_site_fract_x
_atom_site_fract_y
_atom_site_fract_z
C1 C 0.1591(6) 0.3561(7) -0.1601(4)
C2 C 0.0692(6) 0.2017(7) -0.1722(4)
C3 C 0.0294(6) 0.0706(7) -0.1382(4)
C4 C 0.0835(6) 0.0492(7) -0.0672(4)
C5 C 0.2112(6) 0.0688(7) 0.0966(4)
C6 C 0.2771(6) 0.1102(7) 0.1681(4)
C7 C 0.3653(6) 0.2783(7) 0.1786(4)
C8 C 0.4012(6) 0.4502(7) 0.1410(4)
C9 C 0.3802(6) 0.5817(7) 0.0241(4)
C10 C 0.3193(7) 0.5711(7) -0.0512(4)
C11 C 0.2092(6) 0.3892(7) -0.0758(4)
C12 C 0.1818(5) 0.2117(7) -0.0372(5)
C13 C 0.2608(7) 0.2500(7) 0.0461(4)
C14 C 0.3511(6) 0.4191(8) 0.0678(4)
C15 C 0.3908(7) 0.05208(8) 0.2292(4)
loop_
_geom_bond_atom_site_label_1
_geom_bond_atom_site_label_2
_geom_bond_distance
_geom_bond_site_symmetry_1
_geom_bond_site_symmetry_2
C1 C2 1.249 1_555 1_555
C2 C3 1.187 1_555 1_555
C3 C4 1.441 1_555 1_555
C4 C12 1.406 1_555 1_555
C5 C6 1.483 1_555 1_555
C6 C7 1.314 1_555 1_555
C7 C8 1.425 1_555 1_555
C8 C14 1.487 1_555 1_555
C9 C10 1.526 1_555 1_555
C10 C11 1.523 1_555 1_555
C11 C1 1.706 1_555 1_555
C12 C11 1.446 1_555 1_555
C13 C5 1.670 1_555 1_555
C14 C9 1.438 1_555 1_555
C15 C6 1.461 1_555 1_555
C12 C13 1.721 1_555 1_555
C13 C14 1.361 1_555 1_555
#END
