
#######################################################################
#
#                 Cambridge Crystallographic Data Centre
#                                CCDC
#
#######################################################################
#
# If this CIF has been generated from an entry in the Cambridge
# Structural Database, then it will include bibliographic, chemical,
# crystal, experimental, refinement or atomic coordinate data resulting
# from the CCDC's data processing and validation procedures.
#
#######################################################################

data_CSD_CIF_SUHVEY
_audit_creation_date 2015-03-25
_audit_creation_method CSD-ConQuest-V1
_database_code_CSD SUHVEY
_database_code_depnum_ccdc_archive 'CCDC 1008630'
_chemical_formula_sum 'C29 H20'
_chemical_formula_moiety
;
C29 H20
;
_journal_coden_Cambridge 35
_journal_volume 79
_journal_year 2014
_journal_page_first 11301
_journal_name_full 'J.Org.Chem. '
loop_
_publ_author_name
"Dan Li"
"Weidong Rao"
"Guan Liang Tay"
"B.J.Ayers"
"Philip Wai Hong Chan"
_chemical_name_systematic
;
7,8-Diphenyl-10H-cyclopenta[b]phenanthrene
;
_cell_volume   3843.906
_exptl_crystal_colour 'colorless'
_exptl_crystal_density_diffrn 1.273
_exptl_crystal_description 'block'
_diffrn_ambient_temperature 173
#These two values have been output from a single CSD field.
_refine_ls_R_factor_gt 0.0621
_refine_ls_wR_factor_gt 0.0621
_symmetry_cell_setting monoclinic
_symmetry_space_group_name_H-M 'P 21/c'
_symmetry_Int_Tables_number 14
loop_
_symmetry_equiv_pos_site_id
_symmetry_equiv_pos_as_xyz
1 x,y,z
2 -x,1/2+y,1/2-z
3 -x,-y,-z
4 x,-1/2-y,-1/2+z
_cell_length_a 13.1920(5)
_cell_length_b 15.3847(6)
_cell_length_c 19.3370(8)
_cell_angle_alpha 90
_cell_angle_beta 101.6345(14)
_cell_angle_gamma 90
_cell_formula_units_Z 8
loop_
_atom_type_symbol
_atom_type_radius_bond
C 0.68
H 0.23
loop_
_atom_site_label
_atom_site_type_symbol
_atom_site_fract_x
_atom_site_fract_y
_atom_site_fract_z
C1 C 0.38986(12) 0.35928(10) 0.17833(8)
C2 C 0.49095(13) 0.35211(11) 0.20749(9)
H1 H 0.53340 0.39980 0.22640
C3 C 0.52918(12) 0.26068(11) 0.20686(9)
H2 H 0.55560 0.23910 0.25540
H3 H 0.58440 0.25570 0.17920
C4 C 0.43362(12) 0.21240(11) 0.17202(8)
C5 C 0.42139(12) 0.12591(10) 0.15682(8)
H4 H 0.47940 0.08810 0.16760
C6 C 0.32358(12) 0.09214(10) 0.12525(8)
C7 C 0.30704(12) -0.00001(10) 0.11047(8)
C8 C 0.38796(14) -0.06130(11) 0.12353(9)
H5 H 0.45660 -0.04200 0.14180
C9 C 0.37007(16) -0.14821(12) 0.11056(10)
H6 H 0.42610 -0.18810 0.11990
C10 C 0.27016(16) -0.17830(12) 0.08371(10)
H7 H 0.25810 -0.23860 0.07500
C11 C 0.18919(15) -0.12043(12) 0.06984(9)
H8 H 0.12120 -0.14100 0.05140
C12 C 0.20618(13) -0.03083(11) 0.08271(8)
C13 C 0.12229(13) 0.02954(11) 0.06915(9)
H9 H 0.05430 0.00870 0.05120
C14 C 0.13731(12) 0.11535(11) 0.08119(8)
H10 H 0.07970 0.15360 0.07060
C15 C 0.23801(12) 0.15059(10) 0.10966(8)
C16 C 0.25096(11) 0.24123(10) 0.12495(8)
C17 C 0.34891(12) 0.27145(10) 0.15589(8)
C18 C 0.33341(12) 0.44299(10) 0.16998(8)
C19 C 0.28955(13) 0.47476(11) 0.10287(9)
H11 H 0.29530 0.44200 0.06220
C20 C 0.23772(14) 0.55376(12) 0.09531(10)
H12 H 0.20790 0.57480 0.04960
C21 C 0.22953(15) 0.60183(12) 0.15431(10)
H13 H 0.19390 0.65580 0.14900
C22 C 0.27308(15) 0.57158(12) 0.2211(1)
H14 H 0.26780 0.60490 0.26160
C23 C 0.32448(13) 0.49238(11) 0.22876(9)
H15 H 0.35390 0.47160 0.27470
C24 C 0.16002(11) 0.30074(10) 0.10788(8)
C25 C 0.12343(12) 0.34480(11) 0.16077(9)
H16 H 0.15540 0.33560 0.20880
C26 C 0.04076(13) 0.40201(12) 0.14401(10)
H17 H 0.01680 0.43220 0.18040
C27 C -0.00671(14) 0.41497(13) 0.07421(11)
H18 H -0.06290 0.45450 0.06270
C28 C 0.02734(13) 0.37048(12) 0.02109(10)
H19 H -0.00600 0.37890 -0.02680
C29 C 0.10991(13) 0.31379(11) 0.03765(9)
H20 H 0.13290 0.28330 0.00090
C30 C 0.11203(12) 0.18158(10) 0.33081(8)
C31 C 0.01030(13) 0.18826(12) 0.30258(9)
H21 H -0.03200 0.14030 0.28420
C32 C -0.02869(12) 0.27937(11) 0.30331(10)
H22 H -0.08280 0.28420 0.33190
H23 H -0.05680 0.30050 0.25490
C33 C 0.06713(12) 0.32817(10) 0.33654(8)
C34 C 0.07919(12) 0.41546(10) 0.34851(8)
H24 H 0.02120 0.45310 0.33670
C35 C 0.17747(11) 0.45003(10) 0.37832(8)
C36 C 0.19405(12) 0.54285(10) 0.38898(8)
C37 C 0.11315(13) 0.60442(11) 0.37296(9)
H25 H 0.04460 0.58480 0.35510
C38 C 0.13121(15) 0.69180(11) 0.38254(10)
H26 H 0.07510 0.73160 0.37180
C39 C 0.23125(15) 0.72288(11) 0.40800(9)
H27 H 0.24350 0.78350 0.41410
C40 C 0.31194(14) 0.66479(11) 0.42419(9)
H28 H 0.38010 0.68580 0.44150
C41 C 0.29518(13) 0.57487(10) 0.41557(8)
C42 C 0.37861(12) 0.51433(11) 0.43304(9)
H29 H 0.44650 0.53540 0.45100
C43 C 0.36328(12) 0.4278(1) 0.42463(8)
H30 H 0.42050 0.38960 0.43790
C44 C 0.26295(11) 0.39182(10) 0.39622(8)
C45 C 0.24993(11) 0.30057(10) 0.38329(8)
C46 C 0.15197(12) 0.26945(10) 0.35314(8)
C47 C 0.16964(12) 0.09842(10) 0.33497(8)
C48 C 0.17282(14) 0.05212(11) 0.27343(9)
H31 H 0.13870 0.07490 0.22920
C49 C 0.22453(16) -0.02594(12) 0.27562(10)
H32 H 0.22550 -0.05670 0.23320
C50 C 0.27505(15) -0.05940(12) 0.33975(10)
H33 H 0.31150 -0.11290 0.34140
C51 C 0.27228(14) -0.01455(11) 0.40161(10)
H34 H 0.30660 -0.03750 0.44580
C52 C 0.21986(13) 0.06330(11) 0.39912(9)
H35 H 0.21800 0.09340 0.44180
C53 C 0.34083(11) 0.24107(9) 0.40161(8)
C54 C 0.38593(13) 0.22513(11) 0.47220(8)
H36 H 0.36100 0.25480 0.50850
C55 C 0.46671(13) 0.16636(12) 0.48976(10)
H37 H 0.49640 0.15540 0.53790
C56 C 0.50396(14) 0.12365(12) 0.43712(11)
H38 H 0.55870 0.08280 0.44910
C57 C 0.46139(13) 0.14046(11) 0.36686(10)
H39 H 0.48780 0.11180 0.33070
C58 C 0.38044(12) 0.1989(1) 0.34915(9)
H40 H 0.35180 0.21030 0.30090
loop_
_geom_bond_atom_site_label_1
_geom_bond_atom_site_label_2
_geom_bond_distance
_geom_bond_site_symmetry_1
_geom_bond_site_symmetry_2
C1 C2 1.344 1_555 1_555
C2 H1 0.950 1_555 1_555
C3 C2 1.495 1_555 1_555
H2 C3 0.990 1_555 1_555
H3 C3 0.990 1_555 1_555
C4 C3 1.501 1_555 1_555
C5 C4 1.365 1_555 1_555
H4 C5 0.950 1_555 1_555
C6 C5 1.411 1_555 1_555
C7 C6 1.454 1_555 1_555
C8 C7 1.408 1_555 1_555
H5 C8 0.951 1_555 1_555
C9 C8 1.372 1_555 1_555
H6 C9 0.950 1_555 1_555
C10 C9 1.395 1_555 1_555
H7 C10 0.951 1_555 1_555
C11 C10 1.375 1_555 1_555
H8 C11 0.950 1_555 1_555
C12 C7 1.413 1_555 1_555
C13 C12 1.428 1_555 1_555
H9 C13 0.950 1_555 1_555
C14 C13 1.348 1_555 1_555
H10 C14 0.950 1_555 1_555
C15 C6 1.427 1_555 1_555
C16 C15 1.429 1_555 1_555
C17 C1 1.487 1_555 1_555
C18 C1 1.480 1_555 1_555
C19 C18 1.398 1_555 1_555
H11 C19 0.950 1_555 1_555
C20 C19 1.388 1_555 1_555
H12 C20 0.949 1_555 1_555
C21 C20 1.382 1_555 1_555
H13 C21 0.949 1_555 1_555
C22 C21 1.384 1_555 1_555
H14 C22 0.950 1_555 1_555
C23 C18 1.392 1_555 1_555
H15 C23 0.950 1_555 1_555
C24 C16 1.492 1_555 1_555
C25 C24 1.392 1_555 1_555
H16 C25 0.950 1_555 1_555
C26 C25 1.388 1_555 1_555
H17 C26 0.949 1_555 1_555
C27 C26 1.383 1_555 1_555
H18 C27 0.950 1_555 1_555
C28 C27 1.383 1_555 1_555
H19 C28 0.951 1_555 1_555
C29 C24 1.400 1_555 1_555
H20 C29 0.951 1_555 1_555
C30 C31 1.347 1_555 1_555
C31 H21 0.950 1_555 1_555
C32 C31 1.494 1_555 1_555
H22 C32 0.990 1_555 1_555
H23 C32 0.990 1_555 1_555
C33 C32 1.499 1_555 1_555
C34 C33 1.367 1_555 1_555
H24 C34 0.950 1_555 1_555
C35 C34 1.412 1_555 1_555
C36 C35 1.453 1_555 1_555
C37 C36 1.414 1_555 1_555
H25 C37 0.950 1_555 1_555
C38 C37 1.371 1_555 1_555
H26 C38 0.951 1_555 1_555
C39 C38 1.397 1_555 1_555
H27 C39 0.950 1_555 1_555
C40 C39 1.377 1_555 1_555
H28 C40 0.951 1_555 1_555
C41 C36 1.418 1_555 1_555
C42 C41 1.429 1_555 1_555
H29 C42 0.950 1_555 1_555
C43 C42 1.351 1_555 1_555
H30 C43 0.950 1_555 1_555
C44 C35 1.427 1_555 1_555
C45 C44 1.430 1_555 1_555
C46 C30 1.483 1_555 1_555
C47 C30 1.482 1_555 1_555
C48 C47 1.395 1_555 1_555
H31 C48 0.950 1_555 1_555
C49 C48 1.378 1_555 1_555
H32 C49 0.949 1_555 1_555
C50 C49 1.383 1_555 1_555
H33 C50 0.951 1_555 1_555
C51 C50 1.388 1_555 1_555
H34 C51 0.951 1_555 1_555
C52 C47 1.392 1_555 1_555
H35 C52 0.951 1_555 1_555
C53 C45 1.493 1_555 1_555
C54 C53 1.396 1_555 1_555
H36 C54 0.950 1_555 1_555
C55 C54 1.387 1_555 1_555
H37 C55 0.949 1_555 1_555
C56 C55 1.382 1_555 1_555
H38 C56 0.950 1_555 1_555
C57 C56 1.386 1_555 1_555
H39 C57 0.950 1_555 1_555
C58 C53 1.392 1_555 1_555
H40 C58 0.950 1_555 1_555
C4 C17 1.425 1_555 1_555
C11 C12 1.411 1_555 1_555
C14 C15 1.438 1_555 1_555
C16 C17 1.390 1_555 1_555
C22 C23 1.388 1_555 1_555
C28 C29 1.382 1_555 1_555
C33 C46 1.424 1_555 1_555
C40 C41 1.406 1_555 1_555
C43 C44 1.438 1_555 1_555
C45 C46 1.391 1_555 1_555
C51 C52 1.379 1_555 1_555
C57 C58 1.385 1_555 1_555
#END
