
#######################################################################
#
#                 Cambridge Crystallographic Data Centre
#                                CCDC
#
#######################################################################
#
# If this CIF has been generated from an entry in the Cambridge
# Structural Database, then it will include bibliographic, chemical,
# crystal, experimental, refinement or atomic coordinate data resulting
# from the CCDC's data processing and validation procedures.
#
#######################################################################

data_CSD_CIF_SUJTAU
_audit_creation_date 2015-03-25
_audit_creation_method CSD-ConQuest-V1
_database_code_CSD SUJTAU
_database_code_depnum_ccdc_archive 'CCDC 1015545'
_chemical_formula_sum 'C23 H16'
_chemical_formula_moiety
;
C23 H16
;
_journal_coden_Cambridge 4
_journal_volume 137
_journal_year 2015
_journal_page_first 1165
_journal_name_full 'J.Am.Chem.Soc. '
loop_
_publ_author_name
"K.Pati"
"G.dos P.Gomes"
"T.Harris"
"A.Hughes"
"Hoa Phan"
"T.Banerjee"
"K.Hanson"
"I.V.Alabugin"
_chemical_name_systematic
;
11-Phenyl-11H-benzo[a]fluorene
;
_cell_volume    756.409
_exptl_crystal_colour 'colorless'
_exptl_crystal_density_diffrn 1.284
_exptl_crystal_description 'needle'
_diffrn_ambient_temperature 100
#These two values have been output from a single CSD field.
_refine_ls_R_factor_gt 0.0399
_refine_ls_wR_factor_gt 0.0399
_symmetry_cell_setting monoclinic
_symmetry_space_group_name_H-M 'P 21'
_symmetry_Int_Tables_number 4
loop_
_symmetry_equiv_pos_site_id
_symmetry_equiv_pos_as_xyz
1 x,y,z
2 -x,1/2+y,-z
_cell_length_a 10.4301(14)
_cell_length_b 6.0297(8)
_cell_length_c 12.7142(17)
_cell_angle_alpha 90
_cell_angle_beta 108.918(1)
_cell_angle_gamma 90
_cell_formula_units_Z 2
loop_
_atom_type_symbol
_atom_type_radius_bond
C 0.68
H 0.23
loop_
_atom_site_label
_atom_site_type_symbol
_atom_site_fract_x
_atom_site_fract_y
_atom_site_fract_z
C1 C 1.14982(16) 1.1376(3) 0.43907(13)
H1 H 1.23880 1.15760 0.48960
C2 C 1.11542(15) 0.9417(3) 0.37824(13)
H2 H 1.18110 0.82790 0.38700
C3 C 0.98422(15) 0.9127(3) 0.30435(12)
H3 H 0.96130 0.77890 0.26300
C4 C 0.85313(15) 1.0905(3) 0.01263(13)
H4 H 0.87700 1.20440 0.06720
C5 C 0.89470(16) 1.1053(3) -0.07894(14)
H5 H 0.94560 1.23030 -0.08790
C6 C 0.86266(16) 0.9371(3) -0.15944(14)
H6 H 0.89240 0.94890 -0.22240
C7 C 0.50630(16) 0.6131(3) 0.25551(14)
H7 H 0.47310 0.47490 0.22170
C8 C 0.61096(15) 0.5377(3) 0.04256(13)
H8 H 0.55540 0.41650 0.04820
C9 C 0.65967(15) 0.5539(3) -0.04535(13)
H9 H 0.63810 0.44090 -0.10040
C10 C 0.78909(16) 0.7561(3) -0.14823(13)
H10 H 0.76950 0.64270 -0.20310
C11 C 1.05361(17) 1.3032(3) 0.42555(13)
H11 H 1.07690 1.43660 0.46710
C12 C 0.88631(15) 1.0781(2) 0.29063(12)
C13 C 0.74091(14) 1.0453(3) 0.21370(12)
H12 H 0.70210 1.19230 0.18290
C14 C 0.72501(14) 0.8839(2) 0.11796(12)
C15 C 0.77508(14) 0.9076(3) 0.02715(12)
C16 C 0.64892(13) 0.9374(3) 0.27205(12)
C17 C 0.59737(15) 0.7364(3) 0.22054(13)
C18 C 0.46486(16) 0.6966(3) 0.34112(14)
H13 H 0.40170 0.61480 0.36530
C19 C 0.51393(17) 0.8973(3) 0.39222(14)
H14 H 0.48350 0.95200 0.45010
C20 C 0.60926(16) 1.0206(3) 0.35813(13)
H15 H 0.64490 1.15640 0.39340
C21 C 0.64557(15) 0.7060(3) 0.12444(12)
C22 C 0.74142(14) 0.7349(3) -0.05597(12)
C23 C 0.92236(16) 1.2750(3) 0.35100(13)
H16 H 0.85750 1.39020 0.34140
loop_
_geom_bond_atom_site_label_1
_geom_bond_atom_site_label_2
_geom_bond_distance
_geom_bond_site_symmetry_1
_geom_bond_site_symmetry_2
C1 H1 0.950 1_555 1_555
C2 C1 1.394 1_555 1_555
H2 C2 0.950 1_555 1_555
C3 C2 1.397 1_555 1_555
H3 C3 0.950 1_555 1_555
C4 H4 0.950 1_555 1_555
C5 C4 1.371 1_555 1_555
H5 C5 0.950 1_555 1_555
C6 C5 1.402 1_555 1_555
H6 C6 0.950 1_555 1_555
C7 H7 0.950 1_555 1_555
C8 H8 0.950 1_555 1_555
C9 C8 1.373 1_555 1_555
H9 C9 0.950 1_555 1_555
C10 C6 1.368 1_555 1_555
H10 C10 0.951 1_555 1_555
C11 C1 1.386 1_555 1_555
H11 C11 0.950 1_555 1_555
C12 C3 1.397 1_555 1_555
C13 C12 1.528 1_555 1_555
H12 C13 1.000 1_555 1_555
C14 C13 1.525 1_555 1_555
C15 C4 1.418 1_555 1_555
C16 C13 1.535 1_555 1_555
C17 C7 1.388 1_555 1_555
C18 C7 1.389 1_555 1_555
H13 C18 0.950 1_555 1_555
C19 C18 1.390 1_555 1_555
H14 C19 0.950 1_555 1_555
C20 C16 1.384 1_555 1_555
H15 C20 0.950 1_555 1_555
C21 C8 1.414 1_555 1_555
C22 C9 1.418 1_555 1_555
C23 C11 1.400 1_555 1_555
H16 C23 0.949 1_555 1_555
C10 C22 1.420 1_555 1_555
C12 C23 1.397 1_555 1_555
C14 C15 1.420 1_555 1_555
C14 C21 1.374 1_555 1_555
C15 C22 1.444 1_555 1_555
C16 C17 1.399 1_555 1_555
C17 C21 1.476 1_555 1_555
C19 C20 1.417 1_555 1_555
#END
