
#######################################################################
#
#                 Cambridge Crystallographic Data Centre
#                                CCDC
#
#######################################################################
#
# If this CIF has been generated from an entry in the Cambridge
# Structural Database, then it will include bibliographic, chemical,
# crystal, experimental, refinement or atomic coordinate data resulting
# from the CCDC's data processing and validation procedures.
#
#######################################################################

data_CSD_CIF_SULNUK
_audit_creation_date 2015-08-27
_audit_creation_method CSD-ConQuest-V1
_database_code_CSD SULNUK
_database_code_depnum_ccdc_archive 'CCDC 1420876'
_chemical_formula_sum 'C20 H14'
_chemical_formula_moiety
;
C20 H14
;
_journal_coden_Cambridge 35
_journal_volume 80
_journal_year 2015
_journal_page_first 7435
_journal_name_full 'J.Org.Chem. '
loop_
_publ_author_name
"P.F.Thomson"
"D.Parrish"
"P.Pradhan"
"M.K.Lakshman"
_chemical_name_systematic
;
4,5-Dihydrobenzo[l]acephenanthrylene
;
_cell_volume   1315.800
_exptl_crystal_colour 'colorless'
_exptl_crystal_density_diffrn 1.284
_exptl_crystal_description 'prism'
_diffrn_ambient_temperature 296
#These two values have been output from a single CSD field.
_refine_ls_R_factor_gt 0.0409
_refine_ls_wR_factor_gt 0.0409
_symmetry_cell_setting monoclinic
_symmetry_space_group_name_H-M 'P 21/n'
_symmetry_Int_Tables_number 14
loop_
_symmetry_equiv_pos_site_id
_symmetry_equiv_pos_as_xyz
1 x,y,z
2 1/2-x,1/2+y,1/2-z
3 -x,-y,-z
4 -1/2+x,-1/2-y,-1/2+z
_cell_length_a 7.7302(7)
_cell_length_b 8.0355(7)
_cell_length_c 21.3019(18)
_cell_angle_alpha 90
_cell_angle_beta 96.058(1)
_cell_angle_gamma 90
_cell_formula_units_Z 4
loop_
_atom_type_symbol
_atom_type_radius_bond
C 0.68
H 0.23
loop_
_atom_site_label
_atom_site_type_symbol
_atom_site_fract_x
_atom_site_fract_y
_atom_site_fract_z
C1 C 0.00818(17) 0.08960(15) 0.18536(5)
C2 C 0.11965(19) -0.01197(16) 0.22681(6)
C3 C 0.0756(2) -0.04520(19) 0.28848(7)
H1 H 0.14560 -0.11620 0.31460
C4 C -0.0662(2) 0.0240(2) 0.31017(7)
H2 H -0.09460 -0.00140 0.35040
C5 C -0.1690(2) 0.1334(2) 0.27184(7)
H3 H -0.26330 0.18520 0.28740
C6 C -0.13256(18) 0.16556(18) 0.21135(6)
H4 H -0.20280 0.23970 0.18670
C7 C 0.2774(2) -0.07216(18) 0.20711(7)
H5 H 0.34830 -0.14110 0.23380
C8 C 0.32613(19) -0.03108(17) 0.15034(7)
H6 H 0.43410 -0.06590 0.13980
C9 C 0.21629(16) 0.06461(15) 0.10591(6)
C10 C 0.05123(16) 0.11803(13) 0.12119(5)
C11 C -0.06355(15) 0.19777(14) 0.07149(5)
C12 C 0.00824(15) 0.23452(13) 0.01483(5)
C13 C 0.17783(16) 0.18752(15) 0.00214(6)
C14 C 0.27758(17) 0.09986(15) 0.04623(6)
H7 H 0.38650 0.06220 0.03780
C15 C -0.24317(16) 0.23652(15) 0.07009(6)
H8 H -0.30250 0.20740 0.10430
C16 C -0.33106(17) 0.31619(16) 0.01931(6)
H9 H -0.44790 0.34190 0.02070
C17 C -0.25186(18) 0.36031(16) -0.03460(6)
H10 H -0.31290 0.41850 -0.06760
C18 C -0.08179(17) 0.31506(15) -0.03714(6)
C19 C 0.03549(19) 0.33143(17) -0.08912(6)
H11 H 0.05710 0.44760 -0.09790
H12 H -0.01640 0.27870 -0.12750
C20 C 0.20560(19) 0.24277(18) -0.06393(6)
H13 H 0.22690 0.14780 -0.09010
H14 H 0.30370 0.31830 -0.06310
loop_
_geom_bond_atom_site_label_1
_geom_bond_atom_site_label_2
_geom_bond_distance
_geom_bond_site_symmetry_1
_geom_bond_site_symmetry_2
C1 C2 1.424 1_555 1_555
C2 C3 1.417 1_555 1_555
C3 H1 0.930 1_555 1_555
C4 C3 1.353 1_555 1_555
H2 C4 0.930 1_555 1_555
C5 C4 1.391 1_555 1_555
H3 C5 0.930 1_555 1_555
C6 C1 1.411 1_555 1_555
H4 C6 0.930 1_555 1_555
C7 C2 1.416 1_555 1_555
H5 C7 0.930 1_555 1_555
C8 C7 1.345 1_555 1_555
H6 C8 0.930 1_555 1_555
C9 C8 1.428 1_555 1_555
C10 C1 1.459 1_555 1_555
C11 C10 1.456 1_555 1_555
C12 C11 1.412 1_555 1_555
C13 C12 1.417 1_555 1_555
C14 C9 1.431 1_555 1_555
H7 C14 0.930 1_555 1_555
C15 C11 1.420 1_555 1_555
H8 C15 0.931 1_555 1_555
C16 C15 1.373 1_555 1_555
H9 C16 0.930 1_555 1_555
C17 C16 1.403 1_555 1_555
H10 C17 0.930 1_555 1_555
C18 C12 1.402 1_555 1_555
C19 C18 1.509 1_555 1_555
H11 C19 0.970 1_555 1_555
H12 C19 0.969 1_555 1_555
C20 C13 1.513 1_555 1_555
H13 C20 0.969 1_555 1_555
H14 C20 0.970 1_555 1_555
C5 C6 1.372 1_555 1_555
C9 C10 1.416 1_555 1_555
C13 C14 1.349 1_555 1_555
C17 C18 1.371 1_555 1_555
C19 C20 1.541 1_555 1_555
#END
