
#######################################################################
#
#                 Cambridge Crystallographic Data Centre
#                                CCDC
#
#######################################################################
#
# If this CIF has been generated from an entry in the Cambridge
# Structural Database, then it will include bibliographic, chemical,
# crystal, experimental, refinement or atomic coordinate data resulting
# from the CCDC's data processing and validation procedures.
#
#######################################################################

data_CSD_CIF_SUQLAS
_audit_creation_date 2010-03-10
_audit_creation_method CSD-ConQuest-V1
_database_code_CSD SUQLAS
_database_code_depnum_ccdc_archive 'CCDC 688692'
_chemical_formula_sum 'C30 H22'
_chemical_formula_moiety
;
C30 H22
;
_journal_coden_Cambridge 983
_journal_volume 113
_journal_year 2009
_journal_page_first 9892
_journal_name_full 'J.Phys.Chem.C '
loop_
_publ_author_name
"Jiating He"
"Bin Xu"
"Feipeng Chen"
"Haijian Xia"
"Kunpeng Li"
"Ling Ye"
"Wenjing Tian"
_chemical_name_systematic
;
9,10-Distyrylanthracene
;
_cell_volume   1029.579
_exptl_crystal_colour 'yellow'
_exptl_crystal_density_diffrn 1.234
_exptl_special_details
;
luminescent

;
_exptl_crystal_description 'block'
_exptl_crystal_preparation 'chloroform/ethanol'
_diffrn_ambient_temperature 293
#These two values have been output from a single CSD field.
_refine_ls_R_factor_gt 0.0736
_refine_ls_wR_factor_gt 0.0736
_symmetry_cell_setting monoclinic
_symmetry_space_group_name_H-M 'P 21/n'
_symmetry_Int_Tables_number 14
loop_
_symmetry_equiv_pos_site_id
_symmetry_equiv_pos_as_xyz
1 x,y,z
2 1/2-x,1/2+y,1/2-z
3 -x,-y,-z
4 -1/2+x,-1/2-y,-1/2+z
_cell_length_a 5.250(1)
_cell_length_b 9.4591(19)
_cell_length_c 20.734(4)
_cell_angle_alpha 90
_cell_angle_beta 90.70(3)
_cell_angle_gamma 90
_cell_formula_units_Z 2
loop_
_atom_type_symbol
_atom_type_radius_bond
C 0.68
H 0.23
loop_
_atom_site_label
_atom_site_type_symbol
_atom_site_fract_x
_atom_site_fract_y
_atom_site_fract_z
C1 C 0.6890(5) 1.0506(3) 0.04321(13)
C2 C 0.7986(6) 0.7741(3) 0.13160(14)
H1 H 0.66110 0.81700 0.15160
C3 C 0.5239(5) 1.1481(3) 0.00925(13)
C4 C 0.6613(5) 0.9044(3) 0.03430(13)
C5 C 0.8259(6) 0.8039(3) 0.07100(15)
H2 H 0.95710 0.75950 0.04910
C6 C 0.5534(6) 1.2949(3) 0.02137(15)
H3 H 0.44550 1.35870 0.00060
C7 C 0.8821(6) 1.1086(3) 0.08473(14)
H4 H 0.99430 1.04780 0.10590
C8 C 0.9558(6) 0.6814(3) 0.17314(14)
C9 C 0.7353(7) 1.3445(4) 0.06258(16)
H5 H 0.74820 1.44110 0.07030
C10 C 0.9055(7) 1.2501(4) 0.09393(15)
H6 H 1.03360 1.28510 0.12090
C11 C 0.9058(7) 0.6732(4) 0.23832(15)
H7 H 0.77150 0.72520 0.25500
C12 C 1.1574(6) 0.6015(3) 0.14986(15)
H8 H 1.19680 0.60510 0.10630
C13 C 1.2986(7) 0.5175(4) 0.19078(17)
H9 H 1.43140 0.46370 0.17450
C14 C 1.0496(7) 0.5901(4) 0.27911(16)
H10 H 1.01330 0.58690 0.32290
C15 C 1.2461(7) 0.5122(4) 0.25520(17)
H11 H 1.34380 0.45560 0.28260
C1B C 0.3110(5) 0.9494(3) -0.04321(13)
C2B C 0.2014(6) 1.2259(3) -0.13160(14)
H1B H 0.33890 1.18300 -0.15160
C3B C 0.4761(5) 0.8519(3) -0.00925(13)
C4B C 0.3387(5) 1.0956(3) -0.03430(13)
C5B C 0.1741(6) 1.1961(3) -0.07100(15)
H2B H 0.04290 1.24050 -0.04910
C6B C 0.4466(6) 0.7051(3) -0.02137(15)
H3B H 0.55450 0.64130 -0.00060
C7B C 0.1179(6) 0.8914(3) -0.08473(14)
H4B H 0.00570 0.95220 -0.10590
C8B C 0.0442(6) 1.3186(3) -0.17314(14)
C9B C 0.2647(7) 0.6555(4) -0.06258(16)
H5B H 0.25180 0.55890 -0.07030
C10B C 0.0945(7) 0.7499(4) -0.09393(15)
H6B H -0.03360 0.71490 -0.12090
C11B C 0.0942(7) 1.3268(4) -0.23832(15)
H7B H 0.22850 1.27480 -0.25500
C12B C -0.1574(6) 1.3985(3) -0.14986(15)
H8B H -0.19680 1.39490 -0.10630
C13B C -0.2986(7) 1.4825(4) -0.19078(17)
H9B H -0.43140 1.53630 -0.17450
C14B C -0.0496(7) 1.4099(4) -0.27911(16)
H10B H -0.01330 1.41310 -0.32290
C15B C -0.2461(7) 1.4878(4) -0.25520(17)
H11B H -0.34380 1.54440 -0.28260
loop_
_geom_bond_atom_site_label_1
_geom_bond_atom_site_label_2
_geom_bond_distance
_geom_bond_site_symmetry_1
_geom_bond_site_symmetry_2
C1 C3 1.443 1_555 1_555
C2 H1 0.930 1_555 1_555
C3 C6 1.419 1_555 1_555
C4 C1 1.403 1_555 1_555
C5 C2 1.297 1_555 1_555
H2 C5 0.930 1_555 1_555
C6 H3 0.930 1_555 1_555
C7 C1 1.431 1_555 1_555
H4 C7 0.930 1_555 1_555
C8 C2 1.475 1_555 1_555
C9 C6 1.357 1_555 1_555
H5 C9 0.930 1_555 1_555
C10 C7 1.357 1_555 1_555
H6 C10 0.930 1_555 1_555
C11 C8 1.382 1_555 1_555
H7 C11 0.930 1_555 1_555
C12 C8 1.392 1_555 1_555
H8 C12 0.930 1_555 1_555
C13 C12 1.373 1_555 1_555
H9 C13 0.930 1_555 1_555
C14 C11 1.374 1_555 1_555
H10 C14 0.930 1_555 1_555
C15 C13 1.368 1_555 1_555
H11 C15 0.930 1_555 1_555
C1B C3B 1.443 1_555 1_555
C2B H1B 0.930 1_555 1_555
C3B C4 1.409 1_555 1_555
C4B C3 1.409 1_555 1_555
C5B C2B 1.297 1_555 1_555
H2B C5B 0.930 1_555 1_555
C6B C3B 1.419 1_555 1_555
H3B C6B 0.930 1_555 1_555
C7B C1B 1.431 1_555 1_555
H4B C7B 0.930 1_555 1_555
C8B C2B 1.475 1_555 1_555
C9B C6B 1.357 1_555 1_555
H5B C9B 0.930 1_555 1_555
C10B C7B 1.357 1_555 1_555
H6B C10B 0.930 1_555 1_555
C11B C8B 1.382 1_555 1_555
H7B C11B 0.930 1_555 1_555
C12B C8B 1.392 1_555 1_555
H8B C12B 0.930 1_555 1_555
C13B C12B 1.373 1_555 1_555
H9B C13B 0.930 1_555 1_555
C14B C11B 1.374 1_555 1_555
H10B C14B 0.930 1_555 1_555
C15B C13B 1.368 1_555 1_555
H11B C15B 0.930 1_555 1_555
C4 C5 1.488 1_555 1_555
C9 C10 1.416 1_555 1_555
C14 C15 1.366 1_555 1_555
C1B C4B 1.403 1_555 1_555
C4B C5B 1.488 1_555 1_555
C9B C10B 1.416 1_555 1_555
C14B C15B 1.366 1_555 1_555
#END
