
#######################################################################
#
#                 Cambridge Crystallographic Data Centre
#                                CCDC
#
#######################################################################
#
# If this CIF has been generated from an entry in the Cambridge
# Structural Database, then it will include bibliographic, chemical,
# crystal, experimental, refinement or atomic coordinate data resulting
# from the CCDC's data processing and validation procedures.
#
#######################################################################

data_CSD_CIF_SUYSOV
_audit_creation_date 2011-01-04
_audit_creation_method CSD-ConQuest-V1
_database_code_CSD SUYSOV
_database_code_depnum_ccdc_archive 'CCDC 792345'
_chemical_formula_sum 'C26 H34'
_chemical_formula_moiety
;
C26 H34
;
_journal_coeditor_code "IUCr CI5142"
_journal_coden_Cambridge 1370
_journal_volume 66
_journal_year 2010
_journal_page_first o2222
_journal_name_full 'Acta Crystallogr.,Sect.E:Struct.Rep.Online '
loop_
_publ_author_name
"C.Kitamura"
"H.Tsukuda"
"T.Kawase"
"T.Kobayashi"
"H.Naito"
_chemical_name_systematic
;
1,4,5,8-Tetraisopropylanthracene
;
_chemical_melting_point 488
_cell_volume   1060.538
_exptl_crystal_colour 'colorless'
_exptl_crystal_density_diffrn 1.085
_exptl_crystal_description 'needle'
_exptl_crystal_preparation 'diethyl ether'
_diffrn_ambient_temperature 223
#These two values have been output from a single CSD field.
_refine_ls_R_factor_gt 0.0627
_refine_ls_wR_factor_gt 0.0627
_symmetry_cell_setting monoclinic
_symmetry_space_group_name_H-M 'P 21/c'
_symmetry_Int_Tables_number 14
loop_
_symmetry_equiv_pos_site_id
_symmetry_equiv_pos_as_xyz
1 x,y,z
2 -x,1/2+y,1/2-z
3 -x,-y,-z
4 x,-1/2-y,-1/2+z
_cell_length_a 6.546(3)
_cell_length_b 10.357(5)
_cell_length_c 15.808(8)
_cell_angle_alpha 90
_cell_angle_beta 98.289(8)
_cell_angle_gamma 90
_cell_formula_units_Z 2
loop_
_atom_type_symbol
_atom_type_radius_bond
C 0.68
H 0.23
loop_
_atom_site_label
_atom_site_type_symbol
_atom_site_fract_x
_atom_site_fract_y
_atom_site_fract_z
C1 C 0.4015(2) -0.00637(14) 0.17133(9)
C2 C 0.2347(2) 0.06330(15) 0.18742(9)
H1 H 0.19760 0.06060 0.24270
C3 C 0.1152(2) 0.13954(15) 0.12440(9)
H2 H 0.00410 0.18740 0.13970
C4 C 0.1553(2) 0.14606(13) 0.04219(9)
C5 C 0.3279(2) 0.07195(13) 0.02069(9)
C6 C 0.4533(2) -0.00120(13) 0.08561(8)
C7 C 0.6226(2) -0.06900(13) 0.06259(9)
H3 H 0.70740 -0.11490 0.10540
C8 C 0.5294(2) -0.08656(16) 0.24020(9)
H4 H 0.57370 -0.16530 0.21230
C9 C 0.7238(3) -0.0145(2) 0.27785(12)
H5 H 0.68610 0.06240 0.30700
H6 H 0.80100 0.00990 0.23240
H7 H 0.80830 -0.06990 0.31820
C10 C 0.4106(3) -0.1305(2) 0.31140(11)
H8 H 0.49280 -0.19250 0.34750
H9 H 0.28170 -0.17030 0.28650
H10 H 0.38170 -0.05650 0.34540
C11 C 0.0299(2) 0.23022(14) -0.02482(9)
H11 H -0.00290 0.17820 -0.07760
C12 C -0.1738(2) 0.27689(16) 0.00091(11)
H12 H -0.24970 0.20370 0.01880
H13 H -0.25520 0.31880 -0.04750
H14 H -0.14590 0.33770 0.04780
C13 C 0.1551(3) 0.34794(16) -0.04622(11)
H15 H 0.07580 0.39670 -0.09200
H16 H 0.28320 0.31930 -0.06420
H17 H 0.18550 0.40220 0.00400
C1B C 0.5985(2) 0.00637(14) -0.17133(9)
C2B C 0.7653(2) -0.06330(15) -0.18742(9)
H1B H 0.80240 -0.06060 -0.24270
C3B C 0.8848(2) -0.13954(15) -0.12440(9)
H2B H 0.99590 -0.18740 -0.13970
C4B C 0.8447(2) -0.14606(13) -0.04219(9)
C5B C 0.6721(2) -0.07195(13) -0.02069(9)
C6B C 0.5467(2) 0.00120(13) -0.08561(8)
C7B C 0.3774(2) 0.06900(13) -0.06259(9)
H3B H 0.29260 0.11490 -0.10540
C8B C 0.4706(2) 0.08656(16) -0.24020(9)
H4B H 0.42630 0.16530 -0.21230
C9B C 0.2762(3) 0.0145(2) -0.27785(12)
H5B H 0.31390 -0.06240 -0.30700
H6B H 0.19900 -0.00990 -0.23240
H7B H 0.19170 0.06990 -0.31820
C10B C 0.5894(3) 0.1305(2) -0.31140(11)
H8B H 0.50720 0.19250 -0.34750
H9B H 0.71830 0.17030 -0.28650
H10B H 0.61830 0.05650 -0.34540
C11B C 0.9701(2) -0.23022(14) 0.02482(9)
H11B H 1.00290 -0.17820 0.07760
C12B C 1.1738(2) -0.27689(16) -0.00091(11)
H12B H 1.24970 -0.20370 -0.01880
H13B H 1.25520 -0.31880 0.04750
H14B H 1.14590 -0.33770 -0.04780
C13B C 0.8449(3) -0.34794(16) 0.04622(11)
H15B H 0.92420 -0.39670 0.09200
H16B H 0.71680 -0.31930 0.06420
H17B H 0.81450 -0.40220 -0.00400
loop_
_geom_bond_atom_site_label_1
_geom_bond_atom_site_label_2
_geom_bond_distance
_geom_bond_site_symmetry_1
_geom_bond_site_symmetry_2
C1 C2 1.363 1_555 1_555
C2 H1 0.941 1_555 1_555
C3 C2 1.415 1_555 1_555
H2 C3 0.940 1_555 1_555
C4 C3 1.364 1_555 1_555
C5 C4 1.446 1_555 1_555
C6 C1 1.444 1_555 1_555
C7 C6 1.404 1_555 1_555
H3 C7 0.940 1_555 1_555
C8 C1 1.521 1_555 1_555
H4 C8 0.990 1_555 1_555
C9 C8 1.521 1_555 1_555
H5 C9 0.970 1_555 1_555
H6 C9 0.970 1_555 1_555
H7 C9 0.970 1_555 1_555
C10 C8 1.527 1_555 1_555
H8 C10 0.969 1_555 1_555
H9 C10 0.970 1_555 1_555
H10 C10 0.970 1_555 1_555
C11 C4 1.518 1_555 1_555
H11 C11 0.990 1_555 1_555
C12 C11 1.528 1_555 1_555
H12 C12 0.971 1_555 1_555
H13 C12 0.970 1_555 1_555
H14 C12 0.970 1_555 1_555
C13 C11 1.534 1_555 1_555
H15 C13 0.969 1_555 1_555
H16 C13 0.970 1_555 1_555
H17 C13 0.970 1_555 1_555
C1B C2B 1.363 1_555 1_555
C2B H1B 0.941 1_555 1_555
C3B C2B 1.415 1_555 1_555
H2B C3B 0.940 1_555 1_555
C4B C3B 1.364 1_555 1_555
C5B C7 1.401 1_555 1_555
C6B C1B 1.444 1_555 1_555
C7B C5 1.401 1_555 1_555
H3B C7B 0.940 1_555 1_555
C8B C1B 1.521 1_555 1_555
H4B C8B 0.990 1_555 1_555
C9B C8B 1.521 1_555 1_555
H5B C9B 0.970 1_555 1_555
H6B C9B 0.970 1_555 1_555
H7B C9B 0.970 1_555 1_555
C10B C8B 1.527 1_555 1_555
H8B C10B 0.969 1_555 1_555
H9B C10B 0.970 1_555 1_555
H10B C10B 0.970 1_555 1_555
C11B C4B 1.518 1_555 1_555
H11B C11B 0.990 1_555 1_555
C12B C11B 1.528 1_555 1_555
H12B C12B 0.971 1_555 1_555
H13B C12B 0.970 1_555 1_555
H14B C12B 0.970 1_555 1_555
C13B C11B 1.534 1_555 1_555
H15B C13B 0.969 1_555 1_555
H16B C13B 0.970 1_555 1_555
H17B C13B 0.970 1_555 1_555
C5 C6 1.435 1_555 1_555
C4B C5B 1.446 1_555 1_555
C5B C6B 1.435 1_555 1_555
C6B C7B 1.404 1_555 1_555
#END
