
#######################################################################
#
#                 Cambridge Crystallographic Data Centre
#                                CCDC
#
#######################################################################
#
# If this CIF has been generated from an entry in the Cambridge
# Structural Database, then it will include bibliographic, chemical,
# crystal, experimental, refinement or atomic coordinate data resulting
# from the CCDC's data processing and validation procedures.
#
#######################################################################

data_CSD_CIF_TALXIN
_audit_creation_date 1992-02-25
_audit_creation_method CSD-ConQuest-V1
_database_code_CSD TALXIN
_chemical_formula_sum 'C40 H40'
_chemical_formula_moiety
;
C40 H40
;
_journal_coden_Cambridge 4
_journal_volume 113
_journal_year 1991
_journal_page_first 5804
_journal_name_full 'J.Am.Chem.Soc. '
loop_
_publ_author_name
"Y.Tobe"
"T.Takahashi"
"K.Kobiro"
"K.Kakiuchi"
_chemical_name_systematic
;
1,1',2,2'-Bi-((6)(1,4)-anthracenophane)
;
_cell_volume   1416.756
_exptl_crystal_density_diffrn 1.221
_exptl_special_details
;
head to tail conformer
Established as cis-cis/head to tail/anti from X-ray studies
;
_diffrn_ambient_temperature ?
_diffrn_special_details
;
The study was carried out at room temperature,in the range 283-303K

;
#These two values have been output from a single CSD field.
_refine_ls_R_factor_gt 0.073
_refine_ls_wR_factor_gt 0.073
_symmetry_cell_setting monoclinic
_symmetry_space_group_name_H-M 'P 21/n'
_symmetry_Int_Tables_number 14
loop_
_symmetry_equiv_pos_site_id
_symmetry_equiv_pos_as_xyz
1 x,y,z
2 1/2-x,1/2+y,1/2-z
3 -x,-y,-z
4 -1/2+x,-1/2-y,-1/2+z
_cell_length_a 14.159(4)
_cell_length_b 7.872(3)
_cell_length_c 13.689(3)
_cell_angle_alpha 90
_cell_angle_beta 111.79(2)
_cell_angle_gamma 90
_cell_formula_units_Z 2
loop_
_atom_type_symbol
_atom_type_radius_bond
C 0.68
H 0.23
loop_
_atom_site_label
_atom_site_type_symbol
_atom_site_fract_x
_atom_site_fract_y
_atom_site_fract_z
C1 C 0.2867(3) 0.2323(5) 0.7250(3)
C2 C 0.3103(3) 0.0934(5) 0.6540(4)
C3 C 0.2138(3) 0.0147(5) 0.5715(4)
C4 C 0.1772(3) 0.1031(5) 0.4599(3)
C5 C 0.0596(3) 0.1291(5) 0.4093(3)
C6 C 0.0191(3) 0.3103(5) 0.3720(3)
C7 C 0.0482(3) 0.4466(4) 0.4582(3)
C8 C 0.1571(3) 0.5064(4) 0.4831(3)
C9 C 0.1809(3) 0.6017(4) 0.4121(3)
C10 C 0.2821(3) 0.6577(4) 0.4324(3)
C11 C 0.3101(3) 0.7542(6) 0.3603(4)
C12 C 0.4090(4) 0.8085(6) 0.3852(4)
C13 C 0.4836(3) 0.7666(6) 0.4838(4)
C14 C 0.4608(3) 0.6704(6) 0.5531(4)
C15 C 0.359(3) 0.6139(5) 0.5310(3)
C16 C 0.3331(3) 0.5148(5) 0.6031(3)
C17 C 0.2342(3) 0.4616(4) 0.5818(3)
C18 C 0.2081(3) 0.3535(5) 0.6559(3)
C19 C 0.1119(3) 0.3412(5) 0.6500(3)
C20 C 0.0229(3) 0.3929(4) 0.5549(3)
H1 H 0.355(3) 0.301(5) 0.769(3)
H2 H 0.258(3) 0.172(5) 0.780(3)
H3 H 0.354(3) -0.006(5) 0.705(3)
H4 H 0.354(3) 0.151(5) 0.613(3)
H5 H 0.153(3) 0.023(5) 0.602(3)
H6 H 0.229(3) -0.117(5) 0.562(3)
H7 H 0.200(3) 0.026(5) 0.408(3)
H8 H 0.214(3) 0.225(5) 0.468(3)
H9 H 0.028(3) 0.090(5) 0.466(3)
H10 H 0.031(3) 0.046(5) 0.341(3)
H11 H -0.062(3) 0.304(5) 0.338(3)
H12 H 0.047(3) 0.350(5) 0.313(3)
H13 H 0.122(3) 0.635(5) 0.339(3)
H14 H 0.253(3) 0.786(5) 0.285(3)
H15 H 0.429(3) 0.882(5) 0.329(3)
H16 H 0.560(3) 0.813(5) 0.504(3)
H17 H 0.520(3) 0.636(5) 0.627(3)
H18 H 0.392(3) 0.480(5) 0.676(3)
H19 H 0.098(3) 0.291(5) 0.716(3)
H20 H -0.013(3) 0.277(5) 0.561(3)
C20B C -0.0229(3) 0.6071(4) 0.4451(3)
C7B C -0.0482(3) 0.5534(4) 0.5418(3)
C19B C -0.1119(3) 0.6588(5) 0.3500(3)
H20B H 0.013(3) 0.723(5) 0.439(3)
C6B C -0.0191(3) 0.6897(5) 0.6280(3)
C8B C -0.1571(3) 0.4936(4) 0.5169(3)
C18B C -0.2081(3) 0.6465(5) 0.3441(3)
H19B H -0.098(3) 0.709(5) 0.284(3)
C5B C -0.0596(3) 0.8709(5) 0.5907(3)
H11B H 0.062(3) 0.696(5) 0.662(3)
H12B H -0.047(3) 0.650(5) 0.687(3)
C9B C -0.1809(3) 0.3983(4) 0.5879(3)
C17B C -0.2342(3) 0.5384(4) 0.4182(3)
C1B C -0.2867(3) 0.7677(5) 0.2750(3)
C4B C -0.1772(3) 0.8969(5) 0.5401(3)
H9B H -0.028(3) 0.910(5) 0.534(3)
H10B H -0.031(3) 0.954(5) 0.659(3)
C10B C -0.2821(3) 0.3423(4) 0.5676(3)
H13B H -0.122(3) 0.365(5) 0.661(3)
C16B C -0.3331(3) 0.4852(5) 0.3969(3)
C2B C -0.3103(3) 0.9066(5) 0.3460(4)
H1B H -0.355(3) 0.699(5) 0.231(3)
H2B H -0.258(3) 0.828(5) 0.220(3)
C3B C -0.2138(3) 0.9853(5) 0.4285(4)
H7B H -0.200(3) 0.974(5) 0.592(3)
H8B H -0.214(3) 0.775(5) 0.532(3)
C11B C -0.3101(3) 0.2458(6) 0.6397(4)
C15B C -0.359(3) 0.3861(5) 0.4690(3)
H18B H -0.392(3) 0.520(5) 0.324(3)
H3B H -0.354(3) 1.006(5) 0.295(3)
H4B H -0.354(3) 0.849(5) 0.387(3)
H5B H -0.153(3) 0.977(5) 0.398(3)
H6B H -0.229(3) 1.117(5) 0.438(3)
C12B C -0.4090(4) 0.1915(6) 0.6148(4)
H14B H -0.253(3) 0.214(5) 0.715(3)
C14B C -0.4608(3) 0.3296(6) 0.4469(4)
C13B C -0.4836(3) 0.2334(6) 0.5162(4)
H15B H -0.429(3) 0.118(5) 0.671(3)
H17B H -0.520(3) 0.364(5) 0.373(3)
H16B H -0.560(3) 0.187(5) 0.496(3)
loop_
_geom_bond_atom_site_label_1
_geom_bond_atom_site_label_2
_geom_bond_distance
_geom_bond_site_symmetry_1
_geom_bond_site_symmetry_2
C1 C2 1.579 1_555 1_555
C2 C3 1.543 1_555 1_555
C3 C4 1.581 1_555 1_555
C4 C5 1.561 1_555 1_555
C5 C6 1.551 1_555 1_555
C6 C7 1.534 1_555 1_555
C7 C8 1.525 1_555 1_555
C8 C9 1.365 1_555 1_555
C9 C10 1.424 1_555 1_555
C10 C11 1.414 1_555 1_555
C11 C12 1.380 1_555 1_555
C12 C13 1.410 1_555 1_555
C13 C14 1.344 1_555 1_555
C14 C15 1.429 1_555 1_555
C15 C10 1.427 1_555 1_555
C16 C15 1.409 1_555 1_555
C17 C8 1.431 1_555 1_555
C18 C1 1.504 1_555 1_555
C19 C18 1.338 1_555 1_555
C20 C7 1.553 1_555 1_555
H1 C1 1.076 1_555 1_555
H2 C1 1.088 1_555 1_555
H3 C2 1.078 1_555 1_555
H4 C2 1.078 1_555 1_555
H5 C3 1.089 1_555 1_555
H6 C3 1.076 1_555 1_555
H7 C4 1.071 1_555 1_555
H8 C4 1.078 1_555 1_555
H9 C5 1.075 1_555 1_555
H10 C5 1.089 1_555 1_555
H11 C6 1.068 1_555 1_555
H12 C6 1.069 1_555 1_555
H13 C9 1.071 1_555 1_555
H14 C11 1.077 1_555 1_555
H15 C12 1.081 1_555 1_555
H16 C13 1.076 1_555 1_555
H17 C14 1.082 1_555 1_555
H18 C16 1.072 1_555 1_555
H19 C19 1.069 1_555 1_555
H20 C20 1.063 1_555 1_555
C20B C7 1.584 1_555 1_555
C7B C20 1.584 1_555 1_555
C19B C20B 1.493 1_555 1_555
H20B C20B 1.063 1_555 1_555
C6B C7B 1.534 1_555 1_555
C8B C7B 1.525 1_555 1_555
C18B C19B 1.338 1_555 1_555
H19B C19B 1.069 1_555 1_555
C5B C6B 1.551 1_555 1_555
H11B C6B 1.068 1_555 1_555
H12B C6B 1.069 1_555 1_555
C9B C8B 1.365 1_555 1_555
C17B C8B 1.431 1_555 1_555
C1B C18B 1.504 1_555 1_555
C4B C5B 1.561 1_555 1_555
H9B C5B 1.075 1_555 1_555
H10B C5B 1.089 1_555 1_555
C10B C9B 1.424 1_555 1_555
H13B C9B 1.071 1_555 1_555
C16B C17B 1.385 1_555 1_555
C2B C1B 1.579 1_555 1_555
H1B C1B 1.076 1_555 1_555
H2B C1B 1.088 1_555 1_555
C3B C4B 1.581 1_555 1_555
H7B C4B 1.071 1_555 1_555
H8B C4B 1.078 1_555 1_555
C11B C10B 1.414 1_555 1_555
C15B C10B 1.427 1_555 1_555
H18B C16B 1.072 1_555 1_555
H3B C2B 1.078 1_555 1_555
H4B C2B 1.078 1_555 1_555
H5B C3B 1.089 1_555 1_555
H6B C3B 1.076 1_555 1_555
C12B C11B 1.380 1_555 1_555
H14B C11B 1.077 1_555 1_555
C14B C15B 1.429 1_555 1_555
C13B C12B 1.410 1_555 1_555
H15B C12B 1.081 1_555 1_555
H17B C14B 1.082 1_555 1_555
H16B C13B 1.076 1_555 1_555
C16 C17 1.385 1_555 1_555
C17 C18 1.472 1_555 1_555
C19 C20 1.493 1_555 1_555
C20B C7B 1.553 1_555 1_555
C18B C17B 1.472 1_555 1_555
C16B C15B 1.409 1_555 1_555
C2B C3B 1.543 1_555 1_555
C14B C13B 1.344 1_555 1_555
#END
