
#######################################################################
#
#                 Cambridge Crystallographic Data Centre
#                                CCDC
#
#######################################################################
#
# If this CIF has been generated from an entry in the Cambridge
# Structural Database, then it will include bibliographic, chemical,
# crystal, experimental, refinement or atomic coordinate data resulting
# from the CCDC's data processing and validation procedures.
#
#######################################################################

data_CSD_CIF_TALXUZ
_audit_creation_date 1992-02-25
_audit_creation_method CSD-ConQuest-V1
_database_code_CSD TALXUZ
_chemical_formula_sum 'C40 H40'
_chemical_formula_moiety
;
C40 H40
;
_journal_coden_Cambridge 4
_journal_volume 113
_journal_year 1991
_journal_page_first 5804
_journal_name_full 'J.Am.Chem.Soc. '
loop_
_publ_author_name
"Y.Tobe"
"T.Takahashi"
"K.Kobiro"
"K.Kakiuchi"
_chemical_name_systematic
;
1,1',2,2'-Bi-((6)(4'-3)(1,4)-anthracenophane)
;
_chemical_melting_point 521.15
_cell_volume   1404.096
_exptl_crystal_density_diffrn 1.228
_exptl_special_details
;
Melting point range 521.15-523.15K
cis-trans isomer
Established as cis-trans/head to head
;
_diffrn_ambient_temperature ?
_diffrn_special_details
;
The study was carried out at room temperature,in the range 283-303K

;
#These two values have been output from a single CSD field.
_refine_ls_R_factor_gt 0.075
_refine_ls_wR_factor_gt 0.075
_symmetry_cell_setting triclinic
_symmetry_space_group_name_H-M 'P -1'
_symmetry_Int_Tables_number 2
loop_
_symmetry_equiv_pos_site_id
_symmetry_equiv_pos_as_xyz
1 x,y,z
2 -x,-y,-z
_cell_length_a 11.724(2)
_cell_length_b 12.888(2)
_cell_length_c 11.576(2)
_cell_angle_alpha 113.00(2)
_cell_angle_beta 119.30(1)
_cell_angle_gamma 79.01(2)
_cell_formula_units_Z 2
loop_
_atom_type_symbol
_atom_type_radius_bond
C 0.68
H 0.23
loop_
_atom_site_label
_atom_site_type_symbol
_atom_site_fract_x
_atom_site_fract_y
_atom_site_fract_z
C1 C 0.6090(4) 1.1865(4) 1.3370(5)
C2 C 0.5734(5) 1.3118(4) 1.3820(5)
C3 C 0.4338(5) 1.3164(4) 1.3655(5)
C4 C 0.4083(5) 1.1993(3) 1.3537(4)
C5 C 0.2626(4) 1.1733(3) 1.2851(4)
C6 C 0.2308(4) 1.0492(3) 1.2399(4)
C7 C 0.2817(4) 0.9629(3) 1.1364(4)
C8 C 0.2816(4) 1.0210(3) 1.0461(4)
C9 C 0.1840(4) 1.0198(3) 0.9160(4)
C10 C 0.1936(4) 1.0835(3) 0.8447(4)
C11 C 0.0925(5) 1.0813(4) 0.7107(5)
C12 C 0.1030(6) 1.1490(4) 0.6462(6)
C13 C 0.2125(6) 1.2158(4) 0.7124(6)
C14 C 0.3128(5) 1.2177(4) 0.8413(5)
C15 C 0.3060(4) 1.1512(3) 0.9112(4)
C16 C 0.4049(4) 1.1537(3) 1.0471(4)
C17 C 0.3944(4) 1.0940(3) 1.1168(4)
C18 C 0.4852(4) 1.1168(3) 1.2756(4)
C19 C 0.5247(4) 1.0076(3) 1.3153(4)
C20 C 0.4222(4) 0.9191(3) 1.2080(4)
C21 C 0.1042(4) 0.8246(3) 1.0934(4)
C22 C 0.0718(4) 0.7058(3) 1.0702(5)
C23 C 0.1499(5) 0.6696(4) 1.2024(5)
C24 C 0.1763(5) 0.5424(4) 1.1734(5)
C25 C 0.2420(4) 0.4776(3) 1.0765(4)
C26 C 0.3811(4) 0.5126(3) 1.1245(4)
C27 C 0.3793(4) 0.6282(3) 1.1180(4)
C28 C 0.3076(4) 0.6427(3) 0.9771(4)
C29 C 0.3060(4) 0.5560(3) 0.8593(4)
C30 C 0.2351(4) 0.5635(3) 0.7240(4)
C31 C 0.2329(4) 0.4764(3) 0.6003(4)
C32 C 0.1580(5) 0.4866(4) 0.4704(4)
C33 C 0.0808(5) 0.5842(4) 0.4556(4)
C34 C 0.0823(5) 0.6698(4) 0.5746(4)
C35 C 0.1595(4) 0.6636(3) 0.7099(4)
C36 C 0.1625(4) 0.7501(3) 0.8317(4)
C37 C 0.2397(4) 0.7454(3) 0.9663(4)
C38 C 0.2351(4) 0.8361(3) 1.0965(4)
C39 C 0.3660(4) 0.8340(3) 1.2311(4)
C40 C 0.4205(4) 0.7189(3) 1.2344(4)
H1 H 0.686(4) 1.167(3) 1.427(4)
H2 H 0.642(4) 1.167(3) 1.259(4)
H3 H 0.576(4) 1.350(3) 1.316(4)
H4 H 0.641(4) 1.355(3) 1.490(4)
H5 H 0.363(4) 1.335(3) 1.271(4)
H6 H 0.427(4) 1.380(3) 1.455(4)
H7 H 0.444(4) 1.192(3) 1.455(4)
H8 H 0.212(4) 1.198(3) 1.193(4)
H9 H 0.226(4) 1.223(3) 1.359(4)
H10 H 0.126(4) 1.041(3) 1.189(4)
H11 H 0.272(4) 1.028(3) 1.334(4)
H12 H 0.098(4) 0.969(3) 0.866(4)
H13 H 0.008(4) 1.028(3) 0.658(4)
H14 H 0.025(4) 1.149(3) 0.545(4)
H15 H 0.219(4) 1.267(3) 0.662(4)
H16 H 0.397(4) 1.269(3) 0.890(4)
H17 H 0.491(4) 1.205(3) 1.097(4)
H18 H 0.533(4) 1.027(3) 1.419(4)
H19 H 0.617(4) 0.977(3) 1.317(4)
H20 H 0.486(4) 0.882(3) 1.160(4)
H21 H 0.108(4) 0.880(3) 1.192(4)
H22 H 0.026(4) 0.851(3) 1.009(4)
H23 H 0.092(4) 0.646(3) 0.986(4)
H24 H -0.031(4) 0.703(3) 1.038(4)
H25 H 0.096(4) 0.697(3) 1.262(4)
H26 H 0.243(4) 0.712(3) 1.266(4)
H27 H 0.083(4) 0.502(3) 1.126(4)
H28 H 0.238(4) 0.531(3) 1.274(4)
H29 H 0.180(4) 0.486(3) 0.974(4)
H30 H 0.246(4) 0.389(3) 1.064(4)
H31 H 0.420(4) 0.452(3) 1.057(4)
H32 H 0.443(4) 0.514(3) 1.232(4)
H33 H 0.361(4) 0.480(3) 0.872(4)
H34 H 0.291(4) 0.401(3) 0.610(4)
H35 H 0.157(4) 0.420(3) 0.378(4)
H36 H 0.021(4) 0.591(3) 0.353(4)
H37 H 0.023(4) 0.744(3) 0.563(4)
H38 H 0.102(4) 0.823(3) 0.820(4)
H39 H 0.376(4) 0.856(3) 1.335(4)
H40 H 0.494(4) 0.710(3) 1.333(4)
loop_
_geom_bond_atom_site_label_1
_geom_bond_atom_site_label_2
_geom_bond_distance
_geom_bond_site_symmetry_1
_geom_bond_site_symmetry_2
C1 C2 1.534 1_555 1_555
C2 C3 1.544 1_555 1_555
C3 C4 1.535 1_555 1_555
C4 C5 1.531 1_555 1_555
C5 C6 1.534 1_555 1_555
C6 C7 1.560 1_555 1_555
C7 C8 1.504 1_555 1_555
C8 C9 1.371 1_555 1_555
C9 C10 1.423 1_555 1_555
C10 C11 1.411 1_555 1_555
C11 C12 1.405 1_555 1_555
C12 C13 1.385 1_555 1_555
C13 C14 1.369 1_555 1_555
C14 C15 1.424 1_555 1_555
C15 C10 1.418 1_555 1_555
C16 C15 1.418 1_555 1_555
C17 C8 1.455 1_555 1_555
C18 C1 1.552 1_555 1_555
C19 C18 1.567 1_555 1_555
C20 C7 1.547 1_555 1_555
C21 C22 1.537 1_555 1_555
C22 C23 1.556 1_555 1_555
C23 C24 1.541 1_555 1_555
C24 C25 1.555 1_555 1_555
C25 C26 1.539 1_555 1_555
C26 C27 1.517 1_555 1_555
C27 C28 1.496 1_555 1_555
C28 C29 1.379 1_555 1_555
C29 C30 1.402 1_555 1_555
C30 C31 1.425 1_555 1_555
C31 C32 1.367 1_555 1_555
C32 C33 1.419 1_555 1_555
C33 C34 1.382 1_555 1_555
C34 C35 1.401 1_555 1_555
C35 C30 1.437 1_555 1_555
C36 C35 1.404 1_555 1_555
C37 C28 1.425 1_555 1_555
C38 C7 1.639 1_555 1_555
C39 C20 1.545 1_555 1_555
C40 C27 1.328 1_555 1_555
H1 C1 1.078 1_555 1_555
H2 C1 1.075 1_555 1_555
H3 C2 1.072 1_555 1_555
H4 C2 1.075 1_555 1_555
H5 C3 1.088 1_555 1_555
H6 C3 1.070 1_555 1_555
H7 C4 1.072 1_555 1_555
H8 C5 1.079 1_555 1_555
H9 C5 1.074 1_555 1_555
H10 C6 1.077 1_555 1_555
H11 C6 1.078 1_555 1_555
H12 C9 1.079 1_555 1_555
H13 C11 1.080 1_555 1_555
H14 C12 1.077 1_555 1_555
H15 C13 1.070 1_555 1_555
H16 C14 1.069 1_555 1_555
H17 C16 1.084 1_555 1_555
H18 C19 1.083 1_555 1_555
H19 C19 1.072 1_555 1_555
H20 C20 1.077 1_555 1_555
H21 C21 1.068 1_555 1_555
H22 C21 1.084 1_555 1_555
H23 C22 1.081 1_555 1_555
H24 C22 1.077 1_555 1_555
H25 C23 1.073 1_555 1_555
H26 C23 1.076 1_555 1_555
H27 C24 1.084 1_555 1_555
H28 C24 1.082 1_555 1_555
H29 C25 1.084 1_555 1_555
H30 C25 1.088 1_555 1_555
H31 C26 1.079 1_555 1_555
H32 C26 1.086 1_555 1_555
H33 C29 1.084 1_555 1_555
H34 C31 1.086 1_555 1_555
H35 C32 1.075 1_555 1_555
H36 C33 1.074 1_555 1_555
H37 C34 1.082 1_555 1_555
H38 C36 1.075 1_555 1_555
H39 C39 1.072 1_555 1_555
H40 C40 1.077 1_555 1_555
C4 C18 1.563 1_555 1_555
C16 C17 1.370 1_555 1_555
C17 C18 1.543 1_555 1_555
C19 C20 1.497 1_555 1_555
C21 C38 1.551 1_555 1_555
C36 C37 1.387 1_555 1_555
C37 C38 1.523 1_555 1_555
C38 C39 1.569 1_555 1_555
C39 C40 1.506 1_555 1_555
#END
