
#######################################################################
#
#                 Cambridge Crystallographic Data Centre
#                                CCDC
#
#######################################################################
#
# If this CIF has been generated from an entry in the Cambridge
# Structural Database, then it will include bibliographic, chemical,
# crystal, experimental, refinement or atomic coordinate data resulting
# from the CCDC's data processing and validation procedures.
#
#######################################################################

data_CSD_CIF_TALXEJ
_audit_creation_date 1992-02-25
_audit_creation_method CSD-ConQuest-V1
_database_code_CSD TALXEJ
_chemical_formula_sum 'C40 H40'
_chemical_formula_moiety
;
C40 H40
;
_journal_coden_Cambridge 4
_journal_volume 113
_journal_year 1991
_journal_page_first 5804
_journal_name_full 'J.Am.Chem.Soc. '
loop_
_publ_author_name
"Y.Tobe"
"T.Takahashi"
"K.Kobiro"
"K.Kakiuchi"
_chemical_name_systematic
;
1,1',2,2'-Bi-((6)(1,4)-anthracenophane)
;
_chemical_melting_point 482.15
_cell_volume   5719.617
_exptl_crystal_density_diffrn 1.232
_exptl_special_details
;
Melts with decomposition.
head to head conformer
Established as cis-cis/head to head/syn from X-ray analysis
;
_diffrn_ambient_temperature ?
_diffrn_special_details
;
The study was carried out at room temperature,in the range 283-303K

;
#These two values have been output from a single CSD field.
_refine_ls_R_factor_gt 0.084
_refine_ls_wR_factor_gt 0.084
_symmetry_cell_setting monoclinic
_symmetry_space_group_name_H-M 'C 2/c'
_symmetry_Int_Tables_number 15
loop_
_symmetry_equiv_pos_site_id
_symmetry_equiv_pos_as_xyz
1 x,y,z
2 1/2+x,1/2+y,z
3 -x,y,1/2-z
4 1/2-x,1/2+y,1/2-z
5 -x,-y,-z
6 -1/2-x,-1/2-y,-z
7 x,-y,-1/2+z
8 -1/2+x,-1/2-y,-1/2+z
_cell_length_a 18.788(2)
_cell_length_b 28.401(2)
_cell_length_c 10.886(1)
_cell_angle_alpha 90
_cell_angle_beta 100.05(1)
_cell_angle_gamma 90
_cell_formula_units_Z 8
loop_
_atom_type_symbol
_atom_type_radius_bond
C 0.68
H 0.23
loop_
_atom_site_label
_atom_site_type_symbol
_atom_site_fract_x
_atom_site_fract_y
_atom_site_fract_z
C1 C 0.7926(3) 0.3835(2) 1.1680(5)
C2 C 0.8746(4) 0.3973(3) 1.2068(5)
C3 C 0.9040(4) 0.4372(3) 1.1283(6)
C4 C 0.9441(3) 0.4191(2) 1.0244(6)
C5 C 0.9357(3) 0.4481(2) 0.9032(6)
C6 C 0.8933(3) 0.4277(2) 0.7775(5)
C7 C 0.8197(2) 0.4039(2) 0.7892(4)
C8 C 0.8333(2) 0.3561(2) 0.8458(4)
C9 C 0.8692(3) 0.3220(2) 0.7927(4)
C10 C 0.8775(2) 0.2754(2) 0.8394(5)
C11 C 0.9079(3) 0.2395(2) 0.7731(6)
C12 C 0.9112(3) 0.1931(2) 0.8193(7)
C13 C 0.8856(3) 0.1832(2) 0.9322(7)
C14 C 0.8570(3) 0.2172(2) 0.9958(6)
C15 C 0.8523(3) 0.2649(2) 0.9512(5)
C16 C 0.8205(3) 0.3007(2) 1.0136(4)
C17 C 0.8100(2) 0.3451(2) 0.9625(4)
C18 C 0.7768(3) 0.3829(2) 1.0262(4)
C19 C 0.7486(3) 0.4216(2) 0.9660(4)
C20 C 0.7736(3) 0.4393(2) 0.8508(4)
C21 C 0.7747(3) 0.4134(2) 0.5353(4)
C22 C 0.7185(3) 0.4422(2) 0.4439(4)
C23 C 0.6454(3) 0.4177(2) 0.3943(4)
C24 C 0.5772(3) 0.4494(2) 0.3958(5)
C25 C 0.5177(3) 0.4277(2) 0.4550(4)
C26 C 0.5254(3) 0.4364(2) 0.5979(4)
C27 C 0.6013(3) 0.4251(2) 0.6625(4)
C28 C 0.6263(2) 0.3757(2) 0.6646(4)
C29 C 0.5768(3) 0.3397(2) 0.6512(4)
C30 C 0.5960(3) 0.2922(2) 0.6344(4)
C31 C 0.5432(3) 0.2551(2) 0.6181(5)
C32 C 0.5636(3) 0.2108(2) 0.5953(5)
C33 C 0.6365(3) 0.2003(2) 0.5913(5)
C34 C 0.6883(3) 0.2351(2) 0.6068(5)
C35 C 0.6684(2) 0.2822(2) 0.6267(4)
C36 C 0.7190(2) 0.3199(2) 0.6390(4)
C37 C 0.7009(2) 0.3657(2) 0.6606(4)
C38 C 0.7557(2) 0.4058(2) 0.6662(4)
C39 C 0.7281(3) 0.4510(2) 0.7224(4)
C40 C 0.6485(3) 0.4601(2) 0.6971(4)
H1 H 0.759(2) 0.409(2) 1.204(4)
H2 H 0.783(2) 0.349(2) 1.205(4)
H3 H 0.906(2) 0.366(2) 1.200(4)
H4 H 0.883(2) 0.409(2) 1.302(4)
H5 H 0.941(2) 0.459(2) 1.192(4)
H6 H 0.859(2) 0.459(2) 1.085(4)
H7 H 0.925(2) 0.384(2) 1.000(4)
H8 H 1.001(2) 0.418(2) 1.063(4)
H9 H 0.990(2) 0.456(2) 0.888(4)
H10 H 0.909(2) 0.481(2) 0.920(4)
H11 H 0.927(2) 0.402(2) 0.743(4)
H12 H 0.883(2) 0.456(2) 0.711(4)
H13 H 0.892(2) 0.331(2) 0.712(4)
H14 H 0.928(2) 0.248(2) 0.688(4)
H15 H 0.933(2) 0.165(2) 0.769(4)
H16 H 0.889(2) 0.148(2) 0.967(4)
H17 H 0.838(2) 0.208(2) 1.081(4)
H18 H 0.805(2) 0.293(2) 1.102(4)
H19 H 0.708(2) 0.441(2) 1.003(4)
H20 H 0.793(2) 0.470(2) 0.903(4)
H21 H 0.781(2) 0.379(2) 0.494(4)
H22 H 0.826(2) 0.432(2) 0.545(4)
H23 H 0.743(2) 0.451(2) 0.365(4)
H24 H 0.707(2) 0.474(2) 0.491(4)
H25 H 0.641(2) 0.387(2) 0.451(4)
H26 H 0.646(2) 0.407(2) 0.300(4)
H27 H 0.555(2) 0.458(2) 0.300(4)
H28 H 0.595(2) 0.481(2) 0.445(4)
H29 H 0.518(2) 0.390(2) 0.440(4)
H30 H 0.466(2) 0.442(2) 0.410(4)
H31 H 0.487(2) 0.415(2) 0.634(4)
H32 H 0.514(2) 0.473(2) 0.615(4)
H33 H 0.521(2) 0.348(2) 0.654(4)
H34 H 0.487(2) 0.263(2) 0.623(4)
H35 H 0.524(2) 0.183(2) 0.579(4)
H36 H 0.652(2) 0.165(2) 0.576(4)
H37 H 0.744(2) 0.227(2) 0.604(4)
H38 H 0.774(2) 0.312(2) 0.631(4)
H39 H 0.736(2) 0.486(2) 0.688(4)
H40 H 0.629(2) 0.495(2) 0.706(4)
loop_
_geom_bond_atom_site_label_1
_geom_bond_atom_site_label_2
_geom_bond_distance
_geom_bond_site_symmetry_1
_geom_bond_site_symmetry_2
C1 C2 1.574 1_555 1_555
C2 C3 1.576 1_555 1_555
C3 C4 1.552 1_555 1_555
C4 C5 1.540 1_555 1_555
C5 C6 1.569 1_555 1_555
C6 C7 1.564 1_555 1_555
C7 C8 1.494 1_555 1_555
C8 C9 1.365 1_555 1_555
C9 C10 1.417 1_555 1_555
C10 C11 1.425 1_555 1_555
C11 C12 1.408 1_555 1_555
C12 C13 1.424 1_555 1_555
C13 C14 1.353 1_555 1_555
C14 C15 1.437 1_555 1_555
C15 C10 1.413 1_555 1_555
C16 C15 1.412 1_555 1_555
C17 C8 1.448 1_555 1_555
C18 C1 1.520 1_555 1_555
C19 C18 1.341 1_555 1_555
C20 C7 1.554 1_555 1_555
C21 C22 1.552 1_555 1_555
C22 C23 1.550 1_555 1_555
C23 C24 1.568 1_555 1_555
C24 C25 1.515 1_555 1_555
C25 C26 1.557 1_555 1_555
C26 C27 1.510 1_555 1_555
C27 C28 1.478 1_555 1_555
C28 C29 1.373 1_555 1_555
C29 C30 1.417 1_555 1_555
C30 C31 1.437 1_555 1_555
C31 C32 1.351 1_555 1_555
C32 C33 1.410 1_555 1_555
C33 C34 1.377 1_555 1_555
C34 C35 1.416 1_555 1_555
C35 C30 1.406 1_555 1_555
C36 C35 1.423 1_555 1_555
C37 C28 1.438 1_555 1_555
C38 C7 1.637 1_555 1_555
C39 C20 1.542 1_555 1_555
C40 C27 1.342 1_555 1_555
H1 C1 1.078 1_555 1_555
H2 C1 1.086 1_555 1_555
H3 C2 1.077 1_555 1_555
H4 C2 1.073 1_555 1_555
H5 C3 1.086 1_555 1_555
H6 C3 1.087 1_555 1_555
H7 C4 1.077 1_555 1_555
H8 C4 1.079 1_555 1_555
H9 C5 1.085 1_555 1_555
H10 C5 1.091 1_555 1_555
H11 C6 1.076 1_555 1_555
H12 C6 1.076 1_555 1_555
H13 C9 1.073 1_555 1_555
H14 C11 1.087 1_555 1_555
H15 C12 1.088 1_555 1_555
H16 C13 1.067 1_555 1_555
H17 C14 1.082 1_555 1_555
H18 C16 1.075 1_555 1_555
H19 C19 1.075 1_555 1_555
H20 C20 1.069 1_555 1_555
H21 C21 1.091 1_555 1_555
H22 C21 1.088 1_555 1_555
H23 C22 1.072 1_555 1_555
H24 C22 1.079 1_555 1_555
H25 C23 1.080 1_555 1_555
H26 C23 1.073 1_555 1_555
H27 C24 1.081 1_555 1_555
H28 C24 1.068 1_555 1_555
H29 C25 1.083 1_555 1_555
H30 C25 1.087 1_555 1_555
H31 C26 1.069 1_555 1_555
H32 C26 1.084 1_555 1_555
H33 C29 1.080 1_555 1_555
H34 C31 1.090 1_555 1_555
H35 C32 1.078 1_555 1_555
H36 C33 1.065 1_555 1_555
H37 C34 1.077 1_555 1_555
H38 C36 1.076 1_555 1_555
H39 C39 1.082 1_555 1_555
H40 C40 1.067 1_555 1_555
C16 C17 1.378 1_555 1_555
C17 C18 1.474 1_555 1_555
C19 C20 1.501 1_555 1_555
C21 C38 1.543 1_555 1_555
C36 C37 1.375 1_555 1_555
C37 C38 1.529 1_555 1_555
C38 C39 1.550 1_555 1_555
C39 C40 1.495 1_555 1_555
#END
