
#######################################################################
#
#                 Cambridge Crystallographic Data Centre
#                                CCDC
#
#######################################################################
#
# If this CIF has been generated from an entry in the Cambridge
# Structural Database, then it will include bibliographic, chemical,
# crystal, experimental, refinement or atomic coordinate data resulting
# from the CCDC's data processing and validation procedures.
#
#######################################################################

data_CSD_CIF_TAMSEF10
_audit_creation_date 1993-01-14
_audit_creation_method CSD-ConQuest-V1
_database_code_CSD TAMSEF10
_chemical_formula_sum 'C32 H36'
_chemical_formula_moiety
;
C32 H36
;
_journal_coden_Cambridge 4
_journal_volume 114
_journal_year 1992
_journal_page_first 3479
_journal_name_full 'J.Am.Chem.Soc. '
loop_
_publ_author_name
"Y.Tobe"
"A.Takemura"
"M.Jimbo"
"T.Takahashi"
"K.Kobiro"
"K.Kakiuchi"
_chemical_name_systematic
;
1,2-Dihydro-2-((6)(1,3)-naphthalenophan-4-yl)-(6)(1,4) naphthalenophane
;
_chemical_melting_point 435.15
_cell_volume   1189.331
_exptl_crystal_density_diffrn 1.175
_exptl_special_details
;
Melting point range 435.15-436.15K

;
_diffrn_ambient_temperature ?
_diffrn_special_details
;
The study was carried out at room temperature,in the range 283-303K

;
#These two values have been output from a single CSD field.
_refine_ls_R_factor_gt 0.116
_refine_ls_wR_factor_gt 0.116
_symmetry_cell_setting triclinic
_symmetry_space_group_name_H-M 'P -1'
_symmetry_Int_Tables_number 2
loop_
_symmetry_equiv_pos_site_id
_symmetry_equiv_pos_as_xyz
1 x,y,z
2 -x,-y,-z
_cell_length_a 12.751(4)
_cell_length_b 11.551(4)
_cell_length_c 9.592(2)
_cell_angle_alpha 109.95(3)
_cell_angle_beta 96.82(3)
_cell_angle_gamma 63.67(2)
_cell_formula_units_Z 2
loop_
_atom_type_symbol
_atom_type_radius_bond
C 0.68
H 0.23
loop_
_atom_site_label
_atom_site_type_symbol
_atom_site_fract_x
_atom_site_fract_y
_atom_site_fract_z
C1 C 0.8378(4) 0.3241(5) 0.2069(7)
C2 C 0.9561(5) 0.2038(7) 0.2152(8)
C3 C 0.9712(6) 0.1674(8) 0.3587(9)
C4 C 0.8803(6) 0.1331(8) 0.4151(8)
C5 C 0.8594(6) 0.0207(7) 0.2966(10)
C6 C 0.7366(4) 0.0243(5) 0.3006(6)
C7 C 0.6330(4) 0.1266(4) 0.2376(5)
C8 C 0.6624(4) 0.1134(4) 0.0829(5)
C9 C 0.6369(5) 0.0238(5) -0.0416(6)
C10 C 0.6655(6) 0.0099(6) -0.1835(6)
C11 C 0.7214(6) 0.0826(7) -0.2010(6)
C12 C 0.7494(5) 0.1707(6) -0.0778(6)
C13 C 0.7189(4) 0.1876(4) 0.0666(5)
C14 C 0.7357(4) 0.2884(4) 0.2003(5)
C15 C 0.6630(4) 0.3407(4) 0.3173(5)
C16 C 0.5875(4) 0.2781(4) 0.3405(5)
C17 C 0.0887(4) 0.4882(6) 0.2492(6)
C18 C 0.1160(4) 0.3800(6) 0.0903(6)
C19 C 0.1939(4) 0.3924(6) -0.0123(6)
C20 C 0.3277(4) 0.3089(5) -0.0123(5)
C21 C 0.4045(4) 0.3814(6) -0.0145(6)
C22 C 0.4392(4) 0.4639(5) 0.1363(5)
C23 C 0.3945(4) 0.4506(4) 0.2669(5)
C24 C 0.4543(4) 0.3564(4) 0.3412(4)
C25 C 0.3856(4) 0.3273(4) 0.4216(4)
C26 C 0.4371(5) 0.2401(5) 0.5122(5)
C27 C 0.3720(5) 0.2028(6) 0.5758(5)
C28 C 0.2520(5) 0.2460(5) 0.5531(6)
C29 C 0.1976(4) 0.3298(5) 0.4661(5)
C30 C 0.2618(4) 0.3736(4) 0.4030(5)
C31 C 0.2057(4) 0.4682(5) 0.3222(5)
C32 C 0.2691(4) 0.5172(4) 0.2771(5)
H1 H 0.839(4) 0.350(4) 0.110(5)
H2 H 0.825(4) 0.412(4) 0.304(5)
H3 H 1.025(4) 0.230(5) 0.205(5)
H4 H 0.964(4) 0.114(4) 0.121(5)
H5 H 0.975(4) 0.254(4) 0.448(5)
H6 H 1.055(4) 0.080(5) 0.346(5)
H7 H 0.798(4) 0.224(4) 0.447(5)
H8 H 0.913(4) 0.101(5) 0.512(5)
H9 H 0.924(4) -0.075(4) 0.306(5)
H10 H 0.873(4) 0.026(4) 0.189(5)
H11 H 0.714(4) 0.048(4) 0.415(5)
H12 H 0.744(4) -0.076(4) 0.238(5)
H13 H 0.563(4) 0.098(4) 0.232(5)
H14 H 0.596(4) -0.036(4) -0.027(5)
H15 H 0.644(4) -0.058(4) -0.279(5)
H16 H 0.744(4) 0.072(4) -0.310(5)
H17 H 0.795(4) 0.225(4) -0.093(5)
H18 H 0.658(4) 0.433(4) 0.400(5)
H19 H 0.599(4) 0.284(5) 0.455(5)
H20 H 0.034(4) 0.473(4) 0.312(5)
H21 H 0.043(4) 0.590(4) 0.242(5)
H22 H 0.034(4) 0.391(5) 0.038(5)
H23 H 0.159(4) 0.280(4) 0.102(5)
H24 H 0.177(4) 0.498(4) 0.020(5)
H25 H 0.167(4) 0.361(4) -0.125(5)
H26 H 0.353(4) 0.218(4) -0.109(5)
H27 H 0.347(4) 0.278(4) 0.086(5)
H28 H 0.359(4) 0.452(4) -0.076(5)
H29 H 0.486(4) 0.303(5) -0.075(5)
H30 H 0.402(4) 0.570(4) 0.145(5)
H31 H 0.533(4) 0.426(4) 0.138(5)
H32 H 0.530(4) 0.204(4) 0.531(5)
H33 H 0.414(4) 0.139(5) 0.645(5)
H34 H 0.202(4) 0.214(5) 0.602(5)
H35 H 0.105(4) 0.362(4) 0.446(5)
H36 H 0.223(4) 0.608(4) 0.247(5)
loop_
_geom_bond_atom_site_label_1
_geom_bond_atom_site_label_2
_geom_bond_distance
_geom_bond_site_symmetry_1
_geom_bond_site_symmetry_2
C1 C2 1.549 1_555 1_555
C2 C3 1.539 1_555 1_555
C3 C4 1.580 1_555 1_555
C4 C5 1.509 1_555 1_555
C5 C6 1.553 1_555 1_555
C6 C7 1.555 1_555 1_555
C7 C8 1.514 1_555 1_555
C8 C9 1.402 1_555 1_555
C9 C10 1.389 1_555 1_555
C10 C11 1.377 1_555 1_555
C11 C12 1.400 1_555 1_555
C12 C13 1.409 1_555 1_555
C13 C8 1.394 1_555 1_555
C14 C1 1.519 1_555 1_555
C15 C14 1.331 1_555 1_555
C16 C7 1.559 1_555 1_555
C17 C18 1.564 1_555 1_555
C18 C19 1.559 1_555 1_555
C19 C20 1.543 1_555 1_555
C20 C21 1.551 1_555 1_555
C21 C22 1.574 1_555 1_555
C22 C23 1.515 1_555 1_555
C23 C24 1.392 1_555 1_555
C24 C16 1.529 1_555 1_555
C25 C24 1.440 1_555 1_555
C26 C25 1.441 1_555 1_555
C27 C26 1.365 1_555 1_555
C28 C27 1.398 1_555 1_555
C29 C28 1.390 1_555 1_555
C30 C25 1.435 1_555 1_555
C31 C17 1.525 1_555 1_555
C32 C23 1.433 1_555 1_555
H1 C1 1.073 1_555 1_555
H2 C1 1.081 1_555 1_555
H3 C2 1.072 1_555 1_555
H4 C2 1.092 1_555 1_555
H5 C3 1.089 1_555 1_555
H6 C3 1.080 1_555 1_555
H7 C4 1.085 1_555 1_555
H8 C4 1.087 1_555 1_555
H9 C5 1.073 1_555 1_555
H10 C5 1.093 1_555 1_555
H11 C6 1.078 1_555 1_555
H12 C6 1.074 1_555 1_555
H13 C7 1.071 1_555 1_555
H14 C9 1.082 1_555 1_555
H15 C10 1.082 1_555 1_555
H16 C11 1.070 1_555 1_555
H17 C12 1.076 1_555 1_555
H18 C15 1.070 1_555 1_555
H19 C16 1.073 1_555 1_555
H20 C17 1.077 1_555 1_555
H21 C17 1.079 1_555 1_555
H22 C18 1.078 1_555 1_555
H23 C18 1.077 1_555 1_555
H24 C19 1.075 1_555 1_555
H25 C19 1.083 1_555 1_555
H26 C20 1.083 1_555 1_555
H27 C20 1.083 1_555 1_555
H28 C21 1.085 1_555 1_555
H29 C21 1.089 1_555 1_555
H30 C22 1.076 1_555 1_555
H31 C22 1.076 1_555 1_555
H32 C26 1.083 1_555 1_555
H33 C27 1.082 1_555 1_555
H34 C28 1.078 1_555 1_555
H35 C29 1.084 1_555 1_555
H36 C32 1.072 1_555 1_555
C13 C14 1.478 1_555 1_555
C15 C16 1.509 1_555 1_555
C29 C30 1.409 1_555 1_555
C30 C31 1.435 1_555 1_555
C31 C32 1.348 1_555 1_555
#END
