
#######################################################################
#
#                 Cambridge Crystallographic Data Centre
#                                CCDC
#
#######################################################################
#
# If this CIF has been generated from an entry in the Cambridge
# Structural Database, then it will include bibliographic, chemical,
# crystal, experimental, refinement or atomic coordinate data resulting
# from the CCDC's data processing and validation procedures.
#
#######################################################################

data_CSD_CIF_TAPRUZ
_audit_creation_date 2012-05-09
_audit_creation_method CSD-ConQuest-V1
_database_code_CSD TAPRUZ
_database_code_depnum_ccdc_archive 'CCDC 831274'
_chemical_formula_sum 'C62 H34'
_chemical_formula_moiety
;
C62 H34
;
_journal_coden_Cambridge 1220
_journal_volume 17
_journal_year 2011
_journal_page_first 14907
_journal_name_full 'Chem.-Eur.J. '
loop_
_publ_author_name
"Xiaobo Huang"
"Lintao Zeng"
"Zebing Zeng"
"Jishan Wu"
_chemical_name_systematic
;
7-(8-(Phenylethynyl)-1-naphthyl)-14-((8-(phenylethynyl)-1-naphthyl)ethynyl)nap
htho[1,2-k]fluoranthene
;
_cell_volume   4012.055
_exptl_crystal_colour 'yellow'
_exptl_crystal_density_diffrn 1.29
_exptl_crystal_description 'block'
_diffrn_ambient_temperature 100
#These two values have been output from a single CSD field.
_refine_ls_R_factor_gt 0.0695
_refine_ls_wR_factor_gt 0.0695
_symmetry_cell_setting monoclinic
_symmetry_space_group_name_H-M 'P 21/n'
_symmetry_Int_Tables_number 14
loop_
_symmetry_equiv_pos_site_id
_symmetry_equiv_pos_as_xyz
1 x,y,z
2 1/2-x,1/2+y,1/2-z
3 -x,-y,-z
4 -1/2+x,-1/2-y,-1/2+z
_cell_length_a 10.6144(10)
_cell_length_b 27.343(3)
_cell_length_c 14.4095(14)
_cell_angle_alpha 90
_cell_angle_beta 106.393(2)
_cell_angle_gamma 90
_cell_formula_units_Z 4
loop_
_atom_type_symbol
_atom_type_radius_bond
C 0.68
H 0.23
loop_
_atom_site_label
_atom_site_type_symbol
_atom_site_fract_x
_atom_site_fract_y
_atom_site_fract_z
C1 C 0.3208(2) 0.09049(8) 0.43883(17)
H1 H 0.29080 0.11520 0.47380
C2 C 0.3069(2) 0.04186(8) 0.45957(18)
H2 H 0.26780 0.03320 0.50900
C3 C 0.3495(2) 0.00577(8) 0.40870(17)
H3 H 0.33960 -0.02770 0.42310
C4 C 0.4068(2) 0.01828(8) 0.33657(17)
H4 H 0.43560 -0.00660 0.30140
C5 C 0.4219(2) 0.06680(8) 0.31587(16)
H5 H 0.46190 0.07520 0.26670
C6 C 0.3790(2) 0.10362(7) 0.36650(15)
C7 C 0.3919(2) 0.15439(8) 0.34400(16)
C8 C 0.3944(2) 0.19675(8) 0.32427(15)
C9 C 0.4185(2) 0.24728(8) 0.30498(15)
C10 C 0.5483(3) 0.26078(8) 0.32430(17)
H6 H 0.61460 0.23680 0.34700
C11 C 0.5854(3) 0.30890(9) 0.31138(19)
H7 H 0.67570 0.31730 0.32570
C12 C 0.4923(2) 0.34340(8) 0.27849(17)
H8 H 0.51820 0.37600 0.27010
C13 C 0.3577(2) 0.33201(7) 0.25641(15)
C14 C 0.3178(2) 0.28305(7) 0.26962(15)
C15 C 0.1801(2) 0.27324(8) 0.24609(16)
C16 C 0.0911(2) 0.31046(8) 0.21057(19)
H9 H -0.00020 0.30350 0.19480
C17 C 0.1318(3) 0.35816(8) 0.19710(18)
H10 H 0.06870 0.38290 0.17210
C18 C 0.2617(2) 0.36863(8) 0.21998(16)
H11 H 0.28900 0.40100 0.21150
C19 C 0.1272(2) 0.22604(8) 0.25861(17)
C20 C 0.0680(2) 0.19056(8) 0.27035(16)
C21 C 0.01014(19) 0.14429(7) 0.28336(14)
C22 C 0.04026(18) 0.10522(7) 0.23237(14)
C23 C 0.11826(19) 0.10235(7) 0.16143(14)
C24 C 0.1802(2) 0.13528(8) 0.11682(15)
H12 H 0.17980 0.16920 0.13080
C25 C 0.2447(2) 0.11766(8) 0.04968(17)
H13 H 0.28790 0.14040 0.01930
C26 C 0.2473(2) 0.06890(8) 0.02674(16)
H14 H 0.29210 0.05850 -0.01830
C27 C 0.18302(19) 0.03411(7) 0.07054(14)
C28 C 0.1707(2) -0.01688(7) 0.05185(15)
H15 H 0.21250 -0.03140 0.00840
C29 C 0.0984(2) -0.04526(7) 0.09645(15)
H16 H 0.09130 -0.07930 0.08300
C30 C 0.03356(19) -0.02545(7) 0.16217(14)
H17 H -0.01750 -0.04580 0.19100
C31 C 0.04634(18) 0.02329(7) 0.18277(13)
C32 C 0.12020(18) 0.05267(7) 0.13637(14)
C33 C -0.00602(18) 0.05698(7) 0.24319(14)
C34 C -0.08796(18) 0.04898(7) 0.29975(13)
C35 C -0.12377(18) 0.08930(7) 0.35028(13)
C36 C -0.07263(19) 0.13728(7) 0.34557(14)
C37 C -0.10887(19) 0.17600(7) 0.40344(14)
C38 C -0.1982(2) 0.16522(7) 0.45868(14)
C39 C -0.2533(2) 0.11764(7) 0.45495(15)
H18 H -0.31710 0.11130 0.48820
C40 C -0.21619(19) 0.08134(7) 0.40478(14)
H19 H -0.25230 0.04960 0.40560
C41 C -0.0608(2) 0.22417(8) 0.40984(17)
H20 H -0.00320 0.23320 0.37280
C42 C -0.0948(3) 0.25880(8) 0.46847(18)
H21 H -0.06010 0.29100 0.47110
C43 C -0.1789(2) 0.24727(8) 0.52337(17)
H22 H -0.19980 0.27100 0.56490
C44 C -0.2315(2) 0.20127(8) 0.51690(15)
H23 H -0.29180 0.19360 0.55260
C45 C -0.13536(18) -0.00178(7) 0.31111(13)
C46 C -0.05389(19) -0.03100(7) 0.38085(14)
H24 H 0.02560 -0.01760 0.42060
C47 C -0.0844(2) -0.07976(7) 0.39498(15)
H25 H -0.02700 -0.09880 0.44430
C48 C -0.1972(2) -0.09973(7) 0.33738(15)
H26 H -0.21760 -0.13290 0.34670
C49 C -0.28465(19) -0.07191(7) 0.26388(14)
C50 C -0.25581(18) -0.02160(7) 0.25066(13)
C51 C -0.4002(2) -0.09342(8) 0.20369(16)
H27 H -0.41590 -0.12730 0.21040
C52 C -0.4891(2) -0.06676(8) 0.13645(16)
H28 H -0.56720 -0.08170 0.09780
C53 C -0.4649(2) -0.01736(8) 0.12459(15)
H29 H -0.52910 0.00120 0.07890
C54 C -0.35087(19) 0.00548(7) 0.17699(14)
C55 C -0.33184(19) 0.05566(8) 0.15402(14)
C56 C -0.3206(2) 0.09690(7) 0.12976(14)
C57 C -0.2938(2) 0.14622(8) 0.10637(15)
C58 C -0.3328(3) 0.18585(9) 0.1524(2)
H30 H -0.38100 0.18050 0.19790
C59 C -0.3012(3) 0.23314(10) 0.1318(2)
H31 H -0.32690 0.26010 0.16390
C60 C -0.2326(3) 0.24116(10) 0.0650(2)
H32 H -0.21290 0.27360 0.05000
C61 C -0.1929(3) 0.20232(10) 0.02026(18)
H33 H -0.14400 0.20790 -0.02470
C62 C -0.2237(3) 0.15502(9) 0.04030(17)
H34 H -0.19640 0.12830 0.00840
loop_
_geom_bond_atom_site_label_1
_geom_bond_atom_site_label_2
_geom_bond_distance
_geom_bond_site_symmetry_1
_geom_bond_site_symmetry_2
C1 H1 0.950 1_555 1_555
C2 C1 1.380 1_555 1_555
H2 C2 0.950 1_555 1_555
C3 C2 1.379 1_555 1_555
H3 C3 0.951 1_555 1_555
C4 C3 1.387 1_555 1_555
H4 C4 0.949 1_555 1_555
C5 C4 1.379 1_555 1_555
H5 C5 0.951 1_555 1_555
C6 C1 1.400 1_555 1_555
C7 C6 1.441 1_555 1_555
C8 C7 1.195 1_555 1_555
C9 C8 1.446 1_555 1_555
C10 C9 1.377 1_555 1_555
H6 C10 0.950 1_555 1_555
C11 C10 1.401 1_555 1_555
H7 C11 0.950 1_555 1_555
C12 C11 1.352 1_555 1_555
H8 C12 0.951 1_555 1_555
C13 C12 1.408 1_555 1_555
C14 C9 1.432 1_555 1_555
C15 C14 1.430 1_555 1_555
C16 C15 1.385 1_555 1_555
H9 C16 0.950 1_555 1_555
C17 C16 1.405 1_555 1_555
H10 C17 0.949 1_555 1_555
C18 C13 1.419 1_555 1_555
H11 C18 0.950 1_555 1_555
C19 C15 1.439 1_555 1_555
C20 C19 1.194 1_555 1_555
C21 C20 1.442 1_555 1_555
C22 C21 1.384 1_555 1_555
C23 C22 1.488 1_555 1_555
C24 C23 1.376 1_555 1_555
H12 C24 0.949 1_555 1_555
C25 C24 1.418 1_555 1_555
H13 C25 0.950 1_555 1_555
C26 C25 1.376 1_555 1_555
H14 C26 0.950 1_555 1_555
C27 C26 1.418 1_555 1_555
C28 C27 1.419 1_555 1_555
H15 C28 0.950 1_555 1_555
C29 C28 1.372 1_555 1_555
H16 C29 0.949 1_555 1_555
C30 C29 1.425 1_555 1_555
H17 C30 0.950 1_555 1_555
C31 C30 1.364 1_555 1_555
C32 C23 1.407 1_555 1_555
C33 C22 1.431 1_555 1_555
C34 C33 1.367 1_555 1_555
C35 C34 1.430 1_555 1_555
C36 C21 1.434 1_555 1_555
C37 C36 1.465 1_555 1_555
C38 C37 1.430 1_555 1_555
C39 C38 1.421 1_555 1_555
H18 C39 0.949 1_555 1_555
C40 C35 1.436 1_555 1_555
H19 C40 0.950 1_555 1_555
C41 C37 1.406 1_555 1_555
H20 C41 0.951 1_555 1_555
C42 C41 1.383 1_555 1_555
H21 C42 0.951 1_555 1_555
C43 C42 1.386 1_555 1_555
H22 C43 0.950 1_555 1_555
C44 C38 1.403 1_555 1_555
H23 C44 0.951 1_555 1_555
C45 C34 1.501 1_555 1_555
C46 C45 1.380 1_555 1_555
H24 C46 0.949 1_555 1_555
C47 C46 1.400 1_555 1_555
H25 C47 0.950 1_555 1_555
C48 C47 1.364 1_555 1_555
H26 C48 0.951 1_555 1_555
C49 C48 1.417 1_555 1_555
C50 C45 1.435 1_555 1_555
C51 C49 1.415 1_555 1_555
H27 C51 0.951 1_555 1_555
C52 C51 1.358 1_555 1_555
H28 C52 0.951 1_555 1_555
C53 C52 1.394 1_555 1_555
H29 C53 0.950 1_555 1_555
C54 C50 1.445 1_555 1_555
C55 C54 1.439 1_555 1_555
C56 C55 1.196 1_555 1_555
C57 C56 1.438 1_555 1_555
C58 C57 1.393 1_555 1_555
H30 C58 0.950 1_555 1_555
C59 C58 1.389 1_555 1_555
H31 C59 0.950 1_555 1_555
C60 C59 1.379 1_555 1_555
H32 C60 0.950 1_555 1_555
C61 C60 1.369 1_555 1_555
H33 C61 0.950 1_555 1_555
C62 C57 1.385 1_555 1_555
H34 C62 0.951 1_555 1_555
C5 C6 1.393 1_555 1_555
C13 C14 1.433 1_555 1_555
C17 C18 1.355 1_555 1_555
C27 C32 1.400 1_555 1_555
C31 C32 1.415 1_555 1_555
C31 C33 1.479 1_555 1_555
C35 C36 1.429 1_555 1_555
C39 C40 1.350 1_555 1_555
C43 C44 1.369 1_555 1_555
C49 C50 1.434 1_555 1_555
C53 C54 1.382 1_555 1_555
C61 C62 1.384 1_555 1_555
#END
