
#######################################################################
#
#                 Cambridge Crystallographic Data Centre
#                                CCDC
#
#######################################################################
#
# If this CIF has been generated from an entry in the Cambridge
# Structural Database, then it will include bibliographic, chemical,
# crystal, experimental, refinement or atomic coordinate data resulting
# from the CCDC's data processing and validation procedures.
#
#######################################################################

data_CSD_CIF_TAPREJ
_audit_creation_date 2012-05-09
_audit_creation_method CSD-ConQuest-V1
_database_code_CSD TAPREJ
_database_code_depnum_ccdc_archive 'CCDC 831271'
_chemical_formula_sum 'C40 H22'
_chemical_formula_moiety
;
C40 H22
;
_journal_coden_Cambridge 1220
_journal_volume 17
_journal_year 2011
_journal_page_first 14907
_journal_name_full 'Chem.-Eur.J. '
loop_
_publ_author_name
"Xiaobo Huang"
"Lintao Zeng"
"Zebing Zeng"
"Jishan Wu"
_chemical_name_systematic
;
1,4-bis(8-(phenylethynyl)naphthalen-1-yl)buta-1,3-diyne
;
_cell_volume   5292.939
_exptl_crystal_colour 'orange'
_exptl_crystal_density_diffrn 1.261
_exptl_crystal_description 'block'
_diffrn_ambient_temperature 100
#These two values have been output from a single CSD field.
_refine_ls_R_factor_gt 0.0462
_refine_ls_wR_factor_gt 0.0462
_symmetry_cell_setting monoclinic
_symmetry_space_group_name_H-M 'C 2/c'
_symmetry_Int_Tables_number 15
loop_
_symmetry_equiv_pos_site_id
_symmetry_equiv_pos_as_xyz
1 x,y,z
2 -x,y,1/2-z
3 1/2+x,1/2+y,z
4 1/2-x,1/2+y,1/2-z
5 -x,-y,-z
6 x,-y,-1/2+z
7 -1/2-x,-1/2-y,-z
8 -1/2+x,-1/2-y,-1/2+z
_cell_length_a 27.253(3)
_cell_length_b 12.1238(13)
_cell_length_c 18.2854(19)
_cell_angle_alpha 90
_cell_angle_beta 118.828(3)
_cell_angle_gamma 90
_cell_formula_units_Z 8
loop_
_atom_type_symbol
_atom_type_radius_bond
C 0.68
H 0.23
loop_
_atom_site_label
_atom_site_type_symbol
_atom_site_fract_x
_atom_site_fract_y
_atom_site_fract_z
C1 C 0.36458(7) 1.10376(13) 0.49108(9)
H1 H 0.34410 1.10850 0.43190
C2 C 0.36061(8) 1.18779(13) 0.53908(11)
H2 H 0.33730 1.24960 0.51280
C3 C 0.39040(7) 1.18209(14) 0.62488(11)
H3 H 0.38800 1.24040 0.65770
C4 C 0.42367(6) 1.09204(15) 0.66321(10)
H4 H 0.44400 1.08830 0.72240
C5 C 0.42779(6) 1.00666(13) 0.61604(9)
H5 H 0.45060 0.94440 0.64290
C6 C 0.39829(5) 1.01227(12) 0.52865(8)
C7 C 0.40262(5) 0.92484(12) 0.47888(8)
C8 C 0.40432(5) 0.85172(11) 0.43579(8)
C9 C 0.41202(5) 0.76814(11) 0.38642(8)
C10 C 0.46425(6) 0.76145(12) 0.39078(8)
H6 H 0.49320 0.80990 0.42700
C11 C 0.47527(6) 0.68502(13) 0.34299(9)
H7 H 0.51160 0.68090 0.34820
C12 C 0.43407(6) 0.61693(12) 0.28930(8)
H8 H 0.44180 0.56590 0.25680
C13 C 0.37952(6) 0.62095(11) 0.28113(8)
C14 C 0.33660(6) 0.55294(12) 0.22218(8)
H9 H 0.34440 0.50520 0.18790
C15 C 0.28415(6) 0.55479(11) 0.21374(8)
H10 H 0.25540 0.50980 0.17300
C16 C 0.27278(6) 0.62316(10) 0.26534(8)
H11 H 0.23640 0.62210 0.26020
C17 C 0.31297(5) 0.69228(10) 0.32359(7)
C18 C 0.36830(5) 0.69507(10) 0.33190(7)
C19 C 0.29602(5) 0.75708(10) 0.37298(7)
C20 C 0.27509(5) 0.80450(11) 0.40910(7)
C21 C 0.25488(5) 0.8648(1) 0.45221(7)
C22 C 0.23603(5) 0.91902(10) 0.48810(7)
C23 C 0.22591(5) 0.99113(10) 0.54148(7)
C24 C 0.27270(5) 1.04430(11) 0.60249(8)
H12 H 0.30800 1.03140 0.60560
C25 C 0.26954(6) 1.11650(11) 0.65970(8)
H13 H 0.30220 1.15300 0.70030
C26 C 0.21907(5) 1.13407(11) 0.65668(8)
H14 H 0.21710 1.18160 0.69650
C27 C 0.16980(5) 1.08269(10) 0.59534(7)
C28 C 0.11802(5) 1.10566(11) 0.59265(8)
H15 H 0.11700 1.15330 0.63310
C29 C 0.06976(5) 1.06000(12) 0.53260(8)
H16 H 0.03510 1.07660 0.53080
C30 C 0.07115(5) 0.98848(11) 0.47346(8)
H17 H 0.03710 0.95690 0.43210
C31 C 0.12061(5) 0.96244(10) 0.47351(7)
C32 C 0.17216(5) 1.00988(10) 0.53562(7)
C33 C 0.11626(5) 0.88979(10) 0.40857(7)
C34 C 0.10565(5) 0.83130(11) 0.34977(7)
C35 C 0.09274(5) 0.76334(11) 0.27832(7)
C36 C 0.12817(6) 0.67803(11) 0.28205(8)
H18 H 0.16250 0.66620 0.33170
C37 C 0.11335(6) 0.61034(12) 0.21330(9)
H19 H 0.13750 0.55200 0.21640
C38 C 0.06356(6) 0.62726(12) 0.14021(8)
H20 H 0.05340 0.58020 0.09350
C39 C 0.02867(6) 0.71309(12) 0.13559(8)
H21 H -0.00530 0.72550 0.08540
C40 C 0.04301(5) 0.78058(11) 0.20363(8)
H22 H 0.01890 0.83950 0.19980
loop_
_geom_bond_atom_site_label_1
_geom_bond_atom_site_label_2
_geom_bond_distance
_geom_bond_site_symmetry_1
_geom_bond_site_symmetry_2
C1 H1 0.950 1_555 1_555
C2 C1 1.383 1_555 1_555
H2 C2 0.950 1_555 1_555
C3 C2 1.377 1_555 1_555
H3 C3 0.950 1_555 1_555
C4 C3 1.376 1_555 1_555
H4 C4 0.950 1_555 1_555
C5 C4 1.386 1_555 1_555
H5 C5 0.950 1_555 1_555
C6 C1 1.392 1_555 1_555
C7 C6 1.438 1_555 1_555
C8 C7 1.202 1_555 1_555
C9 C8 1.438 1_555 1_555
C10 C9 1.389 1_555 1_555
H6 C10 0.950 1_555 1_555
C11 C10 1.402 1_555 1_555
H7 C11 0.949 1_555 1_555
C12 C11 1.358 1_555 1_555
H8 C12 0.949 1_555 1_555
C13 C12 1.421 1_555 1_555
C14 C13 1.412 1_555 1_555
H9 C14 0.950 1_555 1_555
C15 C14 1.362 1_555 1_555
H10 C15 0.951 1_555 1_555
C16 C15 1.398 1_555 1_555
H11 C16 0.950 1_555 1_555
C17 C16 1.383 1_555 1_555
C18 C9 1.433 1_555 1_555
C19 C17 1.431 1_555 1_555
C20 C19 1.206 1_555 1_555
C21 C20 1.370 1_555 1_555
C22 C21 1.205 1_555 1_555
C23 C22 1.433 1_555 1_555
C24 C23 1.384 1_555 1_555
H12 C24 0.949 1_555 1_555
C25 C24 1.398 1_555 1_555
H13 C25 0.950 1_555 1_555
C26 C25 1.366 1_555 1_555
H14 C26 0.950 1_555 1_555
C27 C26 1.413 1_555 1_555
C28 C27 1.416 1_555 1_555
H15 C28 0.949 1_555 1_555
C29 C28 1.360 1_555 1_555
H16 C29 0.951 1_555 1_555
C30 C29 1.401 1_555 1_555
H17 C30 0.950 1_555 1_555
C31 C30 1.384 1_555 1_555
C32 C23 1.434 1_555 1_555
C33 C31 1.437 1_555 1_555
C34 C33 1.201 1_555 1_555
C35 C34 1.437 1_555 1_555
C36 C35 1.394 1_555 1_555
H18 C36 0.949 1_555 1_555
C37 C36 1.388 1_555 1_555
H19 C37 0.949 1_555 1_555
C38 C37 1.386 1_555 1_555
H20 C38 0.951 1_555 1_555
C39 C38 1.384 1_555 1_555
H21 C39 0.950 1_555 1_555
C40 C35 1.400 1_555 1_555
H22 C40 0.950 1_555 1_555
C5 C6 1.402 1_555 1_555
C13 C18 1.427 1_555 1_555
C17 C18 1.441 1_555 1_555
C27 C32 1.430 1_555 1_555
C31 C32 1.434 1_555 1_555
C39 C40 1.379 1_555 1_555
#END
