
#######################################################################
#
#                 Cambridge Crystallographic Data Centre
#                                CCDC
#
#######################################################################
#
# If this CIF has been generated from an entry in the Cambridge
# Structural Database, then it will include bibliographic, chemical,
# crystal, experimental, refinement or atomic coordinate data resulting
# from the CCDC's data processing and validation procedures.
#
#######################################################################

data_CSD_CIF_TAPRAF
_audit_creation_date 2012-05-09
_audit_creation_method CSD-ConQuest-V1
_database_code_CSD TAPRAF
_database_code_depnum_ccdc_archive 'CCDC 831270'
_chemical_formula_sum 'C50 H28'
_chemical_formula_moiety
;
C50 H28
;
_journal_coden_Cambridge 1220
_journal_volume 17
_journal_year 2011
_journal_page_first 14907
_journal_name_full 'Chem.-Eur.J. '
loop_
_publ_author_name
"Xiaobo Huang"
"Lintao Zeng"
"Zebing Zeng"
"Jishan Wu"
_chemical_name_systematic
;
13-Benzylidene-6-(8-(phenylethynyl)-1-naphthyl)-13H-acenaphtho[1,8-jk]fluorant
hene
;
_cell_volume   3206.821
_exptl_crystal_colour 'yellow'
_exptl_crystal_density_diffrn 1.302
_exptl_crystal_description 'block'
_diffrn_ambient_temperature 100
#These two values have been output from a single CSD field.
_refine_ls_R_factor_gt 0.0504
_refine_ls_wR_factor_gt 0.0504
_symmetry_cell_setting monoclinic
_symmetry_space_group_name_H-M 'P 21/n'
_symmetry_Int_Tables_number 14
loop_
_symmetry_equiv_pos_site_id
_symmetry_equiv_pos_as_xyz
1 x,y,z
2 1/2-x,1/2+y,1/2-z
3 -x,-y,-z
4 -1/2+x,-1/2-y,-1/2+z
_cell_length_a 10.8735(9)
_cell_length_b 21.800(2)
_cell_length_c 13.6272(12)
_cell_angle_alpha 90
_cell_angle_beta 96.901(3)
_cell_angle_gamma 90
_cell_formula_units_Z 4
loop_
_atom_type_symbol
_atom_type_radius_bond
C 0.68
H 0.23
loop_
_atom_site_label
_atom_site_type_symbol
_atom_site_fract_x
_atom_site_fract_y
_atom_site_fract_z
C1 C 0.90469(14) -0.03285(7) 0.79186(12)
H1 H 0.95610 -0.00400 0.82960
C2 C 0.95750(16) -0.07572(8) 0.73475(13)
H2 H 1.04470 -0.07610 0.73360
C3 C 0.88397(16) -0.11797(8) 0.67935(12)
H3 H 0.92060 -0.14790 0.64130
C4 C 0.75690(16) -0.11635(8) 0.67961(12)
H4 H 0.70600 -0.14470 0.64040
C5 C 0.70343(15) -0.07375(7) 0.73654(11)
H5 H 0.61600 -0.07320 0.73630
C6 C 0.77686(14) -0.03144(7) 0.79455(11)
C7 C 0.72224(14) 0.00997(7) 0.86235(11)
H6 H 0.76680 0.01400 0.92640
C8 C 0.61710(13) 0.04294(7) 0.84547(11)
C9 C 0.54558(13) 0.06072(7) 0.74827(11)
C10 C 0.54177(14) 0.04357(7) 0.64996(11)
H7 H 0.58900 0.00970 0.63150
C11 C 0.46607(14) 0.07750(8) 0.57785(11)
H8 H 0.46450 0.06580 0.51060
C12 C 0.39411(14) 0.12683(8) 0.59982(11)
H9 H 0.34480 0.14810 0.54840
C13 C 0.39442(13) 0.14536(7) 0.69911(11)
C14 C 0.47090(13) 0.11092(7) 0.76827(11)
C15 C 0.48345(13) 0.12373(7) 0.87003(10)
C16 C 0.41682(13) 0.17044(7) 0.90900(11)
C17 C 0.33673(14) 0.20580(7) 0.83876(11)
H10 H 0.28950 0.23820 0.86210
C18 C 0.32633(14) 0.19431(7) 0.73918(11)
H11 H 0.27300 0.21920 0.69550
C19 C 0.56718(13) 0.08229(7) 0.92171(11)
C20 C 0.58153(13) 0.08726(7) 1.02383(11)
C21 C 0.51939(13) 0.13786(7) 1.06727(10)
C22 C 0.43820(13) 0.17802(7) 1.01361(11)
C23 C 0.56050(13) 0.13751(7) 1.17487(11)
C24 C 0.54190(14) 0.17504(8) 1.25269(11)
H12 H 0.49390 0.21140 1.24200
C25 C 0.59548(14) 0.15867(8) 1.34929(11)
H13 H 0.58330 0.18490 1.40300
C26 C 0.66432(14) 0.10619(8) 1.36761(11)
H14 H 0.69750 0.09630 1.43340
C27 C 0.68601(13) 0.06672(7) 1.28893(11)
C28 C 0.63557(13) 0.08493(7) 1.19381(11)
C29 C 0.64958(13) 0.05183(7) 1.10609(11)
C30 C 0.71311(13) -0.00296(7) 1.11567(11)
H15 H 0.72330 -0.02700 1.05900
C31 C 0.76318(14) -0.02310(7) 1.21129(11)
H16 H 0.80620 -0.06110 1.21740
C32 C 0.75185(14) 0.01019(8) 1.29513(11)
H17 H 0.78810 -0.00460 1.35760
C33 C 0.36538(13) 0.22547(7) 1.06103(11)
C34 C 0.25265(14) 0.20703(8) 1.08768(11)
H18 H 0.22920 0.16520 1.07980
C35 C 0.17158(15) 0.24819(8) 1.12599(12)
H19 H 0.09440 0.23420 1.14350
C36 C 0.20406(14) 0.30824(8) 1.13794(12)
H20 H 0.14880 0.33610 1.16370
C37 C 0.31902(14) 0.32988(8) 1.11257(11)
C38 C 0.40260(13) 0.28784(7) 1.07372(10)
C39 C 0.35183(15) 0.39227(8) 1.12699(12)
H21 H 0.29590 0.41960 1.15300
C40 C 0.46285(15) 0.41373(8) 1.10406(13)
H22 H 0.48340 0.45590 1.11320
C41 C 0.54659(15) 0.37337(8) 1.06697(12)
H23 H 0.62400 0.38870 1.05200
C42 C 0.51959(14) 0.31198(7) 1.05156(11)
C43 C 0.61391(14) 0.27395(7) 1.01679(11)
C44 C 0.69951(14) 0.24612(7) 0.99086(11)
C45 C 0.80176(13) 0.20897(7) 0.96793(11)
C46 C 0.85431(15) 0.16609(8) 1.03678(12)
H24 H 0.82290 0.16190 1.09860
C47 C 0.95176(15) 0.12965(9) 1.01551(13)
H25 H 0.98600 0.10010 1.06220
C48 C 0.99971(15) 0.13605(8) 0.92636(12)
H26 H 1.06780 0.11150 0.91260
C49 C 0.94851(15) 0.17801(8) 0.85766(12)
H27 H 0.98090 0.18220 0.79630
C50 C 0.84986(15) 0.21416(8) 0.87791(12)
H28 H 0.81460 0.24280 0.83000
loop_
_geom_bond_atom_site_label_1
_geom_bond_atom_site_label_2
_geom_bond_distance
_geom_bond_site_symmetry_1
_geom_bond_site_symmetry_2
C1 H1 0.950 1_555 1_555
C2 C1 1.384 1_555 1_555
H2 C2 0.950 1_555 1_555
C3 C2 1.383 1_555 1_555
H3 C3 0.950 1_555 1_555
C4 C3 1.383 1_555 1_555
H4 C4 0.950 1_555 1_555
C5 C4 1.382 1_555 1_555
H5 C5 0.950 1_555 1_555
C6 C1 1.395 1_555 1_555
C7 C6 1.467 1_555 1_555
H6 C7 0.950 1_555 1_555
C8 C7 1.347 1_555 1_555
C9 C8 1.504 1_555 1_555
C10 C9 1.387 1_555 1_555
H7 C10 0.950 1_555 1_555
C11 C10 1.413 1_555 1_555
H8 C11 0.949 1_555 1_555
C12 C11 1.384 1_555 1_555
H9 C12 0.950 1_555 1_555
C13 C12 1.412 1_555 1_555
C14 C9 1.409 1_555 1_555
C15 C14 1.405 1_555 1_555
C16 C15 1.391 1_555 1_555
C17 C16 1.438 1_555 1_555
H10 C17 0.950 1_555 1_555
C18 C13 1.443 1_555 1_555
H11 C18 0.950 1_555 1_555
C19 C8 1.498 1_555 1_555
C20 C19 1.386 1_555 1_555
C21 C20 1.456 1_555 1_555
C22 C16 1.426 1_555 1_555
C23 C21 1.481 1_555 1_555
C24 C23 1.373 1_555 1_555
H12 C24 0.951 1_555 1_555
C25 C24 1.420 1_555 1_555
H13 C25 0.951 1_555 1_555
C26 C25 1.374 1_555 1_555
H14 C26 0.950 1_555 1_555
C27 C26 1.416 1_555 1_555
C28 C23 1.413 1_555 1_555
C29 C20 1.484 1_555 1_555
C30 C29 1.378 1_555 1_555
H15 C30 0.951 1_555 1_555
C31 C30 1.420 1_555 1_555
H16 C31 0.950 1_555 1_555
C32 C27 1.423 1_555 1_555
H17 C32 0.950 1_555 1_555
C33 C22 1.496 1_555 1_555
C34 C33 1.379 1_555 1_555
H18 C34 0.949 1_555 1_555
C35 C34 1.402 1_555 1_555
H19 C35 0.950 1_555 1_555
C36 C35 1.361 1_555 1_555
H20 C36 0.951 1_555 1_555
C37 C36 1.417 1_555 1_555
C38 C33 1.423 1_555 1_555
C39 C37 1.414 1_555 1_555
H21 C39 0.950 1_555 1_555
C40 C39 1.365 1_555 1_555
H22 C40 0.951 1_555 1_555
C41 C40 1.403 1_555 1_555
H23 C41 0.950 1_555 1_555
C42 C38 1.442 1_555 1_555
C43 C42 1.442 1_555 1_555
C44 C43 1.199 1_555 1_555
C45 C44 1.440 1_555 1_555
C46 C45 1.397 1_555 1_555
H24 C46 0.951 1_555 1_555
C47 C46 1.383 1_555 1_555
H25 C47 0.949 1_555 1_555
C48 C47 1.385 1_555 1_555
H26 C48 0.950 1_555 1_555
C49 C48 1.378 1_555 1_555
H27 C49 0.950 1_555 1_555
C50 C45 1.395 1_555 1_555
H28 C50 0.950 1_555 1_555
C5 C6 1.401 1_555 1_555
C13 C14 1.398 1_555 1_555
C15 C19 1.410 1_555 1_555
C17 C18 1.371 1_555 1_555
C21 C22 1.388 1_555 1_555
C27 C28 1.403 1_555 1_555
C28 C29 1.420 1_555 1_555
C31 C32 1.371 1_555 1_555
C37 C38 1.436 1_555 1_555
C41 C42 1.381 1_555 1_555
C49 C50 1.385 1_555 1_555
#END
