
#######################################################################
#
#                 Cambridge Crystallographic Data Centre
#                                CCDC
#
#######################################################################
#
# If this CIF has been generated from an entry in the Cambridge
# Structural Database, then it will include bibliographic, chemical,
# crystal, experimental, refinement or atomic coordinate data resulting
# from the CCDC's data processing and validation procedures.
#
#######################################################################

data_CSD_CIF_TAPSAG
_audit_creation_date 2012-05-09
_audit_creation_method CSD-ConQuest-V1
_database_code_CSD TAPSAG
_database_code_depnum_ccdc_archive 'CCDC 831275'
_chemical_formula_sum 'C38 H22'
_chemical_formula_moiety
;
C38 H22
;
_journal_coden_Cambridge 1220
_journal_volume 17
_journal_year 2011
_journal_page_first 14907
_journal_name_full 'Chem.-Eur.J. '
loop_
_publ_author_name
"Xiaobo Huang"
"Lintao Zeng"
"Zebing Zeng"
"Jishan Wu"
_chemical_name_systematic
;
7-(8-(Phenylethynyl)-1-naphthyl)benzo[k]fluoranthene
;
_cell_volume   2492.977
_exptl_crystal_colour 'yellow'
_exptl_crystal_density_diffrn 1.275
_exptl_crystal_description 'block'
_diffrn_ambient_temperature 100
#These two values have been output from a single CSD field.
_refine_ls_R_factor_gt 0.0672
_refine_ls_wR_factor_gt 0.0672
_symmetry_cell_setting monoclinic
_symmetry_space_group_name_H-M 'P 21/c'
_symmetry_Int_Tables_number 14
loop_
_symmetry_equiv_pos_site_id
_symmetry_equiv_pos_as_xyz
1 x,y,z
2 -x,1/2+y,1/2-z
3 -x,-y,-z
4 x,-1/2-y,-1/2+z
_cell_length_a 15.5297(13)
_cell_length_b 15.5775(14)
_cell_length_c 10.6412(10)
_cell_angle_alpha 90
_cell_angle_beta 104.436(2)
_cell_angle_gamma 90
_cell_formula_units_Z 4
loop_
_atom_type_symbol
_atom_type_radius_bond
C 0.68
H 0.23
loop_
_atom_site_label
_atom_site_type_symbol
_atom_site_fract_x
_atom_site_fract_y
_atom_site_fract_z
C1 C 0.35468(14) 0.54743(13) 0.5342(2)
C2 C 0.31530(14) 0.49107(14) 0.4343(2)
H1 H 0.26740 0.45550 0.44280
C3 C 0.34592(16) 0.48689(16) 0.3230(2)
H2 H 0.31870 0.44850 0.25530
C4 C 0.41581(16) 0.53808(17) 0.3094(2)
H3 H 0.43630 0.53510 0.23250
C5 C 0.45560(16) 0.59360(15) 0.4079(2)
H4 H 0.50400 0.62840 0.39920
C6 C 0.42527(15) 0.59869(14) 0.5191(2)
H5 H 0.45270 0.63740 0.58610
C7 C 0.32210(13) 0.55787(13) 0.6482(2)
C8 C 0.29380(13) 0.57259(13) 0.7415(2)
C9 C 0.25761(13) 0.60892(12) 0.84124(19)
C10 C 0.26317(14) 0.69797(13) 0.8516(2)
H6 H 0.29310 0.72880 0.79810
C11 C 0.22576(14) 0.74343(13) 0.9390(2)
H7 H 0.23050 0.80420 0.94440
C12 C 0.18271(14) 0.69995(13) 1.0157(2)
H8 H 0.15660 0.73100 1.07360
C13 C 0.17593(14) 0.60908(13) 1.0113(2)
C14 C 0.13050(15) 0.56625(14) 1.0924(2)
H9 H 0.10380 0.59860 1.14840
C15 C 0.12455(15) 0.47888(14) 1.0912(2)
H10 H 0.09400 0.45040 1.14620
C16 C 0.16384(14) 0.43122(14) 1.0084(2)
H11 H 0.16050 0.37030 1.00970
C17 C 0.20696(13) 0.46968(13) 0.92544(19)
C18 C 0.21466(13) 0.56123(13) 0.92393(19)
C19 C 0.24376(13) 0.41377(12) 0.83679(19)
C20 C 0.33470(14) 0.38491(12) 0.8734(2)
C21 C 0.39261(14) 0.40893(13) 0.9932(2)
H12 H 0.37150 0.44550 1.05050
C22 C 0.47905(15) 0.38006(15) 1.0277(2)
H13 H 0.51730 0.39730 1.10800
C23 C 0.51098(15) 0.32522(15) 0.9446(2)
H14 H 0.57050 0.30500 0.96940
C24 C 0.45637(14) 0.30085(14) 0.8278(2)
H15 H 0.47850 0.26330 0.77280
C25 C 0.36775(14) 0.33054(13) 0.7878(2)
C26 C 0.31204(14) 0.30884(12) 0.6642(2)
H16 H 0.33450 0.27480 0.60540
C27 C 0.22639(13) 0.33716(12) 0.6306(2)
C28 C 0.15483(14) 0.32584(12) 0.5107(2)
C29 C 0.15060(15) 0.29285(12) 0.3898(2)
H17 H 0.20210 0.26980 0.36930
C30 C 0.06772(15) 0.29392(13) 0.2959(2)
H18 H 0.06440 0.27100 0.21210
C31 C -0.00811(15) 0.32708(13) 0.3224(2)
H19 H -0.06270 0.32540 0.25780
C32 C -0.00525(14) 0.36380(12) 0.4455(2)
C33 C 0.07760(14) 0.36284(12) 0.5354(2)
C34 C -0.07529(14) 0.40380(13) 0.4874(2)
H20 H -0.13340 0.40550 0.43130
C35 C -0.05955(14) 0.44000(13) 0.6083(2)
H21 H -0.10770 0.46610 0.63400
C36 C 0.02544(13) 0.44018(12) 0.6968(2)
H22 H 0.03420 0.46660 0.77950
C37 C 0.09509(13) 0.40116(12) 0.6601(2)
C38 C 0.19037(13) 0.38689(12) 0.7205(2)
loop_
_geom_bond_atom_site_label_1
_geom_bond_atom_site_label_2
_geom_bond_distance
_geom_bond_site_symmetry_1
_geom_bond_site_symmetry_2
C1 C2 1.397 1_555 1_555
C2 H1 0.950 1_555 1_555
C3 C2 1.383 1_555 1_555
H2 C3 0.951 1_555 1_555
C4 C3 1.383 1_555 1_555
H3 C4 0.950 1_555 1_555
C5 C4 1.380 1_555 1_555
H4 C5 0.950 1_555 1_555
C6 C1 1.397 1_555 1_555
H5 C6 0.950 1_555 1_555
C7 C1 1.435 1_555 1_555
C8 C7 1.204 1_555 1_555
C9 C8 1.435 1_555 1_555
C10 C9 1.393 1_555 1_555
H6 C10 0.950 1_555 1_555
C11 C10 1.405 1_555 1_555
H7 C11 0.950 1_555 1_555
C12 C11 1.358 1_555 1_555
H8 C12 0.950 1_555 1_555
C13 C12 1.419 1_555 1_555
C14 C13 1.411 1_555 1_555
H9 C14 0.951 1_555 1_555
C15 C14 1.364 1_555 1_555
H10 C15 0.950 1_555 1_555
C16 C15 1.403 1_555 1_555
H11 C16 0.951 1_555 1_555
C17 C16 1.372 1_555 1_555
C18 C9 1.437 1_555 1_555
C19 C17 1.498 1_555 1_555
C20 C19 1.440 1_555 1_555
C21 C20 1.415 1_555 1_555
H12 C21 0.950 1_555 1_555
C22 C21 1.376 1_555 1_555
H13 C22 0.950 1_555 1_555
C23 C22 1.406 1_555 1_555
H14 C23 0.950 1_555 1_555
C24 C23 1.372 1_555 1_555
H15 C24 0.950 1_555 1_555
C25 C20 1.430 1_555 1_555
C26 C25 1.423 1_555 1_555
H16 C26 0.950 1_555 1_555
C27 C26 1.362 1_555 1_555
C28 C27 1.479 1_555 1_555
C29 C28 1.372 1_555 1_555
H17 C29 0.950 1_555 1_555
C30 C29 1.419 1_555 1_555
H18 C30 0.950 1_555 1_555
C31 C30 1.378 1_555 1_555
H19 C31 0.949 1_555 1_555
C32 C31 1.420 1_555 1_555
C33 C28 1.413 1_555 1_555
C34 C32 1.418 1_555 1_555
H20 C34 0.950 1_555 1_555
C35 C34 1.370 1_555 1_555
H21 C35 0.949 1_555 1_555
C36 C35 1.417 1_555 1_555
H22 C36 0.950 1_555 1_555
C37 C33 1.418 1_555 1_555
C38 C19 1.372 1_555 1_555
C5 C6 1.381 1_555 1_555
C13 C18 1.435 1_555 1_555
C17 C18 1.432 1_555 1_555
C24 C25 1.413 1_555 1_555
C27 C38 1.447 1_555 1_555
C32 C33 1.399 1_555 1_555
C36 C37 1.379 1_555 1_555
C37 C38 1.476 1_555 1_555
#END
