
#######################################################################
#
#                 Cambridge Crystallographic Data Centre
#                                CCDC
#
#######################################################################
#
# If this CIF has been generated from an entry in the Cambridge
# Structural Database, then it will include bibliographic, chemical,
# crystal, experimental, refinement or atomic coordinate data resulting
# from the CCDC's data processing and validation procedures.
#
#######################################################################

data_CSD_CIF_TAVHEE
_audit_creation_date 2005-12-15
_audit_creation_method CSD-ConQuest-V1
_database_code_CSD TAVHEE
_database_code_depnum_ccdc_archive 'CCDC 266603'
_chemical_formula_sum 'C21 H12'
_chemical_formula_moiety
;
C21 H12
;
_journal_coden_Cambridge 4
_journal_volume 127
_journal_year 2005
_journal_page_first 11580
_journal_name_full 'J.Am.Chem.Soc. '
loop_
_publ_author_name
"H.Sakurai"
"T.Daiko"
"H.Sakane"
"T.Amaya"
"T.Hirao"
_chemical_name_systematic
;
Sumanene
;
_chemical_melting_point 563.15
_cell_volume   1847.029
_exptl_crystal_colour 'colorless'
_exptl_special_details
;
Melts above 563.15K

;
_exptl_crystal_description 'prismatic'
_diffrn_ambient_temperature 277.2
#These two values have been output from a single CSD field.
_refine_ls_R_factor_gt 0.0334
_refine_ls_wR_factor_gt 0.0334
_symmetry_cell_setting rhombohedral
_symmetry_space_group_name_H-M 'R 3 c'
_symmetry_Int_Tables_number 161
loop_
_symmetry_equiv_pos_site_id
_symmetry_equiv_pos_as_xyz
1 x,y,z
2 -y,x-y,z
3 -y,-x,1/2+z
4 -x+y,-x,z
5 x,x-y,1/2+z
6 -x+y,y,1/2+z
7 1/3+x,2/3+y,2/3+z
8 1/3-y,2/3+x-y,2/3+z
9 1/3-y,2/3-x,1/6+z
10 1/3-x+y,2/3-x,2/3+z
11 1/3+x,2/3+x-y,1/6+z
12 1/3-x+y,2/3+y,1/6+z
13 2/3+x,1/3+y,1/3+z
14 2/3-y,1/3+x-y,1/3+z
15 2/3-y,1/3-x,5/6+z
16 2/3-x+y,1/3-x,1/3+z
17 2/3+x,1/3+x-y,5/6+z
18 2/3-x+y,1/3+y,5/6+z
_cell_length_a 16.6402(3)
_cell_length_b 16.6402(3)
_cell_length_c 7.7024(1)
_cell_angle_alpha 90
_cell_angle_beta 90
_cell_angle_gamma 120
_cell_formula_units_Z 6
loop_
_atom_type_symbol
_atom_type_radius_bond
C 0.68
H 0.23
loop_
_atom_site_label
_atom_site_type_symbol
_atom_site_fract_x
_atom_site_fract_y
_atom_site_fract_z
C1 C 0.2359(1) 0.6228(1) 0.2507(2)
C2 C 0.28786(9) 0.7189(1) 0.2510(2)
C3 C 0.2574(1) 0.7737(1) 0.3310(2)
C4 C 0.1666(1) 0.7270(1) 0.3948(3)
C5 C 0.1131(1) 0.6282(1) 0.3951(2)
C6 C 0.14960(9) 0.5748(1) 0.3309(3)
C7 C 0.3445(1) 0.8693(1) 0.3680(2)
H1 H 0.144(1) 0.758(1) 0.462(2)
H2 H 0.055(1) 0.601(2) 0.464(3)
H3 H 0.345(1) 0.890(1) 0.486(3)
H4 H 0.346(1) 0.921(1) 0.295(3)
C1C C 0.3869(1) 0.7641(1) 0.2507(2)
C2C C 0.43104(9) 0.71214(10) 0.2510(2)
C1A C 0.3772(1) 0.6131(1) 0.2507(2)
C2A C 0.28110(9) 0.56896(10) 0.2510(2)
C6C C 0.42520(9) 0.8504(1) 0.3309(3)
C5C C 0.5151(1) 0.8869(1) 0.3951(2)
C4C C 0.5604(1) 0.8334(1) 0.3948(3)
C3C C 0.5163(1) 0.7426(1) 0.3310(2)
C7C C 0.5248(1) 0.6555(1) 0.3680(2)
C6A C 0.42520(9) 0.5748(1) 0.3309(3)
C5A C 0.3718(1) 0.4849(1) 0.3951(2)
C4A C 0.2730(1) 0.4396(1) 0.3948(3)
C3A C 0.2263(1) 0.4837(1) 0.3310(2)
C7A C 0.1307(1) 0.4752(1) 0.3680(2)
H3A H 0.110(1) 0.455(1) 0.486(3)
H4A H 0.079(1) 0.425(1) 0.295(3)
H1A H 0.242(1) 0.386(1) 0.462(2)
H2A H 0.399(1) 0.454(2) 0.464(3)
H3C H 0.545(1) 0.655(1) 0.486(3)
H4C H 0.575(1) 0.654(1) 0.295(3)
H1C H 0.614(1) 0.856(1) 0.462(2)
H2C H 0.546(1) 0.945(2) 0.464(3)
loop_
_geom_bond_atom_site_label_1
_geom_bond_atom_site_label_2
_geom_bond_distance
_geom_bond_site_symmetry_1
_geom_bond_site_symmetry_2
C1 C2 1.386 1_555 1_555
C2 C3 1.389 1_555 1_555
C3 C4 1.398 1_555 1_555
C4 C5 1.425 1_555 1_555
C5 C6 1.394 1_555 1_555
C6 C1 1.391 1_555 1_555
C7 C3 1.551 1_555 1_555
H1 C4 0.932 1_555 1_555
H2 C5 0.992 1_555 1_555
H3 C7 0.971 1_555 1_555
H4 C7 1.018 1_555 1_555
C1C C2 1.429 1_555 1_555
C2C C1C 1.386 1_555 1_555
C1A C2C 1.429 1_555 1_555
C2A C1 1.429 1_555 1_555
C6C C7 1.551 1_555 1_555
C5C C6C 1.394 1_555 1_555
C4C C5C 1.425 1_555 1_555
C3C C2C 1.389 1_555 1_555
C7C C3C 1.551 1_555 1_555
C6A C1A 1.391 1_555 1_555
C5A C6A 1.394 1_555 1_555
C4A C5A 1.425 1_555 1_555
C3A C2A 1.389 1_555 1_555
C7A C6 1.551 1_555 1_555
H3A C7A 0.971 1_555 1_555
H4A C7A 1.018 1_555 1_555
H1A C4A 0.932 1_555 1_555
H2A C5A 0.992 1_555 1_555
H3C C7C 0.971 1_555 1_555
H4C C7C 1.018 1_555 1_555
H1C C4C 0.932 1_555 1_555
H2C C5C 0.992 1_555 1_555
C1C C6C 1.391 1_555 1_555
C1A C2A 1.386 1_555 1_555
C4C C3C 1.398 1_555 1_555
C7C C6A 1.551 1_555 1_555
C4A C3A 1.398 1_555 1_555
C3A C7A 1.551 1_555 1_555
#END
