
#######################################################################
#
#                 Cambridge Crystallographic Data Centre
#                                CCDC
#
#######################################################################
#
# If this CIF has been generated from an entry in the Cambridge
# Structural Database, then it will include bibliographic, chemical,
# crystal, experimental, refinement or atomic coordinate data resulting
# from the CCDC's data processing and validation procedures.
#
#######################################################################

data_CSD_CIF_TAVPIR
_audit_creation_date 2012-04-25
_audit_creation_method CSD-ConQuest-V1
_database_code_CSD TAVPIR
_database_code_depnum_ccdc_archive 'CCDC 859061'
_chemical_formula_sum 'C30 H20'
_chemical_formula_moiety
;
C30 H20
;
_journal_coden_Cambridge 1366
_journal_volume 354
_journal_year 2012
_journal_page_first 555
_journal_name_full 'Adv.Synth.Catal. '
loop_
_publ_author_name
"A.S.K.Hashmi"
"M.Wieteck"
"I.Braun"
"P.Nosel"
"L.Jongbloed"
"M.Rudolph"
"F.Rominger"
_chemical_name_systematic
;
9-(3-Phenyl-2-naphthyl)anthracene
;
_cell_volume   4078.684
_exptl_crystal_colour 'orange'
_exptl_crystal_density_diffrn 1.239
_exptl_crystal_description 'polyhedron'
_diffrn_ambient_temperature 200
#These two values have been output from a single CSD field.
_refine_ls_R_factor_gt 0.0697
_refine_ls_wR_factor_gt 0.0697
_symmetry_cell_setting triclinic
_symmetry_space_group_name_H-M 'P -1'
_symmetry_Int_Tables_number 2
loop_
_symmetry_equiv_pos_site_id
_symmetry_equiv_pos_as_xyz
1 x,y,z
2 -x,-y,-z
_cell_length_a 11.2876(5)
_cell_length_b 12.5281(6)
_cell_length_c 29.9493(15)
_cell_angle_alpha 101.437(3)
_cell_angle_beta 99.701(3)
_cell_angle_gamma 92.505(3)
_cell_formula_units_Z 8
loop_
_atom_type_symbol
_atom_type_radius_bond
C 0.68
H 0.23
loop_
_atom_site_label
_atom_site_type_symbol
_atom_site_fract_x
_atom_site_fract_y
_atom_site_fract_z
C1 C -0.4637(3) -0.0209(3) 0.15346(11)
C2 C -0.4102(4) 0.0347(3) 0.19753(13)
H1 H -0.32580 0.03430 0.20750
C3 C -0.4787(4) 0.0906(3) 0.22683(13)
H2 H -0.44160 0.12780 0.25710
C4 C -0.6016(4) 0.0927(3) 0.21235(14)
H3 H -0.64850 0.13170 0.23270
C5 C -0.6554(3) 0.0392(3) 0.16909(14)
H4 H -0.73970 0.04050 0.15900
C6 C -0.5857(3) -0.0174(3) 0.13997(12)
H5 H -0.62330 -0.05480 0.10980
C7 C -0.3935(3) -0.0852(3) 0.12109(10)
C8 C -0.2986(3) -0.0344(2) 0.10469(10)
C9 C -0.2373(3) -0.0978(3) 0.07463(11)
H6 H -0.17370 -0.06390 0.06400
C10 C -0.2659(3) -0.2118(3) 0.05899(11)
C11 C -0.2021(3) -0.2786(3) 0.02854(12)
H7 H -0.13870 -0.24640 0.01720
C12 C -0.2311(3) -0.3888(3) 0.01547(12)
H8 H -0.18730 -0.43260 -0.00470
C13 C -0.3244(3) -0.4372(3) 0.03146(13)
H9 H -0.34330 -0.51390 0.02220
C14 C -0.3895(3) -0.3759(3) 0.06039(12)
H10 H -0.45370 -0.41020 0.07060
C15 C -0.3613(3) -0.2613(3) 0.07508(11)
C16 C -0.4229(3) -0.1951(3) 0.10576(11)
H11 H -0.48750 -0.22800 0.11630
C17 C -0.2663(3) 0.0854(3) 0.11844(10)
C18 C -0.3449(3) 0.1568(3) 0.09965(11)
C19 C -0.4553(3) 0.1185(3) 0.06806(12)
H12 H -0.47750 0.04230 0.05920
C20 C -0.5288(4) 0.1887(3) 0.05055(14)
H13 H -0.60180 0.16100 0.02980
C21 C -0.4983(4) 0.3017(4) 0.06266(15)
H14 H -0.55070 0.35000 0.05020
C22 C -0.3951(4) 0.3418(3) 0.09187(14)
H15 H -0.37570 0.41860 0.09970
C23 C -0.3141(3) 0.2722(3) 0.11135(12)
C24 C -0.2064(3) 0.3127(3) 0.14073(13)
H16 H -0.18560 0.38930 0.14810
C25 C -0.1279(3) 0.2444(3) 0.15971(11)
C26 C -0.0166(4) 0.2861(4) 0.18988(13)
H17 H 0.00530 0.36250 0.19670
C27 C 0.0578(4) 0.2198(4) 0.20879(14)
H18 H 0.13160 0.24940 0.22850
C28 C 0.0268(3) 0.1072(4) 0.19954(13)
H19 H 0.07920 0.06110 0.21360
C29 C -0.0784(3) 0.0623(3) 0.17033(12)
H20 H -0.09750 -0.01440 0.16440
C30 C -0.1590(3) 0.1291(3) 0.14890(11)
C31 C -0.6069(3) -0.1710(3) 0.34250(12)
C32 C -0.5853(4) -0.1518(3) 0.30041(13)
H21 H -0.50710 -0.15880 0.29300
C33 C -0.6772(4) -0.1226(4) 0.26901(15)
H22 H -0.66150 -0.11030 0.24020
C34 C -0.7906(4) -0.1114(4) 0.27949(17)
H23 H -0.85330 -0.09160 0.25800
C35 C -0.8129(4) -0.1290(4) 0.32129(18)
H24 H -0.89070 -0.12030 0.32890
C36 C -0.7215(3) -0.1596(3) 0.35224(15)
H25 H -0.73810 -0.17290 0.38080
C37 C -0.5107(3) -0.2042(3) 0.37630(11)
C38 C -0.3999(3) -0.1395(2) 0.39389(11)
C39 C -0.3138(3) -0.1734(2) 0.42532(11)
H26 H -0.23950 -0.13000 0.43650
C40 C -0.3317(3) -0.2702(2) 0.44160(11)
C41 C -0.2425(3) -0.3069(3) 0.47311(12)
H27 H -0.16840 -0.26390 0.48520
C42 C -0.2624(3) -0.4038(3) 0.48632(12)
H28 H -0.20170 -0.42800 0.50720
C43 C -0.3715(3) -0.4672(3) 0.46912(12)
H29 H -0.38470 -0.53400 0.47870
C44 C -0.4595(3) -0.4344(3) 0.43877(12)
H30 H -0.53300 -0.47880 0.42730
C45 C -0.4425(3) -0.3348(3) 0.42404(11)
C46 C -0.5296(3) -0.2987(3) 0.39205(12)
H31 H -0.60430 -0.34120 0.38090
C47 C -0.3746(3) -0.0344(3) 0.37991(11)
C48 C -0.4298(3) 0.0587(3) 0.39834(11)
C49 C -0.5154(3) 0.0554(3) 0.42836(12)
H32 H -0.53650 -0.01190 0.43620
C50 C -0.5672(3) 0.1468(3) 0.44595(14)
H33 H -0.62370 0.14300 0.46590
C51 C -0.5365(4) 0.2478(3) 0.43449(15)
H34 H -0.57390 0.31100 0.44650
C52 C -0.4562(4) 0.2554(3) 0.40719(14)
H35 H -0.43610 0.32440 0.40060
C53 C -0.3993(3) 0.1618(3) 0.38753(12)
C54 C -0.3165(3) 0.1686(3) 0.35901(13)
H36 H -0.29540 0.23750 0.35260
C55 C -0.2631(3) 0.0772(3) 0.33943(12)
C56 C -0.1772(4) 0.0826(4) 0.30933(14)
H37 H -0.15410 0.15120 0.30300
C57 C -0.1290(4) -0.0077(4) 0.28988(14)
H38 H -0.07220 -0.00190 0.27020
C58 C -0.1618(3) -0.1100(4) 0.29833(14)
H39 H -0.12880 -0.17320 0.28360
C59 C -0.2405(3) -0.1199(3) 0.32742(12)
H40 H -0.26060 -0.18990 0.33310
C60 C -0.2932(3) -0.0268(3) 0.34957(11)
C61 C -0.1150(3) 0.5199(3) 0.34555(11)
C62 C -0.0962(3) 0.4433(3) 0.30746(11)
H41 H -0.01710 0.43730 0.30080
C63 C -0.1911(3) 0.3757(3) 0.27918(12)
H42 H -0.17680 0.32380 0.25330
C64 C -0.3065(3) 0.3832(3) 0.28840(12)
H43 H -0.37150 0.33630 0.26910
C65 C -0.3267(3) 0.4591(3) 0.32571(13)
H44 H -0.40620 0.46530 0.33190
C66 C -0.2321(3) 0.5262(3) 0.35420(12)
H45 H -0.24710 0.57760 0.38010
C67 C -0.0151(3) 0.5922(2) 0.37785(11)
C68 C 0.0930(3) 0.5502(2) 0.39628(10)
C69 C 0.1812(3) 0.6185(2) 0.42739(11)
H46 H 0.25290 0.58900 0.43950
C70 C 0.1688(3) 0.7311(2) 0.44199(11)
C71 C 0.2605(3) 0.8026(3) 0.47311(11)
H47 H 0.33280 0.77480 0.48580
C72 C 0.2450(3) 0.9116(3) 0.48499(12)
H48 H 0.30740 0.95910 0.50560
C73 C 0.1392(3) 0.9541(3) 0.46732(12)
H49 H 0.12960 1.02980 0.47640
C74 C 0.0488(3) 0.8870(3) 0.43683(12)
H50 H -0.02250 0.91700 0.42470
C75 C 0.0607(3) 0.7735(2) 0.42317(11)
C76 C -0.0282(3) 0.7020(3) 0.39195(11)
H51 H -0.10080 0.73030 0.38000
C77 C 0.1158(3) 0.4329(2) 0.38345(10)
C78 C 0.0593(3) 0.3544(2) 0.40229(11)
C79 C -0.0260(3) 0.3829(3) 0.43245(12)
H52 H -0.04470 0.45670 0.44030
C80 C -0.0803(4) 0.3051(3) 0.44979(14)
H53 H -0.13670 0.32530 0.46960
C81 C -0.0540(4) 0.1953(3) 0.43892(15)
H54 H -0.09330 0.14170 0.45100
C82 C 0.0273(4) 0.1660(3) 0.41120(14)
H55 H 0.04490 0.09160 0.40450
C83 C 0.0866(3) 0.2423(3) 0.39189(12)
C84 C 0.1709(3) 0.2139(3) 0.36355(13)
H56 H 0.19110 0.14030 0.35730
C85 C 0.2261(3) 0.2890(3) 0.34422(12)
C86 C 0.3127(3) 0.2603(3) 0.31482(14)
H57 H 0.33740 0.18810 0.30990
C87 C 0.3598(3) 0.3340(4) 0.29399(15)
H58 H 0.41670 0.31300 0.27450
C88 C 0.3254(3) 0.4407(4) 0.30085(13)
H59 H 0.35730 0.49080 0.28510
C89 C 0.2472(3) 0.4744(3) 0.32963(12)
H60 H 0.22610 0.54790 0.33410
C90 C 0.1964(3) 0.4008(3) 0.35319(11)
C91 C -0.9646(3) 0.6765(2) 0.15934(11)
C92 C -0.9073(3) 0.6482(3) 0.19954(12)
H61 H -0.82180 0.65010 0.20580
C93 C -0.9726(4) 0.6174(3) 0.23071(13)
H62 H -0.93180 0.59860 0.25820
C94 C -1.0969(4) 0.6138(3) 0.22198(14)
H63 H -1.14160 0.59260 0.24340
C95 C -1.1558(3) 0.6410(3) 0.18228(15)
H64 H -1.24140 0.63830 0.17610
C96 C -1.0898(3) 0.6724(3) 0.15121(13)
H65 H -1.13100 0.69140 0.12390
C97 C -0.8979(3) 0.7121(3) 0.12523(11)
C98 C -0.8086(3) 0.6501(2) 0.10639(10)
C99 C -0.7532(3) 0.6847(3) 0.07363(11)
H66 H -0.69450 0.64190 0.06110
C100 C -0.7805(3) 0.7814(2) 0.05789(11)
C101 C -0.7214(3) 0.8189(3) 0.02519(11)
H67 H -0.66320 0.77680 0.01190
C102 C -0.7480(3) 0.9157(3) 0.01263(12)
H68 H -0.70760 0.94050 -0.00920
C103 C -0.8338(3) 0.9783(3) 0.03163(12)
H69 H -0.85110 1.04550 0.02270
C104 C -0.8931(3) 0.9433(3) 0.06297(12)
H70 H -0.95210 0.98610 0.07530
C105 C -0.8678(3) 0.8442(2) 0.07727(11)
C106 C -0.9250(3) 0.8071(3) 0.11018(12)
H71 H -0.98470 0.84890 0.12260
C107 C -0.7734(3) 0.5464(3) 0.12062(11)
C108 C -0.8467(3) 0.4491(3) 0.10247(11)
C109 C -0.9615(3) 0.4461(3) 0.07257(12)
H72 H -0.98960 0.51180 0.06500
C110 C -1.0298(4) 0.3507(3) 0.05509(14)
H73 H -1.10520 0.35010 0.03530
C111 C -0.9899(4) 0.2517(3) 0.06603(15)
H74 H -1.03890 0.18530 0.05370
C112 C -0.8842(4) 0.2511(3) 0.09354(14)
H75 H -0.85880 0.18380 0.10020
C113 C -0.8084(3) 0.3483(3) 0.11322(12)
C114 C -0.6986(4) 0.3485(3) 0.14237(14)
H76 H -0.67280 0.28160 0.14930
C115 C -0.6260(3) 0.4440(3) 0.16148(13)
C116 C -0.5127(4) 0.4460(4) 0.19198(15)
H77 H -0.48470 0.37930 0.19850
C117 C -0.4454(4) 0.5400(4) 0.21150(16)
H78 H -0.37130 0.53870 0.23170
C118 C -0.4833(3) 0.6398(4) 0.20240(14)
H79 H -0.43550 0.70580 0.21690
C119 C -0.5895(3) 0.6424(3) 0.17259(12)
H80 H -0.61360 0.71050 0.16630
C120 C -0.6636(3) 0.5456(3) 0.15104(11)
loop_
_geom_bond_atom_site_label_1
_geom_bond_atom_site_label_2
_geom_bond_distance
_geom_bond_site_symmetry_1
_geom_bond_site_symmetry_2
C1 C2 1.386 1_555 1_555
C2 H1 0.950 1_555 1_555
C3 C2 1.375 1_555 1_555
H2 C3 0.950 1_555 1_555
C4 C3 1.385 1_555 1_555
H3 C4 0.951 1_555 1_555
C5 C4 1.361 1_555 1_555
H4 C5 0.950 1_555 1_555
C6 C1 1.373 1_555 1_555
H5 C6 0.950 1_555 1_555
C7 C1 1.491 1_555 1_555
C8 C7 1.427 1_555 1_555
C9 C8 1.376 1_555 1_555
H6 C9 0.949 1_555 1_555
C10 C9 1.417 1_555 1_555
C11 C10 1.422 1_555 1_555
H7 C11 0.949 1_555 1_555
C12 C11 1.367 1_555 1_555
H8 C12 0.950 1_555 1_555
C13 C12 1.391 1_555 1_555
H9 C13 0.950 1_555 1_555
C14 C13 1.371 1_555 1_555
H10 C14 0.950 1_555 1_555
C15 C10 1.418 1_555 1_555
C16 C7 1.369 1_555 1_555
H11 C16 0.951 1_555 1_555
C17 C8 1.487 1_555 1_555
C18 C17 1.416 1_555 1_555
C19 C18 1.431 1_555 1_555
H12 C19 0.949 1_555 1_555
C20 C19 1.355 1_555 1_555
H13 C20 0.950 1_555 1_555
C21 C20 1.402 1_555 1_555
H14 C21 0.950 1_555 1_555
C22 C21 1.344 1_555 1_555
H15 C22 0.951 1_555 1_555
C23 C18 1.431 1_555 1_555
C24 C23 1.385 1_555 1_555
H16 C24 0.951 1_555 1_555
C25 C24 1.389 1_555 1_555
C26 C25 1.428 1_555 1_555
H17 C26 0.951 1_555 1_555
C27 C26 1.343 1_555 1_555
H18 C27 0.949 1_555 1_555
C28 C27 1.399 1_555 1_555
H19 C28 0.950 1_555 1_555
C29 C28 1.374 1_555 1_555
H20 C29 0.950 1_555 1_555
C30 C17 1.404 1_555 1_555
C31 C32 1.387 1_555 1_555
C32 H21 0.949 1_555 1_555
C33 C32 1.391 1_555 1_555
H22 C33 0.949 1_555 1_555
C34 C33 1.375 1_555 1_555
H23 C34 0.950 1_555 1_555
C35 C34 1.375 1_555 1_555
H24 C35 0.949 1_555 1_555
C36 C31 1.380 1_555 1_555
H25 C36 0.950 1_555 1_555
C37 C31 1.488 1_555 1_555
C38 C37 1.421 1_555 1_555
C39 C38 1.377 1_555 1_555
H26 C39 0.951 1_555 1_555
C40 C39 1.413 1_555 1_555
C41 C40 1.417 1_555 1_555
H27 C41 0.950 1_555 1_555
C42 C41 1.370 1_555 1_555
H28 C42 0.949 1_555 1_555
C43 C42 1.397 1_555 1_555
H29 C43 0.951 1_555 1_555
C44 C43 1.364 1_555 1_555
H30 C44 0.951 1_555 1_555
C45 C40 1.420 1_555 1_555
C46 C37 1.379 1_555 1_555
H31 C46 0.949 1_555 1_555
C47 C38 1.489 1_555 1_555
C48 C47 1.406 1_555 1_555
C49 C48 1.431 1_555 1_555
H32 C49 0.950 1_555 1_555
C50 C49 1.362 1_555 1_555
H33 C50 0.950 1_555 1_555
C51 C50 1.419 1_555 1_555
H34 C51 0.950 1_555 1_555
C52 C51 1.331 1_555 1_555
H35 C52 0.950 1_555 1_555
C53 C48 1.434 1_555 1_555
C54 C53 1.379 1_555 1_555
H36 C54 0.950 1_555 1_555
C55 C54 1.390 1_555 1_555
C56 C55 1.439 1_555 1_555
H37 C56 0.951 1_555 1_555
C57 C56 1.347 1_555 1_555
H38 C57 0.951 1_555 1_555
C58 C57 1.401 1_555 1_555
H39 C58 0.950 1_555 1_555
C59 C58 1.363 1_555 1_555
H40 C59 0.951 1_555 1_555
C60 C47 1.410 1_555 1_555
C61 C62 1.390 1_555 1_555
C62 H41 0.950 1_555 1_555
C63 C62 1.383 1_555 1_555
H42 C63 0.949 1_555 1_555
C64 C63 1.380 1_555 1_555
H43 C64 0.950 1_555 1_555
C65 C64 1.374 1_555 1_555
H44 C65 0.950 1_555 1_555
C66 C61 1.392 1_555 1_555
H45 C66 0.949 1_555 1_555
C67 C61 1.491 1_555 1_555
C68 C67 1.419 1_555 1_555
C69 C68 1.374 1_555 1_555
H46 C69 0.951 1_555 1_555
C70 C69 1.412 1_555 1_555
C71 C70 1.416 1_555 1_555
H47 C71 0.951 1_555 1_555
C72 C71 1.368 1_555 1_555
H48 C72 0.950 1_555 1_555
C73 C72 1.394 1_555 1_555
H49 C73 0.950 1_555 1_555
C74 C73 1.374 1_555 1_555
H50 C74 0.950 1_555 1_555
C75 C70 1.426 1_555 1_555
C76 C67 1.379 1_555 1_555
H51 C76 0.950 1_555 1_555
C77 C68 1.489 1_555 1_555
C78 C77 1.407 1_555 1_555
C79 C78 1.437 1_555 1_555
H52 C79 0.950 1_555 1_555
C80 C79 1.361 1_555 1_555
H53 C80 0.950 1_555 1_555
C81 C80 1.406 1_555 1_555
H54 C81 0.950 1_555 1_555
C82 C81 1.353 1_555 1_555
H55 C82 0.951 1_555 1_555
C83 C78 1.436 1_555 1_555
C84 C83 1.391 1_555 1_555
H56 C84 0.949 1_555 1_555
C85 C84 1.377 1_555 1_555
C86 C85 1.434 1_555 1_555
H57 C86 0.949 1_555 1_555
C87 C86 1.350 1_555 1_555
H58 C87 0.950 1_555 1_555
C88 C87 1.394 1_555 1_555
H59 C88 0.949 1_555 1_555
C89 C88 1.358 1_555 1_555
H60 C89 0.951 1_555 1_555
C90 C77 1.406 1_555 1_555
C91 C92 1.386 1_555 1_555
C92 H61 0.950 1_555 1_555
C93 C92 1.383 1_555 1_555
H62 C93 0.951 1_555 1_555
C94 C93 1.380 1_555 1_555
H63 C94 0.950 1_555 1_555
C95 C94 1.373 1_555 1_555
H64 C95 0.950 1_555 1_555
C96 C91 1.390 1_555 1_555
H65 C96 0.949 1_555 1_555
C97 C91 1.490 1_555 1_555
C98 C97 1.423 1_555 1_555
C99 C98 1.376 1_555 1_555
H66 C99 0.950 1_555 1_555
C100 C99 1.412 1_555 1_555
C101 C100 1.414 1_555 1_555
H67 C101 0.950 1_555 1_555
C102 C101 1.370 1_555 1_555
H68 C102 0.949 1_555 1_555
C103 C102 1.397 1_555 1_555
H69 C103 0.951 1_555 1_555
C104 C103 1.368 1_555 1_555
H70 C104 0.950 1_555 1_555
C105 C100 1.416 1_555 1_555
C106 C97 1.383 1_555 1_555
H71 C106 0.951 1_555 1_555
C107 C98 1.495 1_555 1_555
C108 C107 1.401 1_555 1_555
C109 C108 1.440 1_555 1_555
H72 C109 0.950 1_555 1_555
C110 C109 1.354 1_555 1_555
H73 C110 0.950 1_555 1_555
C111 C110 1.417 1_555 1_555
H74 C111 0.950 1_555 1_555
C112 C111 1.332 1_555 1_555
H75 C112 0.949 1_555 1_555
C113 C108 1.431 1_555 1_555
C114 C113 1.390 1_555 1_555
H76 C114 0.949 1_555 1_555
C115 C114 1.384 1_555 1_555
C116 C115 1.437 1_555 1_555
H77 C116 0.950 1_555 1_555
C117 C116 1.343 1_555 1_555
H78 C117 0.949 1_555 1_555
C118 C117 1.401 1_555 1_555
H79 C118 0.950 1_555 1_555
C119 C118 1.375 1_555 1_555
H80 C119 0.951 1_555 1_555
C120 C107 1.411 1_555 1_555
C5 C6 1.385 1_555 1_555
C14 C15 1.421 1_555 1_555
C15 C16 1.407 1_555 1_555
C22 C23 1.424 1_555 1_555
C25 C30 1.431 1_555 1_555
C29 C30 1.422 1_555 1_555
C35 C36 1.387 1_555 1_555
C44 C45 1.419 1_555 1_555
C45 C46 1.408 1_555 1_555
C52 C53 1.433 1_555 1_555
C55 C60 1.435 1_555 1_555
C59 C60 1.429 1_555 1_555
C65 C66 1.380 1_555 1_555
C74 C75 1.418 1_555 1_555
C75 C76 1.399 1_555 1_555
C82 C83 1.411 1_555 1_555
C85 C90 1.438 1_555 1_555
C89 C90 1.423 1_555 1_555
C95 C96 1.389 1_555 1_555
C104 C105 1.417 1_555 1_555
C105 C106 1.405 1_555 1_555
C112 C113 1.420 1_555 1_555
C115 C120 1.435 1_555 1_555
C119 C120 1.416 1_555 1_555
#END
