
#######################################################################
#
#                 Cambridge Crystallographic Data Centre
#                                CCDC
#
#######################################################################
#
# If this CIF has been generated from an entry in the Cambridge
# Structural Database, then it will include bibliographic, chemical,
# crystal, experimental, refinement or atomic coordinate data resulting
# from the CCDC's data processing and validation procedures.
#
#######################################################################

data_CSD_CIF_TAVPOX
_audit_creation_date 2012-04-25
_audit_creation_method CSD-ConQuest-V1
_database_code_CSD TAVPOX
_database_code_depnum_ccdc_archive 'CCDC 859062'
_chemical_formula_sum 'C48 H26'
_chemical_formula_moiety
;
C48 H26
;
_journal_coden_Cambridge 1366
_journal_volume 354
_journal_year 2012
_journal_page_first 555
_journal_name_full 'Adv.Synth.Catal. '
loop_
_publ_author_name
"A.S.K.Hashmi"
"M.Wieteck"
"I.Braun"
"P.Nosel"
"L.Jongbloed"
"M.Rudolph"
"F.Rominger"
_chemical_name_systematic
;
14,14'-Bifluoreno[3,2,1-de]anthracene
;
_cell_volume   2971.715
_exptl_crystal_colour 'black'
_exptl_crystal_density_diffrn 1.347
_exptl_crystal_description 'polyhedron'
_diffrn_ambient_temperature 200
#These two values have been output from a single CSD field.
_refine_ls_R_factor_gt 0.0533
_refine_ls_wR_factor_gt 0.0533
_symmetry_cell_setting monoclinic
_symmetry_space_group_name_H-M 'P 21/c'
_symmetry_Int_Tables_number 14
loop_
_symmetry_equiv_pos_site_id
_symmetry_equiv_pos_as_xyz
1 x,y,z
2 -x,1/2+y,1/2-z
3 -x,-y,-z
4 x,-1/2-y,-1/2+z
_cell_length_a 13.7249(7)
_cell_length_b 9.9089(5)
_cell_length_c 21.9189(12)
_cell_angle_alpha 90
_cell_angle_beta 94.509(1)
_cell_angle_gamma 90
_cell_formula_units_Z 4
loop_
_atom_type_symbol
_atom_type_radius_bond
C 0.68
H 0.23
loop_
_atom_site_label
_atom_site_type_symbol
_atom_site_fract_x
_atom_site_fract_y
_atom_site_fract_z
C1 C 0.78683(15) 0.3287(2) 0.28336(9)
C2 C 0.84818(14) 0.3099(2) 0.23645(9)
C3 C 0.89329(15) 0.1764(2) 0.24450(9)
C4 C 0.93733(15) 0.1145(2) 0.19914(10)
H1 H 0.96790 0.02930 0.20640
C5 C 0.71682(15) 0.4353(2) 0.29335(9)
C6 C 0.65117(14) 0.50217(19) 0.25234(9)
C7 C 0.61476(15) 0.6204(2) 0.28309(9)
C8 C 0.56931(15) 0.7224(2) 0.2517(1)
H2 H 0.54560 0.79750 0.27310
C9 C 0.79532(16) 0.2090(2) 0.32340(9)
C10 C 0.86368(16) 0.1200(2) 0.30159(10)
C11 C 0.88395(17) -0.0022(2) 0.32987(10)
H3 H 0.93180 -0.06080 0.31540
C12 C 0.83368(19) -0.0383(2) 0.37951(11)
H4 H 0.84810 -0.12140 0.39990
C13 C 0.7624(2) 0.0458(2) 0.39971(11)
H5 H 0.72680 0.01830 0.43300
C14 C 0.74203(18) 0.1695(2) 0.37211(10)
H6 H 0.69270 0.22650 0.38610
C15 C 0.93807(15) 0.1766(2) 0.14033(10)
C16 C 0.97405(18) 0.1093(2) 0.09180(11)
H7 H 1.00030 0.02120 0.09790
C17 C 0.9727(2) 0.1686(3) 0.03339(12)
H8 H 0.99620 0.11920 0.00040
C18 C 0.93830(19) 0.2953(3) 0.02380(11)
H9 H 0.93690 0.33370 -0.01600
C19 C 0.90410(16) 0.3719(2) 0.07286(10)
C20 C 0.87494(17) 0.5052(2) 0.06456(10)
H10 H 0.87020 0.54250 0.02450
C21 C 0.85253(16) 0.5852(2) 0.11354(10)
C22 C 0.83360(18) 0.7256(2) 0.10519(11)
H11 H 0.83170 0.76300 0.06520
C23 C 0.81826(18) 0.8064(2) 0.15324(12)
H12 H 0.80400 0.89940 0.14680
C24 C 0.82355(17) 0.7522(2) 0.21265(12)
H13 H 0.81530 0.80990 0.24640
C25 C 0.84040(15) 0.6181(2) 0.22258(10)
H14 H 0.84520 0.58440 0.26330
C26 C 0.85099(14) 0.5278(2) 0.17319(9)
C27 C 0.86617(14) 0.3860(2) 0.18120(9)
C28 C 0.90165(15) 0.3117(2) 0.13213(9)
C29 C 0.71684(15) 0.5039(2) 0.35306(9)
C30 C 0.65223(15) 0.6145(2) 0.34719(9)
C31 C 0.64146(18) 0.7001(2) 0.39623(10)
H15 H 0.59750 0.77410 0.39240
C32 C 0.69614(19) 0.6753(3) 0.45089(11)
H16 H 0.68920 0.73280 0.48500
C33 C 0.76077(18) 0.5679(3) 0.45658(10)
H17 H 0.79760 0.55290 0.49450
C34 C 0.77264(17) 0.4822(2) 0.40786(9)
H18 H 0.81810 0.40980 0.41180
C35 C 0.55664(15) 0.7181(2) 0.18621(10)
C36 C 0.51794(16) 0.8260(2) 0.15291(10)
H19 H 0.49720 0.90350 0.17390
C37 C 0.50857(17) 0.8241(2) 0.08893(11)
H20 H 0.48230 0.90020 0.06700
C38 C 0.53695(16) 0.7134(2) 0.05792(11)
H21 H 0.53100 0.71370 0.01440
C39 C 0.57553(15) 0.5973(2) 0.08981(10)
C40 C 0.60473(16) 0.4834(2) 0.05875(10)
H22 H 0.60610 0.48670 0.01550
C41 C 0.63204(15) 0.3648(2) 0.08967(9)
C42 C 0.65280(17) 0.2434(3) 0.05793(11)
H23 H 0.65670 0.24570 0.01490
C43 C 0.66705(18) 0.1253(2) 0.08835(11)
H24 H 0.68170 0.04590 0.06660
C44 C 0.66020(16) 0.1198(2) 0.15187(11)
H25 H 0.66560 0.03540 0.17240
C45 C 0.64586(15) 0.2346(2) 0.18447(10)
H26 H 0.64290 0.22920 0.22750
C46 C 0.63541(14) 0.3618(2) 0.15499(9)
C47 C 0.62395(14) 0.4849(2) 0.18748(9)
C48 C 0.58556(14) 0.5987(2) 0.15501(9)
loop_
_geom_bond_atom_site_label_1
_geom_bond_atom_site_label_2
_geom_bond_distance
_geom_bond_site_symmetry_1
_geom_bond_site_symmetry_2
C1 C2 1.392 1_555 1_555
C2 C3 1.465 1_555 1_555
C3 C4 1.351 1_555 1_555
C4 H1 0.951 1_555 1_555
C5 C1 1.456 1_555 1_555
C6 C5 1.390 1_555 1_555
C7 C6 1.459 1_555 1_555
C8 C7 1.348 1_555 1_555
H2 C8 0.951 1_555 1_555
C9 C1 1.475 1_555 1_555
C10 C3 1.457 1_555 1_555
C11 C10 1.379 1_555 1_555
H3 C11 0.950 1_555 1_555
C12 C11 1.381 1_555 1_555
H4 C12 0.950 1_555 1_555
C13 C12 1.384 1_555 1_555
H5 C13 0.949 1_555 1_555
C14 C9 1.397 1_555 1_555
H6 C14 0.951 1_555 1_555
C15 C4 1.429 1_555 1_555
C16 C15 1.379 1_555 1_555
H7 C16 0.950 1_555 1_555
C17 C16 1.407 1_555 1_555
H8 C17 0.950 1_555 1_555
C18 C17 1.352 1_555 1_555
H9 C18 0.951 1_555 1_555
C19 C18 1.426 1_555 1_555
C20 C19 1.388 1_555 1_555
H10 C20 0.950 1_555 1_555
C21 C20 1.388 1_555 1_555
C22 C21 1.424 1_555 1_555
H11 C22 0.950 1_555 1_555
C23 C22 1.353 1_555 1_555
H12 C23 0.950 1_555 1_555
C24 C23 1.405 1_555 1_555
H13 C24 0.949 1_555 1_555
C25 C24 1.363 1_555 1_555
H14 C25 0.950 1_555 1_555
C26 C21 1.427 1_555 1_555
C27 C2 1.464 1_555 1_555
C28 C15 1.435 1_555 1_555
C29 C5 1.475 1_555 1_555
C30 C7 1.459 1_555 1_555
C31 C30 1.386 1_555 1_555
H15 C31 0.949 1_555 1_555
C32 C31 1.385 1_555 1_555
H16 C32 0.951 1_555 1_555
C33 C32 1.385 1_555 1_555
H17 C33 0.950 1_555 1_555
C34 C29 1.390 1_555 1_555
H18 C34 0.950 1_555 1_555
C35 C8 1.433 1_555 1_555
C36 C35 1.377 1_555 1_555
H19 C36 0.950 1_555 1_555
C37 C36 1.398 1_555 1_555
H20 C37 0.950 1_555 1_555
C38 C37 1.363 1_555 1_555
H21 C38 0.951 1_555 1_555
C39 C38 1.426 1_555 1_555
C40 C39 1.393 1_555 1_555
H22 C40 0.950 1_555 1_555
C41 C40 1.393 1_555 1_555
C42 C41 1.429 1_555 1_555
H23 C42 0.949 1_555 1_555
C43 C42 1.353 1_555 1_555
H24 C43 0.950 1_555 1_555
C44 C43 1.404 1_555 1_555
H25 C44 0.950 1_555 1_555
C45 C44 1.366 1_555 1_555
H26 C45 0.949 1_555 1_555
C46 C41 1.429 1_555 1_555
C47 C6 1.451 1_555 1_555
C48 C35 1.438 1_555 1_555
C9 C10 1.399 1_555 1_555
C13 C14 1.386 1_555 1_555
C19 C28 1.432 1_555 1_555
C25 C26 1.421 1_555 1_555
C26 C27 1.429 1_555 1_555
C27 C28 1.421 1_555 1_555
C29 C30 1.409 1_555 1_555
C33 C34 1.384 1_555 1_555
C39 C48 1.425 1_555 1_555
C45 C46 1.419 1_555 1_555
C46 C47 1.427 1_555 1_555
C47 C48 1.413 1_555 1_555
#END
