
#######################################################################
#
#                 Cambridge Crystallographic Data Centre
#                                CCDC
#
#######################################################################
#
# If this CIF has been generated from an entry in the Cambridge
# Structural Database, then it will include bibliographic, chemical,
# crystal, experimental, refinement or atomic coordinate data resulting
# from the CCDC's data processing and validation procedures.
#
#######################################################################

data_CSD_CIF_TAYFUU
_audit_creation_date 1997-02-10
_audit_creation_method CSD-ConQuest-V1
_database_code_CSD TAYFUU
_chemical_formula_sum 'C34 H20'
_chemical_formula_moiety
;
C34 H20
;
_journal_coden_Cambridge 16
_journal_volume 52
_journal_year 1996
_journal_page_first 8349
_journal_name_full 'Tetrahedron '
loop_
_publ_author_name
"W.Baidossi"
"H.Schumann"
"J.Blum"
_chemical_name_systematic
;
4,5-Diphenylbenzo(a)cyclopenta(l,m)pyrene
;
_chemical_melting_point 437.15
_cell_volume   2228.397
_exptl_crystal_colour 'red'
_exptl_crystal_density_diffrn 1.28
_exptl_special_details
;
Melting point range 437.15-438.15K

;
_diffrn_ambient_temperature ?
_diffrn_special_details
;
The study was carried out at room temperature,in the range 283-303K

;
#These two values have been output from a single CSD field.
_refine_ls_R_factor_gt 0.041
_refine_ls_wR_factor_gt 0.041
_symmetry_cell_setting triclinic
_symmetry_space_group_name_H-M 'P -1'
_symmetry_Int_Tables_number 2
loop_
_symmetry_equiv_pos_site_id
_symmetry_equiv_pos_as_xyz
1 x,y,z
2 -x,-y,-z
_cell_length_a 12.998(2)
_cell_length_b 16.149(3)
_cell_length_c 12.820(2)
_cell_angle_alpha 98.22(1)
_cell_angle_beta 119.45(2)
_cell_angle_gamma 99.70(1)
_cell_formula_units_Z 4
loop_
_atom_type_symbol
_atom_type_radius_bond
C 0.68
H 0.23
loop_
_atom_site_label
_atom_site_type_symbol
_atom_site_fract_x
_atom_site_fract_y
_atom_site_fract_z
C1 C 1.0462(2) 0.6308(2) 0.7993(3)
C2 C 1.0031(3) 0.5785(2) 0.6833(3)
C3 C 0.8836(2) 0.5707(2) 0.5841(3)
C4 C 0.8095(2) 0.6162(2) 0.6021(2)
C5 C 0.6836(2) 0.6079(2) 0.4999(2)
C6 C 0.6165(2) 0.6548(2) 0.5251(2)
C7 C 0.6675(2) 0.7077(1) 0.6480(2)
C8 C 0.4914(2) 0.6656(2) 0.4526(2)
C9 C 0.4765(2) 0.7209(2) 0.5317(2)
C10 C 0.5864(2) 0.7484(2) 0.6562(2)
C11 C 0.6207(2) 0.8027(2) 0.7725(2)
C12 C 0.5442(3) 0.8478(2) 0.7877(3)
C13 C 0.5781(3) 0.8984(2) 0.8997(3)
C14 C 0.6904(3) 0.9056(2) 1.0019(3)
C15 C 0.7708(3) 0.8645(2) 0.9950(2)
C16 C 0.7386(3) 0.8108(2) 0.8783(2)
C17 C 0.8219(2) 0.7672(2) 0.8662(2)
C18 C 0.9415(3) 0.7718(2) 0.9635(3)
C19 C 1.0138(2) 0.7295(2) 0.9436(3)
C20 C 0.9752(2) 0.6763(2) 0.8236(3)
C21 C 0.8566(2) 0.6696(2) 0.7241(2)
C22 C 0.7841(2) 0.7153(2) 0.7481(2)
C23 C 0.6331(2) 0.5487(1) 0.3756(2)
C24 C 0.6804(2) 0.5658(2) 0.3012(3)
C25 C 0.6259(3) 0.5151(2) 0.1825(3)
C26 C 0.5228(3) 0.4461(2) 0.1344(3)
C27 C 0.4773(2) 0.4267(2) 0.2073(3)
C28 C 0.5318(2) 0.4771(2) 0.3265(2)
C29 C 0.3965(2) 0.6242(1) 0.3208(2)
C30 C 0.4128(2) 0.6400(2) 0.2255(2)
C31 C 0.3223(3) 0.5998(2) 0.1028(2)
C32 C 0.2147(3) 0.5433(2) 0.0741(3)
C33 C 0.1975(2) 0.5272(2) 0.1669(3)
C34 C 0.2875(2) 0.5670(2) 0.2890(2)
H1 H 1.12710 0.63590 0.86490
H2 H 1.05380 0.54790 0.67020
H3 H 0.85360 0.53400 0.50440
H4 H 0.40420 0.73910 0.50880
H5 H 0.46590 0.84290 0.71750
H6 H 0.52440 0.92870 0.90720
H7 H 0.71270 0.94050 1.08000
H8 H 0.84830 0.87140 1.06741
H9 H 0.97160 0.80550 1.04480
H10 H 1.09370 0.73490 1.01170
H11 H 0.75140 0.61310 0.33350
H12 H 0.65910 0.52750 0.13310
H13 H 0.48350 0.41210 0.05120
H14 H 0.40780 0.37830 0.17510
H15 H 0.49980 0.46290 0.36761
H16 H 0.48700 0.67880 0.24490
H17 H 0.33450 0.61110 0.03830
H18 H 0.15240 0.51560 -0.01020
H19 H 0.12310 0.48850 0.14710
H20 H 0.27460 0.55480 0.35270
C35 C 0.9221(4) 0.6779(2) 0.2301(3)
C36 C 0.8276(3) 0.7148(2) 0.1811(3)
C37 C 0.8101(3) 0.7738(2) 0.2585(3)
C38 C 0.8884(2) 0.7965(2) 0.3864(2)
C39 C 0.8710(2) 0.8580(1) 0.4694(2)
C40 C 0.9526(2) 0.8774(1) 0.5949(2)
C41 C 1.0487(2) 0.8348(1) 0.6410(2)
C42 C 0.9671(2) 0.9322(1) 0.7068(2)
C43 C 1.0624(2) 0.9175(2) 0.8074(2)
C44 C 1.1167(2) 0.8580(1) 0.7685(2)
C45 C 1.2177(2) 0.8230(2) 0.8306(3)
C46 C 1.2933(3) 0.8450(2) 0.9610(3)
C47 C 1.3877(3) 0.8087(2) 1.0187(3)
C48 C 1.4096(3) 0.7487(2) 0.9480(4)
C49 C 1.3392(3) 0.7257(2) 0.8221(3)
C50 C 1.2411(2) 0.7625(2) 0.7568(3)
C51 C 1.1659(3) 0.7390(2) 0.6234(3)
C52 C 1.1799(3) 0.6793(2) 0.5409(3)
C53 C 1.1026(3) 0.6599(2) 0.4162(3)
C54 C 1.0040(3) 0.6967(2) 0.3586(3)
C55 C 0.9868(2) 0.7570(2) 0.4368(3)
C56 C 1.0682(2) 0.7760(1) 0.5662(2)
C57 C 0.7652(2) 0.8954(2) 0.4170(2)
C58 C 0.6732(2) 0.8738(2) 0.4425(2)
C59 C 0.5800(2) 0.9126(2) 0.4040(3)
C60 C 0.5751(3) 0.9741(2) 0.3389(3)
C61 C 0.6652(3) 0.9963(2) 0.3121(3)
C62 C 0.7585(2) 0.9569(2) 0.3501(2)
C63 C 0.8974(2) 0.9928(1) 0.7143(2)
C64 C 0.8432(3) 0.9860(2) 0.7838(2)
C65 C 0.7774(3) 1.0414(2) 0.7915(3)
C66 C 0.7653(2) 1.1065(2) 0.7330(3)
C67 C 0.8197(2) 1.1155(2) 0.6641(3)
C68 C 0.8852(2) 1.0593(2) 0.6556(2)
H21 H 0.93260 0.63850 0.17590
H22 H 0.77300 0.70060 0.09360
H23 H 0.74330 0.79860 0.22260
H24 H 1.08950 0.94280 0.89130
H25 H 1.27840 0.88570 1.00960
H26 H 1.43820 0.82450 1.10680
H27 H 1.47500 0.72340 0.98860
H28 H 1.35570 0.68400 0.77640
H29 H 1.24480 0.65250 0.57410
H30 H 1.11540 0.61970 0.36500
H31 H 0.67530 0.83140 0.48740
H32 H 0.51800 0.89710 0.42240
H33 H 0.51030 1.00120 0.31260
H34 H 0.66240 1.03870 0.26720
H35 H 0.81960 0.97200 0.33050
H36 H 0.85210 0.94190 0.82690
H37 H 0.73940 1.03460 0.83810
H38 H 0.72010 1.14530 0.73950
H39 H 0.81160 1.16050 0.62270
H40 H 0.92290 1.06630 0.60880
loop_
_geom_bond_atom_site_label_1
_geom_bond_atom_site_label_2
_geom_bond_distance
_geom_bond_site_symmetry_1
_geom_bond_site_symmetry_2
C1 C2 1.379 1_555 1_555
C2 C3 1.411 1_555 1_555
C3 C4 1.389 1_555 1_555
C4 C5 1.477 1_555 1_555
C5 C6 1.367 1_555 1_555
C6 C7 1.431 1_555 1_555
C7 C10 1.370 1_555 1_555
C8 C6 1.481 1_555 1_555
C9 C8 1.362 1_555 1_555
C10 C9 1.458 1_555 1_555
C11 C10 1.425 1_555 1_555
C12 C11 1.397 1_555 1_555
C13 C12 1.358 1_555 1_555
C14 C13 1.371 1_555 1_555
C15 C14 1.360 1_555 1_555
C16 C11 1.429 1_555 1_555
C17 C16 1.443 1_555 1_555
C18 C17 1.416 1_555 1_555
C19 C18 1.348 1_555 1_555
C20 C1 1.391 1_555 1_555
C21 C4 1.435 1_555 1_555
C22 C7 1.392 1_555 1_555
C23 C5 1.486 1_555 1_555
C24 C23 1.400 1_555 1_555
C25 C24 1.370 1_555 1_555
C26 C25 1.380 1_555 1_555
C27 C26 1.373 1_555 1_555
C28 C23 1.390 1_555 1_555
C29 C8 1.474 1_555 1_555
C30 C29 1.389 1_555 1_555
C31 C30 1.382 1_555 1_555
C32 C31 1.375 1_555 1_555
C33 C32 1.365 1_555 1_555
C34 C29 1.382 1_555 1_555
H1 C1 0.949 1_555 1_555
H2 C2 0.949 1_555 1_555
H3 C3 0.951 1_555 1_555
H4 C9 0.950 1_555 1_555
H5 C12 0.951 1_555 1_555
H6 C13 0.951 1_555 1_555
H7 C14 0.950 1_555 1_555
H8 C15 0.950 1_555 1_555
H9 C18 0.949 1_555 1_555
H10 C19 0.951 1_555 1_555
H11 C24 0.950 1_555 1_555
H12 C25 0.950 1_555 1_555
H13 C26 0.950 1_555 1_555
H14 C27 0.949 1_555 1_555
H15 C28 0.849 1_555 1_555
H16 C30 0.949 1_555 1_555
H17 C31 0.951 1_555 1_555
H18 C32 0.950 1_555 1_555
H19 C33 0.949 1_555 1_555
H20 C34 0.950 1_555 1_555
C35 C36 1.361 1_555 1_555
C36 C37 1.403 1_555 1_555
C37 C38 1.386 1_555 1_555
C38 C39 1.476 1_555 1_555
C39 C40 1.370 1_555 1_555
C40 C41 1.436 1_555 1_555
C41 C44 1.373 1_555 1_555
C42 C40 1.480 1_555 1_555
C43 C42 1.367 1_555 1_555
C44 C43 1.452 1_555 1_555
C45 C44 1.424 1_555 1_555
C46 C45 1.408 1_555 1_555
C47 C46 1.368 1_555 1_555
C48 C47 1.392 1_555 1_555
C49 C48 1.357 1_555 1_555
C50 C45 1.436 1_555 1_555
C51 C50 1.439 1_555 1_555
C52 C51 1.428 1_555 1_555
C53 C52 1.354 1_555 1_555
C54 C35 1.401 1_555 1_555
C55 C38 1.428 1_555 1_555
C56 C41 1.395 1_555 1_555
C57 C39 1.481 1_555 1_555
C58 C57 1.391 1_555 1_555
C59 C58 1.364 1_555 1_555
C60 C59 1.376 1_555 1_555
C61 C60 1.381 1_555 1_555
C62 C57 1.389 1_555 1_555
C63 C42 1.465 1_555 1_555
C64 C63 1.386 1_555 1_555
C65 C64 1.363 1_555 1_555
C66 C65 1.363 1_555 1_555
C67 C66 1.385 1_555 1_555
C68 C63 1.384 1_555 1_555
H21 C35 0.950 1_555 1_555
H22 C36 0.950 1_555 1_555
H23 C37 0.950 1_555 1_555
H24 C43 0.949 1_555 1_555
H25 C46 0.950 1_555 1_555
H26 C47 0.951 1_555 1_555
H27 C48 0.950 1_555 1_555
H28 C49 0.950 1_555 1_555
H29 C52 0.950 1_555 1_555
H30 C53 0.950 1_555 1_555
H31 C58 0.951 1_555 1_555
H32 C59 0.951 1_555 1_555
H33 C60 0.950 1_555 1_555
H34 C61 0.950 1_555 1_555
H35 C62 0.950 1_555 1_555
H36 C64 0.950 1_555 1_555
H37 C65 0.951 1_555 1_555
H38 C66 0.950 1_555 1_555
H39 C67 0.950 1_555 1_555
H40 C68 0.950 1_555 1_555
C15 C16 1.434 1_555 1_555
C17 C22 1.415 1_555 1_555
C19 C20 1.440 1_555 1_555
C20 C21 1.409 1_555 1_555
C21 C22 1.408 1_555 1_555
C27 C28 1.373 1_555 1_555
C33 C34 1.375 1_555 1_555
C49 C50 1.424 1_555 1_555
C51 C56 1.405 1_555 1_555
C53 C54 1.412 1_555 1_555
C54 C55 1.421 1_555 1_555
C55 C56 1.409 1_555 1_555
C61 C62 1.371 1_555 1_555
C67 C68 1.372 1_555 1_555
#END
