
#######################################################################
#
#                 Cambridge Crystallographic Data Centre
#                                CCDC
#
#######################################################################
#
# If this CIF has been generated from an entry in the Cambridge
# Structural Database, then it will include bibliographic, chemical,
# crystal, experimental, refinement or atomic coordinate data resulting
# from the CCDC's data processing and validation procedures.
#
#######################################################################

data_CSD_CIF_TAYGIJ
_audit_creation_date 1997-02-10
_audit_creation_method CSD-ConQuest-V1
_database_code_CSD TAYGIJ
_chemical_formula_sum 'C29 H20'
_chemical_formula_moiety
;
C29 H20
;
_journal_coden_Cambridge 16
_journal_volume 52
_journal_year 1996
_journal_page_first 8349
_journal_name_full 'Tetrahedron '
loop_
_publ_author_name
"W.Baidossi"
"H.Schumann"
"J.Blum"
_chemical_name_systematic
;
5-Phenyl-10H-dibenz(3,4:6,7)cyclohepta(1,2-b)naphthalene
;
_chemical_melting_point 484.15
_cell_volume   1979.859
_exptl_crystal_density_diffrn 1.24
_exptl_special_details
;
Melting point range 484.15-485.15K

;
_diffrn_ambient_temperature ?
_diffrn_special_details
;
The study was carried out at room temperature,in the range 283-303K

;
#These two values have been output from a single CSD field.
_refine_ls_R_factor_gt 0.033
_refine_ls_wR_factor_gt 0.033
_symmetry_cell_setting monoclinic
_symmetry_space_group_name_H-M 'P 21/c'
_symmetry_Int_Tables_number 14
loop_
_symmetry_equiv_pos_site_id
_symmetry_equiv_pos_as_xyz
1 x,y,z
2 -x,1/2+y,1/2-z
3 -x,-y,-z
4 x,-1/2-y,-1/2+z
_cell_length_a 10.473(1)
_cell_length_b 19.274(2)
_cell_length_c 9.967(1)
_cell_angle_alpha 90
_cell_angle_beta 100.24(1)
_cell_angle_gamma 90
_cell_formula_units_Z 4
loop_
_atom_type_symbol
_atom_type_radius_bond
C 0.68
H 0.23
loop_
_atom_site_label
_atom_site_type_symbol
_atom_site_fract_x
_atom_site_fract_y
_atom_site_fract_z
C1 C 0.7584(1) 0.06774(8) 0.2633(2)
C2 C 0.8842(2) 0.07604(9) 0.3215(2)
C3 C 0.9356(1) 0.1427(1) 0.3480(2)
C4 C 0.8606(1) 0.19984(8) 0.3139(1)
C5 C 0.7289(1) 0.19338(7) 0.2496(1)
C6 C 0.6470(1) 0.25164(6) 0.2099(1)
C7 C 0.5177(1) 0.24240(6) 0.1511(1)
C8 C 0.4358(1) 0.30410(6) 0.1033(1)
C9 C 0.4756(1) 0.35138(7) 0.0130(1)
C10 C 0.4024(2) 0.40971(7) -0.0280(2)
C11 C 0.2898(2) 0.42163(8) 0.0203(2)
C12 C 0.2475(1) 0.37474(8) 0.1070(1)
C13 C 0.3188(1) 0.31543(6) 0.1480(1)
C14 C 0.2671(1) 0.25959(7) 0.2292(1)
C15 C 0.2283(1) 0.19949(7) 0.1335(1)
C16 C 0.0991(1) 0.18430(8) 0.0875(2)
C17 C 0.0619(1) 0.13129(8) -0.0045(2)
C18 C 0.1555(2) 0.09337(8) -0.0530(2)
C19 C 0.2844(1) 0.10837(7) -0.0104(1)
C20 C 0.3242(1) 0.16115(6) 0.0843(1)
C21 C 0.4645(1) 0.17389(6) 0.1351(1)
C22 C 0.5449(1) 0.11838(6) 0.1704(1)
C23 C 0.6768(1) 0.12573(6) 0.2260(1)
C24 C 0.7011(1) 0.32312(7) 0.2372(1)
C25 C 0.7902(1) 0.35056(7) 0.1646(1)
C26 C 0.8342(1) 0.41783(8) 0.1871(2)
C27 C 0.7914(2) 0.45834(7) 0.2834(2)
C28 C 0.7056(2) 0.43093(8) 0.3587(2)
C29 C 0.6607(1) 0.36398(7) 0.3364(1)
H1 H 0.72410 0.02230 0.24720
H2 H 0.93790 0.03650 0.34460
H3 H 1.02380 0.14810 0.39010
H4 H 0.89690 0.24470 0.33330
H5 H 0.55370 0.34340 -0.02070
H6 H 0.43020 0.44160 -0.08960
H7 H 0.24060 0.46240 -0.00620
H8 H 0.16880 0.38310 0.13910
H9 H 0.03440 0.21090 0.11970
H10 H -0.02750 0.12110 -0.03400
H11 H 0.13080 0.05680 -0.11610
H12 H 0.34800 0.08240 -0.04600
H13 H 0.50980 0.07290 0.15680
H14 H 0.82150 0.32280 0.09850
H15 H 0.89450 0.43620 0.13560
H16 H 0.82080 0.50480 0.29790
H17 H 0.67700 0.45840 0.42680
H18 H 0.60160 0.34560 0.38930
H19 H 0.33240 0.24540 0.30290
H20 H 0.19400 0.27620 0.26370
loop_
_geom_bond_atom_site_label_1
_geom_bond_atom_site_label_2
_geom_bond_distance
_geom_bond_site_symmetry_1
_geom_bond_site_symmetry_2
C1 C2 1.351 1_555 1_555
C2 C3 1.400 1_555 1_555
C3 C4 1.360 1_555 1_555
C4 C5 1.419 1_555 1_555
C5 C6 1.426 1_555 1_555
C6 C7 1.388 1_555 1_555
C7 C8 1.494 1_555 1_555
C8 C9 1.396 1_555 1_555
C9 C10 1.381 1_555 1_555
C10 C11 1.370 1_555 1_555
C11 C12 1.377 1_555 1_555
C12 C13 1.387 1_555 1_555
C13 C8 1.393 1_555 1_555
C14 C13 1.504 1_555 1_555
C15 C14 1.510 1_555 1_555
C16 C15 1.381 1_555 1_555
C17 C16 1.382 1_555 1_555
C18 C17 1.377 1_555 1_555
C19 C18 1.372 1_555 1_555
C20 C15 1.404 1_555 1_555
C21 C7 1.431 1_555 1_555
C22 C21 1.368 1_555 1_555
C23 C1 1.416 1_555 1_555
C24 C6 1.496 1_555 1_555
C25 C24 1.384 1_555 1_555
C26 C25 1.381 1_555 1_555
C27 C26 1.373 1_555 1_555
C28 C27 1.375 1_555 1_555
C29 C24 1.388 1_555 1_555
H1 C1 0.949 1_555 1_555
H2 C2 0.951 1_555 1_555
H3 C3 0.950 1_555 1_555
H4 C4 0.950 1_555 1_555
H5 C9 0.950 1_555 1_555
H6 C10 0.950 1_555 1_555
H7 C11 0.951 1_555 1_555
H8 C12 0.949 1_555 1_555
H9 C16 0.950 1_555 1_555
H10 C17 0.951 1_555 1_555
H11 C18 0.949 1_555 1_555
H12 C19 0.951 1_555 1_555
H13 C22 0.951 1_555 1_555
H14 C25 0.951 1_555 1_555
H15 C26 0.950 1_555 1_555
H16 C27 0.950 1_555 1_555
H17 C28 0.950 1_555 1_555
H18 C29 0.950 1_555 1_555
H19 C14 0.951 1_555 1_555
H20 C14 0.949 1_555 1_555
C5 C23 1.417 1_555 1_555
C19 C20 1.400 1_555 1_555
C20 C21 1.487 1_555 1_555
C22 C23 1.401 1_555 1_555
C28 C29 1.378 1_555 1_555
#END
