
#######################################################################
#
#                 Cambridge Crystallographic Data Centre
#                                CCDC
#
#######################################################################
#
# If this CIF has been generated from an entry in the Cambridge
# Structural Database, then it will include bibliographic, chemical,
# crystal, experimental, refinement or atomic coordinate data resulting
# from the CCDC's data processing and validation procedures.
#
#######################################################################

data_CSD_CIF_TAYSUJ
_audit_creation_date 2012-10-16
_audit_creation_method CSD-ConQuest-V1
_database_code_CSD TAYSUJ
_database_code_depnum_ccdc_archive 'CCDC 846054'
_chemical_formula_sum 'C84 H52'
_chemical_formula_moiety
;
C84 H52
;
_journal_coden_Cambridge 920
_journal_volume 7
_journal_year 2012
_journal_page_first 672
_journal_name_full 'Chem.Asian J. '
loop_
_publ_author_name
"Jinchong Xiao"
"C.D.Malliakas"
"Yi Liu"
"Feng Zhou"
"Gang Li"
"Haibin Su"
"M.G.Kanatzidis"
"F.Wudl"
"Qichun Zhang"
_chemical_name_systematic
;
9,11,13,14,15,16,18,20-Octaphenyldibenzo[de,c1d1]heptacene
;
_cell_volume   2772.094
_exptl_crystal_colour 'green'
_exptl_crystal_density_diffrn 1.271
_exptl_crystal_description 'plate'
_diffrn_ambient_temperature 100
#These two values have been output from a single CSD field.
_refine_ls_R_factor_gt 0.0919
_refine_ls_wR_factor_gt 0.0919
_symmetry_cell_setting triclinic
_symmetry_space_group_name_H-M 'P 1'
_symmetry_Int_Tables_number 1
loop_
_symmetry_equiv_pos_site_id
_symmetry_equiv_pos_as_xyz
1 x,y,z
_cell_length_a 6.4811(2)
_cell_length_b 11.3196(3)
_cell_length_c 39.0621(11)
_cell_angle_alpha 93.369(2)
_cell_angle_beta 92.557(2)
_cell_angle_gamma 103.884(2)
_cell_formula_units_Z 2
loop_
_atom_type_symbol
_atom_type_radius_bond
C 0.68
H 0.23
loop_
_atom_site_label
_atom_site_type_symbol
_atom_site_fract_x
_atom_site_fract_y
_atom_site_fract_z
C1 C 0.8212(8) 0.0816(4) 0.57957(11)
C2 C 0.7578(7) -0.0168(3) 0.69964(10)
C3 C 0.1465(6) 0.5845(4) 0.90403(11)
C4 C 0.6716(10) 0.2551(4) 0.55892(12)
C5 C 0.0776(7) 0.4840(4) 1.02328(12)
C6 C 0.8441(7) -0.1233(3) 0.69297(11)
C7 C 0.1064(6) 0.5310(4) 0.96219(11)
C8 C -0.0952(6) 0.6090(4) 1.06269(12)
C9 C 0.2263(6) 0.3194(3) 1.04381(11)
C10 C 0.9156(7) -0.1435(4) 0.66012(12)
C11 C 0.6262(7) 0.1633(3) 0.68096(11)
C12 C 0.7857(8) 0.0293(4) 0.63968(11)
C13 C 0.2370(7) 0.4834(3) 0.89616(12)
C14 C 0.8471(8) -0.2095(4) 0.72026(13)
C15 C 0.9962(8) -0.0355(4) 0.53964(11)
C16 C 0.0114(8) 0.5059(4) 1.05656(13)
C17 C 0.2379(9) 0.2221(5) 1.23036(14)
C18 C 0.2647(7) 0.4085(3) 0.92268(11)
C19 C 0.4667(7) 0.4310(4) 0.85051(11)
H1 H 0.58580 0.44820 0.86670
C20 C 0.7588(10) 0.1043(5) 0.61349(12)
H2 H 0.69790 0.17140 0.61830
C21 C 1.0123(8) -0.2490(4) 0.65285(11)
C22 C 0.2699(6) 0.4466(3) 0.86047(10)
C23 C 0.7135(7) 0.0156(3) 0.73636(12)
C24 C 0.7192(7) 0.0542(4) 0.67402(12)
C25 C 0.2627(9) 0.2602(5) 1.16748(14)
C26 C 0.5228(7) 0.0350(3) 0.74637(12)
H3 H 0.40550 0.02150 0.72990
C27 C 0.5600(7) 0.3024(4) 0.92780(11)
H4 H 0.64100 0.37260 0.94110
C28 C 0.1774(8) 0.3835(4) 1.01662(12)
C29 C 0.6484(9) 0.3639(4) 0.70584(12)
H5 H 0.72720 0.43420 0.71930
C30 C 0.2087(8) 0.4332(4) 0.95568(13)
C31 C 0.9305(8) -0.0106(4) 0.57291(12)
C32 C 0.8866(9) -0.0681(4) 0.63291(13)
C33 C -0.0298(7) 0.7085(4) 0.94319(11)
C34 C 0.8301(3) 0.1590(3) 0.45710(14)
C35 C 0.2405(7) 0.1983(4) 0.89526(11)
H6 H 0.10210 0.19690 0.88590
C36 C 0.8880(8) 0.0382(4) 0.76069(12)
H7 H 1.02110 0.02530 0.75440
C37 C 0.9436(8) -0.0895(4) 0.60045(12)
H8 H 0.99490 -0.16020 0.59550
C38 C 0.6143(11) 0.5047(5) 0.46406(15)
H9 H 0.68120 0.57770 0.47750
C39 C 0.7401(8) 0.2651(4) 0.69936(12)
H10 H 0.88160 0.26960 0.70780
C40 C 0.0772(7) 0.6077(4) 0.93560(11)
C41 C 0.5924(10) 0.1865(5) 1.17193(14)
H11 H 0.66170 0.26170 1.18410
C42 C 1.2281(10) -0.2238(5) 0.64605(13)
H12 H 1.30720 -0.14140 0.64630
C43 C 0.1775(8) 0.4156(4) 1.20770(13)
C44 C 0.3352(7) 0.2169(4) 1.03737(11)
C45 C 0.7875(10) 0.1586(4) 0.55221(13)
C46 C 0.8976(9) -0.3700(4) 0.65396(11)
H13 H 0.75250 -0.38860 0.65940
C47 C 1.0372(7) -0.2383(4) 0.73047(11)
H14 H 1.16680 -0.20090 0.72080
C48 C 0.8599(7) 0.1340(4) 0.52045(14)
C49 C 0.6675(8) 0.0965(3) 0.80403(12)
H15 H 0.65080 0.12310 0.82700
C50 C 0.2449(7) 0.3645(4) 0.98338(12)
H16 H 0.31850 0.30230 0.97940
C51 C 0.3575(8) 0.3020(4) 0.91577(11)
C52 C 1.1126(9) -0.1319(4) 0.53289(11)
C53 C 0.1400(7) 0.6731(3) 0.87668(10)
C54 C 0.3191(8) 0.3667(4) 0.79249(12)
H17 H 0.33560 0.33790 0.76970
C55 C -0.2392(7) 0.6861(4) 0.95150(11)
H18 H -0.31790 0.60440 0.95300
C56 C 0.4982(8) 0.0736(4) 0.77969(11)
H19 H 0.36390 0.08460 0.78600
C57 C 0.1041(7) 0.4241(4) 0.83514(11)
H20 H -0.03020 0.43580 0.84130
C58 C 0.0925(10) 0.4120(6) 1.14613(14)
C59 C -0.0438(8) 0.7033(3) 0.86544(12)
H21 H -0.17410 0.66430 0.87460
C60 C 0.6578(7) -0.2672(3) 0.73428(11)
H22 H 0.52800 -0.24880 0.72690
C61 C -0.2121(10) 0.7629(5) 1.19277(16)
H23 H -0.28130 0.82770 1.19540
C62 C 0.6160(9) -0.0064(6) 1.14502(17)
H24 H 0.69690 -0.06370 1.13920
C63 C 0.5314(8) 0.1027(4) 0.90173(12)
H25 H 0.59110 0.03500 0.89720
C64 C 0.0580(9) 0.4402(5) 1.08310(12)
C65 C 0.4465(9) 0.3602(4) 0.69302(13)
H26 H 0.38660 0.42820 0.69710
C66 C 0.0381(9) 0.5519(4) 0.99620(12)
H27 H -0.03600 0.61380 1.00020
C67 C -0.3383(7) 0.7820(4) 0.95777(11)
H28 H -0.48310 0.76440 0.96340
C68 C 0.3299(8) 0.7272(4) 0.86277(13)
H29 H 0.45900 0.70780 0.86990
C69 C -0.0137(8) 0.9248(4) 0.94817(13)
H30 H 0.06540 1.00670 0.94700
C70 C -0.0472(8) 0.7887(4) 0.84128(12)
H31 H -0.17640 0.80830 0.83420
C71 C 0.4876(7) 0.3901(4) 0.81695(13)
H32 H 0.62120 0.37790 0.81060
C72 C 1.2088(10) -0.4375(4) 0.64019(12)
H33 H 1.27650 -0.50240 0.63620
C73 C 0.3272(8) 0.8132(4) 0.83733(12)
H34 H 0.45440 0.84950 0.82690
C74 C 0.0823(8) 0.8304(4) 0.94234(13)
H35 H 0.22870 0.84820 0.93760
C75 C 0.2534(12) 0.1983(7) 1.29202(17)
C76 C 0.2344(9) 0.1001(5) 1.0296(2)
H36 H 0.08460 0.08350 1.02520
C77 C 0.8431(8) -0.3776(4) 0.76975(13)
H37 H 0.84300 -0.43260 0.78720
C78 C 0.3353(9) 0.2603(5) 0.67486(14)
H38 H 0.19360 0.25750 0.66680
C79 C 0.8628(9) 0.0797(4) 0.79409(12)
H39 H 0.98100 0.09700 0.81040
C80 C 0.1397(9) 0.8429(4) 0.82812(11)
H40 H 0.14100 0.90300 0.81210
C81 C 0.1255(7) 0.3861(4) 0.80197(12)
H41 H 0.00860 0.37310 0.78550
C82 C 0.6570(8) -0.3492(4) 0.75819(13)
H42 H 0.52610 -0.38800 0.76720
C83 C 0.9334(9) 0.0129(5) 0.41679(13)
C84 C 0.8013(10) -0.1109(6) 0.34494(15)
H43 H 0.81390 -0.16270 0.36280
C85 C -0.0107(10) 0.5729(5) 1.18441(14)
C86 C -0.0302(10) 0.7749(4) 1.17824(14)
H44 H 0.03610 0.85290 1.17100
C87 C 1.0332(8) -0.3218(4) 0.75471(12)
H45 H 1.16170 -0.34270 0.76150
C88 C 0.6512(9) 0.2059(4) 0.92151(13)
H46 H 0.79150 0.20900 0.93030
C89 C -0.2285(8) 0.9004(4) 0.95583(13)
H47 H -0.29660 0.96520 0.95960
C90 C 0.9507(12) -0.2022(5) 0.42274(16)
H48 H 0.81490 -0.21740 0.43210
C91 C 0.5334(10) 0.0285(4) 1.02419(13)
H49 H 0.60000 -0.03120 1.01480
C92 C 1.3277(10) -0.3162(5) 0.63895(15)
H50 H 1.47260 -0.29870 0.63340
C93 C 0.4190(8) 0.1589(4) 0.66720(15)
H51 H 0.33920 0.09000 0.65330
C94 C 0.7753(13) 0.2066(7) 0.33264(14)
C95 C 1.0392(10) -0.0868(5) 0.41252(13)
C96 C 0.7903(11) 0.1791(6) 0.39572(12)
C97 C 1.001(1) -0.4635(4) 0.64688(13)
H52 H 0.92360 -0.54630 0.64680
C98 C 0.7447(10) 0.2279(7) 0.27103(13)
H53 H 0.73170 0.27560 0.25220
C99 C 0.6402(9) 0.3129(5) 0.43761(11)
C100 C 0.2795(12) 0.4489(6) 1.30567(15)
C101 C 0.3262(9) 0.0985(4) 0.88873(13)
H54 H 0.24550 0.02810 0.87550
C102 C 0.4612(11) 0.4425(6) 0.56968(16)
H55 H 0.38420 0.50320 0.56680
C103 C 1.3176(11) -0.3206(5) 0.52300(16)
H56 H 1.39490 -0.37420 0.51310
C104 C 0.6741(16) 0.4640(6) 0.5697(2)
H57 H 0.75390 0.54470 0.57640
C105 C 0.9693(5) 0.0421(4) 0.51419(15)
C106 C 0.1696(10) 0.3445(5) 1.07614(13)
C107 C 0.2987(9) 0.0572(5) 1.13966(16)
H58 H 0.15560 0.04110 1.13050
C108 C 1.0100(4) 0.0082(4) 0.47935(15)
H59 H 1.08410 -0.05380 0.47540
C109 C 0.8170(11) 0.0084(6) 0.35348(16)
C110 C 0.7865(15) 0.4099(8) 0.31053(16)
H60 H 0.77540 0.45960 0.29210
C111 C 0.3868(9) 0.1672(5) 1.16035(15)
C112 C -0.3060(9) 0.7951(5) 1.07279(14)
H61 H -0.37860 0.85680 1.06850
C113 C 1.3287(10) -0.1685(5) 0.39035(14)
H62 H 1.45430 -0.15910 0.37810
C114 C 0.2535(10) 0.4025(6) 1.27165(14)
C115 C 0.0947(11) 0.4647(6) 1.18019(15)
C116 C 0.2363(9) 0.2996(5) 1.20193(16)
C117 C 1.2267(11) -0.0689(5) 0.39481(14)
H63 H 1.28550 0.00750 0.38590
C118 C 0.5500(9) 0.2363(5) 1.0407(4)
H64 H 0.63270 0.31620 1.04760
C119 C 0.7520(12) 0.2148(6) 0.42926(14)
C120 C 0.8830(12) 0.2308(5) 0.49340(14)
H65 H 0.92150 0.31700 0.49790
C121 C 1.3049(11) -0.1212(5) 0.5441(3)
H66 H 1.37960 -0.04530 0.55530
C122 C 0.7262(11) 0.4144(6) 0.45661(13)
H67 H 0.86900 0.42740 0.46560
C123 C 0.8143(10) 0.3858(5) 0.37127(14)
H68 H 0.83100 0.42330 0.39400
C124 C 0.7058(10) 0.0946(7) 1.16595(16)
H69 H 0.84400 0.10400 1.17660
C125 C 0.9419(5) 0.0653(4) 0.45071(15)
C126 C -0.4140(11) 0.6730(7) 1.07899(19)
H70 H -0.55330 0.65550 1.08710
C127 C 0.2554(11) 0.2951(6) 1.10594(14)
H71 H 0.35730 0.24820 1.10250
C128 C 0.2161(9) 0.4708(5) 1.24304(14)
C129 C -0.2083(10) 0.5529(5) 1.20061(19)
H72 H -0.27330 0.47570 1.20850
C130 C 0.3097(13) 0.3770(6) 0.43164(18)
H73 H 0.16370 0.36060 0.42410
C131 C -0.3116(12) 0.5829(7) 1.07293(19)
H74 H -0.38440 0.50070 1.07550
C132 C 0.3710(14) 0.3272(7) 0.57417(17)
H75 H 0.23180 0.30760 0.58230
C133 C 1.0136(12) -0.2478(6) 0.5272(3)
H76 H 0.86280 -0.26990 0.52760
C134 C 0.3051(12) 0.3776(8) 1.33370(16)
H77 H 0.33540 0.41670 1.35620
C135 C 0.7729(11) 0.0818(6) 0.32674(16)
C136 C 0.2201(10) 0.0956(6) 1.22629(16)
H78 H 0.21290 0.05900 1.20360
C137 C 0.7671(12) -0.1623(7) 0.31086(16)
H79 H 0.76330 -0.24620 0.30650
C138 C 0.2161(14) 0.5948(6) 1.25156(19)
H80 H 0.18470 0.64280 1.23380
C139 C 0.4166(10) -0.0256(5) 1.13270(14)
H81 H 0.35410 -0.09810 1.11880
C140 C 0.7396(13) 0.1063(7) 0.26503(17)
H82 H 0.74070 0.07450 0.24200
C141 C 0.0716(10) 0.6813(5) 1.17278(17)
H83 H 0.19880 0.69450 1.16080
C142 C -0.092(1) 0.8149(5) 1.0736(3)
H84 H -0.00870 0.89670 1.07580
C143 C 0.2984(12) 0.5742(7) 1.3115(2)
H85 H 0.33790 0.61160 1.33400
C144 C 0.7861(12) 0.2606(6) 0.36661(14)
C145 C 1.0524(15) -0.2955(7) 0.4198(2)
H86 H 0.99150 -0.37180 0.42860
C146 C 0.4053(13) 0.4844(6) 0.45136(14)
H87 H 0.32670 0.54380 0.45610
C147 C 0.8514(11) 0.0678(6) 0.38858(15)
C148 C 0.4259(12) 0.2965(5) 0.42340(16)
H88 H 0.36510 0.22780 0.40790
C149 C 0.2599(11) 0.6477(5) 1.28449(18)
H89 H 0.26440 0.73160 1.28920
C150 C -0.2965(12) 0.6462(7) 1.2041(2)
H90 H -0.42710 0.63370 1.21510
C151 C 0.2128(10) 0.0239(5) 1.25245(16)
H91 H 0.19060 -0.06180 1.24790
C152 C 0.1914(13) 0.3146(6) 1.13997(18)
C153 C 0.7410(13) -0.0998(8) 0.28557(17)
H92 H 0.72740 -0.13490 0.26260
C154 C 0.8189(12) 0.4603(6) 0.34282(16)
H93 H 0.84510 0.54630 0.34690
C155 C 0.7909(14) 0.3756(6) 0.5606(3)
H94 H 0.93750 0.39730 0.55600
C156 C 0.7326(13) 0.0244(8) 0.29259(19)
C157 C 0.7680(12) 0.2801(7) 0.30334(15)
C158 C 0.249(1) 0.2742(6) 1.26515(15)
C159 C 1.2401(12) -0.2788(6) 0.40431(16)
H95 H 1.31170 -0.34280 0.40300
C160 C 0.0106(10) 0.7221(5) 1.0715(3)
H96 H 0.16020 0.73970 1.07640
C161 C 1.4130(11) -0.2149(6) 0.5409(3)
H97 H 1.55230 -0.20360 0.55130
C162 C 1.1217(14) -0.3423(6) 0.5205(3)
H98 H 1.04120 -0.42300 0.51390
C163 C 0.2879(13) 0.2584(7) 1.3295(2)
H99 H 0.29640 0.21130 1.34860
C164 C 0.4733(13) 0.2315(6) 0.56733(17)
H100 H 0.39700 0.14920 0.56890
C165 C 0.3238(11) 0.0004(7) 1.0274(2)
H101 H 0.24230 -0.08120 1.02810
C166 C 0.2382(11) 0.0751(5) 1.28744(17)
H102 H 0.24420 0.02650 1.30630
C167 C -0.0312(15) 0.4457(7) 1.11736(18)
H103 H -0.16040 0.46950 1.12050
C168 C 0.6542(12) 0.1441(6) 1.0345(4)
H104 H 0.80490 0.16010 1.03730
loop_
_geom_bond_atom_site_label_1
_geom_bond_atom_site_label_2
_geom_bond_distance
_geom_bond_site_symmetry_1
_geom_bond_site_symmetry_2
C1 C20 1.429 1_555 1_555
C2 C6 1.461 1_555 1_555
C3 C13 1.430 1_555 1_555
C4 C45 1.485 1_555 1_555
C5 C16 1.414 1_555 1_555
C6 C10 1.408 1_555 1_555
C7 C30 1.437 1_555 1_555
C8 C16 1.505 1_555 1_555
C9 C28 1.388 1_555 1_555
C10 C21 1.495 1_555 1_555
C11 C24 1.515 1_555 1_555
C12 C20 1.398 1_555 1_555
C13 C18 1.409 1_555 1_555
C14 C6 1.489 1_555 1_555
C15 C31 1.419 1_555 1_555
C16 C64 1.375 1_555 1_555
C17 C116 1.456 1_555 1_555
C18 C30 1.386 1_555 1_555
C19 H1 0.951 1_555 1_555
C20 H2 0.950 1_555 1_555
C21 C42 1.400 1_555 1_555
C22 C13 1.471 1_555 1_555
C23 C2 1.517 1_555 1_555
C24 C2 1.371 1_555 1_555
C25 C111 1.492 1_555 1_555
C26 C23 1.375 1_555 1_555
H3 C26 0.951 1_555 1_555
C27 H4 0.951 1_555 1_555
C28 C5 1.454 1_555 1_555
C29 H5 0.950 1_555 1_555
C30 C50 1.412 1_555 1_555
C31 C1 1.414 1_555 1_555
C32 C10 1.435 1_555 1_555
C33 C40 1.493 1_555 1_555
C34 C119 1.422 1_555 1_555
C35 H6 0.950 1_555 1_555
C36 C23 1.409 1_555 1_555
H7 C36 0.949 1_555 1_555
C37 C31 1.450 1_555 1_555
H8 C37 0.951 1_555 1_555
C38 H9 0.950 1_555 1_555
C39 C11 1.355 1_555 1_555
H10 C39 0.949 1_555 1_555
C40 C3 1.364 1_555 1_555
C41 H11 0.950 1_555 1_555
C42 H12 0.950 1_555 1_555
C43 C115 1.383 1_555 1_555
C44 C9 1.511 1_555 1_555
C45 C1 1.459 1_555 1_555
C46 C21 1.397 1_555 1_555
H13 C46 0.950 1_555 1_555
C47 C14 1.396 1_555 1_555
H14 C47 0.951 1_555 1_555
C48 C45 1.382 1_555 1_555
C49 H15 0.949 1_555 1_555
C50 C28 1.409 1_555 1_555
H16 C50 0.950 1_555 1_555
C51 C18 1.487 1_555 1_555
C52 C15 1.486 1_555 1_555
C53 C3 1.514 1_555 1_555
C54 H17 0.949 1_555 1_555
C55 C33 1.377 1_555 1_555
H18 C55 0.949 1_555 1_555
C56 C26 1.377 1_555 1_555
H19 C56 0.949 1_555 1_555
C57 C22 1.394 1_555 1_555
H20 C57 0.950 1_555 1_555
C58 C115 1.424 1_555 1_555
C59 C53 1.377 1_555 1_555
H21 C59 0.950 1_555 1_555
C60 C14 1.396 1_555 1_555
H22 C60 0.951 1_555 1_555
C61 H23 0.950 1_555 1_555
C62 H24 0.951 1_555 1_555
C63 H25 0.949 1_555 1_555
C64 C106 1.459 1_555 1_555
C65 C29 1.370 1_555 1_555
H26 C65 0.950 1_555 1_555
C66 C5 1.393 1_555 1_555
H27 C66 0.949 1_555 1_555
C67 C55 1.403 1_555 1_555
H28 C67 0.950 1_555 1_555
C68 C53 1.386 1_555 1_555
H29 C68 0.949 1_555 1_555
C69 H30 0.950 1_555 1_555
C70 C59 1.393 1_555 1_555
H31 C70 0.950 1_555 1_555
C71 C19 1.388 1_555 1_555
H32 C71 0.950 1_555 1_555
C72 H33 0.951 1_555 1_555
C73 C68 1.434 1_555 1_555
H34 C73 0.949 1_555 1_555
C74 C33 1.400 1_555 1_555
H35 C74 0.951 1_555 1_555
C75 C158 1.398 1_555 1_555
C76 C44 1.337 1_555 1_555
H36 C76 0.949 1_555 1_555
C77 H37 0.950 1_555 1_555
C78 C65 1.331 1_555 1_555
H38 C78 0.950 1_555 1_555
C79 C36 1.390 1_555 1_555
H39 C79 0.949 1_555 1_555
C80 C70 1.358 1_555 1_555
H40 C80 0.950 1_555 1_555
C81 C54 1.387 1_555 1_555
H41 C81 0.949 1_555 1_555
C82 C60 1.354 1_555 1_555
H42 C82 0.950 1_555 1_555
C83 C95 1.460 1_555 1_555
C84 H43 0.950 1_555 1_555
C85 C115 1.543 1_555 1_555
C86 C61 1.312 1_555 1_555
H44 C86 0.950 1_555 1_555
C87 C47 1.373 1_555 1_555
H45 C87 0.950 1_555 1_555
C88 C27 1.376 1_555 1_555
H46 C88 0.949 1_555 1_555
C89 C67 1.367 1_555 1_555
H47 C89 0.950 1_555 1_555
C90 H48 0.949 1_555 1_555
C91 H49 0.950 1_555 1_555
C92 C42 1.376 1_555 1_555
H50 C92 0.950 1_555 1_555
C93 C11 1.412 1_555 1_555
H51 C93 0.950 1_555 1_555
C94 C135 1.414 1_555 1_555
C95 C90 1.385 1_555 1_555
C96 C119 1.399 1_555 1_555
C97 C46 1.403 1_555 1_555
H52 C97 0.951 1_555 1_555
C98 H53 0.950 1_555 1_555
C99 C119 1.493 1_555 1_555
C100 C114 1.388 1_555 1_555
C101 C35 1.389 1_555 1_555
H54 C101 0.950 1_555 1_555
C102 H55 0.950 1_555 1_555
C103 H56 0.951 1_555 1_555
C104 C102 1.342 1_555 1_555
H57 C104 0.951 1_555 1_555
C105 C15 1.397 1_555 1_555
C106 C9 1.364 1_555 1_555
C107 H58 0.950 1_555 1_555
C108 C105 1.445 1_555 1_555
H59 C108 0.950 1_555 1_555
C109 C84 1.350 1_555 1_555
C110 H60 0.950 1_555 1_555
C111 C41 1.350 1_555 1_555
C112 H61 0.950 1_555 1_555
C113 H62 0.950 1_555 1_555
C114 C128 1.440 1_555 1_555
C116 C25 1.423 1_555 1_555
C117 C95 1.403 1_555 1_555
H63 C117 0.950 1_555 1_555
C118 C44 1.355 1_555 1_555
H64 C118 0.951 1_555 1_555
C120 C34 1.574 1_555 1_555
H65 C120 0.951 1_555 1_555
C121 C52 1.278 1_555 1_555
H66 C121 0.949 1_555 1_555
C122 C38 1.412 1_555 1_555
H67 C122 0.949 1_555 1_555
C123 H68 0.951 1_555 1_555
C124 C41 1.425 1_555 1_555
H69 C124 0.950 1_555 1_555
C125 C34 1.437 1_555 1_555
C126 C112 1.431 1_555 1_555
H70 C126 0.950 1_555 1_555
C127 C106 1.465 1_555 1_555
H71 C127 0.951 1_555 1_555
C128 C43 1.467 1_555 1_555
C129 C85 1.429 1_555 1_555
H72 C129 0.950 1_555 1_555
C130 H73 0.949 1_555 1_555
C131 C8 1.442 1_555 1_555
H74 C131 0.950 1_555 1_555
C132 C102 1.321 1_555 1_555
H75 C132 0.950 1_555 1_555
C133 C52 1.316 1_555 1_555
H76 C133 0.950 1_555 1_555
C134 C100 1.425 1_555 1_555
H77 C134 0.951 1_555 1_555
C135 C109 1.433 1_555 1_555
C136 C17 1.408 1_555 1_555
H78 C136 0.950 1_555 1_555
C137 C84 1.407 1_555 1_555
H79 C137 0.949 1_555 1_555
C138 C128 1.423 1_555 1_555
H80 C138 0.950 1_555 1_555
C139 C62 1.322 1_555 1_555
H81 C139 0.949 1_555 1_555
C140 C98 1.375 1_555 1_555
H82 C140 0.950 1_555 1_555
C141 C85 1.330 1_555 1_555
H83 C141 0.951 1_555 1_555
C142 C112 1.349 1_555 1_555
H84 C142 0.950 1_555 1_555
C143 C100 1.398 1_555 1_555
H85 C143 0.949 1_555 1_555
C144 C94 1.420 1_555 1_555
C145 C90 1.375 1_555 1_555
H86 C145 0.950 1_555 1_555
C146 C38 1.382 1_555 1_555
H87 C146 0.951 1_555 1_555
C147 C83 1.439 1_555 1_555
C148 C99 1.438 1_555 1_555
H88 C148 0.950 1_555 1_555
C149 C138 1.374 1_555 1_555
H89 C149 0.950 1_555 1_555
C150 C61 1.408 1_555 1_555
H90 C150 0.950 1_555 1_555
C151 C136 1.337 1_555 1_555
H91 C151 0.951 1_555 1_555
C152 C25 1.385 1_555 1_555
C153 C137 1.277 1_555 1_555
H92 C153 0.951 1_555 1_555
C154 C110 1.340 1_555 1_555
H93 C154 0.950 1_555 1_555
C155 C4 1.393 1_555 1_555
H94 C155 0.951 1_555 1_555
C156 C135 1.434 1_555 1_555
C157 C94 1.460 1_555 1_555
C158 C17 1.441 1_555 1_555
C159 C113 1.396 1_555 1_555
H95 C159 0.950 1_555 1_555
C160 C8 1.317 1_555 1_555
H96 C160 0.950 1_555 1_555
C161 C103 1.346 1_555 1_555
H97 C161 0.950 1_555 1_555
C162 C103 1.232 1_555 1_555
H98 C162 0.951 1_555 1_555
C163 C75 1.561 1_555 1_555
H99 C163 0.949 1_555 1_555
C164 C4 1.309 1_555 1_555
H100 C164 0.951 1_555 1_555
C165 C76 1.387 1_555 1_555
H101 C165 0.950 1_555 1_555
C166 C75 1.375 1_555 1_555
H102 C166 0.950 1_555 1_555
C167 C58 1.472 1_555 1_555
H103 C167 0.950 1_555 1_555
C168 C91 1.380 1_555 1_555
H104 C168 0.950 1_555 1_555
C7 C40 1.427 1_555 1_555
C7 C66 1.443 1_555 1_555
C12 C24 1.459 1_555 1_555
C12 C32 1.428 1_555 1_555
C19 C22 1.398 1_555 1_555
C27 C51 1.373 1_555 1_555
C29 C39 1.403 1_555 1_555
C32 C37 1.361 1_555 1_555
C35 C51 1.415 1_555 1_555
C43 C116 1.461 1_555 1_555
C48 C105 1.409 1_555 1_555
C48 C120 1.553 1_555 1_555
C49 C56 1.384 1_555 1_555
C49 C79 1.393 1_555 1_555
C54 C71 1.383 1_555 1_555
C57 C81 1.365 1_555 1_555
C58 C152 1.416 1_555 1_555
C62 C124 1.357 1_555 1_555
C63 C88 1.403 1_555 1_555
C63 C101 1.391 1_555 1_555
C64 C167 1.485 1_555 1_555
C69 C74 1.373 1_555 1_555
C69 C89 1.402 1_555 1_555
C72 C92 1.409 1_555 1_555
C72 C97 1.349 1_555 1_555
C73 C80 1.375 1_555 1_555
C77 C82 1.384 1_555 1_555
C77 C87 1.413 1_555 1_555
C78 C93 1.405 1_555 1_555
C83 C125 1.413 1_555 1_555
C86 C141 1.387 1_555 1_555
C91 C165 1.332 1_555 1_555
C96 C144 1.509 1_555 1_555
C96 C147 1.425 1_555 1_555
C98 C157 1.348 1_555 1_555
C99 C122 1.318 1_555 1_555
C104 C155 1.431 1_555 1_555
C107 C111 1.424 1_555 1_555
C107 C139 1.367 1_555 1_555
C108 C125 1.429 1_555 1_555
C109 C147 1.474 1_555 1_555
C110 C157 1.455 1_555 1_555
C113 C117 1.443 1_555 1_555
C114 C158 1.453 1_555 1_555
C118 C168 1.388 1_555 1_555
C121 C161 1.407 1_555 1_555
C123 C144 1.385 1_555 1_555
C123 C154 1.431 1_555 1_555
C126 C131 1.359 1_555 1_555
C127 C152 1.431 1_555 1_555
C129 C150 1.319 1_555 1_555
C130 C146 1.393 1_555 1_555
C130 C148 1.348 1_555 1_555
C132 C164 1.418 1_555 1_555
C133 C162 1.431 1_555 1_555
C134 C163 1.327 1_555 1_555
C140 C156 1.457 1_555 1_555
C142 C160 1.372 1_555 1_555
C143 C149 1.431 1_555 1_555
C145 C159 1.360 1_555 1_555
C151 C166 1.439 1_555 1_555
C153 C156 1.431 1_555 1_555
#END
