
#######################################################################
#
#                 Cambridge Crystallographic Data Centre
#                                CCDC
#
#######################################################################
#
# If this CIF has been generated from an entry in the Cambridge
# Structural Database, then it will include bibliographic, chemical,
# crystal, experimental, refinement or atomic coordinate data resulting
# from the CCDC's data processing and validation procedures.
#
#######################################################################

data_CSD_CIF_TBUNAP
_audit_creation_date 1977-12-13
_audit_creation_method CSD-ConQuest-V1
_database_code_CSD TBUNAP
_chemical_formula_sum 'C26 H40'
_chemical_formula_moiety
;
C26 H40
;
_journal_coden_Cambridge 4
_journal_volume 99
_journal_year 1977
_journal_page_first 3345
_journal_name_full 'J.Am.Chem.Soc. '
loop_
_publ_author_name
"J.Handal"
"J.G.White"
"R.W.Franck"
"Y.H.Yuh"
"N.L.Allinger"
_chemical_name_systematic
;
1,3,6,8-Tetra-t-butylnaphthalene
;
_cell_volume   1174.180
_exptl_crystal_density_diffrn 0.999
_diffrn_ambient_temperature ?
_diffrn_special_details
;
The study was carried out at room temperature,in the range 283-303K

;
#These two values have been output from a single CSD field.
_refine_ls_R_factor_gt 0.057
_refine_ls_wR_factor_gt 0.057
_symmetry_cell_setting triclinic
_symmetry_space_group_name_H-M 'P -1'
_symmetry_Int_Tables_number 2
loop_
_symmetry_equiv_pos_site_id
_symmetry_equiv_pos_as_xyz
1 x,y,z
2 -x,-y,-z
_cell_length_a 9.886(3)
_cell_length_b 10.437(3)
_cell_length_c 12.125(4)
_cell_angle_alpha 82.48(3)
_cell_angle_beta 85.63(3)
_cell_angle_gamma 71.32(3)
_cell_formula_units_Z 2
loop_
_atom_type_symbol
_atom_type_radius_bond
C 0.68
H 0.23
loop_
_atom_site_label
_atom_site_type_symbol
_atom_site_fract_x
_atom_site_fract_y
_atom_site_fract_z
C1 C -0.15160 0.02310 -0.21340
C2 C -0.24720 0.11700 -0.15220
C3 C -0.39540 0.13420 -0.13940
C4 C -0.44550 0.05940 -0.20040
C5 C -0.41190 -0.11530 -0.32430
C6 C -0.32820 -0.21880 -0.38060
C7 C -0.18220 -0.26950 -0.35270
C8 C -0.11990 -0.21310 -0.28240
C9 C -0.20070 -0.08060 -0.25080
C10 C -0.35240 -0.04580 -0.25830
C11 C -0.38430 -0.28960 -0.46020
C12 C -0.54450 -0.22170 -0.47930
C13 C -0.35200 -0.43950 -0.41970
C14 C -0.30540 -0.27500 -0.57500
C15 C -0.49120 0.24450 -0.07160
C16 C -0.64480 0.23810 -0.05890
C17 C -0.49430 0.38370 -0.13110
C18 C -0.43270 0.22570 0.04460
C19 C -0.02070 0.06600 -0.26350
C20 C 0.08140 -0.03110 -0.34030
C21 C 0.06650 0.09310 -0.17560
C22 C -0.08600 0.19930 -0.33890
C23 C 0.01150 -0.31560 -0.22160
C24 C 0.05640 -0.26080 -0.12380
C25 C -0.03620 -0.43800 -0.16770
C26 C 0.13900 -0.37340 -0.30200
H1 H -0.21100 0.18700 -0.12900
H2 H -0.55000 0.07400 -0.20800
H3 H -0.51600 -0.08500 -0.32800
H4 H -0.12600 -0.36100 -0.37900
H5 H -0.58100 -0.25500 -0.39700
H6 H -0.57800 -0.27200 -0.53600
H7 H -0.57000 -0.11600 -0.50500
H8 H -0.41800 -0.43000 -0.34900
H9 H -0.23800 -0.48900 -0.41200
H10 H -0.38100 -0.48500 -0.47600
H11 H -0.33600 -0.32400 -0.62900
H12 H -0.31900 -0.16000 -0.60000
H13 H -0.19800 -0.33600 -0.56100
H14 H -0.69900 0.25600 -0.13700
H15 H -0.65000 0.14300 -0.01800
H16 H -0.70600 0.31600 -0.01200
H17 H -0.39300 0.39100 -0.12700
H18 H -0.52300 0.39300 -0.21300
H19 H -0.55300 0.45800 -0.09000
H20 H -0.49400 0.29700 0.09200
H21 H -0.33700 0.25000 0.03800
H22 H -0.42900 0.12900 0.08400
H23 H 0.03000 -0.06300 -0.39700
H24 H 0.14800 -0.12600 -0.29200
H25 H 0.13100 0.03200 -0.38800
H26 H 0.00600 0.17100 -0.12700
H27 H 0.14300 0.12900 -0.21400
H28 H 0.09700 0.01500 -0.12300
H29 H -0.14800 0.16700 -0.40200
H30 H -0.01800 0.23700 -0.37900
H31 H -0.14600 0.27600 -0.28600
H32 H -0.02800 -0.23400 -0.06600
H33 H 0.12900 -0.34200 -0.07600
H34 H 0.09400 -0.16900 -0.15100
H35 H -0.12800 -0.40400 -0.11300
H36 H -0.05300 -0.49000 -0.22800
H37 H 0.04800 -0.51100 -0.11300
H38 H 0.11100 -0.41500 -0.36800
H39 H 0.17700 -0.29400 -0.34300
H40 H 0.21900 -0.44900 -0.26200
loop_
_geom_bond_atom_site_label_1
_geom_bond_atom_site_label_2
_geom_bond_distance
_geom_bond_site_symmetry_1
_geom_bond_site_symmetry_2
C1 C2 1.376 1_555 1_555
C2 C3 1.417 1_555 1_555
C3 C4 1.363 1_555 1_555
C4 C10 1.415 1_555 1_555
C5 C6 1.361 1_555 1_555
C6 C7 1.420 1_555 1_555
C7 C8 1.377 1_555 1_555
C8 C9 1.443 1_555 1_555
C9 C1 1.453 1_555 1_555
C10 C5 1.418 1_555 1_555
C11 C6 1.522 1_555 1_555
C12 C11 1.536 1_555 1_555
C13 C11 1.514 1_555 1_555
C14 C11 1.557 1_555 1_555
C15 C3 1.526 1_555 1_555
C16 C15 1.536 1_555 1_555
C17 C15 1.527 1_555 1_555
C18 C15 1.529 1_555 1_555
C19 C1 1.557 1_555 1_555
C20 C19 1.537 1_555 1_555
C21 C19 1.528 1_555 1_555
C22 C19 1.539 1_555 1_555
C23 C8 1.557 1_555 1_555
C24 C23 1.533 1_555 1_555
C25 C23 1.550 1_555 1_555
C26 C23 1.544 1_555 1_555
H1 C2 0.989 1_555 1_555
H2 C4 1.004 1_555 1_555
H3 C5 0.978 1_555 1_555
H4 C7 1.017 1_555 1_555
H5 C12 1.087 1_555 1_555
H6 C12 1.048 1_555 1_555
H7 C12 1.059 1_555 1_555
H8 C13 1.032 1_555 1_555
H9 C13 1.085 1_555 1_555
H10 C13 0.988 1_555 1_555
H11 C14 0.999 1_555 1_555
H12 C14 1.165 1_555 1_555
H13 C14 1.062 1_555 1_555
H14 C16 1.089 1_555 1_555
H15 C16 1.065 1_555 1_555
H16 C16 1.051 1_555 1_555
H17 C17 1.034 1_555 1_555
H18 C17 1.037 1_555 1_555
H19 C17 0.977 1_555 1_555
H20 C18 1.011 1_555 1_555
H21 C18 1.050 1_555 1_555
H22 C18 1.049 1_555 1_555
H23 C20 1.031 1_555 1_555
H24 C20 1.117 1_555 1_555
H25 C20 1.036 1_555 1_555
H26 C21 1.061 1_555 1_555
H27 C21 1.006 1_555 1_555
H28 C21 0.948 1_555 1_555
H29 C22 1.160 1_555 1_555
H30 C22 0.955 1_555 1_555
H31 C22 1.085 1_555 1_555
H32 C24 1.038 1_555 1_555
H33 C24 1.056 1_555 1_555
H34 C24 1.137 1_555 1_555
H35 C25 1.074 1_555 1_555
H36 C25 1.018 1_555 1_555
H37 C25 1.122 1_555 1_555
H38 C26 1.052 1_555 1_555
H39 C26 1.067 1_555 1_555
H40 C26 1.021 1_555 1_555
C9 C10 1.433 1_555 1_555
#END
