
#######################################################################
#
#                 Cambridge Crystallographic Data Centre
#                                CCDC
#
#######################################################################
#
# If this CIF has been generated from an entry in the Cambridge
# Structural Database, then it will include bibliographic, chemical,
# crystal, experimental, refinement or atomic coordinate data resulting
# from the CCDC's data processing and validation procedures.
#
#######################################################################

data_CSD_CIF_TBZHCE
_audit_creation_date 1980-03-07
_audit_creation_method CSD-ConQuest-V1
_database_code_CSD TBZHCE
_chemical_formula_sum 'C42 H22'
_chemical_formula_moiety
;
C42 H22
;
_journal_coeditor_code "IUCr A17862"
_journal_coden_Cambridge 107
_journal_volume 35
_journal_year 1979
_journal_page_first 2419
_journal_name_full 'Acta Crystallogr.,Sect.B:Struct.Crystallogr.Cryst.Chem. '
loop_
_publ_author_name
"G.Ferguson"
"M.Parvez"
_chemical_name_systematic
;
Tetrabenzo(de,no,st,c~1~d~1~)heptacene
;
_cell_volume   2447.373
_exptl_crystal_colour 'dark red'
_exptl_crystal_density_diffrn 1.43
_diffrn_ambient_temperature ?
_diffrn_special_details
;
The study was carried out at room temperature,in the range 283-303K

;
#These two values have been output from a single CSD field.
_refine_ls_R_factor_gt 0.079
_refine_ls_wR_factor_gt 0.079
_symmetry_cell_setting monoclinic
_symmetry_space_group_name_H-M 'P 21/n'
_symmetry_Int_Tables_number 14
loop_
_symmetry_equiv_pos_site_id
_symmetry_equiv_pos_as_xyz
1 x,y,z
2 1/2-x,1/2+y,1/2-z
3 -x,-y,-z
4 -1/2+x,-1/2-y,-1/2+z
_cell_length_a 24.613(14)
_cell_length_b 3.860(2)
_cell_length_c 25.895(17)
_cell_angle_alpha 90
_cell_angle_beta 95.85(6)
_cell_angle_gamma 90
_cell_formula_units_Z 4
loop_
_atom_type_symbol
_atom_type_radius_bond
C 0.68
H 0.23
loop_
_atom_site_label
_atom_site_type_symbol
_atom_site_fract_x
_atom_site_fract_y
_atom_site_fract_z
C1 C 0.49240 0.04200 0.69820
C2 C 0.44180 -0.07000 0.70870
C3 C 0.42690 -0.07200 0.75890
C4 C 0.46240 0.03400 0.80100
C5 C 0.51300 0.15300 0.78990
C6 C 0.52880 0.17100 0.73940
C7 C 0.60130 0.40600 0.82450
C8 C 0.55150 0.28400 0.83210
C9 C 0.66970 0.54900 0.76350
C10 C 0.68530 0.56500 0.71380
C11 C 0.64960 0.45200 0.67240
C12 C 0.59780 0.32400 0.67860
C13 C 0.55910 0.20800 0.63450
C14 C 0.50730 0.06100 0.64460
C15 C 0.47420 -0.06100 0.60290
C16 C 0.48580 -0.03200 0.54940
C17 C 0.53710 0.11500 0.54160
C18 C 0.57030 0.23800 0.58430
C19 C 0.45100 -0.16400 0.50920
C20 C 0.18790 -0.27100 0.59940
C21 C 0.18490 -0.20900 0.65180
C22 C 0.23050 -0.25000 0.68680
C23 C 0.27670 -0.39000 0.67290
C24 C 0.28160 -0.48700 0.62000
C25 C 0.23660 -0.40800 0.58310
C26 C 0.23990 -0.50800 0.53000
C27 C 0.28860 -0.64900 0.51710
C28 C 0.33470 -0.70600 0.55270
C29 C 0.33090 -0.62700 0.60260
C30 C 0.29120 -0.74900 0.46240
C31 C 0.24950 -0.70500 0.42600
C32 C 0.19880 -0.56500 0.44010
C33 C 0.19560 -0.47900 0.49180
C34 C 0.14310 -0.33300 0.50570
C35 C 0.14100 -0.21800 0.55990
C36 C 0.09360 -0.06900 0.57190
C37 C 0.04590 -0.03000 0.53620
C38 C 0.04760 -0.16000 0.48470
C39 C 0.09820 -0.29500 0.47210
C40 C -0.00290 0.12000 0.55000
H1 H 0.41620 -0.14600 0.68100
H2 H 0.39150 -0.15100 0.76480
H3 H 0.45210 0.02800 0.83530
H4 H 0.62560 0.48200 0.85300
H5 H 0.54120 0.28300 0.86640
H6 H 0.69440 0.62600 0.79180
H7 H 0.72030 0.65100 0.70780
H8 H 0.66050 0.46300 0.63830
H9 H 0.44110 -0.17200 0.60940
H10 H 0.60350 0.34900 0.57790
H11 H 0.41880 -0.29300 0.51760
H12 H 0.15140 -0.13600 0.66350
H13 H 0.22890 -0.17700 0.72160
H14 H 0.30670 -0.42600 0.69850
H15 H 0.36770 -0.79500 0.54190
H16 H 0.36130 -0.66700 0.62750
H17 H 0.32380 -0.85000 0.45280
H18 H 0.25320 -0.76700 0.39100
H19 H 0.16880 -0.52700 0.41470
H20 H 0.09240 0.01700 0.60620
H21 H 0.10050 -0.36500 0.43720
H22 H -0.00510 0.19500 0.58460
C41 C 0.58130 0.29600 0.73110
C42 C 0.61830 0.42300 0.77280
C19B C 0.54900 0.16400 0.49080
C17B C 0.46290 -0.11500 0.45840
C16B C 0.51420 0.03200 0.45060
H11B H 0.58120 0.29300 0.48240
C18B C 0.42970 -0.23800 0.41570
C15B C 0.52580 0.06100 0.39710
C13B C 0.44090 -0.20800 0.36550
H10B H 0.39650 -0.34900 0.42210
C14B C 0.49270 -0.06100 0.35540
H9B H 0.55890 0.17200 0.39060
C12B C 0.40220 -0.32400 0.32140
C1B C 0.50760 -0.04200 0.30180
C11B C 0.35040 -0.45200 0.32760
C41B C 0.41870 -0.29600 0.26890
C2B C 0.55820 0.07000 0.29130
C6B C 0.47120 -0.17100 0.26060
C10B C 0.31470 -0.56500 0.28620
H8B H 0.33950 -0.46300 0.36170
C42B C 0.38170 -0.42300 0.22720
C3B C 0.57310 0.07200 0.24110
H1B H 0.58380 0.14600 0.31900
C5B C 0.48700 -0.15300 0.21010
C9B C 0.33030 -0.54900 0.23650
H7B H 0.27970 -0.65100 0.29220
C7B C 0.39870 -0.40600 0.17550
C4B C 0.53760 -0.03400 0.19900
H2B H 0.60850 0.15100 0.23520
C8B C 0.44850 -0.28400 0.16790
H6B H 0.30560 -0.62600 0.20820
H4B H 0.37440 -0.48200 0.14700
H3B H 0.54790 -0.02800 0.16470
H5B H 0.45880 -0.28300 0.13360
C40B C 0.00290 -0.12000 0.45000
C38B C -0.04760 0.16000 0.51530
C37B C -0.04590 0.03000 0.46380
H22B H 0.00510 -0.19500 0.41540
C39B C -0.09820 0.29500 0.52790
C36B C -0.09360 0.06900 0.42810
C34B C -0.14310 0.33300 0.49430
H21B H -0.10050 0.36500 0.56280
C35B C -0.14100 0.21800 0.44010
H20B H -0.09240 -0.01700 0.39380
C33B C -0.19560 0.47900 0.50820
C20B C -0.18790 0.27100 0.40060
C26B C -0.23990 0.50800 0.47000
C32B C -0.19880 0.56500 0.55990
C21B C -0.18490 0.20900 0.34820
C25B C -0.23660 0.40800 0.41690
C27B C -0.28860 0.64900 0.48290
C31B C -0.24950 0.70500 0.57400
H19B H -0.16880 0.52700 0.58530
C22B C -0.23050 0.25000 0.31320
H12B H -0.15140 0.13600 0.33650
C24B C -0.28160 0.48700 0.38000
C28B C -0.33470 0.70600 0.44730
C30B C -0.29120 0.74900 0.53760
H18B H -0.25320 0.76700 0.60900
C23B C -0.27670 0.39000 0.32710
H13B H -0.22890 0.17700 0.27840
C29B C -0.33090 0.62700 0.39740
H15B H -0.36770 0.79500 0.45810
H17B H -0.32380 0.85000 0.54720
H14B H -0.30670 0.42600 0.30150
H16B H -0.36130 0.66700 0.37250
loop_
_geom_bond_atom_site_label_1
_geom_bond_atom_site_label_2
_geom_bond_distance
_geom_bond_site_symmetry_1
_geom_bond_site_symmetry_2
C1 C2 1.371 1_555 1_555
C2 C3 1.386 1_555 1_555
C3 C4 1.388 1_555 1_555
C4 C5 1.385 1_555 1_555
C5 C6 1.403 1_555 1_555
C6 C1 1.412 1_555 1_555
C7 C8 1.346 1_555 1_555
C8 C5 1.462 1_555 1_555
C9 C10 1.381 1_555 1_555
C10 C11 1.386 1_555 1_555
C11 C12 1.392 1_555 1_555
C12 C13 1.480 1_555 1_555
C13 C14 1.444 1_555 1_555
C14 C1 1.473 1_555 1_555
C15 C14 1.368 1_555 1_555
C16 C15 1.447 1_555 1_555
C17 C16 1.417 1_555 1_555
C18 C13 1.361 1_555 1_555
C19 C16 1.377 1_555 1_555
C20 C21 1.387 1_555 1_555
C21 C22 1.378 1_555 1_555
C22 C23 1.341 1_555 1_555
C23 C24 1.437 1_555 1_555
C24 C25 1.420 1_555 1_555
C25 C20 1.413 1_555 1_555
C26 C25 1.438 1_555 1_555
C27 C26 1.388 1_555 1_555
C28 C27 1.404 1_555 1_555
C29 C24 1.442 1_555 1_555
C30 C27 1.476 1_555 1_555
C31 C30 1.332 1_555 1_555
C32 C31 1.441 1_555 1_555
C33 C26 1.400 1_555 1_555
C34 C33 1.487 1_555 1_555
C35 C20 1.476 1_555 1_555
C36 C35 1.365 1_555 1_555
C37 C36 1.426 1_555 1_555
C38 C37 1.429 1_555 1_555
C39 C34 1.343 1_555 1_555
C40 C37 1.412 1_555 1_555
H1 C2 0.952 1_555 1_555
H2 C3 0.950 1_555 1_555
H3 C4 0.948 1_555 1_555
H4 C7 0.948 1_555 1_555
H5 C8 0.948 1_555 1_555
H6 C9 0.951 1_555 1_555
H7 C10 0.951 1_555 1_555
H8 C11 0.950 1_555 1_555
H9 C15 0.951 1_555 1_555
H10 C18 0.952 1_555 1_555
H11 C19 0.979 1_555 1_555
H12 C21 0.950 1_555 1_555
H13 C22 0.949 1_555 1_555
H14 C23 0.951 1_555 1_555
H15 C28 0.950 1_555 1_555
H16 C29 0.949 1_555 1_555
H17 C30 0.948 1_555 1_555
H18 C31 0.951 1_555 1_555
H19 C32 0.949 1_555 1_555
H20 C36 0.951 1_555 1_555
H21 C39 0.950 1_555 1_555
H22 C40 0.948 1_555 1_555
C41 C6 1.416 1_555 1_555
C42 C7 1.444 1_555 1_555
C19B C17 1.389 1_555 1_555
C17B C19 1.389 1_555 1_555
C16B C19B 1.377 1_555 1_555
H11B C19B 0.979 1_555 1_555
C18B C17B 1.390 1_555 1_555
C15B C16B 1.447 1_555 1_555
C13B C18B 1.361 1_555 1_555
H10B C18B 0.952 1_555 1_555
C14B C15B 1.368 1_555 1_555
H9B C15B 0.951 1_555 1_555
C12B C13B 1.480 1_555 1_555
C1B C14B 1.473 1_555 1_555
C11B C12B 1.392 1_555 1_555
C41B C12B 1.462 1_555 1_555
C2B C1B 1.371 1_555 1_555
C6B C1B 1.412 1_555 1_555
C10B C11B 1.386 1_555 1_555
H8B C11B 0.950 1_555 1_555
C42B C41B 1.427 1_555 1_555
C3B C2B 1.386 1_555 1_555
H1B C2B 0.952 1_555 1_555
C5B C6B 1.403 1_555 1_555
C9B C10B 1.381 1_555 1_555
H7B C10B 0.951 1_555 1_555
C7B C42B 1.444 1_555 1_555
C4B C3B 1.388 1_555 1_555
H2B C3B 0.950 1_555 1_555
C8B C5B 1.462 1_555 1_555
H6B C9B 0.951 1_555 1_555
H4B C7B 0.948 1_555 1_555
H3B C4B 0.948 1_555 1_555
H5B C8B 0.948 1_555 1_555
C40B C38 1.357 1_555 1_555
C38B C40 1.357 1_555 1_555
C37B C40B 1.412 1_555 1_555
H22B C40B 0.948 1_555 1_555
C39B C38B 1.418 1_555 1_555
C36B C37B 1.426 1_555 1_555
C34B C39B 1.343 1_555 1_555
H21B C39B 0.950 1_555 1_555
C35B C36B 1.365 1_555 1_555
H20B C36B 0.951 1_555 1_555
C33B C34B 1.487 1_555 1_555
C20B C35B 1.476 1_555 1_555
C26B C33B 1.400 1_555 1_555
C32B C33B 1.389 1_555 1_555
C21B C20B 1.387 1_555 1_555
C25B C20B 1.413 1_555 1_555
C27B C26B 1.388 1_555 1_555
C31B C32B 1.441 1_555 1_555
H19B C32B 0.949 1_555 1_555
C22B C21B 1.378 1_555 1_555
H12B C21B 0.950 1_555 1_555
C24B C25B 1.420 1_555 1_555
C28B C27B 1.404 1_555 1_555
C30B C27B 1.476 1_555 1_555
H18B C31B 0.951 1_555 1_555
C23B C22B 1.341 1_555 1_555
H13B C22B 0.949 1_555 1_555
C29B C24B 1.442 1_555 1_555
H15B C28B 0.950 1_555 1_555
H17B C30B 0.948 1_555 1_555
H14B C23B 0.951 1_555 1_555
H16B C29B 0.949 1_555 1_555
C9 C42 1.399 1_555 1_555
C12 C41 1.462 1_555 1_555
C17 C18 1.390 1_555 1_555
C28 C29 1.340 1_555 1_555
C32 C33 1.389 1_555 1_555
C34 C35 1.478 1_555 1_555
C38 C39 1.418 1_555 1_555
C41 C42 1.427 1_555 1_555
C17B C16B 1.417 1_555 1_555
C13B C14B 1.444 1_555 1_555
C41B C6B 1.416 1_555 1_555
C42B C9B 1.399 1_555 1_555
C5B C4B 1.385 1_555 1_555
C7B C8B 1.346 1_555 1_555
C38B C37B 1.429 1_555 1_555
C34B C35B 1.478 1_555 1_555
C26B C25B 1.438 1_555 1_555
C31B C30B 1.332 1_555 1_555
C24B C23B 1.437 1_555 1_555
C28B C29B 1.340 1_555 1_555
#END
