
#######################################################################
#
#                 Cambridge Crystallographic Data Centre
#                                CCDC
#
#######################################################################
#
# If this CIF has been generated from an entry in the Cambridge
# Structural Database, then it will include bibliographic, chemical,
# crystal, experimental, refinement or atomic coordinate data resulting
# from the CCDC's data processing and validation procedures.
#
#######################################################################

data_CSD_CIF_TBZPYR
_audit_creation_date 1977-10-06
_audit_creation_method CSD-ConQuest-V1
_database_code_CSD TBZPYR
_chemical_formula_sum 'C28 H16'
_chemical_formula_moiety
;
C28 H16
;
_journal_coeditor_code "IUCr A14606"
_journal_coden_Cambridge 107
_journal_volume 33
_journal_year 1977
_journal_page_first 1244
_journal_name_full 'Acta Crystallogr.,Sect.B:Struct.Crystallogr.Cryst.Chem. '
loop_
_publ_author_name
"P.J.Roberts"
"G.Ferguson"
_chemical_name_systematic
;
\b-Tribenzopyrene
;
_chemical_name_common
;
Naphtho(1,2,3,4-rst)pentaphene
;
_cell_volume    848.946
_exptl_crystal_density_diffrn 1.38
_diffrn_ambient_temperature ?
_diffrn_special_details
;
The study was carried out at room temperature,in the range 283-303K

;
#These two values have been output from a single CSD field.
_refine_ls_R_factor_gt 0.046
_refine_ls_wR_factor_gt 0.046
_symmetry_cell_setting orthorhombic
_symmetry_space_group_name_H-M 'P n 21 m'
_symmetry_Int_Tables_number 31
loop_
_symmetry_equiv_pos_site_id
_symmetry_equiv_pos_as_xyz
1 x,y,z
2 -x,1/2+y,1/2+z
3 x,y,-z
4 -x,1/2+y,1/2-z
_cell_length_a 4.0260(5)
_cell_length_b 10.693(2)
_cell_length_c 19.720(4)
_cell_angle_alpha 90
_cell_angle_beta 90
_cell_angle_gamma 90
_cell_formula_units_Z 2
loop_
_atom_type_symbol
_atom_type_radius_bond
C 0.68
H 0.23
loop_
_atom_site_label
_atom_site_type_symbol
_atom_site_fract_x
_atom_site_fract_y
_atom_site_fract_z
C1 C 0.16100 0.16600 0.46500
C2 C 0.16900 0.27800 0.43000
C3 C 0.18100 0.39500 0.46400
C4 C 0.15100 0.51300 0.42600
C5 C 0.02200 0.61400 0.46300
C6 C -0.09200 0.72400 0.42900
C7 C -0.23700 0.82400 0.46600
C8 C -0.06700 0.72900 0.36000
C9 C 0.10000 0.63600 0.32300
C10 C 0.23300 0.52600 0.35500
C11 C 0.16000 0.65100 0.25200
C12 C 0.34100 0.56800 0.21700
C13 C 0.48000 0.46500 0.25000
C14 C 0.43300 0.44400 0.31700
H1 H 0.15600 0.08500 0.44000
H2 H 0.16600 0.27700 0.38000
H3 H -0.34000 0.89500 0.44100
H4 H -0.17100 0.80000 0.33500
H5 H 0.06500 0.72600 0.22800
H6 H 0.37600 0.57900 0.16700
H7 H 0.61900 0.40500 0.22300
H8 H 0.54000 0.37000 0.33900
C1B C 0.16100 0.16600 0.53500
C3B C 0.18100 0.39500 0.53600
C5B C 0.02200 0.61400 0.53700
C7B C -0.23700 0.82400 0.53400
C2B C 0.16900 0.27800 0.57000
H1B H 0.15600 0.08500 0.56000
C4B C 0.15100 0.51300 0.57400
C6B C -0.09200 0.72400 0.57100
H3B H -0.34000 0.89500 0.55900
H2B H 0.16600 0.27700 0.62000
C10B C 0.23300 0.52600 0.64500
C8B C -0.06700 0.72900 0.64000
C9B C 0.10000 0.63600 0.67700
C14B C 0.43300 0.44400 0.68300
H4B H -0.17100 0.80000 0.66500
C11B C 0.16000 0.65100 0.74800
C13B C 0.48000 0.46500 0.75000
H8B H 0.54000 0.37000 0.66100
C12B C 0.34100 0.56800 0.78300
H5B H 0.06500 0.72600 0.77200
H7B H 0.61900 0.40500 0.77700
H6B H 0.37600 0.57900 0.83300
loop_
_geom_bond_atom_site_label_1
_geom_bond_atom_site_label_2
_geom_bond_distance
_geom_bond_site_symmetry_1
_geom_bond_site_symmetry_2
C1 C2 1.383 1_555 1_555
C2 C3 1.420 1_555 1_555
C3 C4 1.472 1_555 1_555
C4 C5 1.403 1_555 1_555
C5 C6 1.430 1_555 1_555
C6 C7 1.420 1_555 1_555
C7 H3 0.996 1_555 1_555
C8 C6 1.365 1_555 1_555
C9 C8 1.405 1_555 1_555
C10 C4 1.445 1_555 1_555
C11 C9 1.430 1_555 1_555
C12 C11 1.340 1_555 1_555
C13 C12 1.396 1_555 1_555
C14 C10 1.407 1_555 1_555
H1 C1 0.997 1_555 1_555
H2 C2 0.986 1_555 1_555
H4 C8 0.997 1_555 1_555
H5 C11 1.007 1_555 1_555
H6 C12 1.003 1_555 1_555
H7 C13 1.004 1_555 1_555
H8 C14 1.000 1_555 1_555
C1B C1 1.380 1_555 1_555
C3B C3 1.420 1_555 1_555
C5B C5 1.459 1_555 1_555
C7B C7 1.341 1_555 1_555
C2B C1B 1.383 1_555 1_555
H1B C1B 0.997 1_555 1_555
C4B C3B 1.472 1_555 1_555
C6B C5B 1.430 1_555 1_555
H3B C7B 0.996 1_555 1_555
H2B C2B 0.986 1_555 1_555
C10B C4B 1.445 1_555 1_555
C8B C6B 1.365 1_555 1_555
C9B C10B 1.438 1_555 1_555
C14B C10B 1.407 1_555 1_555
H4B C8B 0.997 1_555 1_555
C11B C9B 1.430 1_555 1_555
C13B C14B 1.353 1_555 1_555
H8B C14B 1.000 1_555 1_555
C12B C11B 1.340 1_555 1_555
H5B C11B 1.007 1_555 1_555
H7B C13B 1.004 1_555 1_555
H6B C12B 1.003 1_555 1_555
C9 C10 1.438 1_555 1_555
C13 C14 1.353 1_555 1_555
C3B C2B 1.420 1_555 1_555
C5B C4B 1.403 1_555 1_555
C7B C6B 1.420 1_555 1_555
C8B C9B 1.405 1_555 1_555
C13B C12B 1.396 1_555 1_555
#END
