
#######################################################################
#
#                 Cambridge Crystallographic Data Centre
#                                CCDC
#
#######################################################################
#
# If this CIF has been generated from an entry in the Cambridge
# Structural Database, then it will include bibliographic, chemical,
# crystal, experimental, refinement or atomic coordinate data resulting
# from the CCDC's data processing and validation procedures.
#
#######################################################################

data_CSD_CIF_TBZPER
_audit_creation_date 1975-12-19
_audit_creation_method CSD-ConQuest-V1
_database_code_CSD TBZPER
_database_code_depnum_ccdc_archive 'CCDC 1267714'
_chemical_formula_sum 'C34 H18'
_chemical_formula_moiety
;
C34 H18
;
_journal_coeditor_code "IUCr A12327"
_journal_coden_Cambridge 107
_journal_volume 31
_journal_year 1975
_journal_page_first 2076
_journal_name_full 'Acta Crystallogr.,Sect.B:Struct.Crystallogr.Cryst.Chem. '
loop_
_publ_author_name
"Y.Kohno"
"M.Konno"
"Y.Saito"
"H.Inokuchi"
_chemical_name_systematic
;
Tetrabenzo(a,cd,j,lm)perylene
;
_chemical_melting_point 604.15
_cell_volume   4077.739
_exptl_crystal_density_diffrn 1.388
_diffrn_ambient_temperature ?
_diffrn_special_details
;
The study was carried out at room temperature,in the range 283-303K

;
#These two values have been output from a single CSD field.
_refine_ls_R_factor_gt 0.056
_refine_ls_wR_factor_gt 0.056
_symmetry_cell_setting orthorhombic
_symmetry_space_group_name_H-M 'P c a b'
_symmetry_Int_Tables_number 61
loop_
_symmetry_equiv_pos_site_id
_symmetry_equiv_pos_as_xyz
1 x,y,z
2 -x,1/2-y,1/2+z
3 1/2+x,-y,1/2-z
4 1/2-x,1/2+y,-z
5 -x,-y,-z
6 x,-1/2+y,-1/2-z
7 -1/2-x,y,-1/2+z
8 -1/2+x,-1/2-y,z
_cell_length_a 19.997(4)
_cell_length_b 26.635(4)
_cell_length_c 7.656(2)
_cell_angle_alpha 90
_cell_angle_beta 90
_cell_angle_gamma 90
_cell_formula_units_Z 8
loop_
_atom_type_symbol
_atom_type_radius_bond
C 0.68
H 0.23
loop_
_atom_site_label
_atom_site_type_symbol
_atom_site_fract_x
_atom_site_fract_y
_atom_site_fract_z
C1 C 0.28120 0.09820 0.26460
C2 C 0.00580 0.04840 0.34350
C3 C -0.03550 0.08170 0.42510
C4 C -0.01180 0.12740 0.47960
C5 C 0.05280 0.14210 0.43840
C6 C 0.09500 0.10950 0.34520
C7 C 0.16400 0.12420 0.30140
C8 C 0.21160 0.08670 0.26530
C9 C 0.18860 0.03660 0.22210
C10 C 0.18420 0.17470 0.28810
C11 C 0.13750 0.21510 0.25240
C12 C 0.32620 0.05990 0.20720
C13 C 0.15860 0.26310 0.22540
C14 C 0.22700 0.27620 0.23370
C15 C 0.24810 0.32570 0.20600
C16 C 0.31400 0.33780 0.21640
C17 C 0.36190 0.30160 0.24740
C18 C 0.34380 0.25100 0.27330
C19 C 0.39180 0.21250 0.31900
C20 C 0.45960 0.22400 0.35710
C21 C 0.50240 0.18860 0.41850
C22 C 0.48040 0.14070 0.45060
C23 C 0.30250 0.01310 0.15820
C24 C 0.41560 0.12690 0.41150
C25 C 0.37110 0.16240 0.33880
C26 C 0.30160 0.14820 0.29770
C27 C 0.25310 0.18690 0.28700
C28 C 0.27490 0.23870 0.26780
C29 C 0.23450 0.00010 0.16480
C30 C 0.21200 -0.04820 0.10970
C31 C 0.14640 -0.05870 0.11850
C32 C 0.09910 -0.02370 0.17370
C33 C 0.11980 0.02430 0.22980
C34 C 0.07340 0.06070 0.30360
H1 H -0.00800 0.02200 0.30200
H2 H -0.08400 0.06700 0.46100
H3 H -0.04500 0.15600 0.52300
H4 H 0.07400 0.18000 0.46100
H5 H 0.08200 0.20400 0.23100
H6 H 0.37500 0.07000 0.20300
H7 H 0.12100 0.29200 0.14800
H8 H 0.21500 0.35100 0.18300
H9 H 0.32900 0.37000 0.17600
H10 H 0.41200 0.31000 0.25300
H11 H 0.47500 0.25900 0.35400
H12 H 0.54800 0.20400 0.46200
H13 H 0.50800 0.11400 0.50700
H14 H 0.33600 -0.01300 0.10800
H15 H 0.39800 0.08800 0.42400
H16 H 0.25400 -0.06900 0.05700
H17 H 0.12400 -0.09300 0.06200
H18 H 0.04200 -0.03400 0.19000
loop_
_geom_bond_atom_site_label_1
_geom_bond_atom_site_label_2
_geom_bond_distance
_geom_bond_site_symmetry_1
_geom_bond_site_symmetry_2
C1 C8 1.425 1_555 1_555
C2 C3 1.363 1_555 1_555
C3 C4 1.371 1_555 1_555
C4 C5 1.386 1_555 1_555
C5 C6 1.405 1_555 1_555
C6 C7 1.473 1_555 1_555
C7 C8 1.407 1_555 1_555
C8 C9 1.450 1_555 1_555
C9 C29 1.407 1_555 1_555
C10 C7 1.408 1_555 1_555
C11 C10 1.451 1_555 1_555
C12 C1 1.430 1_555 1_555
C13 C11 1.362 1_555 1_555
C14 C13 1.413 1_555 1_555
C15 C14 1.400 1_555 1_555
C16 C15 1.359 1_555 1_555
C17 C16 1.380 1_555 1_555
C18 C17 1.410 1_555 1_555
C19 C18 1.448 1_555 1_555
C20 C19 1.420 1_555 1_555
C21 C20 1.357 1_555 1_555
C22 C21 1.372 1_555 1_555
C23 C12 1.385 1_555 1_555
C24 C22 1.380 1_555 1_555
C25 C19 1.405 1_555 1_555
C26 C1 1.416 1_555 1_555
C27 C10 1.416 1_555 1_555
C28 C14 1.408 1_555 1_555
C29 C23 1.404 1_555 1_555
C30 C29 1.427 1_555 1_555
C31 C30 1.343 1_555 1_555
C32 C31 1.394 1_555 1_555
C33 C9 1.415 1_555 1_555
C34 C2 1.424 1_555 1_555
H1 C2 0.819 1_555 1_555
H2 C3 1.081 1_555 1_555
H3 C4 1.064 1_555 1_555
H4 C5 1.108 1_555 1_555
H5 C11 1.160 1_555 1_555
H6 C12 1.013 1_555 1_555
H7 C13 1.228 1_555 1_555
H8 C15 0.961 1_555 1_555
H9 C16 0.960 1_555 1_555
H10 C17 1.027 1_555 1_555
H11 C20 0.982 1_555 1_555
H12 C21 1.054 1_555 1_555
H13 C22 0.998 1_555 1_555
H14 C23 1.039 1_555 1_555
H15 C24 1.098 1_555 1_555
H16 C30 1.084 1_555 1_555
H17 C31 1.106 1_555 1_555
H18 C32 1.181 1_555 1_555
C6 C34 1.406 1_555 1_555
C18 C28 1.417 1_555 1_555
C24 C25 1.413 1_555 1_555
C25 C26 1.474 1_555 1_555
C26 C27 1.418 1_555 1_555
C27 C28 1.454 1_555 1_555
C32 C33 1.411 1_555 1_555
C33 C34 1.456 1_555 1_555
#END
