
#######################################################################
#
#                 Cambridge Crystallographic Data Centre
#                                CCDC
#
#######################################################################
#
# If this CIF has been generated from an entry in the Cambridge
# Structural Database, then it will include bibliographic, chemical,
# crystal, experimental, refinement or atomic coordinate data resulting
# from the CCDC's data processing and validation procedures.
#
#######################################################################

data_CSD_CIF_TEBNAP
_audit_creation_date 1979-11-16
_audit_creation_method CSD-ConQuest-V1
_database_code_CSD TEBNAP
_database_code_depnum_ccdc_archive 'CCDC 1268345'
_chemical_formula_sum 'C26 H16'
_chemical_formula_moiety
;
C26 H16
;
_journal_coeditor_code "IUCr A17646"
_journal_coden_Cambridge 107
_journal_volume 35
_journal_year 1979
_journal_page_first 1661
_journal_name_full 'Acta Crystallogr.,Sect.B:Struct.Crystallogr.Cryst.Chem. '
loop_
_publ_author_name
"F.H.Herbstein"
_chemical_name_systematic
;
Dibenzo(g,p)chrysene
;
_chemical_name_common
;
Tetrabenzonaphthalene
;
_chemical_melting_point 488
_cell_volume   1649.977
_diffrn_ambient_temperature ?
_diffrn_special_details
;
The study was carried out at room temperature,in the range 283-303K

;
#These two values have been output from a single CSD field.
_refine_ls_R_factor_gt 0.0794
_refine_ls_wR_factor_gt 0.0794
_symmetry_cell_setting monoclinic
_symmetry_space_group_name_H-M 'P 21/n'
_symmetry_Int_Tables_number 14
loop_
_symmetry_equiv_pos_site_id
_symmetry_equiv_pos_as_xyz
1 x,y,z
2 1/2-x,1/2+y,1/2-z
3 -x,-y,-z
4 -1/2+x,-1/2-y,-1/2+z
_cell_length_a 17.731(7)
_cell_length_b 7.693(4)
_cell_length_c 12.191(5)
_cell_angle_alpha 90
_cell_angle_beta 97.15(8)
_cell_angle_gamma 90
_cell_formula_units_Z 4
loop_
_atom_type_symbol
_atom_type_radius_bond
C 0.68
H 0.23
loop_
_atom_site_label
_atom_site_type_symbol
_atom_site_fract_x
_atom_site_fract_y
_atom_site_fract_z
C1 C 0.09850 0.23690 0.27760
C2 C 0.02820 0.19330 0.30260
C3 C 0.00850 0.23390 0.40660
C4 C 0.06040 0.31130 0.48540
C5 C 0.30060 0.59190 0.69740
C6 C 0.32080 0.52280 0.60200
C7 C 0.42110 0.28030 0.49130
C8 C 0.49100 0.21850 0.47340
C9 C 0.50800 0.19180 0.36710
C10 C 0.45490 0.22970 0.27890
C11 C 0.34520 0.35380 0.09300
C12 C 0.29300 0.39770 0.00560
C13 C 0.21840 0.42930 0.02440
C14 C 0.19730 0.41000 0.12880
C15 C 0.15370 0.32250 0.35460
C16 C 0.13400 0.35570 0.46100
C17 C 0.19100 0.43230 0.54570
C18 C 0.26770 0.43670 0.52340
C19 C 0.36580 0.32610 0.40200
C20 C 0.38290 0.29740 0.29370
C21 C 0.32620 0.33420 0.20040
C22 C 0.24980 0.35940 0.21910
C23 C 0.23040 0.35340 0.33130
C24 C 0.28790 0.37310 0.41900
H1 H 0.11300 0.21200 0.20600
H2 H -0.00900 0.11300 0.23700
H3 H -0.04300 0.21500 0.42700
H4 H 0.04900 0.33100 0.56300
H5 H 0.11700 0.48600 0.66100
H6 H 0.20600 0.61000 0.77600
H7 H 0.34500 0.64100 0.76200
H8 H 0.38300 0.53900 0.58500
H9 H 0.40500 0.28700 0.57200
H10 H 0.52900 0.18600 0.54000
H11 H 0.56200 0.15000 0.35200
H12 H 0.46800 0.21200 0.19900
H13 H 0.39700 0.33200 0.07400
H14 H 0.31000 0.41500 -0.07300
H15 H 0.18100 0.46400 -0.03800
H16 H 0.14200 0.44000 0.13400
C25 C 0.17100 0.50350 0.64380
C26 C 0.22610 0.58070 0.71890
loop_
_geom_bond_atom_site_label_1
_geom_bond_atom_site_label_2
_geom_bond_distance
_geom_bond_site_symmetry_1
_geom_bond_site_symmetry_2
C1 C2 1.362 1_555 1_555
C2 C3 1.392 1_555 1_555
C3 C4 1.380 1_555 1_555
C4 C16 1.416 1_555 1_555
C5 C6 1.366 1_555 1_555
C6 C18 1.421 1_555 1_555
C7 C8 1.370 1_555 1_555
C8 C9 1.382 1_555 1_555
C9 C10 1.370 1_555 1_555
C10 C20 1.411 1_555 1_555
C11 C12 1.364 1_555 1_555
C12 C13 1.392 1_555 1_555
C13 C14 1.379 1_555 1_555
C14 C22 1.405 1_555 1_555
C15 C1 1.430 1_555 1_555
C16 C15 1.408 1_555 1_555
C17 C16 1.475 1_555 1_555
C18 C17 1.420 1_555 1_555
C19 C7 1.416 1_555 1_555
C20 C19 1.408 1_555 1_555
C21 C11 1.400 1_555 1_555
C22 C21 1.415 1_555 1_555
C23 C15 1.443 1_555 1_555
C24 C18 1.449 1_555 1_555
H1 C1 0.959 1_555 1_555
H2 C2 1.151 1_555 1_555
H3 C3 0.987 1_555 1_555
H4 C4 1.003 1_555 1_555
H5 C25 1.014 1_555 1_555
H6 C26 0.851 1_555 1_555
H7 C5 1.108 1_555 1_555
H8 C6 1.154 1_555 1_555
H9 C7 1.059 1_555 1_555
H10 C8 1.020 1_555 1_555
H11 C9 1.048 1_555 1_555
H12 C10 1.038 1_555 1_555
H13 C11 0.989 1_555 1_555
H14 C12 1.048 1_555 1_555
H15 C13 0.982 1_555 1_555
H16 C14 1.017 1_555 1_555
C25 C17 1.401 1_555 1_555
C26 C5 1.381 1_555 1_555
C19 C24 1.467 1_555 1_555
C20 C21 1.449 1_555 1_555
C22 C23 1.452 1_555 1_555
C23 C24 1.391 1_555 1_555
C25 C26 1.387 1_555 1_555
#END
