
#######################################################################
#
#                 Cambridge Crystallographic Data Centre
#                                CCDC
#
#######################################################################
#
# If this CIF has been generated from an entry in the Cambridge
# Structural Database, then it will include bibliographic, chemical,
# crystal, experimental, refinement or atomic coordinate data resulting
# from the CCDC's data processing and validation procedures.
#
#######################################################################

data_CSD_CIF_TEFBOY
_audit_creation_date 2017-08-11
_audit_creation_method CSD-ConQuest-V1
_database_code_CSD TEFBOY
_database_code_depnum_ccdc_archive 'CCDC 1560136'
_chemical_formula_sum 'C44 H22'
_chemical_formula_moiety
;
C44 H22
;
_journal_coden_Cambridge 35
_journal_volume 82
_journal_year 2017
_journal_page_first 8067
_journal_name_full 'J.Org.Chem. '
loop_
_publ_author_name
"Yu-Tai Tao"
"S.Pola"
"S.Kumar"
"M.Minarul Islam"
_chemical_name_systematic
;
pentabenzo[a,d,g,j,m]coronene
;
_cell_volume   5080.092
_exptl_crystal_colour 'orange'
_exptl_crystal_density_diffrn 1.44
_exptl_crystal_description 'prism'
_diffrn_ambient_temperature 100
#These two values have been output from a single CSD field.
_refine_ls_R_factor_gt 0.0377
_refine_ls_wR_factor_gt 0.0377
_symmetry_cell_setting orthorhombic
_symmetry_space_group_name_H-M 'P b c a'
_symmetry_Int_Tables_number 61
loop_
_symmetry_equiv_pos_site_id
_symmetry_equiv_pos_as_xyz
1 x,y,z
2 1/2-x,-y,1/2+z
3 -x,1/2+y,1/2-z
4 1/2+x,1/2-y,-z
5 -x,-y,-z
6 -1/2+x,y,-1/2-z
7 x,-1/2-y,-1/2+z
8 -1/2-x,-1/2+y,z
_cell_length_a 17.6246(4)
_cell_length_b 7.4786(2)
_cell_length_c 38.5418(8)
_cell_angle_alpha 90
_cell_angle_beta 90
_cell_angle_gamma 90
_cell_formula_units_Z 8
loop_
_atom_type_symbol
_atom_type_radius_bond
C 0.68
H 0.23
loop_
_atom_site_label
_atom_site_type_symbol
_atom_site_fract_x
_atom_site_fract_y
_atom_site_fract_z
C1 C 0.74868(8) 0.01993(18) 0.01719(3)
H1 H 0.80080 -0.00910 0.01990
C2 C 0.71508(8) -0.0033(2) -0.01458(4)
H2 H 0.74360 -0.05030 -0.03340
C3 C 0.63879(8) 0.0422(2) -0.01931(3)
H3 H 0.61600 0.03110 -0.04160
C4 C 0.59698(8) 0.10295(19) 0.00834(3)
H4 H 0.54500 0.13210 0.00500
C5 C 0.47959(8) 0.33715(19) 0.04483(3)
H5 H 0.51170 0.36290 0.02570
C6 C 0.40906(8) 0.4136(2) 0.04627(4)
H6 H 0.39200 0.48720 0.02780
C7 C 0.36220(8) 0.3832(2) 0.07496(4)
H7 H 0.31390 0.43900 0.07640
C8 C 0.38637(8) 0.2726(2) 0.10105(4)
H8 H 0.35470 0.25500 0.12070
C9 C 0.35824(8) -0.0818(2) 0.13647(4)
H9 H 0.33860 -0.02450 0.11640
C10 C 0.31437(8) -0.2047(2) 0.15350(4)
H10 H 0.26450 -0.22980 0.14550
C11 C 0.34302(8) -0.2931(2) 0.18263(4)
H11 H 0.31290 -0.38000 0.19420
C12 C 0.41458(8) -0.2547(2) 0.19450(4)
H12 H 0.43360 -0.31720 0.21410
C13 C 0.51913(8) -0.15522(19) 0.25213(4)
H13 H 0.46640 -0.13170 0.24970
C14 C 0.54697(9) -0.2065(2) 0.28393(4)
H14 H 0.51360 -0.21980 0.30310
C15 C 0.62445(9) -0.2390(2) 0.28795(4)
H15 H 0.64340 -0.28230 0.30940
C16 C 0.67309(9) -0.2086(2) 0.26094(4)
H16 H 0.72600 -0.22590 0.26440
C17 C 0.77827(8) -0.12166(19) 0.20422(4)
H17 H 0.79840 -0.16830 0.22520
C18 C 0.82655(8) -0.07074(19) 0.17847(4)
H18 H 0.87970 -0.08150 0.18210
C19 C 0.92988(8) 0.07502(19) 0.12531(4)
H19 H 0.95070 0.03810 0.14690
C20 C 0.97691(8) 0.1448(2) 0.10045(4)
H20 H 1.02980 0.15450 0.10480
C21 C 0.94705(8) 0.20173(19) 0.06880(4)
H21 H 0.97930 0.25510 0.05200
C22 C 0.87121(8) 0.18088(18) 0.06182(4)
H22 H 0.85170 0.21840 0.04000
C23 C 0.62916(8) 0.12330(18) 0.04171(3)
C24 C 0.58255(7) 0.15056(18) 0.07212(3)
C25 C 0.50599(8) 0.22067(18) 0.07119(3)
C26 C 0.45687(8) 0.18441(19) 0.09951(3)
C27 C 0.48270(8) 0.06930(18) 0.12722(3)
C28 C 0.43220(7) -0.03784(19) 0.14810(3)
C29 C 0.46087(8) -0.12395(19) 0.17824(3)
C30 C 0.53877(8) -0.09268(18) 0.18858(3)
C31 C 0.56739(8) -0.13678(18) 0.22295(3)
C32 C 0.64682(8) -0.15215(18) 0.22816(3)
C33 C 0.69885(8) -0.10646(18) 0.20027(3)
C34 C 0.67025(7) -0.03808(17) 0.16891(3)
C35 C 0.72090(7) 0.01160(17) 0.14176(3)
C36 C 0.79994(7) -0.00258(18) 0.14665(3)
C37 C 0.85102(8) 0.05680(18) 0.11951(4)
C38 C 0.82153(7) 0.10441(18) 0.08657(3)
C39 C 0.74069(8) 0.08878(17) 0.08041(3)
C40 C 0.70769(7) 0.08593(18) 0.04597(3)
C41 C 0.61155(7) 0.09316(18) 0.10409(3)
C42 C 0.56057(7) 0.04886(18) 0.13195(3)
C43 C 0.58930(7) -0.02814(18) 0.16354(3)
C44 C 0.69168(7) 0.06585(17) 0.10846(3)
loop_
_geom_bond_atom_site_label_1
_geom_bond_atom_site_label_2
_geom_bond_distance
_geom_bond_site_symmetry_1
_geom_bond_site_symmetry_2
C1 H1 0.950 1_555 1_555
C2 C1 1.371 1_555 1_555
H2 C2 0.950 1_555 1_555
C3 C2 1.399 1_555 1_555
H3 C3 0.952 1_555 1_555
C4 C3 1.373 1_555 1_555
H4 C4 0.950 1_555 1_555
C5 H5 0.949 1_555 1_555
C6 C5 1.369 1_555 1_555
H6 C6 0.949 1_555 1_555
C7 C6 1.399 1_555 1_555
H7 C7 0.950 1_555 1_555
C8 C7 1.370 1_555 1_555
H8 C8 0.950 1_555 1_555
C9 H9 0.950 1_555 1_555
C10 C9 1.369 1_555 1_555
H10 C10 0.950 1_555 1_555
C11 C10 1.397 1_555 1_555
H11 C11 0.950 1_555 1_555
C12 C11 1.372 1_555 1_555
H12 C12 0.949 1_555 1_555
C13 H13 0.950 1_555 1_555
C14 C13 1.375 1_555 1_555
H14 C14 0.950 1_555 1_555
C15 C14 1.396 1_555 1_555
H15 C15 0.949 1_555 1_555
C16 C15 1.368 1_555 1_555
H16 C16 0.951 1_555 1_555
C17 H17 0.949 1_555 1_555
C18 C17 1.362 1_555 1_555
H18 C18 0.951 1_555 1_555
C19 H19 0.950 1_555 1_555
C20 C19 1.370 1_555 1_555
H20 C20 0.950 1_555 1_555
C21 C20 1.395 1_555 1_555
H21 C21 0.950 1_555 1_555
C22 C21 1.372 1_555 1_555
H22 C22 0.951 1_555 1_555
C23 C4 1.414 1_555 1_555
C24 C23 1.446 1_555 1_555
C25 C5 1.417 1_555 1_555
C26 C8 1.408 1_555 1_555
C27 C26 1.445 1_555 1_555
C28 C9 1.417 1_555 1_555
C29 C12 1.419 1_555 1_555
C30 C29 1.449 1_555 1_555
C31 C13 1.417 1_555 1_555
C32 C16 1.410 1_555 1_555
C33 C17 1.413 1_555 1_555
C34 C33 1.406 1_555 1_555
C35 C34 1.425 1_555 1_555
C36 C18 1.408 1_555 1_555
C37 C19 1.414 1_555 1_555
C38 C22 1.416 1_555 1_555
C39 C38 1.449 1_555 1_555
C40 C1 1.413 1_555 1_555
C41 C24 1.401 1_555 1_555
C42 C27 1.393 1_555 1_555
C43 C30 1.399 1_555 1_555
C44 C35 1.441 1_555 1_555
C23 C40 1.422 1_555 1_555
C24 C25 1.448 1_555 1_555
C25 C26 1.419 1_555 1_555
C27 C28 1.443 1_555 1_555
C28 C29 1.421 1_555 1_555
C30 C31 1.455 1_555 1_555
C31 C32 1.419 1_555 1_555
C32 C33 1.454 1_555 1_555
C34 C43 1.444 1_555 1_555
C35 C36 1.410 1_555 1_555
C36 C37 1.450 1_555 1_555
C37 C38 1.417 1_555 1_555
C39 C40 1.449 1_555 1_555
C39 C44 1.394 1_555 1_555
C41 C42 1.439 1_555 1_555
C41 C44 1.437 1_555 1_555
C42 C43 1.439 1_555 1_555
#END
