
#######################################################################
#
#                 Cambridge Crystallographic Data Centre
#                                CCDC
#
#######################################################################
#
# If this CIF has been generated from an entry in the Cambridge
# Structural Database, then it will include bibliographic, chemical,
# crystal, experimental, refinement or atomic coordinate data resulting
# from the CCDC's data processing and validation procedures.
#
#######################################################################

data_CSD_CIF_TEKNII
_audit_creation_date 2013-04-24
_audit_creation_method CSD-ConQuest-V1
_database_code_CSD TEKNII
_database_code_depnum_ccdc_archive 'CCDC 893291'
_chemical_formula_sum 'C38 H48'
_chemical_formula_moiety
;
C38 H48
;
_journal_coden_Cambridge 10
_journal_volume 95
_journal_year 2012
_journal_page_first 1953
_journal_name_full 'Helv.Chim.Acta '
loop_
_publ_author_name
"Wei-Min Liu"
"Ya Lin Tnay"
"Kian Ping Gan"
"Zhen-Hong Liu"
"Wan Huei Tyan"
"K.Narasaka"
_chemical_name_systematic
;
13,14-Dioctyl-6,7-dihydropentaphene
;
_cell_volume   2993.307
_exptl_crystal_colour 'colorless'
_exptl_crystal_density_diffrn 1.12
_exptl_crystal_description 'block'
_diffrn_ambient_temperature 103
#These two values have been output from a single CSD field.
_refine_ls_R_factor_gt 0.054
_refine_ls_wR_factor_gt 0.054
_symmetry_cell_setting monoclinic
_symmetry_space_group_name_H-M 'P 21/c'
_symmetry_Int_Tables_number 14
loop_
_symmetry_equiv_pos_site_id
_symmetry_equiv_pos_as_xyz
1 x,y,z
2 -x,1/2+y,1/2-z
3 -x,-y,-z
4 x,-1/2-y,-1/2+z
_cell_length_a 10.9261(6)
_cell_length_b 32.5111(18)
_cell_length_c 8.9800(5)
_cell_angle_alpha 90
_cell_angle_beta 110.219(3)
_cell_angle_gamma 90
_cell_formula_units_Z 4
loop_
_atom_type_symbol
_atom_type_radius_bond
C 0.68
H 0.23
loop_
_atom_site_label
_atom_site_type_symbol
_atom_site_fract_x
_atom_site_fract_y
_atom_site_fract_z
C1 C 0.55017(17) 0.07358(6) 1.3630(2)
H1 H 0.53240 0.10230 1.32940
H2 H 0.58140 0.07210 1.47920
H3 H 0.47000 0.05740 1.31950
C2 C 0.65405(16) 0.05634(5) 1.3026(2)
H4 H 0.73450 0.07290 1.34710
H5 H 0.67470 0.02780 1.34210
C3 C 0.61376(15) 0.05611(5) 1.12273(19)
H6 H 0.60080 0.08490 1.08400
H7 H 0.52910 0.04170 1.07780
C4 C 0.71241(16) 0.03544(5) 1.0614(2)
H8 H 0.79480 0.05130 1.09840
H9 H 0.73120 0.00750 1.10750
C5 C 0.66612(15) 0.03212(5) 0.88163(19)
H10 H 0.65170 0.06020 0.83630
H11 H 0.58110 0.01770 0.84470
C6 C 0.75976(15) 0.00948(5) 0.8166(2)
H12 H 0.77550 -0.01840 0.86370
H13 H 0.71700 0.00620 0.70050
C7 C 0.89107(14) 0.03060(5) 0.84875(18)
H14 H 0.94730 0.01260 0.81080
H15 H 0.93410 0.03410 0.96470
C8 C 0.87987(13) 0.07263(4) 0.76860(16)
H16 H 0.84270 0.06920 0.65200
H17 H 0.82020 0.09040 0.80160
C9 C 1.01214(13) 0.09297(4) 0.81312(16)
C10 C 1.05653(13) 0.11956(4) 0.94206(16)
C11 C 0.97329(13) 0.13563(4) 1.03097(16)
C12 C 0.85148(13) 0.15382(4) 0.96071(16)
C13 C 0.80028(13) 0.16641(4) 0.78730(16)
H18 H 0.70730 0.15850 0.74020
H19 H 0.84910 0.15140 0.72980
C14 C 0.81331(13) 0.21308(4) 0.76531(17)
H20 H 0.76320 0.22040 0.65380
H21 H 0.77420 0.22800 0.83400
C15 C 0.95493(14) 0.22730(5) 0.80526(17)
H22 H 0.95650 0.25770 0.80040
H23 H 1.00560 0.21900 0.91550
C16 C 1.02146(13) 0.20993(5) 0.69502(17)
H24 H 1.02420 0.17960 0.70410
H25 H 0.96860 0.21700 0.58420
C17 C 1.15955(14) 0.22591(5) 0.73056(17)
H26 H 1.15630 0.25610 0.71560
H27 H 1.21110 0.22020 0.84320
C18 C 1.22851(13) 0.20680(5) 0.62657(17)
H28 H 1.17320 0.21030 0.51390
H29 H 1.23860 0.17690 0.64850
C19 C 1.36210(14) 0.22528(5) 0.65203(17)
H30 H 1.41640 0.22280 0.76560
H31 H 1.35180 0.25490 0.62520
C20 C 1.43260(14) 0.20450(5) 0.55218(18)
H32 H 1.44320 0.17510 0.57810
H33 H 1.51860 0.21720 0.57500
H34 H 1.38130 0.20790 0.43930
C21 C 1.09978(13) 0.08058(4) 0.73307(16)
C22 C 1.06076(14) 0.05531(5) 0.59532(17)
H35 H 0.97300 0.04600 0.55320
C23 C 1.14650(16) 0.04410(5) 0.52197(18)
H36 H 1.11740 0.02740 0.42950
C24 C 1.27733(15) 0.05705(5) 0.58226(19)
H37 H 1.33650 0.04890 0.53130
C25 C 1.31911(14) 0.08139(5) 0.71439(18)
H38 H 1.40750 0.09020 0.75440
C26 C 1.23259(13) 0.09373(4) 0.79260(17)
C27 C 1.27641(14) 0.11726(4) 0.93331(17)
H39 H 1.36590 0.12470 0.97710
C28 C 1.19286(13) 0.12959(4) 1.00783(17)
C29 C 1.24085(14) 0.14872(5) 1.17014(17)
H40 H 1.21760 0.17830 1.16360
H41 H 1.33690 0.14620 1.21780
C30 C 1.17497(14) 0.12563(5) 1.27069(17)
H42 H 1.19200 0.09580 1.26920
H43 H 1.20990 0.13530 1.38200
C31 C 1.03048(13) 0.13392(4) 1.20119(16)
C32 C 0.95855(14) 0.14371(5) 1.29348(17)
H44 H 0.99660 0.14130 1.40560
C33 C 0.82788(14) 0.15736(4) 1.22499(16)
C34 C 0.77523(13) 0.16391(4) 1.05821(16)
C35 C 0.64629(14) 0.17969(5) 0.99396(17)
H45 H 0.60890 0.18430 0.88290
C36 C 0.57464(15) 0.18840(5) 1.08880(19)
H46 H 0.48840 0.19870 1.04270
C37 C 0.62779(15) 0.18221(5) 1.25358(19)
H47 H 0.57810 0.18860 1.31880
C38 C 0.75118(15) 0.16690(5) 1.31965(18)
H48 H 0.78630 0.16260 1.43100
loop_
_geom_bond_atom_site_label_1
_geom_bond_atom_site_label_2
_geom_bond_distance
_geom_bond_site_symmetry_1
_geom_bond_site_symmetry_2
C1 H1 0.980 1_555 1_555
H2 C1 0.981 1_555 1_555
H3 C1 0.980 1_555 1_555
C2 C1 1.524 1_555 1_555
H4 C2 0.990 1_555 1_555
H5 C2 0.991 1_555 1_555
C3 C2 1.520 1_555 1_555
H6 C3 0.991 1_555 1_555
H7 C3 0.990 1_555 1_555
C4 C3 1.525 1_555 1_555
H8 C4 0.990 1_555 1_555
H9 C4 0.990 1_555 1_555
C5 C4 1.520 1_555 1_555
H10 C5 0.990 1_555 1_555
H11 C5 0.990 1_555 1_555
C6 C5 1.531 1_555 1_555
H12 C6 0.990 1_555 1_555
H13 C6 0.990 1_555 1_555
C7 C6 1.525 1_555 1_555
H14 C7 0.990 1_555 1_555
H15 C7 0.990 1_555 1_555
C8 C7 1.529 1_555 1_555
H16 C8 0.990 1_555 1_555
H17 C8 0.990 1_555 1_555
C9 C8 1.512 1_555 1_555
C10 C9 1.391 1_555 1_555
C11 C10 1.497 1_555 1_555
C12 C11 1.392 1_555 1_555
C13 C12 1.518 1_555 1_555
H18 C13 0.990 1_555 1_555
H19 C13 0.990 1_555 1_555
C14 C13 1.543 1_555 1_555
H20 C14 0.990 1_555 1_555
H21 C14 0.990 1_555 1_555
C15 C14 1.534 1_555 1_555
H22 C15 0.990 1_555 1_555
H23 C15 0.990 1_555 1_555
C16 C15 1.525 1_555 1_555
H24 C16 0.989 1_555 1_555
H25 C16 0.990 1_555 1_555
C17 C16 1.522 1_555 1_555
H26 C17 0.990 1_555 1_555
H27 C17 0.990 1_555 1_555
C18 C17 1.521 1_555 1_555
H28 C18 0.990 1_555 1_555
H29 C18 0.990 1_555 1_555
C19 C18 1.521 1_555 1_555
H30 C19 0.990 1_555 1_555
H31 C19 0.990 1_555 1_555
C20 C19 1.527 1_555 1_555
H32 C20 0.981 1_555 1_555
H33 C20 0.981 1_555 1_555
H34 C20 0.980 1_555 1_555
C21 C9 1.439 1_555 1_555
C22 C21 1.422 1_555 1_555
H35 C22 0.950 1_555 1_555
C23 C22 1.368 1_555 1_555
H36 C23 0.950 1_555 1_555
C24 C23 1.407 1_555 1_555
H37 C24 0.950 1_555 1_555
C25 C24 1.367 1_555 1_555
H38 C25 0.951 1_555 1_555
C26 C21 1.428 1_555 1_555
C27 C26 1.412 1_555 1_555
H39 C27 0.950 1_555 1_555
C28 C10 1.437 1_555 1_555
C29 C28 1.503 1_555 1_555
H40 C29 0.991 1_555 1_555
H41 C29 0.990 1_555 1_555
C30 C29 1.532 1_555 1_555
H42 C30 0.988 1_555 1_555
H43 C30 0.990 1_555 1_555
C31 C11 1.439 1_555 1_555
C32 C31 1.362 1_555 1_555
H44 C32 0.950 1_555 1_555
C33 C32 1.417 1_555 1_555
C34 C12 1.440 1_555 1_555
C35 C34 1.421 1_555 1_555
H45 C35 0.950 1_555 1_555
C36 C35 1.371 1_555 1_555
H46 C36 0.950 1_555 1_555
C37 C36 1.405 1_555 1_555
H47 C37 0.949 1_555 1_555
C38 C33 1.419 1_555 1_555
H48 C38 0.949 1_555 1_555
C25 C26 1.417 1_555 1_555
C27 C28 1.365 1_555 1_555
C30 C31 1.508 1_555 1_555
C33 C34 1.423 1_555 1_555
C37 C38 1.365 1_555 1_555
#END
