
#######################################################################
#
#                 Cambridge Crystallographic Data Centre
#                                CCDC
#
#######################################################################
#
# If this CIF has been generated from an entry in the Cambridge
# Structural Database, then it will include bibliographic, chemical,
# crystal, experimental, refinement or atomic coordinate data resulting
# from the CCDC's data processing and validation procedures.
#
#######################################################################

data_CSD_CIF_TEMYEP
_audit_creation_date 1997-02-21
_audit_creation_method CSD-ConQuest-V1
_database_code_CSD TEMYEP
_database_code_depnum_ccdc_journal 1003/5012
_chemical_formula_sum 'C24 H12'
_chemical_formula_moiety
;
C24 H12
;
_journal_coden_Cambridge 1003
_journal_volume 26
_journal_year 1996
_journal_page_first 227
_journal_name_full 'J.Chem.Cryst. '
loop_
_publ_author_name
"Chun-Yip Leung"
"T.C.W.Mak"
"H.N.C.Wong"
_chemical_name_systematic
;
5,6,15,16-Tetradehydrobenzo(a)phenanthro(9,10-e)cyclo-octene
;
_chemical_melting_point 456.15
_cell_volume   3042.050
_exptl_crystal_colour 'red-brown'
_exptl_crystal_density_diffrn 1.312
_exptl_special_details
;
Melts with decomposition.

;
_diffrn_ambient_temperature ?
_diffrn_special_details
;
The study was carried out at room temperature,in the range 283-303K

;
#These two values have been output from a single CSD field.
_refine_ls_R_factor_gt 0.06
_refine_ls_wR_factor_gt 0.06
_symmetry_cell_setting orthorhombic
_symmetry_space_group_name_H-M 'P b a m'
_symmetry_Int_Tables_number 55
loop_
_symmetry_equiv_pos_site_id
_symmetry_equiv_pos_as_xyz
1 x,y,z
2 -x,-y,z
3 1/2+x,1/2-y,-z
4 1/2-x,1/2+y,-z
5 -x,-y,-z
6 x,y,-z
7 -1/2-x,-1/2+y,z
8 -1/2+x,-1/2-y,z
_cell_length_a 9.828(2)
_cell_length_b 19.466(4)
_cell_length_c 15.901(3)
_cell_angle_alpha 90
_cell_angle_beta 90
_cell_angle_gamma 90
_cell_formula_units_Z 8
loop_
_atom_type_symbol
_atom_type_radius_bond
C 0.68
H 0.23
loop_
_atom_site_label
_atom_site_type_symbol
_atom_site_fract_x
_atom_site_fract_y
_atom_site_fract_z
C1 C 0.0255(6) 0.3808(3) 0.4593(5)
C2 C 0.1132(6) 0.4260(3) 0.4134(5)
C3 C 0.1976(5) 0.4694(3) 0.4544(4)
C4 C 0.2902(6) 0.5173(3) 0.4183(4)
C5 C 0.3753(5) 0.5620(3) 0.4186(3)
C6 C 0.4671(4) 0.6105(2) 0.4576(3)
C7 C 0.5570(5) 0.6542(3) 0.4106(3)
C8 C 0.5610(6) 0.6532(3) 0.3219(3)
C9 C 0.6459(6) 0.6954(3) 0.2789(4)
C10 C 0.7286(7) 0.7389(3) 0.3217(4)
C11 C 0.7280(6) 0.7428(3) 0.4075(4)
C12 C 0.6441(5) 0.7005(2) 0.4542(3)
C13 C 0.7261(5) 0.2587(3) -0.0447(4)
C14 C 0.6387(5) 0.3030(3) -0.0862(4)
C15 C 0.5536(4) 0.3461(2) -0.0444(3)
C16 C 0.4605(5) 0.3944(3) -0.0820(3)
C17 C 0.3720(5) 0.4375(2) -0.0805(3)
C18 C 0.2804(5) 0.4846(2) -0.0444(3)
C19 C 0.1944(5) 0.5316(3) -0.0896(4)
C20 C 0.2007(6) 0.5339(3) -0.1782(4)
C21 C 0.1207(6) 0.5803(3) -0.2222(4)
C22 C 0.0345(6) 0.6223(3) -0.1804(4)
C23 C 0.0254(5) 0.6203(3) -0.0946(5)
C24 C 0.1048(5) 0.5763(2) -0.0449(3)
H1 H -0.03390 0.35050 0.42900
H2 H 0.11070 0.42470 0.35310
H3 H 0.50240 0.62230 0.29180
H4 H 0.64980 0.69370 0.21860
H5 H 0.78790 0.76850 0.29030
H6 H 0.78580 0.77460 0.43660
H7 H 0.78500 0.22880 -0.07600
H8 H 0.63600 0.30360 -0.14660
H9 H 0.26010 0.50320 -0.20800
H10 H 0.12770 0.58370 -0.28230
H11 H -0.02130 0.65420 -0.21100
H12 H -0.03950 0.64960 -0.06730
C1E C 0.0255(6) 0.3808(3) 0.5407(5)
C2E C 0.1132(6) 0.4260(3) 0.5866(5)
C3E C 0.1976(5) 0.4694(3) 0.5456(4)
C6E C 0.4671(4) 0.6105(2) 0.5424(3)
C5E C 0.3753(5) 0.5620(3) 0.5814(3)
C4E C 0.2902(6) 0.5173(3) 0.5817(4)
C7E C 0.5570(5) 0.6542(3) 0.5894(3)
C8E C 0.5610(6) 0.6532(3) 0.6781(3)
C9E C 0.6459(6) 0.6954(3) 0.7211(4)
C10E C 0.7286(7) 0.7389(3) 0.6783(4)
C11E C 0.7280(6) 0.7428(3) 0.5925(4)
C12E C 0.6441(5) 0.7005(2) 0.5458(3)
H6E H 0.78580 0.77460 0.56340
H5E H 0.78790 0.76850 0.70970
H4E H 0.64980 0.69370 0.78140
H3E H 0.50240 0.62230 0.70820
H2E H 0.11070 0.42470 0.64690
H1E H -0.03390 0.35050 0.57100
C13E C 0.7261(5) 0.2587(3) 0.0447(4)
C14E C 0.6387(5) 0.3030(3) 0.0862(4)
C15E C 0.5536(4) 0.3461(2) 0.0444(3)
C18E C 0.2804(5) 0.4846(2) 0.0444(3)
C17E C 0.3720(5) 0.4375(2) 0.0805(3)
C16E C 0.4605(5) 0.3944(3) 0.0820(3)
C19E C 0.1944(5) 0.5316(3) 0.0896(4)
C20E C 0.2007(6) 0.5339(3) 0.1782(4)
C21E C 0.1207(6) 0.5803(3) 0.2222(4)
C22E C 0.0345(6) 0.6223(3) 0.1804(4)
C23E C 0.0254(5) 0.6203(3) 0.0946(5)
C24E C 0.1048(5) 0.5763(2) 0.0449(3)
H12E H -0.03950 0.64960 0.06730
H11E H -0.02130 0.65420 0.21100
H10E H 0.12770 0.58370 0.28230
H9E H 0.26010 0.50320 0.20800
H8E H 0.63600 0.30360 0.14660
H7E H 0.78500 0.22880 0.07600
loop_
_geom_bond_atom_site_label_1
_geom_bond_atom_site_label_2
_geom_bond_distance
_geom_bond_site_symmetry_1
_geom_bond_site_symmetry_2
C1 C2 1.432 1_555 1_555
C2 C3 1.352 1_555 1_555
C3 C4 1.424 1_555 1_555
C4 C5 1.207 1_555 1_555
C5 C6 1.446 1_555 1_555
C6 C7 1.436 1_555 1_555
C7 C8 1.411 1_555 1_555
C8 C9 1.356 1_555 1_555
C9 C10 1.357 1_555 1_555
C10 C11 1.366 1_555 1_555
C11 C12 1.382 1_555 1_555
C12 C7 1.423 1_555 1_555
C13 C14 1.385 1_555 1_555
C14 C15 1.358 1_555 1_555
C15 C16 1.442 1_555 1_555
C16 C17 1.209 1_555 1_555
C17 C18 1.407 1_555 1_555
C18 C19 1.438 1_555 1_555
C19 C20 1.411 1_555 1_555
C20 C21 1.387 1_555 1_555
C21 C22 1.352 1_555 1_555
C22 C23 1.368 1_555 1_555
C23 C24 1.403 1_555 1_555
C24 C19 1.428 1_555 1_555
H1 C1 0.960 1_555 1_555
H2 C2 0.959 1_555 1_555
H3 C8 0.961 1_555 1_555
H4 C9 0.960 1_555 1_555
H5 C10 0.960 1_555 1_555
H6 C11 0.959 1_555 1_555
H7 C13 0.960 1_555 1_555
H8 C14 0.961 1_555 1_555
H9 C20 0.960 1_555 1_555
H10 C21 0.960 1_555 1_555
H11 C22 0.961 1_555 1_555
H12 C23 0.959 1_555 1_555
C1E C1 1.294 1_555 1_555
C2E C1E 1.432 1_555 1_555
C3E C3 1.450 1_555 1_555
C6E C6 1.348 1_555 1_555
C5E C6E 1.446 1_555 1_555
C4E C3E 1.424 1_555 1_555
C7E C6E 1.436 1_555 1_555
C8E C7E 1.411 1_555 1_555
C9E C8E 1.356 1_555 1_555
C10E C9E 1.357 1_555 1_555
C11E C10E 1.366 1_555 1_555
C12E C12 1.457 1_555 1_555
H6E C11E 0.959 1_555 1_555
H5E C10E 0.960 1_555 1_555
H4E C9E 0.960 1_555 1_555
H3E C8E 0.961 1_555 1_555
H2E C2E 0.959 1_555 1_555
H1E C1E 0.960 1_555 1_555
C13E C13 1.422 1_555 1_555
C14E C13E 1.385 1_555 1_555
C15E C15 1.412 1_555 1_555
C18E C18 1.412 1_555 1_555
C17E C18E 1.407 1_555 1_555
C16E C15E 1.442 1_555 1_555
C19E C18E 1.438 1_555 1_555
C20E C19E 1.411 1_555 1_555
C21E C20E 1.387 1_555 1_555
C22E C21E 1.352 1_555 1_555
C23E C22E 1.368 1_555 1_555
C24E C24 1.428 1_555 1_555
H12E C23E 0.959 1_555 1_555
H11E C22E 0.961 1_555 1_555
H10E C21E 0.960 1_555 1_555
H9E C20E 0.960 1_555 1_555
H8E C14E 0.961 1_555 1_555
H7E C13E 0.960 1_555 1_555
C2E C3E 1.352 1_555 1_555
C5E C4E 1.207 1_555 1_555
C7E C12E 1.423 1_555 1_555
C11E C12E 1.382 1_555 1_555
C14E C15E 1.358 1_555 1_555
C17E C16E 1.209 1_555 1_555
C19E C24E 1.428 1_555 1_555
C23E C24E 1.403 1_555 1_555
#END
