
#######################################################################
#
#                 Cambridge Crystallographic Data Centre
#                                CCDC
#
#######################################################################
#
# If this CIF has been generated from an entry in the Cambridge
# Structural Database, then it will include bibliographic, chemical,
# crystal, experimental, refinement or atomic coordinate data resulting
# from the CCDC's data processing and validation procedures.
#
#######################################################################

data_CSD_CIF_TEQLEG
_audit_creation_date 1997-02-21
_audit_creation_method CSD-ConQuest-V1
_database_code_CSD TEQLEG
_chemical_formula_sum 'C26 H22'
_chemical_formula_moiety
;
C26 H22
;
_journal_coden_Cambridge 4
_journal_volume 118
_journal_year 1996
_journal_page_first 5154
_journal_name_full 'J.Am.Chem.Soc. '
loop_
_publ_author_name
"T.Takahashi"
"R.Hara"
"Y.Nishihara"
"M.Kotora"
_chemical_name_systematic
;
1,2,3,4-Tetrahydro-9,10-diphenylanthracene
;
_cell_volume   3794.366
_exptl_crystal_colour 'colorless'
_exptl_crystal_density_diffrn 1.17
_diffrn_ambient_temperature ?
_diffrn_special_details
;
The study was carried out at room temperature,in the range 283-303K

;
#These two values have been output from a single CSD field.
_refine_ls_R_factor_gt 0.053
_refine_ls_wR_factor_gt 0.053
_symmetry_cell_setting orthorhombic
_symmetry_space_group_name_H-M 'P b c a'
_symmetry_Int_Tables_number 61
loop_
_symmetry_equiv_pos_site_id
_symmetry_equiv_pos_as_xyz
1 x,y,z
2 1/2-x,-y,1/2+z
3 1/2+x,1/2-y,-z
4 -x,1/2+y,1/2-z
5 -x,-y,-z
6 -1/2+x,y,-1/2-z
7 -1/2-x,-1/2+y,z
8 x,-1/2-y,-1/2+z
_cell_length_a 10.127(2)
_cell_length_b 17.666(4)
_cell_length_c 21.209(5)
_cell_angle_alpha 90
_cell_angle_beta 90
_cell_angle_gamma 90
_cell_formula_units_Z 8
loop_
_atom_type_symbol
_atom_type_radius_bond
C 0.68
H 0.23
loop_
_atom_site_label
_atom_site_type_symbol
_atom_site_fract_x
_atom_site_fract_y
_atom_site_fract_z
C1 C 0.81167(32) 0.12871(18) 0.64278(14)
C2 C 0.83174(35) 0.10056(19) 0.58053(16)
C3 C 0.87755(35) 0.02854(19) 0.57115(17)
C4 C 0.90391(36) -0.01899(19) 0.62273(17)
C5 C 0.88775(34) 0.00645(19) 0.68338(16)
C6 C 0.84073(32) 0.08140(18) 0.69514(15)
C7 C 0.82100(33) 0.10850(18) 0.75732(15)
C8 C 0.76939(37) 0.18036(19) 0.76687(14)
C9 C 0.74407(51) 0.20877(23) 0.83311(17)
C10 C 0.69760(72) 0.28285(30) 0.83990(21)
C11 C 0.61429(52) 0.31442(25) 0.78878(21)
C12 C 0.67813(48) 0.30513(21) 0.72634(17)
C13 C 0.73716(37) 0.2271(2) 0.71452(15)
C14 C 0.75789(34) 0.20234(19) 0.65408(15)
C15 C 0.72251(35) 0.25138(19) 0.59839(15)
C16 C 0.60336(41) 0.24117(22) 0.56787(19)
C17 C 0.57240(44) 0.28670(23) 0.51611(19)
C18 C 0.65664(44) 0.34098(21) 0.49436(17)
C19 C 0.77661(40) 0.35137(20) 0.52437(16)
C20 C 0.80977(37) 0.30746(19) 0.57738(16)
C21 C 0.85196(36) 0.05939(18) 0.81224(15)
C22 C 0.97989(38) 0.04968(19) 0.83308(17)
C23 C 1.00710(43) 0.00547(24) 0.88571(19)
C24 C 0.90614(46) -0.03093(21) 0.91759(18)
C25 C 0.77819(42) -0.02170(21) 0.89747(17)
C26 C 0.75027(38) 0.02192(20) 0.84435(17)
H1 H 0.81200 0.14000 0.54300
H2 H 0.90300 -0.00900 0.52600
H3 H 0.93600 -0.07900 0.62200
H4 H 0.90600 -0.03000 0.72300
H5 H 0.82500 0.20400 0.85700
H6 H 0.68000 0.17600 0.85300
H7 H 0.77600 0.31500 0.84100
H8 H 0.65500 0.28800 0.87900
H9 H 0.58900 0.36600 0.79700
H10 H 0.52900 0.28500 0.78900
H11 H 0.74500 0.34300 0.72400
H12 H 0.61300 0.31600 0.69400
H13 H 0.52900 0.19000 0.58300
H14 H 0.47000 0.28000 0.49900
H15 H 0.64900 0.37600 0.44500
H16 H 0.85200 0.40600 0.51200
H17 H 0.91600 0.31500 0.60000
H18 H 1.06300 0.08800 0.81200
H19 H 1.11200 -0.00900 0.90600
H20 H 0.92900 -0.05900 0.96200
H21 H 0.69900 -0.06000 0.92000
H22 H 0.65000 0.04800 0.83300
loop_
_geom_bond_atom_site_label_1
_geom_bond_atom_site_label_2
_geom_bond_distance
_geom_bond_site_symmetry_1
_geom_bond_site_symmetry_2
C1 C2 1.425 1_555 1_555
C2 C3 1.369 1_555 1_555
C3 C4 1.405 1_555 1_555
C4 C5 1.372 1_555 1_555
C5 C6 1.429 1_555 1_555
C6 C1 1.421 1_555 1_555
C7 C6 1.417 1_555 1_555
C8 C7 1.388 1_555 1_555
C9 C8 1.514 1_555 1_555
C10 C9 1.398 1_555 1_555
C11 C10 1.483 1_555 1_555
C12 C11 1.483 1_555 1_555
C13 C8 1.422 1_555 1_555
C14 C1 1.430 1_555 1_555
C15 C14 1.508 1_555 1_555
C16 C15 1.381 1_555 1_555
C17 C16 1.397 1_555 1_555
C18 C17 1.364 1_555 1_555
C19 C18 1.384 1_555 1_555
C20 C15 1.400 1_555 1_555
C21 C7 1.486 1_555 1_555
C22 C21 1.380 1_555 1_555
C23 C22 1.390 1_555 1_555
C24 C23 1.384 1_555 1_555
C25 C24 1.374 1_555 1_555
C26 C21 1.401 1_555 1_555
H1 C2 1.077 1_555 1_555
H2 C3 1.193 1_555 1_555
H3 C4 1.109 1_555 1_555
H4 C5 1.075 1_555 1_555
H5 C9 0.967 1_555 1_555
H6 C9 0.966 1_555 1_555
H7 C10 0.976 1_555 1_555
H8 C10 0.939 1_555 1_555
H9 C11 0.962 1_555 1_555
H10 C11 1.008 1_555 1_555
H11 C12 0.953 1_555 1_555
H12 C12 0.971 1_555 1_555
H13 C16 1.220 1_555 1_555
H14 C17 1.105 1_555 1_555
H15 C18 1.218 1_555 1_555
H16 C19 1.258 1_555 1_555
H17 C20 1.185 1_555 1_555
H18 C22 1.169 1_555 1_555
H19 C23 1.174 1_555 1_555
H20 C24 1.089 1_555 1_555
H21 C25 1.153 1_555 1_555
H22 C26 1.141 1_555 1_555
C12 C13 1.523 1_555 1_555
C13 C14 1.371 1_555 1_555
C19 C20 1.407 1_555 1_555
C25 C26 1.394 1_555 1_555
#END
