
#######################################################################
#
#                 Cambridge Crystallographic Data Centre
#                                CCDC
#
#######################################################################
#
# If this CIF has been generated from an entry in the Cambridge
# Structural Database, then it will include bibliographic, chemical,
# crystal, experimental, refinement or atomic coordinate data resulting
# from the CCDC's data processing and validation procedures.
#
#######################################################################

data_CSD_CIF_TETCEN01
_audit_creation_date 2000-05-07
_audit_creation_method CSD-ConQuest-V1
_database_code_CSD TETCEN01
_database_code_depnum_ccdc_archive 'CCDC 114446'
_chemical_formula_sum 'C18 H12'
_chemical_formula_moiety
;
C18 H12
;
_journal_coden_Cambridge 1220
_journal_volume 5
_journal_year 1999
_journal_page_first 3399
_journal_name_full 'Chem.-Eur.J. '
loop_
_publ_author_name
"D.Holmes"
"S.Kumaraswamy"
"A.J.Matzger"
"K.P.C.Vollhardt"
_chemical_name_systematic
;
Tetracene
;
_cell_volume    572.968
_exptl_crystal_colour 'orange'
_exptl_crystal_density_diffrn 1.32
_exptl_crystal_description 'plate'
_exptl_crystal_preparation '1,2,4-trichlorobenzene'
_diffrn_ambient_temperature 175.15
#These two values have been output from a single CSD field.
_refine_ls_R_factor_gt 0.057
_refine_ls_wR_factor_gt 0.057
_symmetry_cell_setting triclinic
_symmetry_space_group_name_H-M 'P -1'
_symmetry_Int_Tables_number 2
loop_
_symmetry_equiv_pos_site_id
_symmetry_equiv_pos_as_xyz
1 x,y,z
2 -x,-y,-z
_cell_length_a 6.0565(9)
_cell_length_b 7.8376(11)
_cell_length_c 13.0104(18)
_cell_angle_alpha 77.127(2)
_cell_angle_beta 72.118(2)
_cell_angle_gamma 85.792(2)
_cell_formula_units_Z 2
loop_
_atom_type_symbol
_atom_type_radius_bond
C 0.68
H 0.23
loop_
_atom_site_label
_atom_site_type_symbol
_atom_site_fract_x
_atom_site_fract_y
_atom_site_fract_z
C1 C -0.0534(6) 0.5277(4) -0.1365(3)
C2 C 0.1374(6) 0.6258(4) -0.2075(3)
C3 C 0.1708(6) 0.6799(5) -0.3232(3)
C4 C 0.3615(7) 0.7740(5) -0.3917(3)
C5 C 0.5298(6) 0.8221(5) -0.3468(3)
C6 C 0.5042(6) 0.7755(4) -0.2377(3)
C7 C 0.3102(6) 0.6751(4) -0.1628(3)
C8 C 0.2772(5) 0.6229(4) -0.0500(3)
C9 C -0.0856(6) 0.4761(4) -0.0232(3)
H1 H -0.16730 0.49480 -0.16480
H2 H 0.05830 0.65000 -0.35350
H3 H 0.38210 0.80720 -0.46890
H4 H 0.66160 0.88780 -0.39450
H5 H 0.61780 0.81030 -0.21000
H6 H 0.38960 0.65560 -0.02080
C10 C -0.5989(5) 0.1640(4) -0.1051(3)
C11 C -0.3976(6) 0.1951(5) -0.1933(3)
C12 C -0.3898(6) 0.3128(4) -0.2956(3)
C13 C -0.1909(6) 0.3389(5) -0.3806(3)
C14 C 0.0173(6) 0.2477(5) -0.3696(3)
C15 C 0.0185(6) 0.1360(5) -0.2751(3)
C16 C -0.1861(6) 0.1036(5) -0.1827(3)
C17 C -0.1903(5) -0.0121(5) -0.0847(3)
C18 C -0.6063(5) 0.0457(4) -0.0054(3)
H7 H -0.73860 0.22310 -0.11090
H8 H -0.52670 0.37370 -0.30410
H9 H -0.18930 0.41790 -0.44780
H10 H 0.15590 0.26660 -0.42980
H11 H 0.15860 0.07710 -0.26950
H12 H -0.05100 -0.07090 -0.07790
C9A C 0.0856(6) 0.5239(4) 0.0232(3)
C1A C 0.0534(6) 0.4723(4) 0.1365(3)
C2A C -0.1374(6) 0.3742(4) 0.2075(3)
C3A C -0.1708(6) 0.3201(5) 0.3232(3)
C4A C -0.3615(7) 0.2260(5) 0.3917(3)
C5A C -0.5298(6) 0.1779(5) 0.3468(3)
C6A C -0.5042(6) 0.2245(4) 0.2377(3)
C7A C -0.3102(6) 0.3249(4) 0.1628(3)
C8A C -0.2772(5) 0.3771(4) 0.0500(3)
H6A H -0.38960 0.34440 0.02080
H5A H -0.61780 0.18970 0.21000
H4A H -0.66160 0.11220 0.39450
H3A H -0.38210 0.19280 0.46890
H2A H -0.05830 0.35000 0.35350
H1A H 0.16730 0.50520 0.16480
C18A C -0.3937(5) -0.0457(4) 0.0054(3)
C10A C -0.4011(5) -0.1640(4) 0.1051(3)
C11A C -0.6024(6) -0.1951(5) 0.1933(3)
C12A C -0.6102(6) -0.3128(4) 0.2956(3)
C13A C -0.8091(6) -0.3389(5) 0.3806(3)
C14A C -1.0173(6) -0.2477(5) 0.3696(3)
C15A C -1.0185(6) -0.1360(5) 0.2751(3)
C16A C -0.8139(6) -0.1036(5) 0.1827(3)
C17A C -0.8097(5) 0.0121(5) 0.0847(3)
H12A H -0.94900 0.07090 0.07790
H11A H -1.15860 -0.07710 0.26950
H10A H -1.15590 -0.26660 0.42980
H9A H -0.81070 -0.41790 0.44780
H8A H -0.47330 -0.37370 0.30410
H7A H -0.26140 -0.22310 0.11090
loop_
_geom_bond_atom_site_label_1
_geom_bond_atom_site_label_2
_geom_bond_distance
_geom_bond_site_symmetry_1
_geom_bond_site_symmetry_2
C1 C2 1.392 1_555 1_555
C2 C3 1.424 1_555 1_555
C3 C4 1.368 1_555 1_555
C4 C5 1.429 1_555 1_555
C5 C6 1.347 1_555 1_555
C6 C7 1.428 1_555 1_555
C7 C2 1.455 1_555 1_555
C8 C7 1.388 1_555 1_555
C9 C1 1.394 1_555 1_555
H1 C1 0.950 1_555 1_555
H2 C3 0.951 1_555 1_555
H3 C4 0.951 1_555 1_555
H4 C5 0.949 1_555 1_555
H5 C6 0.949 1_555 1_555
H6 C8 0.949 1_555 1_555
C10 C11 1.387 1_555 1_555
C11 C12 1.430 1_555 1_555
C12 C13 1.354 1_555 1_555
C13 C14 1.433 1_555 1_555
C14 C15 1.343 1_555 1_555
C15 C16 1.428 1_555 1_555
C16 C11 1.450 1_555 1_555
C17 C16 1.385 1_555 1_555
C18 C10 1.407 1_555 1_555
H7 C10 0.950 1_555 1_555
H8 C12 0.950 1_555 1_555
H9 C13 0.950 1_555 1_555
H10 C14 0.950 1_555 1_555
H11 C15 0.951 1_555 1_555
H12 C17 0.950 1_555 1_555
C9A C8 1.407 1_555 1_555
C1A C9A 1.394 1_555 1_555
C2A C1A 1.392 1_555 1_555
C3A C2A 1.424 1_555 1_555
C4A C3A 1.368 1_555 1_555
C5A C4A 1.429 1_555 1_555
C6A C5A 1.347 1_555 1_555
C7A C2A 1.455 1_555 1_555
C8A C9 1.407 1_555 1_555
H6A C8A 0.949 1_555 1_555
H5A C6A 0.949 1_555 1_555
H4A C5A 0.949 1_555 1_555
H3A C4A 0.951 1_555 1_555
H2A C3A 0.951 1_555 1_555
H1A C1A 0.950 1_555 1_555
C18A C17 1.409 1_555 1_555
C10A C18A 1.407 1_555 1_555
C11A C10A 1.387 1_555 1_555
C12A C11A 1.430 1_555 1_555
C13A C12A 1.354 1_555 1_555
C14A C13A 1.433 1_555 1_555
C15A C14A 1.343 1_555 1_555
C16A C11A 1.450 1_555 1_555
C17A C18 1.409 1_555 1_555
H12A C17A 0.950 1_555 1_555
H11A C15A 0.951 1_555 1_555
H10A C14A 0.950 1_555 1_555
H9A C13A 0.950 1_555 1_555
H8A C12A 0.950 1_555 1_555
H7A C10A 0.950 1_555 1_555
C9 C9A 1.457 1_555 1_555
C18 C18A 1.457 1_555 1_555
C6A C7A 1.428 1_555 1_555
C7A C8A 1.388 1_555 1_555
C15A C16A 1.428 1_555 1_555
C16A C17A 1.385 1_555 1_555
#END
