
#######################################################################
#
#                 Cambridge Crystallographic Data Centre
#                                CCDC
#
#######################################################################
#
# If this CIF has been generated from an entry in the Cambridge
# Structural Database, then it will include bibliographic, chemical,
# crystal, experimental, refinement or atomic coordinate data resulting
# from the CCDC's data processing and validation procedures.
#
#######################################################################

data_CSD_CIF_TETCEN
_audit_creation_date 1971-12-31
_audit_creation_method CSD-ConQuest-V1
_database_code_CSD TETCEN
_database_code_depnum_ccdc_archive 'CCDC 1269538'
_chemical_formula_sum 'C18 H12'
_chemical_formula_moiety
;
C18 H12
;
_journal_coeditor_code "IUCr A03426"
_journal_coden_Cambridge 1
_journal_volume 15
_journal_year 1962
_journal_page_first 289
_journal_name_full 'Acta Crystallogr. '
loop_
_publ_author_name
"R.B.Campbell"
"J.M.Robertson"
"J.Trotter"
_chemical_name_systematic
;
Tetracene
;
_cell_volume    582.850
_exptl_special_details
;
There are a number of bond discrepancies

;
_diffrn_ambient_temperature ?
_diffrn_special_details
;
The study was carried out at room temperature,in the range 283-303K

;
#These two values have been output from a single CSD field.
_refine_ls_R_factor_gt 0.098
_refine_ls_wR_factor_gt 0.098
_symmetry_cell_setting triclinic
_symmetry_space_group_name_H-M 'P -1'
_symmetry_Int_Tables_number 2
loop_
_symmetry_equiv_pos_site_id
_symmetry_equiv_pos_as_xyz
1 x,y,z
2 -x,-y,-z
_cell_length_a 7.9
_cell_length_b 6.03
_cell_length_c 13.53
_cell_angle_alpha 100.3
_cell_angle_beta 113.2
_cell_angle_gamma 86.3
_cell_formula_units_Z 2
loop_
_atom_type_symbol
_atom_type_radius_bond
C 0.68
H 0.20
loop_
_atom_site_label
_atom_site_type_symbol
_atom_site_fract_x
_atom_site_fract_y
_atom_site_fract_z
C1 C 0.11940 0.03310 0.38900
C2 C 0.14940 0.15640 0.32190
C3 C 0.08110 0.07240 0.20400
C4 C 0.10940 0.18990 0.13600
C5 C 0.04670 0.10890 0.02110
C6 C 0.06910 0.22280 -0.05160
C7 C -0.00350 -0.14050 0.16370
C8 C -0.03780 -0.26460 0.23550
C9 C 0.02670 -0.18320 0.34830
H1 H 0.16800 0.10000 0.47000
H2 H 0.21200 0.31700 0.34900
H3 H 0.17600 0.35400 0.16500
H4 H 0.13400 0.38800 -0.02200
H5 H -0.09500 -0.42500 0.20200
H6 H 0.01100 -0.27900 0.40000
C10 C -0.45720 -0.43200 0.37870
C11 C -0.52010 -0.31390 0.29300
C12 C -0.50030 -0.41360 0.19470
C13 C -0.55750 -0.29930 0.10480
C14 C -0.53620 -0.38600 0.00520
C15 C -0.59480 -0.27580 -0.08320
C16 C -0.42420 -0.63510 0.18110
C17 C -0.36940 -0.74320 0.26850
C18 C -0.38520 -0.66260 0.36450
H7 H -0.46900 -0.35000 0.45400
H8 H -0.57500 -0.14800 0.30500
H9 H -0.61400 -0.13000 0.11400
H10 H -0.64900 -0.11300 -0.07200
H11 H -0.31500 -0.91100 0.25300
H12 H -0.34500 -0.75400 0.42500
C5A C -0.04670 -0.10890 -0.02110
C7A C 0.00350 0.14050 -0.16370
C6A C -0.06910 -0.22280 0.05160
C4A C -0.10940 -0.18990 -0.13600
C3A C -0.08110 -0.07240 -0.20400
C8A C 0.03780 0.26460 -0.23550
H4A H -0.13400 -0.38800 0.02200
H3A H -0.17600 -0.35400 -0.16500
C2A C -0.14940 -0.15640 -0.32190
C9A C -0.02670 0.18320 -0.34830
H5A H 0.09500 0.42500 -0.20200
C1A C -0.11940 -0.03310 -0.38900
H2A H -0.21200 -0.31700 -0.34900
H6A H -0.01100 0.27900 -0.40000
H1A H -0.16800 -0.10000 -0.47000
C14A C -0.46380 -0.61400 -0.00520
C16A C -0.57580 -0.36490 -0.18110
C15A C -0.40520 -0.72420 0.08320
C13A C -0.44250 -0.70070 -0.10480
C12A C -0.49970 -0.58640 -0.19470
C17A C -0.63060 -0.25680 -0.26850
H10A H -0.35100 -0.88700 0.07200
H9A H -0.38600 -0.87000 -0.11400
C11A C -0.47990 -0.68610 -0.29300
C18A C -0.61480 -0.33740 -0.36450
H11A H -0.68500 -0.08900 -0.25300
C10A C -0.54280 -0.56800 -0.37870
H8A H -0.42500 -0.85200 -0.30500
H12A H -0.65500 -0.24600 -0.42500
H7A H -0.53100 -0.65000 -0.45400
loop_
_geom_bond_atom_site_label_1
_geom_bond_atom_site_label_2
_geom_bond_distance
_geom_bond_site_symmetry_1
_geom_bond_site_symmetry_2
C1 C2 1.366 1_555 1_555
C2 C3 1.470 1_555 1_555
C3 C4 1.347 1_555 1_555
C4 C5 1.433 1_555 1_555
C5 C6 1.366 1_555 1_555
C6 H4 1.085 1_555 1_555
C7 C3 1.402 1_555 1_555
C8 C7 1.439 1_555 1_555
C9 C1 1.445 1_555 1_555
H1 C1 1.021 1_555 1_555
H2 C2 1.053 1_555 1_555
H3 C4 1.084 1_555 1_555
H5 C8 1.041 1_555 1_555
H6 C9 1.030 1_555 1_555
C10 C11 1.376 1_555 1_555
C11 C12 1.421 1_555 1_555
C12 C13 1.409 1_555 1_555
C13 C14 1.426 1_555 1_555
C14 C15 1.376 1_555 1_555
C15 H10 1.055 1_555 1_555
C16 C12 1.440 1_555 1_555
C17 C16 1.359 1_555 1_555
C18 C10 1.477 1_555 1_555
H7 C10 1.086 1_555 1_555
H8 C11 1.075 1_555 1_555
H9 C13 1.094 1_555 1_555
H11 C17 1.092 1_555 1_555
H12 C18 1.004 1_555 1_555
C5A C5 1.456 1_555 1_555
C7A C6 1.400 1_555 1_555
C6A C7 1.400 1_555 1_555
C4A C5A 1.433 1_555 1_555
C3A C7A 1.402 1_555 1_555
C8A C7A 1.439 1_555 1_555
H4A C6A 1.085 1_555 1_555
H3A C4A 1.084 1_555 1_555
C2A C3A 1.470 1_555 1_555
C9A C8A 1.408 1_555 1_555
H5A C8A 1.041 1_555 1_555
C1A C2A 1.366 1_555 1_555
H2A C2A 1.053 1_555 1_555
H6A C9A 1.030 1_555 1_555
H1A C1A 1.021 1_555 1_555
C14A C14 1.459 1_555 1_555
C16A C15 1.399 1_555 1_555
C15A C16 1.399 1_555 1_555
C13A C14A 1.426 1_555 1_555
C12A C16A 1.440 1_555 1_555
C17A C16A 1.359 1_555 1_555
H10A C15A 1.055 1_555 1_555
H9A C13A 1.094 1_555 1_555
C11A C12A 1.421 1_555 1_555
C18A C17A 1.354 1_555 1_555
H11A C17A 1.092 1_555 1_555
C10A C11A 1.376 1_555 1_555
H8A C11A 1.075 1_555 1_555
H12A C18A 1.004 1_555 1_555
H7A C10A 1.086 1_555 1_555
C8 C9 1.408 1_555 1_555
C17 C18 1.354 1_555 1_555
C5A C6A 1.366 1_555 1_555
C4A C3A 1.347 1_555 1_555
C9A C1A 1.445 1_555 1_555
C14A C15A 1.376 1_555 1_555
C13A C12A 1.409 1_555 1_555
C18A C10A 1.477 1_555 1_555
#END
