
#######################################################################
#
#                 Cambridge Crystallographic Data Centre
#                                CCDC
#
#######################################################################
#
# If this CIF has been generated from an entry in the Cambridge
# Structural Database, then it will include bibliographic, chemical,
# crystal, experimental, refinement or atomic coordinate data resulting
# from the CCDC's data processing and validation procedures.
#
#######################################################################

data_CSD_CIF_TETPHD
_audit_creation_date 1975-12-19
_audit_creation_method CSD-ConQuest-V1
_database_code_CSD TETPHD
_chemical_formula_sum 'C36 H24'
_chemical_formula_moiety
;
C36 H24
;
_journal_coden_Cambridge 189
_journal_volume 4
_journal_year 1975
_journal_page_first 497
_journal_name_full 'Cryst.Struct.Commun. '
loop_
_publ_author_name
"J.Gaultier"
"C.Hauw"
"J.P.Desvergne"
"R.Lapouyade"
_chemical_name_systematic
;
Tetracene trans-photodimer
;
_cell_volume   2345.339
_diffrn_ambient_temperature ?
_diffrn_special_details
;
The study was carried out at room temperature,in the range 283-303K

;
#These two values have been output from a single CSD field.
_refine_ls_R_factor_gt 0.036
_refine_ls_wR_factor_gt 0.036
_symmetry_cell_setting orthorhombic
_symmetry_space_group_name_H-M 'P b c a'
_symmetry_Int_Tables_number 61
loop_
_symmetry_equiv_pos_site_id
_symmetry_equiv_pos_as_xyz
1 x,y,z
2 1/2-x,1/2+y,z
3 x,1/2-y,1/2+z
4 1/2-x,-y,1/2+z
5 -x,-y,-z
6 -1/2+x,-1/2-y,-z
7 -x,-1/2+y,-1/2-z
8 -1/2+x,y,-1/2-z
_cell_length_a 11.519(3)
_cell_length_b 23.352(5)
_cell_length_c 8.719(3)
_cell_angle_alpha 90
_cell_angle_beta 90
_cell_angle_gamma 90
_cell_formula_units_Z 4
loop_
_atom_type_symbol
_atom_type_radius_bond
C 0.68
H 0.23
loop_
_atom_site_label
_atom_site_type_symbol
_atom_site_fract_x
_atom_site_fract_y
_atom_site_fract_z
C1 C 0.46020 0.41760 0.20310
C10 C 0.59690 0.34350 0.28630
C11 C 0.57310 0.60750 0.27910
C12 C 0.66780 0.64270 0.30860
C13 C 0.75290 0.62520 0.41060
C14 C 0.74460 0.57210 0.48180
C15 C 0.65000 0.53680 0.45340
C16 C 0.56310 0.55480 0.35160
C17 C 0.36770 0.52040 0.46880
C18 C 0.45960 0.51560 0.32940
C2 C 0.50380 0.45490 0.30970
C3 C 0.59350 0.43660 0.41100
C4 C 0.63910 0.38290 0.39770
C5 C 0.64270 0.28740 0.26930
C6 C 0.59390 0.24960 0.16740
C7 C 0.49990 0.26590 0.07570
C8 C 0.45590 0.32030 0.08590
C9 C 0.50330 0.36070 0.19050
H1 H 0.39500 0.43000 0.13300
H11 H 0.51200 0.62100 0.20500
H12 H 0.67100 0.68300 0.25800
H13 H 0.81900 0.65200 0.43500
H14 H 0.80300 0.55900 0.55600
H17 H 0.29400 0.53400 0.42200
H18 H 0.41800 0.52800 0.23400
H4 H 0.70200 0.37000 0.46900
H5 H 0.71100 0.27600 0.33500
H6 H 0.62700 0.21000 0.15600
H7 H 0.46200 0.23700 0.00300
H8 H 0.39000 0.33200 0.01600
C17D C 0.63230 0.47960 0.53120
C15D C 0.35000 0.46320 0.54660
C3D C 0.40650 0.56340 0.58900
C18D C 0.54040 0.48440 0.67060
H17D H 0.70600 0.46600 0.57800
C14D C 0.25540 0.42790 0.51820
C16D C 0.43690 0.44520 0.64840
C2D C 0.49620 0.54510 0.69030
C4D C 0.36090 0.61710 0.60230
H18D H 0.58200 0.47200 0.76600
C13D C 0.24710 0.37480 0.58940
H14D H 0.19700 0.44100 0.44400
C11D C 0.42690 0.39250 0.72090
C1D C 0.53980 0.58240 0.79690
C10D C 0.40310 0.65650 0.71370
H4D H 0.29800 0.63000 0.53100
C12D C 0.33220 0.35730 0.69140
H13D H 0.18100 0.34800 0.56500
H11D H 0.48800 0.37900 0.79500
C9D C 0.49670 0.63930 0.80950
H1D H 0.60500 0.57000 0.86700
C5D C 0.35730 0.71260 0.73070
H12D H 0.32900 0.31700 0.74200
C8D C 0.54410 0.67970 0.91410
C6D C 0.40610 0.75040 0.83260
H5D H 0.28900 0.72400 0.66500
C7D C 0.50010 0.73410 0.92430
H8D H 0.61000 0.66800 0.98400
H6D H 0.37300 0.79000 0.84400
H7D H 0.53800 0.76300 0.99700
loop_
_geom_bond_atom_site_label_1
_geom_bond_atom_site_label_2
_geom_bond_distance
_geom_bond_site_symmetry_1
_geom_bond_site_symmetry_2
C1 C2 1.369 1_555 1_555
C10 C4 1.423 1_555 1_555
C11 C12 1.390 1_555 1_555
C12 C13 1.385 1_555 1_555
C13 C14 1.390 1_555 1_555
C14 C15 1.389 1_555 1_555
C15 C16 1.402 1_555 1_555
C16 C11 1.388 1_555 1_555
C17 C15D 1.512 1_555 1_555
C18 C16 1.516 1_555 1_555
C2 C18 1.516 1_555 1_555
C3 C2 1.425 1_555 1_555
C4 C3 1.365 1_555 1_555
C5 C10 1.420 1_555 1_555
C6 C5 1.373 1_555 1_555
C7 C6 1.399 1_555 1_555
C8 C7 1.371 1_555 1_555
C9 C1 1.423 1_555 1_555
H1 C1 1.011 1_555 1_555
H11 C11 1.006 1_555 1_555
H12 C12 1.040 1_555 1_555
H13 C13 1.008 1_555 1_555
H14 C14 0.982 1_555 1_555
H17 C17 0.994 1_555 1_555
H18 C18 1.003 1_555 1_555
H4 C4 1.001 1_555 1_555
H5 C5 1.009 1_555 1_555
H6 C6 1.005 1_555 1_555
H7 C7 1.024 1_555 1_555
H8 C8 1.011 1_555 1_555
C17D C15 1.512 1_555 1_555
C15D C14D 1.389 1_555 1_555
C3D C17 1.519 1_555 1_555
C18D C17D 1.616 1_555 1_555
H17D C17D 0.994 1_555 1_555
C14D C13D 1.390 1_555 1_555
C16D C15D 1.402 1_555 1_555
C2D C3D 1.425 1_555 1_555
C4D C3D 1.365 1_555 1_555
H18D C18D 1.003 1_555 1_555
C13D C12D 1.385 1_555 1_555
H14D C14D 0.982 1_555 1_555
C11D C16D 1.388 1_555 1_555
C1D C2D 1.369 1_555 1_555
C10D C4D 1.423 1_555 1_555
H4D C4D 1.001 1_555 1_555
C12D C11D 1.390 1_555 1_555
H13D C13D 1.008 1_555 1_555
H11D C11D 1.006 1_555 1_555
C9D C1D 1.423 1_555 1_555
H1D C1D 1.011 1_555 1_555
C5D C10D 1.420 1_555 1_555
H12D C12D 1.040 1_555 1_555
C8D C9D 1.421 1_555 1_555
C6D C5D 1.373 1_555 1_555
H5D C5D 1.009 1_555 1_555
C7D C8D 1.371 1_555 1_555
H8D C8D 1.011 1_555 1_555
H6D C6D 1.005 1_555 1_555
H7D C7D 1.024 1_555 1_555
C10 C9 1.422 1_555 1_555
C17 C18 1.616 1_555 1_555
C3 C17D 1.519 1_555 1_555
C8 C9 1.421 1_555 1_555
C18D C16D 1.516 1_555 1_555
C18D C2D 1.516 1_555 1_555
C10D C9D 1.422 1_555 1_555
C6D C7D 1.399 1_555 1_555
#END
