
#######################################################################
#
#                 Cambridge Crystallographic Data Centre
#                                CCDC
#
#######################################################################
#
# If this CIF has been generated from an entry in the Cambridge
# Structural Database, then it will include bibliographic, chemical,
# crystal, experimental, refinement or atomic coordinate data resulting
# from the CCDC's data processing and validation procedures.
#
#######################################################################

data_CSD_CIF_TEWWIE
_audit_creation_date 2018-05-02
_audit_creation_method CSD-ConQuest-V1
_database_code_CSD TEWWIE
_database_code_depnum_ccdc_archive 'CCDC 1579023'
_chemical_formula_sum 'C30 H22'
_chemical_formula_moiety
;
C30 H22
;
_journal_coden_Cambridge 1475
_journal_volume 9
_journal_year 2018
_journal_page_first 4662
_journal_name_full 'Chemical Science '
loop_
_publ_author_name
"Yuanjing Cai"
"Lili Du"
"K.Samedov"
"Xinggui Gu"
"Fei Qi"
"H.H.Y.Sung"
"B.O.Patrick"
"Zhiping Yan"
"Xiaofang Jiang"
"Haoke Zhang"
"J.W.Y.Lam"
"I.D.Williams"
"D.L.Phillips"
"Anjun Qin"
"Ben Zhong Tang"
_chemical_name_systematic
;
4,5,14,15-tetrahydro-13,9:16,20-bis(metheno)cyclotetradeca[e]pyrene
;
_cell_volume   5972.186
_exptl_crystal_colour 'colorless'
_exptl_crystal_density_diffrn 1.276
_exptl_crystal_description 'block'
_diffrn_ambient_temperature 220.0
#These two values have been output from a single CSD field.
_refine_ls_R_factor_gt 0.0618
_refine_ls_wR_factor_gt 0.0618
_symmetry_cell_setting monoclinic
_symmetry_space_group_name_H-M 'C 2/c'
_symmetry_Int_Tables_number 15
loop_
_symmetry_equiv_pos_site_id
_symmetry_equiv_pos_as_xyz
1 x,y,z
2 -x,y,1/2-z
3 1/2+x,1/2+y,z
4 1/2-x,1/2+y,1/2-z
5 -x,-y,-z
6 x,-y,-1/2+z
7 -1/2-x,-1/2-y,-z
8 -1/2+x,-1/2-y,-1/2+z
_cell_length_a 18.2724(17)
_cell_length_b 19.5178(15)
_cell_length_c 18.301(2)
_cell_angle_alpha 90
_cell_angle_beta 113.791(12)
_cell_angle_gamma 90
_cell_formula_units_Z 12
loop_
_atom_type_symbol
_atom_type_radius_bond
C 0.68
H 0.23
loop_
_atom_site_label
_atom_site_type_symbol
_atom_site_fract_x
_atom_site_fract_y
_atom_site_fract_z
C1 C 0.16055(15) 0.34871(15) 0.11421(17)
C2 C 0.20338(15) 0.28935(14) 0.14436(17)
C3 C 0.2843(2) 0.45193(19) 0.3818(2)
H1 H 0.24640 0.43060 0.40050
H2 H 0.30300 0.49500 0.41100
C4 C 0.17996(16) 0.41365(15) 0.16121(18)
C5 C 0.19315(17) 0.41545(17) 0.2422(2)
H3 H 0.16890 0.38270 0.26290
C6 C 0.24281(19) 0.46652(18) 0.2924(2)
C7 C 0.26447(19) 0.52251(16) 0.2586(2)
H4 H 0.29570 0.55790 0.29130
C8 C 0.24007(18) 0.52597(16) 0.1772(2)
H5 H 0.24970 0.56590 0.15380
C9 C 0.20115(16) 0.47079(15) 0.1290(2)
H6 H 0.18910 0.47220 0.07400
C10 C 0.35568(19) 0.40383(19) 0.3981(2)
H7 H 0.39200 0.42380 0.37650
H8 H 0.38530 0.39780 0.45580
C11 C 0.25005(16) 0.28000(15) 0.23213(18)
C12 C 0.30670(16) 0.32847(16) 0.27763(19)
H9 H 0.33220 0.35650 0.25320
C13 C 0.32531(18) 0.33509(17) 0.3590(2)
C14 C 0.2964(2) 0.28589(19) 0.3968(2)
H10 H 0.30870 0.28950 0.45170
C15 C 0.2502(2) 0.23246(18) 0.3536(2)
H11 H 0.23580 0.19700 0.38000
C16 C 0.22464(18) 0.23060(16) 0.2714(2)
H12 H 0.18990 0.19570 0.24190
C17 C 0.01466(19) 0.22248(19) -0.1389(2)
H13 H -0.01780 0.23140 -0.19550
H14 H -0.01410 0.18930 -0.12000
C18 C 0.09965(16) 0.34906(15) 0.03268(18)
C19 C 0.09092(16) 0.29172(15) -0.01661(17)
C20 C 0.02565(17) 0.28814(18) -0.09235(19)
C21 C -0.02699(18) 0.34222(19) -0.1177(2)
H15 H -0.06990 0.34020 -0.16810
C22 C -0.01778(18) 0.39961(19) -0.07035(19)
H16 H -0.05380 0.43640 -0.08930
C23 C 0.04376(16) 0.40320(17) 0.00425(18)
H17 H 0.04870 0.44190 0.03650
C24 C 0.09421(19) 0.19241(18) -0.12968(19)
H18 H 0.08560 0.14770 -0.15620
H19 H 0.11970 0.22260 -0.15530
C25 C 0.20005(16) 0.23309(15) 0.09151(18)
C26 C 0.14665(16) 0.23570(15) 0.01102(18)
C27 C 0.14784(18) 0.18429(16) -0.0432(2)
C28 C 0.2005(2) 0.13074(17) -0.0154(2)
H20 H 0.20100 0.09610 -0.05090
C29 C 0.25327(19) 0.12694(16) 0.0647(2)
H21 H 0.28890 0.08990 0.08270
C30 C 0.25342(18) 0.17710(15) 0.1173(2)
H22 H 0.28940 0.17420 0.17110
C31 C 0.48181(16) 0.24096(14) 0.70898(17)
C32 C 0.46300(18) 0.49203(15) 0.7090(2)
H23 H 0.41360 0.49140 0.71800
H24 H 0.46320 0.53380 0.67940
C33 C 0.47408(16) 0.30561(16) 0.66232(18)
C34 C 0.44337(16) 0.36586(15) 0.67975(19)
H25 H 0.40730 0.36360 0.70460
C35 C 0.46573(18) 0.42970(17) 0.6606(2)
C36 C 0.50823(19) 0.43174(17) 0.6118(2)
H26 H 0.52200 0.47430 0.59690
C37 C 0.53014(18) 0.37214(17) 0.5852(2)
H27 H 0.55460 0.37390 0.54890
C38 C 0.51546(17) 0.30948(17) 0.61288(18)
H28 H 0.53370 0.26900 0.59800
C39 C 0.45873(17) -0.01314(15) 0.71648(19)
H29 H 0.45340 -0.05280 0.68180
H30 H 0.41850 -0.01740 0.73890
C40 C 0.45649(16) 0.17691(15) 0.66637(17)
C41 C 0.47511(16) 0.11386(14) 0.70760(16)
C42 C 0.44386(17) 0.05152(16) 0.66785(19)
C43 C 0.39715(18) 0.05257(17) 0.58762(19)
H31 H 0.37710 0.01120 0.56070
C44 C 0.37874(18) 0.11400(18) 0.54506(19)
H32 H 0.34650 0.11360 0.49000
C45 C 0.40757(17) 0.17520(17) 0.58318(18)
H33 H 0.39480 0.21630 0.55390
C31A C 0.51819(16) 0.24096(14) 0.79102(17)
C32A C 0.53700(18) 0.49203(15) 0.7910(2)
H23A H 0.58640 0.49140 0.78200
H24A H 0.53680 0.53380 0.82060
C33A C 0.52592(16) 0.30561(16) 0.83768(18)
C34A C 0.55663(16) 0.36586(15) 0.82025(19)
H25A H 0.59270 0.36360 0.79540
C35A C 0.53427(18) 0.42970(17) 0.8394(2)
C36A C 0.49177(19) 0.43174(17) 0.8882(2)
H26A H 0.47800 0.47430 0.90310
C37A C 0.46986(18) 0.37214(17) 0.9148(2)
H27A H 0.44540 0.37390 0.95110
C38A C 0.48454(17) 0.30948(17) 0.88712(18)
H28A H 0.46630 0.26900 0.90200
C39A C 0.54127(17) -0.01314(15) 0.78352(19)
H29A H 0.54660 -0.05280 0.81820
H30A H 0.58150 -0.01740 0.76110
C40A C 0.54351(16) 0.17691(15) 0.83363(17)
C41A C 0.52489(16) 0.11386(14) 0.79240(16)
C42A C 0.55614(17) 0.05152(16) 0.83215(19)
C43A C 0.60285(18) 0.05257(17) 0.91238(19)
H31A H 0.62290 0.01120 0.93930
C44A C 0.62126(18) 0.11400(18) 0.95494(19)
H32A H 0.65350 0.11360 1.01000
C45A C 0.59243(17) 0.17520(17) 0.91682(18)
H33A H 0.60520 0.21630 0.94610
loop_
_geom_bond_atom_site_label_1
_geom_bond_atom_site_label_2
_geom_bond_distance
_geom_bond_site_symmetry_1
_geom_bond_site_symmetry_2
C1 C2 1.382 1_555 1_555
C2 C11 1.495 1_555 1_555
C3 H1 0.980 1_555 1_555
H2 C3 0.981 1_555 1_555
C4 C1 1.492 1_555 1_555
C5 C4 1.403 1_555 1_555
H3 C5 0.940 1_555 1_555
C6 C3 1.527 1_555 1_555
C7 C6 1.390 1_555 1_555
H4 C7 0.941 1_555 1_555
C8 C7 1.374 1_555 1_555
H5 C8 0.939 1_555 1_555
C9 C4 1.388 1_555 1_555
H6 C9 0.940 1_555 1_555
C10 C3 1.535 1_555 1_555
H7 C10 0.980 1_555 1_555
H8 C10 0.980 1_555 1_555
C11 C12 1.402 1_555 1_555
C12 H9 0.940 1_555 1_555
C13 C10 1.516 1_555 1_555
C14 C13 1.405 1_555 1_555
H10 C14 0.940 1_555 1_555
C15 C14 1.374 1_555 1_555
H11 C15 0.940 1_555 1_555
C16 C11 1.390 1_555 1_555
H12 C16 0.939 1_555 1_555
C17 H13 0.979 1_555 1_555
H14 C17 0.981 1_555 1_555
C18 C1 1.458 1_555 1_555
C19 C18 1.406 1_555 1_555
C20 C17 1.507 1_555 1_555
C21 C20 1.376 1_555 1_555
H15 C21 0.940 1_555 1_555
C22 C21 1.384 1_555 1_555
H16 C22 0.941 1_555 1_555
C23 C18 1.415 1_555 1_555
H17 C23 0.940 1_555 1_555
C24 C17 1.513 1_555 1_555
H18 C24 0.980 1_555 1_555
H19 C24 0.980 1_555 1_555
C25 C2 1.448 1_555 1_555
C26 C19 1.440 1_555 1_555
C27 C24 1.496 1_555 1_555
C28 C27 1.372 1_555 1_555
H20 C28 0.940 1_555 1_555
C29 C28 1.394 1_555 1_555
H21 C29 0.939 1_555 1_555
C30 C25 1.413 1_555 1_555
H22 C30 0.939 1_555 1_555
C31 C33 1.498 1_555 1_555
C32 H23 0.981 1_555 1_555
H24 C32 0.980 1_555 1_555
C33 C34 1.394 1_555 1_555
C34 H25 0.941 1_555 1_555
C35 C32 1.517 1_555 1_555
C36 C35 1.401 1_555 1_555
H26 C36 0.940 1_555 1_555
C37 C36 1.381 1_555 1_555
H27 C37 0.939 1_555 1_555
C38 C33 1.396 1_555 1_555
H28 C38 0.940 1_555 1_555
C39 H29 0.981 1_555 1_555
H30 C39 0.979 1_555 1_555
C40 C31 1.447 1_555 1_555
C41 C40 1.412 1_555 1_555
C42 C39 1.504 1_555 1_555
C43 C42 1.369 1_555 1_555
H31 C43 0.940 1_555 1_555
C44 C43 1.395 1_555 1_555
H32 C44 0.940 1_555 1_555
C45 C40 1.421 1_555 1_555
H33 C45 0.940 1_555 1_555
C31A C31 1.375 1_555 1_555
C32A C32 1.563 1_555 1_555
H23A C32A 0.981 1_555 1_555
H24A C32A 0.980 1_555 1_555
C33A C31A 1.498 1_555 1_555
C34A C33A 1.394 1_555 1_555
H25A C34A 0.941 1_555 1_555
C35A C32A 1.517 1_555 1_555
C36A C35A 1.401 1_555 1_555
H26A C36A 0.940 1_555 1_555
C37A C36A 1.381 1_555 1_555
H27A C37A 0.939 1_555 1_555
C38A C33A 1.396 1_555 1_555
H28A C38A 0.940 1_555 1_555
C39A C39 1.512 1_555 1_555
H29A C39A 0.981 1_555 1_555
H30A C39A 0.979 1_555 1_555
C40A C31A 1.447 1_555 1_555
C41A C41 1.448 1_555 1_555
C42A C39A 1.504 1_555 1_555
C43A C42A 1.369 1_555 1_555
H31A C43A 0.940 1_555 1_555
C44A C43A 1.395 1_555 1_555
H32A C44A 0.940 1_555 1_555
C45A C40A 1.421 1_555 1_555
H33A C45A 0.940 1_555 1_555
C5 C6 1.410 1_555 1_555
C8 C9 1.392 1_555 1_555
C12 C13 1.393 1_555 1_555
C15 C16 1.384 1_555 1_555
C19 C20 1.419 1_555 1_555
C22 C23 1.376 1_555 1_555
C25 C26 1.402 1_555 1_555
C26 C27 1.418 1_555 1_555
C29 C30 1.372 1_555 1_555
C34 C35 1.399 1_555 1_555
C37 C38 1.391 1_555 1_555
C41 C42 1.414 1_555 1_555
C44 C45 1.376 1_555 1_555
C34A C35A 1.399 1_555 1_555
C37A C38A 1.391 1_555 1_555
C40A C41A 1.412 1_555 1_555
C41A C42A 1.414 1_555 1_555
C44A C45A 1.376 1_555 1_555
#END
