
#######################################################################
#
#                 Cambridge Crystallographic Data Centre
#                                CCDC
#
#######################################################################
#
# If this CIF has been generated from an entry in the Cambridge
# Structural Database, then it will include bibliographic, chemical,
# crystal, experimental, refinement or atomic coordinate data resulting
# from the CCDC's data processing and validation procedures.
#
#######################################################################

data_CSD_CIF_TEWXEB
_audit_creation_date 2018-05-02
_audit_creation_method CSD-ConQuest-V1
_database_code_CSD TEWXEB
_database_code_depnum_ccdc_archive 'CCDC 1579027'
_chemical_formula_sum 'C29 H24'
_chemical_formula_moiety
;
C29 H24
;
_journal_coden_Cambridge 1475
_journal_volume 9
_journal_year 2018
_journal_page_first 4662
_journal_name_full 'Chemical Science '
loop_
_publ_author_name
"Yuanjing Cai"
"Lili Du"
"K.Samedov"
"Xinggui Gu"
"Fei Qi"
"H.H.Y.Sung"
"B.O.Patrick"
"Zhiping Yan"
"Xiaofang Jiang"
"Haoke Zhang"
"J.W.Y.Lam"
"I.D.Williams"
"D.L.Phillips"
"Anjun Qin"
"Ben Zhong Tang"
_chemical_name_systematic
;
10-(2,6-dimethylphenyl)-1-methyl-9-phenylphenanthrene
;
_cell_volume   4078.624
_exptl_crystal_colour 'colorless'
_exptl_crystal_density_diffrn 1.213
_exptl_crystal_description 'needle'
_diffrn_ambient_temperature 99.9
#These two values have been output from a single CSD field.
_refine_ls_R_factor_gt 0.0571
_refine_ls_wR_factor_gt 0.0571
_symmetry_cell_setting monoclinic
_symmetry_space_group_name_H-M 'P 21/c'
_symmetry_Int_Tables_number 14
loop_
_symmetry_equiv_pos_site_id
_symmetry_equiv_pos_as_xyz
1 x,y,z
2 -x,1/2+y,1/2-z
3 -x,-y,-z
4 x,-1/2-y,-1/2+z
_cell_length_a 7.3960(2)
_cell_length_b 30.1314(11)
_cell_length_c 18.3110(7)
_cell_angle_alpha 90
_cell_angle_beta 91.801(3)
_cell_angle_gamma 90
_cell_formula_units_Z 8
loop_
_atom_type_symbol
_atom_type_radius_bond
C 0.68
H 0.23
loop_
_atom_site_label
_atom_site_type_symbol
_atom_site_fract_x
_atom_site_fract_y
_atom_site_fract_z
C1 C 0.4166(2) 0.36550(6) 0.1788(1)
C2 C 0.4417(2) 0.36350(6) 0.10508(10)
C3 C 0.3330(2) 0.33438(6) 0.05875(10)
C4 C 0.3379(2) 0.33691(6) -0.01826(10)
H1 H 0.42110 0.35650 -0.04010
C5 C 0.2248(2) 0.31160(6) -0.06206(11)
H2 H 0.22890 0.31390 -0.11370
C6 C 0.1031(2) 0.28233(6) -0.03011(11)
H3 H 0.02450 0.26480 -0.06030
C7 C 0.0968(2) 0.27890(6) 0.04442(11)
H4 H 0.01360 0.25890 0.06510
C8 C 0.2114(2) 0.30453(6) 0.09124(10)
C9 C 0.2055(2) 0.30178(6) 0.17048(10)
C10 C 0.1057(2) 0.26787(6) 0.20346(11)
H5 H 0.04500 0.24640 0.17360
C11 C 0.0944(3) 0.26524(7) 0.27760(11)
H6 H 0.02790 0.24200 0.29920
C12 C 0.1816(2) 0.29701(6) 0.32123(11)
H7 H 0.17120 0.29520 0.37270
C13 C 0.2823(2) 0.33103(6) 0.29285(11)
C14 C 0.3007(2) 0.33357(6) 0.21514(10)
C15 C 0.3635(3) 0.36331(7) 0.34856(11)
H8 H 0.49560 0.36310 0.34560
H9 H 0.32960 0.35440 0.39770
H10 H 0.31770 0.39330 0.33830
C16 C 0.5075(2) 0.40279(6) 0.21942(10)
C17 C 0.4123(3) 0.44266(7) 0.22686(12)
C18 C 0.4968(3) 0.47797(7) 0.26198(13)
H11 H 0.43320 0.50510 0.26750
C19 C 0.6722(4) 0.47432(8) 0.28906(14)
H12 H 0.72940 0.49900 0.31220
C20 C 0.7649(3) 0.43486(9) 0.28263(12)
H13 H 0.88460 0.43250 0.30260
C21 C 0.6859(3) 0.39831(7) 0.24739(11)
C22 C 0.2198(3) 0.44733(8) 0.19860(14)
H14 H 0.21690 0.44700 0.14510
H15 H 0.16970 0.47540 0.21570
H16 H 0.14750 0.42260 0.21660
C23 C 0.7850(3) 0.35512(8) 0.24121(12)
H17 H 0.71070 0.33110 0.26030
H18 H 0.89950 0.35670 0.26950
H19 H 0.80960 0.34930 0.18980
C24 C 0.5831(2) 0.39122(6) 0.06956(10)
C25 C 0.5633(3) 0.43636(6) 0.05695(11)
H20 H 0.45600 0.45100 0.07090
C26 C 0.6989(3) 0.46041(7) 0.02412(12)
H21 H 0.68380 0.49130 0.01570
C27 C 0.8556(3) 0.43952(7) 0.00364(12)
H22 H 0.94820 0.45610 -0.01860
C28 C 0.8777(3) 0.39458(7) 0.01542(11)
H23 H 0.98530 0.38010 0.00120
C29 C 0.7417(2) 0.37060(7) 0.04821(11)
H24 H 0.75710 0.33970 0.05620
C30 C 0.0694(2) 0.63480(6) 0.36613(10)
C31 C 0.0617(2) 0.63580(6) 0.29137(10)
C32 C 0.1774(2) 0.66512(6) 0.2511(1)
C33 C 0.1826(2) 0.66380(6) 0.17425(11)
H25 H 0.10700 0.64340 0.14810
C34 C 0.2943(2) 0.69124(6) 0.13633(11)
H26 H 0.29610 0.68980 0.08450
C35 C 0.4054(2) 0.72139(6) 0.17466(11)
H27 H 0.48460 0.74010 0.14880
C36 C 0.4008(2) 0.72415(6) 0.24927(11)
H28 H 0.47620 0.74510 0.27430
C37 C 0.2863(2) 0.69653(6) 0.28967(10)
C38 C 0.2788(2) 0.69897(6) 0.36880(11)
C39 C 0.3661(2) 0.73396(7) 0.40738(11)
H29 H 0.42260 0.75700 0.38100
C40 C 0.3706(2) 0.73525(7) 0.48173(11)
H30 H 0.42600 0.75950 0.50700
C41 C 0.2931(2) 0.70065(7) 0.52033(11)
H31 H 0.30330 0.70100 0.57220
C42 C 0.2020(2) 0.66596(7) 0.48642(11)
C43 C 0.1840(2) 0.66576(6) 0.40796(10)
C44 C 0.1372(3) 0.62927(7) 0.53573(11)
H32 H 0.00500 0.63030 0.53760
H33 H 0.18990 0.63330 0.58500
H34 H 0.17470 0.60050 0.51650
C45 C -0.0561(2) 0.60296(6) 0.40281(10)
C46 C -0.0132(3) 0.55789(7) 0.40814(11)
C47 C -0.1365(3) 0.52929(7) 0.43998(12)
H35 H -0.10900 0.49860 0.44440
C48 C -0.2987(3) 0.54527(8) 0.46523(13)
H36 H -0.38220 0.52540 0.48630
C49 C -0.3392(3) 0.58940(8) 0.46000(12)
H37 H -0.45090 0.59990 0.47750
C50 C -0.2198(2) 0.61903(7) 0.42953(11)
C51 C 0.1646(3) 0.54001(7) 0.38288(13)
H38 H 0.17650 0.54650 0.33080
H39 H 0.16870 0.50780 0.39050
H40 H 0.26410 0.55410 0.41090
C52 C -0.2643(3) 0.66750(7) 0.42849(12)
H41 H -0.18640 0.68310 0.46440
H42 H -0.39130 0.67160 0.44070
H43 H -0.24450 0.67950 0.37970
C53 C -0.0713(2) 0.60824(6) 0.24763(10)
C54 C -0.0188(3) 0.57078(6) 0.20904(11)
H44 H 0.10360 0.56120 0.21250
C55 C -0.1423(3) 0.54716(7) 0.16564(12)
H45 H -0.10440 0.52160 0.14000
C56 C -0.3207(3) 0.56093(7) 0.15974(12)
H46 H -0.40540 0.54480 0.13010
C57 C -0.3753(3) 0.59821(7) 0.19704(12)
H47 H -0.49740 0.60790 0.19270
C58 C -0.2515(2) 0.62160(7) 0.24091(11)
H48 H -0.29040 0.64710 0.26670
loop_
_geom_bond_atom_site_label_1
_geom_bond_atom_site_label_2
_geom_bond_distance
_geom_bond_site_symmetry_1
_geom_bond_site_symmetry_2
C1 C2 1.370 1_555 1_555
C2 C3 1.447 1_555 1_555
C3 C4 1.414 1_555 1_555
C4 H1 0.950 1_555 1_555
C5 C4 1.372 1_555 1_555
H2 C5 0.950 1_555 1_555
C6 C5 1.401 1_555 1_555
H3 C6 0.950 1_555 1_555
C7 C6 1.371 1_555 1_555
H4 C7 0.949 1_555 1_555
C8 C3 1.416 1_555 1_555
C9 C8 1.455 1_555 1_555
C10 C9 1.408 1_555 1_555
H5 C10 0.951 1_555 1_555
C11 C10 1.365 1_555 1_555
H6 C11 0.949 1_555 1_555
C12 C11 1.392 1_555 1_555
H7 C12 0.950 1_555 1_555
C13 C12 1.378 1_555 1_555
C14 C1 1.463 1_555 1_555
C15 C13 1.519 1_555 1_555
H8 C15 0.980 1_555 1_555
H9 C15 0.979 1_555 1_555
H10 C15 0.981 1_555 1_555
C16 C1 1.495 1_555 1_555
C17 C16 1.401 1_555 1_555
C18 C17 1.382 1_555 1_555
H11 C18 0.950 1_555 1_555
C19 C18 1.379 1_555 1_555
H12 C19 0.949 1_555 1_555
C20 C19 1.379 1_555 1_555
H13 C20 0.950 1_555 1_555
C21 C16 1.407 1_555 1_555
C22 C17 1.506 1_555 1_555
H14 C22 0.979 1_555 1_555
H15 C22 0.979 1_555 1_555
H16 C22 0.980 1_555 1_555
C23 C21 1.500 1_555 1_555
H17 C23 0.980 1_555 1_555
H18 C23 0.980 1_555 1_555
H19 C23 0.980 1_555 1_555
C24 C2 1.502 1_555 1_555
C25 C24 1.387 1_555 1_555
H20 C25 0.950 1_555 1_555
C26 C25 1.389 1_555 1_555
H21 C26 0.949 1_555 1_555
C27 C26 1.381 1_555 1_555
H22 C27 0.950 1_555 1_555
C28 C27 1.380 1_555 1_555
H23 C28 0.951 1_555 1_555
C29 C24 1.394 1_555 1_555
H24 C29 0.949 1_555 1_555
C30 C31 1.369 1_555 1_555
C31 C32 1.448 1_555 1_555
C32 C33 1.409 1_555 1_555
C33 H25 0.950 1_555 1_555
C34 C33 1.373 1_555 1_555
H26 C34 0.951 1_555 1_555
C35 C34 1.399 1_555 1_555
H27 C35 0.950 1_555 1_555
C36 C35 1.370 1_555 1_555
H28 C36 0.951 1_555 1_555
C37 C32 1.417 1_555 1_555
C38 C37 1.454 1_555 1_555
C39 C38 1.414 1_555 1_555
H29 C39 0.950 1_555 1_555
C40 C39 1.361 1_555 1_555
H30 C40 0.951 1_555 1_555
C41 C40 1.393 1_555 1_555
H31 C41 0.950 1_555 1_555
C42 C41 1.381 1_555 1_555
C43 C30 1.461 1_555 1_555
C44 C42 1.515 1_555 1_555
H32 C44 0.980 1_555 1_555
H33 C44 0.979 1_555 1_555
H34 C44 0.979 1_555 1_555
C45 C30 1.507 1_555 1_555
C46 C45 1.397 1_555 1_555
C47 C46 1.396 1_555 1_555
H35 C47 0.950 1_555 1_555
C48 C47 1.385 1_555 1_555
H36 C48 0.951 1_555 1_555
C49 C48 1.366 1_555 1_555
H37 C49 0.950 1_555 1_555
C50 C45 1.406 1_555 1_555
C51 C46 1.507 1_555 1_555
H38 C51 0.980 1_555 1_555
H39 C51 0.981 1_555 1_555
H40 C51 0.980 1_555 1_555
C52 C50 1.497 1_555 1_555
H41 C52 0.981 1_555 1_555
H42 C52 0.980 1_555 1_555
H43 C52 0.979 1_555 1_555
C53 C31 1.500 1_555 1_555
C54 C53 1.393 1_555 1_555
H44 C54 0.950 1_555 1_555
C55 C54 1.388 1_555 1_555
H45 C55 0.949 1_555 1_555
C56 C55 1.384 1_555 1_555
H46 C56 0.950 1_555 1_555
C57 C56 1.382 1_555 1_555
H47 C57 0.950 1_555 1_555
C58 C53 1.394 1_555 1_555
H48 C58 0.951 1_555 1_555
C7 C8 1.416 1_555 1_555
C9 C14 1.430 1_555 1_555
C13 C14 1.436 1_555 1_555
C20 C21 1.395 1_555 1_555
C28 C29 1.390 1_555 1_555
C36 C37 1.413 1_555 1_555
C38 C43 1.428 1_555 1_555
C42 C43 1.439 1_555 1_555
C49 C50 1.385 1_555 1_555
C57 C58 1.391 1_555 1_555
#END
