
#######################################################################
#
#                 Cambridge Crystallographic Data Centre
#                                CCDC
#
#######################################################################
#
# If this CIF has been generated from an entry in the Cambridge
# Structural Database, then it will include bibliographic, chemical,
# crystal, experimental, refinement or atomic coordinate data resulting
# from the CCDC's data processing and validation procedures.
#
#######################################################################

data_CSD_CIF_THELIC
_audit_creation_date 1976-09-20
_audit_creation_method CSD-ConQuest-V1
_database_code_CSD THELIC
_database_code_depnum_ccdc_archive 'CCDC 1270451'
_chemical_formula_sum 'C42 H24'
_chemical_formula_moiety
;
C42 H24
;
_journal_coden_Cambridge 189
_journal_volume 5
_journal_year 1976
_journal_page_first 357
_journal_name_full 'Cryst.Struct.Commun. '
loop_
_publ_author_name
"G.Le Bas"
"A.Navaza"
"Y.Mauguen"
"C.de Rango"
_chemical_name_systematic
;
10-Helicene
;
_cell_volume   1320.740
_diffrn_ambient_temperature ?
_diffrn_special_details
;
The study was carried out at room temperature,in the range 283-303K

;
#These two values have been output from a single CSD field.
_refine_ls_R_factor_gt 0.04
_refine_ls_wR_factor_gt 0.04
_symmetry_cell_setting monoclinic
_symmetry_space_group_name_H-M 'P 21'
_symmetry_Int_Tables_number 4
loop_
_symmetry_equiv_pos_site_id
_symmetry_equiv_pos_as_xyz
1 x,y,z
2 -x,1/2+y,-z
_cell_length_a 10.09
_cell_length_b 13.594
_cell_length_c 10.782
_cell_angle_alpha 90
_cell_angle_beta 116.74
_cell_angle_gamma 90
_cell_formula_units_Z 2
loop_
_atom_type_symbol
_atom_type_radius_bond
C 0.68
H 0.23
loop_
_atom_site_label
_atom_site_type_symbol
_atom_site_fract_x
_atom_site_fract_y
_atom_site_fract_z
C1 C -0.21680 -0.03290 0.12040
C2 C 0.12290 -0.00180 0.63910
C3 C -0.13580 -0.05430 0.57750
C4 C -0.26280 -0.09940 0.48850
C5 C -0.39870 -0.20730 0.28470
C6 C -0.40190 -0.26160 0.17610
C7 C -0.27040 -0.33510 0.05230
C8 C -0.14340 -0.35150 0.04190
C9 C 0.13000 -0.35320 0.14740
C10 C 0.26330 -0.33510 0.25530
C11 C 0.41770 -0.29210 0.50190
C12 C -0.35350 -0.03490 0.00600
C13 C 0.43200 -0.27040 0.62970
C14 C 0.31980 -0.26070 0.79160
C15 C 0.20290 -0.27450 0.81930
C16 C 0.06270 -0.29860 0.71110
C17 C 0.04280 -0.30140 0.57560
C18 C 0.15990 -0.28210 0.54180
C19 C 0.30340 -0.26870 0.65360
C20 C 0.14440 -0.28620 0.40060
C21 C 0.27410 -0.30270 0.38530
C22 C 0.00360 -0.28340 0.27660
C23 C -0.36870 -0.07370 -0.12120
C24 C -0.00300 -0.32840 0.15410
C25 C -0.13210 -0.24170 0.26730
C26 C -0.26840 -0.27970 0.16510
C27 C -0.13830 -0.16370 0.35620
C28 C -0.26650 -0.15700 0.37650
C29 C -0.02140 -0.09370 0.42440
C30 C -0.00980 -0.04990 0.54860
C31 C 0.08330 -0.06380 0.37570
C32 C 0.22100 -0.02370 0.47360
C33 C 0.05650 -0.06870 0.23160
C34 C -0.24610 -0.10240 -0.13190
C35 C 0.18120 -0.06750 0.20430
C36 C -0.08930 -0.06880 0.11380
C37 C -0.10280 -0.09790 -0.01810
C38 C 0.02590 -0.11340 -0.03610
C39 C 0.16220 -0.09360 0.06800
C40 C 0.32180 -0.03910 0.30900
C41 C 0.33880 -0.01160 0.43750
C42 C 0.23800 0.00470 0.60800
H1 H -0.21380 -0.01130 0.20390
H2 H 0.12850 0.02850 0.72660
H3 H -0.11940 -0.01280 0.66280
H4 H -0.35830 -0.09600 0.49950
H5 H -0.49780 -0.20320 0.29140
H6 H -0.50120 -0.29180 0.10710
H7 H -0.37410 -0.35340 -0.02400
H8 H -0.14920 -0.38310 -0.04090
H9 H 0.10750 -0.39200 0.05770
H10 H 0.35590 -0.34490 0.24980
H11 H 0.50030 -0.30190 0.47690
H12 H -0.45060 -0.01370 0.00410
H13 H 0.53200 -0.26400 0.70370
H14 H 0.43980 -0.25330 0.87600
H15 H 0.21810 -0.27380 0.92610
H16 H -0.02170 -0.31870 0.73030
H17 H -0.04860 -0.32370 0.50640
H18 H -0.48120 -0.07400 -0.20220
H19 H -0.25600 -0.13780 -0.22070
H20 H 0.01490 -0.14200 -0.12980
H21 H 0.25300 -0.09720 0.06140
H22 H 0.42350 -0.03740 0.29710
H23 H 0.44540 0.01490 0.50690
H24 H 0.33660 0.03090 0.67560
loop_
_geom_bond_atom_site_label_1
_geom_bond_atom_site_label_2
_geom_bond_distance
_geom_bond_site_symmetry_1
_geom_bond_site_symmetry_2
C1 C12 1.376 1_555 1_555
C2 C30 1.413 1_555 1_555
C3 C4 1.354 1_555 1_555
C4 C28 1.426 1_555 1_555
C5 C6 1.372 1_555 1_555
C6 C26 1.426 1_555 1_555
C7 C8 1.354 1_555 1_555
C8 C24 1.424 1_555 1_555
C9 C10 1.347 1_555 1_555
C10 C21 1.426 1_555 1_555
C11 C13 1.352 1_555 1_555
C12 C23 1.412 1_555 1_555
C13 C19 1.432 1_555 1_555
C14 C15 1.354 1_555 1_555
C15 C16 1.409 1_555 1_555
C16 C17 1.383 1_555 1_555
C17 C18 1.409 1_555 1_555
C18 C19 1.418 1_555 1_555
C19 C14 1.425 1_555 1_555
C20 C18 1.460 1_555 1_555
C21 C11 1.436 1_555 1_555
C22 C20 1.448 1_555 1_555
C23 C34 1.351 1_555 1_555
C24 C9 1.417 1_555 1_555
C25 C22 1.443 1_555 1_555
C26 C7 1.423 1_555 1_555
C27 C25 1.449 1_555 1_555
C28 C5 1.428 1_555 1_555
C29 C27 1.434 1_555 1_555
C30 C3 1.440 1_555 1_555
C31 C29 1.434 1_555 1_555
C32 C31 1.422 1_555 1_555
C33 C31 1.454 1_555 1_555
C34 C37 1.415 1_555 1_555
C35 C33 1.415 1_555 1_555
C36 C1 1.407 1_555 1_555
C37 C36 1.422 1_555 1_555
C38 C37 1.413 1_555 1_555
C39 C35 1.438 1_555 1_555
C40 C35 1.412 1_555 1_555
C41 C32 1.417 1_555 1_555
C42 C2 1.349 1_555 1_555
H1 C1 0.934 1_555 1_555
H2 C2 1.007 1_555 1_555
H3 C3 1.027 1_555 1_555
H4 C4 1.024 1_555 1_555
H5 C5 1.036 1_555 1_555
H6 C6 1.027 1_555 1_555
H7 C7 1.029 1_555 1_555
H8 C8 0.968 1_555 1_555
H9 C9 1.033 1_555 1_555
H10 C10 0.972 1_555 1_555
H11 C11 0.994 1_555 1_555
H12 C12 1.013 1_555 1_555
H13 C13 0.968 1_555 1_555
H14 C14 1.146 1_555 1_555
H15 C15 1.091 1_555 1_555
H16 C16 1.001 1_555 1_555
H17 C17 0.938 1_555 1_555
H18 C23 1.077 1_555 1_555
H19 C34 1.035 1_555 1_555
H20 C38 1.041 1_555 1_555
H21 C39 0.952 1_555 1_555
H22 C40 1.090 1_555 1_555
H23 C41 1.059 1_555 1_555
H24 C42 0.998 1_555 1_555
C20 C21 1.409 1_555 1_555
C22 C24 1.430 1_555 1_555
C25 C26 1.417 1_555 1_555
C27 C28 1.409 1_555 1_555
C29 C30 1.421 1_555 1_555
C32 C42 1.433 1_555 1_555
C33 C36 1.448 1_555 1_555
C38 C39 1.354 1_555 1_555
C40 C41 1.369 1_555 1_555
#END
