
#######################################################################
#
#                 Cambridge Crystallographic Data Centre
#                                CCDC
#
#######################################################################
#
# If this CIF has been generated from an entry in the Cambridge
# Structural Database, then it will include bibliographic, chemical,
# crystal, experimental, refinement or atomic coordinate data resulting
# from the CCDC's data processing and validation procedures.
#
#######################################################################

data_CSD_CIF_TICJEU
_audit_creation_date 1997-03-12
_audit_creation_method CSD-ConQuest-V1
_database_code_CSD TICJEU
_database_code_depnum_ccdc_archive 'CCDC 128283'
_chemical_formula_sum 'C16 H16'
_chemical_formula_moiety
;
C16 H16
;
_journal_coeditor_code "IUCr FG1217"
_journal_coden_Cambridge 591
_journal_volume 52
_journal_year 1996
_journal_page_first 3086
_journal_name_full 'Acta Crystallogr.,Sect.C:Cryst.Struct.Commun. '
loop_
_publ_author_name
"A.J.Dobson"
"R.E.Gerkin"
_chemical_name_systematic
;
1,2,3,6,7,8-Hexahydropyrene
;
_chemical_name_common
;
sym-Hexahydropyrene
;
_cell_volume    564.474
_exptl_crystal_colour 'colorless'
_exptl_crystal_density_diffrn 1.225
_diffrn_ambient_temperature ?
_diffrn_special_details
;
The study was carried out at room temperature,in the range 283-303K

;
#These two values have been output from a single CSD field.
_refine_ls_R_factor_gt 0.035
_refine_ls_wR_factor_gt 0.035
_symmetry_cell_setting monoclinic
_symmetry_space_group_name_H-M 'P 21/c'
_symmetry_Int_Tables_number 14
loop_
_symmetry_equiv_pos_site_id
_symmetry_equiv_pos_as_xyz
1 x,y,z
2 -x,1/2+y,1/2-z
3 -x,-y,-z
4 x,-1/2-y,-1/2+z
_cell_length_a 4.8366(7)
_cell_length_b 12.5390(9)
_cell_length_c 9.3207(9)
_cell_angle_alpha 90
_cell_angle_beta 93.03(1)
_cell_angle_gamma 90
_cell_formula_units_Z 2
loop_
_atom_type_symbol
_atom_type_radius_bond
C 0.68
H 0.23
loop_
_atom_site_label
_atom_site_type_symbol
_atom_site_fract_x
_atom_site_fract_y
_atom_site_fract_z
C1 C 0.1328(3) 0.4354(1) 0.7601(2)
C2 C 0.1655(3) 0.5462(1) 0.8248(2)
C3 C 0.1234(3) 0.6296(1) 0.7075(1)
C4 C 0.4135(3) 0.69699(10) 0.5110(2)
C5 C 0.5903(3) 0.6811(1) 0.3981(2)
C6 C 0.3201(3) 0.61337(9) 0.5895(1)
C7 C 0.4093(2) 0.50800(9) 0.5571(1)
C8 C 0.3212(3) 0.41842(10) 0.6379(1)
H1 H -0.064(3) 0.425(1) 0.720(2)
H2 H 0.173(3) 0.380(1) 0.834(2)
H3 H 0.036(4) 0.557(1) 0.898(2)
H4 H 0.360(4) 0.554(1) 0.875(2)
H5 H -0.072(3) 0.622(1) 0.664(1)
H6 H 0.150(3) 0.703(1) 0.744(1)
H7 H 0.358(3) 0.770(1) 0.534(1)
H8 H 0.649(3) 0.742(1) 0.344(2)
C8B C 0.6788(3) 0.58158(10) 0.3621(1)
C1B C 0.8672(3) 0.5646(1) 0.2399(2)
C2B C 0.8345(3) 0.4538(1) 0.1752(2)
C3B C 0.8766(3) 0.3704(1) 0.2925(1)
C6B C 0.6799(3) 0.38663(9) 0.4105(1)
C4B C 0.5865(3) 0.30301(10) 0.4890(2)
C5B C 0.4097(3) 0.3189(1) 0.6019(2)
C7B C 0.5907(2) 0.49200(9) 0.4429(1)
H8B H 0.351(3) 0.258(1) 0.656(2)
H7B H 0.642(3) 0.230(1) 0.466(1)
H5B H 1.072(3) 0.378(1) 0.336(1)
H6B H 0.850(3) 0.297(1) 0.256(1)
H3B H 0.964(4) 0.443(1) 0.102(2)
H4B H 0.640(4) 0.446(1) 0.125(2)
H1B H 1.064(3) 0.575(1) 0.280(2)
H2B H 0.827(3) 0.620(1) 0.166(2)
loop_
_geom_bond_atom_site_label_1
_geom_bond_atom_site_label_2
_geom_bond_distance
_geom_bond_site_symmetry_1
_geom_bond_site_symmetry_2
C1 C2 1.519 1_555 1_555
C2 C3 1.519 1_555 1_555
C3 C6 1.506 1_555 1_555
C4 C5 1.405 1_555 1_555
C5 H8 0.966 1_555 1_555
C6 C4 1.369 1_555 1_555
C7 C6 1.427 1_555 1_555
C8 C1 1.511 1_555 1_555
H1 C1 1.012 1_555 1_555
H2 C1 0.990 1_555 1_555
H3 C2 0.960 1_555 1_555
H4 C2 1.033 1_555 1_555
H5 C3 1.013 1_555 1_555
H6 C3 0.987 1_555 1_555
H7 C4 0.981 1_555 1_555
C8B C5 1.367 1_555 1_555
C1B C8B 1.511 1_555 1_555
C2B C1B 1.519 1_555 1_555
C3B C2B 1.519 1_555 1_555
C6B C3B 1.506 1_555 1_555
C4B C6B 1.369 1_555 1_555
C5B C8 1.367 1_555 1_555
C7B C7 1.429 1_555 1_555
H8B C5B 0.966 1_555 1_555
H7B C4B 0.981 1_555 1_555
H5B C3B 1.013 1_555 1_555
H6B C3B 0.987 1_555 1_555
H3B C2B 0.960 1_555 1_555
H4B C2B 1.033 1_555 1_555
H1B C1B 1.012 1_555 1_555
H2B C1B 0.990 1_555 1_555
C7 C8 1.430 1_555 1_555
C8B C7B 1.430 1_555 1_555
C6B C7B 1.427 1_555 1_555
C4B C5B 1.405 1_555 1_555
#END
