
#######################################################################
#
#                 Cambridge Crystallographic Data Centre
#                                CCDC
#
#######################################################################
#
# If this CIF has been generated from an entry in the Cambridge
# Structural Database, then it will include bibliographic, chemical,
# crystal, experimental, refinement or atomic coordinate data resulting
# from the CCDC's data processing and validation procedures.
#
#######################################################################

data_CSD_CIF_TIQVOE
_audit_creation_date 1997-03-26
_audit_creation_method CSD-ConQuest-V1
_database_code_CSD TIQVOE
_database_code_depnum_ccdc_archive 'CCDC 1271324; CCDC 405627'
_database_code_depnum_ccdc_fiz 'CSD 405627'
_chemical_formula_sum 'C32 H28'
_chemical_formula_moiety
;
C32 H28
;
_journal_coden_Cambridge 16
_journal_volume 52
_journal_year 1996
_journal_page_first 14777
_journal_name_full 'Tetrahedron '
loop_
_publ_author_name
"G.Dyker"
"J.Korning"
"P.Bubenitschek"
"P.G.Jones"
_chemical_name_systematic
;
11-exo-7,8,9,10,11-Pentamethyl-7,10-methano-6b,7,10,10a-tetrahydro-6b,10a(1',8
')naphthalenofluoranthene
;
_chemical_melting_point 512.15
_cell_volume   4459.295
_exptl_crystal_colour 'colorless'
_exptl_crystal_density_diffrn 1.229
_exptl_special_details
;
Melting point range 512.15-513.15K

;
_diffrn_ambient_temperature 173
#These two values have been output from a single CSD field.
_refine_ls_R_factor_gt 0.0612
_refine_ls_wR_factor_gt 0.0612
_symmetry_cell_setting monoclinic
_symmetry_space_group_name_H-M 'P 21/c'
_symmetry_Int_Tables_number 14
loop_
_symmetry_equiv_pos_site_id
_symmetry_equiv_pos_as_xyz
1 x,y,z
2 -x,1/2+y,1/2-z
3 -x,-y,-z
4 x,-1/2-y,-1/2+z
_cell_length_a 19.394(5)
_cell_length_b 14.365(4)
_cell_length_c 17.194(5)
_cell_angle_alpha 90
_cell_angle_beta 111.42(3)
_cell_angle_gamma 90
_cell_formula_units_Z 8
loop_
_atom_type_symbol
_atom_type_radius_bond
C 0.68
H 0.23
loop_
_atom_site_label
_atom_site_type_symbol
_atom_site_fract_x
_atom_site_fract_y
_atom_site_fract_z
C1 C 0.6023(3) 0.5094(4) 0.4188(3)
H1 H 0.5817(3) 0.5080(4) 0.4611(3)
C2 C 0.6805(3) 0.5183(4) 0.4413(3)
H2 H 0.7114(3) 0.5221(4) 0.4986(3)
C3 C 0.7116(3) 0.5214(4) 0.3819(3)
H3 H 0.7638(3) 0.5278(4) 0.3979(3)
C4 C 0.6660(3) 0.5150(4) 0.2958(3)
C5 C 0.6903(3) 0.5204(4) 0.2275(3)
H4 H 0.7415(3) 0.5271(4) 0.2374(3)
C6 C 0.6401(3) 0.5159(4) 0.1476(3)
H5 H 0.6576(3) 0.5184(4) 0.1027(3)
C7 C 0.5628(3) 0.5076(4) 0.1290(3)
H6 H 0.5291(3) 0.5061(4) 0.0727(3)
C8 C 0.5378(3) 0.5017(3) 0.1937(3)
C9 C 0.4599(2) 0.4990(3) 0.1947(3)
C10 C 0.4163(2) 0.5878(3) 0.1616(3)
C11 C 0.3894(3) 0.6263(4) 0.0836(3)
H7 H 0.3966(3) 0.5962(4) 0.0380(3)
C12 C 0.3507(3) 0.7117(4) 0.0721(3)
H8 H 0.3309(3) 0.7377(4) 0.0175(3)
C13 C 0.3409(3) 0.7584(4) 0.1368(3)
H9 H 0.3152(3) 0.8161(4) 0.1267(3)
C14 C 0.3687(3) 0.7208(3) 0.2184(3)
C15 C 0.4054(2) 0.6350(3) 0.2280(3)
C16 C 0.3663(3) 0.7626(4) 0.2911(3)
H10 H 0.3421(3) 0.8209(4) 0.2873(3)
C17 C 0.3984(3) 0.7205(4) 0.3677(3)
H11 H 0.3964(3) 0.7504(4) 0.4162(3)
C18 C 0.4344(3) 0.6329(4) 0.3757(3)
H12 H 0.4562(3) 0.6046(4) 0.4291(3)
C19 C 0.4375(2) 0.5891(3) 0.3059(3)
C20 C 0.4731(3) 0.4995(3) 0.2937(3)
C21 C 0.5570(3) 0.5030(3) 0.3366(3)
C22 C 0.5896(3) 0.5049(3) 0.2758(3)
C23 C 0.4147(3) 0.4057(3) 0.1651(3)
C24 C 0.3402(3) 0.4224(3) 0.1750(3)
C25 C 0.3519(3) 0.4219(4) 0.2565(3)
C26 C 0.4350(3) 0.4058(3) 0.3047(3)
C27 C 0.4531(3) 0.3438(3) 0.2421(3)
H13 H 0.5078(3) 0.3437(3) 0.2554(3)
C28 C 0.4116(3) 0.3692(4) 0.0808(3)
H14 H 0.4617(4) 0.3538(20) 0.0838(6)
H15 H 0.3904(15) 0.4170(8) 0.0380(4)
H16 H 0.3806(14) 0.3132(12) 0.0662(9)
C29 C 0.2702(3) 0.4410(4) 0.1028(3)
H17 H 0.2561(9) 0.3854(8) 0.0674(11)
H18 H 0.2777(6) 0.4932(14) 0.0701(11)
H19 H 0.2307(5) 0.4566(21) 0.1234(3)
C30 C 0.2987(3) 0.4400(4) 0.2998(3)
H20 H 0.3171(9) 0.4916(14) 0.3393(14)
H21 H 0.2942(13) 0.3840(8) 0.3301(15)
H22 H 0.2501(5) 0.4564(20) 0.2584(4)
C31 C 0.4570(3) 0.3704(4) 0.3932(3)
H23 H 0.5100(5) 0.356(2) 0.4154(7)
H24 H 0.4287(12) 0.3139(12) 0.3936(4)
H25 H 0.4465(16) 0.4182(9) 0.4280(5)
C32 C 0.4247(3) 0.2434(3) 0.2343(4)
H26 H 0.4448(14) 0.2128(7) 0.2889(5)
H27 H 0.4407(14) 0.2095(7) 0.1943(14)
H28 H 0.3705(3) 0.2437(4) 0.2146(18)
C33 C 0.0462(3) 0.6417(4) 0.1131(3)
H29 H 0.0093(3) 0.6371(4) 0.0587(3)
C34 C 0.1220(3) 0.6349(4) 0.1249(4)
H30 H 0.1354(3) 0.6268(4) 0.0774(4)
C35 C 0.1767(3) 0.6393(4) 0.2021(4)
H31 H 0.2272(3) 0.6353(4) 0.2077(4)
C36 C 0.1578(3) 0.6500(4) 0.2743(3)
C37 C 0.2077(3) 0.6511(4) 0.3586(4)
H32 H 0.2594(3) 0.6453(4) 0.3711(4)
C38 C 0.1813(3) 0.6606(4) 0.4217(4)
H33 H 0.2154(3) 0.6599(4) 0.4779(4)
C39 C 0.1049(3) 0.6715(4) 0.4062(3)
H34 H 0.0881(3) 0.6796(4) 0.4512(3)
C40 C 0.0557(3) 0.6701(3) 0.3257(3)
C41 C -0.0281(2) 0.6713(3) 0.2899(3)
C42 C -0.0608(2) 0.5846(3) 0.3140(3)
C43 C -0.0604(3) 0.5530(4) 0.3897(3)
H35 H -0.0382(3) 0.5890(4) 0.4389(3)
C44 C -0.0934(3) 0.4662(4) 0.3933(4)
H36 H -0.0932(3) 0.4448(4) 0.4456(4)
C45 C -0.1256(3) 0.4120(4) 0.3242(4)
H37 H -0.1466(3) 0.3536(4) 0.3292(4)
C46 C -0.1277(3) 0.4427(4) 0.2449(3)
C47 C -0.0943(3) 0.5297(3) 0.2429(3)
C48 C -0.1597(3) 0.3963(4) 0.1680(4)
H38 H -0.1839(3) 0.3384(4) 0.1658(4)
C49 C -0.1562(3) 0.4336(4) 0.0965(3)
H39 H -0.1783(3) 0.4007(4) 0.0455(3)
C50 C -0.1208(3) 0.5199(4) 0.0955(3)
H40 H -0.1185(3) 0.5438(4) 0.0450(3)
C51 C -0.0898(3) 0.5678(3) 0.1691(3)
C52 C -0.0487(2) 0.6598(3) 0.1902(3)
C53 C 0.0261(3) 0.6553(3) 0.1814(3)
C54 C 0.0827(3) 0.6593(3) 0.2612(3)
C55 C -0.0665(3) 0.7662(3) 0.2948(3)
C56 C -0.1501(3) 0.7474(3) 0.2546(3)
C57 C -0.1679(3) 0.7383(3) 0.1723(3)
C58 C -0.0960(3) 0.7504(3) 0.1540(3)
C59 C -0.0549(3) 0.8205(3) 0.2225(3)
H41 H -0.0010(3) 0.8203(3) 0.2309(3)
C60 C -0.0400(3) 0.8131(4) 0.3799(3)
H42 H 0.0116(6) 0.8327(18) 0.3948(9)
H43 H -0.0436(15) 0.7691(7) 0.4219(4)
H44 H -0.0710(11) 0.8676(12) 0.3779(6)
C61 C -0.1982(3) 0.7359(4) 0.3055(3)
H45 H -0.1979(13) 0.7937(8) 0.3358(15)
H46 H -0.179(1) 0.6849(14) 0.3454(13)
H47 H -0.2489(4) 0.7215(20) 0.2683(4)
C62 C -0.2407(3) 0.7139(4) 0.1067(3)
H48 H -0.2367(5) 0.6538(11) 0.0818(14)
H49 H -0.2548(8) 0.7620(11) 0.0633(10)
H50 H -0.2785(4) 0.7099(21) 0.1319(5)
C63 C -0.1059(3) 0.7755(4) 0.0652(3)
H51 H -0.1288(15) 0.7233(9) 0.0282(4)
H52 H -0.0574(4) 0.7891(21) 0.0621(5)
H53 H -0.1377(14) 0.8305(13) 0.0479(7)
C64 C -0.0835(3) 0.9200(3) 0.2096(3)
H54 H -0.0571(12) 0.9569(6) 0.2595(8)
H55 H -0.1367(4) 0.9202(4) 0.1995(18)
H56 H -0.0754(15) 0.9471(7) 0.1613(11)
loop_
_geom_bond_atom_site_label_1
_geom_bond_atom_site_label_2
_geom_bond_distance
_geom_bond_site_symmetry_1
_geom_bond_site_symmetry_2
C1 H1 0.949 1_555 1_555
C2 C1 1.427 1_555 1_555
H2 C2 0.949 1_555 1_555
C3 C2 1.363 1_555 1_555
H3 C3 0.952 1_555 1_555
C4 C3 1.423 1_555 1_555
C5 C4 1.418 1_555 1_555
H4 C5 0.949 1_555 1_555
C6 C5 1.365 1_555 1_555
H5 C6 0.951 1_555 1_555
C7 C6 1.419 1_555 1_555
H6 C7 0.950 1_555 1_555
C8 C7 1.369 1_555 1_555
C9 C8 1.518 1_555 1_555
C10 C9 1.521 1_555 1_555
C11 C10 1.366 1_555 1_555
H7 C11 0.949 1_555 1_555
C12 C11 1.414 1_555 1_555
H8 C12 0.951 1_555 1_555
C13 C12 1.370 1_555 1_555
H9 C13 0.950 1_555 1_555
C14 C13 1.414 1_555 1_555
C15 C10 1.409 1_555 1_555
C16 C14 1.403 1_555 1_555
H10 C16 0.951 1_555 1_555
C17 C16 1.374 1_555 1_555
H11 C17 0.951 1_555 1_555
C18 C17 1.421 1_555 1_555
H12 C18 0.951 1_555 1_555
C19 C15 1.417 1_555 1_555
C20 C9 1.626 1_555 1_555
C21 C1 1.368 1_555 1_555
C22 C4 1.401 1_555 1_555
C23 C9 1.580 1_555 1_555
C24 C23 1.534 1_555 1_555
C25 C24 1.335 1_555 1_555
C26 C20 1.580 1_555 1_555
C27 C23 1.542 1_555 1_555
H13 C27 1.000 1_555 1_555
C28 C23 1.522 1_555 1_555
H14 C28 0.979 1_555 1_555
H15 C28 0.980 1_555 1_555
H16 C28 0.980 1_555 1_555
C29 C24 1.491 1_555 1_555
H17 C29 0.981 1_555 1_555
H18 C29 0.979 1_555 1_555
H19 C29 0.980 1_555 1_555
C30 C25 1.499 1_555 1_555
H20 C30 0.980 1_555 1_555
H21 C30 0.979 1_555 1_555
H22 C30 0.980 1_555 1_555
C31 C26 1.511 1_555 1_555
H23 C31 0.979 1_555 1_555
H24 C31 0.981 1_555 1_555
H25 C31 0.980 1_555 1_555
C32 C27 1.532 1_555 1_555
H26 C32 0.979 1_555 1_555
H27 C32 0.981 1_555 1_555
H28 C32 0.980 1_555 1_555
C33 H29 0.950 1_555 1_555
C34 C33 1.412 1_555 1_555
H30 C34 0.950 1_555 1_555
C35 C34 1.365 1_555 1_555
H31 C35 0.950 1_555 1_555
C36 C35 1.425 1_555 1_555
C37 C36 1.419 1_555 1_555
H32 C37 0.949 1_555 1_555
C38 C37 1.365 1_555 1_555
H33 C38 0.951 1_555 1_555
C39 C38 1.415 1_555 1_555
H34 C39 0.950 1_555 1_555
C40 C39 1.365 1_555 1_555
C41 C40 1.513 1_555 1_555
C42 C41 1.522 1_555 1_555
C43 C42 1.376 1_555 1_555
H35 C43 0.950 1_555 1_555
C44 C43 1.413 1_555 1_555
H36 C44 0.949 1_555 1_555
C45 C44 1.366 1_555 1_555
H37 C45 0.950 1_555 1_555
C46 C45 1.419 1_555 1_555
C47 C42 1.399 1_555 1_555
C48 C46 1.407 1_555 1_555
H38 C48 0.949 1_555 1_555
C49 C48 1.365 1_555 1_555
H39 C49 0.949 1_555 1_555
C50 C49 1.420 1_555 1_555
H40 C50 0.950 1_555 1_555
C51 C47 1.414 1_555 1_555
C52 C41 1.620 1_555 1_555
C53 C33 1.380 1_555 1_555
C54 C36 1.397 1_555 1_555
C55 C41 1.570 1_555 1_555
C56 C55 1.537 1_555 1_555
C57 C56 1.335 1_555 1_555
C58 C52 1.583 1_555 1_555
C59 C55 1.552 1_555 1_555
H41 C59 1.002 1_555 1_555
C60 C55 1.520 1_555 1_555
H42 C60 0.979 1_555 1_555
H43 C60 0.981 1_555 1_555
H44 C60 0.980 1_555 1_555
C61 C56 1.503 1_555 1_555
H45 C61 0.979 1_555 1_555
H46 C61 0.980 1_555 1_555
H47 C61 0.979 1_555 1_555
C62 C57 1.492 1_555 1_555
H48 C62 0.979 1_555 1_555
H49 C62 0.980 1_555 1_555
H50 C62 0.980 1_555 1_555
C63 C58 1.511 1_555 1_555
H51 C63 0.979 1_555 1_555
H52 C63 0.981 1_555 1_555
H53 C63 0.979 1_555 1_555
C64 C59 1.520 1_555 1_555
H54 C64 0.979 1_555 1_555
H55 C64 0.982 1_555 1_555
H56 C64 0.980 1_555 1_555
C8 C22 1.403 1_555 1_555
C14 C15 1.403 1_555 1_555
C18 C19 1.376 1_555 1_555
C19 C20 1.511 1_555 1_555
C20 C21 1.522 1_555 1_555
C21 C22 1.406 1_555 1_555
C25 C26 1.537 1_555 1_555
C26 C27 1.533 1_555 1_555
C40 C54 1.397 1_555 1_555
C46 C47 1.414 1_555 1_555
C50 C51 1.371 1_555 1_555
C51 C52 1.517 1_555 1_555
C52 C53 1.514 1_555 1_555
C53 C54 1.411 1_555 1_555
C57 C58 1.547 1_555 1_555
C58 C59 1.533 1_555 1_555
#END
