
#######################################################################
#
#                 Cambridge Crystallographic Data Centre
#                                CCDC
#
#######################################################################
#
# If this CIF has been generated from an entry in the Cambridge
# Structural Database, then it will include bibliographic, chemical,
# crystal, experimental, refinement or atomic coordinate data resulting
# from the CCDC's data processing and validation procedures.
#
#######################################################################

data_CSD_CIF_TIQVIY
_audit_creation_date 1997-03-26
_audit_creation_method CSD-ConQuest-V1
_database_code_CSD TIQVIY
_database_code_depnum_ccdc_archive 'CCDC 1271323; CCDC 405626'
_database_code_depnum_ccdc_fiz 'CSD 405626'
_chemical_formula_sum 'C36 H22'
_chemical_formula_moiety
;
C36 H22
;
_journal_coden_Cambridge 16
_journal_volume 52
_journal_year 1996
_journal_page_first 14777
_journal_name_full 'Tetrahedron '
loop_
_publ_author_name
"G.Dyker"
"J.Korning"
"P.Bubenitschek"
"P.G.Jones"
_chemical_name_systematic
;
13,18-Dihydro-6b,12b(9',10')-anthracenoacenaphth(1,2-a)acenaphthylene
;
_chemical_melting_point 595.15
_cell_volume   2338.838
_exptl_crystal_colour 'colorless'
_exptl_crystal_density_diffrn 1.291
_diffrn_ambient_temperature 178
#These two values have been output from a single CSD field.
_refine_ls_R_factor_gt 0.0413
_refine_ls_wR_factor_gt 0.0413
_symmetry_cell_setting monoclinic
_symmetry_space_group_name_H-M 'P 21/n'
_symmetry_Int_Tables_number 14
loop_
_symmetry_equiv_pos_site_id
_symmetry_equiv_pos_as_xyz
1 x,y,z
2 1/2-x,1/2+y,1/2-z
3 -x,-y,-z
4 -1/2+x,-1/2-y,-1/2+z
_cell_length_a 10.245(4)
_cell_length_b 14.448(5)
_cell_length_c 16.128(6)
_cell_angle_alpha 90
_cell_angle_beta 101.56(3)
_cell_angle_gamma 90
_cell_formula_units_Z 4
loop_
_atom_type_symbol
_atom_type_radius_bond
C 0.68
H 0.23
loop_
_atom_site_label
_atom_site_type_symbol
_atom_site_fract_x
_atom_site_fract_y
_atom_site_fract_z
C1 C 0.35376(17) 0.68015(13) 0.40807(10)
H1 H 0.29440 0.63790 0.42640
C2 C 0.34912(18) 0.77386(13) 0.42697(11)
H2 H 0.28680 0.79570 0.45880
C3 C 0.4348(2) 0.83528(14) 0.39966(11)
H3 H 0.43290 0.89890 0.41430
C4 C 0.52373(18) 0.80481(13) 0.35103(11)
H4 H 0.58070 0.84760 0.33100
C5 C 0.52885(16) 0.71159(12) 0.33196(10)
C6 C 0.82713(17) 0.57527(13) 0.33946(11)
H5 H 0.88150 0.61630 0.31520
C7 C 0.88399(18) 0.50073(14) 0.38829(12)
H6 H 0.97760 0.49120 0.39780
C8 C 0.80492(19) 0.44062(14) 0.42296(12)
H7 H 0.84460 0.39050 0.45700
C9 C 0.66753(18) 0.45293(13) 0.40834(11)
H8 H 0.61300 0.41070 0.43110
C10 C 0.61138(16) 0.52738(12) 0.36027(10)
C11 C 0.46429(16) 0.54972(12) 0.33712(10)
H9 H 0.40970 0.50590 0.36400
C12 C 0.44580(16) 0.64900(12) 0.36225(10)
C13 C 0.61382(16) 0.66738(12) 0.27641(10)
H10 H 0.67390 0.71320 0.25650
C14 C 0.69103(16) 0.58936(12) 0.32646(10)
C15 C 0.16482(16) 0.53900(12) 0.21568(10)
H11 H 0.16300 0.48410 0.24790
C16 C 0.04512(17) 0.58371(14) 0.17728(11)
H12 H -0.03740 0.55750 0.18350
C17 C 0.04435(17) 0.66358(13) 0.13135(11)
H13 H -0.03810 0.69180 0.10690
C18 C 0.16500(17) 0.70438(12) 0.11995(10)
C19 C 0.18136(18) 0.78573(13) 0.07386(11)
H14 H 0.10530 0.81890 0.04560
C20 C 0.30655(19) 0.81666(13) 0.06993(11)
H15 H 0.31520 0.87150 0.03900
C21 C 0.42343(18) 0.76956(12) 0.11047(11)
H16 H 0.50900 0.79310 0.10770
C22 C 0.41071(16) 0.68962(11) 0.15359(10)
C23 C 0.51327(15) 0.62195(12) 0.20044(10)
C24 C 0.58406(15) 0.56675(12) 0.14277(10)
C25 C 0.66836(16) 0.59261(13) 0.09082(10)
H17 H 0.69210 0.65570 0.08650
C26 C 0.71956(17) 0.52350(13) 0.04357(11)
H18 H 0.77690 0.54150 0.00690
C27 C 0.68910(17) 0.43166(13) 0.04899(10)
H19 H 0.72620 0.38720 0.01700
C28 C 0.60241(16) 0.40285(12) 0.10219(10)
C29 C 0.55120(15) 0.47250(11) 0.14711(10)
C30 C 0.56117(18) 0.31116(13) 0.11492(11)
H20 H 0.59330 0.26110 0.08650
C31 C 0.47474(18) 0.29472(13) 0.16829(12)
H21 H 0.44850 0.23280 0.17600
C32 C 0.42317(17) 0.36637(12) 0.21227(11)
H22 H 0.36330 0.35300 0.24870
C33 C 0.46164(16) 0.45520(12) 0.20107(10)
C34 C 0.42593(15) 0.54619(11) 0.23775(10)
C35 C 0.28332(15) 0.57637(12) 0.20554(10)
C36 C 0.28243(16) 0.65864(12) 0.1585(1)
loop_
_geom_bond_atom_site_label_1
_geom_bond_atom_site_label_2
_geom_bond_distance
_geom_bond_site_symmetry_1
_geom_bond_site_symmetry_2
C1 H1 0.950 1_555 1_555
C2 C1 1.391 1_555 1_555
H2 C2 0.950 1_555 1_555
C3 C2 1.381 1_555 1_555
H3 C3 0.950 1_555 1_555
C4 C3 1.388 1_555 1_555
H4 C4 0.950 1_555 1_555
C5 C4 1.385 1_555 1_555
C6 H5 0.950 1_555 1_555
C7 C6 1.391 1_555 1_555
H6 C7 0.950 1_555 1_555
C8 C7 1.380 1_555 1_555
H7 C8 0.950 1_555 1_555
C9 C8 1.391 1_555 1_555
H8 C9 0.949 1_555 1_555
C10 C9 1.382 1_555 1_555
C11 C10 1.513 1_555 1_555
H9 C11 0.999 1_555 1_555
C12 C1 1.385 1_555 1_555
C13 C5 1.510 1_555 1_555
H10 C13 1.000 1_555 1_555
C14 C6 1.383 1_555 1_555
C15 H11 0.950 1_555 1_555
C16 C15 1.414 1_555 1_555
H12 C16 0.950 1_555 1_555
C17 C16 1.370 1_555 1_555
H13 C17 0.950 1_555 1_555
C18 C17 1.414 1_555 1_555
C19 C18 1.418 1_555 1_555
H14 C19 0.950 1_555 1_555
C20 C19 1.372 1_555 1_555
H15 C20 0.950 1_555 1_555
C21 C20 1.418 1_555 1_555
H16 C21 0.950 1_555 1_555
C22 C21 1.368 1_555 1_555
C23 C13 1.577 1_555 1_555
C24 C23 1.516 1_555 1_555
C25 C24 1.370 1_555 1_555
H17 C25 0.950 1_555 1_555
C26 C25 1.419 1_555 1_555
H18 C26 0.950 1_555 1_555
C27 C26 1.370 1_555 1_555
H19 C27 0.950 1_555 1_555
C28 C27 1.416 1_555 1_555
C29 C24 1.408 1_555 1_555
C30 C28 1.418 1_555 1_555
H20 C30 0.950 1_555 1_555
C31 C30 1.374 1_555 1_555
H21 C31 0.949 1_555 1_555
C32 C31 1.416 1_555 1_555
H22 C32 0.950 1_555 1_555
C33 C29 1.408 1_555 1_555
C34 C11 1.573 1_555 1_555
C35 C15 1.368 1_555 1_555
C36 C18 1.404 1_555 1_555
C5 C12 1.395 1_555 1_555
C10 C14 1.394 1_555 1_555
C11 C12 1.513 1_555 1_555
C13 C14 1.514 1_555 1_555
C22 C23 1.521 1_555 1_555
C22 C36 1.406 1_555 1_555
C23 C34 1.605 1_555 1_555
C28 C29 1.402 1_555 1_555
C32 C33 1.365 1_555 1_555
C33 C34 1.516 1_555 1_555
C34 C35 1.513 1_555 1_555
C35 C36 1.409 1_555 1_555
#END
