
#######################################################################
#
#                 Cambridge Crystallographic Data Centre
#                                CCDC
#
#######################################################################
#
# If this CIF has been generated from an entry in the Cambridge
# Structural Database, then it will include bibliographic, chemical,
# crystal, experimental, refinement or atomic coordinate data resulting
# from the CCDC's data processing and validation procedures.
#
#######################################################################

data_CSD_CIF_TISSUK
_audit_creation_date 2008-03-24
_audit_creation_method CSD-ConQuest-V1
_database_code_CSD TISSUK
_database_code_depnum_ccdc_archive 'CCDC 673173'
_chemical_formula_sum 'C28 H20'
_chemical_formula_moiety
;
C28 H20
;
_journal_coden_Cambridge 35
_journal_volume 72
_journal_year 2007
_journal_page_first 9214
_journal_name_full 'J.Org.Chem. '
loop_
_publ_author_name
"A.Das"
"Hsuan-Hung Liao"
"Rai-Shung Liu"
_chemical_name_systematic
;
8,15-Dimethylbenzo(a)picene
;
_cell_volume    894.023
_exptl_crystal_colour 'brown'
_exptl_crystal_density_diffrn 1.324
_exptl_crystal_description 'lamellar'
_diffrn_ambient_temperature 273
#These two values have been output from a single CSD field.
_refine_ls_R_factor_gt 0.0526
_refine_ls_wR_factor_gt 0.0526
_symmetry_cell_setting triclinic
_symmetry_space_group_name_H-M 'P -1'
_symmetry_Int_Tables_number 2
loop_
_symmetry_equiv_pos_site_id
_symmetry_equiv_pos_as_xyz
1 x,y,z
2 -x,-y,-z
_cell_length_a 7.2404(9)
_cell_length_b 10.3639(14)
_cell_length_c 12.9500(17)
_cell_angle_alpha 71.853(2)
_cell_angle_beta 85.126(3)
_cell_angle_gamma 75.511(3)
_cell_formula_units_Z 2
loop_
_atom_type_symbol
_atom_type_radius_bond
C 0.68
H 0.23
loop_
_atom_site_label
_atom_site_type_symbol
_atom_site_fract_x
_atom_site_fract_y
_atom_site_fract_z
C1 C 0.3165(2) 0.37153(16) 0.61829(12)
H1 H 0.30420 0.28420 0.61850
C2 C 0.4065(2) 0.38395(16) 0.70502(12)
H2 H 0.45310 0.30540 0.76300
C3 C 0.4255(2) 0.51250(16) 0.70406(12)
H3 H 0.48440 0.52060 0.76210
C4 C 0.35712(19) 0.63308(15) 0.61647(11)
C5 C 0.3779(2) 0.76727(15) 0.61390(11)
H4 H 0.44220 0.77520 0.67000
C6 C 0.3063(2) 0.88325(15) 0.53189(11)
H5 H 0.32150 0.96920 0.53320
C7 C 0.20743(19) 0.87673(14) 0.44285(11)
C8 C 0.12217(19) 1.00000(14) 0.35727(11)
C9 C 0.1480(2) 1.13428(15) 0.35025(11)
H6 H 0.21350 1.14280 0.40560
C10 C 0.0815(2) 1.25051(15) 0.26639(11)
C11 C -0.0432(2) 1.24282(15) 0.18911(11)
C12 C -0.1263(2) 1.36384(15) 0.10206(12)
H7 H -0.08390 1.44520 0.08880
C13 C -0.2641(2) 1.36243(16) 0.03915(12)
H8 H -0.30520 1.43860 -0.02160
C14 C -0.3476(2) 1.24555(15) 0.06470(11)
C15 C -0.5179(2) 1.25267(16) 0.01468(12)
H9 H -0.56600 1.33000 -0.04390
C16 C -0.6124(2) 1.14865(17) 0.05064(12)
H10 H -0.72350 1.15470 0.01640
C17 C -0.5420(2) 1.03243(16) 0.13937(12)
H11 H -0.60990 0.96350 0.16640
C18 C -0.3732(2) 1.01991(15) 0.18658(11)
H12 H -0.32780 0.94170 0.24500
C19 C -0.2666(2) 1.12294(15) 0.14860(11)
C20 C -0.0940(2) 1.11628(15) 0.20161(11)
C21 C 0.01540(19) 0.98867(14) 0.27497(11)
C22 C 0.0343(2) 0.85249(15) 0.26337(11)
C23 C 0.1168(2) 0.73767(15) 0.34524(11)
H13 H 0.12400 0.64980 0.33840
C24 C 0.19207(19) 0.74523(14) 0.44009(11)
C25 C 0.26478(19) 0.62091(15) 0.52897(11)
C26 C 0.2465(2) 0.48689(15) 0.53313(12)
H14 H 0.18550 0.47680 0.47670
C27 C -0.0069(2) 0.82902(15) 0.15880(11)
H15 H 0.09640 0.75930 0.14260
H16 H -0.02000 0.91490 0.10060
H17 H -0.12300 0.79790 0.16690
C28 C 0.1252(2) 1.38760(16) 0.25892(13)
H18 H 0.20460 1.37520 0.31860
H19 H 0.00840 1.45520 0.26170
H20 H 0.19060 1.41990 0.19170
loop_
_geom_bond_atom_site_label_1
_geom_bond_atom_site_label_2
_geom_bond_distance
_geom_bond_site_symmetry_1
_geom_bond_site_symmetry_2
C1 H1 0.931 1_555 1_555
C2 C1 1.400 1_555 1_555
H2 C2 0.930 1_555 1_555
C3 C2 1.369 1_555 1_555
H3 C3 0.930 1_555 1_555
C4 C3 1.413 1_555 1_555
C5 C4 1.426 1_555 1_555
H4 C5 0.930 1_555 1_555
C6 C5 1.352 1_555 1_555
H5 C6 0.930 1_555 1_555
C7 C6 1.435 1_555 1_555
C8 C7 1.443 1_555 1_555
C9 C8 1.424 1_555 1_555
H6 C9 0.930 1_555 1_555
C10 C9 1.359 1_555 1_555
C11 C10 1.436 1_555 1_555
C12 C11 1.436 1_555 1_555
H7 C12 0.930 1_555 1_555
C13 C12 1.346 1_555 1_555
H8 C13 0.931 1_555 1_555
C14 C13 1.423 1_555 1_555
C15 C14 1.416 1_555 1_555
H9 C15 0.930 1_555 1_555
C16 C15 1.360 1_555 1_555
H10 C16 0.930 1_555 1_555
C17 C16 1.400 1_555 1_555
H11 C17 0.930 1_555 1_555
C18 C17 1.372 1_555 1_555
H12 C18 0.930 1_555 1_555
C19 C14 1.419 1_555 1_555
C20 C11 1.407 1_555 1_555
C21 C8 1.418 1_555 1_555
C22 C21 1.437 1_555 1_555
C23 C22 1.365 1_555 1_555
H13 C23 0.930 1_555 1_555
C24 C7 1.406 1_555 1_555
C25 C4 1.417 1_555 1_555
C26 C1 1.369 1_555 1_555
H14 C26 0.930 1_555 1_555
C27 C22 1.514 1_555 1_555
H15 C27 0.961 1_555 1_555
H16 C27 0.960 1_555 1_555
H17 C27 0.960 1_555 1_555
C28 C10 1.504 1_555 1_555
H18 C28 0.960 1_555 1_555
H19 C28 0.960 1_555 1_555
H20 C28 0.960 1_555 1_555
C18 C19 1.414 1_555 1_555
C19 C20 1.453 1_555 1_555
C20 C21 1.449 1_555 1_555
C23 C24 1.417 1_555 1_555
C24 C25 1.450 1_555 1_555
C25 C26 1.412 1_555 1_555
#END
