
#######################################################################
#
#                 Cambridge Crystallographic Data Centre
#                                CCDC
#
#######################################################################
#
# If this CIF has been generated from an entry in the Cambridge
# Structural Database, then it will include bibliographic, chemical,
# crystal, experimental, refinement or atomic coordinate data resulting
# from the CCDC's data processing and validation procedures.
#
#######################################################################

data_CSD_CIF_TMNHPL
_audit_creation_date 1979-01-19
_audit_creation_method CSD-ConQuest-V1
_database_code_CSD TMNHPL
_database_code_depnum_ccdc_archive 'CCDC 1272538'
_chemical_formula_sum 'C26 H24'
_chemical_formula_moiety
;
C26 H24
;
_journal_coeditor_code "IUCr A16379"
_journal_coden_Cambridge 107
_journal_volume 34
_journal_year 1978
_journal_page_first 2765
_journal_name_full 'Acta Crystallogr.,Sect.B:Struct.Crystallogr.Cryst.Chem. '
loop_
_publ_author_name
"Y.Jeannin"
"C.Stora"
_chemical_name_systematic
;
1,1,3-Trimethyl-2-(1-naphthyl)-2,3-dihydro-1H-phenalene
;
_cell_volume   3835.635
_diffrn_ambient_temperature ?
_diffrn_special_details
;
The study was carried out at room temperature,in the range 283-303K

;
#These two values have been output from a single CSD field.
_refine_ls_R_factor_gt 0.049
_refine_ls_wR_factor_gt 0.049
_symmetry_cell_setting monoclinic
_symmetry_space_group_name_H-M 'C 2/c'
_symmetry_Int_Tables_number 15
loop_
_symmetry_equiv_pos_site_id
_symmetry_equiv_pos_as_xyz
1 x,y,z
2 1/2+x,1/2+y,z
3 -x,y,1/2-z
4 1/2-x,1/2+y,1/2-z
5 -x,-y,-z
6 -1/2-x,-1/2-y,-z
7 x,-y,-1/2+z
8 -1/2+x,-1/2-y,-1/2+z
_cell_length_a 23.987(10)
_cell_length_b 8.808(3)
_cell_length_c 18.872(8)
_cell_angle_alpha 90
_cell_angle_beta 105.85(6)
_cell_angle_gamma 90
_cell_formula_units_Z 8
loop_
_atom_type_symbol
_atom_type_radius_bond
C 0.68
H 0.23
loop_
_atom_site_label
_atom_site_type_symbol
_atom_site_fract_x
_atom_site_fract_y
_atom_site_fract_z
C1 C 0.39880 0.30740 0.87840
C2 C 0.39300 0.44330 0.91150
C3 C 0.34000 0.49020 0.92120
C4 C 0.29260 0.40380 0.89780
C5 C 0.24560 0.17100 0.83880
C6 C 0.24810 0.03640 0.80540
C7 C 0.30130 -0.01420 0.79460
C8 C 0.35050 0.07130 0.81730
C9 C 0.34910 0.21340 0.85270
C10 C 0.29490 0.26260 0.86300
C11 C 0.45830 0.25680 0.87410
C12 C 0.49250 0.38760 0.85220
C13 C 0.49310 0.20310 0.95100
C14 C 0.39970 -0.06960 0.73340
C15 C 0.41940 -0.21490 0.73020
C16 C 0.41530 -0.28890 0.66240
C17 C 0.39170 -0.21920 0.59840
C18 C 0.34430 0.00330 0.52990
C19 C 0.32300 0.14490 0.52790
C20 C 0.32670 0.22280 0.59340
C21 C 0.35130 0.15610 0.66020
C22 C 0.37410 0.00660 0.66520
C23 C 0.37050 -0.07010 0.59730
C24 C 0.40750 0.00800 0.80880
C25 C 0.45320 0.13410 0.81480
C26 C 0.42780 -0.10620 0.87280
H1 H 0.42800 0.50800 0.93000
H2 H 0.34100 0.59300 0.94900
H3 H 0.25800 0.42900 0.90600
H4 H 0.21000 0.20400 0.84900
H5 H 0.21300 -0.03300 0.78800
H6 H 0.30300 -0.11300 0.77100
H7 H 0.46900 0.43600 0.80400
H8 H 0.53200 0.34400 0.84600
H9 H 0.50000 0.47400 0.88900
H10 H 0.50100 0.29800 0.98400
H11 H 0.53100 0.16100 0.94800
H12 H 0.47000 0.12200 0.97500
H13 H 0.43700 -0.26600 0.77500
H14 H 0.42800 -0.39600 0.66600
H15 H 0.38700 -0.27100 0.55000
H16 H 0.34400 -0.06400 0.48900
H17 H 0.30500 0.18100 0.48100
H18 H 0.31200 0.33300 0.59500
H19 H 0.35500 0.21400 0.70600
H20 H 0.44500 0.18700 0.76700
H21 H 0.49300 0.08600 0.82200
H22 H 0.46700 -0.14100 0.87700
H23 H 0.40100 -0.20100 0.86200
H24 H 0.42500 -0.05700 0.92100
loop_
_geom_bond_atom_site_label_1
_geom_bond_atom_site_label_2
_geom_bond_distance
_geom_bond_site_symmetry_1
_geom_bond_site_symmetry_2
C1 C2 1.375 1_555 1_555
C2 C3 1.396 1_555 1_555
C3 C4 1.339 1_555 1_555
C4 C10 1.415 1_555 1_555
C5 C6 1.352 1_555 1_555
C6 C7 1.418 1_555 1_555
C7 C8 1.366 1_555 1_555
C8 C9 1.423 1_555 1_555
C9 C1 1.423 1_555 1_555
C10 C5 1.401 1_555 1_555
C11 C1 1.518 1_555 1_555
C12 C11 1.535 1_555 1_555
C13 C11 1.538 1_555 1_555
C14 C15 1.371 1_555 1_555
C15 C16 1.415 1_555 1_555
C16 C17 1.335 1_555 1_555
C17 C23 1.406 1_555 1_555
C18 C19 1.344 1_555 1_555
C19 C20 1.395 1_555 1_555
C20 C21 1.370 1_555 1_555
C21 C22 1.419 1_555 1_555
C22 C14 1.433 1_555 1_555
C23 C18 1.412 1_555 1_555
C24 C8 1.525 1_555 1_555
C25 C11 1.536 1_555 1_555
C26 C24 1.545 1_555 1_555
H1 C2 0.996 1_555 1_555
H2 C3 1.043 1_555 1_555
H3 C4 0.912 1_555 1_555
H4 C5 0.970 1_555 1_555
H5 C6 1.019 1_555 1_555
H6 C7 0.983 1_555 1_555
H7 C12 1.023 1_555 1_555
H8 C12 1.058 1_555 1_555
H9 C12 1.013 1_555 1_555
H10 C13 1.029 1_555 1_555
H11 C13 0.998 1_555 1_555
H12 C13 1.077 1_555 1_555
H13 C15 0.949 1_555 1_555
H14 C16 0.988 1_555 1_555
H15 C17 0.999 1_555 1_555
H16 C18 0.972 1_555 1_555
H17 C19 0.929 1_555 1_555
H18 C20 1.036 1_555 1_555
H19 C21 0.986 1_555 1_555
H20 C25 0.986 1_555 1_555
H21 C25 1.019 1_555 1_555
H22 C26 0.971 1_555 1_555
H23 C26 1.039 1_555 1_555
H24 C26 1.026 1_555 1_555
C9 C10 1.433 1_555 1_555
C14 C24 1.543 1_555 1_555
C22 C23 1.430 1_555 1_555
C24 C25 1.543 1_555 1_555
#END
