
#######################################################################
#
#                 Cambridge Crystallographic Data Centre
#                                CCDC
#
#######################################################################
#
# If this CIF has been generated from an entry in the Cambridge
# Structural Database, then it will include bibliographic, chemical,
# crystal, experimental, refinement or atomic coordinate data resulting
# from the CCDC's data processing and validation procedures.
#
#######################################################################

data_CSD_CIF_TOCCOD
_audit_creation_date 1997-04-16
_audit_creation_method CSD-ConQuest-V1
_database_code_CSD TOCCOD
_database_code_depnum_ccdc_archive 'CCDC 1272963; CCDC 405622'
_database_code_depnum_ccdc_fiz 'CSD 405622'
_chemical_formula_sum 'C32 H18'
_chemical_formula_moiety
;
C32 H18
;
_journal_coden_Cambridge 167
_journal_year 1997
_journal_page_first 203
_journal_name_full 'Liebigs Ann. '
loop_
_publ_author_name
"G.Dyker"
"J.Korning"
"P.Bubenitschek"
"P.G.Jones"
_chemical_name_systematic
;
Trinaphtho(3.3.3)propellane
;
_chemical_melting_point 673.15
_cell_volume   1983.265
_exptl_crystal_colour 'colorless'
_exptl_crystal_density_diffrn 1.348
_exptl_special_details
;
Melts above 673.15K

;
_diffrn_ambient_temperature 143
#These two values have been output from a single CSD field.
_refine_ls_R_factor_gt 0.0581
_refine_ls_wR_factor_gt 0.0581
_symmetry_cell_setting triclinic
_symmetry_space_group_name_H-M 'P -1'
_symmetry_Int_Tables_number 2
loop_
_symmetry_equiv_pos_site_id
_symmetry_equiv_pos_as_xyz
1 x,y,z
2 -x,-y,-z
_cell_length_a 8.694(4)
_cell_length_b 16.105(6)
_cell_length_c 16.197(6)
_cell_angle_alpha 117.88(3)
_cell_angle_beta 93.64(3)
_cell_angle_gamma 94.94(4)
_cell_formula_units_Z 4
loop_
_atom_type_symbol
_atom_type_radius_bond
C 0.68
H 0.23
loop_
_atom_site_label
_atom_site_type_symbol
_atom_site_fract_x
_atom_site_fract_y
_atom_site_fract_z
C1 C -0.0945(3) 0.2736(2) 0.4844(2)
H1 H -0.1944(3) 0.2499(2) 0.4491(2)
C2 C -0.0704(3) 0.3605(2) 0.5692(2)
H2 H -0.1558(3) 0.3951(2) 0.5903(2)
C3 C 0.0716(3) 0.3963(2) 0.6218(2)
H3 H 0.0832(3) 0.4547(2) 0.6785(2)
C4 C 0.2013(3) 0.3471(2) 0.5927(2)
C5 C 0.3547(3) 0.3739(2) 0.6391(2)
H4 H 0.3793(3) 0.4316(2) 0.6963(2)
C6 C 0.4680(3) 0.3177(2) 0.6023(2)
H5 H 0.5696(3) 0.3370(2) 0.6355(2)
C7 C 0.4394(3) 0.2316(2) 0.5166(2)
H6 H 0.5202(3) 0.1938(2) 0.4925(2)
C8 C 0.2923(3) 0.2045(2) 0.4693(2)
C9 C 0.2243(3) 0.1192(2) 0.3771(2)
C10 C 0.2780(3) 0.1199(2) 0.2896(2)
C11 C 0.4216(3) 0.1182(2) 0.2597(2)
H7 H 0.5109(3) 0.1198(2) 0.2976(2)
C12 C 0.4352(3) 0.1141(2) 0.1713(2)
H8 H 0.5350(3) 0.1134(2) 0.1506(2)
C13 C 0.3085(3) 0.1112(2) 0.1150(2)
H9 H 0.3212(3) 0.1061(2) 0.0550(2)
C14 C 0.1588(3) 0.1158(2) 0.1451(2)
C15 C 0.1492(3) 0.1204(2) 0.2336(2)
C16 C 0.0178(3) 0.1168(2) 0.0969(2)
H10 H 0.0174(3) 0.1127(2) 0.0365(2)
C17 C -0.1174(3) 0.1235(2) 0.1367(2)
H11 H -0.2103(3) 0.1245(2) 0.1031(2)
C18 C -0.1246(3) 0.1292(2) 0.2266(2)
H12 H -0.2202(3) 0.1340(2) 0.2528(2)
C19 C 0.0095(3) 0.1274(2) 0.2744(2)
C20 C 0.0411(3) 0.1303(2) 0.3693(2)
C21 C 0.0286(3) 0.2248(2) 0.4545(2)
C22 C 0.1754(3) 0.2609(2) 0.5080(2)
C23 C 0.2260(3) 0.0235(2) 0.3744(2)
C24 C 0.3438(3) -0.0273(2) 0.3718(2)
H13 H 0.4478(3) -0.0035(2) 0.3722(2)
C25 C 0.3089(3) -0.1167(2) 0.3684(2)
H14 H 0.3914(3) -0.1524(2) 0.3664(2)
C26 C 0.1602(3) -0.1531(2) 0.3679(2)
H15 H 0.1411(3) -0.2131(2) 0.3659(2)
C27 C 0.0353(3) -0.1016(2) 0.3705(2)
C28 C -0.1242(3) -0.1289(2) 0.3695(2)
H16 H -0.1566(3) -0.1886(2) 0.3656(2)
C29 C -0.2317(3) -0.0706(2) 0.3743(2)
H17 H -0.3375(3) -0.0897(2) 0.3758(2)
C30 C -0.1902(3) 0.0180(2) 0.3769(2)
H18 H -0.2668(3) 0.0578(2) 0.3806(2)
C31 C -0.0383(3) 0.0448(2) 0.3741(2)
C32 C 0.0734(3) -0.0139(2) 0.3730(2)
C33 C 0.6927(3) 0.3504(2) 0.2432(2)
H19 H 0.7761(3) 0.3394(2) 0.2058(2)
C34 C 0.7130(4) 0.3546(2) 0.3320(2)
H20 H 0.8117(4) 0.3470(2) 0.3543(2)
C35 C 0.5946(3) 0.3694(2) 0.3871(2)
H21 H 0.6128(3) 0.3726(2) 0.4471(2)
C36 C 0.4466(3) 0.3798(2) 0.3559(2)
C37 C 0.3131(4) 0.3937(2) 0.4037(2)
H22 H 0.3190(4) 0.3986(2) 0.4646(2)
C38 C 0.1753(4) 0.4004(2) 0.3630(2)
H23 H 0.0864(4) 0.4081(2) 0.3959(2)
C39 C 0.1607(3) 0.3959(2) 0.2732(2)
H24 H 0.0634(3) 0.4002(2) 0.2463(2)
C40 C 0.2884(3) 0.3854(2) 0.2260(2)
C41 C 0.3160(3) 0.3859(2) 0.1349(2)
C42 C 0.2243(3) 0.3064(2) 0.0456(2)
C43 C 0.0713(3) 0.2904(2) 0.0101(2)
H25 H 0.0012(3) 0.3332(2) 0.0431(2)
C44 C 0.0193(3) 0.2082(2) -0.0775(2)
H26 H -0.0867(3) 0.1970(2) -0.1026(2)
C45 C 0.1170(3) 0.1447(2) -0.1268(2)
H27 H 0.0775(3) 0.0901(2) -0.1845(2)
C46 C 0.2755(3) 0.1599(2) -0.0926(2)
C47 C 0.3247(3) 0.2427(2) -0.0071(2)
C48 C 0.3915(3) 0.1028(2) -0.1348(2)
H28 H 0.3642(3) 0.0458(2) -0.1923(2)
C49 C 0.5427(3) 0.1282(2) -0.0942(2)
H29 H 0.6178(3) 0.0877(2) -0.1239(2)
C50 C 0.5904(3) 0.2133(2) -0.0091(2)
H30 H 0.6962(3) 0.2302(2) 0.0175(2)
C51 C 0.4814(3) 0.2703(2) 0.0337(2)
C52 C 0.4941(3) 0.3644(2) 0.1221(2)
C53 C 0.5508(3) 0.3624(2) 0.2115(2)
C54 C 0.4287(3) 0.3757(2) 0.2674(2)
C55 C 0.3172(3) 0.4842(2) 0.1424(2)
C56 C 0.2058(3) 0.5429(2) 0.1601(2)
H31 H 0.1042(3) 0.5240(2) 0.1689(2)
C57 C 0.2440(4) 0.6327(2) 0.1653(2)
H32 H 0.1661(4) 0.6735(2) 0.1771(2)
C58 C 0.3888(4) 0.6625(2) 0.1539(2)
H33 H 0.4099(4) 0.7233(2) 0.1580(2)
C59 C 0.5086(3) 0.6036(2) 0.1359(2)
C60 C 0.6645(3) 0.6249(2) 0.1247(2)
H34 H 0.6992(3) 0.6846(2) 0.1293(2)
C61 C 0.7655(3) 0.5595(2) 0.1071(2)
H35 H 0.8690(3) 0.5744(2) 0.0980(2)
C62 C 0.7216(3) 0.4704(2) 0.1021(2)
H36 H 0.7941(3) 0.4263(2) 0.0900(2)
C63 C 0.5729(3) 0.4491(2) 0.1151(2)
C64 C 0.4663(3) 0.5144(2) 0.1298(2)
loop_
_geom_bond_atom_site_label_1
_geom_bond_atom_site_label_2
_geom_bond_distance
_geom_bond_site_symmetry_1
_geom_bond_site_symmetry_2
C1 H1 0.950 1_555 1_555
C2 C1 1.416 1_555 1_555
H2 C2 0.951 1_555 1_555
C3 C2 1.366 1_555 1_555
H3 C3 0.950 1_555 1_555
C4 C3 1.412 1_555 1_555
C5 C4 1.414 1_555 1_555
H4 C5 0.950 1_555 1_555
C6 C5 1.367 1_555 1_555
H5 C6 0.950 1_555 1_555
C7 C6 1.417 1_555 1_555
H6 C7 0.950 1_555 1_555
C8 C7 1.371 1_555 1_555
C9 C8 1.515 1_555 1_555
C10 C9 1.525 1_555 1_555
C11 C10 1.365 1_555 1_555
H7 C11 0.949 1_555 1_555
C12 C11 1.415 1_555 1_555
H8 C12 0.949 1_555 1_555
C13 C12 1.368 1_555 1_555
H9 C13 0.951 1_555 1_555
C14 C13 1.414 1_555 1_555
C15 C10 1.399 1_555 1_555
C16 C14 1.416 1_555 1_555
H10 C16 0.949 1_555 1_555
C17 C16 1.364 1_555 1_555
H11 C17 0.950 1_555 1_555
C18 C17 1.421 1_555 1_555
H12 C18 0.950 1_555 1_555
C19 C15 1.407 1_555 1_555
C20 C9 1.622 1_555 1_555
C21 C1 1.361 1_555 1_555
C22 C4 1.409 1_555 1_555
C23 C9 1.523 1_555 1_555
C24 C23 1.356 1_555 1_555
H13 C24 0.950 1_555 1_555
C25 C24 1.420 1_555 1_555
H14 C25 0.950 1_555 1_555
C26 C25 1.371 1_555 1_555
H15 C26 0.951 1_555 1_555
C27 C26 1.413 1_555 1_555
C28 C27 1.415 1_555 1_555
H16 C28 0.950 1_555 1_555
C29 C28 1.361 1_555 1_555
H17 C29 0.950 1_555 1_555
C30 C29 1.422 1_555 1_555
H18 C30 0.949 1_555 1_555
C31 C20 1.524 1_555 1_555
C32 C23 1.403 1_555 1_555
C33 H19 0.950 1_555 1_555
C34 C33 1.407 1_555 1_555
H20 C34 0.950 1_555 1_555
C35 C34 1.369 1_555 1_555
H21 C35 0.951 1_555 1_555
C36 C35 1.405 1_555 1_555
C37 C36 1.412 1_555 1_555
H22 C37 0.950 1_555 1_555
C38 C37 1.367 1_555 1_555
H23 C38 0.951 1_555 1_555
C39 C38 1.419 1_555 1_555
H24 C39 0.950 1_555 1_555
C40 C39 1.366 1_555 1_555
C41 C40 1.513 1_555 1_555
C42 C41 1.521 1_555 1_555
C43 C42 1.368 1_555 1_555
H25 C43 0.949 1_555 1_555
C44 C43 1.424 1_555 1_555
H26 C44 0.950 1_555 1_555
C45 C44 1.370 1_555 1_555
H27 C45 0.950 1_555 1_555
C46 C45 1.408 1_555 1_555
C47 C42 1.405 1_555 1_555
C48 C46 1.410 1_555 1_555
H28 C48 0.949 1_555 1_555
C49 C48 1.369 1_555 1_555
H29 C49 0.950 1_555 1_555
C50 C49 1.419 1_555 1_555
H30 C50 0.950 1_555 1_555
C51 C47 1.413 1_555 1_555
C52 C41 1.621 1_555 1_555
C53 C33 1.370 1_555 1_555
C54 C36 1.402 1_555 1_555
C55 C41 1.529 1_555 1_555
C56 C55 1.361 1_555 1_555
H31 C56 0.951 1_555 1_555
C57 C56 1.417 1_555 1_555
H32 C57 0.950 1_555 1_555
C58 C57 1.363 1_555 1_555
H33 C58 0.951 1_555 1_555
C59 C58 1.421 1_555 1_555
C60 C59 1.413 1_555 1_555
H34 C60 0.949 1_555 1_555
C61 C60 1.368 1_555 1_555
H35 C61 0.950 1_555 1_555
C62 C61 1.416 1_555 1_555
H36 C62 0.950 1_555 1_555
C63 C52 1.529 1_555 1_555
C64 C55 1.406 1_555 1_555
C8 C22 1.399 1_555 1_555
C14 C15 1.409 1_555 1_555
C18 C19 1.368 1_555 1_555
C19 C20 1.522 1_555 1_555
C20 C21 1.522 1_555 1_555
C21 C22 1.407 1_555 1_555
C27 C32 1.404 1_555 1_555
C30 C31 1.364 1_555 1_555
C31 C32 1.408 1_555 1_555
C40 C54 1.410 1_555 1_555
C46 C47 1.407 1_555 1_555
C50 C51 1.364 1_555 1_555
C51 C52 1.510 1_555 1_555
C52 C53 1.515 1_555 1_555
C53 C54 1.404 1_555 1_555
C59 C64 1.407 1_555 1_555
C62 C63 1.363 1_555 1_555
C63 C64 1.408 1_555 1_555
#END
