
#######################################################################
#
#                 Cambridge Crystallographic Data Centre
#                                CCDC
#
#######################################################################
#
# If this CIF has been generated from an entry in the Cambridge
# Structural Database, then it will include bibliographic, chemical,
# crystal, experimental, refinement or atomic coordinate data resulting
# from the CCDC's data processing and validation procedures.
#
#######################################################################

data_CSD_CIF_TOCCUJ
_audit_creation_date 1997-04-16
_audit_creation_method CSD-ConQuest-V1
_database_code_CSD TOCCUJ
_database_code_depnum_ccdc_archive 'CCDC 1272964; CCDC 405623'
_database_code_depnum_ccdc_fiz 'CSD 405623'
_chemical_formula_sum 'C32 H24'
_chemical_formula_moiety
;
C32 H24
;
_journal_coden_Cambridge 167
_journal_year 1997
_journal_page_first 203
_journal_name_full 'Liebigs Ann. '
loop_
_publ_author_name
"G.Dyker"
"J.Korning"
"P.Bubenitschek"
"P.G.Jones"
_chemical_name_systematic
;
Tetramethylbenzo-dinaphtho(3.3.2)propellane
;
_cell_volume   1079.108
_exptl_crystal_colour 'colorless'
_exptl_crystal_density_diffrn 1.257
_diffrn_ambient_temperature 143
#These two values have been output from a single CSD field.
_refine_ls_R_factor_gt 0.0521
_refine_ls_wR_factor_gt 0.0521
_symmetry_cell_setting triclinic
_symmetry_space_group_name_H-M 'P -1'
_symmetry_Int_Tables_number 2
loop_
_symmetry_equiv_pos_site_id
_symmetry_equiv_pos_as_xyz
1 x,y,z
2 -x,-y,-z
_cell_length_a 8.654(3)
_cell_length_b 8.969(3)
_cell_length_c 14.787(4)
_cell_angle_alpha 74.51(2)
_cell_angle_beta 85.81(2)
_cell_angle_gamma 77.36(2)
_cell_formula_units_Z 2
loop_
_atom_type_symbol
_atom_type_radius_bond
C 0.68
H 0.23
loop_
_atom_site_label
_atom_site_type_symbol
_atom_site_fract_x
_atom_site_fract_y
_atom_site_fract_z
C1 C 0.1601(2) -0.1484(2) 0.85624(14)
H1 H 0.1342(2) -0.2100(2) 0.81855(14)
C2 C 0.2610(3) -0.2195(3) 0.9339(2)
H2 H 0.3009(3) -0.3305(3) 0.9484(2)
C3 C 0.3033(3) -0.1350(3) 0.98911(15)
H3 H 0.3735(3) -0.1870(3) 1.03971(15)
C4 C 0.2422(2) 0.0306(3) 0.97077(13)
C5 C 0.2745(2) 0.1339(3) 1.02141(15)
H4 H 0.3445(2) 0.0937(3) 1.07295(15)
C6 C 0.2052(3) 0.2907(3) 0.9962(2)
H5 H 0.2277(3) 0.3574(3) 1.0317(2)
C7 C 0.1009(2) 0.3587(3) 0.91930(14)
H6 H 0.0543(2) 0.4684(3) 0.90350(14)
C8 C 0.0693(2) 0.2619(2) 0.86858(13)
C9 C -0.0269(2) 0.2939(2) 0.78129(13)
C10 C -0.2042(2) 0.3523(2) 0.78373(13)
C11 C -0.2976(2) 0.4873(3) 0.80031(14)
H7 H -0.2517(2) 0.5656(3) 0.81413(14)
C12 C -0.4641(3) 0.5073(3) 0.79633(15)
H8 H -0.5292(3) 0.6008(3) 0.80758(15)
C13 C -0.5348(2) 0.3977(3) 0.77700(15)
H9 H -0.6470(2) 0.4155(3) 0.77574(15)
C14 C -0.4417(2) 0.2574(3) 0.75876(13)
C15 C -0.2769(2) 0.2386(2) 0.76328(12)
C16 C -0.4976(2) 0.1334(3) 0.73767(14)
H10 H -0.6082(2) 0.1399(3) 0.73460(14)
C17 C -0.3931(3) 0.0048(3) 0.72179(15)
H11 H -0.4333(3) -0.0766(3) 0.70753(15)
C18 C -0.2264(2) -0.0120(3) 0.72574(14)
H12 H -0.1563(2) -0.1023(3) 0.71363(14)
C19 C -0.1691(2) 0.1049(2) 0.74742(12)
C20 C -0.0030(2) 0.1245(2) 0.75832(13)
C21 C 0.1003(2) 0.0115(2) 0.83653(13)
C22 C 0.1397(2) 0.0990(2) 0.89473(13)
C23 C 0.0598(2) 0.3457(2) 0.68771(13)
C24 C 0.1147(2) 0.4713(2) 0.63140(13)
C25 C 0.2029(2) 0.4416(2) 0.55121(13)
C26 C 0.2303(2) 0.2933(2) 0.53214(13)
C27 C 0.1690(2) 0.1656(2) 0.59188(13)
C28 C 0.0841(2) 0.1990(2) 0.66841(12)
C29 C 0.0851(3) 0.6275(2) 0.6541(2)
H13 H 0.0274(14) 0.7091(3) 0.6027(4)
H14 H 0.1865(3) 0.6538(8) 0.6622(9)
H15 H 0.0221(14) 0.6224(5) 0.7122(5)
C30 C 0.2666(3) 0.5754(3) 0.4861(2)
H16 H 0.3346(13) 0.6137(11) 0.5210(3)
H17 H 0.1783(3) 0.6616(7) 0.4594(7)
H18 H 0.3284(13) 0.5378(5) 0.4353(5)
C31 C 0.3289(3) 0.2635(3) 0.44853(15)
H19 H 0.3349(14) 0.1544(6) 0.4458(6)
H20 H 0.4358(5) 0.2799(16) 0.4540(5)
H21 H 0.2803(9) 0.3367(11) 0.3912(2)
C32 C 0.1960(3) 0.0050(2) 0.5751(2)
H22 H 0.3094(3) -0.0425(7) 0.5790(9)
H23 H 0.1582(14) 0.0137(3) 0.5127(4)
H24 H 0.1380(13) -0.0617(5) 0.6228(6)
loop_
_geom_bond_atom_site_label_1
_geom_bond_atom_site_label_2
_geom_bond_distance
_geom_bond_site_symmetry_1
_geom_bond_site_symmetry_2
C1 H1 0.950 1_555 1_555
C2 C1 1.414 1_555 1_555
H2 C2 0.950 1_555 1_555
C3 C2 1.368 1_555 1_555
H3 C3 0.950 1_555 1_555
C4 C3 1.422 1_555 1_555
C5 C4 1.418 1_555 1_555
H4 C5 0.950 1_555 1_555
C6 C5 1.364 1_555 1_555
H5 C6 0.951 1_555 1_555
C7 C6 1.421 1_555 1_555
H6 C7 0.950 1_555 1_555
C8 C7 1.368 1_555 1_555
C9 C8 1.515 1_555 1_555
C10 C9 1.510 1_555 1_555
C11 C10 1.371 1_555 1_555
H7 C11 0.950 1_555 1_555
C12 C11 1.416 1_555 1_555
H8 C12 0.950 1_555 1_555
C13 C12 1.364 1_555 1_555
H9 C13 0.950 1_555 1_555
C14 C13 1.418 1_555 1_555
C15 C10 1.414 1_555 1_555
C16 C14 1.418 1_555 1_555
H10 C16 0.950 1_555 1_555
C17 C16 1.364 1_555 1_555
H11 C17 0.950 1_555 1_555
C18 C17 1.421 1_555 1_555
H12 C18 0.950 1_555 1_555
C19 C15 1.411 1_555 1_555
C20 C9 1.611 1_555 1_555
C21 C1 1.372 1_555 1_555
C22 C4 1.402 1_555 1_555
C23 C9 1.533 1_555 1_555
C24 C23 1.365 1_555 1_555
C25 C24 1.417 1_555 1_555
C26 C25 1.399 1_555 1_555
C27 C26 1.425 1_555 1_555
C28 C20 1.543 1_555 1_555
C29 C24 1.491 1_555 1_555
H13 C29 0.980 1_555 1_555
H14 C29 0.980 1_555 1_555
H15 C29 0.979 1_555 1_555
C30 C25 1.505 1_555 1_555
H16 C30 0.979 1_555 1_555
H17 C30 0.980 1_555 1_555
H18 C30 0.981 1_555 1_555
C31 C26 1.500 1_555 1_555
H19 C31 0.980 1_555 1_555
H20 C31 0.980 1_555 1_555
H21 C31 0.980 1_555 1_555
C32 C27 1.492 1_555 1_555
H22 C32 0.980 1_555 1_555
H23 C32 0.979 1_555 1_555
H24 C32 0.981 1_555 1_555
C8 C22 1.414 1_555 1_555
C14 C15 1.403 1_555 1_555
C18 C19 1.371 1_555 1_555
C19 C20 1.511 1_555 1_555
C20 C21 1.514 1_555 1_555
C21 C22 1.412 1_555 1_555
C23 C28 1.388 1_555 1_555
C27 C28 1.369 1_555 1_555
#END
