
#######################################################################
#
#                 Cambridge Crystallographic Data Centre
#                                CCDC
#
#######################################################################
#
# If this CIF has been generated from an entry in the Cambridge
# Structural Database, then it will include bibliographic, chemical,
# crystal, experimental, refinement or atomic coordinate data resulting
# from the CCDC's data processing and validation procedures.
#
#######################################################################

data_CSD_CIF_TRIPHE12
_audit_creation_date 2002-01-23
_audit_creation_method CSD-ConQuest-V1
_database_code_CSD TRIPHE12
_database_code_depnum_ccdc_archive 'CCDC 157251'
_chemical_formula_sum 'C18 H12'
_chemical_formula_moiety
;
C18 H12
;
_journal_coden_Cambridge 440
_journal_volume 25
_journal_year 2001
_journal_page_first 1410
_journal_name_full 'New J.Chem. '
loop_
_publ_author_name
"J.C.Collings"
"K.P.Roscoe"
"R.L.Thomas"
"A.S.Batsanov"
"L.M.Stimson"
"J.A.K.Howard"
"T.B.Marder"
_chemical_name_systematic
;
Triphenylene
;
_chemical_melting_point 472.15
_cell_volume   1144.299
_exptl_crystal_colour 'colorless'
_exptl_crystal_density_diffrn 1.325
_exptl_crystal_description 'needle'
_exptl_crystal_preparation 'dichloromethane'
_diffrn_ambient_temperature 150
#These two values have been output from a single CSD field.
_refine_ls_R_factor_gt 0.0563
_refine_ls_wR_factor_gt 0.0563
_symmetry_cell_setting orthorhombic
_symmetry_space_group_name_H-M 'P 21 21 21'
_symmetry_Int_Tables_number 19
loop_
_symmetry_equiv_pos_site_id
_symmetry_equiv_pos_as_xyz
1 x,y,z
2 1/2-x,-y,1/2+z
3 -x,1/2+y,1/2-z
4 1/2+x,1/2-y,-z
_cell_length_a 5.280(2)
_cell_length_b 12.972(5)
_cell_length_c 16.707(7)
_cell_angle_alpha 90
_cell_angle_beta 90
_cell_angle_gamma 90
_cell_formula_units_Z 4
loop_
_atom_type_symbol
_atom_type_radius_bond
C 0.68
H 0.23
loop_
_atom_site_label
_atom_site_type_symbol
_atom_site_fract_x
_atom_site_fract_y
_atom_site_fract_z
C1 C 0.4914(7) 0.3987(3) 0.54523(19)
H1 H 0.60510 0.34200 0.54660
C2 C 0.3060(7) 0.4067(3) 0.6033(2)
H2 H 0.29110 0.35510 0.64340
C3 C 0.1409(8) 0.4906(3) 0.6028(2)
H3 H 0.01390 0.49660 0.64270
C4 C 0.1628(7) 0.5648(3) 0.54404(18)
H4 H 0.05110 0.62230 0.54450
C5 C 0.1891(7) 0.7169(3) 0.41344(19)
H5 H 0.06650 0.72520 0.45450
C6 C 0.1946(7) 0.7862(3) 0.3512(2)
H6 H 0.07640 0.84140 0.34940
C7 C 0.3745(7) 0.7752(3) 0.2908(2)
H7 H 0.37980 0.82300 0.24790
C8 C 0.5449(7) 0.6946(3) 0.2935(2)
H8 H 0.66600 0.68770 0.25190
C9 C 0.9085(7) 0.5228(3) 0.2989(2)
H9 H 0.91700 0.57110 0.25630
C10 C 1.0798(7) 0.4422(3) 0.3012(2)
H10 H 1.20580 0.43600 0.26090
C11 C 1.0665(7) 0.3703(3) 0.3628(2)
H11 H 1.18320 0.31470 0.36450
C12 C 0.8842(6) 0.3799(3) 0.4214(2)
H12 H 0.87700 0.33020 0.46310
C13 C 0.5156(6) 0.4727(2) 0.48398(19)
C14 C 0.3477(7) 0.5573(3) 0.48311(18)
C15 C 0.3611(6) 0.6337(2) 0.41789(18)
C16 C 0.5436(6) 0.6221(2) 0.35675(19)
C17 C 0.7218(6) 0.5352(2) 0.3583(2)
C18 C 0.7076(7) 0.4619(2) 0.42084(18)
loop_
_geom_bond_atom_site_label_1
_geom_bond_atom_site_label_2
_geom_bond_distance
_geom_bond_site_symmetry_1
_geom_bond_site_symmetry_2
C1 H1 0.950 1_555 1_555
C2 C1 1.382 1_555 1_555
H2 C2 0.950 1_555 1_555
C3 C2 1.394 1_555 1_555
H3 C3 0.949 1_555 1_555
C4 C3 1.380 1_555 1_555
H4 C4 0.951 1_555 1_555
C5 H5 0.949 1_555 1_555
C6 C5 1.375 1_555 1_555
H6 C6 0.950 1_555 1_555
C7 C6 1.393 1_555 1_555
H7 C7 0.948 1_555 1_555
C8 C7 1.380 1_555 1_555
H8 C8 0.949 1_555 1_555
C9 H9 0.949 1_555 1_555
C10 C9 1.383 1_555 1_555
H10 C10 0.950 1_555 1_555
C11 C10 1.391 1_555 1_555
H11 C11 0.949 1_555 1_555
C12 C11 1.379 1_555 1_555
H12 C12 0.950 1_555 1_555
C13 C1 1.409 1_555 1_555
C14 C4 1.414 1_555 1_555
C15 C5 1.412 1_555 1_555
C16 C8 1.415 1_555 1_555
C17 C9 1.408 1_555 1_555
C18 C12 1.415 1_555 1_555
C13 C14 1.411 1_555 1_555
C13 C18 1.470 1_555 1_555
C14 C15 1.475 1_555 1_555
C15 C16 1.412 1_555 1_555
C16 C17 1.469 1_555 1_555
C17 C18 1.415 1_555 1_555
#END
