
#######################################################################
#
#                 Cambridge Crystallographic Data Centre
#                                CCDC
#
#######################################################################
#
# If this CIF has been generated from an entry in the Cambridge
# Structural Database, then it will include bibliographic, chemical,
# crystal, experimental, refinement or atomic coordinate data resulting
# from the CCDC's data processing and validation procedures.
#
#######################################################################

data_CSD_CIF_TRIPHE
_audit_creation_date 1971-12-31
_audit_creation_method CSD-ConQuest-V1
_database_code_CSD TRIPHE
_database_code_depnum_ccdc_archive 'CCDC 1275702'
_chemical_formula_sum 'C18 H12'
_chemical_formula_moiety
;
C18 H12
;
_journal_coeditor_code "IUCr A03843"
_journal_coden_Cambridge 1
_journal_volume 16
_journal_year 1963
_journal_page_first 503
_journal_name_full 'Acta Crystallogr. '
loop_
_publ_author_name
"F.R.Ahmed"
"J.Trotter"
_chemical_name_systematic
;
Triphenylene
;
_cell_volume   1158.957
_diffrn_ambient_temperature ?
_diffrn_special_details
;
The study was carried out at room temperature,in the range 283-303K

;
#These two values have been output from a single CSD field.
_refine_ls_R_factor_gt 0.1
_refine_ls_wR_factor_gt 0.1
_symmetry_cell_setting orthorhombic
_symmetry_space_group_name_H-M 'P 21 21 21'
_symmetry_Int_Tables_number 19
loop_
_symmetry_equiv_pos_site_id
_symmetry_equiv_pos_as_xyz
1 x,y,z
2 1/2+x,1/2-y,-z
3 -x,1/2+y,1/2-z
4 1/2-x,-y,1/2+z
_cell_length_a 13.17
_cell_length_b 16.73
_cell_length_c 5.26
_cell_angle_alpha 90
_cell_angle_beta 90
_cell_angle_gamma 90
_cell_formula_units_Z 4
loop_
_atom_type_symbol
_atom_type_radius_bond
C 0.68
H 0.20
loop_
_atom_site_label
_atom_site_type_symbol
_atom_site_fract_x
_atom_site_fract_y
_atom_site_fract_z
C1 C -0.55950 -0.30040 0.57670
C2 C -0.44420 -0.48340 -0.15010
C3 C -0.43580 -0.54410 -0.33940
C4 C -0.50820 -0.60320 -0.36160
C5 C -0.59120 -0.60340 -0.19370
C6 C -0.60030 -0.54610 -0.00860
C7 C -0.52820 -0.48370 0.01710
C8 C -0.53950 -0.42150 0.20170
C9 C -0.62070 -0.42070 0.37480
C10 C -0.63080 -0.36310 0.55940
C11 C -0.48010 -0.29880 0.40310
C12 C -0.46730 -0.35860 0.21750
C13 C -0.38190 -0.35800 0.04510
C14 C -0.30830 -0.29480 0.04770
C15 C -0.22970 -0.29250 -0.11880
C16 C -0.21830 -0.35240 -0.29860
C17 C -0.28680 -0.41610 -0.30650
C18 C -0.36910 -0.41890 -0.13770
H1 H -0.57500 -0.25000 0.74000
H2 H -0.37000 -0.54200 -0.46700
H3 H -0.50300 -0.63800 -0.53300
H4 H -0.64000 -0.65200 -0.20000
H5 H -0.66500 -0.54500 0.13000
H6 H -0.67200 -0.47400 0.34500
H7 H -0.68100 -0.36500 0.71300
H8 H -0.42200 -0.25000 0.40200
H9 H -0.30800 -0.24900 0.19700
H10 H -0.17400 -0.24700 -0.11700
H11 H -0.16000 -0.34500 -0.45300
H12 H -0.28000 -0.46500 -0.46000
loop_
_geom_bond_atom_site_label_1
_geom_bond_atom_site_label_2
_geom_bond_distance
_geom_bond_site_symmetry_1
_geom_bond_site_symmetry_2
C1 C10 1.411 1_555 1_555
C2 C3 1.427 1_555 1_555
C3 C4 1.379 1_555 1_555
C4 C5 1.405 1_555 1_555
C5 C6 1.372 1_555 1_555
C6 C7 1.418 1_555 1_555
C7 C2 1.413 1_555 1_555
C8 C7 1.431 1_555 1_555
C9 C8 1.405 1_555 1_555
C10 C9 1.374 1_555 1_555
C11 C1 1.389 1_555 1_555
C12 C8 1.421 1_555 1_555
C13 C12 1.445 1_555 1_555
C14 C13 1.434 1_555 1_555
C15 C14 1.356 1_555 1_555
C16 C15 1.386 1_555 1_555
C17 C16 1.397 1_555 1_555
C18 C2 1.465 1_555 1_555
H1 C1 1.221 1_555 1_555
H2 C3 1.097 1_555 1_555
H3 C4 1.075 1_555 1_555
H4 C5 1.037 1_555 1_555
H5 C6 1.122 1_555 1_555
H6 C9 1.130 1_555 1_555
H7 C10 1.044 1_555 1_555
H8 C11 1.119 1_555 1_555
H9 C14 1.097 1_555 1_555
H10 C15 1.057 1_555 1_555
H11 C16 1.124 1_555 1_555
H12 C17 1.153 1_555 1_555
C11 C12 1.408 1_555 1_555
C13 C18 1.411 1_555 1_555
C17 C18 1.402 1_555 1_555
#END
