
#######################################################################
#
#                 Cambridge Crystallographic Data Centre
#                                CCDC
#
#######################################################################
#
# If this CIF has been generated from an entry in the Cambridge
# Structural Database, then it will include bibliographic, chemical,
# crystal, experimental, refinement or atomic coordinate data resulting
# from the CCDC's data processing and validation procedures.
#
#######################################################################

data_CSD_CIF_TRIPHE13
_audit_creation_date 2013-07-31
_audit_creation_method CSD-ConQuest-V1
_database_code_CSD TRIPHE13
_database_code_depnum_ccdc_archive 'CCDC 921664'
_chemical_formula_sum 'C18 H12'
_chemical_formula_moiety
;
C18 H12
;
_journal_coden_Cambridge 1078
_journal_year 2013
_journal_name_full 'CSD Communication(Private Communication) '
loop_
_publ_author_name
"O.Seven"
"M.Bolte"
_chemical_name_systematic
;
Triphenylene
;
_cell_volume   1141.535
_exptl_crystal_colour 'colorless'
_exptl_crystal_density_diffrn 1.328
_exptl_crystal_description 'needle'
_diffrn_ambient_temperature 173
#These two values have been output from a single CSD field.
_refine_ls_R_factor_gt 0.0375
_refine_ls_wR_factor_gt 0.0375
_symmetry_cell_setting orthorhombic
_symmetry_space_group_name_H-M 'P 21 21 21'
_symmetry_Int_Tables_number 19
loop_
_symmetry_equiv_pos_site_id
_symmetry_equiv_pos_as_xyz
1 x,y,z
2 1/2-x,-y,1/2+z
3 -x,1/2+y,1/2-z
4 1/2+x,1/2-y,-z
_cell_length_a 5.2694(7)
_cell_length_b 12.9605(19)
_cell_length_c 16.715(2)
_cell_angle_alpha 90
_cell_angle_beta 90
_cell_angle_gamma 90
_cell_formula_units_Z 4
loop_
_atom_type_symbol
_atom_type_radius_bond
C 0.68
H 0.23
loop_
_atom_site_label
_atom_site_type_symbol
_atom_site_fract_x
_atom_site_fract_y
_atom_site_fract_z
C1 C 0.3477(4) 0.55716(12) 0.48304(11)
C2 C 0.5160(5) 0.47272(11) 0.48405(12)
C3 C 0.4901(5) 0.39913(13) 0.54541(12)
H1 H 0.60350 0.34220 0.54690
C4 C 0.3061(5) 0.40704(13) 0.60322(13)
H2 H 0.29130 0.35550 0.64330
C5 C 0.1413(5) 0.49081(13) 0.60284(13)
H3 H 0.01440 0.49710 0.64290
C6 C 0.1631(5) 0.56459(13) 0.54409(12)
H4 H 0.05110 0.62200 0.54460
C7 C 0.7073(4) 0.46172(11) 0.42106(11)
C8 C 0.7216(4) 0.53459(11) 0.35860(12)
C9 C 0.9092(4) 0.52200(12) 0.29910(12)
H5 H 0.91790 0.57040 0.25650
C10 C 1.0788(4) 0.44212(13) 0.30108(13)
H6 H 1.20440 0.43580 0.26060
C11 C 1.0661(5) 0.37006(12) 0.36291(13)
H7 H 1.18300 0.31430 0.36480
C12 C 0.8836(5) 0.38010(12) 0.42109(12)
H8 H 0.87610 0.33030 0.46270
C13 C 0.5418(4) 0.62174(11) 0.35682(12)
C14 C 0.3610(4) 0.63302(11) 0.41788(11)
C15 C 0.1891(5) 0.71657(11) 0.41381(12)
H9 H 0.06690 0.72540 0.45500
C16 C 0.1957(5) 0.78522(12) 0.35118(13)
H10 H 0.07730 0.84040 0.34920
C17 C 0.3747(5) 0.77434(12) 0.29061(13)
H11 H 0.37880 0.82190 0.24740
C18 C 0.5453(5) 0.69442(12) 0.29363(13)
H12 H 0.66840 0.68770 0.25240
loop_
_geom_bond_atom_site_label_1
_geom_bond_atom_site_label_2
_geom_bond_distance
_geom_bond_site_symmetry_1
_geom_bond_site_symmetry_2
C1 C2 1.409 1_555 1_555
C2 C3 1.407 1_555 1_555
C3 H1 0.950 1_555 1_555
C4 C3 1.373 1_555 1_555
H2 C4 0.949 1_555 1_555
C5 C4 1.390 1_555 1_555
H3 C5 0.950 1_555 1_555
C6 C1 1.413 1_555 1_555
H4 C6 0.950 1_555 1_555
C7 C2 1.465 1_555 1_555
C8 C7 1.410 1_555 1_555
C9 C8 1.412 1_555 1_555
H5 C9 0.950 1_555 1_555
C10 C9 1.368 1_555 1_555
H6 C10 0.950 1_555 1_555
C11 C10 1.395 1_555 1_555
H7 C11 0.950 1_555 1_555
C12 C7 1.408 1_555 1_555
H8 C12 0.950 1_555 1_555
C13 C8 1.475 1_555 1_555
C14 C1 1.469 1_555 1_555
C15 C14 1.413 1_555 1_555
H9 C15 0.950 1_555 1_555
C16 C15 1.374 1_555 1_555
H10 C16 0.950 1_555 1_555
C17 C16 1.391 1_555 1_555
H11 C17 0.950 1_555 1_555
C18 C13 1.415 1_555 1_555
H12 C18 0.950 1_555 1_555
C5 C6 1.375 1_555 1_555
C11 C12 1.374 1_555 1_555
C13 C14 1.404 1_555 1_555
C17 C18 1.372 1_555 1_555
#END
