
#######################################################################
#
#                 Cambridge Crystallographic Data Centre
#                                CCDC
#
#######################################################################
#
# If this CIF has been generated from an entry in the Cambridge
# Structural Database, then it will include bibliographic, chemical,
# crystal, experimental, refinement or atomic coordinate data resulting
# from the CCDC's data processing and validation procedures.
#
#######################################################################

data_CSD_CIF_TUFMOY
_audit_creation_date 2015-05-11
_audit_creation_method CSD-ConQuest-V1
_database_code_CSD TUFMOY
_database_code_depnum_ccdc_archive 'CCDC 1020805'
_chemical_formula_sum 'C26 H16'
_chemical_formula_moiety
;
C26 H16
;
_journal_coden_Cambridge 1695
_journal_volume 3
_journal_year 2015
_journal_page_first 5368
_journal_name_full 'J.Mater.Chem.C '
loop_
_publ_author_name
"Xiaotao Zhang"
"Guangyao Zhao"
"Yonggang Zhen"
"Zeyi Tu"
"Ping He"
"Yuanping Yi"
"Huanli Dong"
"Wenping Hu"
_chemical_name_systematic
;
2-(2-naphthylethynyl)anthracene
;
_cell_volume   1678.091
_exptl_crystal_colour 'light yellow'
_exptl_crystal_density_diffrn 1.3
_exptl_crystal_description 'plate'
_diffrn_ambient_temperature 173.2
#These two values have been output from a single CSD field.
_refine_ls_R_factor_gt 0.0592
_refine_ls_wR_factor_gt 0.0592
_symmetry_cell_setting monoclinic
_symmetry_space_group_name_H-M 'C c'
_symmetry_Int_Tables_number 9
loop_
_symmetry_equiv_pos_site_id
_symmetry_equiv_pos_as_xyz
1 x,y,z
2 x,-y,1/2+z
3 1/2+x,1/2+y,z
4 1/2+x,1/2-y,1/2+z
_cell_length_a 38.26(3)
_cell_length_b 5.862(4)
_cell_length_c 7.489(6)
_cell_angle_alpha 90
_cell_angle_beta 92.456(9)
_cell_angle_gamma 90
_cell_formula_units_Z 4
loop_
_atom_type_symbol
_atom_type_radius_bond
C 0.68
H 0.23
loop_
_atom_site_label
_atom_site_type_symbol
_atom_site_fract_x
_atom_site_fract_y
_atom_site_fract_z
C1 C 0.31002(7) 0.3560(5) 0.3697(4)
C2 C 0.31075(8) 0.1368(6) 0.4540(4)
H1 H 0.28980 0.06450 0.47770
C3 C 0.34175(7) 0.0326(5) 0.5001(4)
H2 H 0.34160 -0.10950 0.55530
C4 C 0.37452(7) 0.1379(5) 0.4652(4)
C5 C 0.40677(8) 0.0365(5) 0.5127(4)
H3 H 0.40710 -0.10430 0.57000
C6 C 0.43854(7) 0.1420(5) 0.4760(4)
C7 C 0.47155(8) 0.0402(5) 0.5253(4)
H4 H 0.47230 -0.10020 0.58320
C8 C 0.50213(8) 0.1486(6) 0.4875(4)
H5 H 0.52350 0.08150 0.52050
C9 C 0.50150(8) 0.3620(6) 0.3988(4)
H6 H 0.52240 0.43230 0.37240
C10 C 0.47056(7) 0.4655(5) 0.3516(4)
H7 H 0.47070 0.60660 0.29490
C11 C 0.43793(7) 0.3605(5) 0.3882(4)
C12 C 0.40562(7) 0.4626(5) 0.3412(4)
H8 H 0.40530 0.60380 0.28440
C13 C 0.37398(7) 0.3575(5) 0.3775(3)
C14 C 0.34089(8) 0.4600(5) 0.3325(4)
H9 H 0.34030 0.60150 0.27620
C15 C 0.27692(8) 0.4633(6) 0.3272(4)
C16 C 0.24892(8) 0.5504(6) 0.2958(4)
C17 C 0.21566(7) 0.6557(6) 0.2527(4)
C18 C 0.21383(8) 0.8731(6) 0.1698(4)
H10 H 0.23440 0.95020 0.14670
C19 C 0.18234(8) 0.9709(6) 0.1233(4)
H11 H 0.18180 1.11260 0.06740
C20 C 0.15043(8) 0.8593(6) 0.1591(4)
C21 C 0.11720(8) 0.9551(6) 0.1115(4)
H12 H 0.11590 1.09600 0.05450
C22 C 0.08696(9) 0.8417(7) 0.1488(4)
H13 H 0.06540 0.90570 0.11620
C23 C 0.08843(8) 0.6306(7) 0.2355(4)
H14 H 0.06780 0.55600 0.26080
C24 C 0.11992(8) 0.5324(6) 0.2837(4)
H15 H 0.12040 0.39230 0.34210
C25 C 0.15188(7) 0.6427(5) 0.2453(4)
C26 C 0.18488(8) 0.5444(6) 0.2918(4)
H16 H 0.18590 0.40380 0.34910
loop_
_geom_bond_atom_site_label_1
_geom_bond_atom_site_label_2
_geom_bond_distance
_geom_bond_site_symmetry_1
_geom_bond_site_symmetry_2
C1 C2 1.431 1_555 1_555
C2 H1 0.930 1_555 1_555
C3 C2 1.365 1_555 1_555
H2 C3 0.930 1_555 1_555
C4 C3 1.432 1_555 1_555
C5 C4 1.402 1_555 1_555
H3 C5 0.930 1_555 1_555
C6 C5 1.401 1_555 1_555
C7 C6 1.431 1_555 1_555
H4 C7 0.930 1_555 1_555
C8 C7 1.372 1_555 1_555
H5 C8 0.931 1_555 1_555
C9 C8 1.416 1_555 1_555
H6 C9 0.928 1_555 1_555
C10 C9 1.363 1_555 1_555
H7 C10 0.930 1_555 1_555
C11 C6 1.439 1_555 1_555
C12 C11 1.405 1_555 1_555
H8 C12 0.930 1_555 1_555
C13 C4 1.445 1_555 1_555
C14 C1 1.368 1_555 1_555
H9 C14 0.930 1_555 1_555
C15 C1 1.437 1_555 1_555
C16 C15 1.201 1_555 1_555
C17 C16 1.439 1_555 1_555
C18 C17 1.418 1_555 1_555
H10 C18 0.930 1_555 1_555
C19 C18 1.366 1_555 1_555
H11 C19 0.930 1_555 1_555
C20 C19 1.421 1_555 1_555
C21 C20 1.421 1_555 1_555
H12 C21 0.930 1_555 1_555
C22 C21 1.373 1_555 1_555
H13 C22 0.929 1_555 1_555
C23 C22 1.397 1_555 1_555
H14 C23 0.929 1_555 1_555
C24 C23 1.370 1_555 1_555
H15 C24 0.930 1_555 1_555
C25 C20 1.424 1_555 1_555
C26 C17 1.388 1_555 1_555
H16 C26 0.929 1_555 1_555
C10 C11 1.429 1_555 1_555
C12 C13 1.395 1_555 1_555
C13 C14 1.429 1_555 1_555
C24 C25 1.423 1_555 1_555
C25 C26 1.418 1_555 1_555
#END
