
#######################################################################
#
#                 Cambridge Crystallographic Data Centre
#                                CCDC
#
#######################################################################
#
# If this CIF has been generated from an entry in the Cambridge
# Structural Database, then it will include bibliographic, chemical,
# crystal, experimental, refinement or atomic coordinate data resulting
# from the CCDC's data processing and validation procedures.
#
#######################################################################

data_CSD_CIF_TUFWUO
_audit_creation_date 2015-05-11
_audit_creation_method CSD-ConQuest-V1
_database_code_CSD TUFWUO
_database_code_depnum_ccdc_archive 'CCDC 1004478'
_chemical_formula_sum 'C26 H16'
_chemical_formula_moiety
;
C26 H16
;
_journal_coden_Cambridge 1695
_journal_volume 3
_journal_year 2015
_journal_page_first 5368
_journal_name_full 'J.Mater.Chem.C '
loop_
_publ_author_name
"Xiaotao Zhang"
"Guangyao Zhao"
"Yonggang Zhen"
"Zeyi Tu"
"Ping He"
"Yuanping Yi"
"Huanli Dong"
"Wenping Hu"
_chemical_name_systematic
;
1-(2-naphthylethynyl)anthracene
;
_cell_volume   1759.563
_exptl_crystal_colour 'yellow'
_exptl_crystal_density_diffrn 1.24
_exptl_crystal_description 'block'
_diffrn_ambient_temperature 296
#These two values have been output from a single CSD field.
_refine_ls_R_factor_gt 0.0667
_refine_ls_wR_factor_gt 0.0667
_symmetry_cell_setting monoclinic
_symmetry_space_group_name_H-M 'C c'
_symmetry_Int_Tables_number 9
loop_
_symmetry_equiv_pos_site_id
_symmetry_equiv_pos_as_xyz
1 x,y,z
2 x,-y,1/2+z
3 1/2+x,1/2+y,z
4 1/2+x,1/2-y,1/2+z
_cell_length_a 4.888(1)
_cell_length_b 23.378(5)
_cell_length_c 15.437(3)
_cell_angle_alpha 90
_cell_angle_beta 94.07(3)
_cell_angle_gamma 90
_cell_formula_units_Z 4
loop_
_atom_type_symbol
_atom_type_radius_bond
C 0.68
H 0.23
loop_
_atom_site_label
_atom_site_type_symbol
_atom_site_fract_x
_atom_site_fract_y
_atom_site_fract_z
C1 C -0.2040(8) 0.35643(17) 0.4801(3)
H1 H -0.27980 0.33330 0.43560
C2 C -0.2882(10) 0.3507(2) 0.5612(3)
H2 H -0.42040 0.32350 0.57190
C3 C -0.1776(11) 0.3855(2) 0.6297(3)
H3 H -0.23830 0.38120 0.68500
C4 C 0.0154(8) 0.4248(2) 0.6155(3)
H4 H 0.08650 0.44730 0.66140
C5 C 0.1123(7) 0.43276(16) 0.5318(2)
C6 C 0.3097(7) 0.47279(16) 0.5152(3)
H5 H 0.37990 0.49590 0.56050
C7 C 0.4073(6) 0.47989(15) 0.4336(2)
C8 C 0.6181(7) 0.52013(16) 0.4169(3)
H6 H 0.69370 0.54270 0.46210
C9 C 0.7089(9) 0.52596(18) 0.3370(3)
H7 H 0.84620 0.55230 0.32770
C10 C 0.5977(8) 0.49240(18) 0.2673(3)
H8 H 0.66230 0.49700 0.21250
C11 C 0.3949(7) 0.45297(16) 0.2791(2)
C12 C 0.2934(7) 0.44512(15) 0.3636(2)
C13 C 0.0929(7) 0.40529(15) 0.3798(2)
H9 H 0.01820 0.38300 0.33410
C14 C -0.0003(6) 0.39750(15) 0.4622(2)
C15 C 0.2833(8) 0.41926(17) 0.2078(2)
C16 C 0.1857(8) 0.39149(17) 0.1476(3)
C17 C 0.0795(8) 0.35709(15) 0.0765(2)
C18 C -0.1317(9) 0.31724(19) 0.0886(3)
H10 H -0.20840 0.31470 0.14190
C19 C -0.2219(12) 0.2828(2) 0.0220(4)
H11 H -0.36030 0.25660 0.03100
C20 C -0.1152(9) 0.28503(17) -0.0599(3)
C21 C -0.2007(12) 0.2482(2) -0.1301(4)
H12 H -0.33790 0.22140 -0.12270
C22 C -0.0870(14) 0.2513(3) -0.2069(4)
H13 H -0.14340 0.22620 -0.25140
C23 C 0.1143(14) 0.2917(2) -0.2200(3)
H14 H 0.19030 0.29380 -0.27340
C24 C 0.2009(13) 0.3283(2) -0.1554(3)
H15 H 0.33490 0.35530 -0.16500
C25 C 0.0886(8) 0.32550(16) -0.0733(3)
C26 C 0.1794(9) 0.36124(18) -0.0034(3)
H16 H 0.31250 0.38860 -0.01220
loop_
_geom_bond_atom_site_label_1
_geom_bond_atom_site_label_2
_geom_bond_distance
_geom_bond_site_symmetry_1
_geom_bond_site_symmetry_2
C1 H1 0.930 1_555 1_555
C2 C1 1.352 1_555 1_555
H2 C2 0.930 1_555 1_555
C3 C2 1.411 1_555 1_555
H3 C3 0.929 1_555 1_555
C4 C3 1.346 1_555 1_555
H4 C4 0.930 1_555 1_555
C5 C4 1.420 1_555 1_555
C6 C5 1.381 1_555 1_555
H5 C6 0.930 1_555 1_555
C7 C6 1.388 1_555 1_555
C8 C7 1.432 1_555 1_555
H6 C8 0.930 1_555 1_555
C9 C8 1.347 1_555 1_555
H7 C9 0.929 1_555 1_555
C10 C9 1.409 1_555 1_555
H8 C10 0.930 1_555 1_555
C11 C10 1.375 1_555 1_555
C12 C7 1.433 1_555 1_555
C13 C12 1.387 1_555 1_555
H9 C13 0.931 1_555 1_555
C14 C1 1.424 1_555 1_555
C15 C11 1.430 1_555 1_555
C16 C15 1.204 1_555 1_555
C17 C16 1.428 1_555 1_555
C18 C17 1.413 1_555 1_555
H10 C18 0.930 1_555 1_555
C19 C18 1.355 1_555 1_555
H11 C19 0.930 1_555 1_555
C20 C19 1.402 1_555 1_555
C21 C20 1.423 1_555 1_555
H12 C21 0.931 1_555 1_555
C22 C21 1.347 1_555 1_555
H13 C22 0.930 1_555 1_555
C23 C22 1.389 1_555 1_555
H14 C23 0.929 1_555 1_555
C24 C23 1.359 1_555 1_555
H15 C24 0.929 1_555 1_555
C25 C20 1.400 1_555 1_555
C26 C17 1.362 1_555 1_555
H16 C26 0.929 1_555 1_555
C5 C14 1.433 1_555 1_555
C11 C12 1.440 1_555 1_555
C13 C14 1.393 1_555 1_555
C24 C25 1.418 1_555 1_555
C25 C26 1.411 1_555 1_555
#END
