
#######################################################################
#
#                 Cambridge Crystallographic Data Centre
#                                CCDC
#
#######################################################################
#
# If this CIF has been generated from an entry in the Cambridge
# Structural Database, then it will include bibliographic, chemical,
# crystal, experimental, refinement or atomic coordinate data resulting
# from the CCDC's data processing and validation procedures.
#
#######################################################################

data_CSD_CIF_TULYAA
_audit_creation_date 1997-07-03
_audit_creation_method CSD-ConQuest-V1
_database_code_CSD TULYAA
_database_code_depnum_ccdc_archive 'CCDC 1276789'
_chemical_formula_sum 'C44 H36'
_chemical_formula_moiety
;
C44 H36
;
_journal_coden_Cambridge 4
_journal_volume 118
_journal_year 1996
_journal_page_first 9488
_journal_name_full 'J.Am.Chem.Soc. '
loop_
_publ_author_name
"Y.Tobe"
"S.Saiki"
"N.Utsumi"
"T.Kusumoto"
"H.Ishii"
"K.Kakiuchi"
"K.Kobiro"
"K.Naemura"
_chemical_name_systematic
;
1,4,5,8-Tetraphenyl(6)(9,10)anthracenophane
;
_chemical_melting_point 583.15
_cell_volume   1554.701
_exptl_crystal_colour 'yellow-orange'
_exptl_crystal_density_diffrn 1.206
_exptl_special_details
;
Melting point range 583.15-584.15K

;
_diffrn_ambient_temperature ?
_diffrn_special_details
;
The study was carried out at room temperature,in the range 283-303K

;
#These two values have been output from a single CSD field.
_refine_ls_R_factor_gt 0.029
_refine_ls_wR_factor_gt 0.029
_symmetry_cell_setting triclinic
_symmetry_space_group_name_H-M 'P -1'
_symmetry_Int_Tables_number 2
loop_
_symmetry_equiv_pos_site_id
_symmetry_equiv_pos_as_xyz
1 x,y,z
2 -x,-y,-z
_cell_length_a 11.439(2)
_cell_length_b 14.498(2)
_cell_length_c 9.668(2)
_cell_angle_alpha 97.37(2)
_cell_angle_beta 101.40(2)
_cell_angle_gamma 92.56(1)
_cell_formula_units_Z 2
loop_
_atom_type_symbol
_atom_type_radius_bond
C 0.68
H 0.23
loop_
_atom_site_label
_atom_site_type_symbol
_atom_site_fract_x
_atom_site_fract_y
_atom_site_fract_z
C1 C 1.2553(4) 0.3958(3) 0.1584(4)
C2 C 1.1762(4) 0.4510(3) 0.2486(5)
C3 C 1.0447(4) 0.4496(3) 0.1776(6)
C4 C 0.9505(4) 0.3936(3) 0.2286(5)
C5 C 0.8461(4) 0.3428(3) 0.1179(5)
C6 C 0.8468(3) 0.2360(3) 0.0890(4)
C7 C 0.9688(3) 0.2099(2) 0.0637(4)
C8 C 1.0560(3) 0.1927(2) 0.1821(4)
C9 C 1.0275(3) 0.1426(2) 0.2917(4)
C10 C 1.1076(4) 0.1475(3) 0.4169(4)
C11 C 1.2213(4) 0.1952(3) 0.4395(4)
C12 C 1.2568(3) 0.2366(2) 0.3352(4)
C13 C 1.1740(3) 0.2398(2) 0.2033(4)
C14 C 1.1963(3) 0.2989(2) 0.1053(4)
C15 C 1.1263(3) 0.2816(2) -0.0356(4)
C16 C 1.1634(3) 0.3177(2) -0.1541(4)
C17 C 1.0831(4) 0.3162(2) -0.2782(4)
C18 C 0.9671(4) 0.2745(3) -0.2972(4)
C19 C 0.9297(3) 0.2319(2) -0.1948(4)
C20 C 1.0077(3) 0.2361(2) -0.0575(4)
C21 C 0.9175(3) 0.0797(2) 0.2691(4)
C22 C 0.8512(4) 0.0777(3) 0.3742(4)
C23 C 0.7498(4) 0.0178(3) 0.3542(5)
C24 C 0.7136(4) -0.0425(3) 0.2301(5)
C25 C 0.7791(4) -0.0431(3) 0.1241(5)
C26 C 0.8793(3) 0.0181(3) 0.1438(4)
C27 C 1.3847(3) 0.2693(3) 0.3553(4)
C28 C 1.4380(4) 0.3382(3) 0.4650(5)
C29 C 1.5578(5) 0.3690(4) 0.4847(5)
C30 C 1.6264(5) 0.3288(4) 0.3952(6)
C31 C 1.5761(4) 0.2584(4) 0.2886(6)
C32 C 1.4557(4) 0.2290(3) 0.2662(5)
C33 C 1.2900(3) 0.3495(3) -0.1470(4)
C34 C 1.3206(4) 0.4308(3) -0.1966(4)
C35 C 1.4392(5) 0.4589(3) -0.1917(4)
C36 C 1.5291(4) 0.4052(3) -0.1389(4)
C37 C 1.5008(4) 0.3243(3) -0.0906(4)
C38 C 1.3823(4) 0.2963(3) -0.0934(4)
C39 C 0.8153(3) 0.1735(3) -0.2335(3)
C40 C 0.7100(4) 0.2085(3) -0.2956(4)
C41 C 0.6045(4) 0.1512(4) -0.3365(5)
C42 C 0.6030(4) 0.0600(4) -0.3161(5)
C43 C 0.7072(5) 0.0236(3) -0.2559(4)
C44 C 0.8119(4) 0.0802(3) -0.2162(4)
H1 H 1.335(3) 0.400(2) 0.216(3)
H2 H 1.257(3) 0.434(2) 0.080(3)
H3 H 1.180(4) 0.426(3) 0.351(4)
H4 H 1.216(3) 0.521(2) 0.274(4)
H5 H 1.028(3) 0.513(2) 0.192(4)
H6 H 1.035(3) 0.428(2) 0.074(4)
H7 H 0.917(3) 0.438(3) 0.311(4)
H8 H 0.993(3) 0.343(2) 0.290(3)
H9 H 0.768(3) 0.356(2) 0.150(3)
H10 H 0.862(4) 0.378(3) 0.034(4)
H11 H 0.823(3) 0.206(2) 0.171(3)
H12 H 0.778(3) 0.208(2) 0.010(3)
H13 H 1.090(2) 0.116(2) 0.490(3)
H14 H 1.276(3) 0.194(2) 0.526(3)
H15 H 1.112(3) 0.341(2) -0.359(3)
H16 H 0.916(2) 0.271(2) -0.387(3)
H17 H 0.880(3) 0.118(2) 0.465(3)
H18 H 0.706(3) 0.019(2) 0.432(4)
H19 H 0.635(3) -0.088(3) 0.210(4)
H20 H 0.758(3) -0.085(2) 0.029(4)
H21 H 0.926(3) 0.020(2) 0.069(3)
H22 H 1.391(3) 0.363(2) 0.529(3)
H23 H 1.589(3) 0.423(3) 0.563(4)
H24 H 1.715(4) 0.352(3) 0.407(4)
H25 H 1.620(3) 0.230(2) 0.223(4)
H26 H 1.420(3) 0.176(2) 0.187(3)
H27 H 1.255(3) 0.465(2) -0.242(3)
H28 H 1.459(3) 0.518(2) -0.229(3)
H29 H 1.620(3) 0.431(2) -0.136(4)
H30 H 1.561(3) 0.284(2) -0.053(4)
H31 H 1.361(3) 0.238(2) -0.059(3)
H32 H 0.715(3) 0.277(2) -0.312(3)
H33 H 0.537(3) 0.179(3) -0.373(4)
H34 H 0.529(3) 0.018(2) -0.343(3)
H35 H 0.709(3) -0.045(2) -0.239(4)
H36 H 0.885(3) 0.054(2) -0.176(3)
loop_
_geom_bond_atom_site_label_1
_geom_bond_atom_site_label_2
_geom_bond_distance
_geom_bond_site_symmetry_1
_geom_bond_site_symmetry_2
C1 C2 1.555 1_555 1_555
C2 C3 1.523 1_555 1_555
C3 C4 1.516 1_555 1_555
C4 C5 1.526 1_555 1_555
C5 C6 1.538 1_555 1_555
C6 C7 1.520 1_555 1_555
C7 C8 1.418 1_555 1_555
C8 C9 1.439 1_555 1_555
C9 C10 1.358 1_555 1_555
C10 C11 1.409 1_555 1_555
C11 C12 1.355 1_555 1_555
C12 C13 1.438 1_555 1_555
C13 C8 1.450 1_555 1_555
C14 C1 1.512 1_555 1_555
C15 C14 1.422 1_555 1_555
C16 C15 1.447 1_555 1_555
C17 C16 1.356 1_555 1_555
C18 C17 1.401 1_555 1_555
C19 C18 1.358 1_555 1_555
C20 C7 1.421 1_555 1_555
C21 C9 1.483 1_555 1_555
C22 C21 1.385 1_555 1_555
C23 C22 1.384 1_555 1_555
C24 C23 1.370 1_555 1_555
C25 C24 1.383 1_555 1_555
C26 C21 1.391 1_555 1_555
C27 C12 1.485 1_555 1_555
C28 C27 1.383 1_555 1_555
C29 C28 1.391 1_555 1_555
C30 C29 1.373 1_555 1_555
C31 C30 1.370 1_555 1_555
C32 C27 1.390 1_555 1_555
C33 C16 1.486 1_555 1_555
C34 C33 1.384 1_555 1_555
C35 C34 1.389 1_555 1_555
C36 C35 1.375 1_555 1_555
C37 C36 1.366 1_555 1_555
C38 C33 1.392 1_555 1_555
C39 C19 1.482 1_555 1_555
C40 C39 1.384 1_555 1_555
C41 C40 1.393 1_555 1_555
C42 C41 1.361 1_555 1_555
C43 C42 1.378 1_555 1_555
C44 C39 1.384 1_555 1_555
H1 C1 0.965 1_555 1_555
H2 C1 0.997 1_555 1_555
H3 C2 1.091 1_555 1_555
H4 C2 1.071 1_555 1_555
H5 C3 0.946 1_555 1_555
H6 C3 0.993 1_555 1_555
H7 C4 1.099 1_555 1_555
H8 C4 1.075 1_555 1_555
H9 C5 1.020 1_555 1_555
H10 C5 1.052 1_555 1_555
H11 C6 1.027 1_555 1_555
H12 C6 1.011 1_555 1_555
H13 C10 0.938 1_555 1_555
H14 C11 0.943 1_555 1_555
H15 C17 1.006 1_555 1_555
H16 C18 0.940 1_555 1_555
H17 C22 0.978 1_555 1_555
H18 C23 0.982 1_555 1_555
H19 C24 1.061 1_555 1_555
H20 C25 1.014 1_555 1_555
H21 C26 0.983 1_555 1_555
H22 C28 0.945 1_555 1_555
H23 C29 1.015 1_555 1_555
H24 C30 1.033 1_555 1_555
H25 C31 0.949 1_555 1_555
H26 C32 1.020 1_555 1_555
H27 C34 0.980 1_555 1_555
H28 C35 1.005 1_555 1_555
H29 C36 1.083 1_555 1_555
H30 C37 0.969 1_555 1_555
H31 C38 0.985 1_555 1_555
H32 C40 1.026 1_555 1_555
H33 C41 0.916 1_555 1_555
H34 C42 0.991 1_555 1_555
H35 C43 1.029 1_555 1_555
H36 C44 0.966 1_555 1_555
C13 C14 1.408 1_555 1_555
C15 C20 1.446 1_555 1_555
C19 C20 1.438 1_555 1_555
C25 C26 1.384 1_555 1_555
C31 C32 1.390 1_555 1_555
C37 C38 1.392 1_555 1_555
C43 C44 1.380 1_555 1_555
#END
