
#######################################################################
#
#                 Cambridge Crystallographic Data Centre
#                                CCDC
#
#######################################################################
#
# If this CIF has been generated from an entry in the Cambridge
# Structural Database, then it will include bibliographic, chemical,
# crystal, experimental, refinement or atomic coordinate data resulting
# from the CCDC's data processing and validation procedures.
#
#######################################################################

data_CSD_CIF_TUPPIF
_audit_creation_date 2015-09-30
_audit_creation_method CSD-ConQuest-V1
_database_code_CSD TUPPIF
_database_code_depnum_ccdc_archive 'CCDC 1428682'
_chemical_formula_sum 'C26 H20'
_chemical_formula_moiety
;
C26 H20
;
_journal_coden_Cambridge 1277
_journal_volume 117
_journal_year 2013
_journal_page_first 566
_journal_name_full 'J.Phys.Chem.A '
loop_
_publ_author_name
"Y.Sonoda"
"Y.Shimoi"
"M.Goto"
"N.Tohnai"
"M.Kanesato"
_chemical_name_systematic
;
1,1'-hexa-1,3,5-triene-1,6-diyldinaphthalene
;
_chemical_name_common
;
(E,E,E)-1,6-Di(n-naphthyl)-1,3,5-hexatriene
;
_cell_volume    897.363
_exptl_crystal_density_diffrn 1.23
_exptl_crystal_description 'rectangular'
_diffrn_ambient_temperature 183
#These two values have been output from a single CSD field.
_refine_ls_R_factor_gt 0.0828
_refine_ls_wR_factor_gt 0.0828
loop_
_citation_database_id_CSD
_citation_special_details
ROMDAZ "is a stereoisomer of this entry"
_symmetry_cell_setting triclinic
_symmetry_space_group_name_H-M 'P 1'
_symmetry_Int_Tables_number 1
loop_
_symmetry_equiv_pos_site_id
_symmetry_equiv_pos_as_xyz
1 x,y,z
_cell_length_a 6.950(5)
_cell_length_b 7.400(5)
_cell_length_c 17.571(12)
_cell_angle_alpha 92.119(12)
_cell_angle_beta 96.424(13)
_cell_angle_gamma 90.191(11)
_cell_formula_units_Z 2
loop_
_atom_type_symbol
_atom_type_radius_bond
C 0.68
H 0.23
loop_
_atom_site_label
_atom_site_type_symbol
_atom_site_fract_x
_atom_site_fract_y
_atom_site_fract_z
C1 C 0.4268(9) 0.3165(9) 0.5935(4)
H1 H 0.34030 0.40560 0.57250
C2 C 0.3994(10) 0.2564(9) 0.6613(4)
H2 H 0.48860 0.17060 0.68330
C3 C 0.2457(9) 0.3112(9) 0.7038(4)
H3 H 0.16680 0.40750 0.68440
C4 C 0.2022(11) 0.2394(10) 0.7686(5)
H4 H 0.28510 0.14670 0.78870
C5 C 0.0444(9) 0.2870(9) 0.8106(4)
H5 H -0.04220 0.37770 0.79130
C6 C 0.0122(9) 0.2104(9) 0.8760(4)
H6 H 0.10010 0.11920 0.89390
C7 C 0.5827(9) 0.2549(8) 0.5476(4)
C8 C 0.5475(8) 0.2293(8) 0.4661(4)
C9 C 0.3715(11) 0.269(1) 0.4228(5)
H7 H 0.26970 0.31850 0.44870
C10 C 0.3401(13) 0.2398(11) 0.3455(5)
H8 H 0.21950 0.27190 0.31870
C11 C 0.4832(14) 0.1634(13) 0.3054(5)
H9 H 0.46110 0.14120 0.25150
C12 C 0.6554(12) 0.1213(10) 0.3450(5)
H10 H 0.75360 0.06830 0.31820
C13 C 0.6927(10) 0.1541(8) 0.4254(4)
C14 C 0.8790(11) 0.1147(9) 0.4648(5)
H11 H 0.97860 0.06760 0.43700
C15 C 0.912(1) 0.1441(9) 0.5403(5)
H12 H 1.03640 0.11980 0.56600
C16 C 0.7649(9) 0.2109(8) 0.5827(5)
H13 H 0.79120 0.22630 0.63680
C17 C -0.1442(9) 0.2531(8) 0.9223(4)
C18 C -0.1188(10) 0.2350(8) 1.0036(4)
C19 C 0.0571(11) 0.1774(9) 1.0427(4)
H14 H 0.16170 0.14300 1.01490
C20 C 0.0762(11) 0.1716(11) 1.1207(5)
H15 H 0.19340 0.12730 1.14610
C21 C -0.0684(13) 0.2274(11) 1.1642(5)
H16 H -0.04700 0.22520 1.21850
C22 C -0.2391(13) 0.2849(11) 1.1300(5)
H17 H -0.33870 0.32210 1.15990
C23 C -0.2696(10) 0.2896(9) 1.0471(4)
C24 C -0.4454(10) 0.3516(9) 1.0086(5)
H18 H -0.54850 0.38570 1.03720
C25 C -0.4678(9) 0.3628(9) 0.9319(5)
H19 H -0.58740 0.40360 0.90710
C26 C -0.3201(10) 0.3160(9) 0.8884(5)
H20 H -0.33950 0.32710 0.83440
C27 C 0.9042(9) 0.6804(9) 0.6203(4)
H21 H 0.81610 0.58440 0.60440
C28 C 0.8761(9) 0.7732(9) 0.6855(4)
H22 H 0.96410 0.86790 0.70350
C29 C 0.7168(11) 0.7343(10) 0.7292(4)
H23 H 0.63240 0.63680 0.71140
C30 C 0.6808(10) 0.8252(10) 0.7923(4)
H24 H 0.76270 0.92450 0.81010
C31 C 0.5192(10) 0.7798(9) 0.8364(4)
H25 H 0.42630 0.69260 0.81480
C32 C 0.4979(9) 0.8534(9) 0.9035(4)
H26 H 0.58340 0.94890 0.92280
C33 C 1.0606(9) 0.7138(8) 0.5709(4)
C34 C 1.0261(9) 0.6826(8) 0.4906(4)
C35 C 0.8460(11) 0.6136(9) 0.4523(4)
H27 H 0.74490 0.58370 0.48190
C36 C 0.8164(12) 0.590(1) 0.3749(5)
H28 H 0.69720 0.54020 0.35140
C37 C 0.9612(13) 0.6388(11) 0.3289(5)
H29 H 0.93790 0.62770 0.27470
C38 C 1.1349(12) 0.7021(12) 0.3637(5)
H30 H 1.23460 0.73010 0.33310
C39 C 1.1697(10) 0.7270(9) 0.4437(5)
C40 C 1.3506(11) 0.7923(9) 0.4784(5)
H31 H 1.45030 0.81740 0.44740
C41 C 1.3840(11) 0.8200(9) 0.5558(5)
H32 H 1.50640 0.86520 0.57810
C42 C 1.2375(10) 0.7820(9) 0.6041(5)
H33 H 1.26090 0.80300 0.65810
C43 C 0.3475(9) 0.7962(8) 0.9512(4)
C44 C 0.3911(9) 0.7854(7) 1.0320(4)
C45 C 0.5773(10) 0.8288(9) 1.0734(4)
H34 H 0.67680 0.87390 1.04610
C46 C 0.6143(10) 0.8081(10) 1.1477(5)
H35 H 0.73830 0.83960 1.17320
C47 C 0.4683(13) 0.7384(12) 1.1902(5)
H36 H 0.49560 0.72340 1.24380
C48 C 0.2942(11) 0.6945(10) 1.1547(5)
H37 H 0.19900 0.64730 1.18350
C49 C 0.247(1) 0.7163(8) 1.0750(4)
C50 C 0.0598(9) 0.6694(9) 1.0374(5)
H38 H -0.03850 0.62610 1.06570
C51 C 0.0248(10) 0.6875(10) 0.9610(5)
H39 H -0.10000 0.65650 0.93620
C52 C 0.1652(11) 0.7504(9) 0.9167(4)
H40 H 0.13470 0.76120 0.86300
loop_
_geom_bond_atom_site_label_1
_geom_bond_atom_site_label_2
_geom_bond_distance
_geom_bond_site_symmetry_1
_geom_bond_site_symmetry_2
C1 H1 0.950 1_555 1_555
C2 C1 1.320 1_555 1_555
H2 C2 0.951 1_555 1_555
C3 C2 1.422 1_555 1_555
H3 C3 0.951 1_555 1_555
C4 C3 1.338 1_555 1_555
H4 C4 0.950 1_555 1_555
C5 C4 1.427 1_555 1_555
H5 C5 0.950 1_555 1_555
C6 C5 1.340 1_555 1_555
H6 C6 0.950 1_555 1_555
C7 C1 1.485 1_555 1_555
C8 C7 1.431 1_555 1_555
C9 C8 1.404 1_555 1_555
H7 C9 0.950 1_555 1_555
C10 C9 1.360 1_555 1_555
H8 C10 0.950 1_555 1_555
C11 C10 1.392 1_555 1_555
H9 C11 0.950 1_555 1_555
C12 C11 1.359 1_555 1_555
H10 C12 0.949 1_555 1_555
C13 C8 1.405 1_555 1_555
C14 C13 1.434 1_555 1_555
H11 C14 0.951 1_555 1_555
C15 C14 1.330 1_555 1_555
H12 C15 0.950 1_555 1_555
C16 C7 1.390 1_555 1_555
H13 C16 0.950 1_555 1_555
C17 C6 1.458 1_555 1_555
C18 C17 1.431 1_555 1_555
C19 C18 1.409 1_555 1_555
H14 C19 0.950 1_555 1_555
C20 C19 1.364 1_555 1_555
H15 C20 0.949 1_555 1_555
C21 C20 1.384 1_555 1_555
H16 C21 0.950 1_555 1_555
C22 C21 1.346 1_555 1_555
H17 C22 0.950 1_555 1_555
C23 C18 1.416 1_555 1_555
C24 C23 1.415 1_555 1_555
H18 C24 0.950 1_555 1_555
C25 C24 1.345 1_555 1_555
H19 C25 0.950 1_555 1_555
C26 C17 1.388 1_555 1_555
H20 C26 0.950 1_555 1_555
C27 H21 0.950 1_555 1_555
C28 C27 1.347 1_555 1_555
H22 C28 0.950 1_555 1_555
C29 C28 1.450 1_555 1_555
H23 C29 0.950 1_555 1_555
C30 C29 1.324 1_555 1_555
H24 C30 0.950 1_555 1_555
C31 C30 1.479 1_555 1_555
H25 C31 0.950 1_555 1_555
C32 C31 1.304 1_555 1_555
H26 C32 0.950 1_555 1_555
C33 C27 1.490 1_555 1_555
C34 C33 1.415 1_555 1_555
C35 C34 1.436 1_555 1_555
H27 C35 0.950 1_555 1_555
C36 C35 1.357 1_555 1_555
H28 C36 0.950 1_555 1_555
C37 C36 1.413 1_555 1_555
H29 C37 0.948 1_555 1_555
C38 C37 1.364 1_555 1_555
H30 C38 0.950 1_555 1_555
C39 C34 1.409 1_555 1_555
C40 C39 1.410 1_555 1_555
H31 C40 0.950 1_555 1_555
C41 C40 1.362 1_555 1_555
H32 C41 0.950 1_555 1_555
C42 C33 1.386 1_555 1_555
H33 C42 0.951 1_555 1_555
C43 C32 1.481 1_555 1_555
C44 C43 1.423 1_555 1_555
C45 C44 1.441 1_555 1_555
H34 C45 0.951 1_555 1_555
C46 C45 1.317 1_555 1_555
H35 C46 0.950 1_555 1_555
C47 C46 1.431 1_555 1_555
H36 C47 0.950 1_555 1_555
C48 C47 1.331 1_555 1_555
H37 C48 0.950 1_555 1_555
C49 C44 1.425 1_555 1_555
C50 C49 1.427 1_555 1_555
H38 C50 0.950 1_555 1_555
C51 C50 1.349 1_555 1_555
H39 C51 0.949 1_555 1_555
C52 C43 1.378 1_555 1_555
H40 C52 0.950 1_555 1_555
C12 C13 1.419 1_555 1_555
C15 C16 1.411 1_555 1_555
C22 C23 1.450 1_555 1_555
C25 C26 1.384 1_555 1_555
C38 C39 1.405 1_555 1_555
C41 C42 1.430 1_555 1_555
C48 C49 1.417 1_555 1_555
C51 C52 1.403 1_555 1_555
#END
