
#######################################################################
#
#                 Cambridge Crystallographic Data Centre
#                                CCDC
#
#######################################################################
#
# If this CIF has been generated from an entry in the Cambridge
# Structural Database, then it will include bibliographic, chemical,
# crystal, experimental, refinement or atomic coordinate data resulting
# from the CCDC's data processing and validation procedures.
#
#######################################################################

data_CSD_CIF_TUPPOL
_audit_creation_date 2015-09-30
_audit_creation_method CSD-ConQuest-V1
_database_code_CSD TUPPOL
_database_code_depnum_ccdc_archive 'CCDC 1428683'
_chemical_formula_sum 'C26 H20'
_chemical_formula_moiety
;
C26 H20
;
_journal_coden_Cambridge 1277
_journal_volume 117
_journal_year 2013
_journal_page_first 566
_journal_name_full 'J.Phys.Chem.A '
loop_
_publ_author_name
"Y.Sonoda"
"Y.Shimoi"
"M.Goto"
"N.Tohnai"
"M.Kanesato"
_chemical_name_systematic
;
2,2'-hexa-1,3,5-triene-1,6-diyldinaphthalene
;
_cell_volume    879.667
_exptl_crystal_density_diffrn 1.255
_exptl_crystal_description 'rectangular'
_diffrn_ambient_temperature 183
#These two values have been output from a single CSD field.
_refine_ls_R_factor_gt 0.0483
_refine_ls_wR_factor_gt 0.0483
_symmetry_cell_setting monoclinic
_symmetry_space_group_name_H-M 'P 21'
_symmetry_Int_Tables_number 4
loop_
_symmetry_equiv_pos_site_id
_symmetry_equiv_pos_as_xyz
1 x,y,z
2 -x,1/2+y,-z
_cell_length_a 6.5560(14)
_cell_length_b 7.2720(15)
_cell_length_c 18.452(4)
_cell_angle_alpha 90
_cell_angle_beta 90.519(4)
_cell_angle_gamma 90
_cell_formula_units_Z 2
loop_
_atom_type_symbol
_atom_type_radius_bond
C 0.68
H 0.23
loop_
_atom_site_label
_atom_site_type_symbol
_atom_site_fract_x
_atom_site_fract_y
_atom_site_fract_z
C1 C 0.0552(3) 0.7669(3) 0.38537(12)
H1 H 0.15650 0.68610 0.36720
C2 C 0.0907(3) 0.8391(4) 0.45063(11)
H2 H -0.01040 0.91660 0.47100
C3 C 0.2743(3) 0.8058(4) 0.49171(11)
H3 H 0.37190 0.72410 0.47170
C4 C 0.3177(3) 0.8817(4) 0.55629(12)
H4 H 0.22120 0.96510 0.57590
C5 C 0.4999(3) 0.8459(3) 0.59796(11)
H5 H 0.60470 0.77460 0.57650
C6 C 0.5289(3) 0.9082(3) 0.66555(12)
H6 H 0.42650 0.98690 0.68430
C7 C -0.1224(3) 0.7984(3) 0.33867(11)
C8 C -0.1144(3) 0.7474(3) 0.26687(12)
H7 H 0.00360 0.68610 0.24970
C9 C -0.2765(3) 0.7837(3) 0.21805(11)
C10 C -0.2667(4) 0.7393(3) 0.14349(12)
H8 H -0.14930 0.67930 0.12520
C11 C -0.4233(4) 0.7817(4) 0.09794(12)
H9 H -0.41390 0.75180 0.04800
C12 C -0.5999(4) 0.8696(4) 0.12395(13)
H10 H -0.70780 0.89950 0.09130
C13 C -0.6166(3) 0.9121(3) 0.19581(13)
H11 H -0.73700 0.96940 0.21310
C14 C -0.4546(3) 0.8707(3) 0.24458(11)
C15 C -0.4637(3) 0.9165(3) 0.31938(12)
H12 H -0.58380 0.97140 0.33810
C16 C -0.3037(3) 0.8829(3) 0.36438(12)
H13 H -0.31260 0.91630 0.41400
C17 C 0.7016(3) 0.8676(3) 0.71346(11)
C18 C 0.8851(3) 0.7842(3) 0.68888(11)
H14 H 0.89870 0.75620 0.63890
C19 C 1.0399(4) 0.7438(3) 0.73485(12)
H15 H 1.16080 0.68960 0.71650
C20 C 1.0254(3) 0.7808(3) 0.81010(12)
C21 C 1.1818(4) 0.7364(3) 0.85995(13)
H16 H 1.30340 0.68030 0.84320
C22 C 1.1605(4) 0.7731(4) 0.93201(13)
H17 H 1.26710 0.74230 0.96510
C23 C 0.9815(4) 0.8562(4) 0.95753(12)
H18 H 0.96830 0.88120 1.00780
C24 C 0.8271(4) 0.9014(4) 0.91116(11)
H19 H 0.70720 0.95790 0.92930
C25 C 0.8438(3) 0.8645(3) 0.83598(11)
C26 C 0.6855(3) 0.9081(3) 0.78627(12)
H20 H 0.56560 0.96660 0.80340
loop_
_geom_bond_atom_site_label_1
_geom_bond_atom_site_label_2
_geom_bond_distance
_geom_bond_site_symmetry_1
_geom_bond_site_symmetry_2
C1 H1 0.950 1_555 1_555
C2 C1 1.332 1_555 1_555
H2 C2 0.950 1_555 1_555
C3 C2 1.437 1_555 1_555
H3 C3 0.950 1_555 1_555
C4 C3 1.341 1_555 1_555
H4 C4 0.950 1_555 1_555
C5 C4 1.438 1_555 1_555
H5 C5 0.950 1_555 1_555
C6 C5 1.339 1_555 1_555
H6 C6 0.950 1_555 1_555
C7 C1 1.460 1_555 1_555
C8 C7 1.377 1_555 1_555
H7 C8 0.950 1_555 1_555
C9 C8 1.412 1_555 1_555
C10 C9 1.415 1_555 1_555
H8 C10 0.949 1_555 1_555
C11 C10 1.356 1_555 1_555
H9 C11 0.949 1_555 1_555
C12 C11 1.410 1_555 1_555
H10 C12 0.950 1_555 1_555
C13 C12 1.367 1_555 1_555
H11 C13 0.950 1_555 1_555
C14 C9 1.419 1_555 1_555
C15 C14 1.422 1_555 1_555
H12 C15 0.951 1_555 1_555
C16 C7 1.423 1_555 1_555
H13 C16 0.950 1_555 1_555
C17 C6 1.460 1_555 1_555
C18 C17 1.425 1_555 1_555
H14 C18 0.949 1_555 1_555
C19 C18 1.349 1_555 1_555
H15 C19 0.950 1_555 1_555
C20 C19 1.418 1_555 1_555
C21 C20 1.409 1_555 1_555
H16 C21 0.950 1_555 1_555
C22 C21 1.365 1_555 1_555
H17 C22 0.951 1_555 1_555
C23 C22 1.405 1_555 1_555
H18 C23 0.950 1_555 1_555
C24 C23 1.360 1_555 1_555
H19 C24 0.951 1_555 1_555
C25 C20 1.423 1_555 1_555
C26 C17 1.380 1_555 1_555
H20 C26 0.950 1_555 1_555
C13 C14 1.418 1_555 1_555
C15 C16 1.354 1_555 1_555
C24 C25 1.418 1_555 1_555
C25 C26 1.415 1_555 1_555
#END
