
#######################################################################
#
#                 Cambridge Crystallographic Data Centre
#                                CCDC
#
#######################################################################
#
# If this CIF has been generated from an entry in the Cambridge
# Structural Database, then it will include bibliographic, chemical,
# crystal, experimental, refinement or atomic coordinate data resulting
# from the CCDC's data processing and validation procedures.
#
#######################################################################

data_CSD_CIF_UCEVUU
_audit_creation_date 2006-06-27
_audit_creation_method CSD-ConQuest-V1
_database_code_CSD UCEVUU
_database_code_depnum_ccdc_archive 'CCDC 603460'
_chemical_formula_sum 'C24 H16'
_chemical_formula_moiety
;
C24 H16
;
_journal_coden_Cambridge 35
_journal_volume 71
_journal_year 2006
_journal_page_first 1055
_journal_name_full 'J.Org.Chem. '
loop_
_publ_author_name
"A.Natarajan"
"J.T.Mague"
"K.Venkatesan"
"T.Arai"
"V.Ramamurthy"
_chemical_name_systematic
;
cis-8-Styrylfluoroanthrene
;
_chemical_melting_point 373.15
_cell_volume   1575.358
_exptl_crystal_colour 'colorless'
_exptl_crystal_density_diffrn 1.283
_exptl_special_details
;
Melting point range 373.15-374.15K
undergoes photoisomerization to trans isomer
;
_exptl_crystal_description 'column'
_diffrn_ambient_temperature 100
#These two values have been output from a single CSD field.
_refine_ls_R_factor_gt 0.0367
_refine_ls_wR_factor_gt 0.0367
_symmetry_cell_setting orthorhombic
_symmetry_space_group_name_H-M 'P n a 21'
_symmetry_Int_Tables_number 33
loop_
_symmetry_equiv_pos_site_id
_symmetry_equiv_pos_as_xyz
1 x,y,z
2 -x,-y,1/2+z
3 1/2+x,1/2-y,z
4 1/2-x,1/2+y,1/2+z
_cell_length_a 18.873(2)
_cell_length_b 12.336(1)
_cell_length_c 6.7665(7)
_cell_angle_alpha 90
_cell_angle_beta 90
_cell_angle_gamma 90
_cell_formula_units_Z 4
loop_
_atom_type_symbol
_atom_type_radius_bond
C 0.68
H 0.23
loop_
_atom_site_label
_atom_site_type_symbol
_atom_site_fract_x
_atom_site_fract_y
_atom_site_fract_z
C1 C 0.65538(7) 0.49884(10) -0.0910(2)
C2 C 0.69011(7) 0.42334(11) 0.0292(2)
H1 H 0.73500 0.39580 -0.00980
C3 C 0.65968(8) 0.38830(11) 0.2045(2)
H2 H 0.68370 0.33680 0.28460
C4 C 0.59417(8) 0.42838(12) 0.2634(2)
H3 H 0.57330 0.40450 0.38350
C5 C 0.55944(8) 0.50332(11) 0.1459(2)
H4 H 0.51480 0.53110 0.18590
C6 C 0.58961(7) 0.53788(11) -0.0296(2)
H5 H 0.56510 0.58900 -0.10950
C7 C 0.68646(7) 0.53354(12) -0.2815(2)
H6 H 0.65680 0.52710 -0.39440
C8 C 0.75153(8) 0.57292(11) -0.3131(2)
H7 H 0.76470 0.58220 -0.44760
C9 C 0.80542(7) 0.60371(10) -0.1656(2)
C10 C 0.87757(7) 0.59469(10) -0.21494(19)
H8 H 0.89120 0.56540 -0.33910
C11 C 0.92848(7) 0.62849(10) -0.0823(2)
C12 C 0.90890(7) 0.67632(10) 0.10154(19)
C13 C 0.83771(7) 0.68598(11) 0.1504(2)
H9 H 0.82390 0.71770 0.27240
C14 C 0.78682(7) 0.64856(10) 0.0182(2)
H10 H 0.73820 0.65350 0.05310
C15 C 1.00671(7) 0.62508(10) -0.0917(2)
C16 C 1.05561(7) 0.58554(11) -0.2227(2)
H11 H 1.04100 0.55200 -0.34230
C17 C 1.12878(7) 0.59576(11) -0.1760(2)
H12 H 1.16280 0.56830 -0.26640
C18 C 1.15199(7) 0.64404(11) -0.0044(2)
H13 H 1.20140 0.64990 0.02090
C19 C 1.10262(7) 0.68508(10) 0.1351(2)
C20 C 1.11659(8) 0.73542(11) 0.3205(2)
H14 H 1.16410 0.74610 0.36230
C21 C 1.06175(8) 0.76845(12) 0.4387(2)
H15 H 1.07260 0.80260 0.56080
C22 C 0.98936(7) 0.75382(11) 0.3867(2)
H16 H 0.95250 0.77640 0.47310
C23 C 0.97411(7) 0.70607(10) 0.2077(2)
C24 C 1.03107(7) 0.67336(10) 0.0860(2)
loop_
_geom_bond_atom_site_label_1
_geom_bond_atom_site_label_2
_geom_bond_distance
_geom_bond_site_symmetry_1
_geom_bond_site_symmetry_2
C1 C2 1.399 1_555 1_555
C2 H1 0.950 1_555 1_555
C3 C2 1.387 1_555 1_555
H2 C3 0.950 1_555 1_555
C4 C3 1.390 1_555 1_555
H3 C4 0.950 1_555 1_555
C5 C4 1.384 1_555 1_555
H4 C5 0.949 1_555 1_555
C6 C1 1.395 1_555 1_555
H5 C6 0.951 1_555 1_555
C7 C1 1.479 1_555 1_555
H6 C7 0.950 1_555 1_555
C8 C7 1.338 1_555 1_555
H7 C8 0.950 1_555 1_555
C9 C8 1.475 1_555 1_555
C10 C9 1.406 1_555 1_555
H8 C10 0.950 1_555 1_555
C11 C10 1.379 1_555 1_555
C12 C11 1.426 1_555 1_555
C13 C12 1.389 1_555 1_555
H9 C13 0.950 1_555 1_555
C14 C9 1.406 1_555 1_555
H10 C14 0.949 1_555 1_555
C15 C11 1.478 1_555 1_555
C16 C15 1.369 1_555 1_555
H11 C16 0.950 1_555 1_555
C17 C16 1.422 1_555 1_555
H12 C17 0.949 1_555 1_555
C18 C17 1.377 1_555 1_555
H13 C18 0.951 1_555 1_555
C19 C18 1.420 1_555 1_555
C20 C19 1.424 1_555 1_555
H14 C20 0.949 1_555 1_555
C21 C20 1.370 1_555 1_555
H15 C21 0.950 1_555 1_555
C22 C21 1.422 1_555 1_555
H16 C22 0.950 1_555 1_555
C23 C12 1.472 1_555 1_555
C24 C15 1.418 1_555 1_555
C5 C6 1.384 1_555 1_555
C13 C14 1.391 1_555 1_555
C19 C24 1.398 1_555 1_555
C22 C23 1.377 1_555 1_555
C23 C24 1.413 1_555 1_555
#END
