
#######################################################################
#
#                 Cambridge Crystallographic Data Centre
#                                CCDC
#
#######################################################################
#
# If this CIF has been generated from an entry in the Cambridge
# Structural Database, then it will include bibliographic, chemical,
# crystal, experimental, refinement or atomic coordinate data resulting
# from the CCDC's data processing and validation procedures.
#
#######################################################################

data_CSD_CIF_UCIJUO
_audit_creation_date 2016-12-20
_audit_creation_method CSD-ConQuest-V1
_database_code_CSD UCIJUO
_database_code_depnum_ccdc_archive 'CCDC 1487740'
_chemical_formula_sum 'C47 H36'
_chemical_formula_moiety
;
C47 H36
;
_journal_coden_Cambridge 35
_journal_volume 81
_journal_year 2016
_journal_page_first 12303
_journal_name_full 'J.Org.Chem. '
loop_
_publ_author_name
"P.Ravat"
"P.Ribar"
"M.Rickhaus"
"D.Haussinger"
"M.Neuburger"
"M.Juricek"
_chemical_name_systematic
;
5-t-butyl-1,3,7-triphenyl-4H-benzo[gh]pentahelicene
;
_cell_volume   6551.505
_exptl_crystal_colour 'colorless'
_exptl_crystal_density_diffrn 1.218
_exptl_crystal_description 'plate'
_diffrn_ambient_temperature 123
#These two values have been output from a single CSD field.
_refine_ls_R_factor_gt 0.035
_refine_ls_wR_factor_gt 0.035
_symmetry_cell_setting monoclinic
_symmetry_space_group_name_H-M 'C 2/c'
_symmetry_Int_Tables_number 15
loop_
_symmetry_equiv_pos_site_id
_symmetry_equiv_pos_as_xyz
1 x,y,z
2 1/2+x,1/2+y,z
3 -x,y,1/2-z
4 1/2-x,1/2+y,1/2-z
5 -x,-y,-z
6 -1/2-x,-1/2-y,-z
7 x,-y,-1/2+z
8 -1/2+x,-1/2-y,-1/2+z
_cell_length_a 26.5471(7)
_cell_length_b 10.0841(3)
_cell_length_c 27.9848(8)
_cell_angle_alpha 90
_cell_angle_beta 119.013(2)
_cell_angle_gamma 90
_cell_formula_units_Z 8
loop_
_atom_type_symbol
_atom_type_radius_bond
C 0.68
H 0.23
loop_
_atom_site_label
_atom_site_type_symbol
_atom_site_fract_x
_atom_site_fract_y
_atom_site_fract_z
C1 C 0.37610(4) 0.23712(9) 0.38736(4)
C2 C 0.31959(4) 0.18216(9) 0.37235(4)
C3 C 0.27668(4) 0.19545(9) 0.31725(4)
C4 C 0.21692(4) 0.18711(9) 0.30224(4)
C5 C 0.17332(4) 0.21701(10) 0.24420(4)
C6 C 0.14676(5) 0.11659(11) 0.20613(4)
C7 C 0.10976(5) 0.14620(12) 0.15146(4)
C8 C 0.09874(5) 0.27607(12) 0.13429(4)
C9 C 0.12426(6) 0.37706(12) 0.17176(5)
C10 C 0.16129(5) 0.34768(11) 0.22636(4)
C11 C 0.20132(4) 0.16333(10) 0.34182(4)
C12 C 0.24460(4) 0.12652(9) 0.39571(4)
C13 C 0.30338(4) 0.12434(9) 0.40995(4)
C14 C 0.34336(4) 0.05395(10) 0.45950(4)
C15 C 0.32486(4) 0.01353(10) 0.49718(4)
C16 C 0.26620(4) 0.03644(10) 0.48510(4)
C17 C 0.22731(4) 0.09112(10) 0.43573(4)
C18 C 0.16825(4) 0.12111(10) 0.42325(4)
C19 C 0.12655(4) 0.16073(10) 0.37432(4)
C20 C 0.13845(4) 0.17056(12) 0.32704(4)
C21 C 0.06514(4) 0.18987(12) 0.36291(4)
C22 C 0.02621(5) 0.07540(17) 0.32834(5)
C23 C 0.06151(5) 0.19944(13) 0.41575(4)
C24 C 0.04351(6) 0.32149(15) 0.33215(5)
C25 C 0.24716(4) -0.01004(10) 0.52469(4)
C26 C 0.20904(5) -0.11648(11) 0.51123(4)
C27 C 0.19101(6) -0.16077(12) 0.54753(5)
C28 C 0.21108(6) -0.09939(13) 0.59767(5)
C29 C 0.24873(6) 0.00577(12) 0.61143(5)
C30 C 0.26706(5) 0.04996(11) 0.57529(4)
C31 C 0.36431(5) -0.05430(11) 0.54524(4)
C32 C 0.41867(5) -0.08613(11) 0.55494(4)
C33 C 0.43541(5) -0.05654(11) 0.51564(4)
C34 C 0.39836(4) 0.01107(10) 0.46914(4)
C35 C 0.29405(4) 0.21656(10) 0.27672(4)
C36 C 0.35013(4) 0.23691(10) 0.28964(4)
C37 C 0.39232(4) 0.25957(9) 0.34646(4)
C38 C 0.44729(4) 0.31462(10) 0.36216(4)
C39 C 0.48357(5) 0.35194(10) 0.41519(4)
C40 C 0.46592(5) 0.33872(10) 0.45479(4)
C41 C 0.41332(4) 0.28297(10) 0.44095(4)
C42 C 0.36500(5) 0.24365(10) 0.24489(4)
C43 C 0.33055(5) 0.31701(11) 0.19780(5)
C44 C 0.34279(6) 0.32170(12) 0.15490(5)
C45 C 0.38967(6) 0.25449(14) 0.15860(5)
C46 C 0.42305(6) 0.17840(15) 0.20383(6)
C47 C 0.41108(5) 0.17254(13) 0.24714(5)
H1 H 0.15570 0.02530 0.21830
H2 H 0.09270 0.07480 0.12560
H3 H 0.07310 0.29480 0.09600
H4 H 0.11610 0.46970 0.16010
H5 H 0.17850 0.41870 0.25240
H6 H 0.15990 0.11370 0.45350
H7 H 0.12210 0.25410 0.30720
H8 H 0.11740 0.09730 0.30040
H9 H -0.01390 0.09590 0.31920
H10 H 0.03920 -0.01220 0.35090
H11 H 0.02790 0.06510 0.29400
H12 H 0.02170 0.22020 0.40680
H13 H 0.08760 0.27130 0.43990
H14 H 0.07280 0.11450 0.43590
H15 H 0.00470 0.33850 0.32770
H16 H 0.06950 0.39410 0.35340
H17 H 0.04180 0.31860 0.29690
H18 H 0.19500 -0.16080 0.47510
H19 H 0.16370 -0.23520 0.53800
H20 H 0.19850 -0.13000 0.62350
H21 H 0.26240 0.05010 0.64600
H22 H 0.29390 0.12420 0.58560
H23 H 0.35220 -0.07900 0.57190
H24 H 0.44570 -0.13120 0.58880
H25 H 0.47300 -0.08490 0.52130
H26 H 0.41040 0.02870 0.44180
H27 H 0.26480 0.21270 0.23820
H28 H 0.45790 0.32820 0.33400
H29 H 0.52170 0.39000 0.42550
H30 H 0.49030 0.36830 0.49160
H31 H 0.40150 0.27550 0.46890
H32 H 0.29670 0.36740 0.19480
H33 H 0.31750 0.37330 0.12110
H34 H 0.39920 0.25940 0.12870
H35 H 0.45510 0.12790 0.20660
H36 H 0.43430 0.11920 0.27940
loop_
_geom_bond_atom_site_label_1
_geom_bond_atom_site_label_2
_geom_bond_distance
_geom_bond_site_symmetry_1
_geom_bond_site_symmetry_2
C1 C2 1.457 1_555 1_555
C2 C3 1.410 1_555 1_555
C3 C4 1.433 1_555 1_555
C4 C5 1.498 1_555 1_555
C5 C6 1.389 1_555 1_555
C6 C7 1.392 1_555 1_555
C7 C8 1.377 1_555 1_555
C8 C9 1.381 1_555 1_555
C9 C10 1.390 1_555 1_555
C10 C5 1.390 1_555 1_555
C11 C4 1.379 1_555 1_555
C12 C11 1.432 1_555 1_555
C13 C2 1.439 1_555 1_555
C14 C13 1.458 1_555 1_555
C15 C14 1.422 1_555 1_555
C16 C15 1.443 1_555 1_555
C17 C12 1.446 1_555 1_555
C18 C17 1.463 1_555 1_555
C19 C18 1.338 1_555 1_555
C20 C11 1.514 1_555 1_555
C21 C19 1.530 1_555 1_555
C22 C21 1.538 1_555 1_555
C23 C21 1.531 1_555 1_555
C24 C21 1.534 1_555 1_555
C25 C16 1.499 1_555 1_555
C26 C25 1.396 1_555 1_555
C27 C26 1.390 1_555 1_555
C28 C27 1.382 1_555 1_555
C29 C28 1.378 1_555 1_555
C30 C25 1.387 1_555 1_555
C31 C15 1.417 1_555 1_555
C32 C31 1.371 1_555 1_555
C33 C32 1.404 1_555 1_555
C34 C14 1.418 1_555 1_555
C35 C3 1.432 1_555 1_555
C36 C35 1.366 1_555 1_555
C37 C1 1.423 1_555 1_555
C38 C37 1.417 1_555 1_555
C39 C38 1.373 1_555 1_555
C40 C39 1.403 1_555 1_555
C41 C1 1.415 1_555 1_555
C42 C36 1.486 1_555 1_555
C43 C42 1.397 1_555 1_555
C44 C43 1.388 1_555 1_555
C45 C44 1.376 1_555 1_555
C46 C45 1.374 1_555 1_555
C47 C42 1.393 1_555 1_555
H1 C6 0.970 1_555 1_555
H2 C7 0.964 1_555 1_555
H3 C8 0.969 1_555 1_555
H4 C9 0.979 1_555 1_555
H5 C10 0.964 1_555 1_555
H6 C18 0.976 1_555 1_555
H7 C20 0.986 1_555 1_555
H8 C20 1.005 1_555 1_555
H9 C22 0.989 1_555 1_555
H10 C22 1.042 1_555 1_555
H11 C22 0.989 1_555 1_555
H12 C23 0.983 1_555 1_555
H13 C23 1.004 1_555 1_555
H14 C23 0.989 1_555 1_555
H15 C24 0.991 1_555 1_555
H16 C24 0.984 1_555 1_555
H17 C24 0.966 1_555 1_555
H18 C26 0.998 1_555 1_555
H19 C27 0.986 1_555 1_555
H20 C28 0.982 1_555 1_555
H21 C29 0.963 1_555 1_555
H22 C30 0.976 1_555 1_555
H23 C31 0.977 1_555 1_555
H24 C32 0.980 1_555 1_555
H25 C33 0.974 1_555 1_555
H26 C34 0.978 1_555 1_555
H27 C35 0.977 1_555 1_555
H28 C38 0.967 1_555 1_555
H29 C39 0.986 1_555 1_555
H30 C40 0.960 1_555 1_555
H31 C41 0.977 1_555 1_555
H32 C43 1.000 1_555 1_555
H33 C44 1.000 1_555 1_555
H34 C45 0.986 1_555 1_555
H35 C46 0.962 1_555 1_555
H36 C47 0.972 1_555 1_555
C12 C13 1.411 1_555 1_555
C16 C17 1.377 1_555 1_555
C19 C20 1.505 1_555 1_555
C29 C30 1.391 1_555 1_555
C33 C34 1.373 1_555 1_555
C36 C37 1.452 1_555 1_555
C40 C41 1.375 1_555 1_555
C46 C47 1.395 1_555 1_555
#END
