
#######################################################################
#
#                 Cambridge Crystallographic Data Centre
#                                CCDC
#
#######################################################################
#
# If this CIF has been generated from an entry in the Cambridge
# Structural Database, then it will include bibliographic, chemical,
# crystal, experimental, refinement or atomic coordinate data resulting
# from the CCDC's data processing and validation procedures.
#
#######################################################################

data_CSD_CIF_UCOQOT
_audit_creation_date 2006-06-27
_audit_creation_method CSD-ConQuest-V1
_database_code_CSD UCOQOT
_database_code_depnum_ccdc_archive 'CCDC 606165'
_chemical_formula_sum 'C30 H34'
_chemical_formula_moiety
;
C30 H34
;
_journal_coden_Cambridge 1336
_journal_volume 8
_journal_year 2006
_journal_page_first 785
_journal_name_full 'Org.Lett. '
loop_
_publ_author_name
"Weibin Cui"
"Xiaojie Zhang"
"Xiaoxia Jiang"
"Hongkun Tian"
"Donghang Yan"
"Yanhou Geng"
"Xiabin Jing"
"Fosong Wang"
_chemical_name_systematic
;
9,10-bis(oct-1-ynyl)anthracene
;
_cell_volume    591.684
_exptl_crystal_colour 'yellow'
_exptl_crystal_density_diffrn 1.107
_diffrn_ambient_temperature 293
#These two values have been output from a single CSD field.
_refine_ls_R_factor_gt 0.0503
_refine_ls_wR_factor_gt 0.0503
_symmetry_cell_setting triclinic
_symmetry_space_group_name_H-M 'P -1'
_symmetry_Int_Tables_number 2
loop_
_symmetry_equiv_pos_site_id
_symmetry_equiv_pos_as_xyz
1 x,y,z
2 -x,-y,-z
_cell_length_a 7.7874(7)
_cell_length_b 9.2435(9)
_cell_length_c 9.3529(9)
_cell_angle_alpha 108.870(2)
_cell_angle_beta 107.825(2)
_cell_angle_gamma 95.669(2)
_cell_formula_units_Z 1
loop_
_atom_type_symbol
_atom_type_radius_bond
C 0.68
H 0.23
loop_
_atom_site_label
_atom_site_type_symbol
_atom_site_fract_x
_atom_site_fract_y
_atom_site_fract_z
C1 C 0.43686(18) -0.15468(15) 0.48782(16)
C2 C 0.3756(2) -0.30768(16) 0.48174(18)
H1 H 0.33290 -0.39170 0.38290
C3 C 0.3781(2) -0.33323(18) 0.61687(19)
H2 H 0.33730 -0.43410 0.60990
C4 C 0.4426(2) -0.20723(18) 0.76867(19)
H3 H 0.44350 -0.22550 0.86100
C5 C 0.5030(2) -0.06025(17) 0.77978(17)
H4 H 0.54590 0.02120 0.88050
C6 C 0.50236(18) -0.02721(15) 0.64125(16)
C7 C 0.43552(18) -0.12619(15) 0.34791(15)
C8 C 0.3697(2) -0.25406(15) 0.19410(16)
C9 C 0.3134(2) -0.36227(15) 0.06795(16)
C10 C 0.2416(2) -0.50217(16) -0.08231(17)
H5 H 0.13760 -0.48510 -0.15940
H6 H 0.33700 -0.51760 -0.12890
C11 C 0.1798(2) -0.64933(15) -0.05508(16)
H7 H 0.08280 -0.63440 -0.01040
H8 H 0.28320 -0.66490 0.02380
C12 C 0.1090(2) -0.79489(16) -0.20848(16)
H9 H 0.20550 -0.80860 -0.25390
H10 H 0.00480 -0.77960 -0.28670
C13 C 0.0495(2) -0.94287(16) -0.18285(18)
H11 H -0.04880 -0.92980 -0.13950
H12 H 0.15300 -0.95670 -0.10270
C14 C -0.0175(2) -1.08944(17) -0.3348(2)
H13 H 0.07910 -1.10090 -0.38020
H14 H -0.12390 -1.07730 -0.41370
C15 C -0.0705(3) -1.2369(2) -0.3065(3)
H15 H -0.17240 -1.22980 -0.26910
H16 H -0.10580 -1.32590 -0.40590
H17 H 0.03310 -1.24850 -0.22650
C1A C 0.56314(18) 0.15468(15) 0.51218(16)
C2A C 0.6244(2) 0.30768(16) 0.51826(18)
H1A H 0.66710 0.39170 0.61710
C3A C 0.6219(2) 0.33323(18) 0.38313(19)
H2A H 0.66270 0.43410 0.39010
C4A C 0.5574(2) 0.20723(18) 0.23133(19)
H3A H 0.55650 0.22550 0.13900
C5A C 0.4970(2) 0.06025(17) 0.22022(17)
H4A H 0.45410 -0.02120 0.11950
C6A C 0.49764(18) 0.02721(15) 0.35875(16)
C7A C 0.56448(18) 0.12619(15) 0.65209(15)
C8A C 0.6303(2) 0.25406(15) 0.80590(16)
C9A C 0.6866(2) 0.36227(15) 0.93205(16)
C10A C 0.7584(2) 0.50217(16) 1.08231(17)
H5A H 0.86240 0.48510 1.15940
H6A H 0.66300 0.51760 1.12890
C11A C 0.8202(2) 0.64933(15) 1.05508(16)
H7A H 0.91720 0.63440 1.01040
H8A H 0.71680 0.66490 0.97620
C12A C 0.8910(2) 0.79489(16) 1.20848(16)
H9A H 0.79450 0.80860 1.25390
H10A H 0.99520 0.77960 1.28670
C13A C 0.9505(2) 0.94287(16) 1.18285(18)
H11A H 1.04880 0.92980 1.13950
H12A H 0.84700 0.95670 1.10270
C14A C 1.0175(2) 1.08944(17) 1.3348(2)
H13A H 0.92090 1.10090 1.38020
H14A H 1.12390 1.07730 1.41370
C15A C 1.0705(3) 1.2369(2) 1.3065(3)
H15A H 1.17240 1.22980 1.26910
H16A H 1.10580 1.32590 1.40590
H17A H 0.96690 1.24850 1.22650
loop_
_geom_bond_atom_site_label_1
_geom_bond_atom_site_label_2
_geom_bond_distance
_geom_bond_site_symmetry_1
_geom_bond_site_symmetry_2
C1 C2 1.424 1_555 1_555
C2 H1 0.930 1_555 1_555
C3 C2 1.354 1_555 1_555
H2 C3 0.930 1_555 1_555
C4 C3 1.415 1_555 1_555
H3 C4 0.930 1_555 1_555
C5 C4 1.353 1_555 1_555
H4 C5 0.930 1_555 1_555
C6 C1 1.431 1_555 1_555
C7 C1 1.413 1_555 1_555
C8 C7 1.435 1_555 1_555
C9 C8 1.191 1_555 1_555
C10 C9 1.470 1_555 1_555
H5 C10 0.971 1_555 1_555
H6 C10 0.970 1_555 1_555
C11 C10 1.522 1_555 1_555
H7 C11 0.970 1_555 1_555
H8 C11 0.970 1_555 1_555
C12 C11 1.514 1_555 1_555
H9 C12 0.970 1_555 1_555
H10 C12 0.969 1_555 1_555
C13 C12 1.516 1_555 1_555
H11 C13 0.970 1_555 1_555
H12 C13 0.970 1_555 1_555
C14 C13 1.513 1_555 1_555
H13 C14 0.969 1_555 1_555
H14 C14 0.970 1_555 1_555
C15 C14 1.512 1_555 1_555
H15 C15 0.960 1_555 1_555
H16 C15 0.960 1_555 1_555
H17 C15 0.960 1_555 1_555
C1A C2A 1.424 1_555 1_555
C2A H1A 0.930 1_555 1_555
C3A C2A 1.354 1_555 1_555
H2A C3A 0.930 1_555 1_555
C4A C3A 1.415 1_555 1_555
H3A C4A 0.930 1_555 1_555
C5A C4A 1.353 1_555 1_555
H4A C5A 0.930 1_555 1_555
C6A C7 1.413 1_555 1_555
C7A C6 1.413 1_555 1_555
C8A C7A 1.435 1_555 1_555
C9A C8A 1.191 1_555 1_555
C10A C9A 1.470 1_555 1_555
H5A C10A 0.971 1_555 1_555
H6A C10A 0.970 1_555 1_555
C11A C10A 1.522 1_555 1_555
H7A C11A 0.970 1_555 1_555
H8A C11A 0.970 1_555 1_555
C12A C11A 1.514 1_555 1_555
H9A C12A 0.970 1_555 1_555
H10A C12A 0.969 1_555 1_555
C13A C12A 1.516 1_555 1_555
H11A C13A 0.970 1_555 1_555
H12A C13A 0.970 1_555 1_555
C14A C13A 1.513 1_555 1_555
H13A C14A 0.969 1_555 1_555
H14A C14A 0.970 1_555 1_555
C15A C14A 1.512 1_555 1_555
H15A C15A 0.960 1_555 1_555
H16A C15A 0.960 1_555 1_555
H17A C15A 0.960 1_555 1_555
C5 C6 1.423 1_555 1_555
C1A C6A 1.431 1_555 1_555
C1A C7A 1.413 1_555 1_555
C5A C6A 1.423 1_555 1_555
#END
