
#######################################################################
#
#                 Cambridge Crystallographic Data Centre
#                                CCDC
#
#######################################################################
#
# If this CIF has been generated from an entry in the Cambridge
# Structural Database, then it will include bibliographic, chemical,
# crystal, experimental, refinement or atomic coordinate data resulting
# from the CCDC's data processing and validation procedures.
#
#######################################################################

data_CSD_CIF_UCUYAV
_audit_creation_date 2017-01-03
_audit_creation_method CSD-ConQuest-V1
_database_code_CSD UCUYAV
_database_code_depnum_ccdc_archive 'CCDC 1523904'
_chemical_formula_sum 'C34 H34'
_chemical_formula_moiety
;
C34 H34
;
_journal_coden_Cambridge 1336
_journal_volume 18
_journal_year 2016
_journal_page_first 6444
_journal_name_full 'Org.Lett. '
loop_
_publ_author_name
"Jen-Yi Li"
"Hung-Ing Chang"
"Chieh-Ning Feng"
"Yao-Ting Wu"
_chemical_name_systematic
;
1,2,3,6,7,8-hexamethyl-9,10-bis(2-methylphenyl)phenanthrene
;
_cell_volume   2408.507
_exptl_crystal_colour 'colorless'
_exptl_crystal_density_diffrn 1.221
_diffrn_ambient_temperature 100
#These two values have been output from a single CSD field.
_refine_ls_R_factor_gt 0.0477
_refine_ls_wR_factor_gt 0.0477
_symmetry_cell_setting monoclinic
_symmetry_space_group_name_H-M 'P 21/n'
_symmetry_Int_Tables_number 14
loop_
_symmetry_equiv_pos_site_id
_symmetry_equiv_pos_as_xyz
1 x,y,z
2 1/2-x,1/2+y,1/2-z
3 -x,-y,-z
4 -1/2+x,-1/2-y,-1/2+z
_cell_length_a 10.724(1)
_cell_length_b 14.6596(14)
_cell_length_c 15.9412(15)
_cell_angle_alpha 90
_cell_angle_beta 106.043(2)
_cell_angle_gamma 90
_cell_formula_units_Z 4
loop_
_atom_type_symbol
_atom_type_radius_bond
C 0.68
H 0.23
loop_
_atom_site_label
_atom_site_type_symbol
_atom_site_fract_x
_atom_site_fract_y
_atom_site_fract_z
C1 C 0.00460(16) 0.67311(13) -0.10131(11)
H1 H 0.04270 0.70160 -0.14410
H2 H -0.06460 0.71220 -0.09210
H3 H -0.03150 0.61350 -0.12310
C2 C 0.10829(15) 0.66088(11) -0.0158(1)
C3 C 0.23350(14) 0.68786(10) -0.00884(9)
H4 H 0.25210 0.71640 -0.05750
C4 C 0.33509(14) 0.67475(10) 0.06772(9)
C5 C 0.46594(14) 0.70649(10) 0.07400(9)
C6 C 0.56561(14) 0.69344(10) 0.15228(9)
C7 C 0.54100(14) 0.62785(10) 0.21490(9)
C8 C 0.65521(14) 0.57776(10) 0.27198(10)
C9 C 0.69513(17) 0.58976(12) 0.36287(11)
H5 H 0.64460 0.62700 0.38960
C10 C 0.80573(19) 0.54891(14) 0.41436(13)
H6 H 0.83170 0.55850 0.47570
C11 C 0.87747(19) 0.49439(14) 0.37587(14)
H7 H 0.95460 0.46680 0.41080
C12 C 0.49589(15) 0.75215(10) 0.00463(9)
H8 H 0.42970 0.75970 -0.04860
C13 C 0.61724(15) 0.78635(10) 0.01071(9)
C14 C 0.71426(14) 0.78089(10) 0.0913(1)
C15 C 0.68747(14) 0.73767(10) 0.16206(9)
C16 C 0.78729(15) 0.74522(11) 0.24988(10)
H9 H 0.85030 0.69550 0.25630
H10 H 0.74390 0.74120 0.29640
H11 H 0.83230 0.80390 0.25380
C17 C 0.84524(15) 0.82388(11) 0.10083(10)
H12 H 0.84780 0.88410 0.12790
H13 H 0.86000 0.83040 0.04310
H14 H 0.91300 0.78510 0.13770
C18 C 0.64232(16) 0.83292(12) -0.06728(10)
H15 H 0.56280 0.83250 -0.11580
H16 H 0.71110 0.80050 -0.08460
H17 H 0.66930 0.89610 -0.05220
C19 C 0.07805(14) 0.6249(1) 0.05832(10)
C20 C 0.17447(14) 0.61532(10) 0.13654(10)
C21 C 0.13375(16) 0.59370(12) 0.21801(10)
H18 H 0.04830 0.62050 0.21320
H19 H 0.19740 0.61920 0.26910
H20 H 0.12920 0.52740 0.22450
C22 C 0.30704(14) 0.63242(10) 0.13984(9)
C23 C 0.41749(14) 0.59973(10) 0.21009(9)
C24 C 0.39504(14) 0.52267(11) 0.26637(10)
C25 C 0.40081(15) 0.53699(12) 0.35407(10)
H21 H 0.42700 0.59500 0.37950
C26 C 0.36931(17) 0.46865(13) 0.40471(11)
H22 H 0.37370 0.47990 0.46410
C27 C 0.33161(17) 0.38428(13) 0.36844(12)
H23 H 0.30760 0.33760 0.40230
C28 C 0.32892(16) 0.36799(12) 0.28272(12)
H24 H 0.30430 0.30930 0.25850
C29 C 0.36150(15) 0.43570(11) 0.23048(10)
C30 C 0.36185(18) 0.41194(12) 0.13988(11)
H25 H 0.34520 0.46690 0.10350
H26 H 0.29400 0.36670 0.11610
H27 H 0.44660 0.38660 0.14030
C31 C -0.05990(15) 0.59661(12) 0.05044(11)
H28 H -0.06190 0.55740 0.09990
H29 H -0.09440 0.56300 -0.00420
H30 H -0.11300 0.65100 0.05050
C32 C 0.72663(16) 0.52017(11) 0.23276(12)
C33 C 0.83957(18) 0.47878(13) 0.28721(15)
H31 H 0.89010 0.43960 0.26210
C34 C 0.68714(19) 0.50275(13) 0.13648(13)
H32 H 0.59410 0.48930 0.11700
H33 H 0.73600 0.45070 0.12350
H34 H 0.70550 0.55690 0.10590
loop_
_geom_bond_atom_site_label_1
_geom_bond_atom_site_label_2
_geom_bond_distance
_geom_bond_site_symmetry_1
_geom_bond_site_symmetry_2
C1 H1 0.980 1_555 1_555
H2 C1 0.980 1_555 1_555
H3 C1 0.980 1_555 1_555
C2 C1 1.513 1_555 1_555
C3 C2 1.375 1_555 1_555
H4 C3 0.950 1_555 1_555
C4 C3 1.407 1_555 1_555
C5 C4 1.455 1_555 1_555
C6 C5 1.414 1_555 1_555
C7 C6 1.462 1_555 1_555
C8 C7 1.500 1_555 1_555
C9 C8 1.404 1_555 1_555
H5 C9 0.949 1_555 1_555
C10 C9 1.379 1_555 1_555
H6 C10 0.950 1_555 1_555
C11 C10 1.367 1_555 1_555
H7 C11 0.950 1_555 1_555
C12 C5 1.404 1_555 1_555
H8 C12 0.950 1_555 1_555
C13 C12 1.373 1_555 1_555
C14 C13 1.414 1_555 1_555
C15 C6 1.428 1_555 1_555
C16 C15 1.513 1_555 1_555
H9 C16 0.980 1_555 1_555
H10 C16 0.980 1_555 1_555
H11 C16 0.980 1_555 1_555
C17 C14 1.508 1_555 1_555
H12 C17 0.980 1_555 1_555
H13 C17 0.981 1_555 1_555
H14 C17 0.980 1_555 1_555
C18 C13 1.506 1_555 1_555
H15 C18 0.980 1_555 1_555
H16 C18 0.979 1_555 1_555
H17 C18 0.980 1_555 1_555
C19 C2 1.411 1_555 1_555
C20 C19 1.390 1_555 1_555
C21 C20 1.514 1_555 1_555
H18 C21 0.980 1_555 1_555
H19 C21 0.981 1_555 1_555
H20 C21 0.980 1_555 1_555
C22 C4 1.410 1_555 1_555
C23 C7 1.369 1_555 1_555
C24 C23 1.503 1_555 1_555
C25 C24 1.398 1_555 1_555
H21 C25 0.951 1_555 1_555
C26 C25 1.386 1_555 1_555
H22 C26 0.949 1_555 1_555
C27 C26 1.378 1_555 1_555
H23 C27 0.950 1_555 1_555
C28 C27 1.380 1_555 1_555
H24 C28 0.950 1_555 1_555
C29 C24 1.403 1_555 1_555
C30 C29 1.487 1_555 1_555
H25 C30 0.980 1_555 1_555
H26 C30 0.980 1_555 1_555
H27 C30 0.980 1_555 1_555
C31 C19 1.508 1_555 1_555
H28 C31 0.981 1_555 1_555
H29 C31 0.980 1_555 1_555
H30 C31 0.980 1_555 1_555
C32 C8 1.398 1_555 1_555
C33 C11 1.378 1_555 1_555
H31 C33 0.951 1_555 1_555
C34 C32 1.497 1_555 1_555
H32 C34 0.980 1_555 1_555
H33 C34 0.980 1_555 1_555
H34 C34 0.980 1_555 1_555
C14 C15 1.391 1_555 1_555
C20 C22 1.430 1_555 1_555
C22 C23 1.468 1_555 1_555
C28 C29 1.401 1_555 1_555
C32 C33 1.417 1_555 1_555
#END
