
#######################################################################
#
#                 Cambridge Crystallographic Data Centre
#                                CCDC
#
#######################################################################
#
# If this CIF has been generated from an entry in the Cambridge
# Structural Database, then it will include bibliographic, chemical,
# crystal, experimental, refinement or atomic coordinate data resulting
# from the CCDC's data processing and validation procedures.
#
#######################################################################

data_CSD_CIF_UFOHON
_audit_creation_date 2008-12-11
_audit_creation_method CSD-ConQuest-V1
_database_code_CSD UFOHON
_database_code_depnum_ccdc_archive 'CCDC 648605'
_chemical_formula_sum 'C40 H36'
_chemical_formula_moiety
;
C40 H36
;
_journal_coden_Cambridge 1220
_journal_volume 14
_journal_year 2008
_journal_page_first 6697
_journal_name_full 'Chem.-Eur.J. '
loop_
_publ_author_name
"Yao-Ting Wu"
"Ke-Hsin Huang"
"Chien-Chueh Shin"
"Tsun-Cheng Wu"
_chemical_name_systematic
;
1,2,3,4-Tetraphenyl-5,8-di-isopropylnaphthalene
;
_cell_volume   2954.353
_exptl_crystal_colour 'colorless'
_exptl_crystal_density_diffrn 1.162
_exptl_crystal_description 'lamellar'
_exptl_crystal_preparation 'dichloromethane/methanol'
_diffrn_ambient_temperature 273
#These two values have been output from a single CSD field.
_refine_ls_R_factor_gt 0.0599
_refine_ls_wR_factor_gt 0.0599
_symmetry_cell_setting monoclinic
_symmetry_space_group_name_H-M 'P 21/n'
_symmetry_Int_Tables_number 14
loop_
_symmetry_equiv_pos_site_id
_symmetry_equiv_pos_as_xyz
1 x,y,z
2 1/2-x,1/2+y,1/2-z
3 -x,-y,-z
4 -1/2+x,-1/2-y,-1/2+z
_cell_length_a 15.3046(4)
_cell_length_b 11.7211(3)
_cell_length_c 16.5363(4)
_cell_angle_alpha 90
_cell_angle_beta 95.164(1)
_cell_angle_gamma 90
_cell_formula_units_Z 4
loop_
_atom_type_symbol
_atom_type_radius_bond
C 0.68
H 0.23
loop_
_atom_site_label
_atom_site_type_symbol
_atom_site_fract_x
_atom_site_fract_y
_atom_site_fract_z
C1 C 0.76172(14) 0.00163(19) -0.00147(13)
C2 C 0.71108(15) -0.0033(2) -0.07914(14)
C3 C 0.70427(16) -0.1073(2) -0.11686(15)
H1 H 0.67310 -0.11240 -0.16770
C4 C 0.74214(16) -0.2055(2) -0.08210(15)
H2 H 0.72900 -0.27540 -0.10690
C5 C 0.79816(16) -0.2031(2) -0.01256(15)
C6 C 0.81611(15) -0.09369(19) 0.02573(14)
C7 C 0.88450(15) -0.0736(2) 0.09034(14)
C8 C 0.89048(15) 0.0307(2) 0.13040(13)
C9 C 0.82548(15) 0.11636(19) 0.11321(14)
C10 C 0.76017(15) 0.10084(19) 0.05087(14)
C11 C 0.67993(15) 0.1744(2) 0.04768(14)
C12 C 0.60008(17) 0.1215(2) 0.05832(15)
H3 H 0.59760 0.04250 0.06210
C13 C 0.52436(17) 0.1851(3) 0.06331(17)
H4 H 0.47170 0.14840 0.07020
C14 C 0.52660(19) 0.3018(3) 0.05812(17)
H5 H 0.47590 0.34440 0.06210
C15 C 0.60506(18) 0.3557(2) 0.04686(16)
H6 H 0.60690 0.43480 0.04290
C16 C 0.68046(16) 0.2932(2) 0.04143(15)
H7 H 0.73260 0.33060 0.03350
C17 C 0.83164(16) 0.2247(2) 0.16203(14)
C18 C 0.77769(18) 0.2482(3) 0.22283(17)
H8 H 0.73560 0.19530 0.23520
C19 C 0.7861(2) 0.3503(3) 0.26533(19)
H9 H 0.74980 0.36530 0.30620
C20 C 0.8477(2) 0.4294(3) 0.2475(2)
H10 H 0.85280 0.49780 0.27610
C21 C 0.9018(2) 0.4074(2) 0.18759(18)
H11 H 0.94350 0.46070 0.17510
C22 C 0.89369(17) 0.3056(2) 0.14609(16)
H12 H 0.93110 0.29080 0.10600
C23 C 0.96245(16) 0.05217(19) 0.19687(14)
C24 C 0.94249(18) 0.0561(2) 0.27692(15)
H13 H 0.88500 0.04430 0.28910
C25 C 1.0072(2) 0.0774(2) 0.33883(16)
H14 H 0.99310 0.07960 0.39240
C26 C 1.09247(19) 0.0954(2) 0.32163(18)
H15 H 1.13610 0.10970 0.36330
C27 C 1.11244(18) 0.0922(2) 0.24280(18)
H16 H 1.16990 0.10450 0.23090
C28 C 1.04822(16) 0.0709(2) 0.18059(16)
H17 H 1.06280 0.06910 0.12720
C29 C 0.95482(15) -0.15949(19) 0.11375(14)
C30 C 0.96052(17) -0.2134(2) 0.18895(15)
H18 H 0.92010 -0.19570 0.22590
C31 C 1.02501(19) -0.2924(2) 0.20941(17)
H19 H 1.02710 -0.32890 0.25950
C32 C 1.0861(2) -0.3177(3) 0.15679(19)
H20 H 1.12920 -0.37200 0.17060
C33 C 1.08355(19) -0.2628(3) 0.08366(18)
H21 H 1.12570 -0.27880 0.04820
C34 C 1.01865(16) -0.1836(2) 0.06218(16)
H22 H 1.01790 -0.14610 0.01250
C35 C 0.82660(18) -0.3190(2) 0.02280(17)
H23 H 0.86770 -0.30540 0.07080
C36 C 0.8731(3) -0.3926(3) -0.0359(2)
H24 H 0.83220 -0.41460 -0.08060
H25 H 0.89620 -0.45960 -0.00830
H26 H 0.92020 -0.35000 -0.05590
C37 C 0.7471(2) -0.3811(3) 0.0504(2)
H27 H 0.71780 -0.33280 0.08630
H28 H 0.76590 -0.44980 0.07840
H29 H 0.70750 -0.39990 0.00400
C38 C 0.67436(16) 0.1006(2) -0.12695(15)
H30 H 0.68560 0.16840 -0.09290
C39 C 0.57584(18) 0.0924(3) -0.14960(19)
H31 H 0.56330 0.02590 -0.18250
H32 H 0.55610 0.15920 -0.17940
H33 H 0.54600 0.08690 -0.10110
C40 C 0.7219(2) 0.1157(3) -0.20374(17)
H34 H 0.78410 0.11660 -0.18950
H35 H 0.70410 0.18640 -0.22960
H36 H 0.70720 0.05360 -0.24030
loop_
_geom_bond_atom_site_label_1
_geom_bond_atom_site_label_2
_geom_bond_distance
_geom_bond_site_symmetry_1
_geom_bond_site_symmetry_2
C1 C2 1.440 1_555 1_555
C2 C3 1.369 1_555 1_555
C3 H1 0.930 1_555 1_555
C4 C3 1.390 1_555 1_555
H2 C4 0.930 1_555 1_555
C5 C4 1.371 1_555 1_555
C6 C1 1.441 1_555 1_555
C7 C6 1.446 1_555 1_555
C8 C7 1.390 1_555 1_555
C9 C8 1.424 1_555 1_555
C10 C1 1.451 1_555 1_555
C11 C10 1.498 1_555 1_555
C12 C11 1.396 1_555 1_555
H3 C12 0.929 1_555 1_555
C13 C12 1.387 1_555 1_555
H4 C13 0.930 1_555 1_555
C14 C13 1.371 1_555 1_555
H5 C14 0.930 1_555 1_555
C15 C14 1.384 1_555 1_555
H6 C15 0.930 1_555 1_555
C16 C11 1.396 1_555 1_555
H7 C16 0.930 1_555 1_555
C17 C9 1.503 1_555 1_555
C18 C17 1.385 1_555 1_555
H8 C18 0.930 1_555 1_555
C19 C18 1.388 1_555 1_555
H9 C19 0.929 1_555 1_555
C20 C19 1.373 1_555 1_555
H10 C20 0.931 1_555 1_555
C21 C20 1.372 1_555 1_555
H11 C21 0.930 1_555 1_555
C22 C17 1.384 1_555 1_555
H12 C22 0.930 1_555 1_555
C23 C8 1.506 1_555 1_555
C24 C23 1.386 1_555 1_555
H13 C24 0.930 1_555 1_555
C25 C24 1.382 1_555 1_555
H14 C25 0.931 1_555 1_555
C26 C25 1.377 1_555 1_555
H15 C26 0.931 1_555 1_555
C27 C26 1.366 1_555 1_555
H16 C27 0.930 1_555 1_555
C28 C23 1.381 1_555 1_555
H17 C28 0.930 1_555 1_555
C29 C7 1.499 1_555 1_555
C30 C29 1.391 1_555 1_555
H18 C30 0.931 1_555 1_555
C31 C30 1.373 1_555 1_555
H19 C31 0.930 1_555 1_555
C32 C31 1.366 1_555 1_555
H20 C32 0.930 1_555 1_555
C33 C32 1.367 1_555 1_555
H21 C33 0.929 1_555 1_555
C34 C29 1.383 1_555 1_555
H22 C34 0.931 1_555 1_555
C35 C5 1.527 1_555 1_555
H23 C35 0.980 1_555 1_555
C36 C35 1.522 1_555 1_555
H24 C36 0.960 1_555 1_555
H25 C36 0.960 1_555 1_555
H26 C36 0.960 1_555 1_555
C37 C35 1.523 1_555 1_555
H27 C37 0.960 1_555 1_555
H28 C37 0.960 1_555 1_555
H29 C37 0.960 1_555 1_555
C38 C2 1.531 1_555 1_555
H30 C38 0.980 1_555 1_555
C39 C38 1.524 1_555 1_555
H31 C39 0.960 1_555 1_555
H32 C39 0.959 1_555 1_555
H33 C39 0.960 1_555 1_555
C40 C38 1.530 1_555 1_555
H34 C40 0.960 1_555 1_555
H35 C40 0.961 1_555 1_555
H36 C40 0.960 1_555 1_555
C5 C6 1.446 1_555 1_555
C9 C10 1.382 1_555 1_555
C15 C16 1.377 1_555 1_555
C21 C22 1.377 1_555 1_555
C27 C28 1.380 1_555 1_555
C33 C34 1.382 1_555 1_555
#END
