
#######################################################################
#
#                 Cambridge Crystallographic Data Centre
#                                CCDC
#
#######################################################################
#
# If this CIF has been generated from an entry in the Cambridge
# Structural Database, then it will include bibliographic, chemical,
# crystal, experimental, refinement or atomic coordinate data resulting
# from the CCDC's data processing and validation procedures.
#
#######################################################################

data_CSD_CIF_UFOHUT
_audit_creation_date 2008-12-11
_audit_creation_method CSD-ConQuest-V1
_database_code_CSD UFOHUT
_database_code_depnum_ccdc_archive 'CCDC 668637'
_chemical_formula_sum 'C39 H34'
_chemical_formula_moiety
;
C39 H34
;
_journal_coden_Cambridge 1220
_journal_volume 14
_journal_year 2008
_journal_page_first 6697
_journal_name_full 'Chem.-Eur.J. '
loop_
_publ_author_name
"Yao-Ting Wu"
"Ke-Hsin Huang"
"Chien-Chueh Shin"
"Tsun-Cheng Wu"
_chemical_name_systematic
;
8-Methyl-5-n-butyl-1,2,3,4-tetraphenylnaphthalene
;
_cell_volume   1451.773
_exptl_crystal_colour 'colorless'
_exptl_crystal_density_diffrn 1.155
_exptl_crystal_description 'acicular'
_exptl_crystal_preparation 'dichloromethane/methanol'
_diffrn_ambient_temperature 296
#These two values have been output from a single CSD field.
_refine_ls_R_factor_gt 0.04
_refine_ls_wR_factor_gt 0.04
_symmetry_cell_setting triclinic
_symmetry_space_group_name_H-M 'P -1'
_symmetry_Int_Tables_number 2
loop_
_symmetry_equiv_pos_site_id
_symmetry_equiv_pos_as_xyz
1 x,y,z
2 -x,-y,-z
_cell_length_a 8.2578(18)
_cell_length_b 14.048(3)
_cell_length_c 14.451(3)
_cell_angle_alpha 64.265(4)
_cell_angle_beta 86.469(4)
_cell_angle_gamma 74.429(4)
_cell_formula_units_Z 2
loop_
_atom_type_symbol
_atom_type_radius_bond
C 0.68
H 0.23
loop_
_atom_site_label
_atom_site_type_symbol
_atom_site_fract_x
_atom_site_fract_y
_atom_site_fract_z
C1 C 0.39226(17) 0.61826(11) 0.30722(10)
C2 C 0.49307(16) 0.67526(11) 0.23676(10)
C3 C 0.53292(17) 0.76406(11) 0.24435(10)
C4 C 0.44906(17) 0.80617(10) 0.30969(10)
C5 C 0.32089(17) 0.76034(11) 0.37117(10)
C6 C 0.20385(18) 0.81429(12) 0.42280(11)
C7 C 0.10535(19) 0.75620(14) 0.49108(11)
H1 H 0.02520 0.79080 0.52260
C8 C 0.12082(18) 0.64678(14) 0.51511(11)
H2 H 0.06090 0.60820 0.56830
C9 C 0.22066(18) 0.59414(12) 0.46351(10)
C10 C 0.31163(16) 0.65563(11) 0.38113(10)
C11 C 0.36610(18) 0.52010(11) 0.30083(10)
C12 C 0.21106(19) 0.51956(12) 0.26933(10)
H3 H 0.11990 0.58120 0.25260
C13 C 0.1911(2) 0.42773(14) 0.26259(11)
H4 H 0.08620 0.42780 0.24250
C14 C 0.3247(3) 0.33698(14) 0.28531(12)
H5 H 0.31090 0.27570 0.28060
C15 C 0.4789(2) 0.33716(13) 0.31503(12)
H6 H 0.57010 0.27590 0.33000
C16 C 0.49965(19) 0.42755(12) 0.32295(11)
H7 H 0.60500 0.42640 0.34350
C17 C 0.56190(19) 0.64306(11) 0.15307(10)
C18 C 0.4554(2) 0.66119(12) 0.07366(11)
H8 H 0.34080 0.69300 0.07260
C19 C 0.5180(3) 0.63226(15) -0.00478(13)
H9 H 0.44530 0.64510 -0.05810
C20 C 0.6860(3) 0.58506(16) -0.00364(14)
H10 H 0.72740 0.56490 -0.05570
C21 C 0.7928(2) 0.56744(14) 0.07358(14)
H11 H 0.90740 0.53620 0.07370
C22 C 0.7315(2) 0.59590(13) 0.15193(12)
H12 H 0.80550 0.58310 0.20460
C23 C 0.67297(18) 0.80715(11) 0.18447(10)
C24 C 0.6566(2) 0.86643(12) 0.07828(11)
H13 H 0.55490 0.88300 0.04290
C25 C 0.7897(2) 0.90109(14) 0.02466(13)
H14 H 0.77650 0.94140 -0.04650
C26 C 0.9408(2) 0.87689(14) 0.07493(15)
H15 H 1.03090 0.89880 0.03790
C27 C 0.9589(2) 0.82031(13) 0.17997(14)
H16 H 1.06050 0.80520 0.21470
C28 C 0.82559(19) 0.78570(11) 0.23435(11)
H17 H 0.83870 0.74730 0.30570
C29 C 0.51114(17) 0.88899(11) 0.32591(11)
C30 C 0.50467(18) 0.99248(12) 0.24892(12)
H18 H 0.45800 1.01390 0.18360
C31 C 0.5677(2) 1.06457(13) 0.26885(15)
H19 H 0.56160 1.13450 0.21730
C32 C 0.6387(2) 1.03246(16) 0.36457(17)
H20 H 0.68040 1.08090 0.37780
C33 C 0.64872(19) 0.93017(15) 0.44040(14)
H21 H 0.69810 0.90870 0.50500
C34 C 0.58594(18) 0.85873(12) 0.42147(11)
H22 H 0.59370 0.78890 0.47360
C35 C 0.16645(18) 0.93487(12) 0.39817(11)
H23 H 0.27110 0.95110 0.40460
H24 H 0.09340 0.94870 0.44870
C36 C 0.08314(19) 1.01243(12) 0.29103(12)
H25 H 0.15750 1.00110 0.23990
H26 H -0.02030 0.99550 0.28340
C37 C 0.0434(2) 1.13189(13) 0.27177(14)
H27 H -0.02960 1.14220 0.32380
H28 H 0.14740 1.14790 0.27990
C38 C -0.0398(3) 1.21258(15) 0.16737(16)
H29 H 0.03930 1.21300 0.11570
H30 H -0.07700 1.28460 0.16490
H31 H -0.13480 1.19180 0.15470
C39 C 0.24126(19) 0.47165(12) 0.50493(11)
H32 H 0.20560 0.44400 0.57400
H33 H 0.35740 0.43490 0.50480
H34 H 0.17370 0.45860 0.46220
loop_
_geom_bond_atom_site_label_1
_geom_bond_atom_site_label_2
_geom_bond_distance
_geom_bond_site_symmetry_1
_geom_bond_site_symmetry_2
C1 C2 1.384 1_555 1_555
C2 C3 1.421 1_555 1_555
C3 C4 1.380 1_555 1_555
C4 C5 1.441 1_555 1_555
C5 C6 1.440 1_555 1_555
C6 C7 1.364 1_555 1_555
C7 H1 0.930 1_555 1_555
C8 C7 1.391 1_555 1_555
H2 C8 0.930 1_555 1_555
C9 C8 1.363 1_555 1_555
C10 C1 1.439 1_555 1_555
C11 C1 1.493 1_555 1_555
C12 C11 1.388 1_555 1_555
H3 C12 0.930 1_555 1_555
C13 C12 1.388 1_555 1_555
H4 C13 0.930 1_555 1_555
C14 C13 1.370 1_555 1_555
H5 C14 0.929 1_555 1_555
C15 C14 1.370 1_555 1_555
H6 C15 0.930 1_555 1_555
C16 C11 1.386 1_555 1_555
H7 C16 0.930 1_555 1_555
C17 C2 1.498 1_555 1_555
C18 C17 1.380 1_555 1_555
H8 C18 0.930 1_555 1_555
C19 C18 1.390 1_555 1_555
H9 C19 0.930 1_555 1_555
C20 C19 1.365 1_555 1_555
H10 C20 0.930 1_555 1_555
C21 C20 1.360 1_555 1_555
H11 C21 0.930 1_555 1_555
C22 C17 1.382 1_555 1_555
H12 C22 0.930 1_555 1_555
C23 C3 1.500 1_555 1_555
C24 C23 1.386 1_555 1_555
H13 C24 0.930 1_555 1_555
C25 C24 1.379 1_555 1_555
H14 C25 0.930 1_555 1_555
C26 C25 1.367 1_555 1_555
H15 C26 0.930 1_555 1_555
C27 C26 1.369 1_555 1_555
H16 C27 0.930 1_555 1_555
C28 C23 1.385 1_555 1_555
H17 C28 0.930 1_555 1_555
C29 C4 1.498 1_555 1_555
C30 C29 1.384 1_555 1_555
H18 C30 0.931 1_555 1_555
C31 C30 1.391 1_555 1_555
H19 C31 0.930 1_555 1_555
C32 C31 1.370 1_555 1_555
H20 C32 0.930 1_555 1_555
C33 C32 1.361 1_555 1_555
H21 C33 0.930 1_555 1_555
C34 C29 1.387 1_555 1_555
H22 C34 0.930 1_555 1_555
C35 C6 1.517 1_555 1_555
H23 C35 0.970 1_555 1_555
H24 C35 0.970 1_555 1_555
C36 C35 1.524 1_555 1_555
H25 C36 0.971 1_555 1_555
H26 C36 0.970 1_555 1_555
C37 C36 1.520 1_555 1_555
H27 C37 0.970 1_555 1_555
H28 C37 0.970 1_555 1_555
C38 C37 1.503 1_555 1_555
H29 C38 0.960 1_555 1_555
H30 C38 0.960 1_555 1_555
H31 C38 0.960 1_555 1_555
C39 C9 1.520 1_555 1_555
H32 C39 0.960 1_555 1_555
H33 C39 0.960 1_555 1_555
H34 C39 0.960 1_555 1_555
C5 C10 1.437 1_555 1_555
C9 C10 1.440 1_555 1_555
C15 C16 1.379 1_555 1_555
C21 C22 1.383 1_555 1_555
C27 C28 1.384 1_555 1_555
C33 C34 1.373 1_555 1_555
#END
