
#######################################################################
#
#                 Cambridge Crystallographic Data Centre
#                                CCDC
#
#######################################################################
#
# If this CIF has been generated from an entry in the Cambridge
# Structural Database, then it will include bibliographic, chemical,
# crystal, experimental, refinement or atomic coordinate data resulting
# from the CCDC's data processing and validation procedures.
#
#######################################################################

data_CSD_CIF_UFOJAB
_audit_creation_date 2008-12-11
_audit_creation_method CSD-ConQuest-V1
_database_code_CSD UFOJAB
_database_code_depnum_ccdc_archive 'CCDC 671871'
_chemical_formula_sum 'C40 H36'
_chemical_formula_moiety
;
C40 H36
;
_journal_coden_Cambridge 1220
_journal_volume 14
_journal_year 2008
_journal_page_first 6697
_journal_name_full 'Chem.-Eur.J. '
loop_
_publ_author_name
"Yao-Ting Wu"
"Ke-Hsin Huang"
"Chien-Chueh Shin"
"Tsun-Cheng Wu"
_chemical_name_systematic
;
5,8-Dimethyl-1,2,3,4-tetrakis(p-tolyl)naphthalene
;
_cell_volume   3173.609
_exptl_crystal_colour 'colorless'
_exptl_crystal_density_diffrn 1.081
_exptl_crystal_description 'columnar'
_exptl_crystal_preparation 'dichloromethane/methanol'
_diffrn_ambient_temperature 296
#These two values have been output from a single CSD field.
_refine_ls_R_factor_gt 0.0603
_refine_ls_wR_factor_gt 0.0603
_symmetry_cell_setting monoclinic
_symmetry_space_group_name_H-M 'P 21/n'
_symmetry_Int_Tables_number 14
loop_
_symmetry_equiv_pos_site_id
_symmetry_equiv_pos_as_xyz
1 x,y,z
2 1/2-x,1/2+y,1/2-z
3 -x,-y,-z
4 -1/2+x,-1/2-y,-1/2+z
_cell_length_a 12.2147(10)
_cell_length_b 10.8707(9)
_cell_length_c 24.577(2)
_cell_angle_alpha 90
_cell_angle_beta 103.471(3)
_cell_angle_gamma 90
_cell_formula_units_Z 4
loop_
_atom_type_symbol
_atom_type_radius_bond
C 0.68
H 0.23
loop_
_atom_site_label
_atom_site_type_symbol
_atom_site_fract_x
_atom_site_fract_y
_atom_site_fract_z
C1 C -0.1312(4) 0.8445(4) -0.04201(17)
C2 C -0.2168(4) 0.7978(4) -0.02145(18)
H1 H -0.28810 0.83270 -0.03250
C3 C -0.2005(4) 0.6998(4) 0.01557(18)
H2 H -0.26300 0.66530 0.02530
C4 C -0.0975(4) 0.6518(4) 0.03832(17)
C5 C -0.0001(4) 0.7040(4) 0.02254(16)
C6 C 0.1134(4) 0.6758(4) 0.04975(17)
C7 C 0.2021(4) 0.7151(4) 0.02835(16)
C8 C 0.1799(4) 0.7798(4) -0.02356(17)
C9 C 0.0720(4) 0.8187(4) -0.04760(16)
C10 C -0.0210(4) 0.7902(4) -0.02301(16)
C11 C -0.1578(4) 0.9571(4) -0.07875(19)
H3 H -0.16020 0.93500 -0.11680
H4 H -0.10050 1.01810 -0.06650
H5 H -0.22950 0.98970 -0.07630
C12 C -0.0933(4) 0.5380(4) 0.07436(19)
H6 H -0.06520 0.55960 0.11300
H7 H -0.04430 0.47810 0.06370
H8 H -0.16750 0.50410 0.06920
C13 C 0.1410(4) 0.6107(4) 0.10497(16)
C14 C 0.1247(4) 0.6684(4) 0.15219(17)
H9 H 0.09850 0.74900 0.14970
C15 C 0.1464(4) 0.6087(5) 0.20366(18)
H10 H 0.13410 0.64930 0.23500
C16 C 0.1861(4) 0.4896(5) 0.20844(19)
C17 C 0.2051(4) 0.4330(4) 0.16169(19)
H11 H 0.23280 0.35300 0.16450
C18 C 0.1839(4) 0.4919(4) 0.11043(18)
H12 H 0.19850 0.45180 0.07950
C19 C 0.2064(5) 0.4245(5) 0.26475(19)
H13 H 0.28590 0.41600 0.27990
H14 H 0.17220 0.34450 0.25980
H15 H 0.17390 0.47180 0.29000
C20 C 0.3210(4) 0.6944(4) 0.05935(17)
C21 C 0.3672(4) 0.7641(5) 0.1060(2)
H16 H 0.32280 0.82250 0.11830
C22 C 0.4772(5) 0.7491(5) 0.1347(2)
H17 H 0.50630 0.79900 0.16540
C23 C 0.5449(4) 0.6620(6) 0.1189(2)
C24 C 0.4988(5) 0.5892(6) 0.0736(2)
H18 H 0.54170 0.52740 0.06270
C25 C 0.3900(5) 0.6072(5) 0.0446(2)
H19 H 0.36150 0.55810 0.01360
C26 C 0.6661(5) 0.6434(7) 0.1516(2)
H20 H 0.69100 0.56270 0.14430
H21 H 0.66990 0.65190 0.19090
H22 H 0.71350 0.70400 0.14040
C27 C 0.2737(4) 0.8039(4) -0.05283(17)
C28 C 0.3491(4) 0.8967(5) -0.03859(19)
H23 H 0.34750 0.94490 -0.00750
C29 C 0.4290(4) 0.9217(5) -0.0695(2)
H24 H 0.47710 0.98850 -0.05950
C30 C 0.4384(4) 0.8506(5) -0.1138(2)
C31 C 0.3645(6) 0.7565(5) -0.1277(2)
H25 H 0.36930 0.70630 -0.15770
C32 C 0.2815(5) 0.7321(5) -0.0985(2)
H26 H 0.23130 0.66760 -0.10970
C33 C 0.5239(5) 0.8782(6) -0.1477(2)
H27 H 0.55970 0.95550 -0.13600
H28 H 0.48680 0.88260 -0.18670
H29 H 0.57950 0.81420 -0.14210
C34 C 0.0542(4) 0.8856(4) -0.10294(18)
C35 C 0.0929(4) 1.0047(5) -0.10626(19)
H30 H 0.12810 1.04660 -0.07390
C36 C 0.0785(4) 1.0614(5) -0.1587(2)
H31 H 0.10410 1.14150 -0.16040
C37 C 0.0276(5) 1.0025(6) -0.2079(2)
C38 C -0.0093(5) 0.8847(6) -0.2033(2)
H32 H -0.04410 0.84260 -0.23570
C39 C 0.0036(4) 0.8263(5) -0.15219(18)
H33 H -0.02220 0.74610 -0.15090
C40 C 0.0141(6) 1.0685(6) -0.2637(2)
H34 H -0.01450 1.01190 -0.29360
H35 H 0.08580 1.09940 -0.26700
H36 H -0.03770 1.13570 -0.26550
loop_
_geom_bond_atom_site_label_1
_geom_bond_atom_site_label_2
_geom_bond_distance
_geom_bond_site_symmetry_1
_geom_bond_site_symmetry_2
C1 C2 1.361 1_555 1_555
C2 H1 0.931 1_555 1_555
C3 C2 1.385 1_555 1_555
H2 C3 0.930 1_555 1_555
C4 C3 1.356 1_555 1_555
C5 C4 1.450 1_555 1_555
C6 C5 1.425 1_555 1_555
C7 C6 1.378 1_555 1_555
C8 C7 1.426 1_555 1_555
C9 C8 1.379 1_555 1_555
C10 C1 1.444 1_555 1_555
C11 C1 1.511 1_555 1_555
H3 C11 0.959 1_555 1_555
H4 C11 0.960 1_555 1_555
H5 C11 0.960 1_555 1_555
C12 C4 1.515 1_555 1_555
H6 C12 0.961 1_555 1_555
H7 C12 0.961 1_555 1_555
H8 C12 0.959 1_555 1_555
C13 C6 1.498 1_555 1_555
C14 C13 1.374 1_555 1_555
H9 C14 0.930 1_555 1_555
C15 C14 1.391 1_555 1_555
H10 C15 0.930 1_555 1_555
C16 C15 1.378 1_555 1_555
C17 C16 1.370 1_555 1_555
H11 C17 0.930 1_555 1_555
C18 C13 1.388 1_555 1_555
H12 C18 0.929 1_555 1_555
C19 C16 1.522 1_555 1_555
H13 C19 0.960 1_555 1_555
H14 C19 0.960 1_555 1_555
H15 C19 0.960 1_555 1_555
C20 C7 1.492 1_555 1_555
C21 C20 1.380 1_555 1_555
H16 C21 0.930 1_555 1_555
C22 C21 1.374 1_555 1_555
H17 C22 0.930 1_555 1_555
C23 C22 1.371 1_555 1_555
C24 C23 1.375 1_555 1_555
H18 C24 0.929 1_555 1_555
C25 C20 1.372 1_555 1_555
H19 C25 0.929 1_555 1_555
C26 C23 1.524 1_555 1_555
H20 C26 0.959 1_555 1_555
H21 C26 0.961 1_555 1_555
H22 C26 0.959 1_555 1_555
C27 C8 1.511 1_555 1_555
C28 C27 1.356 1_555 1_555
H23 C28 0.930 1_555 1_555
C29 C28 1.396 1_555 1_555
H24 C29 0.930 1_555 1_555
C30 C29 1.362 1_555 1_555
C31 C30 1.354 1_555 1_555
H25 C31 0.930 1_555 1_555
C32 C27 1.389 1_555 1_555
H26 C32 0.930 1_555 1_555
C33 C30 1.510 1_555 1_555
H27 C33 0.960 1_555 1_555
H28 C33 0.961 1_555 1_555
H29 C33 0.960 1_555 1_555
C34 C9 1.513 1_555 1_555
C35 C34 1.387 1_555 1_555
H30 C35 0.930 1_555 1_555
C36 C35 1.402 1_555 1_555
H31 C36 0.929 1_555 1_555
C37 C36 1.381 1_555 1_555
C38 C37 1.371 1_555 1_555
H32 C38 0.931 1_555 1_555
C39 C34 1.384 1_555 1_555
H33 C39 0.930 1_555 1_555
C40 C37 1.522 1_555 1_555
H34 C40 0.960 1_555 1_555
H35 C40 0.959 1_555 1_555
H36 C40 0.961 1_555 1_555
C5 C10 1.436 1_555 1_555
C9 C10 1.439 1_555 1_555
C17 C18 1.383 1_555 1_555
C24 C25 1.368 1_555 1_555
C31 C32 1.397 1_555 1_555
C38 C39 1.383 1_555 1_555
#END
