
#######################################################################
#
#                 Cambridge Crystallographic Data Centre
#                                CCDC
#
#######################################################################
#
# If this CIF has been generated from an entry in the Cambridge
# Structural Database, then it will include bibliographic, chemical,
# crystal, experimental, refinement or atomic coordinate data resulting
# from the CCDC's data processing and validation procedures.
#
#######################################################################

data_CSD_CIF_UHELIC
_audit_creation_date 1977-05-06
_audit_creation_method CSD-ConQuest-V1
_database_code_CSD UHELIC
_database_code_depnum_ccdc_archive 'CCDC 1278255'
_chemical_formula_sum 'C46 H26'
_chemical_formula_moiety
;
C46 H26
;
_journal_coden_Cambridge 189
_journal_volume 5
_journal_year 1976
_journal_page_first 713
_journal_name_full 'Cryst.Struct.Commun. '
loop_
_publ_author_name
"G.Le Bas"
"A.Navaza"
"M.Knossow"
"C.de Rango"
_chemical_name_systematic
;
Undeca-helicene
;
_cell_volume   1401.331
_diffrn_ambient_temperature ?
_diffrn_special_details
;
The study was carried out at room temperature,in the range 283-303K

;
#These two values have been output from a single CSD field.
_refine_ls_R_factor_gt 0.05
_refine_ls_wR_factor_gt 0.05
_symmetry_cell_setting monoclinic
_symmetry_space_group_name_H-M 'P 21'
_symmetry_Int_Tables_number 4
loop_
_symmetry_equiv_pos_site_id
_symmetry_equiv_pos_as_xyz
1 x,y,z
2 -x,1/2+y,-z
_cell_length_a 10.01(1)
_cell_length_b 14.35(1)
_cell_length_c 10.92(1)
_cell_angle_alpha 90
_cell_angle_beta 116.7(1)
_cell_angle_gamma 90
_cell_formula_units_Z 2
loop_
_atom_type_symbol
_atom_type_radius_bond
C 0.68
H 0.23
loop_
_atom_site_label
_atom_site_type_symbol
_atom_site_fract_x
_atom_site_fract_y
_atom_site_fract_z
C1 C -0.26490 0.19530 -0.19540
C2 C -0.11590 0.17630 -0.15450
C3 C -0.00910 0.20510 -0.02620
C4 C -0.05140 0.24750 0.06360
C5 C -0.24700 0.30070 0.12370
C6 C -0.39300 0.30960 0.09010
C7 C -0.65930 0.29030 -0.06950
C8 C -0.76960 0.26310 -0.19210
C9 C -0.85000 0.21540 -0.43080
C10 C -0.82320 0.19830 -0.53830
C11 C -0.65420 0.20510 -0.64830
C12 C -0.51730 0.22350 -0.64050
C13 C -0.26740 0.29690 -0.52070
C14 C -0.16650 0.34530 -0.41300
C15 C -0.09950 0.44310 -0.20510
C16 C -0.14010 0.48400 -0.11630
C17 C -0.33410 0.54100 -0.05430
C18 C -0.48040 0.55020 -0.08430
C19 C -0.74920 0.53780 -0.24670
C20 C -0.85950 0.51370 -0.37180
C21 C -0.94200 0.46590 -0.61160
C22 C -0.91310 0.44640 -0.71710
C23 C -0.73790 0.45030 -0.82030
C24 C -0.60230 0.47390 -0.81230
C25 C -0.48790 0.50500 -0.68530
C26 C -0.50940 0.50620 -0.56990
C27 C -0.64590 0.47690 -0.57360
C28 C -0.76420 0.45480 -0.70370
C29 C -0.67250 0.47750 -0.45340
C30 C -0.82420 0.48410 -0.47740
C31 C -0.55860 0.48150 -0.31240
C32 C -0.59620 0.52240 -0.21400
C33 C -0.40460 0.45070 -0.26730
C34 C -0.29320 0.49080 -0.14380
C35 C -0.35520 0.38410 -0.33680
C36 C -0.20670 0.39130 -0.31870
C37 C -0.44870 0.31150 -0.42710
C38 C -0.41150 0.27830 -0.53110
C39 C -0.57220 0.26880 -0.41590
C40 C -0.68400 0.22460 -0.53430
C41 C -0.58840 0.26320 -0.29090
C42 C -0.73430 0.24750 -0.30490
C43 C -0.46850 0.26960 -0.15140
C44 C -0.50830 0.29130 -0.04450
C45 C -0.31230 0.24560 -0.11100
C46 C -0.20280 0.26590 0.02450
H1 H -0.33200 0.16900 -0.27600
H2 H -0.10200 0.14800 -0.23200
H3 H 0.08700 0.19700 -0.00200
H4 H 0.01800 0.26200 0.16600
H5 H -0.17900 0.31100 0.22100
H6 H -0.42500 0.32500 0.17000
H7 H -0.67200 0.30600 0.01600
H8 H -0.86800 0.24600 -0.20400
H9 H -0.95300 0.20000 -0.43000
H10 H -0.89200 0.16800 -0.60500
H11 H -0.74000 0.18100 -0.72300
H12 H -0.49100 0.20100 -0.70800
H13 H -0.24600 0.27700 -0.58600
H14 H -0.07200 0.34700 -0.41100
H15 H 0.01600 0.44700 -0.20400
H16 H -0.05800 0.51800 -0.04200
H17 H -0.24100 0.56600 0.04300
H18 H -0.51300 0.58000 -0.02000
H19 H -0.76400 0.56700 -0.18600
H20 H -0.97300 0.51500 -0.38800
H21 H -1.04200 0.47500 -0.62200
H22 H -0.98300 0.43900 -0.79700
H23 H -0.83900 0.43800 -0.91000
H24 H -0.59300 0.47600 -0.88500
H25 H -0.42200 0.52600 -0.68700
H26 H -0.42700 0.52200 -0.48500
loop_
_geom_bond_atom_site_label_1
_geom_bond_atom_site_label_2
_geom_bond_distance
_geom_bond_site_symmetry_1
_geom_bond_site_symmetry_2
C1 C2 1.378 1_555 1_555
C2 C3 1.389 1_555 1_555
C3 C4 1.373 1_555 1_555
C4 C46 1.403 1_555 1_555
C5 C6 1.343 1_555 1_555
C6 C44 1.427 1_555 1_555
C7 C8 1.355 1_555 1_555
C8 C42 1.443 1_555 1_555
C9 C10 1.339 1_555 1_555
C10 C40 1.425 1_555 1_555
C11 C12 1.360 1_555 1_555
C12 C38 1.425 1_555 1_555
C13 C14 1.348 1_555 1_555
C14 C36 1.425 1_555 1_555
C15 C16 1.343 1_555 1_555
C16 C34 1.426 1_555 1_555
C17 C18 1.356 1_555 1_555
C18 C32 1.426 1_555 1_555
C19 C20 1.360 1_555 1_555
C20 C30 1.415 1_555 1_555
C21 C22 1.337 1_555 1_555
C22 C28 1.436 1_555 1_555
C23 C24 1.363 1_555 1_555
C24 C25 1.417 1_555 1_555
C25 C26 1.371 1_555 1_555
C26 C27 1.413 1_555 1_555
C27 C28 1.418 1_555 1_555
C28 C23 1.413 1_555 1_555
C29 C27 1.452 1_555 1_555
C30 C21 1.433 1_555 1_555
C31 C29 1.448 1_555 1_555
C32 C19 1.425 1_555 1_555
C33 C31 1.460 1_555 1_555
C34 C17 1.415 1_555 1_555
C35 C33 1.439 1_555 1_555
C36 C15 1.431 1_555 1_555
C37 C35 1.451 1_555 1_555
C38 C13 1.420 1_555 1_555
C39 C37 1.433 1_555 1_555
C40 C11 1.432 1_555 1_555
C41 C39 1.447 1_555 1_555
C42 C9 1.419 1_555 1_555
C43 C41 1.458 1_555 1_555
C44 C7 1.410 1_555 1_555
C45 C1 1.410 1_555 1_555
C46 C5 1.432 1_555 1_555
H1 C1 0.915 1_555 1_555
H2 C2 1.003 1_555 1_555
H3 C3 0.883 1_555 1_555
H4 C4 1.038 1_555 1_555
H5 C5 0.982 1_555 1_555
H6 C6 1.079 1_555 1_555
H7 C7 1.022 1_555 1_555
H8 C8 0.966 1_555 1_555
H9 C9 1.058 1_555 1_555
H10 C10 0.862 1_555 1_555
H11 C11 0.945 1_555 1_555
H12 C12 0.944 1_555 1_555
H13 C13 0.879 1_555 1_555
H14 C14 0.937 1_555 1_555
H15 C15 1.152 1_555 1_555
H16 C16 0.986 1_555 1_555
H17 C17 1.112 1_555 1_555
H18 C18 0.994 1_555 1_555
H19 C19 0.852 1_555 1_555
H20 C20 1.069 1_555 1_555
H21 C21 0.964 1_555 1_555
H22 C22 0.845 1_555 1_555
H23 C23 1.060 1_555 1_555
H24 C24 0.840 1_555 1_555
H25 C25 0.733 1_555 1_555
H26 C26 0.951 1_555 1_555
C29 C30 1.423 1_555 1_555
C31 C32 1.416 1_555 1_555
C33 C34 1.429 1_555 1_555
C35 C36 1.413 1_555 1_555
C37 C38 1.427 1_555 1_555
C39 C40 1.423 1_555 1_555
C41 C42 1.416 1_555 1_555
C43 C44 1.427 1_555 1_555
C43 C45 1.462 1_555 1_555
C45 C46 1.421 1_555 1_555
#END
