
#######################################################################
#
#                 Cambridge Crystallographic Data Centre
#                                CCDC
#
#######################################################################
#
# If this CIF has been generated from an entry in the Cambridge
# Structural Database, then it will include bibliographic, chemical,
# crystal, experimental, refinement or atomic coordinate data resulting
# from the CCDC's data processing and validation procedures.
#
#######################################################################

data_CSD_CIF_UHIJIE
_audit_creation_date 2003-10-08
_audit_creation_method CSD-ConQuest-V1
_database_code_CSD UHIJIE
_database_code_depnum_ccdc_archive 'CCDC 212199'
_chemical_formula_sum 'C56 H32'
_chemical_formula_moiety
;
C56 H32
;
_journal_coden_Cambridge 1336
_journal_volume 5
_journal_year 2003
_journal_page_first 1269
_journal_name_full 'Org.Lett. '
loop_
_publ_author_name
"M.Deichmann"
"C.Nather"
"R.Herges"
_chemical_name_systematic
;
4^1^-Phenyl-3,5,7,10,11(1,2),8(1,3,2)-hexabenzena-4(2,4,3)-naphthalenatetracyc
lo(4.2.2.1^2,4^.0^6,9^)undeca-1,6(9)-diene
;
_cell_volume   3561.468
_exptl_crystal_density_diffrn 1.314
_diffrn_ambient_temperature 150
#These two values have been output from a single CSD field.
_refine_ls_R_factor_gt 0.0452
_refine_ls_wR_factor_gt 0.0452
_symmetry_cell_setting monoclinic
_symmetry_space_group_name_H-M 'P 21/c'
_symmetry_Int_Tables_number 14
loop_
_symmetry_equiv_pos_site_id
_symmetry_equiv_pos_as_xyz
1 x,y,z
2 x,1/2-y,1/2+z
3 -x,-y,-z
4 -x,-1/2+y,-1/2-z
_cell_length_a 8.5137(5)
_cell_length_b 20.2068(12)
_cell_length_c 21.1413(11)
_cell_angle_alpha 90
_cell_angle_beta 101.700(7)
_cell_angle_gamma 90
_cell_formula_units_Z 4
loop_
_atom_type_symbol
_atom_type_radius_bond
C 0.68
H 0.23
loop_
_atom_site_label
_atom_site_type_symbol
_atom_site_fract_x
_atom_site_fract_y
_atom_site_fract_z
C1 C 1.03258(15) 0.29414(6) 0.85108(6)
C2 C 0.91624(14) 0.24788(6) 0.86300(6)
C3 C 0.95227(15) 0.20758(6) 0.91753(6)
H1 H 0.87560 0.17600 0.92510
C4 C 1.09785(17) 0.21268(7) 0.96095(6)
H2 H 1.11890 0.18570 0.99850
C5 C 1.21193(17) 0.25707(7) 0.94926(7)
H3 H 1.31190 0.26060 0.97870
C6 C 1.18041(16) 0.29668(7) 0.89425(7)
H4 H 1.26100 0.32600 0.88590
C7 C 1.00166(14) 0.33132(6) 0.78778(6)
C8 C 0.94394(14) 0.39602(6) 0.77877(6)
C9 C 0.95175(15) 0.44352(6) 0.83386(6)
C10 C 1.09971(17) 0.45484(7) 0.87560(6)
H5 H 1.19120 0.43030 0.87020
C11 C 1.11458(18) 0.50140(8) 0.92472(7)
H6 H 1.21510 0.50750 0.95330
C12 C 0.9839(2) 0.53902(7) 0.93230(7)
H7 H 0.99510 0.57130 0.96560
C13 C 0.83631(18) 0.52952(7) 0.89117(6)
H8 H 0.74680 0.55560 0.89610
C14 C 0.81912(16) 0.48172(6) 0.84261(6)
C15 C 0.66759(15) 0.46936(6) 0.79399(6)
C16 C 0.67946(15) 0.50371(6) 0.73292(6)
C17 C 0.58952(16) 0.56090(7) 0.71470(6)
H9 H 0.50180 0.57120 0.73450
C18 C 0.62732(17) 0.60286(7) 0.66783(7)
H10 H 0.56430 0.64110 0.65480
C19 C 0.75789(17) 0.58833(7) 0.64027(6)
H11 H 0.78770 0.61800 0.60990
C20 C 0.84511(16) 0.53077(6) 0.65690(6)
H12 H 0.93350 0.52120 0.63730
C21 C 0.80532(15) 0.48645(6) 0.70212(6)
C22 C 0.88415(14) 0.42011(6) 0.71401(6)
C23 C 0.88575(14) 0.37983(6) 0.66101(6)
C24 C 0.95432(14) 0.31519(6) 0.66942(6)
C25 C 0.95603(16) 0.27214(7) 0.61636(7)
H13 H 0.90670 0.28580 0.57400
C26 C 1.02765(18) 0.21124(7) 0.62532(7)
H14 H 1.02570 0.18270 0.58950
C27 C 1.10407(18) 0.19091(7) 0.68757(7)
H15 H 1.15990 0.14990 0.69330
C28 C 1.09832(16) 0.22992(7) 0.73978(7)
H16 H 1.14850 0.21510 0.78170
C29 C 1.01890(14) 0.29223(6) 0.73289(6)
C30 C 0.81261(16) 0.40114(6) 0.59337(6)
C31 C 0.64673(18) 0.39939(9) 0.57199(8)
H17 H 0.58030 0.38530 0.60050
C32 C 0.5781(2) 0.41803(10) 0.50935(9)
H18 H 0.46490 0.41640 0.49520
C33 C 0.6729(2) 0.43897(9) 0.46739(7)
H19 H 0.62520 0.45220 0.42470
C34 C 0.8373(2) 0.44047(7) 0.48784(7)
H20 H 0.90340 0.45460 0.45920
C35 C 0.90635(17) 0.42129(7) 0.55052(7)
H21 H 1.01970 0.42200 0.56420
C36 C 0.75748(14) 0.24532(6) 0.81641(6)
C37 C 0.72528(15) 0.19776(6) 0.76396(6)
C38 C 0.81920(16) 0.13994(7) 0.76589(7)
H22 H 0.90800 0.13360 0.80070
C39 C 0.78452(18) 0.09268(7) 0.71842(7)
H23 H 0.84880 0.05400 0.72040
C40 C 0.65431(18) 0.10181(7) 0.66720(7)
H24 H 0.63040 0.06920 0.63430
C41 C 0.56020(17) 0.15759(7) 0.66392(6)
H25 H 0.47180 0.16280 0.62880
C42 C 0.59259(15) 0.20718(6) 0.71174(6)
C43 C 0.50263(14) 0.26885(6) 0.70744(6)
C44 C 0.39218(15) 0.28937(7) 0.65181(6)
H26 H 0.36460 0.26000 0.61620
C45 C 0.32397(16) 0.35128(7) 0.64847(7)
H27 H 0.24510 0.36300 0.61160
C46 C 0.36864(15) 0.39742(7) 0.69850(7)
H28 H 0.32670 0.44110 0.69410
C47 C 0.47395(14) 0.37876(6) 0.75410(6)
C48 C 0.56266(15) 0.42324(6) 0.80535(6)
C49 C 0.58011(14) 0.39548(6) 0.87122(6)
C50 C 0.54399(16) 0.42965(7) 0.92350(7)
H29 H 0.50740 0.47410 0.91840
C51 C 0.56143(17) 0.39883(7) 0.98311(7)
H30 H 0.53500 0.42200 1.01860
C52 C 0.61744(16) 0.33415(7) 0.99117(6)
H31 H 0.63240 0.31370 1.03240
C53 C 0.65147(16) 0.29955(7) 0.93881(6)
H32 H 0.68710 0.25500 0.94410
C54 C 0.63351(14) 0.33003(6) 0.87824(6)
C55 C 0.64696(14) 0.29402(6) 0.81888(6)
C56 C 0.53371(14) 0.31246(6) 0.76052(6)
loop_
_geom_bond_atom_site_label_1
_geom_bond_atom_site_label_2
_geom_bond_distance
_geom_bond_site_symmetry_1
_geom_bond_site_symmetry_2
C1 C2 1.421 1_555 1_555
C2 C3 1.394 1_555 1_555
C3 H1 0.949 1_555 1_555
C4 C3 1.389 1_555 1_555
H2 C4 0.950 1_555 1_555
C5 C4 1.381 1_555 1_555
H3 C5 0.950 1_555 1_555
C6 C1 1.398 1_555 1_555
H4 C6 0.950 1_555 1_555
C7 C1 1.511 1_555 1_555
C8 C7 1.396 1_555 1_555
C9 C8 1.500 1_555 1_555
C10 C9 1.402 1_555 1_555
H5 C10 0.950 1_555 1_555
C11 C10 1.388 1_555 1_555
H6 C11 0.950 1_555 1_555
C12 C11 1.383 1_555 1_555
H7 C12 0.950 1_555 1_555
C13 C12 1.389 1_555 1_555
H8 C13 0.949 1_555 1_555
C14 C9 1.411 1_555 1_555
C15 C14 1.498 1_555 1_555
C16 C15 1.487 1_555 1_555
C17 C16 1.397 1_555 1_555
H9 C17 0.950 1_555 1_555
C18 C17 1.391 1_555 1_555
H10 C18 0.949 1_555 1_555
C19 C18 1.387 1_555 1_555
H11 C19 0.950 1_555 1_555
C20 C19 1.386 1_555 1_555
H12 C20 0.950 1_555 1_555
C21 C16 1.406 1_555 1_555
C22 C8 1.445 1_555 1_555
C23 C22 1.387 1_555 1_555
C24 C23 1.427 1_555 1_555
C25 C24 1.422 1_555 1_555
H13 C25 0.950 1_555 1_555
C26 C25 1.369 1_555 1_555
H14 C26 0.949 1_555 1_555
C27 C26 1.406 1_555 1_555
H15 C27 0.951 1_555 1_555
C28 C27 1.365 1_555 1_555
H16 C28 0.951 1_555 1_555
C29 C7 1.436 1_555 1_555
C30 C23 1.502 1_555 1_555
C31 C30 1.393 1_555 1_555
H17 C31 0.950 1_555 1_555
C32 C31 1.387 1_555 1_555
H18 C32 0.950 1_555 1_555
C33 C32 1.381 1_555 1_555
H19 C33 0.950 1_555 1_555
C34 C33 1.379 1_555 1_555
H20 C34 0.950 1_555 1_555
C35 C30 1.384 1_555 1_555
H21 C35 0.950 1_555 1_555
C36 C2 1.503 1_555 1_555
C37 C36 1.451 1_555 1_555
C38 C37 1.412 1_555 1_555
H22 C38 0.951 1_555 1_555
C39 C38 1.373 1_555 1_555
H23 C39 0.950 1_555 1_555
C40 C39 1.396 1_555 1_555
H24 C40 0.950 1_555 1_555
C41 C40 1.376 1_555 1_555
H25 C41 0.950 1_555 1_555
C42 C37 1.423 1_555 1_555
C43 C42 1.456 1_555 1_555
C44 C43 1.411 1_555 1_555
H26 C44 0.950 1_555 1_555
C45 C44 1.375 1_555 1_555
H27 C45 0.950 1_555 1_555
C46 C45 1.403 1_555 1_555
H28 C46 0.950 1_555 1_555
C47 C46 1.379 1_555 1_555
C48 C15 1.346 1_555 1_555
C49 C48 1.481 1_555 1_555
C50 C49 1.390 1_555 1_555
H29 C50 0.950 1_555 1_555
C51 C50 1.386 1_555 1_555
H30 C51 0.949 1_555 1_555
C52 C51 1.390 1_555 1_555
H31 C52 0.950 1_555 1_555
C53 C52 1.389 1_555 1_555
H32 C53 0.949 1_555 1_555
C54 C49 1.397 1_555 1_555
C55 C36 1.370 1_555 1_555
C56 C43 1.409 1_555 1_555
C5 C6 1.392 1_555 1_555
C13 C14 1.395 1_555 1_555
C20 C21 1.401 1_555 1_555
C21 C22 1.497 1_555 1_555
C24 C29 1.421 1_555 1_555
C28 C29 1.423 1_555 1_555
C34 C35 1.391 1_555 1_555
C41 C42 1.410 1_555 1_555
C47 C48 1.490 1_555 1_555
C47 C56 1.430 1_555 1_555
C53 C54 1.401 1_555 1_555
C54 C55 1.475 1_555 1_555
C55 C56 1.452 1_555 1_555
#END
