
#######################################################################
#
#                 Cambridge Crystallographic Data Centre
#                                CCDC
#
#######################################################################
#
# If this CIF has been generated from an entry in the Cambridge
# Structural Database, then it will include bibliographic, chemical,
# crystal, experimental, refinement or atomic coordinate data resulting
# from the CCDC's data processing and validation procedures.
#
#######################################################################

data_CSD_CIF_UKIMUY
_audit_creation_date 2016-04-04
_audit_creation_method CSD-ConQuest-V1
_database_code_CSD UKIMUY
_database_code_depnum_ccdc_archive 'CCDC 1452466'
_chemical_formula_sum 'C34 H34'
_chemical_formula_moiety
;
C34 H34
;
_journal_coden_Cambridge 1336
_journal_volume 18
_journal_year 2016
_journal_page_first 1574
_journal_name_full 'Org.Lett. '
loop_
_publ_author_name
"Penghao Li"
"B.M.Wong"
"L.N.Zakharov"
"R.Jasti"
_chemical_name_systematic
;
1,4-bis(4-t-butylphenyl)anthracene
;
_cell_volume   5172.377
_exptl_crystal_colour 'colorless'
_exptl_crystal_density_diffrn 1.137
_exptl_crystal_description 'cut-block'
_diffrn_ambient_temperature 173
#These two values have been output from a single CSD field.
_refine_ls_R_factor_gt 0.0602
_refine_ls_wR_factor_gt 0.0602
_symmetry_cell_setting monoclinic
_symmetry_space_group_name_H-M 'P n'
_symmetry_Int_Tables_number 7
loop_
_symmetry_equiv_pos_site_id
_symmetry_equiv_pos_as_xyz
1 x,y,z
2 1/2+x,-y,1/2+z
_cell_length_a 11.8562(4)
_cell_length_b 16.2582(5)
_cell_length_c 26.9243(8)
_cell_angle_alpha 90
_cell_angle_beta 94.715(2)
_cell_angle_gamma 90
_cell_formula_units_Z 8
loop_
_atom_type_symbol
_atom_type_radius_bond
C 0.68
H 0.23
loop_
_atom_site_label
_atom_site_type_symbol
_atom_site_fract_x
_atom_site_fract_y
_atom_site_fract_z
C1 C 0.8387(5) 0.4608(4) 0.1273(2)
C2 C 0.8100(5) 0.4793(4) 0.1725(2)
H1 H 0.75350 0.44710 0.18630
C3 C 0.8603(5) 0.5454(4) 0.2011(2)
H2 H 0.83630 0.55630 0.23320
C4 C 0.9427(4) 0.5937(4) 0.1831(2)
C5 C 0.9726(4) 0.5788(4) 0.1327(2)
C6 C 0.9219(4) 0.5118(4) 0.1048(2)
C7 C 0.9520(5) 0.4977(4) 0.0567(2)
H3 H 0.91910 0.45250 0.03850
C8 C 1.0287(5) 0.5476(4) 0.0344(2)
C9 C 1.0780(4) 0.6161(4) 0.0617(2)
C10 C 1.0465(4) 0.6304(4) 0.1100(2)
H4 H 1.07670 0.67690 0.12780
C11 C 1.1550(5) 0.6675(5) 0.0384(2)
H5 H 1.18430 0.71500 0.05550
C12 C 1.1879(5) 0.6506(5) -0.0077(2)
H6 H 1.24210 0.68450 -0.02190
C13 C 1.1411(5) 0.5826(5) -0.0342(2)
H7 H 1.16320 0.57150 -0.06670
C14 C 1.0654(5) 0.5327(5) -0.0146(2)
H8 H 1.03570 0.48700 -0.03340
C15 C 0.7861(5) 0.3895(4) 0.0990(2)
C16 C 0.6779(6) 0.3932(4) 0.0766(3)
H9 H 0.63720 0.44340 0.07750
C17 C 0.6266(5) 0.3267(4) 0.0529(3)
H10 H 0.55250 0.33290 0.03700
C18 C 0.6790(5) 0.2515(3) 0.0513(2)
C19 C 0.7888(5) 0.2483(4) 0.0723(3)
H11 H 0.83010 0.19840 0.07100
C20 C 0.8405(5) 0.3167(4) 0.0953(3)
H12 H 0.91680 0.31220 0.10900
C21 C 0.6215(5) 0.1757(4) 0.0269(2)
C22 C 0.5813(6) 0.1220(4) 0.0693(3)
H13 H 0.64670 0.10540 0.09160
H14 H 0.54300 0.07290 0.05510
H15 H 0.52860 0.15350 0.08800
C23 C 0.5191(7) 0.1999(5) -0.0081(3)
H16 H 0.46500 0.23030 0.01050
H17 H 0.48280 0.15020 -0.02250
H18 H 0.54380 0.23470 -0.03490
C24 C 0.7029(7) 0.1271(5) -0.0016(3)
H19 H 0.76910 0.11200 0.02070
H20 H 0.72720 0.16060 -0.02910
H21 H 0.66560 0.07720 -0.01510
C25 C 0.9992(5) 0.6593(4) 0.2138(2)
C26 C 1.1136(5) 0.6568(4) 0.2270(3)
H22 H 1.15620 0.61110 0.21690
C27 C 1.1680(5) 0.7187(4) 0.2544(2)
H23 H 1.24760 0.71550 0.26200
C28 C 1.1096(5) 0.7852(4) 0.2711(2)
C29 C 0.9944(5) 0.7850(4) 0.2601(2)
H24 H 0.95100 0.82830 0.27260
C30 C 0.9384(4) 0.7235(4) 0.2314(2)
H25 H 0.85880 0.72600 0.22410
C31 C 1.1711(6) 0.8528(4) 0.3029(2)
C32 C 1.2874(7) 0.8702(6) 0.2863(3)
H26 H 1.33240 0.81960 0.28820
H27 H 1.32490 0.91200 0.30810
H28 H 1.28050 0.89030 0.25190
C33 C 1.1076(7) 0.9337(6) 0.2973(4)
H29 H 1.03090 0.92650 0.30780
H30 H 1.10330 0.95130 0.26240
H31 H 1.14750 0.97560 0.31830
C34 C 1.1797(10) 0.8277(7) 0.3567(3)
H32 H 1.22350 0.77660 0.36080
H33 H 1.10370 0.81880 0.36750
H34 H 1.21770 0.87120 0.37700
C35 C 0.5409(4) 0.1688(3) 0.2372(2)
C36 C 0.6223(5) 0.2151(4) 0.2177(2)
H35 H 0.64430 0.20290 0.18540
C37 C 0.6747(5) 0.2813(4) 0.2449(2)
H36 H 0.73160 0.31230 0.23050
C38 C 0.6449(4) 0.3015(4) 0.29154(19)
C39 C 0.5637(4) 0.2526(3) 0.3143(2)
C40 C 0.5105(4) 0.1835(3) 0.28669(18)
C41 C 0.4354(4) 0.1342(3) 0.31073(19)
H37 H 0.40180 0.08820 0.29350
C42 C 0.4082(4) 0.1503(4) 0.35930(19)
C43 C 0.4563(4) 0.2182(3) 0.38573(19)
C44 C 0.5337(4) 0.2668(3) 0.36281(19)
H38 H 0.56770 0.31170 0.38100
C45 C 0.4281(4) 0.2351(4) 0.4350(2)
H39 H 0.46230 0.28010 0.45290
C46 C 0.3517(5) 0.1864(4) 0.4565(2)
H40 H 0.33200 0.19790 0.48930
C47 C 0.3020(5) 0.1186(4) 0.4297(2)
H41 H 0.24890 0.08520 0.44490
C48 C 0.3280(4) 0.1004(4) 0.3832(2)
H42 H 0.29350 0.05460 0.36610
C49 C 0.4840(4) 0.1004(3) 0.20664(19)
C50 C 0.5464(4) 0.0389(4) 0.18624(19)
H43 H 0.62660 0.03960 0.19150
C51 C 0.4935(4) -0.0238(3) 0.1583(2)
H44 H 0.53830 -0.06620 0.14570
C52 C 0.3755(4) -0.0262(3) 0.14810(19)
C53 C 0.3164(4) 0.0383(4) 0.1662(2)
H45 H 0.23680 0.04050 0.15850
C54 C 0.3680(4) 0.1002(3) 0.19520(19)
H46 H 0.32330 0.14310 0.20740
C55 C 0.3183(5) -0.0948(4) 0.1164(2)
C56 C 0.3250(7) -0.0736(5) 0.0614(2)
H47 H 0.40440 -0.06770 0.05450
H48 H 0.28490 -0.02180 0.05390
H49 H 0.28980 -0.11760 0.04070
C57 C 0.3796(6) -0.1770(4) 0.1270(3)
H50 H 0.45910 -0.17160 0.12000
H51 H 0.34340 -0.21990 0.10560
H52 H 0.37540 -0.19200 0.16200
C58 C 0.1934(5) -0.1048(4) 0.1272(3)
H53 H 0.15880 -0.14900 0.10640
H54 H 0.15280 -0.05320 0.11960
H55 H 0.18900 -0.11850 0.16240
C59 C 0.7008(4) 0.3722(4) 0.31807(19)
C60 C 0.6469(5) 0.4466(4) 0.3235(2)
H56 H 0.57040 0.45230 0.31040
C61 C 0.7001(5) 0.5127(4) 0.3471(2)
H57 H 0.66020 0.56300 0.34920
C62 C 0.8102(4) 0.5074(3) 0.36794(19)
C63 C 0.8636(5) 0.4335(4) 0.3637(3)
H58 H 0.93890 0.42740 0.37820
C64 C 0.8116(5) 0.3674(4) 0.3389(3)
H59 H 0.85260 0.31760 0.33610
C65 C 0.8719(5) 0.5815(4) 0.3931(2)
C66 C 0.7882(5) 0.6338(4) 0.4217(2)
H60 H 0.82840 0.68090 0.43740
H61 H 0.75720 0.59980 0.44740
H62 H 0.72630 0.65340 0.39830
C67 C 0.9671(8) 0.5543(5) 0.4303(3)
H63 H 1.02180 0.52180 0.41320
H64 H 0.93640 0.52080 0.45620
H65 H 1.00500 0.60280 0.44550
C68 C 0.9205(8) 0.6337(5) 0.3536(3)
H66 H 0.97280 0.60050 0.33560
H67 H 0.96120 0.68050 0.36950
H68 H 0.85900 0.65380 0.33020
C69 C 0.9518(4) 0.0820(4) 0.1824(2)
C70 C 0.8862(5) 0.0256(4) 0.2043(2)
H69 H 0.87530 0.03140 0.23870
C71 C 0.8339(5) -0.0414(4) 0.1775(2)
H70 H 0.78930 -0.07870 0.19460
C72 C 0.8451(4) -0.0539(3) 0.1289(2)
C73 C 0.9174(4) 0.0014(3) 0.1034(2)
C74 C 0.9697(4) 0.0683(3) 0.13037(18)
C75 C 1.0420(4) 0.1208(3) 0.1058(2)
H71 H 1.07560 0.16650 0.12320
C76 C 1.0655(4) 0.1073(4) 0.0565(2)
C77 C 1.0112(4) 0.0390(4) 0.0297(2)
C78 C 0.9389(4) -0.0121(4) 0.0539(2)
H72 H 0.90350 -0.05710 0.03630
C79 C 1.0377(5) 0.0252(4) -0.0207(2)
H73 H 1.00430 -0.01990 -0.03890
C80 C 1.1094(5) 0.0753(4) -0.0426(2)
H74 H 1.12400 0.06540 -0.07620
C81 C 1.1637(5) 0.1424(5) -0.0167(2)
H75 H 1.21580 0.17590 -0.03250
C82 C 1.1402(5) 0.1584(4) 0.0312(2)
H76 H 1.17440 0.20450 0.04810
C83 C 1.0037(4) 0.1520(4) 0.21098(19)
C84 C 1.1030(4) 0.1428(4) 0.2417(2)
H77 H 1.13870 0.09050 0.24470
C85 C 1.1504(4) 0.2091(4) 0.2678(2)
H78 H 1.21790 0.20080 0.28880
C86 C 1.1042(4) 0.2864(4) 0.26491(19)
C87 C 1.0084(4) 0.2966(4) 0.2336(2)
H79 H 0.97590 0.34980 0.22930
C88 C 0.9575(5) 0.2298(4) 0.2078(2)
H80 H 0.88920 0.23830 0.18740
C89 C 1.1631(5) 0.3571(4) 0.2950(2)
C90 C 1.1594(6) 0.3397(5) 0.3506(2)
H81 H 1.08050 0.33560 0.35860
H82 H 1.19690 0.38450 0.36980
H83 H 1.19850 0.28780 0.35890
C91 C 1.1071(5) 0.4406(4) 0.2812(3)
H84 H 1.10950 0.45050 0.24540
H85 H 1.14800 0.48460 0.30000
H86 H 1.02820 0.43980 0.28960
C92 C 1.2866(5) 0.3644(4) 0.2829(3)
H87 H 1.28940 0.37670 0.24740
H88 H 1.32590 0.31240 0.29080
H89 H 1.32350 0.40870 0.30280
C93 C 0.7847(4) -0.1238(3) 0.10119(19)
C94 C 0.6975(4) -0.1092(3) 0.0655(2)
H90 H 0.67780 -0.05410 0.05680
C95 C 0.6377(4) -0.1735(4) 0.0420(2)
H91 H 0.57650 -0.16120 0.01810
C96 C 0.6641(4) -0.2557(3) 0.0522(2)
C97 C 0.7553(5) -0.2691(4) 0.0873(2)
H92 H 0.77820 -0.32390 0.09510
C98 C 0.8138(5) -0.2039(4) 0.1113(2)
H93 H 0.87520 -0.21530 0.13520
C99 C 0.6028(4) -0.3282(4) 0.0257(2)
C100 C 0.5156(6) -0.2985(5) -0.0159(3)
H94 H 0.46000 -0.26280 -0.00170
H95 H 0.47690 -0.34610 -0.03180
H96 H 0.55430 -0.26770 -0.04080
C101 C 0.6868(6) -0.3841(4) 0.0028(3)
H97 H 0.74280 -0.40370 0.02890
H98 H 0.72510 -0.35350 -0.02230
H99 H 0.64660 -0.43120 -0.01300
C102 C 0.5420(6) -0.3770(4) 0.0645(3)
H100 H 0.59750 -0.39620 0.09090
H101 H 0.50330 -0.42440 0.04830
H102 H 0.48640 -0.34150 0.07890
C103 C 0.6235(4) 0.7914(3) 0.2862(2)
C104 C 0.6359(5) 0.7794(4) 0.2361(2)
H103 H 0.67940 0.81770 0.21910
C105 C 0.5859(5) 0.7121(4) 0.2095(2)
H104 H 0.59750 0.70580 0.17520
C106 C 0.5221(4) 0.6565(4) 0.2315(2)
C107 C 0.5021(4) 0.6667(3) 0.28297(19)
C108 C 0.5548(4) 0.7355(3) 0.3108(2)
C109 C 0.5298(4) 0.7474(3) 0.3606(2)
H105 H 0.56360 0.79220 0.37900
C110 C 0.4563(4) 0.6949(4) 0.3837(2)
C111 C 0.4082(4) 0.6266(4) 0.3568(2)
C112 C 0.4304(4) 0.6143(3) 0.3072(2)
H106 H 0.39600 0.56920 0.28940
C113 C 0.3309(5) 0.5745(4) 0.3805(2)
H107 H 0.29590 0.52950 0.36270
C114 C 0.3079(5) 0.5893(5) 0.4282(2)
H108 H 0.25890 0.55310 0.44390
C115 C 0.3551(6) 0.6569(4) 0.4550(3)
H109 H 0.33520 0.66730 0.48790
C116 C 0.4302(5) 0.7083(4) 0.4336(2)
H110 H 0.46440 0.75260 0.45230
C117 C 0.6818(4) 0.8625(4) 0.3124(2)
C118 C 0.6503(5) 0.9441(4) 0.3015(2)
H111 H 0.58850 0.95480 0.27760
C119 C 0.7076(5) 1.0086(4) 0.3248(2)
H112 H 0.68500 1.06310 0.31600
C120 C 0.7970(4) 0.9976(3) 0.3608(2)
C121 C 0.8285(5) 0.9179(4) 0.3712(2)
H113 H 0.89040 0.90770 0.39500
C122 C 0.7719(5) 0.8509(4) 0.3475(2)
H114 H 0.79600 0.79650 0.35580
C123 C 0.8580(5) 1.0719(4) 0.3854(2)
C124 C 0.9076(8) 1.1260(5) 0.3471(3)
H115 H 0.95960 1.09360 0.32840
H116 H 0.94890 1.17170 0.36390
H117 H 0.84650 1.14780 0.32400
C125 C 0.7727(6) 1.1236(5) 0.4135(3)
H118 H 0.81160 1.17150 0.42890
H119 H 0.74220 1.08970 0.43930
H120 H 0.71070 1.14220 0.38980
C126 C 0.9512(7) 1.0471(5) 0.4239(3)
H121 H 1.00750 1.01430 0.40810
H122 H 0.91920 1.01450 0.45000
H123 H 0.98740 1.09650 0.43880
C127 C 0.4693(4) 0.5865(4) 0.2023(2)
C128 C 0.5149(5) 0.5090(4) 0.2042(3)
H124 H 0.58300 0.50010 0.22460
C129 C 0.4662(5) 0.4427(4) 0.1777(2)
H125 H 0.50150 0.39020 0.18010
C130 C 0.3659(4) 0.4530(4) 0.14786(19)
C131 C 0.3207(5) 0.5308(4) 0.1457(3)
H126 H 0.25260 0.54000 0.12530
C132 C 0.3704(5) 0.5959(4) 0.1720(3)
H127 H 0.33570 0.64860 0.16910
C133 C 0.3083(5) 0.3821(4) 0.1183(2)
C134 C 0.3685(6) 0.3003(4) 0.1289(3)
H128 H 0.44740 0.30490 0.12090
H129 H 0.33060 0.25710 0.10830
H130 H 0.36620 0.28630 0.16420
C135 C 0.1830(5) 0.3753(5) 0.1314(3)
H131 H 0.14540 0.33050 0.11210
H132 H 0.14370 0.42720 0.12320
H133 H 0.18110 0.36390 0.16700
C136 C 0.3094(5) 0.4021(4) 0.0626(2)
H134 H 0.38770 0.40940 0.05420
H135 H 0.26690 0.45290 0.05510
H136 H 0.27440 0.35690 0.04280
loop_
_geom_bond_atom_site_label_1
_geom_bond_atom_site_label_2
_geom_bond_distance
_geom_bond_site_symmetry_1
_geom_bond_site_symmetry_2
C1 C2 1.325 1_555 1_555
C2 H1 0.950 1_555 1_555
C3 C2 1.424 1_555 1_555
H2 C3 0.949 1_555 1_555
C4 C3 1.373 1_555 1_555
C5 C4 1.451 1_555 1_555
C6 C1 1.458 1_555 1_555
C7 C6 1.390 1_555 1_555
H3 C7 0.949 1_555 1_555
C8 C7 1.391 1_555 1_555
C9 C8 1.432 1_555 1_555
C10 C5 1.390 1_555 1_555
H4 C10 0.949 1_555 1_555
C11 C9 1.421 1_555 1_555
H5 C11 0.950 1_555 1_555
C12 C11 1.359 1_555 1_555
H6 C12 0.950 1_555 1_555
C13 C12 1.405 1_555 1_555
H7 C13 0.951 1_555 1_555
C14 C8 1.443 1_555 1_555
H8 C14 0.950 1_555 1_555
C15 C1 1.495 1_555 1_555
C16 C15 1.373 1_555 1_555
H9 C16 0.949 1_555 1_555
C17 C16 1.372 1_555 1_555
H10 C17 0.950 1_555 1_555
C18 C17 1.374 1_555 1_555
C19 C18 1.377 1_555 1_555
H11 C19 0.950 1_555 1_555
C20 C15 1.356 1_555 1_555
H12 C20 0.951 1_555 1_555
C21 C18 1.530 1_555 1_555
C22 C21 1.543 1_555 1_555
H13 C22 0.979 1_555 1_555
H14 C22 0.980 1_555 1_555
H15 C22 0.979 1_555 1_555
C23 C21 1.526 1_555 1_555
H16 C23 0.979 1_555 1_555
H17 C23 0.980 1_555 1_555
H18 C23 0.980 1_555 1_555
C24 C21 1.505 1_555 1_555
H19 C24 0.979 1_555 1_555
H20 C24 0.981 1_555 1_555
H21 C24 0.980 1_555 1_555
C25 C4 1.476 1_555 1_555
C26 C25 1.374 1_555 1_555
H22 C26 0.951 1_555 1_555
C27 C26 1.377 1_555 1_555
H23 C27 0.951 1_555 1_555
C28 C27 1.379 1_555 1_555
C29 C28 1.374 1_555 1_555
H24 C29 0.950 1_555 1_555
C30 C25 1.375 1_555 1_555
H25 C30 0.949 1_555 1_555
C31 C28 1.539 1_555 1_555
C32 C31 1.511 1_555 1_555
H26 C32 0.980 1_555 1_555
H27 C32 0.980 1_555 1_555
H28 C32 0.979 1_555 1_555
C33 C31 1.517 1_555 1_555
H29 C33 0.981 1_555 1_555
H30 C33 0.980 1_555 1_555
H31 C33 0.982 1_555 1_555
C34 C31 1.500 1_555 1_555
H32 C34 0.981 1_555 1_555
H33 C34 0.980 1_555 1_555
H34 C34 0.981 1_555 1_555
C35 C36 1.363 1_555 1_555
C36 H35 0.949 1_555 1_555
C37 C36 1.416 1_555 1_555
H36 C37 0.950 1_555 1_555
C38 C37 1.372 1_555 1_555
C39 C38 1.425 1_555 1_555
C40 C35 1.429 1_555 1_555
C41 C40 1.396 1_555 1_555
H37 C41 0.950 1_555 1_555
C42 C41 1.397 1_555 1_555
C43 C42 1.408 1_555 1_555
C44 C39 1.401 1_555 1_555
H38 C44 0.950 1_555 1_555
C45 C43 1.421 1_555 1_555
H39 C45 0.949 1_555 1_555
C46 C45 1.367 1_555 1_555
H40 C46 0.950 1_555 1_555
C47 C46 1.419 1_555 1_555
H41 C47 0.949 1_555 1_555
C48 C42 1.441 1_555 1_555
H42 C48 0.950 1_555 1_555
C49 C35 1.509 1_555 1_555
C50 C49 1.384 1_555 1_555
H43 C50 0.950 1_555 1_555
C51 C50 1.386 1_555 1_555
H44 C51 0.950 1_555 1_555
C52 C51 1.404 1_555 1_555
C53 C52 1.373 1_555 1_555
H45 C53 0.950 1_555 1_555
C54 C49 1.384 1_555 1_555
H46 C54 0.951 1_555 1_555
C55 C52 1.529 1_555 1_555
C56 C55 1.529 1_555 1_555
H47 C56 0.979 1_555 1_555
H48 C56 0.980 1_555 1_555
H49 C56 0.979 1_555 1_555
C57 C55 1.537 1_555 1_555
H50 C57 0.980 1_555 1_555
H51 C57 0.981 1_555 1_555
H52 C57 0.979 1_555 1_555
C58 C55 1.541 1_555 1_555
H53 C58 0.980 1_555 1_555
H54 C58 0.980 1_555 1_555
H55 C58 0.979 1_555 1_555
C59 C38 1.481 1_555 1_555
C60 C59 1.381 1_555 1_555
H56 C60 0.950 1_555 1_555
C61 C60 1.375 1_555 1_555
H57 C61 0.949 1_555 1_555
C62 C61 1.381 1_555 1_555
C63 C62 1.367 1_555 1_555
H58 C63 0.950 1_555 1_555
C64 C59 1.388 1_555 1_555
H59 C64 0.951 1_555 1_555
C65 C62 1.538 1_555 1_555
C66 C65 1.558 1_555 1_555
H60 C66 0.979 1_555 1_555
H61 C66 0.980 1_555 1_555
H62 C66 0.980 1_555 1_555
C67 C65 1.512 1_555 1_555
H63 C67 0.980 1_555 1_555
H64 C67 0.978 1_555 1_555
H65 C67 0.980 1_555 1_555
C68 C65 1.511 1_555 1_555
H66 C68 0.980 1_555 1_555
H67 C68 0.980 1_555 1_555
H68 C68 0.980 1_555 1_555
C69 C70 1.367 1_555 1_555
C70 H69 0.950 1_555 1_555
C71 C70 1.421 1_555 1_555
H70 C71 0.948 1_555 1_555
C72 C71 1.342 1_555 1_555
C73 C72 1.453 1_555 1_555
C74 C69 1.451 1_555 1_555
C75 C74 1.412 1_555 1_555
H71 C75 0.948 1_555 1_555
C76 C75 1.396 1_555 1_555
C77 C76 1.446 1_555 1_555
C78 C73 1.395 1_555 1_555
H72 C78 0.950 1_555 1_555
C79 C77 1.435 1_555 1_555
H73 C79 0.950 1_555 1_555
C80 C79 1.348 1_555 1_555
H74 C80 0.949 1_555 1_555
C81 C80 1.420 1_555 1_555
H75 C81 0.950 1_555 1_555
C82 C76 1.428 1_555 1_555
H76 C82 0.950 1_555 1_555
C83 C69 1.479 1_555 1_555
C84 C83 1.390 1_555 1_555
H77 C84 0.950 1_555 1_555
C85 C84 1.381 1_555 1_555
H78 C85 0.951 1_555 1_555
C86 C85 1.371 1_555 1_555
C87 C86 1.368 1_555 1_555
H79 C87 0.950 1_555 1_555
C88 C83 1.378 1_555 1_555
H80 C88 0.950 1_555 1_555
C89 C86 1.540 1_555 1_555
C90 C89 1.528 1_555 1_555
H81 C90 0.979 1_555 1_555
H82 C90 0.979 1_555 1_555
H83 C90 0.980 1_555 1_555
C91 C89 1.543 1_555 1_555
H84 C91 0.980 1_555 1_555
H85 C91 0.981 1_555 1_555
H86 C91 0.980 1_555 1_555
C92 C89 1.531 1_555 1_555
H87 C92 0.980 1_555 1_555
H88 C92 0.980 1_555 1_555
H89 C92 0.979 1_555 1_555
C93 C72 1.508 1_555 1_555
C94 C93 1.373 1_555 1_555
H90 C94 0.950 1_555 1_555
C95 C94 1.386 1_555 1_555
H91 C95 0.951 1_555 1_555
C96 C95 1.395 1_555 1_555
C97 C96 1.393 1_555 1_555
H92 C97 0.950 1_555 1_555
C98 C93 1.369 1_555 1_555
H93 C98 0.949 1_555 1_555
C99 C96 1.530 1_555 1_555
C100 C99 1.538 1_555 1_555
H94 C100 0.979 1_555 1_555
H95 C100 0.980 1_555 1_555
H96 C100 0.980 1_555 1_555
C101 C99 1.516 1_555 1_555
H97 C101 0.980 1_555 1_555
H98 C101 0.980 1_555 1_555
H99 C101 0.980 1_555 1_555
C102 C99 1.538 1_555 1_555
H100 C102 0.979 1_555 1_555
H101 C102 0.981 1_555 1_555
H102 C102 0.980 1_555 1_555
C103 C104 1.383 1_555 1_555
C104 H103 0.950 1_555 1_555
C105 C104 1.411 1_555 1_555
H104 C105 0.950 1_555 1_555
C106 C105 1.347 1_555 1_555
C107 C106 1.435 1_555 1_555
C108 C103 1.420 1_555 1_555
C109 C108 1.410 1_555 1_555
H105 C109 0.951 1_555 1_555
C110 C109 1.401 1_555 1_555
C111 C110 1.419 1_555 1_555
C112 C107 1.402 1_555 1_555
H106 C112 0.949 1_555 1_555
C113 C111 1.436 1_555 1_555
H107 C113 0.951 1_555 1_555
C114 C113 1.356 1_555 1_555
H108 C114 0.950 1_555 1_555
C115 C114 1.405 1_555 1_555
H109 C115 0.950 1_555 1_555
C116 C110 1.420 1_555 1_555
H110 C116 0.950 1_555 1_555
C117 C103 1.494 1_555 1_555
C118 C117 1.403 1_555 1_555
H111 C118 0.951 1_555 1_555
C119 C118 1.373 1_555 1_555
H112 C119 0.950 1_555 1_555
C120 C119 1.388 1_555 1_555
C121 C120 1.371 1_555 1_555
H113 C121 0.948 1_555 1_555
C122 C117 1.380 1_555 1_555
H114 C122 0.950 1_555 1_555
C123 C120 1.530 1_555 1_555
C124 C123 1.511 1_555 1_555
H115 C124 0.981 1_555 1_555
H116 C124 0.980 1_555 1_555
H117 C124 0.981 1_555 1_555
C125 C123 1.558 1_555 1_555
H118 C125 0.980 1_555 1_555
H119 C125 0.979 1_555 1_555
H120 C125 0.981 1_555 1_555
C126 C123 1.507 1_555 1_555
H121 C126 0.979 1_555 1_555
H122 C126 0.981 1_555 1_555
H123 C126 0.981 1_555 1_555
C127 C106 1.491 1_555 1_555
C128 C127 1.370 1_555 1_555
H124 C128 0.950 1_555 1_555
C129 C128 1.392 1_555 1_555
H125 C129 0.950 1_555 1_555
C130 C129 1.389 1_555 1_555
C131 C130 1.373 1_555 1_555
H126 C131 0.950 1_555 1_555
C132 C127 1.381 1_555 1_555
H127 C132 0.951 1_555 1_555
C133 C130 1.529 1_555 1_555
C134 C133 1.525 1_555 1_555
H128 C134 0.980 1_555 1_555
H129 C134 0.981 1_555 1_555
H130 C134 0.980 1_555 1_555
C135 C133 1.559 1_555 1_555
H131 C135 0.980 1_555 1_555
H132 C135 0.980 1_555 1_555
H133 C135 0.978 1_555 1_555
C136 C133 1.536 1_555 1_555
H134 C136 0.981 1_555 1_555
H135 C136 0.980 1_555 1_555
H136 C136 0.980 1_555 1_555
C5 C6 1.428 1_555 1_555
C9 C10 1.402 1_555 1_555
C13 C14 1.349 1_555 1_555
C19 C20 1.390 1_555 1_555
C29 C30 1.398 1_555 1_555
C39 C40 1.461 1_555 1_555
C43 C44 1.393 1_555 1_555
C47 C48 1.347 1_555 1_555
C53 C54 1.385 1_555 1_555
C63 C64 1.383 1_555 1_555
C73 C74 1.422 1_555 1_555
C77 C78 1.393 1_555 1_555
C81 C82 1.367 1_555 1_555
C87 C88 1.399 1_555 1_555
C97 C98 1.396 1_555 1_555
C107 C108 1.458 1_555 1_555
C111 C112 1.397 1_555 1_555
C115 C116 1.381 1_555 1_555
C121 C122 1.405 1_555 1_555
C131 C132 1.379 1_555 1_555
#END
