
#######################################################################
#
#                 Cambridge Crystallographic Data Centre
#                                CCDC
#
#######################################################################
#
# If this CIF has been generated from an entry in the Cambridge
# Structural Database, then it will include bibliographic, chemical,
# crystal, experimental, refinement or atomic coordinate data resulting
# from the CCDC's data processing and validation procedures.
#
#######################################################################

data_CSD_CIF_UKISOX02
_audit_creation_date 2011-03-25
_audit_creation_method CSD-ConQuest-V1
_database_code_CSD UKISOX02
_database_code_depnum_ccdc_archive 'CCDC 810859'
_chemical_formula_sum 'C30 H26'
_chemical_formula_moiety
;
C30 H26
;
_journal_coeditor_code "IUCr BK5096"
_journal_coden_Cambridge 622
_journal_volume 66
_journal_year 2010
_journal_page_first 622
_journal_name_full 'Acta Crystallogr.,Sect.B:Struct.Sci. '
loop_
_publ_author_name
"J.Frey"
"S.I.Khan"
"C.B.Knobler"
"D.A.Lightner"
"E.F.Maverick"
"D.J.Phillips"
"Z.Rappoport"
"K.N.Trueblood"
_chemical_name_systematic
;
trans-1-(4-t-Butylphenyl)-2-(2-benzo[c]phenanthrenyl)ethylene
;
_cell_volume   2102.598
_exptl_crystal_colour 'colorless'
_exptl_crystal_density_diffrn 1.221
_exptl_crystal_description 'rod'
_diffrn_ambient_temperature 100
#These two values have been output from a single CSD field.
_refine_ls_R_factor_gt 0.038
_refine_ls_wR_factor_gt 0.038
_symmetry_cell_setting monoclinic
_symmetry_space_group_name_H-M 'P 21/c'
_symmetry_Int_Tables_number 14
loop_
_symmetry_equiv_pos_site_id
_symmetry_equiv_pos_as_xyz
1 x,y,z
2 -x,1/2+y,1/2-z
3 -x,-y,-z
4 x,-1/2-y,-1/2+z
_cell_length_a 15.8991(5)
_cell_length_b 15.3550(5)
_cell_length_c 8.6220(3)
_cell_angle_alpha 90
_cell_angle_beta 92.677(2)
_cell_angle_gamma 90
_cell_formula_units_Z 4
loop_
_atom_type_symbol
_atom_type_radius_bond
C 0.68
H 0.23
loop_
_atom_site_label
_atom_site_type_symbol
_atom_site_fract_x
_atom_site_fract_y
_atom_site_fract_z
C1 C 0.62021(8) 0.42258(9) 0.64883(17)
H1 H 0.67210 0.45320 0.65920
C2 C 0.59893(8) 0.37994(8) 0.50999(15)
C3 C 0.52233(8) 0.33516(8) 0.50169(16)
H2 H 0.50620 0.30450 0.40930
C4 C 0.46933(8) 0.33427(8) 0.62457(16)
H3 H 0.41760 0.30340 0.61450
C5 C 0.43668(8) 0.37920(8) 0.89683(16)
H4 H 0.46250 0.39740 0.99300
C6 C 0.35525(8) 0.35750(8) 0.89793(15)
H5 H 0.32910 0.33870 0.80240
C7 C 0.33753(8) 0.36490(8) 1.18708(16)
H6 H 0.39670 0.37060 1.20510
C8 C 0.28626(8) 0.36131(8) 1.30947(16)
H7 H 0.31080 0.36170 1.41210
C9 C 0.14639(8) 0.34415(8) 1.41692(15)
H8 H 0.17090 0.34540 1.51950
C10 C 0.06258(8) 0.33003(8) 1.39369(15)
H9 H 0.03000 0.31450 1.47910
C11 C -0.06643(8) 0.32619(8) 1.22533(16)
H10 H -0.09680 0.30850 1.31230
C12 C -0.10820(8) 0.33957(8) 1.08702(16)
H11 H -0.16670 0.32700 1.07610
C13 C -0.11138(8) 0.39468(8) 0.81882(16)
H12 H -0.17000 0.38290 0.80950
C14 C -0.07299(8) 0.43297(8) 0.69797(16)
H13 H -0.10410 0.44560 0.60390
C15 C 0.01288(8) 0.45336(8) 0.71444(15)
H14 H 0.03930 0.48270 0.63280
C16 C 0.05929(8) 0.43152(8) 0.84683(15)
H15 H 0.11720 0.44700 0.85570
C17 C 0.02302(8) 0.38640(7) 0.97091(14)
C18 C -0.06545(8) 0.37224(8) 0.95770(15)
C19 C 0.06923(8) 0.36148(7) 1.11381(14)
C20 C 0.02255(8) 0.33817(8) 1.24275(15)
C21 C 0.16045(8) 0.36050(7) 1.13432(15)
C22 C 0.19780(8) 0.35709(8) 1.28807(15)
C23 C 0.21598(8) 0.35688(8) 1.01037(15)
H16 H 0.19260 0.35210 0.90730
C24 C 0.30260(8) 0.36006(8) 1.03312(15)
C25 C 0.56743(8) 0.42134(9) 0.77224(17)
H17 H 0.58420 0.45090 0.86540
C26 C 0.49046(8) 0.37788(8) 0.76316(15)
C27 C 0.65886(8) 0.37682(8) 0.37563(15)
C28 C 0.60999(9) 0.37769(11) 0.21802(17)
H18 H 0.64970 0.38060 0.13460
H19 H 0.57280 0.42860 0.21200
H20 H 0.57620 0.32450 0.20670
C29 C 0.71881(9) 0.45485(10) 0.37838(17)
H21 H 0.75430 0.45380 0.47440
H22 H 0.68610 0.50890 0.37360
H23 H 0.75450 0.45180 0.28890
C30 C 0.71012(11) 0.29240(11) 0.3915(2)
H24 H 0.74730 0.28750 0.30440
H25 H 0.67180 0.24240 0.39100
H26 H 0.74410 0.29340 0.48930
loop_
_geom_bond_atom_site_label_1
_geom_bond_atom_site_label_2
_geom_bond_distance
_geom_bond_site_symmetry_1
_geom_bond_site_symmetry_2
C1 H1 0.950 1_555 1_555
C2 C1 1.392 1_555 1_555
C3 C2 1.397 1_555 1_555
H2 C3 0.950 1_555 1_555
C4 C3 1.384 1_555 1_555
H3 C4 0.950 1_555 1_555
C5 H4 0.950 1_555 1_555
C6 C5 1.337 1_555 1_555
H5 C6 0.950 1_555 1_555
C7 H6 0.950 1_555 1_555
C8 C7 1.364 1_555 1_555
H7 C8 0.950 1_555 1_555
C9 H8 0.950 1_555 1_555
C10 C9 1.356 1_555 1_555
H9 C10 0.950 1_555 1_555
C11 H10 0.950 1_555 1_555
C12 C11 1.353 1_555 1_555
H11 C12 0.950 1_555 1_555
C13 H12 0.949 1_555 1_555
C14 C13 1.365 1_555 1_555
H13 C14 0.950 1_555 1_555
C15 C14 1.401 1_555 1_555
H14 C15 0.950 1_555 1_555
C16 C15 1.372 1_555 1_555
H15 C16 0.951 1_555 1_555
C17 C16 1.419 1_555 1_555
C18 C12 1.424 1_555 1_555
C19 C17 1.456 1_555 1_555
C20 C10 1.427 1_555 1_555
C21 C19 1.453 1_555 1_555
C22 C8 1.411 1_555 1_555
C23 C21 1.419 1_555 1_555
H16 C23 0.950 1_555 1_555
C24 C6 1.467 1_555 1_555
C25 C1 1.386 1_555 1_555
H17 C25 0.950 1_555 1_555
C26 C4 1.397 1_555 1_555
C27 C2 1.535 1_555 1_555
C28 C27 1.534 1_555 1_555
H18 C28 0.980 1_555 1_555
H19 C28 0.980 1_555 1_555
H20 C28 0.980 1_555 1_555
C29 C27 1.531 1_555 1_555
H21 C29 0.980 1_555 1_555
H22 C29 0.979 1_555 1_555
H23 C29 0.980 1_555 1_555
C30 C27 1.534 1_555 1_555
H24 C30 0.980 1_555 1_555
H25 C30 0.980 1_555 1_555
H26 C30 0.980 1_555 1_555
C5 C26 1.467 1_555 1_555
C7 C24 1.417 1_555 1_555
C9 C22 1.424 1_555 1_555
C11 C20 1.428 1_555 1_555
C13 C18 1.416 1_555 1_555
C17 C18 1.423 1_555 1_555
C19 C20 1.411 1_555 1_555
C21 C22 1.428 1_555 1_555
C23 C24 1.383 1_555 1_555
C25 C26 1.393 1_555 1_555
#END
