
#######################################################################
#
#                 Cambridge Crystallographic Data Centre
#                                CCDC
#
#######################################################################
#
# If this CIF has been generated from an entry in the Cambridge
# Structural Database, then it will include bibliographic, chemical,
# crystal, experimental, refinement or atomic coordinate data resulting
# from the CCDC's data processing and validation procedures.
#
#######################################################################

data_CSD_CIF_UKISOX04
_audit_creation_date 2011-03-25
_audit_creation_method CSD-ConQuest-V1
_database_code_CSD UKISOX04
_database_code_depnum_ccdc_archive 'CCDC 810861'
_chemical_formula_sum 'C30 H26'
_chemical_formula_moiety
;
C30 H26
;
_journal_coeditor_code "IUCr BK5096"
_journal_coden_Cambridge 622
_journal_volume 66
_journal_year 2010
_journal_page_first 622
_journal_name_full 'Acta Crystallogr.,Sect.B:Struct.Sci. '
loop_
_publ_author_name
"J.Frey"
"S.I.Khan"
"C.B.Knobler"
"D.A.Lightner"
"E.F.Maverick"
"D.J.Phillips"
"Z.Rappoport"
"K.N.Trueblood"
_chemical_name_systematic
;
trans-1-(4-t-Butylphenyl)-2-(2-benzo[c]phenanthrenyl)ethylene
;
_cell_volume   2171.130
_exptl_crystal_colour 'colorless'
_exptl_crystal_density_diffrn 1.182
_exptl_crystal_description 'rod'
_diffrn_ambient_temperature 296
_diffrn_radiation_source 'CuKalpha radiation'
#These two values have been output from a single CSD field.
_refine_ls_R_factor_gt 0.0457
_refine_ls_wR_factor_gt 0.0457
_symmetry_cell_setting monoclinic
_symmetry_space_group_name_H-M 'P 21/c'
_symmetry_Int_Tables_number 14
loop_
_symmetry_equiv_pos_site_id
_symmetry_equiv_pos_as_xyz
1 x,y,z
2 -x,1/2+y,1/2-z
3 -x,-y,-z
4 x,-1/2-y,-1/2+z
_cell_length_a 15.9882(3)
_cell_length_b 15.7045(3)
_cell_length_c 8.6555(2)
_cell_angle_alpha 90
_cell_angle_beta 92.549(1)
_cell_angle_gamma 90
_cell_formula_units_Z 4
loop_
_atom_type_symbol
_atom_type_radius_bond
C 0.68
H 0.23
loop_
_atom_site_label
_atom_site_type_symbol
_atom_site_fract_x
_atom_site_fract_y
_atom_site_fract_z
C1 C 0.62417(12) 0.42062(15) 0.6595(2)
H1 H 0.67470 0.44980 0.67060
C2 C 0.60417(10) 0.37973(12) 0.5209(2)
C3 C 0.52814(11) 0.33634(14) 0.5126(2)
H2 H 0.51260 0.30710 0.42240
C4 C 0.47510(11) 0.33544(13) 0.6342(2)
H3 H 0.42480 0.30580 0.62370
C5 C 0.44099(11) 0.37864(13) 0.9039(2)
H4 H 0.46600 0.39500 0.99830
C6 C 0.36031(11) 0.35872(12) 0.9041(2)
H5 H 0.33480 0.34220 0.81010
C7 C 0.34079(12) 0.36343(14) 1.1915(2)
H6 H 0.39830 0.36850 1.20980
C8 C 0.28995(13) 0.35924(13) 1.3123(2)
H7 H 0.31370 0.35870 1.41230
C9 C 0.15037(13) 0.34220(13) 1.4187(2)
H8 H 0.17380 0.34270 1.51900
C10 C 0.06777(13) 0.32875(12) 1.3941(2)
H9 H 0.03570 0.31350 1.47670
C11 C -0.05951(13) 0.32447(13) 1.2249(3)
H10 H -0.08940 0.30650 1.30860
C12 C -0.10010(12) 0.33770(14) 1.0882(3)
H11 H -0.15670 0.32430 1.07650
C13 C -0.10295(12) 0.39511(14) 0.8237(3)
H12 H -0.15990 0.38330 0.81360
C14 C -0.06533(13) 0.43433(15) 0.7059(3)
H13 H -0.09560 0.44750 0.61480
C15 C 0.01926(12) 0.45456(13) 0.7233(2)
H14 H 0.04500 0.48380 0.64490
C16 C 0.06494(11) 0.43204(12) 0.8537(2)
H15 H 0.12120 0.44720 0.86280
C17 C 0.02957(11) 0.38634(11) 0.9757(2)
C18 C -0.05829(11) 0.37166(12) 0.9612(2)
C19 C 0.07501(11) 0.36138(11) 1.1170(2)
C20 C 0.02854(12) 0.33736(11) 1.2445(2)
C21 C 0.16586(11) 0.36066(11) 1.1387(2)
C22 C 0.20186(12) 0.35568(12) 1.2912(2)
C23 C 0.22121(11) 0.35810(11) 1.0159(2)
H16 H 0.19870 0.35480 0.91510
C24 C 0.30728(11) 0.36026(12) 1.0389(2)
C25 C 0.57164(12) 0.41944(15) 0.7812(3)
H17 H 0.58790 0.44730 0.87240
C26 C 0.49497(11) 0.37774(12) 0.7717(2)
C27 C 0.66379(11) 0.37705(13) 0.3878(2)
C28 C 0.61602(17) 0.3799(2) 0.2310(3)
H18 H 0.65500 0.37810 0.14990
H19 H 0.58410 0.43160 0.22290
H20 H 0.57900 0.33190 0.22170
C29 C 0.72360(18) 0.4522(2) 0.3908(3)
H21 H 0.76000 0.44790 0.30580
H22 H 0.75640 0.45210 0.48640
H23 H 0.69220 0.50430 0.38210
C30 C 0.71286(18) 0.2947(2) 0.3980(4)
H24 H 0.75060 0.29210 0.31490
H25 H 0.67490 0.24730 0.39050
H26 H 0.74420 0.29230 0.49520
loop_
_geom_bond_atom_site_label_1
_geom_bond_atom_site_label_2
_geom_bond_distance
_geom_bond_site_symmetry_1
_geom_bond_site_symmetry_2
C1 H1 0.930 1_555 1_555
C2 C1 1.386 1_555 1_555
C3 C2 1.393 1_555 1_555
H2 C3 0.930 1_555 1_555
C4 C3 1.381 1_555 1_555
H3 C4 0.930 1_555 1_555
C5 H4 0.930 1_555 1_555
C6 C5 1.327 1_555 1_555
H5 C6 0.931 1_555 1_555
C7 H6 0.929 1_555 1_555
C8 C7 1.354 1_555 1_555
H7 C8 0.930 1_555 1_555
C9 H8 0.930 1_555 1_555
C10 C9 1.345 1_555 1_555
H9 C10 0.930 1_555 1_555
C11 H10 0.929 1_555 1_555
C12 C11 1.340 1_555 1_555
H11 C12 0.930 1_555 1_555
C13 H12 0.930 1_555 1_555
C14 C13 1.355 1_555 1_555
H13 C14 0.930 1_555 1_555
C15 C14 1.391 1_555 1_555
H14 C15 0.930 1_555 1_555
C16 C15 1.363 1_555 1_555
H15 C16 0.930 1_555 1_555
C17 C16 1.415 1_555 1_555
C18 C12 1.416 1_555 1_555
C19 C17 1.449 1_555 1_555
C20 C10 1.420 1_555 1_555
C21 C19 1.456 1_555 1_555
C22 C8 1.413 1_555 1_555
C23 C21 1.414 1_555 1_555
H16 C23 0.930 1_555 1_555
C24 C6 1.473 1_555 1_555
C25 C1 1.376 1_555 1_555
H17 C25 0.929 1_555 1_555
C26 C4 1.387 1_555 1_555
C27 C2 1.528 1_555 1_555
C28 C27 1.528 1_555 1_555
H18 C28 0.960 1_555 1_555
H19 C28 0.960 1_555 1_555
H20 C28 0.960 1_555 1_555
C29 C27 1.518 1_555 1_555
H21 C29 0.961 1_555 1_555
H22 C29 0.960 1_555 1_555
H23 C29 0.961 1_555 1_555
C30 C27 1.513 1_555 1_555
H24 C30 0.960 1_555 1_555
H25 C30 0.961 1_555 1_555
H26 C30 0.961 1_555 1_555
C5 C26 1.464 1_555 1_555
C7 C24 1.404 1_555 1_555
C9 C22 1.422 1_555 1_555
C11 C20 1.425 1_555 1_555
C13 C18 1.409 1_555 1_555
C17 C18 1.424 1_555 1_555
C19 C20 1.409 1_555 1_555
C21 C22 1.418 1_555 1_555
C23 C24 1.382 1_555 1_555
C25 C26 1.389 1_555 1_555
#END
