
#######################################################################
#
#                 Cambridge Crystallographic Data Centre
#                                CCDC
#
#######################################################################
#
# If this CIF has been generated from an entry in the Cambridge
# Structural Database, then it will include bibliographic, chemical,
# crystal, experimental, refinement or atomic coordinate data resulting
# from the CCDC's data processing and validation procedures.
#
#######################################################################

data_CSD_CIF_UKISOX03
_audit_creation_date 2011-03-25
_audit_creation_method CSD-ConQuest-V1
_database_code_CSD UKISOX03
_database_code_depnum_ccdc_archive 'CCDC 810860'
_chemical_formula_sum 'C30 H26'
_chemical_formula_moiety
;
C30 H26
;
_journal_coeditor_code "IUCr BK5096"
_journal_coden_Cambridge 622
_journal_volume 66
_journal_year 2010
_journal_page_first 622
_journal_name_full 'Acta Crystallogr.,Sect.B:Struct.Sci. '
loop_
_publ_author_name
"J.Frey"
"S.I.Khan"
"C.B.Knobler"
"D.A.Lightner"
"E.F.Maverick"
"D.J.Phillips"
"Z.Rappoport"
"K.N.Trueblood"
_chemical_name_systematic
;
trans-1-(4-t-Butylphenyl)-2-(2-benzo[c]phenanthrenyl)ethylene
;
_cell_volume   2174.955
_exptl_crystal_colour 'colorless'
_exptl_crystal_density_diffrn 1.18
_exptl_crystal_description 'needle'
_diffrn_ambient_temperature 293
_diffrn_radiation_source 'MoKalpha radiation'
#These two values have been output from a single CSD field.
_refine_ls_R_factor_gt 0.0551
_refine_ls_wR_factor_gt 0.0551
_symmetry_cell_setting monoclinic
_symmetry_space_group_name_H-M 'P 21/c'
_symmetry_Int_Tables_number 14
loop_
_symmetry_equiv_pos_site_id
_symmetry_equiv_pos_as_xyz
1 x,y,z
2 -x,1/2+y,1/2-z
3 -x,-y,-z
4 x,-1/2-y,-1/2+z
_cell_length_a 15.990(2)
_cell_length_b 15.712(2)
_cell_length_c 8.6656(11)
_cell_angle_alpha 90
_cell_angle_beta 92.544(2)
_cell_angle_gamma 90
_cell_formula_units_Z 4
loop_
_atom_type_symbol
_atom_type_radius_bond
C 0.68
H 0.23
loop_
_atom_site_label
_atom_site_type_symbol
_atom_site_fract_x
_atom_site_fract_y
_atom_site_fract_z
C1 C 0.62421(11) 0.42050(14) 0.6594(2)
H1 H 0.67470 0.44970 0.67040
C2 C 0.60409(10) 0.37960(11) 0.5212(2)
C3 C 0.52823(11) 0.33626(13) 0.5132(2)
H2 H 0.51280 0.30680 0.42330
C4 C 0.47501(11) 0.33551(12) 0.6343(2)
H3 H 0.42460 0.30610 0.62350
C5 C 0.44087(11) 0.37873(12) 0.9042(2)
H4 H 0.46580 0.39540 0.99840
C6 C 0.36029(10) 0.35861(11) 0.9045(2)
H5 H 0.33490 0.34190 0.81070
C7 C 0.34099(11) 0.36330(13) 1.1917(2)
H6 H 0.39850 0.36810 1.21000
C8 C 0.28980(12) 0.35921(12) 1.3126(2)
H7 H 0.31350 0.35880 1.41260
C9 C 0.14999(13) 0.34211(11) 1.4185(2)
H8 H 0.17330 0.34260 1.51880
C10 C 0.06775(12) 0.32867(11) 1.3944(2)
H9 H 0.03570 0.31340 1.47700
C11 C -0.05944(12) 0.32435(12) 1.2248(3)
H10 H -0.08930 0.30620 1.30840
C12 C -0.10022(12) 0.33771(13) 1.0881(3)
H11 H -0.15680 0.32450 1.07640
C13 C -0.10287(12) 0.39500(13) 0.8243(2)
H12 H -0.15980 0.38300 0.81410
C14 C -0.06522(13) 0.43440(13) 0.7065(2)
H13 H -0.09560 0.44780 0.61570
C15 C 0.01929(12) 0.45446(12) 0.7234(2)
H14 H 0.04500 0.48340 0.64480
C16 C 0.06517(11) 0.43218(11) 0.85410(19)
H15 H 0.12140 0.44750 0.86330
C17 C 0.02965(10) 0.38653(10) 0.97573(19)
C18 C -0.05815(11) 0.37167(11) 0.9616(2)
C19 C 0.07512(10) 0.36146(10) 1.11728(19)
C20 C 0.02833(11) 0.33737(10) 1.2444(2)
C21 C 0.16562(10) 0.36058(10) 1.13855(19)
C22 C 0.20204(11) 0.35564(11) 1.2912(2)
C23 C 0.22144(10) 0.35824(10) 1.01601(19)
H16 H 0.19900 0.35520 0.91530
C24 C 0.30721(10) 0.36024(11) 1.0387(2)
C25 C 0.57164(11) 0.41926(14) 0.7815(2)
H17 H 0.58800 0.44710 0.87260
C26 C 0.49506(10) 0.37763(11) 0.7719(2)
C27 C 0.66384(11) 0.37694(12) 0.3880(2)
C28 C 0.61596(16) 0.3800(2) 0.2314(3)
H18 H 0.65500 0.38110 0.15040
H19 H 0.58190 0.43040 0.22560
H20 H 0.58090 0.33060 0.21990
C29 C 0.72353(16) 0.4523(2) 0.3911(3)
H21 H 0.75830 0.45060 0.48430
H22 H 0.69200 0.50430 0.38760
H23 H 0.75800 0.44950 0.30340
C30 C 0.71294(17) 0.29478(18) 0.3982(3)
H24 H 0.75040 0.29210 0.31490
H25 H 0.67500 0.24740 0.39140
H26 H 0.74460 0.29260 0.49500
loop_
_geom_bond_atom_site_label_1
_geom_bond_atom_site_label_2
_geom_bond_distance
_geom_bond_site_symmetry_1
_geom_bond_site_symmetry_2
C1 H1 0.930 1_555 1_555
C2 C1 1.384 1_555 1_555
C3 C2 1.390 1_555 1_555
H2 C3 0.930 1_555 1_555
C4 C3 1.380 1_555 1_555
H3 C4 0.930 1_555 1_555
C5 H4 0.930 1_555 1_555
C6 C5 1.327 1_555 1_555
H5 C6 0.930 1_555 1_555
C7 H6 0.929 1_555 1_555
C8 C7 1.359 1_555 1_555
H7 C8 0.930 1_555 1_555
C9 H8 0.930 1_555 1_555
C10 C9 1.339 1_555 1_555
H9 C10 0.930 1_555 1_555
C11 H10 0.930 1_555 1_555
C12 C11 1.343 1_555 1_555
H11 C12 0.929 1_555 1_555
C13 H12 0.930 1_555 1_555
C14 C13 1.357 1_555 1_555
H13 C14 0.930 1_555 1_555
C15 C14 1.389 1_555 1_555
H14 C15 0.930 1_555 1_555
C16 C15 1.367 1_555 1_555
H15 C16 0.931 1_555 1_555
C17 C16 1.415 1_555 1_555
C18 C12 1.416 1_555 1_555
C19 C17 1.452 1_555 1_555
C20 C10 1.426 1_555 1_555
C21 C19 1.451 1_555 1_555
C22 C8 1.408 1_555 1_555
C23 C21 1.418 1_555 1_555
H16 C23 0.930 1_555 1_555
C24 C6 1.470 1_555 1_555
C25 C1 1.380 1_555 1_555
H17 C25 0.930 1_555 1_555
C26 C4 1.389 1_555 1_555
C27 C2 1.531 1_555 1_555
C28 C27 1.529 1_555 1_555
H18 C28 0.960 1_555 1_555
H19 C28 0.961 1_555 1_555
H20 C28 0.960 1_555 1_555
C29 C27 1.520 1_555 1_555
H21 C29 0.960 1_555 1_555
H22 C29 0.960 1_555 1_555
H23 C29 0.959 1_555 1_555
C30 C27 1.511 1_555 1_555
H24 C30 0.959 1_555 1_555
H25 C30 0.960 1_555 1_555
H26 C30 0.961 1_555 1_555
C5 C26 1.468 1_555 1_555
C7 C24 1.410 1_555 1_555
C9 C22 1.427 1_555 1_555
C11 C20 1.421 1_555 1_555
C13 C18 1.409 1_555 1_555
C17 C18 1.423 1_555 1_555
C19 C20 1.411 1_555 1_555
C21 C22 1.424 1_555 1_555
C23 C24 1.377 1_555 1_555
C25 C26 1.387 1_555 1_555
#END
