
#######################################################################
#
#                 Cambridge Crystallographic Data Centre
#                                CCDC
#
#######################################################################
#
# If this CIF has been generated from an entry in the Cambridge
# Structural Database, then it will include bibliographic, chemical,
# crystal, experimental, refinement or atomic coordinate data resulting
# from the CCDC's data processing and validation procedures.
#
#######################################################################

data_CSD_CIF_UPAJIG
_audit_creation_date 2016-06-07
_audit_creation_method CSD-ConQuest-V1
_database_code_CSD UPAJIG
_database_code_depnum_ccdc_archive 'CCDC 1450739'
_chemical_formula_sum 'C40 H22'
_chemical_formula_moiety
;
C40 H22
;
_journal_coden_Cambridge 1088
_journal_volume 27
_journal_year 2016
_journal_page_first 2081
_journal_name_full 'Synlett '
loop_
_publ_author_name
"Yuuta Yanoa"
"H.Itoa"
"Y.Segawaa"
"K.Itami"
_chemical_name_systematic
;
hexabenzo[a,c,fg,j,l,op]tetracene
;
_cell_volume   2394.088
_exptl_crystal_colour 'colorless'
_exptl_crystal_density_diffrn 1.394
_exptl_crystal_description 'Block'
_diffrn_ambient_temperature 103
#These two values have been output from a single CSD field.
_refine_ls_R_factor_gt 0.0832
_refine_ls_wR_factor_gt 0.0832
_symmetry_cell_setting monoclinic
_symmetry_space_group_name_H-M 'P 21/a'
_symmetry_Int_Tables_number 14
loop_
_symmetry_equiv_pos_site_id
_symmetry_equiv_pos_as_xyz
1 x,y,z
2 1/2-x,1/2+y,-z
3 -x,-y,-z
4 -1/2+x,-1/2-y,z
_cell_length_a 7.839(4)
_cell_length_b 26.538(11)
_cell_length_c 11.640(5)
_cell_angle_alpha 90
_cell_angle_beta 98.627(12)
_cell_angle_gamma 90
_cell_formula_units_Z 4
loop_
_atom_type_symbol
_atom_type_radius_bond
C 0.68
H 0.23
loop_
_atom_site_label
_atom_site_type_symbol
_atom_site_fract_x
_atom_site_fract_y
_atom_site_fract_z
C1 C 0.8463(3) 0.17747(10) 0.8482(2)
C2 C 0.9264(4) 0.16045(11) 0.9584(2)
H1 H 0.91680 0.12600 0.97880
C3 C 1.0182(4) 0.19306(11) 1.0365(2)
H2 H 1.07020 0.18100 1.11040
C4 C 1.0352(4) 0.24364(11) 1.0076(2)
H3 H 1.10080 0.26580 1.06110
C5 C 0.9572(3) 0.26133(10) 0.9018(2)
H4 H 0.97070 0.29570 0.88260
C6 C 0.8569(3) 0.22931(10) 0.8206(2)
C7 C 0.7904(3) 0.24665(10) 0.7034(2)
C8 C 0.7538(3) 0.2996(1) 0.6750(2)
C9 C 0.7160(3) 0.33488(10) 0.7582(2)
H5 H 0.72390 0.32510 0.83730
C10 C 0.6674(4) 0.38379(10) 0.7257(2)
H6 H 0.64440 0.40710 0.78340
C11 C 0.6517(3) 0.39933(10) 0.6112(2)
H7 H 0.62050 0.43320 0.59180
C12 C 0.6815(3) 0.36539(10) 0.5229(2)
C13 C 0.7352(3) 0.31561(9) 0.5568(2)
C14 C 0.6759(3) 0.38052(9) 0.4016(2)
C15 C 0.5665(3) 0.42159(10) 0.3468(2)
C16 C 0.4182(4) 0.43812(10) 0.3931(2)
H8 H 0.40160 0.42750 0.46860
C17 C 0.2977(4) 0.46944(11) 0.3300(3)
H9 H 0.19900 0.47990 0.36220
C18 C 0.3204(4) 0.48569(11) 0.2198(2)
H10 H 0.23680 0.50690 0.17640
C19 C 0.4642(4) 0.47100(11) 0.1735(2)
H11 H 0.48030 0.48300 0.09900
C20 C 0.5881(4) 0.43847(11) 0.2348(2)
C21 C 0.7367(4) 0.42099(10) 0.1836(2)
C22 C 0.7947(4) 0.44438(10) 0.0880(2)
H12 H 0.73480 0.47310 0.05420
C23 C 0.9347(4) 0.42710(11) 0.0419(2)
H13 H 0.96990 0.44340 -0.02330
C24 C 1.0244(4) 0.38546(11) 0.0917(2)
H14 H 1.12320 0.37370 0.06150
C25 C 0.9717(4) 0.36122(10) 0.1841(2)
H15 H 1.03630 0.33320 0.21760
C26 C 0.8237(3) 0.37664(10) 0.2312(2)
C27 C 0.7690(3) 0.35231(10) 0.3319(2)
C28 C 0.8005(3) 0.29883(9) 0.3597(2)
C29 C 0.8371(3) 0.2634(1) 0.2770(2)
H16 H 0.85570 0.27450 0.20230
C30 C 0.8465(4) 0.21214(10) 0.3033(2)
H17 H 0.87350 0.18890 0.24660
C31 C 0.8171(3) 0.19453(10) 0.4103(2)
H18 H 0.82470 0.15940 0.42620
C32 C 0.7762(3) 0.22791(10) 0.4959(2)
C33 C 0.7716(3) 0.28067(10) 0.4702(2)
C34 C 0.7618(3) 0.21151(10) 0.6138(2)
C35 C 0.7220(3) 0.15946(10) 0.6437(2)
C36 C 0.6298(3) 0.12598(10) 0.5607(2)
H19 H 0.59780 0.13700 0.48280
C37 C 0.5860(4) 0.07781(10) 0.5913(2)
H20 H 0.52560 0.05610 0.53440
C38 C 0.6302(4) 0.06113(11) 0.7053(2)
H21 H 0.60320 0.02770 0.72570
C39 C 0.7129(4) 0.09318(11) 0.7882(2)
H22 H 0.73970 0.08160 0.86600
C40 C 0.7595(3) 0.1427(1) 0.7615(2)
loop_
_geom_bond_atom_site_label_1
_geom_bond_atom_site_label_2
_geom_bond_distance
_geom_bond_site_symmetry_1
_geom_bond_site_symmetry_2
C1 C2 1.415 1_555 1_555
C2 H1 0.950 1_555 1_555
C3 C2 1.377 1_555 1_555
H2 C3 0.950 1_555 1_555
C4 C3 1.395 1_555 1_555
H3 C4 0.950 1_555 1_555
C5 C4 1.373 1_555 1_555
H4 C5 0.949 1_555 1_555
C6 C1 1.418 1_555 1_555
C7 C6 1.460 1_555 1_555
C8 C7 1.462 1_555 1_555
C9 C8 1.410 1_555 1_555
H5 C9 0.950 1_555 1_555
C10 C9 1.389 1_555 1_555
H6 C10 0.950 1_555 1_555
C11 C10 1.383 1_555 1_555
H7 C11 0.950 1_555 1_555
C12 C11 1.412 1_555 1_555
C13 C8 1.426 1_555 1_555
C14 C12 1.462 1_555 1_555
C15 C14 1.472 1_555 1_555
C16 C15 1.422 1_555 1_555
H8 C16 0.950 1_555 1_555
C17 C16 1.384 1_555 1_555
H9 C17 0.950 1_555 1_555
C18 C17 1.390 1_555 1_555
H10 C18 0.950 1_555 1_555
C19 C18 1.377 1_555 1_555
H11 C19 0.950 1_555 1_555
C20 C15 1.412 1_555 1_555
C21 C20 1.461 1_555 1_555
C22 C21 1.408 1_555 1_555
H12 C22 0.949 1_555 1_555
C23 C22 1.371 1_555 1_555
H13 C23 0.950 1_555 1_555
C24 C23 1.389 1_555 1_555
H14 C24 0.950 1_555 1_555
C25 C24 1.369 1_555 1_555
H15 C25 0.950 1_555 1_555
C26 C21 1.430 1_555 1_555
C27 C14 1.389 1_555 1_555
C28 C27 1.468 1_555 1_555
C29 C28 1.406 1_555 1_555
H16 C29 0.950 1_555 1_555
C30 C29 1.394 1_555 1_555
H17 C30 0.950 1_555 1_555
C31 C30 1.382 1_555 1_555
H18 C31 0.951 1_555 1_555
C32 C31 1.406 1_555 1_555
C33 C13 1.430 1_555 1_555
C34 C7 1.392 1_555 1_555
C35 C34 1.469 1_555 1_555
C36 C35 1.427 1_555 1_555
H19 C36 0.950 1_555 1_555
C37 C36 1.384 1_555 1_555
H20 C37 0.949 1_555 1_555
C38 C37 1.392 1_555 1_555
H21 C38 0.950 1_555 1_555
C39 C38 1.374 1_555 1_555
H22 C39 0.950 1_555 1_555
C40 C1 1.458 1_555 1_555
C5 C6 1.418 1_555 1_555
C12 C13 1.424 1_555 1_555
C19 C20 1.411 1_555 1_555
C25 C26 1.416 1_555 1_555
C26 C27 1.458 1_555 1_555
C28 C33 1.423 1_555 1_555
C32 C33 1.431 1_555 1_555
C32 C34 1.460 1_555 1_555
C35 C40 1.430 1_555 1_555
C39 C40 1.411 1_555 1_555
#END
