
#######################################################################
#
#                 Cambridge Crystallographic Data Centre
#                                CCDC
#
#######################################################################
#
# If this CIF has been generated from an entry in the Cambridge
# Structural Database, then it will include bibliographic, chemical,
# crystal, experimental, refinement or atomic coordinate data resulting
# from the CCDC's data processing and validation procedures.
#
#######################################################################

data_CSD_CIF_URITIA
_audit_creation_date 2016-07-04
_audit_creation_method CSD-ConQuest-V1
_database_code_CSD URITIA
_database_code_depnum_ccdc_archive 'CCDC 909493'
_chemical_formula_sum 'C38 H32'
_chemical_formula_moiety
;
C38 H32
;
_journal_coden_Cambridge 35
_journal_volume 78
_journal_year 2013
_journal_page_first 2266
_journal_name_full 'J.Org.Chem. '
loop_
_publ_author_name
"A.Pradhan"
"P.Dechambenoit"
"H.Bock"
"F.Durola"
_chemical_name_systematic
;
2,13-Di-t-butyltribenzo[fg,ij,rst]pentaphene
;
_cell_volume  17083.400
_exptl_crystal_colour 'colorless'
_exptl_crystal_density_diffrn 1.14
_exptl_crystal_description 'needle'
_diffrn_ambient_temperature 120
#These two values have been output from a single CSD field.
_refine_ls_R_factor_gt 0.1536
_refine_ls_wR_factor_gt 0.1536
_symmetry_cell_setting monoclinic
_symmetry_space_group_name_H-M 'C 2'
_symmetry_Int_Tables_number 5
loop_
_symmetry_equiv_pos_site_id
_symmetry_equiv_pos_as_xyz
1 x,y,z
2 -x,y,-z
3 1/2+x,1/2+y,z
4 1/2-x,1/2+y,-z
_cell_length_a 55.846(12)
_cell_length_b 6.9266(14)
_cell_length_c 44.338(10)
_cell_angle_alpha 90
_cell_angle_beta 95.087(17)
_cell_angle_gamma 90
_cell_formula_units_Z 24
loop_
_atom_type_symbol
_atom_type_radius_bond
C 0.68
H 0.23
loop_
_atom_site_label
_atom_site_type_symbol
_atom_site_fract_x
_atom_site_fract_y
_atom_site_fract_z
C1 C 0.2721(2) 0.764(3) 0.4510(2)
H1 H 0.28360 0.68180 0.44240
H2 H 0.27510 0.76250 0.47270
H3 H 0.27360 0.89300 0.44370
C2 C 0.4113(3) 0.784(5) 0.2574(4)
H4 H 0.42700 0.79320 0.26820
H5 H 0.40930 0.88810 0.24300
H6 H 0.40980 0.66310 0.24690
C3 C 0.2418(3) 0.508(3) 0.4593(4)
H7 H 0.25220 0.40720 0.45330
H8 H 0.22540 0.46890 0.45520
H9 H 0.24520 0.53280 0.48050
C4 C 0.3966(3) 0.929(5) 0.3077(6)
H10 H 0.38230 0.92340 0.31820
H11 H 0.39940 1.06040 0.30190
H12 H 0.41000 0.88430 0.32080
C5 C 0.3975(4) 0.617(4) 0.2989(6)
H13 H 0.38590 0.61550 0.31360
H14 H 0.41340 0.62220 0.30910
H15 H 0.39590 0.50280 0.28670
C6 C 0.2650(2) 0.6509(14) 0.3045(3)
C7 C 0.2405(2) 0.6193(12) 0.2928(3)
C8 C 0.3071(2) 0.7087(14) 0.2952(3)
C9 C 0.28343(19) 0.6710(13) 0.2840(2)
C10 C 0.2774(2) 0.6514(13) 0.2515(3)
C11 C 0.2286(2) 0.6189(13) 0.3454(2)
C12 C 0.2528(2) 0.6569(13) 0.3562(2)
C13 C 0.2223(2) 0.6033(13) 0.3133(3)
C14 C 0.2348(2) 0.6040(13) 0.2618(3)
C15 C 0.2711(2) 0.6690(13) 0.3362(3)
C16 C 0.2536(2) 0.6127(14) 0.2408(3)
C17 C 0.2957(2) 0.6710(15) 0.2315(3)
C18 C 0.32653(19) 0.7299(14) 0.2741(3)
C19 C 0.25808(18) 0.6756(14) 0.3883(3)
H16 H 0.27400 0.69650 0.39570
C20 C 0.3200(2) 0.7057(16) 0.2430(3)
C21 C 0.2946(2) 0.7144(17) 0.3460(2)
H17 H 0.29860 0.73400 0.36660
C22 C 0.2408(2) 0.6642(14) 0.4090(3)
C23 C 0.31251(19) 0.7321(19) 0.3264(3)
H18 H 0.32820 0.75960 0.33400
C24 C 0.2892(3) 0.6508(16) 0.2013(4)
H19 H 0.30130 0.65950 0.18830
C25 C 0.2476(2) 0.6014(16) 0.2097(4)
H20 H 0.23160 0.58280 0.20250
C26 C 0.2087(3) 0.5729(15) 0.2495(3)
H21 H 0.20390 0.56570 0.22890
C27 C 0.2114(2) 0.6018(16) 0.3668(3)
H22 H 0.19560 0.57310 0.35990
C28 C 0.2657(3) 0.6179(16) 0.1883(3)
H23 H 0.26190 0.60750 0.16750
C29 C 0.2170(2) 0.6256(14) 0.3974(3)
H24 H 0.20500 0.61620 0.41060
C30 C 0.1985(2) 0.5724(13) 0.3012(3)
H25 H 0.18620 0.56270 0.31400
C31 C 0.3498(2) 0.771(2) 0.2844(3)
H26 H 0.35340 0.78690 0.30520
C32 C 0.3618(2) 0.760(2) 0.2349(3)
H27 H 0.37370 0.75970 0.22150
C33 C 0.3388(3) 0.731(2) 0.2243(3)
H28 H 0.33520 0.72660 0.20340
C34 C 0.1934(3) 0.5569(18) 0.2708(4)
H29 H 0.17740 0.53230 0.26400
C35 C 0.3682(2) 0.791(2) 0.2661(3)
C36 C 0.2462(2) 0.688(2) 0.4418(3)
C37 C 0.3934(3) 0.797(5) 0.2784(5)
C38 C 0.2294(3) 0.809(3) 0.4541(3)
H30 H 0.23330 0.81890 0.47560
H31 H 0.21360 0.75490 0.45010
H32 H 0.22990 0.93430 0.44510
C39 C -0.0041(3) 0.112(4) 0.1391(5)
H33 H -0.00040 0.10100 0.16060
H34 H 0.00190 0.00010 0.12930
H35 H -0.02120 0.12000 0.13450
C40 C 0.1627(4) 0.189(4) -0.0619(4)
H36 H 0.16490 0.05530 -0.05660
H37 H 0.17790 0.25410 -0.05960
H38 H 0.15600 0.19900 -0.08250
C41 C -0.0045(3) 0.489(4) 0.1400(4)
H39 H 0.00430 0.59400 0.13230
H40 H -0.00320 0.49360 0.16170
H41 H -0.02110 0.49850 0.13250
C42 C 0.1211(3) 0.206(4) -0.0518(4)
H42 H 0.11080 0.26950 -0.03870
H43 H 0.11990 0.06850 -0.04920
H44 H 0.11630 0.23920 -0.07240
C43 C 0.1413(5) 0.482(4) -0.0512(5)
H45 H 0.13080 0.53080 -0.03700
H46 H 0.13350 0.48940 -0.07130
H47 H 0.15580 0.55780 -0.05000
C44 C 0.16167(15) 0.2852(13) 0.10557(19)
C45 C 0.13577(16) 0.2815(12) 0.0959(2)
C46 C 0.11890(16) 0.2838(13) 0.1167(2)
C47 C 0.12893(16) 0.2872(12) 0.06451(19)
C48 C 0.17861(17) 0.2848(14) 0.0842(2)
C49 C 0.16903(16) 0.2921(14) 0.13707(19)
C50 C 0.12575(19) 0.2866(14) 0.1487(2)
C51 C 0.09403(17) 0.2862(14) 0.1074(2)
C52 C 0.14615(16) 0.2876(14) 0.0420(2)
C53 C 0.15141(16) 0.2893(14) 0.1591(2)
C54 C 0.17101(16) 0.2897(14) 0.0523(2)
C55 C 0.10457(17) 0.2835(15) 0.0552(2)
H48 H 0.09950 0.28110 0.03460
C56 C 0.1932(2) 0.3004(15) 0.1469(2)
H49 H 0.19800 0.30230 0.16750
C57 C 0.0835(2) 0.287(2) 0.1599(3)
C58 C 0.07623(19) 0.2841(17) 0.1291(2)
C59 C 0.20345(17) 0.2952(14) 0.0956(3)
H50 H 0.21520 0.29470 0.08200
C60 C 0.08782(17) 0.2835(14) 0.0760(2)
H51 H 0.07160 0.28160 0.06900
C61 C 0.0514(2) 0.2846(19) 0.1192(2)
H52 H 0.04690 0.28360 0.09850
C62 C 0.1577(2) 0.2858(17) 0.1909(3)
H53 H 0.17390 0.28010 0.19820
C63 C 0.1089(2) 0.2914(19) 0.1698(2)
C64 C 0.1868(2) 0.282(2) 0.0305(3)
H54 H 0.20310 0.27180 0.03680
C65 C 0.13997(18) 0.2850(18) 0.0111(2)
H55 H 0.12380 0.27620 0.00430
C66 C 0.21022(19) 0.3059(16) 0.1260(3)
H56 H 0.22640 0.31700 0.13270
C67 C 0.1169(2) 0.287(2) 0.2006(3)
H57 H 0.10540 0.28160 0.21460
C68 C 0.1565(2) 0.295(2) -0.0103(3)
C69 C 0.1405(2) 0.2906(19) 0.2110(2)
H58 H 0.14490 0.29630 0.23170
C70 C 0.0409(3) 0.264(3) 0.1701(3)
H59 H 0.02970 0.23640 0.18390
C71 C 0.1803(2) 0.290(2) -0.0002(3)
H60 H 0.19200 0.29150 -0.01390
C72 C 0.0654(3) 0.283(3) 0.1796(3)
H61 H 0.06980 0.29470 0.20020
C73 C 0.0068(2) 0.278(4) 0.1286(3)
C74 C 0.0335(2) 0.286(3) 0.1391(3)
C75 C 0.0017(2) 0.305(3) 0.0952(3)
H62 H 0.00850 0.42580 0.08940
H63 H -0.01540 0.30700 0.09010
H64 H 0.00870 0.20160 0.08470
C76 C 0.1477(3) 0.271(4) -0.0435(3)
C77 C 0.0238(3) 0.763(5) -0.0534(4)
H65 H 0.01470 0.87210 -0.04760
H66 H 0.01810 0.64830 -0.04420
H67 H 0.02200 0.74910 -0.07500
C78 C 0.0490(4) 0.792(6) -0.0432(5)
C79 C 0.0567(4) 0.568(5) -0.0525(5)
H68 H 0.07380 0.55370 -0.04890
H69 H 0.05190 0.54590 -0.07350
H70 H 0.04890 0.47730 -0.04030
C80 C 0.0650(5) 0.904(6) -0.0616(6)
H71 H 0.08120 0.89740 -0.05240
H72 H 0.05980 1.03630 -0.06260
H73 H 0.06430 0.85150 -0.08170
C81 C 0.19093(14) 0.7874(13) 0.11462(17)
C82 C 0.14134(15) 0.7836(13) 0.09203(18)
C83 C 0.14754(15) 0.7853(14) 0.1228(2)
C84 C 0.17246(14) 0.7877(14) 0.13499(19)
C85 C 0.11642(16) 0.7915(15) 0.0801(2)
C86 C 0.18490(15) 0.7823(13) 0.08341(18)
C87 C 0.15914(16) 0.7900(13) 0.0717(2)
C88 C 0.09827(17) 0.7855(14) 0.1008(3)
C89 C 0.11058(18) 0.7801(14) 0.0482(2)
C90 C 0.12947(17) 0.7836(15) 0.1439(3)
C91 C 0.17724(18) 0.7909(15) 0.1669(2)
H74 H 0.19320 0.79430 0.17500
C92 C 0.0855(2) 0.7863(18) 0.0359(3)
C93 C 0.21508(16) 0.7881(13) 0.1249(2)
H75 H 0.21960 0.79020 0.14560
C94 C 0.22757(17) 0.7917(14) 0.0737(2)
C95 C 0.0675(2) 0.7788(17) 0.0558(3)
C96 C 0.20313(16) 0.7865(14) 0.0640(2)
H76 H 0.19880 0.78580 0.04330
C97 C 0.0731(2) 0.7891(16) 0.0883(4)
C98 C 0.10369(18) 0.7813(17) 0.1315(3)
C99 C 0.23266(18) 0.7857(13) 0.1046(3)
H77 H 0.24870 0.77980 0.11240
C100 C 0.1359(2) 0.7829(18) 0.1739(3)
H78 H 0.12380 0.77790 0.18700
C101 C 0.15226(17) 0.7790(14) 0.0414(2)
H79 H 0.16430 0.76720 0.02830
C102 C 0.1288(2) 0.7842(16) 0.0289(3)
H80 H 0.12530 0.79040 0.00800
C103 C 0.24754(18) 0.7871(16) 0.0533(2)
C104 C 0.0860(2) 0.781(2) 0.1506(3)
H81 H 0.08990 0.78250 0.17140
C105 C 0.0794(2) 0.779(2) 0.0046(3)
H82 H 0.09190 0.77320 -0.00790
C106 C 0.0431(2) 0.791(3) 0.0436(4)
H83 H 0.03070 0.79390 0.05630
C107 C 0.1596(2) 0.7892(18) 0.1864(2)
H84 H 0.16340 0.79210 0.20720
C108 C 0.0560(3) 0.780(3) -0.0092(4)
C109 C 0.0621(3) 0.779(3) 0.1389(5)
H85 H 0.04990 0.77400 0.15180
C110 C 0.0567(2) 0.786(2) 0.1087(4)
H86 H 0.04060 0.78770 0.10140
C111 C 0.0382(3) 0.799(4) 0.0122(5)
H87 H 0.02230 0.81870 0.00460
C112 C 0.2381(2) 0.803(2) 0.0191(3)
H88 H 0.25150 0.79670 0.00690
H89 H 0.22990 0.92340 0.01560
H90 H 0.22730 0.69820 0.01390
C113 C 0.2627(2) 0.6106(19) 0.0587(3)
H91 H 0.27510 0.61020 0.04520
H92 H 0.25280 0.49780 0.05520
H93 H 0.26970 0.61030 0.07930
C114 C 0.2629(2) 0.9790(18) 0.0588(3)
H94 H 0.27590 0.97850 0.04590
H95 H 0.26930 0.98520 0.07960
H96 H 0.25280 1.08910 0.05410
C115 C -0.0335(3) 0.312(7) 0.4320(5)
H97 H -0.01930 0.23310 0.43560
H98 H -0.04540 0.26950 0.44470
H99 H -0.02940 0.44410 0.43640
C116 C -0.0653(4) 0.378(9) 0.3887(6)
H100 H -0.06850 0.34490 0.36760
H101 H -0.06450 0.51540 0.39080
H102 H -0.07800 0.32810 0.39980
C117 C 0.1728(3) 0.484(3) 0.4951(3)
H103 H 0.17720 0.47900 0.51650
H104 H 0.16520 0.60560 0.49010
H105 H 0.18690 0.47140 0.48440
C118 C -0.0429(4) 0.295(7) 0.4002(7)
C119 C -0.0521(5) 0.089(7) 0.4033(8)
H106 H -0.03910 0.00740 0.41130
H107 H -0.05830 0.04190 0.38380
H108 H -0.06460 0.08770 0.41690
C120 C 0.08593(18) 0.3216(14) 0.3671(3)
C121 C 0.10456(18) 0.3130(15) 0.3465(3)
C122 C 0.06127(17) 0.3199(14) 0.3556(3)
C123 C 0.02993(19) 0.3094(17) 0.3125(3)
C124 C 0.12926(17) 0.3159(14) 0.3575(2)
C125 C 0.13587(16) 0.3231(14) 0.3891(2)
C126 C 0.0546(2) 0.3109(15) 0.3240(3)
C127 C 0.09274(17) 0.3273(15) 0.3982(3)
C128 C 0.11806(17) 0.3293(15) 0.4102(2)
C129 C 0.0115(2) 0.308(2) 0.3336(3)
C130 C 0.0181(2) 0.309(2) 0.3651(3)
C131 C 0.04349(19) 0.3172(17) 0.3759(3)
C132 C 0.0977(2) 0.3055(16) 0.3149(3)
C133 C 0.07253(19) 0.3068(19) 0.3031(3)
C134 C 0.14616(18) 0.3114(15) 0.3361(3)
H109 H 0.16240 0.31560 0.34280
C135 C 0.12530(18) 0.323(2) 0.4411(3)
H110 H 0.11330 0.31690 0.45440
C136 C 0.1158(2) 0.2946(18) 0.2952(3)
H111 H 0.11170 0.28280 0.27450
C137 C 0.15991(18) 0.3195(14) 0.4018(3)
H112 H 0.17220 0.31940 0.38900
C138 C 0.1485(2) 0.327(2) 0.4533(3)
C139 C 0.0743(2) 0.324(2) 0.4174(3)
H113 H 0.07820 0.32460 0.43820
C140 C 0.0654(3) 0.306(3) 0.2731(3)
H114 H 0.07720 0.30830 0.25950
C141 C 0.16560(19) 0.3163(18) 0.4322(3)
H115 H 0.18170 0.30670 0.43930
C142 C 0.0001(2) 0.329(3) 0.3851(3)
H116 H 0.00450 0.34970 0.40560
C143 C 0.0243(2) 0.299(2) 0.2811(3)
H117 H 0.00830 0.29070 0.27350
C144 C -0.0131(2) 0.308(3) 0.3247(3)
H118 H -0.01800 0.29870 0.30410
C145 C 0.0418(3) 0.302(3) 0.2617(3)
H119 H 0.03780 0.30040 0.24080
C146 C 0.1396(2) 0.3009(18) 0.3058(3)
H120 H 0.15140 0.29810 0.29220
C147 C -0.0241(2) 0.319(4) 0.3750(4)
C148 C -0.0303(2) 0.319(3) 0.3445(4)
H121 H -0.04640 0.32770 0.33720
C149 C 0.1561(2) 0.326(3) 0.4864(3)
C150 C 0.1350(2) 0.333(3) 0.5067(3)
H122 H 0.14120 0.33140 0.52760
H123 H 0.12480 0.22290 0.50250
H124 H 0.12590 0.44900 0.50260
C151 C 0.1704(3) 0.137(4) 0.4961(4)
H125 H 0.17500 0.14010 0.51740
H126 H 0.18460 0.12950 0.48530
H127 H 0.16050 0.02630 0.49130
C152 C 0.0508(2) 0.320(2) 0.4063(3)
H128 H 0.03910 0.31860 0.42000
C153 C -0.0294(3) 0.608(4) 0.2251(5)
H129 H -0.02450 0.50280 0.23840
H130 H -0.02200 0.59480 0.20650
H131 H -0.04660 0.60530 0.22080
C154 C 0.0623(3) 0.849(7) 0.5219(4)
H132 H 0.05020 0.84240 0.53600
H133 H 0.06980 0.97390 0.52320
H134 H 0.07420 0.75100 0.52660
C155 C -0.0303(3) 0.970(4) 0.2204(5)
H135 H -0.02200 0.96870 0.20240
H136 H -0.02690 1.08830 0.23120
H137 H -0.04720 0.95900 0.21510
C156 C 0.0322(4) 0.680(5) 0.4847(5)
H138 H 0.02710 0.68280 0.46350
H139 H 0.01890 0.71000 0.49610
H140 H 0.03810 0.55300 0.49010
C157 C 0.0345(5) 1.018(6) 0.4862(6)
H141 H 0.02690 1.01910 0.46600
H142 H 0.04450 1.12970 0.48950
H143 H 0.02240 1.01820 0.50040
C158 C 0.10914(18) 0.8186(14) 0.3671(3)
C159 C 0.07429(19) 0.8139(15) 0.3277(3)
C160 C 0.08330(18) 0.8146(14) 0.3587(3)
C161 C 0.06721(19) 0.8256(15) 0.3823(3)
C162 C 0.11740(19) 0.8195(17) 0.3988(3)
C163 C 0.0496(2) 0.8083(16) 0.3200(3)
C164 C 0.0911(2) 0.8034(18) 0.3047(3)
C165 C 0.12524(19) 0.8180(15) 0.3449(3)
C166 C 0.1010(2) 0.8284(19) 0.4220(3)
C167 C 0.0758(2) 0.825(2) 0.4138(3)
C168 C 0.1165(2) 0.8039(18) 0.3131(3)
C169 C 0.06061(19) 0.831(2) 0.4358(3)
H144 H 0.04420 0.84140 0.43010
C170 C 0.03373(19) 0.8214(16) 0.3427(3)
H145 H 0.01730 0.83470 0.33750
C171 C 0.0399(2) 0.802(2) 0.2879(3)
C172 C 0.0567(3) 0.804(2) 0.2654(3)
C173 C 0.1425(2) 0.823(2) 0.4064(3)
H146 H 0.14860 0.82090 0.42660
C174 C 0.04237(18) 0.8148(18) 0.3725(3)
H147 H 0.03150 0.80260 0.38710
C175 C 0.1498(2) 0.8245(19) 0.3537(3)
H148 H 0.16090 0.82650 0.33920
C176 C 0.0824(2) 0.796(2) 0.2739(3)
C177 C 0.1088(2) 0.836(2) 0.4525(4)
H149 H 0.12530 0.84040 0.45800
C178 C 0.0151(2) 0.799(2) 0.2792(3)
H150 H 0.00450 0.80160 0.29430
C179 C 0.0681(2) 0.821(3) 0.4671(3)
C180 C 0.1575(2) 0.828(2) 0.3842(4)
H151 H 0.17400 0.83440 0.38970
C181 C 0.0929(2) 0.837(3) 0.4755(3)
H152 H 0.09860 0.84830 0.49580
C182 C 0.0221(4) 0.793(3) 0.2271(3)
H153 H 0.01630 0.79730 0.20680
C183 C 0.0981(3) 0.785(3) 0.2508(3)
H154 H 0.09250 0.77190 0.23060
C184 C 0.0460(3) 0.788(3) 0.2340(4)
H155 H 0.05600 0.77310 0.21850
C185 C -0.0218(3) 0.801(3) 0.2404(3)
C186 C 0.0054(2) 0.792(2) 0.2491(3)
C187 C 0.1315(2) 0.809(2) 0.2900(4)
H156 H 0.14790 0.82260 0.29480
C188 C -0.0369(2) 0.825(3) 0.2683(3)
H157 H -0.03310 0.72200 0.28240
H158 H -0.05370 0.82050 0.26160
H159 H -0.03310 0.94650 0.27790
C189 C 0.0512(3) 0.820(6) 0.4914(4)
C190 C 0.1227(3) 0.795(3) 0.2601(4)
H160 H 0.13360 0.79180 0.24540
C191 C 0.3074(4) 0.306(3) 0.1271(4)
H161 H 0.31940 0.31700 0.11300
H162 H 0.30510 0.43000 0.13630
H163 H 0.29250 0.26460 0.11660
C192 C 0.3396(3) 0.263(5) 0.1658(4)
H164 H 0.34610 0.18000 0.18180
H165 H 0.33620 0.38770 0.17400
H166 H 0.35100 0.27740 0.15100
C193 C 0.3824(3) 0.343(5) 0.3852(5)
H167 H 0.38450 0.22750 0.37380
H168 H 0.39740 0.37780 0.39620
H169 H 0.37730 0.44610 0.37160
C194 C 0.3728(4) 0.226(5) 0.4350(5)
H170 H 0.35970 0.23210 0.44770
H171 H 0.38630 0.29650 0.44440
H172 H 0.37720 0.09420 0.43230
C195 C 0.3167(3) -0.024(3) 0.1334(4)
H173 H 0.32220 -0.12190 0.14780
H174 H 0.32790 -0.01300 0.11830
H175 H 0.30120 -0.05930 0.12400
C196 C 0.3666(4) 0.537(5) 0.4169(7)
H176 H 0.35510 0.55720 0.43140
H177 H 0.36310 0.62130 0.39990
H178 H 0.38250 0.56320 0.42610
C197 C 0.2736(2) 0.1553(13) 0.2783(3)
C198 C 0.2487(3) 0.1213(14) 0.2662(3)
C199 C 0.2616(2) 0.1615(13) 0.3295(3)
C200 C 0.2316(2) 0.1062(15) 0.2868(4)
C201 C 0.2855(3) 0.1531(15) 0.2241(3)
C202 C 0.2796(2) 0.1752(12) 0.3101(3)
C203 C 0.2421(3) 0.1070(15) 0.2341(3)
C204 C 0.2608(3) 0.1140(15) 0.2136(3)
C205 C 0.2915(2) 0.1717(14) 0.2572(3)
C206 C 0.2370(3) 0.1238(13) 0.3191(3)
C207 C 0.3035(2) 0.2153(15) 0.3206(2)
C208 C 0.2678(2) 0.1787(14) 0.3624(3)
C209 C 0.2195(2) 0.1098(14) 0.3409(5)
H179 H 0.20350 0.08940 0.33380
C210 C 0.3099(2) 0.2364(15) 0.3531(2)
C211 C 0.2494(3) 0.1643(14) 0.3818(3)
H180 H 0.25310 0.18120 0.40250
C212 C 0.33341(18) 0.2774(16) 0.3655(2)
H181 H 0.34530 0.29150 0.35220
C213 C 0.3023(3) 0.1678(15) 0.2035(3)
H182 H 0.31820 0.18680 0.21090
C214 C 0.2919(2) 0.2248(16) 0.3738(3)
C215 C 0.3149(2) 0.2122(17) 0.2692(3)
H183 H 0.32690 0.22580 0.25610
C216 C 0.3218(3) 0.282(2) 0.4144(2)
H184 H 0.32580 0.29030 0.43520
C217 C 0.2037(4) 0.065(2) 0.2753(5)
H185 H 0.19100 0.05200 0.28740
C218 C 0.2248(3) 0.1244(15) 0.3708(4)
H186 H 0.21300 0.10920 0.38410
C219 C 0.3209(2) 0.2329(16) 0.3001(3)
H187 H 0.33670 0.25870 0.30720
C220 C 0.2179(3) 0.0668(18) 0.2257(4)
H188 H 0.21240 0.04970 0.20550
C221 C 0.2989(2) 0.256(2) 0.4044(3)
H189 H 0.28730 0.25780 0.41810
C222 C 0.2973(3) 0.1565(17) 0.1725(3)
C223 C 0.2562(3) 0.0962(18) 0.1838(4)
H190 H 0.24040 0.06720 0.17670
C224 C 0.2727(4) 0.1169(19) 0.1623(4)
H191 H 0.26790 0.10530 0.14180
C225 C 0.3398(2) 0.2976(19) 0.3952(3)
C226 C 0.2025(3) 0.0534(18) 0.2478(6)
H192 H 0.18690 0.02890 0.23960
C227 C 0.3149(5) 0.171(2) 0.1498(4)
C228 C 0.3652(4) 0.313(6) 0.4054(3)
loop_
_geom_bond_atom_site_label_1
_geom_bond_atom_site_label_2
_geom_bond_distance
_geom_bond_site_symmetry_1
_geom_bond_site_symmetry_2
C1 H1 0.962 1_555 1_555
H2 C1 0.962 1_555 1_555
H3 C1 0.957 1_555 1_555
C2 H4 0.963 1_555 1_555
H5 C2 0.963 1_555 1_555
H6 C2 0.958 1_555 1_555
C3 H7 0.961 1_555 1_555
H8 C3 0.957 1_555 1_555
H9 C3 0.958 1_555 1_555
C4 H10 0.960 1_555 1_555
H11 C4 0.962 1_555 1_555
H12 C4 0.957 1_555 1_555
C5 H13 0.959 1_555 1_555
H14 C5 0.961 1_555 1_555
H15 C5 0.958 1_555 1_555
C6 C7 1.436 1_555 1_555
C7 C13 1.427 1_555 1_555
C8 C9 1.395 1_555 1_555
C9 C6 1.439 1_555 1_555
C10 C9 1.457 1_555 1_555
C11 C12 1.418 1_555 1_555
C12 C15 1.414 1_555 1_555
C13 C11 1.440 1_555 1_555
C14 C7 1.387 1_555 1_555
C15 C6 1.422 1_555 1_555
C16 C10 1.397 1_555 1_555
C17 C10 1.418 1_555 1_555
C18 C8 1.501 1_555 1_555
C19 C12 1.434 1_555 1_555
H16 C19 0.931 1_555 1_555
C20 C17 1.427 1_555 1_555
C21 C15 1.382 1_555 1_555
H17 C21 0.931 1_555 1_555
C22 C19 1.392 1_555 1_555
C23 C8 1.399 1_555 1_555
H18 C23 0.930 1_555 1_555
C24 C17 1.363 1_555 1_555
H19 C24 0.928 1_555 1_555
C25 C16 1.392 1_555 1_555
H20 C25 0.931 1_555 1_555
C26 C14 1.526 1_555 1_555
H21 C26 0.930 1_555 1_555
C27 C11 1.414 1_555 1_555
H22 C27 0.929 1_555 1_555
C28 C24 1.404 1_555 1_555
H23 C28 0.931 1_555 1_555
C29 C22 1.408 1_555 1_555
H24 C29 0.930 1_555 1_555
C30 C13 1.405 1_555 1_555
H25 C30 0.931 1_555 1_555
C31 C18 1.369 1_555 1_555
H26 C31 0.933 1_555 1_555
C32 H27 0.930 1_555 1_555
C33 C20 1.405 1_555 1_555
H28 C33 0.931 1_555 1_555
C34 C26 1.333 1_555 1_555
H29 C34 0.933 1_555 1_555
C35 C31 1.372 1_555 1_555
C36 C1 1.559 1_555 1_555
C37 C2 1.428 1_555 1_555
C38 C36 1.404 1_555 1_555
H30 C38 0.961 1_555 1_555
H31 C38 0.961 1_555 1_555
H32 C38 0.957 1_555 1_555
C39 H33 0.960 1_555 1_555
H34 C39 0.963 1_555 1_555
H35 C39 0.960 1_555 1_555
C40 H36 0.961 1_555 1_555
H37 C40 0.959 1_555 1_555
H38 C40 0.958 1_555 1_555
C41 H39 0.957 1_555 1_555
H40 C41 0.959 1_555 1_555
H41 C41 0.959 1_555 1_555
C42 H42 0.960 1_555 1_555
H43 C42 0.962 1_555 1_555
H44 C42 0.957 1_555 1_555
C43 H45 0.959 1_555 1_555
H46 C43 0.958 1_555 1_555
H47 C43 0.963 1_555 1_555
C44 C45 1.472 1_555 1_555
C45 C46 1.376 1_555 1_555
C46 C50 1.436 1_555 1_555
C47 C45 1.411 1_555 1_555
C48 C44 1.397 1_555 1_555
C49 C44 1.421 1_555 1_555
C50 C53 1.466 1_555 1_555
C51 C46 1.413 1_555 1_555
C52 C47 1.446 1_555 1_555
C53 C49 1.447 1_555 1_555
C54 C48 1.441 1_555 1_555
C55 C47 1.386 1_555 1_555
H48 C55 0.932 1_555 1_555
C56 C49 1.382 1_555 1_555
H49 C56 0.929 1_555 1_555
C57 C58 1.390 1_555 1_555
C58 C51 1.443 1_555 1_555
C59 C48 1.436 1_555 1_555
H50 C59 0.930 1_555 1_555
C60 C51 1.405 1_555 1_555
H51 C60 0.931 1_555 1_555
C61 C58 1.417 1_555 1_555
H52 C61 0.930 1_555 1_555
C62 C53 1.423 1_555 1_555
H53 C62 0.934 1_555 1_555
C63 C50 1.385 1_555 1_555
C64 C54 1.366 1_555 1_555
H54 C64 0.931 1_555 1_555
C65 C52 1.383 1_555 1_555
H55 C65 0.928 1_555 1_555
C66 C56 1.386 1_555 1_555
H56 C66 0.929 1_555 1_555
C67 C63 1.399 1_555 1_555
H57 C67 0.933 1_555 1_555
C68 C65 1.383 1_555 1_555
C69 C62 1.367 1_555 1_555
H58 C69 0.930 1_555 1_555
C70 H59 0.933 1_555 1_555
C71 C64 1.378 1_555 1_555
H60 C71 0.931 1_555 1_555
C72 C57 1.394 1_555 1_555
H61 C72 0.928 1_555 1_555
C73 C39 1.400 1_555 1_555
C74 C61 1.391 1_555 1_555
C75 C73 1.495 1_555 1_555
H62 C75 0.963 1_555 1_555
H63 C75 0.962 1_555 1_555
H64 C75 0.956 1_555 1_555
C76 C40 1.346 1_555 1_555
C77 H65 0.958 1_555 1_555
H66 C77 0.960 1_555 1_555
H67 C77 0.959 1_555 1_555
C78 C77 1.453 1_555 1_555
C79 C78 1.671 1_555 1_555
H68 C79 0.959 1_555 1_555
H69 C79 0.958 1_555 1_555
H70 C79 0.959 1_555 1_555
C80 C78 1.482 1_555 1_555
H71 C80 0.960 1_555 1_555
H72 C80 0.961 1_555 1_555
H73 C80 0.960 1_555 1_555
C81 C84 1.430 1_555 1_555
C82 C83 1.378 1_555 1_555
C83 C84 1.448 1_555 1_555
C84 C91 1.417 1_555 1_555
C85 C82 1.445 1_555 1_555
C86 C81 1.395 1_555 1_555
C87 C82 1.401 1_555 1_555
C88 C85 1.427 1_555 1_555
C89 C85 1.425 1_555 1_555
C90 C83 1.436 1_555 1_555
C91 H74 0.931 1_555 1_555
C92 C89 1.458 1_555 1_555
C93 C81 1.385 1_555 1_555
H75 C93 0.930 1_555 1_555
C94 C96 1.395 1_555 1_555
C95 C92 1.396 1_555 1_555
C96 C86 1.390 1_555 1_555
H76 C96 0.928 1_555 1_555
C97 C88 1.465 1_555 1_555
C98 C88 1.368 1_555 1_555
C99 C93 1.390 1_555 1_555
H77 C99 0.932 1_555 1_555
C100 C90 1.347 1_555 1_555
H78 C100 0.930 1_555 1_555
C101 C87 1.366 1_555 1_555
H79 C101 0.930 1_555 1_555
C102 C89 1.387 1_555 1_555
H80 C102 0.931 1_555 1_555
C103 C94 1.497 1_555 1_555
C104 C98 1.357 1_555 1_555
H81 C104 0.929 1_555 1_555
C105 C92 1.400 1_555 1_555
H82 C105 0.930 1_555 1_555
C106 C95 1.423 1_555 1_555
H83 C106 0.931 1_555 1_555
C107 C91 1.367 1_555 1_555
H84 C107 0.928 1_555 1_555
C108 C78 1.526 1_555 1_555
C109 C104 1.389 1_555 1_555
H85 C109 0.928 1_555 1_555
C110 C97 1.343 1_555 1_555
H86 C110 0.928 1_555 1_555
C111 C106 1.396 1_555 1_555
H87 C111 0.931 1_555 1_555
C112 C103 1.564 1_555 1_555
H88 C112 0.962 1_555 1_555
H89 C112 0.957 1_555 1_555
H90 C112 0.959 1_555 1_555
C113 C103 1.494 1_555 1_555
H91 C113 0.955 1_555 1_555
H92 C113 0.962 1_555 1_555
H93 C113 0.961 1_555 1_555
C114 C103 1.589 1_555 1_555
H94 C114 0.963 1_555 1_555
H95 C114 0.960 1_555 1_555
H96 C114 0.960 1_555 1_555
C115 H97 0.965 1_555 1_555
H98 C115 0.955 1_555 1_555
H99 C115 0.959 1_555 1_555
C116 H100 0.964 1_555 1_555
H101 C116 0.957 1_555 1_555
H102 C116 0.963 1_555 1_555
C117 H103 0.959 1_555 1_555
H104 C117 0.960 1_555 1_555
H105 C117 0.959 1_555 1_555
C118 C115 1.465 1_555 1_555
C119 C118 1.527 1_555 1_555
H106 C119 0.963 1_555 1_555
H107 C119 0.960 1_555 1_555
H108 C119 0.962 1_555 1_555
C120 C121 1.445 1_555 1_555
C121 C124 1.422 1_555 1_555
C122 C120 1.426 1_555 1_555
C123 C126 1.426 1_555 1_555
C124 C125 1.418 1_555 1_555
C125 C128 1.425 1_555 1_555
C126 C122 1.419 1_555 1_555
C127 C120 1.398 1_555 1_555
C128 C127 1.466 1_555 1_555
C129 C123 1.451 1_555 1_555
C130 C129 1.413 1_555 1_555
C131 C122 1.398 1_555 1_555
C132 C121 1.420 1_555 1_555
C133 C126 1.424 1_555 1_555
C134 C124 1.397 1_555 1_555
H109 C134 0.929 1_555 1_555
C135 C128 1.394 1_555 1_555
H110 C135 0.932 1_555 1_555
C136 C132 1.395 1_555 1_555
H111 C136 0.930 1_555 1_555
C137 C125 1.409 1_555 1_555
H112 C137 0.929 1_555 1_555
C138 C135 1.359 1_555 1_555
C139 C127 1.393 1_555 1_555
H113 C139 0.929 1_555 1_555
C140 C133 1.354 1_555 1_555
H114 C140 0.932 1_555 1_555
C141 C137 1.357 1_555 1_555
H115 C141 0.928 1_555 1_555
C142 C130 1.405 1_555 1_555
H116 C142 0.931 1_555 1_555
C143 C123 1.402 1_555 1_555
H117 C143 0.928 1_555 1_555
C144 C129 1.395 1_555 1_555
H118 C144 0.932 1_555 1_555
C145 C140 1.369 1_555 1_555
H119 C145 0.934 1_555 1_555
C146 C134 1.363 1_555 1_555
H120 C146 0.932 1_555 1_555
C147 C118 1.608 1_555 1_555
C148 C144 1.360 1_555 1_555
H121 C148 0.930 1_555 1_555
C149 C117 1.467 1_555 1_555
C150 C149 1.546 1_555 1_555
H122 C150 0.960 1_555 1_555
H123 C150 0.960 1_555 1_555
H124 C150 0.959 1_555 1_555
C151 C149 1.573 1_555 1_555
H125 C151 0.957 1_555 1_555
H126 C151 0.963 1_555 1_555
H127 C151 0.958 1_555 1_555
C152 C131 1.373 1_555 1_555
H128 C152 0.931 1_555 1_555
C153 H129 0.962 1_555 1_555
H130 C153 0.959 1_555 1_555
H131 C153 0.963 1_555 1_555
C154 H132 0.961 1_555 1_555
H133 C154 0.961 1_555 1_555
H134 C154 0.960 1_555 1_555
C155 H135 0.958 1_555 1_555
H136 C155 0.960 1_555 1_555
H137 C155 0.955 1_555 1_555
C156 H138 0.958 1_555 1_555
H139 C156 0.958 1_555 1_555
H140 C156 0.962 1_555 1_555
C157 H141 0.957 1_555 1_555
H142 C157 0.958 1_555 1_555
H143 C157 0.964 1_555 1_555
C158 C160 1.458 1_555 1_555
C159 C160 1.421 1_555 1_555
C160 C161 1.440 1_555 1_555
C161 C167 1.436 1_555 1_555
C162 C158 1.440 1_555 1_555
C163 C159 1.391 1_555 1_555
C164 C159 1.448 1_555 1_555
C165 C158 1.391 1_555 1_555
C166 C162 1.438 1_555 1_555
C167 C166 1.422 1_555 1_555
C168 C164 1.434 1_555 1_555
C169 C167 1.349 1_555 1_555
H144 C169 0.932 1_555 1_555
C170 C163 1.402 1_555 1_555
H145 C170 0.931 1_555 1_555
C171 C163 1.478 1_555 1_555
C172 C171 1.429 1_555 1_555
C173 C162 1.413 1_555 1_555
H146 C173 0.930 1_555 1_555
C174 C161 1.418 1_555 1_555
H147 C174 0.930 1_555 1_555
C175 C165 1.393 1_555 1_555
H148 C175 0.932 1_555 1_555
C176 C164 1.409 1_555 1_555
C177 C166 1.384 1_555 1_555
H149 C177 0.933 1_555 1_555
C178 C171 1.405 1_555 1_555
H150 C178 0.932 1_555 1_555
C179 C169 1.415 1_555 1_555
C180 C173 1.348 1_555 1_555
H151 C180 0.933 1_555 1_555
C181 C177 1.410 1_555 1_555
H152 C181 0.931 1_555 1_555
C182 H153 0.930 1_555 1_555
C183 C176 1.408 1_555 1_555
H154 C183 0.927 1_555 1_555
C184 C172 1.470 1_555 1_555
H155 C184 0.929 1_555 1_555
C185 C153 1.542 1_555 1_555
C186 C178 1.396 1_555 1_555
C187 C168 1.380 1_555 1_555
H156 C187 0.927 1_555 1_555
C188 C185 1.567 1_555 1_555
H157 C188 0.960 1_555 1_555
H158 C188 0.959 1_555 1_555
H159 C188 0.958 1_555 1_555
C189 C154 1.451 1_555 1_555
C190 C183 1.401 1_555 1_555
H160 C190 0.931 1_555 1_555
C191 H161 0.959 1_555 1_555
H162 C191 0.964 1_555 1_555
H163 C191 0.961 1_555 1_555
C192 H164 0.959 1_555 1_555
H165 C192 0.963 1_555 1_555
H166 C192 0.959 1_555 1_555
C193 H167 0.959 1_555 1_555
H168 C193 0.962 1_555 1_555
H169 C193 0.961 1_555 1_555
C194 H170 0.963 1_555 1_555
H171 C194 0.962 1_555 1_555
H172 C194 0.956 1_555 1_555
C195 H173 0.963 1_555 1_555
H174 C195 0.959 1_555 1_555
H175 C195 0.959 1_555 1_555
C196 H176 0.958 1_555 1_555
H177 C196 0.960 1_555 1_555
H178 C196 0.961 1_555 1_555
C197 C198 1.464 1_555 1_555
C198 C200 1.383 1_555 1_555
C199 C202 1.383 1_555 1_555
C200 C206 1.442 1_555 1_555
C201 C204 1.442 1_555 1_555
C202 C197 1.427 1_555 1_555
C203 C198 1.442 1_555 1_555
C204 C203 1.445 1_555 1_555
C205 C197 1.433 1_555 1_555
C206 C199 1.434 1_555 1_555
C207 C202 1.402 1_555 1_555
C208 C199 1.474 1_555 1_555
C209 C206 1.437 1_555 1_555
H179 C209 0.931 1_555 1_555
C210 C207 1.461 1_555 1_555
C211 C208 1.401 1_555 1_555
H180 C211 0.930 1_555 1_555
C212 C210 1.407 1_555 1_555
H181 C212 0.931 1_555 1_555
C213 C201 1.370 1_555 1_555
H182 C213 0.928 1_555 1_555
C214 C208 1.431 1_555 1_555
C215 C205 1.395 1_555 1_555
H183 C215 0.930 1_555 1_555
C216 H184 0.931 1_555 1_555
C217 C200 1.621 1_555 1_555
H185 C217 0.931 1_555 1_555
C218 C209 1.336 1_555 1_555
H186 C218 0.928 1_555 1_555
C219 C207 1.394 1_555 1_555
H187 C219 0.928 1_555 1_555
C220 C203 1.398 1_555 1_555
H188 C220 0.928 1_555 1_555
C221 C214 1.395 1_555 1_555
H189 C221 0.927 1_555 1_555
C222 C213 1.380 1_555 1_555
C223 C204 1.329 1_555 1_555
H190 C223 0.932 1_555 1_555
C224 C222 1.434 1_555 1_555
H191 C224 0.928 1_555 1_555
C225 C212 1.341 1_555 1_555
C226 C217 1.218 1_555 1_555
H192 C226 0.929 1_555 1_555
C227 C191 1.410 1_555 1_555
C228 C193 1.386 1_555 1_555
C3 C36 1.500 1_555 1_555
C4 C37 1.586 1_555 1_555
C5 C37 1.548 1_555 1_555
C14 C16 1.465 1_555 1_555
C18 C20 1.405 1_555 1_555
C21 C23 1.387 1_555 1_555
C22 C36 1.468 1_555 1_555
C25 C28 1.451 1_555 1_555
C27 C29 1.375 1_555 1_555
C30 C34 1.357 1_555 1_555
C32 C33 1.343 1_555 1_555
C32 C35 1.414 1_555 1_555
C35 C37 1.464 1_555 1_555
C41 C73 1.687 1_555 1_555
C42 C76 1.565 1_555 1_555
C43 C76 1.536 1_555 1_555
C52 C54 1.423 1_555 1_555
C55 C60 1.371 1_555 1_555
C57 C63 1.448 1_555 1_555
C59 C66 1.369 1_555 1_555
C67 C69 1.357 1_555 1_555
C68 C71 1.365 1_555 1_555
C68 C76 1.519 1_555 1_555
C70 C72 1.402 1_555 1_555
C70 C74 1.408 1_555 1_555
C73 C74 1.523 1_555 1_555
C86 C87 1.486 1_555 1_555
C90 C98 1.495 1_555 1_555
C94 C99 1.375 1_555 1_555
C95 C97 1.449 1_555 1_555
C100 C107 1.390 1_555 1_555
C101 C102 1.377 1_555 1_555
C105 C108 1.393 1_555 1_555
C108 C111 1.440 1_555 1_555
C109 C110 1.347 1_555 1_555
C116 C118 1.429 1_555 1_555
C130 C131 1.457 1_555 1_555
C132 C133 1.456 1_555 1_555
C136 C146 1.371 1_555 1_555
C138 C141 1.397 1_555 1_555
C138 C149 1.491 1_555 1_555
C139 C152 1.360 1_555 1_555
C142 C147 1.387 1_555 1_555
C143 C145 1.358 1_555 1_555
C147 C148 1.366 1_555 1_555
C155 C185 1.519 1_555 1_555
C156 C189 1.449 1_555 1_555
C157 C189 1.663 1_555 1_555
C165 C168 1.454 1_555 1_555
C170 C174 1.367 1_555 1_555
C172 C176 1.452 1_555 1_555
C175 C180 1.382 1_555 1_555
C179 C181 1.406 1_555 1_555
C179 C189 1.494 1_555 1_555
C182 C184 1.343 1_555 1_555
C182 C186 1.408 1_555 1_555
C185 C186 1.535 1_555 1_555
C187 C190 1.376 1_555 1_555
C192 C227 1.624 1_555 1_555
C194 C228 1.472 1_555 1_555
C195 C227 1.541 1_555 1_555
C196 C228 1.633 1_555 1_555
C201 C205 1.482 1_555 1_555
C210 C214 1.422 1_555 1_555
C211 C218 1.443 1_555 1_555
C215 C219 1.389 1_555 1_555
C216 C221 1.328 1_555 1_555
C216 C225 1.378 1_555 1_555
C220 C226 1.363 1_555 1_555
C222 C227 1.471 1_555 1_555
C223 C224 1.391 1_555 1_555
C225 C228 1.454 1_555 1_555
#END
