
#######################################################################
#
#                 Cambridge Crystallographic Data Centre
#                                CCDC
#
#######################################################################
#
# If this CIF has been generated from an entry in the Cambridge
# Structural Database, then it will include bibliographic, chemical,
# crystal, experimental, refinement or atomic coordinate data resulting
# from the CCDC's data processing and validation procedures.
#
#######################################################################

data_CSD_CIF_UTAHUU
_audit_creation_date 2016-08-10
_audit_creation_method CSD-ConQuest-V1
_database_code_CSD UTAHUU
_database_code_depnum_ccdc_archive 'CCDC 1479924'
_chemical_formula_sum 'C30 H18'
_chemical_formula_moiety
;
C30 H18
;
_journal_coden_Cambridge 177
_journal_volume 14
_journal_year 2016
_journal_page_first 8123
_journal_name_full 'Org.Biomol.Chem. '
loop_
_publ_author_name
"A.A.Ruch"
"S.Handa"
"Fanji Kong"
"V.N.Nesterov"
"D.R.Pahls"
"T.R.Cundari"
"L.M.Slaughter"
_chemical_name_systematic
;
naphtho[1,2-i]pentahelicene
;
_chemical_melting_point 503
_cell_volume   1856.202
_exptl_crystal_colour 'red'
_exptl_crystal_density_diffrn 1.354
_exptl_special_details
;
Melting point range 503-504K

;
_exptl_crystal_description 'block'
_diffrn_ambient_temperature 115
#These two values have been output from a single CSD field.
_refine_ls_R_factor_gt 0.0344
_refine_ls_wR_factor_gt 0.0344
_symmetry_cell_setting orthorhombic
_symmetry_space_group_name_H-M 'P c a 21'
_symmetry_Int_Tables_number 29
loop_
_symmetry_equiv_pos_site_id
_symmetry_equiv_pos_as_xyz
1 x,y,z
2 -x,-y,1/2+z
3 1/2+x,-y,z
4 1/2-x,y,1/2+z
_cell_length_a 11.2287(3)
_cell_length_b 21.5577(6)
_cell_length_c 7.6682(2)
_cell_angle_alpha 90
_cell_angle_beta 90
_cell_angle_gamma 90
_cell_formula_units_Z 4
loop_
_atom_type_symbol
_atom_type_radius_bond
C 0.68
H 0.23
loop_
_atom_site_label
_atom_site_type_symbol
_atom_site_fract_x
_atom_site_fract_y
_atom_site_fract_z
C1 C 0.53542(11) 0.30864(6) 0.32324(18)
C2 C 0.62270(11) 0.28908(6) 0.20525(18)
C3 C 0.69789(12) 0.33463(6) 0.12601(19)
H1 H 0.76300 0.32150 0.05600
C4 C 0.67805(12) 0.39628(6) 0.14898(19)
H2 H 0.73400 0.42550 0.10570
C5 C 0.57465(12) 0.41743(6) 0.23691(18)
C6 C 0.53790(13) 0.48052(6) 0.23209(19)
H3 H 0.59080 0.51110 0.18770
C7 C 0.42825(14) 0.49791(6) 0.2899(2)
H4 H 0.40510 0.54030 0.28570
C8 C 0.34885(13) 0.45286(6) 0.3563(2)
H5 H 0.27040 0.46450 0.38920
C9 C 0.38498(12) 0.39243(6) 0.37332(19)
H6 H 0.33210 0.36290 0.42280
C10 C 0.49923(11) 0.37323(6) 0.31880(18)
C11 C 0.48197(11) 0.26224(6) 0.43763(17)
C12 C 0.48015(11) 0.20038(6) 0.37794(18)
C13 C 0.43643(12) 0.15262(6) 0.49107(19)
H7 H 0.43880 0.11070 0.45330
C14 C 0.39185(11) 0.16609(6) 0.65060(19)
H8 H 0.35910 0.13370 0.71970
C15 C 0.39293(11) 0.22745(6) 0.71686(18)
C16 C 0.35039(12) 0.24023(6) 0.88662(19)
H9 H 0.31050 0.20860 0.95000
C17 C 0.36552(12) 0.29726(6) 0.96123(19)
H10 H 0.33450 0.30560 1.07410
C18 C 0.42751(12) 0.34339(6) 0.86891(19)
H11 H 0.44290 0.38220 0.92290
C19 C 0.46611(12) 0.33295(6) 0.70163(19)
H12 H 0.50800 0.36480 0.64210
C20 C 0.44507(11) 0.27570(6) 0.61504(18)
C21 C 0.53739(11) 0.18428(6) 0.21494(18)
C22 C 0.62579(11) 0.22433(6) 0.15168(18)
C23 C 0.70814(13) 0.20184(6) 0.0254(2)
H13 H 0.77290 0.22740 -0.00910
C24 C 0.69603(13) 0.14457(7) -0.0470(2)
H14 H 0.75620 0.12900 -0.12240
C25 C 0.59390(13) 0.10785(6) -0.0105(2)
C26 C 0.56829(14) 0.05386(6) -0.1092(2)
H15 H 0.62560 0.03870 -0.18970
C27 C 0.46228(15) 0.02323(6) -0.0904(2)
H16 H 0.44620 -0.01280 -0.15790
C28 C 0.37749(14) 0.04512(7) 0.0287(2)
H17 H 0.30250 0.02500 0.03810
C29 C 0.40246(12) 0.09580(6) 0.1324(2)
H18 H 0.34490 0.10940 0.21470
C30 C 0.51202(12) 0.12797(6) 0.11890(19)
loop_
_geom_bond_atom_site_label_1
_geom_bond_atom_site_label_2
_geom_bond_distance
_geom_bond_site_symmetry_1
_geom_bond_site_symmetry_2
C1 C2 1.399 1_555 1_555
C2 C3 1.430 1_555 1_555
C3 H1 0.950 1_555 1_555
C4 C3 1.359 1_555 1_555
H2 C4 0.950 1_555 1_555
C5 C4 1.418 1_555 1_555
C6 C5 1.422 1_555 1_555
H3 C6 0.950 1_555 1_555
C7 C6 1.361 1_555 1_555
H4 C7 0.951 1_555 1_555
C8 C7 1.413 1_555 1_555
H5 C8 0.950 1_555 1_555
C9 C8 1.371 1_555 1_555
H6 C9 0.950 1_555 1_555
C10 C1 1.451 1_555 1_555
C11 C1 1.460 1_555 1_555
C12 C11 1.410 1_555 1_555
C13 C12 1.433 1_555 1_555
H7 C13 0.949 1_555 1_555
C14 C13 1.353 1_555 1_555
H8 C14 0.951 1_555 1_555
C15 C14 1.417 1_555 1_555
C16 C15 1.414 1_555 1_555
H9 C16 0.950 1_555 1_555
C17 C16 1.367 1_555 1_555
H10 C17 0.950 1_555 1_555
C18 C17 1.405 1_555 1_555
H11 C18 0.949 1_555 1_555
C19 C18 1.373 1_555 1_555
H12 C19 0.949 1_555 1_555
C20 C11 1.451 1_555 1_555
C21 C12 1.448 1_555 1_555
C22 C2 1.455 1_555 1_555
C23 C22 1.424 1_555 1_555
H13 C23 0.950 1_555 1_555
C24 C23 1.361 1_555 1_555
H14 C24 0.950 1_555 1_555
C25 C24 1.421 1_555 1_555
C26 C25 1.418 1_555 1_555
H15 C26 0.950 1_555 1_555
C27 C26 1.369 1_555 1_555
H16 C27 0.951 1_555 1_555
C28 C27 1.401 1_555 1_555
H17 C28 0.950 1_555 1_555
C29 C28 1.380 1_555 1_555
H18 C29 0.950 1_555 1_555
C30 C21 1.448 1_555 1_555
C5 C10 1.421 1_555 1_555
C9 C10 1.411 1_555 1_555
C15 C20 1.426 1_555 1_555
C19 C20 1.421 1_555 1_555
C21 C22 1.402 1_555 1_555
C25 C30 1.421 1_555 1_555
C29 C30 1.416 1_555 1_555
#END
