
#######################################################################
#
#                 Cambridge Crystallographic Data Centre
#                                CCDC
#
#######################################################################
#
# If this CIF has been generated from an entry in the Cambridge
# Structural Database, then it will include bibliographic, chemical,
# crystal, experimental, refinement or atomic coordinate data resulting
# from the CCDC's data processing and validation procedures.
#
#######################################################################

data_CSD_CIF_UTUTOU
_audit_creation_date 2016-09-05
_audit_creation_method CSD-ConQuest-V1
_database_code_CSD UTUTOU
_database_code_depnum_ccdc_archive 'CCDC 1481196'
_chemical_formula_sum 'C60 H58'
_chemical_formula_moiety
;
C60 H58
;
_journal_coden_Cambridge 35
_journal_volume 81
_journal_year 2016
_journal_page_first 7700
_journal_name_full 'J.Org.Chem. '
loop_
_publ_author_name
"S.Kato"
"S.Kuwako"
"N.Takahashi"
"T.Kijima"
"Y.Nakamura"
_chemical_name_systematic
;
7,9-bis(3,5-di-t-butylphenyl)-8,10-bis(phenylethynyl)pentaleno[2,1-a]naphthale
ne
;
_cell_volume   9029.046
_exptl_crystal_colour 'red'
_exptl_crystal_density_diffrn 1.146
_exptl_crystal_description 'platelet'
_diffrn_ambient_temperature 113
#These two values have been output from a single CSD field.
_refine_ls_R_factor_gt 0.0747
_refine_ls_wR_factor_gt 0.0747
_symmetry_cell_setting monoclinic
_symmetry_space_group_name_H-M 'C 2/c'
_symmetry_Int_Tables_number 15
loop_
_symmetry_equiv_pos_site_id
_symmetry_equiv_pos_as_xyz
1 x,y,z
2 -x,y,1/2-z
3 1/2+x,1/2+y,z
4 1/2-x,1/2+y,1/2-z
5 -x,-y,-z
6 x,-y,-1/2+z
7 -1/2-x,-1/2-y,-z
8 -1/2+x,-1/2-y,-1/2+z
_cell_length_a 47.18(3)
_cell_length_b 9.144(5)
_cell_length_c 21.056(11)
_cell_angle_alpha 90
_cell_angle_beta 96.297(13)
_cell_angle_gamma 90
_cell_formula_units_Z 8
loop_
_atom_type_symbol
_atom_type_radius_bond
C 0.68
H 0.23
loop_
_atom_site_label
_atom_site_type_symbol
_atom_site_fract_x
_atom_site_fract_y
_atom_site_fract_z
C1 C 0.89472(8) 0.3679(5) 0.17179(19)
C2 C 0.88296(8) 0.3296(4) 0.22995(18)
C3 C 0.86001(8) 0.4226(4) 0.23343(19)
C4 C 0.85764(8) 0.5254(4) 0.17766(18)
C5 C 0.87960(8) 0.4934(4) 0.14253(19)
C6 C 0.89059(8) 0.5196(4) 0.08167(19)
C7 C 0.88545(9) 0.6302(5) 0.03619(19)
C8 C 0.90003(9) 0.6274(5) -0.0174(2)
C9 C 0.92035(8) 0.5185(5) -0.0264(2)
C10 C 0.93563(10) 0.5191(5) -0.0800(2)
C11 C 0.95648(10) 0.4185(5) -0.0861(2)
C12 C 0.96300(9) 0.3125(5) -0.0392(2)
C13 C 0.94810(8) 0.3045(5) 0.0126(2)
C14 C 0.92625(8) 0.4074(4) 0.02071(19)
C15 C 0.91048(8) 0.4097(4) 0.07342(18)
C16 C 0.91188(8) 0.3093(5) 0.1293(2)
C17 C 0.92420(8) 0.1677(5) 0.13480(19)
C18 C 0.93101(8) 0.0411(5) 0.1400(2)
C19 C 0.93846(9) -0.1110(5) 0.1482(2)
C20 C 0.95320(9) -0.1849(6) 0.1038(3)
C21 C 0.96226(10) -0.3237(6) 0.1129(3)
C22 C 0.95583(13) -0.3942(7) 0.1694(4)
C23 C 0.94037(14) -0.3267(6) 0.2121(3)
C24 C 0.93165(10) -0.1857(5) 0.2019(2)
C25 C 0.84301(8) 0.4344(4) 0.28385(19)
C26 C 0.82883(9) 0.4536(5) 0.3268(2)
C27 C 0.81414(8) 0.4875(5) 0.38065(18)
C28 C 0.82184(10) 0.4183(6) 0.4389(2)
C29 C 0.80877(11) 0.4568(6) 0.4928(2)
C30 C 0.78770(11) 0.5573(6) 0.4873(3)
C31 C 0.77847(10) 0.6253(5) 0.4291(3)
C32 C 0.79207(9) 0.5887(5) 0.3763(2)
C33 C 0.83419(8) 0.6297(4) 0.16361(18)
C34 C 0.80603(8) 0.5837(4) 0.16680(18)
C35 C 0.78321(8) 0.6775(4) 0.15069(18)
C36 C 0.78932(8) 0.8193(4) 0.13347(19)
C37 C 0.81708(8) 0.8716(4) 0.13162(18)
C38 C 0.83943(8) 0.7730(4) 0.14646(17)
C39 C 0.75196(8) 0.6299(5) 0.1506(2)
C40 C 0.74935(10) 0.4683(6) 0.1642(3)
C41 C 0.73794(10) 0.7168(6) 0.1996(2)
C42 C 0.73607(9) 0.6588(6) 0.0843(2)
C43 C 0.82211(9) 1.0289(5) 0.1116(2)
C44 C 0.80779(10) 1.1336(5) 0.1573(2)
C45 C 0.80831(9) 1.0498(5) 0.0430(2)
C46 C 0.85341(9) 1.0662(5) 0.1154(2)
C47 C 0.89484(8) 0.2211(4) 0.27647(18)
C48 C 0.92443(8) 0.2123(5) 0.29166(18)
C49 C 0.93645(8) 0.1146(5) 0.33619(19)
C50 C 0.91862(8) 0.0202(5) 0.36344(19)
C51 C 0.88902(8) 0.0214(5) 0.34909(19)
C52 C 0.87748(8) 0.1254(5) 0.30584(18)
C53 C 0.96900(9) 0.1055(5) 0.3543(2)
C54 C 0.98494(9) 0.2354(7) 0.3287(3)
C55 C 0.97942(9) -0.0351(6) 0.3263(2)
C56 C 0.97615(9) 0.1066(5) 0.4269(2)
C57 C 0.87070(9) -0.0911(5) 0.3801(2)
C58 C 0.87902(12) -0.2439(6) 0.3599(3)
C59 C 0.87659(11) -0.0810(7) 0.4519(3)
C60 C 0.83923(10) -0.0688(7) 0.3611(3)
H1 H 0.87219 0.70602 0.04188
H2 H 0.89623 0.70102 -0.04900
H3 H 0.93138 0.59046 -0.11246
H4 H 0.96666 0.42075 -0.12262
H5 H 0.97799 0.24509 -0.04345
H6 H 0.95235 0.22958 0.04341
H7 H 0.95693 -0.13543 0.06589
H8 H 0.97251 -0.37225 0.08269
H9 H 0.96247 -0.49104 0.17796
H10 H 0.93568 -0.37796 0.24874
H11 H 0.92092 -0.13853 0.23164
H12 H 0.83608 0.34443 0.44190
H13 H 0.81464 0.41269 0.53298
H14 H 0.77882 0.58278 0.52417
H15 H 0.76334 0.69438 0.42588
H16 H 0.78620 0.63362 0.33636
H17 H 0.80251 0.48682 0.18020
H18 H 0.77387 0.88436 0.12237
H19 H 0.85853 0.80443 0.14479
H20 H 0.72915 0.44147 0.16180
H21 H 0.75867 0.44678 0.20713
H22 H 0.75855 0.41190 0.13263
H23 H 0.71784 0.68851 0.19812
H24 H 0.73925 0.82140 0.19024
H25 H 0.74764 0.69684 0.24232
H26 H 0.74604 0.61007 0.05178
H27 H 0.73540 0.76433 0.07613
H28 H 0.71660 0.62055 0.08269
H29 H 0.78740 1.11104 0.15524
H30 H 0.81025 1.23514 0.14404
H31 H 0.81673 1.12023 0.20111
H32 H 0.81685 0.98142 0.01472
H33 H 0.81147 1.15035 0.02925
H34 H 0.78779 1.03107 0.04108
H35 H 0.86245 1.04756 0.15880
H36 H 0.85562 1.16962 0.10482
H37 H 0.86250 1.00549 0.08504
H38 H 0.93644 0.27535 0.27070
H39 H 0.92684 -0.04926 0.39356
H40 H 0.85737 0.13139 0.29613
H41 H 1.00530 0.22776 0.34364
H42 H 0.97738 0.32690 0.34429
H43 H 0.98231 0.23444 0.28191
H44 H 0.97052 -0.11902 0.34526
H45 H 1.00019 -0.04173 0.33567
H46 H 0.97427 -0.03537 0.27994
H47 H 0.99690 0.10365 0.43750
H48 H 0.96758 0.02094 0.44524
H49 H 0.96857 0.19586 0.44447
H50 H 0.87379 -0.25569 0.31381
H51 H 0.86897 -0.31706 0.38299
H52 H 0.89965 -0.25707 0.36977
H53 H 0.86568 -0.15650 0.47160
H54 H 0.87092 0.01573 0.46606
H55 H 0.89700 -0.09571 0.46465
H56 H 0.83497 -0.08399 0.31494
H57 H 0.83391 0.03094 0.37194
H58 H 0.82837 -0.13899 0.38396
loop_
_geom_bond_atom_site_label_1
_geom_bond_atom_site_label_2
_geom_bond_distance
_geom_bond_site_symmetry_1
_geom_bond_site_symmetry_2
C1 C2 1.442 1_555 1_555
C2 C3 1.385 1_555 1_555
C3 C4 1.499 1_555 1_555
C4 C5 1.369 1_555 1_555
C5 C1 1.452 1_555 1_555
C6 C5 1.454 1_555 1_555
C7 C6 1.396 1_555 1_555
C8 C7 1.385 1_555 1_555
C9 C8 1.409 1_555 1_555
C10 C9 1.404 1_555 1_555
C11 C10 1.363 1_555 1_555
C12 C11 1.394 1_555 1_555
C13 C12 1.363 1_555 1_555
C14 C9 1.426 1_555 1_555
C15 C6 1.399 1_555 1_555
C16 C1 1.379 1_555 1_555
C17 C16 1.419 1_555 1_555
C18 C17 1.203 1_555 1_555
C19 C18 1.440 1_555 1_555
C20 C19 1.399 1_555 1_555
C21 C20 1.346 1_555 1_555
C22 C21 1.415 1_555 1_555
C23 C22 1.366 1_555 1_555
C24 C19 1.389 1_555 1_555
C25 C3 1.403 1_555 1_555
C26 C25 1.195 1_555 1_555
C27 C26 1.426 1_555 1_555
C28 C27 1.392 1_555 1_555
C29 C28 1.395 1_555 1_555
C30 C29 1.349 1_555 1_555
C31 C30 1.400 1_555 1_555
C32 C27 1.389 1_555 1_555
C33 C4 1.466 1_555 1_555
C34 C33 1.402 1_555 1_555
C35 C34 1.389 1_555 1_555
C36 C35 1.385 1_555 1_555
C37 C36 1.399 1_555 1_555
C38 C33 1.389 1_555 1_555
C39 C35 1.537 1_555 1_555
C40 C39 1.513 1_555 1_555
C41 C39 1.511 1_555 1_555
C42 C39 1.533 1_555 1_555
C43 C37 1.525 1_555 1_555
C44 C43 1.563 1_555 1_555
C45 C43 1.530 1_555 1_555
C46 C43 1.509 1_555 1_555
C47 C2 1.462 1_555 1_555
C48 C47 1.400 1_555 1_555
C49 C48 1.372 1_555 1_555
C50 C49 1.374 1_555 1_555
C51 C50 1.396 1_555 1_555
C52 C47 1.389 1_555 1_555
C53 C49 1.543 1_555 1_555
C54 C53 1.535 1_555 1_555
C55 C53 1.518 1_555 1_555
C56 C53 1.529 1_555 1_555
C57 C51 1.535 1_555 1_555
C58 C57 1.524 1_555 1_555
C59 C57 1.510 1_555 1_555
C60 C57 1.509 1_555 1_555
H1 C7 0.950 1_555 1_555
H2 C8 0.950 1_555 1_555
H3 C10 0.950 1_555 1_555
H4 C11 0.950 1_555 1_555
H5 C12 0.950 1_555 1_555
H6 C13 0.950 1_555 1_555
H7 C20 0.951 1_555 1_555
H8 C21 0.950 1_555 1_555
H9 C22 0.950 1_555 1_555
H10 C23 0.949 1_555 1_555
H11 C24 0.951 1_555 1_555
H12 C28 0.950 1_555 1_555
H13 C29 0.951 1_555 1_555
H14 C30 0.951 1_555 1_555
H15 C31 0.950 1_555 1_555
H16 C32 0.950 1_555 1_555
H17 C34 0.950 1_555 1_555
H18 C36 0.950 1_555 1_555
H19 C38 0.950 1_555 1_555
H20 C40 0.980 1_555 1_555
H21 C40 0.981 1_555 1_555
H22 C40 0.980 1_555 1_555
H23 C41 0.980 1_555 1_555
H24 C41 0.980 1_555 1_555
H25 C41 0.981 1_555 1_555
H26 C42 0.979 1_555 1_555
H27 C42 0.980 1_555 1_555
H28 C42 0.980 1_555 1_555
H29 C44 0.980 1_555 1_555
H30 C44 0.980 1_555 1_555
H31 C44 0.979 1_555 1_555
H32 C45 0.980 1_555 1_555
H33 C45 0.980 1_555 1_555
H34 C45 0.980 1_555 1_555
H35 C46 0.980 1_555 1_555
H36 C46 0.980 1_555 1_555
H37 C46 0.980 1_555 1_555
H38 C48 0.950 1_555 1_555
H39 C50 0.950 1_555 1_555
H40 C52 0.950 1_555 1_555
H41 C54 0.980 1_555 1_555
H42 C54 0.980 1_555 1_555
H43 C54 0.979 1_555 1_555
H44 C55 0.980 1_555 1_555
H45 C55 0.980 1_555 1_555
H46 C55 0.980 1_555 1_555
H47 C56 0.980 1_555 1_555
H48 C56 0.980 1_555 1_555
H49 C56 0.980 1_555 1_555
H50 C58 0.981 1_555 1_555
H51 C58 0.979 1_555 1_555
H52 C58 0.980 1_555 1_555
H53 C59 0.980 1_555 1_555
H54 C59 0.980 1_555 1_555
H55 C59 0.980 1_555 1_555
H56 C60 0.981 1_555 1_555
H57 C60 0.980 1_555 1_555
H58 C60 0.980 1_555 1_555
C13 C14 1.420 1_555 1_555
C14 C15 1.402 1_555 1_555
C15 C16 1.488 1_555 1_555
C23 C24 1.363 1_555 1_555
C31 C32 1.384 1_555 1_555
C37 C38 1.396 1_555 1_555
C51 C52 1.386 1_555 1_555
#END
