
#######################################################################
#
#                 Cambridge Crystallographic Data Centre
#                                CCDC
#
#######################################################################
#
# If this CIF has been generated from an entry in the Cambridge
# Structural Database, then it will include bibliographic, chemical,
# crystal, experimental, refinement or atomic coordinate data resulting
# from the CCDC's data processing and validation procedures.
#
#######################################################################

data_CSD_CIF_UVAKUY02
_audit_creation_date 2015-09-09
_audit_creation_method CSD-ConQuest-V1
_database_code_CSD UVAKUY02
_database_code_depnum_ccdc_archive 'CCDC 1061675'
_chemical_formula_sum 'C30 H20'
_chemical_formula_moiety
;
C30 H20
;
_journal_coden_Cambridge 179
_journal_volume 54
_journal_year 2015
_journal_page_first 9308
_journal_name_full 'Angew.Chem.,Int.Ed. '
loop_
_publ_author_name
"Chaolumen"
"M.Murata"
"Y.Sugano"
"A.Wakamiya"
"Y.Murata"
_chemical_name_systematic
;
5,11-diphenyltetracene
;
_cell_volume    995.460
_exptl_crystal_colour 'yellow'
_exptl_crystal_density_diffrn 1.269
_exptl_crystal_description 'block'
_diffrn_ambient_temperature 100
#These two values have been output from a single CSD field.
_refine_ls_R_factor_gt 0.0469
_refine_ls_wR_factor_gt 0.0469
_symmetry_cell_setting triclinic
_symmetry_space_group_name_H-M 'P -1'
_symmetry_Int_Tables_number 2
loop_
_symmetry_equiv_pos_site_id
_symmetry_equiv_pos_as_xyz
1 x,y,z
2 -x,-y,-z
_cell_length_a 9.2769(9)
_cell_length_b 10.8876(11)
_cell_length_c 10.9105(11)
_cell_angle_alpha 66.823(2)
_cell_angle_beta 89.653(2)
_cell_angle_gamma 80.044(2)
_cell_formula_units_Z 2
loop_
_atom_type_symbol
_atom_type_radius_bond
C 0.68
H 0.23
loop_
_atom_site_label
_atom_site_type_symbol
_atom_site_fract_x
_atom_site_fract_y
_atom_site_fract_z
C1 C 0.95935(18) 0.99040(18) 0.55910(16)
C2 C 0.84651(18) 0.91222(17) 0.58432(16)
C3 C 0.81868(18) 0.84810(17) 0.50064(16)
C4 C 0.71917(18) 0.75451(18) 0.53112(17)
H1 H 0.66710 0.73700 0.60970
C5 C 0.6979(2) 0.69068(19) 0.45042(18)
H2 H 0.63260 0.62790 0.47390
C6 C 0.99545(18) 1.05013(18) 0.64468(16)
H3 H 0.94540 1.03480 0.72410
C7 C 1.10148(18) 1.13066(18) 0.61763(16)
C8 C 1.13125(19) 1.19726(19) 0.70176(17)
H4 H 1.08240 1.18070 0.78190
C9 C 1.2278(2) 1.28356(19) 0.66947(18)
H5 H 1.24600 1.32690 0.72670
C10 C 0.75423(18) 0.89831(17) 0.70087(16)
C11 C 0.60844(19) 0.96437(19) 0.67939(18)
H6 H 0.56890 1.02070 0.59100
C12 C 0.5204(2) 0.94896(19) 0.78526(19)
H7 H 0.42120 0.99510 0.76950
C13 C 0.5771(2) 0.8662(2) 0.91425(19)
H8 H 0.51660 0.85480 0.98710
C14 C 0.7217(2) 0.80035(19) 0.93686(18)
H9 H 0.76070 0.74320 1.02530
C15 C 0.80977(19) 0.81765(18) 0.83063(17)
H10 H 0.90970 0.77360 0.84700
C16 C 0.95830(18) 0.47775(17) 0.95947(16)
C17 C 0.99202(18) 0.50874(17) 0.82558(17)
H11 H 0.93800 0.47920 0.77210
C18 C 1.10160(18) 0.58096(17) 0.76991(17)
C19 C 1.13332(19) 0.61443(18) 0.63292(17)
H12 H 1.07930 0.58510 0.57920
C20 C 1.23948(19) 0.68740(19) 0.57881(18)
H13 H 1.25900 0.70870 0.48790
C21 C 1.32122(19) 0.73184(19) 0.65742(18)
H14 H 1.39500 0.78310 0.61830
C22 C 1.29603(19) 0.70249(18) 0.78769(18)
H15 H 1.35260 0.73320 0.83840
C23 C 1.18538(18) 0.62578(17) 0.84997(17)
C24 C 0.84537(18) 0.40392(17) 1.01668(16)
C25 C 0.76213(18) 0.35546(18) 0.93371(17)
C26 C 0.6427(2) 0.44008(19) 0.84875(18)
H16 H 0.61170 0.52940 0.84510
C27 C 0.5680(2) 0.3956(2) 0.76912(19)
H17 H 0.48660 0.45460 0.71100
C28 C 0.6117(2) 0.2659(2) 0.77410(18)
H18 H 0.56110 0.23580 0.71900
C29 C 0.7295(2) 0.1800(2) 0.85953(19)
H19 H 0.75920 0.09040 0.86370
C30 C 0.80409(19) 0.22417(19) 0.93895(18)
H20 H 0.88470 0.16440 0.99760
C1A C 1.04065(18) 1.00960(18) 0.44090(16)
C2A C 1.15349(18) 1.08778(17) 0.41568(16)
C3A C 1.18132(18) 1.15190(17) 0.49936(16)
C4A C 1.28083(18) 1.24549(18) 0.46888(17)
H1A H 1.33290 1.26300 0.39030
C5A C 1.3021(2) 1.30932(19) 0.54958(18)
H2A H 1.36740 1.37210 0.52610
C6A C 1.00455(18) 0.94987(18) 0.35532(16)
H3A H 1.05460 0.96520 0.27590
C7A C 0.89852(18) 0.86934(18) 0.38237(16)
C8A C 0.86875(19) 0.80274(19) 0.29824(17)
H4A H 0.91760 0.81930 0.21810
C9A C 0.7722(2) 0.71644(19) 0.33053(18)
H5A H 0.75400 0.67310 0.27330
C10A C 1.24577(18) 1.10169(17) 0.29913(16)
C11A C 1.39156(19) 1.03563(19) 0.32061(18)
H6A H 1.43110 0.97930 0.40900
C12A C 1.4796(2) 1.05104(19) 0.21474(19)
H7A H 1.57880 1.00490 0.23050
C13A C 1.4229(2) 1.1338(2) 0.08575(19)
H8A H 1.48340 1.14520 0.01290
C14A C 1.2783(2) 1.19965(19) 0.06314(18)
H9A H 1.23930 1.25680 -0.02530
C15A C 1.19023(19) 1.18235(18) 0.16937(17)
H10A H 1.09030 1.22640 0.15300
C16A C 1.04170(18) 0.52225(17) 1.04053(16)
C17A C 1.00798(18) 0.49126(17) 1.17442(17)
H11A H 1.06200 0.52080 1.22790
C18A C 0.89840(18) 0.41904(17) 1.23009(17)
C19A C 0.86668(19) 0.38557(18) 1.36708(17)
H12A H 0.92070 0.41490 1.42080
C20A C 0.76052(19) 0.31260(19) 1.42119(18)
H13A H 0.74100 0.29130 1.51210
C21A C 0.67878(19) 0.26816(19) 1.34258(18)
H14A H 0.60500 0.21690 1.38170
C22A C 0.70397(19) 0.29751(18) 1.21231(18)
H15A H 0.64740 0.26680 1.16160
C23A C 0.81462(18) 0.37422(17) 1.15003(17)
C24A C 1.15463(18) 0.59608(17) 0.98332(16)
C25A C 1.23787(18) 0.64454(18) 1.06629(17)
C26A C 1.3573(2) 0.55992(19) 1.15125(18)
H16A H 1.38830 0.47060 1.15490
C27A C 1.4320(2) 0.6044(2) 1.23088(19)
H17A H 1.51340 0.54540 1.28900
C28A C 1.3883(2) 0.7341(2) 1.22590(18)
H18A H 1.43890 0.76420 1.28100
C29A C 1.2705(2) 0.8200(2) 1.14047(19)
H19A H 1.24080 0.90960 1.13630
C30A C 1.19591(19) 0.77583(19) 1.06105(18)
H20A H 1.11530 0.83560 1.00240
loop_
_geom_bond_atom_site_label_1
_geom_bond_atom_site_label_2
_geom_bond_distance
_geom_bond_site_symmetry_1
_geom_bond_site_symmetry_2
C1 C2 1.420 1_555 1_555
C2 C3 1.398 1_555 1_555
C3 C4 1.434 1_555 1_555
C4 H1 0.950 1_555 1_555
C5 C4 1.352 1_555 1_555
H2 C5 0.950 1_555 1_555
C6 C1 1.401 1_555 1_555
H3 C6 0.950 1_555 1_555
C7 C6 1.384 1_555 1_555
C8 C7 1.429 1_555 1_555
H4 C8 0.950 1_555 1_555
C9 C8 1.355 1_555 1_555
H5 C9 0.950 1_555 1_555
C10 C2 1.501 1_555 1_555
C11 C10 1.391 1_555 1_555
H6 C11 0.950 1_555 1_555
C12 C11 1.383 1_555 1_555
H7 C12 0.950 1_555 1_555
C13 C12 1.384 1_555 1_555
H8 C13 0.950 1_555 1_555
C14 C13 1.381 1_555 1_555
H9 C14 0.950 1_555 1_555
C15 C10 1.384 1_555 1_555
H10 C15 0.950 1_555 1_555
C16 C17 1.410 1_555 1_555
C17 H11 0.950 1_555 1_555
C18 C17 1.383 1_555 1_555
C19 C18 1.434 1_555 1_555
H12 C19 0.950 1_555 1_555
C20 C19 1.358 1_555 1_555
H13 C20 0.950 1_555 1_555
C21 C20 1.416 1_555 1_555
H14 C21 0.950 1_555 1_555
C22 C21 1.357 1_555 1_555
H15 C22 0.950 1_555 1_555
C23 C18 1.442 1_555 1_555
C24 C16 1.422 1_555 1_555
C25 C24 1.490 1_555 1_555
C26 C25 1.387 1_555 1_555
H16 C26 0.950 1_555 1_555
C27 C26 1.387 1_555 1_555
H17 C27 0.950 1_555 1_555
C28 C27 1.380 1_555 1_555
H18 C28 0.949 1_555 1_555
C29 C28 1.382 1_555 1_555
H19 C29 0.950 1_555 1_555
C30 C25 1.393 1_555 1_555
H20 C30 0.950 1_555 1_555
C1A C1 1.451 1_555 1_555
C2A C1A 1.420 1_555 1_555
C3A C7 1.442 1_555 1_555
C4A C3A 1.434 1_555 1_555
H1A C4A 0.950 1_555 1_555
C5A C9 1.425 1_555 1_555
H2A C5A 0.950 1_555 1_555
C6A C1A 1.401 1_555 1_555
H3A C6A 0.950 1_555 1_555
C7A C3 1.442 1_555 1_555
C8A C7A 1.429 1_555 1_555
H4A C8A 0.950 1_555 1_555
C9A C5 1.425 1_555 1_555
H5A C9A 0.950 1_555 1_555
C10A C2A 1.501 1_555 1_555
C11A C10A 1.391 1_555 1_555
H6A C11A 0.950 1_555 1_555
C12A C11A 1.383 1_555 1_555
H7A C12A 0.950 1_555 1_555
C13A C12A 1.384 1_555 1_555
H8A C13A 0.950 1_555 1_555
C14A C13A 1.381 1_555 1_555
H9A C14A 0.950 1_555 1_555
C15A C10A 1.384 1_555 1_555
H10A C15A 0.950 1_555 1_555
C16A C16 1.446 1_555 1_555
C17A C16A 1.410 1_555 1_555
H11A C17A 0.950 1_555 1_555
C18A C17A 1.383 1_555 1_555
C19A C18A 1.434 1_555 1_555
H12A C19A 0.950 1_555 1_555
C20A C19A 1.358 1_555 1_555
H13A C20A 0.950 1_555 1_555
C21A C20A 1.416 1_555 1_555
H14A C21A 0.950 1_555 1_555
C22A C21A 1.357 1_555 1_555
H15A C22A 0.950 1_555 1_555
C23A C24 1.400 1_555 1_555
C24A C23 1.400 1_555 1_555
C25A C24A 1.490 1_555 1_555
C26A C25A 1.387 1_555 1_555
H16A C26A 0.950 1_555 1_555
C27A C26A 1.387 1_555 1_555
H17A C27A 0.950 1_555 1_555
C28A C27A 1.380 1_555 1_555
H18A C28A 0.949 1_555 1_555
C29A C28A 1.382 1_555 1_555
H19A C29A 0.950 1_555 1_555
C30A C25A 1.393 1_555 1_555
H20A C30A 0.950 1_555 1_555
C14 C15 1.384 1_555 1_555
C22 C23 1.433 1_555 1_555
C29 C30 1.382 1_555 1_555
C2A C3A 1.398 1_555 1_555
C4A C5A 1.352 1_555 1_555
C6A C7A 1.384 1_555 1_555
C8A C9A 1.355 1_555 1_555
C14A C15A 1.384 1_555 1_555
C16A C24A 1.422 1_555 1_555
C18A C23A 1.442 1_555 1_555
C22A C23A 1.433 1_555 1_555
C29A C30A 1.382 1_555 1_555
#END
