
#######################################################################
#
#                 Cambridge Crystallographic Data Centre
#                                CCDC
#
#######################################################################
#
# If this CIF has been generated from an entry in the Cambridge
# Structural Database, then it will include bibliographic, chemical,
# crystal, experimental, refinement or atomic coordinate data resulting
# from the CCDC's data processing and validation procedures.
#
#######################################################################

data_CSD_CIF_UVAKUY
_audit_creation_date 2011-08-29
_audit_creation_method CSD-ConQuest-V1
_database_code_CSD UVAKUY
_database_code_depnum_ccdc_archive 'CCDC 804406'
_chemical_formula_sum 'C30 H20'
_chemical_formula_moiety
;
C30 H20
;
_journal_coden_Cambridge 1096
_journal_volume 23
_journal_year 2011
_journal_page_first 1646
_journal_name_full 'Chem.Mater. '
loop_
_publ_author_name
"T.Okamoto"
"K.Nakahara"
"A.Saeki"
"Shu Seki"
"Joon Hak Oh"
"H.B.Akkerman"
"Zhenan Bao"
"Y.Matsuo"
_chemical_name_systematic
;
5,11-Diphenyltetracene
;
_cell_volume    995.328
_exptl_crystal_colour 'yellow'
_exptl_crystal_density_diffrn 1.269
_exptl_crystal_description 'platelet'
_diffrn_ambient_temperature 123
#These two values have been output from a single CSD field.
_refine_ls_R_factor_gt 0.0694
_refine_ls_wR_factor_gt 0.0694
_symmetry_cell_setting triclinic
_symmetry_space_group_name_H-M 'P -1'
_symmetry_Int_Tables_number 2
loop_
_symmetry_equiv_pos_site_id
_symmetry_equiv_pos_as_xyz
1 x,y,z
2 -x,-y,-z
_cell_length_a 9.2589(7)
_cell_length_b 10.9073(8)
_cell_length_c 10.9164(9)
_cell_angle_alpha 66.773(4)
_cell_angle_beta 80.036(4)
_cell_angle_gamma 89.745(5)
_cell_formula_units_Z 2
loop_
_atom_type_symbol
_atom_type_radius_bond
C 0.68
H 0.23
loop_
_atom_site_label
_atom_site_type_symbol
_atom_site_fract_x
_atom_site_fract_y
_atom_site_fract_z
C1 C 0.7275(3) 0.1687(2) 1.2835(3)
C2 C 0.8015(3) 0.0483(2) 1.3097(3)
C3 C 0.7802(3) -0.0312(2) 1.2456(3)
C4 C 0.6813(3) -0.0014(2) 1.1518(2)
C5 C 0.6306(3) 0.2010(2) 1.1973(3)
C6 C 0.6014(3) 0.1174(2) 1.1302(3)
C7 C 0.4951(3) 0.1440(2) 1.0507(3)
C8 C 0.4592(3) 0.0588(2) 0.9902(2)
C9 C 0.3467(3) 0.0849(2) 0.9116(2)
C10 C 0.2542(3) 0.2009(2) 0.8982(3)
C11 C 0.3099(3) 0.3310(2) 0.8173(3)
C12 C 0.2213(3) 0.4374(3) 0.8004(3)
C13 C 0.0768(3) 0.4148(3) 0.8668(3)
C14 C 0.0204(3) 0.2860(3) 0.9488(3)
C15 C 0.1076(3) 0.1800(3) 0.9642(3)
H1 H 0.74610 0.22620 1.32640
H2 H 0.86620 0.02430 1.37280
H3 H 0.83240 -0.10970 1.26320
H4 H 0.58120 0.28080 1.18130
H5 H 0.44420 0.22290 1.03630
H6 H 0.40990 0.34760 0.77290
H7 H 0.26030 0.52590 0.74300
H8 H 0.01640 0.48760 0.85610
H9 H -0.07900 0.27010 0.99490
H10 H 0.06740 0.09160 1.02050
C16 C 0.3049(3) 0.4398(3) 0.2244(3)
C17 C 0.2301(3) 0.3600(3) 0.1797(3)
C18 C 0.1128(3) 0.2746(3) 0.2662(3)
C19 C 0.0682(3) 0.2690(3) 0.3948(3)
C20 C 0.1425(3) 0.3491(3) 0.4391(3)
C21 C 0.5079(3) 0.6740(2) 0.4912(2)
C22 C 0.5420(3) 0.5403(2) 0.5226(2)
C23 C 0.2616(3) 0.4336(2) 0.3550(3)
C24 C 0.3451(3) 0.5171(2) 0.4040(2)
C25 C 0.3146(3) 0.6502(2) 0.3745(2)
C26 C 0.3978(3) 0.7301(2) 0.4195(3)
C27 C 0.2035(3) 0.7129(2) 0.2978(3)
C28 C 0.3663(3) 0.8674(2) 0.3856(3)
C29 C 0.2607(3) 0.9218(3) 0.3134(3)
C30 C 0.1785(3) 0.8425(3) 0.2683(3)
H11 H 0.38600 0.49880 0.16530
H12 H 0.25960 0.36430 0.09020
H13 H 0.06250 0.21890 0.23640
H14 H -0.01350 0.21050 0.45340
H15 H 0.11100 0.34560 0.52810
H16 H 0.56240 0.72770 0.52030
H17 H 0.14660 0.66210 0.26740
H18 H 0.42090 0.92110 0.41460
H19 H 0.24110 1.01280 0.29250
H20 H 0.10500 0.88170 0.21680
C1A C 0.2725(3) -0.1687(2) 0.7165(3)
C2A C 0.1985(3) -0.0483(2) 0.6903(3)
C3A C 0.2198(3) 0.0312(2) 0.7544(3)
C4A C 0.3187(3) 0.0014(2) 0.8482(2)
C5A C 0.3694(3) -0.2010(2) 0.8027(3)
C6A C 0.3986(3) -0.1174(2) 0.8698(3)
C7A C 0.5049(3) -0.1440(2) 0.9493(3)
C8A C 0.5408(3) -0.0588(2) 1.0098(2)
C9A C 0.6533(3) -0.0849(2) 1.0884(2)
C10A C 0.7458(3) -0.2009(2) 1.1018(3)
C11A C 0.6901(3) -0.3310(2) 1.1827(3)
C12A C 0.7787(3) -0.4374(3) 1.1996(3)
C13A C 0.9232(3) -0.4148(3) 1.1332(3)
C14A C 0.9796(3) -0.2860(3) 1.0512(3)
C15A C 0.8924(3) -0.1800(3) 1.0358(3)
H1A H 0.25390 -0.22620 0.67360
H2A H 0.13380 -0.02430 0.62720
H3A H 0.16760 0.10970 0.73680
H4A H 0.41880 -0.28080 0.81870
H5A H 0.55580 -0.22290 0.96370
H6A H 0.59010 -0.34760 1.22710
H7A H 0.73970 -0.52590 1.25700
H8A H 0.98360 -0.48760 1.14390
H9A H 1.07900 -0.27010 1.00510
H10A H 0.93260 -0.09160 0.97950
C16A C 0.6951(3) 0.5602(3) 0.7756(3)
C17A C 0.7699(3) 0.6400(3) 0.8203(3)
C18A C 0.8872(3) 0.7254(3) 0.7338(3)
C19A C 0.9318(3) 0.7310(3) 0.6052(3)
C20A C 0.8575(3) 0.6509(3) 0.5609(3)
C21A C 0.4921(3) 0.3260(2) 0.5088(2)
C22A C 0.4580(3) 0.4597(2) 0.4774(2)
C23A C 0.7384(3) 0.5664(2) 0.6450(3)
C24A C 0.6549(3) 0.4829(2) 0.5960(2)
C25A C 0.6854(3) 0.3498(2) 0.6255(2)
C26A C 0.6022(3) 0.2699(2) 0.5805(3)
C27A C 0.7965(3) 0.2871(2) 0.7022(3)
C28A C 0.6337(3) 0.1326(2) 0.6144(3)
C29A C 0.7393(3) 0.0782(3) 0.6866(3)
C30A C 0.8215(3) 0.1575(3) 0.7317(3)
H11A H 0.61400 0.50120 0.83470
H12A H 0.74040 0.63570 0.90980
H13A H 0.93750 0.78110 0.76360
H14A H 1.01350 0.78950 0.54660
H15A H 0.88900 0.65440 0.47190
H16A H 0.43760 0.27230 0.47970
H17A H 0.85340 0.33790 0.73260
H18A H 0.57910 0.07890 0.58540
H19A H 0.75890 -0.01280 0.70750
H20A H 0.89500 0.11830 0.78320
loop_
_geom_bond_atom_site_label_1
_geom_bond_atom_site_label_2
_geom_bond_distance
_geom_bond_site_symmetry_1
_geom_bond_site_symmetry_2
C1 C2 1.428 1_555 1_555
C2 C3 1.345 1_555 1_555
C3 C4 1.432 1_555 1_555
C4 C6 1.447 1_555 1_555
C5 C1 1.357 1_555 1_555
C6 C5 1.428 1_555 1_555
C7 C6 1.379 1_555 1_555
C8 C7 1.405 1_555 1_555
C9 C8 1.420 1_555 1_555
C10 C9 1.498 1_555 1_555
C11 C10 1.386 1_555 1_555
C12 C11 1.389 1_555 1_555
C13 C12 1.379 1_555 1_555
C14 C13 1.379 1_555 1_555
C15 C10 1.396 1_555 1_555
H1 C1 0.950 1_555 1_555
H2 C2 0.949 1_555 1_555
H3 C3 0.950 1_555 1_555
H4 C5 0.949 1_555 1_555
H5 C7 0.950 1_555 1_555
H6 C11 0.950 1_555 1_555
H7 C12 0.950 1_555 1_555
H8 C13 0.950 1_555 1_555
H9 C14 0.950 1_555 1_555
H10 C15 0.950 1_555 1_555
C16 C17 1.390 1_555 1_555
C17 C18 1.378 1_555 1_555
C18 C19 1.370 1_555 1_555
C19 C20 1.387 1_555 1_555
C20 C23 1.378 1_555 1_555
C21 C22 1.408 1_555 1_555
C22 C22A 1.450 1_555 1_555
C23 C16 1.387 1_555 1_555
C24 C23 1.499 1_555 1_555
C25 C24 1.396 1_555 1_555
C26 C21 1.385 1_555 1_555
C27 C25 1.438 1_555 1_555
C28 C26 1.436 1_555 1_555
C29 C28 1.350 1_555 1_555
C30 C27 1.349 1_555 1_555
H11 C16 0.950 1_555 1_555
H12 C17 0.950 1_555 1_555
H13 C18 0.950 1_555 1_555
H14 C19 0.951 1_555 1_555
H15 C20 0.950 1_555 1_555
H16 C21 0.951 1_555 1_555
H17 C27 0.950 1_555 1_555
H18 C28 0.950 1_555 1_555
H19 C29 0.951 1_555 1_555
H20 C30 0.950 1_555 1_555
C1A C2A 1.428 1_555 1_555
C2A C3A 1.345 1_555 1_555
C3A C4A 1.432 1_555 1_555
C4A C9 1.392 1_555 1_555
C5A C1A 1.357 1_555 1_555
C6A C4A 1.447 1_555 1_555
C7A C6A 1.379 1_555 1_555
C8A C8 1.447 1_555 1_555
C9A C4 1.392 1_555 1_555
C10A C9A 1.498 1_555 1_555
C11A C10A 1.386 1_555 1_555
C12A C11A 1.389 1_555 1_555
C13A C12A 1.379 1_555 1_555
C14A C13A 1.379 1_555 1_555
C15A C10A 1.396 1_555 1_555
H1A C1A 0.950 1_555 1_555
H2A C2A 0.949 1_555 1_555
H3A C3A 0.950 1_555 1_555
H4A C5A 0.949 1_555 1_555
H5A C7A 0.950 1_555 1_555
H6A C11A 0.950 1_555 1_555
H7A C12A 0.950 1_555 1_555
H8A C13A 0.950 1_555 1_555
H9A C14A 0.950 1_555 1_555
H10A C15A 0.950 1_555 1_555
C16A C17A 1.390 1_555 1_555
C17A C18A 1.378 1_555 1_555
C18A C19A 1.370 1_555 1_555
C19A C20A 1.387 1_555 1_555
C20A C23A 1.378 1_555 1_555
C21A C22A 1.408 1_555 1_555
C22A C24 1.420 1_555 1_555
C23A C16A 1.387 1_555 1_555
C24A C22 1.420 1_555 1_555
C25A C24A 1.396 1_555 1_555
C26A C21A 1.385 1_555 1_555
C27A C25A 1.438 1_555 1_555
C28A C26A 1.436 1_555 1_555
C29A C28A 1.350 1_555 1_555
C30A C27A 1.349 1_555 1_555
H11A C16A 0.950 1_555 1_555
H12A C17A 0.950 1_555 1_555
H13A C18A 0.950 1_555 1_555
H14A C19A 0.951 1_555 1_555
H15A C20A 0.950 1_555 1_555
H16A C21A 0.951 1_555 1_555
H17A C27A 0.950 1_555 1_555
H18A C28A 0.950 1_555 1_555
H19A C29A 0.951 1_555 1_555
H20A C30A 0.950 1_555 1_555
C14 C15 1.379 1_555 1_555
C25 C26 1.438 1_555 1_555
C29 C30 1.429 1_555 1_555
C5A C6A 1.428 1_555 1_555
C7A C8A 1.405 1_555 1_555
C8A C9A 1.420 1_555 1_555
C14A C15A 1.379 1_555 1_555
C23A C24A 1.499 1_555 1_555
C25A C26A 1.438 1_555 1_555
C29A C30A 1.429 1_555 1_555
#END
