
#######################################################################
#
#                 Cambridge Crystallographic Data Centre
#                                CCDC
#
#######################################################################
#
# If this CIF has been generated from an entry in the Cambridge
# Structural Database, then it will include bibliographic, chemical,
# crystal, experimental, refinement or atomic coordinate data resulting
# from the CCDC's data processing and validation procedures.
#
#######################################################################

data_CSD_CIF_UVALAG
_audit_creation_date 2016-09-05
_audit_creation_method CSD-ConQuest-V1
_database_code_CSD UVALAG
_database_code_depnum_ccdc_archive 'CCDC 1450402'
_chemical_formula_sum 'C46 H26'
_chemical_formula_moiety
;
C46 H26
;
_journal_coden_Cambridge 1490
_journal_volume 7
_journal_year 2016
_journal_page_first 12704
_journal_name_full 'Nat.Commun. '
loop_
_publ_author_name
"Yoshiaki Shoji"
"N.Tanaka"
"S.Muranaka"
"N.Shigeno"
"H.Sugiyama"
"K.Takenouchi"
"F.Hajjaj"
"T.Fukushima"
_chemical_name_systematic
;
diphenanthro[9,10-f:9',10'-l]pentahelicene
;
_chemical_name_common
;
hexabenzo[a,c,f,j,m,o]picene
;
_cell_volume   2707.587
_exptl_crystal_colour 'orange yellow'
_exptl_crystal_density_diffrn 1.42
_exptl_crystal_description 'block'
_diffrn_ambient_temperature 90
#These two values have been output from a single CSD field.
_refine_ls_R_factor_gt 0.0343
_refine_ls_wR_factor_gt 0.0343
_symmetry_cell_setting monoclinic
_symmetry_space_group_name_H-M 'P 21/c'
_symmetry_Int_Tables_number 14
loop_
_symmetry_equiv_pos_site_id
_symmetry_equiv_pos_as_xyz
1 x,y,z
2 -x,1/2+y,1/2-z
3 -x,-y,-z
4 x,-1/2-y,-1/2+z
_cell_length_a 10.2897(11)
_cell_length_b 13.0026(14)
_cell_length_c 20.341(2)
_cell_angle_alpha 90
_cell_angle_beta 95.792(1)
_cell_angle_gamma 90
_cell_formula_units_Z 4
loop_
_atom_type_symbol
_atom_type_radius_bond
C 0.68
H 0.23
loop_
_atom_site_label
_atom_site_type_symbol
_atom_site_fract_x
_atom_site_fract_y
_atom_site_fract_z
C1 C 0.50663(13) 0.50904(10) 0.62558(6)
C2 C 0.74476(13) 0.61921(10) 0.63701(6)
C3 C 0.61426(13) 0.46656(10) 0.66233(6)
C4 C 0.52780(13) 0.59041(10) 0.57829(6)
C5 C 0.71936(13) 0.8760(1) 0.44357(6)
C6 C 0.65079(13) 0.63838(10) 0.57975(6)
C7 C 0.48088(14) 0.31843(10) 0.69266(6)
C8 C 0.80614(13) 0.72257(10) 0.50567(6)
C9 C 0.82417(13) 0.80211(10) 0.45980(6)
C10 C 0.74595(13) 0.97805(10) 0.41816(6)
C11 C 0.45268(13) 0.69547(10) 0.48335(6)
H1 H 0.38420 0.71430 0.45070
C12 C 0.67678(13) 0.70786(10) 0.52785(6)
C13 C 0.73000(13) 0.53029(10) 0.67588(6)
C14 C 0.57098(13) 0.75235(10) 0.48839(6)
C15 C 0.37713(13) 0.47214(10) 0.63739(6)
C16 C 0.48399(13) 0.91742(10) 0.43019(6)
C17 C 0.59209(13) 0.84834(10) 0.45315(6)
C18 C 0.60499(13) 0.36214(10) 0.68810(6)
C19 C 0.50854(13) 1.00466(10) 0.39132(6)
C20 C 0.64242(14) 1.0392(1) 0.38900(6)
C21 C 0.35442(13) 0.90286(10) 0.44565(7)
H2 H 0.33710 0.85190 0.47710
C22 C 0.36510(14) 0.37984(11) 0.67341(6)
C23 C 0.91579(13) 0.58551(11) 0.75122(7)
H3 H 0.97530 0.57320 0.78920
C24 C 0.81801(13) 0.51625(11) 0.73353(6)
H4 H 0.80900 0.45750 0.76050
C25 C 0.90609(13) 0.64864(11) 0.51863(7)
H5 H 0.89390 0.59420 0.54850
C26 C 0.43449(13) 0.61454(10) 0.52400(6)
H6 H 0.35820 0.57350 0.51600
C27 C 0.71639(14) 0.29941(11) 0.70156(6)
H7 H 0.80030 0.32660 0.69600
C28 C 0.84290(13) 0.69067(10) 0.65798(7)
H8 H 0.85040 0.75190 0.63310
C29 C 0.26438(13) 0.53325(11) 0.62351(7)
H9 H 0.27090 0.59640 0.60060
C30 C 0.89698(15) 1.11949(11) 0.40593(7)
H10 H 0.98270 1.14720 0.41290
C31 C 0.67106(14) 1.13832(10) 0.36563(7)
H11 H 0.60260 1.17890 0.34420
C32 C 0.40225(14) 1.06073(11) 0.36055(7)
H12 H 0.41830 1.11620 0.33210
C33 C 0.94020(13) 0.80147(11) 0.42812(7)
H13 H 0.95140 0.85190 0.39530
C34 C 0.87166(14) 1.02221(11) 0.42785(7)
H14 H 0.94090 0.98350 0.45020
C35 C 1.02066(14) 0.65332(11) 0.48916(7)
H15 H 1.08780 0.60430 0.50010
C36 C 0.25250(14) 0.96084(11) 0.41617(7)
H16 H 0.16610 0.94870 0.42690
C37 C 0.47333(15) 0.21631(11) 0.71584(7)
H17 H 0.39020 0.18700 0.72070
C38 C 0.92811(13) 0.67450(11) 0.71334(7)
H18 H 0.99490 0.72310 0.72590
C39 C 0.70558(15) 0.19928(11) 0.72269(7)
H19 H 0.78150 0.15790 0.73130
C40 C 0.27565(14) 1.03691(11) 0.37079(7)
H20 H 0.20480 1.07210 0.34710
C41 C 1.03755(14) 0.73023(11) 0.44319(7)
H21 H 1.11600 0.73350 0.42230
C42 C 0.79600(15) 1.17700(11) 0.37337(7)
H22 H 0.81350 1.24310 0.35650
C43 C 0.58344(15) 0.15894(11) 0.73145(7)
H23 H 0.57650 0.09130 0.74830
C44 C 0.14535(14) 0.50374(12) 0.64231(7)
H24 H 0.07090 0.54620 0.63230
C45 C 0.24204(14) 0.35140(12) 0.69130(7)
H25 H 0.23340 0.28890 0.71460
C46 C 0.13394(15) 0.41161(12) 0.67599(7)
H26 H 0.05140 0.39050 0.68830
loop_
_geom_bond_atom_site_label_1
_geom_bond_atom_site_label_2
_geom_bond_distance
_geom_bond_site_symmetry_1
_geom_bond_site_symmetry_2
C1 C3 1.387 1_555 1_555
C2 C6 1.458 1_555 1_555
C3 C13 1.454 1_555 1_555
C4 C1 1.461 1_555 1_555
C5 C9 1.457 1_555 1_555
C6 C4 1.409 1_555 1_555
C7 C18 1.409 1_555 1_555
C8 C9 1.418 1_555 1_555
C9 C33 1.413 1_555 1_555
C10 C5 1.460 1_555 1_555
C11 H1 0.950 1_555 1_555
C12 C6 1.435 1_555 1_555
C13 C2 1.417 1_555 1_555
C14 C11 1.419 1_555 1_555
C15 C1 1.459 1_555 1_555
C16 C17 1.469 1_555 1_555
C17 C5 1.391 1_555 1_555
C18 C3 1.462 1_555 1_555
C19 C16 1.420 1_555 1_555
C20 C10 1.411 1_555 1_555
C21 C16 1.413 1_555 1_555
H2 C21 0.950 1_555 1_555
C22 C7 1.455 1_555 1_555
C23 H3 0.950 1_555 1_555
C24 C13 1.419 1_555 1_555
H4 C24 0.950 1_555 1_555
C25 C8 1.413 1_555 1_555
H5 C25 0.949 1_555 1_555
C26 C4 1.423 1_555 1_555
H6 C26 0.950 1_555 1_555
C27 C18 1.411 1_555 1_555
H7 C27 0.950 1_555 1_555
C28 C2 1.406 1_555 1_555
H8 C28 0.951 1_555 1_555
C29 C15 1.411 1_555 1_555
H9 C29 0.950 1_555 1_555
C30 H10 0.950 1_555 1_555
C31 C20 1.415 1_555 1_555
H11 C31 0.950 1_555 1_555
C32 C19 1.408 1_555 1_555
H12 C32 0.950 1_555 1_555
C33 H13 0.951 1_555 1_555
C34 C10 1.411 1_555 1_555
H14 C34 0.950 1_555 1_555
C35 C25 1.377 1_555 1_555
H15 C35 0.950 1_555 1_555
C36 C21 1.379 1_555 1_555
H16 C36 0.950 1_555 1_555
C37 C7 1.414 1_555 1_555
H17 C37 0.951 1_555 1_555
C38 C23 1.403 1_555 1_555
H18 C38 0.949 1_555 1_555
C39 C27 1.379 1_555 1_555
H19 C39 0.950 1_555 1_555
C40 C32 1.375 1_555 1_555
H20 C40 0.950 1_555 1_555
C41 C33 1.376 1_555 1_555
H21 C41 0.950 1_555 1_555
C42 C30 1.392 1_555 1_555
H22 C42 0.949 1_555 1_555
C43 C37 1.367 1_555 1_555
H23 C43 0.949 1_555 1_555
C44 C29 1.374 1_555 1_555
H24 C44 0.950 1_555 1_555
C45 C22 1.402 1_555 1_555
H25 C45 0.949 1_555 1_555
C46 C44 1.391 1_555 1_555
H26 C46 0.950 1_555 1_555
C8 C12 1.461 1_555 1_555
C11 C26 1.363 1_555 1_555
C12 C14 1.410 1_555 1_555
C14 C17 1.466 1_555 1_555
C15 C22 1.418 1_555 1_555
C19 C20 1.454 1_555 1_555
C23 C24 1.371 1_555 1_555
C28 C38 1.372 1_555 1_555
C30 C34 1.375 1_555 1_555
C31 C42 1.375 1_555 1_555
C35 C41 1.392 1_555 1_555
C36 C40 1.390 1_555 1_555
C39 C43 1.390 1_555 1_555
C45 C46 1.370 1_555 1_555
#END
