
#######################################################################
#
#                 Cambridge Crystallographic Data Centre
#                                CCDC
#
#######################################################################
#
# If this CIF has been generated from an entry in the Cambridge
# Structural Database, then it will include bibliographic, chemical,
# crystal, experimental, refinement or atomic coordinate data resulting
# from the CCDC's data processing and validation procedures.
#
#######################################################################

data_CSD_CIF_UWITUQ
_audit_creation_date 2011-10-03
_audit_creation_method CSD-ConQuest-V1
_database_code_CSD UWITUQ
_database_code_depnum_ccdc_archive 'CCDC 840979'
_chemical_formula_sum 'C26 H20'
_chemical_formula_moiety
;
C26 H20
;
_journal_coden_Cambridge 154
_journal_volume 63
_journal_year 2010
_journal_page_first 1703
_journal_name_full 'Aust.J.Chem. '
loop_
_publ_author_name
"R.J.Vermeij"
"D.O.Miller"
"L.N.Dawe"
"I.Aprahamian"
"T.Sheradsky"
"M.Rabinovitz"
"G.J.Bodwell"
_chemical_name_systematic
;
Hexacyclo[14.7.1.1^6,21^.1^9,13^.0^4,22^.0^18,23^]hexacosa-1(23),2,4,6(25),9(2
6),10,12,16(24),17,19,21-undecaene
;
_chemical_name_common
;
1(2,7)-pyrena-4(1,3)-benzenacyclohexaphane
;
_cell_volume   1789.312
_exptl_crystal_colour 'colorless'
_exptl_crystal_density_diffrn 1.234
_exptl_crystal_description 'prism'
_diffrn_ambient_temperature 299.2
#These two values have been output from a single CSD field.
_refine_ls_R_factor_gt 0.0501
_refine_ls_wR_factor_gt 0.0501
_symmetry_cell_setting monoclinic
_symmetry_space_group_name_H-M 'P 21'
_symmetry_Int_Tables_number 4
loop_
_symmetry_equiv_pos_site_id
_symmetry_equiv_pos_as_xyz
1 x,y,z
2 -x,1/2+y,-z
_cell_length_a 9.282(3)
_cell_length_b 14.383(3)
_cell_length_c 13.4119(17)
_cell_angle_alpha 90
_cell_angle_beta 92.113(14)
_cell_angle_gamma 90
_cell_formula_units_Z 4
loop_
_atom_type_symbol
_atom_type_radius_bond
C 0.68
H 0.23
loop_
_atom_site_label
_atom_site_type_symbol
_atom_site_fract_x
_atom_site_fract_y
_atom_site_fract_z
C1 C 0.2880(4) 0.2203(3) 0.1666(3)
C2 C 0.3466(4) 0.1898(2) 0.2579(3)
H1 H 0.38960 0.13140 0.26230
C3 C 0.3419(4) 0.2448(2) 0.3419(3)
C4 C 0.2750(3) 0.3328(2) 0.3323(2)
C5 C 0.1817(3) 0.3514(3) 0.2481(3)
C6 C 0.1907(4) 0.2927(3) 0.1663(3)
H2 H 0.13020 0.30240 0.11040
C7 C 0.4347(4) 0.2277(3) 0.4291(3)
H3 H 0.45480 0.16700 0.44930
C8 C 0.4912(5) 0.2993(3) 0.4804(3)
H4 H 0.55070 0.28840 0.53650
C9 C 0.4602(4) 0.3933(3) 0.4492(2)
C10 C 0.3358(3) 0.4089(2) 0.3864(2)
C11 C 0.3030(4) 0.5004(2) 0.3541(3)
C12 C 0.1767(4) 0.5137(3) 0.2901(3)
H5 H 0.13550 0.57250 0.28400
C13 C 0.1180(4) 0.4418(3) 0.2390(3)
H6 H 0.03630 0.45080 0.19790
C14 C 0.5643(4) 0.4624(3) 0.4552(2)
H7 H 0.64590 0.45430 0.49660
C15 C 0.5478(4) 0.5433(3) 0.4003(3)
C16 C 0.4118(4) 0.5669(3) 0.3619(3)
H8 H 0.39330 0.62750 0.34110
C17 C 0.3659(4) 0.1974(3) 0.0736(3)
H9 H 0.31190 0.22020 0.01530
H10 H 0.37700 0.13070 0.06720
C18 C 0.5157(4) 0.2450(3) 0.0821(3)
H11 H 0.57270 0.21290 0.13340
H12 H 0.56280 0.23560 0.01950
C19 C 0.5202(3) 0.3485(2) 0.1058(2)
C20 C 0.6108(3) 0.3848(2) 0.1809(2)
H13 H 0.66360 0.34360 0.22130
C21 C 0.6264(3) 0.4801(2) 0.1986(2)
C22 C 0.5432(4) 0.5397(3) 0.1389(3)
H14 H 0.55110 0.60360 0.14800
C23 C 0.4488(4) 0.5050(3) 0.0663(3)
H15 H 0.39140 0.54580 0.02860
C24 C 0.4385(4) 0.4115(3) 0.0488(2)
H16 H 0.37610 0.38970 -0.00170
C25 C 0.7358(4) 0.5173(3) 0.2764(3)
H17 H 0.81230 0.54790 0.24150
H18 H 0.77840 0.46470 0.31180
C26 C 0.6792(5) 0.5862(3) 0.3547(3)
H19 H 0.75320 0.59780 0.40610
H20 H 0.65370 0.64490 0.32310
C27 C -0.1821(4) 0.3298(3) 0.8914(3)
C28 C -0.0595(4) 0.2820(3) 0.8655(3)
H21 H -0.06660 0.22020 0.84550
C29 C 0.0743(4) 0.3259(2) 0.8692(2)
C30 C 0.0799(4) 0.4195(3) 0.9003(2)
C31 C -0.0370(4) 0.4573(3) 0.9533(2)
C32 C -0.1675(4) 0.4100(3) 0.9482(2)
H22 H -0.24520 0.43220 0.98300
C33 C 0.1924(4) 0.2899(3) 0.8140(3)
H23 H 0.20620 0.22600 0.80940
C34 C 0.2819(4) 0.3478(3) 0.7693(3)
H24 H 0.35800 0.32420 0.73390
C35 C 0.2610(3) 0.4467(3) 0.7758(3)
C36 C 0.1752(3) 0.4816(3) 0.8529(2)
C37 C 0.1497(4) 0.5781(3) 0.8593(3)
C38 C 0.0637(5) 0.6109(3) 0.9396(3)
H25 H 0.07100 0.67250 0.96020
C39 C -0.0261(5) 0.5533(3) 0.9847(3)
H26 H -0.08150 0.57490 1.03610
C40 C 0.2870(3) 0.5051(3) 0.6955(3)
H27 H 0.34430 0.48410 0.64470
C41 C 0.2291(4) 0.5940(3) 0.6899(3)
C42 C 0.1780(4) 0.6331(3) 0.7759(3)
H28 H 0.16210 0.69690 0.77840
C43 C -0.3195(4) 0.3142(4) 0.8297(3)
H29 H -0.40250 0.31860 0.87140
H30 H -0.31900 0.25300 0.79930
C44 C -0.3264(4) 0.3910(3) 0.7479(3)
H31 H -0.40950 0.37820 0.70410
H32 H -0.34430 0.44980 0.78060
C45 C -0.1971(3) 0.4042(2) 0.6827(2)
C46 C -0.1407(3) 0.4935(2) 0.6685(2)
H33 H -0.17460 0.54250 0.70640
C47 C -0.0354(3) 0.5113(2) 0.5994(2)
C48 C 0.0160(4) 0.4369(3) 0.5463(3)
H34 H 0.08570 0.44690 0.49930
C49 C -0.0338(4) 0.3484(3) 0.5615(3)
H35 H 0.00490 0.29880 0.52680
C50 C -0.1414(4) 0.3326(3) 0.6284(3)
H36 H -0.17650 0.27260 0.63660
C51 C 0.0141(5) 0.6102(3) 0.5785(3)
H37 H -0.03660 0.65170 0.62210
H38 H -0.01620 0.62570 0.51050
C52 C 0.1792(4) 0.6316(3) 0.5913(3)
H39 H 0.23130 0.60230 0.53830
H40 H 0.19590 0.69810 0.58870
loop_
_geom_bond_atom_site_label_1
_geom_bond_atom_site_label_2
_geom_bond_distance
_geom_bond_site_symmetry_1
_geom_bond_site_symmetry_2
C1 C2 1.392 1_555 1_555
C2 H1 0.931 1_555 1_555
C3 C2 1.379 1_555 1_555
C4 C3 1.414 1_555 1_555
C5 C4 1.423 1_555 1_555
C6 C1 1.378 1_555 1_555
H2 C6 0.931 1_555 1_555
C7 C3 1.448 1_555 1_555
H3 C7 0.931 1_555 1_555
C8 C7 1.335 1_555 1_555
H4 C8 0.930 1_555 1_555
C9 C8 1.441 1_555 1_555
C10 C4 1.419 1_555 1_555
C11 C10 1.415 1_555 1_555
C12 C11 1.440 1_555 1_555
H5 C12 0.931 1_555 1_555
C13 C5 1.432 1_555 1_555
H6 C13 0.930 1_555 1_555
C14 C9 1.386 1_555 1_555
H7 C14 0.930 1_555 1_555
C15 C14 1.382 1_555 1_555
C16 C11 1.392 1_555 1_555
H8 C16 0.929 1_555 1_555
C17 C1 1.501 1_555 1_555
H9 C17 0.970 1_555 1_555
H10 C17 0.969 1_555 1_555
C18 C17 1.550 1_555 1_555
H11 C18 0.969 1_555 1_555
H12 C18 0.970 1_555 1_555
C19 C18 1.522 1_555 1_555
C20 C19 1.390 1_555 1_555
H13 C20 0.930 1_555 1_555
C21 C20 1.398 1_555 1_555
C22 C21 1.388 1_555 1_555
H14 C22 0.930 1_555 1_555
C23 C22 1.379 1_555 1_555
H15 C23 0.930 1_555 1_555
C24 C19 1.392 1_555 1_555
H16 C24 0.929 1_555 1_555
C25 C21 1.526 1_555 1_555
H17 C25 0.970 1_555 1_555
H18 C25 0.970 1_555 1_555
C26 C15 1.516 1_555 1_555
H19 C26 0.970 1_555 1_555
H20 C26 0.970 1_555 1_555
C27 C28 1.385 1_555 1_555
C28 H21 0.930 1_555 1_555
C29 C28 1.392 1_555 1_555
C30 C29 1.410 1_555 1_555
C31 C30 1.427 1_555 1_555
C32 C27 1.386 1_555 1_555
H22 C32 0.930 1_555 1_555
C33 C29 1.441 1_555 1_555
H23 C33 0.930 1_555 1_555
C34 C33 1.334 1_555 1_555
H24 C34 0.930 1_555 1_555
C35 C34 1.439 1_555 1_555
C36 C30 1.423 1_555 1_555
C37 C36 1.411 1_555 1_555
C38 C37 1.443 1_555 1_555
H25 C38 0.930 1_555 1_555
C39 C31 1.446 1_555 1_555
H26 C39 0.929 1_555 1_555
C40 C35 1.394 1_555 1_555
H27 C40 0.930 1_555 1_555
C41 C40 1.388 1_555 1_555
C42 C37 1.403 1_555 1_555
H28 C42 0.930 1_555 1_555
C43 C27 1.511 1_555 1_555
H29 C43 0.971 1_555 1_555
H30 C43 0.970 1_555 1_555
C44 C43 1.557 1_555 1_555
H31 C44 0.970 1_555 1_555
H32 C44 0.970 1_555 1_555
C45 C44 1.523 1_555 1_555
C46 C45 1.403 1_555 1_555
H33 C46 0.931 1_555 1_555
C47 C46 1.395 1_555 1_555
C48 C47 1.380 1_555 1_555
H34 C48 0.931 1_555 1_555
C49 C48 1.372 1_555 1_555
H35 C49 0.931 1_555 1_555
C50 C45 1.373 1_555 1_555
H36 C50 0.930 1_555 1_555
C51 C47 1.524 1_555 1_555
H37 C51 0.970 1_555 1_555
H38 C51 0.970 1_555 1_555
C52 C41 1.487 1_555 1_555
H39 C52 0.971 1_555 1_555
H40 C52 0.970 1_555 1_555
C5 C6 1.389 1_555 1_555
C9 C10 1.422 1_555 1_555
C12 C13 1.345 1_555 1_555
C15 C16 1.388 1_555 1_555
C23 C24 1.368 1_555 1_555
C25 C26 1.550 1_555 1_555
C31 C32 1.389 1_555 1_555
C35 C36 1.420 1_555 1_555
C38 C39 1.336 1_555 1_555
C41 C42 1.383 1_555 1_555
C49 C50 1.386 1_555 1_555
C51 C52 1.566 1_555 1_555
#END
