
#######################################################################
#
#                 Cambridge Crystallographic Data Centre
#                                CCDC
#
#######################################################################
#
# If this CIF has been generated from an entry in the Cambridge
# Structural Database, then it will include bibliographic, chemical,
# crystal, experimental, refinement or atomic coordinate data resulting
# from the CCDC's data processing and validation procedures.
#
#######################################################################

data_CSD_CIF_VAHJEV
_audit_creation_date 2011-03-04
_audit_creation_method CSD-ConQuest-V1
_database_code_CSD VAHJEV
_database_code_depnum_ccdc_archive 'CCDC 779257'
_chemical_formula_sum 'C18 H10'
_chemical_formula_moiety
;
C18 H10
;
_journal_coden_Cambridge 1220
_journal_volume 16
_journal_year 2010
_journal_page_first 11906
_journal_name_full 'Chem.-Eur.J. '
loop_
_publ_author_name
"J.Chmiel"
"B.Neumann"
"H.-G.Stammler"
"N.W.Mitzel"
_chemical_name_systematic
;
1,8-Diethynylanthracene
;
_cell_volume   3638.787
_exptl_crystal_colour 'pale yellow'
_exptl_crystal_density_diffrn 1.239
_exptl_crystal_description 'plates'
_diffrn_ambient_temperature 153
#These two values have been output from a single CSD field.
_refine_ls_R_factor_gt 0.0508
_refine_ls_wR_factor_gt 0.0508
_symmetry_cell_setting monoclinic
_symmetry_space_group_name_H-M 'P 21/n'
_symmetry_Int_Tables_number 14
loop_
_symmetry_equiv_pos_site_id
_symmetry_equiv_pos_as_xyz
1 x,y,z
2 1/2-x,1/2+y,1/2-z
3 -x,-y,-z
4 -1/2+x,-1/2-y,-1/2+z
_cell_length_a 13.3427(14)
_cell_length_b 11.5448(12)
_cell_length_c 23.693(3)
_cell_angle_alpha 90
_cell_angle_beta 94.420(2)
_cell_angle_gamma 90
_cell_formula_units_Z 12
loop_
_atom_type_symbol
_atom_type_radius_bond
C 0.68
H 0.23
loop_
_atom_site_label
_atom_site_type_symbol
_atom_site_fract_x
_atom_site_fract_y
_atom_site_fract_z
C1 C 0.42998(19) 0.1652(2) 0.15908(11)
C2 C 0.49870(18) 0.2458(2) 0.18804(10)
C3 C 0.54094(18) 0.3385(2) 0.16052(10)
H1 H 0.52510 0.34860 0.12100
C4 C 0.60591(18) 0.4167(2) 0.18955(10)
C5 C 0.64734(19) 0.5150(2) 0.16225(11)
C6 C 0.70907(19) 0.5905(2) 0.19319(11)
H2 H 0.73640 0.65500 0.17480
C7 C 0.7327(2) 0.5744(2) 0.25168(11)
H3 H 0.77590 0.62760 0.27220
C8 C 0.69417(18) 0.4835(2) 0.27865(11)
H4 H 0.71030 0.47380 0.31810
C9 C 0.62966(18) 0.4018(2) 0.24883(10)
C10 C 0.58797(19) 0.3088(2) 0.27608(10)
H5 H 0.60440 0.29840 0.31550
C11 C 0.5229(2) 0.2307(2) 0.24752(11)
C12 C 0.4788(2) 0.1373(2) 0.27569(12)
H6 H 0.49480 0.12640 0.31510
C13 C 0.4142(2) 0.0635(2) 0.24722(12)
H7 H 0.38520 0.00180 0.26690
C14 C 0.3895(2) 0.0772(2) 0.18876(11)
H8 H 0.34400 0.02460 0.16960
C15 C 0.40285(19) 0.1781(2) 0.09970(12)
C16 C 0.3798(2) 0.1881(2) 0.05086(13)
H9 H 0.36120 0.19610 0.01150
C17 C 0.62213(19) 0.5345(2) 0.10320(12)
C18 C 0.6008(2) 0.5491(2) 0.05412(12)
H10 H 0.58370 0.56070 0.01490
C19 C 0.27564(18) 0.4422(2) 0.15441(10)
C20 C 0.34295(18) 0.5206(2) 0.18565(10)
C21 C 0.38523(18) 0.6160(2) 0.16028(10)
H11 H 0.36880 0.63010 0.12120
C22 C 0.45072(18) 0.6911(2) 0.19054(10)
C23 C 0.49654(19) 0.7892(2) 0.16526(10)
C24 C 0.56142(19) 0.8583(2) 0.19740(11)
H12 H 0.59150 0.92260 0.18020
C25 C 0.5850(2) 0.8365(2) 0.25580(11)
H13 H 0.63000 0.88610 0.27740
C26 C 0.54333(19) 0.7447(2) 0.28071(10)
H14 H 0.55980 0.73040 0.31980
C27 C 0.47537(18) 0.6691(2) 0.24956(10)
C28 C 0.43288(18) 0.5741(2) 0.27487(10)
H15 H 0.44900 0.56010 0.31400
C29 C 0.36732(18) 0.4986(2) 0.24434(10)
C30 C 0.32629(18) 0.3992(2) 0.26991(11)
H16 H 0.34270 0.38380 0.30890
C31 C 0.26394(19) 0.3265(2) 0.23893(10)
H17 H 0.23700 0.26070 0.25650
C32 C 0.23858(19) 0.3475(2) 0.18089(10)
H18 H 0.19520 0.29530 0.15990
C33 C 0.24858(19) 0.4652(2) 0.09564(11)
C34 C 0.2266(2) 0.4876(2) 0.04794(12)
H19 H 0.20880 0.50570 0.00930
C35 C 0.4722(2) 0.8157(2) 0.10649(11)
C36 C 0.4505(2) 0.8368(2) 0.05876(12)
H20 H 0.43290 0.85400 0.02010
C37 C 0.6826(2) 0.6850(2) 0.42274(10)
C38 C 0.59039(19) 0.6207(2) 0.42641(9)
C39 C 0.58752(19) 0.5000(2) 0.42659(9)
H21 H 0.64860 0.45800 0.42570
C40 C 0.49806(19) 0.4397(2) 0.42799(9)
C41 C 0.4940(2) 0.3153(2) 0.42818(10)
C42 C 0.4037(2) 0.2601(2) 0.4277(1)
H22 H 0.40170 0.17790 0.42640
C43 C 0.3131(2) 0.3226(2) 0.42909(10)
H23 H 0.25110 0.28210 0.42890
C44 C 0.31404(19) 0.4399(2) 0.43063(10)
H24 H 0.25250 0.48080 0.43220
C45 C 0.40540(19) 0.5027(2) 0.42995(9)
C46 C 0.4089(2) 0.6234(2) 0.43089(10)
H25 H 0.34810 0.66550 0.43290
C47 C 0.4987(2) 0.6843(2) 0.42904(10)
C48 C 0.5015(2) 0.8080(2) 0.42831(10)
H26 H 0.44120 0.85100 0.43080
C49 C 0.5898(2) 0.8644(2) 0.42403(11)
H27 H 0.59040 0.94670 0.42290
C50 C 0.6808(2) 0.8031(2) 0.42117(10)
H28 H 0.74160 0.84460 0.41810
C51 C 0.7751(2) 0.6234(2) 0.42042(10)
C52 C 0.8516(2) 0.5714(3) 0.41798(11)
H29 H 0.91270 0.52990 0.41600
C53 C 0.5859(2) 0.2509(2) 0.42936(10)
C54 C 0.6634(2) 0.2003(2) 0.43104(11)
H30 H 0.72550 0.15970 0.43240
loop_
_geom_bond_atom_site_label_1
_geom_bond_atom_site_label_2
_geom_bond_distance
_geom_bond_site_symmetry_1
_geom_bond_site_symmetry_2
C1 C2 1.442 1_555 1_555
C2 C3 1.395 1_555 1_555
C3 H1 0.951 1_555 1_555
C4 C3 1.396 1_555 1_555
C5 C4 1.438 1_555 1_555
C6 C5 1.372 1_555 1_555
H2 C6 0.950 1_555 1_555
C7 C6 1.410 1_555 1_555
H3 C7 0.950 1_555 1_555
C8 C7 1.351 1_555 1_555
H4 C8 0.949 1_555 1_555
C9 C4 1.426 1_555 1_555
C10 C9 1.391 1_555 1_555
H5 C10 0.950 1_555 1_555
C11 C2 1.432 1_555 1_555
C12 C11 1.419 1_555 1_555
H6 C12 0.950 1_555 1_555
C13 C12 1.354 1_555 1_555
H7 C13 0.950 1_555 1_555
C14 C1 1.370 1_555 1_555
H8 C14 0.949 1_555 1_555
C15 C1 1.433 1_555 1_555
C16 C15 1.180 1_555 1_555
H9 C16 0.951 1_555 1_555
C17 C5 1.431 1_555 1_555
C18 C17 1.188 1_555 1_555
H10 C18 0.949 1_555 1_555
C19 C20 1.439 1_555 1_555
C20 C21 1.395 1_555 1_555
C21 H11 0.949 1_555 1_555
C22 C21 1.390 1_555 1_555
C23 C22 1.439 1_555 1_555
C24 C23 1.365 1_555 1_555
H12 C24 0.950 1_555 1_555
C25 C24 1.418 1_555 1_555
H13 C25 0.950 1_555 1_555
C26 C25 1.353 1_555 1_555
H14 C26 0.950 1_555 1_555
C27 C22 1.434 1_555 1_555
C28 C27 1.392 1_555 1_555
H15 C28 0.949 1_555 1_555
C29 C20 1.426 1_555 1_555
C30 C29 1.426 1_555 1_555
H16 C30 0.950 1_555 1_555
C31 C30 1.357 1_555 1_555
H17 C31 0.950 1_555 1_555
C32 C19 1.372 1_555 1_555
H18 C32 0.949 1_555 1_555
C33 C19 1.436 1_555 1_555
C34 C33 1.174 1_555 1_555
H19 C34 0.951 1_555 1_555
C35 C23 1.438 1_555 1_555
C36 C35 1.171 1_555 1_555
H20 C36 0.949 1_555 1_555
C37 C38 1.445 1_555 1_555
C38 C39 1.394 1_555 1_555
C39 H21 0.950 1_555 1_555
C40 C39 1.384 1_555 1_555
C41 C40 1.437 1_555 1_555
C42 C41 1.362 1_555 1_555
H22 C42 0.950 1_555 1_555
C43 C42 1.410 1_555 1_555
H23 C43 0.950 1_555 1_555
C44 C43 1.355 1_555 1_555
H24 C44 0.950 1_555 1_555
C45 C40 1.438 1_555 1_555
C46 C45 1.394 1_555 1_555
H25 C46 0.950 1_555 1_555
C47 C38 1.432 1_555 1_555
C48 C47 1.429 1_555 1_555
H26 C48 0.951 1_555 1_555
C49 C48 1.357 1_555 1_555
H27 C49 0.951 1_555 1_555
C50 C37 1.364 1_555 1_555
H28 C50 0.950 1_555 1_555
C51 C37 1.429 1_555 1_555
C52 C51 1.189 1_555 1_555
H29 C52 0.950 1_555 1_555
C53 C41 1.432 1_555 1_555
C54 C53 1.186 1_555 1_555
H30 C54 0.950 1_555 1_555
C8 C9 1.427 1_555 1_555
C10 C11 1.391 1_555 1_555
C13 C14 1.408 1_555 1_555
C26 C27 1.423 1_555 1_555
C28 C29 1.397 1_555 1_555
C31 C32 1.412 1_555 1_555
C44 C45 1.419 1_555 1_555
C46 C47 1.393 1_555 1_555
C49 C50 1.412 1_555 1_555
#END
