
#######################################################################
#
#                 Cambridge Crystallographic Data Centre
#                                CCDC
#
#######################################################################
#
# If this CIF has been generated from an entry in the Cambridge
# Structural Database, then it will include bibliographic, chemical,
# crystal, experimental, refinement or atomic coordinate data resulting
# from the CCDC's data processing and validation procedures.
#
#######################################################################

data_CSD_CIF_VAHWEJ
_audit_creation_date 2016-03-08
_audit_creation_method CSD-ConQuest-V1
_database_code_CSD VAHWEJ
_database_code_depnum_ccdc_archive 'CCDC 1430987'
_chemical_formula_sum 'C34 H22'
_chemical_formula_moiety
;
C34 H22
;
_journal_coden_Cambridge 35
_journal_volume 81
_journal_year 2016
_journal_page_first 2106
_journal_name_full 'J.Org.Chem. '
loop_
_publ_author_name
"T.Nishiuchi"
"Shin-ya Uno"
"Y.Hirao"
"T.Kubo"
_chemical_name_systematic
;
9,9'-(1,2-phenylene)dianthracene
;
_chemical_name_common
;
ortho-(9,9'-dianthryl)benzene
;
_cell_volume   1119.745
_exptl_crystal_colour 'colorless'
_exptl_crystal_density_diffrn 1.277
_exptl_crystal_description 'prism'
_exptl_crystal_preparation 'chloroform'
_diffrn_ambient_temperature 200
#These two values have been output from a single CSD field.
_refine_ls_R_factor_gt 0.0322
_refine_ls_wR_factor_gt 0.0322
_symmetry_cell_setting monoclinic
_symmetry_space_group_name_H-M 'C 2'
_symmetry_Int_Tables_number 5
loop_
_symmetry_equiv_pos_site_id
_symmetry_equiv_pos_as_xyz
1 x,y,z
2 -x,y,-z
3 1/2+x,1/2+y,z
4 1/2-x,1/2+y,-z
_cell_length_a 16.3261(13)
_cell_length_b 8.3889(3)
_cell_length_c 11.0680(5)
_cell_angle_alpha 90
_cell_angle_beta 132.380(9)
_cell_angle_gamma 90
_cell_formula_units_Z 2
loop_
_atom_type_symbol
_atom_type_radius_bond
C 0.68
H 0.23
loop_
_atom_site_label
_atom_site_type_symbol
_atom_site_fract_x
_atom_site_fract_y
_atom_site_fract_z
C1 C 0.37617(10) 0.32225(16) 0.41575(15)
C2 C 0.28570(11) 0.28623(17) 0.24813(15)
C3 C 0.39391(10) 0.22742(15) 0.53737(15)
C4 C 0.32349(11) 0.09375(17) 0.49146(16)
C5 C 0.21627(10) 0.15187(16) 0.20404(15)
C6 C 0.23592(11) 0.05894(19) 0.32558(18)
H1 H 0.18910 -0.02960 0.29550
C7 C 0.17237(12) 0.3435(2) -0.04180(17)
H2 H 0.15700 0.40780 -0.12570
C8 C 0.47852(11) 0.26373(18) 0.70839(16)
H3 H 0.52510 0.35360 0.74220
C9 C 0.4436(1) 0.46901(16) 0.46131(14)
C10 C 0.12574(11) 0.1169(2) 0.03391(16)
H4 H 0.07990 0.02710 0.00390
C11 C 0.25959(11) 0.3814(2) 0.11816(16)
H5 H 0.30370 0.47210 0.14380
C12 C 0.34348(12) -0.00144(18) 0.61634(18)
H6 H 0.29870 -0.09260 0.58640
C13 C 0.10465(12) 0.2099(2) -0.08440(17)
H7 H 0.04420 0.18530 -0.19630
C14 C 0.49328(11) 0.1712(2) 0.82330(16)
H8 H 0.54980 0.19760 0.93580
C15 C 0.42514(13) 0.0362(2) 0.77634(18)
H9 H 0.43690 -0.02810 0.85750
C16 C 0.39028(11) 0.6164(2) 0.42492(15)
H10 H 0.31460 0.61770 0.37330
C17 C 0.44489(12) 0.75948(19) 0.46205(16)
H11 H 0.40670 0.85740 0.43550
C1A C 0.62383(10) 0.32225(16) 0.58425(15)
C2A C 0.71430(11) 0.28623(17) 0.75187(15)
C3A C 0.60609(10) 0.22742(15) 0.46263(15)
C4A C 0.67651(11) 0.09375(17) 0.50854(16)
C5A C 0.78373(10) 0.15187(16) 0.79596(15)
C6A C 0.76408(11) 0.05894(19) 0.67442(18)
H1A H 0.81090 -0.02960 0.70450
C7A C 0.82763(12) 0.3435(2) 1.04180(17)
H2A H 0.84300 0.40780 1.12570
C8A C 0.52148(11) 0.26373(18) 0.29161(16)
H3A H 0.47490 0.35360 0.25780
C9A C 0.5564(1) 0.46901(16) 0.53869(14)
C10A C 0.87426(11) 0.1169(2) 0.96609(16)
H4A H 0.92010 0.02710 0.99610
C11A C 0.74041(11) 0.3814(2) 0.88184(16)
H5A H 0.69630 0.47210 0.85620
C12A C 0.65652(12) -0.00144(18) 0.38366(18)
H6A H 0.70130 -0.09260 0.41360
C13A C 0.89535(12) 0.2099(2) 1.08440(17)
H7A H 0.95580 0.18530 1.19630
C14A C 0.50672(11) 0.1712(2) 0.17670(16)
H8A H 0.45020 0.19760 0.06420
C15A C 0.57486(13) 0.0362(2) 0.22366(18)
H9A H 0.56310 -0.02810 0.14250
C16A C 0.60972(11) 0.6164(2) 0.57508(15)
H10A H 0.68540 0.61770 0.62670
C17A C 0.55511(12) 0.75948(19) 0.53795(16)
H11A H 0.59330 0.85740 0.56450
loop_
_geom_bond_atom_site_label_1
_geom_bond_atom_site_label_2
_geom_bond_distance
_geom_bond_site_symmetry_1
_geom_bond_site_symmetry_2
C1 C2 1.422 1_555 1_555
C2 C5 1.431 1_555 1_555
C3 C1 1.415 1_555 1_555
C4 C3 1.432 1_555 1_555
C5 C6 1.392 1_555 1_555
C6 C4 1.401 1_555 1_555
H1 C6 0.951 1_555 1_555
C7 H2 0.950 1_555 1_555
C8 C3 1.435 1_555 1_555
H3 C8 0.950 1_555 1_555
C9 C1 1.495 1_555 1_555
C10 C5 1.437 1_555 1_555
H4 C10 0.950 1_555 1_555
C11 C2 1.436 1_555 1_555
H5 C11 0.950 1_555 1_555
C12 C4 1.431 1_555 1_555
H6 C12 0.950 1_555 1_555
C13 C7 1.414 1_555 1_555
H7 C13 0.950 1_555 1_555
C14 C8 1.366 1_555 1_555
H8 C14 0.950 1_555 1_555
C15 C12 1.353 1_555 1_555
H9 C15 0.950 1_555 1_555
C16 C9 1.406 1_555 1_555
H10 C16 0.949 1_555 1_555
C17 C16 1.382 1_555 1_555
H11 C17 0.950 1_555 1_555
C1A C2A 1.422 1_555 1_555
C2A C5A 1.431 1_555 1_555
C3A C1A 1.415 1_555 1_555
C4A C3A 1.432 1_555 1_555
C5A C6A 1.392 1_555 1_555
C6A C4A 1.401 1_555 1_555
H1A C6A 0.951 1_555 1_555
C7A H2A 0.950 1_555 1_555
C8A C3A 1.435 1_555 1_555
H3A C8A 0.950 1_555 1_555
C9A C9 1.414 1_555 1_555
C10A C5A 1.437 1_555 1_555
H4A C10A 0.950 1_555 1_555
C11A C2A 1.436 1_555 1_555
H5A C11A 0.950 1_555 1_555
C12A C4A 1.431 1_555 1_555
H6A C12A 0.950 1_555 1_555
C13A C7A 1.414 1_555 1_555
H7A C13A 0.950 1_555 1_555
C14A C8A 1.366 1_555 1_555
H8A C14A 0.950 1_555 1_555
C15A C12A 1.353 1_555 1_555
H9A C15A 0.950 1_555 1_555
C16A C9A 1.406 1_555 1_555
H10A C16A 0.949 1_555 1_555
C17A C17 1.381 1_555 1_555
H11A C17A 0.950 1_555 1_555
C7 C11 1.366 1_555 1_555
C10 C13 1.354 1_555 1_555
C14 C15 1.418 1_555 1_555
C1A C9A 1.495 1_555 1_555
C7A C11A 1.366 1_555 1_555
C10A C13A 1.354 1_555 1_555
C14A C15A 1.418 1_555 1_555
C16A C17A 1.382 1_555 1_555
#END
