
#######################################################################
#
#                 Cambridge Crystallographic Data Centre
#                                CCDC
#
#######################################################################
#
# If this CIF has been generated from an entry in the Cambridge
# Structural Database, then it will include bibliographic, chemical,
# crystal, experimental, refinement or atomic coordinate data resulting
# from the CCDC's data processing and validation procedures.
#
#######################################################################

data_CSD_CIF_VASXUL
_audit_creation_date 2017-05-02
_audit_creation_method CSD-ConQuest-V1
_database_code_CSD VASXUL
_database_code_depnum_ccdc_archive 'CCDC 1520365'
_chemical_formula_sum 'C38 H24'
_chemical_formula_moiety
;
C38 H24
;
_journal_coden_Cambridge 4
_journal_volume 139
_journal_year 2017
_journal_page_first 1428
_journal_name_full 'J.Am.Chem.Soc. '
loop_
_publ_author_name
"E.Gonzalez-Fernandez"
"L.D.M.Nicholls"
"L.Schaaf"
"C.Fares"
"C.W.Lehmann"
"M.Alcarazo"
_chemical_name_systematic
;
1,8-diphenyl-2,7-bis(phenylethynyl)naphthalene
;
_cell_volume   2588.384
_exptl_crystal_colour 'colorless'
_exptl_crystal_density_diffrn 1.233
_exptl_crystal_description 'needle'
_diffrn_ambient_temperature 100
#These two values have been output from a single CSD field.
_refine_ls_R_factor_gt 0.0514
_refine_ls_wR_factor_gt 0.0514
_symmetry_cell_setting triclinic
_symmetry_space_group_name_H-M 'P -1'
_symmetry_Int_Tables_number 2
loop_
_symmetry_equiv_pos_site_id
_symmetry_equiv_pos_as_xyz
1 x,y,z
2 -x,-y,-z
_cell_length_a 10.2480(6)
_cell_length_b 15.0433(8)
_cell_length_c 16.9963(8)
_cell_angle_alpha 85.397(5)
_cell_angle_beta 82.509(5)
_cell_angle_gamma 87.759(6)
_cell_formula_units_Z 4
loop_
_atom_type_symbol
_atom_type_radius_bond
C 0.68
H 0.23
loop_
_atom_site_label
_atom_site_type_symbol
_atom_site_fract_x
_atom_site_fract_y
_atom_site_fract_z
C1 C 0.21776(9) 0.24304(7) 0.50724(6)
C2 C 0.17874(9) 0.20377(6) 0.58626(6)
C3 C 0.15068(10) -0.03344(7) 0.53387(6)
C4 C 0.18767(10) 0.41142(7) 0.69643(7)
C5 C 0.13418(10) -0.11239(7) 0.53502(6)
C6 C 0.16769(9) 0.26156(7) 0.65063(6)
C7 C 0.19577(10) 0.35184(7) 0.63411(6)
C8 C 0.18638(10) 0.46491(7) 0.74569(7)
C9 C 0.24398(10) 0.33509(7) 0.49372(6)
H1 H 0.26900 0.35990 0.44100
C10 C 0.23242(10) 0.19056(7) 0.44095(6)
H2 H 0.25860 0.21780 0.38920
C11 C 0.1122(1) -0.20627(7) 0.53982(6)
C12 C 0.11537(10) 0.05606(7) 0.67155(6)
C13 C 0.15498(9) 0.10960(7) 0.59485(6)
C14 C 0.19017(10) 0.52468(7) 0.80673(6)
C15 C 0.17085(10) 0.06077(7) 0.52750(6)
C16 C -0.00180(11) 0.21373(7) 0.76531(7)
H3 H -0.06630 0.21650 0.72970
C17 C 0.23375(10) 0.38833(7) 0.55530(6)
H4 H 0.25200 0.44990 0.54550
C18 C 0.20955(10) 0.10169(7) 0.45034(6)
H5 H 0.21950 0.06720 0.40540
C19 C -0.01008(11) 0.01997(8) 0.68624(7)
H6 H -0.07270 0.03540 0.65050
C20 C 0.23026(10) 0.61241(7) 0.78712(6)
H7 H 0.25140 0.63330 0.73290
C21 C 0.23935(11) 0.66916(7) 0.84670(7)
H8 H 0.26720 0.72860 0.83320
C22 C 0.20587(11) 0.03275(7) 0.72441(6)
H9 H 0.29100 0.05730 0.71520
C23 C 0.22145(12) 0.23050(8) 0.78972(7)
H10 H 0.31020 0.24440 0.77090
C24 C 0.07390(11) -0.25229(8) 0.61371(7)
H11 H 0.06290 -0.22140 0.66080
C25 C 0.05207(11) -0.34322(8) 0.61797(8)
H12 H 0.02560 -0.37440 0.66800
C26 C 0.12858(10) 0.23262(7) 0.73630(6)
C27 C 0.12973(11) -0.25268(7) 0.47094(7)
H13 H 0.15620 -0.22200 0.42070
C28 C 0.06876(12) -0.38867(8) 0.54938(9)
H14 H 0.05300 -0.45080 0.55260
C29 C -0.04356(14) -0.03838(8) 0.75296(8)
H15 H -0.12910 -0.06220 0.76290
C30 C 0.15746(13) 0.49495(8) 0.88684(7)
H16 H 0.12890 0.43580 0.90070
C31 C 0.10836(12) -0.34385(8) 0.47610(8)
H17 H 0.12090 -0.37550 0.42940
C32 C 0.18475(14) 0.20816(9) 0.87033(7)
H18 H 0.24860 0.20660 0.90630
C33 C 0.20772(12) 0.63892(8) 0.92616(7)
H19 H 0.21410 0.67770 0.96690
C34 C 0.17267(14) -0.02622(9) 0.79061(7)
H20 H 0.23540 -0.04230 0.82620
C35 C -0.03816(13) 0.19082(8) 0.84590(7)
H21 H -0.12690 0.17700 0.86500
C36 C 0.05493(15) 0.18812(9) 0.89839(7)
H22 H 0.03000 0.17260 0.95340
C37 C 0.04801(16) -0.06172(9) 0.80485(8)
H23 H 0.02550 -0.10200 0.85010
C38 C 0.16682(14) 0.55209(9) 0.94612(7)
H24 H 0.14520 0.53170 1.00050
C39 C 0.53401(10) 0.44263(7) 0.64404(6)
C40 C 0.62952(10) 0.53021(7) 0.75909(6)
C41 C 0.65858(10) 0.70766(7) 0.81801(6)
C42 C 0.55716(9) 0.58521(6) 0.70075(6)
C43 C 0.52960(9) 0.67955(6) 0.70064(6)
C44 C 0.4548(1) 0.86392(7) 0.69452(7)
H25 H 0.42880 0.92530 0.69370
C45 C 0.5124(1) 0.53717(7) 0.64266(6)
C46 C 0.45416(9) 0.72004(7) 0.64107(6)
C47 C 0.41266(10) 0.66882(7) 0.58303(6)
H26 H 0.36390 0.69690 0.54360
C48 C 0.56762(10) 0.26784(7) 0.65477(6)
C49 C 0.44198(10) 0.57973(7) 0.58314(6)
H27 H 0.41520 0.54620 0.54330
C50 C 0.56985(11) 0.88423(7) 0.80861(7)
C51 C 0.54724(10) 0.36260(7) 0.64676(6)
C52 C 0.53151(10) 0.82631(7) 0.75306(6)
C53 C 0.41832(10) 0.81213(7) 0.63949(7)
H28 H 0.36840 0.83790 0.59970
C54 C 0.51633(10) 0.21292(7) 0.60433(7)
H29 H 0.46530 0.23820 0.56490
C55 C 0.64083(11) 0.22968(7) 0.71380(6)
H30 H 0.67450 0.26650 0.74890
C56 C 0.61421(12) 0.08405(8) 0.67014(8)
H31 H 0.63070 0.02140 0.67510
C57 C 0.57052(9) 0.73607(7) 0.75656(6)
C58 C 0.63662(12) 0.99493(7) 0.90805(7)
C59 C 0.59858(12) 0.93607(7) 0.85347(7)
C60 C 0.66403(12) 0.13805(8) 0.72089(7)
H32 H 0.71410 0.11230 0.76060
C61 C 0.76064(11) 0.50477(8) 0.73788(7)
H33 H 0.80700 0.52950 0.68950
C62 C 0.75792(13) 0.40720(8) 0.85683(7)
H34 H 0.80120 0.36490 0.88990
C63 C 0.79418(11) 0.71212(9) 0.79806(7)
H35 H 0.82980 0.72700 0.74440
C64 C 0.82478(12) 0.44361(9) 0.78657(8)
H36 H 0.91440 0.42690 0.77150
C65 C 0.54020(12) 0.12113(8) 0.61209(7)
H37 H 0.50590 0.08380 0.57770
C66 C 0.82723(13) 0.67363(9) 0.93406(8)
H38 H 0.88450 0.66180 0.97350
C67 C 0.56313(12) 0.49347(9) 0.83020(7)
H39 H 0.47360 0.51000 0.84550
C68 C 0.87826(12) 0.69506(10) 0.85574(8)
H40 H 0.97080 0.69810 0.84140
C69 C 0.60856(12) 0.68638(10) 0.89683(7)
H41 H 0.51610 0.68330 0.91140
C70 C 0.74129(13) 0.97044(9) 0.95114(7)
H42 H 0.78660 0.91480 0.94420
C71 C 0.69239(14) 0.66950(11) 0.95467(8)
H43 H 0.65700 0.65510 1.00850
C72 C 0.62765(14) 0.43243(10) 0.87908(8)
H44 H 0.58210 0.40800 0.92780
C73 C 0.57016(14) 1.07708(8) 0.91874(7)
H45 H 0.49890 1.09440 0.88970
C74 C 0.77937(16) 1.02706(10) 1.00411(8)
H46 H 0.85080 1.01020 1.03310
C75 C 0.60910(16) 1.13313(9) 0.97217(8)
H47 H 0.56410 1.18880 0.97950
C76 C 0.71275(17) 1.10842(9) 1.01461(8)
H48 H 0.73850 1.14710 1.05100
loop_
_geom_bond_atom_site_label_1
_geom_bond_atom_site_label_2
_geom_bond_distance
_geom_bond_site_symmetry_1
_geom_bond_site_symmetry_2
C1 C2 1.437 1_555 1_555
C2 C6 1.442 1_555 1_555
C3 C5 1.204 1_555 1_555
C4 C7 1.434 1_555 1_555
C5 C11 1.433 1_555 1_555
C6 C7 1.398 1_555 1_555
C7 C17 1.418 1_555 1_555
C8 C4 1.205 1_555 1_555
C9 C1 1.416 1_555 1_555
H1 C9 0.950 1_555 1_555
C10 C1 1.416 1_555 1_555
H2 C10 0.950 1_555 1_555
C11 C24 1.401 1_555 1_555
C12 C13 1.494 1_555 1_555
C13 C2 1.439 1_555 1_555
C14 C8 1.432 1_555 1_555
C15 C3 1.434 1_555 1_555
C16 H3 0.950 1_555 1_555
C17 C9 1.359 1_555 1_555
H4 C17 0.949 1_555 1_555
C18 C10 1.359 1_555 1_555
H5 C18 0.950 1_555 1_555
C19 C12 1.400 1_555 1_555
H6 C19 0.950 1_555 1_555
C20 C14 1.399 1_555 1_555
H7 C20 0.950 1_555 1_555
C21 C20 1.390 1_555 1_555
H8 C21 0.951 1_555 1_555
C22 C12 1.390 1_555 1_555
H9 C22 0.950 1_555 1_555
C23 H10 0.949 1_555 1_555
C24 H11 0.949 1_555 1_555
C25 C24 1.389 1_555 1_555
H12 C25 0.950 1_555 1_555
C26 C6 1.493 1_555 1_555
C27 C11 1.399 1_555 1_555
H13 C27 0.950 1_555 1_555
C28 C25 1.387 1_555 1_555
H14 C28 0.951 1_555 1_555
C29 C19 1.392 1_555 1_555
H15 C29 0.950 1_555 1_555
C30 C14 1.400 1_555 1_555
H16 C30 0.950 1_555 1_555
C31 C27 1.391 1_555 1_555
H17 C31 0.950 1_555 1_555
C32 C23 1.390 1_555 1_555
H18 C32 0.950 1_555 1_555
C33 C21 1.391 1_555 1_555
H19 C33 0.951 1_555 1_555
C34 C22 1.390 1_555 1_555
H20 C34 0.950 1_555 1_555
C35 C16 1.391 1_555 1_555
H21 C35 0.950 1_555 1_555
C36 C32 1.390 1_555 1_555
H22 C36 0.949 1_555 1_555
C37 C29 1.386 1_555 1_555
H23 C37 0.950 1_555 1_555
C38 C30 1.391 1_555 1_555
H24 C38 0.951 1_555 1_555
C39 C45 1.430 1_555 1_555
C40 C42 1.493 1_555 1_555
C41 C57 1.494 1_555 1_555
C42 C43 1.436 1_555 1_555
C43 C46 1.436 1_555 1_555
C44 H25 0.950 1_555 1_555
C45 C42 1.402 1_555 1_555
C46 C47 1.416 1_555 1_555
C47 H26 0.950 1_555 1_555
C48 C51 1.431 1_555 1_555
C49 C45 1.416 1_555 1_555
H27 C49 0.950 1_555 1_555
C50 C52 1.435 1_555 1_555
C51 C39 1.204 1_555 1_555
C52 C44 1.417 1_555 1_555
C53 C44 1.361 1_555 1_555
H28 C53 0.950 1_555 1_555
C54 C48 1.400 1_555 1_555
H29 C54 0.950 1_555 1_555
C55 C48 1.403 1_555 1_555
H30 C55 0.950 1_555 1_555
C56 H31 0.950 1_555 1_555
C57 C43 1.437 1_555 1_555
C58 C59 1.432 1_555 1_555
C59 C50 1.203 1_555 1_555
C60 C55 1.388 1_555 1_555
H32 C60 0.950 1_555 1_555
C61 C40 1.392 1_555 1_555
H33 C61 0.950 1_555 1_555
C62 H34 0.950 1_555 1_555
C63 C41 1.390 1_555 1_555
H35 C63 0.950 1_555 1_555
C64 C61 1.391 1_555 1_555
H36 C64 0.950 1_555 1_555
C65 C54 1.392 1_555 1_555
H37 C65 0.950 1_555 1_555
C66 H38 0.949 1_555 1_555
C67 C40 1.392 1_555 1_555
H39 C67 0.950 1_555 1_555
C68 C63 1.390 1_555 1_555
H40 C68 0.950 1_555 1_555
C69 C41 1.387 1_555 1_555
H41 C69 0.950 1_555 1_555
C70 C58 1.398 1_555 1_555
H42 C70 0.949 1_555 1_555
C71 C66 1.383 1_555 1_555
H43 C71 0.950 1_555 1_555
C72 C62 1.386 1_555 1_555
H44 C72 0.950 1_555 1_555
C73 C58 1.401 1_555 1_555
H45 C73 0.950 1_555 1_555
C74 C70 1.389 1_555 1_555
H46 C74 0.950 1_555 1_555
C75 C73 1.392 1_555 1_555
H47 C75 0.949 1_555 1_555
C76 C74 1.391 1_555 1_555
H48 C76 0.950 1_555 1_555
C13 C15 1.398 1_555 1_555
C15 C18 1.418 1_555 1_555
C16 C26 1.394 1_555 1_555
C23 C26 1.396 1_555 1_555
C28 C31 1.388 1_555 1_555
C33 C38 1.390 1_555 1_555
C34 C37 1.388 1_555 1_555
C35 C36 1.386 1_555 1_555
C46 C53 1.418 1_555 1_555
C47 C49 1.362 1_555 1_555
C52 C57 1.399 1_555 1_555
C56 C60 1.387 1_555 1_555
C56 C65 1.391 1_555 1_555
C62 C64 1.381 1_555 1_555
C66 C68 1.383 1_555 1_555
C67 C72 1.394 1_555 1_555
C69 C71 1.390 1_555 1_555
C75 C76 1.383 1_555 1_555
#END
