
#######################################################################
#
#                 Cambridge Crystallographic Data Centre
#                                CCDC
#
#######################################################################
#
# If this CIF has been generated from an entry in the Cambridge
# Structural Database, then it will include bibliographic, chemical,
# crystal, experimental, refinement or atomic coordinate data resulting
# from the CCDC's data processing and validation procedures.
#
#######################################################################

data_CSD_CIF_VAWBAY
_audit_creation_date 2012-04-25
_audit_creation_method CSD-ConQuest-V1
_database_code_CSD VAWBAY
_database_code_depnum_ccdc_archive 'CCDC 838416'
_chemical_formula_sum 'C22 H14'
_chemical_formula_moiety
;
C22 H14
;
_journal_coden_Cambridge 1336
_journal_volume 14
_journal_year 2012
_journal_page_first 418
_journal_name_full 'Org.Lett. '
loop_
_publ_author_name
"K.Kawasumi"
"K.Mochida"
"T.Kajino"
"Y.Segawa"
"K.Itami"
_chemical_name_systematic
;
3-Phenylfluoranthene
;
_cell_volume   2854.405
_exptl_crystal_colour 'colorless'
_exptl_crystal_density_diffrn 1.295
_diffrn_ambient_temperature 103
#These two values have been output from a single CSD field.
_refine_ls_R_factor_gt 0.0974
_refine_ls_wR_factor_gt 0.0974
_symmetry_cell_setting orthorhombic
_symmetry_space_group_name_H-M 'P 21 21 21'
_symmetry_Int_Tables_number 19
loop_
_symmetry_equiv_pos_site_id
_symmetry_equiv_pos_as_xyz
1 x,y,z
2 1/2-x,-y,1/2+z
3 1/2+x,1/2-y,-z
4 -x,1/2+y,1/2-z
_cell_length_a 7.521(2)
_cell_length_b 16.456(5)
_cell_length_c 23.063(7)
_cell_angle_alpha 90
_cell_angle_beta 90
_cell_angle_gamma 90
_cell_formula_units_Z 8
loop_
_atom_type_symbol
_atom_type_radius_bond
C 0.68
H 0.23
loop_
_atom_site_label
_atom_site_type_symbol
_atom_site_fract_x
_atom_site_fract_y
_atom_site_fract_z
C1 C 0.8014(8) 0.9045(3) 0.0836(2)
C2 C 0.8839(8) 0.9286(3) 0.0321(2)
H1 H 1.00150 0.94950 0.03400
C3 C 0.8013(8) 0.9234(3) -0.0223(3)
H2 H 0.86170 0.94150 -0.05610
C4 C 0.6311(8) 0.8918(3) -0.0265(2)
C5 C 0.5034(9) 0.8792(3) -0.0735(3)
C6 C 0.5121(9) 0.8944(3) -0.1322(2)
H3 H 0.61800 0.91570 -0.14870
C7 C 0.366(1) 0.8786(4) -0.1673(3)
H4 H 0.37150 0.88930 -0.20770
C8 C 0.2091(9) 0.8464(3) -0.1424(3)
H5 H 0.10960 0.83520 -0.16650
C9 C 0.1982(8) 0.8309(3) -0.0827(3)
H6 H 0.09270 0.80910 -0.06620
C10 C 0.3443(8) 0.8479(3) -0.0485(2)
C11 C 0.3714(8) 0.8394(3) 0.0155(2)
C12 C 0.2680(8) 0.8162(3) 0.0600(2)
H7 H 0.15200 0.79510 0.05380
C13 C 0.3395(8) 0.8244(3) 0.1169(3)
H8 H 0.26660 0.81010 0.14900
C14 C 0.5102(7) 0.8522(3) 0.1278(2)
H9 H 0.55180 0.85660 0.16650
C15 C 0.6221(8) 0.8740(3) 0.0812(2)
C16 C 0.5459(7) 0.8682(3) 0.0262(2)
C17 C 0.9025(8) 0.9116(3) 0.1395(2)
C18 C 1.0106(8) 0.9789(3) 0.1504(3)
H10 H 1.01220 1.02230 0.12320
C19 C 1.1137(8) 0.9844(4) 0.1988(3)
H11 H 1.19130 1.02950 0.20350
C20 C 1.1064(9) 0.9245(4) 0.2414(3)
H12 H 1.17320 0.92920 0.27620
C21 C 0.9977(9) 0.8574(4) 0.2313(3)
H13 H 0.99060 0.81580 0.25970
C22 C 0.9007(8) 0.8501(3) 0.1813(2)
H14 H 0.83150 0.80260 0.17490
C23 C 0.3867(8) 1.1281(3) 0.0983(2)
C24 C 0.4670(8) 1.0835(3) 0.0540(2)
H15 H 0.58290 1.06240 0.06040
C25 C 0.3844(9) 1.0682(3) 0.0003(2)
H16 H 0.44470 1.03790 -0.02880
C26 C 0.2166(8) 1.0974(3) -0.0099(2)
C27 C 0.0865(8) 1.0920(3) -0.0573(2)
C28 C 0.0980(9) 1.0549(3) -0.1109(3)
H17 H 0.20480 1.02930 -0.12310
C29 C -0.0533(9) 1.0560(4) -0.1470(3)
H18 H -0.04740 1.03190 -0.18440
C30 C -0.2121(9) 1.0922(4) -0.1285(3)
H19 H -0.31400 1.09060 -0.15280
C31 C -0.2212(8) 1.1308(3) -0.0741(3)
H20 H -0.32810 1.15640 -0.06190
C32 C -0.0732(7) 1.1311(3) -0.0385(2)
C33 C -0.0434(7) 1.1630(3) 0.0201(2)
C34 C -0.1458(8) 1.2049(3) 0.0594(3)
H21 H -0.26160 1.22330 0.04950
C35 C -0.0733(8) 1.2198(3) 0.1155(2)
H22 H -0.14510 1.24640 0.14350
C36 C 0.0962(8) 1.1972(3) 0.1305(3)
H23 H 0.13920 1.20860 0.16840
C37 C 0.2088(8) 1.1566(3) 0.0897(2)
C38 C 0.1321(8) 1.1410(3) 0.0361(2)
C39 C 0.4870(8) 1.1429(3) 0.1531(2)
C40 C 0.4903(8) 1.2204(3) 0.1787(2)
H24 H 0.42270 1.26320 0.16200
C41 C 0.5898(8) 1.2351(3) 0.2275(2)
H25 H 0.59030 1.28810 0.24380
C42 C 0.6889(8) 1.1749(4) 0.2534(2)
H26 H 0.75640 1.18570 0.28730
C43 C 0.6878(9) 1.0978(3) 0.2287(3)
H27 H 0.75600 1.05550 0.24570
C44 C 0.5872(8) 1.0823(3) 0.1792(2)
H28 H 0.58730 1.02930 0.16300
loop_
_geom_bond_atom_site_label_1
_geom_bond_atom_site_label_2
_geom_bond_distance
_geom_bond_site_symmetry_1
_geom_bond_site_symmetry_2
C1 C2 1.398 1_555 1_555
C2 H1 0.950 1_555 1_555
C3 C2 1.403 1_555 1_555
H2 C3 0.950 1_555 1_555
C4 C3 1.385 1_555 1_555
C5 C4 1.463 1_555 1_555
C6 C5 1.378 1_555 1_555
H3 C6 0.950 1_555 1_555
C7 C6 1.389 1_555 1_555
H4 C7 0.949 1_555 1_555
C8 C7 1.415 1_555 1_555
H5 C8 0.950 1_555 1_555
C9 C8 1.403 1_555 1_555
H6 C9 0.950 1_555 1_555
C10 C5 1.425 1_555 1_555
C11 C10 1.497 1_555 1_555
C12 C11 1.343 1_555 1_555
H7 C12 0.950 1_555 1_555
C13 C12 1.425 1_555 1_555
H8 C13 0.951 1_555 1_555
C14 C13 1.386 1_555 1_555
H9 C14 0.949 1_555 1_555
C15 C1 1.440 1_555 1_555
C16 C4 1.428 1_555 1_555
C17 C1 1.501 1_555 1_555
C18 C17 1.397 1_555 1_555
H10 C18 0.951 1_555 1_555
C19 C18 1.362 1_555 1_555
H11 C19 0.950 1_555 1_555
C20 C19 1.393 1_555 1_555
H12 C20 0.950 1_555 1_555
C21 C20 1.394 1_555 1_555
H13 C21 0.949 1_555 1_555
C22 C17 1.398 1_555 1_555
H14 C22 0.951 1_555 1_555
C23 C24 1.395 1_555 1_555
C24 H15 0.950 1_555 1_555
C25 C24 1.408 1_555 1_555
H16 C25 0.951 1_555 1_555
C26 C25 1.371 1_555 1_555
C27 C26 1.470 1_555 1_555
C28 C27 1.381 1_555 1_555
H17 C28 0.950 1_555 1_555
C29 C28 1.410 1_555 1_555
H18 C29 0.950 1_555 1_555
C30 C29 1.401 1_555 1_555
H19 C30 0.950 1_555 1_555
C31 C30 1.408 1_555 1_555
H20 C31 0.950 1_555 1_555
C32 C27 1.430 1_555 1_555
C33 C32 1.467 1_555 1_555
C34 C33 1.375 1_555 1_555
H21 C34 0.950 1_555 1_555
C35 C34 1.425 1_555 1_555
H22 C35 0.949 1_555 1_555
C36 C35 1.372 1_555 1_555
H23 C36 0.951 1_555 1_555
C37 C23 1.432 1_555 1_555
C38 C26 1.430 1_555 1_555
C39 C23 1.492 1_555 1_555
C40 C39 1.406 1_555 1_555
H24 C40 0.950 1_555 1_555
C41 C40 1.373 1_555 1_555
H25 C41 0.950 1_555 1_555
C42 C41 1.376 1_555 1_555
H26 C42 0.949 1_555 1_555
C43 C42 1.391 1_555 1_555
H27 C43 0.949 1_555 1_555
C44 C39 1.387 1_555 1_555
H28 C44 0.949 1_555 1_555
C9 C10 1.381 1_555 1_555
C11 C16 1.417 1_555 1_555
C14 C15 1.411 1_555 1_555
C15 C16 1.395 1_555 1_555
C21 C22 1.370 1_555 1_555
C31 C32 1.383 1_555 1_555
C33 C38 1.418 1_555 1_555
C36 C37 1.431 1_555 1_555
C37 C38 1.388 1_555 1_555
C43 C44 1.393 1_555 1_555
#END
