
#######################################################################
#
#                 Cambridge Crystallographic Data Centre
#                                CCDC
#
#######################################################################
#
# If this CIF has been generated from an entry in the Cambridge
# Structural Database, then it will include bibliographic, chemical,
# crystal, experimental, refinement or atomic coordinate data resulting
# from the CCDC's data processing and validation procedures.
#
#######################################################################

data_CSD_CIF_VAWQAO
_audit_creation_date 2017-05-03
_audit_creation_method CSD-ConQuest-V1
_database_code_CSD VAWQAO
_database_code_depnum_ccdc_archive 'CCDC 1543665'
_chemical_formula_sum 'C40 H28'
_chemical_formula_moiety
;
C40 H28
;
_journal_coden_Cambridge 1291
_journal_year 2017
_journal_page_first 2238
_journal_name_full 'Eur.J.Org.Chem. '
loop_
_publ_author_name
"Hoang Huy Do"
"A.Villinger"
"S.Lochbrunner"
"P.Ehlers"
"P.Langer"
_chemical_name_systematic
;
2,3-bis(4-methylphenyl)-1,4-bis(phenylethynyl)naphthalene
;
_chemical_name_common
;
1,4-bis(phenylethynyl)-2,3-di-(4-tolyl)naphthalene
;
_cell_volume   2815.490
_exptl_crystal_colour 'yellow'
_exptl_crystal_density_diffrn 1.2
_exptl_crystal_description 'block'
_diffrn_ambient_temperature 173
#These two values have been output from a single CSD field.
_refine_ls_R_factor_gt 0.0454
_refine_ls_wR_factor_gt 0.0454
_symmetry_cell_setting orthorhombic
_symmetry_space_group_name_H-M 'P b c n'
_symmetry_Int_Tables_number 60
loop_
_symmetry_equiv_pos_site_id
_symmetry_equiv_pos_as_xyz
1 x,y,z
2 1/2-x,1/2-y,1/2+z
3 -x,y,1/2-z
4 1/2+x,1/2-y,-z
5 -x,-y,-z
6 -1/2+x,-1/2+y,-1/2-z
7 x,-y,-1/2+z
8 -1/2-x,-1/2+y,z
_cell_length_a 17.7873(6)
_cell_length_b 21.7033(8)
_cell_length_c 7.2932(3)
_cell_angle_alpha 90
_cell_angle_beta 90
_cell_angle_gamma 90
_cell_formula_units_Z 4
loop_
_atom_type_symbol
_atom_type_radius_bond
C 0.68
H 0.23
loop_
_atom_site_label
_atom_site_type_symbol
_atom_site_fract_x
_atom_site_fract_y
_atom_site_fract_z
C1 C 0.03924(5) 0.12706(5) 0.22953(15)
C2 C 0.07708(5) 0.07148(5) 0.20880(15)
C3 C 0.03907(5) 0.01380(5) 0.22906(15)
C4 C 0.07649(6) -0.04320(5) 0.20864(16)
H1 H 0.12860 -0.04380 0.18020
C5 C 0.03863(7) -0.09743(6) 0.22931(18)
H2 H 0.06460 -0.13540 0.21570
C6 C 0.15541(6) 0.07116(5) 0.16131(15)
C7 C 0.22032(6) 0.07036(5) 0.11917(16)
C8 C 0.29813(5) 0.07315(5) 0.06839(15)
C9 C 0.34008(6) 0.12581(6) 0.10748(17)
H3 H 0.31730 0.15930 0.17010
C10 C 0.41478(7) 0.12944(7) 0.05551(19)
H4 H 0.44310 0.16540 0.08270
C11 C 0.44827(7) 0.08104(7) -0.03553(18)
H5 H 0.49960 0.08360 -0.07060
C12 C 0.40719(7) 0.02873(7) -0.07585(18)
H6 H 0.43030 -0.00440 -0.13940
C13 C 0.33249(6) 0.02440(6) -0.02407(17)
H7 H 0.30460 -0.01180 -0.05150
C14 C 0.08078(5) 0.18607(5) 0.20361(15)
C15 C 0.06147(6) 0.22784(5) 0.06711(17)
H8 H 0.01970 0.21950 -0.01020
C16 C 0.10235(6) 0.28160(5) 0.04230(17)
H9 H 0.08820 0.30940 -0.05230
C17 C 0.16379(6) 0.29577(5) 0.15320(17)
C18 C 0.18289(6) 0.25392(6) 0.28996(17)
H10 H 0.22460 0.26220 0.36730
C19 C 0.14195(6) 0.20029(6) 0.31512(17)
H11 H 0.15590 0.17270 0.41030
C20 C 0.20616(8) 0.35521(6) 0.1286(2)
H12 H 0.17560 0.38950 0.17400
H13 H 0.21710 0.36140 -0.00180
H14 H 0.25340 0.35340 0.19750
C1B C -0.03924(5) 0.12706(5) 0.27047(15)
C2B C -0.07708(5) 0.07148(5) 0.29120(15)
C3B C -0.03907(5) 0.01380(5) 0.27094(15)
C4B C -0.07649(6) -0.04320(5) 0.29136(16)
H1B H -0.12860 -0.04380 0.31980
C5B C -0.03863(7) -0.09743(6) 0.27069(18)
H2B H -0.06460 -0.13540 0.28430
C6B C -0.15541(6) 0.07116(5) 0.33869(15)
C7B C -0.22032(6) 0.07036(5) 0.38083(16)
C8B C -0.29813(5) 0.07315(5) 0.43161(15)
C9B C -0.34008(6) 0.12581(6) 0.39252(17)
H3B H -0.31730 0.15930 0.32990
C10B C -0.41478(7) 0.12944(7) 0.44449(19)
H4B H -0.44310 0.16540 0.41730
C11B C -0.44827(7) 0.08104(7) 0.53553(18)
H5B H -0.49960 0.08360 0.57060
C12B C -0.40719(7) 0.02873(7) 0.57585(18)
H6B H -0.43030 -0.00440 0.63940
C13B C -0.33249(6) 0.02440(6) 0.52407(17)
H7B H -0.30460 -0.01180 0.55150
C14B C -0.08078(5) 0.18607(5) 0.29639(15)
C15B C -0.06147(6) 0.22784(5) 0.43289(17)
H8B H -0.01970 0.21950 0.51020
C16B C -0.10235(6) 0.28160(5) 0.45770(17)
H9B H -0.08820 0.30940 0.55230
C17B C -0.16379(6) 0.29577(5) 0.34680(17)
C18B C -0.18289(6) 0.25392(6) 0.21004(17)
H10B H -0.22460 0.26220 0.13270
C19B C -0.14195(6) 0.20029(6) 0.18488(17)
H11B H -0.15590 0.17270 0.08970
C20B C -0.20616(8) 0.35521(6) 0.3714(2)
H12B H -0.17560 0.38950 0.32600
H13B H -0.21710 0.36140 0.50180
H14B H -0.25340 0.35340 0.30250
loop_
_geom_bond_atom_site_label_1
_geom_bond_atom_site_label_2
_geom_bond_distance
_geom_bond_site_symmetry_1
_geom_bond_site_symmetry_2
C1 C2 1.390 1_555 1_555
C2 C3 1.430 1_555 1_555
C3 C4 1.413 1_555 1_555
C4 H1 0.950 1_555 1_555
C5 C4 1.364 1_555 1_555
H2 C5 0.950 1_555 1_555
C6 C2 1.436 1_555 1_555
C7 C6 1.195 1_555 1_555
C8 C7 1.434 1_555 1_555
C9 C8 1.394 1_555 1_555
H3 C9 0.949 1_555 1_555
C10 C9 1.384 1_555 1_555
H4 C10 0.950 1_555 1_555
C11 C10 1.378 1_555 1_555
H5 C11 0.950 1_555 1_555
C12 C11 1.382 1_555 1_555
H6 C12 0.949 1_555 1_555
C13 C8 1.396 1_555 1_555
H7 C13 0.950 1_555 1_555
C14 C1 1.491 1_555 1_555
C15 C14 1.390 1_555 1_555
H8 C15 0.950 1_555 1_555
C16 C15 1.387 1_555 1_555
H9 C16 0.950 1_555 1_555
C17 C16 1.394 1_555 1_555
C18 C17 1.391 1_555 1_555
H10 C18 0.949 1_555 1_555
C19 C14 1.393 1_555 1_555
H11 C19 0.950 1_555 1_555
C20 C17 1.505 1_555 1_555
H12 C20 0.979 1_555 1_555
H13 C20 0.980 1_555 1_555
H14 C20 0.980 1_555 1_555
C1B C1 1.428 1_555 1_555
C2B C1B 1.390 1_555 1_555
C3B C3 1.423 1_555 1_555
C4B C3B 1.413 1_555 1_555
H1B C4B 0.950 1_555 1_555
C5B C5 1.407 1_555 1_555
H2B C5B 0.950 1_555 1_555
C6B C2B 1.436 1_555 1_555
C7B C6B 1.195 1_555 1_555
C8B C7B 1.434 1_555 1_555
C9B C8B 1.394 1_555 1_555
H3B C9B 0.949 1_555 1_555
C10B C9B 1.384 1_555 1_555
H4B C10B 0.950 1_555 1_555
C11B C10B 1.378 1_555 1_555
H5B C11B 0.950 1_555 1_555
C12B C11B 1.382 1_555 1_555
H6B C12B 0.949 1_555 1_555
C13B C8B 1.396 1_555 1_555
H7B C13B 0.950 1_555 1_555
C14B C1B 1.491 1_555 1_555
C15B C14B 1.390 1_555 1_555
H8B C15B 0.950 1_555 1_555
C16B C15B 1.387 1_555 1_555
H9B C16B 0.950 1_555 1_555
C17B C16B 1.394 1_555 1_555
C18B C17B 1.391 1_555 1_555
H10B C18B 0.949 1_555 1_555
C19B C14B 1.393 1_555 1_555
H11B C19B 0.950 1_555 1_555
C20B C17B 1.505 1_555 1_555
H12B C20B 0.979 1_555 1_555
H13B C20B 0.980 1_555 1_555
H14B C20B 0.980 1_555 1_555
C12 C13 1.385 1_555 1_555
C18 C19 1.385 1_555 1_555
C2B C3B 1.430 1_555 1_555
C4B C5B 1.364 1_555 1_555
C12B C13B 1.385 1_555 1_555
C18B C19B 1.385 1_555 1_555
#END
