
#######################################################################
#
#                 Cambridge Crystallographic Data Centre
#                                CCDC
#
#######################################################################
#
# If this CIF has been generated from an entry in the Cambridge
# Structural Database, then it will include bibliographic, chemical,
# crystal, experimental, refinement or atomic coordinate data resulting
# from the CCDC's data processing and validation procedures.
#
#######################################################################

data_CSD_CIF_VEBJAO
_audit_creation_date 2006-05-24
_audit_creation_method CSD-ConQuest-V1
_database_code_CSD VEBJAO
_database_code_depnum_ccdc_archive 'CCDC 298061'
_chemical_formula_sum 'C82 H54'
_chemical_formula_moiety
;
C82 H54
;
_journal_coden_Cambridge 4
_journal_volume 128
_journal_year 2006
_journal_page_first 1340
_journal_name_full 'J.Am.Chem.Soc. '
loop_
_publ_author_name
"Qian Miao"
"Xiaoliu Chi"
"R.Zeis"
"M.Lefenfeld"
"T.Siegrist"
"M.L.Steigerwald"
"C.Nuckolls"
_chemical_name_systematic
;
1,2,3,4,6,8,9,10,11,13-Decaphenylpentacene
;
_cell_volume   5559.671
_exptl_crystal_density_diffrn 1.242
_diffrn_ambient_temperature 293
#These two values have been output from a single CSD field.
_refine_ls_R_factor_gt 0.0865
_refine_ls_wR_factor_gt 0.0865
_symmetry_cell_setting monoclinic
_symmetry_space_group_name_H-M 'C 2/c'
_symmetry_Int_Tables_number 15
loop_
_symmetry_equiv_pos_site_id
_symmetry_equiv_pos_as_xyz
1 x,y,z
2 1/2+x,1/2+y,z
3 -x,y,1/2-z
4 1/2-x,1/2+y,1/2-z
5 -x,-y,-z
6 -1/2-x,-1/2-y,-z
7 x,-y,-1/2+z
8 -1/2+x,-1/2-y,-1/2+z
_cell_length_a 41.284(8)
_cell_length_b 6.462(2)
_cell_length_c 21.078(5)
_cell_angle_alpha 90
_cell_angle_beta 98.616(18)
_cell_angle_gamma 90
_cell_formula_units_Z 4
loop_
_atom_type_symbol
_atom_type_radius_bond
C 0.68
H 0.23
loop_
_atom_site_label
_atom_site_type_symbol
_atom_site_fract_x
_atom_site_fract_y
_atom_site_fract_z
C1 C 0.60089(12) -0.2580(8) -0.0829(2)
C2 C 0.60906(12) -0.3937(8) -0.1332(2)
C3 C 0.58314(13) -0.4529(9) -0.1858(3)
C4 C 0.57507(15) -0.6567(10) -0.1995(3)
C5 C 0.55060(16) -0.7053(11) -0.2498(3)
C6 C 0.53484(16) -0.5526(13) -0.2868(3)
C7 C 0.54224(15) -0.3491(11) -0.2727(3)
C8 C 0.56671(14) -0.3022(10) -0.2227(3)
C9 C 0.64066(12) -0.4538(8) -0.1331(2)
C10 C 0.66674(12) -0.3719(8) -0.0873(2)
C11 C 0.65873(12) -0.2266(8) -0.0407(2)
C12 C 0.62463(12) -0.1742(8) -0.0393(2)
C13 C 0.61701(12) -0.0291(8) 0.0107(3)
C14 C 0.60015(13) -0.0945(9) 0.0595(3)
C15 C 0.59275(15) 0.0450(12) 0.1048(3)
C16 C 0.60173(17) 0.2502(12) 0.1020(3)
C17 C 0.61850(18) 0.3149(10) 0.0548(3)
C18 C 0.62590(15) 0.1797(9) 0.0095(3)
C19 C 0.68387(11) -0.1428(7) 0.0021(2)
C20 C 0.71698(12) -0.1920(8) 0.0016(2)
C21 C 0.72504(11) -0.3400(8) -0.0446(2)
C22 C 0.74217(11) -0.1035(7) 0.0459(2)
C23 C 0.73401(10) 0.0494(7) 0.0925(2)
C24 C 0.73694(14) 0.0037(9) 0.1564(3)
C25 C 0.72957(15) 0.1459(11) 0.1999(3)
C26 C 0.71864(15) 0.3401(11) 0.1806(3)
C27 C 0.71535(16) 0.3908(9) 0.1175(4)
C28 C 0.72324(15) 0.2470(9) 0.0733(3)
C29 C 0.69919(12) -0.4241(7) -0.0874(2)
C30 C 0.64932(12) -0.5996(8) -0.1831(2)
C31 C 0.65928(14) -0.7988(9) -0.1673(3)
C32 C 0.66488(16) -0.9379(10) -0.2137(4)
C33 C 0.66015(17) -0.8791(11) -0.2766(4)
C34 C 0.65159(16) -0.6801(12) -0.2926(3)
C35 C 0.64603(14) -0.5391(8) -0.2465(3)
C36 C 0.56569(12) -0.2237(9) -0.0797(2)
C37 C 0.54593(13) -0.3873(9) -0.0689(3)
C38 C 0.51329(17) -0.3574(14) -0.0644(3)
C39 C 0.50008(16) -0.1665(17) -0.0706(3)
C40 C 0.51885(18) -0.0009(13) -0.0813(3)
C41 C 0.55184(15) -0.0288(10) -0.0845(3)
H1 H 0.58730 -0.76990 -0.17370
H2 H 0.54460 -0.85260 -0.25930
H3 H 0.51770 -0.58790 -0.32470
H4 H 0.53020 -0.23270 -0.29810
H5 H 0.57300 -0.15640 -0.21310
H6 H 0.59340 -0.24230 0.06140
H7 H 0.58160 -0.00260 0.14100
H8 H 0.59600 0.35210 0.13440
H9 H 0.62550 0.46240 0.05320
H10 H 0.63780 0.22740 -0.02570
H11 H 0.67830 -0.04360 0.03540
H12 H 0.74480 -0.13650 0.17110
H13 H 0.73170 0.10660 0.24630
H14 H 0.71310 0.44360 0.21280
H15 H 0.70720 0.53090 0.10310
H16 H 0.72150 0.28570 0.02690
H17 H 0.70450 -0.52380 -0.12090
H18 H 0.66180 -0.84410 -0.12170
H19 H 0.67270 -1.08080 -0.20190
H20 H 0.66220 -0.98160 -0.31100
H21 H 0.64920 -0.63720 -0.33850
H22 H 0.64020 -0.39230 -0.25790
H23 H 0.55580 -0.52970 -0.06360
H24 H 0.49950 -0.47930 -0.05750
H25 H 0.47610 -0.14890 -0.06620
H26 H 0.50850 0.13900 -0.08810
H27 H 0.56630 0.09380 -0.08990
C1E C 0.89911(12) -0.2420(8) 0.0829(2)
C2E C 0.89094(12) -0.1063(8) 0.1332(2)
C3E C 0.91686(13) -0.0471(9) 0.1858(3)
C4E C 0.92493(15) 0.1567(10) 0.1995(3)
C5E C 0.94940(16) 0.2053(11) 0.2498(3)
C6E C 0.96516(16) 0.0526(13) 0.2868(3)
C7E C 0.95776(15) -0.1509(11) 0.2727(3)
C8E C 0.93329(14) -0.1978(10) 0.2227(3)
C9E C 0.85934(12) -0.0462(8) 0.1331(2)
C10E C 0.83326(12) -0.1281(8) 0.0873(2)
C11E C 0.84127(12) -0.2734(8) 0.0407(2)
C12E C 0.87537(12) -0.3258(8) 0.0393(2)
C13E C 0.88299(12) -0.4709(8) -0.0107(3)
C14E C 0.89985(13) -0.4055(9) -0.0595(3)
C15E C 0.90725(15) -0.5450(12) -0.1048(3)
C16E C 0.89827(17) -0.7502(12) -0.1020(3)
C17E C 0.88150(18) -0.8149(10) -0.0548(3)
C18E C 0.87410(15) -0.6797(9) -0.0095(3)
C19E C 0.81613(11) -0.3572(7) -0.0021(2)
C20E C 0.78302(12) -0.3080(8) -0.0016(2)
C21E C 0.77496(11) -0.1600(8) 0.0446(2)
C22E C 0.75783(11) -0.3965(7) -0.0459(2)
C23E C 0.76599(10) -0.5494(7) -0.0925(2)
C24E C 0.76306(14) -0.5037(9) -0.1564(3)
C25E C 0.77043(15) -0.6459(11) -0.1999(3)
C26E C 0.78136(15) -0.8401(11) -0.1806(3)
C27E C 0.78465(16) -0.8908(9) -0.1175(4)
C28E C 0.77676(15) -0.7470(9) -0.0733(3)
C29E C 0.80081(12) -0.0759(7) 0.0874(2)
C30E C 0.85068(12) 0.0996(8) 0.1831(2)
C31E C 0.84072(14) 0.2988(9) 0.1673(3)
C32E C 0.83512(16) 0.4379(10) 0.2137(4)
C33E C 0.83985(17) 0.3791(11) 0.2766(4)
C34E C 0.84841(16) 0.1801(12) 0.2926(3)
C35E C 0.85397(14) 0.0391(8) 0.2465(3)
C36E C 0.93431(12) -0.2763(9) 0.0797(2)
C37E C 0.95407(13) -0.1127(9) 0.0689(3)
C38E C 0.98671(17) -0.1426(14) 0.0644(3)
C39E C 0.99992(16) -0.3335(17) 0.0706(3)
C40E C 0.98115(18) -0.4991(13) 0.0813(3)
C41E C 0.94816(15) -0.4712(10) 0.0845(3)
H1E H 0.91270 0.26990 0.17370
H2E H 0.95540 0.35260 0.25930
H3E H 0.98230 0.08790 0.32470
H4E H 0.96980 -0.26730 0.29810
H5E H 0.92700 -0.34360 0.21310
H6E H 0.90660 -0.25770 -0.06140
H7E H 0.91840 -0.49740 -0.14100
H8E H 0.90400 -0.85210 -0.13440
H9E H 0.87450 -0.96240 -0.05320
H10E H 0.86220 -0.72740 0.02570
H11E H 0.82170 -0.45640 -0.03540
H12E H 0.75520 -0.36350 -0.17110
H13E H 0.76830 -0.60660 -0.24630
H14E H 0.78690 -0.94360 -0.21280
H15E H 0.79280 -1.03090 -0.10310
H16E H 0.77850 -0.78570 -0.02690
H17E H 0.79550 0.02380 0.12090
H18E H 0.83820 0.34410 0.12170
H19E H 0.82730 0.58080 0.20190
H20E H 0.83780 0.48160 0.31100
H21E H 0.85080 0.13720 0.33850
H22E H 0.85980 -0.10770 0.25790
H23E H 0.94420 0.02970 0.06360
H24E H 1.00050 -0.02070 0.05750
H25E H 1.02390 -0.35110 0.06620
H26E H 0.99150 -0.63900 0.08810
H27E H 0.93370 -0.59380 0.08990
loop_
_geom_bond_atom_site_label_1
_geom_bond_atom_site_label_2
_geom_bond_distance
_geom_bond_site_symmetry_1
_geom_bond_site_symmetry_2
C1 C2 1.454 1_555 1_555
C2 C3 1.471 1_555 1_555
C3 C4 1.378 1_555 1_555
C4 C5 1.386 1_555 1_555
C5 C6 1.361 1_555 1_555
C6 C7 1.372 1_555 1_555
C7 C8 1.380 1_555 1_555
C8 C3 1.362 1_555 1_555
C9 C2 1.361 1_555 1_555
C10 C9 1.435 1_555 1_555
C11 C10 1.433 1_555 1_555
C12 C1 1.352 1_555 1_555
C13 C12 1.479 1_555 1_555
C14 C13 1.391 1_555 1_555
C15 C14 1.380 1_555 1_555
C16 C15 1.380 1_555 1_555
C17 C16 1.360 1_555 1_555
C18 C13 1.400 1_555 1_555
C19 C11 1.380 1_555 1_555
C20 C19 1.405 1_555 1_555
C21 C20 1.439 1_555 1_555
C22 C20 1.410 1_555 1_555
C23 C22 1.468 1_555 1_555
C24 C23 1.366 1_555 1_555
C25 C24 1.364 1_555 1_555
C26 C25 1.374 1_555 1_555
C27 C26 1.357 1_555 1_555
C28 C23 1.392 1_555 1_555
C29 C10 1.382 1_555 1_555
C30 C9 1.496 1_555 1_555
C31 C30 1.377 1_555 1_555
C32 C31 1.373 1_555 1_555
C33 C32 1.365 1_555 1_555
C34 C33 1.363 1_555 1_555
C35 C30 1.379 1_555 1_555
C36 C1 1.481 1_555 1_555
C37 C36 1.375 1_555 1_555
C38 C37 1.379 1_555 1_555
C39 C38 1.347 1_555 1_555
C40 C39 1.360 1_555 1_555
C41 C36 1.381 1_555 1_555
H1 C4 1.002 1_555 1_555
H2 C5 0.996 1_555 1_555
H3 C6 1.011 1_555 1_555
H4 C7 1.010 1_555 1_555
H5 C8 0.990 1_555 1_555
H6 C14 0.997 1_555 1_555
H7 C15 0.997 1_555 1_555
H8 C16 1.002 1_555 1_555
H9 C17 0.998 1_555 1_555
H10 C18 0.998 1_555 1_555
H11 C19 1.002 1_555 1_555
H12 C24 0.996 1_555 1_555
H13 C25 1.001 1_555 1_555
H14 C26 1.003 1_555 1_555
H15 C27 0.997 1_555 1_555
H16 C28 1.002 1_555 1_555
H17 C29 1.004 1_555 1_555
H18 C31 0.995 1_555 1_555
H19 C32 0.997 1_555 1_555
H20 C33 0.995 1_555 1_555
H21 C34 0.997 1_555 1_555
H22 C35 0.999 1_555 1_555
H23 C37 1.006 1_555 1_555
H24 C38 0.995 1_555 1_555
H25 C39 1.014 1_555 1_555
H26 C40 1.001 1_555 1_555
H27 C41 1.009 1_555 1_555
C1E C2E 1.454 1_555 1_555
C2E C3E 1.471 1_555 1_555
C3E C4E 1.378 1_555 1_555
C4E C5E 1.386 1_555 1_555
C5E C6E 1.361 1_555 1_555
C6E C7E 1.372 1_555 1_555
C7E C8E 1.380 1_555 1_555
C8E C3E 1.362 1_555 1_555
C9E C2E 1.361 1_555 1_555
C10E C9E 1.435 1_555 1_555
C11E C10E 1.433 1_555 1_555
C12E C1E 1.352 1_555 1_555
C13E C12E 1.479 1_555 1_555
C14E C13E 1.391 1_555 1_555
C15E C14E 1.380 1_555 1_555
C16E C15E 1.380 1_555 1_555
C17E C16E 1.360 1_555 1_555
C18E C13E 1.400 1_555 1_555
C19E C11E 1.380 1_555 1_555
C20E C19E 1.405 1_555 1_555
C21E C22 1.406 1_555 1_555
C22E C21 1.406 1_555 1_555
C23E C22E 1.468 1_555 1_555
C24E C23E 1.366 1_555 1_555
C25E C24E 1.364 1_555 1_555
C26E C25E 1.374 1_555 1_555
C27E C26E 1.357 1_555 1_555
C28E C23E 1.392 1_555 1_555
C29E C10E 1.382 1_555 1_555
C30E C9E 1.496 1_555 1_555
C31E C30E 1.377 1_555 1_555
C32E C31E 1.373 1_555 1_555
C33E C32E 1.365 1_555 1_555
C34E C33E 1.363 1_555 1_555
C35E C30E 1.379 1_555 1_555
C36E C1E 1.481 1_555 1_555
C37E C36E 1.375 1_555 1_555
C38E C37E 1.379 1_555 1_555
C39E C38E 1.347 1_555 1_555
C40E C39E 1.360 1_555 1_555
C41E C36E 1.381 1_555 1_555
H1E C4E 1.002 1_555 1_555
H2E C5E 0.996 1_555 1_555
H3E C6E 1.011 1_555 1_555
H4E C7E 1.010 1_555 1_555
H5E C8E 0.990 1_555 1_555
H6E C14E 0.997 1_555 1_555
H7E C15E 0.997 1_555 1_555
H8E C16E 1.002 1_555 1_555
H9E C17E 0.998 1_555 1_555
H10E C18E 0.998 1_555 1_555
H11E C19E 1.002 1_555 1_555
H12E C24E 0.996 1_555 1_555
H13E C25E 1.001 1_555 1_555
H14E C26E 1.003 1_555 1_555
H15E C27E 0.997 1_555 1_555
H16E C28E 1.002 1_555 1_555
H17E C29E 1.004 1_555 1_555
H18E C31E 0.995 1_555 1_555
H19E C32E 0.997 1_555 1_555
H20E C33E 0.995 1_555 1_555
H21E C34E 0.997 1_555 1_555
H22E C35E 0.999 1_555 1_555
H23E C37E 1.006 1_555 1_555
H24E C38E 0.995 1_555 1_555
H25E C39E 1.014 1_555 1_555
H26E C40E 1.001 1_555 1_555
H27E C41E 1.009 1_555 1_555
C11 C12 1.453 1_555 1_555
C17 C18 1.362 1_555 1_555
C21 C29 1.400 1_555 1_555
C27 C28 1.389 1_555 1_555
C34 C35 1.376 1_555 1_555
C40 C41 1.385 1_555 1_555
C11E C12E 1.453 1_555 1_555
C17E C18E 1.362 1_555 1_555
C20E C21E 1.439 1_555 1_555
C20E C22E 1.410 1_555 1_555
C21E C29E 1.400 1_555 1_555
C27E C28E 1.389 1_555 1_555
C34E C35E 1.376 1_555 1_555
C40E C41E 1.385 1_555 1_555
#END
