
#######################################################################
#
#                 Cambridge Crystallographic Data Centre
#                                CCDC
#
#######################################################################
#
# If this CIF has been generated from an entry in the Cambridge
# Structural Database, then it will include bibliographic, chemical,
# crystal, experimental, refinement or atomic coordinate data resulting
# from the CCDC's data processing and validation procedures.
#
#######################################################################

data_CSD_CIF_VEBJIW
_audit_creation_date 2006-05-24
_audit_creation_method CSD-ConQuest-V1
_database_code_CSD VEBJIW
_database_code_depnum_ccdc_archive 'CCDC 298063'
_chemical_formula_sum 'C34 H22'
_chemical_formula_moiety
;
C34 H22
;
_journal_coden_Cambridge 4
_journal_volume 128
_journal_year 2006
_journal_page_first 1340
_journal_name_full 'J.Am.Chem.Soc. '
loop_
_publ_author_name
"Qian Miao"
"Xiaoliu Chi"
"R.Zeis"
"M.Lefenfeld"
"T.Siegrist"
"M.L.Steigerwald"
"C.Nuckolls"
_chemical_name_systematic
;
6,13-Diphenylpentacene
;
_cell_volume   4712.679
_exptl_crystal_colour 'reddish'
_exptl_crystal_density_diffrn 1.214
_exptl_crystal_description 'prism'
_diffrn_ambient_temperature 293
#These two values have been output from a single CSD field.
_refine_ls_R_factor_gt 0.047
_refine_ls_wR_factor_gt 0.047
_symmetry_cell_setting tetragonal
_symmetry_space_group_name_H-M 'P 41'
_symmetry_Int_Tables_number 76
loop_
_symmetry_equiv_pos_site_id
_symmetry_equiv_pos_as_xyz
1 x,y,z
2 -y,x,1/4+z
3 -x,-y,1/2+z
4 y,-x,3/4+z
_cell_length_a 15.5345(8)
_cell_length_b 15.5345(8)
_cell_length_c 19.5287(8)
_cell_angle_alpha 90
_cell_angle_beta 90
_cell_angle_gamma 90
_cell_formula_units_Z 8
loop_
_atom_type_symbol
_atom_type_radius_bond
C 0.68
H 0.23
loop_
_atom_site_label
_atom_site_type_symbol
_atom_site_fract_x
_atom_site_fract_y
_atom_site_fract_z
C1 C 0.4010(3) 0.4547(4) 0.2502(4)
C2 C 0.4166(4) 0.5425(4) 0.2526(3)
C3 C 0.5076(5) 0.5709(5) 0.2514(4)
C4 C 0.5764(3) 0.5112(4) 0.2504(3)
C5 C 0.5574(4) 0.4242(4) 0.2500(3)
C6 C 0.4689(4) 0.3943(4) 0.2500(3)
C7 C 0.4557(4) 0.3041(4) 0.2457(3)
C8 C 0.5197(4) 0.2463(4) 0.2447(3)
C9 C 0.6089(4) 0.2744(4) 0.2459(3)
C10 C 0.6234(3) 0.3613(4) 0.2480(3)
C11 C 0.6763(4) 0.2124(4) 0.2418(4)
C12 C 0.6588(4) 0.1279(4) 0.2361(4)
C13 C 0.5738(4) 0.0967(4) 0.2327(4)
C14 C 0.5062(4) 0.1547(4) 0.2386(3)
C15 C 0.6637(3) 0.5464(4) 0.2468(3)
C16 C 0.6982(5) 0.5796(5) 0.1866(3)
C17 C 0.7820(4) 0.6107(6) 0.1863(4)
C18 C 0.8328(4) 0.6053(5) 0.2433(5)
C19 C 0.8007(4) 0.5709(5) 0.3017(4)
C20 C 0.7167(4) 0.5429(4) 0.3050(4)
C21 C 0.5212(4) 0.6639(4) 0.2488(4)
C22 C 0.4533(3) 0.7210(4) 0.2473(3)
C23 C 0.3664(3) 0.6918(4) 0.2489(3)
C24 C 0.3509(4) 0.6050(4) 0.2506(3)
C25 C 0.2992(4) 0.7541(4) 0.2484(3)
C26 C 0.3156(4) 0.8390(4) 0.2408(3)
C27 C 0.4023(4) 0.8700(4) 0.2395(4)
C28 C 0.4697(4) 0.8119(5) 0.2428(3)
C29 C 0.3091(4) 0.4217(4) 0.2463(3)
C30 C 0.2738(5) 0.4002(7) 0.1867(4)
C31 C 0.1885(5) 0.3723(8) 0.1830(5)
C32 C 0.1405(5) 0.3675(6) 0.2412(5)
C33 C 0.1748(4) 0.3916(5) 0.3005(4)
C34 C 0.2590(4) 0.4167(5) 0.3064(4)
C35 C 0.8956(4) -0.0225(4) 0.1052(3)
C36 C 0.9126(4) 0.0687(4) 0.1034(3)
C37 C 1.0005(3) 0.1004(4) 0.1037(3)
C38 C 1.0665(4) 0.0392(4) 0.1024(3)
C39 C 1.0518(3) -0.0509(4) 0.1039(3)
C40 C 0.9641(4) -0.0813(4) 0.1060(3)
C41 C 0.9487(3) -0.1698(4) 0.1067(3)
C42 C 1.0176(4) -0.2308(4) 0.1102(3)
C43 C 1.1045(4) -0.2001(4) 0.1068(4)
C44 C 1.1199(4) -0.1121(4) 0.1027(4)
C45 C 1.1723(4) -0.2626(5) 0.1105(4)
C46 C 1.1537(4) -0.3471(5) 0.1165(4)
C47 C 1.0671(5) -0.3754(5) 0.1200(4)
C48 C 1.0034(4) -0.3207(4) 0.1166(4)
C49 C 1.1601(4) 0.0693(4) 0.1018(3)
C50 C 1.2084(4) 0.0753(5) 0.0463(3)
C51 C 1.2942(4) 0.1034(5) 0.0498(4)
C52 C 1.3280(5) 0.1247(5) 0.1118(5)
C53 C 1.2794(6) 0.1177(8) 0.1703(5)
C54 C 1.1951(5) 0.0897(7) 0.1643(4)
C55 C 1.0143(3) 0.1868(4) 0.1051(3)
C56 C 0.9494(4) 0.2475(4) 0.1083(3)
C57 C 0.8625(4) 0.2179(4) 0.1073(3)
C58 C 0.8451(3) 0.1300(5) 0.1028(4)
C59 C 0.7937(4) 0.2811(4) 0.1094(3)
C60 C 0.8124(4) 0.3645(4) 0.1142(4)
C61 C 0.8982(5) 0.3924(4) 0.1165(4)
C62 C 0.9638(4) 0.3369(5) 0.1126(3)
C63 C 0.8041(3) -0.0529(4) 0.1076(3)
C64 C 0.7512(4) -0.0508(5) 0.0521(3)
C65 C 0.6650(4) -0.0818(4) 0.0576(4)
C66 C 0.6376(5) -0.1142(5) 0.1202(4)
C67 C 0.6922(5) -0.1187(5) 0.1733(4)
C68 C 0.7758(4) -0.0875(5) 0.1687(4)
H1 H 0.39100 0.28430 0.24650
H2 H 0.68880 0.37670 0.24870
H3 H 0.73860 0.23670 0.24360
H4 H 0.71150 0.08170 0.23930
H5 H 0.56120 0.03250 0.22180
H6 H 0.44610 0.12910 0.24800
H7 H 0.66300 0.57140 0.14480
H8 H 0.80890 0.61590 0.13790
H9 H 0.88820 0.64080 0.23910
H10 H 0.84810 0.56370 0.33850
H11 H 0.58150 0.68540 0.24860
H12 H 0.28770 0.58830 0.25430
H13 H 0.23880 0.73300 0.24840
H14 H 0.26330 0.88020 0.24390
H15 H 0.40930 0.93150 0.22790
H16 H 0.53270 0.83630 0.24810
H17 H 0.30580 0.42710 0.14350
H18 H 0.15800 0.38430 0.13360
H19 H 0.08010 0.33690 0.23830
H20 H 0.13410 0.39160 0.34370
H21 H 0.28540 0.42310 0.35250
H22 H 0.88770 -0.19250 0.10690
H23 H 1.18150 -0.08950 0.10380
H24 H 1.23210 -0.24430 0.10910
H25 H 1.20530 -0.39020 0.12240
H26 H 1.05580 -0.44050 0.12160
H27 H 0.93860 -0.34210 0.12460
H28 H 1.17920 0.05200 0.00100
H29 H 1.32470 0.10310 0.00330
H30 H 1.39350 0.13650 0.11140
H31 H 1.29430 0.17350 0.20610
H32 H 1.15490 0.09550 0.21020
H33 H 1.07670 0.20980 0.10270
H34 H 0.78390 0.10320 0.10230
H35 H 0.72870 0.25860 0.10370
H36 H 0.76470 0.40380 0.12460
H37 H 0.91520 0.45500 0.11630
H38 H 1.02330 0.35320 0.12370
H39 H 0.77850 -0.03290 0.00540
H40 H 0.62940 -0.07740 0.01280
H41 H 0.57300 -0.12950 0.11930
H42 H 0.66750 -0.15650 0.21390
H43 H 0.82000 -0.10750 0.21040
H44 H 0.69480 0.51900 0.35220
loop_
_geom_bond_atom_site_label_1
_geom_bond_atom_site_label_2
_geom_bond_distance
_geom_bond_site_symmetry_1
_geom_bond_site_symmetry_2
C1 C2 1.386 1_555 1_555
C2 C3 1.481 1_555 1_555
C3 C4 1.415 1_555 1_555
C4 C5 1.383 1_555 1_555
C5 C6 1.451 1_555 1_555
C6 C1 1.412 1_555 1_555
C7 C6 1.419 1_555 1_555
C8 C7 1.340 1_555 1_555
C9 C8 1.453 1_555 1_555
C10 C5 1.417 1_555 1_555
C11 C9 1.425 1_555 1_555
C12 C11 1.345 1_555 1_555
C13 C12 1.408 1_555 1_555
C14 C8 1.443 1_555 1_555
C15 C4 1.464 1_555 1_555
C16 C15 1.391 1_555 1_555
C17 C16 1.389 1_555 1_555
C18 C17 1.367 1_555 1_555
C19 C18 1.355 1_555 1_555
C20 C15 1.404 1_555 1_555
C21 C3 1.461 1_555 1_555
C22 C21 1.378 1_555 1_555
C23 C22 1.424 1_555 1_555
C24 C2 1.409 1_555 1_555
C25 C23 1.424 1_555 1_555
C26 C25 1.351 1_555 1_555
C27 C26 1.431 1_555 1_555
C28 C22 1.438 1_555 1_555
C29 C1 1.519 1_555 1_555
C30 C29 1.329 1_555 1_555
C31 C30 1.396 1_555 1_555
C32 C31 1.361 1_555 1_555
C33 C32 1.329 1_555 1_555
C34 C29 1.410 1_555 1_555
C35 C36 1.442 1_555 1_555
C36 C37 1.452 1_555 1_555
C37 C38 1.398 1_555 1_555
C38 C39 1.418 1_555 1_555
C39 C40 1.442 1_555 1_555
C40 C35 1.402 1_555 1_555
C41 C40 1.396 1_555 1_555
C42 C41 1.431 1_555 1_555
C43 C42 1.433 1_555 1_555
C44 C39 1.423 1_555 1_555
C45 C43 1.434 1_555 1_555
C46 C45 1.349 1_555 1_555
C47 C46 1.417 1_555 1_555
C48 C42 1.419 1_555 1_555
C49 C38 1.527 1_555 1_555
C50 C49 1.322 1_555 1_555
C51 C50 1.404 1_555 1_555
C52 C51 1.361 1_555 1_555
C53 C52 1.374 1_555 1_555
C54 C49 1.373 1_555 1_555
C55 C37 1.359 1_555 1_555
C56 C55 1.382 1_555 1_555
C57 C56 1.426 1_555 1_555
C58 C36 1.416 1_555 1_555
C59 C57 1.452 1_555 1_555
C60 C59 1.331 1_555 1_555
C61 C60 1.402 1_555 1_555
C62 C56 1.409 1_555 1_555
C63 C35 1.499 1_555 1_555
C64 C63 1.361 1_555 1_555
C65 C64 1.427 1_555 1_555
C66 C65 1.389 1_555 1_555
C67 C66 1.341 1_555 1_555
C68 C63 1.381 1_555 1_555
H1 C7 1.051 1_555 1_555
H2 C10 1.044 1_555 1_555
H3 C11 1.039 1_555 1_555
H4 C12 1.091 1_555 1_555
H5 C13 1.038 1_555 1_555
H6 C14 1.031 1_555 1_555
H7 C16 0.991 1_555 1_555
H8 C17 1.037 1_555 1_555
H9 C18 1.025 1_555 1_555
H10 C19 1.035 1_555 1_555
H11 C21 0.994 1_555 1_555
H12 C24 1.018 1_555 1_555
H13 C25 0.994 1_555 1_555
H14 C26 1.036 1_555 1_555
H15 C27 0.988 1_555 1_555
H16 C28 1.055 1_555 1_555
H17 C30 1.065 1_555 1_555
H18 C31 1.091 1_555 1_555
H19 C32 1.053 1_555 1_555
H20 C33 1.054 1_555 1_555
H21 C34 0.994 1_555 1_555
H22 C41 1.011 1_555 1_555
H23 C44 1.020 1_555 1_555
H24 C45 0.972 1_555 1_555
H25 C46 1.051 1_555 1_555
H26 C47 1.027 1_555 1_555
H27 C48 1.072 1_555 1_555
H28 C50 1.058 1_555 1_555
H29 C51 1.024 1_555 1_555
H30 C52 1.034 1_555 1_555
H31 C53 1.137 1_555 1_555
H32 C54 1.096 1_555 1_555
H33 C55 1.034 1_555 1_555
H34 C58 1.038 1_555 1_555
H35 C59 1.074 1_555 1_555
H36 C60 0.981 1_555 1_555
H37 C61 1.008 1_555 1_555
H38 C62 0.983 1_555 1_555
H39 C64 1.044 1_555 1_555
H40 C65 1.037 1_555 1_555
H41 C66 1.031 1_555 1_555
H42 C67 1.059 1_555 1_555
H43 C68 1.110 1_555 1_555
H44 C20 1.050 1_555 1_555
C9 C10 1.369 1_555 1_555
C13 C14 1.388 1_555 1_555
C19 C20 1.377 1_555 1_555
C23 C24 1.370 1_555 1_555
C27 C28 1.384 1_555 1_555
C33 C34 1.370 1_555 1_555
C43 C44 1.390 1_555 1_555
C47 C48 1.306 1_555 1_555
C53 C54 1.385 1_555 1_555
C57 C58 1.395 1_555 1_555
C61 C62 1.337 1_555 1_555
C67 C68 1.389 1_555 1_555
#END
