
#######################################################################
#
#                 Cambridge Crystallographic Data Centre
#                                CCDC
#
#######################################################################
#
# If this CIF has been generated from an entry in the Cambridge
# Structural Database, then it will include bibliographic, chemical,
# crystal, experimental, refinement or atomic coordinate data resulting
# from the CCDC's data processing and validation procedures.
#
#######################################################################

data_CSD_CIF_VEBKAP
_audit_creation_date 2006-05-24
_audit_creation_method CSD-ConQuest-V1
_database_code_CSD VEBKAP
_database_code_depnum_ccdc_archive 'CCDC 606974'
_chemical_formula_sum 'C28 H18'
_chemical_formula_moiety
;
C28 H18
;
_journal_coden_Cambridge 4
_journal_volume 128
_journal_year 2006
_journal_page_first 1340
_journal_name_full 'J.Am.Chem.Soc. '
loop_
_publ_author_name
"Qian Miao"
"Xiaoliu Chi"
"R.Zeis"
"M.Lefenfeld"
"T.Siegrist"
"M.L.Steigerwald"
"C.Nuckolls"
_chemical_name_systematic
;
6-Phenylpentacene
;
_cell_volume   1861.136
_exptl_crystal_colour 'black'
_exptl_crystal_density_diffrn 1.265
_diffrn_ambient_temperature 243
#These two values have been output from a single CSD field.
_refine_ls_R_factor_gt 0.0487
_refine_ls_wR_factor_gt 0.0487
_symmetry_cell_setting triclinic
_symmetry_space_group_name_H-M 'P -1'
_symmetry_Int_Tables_number 2
loop_
_symmetry_equiv_pos_site_id
_symmetry_equiv_pos_as_xyz
1 x,y,z
2 -x,-y,-z
_cell_length_a 11.2237(8)
_cell_length_b 13.1785(10)
_cell_length_c 13.4073(11)
_cell_angle_alpha 98.694(1)
_cell_angle_beta 104.004(1)
_cell_angle_gamma 99.281(2)
_cell_formula_units_Z 4
loop_
_atom_type_symbol
_atom_type_radius_bond
C 0.68
H 0.23
loop_
_atom_site_label
_atom_site_type_symbol
_atom_site_fract_x
_atom_site_fract_y
_atom_site_fract_z
C1 C 0.54977(15) 0.27413(12) 0.62699(15)
H1 H 0.53890 0.21780 0.57120
C2 C 0.52140(17) 0.25522(14) 0.71539(17)
H2 H 0.49170 0.18590 0.72050
C3 C 0.53570(16) 0.33841(14) 0.80103(15)
H3 H 0.51450 0.32380 0.86180
C4 C 0.57975(14) 0.43883(13) 0.79536(14)
H4 H 0.58890 0.49310 0.85260
C5 C 0.61254(13) 0.46377(11) 0.70384(12)
C6 C 0.65981(13) 0.56539(11) 0.69681(12)
H5 H 0.67250 0.61990 0.75470
C7 C 0.68957(12) 0.58976(10) 0.60547(11)
C8 C 0.73751(12) 0.69306(10) 0.59726(11)
C9 C 0.76320(12) 0.71472(10) 0.50371(11)
C10 C 0.80884(13) 0.81688(11) 0.49166(11)
H6 H 0.82490 0.87300 0.54870
C11 C 0.83096(12) 0.83776(11) 0.39880(11)
C12 C 0.87485(14) 0.94180(12) 0.38574(12)
H7 H 0.88840 0.99860 0.44160
C13 C 0.89720(16) 0.96009(14) 0.29450(13)
H8 H 0.92520 1.02920 0.28760
C14 C 0.87849(16) 0.87516(15) 0.20900(13)
H9 H 0.89610 0.88860 0.14660
C15 C 0.83574(15) 0.77564(14) 0.21662(12)
H10 H 0.82280 0.72090 0.15890
C16 C 0.80969(13) 0.75186(12) 0.31108(11)
C17 C 0.76666(13) 0.65116(12) 0.32173(11)
H11 H 0.75350 0.59550 0.26480
C18 C 0.74162(12) 0.62875(11) 0.41520(11)
C19 C 0.69697(13) 0.52673(11) 0.42533(11)
H12 H 0.68440 0.47120 0.36850
C20 C 0.67038(12) 0.50452(10) 0.51706(11)
C21 C 0.62484(13) 0.40136(11) 0.52672(12)
H13 H 0.61350 0.34590 0.47000
C22 C 0.59635(13) 0.37895(11) 0.61652(13)
C23 C 0.76231(14) 0.78067(11) 0.68980(11)
C24 C 0.66766(18) 0.83051(14) 0.70698(15)
H14 H 0.58720 0.80990 0.65960
C25 C 0.6902(2) 0.91034(17) 0.79312(17)
H15 H 0.62500 0.94360 0.80380
C26 C 0.8062(2) 0.94119(15) 0.86272(15)
H16 H 0.82090 0.99520 0.92140
C27 C 0.9016(2) 0.89288(16) 0.84661(15)
H17 H 0.98190 0.91430 0.89420
C28 C 0.87980(17) 0.81246(13) 0.76033(13)
H18 H 0.94540 0.77950 0.74990
C29 C -0.10272(16) 0.33540(12) 0.83611(14)
H19 H -0.17830 0.30660 0.78370
C30 C -0.07558(18) 0.29409(14) 0.92315(14)
H20 H -0.13180 0.23610 0.93000
C31 C 0.03675(18) 0.33708(14) 1.00438(14)
H21 H 0.05440 0.30690 1.06410
C32 C 0.11898(16) 0.42128(13) 0.99668(13)
H22 H 0.19190 0.44970 1.05200
C33 C 0.09633(14) 0.46737(12) 0.90577(12)
C34 C 0.17859(13) 0.55303(11) 0.89567(11)
H23 H 0.25130 0.58260 0.95090
C35 C 0.15689(12) 0.59757(11) 0.80481(11)
C36 C 0.23996(13) 0.68517(11) 0.79378(11)
C37 C 0.21751(12) 0.72345(11) 0.69945(11)
C38 C 0.29912(13) 0.80980(11) 0.68410(12)
H24 H 0.36990 0.84430 0.73940
C39 C 0.27860(13) 0.84532(11) 0.59071(12)
C40 C 0.36019(14) 0.93324(12) 0.57491(13)
H25 H 0.43100 0.96870 0.62970
C41 C 0.33735(15) 0.96618(13) 0.48269(14)
H26 H 0.39210 1.02430 0.47440
C42 C 0.23132(15) 0.91380(13) 0.39789(13)
H27 H 0.21700 0.93710 0.33400
C43 C 0.15093(14) 0.83048(13) 0.40893(12)
H28 H 0.08130 0.79670 0.35230
C44 C 0.17004(13) 0.79297(11) 0.50497(12)
C45 C 0.08810(13) 0.70952(11) 0.51905(11)
H29 H 0.01710 0.67620 0.46350
C46 C 0.10742(12) 0.67281(11) 0.61362(11)
C47 C 0.02363(13) 0.58865(11) 0.62742(12)
H30 H -0.04890 0.55720 0.57270
C48 C 0.04461(13) 0.55008(11) 0.71991(11)
C49 C -0.04030(13) 0.46462(11) 0.73320(12)
H31 H -0.11450 0.43550 0.67940
C50 C -0.01749(14) 0.42281(11) 0.82263(12)
C51 C 0.35312(13) 0.73902(11) 0.88136(11)
C52 C 0.34744(17) 0.82295(14) 0.95350(14)
H32 H 0.27090 0.84460 0.94950
C53 C 0.4535(2) 0.87577(16) 1.03197(16)
H33 H 0.44820 0.93340 1.08020
C54 C 0.56473(19) 0.84591(16) 1.04055(16)
H34 H 0.63600 0.88200 1.09460
C55 C 0.57209(17) 0.76282(19) 0.96989(17)
H35 H 0.64910 0.74170 0.97500
C56 C 0.46661(16) 0.70908(16) 0.89028(15)
H36 H 0.47280 0.65180 0.84210
loop_
_geom_bond_atom_site_label_1
_geom_bond_atom_site_label_2
_geom_bond_distance
_geom_bond_site_symmetry_1
_geom_bond_site_symmetry_2
C1 H1 0.940 1_555 1_555
C2 C1 1.347 1_555 1_555
H2 C2 0.939 1_555 1_555
C3 C2 1.421 1_555 1_555
H3 C3 0.940 1_555 1_555
C4 C3 1.356 1_555 1_555
H4 C4 0.940 1_555 1_555
C5 C4 1.432 1_555 1_555
C6 C5 1.385 1_555 1_555
H5 C6 0.940 1_555 1_555
C7 C6 1.413 1_555 1_555
C8 C7 1.412 1_555 1_555
C9 C8 1.412 1_555 1_555
C10 C9 1.409 1_555 1_555
H6 C10 0.940 1_555 1_555
C11 C10 1.385 1_555 1_555
C12 C11 1.432 1_555 1_555
H7 C12 0.940 1_555 1_555
C13 C12 1.355 1_555 1_555
H8 C13 0.940 1_555 1_555
C14 C13 1.425 1_555 1_555
H9 C14 0.940 1_555 1_555
C15 C14 1.350 1_555 1_555
H10 C15 0.940 1_555 1_555
C16 C11 1.448 1_555 1_555
C17 C16 1.378 1_555 1_555
H11 C17 0.940 1_555 1_555
C18 C9 1.455 1_555 1_555
C19 C18 1.396 1_555 1_555
H12 C19 0.939 1_555 1_555
C20 C7 1.452 1_555 1_555
C21 C20 1.410 1_555 1_555
H13 C21 0.940 1_555 1_555
C22 C1 1.436 1_555 1_555
C23 C8 1.499 1_555 1_555
C24 C23 1.382 1_555 1_555
H14 C24 0.940 1_555 1_555
C25 C24 1.382 1_555 1_555
H15 C25 0.940 1_555 1_555
C26 C25 1.363 1_555 1_555
H16 C26 0.940 1_555 1_555
C27 C26 1.374 1_555 1_555
H17 C27 0.940 1_555 1_555
C28 C23 1.381 1_555 1_555
H18 C28 0.941 1_555 1_555
C29 H19 0.940 1_555 1_555
C30 C29 1.351 1_555 1_555
H20 C30 0.940 1_555 1_555
C31 C30 1.420 1_555 1_555
H21 C31 0.940 1_555 1_555
C32 C31 1.358 1_555 1_555
H22 C32 0.940 1_555 1_555
C33 C32 1.429 1_555 1_555
C34 C33 1.384 1_555 1_555
H23 C34 0.940 1_555 1_555
C35 C34 1.417 1_555 1_555
C36 C35 1.412 1_555 1_555
C37 C36 1.413 1_555 1_555
C38 C37 1.415 1_555 1_555
H24 C38 0.940 1_555 1_555
C39 C38 1.383 1_555 1_555
C40 C39 1.432 1_555 1_555
H25 C40 0.940 1_555 1_555
C41 C40 1.352 1_555 1_555
H26 C41 0.940 1_555 1_555
C42 C41 1.424 1_555 1_555
H27 C42 0.940 1_555 1_555
C43 C42 1.355 1_555 1_555
H28 C43 0.940 1_555 1_555
C44 C39 1.447 1_555 1_555
C45 C44 1.383 1_555 1_555
H29 C45 0.940 1_555 1_555
C46 C37 1.453 1_555 1_555
C47 C46 1.399 1_555 1_555
H30 C47 0.940 1_555 1_555
C48 C35 1.453 1_555 1_555
C49 C48 1.416 1_555 1_555
H31 C49 0.940 1_555 1_555
C50 C29 1.437 1_555 1_555
C51 C36 1.494 1_555 1_555
C52 C51 1.376 1_555 1_555
H32 C52 0.940 1_555 1_555
C53 C52 1.383 1_555 1_555
H33 C53 0.940 1_555 1_555
C54 C53 1.352 1_555 1_555
H34 C54 0.940 1_555 1_555
C55 C54 1.363 1_555 1_555
H35 C55 0.940 1_555 1_555
C56 C51 1.377 1_555 1_555
H36 C56 0.940 1_555 1_555
C5 C22 1.445 1_555 1_555
C15 C16 1.434 1_555 1_555
C17 C18 1.411 1_555 1_555
C19 C20 1.395 1_555 1_555
C21 C22 1.379 1_555 1_555
C27 C28 1.389 1_555 1_555
C33 C50 1.446 1_555 1_555
C43 C44 1.429 1_555 1_555
C45 C46 1.405 1_555 1_555
C47 C48 1.393 1_555 1_555
C49 C50 1.380 1_555 1_555
C55 C56 1.390 1_555 1_555
#END
