
#######################################################################
#
#                 Cambridge Crystallographic Data Centre
#                                CCDC
#
#######################################################################
#
# If this CIF has been generated from an entry in the Cambridge
# Structural Database, then it will include bibliographic, chemical,
# crystal, experimental, refinement or atomic coordinate data resulting
# from the CCDC's data processing and validation procedures.
#
#######################################################################

data_CSD_CIF_VEHCAM
_audit_creation_date 1990-11-19
_audit_creation_method CSD-ConQuest-V1
_database_code_CSD VEHCAM
_chemical_formula_sum 'C58 H38'
_chemical_formula_moiety
;
C58 H38
;
_journal_coden_Cambridge 35
_journal_volume 55
_journal_year 1990
_journal_page_first 1937
_journal_name_full 'J.Org.Chem. '
loop_
_publ_author_name
"N.Smyth"
"D.van Engen"
"R.A.Pascal Junior"
_chemical_name_systematic
;
9,10,11,12,13,14-Hexaphenylbenzo(b)triphenylene
;
_chemical_melting_point 638.15
_cell_volume   4048.696
_exptl_crystal_colour 'yellow'
_exptl_crystal_density_diffrn 1.21
_exptl_special_details
;
Melting point range 638.15-638.65K

;
_diffrn_ambient_temperature ?
_diffrn_special_details
;
The study was carried out at room temperature,in the range 283-303K

;
#These two values have been output from a single CSD field.
_refine_ls_R_factor_gt 0.068
_refine_ls_wR_factor_gt 0.068
_symmetry_cell_setting monoclinic
_symmetry_space_group_name_H-M 'P 21/n'
_symmetry_Int_Tables_number 14
loop_
_symmetry_equiv_pos_site_id
_symmetry_equiv_pos_as_xyz
1 x,y,z
2 1/2-x,1/2+y,1/2-z
3 -x,-y,-z
4 -1/2+x,-1/2-y,-1/2+z
_cell_length_a 13.111(3)
_cell_length_b 13.131(4)
_cell_length_c 23.835(6)
_cell_angle_alpha 90
_cell_angle_beta 99.37(2)
_cell_angle_gamma 90
_cell_formula_units_Z 4
loop_
_atom_type_symbol
_atom_type_radius_bond
C 0.68
H 0.23
loop_
_atom_site_label
_atom_site_type_symbol
_atom_site_fract_x
_atom_site_fract_y
_atom_site_fract_z
C1 C 0.3533(3) 0.2097(2) 0.0143(1)
C2 C 0.4424(2) 0.2093(2) -0.0108(1)
C3 C 0.4646(3) 0.1331(2) -0.0535(1)
C4 C 0.4213(3) 0.0348(3) -0.0573(2)
C5 C 0.4491(3) -0.0372(3) -0.0935(2)
C6 C 0.5216(3) -0.0142(3) -0.1276(2)
C7 C 0.5676(3) 0.0793(3) -0.1238(2)
C8 C 0.5407(3) 0.1545(3) -0.0868(1)
C9 C 0.5912(3) 0.2542(3) -0.0820(1)
C10 C 0.6429(3) 0.2899(3) -0.1251(2)
C11 C 0.6872(3) 0.3834(3) -0.1232(2)
C12 C 0.6805(3) 0.4464(3) -0.0772(2)
C13 C 0.6317(3) 0.4134(3) -0.0339(1)
C14 C 0.5858(2) 0.3164(2) -0.0345(1)
C15 C 0.5217(2) 0.2828(2) 0.0082(1)
C16 C 0.5294(2) 0.3217(2) 0.0632(1)
C17 C 0.4478(2) 0.3019(2) 0.0956(1)
C18 C 0.4567(3) 0.3189(3) 0.1565(1)
C19 C 0.3677(3) 0.3161(3) 0.1804(1)
C20 C 0.2692(3) 0.3046(3) 0.1469(1)
C21 C 0.2589(3) 0.2811(2) 0.0893(1)
C22 C 0.3525(2) 0.2654(2) 0.0654(1)
C23 C 0.2622(3) 0.1471(2) -0.0104(1)
C24 C 0.2127(3) 0.1622(3) -0.0651(1)
C25 C 0.1319(3) 0.1013(3) -0.0893(2)
C26 C 0.1003(3) 0.0223(4) -0.0575(2)
C27 C 0.1484(3) 0.0066(3) -0.0027(2)
C28 C 0.2282(3) 0.0683(3) 0.0216(2)
C29 C 0.6178(2) 0.3885(3) 0.0874(1)
C30 C 0.7194(3) 0.3560(3) 0.0920(2)
C31 C 0.8003(3) 0.4214(4) 0.1095(2)
C32 C 0.7810(3) 0.5210(4) 0.1222(2)
C33 C 0.6812(3) 0.5545(3) 0.1186(2)
C34 C 0.6008(3) 0.4888(3) 0.1019(1)
C35 C 0.5572(3) 0.3295(3) 0.1949(1)
C36 C 0.6230(3) 0.2463(4) 0.2059(2)
C37 C 0.7113(4) 0.2510(5) 0.2454(2)
C38 C 0.7373(4) 0.3384(5) 0.2757(2)
C39 C 0.6738(3) 0.4225(4) 0.2653(2)
C40 C 0.5850(3) 0.4175(3) 0.2263(2)
C41 C 0.3738(3) 0.3237(3) 0.2439(1)
C42 C 0.4045(3) 0.2403(3) 0.2775(2)
C43 C 0.4076(4) 0.2448(4) 0.3356(2)
C44 C 0.3797(4) 0.3310(5) 0.3607(2)
C45 C 0.3496(4) 0.4149(4) 0.3285(2)
C46 C 0.3466(3) 0.4116(3) 0.2698(2)
C47 C 0.1752(3) 0.3212(3) 0.1741(1)
C48 C 0.1384(4) 0.2426(5) 0.2043(2)
C49 C 0.0505(4) 0.2590(7) 0.2300(2)
C50 C 0.0034(4) 0.3529(7) 0.2247(2)
C51 C 0.0405(4) 0.4302(6) 0.1964(2)
C52 C 0.1254(3) 0.4135(4) 0.1702(2)
C53 C 0.1557(3) 0.2885(3) 0.0528(1)
C54 C 0.1403(3) 0.3604(3) 0.0088(1)
C55 C 0.0439(3) 0.3801(3) -0.0209(2)
C56 C -0.0410(3) 0.3281(4) -0.0088(2)
C57 C -0.0263(3) 0.2537(3) 0.0329(2)
C58 C 0.0687(3) 0.2348(3) 0.0630(2)
H1 H 0.37080 0.01770 -0.03390
H2 H 0.41810 -0.10360 -0.09520
H3 H 0.53970 -0.06390 -0.15390
H4 H 0.61940 0.09410 -0.14680
H5 H 0.64720 0.24650 -0.15710
H6 H 0.72250 0.40570 -0.15330
H7 H 0.71020 0.51340 -0.07570
H8 H 0.62860 0.45780 -0.00220
H9 H 0.23510 0.21660 -0.08710
H10 H 0.09790 0.11330 -0.12750
H11 H 0.04470 -0.02150 -0.07390
H12 H 0.12610 -0.04820 0.01900
H13 H 0.26040 0.05740 0.06030
H14 H 0.73350 0.28680 0.08270
H15 H 0.87020 0.39740 0.11300
H16 H 0.83750 0.56700 0.13350
H17 H 0.66760 0.62390 0.12780
H18 H 0.53110 0.51260 0.10020
H19 H 0.60610 0.18400 0.18540
H20 H 0.75540 0.19240 0.25190
H21 H 0.79890 0.34120 0.30370
H22 H 0.69190 0.48470 0.28570
H23 H 0.54090 0.47610 0.22030
H24 H 0.42390 0.17870 0.26030
H25 H 0.42970 0.18620 0.35850
H26 H 0.38110 0.33290 0.40110
H27 H 0.33040 0.47620 0.34620
H28 H 0.32550 0.47070 0.24720
H29 H 0.17260 0.17780 0.20760
H30 H 0.02380 0.20550 0.25090
H31 H -0.05730 0.36390 0.24160
H32 H 0.00800 0.49590 0.19440
H33 H 0.15020 0.46750 0.14890
H34 H 0.19870 0.39670 -0.00070
H35 H 0.03550 0.43050 -0.05050
H36 H -0.10900 0.34310 -0.02880
H37 H -0.08440 0.21480 0.04070
H38 H 0.07630 0.18320 0.09190
loop_
_geom_bond_atom_site_label_1
_geom_bond_atom_site_label_2
_geom_bond_distance
_geom_bond_site_symmetry_1
_geom_bond_site_symmetry_2
C1 C2 1.396 1_555 1_555
C2 C3 1.489 1_555 1_555
C3 C4 1.407 1_555 1_555
C4 C5 1.369 1_555 1_555
C5 C6 1.381 1_555 1_555
C6 C7 1.364 1_555 1_555
C7 C8 1.407 1_555 1_555
C8 C3 1.401 1_555 1_555
C9 C8 1.463 1_555 1_555
C10 C9 1.400 1_555 1_555
C11 C10 1.356 1_555 1_555
C12 C11 1.388 1_555 1_555
C13 C12 1.370 1_555 1_555
C14 C9 1.407 1_555 1_555
C15 C2 1.437 1_555 1_555
C16 C15 1.395 1_555 1_555
C17 C16 1.441 1_555 1_555
C18 C17 1.454 1_555 1_555
C19 C18 1.380 1_555 1_555
C20 C19 1.412 1_555 1_555
C21 C20 1.392 1_555 1_555
C22 C1 1.422 1_555 1_555
C23 C1 1.490 1_555 1_555
C24 C23 1.373 1_555 1_555
C25 C24 1.377 1_555 1_555
C26 C25 1.387 1_555 1_555
C27 C26 1.370 1_555 1_555
C28 C23 1.401 1_555 1_555
C29 C16 1.493 1_555 1_555
C30 C29 1.386 1_555 1_555
C31 C30 1.376 1_555 1_555
C32 C31 1.375 1_555 1_555
C33 C32 1.370 1_555 1_555
C34 C29 1.389 1_555 1_555
C35 C18 1.483 1_555 1_555
C36 C35 1.390 1_555 1_555
C37 C36 1.370 1_555 1_555
C38 C37 1.369 1_555 1_555
C39 C38 1.381 1_555 1_555
C40 C35 1.393 1_555 1_555
C41 C19 1.506 1_555 1_555
C42 C41 1.378 1_555 1_555
C43 C42 1.380 1_555 1_555
C44 C43 1.358 1_555 1_555
C45 C44 1.364 1_555 1_555
C46 C41 1.383 1_555 1_555
C47 C20 1.499 1_555 1_555
C48 C47 1.389 1_555 1_555
C49 C48 1.407 1_555 1_555
C50 C49 1.376 1_555 1_555
C51 C50 1.352 1_555 1_555
C52 C47 1.373 1_555 1_555
C53 C21 1.488 1_555 1_555
C54 C53 1.401 1_555 1_555
C55 C54 1.369 1_555 1_555
C56 C55 1.376 1_555 1_555
C57 C56 1.385 1_555 1_555
C58 C53 1.396 1_555 1_555
H1 C4 0.959 1_555 1_555
H2 C5 0.960 1_555 1_555
H3 C6 0.961 1_555 1_555
H4 C7 0.960 1_555 1_555
H5 C10 0.961 1_555 1_555
H6 C11 0.961 1_555 1_555
H7 C12 0.960 1_555 1_555
H8 C13 0.960 1_555 1_555
H9 C24 0.960 1_555 1_555
H10 C25 0.959 1_555 1_555
H11 C26 0.960 1_555 1_555
H12 C27 0.959 1_555 1_555
H13 C28 0.961 1_555 1_555
H14 C30 0.960 1_555 1_555
H15 C31 0.960 1_555 1_555
H16 C32 0.960 1_555 1_555
H17 C33 0.961 1_555 1_555
H18 C34 0.960 1_555 1_555
H19 C36 0.960 1_555 1_555
H20 C37 0.960 1_555 1_555
H21 C38 0.961 1_555 1_555
H22 C39 0.960 1_555 1_555
H23 C40 0.959 1_555 1_555
H24 C42 0.960 1_555 1_555
H25 C43 0.960 1_555 1_555
H26 C44 0.960 1_555 1_555
H27 C45 0.961 1_555 1_555
H28 C46 0.959 1_555 1_555
H29 C48 0.959 1_555 1_555
H30 C49 0.960 1_555 1_555
H31 C50 0.960 1_555 1_555
H32 C51 0.960 1_555 1_555
H33 C52 0.959 1_555 1_555
H34 C54 0.960 1_555 1_555
H35 C55 0.961 1_555 1_555
H36 C56 0.960 1_555 1_555
H37 C57 0.960 1_555 1_555
H38 C58 0.960 1_555 1_555
C13 C14 1.408 1_555 1_555
C14 C15 1.488 1_555 1_555
C17 C22 1.420 1_555 1_555
C21 C22 1.449 1_555 1_555
C27 C28 1.374 1_555 1_555
C33 C34 1.370 1_555 1_555
C39 C40 1.368 1_555 1_555
C45 C46 1.394 1_555 1_555
C51 C52 1.380 1_555 1_555
C57 C58 1.355 1_555 1_555
#END
