
#######################################################################
#
#                 Cambridge Crystallographic Data Centre
#                                CCDC
#
#######################################################################
#
# If this CIF has been generated from an entry in the Cambridge
# Structural Database, then it will include bibliographic, chemical,
# crystal, experimental, refinement or atomic coordinate data resulting
# from the CCDC's data processing and validation procedures.
#
#######################################################################

data_CSD_CIF_VEKHOL
_audit_creation_date 2017-09-13
_audit_creation_method CSD-ConQuest-V1
_database_code_CSD VEKHOL
_database_code_depnum_ccdc_archive 'CCDC 1574372'
_chemical_formula_sum 'C28 H16'
_chemical_formula_moiety
;
C28 H16
;
_journal_coden_Cambridge 1078
_journal_year 2017
_journal_name_full 'CSD Communication(Private Communication) '
loop_
_publ_author_name
"J.G.Malecki"
_chemical_name_systematic
;
3-(phenylethynyl)perylene
;
_cell_volume    899.041
_exptl_crystal_colour 'brown'
_exptl_crystal_density_diffrn 1.302
_exptl_special_details
;
Department of Crystallography, Institute of Chemistry, University of Silesia, 
ul. Szkolna 9, 40-006, Katowice, Poland
;
_exptl_crystal_description 'plate'
_diffrn_ambient_temperature 295
#These two values have been output from a single CSD field.
_refine_ls_R_factor_gt 0.0536
_refine_ls_wR_factor_gt 0.0536
_symmetry_cell_setting monoclinic
_symmetry_space_group_name_H-M 'P 21'
_symmetry_Int_Tables_number 4
loop_
_symmetry_equiv_pos_site_id
_symmetry_equiv_pos_as_xyz
1 x,y,z
2 -x,1/2+y,-z
_cell_length_a 11.8089(12)
_cell_length_b 5.6772(5)
_cell_length_c 13.5847(13)
_cell_angle_alpha 90
_cell_angle_beta 99.193(10)
_cell_angle_gamma 90
_cell_formula_units_Z 2
loop_
_atom_type_symbol
_atom_type_radius_bond
C 0.68
H 0.23
loop_
_atom_site_label
_atom_site_type_symbol
_atom_site_fract_x
_atom_site_fract_y
_atom_site_fract_z
C1 C 0.4644(4) 0.9339(10) 0.7047(4)
C2 C 0.5217(4) 0.9374(10) 0.7858(4)
C3 C 0.5905(3) 0.9468(10) 0.8820(3)
C4 C 0.5820(4) 0.7715(10) 0.9526(3)
H1 H 0.53150 0.64660 0.93630
C5 C 0.6480(4) 0.7813(12) 1.0471(4)
H2 H 0.64130 0.66400 1.09360
C6 C 0.7231(4) 0.9648(10) 1.0714(4)
H3 H 0.76750 0.97340 1.13440
C7 C 0.7315(4) 1.1358(10) 1.0010(4)
H4 H 0.78250 1.25990 1.01700
C8 C 0.6669(4) 1.1272(9) 0.9087(3)
H5 H 0.67460 1.24550 0.86290
C9 C 0.3967(3) 0.935(1) 0.6059(3)
C10 C 0.4153(4) 1.0967(9) 0.5364(3)
H6 H 0.47290 1.20840 0.55240
C11 C 0.3498(3) 1.0980(9) 0.4416(3)
H7 H 0.36470 1.21100 0.39580
C12 C 0.2639(3) 0.9372(8) 0.4139(3)
C13 C 0.1933(3) 0.9391(9) 0.3141(3)
C14 C 0.2093(4) 1.1059(9) 0.2432(3)
H8 H 0.26630 1.21920 0.25850
C15 C 0.1411(4) 1.1075(10) 0.1487(3)
H9 H 0.15340 1.22210 0.10270
C16 C 0.0580(3) 0.9454(10) 0.1235(3)
H10 H 0.01420 0.94830 0.06030
C17 C 0.0372(3) 0.7709(9) 0.1930(3)
C18 C -0.0499(4) 0.6018(10) 0.1688(4)
H11 H -0.09420 0.60180 0.10580
C19 C -0.0693(4) 0.4403(11) 0.2366(4)
H12 H -0.12680 0.32900 0.21960
C20 C -0.0042(4) 0.4367(10) 0.3324(3)
H13 H -0.02040 0.32480 0.37820
C21 C 0.0835(3) 0.5962(9) 0.3602(3)
C22 C 0.1536(3) 0.5921(8) 0.4596(3)
C23 C 0.1367(4) 0.4284(10) 0.5304(3)
H14 H 0.07890 0.31680 0.51470
C24 C 0.2032(4) 0.4242(10) 0.6250(3)
H15 H 0.18950 0.31040 0.67090
C25 C 0.2880(4) 0.5855(10) 0.6505(3)
H16 H 0.33220 0.58110 0.71360
C26 C 0.3091(3) 0.7598(9) 0.5814(3)
C27 C 0.2417(3) 0.7634(8) 0.4847(3)
C28 C 0.1049(3) 0.7692(9) 0.2890(3)
loop_
_geom_bond_atom_site_label_1
_geom_bond_atom_site_label_2
_geom_bond_distance
_geom_bond_site_symmetry_1
_geom_bond_site_symmetry_2
C1 C2 1.197 1_555 1_555
C2 C3 1.425 1_555 1_555
C3 C4 1.397 1_555 1_555
C4 H1 0.930 1_555 1_555
C5 C4 1.392 1_555 1_555
H2 C5 0.930 1_555 1_555
C6 C5 1.374 1_555 1_555
H3 C6 0.931 1_555 1_555
C7 C6 1.377 1_555 1_555
H4 C7 0.930 1_555 1_555
C8 C3 1.375 1_555 1_555
H5 C8 0.930 1_555 1_555
C9 C1 1.448 1_555 1_555
C10 C9 1.360 1_555 1_555
H6 C10 0.930 1_555 1_555
C11 C10 1.392 1_555 1_555
H7 C11 0.930 1_555 1_555
C12 C11 1.372 1_555 1_555
C13 C12 1.474 1_555 1_555
C14 C13 1.385 1_555 1_555
H8 C14 0.930 1_555 1_555
C15 C14 1.402 1_555 1_555
H9 C15 0.929 1_555 1_555
C16 C15 1.349 1_555 1_555
H10 C16 0.929 1_555 1_555
C17 C16 1.417 1_555 1_555
C18 C17 1.407 1_555 1_555
H11 C18 0.929 1_555 1_555
C19 C18 1.345 1_555 1_555
H12 C19 0.929 1_555 1_555
C20 C19 1.402 1_555 1_555
H13 C20 0.930 1_555 1_555
C21 C20 1.382 1_555 1_555
C22 C21 1.467 1_555 1_555
C23 C22 1.375 1_555 1_555
H14 C23 0.931 1_555 1_555
C24 C23 1.395 1_555 1_555
H15 C24 0.930 1_555 1_555
C25 C24 1.360 1_555 1_555
H16 C25 0.930 1_555 1_555
C26 C9 1.435 1_555 1_555
C27 C12 1.431 1_555 1_555
C28 C13 1.422 1_555 1_555
C7 C8 1.360 1_555 1_555
C17 C28 1.417 1_555 1_555
C21 C28 1.429 1_555 1_555
C22 C27 1.425 1_555 1_555
C25 C26 1.413 1_555 1_555
C26 C27 1.423 1_555 1_555
#END
