
#######################################################################
#
#                 Cambridge Crystallographic Data Centre
#                                CCDC
#
#######################################################################
#
# If this CIF has been generated from an entry in the Cambridge
# Structural Database, then it will include bibliographic, chemical,
# crystal, experimental, refinement or atomic coordinate data resulting
# from the CCDC's data processing and validation procedures.
#
#######################################################################

data_CSD_CIF_VERKUB
_audit_creation_date 2018-01-23
_audit_creation_method CSD-ConQuest-V1
_database_code_CSD VERKUB
_database_code_depnum_ccdc_archive 'CCDC 1571708'
_chemical_formula_sum 'C40 H24'
_chemical_formula_moiety
;
C40 H24
;
_journal_coden_Cambridge 1326
_journal_volume 20
_journal_year 2018
_journal_page_first 4167
_journal_name_full 'Phys.Chem.Chem.Phys.(PCCP) '
loop_
_publ_author_name
"Anuja Singh"
"A.K.Pati"
"A.K.Mishra"
_chemical_name_systematic
;
9-{4-(naphthalen-1-yl)-2-[(naphthalen-1-yl)ethynyl]but-1-en-3-yn-1-yl}anthrace
ne
;
_cell_volume   2731.717
_exptl_crystal_colour 'yellow'
_exptl_crystal_density_diffrn 1.227
_exptl_crystal_description 'Block'
_diffrn_ambient_temperature 296
#These two values have been output from a single CSD field.
_refine_ls_R_factor_gt 0.0478
_refine_ls_wR_factor_gt 0.0478
_symmetry_cell_setting monoclinic
_symmetry_space_group_name_H-M 'P 21/n'
_symmetry_Int_Tables_number 14
loop_
_symmetry_equiv_pos_site_id
_symmetry_equiv_pos_as_xyz
1 x,y,z
2 1/2-x,1/2+y,1/2-z
3 -x,-y,-z
4 -1/2+x,-1/2-y,-1/2+z
_cell_length_a 12.6331(13)
_cell_length_b 15.3655(18)
_cell_length_c 14.1392(15)
_cell_angle_alpha 90
_cell_angle_beta 95.557(3)
_cell_angle_gamma 90
_cell_formula_units_Z 4
loop_
_atom_type_symbol
_atom_type_radius_bond
C 0.68
H 0.23
loop_
_atom_site_label
_atom_site_type_symbol
_atom_site_fract_x
_atom_site_fract_y
_atom_site_fract_z
C1 C -0.3018(9) 0.4367(5) 0.8513(4)
H1 H -0.31260 0.49650 0.84780
C2 C -0.3907(7) 0.3812(8) 0.8572(5)
H2 H -0.45860 0.40410 0.85950
C3 C -0.3742(7) 0.2935(8) 0.8596(4)
H3 H -0.43160 0.25590 0.86170
C4 C -0.2722(9) 0.2599(6) 0.8588(3)
C5 C -0.2458(9) 0.1740(8) 0.8599(5)
H4 H -0.30030 0.13370 0.86280
C6 C -0.1470(13) 0.1436(6) 0.8570(6)
H5 H -0.13550 0.08380 0.85870
C7 C -0.0614(7) 0.1990(9) 0.8517(5)
H6 H 0.00640 0.17640 0.84840
C8 C -0.0767(7) 0.2867(6) 0.8512(4)
H7 H -0.01940 0.32430 0.84900
C9 C -0.1813(8) 0.3200(7) 0.8541(3)
C10 C -0.2042(7) 0.4061(6) 0.8506(3)
C11 C -0.1120(6) 0.4700(4) 0.8436(3)
C12 C -0.0429(5) 0.5217(4) 0.8359(3)
C13 C 0.0361(4) 0.5856(4) 0.8260(4)
C14 C 0.0693(4) 0.5960(3) 0.7318(4)
C15 C 0.0998(4) 0.6103(3) 0.6558(5)
C16 C 0.1392(4) 0.6303(4) 0.5664(4)
C17 C 0.1270(4) 0.5733(4) 0.4919(5)
H8 H 0.09190 0.52080 0.49900
C18 C 0.1666(4) 0.5926(5) 0.4048(4)
H9 H 0.15810 0.55320 0.35470
C19 C 0.2175(4) 0.6695(5) 0.3944(4)
H10 H 0.24370 0.68190 0.33670
C20 C 0.2316(4) 0.7305(4) 0.4679(5)
C21 C 0.2830(4) 0.8108(5) 0.4567(4)
H11 H 0.30670 0.82470 0.39830
C22 C 0.2981(4) 0.8675(4) 0.5290(6)
H12 H 0.33300 0.91980 0.52090
C23 C 0.2611(5) 0.8477(4) 0.6170(4)
H13 H 0.27180 0.88700 0.66710
C24 C 0.2099(4) 0.7715(5) 0.6292(4)
H14 H 0.18550 0.75970 0.68780
C25 C 0.1929(4) 0.7105(4) 0.5562(4)
C26 C 0.0759(4) 0.6353(4) 0.8979(4)
H15 H 0.04940 0.62760 0.95640
C27 C 0.1591(6) 0.7016(5) 0.8913(3)
C28 C 0.2652(7) 0.6761(5) 0.8891(3)
C29 C 0.2985(7) 0.5889(6) 0.8935(4)
H16 H 0.24820 0.54500 0.89630
C30 C 0.4024(10) 0.5678(6) 0.8937(6)
H17 H 0.42330 0.50970 0.89720
C31 C 0.4791(7) 0.6342(10) 0.8887(7)
H18 H 0.55040 0.61920 0.88880
C32 C 0.4516(8) 0.7181(8) 0.8838(5)
H19 H 0.50360 0.76050 0.88060
C33 C 0.3437(7) 0.7430(7) 0.8833(3)
C34 C 0.3124(9) 0.8284(7) 0.8773(4)
H20 H 0.36390 0.87080 0.87130
C35 C 0.2093(8) 0.8544(6) 0.8798(4)
C36 C 0.1790(8) 0.9420(7) 0.8734(5)
H21 H 0.23020 0.98410 0.86530
C37 C 0.0794(11) 0.9663(5) 0.8785(7)
H22 H 0.06160 1.02500 0.87500
C38 C 0.0008(6) 0.9042(8) 0.8892(6)
H23 H -0.06890 0.92220 0.89340
C39 C 0.0245(7) 0.8179(6) 0.8936(4)
H24 H -0.02930 0.77750 0.89950
C40 C 0.1301(6) 0.7889(6) 0.8893(3)
loop_
_geom_bond_atom_site_label_1
_geom_bond_atom_site_label_2
_geom_bond_distance
_geom_bond_site_symmetry_1
_geom_bond_site_symmetry_2
C1 H1 0.930 1_555 1_555
C2 C1 1.419 1_555 1_555
H2 C2 0.931 1_555 1_555
C3 C2 1.364 1_555 1_555
H3 C3 0.930 1_555 1_555
C4 C3 1.389 1_555 1_555
C5 C4 1.361 1_555 1_555
H4 C5 0.930 1_555 1_555
C6 C5 1.337 1_555 1_555
H5 C6 0.930 1_555 1_555
C7 C6 1.384 1_555 1_555
H6 C7 0.930 1_555 1_555
C8 C7 1.361 1_555 1_555
H7 C8 0.929 1_555 1_555
C9 C4 1.480 1_555 1_555
C10 C1 1.321 1_555 1_555
C11 C10 1.534 1_555 1_555
C12 C11 1.193 1_555 1_555
C13 C12 1.417 1_555 1_555
C14 C13 1.443 1_555 1_555
C15 C14 1.197 1_555 1_555
C16 C15 1.436 1_555 1_555
C17 C16 1.367 1_555 1_555
H8 C17 0.931 1_555 1_555
C18 C17 1.405 1_555 1_555
H9 C18 0.930 1_555 1_555
C19 C18 1.360 1_555 1_555
H10 C19 0.929 1_555 1_555
C20 C19 1.398 1_555 1_555
C21 C20 1.410 1_555 1_555
H11 C21 0.930 1_555 1_555
C22 C21 1.343 1_555 1_555
H12 C22 0.929 1_555 1_555
C23 C22 1.404 1_555 1_555
H13 C23 0.931 1_555 1_555
C24 C23 1.357 1_555 1_555
H14 C24 0.929 1_555 1_555
C25 C16 1.421 1_555 1_555
C26 C13 1.331 1_555 1_555
H15 C26 0.929 1_555 1_555
C27 C26 1.473 1_555 1_555
C28 C27 1.400 1_555 1_555
C29 C28 1.404 1_555 1_555
H16 C29 0.930 1_555 1_555
C30 C29 1.352 1_555 1_555
H17 C30 0.931 1_555 1_555
C31 C30 1.414 1_555 1_555
H18 C31 0.930 1_555 1_555
C32 C31 1.335 1_555 1_555
H19 C32 0.929 1_555 1_555
C33 C28 1.436 1_555 1_555
C34 C33 1.371 1_555 1_555
H20 C34 0.930 1_555 1_555
C35 C34 1.366 1_555 1_555
C36 C35 1.400 1_555 1_555
H21 C36 0.930 1_555 1_555
C37 C36 1.321 1_555 1_555
H22 C37 0.930 1_555 1_555
C38 C37 1.396 1_555 1_555
H23 C38 0.930 1_555 1_555
C39 C38 1.360 1_555 1_555
H24 C39 0.930 1_555 1_555
C40 C27 1.390 1_555 1_555
C8 C9 1.421 1_555 1_555
C9 C10 1.354 1_555 1_555
C20 C25 1.418 1_555 1_555
C24 C25 1.395 1_555 1_555
C32 C33 1.415 1_555 1_555
C35 C40 1.435 1_555 1_555
C39 C40 1.413 1_555 1_555
#END
