
#######################################################################
#
#                 Cambridge Crystallographic Data Centre
#                                CCDC
#
#######################################################################
#
# If this CIF has been generated from an entry in the Cambridge
# Structural Database, then it will include bibliographic, chemical,
# crystal, experimental, refinement or atomic coordinate data resulting
# from the CCDC's data processing and validation procedures.
#
#######################################################################

data_CSD_CIF_VIBKAS
_audit_creation_date 1991-06-25
_audit_creation_method CSD-ConQuest-V1
_database_code_CSD VIBKAS
_chemical_formula_sum 'C19 H14'
_chemical_formula_moiety
;
C19 H14
;
_journal_coeditor_code "IUCr MU0148"
_journal_coden_Cambridge 591
_journal_volume 46
_journal_year 1990
_journal_page_first 2450
_journal_name_full 'Acta Crystallogr.,Sect.C:Cryst.Struct.Commun. '
loop_
_publ_author_name
"D.W.Jones"
"J.D.Shaw"
"C.E.Briant"
_chemical_name_systematic
;
5-Methylbenz(a)anthracene
;
_cell_volume   2585.048
_exptl_crystal_colour 'colorless'
_exptl_crystal_density_diffrn 1.25
_exptl_special_details
;
carcinogenic activity

;
_diffrn_ambient_temperature ?
_diffrn_special_details
;
The study was carried out at room temperature,in the range 283-303K

;
#These two values have been output from a single CSD field.
_refine_ls_R_factor_gt 0.053
_refine_ls_wR_factor_gt 0.053
_symmetry_cell_setting monoclinic
_symmetry_space_group_name_H-M 'P 21/c'
_symmetry_Int_Tables_number 14
loop_
_symmetry_equiv_pos_site_id
_symmetry_equiv_pos_as_xyz
1 x,y,z
2 -x,1/2+y,1/2-z
3 -x,-y,-z
4 x,-1/2-y,-1/2+z
_cell_length_a 5.994(1)
_cell_length_b 23.482(6)
_cell_length_c 18.367(2)
_cell_angle_alpha 90
_cell_angle_beta 90.57(1)
_cell_angle_gamma 90
_cell_formula_units_Z 8
loop_
_atom_type_symbol
_atom_type_radius_bond
C 0.68
H 0.23
loop_
_atom_site_label
_atom_site_type_symbol
_atom_site_fract_x
_atom_site_fract_y
_atom_site_fract_z
C1 C 0.1434(6) 0.3454(2) 0.1222(2)
C2 C 0.1173(7) 0.4024(2) 0.1458(2)
C3 C 0.2613(8) 0.4434(2) 0.1226(2)
C4 C 0.4384(7) 0.4295(2) 0.0759(2)
C5 C 0.6526(6) 0.3572(2) 0.0061(2)
C6 C 0.6833(6) 0.3032(2) -0.0129(2)
C7 C 0.5682(6) 0.2026(2) -0.0128(2)
C8 C 0.4556(6) 0.1013(2) -0.0180(2)
C9 C 0.3033(7) 0.0607(2) -0.0021(2)
C10 C 0.1138(7) 0.0733(2) 0.0376(2)
C11 C 0.0758(6) 0.1272(2) 0.0615(2)
C12 C 0.1935(6) 0.2282(1) 0.0698(2)
C13 C 0.3147(6) 0.3304(1) 0.0762(2)
C14 C 0.4665(5) 0.3733(1) 0.0536(2)
C15 C 0.5324(5) 0.2574(2) 0.0093(2)
C16 C 0.4215(5) 0.1592(1) 0.0050(2)
C17 C 0.2277(5) 0.1718(1) 0.0461(2)
C18 C 0.3454(5) 0.2714(1) 0.0524(2)
C19 C 0.8099(8) 0.4029(2) -0.0210(3)
C20 C 0.6344(6) 0.1435(2) 0.2020(2)
C21 C 0.6014(7) 0.0873(2) 0.1776(2)
C22 C 0.7458(7) 0.0457(2) 0.1980(2)
C23 C 0.9288(7) 0.0577(2) 0.2447(2)
C24 C 1.1503(6) 0.1270(2) 0.3170(2)
C25 C 1.1895(6) 0.1800(2) 0.3373(2)
C26 C 1.0842(6) 0.2818(2) 0.3383(2)
C27 C 0.9848(7) 0.3828(2) 0.3464(2)
C28 C 0.8401(8) 0.4255(2) 0.3301(2)
C29 C 0.6490(8) 0.4155(2) 0.2872(2)
C30 C 0.6030(7) 0.3625(2) 0.2622(2)
C31 C 0.7058(6) 0.2601(2) 0.2538(2)
C32 C 0.8130(6) 0.1571(1) 0.2468(2)
C33 C 0.9602(5) 0.1136(1) 0.2690(2)
C34 C 1.0415(5) 0.2275(2) 0.3149(2)
C35 C 0.9419(5) 0.3269(1) 0.32000
C36 C 0.7465(5) 0.3168(1) 0.2783(2)
C37 C 0.8530(6) 0.2160(1) 0.2718(2)
C38 C 1.2982(8) 0.0804(2) 0.3449(3)
H1 H 0.0485(55) 0.3156(14) 0.1385(18)
H2 H -0.0100(63) 0.4121(16) 0.1790(21)
H3 H 0.2473(69) 0.4846(18) 0.1394(23)
H4 H 0.5810(56) 0.4552(14) 0.0527(18)
H5 H 0.8227(54) 0.2912(13) -0.0429(18)
H6 H 0.7042(57) 0.1939(14) -0.0427(19)
H7 H 0.5912(60) 0.0957(15) -0.0433(20)
H8 H 0.3328(60) 0.0192(16) -0.0206(21)
H9 H -0.0052(59) 0.0415(15) 0.0477(19)
H10 H -0.0600(56) 0.1357(14) 0.0861(18)
H11 H 0.0703(47) 0.2339(12) 0.0988(15)
H12 H 0.9301(67) 0.3883(16) -0.0483(21)
H13 H 0.8728(64) 0.4247(16) 0.0211(22)
H14 H 0.7345(66) 0.4316(17) -0.0436(23)
H15 H 0.5379(58) 0.1760(15) 0.1866(19)
H16 H 0.4706(53) 0.0799(13) 0.1451(18)
H17 H 0.7175(67) 0.0022(18) 0.1787(23)
H18 H 1.0543(58) 0.0321(15) 0.2693(19)
H19 H 1.3249(54) 0.1894(13) 0.3697(18)
H20 H 1.2339(63) 0.2871(16) 0.3681(21)
H21 H 1.1233(60) 0.3892(15) 0.3722(20)
H22 H 0.8624(61) 0.4637(16) 0.3442(21)
H23 H 0.5456(66) 0.4444(17) 0.2750(21)
H24 H 0.4645(62) 0.3543(15) 0.2317(20)
H25 H 0.5784(49) 0.2584(12) 0.2259(16)
H26 H 1.4180(69) 0.0935(17) 0.3732(22)
H27 H 1.2180(65) 0.0533(17) 0.3706(22)
H28 H 1.3615(65) 0.0581(16) 0.3058(22)
loop_
_geom_bond_atom_site_label_1
_geom_bond_atom_site_label_2
_geom_bond_distance
_geom_bond_site_symmetry_1
_geom_bond_site_symmetry_2
C1 C2 1.416 1_555 1_555
C2 C3 1.364 1_555 1_555
C3 C4 1.410 1_555 1_555
C4 C14 1.393 1_555 1_555
C5 C6 1.328 1_555 1_555
C6 C15 1.466 1_555 1_555
C7 C15 1.367 1_555 1_555
C8 C9 1.354 1_555 1_555
C9 C10 1.388 1_555 1_555
C10 C11 1.360 1_555 1_555
C11 C17 1.418 1_555 1_555
C12 C17 1.410 1_555 1_555
C13 C1 1.382 1_555 1_555
C14 C5 1.472 1_555 1_555
C15 C18 1.417 1_555 1_555
C16 C7 1.387 1_555 1_555
C17 C16 1.423 1_555 1_555
C18 C12 1.402 1_555 1_555
C19 C5 1.516 1_555 1_555
C20 C21 1.407 1_555 1_555
C21 C22 1.355 1_555 1_555
C22 C23 1.414 1_555 1_555
C23 C33 1.399 1_555 1_555
C24 C25 1.320 1_555 1_555
C25 C34 1.481 1_555 1_555
C26 C34 1.369 1_555 1_555
C27 C28 1.357 1_555 1_555
C28 C29 1.404 1_555 1_555
C29 C30 1.354 1_555 1_555
C30 C36 1.405 1_555 1_555
C31 C36 1.426 1_555 1_555
C32 C20 1.381 1_555 1_555
C33 C24 1.468 1_555 1_555
C34 C37 1.399 1_555 1_555
C35 C26 1.399 1_555 1_555
C36 C35 1.413 1_555 1_555
C37 C31 1.398 1_555 1_555
C38 C24 1.496 1_555 1_555
H1 C1 0.952 1_555 1_555
H2 C2 1.008 1_555 1_555
H3 C3 1.019 1_555 1_555
H4 C4 1.133 1_555 1_555
H5 C6 1.044 1_555 1_555
H6 C7 1.008 1_555 1_555
H7 C8 0.949 1_555 1_555
H8 C9 1.048 1_555 1_555
H9 C10 1.050 1_555 1_555
H10 C11 0.956 1_555 1_555
H11 C12 0.925 1_555 1_555
H12 C19 0.946 1_555 1_555
H13 C19 0.998 1_555 1_555
H14 C19 0.909 1_555 1_555
H15 C20 0.997 1_555 1_555
H16 C21 0.996 1_555 1_555
H17 C22 1.094 1_555 1_555
H18 C23 1.060 1_555 1_555
H19 C25 1.026 1_555 1_555
H20 C26 1.054 1_555 1_555
H21 C27 0.964 1_555 1_555
H22 C28 0.943 1_555 1_555
H23 C29 0.945 1_555 1_555
H24 C30 1.015 1_555 1_555
H25 C31 0.916 1_555 1_555
H26 C38 0.934 1_555 1_555
H27 C38 0.929 1_555 1_555
H28 C38 0.969 1_555 1_555
C8 C16 1.439 1_555 1_555
C13 C14 1.422 1_555 1_555
C13 C18 1.465 1_555 1_555
C27 C35 1.422 1_555 1_555
C32 C33 1.407 1_555 1_555
C32 C37 1.476 1_555 1_555
#END
