
#######################################################################
#
#                 Cambridge Crystallographic Data Centre
#                                CCDC
#
#######################################################################
#
# If this CIF has been generated from an entry in the Cambridge
# Structural Database, then it will include bibliographic, chemical,
# crystal, experimental, refinement or atomic coordinate data resulting
# from the CCDC's data processing and validation procedures.
#
#######################################################################

data_CSD_CIF_VIGKEB
_audit_creation_date 1991-08-27
_audit_creation_method CSD-ConQuest-V1
_database_code_CSD VIGKEB
_chemical_formula_sum 'C19 H14'
_chemical_formula_moiety
;
C19 H14
;
_journal_coeditor_code "IUCr BU0238"
_journal_coden_Cambridge 622
_journal_volume 47
_journal_year 1991
_journal_page_first 97
_journal_name_full 'Acta Crystallogr.,Sect.B:Struct.Sci. '
loop_
_publ_author_name
"D.E.Zacharias"
"K.Prout"
"C.B.Myers"
"J.P.Glusker"
_chemical_name_systematic
;
6-Methylchrysene
;
_cell_volume   1282.999
_exptl_crystal_colour 'colorless'
_exptl_crystal_density_diffrn 1.261
_diffrn_ambient_temperature ?
_diffrn_special_details
;
The study was carried out at room temperature,in the range 283-303K

;
#These two values have been output from a single CSD field.
_refine_ls_R_factor_gt 0.039
_refine_ls_wR_factor_gt 0.039
_symmetry_cell_setting orthorhombic
_symmetry_space_group_name_H-M 'P n a 21'
_symmetry_Int_Tables_number 33
loop_
_symmetry_equiv_pos_site_id
_symmetry_equiv_pos_as_xyz
1 x,y,z
2 1/2-x,1/2+y,1/2+z
3 1/2+x,1/2-y,z
4 -x,-y,1/2+z
_cell_length_a 10.840(2)
_cell_length_b 20.812(4)
_cell_length_c 5.687(8)
_cell_angle_alpha 90
_cell_angle_beta 90
_cell_angle_gamma 90
_cell_formula_units_Z 4
loop_
_atom_type_symbol
_atom_type_radius_bond
C 0.68
H 0.23
loop_
_atom_site_label
_atom_site_type_symbol
_atom_site_fract_x
_atom_site_fract_y
_atom_site_fract_z
C1 C 0.1402(2) 0.11836(9) 0.0792(5)
C2 C 0.0561(2) 0.13146(9) 0.2537(6)
C3 C 0.0361(2) 0.0869(1) 0.4315(5)
C4 C 0.1006(2) 0.0299(1) 0.4387(5)
C5 C 0.2437(2) -0.09189(9) 0.4383(5)
C6 C 0.3097(2) -0.14706(9) 0.4457(5)
C7 C 0.4821(2) -0.21276(9) 0.2817(6)
C8 C 0.5753(2) -0.2213(1) 0.1212(6)
C9 C 0.5963(2) -0.1755(1) -0.0527(6)
C10 C 0.5244(2) -0.1213(1) -0.0644(5)
C11 C 0.3693(2) -0.0052(1) -0.0884(5)
C12 C 0.3004(2) 0.0490(1) -0.0923(6)
C13 C 0.2094(2) 0.06101(9) 0.0843(5)
C14 C 0.1900(2) 0.01553(9) 0.2641(5)
C15 C 0.2624(2) -0.04308(9) 0.2648(5)
C16 C 0.3529(2) -0.05260(9) 0.0904(6)
C17 C 0.4279(2) -0.11045(8) 0.0983(4)
C18 C 0.4061(2) -0.15734(9) 0.2748(5)
C19 C 0.2810(2) -0.19724(9) 0.6309(5)
H1 H 0.153(2) 0.1475(9) -0.057(5)
H2 H 0.009(2) 0.171(1) 0.247(5)
H3 H -0.022(2) 0.0958(9) 0.560(5)
H4 H 0.088(2) 0.0011(8) 0.565(4)
H5 H 0.180(2) -0.0839(9) 0.552(4)
H6 H 0.466(2) -0.247(1) 0.407(4)
H7 H 0.624(2) -0.2563(9) 0.127(5)
H8 H 0.664(2) -0.1769(9) -0.158(4)
H9 H 0.546(2) -0.0870(9) -0.190(5)
H10 H 0.434(2) -0.013(1) -0.215(5)
H11 H 0.311(2) 0.0826(9) -0.220(5)
H12 H 0.221(2) -0.182(1) 0.738(6)
H13 H 0.348(3) -0.209(1) 0.725(7)
H14 H 0.247(3) -0.237(1) 0.554(5)
loop_
_geom_bond_atom_site_label_1
_geom_bond_atom_site_label_2
_geom_bond_distance
_geom_bond_site_symmetry_1
_geom_bond_site_symmetry_2
C1 C2 1.375 1_555 1_555
C2 C3 1.389 1_555 1_555
C3 C4 1.378 1_555 1_555
C4 C14 1.419 1_555 1_555
C5 C6 1.354 1_555 1_555
C6 C18 1.443 1_555 1_555
C7 C8 1.373 1_555 1_555
C8 C9 1.392 1_555 1_555
C9 C10 1.373 1_555 1_555
C10 C17 1.415 1_555 1_555
C11 C12 1.353 1_555 1_555
C12 C13 1.430 1_555 1_555
C13 C1 1.410 1_555 1_555
C14 C13 1.409 1_555 1_555
C15 C5 1.431 1_555 1_555
C16 C11 1.428 1_555 1_555
C17 C16 1.453 1_555 1_555
C18 C7 1.418 1_555 1_555
C19 C6 1.516 1_555 1_555
H1 C1 0.993 1_555 1_555
H2 C2 0.969 1_555 1_555
H3 C3 0.982 1_555 1_555
H4 C4 0.945 1_555 1_555
H5 C5 0.960 1_555 1_555
H6 C7 1.023 1_555 1_555
H7 C8 0.900 1_555 1_555
H8 C9 0.948 1_555 1_555
H9 C10 1.037 1_555 1_555
H10 C11 1.018 1_555 1_555
H11 C12 1.015 1_555 1_555
H12 C19 0.946 1_555 1_555
H13 C19 0.935 1_555 1_555
H14 C19 1.006 1_555 1_555
C14 C15 1.450 1_555 1_555
C15 C16 1.409 1_555 1_555
C17 C18 1.420 1_555 1_555
#END
