
#######################################################################
#
#                 Cambridge Crystallographic Data Centre
#                                CCDC
#
#######################################################################
#
# If this CIF has been generated from an entry in the Cambridge
# Structural Database, then it will include bibliographic, chemical,
# crystal, experimental, refinement or atomic coordinate data resulting
# from the CCDC's data processing and validation procedures.
#
#######################################################################

data_CSD_CIF_VIHJIH
_audit_creation_date 2013-10-02
_audit_creation_method CSD-ConQuest-V1
_database_code_CSD VIHJIH
_database_code_depnum_ccdc_archive 'CCDC 933453'
_chemical_formula_sum 'C20 H16'
_chemical_formula_moiety
;
C20 H16
;
_journal_coden_Cambridge 1291
_journal_year 2013
_journal_page_first 6038
_journal_name_full 'Eur.J.Org.Chem. '
loop_
_publ_author_name
"P.Quayle"
"S.G.Yeates"
"M.Litle"
"J.Raftery"
_chemical_name_systematic
;
4,10-Dimethylchrysene
;
_cell_volume   1303.882
_exptl_crystal_colour 'white'
_exptl_crystal_density_diffrn 1.306
_exptl_crystal_description 'block'
_diffrn_ambient_temperature 100
#These two values have been output from a single CSD field.
_refine_ls_R_factor_gt 0.0572
_refine_ls_wR_factor_gt 0.0572
_symmetry_cell_setting monoclinic
_symmetry_space_group_name_H-M 'P 21/c'
_symmetry_Int_Tables_number 14
loop_
_symmetry_equiv_pos_site_id
_symmetry_equiv_pos_as_xyz
1 x,y,z
2 -x,1/2+y,1/2-z
3 -x,-y,-z
4 x,-1/2-y,-1/2+z
_cell_length_a 7.3762(16)
_cell_length_b 11.836(3)
_cell_length_c 14.947(3)
_cell_angle_alpha 90
_cell_angle_beta 92.311(4)
_cell_angle_gamma 90
_cell_formula_units_Z 4
loop_
_atom_type_symbol
_atom_type_radius_bond
C 0.68
H 0.23
loop_
_atom_site_label
_atom_site_type_symbol
_atom_site_fract_x
_atom_site_fract_y
_atom_site_fract_z
C1 C 0.7605(3) 0.3154(2) 1.01699(17)
C2 C 0.7974(3) 0.3650(2) 0.93226(17)
C3 C 0.7832(3) 0.4848(2) 0.91080(17)
C4 C 0.7886(3) 0.5714(2) 0.97738(17)
H1 H 0.80170 0.55040 1.03870
C5 C 0.7756(3) 0.6816(2) 0.95615(17)
H2 H 0.79100 0.73660 1.00210
C6 C 0.7392(3) 0.7179(2) 0.86615(17)
C7 C 0.7029(3) 0.8329(3) 0.84908(18)
H3 H 0.71180 0.88600 0.89680
C8 C 0.6548(3) 0.8691(3) 0.76410(18)
H4 H 0.63390 0.94690 0.75190
C9 C 0.6373(3) 0.7884(2) 0.69588(18)
H5 H 0.59750 0.81290 0.63780
C10 C 0.6747(3) 0.6752(2) 0.70839(17)
C11 C 0.7334(3) 0.6375(2) 0.79637(17)
C12 C 0.7802(3) 0.5216(2) 0.81932(17)
C13 C 0.8394(3) 0.4419(2) 0.75491(17)
H6 H 0.85230 0.46630 0.69500
C14 C 0.8776(3) 0.3339(2) 0.77567(16)
H7 H 0.92520 0.28580 0.73150
C15 C 0.8482(3) 0.2899(2) 0.86276(17)
C16 C 0.8694(3) 0.1734(2) 0.87810(18)
H8 H 0.90700 0.12570 0.83130
C17 C 0.8362(3) 0.1287(3) 0.96002(17)
H9 H 0.85240 0.05020 0.97100
C18 C 0.7775(3) 0.2006(2) 1.02775(17)
H10 H 0.74820 0.16840 1.08360
C19 C 0.6968(3) 0.3799(2) 1.09833(15)
H11 H 0.64530 0.32670 1.14070
H12 H 0.60400 0.43500 1.07910
H13 H 0.80000 0.41930 1.12740
C20 C 0.6370(3) 0.5981(2) 0.62880(16)
H14 H 0.55070 0.63480 0.58650
H15 H 0.58540 0.52680 0.64940
H16 H 0.75050 0.58290 0.59910
loop_
_geom_bond_atom_site_label_1
_geom_bond_atom_site_label_2
_geom_bond_distance
_geom_bond_site_symmetry_1
_geom_bond_site_symmetry_2
C1 C2 1.432 1_555 1_555
C2 C3 1.457 1_555 1_555
C3 C4 1.428 1_555 1_555
C4 H1 0.951 1_555 1_555
C5 C4 1.345 1_555 1_555
H2 C5 0.950 1_555 1_555
C6 C5 1.427 1_555 1_555
C7 C6 1.409 1_555 1_555
H3 C7 0.951 1_555 1_555
C8 C7 1.374 1_555 1_555
H4 C8 0.950 1_555 1_555
C9 C8 1.399 1_555 1_555
H5 C9 0.950 1_555 1_555
C10 C9 1.379 1_555 1_555
C11 C6 1.411 1_555 1_555
C12 C3 1.434 1_555 1_555
C13 C12 1.429 1_555 1_555
H6 C13 0.949 1_555 1_555
C14 C13 1.343 1_555 1_555
H7 C14 0.950 1_555 1_555
C15 C2 1.429 1_555 1_555
C16 C15 1.406 1_555 1_555
H8 C16 0.949 1_555 1_555
C17 C16 1.365 1_555 1_555
H9 C17 0.950 1_555 1_555
C18 C1 1.373 1_555 1_555
H10 C18 0.950 1_555 1_555
C19 C1 1.526 1_555 1_555
H11 C19 0.980 1_555 1_555
H12 C19 0.980 1_555 1_555
H13 C19 0.979 1_555 1_555
C20 C10 1.516 1_555 1_555
H14 C20 0.980 1_555 1_555
H15 C20 0.980 1_555 1_555
H16 C20 0.980 1_555 1_555
C10 C11 1.439 1_555 1_555
C11 C12 1.452 1_555 1_555
C14 C15 1.427 1_555 1_555
C17 C18 1.404 1_555 1_555
#END
