
#######################################################################
#
#                 Cambridge Crystallographic Data Centre
#                                CCDC
#
#######################################################################
#
# If this CIF has been generated from an entry in the Cambridge
# Structural Database, then it will include bibliographic, chemical,
# crystal, experimental, refinement or atomic coordinate data resulting
# from the CCDC's data processing and validation procedures.
#
#######################################################################

data_CSD_CIF_VIHJON
_audit_creation_date 2013-10-02
_audit_creation_method CSD-ConQuest-V1
_database_code_CSD VIHJON
_database_code_depnum_ccdc_archive 'CCDC 933452'
_chemical_formula_sum 'C30 H20'
_chemical_formula_moiety
;
C30 H20
;
_journal_coden_Cambridge 1291
_journal_year 2013
_journal_page_first 6038
_journal_name_full 'Eur.J.Org.Chem. '
loop_
_publ_author_name
"P.Quayle"
"S.G.Yeates"
"M.Litle"
"J.Raftery"
_chemical_name_systematic
;
4,10-Diphenylchrysene
;
_cell_volume   1970.173
_exptl_crystal_colour 'white'
_exptl_crystal_density_diffrn 1.283
_exptl_crystal_description 'block'
_diffrn_ambient_temperature 100
#These two values have been output from a single CSD field.
_refine_ls_R_factor_gt 0.058
_refine_ls_wR_factor_gt 0.058
_symmetry_cell_setting triclinic
_symmetry_space_group_name_H-M 'P -1'
_symmetry_Int_Tables_number 2
loop_
_symmetry_equiv_pos_site_id
_symmetry_equiv_pos_as_xyz
1 x,y,z
2 -x,-y,-z
_cell_length_a 10.2889(13)
_cell_length_b 11.8850(15)
_cell_length_c 17.653(2)
_cell_angle_alpha 70.719(2)
_cell_angle_beta 75.589(2)
_cell_angle_gamma 82.236(2)
_cell_formula_units_Z 4
loop_
_atom_type_symbol
_atom_type_radius_bond
C 0.68
H 0.23
loop_
_atom_site_label
_atom_site_type_symbol
_atom_site_fract_x
_atom_site_fract_y
_atom_site_fract_z
C1 C 0.8041(2) -0.1167(2) 0.32459(14)
C2 C 0.8311(2) -0.1416(2) 0.25054(14)
H1 H 0.78980 -0.20670 0.24810
C3 C 0.9157(2) -0.0756(2) 0.17983(15)
H2 H 0.93160 -0.09540 0.13030
C4 C 0.9755(2) 0.0179(2) 0.18265(14)
H3 H 1.03280 0.06430 0.13450
C5 C 0.9529(2) 0.0464(2) 0.25649(14)
C6 C 1.0205(2) 0.1430(2) 0.25722(14)
H4 H 1.08390 0.18210 0.20950
C7 C 0.9965(2) 0.1801(2) 0.32378(13)
H5 H 1.04010 0.24740 0.32100
C8 C 0.9073(2) 0.12100(19) 0.39873(13)
C9 C 0.8852(2) 0.1613(2) 0.47089(13)
C10 C 0.9166(2) 0.2758(2) 0.47026(13)
C11 C 0.9049(2) 0.2971(2) 0.54416(14)
H6 H 0.92840 0.37240 0.54300
C12 C 0.8601(2) 0.2133(2) 0.62026(14)
H7 H 0.85680 0.22960 0.66990
C13 C 0.8210(2) 0.1071(2) 0.62184(14)
H8 H 0.78670 0.05050 0.67320
C14 C 0.8308(2) 0.0800(2) 0.54870(14)
C15 C 0.7878(2) -0.0303(2) 0.55228(14)
H9 H 0.75280 -0.08480 0.60450
C16 C 0.7949(2) -0.0607(2) 0.48410(14)
H10 H 0.76010 -0.13360 0.48940
C17 C 0.8536(2) 0.0144(2) 0.40393(13)
C18 C 0.8675(2) -0.0202(2) 0.32983(14)
C19 C 0.7065(2) -0.1961(2) 0.39186(14)
C20 C 0.7423(2) -0.3171(2) 0.42356(14)
H11 H 0.83030 -0.34710 0.40410
C21 C 0.6522(2) -0.3940(2) 0.48280(15)
H12 H 0.67880 -0.47590 0.50410
C22 C 0.5235(2) -0.3525(2) 0.51125(15)
H13 H 0.46160 -0.40550 0.55210
C23 C 0.4851(2) -0.2324(2) 0.47968(15)
H14 H 0.39640 -0.20330 0.49870
C24 C 0.5760(2) -0.1551(2) 0.42058(14)
H15 H 0.54900 -0.07320 0.39940
C25 C 0.9558(2) 0.37844(19) 0.39462(14)
C26 C 1.0775(2) 0.4312(2) 0.37881(14)
H16 H 1.13480 0.40140 0.41660
C27 C 1.1151(2) 0.5267(2) 0.30835(14)
H17 H 1.19890 0.56050 0.29760
C28 C 1.0313(2) 0.5726(2) 0.25396(15)
H18 H 1.05710 0.63800 0.20590
C29 C 0.9090(2) 0.5229(2) 0.26982(14)
H19 H 0.85090 0.55460 0.23260
C30 C 0.8713(2) 0.4274(2) 0.33937(14)
H20 H 0.78700 0.39460 0.34980
C31 C 0.6836(2) 0.6694(2) 0.11116(14)
C32 C 0.6407(2) 0.5597(2) 0.16362(15)
H21 H 0.67400 0.49040 0.14780
C33 C 0.5503(2) 0.5467(2) 0.23895(15)
H22 H 0.52100 0.47010 0.27300
C34 C 0.5045(2) 0.6454(2) 0.26314(15)
H23 H 0.44840 0.63670 0.31620
C35 C 0.5396(2) 0.7603(2) 0.21006(14)
C36 C 0.4875(2) 0.8620(2) 0.23477(14)
H24 H 0.43060 0.85140 0.28770
C37 C 0.5160(2) 0.9738(2) 0.18558(14)
H25 H 0.48170 1.03920 0.20580
C38 C 0.5962(2) 0.9964(2) 0.10431(14)
C39 C 0.6191(2) 1.1176(2) 0.04853(14)
C40 C 0.5868(2) 1.2251(2) 0.07168(14)
C41 C 0.6003(2) 1.3352(2) 0.01183(15)
H26 H 0.57580 1.40510 0.02810
C42 C 0.6483(2) 1.3478(2) -0.07144(15)
H27 H 0.65460 1.42470 -0.11120
C43 C 0.6863(2) 1.2477(2) -0.09497(14)
H28 H 0.72260 1.25520 -0.15130
C44 C 0.6721(2) 1.1329(2) -0.03645(14)
C45 C 0.7069(2) 1.0311(2) -0.06386(14)
H29 H 0.73910 1.04200 -0.12100
C46 C 0.6957(2) 0.9192(2) -0.01112(14)
H30 H 0.72300 0.85340 -0.03180
C47 C 0.6437(2) 0.8972(2) 0.07518(14)
C48 C 0.6256(2) 0.7752(2) 0.13091(14)
C49 C 0.8004(2) 0.6657(2) 0.04174(14)
C50 C 0.7955(3) 0.6099(2) -0.01545(14)
H31 H 0.71420 0.57770 -0.01270
C51 C 0.9072(3) 0.6007(2) -0.07623(15)
H32 H 0.90210 0.56300 -0.11510
C52 C 1.0261(3) 0.6464(2) -0.08032(15)
H33 H 1.10270 0.64020 -0.12210
C53 C 1.0339(3) 0.7010(2) -0.02376(15)
H34 H 1.11590 0.73210 -0.02650
C54 C 0.9219(2) 0.7105(2) 0.03687(14)
H35 H 0.92780 0.74800 0.07570
C55 C 0.5440(2) 1.22927(19) 0.15835(14)
C56 C 0.6320(2) 1.1923(2) 0.21130(15)
H36 H 0.72070 1.16290 0.19280
C57 C 0.5914(3) 1.1980(2) 0.29084(15)
H37 H 0.65220 1.17250 0.32670
C58 C 0.4627(3) 1.2407(2) 0.31827(15)
H38 H 0.43440 1.24310 0.37320
C59 C 0.3752(2) 1.2799(2) 0.26562(15)
H39 H 0.28700 1.31040 0.28410
C60 C 0.4160(2) 1.2749(2) 0.18584(15)
H40 H 0.35590 1.30290 0.14960
loop_
_geom_bond_atom_site_label_1
_geom_bond_atom_site_label_2
_geom_bond_distance
_geom_bond_site_symmetry_1
_geom_bond_site_symmetry_2
C1 C2 1.388 1_555 1_555
C2 H1 0.949 1_555 1_555
C3 C2 1.389 1_555 1_555
H2 C3 0.949 1_555 1_555
C4 C3 1.361 1_555 1_555
H3 C4 0.950 1_555 1_555
C5 C4 1.410 1_555 1_555
C6 C5 1.425 1_555 1_555
H4 C6 0.949 1_555 1_555
C7 C6 1.343 1_555 1_555
H5 C7 0.951 1_555 1_555
C8 C7 1.429 1_555 1_555
C9 C8 1.461 1_555 1_555
C10 C9 1.436 1_555 1_555
C11 C10 1.383 1_555 1_555
H6 C11 0.951 1_555 1_555
C12 C11 1.393 1_555 1_555
H7 C12 0.950 1_555 1_555
C13 C12 1.365 1_555 1_555
H8 C13 0.949 1_555 1_555
C14 C9 1.421 1_555 1_555
C15 C14 1.416 1_555 1_555
H9 C15 0.950 1_555 1_555
C16 C15 1.349 1_555 1_555
H10 C16 0.949 1_555 1_555
C17 C8 1.416 1_555 1_555
C18 C1 1.432 1_555 1_555
C19 C1 1.494 1_555 1_555
C20 C19 1.395 1_555 1_555
H11 C20 0.951 1_555 1_555
C21 C20 1.380 1_555 1_555
H12 C21 0.949 1_555 1_555
C22 C21 1.380 1_555 1_555
H13 C22 0.950 1_555 1_555
C23 C22 1.391 1_555 1_555
H14 C23 0.951 1_555 1_555
C24 C19 1.395 1_555 1_555
H15 C24 0.950 1_555 1_555
C25 C10 1.491 1_555 1_555
C26 C25 1.401 1_555 1_555
H16 C26 0.949 1_555 1_555
C27 C26 1.390 1_555 1_555
H17 C27 0.950 1_555 1_555
C28 C27 1.379 1_555 1_555
H18 C28 0.950 1_555 1_555
C29 C28 1.388 1_555 1_555
H19 C29 0.950 1_555 1_555
C30 C25 1.399 1_555 1_555
H20 C30 0.950 1_555 1_555
C31 C32 1.381 1_555 1_555
C32 H21 0.950 1_555 1_555
C33 C32 1.395 1_555 1_555
H22 C33 0.951 1_555 1_555
C34 C33 1.364 1_555 1_555
H23 C34 0.951 1_555 1_555
C35 C34 1.412 1_555 1_555
C36 C35 1.413 1_555 1_555
H24 C36 0.950 1_555 1_555
C37 C36 1.350 1_555 1_555
H25 C37 0.950 1_555 1_555
C38 C37 1.424 1_555 1_555
C39 C38 1.463 1_555 1_555
C40 C39 1.440 1_555 1_555
C41 C40 1.382 1_555 1_555
H26 C41 0.949 1_555 1_555
C42 C41 1.393 1_555 1_555
H27 C42 0.950 1_555 1_555
C43 C42 1.364 1_555 1_555
H28 C43 0.950 1_555 1_555
C44 C39 1.421 1_555 1_555
C45 C44 1.418 1_555 1_555
H29 C45 0.950 1_555 1_555
C46 C45 1.349 1_555 1_555
H30 C46 0.950 1_555 1_555
C47 C38 1.419 1_555 1_555
C48 C31 1.429 1_555 1_555
C49 C31 1.495 1_555 1_555
C50 C49 1.392 1_555 1_555
H31 C50 0.950 1_555 1_555
C51 C50 1.383 1_555 1_555
H32 C51 0.950 1_555 1_555
C52 C51 1.381 1_555 1_555
H33 C52 0.949 1_555 1_555
C53 C52 1.381 1_555 1_555
H34 C53 0.950 1_555 1_555
C54 C49 1.396 1_555 1_555
H35 C54 0.950 1_555 1_555
C55 C40 1.499 1_555 1_555
C56 C55 1.389 1_555 1_555
H36 C56 0.950 1_555 1_555
C57 C56 1.383 1_555 1_555
H37 C57 0.950 1_555 1_555
C58 C57 1.381 1_555 1_555
H38 C58 0.949 1_555 1_555
C59 C58 1.382 1_555 1_555
H39 C59 0.950 1_555 1_555
C60 C55 1.388 1_555 1_555
H40 C60 0.950 1_555 1_555
C5 C18 1.421 1_555 1_555
C13 C14 1.408 1_555 1_555
C16 C17 1.432 1_555 1_555
C17 C18 1.465 1_555 1_555
C23 C24 1.386 1_555 1_555
C29 C30 1.381 1_555 1_555
C35 C48 1.425 1_555 1_555
C43 C44 1.414 1_555 1_555
C46 C47 1.430 1_555 1_555
C47 C48 1.464 1_555 1_555
C53 C54 1.385 1_555 1_555
C59 C60 1.385 1_555 1_555
#END
