
#######################################################################
#
#                 Cambridge Crystallographic Data Centre
#                                CCDC
#
#######################################################################
#
# If this CIF has been generated from an entry in the Cambridge
# Structural Database, then it will include bibliographic, chemical,
# crystal, experimental, refinement or atomic coordinate data resulting
# from the CCDC's data processing and validation procedures.
#
#######################################################################

data_CSD_CIF_VOCREM
_audit_creation_date 2014-02-15
_audit_creation_method CSD-ConQuest-V1
_database_code_CSD VOCREM
_database_code_depnum_ccdc_archive 'CCDC 891703'
_chemical_formula_sum 'C34 H20'
_chemical_formula_moiety
;
C34 H20
;
_journal_coden_Cambridge 1094
_journal_volume 24
_journal_year 2013
_journal_page_first 1229
_journal_name_full 'Struct.Chem. '
loop_
_publ_author_name
"N.Assasi"
"S.Pogodin"
"S.Cohen"
"I.Agranat"
_chemical_name_systematic
;
11-(11H-Benzo[a]fluoren-11-ylidene)-11H-benzo[a]fluorene
;
_cell_volume   4388.201
_exptl_crystal_colour 'red'
_exptl_crystal_density_diffrn 1.297
_diffrn_ambient_temperature 295
#These two values have been output from a single CSD field.
_refine_ls_R_factor_gt 0.1149
_refine_ls_wR_factor_gt 0.1149
_symmetry_cell_setting monoclinic
_symmetry_space_group_name_H-M 'C 2/c'
_symmetry_Int_Tables_number 15
loop_
_symmetry_equiv_pos_site_id
_symmetry_equiv_pos_as_xyz
1 x,y,z
2 -x,y,1/2-z
3 1/2+x,1/2+y,z
4 1/2-x,1/2+y,1/2-z
5 -x,-y,-z
6 x,-y,-1/2+z
7 -1/2-x,-1/2-y,-z
8 -1/2+x,-1/2-y,-1/2+z
_cell_length_a 26.737(4)
_cell_length_b 6.8695(9)
_cell_length_c 23.979(3)
_cell_angle_alpha 90
_cell_angle_beta 94.888(2)
_cell_angle_gamma 90
_cell_formula_units_Z 8
loop_
_atom_type_symbol
_atom_type_radius_bond
C 0.68
H 0.23
loop_
_atom_site_label
_atom_site_type_symbol
_atom_site_fract_x
_atom_site_fract_y
_atom_site_fract_z
C1 C 0.76062(14) 0.7627(5) 0.40729(15)
H1 H 0.7296(13) 0.785(5) 0.4225(14)
C2 C 0.80449(15) 0.7814(6) 0.44044(17)
H2 H 0.8054(15) 0.817(6) 0.4800(18)
C3 C 0.85072(16) 0.7521(6) 0.4188(2)
H3 H 0.8820(19) 0.761(7) 0.442(2)
C4 C 0.85186(15) 0.7155(6) 0.3636(2)
H4 H 0.8825(14) 0.696(5) 0.3494(15)
C5 C 0.80783(14) 0.7028(5) 0.32721(16)
C6 C 0.80994(16) 0.6815(6) 0.26859(18)
H5 H 0.8422(13) 0.673(5) 0.2544(14)
C7 C 0.76772(16) 0.6793(5) 0.23270(16)
H6 H 0.7683(14) 0.676(6) 0.1917(16)
C8 C 0.72082(14) 0.6893(4) 0.25457(14)
C9 C 0.67050(15) 0.7072(5) 0.22533(14)
C10 C 0.65493(19) 0.6979(6) 0.16893(16)
H7 H 0.6776(13) 0.671(5) 0.1428(16)
C11 C 0.60433(19) 0.7185(6) 0.15292(17)
H8 H 0.5936(14) 0.717(6) 0.1140(17)
C12 C 0.57001(18) 0.7435(6) 0.19197(17)
H9 H 0.5342(16) 0.748(6) 0.1801(17)
C13 C 0.58541(15) 0.7491(5) 0.24853(17)
H10 H 0.5615(13) 0.758(5) 0.2749(14)
C14 C 0.63603(13) 0.7346(4) 0.26555(13)
C15 C 0.66349(12) 0.7147(4) 0.32185(13)
C16 C 0.71661(13) 0.6965(5) 0.31208(13)
C17 C 0.76063(12) 0.7177(5) 0.34994(14)
C18 C 0.58830(15) 1.0870(6) 0.33711(17)
H11 H 0.6207(13) 1.062(5) 0.3233(14)
C19 C 0.5628(2) 1.2533(7) 0.3234(2)
H12 H 0.5730(18) 1.356(8) 0.297(2)
C20 C 0.5171(2) 1.2939(9) 0.3461(3)
H13 H 0.499(2) 1.409(8) 0.336(2)
C21 C 0.49966(18) 1.1689(9) 0.3832(3)
H14 H 0.4711(18) 1.196(7) 0.3999(19)
C22 C 0.52537(13) 0.9945(7) 0.39904(17)
C23 C 0.50838(16) 0.8704(8) 0.4400(2)
H15 H 0.4788(16) 0.901(6) 0.4591(17)
C24 C 0.53471(17) 0.7108(8) 0.45801(18)
H16 H 0.5253(15) 0.634(6) 0.4867(17)
C25 C 0.57818(14) 0.6603(6) 0.43236(14)
C26 C 0.61439(15) 0.5038(6) 0.44555(14)
C27 C 0.6136(2) 0.3509(7) 0.48295(19)
H17 H 0.5842(17) 0.337(7) 0.5047(19)
C28 C 0.6522(2) 0.2198(8) 0.4871(2)
H18 H 0.6532(18) 0.110(8) 0.513(2)
C29 C 0.6916(2) 0.2385(7) 0.4533(2)
H19 H 0.7179(17) 0.146(7) 0.4542(19)
C30 C 0.69271(16) 0.3896(6) 0.41475(16)
H20 H 0.7214(13) 0.403(5) 0.3916(15)
C31 C 0.65456(13) 0.5254(5) 0.41162(13)
C32 C 0.64113(12) 0.6849(5) 0.37123(13)
C33 C 0.59432(12) 0.7684(5) 0.38839(13)
C34 C 0.57005(12) 0.9491(5) 0.37357(15)
loop_
_geom_bond_atom_site_label_1
_geom_bond_atom_site_label_2
_geom_bond_distance
_geom_bond_site_symmetry_1
_geom_bond_site_symmetry_2
C1 H1 0.947 1_555 1_555
C2 C1 1.366 1_555 1_555
H2 C2 0.978 1_555 1_555
C3 C2 1.395 1_555 1_555
H3 C3 0.966 1_555 1_555
C4 C3 1.350 1_555 1_555
H4 C4 0.923 1_555 1_555
C5 C4 1.407 1_555 1_555
C6 C5 1.419 1_555 1_555
H5 C6 0.956 1_555 1_555
C7 C6 1.360 1_555 1_555
H6 C7 0.985 1_555 1_555
C8 C7 1.402 1_555 1_555
C9 C8 1.468 1_555 1_555
C10 C9 1.382 1_555 1_555
H7 C10 0.927 1_555 1_555
C11 C10 1.382 1_555 1_555
H8 C11 0.953 1_555 1_555
C12 C11 1.376 1_555 1_555
H9 C12 0.976 1_555 1_555
C13 C12 1.384 1_555 1_555
H10 C13 0.939 1_555 1_555
C14 C9 1.402 1_555 1_555
C15 C14 1.487 1_555 1_555
C16 C8 1.394 1_555 1_555
C17 C1 1.410 1_555 1_555
C18 H11 0.969 1_555 1_555
C19 C18 1.356 1_555 1_555
H12 C19 1.001 1_555 1_555
C20 C19 1.407 1_555 1_555
H13 C20 0.948 1_555 1_555
C21 C20 1.348 1_555 1_555
H14 C21 0.911 1_555 1_555
C22 C21 1.417 1_555 1_555
C23 C22 1.405 1_555 1_555
H15 C23 0.970 1_555 1_555
C24 C23 1.354 1_555 1_555
H16 C24 0.919 1_555 1_555
C25 C24 1.404 1_555 1_555
C26 C25 1.463 1_555 1_555
C27 C26 1.382 1_555 1_555
H17 C27 0.984 1_555 1_555
C28 C27 1.367 1_555 1_555
H18 C28 0.976 1_555 1_555
C29 C28 1.389 1_555 1_555
H19 C29 0.947 1_555 1_555
C30 C29 1.392 1_555 1_555
H20 C30 0.989 1_555 1_555
C31 C26 1.409 1_555 1_555
C32 C15 1.386 1_555 1_555
C33 C25 1.388 1_555 1_555
C34 C18 1.404 1_555 1_555
C5 C17 1.420 1_555 1_555
C13 C14 1.384 1_555 1_555
C15 C16 1.464 1_555 1_555
C16 C17 1.431 1_555 1_555
C22 C34 1.422 1_555 1_555
C30 C31 1.380 1_555 1_555
C31 C32 1.486 1_555 1_555
C32 C33 1.467 1_555 1_555
C33 C34 1.431 1_555 1_555
#END
