
#######################################################################
#
#                 Cambridge Crystallographic Data Centre
#                                CCDC
#
#######################################################################
#
# If this CIF has been generated from an entry in the Cambridge
# Structural Database, then it will include bibliographic, chemical,
# crystal, experimental, refinement or atomic coordinate data resulting
# from the CCDC's data processing and validation procedures.
#
#######################################################################

data_CSD_CIF_VOJZOL
_audit_creation_date 2014-08-21
_audit_creation_method CSD-ConQuest-V1
_database_code_CSD VOJZOL
_database_code_depnum_ccdc_archive 'CCDC 1020302'
_chemical_formula_sum 'C32 H20'
_chemical_formula_moiety
;
C32 H20
;
_journal_coden_Cambridge 1078
_journal_year 2014
_journal_name_full 'CSD Communication(Private Communication) '
loop_
_publ_author_name
"R.G.Y.Gooi"
"J.M.White"
_chemical_name_systematic
;
7,12-diphenylbenzo[k]fluoranthene
;
_cell_volume   2121.077
_exptl_crystal_colour 'orange'
_exptl_crystal_density_diffrn 1.267
_exptl_special_details
;
contribution from School of Chemistry, The University of Melbourne, Victoria, 
3010, Australia
;
_exptl_crystal_description 'block'
_exptl_crystal_preparation 'pentane'
_diffrn_ambient_temperature 130
#These two values have been output from a single CSD field.
_refine_ls_R_factor_gt 0.0488
_refine_ls_wR_factor_gt 0.0488
_symmetry_cell_setting monoclinic
_symmetry_space_group_name_H-M 'P 21'
_symmetry_Int_Tables_number 4
loop_
_symmetry_equiv_pos_site_id
_symmetry_equiv_pos_as_xyz
1 x,y,z
2 -x,1/2+y,-z
_cell_length_a 15.1680(19)
_cell_length_b 8.6257(11)
_cell_length_c 16.332(2)
_cell_angle_alpha 90
_cell_angle_beta 96.953(3)
_cell_angle_gamma 90
_cell_formula_units_Z 4
loop_
_atom_type_symbol
_atom_type_radius_bond
C 0.68
H 0.23
loop_
_atom_site_label
_atom_site_type_symbol
_atom_site_fract_x
_atom_site_fract_y
_atom_site_fract_z
C1 C 0.4325(3) 0.7645(5) 0.0683(2)
C2 C 0.3377(3) 0.7789(5) 0.0456(2)
C3 C 0.2950(3) 0.8988(5) 0.0786(2)
C4 C 0.3412(3) 1.0123(5) 0.1319(2)
C5 C 0.4315(3) 1.0020(5) 0.1537(2)
C6 C 0.4778(3) 0.8752(5) 0.1219(2)
C7 C 0.1992(3) 0.9372(5) 0.0703(2)
C8 C 0.1225(3) 0.8748(5) 0.0309(2)
H1 H 0.12500 0.78710 -0.00190
C9 C 0.0403(3) 0.9427(6) 0.0400(3)
H2 H -0.01120 0.89740 0.01400
C10 C 0.0336(3) 1.0750(6) 0.0865(3)
H3 H -0.02170 1.11910 0.09040
C11 C 0.1113(3) 1.1434(5) 0.1283(3)
C12 C 0.1160(3) 1.2776(5) 0.1793(3)
H4 H 0.06460 1.33210 0.18670
C13 C 0.1967(3) 1.3260(6) 0.2173(3)
H5 H 0.19850 1.41310 0.25100
C14 C 0.2777(3) 1.2501(5) 0.2078(3)
H6 H 0.33130 1.28580 0.23500
C15 C 0.2750(3) 1.1216(5) 0.1569(2)
C16 C 0.1915(3) 1.0730(5) 0.1183(2)
C17 C 0.5709(3) 0.8575(5) 0.1424(2)
H7 H 0.60220 0.92920 0.17710
C18 C 0.6154(3) 0.7367(5) 0.1118(3)
H8 H 0.67630 0.72670 0.12620
C19 C 0.5700(3) 0.6290(5) 0.0595(3)
H9 H 0.60080 0.54760 0.03870
C20 C 0.4804(3) 0.6415(5) 0.0383(3)
H10 H 0.45070 0.56790 0.00360
C21 C 0.2887(3) 0.6666(5) -0.0124(3)
C22 C 0.2524(3) 0.5316(5) 0.0149(3)
H11 H 0.26100 0.50630 0.07060
C23 C 0.2033(3) 0.4340(5) -0.0406(3)
H12 H 0.17870 0.34370 -0.02210
C24 C 0.1909(3) 0.4708(6) -0.1230(3)
H13 H 0.15740 0.40560 -0.16000
C25 C 0.2276(3) 0.6033(6) -0.1514(3)
H14 H 0.21920 0.62810 -0.20720
C26 C 0.2770(3) 0.6988(5) -0.0958(3)
H15 H 0.30300 0.78710 -0.11490
C27 C 0.4798(3) 1.1199(5) 0.2094(3)
C28 C 0.4999(3) 1.2655(5) 0.1807(3)
H16 H 0.48380 1.29080 0.12560
C29 C 0.5437(3) 1.3732(6) 0.2335(3)
H17 H 0.55680 1.47080 0.21400
C30 C 0.5678(3) 1.3358(6) 0.3146(3)
H18 H 0.59750 1.40830 0.35000
C31 C 0.5487(4) 1.1927(6) 0.3440(3)
H19 H 0.56560 1.16800 0.39910
C32 C 0.5041(3) 1.0848(6) 0.2917(3)
H20 H 0.49030 0.98810 0.31190
C33 C 0.2074(3) 0.7768(5) 0.5167(2)
C34 C 0.2635(3) 0.8712(6) 0.4795(3)
C35 C 0.2848(3) 1.0198(6) 0.5139(3)
C36 C 0.3431(3) 1.1210(5) 0.4791(3)
H21 H 0.36770 1.09010 0.43220
C37 C 0.3646(3) 1.2638(6) 0.5128(3)
H22 H 0.40330 1.32870 0.48900
C38 C 0.3275(3) 1.3116(6) 0.5837(3)
H23 H 0.34230 1.40800 0.60690
C39 C 0.2700(3) 1.2177(5) 0.6187(3)
H24 H 0.24540 1.25180 0.66490
C40 C 0.2476(3) 1.0700(5) 0.5858(3)
C41 C 0.1867(3) 0.9697(5) 0.6220(3)
C42 C 0.1678(3) 0.8279(5) 0.5885(3)
C43 C 0.1098(3) 0.7014(5) 0.6117(3)
C44 C 0.0562(3) 0.6791(5) 0.6720(3)
H25 H 0.05350 0.75330 0.71290
C45 C 0.0049(3) 0.5426(5) 0.6718(3)
H26 H -0.03230 0.52920 0.71250
C46 C 0.0082(3) 0.4290(5) 0.6133(3)
H27 H -0.02830 0.34240 0.61360
C47 C 0.0671(3) 0.4431(5) 0.5527(3)
C48 C 0.0832(3) 0.3341(5) 0.4923(3)
H28 H 0.05410 0.23900 0.48990
C49 C 0.1415(3) 0.3671(5) 0.4369(2)
H29 H 0.15090 0.29290 0.39760
C50 C 0.1880(3) 0.5093(5) 0.4371(3)
H30 H 0.22710 0.52870 0.39860
C51 C 0.1738(3) 0.6183(5) 0.4957(3)
C52 C 0.3006(3) 0.8137(5) 0.4043(3)
C53 C 0.2472(3) 0.8118(5) 0.3290(3)
H31 H 0.19160 0.85880 0.32430
C54 C 0.2755(4) 0.7412(6) 0.2611(3)
H32 H 0.23900 0.74030 0.21100
C55 C 0.3585(4) 0.6716(6) 0.2675(3)
H33 H 0.37740 0.62190 0.22220
C56 C 0.4124(4) 0.6766(6) 0.3411(3)
H34 H 0.46870 0.63230 0.34520
C57 C 0.3838(3) 0.7474(5) 0.4096(3)
H35 H 0.42100 0.75020 0.45920
C58 C 0.1431(3) 1.0213(5) 0.6945(3)
C59 C 0.1870(3) 1.0202(5) 0.7732(3)
H36 H 0.24650 0.99160 0.78100
C60 C 0.1456(4) 1.0601(6) 0.8411(3)
H37 H 0.17720 1.05830 0.89360
C61 C 0.0567(4) 1.1028(6) 0.8305(3)
H38 H 0.02800 1.12780 0.87600
C62 C 0.0113(3) 1.1078(5) 0.7524(3)
H39 H -0.04760 1.13980 0.74490
C63 C 0.0534(3) 1.0650(5) 0.6842(3)
H40 H 0.02170 1.06550 0.63180
C64 C 0.1154(3) 0.5828(5) 0.5535(3)
loop_
_geom_bond_atom_site_label_1
_geom_bond_atom_site_label_2
_geom_bond_distance
_geom_bond_site_symmetry_1
_geom_bond_site_symmetry_2
C1 C2 1.446 1_555 1_555
C2 C3 1.365 1_555 1_555
C3 C4 1.435 1_555 1_555
C4 C5 1.376 1_555 1_555
C5 C6 1.431 1_555 1_555
C6 C1 1.416 1_555 1_555
C7 C3 1.480 1_555 1_555
C8 C7 1.370 1_555 1_555
H1 C8 0.930 1_555 1_555
C9 C8 1.402 1_555 1_555
H2 C9 0.929 1_555 1_555
C10 C9 1.381 1_555 1_555
H3 C10 0.930 1_555 1_555
C11 C10 1.417 1_555 1_555
C12 C11 1.423 1_555 1_555
H4 C12 0.931 1_555 1_555
C13 C12 1.369 1_555 1_555
H5 C13 0.930 1_555 1_555
C14 C13 1.417 1_555 1_555
H6 C14 0.930 1_555 1_555
C15 C4 1.471 1_555 1_555
C16 C7 1.422 1_555 1_555
C17 C6 1.420 1_555 1_555
H7 C17 0.929 1_555 1_555
C18 C17 1.368 1_555 1_555
H8 C18 0.929 1_555 1_555
C19 C18 1.387 1_555 1_555
H9 C19 0.930 1_555 1_555
C20 C1 1.407 1_555 1_555
H10 C20 0.930 1_555 1_555
C21 C2 1.489 1_555 1_555
C22 C21 1.385 1_555 1_555
H11 C22 0.929 1_555 1_555
C23 C22 1.386 1_555 1_555
H12 C23 0.930 1_555 1_555
C24 C23 1.373 1_555 1_555
H13 C24 0.930 1_555 1_555
C25 C24 1.376 1_555 1_555
H14 C25 0.930 1_555 1_555
C26 C21 1.380 1_555 1_555
H15 C26 0.929 1_555 1_555
C27 C5 1.496 1_555 1_555
C28 C27 1.387 1_555 1_555
H16 C28 0.929 1_555 1_555
C29 C28 1.382 1_555 1_555
H17 C29 0.930 1_555 1_555
C30 C29 1.369 1_555 1_555
H18 C30 0.930 1_555 1_555
C31 C30 1.368 1_555 1_555
H19 C31 0.930 1_555 1_555
C32 C27 1.384 1_555 1_555
H20 C32 0.930 1_555 1_555
C33 C34 1.372 1_555 1_555
C34 C35 1.421 1_555 1_555
C35 C36 1.410 1_555 1_555
C36 H21 0.931 1_555 1_555
C37 C36 1.372 1_555 1_555
H22 C37 0.930 1_555 1_555
C38 C37 1.409 1_555 1_555
H23 C38 0.930 1_555 1_555
C39 C38 1.365 1_555 1_555
H24 C39 0.929 1_555 1_555
C40 C35 1.430 1_555 1_555
C41 C40 1.443 1_555 1_555
C42 C33 1.449 1_555 1_555
C43 C42 1.479 1_555 1_555
C44 C43 1.364 1_555 1_555
H25 C44 0.930 1_555 1_555
C45 C44 1.411 1_555 1_555
H26 C45 0.930 1_555 1_555
C46 C45 1.374 1_555 1_555
H27 C46 0.930 1_555 1_555
C47 C46 1.417 1_555 1_555
C48 C47 1.405 1_555 1_555
H28 C48 0.930 1_555 1_555
C49 C48 1.369 1_555 1_555
H29 C49 0.930 1_555 1_555
C50 C49 1.415 1_555 1_555
H30 C50 0.930 1_555 1_555
C51 C33 1.485 1_555 1_555
C52 C34 1.496 1_555 1_555
C53 C52 1.388 1_555 1_555
H31 C53 0.930 1_555 1_555
C54 C53 1.378 1_555 1_555
H32 C54 0.931 1_555 1_555
C55 C54 1.387 1_555 1_555
H33 C55 0.930 1_555 1_555
C56 C55 1.370 1_555 1_555
H34 C56 0.931 1_555 1_555
C57 C52 1.379 1_555 1_555
H35 C57 0.930 1_555 1_555
C58 C41 1.492 1_555 1_555
C59 C58 1.374 1_555 1_555
H36 C59 0.929 1_555 1_555
C60 C59 1.382 1_555 1_555
H37 C60 0.930 1_555 1_555
C61 C60 1.388 1_555 1_555
H38 C61 0.931 1_555 1_555
C62 C61 1.375 1_555 1_555
H39 C62 0.929 1_555 1_555
C63 C58 1.402 1_555 1_555
H40 C63 0.930 1_555 1_555
C64 C43 1.406 1_555 1_555
C11 C16 1.387 1_555 1_555
C14 C15 1.383 1_555 1_555
C15 C16 1.409 1_555 1_555
C19 C20 1.366 1_555 1_555
C25 C26 1.378 1_555 1_555
C31 C32 1.383 1_555 1_555
C39 C40 1.408 1_555 1_555
C41 C42 1.356 1_555 1_555
C47 C64 1.409 1_555 1_555
C50 C51 1.377 1_555 1_555
C51 C64 1.404 1_555 1_555
C56 C57 1.389 1_555 1_555
C62 C63 1.399 1_555 1_555
#END
